# vtk DataFile Version 3.0
Test VTK file for Force data
ASCII
DATASET POLYDATA
POINTS 2975 float
 -2.2000000E-01   9.9999998E-03  -3.8000000E-01
 -2.2000000E-01   9.9999998E-03  -3.6000001E-01
 -2.0000000E-01   9.9999998E-03  -4.0000001E-01
 -2.0000000E-01   9.9999998E-03  -3.8000000E-01
 -2.0000000E-01   9.9999998E-03  -3.6000001E-01
 -1.8000001E-01   9.9999998E-03  -4.0000001E-01
 -1.8000001E-01   9.9999998E-03  -3.8000000E-01
 -1.8000001E-01   9.9999998E-03  -3.6000001E-01
 -1.6000000E-01   9.9999998E-03  -4.0000001E-01
 -1.6000000E-01   9.9999998E-03  -3.8000000E-01
 -1.6000000E-01   9.9999998E-03  -3.6000001E-01
 -1.4000000E-01   9.9999998E-03  -4.0000001E-01
 -1.4000000E-01   9.9999998E-03  -3.8000000E-01
 -1.4000000E-01   9.9999998E-03  -3.6000001E-01
 -1.2000000E-01   9.9999998E-03  -4.0000001E-01
 -1.2000000E-01   9.9999998E-03  -3.8000000E-01
 -1.2000000E-01   9.9999998E-03  -3.6000001E-01
 -1.0000000E-01   9.9999998E-03  -4.0000001E-01
 -1.0000000E-01   9.9999998E-03  -3.8000000E-01
 -1.0000000E-01   9.9999998E-03  -3.6000001E-01
 -7.9999998E-02   9.9999998E-03  -4.0000001E-01
 -7.9999998E-02   9.9999998E-03  -3.8000000E-01
 -7.9999998E-02   9.9999998E-03  -3.6000001E-01
 -5.9999999E-02   9.9999998E-03  -4.0000001E-01
 -5.9999999E-02   9.9999998E-03  -3.8000000E-01
 -5.9999999E-02   9.9999998E-03  -3.6000001E-01
 -3.9999999E-02   9.9999998E-03  -4.0000001E-01
 -3.9999999E-02   9.9999998E-03  -3.8000000E-01
 -3.9999999E-02   9.9999998E-03  -3.6000001E-01
 -2.0000000E-02   9.9999998E-03  -4.0000001E-01
 -2.0000000E-02   9.9999998E-03  -3.8000000E-01
 -2.0000000E-02   9.9999998E-03  -3.6000001E-01
  0.0000000E+00   9.9999998E-03  -4.0000001E-01
  0.0000000E+00   9.9999998E-03  -3.8000000E-01
  0.0000000E+00   9.9999998E-03  -3.6000001E-01
  2.0000000E-02   9.9999998E-03  -4.0000001E-01
  2.0000000E-02   9.9999998E-03  -3.8000000E-01
  2.0000000E-02   9.9999998E-03  -3.6000001E-01
  3.9999999E-02   9.9999998E-03  -4.0000001E-01
  3.9999999E-02   9.9999998E-03  -3.8000000E-01
  3.9999999E-02   9.9999998E-03  -3.6000001E-01
  5.9999999E-02   9.9999998E-03  -4.0000001E-01
  5.9999999E-02   9.9999998E-03  -3.8000000E-01
  5.9999999E-02   9.9999998E-03  -3.6000001E-01
  7.9999998E-02   9.9999998E-03  -4.0000001E-01
  7.9999998E-02   9.9999998E-03  -3.8000000E-01
  7.9999998E-02   9.9999998E-03  -3.6000001E-01
  1.0000000E-01   9.9999998E-03  -4.0000001E-01
  1.0000000E-01   9.9999998E-03  -3.8000000E-01
  1.0000000E-01   9.9999998E-03  -3.6000001E-01
  1.2000000E-01   9.9999998E-03  -4.0000001E-01
  1.2000000E-01   9.9999998E-03  -3.8000000E-01
  1.2000000E-01   9.9999998E-03  -3.6000001E-01
  1.4000000E-01   9.9999998E-03  -4.0000001E-01
  1.4000000E-01   9.9999998E-03  -3.8000000E-01
  1.4000000E-01   9.9999998E-03  -3.6000001E-01
  1.6000000E-01   9.9999998E-03  -4.0000001E-01
  1.6000000E-01   9.9999998E-03  -3.8000000E-01
  1.6000000E-01   9.9999998E-03  -3.6000001E-01
  1.8000001E-01   9.9999998E-03  -4.0000001E-01
  1.8000001E-01   9.9999998E-03  -3.8000000E-01
  1.8000001E-01   9.9999998E-03  -3.6000001E-01
  2.0000000E-01   9.9999998E-03  -3.8000000E-01
  2.0000000E-01   9.9999998E-03  -3.6000001E-01
 -2.2000000E-01   9.9999998E-03  -3.4000000E-01
 -2.2000000E-01   9.9999998E-03  -3.1999999E-01
 -2.2000000E-01   9.9999998E-03  -3.0000001E-01
 -2.2000000E-01   9.9999998E-03  -2.8000000E-01
 -2.2000000E-01   9.9999998E-03  -2.5999999E-01
 -2.2000000E-01   9.9999998E-03  -2.3999999E-01
 -2.2000000E-01   9.9999998E-03  -2.2000000E-01
 -2.2000000E-01   9.9999998E-03  -2.0000000E-01
 -2.0000000E-01   9.9999998E-03  -3.4000000E-01
 -2.0000000E-01   9.9999998E-03  -3.1999999E-01
 -2.0000000E-01   9.9999998E-03  -3.0000001E-01
 -2.0000000E-01   9.9999998E-03  -2.8000000E-01
 -2.0000000E-01   9.9999998E-03  -2.5999999E-01
 -2.0000000E-01   9.9999998E-03  -2.3999999E-01
 -2.0000000E-01   9.9999998E-03  -2.2000000E-01
 -2.0000000E-01   9.9999998E-03  -2.0000000E-01
 -1.8000001E-01   9.9999998E-03  -3.4000000E-01
 -1.8000001E-01   9.9999998E-03  -3.1999999E-01
 -1.8000001E-01   9.9999998E-03  -3.0000001E-01
 -1.8000001E-01   9.9999998E-03  -2.8000000E-01
 -1.8000001E-01   9.9999998E-03  -2.5999999E-01
 -1.8000001E-01   9.9999998E-03  -2.3999999E-01
 -1.8000001E-01   9.9999998E-03  -2.2000000E-01
 -1.8000001E-01   9.9999998E-03  -2.0000000E-01
 -1.6000000E-01   9.9999998E-03  -3.4000000E-01
 -1.6000000E-01   9.9999998E-03  -3.1999999E-01
 -1.6000000E-01   9.9999998E-03  -3.0000001E-01
 -1.6000000E-01   9.9999998E-03  -2.8000000E-01
 -1.6000000E-01   9.9999998E-03  -2.5999999E-01
 -1.6000000E-01   9.9999998E-03  -2.3999999E-01
 -1.6000000E-01   9.9999998E-03  -2.2000000E-01
 -1.6000000E-01   9.9999998E-03  -2.0000000E-01
 -1.4000000E-01   9.9999998E-03  -3.4000000E-01
 -1.4000000E-01   9.9999998E-03  -3.1999999E-01
 -1.4000000E-01   9.9999998E-03  -3.0000001E-01
 -1.4000000E-01   9.9999998E-03  -2.8000000E-01
 -1.4000000E-01   9.9999998E-03  -2.5999999E-01
 -1.4000000E-01   9.9999998E-03  -2.3999999E-01
 -1.4000000E-01   9.9999998E-03  -2.2000000E-01
 -1.4000000E-01   9.9999998E-03  -2.0000000E-01
 -1.2000000E-01   9.9999998E-03  -3.4000000E-01
 -1.2000000E-01   9.9999998E-03  -3.1999999E-01
 -1.2000000E-01   9.9999998E-03  -3.0000001E-01
 -1.2000000E-01   9.9999998E-03  -2.8000000E-01
 -1.2000000E-01   9.9999998E-03  -2.5999999E-01
 -1.2000000E-01   9.9999998E-03  -2.3999999E-01
 -1.2000000E-01   9.9999998E-03  -2.2000000E-01
 -1.2000000E-01   9.9999998E-03  -2.0000000E-01
 -1.0000000E-01   9.9999998E-03  -3.4000000E-01
 -1.0000000E-01   9.9999998E-03  -3.1999999E-01
 -1.0000000E-01   9.9999998E-03  -3.0000001E-01
 -1.0000000E-01   9.9999998E-03  -2.8000000E-01
 -1.0000000E-01   9.9999998E-03  -2.5999999E-01
 -1.0000000E-01   9.9999998E-03  -2.3999999E-01
 -1.0000000E-01   9.9999998E-03  -2.2000000E-01
 -1.0000000E-01   9.9999998E-03  -2.0000000E-01
 -7.9999998E-02   9.9999998E-03  -3.4000000E-01
 -7.9999998E-02   9.9999998E-03  -3.1999999E-01
 -7.9999998E-02   9.9999998E-03  -3.0000001E-01
 -7.9999998E-02   9.9999998E-03  -2.8000000E-01
 -7.9999998E-02   9.9999998E-03  -2.5999999E-01
 -7.9999998E-02   9.9999998E-03  -2.3999999E-01
 -7.9999998E-02   9.9999998E-03  -2.2000000E-01
 -7.9999998E-02   9.9999998E-03  -2.0000000E-01
 -5.9999999E-02   9.9999998E-03  -3.4000000E-01
 -5.9999999E-02   9.9999998E-03  -3.1999999E-01
 -5.9999999E-02   9.9999998E-03  -3.0000001E-01
 -5.9999999E-02   9.9999998E-03  -2.8000000E-01
 -5.9999999E-02   9.9999998E-03  -2.5999999E-01
 -5.9999999E-02   9.9999998E-03  -2.3999999E-01
 -5.9999999E-02   9.9999998E-03  -2.2000000E-01
 -5.9999999E-02   9.9999998E-03  -2.0000000E-01
 -3.9999999E-02   9.9999998E-03  -3.4000000E-01
 -3.9999999E-02   9.9999998E-03  -3.1999999E-01
 -3.9999999E-02   9.9999998E-03  -3.0000001E-01
 -3.9999999E-02   9.9999998E-03  -2.8000000E-01
 -3.9999999E-02   9.9999998E-03  -2.5999999E-01
 -3.9999999E-02   9.9999998E-03  -2.3999999E-01
 -3.9999999E-02   9.9999998E-03  -2.2000000E-01
 -3.9999999E-02   9.9999998E-03  -2.0000000E-01
 -2.0000000E-02   9.9999998E-03  -3.4000000E-01
 -2.0000000E-02   9.9999998E-03  -3.1999999E-01
 -2.0000000E-02   9.9999998E-03  -3.0000001E-01
 -2.0000000E-02   9.9999998E-03  -2.8000000E-01
 -2.0000000E-02   9.9999998E-03  -2.5999999E-01
 -2.0000000E-02   9.9999998E-03  -2.3999999E-01
 -2.0000000E-02   9.9999998E-03  -2.2000000E-01
 -2.0000000E-02   9.9999998E-03  -2.0000000E-01
  0.0000000E+00   9.9999998E-03  -3.4000000E-01
  0.0000000E+00   9.9999998E-03  -3.1999999E-01
  0.0000000E+00   9.9999998E-03  -3.0000001E-01
  2.0000000E-02   9.9999998E-03  -3.4000000E-01
  2.0000000E-02   9.9999998E-03  -3.1999999E-01
  3.9999999E-02   9.9999998E-03  -3.4000000E-01
  3.9999999E-02   9.9999998E-03  -3.1999999E-01
  5.9999999E-02   9.9999998E-03  -3.4000000E-01
  5.9999999E-02   9.9999998E-03  -3.1999999E-01
  7.9999998E-02   9.9999998E-03  -3.4000000E-01
  7.9999998E-02   9.9999998E-03  -3.1999999E-01
  1.0000000E-01   9.9999998E-03  -3.4000000E-01
  1.0000000E-01   9.9999998E-03  -3.1999999E-01
  1.2000000E-01   9.9999998E-03  -3.4000000E-01
  1.2000000E-01   9.9999998E-03  -3.1999999E-01
  1.4000000E-01   9.9999998E-03  -3.4000000E-01
  1.4000000E-01   9.9999998E-03  -3.1999999E-01
  1.6000000E-01   9.9999998E-03  -3.4000000E-01
  1.6000000E-01   9.9999998E-03  -3.1999999E-01
  1.8000001E-01   9.9999998E-03  -3.4000000E-01
  1.8000001E-01   9.9999998E-03  -3.1999999E-01
  2.0000000E-01   9.9999998E-03  -3.4000000E-01
  2.0000000E-01   9.9999998E-03  -3.1999999E-01
 -2.2000000E-01   9.9999998E-03  -1.8000001E-01
 -2.2000000E-01   9.9999998E-03  -1.6000000E-01
 -2.2000000E-01   9.9999998E-03  -1.4000000E-01
 -2.2000000E-01   9.9999998E-03  -1.2000000E-01
 -2.2000000E-01   9.9999998E-03  -1.0000000E-01
 -2.2000000E-01   9.9999998E-03  -7.9999998E-02
 -2.2000000E-01   9.9999998E-03  -5.9999999E-02
 -2.2000000E-01   9.9999998E-03  -3.9999999E-02
 -2.2000000E-01   9.9999998E-03  -2.0000000E-02
 -2.0000000E-01   9.9999998E-03  -1.8000001E-01
 -2.0000000E-01   9.9999998E-03  -1.6000000E-01
 -2.0000000E-01   9.9999998E-03  -1.4000000E-01
 -2.0000000E-01   9.9999998E-03  -1.2000000E-01
 -2.0000000E-01   9.9999998E-03  -1.0000000E-01
 -2.0000000E-01   9.9999998E-03  -7.9999998E-02
 -2.0000000E-01   9.9999998E-03  -5.9999999E-02
 -2.0000000E-01   9.9999998E-03  -3.9999999E-02
 -2.0000000E-01   9.9999998E-03  -2.0000000E-02
 -1.8000001E-01   9.9999998E-03  -1.8000001E-01
 -1.8000001E-01   9.9999998E-03  -1.6000000E-01
 -1.8000001E-01   9.9999998E-03  -1.4000000E-01
 -1.8000001E-01   9.9999998E-03  -1.2000000E-01
 -1.8000001E-01   9.9999998E-03  -1.0000000E-01
 -1.8000001E-01   9.9999998E-03  -7.9999998E-02
 -1.8000001E-01   9.9999998E-03  -5.9999999E-02
 -1.8000001E-01   9.9999998E-03  -3.9999999E-02
 -1.8000001E-01   9.9999998E-03  -2.0000000E-02
 -1.6000000E-01   9.9999998E-03  -1.8000001E-01
 -1.6000000E-01   9.9999998E-03  -1.6000000E-01
 -1.6000000E-01   9.9999998E-03  -1.4000000E-01
 -1.6000000E-01   9.9999998E-03  -1.2000000E-01
 -1.6000000E-01   9.9999998E-03  -1.0000000E-01
 -1.6000000E-01   9.9999998E-03  -7.9999998E-02
 -1.6000000E-01   9.9999998E-03  -5.9999999E-02
 -1.6000000E-01   9.9999998E-03  -3.9999999E-02
 -1.6000000E-01   9.9999998E-03  -2.0000000E-02
 -1.4000000E-01   9.9999998E-03  -1.8000001E-01
 -1.4000000E-01   9.9999998E-03  -1.6000000E-01
 -1.4000000E-01   9.9999998E-03  -1.4000000E-01
 -1.4000000E-01   9.9999998E-03  -1.2000000E-01
 -1.4000000E-01   9.9999998E-03  -1.0000000E-01
 -1.4000000E-01   9.9999998E-03  -7.9999998E-02
 -1.4000000E-01   9.9999998E-03  -5.9999999E-02
 -1.4000000E-01   9.9999998E-03  -3.9999999E-02
 -1.4000000E-01   9.9999998E-03  -2.0000000E-02
 -1.2000000E-01   9.9999998E-03  -1.8000001E-01
 -1.2000000E-01   9.9999998E-03  -1.6000000E-01
 -1.2000000E-01   9.9999998E-03  -1.4000000E-01
 -1.2000000E-01   9.9999998E-03  -1.2000000E-01
 -1.2000000E-01   9.9999998E-03  -1.0000000E-01
 -1.2000000E-01   9.9999998E-03  -7.9999998E-02
 -1.2000000E-01   9.9999998E-03  -5.9999999E-02
 -1.2000000E-01   9.9999998E-03  -3.9999999E-02
 -1.2000000E-01   9.9999998E-03  -2.0000000E-02
 -1.0000000E-01   9.9999998E-03  -1.8000001E-01
 -1.0000000E-01   9.9999998E-03  -1.6000000E-01
 -1.0000000E-01   9.9999998E-03  -1.4000000E-01
 -1.0000000E-01   9.9999998E-03  -1.2000000E-01
 -1.0000000E-01   9.9999998E-03  -1.0000000E-01
 -1.0000000E-01   9.9999998E-03  -7.9999998E-02
 -1.0000000E-01   9.9999998E-03  -5.9999999E-02
 -1.0000000E-01   9.9999998E-03  -3.9999999E-02
 -1.0000000E-01   9.9999998E-03  -2.0000000E-02
 -7.9999998E-02   9.9999998E-03  -1.8000001E-01
 -7.9999998E-02   9.9999998E-03  -1.6000000E-01
 -7.9999998E-02   9.9999998E-03  -1.4000000E-01
 -7.9999998E-02   9.9999998E-03  -1.2000000E-01
 -7.9999998E-02   9.9999998E-03  -1.0000000E-01
 -7.9999998E-02   9.9999998E-03  -7.9999998E-02
 -7.9999998E-02   9.9999998E-03  -5.9999999E-02
 -7.9999998E-02   9.9999998E-03  -3.9999999E-02
 -7.9999998E-02   9.9999998E-03  -2.0000000E-02
 -5.9999999E-02   9.9999998E-03  -1.8000001E-01
 -5.9999999E-02   9.9999998E-03  -1.6000000E-01
 -5.9999999E-02   9.9999998E-03  -1.4000000E-01
 -5.9999999E-02   9.9999998E-03  -1.2000000E-01
 -5.9999999E-02   9.9999998E-03  -1.0000000E-01
 -5.9999999E-02   9.9999998E-03  -7.9999998E-02
 -5.9999999E-02   9.9999998E-03  -5.9999999E-02
 -5.9999999E-02   9.9999998E-03  -3.9999999E-02
 -5.9999999E-02   9.9999998E-03  -2.0000000E-02
 -3.9999999E-02   9.9999998E-03  -1.8000001E-01
 -3.9999999E-02   9.9999998E-03  -1.6000000E-01
 -3.9999999E-02   9.9999998E-03  -1.4000000E-01
 -3.9999999E-02   9.9999998E-03  -1.2000000E-01
 -3.9999999E-02   9.9999998E-03  -1.0000000E-01
 -3.9999999E-02   9.9999998E-03  -7.9999998E-02
 -3.9999999E-02   9.9999998E-03  -5.9999999E-02
 -3.9999999E-02   9.9999998E-03  -3.9999999E-02
 -3.9999999E-02   9.9999998E-03  -2.0000000E-02
 -2.0000000E-02   9.9999998E-03  -1.8000001E-01
 -2.0000000E-02   9.9999998E-03  -1.6000000E-01
 -2.0000000E-02   9.9999998E-03  -1.4000000E-01
 -2.0000000E-02   9.9999998E-03  -1.2000000E-01
 -2.0000000E-02   9.9999998E-03  -1.0000000E-01
 -2.0000000E-02   9.9999998E-03  -7.9999998E-02
 -2.0000000E-02   9.9999998E-03  -5.9999999E-02
 -2.0000000E-02   9.9999998E-03  -3.9999999E-02
 -2.0000000E-02   9.9999998E-03  -2.0000000E-02
 -2.2000000E-01   9.9999998E-03   0.0000000E+00
 -2.2000000E-01   9.9999998E-03   2.0000000E-02
 -2.2000000E-01   9.9999998E-03   3.9999999E-02
 -2.2000000E-01   9.9999998E-03   5.9999999E-02
 -2.2000000E-01   9.9999998E-03   7.9999998E-02
 -2.2000000E-01   9.9999998E-03   1.0000000E-01
 -2.2000000E-01   9.9999998E-03   1.2000000E-01
 -2.2000000E-01   9.9999998E-03   1.4000000E-01
 -2.0000000E-01   9.9999998E-03   0.0000000E+00
 -2.0000000E-01   9.9999998E-03   2.0000000E-02
 -2.0000000E-01   9.9999998E-03   3.9999999E-02
 -2.0000000E-01   9.9999998E-03   5.9999999E-02
 -2.0000000E-01   9.9999998E-03   7.9999998E-02
 -2.0000000E-01   9.9999998E-03   1.0000000E-01
 -2.0000000E-01   9.9999998E-03   1.2000000E-01
 -2.0000000E-01   9.9999998E-03   1.4000000E-01
 -1.8000001E-01   9.9999998E-03   0.0000000E+00
 -1.8000001E-01   9.9999998E-03   2.0000000E-02
 -1.8000001E-01   9.9999998E-03   3.9999999E-02
 -1.8000001E-01   9.9999998E-03   5.9999999E-02
 -1.8000001E-01   9.9999998E-03   7.9999998E-02
 -1.8000001E-01   9.9999998E-03   1.0000000E-01
 -1.8000001E-01   9.9999998E-03   1.2000000E-01
 -1.8000001E-01   9.9999998E-03   1.4000000E-01
 -1.6000000E-01   9.9999998E-03   0.0000000E+00
 -1.6000000E-01   9.9999998E-03   2.0000000E-02
 -1.6000000E-01   9.9999998E-03   3.9999999E-02
 -1.6000000E-01   9.9999998E-03   5.9999999E-02
 -1.6000000E-01   9.9999998E-03   7.9999998E-02
 -1.6000000E-01   9.9999998E-03   1.0000000E-01
 -1.6000000E-01   9.9999998E-03   1.2000000E-01
 -1.6000000E-01   9.9999998E-03   1.4000000E-01
 -1.4000000E-01   9.9999998E-03   0.0000000E+00
 -1.4000000E-01   9.9999998E-03   2.0000000E-02
 -1.4000000E-01   9.9999998E-03   3.9999999E-02
 -1.4000000E-01   9.9999998E-03   5.9999999E-02
 -1.4000000E-01   9.9999998E-03   7.9999998E-02
 -1.4000000E-01   9.9999998E-03   1.0000000E-01
 -1.4000000E-01   9.9999998E-03   1.2000000E-01
 -1.4000000E-01   9.9999998E-03   1.4000000E-01
 -1.2000000E-01   9.9999998E-03   0.0000000E+00
 -1.2000000E-01   9.9999998E-03   2.0000000E-02
 -1.2000000E-01   9.9999998E-03   3.9999999E-02
 -1.2000000E-01   9.9999998E-03   5.9999999E-02
 -1.2000000E-01   9.9999998E-03   7.9999998E-02
 -1.2000000E-01   9.9999998E-03   1.0000000E-01
 -1.2000000E-01   9.9999998E-03   1.2000000E-01
 -1.2000000E-01   9.9999998E-03   1.4000000E-01
 -1.0000000E-01   9.9999998E-03   0.0000000E+00
 -1.0000000E-01   9.9999998E-03   2.0000000E-02
 -1.0000000E-01   9.9999998E-03   3.9999999E-02
 -1.0000000E-01   9.9999998E-03   5.9999999E-02
 -1.0000000E-01   9.9999998E-03   7.9999998E-02
 -1.0000000E-01   9.9999998E-03   1.0000000E-01
 -1.0000000E-01   9.9999998E-03   1.2000000E-01
 -1.0000000E-01   9.9999998E-03   1.4000000E-01
 -7.9999998E-02   9.9999998E-03   0.0000000E+00
 -7.9999998E-02   9.9999998E-03   2.0000000E-02
 -7.9999998E-02   9.9999998E-03   3.9999999E-02
 -7.9999998E-02   9.9999998E-03   5.9999999E-02
 -7.9999998E-02   9.9999998E-03   7.9999998E-02
 -7.9999998E-02   9.9999998E-03   1.0000000E-01
 -7.9999998E-02   9.9999998E-03   1.2000000E-01
 -7.9999998E-02   9.9999998E-03   1.4000000E-01
 -5.9999999E-02   9.9999998E-03   0.0000000E+00
 -5.9999999E-02   9.9999998E-03   2.0000000E-02
 -5.9999999E-02   9.9999998E-03   3.9999999E-02
 -5.9999999E-02   9.9999998E-03   5.9999999E-02
 -5.9999999E-02   9.9999998E-03   7.9999998E-02
 -5.9999999E-02   9.9999998E-03   1.0000000E-01
 -5.9999999E-02   9.9999998E-03   1.2000000E-01
 -5.9999999E-02   9.9999998E-03   1.4000000E-01
 -3.9999999E-02   9.9999998E-03   0.0000000E+00
 -3.9999999E-02   9.9999998E-03   2.0000000E-02
 -3.9999999E-02   9.9999998E-03   3.9999999E-02
 -3.9999999E-02   9.9999998E-03   5.9999999E-02
 -3.9999999E-02   9.9999998E-03   7.9999998E-02
 -3.9999999E-02   9.9999998E-03   1.0000000E-01
 -3.9999999E-02   9.9999998E-03   1.2000000E-01
 -3.9999999E-02   9.9999998E-03   1.4000000E-01
 -2.0000000E-02   9.9999998E-03   0.0000000E+00
 -2.0000000E-02   9.9999998E-03   2.0000000E-02
 -2.0000000E-02   9.9999998E-03   3.9999999E-02
 -2.0000000E-02   9.9999998E-03   5.9999999E-02
 -2.0000000E-02   9.9999998E-03   7.9999998E-02
 -2.0000000E-02   9.9999998E-03   1.0000000E-01
 -2.0000000E-02   9.9999998E-03   1.2000000E-01
 -2.0000000E-02   9.9999998E-03   1.4000000E-01
 -2.2000000E-01   9.9999998E-03   1.6000000E-01
 -2.2000000E-01   9.9999998E-03   1.8000001E-01
 -2.2000000E-01   9.9999998E-03   2.0000000E-01
 -2.2000000E-01   9.9999998E-03   2.2000000E-01
 -2.2000000E-01   9.9999998E-03   2.3999999E-01
 -2.2000000E-01   9.9999998E-03   2.5999999E-01
 -2.2000000E-01   9.9999998E-03   2.8000000E-01
 -2.2000000E-01   9.9999998E-03   3.0000001E-01
 -2.2000000E-01   9.9999998E-03   3.1999999E-01
 -2.0000000E-01   9.9999998E-03   1.6000000E-01
 -2.0000000E-01   9.9999998E-03   1.8000001E-01
 -2.0000000E-01   9.9999998E-03   2.0000000E-01
 -2.0000000E-01   9.9999998E-03   2.2000000E-01
 -2.0000000E-01   9.9999998E-03   2.3999999E-01
 -2.0000000E-01   9.9999998E-03   2.5999999E-01
 -2.0000000E-01   9.9999998E-03   2.8000000E-01
 -2.0000000E-01   9.9999998E-03   3.0000001E-01
 -2.0000000E-01   9.9999998E-03   3.1999999E-01
 -1.8000001E-01   9.9999998E-03   1.6000000E-01
 -1.8000001E-01   9.9999998E-03   1.8000001E-01
 -1.8000001E-01   9.9999998E-03   2.0000000E-01
 -1.8000001E-01   9.9999998E-03   2.2000000E-01
 -1.8000001E-01   9.9999998E-03   2.3999999E-01
 -1.8000001E-01   9.9999998E-03   2.5999999E-01
 -1.8000001E-01   9.9999998E-03   2.8000000E-01
 -1.8000001E-01   9.9999998E-03   3.0000001E-01
 -1.8000001E-01   9.9999998E-03   3.1999999E-01
 -1.6000000E-01   9.9999998E-03   1.6000000E-01
 -1.6000000E-01   9.9999998E-03   1.8000001E-01
 -1.6000000E-01   9.9999998E-03   2.0000000E-01
 -1.6000000E-01   9.9999998E-03   2.2000000E-01
 -1.6000000E-01   9.9999998E-03   2.3999999E-01
 -1.6000000E-01   9.9999998E-03   2.5999999E-01
 -1.6000000E-01   9.9999998E-03   2.8000000E-01
 -1.6000000E-01   9.9999998E-03   3.0000001E-01
 -1.6000000E-01   9.9999998E-03   3.1999999E-01
 -1.4000000E-01   9.9999998E-03   1.6000000E-01
 -1.4000000E-01   9.9999998E-03   1.8000001E-01
 -1.4000000E-01   9.9999998E-03   2.0000000E-01
 -1.4000000E-01   9.9999998E-03   2.2000000E-01
 -1.4000000E-01   9.9999998E-03   2.3999999E-01
 -1.4000000E-01   9.9999998E-03   2.5999999E-01
 -1.4000000E-01   9.9999998E-03   2.8000000E-01
 -1.4000000E-01   9.9999998E-03   3.0000001E-01
 -1.4000000E-01   9.9999998E-03   3.1999999E-01
 -1.2000000E-01   9.9999998E-03   1.6000000E-01
 -1.2000000E-01   9.9999998E-03   1.8000001E-01
 -1.2000000E-01   9.9999998E-03   2.0000000E-01
 -1.2000000E-01   9.9999998E-03   2.2000000E-01
 -1.2000000E-01   9.9999998E-03   2.3999999E-01
 -1.2000000E-01   9.9999998E-03   2.5999999E-01
 -1.2000000E-01   9.9999998E-03   2.8000000E-01
 -1.2000000E-01   9.9999998E-03   3.0000001E-01
 -1.2000000E-01   9.9999998E-03   3.1999999E-01
 -1.0000000E-01   9.9999998E-03   1.6000000E-01
 -1.0000000E-01   9.9999998E-03   1.8000001E-01
 -1.0000000E-01   9.9999998E-03   2.0000000E-01
 -1.0000000E-01   9.9999998E-03   2.2000000E-01
 -1.0000000E-01   9.9999998E-03   2.3999999E-01
 -1.0000000E-01   9.9999998E-03   2.5999999E-01
 -1.0000000E-01   9.9999998E-03   2.8000000E-01
 -1.0000000E-01   9.9999998E-03   3.0000001E-01
 -1.0000000E-01   9.9999998E-03   3.1999999E-01
 -7.9999998E-02   9.9999998E-03   1.6000000E-01
 -7.9999998E-02   9.9999998E-03   1.8000001E-01
 -7.9999998E-02   9.9999998E-03   2.0000000E-01
 -7.9999998E-02   9.9999998E-03   2.2000000E-01
 -7.9999998E-02   9.9999998E-03   2.3999999E-01
 -7.9999998E-02   9.9999998E-03   2.5999999E-01
 -7.9999998E-02   9.9999998E-03   2.8000000E-01
 -7.9999998E-02   9.9999998E-03   3.0000001E-01
 -7.9999998E-02   9.9999998E-03   3.1999999E-01
 -5.9999999E-02   9.9999998E-03   1.6000000E-01
 -5.9999999E-02   9.9999998E-03   1.8000001E-01
 -5.9999999E-02   9.9999998E-03   2.0000000E-01
 -5.9999999E-02   9.9999998E-03   2.2000000E-01
 -5.9999999E-02   9.9999998E-03   2.3999999E-01
 -5.9999999E-02   9.9999998E-03   2.5999999E-01
 -5.9999999E-02   9.9999998E-03   2.8000000E-01
 -5.9999999E-02   9.9999998E-03   3.0000001E-01
 -5.9999999E-02   9.9999998E-03   3.1999999E-01
 -3.9999999E-02   9.9999998E-03   1.6000000E-01
 -3.9999999E-02   9.9999998E-03   1.8000001E-01
 -3.9999999E-02   9.9999998E-03   2.0000000E-01
 -3.9999999E-02   9.9999998E-03   2.2000000E-01
 -3.9999999E-02   9.9999998E-03   2.3999999E-01
 -3.9999999E-02   9.9999998E-03   2.5999999E-01
 -3.9999999E-02   9.9999998E-03   2.8000000E-01
 -3.9999999E-02   9.9999998E-03   3.0000001E-01
 -3.9999999E-02   9.9999998E-03   3.1999999E-01
 -2.0000000E-02   9.9999998E-03   1.6000000E-01
 -2.0000000E-02   9.9999998E-03   1.8000001E-01
 -2.0000000E-02   9.9999998E-03   2.0000000E-01
 -2.0000000E-02   9.9999998E-03   2.2000000E-01
 -2.0000000E-02   9.9999998E-03   2.3999999E-01
 -2.0000000E-02   9.9999998E-03   2.5999999E-01
 -2.0000000E-02   9.9999998E-03   2.8000000E-01
 -2.0000000E-02   9.9999998E-03   3.0000001E-01
 -2.0000000E-02   9.9999998E-03   3.1999999E-01
  0.0000000E+00   9.9999998E-03   3.0000001E-01
  0.0000000E+00   9.9999998E-03   3.1999999E-01
  2.0000000E-02   9.9999998E-03   3.1999999E-01
  3.9999999E-02   9.9999998E-03   3.1999999E-01
  5.9999999E-02   9.9999998E-03   3.1999999E-01
  7.9999998E-02   9.9999998E-03   3.1999999E-01
  1.0000000E-01   9.9999998E-03   3.1999999E-01
  1.2000000E-01   9.9999998E-03   3.1999999E-01
  1.4000000E-01   9.9999998E-03   3.1999999E-01
  1.6000000E-01   9.9999998E-03   3.1999999E-01
  1.8000001E-01   9.9999998E-03   3.1999999E-01
  2.0000000E-01   9.9999998E-03   3.1999999E-01
 -2.2000000E-01   9.9999998E-03   3.4000000E-01
 -2.2000000E-01   9.9999998E-03   3.6000001E-01
 -2.2000000E-01   9.9999998E-03   3.8000000E-01
 -2.0000000E-01   9.9999998E-03   3.4000000E-01
 -2.0000000E-01   9.9999998E-03   3.6000001E-01
 -2.0000000E-01   9.9999998E-03   3.8000000E-01
 -2.0000000E-01   9.9999998E-03   4.0000001E-01
 -1.8000001E-01   9.9999998E-03   3.4000000E-01
 -1.8000001E-01   9.9999998E-03   3.6000001E-01
 -1.8000001E-01   9.9999998E-03   3.8000000E-01
 -1.8000001E-01   9.9999998E-03   4.0000001E-01
 -1.6000000E-01   9.9999998E-03   3.4000000E-01
 -1.6000000E-01   9.9999998E-03   3.6000001E-01
 -1.6000000E-01   9.9999998E-03   3.8000000E-01
 -1.6000000E-01   9.9999998E-03   4.0000001E-01
 -1.4000000E-01   9.9999998E-03   3.4000000E-01
 -1.4000000E-01   9.9999998E-03   3.6000001E-01
 -1.4000000E-01   9.9999998E-03   3.8000000E-01
 -1.4000000E-01   9.9999998E-03   4.0000001E-01
 -1.2000000E-01   9.9999998E-03   3.4000000E-01
 -1.2000000E-01   9.9999998E-03   3.6000001E-01
 -1.2000000E-01   9.9999998E-03   3.8000000E-01
 -1.2000000E-01   9.9999998E-03   4.0000001E-01
 -1.0000000E-01   9.9999998E-03   3.4000000E-01
 -1.0000000E-01   9.9999998E-03   3.6000001E-01
 -1.0000000E-01   9.9999998E-03   3.8000000E-01
 -1.0000000E-01   9.9999998E-03   4.0000001E-01
 -7.9999998E-02   9.9999998E-03   3.4000000E-01
 -7.9999998E-02   9.9999998E-03   3.6000001E-01
 -7.9999998E-02   9.9999998E-03   3.8000000E-01
 -7.9999998E-02   9.9999998E-03   4.0000001E-01
 -5.9999999E-02   9.9999998E-03   3.4000000E-01
 -5.9999999E-02   9.9999998E-03   3.6000001E-01
 -5.9999999E-02   9.9999998E-03   3.8000000E-01
 -5.9999999E-02   9.9999998E-03   4.0000001E-01
 -3.9999999E-02   9.9999998E-03   3.4000000E-01
 -3.9999999E-02   9.9999998E-03   3.6000001E-01
 -3.9999999E-02   9.9999998E-03   3.8000000E-01
 -3.9999999E-02   9.9999998E-03   4.0000001E-01
 -2.0000000E-02   9.9999998E-03   3.4000000E-01
 -2.0000000E-02   9.9999998E-03   3.6000001E-01
 -2.0000000E-02   9.9999998E-03   3.8000000E-01
 -2.0000000E-02   9.9999998E-03   4.0000001E-01
  0.0000000E+00   9.9999998E-03   3.4000000E-01
  0.0000000E+00   9.9999998E-03   3.6000001E-01
  0.0000000E+00   9.9999998E-03   3.8000000E-01
  0.0000000E+00   9.9999998E-03   4.0000001E-01
  2.0000000E-02   9.9999998E-03   3.4000000E-01
  2.0000000E-02   9.9999998E-03   3.6000001E-01
  2.0000000E-02   9.9999998E-03   3.8000000E-01
  2.0000000E-02   9.9999998E-03   4.0000001E-01
  3.9999999E-02   9.9999998E-03   3.4000000E-01
  3.9999999E-02   9.9999998E-03   3.6000001E-01
  3.9999999E-02   9.9999998E-03   3.8000000E-01
  3.9999999E-02   9.9999998E-03   4.0000001E-01
  5.9999999E-02   9.9999998E-03   3.4000000E-01
  5.9999999E-02   9.9999998E-03   3.6000001E-01
  5.9999999E-02   9.9999998E-03   3.8000000E-01
  5.9999999E-02   9.9999998E-03   4.0000001E-01
  7.9999998E-02   9.9999998E-03   3.4000000E-01
  7.9999998E-02   9.9999998E-03   3.6000001E-01
  7.9999998E-02   9.9999998E-03   3.8000000E-01
  7.9999998E-02   9.9999998E-03   4.0000001E-01
  1.0000000E-01   9.9999998E-03   3.4000000E-01
  1.0000000E-01   9.9999998E-03   3.6000001E-01
  1.0000000E-01   9.9999998E-03   3.8000000E-01
  1.0000000E-01   9.9999998E-03   4.0000001E-01
  1.2000000E-01   9.9999998E-03   3.4000000E-01
  1.2000000E-01   9.9999998E-03   3.6000001E-01
  1.2000000E-01   9.9999998E-03   3.8000000E-01
  1.2000000E-01   9.9999998E-03   4.0000001E-01
  1.4000000E-01   9.9999998E-03   3.4000000E-01
  1.4000000E-01   9.9999998E-03   3.6000001E-01
  1.4000000E-01   9.9999998E-03   3.8000000E-01
  1.4000000E-01   9.9999998E-03   4.0000001E-01
  1.6000000E-01   9.9999998E-03   3.4000000E-01
  1.6000000E-01   9.9999998E-03   3.6000001E-01
  1.6000000E-01   9.9999998E-03   3.8000000E-01
  1.6000000E-01   9.9999998E-03   4.0000001E-01
  1.8000001E-01   9.9999998E-03   3.4000000E-01
  1.8000001E-01   9.9999998E-03   3.6000001E-01
  1.8000001E-01   9.9999998E-03   3.8000000E-01
  1.8000001E-01   9.9999998E-03   4.0000001E-01
  2.0000000E-01   9.9999998E-03   3.4000000E-01
  2.0000000E-01   9.9999998E-03   3.6000001E-01
  2.0000000E-01   9.9999998E-03   3.8000000E-01
  1.9200000E+00   9.9999998E-03  -3.6000001E-01
  1.9200000E+00   9.9999998E-03  -3.4000000E-01
  1.9200000E+00   9.9999998E-03  -3.1999999E-01
  1.9400001E+00   9.9999998E-03  -3.8000000E-01
  1.9400001E+00   9.9999998E-03  -3.6000001E-01
  1.9400001E+00   9.9999998E-03  -3.4000000E-01
  1.9400001E+00   9.9999998E-03  -3.1999999E-01
  1.9400001E+00   9.9999998E-03  -3.0000001E-01
  1.9400001E+00   9.9999998E-03  -2.8000000E-01
  1.9400001E+00   9.9999998E-03  -2.5999999E-01
  1.9400001E+00   9.9999998E-03  -2.3999999E-01
  1.9400001E+00   9.9999998E-03  -2.2000000E-01
  1.9600000E+00   9.9999998E-03  -3.8000000E-01
  1.9600000E+00   9.9999998E-03  -3.6000001E-01
  1.9600000E+00   9.9999998E-03  -3.4000000E-01
  1.9600000E+00   9.9999998E-03  -3.1999999E-01
  1.9600000E+00   9.9999998E-03  -3.0000001E-01
  1.9600000E+00   9.9999998E-03  -2.8000000E-01
  1.9600000E+00   9.9999998E-03  -2.5999999E-01
  1.9600000E+00   9.9999998E-03  -2.3999999E-01
  1.9600000E+00   9.9999998E-03  -2.2000000E-01
  1.9600000E+00   9.9999998E-03  -2.0000000E-01
  1.9600000E+00   9.9999998E-03  -1.8000001E-01
  1.9600000E+00   9.9999998E-03  -1.6000000E-01
  1.9600000E+00   9.9999998E-03  -1.4000000E-01
  1.9600000E+00   9.9999998E-03  -1.2000000E-01
  1.9800000E+00   9.9999998E-03  -3.8000000E-01
  1.9800000E+00   9.9999998E-03  -3.6000001E-01
  1.9800000E+00   9.9999998E-03  -3.4000000E-01
  1.9800000E+00   9.9999998E-03  -3.1999999E-01
  1.9800000E+00   9.9999998E-03  -3.0000001E-01
  1.9800000E+00   9.9999998E-03  -2.8000000E-01
  1.9800000E+00   9.9999998E-03  -2.5999999E-01
  1.9800000E+00   9.9999998E-03  -2.3999999E-01
  1.9800000E+00   9.9999998E-03  -2.2000000E-01
  1.9800000E+00   9.9999998E-03  -2.0000000E-01
  1.9800000E+00   9.9999998E-03  -1.8000001E-01
  1.9800000E+00   9.9999998E-03  -1.6000000E-01
  1.9800000E+00   9.9999998E-03  -1.4000000E-01
  1.9800000E+00   9.9999998E-03  -1.2000000E-01
  1.9800000E+00   9.9999998E-03  -1.0000000E-01
  1.9800000E+00   9.9999998E-03  -7.9999998E-02
  1.9800000E+00   9.9999998E-03  -5.9999999E-02
  1.9800000E+00   9.9999998E-03  -3.9999999E-02
  1.9800000E+00   9.9999998E-03  -2.0000000E-02
  2.0000000E+00   9.9999998E-03  -3.8000000E-01
  2.0000000E+00   9.9999998E-03  -3.6000001E-01
  2.0000000E+00   9.9999998E-03  -3.4000000E-01
  2.0000000E+00   9.9999998E-03  -3.1999999E-01
  2.0000000E+00   9.9999998E-03  -3.0000001E-01
  2.0000000E+00   9.9999998E-03  -2.8000000E-01
  2.0000000E+00   9.9999998E-03  -2.5999999E-01
  2.0000000E+00   9.9999998E-03  -2.3999999E-01
  2.0000000E+00   9.9999998E-03  -2.2000000E-01
  2.0000000E+00   9.9999998E-03  -2.0000000E-01
  2.0000000E+00   9.9999998E-03  -1.8000001E-01
  2.0000000E+00   9.9999998E-03  -1.6000000E-01
  2.0000000E+00   9.9999998E-03  -1.4000000E-01
  2.0000000E+00   9.9999998E-03  -1.2000000E-01
  2.0000000E+00   9.9999998E-03  -1.0000000E-01
  2.0000000E+00   9.9999998E-03  -7.9999998E-02
  2.0000000E+00   9.9999998E-03  -5.9999999E-02
  2.0000000E+00   9.9999998E-03  -3.9999999E-02
  2.0000000E+00   9.9999998E-03  -2.0000000E-02
  2.0000000E+00   9.9999998E-03   0.0000000E+00
  2.0000000E+00   9.9999998E-03   2.0000000E-02
  2.0000000E+00   9.9999998E-03   3.9999999E-02
  2.0000000E+00   9.9999998E-03   5.9999999E-02
  2.0000000E+00   9.9999998E-03   7.9999998E-02
  2.0200000E+00   9.9999998E-03  -4.0000001E-01
  2.0200000E+00   9.9999998E-03  -3.8000000E-01
  2.0200000E+00   9.9999998E-03  -3.6000001E-01
  2.0200000E+00   9.9999998E-03  -3.4000000E-01
  2.0200000E+00   9.9999998E-03  -3.1999999E-01
  2.0200000E+00   9.9999998E-03  -3.0000001E-01
  2.0200000E+00   9.9999998E-03  -2.8000000E-01
  2.0200000E+00   9.9999998E-03  -2.5999999E-01
  2.0200000E+00   9.9999998E-03  -2.3999999E-01
  2.0200000E+00   9.9999998E-03  -2.2000000E-01
  2.0200000E+00   9.9999998E-03  -2.0000000E-01
  2.0200000E+00   9.9999998E-03  -1.8000001E-01
  2.0200000E+00   9.9999998E-03  -1.6000000E-01
  2.0200000E+00   9.9999998E-03  -1.4000000E-01
  2.0200000E+00   9.9999998E-03  -1.2000000E-01
  2.0200000E+00   9.9999998E-03  -1.0000000E-01
  2.0200000E+00   9.9999998E-03  -7.9999998E-02
  2.0200000E+00   9.9999998E-03  -5.9999999E-02
  2.0200000E+00   9.9999998E-03  -3.9999999E-02
  2.0200000E+00   9.9999998E-03  -2.0000000E-02
  2.0200000E+00   9.9999998E-03   0.0000000E+00
  2.0200000E+00   9.9999998E-03   2.0000000E-02
  2.0200000E+00   9.9999998E-03   3.9999999E-02
  2.0200000E+00   9.9999998E-03   5.9999999E-02
  2.0200000E+00   9.9999998E-03   7.9999998E-02
  2.0200000E+00   9.9999998E-03   1.0000000E-01
  2.0200000E+00   9.9999998E-03   1.2000000E-01
  2.0200000E+00   9.9999998E-03   1.4000000E-01
  2.0200000E+00   9.9999998E-03   1.6000000E-01
  2.0200000E+00   9.9999998E-03   1.8000001E-01
  2.0400000E+00   9.9999998E-03  -4.0000001E-01
  2.0400000E+00   9.9999998E-03  -3.8000000E-01
  2.0400000E+00   9.9999998E-03  -3.6000001E-01
  2.0400000E+00   9.9999998E-03  -3.4000000E-01
  2.0400000E+00   9.9999998E-03  -3.1999999E-01
  2.0400000E+00   9.9999998E-03  -3.0000001E-01
  2.0400000E+00   9.9999998E-03  -2.8000000E-01
  2.0400000E+00   9.9999998E-03  -2.5999999E-01
  2.0400000E+00   9.9999998E-03  -2.3999999E-01
  2.0400000E+00   9.9999998E-03  -2.2000000E-01
  2.0400000E+00   9.9999998E-03  -2.0000000E-01
  2.0400000E+00   9.9999998E-03  -1.8000001E-01
  2.0400000E+00   9.9999998E-03  -1.6000000E-01
  2.0400000E+00   9.9999998E-03  -1.4000000E-01
  2.0400000E+00   9.9999998E-03  -1.2000000E-01
  2.0400000E+00   9.9999998E-03  -1.0000000E-01
  2.0400000E+00   9.9999998E-03  -7.9999998E-02
  2.0400000E+00   9.9999998E-03  -5.9999999E-02
  2.0400000E+00   9.9999998E-03  -3.9999999E-02
  2.0400000E+00   9.9999998E-03  -2.0000000E-02
  2.0400000E+00   9.9999998E-03   0.0000000E+00
  2.0400000E+00   9.9999998E-03   2.0000000E-02
  2.0400000E+00   9.9999998E-03   3.9999999E-02
  2.0400000E+00   9.9999998E-03   5.9999999E-02
  2.0400000E+00   9.9999998E-03   7.9999998E-02
  2.0400000E+00   9.9999998E-03   1.0000000E-01
  2.0400000E+00   9.9999998E-03   1.2000000E-01
  2.0400000E+00   9.9999998E-03   1.4000000E-01
  2.0400000E+00   9.9999998E-03   1.6000000E-01
  2.0400000E+00   9.9999998E-03   1.8000001E-01
  2.0400000E+00   9.9999998E-03   2.0000000E-01
  2.0400000E+00   9.9999998E-03   2.2000000E-01
  2.0400000E+00   9.9999998E-03   2.3999999E-01
  2.0400000E+00   9.9999998E-03   2.5999999E-01
  2.0400000E+00   9.9999998E-03   2.8000000E-01
  2.0599999E+00   9.9999998E-03  -4.0000001E-01
  2.0599999E+00   9.9999998E-03  -3.8000000E-01
  2.0599999E+00   9.9999998E-03  -3.6000001E-01
  2.0599999E+00   9.9999998E-03  -3.4000000E-01
  2.0599999E+00   9.9999998E-03  -3.1999999E-01
  2.0599999E+00   9.9999998E-03  -3.0000001E-01
  2.0599999E+00   9.9999998E-03  -2.8000000E-01
  2.0599999E+00   9.9999998E-03  -2.5999999E-01
  2.0599999E+00   9.9999998E-03  -2.3999999E-01
  2.0599999E+00   9.9999998E-03  -2.2000000E-01
  2.0599999E+00   9.9999998E-03  -2.0000000E-01
  2.0599999E+00   9.9999998E-03  -1.8000001E-01
  2.0599999E+00   9.9999998E-03  -1.6000000E-01
  2.0599999E+00   9.9999998E-03  -1.4000000E-01
  2.0599999E+00   9.9999998E-03  -1.2000000E-01
  2.0599999E+00   9.9999998E-03  -1.0000000E-01
  2.0599999E+00   9.9999998E-03  -7.9999998E-02
  2.0599999E+00   9.9999998E-03  -5.9999999E-02
  2.0599999E+00   9.9999998E-03  -3.9999999E-02
  2.0599999E+00   9.9999998E-03  -2.0000000E-02
  2.0599999E+00   9.9999998E-03   0.0000000E+00
  2.0599999E+00   9.9999998E-03   2.0000000E-02
  2.0599999E+00   9.9999998E-03   3.9999999E-02
  2.0599999E+00   9.9999998E-03   5.9999999E-02
  2.0599999E+00   9.9999998E-03   7.9999998E-02
  2.0599999E+00   9.9999998E-03   1.0000000E-01
  2.0599999E+00   9.9999998E-03   1.2000000E-01
  2.0599999E+00   9.9999998E-03   1.4000000E-01
  2.0599999E+00   9.9999998E-03   1.6000000E-01
  2.0599999E+00   9.9999998E-03   1.8000001E-01
  2.0599999E+00   9.9999998E-03   2.0000000E-01
  2.0599999E+00   9.9999998E-03   2.2000000E-01
  2.0599999E+00   9.9999998E-03   2.3999999E-01
  2.0599999E+00   9.9999998E-03   2.5999999E-01
  2.0599999E+00   9.9999998E-03   2.8000000E-01
  2.0599999E+00   9.9999998E-03   3.0000001E-01
  2.0599999E+00   9.9999998E-03   3.1999999E-01
  2.0599999E+00   9.9999998E-03   3.4000000E-01
  2.0599999E+00   9.9999998E-03   3.6000001E-01
  2.0599999E+00   9.9999998E-03   3.8000000E-01
  2.0799999E+00   9.9999998E-03  -4.0000001E-01
  2.0799999E+00   9.9999998E-03  -3.8000000E-01
  2.0799999E+00   9.9999998E-03  -3.6000001E-01
  2.0799999E+00   9.9999998E-03  -3.4000000E-01
  2.0799999E+00   9.9999998E-03  -3.1999999E-01
  2.0799999E+00   9.9999998E-03  -3.0000001E-01
  2.0799999E+00   9.9999998E-03  -2.8000000E-01
  2.0799999E+00   9.9999998E-03  -2.5999999E-01
  2.0799999E+00   9.9999998E-03  -2.3999999E-01
  2.0799999E+00   9.9999998E-03  -2.2000000E-01
  2.0799999E+00   9.9999998E-03  -2.0000000E-01
  2.0799999E+00   9.9999998E-03  -1.8000001E-01
  2.0799999E+00   9.9999998E-03  -1.6000000E-01
  2.0799999E+00   9.9999998E-03  -1.4000000E-01
  2.0799999E+00   9.9999998E-03  -1.2000000E-01
  2.0799999E+00   9.9999998E-03  -1.0000000E-01
  2.0799999E+00   9.9999998E-03  -7.9999998E-02
  2.0799999E+00   9.9999998E-03  -5.9999999E-02
  2.0799999E+00   9.9999998E-03  -3.9999999E-02
  2.0799999E+00   9.9999998E-03  -2.0000000E-02
  2.0799999E+00   9.9999998E-03   0.0000000E+00
  2.0799999E+00   9.9999998E-03   2.0000000E-02
  2.0799999E+00   9.9999998E-03   3.9999999E-02
  2.0799999E+00   9.9999998E-03   5.9999999E-02
  2.0799999E+00   9.9999998E-03   7.9999998E-02
  2.0799999E+00   9.9999998E-03   1.0000000E-01
  2.0799999E+00   9.9999998E-03   1.2000000E-01
  2.0799999E+00   9.9999998E-03   1.4000000E-01
  2.0799999E+00   9.9999998E-03   1.6000000E-01
  2.0799999E+00   9.9999998E-03   1.8000001E-01
  2.0799999E+00   9.9999998E-03   2.0000000E-01
  2.0799999E+00   9.9999998E-03   2.2000000E-01
  2.0799999E+00   9.9999998E-03   2.3999999E-01
  2.0799999E+00   9.9999998E-03   2.5999999E-01
  2.0799999E+00   9.9999998E-03   2.8000000E-01
  2.0799999E+00   9.9999998E-03   3.0000001E-01
  2.0799999E+00   9.9999998E-03   3.1999999E-01
  2.0799999E+00   9.9999998E-03   3.4000000E-01
  2.0799999E+00   9.9999998E-03   3.6000001E-01
  2.0799999E+00   9.9999998E-03   3.8000000E-01
  2.0799999E+00   9.9999998E-03   4.0000001E-01
  2.0999999E+00   9.9999998E-03  -4.0000001E-01
  2.0999999E+00   9.9999998E-03  -3.8000000E-01
  2.0999999E+00   9.9999998E-03  -3.6000001E-01
  2.0999999E+00   9.9999998E-03  -3.4000000E-01
  2.0999999E+00   9.9999998E-03  -3.1999999E-01
  2.0999999E+00   9.9999998E-03  -3.0000001E-01
  2.0999999E+00   9.9999998E-03  -2.8000000E-01
  2.0999999E+00   9.9999998E-03  -2.5999999E-01
  2.0999999E+00   9.9999998E-03  -2.3999999E-01
  2.0999999E+00   9.9999998E-03  -2.2000000E-01
  2.0999999E+00   9.9999998E-03  -2.0000000E-01
  2.0999999E+00   9.9999998E-03  -1.8000001E-01
  2.0999999E+00   9.9999998E-03  -1.6000000E-01
  2.0999999E+00   9.9999998E-03  -1.4000000E-01
  2.0999999E+00   9.9999998E-03  -1.2000000E-01
  2.0999999E+00   9.9999998E-03  -1.0000000E-01
  2.0999999E+00   9.9999998E-03  -7.9999998E-02
  2.0999999E+00   9.9999998E-03  -5.9999999E-02
  2.0999999E+00   9.9999998E-03  -3.9999999E-02
  2.0999999E+00   9.9999998E-03  -2.0000000E-02
  2.0999999E+00   9.9999998E-03   0.0000000E+00
  2.0999999E+00   9.9999998E-03   2.0000000E-02
  2.0999999E+00   9.9999998E-03   3.9999999E-02
  2.0999999E+00   9.9999998E-03   5.9999999E-02
  2.0999999E+00   9.9999998E-03   7.9999998E-02
  2.0999999E+00   9.9999998E-03   1.0000000E-01
  2.0999999E+00   9.9999998E-03   1.2000000E-01
  2.0999999E+00   9.9999998E-03   1.4000000E-01
  2.0999999E+00   9.9999998E-03   1.6000000E-01
  2.0999999E+00   9.9999998E-03   1.8000001E-01
  2.0999999E+00   9.9999998E-03   2.0000000E-01
  2.0999999E+00   9.9999998E-03   2.2000000E-01
  2.0999999E+00   9.9999998E-03   2.3999999E-01
  2.0999999E+00   9.9999998E-03   2.5999999E-01
  2.0999999E+00   9.9999998E-03   2.8000000E-01
  2.0999999E+00   9.9999998E-03   3.0000001E-01
  2.0999999E+00   9.9999998E-03   3.1999999E-01
  2.0999999E+00   9.9999998E-03   3.4000000E-01
  2.0999999E+00   9.9999998E-03   3.6000001E-01
  2.0999999E+00   9.9999998E-03   3.8000000E-01
  2.0999999E+00   9.9999998E-03   4.0000001E-01
  2.1199999E+00   9.9999998E-03  -4.1999999E-01
  2.1199999E+00   9.9999998E-03  -4.0000001E-01
  2.1199999E+00   9.9999998E-03  -3.8000000E-01
  2.1199999E+00   9.9999998E-03  -3.6000001E-01
  2.1199999E+00   9.9999998E-03  -3.4000000E-01
  2.1199999E+00   9.9999998E-03  -3.1999999E-01
  2.1199999E+00   9.9999998E-03  -3.0000001E-01
  2.1199999E+00   9.9999998E-03  -2.8000000E-01
  2.1199999E+00   9.9999998E-03  -2.5999999E-01
  2.1199999E+00   9.9999998E-03  -2.3999999E-01
  2.1199999E+00   9.9999998E-03  -2.2000000E-01
  2.1199999E+00   9.9999998E-03  -2.0000000E-01
  2.1199999E+00   9.9999998E-03  -1.8000001E-01
  2.1199999E+00   9.9999998E-03  -1.6000000E-01
  2.1199999E+00   9.9999998E-03  -1.4000000E-01
  2.1199999E+00   9.9999998E-03  -1.2000000E-01
  2.1199999E+00   9.9999998E-03  -1.0000000E-01
  2.1199999E+00   9.9999998E-03  -7.9999998E-02
  2.1199999E+00   9.9999998E-03  -5.9999999E-02
  2.1199999E+00   9.9999998E-03  -3.9999999E-02
  2.1199999E+00   9.9999998E-03  -2.0000000E-02
  2.1199999E+00   9.9999998E-03   0.0000000E+00
  2.1199999E+00   9.9999998E-03   2.0000000E-02
  2.1199999E+00   9.9999998E-03   3.9999999E-02
  2.1199999E+00   9.9999998E-03   5.9999999E-02
  2.1199999E+00   9.9999998E-03   7.9999998E-02
  2.1199999E+00   9.9999998E-03   1.0000000E-01
  2.1199999E+00   9.9999998E-03   1.2000000E-01
  2.1199999E+00   9.9999998E-03   1.4000000E-01
  2.1199999E+00   9.9999998E-03   1.6000000E-01
  2.1199999E+00   9.9999998E-03   1.8000001E-01
  2.1199999E+00   9.9999998E-03   2.0000000E-01
  2.1199999E+00   9.9999998E-03   2.2000000E-01
  2.1199999E+00   9.9999998E-03   2.3999999E-01
  2.1199999E+00   9.9999998E-03   2.5999999E-01
  2.1199999E+00   9.9999998E-03   2.8000000E-01
  2.1199999E+00   9.9999998E-03   3.0000001E-01
  2.1199999E+00   9.9999998E-03   3.1999999E-01
  2.1199999E+00   9.9999998E-03   3.4000000E-01
  2.1199999E+00   9.9999998E-03   3.6000001E-01
  2.1199999E+00   9.9999998E-03   3.8000000E-01
  2.1199999E+00   9.9999998E-03   4.0000001E-01
  2.1400001E+00   9.9999998E-03  -3.8000000E-01
  2.1400001E+00   9.9999998E-03  -3.6000001E-01
  2.1400001E+00   9.9999998E-03  -3.4000000E-01
  2.1400001E+00   9.9999998E-03  -3.1999999E-01
  2.1400001E+00   9.9999998E-03  -3.0000001E-01
  2.1400001E+00   9.9999998E-03  -2.8000000E-01
  2.1400001E+00   9.9999998E-03  -2.5999999E-01
  2.1400001E+00   9.9999998E-03  -2.3999999E-01
  2.1400001E+00   9.9999998E-03  -2.2000000E-01
  2.1400001E+00   9.9999998E-03  -2.0000000E-01
  2.1400001E+00   9.9999998E-03  -1.8000001E-01
  2.1400001E+00   9.9999998E-03  -1.6000000E-01
  2.1400001E+00   9.9999998E-03  -1.4000000E-01
  2.1400001E+00   9.9999998E-03  -1.2000000E-01
  2.1400001E+00   9.9999998E-03  -1.0000000E-01
  2.1400001E+00   9.9999998E-03  -7.9999998E-02
  2.1400001E+00   9.9999998E-03  -5.9999999E-02
  2.1400001E+00   9.9999998E-03  -3.9999999E-02
  2.1400001E+00   9.9999998E-03  -2.0000000E-02
  2.1400001E+00   9.9999998E-03   0.0000000E+00
  2.1400001E+00   9.9999998E-03   2.0000000E-02
  2.1400001E+00   9.9999998E-03   3.9999999E-02
  2.1400001E+00   9.9999998E-03   5.9999999E-02
  2.1400001E+00   9.9999998E-03   7.9999998E-02
  2.1400001E+00   9.9999998E-03   1.0000000E-01
  2.1400001E+00   9.9999998E-03   1.2000000E-01
  2.1400001E+00   9.9999998E-03   1.4000000E-01
  2.1400001E+00   9.9999998E-03   1.6000000E-01
  2.1400001E+00   9.9999998E-03   1.8000001E-01
  2.1400001E+00   9.9999998E-03   2.0000000E-01
  2.1400001E+00   9.9999998E-03   2.2000000E-01
  2.1400001E+00   9.9999998E-03   2.3999999E-01
  2.1400001E+00   9.9999998E-03   2.5999999E-01
  2.1400001E+00   9.9999998E-03   2.8000000E-01
  2.1400001E+00   9.9999998E-03   3.0000001E-01
  2.1400001E+00   9.9999998E-03   3.1999999E-01
  2.1400001E+00   9.9999998E-03   3.4000000E-01
  2.1400001E+00   9.9999998E-03   3.6000001E-01
  2.1400001E+00   9.9999998E-03   3.8000000E-01
  2.1400001E+00   9.9999998E-03   4.0000001E-01
  2.1600001E+00   9.9999998E-03  -2.8000000E-01
  2.1600001E+00   9.9999998E-03  -2.5999999E-01
  2.1600001E+00   9.9999998E-03  -2.3999999E-01
  2.1600001E+00   9.9999998E-03  -2.2000000E-01
  2.1600001E+00   9.9999998E-03  -2.0000000E-01
  2.1600001E+00   9.9999998E-03  -1.8000001E-01
  2.1600001E+00   9.9999998E-03  -1.6000000E-01
  2.1600001E+00   9.9999998E-03  -1.4000000E-01
  2.1600001E+00   9.9999998E-03  -1.2000000E-01
  2.1600001E+00   9.9999998E-03  -1.0000000E-01
  2.1600001E+00   9.9999998E-03  -7.9999998E-02
  2.1600001E+00   9.9999998E-03  -5.9999999E-02
  2.1600001E+00   9.9999998E-03  -3.9999999E-02
  2.1600001E+00   9.9999998E-03  -2.0000000E-02
  2.1600001E+00   9.9999998E-03   0.0000000E+00
  2.1600001E+00   9.9999998E-03   2.0000000E-02
  2.1600001E+00   9.9999998E-03   3.9999999E-02
  2.1600001E+00   9.9999998E-03   5.9999999E-02
  2.1600001E+00   9.9999998E-03   7.9999998E-02
  2.1600001E+00   9.9999998E-03   1.0000000E-01
  2.1600001E+00   9.9999998E-03   1.2000000E-01
  2.1600001E+00   9.9999998E-03   1.4000000E-01
  2.1600001E+00   9.9999998E-03   1.6000000E-01
  2.1600001E+00   9.9999998E-03   1.8000001E-01
  2.1600001E+00   9.9999998E-03   2.0000000E-01
  2.1600001E+00   9.9999998E-03   2.2000000E-01
  2.1600001E+00   9.9999998E-03   2.3999999E-01
  2.1600001E+00   9.9999998E-03   2.5999999E-01
  2.1600001E+00   9.9999998E-03   2.8000000E-01
  2.1600001E+00   9.9999998E-03   3.0000001E-01
  2.1600001E+00   9.9999998E-03   3.1999999E-01
  2.1600001E+00   9.9999998E-03   3.4000000E-01
  2.1600001E+00   9.9999998E-03   3.6000001E-01
  2.1600001E+00   9.9999998E-03   3.8000000E-01
  2.1600001E+00   9.9999998E-03   4.0000001E-01
  2.1800001E+00   9.9999998E-03  -1.8000001E-01
  2.1800001E+00   9.9999998E-03  -1.6000000E-01
  2.1800001E+00   9.9999998E-03  -1.4000000E-01
  2.1800001E+00   9.9999998E-03  -1.2000000E-01
  2.1800001E+00   9.9999998E-03  -1.0000000E-01
  2.1800001E+00   9.9999998E-03  -7.9999998E-02
  2.1800001E+00   9.9999998E-03  -5.9999999E-02
  2.1800001E+00   9.9999998E-03  -3.9999999E-02
  2.1800001E+00   9.9999998E-03  -2.0000000E-02
  2.1800001E+00   9.9999998E-03   0.0000000E+00
  2.1800001E+00   9.9999998E-03   2.0000000E-02
  2.1800001E+00   9.9999998E-03   3.9999999E-02
  2.1800001E+00   9.9999998E-03   5.9999999E-02
  2.1800001E+00   9.9999998E-03   7.9999998E-02
  2.1800001E+00   9.9999998E-03   1.0000000E-01
  2.1800001E+00   9.9999998E-03   1.2000000E-01
  2.1800001E+00   9.9999998E-03   1.4000000E-01
  2.1800001E+00   9.9999998E-03   1.6000000E-01
  2.1800001E+00   9.9999998E-03   1.8000001E-01
  2.1800001E+00   9.9999998E-03   2.0000000E-01
  2.1800001E+00   9.9999998E-03   2.2000000E-01
  2.1800001E+00   9.9999998E-03   2.3999999E-01
  2.1800001E+00   9.9999998E-03   2.5999999E-01
  2.1800001E+00   9.9999998E-03   2.8000000E-01
  2.1800001E+00   9.9999998E-03   3.0000001E-01
  2.1800001E+00   9.9999998E-03   3.1999999E-01
  2.1800001E+00   9.9999998E-03   3.4000000E-01
  2.1800001E+00   9.9999998E-03   3.6000001E-01
  2.1800001E+00   9.9999998E-03   3.8000000E-01
  2.1800001E+00   9.9999998E-03   4.0000001E-01
  2.2000000E+00   9.9999998E-03  -7.9999998E-02
  2.2000000E+00   9.9999998E-03  -5.9999999E-02
  2.2000000E+00   9.9999998E-03  -3.9999999E-02
  2.2000000E+00   9.9999998E-03  -2.0000000E-02
  2.2000000E+00   9.9999998E-03   0.0000000E+00
  2.2000000E+00   9.9999998E-03   2.0000000E-02
  2.2000000E+00   9.9999998E-03   3.9999999E-02
  2.2000000E+00   9.9999998E-03   5.9999999E-02
  2.2000000E+00   9.9999998E-03   7.9999998E-02
  2.2000000E+00   9.9999998E-03   1.0000000E-01
  2.2000000E+00   9.9999998E-03   1.2000000E-01
  2.2000000E+00   9.9999998E-03   1.4000000E-01
  2.2000000E+00   9.9999998E-03   1.6000000E-01
  2.2000000E+00   9.9999998E-03   1.8000001E-01
  2.2000000E+00   9.9999998E-03   2.0000000E-01
  2.2000000E+00   9.9999998E-03   2.2000000E-01
  2.2000000E+00   9.9999998E-03   2.3999999E-01
  2.2000000E+00   9.9999998E-03   2.5999999E-01
  2.2000000E+00   9.9999998E-03   2.8000000E-01
  2.2000000E+00   9.9999998E-03   3.0000001E-01
  2.2000000E+00   9.9999998E-03   3.1999999E-01
  2.2000000E+00   9.9999998E-03   3.4000000E-01
  2.2000000E+00   9.9999998E-03   3.6000001E-01
  2.2000000E+00   9.9999998E-03   3.8000000E-01
  2.2200000E+00   9.9999998E-03   2.0000000E-02
  2.2200000E+00   9.9999998E-03   3.9999999E-02
  2.2200000E+00   9.9999998E-03   5.9999999E-02
  2.2200000E+00   9.9999998E-03   7.9999998E-02
  2.2200000E+00   9.9999998E-03   1.0000000E-01
  2.2200000E+00   9.9999998E-03   1.2000000E-01
  2.2200000E+00   9.9999998E-03   1.4000000E-01
  2.2200000E+00   9.9999998E-03   1.6000000E-01
  2.2200000E+00   9.9999998E-03   1.8000001E-01
  2.2200000E+00   9.9999998E-03   2.0000000E-01
  2.2200000E+00   9.9999998E-03   2.2000000E-01
  2.2200000E+00   9.9999998E-03   2.3999999E-01
  2.2200000E+00   9.9999998E-03   2.5999999E-01
  2.2200000E+00   9.9999998E-03   2.8000000E-01
  2.2200000E+00   9.9999998E-03   3.0000001E-01
  2.2200000E+00   9.9999998E-03   3.1999999E-01
  2.2200000E+00   9.9999998E-03   3.4000000E-01
  2.2200000E+00   9.9999998E-03   3.6000001E-01
  2.2200000E+00   9.9999998E-03   3.8000000E-01
  2.2400000E+00   9.9999998E-03   1.2000000E-01
  2.2400000E+00   9.9999998E-03   1.4000000E-01
  2.2400000E+00   9.9999998E-03   1.6000000E-01
  2.2400000E+00   9.9999998E-03   1.8000001E-01
  2.2400000E+00   9.9999998E-03   2.0000000E-01
  2.2400000E+00   9.9999998E-03   2.2000000E-01
  2.2400000E+00   9.9999998E-03   2.3999999E-01
  2.2400000E+00   9.9999998E-03   2.5999999E-01
  2.2400000E+00   9.9999998E-03   2.8000000E-01
  2.2400000E+00   9.9999998E-03   3.0000001E-01
  2.2400000E+00   9.9999998E-03   3.1999999E-01
  2.2400000E+00   9.9999998E-03   3.4000000E-01
  2.2400000E+00   9.9999998E-03   3.6000001E-01
  2.2400000E+00   9.9999998E-03   3.8000000E-01
  2.2600000E+00   9.9999998E-03   2.2000000E-01
  2.2600000E+00   9.9999998E-03   2.3999999E-01
  2.2600000E+00   9.9999998E-03   2.5999999E-01
  2.2600000E+00   9.9999998E-03   2.8000000E-01
  2.2600000E+00   9.9999998E-03   3.0000001E-01
  2.2600000E+00   9.9999998E-03   3.1999999E-01
  2.2600000E+00   9.9999998E-03   3.4000000E-01
  2.2600000E+00   9.9999998E-03   3.6000001E-01
  2.2600000E+00   9.9999998E-03   3.8000000E-01
  2.2800000E+00   9.9999998E-03   3.1999999E-01
  2.2800000E+00   9.9999998E-03   3.4000000E-01
  2.2800000E+00   9.9999998E-03   3.6000001E-01
 -1.0173616E-05   9.9999998E-03  -2.8000402E-01
 -1.2458605E-05   9.9999998E-03  -2.6000389E-01
 -1.4410477E-05   9.9999998E-03  -2.4000357E-01
 -1.5960468E-05   9.9999998E-03  -2.2000313E-01
 -1.7116030E-05   9.9999998E-03  -2.0000266E-01
  1.9990146E-02   9.9999998E-03  -3.0000523E-01
  1.9986041E-02   9.9999998E-03  -2.8000486E-01
  1.9982498E-02   9.9999998E-03  -2.6000485E-01
  1.9979609E-02   9.9999998E-03  -2.4000457E-01
  1.9977396E-02   9.9999998E-03  -2.2000410E-01
  1.9975791E-02   9.9999998E-03  -2.0000353E-01
  3.9986372E-02   9.9999998E-03  -3.0000564E-01
  3.9980739E-02   9.9999998E-03  -2.8000540E-01
  3.9975870E-02   9.9999998E-03  -2.6000533E-01
  3.9971884E-02   9.9999998E-03  -2.4000503E-01
  3.9968882E-02   9.9999998E-03  -2.2000459E-01
  3.9966740E-02   9.9999998E-03  -2.0000401E-01
  5.9981737E-02   9.9999998E-03  -3.0000585E-01
  5.9974354E-02   9.9999998E-03  -2.8000548E-01
  5.9968084E-02   9.9999998E-03  -2.6000547E-01
  5.9962995E-02   9.9999998E-03  -2.4000521E-01
  5.9959184E-02   9.9999998E-03  -2.2000480E-01
  5.9956506E-02   9.9999998E-03  -2.0000421E-01
  7.9976343E-02   9.9999998E-03  -3.0000600E-01
  7.9967044E-02   9.9999998E-03  -2.8000543E-01
  7.9959311E-02   9.9999998E-03  -2.6000535E-01
  7.9953127E-02   9.9999998E-03  -2.4000514E-01
  7.9948559E-02   9.9999998E-03  -2.2000477E-01
  7.9945400E-02   9.9999998E-03  -2.0000421E-01
  9.9970080E-02   9.9999998E-03  -3.0000621E-01
  9.9958688E-02   9.9999998E-03  -2.8000522E-01
  9.9949449E-02   9.9999998E-03  -2.6000509E-01
  9.9942200E-02   9.9999998E-03  -2.4000487E-01
  9.9936947E-02   9.9999998E-03  -2.2000454E-01
  9.9933371E-02   9.9999998E-03  -2.0000404E-01
  1.1996271E-01   9.9999998E-03  -3.0000672E-01
  1.1994903E-01   9.9999998E-03  -2.8000507E-01
  1.1993826E-01   9.9999998E-03  -2.6000473E-01
  1.1992998E-01   9.9999998E-03  -2.4000449E-01
  1.1992408E-01   9.9999998E-03  -2.2000425E-01
  1.1992013E-01   9.9999998E-03  -2.0000383E-01
  1.3995390E-01   9.9999998E-03  -3.0000773E-01
  1.3993776E-01   9.9999998E-03  -2.8000522E-01
  1.3992545E-01   9.9999998E-03  -2.6000455E-01
  1.3991611E-01   9.9999998E-03  -2.4000421E-01
  1.3990960E-01   9.9999998E-03  -2.2000405E-01
  1.3990533E-01   9.9999998E-03  -2.0000373E-01
  1.5994298E-01   9.9999998E-03  -3.0000892E-01
  1.5992457E-01   9.9999998E-03  -2.8000569E-01
  1.5991080E-01   9.9999998E-03  -2.6000479E-01
  1.5990037E-01   9.9999998E-03  -2.4000432E-01
  1.5989323E-01   9.9999998E-03  -2.2000420E-01
  1.5988870E-01   9.9999998E-03  -2.0000395E-01
  1.7992871E-01   9.9999998E-03  -3.0000898E-01
  1.7990901E-01   9.9999998E-03  -2.8000626E-01
  1.7989394E-01   9.9999998E-03  -2.6000538E-01
  1.7988253E-01   9.9999998E-03  -2.4000499E-01
  1.7987478E-01   9.9999998E-03  -2.2000492E-01
  1.7987004E-01   9.9999998E-03  -2.0000476E-01
  1.9990994E-01   9.9999998E-03  -3.0000779E-01
  1.9989029E-01   9.9999998E-03  -2.8000671E-01
  1.9987443E-01   9.9999998E-03  -2.6000628E-01
  1.9986227E-01   9.9999998E-03  -2.4000630E-01
  1.9985408E-01   9.9999998E-03  -2.2000642E-01
  1.9984922E-01   9.9999998E-03  -2.0000634E-01
  2.1988909E-01   9.9999998E-03  -3.0001172E-01
  2.1986826E-01   9.9999998E-03  -2.8000930E-01
  2.1985199E-01   9.9999998E-03  -2.6000857E-01
  2.1983932E-01   9.9999998E-03  -2.4000868E-01
  2.1983087E-01   9.9999998E-03  -2.2000891E-01
  2.1982607E-01   9.9999998E-03  -2.0000891E-01
  2.3986486E-01   9.9999998E-03  -3.0003008E-01
  2.3984286E-01   9.9999998E-03  -2.8002122E-01
  2.3982602E-01   9.9999998E-03  -2.6001570E-01
  2.3981324E-01   9.9999998E-03  -2.4001375E-01
  2.3980492E-01   9.9999998E-03  -2.2001320E-01
  2.3980032E-01   9.9999998E-03  -2.0001285E-01
  2.5983346E-01   9.9999998E-03  -3.0004650E-01
  2.5981218E-01   9.9999998E-03  -2.8003636E-01
  2.5979570E-01   9.9999998E-03  -2.6002723E-01
  2.5978354E-01   9.9999998E-03  -2.4002223E-01
  2.5977588E-01   9.9999998E-03  -2.2001991E-01
  2.5977165E-01   9.9999998E-03  -2.0001833E-01
  2.7979603E-01   9.9999998E-03  -3.0005807E-01
  2.7977628E-01   9.9999998E-03  -2.8004882E-01
  2.7976120E-01   9.9999998E-03  -2.6003936E-01
  2.7975032E-01   9.9999998E-03  -2.4003264E-01
  2.7974349E-01   9.9999998E-03  -2.2002845E-01
  2.7973977E-01   9.9999998E-03  -2.0002528E-01
  2.9975536E-01   9.9999998E-03  -3.0006763E-01
  2.9973748E-01   9.9999998E-03  -2.8005928E-01
  2.9972368E-01   9.9999998E-03  -2.6005057E-01
  2.9971385E-01   9.9999998E-03  -2.4004322E-01
  2.9970768E-01   9.9999998E-03  -2.2003765E-01
  2.9970437E-01   9.9999998E-03  -2.0003308E-01
  3.1971371E-01   9.9999998E-03  -3.0007696E-01
  3.1969681E-01   9.9999998E-03  -2.8006890E-01
  3.1968361E-01   9.9999998E-03  -2.6006070E-01
  3.1967413E-01   9.9999998E-03  -2.4005321E-01
  3.1966823E-01   9.9999998E-03  -2.2004682E-01
  3.1966525E-01   9.9999998E-03  -2.0004123E-01
  3.3967143E-01   9.9999998E-03  -3.0008653E-01
  3.3965409E-01   9.9999998E-03  -2.8007844E-01
  3.3964053E-01   9.9999998E-03  -2.6007023E-01
  3.3963084E-01   9.9999998E-03  -2.4006265E-01
  3.3962488E-01   9.9999998E-03  -2.2005571E-01
  3.3962205E-01   9.9999998E-03  -2.0004936E-01
  3.5962719E-01   9.9999998E-03  -3.0009663E-01
  3.5960826E-01   9.9999998E-03  -2.8008813E-01
  3.5959363E-01   9.9999998E-03  -2.6007959E-01
  3.5958338E-01   9.9999998E-03  -2.4007177E-01
  3.5957718E-01   9.9999998E-03  -2.2006436E-01
  3.5957444E-01   9.9999998E-03  -2.0005731E-01
  3.7957919E-01   9.9999998E-03  -3.0010733E-01
  3.7955821E-01   9.9999998E-03  -2.8009820E-01
  3.7954220E-01   9.9999998E-03  -2.6008907E-01
  3.7953120E-01   9.9999998E-03  -2.4008082E-01
  3.7952474E-01   9.9999998E-03  -2.2007285E-01
  3.7952206E-01   9.9999998E-03  -2.0006511E-01
  3.9952651E-01   9.9999998E-03  -3.0011860E-01
  3.9950329E-01   9.9999998E-03  -2.8010869E-01
  3.9948580E-01   9.9999998E-03  -2.6009884E-01
  3.9947394E-01   9.9999998E-03  -2.4009000E-01
  3.9946714E-01   9.9999998E-03  -2.2008134E-01
  3.9946452E-01   9.9999998E-03  -2.0007282E-01
  4.1946870E-01   9.9999998E-03  -3.0013055E-01
  4.1944307E-01   9.9999998E-03  -2.8011975E-01
  4.1942391E-01   9.9999998E-03  -2.6010901E-01
  4.1941112E-01   9.9999998E-03  -2.4009939E-01
  4.1940397E-01   9.9999998E-03  -2.2008991E-01
  4.1940135E-01   9.9999998E-03  -2.0008051E-01
  4.3940520E-01   9.9999998E-03  -3.0014336E-01
  4.3937695E-01   9.9999998E-03  -2.8013146E-01
  4.3935603E-01   9.9999998E-03  -2.6011968E-01
  4.3934223E-01   9.9999998E-03  -2.4010901E-01
  4.3933469E-01   9.9999998E-03  -2.2009856E-01
  4.3933213E-01   9.9999998E-03  -2.0008820E-01
  4.5933527E-01   9.9999998E-03  -3.0015719E-01
  4.5930418E-01   9.9999998E-03  -2.8014401E-01
  4.5928144E-01   9.9999998E-03  -2.6013073E-01
  4.5926660E-01   9.9999998E-03  -2.4011874E-01
  4.5925868E-01   9.9999998E-03  -2.2010726E-01
  4.5925623E-01   9.9999998E-03  -2.0009600E-01
  4.7925761E-01   9.9999998E-03  -3.0017245E-01
  4.7922373E-01   9.9999998E-03  -2.8015745E-01
  4.7919920E-01   9.9999998E-03  -2.6014212E-01
  4.7918341E-01   9.9999998E-03  -2.4012850E-01
  4.7917524E-01   9.9999998E-03  -2.2011612E-01
  4.7917306E-01   9.9999998E-03  -2.0010419E-01
  4.9917039E-01   9.9999998E-03  -3.0018952E-01
  4.9913421E-01   9.9999998E-03  -2.8017208E-01
  4.9910828E-01   9.9999998E-03  -2.6015377E-01
  4.9909183E-01   9.9999998E-03  -2.4013841E-01
  4.9908376E-01   9.9999998E-03  -2.2012560E-01
  4.9908206E-01   9.9999998E-03  -2.0011345E-01
  5.1907098E-01   9.9999998E-03  -3.0020908E-01
  5.1903403E-01   9.9999998E-03  -2.8018823E-01
  5.1900780E-01   9.9999998E-03  -2.6016605E-01
  5.1899141E-01   9.9999998E-03  -2.4014924E-01
  5.1898384E-01   9.9999998E-03  -2.2013679E-01
  5.1898295E-01   9.9999998E-03  -2.0012498E-01
  5.3895688E-01   9.9999998E-03  -3.0023211E-01
  5.3892231E-01   9.9999998E-03  -2.8020686E-01
  5.3889763E-01   9.9999998E-03  -2.6018003E-01
  5.3888249E-01   9.9999998E-03  -2.4016267E-01
  5.3887606E-01   9.9999998E-03  -2.2015147E-01
  5.3887624E-01   9.9999998E-03  -2.0014054E-01
  5.5882818E-01   9.9999998E-03  -3.0026013E-01
  5.5880046E-01   9.9999998E-03  -2.8022972E-01
  5.5878001E-01   9.9999998E-03  -2.6019809E-01
  5.5876762E-01   9.9999998E-03  -2.4018128E-01
  5.5876303E-01   9.9999998E-03  -2.2017218E-01
  5.5876440E-01   9.9999998E-03  -2.0016201E-01
  5.7869005E-01   9.9999998E-03  -3.0029574E-01
  5.7867402E-01   9.9999998E-03  -2.8026021E-01
  5.7866037E-01   9.9999998E-03  -2.6022419E-01
  5.7865208E-01   9.9999998E-03  -2.4020815E-01
  5.7865012E-01   9.9999998E-03  -2.2020106E-01
  5.7865244E-01   9.9999998E-03  -2.0019078E-01
  5.9855413E-01   9.9999998E-03  -3.0034333E-01
  5.9855247E-01   9.9999998E-03  -2.8030407E-01
  5.9854740E-01   9.9999998E-03  -2.6026464E-01
  5.9854323E-01   9.9999998E-03  -2.4024585E-01
  5.9854293E-01   9.9999998E-03  -2.2023715E-01
  5.9854621E-01   9.9999998E-03  -2.0022532E-01
  6.1843574E-01   9.9999998E-03  -3.0040967E-01
  6.1844599E-01   9.9999998E-03  -2.8036988E-01
  6.1844510E-01   9.9999998E-03  -2.6032436E-01
  6.1844414E-01   9.9999998E-03  -2.4029569E-01
  6.1844647E-01   9.9999998E-03  -2.2028045E-01
  6.1845076E-01   9.9999998E-03  -2.0026344E-01
  6.3834900E-01   9.9999998E-03  -3.0049959E-01
  6.3836128E-01   9.9999998E-03  -2.8046316E-01
  6.3836175E-01   9.9999998E-03  -2.6041687E-01
  6.3836104E-01   9.9999998E-03  -2.4036852E-01
  6.3836432E-01   9.9999998E-03  -2.2033286E-01
  6.3837135E-01   9.9999998E-03  -2.0030618E-01
  6.5830725E-01   9.9999998E-03  -3.0060557E-01
  6.5831429E-01   9.9999998E-03  -2.8057694E-01
  6.5831512E-01   9.9999998E-03  -2.6054293E-01
  6.5831339E-01   9.9999998E-03  -2.4048391E-01
  6.5831256E-01   9.9999998E-03  -2.2041447E-01
  6.5831763E-01   9.9999998E-03  -2.0036371E-01
  6.7834371E-01   9.9999998E-03  -3.0070323E-01
  6.7832065E-01   9.9999998E-03  -2.8068265E-01
  6.7831552E-01   9.9999998E-03  -2.6066712E-01
  6.7831230E-01   9.9999998E-03  -2.4062319E-01
  6.7830312E-01   9.9999998E-03  -2.2053257E-01
  6.7830223E-01   9.9999998E-03  -2.0045339E-01
  6.9861716E-01   9.9999998E-03  -3.0077928E-01
  6.9845259E-01   9.9999998E-03  -2.8076336E-01
  6.9839579E-01   9.9999998E-03  -2.6076689E-01
  6.9838959E-01   9.9999998E-03  -2.4075651E-01
  6.9837373E-01   9.9999998E-03  -2.2068572E-01
  6.9836098E-01   9.9999998E-03  -2.0059502E-01
  7.1908498E-01   9.9999998E-03  -3.0083469E-01
  7.1891892E-01   9.9999998E-03  -2.8081831E-01
  7.1876496E-01   9.9999998E-03  -2.6082852E-01
  7.1865934E-01   9.9999998E-03  -2.4084422E-01
  7.1860784E-01   9.9999998E-03  -2.2081555E-01
  7.1858817E-01   9.9999998E-03  -2.0076160E-01
  7.3945552E-01   9.9999998E-03  -3.0087575E-01
  7.3935223E-01   9.9999998E-03  -2.8085238E-01
  7.3925394E-01   9.9999998E-03  -2.6084563E-01
  7.3917544E-01   9.9999998E-03  -2.4084951E-01
  7.3912323E-01   9.9999998E-03  -2.2082396E-01
  7.3909628E-01   9.9999998E-03  -2.0077673E-01
  7.5969732E-01   9.9999998E-03  -3.0090731E-01
  7.5964159E-01   9.9999998E-03  -2.8087425E-01
  7.5959003E-01   9.9999998E-03  -2.6084951E-01
  7.5954515E-01   9.9999998E-03  -2.4083626E-01
  7.5951219E-01   9.9999998E-03  -2.2080603E-01
  7.5949132E-01   9.9999998E-03  -2.0075476E-01
  7.7985132E-01   9.9999998E-03  -3.0092821E-01
  7.7983022E-01   9.9999998E-03  -2.8088900E-01
  7.7981234E-01   9.9999998E-03  -2.6085716E-01
  7.7979481E-01   9.9999998E-03  -2.4082533E-01
  7.7977973E-01   9.9999998E-03  -2.2078601E-01
  7.7976799E-01   9.9999998E-03  -2.0072787E-01
  7.9997993E-01   9.9999998E-03  -3.0093849E-01
  7.9998600E-01   9.9999998E-03  -2.8089616E-01
  7.9999304E-01   9.9999998E-03  -2.6086324E-01
  7.9999727E-01   9.9999998E-03  -2.4082506E-01
  7.9999709E-01   9.9999998E-03  -2.2077730E-01
  7.9999387E-01   9.9999998E-03  -2.0071197E-01
  8.2013059E-01   9.9999998E-03  -3.0093923E-01
  8.2016242E-01   9.9999998E-03  -2.8089580E-01
  8.2019037E-01   9.9999998E-03  -2.6086512E-01
  8.2021242E-01   9.9999998E-03  -2.4083295E-01
  8.2022363E-01   9.9999998E-03  -2.2078243E-01
  8.2022536E-01   9.9999998E-03  -2.0070739E-01
  8.4031695E-01   9.9999998E-03  -3.0092937E-01
  8.4037596E-01   9.9999998E-03  -2.8088620E-01
  8.4042454E-01   9.9999998E-03  -2.6085758E-01
  8.4046203E-01   9.9999998E-03  -2.4083330E-01
  8.4048194E-01   9.9999998E-03  -2.2078560E-01
  8.4048414E-01   9.9999998E-03  -2.0070715E-01
  8.6052531E-01   9.9999998E-03  -3.0091053E-01
  8.6061281E-01   9.9999998E-03  -2.8086874E-01
  8.6068243E-01   9.9999998E-03  -2.6084197E-01
  8.6073482E-01   9.9999998E-03  -2.4082303E-01
  8.6076117E-01   9.9999998E-03  -2.2077949E-01
  8.6076051E-01   9.9999998E-03  -2.0070408E-01
  8.8073289E-01   9.9999998E-03  -3.0088487E-01
  8.8084745E-01   9.9999998E-03  -2.8084525E-01
  8.8093728E-01   9.9999998E-03  -2.6081946E-01
  8.8100445E-01   9.9999998E-03  -2.4080306E-01
  8.8103634E-01   9.9999998E-03  -2.2076263E-01
  8.8103217E-01   9.9999998E-03  -2.0069288E-01
  9.0092182E-01   9.9999998E-03  -3.0085409E-01
  9.0105802E-01   9.9999998E-03  -2.8081739E-01
  9.0116560E-01   9.9999998E-03  -2.6079109E-01
  9.0124333E-01   9.9999998E-03  -2.4077219E-01
  9.0128326E-01   9.9999998E-03  -2.2073334E-01
  9.0127861E-01   9.9999998E-03  -2.0067105E-01
  9.2108226E-01   9.9999998E-03  -3.0081922E-01
  9.2123115E-01   9.9999998E-03  -2.8078616E-01
  9.2135024E-01   9.9999998E-03  -2.6075676E-01
  9.2143667E-01   9.9999998E-03  -2.4073204E-01
  9.2148489E-01   9.9999998E-03  -2.2069138E-01
  9.2147911E-01   9.9999998E-03  -2.0063871E-01
  9.4121057E-01   9.9999998E-03  -3.0078098E-01
  9.4136286E-01   9.9999998E-03  -2.8075159E-01
  9.4148910E-01   9.9999998E-03  -2.6071933E-01
  9.4158155E-01   9.9999998E-03  -2.4068546E-01
  9.4161111E-01   9.9999998E-03  -2.2064963E-01
  9.4157904E-01   9.9999998E-03  -2.0060371E-01
  9.6131676E-01   9.9999998E-03  -3.0073935E-01
  9.6146756E-01   9.9999998E-03  -2.8071335E-01
  9.6159470E-01   9.9999998E-03  -2.6067883E-01
  9.6166956E-01   9.9999998E-03  -2.4064556E-01
  9.6166217E-01   9.9999998E-03  -2.2061768E-01
  9.6161640E-01   9.9999998E-03  -2.0056985E-01
  9.8141605E-01   9.9999998E-03  -3.0069458E-01
  9.8156035E-01   9.9999998E-03  -2.8067082E-01
  9.8167479E-01   9.9999998E-03  -2.6063609E-01
  9.8171061E-01   9.9999998E-03  -2.4061330E-01
  9.8167920E-01   9.9999998E-03  -2.2058704E-01
  9.8162442E-01   9.9999998E-03  -2.0053706E-01
  1.0015198E+00   9.9999998E-03  -3.0064705E-01
  1.0016466E+00   9.9999998E-03  -2.8062424E-01
  1.0017312E+00   9.9999998E-03  -2.6059276E-01
  1.0017267E+00   9.9999998E-03  -2.4057868E-01
  1.0016804E+00   9.9999998E-03  -2.2055101E-01
  1.0016199E+00   9.9999998E-03  -2.0050457E-01
  1.0216364E+00   9.9999998E-03  -3.0059776E-01
  1.0217321E+00   9.9999998E-03  -2.8057405E-01
  1.0217650E+00   9.9999998E-03  -2.6054952E-01
  1.0217328E+00   9.9999998E-03  -2.4053870E-01
  1.0216746E+00   9.9999998E-03  -2.2051315E-01
  1.0216098E+00   9.9999998E-03  -2.0047346E-01
  1.0417762E+00   9.9999998E-03  -3.0054742E-01
  1.0418168E+00   9.9999998E-03  -2.8052482E-01
  1.0417863E+00   9.9999998E-03  -2.6050636E-01
  1.0417331E+00   9.9999998E-03  -2.4049526E-01
  1.0416665E+00   9.9999998E-03  -2.2047313E-01
  1.0415963E+00   9.9999998E-03  -2.0043865E-01
  1.0619117E+00   9.9999998E-03  -3.0050045E-01
  1.0618722E+00   9.9999998E-03  -2.8048226E-01
  1.0618050E+00   9.9999998E-03  -2.6046365E-01
  1.0617317E+00   9.9999998E-03  -2.4045199E-01
  1.0616580E+00   9.9999998E-03  -2.2043218E-01
  1.0615815E+00   9.9999998E-03  -2.0040235E-01
  1.0819647E+00   9.9999998E-03  -3.0045739E-01
  1.0819017E+00   9.9999998E-03  -2.8044125E-01
  1.0818135E+00   9.9999998E-03  -2.6041988E-01
  1.0817288E+00   9.9999998E-03  -2.4040696E-01
  1.0816498E+00   9.9999998E-03  -2.2039118E-01
  1.0815669E+00   9.9999998E-03  -2.0036390E-01
  1.1019064E+00   9.9999998E-03  -2.8040236E-01
  1.1018112E+00   9.9999998E-03  -2.6037675E-01
  1.1017237E+00   9.9999998E-03  -2.4036035E-01
  1.1016411E+00   9.9999998E-03  -2.2034763E-01
  1.1015539E+00   9.9999998E-03  -2.0032533E-01
  1.1218901E+00   9.9999998E-03  -2.8036758E-01
  1.1218045E+00   9.9999998E-03  -2.6034093E-01
  1.1217158E+00   9.9999998E-03  -2.4031709E-01
  1.1216321E+00   9.9999998E-03  -2.2030450E-01
  1.1215427E+00   9.9999998E-03  -2.0028637E-01
  1.1417935E+00   9.9999998E-03  -2.6031482E-01
  1.1417071E+00   9.9999998E-03  -2.4028528E-01
  1.1416245E+00   9.9999998E-03  -2.2026752E-01
  1.1415347E+00   9.9999998E-03  -2.0025139E-01
  1.1617695E+00   9.9999998E-03  -2.6029381E-01
  1.1617005E+00   9.9999998E-03  -2.4026713E-01
  1.1616182E+00   9.9999998E-03  -2.2024032E-01
  1.1615316E+00   9.9999998E-03  -2.0022364E-01
  1.1816845E+00   9.9999998E-03  -2.4025676E-01
  1.1816131E+00   9.9999998E-03  -2.2022781E-01
  1.1815326E+00   9.9999998E-03  -2.0020655E-01
  1.2015988E+00   9.9999998E-03  -2.2022352E-01
  1.2015340E+00   9.9999998E-03  -2.0020139E-01
  1.2215465E+00   9.9999998E-03  -2.2020949E-01
  1.2215183E+00   9.9999998E-03  -2.0020051E-01
 -1.7932431E-05   9.9999998E-03  -1.8000221E-01
 -1.8483523E-05   9.9999998E-03  -1.6000178E-01
 -1.8824005E-05   9.9999998E-03  -1.4000142E-01
 -1.9011586E-05   9.9999998E-03  -1.2000110E-01
 -1.9099401E-05   9.9999998E-03  -1.0000082E-01
 -1.9123221E-05   9.9999998E-03  -8.0000602E-02
 -1.9113826E-05   9.9999998E-03  -6.0000412E-02
 -1.9093095E-05   9.9999998E-03  -4.0000256E-02
 -1.9075040E-05   9.9999998E-03  -2.0000122E-02
  1.9974684E-02   9.9999998E-03  -1.8000294E-01
  1.9973969E-02   9.9999998E-03  -1.6000240E-01
  1.9973550E-02   9.9999998E-03  -1.4000192E-01
  1.9973326E-02   9.9999998E-03  -1.2000150E-01
  1.9973239E-02   9.9999998E-03  -1.0000114E-01
  1.9973231E-02   9.9999998E-03  -8.0000840E-02
  1.9973263E-02   9.9999998E-03  -6.0000587E-02
  1.9973306E-02   9.9999998E-03  -4.0000368E-02
  1.9973338E-02   9.9999998E-03  -2.0000178E-02
  3.9965305E-02   9.9999998E-03  -1.8000339E-01
  3.9964408E-02   9.9999998E-03  -1.6000280E-01
  3.9963890E-02   9.9999998E-03  -1.4000227E-01
  3.9963637E-02   9.9999998E-03  -1.2000178E-01
  3.9963555E-02   9.9999998E-03  -1.0000137E-01
  3.9963569E-02   9.9999998E-03  -8.0001019E-02
  3.9963633E-02   9.9999998E-03  -6.0000714E-02
  3.9963704E-02   9.9999998E-03  -4.0000454E-02
  3.9963756E-02   9.9999998E-03  -2.0000219E-02
  5.9954755E-02   9.9999998E-03  -1.8000358E-01
  5.9953682E-02   9.9999998E-03  -1.6000299E-01
  5.9953082E-02   9.9999998E-03  -1.4000243E-01
  5.9952807E-02   9.9999998E-03  -1.2000193E-01
  5.9952740E-02   9.9999998E-03  -1.0000149E-01
  5.9952788E-02   9.9999998E-03  -8.0001116E-02
  5.9952889E-02   9.9999998E-03  -6.0000788E-02
  5.9952993E-02   9.9999998E-03  -4.0000502E-02
  5.9953067E-02   9.9999998E-03  -2.0000245E-02
  7.9943374E-02   9.9999998E-03  -1.8000360E-01
  7.9942159E-02   9.9999998E-03  -1.6000301E-01
  7.9941504E-02   9.9999998E-03  -1.4000246E-01
  7.9941235E-02   9.9999998E-03  -1.2000196E-01
  7.9941198E-02   9.9999998E-03  -1.0000153E-01
  7.9941295E-02   9.9999998E-03  -8.0001153E-02
  7.9941444E-02   9.9999998E-03  -6.0000822E-02
  7.9941586E-02   9.9999998E-03  -4.0000524E-02
  7.9941683E-02   9.9999998E-03  -2.0000257E-02
  9.9931128E-02   9.9999998E-03  -1.8000349E-01
  9.9929817E-02   9.9999998E-03  -1.6000293E-01
  9.9929154E-02   9.9999998E-03  -1.4000241E-01
  9.9928908E-02   9.9999998E-03  -1.2000195E-01
  9.9928930E-02   9.9999998E-03  -1.0000153E-01
  9.9929087E-02   9.9999998E-03  -8.0001161E-02
  9.9929295E-02   9.9999998E-03  -6.0000829E-02
  9.9929482E-02   9.9999998E-03  -4.0000536E-02
  9.9929616E-02   9.9999998E-03  -2.0000262E-02
  1.1991773E-01   9.9999998E-03  -1.8000337E-01
  1.1991637E-01   9.9999998E-03  -1.6000287E-01
  1.1991573E-01   9.9999998E-03  -1.4000240E-01
  1.1991555E-01   9.9999998E-03  -1.2000195E-01
  1.1991566E-01   9.9999998E-03  -1.0000155E-01
  1.1991590E-01   9.9999998E-03  -8.0001183E-02
  1.1991617E-01   9.9999998E-03  -6.0000859E-02
  1.1991642E-01   9.9999998E-03  -4.0000558E-02
  1.1991658E-01   9.9999998E-03  -2.0000275E-02
  1.3990282E-01   9.9999998E-03  -1.8000337E-01
  1.3990146E-01   9.9999998E-03  -1.6000293E-01
  1.3990089E-01   9.9999998E-03  -1.4000250E-01
  1.3990080E-01   9.9999998E-03  -1.2000208E-01
  1.3990101E-01   9.9999998E-03  -1.0000167E-01
  1.3990135E-01   9.9999998E-03  -8.0001302E-02
  1.3990173E-01   9.9999998E-03  -6.0000952E-02
  1.3990204E-01   9.9999998E-03  -4.0000625E-02
  1.3990223E-01   9.9999998E-03  -2.0000309E-02
  1.5988611E-01   9.9999998E-03  -1.8000367E-01
  1.5988481E-01   9.9999998E-03  -1.6000329E-01
  1.5988435E-01   9.9999998E-03  -1.4000288E-01
  1.5988441E-01   9.9999998E-03  -1.2000243E-01
  1.5988475E-01   9.9999998E-03  -1.0000200E-01
  1.5988521E-01   9.9999998E-03  -8.0001570E-02
  1.5988567E-01   9.9999998E-03  -6.0001161E-02
  1.5988606E-01   9.9999998E-03  -4.0000767E-02
  1.5988632E-01   9.9999998E-03  -2.0000381E-02
  1.7986746E-01   9.9999998E-03  -1.8000449E-01
  1.7986627E-01   9.9999998E-03  -1.6000412E-01
  1.7986594E-01   9.9999998E-03  -1.4000367E-01
  1.7986615E-01   9.9999998E-03  -1.2000315E-01
  1.7986666E-01   9.9999998E-03  -1.0000261E-01
  1.7986727E-01   9.9999998E-03  -8.0002069E-02
  1.7986785E-01   9.9999998E-03  -6.0001541E-02
  1.7986833E-01   9.9999998E-03  -4.0001020E-02
  1.7986864E-01   9.9999998E-03  -2.0000510E-02
  1.9984671E-01   9.9999998E-03  -1.8000607E-01
  1.9984566E-01   9.9999998E-03  -1.6000563E-01
  1.9984551E-01   9.9999998E-03  -1.4000504E-01
  1.9984591E-01   9.9999998E-03  -1.2000434E-01
  1.9984658E-01   9.9999998E-03  -1.0000361E-01
  1.9984736E-01   9.9999998E-03  -8.0002867E-02
  1.9984807E-01   9.9999998E-03  -6.0002133E-02
  1.9984865E-01   9.9999998E-03  -4.0001418E-02
  1.9984904E-01   9.9999998E-03  -2.0000705E-02
  2.1982369E-01   9.9999998E-03  -1.8000855E-01
  2.1982281E-01   9.9999998E-03  -1.6000791E-01
  2.1982284E-01   9.9999998E-03  -1.4000706E-01
  2.1982343E-01   9.9999998E-03  -1.2000608E-01
  2.1982431E-01   9.9999998E-03  -1.0000505E-01
  2.1982525E-01   9.9999998E-03  -8.0003999E-02
  2.1982613E-01   9.9999998E-03  -6.0002979E-02
  2.1982683E-01   9.9999998E-03  -4.0001974E-02
  2.1982728E-01   9.9999998E-03  -2.0000985E-02
  2.3979813E-01   9.9999998E-03  -1.8001206E-01
  2.3979746E-01   9.9999998E-03  -1.6001104E-01
  2.3979768E-01   9.9999998E-03  -1.4000979E-01
  2.3979849E-01   9.9999998E-03  -1.2000840E-01
  2.3979957E-01   9.9999998E-03  -1.0000695E-01
  2.3980072E-01   9.9999998E-03  -8.0005512E-02
  2.3980175E-01   9.9999998E-03  -6.0004100E-02
  2.3980258E-01   9.9999998E-03  -4.0002715E-02
  2.3980311E-01   9.9999998E-03  -2.0001352E-02
  2.5976974E-01   9.9999998E-03  -1.8001674E-01
  2.5976929E-01   9.9999998E-03  -1.6001505E-01
  2.5976974E-01   9.9999998E-03  -1.4001322E-01
  2.5977078E-01   9.9999998E-03  -1.2001128E-01
  2.5977209E-01   9.9999998E-03  -1.0000933E-01
  2.5977343E-01   9.9999998E-03  -8.0007397E-02
  2.5977466E-01   9.9999998E-03  -6.0005497E-02
  2.5977561E-01   9.9999998E-03  -4.0003639E-02
  2.5977623E-01   9.9999998E-03  -2.0001814E-02
  2.7973819E-01   9.9999998E-03  -1.8002254E-01
  2.7973801E-01   9.9999998E-03  -1.6001993E-01
  2.7973872E-01   9.9999998E-03  -1.4001735E-01
  2.7974001E-01   9.9999998E-03  -1.2001473E-01
  2.7974156E-01   9.9999998E-03  -1.0001215E-01
  2.7974313E-01   9.9999998E-03  -8.0009617E-02
  2.7974454E-01   9.9999998E-03  -6.0007144E-02
  2.7974564E-01   9.9999998E-03  -4.0004726E-02
  2.7974632E-01   9.9999998E-03  -2.0002352E-02
  2.9970315E-01   9.9999998E-03  -1.8002915E-01
  2.9970327E-01   9.9999998E-03  -1.6002554E-01
  2.9970431E-01   9.9999998E-03  -1.4002207E-01
  2.9970586E-01   9.9999998E-03  -1.2001866E-01
  2.9970768E-01   9.9999998E-03  -1.0001535E-01
  2.9970950E-01   9.9999998E-03  -8.0012128E-02
  2.9971111E-01   9.9999998E-03  -6.0008999E-02
  2.9971233E-01   9.9999998E-03  -4.0005956E-02
  2.9971313E-01   9.9999998E-03  -2.0002965E-02
  3.1966433E-01   9.9999998E-03  -1.8003623E-01
  3.1966481E-01   9.9999998E-03  -1.6003159E-01
  3.1966615E-01   9.9999998E-03  -1.4002718E-01
  3.1966802E-01   9.9999998E-03  -1.2002294E-01
  3.1967014E-01   9.9999998E-03  -1.0001884E-01
  3.1967220E-01   9.9999998E-03  -8.0014892E-02
  3.1967399E-01   9.9999998E-03  -6.0011063E-02
  3.1967536E-01   9.9999998E-03  -4.0007327E-02
  3.1967625E-01   9.9999998E-03  -2.0003650E-02
  3.3962139E-01   9.9999998E-03  -1.8004341E-01
  3.3962223E-01   9.9999998E-03  -1.6003783E-01
  3.3962393E-01   9.9999998E-03  -1.4003253E-01
  3.3962616E-01   9.9999998E-03  -1.2002744E-01
  3.3962855E-01   9.9999998E-03  -1.0002255E-01
  3.3963084E-01   9.9999998E-03  -8.0017842E-02
  3.3963281E-01   9.9999998E-03  -6.0013268E-02
  3.3963436E-01   9.9999998E-03  -4.0008798E-02
  3.3963531E-01   9.9999998E-03  -2.0004386E-02
  3.5957408E-01   9.9999998E-03  -1.8005055E-01
  3.5957524E-01   9.9999998E-03  -1.6004410E-01
  3.5957730E-01   9.9999998E-03  -1.4003794E-01
  3.5957983E-01   9.9999998E-03  -1.2003204E-01
  3.5958251E-01   9.9999998E-03  -1.0002636E-01
  3.5958505E-01   9.9999998E-03  -8.0020875E-02
  3.5958722E-01   9.9999998E-03  -6.0015541E-02
  3.5958889E-01   9.9999998E-03  -4.0010300E-02
  3.5958993E-01   9.9999998E-03  -2.0005133E-02
  3.7952194E-01   9.9999998E-03  -1.8005756E-01
  3.7952343E-01   9.9999998E-03  -1.6005030E-01
  3.7952584E-01   9.9999998E-03  -1.4004333E-01
  3.7952870E-01   9.9999998E-03  -1.2003662E-01
  3.7953165E-01   9.9999998E-03  -1.0003015E-01
  3.7953442E-01   9.9999998E-03  -8.0023892E-02
  3.7953678E-01   9.9999998E-03  -6.0017783E-02
  3.7953857E-01   9.9999998E-03  -4.0011793E-02
  3.7953970E-01   9.9999998E-03  -2.0005878E-02
  3.9946464E-01   9.9999998E-03  -1.8006445E-01
  3.9946645E-01   9.9999998E-03  -1.6005637E-01
  3.9946923E-01   9.9999998E-03  -1.4004858E-01
  3.9947242E-01   9.9999998E-03  -1.2004108E-01
  3.9947563E-01   9.9999998E-03  -1.0003384E-01
  3.9947861E-01   9.9999998E-03  -8.0026820E-02
  3.9948115E-01   9.9999998E-03  -6.0019974E-02
  3.9948305E-01   9.9999998E-03  -4.0013250E-02
  3.9948425E-01   9.9999998E-03  -2.0006606E-02
  4.1940174E-01   9.9999998E-03  -1.8007125E-01
  4.1940394E-01   9.9999998E-03  -1.6006230E-01
  4.1940707E-01   9.9999998E-03  -1.4005369E-01
  4.1941056E-01   9.9999998E-03  -1.2004539E-01
  4.1941407E-01   9.9999998E-03  -1.0003740E-01
  4.1941726E-01   9.9999998E-03  -8.0029659E-02
  4.1941994E-01   9.9999998E-03  -6.0022108E-02
  4.1942197E-01   9.9999998E-03  -4.0014677E-02
  4.1942322E-01   9.9999998E-03  -2.0007323E-02
  4.3933284E-01   9.9999998E-03  -1.8007801E-01
  4.3933544E-01   9.9999998E-03  -1.6006817E-01
  4.3933898E-01   9.9999998E-03  -1.4005873E-01
  4.3934286E-01   9.9999998E-03  -1.2004966E-01
  4.3934664E-01   9.9999998E-03  -1.0004094E-01
  4.3935004E-01   9.9999998E-03  -8.0032498E-02
  4.3935290E-01   9.9999998E-03  -6.0024250E-02
  4.3935502E-01   9.9999998E-03  -4.0016118E-02
  4.3935636E-01   9.9999998E-03  -2.0008046E-02
  4.5925736E-01   9.9999998E-03  -1.8008494E-01
  4.5926046E-01   9.9999998E-03  -1.6007425E-01
  4.5926452E-01   9.9999998E-03  -1.4006400E-01
  4.5926881E-01   9.9999998E-03  -1.2005416E-01
  4.5927292E-01   9.9999998E-03  -1.0004468E-01
  4.5927656E-01   9.9999998E-03  -8.0035515E-02
  4.5927957E-01   9.9999998E-03  -6.0026541E-02
  4.5928180E-01   9.9999998E-03  -4.0017672E-02
  4.5928320E-01   9.9999998E-03  -2.0008830E-02
  4.7917476E-01   9.9999998E-03  -1.8009248E-01
  4.7917852E-01   9.9999998E-03  -1.6008106E-01
  4.7918314E-01   9.9999998E-03  -1.4007001E-01
  4.7918794E-01   9.9999998E-03  -1.2005934E-01
  4.7919241E-01   9.9999998E-03  -1.0004903E-01
  4.7919634E-01   9.9999998E-03  -8.0039039E-02
  4.7919953E-01   9.9999998E-03  -6.0029227E-02
  4.7920188E-01   9.9999998E-03  -4.0019486E-02
  4.7920334E-01   9.9999998E-03  -2.0009751E-02
  4.9908447E-01   9.9999998E-03  -1.8010142E-01
  4.9908897E-01   9.9999998E-03  -1.6008945E-01
  4.9909434E-01   9.9999998E-03  -1.4007759E-01
  4.9909970E-01   9.9999998E-03  -1.2006593E-01
  4.9910465E-01   9.9999998E-03  -1.0005457E-01
  4.9910888E-01   9.9999998E-03  -8.0043495E-02
  4.9911228E-01   9.9999998E-03  -6.0032602E-02
  4.9911478E-01   9.9999998E-03  -4.0021766E-02
  4.9911630E-01   9.9999998E-03  -2.0010900E-02
  5.1898623E-01   9.9999998E-03  -1.8011299E-01
  5.1899159E-01   9.9999998E-03  -1.6010053E-01
  5.1899767E-01   9.9999998E-03  -1.4008771E-01
  5.1900375E-01   9.9999998E-03  -1.2007477E-01
  5.1900917E-01   9.9999998E-03  -1.0006196E-01
  5.1901376E-01   9.9999998E-03  -8.0049410E-02
  5.1901740E-01   9.9999998E-03  -6.0037039E-02
  5.1902008E-01   9.9999998E-03  -4.0024731E-02
  5.1902175E-01   9.9999998E-03  -2.0012394E-02
  5.3888047E-01   9.9999998E-03  -1.8012859E-01
  5.3888667E-01   9.9999998E-03  -1.6011545E-01
  5.3889352E-01   9.9999998E-03  -1.4010136E-01
  5.3890020E-01   9.9999998E-03  -1.2008665E-01
  5.3890616E-01   9.9999998E-03  -1.0007185E-01
  5.3891116E-01   9.9999998E-03  -8.0057263E-02
  5.3891516E-01   9.9999998E-03  -6.0042895E-02
  5.3891802E-01   9.9999998E-03  -4.0028617E-02
  5.3891975E-01   9.9999998E-03  -2.0014323E-02
  5.5876946E-01   9.9999998E-03  -1.8014972E-01
  5.5877626E-01   9.9999998E-03  -1.6013534E-01
  5.5878365E-01   9.9999998E-03  -1.4011934E-01
  5.5879080E-01   9.9999998E-03  -1.2010226E-01
  5.5879724E-01   9.9999998E-03  -1.0008483E-01
  5.5880266E-01   9.9999998E-03  -8.0067553E-02
  5.5880702E-01   9.9999998E-03  -6.0050528E-02
  5.5881011E-01   9.9999998E-03  -4.0033657E-02
  5.5881202E-01   9.9999998E-03  -2.0016830E-02
  5.7865793E-01   9.9999998E-03  -1.8017720E-01
  5.7866484E-01   9.9999998E-03  -1.6016056E-01
  5.7867235E-01   9.9999998E-03  -1.4014170E-01
  5.7867974E-01   9.9999998E-03  -1.2012150E-01
  5.7868654E-01   9.9999998E-03  -1.0010072E-01
  5.7869232E-01   9.9999998E-03  -8.0080077E-02
  5.7869697E-01   9.9999998E-03  -6.0059801E-02
  5.7870030E-01   9.9999998E-03  -4.0039793E-02
  5.7870239E-01   9.9999998E-03  -2.0019893E-02
  5.9855193E-01   9.9999998E-03  -1.8020937E-01
  5.9855908E-01   9.9999998E-03  -1.6019014E-01
  5.9856671E-01   9.9999998E-03  -1.4016820E-01
  5.9857422E-01   9.9999998E-03  -1.2014430E-01
  5.9858114E-01   9.9999998E-03  -1.0011952E-01
  5.9858721E-01   9.9999998E-03  -8.0094889E-02
  5.9859210E-01   9.9999998E-03  -6.0070772E-02
  5.9859574E-01   9.9999998E-03  -4.0047076E-02
  5.9859800E-01   9.9999998E-03  -2.0023534E-02
  6.1845773E-01   9.9999998E-03  -1.8024440E-01
  6.1846560E-01   9.9999998E-03  -1.6022249E-01
  6.1847329E-01   9.9999998E-03  -1.4019719E-01
  6.1848086E-01   9.9999998E-03  -1.2016931E-01
  6.1848783E-01   9.9999998E-03  -1.0014037E-01
  6.1849403E-01   9.9999998E-03  -8.0111563E-02
  6.1849928E-01   9.9999998E-03  -6.0083225E-02
  6.1850321E-01   9.9999998E-03  -4.0055361E-02
  6.1850566E-01   9.9999998E-03  -2.0027701E-02
  6.3838035E-01   9.9999998E-03  -1.8028177E-01
  6.3838869E-01   9.9999998E-03  -1.6025592E-01
  6.3839626E-01   9.9999998E-03  -1.4022662E-01
  6.3840359E-01   9.9999998E-03  -1.2019470E-01
  6.3841063E-01   9.9999998E-03  -1.0016147E-01
  6.3841718E-01   9.9999998E-03  -8.0128238E-02
  6.3842273E-01   9.9999998E-03  -6.0095631E-02
  6.3842696E-01   9.9999998E-03  -4.0063612E-02
  6.3842952E-01   9.9999998E-03  -2.0031800E-02
  6.5832573E-01   9.9999998E-03  -1.8032651E-01
  6.5833366E-01   9.9999998E-03  -1.6029356E-01
  6.5834069E-01   9.9999998E-03  -1.4025910E-01
  6.5834743E-01   9.9999998E-03  -1.2022183E-01
  6.5835404E-01   9.9999998E-03  -1.0018354E-01
  6.5836048E-01   9.9999998E-03  -8.0145791E-02
  6.5836620E-01   9.9999998E-03  -6.0108997E-02
  6.5837055E-01   9.9999998E-03  -4.0072665E-02
  6.5837324E-01   9.9999998E-03  -2.0036336E-02
  6.7830783E-01   9.9999998E-03  -1.8039800E-01
  6.7831397E-01   9.9999998E-03  -1.6035327E-01
  6.7831886E-01   9.9999998E-03  -1.4031021E-01
  6.7832345E-01   9.9999998E-03  -1.2026562E-01
  6.7832851E-01   9.9999998E-03  -1.0022060E-01
  6.7833376E-01   9.9999998E-03  -8.0176562E-02
  6.7833853E-01   9.9999998E-03  -6.0133256E-02
  6.7834216E-01   9.9999998E-03  -4.0089883E-02
  6.7834431E-01   9.9999998E-03  -2.0045435E-02
  6.9835800E-01   9.9999998E-03  -1.8051949E-01
  6.9835728E-01   9.9999998E-03  -1.6045707E-01
  6.9835478E-01   9.9999998E-03  -1.4039740E-01
  6.9835228E-01   9.9999998E-03  -1.2033847E-01
  6.9835234E-01   9.9999998E-03  -1.0028180E-01
  6.9835407E-01   9.9999998E-03  -8.0227114E-02
  6.9835603E-01   9.9999998E-03  -6.0172521E-02
  6.9835752E-01   9.9999998E-03  -4.0116802E-02
  6.9835836E-01   9.9999998E-03  -2.0059092E-02
  7.1857780E-01   9.9999998E-03  -1.8069454E-01
  7.1857178E-01   9.9999998E-03  -1.6062523E-01
  7.1856457E-01   9.9999998E-03  -1.4054817E-01
  7.1855789E-01   9.9999998E-03  -1.2046646E-01
  7.1855468E-01   9.9999998E-03  -1.0038619E-01
  7.1855450E-01   9.9999998E-03  -8.0309264E-02
  7.1855575E-01   9.9999998E-03  -6.0234416E-02
  7.1855754E-01   9.9999998E-03  -4.0158778E-02
  7.1855903E-01   9.9999998E-03  -2.0080494E-02
  7.3908317E-01   9.9999998E-03  -1.8071145E-01
  7.3907399E-01   9.9999998E-03  -1.6064265E-01
  7.3906571E-01   9.9999998E-03  -1.4056507E-01
  7.3905867E-01   9.9999998E-03  -1.2048163E-01
  7.3905325E-01   9.9999998E-03  -1.0040056E-01
  7.3904961E-01   9.9999998E-03  -8.0322906E-02
  7.3904759E-01   9.9999998E-03  -6.0246237E-02
  7.3904675E-01   9.9999998E-03  -4.0167529E-02
  7.3904657E-01   9.9999998E-03  -2.0085162E-02
  7.5947791E-01   9.9999998E-03  -1.8068998E-01
  7.5946641E-01   9.9999998E-03  -1.6062780E-01
  7.5945568E-01   9.9999998E-03  -1.4055631E-01
  7.5944591E-01   9.9999998E-03  -1.2047777E-01
  7.5943756E-01   9.9999998E-03  -1.0040022E-01
  7.5943089E-01   9.9999998E-03  -8.0324769E-02
  7.5942612E-01   9.9999998E-03  -6.0249057E-02
  7.5942296E-01   9.9999998E-03  -4.0170170E-02
  7.5942129E-01   9.9999998E-03  -2.0086728E-02
  7.7975863E-01   9.9999998E-03  -1.8066666E-01
  7.7974963E-01   9.9999998E-03  -1.6060990E-01
  7.7974051E-01   9.9999998E-03  -1.4054303E-01
  7.7973157E-01   9.9999998E-03  -1.2046822E-01
  7.7972329E-01   9.9999998E-03  -1.0039364E-01
  7.7971613E-01   9.9999998E-03  -8.0320522E-02
  7.7971053E-01   9.9999998E-03  -6.0246576E-02
  7.7970654E-01   9.9999998E-03  -4.0168911E-02
  7.7970421E-01   9.9999998E-03  -2.0086229E-02
  7.9998916E-01   9.9999998E-03  -1.8065085E-01
  7.9998356E-01   9.9999998E-03  -1.6059610E-01
  7.9997724E-01   9.9999998E-03  -1.4053114E-01
  7.9997057E-01   9.9999998E-03  -1.2045798E-01
  7.9996395E-01   9.9999998E-03  -1.0038497E-01
  7.9995787E-01   9.9999998E-03  -8.0313504E-02
  7.9995286E-01   9.9999998E-03  -6.0241316E-02
  7.9994917E-01   9.9999998E-03  -4.0165436E-02
  7.9994690E-01   9.9999998E-03  -2.0084508E-02
  8.2022238E-01   9.9999998E-03  -1.8064377E-01
  8.2021785E-01   9.9999998E-03  -1.6058820E-01
  8.2021296E-01   9.9999998E-03  -1.4052284E-01
  8.2020789E-01   9.9999998E-03  -1.2044948E-01
  8.2020289E-01   9.9999998E-03  -1.0037671E-01
  8.2019830E-01   9.9999998E-03  -8.0306076E-02
  8.2019448E-01   9.9999998E-03  -6.0235262E-02
  8.2019156E-01   9.9999998E-03  -4.0161170E-02
  8.2018971E-01   9.9999998E-03  -2.0082312E-02
  8.4047842E-01   9.9999998E-03  -1.8064119E-01
  8.4047139E-01   9.9999998E-03  -1.6058382E-01
  8.4046513E-01   9.9999998E-03  -1.4051701E-01
  8.4045988E-01   9.9999998E-03  -1.2044264E-01
  8.4045553E-01   9.9999998E-03  -1.0036948E-01
  8.4045196E-01   9.9999998E-03  -8.0299214E-02
  8.4044909E-01   9.9999998E-03  -6.0229447E-02
  8.4044701E-01   9.9999998E-03  -4.0156946E-02
  8.4044570E-01   9.9999998E-03  -2.0080084E-02
  8.6074859E-01   9.9999998E-03  -1.8063730E-01
  8.6073589E-01   9.9999998E-03  -1.6057856E-01
  8.6072582E-01   9.9999998E-03  -1.4051059E-01
  8.6071855E-01   9.9999998E-03  -1.2043555E-01
  8.6071348E-01   9.9999998E-03  -1.0036232E-01
  8.6070997E-01   9.9999998E-03  -8.0292568E-02
  8.6070758E-01   9.9999998E-03  -6.0223863E-02
  8.6070591E-01   9.9999998E-03  -4.0152896E-02
  8.6070496E-01   9.9999998E-03  -2.0077944E-02
  8.8101262E-01   9.9999998E-03  -1.8062712E-01
  8.8099283E-01   9.9999998E-03  -1.6056818E-01
  8.8097769E-01   9.9999998E-03  -1.4050025E-01
  8.8096720E-01   9.9999998E-03  -1.2042578E-01
  8.8096040E-01   9.9999998E-03  -1.0035349E-01
  8.8095611E-01   9.9999998E-03  -8.0284983E-02
  8.8095349E-01   9.9999998E-03  -6.0217798E-02
  8.8095182E-01   9.9999998E-03  -4.0148620E-02
  8.8095093E-01   9.9999998E-03  -2.0075724E-02
  9.0125233E-01   9.9999998E-03  -1.8060786E-01
  9.0122598E-01   9.9999998E-03  -1.6055004E-01
  9.0120578E-01   9.9999998E-03  -1.4048369E-01
  9.0119171E-01   9.9999998E-03  -1.2041132E-01
  9.0118241E-01   9.9999998E-03  -1.0034133E-01
  9.0117657E-01   9.9999998E-03  -8.0275163E-02
  9.0117294E-01   9.9999998E-03  -6.0210306E-02
  9.0117073E-01   9.9999998E-03  -4.0143523E-02
  9.0116954E-01   9.9999998E-03  -2.0073127E-02
  9.2144167E-01   9.9999998E-03  -1.8057957E-01
  9.2140454E-01   9.9999998E-03  -1.6052373E-01
  9.2137563E-01   9.9999998E-03  -1.4046009E-01
  9.2135435E-01   9.9999998E-03  -1.2039124E-01
  9.2133886E-01   9.9999998E-03  -1.0032500E-01
  9.2132771E-01   9.9999998E-03  -8.0262467E-02
  9.2132002E-01   9.9999998E-03  -6.0200997E-02
  9.2131501E-01   9.9999998E-03  -4.0137377E-02
  9.2131221E-01   9.9999998E-03  -2.0070057E-02
  9.4153053E-01   9.9999998E-03  -1.8054685E-01
  9.4148713E-01   9.9999998E-03  -1.6049232E-01
  9.4145226E-01   9.9999998E-03  -1.4043166E-01
  9.4142491E-01   9.9999998E-03  -1.2036714E-01
  9.4140369E-01   9.9999998E-03  -1.0030546E-01
  9.4138747E-01   9.9999998E-03  -8.0247201E-02
  9.4137543E-01   9.9999998E-03  -6.0189631E-02
  9.4136715E-01   9.9999998E-03  -4.0129747E-02
  9.4136232E-01   9.9999998E-03  -2.0066181E-02
  9.6156377E-01   9.9999998E-03  -1.8051466E-01
  9.6151745E-01   9.9999998E-03  -1.6046126E-01
  9.6147901E-01   9.9999998E-03  -1.4040339E-01
  9.6144766E-01   9.9999998E-03  -1.2034309E-01
  9.6142256E-01   9.9999998E-03  -1.0028566E-01
  9.6140277E-01   9.9999998E-03  -8.0231242E-02
  9.6138787E-01   9.9999998E-03  -6.0177378E-02
  9.6137744E-01   9.9999998E-03  -4.0121380E-02
  9.6137136E-01   9.9999998E-03  -2.0061994E-02
  9.8156899E-01   9.9999998E-03  -1.8048556E-01
  9.8152059E-01   9.9999998E-03  -1.6043414E-01
  9.8147994E-01   9.9999998E-03  -1.4037868E-01
  9.8144656E-01   9.9999998E-03  -1.2032168E-01
  9.8141950E-01   9.9999998E-03  -1.0026756E-01
  9.8139805E-01   9.9999998E-03  -8.0216393E-02
  9.8138177E-01   9.9999998E-03  -6.0165763E-02
  9.8137033E-01   9.9999998E-03  -4.0113173E-02
  9.8136353E-01   9.9999998E-03  -2.0057620E-02
  1.0015621E+00   9.9999998E-03  -1.8045631E-01
  1.0015119E+00   9.9999998E-03  -1.6040875E-01
  1.0014693E+00   9.9999998E-03  -1.4035676E-01
  1.0014343E+00   9.9999998E-03  -1.2030339E-01
  1.0014061E+00   9.9999998E-03  -1.0025219E-01
  1.0013837E+00   9.9999998E-03  -8.0203667E-02
  1.0013663E+00   9.9999998E-03  -6.0155574E-02
  1.0013539E+00   9.9999998E-03  -4.0105924E-02
  1.0013465E+00   9.9999998E-03  -2.0053850E-02
  1.0215490E+00   9.9999998E-03  -1.8042903E-01
  1.0214965E+00   9.9999998E-03  -1.6038376E-01
  1.0214522E+00   9.9999998E-03  -1.4033508E-01
  1.0214158E+00   9.9999998E-03  -1.2028494E-01
  1.0213866E+00   9.9999998E-03  -1.0023618E-01
  1.0213633E+00   9.9999998E-03  -8.0189943E-02
  1.0213453E+00   9.9999998E-03  -6.0144689E-02
  1.0213321E+00   9.9999998E-03  -4.0098336E-02
  1.0213243E+00   9.9999998E-03  -2.0049881E-02
  1.0415323E+00   9.9999998E-03  -1.8040055E-01
  1.0414765E+00   9.9999998E-03  -1.6035882E-01
  1.0414301E+00   9.9999998E-03  -1.4031464E-01
  1.0413921E+00   9.9999998E-03  -1.2026766E-01
  1.0413616E+00   9.9999998E-03  -1.0022162E-01
  1.0413374E+00   9.9999998E-03  -8.0177434E-02
  1.0413187E+00   9.9999998E-03  -6.0134299E-02
  1.0413049E+00   9.9999998E-03  -4.0090527E-02
  1.0412966E+00   9.9999998E-03  -2.0045688E-02
  1.0615126E+00   9.9999998E-03  -1.8036959E-01
  1.0614530E+00   9.9999998E-03  -1.6033258E-01
  1.0614039E+00   9.9999998E-03  -1.4029302E-01
  1.0613638E+00   9.9999998E-03  -1.2025086E-01
  1.0613319E+00   9.9999998E-03  -1.0020793E-01
  1.0613066E+00   9.9999998E-03  -8.0165841E-02
  1.0612870E+00   9.9999998E-03  -6.0124595E-02
  1.0612729E+00   9.9999998E-03  -4.0083528E-02
  1.0612642E+00   9.9999998E-03  -2.0041944E-02
  1.0814914E+00   9.9999998E-03  -1.8033549E-01
  1.0814278E+00   9.9999998E-03  -1.6030575E-01
  1.0813749E+00   9.9999998E-03  -1.4027095E-01
  1.0813327E+00   9.9999998E-03  -1.2023400E-01
  1.0812987E+00   9.9999998E-03  -1.0019471E-01
  1.0812720E+00   9.9999998E-03  -8.0155142E-02
  1.0812515E+00   9.9999998E-03  -6.0115878E-02
  1.0812368E+00   9.9999998E-03  -4.0077124E-02
  1.0812278E+00   9.9999998E-03  -2.0038622E-02
  1.1014715E+00   9.9999998E-03  -1.8029980E-01
  1.1014022E+00   9.9999998E-03  -1.6027474E-01
  1.1013458E+00   9.9999998E-03  -1.4024788E-01
  1.1012999E+00   9.9999998E-03  -1.2021611E-01
  1.1012638E+00   9.9999998E-03  -1.0018172E-01
  1.1012353E+00   9.9999998E-03  -8.0144867E-02
  1.1012137E+00   9.9999998E-03  -6.0107879E-02
  1.1011983E+00   9.9999998E-03  -4.0071320E-02
  1.1011891E+00   9.9999998E-03  -2.0035548E-02
  1.1214550E+00   9.9999998E-03  -1.8026373E-01
  1.1213790E+00   9.9999998E-03  -1.6024168E-01
  1.1213179E+00   9.9999998E-03  -1.4022051E-01
  1.1212683E+00   9.9999998E-03  -1.2019604E-01
  1.1212291E+00   9.9999998E-03  -1.0016691E-01
  1.1211985E+00   9.9999998E-03  -8.0134496E-02
  1.1211754E+00   9.9999998E-03  -6.0100149E-02
  1.1211594E+00   9.9999998E-03  -4.0066283E-02
  1.1211499E+00   9.9999998E-03  -2.0032980E-02
  1.1414427E+00   9.9999998E-03  -1.8022983E-01
  1.1413606E+00   9.9999998E-03  -1.6020894E-01
  1.1412932E+00   9.9999998E-03  -1.4019041E-01
  1.1412396E+00   9.9999998E-03  -1.2017196E-01
  1.1411966E+00   9.9999998E-03  -1.0014946E-01
  1.1411635E+00   9.9999998E-03  -8.0122113E-02
  1.1411389E+00   9.9999998E-03  -6.0092032E-02
  1.1411220E+00   9.9999998E-03  -4.0061176E-02
  1.1411120E+00   9.9999998E-03  -2.0030510E-02
  1.1614362E+00   9.9999998E-03  -1.8020180E-01
  1.1613485E+00   9.9999998E-03  -1.6017982E-01
  1.1612744E+00   9.9999998E-03  -1.4016131E-01
  1.1612149E+00   9.9999998E-03  -1.2014492E-01
  1.1611685E+00   9.9999998E-03  -1.0012803E-01
  1.1611322E+00   9.9999998E-03  -8.0107078E-02
  1.1611055E+00   9.9999998E-03  -6.0081981E-02
  1.1610875E+00   9.9999998E-03  -4.0055163E-02
  1.1610770E+00   9.9999998E-03  -2.0027712E-02
  1.1814396E+00   9.9999998E-03  -1.8018422E-01
  1.1813446E+00   9.9999998E-03  -1.6015887E-01
  1.1812627E+00   9.9999998E-03  -1.4013712E-01
  1.1811968E+00   9.9999998E-03  -1.2011984E-01
  1.1811453E+00   9.9999998E-03  -1.0010449E-01
  1.1811060E+00   9.9999998E-03  -8.0088608E-02
  1.1810770E+00   9.9999998E-03  -6.0069572E-02
  1.1810577E+00   9.9999998E-03  -4.0047634E-02
  1.1810465E+00   9.9999998E-03  -2.0024078E-02
  1.2014483E+00   9.9999998E-03  -1.8017590E-01
  1.2013551E+00   9.9999998E-03  -1.6015129E-01
  1.2012627E+00   9.9999998E-03  -1.4012437E-01
  1.2011867E+00   9.9999998E-03  -1.2010147E-01
  1.2011291E+00   9.9999998E-03  -1.0008428E-01
  1.2010856E+00   9.9999998E-03  -8.0069557E-02
  1.2010543E+00   9.9999998E-03  -6.0055073E-02
  1.2010334E+00   9.9999998E-03  -4.0038470E-02
  1.2010214E+00   9.9999998E-03  -2.0019710E-02
  1.2214484E+00   9.9999998E-03  -1.8017443E-01
  1.2213675E+00   9.9999998E-03  -1.6014963E-01
  1.2212796E+00   9.9999998E-03  -1.4012596E-01
  1.2211933E+00   9.9999998E-03  -1.2009869E-01
  1.2211238E+00   9.9999998E-03  -1.0007459E-01
  1.2210734E+00   9.9999998E-03  -8.0056250E-02
  1.2210381E+00   9.9999998E-03  -6.0041975E-02
  1.2210150E+00   9.9999998E-03  -4.0029362E-02
  1.2210017E+00   9.9999998E-03  -2.0015324E-02
  1.2414194E+00   9.9999998E-03  -1.8016998E-01
  1.2413590E+00   9.9999998E-03  -1.6014722E-01
  1.2412901E+00   9.9999998E-03  -1.4012782E-01
  1.2412145E+00   9.9999998E-03  -1.2010588E-01
  1.2411412E+00   9.9999998E-03  -1.0008258E-01
  1.2410787E+00   9.9999998E-03  -8.0058575E-02
  1.2410344E+00   9.9999998E-03  -6.0039021E-02
  1.2410060E+00   9.9999998E-03  -4.0024523E-02
  1.2409902E+00   9.9999998E-03  -2.0012461E-02
  1.2613164E+00   9.9999998E-03  -1.6013935E-01
  1.2612691E+00   9.9999998E-03  -1.4012259E-01
  1.2612113E+00   9.9999998E-03  -1.2010374E-01
  1.2611547E+00   9.9999998E-03  -1.0008784E-01
  1.2611004E+00   9.9999998E-03  -8.0067918E-02
  1.2610565E+00   9.9999998E-03  -6.0048461E-02
  1.2610240E+00   9.9999998E-03  -4.0029965E-02
  1.2610046E+00   9.9999998E-03  -2.0014049E-02
  1.2811730E+00   9.9999998E-03  -1.2009552E-01
  1.2811316E+00   9.9999998E-03  -1.0008195E-01
  1.2810887E+00   9.9999998E-03  -8.0063827E-02
  1.2810552E+00   9.9999998E-03  -6.0046822E-02
  1.2810299E+00   9.9999998E-03  -4.0029179E-02
  1.2810149E+00   9.9999998E-03  -2.0013420E-02
  1.3010477E+00   9.9999998E-03  -8.0056898E-02
  1.3010205E+00   9.9999998E-03  -6.0038894E-02
  1.3010002E+00   9.9999998E-03  -4.0023614E-02
  1.3009880E+00   9.9999998E-03  -2.0010836E-02
 -1.9068102E-05   9.9999998E-03   1.2899961E-13
 -1.9075047E-05   9.9999998E-03   2.0000122E-02
 -1.9093090E-05   9.9999998E-03   4.0000256E-02
 -1.9113817E-05   9.9999998E-03   6.0000412E-02
 -1.9123219E-05   9.9999998E-03   8.0000602E-02
 -1.9099407E-05   9.9999998E-03   1.0000082E-01
 -1.9011586E-05   9.9999998E-03   1.2000110E-01
 -1.8824008E-05   9.9999998E-03   1.4000142E-01
  1.9973351E-02   9.9999998E-03  -5.1903913E-13
  1.9973338E-02   9.9999998E-03   2.0000178E-02
  1.9973306E-02   9.9999998E-03   4.0000368E-02
  1.9973263E-02   9.9999998E-03   6.0000587E-02
  1.9973231E-02   9.9999998E-03   8.0000840E-02
  1.9973239E-02   9.9999998E-03   1.0000114E-01
  1.9973326E-02   9.9999998E-03   1.2000150E-01
  1.9973550E-02   9.9999998E-03   1.4000192E-01
  3.9963774E-02   9.9999998E-03  -3.6470444E-13
  3.9963756E-02   9.9999998E-03   2.0000219E-02
  3.9963704E-02   9.9999998E-03   4.0000454E-02
  3.9963633E-02   9.9999998E-03   6.0000714E-02
  3.9963569E-02   9.9999998E-03   8.0001019E-02
  3.9963555E-02   9.9999998E-03   1.0000137E-01
  3.9963637E-02   9.9999998E-03   1.2000178E-01
  3.9963890E-02   9.9999998E-03   1.4000227E-01
  5.9953094E-02   9.9999998E-03  -2.3051632E-12
  5.9953067E-02   9.9999998E-03   2.0000245E-02
  5.9952993E-02   9.9999998E-03   4.0000502E-02
  5.9952889E-02   9.9999998E-03   6.0000788E-02
  5.9952788E-02   9.9999998E-03   8.0001116E-02
  5.9952740E-02   9.9999998E-03   1.0000149E-01
  5.9952807E-02   9.9999998E-03   1.2000193E-01
  5.9953082E-02   9.9999998E-03   1.4000243E-01
  7.9941720E-02   9.9999998E-03  -2.8955553E-12
  7.9941683E-02   9.9999998E-03   2.0000257E-02
  7.9941586E-02   9.9999998E-03   4.0000524E-02
  7.9941444E-02   9.9999998E-03   6.0000822E-02
  7.9941295E-02   9.9999998E-03   8.0001153E-02
  7.9941198E-02   9.9999998E-03   1.0000153E-01
  7.9941235E-02   9.9999998E-03   1.2000196E-01
  7.9941504E-02   9.9999998E-03   1.4000246E-01
  9.9929661E-02   9.9999998E-03  -5.1011349E-13
  9.9929616E-02   9.9999998E-03   2.0000262E-02
  9.9929482E-02   9.9999998E-03   4.0000536E-02
  9.9929295E-02   9.9999998E-03   6.0000829E-02
  9.9929087E-02   9.9999998E-03   8.0001161E-02
  9.9928930E-02   9.9999998E-03   1.0000153E-01
  9.9928908E-02   9.9999998E-03   1.2000195E-01
  9.9929154E-02   9.9999998E-03   1.4000241E-01
  1.1991664E-01   9.9999998E-03  -2.1651944E-13
  1.1991658E-01   9.9999998E-03   2.0000275E-02
  1.1991642E-01   9.9999998E-03   4.0000558E-02
  1.1991617E-01   9.9999998E-03   6.0000859E-02
  1.1991590E-01   9.9999998E-03   8.0001183E-02
  1.1991566E-01   9.9999998E-03   1.0000155E-01
  1.1991555E-01   9.9999998E-03   1.2000195E-01
  1.1991573E-01   9.9999998E-03   1.4000240E-01
  1.3990231E-01   9.9999998E-03   8.4161416E-13
  1.3990223E-01   9.9999998E-03   2.0000309E-02
  1.3990204E-01   9.9999998E-03   4.0000625E-02
  1.3990173E-01   9.9999998E-03   6.0000952E-02
  1.3990135E-01   9.9999998E-03   8.0001302E-02
  1.3990101E-01   9.9999998E-03   1.0000167E-01
  1.3990080E-01   9.9999998E-03   1.2000208E-01
  1.3990089E-01   9.9999998E-03   1.4000250E-01
  1.5988640E-01   9.9999998E-03  -2.0464253E-12
  1.5988632E-01   9.9999998E-03   2.0000381E-02
  1.5988606E-01   9.9999998E-03   4.0000767E-02
  1.5988567E-01   9.9999998E-03   6.0001161E-02
  1.5988521E-01   9.9999998E-03   8.0001570E-02
  1.5988475E-01   9.9999998E-03   1.0000200E-01
  1.5988441E-01   9.9999998E-03   1.2000243E-01
  1.5988435E-01   9.9999998E-03   1.4000288E-01
  1.7986874E-01   9.9999998E-03   2.3525255E-12
  1.7986864E-01   9.9999998E-03   2.0000510E-02
  1.7986833E-01   9.9999998E-03   4.0001020E-02
  1.7986785E-01   9.9999998E-03   6.0001541E-02
  1.7986727E-01   9.9999998E-03   8.0002069E-02
  1.7986666E-01   9.9999998E-03   1.0000261E-01
  1.7986615E-01   9.9999998E-03   1.2000315E-01
  1.7986594E-01   9.9999998E-03   1.4000367E-01
  1.9984916E-01   9.9999998E-03  -1.7438994E-12
  1.9984904E-01   9.9999998E-03   2.0000705E-02
  1.9984865E-01   9.9999998E-03   4.0001418E-02
  1.9984807E-01   9.9999998E-03   6.0002133E-02
  1.9984736E-01   9.9999998E-03   8.0002867E-02
  1.9984658E-01   9.9999998E-03   1.0000361E-01
  1.9984591E-01   9.9999998E-03   1.2000434E-01
  1.9984551E-01   9.9999998E-03   1.4000504E-01
  2.1982743E-01   9.9999998E-03  -2.6328521E-12
  2.1982728E-01   9.9999998E-03   2.0000985E-02
  2.1982683E-01   9.9999998E-03   4.0001974E-02
  2.1982613E-01   9.9999998E-03   6.0002979E-02
  2.1982525E-01   9.9999998E-03   8.0003999E-02
  2.1982431E-01   9.9999998E-03   1.0000505E-01
  2.1982343E-01   9.9999998E-03   1.2000608E-01
  2.1982284E-01   9.9999998E-03   1.4000706E-01
  2.3980328E-01   9.9999998E-03   3.6161306E-12
  2.3980311E-01   9.9999998E-03   2.0001352E-02
  2.3980258E-01   9.9999998E-03   4.0002715E-02
  2.3980175E-01   9.9999998E-03   6.0004100E-02
  2.3980072E-01   9.9999998E-03   8.0005512E-02
  2.3979957E-01   9.9999998E-03   1.0000695E-01
  2.3979849E-01   9.9999998E-03   1.2000840E-01
  2.3979768E-01   9.9999998E-03   1.4000979E-01
  2.5977644E-01   9.9999998E-03  -5.0400062E-12
  2.5977623E-01   9.9999998E-03   2.0001814E-02
  2.5977561E-01   9.9999998E-03   4.0003639E-02
  2.5977466E-01   9.9999998E-03   6.0005497E-02
  2.5977343E-01   9.9999998E-03   8.0007397E-02
  2.5977209E-01   9.9999998E-03   1.0000933E-01
  2.5977078E-01   9.9999998E-03   1.2001128E-01
  2.5976974E-01   9.9999998E-03   1.4001322E-01
  2.7974656E-01   9.9999998E-03  -2.4056965E-12
  2.7974632E-01   9.9999998E-03   2.0002352E-02
  2.7974564E-01   9.9999998E-03   4.0004726E-02
  2.7974454E-01   9.9999998E-03   6.0007144E-02
  2.7974313E-01   9.9999998E-03   8.0009617E-02
  2.7974156E-01   9.9999998E-03   1.0001215E-01
  2.7974001E-01   9.9999998E-03   1.2001473E-01
  2.7973872E-01   9.9999998E-03   1.4001735E-01
  2.9971340E-01   9.9999998E-03  -7.4502808E-12
  2.9971313E-01   9.9999998E-03   2.0002965E-02
  2.9971233E-01   9.9999998E-03   4.0005956E-02
  2.9971111E-01   9.9999998E-03   6.0008999E-02
  2.9970950E-01   9.9999998E-03   8.0012128E-02
  2.9970768E-01   9.9999998E-03   1.0001535E-01
  2.9970586E-01   9.9999998E-03   1.2001866E-01
  2.9970431E-01   9.9999998E-03   1.4002207E-01
  3.1967655E-01   9.9999998E-03  -8.5741683E-12
  3.1967625E-01   9.9999998E-03   2.0003650E-02
  3.1967536E-01   9.9999998E-03   4.0007327E-02
  3.1967399E-01   9.9999998E-03   6.0011063E-02
  3.1967220E-01   9.9999998E-03   8.0014892E-02
  3.1967014E-01   9.9999998E-03   1.0001884E-01
  3.1966802E-01   9.9999998E-03   1.2002294E-01
  3.1966615E-01   9.9999998E-03   1.4002718E-01
  3.3963564E-01   9.9999998E-03  -3.4819062E-12
  3.3963531E-01   9.9999998E-03   2.0004386E-02
  3.3963436E-01   9.9999998E-03   4.0008798E-02
  3.3963281E-01   9.9999998E-03   6.0013268E-02
  3.3963084E-01   9.9999998E-03   8.0017842E-02
  3.3962855E-01   9.9999998E-03   1.0002255E-01
  3.3962616E-01   9.9999998E-03   1.2002744E-01
  3.3962393E-01   9.9999998E-03   1.4003253E-01
  3.5959026E-01   9.9999998E-03  -8.2872355E-12
  3.5958993E-01   9.9999998E-03   2.0005133E-02
  3.5958889E-01   9.9999998E-03   4.0010300E-02
  3.5958722E-01   9.9999998E-03   6.0015541E-02
  3.5958505E-01   9.9999998E-03   8.0020875E-02
  3.5958251E-01   9.9999998E-03   1.0002636E-01
  3.5957983E-01   9.9999998E-03   1.2003204E-01
  3.5957730E-01   9.9999998E-03   1.4003794E-01
  3.7954006E-01   9.9999998E-03  -1.0229912E-11
  3.7953970E-01   9.9999998E-03   2.0005878E-02
  3.7953857E-01   9.9999998E-03   4.0011793E-02
  3.7953678E-01   9.9999998E-03   6.0017783E-02
  3.7953442E-01   9.9999998E-03   8.0023892E-02
  3.7953165E-01   9.9999998E-03   1.0003015E-01
  3.7952870E-01   9.9999998E-03   1.2003662E-01
  3.7952584E-01   9.9999998E-03   1.4004333E-01
  3.9948463E-01   9.9999998E-03  -2.1460377E-12
  3.9948425E-01   9.9999998E-03   2.0006606E-02
  3.9948305E-01   9.9999998E-03   4.0013250E-02
  3.9948115E-01   9.9999998E-03   6.0019974E-02
  3.9947861E-01   9.9999998E-03   8.0026820E-02
  3.9947563E-01   9.9999998E-03   1.0003384E-01
  3.9947242E-01   9.9999998E-03   1.2004108E-01
  3.9946923E-01   9.9999998E-03   1.4004858E-01
  4.1942367E-01   9.9999998E-03  -1.1086870E-11
  4.1942322E-01   9.9999998E-03   2.0007323E-02
  4.1942197E-01   9.9999998E-03   4.0014677E-02
  4.1941994E-01   9.9999998E-03   6.0022108E-02
  4.1941726E-01   9.9999998E-03   8.0029659E-02
  4.1941407E-01   9.9999998E-03   1.0003740E-01
  4.1941056E-01   9.9999998E-03   1.2004539E-01
  4.1940707E-01   9.9999998E-03   1.4005369E-01
  4.3935680E-01   9.9999998E-03   4.2925893E-12
  4.3935636E-01   9.9999998E-03   2.0008046E-02
  4.3935502E-01   9.9999998E-03   4.0016118E-02
  4.3935290E-01   9.9999998E-03   6.0024250E-02
  4.3935004E-01   9.9999998E-03   8.0032498E-02
  4.3934664E-01   9.9999998E-03   1.0004094E-01
  4.3934286E-01   9.9999998E-03   1.2004966E-01
  4.3933898E-01   9.9999998E-03   1.4005873E-01
  4.5928368E-01   9.9999998E-03   7.0753390E-12
  4.5928320E-01   9.9999998E-03   2.0008830E-02
  4.5928180E-01   9.9999998E-03   4.0017672E-02
  4.5927957E-01   9.9999998E-03   6.0026541E-02
  4.5927656E-01   9.9999998E-03   8.0035515E-02
  4.5927292E-01   9.9999998E-03   1.0004468E-01
  4.5926881E-01   9.9999998E-03   1.2005416E-01
  4.5926452E-01   9.9999998E-03   1.4006400E-01
  4.7920385E-01   9.9999998E-03   2.7503041E-12
  4.7920334E-01   9.9999998E-03   2.0009751E-02
  4.7920188E-01   9.9999998E-03   4.0019486E-02
  4.7919953E-01   9.9999998E-03   6.0029227E-02
  4.7919634E-01   9.9999998E-03   8.0039039E-02
  4.7919241E-01   9.9999998E-03   1.0004903E-01
  4.7918794E-01   9.9999998E-03   1.2005934E-01
  4.7918314E-01   9.9999998E-03   1.4007001E-01
  4.9911684E-01   9.9999998E-03  -5.9950621E-12
  4.9911630E-01   9.9999998E-03   2.0010900E-02
  4.9911478E-01   9.9999998E-03   4.0021766E-02
  4.9911228E-01   9.9999998E-03   6.0032602E-02
  4.9910888E-01   9.9999998E-03   8.0043495E-02
  4.9910465E-01   9.9999998E-03   1.0005457E-01
  4.9909970E-01   9.9999998E-03   1.2006593E-01
  4.9909434E-01   9.9999998E-03   1.4007759E-01
  5.1902229E-01   9.9999998E-03  -1.9218207E-11
  5.1902175E-01   9.9999998E-03   2.0012394E-02
  5.1902008E-01   9.9999998E-03   4.0024731E-02
  5.1901740E-01   9.9999998E-03   6.0037039E-02
  5.1901376E-01   9.9999998E-03   8.0049410E-02
  5.1900917E-01   9.9999998E-03   1.0006196E-01
  5.1900375E-01   9.9999998E-03   1.2007477E-01
  5.1899767E-01   9.9999998E-03   1.4008771E-01
  5.3892034E-01   9.9999998E-03   6.3397807E-12
  5.3891975E-01   9.9999998E-03   2.0014323E-02
  5.3891802E-01   9.9999998E-03   4.0028617E-02
  5.3891516E-01   9.9999998E-03   6.0042895E-02
  5.3891116E-01   9.9999998E-03   8.0057263E-02
  5.3890616E-01   9.9999998E-03   1.0007185E-01
  5.3890020E-01   9.9999998E-03   1.2008665E-01
  5.3889352E-01   9.9999998E-03   1.4010136E-01
  5.5881268E-01   9.9999998E-03  -1.4307723E-11
  5.5881202E-01   9.9999998E-03   2.0016830E-02
  5.5881011E-01   9.9999998E-03   4.0033657E-02
  5.5880702E-01   9.9999998E-03   6.0050528E-02
  5.5880266E-01   9.9999998E-03   8.0067553E-02
  5.5879724E-01   9.9999998E-03   1.0008483E-01
  5.5879080E-01   9.9999998E-03   1.2010226E-01
  5.5878365E-01   9.9999998E-03   1.4011934E-01
  5.7870311E-01   9.9999998E-03  -9.2728117E-12
  5.7870239E-01   9.9999998E-03   2.0019893E-02
  5.7870030E-01   9.9999998E-03   4.0039793E-02
  5.7869697E-01   9.9999998E-03   6.0059801E-02
  5.7869232E-01   9.9999998E-03   8.0080077E-02
  5.7868654E-01   9.9999998E-03   1.0010072E-01
  5.7867974E-01   9.9999998E-03   1.2012150E-01
  5.7867235E-01   9.9999998E-03   1.4014170E-01
  5.9859878E-01   9.9999998E-03   1.2136694E-11
  5.9859800E-01   9.9999998E-03   2.0023534E-02
  5.9859574E-01   9.9999998E-03   4.0047076E-02
  5.9859210E-01   9.9999998E-03   6.0070772E-02
  5.9858721E-01   9.9999998E-03   8.0094889E-02
  5.9858114E-01   9.9999998E-03   1.0011952E-01
  5.9857422E-01   9.9999998E-03   1.2014430E-01
  5.9856671E-01   9.9999998E-03   1.4016820E-01
  6.1850649E-01   9.9999998E-03   4.5942291E-12
  6.1850566E-01   9.9999998E-03   2.0027703E-02
  6.1850321E-01   9.9999998E-03   4.0055361E-02
  6.1849928E-01   9.9999998E-03   6.0083225E-02
  6.1849403E-01   9.9999998E-03   8.0111563E-02
  6.1848783E-01   9.9999998E-03   1.0014037E-01
  6.1848086E-01   9.9999998E-03   1.2016931E-01
  6.1847329E-01   9.9999998E-03   1.4019719E-01
  6.3843042E-01   9.9999998E-03   4.3406962E-11
  6.3842952E-01   9.9999998E-03   2.0031800E-02
  6.3842696E-01   9.9999998E-03   4.0063612E-02
  6.3842273E-01   9.9999998E-03   6.0095631E-02
  6.3841718E-01   9.9999998E-03   8.0128238E-02
  6.3841063E-01   9.9999998E-03   1.0016147E-01
  6.3840359E-01   9.9999998E-03   1.2019470E-01
  6.3839626E-01   9.9999998E-03   1.4022662E-01
  6.5837413E-01   9.9999998E-03   1.5240434E-11
  6.5837324E-01   9.9999998E-03   2.0036336E-02
  6.5837055E-01   9.9999998E-03   4.0072665E-02
  6.5836620E-01   9.9999998E-03   6.0108997E-02
  6.5836048E-01   9.9999998E-03   8.0145791E-02
  6.5835404E-01   9.9999998E-03   1.0018354E-01
  6.5834743E-01   9.9999998E-03   1.2022183E-01
  6.5834069E-01   9.9999998E-03   1.4025910E-01
  6.7834502E-01   9.9999998E-03   3.7235982E-11
  6.7834431E-01   9.9999998E-03   2.0045435E-02
  6.7834216E-01   9.9999998E-03   4.0089883E-02
  6.7833853E-01   9.9999998E-03   6.0133256E-02
  6.7833376E-01   9.9999998E-03   8.0176562E-02
  6.7832851E-01   9.9999998E-03   1.0022060E-01
  6.7832345E-01   9.9999998E-03   1.2026561E-01
  6.7831886E-01   9.9999998E-03   1.4031021E-01
  6.9835860E-01   9.9999998E-03   7.5291537E-11
  6.9835836E-01   9.9999998E-03   2.0059092E-02
  6.9835752E-01   9.9999998E-03   4.0116802E-02
  6.9835603E-01   9.9999998E-03   6.0172524E-02
  6.9835407E-01   9.9999998E-03   8.0227114E-02
  6.9835234E-01   9.9999998E-03   1.0028180E-01
  6.9835228E-01   9.9999998E-03   1.2033847E-01
  6.9835478E-01   9.9999998E-03   1.4039740E-01
  7.1855962E-01   9.9999998E-03   6.6559145E-12
  7.1855903E-01   9.9999998E-03   2.0080494E-02
  7.1855754E-01   9.9999998E-03   4.0158778E-02
  7.1855575E-01   9.9999998E-03   6.0234416E-02
  7.1855450E-01   9.9999998E-03   8.0309264E-02
  7.1855468E-01   9.9999998E-03   1.0038619E-01
  7.1855789E-01   9.9999998E-03   1.2046646E-01
  7.1856457E-01   9.9999998E-03   1.4054817E-01
  7.3904657E-01   9.9999998E-03   9.2388444E-11
  7.3904657E-01   9.9999998E-03   2.0085162E-02
  7.3904675E-01   9.9999998E-03   4.0167529E-02
  7.3904759E-01   9.9999998E-03   6.0246240E-02
  7.3904961E-01   9.9999998E-03   8.0322906E-02
  7.3905325E-01   9.9999998E-03   1.0040056E-01
  7.3905867E-01   9.9999998E-03   1.2048163E-01
  7.3906571E-01   9.9999998E-03   1.4056507E-01
  7.5942075E-01   9.9999998E-03   1.9878685E-10
  7.5942129E-01   9.9999998E-03   2.0086728E-02
  7.5942296E-01   9.9999998E-03   4.0170170E-02
  7.5942612E-01   9.9999998E-03   6.0249057E-02
  7.5943089E-01   9.9999998E-03   8.0324769E-02
  7.5943756E-01   9.9999998E-03   1.0040022E-01
  7.5944591E-01   9.9999998E-03   1.2047777E-01
  7.5945568E-01   9.9999998E-03   1.4055631E-01
  7.7970344E-01   9.9999998E-03  -1.3542786E-10
  7.7970421E-01   9.9999998E-03   2.0086229E-02
  7.7970654E-01   9.9999998E-03   4.0168911E-02
  7.7971053E-01   9.9999998E-03   6.0246576E-02
  7.7971613E-01   9.9999998E-03   8.0320522E-02
  7.7972329E-01   9.9999998E-03   1.0039364E-01
  7.7973157E-01   9.9999998E-03   1.2046822E-01
  7.7974051E-01   9.9999998E-03   1.4054303E-01
  7.9994613E-01   9.9999998E-03  -2.2874917E-10
  7.9994690E-01   9.9999998E-03   2.0084508E-02
  7.9994917E-01   9.9999998E-03   4.0165436E-02
  7.9995286E-01   9.9999998E-03   6.0241316E-02
  7.9995787E-01   9.9999998E-03   8.0313504E-02
  7.9996395E-01   9.9999998E-03   1.0038497E-01
  7.9997057E-01   9.9999998E-03   1.2045798E-01
  7.9997724E-01   9.9999998E-03   1.4053114E-01
  8.2018912E-01   9.9999998E-03   8.3253099E-11
  8.2018971E-01   9.9999998E-03   2.0082312E-02
  8.2019156E-01   9.9999998E-03   4.0161170E-02
  8.2019448E-01   9.9999998E-03   6.0235262E-02
  8.2019830E-01   9.9999998E-03   8.0306076E-02
  8.2020289E-01   9.9999998E-03   1.0037671E-01
  8.2020789E-01   9.9999998E-03   1.2044948E-01
  8.2021296E-01   9.9999998E-03   1.4052284E-01
  8.4044522E-01   9.9999998E-03   3.2699798E-10
  8.4044570E-01   9.9999998E-03   2.0080084E-02
  8.4044701E-01   9.9999998E-03   4.0156946E-02
  8.4044909E-01   9.9999998E-03   6.0229447E-02
  8.4045196E-01   9.9999998E-03   8.0299214E-02
  8.4045553E-01   9.9999998E-03   1.0036948E-01
  8.4045988E-01   9.9999998E-03   1.2044264E-01
  8.4046513E-01   9.9999998E-03   1.4051701E-01
  8.6070460E-01   9.9999998E-03   2.7743793E-10
  8.6070496E-01   9.9999998E-03   2.0077944E-02
  8.6070591E-01   9.9999998E-03   4.0152896E-02
  8.6070758E-01   9.9999998E-03   6.0223863E-02
  8.6070997E-01   9.9999998E-03   8.0292568E-02
  8.6071348E-01   9.9999998E-03   1.0036232E-01
  8.6071855E-01   9.9999998E-03   1.2043555E-01
  8.6072582E-01   9.9999998E-03   1.4051059E-01
  8.8095063E-01   9.9999998E-03  -6.4228317E-11
  8.8095093E-01   9.9999998E-03   2.0075724E-02
  8.8095182E-01   9.9999998E-03   4.0148620E-02
  8.8095349E-01   9.9999998E-03   6.0217798E-02
  8.8095611E-01   9.9999998E-03   8.0284983E-02
  8.8096040E-01   9.9999998E-03   1.0035349E-01
  8.8096720E-01   9.9999998E-03   1.2042578E-01
  8.8097769E-01   9.9999998E-03   1.4050025E-01
  9.0116918E-01   9.9999998E-03  -9.3303844E-11
  9.0116954E-01   9.9999998E-03   2.0073127E-02
  9.0117073E-01   9.9999998E-03   4.0143523E-02
  9.0117294E-01   9.9999998E-03   6.0210306E-02
  9.0117657E-01   9.9999998E-03   8.0275163E-02
  9.0118241E-01   9.9999998E-03   1.0034133E-01
  9.0119171E-01   9.9999998E-03   1.2041132E-01
  9.0120578E-01   9.9999998E-03   1.4048369E-01
  9.2131132E-01   9.9999998E-03   1.6334356E-11
  9.2131221E-01   9.9999998E-03   2.0070057E-02
  9.2131501E-01   9.9999998E-03   4.0137377E-02
  9.2132002E-01   9.9999998E-03   6.0200997E-02
  9.2132771E-01   9.9999998E-03   8.0262467E-02
  9.2133886E-01   9.9999998E-03   1.0032500E-01
  9.2135435E-01   9.9999998E-03   1.2039124E-01
  9.2137563E-01   9.9999998E-03   1.4046009E-01
  9.4136077E-01   9.9999998E-03   1.6812564E-10
  9.4136232E-01   9.9999998E-03   2.0066181E-02
  9.4136715E-01   9.9999998E-03   4.0129747E-02
  9.4137543E-01   9.9999998E-03   6.0189631E-02
  9.4138747E-01   9.9999998E-03   8.0247201E-02
  9.4140369E-01   9.9999998E-03   1.0030546E-01
  9.4142491E-01   9.9999998E-03   1.2036714E-01
  9.4145226E-01   9.9999998E-03   1.4043166E-01
  9.6136934E-01   9.9999998E-03   4.6558146E-11
  9.6137136E-01   9.9999998E-03   2.0061994E-02
  9.6137744E-01   9.9999998E-03   4.0121380E-02
  9.6138787E-01   9.9999998E-03   6.0177378E-02
  9.6140277E-01   9.9999998E-03   8.0231242E-02
  9.6142256E-01   9.9999998E-03   1.0028566E-01
  9.6144766E-01   9.9999998E-03   1.2034308E-01
  9.6147901E-01   9.9999998E-03   1.4040339E-01
  9.8136127E-01   9.9999998E-03  -4.7459380E-11
  9.8136353E-01   9.9999998E-03   2.0057620E-02
  9.8137033E-01   9.9999998E-03   4.0113173E-02
  9.8138177E-01   9.9999998E-03   6.0165763E-02
  9.8139805E-01   9.9999998E-03   8.0216393E-02
  9.8141950E-01   9.9999998E-03   1.0026756E-01
  9.8144656E-01   9.9999998E-03   1.2032168E-01
  9.8147994E-01   9.9999998E-03   1.4037868E-01
  1.0013440E+00   9.9999998E-03   8.5826387E-13
  1.0013465E+00   9.9999998E-03   2.0053850E-02
  1.0013539E+00   9.9999998E-03   4.0105924E-02
  1.0013663E+00   9.9999998E-03   6.0155574E-02
  1.0013837E+00   9.9999998E-03   8.0203667E-02
  1.0014061E+00   9.9999998E-03   1.0025219E-01
  1.0014343E+00   9.9999998E-03   1.2030339E-01
  1.0014693E+00   9.9999998E-03   1.4035676E-01
  1.0213215E+00   9.9999998E-03   3.1630771E-11
  1.0213243E+00   9.9999998E-03   2.0049881E-02
  1.0213321E+00   9.9999998E-03   4.0098336E-02
  1.0213453E+00   9.9999998E-03   6.0144689E-02
  1.0213633E+00   9.9999998E-03   8.0189943E-02
  1.0213866E+00   9.9999998E-03   1.0023618E-01
  1.0214158E+00   9.9999998E-03   1.2028494E-01
  1.0214522E+00   9.9999998E-03   1.4033508E-01
  1.0412939E+00   9.9999998E-03   1.8967983E-11
  1.0412966E+00   9.9999998E-03   2.0045688E-02
  1.0413049E+00   9.9999998E-03   4.0090527E-02
  1.0413187E+00   9.9999998E-03   6.0134299E-02
  1.0413374E+00   9.9999998E-03   8.0177434E-02
  1.0413616E+00   9.9999998E-03   1.0022162E-01
  1.0413921E+00   9.9999998E-03   1.2026766E-01
  1.0414301E+00   9.9999998E-03   1.4031464E-01
  1.0612613E+00   9.9999998E-03   5.0325737E-11
  1.0612642E+00   9.9999998E-03   2.0041944E-02
  1.0612729E+00   9.9999998E-03   4.0083528E-02
  1.0612870E+00   9.9999998E-03   6.0124595E-02
  1.0613066E+00   9.9999998E-03   8.0165841E-02
  1.0613319E+00   9.9999998E-03   1.0020793E-01
  1.0613638E+00   9.9999998E-03   1.2025086E-01
  1.0614039E+00   9.9999998E-03   1.4029302E-01
  1.0812248E+00   9.9999998E-03   1.9877539E-11
  1.0812278E+00   9.9999998E-03   2.0038622E-02
  1.0812368E+00   9.9999998E-03   4.0077124E-02
  1.0812515E+00   9.9999998E-03   6.0115878E-02
  1.0812720E+00   9.9999998E-03   8.0155142E-02
  1.0812987E+00   9.9999998E-03   1.0019471E-01
  1.0813327E+00   9.9999998E-03   1.2023400E-01
  1.0813749E+00   9.9999998E-03   1.4027095E-01
  1.1011860E+00   9.9999998E-03  -5.3384064E-12
  1.1011891E+00   9.9999998E-03   2.0035548E-02
  1.1011983E+00   9.9999998E-03   4.0071320E-02
  1.1012137E+00   9.9999998E-03   6.0107879E-02
  1.1012353E+00   9.9999998E-03   8.0144867E-02
  1.1012638E+00   9.9999998E-03   1.0018172E-01
  1.1012999E+00   9.9999998E-03   1.2021611E-01
  1.1013458E+00   9.9999998E-03   1.4024788E-01
  1.1211467E+00   9.9999998E-03  -1.4387718E-11
  1.1211499E+00   9.9999998E-03   2.0032980E-02
  1.1211594E+00   9.9999998E-03   4.0066283E-02
  1.1211754E+00   9.9999998E-03   6.0100149E-02
  1.1211985E+00   9.9999998E-03   8.0134496E-02
  1.1212291E+00   9.9999998E-03   1.0016691E-01
  1.1212683E+00   9.9999998E-03   1.2019604E-01
  1.1213179E+00   9.9999998E-03   1.4022051E-01
  1.1411088E+00   9.9999998E-03   1.3971825E-11
  1.1411120E+00   9.9999998E-03   2.0030510E-02
  1.1411220E+00   9.9999998E-03   4.0061176E-02
  1.1411389E+00   9.9999998E-03   6.0092032E-02
  1.1411635E+00   9.9999998E-03   8.0122113E-02
  1.1411966E+00   9.9999998E-03   1.0014946E-01
  1.1412396E+00   9.9999998E-03   1.2017196E-01
  1.1412932E+00   9.9999998E-03   1.4019041E-01
  1.1610736E+00   9.9999998E-03   1.9805324E-11
  1.1610770E+00   9.9999998E-03   2.0027712E-02
  1.1610875E+00   9.9999998E-03   4.0055163E-02
  1.1611055E+00   9.9999998E-03   6.0081981E-02
  1.1611322E+00   9.9999998E-03   8.0107078E-02
  1.1611685E+00   9.9999998E-03   1.0012803E-01
  1.1612149E+00   9.9999998E-03   1.2014492E-01
  1.1612744E+00   9.9999998E-03   1.4016131E-01
  1.1810429E+00   9.9999998E-03   2.1850698E-11
  1.1810465E+00   9.9999998E-03   2.0024078E-02
  1.1810577E+00   9.9999998E-03   4.0047634E-02
  1.1810770E+00   9.9999998E-03   6.0069572E-02
  1.1811060E+00   9.9999998E-03   8.0088608E-02
  1.1811453E+00   9.9999998E-03   1.0010449E-01
  1.1811968E+00   9.9999998E-03   1.2011984E-01
  1.1812627E+00   9.9999998E-03   1.4013712E-01
  1.2010176E+00   9.9999998E-03   3.1430261E-11
  1.2010214E+00   9.9999998E-03   2.0019710E-02
  1.2010334E+00   9.9999998E-03   4.0038470E-02
  1.2010543E+00   9.9999998E-03   6.0055073E-02
  1.2010856E+00   9.9999998E-03   8.0069557E-02
  1.2011291E+00   9.9999998E-03   1.0008428E-01
  1.2011867E+00   9.9999998E-03   1.2010147E-01
  1.2012627E+00   9.9999998E-03   1.4012437E-01
  1.2209975E+00   9.9999998E-03   3.6659609E-11
  1.2210017E+00   9.9999998E-03   2.0015325E-02
  1.2210150E+00   9.9999998E-03   4.0029362E-02
  1.2210381E+00   9.9999998E-03   6.0041975E-02
  1.2210734E+00   9.9999998E-03   8.0056250E-02
  1.2211238E+00   9.9999998E-03   1.0007459E-01
  1.2211933E+00   9.9999998E-03   1.2009869E-01
  1.2212796E+00   9.9999998E-03   1.4012596E-01
  1.2409850E+00   9.9999998E-03   4.6505626E-11
  1.2409902E+00   9.9999998E-03   2.0012463E-02
  1.2410060E+00   9.9999998E-03   4.0024523E-02
  1.2410344E+00   9.9999998E-03   6.0039021E-02
  1.2410787E+00   9.9999998E-03   8.0058575E-02
  1.2411412E+00   9.9999998E-03   1.0008258E-01
  1.2412145E+00   9.9999998E-03   1.2010588E-01
  1.2412901E+00   9.9999998E-03   1.4012782E-01
  1.2609981E+00   9.9999998E-03   3.6907762E-11
  1.2610046E+00   9.9999998E-03   2.0014049E-02
  1.2610240E+00   9.9999998E-03   4.0029965E-02
  1.2610565E+00   9.9999998E-03   6.0048461E-02
  1.2611004E+00   9.9999998E-03   8.0067918E-02
  1.2611547E+00   9.9999998E-03   1.0008784E-01
  1.2612113E+00   9.9999998E-03   1.2010374E-01
  1.2612691E+00   9.9999998E-03   1.4012259E-01
  1.2810100E+00   9.9999998E-03   3.3341597E-11
  1.2810149E+00   9.9999998E-03   2.0013420E-02
  1.2810299E+00   9.9999998E-03   4.0029179E-02
  1.2810552E+00   9.9999998E-03   6.0046822E-02
  1.2810887E+00   9.9999998E-03   8.0063827E-02
  1.2811316E+00   9.9999998E-03   1.0008195E-01
  1.2811730E+00   9.9999998E-03   1.2009552E-01
  1.3009838E+00   9.9999998E-03   2.7907314E-11
  1.3009880E+00   9.9999998E-03   2.0010836E-02
  1.3010002E+00   9.9999998E-03   4.0023614E-02
  1.3010205E+00   9.9999998E-03   6.0038894E-02
  1.3010477E+00   9.9999998E-03   8.0056898E-02
 -1.8483523E-05   9.9999998E-03   1.6000178E-01
 -1.7932431E-05   9.9999998E-03   1.8000221E-01
 -1.7116025E-05   9.9999998E-03   2.0000266E-01
 -1.5960472E-05   9.9999998E-03   2.2000313E-01
 -1.4410476E-05   9.9999998E-03   2.4000357E-01
 -1.2458605E-05   9.9999998E-03   2.6000389E-01
 -1.0173616E-05   9.9999998E-03   2.8000402E-01
  1.9973969E-02   9.9999998E-03   1.6000240E-01
  1.9974684E-02   9.9999998E-03   1.8000294E-01
  1.9975791E-02   9.9999998E-03   2.0000353E-01
  1.9977396E-02   9.9999998E-03   2.2000410E-01
  1.9979609E-02   9.9999998E-03   2.4000457E-01
  1.9982498E-02   9.9999998E-03   2.6000485E-01
  1.9986041E-02   9.9999998E-03   2.8000486E-01
  1.9990146E-02   9.9999998E-03   3.0000523E-01
  3.9964408E-02   9.9999998E-03   1.6000280E-01
  3.9965305E-02   9.9999998E-03   1.8000339E-01
  3.9966740E-02   9.9999998E-03   2.0000401E-01
  3.9968882E-02   9.9999998E-03   2.2000459E-01
  3.9971884E-02   9.9999998E-03   2.4000503E-01
  3.9975870E-02   9.9999998E-03   2.6000533E-01
  3.9980739E-02   9.9999998E-03   2.8000540E-01
  3.9986372E-02   9.9999998E-03   3.0000564E-01
  5.9953682E-02   9.9999998E-03   1.6000299E-01
  5.9954755E-02   9.9999998E-03   1.8000358E-01
  5.9956506E-02   9.9999998E-03   2.0000421E-01
  5.9959184E-02   9.9999998E-03   2.2000480E-01
  5.9962995E-02   9.9999998E-03   2.4000521E-01
  5.9968084E-02   9.9999998E-03   2.6000547E-01
  5.9974354E-02   9.9999998E-03   2.8000548E-01
  5.9981737E-02   9.9999998E-03   3.0000585E-01
  7.9942159E-02   9.9999998E-03   1.6000301E-01
  7.9943374E-02   9.9999998E-03   1.8000360E-01
  7.9945400E-02   9.9999998E-03   2.0000421E-01
  7.9948559E-02   9.9999998E-03   2.2000477E-01
  7.9953127E-02   9.9999998E-03   2.4000514E-01
  7.9959311E-02   9.9999998E-03   2.6000535E-01
  7.9967044E-02   9.9999998E-03   2.8000543E-01
  7.9976343E-02   9.9999998E-03   3.0000600E-01
  9.9929817E-02   9.9999998E-03   1.6000293E-01
  9.9931128E-02   9.9999998E-03   1.8000349E-01
  9.9933371E-02   9.9999998E-03   2.0000404E-01
  9.9936947E-02   9.9999998E-03   2.2000454E-01
  9.9942200E-02   9.9999998E-03   2.4000487E-01
  9.9949449E-02   9.9999998E-03   2.6000509E-01
  9.9958688E-02   9.9999998E-03   2.8000522E-01
  9.9970080E-02   9.9999998E-03   3.0000621E-01
  1.1991637E-01   9.9999998E-03   1.6000287E-01
  1.1991773E-01   9.9999998E-03   1.8000337E-01
  1.1992013E-01   9.9999998E-03   2.0000383E-01
  1.1992408E-01   9.9999998E-03   2.2000425E-01
  1.1992998E-01   9.9999998E-03   2.4000449E-01
  1.1993826E-01   9.9999998E-03   2.6000473E-01
  1.1994903E-01   9.9999998E-03   2.8000507E-01
  1.1996271E-01   9.9999998E-03   3.0000672E-01
  1.3990146E-01   9.9999998E-03   1.6000293E-01
  1.3990282E-01   9.9999998E-03   1.8000337E-01
  1.3990533E-01   9.9999998E-03   2.0000373E-01
  1.3990960E-01   9.9999998E-03   2.2000405E-01
  1.3991611E-01   9.9999998E-03   2.4000421E-01
  1.3992545E-01   9.9999998E-03   2.6000455E-01
  1.3993776E-01   9.9999998E-03   2.8000522E-01
  1.3995390E-01   9.9999998E-03   3.0000773E-01
  1.5988481E-01   9.9999998E-03   1.6000329E-01
  1.5988611E-01   9.9999998E-03   1.8000367E-01
  1.5988870E-01   9.9999998E-03   2.0000395E-01
  1.5989323E-01   9.9999998E-03   2.2000420E-01
  1.5990037E-01   9.9999998E-03   2.4000432E-01
  1.5991080E-01   9.9999998E-03   2.6000479E-01
  1.5992457E-01   9.9999998E-03   2.8000569E-01
  1.5994298E-01   9.9999998E-03   3.0000892E-01
  1.7986627E-01   9.9999998E-03   1.6000412E-01
  1.7986746E-01   9.9999998E-03   1.8000449E-01
  1.7987004E-01   9.9999998E-03   2.0000476E-01
  1.7987478E-01   9.9999998E-03   2.2000492E-01
  1.7988253E-01   9.9999998E-03   2.4000499E-01
  1.7989394E-01   9.9999998E-03   2.6000538E-01
  1.7990901E-01   9.9999998E-03   2.8000626E-01
  1.7992871E-01   9.9999998E-03   3.0000898E-01
  1.9984566E-01   9.9999998E-03   1.6000563E-01
  1.9984671E-01   9.9999998E-03   1.8000607E-01
  1.9984922E-01   9.9999998E-03   2.0000634E-01
  1.9985408E-01   9.9999998E-03   2.2000642E-01
  1.9986227E-01   9.9999998E-03   2.4000630E-01
  1.9987443E-01   9.9999998E-03   2.6000628E-01
  1.9989029E-01   9.9999998E-03   2.8000671E-01
  1.9990994E-01   9.9999998E-03   3.0000779E-01
  2.1982281E-01   9.9999998E-03   1.6000791E-01
  2.1982369E-01   9.9999998E-03   1.8000855E-01
  2.1982607E-01   9.9999998E-03   2.0000891E-01
  2.1983087E-01   9.9999998E-03   2.2000891E-01
  2.1983932E-01   9.9999998E-03   2.4000868E-01
  2.1985199E-01   9.9999998E-03   2.6000857E-01
  2.1986826E-01   9.9999998E-03   2.8000930E-01
  2.1988909E-01   9.9999998E-03   3.0001172E-01
  2.3979746E-01   9.9999998E-03   1.6001104E-01
  2.3979813E-01   9.9999998E-03   1.8001206E-01
  2.3980032E-01   9.9999998E-03   2.0001285E-01
  2.3980492E-01   9.9999998E-03   2.2001320E-01
  2.3981324E-01   9.9999998E-03   2.4001375E-01
  2.3982602E-01   9.9999998E-03   2.6001570E-01
  2.3984286E-01   9.9999998E-03   2.8002122E-01
  2.3986486E-01   9.9999998E-03   3.0003008E-01
  2.5976929E-01   9.9999998E-03   1.6001505E-01
  2.5976974E-01   9.9999998E-03   1.8001674E-01
  2.5977165E-01   9.9999998E-03   2.0001833E-01
  2.5977588E-01   9.9999998E-03   2.2001991E-01
  2.5978354E-01   9.9999998E-03   2.4002223E-01
  2.5979570E-01   9.9999998E-03   2.6002723E-01
  2.5981218E-01   9.9999998E-03   2.8003636E-01
  2.5983346E-01   9.9999998E-03   3.0004650E-01
  2.7973801E-01   9.9999998E-03   1.6001993E-01
  2.7973819E-01   9.9999998E-03   1.8002254E-01
  2.7973977E-01   9.9999998E-03   2.0002528E-01
  2.7974349E-01   9.9999998E-03   2.2002845E-01
  2.7975032E-01   9.9999998E-03   2.4003264E-01
  2.7976120E-01   9.9999998E-03   2.6003936E-01
  2.7977628E-01   9.9999998E-03   2.8004882E-01
  2.7979603E-01   9.9999998E-03   3.0005807E-01
  2.9970327E-01   9.9999998E-03   1.6002554E-01
  2.9970315E-01   9.9999998E-03   1.8002915E-01
  2.9970437E-01   9.9999998E-03   2.0003308E-01
  2.9970768E-01   9.9999998E-03   2.2003765E-01
  2.9971385E-01   9.9999998E-03   2.4004322E-01
  2.9972368E-01   9.9999998E-03   2.6005057E-01
  2.9973748E-01   9.9999998E-03   2.8005928E-01
  2.9975536E-01   9.9999998E-03   3.0006763E-01
  3.1966481E-01   9.9999998E-03   1.6003159E-01
  3.1966433E-01   9.9999998E-03   1.8003623E-01
  3.1966525E-01   9.9999998E-03   2.0004123E-01
  3.1966823E-01   9.9999998E-03   2.2004682E-01
  3.1967413E-01   9.9999998E-03   2.4005321E-01
  3.1968361E-01   9.9999998E-03   2.6006070E-01
  3.1969681E-01   9.9999998E-03   2.8006890E-01
  3.1971371E-01   9.9999998E-03   3.0007696E-01
  3.3962223E-01   9.9999998E-03   1.6003783E-01
  3.3962139E-01   9.9999998E-03   1.8004341E-01
  3.3962205E-01   9.9999998E-03   2.0004936E-01
  3.3962488E-01   9.9999998E-03   2.2005571E-01
  3.3963084E-01   9.9999998E-03   2.4006265E-01
  3.3964053E-01   9.9999998E-03   2.6007023E-01
  3.3965409E-01   9.9999998E-03   2.8007844E-01
  3.3967143E-01   9.9999998E-03   3.0008653E-01
  3.5957524E-01   9.9999998E-03   1.6004410E-01
  3.5957408E-01   9.9999998E-03   1.8005055E-01
  3.5957444E-01   9.9999998E-03   2.0005731E-01
  3.5957718E-01   9.9999998E-03   2.2006436E-01
  3.5958338E-01   9.9999998E-03   2.4007177E-01
  3.5959363E-01   9.9999998E-03   2.6007959E-01
  3.5960826E-01   9.9999998E-03   2.8008813E-01
  3.5962719E-01   9.9999998E-03   3.0009663E-01
  3.7952343E-01   9.9999998E-03   1.6005030E-01
  3.7952194E-01   9.9999998E-03   1.8005756E-01
  3.7952206E-01   9.9999998E-03   2.0006511E-01
  3.7952474E-01   9.9999998E-03   2.2007285E-01
  3.7953120E-01   9.9999998E-03   2.4008082E-01
  3.7954220E-01   9.9999998E-03   2.6008907E-01
  3.7955821E-01   9.9999998E-03   2.8009820E-01
  3.7957919E-01   9.9999998E-03   3.0010733E-01
  3.9946645E-01   9.9999998E-03   1.6005637E-01
  3.9946464E-01   9.9999998E-03   1.8006445E-01
  3.9946452E-01   9.9999998E-03   2.0007282E-01
  3.9946714E-01   9.9999998E-03   2.2008134E-01
  3.9947394E-01   9.9999998E-03   2.4009000E-01
  3.9948580E-01   9.9999998E-03   2.6009884E-01
  3.9950329E-01   9.9999998E-03   2.8010869E-01
  3.9952651E-01   9.9999998E-03   3.0011860E-01
  4.1940394E-01   9.9999998E-03   1.6006230E-01
  4.1940174E-01   9.9999998E-03   1.8007125E-01
  4.1940135E-01   9.9999998E-03   2.0008051E-01
  4.1940397E-01   9.9999998E-03   2.2008991E-01
  4.1941112E-01   9.9999998E-03   2.4009939E-01
  4.1942391E-01   9.9999998E-03   2.6010901E-01
  4.1944307E-01   9.9999998E-03   2.8011975E-01
  4.1946870E-01   9.9999998E-03   3.0013055E-01
  4.3933544E-01   9.9999998E-03   1.6006817E-01
  4.3933284E-01   9.9999998E-03   1.8007801E-01
  4.3933213E-01   9.9999998E-03   2.0008820E-01
  4.3933469E-01   9.9999998E-03   2.2009856E-01
  4.3934223E-01   9.9999998E-03   2.4010901E-01
  4.3935603E-01   9.9999998E-03   2.6011968E-01
  4.3937695E-01   9.9999998E-03   2.8013146E-01
  4.3940520E-01   9.9999998E-03   3.0014336E-01
  4.5926046E-01   9.9999998E-03   1.6007425E-01
  4.5925736E-01   9.9999998E-03   1.8008494E-01
  4.5925623E-01   9.9999998E-03   2.0009600E-01
  4.5925868E-01   9.9999998E-03   2.2010726E-01
  4.5926660E-01   9.9999998E-03   2.4011874E-01
  4.5928144E-01   9.9999998E-03   2.6013073E-01
  4.5930418E-01   9.9999998E-03   2.8014401E-01
  4.5933527E-01   9.9999998E-03   3.0015719E-01
  4.7917852E-01   9.9999998E-03   1.6008106E-01
  4.7917476E-01   9.9999998E-03   1.8009248E-01
  4.7917306E-01   9.9999998E-03   2.0010419E-01
  4.7917524E-01   9.9999998E-03   2.2011612E-01
  4.7918341E-01   9.9999998E-03   2.4012850E-01
  4.7919920E-01   9.9999998E-03   2.6014212E-01
  4.7922373E-01   9.9999998E-03   2.8015745E-01
  4.7925761E-01   9.9999998E-03   3.0017245E-01
  4.9908897E-01   9.9999998E-03   1.6008945E-01
  4.9908447E-01   9.9999998E-03   1.8010142E-01
  4.9908206E-01   9.9999998E-03   2.0011345E-01
  4.9908376E-01   9.9999998E-03   2.2012560E-01
  4.9909183E-01   9.9999998E-03   2.4013841E-01
  4.9910828E-01   9.9999998E-03   2.6015377E-01
  4.9913421E-01   9.9999998E-03   2.8017208E-01
  4.9917039E-01   9.9999998E-03   3.0018952E-01
  5.1899159E-01   9.9999998E-03   1.6010053E-01
  5.1898623E-01   9.9999998E-03   1.8011299E-01
  5.1898295E-01   9.9999998E-03   2.0012498E-01
  5.1898384E-01   9.9999998E-03   2.2013679E-01
  5.1899141E-01   9.9999998E-03   2.4014924E-01
  5.1900780E-01   9.9999998E-03   2.6016605E-01
  5.1903403E-01   9.9999998E-03   2.8018823E-01
  5.1907098E-01   9.9999998E-03   3.0020908E-01
  5.3888667E-01   9.9999998E-03   1.6011545E-01
  5.3888047E-01   9.9999998E-03   1.8012859E-01
  5.3887624E-01   9.9999998E-03   2.0014054E-01
  5.3887606E-01   9.9999998E-03   2.2015147E-01
  5.3888249E-01   9.9999998E-03   2.4016267E-01
  5.3889763E-01   9.9999998E-03   2.6018003E-01
  5.3892231E-01   9.9999998E-03   2.8020686E-01
  5.3895688E-01   9.9999998E-03   3.0023211E-01
  5.5877626E-01   9.9999998E-03   1.6013534E-01
  5.5876946E-01   9.9999998E-03   1.8014972E-01
  5.5876440E-01   9.9999998E-03   2.0016201E-01
  5.5876303E-01   9.9999998E-03   2.2017218E-01
  5.5876762E-01   9.9999998E-03   2.4018128E-01
  5.5878001E-01   9.9999998E-03   2.6019809E-01
  5.5880046E-01   9.9999998E-03   2.8022972E-01
  5.5882818E-01   9.9999998E-03   3.0026013E-01
  5.7866484E-01   9.9999998E-03   1.6016056E-01
  5.7865793E-01   9.9999998E-03   1.8017720E-01
  5.7865244E-01   9.9999998E-03   2.0019078E-01
  5.7865012E-01   9.9999998E-03   2.2020106E-01
  5.7865208E-01   9.9999998E-03   2.4020815E-01
  5.7866037E-01   9.9999998E-03   2.6022419E-01
  5.7867402E-01   9.9999998E-03   2.8026024E-01
  5.7869005E-01   9.9999998E-03   3.0029574E-01
  5.9855908E-01   9.9999998E-03   1.6019014E-01
  5.9855193E-01   9.9999998E-03   1.8020937E-01
  5.9854621E-01   9.9999998E-03   2.0022532E-01
  5.9854293E-01   9.9999998E-03   2.2023715E-01
  5.9854323E-01   9.9999998E-03   2.4024585E-01
  5.9854740E-01   9.9999998E-03   2.6026464E-01
  5.9855247E-01   9.9999998E-03   2.8030407E-01
  5.9855413E-01   9.9999998E-03   3.0034333E-01
  6.1846560E-01   9.9999998E-03   1.6022249E-01
  6.1845773E-01   9.9999998E-03   1.8024440E-01
  6.1845076E-01   9.9999998E-03   2.0026344E-01
  6.1844647E-01   9.9999998E-03   2.2028045E-01
  6.1844414E-01   9.9999998E-03   2.4029569E-01
  6.1844510E-01   9.9999998E-03   2.6032436E-01
  6.1844599E-01   9.9999998E-03   2.8036988E-01
  6.1843574E-01   9.9999998E-03   3.0040967E-01
  6.3838869E-01   9.9999998E-03   1.6025592E-01
  6.3838035E-01   9.9999998E-03   1.8028177E-01
  6.3837135E-01   9.9999998E-03   2.0030618E-01
  6.3836432E-01   9.9999998E-03   2.2033286E-01
  6.3836104E-01   9.9999998E-03   2.4036852E-01
  6.3836175E-01   9.9999998E-03   2.6041687E-01
  6.3836128E-01   9.9999998E-03   2.8046316E-01
  6.3834900E-01   9.9999998E-03   3.0049959E-01
  6.5833366E-01   9.9999998E-03   1.6029356E-01
  6.5832573E-01   9.9999998E-03   1.8032651E-01
  6.5831763E-01   9.9999998E-03   2.0036371E-01
  6.5831256E-01   9.9999998E-03   2.2041447E-01
  6.5831339E-01   9.9999998E-03   2.4048391E-01
  6.5831512E-01   9.9999998E-03   2.6054293E-01
  6.5831429E-01   9.9999998E-03   2.8057694E-01
  6.5830725E-01   9.9999998E-03   3.0060557E-01
  6.7831397E-01   9.9999998E-03   1.6035327E-01
  6.7830783E-01   9.9999998E-03   1.8039800E-01
  6.7830223E-01   9.9999998E-03   2.0045339E-01
  6.7830312E-01   9.9999998E-03   2.2053257E-01
  6.7831230E-01   9.9999998E-03   2.4062319E-01
  6.7831552E-01   9.9999998E-03   2.6066712E-01
  6.7832065E-01   9.9999998E-03   2.8068265E-01
  6.7834371E-01   9.9999998E-03   3.0070323E-01
  6.9835728E-01   9.9999998E-03   1.6045707E-01
  6.9835800E-01   9.9999998E-03   1.8051949E-01
  6.9836098E-01   9.9999998E-03   2.0059502E-01
  6.9837373E-01   9.9999998E-03   2.2068572E-01
  6.9838959E-01   9.9999998E-03   2.4075651E-01
  6.9839579E-01   9.9999998E-03   2.6076689E-01
  6.9845259E-01   9.9999998E-03   2.8076336E-01
  6.9861716E-01   9.9999998E-03   3.0077928E-01
  7.1857178E-01   9.9999998E-03   1.6062523E-01
  7.1857780E-01   9.9999998E-03   1.8069454E-01
  7.1858817E-01   9.9999998E-03   2.0076160E-01
  7.1860784E-01   9.9999998E-03   2.2081555E-01
  7.1865934E-01   9.9999998E-03   2.4084422E-01
  7.1876496E-01   9.9999998E-03   2.6082852E-01
  7.1891892E-01   9.9999998E-03   2.8081831E-01
  7.1908498E-01   9.9999998E-03   3.0083469E-01
  7.3907399E-01   9.9999998E-03   1.6064265E-01
  7.3908317E-01   9.9999998E-03   1.8071145E-01
  7.3909628E-01   9.9999998E-03   2.0077673E-01
  7.3912323E-01   9.9999998E-03   2.2082396E-01
  7.3917544E-01   9.9999998E-03   2.4084951E-01
  7.3925394E-01   9.9999998E-03   2.6084563E-01
  7.3935223E-01   9.9999998E-03   2.8085238E-01
  7.3945552E-01   9.9999998E-03   3.0087575E-01
  7.5946641E-01   9.9999998E-03   1.6062780E-01
  7.5947791E-01   9.9999998E-03   1.8068998E-01
  7.5949132E-01   9.9999998E-03   2.0075476E-01
  7.5951219E-01   9.9999998E-03   2.2080603E-01
  7.5954515E-01   9.9999998E-03   2.4083626E-01
  7.5959003E-01   9.9999998E-03   2.6084951E-01
  7.5964159E-01   9.9999998E-03   2.8087425E-01
  7.5969732E-01   9.9999998E-03   3.0090731E-01
  7.7974963E-01   9.9999998E-03   1.6060990E-01
  7.7975863E-01   9.9999998E-03   1.8066666E-01
  7.7976799E-01   9.9999998E-03   2.0072787E-01
  7.7977973E-01   9.9999998E-03   2.2078601E-01
  7.7979481E-01   9.9999998E-03   2.4082533E-01
  7.7981234E-01   9.9999998E-03   2.6085716E-01
  7.7983022E-01   9.9999998E-03   2.8088900E-01
  7.7985132E-01   9.9999998E-03   3.0092821E-01
  7.9998356E-01   9.9999998E-03   1.6059610E-01
  7.9998916E-01   9.9999998E-03   1.8065085E-01
  7.9999387E-01   9.9999998E-03   2.0071197E-01
  7.9999709E-01   9.9999998E-03   2.2077730E-01
  7.9999727E-01   9.9999998E-03   2.4082506E-01
  7.9999304E-01   9.9999998E-03   2.6086324E-01
  7.9998600E-01   9.9999998E-03   2.8089616E-01
  7.9997993E-01   9.9999998E-03   3.0093849E-01
  8.2021785E-01   9.9999998E-03   1.6058820E-01
  8.2022238E-01   9.9999998E-03   1.8064377E-01
  8.2022536E-01   9.9999998E-03   2.0070739E-01
  8.2022363E-01   9.9999998E-03   2.2078243E-01
  8.2021242E-01   9.9999998E-03   2.4083295E-01
  8.2019037E-01   9.9999998E-03   2.6086512E-01
  8.2016242E-01   9.9999998E-03   2.8089580E-01
  8.2013059E-01   9.9999998E-03   3.0093923E-01
  8.4047139E-01   9.9999998E-03   1.6058382E-01
  8.4047842E-01   9.9999998E-03   1.8064119E-01
  8.4048414E-01   9.9999998E-03   2.0070715E-01
  8.4048194E-01   9.9999998E-03   2.2078560E-01
  8.4046203E-01   9.9999998E-03   2.4083330E-01
  8.4042454E-01   9.9999998E-03   2.6085758E-01
  8.4037596E-01   9.9999998E-03   2.8088620E-01
  8.4031695E-01   9.9999998E-03   3.0092937E-01
  8.6073589E-01   9.9999998E-03   1.6057856E-01
  8.6074859E-01   9.9999998E-03   1.8063730E-01
  8.6076051E-01   9.9999998E-03   2.0070408E-01
  8.6076117E-01   9.9999998E-03   2.2077949E-01
  8.6073482E-01   9.9999998E-03   2.4082303E-01
  8.6068243E-01   9.9999998E-03   2.6084197E-01
  8.6061281E-01   9.9999998E-03   2.8086874E-01
  8.6052531E-01   9.9999998E-03   3.0091053E-01
  8.8099283E-01   9.9999998E-03   1.6056818E-01
  8.8101262E-01   9.9999998E-03   1.8062712E-01
  8.8103217E-01   9.9999998E-03   2.0069288E-01
  8.8103634E-01   9.9999998E-03   2.2076263E-01
  8.8100445E-01   9.9999998E-03   2.4080306E-01
  8.8093728E-01   9.9999998E-03   2.6081946E-01
  8.8084745E-01   9.9999998E-03   2.8084525E-01
  8.8073289E-01   9.9999998E-03   3.0088487E-01
  9.0122598E-01   9.9999998E-03   1.6055004E-01
  9.0125233E-01   9.9999998E-03   1.8060786E-01
  9.0127861E-01   9.9999998E-03   2.0067105E-01
  9.0128326E-01   9.9999998E-03   2.2073334E-01
  9.0124333E-01   9.9999998E-03   2.4077219E-01
  9.0116560E-01   9.9999998E-03   2.6079109E-01
  9.0105802E-01   9.9999998E-03   2.8081739E-01
  9.0092182E-01   9.9999998E-03   3.0085409E-01
  9.2140454E-01   9.9999998E-03   1.6052373E-01
  9.2144167E-01   9.9999998E-03   1.8057957E-01
  9.2147911E-01   9.9999998E-03   2.0063871E-01
  9.2148489E-01   9.9999998E-03   2.2069138E-01
  9.2143667E-01   9.9999998E-03   2.4073204E-01
  9.2135024E-01   9.9999998E-03   2.6075676E-01
  9.2123115E-01   9.9999998E-03   2.8078616E-01
  9.2108226E-01   9.9999998E-03   3.0081922E-01
  9.4148713E-01   9.9999998E-03   1.6049232E-01
  9.4153053E-01   9.9999998E-03   1.8054685E-01
  9.4157904E-01   9.9999998E-03   2.0060371E-01
  9.4161111E-01   9.9999998E-03   2.2064963E-01
  9.4158155E-01   9.9999998E-03   2.4068546E-01
  9.4148910E-01   9.9999998E-03   2.6071933E-01
  9.4136286E-01   9.9999998E-03   2.8075159E-01
  9.4121057E-01   9.9999998E-03   3.0078098E-01
  9.6151745E-01   9.9999998E-03   1.6046126E-01
  9.6156377E-01   9.9999998E-03   1.8051466E-01
  9.6161640E-01   9.9999998E-03   2.0056985E-01
  9.6166217E-01   9.9999998E-03   2.2061768E-01
  9.6166956E-01   9.9999998E-03   2.4064556E-01
  9.6159470E-01   9.9999998E-03   2.6067883E-01
  9.6146756E-01   9.9999998E-03   2.8071335E-01
  9.6131676E-01   9.9999998E-03   3.0073935E-01
  9.8152059E-01   9.9999998E-03   1.6043414E-01
  9.8156899E-01   9.9999998E-03   1.8048556E-01
  9.8162442E-01   9.9999998E-03   2.0053706E-01
  9.8167920E-01   9.9999998E-03   2.2058704E-01
  9.8171061E-01   9.9999998E-03   2.4061330E-01
  9.8167479E-01   9.9999998E-03   2.6063609E-01
  9.8156035E-01   9.9999998E-03   2.8067082E-01
  9.8141605E-01   9.9999998E-03   3.0069458E-01
  1.0015119E+00   9.9999998E-03   1.6040875E-01
  1.0015621E+00   9.9999998E-03   1.8045631E-01
  1.0016199E+00   9.9999998E-03   2.0050457E-01
  1.0016804E+00   9.9999998E-03   2.2055101E-01
  1.0017267E+00   9.9999998E-03   2.4057868E-01
  1.0017312E+00   9.9999998E-03   2.6059276E-01
  1.0016466E+00   9.9999998E-03   2.8062424E-01
  1.0015198E+00   9.9999998E-03   3.0064705E-01
  1.0214965E+00   9.9999998E-03   1.6038376E-01
  1.0215490E+00   9.9999998E-03   1.8042903E-01
  1.0216098E+00   9.9999998E-03   2.0047346E-01
  1.0216746E+00   9.9999998E-03   2.2051315E-01
  1.0217328E+00   9.9999998E-03   2.4053870E-01
  1.0217650E+00   9.9999998E-03   2.6054952E-01
  1.0217321E+00   9.9999998E-03   2.8057405E-01
  1.0216364E+00   9.9999998E-03   3.0059776E-01
  1.0414765E+00   9.9999998E-03   1.6035882E-01
  1.0415323E+00   9.9999998E-03   1.8040055E-01
  1.0415963E+00   9.9999998E-03   2.0043865E-01
  1.0416665E+00   9.9999998E-03   2.2047313E-01
  1.0417331E+00   9.9999998E-03   2.4049526E-01
  1.0417863E+00   9.9999998E-03   2.6050636E-01
  1.0418168E+00   9.9999998E-03   2.8052482E-01
  1.0417762E+00   9.9999998E-03   3.0054742E-01
  1.0614530E+00   9.9999998E-03   1.6033258E-01
  1.0615126E+00   9.9999998E-03   1.8036959E-01
  1.0615815E+00   9.9999998E-03   2.0040235E-01
  1.0616580E+00   9.9999998E-03   2.2043218E-01
  1.0617317E+00   9.9999998E-03   2.4045199E-01
  1.0618050E+00   9.9999998E-03   2.6046365E-01
  1.0618722E+00   9.9999998E-03   2.8048226E-01
  1.0619117E+00   9.9999998E-03   3.0050045E-01
  1.0814278E+00   9.9999998E-03   1.6030575E-01
  1.0814914E+00   9.9999998E-03   1.8033549E-01
  1.0815669E+00   9.9999998E-03   2.0036390E-01
  1.0816498E+00   9.9999998E-03   2.2039118E-01
  1.0817288E+00   9.9999998E-03   2.4040696E-01
  1.0818135E+00   9.9999998E-03   2.6041988E-01
  1.0819017E+00   9.9999998E-03   2.8044125E-01
  1.0819647E+00   9.9999998E-03   3.0045739E-01
  1.1014022E+00   9.9999998E-03   1.6027474E-01
  1.1014715E+00   9.9999998E-03   1.8029980E-01
  1.1015539E+00   9.9999998E-03   2.0032533E-01
  1.1016411E+00   9.9999998E-03   2.2034763E-01
  1.1017237E+00   9.9999998E-03   2.4036035E-01
  1.1018112E+00   9.9999998E-03   2.6037675E-01
  1.1019064E+00   9.9999998E-03   2.8040236E-01
  1.1213790E+00   9.9999998E-03   1.6024168E-01
  1.1214550E+00   9.9999998E-03   1.8026373E-01
  1.1215427E+00   9.9999998E-03   2.0028637E-01
  1.1216321E+00   9.9999998E-03   2.2030450E-01
  1.1217158E+00   9.9999998E-03   2.4031709E-01
  1.1218045E+00   9.9999998E-03   2.6034093E-01
  1.1218901E+00   9.9999998E-03   2.8036758E-01
  1.1413606E+00   9.9999998E-03   1.6020894E-01
  1.1414427E+00   9.9999998E-03   1.8022983E-01
  1.1415347E+00   9.9999998E-03   2.0025139E-01
  1.1416245E+00   9.9999998E-03   2.2026752E-01
  1.1417071E+00   9.9999998E-03   2.4028528E-01
  1.1417935E+00   9.9999998E-03   2.6031482E-01
  1.1613485E+00   9.9999998E-03   1.6017982E-01
  1.1614362E+00   9.9999998E-03   1.8020180E-01
  1.1615316E+00   9.9999998E-03   2.0022364E-01
  1.1616182E+00   9.9999998E-03   2.2024032E-01
  1.1617005E+00   9.9999998E-03   2.4026713E-01
  1.1617695E+00   9.9999998E-03   2.6029381E-01
  1.1813446E+00   9.9999998E-03   1.6015887E-01
  1.1814396E+00   9.9999998E-03   1.8018422E-01
  1.1815326E+00   9.9999998E-03   2.0020655E-01
  1.1816131E+00   9.9999998E-03   2.2022781E-01
  1.1816845E+00   9.9999998E-03   2.4025676E-01
  1.2013551E+00   9.9999998E-03   1.6015129E-01
  1.2014483E+00   9.9999998E-03   1.8017590E-01
  1.2015340E+00   9.9999998E-03   2.0020139E-01
  1.2015988E+00   9.9999998E-03   2.2022352E-01
  1.2213675E+00   9.9999998E-03   1.6014963E-01
  1.2214484E+00   9.9999998E-03   1.8017443E-01
  1.2215183E+00   9.9999998E-03   2.0020051E-01
  1.2215465E+00   9.9999998E-03   2.2020949E-01
  1.2413590E+00   9.9999998E-03   1.6014722E-01
  1.2414194E+00   9.9999998E-03   1.8016998E-01
  1.2613164E+00   9.9999998E-03   1.6013935E-01
VERTICES 2975 5950
1 0
1 1
1 2
1 3
1 4
1 5
1 6
1 7
1 8
1 9
1 10
1 11
1 12
1 13
1 14
1 15
1 16
1 17
1 18
1 19
1 20
1 21
1 22
1 23
1 24
1 25
1 26
1 27
1 28
1 29
1 30
1 31
1 32
1 33
1 34
1 35
1 36
1 37
1 38
1 39
1 40
1 41
1 42
1 43
1 44
1 45
1 46
1 47
1 48
1 49
1 50
1 51
1 52
1 53
1 54
1 55
1 56
1 57
1 58
1 59
1 60
1 61
1 62
1 63
1 64
1 65
1 66
1 67
1 68
1 69
1 70
1 71
1 72
1 73
1 74
1 75
1 76
1 77
1 78
1 79
1 80
1 81
1 82
1 83
1 84
1 85
1 86
1 87
1 88
1 89
1 90
1 91
1 92
1 93
1 94
1 95
1 96
1 97
1 98
1 99
1 100
1 101
1 102
1 103
1 104
1 105
1 106
1 107
1 108
1 109
1 110
1 111
1 112
1 113
1 114
1 115
1 116
1 117
1 118
1 119
1 120
1 121
1 122
1 123
1 124
1 125
1 126
1 127
1 128
1 129
1 130
1 131
1 132
1 133
1 134
1 135
1 136
1 137
1 138
1 139
1 140
1 141
1 142
1 143
1 144
1 145
1 146
1 147
1 148
1 149
1 150
1 151
1 152
1 153
1 154
1 155
1 156
1 157
1 158
1 159
1 160
1 161
1 162
1 163
1 164
1 165
1 166
1 167
1 168
1 169
1 170
1 171
1 172
1 173
1 174
1 175
1 176
1 177
1 178
1 179
1 180
1 181
1 182
1 183
1 184
1 185
1 186
1 187
1 188
1 189
1 190
1 191
1 192
1 193
1 194
1 195
1 196
1 197
1 198
1 199
1 200
1 201
1 202
1 203
1 204
1 205
1 206
1 207
1 208
1 209
1 210
1 211
1 212
1 213
1 214
1 215
1 216
1 217
1 218
1 219
1 220
1 221
1 222
1 223
1 224
1 225
1 226
1 227
1 228
1 229
1 230
1 231
1 232
1 233
1 234
1 235
1 236
1 237
1 238
1 239
1 240
1 241
1 242
1 243
1 244
1 245
1 246
1 247
1 248
1 249
1 250
1 251
1 252
1 253
1 254
1 255
1 256
1 257
1 258
1 259
1 260
1 261
1 262
1 263
1 264
1 265
1 266
1 267
1 268
1 269
1 270
1 271
1 272
1 273
1 274
1 275
1 276
1 277
1 278
1 279
1 280
1 281
1 282
1 283
1 284
1 285
1 286
1 287
1 288
1 289
1 290
1 291
1 292
1 293
1 294
1 295
1 296
1 297
1 298
1 299
1 300
1 301
1 302
1 303
1 304
1 305
1 306
1 307
1 308
1 309
1 310
1 311
1 312
1 313
1 314
1 315
1 316
1 317
1 318
1 319
1 320
1 321
1 322
1 323
1 324
1 325
1 326
1 327
1 328
1 329
1 330
1 331
1 332
1 333
1 334
1 335
1 336
1 337
1 338
1 339
1 340
1 341
1 342
1 343
1 344
1 345
1 346
1 347
1 348
1 349
1 350
1 351
1 352
1 353
1 354
1 355
1 356
1 357
1 358
1 359
1 360
1 361
1 362
1 363
1 364
1 365
1 366
1 367
1 368
1 369
1 370
1 371
1 372
1 373
1 374
1 375
1 376
1 377
1 378
1 379
1 380
1 381
1 382
1 383
1 384
1 385
1 386
1 387
1 388
1 389
1 390
1 391
1 392
1 393
1 394
1 395
1 396
1 397
1 398
1 399
1 400
1 401
1 402
1 403
1 404
1 405
1 406
1 407
1 408
1 409
1 410
1 411
1 412
1 413
1 414
1 415
1 416
1 417
1 418
1 419
1 420
1 421
1 422
1 423
1 424
1 425
1 426
1 427
1 428
1 429
1 430
1 431
1 432
1 433
1 434
1 435
1 436
1 437
1 438
1 439
1 440
1 441
1 442
1 443
1 444
1 445
1 446
1 447
1 448
1 449
1 450
1 451
1 452
1 453
1 454
1 455
1 456
1 457
1 458
1 459
1 460
1 461
1 462
1 463
1 464
1 465
1 466
1 467
1 468
1 469
1 470
1 471
1 472
1 473
1 474
1 475
1 476
1 477
1 478
1 479
1 480
1 481
1 482
1 483
1 484
1 485
1 486
1 487
1 488
1 489
1 490
1 491
1 492
1 493
1 494
1 495
1 496
1 497
1 498
1 499
1 500
1 501
1 502
1 503
1 504
1 505
1 506
1 507
1 508
1 509
1 510
1 511
1 512
1 513
1 514
1 515
1 516
1 517
1 518
1 519
1 520
1 521
1 522
1 523
1 524
1 525
1 526
1 527
1 528
1 529
1 530
1 531
1 532
1 533
1 534
1 535
1 536
1 537
1 538
1 539
1 540
1 541
1 542
1 543
1 544
1 545
1 546
1 547
1 548
1 549
1 550
1 551
1 552
1 553
1 554
1 555
1 556
1 557
1 558
1 559
1 560
1 561
1 562
1 563
1 564
1 565
1 566
1 567
1 568
1 569
1 570
1 571
1 572
1 573
1 574
1 575
1 576
1 577
1 578
1 579
1 580
1 581
1 582
1 583
1 584
1 585
1 586
1 587
1 588
1 589
1 590
1 591
1 592
1 593
1 594
1 595
1 596
1 597
1 598
1 599
1 600
1 601
1 602
1 603
1 604
1 605
1 606
1 607
1 608
1 609
1 610
1 611
1 612
1 613
1 614
1 615
1 616
1 617
1 618
1 619
1 620
1 621
1 622
1 623
1 624
1 625
1 626
1 627
1 628
1 629
1 630
1 631
1 632
1 633
1 634
1 635
1 636
1 637
1 638
1 639
1 640
1 641
1 642
1 643
1 644
1 645
1 646
1 647
1 648
1 649
1 650
1 651
1 652
1 653
1 654
1 655
1 656
1 657
1 658
1 659
1 660
1 661
1 662
1 663
1 664
1 665
1 666
1 667
1 668
1 669
1 670
1 671
1 672
1 673
1 674
1 675
1 676
1 677
1 678
1 679
1 680
1 681
1 682
1 683
1 684
1 685
1 686
1 687
1 688
1 689
1 690
1 691
1 692
1 693
1 694
1 695
1 696
1 697
1 698
1 699
1 700
1 701
1 702
1 703
1 704
1 705
1 706
1 707
1 708
1 709
1 710
1 711
1 712
1 713
1 714
1 715
1 716
1 717
1 718
1 719
1 720
1 721
1 722
1 723
1 724
1 725
1 726
1 727
1 728
1 729
1 730
1 731
1 732
1 733
1 734
1 735
1 736
1 737
1 738
1 739
1 740
1 741
1 742
1 743
1 744
1 745
1 746
1 747
1 748
1 749
1 750
1 751
1 752
1 753
1 754
1 755
1 756
1 757
1 758
1 759
1 760
1 761
1 762
1 763
1 764
1 765
1 766
1 767
1 768
1 769
1 770
1 771
1 772
1 773
1 774
1 775
1 776
1 777
1 778
1 779
1 780
1 781
1 782
1 783
1 784
1 785
1 786
1 787
1 788
1 789
1 790
1 791
1 792
1 793
1 794
1 795
1 796
1 797
1 798
1 799
1 800
1 801
1 802
1 803
1 804
1 805
1 806
1 807
1 808
1 809
1 810
1 811
1 812
1 813
1 814
1 815
1 816
1 817
1 818
1 819
1 820
1 821
1 822
1 823
1 824
1 825
1 826
1 827
1 828
1 829
1 830
1 831
1 832
1 833
1 834
1 835
1 836
1 837
1 838
1 839
1 840
1 841
1 842
1 843
1 844
1 845
1 846
1 847
1 848
1 849
1 850
1 851
1 852
1 853
1 854
1 855
1 856
1 857
1 858
1 859
1 860
1 861
1 862
1 863
1 864
1 865
1 866
1 867
1 868
1 869
1 870
1 871
1 872
1 873
1 874
1 875
1 876
1 877
1 878
1 879
1 880
1 881
1 882
1 883
1 884
1 885
1 886
1 887
1 888
1 889
1 890
1 891
1 892
1 893
1 894
1 895
1 896
1 897
1 898
1 899
1 900
1 901
1 902
1 903
1 904
1 905
1 906
1 907
1 908
1 909
1 910
1 911
1 912
1 913
1 914
1 915
1 916
1 917
1 918
1 919
1 920
1 921
1 922
1 923
1 924
1 925
1 926
1 927
1 928
1 929
1 930
1 931
1 932
1 933
1 934
1 935
1 936
1 937
1 938
1 939
1 940
1 941
1 942
1 943
1 944
1 945
1 946
1 947
1 948
1 949
1 950
1 951
1 952
1 953
1 954
1 955
1 956
1 957
1 958
1 959
1 960
1 961
1 962
1 963
1 964
1 965
1 966
1 967
1 968
1 969
1 970
1 971
1 972
1 973
1 974
1 975
1 976
1 977
1 978
1 979
1 980
1 981
1 982
1 983
1 984
1 985
1 986
1 987
1 988
1 989
1 990
1 991
1 992
1 993
1 994
1 995
1 996
1 997
1 998
1 999
1 1000
1 1001
1 1002
1 1003
1 1004
1 1005
1 1006
1 1007
1 1008
1 1009
1 1010
1 1011
1 1012
1 1013
1 1014
1 1015
1 1016
1 1017
1 1018
1 1019
1 1020
1 1021
1 1022
1 1023
1 1024
1 1025
1 1026
1 1027
1 1028
1 1029
1 1030
1 1031
1 1032
1 1033
1 1034
1 1035
1 1036
1 1037
1 1038
1 1039
1 1040
1 1041
1 1042
1 1043
1 1044
1 1045
1 1046
1 1047
1 1048
1 1049
1 1050
1 1051
1 1052
1 1053
1 1054
1 1055
1 1056
1 1057
1 1058
1 1059
1 1060
1 1061
1 1062
1 1063
1 1064
1 1065
1 1066
1 1067
1 1068
1 1069
1 1070
1 1071
1 1072
1 1073
1 1074
1 1075
1 1076
1 1077
1 1078
1 1079
1 1080
1 1081
1 1082
1 1083
1 1084
1 1085
1 1086
1 1087
1 1088
1 1089
1 1090
1 1091
1 1092
1 1093
1 1094
1 1095
1 1096
1 1097
1 1098
1 1099
1 1100
1 1101
1 1102
1 1103
1 1104
1 1105
1 1106
1 1107
1 1108
1 1109
1 1110
1 1111
1 1112
1 1113
1 1114
1 1115
1 1116
1 1117
1 1118
1 1119
1 1120
1 1121
1 1122
1 1123
1 1124
1 1125
1 1126
1 1127
1 1128
1 1129
1 1130
1 1131
1 1132
1 1133
1 1134
1 1135
1 1136
1 1137
1 1138
1 1139
1 1140
1 1141
1 1142
1 1143
1 1144
1 1145
1 1146
1 1147
1 1148
1 1149
1 1150
1 1151
1 1152
1 1153
1 1154
1 1155
1 1156
1 1157
1 1158
1 1159
1 1160
1 1161
1 1162
1 1163
1 1164
1 1165
1 1166
1 1167
1 1168
1 1169
1 1170
1 1171
1 1172
1 1173
1 1174
1 1175
1 1176
1 1177
1 1178
1 1179
1 1180
1 1181
1 1182
1 1183
1 1184
1 1185
1 1186
1 1187
1 1188
1 1189
1 1190
1 1191
1 1192
1 1193
1 1194
1 1195
1 1196
1 1197
1 1198
1 1199
1 1200
1 1201
1 1202
1 1203
1 1204
1 1205
1 1206
1 1207
1 1208
1 1209
1 1210
1 1211
1 1212
1 1213
1 1214
1 1215
1 1216
1 1217
1 1218
1 1219
1 1220
1 1221
1 1222
1 1223
1 1224
1 1225
1 1226
1 1227
1 1228
1 1229
1 1230
1 1231
1 1232
1 1233
1 1234
1 1235
1 1236
1 1237
1 1238
1 1239
1 1240
1 1241
1 1242
1 1243
1 1244
1 1245
1 1246
1 1247
1 1248
1 1249
1 1250
1 1251
1 1252
1 1253
1 1254
1 1255
1 1256
1 1257
1 1258
1 1259
1 1260
1 1261
1 1262
1 1263
1 1264
1 1265
1 1266
1 1267
1 1268
1 1269
1 1270
1 1271
1 1272
1 1273
1 1274
1 1275
1 1276
1 1277
1 1278
1 1279
1 1280
1 1281
1 1282
1 1283
1 1284
1 1285
1 1286
1 1287
1 1288
1 1289
1 1290
1 1291
1 1292
1 1293
1 1294
1 1295
1 1296
1 1297
1 1298
1 1299
1 1300
1 1301
1 1302
1 1303
1 1304
1 1305
1 1306
1 1307
1 1308
1 1309
1 1310
1 1311
1 1312
1 1313
1 1314
1 1315
1 1316
1 1317
1 1318
1 1319
1 1320
1 1321
1 1322
1 1323
1 1324
1 1325
1 1326
1 1327
1 1328
1 1329
1 1330
1 1331
1 1332
1 1333
1 1334
1 1335
1 1336
1 1337
1 1338
1 1339
1 1340
1 1341
1 1342
1 1343
1 1344
1 1345
1 1346
1 1347
1 1348
1 1349
1 1350
1 1351
1 1352
1 1353
1 1354
1 1355
1 1356
1 1357
1 1358
1 1359
1 1360
1 1361
1 1362
1 1363
1 1364
1 1365
1 1366
1 1367
1 1368
1 1369
1 1370
1 1371
1 1372
1 1373
1 1374
1 1375
1 1376
1 1377
1 1378
1 1379
1 1380
1 1381
1 1382
1 1383
1 1384
1 1385
1 1386
1 1387
1 1388
1 1389
1 1390
1 1391
1 1392
1 1393
1 1394
1 1395
1 1396
1 1397
1 1398
1 1399
1 1400
1 1401
1 1402
1 1403
1 1404
1 1405
1 1406
1 1407
1 1408
1 1409
1 1410
1 1411
1 1412
1 1413
1 1414
1 1415
1 1416
1 1417
1 1418
1 1419
1 1420
1 1421
1 1422
1 1423
1 1424
1 1425
1 1426
1 1427
1 1428
1 1429
1 1430
1 1431
1 1432
1 1433
1 1434
1 1435
1 1436
1 1437
1 1438
1 1439
1 1440
1 1441
1 1442
1 1443
1 1444
1 1445
1 1446
1 1447
1 1448
1 1449
1 1450
1 1451
1 1452
1 1453
1 1454
1 1455
1 1456
1 1457
1 1458
1 1459
1 1460
1 1461
1 1462
1 1463
1 1464
1 1465
1 1466
1 1467
1 1468
1 1469
1 1470
1 1471
1 1472
1 1473
1 1474
1 1475
1 1476
1 1477
1 1478
1 1479
1 1480
1 1481
1 1482
1 1483
1 1484
1 1485
1 1486
1 1487
1 1488
1 1489
1 1490
1 1491
1 1492
1 1493
1 1494
1 1495
1 1496
1 1497
1 1498
1 1499
1 1500
1 1501
1 1502
1 1503
1 1504
1 1505
1 1506
1 1507
1 1508
1 1509
1 1510
1 1511
1 1512
1 1513
1 1514
1 1515
1 1516
1 1517
1 1518
1 1519
1 1520
1 1521
1 1522
1 1523
1 1524
1 1525
1 1526
1 1527
1 1528
1 1529
1 1530
1 1531
1 1532
1 1533
1 1534
1 1535
1 1536
1 1537
1 1538
1 1539
1 1540
1 1541
1 1542
1 1543
1 1544
1 1545
1 1546
1 1547
1 1548
1 1549
1 1550
1 1551
1 1552
1 1553
1 1554
1 1555
1 1556
1 1557
1 1558
1 1559
1 1560
1 1561
1 1562
1 1563
1 1564
1 1565
1 1566
1 1567
1 1568
1 1569
1 1570
1 1571
1 1572
1 1573
1 1574
1 1575
1 1576
1 1577
1 1578
1 1579
1 1580
1 1581
1 1582
1 1583
1 1584
1 1585
1 1586
1 1587
1 1588
1 1589
1 1590
1 1591
1 1592
1 1593
1 1594
1 1595
1 1596
1 1597
1 1598
1 1599
1 1600
1 1601
1 1602
1 1603
1 1604
1 1605
1 1606
1 1607
1 1608
1 1609
1 1610
1 1611
1 1612
1 1613
1 1614
1 1615
1 1616
1 1617
1 1618
1 1619
1 1620
1 1621
1 1622
1 1623
1 1624
1 1625
1 1626
1 1627
1 1628
1 1629
1 1630
1 1631
1 1632
1 1633
1 1634
1 1635
1 1636
1 1637
1 1638
1 1639
1 1640
1 1641
1 1642
1 1643
1 1644
1 1645
1 1646
1 1647
1 1648
1 1649
1 1650
1 1651
1 1652
1 1653
1 1654
1 1655
1 1656
1 1657
1 1658
1 1659
1 1660
1 1661
1 1662
1 1663
1 1664
1 1665
1 1666
1 1667
1 1668
1 1669
1 1670
1 1671
1 1672
1 1673
1 1674
1 1675
1 1676
1 1677
1 1678
1 1679
1 1680
1 1681
1 1682
1 1683
1 1684
1 1685
1 1686
1 1687
1 1688
1 1689
1 1690
1 1691
1 1692
1 1693
1 1694
1 1695
1 1696
1 1697
1 1698
1 1699
1 1700
1 1701
1 1702
1 1703
1 1704
1 1705
1 1706
1 1707
1 1708
1 1709
1 1710
1 1711
1 1712
1 1713
1 1714
1 1715
1 1716
1 1717
1 1718
1 1719
1 1720
1 1721
1 1722
1 1723
1 1724
1 1725
1 1726
1 1727
1 1728
1 1729
1 1730
1 1731
1 1732
1 1733
1 1734
1 1735
1 1736
1 1737
1 1738
1 1739
1 1740
1 1741
1 1742
1 1743
1 1744
1 1745
1 1746
1 1747
1 1748
1 1749
1 1750
1 1751
1 1752
1 1753
1 1754
1 1755
1 1756
1 1757
1 1758
1 1759
1 1760
1 1761
1 1762
1 1763
1 1764
1 1765
1 1766
1 1767
1 1768
1 1769
1 1770
1 1771
1 1772
1 1773
1 1774
1 1775
1 1776
1 1777
1 1778
1 1779
1 1780
1 1781
1 1782
1 1783
1 1784
1 1785
1 1786
1 1787
1 1788
1 1789
1 1790
1 1791
1 1792
1 1793
1 1794
1 1795
1 1796
1 1797
1 1798
1 1799
1 1800
1 1801
1 1802
1 1803
1 1804
1 1805
1 1806
1 1807
1 1808
1 1809
1 1810
1 1811
1 1812
1 1813
1 1814
1 1815
1 1816
1 1817
1 1818
1 1819
1 1820
1 1821
1 1822
1 1823
1 1824
1 1825
1 1826
1 1827
1 1828
1 1829
1 1830
1 1831
1 1832
1 1833
1 1834
1 1835
1 1836
1 1837
1 1838
1 1839
1 1840
1 1841
1 1842
1 1843
1 1844
1 1845
1 1846
1 1847
1 1848
1 1849
1 1850
1 1851
1 1852
1 1853
1 1854
1 1855
1 1856
1 1857
1 1858
1 1859
1 1860
1 1861
1 1862
1 1863
1 1864
1 1865
1 1866
1 1867
1 1868
1 1869
1 1870
1 1871
1 1872
1 1873
1 1874
1 1875
1 1876
1 1877
1 1878
1 1879
1 1880
1 1881
1 1882
1 1883
1 1884
1 1885
1 1886
1 1887
1 1888
1 1889
1 1890
1 1891
1 1892
1 1893
1 1894
1 1895
1 1896
1 1897
1 1898
1 1899
1 1900
1 1901
1 1902
1 1903
1 1904
1 1905
1 1906
1 1907
1 1908
1 1909
1 1910
1 1911
1 1912
1 1913
1 1914
1 1915
1 1916
1 1917
1 1918
1 1919
1 1920
1 1921
1 1922
1 1923
1 1924
1 1925
1 1926
1 1927
1 1928
1 1929
1 1930
1 1931
1 1932
1 1933
1 1934
1 1935
1 1936
1 1937
1 1938
1 1939
1 1940
1 1941
1 1942
1 1943
1 1944
1 1945
1 1946
1 1947
1 1948
1 1949
1 1950
1 1951
1 1952
1 1953
1 1954
1 1955
1 1956
1 1957
1 1958
1 1959
1 1960
1 1961
1 1962
1 1963
1 1964
1 1965
1 1966
1 1967
1 1968
1 1969
1 1970
1 1971
1 1972
1 1973
1 1974
1 1975
1 1976
1 1977
1 1978
1 1979
1 1980
1 1981
1 1982
1 1983
1 1984
1 1985
1 1986
1 1987
1 1988
1 1989
1 1990
1 1991
1 1992
1 1993
1 1994
1 1995
1 1996
1 1997
1 1998
1 1999
1 2000
1 2001
1 2002
1 2003
1 2004
1 2005
1 2006
1 2007
1 2008
1 2009
1 2010
1 2011
1 2012
1 2013
1 2014
1 2015
1 2016
1 2017
1 2018
1 2019
1 2020
1 2021
1 2022
1 2023
1 2024
1 2025
1 2026
1 2027
1 2028
1 2029
1 2030
1 2031
1 2032
1 2033
1 2034
1 2035
1 2036
1 2037
1 2038
1 2039
1 2040
1 2041
1 2042
1 2043
1 2044
1 2045
1 2046
1 2047
1 2048
1 2049
1 2050
1 2051
1 2052
1 2053
1 2054
1 2055
1 2056
1 2057
1 2058
1 2059
1 2060
1 2061
1 2062
1 2063
1 2064
1 2065
1 2066
1 2067
1 2068
1 2069
1 2070
1 2071
1 2072
1 2073
1 2074
1 2075
1 2076
1 2077
1 2078
1 2079
1 2080
1 2081
1 2082
1 2083
1 2084
1 2085
1 2086
1 2087
1 2088
1 2089
1 2090
1 2091
1 2092
1 2093
1 2094
1 2095
1 2096
1 2097
1 2098
1 2099
1 2100
1 2101
1 2102
1 2103
1 2104
1 2105
1 2106
1 2107
1 2108
1 2109
1 2110
1 2111
1 2112
1 2113
1 2114
1 2115
1 2116
1 2117
1 2118
1 2119
1 2120
1 2121
1 2122
1 2123
1 2124
1 2125
1 2126
1 2127
1 2128
1 2129
1 2130
1 2131
1 2132
1 2133
1 2134
1 2135
1 2136
1 2137
1 2138
1 2139
1 2140
1 2141
1 2142
1 2143
1 2144
1 2145
1 2146
1 2147
1 2148
1 2149
1 2150
1 2151
1 2152
1 2153
1 2154
1 2155
1 2156
1 2157
1 2158
1 2159
1 2160
1 2161
1 2162
1 2163
1 2164
1 2165
1 2166
1 2167
1 2168
1 2169
1 2170
1 2171
1 2172
1 2173
1 2174
1 2175
1 2176
1 2177
1 2178
1 2179
1 2180
1 2181
1 2182
1 2183
1 2184
1 2185
1 2186
1 2187
1 2188
1 2189
1 2190
1 2191
1 2192
1 2193
1 2194
1 2195
1 2196
1 2197
1 2198
1 2199
1 2200
1 2201
1 2202
1 2203
1 2204
1 2205
1 2206
1 2207
1 2208
1 2209
1 2210
1 2211
1 2212
1 2213
1 2214
1 2215
1 2216
1 2217
1 2218
1 2219
1 2220
1 2221
1 2222
1 2223
1 2224
1 2225
1 2226
1 2227
1 2228
1 2229
1 2230
1 2231
1 2232
1 2233
1 2234
1 2235
1 2236
1 2237
1 2238
1 2239
1 2240
1 2241
1 2242
1 2243
1 2244
1 2245
1 2246
1 2247
1 2248
1 2249
1 2250
1 2251
1 2252
1 2253
1 2254
1 2255
1 2256
1 2257
1 2258
1 2259
1 2260
1 2261
1 2262
1 2263
1 2264
1 2265
1 2266
1 2267
1 2268
1 2269
1 2270
1 2271
1 2272
1 2273
1 2274
1 2275
1 2276
1 2277
1 2278
1 2279
1 2280
1 2281
1 2282
1 2283
1 2284
1 2285
1 2286
1 2287
1 2288
1 2289
1 2290
1 2291
1 2292
1 2293
1 2294
1 2295
1 2296
1 2297
1 2298
1 2299
1 2300
1 2301
1 2302
1 2303
1 2304
1 2305
1 2306
1 2307
1 2308
1 2309
1 2310
1 2311
1 2312
1 2313
1 2314
1 2315
1 2316
1 2317
1 2318
1 2319
1 2320
1 2321
1 2322
1 2323
1 2324
1 2325
1 2326
1 2327
1 2328
1 2329
1 2330
1 2331
1 2332
1 2333
1 2334
1 2335
1 2336
1 2337
1 2338
1 2339
1 2340
1 2341
1 2342
1 2343
1 2344
1 2345
1 2346
1 2347
1 2348
1 2349
1 2350
1 2351
1 2352
1 2353
1 2354
1 2355
1 2356
1 2357
1 2358
1 2359
1 2360
1 2361
1 2362
1 2363
1 2364
1 2365
1 2366
1 2367
1 2368
1 2369
1 2370
1 2371
1 2372
1 2373
1 2374
1 2375
1 2376
1 2377
1 2378
1 2379
1 2380
1 2381
1 2382
1 2383
1 2384
1 2385
1 2386
1 2387
1 2388
1 2389
1 2390
1 2391
1 2392
1 2393
1 2394
1 2395
1 2396
1 2397
1 2398
1 2399
1 2400
1 2401
1 2402
1 2403
1 2404
1 2405
1 2406
1 2407
1 2408
1 2409
1 2410
1 2411
1 2412
1 2413
1 2414
1 2415
1 2416
1 2417
1 2418
1 2419
1 2420
1 2421
1 2422
1 2423
1 2424
1 2425
1 2426
1 2427
1 2428
1 2429
1 2430
1 2431
1 2432
1 2433
1 2434
1 2435
1 2436
1 2437
1 2438
1 2439
1 2440
1 2441
1 2442
1 2443
1 2444
1 2445
1 2446
1 2447
1 2448
1 2449
1 2450
1 2451
1 2452
1 2453
1 2454
1 2455
1 2456
1 2457
1 2458
1 2459
1 2460
1 2461
1 2462
1 2463
1 2464
1 2465
1 2466
1 2467
1 2468
1 2469
1 2470
1 2471
1 2472
1 2473
1 2474
1 2475
1 2476
1 2477
1 2478
1 2479
1 2480
1 2481
1 2482
1 2483
1 2484
1 2485
1 2486
1 2487
1 2488
1 2489
1 2490
1 2491
1 2492
1 2493
1 2494
1 2495
1 2496
1 2497
1 2498
1 2499
1 2500
1 2501
1 2502
1 2503
1 2504
1 2505
1 2506
1 2507
1 2508
1 2509
1 2510
1 2511
1 2512
1 2513
1 2514
1 2515
1 2516
1 2517
1 2518
1 2519
1 2520
1 2521
1 2522
1 2523
1 2524
1 2525
1 2526
1 2527
1 2528
1 2529
1 2530
1 2531
1 2532
1 2533
1 2534
1 2535
1 2536
1 2537
1 2538
1 2539
1 2540
1 2541
1 2542
1 2543
1 2544
1 2545
1 2546
1 2547
1 2548
1 2549
1 2550
1 2551
1 2552
1 2553
1 2554
1 2555
1 2556
1 2557
1 2558
1 2559
1 2560
1 2561
1 2562
1 2563
1 2564
1 2565
1 2566
1 2567
1 2568
1 2569
1 2570
1 2571
1 2572
1 2573
1 2574
1 2575
1 2576
1 2577
1 2578
1 2579
1 2580
1 2581
1 2582
1 2583
1 2584
1 2585
1 2586
1 2587
1 2588
1 2589
1 2590
1 2591
1 2592
1 2593
1 2594
1 2595
1 2596
1 2597
1 2598
1 2599
1 2600
1 2601
1 2602
1 2603
1 2604
1 2605
1 2606
1 2607
1 2608
1 2609
1 2610
1 2611
1 2612
1 2613
1 2614
1 2615
1 2616
1 2617
1 2618
1 2619
1 2620
1 2621
1 2622
1 2623
1 2624
1 2625
1 2626
1 2627
1 2628
1 2629
1 2630
1 2631
1 2632
1 2633
1 2634
1 2635
1 2636
1 2637
1 2638
1 2639
1 2640
1 2641
1 2642
1 2643
1 2644
1 2645
1 2646
1 2647
1 2648
1 2649
1 2650
1 2651
1 2652
1 2653
1 2654
1 2655
1 2656
1 2657
1 2658
1 2659
1 2660
1 2661
1 2662
1 2663
1 2664
1 2665
1 2666
1 2667
1 2668
1 2669
1 2670
1 2671
1 2672
1 2673
1 2674
1 2675
1 2676
1 2677
1 2678
1 2679
1 2680
1 2681
1 2682
1 2683
1 2684
1 2685
1 2686
1 2687
1 2688
1 2689
1 2690
1 2691
1 2692
1 2693
1 2694
1 2695
1 2696
1 2697
1 2698
1 2699
1 2700
1 2701
1 2702
1 2703
1 2704
1 2705
1 2706
1 2707
1 2708
1 2709
1 2710
1 2711
1 2712
1 2713
1 2714
1 2715
1 2716
1 2717
1 2718
1 2719
1 2720
1 2721
1 2722
1 2723
1 2724
1 2725
1 2726
1 2727
1 2728
1 2729
1 2730
1 2731
1 2732
1 2733
1 2734
1 2735
1 2736
1 2737
1 2738
1 2739
1 2740
1 2741
1 2742
1 2743
1 2744
1 2745
1 2746
1 2747
1 2748
1 2749
1 2750
1 2751
1 2752
1 2753
1 2754
1 2755
1 2756
1 2757
1 2758
1 2759
1 2760
1 2761
1 2762
1 2763
1 2764
1 2765
1 2766
1 2767
1 2768
1 2769
1 2770
1 2771
1 2772
1 2773
1 2774
1 2775
1 2776
1 2777
1 2778
1 2779
1 2780
1 2781
1 2782
1 2783
1 2784
1 2785
1 2786
1 2787
1 2788
1 2789
1 2790
1 2791
1 2792
1 2793
1 2794
1 2795
1 2796
1 2797
1 2798
1 2799
1 2800
1 2801
1 2802
1 2803
1 2804
1 2805
1 2806
1 2807
1 2808
1 2809
1 2810
1 2811
1 2812
1 2813
1 2814
1 2815
1 2816
1 2817
1 2818
1 2819
1 2820
1 2821
1 2822
1 2823
1 2824
1 2825
1 2826
1 2827
1 2828
1 2829
1 2830
1 2831
1 2832
1 2833
1 2834
1 2835
1 2836
1 2837
1 2838
1 2839
1 2840
1 2841
1 2842
1 2843
1 2844
1 2845
1 2846
1 2847
1 2848
1 2849
1 2850
1 2851
1 2852
1 2853
1 2854
1 2855
1 2856
1 2857
1 2858
1 2859
1 2860
1 2861
1 2862
1 2863
1 2864
1 2865
1 2866
1 2867
1 2868
1 2869
1 2870
1 2871
1 2872
1 2873
1 2874
1 2875
1 2876
1 2877
1 2878
1 2879
1 2880
1 2881
1 2882
1 2883
1 2884
1 2885
1 2886
1 2887
1 2888
1 2889
1 2890
1 2891
1 2892
1 2893
1 2894
1 2895
1 2896
1 2897
1 2898
1 2899
1 2900
1 2901
1 2902
1 2903
1 2904
1 2905
1 2906
1 2907
1 2908
1 2909
1 2910
1 2911
1 2912
1 2913
1 2914
1 2915
1 2916
1 2917
1 2918
1 2919
1 2920
1 2921
1 2922
1 2923
1 2924
1 2925
1 2926
1 2927
1 2928
1 2929
1 2930
1 2931
1 2932
1 2933
1 2934
1 2935
1 2936
1 2937
1 2938
1 2939
1 2940
1 2941
1 2942
1 2943
1 2944
1 2945
1 2946
1 2947
1 2948
1 2949
1 2950
1 2951
1 2952
1 2953
1 2954
1 2955
1 2956
1 2957
1 2958
1 2959
1 2960
1 2961
1 2962
1 2963
1 2964
1 2965
1 2966
1 2967
1 2968
1 2969
1 2970
1 2971
1 2972
1 2973
1 2974
POINT_DATA 2975
SCALARS Idp unsigned_int
LOOKUP_TABLE default
0 1 39 40 41 80 81 82 121 122 123 162 163 164 203 204 205 244 245 246 285 286 287 326 327 328 367 368 369 408 409 410 449 450 451 461 462 463 471 472 473 481 482 483 491 492 493 501 502 503 511 512 513 521 522 523 531 532 533 541 542 543 551 552 2 3 4 5 6 7 8 9 42 43 44 45 46 47 48 49 83 84 85 86 87 88 89 90 124 125 126 127 128 129 130 131 165 166 167 168 169 170 171 172 206 207 208 209 210 211 212 213 247 248 249 250 251 252 253 254 288 289 290 291 292 293 294 295 329 330 331 332 333 334 335 336 370 371 372 373 374 375 376 377 411 412 413 414 415 416 417 418 452 453 454 464 465 474 475 484 485 494 495 504 505 514 515 524 525 534 535 544 545 553 554 10 11 12 13 14 15 16 17 18 50 51 52 53 54 55 56 57 58 91 92 93 94 95 96 97 98 99 132 133 134 135 136 137 138 139 140 173 174 175 176 177 178 179 180 181 214 215 216 217 218 219 220 221 222 255 256 257 258 259 260 261 262 263 296 297 298 299 300 301 302 303 304 337 338 339 340 341 342 343 344 345 378 379 380 381 382 383 384 385 386 419 420 421 422 423 424 425 426 427 19 20 21 22 23 24 25 26 59 60 61 62 63 64 65 66 100 101 102 103 104 105 106 107 141 142 143 144 145 146 147 148 182 183 184 185 186 187 188 189 223 224 225 226 227 228 229 230 264 265 266 267 268 269 270 271 305 306 307 308 309 310 311 312 346 347 348 349 350 351 352 353 387 388 389 390 391 392 393 394 428 429 430 431 432 433 434 435 27 28 29 30 31 32 33 34 35 67 68 69 70 71 72 73 74 75 108 109 110 111 112 113 114 115 116 149 150 151 152 153 154 155 156 157 190 191 192 193 194 195 196 197 198 231 232 233 234 235 236 237 238 239 272 273 274 275 276 277 278 279 280 313 314 315 316 317 318 319 320 321 354 355 356 357 358 359 360 361 362 395 396 397 398 399 400 401 402 403 436 437 438 439 440 441 442 443 444 455 456 466 476 486 496 506 516 526 536 546 555 36 37 38 76 77 78 79 117 118 119 120 158 159 160 161 199 200 201 202 240 241 242 243 281 282 283 284 322 323 324 325 363 364 365 366 404 405 406 407 445 446 447 448 457 458 459 460 467 468 469 470 477 478 479 480 487 488 489 490 497 498 499 500 507 508 509 510 517 518 519 520 527 528 529 530 537 538 539 540 547 548 549 550 556 557 558 559 560 561 562 563 564 565 566 567 568 569 570 571 572 573 574 575 576 577 578 579 580 581 582 583 584 585 586 587 588 589 590 591 592 593 594 595 596 597 598 599 600 601 602 603 604 605 606 607 608 609 610 611 612 613 614 615 616 617 618 619 620 621 622 623 624 625 626 627 628 629 630 631 632 633 634 635 636 637 638 639 640 641 642 643 644 645 646 647 648 649 650 651 652 653 654 655 656 657 658 659 660 661 662 663 664 665 666 667 668 669 670 671 672 673 674 675 676 677 678 679 680 681 682 683 684 685 686 687 688 689 690 691 692 693 694 695 696 697 698 699 700 701 702 703 704 705 706 707 708 709 710 711 712 713 714 715 716 717 718 719 720 721 722 723 724 725 726 727 728 729 730 731 732 733 734 735 736 737 738 739 740 741 742 743 744 745 746 747 748 749 750 751 752 753 754 755 756 757 758 759 760 761 762 763 764 765 766 767 768 769 770 771 772 773 774 775 776 777 778 779 780 781 782 783 784 785 786 787 788 789 790 791 792 793 794 795 796 797 798 799 800 801 802 803 804 805 806 807 808 809 810 811 812 813 814 815 816 817 818 819 820 821 822 823 824 825 826 827 828 829 830 831 832 833 834 835 836 837 838 839 840 841 842 843 844 845 846 847 848 849 850 851 852 853 854 855 856 857 858 859 860 861 862 863 864 865 866 867 868 869 870 871 872 873 874 875 876 877 878 879 880 881 882 883 884 885 886 887 888 889 890 891 892 893 894 895 896 897 898 899 900 901 902 903 904 905 906 907 908 909 910 911 912 913 914 915 916 917 918 919 920 921 922 923 924 925 926 927 928 929 930 931 932 933 934 935 936 937 938 939 940 941 942 943 944 945 946 947 948 949 950 951 952 953 954 955 956 957 958 959 960 961 962 963 964 965 966 967 968 969 970 971 972 973 974 975 976 977 978 979 980 981 982 983 984 985 986 987 988 989 990 991 992 993 994 995 996 997 998 999 1000 1001 1002 1003 1004 1005 1006 1007 1008 1009 1010 1011 1012 1013 1014 1015 1016 1017 1018 1019 1020 1021 1022 1023 1024 1025 1026 1027 1028 1029 1030 1031 1032 1033 1034 1035 1060 1061 1062 1063 1064 1065 1091 1092 1093 1094 1095 1096 1122 1123 1124 1125 1126 1127 1153 1154 1155 1156 1157 1158 1184 1185 1186 1187 1188 1189 1215 1216 1217 1218 1219 1220 1246 1247 1248 1249 1250 1251 1277 1278 1279 1280 1281 1282 1308 1309 1310 1311 1312 1313 1339 1340 1341 1342 1343 1344 1370 1371 1372 1373 1374 1375 1401 1402 1403 1404 1405 1406 1432 1433 1434 1435 1436 1437 1463 1464 1465 1466 1467 1468 1494 1495 1496 1497 1498 1499 1525 1526 1527 1528 1529 1530 1556 1557 1558 1559 1560 1561 1587 1588 1589 1590 1591 1592 1618 1619 1620 1621 1622 1623 1649 1650 1651 1652 1653 1654 1680 1681 1682 1683 1684 1685 1711 1712 1713 1714 1715 1716 1742 1743 1744 1745 1746 1747 1773 1774 1775 1776 1777 1778 1804 1805 1806 1807 1808 1809 1835 1836 1837 1838 1839 1840 1866 1867 1868 1869 1870 1871 1897 1898 1899 1900 1901 1902 1928 1929 1930 1931 1932 1933 1959 1960 1961 1962 1963 1964 1990 1991 1992 1993 1994 1995 2021 2022 2023 2024 2025 2026 2052 2053 2054 2055 2056 2057 2083 2084 2085 2086 2087 2088 2114 2115 2116 2117 2118 2119 2145 2146 2147 2148 2149 2150 2176 2177 2178 2179 2180 2181 2207 2208 2209 2210 2211 2212 2238 2239 2240 2241 2242 2243 2269 2270 2271 2272 2273 2274 2300 2301 2302 2303 2304 2305 2331 2332 2333 2334 2335 2336 2362 2363 2364 2365 2366 2367 2393 2394 2395 2396 2397 2398 2424 2425 2426 2427 2428 2429 2455 2456 2457 2458 2459 2460 2486 2487 2488 2489 2490 2491 2517 2518 2519 2520 2521 2522 2548 2549 2550 2551 2552 2553 2579 2580 2581 2582 2583 2584 2610 2611 2612 2613 2614 2615 2641 2642 2643 2644 2645 2646 2672 2673 2674 2675 2676 2677 2703 2704 2705 2706 2707 2708 2734 2735 2736 2737 2738 2763 2764 2765 2766 2767 2792 2793 2794 2795 2819 2820 2821 2822 2846 2847 2848 2871 2872 2894 2895 1036 1037 1038 1039 1040 1041 1042 1043 1044 1066 1067 1068 1069 1070 1071 1072 1073 1074 1097 1098 1099 1100 1101 1102 1103 1104 1105 1128 1129 1130 1131 1132 1133 1134 1135 1136 1159 1160 1161 1162 1163 1164 1165 1166 1167 1190 1191 1192 1193 1194 1195 1196 1197 1198 1221 1222 1223 1224 1225 1226 1227 1228 1229 1252 1253 1254 1255 1256 1257 1258 1259 1260 1283 1284 1285 1286 1287 1288 1289 1290 1291 1314 1315 1316 1317 1318 1319 1320 1321 1322 1345 1346 1347 1348 1349 1350 1351 1352 1353 1376 1377 1378 1379 1380 1381 1382 1383 1384 1407 1408 1409 1410 1411 1412 1413 1414 1415 1438 1439 1440 1441 1442 1443 1444 1445 1446 1469 1470 1471 1472 1473 1474 1475 1476 1477 1500 1501 1502 1503 1504 1505 1506 1507 1508 1531 1532 1533 1534 1535 1536 1537 1538 1539 1562 1563 1564 1565 1566 1567 1568 1569 1570 1593 1594 1595 1596 1597 1598 1599 1600 1601 1624 1625 1626 1627 1628 1629 1630 1631 1632 1655 1656 1657 1658 1659 1660 1661 1662 1663 1686 1687 1688 1689 1690 1691 1692 1693 1694 1717 1718 1719 1720 1721 1722 1723 1724 1725 1748 1749 1750 1751 1752 1753 1754 1755 1756 1779 1780 1781 1782 1783 1784 1785 1786 1787 1810 1811 1812 1813 1814 1815 1816 1817 1818 1841 1842 1843 1844 1845 1846 1847 1848 1849 1872 1873 1874 1875 1876 1877 1878 1879 1880 1903 1904 1905 1906 1907 1908 1909 1910 1911 1934 1935 1936 1937 1938 1939 1940 1941 1942 1965 1966 1967 1968 1969 1970 1971 1972 1973 1996 1997 1998 1999 2000 2001 2002 2003 2004 2027 2028 2029 2030 2031 2032 2033 2034 2035 2058 2059 2060 2061 2062 2063 2064 2065 2066 2089 2090 2091 2092 2093 2094 2095 2096 2097 2120 2121 2122 2123 2124 2125 2126 2127 2128 2151 2152 2153 2154 2155 2156 2157 2158 2159 2182 2183 2184 2185 2186 2187 2188 2189 2190 2213 2214 2215 2216 2217 2218 2219 2220 2221 2244 2245 2246 2247 2248 2249 2250 2251 2252 2275 2276 2277 2278 2279 2280 2281 2282 2283 2306 2307 2308 2309 2310 2311 2312 2313 2314 2337 2338 2339 2340 2341 2342 2343 2344 2345 2368 2369 2370 2371 2372 2373 2374 2375 2376 2399 2400 2401 2402 2403 2404 2405 2406 2407 2430 2431 2432 2433 2434 2435 2436 2437 2438 2461 2462 2463 2464 2465 2466 2467 2468 2469 2492 2493 2494 2495 2496 2497 2498 2499 2500 2523 2524 2525 2526 2527 2528 2529 2530 2531 2554 2555 2556 2557 2558 2559 2560 2561 2562 2585 2586 2587 2588 2589 2590 2591 2592 2593 2616 2617 2618 2619 2620 2621 2622 2623 2624 2647 2648 2649 2650 2651 2652 2653 2654 2655 2678 2679 2680 2681 2682 2683 2684 2685 2686 2709 2710 2711 2712 2713 2714 2715 2716 2717 2739 2740 2741 2742 2743 2744 2745 2746 2747 2768 2769 2770 2771 2772 2773 2774 2775 2776 2796 2797 2798 2799 2800 2801 2802 2803 2804 2823 2824 2825 2826 2827 2828 2829 2830 2831 2849 2850 2851 2852 2853 2854 2855 2856 2857 2873 2874 2875 2876 2877 2878 2879 2880 2881 2896 2897 2898 2899 2900 2901 2902 2903 2904 2917 2918 2919 2920 2921 2922 2923 2924 2925 2936 2937 2938 2939 2940 2941 2942 2943 2953 2954 2955 2956 2957 2958 2966 2967 2968 2969 1045 1046 1047 1048 1049 1050 1051 1052 1075 1076 1077 1078 1079 1080 1081 1082 1106 1107 1108 1109 1110 1111 1112 1113 1137 1138 1139 1140 1141 1142 1143 1144 1168 1169 1170 1171 1172 1173 1174 1175 1199 1200 1201 1202 1203 1204 1205 1206 1230 1231 1232 1233 1234 1235 1236 1237 1261 1262 1263 1264 1265 1266 1267 1268 1292 1293 1294 1295 1296 1297 1298 1299 1323 1324 1325 1326 1327 1328 1329 1330 1354 1355 1356 1357 1358 1359 1360 1361 1385 1386 1387 1388 1389 1390 1391 1392 1416 1417 1418 1419 1420 1421 1422 1423 1447 1448 1449 1450 1451 1452 1453 1454 1478 1479 1480 1481 1482 1483 1484 1485 1509 1510 1511 1512 1513 1514 1515 1516 1540 1541 1542 1543 1544 1545 1546 1547 1571 1572 1573 1574 1575 1576 1577 1578 1602 1603 1604 1605 1606 1607 1608 1609 1633 1634 1635 1636 1637 1638 1639 1640 1664 1665 1666 1667 1668 1669 1670 1671 1695 1696 1697 1698 1699 1700 1701 1702 1726 1727 1728 1729 1730 1731 1732 1733 1757 1758 1759 1760 1761 1762 1763 1764 1788 1789 1790 1791 1792 1793 1794 1795 1819 1820 1821 1822 1823 1824 1825 1826 1850 1851 1852 1853 1854 1855 1856 1857 1881 1882 1883 1884 1885 1886 1887 1888 1912 1913 1914 1915 1916 1917 1918 1919 1943 1944 1945 1946 1947 1948 1949 1950 1974 1975 1976 1977 1978 1979 1980 1981 2005 2006 2007 2008 2009 2010 2011 2012 2036 2037 2038 2039 2040 2041 2042 2043 2067 2068 2069 2070 2071 2072 2073 2074 2098 2099 2100 2101 2102 2103 2104 2105 2129 2130 2131 2132 2133 2134 2135 2136 2160 2161 2162 2163 2164 2165 2166 2167 2191 2192 2193 2194 2195 2196 2197 2198 2222 2223 2224 2225 2226 2227 2228 2229 2253 2254 2255 2256 2257 2258 2259 2260 2284 2285 2286 2287 2288 2289 2290 2291 2315 2316 2317 2318 2319 2320 2321 2322 2346 2347 2348 2349 2350 2351 2352 2353 2377 2378 2379 2380 2381 2382 2383 2384 2408 2409 2410 2411 2412 2413 2414 2415 2439 2440 2441 2442 2443 2444 2445 2446 2470 2471 2472 2473 2474 2475 2476 2477 2501 2502 2503 2504 2505 2506 2507 2508 2532 2533 2534 2535 2536 2537 2538 2539 2563 2564 2565 2566 2567 2568 2569 2570 2594 2595 2596 2597 2598 2599 2600 2601 2625 2626 2627 2628 2629 2630 2631 2632 2656 2657 2658 2659 2660 2661 2662 2663 2687 2688 2689 2690 2691 2692 2693 2694 2718 2719 2720 2721 2722 2723 2724 2725 2748 2749 2750 2751 2752 2753 2754 2755 2777 2778 2779 2780 2781 2782 2783 2784 2805 2806 2807 2808 2809 2810 2811 2812 2832 2833 2834 2835 2836 2837 2838 2839 2858 2859 2860 2861 2862 2863 2864 2865 2882 2883 2884 2885 2886 2887 2888 2889 2905 2906 2907 2908 2909 2910 2911 2912 2926 2927 2928 2929 2930 2931 2932 2933 2944 2945 2946 2947 2948 2949 2950 2951 2959 2960 2961 2962 2963 2964 2965 2970 2971 2972 2973 2974 1053 1054 1055 1056 1057 1058 1059 1083 1084 1085 1086 1087 1088 1089 1090 1114 1115 1116 1117 1118 1119 1120 1121 1145 1146 1147 1148 1149 1150 1151 1152 1176 1177 1178 1179 1180 1181 1182 1183 1207 1208 1209 1210 1211 1212 1213 1214 1238 1239 1240 1241 1242 1243 1244 1245 1269 1270 1271 1272 1273 1274 1275 1276 1300 1301 1302 1303 1304 1305 1306 1307 1331 1332 1333 1334 1335 1336 1337 1338 1362 1363 1364 1365 1366 1367 1368 1369 1393 1394 1395 1396 1397 1398 1399 1400 1424 1425 1426 1427 1428 1429 1430 1431 1455 1456 1457 1458 1459 1460 1461 1462 1486 1487 1488 1489 1490 1491 1492 1493 1517 1518 1519 1520 1521 1522 1523 1524 1548 1549 1550 1551 1552 1553 1554 1555 1579 1580 1581 1582 1583 1584 1585 1586 1610 1611 1612 1613 1614 1615 1616 1617 1641 1642 1643 1644 1645 1646 1647 1648 1672 1673 1674 1675 1676 1677 1678 1679 1703 1704 1705 1706 1707 1708 1709 1710 1734 1735 1736 1737 1738 1739 1740 1741 1765 1766 1767 1768 1769 1770 1771 1772 1796 1797 1798 1799 1800 1801 1802 1803 1827 1828 1829 1830 1831 1832 1833 1834 1858 1859 1860 1861 1862 1863 1864 1865 1889 1890 1891 1892 1893 1894 1895 1896 1920 1921 1922 1923 1924 1925 1926 1927 1951 1952 1953 1954 1955 1956 1957 1958 1982 1983 1984 1985 1986 1987 1988 1989 2013 2014 2015 2016 2017 2018 2019 2020 2044 2045 2046 2047 2048 2049 2050 2051 2075 2076 2077 2078 2079 2080 2081 2082 2106 2107 2108 2109 2110 2111 2112 2113 2137 2138 2139 2140 2141 2142 2143 2144 2168 2169 2170 2171 2172 2173 2174 2175 2199 2200 2201 2202 2203 2204 2205 2206 2230 2231 2232 2233 2234 2235 2236 2237 2261 2262 2263 2264 2265 2266 2267 2268 2292 2293 2294 2295 2296 2297 2298 2299 2323 2324 2325 2326 2327 2328 2329 2330 2354 2355 2356 2357 2358 2359 2360 2361 2385 2386 2387 2388 2389 2390 2391 2392 2416 2417 2418 2419 2420 2421 2422 2423 2447 2448 2449 2450 2451 2452 2453 2454 2478 2479 2480 2481 2482 2483 2484 2485 2509 2510 2511 2512 2513 2514 2515 2516 2540 2541 2542 2543 2544 2545 2546 2547 2571 2572 2573 2574 2575 2576 2577 2578 2602 2603 2604 2605 2606 2607 2608 2609 2633 2634 2635 2636 2637 2638 2639 2640 2664 2665 2666 2667 2668 2669 2670 2671 2695 2696 2697 2698 2699 2700 2701 2702 2726 2727 2728 2729 2730 2731 2732 2733 2756 2757 2758 2759 2760 2761 2762 2785 2786 2787 2788 2789 2790 2791 2813 2814 2815 2816 2817 2818 2840 2841 2842 2843 2844 2845 2866 2867 2868 2869 2870 2890 2891 2892 2893 2913 2914 2915 2916 2934 2935 2952 
FIELD FieldData 12
Idp 1 2975 float
0 1 39 40 41 80 81 82 121 122 123 162 163 164 203 204 205 244 245 246 285 286 287 326 327 328 367 368 369 408 409 410 449 450 451 461 462 463 471 472 473 481 482 483 491 492 493 501 502 503 511 512 513 521 522 523 531 532 533 541 542 543 551 552 2 3 4 5 6 7 8 9 42 43 44 45 46 47 48 49 83 84 85 86 87 88 89 90 124 125 126 127 128 129 130 131 165 166 167 168 169 170 171 172 206 207 208 209 210 211 212 213 247 248 249 250 251 252 253 254 288 289 290 291 292 293 294 295 329 330 331 332 333 334 335 336 370 371 372 373 374 375 376 377 411 412 413 414 415 416 417 418 452 453 454 464 465 474 475 484 485 494 495 504 505 514 515 524 525 534 535 544 545 553 554 10 11 12 13 14 15 16 17 18 50 51 52 53 54 55 56 57 58 91 92 93 94 95 96 97 98 99 132 133 134 135 136 137 138 139 140 173 174 175 176 177 178 179 180 181 214 215 216 217 218 219 220 221 222 255 256 257 258 259 260 261 262 263 296 297 298 299 300 301 302 303 304 337 338 339 340 341 342 343 344 345 378 379 380 381 382 383 384 385 386 419 420 421 422 423 424 425 426 427 19 20 21 22 23 24 25 26 59 60 61 62 63 64 65 66 100 101 102 103 104 105 106 107 141 142 143 144 145 146 147 148 182 183 184 185 186 187 188 189 223 224 225 226 227 228 229 230 264 265 266 267 268 269 270 271 305 306 307 308 309 310 311 312 346 347 348 349 350 351 352 353 387 388 389 390 391 392 393 394 428 429 430 431 432 433 434 435 27 28 29 30 31 32 33 34 35 67 68 69 70 71 72 73 74 75 108 109 110 111 112 113 114 115 116 149 150 151 152 153 154 155 156 157 190 191 192 193 194 195 196 197 198 231 232 233 234 235 236 237 238 239 272 273 274 275 276 277 278 279 280 313 314 315 316 317 318 319 320 321 354 355 356 357 358 359 360 361 362 395 396 397 398 399 400 401 402 403 436 437 438 439 440 441 442 443 444 455 456 466 476 486 496 506 516 526 536 546 555 36 37 38 76 77 78 79 117 118 119 120 158 159 160 161 199 200 201 202 240 241 242 243 281 282 283 284 322 323 324 325 363 364 365 366 404 405 406 407 445 446 447 448 457 458 459 460 467 468 469 470 477 478 479 480 487 488 489 490 497 498 499 500 507 508 509 510 517 518 519 520 527 528 529 530 537 538 539 540 547 548 549 550 556 557 558 559 560 561 562 563 564 565 566 567 568 569 570 571 572 573 574 575 576 577 578 579 580 581 582 583 584 585 586 587 588 589 590 591 592 593 594 595 596 597 598 599 600 601 602 603 604 605 606 607 608 609 610 611 612 613 614 615 616 617 618 619 620 621 622 623 624 625 626 627 628 629 630 631 632 633 634 635 636 637 638 639 640 641 642 643 644 645 646 647 648 649 650 651 652 653 654 655 656 657 658 659 660 661 662 663 664 665 666 667 668 669 670 671 672 673 674 675 676 677 678 679 680 681 682 683 684 685 686 687 688 689 690 691 692 693 694 695 696 697 698 699 700 701 702 703 704 705 706 707 708 709 710 711 712 713 714 715 716 717 718 719 720 721 722 723 724 725 726 727 728 729 730 731 732 733 734 735 736 737 738 739 740 741 742 743 744 745 746 747 748 749 750 751 752 753 754 755 756 757 758 759 760 761 762 763 764 765 766 767 768 769 770 771 772 773 774 775 776 777 778 779 780 781 782 783 784 785 786 787 788 789 790 791 792 793 794 795 796 797 798 799 800 801 802 803 804 805 806 807 808 809 810 811 812 813 814 815 816 817 818 819 820 821 822 823 824 825 826 827 828 829 830 831 832 833 834 835 836 837 838 839 840 841 842 843 844 845 846 847 848 849 850 851 852 853 854 855 856 857 858 859 860 861 862 863 864 865 866 867 868 869 870 871 872 873 874 875 876 877 878 879 880 881 882 883 884 885 886 887 888 889 890 891 892 893 894 895 896 897 898 899 900 901 902 903 904 905 906 907 908 909 910 911 912 913 914 915 916 917 918 919 920 921 922 923 924 925 926 927 928 929 930 931 932 933 934 935 936 937 938 939 940 941 942 943 944 945 946 947 948 949 950 951 952 953 954 955 956 957 958 959 960 961 962 963 964 965 966 967 968 969 970 971 972 973 974 975 976 977 978 979 980 981 982 983 984 985 986 987 988 989 990 991 992 993 994 995 996 997 998 999 1000 1001 1002 1003 1004 1005 1006 1007 1008 1009 1010 1011 1012 1013 1014 1015 1016 1017 1018 1019 1020 1021 1022 1023 1024 1025 1026 1027 1028 1029 1030 1031 1032 1033 1034 1035 1060 1061 1062 1063 1064 1065 1091 1092 1093 1094 1095 1096 1122 1123 1124 1125 1126 1127 1153 1154 1155 1156 1157 1158 1184 1185 1186 1187 1188 1189 1215 1216 1217 1218 1219 1220 1246 1247 1248 1249 1250 1251 1277 1278 1279 1280 1281 1282 1308 1309 1310 1311 1312 1313 1339 1340 1341 1342 1343 1344 1370 1371 1372 1373 1374 1375 1401 1402 1403 1404 1405 1406 1432 1433 1434 1435 1436 1437 1463 1464 1465 1466 1467 1468 1494 1495 1496 1497 1498 1499 1525 1526 1527 1528 1529 1530 1556 1557 1558 1559 1560 1561 1587 1588 1589 1590 1591 1592 1618 1619 1620 1621 1622 1623 1649 1650 1651 1652 1653 1654 1680 1681 1682 1683 1684 1685 1711 1712 1713 1714 1715 1716 1742 1743 1744 1745 1746 1747 1773 1774 1775 1776 1777 1778 1804 1805 1806 1807 1808 1809 1835 1836 1837 1838 1839 1840 1866 1867 1868 1869 1870 1871 1897 1898 1899 1900 1901 1902 1928 1929 1930 1931 1932 1933 1959 1960 1961 1962 1963 1964 1990 1991 1992 1993 1994 1995 2021 2022 2023 2024 2025 2026 2052 2053 2054 2055 2056 2057 2083 2084 2085 2086 2087 2088 2114 2115 2116 2117 2118 2119 2145 2146 2147 2148 2149 2150 2176 2177 2178 2179 2180 2181 2207 2208 2209 2210 2211 2212 2238 2239 2240 2241 2242 2243 2269 2270 2271 2272 2273 2274 2300 2301 2302 2303 2304 2305 2331 2332 2333 2334 2335 2336 2362 2363 2364 2365 2366 2367 2393 2394 2395 2396 2397 2398 2424 2425 2426 2427 2428 2429 2455 2456 2457 2458 2459 2460 2486 2487 2488 2489 2490 2491 2517 2518 2519 2520 2521 2522 2548 2549 2550 2551 2552 2553 2579 2580 2581 2582 2583 2584 2610 2611 2612 2613 2614 2615 2641 2642 2643 2644 2645 2646 2672 2673 2674 2675 2676 2677 2703 2704 2705 2706 2707 2708 2734 2735 2736 2737 2738 2763 2764 2765 2766 2767 2792 2793 2794 2795 2819 2820 2821 2822 2846 2847 2848 2871 2872 2894 2895 1036 1037 1038 1039 1040 1041 1042 1043 1044 1066 1067 1068 1069 1070 1071 1072 1073 1074 1097 1098 1099 1100 1101 1102 1103 1104 1105 1128 1129 1130 1131 1132 1133 1134 1135 1136 1159 1160 1161 1162 1163 1164 1165 1166 1167 1190 1191 1192 1193 1194 1195 1196 1197 1198 1221 1222 1223 1224 1225 1226 1227 1228 1229 1252 1253 1254 1255 1256 1257 1258 1259 1260 1283 1284 1285 1286 1287 1288 1289 1290 1291 1314 1315 1316 1317 1318 1319 1320 1321 1322 1345 1346 1347 1348 1349 1350 1351 1352 1353 1376 1377 1378 1379 1380 1381 1382 1383 1384 1407 1408 1409 1410 1411 1412 1413 1414 1415 1438 1439 1440 1441 1442 1443 1444 1445 1446 1469 1470 1471 1472 1473 1474 1475 1476 1477 1500 1501 1502 1503 1504 1505 1506 1507 1508 1531 1532 1533 1534 1535 1536 1537 1538 1539 1562 1563 1564 1565 1566 1567 1568 1569 1570 1593 1594 1595 1596 1597 1598 1599 1600 1601 1624 1625 1626 1627 1628 1629 1630 1631 1632 1655 1656 1657 1658 1659 1660 1661 1662 1663 1686 1687 1688 1689 1690 1691 1692 1693 1694 1717 1718 1719 1720 1721 1722 1723 1724 1725 1748 1749 1750 1751 1752 1753 1754 1755 1756 1779 1780 1781 1782 1783 1784 1785 1786 1787 1810 1811 1812 1813 1814 1815 1816 1817 1818 1841 1842 1843 1844 1845 1846 1847 1848 1849 1872 1873 1874 1875 1876 1877 1878 1879 1880 1903 1904 1905 1906 1907 1908 1909 1910 1911 1934 1935 1936 1937 1938 1939 1940 1941 1942 1965 1966 1967 1968 1969 1970 1971 1972 1973 1996 1997 1998 1999 2000 2001 2002 2003 2004 2027 2028 2029 2030 2031 2032 2033 2034 2035 2058 2059 2060 2061 2062 2063 2064 2065 2066 2089 2090 2091 2092 2093 2094 2095 2096 2097 2120 2121 2122 2123 2124 2125 2126 2127 2128 2151 2152 2153 2154 2155 2156 2157 2158 2159 2182 2183 2184 2185 2186 2187 2188 2189 2190 2213 2214 2215 2216 2217 2218 2219 2220 2221 2244 2245 2246 2247 2248 2249 2250 2251 2252 2275 2276 2277 2278 2279 2280 2281 2282 2283 2306 2307 2308 2309 2310 2311 2312 2313 2314 2337 2338 2339 2340 2341 2342 2343 2344 2345 2368 2369 2370 2371 2372 2373 2374 2375 2376 2399 2400 2401 2402 2403 2404 2405 2406 2407 2430 2431 2432 2433 2434 2435 2436 2437 2438 2461 2462 2463 2464 2465 2466 2467 2468 2469 2492 2493 2494 2495 2496 2497 2498 2499 2500 2523 2524 2525 2526 2527 2528 2529 2530 2531 2554 2555 2556 2557 2558 2559 2560 2561 2562 2585 2586 2587 2588 2589 2590 2591 2592 2593 2616 2617 2618 2619 2620 2621 2622 2623 2624 2647 2648 2649 2650 2651 2652 2653 2654 2655 2678 2679 2680 2681 2682 2683 2684 2685 2686 2709 2710 2711 2712 2713 2714 2715 2716 2717 2739 2740 2741 2742 2743 2744 2745 2746 2747 2768 2769 2770 2771 2772 2773 2774 2775 2776 2796 2797 2798 2799 2800 2801 2802 2803 2804 2823 2824 2825 2826 2827 2828 2829 2830 2831 2849 2850 2851 2852 2853 2854 2855 2856 2857 2873 2874 2875 2876 2877 2878 2879 2880 2881 2896 2897 2898 2899 2900 2901 2902 2903 2904 2917 2918 2919 2920 2921 2922 2923 2924 2925 2936 2937 2938 2939 2940 2941 2942 2943 2953 2954 2955 2956 2957 2958 2966 2967 2968 2969 1045 1046 1047 1048 1049 1050 1051 1052 1075 1076 1077 1078 1079 1080 1081 1082 1106 1107 1108 1109 1110 1111 1112 1113 1137 1138 1139 1140 1141 1142 1143 1144 1168 1169 1170 1171 1172 1173 1174 1175 1199 1200 1201 1202 1203 1204 1205 1206 1230 1231 1232 1233 1234 1235 1236 1237 1261 1262 1263 1264 1265 1266 1267 1268 1292 1293 1294 1295 1296 1297 1298 1299 1323 1324 1325 1326 1327 1328 1329 1330 1354 1355 1356 1357 1358 1359 1360 1361 1385 1386 1387 1388 1389 1390 1391 1392 1416 1417 1418 1419 1420 1421 1422 1423 1447 1448 1449 1450 1451 1452 1453 1454 1478 1479 1480 1481 1482 1483 1484 1485 1509 1510 1511 1512 1513 1514 1515 1516 1540 1541 1542 1543 1544 1545 1546 1547 1571 1572 1573 1574 1575 1576 1577 1578 1602 1603 1604 1605 1606 1607 1608 1609 1633 1634 1635 1636 1637 1638 1639 1640 1664 1665 1666 1667 1668 1669 1670 1671 1695 1696 1697 1698 1699 1700 1701 1702 1726 1727 1728 1729 1730 1731 1732 1733 1757 1758 1759 1760 1761 1762 1763 1764 1788 1789 1790 1791 1792 1793 1794 1795 1819 1820 1821 1822 1823 1824 1825 1826 1850 1851 1852 1853 1854 1855 1856 1857 1881 1882 1883 1884 1885 1886 1887 1888 1912 1913 1914 1915 1916 1917 1918 1919 1943 1944 1945 1946 1947 1948 1949 1950 1974 1975 1976 1977 1978 1979 1980 1981 2005 2006 2007 2008 2009 2010 2011 2012 2036 2037 2038 2039 2040 2041 2042 2043 2067 2068 2069 2070 2071 2072 2073 2074 2098 2099 2100 2101 2102 2103 2104 2105 2129 2130 2131 2132 2133 2134 2135 2136 2160 2161 2162 2163 2164 2165 2166 2167 2191 2192 2193 2194 2195 2196 2197 2198 2222 2223 2224 2225 2226 2227 2228 2229 2253 2254 2255 2256 2257 2258 2259 2260 2284 2285 2286 2287 2288 2289 2290 2291 2315 2316 2317 2318 2319 2320 2321 2322 2346 2347 2348 2349 2350 2351 2352 2353 2377 2378 2379 2380 2381 2382 2383 2384 2408 2409 2410 2411 2412 2413 2414 2415 2439 2440 2441 2442 2443 2444 2445 2446 2470 2471 2472 2473 2474 2475 2476 2477 2501 2502 2503 2504 2505 2506 2507 2508 2532 2533 2534 2535 2536 2537 2538 2539 2563 2564 2565 2566 2567 2568 2569 2570 2594 2595 2596 2597 2598 2599 2600 2601 2625 2626 2627 2628 2629 2630 2631 2632 2656 2657 2658 2659 2660 2661 2662 2663 2687 2688 2689 2690 2691 2692 2693 2694 2718 2719 2720 2721 2722 2723 2724 2725 2748 2749 2750 2751 2752 2753 2754 2755 2777 2778 2779 2780 2781 2782 2783 2784 2805 2806 2807 2808 2809 2810 2811 2812 2832 2833 2834 2835 2836 2837 2838 2839 2858 2859 2860 2861 2862 2863 2864 2865 2882 2883 2884 2885 2886 2887 2888 2889 2905 2906 2907 2908 2909 2910 2911 2912 2926 2927 2928 2929 2930 2931 2932 2933 2944 2945 2946 2947 2948 2949 2950 2951 2959 2960 2961 2962 2963 2964 2965 2970 2971 2972 2973 2974 1053 1054 1055 1056 1057 1058 1059 1083 1084 1085 1086 1087 1088 1089 1090 1114 1115 1116 1117 1118 1119 1120 1121 1145 1146 1147 1148 1149 1150 1151 1152 1176 1177 1178 1179 1180 1181 1182 1183 1207 1208 1209 1210 1211 1212 1213 1214 1238 1239 1240 1241 1242 1243 1244 1245 1269 1270 1271 1272 1273 1274 1275 1276 1300 1301 1302 1303 1304 1305 1306 1307 1331 1332 1333 1334 1335 1336 1337 1338 1362 1363 1364 1365 1366 1367 1368 1369 1393 1394 1395 1396 1397 1398 1399 1400 1424 1425 1426 1427 1428 1429 1430 1431 1455 1456 1457 1458 1459 1460 1461 1462 1486 1487 1488 1489 1490 1491 1492 1493 1517 1518 1519 1520 1521 1522 1523 1524 1548 1549 1550 1551 1552 1553 1554 1555 1579 1580 1581 1582 1583 1584 1585 1586 1610 1611 1612 1613 1614 1615 1616 1617 1641 1642 1643 1644 1645 1646 1647 1648 1672 1673 1674 1675 1676 1677 1678 1679 1703 1704 1705 1706 1707 1708 1709 1710 1734 1735 1736 1737 1738 1739 1740 1741 1765 1766 1767 1768 1769 1770 1771 1772 1796 1797 1798 1799 1800 1801 1802 1803 1827 1828 1829 1830 1831 1832 1833 1834 1858 1859 1860 1861 1862 1863 1864 1865 1889 1890 1891 1892 1893 1894 1895 1896 1920 1921 1922 1923 1924 1925 1926 1927 1951 1952 1953 1954 1955 1956 1957 1958 1982 1983 1984 1985 1986 1987 1988 1989 2013 2014 2015 2016 2017 2018 2019 2020 2044 2045 2046 2047 2048 2049 2050 2051 2075 2076 2077 2078 2079 2080 2081 2082 2106 2107 2108 2109 2110 2111 2112 2113 2137 2138 2139 2140 2141 2142 2143 2144 2168 2169 2170 2171 2172 2173 2174 2175 2199 2200 2201 2202 2203 2204 2205 2206 2230 2231 2232 2233 2234 2235 2236 2237 2261 2262 2263 2264 2265 2266 2267 2268 2292 2293 2294 2295 2296 2297 2298 2299 2323 2324 2325 2326 2327 2328 2329 2330 2354 2355 2356 2357 2358 2359 2360 2361 2385 2386 2387 2388 2389 2390 2391 2392 2416 2417 2418 2419 2420 2421 2422 2423 2447 2448 2449 2450 2451 2452 2453 2454 2478 2479 2480 2481 2482 2483 2484 2485 2509 2510 2511 2512 2513 2514 2515 2516 2540 2541 2542 2543 2544 2545 2546 2547 2571 2572 2573 2574 2575 2576 2577 2578 2602 2603 2604 2605 2606 2607 2608 2609 2633 2634 2635 2636 2637 2638 2639 2640 2664 2665 2666 2667 2668 2669 2670 2671 2695 2696 2697 2698 2699 2700 2701 2702 2726 2727 2728 2729 2730 2731 2732 2733 2756 2757 2758 2759 2760 2761 2762 2785 2786 2787 2788 2789 2790 2791 2813 2814 2815 2816 2817 2818 2840 2841 2842 2843 2844 2845 2866 2867 2868 2869 2870 2890 2891 2892 2893 2913 2914 2915 2916 2934 2935 2952 
Rhop 1 2975 float
  1.0000000E+03   1.0000000E+03   1.0000000E+03   1.0000000E+03   1.0000000E+03   1.0000000E+03   1.0000000E+03   1.0000000E+03   1.0000000E+03   1.0000000E+03   1.0000000E+03   1.0000000E+03   1.0000000E+03   1.0000000E+03   1.0000000E+03   1.0000000E+03   1.0000000E+03   1.0000000E+03   1.0000004E+03   1.0000015E+03   1.0000005E+03   1.0000021E+03   1.0000050E+03   1.0000019E+03   1.0000057E+03   1.0000121E+03   1.0000046E+03   1.0000118E+03   1.0000232E+03   1.0000084E+03   1.0000203E+03   1.0000373E+03   1.0000128E+03   1.0000293E+03   1.0000530E+03   1.0000172E+03   1.0000385E+03   1.0000682E+03   1.0000210E+03   1.0000464E+03   1.0000815E+03   1.0000244E+03   1.0000533E+03   1.0000932E+03   1.0000274E+03   1.0000605E+03   1.0001056E+03   1.0000317E+03   1.0000694E+03   1.0001217E+03   1.0000381E+03   1.0000836E+03   1.0001468E+03   1.0000490E+03   1.0001068E+03   1.0001874E+03   1.0000686E+03   1.0001444E+03   1.0002491E+03   1.0001013E+03   1.0001996E+03   1.0003331E+03   1.0002737E+03   1.0004353E+03   1.0000000E+03   1.0000000E+03   1.0000000E+03   1.0000000E+03   1.0000000E+03   1.0000000E+03   1.0000000E+03   1.0000000E+03   1.0000000E+03   1.0000000E+03   1.0000000E+03   1.0000000E+03   1.0000000E+03   1.0000000E+03   1.0000000E+03   1.0000000E+03   1.0000000E+03   1.0000000E+03   1.0000000E+03   1.0000000E+03   1.0000000E+03   1.0000000E+03   1.0000000E+03   1.0000000E+03   1.0000000E+03   1.0000000E+03   1.0000000E+03   1.0000000E+03   1.0000000E+03   1.0000000E+03   1.0000000E+03   1.0000000E+03   1.0000000E+03   1.0000000E+03   1.0000003E+03   1.0000005E+03   1.0000009E+03   1.0000011E+03   1.0000013E+03   1.0000014E+03   1.0000006E+03   1.0000015E+03   1.0000027E+03   1.0000040E+03   1.0000051E+03   1.0000062E+03   1.0000071E+03   1.0000078E+03   1.0000033E+03   1.0000059E+03   1.0000093E+03   1.0000132E+03   1.0000170E+03   1.0000203E+03   1.0000228E+03   1.0000249E+03   1.0000096E+03   1.0000160E+03   1.0000238E+03   1.0000325E+03   1.0000410E+03   1.0000483E+03   1.0000541E+03   1.0000588E+03   1.0000214E+03   1.0000335E+03   1.0000487E+03   1.0000650E+03   1.0000806E+03   1.0000942E+03   1.0001052E+03   1.0001136E+03   1.0000387E+03   1.0000591E+03   1.0000838E+03   1.0001102E+03   1.0001352E+03   1.0001564E+03   1.0001738E+03   1.0001873E+03   1.0000605E+03   1.0000906E+03   1.0001263E+03   1.0001638E+03   1.0001984E+03   1.0002277E+03   1.0002515E+03   1.0002700E+03   1.0000842E+03   1.0001237E+03   1.0001695E+03   1.0001064E+03   1.0001541E+03   1.0001259E+03   1.0001804E+03   1.0001434E+03   1.0002043E+03   1.0001622E+03   1.0002305E+03   1.0001874E+03   1.0002661E+03   1.0002263E+03   1.0003187E+03   1.0002869E+03   1.0003984E+03   1.0003767E+03   1.0005125E+03   1.0004962E+03   1.0006608E+03   1.0006356E+03   1.0008342E+03   1.0000000E+03   1.0000000E+03   1.0000000E+03   1.0000000E+03   1.0000000E+03   1.0000000E+03   1.0000000E+03   1.0000000E+03   1.0000000E+03   1.0000000E+03   1.0000000E+03   1.0000000E+03   1.0000000E+03   1.0000000E+03   1.0000000E+03   1.0000000E+03   1.0000000E+03   1.0000000E+03   1.0000000E+03   1.0000000E+03   1.0000000E+03   1.0000000E+03   1.0000000E+03   1.0000000E+03   1.0000000E+03   1.0000000E+03   1.0000000E+03   1.0000000E+03   1.0000000E+03   1.0000000E+03   1.0000000E+03   1.0000000E+03   1.0000000E+03   1.0000000E+03   1.0000000E+03   1.0000000E+03   1.0000015E+03   1.0000015E+03   1.0000015E+03   1.0000016E+03   1.0000016E+03   1.0000016E+03   1.0000016E+03   1.0000016E+03   1.0000016E+03   1.0000083E+03   1.0000085E+03   1.0000087E+03   1.0000089E+03   1.0000090E+03   1.0000090E+03   1.0000090E+03   1.0000090E+03   1.0000090E+03   1.0000261E+03   1.0000273E+03   1.0000280E+03   1.0000282E+03   1.0000287E+03   1.0000290E+03   1.0000291E+03   1.0000291E+03   1.0000291E+03   1.0000621E+03   1.0000648E+03   1.0000663E+03   1.0000674E+03   1.0000684E+03   1.0000687E+03   1.0000689E+03   1.0000691E+03   1.0000691E+03   1.0001201E+03   1.0001249E+03   1.0001282E+03   1.0001307E+03   1.0001318E+03   1.0001326E+03   1.0001332E+03   1.0001334E+03   1.0001335E+03   1.0001976E+03   1.0002052E+03   1.0002106E+03   1.0002142E+03   1.0002167E+03   1.0002180E+03   1.0002188E+03   1.0002191E+03   1.0002193E+03   1.0002841E+03   1.0002944E+03   1.0003018E+03   1.0003068E+03   1.0003101E+03   1.0003121E+03   1.0003132E+03   1.0003137E+03   1.0003140E+03   1.0000000E+03   1.0000000E+03   1.0000000E+03   1.0000000E+03   1.0000000E+03   1.0000000E+03   1.0000000E+03   1.0000000E+03   1.0000000E+03   1.0000000E+03   1.0000000E+03   1.0000000E+03   1.0000000E+03   1.0000000E+03   1.0000000E+03   1.0000000E+03   1.0000000E+03   1.0000000E+03   1.0000000E+03   1.0000000E+03   1.0000000E+03   1.0000000E+03   1.0000000E+03   1.0000000E+03   1.0000000E+03   1.0000000E+03   1.0000000E+03   1.0000000E+03   1.0000000E+03   1.0000000E+03   1.0000000E+03   1.0000000E+03   1.0000016E+03   1.0000016E+03   1.0000016E+03   1.0000016E+03   1.0000016E+03   1.0000016E+03   1.0000016E+03   1.0000015E+03   1.0000090E+03   1.0000090E+03   1.0000090E+03   1.0000090E+03   1.0000090E+03   1.0000090E+03   1.0000089E+03   1.0000087E+03   1.0000291E+03   1.0000291E+03   1.0000291E+03   1.0000291E+03   1.0000290E+03   1.0000287E+03   1.0000282E+03   1.0000280E+03   1.0000691E+03   1.0000691E+03   1.0000691E+03   1.0000689E+03   1.0000687E+03   1.0000684E+03   1.0000674E+03   1.0000663E+03   1.0001335E+03   1.0001335E+03   1.0001334E+03   1.0001332E+03   1.0001326E+03   1.0001318E+03   1.0001307E+03   1.0001282E+03   1.0002193E+03   1.0002193E+03   1.0002191E+03   1.0002188E+03   1.0002180E+03   1.0002167E+03   1.0002142E+03   1.0002106E+03   1.0003140E+03   1.0003140E+03   1.0003137E+03   1.0003132E+03   1.0003121E+03   1.0003101E+03   1.0003068E+03   1.0003018E+03   1.0000000E+03   1.0000000E+03   1.0000000E+03   1.0000000E+03   1.0000000E+03   1.0000000E+03   1.0000000E+03   1.0000000E+03   1.0000000E+03   1.0000000E+03   1.0000000E+03   1.0000000E+03   1.0000000E+03   1.0000000E+03   1.0000000E+03   1.0000000E+03   1.0000000E+03   1.0000000E+03   1.0000000E+03   1.0000000E+03   1.0000000E+03   1.0000000E+03   1.0000000E+03   1.0000000E+03   1.0000000E+03   1.0000000E+03   1.0000000E+03   1.0000000E+03   1.0000000E+03   1.0000000E+03   1.0000000E+03   1.0000000E+03   1.0000000E+03   1.0000000E+03   1.0000000E+03   1.0000000E+03   1.0000015E+03   1.0000015E+03   1.0000014E+03   1.0000013E+03   1.0000011E+03   1.0000009E+03   1.0000005E+03   1.0000003E+03   1.0000000E+03   1.0000085E+03   1.0000083E+03   1.0000078E+03   1.0000071E+03   1.0000062E+03   1.0000051E+03   1.0000040E+03   1.0000027E+03   1.0000015E+03   1.0000273E+03   1.0000261E+03   1.0000249E+03   1.0000228E+03   1.0000203E+03   1.0000170E+03   1.0000132E+03   1.0000093E+03   1.0000059E+03   1.0000648E+03   1.0000621E+03   1.0000588E+03   1.0000541E+03   1.0000483E+03   1.0000410E+03   1.0000325E+03   1.0000238E+03   1.0000160E+03   1.0001249E+03   1.0001201E+03   1.0001136E+03   1.0001052E+03   1.0000942E+03   1.0000806E+03   1.0000650E+03   1.0000487E+03   1.0000335E+03   1.0002052E+03   1.0001976E+03   1.0001873E+03   1.0001738E+03   1.0001564E+03   1.0001352E+03   1.0001102E+03   1.0000838E+03   1.0000591E+03   1.0002944E+03   1.0002841E+03   1.0002700E+03   1.0002515E+03   1.0002277E+03   1.0001984E+03   1.0001638E+03   1.0001263E+03   1.0000906E+03   1.0001695E+03   1.0001237E+03   1.0001541E+03   1.0001804E+03   1.0002043E+03   1.0002305E+03   1.0002661E+03   1.0003187E+03   1.0003984E+03   1.0005125E+03   1.0006608E+03   1.0008342E+03   1.0000000E+03   1.0000000E+03   1.0000000E+03   1.0000000E+03   1.0000000E+03   1.0000000E+03   1.0000000E+03   1.0000000E+03   1.0000000E+03   1.0000000E+03   1.0000000E+03   1.0000000E+03   1.0000000E+03   1.0000000E+03   1.0000000E+03   1.0000000E+03   1.0000000E+03   1.0000000E+03   1.0000000E+03   1.0000006E+03   1.0000000E+03   1.0000000E+03   1.0000000E+03   1.0000033E+03   1.0000015E+03   1.0000004E+03   1.0000000E+03   1.0000096E+03   1.0000050E+03   1.0000021E+03   1.0000005E+03   1.0000214E+03   1.0000121E+03   1.0000057E+03   1.0000019E+03   1.0000387E+03   1.0000232E+03   1.0000118E+03   1.0000046E+03   1.0000605E+03   1.0000373E+03   1.0000203E+03   1.0000084E+03   1.0000842E+03   1.0000530E+03   1.0000293E+03   1.0000128E+03   1.0001064E+03   1.0000682E+03   1.0000385E+03   1.0000172E+03   1.0001259E+03   1.0000815E+03   1.0000464E+03   1.0000210E+03   1.0001434E+03   1.0000932E+03   1.0000533E+03   1.0000244E+03   1.0001622E+03   1.0001056E+03   1.0000605E+03   1.0000274E+03   1.0001874E+03   1.0001217E+03   1.0000694E+03   1.0000317E+03   1.0002263E+03   1.0001468E+03   1.0000836E+03   1.0000381E+03   1.0002869E+03   1.0001874E+03   1.0001068E+03   1.0000490E+03   1.0003767E+03   1.0002491E+03   1.0001444E+03   1.0000686E+03   1.0004962E+03   1.0003331E+03   1.0001996E+03   1.0001013E+03   1.0006356E+03   1.0004353E+03   1.0002737E+03   1.0000000E+03   1.0000000E+03   1.0000000E+03   1.0000000E+03   1.0000000E+03   1.0000000E+03   1.0000000E+03   1.0000000E+03   1.0000000E+03   1.0000000E+03   1.0000000E+03   1.0000000E+03   1.0000000E+03   1.0000000E+03   1.0000000E+03   1.0000000E+03   1.0000000E+03   1.0000000E+03   1.0000000E+03   1.0000000E+03   1.0000000E+03   1.0000000E+03   1.0000000E+03   1.0000000E+03   1.0000000E+03   1.0000000E+03   1.0000000E+03   1.0000000E+03   1.0000000E+03   1.0000000E+03   1.0000000E+03   1.0000000E+03   1.0000000E+03   1.0000000E+03   1.0000000E+03   1.0000000E+03   1.0000000E+03   1.0000000E+03   1.0000000E+03   1.0000000E+03   1.0000000E+03   1.0000000E+03   1.0000000E+03   1.0000000E+03   1.0000000E+03   1.0000000E+03   1.0000000E+03   1.0000000E+03   1.0000000E+03   1.0000000E+03   1.0000000E+03   1.0000000E+03   1.0000000E+03   1.0000000E+03   1.0000000E+03   1.0000000E+03   1.0000000E+03   1.0000000E+03   1.0000000E+03   1.0000000E+03   1.0000000E+03   1.0000000E+03   1.0000000E+03   1.0000000E+03   1.0000000E+03   1.0000000E+03   1.0000000E+03   1.0000000E+03   1.0000000E+03   1.0000000E+03   1.0000000E+03   1.0000000E+03   1.0000000E+03   1.0000000E+03   1.0000000E+03   1.0000000E+03   1.0000000E+03   1.0000000E+03   1.0000000E+03   1.0000000E+03   1.0000000E+03   1.0000000E+03   1.0000000E+03   1.0000000E+03   1.0000000E+03   1.0000000E+03   1.0000000E+03   1.0000000E+03   1.0000000E+03   1.0000000E+03   1.0000000E+03   1.0000000E+03   1.0000000E+03   1.0000000E+03   1.0000000E+03   1.0000000E+03   1.0000000E+03   1.0000000E+03   1.0000000E+03   1.0000000E+03   1.0000000E+03   1.0000000E+03   1.0000000E+03   1.0000000E+03   1.0000000E+03   1.0000000E+03   1.0000000E+03   1.0000000E+03   1.0000000E+03   1.0000000E+03   1.0000000E+03   1.0000000E+03   1.0000000E+03   1.0000000E+03   1.0000000E+03   1.0000000E+03   1.0000000E+03   1.0000000E+03   1.0000000E+03   1.0000000E+03   1.0000000E+03   1.0000000E+03   1.0000000E+03   1.0000000E+03   1.0000000E+03   1.0000000E+03   1.0000000E+03   1.0000000E+03   1.0000000E+03   1.0000000E+03   1.0000000E+03   1.0000000E+03   1.0000000E+03   1.0000000E+03   1.0000000E+03   1.0000000E+03   1.0000000E+03   1.0000000E+03   1.0000000E+03   1.0000000E+03   1.0000000E+03   1.0000000E+03   1.0000000E+03   1.0000000E+03   1.0000000E+03   1.0000000E+03   1.0000000E+03   1.0000000E+03   1.0000000E+03   1.0000000E+03   1.0000000E+03   1.0000000E+03   1.0000000E+03   1.0000000E+03   1.0000000E+03   1.0000000E+03   1.0000000E+03   1.0000000E+03   1.0000000E+03   1.0000000E+03   1.0000000E+03   1.0000000E+03   1.0000000E+03   1.0000000E+03   1.0000000E+03   1.0000000E+03   1.0000000E+03   1.0000000E+03   1.0000000E+03   1.0000000E+03   1.0000000E+03   1.0000000E+03   1.0000000E+03   1.0000000E+03   1.0000000E+03   1.0000000E+03   1.0000000E+03   1.0000000E+03   1.0000000E+03   1.0000000E+03   1.0000000E+03   1.0000000E+03   1.0000000E+03   1.0000000E+03   1.0000000E+03   1.0000000E+03   1.0000000E+03   1.0000000E+03   1.0000000E+03   1.0000000E+03   1.0000000E+03   1.0000000E+03   1.0000000E+03   1.0000000E+03   1.0000000E+03   1.0000000E+03   1.0000000E+03   1.0000000E+03   1.0000000E+03   1.0000000E+03   1.0000000E+03   1.0000000E+03   1.0000000E+03   1.0000000E+03   1.0000000E+03   1.0000000E+03   1.0000000E+03   1.0000000E+03   1.0000000E+03   1.0000000E+03   1.0000000E+03   1.0000000E+03   1.0000000E+03   1.0000000E+03   1.0000000E+03   1.0000000E+03   1.0000000E+03   1.0000000E+03   1.0000000E+03   1.0000000E+03   1.0000000E+03   1.0000000E+03   1.0000000E+03   1.0000000E+03   1.0000000E+03   1.0000000E+03   1.0000000E+03   1.0000000E+03   1.0000000E+03   1.0000000E+03   1.0000000E+03   1.0000000E+03   1.0000000E+03   1.0000000E+03   1.0000000E+03   1.0000000E+03   1.0000000E+03   1.0000000E+03   1.0000000E+03   1.0000000E+03   1.0000000E+03   1.0000000E+03   1.0000000E+03   1.0000000E+03   1.0000000E+03   1.0000000E+03   1.0000000E+03   1.0000000E+03   1.0000000E+03   1.0000000E+03   1.0000000E+03   1.0000000E+03   1.0000000E+03   1.0000000E+03   1.0000000E+03   1.0000000E+03   1.0000000E+03   1.0000000E+03   1.0000000E+03   1.0000000E+03   1.0000000E+03   1.0000000E+03   1.0000000E+03   1.0000000E+03   1.0000000E+03   1.0000000E+03   1.0000000E+03   1.0000000E+03   1.0000000E+03   1.0000000E+03   1.0000000E+03   1.0000000E+03   1.0000000E+03   1.0000000E+03   1.0000000E+03   1.0000000E+03   1.0000000E+03   1.0000000E+03   1.0000000E+03   1.0000000E+03   1.0000000E+03   1.0000000E+03   1.0000000E+03   1.0000000E+03   1.0000000E+03   1.0000000E+03   1.0000000E+03   1.0000000E+03   1.0000000E+03   1.0000000E+03   1.0000000E+03   1.0000000E+03   1.0000000E+03   1.0000000E+03   1.0000000E+03   1.0000000E+03   1.0000000E+03   1.0000000E+03   1.0000000E+03   1.0000000E+03   1.0000000E+03   1.0000000E+03   1.0000000E+03   1.0000000E+03   1.0000000E+03   1.0000000E+03   1.0000000E+03   1.0000000E+03   1.0000000E+03   1.0000000E+03   1.0000000E+03   1.0000000E+03   1.0000000E+03   1.0000000E+03   1.0000000E+03   1.0000000E+03   1.0000000E+03   1.0000000E+03   1.0000000E+03   1.0000000E+03   1.0000000E+03   1.0000000E+03   1.0000000E+03   1.0000000E+03   1.0000000E+03   1.0000000E+03   1.0000000E+03   1.0000000E+03   1.0000000E+03   1.0000000E+03   1.0000000E+03   1.0000000E+03   1.0000000E+03   1.0000000E+03   1.0000000E+03   1.0000000E+03   1.0000000E+03   1.0000000E+03   1.0000000E+03   1.0000000E+03   1.0000000E+03   1.0000000E+03   1.0000000E+03   1.0000000E+03   1.0000000E+03   1.0000000E+03   1.0000000E+03   1.0000000E+03   1.0000000E+03   1.0000000E+03   1.0000000E+03   1.0000000E+03   1.0000000E+03   1.0000000E+03   1.0000000E+03   1.0000000E+03   1.0000000E+03   1.0000000E+03   1.0000000E+03   1.0000000E+03   1.0000000E+03   1.0000000E+03   1.0000000E+03   1.0000000E+03   1.0000000E+03   1.0000000E+03   1.0000000E+03   1.0000000E+03   1.0000000E+03   1.0000000E+03   1.0000000E+03   1.0000000E+03   1.0000000E+03   1.0000000E+03   1.0000000E+03   1.0000000E+03   1.0000000E+03   1.0000000E+03   1.0000000E+03   1.0000000E+03   1.0000000E+03   1.0000000E+03   1.0000000E+03   1.0000000E+03   1.0000000E+03   1.0000000E+03   1.0000000E+03   1.0000000E+03   1.0000000E+03   1.0000000E+03   1.0000000E+03   1.0000000E+03   1.0000000E+03   1.0000000E+03   1.0000000E+03   1.0000000E+03   1.0000000E+03   1.0000000E+03   1.0000000E+03   1.0000000E+03   1.0000000E+03   1.0000000E+03   1.0000000E+03   1.0000000E+03   1.0000000E+03   1.0000000E+03   1.0000000E+03   1.0000000E+03   1.0000000E+03   1.0000000E+03   1.0000000E+03   1.0000000E+03   1.0000000E+03   1.0000000E+03   1.0000000E+03   1.0000000E+03   1.0000000E+03   1.0000000E+03   1.0000000E+03   1.0000000E+03   1.0000000E+03   1.0000000E+03   1.0000000E+03   1.0000000E+03   1.0000000E+03   1.0000000E+03   1.0000000E+03   1.0000000E+03   1.0000000E+03   1.0000000E+03   1.0000000E+03   1.0000000E+03   1.0000000E+03   1.0000000E+03   1.0000000E+03   1.0000000E+03   1.0000000E+03   1.0000000E+03   1.0000000E+03   1.0000000E+03   1.0000000E+03   1.0000000E+03   1.0000000E+03   1.0000000E+03   1.0000000E+03   1.0000000E+03   1.0000000E+03   1.0000000E+03   1.0000000E+03   1.0000000E+03   1.0000000E+03   1.0000000E+03   1.0000000E+03   1.0000000E+03   1.0000000E+03   1.0000000E+03   1.0000000E+03   1.0000000E+03   1.0000000E+03   1.0000000E+03   1.0000000E+03   1.0000000E+03   1.0000000E+03   1.0000000E+03   1.0000000E+03   1.0000000E+03   1.0000000E+03   1.0000000E+03   1.0000000E+03   1.0000000E+03   1.0000000E+03   1.0000000E+03   1.0002158E+03   1.0002584E+03   1.0002941E+03   1.0003225E+03   1.0003446E+03   1.0002053E+03   1.0002606E+03   1.0003087E+03   1.0003483E+03   1.0003798E+03   1.0004039E+03   1.0002380E+03   1.0002992E+03   1.0003521E+03   1.0003950E+03   1.0004278E+03   1.0004528E+03   1.0002687E+03   1.0003364E+03   1.0003940E+03   1.0004398E+03   1.0004745E+03   1.0004993E+03   1.0003034E+03   1.0003777E+03   1.0004405E+03   1.0004896E+03   1.0005257E+03   1.0005501E+03   1.0003520E+03   1.0004331E+03   1.0004992E+03   1.0005499E+03   1.0005866E+03   1.0006111E+03   1.0004310E+03   1.0005153E+03   1.0005797E+03   1.0006269E+03   1.0006608E+03   1.0006840E+03   1.0005595E+03   1.0006406E+03   1.0006909E+03   1.0007255E+03   1.0007509E+03   1.0007687E+03   1.0007563E+03   1.0008192E+03   1.0008381E+03   1.0008470E+03   1.0008556E+03   1.0008646E+03   1.0010296E+03   1.0010457E+03   1.0010144E+03   1.0009857E+03   1.0009719E+03   1.0009690E+03   1.0013507E+03   1.0012906E+03   1.0011984E+03   1.0011295E+03   1.0010930E+03   1.0010790E+03   1.0015956E+03   1.0014982E+03   1.0013618E+03   1.0012637E+03   1.0012122E+03   1.0011914E+03   1.0016021E+03   1.0015810E+03   1.0014737E+03   1.0013776E+03   1.0013252E+03   1.0013043E+03   1.0015502E+03   1.0015776E+03   1.0015359E+03   1.0014724E+03   1.0014341E+03   1.0014201E+03   1.0015576E+03   1.0015900E+03   1.0015907E+03   1.0015651E+03   1.0015477E+03   1.0015429E+03   1.0016294E+03   1.0016553E+03   1.0016733E+03   1.0016744E+03   1.0016740E+03   1.0016773E+03   1.0017501E+03   1.0017723E+03   1.0017959E+03   1.0018094E+03   1.0018189E+03   1.0018275E+03   1.0019078E+03   1.0019286E+03   1.0019525E+03   1.0019698E+03   1.0019836E+03   1.0019958E+03   1.0020894E+03   1.0021110E+03   1.0021350E+03   1.0021532E+03   1.0021697E+03   1.0021843E+03   1.0022904E+03   1.0023155E+03   1.0023406E+03   1.0023594E+03   1.0023781E+03   1.0023945E+03   1.0025156E+03   1.0025437E+03   1.0025700E+03   1.0025894E+03   1.0026097E+03   1.0026270E+03   1.0027697E+03   1.0027984E+03   1.0028251E+03   1.0028445E+03   1.0028651E+03   1.0028826E+03   1.0030554E+03   1.0030827E+03   1.0031083E+03   1.0031263E+03   1.0031454E+03   1.0031608E+03   1.0033758E+03   1.0033985E+03   1.0034219E+03   1.0034363E+03   1.0034503E+03   1.0034614E+03   1.0037241E+03   1.0037419E+03   1.0037619E+03   1.0037667E+03   1.0037705E+03   1.0037736E+03   1.0040851E+03   1.0040987E+03   1.0041129E+03   1.0040993E+03   1.0040862E+03   1.0040765E+03   1.0044329E+03   1.0044457E+03   1.0044491E+03   1.0044034E+03   1.0043663E+03   1.0043421E+03   1.0047330E+03   1.0047473E+03   1.0047307E+03   1.0046379E+03   1.0045729E+03   1.0045352E+03   1.0049676E+03   1.0049855E+03   1.0049369E+03   1.0047878E+03   1.0046978E+03   1.0046546E+03   1.0051964E+03   1.0052200E+03   1.0051368E+03   1.0049392E+03   1.0048398E+03   1.0048075E+03   1.0056996E+03   1.0057358E+03   1.0056408E+03   1.0054396E+03   1.0053596E+03   1.0053616E+03   1.0071567E+03   1.0072271E+03   1.0072149E+03   1.0070840E+03   1.0070518E+03   1.0071086E+03   1.0102661E+03   1.0104135E+03   1.0105580E+03   1.0106266E+03   1.0106902E+03   1.0108066E+03   1.0141115E+03   1.0143318E+03   1.0146115E+03   1.0149353E+03   1.0151597E+03   1.0153325E+03   1.0162838E+03   1.0165310E+03   1.0168284E+03   1.0172558E+03   1.0176129E+03   1.0178136E+03   1.0162182E+03   1.0163909E+03   1.0165460E+03   1.0168749E+03   1.0172278E+03   1.0174102E+03   1.0153788E+03   1.0154124E+03   1.0153202E+03   1.0153880E+03   1.0155687E+03   1.0156359E+03   1.0149905E+03   1.0149218E+03   1.0146809E+03   1.0144559E+03   1.0143306E+03   1.0141705E+03   1.0152830E+03   1.0151736E+03   1.0148427E+03   1.0143966E+03   1.0140181E+03   1.0136669E+03   1.0159761E+03   1.0158271E+03   1.0154203E+03   1.0149042E+03   1.0143953E+03   1.0139420E+03   1.0166570E+03   1.0164850E+03   1.0160377E+03   1.0155189E+03   1.0149993E+03   1.0145362E+03   1.0170635E+03   1.0168959E+03   1.0164442E+03   1.0159459E+03   1.0154933E+03   1.0150923E+03   1.0168794E+03   1.0167355E+03   1.0163101E+03   1.0158480E+03   1.0154812E+03   1.0151710E+03   1.0162910E+03   1.0161845E+03   1.0158091E+03   1.0154088E+03   1.0151357E+03   1.0149238E+03   1.0155579E+03   1.0155004E+03   1.0152086E+03   1.0149032E+03   1.0147356E+03   1.0146262E+03   1.0148225E+03   1.0148278E+03   1.0146675E+03   1.0145002E+03   1.0144521E+03   1.0144517E+03   1.0140802E+03   1.0141697E+03   1.0141917E+03   1.0141934E+03   1.0142804E+03   1.0143876E+03   1.0132499E+03   1.0134414E+03   1.0136594E+03   1.0138567E+03   1.0140619E+03   1.0142736E+03   1.0122609E+03   1.0125555E+03   1.0129631E+03   1.0133082E+03   1.0136245E+03   1.0139289E+03   1.0111216E+03   1.0115114E+03   1.0120556E+03   1.0124760E+03   1.0128959E+03   1.0132639E+03   1.0099217E+03   1.0103736E+03   1.0109687E+03   1.0114296E+03   1.0119125E+03   1.0123038E+03   1.0087674E+03   1.0092472E+03   1.0098086E+03   1.0102839E+03   1.0107731E+03   1.0111537E+03   1.0076864E+03   1.0081785E+03   1.0086981E+03   1.0091548E+03   1.0096017E+03   1.0099440E+03   1.0065604E+03   1.0071656E+03   1.0077095E+03   1.0081216E+03   1.0084961E+03   1.0087802E+03   1.0055905E+03   1.0062984E+03   1.0069009E+03   1.0072435E+03   1.0075138E+03   1.0077287E+03   1.0055659E+03   1.0062509E+03   1.0065317E+03   1.0066841E+03   1.0068171E+03   1.0049240E+03   1.0056172E+03   1.0059425E+03   1.0060045E+03   1.0060564E+03   1.0048850E+03   1.0053514E+03   1.0054313E+03   1.0054350E+03   1.0041526E+03   1.0046077E+03   1.0048801E+03   1.0049048E+03   1.0037792E+03   1.0041881E+03   1.0043541E+03   1.0033914E+03   1.0036306E+03   1.0031508E+03   1.0028967E+03   1.0003615E+03   1.0003742E+03   1.0003829E+03   1.0003891E+03   1.0003928E+03   1.0003952E+03   1.0003966E+03   1.0003971E+03   1.0003974E+03   1.0004219E+03   1.0004355E+03   1.0004449E+03   1.0004513E+03   1.0004550E+03   1.0004576E+03   1.0004587E+03   1.0004595E+03   1.0004597E+03   1.0004710E+03   1.0004843E+03   1.0004935E+03   1.0004993E+03   1.0005030E+03   1.0005048E+03   1.0005059E+03   1.0005063E+03   1.0005065E+03   1.0005170E+03   1.0005293E+03   1.0005372E+03   1.0005421E+03   1.0005452E+03   1.0005464E+03   1.0005469E+03   1.0005468E+03   1.0005468E+03   1.0005671E+03   1.0005780E+03   1.0005847E+03   1.0005878E+03   1.0005895E+03   1.0005897E+03   1.0005897E+03   1.0005894E+03   1.0005891E+03   1.0006266E+03   1.0006359E+03   1.0006405E+03   1.0006420E+03   1.0006422E+03   1.0006415E+03   1.0006403E+03   1.0006395E+03   1.0006388E+03   1.0006978E+03   1.0007047E+03   1.0007071E+03   1.0007068E+03   1.0007048E+03   1.0007028E+03   1.0007007E+03   1.0006991E+03   1.0006979E+03   1.0007797E+03   1.0007839E+03   1.0007836E+03   1.0007810E+03   1.0007774E+03   1.0007737E+03   1.0007707E+03   1.0007682E+03   1.0007668E+03   1.0008705E+03   1.0008720E+03   1.0008691E+03   1.0008638E+03   1.0008584E+03   1.0008533E+03   1.0008489E+03   1.0008458E+03   1.0008440E+03   1.0009695E+03   1.0009675E+03   1.0009618E+03   1.0009543E+03   1.0009471E+03   1.0009404E+03   1.0009354E+03   1.0009314E+03   1.0009293E+03   1.0010745E+03   1.0010696E+03   1.0010619E+03   1.0010527E+03   1.0010436E+03   1.0010361E+03   1.0010302E+03   1.0010260E+03   1.0010234E+03   1.0011837E+03   1.0011776E+03   1.0011687E+03   1.0011583E+03   1.0011484E+03   1.0011401E+03   1.0011338E+03   1.0011291E+03   1.0011264E+03   1.0012972E+03   1.0012913E+03   1.0012825E+03   1.0012720E+03   1.0012619E+03   1.0012535E+03   1.0012468E+03   1.0012419E+03   1.0012392E+03   1.0014160E+03   1.0014116E+03   1.0014041E+03   1.0013945E+03   1.0013847E+03   1.0013765E+03   1.0013701E+03   1.0013656E+03   1.0013627E+03   1.0015426E+03   1.0015410E+03   1.0015351E+03   1.0015269E+03   1.0015184E+03   1.0015105E+03   1.0015048E+03   1.0015004E+03   1.0014980E+03   1.0016810E+03   1.0016813E+03   1.0016780E+03   1.0016716E+03   1.0016647E+03   1.0016581E+03   1.0016527E+03   1.0016489E+03   1.0016468E+03   1.0018339E+03   1.0018367E+03   1.0018353E+03   1.0018306E+03   1.0018251E+03   1.0018199E+03   1.0018152E+03   1.0018120E+03   1.0018102E+03   1.0020048E+03   1.0020094E+03   1.0020093E+03   1.0020065E+03   1.0020020E+03   1.0019980E+03   1.0019942E+03   1.0019914E+03   1.0019899E+03   1.0021951E+03   1.0022009E+03   1.0022021E+03   1.0021999E+03   1.0021965E+03   1.0021934E+03   1.0021906E+03   1.0021885E+03   1.0021872E+03   1.0024064E+03   1.0024127E+03   1.0024143E+03   1.0024126E+03   1.0024100E+03   1.0024075E+03   1.0024052E+03   1.0024036E+03   1.0024024E+03   1.0026395E+03   1.0026456E+03   1.0026468E+03   1.0026453E+03   1.0026426E+03   1.0026404E+03   1.0026383E+03   1.0026367E+03   1.0026359E+03   1.0028944E+03   1.0028994E+03   1.0028997E+03   1.0028966E+03   1.0028937E+03   1.0028910E+03   1.0028889E+03   1.0028874E+03   1.0028863E+03   1.0031703E+03   1.0031732E+03   1.0031706E+03   1.0031660E+03   1.0031609E+03   1.0031573E+03   1.0031545E+03   1.0031525E+03   1.0031511E+03   1.0034666E+03   1.0034647E+03   1.0034575E+03   1.0034487E+03   1.0034410E+03   1.0034351E+03   1.0034311E+03   1.0034280E+03   1.0034264E+03   1.0037710E+03   1.0037618E+03   1.0037479E+03   1.0037327E+03   1.0037205E+03   1.0037117E+03   1.0037055E+03   1.0037016E+03   1.0036993E+03   1.0040636E+03   1.0040438E+03   1.0040198E+03   1.0039973E+03   1.0039789E+03   1.0039661E+03   1.0039581E+03   1.0039527E+03   1.0039502E+03   1.0043168E+03   1.0042851E+03   1.0042496E+03   1.0042169E+03   1.0041920E+03   1.0041753E+03   1.0041647E+03   1.0041583E+03   1.0041554E+03   1.0045000E+03   1.0044579E+03   1.0044116E+03   1.0043694E+03   1.0043377E+03   1.0043170E+03   1.0043051E+03   1.0042980E+03   1.0042947E+03   1.0046175E+03   1.0045720E+03   1.0045204E+03   1.0044727E+03   1.0044368E+03   1.0044139E+03   1.0044011E+03   1.0043947E+03   1.0043917E+03   1.0047839E+03   1.0047488E+03   1.0047040E+03   1.0046599E+03   1.0046258E+03   1.0046047E+03   1.0045944E+03   1.0045901E+03   1.0045881E+03   1.0053724E+03   1.0053671E+03   1.0053456E+03   1.0053193E+03   1.0052981E+03   1.0052857E+03   1.0052814E+03   1.0052813E+03   1.0052821E+03   1.0071751E+03   1.0072186E+03   1.0072390E+03   1.0072460E+03   1.0072495E+03   1.0072547E+03   1.0072624E+03   1.0072692E+03   1.0072743E+03   1.0109346E+03   1.0110369E+03   1.0111086E+03   1.0111591E+03   1.0111971E+03   1.0112275E+03   1.0112510E+03   1.0112682E+03   1.0112786E+03   1.0155021E+03   1.0156490E+03   1.0157645E+03   1.0158547E+03   1.0159267E+03   1.0159831E+03   1.0160245E+03   1.0160518E+03   1.0160665E+03   1.0179786E+03   1.0181280E+03   1.0182565E+03   1.0183665E+03   1.0184600E+03   1.0185337E+03   1.0185870E+03   1.0186204E+03   1.0186371E+03   1.0175170E+03   1.0176122E+03   1.0177078E+03   1.0178044E+03   1.0178948E+03   1.0179700E+03   1.0180236E+03   1.0180555E+03   1.0180706E+03   1.0156360E+03   1.0156293E+03   1.0156494E+03   1.0156979E+03   1.0157590E+03   1.0158153E+03   1.0158549E+03   1.0158756E+03   1.0158828E+03   1.0140012E+03   1.0138673E+03   1.0137945E+03   1.0137755E+03   1.0137885E+03   1.0138088E+03   1.0138211E+03   1.0138212E+03   1.0138151E+03   1.0133580E+03   1.0131231E+03   1.0129727E+03   1.0128923E+03   1.0128548E+03   1.0128336E+03   1.0128118E+03   1.0127857E+03   1.0127629E+03   1.0135617E+03   1.0132780E+03   1.0130875E+03   1.0129703E+03   1.0128978E+03   1.0128431E+03   1.0127914E+03   1.0127418E+03   1.0127031E+03   1.0141575E+03   1.0138816E+03   1.0136962E+03   1.0135773E+03   1.0134962E+03   1.0134283E+03   1.0133614E+03   1.0132974E+03   1.0132493E+03   1.0147682E+03   1.0145444E+03   1.0144022E+03   1.0143146E+03   1.0142534E+03   1.0141964E+03   1.0141334E+03   1.0140700E+03   1.0140212E+03   1.0149293E+03   1.0147807E+03   1.0147028E+03   1.0146682E+03   1.0146493E+03   1.0146237E+03   1.0145831E+03   1.0145341E+03   1.0144935E+03   1.0147730E+03   1.0147042E+03   1.0146964E+03   1.0147231E+03   1.0147562E+03   1.0147744E+03   1.0147676E+03   1.0147435E+03   1.0147173E+03   1.0145675E+03   1.0145746E+03   1.0146313E+03   1.0147147E+03   1.0147994E+03   1.0148623E+03   1.0148934E+03   1.0148969E+03   1.0148884E+03   1.0144842E+03   1.0145594E+03   1.0146683E+03   1.0147955E+03   1.0149203E+03   1.0150198E+03   1.0150827E+03   1.0151118E+03   1.0151191E+03   1.0145057E+03   1.0146350E+03   1.0147775E+03   1.0149294E+03   1.0150762E+03   1.0151965E+03   1.0152791E+03   1.0153234E+03   1.0153409E+03   1.0144619E+03   1.0146261E+03   1.0147816E+03   1.0149371E+03   1.0150847E+03   1.0152084E+03   1.0152952E+03   1.0153449E+03   1.0153661E+03   1.0141653E+03   1.0143449E+03   1.0144958E+03   1.0146379E+03   1.0147714E+03   1.0148841E+03   1.0149639E+03   1.0150101E+03   1.0150302E+03   1.0135249E+03   1.0137039E+03   1.0138392E+03   1.0139594E+03   1.0140712E+03   1.0141666E+03   1.0142347E+03   1.0142734E+03   1.0142903E+03   1.0125689E+03   1.0127380E+03   1.0128544E+03   1.0129526E+03   1.0130439E+03   1.0131221E+03   1.0131784E+03   1.0132105E+03   1.0132242E+03   1.0114065E+03   1.0115628E+03   1.0116638E+03   1.0117466E+03   1.0118229E+03   1.0118887E+03   1.0119364E+03   1.0119644E+03   1.0119771E+03   1.0101705E+03   1.0103140E+03   1.0104089E+03   1.0104852E+03   1.0105540E+03   1.0106129E+03   1.0106559E+03   1.0106829E+03   1.0106959E+03   1.0089700E+03   1.0091014E+03   1.0091991E+03   1.0092797E+03   1.0093492E+03   1.0094063E+03   1.0094485E+03   1.0094754E+03   1.0094897E+03   1.0078729E+03   1.0079877E+03   1.0080923E+03   1.0081857E+03   1.0082642E+03   1.0083259E+03   1.0083700E+03   1.0083989E+03   1.0084147E+03   1.0069095E+03   1.0069985E+03   1.0071031E+03   1.0072120E+03   1.0073070E+03   1.0073802E+03   1.0074316E+03   1.0074645E+03   1.0074824E+03   1.0060940E+03   1.0061451E+03   1.0062333E+03   1.0063468E+03   1.0064588E+03   1.0065504E+03   1.0066157E+03   1.0066575E+03   1.0066803E+03   1.0054326E+03   1.0054394E+03   1.0054915E+03   1.0055873E+03   1.0057017E+03   1.0058081E+03   1.0058910E+03   1.0059471E+03   1.0059781E+03   1.0049128E+03   1.0048934E+03   1.0048972E+03   1.0049513E+03   1.0050426E+03   1.0051448E+03   1.0052356E+03   1.0053032E+03   1.0053439E+03   1.0044526E+03   1.0044866E+03   1.0044671E+03   1.0044666E+03   1.0045084E+03   1.0045788E+03   1.0046560E+03   1.0047217E+03   1.0047650E+03   1.0039207E+03   1.0040890E+03   1.0041595E+03   1.0041471E+03   1.0041302E+03   1.0041448E+03   1.0041830E+03   1.0042275E+03   1.0042618E+03   1.0032668E+03   1.0035682E+03   1.0037766E+03   1.0038934E+03   1.0038984E+03   1.0038674E+03   1.0038517E+03   1.0038568E+03   1.0038693E+03   1.0028495E+03   1.0030576E+03   1.0032518E+03   1.0034643E+03   1.0036030E+03   1.0036599E+03   1.0036516E+03   1.0036310E+03   1.0036213E+03   1.0029823E+03   1.0029532E+03   1.0030768E+03   1.0031645E+03   1.0032701E+03   1.0033248E+03   1.0033542E+03   1.0033657E+03   1.0031440E+03   1.0030700E+03   1.0031153E+03   1.0031002E+03   1.0030881E+03   1.0030736E+03   1.0034382E+03   1.0033962E+03   1.0033559E+03   1.0033238E+03   1.0003974E+03   1.0003974E+03   1.0003971E+03   1.0003966E+03   1.0003952E+03   1.0003928E+03   1.0003891E+03   1.0003829E+03   1.0004597E+03   1.0004597E+03   1.0004595E+03   1.0004587E+03   1.0004576E+03   1.0004550E+03   1.0004513E+03   1.0004449E+03   1.0005065E+03   1.0005065E+03   1.0005063E+03   1.0005059E+03   1.0005048E+03   1.0005030E+03   1.0004993E+03   1.0004935E+03   1.0005468E+03   1.0005468E+03   1.0005468E+03   1.0005469E+03   1.0005464E+03   1.0005452E+03   1.0005421E+03   1.0005372E+03   1.0005889E+03   1.0005891E+03   1.0005894E+03   1.0005897E+03   1.0005897E+03   1.0005895E+03   1.0005878E+03   1.0005847E+03   1.0006385E+03   1.0006388E+03   1.0006395E+03   1.0006403E+03   1.0006415E+03   1.0006422E+03   1.0006420E+03   1.0006405E+03   1.0006974E+03   1.0006979E+03   1.0006991E+03   1.0007007E+03   1.0007028E+03   1.0007048E+03   1.0007068E+03   1.0007071E+03   1.0007661E+03   1.0007668E+03   1.0007682E+03   1.0007707E+03   1.0007737E+03   1.0007774E+03   1.0007810E+03   1.0007836E+03   1.0008434E+03   1.0008440E+03   1.0008458E+03   1.0008489E+03   1.0008533E+03   1.0008584E+03   1.0008638E+03   1.0008691E+03   1.0009285E+03   1.0009293E+03   1.0009314E+03   1.0009354E+03   1.0009404E+03   1.0009471E+03   1.0009543E+03   1.0009618E+03   1.0010224E+03   1.0010234E+03   1.0010260E+03   1.0010302E+03   1.0010361E+03   1.0010436E+03   1.0010527E+03   1.0010619E+03   1.0011254E+03   1.0011264E+03   1.0011291E+03   1.0011338E+03   1.0011401E+03   1.0011484E+03   1.0011583E+03   1.0011687E+03   1.0012382E+03   1.0012392E+03   1.0012419E+03   1.0012468E+03   1.0012535E+03   1.0012619E+03   1.0012720E+03   1.0012825E+03   1.0013619E+03   1.0013627E+03   1.0013656E+03   1.0013701E+03   1.0013765E+03   1.0013847E+03   1.0013945E+03   1.0014041E+03   1.0014973E+03   1.0014980E+03   1.0015004E+03   1.0015048E+03   1.0015105E+03   1.0015184E+03   1.0015269E+03   1.0015351E+03   1.0016459E+03   1.0016468E+03   1.0016489E+03   1.0016527E+03   1.0016581E+03   1.0016647E+03   1.0016716E+03   1.0016780E+03   1.0018095E+03   1.0018102E+03   1.0018120E+03   1.0018152E+03   1.0018199E+03   1.0018251E+03   1.0018306E+03   1.0018353E+03   1.0019896E+03   1.0019899E+03   1.0019914E+03   1.0019942E+03   1.0019980E+03   1.0020020E+03   1.0020065E+03   1.0020093E+03   1.0021867E+03   1.0021872E+03   1.0021885E+03   1.0021906E+03   1.0021934E+03   1.0021965E+03   1.0021999E+03   1.0022021E+03   1.0024021E+03   1.0024024E+03   1.0024036E+03   1.0024052E+03   1.0024075E+03   1.0024100E+03   1.0024126E+03   1.0024143E+03   1.0026359E+03   1.0026359E+03   1.0026367E+03   1.0026383E+03   1.0026404E+03   1.0026426E+03   1.0026453E+03   1.0026468E+03   1.0028860E+03   1.0028863E+03   1.0028874E+03   1.0028889E+03   1.0028910E+03   1.0028937E+03   1.0028966E+03   1.0028996E+03   1.0031508E+03   1.0031511E+03   1.0031525E+03   1.0031545E+03   1.0031573E+03   1.0031609E+03   1.0031660E+03   1.0031706E+03   1.0034258E+03   1.0034264E+03   1.0034280E+03   1.0034311E+03   1.0034351E+03   1.0034410E+03   1.0034487E+03   1.0034575E+03   1.0036985E+03   1.0036993E+03   1.0037016E+03   1.0037055E+03   1.0037117E+03   1.0037205E+03   1.0037327E+03   1.0037479E+03   1.0039491E+03   1.0039502E+03   1.0039527E+03   1.0039581E+03   1.0039661E+03   1.0039789E+03   1.0039973E+03   1.0040198E+03   1.0041541E+03   1.0041554E+03   1.0041583E+03   1.0041647E+03   1.0041753E+03   1.0041920E+03   1.0042169E+03   1.0042496E+03   1.0042936E+03   1.0042947E+03   1.0042980E+03   1.0043051E+03   1.0043171E+03   1.0043377E+03   1.0043694E+03   1.0044116E+03   1.0043906E+03   1.0043917E+03   1.0043947E+03   1.0044011E+03   1.0044139E+03   1.0044368E+03   1.0044727E+03   1.0045204E+03   1.0045876E+03   1.0045881E+03   1.0045901E+03   1.0045944E+03   1.0046047E+03   1.0046258E+03   1.0046599E+03   1.0047040E+03   1.0052824E+03   1.0052821E+03   1.0052813E+03   1.0052814E+03   1.0052857E+03   1.0052981E+03   1.0053193E+03   1.0053457E+03   1.0072758E+03   1.0072743E+03   1.0072692E+03   1.0072624E+03   1.0072547E+03   1.0072495E+03   1.0072460E+03   1.0072390E+03   1.0112816E+03   1.0112786E+03   1.0112682E+03   1.0112510E+03   1.0112275E+03   1.0111971E+03   1.0111591E+03   1.0111086E+03   1.0160710E+03   1.0160665E+03   1.0160518E+03   1.0160245E+03   1.0159831E+03   1.0159268E+03   1.0158547E+03   1.0157645E+03   1.0186425E+03   1.0186371E+03   1.0186204E+03   1.0185870E+03   1.0185337E+03   1.0184600E+03   1.0183665E+03   1.0182565E+03   1.0180746E+03   1.0180706E+03   1.0180555E+03   1.0180236E+03   1.0179700E+03   1.0178948E+03   1.0178045E+03   1.0177078E+03   1.0158839E+03   1.0158828E+03   1.0158756E+03   1.0158549E+03   1.0158152E+03   1.0157590E+03   1.0156979E+03   1.0156494E+03   1.0138116E+03   1.0138151E+03   1.0138212E+03   1.0138211E+03   1.0138088E+03   1.0137885E+03   1.0137755E+03   1.0137945E+03   1.0127539E+03   1.0127629E+03   1.0127857E+03   1.0128118E+03   1.0128336E+03   1.0128548E+03   1.0128923E+03   1.0129727E+03   1.0126884E+03   1.0127031E+03   1.0127418E+03   1.0127914E+03   1.0128431E+03   1.0128978E+03   1.0129703E+03   1.0130875E+03   1.0132315E+03   1.0132493E+03   1.0132974E+03   1.0133614E+03   1.0134283E+03   1.0134962E+03   1.0135773E+03   1.0136962E+03   1.0140029E+03   1.0140212E+03   1.0140700E+03   1.0141334E+03   1.0141964E+03   1.0142534E+03   1.0143146E+03   1.0144022E+03   1.0144778E+03   1.0144935E+03   1.0145341E+03   1.0145831E+03   1.0146237E+03   1.0146493E+03   1.0146682E+03   1.0147028E+03   1.0147066E+03   1.0147173E+03   1.0147435E+03   1.0147676E+03   1.0147744E+03   1.0147562E+03   1.0147231E+03   1.0146964E+03   1.0148835E+03   1.0148883E+03   1.0148969E+03   1.0148934E+03   1.0148623E+03   1.0147994E+03   1.0147147E+03   1.0146313E+03   1.0151191E+03   1.0151191E+03   1.0151118E+03   1.0150827E+03   1.0150198E+03   1.0149203E+03   1.0147955E+03   1.0146683E+03   1.0153449E+03   1.0153409E+03   1.0153234E+03   1.0152791E+03   1.0151965E+03   1.0150762E+03   1.0149294E+03   1.0147775E+03   1.0153715E+03   1.0153661E+03   1.0153449E+03   1.0152952E+03   1.0152084E+03   1.0150847E+03   1.0149371E+03   1.0147816E+03   1.0150352E+03   1.0150302E+03   1.0150101E+03   1.0149639E+03   1.0148841E+03   1.0147714E+03   1.0146379E+03   1.0144958E+03   1.0142946E+03   1.0142903E+03   1.0142734E+03   1.0142347E+03   1.0141666E+03   1.0140712E+03   1.0139594E+03   1.0138392E+03   1.0132276E+03   1.0132242E+03   1.0132105E+03   1.0131784E+03   1.0131221E+03   1.0130439E+03   1.0129526E+03   1.0128544E+03   1.0119804E+03   1.0119771E+03   1.0119644E+03   1.0119364E+03   1.0118887E+03   1.0118229E+03   1.0117466E+03   1.0116638E+03   1.0106996E+03   1.0106959E+03   1.0106829E+03   1.0106559E+03   1.0106129E+03   1.0105540E+03   1.0104852E+03   1.0104089E+03   1.0094943E+03   1.0094897E+03   1.0094754E+03   1.0094485E+03   1.0094063E+03   1.0093492E+03   1.0092797E+03   1.0091991E+03   1.0084197E+03   1.0084147E+03   1.0083989E+03   1.0083700E+03   1.0083259E+03   1.0082642E+03   1.0081857E+03   1.0080923E+03   1.0074880E+03   1.0074824E+03   1.0074645E+03   1.0074316E+03   1.0073802E+03   1.0073070E+03   1.0072120E+03   1.0071031E+03   1.0066874E+03   1.0066803E+03   1.0066575E+03   1.0066157E+03   1.0065504E+03   1.0064588E+03   1.0063468E+03   1.0062333E+03   1.0059882E+03   1.0059781E+03   1.0059471E+03   1.0058910E+03   1.0058081E+03   1.0057017E+03   1.0055873E+03   1.0054915E+03   1.0053572E+03   1.0053439E+03   1.0053032E+03   1.0052356E+03   1.0051448E+03   1.0050426E+03   1.0049513E+03   1.0048972E+03   1.0047799E+03   1.0047650E+03   1.0047217E+03   1.0046560E+03   1.0045788E+03   1.0045084E+03   1.0044666E+03   1.0044671E+03   1.0042742E+03   1.0042618E+03   1.0042275E+03   1.0041830E+03   1.0041448E+03   1.0041302E+03   1.0041471E+03   1.0041595E+03   1.0038750E+03   1.0038693E+03   1.0038568E+03   1.0038517E+03   1.0038674E+03   1.0038984E+03   1.0038934E+03   1.0037766E+03   1.0036192E+03   1.0036213E+03   1.0036310E+03   1.0036515E+03   1.0036599E+03   1.0036030E+03   1.0034643E+03   1.0032518E+03   1.0033697E+03   1.0033657E+03   1.0033542E+03   1.0033248E+03   1.0032701E+03   1.0031645E+03   1.0030768E+03   1.0029532E+03   1.0030662E+03   1.0030736E+03   1.0030881E+03   1.0031002E+03   1.0031153E+03   1.0030701E+03   1.0031440E+03   1.0033112E+03   1.0033238E+03   1.0033559E+03   1.0033962E+03   1.0034382E+03   1.0003742E+03   1.0003615E+03   1.0003446E+03   1.0003225E+03   1.0002941E+03   1.0002584E+03   1.0002158E+03   1.0004355E+03   1.0004219E+03   1.0004039E+03   1.0003798E+03   1.0003483E+03   1.0003087E+03   1.0002606E+03   1.0002053E+03   1.0004843E+03   1.0004710E+03   1.0004528E+03   1.0004278E+03   1.0003950E+03   1.0003521E+03   1.0002992E+03   1.0002380E+03   1.0005293E+03   1.0005170E+03   1.0004993E+03   1.0004745E+03   1.0004398E+03   1.0003940E+03   1.0003364E+03   1.0002687E+03   1.0005780E+03   1.0005671E+03   1.0005501E+03   1.0005257E+03   1.0004896E+03   1.0004405E+03   1.0003777E+03   1.0003034E+03   1.0006359E+03   1.0006266E+03   1.0006111E+03   1.0005866E+03   1.0005499E+03   1.0004992E+03   1.0004331E+03   1.0003520E+03   1.0007047E+03   1.0006978E+03   1.0006840E+03   1.0006608E+03   1.0006269E+03   1.0005797E+03   1.0005153E+03   1.0004310E+03   1.0007839E+03   1.0007797E+03   1.0007687E+03   1.0007509E+03   1.0007255E+03   1.0006909E+03   1.0006406E+03   1.0005595E+03   1.0008720E+03   1.0008705E+03   1.0008646E+03   1.0008556E+03   1.0008470E+03   1.0008381E+03   1.0008192E+03   1.0007563E+03   1.0009675E+03   1.0009695E+03   1.0009690E+03   1.0009719E+03   1.0009857E+03   1.0010144E+03   1.0010457E+03   1.0010296E+03   1.0010696E+03   1.0010745E+03   1.0010790E+03   1.0010930E+03   1.0011295E+03   1.0011984E+03   1.0012906E+03   1.0013507E+03   1.0011776E+03   1.0011837E+03   1.0011914E+03   1.0012122E+03   1.0012637E+03   1.0013618E+03   1.0014982E+03   1.0015956E+03   1.0012913E+03   1.0012972E+03   1.0013043E+03   1.0013252E+03   1.0013776E+03   1.0014737E+03   1.0015810E+03   1.0016021E+03   1.0014116E+03   1.0014160E+03   1.0014201E+03   1.0014341E+03   1.0014724E+03   1.0015359E+03   1.0015776E+03   1.0015502E+03   1.0015410E+03   1.0015426E+03   1.0015429E+03   1.0015477E+03   1.0015651E+03   1.0015907E+03   1.0015900E+03   1.0015576E+03   1.0016813E+03   1.0016810E+03   1.0016773E+03   1.0016740E+03   1.0016744E+03   1.0016733E+03   1.0016553E+03   1.0016294E+03   1.0018367E+03   1.0018339E+03   1.0018275E+03   1.0018189E+03   1.0018094E+03   1.0017959E+03   1.0017723E+03   1.0017501E+03   1.0020094E+03   1.0020048E+03   1.0019958E+03   1.0019836E+03   1.0019698E+03   1.0019525E+03   1.0019286E+03   1.0019078E+03   1.0022009E+03   1.0021951E+03   1.0021843E+03   1.0021697E+03   1.0021532E+03   1.0021350E+03   1.0021110E+03   1.0020894E+03   1.0024127E+03   1.0024064E+03   1.0023945E+03   1.0023781E+03   1.0023594E+03   1.0023406E+03   1.0023155E+03   1.0022904E+03   1.0026456E+03   1.0026395E+03   1.0026270E+03   1.0026097E+03   1.0025894E+03   1.0025700E+03   1.0025437E+03   1.0025156E+03   1.0028994E+03   1.0028944E+03   1.0028826E+03   1.0028651E+03   1.0028445E+03   1.0028251E+03   1.0027984E+03   1.0027697E+03   1.0031732E+03   1.0031703E+03   1.0031608E+03   1.0031454E+03   1.0031263E+03   1.0031083E+03   1.0030827E+03   1.0030554E+03   1.0034647E+03   1.0034666E+03   1.0034614E+03   1.0034503E+03   1.0034363E+03   1.0034219E+03   1.0033985E+03   1.0033758E+03   1.0037618E+03   1.0037710E+03   1.0037736E+03   1.0037705E+03   1.0037667E+03   1.0037619E+03   1.0037419E+03   1.0037241E+03   1.0040438E+03   1.0040636E+03   1.0040765E+03   1.0040862E+03   1.0040993E+03   1.0041129E+03   1.0040988E+03   1.0040851E+03   1.0042851E+03   1.0043168E+03   1.0043421E+03   1.0043663E+03   1.0044034E+03   1.0044491E+03   1.0044457E+03   1.0044329E+03   1.0044579E+03   1.0045000E+03   1.0045352E+03   1.0045729E+03   1.0046379E+03   1.0047307E+03   1.0047473E+03   1.0047330E+03   1.0045720E+03   1.0046175E+03   1.0046546E+03   1.0046978E+03   1.0047878E+03   1.0049369E+03   1.0049855E+03   1.0049676E+03   1.0047488E+03   1.0047839E+03   1.0048075E+03   1.0048398E+03   1.0049392E+03   1.0051368E+03   1.0052200E+03   1.0051964E+03   1.0053671E+03   1.0053724E+03   1.0053616E+03   1.0053596E+03   1.0054396E+03   1.0056408E+03   1.0057358E+03   1.0056996E+03   1.0072186E+03   1.0071751E+03   1.0071086E+03   1.0070518E+03   1.0070840E+03   1.0072150E+03   1.0072271E+03   1.0071567E+03   1.0110369E+03   1.0109346E+03   1.0108066E+03   1.0106902E+03   1.0106266E+03   1.0105580E+03   1.0104135E+03   1.0102661E+03   1.0156490E+03   1.0155021E+03   1.0153325E+03   1.0151597E+03   1.0149353E+03   1.0146115E+03   1.0143318E+03   1.0141115E+03   1.0181280E+03   1.0179787E+03   1.0178136E+03   1.0176129E+03   1.0172558E+03   1.0168284E+03   1.0165310E+03   1.0162838E+03   1.0176122E+03   1.0175170E+03   1.0174101E+03   1.0172278E+03   1.0168749E+03   1.0165460E+03   1.0163909E+03   1.0162182E+03   1.0156293E+03   1.0156360E+03   1.0156359E+03   1.0155687E+03   1.0153880E+03   1.0153202E+03   1.0154124E+03   1.0153788E+03   1.0138673E+03   1.0140012E+03   1.0141705E+03   1.0143306E+03   1.0144559E+03   1.0146809E+03   1.0149218E+03   1.0149905E+03   1.0131231E+03   1.0133580E+03   1.0136669E+03   1.0140181E+03   1.0143966E+03   1.0148427E+03   1.0151736E+03   1.0152830E+03   1.0132780E+03   1.0135618E+03   1.0139420E+03   1.0143953E+03   1.0149042E+03   1.0154203E+03   1.0158271E+03   1.0159760E+03   1.0138816E+03   1.0141575E+03   1.0145362E+03   1.0149993E+03   1.0155189E+03   1.0160377E+03   1.0164850E+03   1.0166570E+03   1.0145444E+03   1.0147682E+03   1.0150923E+03   1.0154933E+03   1.0159459E+03   1.0164442E+03   1.0168959E+03   1.0170635E+03   1.0147807E+03   1.0149293E+03   1.0151710E+03   1.0154812E+03   1.0158480E+03   1.0163101E+03   1.0167355E+03   1.0168794E+03   1.0147042E+03   1.0147730E+03   1.0149237E+03   1.0151357E+03   1.0154088E+03   1.0158091E+03   1.0161845E+03   1.0162910E+03   1.0145746E+03   1.0145675E+03   1.0146262E+03   1.0147356E+03   1.0149032E+03   1.0152086E+03   1.0155004E+03   1.0155579E+03   1.0145594E+03   1.0144842E+03   1.0144517E+03   1.0144521E+03   1.0145002E+03   1.0146675E+03   1.0148278E+03   1.0148225E+03   1.0146350E+03   1.0145057E+03   1.0143876E+03   1.0142804E+03   1.0141934E+03   1.0141917E+03   1.0141697E+03   1.0140802E+03   1.0146261E+03   1.0144619E+03   1.0142736E+03   1.0140620E+03   1.0138567E+03   1.0136594E+03   1.0134414E+03   1.0132499E+03   1.0143449E+03   1.0141653E+03   1.0139289E+03   1.0136245E+03   1.0133082E+03   1.0129631E+03   1.0125555E+03   1.0122609E+03   1.0137039E+03   1.0135249E+03   1.0132639E+03   1.0128959E+03   1.0124760E+03   1.0120556E+03   1.0115114E+03   1.0111216E+03   1.0127380E+03   1.0125689E+03   1.0123038E+03   1.0119125E+03   1.0114296E+03   1.0109687E+03   1.0103736E+03   1.0099217E+03   1.0115628E+03   1.0114065E+03   1.0111537E+03   1.0107731E+03   1.0102839E+03   1.0098086E+03   1.0092472E+03   1.0087674E+03   1.0103140E+03   1.0101705E+03   1.0099441E+03   1.0096017E+03   1.0091548E+03   1.0086981E+03   1.0081785E+03   1.0076864E+03   1.0091014E+03   1.0089700E+03   1.0087802E+03   1.0084961E+03   1.0081216E+03   1.0077095E+03   1.0071656E+03   1.0065604E+03   1.0079877E+03   1.0078729E+03   1.0077287E+03   1.0075138E+03   1.0072435E+03   1.0069009E+03   1.0062984E+03   1.0055905E+03   1.0069985E+03   1.0069095E+03   1.0068171E+03   1.0066841E+03   1.0065317E+03   1.0062509E+03   1.0055659E+03   1.0061451E+03   1.0060940E+03   1.0060564E+03   1.0060045E+03   1.0059425E+03   1.0056172E+03   1.0049240E+03   1.0054394E+03   1.0054326E+03   1.0054350E+03   1.0054313E+03   1.0053514E+03   1.0048850E+03   1.0048934E+03   1.0049128E+03   1.0049048E+03   1.0048801E+03   1.0046077E+03   1.0041526E+03   1.0044866E+03   1.0044526E+03   1.0043541E+03   1.0041881E+03   1.0037792E+03   1.0040890E+03   1.0039207E+03   1.0036306E+03   1.0033914E+03   1.0035682E+03   1.0032668E+03   1.0028967E+03   1.0031508E+03   1.0030576E+03   1.0028495E+03   1.0029823E+03 
Mass 1 2975 float
  4.0000001E-01   4.0000001E-01   4.0000001E-01   4.0000001E-01   4.0000001E-01   4.0000001E-01   4.0000001E-01   4.0000001E-01   4.0000001E-01   4.0000001E-01   4.0000001E-01   4.0000001E-01   4.0000001E-01   4.0000001E-01   4.0000001E-01   4.0000001E-01   4.0000001E-01   4.0000001E-01   4.0000001E-01   4.0000001E-01   4.0000001E-01   4.0000001E-01   4.0000001E-01   4.0000001E-01   4.0000001E-01   4.0000001E-01   4.0000001E-01   4.0000001E-01   4.0000001E-01   4.0000001E-01   4.0000001E-01   4.0000001E-01   4.0000001E-01   4.0000001E-01   4.0000001E-01   4.0000001E-01   4.0000001E-01   4.0000001E-01   4.0000001E-01   4.0000001E-01   4.0000001E-01   4.0000001E-01   4.0000001E-01   4.0000001E-01   4.0000001E-01   4.0000001E-01   4.0000001E-01   4.0000001E-01   4.0000001E-01   4.0000001E-01   4.0000001E-01   4.0000001E-01   4.0000001E-01   4.0000001E-01   4.0000001E-01   4.0000001E-01   4.0000001E-01   4.0000001E-01   4.0000001E-01   4.0000001E-01   4.0000001E-01   4.0000001E-01   4.0000001E-01   4.0000001E-01   4.0000001E-01   4.0000001E-01   4.0000001E-01   4.0000001E-01   4.0000001E-01   4.0000001E-01   4.0000001E-01   4.0000001E-01   4.0000001E-01   4.0000001E-01   4.0000001E-01   4.0000001E-01   4.0000001E-01   4.0000001E-01   4.0000001E-01   4.0000001E-01   4.0000001E-01   4.0000001E-01   4.0000001E-01   4.0000001E-01   4.0000001E-01   4.0000001E-01   4.0000001E-01   4.0000001E-01   4.0000001E-01   4.0000001E-01   4.0000001E-01   4.0000001E-01   4.0000001E-01   4.0000001E-01   4.0000001E-01   4.0000001E-01   4.0000001E-01   4.0000001E-01   4.0000001E-01   4.0000001E-01   4.0000001E-01   4.0000001E-01   4.0000001E-01   4.0000001E-01   4.0000001E-01   4.0000001E-01   4.0000001E-01   4.0000001E-01   4.0000001E-01   4.0000001E-01   4.0000001E-01   4.0000001E-01   4.0000001E-01   4.0000001E-01   4.0000001E-01   4.0000001E-01   4.0000001E-01   4.0000001E-01   4.0000001E-01   4.0000001E-01   4.0000001E-01   4.0000001E-01   4.0000001E-01   4.0000001E-01   4.0000001E-01   4.0000001E-01   4.0000001E-01   4.0000001E-01   4.0000001E-01   4.0000001E-01   4.0000001E-01   4.0000001E-01   4.0000001E-01   4.0000001E-01   4.0000001E-01   4.0000001E-01   4.0000001E-01   4.0000001E-01   4.0000001E-01   4.0000001E-01   4.0000001E-01   4.0000001E-01   4.0000001E-01   4.0000001E-01   4.0000001E-01   4.0000001E-01   4.0000001E-01   4.0000001E-01   4.0000001E-01   4.0000001E-01   4.0000001E-01   4.0000001E-01   4.0000001E-01   4.0000001E-01   4.0000001E-01   4.0000001E-01   4.0000001E-01   4.0000001E-01   4.0000001E-01   4.0000001E-01   4.0000001E-01   4.0000001E-01   4.0000001E-01   4.0000001E-01   4.0000001E-01   4.0000001E-01   4.0000001E-01   4.0000001E-01   4.0000001E-01   4.0000001E-01   4.0000001E-01   4.0000001E-01   4.0000001E-01   4.0000001E-01   4.0000001E-01   4.0000001E-01   4.0000001E-01   4.0000001E-01   4.0000001E-01   4.0000001E-01   4.0000001E-01   4.0000001E-01   4.0000001E-01   4.0000001E-01   4.0000001E-01   4.0000001E-01   4.0000001E-01   4.0000001E-01   4.0000001E-01   4.0000001E-01   4.0000001E-01   4.0000001E-01   4.0000001E-01   4.0000001E-01   4.0000001E-01   4.0000001E-01   4.0000001E-01   4.0000001E-01   4.0000001E-01   4.0000001E-01   4.0000001E-01   4.0000001E-01   4.0000001E-01   4.0000001E-01   4.0000001E-01   4.0000001E-01   4.0000001E-01   4.0000001E-01   4.0000001E-01   4.0000001E-01   4.0000001E-01   4.0000001E-01   4.0000001E-01   4.0000001E-01   4.0000001E-01   4.0000001E-01   4.0000001E-01   4.0000001E-01   4.0000001E-01   4.0000001E-01   4.0000001E-01   4.0000001E-01   4.0000001E-01   4.0000001E-01   4.0000001E-01   4.0000001E-01   4.0000001E-01   4.0000001E-01   4.0000001E-01   4.0000001E-01   4.0000001E-01   4.0000001E-01   4.0000001E-01   4.0000001E-01   4.0000001E-01   4.0000001E-01   4.0000001E-01   4.0000001E-01   4.0000001E-01   4.0000001E-01   4.0000001E-01   4.0000001E-01   4.0000001E-01   4.0000001E-01   4.0000001E-01   4.0000001E-01   4.0000001E-01   4.0000001E-01   4.0000001E-01   4.0000001E-01   4.0000001E-01   4.0000001E-01   4.0000001E-01   4.0000001E-01   4.0000001E-01   4.0000001E-01   4.0000001E-01   4.0000001E-01   4.0000001E-01   4.0000001E-01   4.0000001E-01   4.0000001E-01   4.0000001E-01   4.0000001E-01   4.0000001E-01   4.0000001E-01   4.0000001E-01   4.0000001E-01   4.0000001E-01   4.0000001E-01   4.0000001E-01   4.0000001E-01   4.0000001E-01   4.0000001E-01   4.0000001E-01   4.0000001E-01   4.0000001E-01   4.0000001E-01   4.0000001E-01   4.0000001E-01   4.0000001E-01   4.0000001E-01   4.0000001E-01   4.0000001E-01   4.0000001E-01   4.0000001E-01   4.0000001E-01   4.0000001E-01   4.0000001E-01   4.0000001E-01   4.0000001E-01   4.0000001E-01   4.0000001E-01   4.0000001E-01   4.0000001E-01   4.0000001E-01   4.0000001E-01   4.0000001E-01   4.0000001E-01   4.0000001E-01   4.0000001E-01   4.0000001E-01   4.0000001E-01   4.0000001E-01   4.0000001E-01   4.0000001E-01   4.0000001E-01   4.0000001E-01   4.0000001E-01   4.0000001E-01   4.0000001E-01   4.0000001E-01   4.0000001E-01   4.0000001E-01   4.0000001E-01   4.0000001E-01   4.0000001E-01   4.0000001E-01   4.0000001E-01   4.0000001E-01   4.0000001E-01   4.0000001E-01   4.0000001E-01   4.0000001E-01   4.0000001E-01   4.0000001E-01   4.0000001E-01   4.0000001E-01   4.0000001E-01   4.0000001E-01   4.0000001E-01   4.0000001E-01   4.0000001E-01   4.0000001E-01   4.0000001E-01   4.0000001E-01   4.0000001E-01   4.0000001E-01   4.0000001E-01   4.0000001E-01   4.0000001E-01   4.0000001E-01   4.0000001E-01   4.0000001E-01   4.0000001E-01   4.0000001E-01   4.0000001E-01   4.0000001E-01   4.0000001E-01   4.0000001E-01   4.0000001E-01   4.0000001E-01   4.0000001E-01   4.0000001E-01   4.0000001E-01   4.0000001E-01   4.0000001E-01   4.0000001E-01   4.0000001E-01   4.0000001E-01   4.0000001E-01   4.0000001E-01   4.0000001E-01   4.0000001E-01   4.0000001E-01   4.0000001E-01   4.0000001E-01   4.0000001E-01   4.0000001E-01   4.0000001E-01   4.0000001E-01   4.0000001E-01   4.0000001E-01   4.0000001E-01   4.0000001E-01   4.0000001E-01   4.0000001E-01   4.0000001E-01   4.0000001E-01   4.0000001E-01   4.0000001E-01   4.0000001E-01   4.0000001E-01   4.0000001E-01   4.0000001E-01   4.0000001E-01   4.0000001E-01   4.0000001E-01   4.0000001E-01   4.0000001E-01   4.0000001E-01   4.0000001E-01   4.0000001E-01   4.0000001E-01   4.0000001E-01   4.0000001E-01   4.0000001E-01   4.0000001E-01   4.0000001E-01   4.0000001E-01   4.0000001E-01   4.0000001E-01   4.0000001E-01   4.0000001E-01   4.0000001E-01   4.0000001E-01   4.0000001E-01   4.0000001E-01   4.0000001E-01   4.0000001E-01   4.0000001E-01   4.0000001E-01   4.0000001E-01   4.0000001E-01   4.0000001E-01   4.0000001E-01   4.0000001E-01   4.0000001E-01   4.0000001E-01   4.0000001E-01   4.0000001E-01   4.0000001E-01   4.0000001E-01   4.0000001E-01   4.0000001E-01   4.0000001E-01   4.0000001E-01   4.0000001E-01   4.0000001E-01   4.0000001E-01   4.0000001E-01   4.0000001E-01   4.0000001E-01   4.0000001E-01   4.0000001E-01   4.0000001E-01   4.0000001E-01   4.0000001E-01   4.0000001E-01   4.0000001E-01   4.0000001E-01   4.0000001E-01   4.0000001E-01   4.0000001E-01   4.0000001E-01   4.0000001E-01   4.0000001E-01   4.0000001E-01   4.0000001E-01   4.0000001E-01   4.0000001E-01   4.0000001E-01   4.0000001E-01   4.0000001E-01   4.0000001E-01   4.0000001E-01   4.0000001E-01   4.0000001E-01   4.0000001E-01   4.0000001E-01   4.0000001E-01   4.0000001E-01   4.0000001E-01   4.0000001E-01   4.0000001E-01   4.0000001E-01   4.0000001E-01   4.0000001E-01   4.0000001E-01   4.0000001E-01   4.0000001E-01   4.0000001E-01   4.0000001E-01   4.0000001E-01   4.0000001E-01   4.0000001E-01   4.0000001E-01   4.0000001E-01   4.0000001E-01   4.0000001E-01   4.0000001E-01   4.0000001E-01   4.0000001E-01   4.0000001E-01   4.0000001E-01   4.0000001E-01   4.0000001E-01   4.0000001E-01   4.0000001E-01   4.0000001E-01   4.0000001E-01   4.0000001E-01   4.0000001E-01   4.0000001E-01   4.0000001E-01   4.0000001E-01   4.0000001E-01   4.0000001E-01   4.0000001E-01   4.0000001E-01   4.0000001E-01   4.0000001E-01   4.0000001E-01   4.0000001E-01   4.0000001E-01   4.0000001E-01   4.0000001E-01   4.0000001E-01   4.0000001E-01   4.0000001E-01   4.0000001E-01   4.0000001E-01   4.0000001E-01   4.0000001E-01   4.0000001E-01   4.0000001E-01   4.0000001E-01   4.0000001E-01   4.0000001E-01   4.0000001E-01   4.0000001E-01   4.0000001E-01   4.0000001E-01   4.0000001E-01   4.0000001E-01   4.0000001E-01   4.0000001E-01   4.0000001E-01   4.0000001E-01   4.0000001E-01   4.0000001E-01   4.0000001E-01   4.0000001E-01   4.0000001E-01   4.0000001E-01   4.0000001E-01   4.0000001E-01   4.0000001E-01   4.0000001E-01   4.0000001E-01   4.0000001E-01   4.0000001E-01   4.0000001E-01   4.0000001E-01   4.0000001E-01   4.0000001E-01   4.0000001E-01   4.0000001E-01   4.0000001E-01   4.0000001E-01   4.0000001E-01   4.0000001E-01   4.0000001E-01   4.0000001E-01   4.0000001E-01   4.0000001E-01   4.0000001E-01   4.0000001E-01   4.0000001E-01   4.0000001E-01   4.0000001E-01   4.0000001E-01   4.0000001E-01   4.0000001E-01   4.0000001E-01   4.0000001E-01   4.0000001E-01   4.0000001E-01   4.0000001E-01   4.0000001E-01   4.0000001E-01   4.0000001E-01   4.0000001E-01   4.0000001E-01   4.0000001E-01   4.0000001E-01   4.0000001E-01   4.0000001E-01   4.0000001E-01   4.0000001E-01   4.0000001E-01   4.0000001E-01   4.0000001E-01   4.0000001E-01   4.0000001E-01   4.0000001E-01   4.0000001E-01   4.0000001E-01   4.0000001E-01   4.0000001E-01   4.0000001E-01   4.0000001E-01   4.0000001E-01   4.0000001E-01   4.0000001E-01   4.0000001E-01   4.0000001E-01   4.0000001E-01   4.0000001E-01   4.0000001E-01   4.0000001E-01   4.0000001E-01   4.0000001E-01   4.0000001E-01   4.0000001E-01   4.0000001E-01   4.0000001E-01   4.0000001E-01   4.0000001E-01   4.0000001E-01   4.0000001E-01   4.0000001E-01   4.0000001E-01   4.0000001E-01   4.0000001E-01   4.0000001E-01   4.0000001E-01   4.0000001E-01   4.0000001E-01   4.0000001E-01   4.0000001E-01   4.0000001E-01   4.0000001E-01   4.0000001E-01   4.0000001E-01   4.0000001E-01   4.0000001E-01   4.0000001E-01   4.0000001E-01   4.0000001E-01   4.0000001E-01   4.0000001E-01   4.0000001E-01   4.0000001E-01   4.0000001E-01   4.0000001E-01   4.0000001E-01   4.0000001E-01   4.0000001E-01   4.0000001E-01   4.0000001E-01   4.0000001E-01   4.0000001E-01   4.0000001E-01   4.0000001E-01   4.0000001E-01   4.0000001E-01   4.0000001E-01   4.0000001E-01   4.0000001E-01   4.0000001E-01   4.0000001E-01   4.0000001E-01   4.0000001E-01   4.0000001E-01   4.0000001E-01   4.0000001E-01   4.0000001E-01   4.0000001E-01   4.0000001E-01   4.0000001E-01   4.0000001E-01   4.0000001E-01   4.0000001E-01   4.0000001E-01   4.0000001E-01   4.0000001E-01   4.0000001E-01   4.0000001E-01   4.0000001E-01   4.0000001E-01   4.0000001E-01   4.0000001E-01   4.0000001E-01   4.0000001E-01   4.0000001E-01   4.0000001E-01   4.0000001E-01   4.0000001E-01   4.0000001E-01   4.0000001E-01   4.0000001E-01   4.0000001E-01   4.0000001E-01   4.0000001E-01   4.0000001E-01   4.0000001E-01   4.0000001E-01   4.0000001E-01   4.0000001E-01   4.0000001E-01   4.0000001E-01   4.0000001E-01   4.0000001E-01   4.0000001E-01   4.0000001E-01   4.0000001E-01   4.0000001E-01   4.0000001E-01   4.0000001E-01   4.0000001E-01   4.0000001E-01   4.0000001E-01   4.0000001E-01   4.0000001E-01   4.0000001E-01   4.0000001E-01   4.0000001E-01   4.0000001E-01   4.0000001E-01   4.0000001E-01   4.0000001E-01   4.0000001E-01   4.0000001E-01   4.0000001E-01   4.0000001E-01   4.0000001E-01   4.0000001E-01   4.0000001E-01   4.0000001E-01   4.0000001E-01   4.0000001E-01   4.0000001E-01   4.0000001E-01   4.0000001E-01   4.0000001E-01   4.0000001E-01   4.0000001E-01   4.0000001E-01   4.0000001E-01   4.0000001E-01   4.0000001E-01   4.0000001E-01   4.0000001E-01   4.0000001E-01   4.0000001E-01   4.0000001E-01   4.0000001E-01   4.0000001E-01   4.0000001E-01   4.0000001E-01   4.0000001E-01   4.0000001E-01   4.0000001E-01   4.0000001E-01   4.0000001E-01   4.0000001E-01   4.0000001E-01   4.0000001E-01   4.0000001E-01   4.0000001E-01   4.0000001E-01   4.0000001E-01   4.0000001E-01   4.0000001E-01   4.0000001E-01   4.0000001E-01   4.0000001E-01   4.0000001E-01   4.0000001E-01   4.0000001E-01   4.0000001E-01   4.0000001E-01   4.0000001E-01   4.0000001E-01   4.0000001E-01   4.0000001E-01   4.0000001E-01   4.0000001E-01   4.0000001E-01   4.0000001E-01   4.0000001E-01   4.0000001E-01   4.0000001E-01   4.0000001E-01   4.0000001E-01   4.0000001E-01   4.0000001E-01   4.0000001E-01   4.0000001E-01   4.0000001E-01   4.0000001E-01   4.0000001E-01   4.0000001E-01   4.0000001E-01   4.0000001E-01   4.0000001E-01   4.0000001E-01   4.0000001E-01   4.0000001E-01   4.0000001E-01   4.0000001E-01   4.0000001E-01   4.0000001E-01   4.0000001E-01   4.0000001E-01   4.0000001E-01   4.0000001E-01   4.0000001E-01   4.0000001E-01   4.0000001E-01   4.0000001E-01   4.0000001E-01   4.0000001E-01   4.0000001E-01   4.0000001E-01   4.0000001E-01   4.0000001E-01   4.0000001E-01   4.0000001E-01   4.0000001E-01   4.0000001E-01   4.0000001E-01   4.0000001E-01   4.0000001E-01   4.0000001E-01   4.0000001E-01   4.0000001E-01   4.0000001E-01   4.0000001E-01   4.0000001E-01   4.0000001E-01   4.0000001E-01   4.0000001E-01   4.0000001E-01   4.0000001E-01   4.0000001E-01   4.0000001E-01   4.0000001E-01   4.0000001E-01   4.0000001E-01   4.0000001E-01   4.0000001E-01   4.0000001E-01   4.0000001E-01   4.0000001E-01   4.0000001E-01   4.0000001E-01   4.0000001E-01   4.0000001E-01   4.0000001E-01   4.0000001E-01   4.0000001E-01   4.0000001E-01   4.0000001E-01   4.0000001E-01   4.0000001E-01   4.0000001E-01   4.0000001E-01   4.0000001E-01   4.0000001E-01   4.0000001E-01   4.0000001E-01   4.0000001E-01   4.0000001E-01   4.0000001E-01   4.0000001E-01   4.0000001E-01   4.0000001E-01   4.0000001E-01   4.0000001E-01   4.0000001E-01   4.0000001E-01   4.0000001E-01   4.0000001E-01   4.0000001E-01   4.0000001E-01   4.0000001E-01   4.0000001E-01   4.0000001E-01   4.0000001E-01   4.0000001E-01   4.0000001E-01   4.0000001E-01   4.0000001E-01   4.0000001E-01   4.0000001E-01   4.0000001E-01   4.0000001E-01   4.0000001E-01   4.0000001E-01   4.0000001E-01   4.0000001E-01   4.0000001E-01   4.0000001E-01   4.0000001E-01   4.0000001E-01   4.0000001E-01   4.0000001E-01   4.0000001E-01   4.0000001E-01   4.0000001E-01   4.0000001E-01   4.0000001E-01   4.0000001E-01   4.0000001E-01   4.0000001E-01   4.0000001E-01   4.0000001E-01   4.0000001E-01   4.0000001E-01   4.0000001E-01   4.0000001E-01   4.0000001E-01   4.0000001E-01   4.0000001E-01   4.0000001E-01   4.0000001E-01   4.0000001E-01   4.0000001E-01   4.0000001E-01   4.0000001E-01   4.0000001E-01   4.0000001E-01   4.0000001E-01   4.0000001E-01   4.0000001E-01   4.0000001E-01   4.0000001E-01   4.0000001E-01   4.0000001E-01   4.0000001E-01   4.0000001E-01   4.0000001E-01   4.0000001E-01   4.0000001E-01   4.0000001E-01   4.0000001E-01   4.0000001E-01   4.0000001E-01   4.0000001E-01   4.0000001E-01   4.0000001E-01   4.0000001E-01   4.0000001E-01   4.0000001E-01   4.0000001E-01   4.0000001E-01   4.0000001E-01   4.0000001E-01   4.0000001E-01   4.0000001E-01   4.0000001E-01   4.0000001E-01   4.0000001E-01   4.0000001E-01   4.0000001E-01   4.0000001E-01   4.0000001E-01   4.0000001E-01   4.0000001E-01   4.0000001E-01   4.0000001E-01   4.0000001E-01   4.0000001E-01   4.0000001E-01   4.0000001E-01   4.0000001E-01   4.0000001E-01   4.0000001E-01   4.0000001E-01   4.0000001E-01   4.0000001E-01   4.0000001E-01   4.0000001E-01   4.0000001E-01   4.0000001E-01   4.0000001E-01   4.0000001E-01   4.0000001E-01   4.0000001E-01   4.0000001E-01   4.0000001E-01   4.0000001E-01   4.0000001E-01   4.0000001E-01   4.0000001E-01   4.0000001E-01   4.0000001E-01   4.0000001E-01   4.0000001E-01   4.0000001E-01   4.0000001E-01   4.0000001E-01   4.0000001E-01   4.0000001E-01   4.0000001E-01   4.0000001E-01   4.0000001E-01   4.0000001E-01   4.0000001E-01   4.0000001E-01   4.0000001E-01   4.0000001E-01   4.0000001E-01   4.0000001E-01   4.0000001E-01   4.0000001E-01   4.0000001E-01   4.0000001E-01   4.0000001E-01   4.0000001E-01   4.0000001E-01   4.0000001E-01   4.0000001E-01   4.0000001E-01   4.0000001E-01   4.0000001E-01   4.0000001E-01   4.0000001E-01   4.0000001E-01   4.0000001E-01   4.0000001E-01   4.0000001E-01   4.0000001E-01   4.0000001E-01   4.0000001E-01   4.0000001E-01   4.0000001E-01   4.0000001E-01   4.0000001E-01   4.0000001E-01   4.0000001E-01   4.0000001E-01   4.0000001E-01   4.0000001E-01   4.0000001E-01   4.0000001E-01   4.0000001E-01   4.0000001E-01   4.0000001E-01   4.0000001E-01   4.0000001E-01   4.0000001E-01   4.0000001E-01   4.0000001E-01   4.0000001E-01   4.0000001E-01   4.0000001E-01   4.0000001E-01   4.0000001E-01   4.0000001E-01   4.0000001E-01   4.0000001E-01   4.0000001E-01   4.0000001E-01   4.0000001E-01   4.0000001E-01   4.0000001E-01   4.0000001E-01   4.0000001E-01   4.0000001E-01   4.0000001E-01   4.0000001E-01   4.0000001E-01   4.0000001E-01   4.0000001E-01   4.0000001E-01   4.0000001E-01   4.0000001E-01   4.0000001E-01   4.0000001E-01   4.0000001E-01   4.0000001E-01   4.0000001E-01   4.0000001E-01   4.0000001E-01   4.0000001E-01   4.0000001E-01   4.0000001E-01   4.0000001E-01   4.0000001E-01   4.0000001E-01   4.0000001E-01   4.0000001E-01   4.0000001E-01   4.0000001E-01   4.0000001E-01   4.0000001E-01   4.0000001E-01   4.0000001E-01   4.0000001E-01   4.0000001E-01   4.0000001E-01   4.0000001E-01   4.0000001E-01   4.0000001E-01   4.0000001E-01   4.0000001E-01   4.0000001E-01   4.0000001E-01   4.0000001E-01   4.0000001E-01   4.0000001E-01   4.0000001E-01   4.0000001E-01   4.0000001E-01   4.0000001E-01   4.0000001E-01   4.0000001E-01   4.0000001E-01   4.0000001E-01   4.0000001E-01   4.0000001E-01   4.0000001E-01   4.0000001E-01   4.0000001E-01   4.0000001E-01   4.0000001E-01   4.0000001E-01   4.0000001E-01   4.0000001E-01   4.0000001E-01   4.0000001E-01   4.0000001E-01   4.0000001E-01   4.0000001E-01   4.0000001E-01   4.0000001E-01   4.0000001E-01   4.0000001E-01   4.0000001E-01   4.0000001E-01   4.0000001E-01   4.0000001E-01   4.0000001E-01   4.0000001E-01   4.0000001E-01   4.0000001E-01   4.0000001E-01   4.0000001E-01   4.0000001E-01   4.0000001E-01   4.0000001E-01   4.0000001E-01   4.0000001E-01   4.0000001E-01   4.0000001E-01   4.0000001E-01   4.0000001E-01   4.0000001E-01   4.0000001E-01   4.0000001E-01   4.0000001E-01   4.0000001E-01   4.0000001E-01   4.0000001E-01   4.0000001E-01   4.0000001E-01   4.0000001E-01   4.0000001E-01   4.0000001E-01   4.0000001E-01   4.0000001E-01   4.0000001E-01   4.0000001E-01   4.0000001E-01   4.0000001E-01   4.0000001E-01   4.0000001E-01   4.0000001E-01   4.0000001E-01   4.0000001E-01   4.0000001E-01   4.0000001E-01   4.0000001E-01   4.0000001E-01   4.0000001E-01   4.0000090E-01   4.0000105E-01   4.0000102E-01   4.0000090E-01   4.0000099E-01   4.0000108E-01   4.0000269E-01   4.0000263E-01   4.0000287E-01   4.0000260E-01   4.0000272E-01   4.0000269E-01   4.0000668E-01   4.0000677E-01   4.0000677E-01   4.0000680E-01   4.0000671E-01   4.0000686E-01   4.0001830E-01   4.0001833E-01   4.0001816E-01   4.0001827E-01   4.0001824E-01   4.0001827E-01   4.0004918E-01   4.0004918E-01   4.0004918E-01   4.0004912E-01   4.0004924E-01   4.0004921E-01   4.0013221E-01   4.0013218E-01   4.0013218E-01   4.0013221E-01   4.0013242E-01   4.0013233E-01   4.0035227E-01   4.0035248E-01   4.0035251E-01   4.0035248E-01   4.0035266E-01   4.0035281E-01   4.0091130E-01   4.0091172E-01   4.0091211E-01   4.0091243E-01   4.0091285E-01   4.0091294E-01   4.0219674E-01   4.0219784E-01   4.0219876E-01   4.0219945E-01   4.0220025E-01   4.0220070E-01   4.0457711E-01   4.0457916E-01   4.0458032E-01   4.0458128E-01   4.0458232E-01   4.0458322E-01   4.0762308E-01   4.0762490E-01   4.0762535E-01   4.0762529E-01   4.0762556E-01   4.0762615E-01   4.1010416E-01   4.1010424E-01   4.1010353E-01   4.1010201E-01   4.1010064E-01   4.1010019E-01   4.1148669E-01   4.1148481E-01   4.1148341E-01   4.1148120E-01   4.1147891E-01   4.1147768E-01   4.1209739E-01   4.1209683E-01   4.1209608E-01   4.1209379E-01   4.1209173E-01   4.1209060E-01   4.1233721E-01   4.1233748E-01   4.1233778E-01   4.1233692E-01   4.1233590E-01   4.1233528E-01   4.1242519E-01   4.1242614E-01   4.1242683E-01   4.1242695E-01   4.1242701E-01   4.1242683E-01   4.1245520E-01   4.1245645E-01   4.1245717E-01   4.1245776E-01   4.1245821E-01   4.1245851E-01   4.1246307E-01   4.1246450E-01   4.1246510E-01   4.1246572E-01   4.1246644E-01   4.1246679E-01   4.1244543E-01   4.1244689E-01   4.1244769E-01   4.1244817E-01   4.1244847E-01   4.1244861E-01   4.1224316E-01   4.1224444E-01   4.1224492E-01   4.1224512E-01   4.1224509E-01   4.1224504E-01   4.1184497E-01   4.1184559E-01   4.1184571E-01   4.1184568E-01   4.1184527E-01   4.1184521E-01   4.1127306E-01   4.1127294E-01   4.1127262E-01   4.1127217E-01   4.1127130E-01   4.1127101E-01   4.1055855E-01   4.1055772E-01   4.1055694E-01   4.1055581E-01   4.1055471E-01   4.1055423E-01   4.0973914E-01   4.0973783E-01   4.0973619E-01   4.0973476E-01   4.0973336E-01   4.0973258E-01   4.0885463E-01   4.0885279E-01   4.0885094E-01   4.0884903E-01   4.0884817E-01   4.0884757E-01   4.0794441E-01   4.0794227E-01   4.0794015E-01   4.0793851E-01   4.0793791E-01   4.0793756E-01   4.0704322E-01   4.0704095E-01   4.0703905E-01   4.0703803E-01   4.0703759E-01   4.0703726E-01   4.0618035E-01   4.0617847E-01   4.0617681E-01   4.0617618E-01   4.0617603E-01   4.0617594E-01   4.0537849E-01   4.0537730E-01   4.0537667E-01   4.0537640E-01   4.0537620E-01   4.0537637E-01   4.0465412E-01   4.0465370E-01   4.0465370E-01   4.0465391E-01   4.0465397E-01   4.0465412E-01   4.0401730E-01   4.0401730E-01   4.0401748E-01   4.0401787E-01   4.0401819E-01   4.0401864E-01   4.0347126E-01   4.0347129E-01   4.0347144E-01   4.0347201E-01   4.0347233E-01   4.0347302E-01   4.0301368E-01   4.0301362E-01   4.0301418E-01   4.0301472E-01   4.0301511E-01   4.0263861E-01   4.0263873E-01   4.0263909E-01   4.0263939E-01   4.0263987E-01   4.0233818E-01   4.0233815E-01   4.0233859E-01   4.0233901E-01   4.0210262E-01   4.0210259E-01   4.0210268E-01   4.0210304E-01   4.0192166E-01   4.0192169E-01   4.0192184E-01   4.0178573E-01   4.0178561E-01   4.0168521E-01   4.0168551E-01   4.0000001E-01   4.0000001E-01   4.0000001E-01   4.0000001E-01   4.0000001E-01   4.0000001E-01   4.0000001E-01   4.0000001E-01   4.0000001E-01   4.0000001E-01   4.0000001E-01   4.0000001E-01   4.0000001E-01   4.0000001E-01   4.0000001E-01   4.0000001E-01   4.0000001E-01   4.0000001E-01   4.0000001E-01   4.0000001E-01   4.0000001E-01   4.0000001E-01   4.0000001E-01   4.0000001E-01   4.0000001E-01   4.0000001E-01   4.0000001E-01   4.0000001E-01   4.0000001E-01   4.0000001E-01   4.0000001E-01   4.0000001E-01   4.0000001E-01   4.0000001E-01   4.0000001E-01   4.0000001E-01   4.0000001E-01   4.0000001E-01   4.0000001E-01   4.0000001E-01   4.0000001E-01   4.0000001E-01   4.0000001E-01   4.0000001E-01   4.0000001E-01   4.0000001E-01   4.0000001E-01   4.0000001E-01   4.0000001E-01   4.0000001E-01   4.0000001E-01   4.0000001E-01   4.0000001E-01   4.0000001E-01   4.0000001E-01   4.0000001E-01   4.0000001E-01   4.0000001E-01   4.0000001E-01   4.0000001E-01   4.0000001E-01   4.0000001E-01   4.0000001E-01   4.0000001E-01   4.0000001E-01   4.0000001E-01   4.0000001E-01   4.0000001E-01   4.0000001E-01   4.0000001E-01   4.0000001E-01   4.0000001E-01   4.0000001E-01   4.0000001E-01   4.0000001E-01   4.0000001E-01   4.0000001E-01   4.0000001E-01   4.0000001E-01   4.0000001E-01   4.0000001E-01   4.0000001E-01   4.0000001E-01   4.0000001E-01   4.0000001E-01   4.0000001E-01   4.0000001E-01   4.0000001E-01   4.0000001E-01   4.0000001E-01   4.0000001E-01   4.0000001E-01   4.0000001E-01   4.0000001E-01   4.0000001E-01   4.0000001E-01   4.0000001E-01   4.0000001E-01   4.0000001E-01   4.0000001E-01   4.0000001E-01   4.0000001E-01   4.0000001E-01   4.0000001E-01   4.0000001E-01   4.0000001E-01   4.0000001E-01   4.0000001E-01   4.0000001E-01   4.0000001E-01   4.0000001E-01   4.0000001E-01   4.0000001E-01   4.0000001E-01   4.0000001E-01   4.0000001E-01   4.0000001E-01   4.0000001E-01   4.0000001E-01   4.0000001E-01   4.0000001E-01   4.0000001E-01   4.0000001E-01   4.0000001E-01   4.0000001E-01   4.0000001E-01   4.0000001E-01   4.0000001E-01   4.0000001E-01   4.0000001E-01   4.0000001E-01   4.0000001E-01   4.0000001E-01   4.0000001E-01   4.0000001E-01   4.0000001E-01   4.0000001E-01   4.0000001E-01   4.0000001E-01   4.0000001E-01   4.0000001E-01   4.0000001E-01   4.0000001E-01   4.0000001E-01   4.0000001E-01   4.0000001E-01   4.0000001E-01   4.0000001E-01   4.0000001E-01   4.0000001E-01   4.0000001E-01   4.0000001E-01   4.0000001E-01   4.0000001E-01   4.0000001E-01   4.0000001E-01   4.0000001E-01   4.0000001E-01   4.0000001E-01   4.0000001E-01   4.0000001E-01   4.0000001E-01   4.0000001E-01   4.0000001E-01   4.0000001E-01   4.0000001E-01   4.0000001E-01   4.0000001E-01   4.0000001E-01   4.0000001E-01   4.0000001E-01   4.0000001E-01   4.0000001E-01   4.0000001E-01   4.0000001E-01   4.0000001E-01   4.0000001E-01   4.0000001E-01   4.0000001E-01   4.0000001E-01   4.0000001E-01   4.0000001E-01   4.0000001E-01   4.0000001E-01   4.0000001E-01   4.0000001E-01   4.0000001E-01   4.0000001E-01   4.0000001E-01   4.0000001E-01   4.0000001E-01   4.0000001E-01   4.0000001E-01   4.0000001E-01   4.0000001E-01   4.0000001E-01   4.0000001E-01   4.0000001E-01   4.0000001E-01   4.0000001E-01   4.0000001E-01   4.0000001E-01   4.0000001E-01   4.0000001E-01   4.0000001E-01   4.0000001E-01   4.0000001E-01   4.0000102E-01   4.0000096E-01   4.0000108E-01   4.0000099E-01   4.0000096E-01   4.0000093E-01   4.0000093E-01   4.0000093E-01   4.0000096E-01   4.0000281E-01   4.0000278E-01   4.0000281E-01   4.0000275E-01   4.0000290E-01   4.0000260E-01   4.0000296E-01   4.0000269E-01   4.0000272E-01   4.0000680E-01   4.0000659E-01   4.0000674E-01   4.0000659E-01   4.0000659E-01   4.0000668E-01   4.0000665E-01   4.0000677E-01   4.0000677E-01   4.0001824E-01   4.0001833E-01   4.0001842E-01   4.0001827E-01   4.0001833E-01   4.0001822E-01   4.0001839E-01   4.0001833E-01   4.0001827E-01   4.0004909E-01   4.0004933E-01   4.0004894E-01   4.0004915E-01   4.0004927E-01   4.0004933E-01   4.0004927E-01   4.0004933E-01   4.0004921E-01   4.0013221E-01   4.0013251E-01   4.0013239E-01   4.0013245E-01   4.0013257E-01   4.0013245E-01   4.0013266E-01   4.0013281E-01   4.0013263E-01   4.0035295E-01   4.0035284E-01   4.0035304E-01   4.0035307E-01   4.0035322E-01   4.0035325E-01   4.0035337E-01   4.0035346E-01   4.0035334E-01   4.0091309E-01   4.0091345E-01   4.0091366E-01   4.0091383E-01   4.0091398E-01   4.0091446E-01   4.0091464E-01   4.0091455E-01   4.0091479E-01   4.0220124E-01   4.0220201E-01   4.0220267E-01   4.0220287E-01   4.0220356E-01   4.0220395E-01   4.0220430E-01   4.0220439E-01   4.0220472E-01   4.0458417E-01   4.0458497E-01   4.0458587E-01   4.0458658E-01   4.0458748E-01   4.0458816E-01   4.0458861E-01   4.0458897E-01   4.0458924E-01   4.0762660E-01   4.0762743E-01   4.0762815E-01   4.0762851E-01   4.0762925E-01   4.0762982E-01   4.0763044E-01   4.0763083E-01   4.0763086E-01   4.1009992E-01   4.1009977E-01   4.1009971E-01   4.1009969E-01   4.1009977E-01   4.1009983E-01   4.1010010E-01   4.1010016E-01   4.1010016E-01   4.1147685E-01   4.1147605E-01   4.1147533E-01   4.1147485E-01   4.1147420E-01   4.1147420E-01   4.1147390E-01   4.1147378E-01   4.1147357E-01   4.1208962E-01   4.1208863E-01   4.1208795E-01   4.1208717E-01   4.1208649E-01   4.1208634E-01   4.1208568E-01   4.1208532E-01   4.1208515E-01   4.1233447E-01   4.1233394E-01   4.1233307E-01   4.1233242E-01   4.1233173E-01   4.1233122E-01   4.1233072E-01   4.1233033E-01   4.1233033E-01   4.1242638E-01   4.1242597E-01   4.1242555E-01   4.1242492E-01   4.1242430E-01   4.1242376E-01   4.1242328E-01   4.1242307E-01   4.1242290E-01   4.1245830E-01   4.1245809E-01   4.1245776E-01   4.1245714E-01   4.1245675E-01   4.1245618E-01   4.1245583E-01   4.1245574E-01   4.1245544E-01   4.1246673E-01   4.1246647E-01   4.1246608E-01   4.1246548E-01   4.1246504E-01   4.1246471E-01   4.1246441E-01   4.1246420E-01   4.1246390E-01   4.1244870E-01   4.1244814E-01   4.1244769E-01   4.1244724E-01   4.1244671E-01   4.1244644E-01   4.1244620E-01   4.1244593E-01   4.1244584E-01   4.1224492E-01   4.1224432E-01   4.1224378E-01   4.1224334E-01   4.1224292E-01   4.1224268E-01   4.1224211E-01   4.1224197E-01   4.1224197E-01   4.1184479E-01   4.1184407E-01   4.1184345E-01   4.1184306E-01   4.1184255E-01   4.1184220E-01   4.1184190E-01   4.1184163E-01   4.1184169E-01   4.1127044E-01   4.1126966E-01   4.1126937E-01   4.1126880E-01   4.1126829E-01   4.1126785E-01   4.1126755E-01   4.1126755E-01   4.1126737E-01   4.1055363E-01   4.1055301E-01   4.1055262E-01   4.1055223E-01   4.1055170E-01   4.1055125E-01   4.1055110E-01   4.1055104E-01   4.1055116E-01   4.0973222E-01   4.0973201E-01   4.0973157E-01   4.0973136E-01   4.0973115E-01   4.0973097E-01   4.0973061E-01   4.0973070E-01   4.0973055E-01   4.0884730E-01   4.0884724E-01   4.0884715E-01   4.0884709E-01   4.0884706E-01   4.0884697E-01   4.0884694E-01   4.0884694E-01   4.0884697E-01   4.0793753E-01   4.0793741E-01   4.0793747E-01   4.0793765E-01   4.0793771E-01   4.0793774E-01   4.0793782E-01   4.0793794E-01   4.0793777E-01   4.0703735E-01   4.0703750E-01   4.0703776E-01   4.0703791E-01   4.0703806E-01   4.0703830E-01   4.0703827E-01   4.0703836E-01   4.0703848E-01   4.0617612E-01   4.0617633E-01   4.0617666E-01   4.0617678E-01   4.0617719E-01   4.0617728E-01   4.0617740E-01   4.0617749E-01   4.0617761E-01   4.0537658E-01   4.0537688E-01   4.0537709E-01   4.0537751E-01   4.0537772E-01   4.0537801E-01   4.0537801E-01   4.0537819E-01   4.0537828E-01   4.0465465E-01   4.0465489E-01   4.0465495E-01   4.0465522E-01   4.0465549E-01   4.0465569E-01   4.0465587E-01   4.0465596E-01   4.0465593E-01   4.0401894E-01   4.0401924E-01   4.0401947E-01   4.0401977E-01   4.0401980E-01   4.0402001E-01   4.0402022E-01   4.0402028E-01   4.0402025E-01   4.0347320E-01   4.0347371E-01   4.0347394E-01   4.0347403E-01   4.0347406E-01   4.0347427E-01   4.0347427E-01   4.0347451E-01   4.0347448E-01   4.0301543E-01   4.0301600E-01   4.0301612E-01   4.0301612E-01   4.0301621E-01   4.0301642E-01   4.0301645E-01   4.0301657E-01   4.0301666E-01   4.0264031E-01   4.0264079E-01   4.0264076E-01   4.0264112E-01   4.0264106E-01   4.0264121E-01   4.0264130E-01   4.0264118E-01   4.0264115E-01   4.0233955E-01   4.0233967E-01   4.0233999E-01   4.0234008E-01   4.0234002E-01   4.0234017E-01   4.0234014E-01   4.0234017E-01   4.0234008E-01   4.0210336E-01   4.0210375E-01   4.0210402E-01   4.0210402E-01   4.0210396E-01   4.0210402E-01   4.0210393E-01   4.0210396E-01   4.0210396E-01   4.0192211E-01   4.0192202E-01   4.0192249E-01   4.0192258E-01   4.0192258E-01   4.0192264E-01   4.0192249E-01   4.0192273E-01   4.0192258E-01   4.0178561E-01   4.0178567E-01   4.0178579E-01   4.0178594E-01   4.0178603E-01   4.0178609E-01   4.0178615E-01   4.0178600E-01   4.0178603E-01   4.0168527E-01   4.0168527E-01   4.0168518E-01   4.0168527E-01   4.0168542E-01   4.0168542E-01   4.0168539E-01   4.0168551E-01   4.0168551E-01   4.0161294E-01   4.0161279E-01   4.0161294E-01   4.0161288E-01   4.0161273E-01   4.0161270E-01   4.0161273E-01   4.0161270E-01   4.0161288E-01   4.0156150E-01   4.0156156E-01   4.0156150E-01   4.0156150E-01   4.0156138E-01   4.0156150E-01   4.0156159E-01   4.0156147E-01   4.0152574E-01   4.0152583E-01   4.0152580E-01   4.0152586E-01   4.0152586E-01   4.0152586E-01   4.0150127E-01   4.0150133E-01   4.0150157E-01   4.0150151E-01   4.0000001E-01   4.0000001E-01   4.0000001E-01   4.0000001E-01   4.0000001E-01   4.0000001E-01   4.0000001E-01   4.0000001E-01   4.0000001E-01   4.0000001E-01   4.0000001E-01   4.0000001E-01   4.0000001E-01   4.0000001E-01   4.0000001E-01   4.0000001E-01   4.0000001E-01   4.0000001E-01   4.0000001E-01   4.0000001E-01   4.0000001E-01   4.0000001E-01   4.0000001E-01   4.0000001E-01   4.0000001E-01   4.0000001E-01   4.0000001E-01   4.0000001E-01   4.0000001E-01   4.0000001E-01   4.0000001E-01   4.0000001E-01   4.0000001E-01   4.0000001E-01   4.0000001E-01   4.0000001E-01   4.0000001E-01   4.0000001E-01   4.0000001E-01   4.0000001E-01   4.0000001E-01   4.0000001E-01   4.0000001E-01   4.0000001E-01   4.0000001E-01   4.0000001E-01   4.0000001E-01   4.0000001E-01   4.0000001E-01   4.0000001E-01   4.0000001E-01   4.0000001E-01   4.0000001E-01   4.0000001E-01   4.0000001E-01   4.0000001E-01   4.0000001E-01   4.0000001E-01   4.0000001E-01   4.0000001E-01   4.0000001E-01   4.0000001E-01   4.0000001E-01   4.0000001E-01   4.0000001E-01   4.0000001E-01   4.0000001E-01   4.0000001E-01   4.0000001E-01   4.0000001E-01   4.0000001E-01   4.0000001E-01   4.0000001E-01   4.0000001E-01   4.0000001E-01   4.0000001E-01   4.0000001E-01   4.0000001E-01   4.0000001E-01   4.0000001E-01   4.0000001E-01   4.0000001E-01   4.0000001E-01   4.0000001E-01   4.0000001E-01   4.0000001E-01   4.0000001E-01   4.0000001E-01   4.0000001E-01   4.0000001E-01   4.0000001E-01   4.0000001E-01   4.0000001E-01   4.0000001E-01   4.0000001E-01   4.0000001E-01   4.0000001E-01   4.0000001E-01   4.0000001E-01   4.0000001E-01   4.0000001E-01   4.0000001E-01   4.0000001E-01   4.0000001E-01   4.0000001E-01   4.0000001E-01   4.0000001E-01   4.0000001E-01   4.0000001E-01   4.0000001E-01   4.0000001E-01   4.0000001E-01   4.0000001E-01   4.0000001E-01   4.0000001E-01   4.0000001E-01   4.0000001E-01   4.0000001E-01   4.0000001E-01   4.0000001E-01   4.0000001E-01   4.0000001E-01   4.0000001E-01   4.0000001E-01   4.0000001E-01   4.0000001E-01   4.0000001E-01   4.0000001E-01   4.0000001E-01   4.0000001E-01   4.0000001E-01   4.0000001E-01   4.0000001E-01   4.0000001E-01   4.0000001E-01   4.0000001E-01   4.0000001E-01   4.0000001E-01   4.0000001E-01   4.0000001E-01   4.0000001E-01   4.0000001E-01   4.0000001E-01   4.0000001E-01   4.0000001E-01   4.0000001E-01   4.0000001E-01   4.0000001E-01   4.0000001E-01   4.0000001E-01   4.0000001E-01   4.0000001E-01   4.0000001E-01   4.0000001E-01   4.0000001E-01   4.0000001E-01   4.0000001E-01   4.0000001E-01   4.0000001E-01   4.0000001E-01   4.0000001E-01   4.0000001E-01   4.0000001E-01   4.0000001E-01   4.0000001E-01   4.0000001E-01   4.0000001E-01   4.0000001E-01   4.0000001E-01   4.0000001E-01   4.0000001E-01   4.0000001E-01   4.0000001E-01   4.0000001E-01   4.0000001E-01   4.0000001E-01   4.0000001E-01   4.0000001E-01   4.0000001E-01   4.0000001E-01   4.0000001E-01   4.0000001E-01   4.0000001E-01   4.0000001E-01   4.0000105E-01   4.0000096E-01   4.0000093E-01   4.0000093E-01   4.0000093E-01   4.0000096E-01   4.0000099E-01   4.0000108E-01   4.0000284E-01   4.0000272E-01   4.0000269E-01   4.0000296E-01   4.0000260E-01   4.0000290E-01   4.0000275E-01   4.0000281E-01   4.0000680E-01   4.0000677E-01   4.0000677E-01   4.0000665E-01   4.0000668E-01   4.0000659E-01   4.0000659E-01   4.0000674E-01   4.0001830E-01   4.0001827E-01   4.0001833E-01   4.0001839E-01   4.0001822E-01   4.0001833E-01   4.0001827E-01   4.0001842E-01   4.0004924E-01   4.0004921E-01   4.0004933E-01   4.0004927E-01   4.0004930E-01   4.0004927E-01   4.0004915E-01   4.0004894E-01   4.0013257E-01   4.0013263E-01   4.0013281E-01   4.0013266E-01   4.0013245E-01   4.0013257E-01   4.0013245E-01   4.0013239E-01   4.0035343E-01   4.0035334E-01   4.0035346E-01   4.0035337E-01   4.0035325E-01   4.0035322E-01   4.0035307E-01   4.0035304E-01   4.0091485E-01   4.0091479E-01   4.0091455E-01   4.0091464E-01   4.0091446E-01   4.0091398E-01   4.0091383E-01   4.0091366E-01   4.0220466E-01   4.0220472E-01   4.0220439E-01   4.0220430E-01   4.0220395E-01   4.0220356E-01   4.0220287E-01   4.0220267E-01   4.0458941E-01   4.0458924E-01   4.0458897E-01   4.0458861E-01   4.0458816E-01   4.0458748E-01   4.0458658E-01   4.0458587E-01   4.0763095E-01   4.0763086E-01   4.0763083E-01   4.0763044E-01   4.0762982E-01   4.0762928E-01   4.0762851E-01   4.0762815E-01   4.1010037E-01   4.1010016E-01   4.1010016E-01   4.1010010E-01   4.1009983E-01   4.1009977E-01   4.1009969E-01   4.1009971E-01   4.1147366E-01   4.1147357E-01   4.1147378E-01   4.1147390E-01   4.1147420E-01   4.1147420E-01   4.1147482E-01   4.1147533E-01   4.1208538E-01   4.1208515E-01   4.1208532E-01   4.1208568E-01   4.1208628E-01   4.1208649E-01   4.1208717E-01   4.1208792E-01   4.1233009E-01   4.1233033E-01   4.1233033E-01   4.1233072E-01   4.1233122E-01   4.1233173E-01   4.1233242E-01   4.1233307E-01   4.1242260E-01   4.1242290E-01   4.1242307E-01   4.1242328E-01   4.1242376E-01   4.1242430E-01   4.1242492E-01   4.1242555E-01   4.1245547E-01   4.1245544E-01   4.1245574E-01   4.1245583E-01   4.1245618E-01   4.1245675E-01   4.1245717E-01   4.1245776E-01   4.1246402E-01   4.1246390E-01   4.1246420E-01   4.1246441E-01   4.1246471E-01   4.1246504E-01   4.1246548E-01   4.1246608E-01   4.1244584E-01   4.1244584E-01   4.1244593E-01   4.1244620E-01   4.1244644E-01   4.1244671E-01   4.1244724E-01   4.1244769E-01   4.1224185E-01   4.1224197E-01   4.1224197E-01   4.1224211E-01   4.1224268E-01   4.1224292E-01   4.1224334E-01   4.1224378E-01   4.1184166E-01   4.1184169E-01   4.1184163E-01   4.1184190E-01   4.1184220E-01   4.1184255E-01   4.1184306E-01   4.1184345E-01   4.1126746E-01   4.1126737E-01   4.1126752E-01   4.1126755E-01   4.1126785E-01   4.1126829E-01   4.1126880E-01   4.1126937E-01   4.1055125E-01   4.1055116E-01   4.1055104E-01   4.1055110E-01   4.1055125E-01   4.1055170E-01   4.1055223E-01   4.1055262E-01   4.0973061E-01   4.0973055E-01   4.0973070E-01   4.0973061E-01   4.0973097E-01   4.0973115E-01   4.0973136E-01   4.0973157E-01   4.0884694E-01   4.0884697E-01   4.0884694E-01   4.0884694E-01   4.0884697E-01   4.0884706E-01   4.0884709E-01   4.0884715E-01   4.0793794E-01   4.0793777E-01   4.0793794E-01   4.0793782E-01   4.0793774E-01   4.0793771E-01   4.0793765E-01   4.0793747E-01   4.0703845E-01   4.0703848E-01   4.0703836E-01   4.0703827E-01   4.0703830E-01   4.0703806E-01   4.0703791E-01   4.0703776E-01   4.0617770E-01   4.0617761E-01   4.0617749E-01   4.0617740E-01   4.0617728E-01   4.0617719E-01   4.0617678E-01   4.0617666E-01   4.0537810E-01   4.0537828E-01   4.0537819E-01   4.0537801E-01   4.0537801E-01   4.0537772E-01   4.0537751E-01   4.0537709E-01   4.0465599E-01   4.0465593E-01   4.0465596E-01   4.0465587E-01   4.0465569E-01   4.0465549E-01   4.0465522E-01   4.0465495E-01   4.0402028E-01   4.0402025E-01   4.0402028E-01   4.0402022E-01   4.0402001E-01   4.0401980E-01   4.0401977E-01   4.0401947E-01   4.0347466E-01   4.0347448E-01   4.0347451E-01   4.0347427E-01   4.0347427E-01   4.0347406E-01   4.0347403E-01   4.0347394E-01   4.0301636E-01   4.0301666E-01   4.0301657E-01   4.0301645E-01   4.0301642E-01   4.0301621E-01   4.0301612E-01   4.0301612E-01   4.0264127E-01   4.0264115E-01   4.0264118E-01   4.0264130E-01   4.0264121E-01   4.0264106E-01   4.0264112E-01   4.0264076E-01   4.0234020E-01   4.0234008E-01   4.0234017E-01   4.0234014E-01   4.0234017E-01   4.0234002E-01   4.0234008E-01   4.0233999E-01   4.0210402E-01   4.0210396E-01   4.0210396E-01   4.0210393E-01   4.0210402E-01   4.0210396E-01   4.0210402E-01   4.0210402E-01   4.0192249E-01   4.0192258E-01   4.0192273E-01   4.0192249E-01   4.0192264E-01   4.0192258E-01   4.0192258E-01   4.0192249E-01   4.0178600E-01   4.0178603E-01   4.0178600E-01   4.0178615E-01   4.0178609E-01   4.0178603E-01   4.0178594E-01   4.0178579E-01   4.0168542E-01   4.0168551E-01   4.0168551E-01   4.0168539E-01   4.0168542E-01   4.0168542E-01   4.0168527E-01   4.0168518E-01   4.0161294E-01   4.0161288E-01   4.0161270E-01   4.0161270E-01   4.0161270E-01   4.0161273E-01   4.0161288E-01   4.0161294E-01   4.0156144E-01   4.0156147E-01   4.0156159E-01   4.0156150E-01   4.0156138E-01   4.0156150E-01   4.0156150E-01   4.0156156E-01   4.0152594E-01   4.0152586E-01   4.0152586E-01   4.0152586E-01   4.0152580E-01   4.0152580E-01   4.0152574E-01   4.0150154E-01   4.0150151E-01   4.0150157E-01   4.0150133E-01   4.0150127E-01   4.0000001E-01   4.0000001E-01   4.0000001E-01   4.0000001E-01   4.0000001E-01   4.0000001E-01   4.0000001E-01   4.0000001E-01   4.0000001E-01   4.0000001E-01   4.0000001E-01   4.0000001E-01   4.0000001E-01   4.0000001E-01   4.0000001E-01   4.0000001E-01   4.0000001E-01   4.0000001E-01   4.0000001E-01   4.0000001E-01   4.0000001E-01   4.0000001E-01   4.0000001E-01   4.0000001E-01   4.0000001E-01   4.0000001E-01   4.0000001E-01   4.0000001E-01   4.0000001E-01   4.0000001E-01   4.0000001E-01   4.0000001E-01   4.0000001E-01   4.0000001E-01   4.0000001E-01   4.0000001E-01   4.0000001E-01   4.0000001E-01   4.0000001E-01   4.0000001E-01   4.0000001E-01   4.0000001E-01   4.0000001E-01   4.0000001E-01   4.0000001E-01   4.0000001E-01   4.0000001E-01   4.0000001E-01   4.0000001E-01   4.0000001E-01   4.0000001E-01   4.0000001E-01   4.0000001E-01   4.0000001E-01   4.0000001E-01   4.0000001E-01   4.0000001E-01   4.0000001E-01   4.0000001E-01   4.0000001E-01   4.0000001E-01   4.0000001E-01   4.0000001E-01   4.0000001E-01   4.0000001E-01   4.0000001E-01   4.0000001E-01   4.0000001E-01   4.0000001E-01   4.0000001E-01   4.0000001E-01   4.0000001E-01   4.0000001E-01   4.0000001E-01   4.0000001E-01   4.0000001E-01   4.0000001E-01   4.0000001E-01   4.0000001E-01   4.0000001E-01   4.0000001E-01   4.0000001E-01   4.0000001E-01   4.0000001E-01   4.0000001E-01   4.0000001E-01   4.0000001E-01   4.0000001E-01   4.0000001E-01   4.0000001E-01   4.0000001E-01   4.0000001E-01   4.0000001E-01   4.0000001E-01   4.0000001E-01   4.0000001E-01   4.0000001E-01   4.0000001E-01   4.0000001E-01   4.0000001E-01   4.0000001E-01   4.0000001E-01   4.0000001E-01   4.0000001E-01   4.0000001E-01   4.0000001E-01   4.0000001E-01   4.0000001E-01   4.0000001E-01   4.0000001E-01   4.0000001E-01   4.0000001E-01   4.0000001E-01   4.0000001E-01   4.0000001E-01   4.0000001E-01   4.0000001E-01   4.0000001E-01   4.0000001E-01   4.0000001E-01   4.0000001E-01   4.0000001E-01   4.0000001E-01   4.0000001E-01   4.0000001E-01   4.0000001E-01   4.0000001E-01   4.0000001E-01   4.0000001E-01   4.0000001E-01   4.0000001E-01   4.0000001E-01   4.0000001E-01   4.0000001E-01   4.0000001E-01   4.0000001E-01   4.0000001E-01   4.0000001E-01   4.0000001E-01   4.0000001E-01   4.0000001E-01   4.0000001E-01   4.0000001E-01   4.0000001E-01   4.0000001E-01   4.0000001E-01   4.0000001E-01   4.0000001E-01   4.0000001E-01   4.0000001E-01   4.0000001E-01   4.0000001E-01   4.0000001E-01   4.0000001E-01   4.0000001E-01   4.0000001E-01   4.0000001E-01   4.0000001E-01   4.0000001E-01   4.0000001E-01   4.0000001E-01   4.0000001E-01   4.0000001E-01   4.0000001E-01   4.0000001E-01   4.0000001E-01   4.0000001E-01   4.0000001E-01   4.0000001E-01   4.0000001E-01   4.0000001E-01   4.0000001E-01   4.0000001E-01   4.0000001E-01   4.0000001E-01   4.0000001E-01   4.0000001E-01   4.0000001E-01   4.0000001E-01   4.0000001E-01   4.0000001E-01   4.0000001E-01   4.0000001E-01   4.0000096E-01   4.0000102E-01   4.0000108E-01   4.0000099E-01   4.0000090E-01   4.0000102E-01   4.0000105E-01   4.0000090E-01   4.0000278E-01   4.0000281E-01   4.0000269E-01   4.0000272E-01   4.0000260E-01   4.0000287E-01   4.0000263E-01   4.0000269E-01   4.0000659E-01   4.0000680E-01   4.0000686E-01   4.0000671E-01   4.0000680E-01   4.0000677E-01   4.0000674E-01   4.0000668E-01   4.0001833E-01   4.0001824E-01   4.0001827E-01   4.0001824E-01   4.0001827E-01   4.0001816E-01   4.0001833E-01   4.0001830E-01   4.0004933E-01   4.0004909E-01   4.0004921E-01   4.0004924E-01   4.0004912E-01   4.0004918E-01   4.0004918E-01   4.0004918E-01   4.0013251E-01   4.0013221E-01   4.0013233E-01   4.0013242E-01   4.0013221E-01   4.0013218E-01   4.0013218E-01   4.0013221E-01   4.0035284E-01   4.0035295E-01   4.0035281E-01   4.0035266E-01   4.0035248E-01   4.0035251E-01   4.0035248E-01   4.0035227E-01   4.0091345E-01   4.0091309E-01   4.0091294E-01   4.0091285E-01   4.0091243E-01   4.0091211E-01   4.0091172E-01   4.0091130E-01   4.0220201E-01   4.0220124E-01   4.0220070E-01   4.0220025E-01   4.0219945E-01   4.0219867E-01   4.0219784E-01   4.0219674E-01   4.0458497E-01   4.0458417E-01   4.0458322E-01   4.0458232E-01   4.0458128E-01   4.0458032E-01   4.0457916E-01   4.0457711E-01   4.0762743E-01   4.0762660E-01   4.0762615E-01   4.0762556E-01   4.0762529E-01   4.0762535E-01   4.0762490E-01   4.0762308E-01   4.1009977E-01   4.1009995E-01   4.1010019E-01   4.1010064E-01   4.1010201E-01   4.1010353E-01   4.1010424E-01   4.1010416E-01   4.1147605E-01   4.1147685E-01   4.1147771E-01   4.1147891E-01   4.1148120E-01   4.1148341E-01   4.1148481E-01   4.1148669E-01   4.1208863E-01   4.1208962E-01   4.1209060E-01   4.1209173E-01   4.1209379E-01   4.1209608E-01   4.1209683E-01   4.1209739E-01   4.1233394E-01   4.1233447E-01   4.1233528E-01   4.1233590E-01   4.1233692E-01   4.1233778E-01   4.1233748E-01   4.1233721E-01   4.1242597E-01   4.1242638E-01   4.1242683E-01   4.1242701E-01   4.1242695E-01   4.1242683E-01   4.1242614E-01   4.1242519E-01   4.1245812E-01   4.1245842E-01   4.1245851E-01   4.1245821E-01   4.1245776E-01   4.1245723E-01   4.1245645E-01   4.1245517E-01   4.1246647E-01   4.1246673E-01   4.1246679E-01   4.1246644E-01   4.1246572E-01   4.1246510E-01   4.1246450E-01   4.1246307E-01   4.1244814E-01   4.1244870E-01   4.1244861E-01   4.1244847E-01   4.1244817E-01   4.1244769E-01   4.1244689E-01   4.1244543E-01   4.1224432E-01   4.1224492E-01   4.1224504E-01   4.1224509E-01   4.1224512E-01   4.1224492E-01   4.1224444E-01   4.1224316E-01   4.1184407E-01   4.1184479E-01   4.1184524E-01   4.1184527E-01   4.1184568E-01   4.1184571E-01   4.1184559E-01   4.1184497E-01   4.1126961E-01   4.1127044E-01   4.1127101E-01   4.1127130E-01   4.1127217E-01   4.1127262E-01   4.1127294E-01   4.1127306E-01   4.1055301E-01   4.1055363E-01   4.1055423E-01   4.1055471E-01   4.1055581E-01   4.1055694E-01   4.1055772E-01   4.1055855E-01   4.0973201E-01   4.0973222E-01   4.0973258E-01   4.0973336E-01   4.0973476E-01   4.0973619E-01   4.0973783E-01   4.0973914E-01   4.0884724E-01   4.0884730E-01   4.0884757E-01   4.0884811E-01   4.0884903E-01   4.0885094E-01   4.0885279E-01   4.0885463E-01   4.0793741E-01   4.0793753E-01   4.0793756E-01   4.0793791E-01   4.0793851E-01   4.0794015E-01   4.0794227E-01   4.0794441E-01   4.0703750E-01   4.0703735E-01   4.0703726E-01   4.0703759E-01   4.0703803E-01   4.0703905E-01   4.0704095E-01   4.0704322E-01   4.0617633E-01   4.0617612E-01   4.0617594E-01   4.0617603E-01   4.0617618E-01   4.0617681E-01   4.0617847E-01   4.0618035E-01   4.0537688E-01   4.0537658E-01   4.0537637E-01   4.0537620E-01   4.0537640E-01   4.0537667E-01   4.0537730E-01   4.0537849E-01   4.0465489E-01   4.0465465E-01   4.0465412E-01   4.0465397E-01   4.0465391E-01   4.0465370E-01   4.0465370E-01   4.0465412E-01   4.0401924E-01   4.0401894E-01   4.0401864E-01   4.0401819E-01   4.0401787E-01   4.0401748E-01   4.0401730E-01   4.0401730E-01   4.0347371E-01   4.0347320E-01   4.0347302E-01   4.0347233E-01   4.0347201E-01   4.0347144E-01   4.0347129E-01   4.0347126E-01   4.0301600E-01   4.0301543E-01   4.0301511E-01   4.0301472E-01   4.0301418E-01   4.0301362E-01   4.0301368E-01   4.0264079E-01   4.0264031E-01   4.0263987E-01   4.0263939E-01   4.0263909E-01   4.0263873E-01   4.0263861E-01   4.0233967E-01   4.0233955E-01   4.0233901E-01   4.0233859E-01   4.0233815E-01   4.0233818E-01   4.0210375E-01   4.0210336E-01   4.0210304E-01   4.0210268E-01   4.0210259E-01   4.0210262E-01   4.0192202E-01   4.0192211E-01   4.0192184E-01   4.0192169E-01   4.0192166E-01   4.0178567E-01   4.0178561E-01   4.0178561E-01   4.0178573E-01   4.0168527E-01   4.0168527E-01   4.0168551E-01   4.0168521E-01   4.0161279E-01   4.0161294E-01   4.0156150E-01 
Press 1 2975 float
  0.0000000E+00   0.0000000E+00   0.0000000E+00   0.0000000E+00   0.0000000E+00   0.0000000E+00   0.0000000E+00   0.0000000E+00   0.0000000E+00   0.0000000E+00   0.0000000E+00   0.0000000E+00   0.0000000E+00   0.0000000E+00   0.0000000E+00   0.0000000E+00   0.0000000E+00   0.0000000E+00   3.9505050E-01   1.1851515E+00   3.9505050E-01   1.6789646E+00   4.1480303E+00   1.5802020E+00   4.7406058E+00   1.0073788E+01   3.7529798E+00   9.7775002E+00   1.9258711E+01   6.9133835E+00   1.6789646E+01   3.0912701E+01   1.0666364E+01   2.4295605E+01   4.3949368E+01   1.4221818E+01   3.1900328E+01   5.6492222E+01   1.7382221E+01   3.8418659E+01   6.7553635E+01   2.0147575E+01   4.4146893E+01   7.7232368E+01   2.2715403E+01   5.0072651E+01   8.7503685E+01   2.6270859E+01   5.7479847E+01   1.0083664E+02   3.1604040E+01   6.9232597E+01   1.2157679E+02   4.0591438E+01   8.8491310E+01   1.5525485E+02   5.6788509E+01   1.1960154E+02   2.0641388E+02   8.3948227E+01   1.6532863E+02   2.7594278E+02   2.2675899E+02   3.6068109E+02   0.0000000E+00   0.0000000E+00   0.0000000E+00   0.0000000E+00   0.0000000E+00   0.0000000E+00   0.0000000E+00   0.0000000E+00   0.0000000E+00   0.0000000E+00   0.0000000E+00   0.0000000E+00   0.0000000E+00   0.0000000E+00   0.0000000E+00   0.0000000E+00   0.0000000E+00   0.0000000E+00   0.0000000E+00   0.0000000E+00   0.0000000E+00   0.0000000E+00   0.0000000E+00   0.0000000E+00   0.0000000E+00   0.0000000E+00   0.0000000E+00   0.0000000E+00   0.0000000E+00   0.0000000E+00   0.0000000E+00   0.0000000E+00   0.0000000E+00   0.0000000E+00   2.9628786E-01   4.9381313E-01   7.9010099E-01   8.8886362E-01   1.0863888E+00   1.1851515E+00   4.9381313E-01   1.1851515E+00   2.2715404E+00   3.2591665E+00   4.2467928E+00   5.1356564E+00   5.9257574E+00   6.4195704E+00   2.7653534E+00   4.9381313E+00   7.7034845E+00   1.0962651E+01   1.4123055E+01   1.6789646E+01   1.8863661E+01   2.0641388E+01   7.9997725E+00   1.3234192E+01   1.9752525E+01   2.6962196E+01   3.3974342E+01   3.9998863E+01   4.4838230E+01   4.8689972E+01   1.7777273E+01   2.7752296E+01   4.0393913E+01   5.3825630E+01   6.6763535E+01   7.8022476E+01   8.7207397E+01   9.4120781E+01   3.2097855E+01   4.8986263E+01   6.9430122E+01   9.1256668E+01   1.1199682E+02   1.2957657E+02   1.4399591E+02   1.5515608E+02   5.0072651E+01   7.5059593E+01   1.0468839E+02   1.3569984E+02   1.6434100E+02   1.8863661E+02   2.0829037E+02   2.2369734E+02   6.9825172E+01   1.0241684E+02   1.4044044E+02   8.8195023E+01   1.2770007E+02   1.0429333E+02   1.4942786E+02   1.1881144E+02   1.6927914E+02   1.3431717E+02   1.9090816E+02   1.5525485E+02   2.2043817E+02   1.8745146E+02   2.6409125E+02   2.3762288E+02   3.3006470E+02   3.1208990E+02   4.2458051E+02   4.1105005E+02   5.4744122E+02   5.2650354E+02   6.9114087E+02   0.0000000E+00   0.0000000E+00   0.0000000E+00   0.0000000E+00   0.0000000E+00   0.0000000E+00   0.0000000E+00   0.0000000E+00   0.0000000E+00   0.0000000E+00   0.0000000E+00   0.0000000E+00   0.0000000E+00   0.0000000E+00   0.0000000E+00   0.0000000E+00   0.0000000E+00   0.0000000E+00   0.0000000E+00   0.0000000E+00   0.0000000E+00   0.0000000E+00   0.0000000E+00   0.0000000E+00   0.0000000E+00   0.0000000E+00   0.0000000E+00   0.0000000E+00   0.0000000E+00   0.0000000E+00   0.0000000E+00   0.0000000E+00   0.0000000E+00   0.0000000E+00   0.0000000E+00   0.0000000E+00   1.1851515E+00   1.2839141E+00   1.2839141E+00   1.2839141E+00   1.2839141E+00   1.2839141E+00   1.2839141E+00   1.2839141E+00   1.2839141E+00   6.9133835E+00   7.1109090E+00   7.2096715E+00   7.4071970E+00   7.4071970E+00   7.4071970E+00   7.5059595E+00   7.5059595E+00   7.5059595E+00   2.1629015E+01   2.2616640E+01   2.3110455E+01   2.3406742E+01   2.3801792E+01   2.3999317E+01   2.4098080E+01   2.4098080E+01   2.4098080E+01   5.1455326E+01   5.3726868E+01   5.4912018E+01   5.5899647E+01   5.6689747E+01   5.6986034E+01   5.7084797E+01   5.7282322E+01   5.7282322E+01   9.9552727E+01   1.0350323E+02   1.0626859E+02   1.0824384E+02   1.0913270E+02   1.0992280E+02   1.1041661E+02   1.1051537E+02   1.1061414E+02   1.6364967E+02   1.6997047E+02   1.7441479E+02   1.7747644E+02   1.7955045E+02   1.8053807E+02   1.8122942E+02   1.8152570E+02   1.8172322E+02   2.3535133E+02   2.4394368E+02   2.5006697E+02   2.5421500E+02   2.5688159E+02   2.5856055E+02   2.5944940E+02   2.5984445E+02   2.6014075E+02   0.0000000E+00   0.0000000E+00   0.0000000E+00   0.0000000E+00   0.0000000E+00   0.0000000E+00   0.0000000E+00   0.0000000E+00   0.0000000E+00   0.0000000E+00   0.0000000E+00   0.0000000E+00   0.0000000E+00   0.0000000E+00   0.0000000E+00   0.0000000E+00   0.0000000E+00   0.0000000E+00   0.0000000E+00   0.0000000E+00   0.0000000E+00   0.0000000E+00   0.0000000E+00   0.0000000E+00   0.0000000E+00   0.0000000E+00   0.0000000E+00   0.0000000E+00   0.0000000E+00   0.0000000E+00   0.0000000E+00   0.0000000E+00   1.2839141E+00   1.2839141E+00   1.2839141E+00   1.2839141E+00   1.2839141E+00   1.2839141E+00   1.2839141E+00   1.2839141E+00   7.5059595E+00   7.5059595E+00   7.5059595E+00   7.5059595E+00   7.4071970E+00   7.4071970E+00   7.4071970E+00   7.2096715E+00   2.4098080E+01   2.4098080E+01   2.4098080E+01   2.4098080E+01   2.3999317E+01   2.3801792E+01   2.3406742E+01   2.3110455E+01   5.7282322E+01   5.7282322E+01   5.7282322E+01   5.7084797E+01   5.6986034E+01   5.6689747E+01   5.5899647E+01   5.4912018E+01   1.1061414E+02   1.1061414E+02   1.1051537E+02   1.1041661E+02   1.0992280E+02   1.0913270E+02   1.0824384E+02   1.0626859E+02   1.8172322E+02   1.8172322E+02   1.8152570E+02   1.8122942E+02   1.8053807E+02   1.7955045E+02   1.7747644E+02   1.7441479E+02   2.6014075E+02   2.6014075E+02   2.5984445E+02   2.5944940E+02   2.5856055E+02   2.5688159E+02   2.5421500E+02   2.5006697E+02   0.0000000E+00   0.0000000E+00   0.0000000E+00   0.0000000E+00   0.0000000E+00   0.0000000E+00   0.0000000E+00   0.0000000E+00   0.0000000E+00   0.0000000E+00   0.0000000E+00   0.0000000E+00   0.0000000E+00   0.0000000E+00   0.0000000E+00   0.0000000E+00   0.0000000E+00   0.0000000E+00   0.0000000E+00   0.0000000E+00   0.0000000E+00   0.0000000E+00   0.0000000E+00   0.0000000E+00   0.0000000E+00   0.0000000E+00   0.0000000E+00   0.0000000E+00   0.0000000E+00   0.0000000E+00   0.0000000E+00   0.0000000E+00   0.0000000E+00   0.0000000E+00   0.0000000E+00   0.0000000E+00   1.2839141E+00   1.1851515E+00   1.1851515E+00   1.0863888E+00   8.8886362E-01   7.9010099E-01   4.9381313E-01   2.9628786E-01   0.0000000E+00   7.1109090E+00   6.9133835E+00   6.4195704E+00   5.9257574E+00   5.1356564E+00   4.2467928E+00   3.2591665E+00   2.2715404E+00   1.1851515E+00   2.2616640E+01   2.1629015E+01   2.0641388E+01   1.8863661E+01   1.6789646E+01   1.4123055E+01   1.0962651E+01   7.7034845E+00   4.9381313E+00   5.3726868E+01   5.1455326E+01   4.8689972E+01   4.4838230E+01   3.9998863E+01   3.3974342E+01   2.6962196E+01   1.9752525E+01   1.3234192E+01   1.0350323E+02   9.9552727E+01   9.4120781E+01   8.7207397E+01   7.8022476E+01   6.6763535E+01   5.3825630E+01   4.0393913E+01   2.7752296E+01   1.6997047E+02   1.6364967E+02   1.5515608E+02   1.4399591E+02   1.2957657E+02   1.1199682E+02   9.1256668E+01   6.9430122E+01   4.8986263E+01   2.4394368E+02   2.3535133E+02   2.2369734E+02   2.0829037E+02   1.8863661E+02   1.6434100E+02   1.3569984E+02   1.0468839E+02   7.5059593E+01   1.4044044E+02   1.0241684E+02   1.2770007E+02   1.4942786E+02   1.6927914E+02   1.9090816E+02   2.2043817E+02   2.6409125E+02   3.3006470E+02   4.2458051E+02   5.4744122E+02   6.9114087E+02   0.0000000E+00   0.0000000E+00   0.0000000E+00   0.0000000E+00   0.0000000E+00   0.0000000E+00   0.0000000E+00   0.0000000E+00   0.0000000E+00   0.0000000E+00   0.0000000E+00   0.0000000E+00   0.0000000E+00   0.0000000E+00   0.0000000E+00   0.0000000E+00   0.0000000E+00   0.0000000E+00   0.0000000E+00   4.9381313E-01   0.0000000E+00   0.0000000E+00   0.0000000E+00   2.7653534E+00   1.1851515E+00   3.9505050E-01   0.0000000E+00   7.9997725E+00   4.1480303E+00   1.6789646E+00   3.9505050E-01   1.7777273E+01   1.0073788E+01   4.7406058E+00   1.5802020E+00   3.2097855E+01   1.9258711E+01   9.7775002E+00   3.7529798E+00   5.0072651E+01   3.0912701E+01   1.6789646E+01   6.9133835E+00   6.9825172E+01   4.3949368E+01   2.4295605E+01   1.0666364E+01   8.8195023E+01   5.6492222E+01   3.1900328E+01   1.4221818E+01   1.0429333E+02   6.7553635E+01   3.8418659E+01   1.7382221E+01   1.1881144E+02   7.7232368E+01   4.4146893E+01   2.0147575E+01   1.3431717E+02   8.7503685E+01   5.0072651E+01   2.2715403E+01   1.5525485E+02   1.0083664E+02   5.7479847E+01   2.6270859E+01   1.8745146E+02   1.2157679E+02   6.9232597E+01   3.1604040E+01   2.3762288E+02   1.5525485E+02   8.8491310E+01   4.0591438E+01   3.1208990E+02   2.0641388E+02   1.1960154E+02   5.6788509E+01   4.1105005E+02   2.7594278E+02   1.6532863E+02   8.3948227E+01   5.2650354E+02   3.6068109E+02   2.2675899E+02   0.0000000E+00   0.0000000E+00   0.0000000E+00   0.0000000E+00   0.0000000E+00   0.0000000E+00   0.0000000E+00   0.0000000E+00   0.0000000E+00   0.0000000E+00   0.0000000E+00   0.0000000E+00   0.0000000E+00   0.0000000E+00   0.0000000E+00   0.0000000E+00   0.0000000E+00   0.0000000E+00   0.0000000E+00   0.0000000E+00   0.0000000E+00   0.0000000E+00   0.0000000E+00   0.0000000E+00   0.0000000E+00   0.0000000E+00   0.0000000E+00   0.0000000E+00   0.0000000E+00   0.0000000E+00   0.0000000E+00   0.0000000E+00   0.0000000E+00   0.0000000E+00   0.0000000E+00   0.0000000E+00   0.0000000E+00   0.0000000E+00   0.0000000E+00   0.0000000E+00   0.0000000E+00   0.0000000E+00   0.0000000E+00   0.0000000E+00   0.0000000E+00   0.0000000E+00   0.0000000E+00   0.0000000E+00   0.0000000E+00   0.0000000E+00   0.0000000E+00   0.0000000E+00   0.0000000E+00   0.0000000E+00   0.0000000E+00   0.0000000E+00   0.0000000E+00   0.0000000E+00   0.0000000E+00   0.0000000E+00   0.0000000E+00   0.0000000E+00   0.0000000E+00   0.0000000E+00   0.0000000E+00   0.0000000E+00   0.0000000E+00   0.0000000E+00   0.0000000E+00   0.0000000E+00   0.0000000E+00   0.0000000E+00   0.0000000E+00   0.0000000E+00   0.0000000E+00   0.0000000E+00   0.0000000E+00   0.0000000E+00   0.0000000E+00   0.0000000E+00   0.0000000E+00   0.0000000E+00   0.0000000E+00   0.0000000E+00   0.0000000E+00   0.0000000E+00   0.0000000E+00   0.0000000E+00   0.0000000E+00   0.0000000E+00   0.0000000E+00   0.0000000E+00   0.0000000E+00   0.0000000E+00   0.0000000E+00   0.0000000E+00   0.0000000E+00   0.0000000E+00   0.0000000E+00   0.0000000E+00   0.0000000E+00   0.0000000E+00   0.0000000E+00   0.0000000E+00   0.0000000E+00   0.0000000E+00   0.0000000E+00   0.0000000E+00   0.0000000E+00   0.0000000E+00   0.0000000E+00   0.0000000E+00   0.0000000E+00   0.0000000E+00   0.0000000E+00   0.0000000E+00   0.0000000E+00   0.0000000E+00   0.0000000E+00   0.0000000E+00   0.0000000E+00   0.0000000E+00   0.0000000E+00   0.0000000E+00   0.0000000E+00   0.0000000E+00   0.0000000E+00   0.0000000E+00   0.0000000E+00   0.0000000E+00   0.0000000E+00   0.0000000E+00   0.0000000E+00   0.0000000E+00   0.0000000E+00   0.0000000E+00   0.0000000E+00   0.0000000E+00   0.0000000E+00   0.0000000E+00   0.0000000E+00   0.0000000E+00   0.0000000E+00   0.0000000E+00   0.0000000E+00   0.0000000E+00   0.0000000E+00   0.0000000E+00   0.0000000E+00   0.0000000E+00   0.0000000E+00   0.0000000E+00   0.0000000E+00   0.0000000E+00   0.0000000E+00   0.0000000E+00   0.0000000E+00   0.0000000E+00   0.0000000E+00   0.0000000E+00   0.0000000E+00   0.0000000E+00   0.0000000E+00   0.0000000E+00   0.0000000E+00   0.0000000E+00   0.0000000E+00   0.0000000E+00   0.0000000E+00   0.0000000E+00   0.0000000E+00   0.0000000E+00   0.0000000E+00   0.0000000E+00   0.0000000E+00   0.0000000E+00   0.0000000E+00   0.0000000E+00   0.0000000E+00   0.0000000E+00   0.0000000E+00   0.0000000E+00   0.0000000E+00   0.0000000E+00   0.0000000E+00   0.0000000E+00   0.0000000E+00   0.0000000E+00   0.0000000E+00   0.0000000E+00   0.0000000E+00   0.0000000E+00   0.0000000E+00   0.0000000E+00   0.0000000E+00   0.0000000E+00   0.0000000E+00   0.0000000E+00   0.0000000E+00   0.0000000E+00   0.0000000E+00   0.0000000E+00   0.0000000E+00   0.0000000E+00   0.0000000E+00   0.0000000E+00   0.0000000E+00   0.0000000E+00   0.0000000E+00   0.0000000E+00   0.0000000E+00   0.0000000E+00   0.0000000E+00   0.0000000E+00   0.0000000E+00   0.0000000E+00   0.0000000E+00   0.0000000E+00   0.0000000E+00   0.0000000E+00   0.0000000E+00   0.0000000E+00   0.0000000E+00   0.0000000E+00   0.0000000E+00   0.0000000E+00   0.0000000E+00   0.0000000E+00   0.0000000E+00   0.0000000E+00   0.0000000E+00   0.0000000E+00   0.0000000E+00   0.0000000E+00   0.0000000E+00   0.0000000E+00   0.0000000E+00   0.0000000E+00   0.0000000E+00   0.0000000E+00   0.0000000E+00   0.0000000E+00   0.0000000E+00   0.0000000E+00   0.0000000E+00   0.0000000E+00   0.0000000E+00   0.0000000E+00   0.0000000E+00   0.0000000E+00   0.0000000E+00   0.0000000E+00   0.0000000E+00   0.0000000E+00   0.0000000E+00   0.0000000E+00   0.0000000E+00   0.0000000E+00   0.0000000E+00   0.0000000E+00   0.0000000E+00   0.0000000E+00   0.0000000E+00   0.0000000E+00   0.0000000E+00   0.0000000E+00   0.0000000E+00   0.0000000E+00   0.0000000E+00   0.0000000E+00   0.0000000E+00   0.0000000E+00   0.0000000E+00   0.0000000E+00   0.0000000E+00   0.0000000E+00   0.0000000E+00   0.0000000E+00   0.0000000E+00   0.0000000E+00   0.0000000E+00   0.0000000E+00   0.0000000E+00   0.0000000E+00   0.0000000E+00   0.0000000E+00   0.0000000E+00   0.0000000E+00   0.0000000E+00   0.0000000E+00   0.0000000E+00   0.0000000E+00   0.0000000E+00   0.0000000E+00   0.0000000E+00   0.0000000E+00   0.0000000E+00   0.0000000E+00   0.0000000E+00   0.0000000E+00   0.0000000E+00   0.0000000E+00   0.0000000E+00   0.0000000E+00   0.0000000E+00   0.0000000E+00   0.0000000E+00   0.0000000E+00   0.0000000E+00   0.0000000E+00   0.0000000E+00   0.0000000E+00   0.0000000E+00   0.0000000E+00   0.0000000E+00   0.0000000E+00   0.0000000E+00   0.0000000E+00   0.0000000E+00   0.0000000E+00   0.0000000E+00   0.0000000E+00   0.0000000E+00   0.0000000E+00   0.0000000E+00   0.0000000E+00   0.0000000E+00   0.0000000E+00   0.0000000E+00   0.0000000E+00   0.0000000E+00   0.0000000E+00   0.0000000E+00   0.0000000E+00   0.0000000E+00   0.0000000E+00   0.0000000E+00   0.0000000E+00   0.0000000E+00   0.0000000E+00   0.0000000E+00   0.0000000E+00   0.0000000E+00   0.0000000E+00   0.0000000E+00   0.0000000E+00   0.0000000E+00   0.0000000E+00   0.0000000E+00   0.0000000E+00   0.0000000E+00   0.0000000E+00   0.0000000E+00   0.0000000E+00   0.0000000E+00   0.0000000E+00   0.0000000E+00   0.0000000E+00   0.0000000E+00   0.0000000E+00   0.0000000E+00   0.0000000E+00   0.0000000E+00   0.0000000E+00   0.0000000E+00   0.0000000E+00   0.0000000E+00   0.0000000E+00   0.0000000E+00   0.0000000E+00   0.0000000E+00   0.0000000E+00   0.0000000E+00   0.0000000E+00   0.0000000E+00   0.0000000E+00   0.0000000E+00   0.0000000E+00   0.0000000E+00   0.0000000E+00   0.0000000E+00   0.0000000E+00   0.0000000E+00   0.0000000E+00   0.0000000E+00   0.0000000E+00   0.0000000E+00   0.0000000E+00   0.0000000E+00   0.0000000E+00   0.0000000E+00   0.0000000E+00   0.0000000E+00   0.0000000E+00   0.0000000E+00   0.0000000E+00   0.0000000E+00   0.0000000E+00   0.0000000E+00   0.0000000E+00   0.0000000E+00   0.0000000E+00   0.0000000E+00   0.0000000E+00   0.0000000E+00   0.0000000E+00   0.0000000E+00   0.0000000E+00   0.0000000E+00   0.0000000E+00   0.0000000E+00   0.0000000E+00   0.0000000E+00   0.0000000E+00   0.0000000E+00   0.0000000E+00   0.0000000E+00   0.0000000E+00   0.0000000E+00   0.0000000E+00   0.0000000E+00   0.0000000E+00   0.0000000E+00   0.0000000E+00   0.0000000E+00   0.0000000E+00   0.0000000E+00   0.0000000E+00   0.0000000E+00   0.0000000E+00   0.0000000E+00   0.0000000E+00   0.0000000E+00   0.0000000E+00   0.0000000E+00   0.0000000E+00   0.0000000E+00   0.0000000E+00   0.0000000E+00   0.0000000E+00   0.0000000E+00   0.0000000E+00   0.0000000E+00   0.0000000E+00   0.0000000E+00   0.0000000E+00   0.0000000E+00   0.0000000E+00   0.0000000E+00   0.0000000E+00   0.0000000E+00   0.0000000E+00   0.0000000E+00   0.0000000E+00   0.0000000E+00   0.0000000E+00   0.0000000E+00   0.0000000E+00   0.0000000E+00   0.0000000E+00   0.0000000E+00   0.0000000E+00   0.0000000E+00   0.0000000E+00   0.0000000E+00   0.0000000E+00   0.0000000E+00   0.0000000E+00   0.0000000E+00   0.0000000E+00   0.0000000E+00   0.0000000E+00   1.7876035E+02   2.1401860E+02   2.4364740E+02   2.6715289E+02   2.8552274E+02   1.7006924E+02   2.1589510E+02   2.5569643E+02   2.8858438E+02   3.1465771E+02   3.3460776E+02   1.9722896E+02   2.4789418E+02   2.9174478E+02   3.2720056E+02   3.5445905E+02   3.7519922E+02   2.2261096E+02   2.7870813E+02   3.2641046E+02   3.6433533E+02   3.9307526E+02   4.1361786E+02   2.5135088E+02   3.1288000E+02   3.6492789E+02   4.0561810E+02   4.3554318E+02   4.5578952E+02   2.9164603E+02   3.5880463E+02   4.1361786E+02   4.5559198E+02   4.8601086E+02   5.0625720E+02   3.5702689E+02   4.2695084E+02   4.8028265E+02   5.1939264E+02   5.4744122E+02   5.6669995E+02   4.6359177E+02   5.3065155E+02   5.7232941E+02   6.0106934E+02   6.2210577E+02   6.3682141E+02   6.2664886E+02   6.7869678E+02   6.9440002E+02   7.0180719E+02   7.0881934E+02   7.1632532E+02   8.5301276E+02   8.6634576E+02   8.4037115E+02   8.1666815E+02   8.0521167E+02   8.0284137E+02   1.1190793E+03   1.0692042E+03   9.9286066E+02   9.3577588E+02   9.0545575E+02   8.9399927E+02   1.3219377E+03   1.2412487E+03   1.1281654E+03   1.0469825E+03   1.0043171E+03   9.8703369E+02   1.3272709E+03   1.3097899E+03   1.2209036E+03   1.1413009E+03   1.0979441E+03   1.0805619E+03   1.2843091E+03   1.3070244E+03   1.2724575E+03   1.2198170E+03   1.1881143E+03   1.1765591E+03   1.2904324E+03   1.3172958E+03   1.3178883E+03   1.2966544E+03   1.2822351E+03   1.2782845E+03   1.3498872E+03   1.3713187E+03   1.3863307E+03   1.3872195E+03   1.3868245E+03   1.3895898E+03   1.4499337E+03   1.4683036E+03   1.4878586E+03   1.4990188E+03   1.5069198E+03   1.5140306E+03   1.5805966E+03   1.5977813E+03   1.6176326E+03   1.6319531E+03   1.6434095E+03   1.6534834E+03   1.7310118E+03   1.7488879E+03   1.7688379E+03   1.7838499E+03   1.7975779E+03   1.8096268E+03   1.8975251E+03   1.9183640E+03   1.9392030E+03   1.9547086E+03   1.9702144E+03   1.9837449E+03   2.0840874E+03   2.1073953E+03   2.1292219E+03   2.1453201E+03   2.1621096E+03   2.1764304E+03   2.2946482E+03   2.3184500E+03   2.3405728E+03   2.3566711E+03   2.3736582E+03   2.3881763E+03   2.5312822E+03   2.5539976E+03   2.5751328E+03   2.5900459E+03   2.6058479E+03   2.6186870E+03   2.7967542E+03   2.8156177E+03   2.8349751E+03   2.8469253E+03   2.8584805E+03   2.8676655E+03   3.0853359E+03   3.1001504E+03   3.1166436E+03   3.1205942E+03   3.1237546E+03   3.1263223E+03   3.3843848E+03   3.3956438E+03   3.4073965E+03   3.3961375E+03   3.3852737E+03   3.3772739E+03   3.6725681E+03   3.6831357E+03   3.6859998E+03   3.6480752E+03   3.6173601E+03   3.5973113E+03   3.9212444E+03   3.9329973E+03   3.9192693E+03   3.8424326E+03   3.7885085E+03   3.7572998E+03   4.1154990E+03   4.1304121E+03   4.0901174E+03   3.9665664E+03   3.8920015E+03   3.8562495E+03   4.3051079E+03   4.3246626E+03   4.2557271E+03   4.0919810E+03   4.0096138E+03   3.9828496E+03   4.7219595E+03   4.7519829E+03   4.6732705E+03   4.5064629E+03   4.4402930E+03   4.4419722E+03   5.9290801E+03   5.9873486E+03   5.9772749E+03   5.8688359E+03   5.8421709E+03   5.8892793E+03   8.5049795E+03   8.6270469E+03   8.7468418E+03   8.8037275E+03   8.8563662E+03   8.9527559E+03   1.1690544E+04   1.1873148E+04   1.2104836E+04   1.2373064E+04   1.2559026E+04   1.2702128E+04   1.3490025E+04   1.3694850E+04   1.3941248E+04   1.4295293E+04   1.4591070E+04   1.4757377E+04   1.3435443E+04   1.3578542E+04   1.3707024E+04   1.3979490E+04   1.4271904E+04   1.4422901E+04   1.2739763E+04   1.2767516E+04   1.2691184E+04   1.2747375E+04   1.2897085E+04   1.2952781E+04   1.2417572E+04   1.2360695E+04   1.2161127E+04   1.1974789E+04   1.1871007E+04   1.1738387E+04   1.2659277E+04   1.2568730E+04   1.2294620E+04   1.1925021E+04   1.1611511E+04   1.1320710E+04   1.3232493E+04   1.3109173E+04   1.2772183E+04   1.2344748E+04   1.1923239E+04   1.1547740E+04   1.3795242E+04   1.3652776E+04   1.3282347E+04   1.2852680E+04   1.2422321E+04   1.2038763E+04   1.4130188E+04   1.3991390E+04   1.3617349E+04   1.3204713E+04   1.2829982E+04   1.2497900E+04   1.3975464E+04   1.3856227E+04   1.3504057E+04   1.3121394E+04   1.2817789E+04   1.2560971E+04   1.3485268E+04   1.3397133E+04   1.3086283E+04   1.2754915E+04   1.2528938E+04   1.2353489E+04   1.2874505E+04   1.2826832E+04   1.2585420E+04   1.2332669E+04   1.2193964E+04   1.2103505E+04   1.2260935E+04   1.2265234E+04   1.2132676E+04   1.1994209E+04   1.1954458E+04   1.1954065E+04   1.1640486E+04   1.1714445E+04   1.1732634E+04   1.1733980E+04   1.1805906E+04   1.1894507E+04   1.0945926E+04   1.1104111E+04   1.1284170E+04   1.1447010E+04   1.1616577E+04   1.1791393E+04   1.0118801E+04   1.0361813E+04   1.0698198E+04   1.0982962E+04   1.1243870E+04   1.1495165E+04   9.1662031E+03   9.4873721E+03   9.9357891E+03   1.0282182E+04   1.0628333E+04   1.0931671E+04   8.1624077E+03   8.5340840E+03   9.0235723E+03   9.4027119E+03   9.8001387E+03   1.0122068E+04   7.1952202E+03   7.5888960E+03   8.0495479E+03   8.4396396E+03   8.8413096E+03   9.1536738E+03   6.2874688E+03   6.6899531E+03   7.1150513E+03   7.4886987E+03   7.8543770E+03   8.1345483E+03   5.3429453E+03   5.8359185E+03   6.2790405E+03   6.6148032E+03   6.9198975E+03   7.1515059E+03   4.5267354E+03   5.1001162E+03   5.5881382E+03   5.8657354E+03   6.0847373E+03   6.2589653E+03   4.4726631E+03   5.0233091E+03   5.2492114E+03   5.3719360E+03   5.4789673E+03   3.9174885E+03   4.4691104E+03   4.7281821E+03   4.7778262E+03   4.8193335E+03   3.8363413E+03   4.2029424E+03   4.2659307E+03   4.2691147E+03   3.2071089E+03   3.5588567E+03   3.7695383E+03   3.7889998E+03   2.8578679E+03   3.1673418E+03   3.2932415E+03   2.4983682E+03   2.6747844E+03   2.2483901E+03   2.0672085E+03   2.9954703E+02   3.1001587E+02   3.1722556E+02   3.2236121E+02   3.2542285E+02   3.2739810E+02   3.2858325E+02   3.2897830E+02   3.2927460E+02   3.4952094E+02   3.6087863E+02   3.6858212E+02   3.7391528E+02   3.7697693E+02   3.7905096E+02   3.8003857E+02   3.8072992E+02   3.8082867E+02   3.9021112E+02   4.0117377E+02   4.0887726E+02   4.1371664E+02   4.1667950E+02   4.1825970E+02   4.1904980E+02   4.1954364E+02   4.1964240E+02   4.2833350E+02   4.3850604E+02   4.4512314E+02   4.4907364E+02   4.5164148E+02   4.5262912E+02   4.5312292E+02   4.5302417E+02   4.5302417E+02   4.6991257E+02   4.7889996E+02   4.8433191E+02   4.8699850E+02   4.8838116E+02   4.8857870E+02   4.8847995E+02   4.8828241E+02   4.8808490E+02   5.1919513E+02   5.2679987E+02   5.3065155E+02   5.3193549E+02   5.3203424E+02   5.3144165E+02   5.3045404E+02   5.2976270E+02   5.2926892E+02   5.7815637E+02   5.8388464E+02   5.8585986E+02   5.8556360E+02   5.8398340E+02   5.8220569E+02   5.8052673E+02   5.7914404E+02   5.7825519E+02   6.4590753E+02   6.4946301E+02   6.4926550E+02   6.4709271E+02   6.4403107E+02   6.4106818E+02   6.3850037E+02   6.3642633E+02   6.3533997E+02   7.2116467E+02   7.2244861E+02   7.2007831E+02   7.1563397E+02   7.1118964E+02   7.0694287E+02   7.0328864E+02   7.0072083E+02   6.9923938E+02   8.0323645E+02   8.0155743E+02   7.9681683E+02   7.9069354E+02   7.8466907E+02   7.7913837E+02   7.7499030E+02   7.7163239E+02   7.6985468E+02   8.9014752E+02   8.8609827E+02   8.7977747E+02   8.7207397E+02   8.6456799E+02   8.5834595E+02   8.5350659E+02   8.5004993E+02   8.4787714E+02   9.8071283E+02   9.7567596E+02   9.6826874E+02   9.5967639E+02   9.5147913E+02   9.4456573E+02   9.3933130E+02   9.3538080E+02   9.3320801E+02   1.0747349E+03   1.0697968E+03   1.0624883E+03   1.0537972E+03   1.0455011E+03   1.0384890E+03   1.0329583E+03   1.0289091E+03   1.0266375E+03   1.1731024E+03   1.1695469E+03   1.1632261E+03   1.1553251E+03   1.1472266E+03   1.1404120E+03   1.1350787E+03   1.1313258E+03   1.1289554E+03   1.2779883E+03   1.2766056E+03   1.2717662E+03   1.2649515E+03   1.2579395E+03   1.2514211E+03   1.2466805E+03   1.2430262E+03   1.2410510E+03   1.3926515E+03   1.3929478E+03   1.3901824E+03   1.3848492E+03   1.3792197E+03   1.3737878E+03   1.3692448E+03   1.3660844E+03   1.3643065E+03   1.5193639E+03   1.5217341E+03   1.5205491E+03   1.5165985E+03   1.5120554E+03   1.5077098E+03   1.5038582E+03   1.5011915E+03   1.4997101E+03   1.6608905E+03   1.6647423E+03   1.6647423E+03   1.6622732E+03   1.6586190E+03   1.6552611E+03   1.6521995E+03   1.6498291E+03   1.6486440E+03   1.8186143E+03   1.8233549E+03   1.8244413E+03   1.8225648E+03   1.8197007E+03   1.8172316E+03   1.8148613E+03   1.8131824E+03   1.8120959E+03   1.9936211E+03   1.9988556E+03   2.0002382E+03   1.9987568E+03   1.9966827E+03   1.9945100E+03   1.9926335E+03   1.9913496E+03   1.9903619E+03   2.1867017E+03   2.1918372E+03   2.1928250E+03   2.1916396E+03   2.1893682E+03   2.1875906E+03   2.1858127E+03   2.1844302E+03   2.1838374E+03   2.3979539E+03   2.4021018E+03   2.4022993E+03   2.3997314E+03   2.3973613E+03   2.3950896E+03   2.3933120E+03   2.3921267E+03   2.3912380E+03   2.6264893E+03   2.6289583E+03   2.6267856E+03   2.6229338E+03   2.6186870E+03   2.6157241E+03   2.6134526E+03   2.6117737E+03   2.6106873E+03   2.8720110E+03   2.8704309E+03   2.8644063E+03   2.8571968E+03   2.8508760E+03   2.8459377E+03   2.8425798E+03   2.8400120E+03   2.8387280E+03   3.1241497E+03   3.1165449E+03   3.1049897E+03   3.0924468E+03   3.0823730E+03   3.0750647E+03   3.0699290E+03   3.0666699E+03   3.0647935E+03   3.3666077E+03   3.3502131E+03   3.3303618E+03   3.3116958E+03   3.2963877E+03   3.2858201E+03   3.2792031E+03   3.2747588E+03   3.2726848E+03   3.5763738E+03   3.5501030E+03   3.5207708E+03   3.4936111E+03   3.4729700E+03   3.4591431E+03   3.4503533E+03   3.4450203E+03   3.4426499E+03   3.7281650E+03   3.6932034E+03   3.6548835E+03   3.6199219E+03   3.5936511E+03   3.5765654E+03   3.5665903E+03   3.5608623E+03   3.5580969E+03   3.8254360E+03   3.7878079E+03   3.7450439E+03   3.7054404E+03   3.6758120E+03   3.6567510E+03   3.6461836E+03   3.6409492E+03   3.6383813E+03   3.9633936E+03   3.9342590E+03   3.8971245E+03   3.8605830E+03   3.8323372E+03   3.8148564E+03   3.8062642E+03   3.8027087E+03   3.8011287E+03   4.4508608E+03   4.4464165E+03   4.4286396E+03   4.4068135E+03   4.3893325E+03   4.3790615E+03   4.3755059E+03   4.3754072E+03   4.3760986E+03   5.9442891E+03   5.9803364E+03   5.9972246E+03   6.0030513E+03   6.0059155E+03   6.0102607E+03   6.0165815E+03   6.0222109E+03   6.0264575E+03   9.0588232E+03   9.1435596E+03   9.2030127E+03   9.2447881E+03   9.2762920E+03   9.3014756E+03   9.3210303E+03   9.3352520E+03   9.3437451E+03   1.2842661E+04   1.2964332E+04   1.3060028E+04   1.3134788E+04   1.3194438E+04   1.3241151E+04   1.3275420E+04   1.3298036E+04   1.3310184E+04   1.4894155E+04   1.5017898E+04   1.5124358E+04   1.5215512E+04   1.5292837E+04   1.5353968E+04   1.5398112E+04   1.5425765E+04   1.5439689E+04   1.4511386E+04   1.4590291E+04   1.4669493E+04   1.4749484E+04   1.4824439E+04   1.4886655E+04   1.4931096E+04   1.4957463E+04   1.4970005E+04   1.2952783E+04   1.2947253E+04   1.2963844E+04   1.3004135E+04   1.3054696E+04   1.3101308E+04   1.3134192E+04   1.3151276E+04   1.3157201E+04   1.1598163E+04   1.1487169E+04   1.1426934E+04   1.1411134E+04   1.1421897E+04   1.1438783E+04   1.1448954E+04   1.1449053E+04   1.1443918E+04   1.1064766E+04   1.0870241E+04   1.0745626E+04   1.0679072E+04   1.0647969E+04   1.0630393E+04   1.0612322E+04   1.0590697E+04   1.0571837E+04   1.1232769E+04   1.0997773E+04   1.0839993E+04   1.0742934E+04   1.0682803E+04   1.0637582E+04   1.0594729E+04   1.0553655E+04   1.0521565E+04   1.1725102E+04   1.1496644E+04   1.1343122E+04   1.1244689E+04   1.1177455E+04   1.1121279E+04   1.1065794E+04   1.1012876E+04   1.0972989E+04   1.2229490E+04   1.2044101E+04   1.1926334E+04   1.1853777E+04   1.1803136E+04   1.1755950E+04   1.1703729E+04   1.1651311E+04   1.1610937E+04   1.2360808E+04   1.2237828E+04   1.2173278E+04   1.2144559E+04   1.2128964E+04   1.2107843E+04   1.2074186E+04   1.2033620E+04   1.2000063E+04   1.2228663E+04   1.2171729E+04   1.2165218E+04   1.2187421E+04   1.2214755E+04   1.2229756E+04   1.2224131E+04   1.2204198E+04   1.2182588E+04   1.2054876E+04   1.2060699E+04   1.2107758E+04   1.2176715E+04   1.2246756E+04   1.2298843E+04   1.2324592E+04   1.2327453E+04   1.2320449E+04   1.1980992E+04   1.2043221E+04   1.2133255E+04   1.2238474E+04   1.2341817E+04   1.2424156E+04   1.2476124E+04   1.2500184E+04   1.2506298E+04   1.1992088E+04   1.2099031E+04   1.2216913E+04   1.2342477E+04   1.2463900E+04   1.2563346E+04   1.2631547E+04   1.2668211E+04   1.2682700E+04   1.1947015E+04   1.2082742E+04   1.2211177E+04   1.2339610E+04   1.2461538E+04   1.2563868E+04   1.2635469E+04   1.2676540E+04   1.2694071E+04   1.1690387E+04   1.1838581E+04   1.1963059E+04   1.2080449E+04   1.2190654E+04   1.2283638E+04   1.2349467E+04   1.2387646E+04   1.2404276E+04   1.1146784E+04   1.1294297E+04   1.1405846E+04   1.1505008E+04   1.1597191E+04   1.1675811E+04   1.1731926E+04   1.1763866E+04   1.1777825E+04   1.0340239E+04   1.0479359E+04   1.0575223E+04   1.0655975E+04   1.0731228E+04   1.0795491E+04   1.0841800E+04   1.0868294E+04   1.0879581E+04   9.3612578E+03   9.4895879E+03   9.5725137E+03   9.6404600E+03   9.7032119E+03   9.7571523E+03   9.7964092E+03   9.8194180E+03   9.8297998E+03   8.3199297E+03   8.4373311E+03   8.5150293E+03   8.5775029E+03   8.6339189E+03   8.6820361E+03   8.7173691E+03   8.7393340E+03   8.7500752E+03   7.3062080E+03   7.4133193E+03   7.4930317E+03   7.5586494E+03   7.6154170E+03   7.6618799E+03   7.6963887E+03   7.7182637E+03   7.7300298E+03   6.3758413E+03   6.4689463E+03   6.5538262E+03   6.6295137E+03   6.6932134E+03   6.7431875E+03   6.7790527E+03   6.8024507E+03   6.8153125E+03   5.5534185E+03   5.6251602E+03   5.7094258E+03   5.7970234E+03   5.8734834E+03   5.9323911E+03   5.9737466E+03   6.0002334E+03   6.0146313E+03   4.8494551E+03   4.8903623E+03   4.9607373E+03   5.0511963E+03   5.1403975E+03   5.2134473E+03   5.2654141E+03   5.2987651E+03   5.3169155E+03   4.2675308E+03   4.2731255E+03   4.3142637E+03   4.3897339E+03   4.4797856E+03   4.5634419E+03   4.6286216E+03   4.6727949E+03   4.6971821E+03   3.7955093E+03   3.7808083E+03   3.7839255E+03   3.8259575E+03   3.8966877E+03   3.9758618E+03   4.0460686E+03   4.0983730E+03   4.1299204E+03   3.3680859E+03   3.3941648E+03   3.3797908E+03   3.3796013E+03   3.4114685E+03   3.4649395E+03   3.5234243E+03   3.5732124E+03   3.6060977E+03   2.8889153E+03   3.0133501E+03   3.0657678E+03   3.0568779E+03   3.0447412E+03   3.0556543E+03   3.0839167E+03   3.1168813E+03   3.1421604E+03   2.3316458E+03   2.5471814E+03   2.6963406E+03   2.7800786E+03   2.7839893E+03   2.7620967E+03   2.7511108E+03   2.7547974E+03   2.7638013E+03   1.9588711E+03   2.1021260E+03   2.2359456E+03   2.3824595E+03   2.4781699E+03   2.5176802E+03   2.5120825E+03   2.4981196E+03   2.4914739E+03   1.9642743E+03   1.9453247E+03   2.0270217E+03   2.0850925E+03   2.1548706E+03   2.1912244E+03   2.2107141E+03   2.2184326E+03   1.9758013E+03   1.9294746E+03   1.9581509E+03   1.9488691E+03   1.9413458E+03   1.9322745E+03   2.0558857E+03   2.0309346E+03   2.0068722E+03   1.9877574E+03   3.2927460E+02   3.2927460E+02   3.2897830E+02   3.2858325E+02   3.2739810E+02   3.2542285E+02   3.2236121E+02   3.1722556E+02   3.8082867E+02   3.8082867E+02   3.8072992E+02   3.8003857E+02   3.7905096E+02   3.7697693E+02   3.7391528E+02   3.6858212E+02   4.1964240E+02   4.1964240E+02   4.1954364E+02   4.1904980E+02   4.1825970E+02   4.1667950E+02   4.1371664E+02   4.0887726E+02   4.5302417E+02   4.5302417E+02   4.5302417E+02   4.5312292E+02   4.5262912E+02   4.5164148E+02   4.4907364E+02   4.4512314E+02   4.8788736E+02   4.8808490E+02   4.8828241E+02   4.8847995E+02   4.8857870E+02   4.8838116E+02   4.8699850E+02   4.8433191E+02   5.2897260E+02   5.2926892E+02   5.2976270E+02   5.3045404E+02   5.3144165E+02   5.3203424E+02   5.3193549E+02   5.3065155E+02   5.7786011E+02   5.7825519E+02   5.7914404E+02   5.8052673E+02   5.8220569E+02   5.8398340E+02   5.8556360E+02   5.8585986E+02   6.3464862E+02   6.3533997E+02   6.3642633E+02   6.3850037E+02   6.4106818E+02   6.4403107E+02   6.4709271E+02   6.4926550E+02   6.9874554E+02   6.9923938E+02   7.0072083E+02   7.0328864E+02   7.0694287E+02   7.1118964E+02   7.1563397E+02   7.2007831E+02   7.6926208E+02   7.6985468E+02   7.7163239E+02   7.7499030E+02   7.7913837E+02   7.8466907E+02   7.9069354E+02   7.9681683E+02   8.4708704E+02   8.4787714E+02   8.5004993E+02   8.5350659E+02   8.5834595E+02   8.6456799E+02   8.7207397E+02   8.7977747E+02   9.3241791E+02   9.3320801E+02   9.3538080E+02   9.3933130E+02   9.4456573E+02   9.5147913E+02   9.5967639E+02   9.6826874E+02   1.0258474E+03   1.0266375E+03   1.0289091E+03   1.0329583E+03   1.0384890E+03   1.0455011E+03   1.0537972E+03   1.0624883E+03   1.1283629E+03   1.1289554E+03   1.1313258E+03   1.1350787E+03   1.1404120E+03   1.1472266E+03   1.1553251E+03   1.1632261E+03   1.2404585E+03   1.2410510E+03   1.2430262E+03   1.2466805E+03   1.2514211E+03   1.2579395E+03   1.2649515E+03   1.2717662E+03   1.3636152E+03   1.3643065E+03   1.3660844E+03   1.3692448E+03   1.3737878E+03   1.3792197E+03   1.3848492E+03   1.3901824E+03   1.4991176E+03   1.4997101E+03   1.5011915E+03   1.5038582E+03   1.5077098E+03   1.5120554E+03   1.5165985E+03   1.5205491E+03   1.6483477E+03   1.6486440E+03   1.6498291E+03   1.6521995E+03   1.6552611E+03   1.6586190E+03   1.6622732E+03   1.6647423E+03   1.8116022E+03   1.8120959E+03   1.8131824E+03   1.8148613E+03   1.8172316E+03   1.8197007E+03   1.8225648E+03   1.8244413E+03   1.9900657E+03   1.9903619E+03   1.9913496E+03   1.9926335E+03   1.9945100E+03   1.9966827E+03   1.9987568E+03   2.0002382E+03   2.1837388E+03   2.1838374E+03   2.1844302E+03   2.1858127E+03   2.1875906E+03   2.1893682E+03   2.1916396E+03   2.1928250E+03   2.3909417E+03   2.3912380E+03   2.3921267E+03   2.3933120E+03   2.3950896E+03   2.3973613E+03   2.3997314E+03   2.4022993E+03   2.6102922E+03   2.6106873E+03   2.6117737E+03   2.6134526E+03   2.6157241E+03   2.6186870E+03   2.6229338E+03   2.6267856E+03   2.8382344E+03   2.8387280E+03   2.8400120E+03   2.8425798E+03   2.8459377E+03   2.8508760E+03   2.8571968E+03   2.8644063E+03   3.0642009E+03   3.0647935E+03   3.0666699E+03   3.0699290E+03   3.0750647E+03   3.0823730E+03   3.0924468E+03   3.1049897E+03   3.2716970E+03   3.2726848E+03   3.2747588E+03   3.2792031E+03   3.2858201E+03   3.2963877E+03   3.3116958E+03   3.3303618E+03   3.4415635E+03   3.4426499E+03   3.4450203E+03   3.4503533E+03   3.4591431E+03   3.4729700E+03   3.4936111E+03   3.5207708E+03   3.5571094E+03   3.5580969E+03   3.5608623E+03   3.5665903E+03   3.5765654E+03   3.5936511E+03   3.6199219E+03   3.6548835E+03   3.6374924E+03   3.6383813E+03   3.6409492E+03   3.6461836E+03   3.6567510E+03   3.6758120E+03   3.7054404E+03   3.7450439E+03   3.8007334E+03   3.8011287E+03   3.8027087E+03   3.8062642E+03   3.8148564E+03   3.8323372E+03   3.8605830E+03   3.8971245E+03   4.3762959E+03   4.3760986E+03   4.3754072E+03   4.3755059E+03   4.3790615E+03   4.3893325E+03   4.4068135E+03   4.4287383E+03   6.0277417E+03   6.0264575E+03   6.0222109E+03   6.0165815E+03   6.0102607E+03   6.0059155E+03   6.0030513E+03   5.9972246E+03   9.3463125E+03   9.3437451E+03   9.3352520E+03   9.3210303E+03   9.3014756E+03   9.2762920E+03   9.2447881E+03   9.2030127E+03   1.3314035E+04   1.3310184E+04   1.3298036E+04   1.3275420E+04   1.3241151E+04   1.3194438E+04   1.3134788E+04   1.3060028E+04   1.5444133E+04   1.5439689E+04   1.5425765E+04   1.5398112E+04   1.5353968E+04   1.5292837E+04   1.5215512E+04   1.5124358E+04   1.4973362E+04   1.4970005E+04   1.4957463E+04   1.4931096E+04   1.4886655E+04   1.4824439E+04   1.4749583E+04   1.4669493E+04   1.3158188E+04   1.3157201E+04   1.3151276E+04   1.3134192E+04   1.3101308E+04   1.3054696E+04   1.3004135E+04   1.2963942E+04   1.1441055E+04   1.1443918E+04   1.1449053E+04   1.1448954E+04   1.1438783E+04   1.1421897E+04   1.1411134E+04   1.1426934E+04   1.0564432E+04   1.0571837E+04   1.0590697E+04   1.0612322E+04   1.0630393E+04   1.0647969E+04   1.0679072E+04   1.0745626E+04   1.0509421E+04   1.0521565E+04   1.0553655E+04   1.0594729E+04   1.0637582E+04   1.0682803E+04   1.0742934E+04   1.0839993E+04   1.0958278E+04   1.0972989E+04   1.1012876E+04   1.1065794E+04   1.1121279E+04   1.1177455E+04   1.1244689E+04   1.1343122E+04   1.1595734E+04   1.1610937E+04   1.1651311E+04   1.1703729E+04   1.1755950E+04   1.1803136E+04   1.1853777E+04   1.1926334E+04   1.1987034E+04   1.2000063E+04   1.2033620E+04   1.2074186E+04   1.2107843E+04   1.2128964E+04   1.2144559E+04   1.2173278E+04   1.2173707E+04   1.2182588E+04   1.2204198E+04   1.2224131E+04   1.2229756E+04   1.2214755E+04   1.2187421E+04   1.2165218E+04   1.2316404E+04   1.2320351E+04   1.2327453E+04   1.2324592E+04   1.2298843E+04   1.2246756E+04   1.2176715E+04   1.2107758E+04   1.2506199E+04   1.2506298E+04   1.2500184E+04   1.2476124E+04   1.2424156E+04   1.2341817E+04   1.2238474E+04   1.2133255E+04   1.2685952E+04   1.2682700E+04   1.2668211E+04   1.2631547E+04   1.2563346E+04   1.2463900E+04   1.2342477E+04   1.2216913E+04   1.2698604E+04   1.2694071E+04   1.2676540E+04   1.2635469E+04   1.2563868E+04   1.2461538E+04   1.2339610E+04   1.2211177E+04   1.2408410E+04   1.2404276E+04   1.2387646E+04   1.2349467E+04   1.2283638E+04   1.2190654E+04   1.2080449E+04   1.1963059E+04   1.1781266E+04   1.1777825E+04   1.1763866E+04   1.1731926E+04   1.1675811E+04   1.1597191E+04   1.1505008E+04   1.1405846E+04   1.0882330E+04   1.0879581E+04   1.0868294E+04   1.0841800E+04   1.0795491E+04   1.0731228E+04   1.0655975E+04   1.0575223E+04   9.8325430E+03   9.8297998E+03   9.8194180E+03   9.7964092E+03   9.7571523E+03   9.7032119E+03   9.6404600E+03   9.5725137E+03   8.7531025E+03   8.7500752E+03   8.7393340E+03   8.7173691E+03   8.6820361E+03   8.6339189E+03   8.5775029E+03   8.5150293E+03   7.7337251E+03   7.7300298E+03   7.7182637E+03   7.6963887E+03   7.6618799E+03   7.6154170E+03   7.5586494E+03   7.4930317E+03   6.8192773E+03   6.8153125E+03   6.8024507E+03   6.7790527E+03   6.7431875E+03   6.6932134E+03   6.6295137E+03   6.5538262E+03   6.0191426E+03   6.0146313E+03   6.0002334E+03   5.9737466E+03   5.9323911E+03   5.8734834E+03   5.7970234E+03   5.7094258E+03   5.3226182E+03   5.3169155E+03   5.2987651E+03   5.2654141E+03   5.2134473E+03   5.1403975E+03   5.0511963E+03   4.9607373E+03   4.7051548E+03   4.6971821E+03   4.6727949E+03   4.6286216E+03   4.5634419E+03   4.4797856E+03   4.3897339E+03   4.3142637E+03   4.1402520E+03   4.1299204E+03   4.0983730E+03   4.0460686E+03   3.9758618E+03   3.8966877E+03   3.8259575E+03   3.7839255E+03   3.6173899E+03   3.6060977E+03   3.5732124E+03   3.5234243E+03   3.4649395E+03   3.4114685E+03   3.3796013E+03   3.3797908E+03   3.1513186E+03   3.1421604E+03   3.1168813E+03   3.0839167E+03   3.0556543E+03   3.0447412E+03   3.0568779E+03   3.0657678E+03   2.7679089E+03   2.7638013E+03   2.7547974E+03   2.7511108E+03   2.7620967E+03   2.7839893E+03   2.7800786E+03   2.6963406E+03   2.4901050E+03   2.4914739E+03   2.4981196E+03   2.5120825E+03   2.5176802E+03   2.4781699E+03   2.3824595E+03   2.2359456E+03   2.2210583E+03   2.2184326E+03   2.2107141E+03   2.1912244E+03   2.1548706E+03   2.0850925E+03   2.0270217E+03   1.9453247E+03   1.9276510E+03   1.9322745E+03   1.9413458E+03   1.9488691E+03   1.9581509E+03   1.9295496E+03   1.9758013E+03   1.9802208E+03   1.9877574E+03   2.0068722E+03   2.0309346E+03   2.0558857E+03   3.1001587E+02   2.9954703E+02   2.8552274E+02   2.6715289E+02   2.4364740E+02   2.1401860E+02   1.7876035E+02   3.6087863E+02   3.4952094E+02   3.3460776E+02   3.1465771E+02   2.8858438E+02   2.5569643E+02   2.1589510E+02   1.7006924E+02   4.0117377E+02   3.9021112E+02   3.7519922E+02   3.5445905E+02   3.2720056E+02   2.9174478E+02   2.4789418E+02   1.9722896E+02   4.3850604E+02   4.2833350E+02   4.1361786E+02   3.9307526E+02   3.6433533E+02   3.2641046E+02   2.7870813E+02   2.2261096E+02   4.7889996E+02   4.6991257E+02   4.5578952E+02   4.3554318E+02   4.0561810E+02   3.6492789E+02   3.1288000E+02   2.5135088E+02   5.2679987E+02   5.1919513E+02   5.0625720E+02   4.8601086E+02   4.5559198E+02   4.1361786E+02   3.5880463E+02   2.9164603E+02   5.8388464E+02   5.7815637E+02   5.6669995E+02   5.4744122E+02   5.1939264E+02   4.8028265E+02   4.2695084E+02   3.5702689E+02   6.4946301E+02   6.4590753E+02   6.3682141E+02   6.2210577E+02   6.0106934E+02   5.7232941E+02   5.3065155E+02   4.6359177E+02   7.2244861E+02   7.2116467E+02   7.1632532E+02   7.0881934E+02   7.0180719E+02   6.9440002E+02   6.7869678E+02   6.2664886E+02   8.0155743E+02   8.0323645E+02   8.0284137E+02   8.0521167E+02   8.1666815E+02   8.4037115E+02   8.6634576E+02   8.5301276E+02   8.8609827E+02   8.9014752E+02   8.9399927E+02   9.0545575E+02   9.3577588E+02   9.9286066E+02   1.0692042E+03   1.1190793E+03   9.7567596E+02   9.8071283E+02   9.8703369E+02   1.0043171E+03   1.0469825E+03   1.1281654E+03   1.2412487E+03   1.3219377E+03   1.0697968E+03   1.0747349E+03   1.0805619E+03   1.0979441E+03   1.1413009E+03   1.2209036E+03   1.3097899E+03   1.3272709E+03   1.1695469E+03   1.1731024E+03   1.1765591E+03   1.1881143E+03   1.2198170E+03   1.2724575E+03   1.3070244E+03   1.2843091E+03   1.2766056E+03   1.2779883E+03   1.2782845E+03   1.2822351E+03   1.2966544E+03   1.3178883E+03   1.3172958E+03   1.2904324E+03   1.3929478E+03   1.3926515E+03   1.3895898E+03   1.3868245E+03   1.3872195E+03   1.3863307E+03   1.3713187E+03   1.3498872E+03   1.5217341E+03   1.5193639E+03   1.5140306E+03   1.5069198E+03   1.4990188E+03   1.4878586E+03   1.4683036E+03   1.4499337E+03   1.6647423E+03   1.6608905E+03   1.6534834E+03   1.6434095E+03   1.6319531E+03   1.6176326E+03   1.5977813E+03   1.5805966E+03   1.8233549E+03   1.8186143E+03   1.8096268E+03   1.7975779E+03   1.7838499E+03   1.7688379E+03   1.7488879E+03   1.7310118E+03   1.9988556E+03   1.9936211E+03   1.9837449E+03   1.9702144E+03   1.9547086E+03   1.9392030E+03   1.9183640E+03   1.8975251E+03   2.1918372E+03   2.1867017E+03   2.1764304E+03   2.1621096E+03   2.1453201E+03   2.1292219E+03   2.1073953E+03   2.0840874E+03   2.4021018E+03   2.3979539E+03   2.3881763E+03   2.3736582E+03   2.3566711E+03   2.3405728E+03   2.3184500E+03   2.2946482E+03   2.6289583E+03   2.6264893E+03   2.6186870E+03   2.6058479E+03   2.5900459E+03   2.5751328E+03   2.5539976E+03   2.5312822E+03   2.8704309E+03   2.8720110E+03   2.8676655E+03   2.8584805E+03   2.8469253E+03   2.8349751E+03   2.8156177E+03   2.7967542E+03   3.1165449E+03   3.1241497E+03   3.1263223E+03   3.1237546E+03   3.1205942E+03   3.1166436E+03   3.1001504E+03   3.0853359E+03   3.3502131E+03   3.3666077E+03   3.3772739E+03   3.3852737E+03   3.3961375E+03   3.4073965E+03   3.3957424E+03   3.3843848E+03   3.5501030E+03   3.5763738E+03   3.5973113E+03   3.6173601E+03   3.6480752E+03   3.6859998E+03   3.6831357E+03   3.6725681E+03   3.6932034E+03   3.7281650E+03   3.7572998E+03   3.7885085E+03   3.8424326E+03   3.9192693E+03   3.9329973E+03   3.9212444E+03   3.7878079E+03   3.8254360E+03   3.8562495E+03   3.8920015E+03   3.9665664E+03   4.0901174E+03   4.1304121E+03   4.1154990E+03   3.9342590E+03   3.9633936E+03   3.9828496E+03   4.0096138E+03   4.0919810E+03   4.2557271E+03   4.3246626E+03   4.3051079E+03   4.4464165E+03   4.4508608E+03   4.4419722E+03   4.4402930E+03   4.5064629E+03   4.6732705E+03   4.7519829E+03   4.7219595E+03   5.9803364E+03   5.9442891E+03   5.8892793E+03   5.8421709E+03   5.8688359E+03   5.9773735E+03   5.9873486E+03   5.9290801E+03   9.1435596E+03   9.0588232E+03   8.9527559E+03   8.8563662E+03   8.8037275E+03   8.7468418E+03   8.6270469E+03   8.5049795E+03   1.2964431E+04   1.2842661E+04   1.2702128E+04   1.2559026E+04   1.2373064E+04   1.2104836E+04   1.1873148E+04   1.1690544E+04   1.5017898E+04   1.4894155E+04   1.4757377E+04   1.4591070E+04   1.4295293E+04   1.3941248E+04   1.3694850E+04   1.3490025E+04   1.4590291E+04   1.4511386E+04   1.4422803E+04   1.4271904E+04   1.3979490E+04   1.3707024E+04   1.3578542E+04   1.3435443E+04   1.2947253E+04   1.2952783E+04   1.2952781E+04   1.2897085E+04   1.2747375E+04   1.2691184E+04   1.2767516E+04   1.2739763E+04   1.1487169E+04   1.1598163E+04   1.1738387E+04   1.1871007E+04   1.1974789E+04   1.2161127E+04   1.2360695E+04   1.2417572E+04   1.0870241E+04   1.1064766E+04   1.1320710E+04   1.1611511E+04   1.1925021E+04   1.2294620E+04   1.2568730E+04   1.2659277E+04   1.0997773E+04   1.1232769E+04   1.1547740E+04   1.1923239E+04   1.2344748E+04   1.2772183E+04   1.3109173E+04   1.3232493E+04   1.1496644E+04   1.1725102E+04   1.2038763E+04   1.2422321E+04   1.2852680E+04   1.3282347E+04   1.3652776E+04   1.3795242E+04   1.2044101E+04   1.2229490E+04   1.2497900E+04   1.2829982E+04   1.3204713E+04   1.3617349E+04   1.3991390E+04   1.4130188E+04   1.2237828E+04   1.2360808E+04   1.2560971E+04   1.2817789E+04   1.3121394E+04   1.3504057E+04   1.3856227E+04   1.3975464E+04   1.2171729E+04   1.2228663E+04   1.2353391E+04   1.2528938E+04   1.2754915E+04   1.3086283E+04   1.3397133E+04   1.3485268E+04   1.2060798E+04   1.2054876E+04   1.2103505E+04   1.2193964E+04   1.2332669E+04   1.2585420E+04   1.2826832E+04   1.2874505E+04   1.2043221E+04   1.1980992E+04   1.1954065E+04   1.1954458E+04   1.1994209E+04   1.2132676E+04   1.2265234E+04   1.2260935E+04   1.2099031E+04   1.1992088E+04   1.1894507E+04   1.1805906E+04   1.1733980E+04   1.1732634E+04   1.1714445E+04   1.1640486E+04   1.2082742E+04   1.1947015E+04   1.1791393E+04   1.1616577E+04   1.1447010E+04   1.1284170E+04   1.1104111E+04   1.0945926E+04   1.1838581E+04   1.1690387E+04   1.1495165E+04   1.1243870E+04   1.0982962E+04   1.0698198E+04   1.0361813E+04   1.0118801E+04   1.1294297E+04   1.1146784E+04   1.0931671E+04   1.0628333E+04   1.0282182E+04   9.9357891E+03   9.4873721E+03   9.1662031E+03   1.0479359E+04   1.0340239E+04   1.0122068E+04   9.8001387E+03   9.4027119E+03   9.0235723E+03   8.5340840E+03   8.1624077E+03   9.4895879E+03   9.3612578E+03   9.1536738E+03   8.8413096E+03   8.4396396E+03   8.0495479E+03   7.5888960E+03   7.1952202E+03   8.4373311E+03   8.3199297E+03   8.1345483E+03   7.8543770E+03   7.4886987E+03   7.1150513E+03   6.6899531E+03   6.2874688E+03   7.4133193E+03   7.3062080E+03   7.1515059E+03   6.9198975E+03   6.6148032E+03   6.2790405E+03   5.8359185E+03   5.3429453E+03   6.4689463E+03   6.3758413E+03   6.2589653E+03   6.0847373E+03   5.8657354E+03   5.5881382E+03   5.1001162E+03   4.5267354E+03   5.6251602E+03   5.5534185E+03   5.4789673E+03   5.3719360E+03   5.2492114E+03   5.0233091E+03   4.4726631E+03   4.8903623E+03   4.8494551E+03   4.8193335E+03   4.7778262E+03   4.7281821E+03   4.4691104E+03   3.9174885E+03   4.2731255E+03   4.2675308E+03   4.2691147E+03   4.2659307E+03   4.2029424E+03   3.8363413E+03   3.7808083E+03   3.7955093E+03   3.7889998E+03   3.7695383E+03   3.5588567E+03   3.2071089E+03   3.3941648E+03   3.3680859E+03   3.2932415E+03   3.1673418E+03   2.8578679E+03   3.0133501E+03   2.8889153E+03   2.6747844E+03   2.4983682E+03   2.5471814E+03   2.3316458E+03   2.0672085E+03   2.2483901E+03   2.1021260E+03   1.9588711E+03   1.9642743E+03 
Type 1 2975 float
0 0 0 0 0 0 0 0 0 0 0 0 0 0 0 0 0 0 0 0 0 0 0 0 0 0 0 0 0 0 0 0 0 0 0 0 0 0 0 0 0 0 0 0 0 0 0 0 0 0 0 0 0 0 0 0 0 0 0 0 0 0 0 0 0 0 0 0 0 0 0 0 0 0 0 0 0 0 0 0 0 0 0 0 0 0 0 0 0 0 0 0 0 0 0 0 0 0 0 0 0 0 0 0 0 0 0 0 0 0 0 0 0 0 0 0 0 0 0 0 0 0 0 0 0 0 0 0 0 0 0 0 0 0 0 0 0 0 0 0 0 0 0 0 0 0 0 0 0 0 0 0 0 0 0 0 0 0 0 0 0 0 0 0 0 0 0 0 0 0 0 0 0 0 0 0 0 0 0 0 0 0 0 0 0 0 0 0 0 0 0 0 0 0 0 0 0 0 0 0 0 0 0 0 0 0 0 0 0 0 0 0 0 0 0 0 0 0 0 0 0 0 0 0 0 0 0 0 0 0 0 0 0 0 0 0 0 0 0 0 0 0 0 0 0 0 0 0 0 0 0 0 0 0 0 0 0 0 0 0 0 0 0 0 0 0 0 0 0 0 0 0 0 0 0 0 0 0 0 0 0 0 0 0 0 0 0 0 0 0 0 0 0 0 0 0 0 0 0 0 0 0 0 0 0 0 0 0 0 0 0 0 0 0 0 0 0 0 0 0 0 0 0 0 0 0 0 0 0 0 0 0 0 0 0 0 0 0 0 0 0 0 0 0 0 0 0 0 0 0 0 0 0 0 0 0 0 0 0 0 0 0 0 0 0 0 0 0 0 0 0 0 0 0 0 0 0 0 0 0 0 0 0 0 0 0 0 0 0 0 0 0 0 0 0 0 0 0 0 0 0 0 0 0 0 0 0 0 0 0 0 0 0 0 0 0 0 0 0 0 0 0 0 0 0 0 0 0 0 0 0 0 0 0 0 0 0 0 0 0 0 0 0 0 0 0 0 0 0 0 0 0 0 0 0 0 0 0 0 0 0 0 0 0 0 0 0 0 0 0 0 0 0 0 0 0 0 0 0 0 0 0 0 0 0 0 0 0 0 0 0 0 0 0 0 0 0 0 0 0 0 0 0 0 0 0 0 0 0 0 0 0 0 0 0 0 0 0 0 0 0 0 0 0 0 0 0 0 0 0 0 0 0 0 0 0 0 0 0 0 0 0 0 0 0 0 0 0 0 0 0 0 0 0 0 0 0 0 0 0 0 0 0 0 0 0 0 0 0 0 0 0 0 0 0 0 0 0 0 0 0 0 0 0 0 0 0 0 0 0 0 0 0 0 0 0 0 0 0 0 0 0 0 0 0 0 0 0 0 0 0 0 0 0 0 0 0 0 0 0 0 0 0 0 0 0 0 0 0 0 0 0 0 0 0 0 0 0 0 0 0 0 0 0 0 0 0 0 0 0 0 0 0 0 0 0 0 0 0 0 0 0 0 0 0 0 0 0 0 0 0 0 0 0 0 0 0 0 0 0 0 0 0 0 0 0 0 0 0 0 0 0 0 0 0 0 0 0 0 0 0 0 0 0 0 0 0 0 0 0 0 0 0 0 0 0 0 0 0 0 0 0 0 0 0 0 0 0 0 0 0 0 0 0 0 0 0 0 0 0 0 0 0 0 0 0 0 0 0 0 0 0 0 0 0 0 0 0 0 0 0 0 0 0 0 0 0 0 0 0 0 0 0 0 0 0 0 0 0 0 0 0 0 0 0 0 0 0 0 0 0 0 0 0 0 0 0 0 0 0 0 0 0 0 0 0 0 0 0 0 0 0 0 0 0 0 0 0 0 0 0 0 0 0 0 0 0 0 0 0 0 0 0 0 0 0 0 0 0 0 0 0 0 0 0 0 0 0 0 0 0 0 0 0 0 0 0 0 0 0 0 0 0 0 0 0 0 0 0 0 0 0 0 0 0 0 0 0 0 0 0 0 0 0 0 0 0 0 0 0 0 0 0 0 0 0 0 0 0 0 0 0 0 0 0 0 0 0 0 0 0 0 0 0 0 0 0 0 0 0 0 0 0 0 0 0 0 0 0 0 0 0 0 0 0 0 0 0 0 0 0 0 0 0 0 0 0 0 0 0 0 0 0 0 0 0 0 0 0 0 0 0 0 0 0 0 0 0 0 0 0 0 0 0 0 0 0 0 0 0 0 0 0 0 0 0 0 0 0 0 0 0 0 0 0 0 0 0 0 0 0 0 0 0 0 0 0 0 0 0 0 0 0 0 0 0 0 0 0 0 0 0 0 0 0 0 0 0 0 0 0 3 3 3 3 3 3 3 3 3 3 3 3 3 3 3 3 3 3 3 3 3 3 3 3 3 3 3 3 3 3 3 3 3 3 3 3 3 3 3 3 3 3 3 3 3 3 3 3 3 3 3 3 3 3 3 3 3 3 3 3 3 3 3 3 3 3 3 3 3 3 3 3 3 3 3 3 3 3 3 3 3 3 3 3 3 3 3 3 3 3 3 3 3 3 3 3 3 3 3 3 3 3 3 3 3 3 3 3 3 3 3 3 3 3 3 3 3 3 3 3 3 3 3 3 3 3 3 3 3 3 3 3 3 3 3 3 3 3 3 3 3 3 3 3 3 3 3 3 3 3 3 3 3 3 3 3 3 3 3 3 3 3 3 3 3 3 3 3 3 3 3 3 3 3 3 3 3 3 3 3 3 3 3 3 3 3 3 3 3 3 3 3 3 3 3 3 3 3 3 3 3 3 3 3 3 3 3 3 3 3 3 3 3 3 3 3 3 3 3 3 3 3 3 3 3 3 3 3 3 3 3 3 3 3 3 3 3 3 3 3 3 3 3 3 3 3 3 3 3 3 3 3 3 3 3 3 3 3 3 3 3 3 3 3 3 3 3 3 3 3 3 3 3 3 3 3 3 3 3 3 3 3 3 3 3 3 3 3 3 3 3 3 3 3 3 3 3 3 3 3 3 3 3 3 3 3 3 3 3 3 3 3 3 3 3 3 3 3 3 3 3 3 3 3 3 3 3 3 3 3 3 3 3 3 3 3 3 3 3 3 3 3 3 3 3 3 3 3 3 3 3 3 3 3 3 3 3 3 3 3 3 3 3 3 3 3 3 3 3 3 3 3 3 3 3 3 3 3 3 3 3 3 3 3 3 3 3 3 3 3 3 3 3 3 3 3 3 3 3 3 3 3 3 3 3 3 3 3 3 3 3 3 3 3 3 3 3 3 3 3 3 3 3 3 3 3 3 3 3 3 3 3 3 3 3 3 3 3 3 3 3 3 3 3 3 3 3 3 3 3 3 3 3 3 3 3 3 3 3 3 3 3 3 3 3 3 3 3 3 3 3 3 3 3 3 3 3 3 3 3 3 3 3 3 3 3 3 3 3 3 3 3 3 3 3 3 3 3 3 3 3 3 3 3 3 3 3 3 3 3 3 3 3 3 3 3 3 3 3 3 3 3 3 3 3 3 3 3 3 3 3 3 3 3 3 3 3 3 3 3 3 3 3 3 3 3 3 3 3 3 3 3 3 3 3 3 3 3 3 3 3 3 3 3 3 3 3 3 3 3 3 3 3 3 3 3 3 3 3 3 3 3 3 3 3 3 3 3 3 3 3 3 3 3 3 3 3 3 3 3 3 3 3 3 3 3 3 3 3 3 3 3 3 3 3 3 3 3 3 3 3 3 3 3 3 3 3 3 3 3 3 3 3 3 3 3 3 3 3 3 3 3 3 3 3 3 3 3 3 3 3 3 3 3 3 3 3 3 3 3 3 3 3 3 3 3 3 3 3 3 3 3 3 3 3 3 3 3 3 3 3 3 3 3 3 3 3 3 3 3 3 3 3 3 3 3 3 3 3 3 3 3 3 3 3 3 3 3 3 3 3 3 3 3 3 3 3 3 3 3 3 3 3 3 3 3 3 3 3 3 3 3 3 3 3 3 3 3 3 3 3 3 3 3 3 3 3 3 3 3 3 3 3 3 3 3 3 3 3 3 3 3 3 3 3 3 3 3 3 3 3 3 3 3 3 3 3 3 3 3 3 3 3 3 3 3 3 3 3 3 3 3 3 3 3 3 3 3 3 3 3 3 3 3 3 3 3 3 3 3 3 3 3 3 3 3 3 3 3 3 3 3 3 3 3 3 3 3 3 3 3 3 3 3 3 3 3 3 3 3 3 3 3 3 3 3 3 3 3 3 3 3 3 3 3 3 3 3 3 3 3 3 3 3 3 3 3 3 3 3 3 3 3 3 3 3 3 3 3 3 3 3 3 3 3 3 3 3 3 3 3 3 3 3 3 3 3 3 3 3 3 3 3 3 3 3 3 3 3 3 3 3 3 3 3 3 3 3 3 3 3 3 3 3 3 3 3 3 3 3 3 3 3 3 3 3 3 3 3 3 3 3 3 3 3 3 3 3 3 3 3 3 3 3 3 3 3 3 3 3 3 3 3 3 3 3 3 3 3 3 3 3 3 3 3 3 3 3 3 3 3 3 3 3 3 3 3 3 3 3 3 3 3 3 3 3 3 3 3 3 3 3 3 3 3 3 3 3 3 3 3 3 3 3 3 3 3 3 3 3 3 3 3 3 3 3 3 3 3 3 3 3 3 3 3 3 3 3 3 3 3 3 3 3 3 3 3 3 3 3 3 3 3 3 3 3 3 3 3 3 3 3 3 3 3 3 3 3 3 3 3 3 3 3 3 3 3 3 3 3 3 3 3 3 3 3 3 3 3 3 3 3 3 3 3 3 3 3 3 3 3 3 3 3 3 3 3 3 3 3 3 3 3 3 3 3 3 3 3 3 3 3 3 3 3 3 3 3 3 3 3 3 3 3 3 3 3 3 3 3 3 3 3 3 3 3 3 3 3 3 3 3 3 3 3 3 3 3 3 3 3 3 3 3 3 3 3 3 3 3 3 3 3 3 3 3 3 3 3 3 3 3 3 3 3 3 3 3 3 3 3 3 3 3 3 3 3 3 3 3 3 3 3 3 3 3 3 3 3 3 3 3 3 3 3 3 3 3 3 3 3 3 3 3 3 3 3 3 3 3 3 3 3 3 3 3 3 3 3 3 3 3 3 3 3 3 3 3 3 3 3 3 3 3 3 3 3 3 3 3 3 3 3 3 3 3 3 3 3 3 3 3 3 3 3 3 3 3 3 3 3 3 3 3 3 3 3 3 3 3 3 3 3 3 3 3 3 3 3 3 3 3 3 3 3 3 3 3 3 3 3 3 3 3 3 3 3 3 3 3 3 3 3 3 3 3 3 3 3 3 3 3 3 3 3 3 3 3 3 3 3 3 3 3 3 3 3 3 3 3 3 3 3 3 3 3 3 3 3 3 3 3 3 3 3 3 3 3 3 3 3 3 3 3 3 3 3 3 3 3 3 3 3 3 3 3 3 3 3 3 3 3 3 3 3 3 3 3 3 3 3 3 3 3 3 3 3 3 3 3 3 3 3 3 3 3 3 3 3 3 3 3 3 3 3 3 3 3 3 3 3 3 3 3 3 3 3 3 3 3 3 3 3 3 3 3 3 3 3 3 3 3 3 3 3 3 3 3 3 3 3 3 3 3 3 3 3 3 3 3 3 3 3 3 3 3 3 3 3 3 3 3 3 3 3 3 3 3 3 3 3 3 3 3 3 3 3 3 3 3 3 3 3 3 3 3 3 3 3 3 3 3 3 3 3 3 3 3 3 3 3 3 3 3 3 3 3 3 3 3 3 3 3 3 3 3 3 3 3 3 3 3 3 3 3 3 3 3 3 3 3 3 3 3 3 3 3 3 3 3 3 3 3 3 3 3 3 3 3 3 3 3 3 3 3 3 3 3 3 3 3 3 3 3 3 3 3 3 3 3 3 3 3 3 3 3 3 3 3 3 3 3 3 3 3 3 3 3 3 3 3 3 3 3 3 3 3 3 3 3 3 3 3 3 3 3 3 3 3 3 3 3 3 3 3 3 3 3 3 3 3 3 3 3 3 3 3 3 3 3 3 3 3 3 3 3 3 3 3 3 3 3 3 3 3 3 3 3 3 3 3 3 3 3 3 3 3 3 3 3 3 3 3 3 3 3 3 3 3 3 3 3 3 3 3 3 3 3 3 3 3 3 3 3 3 3 3 3 3 3 3 3 3 3 3 3 3 3 3 3 3 3 3 3 3 3 3 3 3 3 3 3 3 3 3 3 3 3 3 3 3 3 3 3 3 3 3 3 3 3 3 3 3 3 3 3 3 3 3 3 3 3 3 3 3 3 3 3 3 3 3 3 3 3 3 3 3 3 3 3 3 3 3 3 3 3 3 3 3 3 3 3 3 3 3 3 3 3 3 3 3 3 3 3 3 3 3 3 3 3 3 3 3 3 3 3 3 3 3 3 3 3 3 3 3 3 3 3 3 3 3 3 3 3 3 3 3 3 3 3 3 3 3 3 3 3 3 3 3 3 3 3 3 3 3 3 3 3 3 3 3 3 3 3 3 3 3 3 3 3 3 3 3 3 3 3 3 3 3 3 3 3 3 3 3 3 3 3 3 3 3 3 3 3 3 3 3 3 3 3 3 3 3 3 3 3 3 3 3 3 3 3 3 3 3 3 3 3 3 3 3 3 3 3 3 3 3 3 3 3 3 3 3 3 3 3 3 3 3 3 3 3 3 3 
CellOffSpring 1 2975 float
0 0 0 0 0 0 0 0 0 0 0 0 0 0 0 0 0 0 0 0 0 0 0 0 0 0 0 0 0 0 0 0 0 0 0 0 0 0 0 0 0 0 0 0 0 0 0 0 0 0 0 0 0 0 0 0 0 0 0 0 0 0 0 0 0 0 0 0 0 0 0 0 0 0 0 0 0 0 0 0 0 0 0 0 0 0 0 0 0 0 0 0 0 0 0 0 0 0 0 0 0 0 0 0 0 0 0 0 0 0 0 0 0 0 0 0 0 0 0 0 0 0 0 0 0 0 0 0 0 0 0 0 0 0 0 0 0 0 0 0 0 0 0 0 0 0 0 0 0 0 0 0 0 0 0 0 0 0 0 0 0 0 0 0 0 0 0 0 0 0 0 0 0 0 0 0 0 0 0 0 0 0 0 0 0 0 0 0 0 0 0 0 0 0 0 0 0 0 0 0 0 0 0 0 0 0 0 0 0 0 0 0 0 0 0 0 0 0 0 0 0 0 0 0 0 0 0 0 0 0 0 0 0 0 0 0 0 0 0 0 0 0 0 0 0 0 0 0 0 0 0 0 0 0 0 0 0 0 0 0 0 0 0 0 0 0 0 0 0 0 0 0 0 0 0 0 0 0 0 0 0 0 0 0 0 0 0 0 0 0 0 0 0 0 0 0 0 0 0 0 0 0 0 0 0 0 0 0 0 0 0 0 0 0 0 0 0 0 0 0 0 0 0 0 0 0 0 0 0 0 0 0 0 0 0 0 0 0 0 0 0 0 0 0 0 0 0 0 0 0 0 0 0 0 0 0 0 0 0 0 0 0 0 0 0 0 0 0 0 0 0 0 0 0 0 0 0 0 0 0 0 0 0 0 0 0 0 0 0 0 0 0 0 0 0 0 0 0 0 0 0 0 0 0 0 0 0 0 0 0 0 0 0 0 0 0 0 0 0 0 0 0 0 0 0 0 0 0 0 0 0 0 0 0 0 0 0 0 0 0 0 0 0 0 0 0 0 0 0 0 0 0 0 0 0 0 0 0 0 0 0 0 0 0 0 0 0 0 0 0 0 0 0 0 0 0 0 0 0 0 0 0 0 0 0 0 0 0 0 0 0 0 0 0 0 0 0 0 0 0 0 0 0 0 0 0 0 0 0 0 0 0 0 0 0 0 0 0 0 0 0 0 0 0 0 0 0 0 0 0 0 0 0 0 0 0 0 0 0 0 0 0 0 0 0 0 0 0 0 0 0 0 0 0 0 0 0 0 0 0 0 0 0 0 0 0 0 0 0 0 0 0 0 0 0 0 0 0 0 0 0 0 0 0 0 0 0 0 0 0 0 0 0 0 0 0 0 0 0 0 0 0 0 0 0 0 0 0 0 0 0 0 0 0 0 0 0 0 0 0 0 0 0 0 0 0 0 0 0 0 0 0 0 0 0 0 0 0 0 0 0 0 0 0 0 0 0 0 0 0 0 0 0 0 0 0 0 0 0 0 0 0 0 0 0 0 0 0 0 0 0 0 0 0 0 0 0 0 0 0 0 0 0 0 0 0 0 0 0 0 0 0 0 0 0 0 0 0 0 0 0 0 0 0 0 0 0 0 0 0 0 0 0 0 0 0 0 0 0 0 0 0 0 0 0 0 0 0 0 0 0 0 0 0 0 0 0 0 0 0 0 0 0 0 0 0 0 0 0 0 0 0 0 0 0 0 0 0 0 0 0 0 0 0 0 0 0 0 0 0 0 0 0 0 0 0 0 0 0 0 0 0 0 0 0 0 0 0 0 0 0 0 0 0 0 0 0 0 0 0 0 0 0 0 0 0 0 0 0 0 0 0 0 0 0 0 0 0 0 0 0 0 0 0 0 0 0 0 0 0 0 0 0 0 0 0 0 0 0 0 0 0 0 0 0 0 0 0 0 0 0 0 0 0 0 0 0 0 0 0 0 0 0 0 0 0 0 0 0 0 0 0 0 0 0 0 0 0 0 0 0 0 0 0 0 0 0 0 0 0 0 0 0 0 0 0 0 0 0 0 0 0 0 0 0 0 0 0 0 0 0 0 0 0 0 0 0 0 0 0 0 0 0 0 0 0 0 0 0 0 0 0 0 0 0 0 0 0 0 0 0 0 0 0 0 0 0 0 0 0 0 0 0 0 0 0 0 0 0 0 0 0 0 0 0 0 0 0 0 0 0 0 0 0 0 0 0 0 0 0 0 0 0 0 0 0 0 0 0 0 0 0 0 0 0 0 0 0 0 0 0 0 0 0 0 0 0 0 0 0 0 0 0 0 0 0 0 0 0 0 0 0 0 0 0 0 0 0 0 0 0 0 0 0 0 0 0 0 0 0 0 0 0 0 0 0 0 0 0 0 0 0 0 0 0 0 0 0 0 0 0 0 0 0 0 0 0 0 0 0 0 0 0 0 0 0 0 0 0 0 0 0 0 0 0 0 0 0 0 0 0 0 0 0 0 0 0 0 0 0 0 0 0 0 0 0 0 0 0 0 0 0 0 0 0 0 0 0 0 0 0 0 0 0 0 0 0 0 0 0 0 0 0 0 0 0 0 0 0 0 0 0 0 0 0 0 0 0 0 0 0 0 0 0 0 0 0 0 0 0 0 0 0 0 0 0 0 0 0 0 0 0 0 0 0 0 0 0 0 0 0 0 0 0 0 0 0 0 0 0 0 0 0 0 0 0 0 0 0 0 0 0 0 0 0 0 0 0 0 0 0 0 0 0 0 0 0 0 0 0 0 0 0 0 0 0 0 0 0 0 0 0 0 0 0 0 0 0 0 0 0 0 0 0 0 0 0 0 0 0 0 0 0 0 0 0 0 0 0 0 0 0 0 0 0 0 0 0 0 0 0 0 0 0 0 0 0 0 0 0 0 0 0 0 0 0 0 0 0 0 0 0 0 0 0 0 0 0 0 0 0 0 0 0 0 0 0 0 0 0 0 0 0 0 0 0 0 0 0 0 0 0 0 0 0 0 0 0 0 0 0 0 0 0 0 0 0 0 0 0 0 0 0 0 0 0 0 0 0 0 0 0 0 0 0 0 0 0 0 0 0 0 0 0 0 0 0 0 0 0 0 0 0 0 0 0 0 0 0 0 0 0 0 0 0 0 0 0 0 0 0 0 0 0 0 0 0 0 0 0 0 0 0 0 0 0 0 0 0 0 0 0 0 0 0 0 0 0 0 0 0 0 0 0 0 0 0 0 0 0 0 0 0 0 0 0 0 0 0 0 0 0 0 0 0 0 0 0 0 0 0 0 0 0 0 0 0 0 0 0 0 0 0 0 0 0 0 0 0 0 0 0 0 0 0 0 0 0 0 0 0 0 0 0 0 0 0 0 0 0 0 0 0 0 0 0 0 0 0 0 0 0 0 0 0 0 0 0 0 0 0 0 0 0 0 0 0 0 0 0 0 0 0 0 0 0 0 0 0 0 0 0 0 0 0 0 0 0 0 0 0 0 0 0 0 0 0 0 0 0 0 0 0 0 0 0 0 0 0 0 0 0 0 0 0 0 0 0 0 0 0 0 0 0 0 0 0 0 0 0 0 0 0 0 0 0 0 0 0 0 0 0 0 0 0 0 0 0 0 0 0 0 0 0 0 0 0 0 0 0 0 0 0 0 0 0 0 0 0 0 0 0 0 0 0 0 0 0 0 0 0 0 0 0 0 0 0 0 0 0 0 0 0 0 0 0 0 0 0 0 0 0 0 0 0 0 0 0 0 0 0 0 0 0 0 0 0 0 0 0 0 0 0 0 0 0 0 0 0 0 0 0 0 0 0 0 0 0 0 0 0 0 0 0 0 0 0 0 0 0 0 0 0 0 0 0 0 0 0 0 0 0 0 0 0 0 0 0 0 0 0 0 0 0 0 0 0 0 0 0 0 0 0 0 0 0 0 0 0 0 0 0 0 0 0 0 0 0 0 0 0 0 0 0 0 0 0 0 0 0 0 0 0 0 0 0 0 0 0 0 0 0 0 0 0 0 0 0 0 0 0 0 0 0 0 0 0 0 0 0 0 0 0 0 0 0 0 0 0 0 0 0 0 0 0 0 0 0 0 0 0 0 0 0 0 0 0 0 0 0 0 0 0 0 0 0 0 0 0 0 0 0 0 0 0 0 0 0 0 0 0 0 0 0 0 0 0 0 0 0 0 0 0 0 0 0 0 0 0 0 0 0 0 0 0 0 0 0 0 0 0 0 0 0 0 0 0 0 0 0 0 0 0 0 0 0 0 0 0 0 0 0 0 0 0 0 0 0 0 0 0 0 0 0 0 0 0 0 0 0 0 0 0 0 0 0 0 0 0 0 0 0 0 0 0 0 0 0 0 0 0 0 0 0 0 0 0 0 0 0 0 0 0 0 0 0 0 0 0 0 0 0 0 0 0 0 0 0 0 0 0 0 0 0 0 0 0 0 0 0 0 0 0 0 0 0 0 0 0 0 0 0 0 0 0 0 0 0 0 0 0 0 0 0 0 0 0 0 0 0 0 0 0 0 0 0 0 0 0 0 0 0 0 0 0 0 0 0 0 0 0 0 0 0 0 0 0 0 0 0 0 0 0 0 0 0 0 0 0 0 0 0 0 0 0 0 0 0 0 0 0 0 0 0 0 0 0 0 0 0 0 0 0 0 0 0 0 0 0 0 0 0 0 0 0 0 0 0 0 0 0 0 0 0 0 0 0 0 0 0 0 0 0 0 0 0 0 0 0 0 0 0 0 0 0 0 0 0 0 0 0 0 0 0 0 0 0 0 0 0 0 0 0 0 0 0 0 0 0 0 0 0 0 0 0 0 0 0 0 0 0 0 0 0 0 0 0 0 0 0 0 0 0 0 0 0 0 0 0 0 0 0 0 0 0 0 0 0 0 0 0 0 0 0 0 0 0 0 0 0 0 0 0 0 0 0 0 0 0 0 0 0 0 0 0 0 0 0 0 0 0 0 0 0 0 0 0 0 0 0 0 0 0 0 0 0 0 0 0 0 0 0 0 0 0 0 0 0 0 0 0 0 0 0 0 0 0 0 0 0 0 0 0 0 0 0 0 0 0 0 0 0 0 0 0 0 0 0 0 0 0 0 0 0 0 0 0 0 0 0 0 0 0 0 0 0 0 0 0 0 0 0 0 0 0 0 0 0 0 0 0 0 0 0 0 0 0 0 0 0 0 0 0 0 0 0 0 0 0 0 0 0 0 0 0 0 0 0 0 0 0 0 0 0 0 0 0 0 0 0 0 0 0 0 0 0 0 0 0 0 0 0 0 0 0 0 0 0 0 0 0 0 0 0 0 0 0 0 0 0 0 0 0 0 0 0 0 0 0 0 0 0 0 0 0 0 0 0 0 0 0 0 0 0 0 0 0 0 0 0 0 0 0 0 0 0 0 0 0 0 0 0 0 0 0 0 0 0 0 0 0 0 0 0 0 0 0 0 0 0 0 0 0 0 0 0 0 0 0 0 0 0 0 0 0 0 0 0 0 0 0 0 0 0 0 0 0 0 0 0 0 0 0 0 0 0 0 0 0 0 0 0 0 0 0 0 0 0 0 0 0 0 0 0 0 0 0 0 0 0 0 0 0 0 0 0 0 0 0 0 0 0 0 0 0 0 0 0 0 0 0 0 0 0 0 0 0 0 0 0 0 0 0 0 0 0 0 0 0 0 0 0 0 0 0 0 0 0 0 0 0 0 0 0 0 0 0 0 0 0 0 0 0 0 0 0 0 0 0 0 0 0 0 0 0 0 0 0 0 0 0 0 0 0 0 0 0 0 0 0 0 0 0 0 0 0 0 0 0 0 0 0 0 0 0 0 0 0 0 0 0 0 0 0 0 0 0 0 0 0 0 0 0 0 0 0 0 0 0 0 0 0 0 0 0 0 0 0 0 0 0 0 0 0 0 0 0 0 0 0 0 0 0 0 0 0 0 0 0 0 0 0 0 0 0 0 0 0 0 0 0 0 0 0 0 0 0 0 0 0 0 0 0 0 0 0 0 0 0 0 0 0 0 0 0 0 0 0 0 0 0 0 0 0 0 0 0 0 0 0 0 0 0 0 0 0 0 0 0 0 0 0 0 0 0 0 0 0 0 0 0 0 0 0 0 0 0 0 0 0 0 0 0 0 0 0 0 0 0 0 0 0 0 0 0 0 0 0 0 0 0 0 0 0 0 0 0 0 0 0 0 0 0 0 0 0 0 0 0 0 0 0 0 0 0 0 0 0 0 0 0 0 0 0 0 0 0 0 0 0 0 0 0 0 0 0 0 0 0 0 0 0 0 0 0 0 0 0 0 0 0 0 0 0 0 0 0 0 0 0 0 0 0 0 0 0 0 0 0 0 0 0 0 0 0 0 0 0 0 0 0 0 0 0 0 0 0 0 0 0 0 0 0 0 0 0 0 0 0 0 0 0 0 0 0 0 0 0 0 0 0 0 0 0 0 0 0 0 0 0 0 0 0 0 0 0 0 0 0 0 0 0 0 0 0 0 0 0 0 0 0 0 0 0 0 0 0 0 0 0 0 0 0 0 0 0 0 0 0 0 0 0 0 0 0 0 0 0 0 0 0 0 0 0 0 0 0 0 0 0 0 0 0 0 0 0 0 0 0 0 0 0 0 0 0 0 0 0 0 0 0 0 0 0 0 0 0 0 0 0 0 0 0 0 0 0 0 0 0 0 0 0 0 0 0 
GradVel 1 2975 float
  0.0000000E+00   0.0000000E+00   0.0000000E+00   0.0000000E+00   0.0000000E+00   0.0000000E+00   0.0000000E+00   0.0000000E+00   0.0000000E+00   0.0000000E+00   0.0000000E+00   0.0000000E+00   0.0000000E+00  -3.0776685E-06  -5.5185145E-15  -1.6123064E-05  -1.0841014E-04  -2.9253217E-05  -2.1308080E-04  -6.6989521E-04  -2.4490184E-04  -9.2970370E-04  -2.2299523E-03  -8.6596143E-04  -2.5265897E-03  -5.2975807E-03  -2.0256154E-03  -5.1686484E-03  -1.0039182E-02  -3.6654859E-03  -8.6830724E-03  -1.6104061E-02  -5.5386256E-03  -1.2583340E-02  -2.2673864E-02  -7.3265303E-03  -1.6276687E-02  -2.8797913E-02  -8.8038715E-03  -1.9358149E-02  -3.3880986E-02  -9.9538453E-03  -2.1813115E-02  -3.7984684E-02  -1.0981947E-02  -2.4068180E-02  -4.1909136E-02  -1.2271366E-02  -2.6911467E-02  -4.7027834E-02  -1.4353890E-02  -3.1419668E-02  -5.5115215E-02  -1.8032156E-02  -3.9039195E-02  -6.8305597E-02  -2.4508823E-02  -5.1351264E-02  -8.8421933E-02  -3.5267383E-02  -6.9086671E-02  -1.1518028E-01  -9.2276350E-02  -1.4668350E-01   0.0000000E+00   0.0000000E+00   0.0000000E+00   0.0000000E+00   0.0000000E+00   0.0000000E+00   0.0000000E+00   0.0000000E+00   0.0000000E+00   0.0000000E+00   0.0000000E+00   0.0000000E+00   0.0000000E+00   0.0000000E+00   0.0000000E+00   0.0000000E+00   0.0000000E+00   0.0000000E+00   0.0000000E+00   0.0000000E+00   0.0000000E+00   0.0000000E+00   0.0000000E+00   0.0000000E+00   0.0000000E+00  -5.4874550E-07  -3.4812856E-06  -8.2413790E-06  -1.2361843E-05  -1.4729953E-05  -1.6409027E-05  -1.7713526E-05  -2.6383024E-05  -8.5524225E-05  -1.8213136E-04  -3.0163664E-04  -4.2018874E-04  -5.1808142E-04  -5.8874680E-04  -6.3824869E-04  -3.2377779E-04  -6.8479578E-04  -1.1800984E-03  -1.7536675E-03  -2.3216147E-03  -2.8136214E-03  -3.2008120E-03  -3.4887686E-03  -1.4626262E-03  -2.6262302E-03  -4.1254819E-03  -5.8122459E-03  -7.4694031E-03  -8.9223133E-03  -1.0099247E-02  -1.1006257E-02  -4.2232675E-03  -6.9826175E-03  -1.0432347E-02  -1.4245411E-02  -1.7960062E-02  -2.1219416E-02  -2.3887493E-02  -2.5979400E-02  -9.2764841E-03  -1.4612468E-02  -2.1166325E-02  -2.8317435E-02  -3.5209727E-02  -4.1222744E-02  -4.6154663E-02  -5.0053604E-02  -1.6756734E-02  -2.5588149E-02  -3.6299378E-02  -4.7830034E-02  -5.8776252E-02  -6.8230011E-02  -7.5967476E-02  -8.2106411E-02  -2.6056977E-02  -3.8929906E-02  -5.4315079E-02  -7.0573337E-02  -8.5690886E-02  -9.8607101E-02  -1.0914324E-01  -1.1750647E-01  -3.5904169E-02  -5.2718334E-02  -7.2300091E-02  -4.4879511E-02  -6.4909779E-02  -5.2226353E-02  -7.4689195E-02  -5.8234032E-02  -8.2843371E-02  -6.4210542E-02  -9.1175564E-02  -7.2217032E-02  -1.0233606E-01  -8.4741727E-02  -1.1932039E-01  -1.0453618E-01  -1.4513168E-01  -1.3369295E-01  -1.8181716E-01  -1.7139120E-01  -2.2844127E-01  -2.1402951E-01  -2.8097829E-01   0.0000000E+00   0.0000000E+00   0.0000000E+00   0.0000000E+00   0.0000000E+00   0.0000000E+00   0.0000000E+00   0.0000000E+00   0.0000000E+00   0.0000000E+00   0.0000000E+00   0.0000000E+00   0.0000000E+00   0.0000000E+00   0.0000000E+00   0.0000000E+00   0.0000000E+00   0.0000000E+00   0.0000000E+00   0.0000000E+00   0.0000000E+00   0.0000000E+00   0.0000000E+00   0.0000000E+00   0.0000000E+00   0.0000000E+00   0.0000000E+00  -1.8677487E-05  -1.9357152E-05  -1.9813097E-05  -2.0101535E-05  -2.0272215E-05  -2.0364811E-05  -2.0408652E-05  -2.0425574E-05  -2.0430209E-05  -6.7503884E-04  -7.0171559E-04  -7.2017452E-04  -7.3233619E-04  -7.3992240E-04  -7.4435846E-04  -7.4676052E-04  -7.4793678E-04  -7.4843201E-04  -3.6982954E-03  -3.8508789E-03  -3.9585540E-03  -4.0311520E-03  -4.0777936E-03  -4.1062073E-03  -4.1224724E-03  -4.1310899E-03  -4.1350941E-03  -1.1683429E-02  -1.2178157E-02  -1.2531066E-02  -1.2772887E-02  -1.2931363E-02  -1.3030385E-02  -1.3089005E-02  -1.3121370E-02  -1.3137098E-02  -2.7570691E-02  -2.8748609E-02  -2.9595288E-02  -3.0181775E-02  -3.0571301E-02  -3.0818785E-02  -3.0968379E-02  -3.1053038E-02  -3.1095212E-02  -5.3054117E-02  -5.5300232E-02  -5.6927636E-02  -5.8063310E-02  -5.8824498E-02  -5.9313573E-02  -5.9613336E-02  -5.9785675E-02  -5.9872858E-02  -8.6863272E-02  -9.0452954E-02  -9.3070231E-02  -9.4906829E-02  -9.6144959E-02  -9.6946955E-02  -9.7443268E-02  -9.7731844E-02  -9.7879417E-02  -1.2400681E-01  -1.2893608E-01  -1.3254532E-01  -1.3508590E-01  -1.3680577E-01  -1.3792634E-01  -1.3862519E-01  -1.3903499E-01  -1.3924626E-01   0.0000000E+00   0.0000000E+00   0.0000000E+00   0.0000000E+00   0.0000000E+00   0.0000000E+00   0.0000000E+00   0.0000000E+00   0.0000000E+00   0.0000000E+00   0.0000000E+00   0.0000000E+00   0.0000000E+00   0.0000000E+00   0.0000000E+00   0.0000000E+00   0.0000000E+00   0.0000000E+00   0.0000000E+00   0.0000000E+00   0.0000000E+00   0.0000000E+00   0.0000000E+00   0.0000000E+00  -2.0430813E-05  -2.0430212E-05  -2.0425576E-05  -2.0408654E-05  -2.0364809E-05  -2.0272209E-05  -2.0101543E-05  -1.9813100E-05  -7.4856228E-04  -7.4843201E-04  -7.4793684E-04  -7.4676058E-04  -7.4435852E-04  -7.3992234E-04  -7.3233608E-04  -7.2017440E-04  -4.1362387E-03  -4.1350937E-03  -4.1310890E-03  -4.1224714E-03  -4.1062082E-03  -4.0777950E-03  -4.0311529E-03  -3.9585545E-03  -1.3141737E-02  -1.3137100E-02  -1.3121369E-02  -1.3089006E-02  -1.3030389E-02  -1.2931367E-02  -1.2772887E-02  -1.2531072E-02  -3.1107863E-02  -3.1095216E-02  -3.1053046E-02  -3.0968390E-02  -3.0818785E-02  -3.0571312E-02  -3.0181777E-02  -2.9595299E-02  -5.9899300E-02  -5.9872866E-02  -5.9785679E-02  -5.9613343E-02  -5.9313580E-02  -5.8824498E-02  -5.8063317E-02  -5.6927625E-02  -9.7924411E-02  -9.7879395E-02  -9.7731873E-02  -9.7443290E-02  -9.6946970E-02  -9.6144959E-02  -9.4906807E-02  -9.3070261E-02  -1.3931106E-01  -1.3924630E-01  -1.3903508E-01  -1.3862516E-01  -1.3792637E-01  -1.3680576E-01  -1.3508590E-01  -1.3254528E-01   0.0000000E+00   0.0000000E+00   0.0000000E+00   0.0000000E+00   0.0000000E+00   0.0000000E+00   0.0000000E+00   0.0000000E+00   0.0000000E+00   0.0000000E+00   0.0000000E+00   0.0000000E+00   0.0000000E+00   0.0000000E+00   0.0000000E+00   0.0000000E+00   0.0000000E+00   0.0000000E+00   0.0000000E+00   0.0000000E+00   0.0000000E+00   0.0000000E+00   0.0000000E+00   0.0000000E+00   0.0000000E+00   0.0000000E+00   0.0000000E+00  -1.9357149E-05  -1.8677487E-05  -1.7713524E-05  -1.6409025E-05  -1.4729955E-05  -1.2361848E-05  -8.2413835E-06  -3.4812870E-06  -5.4874573E-07  -7.0171553E-04  -6.7503890E-04  -6.3824869E-04  -5.8874680E-04  -5.1808148E-04  -4.2018882E-04  -3.0163676E-04  -1.8213144E-04  -8.5524262E-05  -3.8508787E-03  -3.6982952E-03  -3.4887686E-03  -3.2008130E-03  -2.8136226E-03  -2.3216151E-03  -1.7536680E-03  -1.1800982E-03  -6.8479584E-04  -1.2178158E-02  -1.1683431E-02  -1.1006250E-02  -1.0099243E-02  -8.9223124E-03  -7.4694036E-03  -5.8122473E-03  -4.1254838E-03  -2.6262305E-03  -2.8748598E-02  -2.7570689E-02  -2.5979390E-02  -2.3887487E-02  -2.1219414E-02  -1.7960064E-02  -1.4245411E-02  -1.0432348E-02  -6.9826180E-03  -5.5300239E-02  -5.3054132E-02  -5.0053604E-02  -4.6154659E-02  -4.1222744E-02  -3.5209734E-02  -2.8317440E-02  -2.1166325E-02  -1.4612468E-02  -9.0452947E-02  -8.6863272E-02  -8.2106411E-02  -7.5967528E-02  -6.8229996E-02  -5.8776263E-02  -4.7830038E-02  -3.6299385E-02  -2.5588155E-02  -1.2893616E-01  -1.2400679E-01  -1.1750644E-01  -1.0914326E-01  -9.8607086E-02  -8.5690871E-02  -7.0573367E-02  -5.4315105E-02  -3.8929891E-02  -7.2300121E-02  -5.2718334E-02  -6.4909779E-02  -7.4689195E-02  -8.2843401E-02  -9.1175593E-02  -1.0233607E-01  -1.1932041E-01  -1.4513171E-01  -1.8181719E-01  -2.2844131E-01  -2.8097838E-01   0.0000000E+00   0.0000000E+00   0.0000000E+00   0.0000000E+00   0.0000000E+00   0.0000000E+00   0.0000000E+00   0.0000000E+00   0.0000000E+00   0.0000000E+00   0.0000000E+00   0.0000000E+00   0.0000000E+00   0.0000000E+00   0.0000000E+00  -2.6383026E-05  -3.0776694E-06   0.0000000E+00   0.0000000E+00  -3.2377790E-04  -1.0841020E-04  -1.6123064E-05  -5.5185158E-15  -1.4626260E-03  -6.6989561E-04  -2.1308081E-04  -2.9253222E-05  -4.2232680E-03  -2.2299525E-03  -9.2970359E-04  -2.4490184E-04  -9.2764851E-03  -5.2975826E-03  -2.5265890E-03  -8.6596154E-04  -1.6756736E-02  -1.0039184E-02  -5.1686480E-03  -2.0256159E-03  -2.6056973E-02  -1.6104065E-02  -8.6830715E-03  -3.6654875E-03  -3.5904177E-02  -2.2673868E-02  -1.2583340E-02  -5.5386266E-03  -4.4879504E-02  -2.8797913E-02  -1.6276689E-02  -7.3265312E-03  -5.2226353E-02  -3.3880994E-02  -1.9358151E-02  -8.8038724E-03  -5.8234051E-02  -3.7984688E-02  -2.1813124E-02  -9.9538472E-03  -6.4210549E-02  -4.1909136E-02  -2.4068180E-02  -1.0981947E-02  -7.2217062E-02  -4.7027845E-02  -2.6911471E-02  -1.2271368E-02  -8.4741756E-02  -5.5115223E-02  -3.1419676E-02  -1.4353892E-02  -1.0453622E-01  -6.8305641E-02  -3.9039217E-02  -1.8032167E-02  -1.3369298E-01  -8.8421971E-02  -5.1351286E-02  -2.4508838E-02  -1.7139125E-01  -1.1518031E-01  -6.9086686E-02  -3.5267401E-02  -2.1402963E-01  -1.4668357E-01  -9.2276409E-02   0.0000000E+00   0.0000000E+00   0.0000000E+00   0.0000000E+00   0.0000000E+00   0.0000000E+00   0.0000000E+00   0.0000000E+00   0.0000000E+00   0.0000000E+00   0.0000000E+00   0.0000000E+00   0.0000000E+00   0.0000000E+00   0.0000000E+00   0.0000000E+00   0.0000000E+00   0.0000000E+00   0.0000000E+00   0.0000000E+00   0.0000000E+00   0.0000000E+00   0.0000000E+00   0.0000000E+00   0.0000000E+00   0.0000000E+00   0.0000000E+00   0.0000000E+00   0.0000000E+00   0.0000000E+00   0.0000000E+00   0.0000000E+00   0.0000000E+00   0.0000000E+00   0.0000000E+00   0.0000000E+00   0.0000000E+00   0.0000000E+00   0.0000000E+00   0.0000000E+00   0.0000000E+00   0.0000000E+00   0.0000000E+00   0.0000000E+00   0.0000000E+00   0.0000000E+00   0.0000000E+00   0.0000000E+00   0.0000000E+00   0.0000000E+00   0.0000000E+00   0.0000000E+00   0.0000000E+00   0.0000000E+00   0.0000000E+00   0.0000000E+00   0.0000000E+00   0.0000000E+00   0.0000000E+00   0.0000000E+00   0.0000000E+00   0.0000000E+00   0.0000000E+00   0.0000000E+00   0.0000000E+00   0.0000000E+00   0.0000000E+00   0.0000000E+00   0.0000000E+00   0.0000000E+00   0.0000000E+00   0.0000000E+00   0.0000000E+00   0.0000000E+00   0.0000000E+00   0.0000000E+00   0.0000000E+00   0.0000000E+00   0.0000000E+00   0.0000000E+00   0.0000000E+00   0.0000000E+00   0.0000000E+00   0.0000000E+00   0.0000000E+00   0.0000000E+00   0.0000000E+00   0.0000000E+00   0.0000000E+00   0.0000000E+00   0.0000000E+00   0.0000000E+00   0.0000000E+00   0.0000000E+00   0.0000000E+00   0.0000000E+00   0.0000000E+00   0.0000000E+00   0.0000000E+00   0.0000000E+00   0.0000000E+00   0.0000000E+00   0.0000000E+00   0.0000000E+00   0.0000000E+00   0.0000000E+00   0.0000000E+00   0.0000000E+00   0.0000000E+00   0.0000000E+00   0.0000000E+00   0.0000000E+00   0.0000000E+00   0.0000000E+00   0.0000000E+00   0.0000000E+00   0.0000000E+00   0.0000000E+00   0.0000000E+00   0.0000000E+00   0.0000000E+00   0.0000000E+00   0.0000000E+00   0.0000000E+00   0.0000000E+00   0.0000000E+00   0.0000000E+00   0.0000000E+00   0.0000000E+00   0.0000000E+00   0.0000000E+00   0.0000000E+00   0.0000000E+00   0.0000000E+00   0.0000000E+00   0.0000000E+00   0.0000000E+00   0.0000000E+00   0.0000000E+00   0.0000000E+00   0.0000000E+00   0.0000000E+00   0.0000000E+00   0.0000000E+00   0.0000000E+00   0.0000000E+00   0.0000000E+00   0.0000000E+00   0.0000000E+00   0.0000000E+00   0.0000000E+00   0.0000000E+00   0.0000000E+00   0.0000000E+00   0.0000000E+00   0.0000000E+00   0.0000000E+00   0.0000000E+00   0.0000000E+00   0.0000000E+00   0.0000000E+00   0.0000000E+00   0.0000000E+00   0.0000000E+00   0.0000000E+00   0.0000000E+00   0.0000000E+00   0.0000000E+00   0.0000000E+00   0.0000000E+00   0.0000000E+00   0.0000000E+00   0.0000000E+00   0.0000000E+00   0.0000000E+00   0.0000000E+00   0.0000000E+00   0.0000000E+00   0.0000000E+00   0.0000000E+00   0.0000000E+00   0.0000000E+00   0.0000000E+00   0.0000000E+00   0.0000000E+00   0.0000000E+00   0.0000000E+00   0.0000000E+00   0.0000000E+00   0.0000000E+00   0.0000000E+00   0.0000000E+00   0.0000000E+00   0.0000000E+00   0.0000000E+00   0.0000000E+00   0.0000000E+00   0.0000000E+00   0.0000000E+00   0.0000000E+00   0.0000000E+00   0.0000000E+00   0.0000000E+00   0.0000000E+00   0.0000000E+00   0.0000000E+00   0.0000000E+00   0.0000000E+00   0.0000000E+00   0.0000000E+00   0.0000000E+00   0.0000000E+00   0.0000000E+00   0.0000000E+00   0.0000000E+00   0.0000000E+00   0.0000000E+00   0.0000000E+00   0.0000000E+00   0.0000000E+00   0.0000000E+00   0.0000000E+00   0.0000000E+00   0.0000000E+00   0.0000000E+00   0.0000000E+00   0.0000000E+00   0.0000000E+00   0.0000000E+00   0.0000000E+00   0.0000000E+00   0.0000000E+00   0.0000000E+00   0.0000000E+00   0.0000000E+00   0.0000000E+00   0.0000000E+00   0.0000000E+00   0.0000000E+00   0.0000000E+00   0.0000000E+00   0.0000000E+00   0.0000000E+00   0.0000000E+00   0.0000000E+00   0.0000000E+00   0.0000000E+00   0.0000000E+00   0.0000000E+00   0.0000000E+00   0.0000000E+00   0.0000000E+00   0.0000000E+00   0.0000000E+00   0.0000000E+00   0.0000000E+00   0.0000000E+00   0.0000000E+00   0.0000000E+00   0.0000000E+00   0.0000000E+00   0.0000000E+00   0.0000000E+00   0.0000000E+00   0.0000000E+00   0.0000000E+00   0.0000000E+00   0.0000000E+00   0.0000000E+00   0.0000000E+00   0.0000000E+00   0.0000000E+00   0.0000000E+00   0.0000000E+00   0.0000000E+00   0.0000000E+00   0.0000000E+00   0.0000000E+00   0.0000000E+00   0.0000000E+00   0.0000000E+00   0.0000000E+00   0.0000000E+00   0.0000000E+00   0.0000000E+00   0.0000000E+00   0.0000000E+00   0.0000000E+00   0.0000000E+00   0.0000000E+00   0.0000000E+00   0.0000000E+00   0.0000000E+00   0.0000000E+00   0.0000000E+00   0.0000000E+00   0.0000000E+00   0.0000000E+00   0.0000000E+00   0.0000000E+00   0.0000000E+00   0.0000000E+00   0.0000000E+00   0.0000000E+00   0.0000000E+00   0.0000000E+00   0.0000000E+00   0.0000000E+00   0.0000000E+00   0.0000000E+00   0.0000000E+00   0.0000000E+00   0.0000000E+00   0.0000000E+00   0.0000000E+00   0.0000000E+00   0.0000000E+00   0.0000000E+00   0.0000000E+00   0.0000000E+00   0.0000000E+00   0.0000000E+00   0.0000000E+00   0.0000000E+00   0.0000000E+00   0.0000000E+00   0.0000000E+00   0.0000000E+00   0.0000000E+00   0.0000000E+00   0.0000000E+00   0.0000000E+00   0.0000000E+00   0.0000000E+00   0.0000000E+00   0.0000000E+00   0.0000000E+00   0.0000000E+00   0.0000000E+00   0.0000000E+00   0.0000000E+00   0.0000000E+00   0.0000000E+00   0.0000000E+00   0.0000000E+00   0.0000000E+00   0.0000000E+00   0.0000000E+00   0.0000000E+00   0.0000000E+00   0.0000000E+00   0.0000000E+00   0.0000000E+00   0.0000000E+00   0.0000000E+00   0.0000000E+00   0.0000000E+00   0.0000000E+00   0.0000000E+00   0.0000000E+00   0.0000000E+00   0.0000000E+00   0.0000000E+00   0.0000000E+00   0.0000000E+00   0.0000000E+00   0.0000000E+00   0.0000000E+00   0.0000000E+00   0.0000000E+00   0.0000000E+00   0.0000000E+00   0.0000000E+00   0.0000000E+00   0.0000000E+00   0.0000000E+00   0.0000000E+00   0.0000000E+00   0.0000000E+00   0.0000000E+00   0.0000000E+00   0.0000000E+00   0.0000000E+00   0.0000000E+00   0.0000000E+00   0.0000000E+00   0.0000000E+00   0.0000000E+00   0.0000000E+00   0.0000000E+00   0.0000000E+00   0.0000000E+00   0.0000000E+00   0.0000000E+00   0.0000000E+00   0.0000000E+00   0.0000000E+00   0.0000000E+00   0.0000000E+00   0.0000000E+00   0.0000000E+00   0.0000000E+00   0.0000000E+00   0.0000000E+00   0.0000000E+00   0.0000000E+00   0.0000000E+00   0.0000000E+00   0.0000000E+00   0.0000000E+00   0.0000000E+00   0.0000000E+00   0.0000000E+00   0.0000000E+00   0.0000000E+00   0.0000000E+00   0.0000000E+00   0.0000000E+00   0.0000000E+00   0.0000000E+00   0.0000000E+00   0.0000000E+00   0.0000000E+00   0.0000000E+00   0.0000000E+00   0.0000000E+00   0.0000000E+00   0.0000000E+00   0.0000000E+00   0.0000000E+00   0.0000000E+00   0.0000000E+00   0.0000000E+00   0.0000000E+00   0.0000000E+00   0.0000000E+00   0.0000000E+00   0.0000000E+00   0.0000000E+00   0.0000000E+00   0.0000000E+00   0.0000000E+00   0.0000000E+00   0.0000000E+00   0.0000000E+00   0.0000000E+00   0.0000000E+00   0.0000000E+00   0.0000000E+00   0.0000000E+00   0.0000000E+00   0.0000000E+00   0.0000000E+00   0.0000000E+00   0.0000000E+00   0.0000000E+00   0.0000000E+00   0.0000000E+00   0.0000000E+00   0.0000000E+00   0.0000000E+00   0.0000000E+00   0.0000000E+00   0.0000000E+00   0.0000000E+00   0.0000000E+00   0.0000000E+00   0.0000000E+00   0.0000000E+00   0.0000000E+00   0.0000000E+00   0.0000000E+00  -9.2139781E-02  -1.1055128E-01  -1.2607765E-01  -1.3867573E-01  -1.4863728E-01  -8.6449727E-02  -1.0981051E-01  -1.3034230E-01  -1.4745730E-01  -1.6116975E-01  -1.7188393E-01  -9.8465234E-02  -1.2395754E-01  -1.4615187E-01  -1.6432180E-01  -1.7856930E-01  -1.8945844E-01  -1.0885274E-01  -1.3640830E-01  -1.6017728E-01  -1.7927338E-01  -1.9385515E-01  -2.0466271E-01  -1.1988799E-01  -1.4953184E-01  -1.7482729E-01  -1.9484812E-01  -2.0978014E-01  -2.2045574E-01  -1.3569984E-01  -1.6702886E-01  -1.9306764E-01  -2.1336448E-01  -2.2833982E-01  -2.3881622E-01  -1.6213629E-01  -1.9399861E-01  -2.1846302E-01  -2.3704129E-01  -2.5079754E-01  -2.6051489E-01  -2.0612395E-01  -2.3583516E-01  -2.5430015E-01  -2.6744100E-01  -2.7759504E-01  -2.8532332E-01  -2.7381939E-01  -2.9570892E-01  -3.0164772E-01  -3.0454016E-01  -3.0814016E-01  -3.1235793E-01  -3.6755991E-01  -3.7066570E-01  -3.5716563E-01  -3.4584674E-01  -3.4077200E-01  -3.4048274E-01  -4.7736296E-01  -4.4891050E-01  -4.1250530E-01  -3.8624471E-01  -3.7269443E-01  -3.6818081E-01  -5.5457413E-01  -5.0936949E-01  -4.5690095E-01  -4.2000249E-01  -4.0088561E-01  -3.9388850E-01  -5.3695452E-01  -5.1793408E-01  -4.7882286E-01  -4.4290507E-01  -4.2366591E-01  -4.1686243E-01  -4.9895674E-01  -4.9351403E-01  -4.7797820E-01  -4.5520672E-01  -4.4178659E-01  -4.3766689E-01  -4.7845969E-01  -4.7487622E-01  -4.7177929E-01  -4.6350786E-01  -4.5817387E-01  -4.5785213E-01  -4.7580135E-01  -4.7193837E-01  -4.7337765E-01  -4.7485918E-01  -4.7615597E-01  -4.7913435E-01  -4.8426941E-01  -4.8182514E-01  -4.8597100E-01  -4.9230209E-01  -4.9750060E-01  -5.0265020E-01  -5.0202245E-01  -5.0145274E-01  -5.0698340E-01  -5.1518023E-01  -5.2233696E-01  -5.2894920E-01  -5.2510679E-01  -5.2594584E-01  -5.3266436E-01  -5.4181385E-01  -5.5033565E-01  -5.5824900E-01  -5.5027020E-01  -5.5260617E-01  -5.6086653E-01  -5.7128930E-01  -5.8122957E-01  -5.9041315E-01  -5.7737988E-01  -5.8107340E-01  -5.9108019E-01  -6.0313547E-01  -6.1461675E-01  -6.2512004E-01  -6.0711223E-01  -6.1140734E-01  -6.2309277E-01  -6.3700032E-01  -6.5018237E-01  -6.6208255E-01  -6.3967341E-01  -6.4375919E-01  -6.5684408E-01  -6.7278743E-01  -6.8776816E-01  -7.0107877E-01  -6.7497098E-01  -6.7811131E-01  -6.9231552E-01  -7.1039850E-01  -7.2705209E-01  -7.4160278E-01  -7.1207052E-01  -7.1366656E-01  -7.2890717E-01  -7.4897242E-01  -7.6672977E-01  -7.8210050E-01  -7.4794346E-01  -7.4781740E-01  -7.6432353E-01  -7.8562951E-01  -8.0343544E-01  -8.1897449E-01  -7.7654690E-01  -7.7515554E-01  -7.9319972E-01  -8.1421149E-01  -8.3068633E-01  -8.4571487E-01  -7.8783572E-01  -7.8635216E-01  -8.0621886E-01  -8.2437986E-01  -8.3841580E-01  -8.5252649E-01  -7.6594210E-01  -7.6662779E-01  -7.8842366E-01  -8.0162561E-01  -8.1291473E-01  -8.2655478E-01  -6.8589056E-01  -6.9209224E-01  -7.1604276E-01  -7.2485703E-01  -7.3542738E-01  -7.5089240E-01  -5.1004720E-01  -5.2585822E-01  -5.5441225E-01  -5.6374371E-01  -5.7825541E-01  -5.9935075E-01  -1.8948206E-01  -2.2469559E-01  -2.6214796E-01  -2.8116697E-01  -3.0399719E-01  -3.3403751E-01   3.1045300E-01   2.4917153E-01   1.9708145E-01   1.5599303E-01   1.2084128E-01   8.2615331E-02   9.6913266E-01   8.8427198E-01   8.2309651E-01   7.5754809E-01   7.0489800E-01   6.6337305E-01   1.7007897E+00   1.5846020E+00   1.5268073E+00   1.4652941E+00   1.4065201E+00   1.3720335E+00   2.3013551E+00   2.2018838E+00   2.1844993E+00   2.1613202E+00   2.1283004E+00   2.1138799E+00   2.6587820E+00   2.6076760E+00   2.6371846E+00   2.6877112E+00   2.7123330E+00   2.7455809E+00   2.8046241E+00   2.7385857E+00   2.8215809E+00   2.9337745E+00   3.0302339E+00   3.1252813E+00   2.7950432E+00   2.6718431E+00   2.7935288E+00   2.9439056E+00   3.0962253E+00   3.2374766E+00   2.7024531E+00   2.5592799E+00   2.7061069E+00   2.8570778E+00   3.0353308E+00   3.1955204E+00   2.6456461E+00   2.4937208E+00   2.6466227E+00   2.7978024E+00   2.9705305E+00   3.1256025E+00   2.6606252E+00   2.5005229E+00   2.6442242E+00   2.8029289E+00   2.9580889E+00   3.0916440E+00   2.7107618E+00   2.5483375E+00   2.6772783E+00   2.8334861E+00   2.9706800E+00   3.0816429E+00   2.7261961E+00   2.5696769E+00   2.6840730E+00   2.8261056E+00   2.9448090E+00   3.0362654E+00   2.6537733E+00   2.5120723E+00   2.6072850E+00   2.7262452E+00   2.8216598E+00   2.8941104E+00   2.4867384E+00   2.3645568E+00   2.4282765E+00   2.5110996E+00   2.5784369E+00   2.6279650E+00   2.2635658E+00   2.1534693E+00   2.1642599E+00   2.2020488E+00   2.2347934E+00   2.2563028E+00   2.0171535E+00   1.9056504E+00   1.8705760E+00   1.8486688E+00   1.8422229E+00   1.8322479E+00   1.7739384E+00   1.6513784E+00   1.5781322E+00   1.5024418E+00   1.4565846E+00   1.4139339E+00   1.5524540E+00   1.4133511E+00   1.3047963E+00   1.1981857E+00   1.1164896E+00   1.0453336E+00   1.3501097E+00   1.1983918E+00   1.0655121E+00   9.4358891E-01   8.3441234E-01   7.4702108E-01   1.1590612E+00   9.9751902E-01   8.6586338E-01   7.2947919E-01   6.0923392E-01   5.1945448E-01   9.9040532E-01   8.1219000E-01   6.8223786E-01   5.4480225E-01   4.3104506E-01   3.5053355E-01   7.9088140E-01   6.3336569E-01   5.0692856E-01   3.8595855E-01   2.9122639E-01   2.2596738E-01   6.0432613E-01   4.7458664E-01   3.4286401E-01   2.4903300E-01   1.8137184E-01   1.3319708E-01   3.4278196E-01   2.1104074E-01   1.3323104E-01   9.4322637E-02   6.3906491E-02   2.3878972E-01   1.2216266E-01   4.3904483E-02   2.4825953E-02   1.1722788E-02   8.2090549E-02  -6.8082511E-03  -3.1968862E-02  -2.8597519E-02   6.7760229E-02  -1.4883086E-02  -7.0249520E-02  -6.0978755E-02   1.9125432E-02  -6.5041393E-02  -7.9321340E-02  -1.4924854E-02  -5.4202400E-02  -2.7761772E-02   3.5218969E-03  -1.5637015E-01  -1.6224276E-01  -1.6654997E-01  -1.6958466E-01  -1.7164476E-01  -1.7299393E-01  -1.7384106E-01  -1.7434196E-01  -1.7460206E-01  -1.8012951E-01  -1.8636152E-01  -1.9091444E-01  -1.9410846E-01  -1.9627549E-01  -1.9769777E-01  -1.9859444E-01  -1.9912685E-01  -1.9940455E-01  -1.9767548E-01  -2.0378563E-01  -2.0817973E-01  -2.1121666E-01  -2.1325935E-01  -2.1459259E-01  -2.1542975E-01  -2.1592499E-01  -2.1618235E-01  -2.1256107E-01  -2.1824588E-01  -2.2219162E-01  -2.2482896E-01  -2.2656031E-01  -2.2766721E-01  -2.2834799E-01  -2.2874194E-01  -2.2894265E-01  -2.2792378E-01  -2.3302574E-01  -2.3634587E-01  -2.3842558E-01  -2.3971434E-01  -2.4049215E-01  -2.4094132E-01  -2.4118315E-01  -2.4129751E-01  -2.4578673E-01  -2.5020805E-01  -2.5280237E-01  -2.5423056E-01  -2.5499222E-01  -2.5537252E-01  -2.5553855E-01  -2.5559282E-01  -2.5560054E-01  -2.6681092E-01  -2.7044234E-01  -2.7224350E-01  -2.7296162E-01  -2.7314597E-01  -2.7308953E-01  -2.7294430E-01  -2.7279294E-01  -2.7268371E-01  -2.9048663E-01  -2.9321188E-01  -2.9415688E-01  -2.9412860E-01  -2.9371533E-01  -2.9321280E-01  -2.9275468E-01  -2.9239878E-01  -2.9217437E-01  -3.1579933E-01  -3.1749362E-01  -3.1756714E-01  -3.1680194E-01  -3.1581500E-01  -3.1489691E-01  -3.1415555E-01  -3.1362003E-01  -3.1329638E-01  -3.4184304E-01  -3.4249917E-01  -3.4180927E-01  -3.4041411E-01  -3.3895037E-01  -3.3770132E-01  -3.3674592E-01  -3.3608130E-01  -3.3568978E-01  -3.6770114E-01  -3.6757031E-01  -3.6638910E-01  -3.6460042E-01  -3.6284879E-01  -3.6141443E-01  -3.6035293E-01  -3.5963458E-01  -3.5921890E-01  -3.9248791E-01  -3.9209786E-01  -3.9084235E-01  -3.8901418E-01  -3.8724655E-01  -3.8582587E-01  -3.8479841E-01  -3.8411874E-01  -3.8373318E-01  -4.1580141E-01  -4.1579813E-01  -4.1494581E-01  -4.1348428E-01  -4.1201580E-01  -4.1083494E-01  -4.0999702E-01  -4.0945727E-01  -4.0915850E-01  -4.3797794E-01  -4.3887350E-01  -4.3883818E-01  -4.3810928E-01  -4.3723172E-01  -4.3650514E-01  -4.3600485E-01  -4.3570089E-01  -4.3554246E-01  -4.5993707E-01  -4.6197012E-01  -4.6301228E-01  -4.6326020E-01  -4.6318108E-01  -4.6307042E-01  -4.6302363E-01  -4.6303135E-01  -4.6305642E-01  -4.8281252E-01  -4.8599929E-01  -4.8819044E-01  -4.8950133E-01  -4.9031550E-01  -4.9090320E-01  -4.9137470E-01  -4.9173868E-01  -4.9197143E-01  -5.0759774E-01  -5.1186633E-01  -5.1512414E-01  -5.1745260E-01  -5.1914960E-01  -5.2044713E-01  -5.2145082E-01  -5.2218205E-01  -5.2262872E-01  -5.3501546E-01  -5.4023480E-01  -5.4441428E-01  -5.4764676E-01  -5.5015743E-01  -5.5212694E-01  -5.5364549E-01  -5.5473495E-01  -5.5539215E-01  -5.6535482E-01  -5.7142228E-01  -5.7640505E-01  -5.8043635E-01  -5.8368534E-01  -5.8628201E-01  -5.8828831E-01  -5.8972007E-01  -5.9057778E-01  -5.9854186E-01  -6.0543400E-01  -6.1118132E-01  -6.1596811E-01  -6.1991882E-01  -6.2311435E-01  -6.2558788E-01  -6.2734461E-01  -6.2839150E-01  -6.3432014E-01  -6.4209348E-01  -6.4864796E-01  -6.5421182E-01  -6.5887117E-01  -6.6266209E-01  -6.6558969E-01  -6.6765440E-01  -6.6887689E-01  -6.7242718E-01  -6.8116611E-01  -6.8859947E-01  -6.9498545E-01  -7.0037341E-01  -7.0476246E-01  -7.0813125E-01  -7.1048450E-01  -7.1186346E-01  -7.1258277E-01  -7.2231829E-01  -7.3065495E-01  -7.3786533E-01  -7.4397278E-01  -7.4893934E-01  -7.5272626E-01  -7.5534344E-01  -7.5685966E-01  -7.5413674E-01  -7.6476473E-01  -7.7390504E-01  -7.8184712E-01  -7.8860033E-01  -7.9409266E-01  -7.9826164E-01  -8.0111742E-01  -8.0275536E-01  -7.9533362E-01  -8.0656278E-01  -8.1624448E-01  -8.2470405E-01  -8.3195627E-01  -8.3789170E-01  -8.4240294E-01  -8.4548378E-01  -8.4724170E-01  -8.3239412E-01  -8.4375751E-01  -8.5356063E-01  -8.6220932E-01  -8.6975217E-01  -8.7603229E-01  -8.8086176E-01  -8.8417995E-01  -8.8607693E-01  -8.5878325E-01  -8.6977005E-01  -8.7921184E-01  -8.8766086E-01  -8.9525276E-01  -9.0177679E-01  -9.0692103E-01  -9.1052151E-01  -9.1260570E-01  -8.6501253E-01  -8.7537253E-01  -8.8416052E-01  -8.9213264E-01  -8.9958256E-01  -9.0628141E-01  -9.1177022E-01  -9.1572762E-01  -9.1807139E-01  -8.3895850E-01  -8.4914434E-01  -8.5764605E-01  -8.6537230E-01  -8.7281221E-01  -8.7980318E-01  -8.8577640E-01  -8.9024013E-01  -8.9295852E-01  -7.6502740E-01  -7.7662361E-01  -7.8636456E-01  -7.9519814E-01  -8.0366981E-01  -8.1170261E-01  -8.1871450E-01  -8.2409179E-01  -8.2744199E-01  -6.1872232E-01  -6.3463765E-01  -6.4829397E-01  -6.6080672E-01  -6.7258441E-01  -6.8346006E-01  -6.9284397E-01  -7.0005614E-01  -7.0458055E-01  -3.6196932E-01  -3.8546306E-01  -4.0604550E-01  -4.2520639E-01  -4.4315988E-01  -4.5938915E-01  -4.7311273E-01  -4.8354909E-01  -4.9007341E-01   4.6234332E-02   1.4341220E-02  -1.4484450E-02  -4.2010576E-02  -6.8150818E-02  -9.1760948E-02  -1.1158593E-01  -1.2656555E-01  -1.3589293E-01   6.2522584E-01   5.8994901E-01   5.5608505E-01   5.2200514E-01   4.8843682E-01   4.5754170E-01   4.3140045E-01   4.1159821E-01   3.9926296E-01   1.3455899E+00   1.3191338E+00   1.2897162E+00   1.2561260E+00   1.2202848E+00   1.1857985E+00   1.1559284E+00   1.1330316E+00   1.1186894E+00   2.1141012E+00   2.1129107E+00   2.1021905E+00   2.0806870E+00   2.0520201E+00   2.0214927E+00   1.9936866E+00   1.9718322E+00   1.9579772E+00   2.7873919E+00   2.8251839E+00   2.8469152E+00   2.8500578E+00   2.8397346E+00   2.8227642E+00   2.8048534E+00   2.7898679E+00   2.7801094E+00   3.2187095E+00   3.2997341E+00   3.3575573E+00   3.3908443E+00   3.4054480E+00   3.4087398E+00   3.4067020E+00   3.4032004E+00   3.4004083E+00   3.3675380E+00   3.4784162E+00   3.5620465E+00   3.6189342E+00   3.6550732E+00   3.6774395E+00   3.6912706E+00   3.6996765E+00   3.7042463E+00   3.3395970E+00   3.4601092E+00   3.5529008E+00   3.6201079E+00   3.6675477E+00   3.7013495E+00   3.7255905E+00   3.7422452E+00   3.7520514E+00   3.2623057E+00   3.3740256E+00   3.4596522E+00   3.5226228E+00   3.5686867E+00   3.6032953E+00   3.6295295E+00   3.6483464E+00   3.6596982E+00   3.2081127E+00   3.2999012E+00   3.3674517E+00   3.4152009E+00   3.4492097E+00   3.4748101E+00   3.4947214E+00   3.5093846E+00   3.5183532E+00   3.1747594E+00   3.2438405E+00   3.2895625E+00   3.3169858E+00   3.3328438E+00   3.3430314E+00   3.3506818E+00   3.3564448E+00   3.3600006E+00   3.1085773E+00   3.1576202E+00   3.1831775E+00   3.1903872E+00   3.1867793E+00   3.1792815E+00   3.1720622E+00   3.1666179E+00   3.1632378E+00   2.9482422E+00   2.9806564E+00   2.9895003E+00   2.9792893E+00   2.9580936E+00   2.9339128E+00   2.9121995E+00   2.8956394E+00   2.8853242E+00   2.6630845E+00   2.6799705E+00   2.6746278E+00   2.6502154E+00   2.6147413E+00   2.5769012E+00   2.5432332E+00   2.5174794E+00   2.5014379E+00   2.2695801E+00   2.2704389E+00   2.2526245E+00   2.2173657E+00   2.1719046E+00   2.1249599E+00   2.0835602E+00   2.0520012E+00   2.0324121E+00   1.8215363E+00   1.8063527E+00   1.7780855E+00   1.7357821E+00   1.6853149E+00   1.6347172E+00   1.5907704E+00   1.5576415E+00   1.5372578E+00   1.3807383E+00   1.3519380E+00   1.3165590E+00   1.2715468E+00   1.2211243E+00   1.1721514E+00   1.1305623E+00   1.0998120E+00   1.0811826E+00   9.9573290E-01   9.5837998E-01   9.2038774E-01   8.7686568E-01   8.3050001E-01   7.8688437E-01   7.5088847E-01   7.2499621E-01   7.0965642E-01   6.9019473E-01   6.5069401E-01   6.1454940E-01   5.7564521E-01   5.3552079E-01   4.9877834E-01   4.6937633E-01   4.4891232E-01   4.3712091E-01   4.6423584E-01   4.2817503E-01   3.9704609E-01   3.6425805E-01   3.3074215E-01   3.0052745E-01   2.7696425E-01   2.6104629E-01   2.5210324E-01   3.0349094E-01   2.7431095E-01   2.4940489E-01   2.2264028E-01   1.9485807E-01   1.6981356E-01   1.5049362E-01   1.3760838E-01   1.3043861E-01   1.8990800E-01   1.6845396E-01   1.4916527E-01   1.2716945E-01   1.0369170E-01   8.2235917E-02   6.5498486E-02   5.4205999E-02   4.7862455E-02   1.0821650E-01   9.3658090E-02   7.8600585E-02   5.9731081E-02   3.9085880E-02   1.9872844E-02   4.4794977E-03  -6.1941445E-03  -1.2307525E-02   4.7940820E-02   3.9046794E-02   2.7291134E-02   1.0542452E-02  -8.4377676E-03  -2.6375055E-02  -4.1137576E-02  -5.1663280E-02  -5.7797194E-02   2.3724139E-03  -2.1229237E-03  -1.0320514E-02  -2.4535164E-02  -4.1993156E-02  -5.9172750E-02  -7.3633417E-02  -8.4147125E-02  -9.0352207E-02  -3.2865345E-02  -3.4927681E-02  -3.8806766E-02  -4.8798651E-02  -6.3319787E-02  -7.9001978E-02  -9.2978820E-02  -1.0341616E-01  -1.0965456E-01  -6.0830668E-02  -6.2863424E-02  -6.3250840E-02  -6.7448586E-02  -7.6730147E-02  -8.8828996E-02  -1.0078567E-01  -1.1038850E-01  -1.1638002E-01  -8.1868455E-02  -8.6982146E-02  -8.7598190E-02  -8.6780503E-02  -8.9136630E-02  -9.5163882E-02  -1.0293202E-01  -1.1011654E-01  -1.1501111E-01  -8.7876260E-02  -1.0279785E-01  -1.0952771E-01  -1.1039641E-01  -1.0702422E-01  -1.0593987E-01  -1.0755248E-01  -1.1085190E-01  -1.1371508E-01  -5.7371780E-02  -9.9566132E-02  -1.1663082E-01  -1.3078855E-01  -1.3051169E-01  -1.2573719E-01  -1.2165643E-01  -1.1998563E-01  -1.2018192E-01  -2.6489824E-02  -6.9454685E-02  -9.7987831E-02  -1.3076474E-01  -1.4332902E-01  -1.4769271E-01  -1.4357913E-01  -1.3944608E-01  -1.3745719E-01  -8.9390278E-02  -8.5289672E-02  -1.2019198E-01  -1.3766672E-01  -1.5739033E-01  -1.6116035E-01  -1.5880996E-01  -1.5737665E-01  -1.6358775E-01  -1.5972570E-01  -1.7858672E-01  -1.8074378E-01  -1.7977920E-01  -1.7721909E-01  -2.5657254E-01  -2.4227192E-01  -2.3020327E-01  -2.2506107E-01  -1.7468216E-01  -1.7460203E-01  -1.7434193E-01  -1.7384109E-01  -1.7299388E-01  -1.7164481E-01  -1.6958469E-01  -1.6654997E-01  -1.9949034E-01  -1.9940455E-01  -1.9912691E-01  -1.9859441E-01  -1.9769780E-01  -1.9627546E-01  -1.9410852E-01  -1.9091438E-01  -2.1626149E-01  -2.1618231E-01  -2.1592495E-01  -2.1542968E-01  -2.1459267E-01  -2.1325947E-01  -2.1121670E-01  -2.0817976E-01  -2.2900380E-01  -2.2894274E-01  -2.2874197E-01  -2.2834794E-01  -2.2766730E-01  -2.2656041E-01  -2.2482899E-01  -2.2219169E-01  -2.4133062E-01  -2.4129760E-01  -2.4118313E-01  -2.4094135E-01  -2.4049219E-01  -2.3971426E-01  -2.3842549E-01  -2.3634575E-01  -2.5559887E-01  -2.5560054E-01  -2.5559285E-01  -2.5553861E-01  -2.5537264E-01  -2.5499228E-01  -2.5423053E-01  -2.5280240E-01  -2.7264425E-01  -2.7268374E-01  -2.7279297E-01  -2.7294427E-01  -2.7308953E-01  -2.7314612E-01  -2.7296168E-01  -2.7224347E-01  -2.9209769E-01  -2.9217449E-01  -2.9239872E-01  -2.9275453E-01  -2.9321292E-01  -2.9371542E-01  -2.9412851E-01  -2.9415706E-01  -3.1318808E-01  -3.1329641E-01  -3.1362000E-01  -3.1415561E-01  -3.1489700E-01  -3.1581515E-01  -3.1680214E-01  -3.1756717E-01  -3.3556008E-01  -3.3568949E-01  -3.3608127E-01  -3.3674577E-01  -3.3770144E-01  -3.3895057E-01  -3.4041432E-01  -3.4180936E-01  -3.5908318E-01  -3.5921896E-01  -3.5963458E-01  -3.6035299E-01  -3.6141434E-01  -3.6284891E-01  -3.6460030E-01  -3.6638874E-01  -3.8360804E-01  -3.8373306E-01  -3.8411868E-01  -3.8479841E-01  -3.8582587E-01  -3.8724652E-01  -3.8901389E-01  -3.9084205E-01  -4.0906277E-01  -4.0915823E-01  -4.0945721E-01  -4.0999717E-01  -4.1083509E-01  -4.1201583E-01  -4.1348433E-01  -4.1494572E-01  -4.3549359E-01  -4.3554258E-01  -4.3570083E-01  -4.3600485E-01  -4.3650505E-01  -4.3723148E-01  -4.3810937E-01  -4.3883789E-01  -4.6306801E-01  -4.6305609E-01  -4.6303123E-01  -4.6302333E-01  -4.6307024E-01  -4.6318141E-01  -4.6325991E-01  -4.6301231E-01  -4.9205151E-01  -4.9197114E-01  -4.9173847E-01  -4.9137455E-01  -4.9090317E-01  -4.9031562E-01  -4.8950085E-01  -4.8819014E-01  -5.2277946E-01  -5.2262884E-01  -5.2218217E-01  -5.2145112E-01  -5.2044713E-01  -5.1914966E-01  -5.1745254E-01  -5.1512396E-01  -5.5561173E-01  -5.5539197E-01  -5.5473518E-01  -5.5364579E-01  -5.5212730E-01  -5.5015779E-01  -5.4764688E-01  -5.4441440E-01  -5.9086335E-01  -5.9057772E-01  -5.8971936E-01  -5.8828837E-01  -5.8628207E-01  -5.8368564E-01  -5.8043677E-01  -5.7640523E-01  -6.2873906E-01  -6.2839168E-01  -6.2734449E-01  -6.2558812E-01  -6.2311447E-01  -6.1991870E-01  -6.1596829E-01  -6.1118156E-01  -6.6927940E-01  -6.6887647E-01  -6.6765511E-01  -6.6558969E-01  -6.6266215E-01  -6.5887105E-01  -6.5421188E-01  -6.4864814E-01  -7.1231568E-01  -7.1186256E-01  -7.1048480E-01  -7.0813137E-01  -7.0476222E-01  -7.0037389E-01  -6.9498569E-01  -6.8860006E-01  -7.5735384E-01  -7.5685978E-01  -7.5534368E-01  -7.5272626E-01  -7.4893963E-01  -7.4397248E-01  -7.3786521E-01  -7.3065519E-01  -8.0328524E-01  -8.0275524E-01  -8.0111730E-01  -7.9826164E-01  -7.9409266E-01  -7.8859973E-01  -7.8184712E-01  -7.7390456E-01  -8.4780812E-01  -8.4724176E-01  -8.4548354E-01  -8.4240270E-01  -8.3789170E-01  -8.3195603E-01  -8.2470393E-01  -8.1624371E-01  -8.8668871E-01  -8.8607687E-01  -8.8417995E-01  -8.8086170E-01  -8.7603307E-01  -8.6975175E-01  -8.6220860E-01  -8.5356128E-01  -9.1328120E-01  -9.1260529E-01  -9.1052115E-01  -9.0692121E-01  -9.0177655E-01  -8.9525282E-01  -8.8766044E-01  -8.7921196E-01  -9.1884184E-01  -9.1807181E-01  -9.1572756E-01  -9.1177034E-01  -9.0628207E-01  -8.9958262E-01  -8.9213240E-01  -8.8416058E-01  -8.9386749E-01  -8.9295888E-01  -8.9024043E-01  -8.8577598E-01  -8.7980330E-01  -8.7281281E-01  -8.6537236E-01  -8.5764569E-01  -8.2857645E-01  -8.2744217E-01  -8.2409191E-01  -8.1871516E-01  -8.1170261E-01  -8.0366975E-01  -7.9519796E-01  -7.8636384E-01  -7.0612109E-01  -7.0458055E-01  -7.0005620E-01  -6.9284433E-01  -6.8346071E-01  -6.7258424E-01  -6.6080654E-01  -6.4829385E-01  -4.9229339E-01  -4.9007350E-01  -4.8354939E-01  -4.7311300E-01  -4.5938918E-01  -4.4316012E-01  -4.2520636E-01  -4.0604562E-01  -1.3906039E-01  -1.3589329E-01  -1.2656567E-01  -1.1158611E-01  -9.1761485E-02  -6.8151042E-02  -4.2010635E-02  -1.4484465E-02   3.9507484E-01   3.9926282E-01   4.1159797E-01   4.3139991E-01   4.5754156E-01   4.8843664E-01   5.2200520E-01   5.5608499E-01   1.1138109E+00   1.1186897E+00   1.1330316E+00   1.1559281E+00   1.1857984E+00   1.2202848E+00   1.2561264E+00   1.2897156E+00   1.9532423E+00   1.9579779E+00   1.9718305E+00   1.9936852E+00   2.0214913E+00   2.0520201E+00   2.0806861E+00   2.1021886E+00   2.7767410E+00   2.7801087E+00   2.7898664E+00   2.8048515E+00   2.8227634E+00   2.8397341E+00   2.8500583E+00   2.8469136E+00   3.3993797E+00   3.4004083E+00   3.4031994E+00   3.4067028E+00   3.4087403E+00   3.4054477E+00   3.3908453E+00   3.3575583E+00   3.7057045E+00   3.7042465E+00   3.6996770E+00   3.6912699E+00   3.6774397E+00   3.6550734E+00   3.6189337E+00   3.5620472E+00   3.7552941E+00   3.7520528E+00   3.7422457E+00   3.7255938E+00   3.7013502E+00   3.6675477E+00   3.6201077E+00   3.5528996E+00   3.6634858E+00   3.6596978E+00   3.6483476E+00   3.6295302E+00   3.6032951E+00   3.5686877E+00   3.5226233E+00   3.4596524E+00   3.5213585E+00   3.5183525E+00   3.5093851E+00   3.4947209E+00   3.4748104E+00   3.4492099E+00   3.4152014E+00   3.3674514E+00   3.3611867E+00   3.3600006E+00   3.3564444E+00   3.3506825E+00   3.3430321E+00   3.3328440E+00   3.3169870E+00   3.2895637E+00   3.1620803E+00   3.1632395E+00   3.1666174E+00   3.1720612E+00   3.1792810E+00   3.1867785E+00   3.1903868E+00   3.1831775E+00   2.8818128E+00   2.8853238E+00   2.8956385E+00   2.9121993E+00   2.9339128E+00   2.9580934E+00   2.9792881E+00   2.9894991E+00   2.4959898E+00   2.5014365E+00   2.5174792E+00   2.5432324E+00   2.5769000E+00   2.6147408E+00   2.6502140E+00   2.6746268E+00   2.0257759E+00   2.0324116E+00   2.0520017E+00   2.0835600E+00   2.1249595E+00   2.1719041E+00   2.2173653E+00   2.2526245E+00   1.5303880E+00   1.5372577E+00   1.5576404E+00   1.5907706E+00   1.6347166E+00   1.6853143E+00   1.7357812E+00   1.7780851E+00   1.0749590E+00   1.0811821E+00   1.0998118E+00   1.1305618E+00   1.1721512E+00   1.2211239E+00   1.2715468E+00   1.3165599E+00   7.0459557E-01   7.0965636E-01   7.2499609E-01   7.5088829E-01   7.8688383E-01   8.3050007E-01   8.7686551E-01   9.2038804E-01   4.3329185E-01   4.3712085E-01   4.4891226E-01   4.6937668E-01   4.9877840E-01   5.3552079E-01   5.7564539E-01   6.1455011E-01   2.4924091E-01   2.5210336E-01   2.6104638E-01   2.7696446E-01   3.0052757E-01   3.3074230E-01   3.6425838E-01   3.9704642E-01   1.2815560E-01   1.3043889E-01   1.3760865E-01   1.5049392E-01   1.6981384E-01   1.9485825E-01   2.2264048E-01   2.4940512E-01   4.5832247E-02   4.7862455E-02   5.4205939E-02   6.5498799E-02   8.2236141E-02   1.0369185E-01   1.2716961E-01   1.4916559E-01  -1.4282614E-02  -1.2307495E-02  -6.1941743E-03   4.4797361E-03   1.9872844E-02   3.9086178E-02   5.9731215E-02   7.8601003E-02  -5.9791476E-02  -5.7797283E-02  -5.1663280E-02  -4.1137516E-02  -2.6374996E-02  -8.4376335E-03   1.0542631E-02   2.7291417E-02  -9.2381179E-02  -9.0352297E-02  -8.4146976E-02  -7.3633432E-02  -5.9172109E-02  -4.1992947E-02  -2.4535120E-02  -1.0320410E-02  -1.1170918E-01  -1.0965472E-01  -1.0341631E-01  -9.2978835E-02  -7.9002008E-02  -6.3319802E-02  -4.8798651E-02  -3.8806722E-02  -1.1839749E-01  -1.1638001E-01  -1.1038858E-01  -1.0078590E-01  -8.8829264E-02  -7.6730251E-02  -6.7448705E-02  -6.3251123E-02  -1.1673570E-01  -1.1501119E-01  -1.1011671E-01  -1.0293223E-01  -9.5164210E-02  -8.9136943E-02  -8.6780608E-02  -8.7598369E-02  -1.1481705E-01  -1.1371531E-01  -1.1085208E-01  -1.0755280E-01  -1.0594007E-01  -1.0702452E-01  -1.1039698E-01  -1.0952808E-01  -1.2044330E-01  -1.2018196E-01  -1.1998577E-01  -1.2165657E-01  -1.2573759E-01  -1.3051195E-01  -1.3078883E-01  -1.1663097E-01  -1.3687259E-01  -1.3745737E-01  -1.3944656E-01  -1.4357987E-01  -1.4769295E-01  -1.4332968E-01  -1.3076550E-01  -9.7988188E-02  -1.5674929E-01  -1.5737674E-01  -1.5881017E-01  -1.6116107E-01  -1.5739107E-01  -1.3766780E-01  -1.2019268E-01  -8.5290127E-02  -1.7636357E-01  -1.7721918E-01  -1.7977974E-01  -1.8074456E-01  -1.7858747E-01  -1.5972644E-01  -1.6358791E-01  -2.2384176E-01  -2.2506103E-01  -2.3020393E-01  -2.4227245E-01  -2.5657362E-01  -1.6224273E-01  -1.5637016E-01  -1.4863729E-01  -1.3867578E-01  -1.2607762E-01  -1.1055132E-01  -9.2139766E-02  -1.8636155E-01  -1.8012954E-01  -1.7188391E-01  -1.6116972E-01  -1.4745726E-01  -1.3034229E-01  -1.0981049E-01  -8.6449742E-02  -2.0378548E-01  -1.9767541E-01  -1.8945843E-01  -1.7856930E-01  -1.6432181E-01  -1.4615187E-01  -1.2395760E-01  -9.8465249E-02  -2.1824583E-01  -2.1256123E-01  -2.0466268E-01  -1.9385515E-01  -1.7927335E-01  -1.6017731E-01  -1.3640833E-01  -1.0885276E-01  -2.3302588E-01  -2.2792374E-01  -2.2045587E-01  -2.0978017E-01  -1.9484808E-01  -1.7482729E-01  -1.4953186E-01  -1.1988801E-01  -2.5020802E-01  -2.4578674E-01  -2.3881613E-01  -2.2833979E-01  -2.1336456E-01  -1.9306764E-01  -1.6702890E-01  -1.3569981E-01  -2.7044255E-01  -2.6681089E-01  -2.6051477E-01  -2.5079760E-01  -2.3704134E-01  -2.1846303E-01  -1.9399866E-01  -1.6213633E-01  -2.9321182E-01  -2.9048654E-01  -2.8532329E-01  -2.7759507E-01  -2.6744089E-01  -2.5430021E-01  -2.3583513E-01  -2.0612395E-01  -3.1749368E-01  -3.1579912E-01  -3.1235790E-01  -3.0813992E-01  -3.0454007E-01  -3.0164778E-01  -2.9570898E-01  -2.7381945E-01  -3.4249905E-01  -3.4184298E-01  -3.4048283E-01  -3.4077176E-01  -3.4584662E-01  -3.5716555E-01  -3.7066585E-01  -3.6756000E-01  -3.6757028E-01  -3.6770082E-01  -3.6818045E-01  -3.7269413E-01  -3.8624471E-01  -4.1250515E-01  -4.4891050E-01  -4.7736305E-01  -3.9209759E-01  -3.9248753E-01  -3.9388847E-01  -4.0088552E-01  -4.2000234E-01  -4.5690063E-01  -5.0936943E-01  -5.5457413E-01  -4.1579813E-01  -4.1580102E-01  -4.1686240E-01  -4.2366573E-01  -4.4290483E-01  -4.7882262E-01  -5.1793402E-01  -5.3695434E-01  -4.3887329E-01  -4.3797767E-01  -4.3766674E-01  -4.4178623E-01  -4.5520645E-01  -4.7797781E-01  -4.9351394E-01  -4.9895674E-01  -4.6196997E-01  -4.5993701E-01  -4.5785192E-01  -4.5817363E-01  -4.6350750E-01  -4.7177902E-01  -4.7487622E-01  -4.7845966E-01  -4.8599926E-01  -4.8281232E-01  -4.7913405E-01  -4.7615606E-01  -4.7485915E-01  -4.7337741E-01  -4.7193849E-01  -4.7580126E-01  -5.1186645E-01  -5.0759780E-01  -5.0265032E-01  -4.9750051E-01  -4.9230212E-01  -4.8597118E-01  -4.8182511E-01  -4.8426956E-01  -5.4023510E-01  -5.3501511E-01  -5.2894932E-01  -5.2233678E-01  -5.1518017E-01  -5.0698382E-01  -5.0145292E-01  -5.0202239E-01  -5.7142246E-01  -5.6535500E-01  -5.5824888E-01  -5.5033606E-01  -5.4181403E-01  -5.3266418E-01  -5.2594602E-01  -5.2510726E-01  -6.0543424E-01  -5.9854203E-01  -5.9041309E-01  -5.8123004E-01  -5.7128942E-01  -5.6086648E-01  -5.5260628E-01  -5.5027026E-01  -6.4209366E-01  -6.3432050E-01  -6.2512016E-01  -6.1461699E-01  -6.0313582E-01  -5.9108055E-01  -5.8107328E-01  -5.7738012E-01  -6.8116593E-01  -6.7242730E-01  -6.6208285E-01  -6.5018272E-01  -6.3700020E-01  -6.2309301E-01  -6.1140740E-01  -6.0711223E-01  -7.2231817E-01  -7.1258336E-01  -7.0107913E-01  -6.8776757E-01  -6.7278761E-01  -6.5684384E-01  -6.4375943E-01  -6.3967335E-01  -7.6476461E-01  -7.5413698E-01  -7.4160308E-01  -7.2705209E-01  -7.1039855E-01  -6.9231564E-01  -6.7811155E-01  -6.7497098E-01  -8.0656266E-01  -7.9533356E-01  -7.8210092E-01  -7.6672971E-01  -7.4897230E-01  -7.2890705E-01  -7.1366668E-01  -7.1207064E-01  -8.4375763E-01  -8.3239442E-01  -8.1897479E-01  -8.0343539E-01  -7.8562951E-01  -7.6432317E-01  -7.4781573E-01  -7.4794316E-01  -8.6976969E-01  -8.5878247E-01  -8.4571493E-01  -8.3068639E-01  -8.1421155E-01  -7.9319960E-01  -7.7515560E-01  -7.7654696E-01  -8.7537169E-01  -8.6501318E-01  -8.5252637E-01  -8.3841574E-01  -8.2437968E-01  -8.0621904E-01  -7.8635216E-01  -7.8783566E-01  -8.4914416E-01  -8.3895838E-01  -8.2655460E-01  -8.1291497E-01  -8.0162513E-01  -7.8842366E-01  -7.6662761E-01  -7.6594198E-01  -7.7662343E-01  -7.6502764E-01  -7.5089288E-01  -7.3542732E-01  -7.2485685E-01  -7.1604276E-01  -6.9209260E-01  -6.8589103E-01  -6.3463771E-01  -6.1872202E-01  -5.9935063E-01  -5.7825530E-01  -5.6374449E-01  -5.5441219E-01  -5.2585804E-01  -5.1004720E-01  -3.8546312E-01  -3.6196917E-01  -3.3403736E-01  -3.0399716E-01  -2.8116709E-01  -2.6214820E-01  -2.2469537E-01  -1.8948190E-01   1.4341533E-02   4.6234697E-02   8.2615487E-02   1.2084133E-01   1.5599319E-01   1.9708164E-01   2.4917178E-01   3.1045285E-01   5.8994889E-01   6.2522584E-01   6.6337299E-01   7.0489788E-01   7.5754839E-01   8.2309663E-01   8.8427168E-01   9.6913248E-01   1.3191335E+00   1.3455896E+00   1.3720335E+00   1.4065199E+00   1.4652942E+00   1.5268073E+00   1.5846025E+00   1.7007897E+00   2.1129107E+00   2.1141009E+00   2.1138794E+00   2.1283002E+00   2.1613197E+00   2.1845002E+00   2.2018828E+00   2.3013542E+00   2.8251846E+00   2.7873909E+00   2.7455802E+00   2.7123320E+00   2.6877122E+00   2.6371858E+00   2.6076760E+00   2.6587832E+00   3.2997339E+00   3.2187104E+00   3.1252816E+00   3.0302355E+00   2.9337745E+00   2.8215804E+00   2.7385869E+00   2.8046229E+00   3.4784145E+00   3.3675370E+00   3.2374763E+00   3.0962265E+00   2.9439037E+00   2.7935293E+00   2.6718428E+00   2.7950435E+00   3.4601088E+00   3.3395987E+00   3.1955221E+00   3.0353327E+00   2.8570774E+00   2.7061076E+00   2.5592802E+00   2.7024376E+00   3.3740234E+00   3.2623084E+00   3.1256030E+00   2.9705317E+00   2.7978015E+00   2.6466215E+00   2.4937193E+00   2.6456461E+00   3.2999017E+00   3.2081113E+00   3.0916426E+00   2.9580877E+00   2.8029268E+00   2.6442230E+00   2.5005219E+00   2.6606259E+00   3.2438395E+00   3.1747582E+00   3.0816402E+00   2.9706793E+00   2.8334837E+00   2.6772764E+00   2.5483358E+00   2.7107635E+00   3.1576190E+00   3.1085742E+00   3.0362656E+00   2.9448059E+00   2.8261051E+00   2.6840711E+00   2.5696754E+00   2.7261961E+00   2.9806566E+00   2.9482419E+00   2.8941102E+00   2.8216572E+00   2.7262456E+00   2.6072843E+00   2.5120726E+00   2.6537726E+00   2.6799698E+00   2.6630840E+00   2.6279624E+00   2.5784369E+00   2.5110989E+00   2.4282763E+00   2.3645563E+00   2.4867382E+00   2.2704380E+00   2.2695806E+00   2.2563026E+00   2.2347937E+00   2.2020493E+00   2.1642609E+00   2.1534698E+00   2.2635658E+00   1.8063525E+00   1.8215383E+00   1.8322475E+00   1.8422240E+00   1.8486691E+00   1.8705765E+00   1.9056516E+00   2.0171545E+00   1.3519386E+00   1.3807392E+00   1.4139342E+00   1.4565855E+00   1.5024426E+00   1.5781333E+00   1.6513805E+00   1.7739396E+00   9.5838034E-01   9.9573332E-01   1.0453340E+00   1.1164906E+00   1.1981862E+00   1.3047961E+00   1.4133519E+00   1.5524547E+00   6.5069437E-01   6.9019526E-01   7.4702144E-01   8.3441335E-01   9.4358969E-01   1.0655125E+00   1.1983922E+00   1.3501096E+00   4.2817539E-01   4.6423632E-01   5.1945508E-01   6.0923427E-01   7.2947955E-01   8.6586368E-01   9.9751955E-01   1.1590616E+00   2.7431118E-01   3.0349120E-01   3.5053366E-01   4.3104511E-01   5.4480249E-01   6.8223751E-01   8.1218958E-01   9.9040526E-01   1.6845426E-01   1.8990815E-01   2.2596742E-01   2.9122627E-01   3.8595867E-01   5.0692868E-01   6.3336527E-01   7.9088145E-01   9.3658283E-02   1.0821658E-01   1.3319705E-01   1.8137187E-01   2.4903293E-01   3.4286374E-01   4.7458649E-01   6.0432559E-01   3.9046913E-02   4.7940806E-02   6.3906431E-02   9.4322458E-02   1.3323076E-01   2.1104045E-01   3.4278089E-01  -2.1228939E-03   2.3723692E-03   1.1722624E-02   2.4825700E-02   4.3904461E-02   1.2216243E-01   2.3878974E-01  -3.4927636E-02  -3.2865450E-02  -2.8597489E-02  -3.1969115E-02  -6.8084970E-03   8.2089752E-02  -6.2863573E-02  -6.0830891E-02  -6.0978919E-02  -7.0249729E-02  -1.4882982E-02   6.7760184E-02  -8.6982474E-02  -8.1868380E-02  -7.9321459E-02  -6.5041542E-02   1.9124635E-02  -1.0279797E-01  -8.7876230E-02  -5.4202430E-02  -1.4925063E-02  -9.9566221E-02  -5.7372242E-02   3.5211593E-03  -2.7762100E-02  -6.9454484E-02  -2.6489630E-02  -8.9390472E-02 
VonMises3D 1 2975 float
  0.0000000E+00   0.0000000E+00   0.0000000E+00   0.0000000E+00   0.0000000E+00   0.0000000E+00   0.0000000E+00   0.0000000E+00   0.0000000E+00   0.0000000E+00   0.0000000E+00   0.0000000E+00   0.0000000E+00   1.3640029E-02   8.6297983E-12   1.0005720E-01   5.6106329E-01   2.1089162E-01   1.4945302E+00   3.8883786E+00   1.9599116E+00   7.1222415E+00   1.4134398E+01   7.5313897E+00   2.0901722E+01   3.6370323E+01   1.9061359E+01   4.6082882E+01   7.4636917E+01   3.7261551E+01   8.3340492E+01   1.2957637E+02   6.0606899E+01   1.2951912E+02   1.9661052E+02   8.5653587E+01   1.7817342E+02   2.6634766E+02   1.0857347E+02   2.2227261E+02   3.2844876E+02   1.2699709E+02   2.5749844E+02   3.7682565E+02   1.4101459E+02   2.8381094E+02   4.1282675E+02   1.6201857E+02   3.0530075E+02   4.5008740E+02   3.0444443E+02   3.6792059E+02   5.2532629E+02   8.8681073E+02   7.6162146E+02   6.9111469E+02   2.4517368E+03   2.0196793E+03   9.3789203E+02   5.8273979E+03   4.6750732E+03   1.1163252E+03   8.7468252E+03   1.3542213E+03   0.0000000E+00   0.0000000E+00   0.0000000E+00   0.0000000E+00   0.0000000E+00   0.0000000E+00   0.0000000E+00   0.0000000E+00   0.0000000E+00   0.0000000E+00   0.0000000E+00   0.0000000E+00   0.0000000E+00   0.0000000E+00   0.0000000E+00   0.0000000E+00   0.0000000E+00   0.0000000E+00   0.0000000E+00   0.0000000E+00   0.0000000E+00   0.0000000E+00   0.0000000E+00   0.0000000E+00   0.0000000E+00   8.6981250E-04   2.7159653E-03   1.5795634E-03   1.8715321E-03   3.3661155E-03   3.7893602E-03   4.0289531E-03   8.5044637E-02   1.8061934E-01   2.2050932E-01   1.6432035E-01   3.2428514E-02   1.1072174E-01   1.9678319E-01   2.1973281E-01   1.2218890E+00   1.7000822E+00   1.7400929E+00   1.2789688E+00   4.3724638E-01   4.9273881E-01   1.1982043E+00   1.5519547E+00   6.1940227E+00   7.3943772E+00   7.0439572E+00   5.0954337E+00   1.9550430E+00   1.4705961E+00   4.1916990E+00   5.7521124E+00   1.9643316E+01   2.1797480E+01   2.0000999E+01   1.4309308E+01   5.7427888E+00   3.4920917E+00   1.0954603E+01   1.5443545E+01   4.7089230E+01   5.0258362E+01   4.5177830E+01   3.2069065E+01   1.3118093E+01   7.0327563E+00   2.3370049E+01   3.3414879E+01   9.2971436E+01   9.7217438E+01   8.6418510E+01   6.0862869E+01   2.4910444E+01   1.2564706E+01   4.2717106E+01   6.1394588E+01   1.5807117E+02   1.6358025E+02   1.4438129E+02   1.0051437E+02   4.0399010E+01   2.0442017E+01   6.8683159E+01   9.8542854E+01   2.3710190E+02   2.4384251E+02   2.1281941E+02   3.1843887E+02   3.2529291E+02   3.8886215E+02   3.9273523E+02   4.4130130E+02   4.3975861E+02   4.7893918E+02   4.7029391E+02   5.4595087E+02   5.4937366E+02   8.7715149E+02   1.0795297E+03   1.9228038E+03   2.7350422E+03   4.1052813E+03   6.2167900E+03   7.4992559E+03   1.1942099E+04   1.1144743E+04   1.8846389E+04   0.0000000E+00   0.0000000E+00   0.0000000E+00   0.0000000E+00   0.0000000E+00   0.0000000E+00   0.0000000E+00   0.0000000E+00   0.0000000E+00   0.0000000E+00   0.0000000E+00   0.0000000E+00   0.0000000E+00   0.0000000E+00   0.0000000E+00   0.0000000E+00   0.0000000E+00   0.0000000E+00   0.0000000E+00   0.0000000E+00   0.0000000E+00   0.0000000E+00   0.0000000E+00   0.0000000E+00   0.0000000E+00   0.0000000E+00   0.0000000E+00   4.1403691E-03   4.1630059E-03   4.1289921E-03   4.0710540E-03   4.0002940E-03   3.9257049E-03   3.8588033E-03   3.8059389E-03   3.7722043E-03   2.2238557E-01   2.1776834E-01   2.0928028E-01   1.9922812E-01   1.8905757E-01   1.7967409E-01   1.7166282E-01   1.6555572E-01   1.6174541E-01   1.6187376E+00   1.5739911E+00   1.4919392E+00   1.3950615E+00   1.2976164E+00   1.2084268E+00   1.1333808E+00   1.0766364E+00   1.0413015E+00   6.2761564E+00   6.1589975E+00   5.8102937E+00   5.3848591E+00   4.9520850E+00   4.5552287E+00   4.2217765E+00   3.9705424E+00   3.8144603E+00   1.7192369E+01   1.7126066E+01   1.6166521E+01   1.4927419E+01   1.3644979E+01   1.2461045E+01   1.1464688E+01   1.0714173E+01   1.0248384E+01   3.7563751E+01   3.7714741E+01   3.5736485E+01   3.2956093E+01   3.0026474E+01   2.7299332E+01   2.4996704E+01   2.3260721E+01   2.2183352E+01   6.9320633E+01   6.9837952E+01   6.6359398E+01   6.1182858E+01   5.5639423E+01   5.0436932E+01   4.6027824E+01   4.2698807E+01   4.0631962E+01   1.1135576E+02   1.1231531E+02   1.0686078E+02   9.8561539E+01   8.9542511E+01   8.1014473E+01   7.3759865E+01   6.8273109E+01   6.4864525E+01   0.0000000E+00   0.0000000E+00   0.0000000E+00   0.0000000E+00   0.0000000E+00   0.0000000E+00   0.0000000E+00   0.0000000E+00   0.0000000E+00   0.0000000E+00   0.0000000E+00   0.0000000E+00   0.0000000E+00   0.0000000E+00   0.0000000E+00   0.0000000E+00   0.0000000E+00   0.0000000E+00   0.0000000E+00   0.0000000E+00   0.0000000E+00   0.0000000E+00   0.0000000E+00   0.0000000E+00   3.7607178E-03   3.7722043E-03   3.8059375E-03   3.8588031E-03   3.9257049E-03   4.0002950E-03   4.0710550E-03   4.1289921E-03   1.6044840E-01   1.6174541E-01   1.6555569E-01   1.7166281E-01   1.7967415E-01   1.8905762E-01   1.9922815E-01   2.0928033E-01   1.0293196E+00   1.0413013E+00   1.0766362E+00   1.1333805E+00   1.2084267E+00   1.2976165E+00   1.3950619E+00   1.4919393E+00   3.7615182E+00   3.8144593E+00   3.9705420E+00   4.2217765E+00   4.5552287E+00   4.9520860E+00   5.3848600E+00   5.8102956E+00   1.0090501E+01   1.0248384E+01   1.0714172E+01   1.1464688E+01   1.2461047E+01   1.3644984E+01   1.4927425E+01   1.6166523E+01   2.1818197E+01   2.2183350E+01   2.3260723E+01   2.4996704E+01   2.7299337E+01   3.0026476E+01   3.2956100E+01   3.5736492E+01   3.9931461E+01   4.0631969E+01   4.2698818E+01   4.6027832E+01   5.0436939E+01   5.5639431E+01   6.1182880E+01   6.6359421E+01   6.3709232E+01   6.4864525E+01   6.8273102E+01   7.3759865E+01   8.1014465E+01   8.9542519E+01   9.8561554E+01   1.0686080E+02   0.0000000E+00   0.0000000E+00   0.0000000E+00   0.0000000E+00   0.0000000E+00   0.0000000E+00   0.0000000E+00   0.0000000E+00   0.0000000E+00   0.0000000E+00   0.0000000E+00   0.0000000E+00   0.0000000E+00   0.0000000E+00   0.0000000E+00   0.0000000E+00   0.0000000E+00   0.0000000E+00   0.0000000E+00   0.0000000E+00   0.0000000E+00   0.0000000E+00   0.0000000E+00   0.0000000E+00   0.0000000E+00   0.0000000E+00   0.0000000E+00   4.1630063E-03   4.1403691E-03   4.0289531E-03   3.7893595E-03   3.3661157E-03   1.8715319E-03   1.5795620E-03   2.7159646E-03   8.6981239E-04   2.1776834E-01   2.2238562E-01   2.1973285E-01   1.9678319E-01   1.1072174E-01   3.2428533E-02   1.6432041E-01   2.2050934E-01   1.8061931E-01   1.5739913E+00   1.6187379E+00   1.5519547E+00   1.1982043E+00   4.9273881E-01   4.3724650E-01   1.2789692E+00   1.7400930E+00   1.7000822E+00   6.1589990E+00   6.2761564E+00   5.7521124E+00   4.1916995E+00   1.4705957E+00   1.9550432E+00   5.0954351E+00   7.0439582E+00   7.3943782E+00   1.7126072E+01   1.7192373E+01   1.5443545E+01   1.0954602E+01   3.4920917E+00   5.7427907E+00   1.4309311E+01   2.0000999E+01   2.1797482E+01   3.7714745E+01   3.7563755E+01   3.3414879E+01   2.3370049E+01   7.0327568E+00   1.3118093E+01   3.2069077E+01   4.5177837E+01   5.0258358E+01   6.9837959E+01   6.9320641E+01   6.1394600E+01   4.2717110E+01   1.2564713E+01   2.4910446E+01   6.0862869E+01   8.6418533E+01   9.7217438E+01   1.1231534E+02   1.1135578E+02   9.8542870E+01   6.8683174E+01   2.0442030E+01   4.0399010E+01   1.0051438E+02   1.4438129E+02   1.6358025E+02   2.1281944E+02   2.4384247E+02   3.2529291E+02   3.9273517E+02   4.3975858E+02   4.7029385E+02   5.4937366E+02   1.0795299E+03   2.7350422E+03   6.2167925E+03   1.1942099E+04   1.8846389E+04   0.0000000E+00   0.0000000E+00   0.0000000E+00   0.0000000E+00   0.0000000E+00   0.0000000E+00   0.0000000E+00   0.0000000E+00   0.0000000E+00   0.0000000E+00   0.0000000E+00   0.0000000E+00   0.0000000E+00   0.0000000E+00   0.0000000E+00   8.5044600E-02   1.3640023E-02   0.0000000E+00   0.0000000E+00   1.2218888E+00   5.6106311E-01   1.0005718E-01   8.6297965E-12   6.1940217E+00   3.8883772E+00   1.4945298E+00   2.1089162E-01   1.9643314E+01   1.4134397E+01   7.1222410E+00   1.9599116E+00   4.7089233E+01   3.6370323E+01   2.0901714E+01   7.5313888E+00   9.2971436E+01   7.4636909E+01   4.6082874E+01   1.9061354E+01   1.5807118E+02   1.2957635E+02   8.3340492E+01   3.7261543E+01   2.3710187E+02   1.9661050E+02   1.2951910E+02   6.0606899E+01   3.1843890E+02   2.6634763E+02   1.7817342E+02   8.5653587E+01   3.8886221E+02   3.2844873E+02   2.2227261E+02   1.0857347E+02   4.4130130E+02   3.7682565E+02   2.5749847E+02   1.2699709E+02   4.7893924E+02   4.1282675E+02   2.8381100E+02   1.4101459E+02   5.4595099E+02   4.5008743E+02   3.0530075E+02   1.6201859E+02   8.7715155E+02   5.2532623E+02   3.6792068E+02   3.0444449E+02   1.9228042E+03   6.9111475E+02   7.6162128E+02   8.8681085E+02   4.1052817E+03   9.3789233E+02   2.0196799E+03   2.4517366E+03   7.4992559E+03   1.1163254E+03   4.6750732E+03   5.8273984E+03   1.1144744E+04   1.3542214E+03   8.7468252E+03   0.0000000E+00   0.0000000E+00   0.0000000E+00   0.0000000E+00   0.0000000E+00   0.0000000E+00   0.0000000E+00   0.0000000E+00   0.0000000E+00   0.0000000E+00   0.0000000E+00   0.0000000E+00   0.0000000E+00   0.0000000E+00   0.0000000E+00   0.0000000E+00   0.0000000E+00   0.0000000E+00   0.0000000E+00   0.0000000E+00   0.0000000E+00   0.0000000E+00   0.0000000E+00   0.0000000E+00   0.0000000E+00   0.0000000E+00   0.0000000E+00   0.0000000E+00   0.0000000E+00   0.0000000E+00   0.0000000E+00   0.0000000E+00   0.0000000E+00   0.0000000E+00   0.0000000E+00   0.0000000E+00   0.0000000E+00   0.0000000E+00   0.0000000E+00   0.0000000E+00   0.0000000E+00   0.0000000E+00   0.0000000E+00   0.0000000E+00   0.0000000E+00   0.0000000E+00   0.0000000E+00   0.0000000E+00   0.0000000E+00   0.0000000E+00   0.0000000E+00   0.0000000E+00   0.0000000E+00   0.0000000E+00   0.0000000E+00   0.0000000E+00   0.0000000E+00   0.0000000E+00   0.0000000E+00   0.0000000E+00   0.0000000E+00   0.0000000E+00   0.0000000E+00   0.0000000E+00   0.0000000E+00   0.0000000E+00   0.0000000E+00   0.0000000E+00   0.0000000E+00   0.0000000E+00   0.0000000E+00   0.0000000E+00   0.0000000E+00   0.0000000E+00   0.0000000E+00   0.0000000E+00   0.0000000E+00   0.0000000E+00   0.0000000E+00   0.0000000E+00   0.0000000E+00   0.0000000E+00   0.0000000E+00   0.0000000E+00   0.0000000E+00   0.0000000E+00   0.0000000E+00   0.0000000E+00   0.0000000E+00   0.0000000E+00   0.0000000E+00   0.0000000E+00   0.0000000E+00   0.0000000E+00   0.0000000E+00   0.0000000E+00   0.0000000E+00   0.0000000E+00   0.0000000E+00   0.0000000E+00   0.0000000E+00   0.0000000E+00   0.0000000E+00   0.0000000E+00   0.0000000E+00   0.0000000E+00   0.0000000E+00   0.0000000E+00   0.0000000E+00   0.0000000E+00   0.0000000E+00   0.0000000E+00   0.0000000E+00   0.0000000E+00   0.0000000E+00   0.0000000E+00   0.0000000E+00   0.0000000E+00   0.0000000E+00   0.0000000E+00   0.0000000E+00   0.0000000E+00   0.0000000E+00   0.0000000E+00   0.0000000E+00   0.0000000E+00   0.0000000E+00   0.0000000E+00   0.0000000E+00   0.0000000E+00   0.0000000E+00   0.0000000E+00   0.0000000E+00   0.0000000E+00   0.0000000E+00   0.0000000E+00   0.0000000E+00   0.0000000E+00   0.0000000E+00   0.0000000E+00   0.0000000E+00   0.0000000E+00   0.0000000E+00   0.0000000E+00   0.0000000E+00   0.0000000E+00   0.0000000E+00   0.0000000E+00   0.0000000E+00   0.0000000E+00   0.0000000E+00   0.0000000E+00   0.0000000E+00   0.0000000E+00   0.0000000E+00   0.0000000E+00   0.0000000E+00   0.0000000E+00   0.0000000E+00   0.0000000E+00   0.0000000E+00   0.0000000E+00   0.0000000E+00   0.0000000E+00   0.0000000E+00   0.0000000E+00   0.0000000E+00   0.0000000E+00   0.0000000E+00   0.0000000E+00   0.0000000E+00   0.0000000E+00   0.0000000E+00   0.0000000E+00   0.0000000E+00   0.0000000E+00   0.0000000E+00   0.0000000E+00   0.0000000E+00   0.0000000E+00   0.0000000E+00   0.0000000E+00   0.0000000E+00   0.0000000E+00   0.0000000E+00   0.0000000E+00   0.0000000E+00   0.0000000E+00   0.0000000E+00   0.0000000E+00   0.0000000E+00   0.0000000E+00   0.0000000E+00   0.0000000E+00   0.0000000E+00   0.0000000E+00   0.0000000E+00   0.0000000E+00   0.0000000E+00   0.0000000E+00   0.0000000E+00   0.0000000E+00   0.0000000E+00   0.0000000E+00   0.0000000E+00   0.0000000E+00   0.0000000E+00   0.0000000E+00   0.0000000E+00   0.0000000E+00   0.0000000E+00   0.0000000E+00   0.0000000E+00   0.0000000E+00   0.0000000E+00   0.0000000E+00   0.0000000E+00   0.0000000E+00   0.0000000E+00   0.0000000E+00   0.0000000E+00   0.0000000E+00   0.0000000E+00   0.0000000E+00   0.0000000E+00   0.0000000E+00   0.0000000E+00   0.0000000E+00   0.0000000E+00   0.0000000E+00   0.0000000E+00   0.0000000E+00   0.0000000E+00   0.0000000E+00   0.0000000E+00   0.0000000E+00   0.0000000E+00   0.0000000E+00   0.0000000E+00   0.0000000E+00   0.0000000E+00   0.0000000E+00   0.0000000E+00   0.0000000E+00   0.0000000E+00   0.0000000E+00   0.0000000E+00   0.0000000E+00   0.0000000E+00   0.0000000E+00   0.0000000E+00   0.0000000E+00   0.0000000E+00   0.0000000E+00   0.0000000E+00   0.0000000E+00   0.0000000E+00   0.0000000E+00   0.0000000E+00   0.0000000E+00   0.0000000E+00   0.0000000E+00   0.0000000E+00   0.0000000E+00   0.0000000E+00   0.0000000E+00   0.0000000E+00   0.0000000E+00   0.0000000E+00   0.0000000E+00   0.0000000E+00   0.0000000E+00   0.0000000E+00   0.0000000E+00   0.0000000E+00   0.0000000E+00   0.0000000E+00   0.0000000E+00   0.0000000E+00   0.0000000E+00   0.0000000E+00   0.0000000E+00   0.0000000E+00   0.0000000E+00   0.0000000E+00   0.0000000E+00   0.0000000E+00   0.0000000E+00   0.0000000E+00   0.0000000E+00   0.0000000E+00   0.0000000E+00   0.0000000E+00   0.0000000E+00   0.0000000E+00   0.0000000E+00   0.0000000E+00   0.0000000E+00   0.0000000E+00   0.0000000E+00   0.0000000E+00   0.0000000E+00   0.0000000E+00   0.0000000E+00   0.0000000E+00   0.0000000E+00   0.0000000E+00   0.0000000E+00   0.0000000E+00   0.0000000E+00   0.0000000E+00   0.0000000E+00   0.0000000E+00   0.0000000E+00   0.0000000E+00   0.0000000E+00   0.0000000E+00   0.0000000E+00   0.0000000E+00   0.0000000E+00   0.0000000E+00   0.0000000E+00   0.0000000E+00   0.0000000E+00   0.0000000E+00   0.0000000E+00   0.0000000E+00   0.0000000E+00   0.0000000E+00   0.0000000E+00   0.0000000E+00   0.0000000E+00   0.0000000E+00   0.0000000E+00   0.0000000E+00   0.0000000E+00   0.0000000E+00   0.0000000E+00   0.0000000E+00   0.0000000E+00   0.0000000E+00   0.0000000E+00   0.0000000E+00   0.0000000E+00   0.0000000E+00   0.0000000E+00   0.0000000E+00   0.0000000E+00   0.0000000E+00   0.0000000E+00   0.0000000E+00   0.0000000E+00   0.0000000E+00   0.0000000E+00   0.0000000E+00   0.0000000E+00   0.0000000E+00   0.0000000E+00   0.0000000E+00   0.0000000E+00   0.0000000E+00   0.0000000E+00   0.0000000E+00   0.0000000E+00   0.0000000E+00   0.0000000E+00   0.0000000E+00   0.0000000E+00   0.0000000E+00   0.0000000E+00   0.0000000E+00   0.0000000E+00   0.0000000E+00   0.0000000E+00   0.0000000E+00   0.0000000E+00   0.0000000E+00   0.0000000E+00   0.0000000E+00   0.0000000E+00   0.0000000E+00   0.0000000E+00   0.0000000E+00   0.0000000E+00   0.0000000E+00   0.0000000E+00   0.0000000E+00   0.0000000E+00   0.0000000E+00   0.0000000E+00   0.0000000E+00   0.0000000E+00   0.0000000E+00   0.0000000E+00   0.0000000E+00   0.0000000E+00   0.0000000E+00   0.0000000E+00   0.0000000E+00   0.0000000E+00   0.0000000E+00   0.0000000E+00   0.0000000E+00   0.0000000E+00   0.0000000E+00   0.0000000E+00   0.0000000E+00   0.0000000E+00   0.0000000E+00   0.0000000E+00   0.0000000E+00   0.0000000E+00   0.0000000E+00   0.0000000E+00   0.0000000E+00   0.0000000E+00   0.0000000E+00   0.0000000E+00   0.0000000E+00   0.0000000E+00   0.0000000E+00   0.0000000E+00   0.0000000E+00   0.0000000E+00   0.0000000E+00   0.0000000E+00   0.0000000E+00   0.0000000E+00   0.0000000E+00   0.0000000E+00   0.0000000E+00   0.0000000E+00   0.0000000E+00   0.0000000E+00   0.0000000E+00   0.0000000E+00   0.0000000E+00   0.0000000E+00   0.0000000E+00   0.0000000E+00   0.0000000E+00   0.0000000E+00   0.0000000E+00   0.0000000E+00   0.0000000E+00   0.0000000E+00   0.0000000E+00   0.0000000E+00   0.0000000E+00   0.0000000E+00   0.0000000E+00   0.0000000E+00   0.0000000E+00   0.0000000E+00   0.0000000E+00   0.0000000E+00   0.0000000E+00   0.0000000E+00   0.0000000E+00   0.0000000E+00   0.0000000E+00   0.0000000E+00   0.0000000E+00   0.0000000E+00   0.0000000E+00   0.0000000E+00   0.0000000E+00   0.0000000E+00   0.0000000E+00   0.0000000E+00   0.0000000E+00   0.0000000E+00   1.4241649E+02   5.6605598E+01   3.0167706E+01   9.8084389E+01   1.3998558E+02   2.5634073E+02   1.8122394E+02   6.9701881E+01   4.0542225E+01   1.2600004E+02   1.7850787E+02   3.0614108E+02   2.0970490E+02   7.6953354E+01   5.1161171E+01   1.4921603E+02   2.0890700E+02   3.3852420E+02   2.2545172E+02   7.7226097E+01   6.2143097E+01   1.6676276E+02   2.2928685E+02   3.5486725E+02   2.2912177E+02   7.0924744E+01   7.3493858E+01   1.7902667E+02   2.4041447E+02   4.1141312E+02   2.5763037E+02   8.4128082E+01   8.6813240E+01   1.8719540E+02   2.4473392E+02   9.1973700E+02   6.2031384E+02   2.9781549E+02   1.4308784E+02   1.9598175E+02   2.4686569E+02   2.4710176E+03   1.7371838E+03   9.0794299E+02   3.6829761E+02   2.2808713E+02   2.5622098E+02   5.5242319E+03   3.8644136E+03   2.0471226E+03   8.3012390E+02   3.3769745E+02   2.8969238E+02   9.9646377E+03   6.8438110E+03   3.5938379E+03   1.4651892E+03   5.4000531E+02   3.7004251E+02   1.4141066E+04   9.6475195E+03   5.0064878E+03   2.0480771E+03   7.7633801E+02   5.1602954E+02   1.5956097E+04   1.0796788E+04   5.5605669E+03   2.3026379E+03   9.9226410E+02   7.4049695E+02   1.4819797E+04   9.7463926E+03   4.9599150E+03   2.1716558E+03   1.2293992E+03   1.0529429E+03   1.0805562E+04   7.0699067E+03   3.6970542E+03   2.0107269E+03   1.5859971E+03   1.4457213E+03   6.6269771E+03   4.5744580E+03   2.8904478E+03   2.2471929E+03   2.0540703E+03   1.8872382E+03   4.4994106E+03   3.6867136E+03   3.0327668E+03   2.7350933E+03   2.5415488E+03   2.3391833E+03   4.1600947E+03   3.8124595E+03   3.4533977E+03   3.2043909E+03   2.9928066E+03   2.7782424E+03   4.2801167E+03   4.0660037E+03   3.8107744E+03   3.6054956E+03   3.4066230E+03   3.1992310E+03   4.4824653E+03   4.3190547E+03   4.1307637E+03   3.9776743E+03   3.8029929E+03   3.6086353E+03   4.7695317E+03   4.6223516E+03   4.4725308E+03   4.3583315E+03   4.2026123E+03   4.0182356E+03   5.1451436E+03   4.9986880E+03   4.8648335E+03   4.7707427E+03   4.6214043E+03   4.4380869E+03   5.6074849E+03   5.4552148E+03   5.3197095E+03   5.2239795E+03   5.0650405E+03   4.8714688E+03   6.1563159E+03   5.9899023E+03   5.8302529E+03   5.7101309E+03   5.5272236E+03   5.3136187E+03   6.7920405E+03   6.5868179E+03   6.3684043E+03   6.2063809E+03   5.9928013E+03   5.7547808E+03   7.4946836E+03   7.2049009E+03   6.8845942E+03   6.6822241E+03   6.4467603E+03   6.1882876E+03   8.2158311E+03   7.7745566E+03   7.3201733E+03   7.1200396E+03   6.8918682E+03   6.6246167E+03   8.8787822E+03   8.2213174E+03   7.6458989E+03   7.5477788E+03   7.3741455E+03   7.1115142E+03   9.3853662E+03   8.4892803E+03   7.8989756E+03   8.0645137E+03   8.0039663E+03   7.7531211E+03   9.6729121E+03   8.6112773E+03   8.2146484E+03   8.8386084E+03   8.9519854E+03   8.7082539E+03   9.8135703E+03   8.7752988E+03   8.8270117E+03   1.0051080E+04   1.0385206E+04   1.0147787E+04   1.0202439E+04   9.4433984E+03   1.0052354E+04   1.1763815E+04   1.2353552E+04   1.2165638E+04   1.1784635E+04   1.1460977E+04   1.2033576E+04   1.3859926E+04   1.4750979E+04   1.4711844E+04   1.5505986E+04   1.5453978E+04   1.5512067E+04   1.6391266E+04   1.7313316E+04   1.7568482E+04   2.0359836E+04   2.0608248E+04   2.0337684E+04   1.9672063E+04   1.9900039E+04   2.0398959E+04   2.3278730E+04   2.3859699E+04   2.4012385E+04   2.2847230E+04   2.2228768E+04   2.2847896E+04   2.3476164E+04   2.4366973E+04   2.5606508E+04   2.5094553E+04   2.4195043E+04   2.4728570E+04   2.2318627E+04   2.3076617E+04   2.5230906E+04   2.5850768E+04   2.5387719E+04   2.6010670E+04   2.1554396E+04   2.1522756E+04   2.2994857E+04   2.4379252E+04   2.5033129E+04   2.6365322E+04   2.2134105E+04   2.1069098E+04   2.1625527E+04   2.3350553E+04   2.4794316E+04   2.6578604E+04   2.3366908E+04   2.1752369E+04   2.1957916E+04   2.3289705E+04   2.4976486E+04   2.6883090E+04   2.4529518E+04   2.2756588E+04   2.2983578E+04   2.3993232E+04   2.5489684E+04   2.7263734E+04   2.5214701E+04   2.3486041E+04   2.3929365E+04   2.4947529E+04   2.6071189E+04   2.7564730E+04   2.4958018E+04   2.3416775E+04   2.4132143E+04   2.5376783E+04   2.6315113E+04   2.7612984E+04   2.4010174E+04   2.2727904E+04   2.3703205E+04   2.5171869E+04   2.6083332E+04   2.7315885E+04   2.2799008E+04   2.1807525E+04   2.2901836E+04   2.4485672E+04   2.5435494E+04   2.6678113E+04   2.1623480E+04   2.0952273E+04   2.1927668E+04   2.3426115E+04   2.4460596E+04   2.5760934E+04   2.0551150E+04   2.0191475E+04   2.0781348E+04   2.2098740E+04   2.3219674E+04   2.4628000E+04   1.9471664E+04   1.9389238E+04   1.9568043E+04   2.0539584E+04   2.1889453E+04   2.3339852E+04   1.8207215E+04   1.8388219E+04   1.8172262E+04   1.9125842E+04   2.0559424E+04   2.1902717E+04   1.6635078E+04   1.6945826E+04   1.6593484E+04   1.7863576E+04   1.9090197E+04   2.0293693E+04   1.4701225E+04   1.5072715E+04   1.4988192E+04   1.6464322E+04   1.7440111E+04   1.8524014E+04   1.2486628E+04   1.2866146E+04   1.3473534E+04   1.4945418E+04   1.5748209E+04   1.6667398E+04   1.0038634E+04   1.0767656E+04   1.2109705E+04   1.3478530E+04   1.4138662E+04   1.4814785E+04   8.2760840E+03   9.7332852E+03   1.1106613E+04   1.2345469E+04   1.2800368E+04   1.3118109E+04   9.7086025E+03   9.0842217E+03   1.0673743E+04   1.1762090E+04   1.2000308E+04   1.1759941E+04   7.6526055E+03   1.0495254E+04   1.1724166E+04   1.1833746E+04   1.0967605E+04   6.3881680E+03   9.6337354E+03   1.1661027E+04   1.2069926E+04   1.0843277E+04   6.9678110E+03   1.0754752E+04   1.2137356E+04   1.1209887E+04   5.6588174E+03   8.1503779E+03   1.1137979E+04   1.1439235E+04   4.5523618E+03   8.2643115E+03   1.0571151E+04   4.0342256E+03   7.6645981E+03   6.5236577E+03   3.5330459E+03   1.5802615E+02   1.5942427E+02   1.5181912E+02   1.4016556E+02   1.2733459E+02   1.1511089E+02   1.0467141E+02   9.6761147E+01   9.1843330E+01   2.0111285E+02   2.0294525E+02   1.9360933E+02   1.7918626E+02   1.6307103E+02   1.4758051E+02   1.3428510E+02   1.2418695E+02   1.1790269E+02   2.3443452E+02   2.3662019E+02   2.2646527E+02   2.1055861E+02   1.9244070E+02   1.7481454E+02   1.5958205E+02   1.4797276E+02   1.4073640E+02   2.5554298E+02   2.5789621E+02   2.4807269E+02   2.3231502E+02   2.1386986E+02   1.9561548E+02   1.7967874E+02   1.6746422E+02   1.5982916E+02   2.6548523E+02   2.6799051E+02   2.5975043E+02   2.4583223E+02   2.2881606E+02   2.1150458E+02   1.9613353E+02   1.8423448E+02   1.7675731E+02   2.6781216E+02   2.7107629E+02   2.6577676E+02   2.5536488E+02   2.4142882E+02   2.2647914E+02   2.1277379E+02   2.0196031E+02   1.9509416E+02   2.6807330E+02   2.7335043E+02   2.7251151E+02   2.6724652E+02   2.5784692E+02   2.4639523E+02   2.3515701E+02   2.2594266E+02   2.1996869E+02   2.7484894E+02   2.8291870E+02   2.8794162E+02   2.8923862E+02   2.8549600E+02   2.7828198E+02   2.6992654E+02   2.6250723E+02   2.5749765E+02   3.0148410E+02   3.1095111E+02   3.2190109E+02   3.3026926E+02   3.3259680E+02   3.2976624E+02   3.2422189E+02   3.1842953E+02   3.1423209E+02   3.6628806E+02   3.7237369E+02   3.8640750E+02   4.0035825E+02   4.0782785E+02   4.0860590E+02   4.0516937E+02   4.0042099E+02   3.9664914E+02   4.8962323E+02   4.8403952E+02   4.9465839E+02   5.0987335E+02   5.1962433E+02   5.2199548E+02   5.1919952E+02   5.1446454E+02   5.1050003E+02   6.8805396E+02   6.6027325E+02   6.5822339E+02   6.6776672E+02   6.7496857E+02   6.7564142E+02   6.7127032E+02   6.6511700E+02   6.6015161E+02   9.6754517E+02   9.0771368E+02   8.8349316E+02   8.7934924E+02   8.7801959E+02   8.7286627E+02   8.6421313E+02   8.5496942E+02   8.4809741E+02   1.3189636E+03   1.2220500E+03   1.1691200E+03   1.1445260E+03   1.1290120E+03   1.1139247E+03   1.0982740E+03   1.0842941E+03   1.0746514E+03   1.7203208E+03   1.5889017E+03   1.5059501E+03   1.4574124E+03   1.4238962E+03   1.3957660E+03   1.3709725E+03   1.3509574E+03   1.3378749E+03   2.1457236E+03   1.9887203E+03   1.8797292E+03   1.8076952E+03   1.7550317E+03   1.7124358E+03   1.6773842E+03   1.6506396E+03   1.6337731E+03   2.5749744E+03   2.4034021E+03   2.2754204E+03   2.1833652E+03   2.1128738E+03   2.0561448E+03   2.0108606E+03   1.9773771E+03   1.9567366E+03   2.9977693E+03   2.8210249E+03   2.6811172E+03   2.5736655E+03   2.4880862E+03   2.4187634E+03   2.3641226E+03   2.3244185E+03   2.3002944E+03   3.4138389E+03   3.2369324E+03   3.0899092E+03   2.9710840E+03   2.8733335E+03   2.7933594E+03   2.7306223E+03   2.6855063E+03   2.6583650E+03   3.8285769E+03   3.6517717E+03   3.4995823E+03   3.3720161E+03   3.2644751E+03   3.1756812E+03   3.1061887E+03   3.0566167E+03   3.0270544E+03   4.2476533E+03   4.0682275E+03   3.9111106E+03   3.7766636E+03   3.6614927E+03   3.5657578E+03   3.4909985E+03   3.4380886E+03   3.4068176E+03   4.6731675E+03   4.4884282E+03   4.3274951E+03   4.1892144E+03   4.0696777E+03   3.9697119E+03   3.8917051E+03   3.8368569E+03   3.8047168E+03   5.1027397E+03   4.9136050E+03   4.7541885E+03   4.6189932E+03   4.5012700E+03   4.4016338E+03   4.3233638E+03   4.2683618E+03   4.2362930E+03   5.5322935E+03   5.3466792E+03   5.2014727E+03   5.0825249E+03   4.9771616E+03   4.8849292E+03   4.8105083E+03   4.7574453E+03   4.7263584E+03   5.9627529E+03   5.7973037E+03   5.6877817E+03   5.6053652E+03   5.5275801E+03   5.4522256E+03   5.3865674E+03   5.3374819E+03   5.3079858E+03   6.4103467E+03   6.2882085E+03   6.2423994E+03   6.2220449E+03   6.1903179E+03   6.1426689E+03   6.0907388E+03   6.0471118E+03   6.0192246E+03   6.9205698E+03   6.8623799E+03   6.9067720E+03   6.9734121E+03   7.0058833E+03   6.9961685E+03   6.9620439E+03   6.9244160E+03   6.8974448E+03   7.5833735E+03   7.5919712E+03   7.7363047E+03   7.9032178E+03   8.0114673E+03   8.0464580E+03   8.0324116E+03   8.0003936E+03   7.9732354E+03   8.5369678E+03   8.5843604E+03   8.8050527E+03   9.0592334E+03   9.2393896E+03   9.3187588E+03   9.3246445E+03   9.2976416E+03   9.2696543E+03   9.9415605E+03   9.9727334E+03   1.0209624E+04   1.0503448E+04   1.0728108E+04   1.0840262E+04   1.0862722E+04   1.0840834E+04   1.0813018E+04   1.1915645E+04   1.1877684E+04   1.2056643E+04   1.2320187E+04   1.2540893E+04   1.2661913E+04   1.2693787E+04   1.2678059E+04   1.2653628E+04   1.4467992E+04   1.4349830E+04   1.4422136E+04   1.4594913E+04   1.4761310E+04   1.4862720E+04   1.4895602E+04   1.4888961E+04   1.4873697E+04   1.7452500E+04   1.7317906E+04   1.7298721E+04   1.7366053E+04   1.7453975E+04   1.7519217E+04   1.7550865E+04   1.7561213E+04   1.7564645E+04   2.0568816E+04   2.0565178E+04   2.0554016E+04   2.0570396E+04   2.0603564E+04   2.0644453E+04   2.0688221E+04   2.0732557E+04   2.0769500E+04   2.3433854E+04   2.3755916E+04   2.3921354E+04   2.4004846E+04   2.4057039E+04   2.4118838E+04   2.4207000E+04   2.4311701E+04   2.4401221E+04   2.5716197E+04   2.6519904E+04   2.7037852E+04   2.7329285E+04   2.7500527E+04   2.7649375E+04   2.7826094E+04   2.8021893E+04   2.8183326E+04   2.7283584E+04   2.8581854E+04   2.9542371E+04   3.0140219E+04   3.0515730E+04   3.0815428E+04   3.1124520E+04   3.1440094E+04   3.1689996E+04   2.8145289E+04   2.9881836E+04   3.1220545E+04   3.2119705E+04   3.2725875E+04   3.3210395E+04   3.3679051E+04   3.4130488E+04   3.4476012E+04   2.8626775E+04   3.0563596E+04   3.2110119E+04   3.3216027E+04   3.4009949E+04   3.4662301E+04   3.5281063E+04   3.5858586E+04   3.6290691E+04   2.8940762E+04   3.0854098E+04   3.2430873E+04   3.3614316E+04   3.4506871E+04   3.5264449E+04   3.5985863E+04   3.6651941E+04   3.7144844E+04   2.9170033E+04   3.0935205E+04   3.2421504E+04   3.3570414E+04   3.4463930E+04   3.5244156E+04   3.5999434E+04   3.6699516E+04   3.7217000E+04   2.9287014E+04   3.0884506E+04   3.2236539E+04   3.3285984E+04   3.4106895E+04   3.4836359E+04   3.5558738E+04   3.6238383E+04   3.6744469E+04   2.9206658E+04   3.0685773E+04   3.1920219E+04   3.2854762E+04   3.3567129E+04   3.4200012E+04   3.4842609E+04   3.5462074E+04   3.5930395E+04   2.8854709E+04   3.0280375E+04   3.1438008E+04   3.2272828E+04   3.2872988E+04   3.3393844E+04   3.3936457E+04   3.4477563E+04   3.4895941E+04   2.8207877E+04   2.9619908E+04   3.0731994E+04   3.1488406E+04   3.1989432E+04   3.2405088E+04   3.2850730E+04   3.3314902E+04   3.3684242E+04   2.7291617E+04   2.8694076E+04   2.9767951E+04   3.0458205E+04   3.0876182E+04   3.1204021E+04   3.1568568E+04   3.1968344E+04   3.2296691E+04   2.6152025E+04   2.7526965E+04   2.8552566E+04   2.9179295E+04   2.9526941E+04   2.9784461E+04   3.0084863E+04   3.0433266E+04   3.0728326E+04   2.4828428E+04   2.6153592E+04   2.7118896E+04   2.7683180E+04   2.7970639E+04   2.8170811E+04   2.8417910E+04   2.8721285E+04   2.8985373E+04   2.3332057E+04   2.4595605E+04   2.5500553E+04   2.6011678E+04   2.6252215E+04   2.6406258E+04   2.6605666E+04   2.6863766E+04   2.7093867E+04   2.1652986E+04   2.2857311E+04   2.3717131E+04   2.4196807E+04   2.4411730E+04   2.4534768E+04   2.4692525E+04   2.4903359E+04   2.5094547E+04   1.9788049E+04   2.0938242E+04   2.1774324E+04   2.2251852E+04   2.2470326E+04   2.2584682E+04   2.2712582E+04   2.2878201E+04   2.3028107E+04   1.7777654E+04   1.8852758E+04   1.9677244E+04   2.0178561E+04   2.0431574E+04   2.0565346E+04   2.0682850E+04   2.0813307E+04   2.0925576E+04   1.5702574E+04   1.6648303E+04   1.7446906E+04   1.7983242E+04   1.8294625E+04   1.8475805E+04   1.8607754E+04   1.8721605E+04   1.8807363E+04   1.3675488E+04   1.4413466E+04   1.5138786E+04   1.5697533E+04   1.6073196E+04   1.6319133E+04   1.6488406E+04   1.6608752E+04   1.6685188E+04   1.1833112E+04   1.2272065E+04   1.2852746E+04   1.3391710E+04   1.3811731E+04   1.4119054E+04   1.4336572E+04   1.4482264E+04   1.4566575E+04   1.0348697E+04   1.0358306E+04   1.0719328E+04   1.1170492E+04   1.1589364E+04   1.1930765E+04   1.2187765E+04   1.2363587E+04   1.2464916E+04   9.4578936E+03   8.8365615E+03   8.8673359E+03   9.1560332E+03   9.5075332E+03   9.8368242E+03   1.0104996E+04   1.0297803E+04   1.0412423E+04   9.3486113E+03   7.9590254E+03   7.4386353E+03   7.4578833E+03   7.6712905E+03   7.9296138E+03   8.1676982E+03   8.3514033E+03   8.4651084E+03   9.8195781E+03   7.9377769E+03   6.6748921E+03   6.1965625E+03   6.1672988E+03   6.2951885E+03   6.4561411E+03   6.5979922E+03   6.6920801E+03   1.0174312E+04   8.4718545E+03   6.7390518E+03   5.5915405E+03   5.1017505E+03   4.9978745E+03   5.0361821E+03   5.1060156E+03   5.1614961E+03   9.3448975E+03   8.7790449E+03   7.1894722E+03   5.6507915E+03   4.6075254E+03   4.1052300E+03   3.9441204E+03   3.9174272E+03   3.9238557E+03   6.3365137E+03   7.6598208E+03   7.1549141E+03   5.7982480E+03   4.4934097E+03   3.6109070E+03   3.1850862E+03   3.0359583E+03   2.9913560E+03   2.7754114E+03   4.3804043E+03   5.5015913E+03   5.2240493E+03   4.2429624E+03   3.2721890E+03   2.6794980E+03   2.4266777E+03   2.3409141E+03   2.4194744E+03   2.5637563E+03   3.2138704E+03   3.1798643E+03   2.6695969E+03   2.1882808E+03   1.9317681E+03   1.8382599E+03   1.8454458E+03   1.8157983E+03   1.7810022E+03   1.6275049E+03   1.4857377E+03   1.4053354E+03   1.6521162E+03   1.4945458E+03   1.4028776E+03   1.3446077E+03   9.0176331E+01   9.1843338E+01   9.6761147E+01   1.0467142E+02   1.1511091E+02   1.2733458E+02   1.4016560E+02   1.5181915E+02   1.1577180E+02   1.1790268E+02   1.2418698E+02   1.3428510E+02   1.4758051E+02   1.6307106E+02   1.7918628E+02   1.9360936E+02   1.3828102E+02   1.4073639E+02   1.4797278E+02   1.5958208E+02   1.7481459E+02   1.9244073E+02   2.1055867E+02   2.2646532E+02   1.5723547E+02   1.5982918E+02   1.6746422E+02   1.7967874E+02   1.9561554E+02   2.1386992E+02   2.3231502E+02   2.4807272E+02   1.7421170E+02   1.7675732E+02   1.8423453E+02   1.9613354E+02   2.1150458E+02   2.2881606E+02   2.4583229E+02   2.5975043E+02   1.9274644E+02   1.9509419E+02   2.0196036E+02   2.1277383E+02   2.2647914E+02   2.4142883E+02   2.5536488E+02   2.6577679E+02   2.1790758E+02   2.1996867E+02   2.2594272E+02   2.3515701E+02   2.4639523E+02   2.5784689E+02   2.6724655E+02   2.7251151E+02   2.5573906E+02   2.5749771E+02   2.6250720E+02   2.6992661E+02   2.7828201E+02   2.8549600E+02   2.8923865E+02   2.8794165E+02   3.1271600E+02   3.1423212E+02   3.1842953E+02   3.2422189E+02   3.2976620E+02   3.3259677E+02   3.3026923E+02   3.2190109E+02   3.9523987E+02   3.9664908E+02   4.0042099E+02   4.0516934E+02   4.0860577E+02   4.0782779E+02   4.0035822E+02   3.8640768E+02   5.0899084E+02   5.1050003E+02   5.1446448E+02   5.1919946E+02   5.2199542E+02   5.1962427E+02   5.0987323E+02   4.9465851E+02   6.5828046E+02   6.6015143E+02   6.6511700E+02   6.7127014E+02   6.7564130E+02   6.7496838E+02   6.6776672E+02   6.5822351E+02   8.4557874E+02   8.4809729E+02   8.5496960E+02   8.6421301E+02   8.7286609E+02   8.7801953E+02   8.7934918E+02   8.8349316E+02   1.0712179E+03   1.0746514E+03   1.0842942E+03   1.0982738E+03   1.1139249E+03   1.1290116E+03   1.1445260E+03   1.1691202E+03   1.3333236E+03   1.3378746E+03   1.3509574E+03   1.3709725E+03   1.3957661E+03   1.4238961E+03   1.4574120E+03   1.5059501E+03   1.6280049E+03   1.6337734E+03   1.6506399E+03   1.6773844E+03   1.7124357E+03   1.7550313E+03   1.8076951E+03   1.8797289E+03   1.9497594E+03   1.9567368E+03   1.9773768E+03   2.0108606E+03   2.0561443E+03   2.1128735E+03   2.1833645E+03   2.2754199E+03   2.2922026E+03   2.3002947E+03   2.3244189E+03   2.3641228E+03   2.4187634E+03   2.4880854E+03   2.5736646E+03   2.6811155E+03   2.6493152E+03   2.6583652E+03   2.6855068E+03   2.7306221E+03   2.7933584E+03   2.8733325E+03   2.9710825E+03   3.0899077E+03   3.0172495E+03   3.0270540E+03   3.0566172E+03   3.1061887E+03   3.1756809E+03   3.2644736E+03   3.3720142E+03   3.4995793E+03   3.3965073E+03   3.4068184E+03   3.4380898E+03   3.4909988E+03   3.5657573E+03   3.6614915E+03   3.7766614E+03   3.9111091E+03   3.7941833E+03   3.8047175E+03   3.8368579E+03   3.8917058E+03   3.9697126E+03   4.0696758E+03   4.1892124E+03   4.3274927E+03   4.2258306E+03   4.2362944E+03   4.2683623E+03   4.3233647E+03   4.4016353E+03   4.5012700E+03   4.6189917E+03   4.7541870E+03   4.7162124E+03   4.7263589E+03   4.7574473E+03   4.8105103E+03   4.8849297E+03   4.9771616E+03   5.0825229E+03   5.2014712E+03   5.2982568E+03   5.3079873E+03   5.3374829E+03   5.3865684E+03   5.4522256E+03   5.5275811E+03   5.6053633E+03   5.6877793E+03   6.0097729E+03   6.0192261E+03   6.0471133E+03   6.0907393E+03   6.1426694E+03   6.1903179E+03   6.2220430E+03   6.2423984E+03   6.8878647E+03   6.8974468E+03   6.9244160E+03   6.9620464E+03   6.9961689E+03   7.0058843E+03   6.9734121E+03   6.9067710E+03   7.9630063E+03   7.9732363E+03   8.0003950E+03   8.0324136E+03   8.0464585E+03   8.0114673E+03   7.9032168E+03   7.7363032E+03   9.2585176E+03   9.2696533E+03   9.2976426E+03   9.3246455E+03   9.3187598E+03   9.2393896E+03   9.0592334E+03   8.8050518E+03   1.0801471E+04   1.0813018E+04   1.0840833E+04   1.0862724E+04   1.0840264E+04   1.0728108E+04   1.0503448E+04   1.0209624E+04   1.2643202E+04   1.2653631E+04   1.2678061E+04   1.2693787E+04   1.2661913E+04   1.2540892E+04   1.2320186E+04   1.2056639E+04   1.4867044E+04   1.4873697E+04   1.4888961E+04   1.4895600E+04   1.4862720E+04   1.4761309E+04   1.4594909E+04   1.4422136E+04   1.7565854E+04   1.7564648E+04   1.7561211E+04   1.7550863E+04   1.7519217E+04   1.7453975E+04   1.7366053E+04   1.7298711E+04   2.0784438E+04   2.0769500E+04   2.0732555E+04   2.0688225E+04   2.0644453E+04   2.0603566E+04   2.0570396E+04   2.0554016E+04   2.4436994E+04   2.4401221E+04   2.4311707E+04   2.4207000E+04   2.4118836E+04   2.4057037E+04   2.4004846E+04   2.3921348E+04   2.8246652E+04   2.8183320E+04   2.8021896E+04   2.7826088E+04   2.7649375E+04   2.7500520E+04   2.7329281E+04   2.7037846E+04   3.1786346E+04   3.1689994E+04   3.1440094E+04   3.1124516E+04   3.0815424E+04   3.0515725E+04   3.0140213E+04   2.9542369E+04   3.4607199E+04   3.4476004E+04   3.4130488E+04   3.3679047E+04   3.3210391E+04   3.2725875E+04   3.2119713E+04   3.1220547E+04   3.6453008E+04   3.6290691E+04   3.5858578E+04   3.5281059E+04   3.4662305E+04   3.4009961E+04   3.3216027E+04   3.2110125E+04   3.7328957E+04   3.7144840E+04   3.6651941E+04   3.5985863E+04   3.5264445E+04   3.4506875E+04   3.3614316E+04   3.2430873E+04   3.7410098E+04   3.7216992E+04   3.6699508E+04   3.5999430E+04   3.5244152E+04   3.4463938E+04   3.3570414E+04   3.2421512E+04   3.6933949E+04   3.6744465E+04   3.6238375E+04   3.5558730E+04   3.4836355E+04   3.4106895E+04   3.3285992E+04   3.2236537E+04   3.6106992E+04   3.5930391E+04   3.5462074E+04   3.4842605E+04   3.4200008E+04   3.3567141E+04   3.2854758E+04   3.1920215E+04   3.5055363E+04   3.4895941E+04   3.4477559E+04   3.3936453E+04   3.3393844E+04   3.2872996E+04   3.2272838E+04   3.1438008E+04   3.3826785E+04   3.3684242E+04   3.3314898E+04   3.2850723E+04   3.2405088E+04   3.1989430E+04   3.1488412E+04   3.0731998E+04   3.2425119E+04   3.2296689E+04   3.1968334E+04   3.1568564E+04   3.1204010E+04   3.0876170E+04   3.0458211E+04   2.9767951E+04   3.0845143E+04   3.0728313E+04   3.0433262E+04   3.0084863E+04   2.9784457E+04   2.9526941E+04   2.9179295E+04   2.8552566E+04   2.9091031E+04   2.8985363E+04   2.8721279E+04   2.8417900E+04   2.8170805E+04   2.7970631E+04   2.7683180E+04   2.7118896E+04   2.7186760E+04   2.7093863E+04   2.6863760E+04   2.6605660E+04   2.6406256E+04   2.6252215E+04   2.6011676E+04   2.5500555E+04   2.5172227E+04   2.5094543E+04   2.4903361E+04   2.4692525E+04   2.4534764E+04   2.4411729E+04   2.4196807E+04   2.3717135E+04   2.3089121E+04   2.3028107E+04   2.2878195E+04   2.2712578E+04   2.2584676E+04   2.2470322E+04   2.2251854E+04   2.1774326E+04   2.0970635E+04   2.0925572E+04   2.0813311E+04   2.0682850E+04   2.0565342E+04   2.0431574E+04   2.0178561E+04   1.9677246E+04   1.8840098E+04   1.8807357E+04   1.8721605E+04   1.8607752E+04   1.8475799E+04   1.8294625E+04   1.7983242E+04   1.7446912E+04   1.6711965E+04   1.6685186E+04   1.6608752E+04   1.6488404E+04   1.6319133E+04   1.6073197E+04   1.5697533E+04   1.5138786E+04   1.4594299E+04   1.4566577E+04   1.4482265E+04   1.4336573E+04   1.4119052E+04   1.3811729E+04   1.3391711E+04   1.2852747E+04   1.2497893E+04   1.2464915E+04   1.2363587E+04   1.2187763E+04   1.1930765E+04   1.1589363E+04   1.1170492E+04   1.0719331E+04   1.0450288E+04   1.0412420E+04   1.0297800E+04   1.0104997E+04   9.8368242E+03   9.5075342E+03   9.1560332E+03   8.8673340E+03   8.5034199E+03   8.4651045E+03   8.3514004E+03   8.1676963E+03   7.9296128E+03   7.6712915E+03   7.4578828E+03   7.4386343E+03   6.7247939E+03   6.6920796E+03   6.5979907E+03   6.4561392E+03   6.2951870E+03   6.1672983E+03   6.1965615E+03   6.6748916E+03   5.1820542E+03   5.1614951E+03   5.1060151E+03   5.0361802E+03   4.9978745E+03   5.1017515E+03   5.5915405E+03   6.7390532E+03   3.9285437E+03   3.9238540E+03   3.9174258E+03   3.9441196E+03   4.1052290E+03   4.6075244E+03   5.6507915E+03   7.1894741E+03   2.9812756E+03   2.9913555E+03   3.0359573E+03   3.1850847E+03   3.6109055E+03   4.4934092E+03   5.7982480E+03   7.1549155E+03   2.3203691E+03   2.3409131E+03   2.4266760E+03   2.6794961E+03   3.2721882E+03   4.2429624E+03   5.2240498E+03   5.5015918E+03   1.8166487E+03   1.8382588E+03   1.9317668E+03   2.1882791E+03   2.6695959E+03   3.1798633E+03   3.2138701E+03   2.5637563E+03   1.3802762E+03   1.4053347E+03   1.4857362E+03   1.6275045E+03   1.7810012E+03   1.8157972E+03   1.8454449E+03   1.3237919E+03   1.3446077E+03   1.4028767E+03   1.4945446E+03   1.6521149E+03   1.5942427E+02   1.5802618E+02   1.3998560E+02   9.8084419E+01   3.0167742E+01   5.6605591E+01   1.4241652E+02   2.0294528E+02   2.0111288E+02   1.7850790E+02   1.2600008E+02   4.0542263E+01   6.9701851E+01   1.8122392E+02   2.5634076E+02   2.3662027E+02   2.3443452E+02   2.0890707E+02   1.4921609E+02   5.1161228E+01   7.6953323E+01   2.0970486E+02   3.0614111E+02   2.5789624E+02   2.5554311E+02   2.2928700E+02   1.6676286E+02   6.2143204E+01   7.7226021E+01   2.2545168E+02   3.3852408E+02   2.6799063E+02   2.6548532E+02   2.4041458E+02   1.7902679E+02   7.3493988E+01   7.0924652E+01   2.2912175E+02   3.5486722E+02   2.7107632E+02   2.6781229E+02   2.4473410E+02   1.8719557E+02   8.6813385E+01   8.4127922E+01   2.5763025E+02   4.1141321E+02   2.7335049E+02   2.6807349E+02   2.4686591E+02   1.9598201E+02   1.4308789E+02   2.9781546E+02   6.2031403E+02   9.1973706E+02   2.8291882E+02   2.7484918E+02   2.5622125E+02   2.2808745E+02   3.6829761E+02   9.0794318E+02   1.7371846E+03   2.4710176E+03   3.1095129E+02   3.0148441E+02   2.8969269E+02   3.3769763E+02   8.3012402E+02   2.0471227E+03   3.8644138E+03   5.5242324E+03   3.7237396E+02   3.6628854E+02   3.7004300E+02   5.4000568E+02   1.4651895E+03   3.5938386E+03   6.8438125E+03   9.9646387E+03   4.8403983E+02   4.8962366E+02   5.1603021E+02   7.7633826E+02   2.0480771E+03   5.0064868E+03   9.6475205E+03   1.4141068E+04   6.6027362E+02   6.8805463E+02   7.4049750E+02   9.9226477E+02   2.3026379E+03   5.5605664E+03   1.0796789E+04   1.5956100E+04   9.0771411E+02   9.6754565E+02   1.0529435E+03   1.2293998E+03   2.1716560E+03   4.9599146E+03   9.7463936E+03   1.4819799E+04   1.2220505E+03   1.3189640E+03   1.4457219E+03   1.5859977E+03   2.0107275E+03   3.6970547E+03   7.0699067E+03   1.0805563E+04   1.5889019E+03   1.7203213E+03   1.8872388E+03   2.0540708E+03   2.2471934E+03   2.8904480E+03   4.5744590E+03   6.6269761E+03   1.9887203E+03   2.1457239E+03   2.3391838E+03   2.5415493E+03   2.7350938E+03   3.0327668E+03   3.6867146E+03   4.4994106E+03   2.4034006E+03   2.5749739E+03   2.7782419E+03   2.9928066E+03   3.2043911E+03   3.4533979E+03   3.8124595E+03   4.1600947E+03   2.8210234E+03   2.9977686E+03   3.1992302E+03   3.4066230E+03   3.6054966E+03   3.8107744E+03   4.0660042E+03   4.2801162E+03   3.2369312E+03   3.4138374E+03   3.6086350E+03   3.8029934E+03   3.9776746E+03   4.1307632E+03   4.3190542E+03   4.4824644E+03   3.6517698E+03   3.8285757E+03   4.0182349E+03   4.2026128E+03   4.3583320E+03   4.4725317E+03   4.6223516E+03   4.7695317E+03   4.0682258E+03   4.2476514E+03   4.4380859E+03   4.6214048E+03   4.7707441E+03   4.8648340E+03   4.9986890E+03   5.1451431E+03   4.4884258E+03   4.6731655E+03   4.8714678E+03   5.0650405E+03   5.2239800E+03   5.3197104E+03   5.4552153E+03   5.6074849E+03   4.9136030E+03   5.1027388E+03   5.3136182E+03   5.5272246E+03   5.7101323E+03   5.8302544E+03   5.9899033E+03   6.1563154E+03   5.3466772E+03   5.5322920E+03   5.7547813E+03   5.9928013E+03   6.2063833E+03   6.3684058E+03   6.5868179E+03   6.7920405E+03   5.7973018E+03   5.9627529E+03   6.1882861E+03   6.4467603E+03   6.6822246E+03   6.8845977E+03   7.2049019E+03   7.4946860E+03   6.2882075E+03   6.4103472E+03   6.6246172E+03   6.8918691E+03   7.1200410E+03   7.3201748E+03   7.7746006E+03   8.2158311E+03   6.8623784E+03   6.9205698E+03   7.1115156E+03   7.3741470E+03   7.5477827E+03   7.6459019E+03   8.2213174E+03   8.8787832E+03   7.5919712E+03   7.5833730E+03   7.7531230E+03   8.0039688E+03   8.0645151E+03   7.8989756E+03   8.4892813E+03   9.3853672E+03   8.5843604E+03   8.5369658E+03   8.7082549E+03   8.9519883E+03   8.8386084E+03   8.2146504E+03   8.6112783E+03   9.6729121E+03   9.9727344E+03   9.9415605E+03   1.0147785E+04   1.0385206E+04   1.0051081E+04   8.8270127E+03   8.7752998E+03   9.8135703E+03   1.1877685E+04   1.1915645E+04   1.2165636E+04   1.2353552E+04   1.1763815E+04   1.0052352E+04   9.4433975E+03   1.0202441E+04   1.4349829E+04   1.4467988E+04   1.4711844E+04   1.4750979E+04   1.3859925E+04   1.2033579E+04   1.1460978E+04   1.1784634E+04   1.7317908E+04   1.7452498E+04   1.7568482E+04   1.7313316E+04   1.6391264E+04   1.5512067E+04   1.5453978E+04   1.5505985E+04   2.0565172E+04   2.0568818E+04   2.0398951E+04   1.9900037E+04   1.9672063E+04   2.0337682E+04   2.0608248E+04   2.0359836E+04   2.3755908E+04   2.3433848E+04   2.2847895E+04   2.2228764E+04   2.2847223E+04   2.4012383E+04   2.3859699E+04   2.3278732E+04   2.6519898E+04   2.5716193E+04   2.4728566E+04   2.4195047E+04   2.5094547E+04   2.5606500E+04   2.4366971E+04   2.3476164E+04   2.8581848E+04   2.7283576E+04   2.6010668E+04   2.5387715E+04   2.5850762E+04   2.5230906E+04   2.3076611E+04   2.2318633E+04   2.9881836E+04   2.8145287E+04   2.6365324E+04   2.5033121E+04   2.4379254E+04   2.2994857E+04   2.1522756E+04   2.1554398E+04   3.0563592E+04   2.8626771E+04   2.6578607E+04   2.4794316E+04   2.3350553E+04   2.1625520E+04   2.1069094E+04   2.2134107E+04   3.0854100E+04   2.8940760E+04   2.6883086E+04   2.4976490E+04   2.3289701E+04   2.1957908E+04   2.1752369E+04   2.3366738E+04   3.0935205E+04   2.9170039E+04   2.7263734E+04   2.5489684E+04   2.3993230E+04   2.2983574E+04   2.2756588E+04   2.4529521E+04   3.0884502E+04   2.9287018E+04   2.7564727E+04   2.6071184E+04   2.4947516E+04   2.3929359E+04   2.3486037E+04   2.5214701E+04   3.0685771E+04   2.9206662E+04   2.7612980E+04   2.6315098E+04   2.5376773E+04   2.4132137E+04   2.3416775E+04   2.4958023E+04   3.0280379E+04   2.8854705E+04   2.7315883E+04   2.6083320E+04   2.5171867E+04   2.3703193E+04   2.2727902E+04   2.4010172E+04   2.9619912E+04   2.8207875E+04   2.6678109E+04   2.5435494E+04   2.4485672E+04   2.2901832E+04   2.1807525E+04   2.2799012E+04   2.8694074E+04   2.7291617E+04   2.5760936E+04   2.4460596E+04   2.3426115E+04   2.1927674E+04   2.0952277E+04   2.1623484E+04   2.7526967E+04   2.6152027E+04   2.4627998E+04   2.3219676E+04   2.2098746E+04   2.0781352E+04   2.0191479E+04   2.0551150E+04   2.6153594E+04   2.4828434E+04   2.3339854E+04   2.1889461E+04   2.0539588E+04   1.9568045E+04   1.9389246E+04   1.9471666E+04   2.4595607E+04   2.3332061E+04   2.1902717E+04   2.0559430E+04   1.9125842E+04   1.8172264E+04   1.8388223E+04   1.8207215E+04   2.2857314E+04   2.1652986E+04   2.0293701E+04   1.9090199E+04   1.7863586E+04   1.6593492E+04   1.6945830E+04   1.6635074E+04   2.0938246E+04   1.9788059E+04   1.8524016E+04   1.7440115E+04   1.6464334E+04   1.4988199E+04   1.5072721E+04   1.4701223E+04   1.8852762E+04   1.7777658E+04   1.6667404E+04   1.5748215E+04   1.4945419E+04   1.3473538E+04   1.2866144E+04   1.2486624E+04   1.6648303E+04   1.5702574E+04   1.4814792E+04   1.4138665E+04   1.3478534E+04   1.2109705E+04   1.0767659E+04   1.0038631E+04   1.4413467E+04   1.3675492E+04   1.3118113E+04   1.2800371E+04   1.2345473E+04   1.1106614E+04   9.7332871E+03   8.2760811E+03   1.2272068E+04   1.1833115E+04   1.1759942E+04   1.2000311E+04   1.1762093E+04   1.0673739E+04   9.0842207E+03   9.7085996E+03   1.0358306E+04   1.0348698E+04   1.0967604E+04   1.1833748E+04   1.1724166E+04   1.0495254E+04   7.6526025E+03   8.8365625E+03   9.4578955E+03   1.0843279E+04   1.2069924E+04   1.1661026E+04   9.6337344E+03   6.3881655E+03   7.9590254E+03   9.3486104E+03   1.1209888E+04   1.2137355E+04   1.0754755E+04   6.9678105E+03   7.9377773E+03   9.8195781E+03   1.1439234E+04   1.1137978E+04   8.1503745E+03   5.6588145E+03   8.4718564E+03   1.0174313E+04   1.0571146E+04   8.2643105E+03   4.5523633E+03   8.7790439E+03   9.3448955E+03   7.6646001E+03   4.0342253E+03   7.6598213E+03   6.3365127E+03   3.5330459E+03   6.5236563E+03   4.3804058E+03   2.7754116E+03   2.4194739E+03 
Vel 3 2975 float
  0.0000000E+00   0.0000000E+00   0.0000000E+00   0.0000000E+00   0.0000000E+00   0.0000000E+00   0.0000000E+00   0.0000000E+00   0.0000000E+00   0.0000000E+00   0.0000000E+00   0.0000000E+00   0.0000000E+00   0.0000000E+00   0.0000000E+00   0.0000000E+00   0.0000000E+00   0.0000000E+00   0.0000000E+00   0.0000000E+00   0.0000000E+00   0.0000000E+00   0.0000000E+00   0.0000000E+00   0.0000000E+00   0.0000000E+00   0.0000000E+00   0.0000000E+00   0.0000000E+00   0.0000000E+00   0.0000000E+00   0.0000000E+00   0.0000000E+00   0.0000000E+00   0.0000000E+00   0.0000000E+00   0.0000000E+00   0.0000000E+00   0.0000000E+00   0.0000000E+00   0.0000000E+00   0.0000000E+00   0.0000000E+00   0.0000000E+00   0.0000000E+00   0.0000000E+00   0.0000000E+00   0.0000000E+00   0.0000000E+00   0.0000000E+00   0.0000000E+00   0.0000000E+00   0.0000000E+00   0.0000000E+00   0.0000000E+00   0.0000000E+00   0.0000000E+00   0.0000000E+00   0.0000000E+00   0.0000000E+00   0.0000000E+00   0.0000000E+00   0.0000000E+00   0.0000000E+00   0.0000000E+00   0.0000000E+00   0.0000000E+00   0.0000000E+00   0.0000000E+00   0.0000000E+00   0.0000000E+00   0.0000000E+00   0.0000000E+00   0.0000000E+00   0.0000000E+00   0.0000000E+00   0.0000000E+00   0.0000000E+00   0.0000000E+00   0.0000000E+00   0.0000000E+00   0.0000000E+00   0.0000000E+00   0.0000000E+00   0.0000000E+00   0.0000000E+00   0.0000000E+00   0.0000000E+00   0.0000000E+00   0.0000000E+00   0.0000000E+00   0.0000000E+00   0.0000000E+00   0.0000000E+00   0.0000000E+00   0.0000000E+00   0.0000000E+00   0.0000000E+00   0.0000000E+00   0.0000000E+00   0.0000000E+00   0.0000000E+00   0.0000000E+00   0.0000000E+00   0.0000000E+00   0.0000000E+00   0.0000000E+00   0.0000000E+00   0.0000000E+00   0.0000000E+00   0.0000000E+00   0.0000000E+00   0.0000000E+00   0.0000000E+00   0.0000000E+00   0.0000000E+00   0.0000000E+00   0.0000000E+00   0.0000000E+00   0.0000000E+00   0.0000000E+00   0.0000000E+00   0.0000000E+00   0.0000000E+00   0.0000000E+00   0.0000000E+00   0.0000000E+00   0.0000000E+00   0.0000000E+00   0.0000000E+00   0.0000000E+00   0.0000000E+00   0.0000000E+00   0.0000000E+00   0.0000000E+00   0.0000000E+00   0.0000000E+00   0.0000000E+00   0.0000000E+00   0.0000000E+00   0.0000000E+00   0.0000000E+00   0.0000000E+00   0.0000000E+00   0.0000000E+00   0.0000000E+00   0.0000000E+00   0.0000000E+00   0.0000000E+00   0.0000000E+00   0.0000000E+00   0.0000000E+00   0.0000000E+00   0.0000000E+00   0.0000000E+00   0.0000000E+00   0.0000000E+00   0.0000000E+00   0.0000000E+00   0.0000000E+00   0.0000000E+00   0.0000000E+00   0.0000000E+00   0.0000000E+00   0.0000000E+00   0.0000000E+00   0.0000000E+00   0.0000000E+00   0.0000000E+00   0.0000000E+00   0.0000000E+00   0.0000000E+00   0.0000000E+00   0.0000000E+00   0.0000000E+00   0.0000000E+00   0.0000000E+00   0.0000000E+00   0.0000000E+00   0.0000000E+00   0.0000000E+00   0.0000000E+00   0.0000000E+00   0.0000000E+00   0.0000000E+00   0.0000000E+00   0.0000000E+00   0.0000000E+00   0.0000000E+00   0.0000000E+00   0.0000000E+00   0.0000000E+00   0.0000000E+00   0.0000000E+00   0.0000000E+00   0.0000000E+00   0.0000000E+00   0.0000000E+00   0.0000000E+00   0.0000000E+00   0.0000000E+00   0.0000000E+00   0.0000000E+00   0.0000000E+00   0.0000000E+00   0.0000000E+00   0.0000000E+00   0.0000000E+00   0.0000000E+00   0.0000000E+00   0.0000000E+00   0.0000000E+00   0.0000000E+00   0.0000000E+00   0.0000000E+00   0.0000000E+00   0.0000000E+00   0.0000000E+00   0.0000000E+00   0.0000000E+00   0.0000000E+00   0.0000000E+00   0.0000000E+00   0.0000000E+00   0.0000000E+00   0.0000000E+00   0.0000000E+00   0.0000000E+00   0.0000000E+00   0.0000000E+00   0.0000000E+00   0.0000000E+00   0.0000000E+00   0.0000000E+00   0.0000000E+00   0.0000000E+00   0.0000000E+00   0.0000000E+00   0.0000000E+00   0.0000000E+00   0.0000000E+00   0.0000000E+00   0.0000000E+00   0.0000000E+00   0.0000000E+00   0.0000000E+00   0.0000000E+00   0.0000000E+00   0.0000000E+00   0.0000000E+00   0.0000000E+00   0.0000000E+00   0.0000000E+00   0.0000000E+00   0.0000000E+00   0.0000000E+00   0.0000000E+00   0.0000000E+00   0.0000000E+00   0.0000000E+00   0.0000000E+00   0.0000000E+00   0.0000000E+00   0.0000000E+00   0.0000000E+00   0.0000000E+00   0.0000000E+00   0.0000000E+00   0.0000000E+00   0.0000000E+00   0.0000000E+00   0.0000000E+00   0.0000000E+00   0.0000000E+00   0.0000000E+00   0.0000000E+00   0.0000000E+00   0.0000000E+00   0.0000000E+00   0.0000000E+00   0.0000000E+00   0.0000000E+00   0.0000000E+00   0.0000000E+00   0.0000000E+00   0.0000000E+00   0.0000000E+00   0.0000000E+00   0.0000000E+00   0.0000000E+00   0.0000000E+00   0.0000000E+00   0.0000000E+00   0.0000000E+00   0.0000000E+00   0.0000000E+00   0.0000000E+00   0.0000000E+00   0.0000000E+00   0.0000000E+00   0.0000000E+00   0.0000000E+00   0.0000000E+00   0.0000000E+00   0.0000000E+00   0.0000000E+00   0.0000000E+00   0.0000000E+00   0.0000000E+00   0.0000000E+00   0.0000000E+00   0.0000000E+00   0.0000000E+00   0.0000000E+00   0.0000000E+00   0.0000000E+00   0.0000000E+00   0.0000000E+00   0.0000000E+00   0.0000000E+00   0.0000000E+00   0.0000000E+00   0.0000000E+00   0.0000000E+00   0.0000000E+00   0.0000000E+00   0.0000000E+00   0.0000000E+00   0.0000000E+00   0.0000000E+00   0.0000000E+00   0.0000000E+00   0.0000000E+00   0.0000000E+00   0.0000000E+00   0.0000000E+00   0.0000000E+00   0.0000000E+00   0.0000000E+00   0.0000000E+00   0.0000000E+00   0.0000000E+00   0.0000000E+00   0.0000000E+00   0.0000000E+00   0.0000000E+00   0.0000000E+00   0.0000000E+00   0.0000000E+00   0.0000000E+00   0.0000000E+00   0.0000000E+00   0.0000000E+00   0.0000000E+00   0.0000000E+00   0.0000000E+00   0.0000000E+00   0.0000000E+00   0.0000000E+00   0.0000000E+00   0.0000000E+00   0.0000000E+00   0.0000000E+00   0.0000000E+00   0.0000000E+00   0.0000000E+00   0.0000000E+00   0.0000000E+00   0.0000000E+00   0.0000000E+00   0.0000000E+00   0.0000000E+00   0.0000000E+00   0.0000000E+00   0.0000000E+00   0.0000000E+00   0.0000000E+00   0.0000000E+00   0.0000000E+00   0.0000000E+00   0.0000000E+00   0.0000000E+00   0.0000000E+00   0.0000000E+00   0.0000000E+00   0.0000000E+00   0.0000000E+00   0.0000000E+00   0.0000000E+00   0.0000000E+00   0.0000000E+00   0.0000000E+00   0.0000000E+00   0.0000000E+00   0.0000000E+00   0.0000000E+00   0.0000000E+00   0.0000000E+00   0.0000000E+00   0.0000000E+00   0.0000000E+00   0.0000000E+00   0.0000000E+00   0.0000000E+00   0.0000000E+00   0.0000000E+00   0.0000000E+00   0.0000000E+00   0.0000000E+00   0.0000000E+00   0.0000000E+00   0.0000000E+00   0.0000000E+00   0.0000000E+00   0.0000000E+00   0.0000000E+00   0.0000000E+00   0.0000000E+00   0.0000000E+00   0.0000000E+00   0.0000000E+00   0.0000000E+00   0.0000000E+00   0.0000000E+00   0.0000000E+00   0.0000000E+00   0.0000000E+00   0.0000000E+00   0.0000000E+00   0.0000000E+00   0.0000000E+00   0.0000000E+00   0.0000000E+00   0.0000000E+00   0.0000000E+00   0.0000000E+00   0.0000000E+00   0.0000000E+00   0.0000000E+00   0.0000000E+00   0.0000000E+00   0.0000000E+00   0.0000000E+00   0.0000000E+00   0.0000000E+00   0.0000000E+00   0.0000000E+00   0.0000000E+00   0.0000000E+00   0.0000000E+00   0.0000000E+00   0.0000000E+00   0.0000000E+00   0.0000000E+00   0.0000000E+00   0.0000000E+00   0.0000000E+00   0.0000000E+00   0.0000000E+00   0.0000000E+00   0.0000000E+00   0.0000000E+00   0.0000000E+00   0.0000000E+00   0.0000000E+00   0.0000000E+00   0.0000000E+00   0.0000000E+00   0.0000000E+00   0.0000000E+00   0.0000000E+00   0.0000000E+00   0.0000000E+00   0.0000000E+00   0.0000000E+00   0.0000000E+00   0.0000000E+00   0.0000000E+00   0.0000000E+00   0.0000000E+00   0.0000000E+00   0.0000000E+00   0.0000000E+00   0.0000000E+00   0.0000000E+00   0.0000000E+00   0.0000000E+00   0.0000000E+00   0.0000000E+00   0.0000000E+00   0.0000000E+00   0.0000000E+00   0.0000000E+00   0.0000000E+00   0.0000000E+00   0.0000000E+00   0.0000000E+00   0.0000000E+00   0.0000000E+00   0.0000000E+00   0.0000000E+00   0.0000000E+00   0.0000000E+00   0.0000000E+00   0.0000000E+00   0.0000000E+00   0.0000000E+00   0.0000000E+00   0.0000000E+00   0.0000000E+00   0.0000000E+00   0.0000000E+00   0.0000000E+00   0.0000000E+00   0.0000000E+00   0.0000000E+00   0.0000000E+00   0.0000000E+00   0.0000000E+00   0.0000000E+00   0.0000000E+00   0.0000000E+00   0.0000000E+00   0.0000000E+00   0.0000000E+00   0.0000000E+00   0.0000000E+00   0.0000000E+00   0.0000000E+00   0.0000000E+00   0.0000000E+00   0.0000000E+00   0.0000000E+00   0.0000000E+00   0.0000000E+00   0.0000000E+00   0.0000000E+00   0.0000000E+00   0.0000000E+00   0.0000000E+00   0.0000000E+00   0.0000000E+00   0.0000000E+00   0.0000000E+00   0.0000000E+00   0.0000000E+00   0.0000000E+00   0.0000000E+00   0.0000000E+00   0.0000000E+00   0.0000000E+00   0.0000000E+00   0.0000000E+00   0.0000000E+00   0.0000000E+00   0.0000000E+00   0.0000000E+00   0.0000000E+00   0.0000000E+00   0.0000000E+00   0.0000000E+00   0.0000000E+00   0.0000000E+00   0.0000000E+00   0.0000000E+00   0.0000000E+00   0.0000000E+00   0.0000000E+00   0.0000000E+00   0.0000000E+00   0.0000000E+00   0.0000000E+00   0.0000000E+00   0.0000000E+00   0.0000000E+00   0.0000000E+00   0.0000000E+00   0.0000000E+00   0.0000000E+00   0.0000000E+00   0.0000000E+00   0.0000000E+00   0.0000000E+00   0.0000000E+00   0.0000000E+00   0.0000000E+00   0.0000000E+00   0.0000000E+00   0.0000000E+00   0.0000000E+00   0.0000000E+00   0.0000000E+00   0.0000000E+00   0.0000000E+00   0.0000000E+00   0.0000000E+00   0.0000000E+00   0.0000000E+00   0.0000000E+00   0.0000000E+00   0.0000000E+00   0.0000000E+00   0.0000000E+00   0.0000000E+00   0.0000000E+00   0.0000000E+00   0.0000000E+00   0.0000000E+00   0.0000000E+00   0.0000000E+00   0.0000000E+00   0.0000000E+00   0.0000000E+00   0.0000000E+00   0.0000000E+00   0.0000000E+00   0.0000000E+00   0.0000000E+00   0.0000000E+00   0.0000000E+00   0.0000000E+00   0.0000000E+00   0.0000000E+00   0.0000000E+00   0.0000000E+00   0.0000000E+00   0.0000000E+00   0.0000000E+00   0.0000000E+00   0.0000000E+00   0.0000000E+00   0.0000000E+00   0.0000000E+00   0.0000000E+00   0.0000000E+00   0.0000000E+00   0.0000000E+00   0.0000000E+00   0.0000000E+00   0.0000000E+00   0.0000000E+00   0.0000000E+00   0.0000000E+00   0.0000000E+00   0.0000000E+00   0.0000000E+00   0.0000000E+00   0.0000000E+00   0.0000000E+00   0.0000000E+00   0.0000000E+00   0.0000000E+00   0.0000000E+00   0.0000000E+00   0.0000000E+00   0.0000000E+00   0.0000000E+00   0.0000000E+00   0.0000000E+00   0.0000000E+00   0.0000000E+00   0.0000000E+00   0.0000000E+00   0.0000000E+00   0.0000000E+00   0.0000000E+00   0.0000000E+00   0.0000000E+00   0.0000000E+00   0.0000000E+00   0.0000000E+00   0.0000000E+00   0.0000000E+00   0.0000000E+00   0.0000000E+00   0.0000000E+00   0.0000000E+00   0.0000000E+00   0.0000000E+00   0.0000000E+00   0.0000000E+00   0.0000000E+00   0.0000000E+00   0.0000000E+00   0.0000000E+00   0.0000000E+00   0.0000000E+00   0.0000000E+00   0.0000000E+00   0.0000000E+00   0.0000000E+00   0.0000000E+00   0.0000000E+00   0.0000000E+00   0.0000000E+00   0.0000000E+00   0.0000000E+00   0.0000000E+00   0.0000000E+00   0.0000000E+00   0.0000000E+00   0.0000000E+00   0.0000000E+00   0.0000000E+00   0.0000000E+00   0.0000000E+00   0.0000000E+00   0.0000000E+00   0.0000000E+00   0.0000000E+00   0.0000000E+00   0.0000000E+00   0.0000000E+00   0.0000000E+00   0.0000000E+00   0.0000000E+00   0.0000000E+00   0.0000000E+00   0.0000000E+00   0.0000000E+00   0.0000000E+00   0.0000000E+00   0.0000000E+00   0.0000000E+00   0.0000000E+00   0.0000000E+00   0.0000000E+00   0.0000000E+00   0.0000000E+00   0.0000000E+00   0.0000000E+00   0.0000000E+00   0.0000000E+00   0.0000000E+00   0.0000000E+00   0.0000000E+00   0.0000000E+00   0.0000000E+00   0.0000000E+00   0.0000000E+00   0.0000000E+00   0.0000000E+00   0.0000000E+00   0.0000000E+00   0.0000000E+00   0.0000000E+00   0.0000000E+00   0.0000000E+00   0.0000000E+00   0.0000000E+00   0.0000000E+00   0.0000000E+00   0.0000000E+00   0.0000000E+00   0.0000000E+00   0.0000000E+00   0.0000000E+00   0.0000000E+00   0.0000000E+00   0.0000000E+00   0.0000000E+00   0.0000000E+00   0.0000000E+00   0.0000000E+00   0.0000000E+00   0.0000000E+00   0.0000000E+00   0.0000000E+00   0.0000000E+00   0.0000000E+00   0.0000000E+00   0.0000000E+00   0.0000000E+00   0.0000000E+00   0.0000000E+00   0.0000000E+00   0.0000000E+00   0.0000000E+00   0.0000000E+00   0.0000000E+00   0.0000000E+00   0.0000000E+00   0.0000000E+00   0.0000000E+00   0.0000000E+00   0.0000000E+00   0.0000000E+00   0.0000000E+00   0.0000000E+00   0.0000000E+00   0.0000000E+00   0.0000000E+00   0.0000000E+00   0.0000000E+00   0.0000000E+00   0.0000000E+00   0.0000000E+00   0.0000000E+00   0.0000000E+00   0.0000000E+00   0.0000000E+00   0.0000000E+00   0.0000000E+00   0.0000000E+00   0.0000000E+00   0.0000000E+00   0.0000000E+00   0.0000000E+00   0.0000000E+00   0.0000000E+00   0.0000000E+00   0.0000000E+00   0.0000000E+00   0.0000000E+00   0.0000000E+00   0.0000000E+00   0.0000000E+00   0.0000000E+00   0.0000000E+00   0.0000000E+00   0.0000000E+00   0.0000000E+00   0.0000000E+00   0.0000000E+00   0.0000000E+00   0.0000000E+00   0.0000000E+00   0.0000000E+00   0.0000000E+00   0.0000000E+00   0.0000000E+00   0.0000000E+00   0.0000000E+00   0.0000000E+00   0.0000000E+00   0.0000000E+00   0.0000000E+00   0.0000000E+00   0.0000000E+00   0.0000000E+00   0.0000000E+00   0.0000000E+00   0.0000000E+00   0.0000000E+00   0.0000000E+00   0.0000000E+00   0.0000000E+00   0.0000000E+00   0.0000000E+00   0.0000000E+00   0.0000000E+00   0.0000000E+00   0.0000000E+00   0.0000000E+00   0.0000000E+00   0.0000000E+00   0.0000000E+00   0.0000000E+00   0.0000000E+00   0.0000000E+00   0.0000000E+00   0.0000000E+00   0.0000000E+00   0.0000000E+00   0.0000000E+00   0.0000000E+00   0.0000000E+00   0.0000000E+00   0.0000000E+00   0.0000000E+00   0.0000000E+00   0.0000000E+00   0.0000000E+00   0.0000000E+00   0.0000000E+00   0.0000000E+00   0.0000000E+00   0.0000000E+00   0.0000000E+00   0.0000000E+00   0.0000000E+00   0.0000000E+00   0.0000000E+00   0.0000000E+00   0.0000000E+00   0.0000000E+00   0.0000000E+00   0.0000000E+00   0.0000000E+00   0.0000000E+00   0.0000000E+00   0.0000000E+00   0.0000000E+00   0.0000000E+00   0.0000000E+00   0.0000000E+00   0.0000000E+00   0.0000000E+00   0.0000000E+00   0.0000000E+00   0.0000000E+00   0.0000000E+00   0.0000000E+00   0.0000000E+00   0.0000000E+00   0.0000000E+00   0.0000000E+00   0.0000000E+00   0.0000000E+00   0.0000000E+00   0.0000000E+00   0.0000000E+00   0.0000000E+00   0.0000000E+00   0.0000000E+00   0.0000000E+00   0.0000000E+00   0.0000000E+00   0.0000000E+00   0.0000000E+00   0.0000000E+00   0.0000000E+00   0.0000000E+00   0.0000000E+00   0.0000000E+00   0.0000000E+00   0.0000000E+00   0.0000000E+00   0.0000000E+00   0.0000000E+00   0.0000000E+00   0.0000000E+00   0.0000000E+00   0.0000000E+00   0.0000000E+00   0.0000000E+00   0.0000000E+00   0.0000000E+00   0.0000000E+00   0.0000000E+00   0.0000000E+00   0.0000000E+00   0.0000000E+00   0.0000000E+00   0.0000000E+00   0.0000000E+00   0.0000000E+00   0.0000000E+00   0.0000000E+00   0.0000000E+00   0.0000000E+00   0.0000000E+00   0.0000000E+00   0.0000000E+00   0.0000000E+00   0.0000000E+00   0.0000000E+00   0.0000000E+00   0.0000000E+00   0.0000000E+00   0.0000000E+00   0.0000000E+00   0.0000000E+00   0.0000000E+00   0.0000000E+00   0.0000000E+00   0.0000000E+00   0.0000000E+00   0.0000000E+00   0.0000000E+00   0.0000000E+00   0.0000000E+00   0.0000000E+00   0.0000000E+00   0.0000000E+00   0.0000000E+00   0.0000000E+00   0.0000000E+00   0.0000000E+00   0.0000000E+00   0.0000000E+00   0.0000000E+00   0.0000000E+00   0.0000000E+00   0.0000000E+00   0.0000000E+00   0.0000000E+00   0.0000000E+00   0.0000000E+00   0.0000000E+00   0.0000000E+00   0.0000000E+00   0.0000000E+00   0.0000000E+00   0.0000000E+00   0.0000000E+00   0.0000000E+00   0.0000000E+00   0.0000000E+00   0.0000000E+00   0.0000000E+00   0.0000000E+00   0.0000000E+00   0.0000000E+00   0.0000000E+00   0.0000000E+00   0.0000000E+00   0.0000000E+00   0.0000000E+00   0.0000000E+00   0.0000000E+00   0.0000000E+00   0.0000000E+00   0.0000000E+00   0.0000000E+00   0.0000000E+00   0.0000000E+00   0.0000000E+00   0.0000000E+00   0.0000000E+00   0.0000000E+00   0.0000000E+00   0.0000000E+00   0.0000000E+00   0.0000000E+00   0.0000000E+00   0.0000000E+00   0.0000000E+00   0.0000000E+00   0.0000000E+00   0.0000000E+00   0.0000000E+00   0.0000000E+00   0.0000000E+00   0.0000000E+00   0.0000000E+00   0.0000000E+00   0.0000000E+00   0.0000000E+00   0.0000000E+00   0.0000000E+00   0.0000000E+00   0.0000000E+00   0.0000000E+00   0.0000000E+00   0.0000000E+00   0.0000000E+00   0.0000000E+00   0.0000000E+00   0.0000000E+00   0.0000000E+00   0.0000000E+00   0.0000000E+00   0.0000000E+00   0.0000000E+00   0.0000000E+00   0.0000000E+00   0.0000000E+00   0.0000000E+00   0.0000000E+00   0.0000000E+00   0.0000000E+00   0.0000000E+00   0.0000000E+00   0.0000000E+00   0.0000000E+00   0.0000000E+00   0.0000000E+00   0.0000000E+00   0.0000000E+00   0.0000000E+00   0.0000000E+00   0.0000000E+00   0.0000000E+00   0.0000000E+00   0.0000000E+00   0.0000000E+00   0.0000000E+00   0.0000000E+00   0.0000000E+00   0.0000000E+00   0.0000000E+00   0.0000000E+00   0.0000000E+00   0.0000000E+00   0.0000000E+00   0.0000000E+00   0.0000000E+00   0.0000000E+00   0.0000000E+00   0.0000000E+00   0.0000000E+00   0.0000000E+00   0.0000000E+00   0.0000000E+00   0.0000000E+00   0.0000000E+00   0.0000000E+00   0.0000000E+00   0.0000000E+00   0.0000000E+00   0.0000000E+00   0.0000000E+00   0.0000000E+00   0.0000000E+00   0.0000000E+00   0.0000000E+00   0.0000000E+00   0.0000000E+00   0.0000000E+00   0.0000000E+00   0.0000000E+00   0.0000000E+00   0.0000000E+00   0.0000000E+00   0.0000000E+00   0.0000000E+00   0.0000000E+00   0.0000000E+00   0.0000000E+00   0.0000000E+00   0.0000000E+00   0.0000000E+00   0.0000000E+00   0.0000000E+00   0.0000000E+00   0.0000000E+00   0.0000000E+00   0.0000000E+00   0.0000000E+00   0.0000000E+00   0.0000000E+00   0.0000000E+00   0.0000000E+00   0.0000000E+00   0.0000000E+00   0.0000000E+00   0.0000000E+00   0.0000000E+00   0.0000000E+00   0.0000000E+00   0.0000000E+00   0.0000000E+00   0.0000000E+00   0.0000000E+00   0.0000000E+00   0.0000000E+00   0.0000000E+00   0.0000000E+00   0.0000000E+00   0.0000000E+00   0.0000000E+00   0.0000000E+00   0.0000000E+00   0.0000000E+00   0.0000000E+00   0.0000000E+00   0.0000000E+00   0.0000000E+00   0.0000000E+00   0.0000000E+00   0.0000000E+00   0.0000000E+00   0.0000000E+00   0.0000000E+00   0.0000000E+00   0.0000000E+00   0.0000000E+00   0.0000000E+00   0.0000000E+00   0.0000000E+00   0.0000000E+00   0.0000000E+00   0.0000000E+00   0.0000000E+00   0.0000000E+00   0.0000000E+00   0.0000000E+00   0.0000000E+00   0.0000000E+00   0.0000000E+00   0.0000000E+00   0.0000000E+00   0.0000000E+00   0.0000000E+00   0.0000000E+00   0.0000000E+00   0.0000000E+00   0.0000000E+00   0.0000000E+00   0.0000000E+00   0.0000000E+00   0.0000000E+00   0.0000000E+00   0.0000000E+00   0.0000000E+00   0.0000000E+00   0.0000000E+00   0.0000000E+00   0.0000000E+00   0.0000000E+00   0.0000000E+00   0.0000000E+00   0.0000000E+00   0.0000000E+00   0.0000000E+00   0.0000000E+00   0.0000000E+00   0.0000000E+00   0.0000000E+00   0.0000000E+00   0.0000000E+00   0.0000000E+00   0.0000000E+00   0.0000000E+00   0.0000000E+00   0.0000000E+00   0.0000000E+00   0.0000000E+00   0.0000000E+00   0.0000000E+00   0.0000000E+00   0.0000000E+00   0.0000000E+00   0.0000000E+00   0.0000000E+00   0.0000000E+00   0.0000000E+00   0.0000000E+00   0.0000000E+00   0.0000000E+00   0.0000000E+00   0.0000000E+00   0.0000000E+00   0.0000000E+00   0.0000000E+00   0.0000000E+00   0.0000000E+00   0.0000000E+00   0.0000000E+00   0.0000000E+00   0.0000000E+00   0.0000000E+00   0.0000000E+00   0.0000000E+00   0.0000000E+00   0.0000000E+00   0.0000000E+00   0.0000000E+00   0.0000000E+00   0.0000000E+00   0.0000000E+00   0.0000000E+00   0.0000000E+00   0.0000000E+00   0.0000000E+00   0.0000000E+00   0.0000000E+00   0.0000000E+00   0.0000000E+00   0.0000000E+00   0.0000000E+00   0.0000000E+00   0.0000000E+00   0.0000000E+00   0.0000000E+00   0.0000000E+00   0.0000000E+00   0.0000000E+00   0.0000000E+00   0.0000000E+00   0.0000000E+00   0.0000000E+00   0.0000000E+00   0.0000000E+00   0.0000000E+00   0.0000000E+00   0.0000000E+00   0.0000000E+00   0.0000000E+00   0.0000000E+00   0.0000000E+00   0.0000000E+00   0.0000000E+00   0.0000000E+00   0.0000000E+00   0.0000000E+00   0.0000000E+00   0.0000000E+00   0.0000000E+00   0.0000000E+00   0.0000000E+00   0.0000000E+00   0.0000000E+00   0.0000000E+00   0.0000000E+00   0.0000000E+00   0.0000000E+00   0.0000000E+00   0.0000000E+00   0.0000000E+00   0.0000000E+00   0.0000000E+00   0.0000000E+00   0.0000000E+00   0.0000000E+00   0.0000000E+00   0.0000000E+00   0.0000000E+00   0.0000000E+00   0.0000000E+00   0.0000000E+00   0.0000000E+00   0.0000000E+00   0.0000000E+00   0.0000000E+00   0.0000000E+00   0.0000000E+00   0.0000000E+00   0.0000000E+00   0.0000000E+00   0.0000000E+00   0.0000000E+00   0.0000000E+00   0.0000000E+00   0.0000000E+00   0.0000000E+00   0.0000000E+00   0.0000000E+00   0.0000000E+00   0.0000000E+00   0.0000000E+00   0.0000000E+00   0.0000000E+00   0.0000000E+00   0.0000000E+00   0.0000000E+00   0.0000000E+00   0.0000000E+00   0.0000000E+00   0.0000000E+00   0.0000000E+00   0.0000000E+00   0.0000000E+00   0.0000000E+00   0.0000000E+00   0.0000000E+00   0.0000000E+00   0.0000000E+00   0.0000000E+00   0.0000000E+00   0.0000000E+00   0.0000000E+00   0.0000000E+00   0.0000000E+00   0.0000000E+00   0.0000000E+00   0.0000000E+00   0.0000000E+00   0.0000000E+00   0.0000000E+00   0.0000000E+00   0.0000000E+00   0.0000000E+00   0.0000000E+00   0.0000000E+00   0.0000000E+00   0.0000000E+00   0.0000000E+00   0.0000000E+00   0.0000000E+00   0.0000000E+00   0.0000000E+00   0.0000000E+00   0.0000000E+00   0.0000000E+00   0.0000000E+00   0.0000000E+00   0.0000000E+00   0.0000000E+00   0.0000000E+00   0.0000000E+00   0.0000000E+00   0.0000000E+00   0.0000000E+00   0.0000000E+00   0.0000000E+00   0.0000000E+00   0.0000000E+00   0.0000000E+00   0.0000000E+00   0.0000000E+00   0.0000000E+00   0.0000000E+00   0.0000000E+00   0.0000000E+00   0.0000000E+00   0.0000000E+00   0.0000000E+00   0.0000000E+00   0.0000000E+00   0.0000000E+00   0.0000000E+00   0.0000000E+00   0.0000000E+00   0.0000000E+00   0.0000000E+00   0.0000000E+00   0.0000000E+00   0.0000000E+00   0.0000000E+00   0.0000000E+00   0.0000000E+00   0.0000000E+00   0.0000000E+00   0.0000000E+00   0.0000000E+00   0.0000000E+00   0.0000000E+00   0.0000000E+00   0.0000000E+00   0.0000000E+00   0.0000000E+00   0.0000000E+00   0.0000000E+00   0.0000000E+00   0.0000000E+00   0.0000000E+00   0.0000000E+00   0.0000000E+00   0.0000000E+00   0.0000000E+00   0.0000000E+00   0.0000000E+00   0.0000000E+00   0.0000000E+00   0.0000000E+00   0.0000000E+00   0.0000000E+00   0.0000000E+00   0.0000000E+00   0.0000000E+00   0.0000000E+00   0.0000000E+00   0.0000000E+00   0.0000000E+00   0.0000000E+00   0.0000000E+00   0.0000000E+00   0.0000000E+00   0.0000000E+00   0.0000000E+00   0.0000000E+00   0.0000000E+00   0.0000000E+00   0.0000000E+00   0.0000000E+00   0.0000000E+00   0.0000000E+00   0.0000000E+00   0.0000000E+00   0.0000000E+00   0.0000000E+00   0.0000000E+00   0.0000000E+00   0.0000000E+00   0.0000000E+00   0.0000000E+00   0.0000000E+00   0.0000000E+00   0.0000000E+00   0.0000000E+00   0.0000000E+00   0.0000000E+00   0.0000000E+00   0.0000000E+00   0.0000000E+00   0.0000000E+00   0.0000000E+00   0.0000000E+00   0.0000000E+00   0.0000000E+00   0.0000000E+00   0.0000000E+00   0.0000000E+00   0.0000000E+00   0.0000000E+00   0.0000000E+00   0.0000000E+00   0.0000000E+00   0.0000000E+00   0.0000000E+00   0.0000000E+00   0.0000000E+00   0.0000000E+00   0.0000000E+00   0.0000000E+00   0.0000000E+00   0.0000000E+00   0.0000000E+00   0.0000000E+00   0.0000000E+00   0.0000000E+00   0.0000000E+00   0.0000000E+00   0.0000000E+00   0.0000000E+00   0.0000000E+00   0.0000000E+00   0.0000000E+00   0.0000000E+00   0.0000000E+00   0.0000000E+00   0.0000000E+00   0.0000000E+00   0.0000000E+00   0.0000000E+00   0.0000000E+00   0.0000000E+00   0.0000000E+00   0.0000000E+00   0.0000000E+00   0.0000000E+00   0.0000000E+00   0.0000000E+00   0.0000000E+00   0.0000000E+00   0.0000000E+00   0.0000000E+00   0.0000000E+00   0.0000000E+00   0.0000000E+00   0.0000000E+00   0.0000000E+00   0.0000000E+00   0.0000000E+00   0.0000000E+00   0.0000000E+00   0.0000000E+00   0.0000000E+00   0.0000000E+00   0.0000000E+00   0.0000000E+00   0.0000000E+00   0.0000000E+00   0.0000000E+00   0.0000000E+00   0.0000000E+00   0.0000000E+00   0.0000000E+00   0.0000000E+00   0.0000000E+00   0.0000000E+00   0.0000000E+00   0.0000000E+00   0.0000000E+00   0.0000000E+00   0.0000000E+00   0.0000000E+00   0.0000000E+00   0.0000000E+00   0.0000000E+00   0.0000000E+00   0.0000000E+00   0.0000000E+00   0.0000000E+00   0.0000000E+00   0.0000000E+00   0.0000000E+00   0.0000000E+00   0.0000000E+00   0.0000000E+00   0.0000000E+00   0.0000000E+00   0.0000000E+00   0.0000000E+00   0.0000000E+00   0.0000000E+00   0.0000000E+00   0.0000000E+00   0.0000000E+00   0.0000000E+00   0.0000000E+00   0.0000000E+00   0.0000000E+00   0.0000000E+00   0.0000000E+00   0.0000000E+00   0.0000000E+00   0.0000000E+00   0.0000000E+00   0.0000000E+00   0.0000000E+00   0.0000000E+00   0.0000000E+00   0.0000000E+00   0.0000000E+00   0.0000000E+00   0.0000000E+00   0.0000000E+00   0.0000000E+00   0.0000000E+00   0.0000000E+00   0.0000000E+00   0.0000000E+00   0.0000000E+00   0.0000000E+00   0.0000000E+00   0.0000000E+00   0.0000000E+00   0.0000000E+00   0.0000000E+00   0.0000000E+00   0.0000000E+00   0.0000000E+00   0.0000000E+00   0.0000000E+00   0.0000000E+00   0.0000000E+00   0.0000000E+00   0.0000000E+00   0.0000000E+00   0.0000000E+00   0.0000000E+00   0.0000000E+00   0.0000000E+00   0.0000000E+00   0.0000000E+00   0.0000000E+00   0.0000000E+00   0.0000000E+00   0.0000000E+00   0.0000000E+00   0.0000000E+00   0.0000000E+00   0.0000000E+00   0.0000000E+00   0.0000000E+00   0.0000000E+00   0.0000000E+00   0.0000000E+00   0.0000000E+00   0.0000000E+00   0.0000000E+00   0.0000000E+00   0.0000000E+00   0.0000000E+00   0.0000000E+00   0.0000000E+00   0.0000000E+00   0.0000000E+00   0.0000000E+00   0.0000000E+00   0.0000000E+00   0.0000000E+00   0.0000000E+00   0.0000000E+00   0.0000000E+00   0.0000000E+00   0.0000000E+00   0.0000000E+00   0.0000000E+00   0.0000000E+00   0.0000000E+00   0.0000000E+00   0.0000000E+00   0.0000000E+00   0.0000000E+00   0.0000000E+00   0.0000000E+00   0.0000000E+00   0.0000000E+00   0.0000000E+00   0.0000000E+00   0.0000000E+00   0.0000000E+00   0.0000000E+00   0.0000000E+00   0.0000000E+00   0.0000000E+00   0.0000000E+00   0.0000000E+00   0.0000000E+00   0.0000000E+00   0.0000000E+00   0.0000000E+00   0.0000000E+00   0.0000000E+00   0.0000000E+00   0.0000000E+00   0.0000000E+00   0.0000000E+00   0.0000000E+00   0.0000000E+00   0.0000000E+00   0.0000000E+00   0.0000000E+00   0.0000000E+00   0.0000000E+00   0.0000000E+00   0.0000000E+00   0.0000000E+00   0.0000000E+00   0.0000000E+00   0.0000000E+00   0.0000000E+00   0.0000000E+00   0.0000000E+00   0.0000000E+00   0.0000000E+00   0.0000000E+00   0.0000000E+00   0.0000000E+00   0.0000000E+00   0.0000000E+00   0.0000000E+00   0.0000000E+00   0.0000000E+00   0.0000000E+00   0.0000000E+00   0.0000000E+00   0.0000000E+00   0.0000000E+00   0.0000000E+00   0.0000000E+00   0.0000000E+00   0.0000000E+00   0.0000000E+00   0.0000000E+00   0.0000000E+00   0.0000000E+00   0.0000000E+00   0.0000000E+00   0.0000000E+00   0.0000000E+00   0.0000000E+00   0.0000000E+00   0.0000000E+00   0.0000000E+00   0.0000000E+00   0.0000000E+00   0.0000000E+00   0.0000000E+00   0.0000000E+00   0.0000000E+00   0.0000000E+00   0.0000000E+00   0.0000000E+00   0.0000000E+00   0.0000000E+00   0.0000000E+00   0.0000000E+00   0.0000000E+00   0.0000000E+00   0.0000000E+00   0.0000000E+00   0.0000000E+00   0.0000000E+00   0.0000000E+00   0.0000000E+00   0.0000000E+00   0.0000000E+00   0.0000000E+00   0.0000000E+00   0.0000000E+00   0.0000000E+00   0.0000000E+00   0.0000000E+00   0.0000000E+00   0.0000000E+00   0.0000000E+00   0.0000000E+00   0.0000000E+00   0.0000000E+00   0.0000000E+00   0.0000000E+00   0.0000000E+00   0.0000000E+00   0.0000000E+00   0.0000000E+00   0.0000000E+00   0.0000000E+00   0.0000000E+00   0.0000000E+00   0.0000000E+00   0.0000000E+00   0.0000000E+00   0.0000000E+00   0.0000000E+00   0.0000000E+00   0.0000000E+00   0.0000000E+00   0.0000000E+00   0.0000000E+00   0.0000000E+00   0.0000000E+00   0.0000000E+00   0.0000000E+00   0.0000000E+00   0.0000000E+00   0.0000000E+00   0.0000000E+00   0.0000000E+00   0.0000000E+00   0.0000000E+00   0.0000000E+00   0.0000000E+00   0.0000000E+00   0.0000000E+00   0.0000000E+00   0.0000000E+00   0.0000000E+00   0.0000000E+00   0.0000000E+00   0.0000000E+00   0.0000000E+00   0.0000000E+00   0.0000000E+00   0.0000000E+00   0.0000000E+00   0.0000000E+00   0.0000000E+00   0.0000000E+00   0.0000000E+00   0.0000000E+00   0.0000000E+00   0.0000000E+00   0.0000000E+00   0.0000000E+00   0.0000000E+00   0.0000000E+00   0.0000000E+00   0.0000000E+00   0.0000000E+00   0.0000000E+00   0.0000000E+00   0.0000000E+00   0.0000000E+00   0.0000000E+00   0.0000000E+00   0.0000000E+00   0.0000000E+00   0.0000000E+00   0.0000000E+00   0.0000000E+00   0.0000000E+00   0.0000000E+00   0.0000000E+00   0.0000000E+00   0.0000000E+00   0.0000000E+00   0.0000000E+00   0.0000000E+00   0.0000000E+00   0.0000000E+00   0.0000000E+00   0.0000000E+00   0.0000000E+00   0.0000000E+00   0.0000000E+00   0.0000000E+00   0.0000000E+00   0.0000000E+00   0.0000000E+00   0.0000000E+00   0.0000000E+00   0.0000000E+00   0.0000000E+00   0.0000000E+00   0.0000000E+00   0.0000000E+00   0.0000000E+00   0.0000000E+00   0.0000000E+00   0.0000000E+00   0.0000000E+00   0.0000000E+00   0.0000000E+00   0.0000000E+00   0.0000000E+00   0.0000000E+00   0.0000000E+00   0.0000000E+00   0.0000000E+00   0.0000000E+00   0.0000000E+00   0.0000000E+00   0.0000000E+00   0.0000000E+00   0.0000000E+00   0.0000000E+00   0.0000000E+00   0.0000000E+00   0.0000000E+00   0.0000000E+00   0.0000000E+00   0.0000000E+00   0.0000000E+00   0.0000000E+00   0.0000000E+00   0.0000000E+00   0.0000000E+00   0.0000000E+00   0.0000000E+00   0.0000000E+00   0.0000000E+00   0.0000000E+00   0.0000000E+00   0.0000000E+00   0.0000000E+00   0.0000000E+00   0.0000000E+00   0.0000000E+00   0.0000000E+00   0.0000000E+00   0.0000000E+00   0.0000000E+00   0.0000000E+00   0.0000000E+00   0.0000000E+00   0.0000000E+00   0.0000000E+00   0.0000000E+00   0.0000000E+00   0.0000000E+00   0.0000000E+00   0.0000000E+00   0.0000000E+00   0.0000000E+00   0.0000000E+00   0.0000000E+00   0.0000000E+00   0.0000000E+00   0.0000000E+00   0.0000000E+00   0.0000000E+00   0.0000000E+00   0.0000000E+00   0.0000000E+00   0.0000000E+00   0.0000000E+00   0.0000000E+00   0.0000000E+00   0.0000000E+00   0.0000000E+00   0.0000000E+00   0.0000000E+00   0.0000000E+00   0.0000000E+00   0.0000000E+00   0.0000000E+00   0.0000000E+00   0.0000000E+00   0.0000000E+00   0.0000000E+00   0.0000000E+00   0.0000000E+00   0.0000000E+00   0.0000000E+00   0.0000000E+00   0.0000000E+00   0.0000000E+00   0.0000000E+00   0.0000000E+00   0.0000000E+00   0.0000000E+00   0.0000000E+00   0.0000000E+00   0.0000000E+00   0.0000000E+00   0.0000000E+00   0.0000000E+00   0.0000000E+00   0.0000000E+00   0.0000000E+00   0.0000000E+00   0.0000000E+00   0.0000000E+00   0.0000000E+00   0.0000000E+00   0.0000000E+00   0.0000000E+00   0.0000000E+00   0.0000000E+00   0.0000000E+00   0.0000000E+00   0.0000000E+00   0.0000000E+00   0.0000000E+00   0.0000000E+00   0.0000000E+00   0.0000000E+00   0.0000000E+00   0.0000000E+00   0.0000000E+00   0.0000000E+00   0.0000000E+00   0.0000000E+00   0.0000000E+00   0.0000000E+00   0.0000000E+00   0.0000000E+00   0.0000000E+00   0.0000000E+00   0.0000000E+00   0.0000000E+00   0.0000000E+00   0.0000000E+00   0.0000000E+00   0.0000000E+00   0.0000000E+00   0.0000000E+00   0.0000000E+00   0.0000000E+00   0.0000000E+00   0.0000000E+00   0.0000000E+00   0.0000000E+00   0.0000000E+00   0.0000000E+00   0.0000000E+00   0.0000000E+00   0.0000000E+00   0.0000000E+00   0.0000000E+00   0.0000000E+00   0.0000000E+00   0.0000000E+00   0.0000000E+00   0.0000000E+00   0.0000000E+00   0.0000000E+00   0.0000000E+00   0.0000000E+00   0.0000000E+00   0.0000000E+00   0.0000000E+00   0.0000000E+00   0.0000000E+00   0.0000000E+00   0.0000000E+00   0.0000000E+00   0.0000000E+00   0.0000000E+00   0.0000000E+00   0.0000000E+00   0.0000000E+00   0.0000000E+00   0.0000000E+00   0.0000000E+00   0.0000000E+00   0.0000000E+00   0.0000000E+00   0.0000000E+00   0.0000000E+00   0.0000000E+00   0.0000000E+00   0.0000000E+00   0.0000000E+00   0.0000000E+00   0.0000000E+00   0.0000000E+00   0.0000000E+00   0.0000000E+00   0.0000000E+00   0.0000000E+00   0.0000000E+00   0.0000000E+00   0.0000000E+00   0.0000000E+00   0.0000000E+00   0.0000000E+00   0.0000000E+00   0.0000000E+00   0.0000000E+00   0.0000000E+00   0.0000000E+00   0.0000000E+00   0.0000000E+00   0.0000000E+00   0.0000000E+00   0.0000000E+00   0.0000000E+00   0.0000000E+00   0.0000000E+00   0.0000000E+00   0.0000000E+00   0.0000000E+00   0.0000000E+00   0.0000000E+00   0.0000000E+00   0.0000000E+00   0.0000000E+00   0.0000000E+00   0.0000000E+00   0.0000000E+00   0.0000000E+00   0.0000000E+00   0.0000000E+00   0.0000000E+00   0.0000000E+00   0.0000000E+00   0.0000000E+00   0.0000000E+00   0.0000000E+00   0.0000000E+00   0.0000000E+00   0.0000000E+00   0.0000000E+00   0.0000000E+00   0.0000000E+00   0.0000000E+00   0.0000000E+00   0.0000000E+00   0.0000000E+00   0.0000000E+00   0.0000000E+00   0.0000000E+00   0.0000000E+00   0.0000000E+00   0.0000000E+00   0.0000000E+00   0.0000000E+00   0.0000000E+00   0.0000000E+00   0.0000000E+00   0.0000000E+00   0.0000000E+00   0.0000000E+00   0.0000000E+00   0.0000000E+00   0.0000000E+00   0.0000000E+00   0.0000000E+00   0.0000000E+00   0.0000000E+00   0.0000000E+00   0.0000000E+00   0.0000000E+00   0.0000000E+00   0.0000000E+00   0.0000000E+00   0.0000000E+00   0.0000000E+00   0.0000000E+00   0.0000000E+00   0.0000000E+00   0.0000000E+00   0.0000000E+00   0.0000000E+00   0.0000000E+00   0.0000000E+00   0.0000000E+00   0.0000000E+00   0.0000000E+00   0.0000000E+00   0.0000000E+00   0.0000000E+00   0.0000000E+00   0.0000000E+00   0.0000000E+00   0.0000000E+00   0.0000000E+00   0.0000000E+00   0.0000000E+00   0.0000000E+00   0.0000000E+00   0.0000000E+00   0.0000000E+00   0.0000000E+00   0.0000000E+00   0.0000000E+00   0.0000000E+00   0.0000000E+00   0.0000000E+00   0.0000000E+00   0.0000000E+00   0.0000000E+00   0.0000000E+00   0.0000000E+00   0.0000000E+00   0.0000000E+00   0.0000000E+00   0.0000000E+00   0.0000000E+00   0.0000000E+00   0.0000000E+00   0.0000000E+00   0.0000000E+00   0.0000000E+00   0.0000000E+00   0.0000000E+00   0.0000000E+00   0.0000000E+00   0.0000000E+00   0.0000000E+00   0.0000000E+00   0.0000000E+00   0.0000000E+00   0.0000000E+00   0.0000000E+00   0.0000000E+00   0.0000000E+00   0.0000000E+00   0.0000000E+00   0.0000000E+00   0.0000000E+00   0.0000000E+00   0.0000000E+00   0.0000000E+00   0.0000000E+00   0.0000000E+00   0.0000000E+00   0.0000000E+00   0.0000000E+00   0.0000000E+00   0.0000000E+00   0.0000000E+00   0.0000000E+00   0.0000000E+00   0.0000000E+00   0.0000000E+00   0.0000000E+00   0.0000000E+00   0.0000000E+00   0.0000000E+00   0.0000000E+00   0.0000000E+00   0.0000000E+00   0.0000000E+00   0.0000000E+00   0.0000000E+00   0.0000000E+00   0.0000000E+00   0.0000000E+00   0.0000000E+00   0.0000000E+00   0.0000000E+00   0.0000000E+00   0.0000000E+00   0.0000000E+00   0.0000000E+00   0.0000000E+00   0.0000000E+00   0.0000000E+00   0.0000000E+00   0.0000000E+00   0.0000000E+00   0.0000000E+00   0.0000000E+00   0.0000000E+00   0.0000000E+00   0.0000000E+00   0.0000000E+00   0.0000000E+00   0.0000000E+00   0.0000000E+00   0.0000000E+00   0.0000000E+00   0.0000000E+00   0.0000000E+00   0.0000000E+00   0.0000000E+00   0.0000000E+00   0.0000000E+00   0.0000000E+00   0.0000000E+00   0.0000000E+00   0.0000000E+00   0.0000000E+00   0.0000000E+00   0.0000000E+00   0.0000000E+00   0.0000000E+00   0.0000000E+00   0.0000000E+00   0.0000000E+00   0.0000000E+00   0.0000000E+00   0.0000000E+00   0.0000000E+00   0.0000000E+00   0.0000000E+00   0.0000000E+00   0.0000000E+00   0.0000000E+00   0.0000000E+00   0.0000000E+00   0.0000000E+00   0.0000000E+00   0.0000000E+00   0.0000000E+00   0.0000000E+00   0.0000000E+00   0.0000000E+00   0.0000000E+00   0.0000000E+00   0.0000000E+00   0.0000000E+00   0.0000000E+00   0.0000000E+00   0.0000000E+00   0.0000000E+00   0.0000000E+00   0.0000000E+00   0.0000000E+00   0.0000000E+00   0.0000000E+00   0.0000000E+00   0.0000000E+00   0.0000000E+00   0.0000000E+00   0.0000000E+00   0.0000000E+00   0.0000000E+00   0.0000000E+00   0.0000000E+00   0.0000000E+00   0.0000000E+00   0.0000000E+00   0.0000000E+00   0.0000000E+00   0.0000000E+00   0.0000000E+00   0.0000000E+00   0.0000000E+00   0.0000000E+00   0.0000000E+00   0.0000000E+00   0.0000000E+00   0.0000000E+00   0.0000000E+00   0.0000000E+00   0.0000000E+00   0.0000000E+00   0.0000000E+00   0.0000000E+00   0.0000000E+00   0.0000000E+00   0.0000000E+00   0.0000000E+00   0.0000000E+00   0.0000000E+00   0.0000000E+00   0.0000000E+00   0.0000000E+00   0.0000000E+00   0.0000000E+00   0.0000000E+00   0.0000000E+00   0.0000000E+00   0.0000000E+00   0.0000000E+00   0.0000000E+00   0.0000000E+00   0.0000000E+00   0.0000000E+00   0.0000000E+00   0.0000000E+00   0.0000000E+00   0.0000000E+00   0.0000000E+00   0.0000000E+00   0.0000000E+00   0.0000000E+00   0.0000000E+00   0.0000000E+00   0.0000000E+00   0.0000000E+00   0.0000000E+00   0.0000000E+00   0.0000000E+00   0.0000000E+00   0.0000000E+00   0.0000000E+00   0.0000000E+00   0.0000000E+00   0.0000000E+00   0.0000000E+00   0.0000000E+00   0.0000000E+00   0.0000000E+00   0.0000000E+00   0.0000000E+00   0.0000000E+00   0.0000000E+00   0.0000000E+00   0.0000000E+00   0.0000000E+00   0.0000000E+00   0.0000000E+00   0.0000000E+00   0.0000000E+00   0.0000000E+00   0.0000000E+00   0.0000000E+00   0.0000000E+00   0.0000000E+00   0.0000000E+00   0.0000000E+00   0.0000000E+00   0.0000000E+00   0.0000000E+00   0.0000000E+00   0.0000000E+00   0.0000000E+00   0.0000000E+00   0.0000000E+00   0.0000000E+00   0.0000000E+00   0.0000000E+00   0.0000000E+00   0.0000000E+00   0.0000000E+00   0.0000000E+00   0.0000000E+00   0.0000000E+00   0.0000000E+00   0.0000000E+00   0.0000000E+00   0.0000000E+00   0.0000000E+00   0.0000000E+00   0.0000000E+00   0.0000000E+00   0.0000000E+00   0.0000000E+00   0.0000000E+00   0.0000000E+00   0.0000000E+00   0.0000000E+00   0.0000000E+00   0.0000000E+00   0.0000000E+00   0.0000000E+00   0.0000000E+00   0.0000000E+00   0.0000000E+00   0.0000000E+00   0.0000000E+00   0.0000000E+00   0.0000000E+00   0.0000000E+00   0.0000000E+00   0.0000000E+00   0.0000000E+00   0.0000000E+00   0.0000000E+00   0.0000000E+00   0.0000000E+00   0.0000000E+00   0.0000000E+00   0.0000000E+00   0.0000000E+00   0.0000000E+00   0.0000000E+00   0.0000000E+00   0.0000000E+00   0.0000000E+00   0.0000000E+00   0.0000000E+00   0.0000000E+00   0.0000000E+00   0.0000000E+00   0.0000000E+00   0.0000000E+00   0.0000000E+00   0.0000000E+00   0.0000000E+00   0.0000000E+00   0.0000000E+00   0.0000000E+00   0.0000000E+00   0.0000000E+00   0.0000000E+00   0.0000000E+00   0.0000000E+00   0.0000000E+00   0.0000000E+00   0.0000000E+00   0.0000000E+00   0.0000000E+00   0.0000000E+00   0.0000000E+00   0.0000000E+00   0.0000000E+00   0.0000000E+00   0.0000000E+00   0.0000000E+00   0.0000000E+00   0.0000000E+00   0.0000000E+00   0.0000000E+00   0.0000000E+00   0.0000000E+00   0.0000000E+00   0.0000000E+00   0.0000000E+00   0.0000000E+00   0.0000000E+00   0.0000000E+00   0.0000000E+00   0.0000000E+00   0.0000000E+00   0.0000000E+00   0.0000000E+00   0.0000000E+00   0.0000000E+00   0.0000000E+00   0.0000000E+00   0.0000000E+00   0.0000000E+00   0.0000000E+00   0.0000000E+00   0.0000000E+00   0.0000000E+00   0.0000000E+00   0.0000000E+00   0.0000000E+00   0.0000000E+00   0.0000000E+00   0.0000000E+00   0.0000000E+00   0.0000000E+00   0.0000000E+00   0.0000000E+00   0.0000000E+00   0.0000000E+00   0.0000000E+00   0.0000000E+00   0.0000000E+00   0.0000000E+00   0.0000000E+00   0.0000000E+00   0.0000000E+00   0.0000000E+00   0.0000000E+00   0.0000000E+00   0.0000000E+00   0.0000000E+00   0.0000000E+00   0.0000000E+00   0.0000000E+00   0.0000000E+00   0.0000000E+00   0.0000000E+00   0.0000000E+00   0.0000000E+00   0.0000000E+00   0.0000000E+00   0.0000000E+00   0.0000000E+00   0.0000000E+00   0.0000000E+00   0.0000000E+00   0.0000000E+00   0.0000000E+00   0.0000000E+00   0.0000000E+00   0.0000000E+00   0.0000000E+00   0.0000000E+00   0.0000000E+00   0.0000000E+00   0.0000000E+00   0.0000000E+00   0.0000000E+00   0.0000000E+00   0.0000000E+00   0.0000000E+00   0.0000000E+00   0.0000000E+00   0.0000000E+00   0.0000000E+00   0.0000000E+00   0.0000000E+00   0.0000000E+00   0.0000000E+00   0.0000000E+00   0.0000000E+00   0.0000000E+00   0.0000000E+00   0.0000000E+00   0.0000000E+00   0.0000000E+00   0.0000000E+00   0.0000000E+00   0.0000000E+00   0.0000000E+00   0.0000000E+00   0.0000000E+00   0.0000000E+00   0.0000000E+00   0.0000000E+00   0.0000000E+00   0.0000000E+00   0.0000000E+00   0.0000000E+00   0.0000000E+00   0.0000000E+00   0.0000000E+00   0.0000000E+00   0.0000000E+00   0.0000000E+00   0.0000000E+00   0.0000000E+00   0.0000000E+00   0.0000000E+00   0.0000000E+00   0.0000000E+00   0.0000000E+00   0.0000000E+00   0.0000000E+00   0.0000000E+00   0.0000000E+00   0.0000000E+00   0.0000000E+00   0.0000000E+00   0.0000000E+00   0.0000000E+00   0.0000000E+00   0.0000000E+00   0.0000000E+00   0.0000000E+00   0.0000000E+00   0.0000000E+00   0.0000000E+00   0.0000000E+00   0.0000000E+00   0.0000000E+00   0.0000000E+00   0.0000000E+00   0.0000000E+00   0.0000000E+00   0.0000000E+00   0.0000000E+00   0.0000000E+00   0.0000000E+00   0.0000000E+00   0.0000000E+00   0.0000000E+00   0.0000000E+00   0.0000000E+00   0.0000000E+00   0.0000000E+00   0.0000000E+00   0.0000000E+00   0.0000000E+00   0.0000000E+00   0.0000000E+00   0.0000000E+00   0.0000000E+00   0.0000000E+00   0.0000000E+00   0.0000000E+00   0.0000000E+00   0.0000000E+00   0.0000000E+00   0.0000000E+00   0.0000000E+00   0.0000000E+00   0.0000000E+00   0.0000000E+00   0.0000000E+00   0.0000000E+00   0.0000000E+00   0.0000000E+00   0.0000000E+00   0.0000000E+00   0.0000000E+00   0.0000000E+00   0.0000000E+00   0.0000000E+00   0.0000000E+00   0.0000000E+00   0.0000000E+00   0.0000000E+00   0.0000000E+00   0.0000000E+00   0.0000000E+00   0.0000000E+00   0.0000000E+00   0.0000000E+00   0.0000000E+00   0.0000000E+00   0.0000000E+00   0.0000000E+00   0.0000000E+00   0.0000000E+00   0.0000000E+00   0.0000000E+00   0.0000000E+00   0.0000000E+00   0.0000000E+00   0.0000000E+00   0.0000000E+00   0.0000000E+00   0.0000000E+00   0.0000000E+00   0.0000000E+00   0.0000000E+00   0.0000000E+00   0.0000000E+00   0.0000000E+00   0.0000000E+00   0.0000000E+00   0.0000000E+00   0.0000000E+00   0.0000000E+00   0.0000000E+00   0.0000000E+00   0.0000000E+00   0.0000000E+00   0.0000000E+00   0.0000000E+00   0.0000000E+00   0.0000000E+00   0.0000000E+00   0.0000000E+00   0.0000000E+00   0.0000000E+00   0.0000000E+00   0.0000000E+00   0.0000000E+00   0.0000000E+00   0.0000000E+00   0.0000000E+00   0.0000000E+00   0.0000000E+00   0.0000000E+00   0.0000000E+00   0.0000000E+00   0.0000000E+00   0.0000000E+00   0.0000000E+00   0.0000000E+00   0.0000000E+00   0.0000000E+00   0.0000000E+00   0.0000000E+00   0.0000000E+00   0.0000000E+00   0.0000000E+00   0.0000000E+00   0.0000000E+00   0.0000000E+00   0.0000000E+00   0.0000000E+00   0.0000000E+00   0.0000000E+00   0.0000000E+00   0.0000000E+00   0.0000000E+00   0.0000000E+00   0.0000000E+00   0.0000000E+00   0.0000000E+00   0.0000000E+00   0.0000000E+00   0.0000000E+00   0.0000000E+00   0.0000000E+00   0.0000000E+00   0.0000000E+00   0.0000000E+00   0.0000000E+00   0.0000000E+00   0.0000000E+00   0.0000000E+00   0.0000000E+00   0.0000000E+00   0.0000000E+00   0.0000000E+00   0.0000000E+00   0.0000000E+00   0.0000000E+00   0.0000000E+00   0.0000000E+00   0.0000000E+00   0.0000000E+00   0.0000000E+00   0.0000000E+00   0.0000000E+00   0.0000000E+00   0.0000000E+00   0.0000000E+00   0.0000000E+00   0.0000000E+00   0.0000000E+00   0.0000000E+00   0.0000000E+00   0.0000000E+00   0.0000000E+00   0.0000000E+00   0.0000000E+00   0.0000000E+00   0.0000000E+00   0.0000000E+00   0.0000000E+00   0.0000000E+00   0.0000000E+00   0.0000000E+00   0.0000000E+00   0.0000000E+00   0.0000000E+00   0.0000000E+00   0.0000000E+00   0.0000000E+00   0.0000000E+00   0.0000000E+00   0.0000000E+00   0.0000000E+00   0.0000000E+00   0.0000000E+00   0.0000000E+00   0.0000000E+00   0.0000000E+00   0.0000000E+00   0.0000000E+00   0.0000000E+00   0.0000000E+00   0.0000000E+00   0.0000000E+00   0.0000000E+00   0.0000000E+00   0.0000000E+00   0.0000000E+00   0.0000000E+00   0.0000000E+00   0.0000000E+00   0.0000000E+00   0.0000000E+00   0.0000000E+00   0.0000000E+00   0.0000000E+00   0.0000000E+00   0.0000000E+00   0.0000000E+00   0.0000000E+00   0.0000000E+00   0.0000000E+00   0.0000000E+00   0.0000000E+00   0.0000000E+00   0.0000000E+00   0.0000000E+00   0.0000000E+00   0.0000000E+00   0.0000000E+00   0.0000000E+00   0.0000000E+00   0.0000000E+00   0.0000000E+00   0.0000000E+00   0.0000000E+00   0.0000000E+00   0.0000000E+00   0.0000000E+00   0.0000000E+00   0.0000000E+00   0.0000000E+00   0.0000000E+00   0.0000000E+00   0.0000000E+00   0.0000000E+00   0.0000000E+00   0.0000000E+00   0.0000000E+00   0.0000000E+00   0.0000000E+00   0.0000000E+00   0.0000000E+00   0.0000000E+00   0.0000000E+00   0.0000000E+00   0.0000000E+00   0.0000000E+00   0.0000000E+00   0.0000000E+00   0.0000000E+00   0.0000000E+00   0.0000000E+00   0.0000000E+00   0.0000000E+00   0.0000000E+00   0.0000000E+00   0.0000000E+00   0.0000000E+00   0.0000000E+00   0.0000000E+00   0.0000000E+00   0.0000000E+00   0.0000000E+00   0.0000000E+00   0.0000000E+00   0.0000000E+00   0.0000000E+00   0.0000000E+00   0.0000000E+00   0.0000000E+00   0.0000000E+00   0.0000000E+00   0.0000000E+00   0.0000000E+00   0.0000000E+00   0.0000000E+00   0.0000000E+00   0.0000000E+00   0.0000000E+00   0.0000000E+00   0.0000000E+00   0.0000000E+00   0.0000000E+00   0.0000000E+00   0.0000000E+00   0.0000000E+00   0.0000000E+00   0.0000000E+00   0.0000000E+00   0.0000000E+00   0.0000000E+00   0.0000000E+00   0.0000000E+00   0.0000000E+00   0.0000000E+00   0.0000000E+00   0.0000000E+00   0.0000000E+00   0.0000000E+00   0.0000000E+00   0.0000000E+00   0.0000000E+00   0.0000000E+00   0.0000000E+00   0.0000000E+00   0.0000000E+00   0.0000000E+00   0.0000000E+00   0.0000000E+00   0.0000000E+00   0.0000000E+00   0.0000000E+00   0.0000000E+00   0.0000000E+00   0.0000000E+00   0.0000000E+00   0.0000000E+00   0.0000000E+00   0.0000000E+00   0.0000000E+00   0.0000000E+00   0.0000000E+00   0.0000000E+00   0.0000000E+00   0.0000000E+00   0.0000000E+00   0.0000000E+00   0.0000000E+00   0.0000000E+00   0.0000000E+00   0.0000000E+00   0.0000000E+00   0.0000000E+00   0.0000000E+00   0.0000000E+00   0.0000000E+00   0.0000000E+00   0.0000000E+00   0.0000000E+00   0.0000000E+00   0.0000000E+00   0.0000000E+00   0.0000000E+00   0.0000000E+00   0.0000000E+00   0.0000000E+00   0.0000000E+00   0.0000000E+00   0.0000000E+00   0.0000000E+00   0.0000000E+00   0.0000000E+00   0.0000000E+00   0.0000000E+00   0.0000000E+00   0.0000000E+00   0.0000000E+00   0.0000000E+00   0.0000000E+00   0.0000000E+00   0.0000000E+00   0.0000000E+00   0.0000000E+00   0.0000000E+00   0.0000000E+00   0.0000000E+00   0.0000000E+00   0.0000000E+00   0.0000000E+00   0.0000000E+00   0.0000000E+00   0.0000000E+00   0.0000000E+00   0.0000000E+00   0.0000000E+00   0.0000000E+00   0.0000000E+00   0.0000000E+00   0.0000000E+00   0.0000000E+00   0.0000000E+00   0.0000000E+00   0.0000000E+00   0.0000000E+00   0.0000000E+00   0.0000000E+00   0.0000000E+00   0.0000000E+00   0.0000000E+00   0.0000000E+00   0.0000000E+00   0.0000000E+00   0.0000000E+00   0.0000000E+00   0.0000000E+00   0.0000000E+00   0.0000000E+00   0.0000000E+00   0.0000000E+00   0.0000000E+00   0.0000000E+00   0.0000000E+00   0.0000000E+00   0.0000000E+00   0.0000000E+00   0.0000000E+00   0.0000000E+00   0.0000000E+00   0.0000000E+00   0.0000000E+00   0.0000000E+00   0.0000000E+00   0.0000000E+00   0.0000000E+00   0.0000000E+00   0.0000000E+00   0.0000000E+00   0.0000000E+00   0.0000000E+00   0.0000000E+00   0.0000000E+00   0.0000000E+00   0.0000000E+00   0.0000000E+00   0.0000000E+00   0.0000000E+00   0.0000000E+00   0.0000000E+00   0.0000000E+00   0.0000000E+00   0.0000000E+00   0.0000000E+00   0.0000000E+00   0.0000000E+00   0.0000000E+00   0.0000000E+00   0.0000000E+00   0.0000000E+00   0.0000000E+00   0.0000000E+00   0.0000000E+00   0.0000000E+00   0.0000000E+00   0.0000000E+00   0.0000000E+00   0.0000000E+00   0.0000000E+00   0.0000000E+00   0.0000000E+00   0.0000000E+00   0.0000000E+00   0.0000000E+00   0.0000000E+00   0.0000000E+00   0.0000000E+00   0.0000000E+00   0.0000000E+00   0.0000000E+00   0.0000000E+00   0.0000000E+00   0.0000000E+00   0.0000000E+00   0.0000000E+00  -4.6121650E-03   0.0000000E+00  -1.8721482E-03  -5.6778882E-03   0.0000000E+00  -1.8257567E-03  -6.5975995E-03   0.0000000E+00  -1.6923947E-03  -7.3409369E-03   0.0000000E+00  -1.5087258E-03  -7.9034083E-03   0.0000000E+00  -1.3136580E-03  -4.3828711E-03   0.0000000E+00  -2.4096328E-03  -6.2636137E-03   0.0000000E+00  -2.2272663E-03  -7.9003777E-03   0.0000000E+00  -2.2469421E-03  -9.2474716E-03   0.0000000E+00  -2.1505801E-03  -1.0297629E-02   0.0000000E+00  -1.9662667E-03  -1.1072980E-02   0.0000000E+00  -1.7417155E-03  -6.0097771E-03   0.0000000E+00  -2.5588793E-03  -8.5693784E-03   0.0000000E+00  -2.4246895E-03  -1.0799523E-02   0.0000000E+00  -2.4171064E-03  -1.2644358E-02   0.0000000E+00  -2.3324073E-03  -1.4056477E-02   0.0000000E+00  -2.1808557E-03  -1.5087211E-02   0.0000000E+00  -1.9583509E-03  -7.9896282E-03   0.0000000E+00  -2.5758105E-03  -1.1308520E-02   0.0000000E+00  -2.3987212E-03  -1.4145787E-02   0.0000000E+00  -2.4181849E-03  -1.6476853E-02   0.0000000E+00  -2.3641780E-03  -1.8251030E-02   0.0000000E+00  -2.2429836E-03  -1.9534407E-02   0.0000000E+00  -2.0360306E-03  -1.0248398E-02   0.0000000E+00  -2.5486248E-03  -1.4369867E-02   0.0000000E+00  -2.2632298E-03  -1.7822912E-02   0.0000000E+00  -2.2903099E-03  -2.0621791E-02   0.0000000E+00  -2.2644666E-03  -2.2724481E-02   0.0000000E+00  -2.1805963E-03  -2.4231214E-02   0.0000000E+00  -2.0036495E-03  -1.2807546E-02   0.0000000E+00  -2.5412943E-03  -1.7778544E-02   0.0000000E+00  -2.0650921E-03  -2.1837641E-02   0.0000000E+00  -2.0634744E-03  -2.5074076E-02   0.0000000E+00  -2.0600604E-03  -2.7473096E-02   0.0000000E+00  -2.0240038E-03  -2.9168008E-02   0.0000000E+00  -1.8943724E-03  -1.5729463E-02   0.0000000E+00  -2.6702199E-03  -2.1609209E-02   0.0000000E+00  -1.8926418E-03  -2.6264530E-02   0.0000000E+00  -1.7997216E-03  -2.9911496E-02   0.0000000E+00  -1.8079535E-03  -3.2587092E-02   0.0000000E+00  -1.8181066E-03  -3.4449235E-02   0.0000000E+00  -1.7514748E-03  -1.9123519E-02   0.0000000E+00  -3.0426986E-03  -2.5955636E-02   0.0000000E+00  -1.8566243E-03  -3.1192949E-02   0.0000000E+00  -1.6105719E-03  -3.5244171E-02   0.0000000E+00  -1.5992270E-03  -3.8182512E-02   0.0000000E+00  -1.6459776E-03  -4.0200144E-02   0.0000000E+00  -1.6436795E-03  -2.3245800E-02   0.0000000E+00  -3.4751787E-03  -3.0882914E-02   0.0000000E+00  -1.9946904E-03  -3.6640603E-02   0.0000000E+00  -1.6356141E-03  -4.1129328E-02   0.0000000E+00  -1.5513179E-03  -4.4329483E-02   0.0000000E+00  -1.6296246E-03  -4.6498228E-02   0.0000000E+00  -1.6647036E-03  -2.8669477E-02   0.0000000E+00  -3.2557149E-03  -3.6559954E-02   0.0000000E+00  -2.1105383E-03  -4.2721674E-02   0.0000000E+00  -1.8101111E-03  -4.7601543E-02   0.0000000E+00  -1.7425310E-03  -5.1066365E-02   0.0000000E+00  -1.8579547E-03  -5.3357430E-02   0.0000000E+00  -1.9368859E-03  -3.5845932E-02   0.0000000E+00  -2.3307598E-03  -4.3260273E-02   0.0000000E+00  -2.1197104E-03  -4.9588464E-02   0.0000000E+00  -2.0840582E-03  -5.4725930E-02   0.0000000E+00  -2.2102287E-03  -5.8408566E-02   0.0000000E+00  -2.3932736E-03  -6.0782444E-02   0.0000000E+00  -2.5253394E-03  -4.3486640E-02   0.0000000E+00  -3.5118158E-03  -5.0957989E-02   0.0000000E+00  -3.0077395E-03  -5.7295620E-02   0.0000000E+00  -2.8673427E-03  -6.2578328E-02   0.0000000E+00  -3.0613695E-03  -6.6365667E-02   0.0000000E+00  -3.3352429E-03  -6.8763778E-02   0.0000000E+00  -3.5326744E-03  -5.1574260E-02   0.0000000E+00  -1.0249116E-02  -5.9387516E-02   0.0000000E+00  -7.6520639E-03  -6.5937415E-02   0.0000000E+00  -5.5720098E-03  -7.1173936E-02   0.0000000E+00  -5.0284890E-03  -7.4950621E-02   0.0000000E+00  -5.0248858E-03  -7.7343144E-02   0.0000000E+00  -5.0973040E-03  -6.1651904E-02   0.0000000E+00  -1.5678976E-02  -6.9222569E-02   0.0000000E+00  -1.3097611E-02  -7.5624071E-02   0.0000000E+00  -1.0038036E-02  -8.0660939E-02   0.0000000E+00  -8.3963498E-03  -8.4229790E-02   0.0000000E+00  -7.6731700E-03  -8.6554371E-02   0.0000000E+00  -7.3015876E-03  -7.3305242E-02   0.0000000E+00  -1.9178355E-02  -8.0419295E-02   0.0000000E+00  -1.7081749E-02  -8.6296141E-02   0.0000000E+00  -1.4433176E-02  -9.0882994E-02   0.0000000E+00  -1.2337910E-02  -9.4187148E-02   0.0000000E+00  -1.1004100E-02  -9.6444272E-02   0.0000000E+00  -1.0054616E-02  -8.5550442E-02   0.0000000E+00  -2.1830093E-02  -9.1966860E-02   0.0000000E+00  -2.0143418E-02  -9.7338937E-02   0.0000000E+00  -1.8168116E-02  -1.0161729E-01   0.0000000E+00  -1.6115397E-02  -1.0477349E-01   0.0000000E+00  -1.4462014E-02  -1.0702145E-01   0.0000000E+00  -1.3050712E-02  -9.7366557E-02   0.0000000E+00  -2.4324056E-02  -1.0338703E-01   0.0000000E+00  -2.2895452E-02  -1.0855921E-01   0.0000000E+00  -2.1313073E-02  -1.1277862E-01   0.0000000E+00  -1.9443169E-02  -1.1596908E-01   0.0000000E+00  -1.7687006E-02  -1.1829831E-01   0.0000000E+00  -1.6020915E-02  -1.0864233E-01   0.0000000E+00  -2.6742155E-02  -1.1474369E-01   0.0000000E+00  -2.5463900E-02  -1.2005676E-01   0.0000000E+00  -2.4069207E-02  -1.2444307E-01   0.0000000E+00  -2.2351794E-02  -1.2781543E-01   0.0000000E+00  -2.0585958E-02  -1.3029942E-01   0.0000000E+00  -1.8784206E-02  -1.1977243E-01   0.0000000E+00  -2.9105896E-02  -1.2635061E-01   0.0000000E+00  -2.7910208E-02  -1.3204697E-01   0.0000000E+00  -2.6567837E-02  -1.3673455E-01   0.0000000E+00  -2.4939498E-02  -1.4036119E-01   0.0000000E+00  -2.3167199E-02  -1.4304626E-01   0.0000000E+00  -2.1267455E-02  -1.3128351E-01   0.0000000E+00  -3.1356689E-02  -1.3848858E-01   0.0000000E+00  -3.0206714E-02  -1.4466779E-01   0.0000000E+00  -2.8872490E-02  -1.4972270E-01   0.0000000E+00  -2.7270639E-02  -1.5364401E-01   0.0000000E+00  -2.5465576E-02  -1.5656158E-01   0.0000000E+00  -2.3488104E-02  -1.4334063E-01   0.0000000E+00  -3.3444658E-02  -1.5122248E-01   0.0000000E+00  -3.2326002E-02  -1.5794522E-01   0.0000000E+00  -3.0999772E-02  -1.6342522E-01   0.0000000E+00  -2.9387053E-02  -1.6768794E-01   0.0000000E+00  -2.7522976E-02  -1.7086986E-01   0.0000000E+00  -2.5465375E-02  -1.5592591E-01   0.0000000E+00  -3.5301112E-02  -1.6454226E-01   0.0000000E+00  -3.4236766E-02  -1.7187919E-01   0.0000000E+00  -3.2931041E-02  -1.7784697E-01   0.0000000E+00  -3.1299591E-02  -1.8250503E-01   0.0000000E+00  -2.9349782E-02  -1.8599221E-01   0.0000000E+00  -2.7194111E-02  -1.6900983E-01   0.0000000E+00  -3.6875248E-02  -1.7843930E-01   0.0000000E+00  -3.5892237E-02  -1.8646994E-01   0.0000000E+00  -3.4625810E-02  -1.9299713E-01   0.0000000E+00  -3.2962047E-02  -1.9811338E-01   0.0000000E+00  -3.0900165E-02  -2.0195796E-01   0.0000000E+00  -2.8624270E-02  -1.8259563E-01   0.0000000E+00  -3.8118515E-02  -1.9293496E-01   0.0000000E+00  -3.7226364E-02  -2.0174183E-01   0.0000000E+00  -3.6003087E-02  -2.0890871E-01   0.0000000E+00  -3.4268804E-02  -2.1455006E-01   0.0000000E+00  -3.2076415E-02  -2.1880005E-01   0.0000000E+00  -2.9689347E-02  -1.9677010E-01   0.0000000E+00  -3.8980845E-02  -2.0810674E-01   0.0000000E+00  -3.8166229E-02  -2.1776421E-01   0.0000000E+00  -3.6938805E-02  -2.2565642E-01   0.0000000E+00  -3.5053227E-02  -2.3187450E-01   0.0000000E+00  -3.2758940E-02  -2.3657210E-01   0.0000000E+00  -3.0311184E-02  -2.1176414E-01   0.0000000E+00  -3.9427865E-02  -2.2411865E-01   0.0000000E+00  -3.8634021E-02  -2.3466347E-01   0.0000000E+00  -3.7276637E-02  -2.4334124E-01   0.0000000E+00  -3.5148900E-02  -2.5015754E-01   0.0000000E+00  -3.2852646E-02  -2.5532687E-01   0.0000000E+00  -3.0443469E-02  -2.2797015E-01   0.0000000E+00  -3.9440844E-02  -2.4120948E-01   0.0000000E+00  -3.8552970E-02  -2.5259313E-01   0.0000000E+00  -3.6874224E-02  -2.6204377E-01   0.0000000E+00  -3.4468386E-02  -2.6943517E-01   0.0000000E+00  -3.2348383E-02  -2.7508664E-01   0.0000000E+00  -3.0085748E-02  -2.4580240E-01   0.0000000E+00  -3.9034456E-02  -2.5955138E-01   0.0000000E+00  -3.7882935E-02  -2.7159694E-01   0.0000000E+00  -3.5642922E-02  -2.8169656E-01   0.0000000E+00  -3.3106618E-02  -2.8961617E-01   0.0000000E+00  -3.1331208E-02  -2.9572234E-01   0.0000000E+00  -2.9368037E-02  -2.6528364E-01   0.0000000E+00  -3.8272392E-02  -2.7893990E-01   0.0000000E+00  -3.6672309E-02  -2.9132858E-01   0.0000000E+00  -3.3691548E-02  -3.0184832E-01   0.0000000E+00  -3.1263120E-02  -3.1024116E-01   0.0000000E+00  -3.0044364E-02  -3.1675753E-01   0.0000000E+00  -2.8507425E-02  -2.8560176E-01   0.0000000E+00  -3.7296005E-02  -2.9848048E-01   0.0000000E+00  -3.5132069E-02  -3.1081313E-01   0.0000000E+00  -3.1426728E-02  -3.2148647E-01   0.0000000E+00  -2.9294696E-02  -3.3009350E-01   0.0000000E+00  -2.8879333E-02  -3.3712825E-01   0.0000000E+00  -2.7716730E-02  -3.0502459E-01   0.0000000E+00  -3.6462680E-02  -3.1669024E-01   0.0000000E+00  -3.3776581E-02  -3.2853556E-01   0.0000000E+00  -2.9572884E-02  -3.3927271E-01   0.0000000E+00  -2.7572401E-02  -3.4818867E-01   0.0000000E+00  -2.7526177E-02  -3.5550779E-01   0.0000000E+00  -2.6897086E-02  -3.2149091E-01   0.0000000E+00  -3.6636423E-02  -3.3223209E-01   0.0000000E+00  -3.3369709E-02  -3.4401149E-01   0.0000000E+00  -2.8949268E-02  -3.5469806E-01   0.0000000E+00  -2.6314331E-02  -3.6366519E-01   0.0000000E+00  -2.5918737E-02  -3.7127993E-01   0.0000000E+00  -2.5199261E-02  -3.3331978E-01   0.0000000E+00  -3.8405258E-02  -3.4435174E-01   0.0000000E+00  -3.4962535E-02  -3.5628983E-01   0.0000000E+00  -3.0932378E-02  -3.6714277E-01   0.0000000E+00  -2.6746331E-02  -3.7609950E-01   0.0000000E+00  -2.4369301E-02  -3.8352329E-01   0.0000000E+00  -2.2884144E-02  -3.3693177E-01   0.0000000E+00  -4.1661084E-02  -3.5011786E-01   0.0000000E+00  -3.8508162E-02  -3.6245278E-01   0.0000000E+00  -3.6613427E-02  -3.7347460E-01   0.0000000E+00  -3.2112744E-02  -3.8316053E-01   0.0000000E+00  -2.5682319E-02  -3.9112297E-01   0.0000000E+00  -2.1294104E-02  -3.2212138E-01   0.0000000E+00  -4.5219470E-02  -3.4495720E-01   0.0000000E+00  -4.1476034E-02  -3.5933959E-01   0.0000000E+00  -4.1669533E-02  -3.7097481E-01   0.0000000E+00  -4.0732075E-02  -3.8255101E-01   0.0000000E+00  -3.2637361E-02  -3.9195782E-01   0.0000000E+00  -2.4280632E-02  -2.4988413E-01   0.0000000E+00  -4.5157306E-02  -3.0641294E-01   0.0000000E+00  -4.1125655E-02  -3.3899716E-01   0.0000000E+00  -4.3993939E-02  -3.5279959E-01   0.0000000E+00  -4.8971869E-02  -3.6454916E-01   0.0000000E+00  -4.7928739E-02  -3.7703416E-01   0.0000000E+00  -3.9672367E-02  -1.5131670E-01   0.0000000E+00  -4.3276019E-02  -1.9696561E-01   0.0000000E+00  -3.8808841E-02  -2.4607363E-01   0.0000000E+00  -4.0248010E-02  -2.8461459E-01   0.0000000E+00  -4.8909377E-02  -3.0734184E-01   0.0000000E+00  -5.4754373E-02  -3.2138854E-01   0.0000000E+00  -5.7643097E-02  -8.6121932E-02   0.0000000E+00  -4.4582527E-02  -1.1236172E-01   0.0000000E+00  -3.5886295E-02  -1.4145151E-01   0.0000000E+00  -3.4893472E-02  -1.6697839E-01   0.0000000E+00  -4.0084440E-02  -1.8618122E-01   0.0000000E+00  -4.5269944E-02  -1.9962721E-01   0.0000000E+00  -4.8586361E-02  -5.3602826E-02   0.0000000E+00  -4.6900965E-02  -6.7073636E-02   0.0000000E+00  -3.2651465E-02  -8.1550002E-02   0.0000000E+00  -2.9222280E-02  -9.5027156E-02   0.0000000E+00  -2.9353252E-02  -1.0602811E-01   0.0000000E+00  -3.3035930E-02  -1.1464170E-01   0.0000000E+00  -3.5309162E-02  -3.7526045E-02   0.0000000E+00  -4.7180500E-02  -4.3159742E-02   0.0000000E+00  -3.0503290E-02  -4.8443627E-02   0.0000000E+00  -2.6544586E-02  -5.3366181E-02   0.0000000E+00  -2.1060487E-02  -5.7663638E-02   0.0000000E+00  -2.3170210E-02  -6.1440323E-02   0.0000000E+00  -2.2411950E-02  -2.0086741E-02   0.0000000E+00  -4.6697747E-02  -1.9985743E-02   0.0000000E+00  -2.8818978E-02  -1.8910164E-02   0.0000000E+00  -2.4619158E-02  -1.7690759E-02   0.0000000E+00  -1.8956132E-02  -1.7083017E-02   0.0000000E+00  -1.9289779E-02  -1.7184587E-02   0.0000000E+00  -1.6490277E-02   9.0680728E-03   0.0000000E+00  -4.6132535E-02   1.5415479E-02   0.0000000E+00  -2.7742535E-02   2.2515453E-02   0.0000000E+00  -2.2845857E-02   2.8824156E-02   0.0000000E+00  -2.1040687E-02   3.2873262E-02   0.0000000E+00  -2.2746084E-02   3.4753881E-02   0.0000000E+00  -1.8272275E-02   5.0069243E-02   0.0000000E+00  -4.5907117E-02   6.4284347E-02   0.0000000E+00  -2.7866589E-02   7.8438386E-02   0.0000000E+00  -2.2772174E-02   8.9791954E-02   0.0000000E+00  -2.3693712E-02   9.6519247E-02   0.0000000E+00  -2.7398273E-02   9.8771960E-02   0.0000000E+00  -2.4488490E-02   9.6659318E-02   0.0000000E+00  -4.6202436E-02   1.2000784E-01   0.0000000E+00  -2.9427834E-02   1.4223863E-01   0.0000000E+00  -2.4972700E-02   1.5918303E-01   0.0000000E+00  -2.6982561E-02   1.6823690E-01   0.0000000E+00  -3.1748354E-02   1.7006746E-01   0.0000000E+00  -3.1617440E-02   1.4222752E-01   0.0000000E+00  -4.7041912E-02   1.7486279E-01   0.0000000E+00  -3.2439150E-02   2.0547403E-01   0.0000000E+00  -2.8865898E-02   2.2834975E-01   0.0000000E+00  -3.1341743E-02   2.3976035E-01   0.0000000E+00  -3.5993200E-02   2.4147063E-01   0.0000000E+00  -3.7642773E-02   1.8332490E-01   0.0000000E+00  -4.8452392E-02   2.2439241E-01   0.0000000E+00  -3.6724497E-02   2.6253164E-01   0.0000000E+00  -3.3864420E-02   2.8989431E-01   0.0000000E+00  -3.5699818E-02   3.0510488E-01   0.0000000E+00  -3.9650481E-02   3.0792066E-01   0.0000000E+00  -4.2024143E-02   2.1970779E-01   0.0000000E+00  -5.0770693E-02   2.6724228E-01   0.0000000E+00  -4.2235799E-02   3.0963528E-01   0.0000000E+00  -3.8672496E-02   3.4148335E-01   0.0000000E+00  -3.8783561E-02   3.6076558E-01   0.0000000E+00  -4.1882437E-02   3.6590269E-01   0.0000000E+00  -4.4377055E-02   2.5261387E-01   0.0000000E+00  -5.3673979E-02   3.0232322E-01   0.0000000E+00  -4.7691707E-02   3.4743908E-01   0.0000000E+00  -4.4774011E-02   3.8426280E-01   0.0000000E+00  -4.2217299E-02   4.0388545E-01   0.0000000E+00  -4.4364270E-02   4.0641895E-01   0.0000000E+00  -4.7048509E-02   2.8441712E-01   0.0000000E+00  -5.6505769E-02   3.3447853E-01   0.0000000E+00  -5.2094486E-02   3.8037732E-01   0.0000000E+00  -5.0771970E-02   4.1751769E-01   0.0000000E+00  -4.7163393E-02   4.3187606E-01   0.0000000E+00  -4.9553964E-02   4.3147215E-01   0.0000000E+00  -5.1271934E-02   3.1673032E-01   0.0000000E+00  -5.9221163E-02   3.6603415E-01   0.0000000E+00  -5.5957042E-02   4.1046610E-01   0.0000000E+00  -5.5404842E-02   4.4080365E-01   0.0000000E+00  -5.4026168E-02   4.4707882E-01   0.0000000E+00  -5.7460122E-02   4.4314718E-01   0.0000000E+00  -5.6598645E-02   3.5008049E-01   0.0000000E+00  -6.1675057E-02   3.9714238E-01   0.0000000E+00  -5.9050243E-02   4.3766558E-01   0.0000000E+00  -5.9000719E-02   4.5407918E-01   0.0000000E+00  -6.0763281E-02   4.5494556E-01   0.0000000E+00  -6.3316919E-02   4.4860899E-01   0.0000000E+00  -6.0063429E-02   3.8488710E-01   0.0000000E+00  -6.3521340E-02   4.2748374E-01   0.0000000E+00  -6.0499568E-02   4.5652029E-01   0.0000000E+00  -6.2198132E-02   4.6243465E-01   0.0000000E+00  -6.4672276E-02   4.5922583E-01   0.0000000E+00  -6.5986291E-02   4.5059639E-01   0.0000000E+00  -6.1596576E-02   4.2111346E-01   0.0000000E+00  -6.5002650E-02   4.5506531E-01   0.0000000E+00  -6.0462568E-02   4.6722358E-01   0.0000000E+00  -6.2697083E-02   4.6657082E-01   0.0000000E+00  -6.4559683E-02   4.6045125E-01   0.0000000E+00  -6.5047078E-02   4.5070270E-01   0.0000000E+00  -6.0902022E-02   4.5724055E-01   0.0000000E+00  -6.0946267E-02   4.7052234E-01   0.0000000E+00  -5.8645792E-02   4.7230572E-01   0.0000000E+00  -6.0255215E-02   4.6794680E-01   0.0000000E+00  -6.1557826E-02   4.6042997E-01   0.0000000E+00  -6.2052049E-02   4.4992977E-01   0.0000000E+00  -5.8660042E-02   4.7075701E-01   0.0000000E+00  -5.7182107E-02   4.7660044E-01   0.0000000E+00  -5.6330424E-02   4.7282180E-01   0.0000000E+00  -5.5937443E-02   4.6731505E-01   0.0000000E+00  -5.6551021E-02   4.5962462E-01   0.0000000E+00  -5.7476200E-02   4.4856086E-01   0.0000000E+00  -5.4855812E-02   4.7686067E-01   0.0000000E+00  -5.3454142E-02   4.7064373E-01   0.0000000E+00  -5.1719394E-02   4.6485654E-01   0.0000000E+00  -5.0433483E-02   4.5776254E-01   0.0000000E+00  -5.1459312E-02   4.4674110E-01   0.0000000E+00  -5.0095256E-02   4.7263452E-01   0.0000000E+00  -5.0194159E-02   4.6725905E-01   0.0000000E+00  -4.7762580E-02   4.6073902E-01   0.0000000E+00  -4.4658065E-02   4.5443743E-01   0.0000000E+00  -4.4790275E-02   4.4445392E-01   0.0000000E+00  -4.4563979E-02   4.6329385E-01   0.0000000E+00  -4.4070050E-02   4.5633522E-01   0.0000000E+00  -4.0136021E-02   4.4973519E-01   0.0000000E+00  -3.8016949E-02   4.4142675E-01   0.0000000E+00  -3.8608391E-02   4.5677805E-01   0.0000000E+00  -4.0682882E-02   4.5195758E-01   0.0000000E+00  -3.6560681E-02   4.4453326E-01   0.0000000E+00  -3.2354690E-02   4.3735451E-01   0.0000000E+00  -3.2405663E-02   4.4627437E-01   0.0000000E+00  -3.4249883E-02   4.3939602E-01   0.0000000E+00  -2.9118856E-02   4.3256482E-01   0.0000000E+00  -2.6962893E-02   4.3302616E-01   0.0000000E+00  -2.7736973E-02   4.2723975E-01   0.0000000E+00  -2.4083311E-02   4.1937456E-01   0.0000000E+00  -2.6626319E-02   4.1953072E-01   0.0000000E+00  -2.3284698E-02  -8.3120288E-03   0.0000000E+00  -1.1253619E-03  -8.5998140E-03   0.0000000E+00  -9.4005541E-04  -8.7912800E-03   0.0000000E+00  -7.7329820E-04  -8.9101093E-03   0.0000000E+00  -6.2718091E-04  -8.9810528E-03   0.0000000E+00  -4.9156166E-04  -9.0186950E-03   0.0000000E+00  -3.7229463E-04  -9.0358648E-03   0.0000000E+00  -2.6765582E-04  -9.0424456E-03   0.0000000E+00  -1.7188159E-04  -9.0440242E-03   0.0000000E+00  -8.3830178E-05  -1.1626136E-02   0.0000000E+00  -1.4980240E-03  -1.2002796E-02   0.0000000E+00  -1.2666507E-03  -1.2246842E-02   0.0000000E+00  -1.0559089E-03  -1.2398634E-02   0.0000000E+00  -8.5940660E-04  -1.2485446E-02   0.0000000E+00  -6.8129401E-04  -1.2529530E-02   0.0000000E+00  -5.2225171E-04  -1.2548267E-02   0.0000000E+00  -3.7767368E-04  -1.2553887E-02   0.0000000E+00  -2.4436705E-04  -1.2554072E-02   0.0000000E+00  -1.1994503E-04  -1.5803656E-02   0.0000000E+00  -1.7150192E-03  -1.6283475E-02   0.0000000E+00  -1.4707881E-03  -1.6591778E-02   0.0000000E+00  -1.2394877E-03  -1.6780889E-02   0.0000000E+00  -1.0201745E-03  -1.6886998E-02   0.0000000E+00  -8.1763044E-04  -1.6939171E-02   0.0000000E+00  -6.3311716E-04  -1.6960207E-02   0.0000000E+00  -4.6066873E-04  -1.6964791E-02   0.0000000E+00  -3.0027566E-04  -1.6963441E-02   0.0000000E+00  -1.4820401E-04  -2.0411858E-02   0.0000000E+00  -1.8046829E-03  -2.0992864E-02   0.0000000E+00  -1.5661021E-03  -2.1365242E-02   0.0000000E+00  -1.3300674E-03  -2.1590482E-02   0.0000000E+00  -1.1068607E-03  -2.1715280E-02   0.0000000E+00  -8.9700922E-04  -2.1776244E-02   0.0000000E+00  -6.9867441E-04  -2.1799199E-02   0.0000000E+00  -5.1256135E-04  -2.1802919E-02   0.0000000E+00  -3.3634261E-04  -2.1800201E-02   0.0000000E+00  -1.6678905E-04  -2.5250137E-02   0.0000000E+00  -1.7939046E-03  -2.5919212E-02   0.0000000E+00  -1.5723540E-03  -2.6346093E-02   0.0000000E+00  -1.3464018E-03  -2.6601523E-02   0.0000000E+00  -1.1318796E-03  -2.6742179E-02   0.0000000E+00  -9.2516572E-04  -2.6809515E-02   0.0000000E+00  -7.2689087E-04  -2.6833685E-02   0.0000000E+00  -5.3763413E-04  -2.6836421E-02   0.0000000E+00  -3.5498652E-04  -2.6832433E-02   0.0000000E+00  -1.7633615E-04  -3.0304594E-02   0.0000000E+00  -1.7221340E-03  -3.1046562E-02   0.0000000E+00  -1.5232948E-03  -3.1514261E-02   0.0000000E+00  -1.3203317E-03  -3.1791613E-02   0.0000000E+00  -1.1215053E-03  -3.1942420E-02   0.0000000E+00  -9.2564989E-04  -3.2013036E-02   0.0000000E+00  -7.3507952E-04  -3.2036994E-02   0.0000000E+00  -5.4824573E-04  -3.2038152E-02   0.0000000E+00  -3.6395033E-04  -3.2032557E-02   0.0000000E+00  -1.8156116E-04  -3.5684150E-02   0.0000000E+00  -1.6327217E-03  -3.6482476E-02   0.0000000E+00  -1.4700736E-03  -3.6978807E-02   0.0000000E+00  -1.2958520E-03  -3.7269291E-02   0.0000000E+00  -1.1144527E-03  -3.7424076E-02   0.0000000E+00  -9.3176361E-04  -3.7494343E-02   0.0000000E+00  -7.4825599E-04  -3.7516173E-02   0.0000000E+00  -5.6318846E-04  -3.7514664E-02   0.0000000E+00  -3.7668739E-04  -3.7506994E-02   0.0000000E+00  -1.8875764E-04  -4.1519508E-02   0.0000000E+00  -1.5849043E-03  -4.2359989E-02   0.0000000E+00  -1.4684922E-03  -4.2874586E-02   0.0000000E+00  -1.3235913E-03  -4.3170039E-02   0.0000000E+00  -1.1590929E-03  -4.3323506E-02   0.0000000E+00  -9.8306965E-04  -4.3390024E-02   0.0000000E+00  -7.9799513E-04  -4.3407477E-02   0.0000000E+00  -6.0602446E-04  -4.3402147E-02   0.0000000E+00  -4.0807034E-04  -4.3391842E-02   0.0000000E+00  -2.0541142E-04  -4.7886968E-02   0.0000000E+00  -1.6613773E-03  -4.8757140E-02   0.0000000E+00  -1.5908603E-03  -4.9282234E-02   0.0000000E+00  -1.4681267E-03  -4.9577769E-02   0.0000000E+00  -1.3079914E-03  -4.9726550E-02   0.0000000E+00  -1.1224420E-03  -4.9786869E-02   0.0000000E+00  -9.1868488E-04  -4.9798284E-02   0.0000000E+00  -7.0161844E-04  -4.9788006E-02   0.0000000E+00  -4.7421304E-04  -4.9774475E-02   0.0000000E+00  -2.3923976E-04  -5.4798514E-02   0.0000000E+00  -1.9605460E-03  -5.5687565E-02   0.0000000E+00  -1.9164478E-03  -5.6219053E-02   0.0000000E+00  -1.7980514E-03  -5.6513954E-02   0.0000000E+00  -1.6159831E-03  -5.6657784E-02   0.0000000E+00  -1.3926870E-03  -5.6711473E-02   0.0000000E+00  -1.1418593E-03  -5.6716301E-02   0.0000000E+00  -8.7266794E-04  -5.6700502E-02   0.0000000E+00  -5.8987620E-04  -5.6683339E-02   0.0000000E+00  -2.9761979E-04  -6.2249977E-02   0.0000000E+00  -2.5741027E-03  -6.3151054E-02   0.0000000E+00  -2.5277555E-03  -6.3691236E-02   0.0000000E+00  -2.3765995E-03  -6.3989908E-02   0.0000000E+00  -2.1324796E-03  -6.4132832E-02   0.0000000E+00  -1.8318448E-03  -6.4181961E-02   0.0000000E+00  -1.4960440E-03  -6.4180613E-02   0.0000000E+00  -1.1393229E-03  -6.4159110E-02   0.0000000E+00  -7.6849794E-04  -6.4138018E-02   0.0000000E+00  -3.8716436E-04  -7.0252635E-02   0.0000000E+00  -3.5656502E-03  -7.1166426E-02   0.0000000E+00  -3.4818656E-03  -7.1725853E-02   0.0000000E+00  -3.2373255E-03  -7.2037108E-02   0.0000000E+00  -2.8824727E-03  -7.2185636E-02   0.0000000E+00  -2.4555519E-03  -7.2233550E-02   0.0000000E+00  -1.9936820E-03  -7.2227858E-02   0.0000000E+00  -1.5113194E-03  -7.2202072E-02   0.0000000E+00  -1.0170670E-03  -7.2177865E-02   0.0000000E+00  -5.1202305E-04  -7.8831322E-02   0.0000000E+00  -5.0388095E-03  -7.9781666E-02   0.0000000E+00  -4.7696568E-03  -8.0367461E-02   0.0000000E+00  -4.3749614E-03  -8.0701776E-02   0.0000000E+00  -3.8573269E-03  -8.0861248E-02   0.0000000E+00  -3.2729364E-03  -8.0913417E-02   0.0000000E+00  -2.6521015E-03  -8.0907404E-02   0.0000000E+00  -2.0090013E-03  -8.0879621E-02   0.0000000E+00  -1.3469062E-03  -8.0853403E-02   0.0000000E+00  -6.7420112E-04  -8.8051505E-02   0.0000000E+00  -6.9231801E-03  -8.9037240E-02   0.0000000E+00  -6.4162822E-03  -8.9664936E-02   0.0000000E+00  -5.7872245E-03  -9.0031028E-02   0.0000000E+00  -5.0606462E-03  -9.0212218E-02   0.0000000E+00  -4.2736474E-03  -9.0275779E-02   0.0000000E+00  -3.4514833E-03  -9.0274081E-02   0.0000000E+00  -2.6079931E-03  -9.0246454E-02   0.0000000E+00  -1.7469996E-03  -9.0219669E-02   0.0000000E+00  -8.7878737E-04  -9.7958140E-02   0.0000000E+00  -9.2318384E-03  -9.8988362E-02   0.0000000E+00  -8.3823400E-03  -9.9661954E-02   0.0000000E+00  -7.4767512E-03  -1.0006858E-01   0.0000000E+00  -6.4901300E-03  -1.0028147E-01   0.0000000E+00  -5.4501328E-03  -1.0036658E-01   0.0000000E+00  -4.3807300E-03  -1.0037736E-01   0.0000000E+00  -3.2955448E-03  -1.0035520E-01   0.0000000E+00  -2.1997474E-03  -1.0033108E-01   0.0000000E+00  -1.0997825E-03  -1.0858531E-01   0.0000000E+00  -1.1792527E-02  -1.0967641E-01   0.0000000E+00  -1.0586464E-02  -1.1040429E-01   0.0000000E+00  -9.3596652E-03  -1.1086001E-01   0.0000000E+00  -8.0827894E-03  -1.1111320E-01   0.0000000E+00  -6.7677493E-03  -1.1122899E-01   0.0000000E+00  -5.4263603E-03  -1.1126118E-01   0.0000000E+00  -4.0690945E-03  -1.1125427E-01   0.0000000E+00  -2.7129811E-03  -1.1123775E-01   0.0000000E+00  -1.3566015E-03  -1.1995678E-01   0.0000000E+00  -1.4428566E-02  -1.2112533E-01   0.0000000E+00  -1.2879858E-02  -1.2192610E-01   0.0000000E+00  -1.1333905E-02  -1.2244360E-01   0.0000000E+00  -9.7673731E-03  -1.2275021E-01   0.0000000E+00  -8.1680501E-03  -1.2290969E-01   0.0000000E+00  -6.5486352E-03  -1.2297461E-01   0.0000000E+00  -4.9206102E-03  -1.2298927E-01   0.0000000E+00  -3.2855789E-03  -1.2298576E-01   0.0000000E+00  -1.6456022E-03  -1.3208592E-01   0.0000000E+00  -1.6957738E-02  -1.3336183E-01   0.0000000E+00  -1.5139335E-02  -1.3425672E-01   0.0000000E+00  -1.3321073E-02  -1.3485633E-01   0.0000000E+00  -1.1476155E-02  -1.3523608E-01   0.0000000E+00  -9.6052149E-03  -1.3545468E-01   0.0000000E+00  -7.7123237E-03  -1.3556571E-01   0.0000000E+00  -5.8042668E-03  -1.3561362E-01   0.0000000E+00  -3.8843942E-03  -1.3562864E-01   0.0000000E+00  -1.9446274E-03  -1.4499265E-01   0.0000000E+00  -1.9287918E-02  -1.4640753E-01   0.0000000E+00  -1.7273910E-02  -1.4742516E-01   0.0000000E+00  -1.5226076E-02  -1.4813636E-01   0.0000000E+00  -1.3150587E-02  -1.4861231E-01   0.0000000E+00  -1.1024520E-02  -1.4891194E-01   0.0000000E+00  -8.8648880E-03  -1.4908619E-01   0.0000000E+00  -6.6809426E-03  -1.4917825E-01   0.0000000E+00  -4.4666720E-03  -1.4922103E-01   0.0000000E+00  -2.2382094E-03  -1.5870093E-01   0.0000000E+00  -2.1390470E-02  -1.6028757E-01   0.0000000E+00  -1.9223483E-02  -1.6146526E-01   0.0000000E+00  -1.7000491E-02  -1.6232070E-01   0.0000000E+00  -1.4714160E-02  -1.6292208E-01   0.0000000E+00  -1.2361711E-02  -1.6332705E-01   0.0000000E+00  -9.9592693E-03  -1.6358347E-01   0.0000000E+00  -7.5031524E-03  -1.6373558E-01   0.0000000E+00  -5.0213048E-03  -1.6381352E-01   0.0000000E+00  -2.5162196E-03  -1.7323571E-01   0.0000000E+00  -2.3256497E-02  -1.7502965E-01   0.0000000E+00  -2.0951105E-02  -1.7640287E-01   0.0000000E+00  -1.8577261E-02  -1.7743945E-01   0.0000000E+00  -1.6107542E-02  -1.7820030E-01   0.0000000E+00  -1.3557441E-02  -1.7873655E-01   0.0000000E+00  -1.0931780E-02  -1.7909820E-01   0.0000000E+00  -8.2500093E-03  -1.7932512E-01   0.0000000E+00  -5.5237482E-03  -1.7944750E-01   0.0000000E+00  -2.7695063E-03  -1.8862478E-01   0.0000000E+00  -2.4858121E-02  -1.9065982E-01   0.0000000E+00  -2.2421815E-02  -1.9226728E-01   0.0000000E+00  -1.9894868E-02  -1.9351956E-01   0.0000000E+00  -1.7268801E-02  -1.9447105E-01   0.0000000E+00  -1.4558509E-02  -1.9516689E-01   0.0000000E+00  -1.1753617E-02  -1.9565545E-01   0.0000000E+00  -8.8852579E-03  -1.9597280E-01   0.0000000E+00  -5.9570884E-03  -1.9614972E-01   0.0000000E+00  -2.9884672E-03  -2.0489226E-01   0.0000000E+00  -2.6158061E-02  -2.0720603E-01   0.0000000E+00  -2.3580370E-02  -2.0907801E-01   0.0000000E+00  -2.0912973E-02  -2.1057612E-01   0.0000000E+00  -1.8158033E-02  -2.1174644E-01   0.0000000E+00  -1.5322855E-02  -2.1262920E-01   0.0000000E+00  -1.2392571E-02  -2.1326636E-01   0.0000000E+00  -9.3850549E-03  -2.1369086E-01   0.0000000E+00  -6.3033635E-03  -2.1393220E-01   0.0000000E+00  -3.1652083E-03  -2.2207440E-01   0.0000000E+00  -2.7097993E-02  -2.2469619E-01   0.0000000E+00  -2.4384361E-02  -2.2685789E-01   0.0000000E+00  -2.1597678E-02  -2.2862232E-01   0.0000000E+00  -1.8751770E-02  -2.3003368E-01   0.0000000E+00  -1.5837288E-02  -2.3112623E-01   0.0000000E+00  -1.2832885E-02  -2.3193215E-01   0.0000000E+00  -9.7377459E-03  -2.3248002E-01   0.0000000E+00  -6.5533998E-03  -2.3279589E-01   0.0000000E+00  -3.2955171E-03  -2.4021380E-01   0.0000000E+00  -2.7639365E-02  -2.4316639E-01   0.0000000E+00  -2.4823587E-02  -2.4562852E-01   0.0000000E+00  -2.1958655E-02  -2.4767065E-01   0.0000000E+00  -1.9062061E-02  -2.4933805E-01   0.0000000E+00  -1.6113639E-02  -2.5065708E-01   0.0000000E+00  -1.3080482E-02  -2.5164914E-01   0.0000000E+00  -9.9487444E-03  -2.5233403E-01   0.0000000E+00  -6.7076324E-03  -2.5273374E-01   0.0000000E+00  -3.3790390E-03  -2.5935942E-01   0.0000000E+00  -2.7767835E-02  -2.6265112E-01   0.0000000E+00  -2.4934968E-02  -2.6541314E-01   0.0000000E+00  -2.2050092E-02  -2.6773524E-01   0.0000000E+00  -1.9139623E-02  -2.6966453E-01   0.0000000E+00  -1.6189612E-02  -2.7121970E-01   0.0000000E+00  -1.3163338E-02  -2.7240935E-01   0.0000000E+00  -1.0032751E-02  -2.7324292E-01   0.0000000E+00  -6.7791166E-03  -2.7373362E-01   0.0000000E+00  -3.4202761E-03  -2.7951533E-01   0.0000000E+00  -2.7541701E-02  -2.8314626E-01   0.0000000E+00  -2.4808163E-02  -2.8621328E-01   0.0000000E+00  -2.1970760E-02  -2.8881380E-01   0.0000000E+00  -1.9064931E-02  -2.9100254E-01   0.0000000E+00  -1.6122073E-02  -2.9279587E-01   0.0000000E+00  -1.3122641E-02  -2.9418805E-01   0.0000000E+00  -1.0016217E-02  -2.9517624E-01   0.0000000E+00  -6.7820121E-03  -2.9576495E-01   0.0000000E+00  -3.4278324E-03  -3.0054367E-01   0.0000000E+00  -2.7082017E-02  -3.0453026E-01   0.0000000E+00  -2.4539700E-02  -3.0791926E-01   0.0000000E+00  -2.1796633E-02  -3.1080773E-01   0.0000000E+00  -1.8921025E-02  -3.1325331E-01   0.0000000E+00  -1.5977342E-02  -3.1527877E-01   0.0000000E+00  -1.2990849E-02  -3.1687266E-01   0.0000000E+00  -9.9242069E-03  -3.1801894E-01   0.0000000E+00  -6.7255427E-03  -3.1870866E-01   0.0000000E+00  -3.4006871E-03  -3.2198888E-01   0.0000000E+00  -2.6547303E-02  -3.2637697E-01   0.0000000E+00  -2.4194906E-02  -3.3013558E-01   0.0000000E+00  -2.1575099E-02  -3.3334687E-01   0.0000000E+00  -1.8735183E-02  -3.3606455E-01   0.0000000E+00  -1.5787762E-02  -3.3832332E-01   0.0000000E+00  -1.2803935E-02  -3.4011593E-01   0.0000000E+00  -9.7571202E-03  -3.4142143E-01   0.0000000E+00  -6.6078361E-03  -3.4221303E-01   0.0000000E+00  -3.3379882E-03  -3.4283134E-01   0.0000000E+00  -2.6060406E-02  -3.4770951E-01   0.0000000E+00  -2.3869649E-02  -3.5193110E-01   0.0000000E+00  -2.1307763E-02  -3.5553443E-01   0.0000000E+00  -1.8499926E-02  -3.5857457E-01   0.0000000E+00  -1.5550890E-02  -3.6109230E-01   0.0000000E+00  -1.2553567E-02  -3.6309516E-01   0.0000000E+00  -9.5212366E-03  -3.6456275E-01   0.0000000E+00  -6.4244177E-03  -3.6546105E-01   0.0000000E+00  -3.2401131E-03  -3.6176991E-01   0.0000000E+00  -2.5385311E-02  -3.6717781E-01   0.0000000E+00  -2.3305636E-02  -3.7189490E-01   0.0000000E+00  -2.0843368E-02  -3.7593529E-01   0.0000000E+00  -1.8090175E-02  -3.7931728E-01   0.0000000E+00  -1.5151493E-02  -3.8211140E-01   0.0000000E+00  -1.2166697E-02  -3.8432744E-01   0.0000000E+00  -9.1796881E-03  -3.8595507E-01   0.0000000E+00  -6.1566145E-03  -3.8695616E-01   0.0000000E+00  -3.0953921E-03  -3.7778521E-01   0.0000000E+00  -2.3895996E-02  -3.8361475E-01   0.0000000E+00  -2.1974545E-02  -3.8875481E-01   0.0000000E+00  -1.9687869E-02  -3.9315671E-01   0.0000000E+00  -1.7066171E-02  -3.9686596E-01   0.0000000E+00  -1.4196351E-02  -3.9987841E-01   0.0000000E+00  -1.1323402E-02  -4.0227336E-01   0.0000000E+00  -8.4618302E-03  -4.0402848E-01   0.0000000E+00  -5.6445859E-03  -4.0511262E-01   0.0000000E+00  -2.8248576E-03  -3.9004421E-01   0.0000000E+00  -2.1426957E-02  -3.9617816E-01   0.0000000E+00  -1.9544968E-02  -4.0167373E-01   0.0000000E+00  -1.7471170E-02  -4.0636721E-01   0.0000000E+00  -1.5116678E-02  -4.1033450E-01   0.0000000E+00  -1.2479150E-02  -4.1355550E-01   0.0000000E+00  -9.8167546E-03  -4.1607136E-01   0.0000000E+00  -7.2489553E-03  -4.1792718E-01   0.0000000E+00  -4.7672233E-03  -4.1907519E-01   0.0000000E+00  -2.3681379E-03  -3.9800811E-01   0.0000000E+00  -1.8509207E-02  -4.0436518E-01   0.0000000E+00  -1.6323721E-02  -4.1012979E-01   0.0000000E+00  -1.4310728E-02  -4.1509050E-01   0.0000000E+00  -1.2198232E-02  -4.1921142E-01   0.0000000E+00  -9.9908644E-03  -4.2256737E-01   0.0000000E+00  -7.7281785E-03  -4.2518753E-01   0.0000000E+00  -5.5188634E-03  -4.2706770E-01   0.0000000E+00  -3.4937491E-03  -4.2822352E-01   0.0000000E+00  -1.6921295E-03  -3.9951473E-01   0.0000000E+00  -1.8778887E-02  -4.0649113E-01   0.0000000E+00  -1.4911014E-02  -4.1284421E-01   0.0000000E+00  -1.2056028E-02  -4.1837424E-01   0.0000000E+00  -9.6942428E-03  -4.2295676E-01   0.0000000E+00  -7.4951630E-03  -4.2658281E-01   0.0000000E+00  -5.4688319E-03  -4.2935055E-01   0.0000000E+00  -3.6415819E-03  -4.3132541E-01   0.0000000E+00  -2.1330193E-03  -4.3252513E-01   0.0000000E+00  -9.5417735E-04  -3.8773748E-01   0.0000000E+00  -3.0181846E-02  -3.9720365E-01   0.0000000E+00  -2.2381892E-02  -4.0572438E-01   0.0000000E+00  -1.6471362E-02  -4.1292340E-01   0.0000000E+00  -1.2370782E-02  -4.1872805E-01   0.0000000E+00  -9.4041945E-03  -4.2322150E-01   0.0000000E+00  -6.8970490E-03  -4.2668208E-01   0.0000000E+00  -4.5602899E-03  -4.2912576E-01   0.0000000E+00  -2.5971397E-03  -4.3055764E-01   0.0000000E+00  -1.1289907E-03  -3.3425751E-01   0.0000000E+00  -5.7571158E-02  -3.4672087E-01   0.0000000E+00  -5.2434061E-02  -3.5906264E-01   0.0000000E+00  -4.4195089E-02  -3.7059382E-01   0.0000000E+00  -3.6381330E-02  -3.8025436E-01   0.0000000E+00  -2.9416066E-02  -3.8782012E-01   0.0000000E+00  -2.2943340E-02  -3.9363092E-01   0.0000000E+00  -1.6840478E-02  -3.9780286E-01   0.0000000E+00  -1.1045674E-02  -4.0027547E-01   0.0000000E+00  -5.4566343E-03  -2.1038584E-01   0.0000000E+00  -4.8487529E-02  -2.2060412E-01   0.0000000E+00  -4.2305898E-02  -2.3082933E-01   0.0000000E+00  -3.4731213E-02  -2.4052672E-01   0.0000000E+00  -2.8116288E-02  -2.4918503E-01   0.0000000E+00  -2.2663560E-02  -2.5651410E-01   0.0000000E+00  -1.7818531E-02  -2.6235366E-01   0.0000000E+00  -1.3153515E-02  -2.6660323E-01   0.0000000E+00  -8.6073000E-03  -2.6918966E-01   0.0000000E+00  -4.2346572E-03  -1.2211160E-01   0.0000000E+00  -3.1657115E-02  -1.2977928E-01   0.0000000E+00  -2.5998248E-02  -1.3773179E-01   0.0000000E+00  -2.0927846E-02  -1.4552929E-01   0.0000000E+00  -1.6845077E-02  -1.5274674E-01   0.0000000E+00  -1.3675544E-02  -1.5907104E-01   0.0000000E+00  -1.0831825E-02  -1.6425712E-01   0.0000000E+00  -7.9768784E-03  -1.6811147E-01   0.0000000E+00  -5.1557911E-03  -1.7048807E-01   0.0000000E+00  -2.5001001E-03  -6.5160818E-02   0.0000000E+00  -1.8056292E-02  -6.9332883E-02   0.0000000E+00  -1.4017025E-02  -7.3998131E-02   0.0000000E+00  -1.0567841E-02  -7.8893423E-02   0.0000000E+00  -8.0096731E-03  -8.3701037E-02   0.0000000E+00  -6.2382934E-03  -8.8124357E-02   0.0000000E+00  -4.7316561E-03  -9.1888204E-02   0.0000000E+00  -3.2521125E-03  -9.4759583E-02   0.0000000E+00  -1.9064151E-03  -9.6559405E-02   0.0000000E+00  -8.3846797E-04  -1.7814612E-02   0.0000000E+00  -1.2059056E-02  -1.8928064E-02   0.0000000E+00  -8.4800078E-03  -2.0515235E-02   0.0000000E+00  -5.4693501E-03  -2.2481009E-02   0.0000000E+00  -3.2557598E-03  -2.4660358E-02   0.0000000E+00  -1.8273689E-03  -2.6846398E-02   0.0000000E+00  -7.9166226E-04  -2.8817959E-02   0.0000000E+00   3.4550267E-06  -3.0381883E-02   0.0000000E+00   4.3237268E-04  -3.1385761E-02   0.0000000E+00   3.8729739E-04   3.5551134E-02   0.0000000E+00  -1.3124028E-02   3.6048654E-02   0.0000000E+00  -9.1405157E-03   3.6433786E-02   0.0000000E+00  -5.6609279E-03   3.6650956E-02   0.0000000E+00  -2.8698533E-03   3.6666986E-02   0.0000000E+00  -9.2338858E-04   3.6522914E-02   0.0000000E+00   4.1800027E-04   3.6296915E-02   0.0000000E+00   1.2442857E-03   3.6066208E-02   0.0000000E+00   1.4310470E-03   3.5896577E-02   0.0000000E+00   9.0034574E-04   9.9217765E-02   0.0000000E+00  -1.8795246E-02   9.9678800E-02   0.0000000E+00  -1.4136611E-02   1.0066538E-01   0.0000000E+00  -9.7854054E-03   1.0200628E-01   0.0000000E+00  -5.9819263E-03   1.0345598E-01   0.0000000E+00  -3.0669584E-03   1.0483566E-01   0.0000000E+00  -9.3245320E-04   1.0601955E-01   0.0000000E+00   4.7423548E-04   1.0691778E-01   0.0000000E+00   1.0539726E-03   1.0747430E-01   0.0000000E+00   7.7637378E-04   1.6899469E-01   0.0000000E+00  -2.6279349E-02   1.6825220E-01   0.0000000E+00  -2.1040147E-02   1.6877700E-01   0.0000000E+00  -1.5869711E-02   1.7033257E-01   0.0000000E+00  -1.1096088E-02   1.7247494E-01   0.0000000E+00  -7.1925414E-03   1.7479427E-01   0.0000000E+00  -4.1245967E-03   1.7694628E-01   0.0000000E+00  -1.8511041E-03   1.7866357E-01   0.0000000E+00  -4.5989855E-04   1.7976263E-01   0.0000000E+00   5.3620282E-05   2.3865761E-01   0.0000000E+00  -3.3286151E-02   2.3632883E-01   0.0000000E+00  -2.7714785E-02   2.3592892E-01   0.0000000E+00  -2.2030126E-02   2.3719348E-01   0.0000000E+00  -1.6630428E-02   2.3951796E-01   0.0000000E+00  -1.2022776E-02   2.4230003E-01   0.0000000E+00  -8.1694154E-03   2.4501134E-01   0.0000000E+00  -5.0123036E-03   2.4723627E-01   0.0000000E+00  -2.6354929E-03   2.4868366E-01   0.0000000E+00  -1.0556496E-03   3.0405334E-01   0.0000000E+00  -3.8495429E-02   3.0047274E-01   0.0000000E+00  -3.2771885E-02   2.9923874E-01   0.0000000E+00  -2.6914714E-02   3.0008224E-01   0.0000000E+00  -2.1316741E-02   3.0230519E-01   0.0000000E+00  -1.6416319E-02   3.0519286E-01   0.0000000E+00  -1.2098136E-02   3.0811208E-01   0.0000000E+00  -8.2522817E-03   3.1055835E-01   0.0000000E+00  -4.9555930E-03   3.1216979E-01   0.0000000E+00  -2.2676035E-03   3.6124572E-01   0.0000000E+00  -4.1547325E-02   3.5620585E-01   0.0000000E+00  -3.5641529E-02   3.5375091E-01   0.0000000E+00  -2.9819885E-02   3.5355502E-01   0.0000000E+00  -2.4370421E-02   3.5487634E-01   0.0000000E+00  -1.9578675E-02   3.5700923E-01   0.0000000E+00  -1.5181925E-02   3.5935032E-01   0.0000000E+00  -1.0970874E-02   3.6140305E-01   0.0000000E+00  -6.9931350E-03   3.6279413E-01   0.0000000E+00  -3.3604736E-03   4.0061015E-01   0.0000000E+00  -4.3280713E-02   3.9487386E-01   0.0000000E+00  -3.6856599E-02   3.9135927E-01   0.0000000E+00  -3.1054670E-02   3.8974583E-01   0.0000000E+00  -2.5923872E-02   3.8944095E-01   0.0000000E+00  -2.1482415E-02   3.8989812E-01   0.0000000E+00  -1.7265044E-02   3.9064988E-01   0.0000000E+00  -1.2938077E-02   3.9138833E-01   0.0000000E+00  -8.5275816E-03   3.9190072E-01   0.0000000E+00  -4.1979966E-03   4.2478356E-01   0.0000000E+00  -4.5347203E-02   4.1854089E-01   0.0000000E+00  -3.8343109E-02   4.1389596E-01   0.0000000E+00  -3.2424822E-02   4.1059902E-01   0.0000000E+00  -2.7537694E-02   4.0834215E-01   0.0000000E+00  -2.3374073E-02   4.0679300E-01   0.0000000E+00  -1.9252352E-02   4.0576535E-01   0.0000000E+00  -1.4777798E-02   4.0509406E-01   0.0000000E+00  -9.9659991E-03   4.0473467E-01   0.0000000E+00  -5.0088665E-03   4.3560132E-01   0.0000000E+00  -4.9252607E-02   4.2878082E-01   0.0000000E+00  -4.1805737E-02   4.2325792E-01   0.0000000E+00  -3.5489056E-02   4.1888490E-01   0.0000000E+00  -3.0354032E-02   4.1546822E-01   0.0000000E+00  -2.5942644E-02   4.1278991E-01   0.0000000E+00  -2.1519834E-02   4.1079175E-01   0.0000000E+00  -1.6632171E-02   4.0939108E-01   0.0000000E+00  -1.1253189E-02   4.0856931E-01   0.0000000E+00  -5.6517222E-03   4.3987671E-01   0.0000000E+00  -5.2333288E-02   4.3244976E-01   0.0000000E+00  -4.4833239E-02   4.2629945E-01   0.0000000E+00  -3.8254760E-02   4.2127621E-01   0.0000000E+00  -3.2725789E-02   4.1721404E-01   0.0000000E+00  -2.7800307E-02   4.1389796E-01   0.0000000E+00  -2.3045471E-02   4.1131970E-01   0.0000000E+00  -1.7879788E-02   4.0948626E-01   0.0000000E+00  -1.2200082E-02   4.0842381E-01   0.0000000E+00  -6.1864783E-03   4.4106123E-01   0.0000000E+00  -5.4298628E-02   4.3284822E-01   0.0000000E+00  -4.6849959E-02   4.2619717E-01   0.0000000E+00  -4.0005624E-02   4.2068040E-01   0.0000000E+00  -3.3994380E-02   4.1614786E-01   0.0000000E+00  -2.8604943E-02   4.1245365E-01   0.0000000E+00  -2.3302071E-02   4.0955654E-01   0.0000000E+00  -1.7857641E-02   4.0744951E-01   0.0000000E+00  -1.2164251E-02   4.0617257E-01   0.0000000E+00  -6.1423746E-03   4.4052386E-01   0.0000000E+00  -5.4377582E-02   4.3168813E-01   0.0000000E+00  -4.7425810E-02   4.2445749E-01   0.0000000E+00  -4.0714096E-02   4.1850665E-01   0.0000000E+00  -3.4410387E-02   4.1353142E-01   0.0000000E+00  -2.8573005E-02   4.0945843E-01   0.0000000E+00  -2.3090694E-02   4.0631485E-01   0.0000000E+00  -1.7601665E-02   4.0407920E-01   0.0000000E+00  -1.1753185E-02   4.0275827E-01   0.0000000E+00  -5.8199442E-03   4.3889782E-01   0.0000000E+00  -5.3086340E-02   4.2923912E-01   0.0000000E+00  -4.6709705E-02   4.2136922E-01   0.0000000E+00  -4.0350255E-02   4.1491494E-01   0.0000000E+00  -3.4109823E-02   4.0964478E-01   0.0000000E+00  -2.8216194E-02   4.0537405E-01   0.0000000E+00  -2.2581711E-02   4.0199262E-01   0.0000000E+00  -1.7052067E-02   3.9955437E-01   0.0000000E+00  -1.1499610E-02   3.9812154E-01   0.0000000E+00  -5.8132582E-03   4.3654647E-01   0.0000000E+00  -5.0480623E-02   4.2591655E-01   0.0000000E+00  -4.5201533E-02   4.1724971E-01   0.0000000E+00  -3.9579038E-02   4.1027558E-01   0.0000000E+00  -3.3738878E-02   4.0460342E-01   0.0000000E+00  -2.7882382E-02   3.9999443E-01   0.0000000E+00  -2.2122080E-02   3.9637589E-01   0.0000000E+00  -1.6483111E-02   3.9377737E-01   0.0000000E+00  -1.0989905E-02   3.9224085E-01   0.0000000E+00  -5.5474141E-03   4.3384966E-01   0.0000000E+00  -4.6581484E-02   4.2214271E-01   0.0000000E+00  -4.2535394E-02   4.1252953E-01   0.0000000E+00  -3.8180225E-02   4.0477875E-01   0.0000000E+00  -3.3071101E-02   3.9853448E-01   0.0000000E+00  -2.7540384E-02   3.9348581E-01   0.0000000E+00  -2.1759722E-02   3.8956529E-01   0.0000000E+00  -1.6040929E-02   3.8680425E-01   0.0000000E+00  -1.0571587E-02   3.8518858E-01   0.0000000E+00  -5.3312480E-03   4.3112010E-01   0.0000000E+00  -4.1974597E-02   4.1823283E-01   0.0000000E+00  -3.8807377E-02   4.0767249E-01   0.0000000E+00  -3.5543364E-02   3.9884934E-01   0.0000000E+00  -3.1572007E-02   3.9186582E-01   0.0000000E+00  -2.6779532E-02   3.8623694E-01   0.0000000E+00  -2.1267518E-02   3.8195708E-01   0.0000000E+00  -1.5641054E-02   3.7905458E-01   0.0000000E+00  -1.0416221E-02   3.7728646E-01   0.0000000E+00  -5.2068573E-03   4.2845681E-01   0.0000000E+00  -3.7076220E-02   4.1471964E-01   0.0000000E+00  -3.4293495E-02   4.0292805E-01   0.0000000E+00  -3.1800166E-02   3.9327136E-01   0.0000000E+00  -2.8930627E-02   3.8512582E-01   0.0000000E+00  -2.5104726E-02   3.7885347E-01   0.0000000E+00  -2.0390196E-02   3.7414229E-01   0.0000000E+00  -1.5211876E-02   3.7097326E-01   0.0000000E+00  -1.0200979E-02   3.6904049E-01   0.0000000E+00  -5.0747544E-03   4.2565829E-01   0.0000000E+00  -3.1906758E-02   4.1189700E-01   0.0000000E+00  -2.9722374E-02   3.9894971E-01   0.0000000E+00  -2.7384836E-02   3.8803712E-01   0.0000000E+00  -2.5131203E-02   3.7915504E-01   0.0000000E+00  -2.2330917E-02   3.7189609E-01   0.0000000E+00  -1.8626733E-02   3.6674494E-01   0.0000000E+00  -1.4365525E-02   3.6316264E-01   0.0000000E+00  -9.7352844E-03   3.6106017E-01   0.0000000E+00  -4.8966189E-03   4.2212015E-01   0.0000000E+00  -2.6432620E-02   4.0922236E-01   0.0000000E+00  -2.5045583E-02   3.9580008E-01   0.0000000E+00  -2.2944108E-02   3.8376376E-01   0.0000000E+00  -2.0821212E-02   3.7382874E-01   0.0000000E+00  -1.8523574E-02   3.6614388E-01   0.0000000E+00  -1.5901245E-02   3.6029026E-01   0.0000000E+00  -1.2683284E-02   3.5635659E-01   0.0000000E+00  -8.8332621E-03   3.5406557E-01   0.0000000E+00  -4.5103445E-03   4.1759771E-01   0.0000000E+00  -2.1527560E-02   4.0607885E-01   0.0000000E+00  -2.0354215E-02   3.9314258E-01   0.0000000E+00  -1.8835643E-02   3.8018471E-01   0.0000000E+00  -1.6529644E-02   3.6958525E-01   0.0000000E+00  -1.4467281E-02   3.6111882E-01   0.0000000E+00  -1.2267805E-02   3.5508165E-01   0.0000000E+00  -1.0064470E-02   3.5079986E-01   0.0000000E+00  -7.2858213E-03   3.4836724E-01   0.0000000E+00  -3.8149271E-03   4.1161335E-01   0.0000000E+00  -1.9109491E-02   4.0130135E-01   0.0000000E+00  -1.6204379E-02   3.9007071E-01   0.0000000E+00  -1.5146917E-02   3.7717614E-01   0.0000000E+00  -1.2944354E-02   3.6604062E-01   0.0000000E+00  -1.0791761E-02   3.5697323E-01   0.0000000E+00  -8.7493993E-03   3.5030890E-01   0.0000000E+00  -6.7939307E-03   3.4597990E-01   0.0000000E+00  -5.0316812E-03   3.4342709E-01   0.0000000E+00  -2.7837160E-03   4.0121806E-01   0.0000000E+00  -1.8795330E-02   3.9385787E-01   0.0000000E+00  -1.4536679E-02   3.8456044E-01   0.0000000E+00  -1.2179682E-02   3.7322384E-01   0.0000000E+00  -9.8791122E-03   3.6276275E-01   0.0000000E+00  -8.1890468E-03   3.5305810E-01   0.0000000E+00  -5.9560076E-03   3.4606844E-01   0.0000000E+00  -4.2323433E-03   3.4127861E-01   0.0000000E+00  -2.7956238E-03   3.3850905E-01   0.0000000E+00  -1.5266881E-03   3.8026038E-01   0.0000000E+00  -1.3693435E-02   3.7478215E-01   0.0000000E+00  -1.0622622E-02   3.6590615E-01   0.0000000E+00  -7.4434364E-03   3.5699868E-01   0.0000000E+00  -5.8748331E-03   3.4792399E-01   0.0000000E+00  -3.7155335E-03   3.4103873E-01   0.0000000E+00  -2.2677050E-03   3.3624530E-01   0.0000000E+00  -1.3718078E-03   3.3323708E-01   0.0000000E+00  -5.2378152E-04   3.5273892E-01   0.0000000E+00  -5.6582713E-03   3.4649330E-01   0.0000000E+00  -3.5932411E-03   3.3918422E-01   0.0000000E+00  -1.1560270E-03   3.3338973E-01   0.0000000E+00   4.2936012E-05   3.2895005E-01   0.0000000E+00   6.2475062E-04   3.2641977E-01   0.0000000E+00   3.8811745E-04   3.2633585E-01   0.0000000E+00   5.4467208E-04   3.2245833E-01   0.0000000E+00   1.7537581E-03   3.1947586E-01   0.0000000E+00   1.4710197E-03   3.1749144E-01   0.0000000E+00   8.1471622E-04  -9.0440409E-03   0.0000000E+00   1.1838840E-09  -9.0440167E-03   0.0000000E+00   8.3830986E-05  -9.0424446E-03   0.0000000E+00   1.7187987E-04  -9.0358565E-03   0.0000000E+00   2.6765506E-04  -9.0186913E-03   0.0000000E+00   3.7229381E-04  -8.9810519E-03   0.0000000E+00   4.9156108E-04  -8.9101065E-03   0.0000000E+00   6.2717969E-04  -8.7912763E-03   0.0000000E+00   7.7329838E-04  -1.2553498E-02   0.0000000E+00   8.0028706E-10  -1.2554069E-02   0.0000000E+00   1.1994412E-04  -1.2553894E-02   0.0000000E+00   2.4436723E-04  -1.2548272E-02   0.0000000E+00   3.7767217E-04  -1.2529524E-02   0.0000000E+00   5.2225124E-04  -1.2485452E-02   0.0000000E+00   6.8129360E-04  -1.2398630E-02   0.0000000E+00   8.5940561E-04  -1.2246843E-02   0.0000000E+00   1.0559070E-03  -1.6962286E-02   0.0000000E+00  -3.3152139E-10  -1.6963441E-02   0.0000000E+00   1.4820456E-04  -1.6964799E-02   0.0000000E+00   3.0027467E-04  -1.6960206E-02   0.0000000E+00   4.6066780E-04  -1.6939169E-02   0.0000000E+00   6.3311623E-04  -1.6887004E-02   0.0000000E+00   8.1762939E-04  -1.6780891E-02   0.0000000E+00   1.0201748E-03  -1.6591780E-02   0.0000000E+00   1.2394855E-03  -2.1798534E-02   0.0000000E+00   5.0446392E-10  -2.1800198E-02   0.0000000E+00   1.6678468E-04  -2.1802925E-02   0.0000000E+00   3.3634226E-04  -2.1799199E-02   0.0000000E+00   5.1255972E-04  -2.1776246E-02   0.0000000E+00   6.9867301E-04  -2.1715282E-02   0.0000000E+00   8.9700898E-04  -2.1590492E-02   0.0000000E+00   1.1068600E-03  -2.1365242E-02   0.0000000E+00   1.3300674E-03  -2.6830167E-02   0.0000000E+00  -1.1775020E-09  -2.6832435E-02   0.0000000E+00   1.7633487E-04  -2.6836418E-02   0.0000000E+00   3.5498370E-04  -2.6833685E-02   0.0000000E+00   5.3763250E-04  -2.6809515E-02   0.0000000E+00   7.2688860E-04  -2.6742177E-02   0.0000000E+00   9.2516566E-04  -2.6601527E-02   0.0000000E+00   1.1318785E-03  -2.6346095E-02   0.0000000E+00   1.3464033E-03  -3.2029644E-02   0.0000000E+00  -2.2217157E-09  -3.2032557E-02   0.0000000E+00   1.8155835E-04  -3.2038160E-02   0.0000000E+00   3.6394873E-04  -3.2036997E-02   0.0000000E+00   5.4824486E-04  -3.2013044E-02   0.0000000E+00   7.3507708E-04  -3.1942412E-02   0.0000000E+00   9.2564855E-04  -3.1791613E-02   0.0000000E+00   1.1215045E-03  -3.1514272E-02   0.0000000E+00   1.3203287E-03  -3.7503306E-02   0.0000000E+00   1.5266697E-09  -3.7507005E-02   0.0000000E+00   1.8875624E-04  -3.7514675E-02   0.0000000E+00   3.7668698E-04  -3.7516166E-02   0.0000000E+00   5.6318694E-04  -3.7494350E-02   0.0000000E+00   7.4825418E-04  -3.7424076E-02   0.0000000E+00   9.3176088E-04  -3.7269298E-02   0.0000000E+00   1.1144505E-03  -3.6978818E-02   0.0000000E+00   1.2958525E-03  -4.3387227E-02   0.0000000E+00  -2.6394336E-09  -4.3391842E-02   0.0000000E+00   2.0540964E-04  -4.3402135E-02   0.0000000E+00   4.0807002E-04  -4.3407481E-02   0.0000000E+00   6.0602190E-04  -4.3390021E-02   0.0000000E+00   7.9799426E-04  -4.3323494E-02   0.0000000E+00   9.8306744E-04  -4.3170039E-02   0.0000000E+00   1.1590883E-03  -4.2874571E-02   0.0000000E+00   1.3235901E-03  -4.9768735E-02   0.0000000E+00  -1.6728731E-10  -4.9774472E-02   0.0000000E+00   2.3922879E-04  -4.9788006E-02   0.0000000E+00   4.7420672E-04  -4.9798284E-02   0.0000000E+00   7.0161710E-04  -4.9786873E-02   0.0000000E+00   9.1868330E-04  -4.9726550E-02   0.0000000E+00   1.1224390E-03  -4.9577765E-02   0.0000000E+00   1.3079910E-03  -4.9282238E-02   0.0000000E+00   1.4681157E-03  -5.6676310E-02   0.0000000E+00   5.9469124E-10  -5.6683335E-02   0.0000000E+00   2.9761766E-04  -5.6700498E-02   0.0000000E+00   5.8987283E-04  -5.6716293E-02   0.0000000E+00   8.7266538E-04  -5.6711476E-02   0.0000000E+00   1.1418571E-03  -5.6657787E-02   0.0000000E+00   1.3926813E-03  -5.6513943E-02   0.0000000E+00   1.6159801E-03  -5.6219067E-02   0.0000000E+00   1.7980388E-03  -6.4129584E-02   0.0000000E+00  -5.9782730E-09  -6.4138010E-02   0.0000000E+00   3.8716701E-04  -6.4159118E-02   0.0000000E+00   7.6849520E-04  -6.4180605E-02   0.0000000E+00   1.1393209E-03  -6.4181954E-02   0.0000000E+00   1.4960401E-03  -6.4132832E-02   0.0000000E+00   1.8318372E-03  -6.3989915E-02   0.0000000E+00   2.1324744E-03  -6.3691236E-02   0.0000000E+00   2.3765934E-03  -7.2168253E-02   0.0000000E+00  -2.8419878E-09  -7.2177880E-02   0.0000000E+00   5.1202188E-04  -7.2202064E-02   0.0000000E+00   1.0170643E-03  -7.2227865E-02   0.0000000E+00   1.5113162E-03  -7.2233543E-02   0.0000000E+00   1.9936766E-03  -7.2185636E-02   0.0000000E+00   2.4555437E-03  -7.2037108E-02   0.0000000E+00   2.8824552E-03  -7.1725860E-02   0.0000000E+00   3.2373157E-03  -8.0842882E-02   0.0000000E+00  -2.7491300E-09  -8.0853403E-02   0.0000000E+00   6.7419367E-04  -8.0879621E-02   0.0000000E+00   1.3469083E-03  -8.0907419E-02   0.0000000E+00   2.0090004E-03  -8.0913417E-02   0.0000000E+00   2.6520961E-03  -8.0861256E-02   0.0000000E+00   3.2729241E-03  -8.0701768E-02   0.0000000E+00   3.8573169E-03  -8.0367453E-02   0.0000000E+00   4.3749474E-03  -9.0208746E-02   0.0000000E+00   2.1759765E-09  -9.0219684E-02   0.0000000E+00   8.7878539E-04  -9.0246461E-02   0.0000000E+00   1.7469951E-03  -9.0274088E-02   0.0000000E+00   2.6079912E-03  -9.0275772E-02   0.0000000E+00   3.4514784E-03  -9.0212196E-02   0.0000000E+00   4.2736377E-03  -9.0031013E-02   0.0000000E+00   5.0606332E-03  -8.9664944E-02   0.0000000E+00   5.7872194E-03  -1.0032151E-01   0.0000000E+00  -2.2974114E-09  -1.0033108E-01   0.0000000E+00   1.0997811E-03  -1.0035521E-01   0.0000000E+00   2.1997432E-03  -1.0037734E-01   0.0000000E+00   3.2955427E-03  -1.0036657E-01   0.0000000E+00   4.3807253E-03  -1.0028146E-01   0.0000000E+00   5.4501253E-03  -1.0006856E-01   0.0000000E+00   6.4901188E-03  -9.9661961E-02   0.0000000E+00   7.4767442E-03  -1.1122945E-01   0.0000000E+00  -6.5052341E-09  -1.1123775E-01   0.0000000E+00   1.3566024E-03  -1.1125429E-01   0.0000000E+00   2.7129762E-03  -1.1126119E-01   0.0000000E+00   4.0690904E-03  -1.1122899E-01   0.0000000E+00   5.4263552E-03  -1.1111321E-01   0.0000000E+00   6.7677451E-03  -1.1085998E-01   0.0000000E+00   8.0827847E-03  -1.1040428E-01   0.0000000E+00   9.3596634E-03  -1.2298302E-01   0.0000000E+00  -3.8294794E-09  -1.2298577E-01   0.0000000E+00   1.6456002E-03  -1.2298929E-01   0.0000000E+00   3.2855726E-03  -1.2297462E-01   0.0000000E+00   4.9206070E-03  -1.2290969E-01   0.0000000E+00   6.5486329E-03  -1.2275020E-01   0.0000000E+00   8.1680473E-03  -1.2244359E-01   0.0000000E+00   9.7673703E-03  -1.2192607E-01   0.0000000E+00   1.1333905E-02  -1.3563178E-01   0.0000000E+00   5.3409759E-11  -1.3562864E-01   0.0000000E+00   1.9446255E-03  -1.3561359E-01   0.0000000E+00   3.8843888E-03  -1.3556570E-01   0.0000000E+00   5.8042617E-03  -1.3545470E-01   0.0000000E+00   7.7123209E-03  -1.3523605E-01   0.0000000E+00   9.6052121E-03  -1.3485631E-01   0.0000000E+00   1.1476152E-02  -1.3425672E-01   0.0000000E+00   1.3321072E-02  -1.4923295E-01   0.0000000E+00   1.6210686E-10  -1.4922100E-01   0.0000000E+00   2.2382089E-03  -1.4917822E-01   0.0000000E+00   4.4666724E-03  -1.4908619E-01   0.0000000E+00   6.6809379E-03  -1.4891194E-01   0.0000000E+00   8.8648861E-03  -1.4861229E-01   0.0000000E+00   1.1024519E-02  -1.4813635E-01   0.0000000E+00   1.3150585E-02  -1.4742514E-01   0.0000000E+00   1.5226073E-02  -1.6383737E-01   0.0000000E+00   2.1455091E-09  -1.6381353E-01   0.0000000E+00   2.5162161E-03  -1.6373558E-01   0.0000000E+00   5.0213081E-03  -1.6358347E-01   0.0000000E+00   7.5031500E-03  -1.6332705E-01   0.0000000E+00   9.9592693E-03  -1.6292208E-01   0.0000000E+00   1.2361712E-02  -1.6232069E-01   0.0000000E+00   1.4714157E-02  -1.6146527E-01   0.0000000E+00   1.7000485E-02  -1.7948610E-01   0.0000000E+00  -1.1450688E-08  -1.7944750E-01   0.0000000E+00   2.7695023E-03  -1.7932510E-01   0.0000000E+00   5.5237515E-03  -1.7909819E-01   0.0000000E+00   8.2500093E-03  -1.7873651E-01   0.0000000E+00   1.0931782E-02  -1.7820030E-01   0.0000000E+00   1.3557441E-02  -1.7743942E-01   0.0000000E+00   1.6107542E-02  -1.7640284E-01   0.0000000E+00   1.8577261E-02  -1.9620611E-01   0.0000000E+00  -5.1796194E-09  -1.9614971E-01   0.0000000E+00   2.9884647E-03  -1.9597280E-01   0.0000000E+00   5.9570898E-03  -1.9565547E-01   0.0000000E+00   8.8852635E-03  -1.9516690E-01   0.0000000E+00   1.1753622E-02  -1.9447103E-01   0.0000000E+00   1.4558511E-02  -1.9351958E-01   0.0000000E+00   1.7268809E-02  -1.9226727E-01   0.0000000E+00   1.9894874E-02  -2.1400982E-01   0.0000000E+00  -4.8015609E-09  -2.1393223E-01   0.0000000E+00   3.1652069E-03  -2.1369085E-01   0.0000000E+00   6.3033574E-03  -2.1326634E-01   0.0000000E+00   9.3850577E-03  -2.1262921E-01   0.0000000E+00   1.2392574E-02  -2.1174642E-01   0.0000000E+00   1.5322858E-02  -2.1057615E-01   0.0000000E+00   1.8158033E-02  -2.0907804E-01   0.0000000E+00   2.0912966E-02  -2.3289829E-01   0.0000000E+00  -1.6474778E-09  -2.3279586E-01   0.0000000E+00   3.2955194E-03  -2.3248003E-01   0.0000000E+00   6.5534082E-03  -2.3193212E-01   0.0000000E+00   9.7377477E-03  -2.3112625E-01   0.0000000E+00   1.2832885E-02  -2.3003364E-01   0.0000000E+00   1.5837291E-02  -2.2862233E-01   0.0000000E+00   1.8751772E-02  -2.2685787E-01   0.0000000E+00   2.1597674E-02  -2.5286445E-01   0.0000000E+00   4.1491179E-09  -2.5273374E-01   0.0000000E+00   3.3790332E-03  -2.5233409E-01   0.0000000E+00   6.7076292E-03  -2.5164917E-01   0.0000000E+00   9.9487426E-03  -2.5065711E-01   0.0000000E+00   1.3080481E-02  -2.4933805E-01   0.0000000E+00   1.6113637E-02  -2.4767068E-01   0.0000000E+00   1.9062059E-02  -2.4562855E-01   0.0000000E+00   2.1958653E-02  -2.7389553E-01   0.0000000E+00  -3.5864427E-09  -2.7373362E-01   0.0000000E+00   3.4202645E-03  -2.7324295E-01   0.0000000E+00   6.7791087E-03  -2.7240938E-01   0.0000000E+00   1.0032749E-02  -2.7121973E-01   0.0000000E+00   1.3163336E-02  -2.6966459E-01   0.0000000E+00   1.6189607E-02  -2.6773521E-01   0.0000000E+00   1.9139618E-02  -2.6541319E-01   0.0000000E+00   2.2050098E-02  -2.9596001E-01   0.0000000E+00  -6.1632699E-09  -2.9576492E-01   0.0000000E+00   3.4278270E-03  -2.9517624E-01   0.0000000E+00   6.7820088E-03  -2.9418802E-01   0.0000000E+00   1.0016212E-02  -2.9279587E-01   0.0000000E+00   1.3122632E-02  -2.9100257E-01   0.0000000E+00   1.6122069E-02  -2.8881380E-01   0.0000000E+00   1.9064933E-02  -2.8621316E-01   0.0000000E+00   2.1970758E-02  -3.1893829E-01   0.0000000E+00   4.6104343E-09  -3.1870869E-01   0.0000000E+00   3.4006943E-03  -3.1801894E-01   0.0000000E+00   6.7255395E-03  -3.1687272E-01   0.0000000E+00   9.9242004E-03  -3.1527880E-01   0.0000000E+00   1.2990843E-02  -3.1325331E-01   0.0000000E+00   1.5977338E-02  -3.1080770E-01   0.0000000E+00   1.8921031E-02  -3.0791932E-01   0.0000000E+00   2.1796636E-02  -3.4247866E-01   0.0000000E+00  -1.1081642E-09  -3.4221312E-01   0.0000000E+00   3.3379872E-03  -3.4142148E-01   0.0000000E+00   6.6078352E-03  -3.4011593E-01   0.0000000E+00   9.7571155E-03  -3.3832332E-01   0.0000000E+00   1.2803934E-02  -3.3606461E-01   0.0000000E+00   1.5787762E-02  -3.3334687E-01   0.0000000E+00   1.8735182E-02  -3.3013558E-01   0.0000000E+00   2.1575099E-02  -3.6576384E-01   0.0000000E+00  -3.8489052E-09  -3.6546099E-01   0.0000000E+00   3.2401113E-03  -3.6456272E-01   0.0000000E+00   6.4244177E-03  -3.6309513E-01   0.0000000E+00   9.5212329E-03  -3.6109236E-01   0.0000000E+00   1.2553561E-02  -3.5857454E-01   0.0000000E+00   1.5550886E-02  -3.5553452E-01   0.0000000E+00   1.8499924E-02  -3.5193104E-01   0.0000000E+00   2.1307759E-02  -3.8729471E-01   0.0000000E+00   4.3532120E-10  -3.8695616E-01   0.0000000E+00   3.0953926E-03  -3.8595513E-01   0.0000000E+00   6.1566141E-03  -3.8432747E-01   0.0000000E+00   9.1796797E-03  -3.8211143E-01   0.0000000E+00   1.2166684E-02  -3.7931728E-01   0.0000000E+00   1.5151482E-02  -3.7593532E-01   0.0000000E+00   1.8090166E-02  -3.7189493E-01   0.0000000E+00   2.0843368E-02  -4.0548006E-01   0.0000000E+00   2.7001621E-09  -4.0511259E-01   0.0000000E+00   2.8248606E-03  -4.0402845E-01   0.0000000E+00   5.6445845E-03  -4.0227339E-01   0.0000000E+00   8.4618246E-03  -3.9987844E-01   0.0000000E+00   1.1323391E-02  -3.9686596E-01   0.0000000E+00   1.4196339E-02  -3.9315674E-01   0.0000000E+00   1.7066160E-02  -3.8875476E-01   0.0000000E+00   1.9687867E-02  -4.1946420E-01   0.0000000E+00   4.1927737E-09  -4.1907525E-01   0.0000000E+00   2.3681456E-03  -4.1792715E-01   0.0000000E+00   4.7672242E-03  -4.1607127E-01   0.0000000E+00   7.2489479E-03  -4.1355544E-01   0.0000000E+00   9.8167397E-03  -4.1033453E-01   0.0000000E+00   1.2479129E-02  -4.0636718E-01   0.0000000E+00   1.5116660E-02  -4.0167373E-01   0.0000000E+00   1.7471170E-02  -4.2863178E-01   0.0000000E+00   1.0888158E-08  -4.2822352E-01   0.0000000E+00   1.6921388E-03  -4.2706770E-01   0.0000000E+00   3.4937491E-03  -4.2518753E-01   0.0000000E+00   5.5188597E-03  -4.2256734E-01   0.0000000E+00   7.7281576E-03  -4.1921148E-01   0.0000000E+00   9.9908439E-03  -4.1509047E-01   0.0000000E+00   1.2198220E-02  -4.1012979E-01   0.0000000E+00   1.4310723E-02  -4.3293092E-01   0.0000000E+00   1.3665305E-08  -4.3252513E-01   0.0000000E+00   9.5419935E-04  -4.3132532E-01   0.0000000E+00   2.1330249E-03  -4.2935061E-01   0.0000000E+00   3.6415705E-03  -4.2658272E-01   0.0000000E+00   5.4688109E-03  -4.2295682E-01   0.0000000E+00   7.4951476E-03  -4.1837424E-01   0.0000000E+00   9.6942373E-03  -4.1284424E-01   0.0000000E+00   1.2056035E-02  -4.3104705E-01   0.0000000E+00   2.6434453E-08  -4.3055764E-01   0.0000000E+00   1.1290389E-03  -4.2912579E-01   0.0000000E+00   2.5971632E-03  -4.2668208E-01   0.0000000E+00   4.5603071E-03  -4.2322147E-01   0.0000000E+00   6.8970299E-03  -4.1872808E-01   0.0000000E+00   9.4041582E-03  -4.1292340E-01   0.0000000E+00   1.2370767E-02  -4.0572438E-01   0.0000000E+00   1.6471369E-02  -4.0108246E-01   0.0000000E+00   4.0153257E-08  -4.0027538E-01   0.0000000E+00   5.4566707E-03  -3.9780280E-01   0.0000000E+00   1.1045733E-02  -3.9363107E-01   0.0000000E+00   1.6840465E-02  -3.8782007E-01   0.0000000E+00   2.2943355E-02  -3.8025439E-01   0.0000000E+00   2.9416073E-02  -3.7059385E-01   0.0000000E+00   3.6381323E-02  -3.5906267E-01   0.0000000E+00   4.4195052E-02  -2.7005887E-01   0.0000000E+00   2.1576589E-08  -2.6918954E-01   0.0000000E+00   4.2346520E-03  -2.6660323E-01   0.0000000E+00   8.6073577E-03  -2.6235363E-01   0.0000000E+00   1.3153562E-02  -2.5651416E-01   0.0000000E+00   1.7818563E-02  -2.4918498E-01   0.0000000E+00   2.2663543E-02  -2.4052685E-01   0.0000000E+00   2.8116329E-02  -2.3082942E-01   0.0000000E+00   3.4731213E-02  -1.7129183E-01   0.0000000E+00   1.8275697E-08  -1.7048813E-01   0.0000000E+00   2.5001382E-03  -1.6811137E-01   0.0000000E+00   5.1557831E-03  -1.6425703E-01   0.0000000E+00   7.9768803E-03  -1.5907098E-01   0.0000000E+00   1.0831815E-02  -1.5274683E-01   0.0000000E+00   1.3675538E-02  -1.4552936E-01   0.0000000E+00   1.6845070E-02  -1.3773178E-01   0.0000000E+00   2.0927867E-02  -9.7172573E-02   0.0000000E+00  -6.7766635E-08  -9.6559457E-02   0.0000000E+00   8.3844760E-04  -9.4759531E-02   0.0000000E+00   1.9063889E-03  -9.1888256E-02   0.0000000E+00   3.2521074E-03  -8.8124201E-02   0.0000000E+00   4.7316556E-03  -8.3701029E-02   0.0000000E+00   6.2383218E-03  -7.8893572E-02   0.0000000E+00   8.0097280E-03  -7.3998332E-02   0.0000000E+00   1.0567929E-02  -3.1731717E-02   0.0000000E+00  -8.4385379E-09  -3.1385645E-02   0.0000000E+00  -3.8728226E-04  -3.0381821E-02   0.0000000E+00  -4.3240612E-04  -2.8818011E-02   0.0000000E+00  -3.4730956E-06  -2.6846336E-02   0.0000000E+00   7.9167442E-04  -2.4660369E-02   0.0000000E+00   1.8273594E-03  -2.2481015E-02   0.0000000E+00   3.2558115E-03  -2.0515276E-02   0.0000000E+00   5.4694037E-03   3.5834484E-02   0.0000000E+00   3.4953782E-08   3.5896577E-02   0.0000000E+00  -9.0038561E-04   3.6066219E-02   0.0000000E+00  -1.4310774E-03   3.6296919E-02   0.0000000E+00  -1.2442413E-03   3.6522936E-02   0.0000000E+00  -4.1806488E-04   3.6667001E-02   0.0000000E+00   9.2341140E-04   3.6650963E-02   0.0000000E+00   2.8698612E-03   3.6433827E-02   0.0000000E+00   5.6609963E-03   1.0766234E-01   0.0000000E+00   6.8354176E-08   1.0747445E-01   0.0000000E+00  -7.7634770E-04   1.0691778E-01   0.0000000E+00  -1.0539540E-03   1.0601952E-01   0.0000000E+00  -4.7426391E-04   1.0483566E-01   0.0000000E+00   9.3241903E-04   1.0345599E-01   0.0000000E+00   3.0669007E-03   1.0200642E-01   0.0000000E+00   5.9819091E-03   1.0066545E-01   0.0000000E+00   9.7855302E-03   1.8013977E-01   0.0000000E+00   9.5927426E-08   1.7976266E-01   0.0000000E+00  -5.3593572E-05   1.7866370E-01   0.0000000E+00   4.5992350E-04   1.7694631E-01   0.0000000E+00   1.8510852E-03   1.7479433E-01   0.0000000E+00   4.1245297E-03   1.7247497E-01   0.0000000E+00   7.1925092E-03   1.7033263E-01   0.0000000E+00   1.1096074E-02   1.6877703E-01   0.0000000E+00   1.5869727E-02   2.4918427E-01   0.0000000E+00   6.6674190E-08   2.4868365E-01   0.0000000E+00   1.0557445E-03   2.4723619E-01   0.0000000E+00   2.6354587E-03   2.4501130E-01   0.0000000E+00   5.0122393E-03   2.4230012E-01   0.0000000E+00   8.1693595E-03   2.3951811E-01   0.0000000E+00   1.2022762E-02   2.3719341E-01   0.0000000E+00   1.6630433E-02   2.3592900E-01   0.0000000E+00   2.2030149E-02   3.1273070E-01   0.0000000E+00   3.6554070E-08   3.1216979E-01   0.0000000E+00   2.2677090E-03   3.1055823E-01   0.0000000E+00   4.9556345E-03   3.0811217E-01   0.0000000E+00   8.2522910E-03   3.0519289E-01   0.0000000E+00   1.2098082E-02   3.0230516E-01   0.0000000E+00   1.6416272E-02   3.0008221E-01   0.0000000E+00   2.1316726E-02   2.9923886E-01   0.0000000E+00   2.6914710E-02   3.6328399E-01   0.0000000E+00   1.4864556E-08   3.6279410E-01   0.0000000E+00   3.3605222E-03   3.6140305E-01   0.0000000E+00   6.9931168E-03   3.5935023E-01   0.0000000E+00   1.0970855E-02   3.5700923E-01   0.0000000E+00   1.5181852E-02   3.5487631E-01   0.0000000E+00   1.9578656E-02   3.5355505E-01   0.0000000E+00   2.4370430E-02   3.5375097E-01   0.0000000E+00   2.9819900E-02   3.9208999E-01   0.0000000E+00   3.5461301E-08   3.9190063E-01   0.0000000E+00   4.1980161E-03   3.9138824E-01   0.0000000E+00   8.5275676E-03   3.9064983E-01   0.0000000E+00   1.2938058E-02   3.8989806E-01   0.0000000E+00   1.7265044E-02   3.8944098E-01   0.0000000E+00   2.1482375E-02   3.8974580E-01   0.0000000E+00   2.5923828E-02   3.9135936E-01   0.0000000E+00   3.1054655E-02   4.0460861E-01   0.0000000E+00  -6.8167592E-09   4.0473473E-01   0.0000000E+00   5.0088768E-03   4.0509409E-01   0.0000000E+00   9.9659897E-03   4.0576532E-01   0.0000000E+00   1.4777773E-02   4.0679300E-01   0.0000000E+00   1.9252338E-02   4.0834218E-01   0.0000000E+00   2.3374077E-02   4.1059899E-01   0.0000000E+00   2.7537664E-02   4.1389596E-01   0.0000000E+00   3.2424815E-02   4.0829888E-01   0.0000000E+00  -3.6515759E-09   4.0856925E-01   0.0000000E+00   5.6516798E-03   4.0939102E-01   0.0000000E+00   1.1253175E-02   4.1079172E-01   0.0000000E+00   1.6632166E-02   4.1278988E-01   0.0000000E+00   2.1519834E-02   4.1546816E-01   0.0000000E+00   2.5942631E-02   4.1888481E-01   0.0000000E+00   3.0354034E-02   4.2325795E-01   0.0000000E+00   3.5489067E-02   4.0807691E-01   0.0000000E+00  -1.1923500E-08   4.0842381E-01   0.0000000E+00   6.1864723E-03   4.0948620E-01   0.0000000E+00   1.2200076E-02   4.1131967E-01   0.0000000E+00   1.7879793E-02   4.1389799E-01   0.0000000E+00   2.3045471E-02   4.1721407E-01   0.0000000E+00   2.7800331E-02   4.2127621E-01   0.0000000E+00   3.2725789E-02   4.2629945E-01   0.0000000E+00   3.8254764E-02   4.0574926E-01   0.0000000E+00  -3.2678209E-09   4.0617266E-01   0.0000000E+00   6.1423681E-03   4.0744954E-01   0.0000000E+00   1.2164231E-02   4.0955657E-01   0.0000000E+00   1.7857648E-02   4.1245359E-01   0.0000000E+00   2.3302084E-02   4.1614783E-01   0.0000000E+00   2.8604960E-02   4.2068037E-01   0.0000000E+00   3.3994377E-02   4.2619717E-01   0.0000000E+00   4.0005609E-02   4.0230918E-01   0.0000000E+00  -5.8289285E-09   4.0275827E-01   0.0000000E+00   5.8199400E-03   4.0407923E-01   0.0000000E+00   1.1753182E-02   4.0631485E-01   0.0000000E+00   1.7601671E-02   4.0945840E-01   0.0000000E+00   2.3090707E-02   4.1353139E-01   0.0000000E+00   2.8573003E-02   4.1850671E-01   0.0000000E+00   3.4410395E-02   4.2445746E-01   0.0000000E+00   4.0714074E-02   3.9770600E-01   0.0000000E+00  -4.7999951E-09   3.9812151E-01   0.0000000E+00   5.8132568E-03   3.9955440E-01   0.0000000E+00   1.1499609E-02   4.0199259E-01   0.0000000E+00   1.7052069E-02   4.0537408E-01   0.0000000E+00   2.2581713E-02   4.0964481E-01   0.0000000E+00   2.8216194E-02   4.1491497E-01   0.0000000E+00   3.4109820E-02   4.2136922E-01   0.0000000E+00   4.0350243E-02   3.9170942E-01   0.0000000E+00  -3.0320382E-09   3.9224088E-01   0.0000000E+00   5.5474127E-03   3.9377743E-01   0.0000000E+00   1.0989909E-02   3.9637595E-01   0.0000000E+00   1.6483121E-02   3.9999443E-01   0.0000000E+00   2.2122089E-02   4.0460348E-01   0.0000000E+00   2.7882392E-02   4.1027555E-01   0.0000000E+00   3.3738866E-02   4.1724971E-01   0.0000000E+00   3.9579034E-02   3.8463315E-01   0.0000000E+00  -2.3410129E-09   3.8518858E-01   0.0000000E+00   5.3312476E-03   3.8680425E-01   0.0000000E+00   1.0571589E-02   3.8956526E-01   0.0000000E+00   1.6040931E-02   3.9348590E-01   0.0000000E+00   2.1759724E-02   3.9853454E-01   0.0000000E+00   2.7540382E-02   4.0477875E-01   0.0000000E+00   3.3071097E-02   4.1252959E-01   0.0000000E+00   3.8180228E-02   3.7669173E-01   0.0000000E+00  -1.0437881E-09   3.7728640E-01   0.0000000E+00   5.2068559E-03   3.7905458E-01   0.0000000E+00   1.0416223E-02   3.8195714E-01   0.0000000E+00   1.5641062E-02   3.8623688E-01   0.0000000E+00   2.1267526E-02   3.9186579E-01   0.0000000E+00   2.6779538E-02   3.9884937E-01   0.0000000E+00   3.1572014E-02   4.0767255E-01   0.0000000E+00   3.5543375E-02   3.6840343E-01   0.0000000E+00   7.5081213E-10   3.6904052E-01   0.0000000E+00   5.0747572E-03   3.7097326E-01   0.0000000E+00   1.0200981E-02   3.7414226E-01   0.0000000E+00   1.5211881E-02   3.7885350E-01   0.0000000E+00   2.0390188E-02   3.8512582E-01   0.0000000E+00   2.5104720E-02   3.9327136E-01   0.0000000E+00   2.8930634E-02   4.0292805E-01   0.0000000E+00   3.1800181E-02   3.6037630E-01   0.0000000E+00   6.0309397E-09   3.6106020E-01   0.0000000E+00   4.8966208E-03   3.6316267E-01   0.0000000E+00   9.7352872E-03   3.6674497E-01   0.0000000E+00   1.4365527E-02   3.7189609E-01   0.0000000E+00   1.8626733E-02   3.7915510E-01   0.0000000E+00   2.2330914E-02   3.8803709E-01   0.0000000E+00   2.5131235E-02   3.9894977E-01   0.0000000E+00   2.7384842E-02   3.5331428E-01   0.0000000E+00   5.3226548E-09   3.5406557E-01   0.0000000E+00   4.5103566E-03   3.5635659E-01   0.0000000E+00   8.8332631E-03   3.6029032E-01   0.0000000E+00   1.2683284E-02   3.6614394E-01   0.0000000E+00   1.5901247E-02   3.7382877E-01   0.0000000E+00   1.8523572E-02   3.8376373E-01   0.0000000E+00   2.0821210E-02   3.9580011E-01   0.0000000E+00   2.2944115E-02   3.4755272E-01   0.0000000E+00   1.3834677E-08   3.4836718E-01   0.0000000E+00   3.8149464E-03   3.5079986E-01   0.0000000E+00   7.2858282E-03   3.5508165E-01   0.0000000E+00   1.0064469E-02   3.6111888E-01   0.0000000E+00   1.2267800E-02   3.6958525E-01   0.0000000E+00   1.4467277E-02   3.8018471E-01   0.0000000E+00   1.6529638E-02   3.9314261E-01   0.0000000E+00   1.8835640E-02   3.4257379E-01   0.0000000E+00   1.7031342E-08   3.4342712E-01   0.0000000E+00   2.7837500E-03   3.4597990E-01   0.0000000E+00   5.0317040E-03   3.5030884E-01   0.0000000E+00   6.7939358E-03   3.5697320E-01   0.0000000E+00   8.7493900E-03   3.6604065E-01   0.0000000E+00   1.0791745E-02   3.7717611E-01   0.0000000E+00   1.2944330E-02   3.9007068E-01   0.0000000E+00   1.5146921E-02   3.3767369E-01   0.0000000E+00   1.3086523E-08   3.3850911E-01   0.0000000E+00   1.5267199E-03   3.4127864E-01   0.0000000E+00   2.7956332E-03   3.4606826E-01   0.0000000E+00   4.2322562E-03   3.5305804E-01   0.0000000E+00   5.9559890E-03   3.6276275E-01   0.0000000E+00   8.1890142E-03   3.7322384E-01   0.0000000E+00   9.8790890E-03   3.8456050E-01   0.0000000E+00   1.2179646E-02   3.3225253E-01   0.0000000E+00   1.4378124E-08   3.3323708E-01   0.0000000E+00   5.2380020E-04   3.3624530E-01   0.0000000E+00   1.3718149E-03   3.4103873E-01   0.0000000E+00   2.2676864E-03   3.4792393E-01   0.0000000E+00   3.7155007E-03   3.5699862E-01   0.0000000E+00   5.8747907E-03   3.6590609E-01   0.0000000E+00   7.4434169E-03   3.7478212E-01   0.0000000E+00   1.0622604E-02   3.2557684E-01   0.0000000E+00   7.4119075E-09   3.2641980E-01   0.0000000E+00  -3.8810589E-04   3.2895005E-01   0.0000000E+00  -6.2474847E-04   3.3338967E-01   0.0000000E+00  -4.2963202E-05   3.3918419E-01   0.0000000E+00   1.1559897E-03   3.4649357E-01   0.0000000E+00   3.5933207E-03   3.5273889E-01   0.0000000E+00   5.6582550E-03   3.1679085E-01   0.0000000E+00   4.8090008E-09   3.1749141E-01   0.0000000E+00  -8.1469992E-04   3.1947586E-01   0.0000000E+00  -1.4710209E-03   3.2245833E-01   0.0000000E+00  -1.7537685E-03   3.2633579E-01   0.0000000E+00  -5.4470904E-04  -8.5998150E-03   0.0000000E+00   9.4005559E-04  -8.3120242E-03   0.0000000E+00   1.1253610E-03  -7.9034045E-03   0.0000000E+00   1.3136584E-03  -7.3409392E-03   0.0000000E+00   1.5087262E-03  -6.5976018E-03   0.0000000E+00   1.6923945E-03  -5.6778863E-03   0.0000000E+00   1.8257571E-03  -4.6121641E-03   0.0000000E+00   1.8721469E-03  -1.2002804E-02   0.0000000E+00   1.2666497E-03  -1.1626136E-02   0.0000000E+00   1.4980227E-03  -1.1072982E-02   0.0000000E+00   1.7417148E-03  -1.0297624E-02   0.0000000E+00   1.9662655E-03  -9.2474725E-03   0.0000000E+00   2.1505796E-03  -7.9003759E-03   0.0000000E+00   2.2469428E-03  -6.2636146E-03   0.0000000E+00   2.2272652E-03  -4.3828730E-03   0.0000000E+00   2.4096330E-03  -1.6283479E-02   0.0000000E+00   1.4707878E-03  -1.5803652E-02   0.0000000E+00   1.7150203E-03  -1.5087214E-02   0.0000000E+00   1.9583504E-03  -1.4056476E-02   0.0000000E+00   2.1808555E-03  -1.2644358E-02   0.0000000E+00   2.3324080E-03  -1.0799523E-02   0.0000000E+00   2.4171039E-03  -8.5693803E-03   0.0000000E+00   2.4246916E-03  -6.0097803E-03   0.0000000E+00   2.5588805E-03  -2.0992860E-02   0.0000000E+00   1.5660995E-03  -2.0411860E-02   0.0000000E+00   1.8046791E-03  -1.9534409E-02   0.0000000E+00   2.0360281E-03  -1.8251035E-02   0.0000000E+00   2.2429824E-03  -1.6476857E-02   0.0000000E+00   2.3641777E-03  -1.4145788E-02   0.0000000E+00   2.4181821E-03  -1.1308527E-02   0.0000000E+00   2.3987226E-03  -7.9896301E-03   0.0000000E+00   2.5758103E-03  -2.5919218E-02   0.0000000E+00   1.5723518E-03  -2.5250135E-02   0.0000000E+00   1.7939028E-03  -2.4231214E-02   0.0000000E+00   2.0036502E-03  -2.2724481E-02   0.0000000E+00   2.1805980E-03  -2.0621791E-02   0.0000000E+00   2.2644659E-03  -1.7822914E-02   0.0000000E+00   2.2903103E-03  -1.4369866E-02   0.0000000E+00   2.2632291E-03  -1.0248400E-02   0.0000000E+00   2.5486208E-03  -3.1046567E-02   0.0000000E+00   1.5232939E-03  -3.0304594E-02   0.0000000E+00   1.7221328E-03  -2.9168008E-02   0.0000000E+00   1.8943724E-03  -2.7473100E-02   0.0000000E+00   2.0240049E-03  -2.5074078E-02   0.0000000E+00   2.0600599E-03  -2.1837642E-02   0.0000000E+00   2.0634749E-03  -1.7778546E-02   0.0000000E+00   2.0650891E-03  -1.2807547E-02   0.0000000E+00   2.5412927E-03  -3.6482472E-02   0.0000000E+00   1.4700698E-03  -3.5684157E-02   0.0000000E+00   1.6327227E-03  -3.4449238E-02   0.0000000E+00   1.7514706E-03  -3.2587104E-02   0.0000000E+00   1.8181076E-03  -2.9911496E-02   0.0000000E+00   1.8079525E-03  -2.6264533E-02   0.0000000E+00   1.7997214E-03  -2.1609213E-02   0.0000000E+00   1.8926408E-03  -1.5729465E-02   0.0000000E+00   2.6702217E-03  -4.2359993E-02   0.0000000E+00   1.4684894E-03  -4.1519519E-02   0.0000000E+00   1.5849017E-03  -4.0200163E-02   0.0000000E+00   1.6436781E-03  -3.8182519E-02   0.0000000E+00   1.6459816E-03  -3.5244178E-02   0.0000000E+00   1.5992280E-03  -3.1192953E-02   0.0000000E+00   1.6105708E-03  -2.5955640E-02   0.0000000E+00   1.8566232E-03  -1.9123524E-02   0.0000000E+00   3.0427000E-03  -4.8757147E-02   0.0000000E+00   1.5908554E-03  -4.7886971E-02   0.0000000E+00   1.6613696E-03  -4.6498232E-02   0.0000000E+00   1.6647016E-03  -4.4329491E-02   0.0000000E+00   1.6296234E-03  -4.1129343E-02   0.0000000E+00   1.5513195E-03  -3.6640611E-02   0.0000000E+00   1.6356186E-03  -3.0882921E-02   0.0000000E+00   1.9946906E-03  -2.3245804E-02   0.0000000E+00   3.4751771E-03  -5.5687565E-02   0.0000000E+00   1.9164432E-03  -5.4798536E-02   0.0000000E+00   1.9605388E-03  -5.3357441E-02   0.0000000E+00   1.9368890E-03  -5.1066373E-02   0.0000000E+00   1.8579536E-03  -4.7601555E-02   0.0000000E+00   1.7425374E-03  -4.2721681E-02   0.0000000E+00   1.8101168E-03  -3.6559958E-02   0.0000000E+00   2.1105378E-03  -2.8669484E-02   0.0000000E+00   3.2557170E-03  -6.3151062E-02   0.0000000E+00   2.5277538E-03  -6.2249981E-02   0.0000000E+00   2.5740999E-03  -6.0782459E-02   0.0000000E+00   2.5253415E-03  -5.8408570E-02   0.0000000E+00   2.3932802E-03  -5.4725949E-02   0.0000000E+00   2.2102420E-03  -4.9588464E-02   0.0000000E+00   2.0840694E-03  -4.3260258E-02   0.0000000E+00   2.1197146E-03  -3.5845939E-02   0.0000000E+00   2.3307705E-03  -7.1166418E-02   0.0000000E+00   3.4818535E-03  -7.0252635E-02   0.0000000E+00   3.5656448E-03  -6.8763778E-02   0.0000000E+00   3.5326779E-03  -6.6365682E-02   0.0000000E+00   3.3352505E-03  -6.2578335E-02   0.0000000E+00   3.0613847E-03  -5.7295632E-02   0.0000000E+00   2.8673592E-03  -5.0957989E-02   0.0000000E+00   3.0077561E-03  -4.3486651E-02   0.0000000E+00   3.5118253E-03  -7.9781666E-02   0.0000000E+00   4.7696363E-03  -7.8831315E-02   0.0000000E+00   5.0387988E-03  -7.7343144E-02   0.0000000E+00   5.0973184E-03  -7.4950606E-02   0.0000000E+00   5.0248965E-03  -7.1173944E-02   0.0000000E+00   5.0285114E-03  -6.5937415E-02   0.0000000E+00   5.5720308E-03  -5.9387527E-02   0.0000000E+00   7.6520871E-03  -5.1574256E-02   0.0000000E+00   1.0249129E-02  -8.9037217E-02   0.0000000E+00   6.4162640E-03  -8.8051490E-02   0.0000000E+00   6.9231740E-03  -8.6554371E-02   0.0000000E+00   7.3015844E-03  -8.4229775E-02   0.0000000E+00   7.6731816E-03  -8.0660924E-02   0.0000000E+00   8.3963685E-03  -7.5624079E-02   0.0000000E+00   1.0038061E-02  -6.9222569E-02   0.0000000E+00   1.3097637E-02  -6.1651904E-02   0.0000000E+00   1.5678992E-02  -9.8988347E-02   0.0000000E+00   8.3823279E-03  -9.7958133E-02   0.0000000E+00   9.2318309E-03  -9.6444257E-02   0.0000000E+00   1.0054614E-02  -9.4187133E-02   0.0000000E+00   1.1004111E-02  -9.0882987E-02   0.0000000E+00   1.2337923E-02  -8.6296149E-02   0.0000000E+00   1.4433197E-02  -8.0419295E-02   0.0000000E+00   1.7081764E-02  -7.3305242E-02   0.0000000E+00   1.9178366E-02  -1.0967640E-01   0.0000000E+00   1.0586455E-02  -1.0858530E-01   0.0000000E+00   1.1792522E-02  -1.0702143E-01   0.0000000E+00   1.3050711E-02  -1.0477348E-01   0.0000000E+00   1.4462022E-02  -1.0161726E-01   0.0000000E+00   1.6115408E-02  -9.7338915E-02   0.0000000E+00   1.8168131E-02  -9.1966845E-02   0.0000000E+00   2.0143425E-02  -8.5550427E-02   0.0000000E+00   2.1830097E-02  -1.2112531E-01   0.0000000E+00   1.2879850E-02  -1.1995679E-01   0.0000000E+00   1.4428563E-02  -1.1829831E-01   0.0000000E+00   1.6020915E-02  -1.1596908E-01   0.0000000E+00   1.7687017E-02  -1.1277863E-01   0.0000000E+00   1.9443177E-02  -1.0855920E-01   0.0000000E+00   2.1313081E-02  -1.0338704E-01   0.0000000E+00   2.2895457E-02  -9.7366549E-02   0.0000000E+00   2.4324058E-02  -1.3336180E-01   0.0000000E+00   1.5139323E-02  -1.3208590E-01   0.0000000E+00   1.6957732E-02  -1.3029943E-01   0.0000000E+00   1.8784199E-02  -1.2781543E-01   0.0000000E+00   2.0585960E-02  -1.2444307E-01   0.0000000E+00   2.2351796E-02  -1.2005676E-01   0.0000000E+00   2.4069209E-02  -1.1474369E-01   0.0000000E+00   2.5463900E-02  -1.0864233E-01   0.0000000E+00   2.6742158E-02  -1.4640754E-01   0.0000000E+00   1.7273916E-02  -1.4499260E-01   0.0000000E+00   1.9287918E-02  -1.4304622E-01   0.0000000E+00   2.1267451E-02  -1.4036120E-01   0.0000000E+00   2.3167197E-02  -1.3673455E-01   0.0000000E+00   2.4939496E-02  -1.3204698E-01   0.0000000E+00   2.6567837E-02  -1.2635061E-01   0.0000000E+00   2.7910206E-02  -1.1977245E-01   0.0000000E+00   2.9105900E-02  -1.6028757E-01   0.0000000E+00   1.9223476E-02  -1.5870094E-01   0.0000000E+00   2.1390462E-02  -1.5656155E-01   0.0000000E+00   2.3488097E-02  -1.5364400E-01   0.0000000E+00   2.5465569E-02  -1.4972268E-01   0.0000000E+00   2.7270634E-02  -1.4466780E-01   0.0000000E+00   2.8872482E-02  -1.3848859E-01   0.0000000E+00   3.0206706E-02  -1.3128352E-01   0.0000000E+00   3.1356689E-02  -1.7502964E-01   0.0000000E+00   2.0951100E-02  -1.7323574E-01   0.0000000E+00   2.3256496E-02  -1.7086986E-01   0.0000000E+00   2.5465369E-02  -1.6768800E-01   0.0000000E+00   2.7522968E-02  -1.6342522E-01   0.0000000E+00   2.9387038E-02  -1.5794519E-01   0.0000000E+00   3.0999765E-02  -1.5122250E-01   0.0000000E+00   3.2325987E-02  -1.4334066E-01   0.0000000E+00   3.3444650E-02  -1.9065982E-01   0.0000000E+00   2.2421801E-02  -1.8862478E-01   0.0000000E+00   2.4858113E-02  -1.8599220E-01   0.0000000E+00   2.7194100E-02  -1.8250507E-01   0.0000000E+00   2.9349772E-02  -1.7784697E-01   0.0000000E+00   3.1299584E-02  -1.7187922E-01   0.0000000E+00   3.2931030E-02  -1.6454229E-01   0.0000000E+00   3.4236759E-02  -1.5592594E-01   0.0000000E+00   3.5301112E-02  -2.0720603E-01   0.0000000E+00   2.3580359E-02  -2.0489228E-01   0.0000000E+00   2.6158050E-02  -2.0195799E-01   0.0000000E+00   2.8624265E-02  -1.9811340E-01   0.0000000E+00   3.0900160E-02  -1.9299714E-01   0.0000000E+00   3.2962039E-02  -1.8646997E-01   0.0000000E+00   3.4625795E-02  -1.7843933E-01   0.0000000E+00   3.5892233E-02  -1.6900983E-01   0.0000000E+00   3.6875252E-02  -2.2469617E-01   0.0000000E+00   2.4384361E-02  -2.2207440E-01   0.0000000E+00   2.7097991E-02  -2.1880007E-01   0.0000000E+00   2.9689336E-02  -2.1455006E-01   0.0000000E+00   3.2076403E-02  -2.0890872E-01   0.0000000E+00   3.4268796E-02  -2.0174183E-01   0.0000000E+00   3.6003076E-02  -1.9293498E-01   0.0000000E+00   3.7226364E-02  -1.8259564E-01   0.0000000E+00   3.8118519E-02  -2.4316640E-01   0.0000000E+00   2.4823591E-02  -2.4021380E-01   0.0000000E+00   2.7639357E-02  -2.3657213E-01   0.0000000E+00   3.0311180E-02  -2.3187450E-01   0.0000000E+00   3.2758933E-02  -2.2565639E-01   0.0000000E+00   3.5053216E-02  -2.1776421E-01   0.0000000E+00   3.6938798E-02  -2.0810676E-01   0.0000000E+00   3.8166221E-02  -1.9677010E-01   0.0000000E+00   3.8980857E-02  -2.6265112E-01   0.0000000E+00   2.4934979E-02  -2.5935942E-01   0.0000000E+00   2.7767839E-02  -2.5532687E-01   0.0000000E+00   3.0443465E-02  -2.5015751E-01   0.0000000E+00   3.2852642E-02  -2.4334127E-01   0.0000000E+00   3.5148893E-02  -2.3466346E-01   0.0000000E+00   3.7276626E-02  -2.2411864E-01   0.0000000E+00   3.8634416E-02  -2.1176413E-01   0.0000000E+00   3.9427884E-02  -2.8314626E-01   0.0000000E+00   2.4808168E-02  -2.7951536E-01   0.0000000E+00   2.7541697E-02  -2.7508664E-01   0.0000000E+00   3.0085757E-02  -2.6943514E-01   0.0000000E+00   3.2348391E-02  -2.6204377E-01   0.0000000E+00   3.4468386E-02  -2.5259313E-01   0.0000000E+00   3.6874216E-02  -2.4120945E-01   0.0000000E+00   3.8552970E-02  -2.2797012E-01   0.0000000E+00   3.9440852E-02  -3.0453029E-01   0.0000000E+00   2.4539707E-02  -3.0054367E-01   0.0000000E+00   2.7082019E-02  -2.9572237E-01   0.0000000E+00   2.9368047E-02  -2.8961608E-01   0.0000000E+00   3.1331219E-02  -2.8169653E-01   0.0000000E+00   3.3106618E-02  -2.7159691E-01   0.0000000E+00   3.5642929E-02  -2.5955135E-01   0.0000000E+00   3.7882935E-02  -2.4580234E-01   0.0000000E+00   3.9034463E-02  -3.2637697E-01   0.0000000E+00   2.4194900E-02  -3.2198888E-01   0.0000000E+00   2.6547309E-02  -3.1675753E-01   0.0000000E+00   2.8507438E-02  -3.1024122E-01   0.0000000E+00   3.0044377E-02  -3.0184838E-01   0.0000000E+00   3.1263132E-02  -2.9132855E-01   0.0000000E+00   3.3691555E-02  -2.7893990E-01   0.0000000E+00   3.6672316E-02  -2.6528364E-01   0.0000000E+00   3.8272403E-02  -3.4770954E-01   0.0000000E+00   2.3869660E-02  -3.4283143E-01   0.0000000E+00   2.6060419E-02  -3.3712825E-01   0.0000000E+00   2.7716743E-02  -3.3009350E-01   0.0000000E+00   2.8879348E-02  -3.2148650E-01   0.0000000E+00   2.9294711E-02  -3.1081310E-01   0.0000000E+00   3.1426739E-02  -2.9848045E-01   0.0000000E+00   3.5132080E-02  -2.8560174E-01   0.0000000E+00   3.7296012E-02  -3.6717787E-01   0.0000000E+00   2.3305647E-02  -3.6176988E-01   0.0000000E+00   2.5385326E-02  -3.5550779E-01   0.0000000E+00   2.6897106E-02  -3.4818864E-01   0.0000000E+00   2.7526196E-02  -3.3927271E-01   0.0000000E+00   2.7572421E-02  -3.2853553E-01   0.0000000E+00   2.9572908E-02  -3.1669021E-01   0.0000000E+00   3.3776604E-02  -3.0502456E-01   0.0000000E+00   3.6462680E-02  -3.8361469E-01   0.0000000E+00   2.1974558E-02  -3.7778524E-01   0.0000000E+00   2.3896014E-02  -3.7127993E-01   0.0000000E+00   2.5199281E-02  -3.6366525E-01   0.0000000E+00   2.5918754E-02  -3.5469809E-01   0.0000000E+00   2.6314354E-02  -3.4401146E-01   0.0000000E+00   2.8949259E-02  -3.3223206E-01   0.0000000E+00   3.3369720E-02  -3.2149091E-01   0.0000000E+00   3.6636427E-02  -3.9617816E-01   0.0000000E+00   1.9544985E-02  -3.9004421E-01   0.0000000E+00   2.1426987E-02  -3.8352334E-01   0.0000000E+00   2.2884179E-02  -3.7609947E-01   0.0000000E+00   2.4369325E-02  -3.6714277E-01   0.0000000E+00   2.6746349E-02  -3.5628977E-01   0.0000000E+00   3.0932385E-02  -3.4435171E-01   0.0000000E+00   3.4962539E-02  -3.3331975E-01   0.0000000E+00   3.8405254E-02  -4.0436515E-01   0.0000000E+00   1.6323743E-02  -3.9800814E-01   0.0000000E+00   1.8509246E-02  -3.9112297E-01   0.0000000E+00   2.1294139E-02  -3.8316056E-01   0.0000000E+00   2.5682339E-02  -3.7347466E-01   0.0000000E+00   3.2112762E-02  -3.6245275E-01   0.0000000E+00   3.6613420E-02  -3.5011786E-01   0.0000000E+00   3.8508151E-02  -3.3693177E-01   0.0000000E+00   4.1661073E-02  -4.0649113E-01   0.0000000E+00   1.4911038E-02  -3.9951476E-01   0.0000000E+00   1.8778937E-02  -3.9195785E-01   0.0000000E+00   2.4280680E-02  -3.8255107E-01   0.0000000E+00   3.2637332E-02  -3.7097478E-01   0.0000000E+00   4.0732060E-02  -3.5933957E-01   0.0000000E+00   4.1669529E-02  -3.4495714E-01   0.0000000E+00   4.1476049E-02  -3.2212132E-01   0.0000000E+00   4.5219466E-02  -3.9720371E-01   0.0000000E+00   2.2381876E-02  -3.8773754E-01   0.0000000E+00   3.0181829E-02  -3.7703422E-01   0.0000000E+00   3.9672308E-02  -3.6454910E-01   0.0000000E+00   4.7928721E-02  -3.5279965E-01   0.0000000E+00   4.8971832E-02  -3.3899713E-01   0.0000000E+00   4.3993935E-02  -3.0641288E-01   0.0000000E+00   4.1125637E-02  -2.4988411E-01   0.0000000E+00   4.5157298E-02  -3.4672102E-01   0.0000000E+00   5.2434068E-02  -3.3425742E-01   0.0000000E+00   5.7571162E-02  -3.2138848E-01   0.0000000E+00   5.7643086E-02  -3.0734184E-01   0.0000000E+00   5.4754343E-02  -2.8461465E-01   0.0000000E+00   4.8909351E-02  -2.4607359E-01   0.0000000E+00   4.0247981E-02  -1.9696562E-01   0.0000000E+00   3.8808849E-02  -1.5131667E-01   0.0000000E+00   4.3276008E-02  -2.2060418E-01   0.0000000E+00   4.2305935E-02  -2.1038589E-01   0.0000000E+00   4.8487540E-02  -1.9962725E-01   0.0000000E+00   4.8586342E-02  -1.8618131E-01   0.0000000E+00   4.5269918E-02  -1.6697834E-01   0.0000000E+00   4.0084410E-02  -1.4145145E-01   0.0000000E+00   3.4893446E-02  -1.1236156E-01   0.0000000E+00   3.5886295E-02  -8.6121723E-02   0.0000000E+00   4.4582531E-02  -1.2977937E-01   0.0000000E+00   2.5998192E-02  -1.2211163E-01   0.0000000E+00   3.1657144E-02  -1.1464173E-01   0.0000000E+00   3.5309177E-02  -1.0602804E-01   0.0000000E+00   3.3035897E-02  -9.5027186E-02   0.0000000E+00   2.9353222E-02  -8.1549965E-02   0.0000000E+00   2.9222284E-02  -6.7073606E-02   0.0000000E+00   3.2651499E-02  -5.3602733E-02   0.0000000E+00   4.6900976E-02  -6.9332942E-02   0.0000000E+00   1.4016998E-02  -6.5160796E-02   0.0000000E+00   1.8056346E-02  -6.1440259E-02   0.0000000E+00   2.2411993E-02  -5.7663515E-02   0.0000000E+00   2.3170192E-02  -5.3366099E-02   0.0000000E+00   2.1060457E-02  -4.8443541E-02   0.0000000E+00   2.6544824E-02  -4.3159772E-02   0.0000000E+00   3.0503344E-02  -3.7526026E-02   0.0000000E+00   4.7179695E-02  -1.8928112E-02   0.0000000E+00   8.4800152E-03  -1.7814459E-02   0.0000000E+00   1.2058999E-02  -1.7184544E-02   0.0000000E+00   1.6490296E-02  -1.7082922E-02   0.0000000E+00   1.9289805E-02  -1.7690564E-02   0.0000000E+00   1.8956093E-02  -1.8910082E-02   0.0000000E+00   2.4619158E-02  -1.9985834E-02   0.0000000E+00   2.8818974E-02  -2.0086844E-02   0.0000000E+00   4.6697732E-02   3.6048703E-02   0.0000000E+00   9.1405846E-03   3.5551433E-02   0.0000000E+00   1.3124024E-02   3.4754131E-02   0.0000000E+00   1.8272255E-02   3.2873433E-02   0.0000000E+00   2.2745997E-02   2.8824290E-02   0.0000000E+00   2.1040602E-02   2.2515524E-02   0.0000000E+00   2.2845868E-02   1.5415352E-02   0.0000000E+00   2.7742537E-02   9.0679135E-03   0.0000000E+00   4.6132561E-02   9.9678911E-02   0.0000000E+00   1.4136648E-02   9.9218026E-02   0.0000000E+00   1.8795254E-02   9.8772041E-02   0.0000000E+00   2.4488499E-02   9.6519403E-02   0.0000000E+00   2.7398206E-02   8.9791849E-02   0.0000000E+00   2.3693677E-02   7.8438394E-02   0.0000000E+00   2.2772161E-02   6.4284243E-02   0.0000000E+00   2.7866574E-02   5.0069112E-02   0.0000000E+00   4.5907136E-02   1.6825238E-01   0.0000000E+00   2.1040201E-02   1.6899474E-01   0.0000000E+00   2.6279368E-02   1.7006749E-01   0.0000000E+00   3.1617343E-02   1.6823687E-01   0.0000000E+00   3.1748295E-02   1.5918286E-01   0.0000000E+00   2.6982483E-02   1.4223857E-01   0.0000000E+00   2.4972662E-02   1.2000772E-01   0.0000000E+00   2.9427823E-02   9.6659169E-02   0.0000000E+00   4.6202451E-02   2.3632874E-01   0.0000000E+00   2.7714834E-02   2.3865765E-01   0.0000000E+00   3.3286162E-02   2.4147049E-01   0.0000000E+00   3.7642773E-02   2.3976034E-01   0.0000000E+00   3.5993166E-02   2.2834972E-01   0.0000000E+00   3.1341698E-02   2.0547388E-01   0.0000000E+00   2.8865883E-02   1.7486276E-01   0.0000000E+00   3.2439124E-02   1.4222747E-01   0.0000000E+00   4.7041923E-02   3.0047283E-01   0.0000000E+00   3.2771859E-02   3.0405328E-01   0.0000000E+00   3.8495388E-02   3.0792049E-01   0.0000000E+00   4.2024158E-02   3.0510491E-01   0.0000000E+00   3.9650507E-02   2.8989419E-01   0.0000000E+00   3.5699829E-02   2.6253149E-01   0.0000000E+00   3.3864431E-02   2.2439232E-01   0.0000000E+00   3.6724497E-02   1.8332478E-01   0.0000000E+00   4.8452366E-02   3.5620591E-01   0.0000000E+00   3.5641491E-02   3.6124566E-01   0.0000000E+00   4.1547384E-02   3.6590272E-01   0.0000000E+00   4.4377096E-02   3.6076558E-01   0.0000000E+00   4.1882493E-02   3.4148324E-01   0.0000000E+00   3.8783617E-02   3.0963525E-01   0.0000000E+00   3.8672533E-02   2.6724222E-01   0.0000000E+00   4.2235848E-02   2.1970767E-01   0.0000000E+00   5.0770678E-02   3.9487383E-01   0.0000000E+00   3.6856603E-02   4.0061009E-01   0.0000000E+00   4.3280691E-02   4.0641874E-01   0.0000000E+00   4.7048584E-02   4.0388530E-01   0.0000000E+00   4.4364426E-02   3.8426280E-01   0.0000000E+00   4.2217370E-02   3.4743902E-01   0.0000000E+00   4.4774115E-02   3.0232322E-01   0.0000000E+00   4.7691710E-02   2.5261384E-01   0.0000000E+00   5.3674001E-02   4.1854089E-01   0.0000000E+00   3.8343120E-02   4.2478350E-01   0.0000000E+00   4.5347203E-02   4.3147218E-01   0.0000000E+00   5.1271956E-02   4.3187612E-01   0.0000000E+00   4.9554009E-02   4.1751766E-01   0.0000000E+00   4.7163453E-02   3.8037738E-01   0.0000000E+00   5.0772011E-02   3.3447865E-01   0.0000000E+00   5.2094512E-02   2.8441715E-01   0.0000000E+00   5.6505781E-02   4.2878082E-01   0.0000000E+00   4.1805718E-02   4.3560141E-01   0.0000000E+00   4.9252644E-02   4.4314724E-01   0.0000000E+00   5.6598671E-02   4.4707879E-01   0.0000000E+00   5.7460140E-02   4.4080371E-01   0.0000000E+00   5.4026186E-02   4.1046610E-01   0.0000000E+00   5.5404872E-02   3.6603421E-01   0.0000000E+00   5.5957053E-02   3.1673044E-01   0.0000000E+00   5.9221193E-02   4.3244979E-01   0.0000000E+00   4.4833232E-02   4.3987674E-01   0.0000000E+00   5.2333299E-02   4.4860902E-01   0.0000000E+00   6.0063444E-02   4.5494565E-01   0.0000000E+00   6.3316941E-02   4.5407924E-01   0.0000000E+00   6.0763311E-02   4.3766561E-01   0.0000000E+00   5.9000742E-02   3.9714238E-01   0.0000000E+00   5.9050269E-02   3.5008052E-01   0.0000000E+00   6.1675083E-02   4.3284824E-01   0.0000000E+00   4.6849951E-02   4.4106129E-01   0.0000000E+00   5.4298613E-02   4.5059642E-01   0.0000000E+00   6.1596580E-02   4.5922589E-01   0.0000000E+00   6.5986313E-02   4.6243471E-01   0.0000000E+00   6.4672299E-02   4.5652032E-01   0.0000000E+00   6.2198155E-02   4.2748377E-01   0.0000000E+00   6.0499597E-02   3.8488716E-01   0.0000000E+00   6.3521363E-02   4.3168816E-01   0.0000000E+00   4.7425807E-02   4.4052392E-01   0.0000000E+00   5.4377593E-02   4.5070279E-01   0.0000000E+00   6.0902078E-02   4.6045128E-01   0.0000000E+00   6.5047085E-02   4.6657082E-01   0.0000000E+00   6.4559706E-02   4.6722364E-01   0.0000000E+00   6.2697083E-02   4.5506543E-01   0.0000000E+00   6.0462564E-02   4.2111355E-01   0.0000000E+00   6.5002687E-02   4.2923918E-01   0.0000000E+00   4.6709698E-02   4.3889791E-01   0.0000000E+00   5.3086367E-02   4.4992977E-01   0.0000000E+00   5.8660068E-02   4.6043000E-01   0.0000000E+00   6.2052064E-02   4.6794692E-01   0.0000000E+00   6.1557882E-02   4.7230580E-01   0.0000000E+00   6.0255256E-02   4.7052243E-01   0.0000000E+00   5.8645815E-02   4.5724058E-01   0.0000000E+00   6.0946297E-02   4.2591664E-01   0.0000000E+00   4.5201536E-02   4.3654647E-01   0.0000000E+00   5.0480630E-02   4.4856092E-01   0.0000000E+00   5.4855831E-02   4.5962465E-01   0.0000000E+00   5.7476234E-02   4.6731514E-01   0.0000000E+00   5.6551047E-02   4.7282186E-01   0.0000000E+00   5.5937465E-02   4.7660047E-01   0.0000000E+00   5.6330450E-02   4.7075701E-01   0.0000000E+00   5.7182129E-02   4.2214274E-01   0.0000000E+00   4.2535417E-02   4.3384969E-01   0.0000000E+00   4.6581496E-02   4.4674110E-01   0.0000000E+00   5.0095271E-02   4.5776257E-01   0.0000000E+00   5.1459327E-02   4.6485656E-01   0.0000000E+00   5.0433498E-02   4.7064376E-01   0.0000000E+00   5.1719408E-02   4.7686058E-01   0.0000000E+00   5.3454138E-02   4.1823295E-01   0.0000000E+00   3.8807373E-02   4.3112022E-01   0.0000000E+00   4.1974597E-02   4.4445401E-01   0.0000000E+00   4.4563979E-02   4.5443749E-01   0.0000000E+00   4.4790268E-02   4.6073902E-01   0.0000000E+00   4.4658076E-02   4.6725905E-01   0.0000000E+00   4.7762595E-02   4.7263455E-01   0.0000000E+00   5.0194178E-02   4.1471970E-01   0.0000000E+00   3.4293495E-02   4.2845687E-01   0.0000000E+00   3.7076227E-02   4.4142678E-01   0.0000000E+00   3.8608398E-02   4.4973513E-01   0.0000000E+00   3.8016945E-02   4.5633525E-01   0.0000000E+00   4.0136024E-02   4.6329385E-01   0.0000000E+00   4.4070031E-02   4.1189703E-01   0.0000000E+00   2.9722380E-02   4.2565829E-01   0.0000000E+00   3.1906735E-02   4.3735451E-01   0.0000000E+00   3.2405667E-02   4.4453335E-01   0.0000000E+00   3.2354675E-02   4.5195758E-01   0.0000000E+00   3.6560684E-02   4.5677805E-01   0.0000000E+00   4.0682886E-02   4.0922233E-01   0.0000000E+00   2.5045572E-02   4.2212012E-01   0.0000000E+00   2.6432628E-02   4.3256482E-01   0.0000000E+00   2.6962895E-02   4.3939602E-01   0.0000000E+00   2.9118843E-02   4.4627440E-01   0.0000000E+00   3.4249861E-02   4.0607885E-01   0.0000000E+00   2.0354230E-02   4.1759768E-01   0.0000000E+00   2.1527555E-02   4.2723975E-01   0.0000000E+00   2.4083313E-02   4.3302613E-01   0.0000000E+00   2.7736953E-02   4.0130135E-01   0.0000000E+00   1.6204374E-02   4.1161335E-01   0.0000000E+00   1.9109473E-02   4.1953069E-01   0.0000000E+00   2.3284679E-02   4.1937456E-01   0.0000000E+00   2.6626311E-02   3.9385787E-01   0.0000000E+00   1.4536673E-02   4.0121803E-01   0.0000000E+00   1.8795330E-02   3.8026041E-01   0.0000000E+00   1.3693433E-02 
Acec 3 2975 float
  0.0000000E+00   0.0000000E+00   0.0000000E+00   0.0000000E+00   0.0000000E+00   0.0000000E+00   0.0000000E+00   0.0000000E+00   0.0000000E+00   0.0000000E+00   0.0000000E+00   0.0000000E+00   0.0000000E+00   0.0000000E+00   0.0000000E+00   0.0000000E+00   0.0000000E+00   0.0000000E+00   0.0000000E+00   0.0000000E+00   0.0000000E+00   0.0000000E+00   0.0000000E+00   0.0000000E+00   0.0000000E+00   0.0000000E+00   0.0000000E+00   0.0000000E+00   0.0000000E+00   0.0000000E+00   0.0000000E+00   0.0000000E+00   0.0000000E+00   0.0000000E+00   0.0000000E+00   0.0000000E+00   0.0000000E+00   0.0000000E+00   0.0000000E+00   0.0000000E+00   0.0000000E+00   0.0000000E+00   0.0000000E+00   0.0000000E+00   0.0000000E+00   0.0000000E+00   0.0000000E+00   0.0000000E+00   0.0000000E+00   0.0000000E+00   0.0000000E+00   0.0000000E+00   0.0000000E+00   0.0000000E+00   0.0000000E+00   0.0000000E+00   0.0000000E+00   0.0000000E+00   0.0000000E+00   0.0000000E+00   0.0000000E+00   0.0000000E+00   0.0000000E+00   0.0000000E+00   0.0000000E+00   0.0000000E+00   0.0000000E+00   0.0000000E+00   0.0000000E+00   0.0000000E+00   0.0000000E+00   0.0000000E+00   0.0000000E+00   0.0000000E+00   0.0000000E+00   0.0000000E+00   0.0000000E+00   0.0000000E+00   0.0000000E+00   0.0000000E+00   0.0000000E+00   0.0000000E+00   0.0000000E+00   0.0000000E+00   0.0000000E+00   0.0000000E+00   0.0000000E+00   0.0000000E+00   0.0000000E+00   0.0000000E+00   0.0000000E+00   0.0000000E+00   0.0000000E+00   0.0000000E+00   0.0000000E+00   0.0000000E+00   0.0000000E+00   0.0000000E+00   0.0000000E+00   0.0000000E+00   0.0000000E+00   0.0000000E+00   0.0000000E+00   0.0000000E+00   0.0000000E+00   0.0000000E+00   0.0000000E+00   0.0000000E+00   0.0000000E+00   0.0000000E+00   0.0000000E+00   0.0000000E+00   0.0000000E+00   0.0000000E+00   0.0000000E+00   0.0000000E+00   0.0000000E+00   0.0000000E+00   0.0000000E+00   0.0000000E+00   0.0000000E+00   0.0000000E+00   0.0000000E+00   0.0000000E+00   0.0000000E+00   0.0000000E+00   0.0000000E+00   0.0000000E+00   0.0000000E+00   0.0000000E+00   0.0000000E+00   0.0000000E+00   0.0000000E+00   0.0000000E+00   0.0000000E+00   0.0000000E+00   0.0000000E+00   0.0000000E+00   0.0000000E+00   0.0000000E+00   0.0000000E+00   0.0000000E+00   0.0000000E+00   0.0000000E+00   0.0000000E+00   0.0000000E+00   0.0000000E+00   0.0000000E+00   0.0000000E+00   0.0000000E+00   0.0000000E+00   0.0000000E+00   0.0000000E+00   0.0000000E+00   0.0000000E+00   0.0000000E+00   0.0000000E+00   0.0000000E+00   0.0000000E+00   0.0000000E+00   0.0000000E+00   0.0000000E+00   0.0000000E+00   0.0000000E+00   0.0000000E+00   0.0000000E+00   0.0000000E+00   0.0000000E+00   0.0000000E+00   0.0000000E+00   0.0000000E+00   0.0000000E+00   0.0000000E+00   0.0000000E+00   0.0000000E+00   0.0000000E+00   0.0000000E+00   0.0000000E+00   0.0000000E+00   0.0000000E+00   0.0000000E+00   0.0000000E+00   0.0000000E+00   0.0000000E+00   0.0000000E+00   0.0000000E+00   0.0000000E+00   0.0000000E+00   0.0000000E+00   0.0000000E+00   0.0000000E+00   0.0000000E+00   0.0000000E+00   0.0000000E+00   0.0000000E+00   0.0000000E+00   0.0000000E+00   0.0000000E+00   0.0000000E+00   0.0000000E+00   0.0000000E+00   0.0000000E+00   0.0000000E+00   0.0000000E+00   0.0000000E+00   0.0000000E+00   0.0000000E+00   0.0000000E+00   0.0000000E+00   0.0000000E+00   0.0000000E+00   0.0000000E+00   0.0000000E+00   0.0000000E+00   0.0000000E+00   0.0000000E+00   0.0000000E+00   0.0000000E+00   0.0000000E+00   0.0000000E+00   0.0000000E+00   0.0000000E+00   0.0000000E+00   0.0000000E+00   0.0000000E+00   0.0000000E+00   0.0000000E+00   0.0000000E+00   0.0000000E+00   0.0000000E+00   0.0000000E+00   0.0000000E+00   0.0000000E+00   0.0000000E+00   0.0000000E+00   0.0000000E+00   0.0000000E+00   0.0000000E+00   0.0000000E+00   0.0000000E+00   0.0000000E+00   0.0000000E+00   0.0000000E+00   0.0000000E+00   0.0000000E+00   0.0000000E+00   0.0000000E+00   0.0000000E+00   0.0000000E+00   0.0000000E+00   0.0000000E+00   0.0000000E+00   0.0000000E+00   0.0000000E+00   0.0000000E+00   0.0000000E+00   0.0000000E+00   0.0000000E+00   0.0000000E+00   0.0000000E+00   0.0000000E+00   0.0000000E+00   0.0000000E+00   0.0000000E+00   0.0000000E+00   0.0000000E+00   0.0000000E+00   0.0000000E+00   0.0000000E+00   0.0000000E+00   0.0000000E+00   0.0000000E+00   0.0000000E+00   0.0000000E+00   0.0000000E+00   0.0000000E+00   0.0000000E+00   0.0000000E+00   0.0000000E+00   0.0000000E+00   0.0000000E+00   0.0000000E+00   0.0000000E+00   0.0000000E+00   0.0000000E+00   0.0000000E+00   0.0000000E+00   0.0000000E+00   0.0000000E+00   0.0000000E+00   0.0000000E+00   0.0000000E+00   0.0000000E+00   0.0000000E+00   0.0000000E+00   0.0000000E+00   0.0000000E+00   0.0000000E+00   0.0000000E+00   0.0000000E+00   0.0000000E+00   0.0000000E+00   0.0000000E+00   0.0000000E+00   0.0000000E+00   0.0000000E+00   0.0000000E+00   0.0000000E+00   0.0000000E+00   0.0000000E+00   0.0000000E+00   0.0000000E+00   0.0000000E+00   0.0000000E+00   0.0000000E+00   0.0000000E+00   0.0000000E+00   0.0000000E+00   0.0000000E+00   0.0000000E+00   0.0000000E+00   0.0000000E+00   0.0000000E+00   0.0000000E+00   0.0000000E+00   0.0000000E+00   0.0000000E+00   0.0000000E+00   0.0000000E+00   0.0000000E+00   0.0000000E+00   0.0000000E+00   0.0000000E+00   0.0000000E+00   0.0000000E+00   0.0000000E+00   0.0000000E+00   0.0000000E+00   0.0000000E+00   0.0000000E+00   0.0000000E+00   0.0000000E+00   0.0000000E+00   0.0000000E+00   0.0000000E+00   0.0000000E+00   0.0000000E+00   0.0000000E+00   0.0000000E+00   0.0000000E+00   0.0000000E+00   0.0000000E+00   0.0000000E+00   0.0000000E+00   0.0000000E+00   0.0000000E+00   0.0000000E+00   0.0000000E+00   0.0000000E+00   0.0000000E+00   0.0000000E+00   0.0000000E+00   0.0000000E+00   0.0000000E+00   0.0000000E+00   0.0000000E+00   0.0000000E+00   0.0000000E+00   0.0000000E+00   0.0000000E+00   0.0000000E+00   0.0000000E+00   0.0000000E+00   0.0000000E+00   0.0000000E+00   0.0000000E+00   0.0000000E+00   0.0000000E+00   0.0000000E+00   0.0000000E+00   0.0000000E+00   0.0000000E+00   0.0000000E+00   0.0000000E+00   0.0000000E+00   0.0000000E+00   0.0000000E+00   0.0000000E+00   0.0000000E+00   0.0000000E+00   0.0000000E+00   0.0000000E+00   0.0000000E+00   0.0000000E+00   0.0000000E+00   0.0000000E+00   0.0000000E+00   0.0000000E+00   0.0000000E+00   0.0000000E+00   0.0000000E+00   0.0000000E+00   0.0000000E+00   0.0000000E+00   0.0000000E+00   0.0000000E+00   0.0000000E+00   0.0000000E+00   0.0000000E+00   0.0000000E+00   0.0000000E+00   0.0000000E+00   0.0000000E+00   0.0000000E+00   0.0000000E+00   0.0000000E+00   0.0000000E+00   0.0000000E+00   0.0000000E+00   0.0000000E+00   0.0000000E+00   0.0000000E+00   0.0000000E+00   0.0000000E+00   0.0000000E+00   0.0000000E+00   0.0000000E+00   0.0000000E+00   0.0000000E+00   0.0000000E+00   0.0000000E+00   0.0000000E+00   0.0000000E+00   0.0000000E+00   0.0000000E+00   0.0000000E+00   0.0000000E+00   0.0000000E+00   0.0000000E+00   0.0000000E+00   0.0000000E+00   0.0000000E+00   0.0000000E+00   0.0000000E+00   0.0000000E+00   0.0000000E+00   0.0000000E+00   0.0000000E+00   0.0000000E+00   0.0000000E+00   0.0000000E+00   0.0000000E+00   0.0000000E+00   0.0000000E+00   0.0000000E+00   0.0000000E+00   0.0000000E+00   0.0000000E+00   0.0000000E+00   0.0000000E+00   0.0000000E+00   0.0000000E+00   0.0000000E+00   0.0000000E+00   0.0000000E+00   0.0000000E+00   0.0000000E+00   0.0000000E+00   0.0000000E+00   0.0000000E+00   0.0000000E+00   0.0000000E+00   0.0000000E+00   0.0000000E+00   0.0000000E+00   0.0000000E+00   0.0000000E+00   0.0000000E+00   0.0000000E+00   0.0000000E+00   0.0000000E+00   0.0000000E+00   0.0000000E+00   0.0000000E+00   0.0000000E+00   0.0000000E+00   0.0000000E+00   0.0000000E+00   0.0000000E+00   0.0000000E+00   0.0000000E+00   0.0000000E+00   0.0000000E+00   0.0000000E+00   0.0000000E+00   0.0000000E+00   0.0000000E+00   0.0000000E+00   0.0000000E+00   0.0000000E+00   0.0000000E+00   0.0000000E+00   0.0000000E+00   0.0000000E+00   0.0000000E+00   0.0000000E+00   0.0000000E+00   0.0000000E+00   0.0000000E+00   0.0000000E+00   0.0000000E+00   0.0000000E+00   0.0000000E+00   0.0000000E+00   0.0000000E+00   0.0000000E+00   0.0000000E+00   0.0000000E+00   0.0000000E+00   0.0000000E+00   0.0000000E+00   0.0000000E+00   0.0000000E+00   0.0000000E+00   0.0000000E+00   0.0000000E+00   0.0000000E+00   0.0000000E+00   0.0000000E+00   0.0000000E+00   0.0000000E+00   0.0000000E+00   0.0000000E+00   0.0000000E+00   0.0000000E+00   0.0000000E+00   0.0000000E+00   0.0000000E+00   0.0000000E+00   0.0000000E+00   0.0000000E+00   0.0000000E+00   0.0000000E+00   0.0000000E+00   0.0000000E+00   0.0000000E+00   0.0000000E+00   0.0000000E+00   0.0000000E+00   0.0000000E+00   0.0000000E+00   0.0000000E+00   0.0000000E+00   0.0000000E+00   0.0000000E+00   0.0000000E+00   0.0000000E+00   0.0000000E+00   0.0000000E+00   0.0000000E+00   0.0000000E+00   0.0000000E+00   0.0000000E+00   0.0000000E+00   0.0000000E+00   0.0000000E+00   0.0000000E+00   0.0000000E+00   0.0000000E+00   0.0000000E+00   0.0000000E+00   0.0000000E+00   0.0000000E+00   0.0000000E+00   0.0000000E+00   0.0000000E+00   0.0000000E+00   0.0000000E+00   0.0000000E+00   0.0000000E+00   0.0000000E+00   0.0000000E+00   0.0000000E+00   0.0000000E+00   0.0000000E+00   0.0000000E+00   0.0000000E+00   0.0000000E+00   0.0000000E+00   0.0000000E+00   0.0000000E+00   0.0000000E+00   0.0000000E+00   0.0000000E+00   0.0000000E+00   0.0000000E+00   0.0000000E+00   0.0000000E+00   0.0000000E+00   0.0000000E+00   0.0000000E+00   0.0000000E+00   0.0000000E+00   0.0000000E+00   0.0000000E+00   0.0000000E+00   0.0000000E+00   0.0000000E+00   0.0000000E+00   0.0000000E+00   0.0000000E+00   0.0000000E+00   0.0000000E+00   0.0000000E+00   0.0000000E+00   0.0000000E+00   0.0000000E+00   0.0000000E+00   0.0000000E+00   0.0000000E+00   0.0000000E+00   0.0000000E+00   0.0000000E+00   0.0000000E+00   0.0000000E+00   0.0000000E+00   0.0000000E+00   0.0000000E+00   0.0000000E+00   0.0000000E+00   0.0000000E+00   0.0000000E+00   0.0000000E+00   0.0000000E+00   0.0000000E+00   0.0000000E+00   0.0000000E+00   0.0000000E+00   0.0000000E+00   0.0000000E+00   0.0000000E+00   0.0000000E+00   0.0000000E+00   0.0000000E+00   0.0000000E+00   0.0000000E+00   0.0000000E+00   0.0000000E+00   0.0000000E+00   0.0000000E+00   0.0000000E+00   0.0000000E+00   0.0000000E+00   0.0000000E+00   0.0000000E+00   0.0000000E+00   0.0000000E+00   0.0000000E+00   0.0000000E+00   0.0000000E+00   0.0000000E+00   0.0000000E+00   0.0000000E+00   0.0000000E+00   0.0000000E+00   0.0000000E+00   0.0000000E+00   0.0000000E+00   0.0000000E+00   0.0000000E+00   0.0000000E+00   0.0000000E+00   0.0000000E+00   0.0000000E+00   0.0000000E+00   0.0000000E+00   0.0000000E+00   0.0000000E+00   0.0000000E+00   0.0000000E+00   0.0000000E+00   0.0000000E+00   0.0000000E+00   0.0000000E+00   0.0000000E+00   0.0000000E+00   0.0000000E+00   0.0000000E+00   0.0000000E+00   0.0000000E+00   0.0000000E+00   0.0000000E+00   0.0000000E+00   0.0000000E+00   0.0000000E+00   0.0000000E+00   0.0000000E+00   0.0000000E+00   0.0000000E+00   0.0000000E+00   0.0000000E+00   0.0000000E+00   0.0000000E+00   0.0000000E+00   0.0000000E+00   0.0000000E+00   0.0000000E+00   0.0000000E+00   0.0000000E+00   0.0000000E+00   0.0000000E+00   0.0000000E+00   0.0000000E+00   0.0000000E+00   0.0000000E+00   0.0000000E+00   0.0000000E+00   0.0000000E+00   0.0000000E+00   0.0000000E+00   0.0000000E+00   0.0000000E+00   0.0000000E+00   0.0000000E+00   0.0000000E+00   0.0000000E+00   0.0000000E+00   0.0000000E+00   0.0000000E+00   0.0000000E+00   0.0000000E+00   0.0000000E+00   0.0000000E+00   0.0000000E+00   0.0000000E+00   0.0000000E+00   0.0000000E+00   0.0000000E+00   0.0000000E+00   0.0000000E+00   0.0000000E+00   0.0000000E+00   0.0000000E+00   0.0000000E+00   0.0000000E+00   0.0000000E+00   0.0000000E+00   0.0000000E+00   0.0000000E+00   0.0000000E+00   0.0000000E+00   0.0000000E+00   0.0000000E+00   0.0000000E+00   0.0000000E+00   0.0000000E+00   0.0000000E+00   0.0000000E+00   0.0000000E+00   0.0000000E+00   0.0000000E+00   0.0000000E+00   0.0000000E+00   0.0000000E+00   0.0000000E+00   0.0000000E+00   0.0000000E+00   0.0000000E+00   0.0000000E+00   0.0000000E+00   0.0000000E+00   0.0000000E+00   0.0000000E+00   0.0000000E+00   0.0000000E+00   0.0000000E+00   0.0000000E+00   0.0000000E+00   0.0000000E+00   0.0000000E+00   0.0000000E+00   0.0000000E+00   0.0000000E+00   0.0000000E+00   0.0000000E+00   0.0000000E+00   0.0000000E+00   0.0000000E+00   0.0000000E+00   0.0000000E+00   0.0000000E+00   0.0000000E+00   0.0000000E+00   0.0000000E+00   0.0000000E+00   0.0000000E+00   0.0000000E+00   0.0000000E+00   0.0000000E+00   0.0000000E+00   0.0000000E+00   0.0000000E+00   0.0000000E+00   0.0000000E+00   0.0000000E+00   0.0000000E+00   0.0000000E+00   0.0000000E+00   0.0000000E+00   0.0000000E+00   0.0000000E+00   0.0000000E+00   0.0000000E+00   0.0000000E+00   0.0000000E+00   0.0000000E+00   0.0000000E+00   0.0000000E+00   0.0000000E+00   0.0000000E+00   0.0000000E+00   0.0000000E+00   0.0000000E+00   0.0000000E+00   0.0000000E+00   0.0000000E+00   0.0000000E+00   0.0000000E+00   0.0000000E+00   0.0000000E+00   0.0000000E+00   0.0000000E+00   0.0000000E+00   0.0000000E+00   0.0000000E+00   0.0000000E+00   0.0000000E+00   0.0000000E+00   0.0000000E+00   0.0000000E+00   0.0000000E+00   0.0000000E+00   0.0000000E+00   0.0000000E+00   0.0000000E+00   0.0000000E+00   0.0000000E+00   0.0000000E+00   0.0000000E+00   0.0000000E+00   0.0000000E+00   0.0000000E+00   0.0000000E+00   0.0000000E+00   0.0000000E+00   0.0000000E+00   0.0000000E+00   0.0000000E+00   0.0000000E+00   0.0000000E+00   0.0000000E+00   0.0000000E+00   0.0000000E+00   0.0000000E+00   0.0000000E+00   0.0000000E+00   0.0000000E+00   0.0000000E+00   0.0000000E+00   0.0000000E+00   0.0000000E+00   0.0000000E+00   0.0000000E+00   0.0000000E+00   0.0000000E+00   0.0000000E+00   0.0000000E+00   0.0000000E+00   0.0000000E+00   0.0000000E+00   0.0000000E+00   0.0000000E+00   0.0000000E+00   0.0000000E+00   0.0000000E+00   0.0000000E+00   0.0000000E+00   0.0000000E+00   0.0000000E+00   0.0000000E+00   0.0000000E+00   0.0000000E+00   0.0000000E+00   0.0000000E+00   0.0000000E+00   0.0000000E+00   0.0000000E+00   0.0000000E+00   0.0000000E+00   0.0000000E+00   0.0000000E+00   0.0000000E+00   0.0000000E+00   0.0000000E+00   0.0000000E+00   0.0000000E+00   0.0000000E+00   0.0000000E+00   0.0000000E+00   0.0000000E+00   0.0000000E+00   0.0000000E+00   0.0000000E+00   0.0000000E+00   0.0000000E+00   0.0000000E+00   0.0000000E+00   0.0000000E+00   0.0000000E+00   0.0000000E+00   0.0000000E+00   0.0000000E+00   0.0000000E+00   0.0000000E+00   0.0000000E+00   0.0000000E+00   0.0000000E+00   0.0000000E+00   0.0000000E+00   0.0000000E+00   0.0000000E+00   0.0000000E+00   0.0000000E+00   0.0000000E+00   0.0000000E+00   0.0000000E+00   0.0000000E+00   0.0000000E+00   0.0000000E+00   0.0000000E+00   0.0000000E+00   0.0000000E+00   0.0000000E+00   0.0000000E+00   0.0000000E+00   0.0000000E+00   0.0000000E+00   0.0000000E+00   0.0000000E+00   0.0000000E+00   0.0000000E+00   0.0000000E+00   0.0000000E+00   0.0000000E+00   0.0000000E+00   0.0000000E+00   0.0000000E+00   0.0000000E+00   0.0000000E+00   0.0000000E+00   0.0000000E+00   0.0000000E+00   0.0000000E+00   0.0000000E+00   0.0000000E+00   0.0000000E+00   0.0000000E+00   0.0000000E+00   0.0000000E+00   0.0000000E+00   0.0000000E+00   0.0000000E+00   0.0000000E+00   0.0000000E+00   0.0000000E+00   0.0000000E+00   0.0000000E+00   0.0000000E+00   0.0000000E+00   0.0000000E+00   0.0000000E+00   0.0000000E+00   0.0000000E+00   0.0000000E+00   0.0000000E+00   0.0000000E+00   0.0000000E+00   0.0000000E+00   0.0000000E+00   0.0000000E+00   0.0000000E+00   0.0000000E+00   0.0000000E+00   0.0000000E+00   0.0000000E+00   0.0000000E+00   0.0000000E+00   0.0000000E+00   0.0000000E+00   0.0000000E+00   0.0000000E+00   0.0000000E+00   0.0000000E+00   0.0000000E+00   0.0000000E+00   0.0000000E+00   0.0000000E+00   0.0000000E+00   0.0000000E+00   0.0000000E+00   0.0000000E+00   0.0000000E+00   0.0000000E+00   0.0000000E+00   0.0000000E+00   0.0000000E+00   0.0000000E+00   0.0000000E+00   0.0000000E+00   0.0000000E+00   0.0000000E+00   0.0000000E+00   0.0000000E+00   0.0000000E+00   0.0000000E+00   0.0000000E+00   0.0000000E+00   0.0000000E+00   0.0000000E+00   0.0000000E+00   0.0000000E+00   0.0000000E+00   0.0000000E+00   0.0000000E+00   0.0000000E+00   0.0000000E+00   0.0000000E+00   0.0000000E+00   0.0000000E+00   0.0000000E+00   0.0000000E+00   0.0000000E+00   0.0000000E+00   0.0000000E+00   0.0000000E+00   0.0000000E+00   0.0000000E+00   0.0000000E+00   0.0000000E+00   0.0000000E+00   0.0000000E+00   0.0000000E+00   0.0000000E+00   0.0000000E+00   0.0000000E+00   0.0000000E+00   0.0000000E+00   0.0000000E+00   0.0000000E+00   0.0000000E+00   0.0000000E+00   0.0000000E+00   0.0000000E+00   0.0000000E+00   0.0000000E+00   0.0000000E+00   0.0000000E+00   0.0000000E+00   0.0000000E+00   0.0000000E+00   0.0000000E+00   0.0000000E+00   0.0000000E+00   0.0000000E+00   0.0000000E+00   0.0000000E+00   0.0000000E+00   0.0000000E+00   0.0000000E+00   0.0000000E+00   0.0000000E+00   0.0000000E+00   0.0000000E+00   0.0000000E+00   0.0000000E+00   0.0000000E+00   0.0000000E+00   0.0000000E+00   0.0000000E+00   0.0000000E+00   0.0000000E+00   0.0000000E+00   0.0000000E+00   0.0000000E+00   0.0000000E+00   0.0000000E+00   0.0000000E+00   0.0000000E+00   0.0000000E+00   0.0000000E+00   0.0000000E+00   0.0000000E+00   0.0000000E+00   0.0000000E+00   0.0000000E+00   0.0000000E+00   0.0000000E+00   0.0000000E+00   0.0000000E+00   0.0000000E+00   0.0000000E+00   0.0000000E+00   0.0000000E+00   0.0000000E+00   0.0000000E+00   0.0000000E+00   0.0000000E+00   0.0000000E+00   0.0000000E+00   0.0000000E+00   0.0000000E+00   0.0000000E+00   0.0000000E+00   0.0000000E+00   0.0000000E+00   0.0000000E+00   0.0000000E+00   0.0000000E+00   0.0000000E+00   0.0000000E+00   0.0000000E+00   0.0000000E+00   0.0000000E+00   0.0000000E+00   0.0000000E+00   0.0000000E+00   0.0000000E+00   0.0000000E+00   0.0000000E+00   0.0000000E+00   0.0000000E+00   0.0000000E+00   0.0000000E+00   0.0000000E+00   0.0000000E+00   0.0000000E+00   0.0000000E+00   0.0000000E+00   0.0000000E+00   0.0000000E+00   0.0000000E+00   0.0000000E+00   0.0000000E+00   0.0000000E+00   0.0000000E+00   0.0000000E+00   0.0000000E+00   0.0000000E+00   0.0000000E+00   0.0000000E+00   0.0000000E+00   0.0000000E+00   0.0000000E+00   0.0000000E+00   0.0000000E+00   0.0000000E+00   0.0000000E+00   0.0000000E+00   0.0000000E+00   0.0000000E+00   0.0000000E+00   0.0000000E+00   0.0000000E+00   0.0000000E+00   0.0000000E+00   0.0000000E+00   0.0000000E+00   0.0000000E+00   0.0000000E+00   0.0000000E+00   0.0000000E+00   0.0000000E+00   0.0000000E+00   0.0000000E+00   0.0000000E+00   0.0000000E+00   0.0000000E+00   0.0000000E+00   0.0000000E+00   0.0000000E+00   0.0000000E+00   0.0000000E+00   0.0000000E+00   0.0000000E+00   0.0000000E+00   0.0000000E+00   0.0000000E+00   0.0000000E+00   0.0000000E+00   0.0000000E+00   0.0000000E+00   0.0000000E+00   0.0000000E+00   0.0000000E+00   0.0000000E+00   0.0000000E+00   0.0000000E+00   0.0000000E+00   0.0000000E+00   0.0000000E+00   0.0000000E+00   0.0000000E+00   0.0000000E+00   0.0000000E+00   0.0000000E+00   0.0000000E+00   0.0000000E+00   0.0000000E+00   0.0000000E+00   0.0000000E+00   0.0000000E+00   0.0000000E+00   0.0000000E+00   0.0000000E+00   0.0000000E+00   0.0000000E+00   0.0000000E+00   0.0000000E+00   0.0000000E+00   0.0000000E+00   0.0000000E+00   0.0000000E+00   0.0000000E+00   0.0000000E+00   0.0000000E+00   0.0000000E+00   0.0000000E+00   0.0000000E+00   0.0000000E+00   0.0000000E+00   0.0000000E+00   0.0000000E+00   0.0000000E+00   0.0000000E+00   0.0000000E+00   0.0000000E+00   0.0000000E+00   0.0000000E+00   0.0000000E+00   0.0000000E+00   0.0000000E+00   0.0000000E+00   0.0000000E+00   0.0000000E+00   0.0000000E+00   0.0000000E+00   0.0000000E+00   0.0000000E+00   0.0000000E+00   0.0000000E+00   0.0000000E+00   0.0000000E+00   0.0000000E+00   0.0000000E+00   0.0000000E+00   0.0000000E+00   0.0000000E+00   0.0000000E+00   0.0000000E+00   0.0000000E+00   0.0000000E+00   0.0000000E+00   0.0000000E+00   0.0000000E+00   0.0000000E+00   0.0000000E+00   0.0000000E+00   0.0000000E+00   0.0000000E+00   0.0000000E+00   0.0000000E+00   0.0000000E+00   0.0000000E+00   0.0000000E+00   0.0000000E+00   0.0000000E+00   0.0000000E+00   0.0000000E+00   0.0000000E+00   0.0000000E+00   0.0000000E+00   0.0000000E+00   0.0000000E+00   0.0000000E+00   0.0000000E+00   0.0000000E+00   0.0000000E+00   0.0000000E+00   0.0000000E+00   0.0000000E+00   0.0000000E+00   0.0000000E+00   0.0000000E+00   0.0000000E+00   0.0000000E+00   0.0000000E+00   0.0000000E+00   0.0000000E+00   0.0000000E+00   0.0000000E+00   0.0000000E+00   0.0000000E+00   0.0000000E+00   0.0000000E+00   0.0000000E+00   0.0000000E+00   0.0000000E+00   0.0000000E+00   0.0000000E+00   0.0000000E+00   0.0000000E+00   0.0000000E+00   0.0000000E+00   0.0000000E+00   0.0000000E+00   0.0000000E+00   0.0000000E+00   0.0000000E+00   0.0000000E+00   0.0000000E+00   0.0000000E+00   0.0000000E+00   0.0000000E+00   0.0000000E+00   0.0000000E+00   0.0000000E+00   0.0000000E+00   0.0000000E+00   0.0000000E+00   0.0000000E+00   0.0000000E+00   0.0000000E+00   0.0000000E+00   0.0000000E+00   0.0000000E+00   0.0000000E+00   0.0000000E+00   0.0000000E+00   0.0000000E+00   0.0000000E+00   0.0000000E+00   0.0000000E+00   0.0000000E+00   0.0000000E+00   0.0000000E+00   0.0000000E+00   0.0000000E+00   0.0000000E+00   0.0000000E+00   0.0000000E+00   0.0000000E+00   0.0000000E+00   0.0000000E+00   0.0000000E+00   0.0000000E+00   0.0000000E+00   0.0000000E+00   0.0000000E+00   0.0000000E+00   0.0000000E+00   0.0000000E+00   0.0000000E+00   0.0000000E+00   0.0000000E+00   0.0000000E+00   0.0000000E+00   0.0000000E+00   0.0000000E+00   0.0000000E+00   0.0000000E+00   0.0000000E+00   0.0000000E+00   0.0000000E+00   0.0000000E+00   0.0000000E+00   0.0000000E+00   0.0000000E+00   0.0000000E+00   0.0000000E+00   0.0000000E+00   0.0000000E+00   0.0000000E+00   0.0000000E+00   0.0000000E+00   0.0000000E+00   0.0000000E+00   0.0000000E+00   0.0000000E+00   0.0000000E+00   0.0000000E+00   0.0000000E+00   0.0000000E+00   0.0000000E+00   0.0000000E+00   0.0000000E+00   0.0000000E+00   0.0000000E+00   0.0000000E+00   0.0000000E+00   0.0000000E+00   0.0000000E+00   0.0000000E+00   0.0000000E+00   0.0000000E+00   0.0000000E+00   0.0000000E+00   0.0000000E+00   0.0000000E+00   0.0000000E+00   0.0000000E+00   0.0000000E+00   0.0000000E+00   0.0000000E+00   0.0000000E+00   0.0000000E+00   0.0000000E+00   0.0000000E+00   0.0000000E+00   0.0000000E+00   0.0000000E+00   0.0000000E+00   0.0000000E+00   0.0000000E+00   0.0000000E+00   0.0000000E+00   0.0000000E+00   0.0000000E+00   0.0000000E+00   0.0000000E+00   0.0000000E+00   0.0000000E+00   0.0000000E+00   0.0000000E+00   0.0000000E+00   0.0000000E+00   0.0000000E+00   0.0000000E+00   0.0000000E+00   0.0000000E+00   0.0000000E+00   0.0000000E+00   0.0000000E+00   0.0000000E+00   0.0000000E+00   0.0000000E+00   0.0000000E+00   0.0000000E+00   0.0000000E+00   0.0000000E+00   0.0000000E+00   0.0000000E+00   0.0000000E+00   0.0000000E+00   0.0000000E+00   0.0000000E+00   0.0000000E+00   0.0000000E+00   0.0000000E+00   0.0000000E+00   0.0000000E+00   0.0000000E+00   0.0000000E+00   0.0000000E+00   0.0000000E+00   0.0000000E+00   0.0000000E+00   0.0000000E+00   0.0000000E+00   0.0000000E+00   0.0000000E+00   0.0000000E+00   0.0000000E+00   0.0000000E+00   0.0000000E+00   0.0000000E+00   0.0000000E+00   0.0000000E+00   0.0000000E+00   0.0000000E+00   0.0000000E+00   0.0000000E+00   0.0000000E+00   0.0000000E+00   0.0000000E+00   0.0000000E+00   0.0000000E+00   0.0000000E+00   0.0000000E+00   0.0000000E+00   0.0000000E+00   0.0000000E+00   0.0000000E+00   0.0000000E+00   0.0000000E+00   0.0000000E+00   0.0000000E+00   0.0000000E+00   0.0000000E+00   0.0000000E+00   0.0000000E+00   0.0000000E+00   0.0000000E+00   0.0000000E+00   0.0000000E+00   0.0000000E+00   0.0000000E+00   0.0000000E+00   0.0000000E+00   0.0000000E+00   0.0000000E+00   0.0000000E+00   0.0000000E+00   0.0000000E+00   0.0000000E+00   0.0000000E+00   0.0000000E+00   0.0000000E+00   0.0000000E+00   0.0000000E+00   0.0000000E+00   0.0000000E+00   0.0000000E+00   0.0000000E+00   0.0000000E+00   0.0000000E+00   0.0000000E+00   0.0000000E+00   0.0000000E+00   0.0000000E+00   0.0000000E+00   0.0000000E+00   0.0000000E+00   0.0000000E+00   0.0000000E+00   0.0000000E+00   0.0000000E+00   0.0000000E+00   0.0000000E+00   0.0000000E+00   0.0000000E+00   0.0000000E+00   0.0000000E+00   0.0000000E+00   0.0000000E+00   0.0000000E+00   0.0000000E+00   0.0000000E+00   0.0000000E+00   0.0000000E+00   0.0000000E+00   0.0000000E+00   0.0000000E+00   0.0000000E+00   0.0000000E+00   0.0000000E+00   0.0000000E+00   0.0000000E+00   0.0000000E+00   0.0000000E+00   0.0000000E+00   0.0000000E+00   0.0000000E+00   0.0000000E+00   0.0000000E+00   0.0000000E+00   0.0000000E+00   0.0000000E+00   0.0000000E+00   0.0000000E+00   0.0000000E+00   0.0000000E+00   0.0000000E+00   0.0000000E+00   0.0000000E+00   0.0000000E+00   0.0000000E+00   0.0000000E+00   0.0000000E+00   0.0000000E+00   0.0000000E+00   0.0000000E+00   0.0000000E+00   0.0000000E+00   0.0000000E+00   0.0000000E+00   0.0000000E+00   0.0000000E+00   0.0000000E+00   0.0000000E+00   0.0000000E+00   0.0000000E+00   0.0000000E+00   0.0000000E+00   0.0000000E+00   0.0000000E+00   0.0000000E+00   0.0000000E+00   0.0000000E+00   0.0000000E+00   0.0000000E+00   0.0000000E+00   0.0000000E+00   0.0000000E+00   0.0000000E+00   0.0000000E+00   0.0000000E+00   0.0000000E+00   0.0000000E+00   0.0000000E+00   0.0000000E+00   0.0000000E+00   0.0000000E+00   0.0000000E+00   0.0000000E+00   0.0000000E+00   0.0000000E+00   0.0000000E+00   0.0000000E+00   0.0000000E+00   0.0000000E+00   0.0000000E+00   0.0000000E+00   0.0000000E+00   0.0000000E+00   0.0000000E+00   0.0000000E+00   0.0000000E+00   0.0000000E+00   0.0000000E+00   0.0000000E+00   0.0000000E+00   0.0000000E+00   0.0000000E+00   0.0000000E+00   0.0000000E+00   0.0000000E+00   0.0000000E+00   0.0000000E+00   0.0000000E+00   0.0000000E+00   0.0000000E+00   0.0000000E+00   0.0000000E+00   0.0000000E+00   0.0000000E+00   0.0000000E+00   0.0000000E+00   0.0000000E+00   0.0000000E+00   0.0000000E+00   0.0000000E+00   0.0000000E+00   0.0000000E+00   0.0000000E+00   0.0000000E+00   0.0000000E+00   0.0000000E+00   0.0000000E+00   0.0000000E+00   0.0000000E+00   0.0000000E+00   0.0000000E+00   0.0000000E+00   0.0000000E+00   0.0000000E+00   0.0000000E+00   0.0000000E+00   0.0000000E+00   0.0000000E+00   0.0000000E+00   0.0000000E+00   0.0000000E+00   0.0000000E+00   0.0000000E+00   0.0000000E+00   0.0000000E+00   0.0000000E+00   0.0000000E+00   0.0000000E+00   0.0000000E+00   0.0000000E+00   0.0000000E+00   0.0000000E+00   0.0000000E+00   0.0000000E+00   0.0000000E+00   0.0000000E+00   0.0000000E+00   0.0000000E+00   0.0000000E+00   0.0000000E+00   0.0000000E+00   0.0000000E+00   0.0000000E+00   0.0000000E+00   0.0000000E+00   0.0000000E+00   0.0000000E+00   0.0000000E+00   0.0000000E+00   0.0000000E+00   0.0000000E+00   0.0000000E+00   0.0000000E+00   0.0000000E+00   0.0000000E+00   0.0000000E+00   0.0000000E+00   0.0000000E+00   0.0000000E+00   0.0000000E+00   0.0000000E+00   0.0000000E+00   0.0000000E+00   0.0000000E+00   0.0000000E+00   0.0000000E+00   0.0000000E+00   0.0000000E+00   0.0000000E+00   0.0000000E+00   0.0000000E+00   0.0000000E+00   0.0000000E+00   0.0000000E+00   0.0000000E+00   0.0000000E+00   0.0000000E+00   0.0000000E+00   0.0000000E+00   0.0000000E+00   0.0000000E+00   0.0000000E+00   0.0000000E+00   0.0000000E+00   0.0000000E+00   0.0000000E+00   0.0000000E+00   0.0000000E+00   0.0000000E+00   0.0000000E+00   0.0000000E+00   0.0000000E+00   0.0000000E+00   0.0000000E+00   0.0000000E+00   0.0000000E+00   0.0000000E+00   0.0000000E+00   0.0000000E+00   0.0000000E+00   0.0000000E+00   0.0000000E+00   0.0000000E+00   0.0000000E+00   0.0000000E+00   0.0000000E+00   0.0000000E+00   0.0000000E+00   0.0000000E+00   0.0000000E+00   0.0000000E+00   0.0000000E+00   0.0000000E+00   0.0000000E+00   0.0000000E+00   0.0000000E+00   0.0000000E+00   0.0000000E+00   0.0000000E+00   0.0000000E+00   0.0000000E+00   0.0000000E+00   0.0000000E+00   0.0000000E+00   0.0000000E+00   0.0000000E+00   0.0000000E+00   0.0000000E+00   0.0000000E+00   0.0000000E+00   0.0000000E+00   0.0000000E+00   0.0000000E+00   0.0000000E+00   0.0000000E+00   0.0000000E+00   0.0000000E+00   0.0000000E+00   0.0000000E+00   0.0000000E+00   0.0000000E+00   0.0000000E+00   0.0000000E+00   0.0000000E+00   0.0000000E+00   0.0000000E+00   0.0000000E+00   0.0000000E+00   0.0000000E+00   0.0000000E+00   0.0000000E+00   0.0000000E+00   0.0000000E+00   0.0000000E+00   0.0000000E+00   0.0000000E+00   0.0000000E+00   0.0000000E+00   0.0000000E+00   0.0000000E+00   0.0000000E+00   0.0000000E+00   0.0000000E+00   0.0000000E+00   0.0000000E+00   0.0000000E+00   0.0000000E+00   0.0000000E+00   0.0000000E+00   0.0000000E+00   0.0000000E+00   0.0000000E+00   0.0000000E+00   0.0000000E+00   0.0000000E+00   0.0000000E+00   0.0000000E+00   0.0000000E+00   0.0000000E+00   0.0000000E+00   0.0000000E+00   0.0000000E+00   0.0000000E+00   0.0000000E+00   0.0000000E+00   0.0000000E+00   0.0000000E+00   0.0000000E+00   0.0000000E+00   0.0000000E+00   0.0000000E+00   0.0000000E+00   0.0000000E+00   0.0000000E+00   0.0000000E+00   0.0000000E+00   0.0000000E+00   0.0000000E+00   0.0000000E+00   0.0000000E+00   0.0000000E+00   0.0000000E+00   0.0000000E+00   0.0000000E+00   0.0000000E+00   0.0000000E+00   0.0000000E+00   0.0000000E+00   0.0000000E+00   0.0000000E+00   0.0000000E+00   0.0000000E+00   0.0000000E+00   0.0000000E+00   0.0000000E+00   0.0000000E+00   0.0000000E+00   0.0000000E+00   0.0000000E+00   0.0000000E+00   0.0000000E+00   0.0000000E+00   0.0000000E+00   0.0000000E+00   0.0000000E+00   0.0000000E+00   0.0000000E+00   0.0000000E+00   0.0000000E+00   0.0000000E+00   0.0000000E+00   0.0000000E+00   0.0000000E+00   0.0000000E+00   0.0000000E+00   0.0000000E+00   0.0000000E+00   0.0000000E+00   0.0000000E+00   0.0000000E+00   0.0000000E+00   0.0000000E+00   0.0000000E+00   0.0000000E+00   0.0000000E+00   0.0000000E+00   0.0000000E+00   0.0000000E+00   0.0000000E+00   0.0000000E+00   0.0000000E+00   0.0000000E+00   0.0000000E+00   0.0000000E+00   0.0000000E+00   0.0000000E+00   0.0000000E+00   0.0000000E+00   0.0000000E+00   0.0000000E+00   0.0000000E+00   0.0000000E+00   0.0000000E+00   0.0000000E+00   0.0000000E+00   0.0000000E+00   0.0000000E+00   0.0000000E+00   0.0000000E+00   0.0000000E+00   0.0000000E+00   0.0000000E+00   0.0000000E+00   0.0000000E+00   0.0000000E+00   0.0000000E+00   0.0000000E+00   0.0000000E+00   0.0000000E+00   0.0000000E+00   0.0000000E+00   0.0000000E+00   0.0000000E+00   0.0000000E+00   0.0000000E+00   0.0000000E+00   0.0000000E+00   0.0000000E+00   0.0000000E+00   0.0000000E+00   0.0000000E+00   0.0000000E+00   0.0000000E+00   0.0000000E+00   0.0000000E+00   0.0000000E+00   0.0000000E+00   0.0000000E+00   0.0000000E+00   0.0000000E+00   0.0000000E+00   0.0000000E+00   0.0000000E+00   0.0000000E+00   0.0000000E+00   0.0000000E+00   0.0000000E+00   0.0000000E+00   0.0000000E+00   0.0000000E+00   0.0000000E+00   0.0000000E+00   0.0000000E+00   0.0000000E+00   0.0000000E+00   0.0000000E+00   0.0000000E+00   0.0000000E+00   0.0000000E+00   0.0000000E+00   0.0000000E+00   0.0000000E+00   0.0000000E+00   0.0000000E+00   0.0000000E+00   0.0000000E+00   0.0000000E+00   0.0000000E+00   0.0000000E+00   0.0000000E+00   0.0000000E+00   0.0000000E+00   0.0000000E+00   0.0000000E+00   0.0000000E+00   0.0000000E+00   0.0000000E+00   0.0000000E+00   0.0000000E+00   0.0000000E+00   0.0000000E+00   0.0000000E+00   0.0000000E+00   0.0000000E+00   0.0000000E+00   0.0000000E+00   0.0000000E+00   0.0000000E+00   0.0000000E+00   0.0000000E+00   0.0000000E+00   0.0000000E+00   0.0000000E+00   0.0000000E+00   0.0000000E+00   0.0000000E+00   0.0000000E+00   0.0000000E+00   0.0000000E+00   0.0000000E+00   0.0000000E+00   0.0000000E+00   0.0000000E+00   0.0000000E+00   0.0000000E+00   0.0000000E+00   0.0000000E+00   0.0000000E+00   0.0000000E+00   0.0000000E+00   0.0000000E+00   0.0000000E+00   0.0000000E+00   0.0000000E+00   0.0000000E+00   0.0000000E+00   0.0000000E+00   0.0000000E+00   0.0000000E+00   0.0000000E+00   0.0000000E+00   0.0000000E+00   0.0000000E+00   0.0000000E+00   0.0000000E+00   0.0000000E+00   0.0000000E+00   0.0000000E+00   0.0000000E+00   0.0000000E+00   0.0000000E+00   0.0000000E+00   0.0000000E+00   0.0000000E+00   0.0000000E+00   0.0000000E+00   0.0000000E+00   0.0000000E+00   0.0000000E+00   0.0000000E+00   0.0000000E+00   0.0000000E+00   0.0000000E+00   0.0000000E+00   0.0000000E+00   0.0000000E+00   0.0000000E+00   0.0000000E+00   0.0000000E+00   0.0000000E+00   0.0000000E+00   0.0000000E+00   0.0000000E+00   0.0000000E+00   0.0000000E+00   0.0000000E+00   0.0000000E+00   0.0000000E+00   0.0000000E+00   0.0000000E+00   0.0000000E+00   0.0000000E+00   0.0000000E+00   0.0000000E+00   0.0000000E+00   0.0000000E+00   0.0000000E+00   0.0000000E+00   0.0000000E+00   0.0000000E+00   0.0000000E+00   0.0000000E+00   0.0000000E+00   0.0000000E+00   0.0000000E+00   0.0000000E+00   0.0000000E+00   0.0000000E+00   0.0000000E+00   0.0000000E+00   0.0000000E+00   0.0000000E+00   0.0000000E+00   0.0000000E+00   0.0000000E+00   0.0000000E+00   0.0000000E+00   0.0000000E+00   0.0000000E+00   0.0000000E+00   0.0000000E+00   0.0000000E+00   0.0000000E+00   0.0000000E+00   0.0000000E+00   0.0000000E+00   0.0000000E+00   0.0000000E+00   0.0000000E+00   0.0000000E+00   0.0000000E+00   0.0000000E+00   0.0000000E+00   0.0000000E+00   0.0000000E+00   0.0000000E+00   0.0000000E+00   0.0000000E+00   0.0000000E+00   0.0000000E+00   0.0000000E+00   0.0000000E+00   0.0000000E+00   0.0000000E+00   0.0000000E+00   0.0000000E+00   0.0000000E+00   0.0000000E+00   0.0000000E+00   0.0000000E+00   0.0000000E+00   0.0000000E+00   0.0000000E+00   0.0000000E+00   0.0000000E+00   0.0000000E+00   0.0000000E+00   0.0000000E+00   0.0000000E+00   0.0000000E+00   0.0000000E+00   0.0000000E+00   0.0000000E+00   0.0000000E+00   0.0000000E+00   0.0000000E+00   0.0000000E+00   0.0000000E+00   0.0000000E+00   0.0000000E+00   0.0000000E+00   0.0000000E+00   0.0000000E+00   0.0000000E+00   0.0000000E+00   0.0000000E+00   0.0000000E+00   0.0000000E+00   0.0000000E+00   0.0000000E+00   0.0000000E+00   0.0000000E+00   0.0000000E+00   0.0000000E+00   0.0000000E+00   0.0000000E+00   0.0000000E+00   0.0000000E+00   0.0000000E+00   0.0000000E+00   0.0000000E+00   0.0000000E+00   0.0000000E+00   0.0000000E+00   0.0000000E+00   0.0000000E+00   0.0000000E+00   0.0000000E+00   0.0000000E+00   0.0000000E+00   0.0000000E+00   0.0000000E+00   0.0000000E+00   0.0000000E+00   0.0000000E+00   0.0000000E+00   0.0000000E+00   0.0000000E+00   0.0000000E+00   0.0000000E+00   0.0000000E+00   0.0000000E+00   0.0000000E+00   0.0000000E+00   0.0000000E+00   0.0000000E+00   0.0000000E+00   0.0000000E+00   0.0000000E+00   0.0000000E+00   0.0000000E+00   0.0000000E+00   0.0000000E+00   0.0000000E+00   0.0000000E+00   0.0000000E+00   0.0000000E+00   0.0000000E+00   0.0000000E+00   0.0000000E+00   0.0000000E+00   0.0000000E+00   0.0000000E+00   0.0000000E+00   0.0000000E+00   0.0000000E+00   0.0000000E+00   0.0000000E+00   0.0000000E+00   0.0000000E+00   0.0000000E+00   0.0000000E+00   0.0000000E+00   0.0000000E+00   0.0000000E+00   0.0000000E+00   0.0000000E+00   0.0000000E+00   0.0000000E+00   0.0000000E+00   0.0000000E+00   0.0000000E+00   0.0000000E+00   0.0000000E+00   0.0000000E+00   0.0000000E+00   0.0000000E+00   0.0000000E+00   0.0000000E+00   0.0000000E+00   0.0000000E+00   0.0000000E+00   0.0000000E+00   0.0000000E+00   0.0000000E+00   0.0000000E+00   0.0000000E+00   0.0000000E+00   0.0000000E+00   0.0000000E+00   0.0000000E+00   0.0000000E+00   0.0000000E+00   0.0000000E+00   0.0000000E+00   0.0000000E+00   0.0000000E+00   0.0000000E+00   0.0000000E+00   0.0000000E+00   0.0000000E+00   0.0000000E+00   0.0000000E+00   0.0000000E+00   0.0000000E+00   0.0000000E+00   0.0000000E+00   0.0000000E+00   0.0000000E+00   0.0000000E+00   0.0000000E+00   0.0000000E+00   0.0000000E+00   0.0000000E+00   0.0000000E+00   0.0000000E+00   0.0000000E+00   0.0000000E+00   0.0000000E+00   0.0000000E+00   0.0000000E+00   0.0000000E+00   0.0000000E+00   0.0000000E+00   0.0000000E+00   0.0000000E+00   0.0000000E+00   0.0000000E+00   0.0000000E+00   0.0000000E+00   0.0000000E+00   0.0000000E+00   0.0000000E+00   0.0000000E+00   0.0000000E+00   0.0000000E+00   0.0000000E+00   0.0000000E+00   0.0000000E+00   0.0000000E+00   0.0000000E+00   0.0000000E+00   0.0000000E+00   0.0000000E+00   0.0000000E+00   0.0000000E+00   0.0000000E+00   0.0000000E+00   0.0000000E+00   0.0000000E+00   0.0000000E+00   0.0000000E+00   0.0000000E+00   0.0000000E+00   0.0000000E+00   0.0000000E+00   0.0000000E+00   0.0000000E+00   0.0000000E+00   0.0000000E+00   0.0000000E+00   0.0000000E+00   0.0000000E+00   0.0000000E+00   0.0000000E+00   0.0000000E+00   0.0000000E+00   0.0000000E+00   0.0000000E+00   0.0000000E+00   0.0000000E+00   0.0000000E+00   0.0000000E+00   0.0000000E+00   0.0000000E+00   0.0000000E+00   0.0000000E+00   0.0000000E+00   0.0000000E+00   0.0000000E+00   0.0000000E+00   0.0000000E+00   0.0000000E+00   0.0000000E+00   0.0000000E+00   0.0000000E+00   0.0000000E+00   0.0000000E+00   0.0000000E+00   0.0000000E+00   0.0000000E+00   0.0000000E+00   0.0000000E+00   0.0000000E+00   0.0000000E+00   0.0000000E+00   0.0000000E+00   0.0000000E+00   0.0000000E+00   0.0000000E+00   0.0000000E+00   0.0000000E+00   0.0000000E+00   0.0000000E+00   0.0000000E+00   0.0000000E+00   0.0000000E+00   0.0000000E+00   0.0000000E+00   0.0000000E+00   0.0000000E+00   0.0000000E+00   0.0000000E+00   0.0000000E+00   0.0000000E+00   0.0000000E+00   0.0000000E+00   0.0000000E+00   0.0000000E+00   0.0000000E+00   0.0000000E+00   0.0000000E+00   0.0000000E+00   0.0000000E+00   0.0000000E+00   0.0000000E+00   0.0000000E+00   0.0000000E+00   0.0000000E+00   0.0000000E+00   0.0000000E+00   0.0000000E+00   0.0000000E+00   0.0000000E+00   0.0000000E+00   0.0000000E+00   0.0000000E+00   0.0000000E+00   0.0000000E+00   0.0000000E+00   0.0000000E+00   0.0000000E+00   0.0000000E+00   0.0000000E+00   0.0000000E+00   0.0000000E+00   0.0000000E+00   0.0000000E+00   0.0000000E+00   0.0000000E+00   0.0000000E+00   0.0000000E+00   0.0000000E+00   0.0000000E+00   0.0000000E+00   0.0000000E+00   0.0000000E+00   0.0000000E+00   0.0000000E+00   0.0000000E+00   0.0000000E+00   0.0000000E+00   0.0000000E+00   0.0000000E+00   0.0000000E+00   0.0000000E+00   0.0000000E+00   0.0000000E+00   0.0000000E+00   0.0000000E+00   0.0000000E+00   0.0000000E+00   0.0000000E+00   0.0000000E+00   0.0000000E+00   0.0000000E+00   0.0000000E+00   0.0000000E+00   0.0000000E+00   0.0000000E+00   0.0000000E+00   0.0000000E+00   0.0000000E+00   0.0000000E+00   0.0000000E+00   0.0000000E+00   0.0000000E+00   0.0000000E+00   0.0000000E+00   0.0000000E+00   0.0000000E+00   0.0000000E+00   0.0000000E+00   0.0000000E+00   0.0000000E+00   0.0000000E+00   0.0000000E+00   0.0000000E+00   0.0000000E+00   0.0000000E+00   0.0000000E+00   0.0000000E+00   0.0000000E+00   0.0000000E+00   0.0000000E+00   0.0000000E+00   0.0000000E+00   0.0000000E+00   0.0000000E+00   0.0000000E+00   0.0000000E+00   0.0000000E+00   0.0000000E+00   0.0000000E+00   0.0000000E+00   0.0000000E+00   0.0000000E+00   0.0000000E+00   0.0000000E+00   0.0000000E+00   0.0000000E+00   0.0000000E+00   0.0000000E+00   0.0000000E+00   0.0000000E+00   0.0000000E+00   0.0000000E+00   0.0000000E+00   0.0000000E+00   0.0000000E+00   0.0000000E+00   0.0000000E+00   0.0000000E+00   0.0000000E+00   0.0000000E+00   0.0000000E+00   0.0000000E+00   0.0000000E+00   0.0000000E+00   0.0000000E+00   0.0000000E+00   0.0000000E+00   0.0000000E+00   0.0000000E+00   0.0000000E+00   0.0000000E+00   0.0000000E+00   0.0000000E+00   0.0000000E+00   0.0000000E+00   0.0000000E+00   0.0000000E+00   0.0000000E+00   0.0000000E+00   0.0000000E+00   0.0000000E+00   0.0000000E+00   0.0000000E+00   0.0000000E+00   0.0000000E+00   0.0000000E+00   0.0000000E+00   0.0000000E+00   0.0000000E+00   0.0000000E+00   0.0000000E+00   0.0000000E+00   0.0000000E+00   0.0000000E+00   0.0000000E+00   0.0000000E+00   0.0000000E+00   0.0000000E+00   0.0000000E+00   0.0000000E+00   0.0000000E+00   0.0000000E+00   0.0000000E+00   0.0000000E+00   0.0000000E+00   0.0000000E+00   0.0000000E+00   0.0000000E+00   0.0000000E+00   0.0000000E+00   0.0000000E+00   0.0000000E+00   0.0000000E+00   0.0000000E+00   0.0000000E+00   0.0000000E+00   0.0000000E+00   0.0000000E+00   0.0000000E+00   0.0000000E+00   0.0000000E+00   0.0000000E+00   0.0000000E+00   0.0000000E+00   0.0000000E+00   0.0000000E+00   0.0000000E+00   0.0000000E+00   0.0000000E+00   0.0000000E+00   0.0000000E+00   0.0000000E+00   0.0000000E+00   0.0000000E+00   0.0000000E+00   0.0000000E+00   0.0000000E+00   0.0000000E+00   0.0000000E+00   0.0000000E+00   0.0000000E+00   0.0000000E+00   0.0000000E+00   0.0000000E+00   0.0000000E+00   0.0000000E+00   0.0000000E+00   0.0000000E+00   0.0000000E+00   0.0000000E+00   0.0000000E+00   0.0000000E+00   0.0000000E+00   0.0000000E+00   0.0000000E+00   0.0000000E+00   0.0000000E+00   0.0000000E+00   0.0000000E+00   0.0000000E+00   0.0000000E+00   0.0000000E+00   0.0000000E+00   0.0000000E+00   0.0000000E+00   0.0000000E+00   0.0000000E+00   0.0000000E+00   0.0000000E+00   0.0000000E+00   0.0000000E+00   0.0000000E+00   0.0000000E+00   0.0000000E+00   0.0000000E+00   0.0000000E+00   0.0000000E+00   0.0000000E+00   0.0000000E+00   0.0000000E+00   0.0000000E+00   0.0000000E+00   0.0000000E+00   0.0000000E+00   0.0000000E+00   0.0000000E+00   0.0000000E+00   0.0000000E+00   0.0000000E+00   0.0000000E+00   0.0000000E+00   0.0000000E+00   0.0000000E+00   0.0000000E+00   0.0000000E+00   0.0000000E+00   0.0000000E+00   0.0000000E+00   0.0000000E+00   0.0000000E+00   0.0000000E+00   0.0000000E+00   0.0000000E+00   0.0000000E+00   0.0000000E+00   0.0000000E+00   0.0000000E+00   0.0000000E+00   0.0000000E+00   0.0000000E+00   0.0000000E+00   0.0000000E+00   0.0000000E+00   0.0000000E+00   0.0000000E+00   0.0000000E+00   0.0000000E+00   0.0000000E+00   0.0000000E+00   0.0000000E+00   0.0000000E+00   0.0000000E+00   0.0000000E+00   0.0000000E+00   0.0000000E+00   0.0000000E+00   0.0000000E+00   0.0000000E+00   0.0000000E+00   0.0000000E+00   0.0000000E+00   0.0000000E+00   0.0000000E+00   0.0000000E+00   0.0000000E+00   0.0000000E+00   0.0000000E+00   0.0000000E+00   0.0000000E+00   0.0000000E+00   0.0000000E+00   0.0000000E+00   0.0000000E+00   0.0000000E+00   0.0000000E+00   0.0000000E+00   0.0000000E+00   0.0000000E+00   0.0000000E+00   0.0000000E+00   0.0000000E+00   0.0000000E+00   0.0000000E+00   0.0000000E+00   0.0000000E+00   0.0000000E+00   0.0000000E+00   0.0000000E+00   0.0000000E+00   0.0000000E+00   0.0000000E+00   0.0000000E+00   0.0000000E+00   0.0000000E+00   0.0000000E+00   0.0000000E+00   0.0000000E+00   0.0000000E+00   0.0000000E+00   0.0000000E+00   0.0000000E+00   0.0000000E+00   0.0000000E+00   0.0000000E+00   0.0000000E+00   0.0000000E+00   0.0000000E+00   0.0000000E+00   0.0000000E+00   0.0000000E+00   0.0000000E+00   0.0000000E+00   0.0000000E+00   0.0000000E+00   0.0000000E+00   0.0000000E+00   0.0000000E+00   0.0000000E+00   0.0000000E+00   0.0000000E+00   0.0000000E+00   0.0000000E+00   0.0000000E+00   0.0000000E+00   0.0000000E+00   0.0000000E+00   0.0000000E+00   0.0000000E+00   0.0000000E+00   0.0000000E+00   0.0000000E+00   0.0000000E+00   0.0000000E+00   0.0000000E+00   0.0000000E+00   0.0000000E+00   0.0000000E+00   0.0000000E+00   0.0000000E+00   0.0000000E+00   0.0000000E+00   0.0000000E+00   0.0000000E+00   0.0000000E+00   0.0000000E+00   0.0000000E+00   0.0000000E+00   0.0000000E+00   0.0000000E+00   0.0000000E+00   0.0000000E+00   0.0000000E+00   0.0000000E+00   0.0000000E+00   0.0000000E+00   0.0000000E+00   0.0000000E+00   0.0000000E+00   0.0000000E+00   0.0000000E+00   0.0000000E+00   0.0000000E+00   0.0000000E+00   0.0000000E+00   0.0000000E+00   0.0000000E+00   0.0000000E+00   0.0000000E+00   0.0000000E+00   0.0000000E+00   0.0000000E+00   0.0000000E+00   0.0000000E+00   0.0000000E+00   0.0000000E+00   0.0000000E+00   0.0000000E+00   0.0000000E+00   0.0000000E+00   0.0000000E+00   0.0000000E+00   0.0000000E+00   0.0000000E+00   0.0000000E+00   0.0000000E+00   0.0000000E+00   0.0000000E+00   0.0000000E+00   0.0000000E+00   0.0000000E+00   0.0000000E+00   0.0000000E+00   0.0000000E+00   0.0000000E+00   0.0000000E+00   0.0000000E+00   0.0000000E+00   0.0000000E+00   0.0000000E+00   0.0000000E+00   0.0000000E+00   0.0000000E+00   0.0000000E+00   0.0000000E+00   0.0000000E+00   0.0000000E+00   0.0000000E+00   0.0000000E+00   0.0000000E+00   0.0000000E+00   0.0000000E+00   0.0000000E+00   0.0000000E+00   0.0000000E+00   0.0000000E+00   0.0000000E+00   0.0000000E+00   0.0000000E+00   0.0000000E+00   0.0000000E+00   0.0000000E+00   0.0000000E+00   0.0000000E+00   0.0000000E+00   0.0000000E+00   0.0000000E+00   0.0000000E+00   0.0000000E+00   0.0000000E+00   0.0000000E+00   0.0000000E+00   0.0000000E+00   0.0000000E+00   0.0000000E+00   0.0000000E+00   0.0000000E+00   0.0000000E+00   0.0000000E+00   0.0000000E+00   0.0000000E+00   0.0000000E+00   0.0000000E+00   0.0000000E+00   0.0000000E+00   0.0000000E+00   0.0000000E+00   0.0000000E+00   0.0000000E+00   0.0000000E+00   0.0000000E+00   0.0000000E+00   0.0000000E+00   0.0000000E+00   0.0000000E+00   0.0000000E+00   0.0000000E+00   0.0000000E+00   0.0000000E+00   0.0000000E+00   0.0000000E+00   0.0000000E+00   0.0000000E+00   0.0000000E+00   0.0000000E+00   0.0000000E+00   0.0000000E+00   0.0000000E+00   0.0000000E+00   0.0000000E+00   0.0000000E+00   0.0000000E+00   0.0000000E+00   0.0000000E+00   0.0000000E+00   0.0000000E+00   0.0000000E+00   0.0000000E+00   0.0000000E+00   0.0000000E+00   0.0000000E+00   0.0000000E+00   0.0000000E+00   0.0000000E+00   0.0000000E+00   0.0000000E+00   0.0000000E+00   0.0000000E+00   0.0000000E+00   0.0000000E+00   0.0000000E+00   0.0000000E+00   0.0000000E+00   0.0000000E+00   0.0000000E+00   0.0000000E+00   0.0000000E+00   0.0000000E+00   0.0000000E+00   0.0000000E+00   0.0000000E+00   0.0000000E+00   0.0000000E+00   0.0000000E+00   0.0000000E+00   0.0000000E+00   0.0000000E+00   0.0000000E+00   0.0000000E+00   0.0000000E+00   0.0000000E+00   0.0000000E+00   0.0000000E+00   0.0000000E+00   0.0000000E+00   0.0000000E+00   0.0000000E+00   0.0000000E+00   0.0000000E+00   0.0000000E+00   0.0000000E+00   0.0000000E+00   0.0000000E+00   0.0000000E+00   0.0000000E+00   0.0000000E+00   0.0000000E+00   0.0000000E+00   0.0000000E+00   0.0000000E+00   0.0000000E+00   0.0000000E+00   0.0000000E+00   0.0000000E+00   0.0000000E+00   0.0000000E+00   0.0000000E+00   0.0000000E+00   0.0000000E+00   0.0000000E+00   0.0000000E+00   0.0000000E+00   0.0000000E+00   0.0000000E+00   0.0000000E+00   0.0000000E+00   0.0000000E+00   0.0000000E+00   0.0000000E+00   0.0000000E+00   0.0000000E+00   0.0000000E+00   0.0000000E+00   0.0000000E+00   0.0000000E+00   0.0000000E+00   0.0000000E+00   0.0000000E+00   0.0000000E+00   0.0000000E+00   0.0000000E+00   0.0000000E+00   0.0000000E+00   0.0000000E+00   0.0000000E+00   0.0000000E+00   0.0000000E+00   0.0000000E+00   0.0000000E+00   0.0000000E+00   0.0000000E+00   0.0000000E+00   0.0000000E+00   0.0000000E+00   0.0000000E+00   0.0000000E+00   0.0000000E+00   0.0000000E+00   0.0000000E+00   0.0000000E+00   0.0000000E+00   0.0000000E+00   0.0000000E+00   0.0000000E+00   0.0000000E+00   0.0000000E+00   0.0000000E+00   0.0000000E+00   0.0000000E+00   0.0000000E+00   0.0000000E+00   0.0000000E+00   0.0000000E+00   0.0000000E+00   0.0000000E+00   0.0000000E+00   0.0000000E+00   0.0000000E+00   0.0000000E+00   0.0000000E+00   0.0000000E+00   0.0000000E+00   0.0000000E+00   0.0000000E+00   0.0000000E+00   0.0000000E+00   0.0000000E+00   0.0000000E+00   0.0000000E+00   0.0000000E+00   0.0000000E+00   0.0000000E+00   0.0000000E+00   0.0000000E+00   0.0000000E+00   0.0000000E+00   0.0000000E+00   0.0000000E+00   0.0000000E+00   0.0000000E+00   0.0000000E+00   0.0000000E+00   0.0000000E+00   0.0000000E+00   0.0000000E+00   0.0000000E+00   0.0000000E+00   0.0000000E+00   0.0000000E+00   0.0000000E+00   0.0000000E+00   0.0000000E+00   0.0000000E+00   0.0000000E+00   0.0000000E+00   0.0000000E+00   0.0000000E+00   0.0000000E+00   0.0000000E+00   0.0000000E+00   0.0000000E+00   0.0000000E+00   0.0000000E+00   0.0000000E+00   0.0000000E+00   0.0000000E+00   0.0000000E+00   0.0000000E+00   0.0000000E+00   0.0000000E+00   0.0000000E+00   0.0000000E+00   0.0000000E+00   0.0000000E+00   0.0000000E+00   0.0000000E+00   0.0000000E+00   0.0000000E+00   0.0000000E+00   0.0000000E+00   0.0000000E+00   0.0000000E+00   0.0000000E+00   0.0000000E+00   0.0000000E+00   0.0000000E+00   0.0000000E+00   0.0000000E+00   0.0000000E+00   0.0000000E+00   0.0000000E+00   0.0000000E+00   0.0000000E+00   0.0000000E+00   0.0000000E+00   0.0000000E+00   0.0000000E+00   0.0000000E+00  -2.7397413E+00   0.0000000E+00  -1.1417232E+00  -3.1877289E+00   0.0000000E+00  -1.0545454E+00  -3.5639000E+00   0.0000000E+00  -9.4880247E-01  -3.8863583E+00   0.0000000E+00  -8.3909488E-01  -4.1547756E+00   0.0000000E+00  -7.4013686E-01  -2.5683336E+00   0.0000000E+00  -1.4631348E+00  -3.3483601E+00   0.0000000E+00  -1.2254181E+00  -3.9023762E+00   0.0000000E+00  -1.1488819E+00  -4.3229370E+00   0.0000000E+00  -1.0542936E+00  -4.6744518E+00   0.0000000E+00  -9.5291805E-01  -4.9735241E+00   0.0000000E+00  -8.5708940E-01  -3.2892160E+00   0.0000000E+00  -1.4518576E+00  -4.1803560E+00   0.0000000E+00  -1.2147512E+00  -4.7652493E+00   0.0000000E+00  -1.1030250E+00  -5.2005882E+00   0.0000000E+00  -1.0111694E+00  -5.5668106E+00   0.0000000E+00  -9.3352246E-01  -5.8956985E+00   0.0000000E+00  -8.5483980E-01  -4.1616707E+00   0.0000000E+00  -1.3780031E+00  -5.1521196E+00   0.0000000E+00  -1.1063309E+00  -5.7311697E+00   0.0000000E+00  -1.0056095E+00  -6.1492319E+00   0.0000000E+00  -9.2848873E-01  -6.5173149E+00   0.0000000E+00  -8.7426829E-01  -6.8744764E+00   0.0000000E+00  -8.1224382E-01  -5.1687431E+00   0.0000000E+00  -1.2980099E+00  -6.2578869E+00   0.0000000E+00  -9.7531319E-01  -6.8259315E+00   0.0000000E+00  -8.8569260E-01  -7.2205820E+00   0.0000000E+00  -8.2894707E-01  -7.5885911E+00   0.0000000E+00  -7.9722738E-01  -7.9720550E+00   0.0000000E+00  -7.5737250E-01  -6.3300810E+00   0.0000000E+00  -1.2459526E+00  -7.5314693E+00   0.0000000E+00  -8.3757210E-01  -8.0814075E+00   0.0000000E+00  -7.4859333E-01  -8.4530220E+00   0.0000000E+00  -7.1260118E-01  -8.8227921E+00   0.0000000E+00  -7.0814657E-01  -9.2307262E+00   0.0000000E+00  -6.9364542E-01  -7.6622734E+00   0.0000000E+00  -1.2840672E+00  -8.9888678E+00   0.0000000E+00  -7.2587204E-01  -9.5154238E+00   0.0000000E+00  -6.0121536E-01  -9.8447647E+00   0.0000000E+00  -5.8904028E-01  -1.0213480E+01   0.0000000E+00  -6.0898805E-01  -1.0644686E+01   0.0000000E+00  -6.2332356E-01  -9.1973057E+00   0.0000000E+00  -1.4640942E+00  -1.0625217E+01   0.0000000E+00  -6.9532776E-01  -1.1100267E+01   0.0000000E+00  -4.9451351E-01  -1.1370673E+01   0.0000000E+00  -4.9134827E-01  -1.1732893E+01   0.0000000E+00  -5.1753378E-01  -1.2182663E+01   0.0000000E+00  -5.5979252E-01  -1.1047115E+01   0.0000000E+00  -1.6697960E+00  -1.2438997E+01   0.0000000E+00  -7.4523735E-01  -1.2792317E+01   0.0000000E+00  -4.8150063E-01  -1.3006464E+01   0.0000000E+00  -4.5117378E-01  -1.3349168E+01   0.0000000E+00  -4.8130131E-01  -1.3817140E+01   0.0000000E+00  -5.2283740E-01  -1.3513641E+01   0.0000000E+00  -1.4769669E+00  -1.4484127E+01   0.0000000E+00  -7.6744270E-01  -1.4607117E+01   0.0000000E+00  -5.3693008E-01  -1.4739080E+01   0.0000000E+00  -4.8102665E-01  -1.5057683E+01   0.0000000E+00  -5.1293778E-01  -1.5526822E+01   0.0000000E+00  -5.6633949E-01  -1.6820625E+01   0.0000000E+00  -8.6879730E-01  -1.6873281E+01   0.0000000E+00  -7.1223450E-01  -1.6605331E+01   0.0000000E+00  -6.1158371E-01  -1.6552341E+01   0.0000000E+00  -6.0816002E-01  -1.6829365E+01   0.0000000E+00  -6.2935472E-01  -1.7296688E+01   0.0000000E+00  -6.9554341E-01  -2.0204681E+01   0.0000000E+00  -1.3279610E+00  -1.9550600E+01   0.0000000E+00  -1.0408173E+00  -1.8799297E+01   0.0000000E+00  -8.2753372E-01  -1.8525652E+01   0.0000000E+00  -7.8927994E-01  -1.8660448E+01   0.0000000E+00  -8.6113906E-01  -1.9103491E+01   0.0000000E+00  -9.2684007E-01  -2.3469288E+01   0.0000000E+00  -4.2875748E+00  -2.2320940E+01   0.0000000E+00  -2.8427734E+00  -2.1158100E+01   0.0000000E+00  -1.7023125E+00  -2.0527756E+01   0.0000000E+00  -1.3380303E+00  -2.0520594E+01   0.0000000E+00  -1.3191223E+00  -2.0930359E+01   0.0000000E+00  -1.3254164E+00  -2.7350433E+01   0.0000000E+00  -6.4908943E+00  -2.5389883E+01   0.0000000E+00  -4.7757721E+00  -2.3668987E+01   0.0000000E+00  -3.1578970E+00  -2.2614347E+01   0.0000000E+00  -2.3888001E+00  -2.2418760E+01   0.0000000E+00  -2.0349128E+00  -2.2760666E+01   0.0000000E+00  -1.9222534E+00  -3.1718824E+01   0.0000000E+00  -7.8082895E+00  -2.8799564E+01   0.0000000E+00  -6.0128241E+00  -2.6299471E+01   0.0000000E+00  -4.4726524E+00  -2.4768518E+01   0.0000000E+00  -3.4798684E+00  -2.4311518E+01   0.0000000E+00  -2.9428153E+00  -2.4602301E+01   0.0000000E+00  -2.6367145E+00  -3.6206406E+01   0.0000000E+00  -8.7571239E+00  -3.2174644E+01   0.0000000E+00  -6.8258905E+00  -2.8820843E+01   0.0000000E+00  -5.4632449E+00  -2.6842361E+01   0.0000000E+00  -4.4331980E+00  -2.6176027E+01   0.0000000E+00  -3.8036613E+00  -2.6431761E+01   0.0000000E+00  -3.3986323E+00  -4.0344448E+01   0.0000000E+00  -9.5744076E+00  -3.5258259E+01   0.0000000E+00  -7.5775814E+00  -3.1198690E+01   0.0000000E+00  -6.2159986E+00  -2.8824520E+01   0.0000000E+00  -5.1810737E+00  -2.7987400E+01   0.0000000E+00  -4.5275779E+00  -2.8240576E+01   0.0000000E+00  -4.0575733E+00  -4.4064648E+01   0.0000000E+00  -1.0345578E+01  -3.8137577E+01   0.0000000E+00  -8.2257576E+00  -3.3462116E+01   0.0000000E+00  -6.8079152E+00  -3.0737698E+01   0.0000000E+00  -5.7441754E+00  -2.9771698E+01   0.0000000E+00  -5.0674629E+00  -3.0022635E+01   0.0000000E+00  -4.6124082E+00  -4.7545464E+01   0.0000000E+00  -1.1047371E+01  -4.0910210E+01   0.0000000E+00  -8.7987938E+00  -3.5680248E+01   0.0000000E+00  -7.2679090E+00  -3.2613331E+01   0.0000000E+00  -6.1590009E+00  -3.1517660E+01   0.0000000E+00  -5.4702764E+00  -3.1785559E+01   0.0000000E+00  -4.9876566E+00  -5.1012695E+01   0.0000000E+00  -1.1613533E+01  -4.3670879E+01   0.0000000E+00  -9.2652674E+00  -3.7883060E+01   0.0000000E+00  -7.6002631E+00  -3.4457542E+01   0.0000000E+00  -6.4607139E+00  -3.3212860E+01   0.0000000E+00  -5.7575583E+00  -3.3511730E+01   0.0000000E+00  -5.2312121E+00  -5.4485920E+01   0.0000000E+00  -1.2057518E+01  -4.6425030E+01   0.0000000E+00  -9.5893021E+00  -4.0045567E+01   0.0000000E+00  -7.8500390E+00  -3.6260857E+01   0.0000000E+00  -6.6488252E+00  -3.4876690E+01   0.0000000E+00  -5.9111710E+00  -3.5195580E+01   0.0000000E+00  -5.3549433E+00  -5.7941807E+01   0.0000000E+00  -1.2318030E+01  -4.9148571E+01   0.0000000E+00  -9.7484913E+00  -4.2154667E+01   0.0000000E+00  -7.9752121E+00  -3.8005501E+01   0.0000000E+00  -6.7235341E+00  -3.6492424E+01   0.0000000E+00  -5.9377093E+00  -3.6830818E+01   0.0000000E+00  -5.3498383E+00  -6.1343857E+01   0.0000000E+00  -1.2361434E+01  -5.1793129E+01   0.0000000E+00  -9.7427292E+00  -4.4184483E+01   0.0000000E+00  -7.9535952E+00  -3.9670414E+01   0.0000000E+00  -6.6678238E+00  -3.8042847E+01   0.0000000E+00  -5.8263268E+00  -3.8405750E+01   0.0000000E+00  -5.2073669E+00  -6.4658539E+01   0.0000000E+00  -1.2147524E+01  -5.4339775E+01   0.0000000E+00  -9.5263548E+00  -4.6116600E+01   0.0000000E+00  -7.7459202E+00  -4.1235573E+01   0.0000000E+00  -6.4524670E+00  -3.9503967E+01   0.0000000E+00  -5.5499964E+00  -3.9907700E+01   0.0000000E+00  -4.9016967E+00  -6.7884621E+01   0.0000000E+00  -1.1630282E+01  -5.6784554E+01   0.0000000E+00  -9.0518112E+00  -4.7944092E+01   0.0000000E+00  -7.3092809E+00  -4.2698879E+01   0.0000000E+00  -6.0132308E+00  -4.0882343E+01   0.0000000E+00  -5.0354981E+00  -4.1323200E+01   0.0000000E+00  -4.4118943E+00  -7.1072044E+01   0.0000000E+00  -1.0763319E+01  -5.9154175E+01   0.0000000E+00  -8.2731714E+00  -4.9680820E+01   0.0000000E+00  -6.5865450E+00  -4.4089420E+01   0.0000000E+00  -5.2402120E+00  -4.2178844E+01   0.0000000E+00  -4.2270517E+00  -4.2658180E+01   0.0000000E+00  -3.6829994E+00  -7.4330261E+01   0.0000000E+00  -9.5022974E+00  -6.1504242E+01   0.0000000E+00  -7.1256275E+00  -5.1357540E+01   0.0000000E+00  -5.4867806E+00  -4.5419800E+01   0.0000000E+00  -4.0607691E+00  -4.3389420E+01   0.0000000E+00  -3.1056461E+00  -4.3916405E+01   0.0000000E+00  -2.6461957E+00  -7.7774094E+01   0.0000000E+00  -7.8331575E+00  -6.3884293E+01   0.0000000E+00  -5.5447474E+00  -5.3010559E+01   0.0000000E+00  -3.9069772E+00  -4.6699268E+01   0.0000000E+00  -2.4433131E+00  -4.4530605E+01   0.0000000E+00  -1.6042933E+00  -4.5117752E+01   0.0000000E+00  -1.1973237E+00  -8.1449799E+01   0.0000000E+00  -5.7135997E+00  -6.6293724E+01   0.0000000E+00  -3.4763057E+00  -5.4622307E+01   0.0000000E+00  -1.7874929E+00  -4.7894741E+01   0.0000000E+00  -3.5383227E-01  -4.5576645E+01   0.0000000E+00   3.3710238E-01  -4.6220150E+01   0.0000000E+00   6.5733051E-01  -8.5196182E+01   0.0000000E+00  -3.0894680E+00  -6.8616478E+01   0.0000000E+00  -8.9648432E-01  -5.6100586E+01   0.0000000E+00   9.0932387E-01  -4.8919846E+01   0.0000000E+00   2.2499595E+00  -4.6464897E+01   0.0000000E+00   2.8033414E+00  -4.7138268E+01   0.0000000E+00   2.9296615E+00  -8.8633369E+01   0.0000000E+00   7.1945317E-02  -7.0708618E+01   0.0000000E+00   2.2602148E+00  -5.7346214E+01   0.0000000E+00   4.1915741E+00  -4.9676807E+01   0.0000000E+00   5.3966560E+00  -4.7045952E+01   0.0000000E+00   5.6711569E+00  -4.7683693E+01   0.0000000E+00   5.5046792E+00  -9.1527115E+01   0.0000000E+00   3.5868034E+00  -7.2385849E+01   0.0000000E+00   5.9186478E+00  -5.8355797E+01   0.0000000E+00   7.9474468E+00  -5.0149155E+01   0.0000000E+00   8.9238768E+00  -4.7272129E+01   0.0000000E+00   8.9084644E+00  -4.7841873E+01   0.0000000E+00   8.4755669E+00  -9.3621567E+01   0.0000000E+00   7.3918142E+00  -7.3743759E+01   0.0000000E+00   9.7250071E+00  -5.8850327E+01   0.0000000E+00   1.2258549E+01  -5.0352051E+01   0.0000000E+00   1.2968051E+01  -4.7266506E+01   0.0000000E+00   1.2868928E+01  -4.7746464E+01   0.0000000E+00   1.2077431E+01  -9.3578194E+01   0.0000000E+00   1.1371328E+01  -7.3944984E+01   0.0000000E+00   1.3985298E+01  -5.9200802E+01   0.0000000E+00   1.6618559E+01  -5.0483917E+01   0.0000000E+00   1.7762991E+01  -4.7011314E+01   0.0000000E+00   1.7448233E+01  -4.7333694E+01   0.0000000E+00   1.6224928E+01  -8.6185905E+01   0.0000000E+00   1.6243301E+01  -7.1795601E+01   0.0000000E+00   1.8602196E+01  -5.8022346E+01   0.0000000E+00   2.1655113E+01  -4.9493065E+01   0.0000000E+00   2.2843203E+01  -4.6378857E+01   0.0000000E+00   2.2690214E+01  -4.6810604E+01   0.0000000E+00   2.1289671E+01  -5.7728645E+01   0.0000000E+00   2.1245638E+01  -5.6607136E+01   0.0000000E+00   2.4299826E+01  -5.1779812E+01   0.0000000E+00   2.7446964E+01  -4.6200264E+01   0.0000000E+00   2.8679953E+01  -4.3474361E+01   0.0000000E+00   2.7803459E+01  -4.4139431E+01   0.0000000E+00   2.5581177E+01  -2.9856058E+01   0.0000000E+00   2.6936859E+01  -2.8814020E+01   0.0000000E+00   3.0687527E+01  -2.8271307E+01   0.0000000E+00   3.4658318E+01  -2.8316225E+01   0.0000000E+00   3.6129761E+01  -2.9239325E+01   0.0000000E+00   3.6593544E+01  -3.1280369E+01   0.0000000E+00   3.5323318E+01  -1.5894446E+01   0.0000000E+00   3.0862759E+01  -1.4262860E+01   0.0000000E+00   3.4470573E+01  -1.3154245E+01   0.0000000E+00   4.0454842E+01  -1.2869720E+01   0.0000000E+00   4.2413731E+01  -1.3357780E+01   0.0000000E+00   4.2862083E+01  -1.4770647E+01   0.0000000E+00   4.2411770E+01  -1.2515032E+01   0.0000000E+00   3.4932667E+01  -1.0667778E+01   0.0000000E+00   3.6143703E+01  -9.1511240E+00   0.0000000E+00   4.5349030E+01  -8.3167810E+00   0.0000000E+00   4.8638405E+01  -8.2734089E+00   0.0000000E+00   4.8963165E+01  -8.9669161E+00   0.0000000E+00   4.6905499E+01  -1.2337178E+01   0.0000000E+00   3.8574192E+01  -1.0804780E+01   0.0000000E+00   3.7213650E+01  -9.4669113E+00   0.0000000E+00   4.8910088E+01  -8.5592890E+00   0.0000000E+00   5.3883835E+01  -8.1719332E+00   0.0000000E+00   5.3424828E+01  -8.2536697E+00   0.0000000E+00   4.9426521E+01  -9.0022125E+00   0.0000000E+00   4.0757786E+01  -8.2617168E+00   0.0000000E+00   3.8732643E+01  -7.6497116E+00   0.0000000E+00   5.1226860E+01  -7.2265253E+00   0.0000000E+00   5.6090149E+01  -7.0006609E+00   0.0000000E+00   5.4597832E+01  -6.9342504E+00   0.0000000E+00   5.1024757E+01   2.9657811E-02   0.0000000E+00   4.1559391E+01  -2.7518344E-01   0.0000000E+00   3.9596184E+01  -6.9828928E-01   0.0000000E+00   5.2546486E+01  -1.1613386E+00   0.0000000E+00   5.5960148E+01  -1.5776310E+00   0.0000000E+00   5.4099701E+01  -1.8918614E+00   0.0000000E+00   4.9956150E+01   1.3281794E+01   0.0000000E+00   4.0984280E+01   1.1963259E+01   0.0000000E+00   3.9703690E+01   1.0501366E+01   0.0000000E+00   5.1650776E+01   9.0450945E+00   0.0000000E+00   5.4558418E+01   7.7377305E+00   0.0000000E+00   5.3290646E+01   6.6882043E+00   0.0000000E+00   4.7227997E+01   2.7454979E+01   0.0000000E+00   3.8812328E+01   2.5376728E+01   0.0000000E+00   3.8249481E+01   2.3119730E+01   0.0000000E+00   4.8790417E+01   2.0838083E+01   0.0000000E+00   5.1519238E+01   1.8690861E+01   0.0000000E+00   5.1151226E+01   1.6856873E+01   0.0000000E+00   4.5107330E+01   4.0062252E+01   0.0000000E+00   3.5378654E+01   3.7559704E+01   0.0000000E+00   3.5463024E+01   3.4857616E+01   0.0000000E+00   4.4818401E+01   3.2068596E+01   0.0000000E+00   4.7464985E+01   2.9253975E+01   0.0000000E+00   4.7190514E+01   2.6897478E+01   0.0000000E+00   4.2612152E+01   5.0501709E+01   0.0000000E+00   3.1468958E+01   4.8009850E+01   0.0000000E+00   3.1972752E+01   4.5034439E+01   0.0000000E+00   3.9975563E+01   4.1779850E+01   0.0000000E+00   4.2249912E+01   3.8648937E+01   0.0000000E+00   4.2802559E+01   3.6325630E+01   0.0000000E+00   3.9391212E+01   5.9743931E+01   0.0000000E+00   2.7055950E+01   5.7495159E+01   0.0000000E+00   2.7744381E+01   5.3537304E+01   0.0000000E+00   3.5237061E+01   4.9785126E+01   0.0000000E+00   3.8019077E+01   4.7273479E+01   0.0000000E+00   3.8117138E+01   4.5606129E+01   0.0000000E+00   3.5651112E+01   6.9401596E+01   0.0000000E+00   2.1492008E+01   6.6114464E+01   0.0000000E+00   2.3550159E+01   6.1266548E+01   0.0000000E+00   2.9852987E+01   5.8071495E+01   0.0000000E+00   3.2829807E+01   5.6234169E+01   0.0000000E+00   3.3437962E+01   5.5770382E+01   0.0000000E+00   3.1301435E+01   8.0560364E+01   0.0000000E+00   1.5597517E+01   7.5510033E+01   0.0000000E+00   1.9852203E+01   6.9308662E+01   0.0000000E+00   2.4221985E+01   6.6772392E+01   0.0000000E+00   2.7651615E+01   6.6007294E+01   0.0000000E+00   2.9036007E+01   6.6375015E+01   0.0000000E+00   2.6320539E+01   9.2975052E+01   0.0000000E+00   1.0480303E+01   8.6229675E+01   0.0000000E+00   1.5316950E+01   7.8489517E+01   0.0000000E+00   1.8865326E+01   7.5432159E+01   0.0000000E+00   2.2458139E+01   7.3574883E+01   0.0000000E+00   2.3381128E+01   7.3572151E+01   0.0000000E+00   2.0055210E+01   1.0674368E+02   0.0000000E+00   5.5288544E+00   9.7920654E+01   0.0000000E+00   1.0451987E+01   8.8908905E+01   0.0000000E+00   1.4138764E+01   8.2404510E+01   0.0000000E+00   1.7076914E+01   7.8587379E+01   0.0000000E+00   1.7442039E+01   7.8340866E+01   0.0000000E+00   1.4694553E+01   1.2234690E+02   0.0000000E+00   7.5215942E-01   1.1035841E+02   0.0000000E+00   5.3895488E+00   9.9044289E+01   0.0000000E+00   9.6962700E+00   8.8422958E+01   0.0000000E+00   1.1869329E+01   8.2934242E+01   0.0000000E+00   1.2122636E+01   8.1087494E+01   0.0000000E+00   1.1084617E+01   1.3993431E+02   0.0000000E+00  -3.9219308E+00   1.2410489E+02   0.0000000E+00   1.6914023E+00   1.0762076E+02   0.0000000E+00   5.7678914E+00   9.3437263E+01   0.0000000E+00   7.5811496E+00   8.5957405E+01   0.0000000E+00   8.4112425E+00   8.2829742E+01   0.0000000E+00   8.4951982E+00   1.6083777E+02   0.0000000E+00  -5.9344168E+00   1.3773466E+02   0.0000000E+00  -1.3843833E-01   1.1477949E+02   0.0000000E+00   2.6958518E+00   9.8242271E+01   0.0000000E+00   4.7366009E+00   8.8585411E+01   0.0000000E+00   5.7584085E+00   8.4476692E+01   0.0000000E+00   6.2639332E+00   1.7844208E+02   0.0000000E+00  -7.5035381E+00   1.5002475E+02   0.0000000E+00  -3.0719168E+00   1.2337675E+02   0.0000000E+00  -1.2318072E-01   1.0422128E+02   0.0000000E+00   2.1070626E+00   9.2348877E+01   0.0000000E+00   3.6254170E+00   8.6651901E+01   0.0000000E+00   4.2631993E+00   1.6393744E+02   0.0000000E+00  -6.0635715E+00   1.3416881E+02   0.0000000E+00  -2.8412380E+00   1.1206184E+02   0.0000000E+00  -1.5571302E-01   9.7809944E+01   0.0000000E+00   1.5574131E+00   8.9824661E+01   0.0000000E+00   2.4983079E+00   1.7876805E+02   0.0000000E+00  -8.7410021E+00   1.4752298E+02   0.0000000E+00  -5.4266539E+00   1.2253729E+02   0.0000000E+00  -2.3835578E+00   1.0525468E+02   0.0000000E+00  -3.3600631E-01   9.4529358E+01   0.0000000E+00   7.7720881E-01   1.6373219E+02   0.0000000E+00  -7.5227118E+00   1.3596194E+02   0.0000000E+00  -4.4050174E+00   1.1496516E+02   0.0000000E+00  -1.7988777E+00   1.0127610E+02   0.0000000E+00  -5.9718913E-01   1.8120818E+02   0.0000000E+00  -9.4463558E+00   1.5260497E+02   0.0000000E+00  -6.1166759E+00   1.2814883E+02   0.0000000E+00  -3.1953540E+00   1.1080721E+02   0.0000000E+00  -1.5415449E+00   1.7144267E+02   0.0000000E+00  -7.8042989E+00   1.4501933E+02   0.0000000E+00  -4.5458536E+00   1.2404932E+02   0.0000000E+00  -2.2576530E+00   1.6456976E+02   0.0000000E+00  -6.0337062E+00   1.4153951E+02   0.0000000E+00  -3.4272585E+00   1.8386398E+02   0.0000000E+00  -8.4145174E+00   1.6207466E+02   0.0000000E+00  -4.8695693E+00  -4.3719997E+00   0.0000000E+00  -6.5034056E-01  -4.5402336E+00   0.0000000E+00  -5.6054544E-01  -4.6627026E+00   0.0000000E+00  -4.7617090E-01  -4.7474155E+00   0.0000000E+00  -3.9870691E-01  -4.8053894E+00   0.0000000E+00  -3.2367879E-01  -4.8438873E+00   0.0000000E+00  -2.5229245E-01  -4.8685246E+00   0.0000000E+00  -1.8568668E-01  -4.8834858E+00   0.0000000E+00  -1.2195277E-01  -4.8915730E+00   0.0000000E+00  -5.9794083E-02  -5.2234154E+00   0.0000000E+00  -7.5990033E-01  -5.4186668E+00   0.0000000E+00  -6.6517389E-01  -5.5615520E+00   0.0000000E+00  -5.7472777E-01  -5.6631317E+00   0.0000000E+00  -4.8671001E-01  -5.7343998E+00   0.0000000E+00  -3.9952636E-01  -5.7833481E+00   0.0000000E+00  -3.1448746E-01  -5.8149776E+00   0.0000000E+00  -2.3501235E-01  -5.8353367E+00   0.0000000E+00  -1.5496814E-01  -5.8465595E+00   0.0000000E+00  -7.6193638E-02  -6.1797009E+00   0.0000000E+00  -7.7426767E-01  -6.4052334E+00   0.0000000E+00  -6.9349158E-01  -6.5742645E+00   0.0000000E+00  -6.0865688E-01  -6.6974106E+00   0.0000000E+00  -5.2326822E-01  -6.7859383E+00   0.0000000E+00  -4.3428606E-01  -6.8479023E+00   0.0000000E+00  -3.4854561E-01  -6.8908520E+00   0.0000000E+00  -2.6078224E-01  -6.9185486E+00   0.0000000E+00  -1.7325382E-01  -6.9340763E+00   0.0000000E+00  -8.5768014E-02  -7.1926680E+00   0.0000000E+00  -7.5135875E-01  -7.4522257E+00   0.0000000E+00  -6.8231970E-01  -7.6491861E+00   0.0000000E+00  -6.0827988E-01  -7.7954988E+00   0.0000000E+00  -5.2968812E-01  -7.9037075E+00   0.0000000E+00  -4.4561994E-01  -7.9818716E+00   0.0000000E+00  -3.6050704E-01  -8.0371904E+00   0.0000000E+00  -2.7204552E-01  -8.0736790E+00   0.0000000E+00  -1.8193397E-01  -8.0941801E+00   0.0000000E+00  -9.1959305E-02  -8.3266621E+00   0.0000000E+00  -7.1238458E-01  -8.6206570E+00   0.0000000E+00  -6.5667027E-01  -8.8470001E+00   0.0000000E+00  -5.9183687E-01  -9.0179834E+00   0.0000000E+00  -5.1976115E-01  -9.1465263E+00   0.0000000E+00  -4.4403419E-01  -9.2421837E+00   0.0000000E+00  -3.6158425E-01  -9.3109159E+00   0.0000000E+00  -2.7506956E-01  -9.3569174E+00   0.0000000E+00  -1.8622710E-01  -9.3834877E+00   0.0000000E+00  -9.3757391E-02  -9.6221380E+00   0.0000000E+00  -6.6537493E-01  -9.9509592E+00   0.0000000E+00  -6.2188798E-01  -1.0206579E+01   0.0000000E+00  -5.6670326E-01  -1.0402106E+01   0.0000000E+00  -5.0495118E-01  -1.0551966E+01   0.0000000E+00  -4.3445265E-01  -1.0665358E+01   0.0000000E+00  -3.5736245E-01  -1.0748072E+01   0.0000000E+00  -2.7502820E-01  -1.0804478E+01   0.0000000E+00  -1.8642086E-01  -1.0837252E+01   0.0000000E+00  -9.4166480E-02  -1.1071222E+01   0.0000000E+00  -6.1648864E-01  -1.1434373E+01   0.0000000E+00  -5.8706319E-01  -1.1719097E+01   0.0000000E+00  -5.4393893E-01  -1.1939466E+01   0.0000000E+00  -4.9048406E-01  -1.2110778E+01   0.0000000E+00  -4.2666233E-01  -1.2242187E+01   0.0000000E+00  -3.5495776E-01  -1.2339703E+01   0.0000000E+00  -2.7457103E-01  -1.2406860E+01   0.0000000E+00  -1.8737622E-01  -1.2446161E+01   0.0000000E+00  -9.4978228E-02  -1.2642942E+01   0.0000000E+00  -5.7551759E-01  -1.3039659E+01   0.0000000E+00  -5.6473422E-01  -1.3353127E+01   0.0000000E+00  -5.3486794E-01  -1.3598546E+01   0.0000000E+00  -4.8949820E-01  -1.3791734E+01   0.0000000E+00  -4.3104261E-01  -1.3941987E+01   0.0000000E+00  -3.6165246E-01  -1.4054942E+01   0.0000000E+00  -2.8161108E-01  -1.4133534E+01   0.0000000E+00  -1.9312122E-01  -1.4179762E+01   0.0000000E+00  -9.8332666E-02  -1.4307746E+01   0.0000000E+00  -5.5862701E-01  -1.4736541E+01   0.0000000E+00  -5.7693815E-01  -1.5079920E+01   0.0000000E+00  -5.5749899E-01  -1.5351632E+01   0.0000000E+00  -5.1757747E-01  -1.5568198E+01   0.0000000E+00  -4.5985115E-01  -1.5738929E+01   0.0000000E+00  -3.8752928E-01  -1.5868358E+01   0.0000000E+00  -3.0294934E-01  -1.5959152E+01   0.0000000E+00  -2.0815720E-01  -1.6012815E+01   0.0000000E+00  -1.0628299E-01  -1.6043646E+01   0.0000000E+00  -6.0707527E-01  -1.6503721E+01   0.0000000E+00  -6.3786417E-01  -1.6878042E+01   0.0000000E+00  -6.3413817E-01  -1.7179480E+01   0.0000000E+00  -5.9201264E-01  -1.7422411E+01   0.0000000E+00  -5.2658957E-01  -1.7615894E+01   0.0000000E+00  -4.4376320E-01  -1.7763796E+01   0.0000000E+00  -3.4635931E-01  -1.7868086E+01   0.0000000E+00  -2.3755726E-01  -1.7930071E+01   0.0000000E+00  -1.2099570E-01  -1.7830580E+01   0.0000000E+00  -7.4375629E-01  -1.8320225E+01   0.0000000E+00  -7.8401875E-01  -1.8730589E+01   0.0000000E+00  -7.7827537E-01  -1.9066170E+01   0.0000000E+00  -7.2450459E-01  -1.9340246E+01   0.0000000E+00  -6.4030647E-01  -1.9559790E+01   0.0000000E+00  -5.3413433E-01  -1.9728226E+01   0.0000000E+00  -4.1310668E-01  -1.9847279E+01   0.0000000E+00  -2.8133333E-01  -1.9917660E+01   0.0000000E+00  -1.4404990E-01  -1.9646107E+01   0.0000000E+00  -9.9558401E-01  -2.0174417E+01   0.0000000E+00  -1.0279522E+00  -2.0625866E+01   0.0000000E+00  -1.0039474E+00  -2.1001730E+01   0.0000000E+00  -9.2529333E-01  -2.1313091E+01   0.0000000E+00  -8.0196637E-01  -2.1562336E+01   0.0000000E+00  -6.6159540E-01  -2.1753345E+01   0.0000000E+00  -5.0934070E-01  -2.1889465E+01   0.0000000E+00  -3.4857774E-01  -2.1970621E+01   0.0000000E+00  -1.7716606E-01  -2.1482983E+01   0.0000000E+00  -1.4082395E+00  -2.2065001E+01   0.0000000E+00  -1.3619660E+00  -2.2563011E+01   0.0000000E+00  -1.2932106E+00  -2.2988638E+01   0.0000000E+00  -1.1577678E+00  -2.3338589E+01   0.0000000E+00  -9.9962497E-01  -2.3620035E+01   0.0000000E+00  -8.2642311E-01  -2.3835089E+01   0.0000000E+00  -6.4192009E-01  -2.3990524E+01   0.0000000E+00  -4.3554249E-01  -2.4083469E+01   0.0000000E+00  -2.1743375E-01  -2.3348013E+01   0.0000000E+00  -1.8813899E+00  -2.3976217E+01   0.0000000E+00  -1.7976068E+00  -2.4537523E+01   0.0000000E+00  -1.6470796E+00  -2.5013149E+01   0.0000000E+00  -1.4569005E+00  -2.5408648E+01   0.0000000E+00  -1.2434938E+00  -2.5728144E+01   0.0000000E+00  -1.0126613E+00  -2.5974157E+01   0.0000000E+00  -7.7613258E-01  -2.6149878E+01   0.0000000E+00  -5.2253997E-01  -2.6254757E+01   0.0000000E+00  -2.6531804E-01  -2.5224871E+01   0.0000000E+00  -2.4645696E+00  -2.5923168E+01   0.0000000E+00  -2.2596412E+00  -2.6537361E+01   0.0000000E+00  -2.0605776E+00  -2.7071987E+01   0.0000000E+00  -1.8079557E+00  -2.7515297E+01   0.0000000E+00  -1.5323919E+00  -2.7877455E+01   0.0000000E+00  -1.2375106E+00  -2.8158308E+01   0.0000000E+00  -9.2812270E-01  -2.8357166E+01   0.0000000E+00  -6.1928999E-01  -2.8476484E+01   0.0000000E+00  -3.1452051E-01  -2.7109816E+01   0.0000000E+00  -3.0760329E+00  -2.7877769E+01   0.0000000E+00  -2.7652078E+00  -2.8567799E+01   0.0000000E+00  -2.4728091E+00  -2.9157366E+01   0.0000000E+00  -2.1600270E+00  -2.9653511E+01   0.0000000E+00  -1.8312207E+00  -3.0059994E+01   0.0000000E+00  -1.4739246E+00  -3.0376783E+01   0.0000000E+00  -1.1116438E+00  -3.0602476E+01   0.0000000E+00  -7.4005133E-01  -3.0739130E+01   0.0000000E+00  -3.6460313E-01  -2.8982853E+01   0.0000000E+00  -3.6619115E+00  -2.9837107E+01   0.0000000E+00  -3.2596829E+00  -3.0602459E+01   0.0000000E+00  -2.8781397E+00  -3.1255909E+01   0.0000000E+00  -2.5055416E+00  -3.1809633E+01   0.0000000E+00  -2.1171367E+00  -3.2266533E+01   0.0000000E+00  -1.7044696E+00  -3.2621704E+01   0.0000000E+00  -1.2813050E+00  -3.2875248E+01   0.0000000E+00  -8.5484666E-01  -3.3027496E+01   0.0000000E+00  -4.2796773E-01  -3.0847956E+01   0.0000000E+00  -4.1448588E+00  -3.1791098E+01   0.0000000E+00  -3.6784267E+00  -3.2635738E+01   0.0000000E+00  -3.2405248E+00  -3.3356815E+01   0.0000000E+00  -2.8236485E+00  -3.3973644E+01   0.0000000E+00  -2.3725777E+00  -3.4482929E+01   0.0000000E+00  -1.9051944E+00  -3.4879913E+01   0.0000000E+00  -1.4317219E+00  -3.5164074E+01   0.0000000E+00  -9.5854896E-01  -3.5333462E+01   0.0000000E+00  -4.7896132E-01  -3.2691437E+01   0.0000000E+00  -4.4970012E+00  -3.3728088E+01   0.0000000E+00  -4.0063267E+00  -3.4658485E+01   0.0000000E+00  -3.5332255E+00  -3.5453125E+01   0.0000000E+00  -3.0781434E+00  -3.6134144E+01   0.0000000E+00  -2.5874169E+00  -3.6700089E+01   0.0000000E+00  -2.0697348E+00  -3.7140350E+01   0.0000000E+00  -1.5528836E+00  -3.7454151E+01   0.0000000E+00  -1.0356501E+00  -3.7641865E+01   0.0000000E+00  -5.1785672E-01  -3.4500027E+01   0.0000000E+00  -4.7287140E+00  -3.5636295E+01   0.0000000E+00  -4.2318406E+00  -3.6655506E+01   0.0000000E+00  -3.7467628E+00  -3.7532097E+01   0.0000000E+00  -3.2629905E+00  -3.8285175E+01   0.0000000E+00  -2.7367928E+00  -3.8907406E+01   0.0000000E+00  -2.1920600E+00  -3.9390831E+01   0.0000000E+00  -1.6379893E+00  -3.9734985E+01   0.0000000E+00  -1.0877360E+00  -3.9940266E+01   0.0000000E+00  -5.4269677E-01  -3.6270138E+01   0.0000000E+00  -4.8393197E+00  -3.7505550E+01   0.0000000E+00  -4.3469892E+00  -3.8611324E+01   0.0000000E+00  -3.8796544E+00  -3.9582825E+01   0.0000000E+00  -3.3644741E+00  -4.0414944E+01   0.0000000E+00  -2.8108323E+00  -4.1094982E+01   0.0000000E+00  -2.2441669E+00  -4.1620964E+01   0.0000000E+00  -1.6777544E+00  -4.1993652E+01   0.0000000E+00  -1.1101513E+00  -4.2215832E+01   0.0000000E+00  -5.5271190E-01  -3.8003273E+01   0.0000000E+00  -4.8176737E+00  -3.9333183E+01   0.0000000E+00  -4.3473248E+00  -4.0543095E+01   0.0000000E+00  -3.8752396E+00  -4.1607174E+01   0.0000000E+00  -3.3512421E+00  -4.2514423E+01   0.0000000E+00  -2.7958977E+00  -4.3250973E+01   0.0000000E+00  -2.2262449E+00  -4.3817936E+01   0.0000000E+00  -1.6625360E+00  -4.4216885E+01   0.0000000E+00  -1.1015551E+00  -4.4454449E+01   0.0000000E+00  -5.4610538E-01  -3.9671703E+01   0.0000000E+00  -4.6869197E+00  -4.1103657E+01   0.0000000E+00  -4.2397842E+00  -4.2424091E+01   0.0000000E+00  -3.7588401E+00  -4.3587902E+01   0.0000000E+00  -3.2260184E+00  -4.4570698E+01   0.0000000E+00  -2.6836922E+00  -4.5361370E+01   0.0000000E+00  -2.1305931E+00  -4.5966179E+01   0.0000000E+00  -1.5887918E+00  -4.6389198E+01   0.0000000E+00  -1.0525374E+00  -4.6640034E+01   0.0000000E+00  -5.2148283E-01  -4.1270954E+01   0.0000000E+00  -4.4107885E+00  -4.2819351E+01   0.0000000E+00  -3.9681861E+00  -4.4257896E+01   0.0000000E+00  -3.4806275E+00  -4.5515064E+01   0.0000000E+00  -2.9692059E+00  -4.6568123E+01   0.0000000E+00  -2.4612694E+00  -4.7409920E+01   0.0000000E+00  -1.9517308E+00  -4.8047817E+01   0.0000000E+00  -1.4522814E+00  -4.8492180E+01   0.0000000E+00  -9.6387845E-01  -4.8753723E+01   0.0000000E+00  -4.7765666E-01  -4.2791950E+01   0.0000000E+00  -3.9705074E+00  -4.4474209E+01   0.0000000E+00  -3.5190725E+00  -4.6030327E+01   0.0000000E+00  -3.0342352E+00  -4.7373936E+01   0.0000000E+00  -2.5692387E+00  -4.8491199E+01   0.0000000E+00  -2.1249943E+00  -4.9378521E+01   0.0000000E+00  -1.6863091E+00  -5.0045712E+01   0.0000000E+00  -1.2577381E+00  -5.0506737E+01   0.0000000E+00  -8.3490598E-01  -5.0776623E+01   0.0000000E+00  -4.1499695E-01  -4.4249508E+01   0.0000000E+00  -3.2661653E+00  -4.6071915E+01   0.0000000E+00  -2.8335626E+00  -4.7733406E+01   0.0000000E+00  -2.4091463E+00  -4.9152775E+01   0.0000000E+00  -2.0193374E+00  -5.0324547E+01   0.0000000E+00  -1.6674927E+00  -5.1250721E+01   0.0000000E+00  -1.3344865E+00  -5.1942196E+01   0.0000000E+00  -1.0048862E+00  -5.2416595E+01   0.0000000E+00  -6.7001730E-01  -5.2691746E+01   0.0000000E+00  -3.3499989E-01  -4.5645317E+01   0.0000000E+00  -2.2623813E+00  -4.7600063E+01   0.0000000E+00  -1.9121896E+00  -4.9358738E+01   0.0000000E+00  -1.5980889E+00  -5.0844780E+01   0.0000000E+00  -1.3242474E+00  -5.2057884E+01   0.0000000E+00  -1.0932024E+00  -5.3013489E+01   0.0000000E+00  -8.9467263E-01  -5.3724735E+01   0.0000000E+00  -6.9548708E-01  -5.4209648E+01   0.0000000E+00  -4.7872254E-01  -5.4489628E+01   0.0000000E+00  -2.4632770E-01  -4.6968796E+01   0.0000000E+00  -9.2340100E-01  -4.9045139E+01   0.0000000E+00  -7.2651881E-01  -5.0891762E+01   0.0000000E+00  -5.8800024E-01  -5.2435131E+01   0.0000000E+00  -4.8821062E-01  -5.3678879E+01   0.0000000E+00  -4.0822443E-01  -5.4654259E+01   0.0000000E+00  -3.6997283E-01  -5.5377792E+01   0.0000000E+00  -3.3161023E-01  -5.5873714E+01   0.0000000E+00  -2.6120102E-01  -5.6159954E+01   0.0000000E+00  -1.4588037E-01  -4.8186363E+01   0.0000000E+00   7.4457085E-01  -5.0364075E+01   0.0000000E+00   7.3031193E-01  -5.2289616E+01   0.0000000E+00   6.5020114E-01  -5.3889526E+01   0.0000000E+00   5.1077950E-01  -5.5156788E+01   0.0000000E+00   3.8419399E-01  -5.6144142E+01   0.0000000E+00   2.1822329E-01  -5.6875717E+01   0.0000000E+00   8.4699191E-02  -5.7383820E+01   0.0000000E+00  -1.4213827E-02  -5.7676678E+01   0.0000000E+00  -2.6493195E-02  -4.9181252E+01   0.0000000E+00   2.7275257E+00  -5.1465660E+01   0.0000000E+00   2.4742711E+00  -5.3477589E+01   0.0000000E+00   2.1160979E+00  -5.5107750E+01   0.0000000E+00   1.7113496E+00  -5.6411430E+01   0.0000000E+00   1.2797841E+00  -5.7409924E+01   0.0000000E+00   8.7361473E-01  -5.8153816E+01   0.0000000E+00   5.4150075E-01  -5.8674309E+01   0.0000000E+00   2.7743626E-01  -5.8976963E+01   0.0000000E+00   1.1441138E-01  -4.9847763E+01   0.0000000E+00   5.1007338E+00  -5.2182091E+01   0.0000000E+00   4.4591455E+00  -5.4212212E+01   0.0000000E+00   3.7493267E+00  -5.5929195E+01   0.0000000E+00   2.9283595E+00  -5.7248535E+01   0.0000000E+00   2.1674416E+00  -5.8323254E+01   0.0000000E+00   1.5696555E+00  -5.9094803E+01   0.0000000E+00   9.7292489E-01  -5.9649151E+01   0.0000000E+00   5.8224219E-01  -5.9964172E+01   0.0000000E+00   2.6102582E-01  -5.0065880E+01   0.0000000E+00   7.7891617E+00  -5.2465813E+01   0.0000000E+00   6.8256741E+00  -5.4562565E+01   0.0000000E+00   5.6433601E+00  -5.6351864E+01   0.0000000E+00   4.4082279E+00  -5.7734814E+01   0.0000000E+00   3.2207780E+00  -5.8843376E+01   0.0000000E+00   2.2025669E+00  -5.9670212E+01   0.0000000E+00   1.4419383E+00  -6.0262558E+01   0.0000000E+00   8.4666079E-01  -6.0606705E+01   0.0000000E+00   3.7459975E-01  -4.9974537E+01   0.0000000E+00   1.0966969E+01  -5.2320789E+01   0.0000000E+00   9.5916176E+00  -5.4428783E+01   0.0000000E+00   7.9348974E+00  -5.6165939E+01   0.0000000E+00   6.1411223E+00  -5.7642139E+01   0.0000000E+00   4.6686182E+00  -5.8753822E+01   0.0000000E+00   3.2508721E+00  -5.9653679E+01   0.0000000E+00   2.0858722E+00  -6.0292759E+01   0.0000000E+00   1.2027144E+00  -6.0702099E+01   0.0000000E+00   5.4510701E-01  -4.9339462E+01   0.0000000E+00   1.4620753E+01  -5.1658478E+01   0.0000000E+00   1.2717802E+01  -5.3785759E+01   0.0000000E+00   1.0435497E+01  -5.5552486E+01   0.0000000E+00   8.2443361E+00  -5.6983608E+01   0.0000000E+00   6.1272449E+00  -5.8191490E+01   0.0000000E+00   4.3275723E+00  -5.9179508E+01   0.0000000E+00   2.9217238E+00  -5.9868706E+01   0.0000000E+00   1.7961223E+00  -6.0267155E+01   0.0000000E+00   8.6502689E-01  -4.8753639E+01   0.0000000E+00   1.9377008E+01  -5.1069614E+01   0.0000000E+00   1.7087116E+01  -5.2986771E+01   0.0000000E+00   1.4236464E+01  -5.4760807E+01   0.0000000E+00   1.1239613E+01  -5.6225006E+01   0.0000000E+00   8.4895964E+00  -5.7416176E+01   0.0000000E+00   6.0354333E+00  -5.8393005E+01   0.0000000E+00   4.1394663E+00  -5.9106236E+01   0.0000000E+00   2.6245813E+00  -5.9542236E+01   0.0000000E+00   1.2869306E+00  -4.6832684E+01   0.0000000E+00   2.3791504E+01  -4.9680164E+01   0.0000000E+00   2.1657406E+01  -5.1841541E+01   0.0000000E+00   1.8952301E+01  -5.3583977E+01   0.0000000E+00   1.5633663E+01  -5.5164413E+01   0.0000000E+00   1.2409945E+01  -5.6358494E+01   0.0000000E+00   9.5719357E+00  -5.7236687E+01   0.0000000E+00   7.0983133E+00  -5.7834297E+01   0.0000000E+00   4.8011775E+00  -5.8188061E+01   0.0000000E+00   2.4394865E+00  -3.4242641E+01   0.0000000E+00   3.0659281E+01  -3.8149197E+01   0.0000000E+00   2.4762152E+01  -4.2009201E+01   0.0000000E+00   2.0758169E+01  -4.5414349E+01   0.0000000E+00   1.7371944E+01  -4.8460461E+01   0.0000000E+00   1.3922304E+01  -5.1016731E+01   0.0000000E+00   1.0867407E+01  -5.3030262E+01   0.0000000E+00   8.2573929E+00  -5.4529976E+01   0.0000000E+00   5.6912642E+00  -5.5449722E+01   0.0000000E+00   2.9460287E+00  -1.7148640E+01   0.0000000E+00   3.7054398E+01  -1.9980461E+01   0.0000000E+00   3.1425953E+01  -2.2924421E+01   0.0000000E+00   2.7368649E+01  -2.5771189E+01   0.0000000E+00   2.2840771E+01  -2.8377089E+01   0.0000000E+00   1.8434814E+01  -3.0661459E+01   0.0000000E+00   1.4548955E+01  -3.2564510E+01   0.0000000E+00   1.1080838E+01  -3.4015244E+01   0.0000000E+00   7.6499023E+00  -3.4932144E+01   0.0000000E+00   3.9547484E+00  -1.0247893E+01   0.0000000E+00   4.1356148E+01  -1.1919197E+01   0.0000000E+00   3.7741474E+01  -1.3773804E+01   0.0000000E+00   3.3084549E+01  -1.5646834E+01   0.0000000E+00   2.7694881E+01  -1.7431469E+01   0.0000000E+00   2.2500187E+01  -1.9054983E+01   0.0000000E+00   1.7889261E+01  -2.0448994E+01   0.0000000E+00   1.3696477E+01  -2.1535187E+01   0.0000000E+00   9.4758797E+00  -2.2231054E+01   0.0000000E+00   4.8998909E+00  -8.6889181E+00   0.0000000E+00   4.5780277E+01  -9.3608761E+00   0.0000000E+00   4.1761761E+01  -1.0180392E+01   0.0000000E+00   3.6576382E+01  -1.1070581E+01   0.0000000E+00   3.0714516E+01  -1.1974885E+01   0.0000000E+00   2.5115677E+01  -1.2844114E+01   0.0000000E+00   2.0123095E+01  -1.3623542E+01   0.0000000E+00   1.5506439E+01  -1.4249906E+01   0.0000000E+00   1.0771040E+01  -1.4659269E+01   0.0000000E+00   5.5799475E+00  -6.9633884E+00   0.0000000E+00   4.7220486E+01  -7.0425067E+00   0.0000000E+00   4.2946327E+01  -7.1594696E+00   0.0000000E+00   3.7562298E+01  -7.3083434E+00   0.0000000E+00   3.1601662E+01  -7.4874568E+00   0.0000000E+00   2.5971548E+01  -7.6869693E+00   0.0000000E+00   2.0950348E+01  -7.8869619E+00   0.0000000E+00   1.6250000E+01  -8.0608196E+00   0.0000000E+00   1.1342924E+01  -8.1806250E+00   0.0000000E+00   5.8928905E+00  -2.0586677E+00   0.0000000E+00   4.6056793E+01  -2.0601752E+00   0.0000000E+00   4.1708221E+01  -1.9194989E+00   0.0000000E+00   3.6354427E+01  -1.6860005E+00   0.0000000E+00   3.0554651E+01  -1.4123549E+00   0.0000000E+00   2.5161367E+01  -1.1390282E+00   0.0000000E+00   2.0387886E+01  -8.9539546E-01   0.0000000E+00   1.5901922E+01  -7.0550036E-01   0.0000000E+00   1.1127373E+01  -5.8539981E-01   0.0000000E+00   5.6325574E+00   5.9889727E+00   0.0000000E+00   4.3206528E+01   5.6737962E+00   0.0000000E+00   3.8854248E+01   5.7111883E+00   0.0000000E+00   3.3636833E+01   6.0130134E+00   0.0000000E+00   2.8113853E+01   6.4785237E+00   0.0000000E+00   2.3084621E+01   7.0142846E+00   0.0000000E+00   1.8715281E+01   7.5357022E+00   0.0000000E+00   1.4647345E+01   7.9681540E+00   0.0000000E+00   1.0322345E+01   8.2526102E+00   0.0000000E+00   5.3172293E+00   1.5515167E+01   0.0000000E+00   3.9530296E+01   1.4748098E+01   0.0000000E+00   3.5216286E+01   1.4527132E+01   0.0000000E+00   3.0162781E+01   1.4739265E+01   0.0000000E+00   2.4924595E+01   1.5244002E+01   0.0000000E+00   2.0270632E+01   1.5898267E+01   0.0000000E+00   1.6349789E+01   1.6568422E+01   0.0000000E+00   1.2797244E+01   1.7139116E+01   0.0000000E+00   9.0488644E+00   1.7519844E+01   0.0000000E+00   4.7502108E+00   2.5128370E+01   0.0000000E+00   3.5773106E+01   2.4026590E+01   0.0000000E+00   3.1430288E+01   2.3614450E+01   0.0000000E+00   2.6550903E+01   2.3755877E+01   0.0000000E+00   2.1562216E+01   2.4278589E+01   0.0000000E+00   1.7233809E+01   2.5002228E+01   0.0000000E+00   1.3730248E+01   2.5759264E+01   0.0000000E+00   1.0699726E+01   2.6409044E+01   0.0000000E+00   7.5780993E+00   2.6844030E+01   0.0000000E+00   3.9912484E+00   3.4605030E+01   0.0000000E+00   3.2174587E+01   3.3463669E+01   0.0000000E+00   2.7866230E+01   3.3075146E+01   0.0000000E+00   2.3197964E+01   3.3281105E+01   0.0000000E+00   1.8436117E+01   3.3889114E+01   0.0000000E+00   1.4375405E+01   3.4700947E+01   0.0000000E+00   1.1223156E+01   3.5537018E+01   0.0000000E+00   8.6589136E+00   3.6248123E+01   0.0000000E+00   6.1274929E+00   3.6722424E+01   0.0000000E+00   3.2358377E+00   4.4536205E+01   0.0000000E+00   2.8595186E+01   4.3713974E+01   0.0000000E+00   2.4685083E+01   4.3591949E+01   0.0000000E+00   2.0302954E+01   4.4011497E+01   0.0000000E+00   1.5781953E+01   4.4778389E+01   0.0000000E+00   1.1951478E+01   4.5703903E+01   0.0000000E+00   9.0779390E+00   4.6620083E+01   0.0000000E+00   6.8891597E+00   4.7387070E+01   0.0000000E+00   4.8528385E+00   4.7895660E+01   0.0000000E+00   2.5658929E+00   5.5433670E+01   0.0000000E+00   2.5082853E+01   5.5170292E+01   0.0000000E+00   2.1928648E+01   5.5482941E+01   0.0000000E+00   1.7925457E+01   5.6193264E+01   0.0000000E+00   1.3689866E+01   5.7130096E+01   0.0000000E+00   1.0076930E+01   5.8144058E+01   0.0000000E+00   7.4161096E+00   5.9105209E+01   0.0000000E+00   5.4983463E+00   5.9889637E+01   0.0000000E+00   3.8327188E+00   6.0405384E+01   0.0000000E+00   2.0223451E+00   6.6643013E+01   0.0000000E+00   2.1986790E+01   6.7028236E+01   0.0000000E+00   1.9435318E+01   6.7731827E+01   0.0000000E+00   1.5879382E+01   6.8556046E+01   0.0000000E+00   1.1963112E+01   6.9373932E+01   0.0000000E+00   8.5483894E+00   7.0065468E+01   0.0000000E+00   6.0325203E+00   7.0632210E+01   0.0000000E+00   4.2978115E+00   7.1000183E+01   0.0000000E+00   2.9164302E+00   7.1271866E+01   0.0000000E+00   1.5057913E+00   7.3896568E+01   0.0000000E+00   1.7756765E+01   7.4537964E+01   0.0000000E+00   1.5744930E+01   7.5298492E+01   0.0000000E+00   1.2741521E+01   7.5900818E+01   0.0000000E+00   9.3639116E+00   7.6387619E+01   0.0000000E+00   6.3717675E+00   7.6480179E+01   0.0000000E+00   4.2361898E+00   7.6613152E+01   0.0000000E+00   2.8604336E+00   7.6512619E+01   0.0000000E+00   1.9221504E+00   7.6399971E+01   0.0000000E+00   9.9487168E-01   7.8136215E+01   0.0000000E+00   1.3365588E+01   7.8632141E+01   0.0000000E+00   1.1942234E+01   7.9110252E+01   0.0000000E+00   9.6178131E+00   7.9405922E+01   0.0000000E+00   6.9779668E+00   7.9600159E+01   0.0000000E+00   4.7312746E+00   7.9441727E+01   0.0000000E+00   3.0469520E+00   7.9174408E+01   0.0000000E+00   1.9025240E+00   7.8967163E+01   0.0000000E+00   1.2085876E+00   7.8829773E+01   0.0000000E+00   6.0747308E-01   8.0738022E+01   0.0000000E+00   1.0523575E+01   8.0889297E+01   0.0000000E+00   9.2382298E+00   8.1221031E+01   0.0000000E+00   7.4885674E+00   8.1417587E+01   0.0000000E+00   5.4965124E+00   8.1204483E+01   0.0000000E+00   3.6212094E+00   8.1013649E+01   0.0000000E+00   2.2807462E+00   8.0713768E+01   0.0000000E+00   1.5462894E+00   8.0365013E+01   0.0000000E+00   9.6444160E-01   8.0066605E+01   0.0000000E+00   5.0528198E-01   8.2049194E+01   0.0000000E+00   8.2653122E+00   8.2295265E+01   0.0000000E+00   7.4265423E+00   8.2493988E+01   0.0000000E+00   6.2186537E+00   8.2634537E+01   0.0000000E+00   4.7599096E+00   8.2486023E+01   0.0000000E+00   3.4095321E+00   8.1900124E+01   0.0000000E+00   2.3868728E+00   8.1491959E+01   0.0000000E+00   1.5108505E+00   8.1184013E+01   0.0000000E+00   9.6174473E-01   8.1054939E+01   0.0000000E+00   5.2253127E-01   8.3302490E+01   0.0000000E+00   6.2449336E+00   8.3258080E+01   0.0000000E+00   5.8811150E+00   8.3419670E+01   0.0000000E+00   5.2292261E+00   8.3388245E+01   0.0000000E+00   4.2980280E+00   8.3123436E+01   0.0000000E+00   3.4042814E+00   8.2836235E+01   0.0000000E+00   2.4777849E+00   8.2482880E+01   0.0000000E+00   1.7235872E+00   8.2243233E+01   0.0000000E+00   1.0491297E+00   8.2098839E+01   0.0000000E+00   4.6705747E-01   8.4562317E+01   0.0000000E+00   4.6094871E+00   8.4025322E+01   0.0000000E+00   4.7492619E+00   8.4003738E+01   0.0000000E+00   4.2754908E+00   8.4014793E+01   0.0000000E+00   3.7341495E+00   8.3854851E+01   0.0000000E+00   3.0456302E+00   8.3596397E+01   0.0000000E+00   2.3952897E+00   8.3321548E+01   0.0000000E+00   1.7323339E+00   8.3097260E+01   0.0000000E+00   1.0829595E+00   8.2983253E+01   0.0000000E+00   4.9428925E-01   8.6129181E+01   0.0000000E+00   3.2195978E+00   8.4694260E+01   0.0000000E+00   3.5459683E+00   8.4437950E+01   0.0000000E+00   3.3761117E+00   8.4422096E+01   0.0000000E+00   3.0345581E+00   8.4323654E+01   0.0000000E+00   2.6128342E+00   8.4104919E+01   0.0000000E+00   2.1204760E+00   8.3890068E+01   0.0000000E+00   1.5950384E+00   8.3702156E+01   0.0000000E+00   1.0087687E+00   8.3579941E+01   0.0000000E+00   4.7286445E-01   8.8650742E+01   0.0000000E+00   1.6923509E+00   8.5852623E+01   0.0000000E+00   2.2787380E+00   8.4846344E+01   0.0000000E+00   2.4844272E+00   8.4619843E+01   0.0000000E+00   2.3379841E+00   8.4444839E+01   0.0000000E+00   2.0709639E+00   8.4280678E+01   0.0000000E+00   1.8009373E+00   8.4086929E+01   0.0000000E+00   1.3817658E+00   8.3954460E+01   0.0000000E+00   8.6215973E-01   8.3838821E+01   0.0000000E+00   4.3198508E-01   9.2719505E+01   0.0000000E+00   2.1387221E-01   8.7827271E+01   0.0000000E+00   1.0781845E+00   8.5721390E+01   0.0000000E+00   1.4152088E+00   8.4784447E+01   0.0000000E+00   1.6251389E+00   8.4449257E+01   0.0000000E+00   1.5396870E+00   8.4190506E+01   0.0000000E+00   1.3359032E+00   8.4077827E+01   0.0000000E+00   1.0388379E+00   8.3934753E+01   0.0000000E+00   6.9584721E-01   8.3826607E+01   0.0000000E+00   3.5575750E-01   9.9244766E+01   0.0000000E+00  -8.9027828E-01   9.1787666E+01   0.0000000E+00  -1.1943259E-01   8.7653923E+01   0.0000000E+00   4.8826885E-01   8.5709587E+01   0.0000000E+00   7.2821045E-01   8.4644676E+01   0.0000000E+00   9.9714667E-01   8.4180260E+01   0.0000000E+00   8.9445764E-01   8.3958000E+01   0.0000000E+00   6.7595261E-01   8.3808968E+01   0.0000000E+00   4.8700029E-01   8.3688484E+01   0.0000000E+00   2.4200410E-01   1.0896370E+02   0.0000000E+00  -1.4954921E+00   9.8567108E+01   0.0000000E+00  -9.3792862E-01   9.1924980E+01   0.0000000E+00  -3.5277417E-01   8.8138237E+01   0.0000000E+00   3.8538866E-02   8.5890938E+01   0.0000000E+00   3.0160815E-01   8.4678612E+01   0.0000000E+00   4.8473820E-01   8.4159470E+01   0.0000000E+00   3.2471383E-01   8.3820480E+01   0.0000000E+00   2.6789439E-01   8.3694656E+01   0.0000000E+00   1.3994126E-01   1.2295415E+02   0.0000000E+00  -1.7747927E+00   1.0938213E+02   0.0000000E+00  -1.1338141E+00   9.9750450E+01   0.0000000E+00  -8.8431001E-01   9.3230537E+01   0.0000000E+00  -4.8992810E-01   8.9113037E+01   0.0000000E+00  -1.4417459E-01   8.6782486E+01   0.0000000E+00  -4.6465006E-02   8.5418861E+01   0.0000000E+00   5.7842210E-02   8.4734497E+01   0.0000000E+00   5.5666618E-02   8.4389755E+01   0.0000000E+00   2.7861560E-02   1.4163556E+02   0.0000000E+00  -2.6219282E+00   1.2471901E+02   0.0000000E+00  -1.2413927E+00   1.1214121E+02   0.0000000E+00  -9.4741440E-01   1.0257730E+02   0.0000000E+00  -6.2391251E-01   9.5906418E+01   0.0000000E+00  -4.0956411E-01   9.1696953E+01   0.0000000E+00  -2.8354433E-01   8.9074608E+01   0.0000000E+00  -1.3184483E-01   8.7595726E+01   0.0000000E+00  -6.6886045E-02   8.6922119E+01   0.0000000E+00  -8.5021645E-02   1.6264087E+02   0.0000000E+00  -4.4720316E+00   1.4456326E+02   0.0000000E+00  -2.2611024E+00   1.2927380E+02   0.0000000E+00  -1.1877698E+00   1.1670554E+02   0.0000000E+00  -4.9720028E-01   1.0752673E+02   0.0000000E+00  -3.3916885E-01   1.0096699E+02   0.0000000E+00  -2.9481253E-01   9.6576355E+01   0.0000000E+00  -1.7376119E-01   9.4015762E+01   0.0000000E+00  -9.9290073E-02   9.2829132E+01   0.0000000E+00  -1.3235773E-01   1.6526978E+02   0.0000000E+00  -3.8531973E+00   1.4971361E+02   0.0000000E+00  -2.2759030E+00   1.3569579E+02   0.0000000E+00  -1.0870975E+00   1.2428698E+02   0.0000000E+00  -5.8076495E-01   1.1539208E+02   0.0000000E+00  -1.3690743E-01   1.0935660E+02   0.0000000E+00   5.0756194E-02   1.0568858E+02   0.0000000E+00  -1.1894442E-02   1.0372026E+02   0.0000000E+00  -3.0621916E-02   1.5600635E+02   0.0000000E+00  -1.8545698E+00   1.4408199E+02   0.0000000E+00  -9.3609905E-01   1.3424553E+02   0.0000000E+00  -1.0603222E-01   1.2728494E+02   0.0000000E+00   2.8379893E-01   1.2291548E+02   0.0000000E+00   2.1989346E-01   1.2051859E+02   0.0000000E+00   7.7738672E-02   1.5444366E+02   0.0000000E+00  -5.1377439E-01   1.4789063E+02   0.0000000E+00  -5.6748472E-02   1.4345279E+02   0.0000000E+00   8.9340784E-02   1.4093735E+02   0.0000000E+00   8.8809460E-02  -4.8939724E+00   0.0000000E+00   4.5042279E-06  -4.8915424E+00   0.0000000E+00   5.9797734E-02  -4.8834763E+00   0.0000000E+00   1.2194645E-01  -4.8685207E+00   0.0000000E+00   1.8568763E-01  -4.8438873E+00   0.0000000E+00   2.5228959E-01  -4.8053856E+00   0.0000000E+00   3.2367808E-01  -4.7474136E+00   0.0000000E+00   3.9870536E-01  -4.6626873E+00   0.0000000E+00   4.7617245E-01  -5.8497105E+00   0.0000000E+00   4.6868972E-06  -5.8465519E+00   0.0000000E+00   7.6193079E-02  -5.8353577E+00   0.0000000E+00   1.5496862E-01  -5.8149910E+00   0.0000000E+00   2.3501179E-01  -5.7833252E+00   0.0000000E+00   3.1448737E-01  -5.7343960E+00   0.0000000E+00   3.9952683E-01  -5.6631069E+00   0.0000000E+00   4.8671055E-01  -5.5615540E+00   0.0000000E+00   5.7472295E-01  -6.9387207E+00   0.0000000E+00  -1.0920330E-06  -6.9340725E+00   0.0000000E+00   8.5774377E-02  -6.9185581E+00   0.0000000E+00   1.7324832E-01  -6.8908501E+00   0.0000000E+00   2.6078361E-01  -6.8478966E+00   0.0000000E+00   3.4854484E-01  -6.7859516E+00   0.0000000E+00   4.3428424E-01  -6.6974144E+00   0.0000000E+00   5.2327156E-01  -6.5742702E+00   0.0000000E+00   6.0865074E-01  -8.1009388E+00   0.0000000E+00   6.2198178E-06  -8.0942011E+00   0.0000000E+00   9.1950670E-02  -8.0737190E+00   0.0000000E+00   1.8193990E-01  -8.0371943E+00   0.0000000E+00   2.7204171E-01  -7.9818764E+00   0.0000000E+00   3.6050683E-01  -7.9037170E+00   0.0000000E+00   4.4562161E-01  -7.7955179E+00   0.0000000E+00   5.2968645E-01  -7.6491833E+00   0.0000000E+00   6.0828340E-01  -9.3921642E+00   0.0000000E+00   5.0370545E-07  -9.3834972E+00   0.0000000E+00   9.3741134E-02  -9.3569260E+00   0.0000000E+00   1.8622555E-01  -9.3109035E+00   0.0000000E+00   2.7506828E-01  -9.2421856E+00   0.0000000E+00   3.6157990E-01  -9.1465244E+00   0.0000000E+00   4.4403595E-01  -9.0179977E+00   0.0000000E+00   5.1976329E-01  -8.8470001E+00   0.0000000E+00   5.9184796E-01  -1.0847994E+01   0.0000000E+00  -6.5919780E-06  -1.0837254E+01   0.0000000E+00   9.4158813E-02  -1.0804478E+01   0.0000000E+00   1.8642271E-01  -1.0748056E+01   0.0000000E+00   2.7502301E-01  -1.0665349E+01   0.0000000E+00   3.5735866E-01  -1.0551974E+01   0.0000000E+00   4.3444508E-01  -1.0402092E+01   0.0000000E+00   5.0496000E-01  -1.0206596E+01   0.0000000E+00   5.6670368E-01  -1.2459078E+01   0.0000000E+00  -1.9842973E-06  -1.2446174E+01   0.0000000E+00   9.4976738E-02  -1.2406866E+01   0.0000000E+00   1.8737702E-01  -1.2339691E+01   0.0000000E+00   2.7457252E-01  -1.2242168E+01   0.0000000E+00   3.5495654E-01  -1.2110771E+01   0.0000000E+00   4.2666110E-01  -1.1939486E+01   0.0000000E+00   4.9048752E-01  -1.1719122E+01   0.0000000E+00   5.4394114E-01  -1.4195032E+01   0.0000000E+00  -1.3524545E-05  -1.4179776E+01   0.0000000E+00   9.8338149E-02  -1.4133529E+01   0.0000000E+00   1.9312768E-01  -1.4054960E+01   0.0000000E+00   2.8160647E-01  -1.3942025E+01   0.0000000E+00   3.6164999E-01  -1.3791726E+01   0.0000000E+00   4.3103907E-01  -1.3598538E+01   0.0000000E+00   4.8949355E-01  -1.3353138E+01   0.0000000E+00   5.3486526E-01  -1.6030582E+01   0.0000000E+00   5.0573390E-06  -1.6012827E+01   0.0000000E+00   1.0627616E-01  -1.5959145E+01   0.0000000E+00   2.0814189E-01  -1.5868361E+01   0.0000000E+00   3.0294621E-01  -1.5738900E+01   0.0000000E+00   3.8752541E-01  -1.5568189E+01   0.0000000E+00   4.5985338E-01  -1.5351602E+01   0.0000000E+00   5.1758385E-01  -1.5079914E+01   0.0000000E+00   5.5749142E-01  -1.7950518E+01   0.0000000E+00   5.7542729E-06  -1.7930050E+01   0.0000000E+00   1.2100922E-01  -1.7868080E+01   0.0000000E+00   2.3755628E-01  -1.7763771E+01   0.0000000E+00   3.4634551E-01  -1.7615873E+01   0.0000000E+00   4.4376397E-01  -1.7422382E+01   0.0000000E+00   5.2657974E-01  -1.7179447E+01   0.0000000E+00   5.9202766E-01  -1.6878035E+01   0.0000000E+00   6.3411880E-01  -1.9941053E+01   0.0000000E+00  -2.4333349E-06  -1.9917662E+01   0.0000000E+00   1.4405809E-01  -1.9847298E+01   0.0000000E+00   2.8134114E-01  -1.9728209E+01   0.0000000E+00   4.1311663E-01  -1.9559778E+01   0.0000000E+00   5.3413159E-01  -1.9340219E+01   0.0000000E+00   6.4030415E-01  -1.9066164E+01   0.0000000E+00   7.2451103E-01  -1.8730564E+01   0.0000000E+00   7.7830154E-01  -2.1997738E+01   0.0000000E+00  -9.9142489E-06  -2.1970659E+01   0.0000000E+00   1.7715950E-01  -2.1889442E+01   0.0000000E+00   3.4858614E-01  -2.1753395E+01   0.0000000E+00   5.0933397E-01  -2.1562265E+01   0.0000000E+00   6.6159391E-01  -2.1313074E+01   0.0000000E+00   8.0197328E-01  -2.1001755E+01   0.0000000E+00   9.2529422E-01  -2.0625853E+01   0.0000000E+00   1.0039676E+00  -2.4113930E+01   0.0000000E+00  -1.4754223E-05  -2.4083466E+01   0.0000000E+00   2.1741249E-01  -2.3990505E+01   0.0000000E+00   4.3554381E-01  -2.3835138E+01   0.0000000E+00   6.4192176E-01  -2.3620022E+01   0.0000000E+00   8.2641858E-01  -2.3338633E+01   0.0000000E+00   9.9962133E-01  -2.2988638E+01   0.0000000E+00   1.1577895E+00  -2.2563040E+01   0.0000000E+00   1.2932240E+00  -2.6287823E+01   0.0000000E+00   1.4379410E-05  -2.6254759E+01   0.0000000E+00   2.6531574E-01  -2.6149847E+01   0.0000000E+00   5.2254331E-01  -2.5974224E+01   0.0000000E+00   7.7612776E-01  -2.5728168E+01   0.0000000E+00   1.0126587E+00  -2.5408689E+01   0.0000000E+00   1.2434940E+00  -2.5013157E+01   0.0000000E+00   1.4569056E+00  -2.4537558E+01   0.0000000E+00   1.6471119E+00  -2.8516998E+01   0.0000000E+00  -7.8753619E-06  -2.8476435E+01   0.0000000E+00   3.1454214E-01  -2.8357220E+01   0.0000000E+00   6.1929935E-01  -2.8158285E+01   0.0000000E+00   9.2811710E-01  -2.7877460E+01   0.0000000E+00   1.2375103E+00  -2.7515303E+01   0.0000000E+00   1.5323859E+00  -2.7072014E+01   0.0000000E+00   1.8079557E+00  -2.6537394E+01   0.0000000E+00   2.0605698E+00  -3.0782204E+01   0.0000000E+00  -8.9343794E-06  -3.0739086E+01   0.0000000E+00   3.6461669E-01  -3.0602551E+01   0.0000000E+00   7.4004787E-01  -3.0376772E+01   0.0000000E+00   1.1116329E+00  -3.0059938E+01   0.0000000E+00   1.4739227E+00  -2.9653502E+01   0.0000000E+00   1.8312166E+00  -2.9157387E+01   0.0000000E+00   2.1600161E+00  -2.8567789E+01   0.0000000E+00   2.4728231E+00  -3.3078636E+01   0.0000000E+00  -1.7648881E-05  -3.3027546E+01   0.0000000E+00   4.2795444E-01  -3.2875237E+01   0.0000000E+00   8.5483420E-01  -3.2621758E+01   0.0000000E+00   1.2813036E+00  -3.2266575E+01   0.0000000E+00   1.7044599E+00  -3.1809612E+01   0.0000000E+00   2.1171336E+00  -3.1255890E+01   0.0000000E+00   2.5055337E+00  -3.0602493E+01   0.0000000E+00   2.8781593E+00  -3.5390072E+01   0.0000000E+00   2.9922821E-06  -3.5333473E+01   0.0000000E+00   4.7895196E-01  -3.5164063E+01   0.0000000E+00   9.5853776E-01  -3.4879913E+01   0.0000000E+00   1.4317086E+00  -3.4482887E+01   0.0000000E+00   1.9051791E+00  -3.3973568E+01   0.0000000E+00   2.3725667E+00  -3.3356853E+01   0.0000000E+00   2.8236315E+00  -3.2635742E+01   0.0000000E+00   3.2405310E+00  -3.7704330E+01   0.0000000E+00   6.6729795E-06  -3.7641750E+01   0.0000000E+00   5.1784527E-01  -3.7454117E+01   0.0000000E+00   1.0356567E+00  -3.7140373E+01   0.0000000E+00   1.5528668E+00  -3.6700108E+01   0.0000000E+00   2.0697281E+00  -3.6134148E+01   0.0000000E+00   2.5874031E+00  -3.5453079E+01   0.0000000E+00   3.0781314E+00  -3.4658398E+01   0.0000000E+00   3.5332031E+00  -4.0008587E+01   0.0000000E+00  -3.2479611E-06  -3.9940296E+01   0.0000000E+00   5.4269606E-01  -3.9734947E+01   0.0000000E+00   1.0877407E+00  -3.9390881E+01   0.0000000E+00   1.6379727E+00  -3.8907425E+01   0.0000000E+00   2.1920404E+00  -3.8285259E+01   0.0000000E+00   2.7367773E+00  -3.7532143E+01   0.0000000E+00   3.2629728E+00  -3.6655529E+01   0.0000000E+00   3.7467482E+00  -4.2289478E+01   0.0000000E+00  -3.1787971E-05  -4.2215851E+01   0.0000000E+00   5.5270982E-01  -4.1993721E+01   0.0000000E+00   1.1101425E+00  -4.1620884E+01   0.0000000E+00   1.6777245E+00  -4.1094990E+01   0.0000000E+00   2.2441494E+00  -4.0415005E+01   0.0000000E+00   2.8108065E+00  -3.9582840E+01   0.0000000E+00   3.3644462E+00  -3.8611320E+01   0.0000000E+00   3.8796635E+00  -4.4532837E+01   0.0000000E+00   1.0417692E-05  -4.4454517E+01   0.0000000E+00   5.4611528E-01  -4.4216827E+01   0.0000000E+00   1.1015472E+00  -4.3817875E+01   0.0000000E+00   1.6625243E+00  -4.3250969E+01   0.0000000E+00   2.2262208E+00  -4.2514320E+01   0.0000000E+00   2.7958655E+00  -4.1607208E+01   0.0000000E+00   3.3512297E+00  -4.0543011E+01   0.0000000E+00   3.8752878E+00  -4.6722279E+01   0.0000000E+00  -1.7857827E-05  -4.6640167E+01   0.0000000E+00   5.2144831E-01  -4.6389210E+01   0.0000000E+00   1.0525004E+00  -4.5966167E+01   0.0000000E+00   1.5887717E+00  -4.5361336E+01   0.0000000E+00   2.1305687E+00  -4.4570560E+01   0.0000000E+00   2.6836672E+00  -4.3587959E+01   0.0000000E+00   3.2260051E+00  -4.2424046E+01   0.0000000E+00   3.7588534E+00  -4.8839531E+01   0.0000000E+00  -4.3412329E-06  -4.8753799E+01   0.0000000E+00   4.7766468E-01  -4.8492165E+01   0.0000000E+00   9.6388203E-01  -4.8047924E+01   0.0000000E+00   1.4522829E+00  -4.7409916E+01   0.0000000E+00   1.9517069E+00  -4.6568069E+01   0.0000000E+00   2.4612505E+00  -4.5515072E+01   0.0000000E+00   2.9692080E+00  -4.4257950E+01   0.0000000E+00   3.4806376E+00  -5.0864880E+01   0.0000000E+00  -5.0647868E-06  -5.0776638E+01   0.0000000E+00   4.1497248E-01  -5.0506741E+01   0.0000000E+00   8.3487415E-01  -5.0045681E+01   0.0000000E+00   1.2577231E+00  -4.9378582E+01   0.0000000E+00   1.6863016E+00  -4.8491146E+01   0.0000000E+00   2.1249902E+00  -4.7373917E+01   0.0000000E+00   2.5692410E+00  -4.6030231E+01   0.0000000E+00   3.0342550E+00  -5.2781799E+01   0.0000000E+00  -4.2119922E-05  -5.2691895E+01   0.0000000E+00   3.3496839E-01  -5.2416527E+01   0.0000000E+00   6.6997147E-01  -5.1942173E+01   0.0000000E+00   1.0048726E+00  -5.1250957E+01   0.0000000E+00   1.3344795E+00  -5.0324478E+01   0.0000000E+00   1.6674918E+00  -4.9152798E+01   0.0000000E+00   2.0193601E+00  -4.7733437E+01   0.0000000E+00   2.4091904E+00  -5.4581203E+01   0.0000000E+00  -3.3370074E-05  -5.4489479E+01   0.0000000E+00   2.4629112E-01  -5.4209648E+01   0.0000000E+00   4.7870216E-01  -5.3724758E+01   0.0000000E+00   6.9544971E-01  -5.3013496E+01   0.0000000E+00   8.9465410E-01  -5.2058006E+01   0.0000000E+00   1.0932076E+00  -5.0844833E+01   0.0000000E+00   1.3242779E+00  -4.9359058E+01   0.0000000E+00   1.5981314E+00  -5.6252731E+01   0.0000000E+00  -2.3850444E-05  -5.6159843E+01   0.0000000E+00   1.4585924E-01  -5.5873669E+01   0.0000000E+00   2.6115659E-01  -5.5377777E+01   0.0000000E+00   3.3156019E-01  -5.4654160E+01   0.0000000E+00   3.6995092E-01  -5.3679005E+01   0.0000000E+00   4.0822768E-01  -5.2435238E+01   0.0000000E+00   4.8823944E-01  -5.0892132E+01   0.0000000E+00   5.8800536E-01  -5.7770882E+01   0.0000000E+00  -3.1734176E-05  -5.7676731E+01   0.0000000E+00   2.6449606E-02  -5.7383892E+01   0.0000000E+00   1.4159290E-02  -5.6875740E+01   0.0000000E+00  -8.4749766E-02  -5.6143948E+01   0.0000000E+00  -2.1825860E-01  -5.5156898E+01   0.0000000E+00  -3.8421258E-01  -5.3889404E+01   0.0000000E+00  -5.1077813E-01  -5.2289677E+01   0.0000000E+00  -6.5018600E-01  -5.9077660E+01   0.0000000E+00  -3.3670221E-05  -5.8976982E+01   0.0000000E+00  -1.1445934E-01  -5.8674335E+01   0.0000000E+00  -2.7748477E-01  -5.8153812E+01   0.0000000E+00  -5.4155099E-01  -5.7409992E+01   0.0000000E+00  -8.7366140E-01  -5.6411392E+01   0.0000000E+00  -1.2798212E+00  -5.5107780E+01   0.0000000E+00  -1.7113558E+00  -5.3477570E+01   0.0000000E+00  -2.1160822E+00  -6.0071972E+01   0.0000000E+00  -2.2817578E-05  -5.9964188E+01   0.0000000E+00  -2.6105967E-01  -5.9649097E+01   0.0000000E+00  -5.8228993E-01  -5.9094688E+01   0.0000000E+00  -9.7298986E-01  -5.8323215E+01   0.0000000E+00  -1.5697192E+00  -5.7248478E+01   0.0000000E+00  -2.1674767E+00  -5.5929237E+01   0.0000000E+00  -2.9283702E+00  -5.4212227E+01   0.0000000E+00  -3.7493062E+00  -6.0727821E+01   0.0000000E+00  -1.7083425E-05  -6.0606709E+01   0.0000000E+00  -3.7464425E-01  -6.0262642E+01   0.0000000E+00  -8.4671175E-01  -5.9670448E+01   0.0000000E+00  -1.4419936E+00  -5.8843330E+01   0.0000000E+00  -2.2026348E+00  -5.7734825E+01   0.0000000E+00  -3.2208159E+00  -5.6351948E+01   0.0000000E+00  -4.4082127E+00  -5.4562408E+01   0.0000000E+00  -5.6433249E+00  -6.0858997E+01   0.0000000E+00  -2.9395462E-05  -6.0702164E+01   0.0000000E+00  -5.4516292E-01  -6.0292679E+01   0.0000000E+00  -1.2027764E+00  -5.9653564E+01   0.0000000E+00  -2.0859294E+00  -5.8753929E+01   0.0000000E+00  -3.2509170E+00  -5.7641998E+01   0.0000000E+00  -4.6686525E+00  -5.6165771E+01   0.0000000E+00  -6.1411023E+00  -5.4428627E+01   0.0000000E+00  -7.9348545E+00  -6.0408749E+01   0.0000000E+00  -3.2543965E-05  -6.0267151E+01   0.0000000E+00  -8.6508441E-01  -5.9868614E+01   0.0000000E+00  -1.7961897E+00  -5.9179581E+01   0.0000000E+00  -2.9217880E+00  -5.8191650E+01   0.0000000E+00  -4.3276124E+00  -5.6983795E+01   0.0000000E+00  -6.1272454E+00  -5.5552486E+01   0.0000000E+00  -8.2442951E+00  -5.3785778E+01   0.0000000E+00  -1.0435429E+01  -5.9689369E+01   0.0000000E+00  -2.9985458E-05  -5.9542290E+01   0.0000000E+00  -1.2869893E+00  -5.9106297E+01   0.0000000E+00  -2.6246593E+00  -5.8393047E+01   0.0000000E+00  -4.1395426E+00  -5.7416172E+01   0.0000000E+00  -6.0354867E+00  -5.6225014E+01   0.0000000E+00  -8.4896212E+00  -5.4760864E+01   0.0000000E+00  -1.1239582E+01  -5.2986729E+01   0.0000000E+00  -1.4236434E+01  -5.8290443E+01   0.0000000E+00  -3.4294935E-05  -5.8187965E+01   0.0000000E+00  -2.4395065E+00  -5.7834274E+01   0.0000000E+00  -4.8012433E+00  -5.7236607E+01   0.0000000E+00  -7.0983911E+00  -5.6358368E+01   0.0000000E+00  -9.5720186E+00  -5.5164494E+01   0.0000000E+00  -1.2409984E+01  -5.3583927E+01   0.0000000E+00  -1.5633670E+01  -5.1841663E+01   0.0000000E+00  -1.8952261E+01  -5.5766018E+01   0.0000000E+00   2.5229354E-05  -5.5449703E+01   0.0000000E+00  -2.9460742E+00  -5.4529926E+01   0.0000000E+00  -5.6912856E+00  -5.3030197E+01   0.0000000E+00  -8.2574701E+00  -5.1016685E+01   0.0000000E+00  -1.0867475E+01  -4.8460472E+01   0.0000000E+00  -1.3922360E+01  -4.5414337E+01   0.0000000E+00  -1.7371944E+01  -4.2009182E+01   0.0000000E+00  -2.0758112E+01  -3.5247074E+01   0.0000000E+00  -7.1842805E-06  -3.4932125E+01   0.0000000E+00  -3.9547715E+00  -3.4015202E+01   0.0000000E+00  -7.6499238E+00  -3.2564537E+01   0.0000000E+00  -1.1080885E+01  -3.0661417E+01   0.0000000E+00  -1.4548996E+01  -2.8377150E+01   0.0000000E+00  -1.8434860E+01  -2.5771170E+01   0.0000000E+00  -2.2840773E+01  -2.2924370E+01   0.0000000E+00  -2.7368608E+01  -2.2471502E+01   0.0000000E+00  -4.9011898E-05  -2.2231091E+01   0.0000000E+00  -4.8999758E+00  -2.1535114E+01   0.0000000E+00  -9.4759417E+00  -2.0448986E+01   0.0000000E+00  -1.3696512E+01  -1.9054911E+01   0.0000000E+00  -1.7889315E+01  -1.7431479E+01   0.0000000E+00  -2.2500242E+01  -1.5646828E+01   0.0000000E+00  -2.7694881E+01  -1.3773692E+01   0.0000000E+00  -3.3084545E+01  -1.4802006E+01   0.0000000E+00   1.1109805E-05  -1.4659359E+01   0.0000000E+00  -5.5799036E+00  -1.4249945E+01   0.0000000E+00  -1.0771065E+01  -1.3623475E+01   0.0000000E+00  -1.5506483E+01  -1.2844032E+01   0.0000000E+00  -2.0123144E+01  -1.1974771E+01   0.0000000E+00  -2.5115675E+01  -1.1070583E+01   0.0000000E+00  -3.0714510E+01  -1.0180314E+01   0.0000000E+00  -3.6576347E+01  -8.2232161E+00   0.0000000E+00  -1.2679084E-05  -8.1806803E+00   0.0000000E+00  -5.8928719E+00  -8.0608959E+00   0.0000000E+00  -1.1342955E+01  -7.8868752E+00   0.0000000E+00  -1.6250019E+01  -7.6869426E+00   0.0000000E+00  -2.0950361E+01  -7.4874148E+00   0.0000000E+00  -2.5971615E+01  -7.3082981E+00   0.0000000E+00  -3.1601664E+01  -7.1593852E+00   0.0000000E+00  -3.7562248E+01  -5.4457313E-01   0.0000000E+00  -1.1436589E-04  -5.8541298E-01   0.0000000E+00  -5.6324730E+00  -7.0553529E-01   0.0000000E+00  -1.1127425E+01  -8.9539343E-01   0.0000000E+00  -1.5901941E+01  -1.1389600E+00   0.0000000E+00  -2.0387932E+01  -1.4123647E+00   0.0000000E+00  -2.5161428E+01  -1.6859449E+00   0.0000000E+00  -3.0554598E+01  -1.9194688E+00   0.0000000E+00  -3.6354374E+01   8.3517656E+00   0.0000000E+00  -9.3973184E-05   8.2527018E+00   0.0000000E+00  -5.3172350E+00   7.9682646E+00   0.0000000E+00  -1.0322379E+01   7.5357928E+00   0.0000000E+00  -1.4647399E+01   7.0142350E+00   0.0000000E+00  -1.8715317E+01   6.4786086E+00   0.0000000E+00  -2.3084652E+01   6.0130663E+00   0.0000000E+00  -2.8113844E+01   5.7112927E+00   0.0000000E+00  -3.3636848E+01   1.7653307E+01   0.0000000E+00   7.9587917E-06   1.7519817E+01   0.0000000E+00  -4.7502937E+00   1.7139172E+01   0.0000000E+00  -9.0488539E+00   1.6568510E+01   0.0000000E+00  -1.2797265E+01   1.5898215E+01   0.0000000E+00  -1.6349819E+01   1.5243996E+01   0.0000000E+00  -2.0270649E+01   1.4739263E+01   0.0000000E+00  -2.4924614E+01   1.4527207E+01   0.0000000E+00  -3.0162781E+01   2.6996439E+01   0.0000000E+00   3.3694785E-05   2.6843946E+01   0.0000000E+00  -3.9912257E+00   2.6409021E+01   0.0000000E+00  -7.5781307E+00   2.5759275E+01   0.0000000E+00  -1.0699779E+01   2.5002083E+01   0.0000000E+00  -1.3730252E+01   2.4278593E+01   0.0000000E+00  -1.7233854E+01   2.3755804E+01   0.0000000E+00  -2.1562243E+01   2.3614372E+01   0.0000000E+00  -2.6550896E+01   3.6888802E+01   0.0000000E+00   2.5533489E-05   3.6722408E+01   0.0000000E+00  -3.2358880E+00   3.6248161E+01   0.0000000E+00  -6.1274953E+00   3.5537014E+01   0.0000000E+00  -8.6589174E+00   3.4701065E+01   0.0000000E+00  -1.1223159E+01   3.3889099E+01   0.0000000E+00  -1.4375420E+01   3.3281124E+01   0.0000000E+00  -1.8436131E+01   3.3075169E+01   0.0000000E+00  -2.3197973E+01   4.8073303E+01   0.0000000E+00  -1.0060758E-05   4.7895466E+01   0.0000000E+00  -2.5659244E+00   4.7387081E+01   0.0000000E+00  -4.8528714E+00   4.6620102E+01   0.0000000E+00  -6.8891654E+00   4.5703823E+01   0.0000000E+00  -9.0779572E+00   4.4778313E+01   0.0000000E+00  -1.1951507E+01   4.4011475E+01   0.0000000E+00  -1.5781948E+01   4.3592030E+01   0.0000000E+00  -2.0302952E+01   6.0583752E+01   0.0000000E+00   8.2857732E-06   6.0405396E+01   0.0000000E+00  -2.0223386E+00   5.9889591E+01   0.0000000E+00  -3.8327196E+00   5.9105247E+01   0.0000000E+00  -5.4983525E+00   5.8144009E+01   0.0000000E+00  -7.4161110E+00   5.7130138E+01   0.0000000E+00  -1.0076934E+01   5.6193295E+01   0.0000000E+00  -1.3689839E+01   5.5482944E+01   0.0000000E+00  -1.7925449E+01   7.1301674E+01   0.0000000E+00  -3.0914234E-05   7.1271889E+01   0.0000000E+00  -1.5058242E+00   7.1000137E+01   0.0000000E+00  -2.9164507E+00   7.0632050E+01   0.0000000E+00  -4.2978258E+00   7.0065414E+01   0.0000000E+00  -6.0325150E+00   6.9374039E+01   0.0000000E+00  -8.5483885E+00   6.8556068E+01   0.0000000E+00  -1.1963103E+01   6.7731850E+01   0.0000000E+00  -1.5879390E+01   7.6371849E+01   0.0000000E+00   3.7841965E-06   7.6399979E+01   0.0000000E+00  -9.9490398E-01   7.6512566E+01   0.0000000E+00  -1.9221650E+00   7.6613152E+01   0.0000000E+00  -2.8604565E+00   7.6480278E+01   0.0000000E+00  -4.2361937E+00   7.6387695E+01   0.0000000E+00  -6.3717675E+00   7.5900764E+01   0.0000000E+00  -9.3639212E+00   7.5298546E+01   0.0000000E+00  -1.2741521E+01   7.8803749E+01   0.0000000E+00  -1.4781952E-05   7.8829689E+01   0.0000000E+00  -6.0745716E-01   7.8967293E+01   0.0000000E+00  -1.2085911E+00   7.9174431E+01   0.0000000E+00  -1.9025223E+00   7.9441696E+01   0.0000000E+00  -3.0469513E+00   7.9600220E+01   0.0000000E+00  -4.7312517E+00   7.9405876E+01   0.0000000E+00  -6.9779506E+00   7.9110161E+01   0.0000000E+00  -9.6178036E+00   7.9945694E+01   0.0000000E+00  -1.7741128E-05   8.0066833E+01   0.0000000E+00  -5.0529838E-01   8.0365005E+01   0.0000000E+00  -9.6444297E-01   8.0713860E+01   0.0000000E+00  -1.5462835E+00   8.1013695E+01   0.0000000E+00  -2.2807589E+00   8.1204277E+01   0.0000000E+00  -3.6211863E+00   8.1417847E+01   0.0000000E+00  -5.4965353E+00   8.1221230E+01   0.0000000E+00  -7.4886012E+00   8.0982780E+01   0.0000000E+00   6.6403300E-07   8.1054779E+01   0.0000000E+00  -5.2255201E-01   8.1183975E+01   0.0000000E+00  -9.6175480E-01   8.1491783E+01   0.0000000E+00  -1.5108335E+00   8.1900314E+01   0.0000000E+00  -2.3868861E+00   8.2485962E+01   0.0000000E+00  -3.4095464E+00   8.2634636E+01   0.0000000E+00  -4.7599483E+00   8.2493980E+01   0.0000000E+00  -6.2186446E+00   8.2051376E+01   0.0000000E+00   7.0407696E-06   8.2098862E+01   0.0000000E+00  -4.6706149E-01   8.2243179E+01   0.0000000E+00  -1.0491214E+00   8.2482895E+01   0.0000000E+00  -1.7235965E+00   8.2836220E+01   0.0000000E+00  -2.4777808E+00   8.3123474E+01   0.0000000E+00  -3.4042687E+00   8.3388489E+01   0.0000000E+00  -4.2980585E+00   8.3419693E+01   0.0000000E+00  -5.2292509E+00   8.2924484E+01   0.0000000E+00  -1.5717960E-06   8.2983131E+01   0.0000000E+00  -4.9428242E-01   8.3097244E+01   0.0000000E+00  -1.0829582E+00   8.3321396E+01   0.0000000E+00  -1.7322980E+00   8.3596222E+01   0.0000000E+00  -2.3952708E+00   8.3854935E+01   0.0000000E+00  -3.0456374E+00   8.4014839E+01   0.0000000E+00  -3.7341402E+00   8.4003632E+01   0.0000000E+00  -4.2754917E+00   8.3542686E+01   0.0000000E+00  -4.0058294E-06   8.3580162E+01   0.0000000E+00  -4.7286147E-01   8.3702263E+01   0.0000000E+00  -1.0087711E+00   8.3889954E+01   0.0000000E+00  -1.5950302E+00   8.4105011E+01   0.0000000E+00  -2.1204689E+00   8.4323814E+01   0.0000000E+00  -2.6128266E+00   8.4422066E+01   0.0000000E+00  -3.0345619E+00   8.4437759E+01   0.0000000E+00  -3.3761001E+00   8.3796127E+01   0.0000000E+00  -3.2724201E-06   8.3838737E+01   0.0000000E+00  -4.3198892E-01   8.3954636E+01   0.0000000E+00  -8.6216849E-01   8.4087021E+01   0.0000000E+00  -1.3817718E+00   8.4280663E+01   0.0000000E+00  -1.8009329E+00   8.4444931E+01   0.0000000E+00  -2.0709634E+00   8.4619965E+01   0.0000000E+00  -2.3380039E+00   8.4846169E+01   0.0000000E+00  -2.4844153E+00   8.3792183E+01   0.0000000E+00   3.5398459E-06   8.3826721E+01   0.0000000E+00  -3.5575286E-01   8.3934807E+01   0.0000000E+00  -6.9585288E-01   8.4077736E+01   0.0000000E+00  -1.0388453E+00   8.4190460E+01   0.0000000E+00  -1.3358933E+00   8.4449287E+01   0.0000000E+00  -1.5396856E+00   8.4784309E+01   0.0000000E+00  -1.6250986E+00   8.5721252E+01   0.0000000E+00  -1.4151793E+00   8.3661087E+01   0.0000000E+00   2.3486642E-05   8.3688599E+01   0.0000000E+00  -2.4198827E-01   8.3809158E+01   0.0000000E+00  -4.8701188E-01   8.3957993E+01   0.0000000E+00  -6.7596525E-01   8.4180290E+01   0.0000000E+00  -8.9446431E-01   8.4644508E+01   0.0000000E+00  -9.9714512E-01   8.5709381E+01   0.0000000E+00  -7.2818840E-01   8.7653938E+01   0.0000000E+00  -4.8826542E-01   8.3612610E+01   0.0000000E+00   1.5549762E-05   8.3694496E+01   0.0000000E+00  -1.3992965E-01   8.3820450E+01   0.0000000E+00  -2.6790386E-01   8.4159447E+01   0.0000000E+00  -3.2473284E-01   8.4678619E+01   0.0000000E+00  -4.8477075E-01   8.5890854E+01   0.0000000E+00  -3.0160177E-01   8.8138145E+01   0.0000000E+00  -3.8504526E-02   9.1924950E+01   0.0000000E+00   3.5278004E-01   8.4279869E+01   0.0000000E+00   1.3403427E-05   8.4389656E+01   0.0000000E+00  -2.7854435E-02   8.4734589E+01   0.0000000E+00  -5.5664599E-02   8.5418869E+01   0.0000000E+00  -5.7852708E-02   8.6782509E+01   0.0000000E+00   4.6419963E-02   8.9112999E+01   0.0000000E+00   1.4413242E-01   9.3230598E+01   0.0000000E+00   4.8993582E-01   9.9750496E+01   0.0000000E+00   8.8430965E-01   8.6719604E+01   0.0000000E+00   9.6220174E-06   8.6922028E+01   0.0000000E+00   8.5043050E-02   8.7595673E+01   0.0000000E+00   6.6876873E-02   8.9074387E+01   0.0000000E+00   1.3184388E-01   9.1696976E+01   0.0000000E+00   2.8351977E-01   9.5906334E+01   0.0000000E+00   4.0953416E-01   1.0257723E+02   0.0000000E+00   6.2393701E-01   1.1214100E+02   0.0000000E+00   9.4744956E-01   9.2422989E+01   0.0000000E+00  -9.5964642E-06   9.2829117E+01   0.0000000E+00   1.3236488E-01   9.4015717E+01   0.0000000E+00   9.9277802E-02   9.6576111E+01   0.0000000E+00   1.7370498E-01   1.0096687E+02   0.0000000E+00   2.9479143E-01   1.0752673E+02   0.0000000E+00   3.3910745E-01   1.1670557E+02   0.0000000E+00   4.9717712E-01   1.2927376E+02   0.0000000E+00   1.1877984E+00   1.0311900E+02   0.0000000E+00   3.6774436E-06   1.0372025E+02   0.0000000E+00   3.0618351E-02   1.0568854E+02   0.0000000E+00   1.1865467E-02   1.0935654E+02   0.0000000E+00  -5.0818831E-02   1.1539204E+02   0.0000000E+00   1.3687003E-01   1.2428699E+02   0.0000000E+00   5.8070314E-01   1.3569582E+02   0.0000000E+00   1.0870917E+00   1.4971362E+02   0.0000000E+00   2.2759440E+00   1.1973750E+02   0.0000000E+00  -4.6973582E-06   1.2051861E+02   0.0000000E+00  -7.7752247E-02   1.2291549E+02   0.0000000E+00  -2.1992505E-01   1.2728491E+02   0.0000000E+00  -2.8384322E-01   1.3424539E+02   0.0000000E+00   1.0598761E-01   1.4408311E+02   0.0000000E+00   9.3653023E-01   1.5600620E+02   0.0000000E+00   1.8545926E+00   1.4012392E+02   0.0000000E+00  -1.3394783E-05   1.4093736E+02   0.0000000E+00  -8.8800691E-02   1.4345290E+02   0.0000000E+00  -8.9374229E-02   1.4789073E+02   0.0000000E+00   5.6691825E-02   1.5444383E+02   0.0000000E+00   5.1371557E-01  -4.5402508E+00   0.0000000E+00   5.6054211E-01  -4.3719883E+00   0.0000000E+00   6.5033650E-01  -4.1547813E+00   0.0000000E+00   7.4013758E-01  -3.8863468E+00   0.0000000E+00   8.3909559E-01  -3.5639076E+00   0.0000000E+00   9.4880247E-01  -3.1877079E+00   0.0000000E+00   1.0545440E+00  -2.7397366E+00   0.0000000E+00   1.1417193E+00  -5.4186726E+00   0.0000000E+00   6.6517162E-01  -5.2234097E+00   0.0000000E+00   7.5989139E-01  -4.9735241E+00   0.0000000E+00   8.5708547E-01  -4.6744385E+00   0.0000000E+00   9.5291638E-01  -4.3229485E+00   0.0000000E+00   1.0542917E+00  -3.9023609E+00   0.0000000E+00   1.1488843E+00  -3.3483658E+00   0.0000000E+00   1.2254143E+00  -2.5683403E+00   0.0000000E+00   1.4631329E+00  -6.4052372E+00   0.0000000E+00   6.9349742E-01  -6.1796856E+00   0.0000000E+00   7.7426964E-01  -5.8956738E+00   0.0000000E+00   8.5484016E-01  -5.5668087E+00   0.0000000E+00   9.3352365E-01  -5.2005806E+00   0.0000000E+00   1.0111713E+00  -4.7652473E+00   0.0000000E+00   1.1030207E+00  -4.1803484E+00   0.0000000E+00   1.2147551E+00  -3.2892227E+00   0.0000000E+00   1.4518633E+00  -7.4522018E+00   0.0000000E+00   6.8232501E-01  -7.1926813E+00   0.0000000E+00   7.5134802E-01  -6.8744688E+00   0.0000000E+00   8.1223434E-01  -6.5173006E+00   0.0000000E+00   8.7426424E-01  -6.1492443E+00   0.0000000E+00   9.2848825E-01  -5.7311831E+00   0.0000000E+00   1.0056000E+00  -5.1521320E+00   0.0000000E+00   1.1063366E+00  -4.1616888E+00   0.0000000E+00   1.3779974E+00  -8.6206627E+00   0.0000000E+00   6.5668052E-01  -8.3266678E+00   0.0000000E+00   7.1237826E-01  -7.9720516E+00   0.0000000E+00   7.5738114E-01  -7.5885973E+00   0.0000000E+00   7.9723358E-01  -7.2205777E+00   0.0000000E+00   8.2894754E-01  -6.8259430E+00   0.0000000E+00   8.8569832E-01  -6.2578735E+00   0.0000000E+00   9.7530937E-01  -5.1687565E+00   0.0000000E+00   1.2980061E+00  -9.9509706E+00   0.0000000E+00   6.2187850E-01  -9.6221428E+00   0.0000000E+00   6.6536438E-01  -9.2307234E+00   0.0000000E+00   6.9364387E-01  -8.8228006E+00   0.0000000E+00   7.0815015E-01  -8.4530296E+00   0.0000000E+00   7.1260023E-01  -8.0814238E+00   0.0000000E+00   7.4859810E-01  -7.5314817E+00   0.0000000E+00   8.3757401E-01  -6.3300800E+00   0.0000000E+00   1.2459526E+00  -1.1434361E+01   0.0000000E+00   5.8705008E-01  -1.1071251E+01   0.0000000E+00   6.1650634E-01  -1.0644670E+01   0.0000000E+00   6.2332290E-01  -1.0213493E+01   0.0000000E+00   6.0899043E-01  -9.8447647E+00   0.0000000E+00   5.8903551E-01  -9.5154161E+00   0.0000000E+00   6.0120773E-01  -8.9888754E+00   0.0000000E+00   7.2587013E-01  -7.6622677E+00   0.0000000E+00   1.2840691E+00  -1.3039658E+01   0.0000000E+00   5.6474078E-01  -1.2642957E+01   0.0000000E+00   5.7551241E-01  -1.2182679E+01   0.0000000E+00   5.5979115E-01  -1.1732885E+01   0.0000000E+00   5.1754332E-01  -1.1370672E+01   0.0000000E+00   4.9134779E-01  -1.1100267E+01   0.0000000E+00   4.9451065E-01  -1.0625224E+01   0.0000000E+00   6.9531631E-01  -9.1973190E+00   0.0000000E+00   1.4640961E+00  -1.4736506E+01   0.0000000E+00   5.7693779E-01  -1.4307720E+01   0.0000000E+00   5.5863887E-01  -1.3817139E+01   0.0000000E+00   5.2282739E-01  -1.3349127E+01   0.0000000E+00   4.8129582E-01  -1.3006496E+01   0.0000000E+00   4.5116520E-01  -1.2792303E+01   0.0000000E+00   4.8150253E-01  -1.2438995E+01   0.0000000E+00   7.4524117E-01  -1.1047110E+01   0.0000000E+00   1.6697884E+00  -1.6503685E+01   0.0000000E+00   6.3785440E-01  -1.6043638E+01   0.0000000E+00   6.0706091E-01  -1.5526827E+01   0.0000000E+00   5.6633711E-01  -1.5057690E+01   0.0000000E+00   5.1291490E-01  -1.4739083E+01   0.0000000E+00   4.8102665E-01  -1.4607109E+01   0.0000000E+00   5.3694344E-01  -1.4484135E+01   0.0000000E+00   7.6741791E-01  -1.3513660E+01   0.0000000E+00   1.4769669E+00  -1.8320192E+01   0.0000000E+00   7.8405768E-01  -1.7830545E+01   0.0000000E+00   7.4377179E-01  -1.7296692E+01   0.0000000E+00   6.9554627E-01  -1.6829340E+01   0.0000000E+00   6.2933660E-01  -1.6552343E+01   0.0000000E+00   6.0815716E-01  -1.6605324E+01   0.0000000E+00   6.1157799E-01  -1.6873272E+01   0.0000000E+00   7.1226501E-01  -1.6820621E+01   0.0000000E+00   8.6880875E-01  -2.0174385E+01   0.0000000E+00   1.0279601E+00  -1.9646080E+01   0.0000000E+00   9.9558526E-01  -1.9103464E+01   0.0000000E+00   9.2683864E-01  -1.8660429E+01   0.0000000E+00   8.6111593E-01  -1.8525654E+01   0.0000000E+00   7.8926945E-01  -1.8799284E+01   0.0000000E+00   8.2752800E-01  -1.9550570E+01   0.0000000E+00   1.0408287E+00  -2.0204681E+01   0.0000000E+00   1.3279648E+00  -2.2065002E+01   0.0000000E+00   1.3619602E+00  -2.1482981E+01   0.0000000E+00   1.4082782E+00  -2.0930403E+01   0.0000000E+00   1.3254007E+00  -2.0520515E+01   0.0000000E+00   1.3191028E+00  -2.0527752E+01   0.0000000E+00   1.3380299E+00  -2.1158070E+01   0.0000000E+00   1.7022991E+00  -2.2320923E+01   0.0000000E+00   2.8427753E+00  -2.3469280E+01   0.0000000E+00   4.2875671E+00  -2.3976234E+01   0.0000000E+00   1.7975873E+00  -2.3348017E+01   0.0000000E+00   1.8814024E+00  -2.2760670E+01   0.0000000E+00   1.9222467E+00  -2.2418732E+01   0.0000000E+00   2.0349069E+00  -2.2614313E+01   0.0000000E+00   2.3887987E+00  -2.3668974E+01   0.0000000E+00   3.1578999E+00  -2.5389889E+01   0.0000000E+00   4.7757874E+00  -2.7350471E+01   0.0000000E+00   6.4909115E+00  -2.5923143E+01   0.0000000E+00   2.2596481E+00  -2.5224867E+01   0.0000000E+00   2.4645703E+00  -2.4602346E+01   0.0000000E+00   2.6367116E+00  -2.4311548E+01   0.0000000E+00   2.9428325E+00  -2.4768480E+01   0.0000000E+00   3.4798605E+00  -2.6299446E+01   0.0000000E+00   4.4726529E+00  -2.8799545E+01   0.0000000E+00   6.0128355E+00  -3.1718821E+01   0.0000000E+00   7.8083010E+00  -2.7877783E+01   0.0000000E+00   2.7652068E+00  -2.7109867E+01   0.0000000E+00   3.0760243E+00  -2.6431793E+01   0.0000000E+00   3.3986301E+00  -2.6176058E+01   0.0000000E+00   3.8036802E+00  -2.6842377E+01   0.0000000E+00   4.4332056E+00  -2.8820807E+01   0.0000000E+00   5.4632478E+00  -3.2174644E+01   0.0000000E+00   6.8258986E+00  -3.6206390E+01   0.0000000E+00   8.7571239E+00  -2.9837082E+01   0.0000000E+00   3.2596757E+00  -2.8982864E+01   0.0000000E+00   3.6619172E+00  -2.8240591E+01   0.0000000E+00   4.0575862E+00  -2.7987432E+01   0.0000000E+00   4.5275936E+00  -2.8824520E+01   0.0000000E+00   5.1810760E+00  -3.1198694E+01   0.0000000E+00   6.2160091E+00  -3.5258286E+01   0.0000000E+00   7.5775890E+00  -4.0344448E+01   0.0000000E+00   9.5744219E+00  -3.1791039E+01   0.0000000E+00   3.6784174E+00  -3.0847986E+01   0.0000000E+00   4.1448641E+00  -3.0022655E+01   0.0000000E+00   4.6124129E+00  -2.9771734E+01   0.0000000E+00   5.0674839E+00  -3.0737730E+01   0.0000000E+00   5.7441750E+00  -3.3462120E+01   0.0000000E+00   6.8079247E+00  -3.8137585E+01   0.0000000E+00   8.2257700E+00  -4.4064640E+01   0.0000000E+00   1.0345583E+01  -3.3728180E+01   0.0000000E+00   4.0063348E+00  -3.2691444E+01   0.0000000E+00   4.4970226E+00  -3.1785559E+01   0.0000000E+00   4.9876604E+00  -3.1517668E+01   0.0000000E+00   5.4702973E+00  -3.2613281E+01   0.0000000E+00   6.1590104E+00  -3.5680275E+01   0.0000000E+00   7.2679138E+00  -4.0910233E+01   0.0000000E+00   8.7987947E+00  -4.7545521E+01   0.0000000E+00   1.1047385E+01  -3.5636391E+01   0.0000000E+00   4.2318501E+00  -3.4499905E+01   0.0000000E+00   4.7287230E+00  -3.3511787E+01   0.0000000E+00   5.2312360E+00  -3.3212852E+01   0.0000000E+00   5.7575760E+00  -3.4457561E+01   0.0000000E+00   6.4607143E+00  -3.7883087E+01   0.0000000E+00   7.6002631E+00  -4.3670830E+01   0.0000000E+00   9.2652597E+00  -5.1012695E+01   0.0000000E+00   1.1613536E+01  -3.7505516E+01   0.0000000E+00   4.3469954E+00  -3.6270252E+01   0.0000000E+00   4.8393512E+00  -3.5195675E+01   0.0000000E+00   5.3549919E+00  -3.4876755E+01   0.0000000E+00   5.9111876E+00  -3.6260738E+01   0.0000000E+00   6.6488314E+00  -4.0045528E+01   0.0000000E+00   7.8500381E+00  -4.6425076E+01   0.0000000E+00   9.5893011E+00  -5.4485996E+01   0.0000000E+00   1.2057528E+01  -3.9333248E+01   0.0000000E+00   4.3473353E+00  -3.8003197E+01   0.0000000E+00   4.8177023E+00  -3.6830807E+01   0.0000000E+00   5.3498521E+00  -3.6492481E+01   0.0000000E+00   5.9377470E+00  -3.8005566E+01   0.0000000E+00   6.7235394E+00  -4.2154671E+01   0.0000000E+00   7.9752030E+00  -4.9148590E+01   0.0000000E+00   9.7484865E+00  -5.7941776E+01   0.0000000E+00   1.2318017E+01  -4.1103539E+01   0.0000000E+00   4.2397985E+00  -3.9671745E+01   0.0000000E+00   4.6869636E+00  -3.8405750E+01   0.0000000E+00   5.2074056E+00  -3.8042915E+01   0.0000000E+00   5.8263221E+00  -3.9670330E+01   0.0000000E+00   6.6678200E+00  -4.4184528E+01   0.0000000E+00   7.9535837E+00  -5.1793205E+01   0.0000000E+00   9.7427416E+00  -6.1343895E+01   0.0000000E+00   1.2361453E+01  -4.2819279E+01   0.0000000E+00   3.9681952E+00  -4.1270859E+01   0.0000000E+00   4.4108067E+00  -3.9907806E+01   0.0000000E+00   4.9016981E+00  -3.9503994E+01   0.0000000E+00   5.5499892E+00  -4.1235622E+01   0.0000000E+00   6.4524536E+00  -4.6116604E+01   0.0000000E+00   7.7459016E+00  -5.4339958E+01   0.0000000E+00   9.5263567E+00  -6.4658569E+01   0.0000000E+00   1.2147546E+01  -4.4474171E+01   0.0000000E+00   3.5190985E+00  -4.2791908E+01   0.0000000E+00   3.9705029E+00  -4.1323330E+01   0.0000000E+00   4.4119248E+00  -4.0882530E+01   0.0000000E+00   5.0354891E+00  -4.2698833E+01   0.0000000E+00   6.0132017E+00  -4.7944057E+01   0.0000000E+00   7.3092456E+00  -5.6784523E+01   0.0000000E+00   9.0518150E+00  -6.7884659E+01   0.0000000E+00   1.1630312E+01  -4.6071877E+01   0.0000000E+00   2.8335829E+00  -4.4249355E+01   0.0000000E+00   3.2661633E+00  -4.2658188E+01   0.0000000E+00   3.6830022E+00  -4.2178757E+01   0.0000000E+00   4.2270255E+00  -4.4089493E+01   0.0000000E+00   5.2401776E+00  -4.9680832E+01   0.0000000E+00   6.5865178E+00  -5.9154129E+01   0.0000000E+00   8.2739305E+00  -7.1072029E+01   0.0000000E+00   1.0763354E+01  -4.7600113E+01   0.0000000E+00   1.9122025E+00  -4.5645496E+01   0.0000000E+00   2.2623658E+00  -4.3916401E+01   0.0000000E+00   2.6462088E+00  -4.3389469E+01   0.0000000E+00   3.1056473E+00  -4.5419823E+01   0.0000000E+00   4.0607586E+00  -5.1357418E+01   0.0000000E+00   5.4867454E+00  -6.1504242E+01   0.0000000E+00   7.1256285E+00  -7.4330185E+01   0.0000000E+00   9.5023088E+00  -4.9045349E+01   0.0000000E+00   7.2657460E-01  -4.6968929E+01   0.0000000E+00   9.2342514E-01  -4.5117607E+01   0.0000000E+00   1.1973344E+00  -4.4530510E+01   0.0000000E+00   1.6042981E+00  -4.6699211E+01   0.0000000E+00   2.4433107E+00  -5.3010475E+01   0.0000000E+00   3.9069865E+00  -6.3884056E+01   0.0000000E+00   5.5447583E+00  -7.7773979E+01   0.0000000E+00   7.8331661E+00  -5.0363941E+01   0.0000000E+00  -7.3030043E-01  -4.8186340E+01   0.0000000E+00  -7.4453455E-01  -4.6220234E+01   0.0000000E+00  -6.5728116E-01  -4.5576675E+01   0.0000000E+00  -3.3706206E-01  -4.7894691E+01   0.0000000E+00   3.5384908E-01  -5.4622314E+01   0.0000000E+00   1.7875221E+00  -6.6293785E+01   0.0000000E+00   3.4763322E+00  -8.1449791E+01   0.0000000E+00   5.7136278E+00  -5.1465675E+01   0.0000000E+00  -2.4742048E+00  -4.9181232E+01   0.0000000E+00  -2.7274742E+00  -4.7138138E+01   0.0000000E+00  -2.9296148E+00  -4.6464821E+01   0.0000000E+00  -2.8033009E+00  -4.8919701E+01   0.0000000E+00  -2.2499452E+00  -5.6100758E+01   0.0000000E+00  -9.0930814E-01  -6.8616676E+01   0.0000000E+00   8.9650613E-01  -8.5196198E+01   0.0000000E+00   3.0894961E+00  -5.2182091E+01   0.0000000E+00  -4.4590611E+00  -4.9847626E+01   0.0000000E+00  -5.1006842E+00  -4.7683571E+01   0.0000000E+00  -5.5046635E+00  -4.7045872E+01   0.0000000E+00  -5.6711183E+00  -4.9676601E+01   0.0000000E+00  -5.3966413E+00  -5.7346279E+01   0.0000000E+00  -4.1915483E+00  -7.0708511E+01   0.0000000E+00  -2.2602012E+00  -8.8633484E+01   0.0000000E+00  -7.1943179E-02  -5.2465679E+01   0.0000000E+00  -6.8256111E+00  -5.0065830E+01   0.0000000E+00  -7.7891126E+00  -4.7841896E+01   0.0000000E+00  -8.4755335E+00  -4.7271961E+01   0.0000000E+00  -8.9084654E+00  -5.0149185E+01   0.0000000E+00  -8.9238586E+00  -5.8355659E+01   0.0000000E+00  -7.9474087E+00  -7.2385986E+01   0.0000000E+00  -5.9186211E+00  -9.1527107E+01   0.0000000E+00  -3.5867934E+00  -5.2320686E+01   0.0000000E+00  -9.5915651E+00  -4.9974564E+01   0.0000000E+00  -1.0966930E+01  -4.7746498E+01   0.0000000E+00  -1.2077380E+01  -4.7266396E+01   0.0000000E+00  -1.2868924E+01  -5.0351990E+01   0.0000000E+00  -1.2968087E+01  -5.8850208E+01   0.0000000E+00  -1.2258546E+01  -7.3743752E+01   0.0000000E+00  -9.7249947E+00  -9.3621460E+01   0.0000000E+00  -7.3917933E+00  -5.1658546E+01   0.0000000E+00  -1.2717744E+01  -4.9339603E+01   0.0000000E+00  -1.4620728E+01  -4.7333748E+01   0.0000000E+00  -1.6224850E+01  -4.7011269E+01   0.0000000E+00  -1.7448202E+01  -5.0484016E+01   0.0000000E+00  -1.7763002E+01  -5.9200756E+01   0.0000000E+00  -1.6618576E+01  -7.3944916E+01   0.0000000E+00  -1.3985286E+01  -9.3578125E+01   0.0000000E+00  -1.1371314E+01  -5.1069702E+01   0.0000000E+00  -1.7087044E+01  -4.8753742E+01   0.0000000E+00  -1.9376944E+01  -4.6810535E+01   0.0000000E+00  -2.1289631E+01  -4.6378834E+01   0.0000000E+00  -2.2690157E+01  -4.9493130E+01   0.0000000E+00  -2.2843180E+01  -5.8022369E+01   0.0000000E+00  -2.1655092E+01  -7.1795639E+01   0.0000000E+00  -1.8602180E+01  -8.6185905E+01   0.0000000E+00  -1.6243301E+01  -4.9680119E+01   0.0000000E+00  -2.1657335E+01  -4.6832546E+01   0.0000000E+00  -2.3791433E+01  -4.4139442E+01   0.0000000E+00  -2.5581150E+01  -4.3474335E+01   0.0000000E+00  -2.7803385E+01  -4.6200310E+01   0.0000000E+00  -2.8679924E+01  -5.1779751E+01   0.0000000E+00  -2.7446947E+01  -5.6607155E+01   0.0000000E+00  -2.4299812E+01  -5.7728550E+01   0.0000000E+00  -2.1245638E+01  -3.8149227E+01   0.0000000E+00  -2.4762102E+01  -3.4242580E+01   0.0000000E+00  -3.0659187E+01  -3.1280300E+01   0.0000000E+00  -3.5323280E+01  -2.9239235E+01   0.0000000E+00  -3.6593487E+01  -2.8316141E+01   0.0000000E+00  -3.6129749E+01  -2.8271221E+01   0.0000000E+00  -3.4658253E+01  -2.8813976E+01   0.0000000E+00  -3.0687538E+01  -2.9856071E+01   0.0000000E+00  -2.6936886E+01  -1.9980522E+01   0.0000000E+00  -3.1425909E+01  -1.7148575E+01   0.0000000E+00  -3.7054329E+01  -1.4770646E+01   0.0000000E+00  -4.2411732E+01  -1.3357767E+01   0.0000000E+00  -4.2862057E+01  -1.2869634E+01   0.0000000E+00  -4.2413734E+01  -1.3154202E+01   0.0000000E+00  -4.0454853E+01  -1.4262772E+01   0.0000000E+00  -3.4470562E+01  -1.5894415E+01   0.0000000E+00  -3.0862713E+01  -1.1919107E+01   0.0000000E+00  -3.7741405E+01  -1.0247632E+01   0.0000000E+00  -4.1356094E+01  -8.9668360E+00   0.0000000E+00  -4.6905518E+01  -8.2734833E+00   0.0000000E+00  -4.8963165E+01  -8.3167772E+00   0.0000000E+00  -4.8638451E+01  -9.1511278E+00   0.0000000E+00  -4.5348995E+01  -1.0667809E+01   0.0000000E+00  -3.6143639E+01  -1.2514892E+01   0.0000000E+00  -3.4932606E+01  -9.3608160E+00   0.0000000E+00  -4.1761700E+01  -8.6890163E+00   0.0000000E+00  -4.5780235E+01  -8.2536736E+00   0.0000000E+00  -4.9426529E+01  -8.1719322E+00   0.0000000E+00  -5.3424854E+01  -8.5592718E+00   0.0000000E+00  -5.3883865E+01  -9.4669428E+00   0.0000000E+00  -4.8909286E+01  -1.0804829E+01   0.0000000E+00  -3.7213589E+01  -1.2337121E+01   0.0000000E+00  -3.8574123E+01  -7.0425067E+00   0.0000000E+00  -4.2946350E+01  -6.9632359E+00   0.0000000E+00  -4.7220505E+01  -6.9341784E+00   0.0000000E+00  -5.1024723E+01  -7.0006104E+00   0.0000000E+00  -5.4597828E+01  -7.2265635E+00   0.0000000E+00  -5.6090199E+01  -7.6496668E+00   0.0000000E+00  -5.1226845E+01  -8.2618265E+00   0.0000000E+00  -3.8732555E+01  -9.0023651E+00   0.0000000E+00  -4.0757702E+01  -2.0602441E+00   0.0000000E+00  -4.1708229E+01  -2.0586777E+00   0.0000000E+00  -4.6056808E+01  -1.8918096E+00   0.0000000E+00  -4.9956135E+01  -1.5776529E+00   0.0000000E+00  -5.4099728E+01  -1.1613164E+00   0.0000000E+00  -5.5960136E+01  -6.9825411E-01   0.0000000E+00  -5.2546474E+01  -2.7527004E-01   0.0000000E+00  -3.9596130E+01   2.9566973E-02   0.0000000E+00  -4.1559326E+01   5.6738505E+00   0.0000000E+00  -3.8854244E+01   5.9890742E+00   0.0000000E+00  -4.3206512E+01   6.6882010E+00   0.0000000E+00  -4.7228001E+01   7.7376604E+00   0.0000000E+00  -5.3290676E+01   9.0451565E+00   0.0000000E+00  -5.4558453E+01   1.0501298E+01   0.0000000E+00  -5.1650787E+01   1.1963057E+01   0.0000000E+00  -3.9703644E+01   1.3281700E+01   0.0000000E+00  -4.0984291E+01   1.4748025E+01   0.0000000E+00  -3.5216270E+01   1.5515165E+01   0.0000000E+00  -3.9530220E+01   1.6856796E+01   0.0000000E+00  -4.5107307E+01   1.8690880E+01   0.0000000E+00  -5.1151234E+01   2.0837831E+01   0.0000000E+00  -5.1519279E+01   2.3119711E+01   0.0000000E+00  -4.8790421E+01   2.5376656E+01   0.0000000E+00  -3.8249428E+01   2.7454884E+01   0.0000000E+00  -3.8812271E+01   2.4026604E+01   0.0000000E+00  -3.1430330E+01   2.5128279E+01   0.0000000E+00  -3.5773071E+01   2.6897421E+01   0.0000000E+00  -4.2612175E+01   2.9253918E+01   0.0000000E+00  -4.7190498E+01   3.2068531E+01   0.0000000E+00  -4.7464985E+01   3.4857487E+01   0.0000000E+00  -4.4818401E+01   3.7559708E+01   0.0000000E+00  -3.5463017E+01   4.0062164E+01   0.0000000E+00  -3.5378662E+01   3.3463642E+01   0.0000000E+00  -2.7866243E+01   3.4604877E+01   0.0000000E+00  -3.2174549E+01   3.6325634E+01   0.0000000E+00  -3.9391209E+01   3.8648872E+01   0.0000000E+00  -4.2802578E+01   4.1779690E+01   0.0000000E+00  -4.2249939E+01   4.5034336E+01   0.0000000E+00  -3.9975533E+01   4.8009785E+01   0.0000000E+00  -3.1972740E+01   5.0501736E+01   0.0000000E+00  -3.1468971E+01   4.3714069E+01   0.0000000E+00  -2.4685068E+01   4.4536133E+01   0.0000000E+00  -2.8595194E+01   4.5605984E+01   0.0000000E+00  -3.5651100E+01   4.7273445E+01   0.0000000E+00  -3.8117119E+01   4.9785046E+01   0.0000000E+00  -3.8019062E+01   5.3537304E+01   0.0000000E+00  -3.5237019E+01   5.7495121E+01   0.0000000E+00  -2.7744345E+01   5.9743938E+01   0.0000000E+00  -2.7055922E+01   5.5170231E+01   0.0000000E+00  -2.1928658E+01   5.5433578E+01   0.0000000E+00  -2.5082870E+01   5.5770355E+01   0.0000000E+00  -3.1301435E+01   5.6234085E+01   0.0000000E+00  -3.3437832E+01   5.8071545E+01   0.0000000E+00  -3.2829762E+01   6.1266415E+01   0.0000000E+00  -2.9852957E+01   6.6114548E+01   0.0000000E+00  -2.3550154E+01   6.9401642E+01   0.0000000E+00  -2.1492002E+01   6.7028259E+01   0.0000000E+00  -1.9435328E+01   6.6642952E+01   0.0000000E+00  -2.1986811E+01   6.6375000E+01   0.0000000E+00  -2.6320538E+01   6.6007347E+01   0.0000000E+00  -2.9036005E+01   6.6772430E+01   0.0000000E+00  -2.7651594E+01   6.9308594E+01   0.0000000E+00  -2.4221945E+01   7.5509987E+01   0.0000000E+00  -1.9852211E+01   8.0560257E+01   0.0000000E+00  -1.5597517E+01   7.4537766E+01   0.0000000E+00  -1.5744936E+01   7.3896461E+01   0.0000000E+00  -1.7756752E+01   7.3572197E+01   0.0000000E+00  -2.0055223E+01   7.3574722E+01   0.0000000E+00  -2.3381140E+01   7.5432159E+01   0.0000000E+00  -2.2458128E+01   7.8489502E+01   0.0000000E+00  -1.8865303E+01   8.6229790E+01   0.0000000E+00  -1.5316918E+01   9.2975098E+01   0.0000000E+00  -1.0480253E+01   7.8632263E+01   0.0000000E+00  -1.1942224E+01   7.8136269E+01   0.0000000E+00  -1.3365601E+01   7.8340851E+01   0.0000000E+00  -1.4694552E+01   7.8587479E+01   0.0000000E+00  -1.7442011E+01   8.2404465E+01   0.0000000E+00  -1.7076889E+01   8.8908920E+01   0.0000000E+00  -1.4138752E+01   9.7920837E+01   0.0000000E+00  -1.0451962E+01   1.0674368E+02   0.0000000E+00  -5.5288515E+00   8.0889374E+01   0.0000000E+00  -9.2382898E+00   8.0738167E+01   0.0000000E+00  -1.0523574E+01   8.1087410E+01   0.0000000E+00  -1.1084612E+01   8.2934334E+01   0.0000000E+00  -1.2122610E+01   8.8422897E+01   0.0000000E+00  -1.1869287E+01   9.9044312E+01   0.0000000E+00  -9.6962519E+00   1.1035857E+02   0.0000000E+00  -5.3895087E+00   1.2234689E+02   0.0000000E+00  -7.5213021E-01   8.2295174E+01   0.0000000E+00  -7.4265513E+00   8.2049149E+01   0.0000000E+00  -8.2653122E+00   8.2829758E+01   0.0000000E+00  -8.4951963E+00   8.5957420E+01   0.0000000E+00  -8.4112024E+00   9.3437363E+01   0.0000000E+00  -7.5811229E+00   1.0762075E+02   0.0000000E+00  -5.7678189E+00   1.2410495E+02   0.0000000E+00  -1.6913904E+00   1.3993431E+02   0.0000000E+00   3.9219546E+00   8.3258240E+01   0.0000000E+00  -5.8811712E+00   8.3302452E+01   0.0000000E+00  -6.2449045E+00   8.4476822E+01   0.0000000E+00  -6.2639971E+00   8.8585449E+01   0.0000000E+00  -5.7584229E+00   9.8242264E+01   0.0000000E+00  -4.7365823E+00   1.1477958E+02   0.0000000E+00  -2.6958392E+00   1.3773463E+02   0.0000000E+00   1.3848314E-01   1.6083772E+02   0.0000000E+00   5.9344554E+00   8.4025391E+01   0.0000000E+00  -4.7492924E+00   8.4562408E+01   0.0000000E+00  -4.6094966E+00   8.6651833E+01   0.0000000E+00  -4.2631969E+00   9.2348801E+01   0.0000000E+00  -3.6254065E+00   1.0422134E+02   0.0000000E+00  -2.1070297E+00   1.2337672E+02   0.0000000E+00   1.2321699E-01   1.5002469E+02   0.0000000E+00   3.0719423E+00   1.7844208E+02   0.0000000E+00   7.5035605E+00   8.4694260E+01   0.0000000E+00  -3.5459931E+00   8.6129219E+01   0.0000000E+00  -3.2195954E+00   8.9824730E+01   0.0000000E+00  -2.4983058E+00   9.7809998E+01   0.0000000E+00  -1.5574336E+00   1.1206203E+02   0.0000000E+00   1.5568961E-01   1.3416879E+02   0.0000000E+00   2.8412807E+00   1.6393738E+02   0.0000000E+00   6.0635772E+00   8.5852715E+01   0.0000000E+00  -2.2787616E+00   8.8650902E+01   0.0000000E+00  -1.6923640E+00   9.4529472E+01   0.0000000E+00  -7.7721792E-01   1.0525484E+02   0.0000000E+00   3.3597475E-01   1.2253724E+02   0.0000000E+00   2.3835831E+00   1.4752304E+02   0.0000000E+00   5.4266601E+00   1.7876804E+02   0.0000000E+00   8.7410126E+00   8.7827248E+01   0.0000000E+00  -1.0781661E+00   9.2719543E+01   0.0000000E+00  -2.1386874E-01   1.0127612E+02   0.0000000E+00   5.9717447E-01   1.1496514E+02   0.0000000E+00   1.7988551E+00   1.3596198E+02   0.0000000E+00   4.4050236E+00   1.6373238E+02   0.0000000E+00   7.5226812E+00   9.1787651E+01   0.0000000E+00   1.1944456E-01   9.9244942E+01   0.0000000E+00   8.9024502E-01   1.1080721E+02   0.0000000E+00   1.5415410E+00   1.2814880E+02   0.0000000E+00   3.1953239E+00   1.5260493E+02   0.0000000E+00   6.1166835E+00   1.8120808E+02   0.0000000E+00   9.4463720E+00   9.8567184E+01   0.0000000E+00   9.3791884E-01   1.0896358E+02   0.0000000E+00   1.4955221E+00   1.2404939E+02   0.0000000E+00   2.2576318E+00   1.4501921E+02   0.0000000E+00   4.5458794E+00   1.7144278E+02   0.0000000E+00   7.8042507E+00   1.0938206E+02   0.0000000E+00   1.1338164E+00   1.2295401E+02   0.0000000E+00   1.7748239E+00   1.4153941E+02   0.0000000E+00   3.4272747E+00   1.6456961E+02   0.0000000E+00   6.0337477E+00   1.2471888E+02   0.0000000E+00   1.2414167E+00   1.4163565E+02   0.0000000E+00   2.6219277E+00   1.6207475E+02   0.0000000E+00   4.8695393E+00   1.8386403E+02   0.0000000E+00   8.4145145E+00   1.4456320E+02   0.0000000E+00   2.2611296E+00   1.6264079E+02   0.0000000E+00   4.4720721E+00   1.6526974E+02   0.0000000E+00   3.8532317E+00 
StrainDot 3 2975 float
  0.0000000E+00   0.0000000E+00   0.0000000E+00   0.0000000E+00   0.0000000E+00   0.0000000E+00   0.0000000E+00   0.0000000E+00   0.0000000E+00   0.0000000E+00   0.0000000E+00   0.0000000E+00   0.0000000E+00   0.0000000E+00   0.0000000E+00   0.0000000E+00   0.0000000E+00   0.0000000E+00   0.0000000E+00   0.0000000E+00   0.0000000E+00   0.0000000E+00   0.0000000E+00   0.0000000E+00   0.0000000E+00   0.0000000E+00   0.0000000E+00   0.0000000E+00   0.0000000E+00   0.0000000E+00   0.0000000E+00   0.0000000E+00   0.0000000E+00   0.0000000E+00   0.0000000E+00   0.0000000E+00   0.0000000E+00   0.0000000E+00   0.0000000E+00  -2.4003446E-06   0.0000000E+00  -6.7732384E-07  -3.8234123E-15   0.0000000E+00  -1.6951021E-15  -1.1207596E-05   0.0000000E+00  -4.9154683E-06  -8.0690224E-05   0.0000000E+00  -2.7719914E-05  -1.8954455E-05   0.0000000E+00  -1.0298761E-05  -1.4002346E-04   0.0000000E+00  -7.3057337E-05  -4.7885993E-04   0.0000000E+00  -1.9103529E-04  -1.4965271E-04   0.0000000E+00  -9.5249132E-05  -5.8333599E-04   0.0000000E+00  -3.4636774E-04  -1.5388613E-03   0.0000000E+00  -6.9109106E-04  -5.0193537E-04   0.0000000E+00  -3.6402608E-04  -1.5158955E-03   0.0000000E+00  -1.0106943E-03  -3.5301039E-03   0.0000000E+00  -1.7674769E-03  -1.1103393E-03   0.0000000E+00  -9.1527624E-04  -2.9556653E-03   0.0000000E+00  -2.2129833E-03  -6.4384728E-03   0.0000000E+00  -3.6007091E-03  -1.8909228E-03   0.0000000E+00  -1.7745631E-03  -4.7148997E-03   0.0000000E+00  -3.9681732E-03  -9.9080736E-03   0.0000000E+00  -6.1959880E-03  -2.6822025E-03   0.0000000E+00  -2.8564234E-03  -6.4820331E-03   0.0000000E+00  -6.1013065E-03  -1.3374723E-02   0.0000000E+00  -9.2991423E-03  -3.3432727E-03   0.0000000E+00  -3.9832578E-03  -7.9965703E-03   0.0000000E+00  -8.2801180E-03  -1.6372072E-02   0.0000000E+00  -1.2425841E-02  -3.8403117E-03   0.0000000E+00  -4.9635596E-03  -9.2053777E-03   0.0000000E+00  -1.0152771E-02  -1.8822273E-02   0.0000000E+00  -1.5058714E-02  -4.2709443E-03   0.0000000E+00  -5.6829010E-03  -1.0304018E-02   0.0000000E+00  -1.1509097E-02  -2.1083927E-02   0.0000000E+00  -1.6900757E-02  -4.8388364E-03   0.0000000E+00  -6.1431103E-03  -1.1718608E-02   0.0000000E+00  -1.2349571E-02  -2.3930950E-02   0.0000000E+00  -1.7978186E-02  -5.8295084E-03   0.0000000E+00  -6.4418577E-03  -1.4049213E-02   0.0000000E+00  -1.2862253E-02  -2.8428046E-02   0.0000000E+00  -1.8599790E-02  -7.6026330E-03   0.0000000E+00  -6.7512570E-03  -1.8006932E-02   0.0000000E+00  -1.3412735E-02  -3.5778005E-02   0.0000000E+00  -1.9337211E-02  -1.0622844E-02   0.0000000E+00  -7.4093128E-03  -2.4404369E-02   0.0000000E+00  -1.4634824E-02  -4.7226924E-02   0.0000000E+00  -2.1078669E-02  -1.5368141E-02   0.0000000E+00  -9.1406815E-03  -3.3739496E-02   0.0000000E+00  -1.7611766E-02  -6.3260362E-02   0.0000000E+00  -2.5161574E-02  -2.1810628E-02   0.0000000E+00  -1.3456756E-02  -4.4932749E-02   0.0000000E+00  -2.4153925E-02  -8.1605688E-02   0.0000000E+00  -3.3574600E-02  -5.5287212E-02   0.0000000E+00  -3.6989141E-02  -9.7668849E-02   0.0000000E+00  -4.9014647E-02   0.0000000E+00   0.0000000E+00   0.0000000E+00   0.0000000E+00   0.0000000E+00   0.0000000E+00   0.0000000E+00   0.0000000E+00   0.0000000E+00   0.0000000E+00   0.0000000E+00   0.0000000E+00   0.0000000E+00   0.0000000E+00   0.0000000E+00   0.0000000E+00   0.0000000E+00   0.0000000E+00   0.0000000E+00   0.0000000E+00   0.0000000E+00   0.0000000E+00   0.0000000E+00   0.0000000E+00   0.0000000E+00   0.0000000E+00   0.0000000E+00   0.0000000E+00   0.0000000E+00   0.0000000E+00   0.0000000E+00   0.0000000E+00   0.0000000E+00   0.0000000E+00   0.0000000E+00   0.0000000E+00   0.0000000E+00   0.0000000E+00   0.0000000E+00   0.0000000E+00   0.0000000E+00   0.0000000E+00   0.0000000E+00   0.0000000E+00   0.0000000E+00   0.0000000E+00   0.0000000E+00   0.0000000E+00   0.0000000E+00   0.0000000E+00   0.0000000E+00   0.0000000E+00   0.0000000E+00   0.0000000E+00   0.0000000E+00   0.0000000E+00   0.0000000E+00   0.0000000E+00   0.0000000E+00   0.0000000E+00   0.0000000E+00   0.0000000E+00   0.0000000E+00   0.0000000E+00   0.0000000E+00   0.0000000E+00   0.0000000E+00   0.0000000E+00   0.0000000E+00   0.0000000E+00   0.0000000E+00   0.0000000E+00   0.0000000E+00   0.0000000E+00   0.0000000E+00  -5.0270876E-07   0.0000000E+00  -4.6036739E-08  -3.3256842E-06   0.0000000E+00  -1.5560138E-07  -8.0993277E-06   0.0000000E+00  -1.4205128E-07  -1.2342318E-05   0.0000000E+00  -1.9524894E-08  -1.4761454E-05   0.0000000E+00   3.1500427E-08  -1.6446653E-05   0.0000000E+00   3.7626435E-08  -1.7752183E-05   0.0000000E+00   3.8656474E-08  -2.2098069E-05   0.0000000E+00  -4.2849551E-06  -7.6232849E-05   0.0000000E+00  -9.2913779E-06  -1.7003067E-04   0.0000000E+00  -1.2100683E-05  -2.9101633E-04   0.0000000E+00  -1.0620304E-05  -4.1472740E-04   0.0000000E+00  -5.4613438E-06  -5.1853718E-04   0.0000000E+00   4.5577463E-07  -5.9267960E-04   0.0000000E+00   3.9328024E-06  -6.4289250E-04   0.0000000E+00   4.6437949E-06  -2.6278797E-04   0.0000000E+00  -6.0989827E-05  -5.9760927E-04   0.0000000E+00  -8.7186534E-05  -1.0859132E-03   0.0000000E+00  -9.4185278E-05  -1.6755968E-03   0.0000000E+00  -7.8070676E-05  -2.2778686E-03   0.0000000E+00  -4.3746175E-05  -2.8092677E-03   0.0000000E+00  -4.3537275E-06  -3.2265102E-03   0.0000000E+00   2.5698106E-05  -3.5291708E-03   0.0000000E+00   4.0402199E-05  -1.1543806E-03   0.0000000E+00  -3.0824551E-04  -2.2490558E-03   0.0000000E+00  -3.7717447E-04  -3.7492062E-03   0.0000000E+00  -3.7627562E-04  -5.5103763E-03   0.0000000E+00  -3.0186973E-04  -7.2985939E-03   0.0000000E+00  -1.7080911E-04  -8.8988151E-03   0.0000000E+00  -2.3498114E-05  -1.0193943E-02   0.0000000E+00   9.4696370E-05  -1.1168732E-02   0.0000000E+00   1.6247596E-04  -3.2511007E-03   0.0000000E+00  -9.7216712E-04  -5.8791437E-03   0.0000000E+00  -1.1034738E-03  -9.3756784E-03   0.0000000E+00  -1.0566683E-03  -1.3414280E-02   0.0000000E+00  -8.3113043E-04  -1.7490894E-02   0.0000000E+00  -4.6916876E-04  -2.1150701E-02   0.0000000E+00  -6.8715155E-05  -2.4146384E-02   0.0000000E+00   2.5889126E-04  -2.6437297E-02   0.0000000E+00   4.5789740E-04  -6.9618388E-03   0.0000000E+00  -2.3146456E-03  -1.2088737E-02   0.0000000E+00  -2.5237310E-03  -1.8804790E-02   0.0000000E+00  -2.3615351E-03  -2.6485601E-02   0.0000000E+00  -1.8318329E-03  -3.4184292E-02   0.0000000E+00  -1.0254339E-03  -4.1074991E-02   0.0000000E+00  -1.4775107E-04  -4.6728387E-02   0.0000000E+00   5.7372422E-04  -5.1078215E-02   0.0000000E+00   1.0246123E-03  -1.2222957E-02   0.0000000E+00  -4.5337770E-03  -2.0750642E-02   0.0000000E+00  -4.8375078E-03  -3.1832963E-02   0.0000000E+00  -4.4664163E-03  -4.4408478E-02   0.0000000E+00  -3.4215574E-03  -5.6890771E-02   0.0000000E+00  -1.8854820E-03  -6.7979403E-02   0.0000000E+00  -2.5060424E-04  -7.7051893E-02   0.0000000E+00   1.0844157E-03  -8.4036067E-02   0.0000000E+00   1.9296568E-03  -1.8420679E-02   0.0000000E+00  -7.6362970E-03  -3.0874275E-02   0.0000000E+00  -8.0556320E-03  -4.6943475E-02   0.0000000E+00  -7.3716030E-03  -6.5008730E-02   0.0000000E+00  -5.5646077E-03  -8.2698219E-02   0.0000000E+00  -2.9926677E-03  -9.8264411E-02   0.0000000E+00  -3.4268660E-04  -1.1093497E-01   0.0000000E+00   1.7917319E-03  -1.2065640E-01   0.0000000E+00   3.1499297E-03  -2.4578663E-02   0.0000000E+00  -1.1325507E-02  -4.0853478E-02   0.0000000E+00  -1.1864854E-02  -6.1575536E-02   0.0000000E+00  -1.0724557E-02  -2.9878851E-02   0.0000000E+00  -1.5000662E-02  -4.9305163E-02   0.0000000E+00  -1.5604618E-02  -3.4225248E-02   0.0000000E+00  -1.8001106E-02  -5.6172132E-02   0.0000000E+00  -1.8517058E-02  -3.8249724E-02   0.0000000E+00  -1.9984309E-02  -6.2547877E-02   0.0000000E+00  -2.0295495E-02  -4.3177415E-02   0.0000000E+00  -2.1033129E-02  -7.0094235E-02   0.0000000E+00  -2.1081330E-02  -5.0644666E-02   0.0000000E+00  -2.1572366E-02  -8.0983847E-02   0.0000000E+00  -2.1352215E-02  -6.2418740E-02   0.0000000E+00  -2.2322984E-02  -9.7444415E-02   0.0000000E+00  -2.1875968E-02  -8.0201000E-02   0.0000000E+00  -2.4335174E-02  -1.2140132E-01   0.0000000E+00  -2.3730360E-02  -1.0456213E-01   0.0000000E+00  -2.9130816E-02  -1.5336464E-01   0.0000000E+00  -2.8452519E-02  -1.3244179E-01   0.0000000E+00  -3.8949411E-02  -1.9006903E-01   0.0000000E+00  -3.8372226E-02  -1.5725373E-01   0.0000000E+00  -5.6775775E-02  -2.2418004E-01   0.0000000E+00  -5.6798249E-02   0.0000000E+00   0.0000000E+00   0.0000000E+00   0.0000000E+00   0.0000000E+00   0.0000000E+00   0.0000000E+00   0.0000000E+00   0.0000000E+00   0.0000000E+00   0.0000000E+00   0.0000000E+00   0.0000000E+00   0.0000000E+00   0.0000000E+00   0.0000000E+00   0.0000000E+00   0.0000000E+00   0.0000000E+00   0.0000000E+00   0.0000000E+00   0.0000000E+00   0.0000000E+00   0.0000000E+00   0.0000000E+00   0.0000000E+00   0.0000000E+00   0.0000000E+00   0.0000000E+00   0.0000000E+00   0.0000000E+00   0.0000000E+00   0.0000000E+00   0.0000000E+00   0.0000000E+00   0.0000000E+00   0.0000000E+00   0.0000000E+00   0.0000000E+00   0.0000000E+00   0.0000000E+00   0.0000000E+00   0.0000000E+00   0.0000000E+00   0.0000000E+00   0.0000000E+00   0.0000000E+00   0.0000000E+00   0.0000000E+00   0.0000000E+00   0.0000000E+00   0.0000000E+00   0.0000000E+00   0.0000000E+00   0.0000000E+00   0.0000000E+00   0.0000000E+00   0.0000000E+00   0.0000000E+00   0.0000000E+00   0.0000000E+00   0.0000000E+00   0.0000000E+00   0.0000000E+00   0.0000000E+00   0.0000000E+00   0.0000000E+00   0.0000000E+00   0.0000000E+00   0.0000000E+00   0.0000000E+00   0.0000000E+00   0.0000000E+00   0.0000000E+00   0.0000000E+00   0.0000000E+00   0.0000000E+00   0.0000000E+00   0.0000000E+00   0.0000000E+00   0.0000000E+00  -1.8714667E-05   0.0000000E+00   3.7180644E-08  -1.9391526E-05   0.0000000E+00   3.4374210E-08  -1.9843912E-05   0.0000000E+00   3.0815748E-08  -2.0129090E-05   0.0000000E+00   2.7553730E-08  -2.0296793E-05   0.0000000E+00   2.4577616E-08  -2.0386509E-05   0.0000000E+00   2.1698146E-08  -2.0427975E-05   0.0000000E+00   1.9322904E-08  -2.0443145E-05   0.0000000E+00   1.7571780E-08  -2.0446645E-05   0.0000000E+00   1.6436859E-08  -6.7959726E-04   0.0000000E+00   4.5584216E-06  -7.0597761E-04   0.0000000E+00   4.2620186E-06  -7.2405365E-04   0.0000000E+00   3.8791395E-06  -7.3581515E-04   0.0000000E+00   3.4789452E-06  -7.4302114E-04   0.0000000E+00   3.0987512E-06  -7.4711803E-04   0.0000000E+00   2.7595815E-06  -7.4923411E-04   0.0000000E+00   2.4736041E-06  -7.5019314E-04   0.0000000E+00   2.2563790E-06  -7.5055362E-04   0.0000000E+00   2.1216206E-06  -3.7409400E-03   0.0000000E+00   4.2644620E-05  -3.8913733E-03   0.0000000E+00   4.0494484E-05  -3.9957645E-03   0.0000000E+00   3.7210353E-05  -4.0647411E-03   0.0000000E+00   3.3589135E-05  -4.1078664E-03   0.0000000E+00   3.0072686E-05  -4.1331155E-03   0.0000000E+00   2.6908288E-05  -4.1467352E-03   0.0000000E+00   2.4262643E-05  -4.1533513E-03   0.0000000E+00   2.2261594E-05  -4.1561075E-03   0.0000000E+00   2.1013278E-05  -1.1868724E-02   0.0000000E+00   1.8529460E-04  -1.2359184E-02   0.0000000E+00   1.8102703E-04  -1.2699167E-02   0.0000000E+00   1.6810081E-04  -1.2925729E-02   0.0000000E+00   1.5284169E-04  -1.3068995E-02   0.0000000E+00   1.3763136E-04  -1.3154207E-02   0.0000000E+00   1.2382219E-04  -1.3201254E-02   0.0000000E+00   1.1224964E-04  -1.3224891E-02   0.0000000E+00   1.0352125E-04  -1.3235181E-02   0.0000000E+00   9.8082201E-05  -2.8109027E-02   0.0000000E+00   5.3833611E-04  -2.9290348E-02   0.0000000E+00   5.4173864E-04  -3.0104276E-02   0.0000000E+00   5.0898740E-04  -3.0648142E-02   0.0000000E+00   4.6636804E-04  -3.0993845E-02   0.0000000E+00   4.2254524E-04  -3.1201042E-02   0.0000000E+00   3.8225699E-04  -3.1316739E-02   0.0000000E+00   3.4835964E-04  -3.1375803E-02   0.0000000E+00   3.2276529E-04  -3.1402044E-02   0.0000000E+00   3.0683179E-04  -5.4275572E-02   0.0000000E+00   1.2214573E-03  -5.6549065E-02   0.0000000E+00   1.2488326E-03  -5.8116399E-02   0.0000000E+00   1.1887624E-03  -5.9161015E-02   0.0000000E+00   1.0977036E-03  -5.9825428E-02   0.0000000E+00   1.0009279E-03  -6.0224194E-02   0.0000000E+00   9.1062149E-04  -6.0447510E-02   0.0000000E+00   8.3417294E-04  -6.0562007E-02   0.0000000E+00   7.7633082E-04  -6.0613163E-02   0.0000000E+00   7.4030348E-04  -8.9178257E-02   0.0000000E+00   2.3149841E-03  -9.2840567E-02   0.0000000E+00   2.3876159E-03  -9.5366232E-02   0.0000000E+00   2.2960012E-03  -9.7043142E-02   0.0000000E+00   2.1363108E-03  -9.8105676E-02   0.0000000E+00   1.9607136E-03  -9.8741159E-02   0.0000000E+00   1.7942060E-03  -9.9095479E-02   0.0000000E+00   1.6522130E-03  -9.9276297E-02   0.0000000E+00   1.5444512E-03  -9.9356674E-02   0.0000000E+00   1.4772550E-03  -1.2779391E-01   0.0000000E+00   3.7871033E-03  -1.3286434E-01   0.0000000E+00   3.9282544E-03  -1.3635209E-01   0.0000000E+00   3.8067738E-03  -1.3865545E-01   0.0000000E+00   3.5695576E-03  -1.4010455E-01   0.0000000E+00   3.2987720E-03  -1.4096384E-01   0.0000000E+00   3.0375037E-03  -1.4143805E-01   0.0000000E+00   2.8128591E-03  -1.4167671E-01   0.0000000E+00   2.6417228E-03  -1.4178109E-01   0.0000000E+00   2.5348333E-03   0.0000000E+00   0.0000000E+00   0.0000000E+00   0.0000000E+00   0.0000000E+00   0.0000000E+00   0.0000000E+00   0.0000000E+00   0.0000000E+00   0.0000000E+00   0.0000000E+00   0.0000000E+00   0.0000000E+00   0.0000000E+00   0.0000000E+00   0.0000000E+00   0.0000000E+00   0.0000000E+00   0.0000000E+00   0.0000000E+00   0.0000000E+00   0.0000000E+00   0.0000000E+00   0.0000000E+00   0.0000000E+00   0.0000000E+00   0.0000000E+00   0.0000000E+00   0.0000000E+00   0.0000000E+00   0.0000000E+00   0.0000000E+00   0.0000000E+00   0.0000000E+00   0.0000000E+00   0.0000000E+00   0.0000000E+00   0.0000000E+00   0.0000000E+00   0.0000000E+00   0.0000000E+00   0.0000000E+00   0.0000000E+00   0.0000000E+00   0.0000000E+00   0.0000000E+00   0.0000000E+00   0.0000000E+00   0.0000000E+00   0.0000000E+00   0.0000000E+00   0.0000000E+00   0.0000000E+00   0.0000000E+00   0.0000000E+00   0.0000000E+00   0.0000000E+00   0.0000000E+00   0.0000000E+00   0.0000000E+00   0.0000000E+00   0.0000000E+00   0.0000000E+00   0.0000000E+00   0.0000000E+00   0.0000000E+00   0.0000000E+00   0.0000000E+00   0.0000000E+00   0.0000000E+00   0.0000000E+00   0.0000000E+00  -2.0446858E-05   0.0000000E+00   1.6044609E-08  -2.0446649E-05   0.0000000E+00   1.6436843E-08  -2.0443147E-05   0.0000000E+00   1.7571788E-08  -2.0427977E-05   0.0000000E+00   1.9322925E-08  -2.0386507E-05   0.0000000E+00   2.1698165E-08  -2.0296788E-05   0.0000000E+00   2.4577623E-08  -2.0129097E-05   0.0000000E+00   2.7553755E-08  -1.9843916E-05   0.0000000E+00   3.0815826E-08  -7.5063831E-04   0.0000000E+00   2.0760174E-06  -7.5055362E-04   0.0000000E+00   2.1216208E-06  -7.5019320E-04   0.0000000E+00   2.2563793E-06  -7.4923417E-04   0.0000000E+00   2.4736057E-06  -7.4711809E-04   0.0000000E+00   2.7595831E-06  -7.4302108E-04   0.0000000E+00   3.0987526E-06  -7.3581503E-04   0.0000000E+00   3.4789489E-06  -7.2405353E-04   0.0000000E+00   3.8791436E-06  -4.1568284E-03   0.0000000E+00   2.0589856E-05  -4.1561071E-03   0.0000000E+00   2.1013275E-05  -4.1533504E-03   0.0000000E+00   2.2261596E-05  -4.1467343E-03   0.0000000E+00   2.4262647E-05  -4.1331165E-03   0.0000000E+00   2.6908305E-05  -4.1078678E-03   0.0000000E+00   3.0072708E-05  -4.0647420E-03   0.0000000E+00   3.3589160E-05  -3.9957650E-03   0.0000000E+00   3.7210375E-05  -1.3237969E-02   0.0000000E+00   9.6231961E-05  -1.3235183E-02   0.0000000E+00   9.8082230E-05  -1.3224890E-02   0.0000000E+00   1.0352131E-04  -1.3201255E-02   0.0000000E+00   1.1224969E-04  -1.3154211E-02   0.0000000E+00   1.2382228E-04  -1.3068999E-02   0.0000000E+00   1.3763153E-04  -1.2925729E-02   0.0000000E+00   1.5284182E-04  -1.2699173E-02   0.0000000E+00   1.6810096E-04  -3.1409282E-02   0.0000000E+00   3.0141880E-04  -3.1402048E-02   0.0000000E+00   3.0683188E-04  -3.1375811E-02   0.0000000E+00   3.2276523E-04  -3.1316750E-02   0.0000000E+00   3.4835961E-04  -3.1201042E-02   0.0000000E+00   3.8225728E-04  -3.0993856E-02   0.0000000E+00   4.2254562E-04  -3.0648146E-02   0.0000000E+00   4.6636854E-04  -3.0104287E-02   0.0000000E+00   5.0898764E-04  -6.0627367E-02   0.0000000E+00   7.2806585E-04  -6.0613170E-02   0.0000000E+00   7.4030377E-04  -6.0562011E-02   0.0000000E+00   7.7633059E-04  -6.0447518E-02   0.0000000E+00   8.3417294E-04  -6.0224202E-02   0.0000000E+00   9.1062213E-04  -5.9825428E-02   0.0000000E+00   1.0009286E-03  -5.9161022E-02   0.0000000E+00   1.0977049E-03  -5.8116388E-02   0.0000000E+00   1.1887628E-03  -9.9378832E-02   0.0000000E+00   1.4544225E-03  -9.9356651E-02   0.0000000E+00   1.4772544E-03  -9.9276327E-02   0.0000000E+00   1.5444511E-03  -9.9095501E-02   0.0000000E+00   1.6522130E-03  -9.8741174E-02   0.0000000E+00   1.7942067E-03  -9.8105676E-02   0.0000000E+00   1.9607139E-03  -9.7043119E-02   0.0000000E+00   2.1363120E-03  -9.5366262E-02   0.0000000E+00   2.2960023E-03  -1.4180955E-01   0.0000000E+00   2.4984989E-03  -1.4178114E-01   0.0000000E+00   2.5348323E-03  -1.4167680E-01   0.0000000E+00   2.6417226E-03  -1.4143802E-01   0.0000000E+00   2.8128587E-03  -1.4096387E-01   0.0000000E+00   3.0375032E-03  -1.4010453E-01   0.0000000E+00   3.2987732E-03  -1.3865545E-01   0.0000000E+00   3.5695594E-03  -1.3635205E-01   0.0000000E+00   3.8067745E-03   0.0000000E+00   0.0000000E+00   0.0000000E+00   0.0000000E+00   0.0000000E+00   0.0000000E+00   0.0000000E+00   0.0000000E+00   0.0000000E+00   0.0000000E+00   0.0000000E+00   0.0000000E+00   0.0000000E+00   0.0000000E+00   0.0000000E+00   0.0000000E+00   0.0000000E+00   0.0000000E+00   0.0000000E+00   0.0000000E+00   0.0000000E+00   0.0000000E+00   0.0000000E+00   0.0000000E+00   0.0000000E+00   0.0000000E+00   0.0000000E+00   0.0000000E+00   0.0000000E+00   0.0000000E+00   0.0000000E+00   0.0000000E+00   0.0000000E+00   0.0000000E+00   0.0000000E+00   0.0000000E+00   0.0000000E+00   0.0000000E+00   0.0000000E+00   0.0000000E+00   0.0000000E+00   0.0000000E+00   0.0000000E+00   0.0000000E+00   0.0000000E+00   0.0000000E+00   0.0000000E+00   0.0000000E+00   0.0000000E+00   0.0000000E+00   0.0000000E+00   0.0000000E+00   0.0000000E+00   0.0000000E+00   0.0000000E+00   0.0000000E+00   0.0000000E+00   0.0000000E+00   0.0000000E+00   0.0000000E+00   0.0000000E+00   0.0000000E+00   0.0000000E+00   0.0000000E+00   0.0000000E+00   0.0000000E+00   0.0000000E+00   0.0000000E+00   0.0000000E+00   0.0000000E+00   0.0000000E+00   0.0000000E+00   0.0000000E+00   0.0000000E+00   0.0000000E+00   0.0000000E+00   0.0000000E+00   0.0000000E+00   0.0000000E+00   0.0000000E+00   0.0000000E+00  -1.9391522E-05   0.0000000E+00   3.4374267E-08  -1.8714667E-05   0.0000000E+00   3.7180587E-08  -1.7752182E-05   0.0000000E+00   3.8656388E-08  -1.6446651E-05   0.0000000E+00   3.7626428E-08  -1.4761456E-05   0.0000000E+00   3.1500488E-08  -1.2342323E-05   0.0000000E+00  -1.9524840E-08  -8.0993323E-06   0.0000000E+00  -1.4205133E-07  -3.3256856E-06   0.0000000E+00  -1.5560144E-07  -5.0270899E-07   0.0000000E+00  -4.6036764E-08  -7.0597755E-04   0.0000000E+00   4.2620218E-06  -6.7959732E-04   0.0000000E+00   4.5584216E-06  -6.4289250E-04   0.0000000E+00   4.6437926E-06  -5.9267960E-04   0.0000000E+00   3.9328020E-06  -5.1853724E-04   0.0000000E+00   4.5577696E-07  -4.1472749E-04   0.0000000E+00  -5.4613442E-06  -2.9101645E-04   0.0000000E+00  -1.0620306E-05  -1.7003075E-04   0.0000000E+00  -1.2100687E-05  -7.6232878E-05   0.0000000E+00  -9.2913851E-06  -3.8913733E-03   0.0000000E+00   4.0494499E-05  -3.7409398E-03   0.0000000E+00   4.2644620E-05  -3.5291708E-03   0.0000000E+00   4.0402192E-05  -3.2265109E-03   0.0000000E+00   2.5698089E-05  -2.8092689E-03   0.0000000E+00  -4.3537229E-06  -2.2778690E-03   0.0000000E+00  -4.3746153E-05  -1.6755973E-03   0.0000000E+00  -7.8070669E-05  -1.0859129E-03   0.0000000E+00  -9.4185256E-05  -5.9760932E-04   0.0000000E+00  -8.7186541E-05  -1.2359185E-02   0.0000000E+00   1.8102716E-04  -1.1868726E-02   0.0000000E+00   1.8529469E-04  -1.1168726E-02   0.0000000E+00   1.6247589E-04  -1.0193939E-02   0.0000000E+00   9.4696392E-05  -8.8988142E-03   0.0000000E+00  -2.3498100E-05  -7.2985943E-03   0.0000000E+00  -1.7080911E-04  -5.5103777E-03   0.0000000E+00  -3.0186979E-04  -3.7492081E-03   0.0000000E+00  -3.7627580E-04  -2.2490560E-03   0.0000000E+00  -3.7717458E-04  -2.9290337E-02   0.0000000E+00   5.4173893E-04  -2.8109025E-02   0.0000000E+00   5.3833623E-04  -2.6437288E-02   0.0000000E+00   4.5789740E-04  -2.4146378E-02   0.0000000E+00   2.5889129E-04  -2.1150699E-02   0.0000000E+00  -6.8715111E-05  -1.7490895E-02   0.0000000E+00  -4.6916868E-04  -1.3414280E-02   0.0000000E+00  -8.3113048E-04  -9.3756793E-03   0.0000000E+00  -1.0566682E-03  -5.8791442E-03   0.0000000E+00  -1.1034739E-03  -5.6549072E-02   0.0000000E+00   1.2488334E-03  -5.4275591E-02   0.0000000E+00   1.2214585E-03  -5.1078215E-02   0.0000000E+00   1.0246126E-03  -4.6728384E-02   0.0000000E+00   5.7372416E-04  -4.1074991E-02   0.0000000E+00  -1.4775092E-04  -3.4184299E-02   0.0000000E+00  -1.0254340E-03  -2.6485607E-02   0.0000000E+00  -1.8318332E-03  -1.8804789E-02   0.0000000E+00  -2.3615356E-03  -1.2088737E-02   0.0000000E+00  -2.5237305E-03  -9.2840560E-02   0.0000000E+00   2.3876166E-03  -8.9178257E-02   0.0000000E+00   2.3149848E-03  -8.4036067E-02   0.0000000E+00   1.9296574E-03  -7.7051945E-02   0.0000000E+00   1.0844171E-03  -6.7979395E-02   0.0000000E+00  -2.5060363E-04  -5.6890782E-02   0.0000000E+00  -1.8854818E-03  -4.4408482E-02   0.0000000E+00  -3.4215569E-03  -3.1832971E-02   0.0000000E+00  -4.4664163E-03  -2.0750647E-02   0.0000000E+00  -4.8375069E-03  -1.3286442E-01   0.0000000E+00   3.9282576E-03  -1.2779389E-01   0.0000000E+00   3.7871040E-03  -1.2065636E-01   0.0000000E+00   3.1499299E-03  -1.1093499E-01   0.0000000E+00   1.7917312E-03  -9.8264404E-02   0.0000000E+00  -3.4268523E-04  -8.2698204E-02   0.0000000E+00  -2.9926661E-03  -6.5008759E-02   0.0000000E+00  -5.5646063E-03  -4.6943504E-02   0.0000000E+00  -7.3716026E-03  -3.0874262E-02   0.0000000E+00  -8.0556292E-03  -6.1575562E-02   0.0000000E+00  -1.0724557E-02  -4.0853478E-02   0.0000000E+00  -1.1864858E-02  -4.9305160E-02   0.0000000E+00  -1.5604617E-02  -5.6172129E-02   0.0000000E+00  -1.8517062E-02  -6.2547907E-02   0.0000000E+00  -2.0295495E-02  -7.0094258E-02   0.0000000E+00  -2.1081336E-02  -8.0983847E-02   0.0000000E+00  -2.1352222E-02  -9.7444430E-02   0.0000000E+00  -2.1875979E-02  -1.2140131E-01   0.0000000E+00  -2.3730395E-02  -1.5336461E-01   0.0000000E+00  -2.8452575E-02  -1.9006902E-01   0.0000000E+00  -3.8372297E-02  -2.2418000E-01   0.0000000E+00  -5.6798387E-02   0.0000000E+00   0.0000000E+00   0.0000000E+00   0.0000000E+00   0.0000000E+00   0.0000000E+00   0.0000000E+00   0.0000000E+00   0.0000000E+00   0.0000000E+00   0.0000000E+00   0.0000000E+00   0.0000000E+00   0.0000000E+00   0.0000000E+00   0.0000000E+00   0.0000000E+00   0.0000000E+00   0.0000000E+00   0.0000000E+00   0.0000000E+00   0.0000000E+00   0.0000000E+00   0.0000000E+00   0.0000000E+00   0.0000000E+00   0.0000000E+00   0.0000000E+00   0.0000000E+00   0.0000000E+00   0.0000000E+00   0.0000000E+00   0.0000000E+00   0.0000000E+00   0.0000000E+00   0.0000000E+00   0.0000000E+00   0.0000000E+00   0.0000000E+00   0.0000000E+00   0.0000000E+00   0.0000000E+00   0.0000000E+00   0.0000000E+00   0.0000000E+00  -2.2098071E-05   0.0000000E+00  -4.2849551E-06  -2.4003452E-06   0.0000000E+00  -6.7732412E-07   0.0000000E+00   0.0000000E+00   0.0000000E+00   0.0000000E+00   0.0000000E+00   0.0000000E+00  -2.6278806E-04   0.0000000E+00  -6.0989838E-05  -8.0690283E-05   0.0000000E+00  -2.7719914E-05  -1.1207595E-05   0.0000000E+00  -4.9154696E-06  -3.8234131E-15   0.0000000E+00  -1.6951027E-15  -1.1543805E-03   0.0000000E+00  -3.0824560E-04  -4.7886034E-04   0.0000000E+00  -1.9103529E-04  -1.4002349E-04   0.0000000E+00  -7.3057323E-05  -1.8954459E-05   0.0000000E+00  -1.0298763E-05  -3.2511007E-03   0.0000000E+00  -9.7216741E-04  -1.5388615E-03   0.0000000E+00  -6.9109100E-04  -5.8333593E-04   0.0000000E+00  -3.4636765E-04  -1.4965271E-04   0.0000000E+00  -9.5249132E-05  -6.9618393E-03   0.0000000E+00  -2.3146456E-03  -3.5301051E-03   0.0000000E+00  -1.7674773E-03  -1.5158951E-03   0.0000000E+00  -1.0106938E-03  -5.0193543E-04   0.0000000E+00  -3.6402611E-04  -1.2222959E-02   0.0000000E+00  -4.5337770E-03  -6.4384751E-03   0.0000000E+00  -3.6007096E-03  -2.9556653E-03   0.0000000E+00  -2.2129826E-03  -1.1103392E-03   0.0000000E+00  -9.1527659E-04  -1.8420678E-02   0.0000000E+00  -7.6362952E-03  -9.9080773E-03   0.0000000E+00  -6.1959871E-03  -4.7148983E-03   0.0000000E+00  -3.9681732E-03  -1.8909242E-03   0.0000000E+00  -1.7745633E-03  -2.4578676E-02   0.0000000E+00  -1.1325502E-02  -1.3374722E-02   0.0000000E+00  -9.2991451E-03  -6.4820331E-03   0.0000000E+00  -6.1013070E-03  -2.6822030E-03   0.0000000E+00  -2.8564238E-03  -2.9878844E-02   0.0000000E+00  -1.5000661E-02  -1.6372072E-02   0.0000000E+00  -1.2425841E-02  -7.9965703E-03   0.0000000E+00  -8.2801189E-03  -3.3432734E-03   0.0000000E+00  -3.9832578E-03  -3.4225248E-02   0.0000000E+00  -1.8001106E-02  -1.8822275E-02   0.0000000E+00  -1.5058720E-02  -9.2053795E-03   0.0000000E+00  -1.0152771E-02  -3.8403131E-03   0.0000000E+00  -4.9635591E-03  -3.8249750E-02   0.0000000E+00  -1.9984299E-02  -2.1083929E-02   0.0000000E+00  -1.6900759E-02  -1.0304026E-02   0.0000000E+00  -1.1509097E-02  -4.2709466E-03   0.0000000E+00  -5.6829001E-03  -4.3177418E-02   0.0000000E+00  -2.1033134E-02  -2.3930946E-02   0.0000000E+00  -1.7978190E-02  -1.1718609E-02   0.0000000E+00  -1.2349572E-02  -4.8388364E-03   0.0000000E+00  -6.1431108E-03  -5.0644685E-02   0.0000000E+00  -2.1572376E-02  -2.8428052E-02   0.0000000E+00  -1.8599793E-02  -1.4049216E-02   0.0000000E+00  -1.2862256E-02  -5.8295093E-03   0.0000000E+00  -6.4418586E-03  -6.2418748E-02   0.0000000E+00  -2.2323012E-02  -3.5778005E-02   0.0000000E+00  -1.9337220E-02  -1.8006936E-02   0.0000000E+00  -1.3412741E-02  -7.6026339E-03   0.0000000E+00  -6.7512584E-03  -8.0201022E-02   0.0000000E+00  -2.4335202E-02  -4.7226954E-02   0.0000000E+00  -2.1078685E-02  -2.4404379E-02   0.0000000E+00  -1.4634839E-02  -1.0622847E-02   0.0000000E+00  -7.4093193E-03  -1.0456212E-01   0.0000000E+00  -2.9130857E-02  -6.3260354E-02   0.0000000E+00  -2.5161617E-02  -3.3739500E-02   0.0000000E+00  -1.7611785E-02  -1.5368147E-02   0.0000000E+00  -9.1406908E-03  -1.3244177E-01   0.0000000E+00  -3.8949478E-02  -8.1605650E-02   0.0000000E+00  -3.3574656E-02  -4.4932727E-02   0.0000000E+00  -2.4153961E-02  -2.1810625E-02   0.0000000E+00  -1.3456777E-02  -1.5725373E-01   0.0000000E+00  -5.6775894E-02  -9.7668856E-02   0.0000000E+00  -4.9014717E-02  -5.5287212E-02   0.0000000E+00  -3.6989197E-02   0.0000000E+00   0.0000000E+00   0.0000000E+00   0.0000000E+00   0.0000000E+00   0.0000000E+00   0.0000000E+00   0.0000000E+00   0.0000000E+00   0.0000000E+00   0.0000000E+00   0.0000000E+00   0.0000000E+00   0.0000000E+00   0.0000000E+00   0.0000000E+00   0.0000000E+00   0.0000000E+00   0.0000000E+00   0.0000000E+00   0.0000000E+00   0.0000000E+00   0.0000000E+00   0.0000000E+00   0.0000000E+00   0.0000000E+00   0.0000000E+00   0.0000000E+00   0.0000000E+00   0.0000000E+00   0.0000000E+00   0.0000000E+00   0.0000000E+00   0.0000000E+00   0.0000000E+00   0.0000000E+00   0.0000000E+00   0.0000000E+00   0.0000000E+00   0.0000000E+00   0.0000000E+00   0.0000000E+00   0.0000000E+00   0.0000000E+00   0.0000000E+00   0.0000000E+00   0.0000000E+00   0.0000000E+00   0.0000000E+00   0.0000000E+00   0.0000000E+00   0.0000000E+00   0.0000000E+00   0.0000000E+00   0.0000000E+00   0.0000000E+00   0.0000000E+00   0.0000000E+00   0.0000000E+00   0.0000000E+00   0.0000000E+00   0.0000000E+00   0.0000000E+00   0.0000000E+00   0.0000000E+00   0.0000000E+00   0.0000000E+00   0.0000000E+00   0.0000000E+00   0.0000000E+00   0.0000000E+00   0.0000000E+00   0.0000000E+00   0.0000000E+00   0.0000000E+00   0.0000000E+00   0.0000000E+00   0.0000000E+00   0.0000000E+00   0.0000000E+00   0.0000000E+00   0.0000000E+00   0.0000000E+00   0.0000000E+00   0.0000000E+00   0.0000000E+00   0.0000000E+00   0.0000000E+00   0.0000000E+00   0.0000000E+00   0.0000000E+00   0.0000000E+00   0.0000000E+00   0.0000000E+00   0.0000000E+00   0.0000000E+00   0.0000000E+00   0.0000000E+00   0.0000000E+00   0.0000000E+00   0.0000000E+00   0.0000000E+00   0.0000000E+00   0.0000000E+00   0.0000000E+00   0.0000000E+00   0.0000000E+00   0.0000000E+00   0.0000000E+00   0.0000000E+00   0.0000000E+00   0.0000000E+00   0.0000000E+00   0.0000000E+00   0.0000000E+00   0.0000000E+00   0.0000000E+00   0.0000000E+00   0.0000000E+00   0.0000000E+00   0.0000000E+00   0.0000000E+00   0.0000000E+00   0.0000000E+00   0.0000000E+00   0.0000000E+00   0.0000000E+00   0.0000000E+00   0.0000000E+00   0.0000000E+00   0.0000000E+00   0.0000000E+00   0.0000000E+00   0.0000000E+00   0.0000000E+00   0.0000000E+00   0.0000000E+00   0.0000000E+00   0.0000000E+00   0.0000000E+00   0.0000000E+00   0.0000000E+00   0.0000000E+00   0.0000000E+00   0.0000000E+00   0.0000000E+00   0.0000000E+00   0.0000000E+00   0.0000000E+00   0.0000000E+00   0.0000000E+00   0.0000000E+00   0.0000000E+00   0.0000000E+00   0.0000000E+00   0.0000000E+00   0.0000000E+00   0.0000000E+00   0.0000000E+00   0.0000000E+00   0.0000000E+00   0.0000000E+00   0.0000000E+00   0.0000000E+00   0.0000000E+00   0.0000000E+00   0.0000000E+00   0.0000000E+00   0.0000000E+00   0.0000000E+00   0.0000000E+00   0.0000000E+00   0.0000000E+00   0.0000000E+00   0.0000000E+00   0.0000000E+00   0.0000000E+00   0.0000000E+00   0.0000000E+00   0.0000000E+00   0.0000000E+00   0.0000000E+00   0.0000000E+00   0.0000000E+00   0.0000000E+00   0.0000000E+00   0.0000000E+00   0.0000000E+00   0.0000000E+00   0.0000000E+00   0.0000000E+00   0.0000000E+00   0.0000000E+00   0.0000000E+00   0.0000000E+00   0.0000000E+00   0.0000000E+00   0.0000000E+00   0.0000000E+00   0.0000000E+00   0.0000000E+00   0.0000000E+00   0.0000000E+00   0.0000000E+00   0.0000000E+00   0.0000000E+00   0.0000000E+00   0.0000000E+00   0.0000000E+00   0.0000000E+00   0.0000000E+00   0.0000000E+00   0.0000000E+00   0.0000000E+00   0.0000000E+00   0.0000000E+00   0.0000000E+00   0.0000000E+00   0.0000000E+00   0.0000000E+00   0.0000000E+00   0.0000000E+00   0.0000000E+00   0.0000000E+00   0.0000000E+00   0.0000000E+00   0.0000000E+00   0.0000000E+00   0.0000000E+00   0.0000000E+00   0.0000000E+00   0.0000000E+00   0.0000000E+00   0.0000000E+00   0.0000000E+00   0.0000000E+00   0.0000000E+00   0.0000000E+00   0.0000000E+00   0.0000000E+00   0.0000000E+00   0.0000000E+00   0.0000000E+00   0.0000000E+00   0.0000000E+00   0.0000000E+00   0.0000000E+00   0.0000000E+00   0.0000000E+00   0.0000000E+00   0.0000000E+00   0.0000000E+00   0.0000000E+00   0.0000000E+00   0.0000000E+00   0.0000000E+00   0.0000000E+00   0.0000000E+00   0.0000000E+00   0.0000000E+00   0.0000000E+00   0.0000000E+00   0.0000000E+00   0.0000000E+00   0.0000000E+00   0.0000000E+00   0.0000000E+00   0.0000000E+00   0.0000000E+00   0.0000000E+00   0.0000000E+00   0.0000000E+00   0.0000000E+00   0.0000000E+00   0.0000000E+00   0.0000000E+00   0.0000000E+00   0.0000000E+00   0.0000000E+00   0.0000000E+00   0.0000000E+00   0.0000000E+00   0.0000000E+00   0.0000000E+00   0.0000000E+00   0.0000000E+00   0.0000000E+00   0.0000000E+00   0.0000000E+00   0.0000000E+00   0.0000000E+00   0.0000000E+00   0.0000000E+00   0.0000000E+00   0.0000000E+00   0.0000000E+00   0.0000000E+00   0.0000000E+00   0.0000000E+00   0.0000000E+00   0.0000000E+00   0.0000000E+00   0.0000000E+00   0.0000000E+00   0.0000000E+00   0.0000000E+00   0.0000000E+00   0.0000000E+00   0.0000000E+00   0.0000000E+00   0.0000000E+00   0.0000000E+00   0.0000000E+00   0.0000000E+00   0.0000000E+00   0.0000000E+00   0.0000000E+00   0.0000000E+00   0.0000000E+00   0.0000000E+00   0.0000000E+00   0.0000000E+00   0.0000000E+00   0.0000000E+00   0.0000000E+00   0.0000000E+00   0.0000000E+00   0.0000000E+00   0.0000000E+00   0.0000000E+00   0.0000000E+00   0.0000000E+00   0.0000000E+00   0.0000000E+00   0.0000000E+00   0.0000000E+00   0.0000000E+00   0.0000000E+00   0.0000000E+00   0.0000000E+00   0.0000000E+00   0.0000000E+00   0.0000000E+00   0.0000000E+00   0.0000000E+00   0.0000000E+00   0.0000000E+00   0.0000000E+00   0.0000000E+00   0.0000000E+00   0.0000000E+00   0.0000000E+00   0.0000000E+00   0.0000000E+00   0.0000000E+00   0.0000000E+00   0.0000000E+00   0.0000000E+00   0.0000000E+00   0.0000000E+00   0.0000000E+00   0.0000000E+00   0.0000000E+00   0.0000000E+00   0.0000000E+00   0.0000000E+00   0.0000000E+00   0.0000000E+00   0.0000000E+00   0.0000000E+00   0.0000000E+00   0.0000000E+00   0.0000000E+00   0.0000000E+00   0.0000000E+00   0.0000000E+00   0.0000000E+00   0.0000000E+00   0.0000000E+00   0.0000000E+00   0.0000000E+00   0.0000000E+00   0.0000000E+00   0.0000000E+00   0.0000000E+00   0.0000000E+00   0.0000000E+00   0.0000000E+00   0.0000000E+00   0.0000000E+00   0.0000000E+00   0.0000000E+00   0.0000000E+00   0.0000000E+00   0.0000000E+00   0.0000000E+00   0.0000000E+00   0.0000000E+00   0.0000000E+00   0.0000000E+00   0.0000000E+00   0.0000000E+00   0.0000000E+00   0.0000000E+00   0.0000000E+00   0.0000000E+00   0.0000000E+00   0.0000000E+00   0.0000000E+00   0.0000000E+00   0.0000000E+00   0.0000000E+00   0.0000000E+00   0.0000000E+00   0.0000000E+00   0.0000000E+00   0.0000000E+00   0.0000000E+00   0.0000000E+00   0.0000000E+00   0.0000000E+00   0.0000000E+00   0.0000000E+00   0.0000000E+00   0.0000000E+00   0.0000000E+00   0.0000000E+00   0.0000000E+00   0.0000000E+00   0.0000000E+00   0.0000000E+00   0.0000000E+00   0.0000000E+00   0.0000000E+00   0.0000000E+00   0.0000000E+00   0.0000000E+00   0.0000000E+00   0.0000000E+00   0.0000000E+00   0.0000000E+00   0.0000000E+00   0.0000000E+00   0.0000000E+00   0.0000000E+00   0.0000000E+00   0.0000000E+00   0.0000000E+00   0.0000000E+00   0.0000000E+00   0.0000000E+00   0.0000000E+00   0.0000000E+00   0.0000000E+00   0.0000000E+00   0.0000000E+00   0.0000000E+00   0.0000000E+00   0.0000000E+00   0.0000000E+00   0.0000000E+00   0.0000000E+00   0.0000000E+00   0.0000000E+00   0.0000000E+00   0.0000000E+00   0.0000000E+00   0.0000000E+00   0.0000000E+00   0.0000000E+00   0.0000000E+00   0.0000000E+00   0.0000000E+00   0.0000000E+00   0.0000000E+00   0.0000000E+00   0.0000000E+00   0.0000000E+00   0.0000000E+00   0.0000000E+00   0.0000000E+00   0.0000000E+00   0.0000000E+00   0.0000000E+00   0.0000000E+00   0.0000000E+00   0.0000000E+00   0.0000000E+00   0.0000000E+00   0.0000000E+00   0.0000000E+00   0.0000000E+00   0.0000000E+00   0.0000000E+00   0.0000000E+00   0.0000000E+00   0.0000000E+00   0.0000000E+00   0.0000000E+00   0.0000000E+00   0.0000000E+00   0.0000000E+00   0.0000000E+00   0.0000000E+00   0.0000000E+00   0.0000000E+00   0.0000000E+00   0.0000000E+00   0.0000000E+00   0.0000000E+00   0.0000000E+00   0.0000000E+00   0.0000000E+00   0.0000000E+00   0.0000000E+00   0.0000000E+00   0.0000000E+00   0.0000000E+00   0.0000000E+00   0.0000000E+00   0.0000000E+00   0.0000000E+00   0.0000000E+00   0.0000000E+00   0.0000000E+00   0.0000000E+00   0.0000000E+00   0.0000000E+00   0.0000000E+00   0.0000000E+00   0.0000000E+00   0.0000000E+00   0.0000000E+00   0.0000000E+00   0.0000000E+00   0.0000000E+00   0.0000000E+00   0.0000000E+00   0.0000000E+00   0.0000000E+00   0.0000000E+00   0.0000000E+00   0.0000000E+00   0.0000000E+00   0.0000000E+00   0.0000000E+00   0.0000000E+00   0.0000000E+00   0.0000000E+00   0.0000000E+00   0.0000000E+00   0.0000000E+00   0.0000000E+00   0.0000000E+00   0.0000000E+00   0.0000000E+00   0.0000000E+00   0.0000000E+00   0.0000000E+00   0.0000000E+00   0.0000000E+00   0.0000000E+00   0.0000000E+00   0.0000000E+00   0.0000000E+00   0.0000000E+00   0.0000000E+00   0.0000000E+00   0.0000000E+00   0.0000000E+00   0.0000000E+00   0.0000000E+00   0.0000000E+00   0.0000000E+00   0.0000000E+00   0.0000000E+00   0.0000000E+00   0.0000000E+00   0.0000000E+00   0.0000000E+00   0.0000000E+00   0.0000000E+00   0.0000000E+00   0.0000000E+00   0.0000000E+00   0.0000000E+00   0.0000000E+00   0.0000000E+00   0.0000000E+00   0.0000000E+00   0.0000000E+00   0.0000000E+00   0.0000000E+00   0.0000000E+00   0.0000000E+00   0.0000000E+00   0.0000000E+00   0.0000000E+00   0.0000000E+00   0.0000000E+00   0.0000000E+00   0.0000000E+00   0.0000000E+00   0.0000000E+00   0.0000000E+00   0.0000000E+00   0.0000000E+00   0.0000000E+00   0.0000000E+00   0.0000000E+00   0.0000000E+00   0.0000000E+00   0.0000000E+00   0.0000000E+00   0.0000000E+00   0.0000000E+00   0.0000000E+00   0.0000000E+00   0.0000000E+00   0.0000000E+00   0.0000000E+00   0.0000000E+00   0.0000000E+00   0.0000000E+00   0.0000000E+00   0.0000000E+00   0.0000000E+00   0.0000000E+00   0.0000000E+00   0.0000000E+00   0.0000000E+00   0.0000000E+00   0.0000000E+00   0.0000000E+00   0.0000000E+00   0.0000000E+00   0.0000000E+00   0.0000000E+00   0.0000000E+00   0.0000000E+00   0.0000000E+00   0.0000000E+00   0.0000000E+00   0.0000000E+00   0.0000000E+00   0.0000000E+00   0.0000000E+00   0.0000000E+00   0.0000000E+00   0.0000000E+00   0.0000000E+00   0.0000000E+00   0.0000000E+00   0.0000000E+00   0.0000000E+00   0.0000000E+00   0.0000000E+00   0.0000000E+00   0.0000000E+00   0.0000000E+00   0.0000000E+00   0.0000000E+00   0.0000000E+00   0.0000000E+00   0.0000000E+00   0.0000000E+00   0.0000000E+00   0.0000000E+00   0.0000000E+00   0.0000000E+00   0.0000000E+00   0.0000000E+00   0.0000000E+00   0.0000000E+00   0.0000000E+00   0.0000000E+00   0.0000000E+00   0.0000000E+00   0.0000000E+00   0.0000000E+00   0.0000000E+00   0.0000000E+00   0.0000000E+00   0.0000000E+00   0.0000000E+00   0.0000000E+00   0.0000000E+00   0.0000000E+00   0.0000000E+00   0.0000000E+00   0.0000000E+00   0.0000000E+00   0.0000000E+00   0.0000000E+00   0.0000000E+00   0.0000000E+00   0.0000000E+00   0.0000000E+00   0.0000000E+00   0.0000000E+00   0.0000000E+00   0.0000000E+00   0.0000000E+00   0.0000000E+00   0.0000000E+00   0.0000000E+00   0.0000000E+00   0.0000000E+00   0.0000000E+00   0.0000000E+00   0.0000000E+00   0.0000000E+00   0.0000000E+00   0.0000000E+00   0.0000000E+00   0.0000000E+00   0.0000000E+00   0.0000000E+00   0.0000000E+00   0.0000000E+00   0.0000000E+00   0.0000000E+00   0.0000000E+00   0.0000000E+00   0.0000000E+00   0.0000000E+00   0.0000000E+00   0.0000000E+00   0.0000000E+00   0.0000000E+00   0.0000000E+00   0.0000000E+00   0.0000000E+00   0.0000000E+00   0.0000000E+00   0.0000000E+00   0.0000000E+00   0.0000000E+00   0.0000000E+00   0.0000000E+00   0.0000000E+00   0.0000000E+00   0.0000000E+00   0.0000000E+00   0.0000000E+00   0.0000000E+00   0.0000000E+00   0.0000000E+00   0.0000000E+00   0.0000000E+00   0.0000000E+00   0.0000000E+00   0.0000000E+00   0.0000000E+00   0.0000000E+00   0.0000000E+00   0.0000000E+00   0.0000000E+00   0.0000000E+00   0.0000000E+00   0.0000000E+00   0.0000000E+00   0.0000000E+00   0.0000000E+00   0.0000000E+00   0.0000000E+00   0.0000000E+00   0.0000000E+00   0.0000000E+00   0.0000000E+00   0.0000000E+00   0.0000000E+00   0.0000000E+00   0.0000000E+00   0.0000000E+00   0.0000000E+00   0.0000000E+00   0.0000000E+00   0.0000000E+00   0.0000000E+00   0.0000000E+00   0.0000000E+00   0.0000000E+00   0.0000000E+00   0.0000000E+00   0.0000000E+00   0.0000000E+00   0.0000000E+00   0.0000000E+00   0.0000000E+00   0.0000000E+00   0.0000000E+00   0.0000000E+00   0.0000000E+00   0.0000000E+00   0.0000000E+00   0.0000000E+00   0.0000000E+00   0.0000000E+00   0.0000000E+00   0.0000000E+00   0.0000000E+00   0.0000000E+00   0.0000000E+00   0.0000000E+00   0.0000000E+00   0.0000000E+00   0.0000000E+00   0.0000000E+00   0.0000000E+00   0.0000000E+00   0.0000000E+00   0.0000000E+00   0.0000000E+00   0.0000000E+00   0.0000000E+00   0.0000000E+00   0.0000000E+00   0.0000000E+00   0.0000000E+00   0.0000000E+00   0.0000000E+00   0.0000000E+00   0.0000000E+00   0.0000000E+00   0.0000000E+00   0.0000000E+00   0.0000000E+00   0.0000000E+00   0.0000000E+00   0.0000000E+00   0.0000000E+00   0.0000000E+00   0.0000000E+00   0.0000000E+00   0.0000000E+00   0.0000000E+00   0.0000000E+00   0.0000000E+00   0.0000000E+00   0.0000000E+00   0.0000000E+00   0.0000000E+00   0.0000000E+00   0.0000000E+00   0.0000000E+00   0.0000000E+00   0.0000000E+00   0.0000000E+00   0.0000000E+00   0.0000000E+00   0.0000000E+00   0.0000000E+00   0.0000000E+00   0.0000000E+00   0.0000000E+00   0.0000000E+00   0.0000000E+00   0.0000000E+00   0.0000000E+00   0.0000000E+00   0.0000000E+00   0.0000000E+00   0.0000000E+00   0.0000000E+00   0.0000000E+00   0.0000000E+00   0.0000000E+00   0.0000000E+00   0.0000000E+00   0.0000000E+00   0.0000000E+00   0.0000000E+00   0.0000000E+00   0.0000000E+00   0.0000000E+00   0.0000000E+00   0.0000000E+00   0.0000000E+00   0.0000000E+00   0.0000000E+00   0.0000000E+00   0.0000000E+00   0.0000000E+00   0.0000000E+00   0.0000000E+00   0.0000000E+00   0.0000000E+00   0.0000000E+00   0.0000000E+00   0.0000000E+00   0.0000000E+00   0.0000000E+00   0.0000000E+00   0.0000000E+00   0.0000000E+00   0.0000000E+00   0.0000000E+00   0.0000000E+00   0.0000000E+00   0.0000000E+00   0.0000000E+00   0.0000000E+00   0.0000000E+00   0.0000000E+00   0.0000000E+00   0.0000000E+00   0.0000000E+00   0.0000000E+00   0.0000000E+00   0.0000000E+00   0.0000000E+00   0.0000000E+00   0.0000000E+00   0.0000000E+00   0.0000000E+00   0.0000000E+00   0.0000000E+00   0.0000000E+00   0.0000000E+00   0.0000000E+00   0.0000000E+00   0.0000000E+00   0.0000000E+00   0.0000000E+00   0.0000000E+00   0.0000000E+00   0.0000000E+00   0.0000000E+00   0.0000000E+00   0.0000000E+00   0.0000000E+00   0.0000000E+00   0.0000000E+00   0.0000000E+00   0.0000000E+00   0.0000000E+00   0.0000000E+00   0.0000000E+00   0.0000000E+00   0.0000000E+00   0.0000000E+00   0.0000000E+00   0.0000000E+00   0.0000000E+00   0.0000000E+00   0.0000000E+00   0.0000000E+00   0.0000000E+00   0.0000000E+00   0.0000000E+00   0.0000000E+00   0.0000000E+00   0.0000000E+00   0.0000000E+00   0.0000000E+00   0.0000000E+00   0.0000000E+00   0.0000000E+00   0.0000000E+00   0.0000000E+00   0.0000000E+00   0.0000000E+00   0.0000000E+00   0.0000000E+00   0.0000000E+00   0.0000000E+00   0.0000000E+00   0.0000000E+00   0.0000000E+00   0.0000000E+00   0.0000000E+00   0.0000000E+00   0.0000000E+00   0.0000000E+00   0.0000000E+00   0.0000000E+00   0.0000000E+00   0.0000000E+00   0.0000000E+00   0.0000000E+00   0.0000000E+00   0.0000000E+00   0.0000000E+00   0.0000000E+00   0.0000000E+00   0.0000000E+00   0.0000000E+00   0.0000000E+00   0.0000000E+00   0.0000000E+00   0.0000000E+00   0.0000000E+00   0.0000000E+00   0.0000000E+00   0.0000000E+00   0.0000000E+00   0.0000000E+00   0.0000000E+00   0.0000000E+00   0.0000000E+00   0.0000000E+00   0.0000000E+00   0.0000000E+00   0.0000000E+00   0.0000000E+00   0.0000000E+00   0.0000000E+00   0.0000000E+00   0.0000000E+00   0.0000000E+00   0.0000000E+00   0.0000000E+00   0.0000000E+00   0.0000000E+00   0.0000000E+00   0.0000000E+00   0.0000000E+00   0.0000000E+00   0.0000000E+00   0.0000000E+00   0.0000000E+00   0.0000000E+00   0.0000000E+00   0.0000000E+00   0.0000000E+00   0.0000000E+00   0.0000000E+00   0.0000000E+00   0.0000000E+00   0.0000000E+00   0.0000000E+00   0.0000000E+00   0.0000000E+00   0.0000000E+00   0.0000000E+00   0.0000000E+00   0.0000000E+00   0.0000000E+00   0.0000000E+00   0.0000000E+00   0.0000000E+00   0.0000000E+00   0.0000000E+00   0.0000000E+00   0.0000000E+00   0.0000000E+00   0.0000000E+00   0.0000000E+00   0.0000000E+00   0.0000000E+00   0.0000000E+00   0.0000000E+00   0.0000000E+00   0.0000000E+00   0.0000000E+00   0.0000000E+00   0.0000000E+00   0.0000000E+00   0.0000000E+00   0.0000000E+00   0.0000000E+00   0.0000000E+00   0.0000000E+00   0.0000000E+00   0.0000000E+00   0.0000000E+00   0.0000000E+00   0.0000000E+00   0.0000000E+00   0.0000000E+00   0.0000000E+00   0.0000000E+00   0.0000000E+00   0.0000000E+00   0.0000000E+00   0.0000000E+00   0.0000000E+00   0.0000000E+00   0.0000000E+00   0.0000000E+00   0.0000000E+00   0.0000000E+00   0.0000000E+00   0.0000000E+00   0.0000000E+00   0.0000000E+00   0.0000000E+00   0.0000000E+00   0.0000000E+00   0.0000000E+00   0.0000000E+00   0.0000000E+00   0.0000000E+00   0.0000000E+00   0.0000000E+00   0.0000000E+00   0.0000000E+00   0.0000000E+00   0.0000000E+00   0.0000000E+00   0.0000000E+00   0.0000000E+00   0.0000000E+00   0.0000000E+00   0.0000000E+00   0.0000000E+00   0.0000000E+00   0.0000000E+00   0.0000000E+00   0.0000000E+00   0.0000000E+00   0.0000000E+00   0.0000000E+00   0.0000000E+00   0.0000000E+00   0.0000000E+00   0.0000000E+00   0.0000000E+00   0.0000000E+00   0.0000000E+00   0.0000000E+00   0.0000000E+00   0.0000000E+00   0.0000000E+00   0.0000000E+00   0.0000000E+00   0.0000000E+00   0.0000000E+00   0.0000000E+00   0.0000000E+00   0.0000000E+00   0.0000000E+00   0.0000000E+00   0.0000000E+00   0.0000000E+00   0.0000000E+00   0.0000000E+00   0.0000000E+00   0.0000000E+00   0.0000000E+00   0.0000000E+00   0.0000000E+00   0.0000000E+00   0.0000000E+00   0.0000000E+00   0.0000000E+00   0.0000000E+00   0.0000000E+00   0.0000000E+00   0.0000000E+00   0.0000000E+00   0.0000000E+00   0.0000000E+00   0.0000000E+00   0.0000000E+00   0.0000000E+00   0.0000000E+00   0.0000000E+00   0.0000000E+00   0.0000000E+00   0.0000000E+00   0.0000000E+00   0.0000000E+00   0.0000000E+00   0.0000000E+00   0.0000000E+00   0.0000000E+00   0.0000000E+00   0.0000000E+00   0.0000000E+00   0.0000000E+00   0.0000000E+00   0.0000000E+00   0.0000000E+00   0.0000000E+00   0.0000000E+00   0.0000000E+00   0.0000000E+00   0.0000000E+00   0.0000000E+00   0.0000000E+00   0.0000000E+00   0.0000000E+00   0.0000000E+00   0.0000000E+00   0.0000000E+00   0.0000000E+00   0.0000000E+00   0.0000000E+00   0.0000000E+00   0.0000000E+00   0.0000000E+00   0.0000000E+00   0.0000000E+00   0.0000000E+00   0.0000000E+00   0.0000000E+00   0.0000000E+00   0.0000000E+00   0.0000000E+00   0.0000000E+00   0.0000000E+00   0.0000000E+00   0.0000000E+00   0.0000000E+00   0.0000000E+00   0.0000000E+00   0.0000000E+00   0.0000000E+00   0.0000000E+00   0.0000000E+00   0.0000000E+00   0.0000000E+00   0.0000000E+00   0.0000000E+00   0.0000000E+00   0.0000000E+00   0.0000000E+00   0.0000000E+00   0.0000000E+00   0.0000000E+00   0.0000000E+00   0.0000000E+00   0.0000000E+00   0.0000000E+00   0.0000000E+00   0.0000000E+00   0.0000000E+00   0.0000000E+00   0.0000000E+00   0.0000000E+00   0.0000000E+00   0.0000000E+00   0.0000000E+00   0.0000000E+00   0.0000000E+00   0.0000000E+00   0.0000000E+00   0.0000000E+00   0.0000000E+00   0.0000000E+00   0.0000000E+00   0.0000000E+00   0.0000000E+00   0.0000000E+00   0.0000000E+00   0.0000000E+00   0.0000000E+00   0.0000000E+00   0.0000000E+00   0.0000000E+00   0.0000000E+00   0.0000000E+00   0.0000000E+00   0.0000000E+00   0.0000000E+00   0.0000000E+00   0.0000000E+00   0.0000000E+00   0.0000000E+00   0.0000000E+00   0.0000000E+00   0.0000000E+00   0.0000000E+00   0.0000000E+00   0.0000000E+00   0.0000000E+00   0.0000000E+00   0.0000000E+00   0.0000000E+00   0.0000000E+00   0.0000000E+00   0.0000000E+00   0.0000000E+00   0.0000000E+00   0.0000000E+00   0.0000000E+00   0.0000000E+00   0.0000000E+00   0.0000000E+00   0.0000000E+00   0.0000000E+00   0.0000000E+00   0.0000000E+00   0.0000000E+00   0.0000000E+00   0.0000000E+00   0.0000000E+00   0.0000000E+00   0.0000000E+00   0.0000000E+00   0.0000000E+00   0.0000000E+00   0.0000000E+00   0.0000000E+00   0.0000000E+00   0.0000000E+00   0.0000000E+00   0.0000000E+00   0.0000000E+00   0.0000000E+00   0.0000000E+00   0.0000000E+00   0.0000000E+00   0.0000000E+00   0.0000000E+00   0.0000000E+00   0.0000000E+00   0.0000000E+00   0.0000000E+00   0.0000000E+00   0.0000000E+00   0.0000000E+00   0.0000000E+00   0.0000000E+00   0.0000000E+00   0.0000000E+00   0.0000000E+00   0.0000000E+00   0.0000000E+00   0.0000000E+00   0.0000000E+00   0.0000000E+00   0.0000000E+00   0.0000000E+00   0.0000000E+00   0.0000000E+00   0.0000000E+00   0.0000000E+00   0.0000000E+00   0.0000000E+00   0.0000000E+00   0.0000000E+00   0.0000000E+00   0.0000000E+00   0.0000000E+00   0.0000000E+00   0.0000000E+00   0.0000000E+00   0.0000000E+00   0.0000000E+00   0.0000000E+00   0.0000000E+00   0.0000000E+00   0.0000000E+00   0.0000000E+00   0.0000000E+00   0.0000000E+00   0.0000000E+00   0.0000000E+00   0.0000000E+00   0.0000000E+00   0.0000000E+00   0.0000000E+00   0.0000000E+00   0.0000000E+00   0.0000000E+00   0.0000000E+00   0.0000000E+00   0.0000000E+00   0.0000000E+00   0.0000000E+00   0.0000000E+00   0.0000000E+00   0.0000000E+00   0.0000000E+00   0.0000000E+00   0.0000000E+00   0.0000000E+00   0.0000000E+00   0.0000000E+00   0.0000000E+00   0.0000000E+00   0.0000000E+00   0.0000000E+00   0.0000000E+00   0.0000000E+00   0.0000000E+00   0.0000000E+00   0.0000000E+00   0.0000000E+00   0.0000000E+00   0.0000000E+00   0.0000000E+00   0.0000000E+00   0.0000000E+00   0.0000000E+00   0.0000000E+00   0.0000000E+00   0.0000000E+00   0.0000000E+00   0.0000000E+00   0.0000000E+00   0.0000000E+00   0.0000000E+00   0.0000000E+00   0.0000000E+00   0.0000000E+00   0.0000000E+00   0.0000000E+00   0.0000000E+00   0.0000000E+00   0.0000000E+00   0.0000000E+00   0.0000000E+00   0.0000000E+00   0.0000000E+00   0.0000000E+00   0.0000000E+00   0.0000000E+00   0.0000000E+00   0.0000000E+00   0.0000000E+00   0.0000000E+00   0.0000000E+00  -8.4348544E-02   0.0000000E+00  -7.7912388E-03  -1.0640224E-01   0.0000000E+00  -4.1490332E-03  -1.2568340E-01   0.0000000E+00  -3.9425143E-04  -1.4127235E-01   0.0000000E+00   2.5966165E-03  -1.5314439E-01   0.0000000E+00   4.5071030E-03  -7.3673926E-02   0.0000000E+00  -1.2775803E-02  -1.0001081E-01   0.0000000E+00  -9.7996993E-03  -1.2521686E-01   0.0000000E+00  -5.1254453E-03  -1.4703828E-01   0.0000000E+00  -4.1901553E-04  -1.6447577E-01   0.0000000E+00   3.3060126E-03  -1.7758101E-01   0.0000000E+00   5.6970920E-03  -8.3452448E-02   0.0000000E+00  -1.5012789E-02  -1.1273266E-01   0.0000000E+00  -1.1224872E-02  -1.4037272E-01   0.0000000E+00  -5.7791518E-03  -1.6389319E-01   0.0000000E+00  -4.2859558E-04  -1.8233910E-01   0.0000000E+00   3.7698012E-03  -1.9592784E-01   0.0000000E+00   6.4694006E-03  -9.2553049E-02   0.0000000E+00  -1.6299697E-02  -1.2445017E-01   0.0000000E+00  -1.1958128E-02  -1.5411597E-01   0.0000000E+00  -6.0613067E-03  -1.7885146E-01   0.0000000E+00  -4.2192126E-04  -1.9779107E-01   0.0000000E+00   3.9359191E-03  -2.1138655E-01   0.0000000E+00   6.7238356E-03  -1.0319878E-01   0.0000000E+00  -1.6689207E-02  -1.3749713E-01   0.0000000E+00  -1.2034720E-02  -1.6882727E-01   0.0000000E+00  -6.0000340E-03  -1.9443867E-01   0.0000000E+00  -4.0945364E-04  -2.1359420E-01   0.0000000E+00   3.8140521E-03  -2.2694226E-01   0.0000000E+00   6.4865164E-03  -1.1924414E-01   0.0000000E+00  -1.6455691E-02  -1.5536784E-01   0.0000000E+00  -1.1661022E-02  -1.8736517E-01   0.0000000E+00  -5.7024583E-03  -2.1294700E-01   0.0000000E+00  -4.1748816E-04  -2.3178478E-01   0.0000000E+00   3.4449601E-03  -2.4467710E-01   0.0000000E+00   5.8608805E-03  -1.4615637E-01   0.0000000E+00  -1.5979921E-02  -1.8281370E-01   0.0000000E+00  -1.1184899E-02  -2.1312901E-01   0.0000000E+00  -5.3339992E-03  -2.3660514E-01   0.0000000E+00  -4.3615187E-04  -2.5375181E-01   0.0000000E+00   2.9542670E-03  -2.6555291E-01   0.0000000E+00   5.0380183E-03  -1.9051439E-01   0.0000000E+00  -1.5609569E-02  -2.2478454E-01   0.0000000E+00  -1.1050634E-02  -2.4920627E-01   0.0000000E+00  -5.0938828E-03  -2.6706201E-01   0.0000000E+00  -3.7899637E-04  -2.8021842E-01   0.0000000E+00   2.6233729E-03  -2.8970173E-01   0.0000000E+00   4.3784096E-03  -2.5798851E-01   0.0000000E+00  -1.5830878E-02  -2.8400949E-01   0.0000000E+00  -1.1699449E-02  -2.9656398E-01   0.0000000E+00  -5.0837398E-03  -3.0452719E-01   0.0000000E+00  -1.2975419E-05  -3.1106660E-01   0.0000000E+00   2.9264479E-03  -3.1680393E-01   0.0000000E+00   4.4460017E-03  -3.4817263E-01   0.0000000E+00  -1.9387279E-02  -3.5678887E-01   0.0000000E+00  -1.3876838E-02  -3.5194939E-01   0.0000000E+00  -5.2162353E-03  -3.4702632E-01   0.0000000E+00   1.1795796E-03  -3.4533620E-01   0.0000000E+00   4.5642098E-03  -3.4646499E-01   0.0000000E+00   5.9822556E-03  -4.4553277E-01   0.0000000E+00  -3.1830188E-02  -4.3000117E-01   0.0000000E+00  -1.8909328E-02  -4.0728769E-01   0.0000000E+00  -5.2176216E-03  -3.9032671E-01   0.0000000E+00   4.0819836E-03  -3.8113874E-01   0.0000000E+00   8.4443223E-03  -3.7800273E-01   0.0000000E+00   9.8219300E-03  -5.1451916E-01   0.0000000E+00  -4.0054947E-02  -4.8615694E-01   0.0000000E+00  -2.3212522E-02  -4.5350388E-01   0.0000000E+00  -3.3970778E-03  -4.2989731E-01   0.0000000E+00   9.8948283E-03  -4.1635418E-01   0.0000000E+00   1.5468570E-02  -4.1053388E-01   0.0000000E+00   1.6645379E-02  -5.4559863E-01   0.0000000E+00   8.6440928E-03  -5.1867193E-01   0.0000000E+00   7.3781982E-04  -4.8721004E-01   0.0000000E+00   8.3871828E-03  -4.6373799E-01   0.0000000E+00   2.0832930E-02  -4.4984525E-01   0.0000000E+00   2.6179342E-02  -4.4345492E-01   0.0000000E+00   2.6592482E-02  -5.5998415E-01   0.0000000E+00   6.1027404E-02  -5.3690368E-01   0.0000000E+00   4.3389637E-02  -5.1181394E-01   0.0000000E+00   3.3835750E-02  -4.9300206E-01   0.0000000E+00   3.7795324E-02  -4.8177996E-01   0.0000000E+00   3.9993361E-02  -4.7659802E-01   0.0000000E+00   3.8931139E-02  -5.6773400E-01   0.0000000E+00   8.9274324E-02  -5.4976010E-01   0.0000000E+00   7.4883886E-02  -5.3249061E-01   0.0000000E+00   6.0711339E-02  -5.2009052E-01   0.0000000E+00   5.6582656E-02  -5.1298600E-01   0.0000000E+00   5.4812133E-02  -5.1005512E-01   0.0000000E+00   5.2202992E-02  -5.7370442E-01   0.0000000E+00   9.7903073E-02  -5.6238383E-01   0.0000000E+00   9.0445459E-02  -5.5304587E-01   0.0000000E+00   7.9668216E-02  -5.4704672E-01   0.0000000E+00   7.2187543E-02  -5.4426205E-01   0.0000000E+00   6.8106093E-02  -5.4397267E-01   0.0000000E+00   6.4838327E-02  -5.8255863E-01   0.0000000E+00   9.8289229E-02  -5.7830316E-01   0.0000000E+00   9.6478008E-02  -5.7572210E-01   0.0000000E+00   8.9751102E-02  -5.7504404E-01   0.0000000E+00   8.2741939E-02  -5.7611048E-01   0.0000000E+00   7.8609899E-02  -5.7851875E-01   0.0000000E+00   7.5868562E-02  -5.9784216E-01   0.0000000E+00   9.5819704E-02  -5.9893286E-01   0.0000000E+00   9.7480096E-02  -6.0115135E-01   0.0000000E+00   9.4167948E-02  -6.0450345E-01   0.0000000E+00   8.9323193E-02  -6.0887271E-01   0.0000000E+00   8.6535759E-02  -6.1400038E-01   0.0000000E+00   8.5051164E-02  -6.1916298E-01   0.0000000E+00   9.4056159E-02  -6.2356091E-01   0.0000000E+00   9.7615071E-02  -6.2908167E-01   0.0000000E+00   9.6417308E-02  -6.3561630E-01   0.0000000E+00   9.3802460E-02  -6.4298803E-01   0.0000000E+00   9.2652366E-02  -6.5086800E-01   0.0000000E+00   9.2619009E-02  -6.4453191E-01   0.0000000E+00   9.4261721E-02  -6.5130568E-01   0.0000000E+00   9.8699488E-02  -6.5946376E-01   0.0000000E+00   9.8597221E-02  -6.6878897E-01   0.0000000E+00   9.7499676E-02  -6.7894983E-01   0.0000000E+00   9.7720295E-02  -6.8944371E-01   0.0000000E+00   9.9030569E-02  -6.7347461E-01   0.0000000E+00   9.6094728E-02  -6.8220204E-01   0.0000000E+00   1.0112863E-01  -6.9258702E-01   0.0000000E+00   1.0150681E-01  -7.0432991E-01   0.0000000E+00   1.0119442E-01  -7.1695960E-01   0.0000000E+00   1.0234281E-01  -7.2981447E-01   0.0000000E+00   1.0469443E-01  -7.0606053E-01   0.0000000E+00   9.8948307E-02  -7.1631461E-01   0.0000000E+00   1.0490729E-01  -7.2849882E-01   0.0000000E+00   1.0540602E-01  -7.4224311E-01   0.0000000E+00   1.0524278E-01  -7.5696647E-01   0.0000000E+00   1.0678413E-01  -7.7187675E-01   0.0000000E+00   1.0979421E-01  -7.4229538E-01   0.0000000E+00   1.0262198E-01  -7.5359243E-01   0.0000000E+00   1.0983326E-01  -7.6708055E-01   0.0000000E+00   1.1023647E-01  -7.8233492E-01   0.0000000E+00   1.0954750E-01  -7.9870534E-01   0.0000000E+00   1.1093719E-01  -8.1530029E-01   0.0000000E+00   1.1422149E-01  -7.8206110E-01   0.0000000E+00   1.0709012E-01  -7.9375505E-01   0.0000000E+00   1.1564372E-01  -8.0788201E-01   0.0000000E+00   1.1556649E-01  -8.2399774E-01   0.0000000E+00   1.1359923E-01  -8.4142160E-01   0.0000000E+00   1.1436951E-01  -8.5921216E-01   0.0000000E+00   1.1760937E-01  -8.2432985E-01   0.0000000E+00   1.1225931E-01  -8.3554673E-01   0.0000000E+00   1.2188017E-01  -8.4941459E-01   0.0000000E+00   1.2050741E-01  -8.6552101E-01   0.0000000E+00   1.1654861E-01  -8.8321435E-01   0.0000000E+00   1.1648460E-01  -9.0155268E-01   0.0000000E+00   1.1945218E-01  -8.6584908E-01   0.0000000E+00   1.1790560E-01  -8.7556529E-01   0.0000000E+00   1.2774789E-01  -8.8810533E-01   0.0000000E+00   1.2378181E-01  -9.0317070E-01   0.0000000E+00   1.1754119E-01  -9.2020404E-01   0.0000000E+00   1.1676862E-01  -9.3831390E-01   0.0000000E+00   1.1933939E-01  -8.9981925E-01   0.0000000E+00   1.2327234E-01  -9.0712035E-01   0.0000000E+00   1.3196479E-01  -9.1734290E-01   0.0000000E+00   1.2414317E-01  -9.3040317E-01   0.0000000E+00   1.1619172E-01  -9.4589639E-01   0.0000000E+00   1.1521003E-01  -9.6301955E-01   0.0000000E+00   1.1730469E-01  -9.1490674E-01   0.0000000E+00   1.2707102E-01  -9.1946322E-01   0.0000000E+00   1.3311103E-01  -9.2697257E-01   0.0000000E+00   1.2075368E-01  -9.3760210E-01   0.0000000E+00   1.1322226E-01  -9.5110399E-01   0.0000000E+00   1.1268817E-01  -9.6678317E-01   0.0000000E+00   1.1425670E-01  -8.9382422E-01   0.0000000E+00   1.2788209E-01  -8.9673042E-01   0.0000000E+00   1.3010263E-01  -9.0265858E-01   0.0000000E+00   1.1423493E-01  -9.1187185E-01   0.0000000E+00   1.1024627E-01  -9.2409289E-01   0.0000000E+00   1.1117813E-01  -9.3867797E-01   0.0000000E+00   1.1212318E-01  -8.1041265E-01   0.0000000E+00   1.2452206E-01  -8.1495553E-01   0.0000000E+00   1.2286332E-01  -8.2292724E-01   0.0000000E+00   1.0688445E-01  -8.3433276E-01   0.0000000E+00   1.0947572E-01  -8.4842336E-01   0.0000000E+00   1.1299599E-01  -8.6422688E-01   0.0000000E+00   1.1333450E-01  -6.2859172E-01   0.0000000E+00   1.1854450E-01  -6.4023137E-01   0.0000000E+00   1.1437313E-01  -6.5596527E-01   0.0000000E+00   1.0155300E-01  -6.7537957E-01   0.0000000E+00   1.1163584E-01  -6.9692504E-01   0.0000000E+00   1.1866964E-01  -7.1878821E-01   0.0000000E+00   1.1943746E-01  -3.0910993E-01   0.0000000E+00   1.1962787E-01  -3.3383924E-01   0.0000000E+00   1.0914364E-01  -3.6315715E-01   0.0000000E+00   1.0100918E-01  -3.9621875E-01   0.0000000E+00   1.1505178E-01  -4.3073714E-01   0.0000000E+00   1.2673995E-01  -4.6394774E-01   0.0000000E+00   1.2991023E-01   1.7259774E-01   0.0000000E+00   1.3785525E-01   1.3094741E-01   0.0000000E+00   1.1822411E-01   8.5052371E-02   0.0000000E+00   1.1202908E-01   3.6098566E-02   0.0000000E+00   1.1989447E-01  -1.3266505E-02   0.0000000E+00   1.3410778E-01  -5.9763175E-02   0.0000000E+00   1.4237851E-01   8.0041766E-01   0.0000000E+00   1.6871497E-01   7.4424261E-01   0.0000000E+00   1.4002940E-01   6.8488425E-01   0.0000000E+00   1.3821226E-01   6.2448102E-01   0.0000000E+00   1.3306706E-01   5.6537193E-01   0.0000000E+00   1.3952605E-01   5.1046604E-01   0.0000000E+00   1.5290701E-01   1.4952314E+00   0.0000000E+00   2.0555830E-01   1.4370462E+00   0.0000000E+00   1.4755580E-01   1.3766905E+00   0.0000000E+00   1.5011680E-01   1.3184150E+00   0.0000000E+00   1.4687902E-01   1.2636000E+00   0.0000000E+00   1.4292015E-01   1.2137611E+00   0.0000000E+00   1.5827240E-01   2.1154172E+00   0.0000000E+00   1.8593782E-01   2.0792360E+00   0.0000000E+00   1.2264772E-01   2.0412605E+00   0.0000000E+00   1.4323869E-01   2.0077868E+00   0.0000000E+00   1.5353347E-01   1.9790697E+00   0.0000000E+00   1.4923061E-01   1.9543300E+00   0.0000000E+00   1.5954986E-01   2.5004702E+00   0.0000000E+00   1.5831174E-01   2.5164905E+00   0.0000000E+00   9.1185622E-02   2.5311406E+00   0.0000000E+00   1.0604409E-01   2.5477140E+00   0.0000000E+00   1.3999726E-01   2.5676277E+00   0.0000000E+00   1.4470538E-01   2.5883465E+00   0.0000000E+00   1.5723439E-01   2.5953002E+00   0.0000000E+00   2.0932376E-01   2.6642637E+00   0.0000000E+00   7.4321948E-02   2.7418237E+00   0.0000000E+00   7.9757117E-02   2.8228652E+00   0.0000000E+00   1.1090911E-01   2.9030364E+00   0.0000000E+00   1.2719749E-01   2.9775839E+00   0.0000000E+00   1.4769737E-01   2.4939053E+00   0.0000000E+00   3.0113786E-01   2.5996451E+00   0.0000000E+00   7.2197944E-02   2.7213886E+00   0.0000000E+00   7.2140299E-02   2.8496222E+00   0.0000000E+00   9.4283395E-02   2.9758227E+00   0.0000000E+00   1.2040254E-01   3.0924809E+00   0.0000000E+00   1.4499559E-01   2.3444929E+00   0.0000000E+00   3.5796013E-01   2.4693608E+00   0.0000000E+00   8.9919120E-02   2.6122897E+00   0.0000000E+00   9.3817346E-02   2.7628767E+00   0.0000000E+00   9.4201006E-02   2.9108021E+00   0.0000000E+00   1.2452861E-01   3.0471497E+00   0.0000000E+00   1.4837079E-01   2.2595513E+00   0.0000000E+00   3.8609490E-01   2.3894818E+00   0.0000000E+00   1.0423894E-01   2.5355933E+00   0.0000000E+00   1.1102933E-01   2.6880531E+00   0.0000000E+00   1.0974931E-01   2.8361821E+00   0.0000000E+00   1.3434838E-01   2.9706392E+00   0.0000000E+00   1.5496327E-01   2.2721200E+00   0.0000000E+00   3.8850516E-01   2.3977685E+00   0.0000000E+00   1.0275435E-01   2.5363729E+00   0.0000000E+00   1.0785124E-01   2.6784713E+00   0.0000000E+00   1.2445759E-01   2.8132906E+00   0.0000000E+00   1.4479825E-01   2.9314401E+00   0.0000000E+00   1.6020383E-01   2.3410213E+00   0.0000000E+00   3.6974058E-01   2.4571152E+00   0.0000000E+00   9.1222234E-02   2.5832393E+00   0.0000000E+00   9.4038941E-02   2.7096510E+00   0.0000000E+00   1.2383504E-01   2.8253014E+00   0.0000000E+00   1.4537862E-01   2.9208686E+00   0.0000000E+00   1.6077414E-01   2.3910463E+00   0.0000000E+00   3.3514968E-01   2.4942098E+00   0.0000000E+00   7.5467110E-02   2.6048703E+00   0.0000000E+00   7.9202600E-02   2.7129550E+00   0.0000000E+00   1.1315057E-01   2.8074517E+00   0.0000000E+00   1.3735719E-01   2.8794057E+00   0.0000000E+00   1.5685965E-01   2.3620203E+00   0.0000000E+00   2.9175299E-01   2.4479353E+00   0.0000000E+00   6.4136870E-02   2.5384779E+00   0.0000000E+00   6.8807222E-02   2.6240306E+00   0.0000000E+00   1.0221452E-01   2.6946721E+00   0.0000000E+00   1.2698768E-01   2.7425594E+00   0.0000000E+00   1.5155107E-01   2.2384562E+00   0.0000000E+00   2.4828219E-01   2.3001671E+00   0.0000000E+00   6.4389646E-02   2.3627586E+00   0.0000000E+00   6.5517910E-02   2.4182320E+00   0.0000000E+00   9.2867568E-02   2.4588647E+00   0.0000000E+00   1.1957208E-01   2.4792857E+00   0.0000000E+00   1.4867921E-01   2.0452046E+00   0.0000000E+00   2.1836114E-01   2.0746088E+00   0.0000000E+00   7.8860573E-02   2.1000965E+00   0.0000000E+00   6.4163543E-02   2.1161811E+00   0.0000000E+00   8.5867688E-02   2.1185005E+00   0.0000000E+00   1.1629295E-01   2.1059065E+00   0.0000000E+00   1.5039623E-01   1.8224306E+00   0.0000000E+00   1.9472286E-01   1.8133075E+00   0.0000000E+00   9.2342891E-02   1.7946198E+00   0.0000000E+00   7.5956248E-02   1.7641819E+00   0.0000000E+00   8.4487014E-02   1.7229265E+00   0.0000000E+00   1.1929637E-01   1.6746398E+00   0.0000000E+00   1.5760802E-01   1.6024684E+00   0.0000000E+00   1.7147003E-01   1.5533684E+00   0.0000000E+00   9.8009989E-02   1.4886296E+00   0.0000000E+00   8.9502618E-02   1.4108142E+00   0.0000000E+00   9.1627628E-02   1.3270878E+00   0.0000000E+00   1.2949678E-01   1.2451673E+00   0.0000000E+00   1.6876662E-01   1.3969526E+00   0.0000000E+00   1.5550140E-01   1.3136076E+00   0.0000000E+00   9.9743493E-02   1.2088811E+00   0.0000000E+00   9.5915206E-02   1.0909350E+00   0.0000000E+00   1.0725074E-01   9.7243792E-01   0.0000000E+00   1.4405167E-01   8.6477822E-01   0.0000000E+00   1.8055542E-01   1.2010063E+00   0.0000000E+00   1.4910342E-01   1.0965465E+00   0.0000000E+00   1.0184526E-01   9.6477312E-01   0.0000000E+00   1.0073893E-01   8.1902641E-01   0.0000000E+00   1.2456251E-01   6.7923939E-01   0.0000000E+00   1.5517296E-01   5.5809474E-01   0.0000000E+00   1.8892631E-01   1.0066855E+00   0.0000000E+00   1.5237567E-01   8.9828837E-01   0.0000000E+00   9.9230655E-02   7.5251794E-01   0.0000000E+00   1.1334546E-01   5.9349555E-01   0.0000000E+00   1.3598363E-01   4.4825259E-01   0.0000000E+00   1.6098133E-01   3.2720852E-01   0.0000000E+00   1.9224599E-01   8.2051200E-01   0.0000000E+00   1.6989332E-01   7.1840626E-01   0.0000000E+00   9.3783729E-02   5.6260884E-01   0.0000000E+00   1.1962903E-01   4.0507728E-01   0.0000000E+00   1.3972498E-01   2.6907849E-01   0.0000000E+00   1.6196655E-01   1.6018321E-01   0.0000000E+00   1.9035034E-01   6.7868340E-01   0.0000000E+00   1.1219797E-01   5.4745388E-01   0.0000000E+00   8.5911833E-02   3.8939112E-01   0.0000000E+00   1.1753745E-01   2.4576287E-01   0.0000000E+00   1.4019568E-01   1.2988438E-01   0.0000000E+00   1.6134201E-01   4.1042026E-02   0.0000000E+00   1.8492535E-01   5.2258450E-01   0.0000000E+00   8.1741601E-02   3.8580835E-01   0.0000000E+00   8.8778280E-02   2.3217033E-01   0.0000000E+00   1.1069368E-01   1.1142116E-01   0.0000000E+00   1.3761184E-01   2.1163287E-02   0.0000000E+00   1.6020855E-01  -4.4581022E-02   0.0000000E+00   1.7777811E-01   2.4388053E-01   0.0000000E+00   9.8901428E-02   9.9604845E-02   0.0000000E+00   1.1143588E-01   2.3810407E-03   0.0000000E+00   1.3085000E-01  -6.2692299E-02   0.0000000E+00   1.5701494E-01  -1.0684368E-01   0.0000000E+00   1.7075017E-01   1.3059372E-01   0.0000000E+00   1.0819601E-01   5.9158336E-03   0.0000000E+00   1.1624683E-01  -7.8317672E-02   0.0000000E+00   1.2222216E-01  -1.2484837E-01   0.0000000E+00   1.4967433E-01  -1.5230668E-01   0.0000000E+00   1.6402946E-01  -3.9006114E-02   0.0000000E+00   1.2109666E-01  -1.2430388E-01   0.0000000E+00   1.1749563E-01  -1.6679931E-01   0.0000000E+00   1.3483045E-01  -1.8482411E-01   0.0000000E+00   1.5622659E-01  -5.5462830E-02   0.0000000E+00   1.2322306E-01  -1.2975852E-01   0.0000000E+00   1.1487544E-01  -1.8585792E-01   0.0000000E+00   1.1560840E-01  -2.0458975E-01   0.0000000E+00   1.4361100E-01  -1.0435652E-01   0.0000000E+00   1.2348195E-01  -1.7212510E-01   0.0000000E+00   1.0708371E-01  -2.0487376E-01   0.0000000E+00   1.2555242E-01  -1.3094717E-01   0.0000000E+00   1.1602232E-01  -1.7145766E-01   0.0000000E+00   1.1725526E-01  -1.5863752E-01   0.0000000E+00   1.3087575E-01  -1.2382702E-01   0.0000000E+00   1.2734891E-01  -1.6179533E-01   0.0000000E+00   5.4251803E-03  -1.6789924E-01   0.0000000E+00   5.6564822E-03  -1.7207223E-01   0.0000000E+00   5.5222618E-03  -1.7480686E-01   0.0000000E+00   5.2221958E-03  -1.7650886E-01   0.0000000E+00   4.8641013E-03  -1.7750524E-01   0.0000000E+00   4.5113061E-03  -1.7804599E-01   0.0000000E+00   4.2049238E-03  -1.7831236E-01   0.0000000E+00   3.9703962E-03  -1.7842567E-01   0.0000000E+00   3.8236121E-03  -1.8700421E-01   0.0000000E+00   6.8746884E-03  -1.9357517E-01   0.0000000E+00   7.2136484E-03  -1.9802096E-01   0.0000000E+00   7.1065282E-03  -2.0089877E-01   0.0000000E+00   6.7903125E-03  -2.0266220E-01   0.0000000E+00   6.3867182E-03  -2.0367487E-01   0.0000000E+00   5.9770937E-03  -2.0421061E-01   0.0000000E+00   5.6161708E-03  -2.0446485E-01   0.0000000E+00   5.3379983E-03  -2.0456801E-01   0.0000000E+00   5.1634558E-03  -2.0550716E-01   0.0000000E+00   7.8316713E-03  -2.1206997E-01   0.0000000E+00   8.2843518E-03  -2.1643853E-01   0.0000000E+00   8.2588019E-03  -2.1921396E-01   0.0000000E+00   7.9973098E-03  -2.2087646E-01   0.0000000E+00   7.6171048E-03  -2.2180340E-01   0.0000000E+00   7.2108018E-03  -2.2227377E-01   0.0000000E+00   6.8440079E-03  -2.2248317E-01   0.0000000E+00   6.5581817E-03  -2.2256039E-01   0.0000000E+00   6.3780383E-03  -2.2072420E-01   0.0000000E+00   8.1631215E-03  -2.2696850E-01   0.0000000E+00   8.7226192E-03  -2.3102796E-01   0.0000000E+00   8.8363448E-03  -2.3353812E-01   0.0000000E+00   8.7091671E-03  -2.3499334E-01   0.0000000E+00   8.4330318E-03  -2.3576929E-01   0.0000000E+00   8.1020696E-03  -2.3613605E-01   0.0000000E+00   7.7880654E-03  -2.3627979E-01   0.0000000E+00   7.5378483E-03  -2.3632124E-01   0.0000000E+00   7.3785963E-03  -2.3582740E-01   0.0000000E+00   7.9036281E-03  -2.4159016E-01   0.0000000E+00   8.5644163E-03  -2.4521947E-01   0.0000000E+00   8.8735912E-03  -2.4738383E-01   0.0000000E+00   8.9582559E-03  -2.4858144E-01   0.0000000E+00   8.8670989E-03  -2.4917594E-01   0.0000000E+00   8.6837830E-03  -2.4942231E-01   0.0000000E+00   8.4809996E-03  -2.4949183E-01   0.0000000E+00   8.3086845E-03  -2.4949339E-01   0.0000000E+00   8.1958799E-03  -2.5299415E-01   0.0000000E+00   7.2074197E-03  -2.5819772E-01   0.0000000E+00   7.9896860E-03  -2.6135409E-01   0.0000000E+00   8.5517149E-03  -2.6315358E-01   0.0000000E+00   8.9230323E-03  -2.6408523E-01   0.0000000E+00   9.0930294E-03  -2.6449600E-01   0.0000000E+00   9.1234827E-03  -2.6462185E-01   0.0000000E+00   9.0832906E-03  -2.6461741E-01   0.0000000E+00   9.0246005E-03  -2.6457968E-01   0.0000000E+00   8.9791417E-03  -2.7312741E-01   0.0000000E+00   6.3164774E-03  -2.7771527E-01   0.0000000E+00   7.2729322E-03  -2.8039718E-01   0.0000000E+00   8.1536695E-03  -2.8184873E-01   0.0000000E+00   8.8871103E-03  -2.8253454E-01   0.0000000E+00   9.3885679E-03  -2.8277898E-01   0.0000000E+00   9.6894549E-03  -2.8279683E-01   0.0000000E+00   9.8525258E-03  -2.8272656E-01   0.0000000E+00   9.9336067E-03  -2.8265351E-01   0.0000000E+00   9.9698119E-03  -2.9607847E-01   0.0000000E+00   5.5918526E-03  -2.9997849E-01   0.0000000E+00   6.7666192E-03  -3.0219141E-01   0.0000000E+00   8.0345208E-03  -3.0332977E-01   0.0000000E+00   9.2011783E-03  -3.0380979E-01   0.0000000E+00   1.0094472E-02  -3.0392206E-01   0.0000000E+00   1.0709249E-02  -3.0385739E-01   0.0000000E+00   1.1102699E-02  -3.0373719E-01   0.0000000E+00   1.1338421E-02  -3.0363736E-01   0.0000000E+00   1.1462989E-02  -3.2136682E-01   0.0000000E+00   5.5674957E-03  -3.2443315E-01   0.0000000E+00   6.9395350E-03  -3.2618719E-01   0.0000000E+00   8.6200535E-03  -3.2706219E-01   0.0000000E+00   1.0260268E-02  -3.2739565E-01   0.0000000E+00   1.1580647E-02  -3.2742798E-01   0.0000000E+00   1.2531074E-02  -3.2731962E-01   0.0000000E+00   1.3164067E-02  -3.2717574E-01   0.0000000E+00   1.3555713E-02  -3.2706350E-01   0.0000000E+00   1.3767119E-02  -3.4878737E-01   0.0000000E+00   6.9443230E-03  -3.5089228E-01   0.0000000E+00   8.3931163E-03  -3.5222024E-01   0.0000000E+00   1.0410954E-02  -3.5290435E-01   0.0000000E+00   1.2490234E-02  -3.5317123E-01   0.0000000E+00   1.4220866E-02  -3.5319385E-01   0.0000000E+00   1.5492535E-02  -3.5309541E-01   0.0000000E+00   1.6349483E-02  -3.5296366E-01   0.0000000E+00   1.6882351E-02  -3.5285985E-01   0.0000000E+00   1.7170087E-02  -3.7817612E-01   0.0000000E+00   1.0474986E-02  -3.7934843E-01   0.0000000E+00   1.1778123E-02  -3.8032278E-01   0.0000000E+00   1.3933679E-02  -3.8091165E-01   0.0000000E+00   1.6311217E-02  -3.8120779E-01   0.0000000E+00   1.8358998E-02  -3.8130242E-01   0.0000000E+00   1.9887971E-02  -3.8127640E-01   0.0000000E+00   2.0923452E-02  -3.8120052E-01   0.0000000E+00   2.1565957E-02  -3.8112998E-01   0.0000000E+00   2.1911083E-02  -4.0922037E-01   0.0000000E+00   1.6732458E-02  -4.0970191E-01   0.0000000E+00   1.7604047E-02  -4.1045386E-01   0.0000000E+00   1.9611521E-02  -4.1106844E-01   0.0000000E+00   2.2054264E-02  -4.1149893E-01   0.0000000E+00   2.4252392E-02  -4.1175249E-01   0.0000000E+00   2.5926625E-02  -4.1186669E-01   0.0000000E+00   2.7068283E-02  -4.1189426E-01   0.0000000E+00   2.7775520E-02  -4.1188660E-01   0.0000000E+00   2.8153408E-02  -4.4162631E-01   0.0000000E+00   2.5824895E-02  -4.4181740E-01   0.0000000E+00   2.6019281E-02  -4.4255114E-01   0.0000000E+00   2.7605314E-02  -4.4334188E-01   0.0000000E+00   2.9857602E-02  -4.4402337E-01   0.0000000E+00   3.2007579E-02  -4.4452664E-01   0.0000000E+00   3.3691715E-02  -4.4485188E-01   0.0000000E+00   3.4854867E-02  -4.4503507E-01   0.0000000E+00   3.5577804E-02  -4.4512177E-01   0.0000000E+00   3.5963260E-02  -4.7518617E-01   0.0000000E+00   3.7208222E-02  -4.7555348E-01   0.0000000E+00   3.6679991E-02  -4.7654691E-01   0.0000000E+00   3.7708741E-02  -4.7770095E-01   0.0000000E+00   3.9591670E-02  -4.7876421E-01   0.0000000E+00   4.1532494E-02  -4.7961581E-01   0.0000000E+00   4.3110680E-02  -4.8022822E-01   0.0000000E+00   4.4223376E-02  -4.8062354E-01   0.0000000E+00   4.4922635E-02  -4.8083988E-01   0.0000000E+00   4.5297418E-02  -5.0975794E-01   0.0000000E+00   4.9820863E-02  -5.1078069E-01   0.0000000E+00   4.8810564E-02  -5.1237506E-01   0.0000000E+00   4.9362767E-02  -5.1411188E-01   0.0000000E+00   5.0851673E-02  -5.1570475E-01   0.0000000E+00   5.2523669E-02  -5.1701552E-01   0.0000000E+00   5.3945091E-02  -5.1800120E-01   0.0000000E+00   5.4977570E-02  -5.1867247E-01   0.0000000E+00   5.5641100E-02  -5.1905882E-01   0.0000000E+00   5.6002405E-02  -5.4527241E-01   0.0000000E+00   6.2459901E-02  -5.4743230E-01   0.0000000E+00   6.1433017E-02  -5.4998499E-01   0.0000000E+00   6.1794538E-02  -5.5253536E-01   0.0000000E+00   6.3034028E-02  -5.5482167E-01   0.0000000E+00   6.4506158E-02  -5.5671448E-01   0.0000000E+00   6.5811291E-02  -5.5817086E-01   0.0000000E+00   6.6796146E-02  -5.5919093E-01   0.0000000E+00   6.7452237E-02  -5.5979198E-01   0.0000000E+00   6.7820534E-02  -5.8179182E-01   0.0000000E+00   7.4194066E-02  -5.8552760E-01   0.0000000E+00   7.3661238E-02  -5.8934414E-01   0.0000000E+00   7.4220024E-02  -5.9292537E-01   0.0000000E+00   7.5472780E-02  -5.9607118E-01   0.0000000E+00   7.6921605E-02  -5.9868181E-01   0.0000000E+00   7.8234695E-02  -6.0071528E-01   0.0000000E+00   7.9264469E-02  -6.0216284E-01   0.0000000E+00   7.9980798E-02  -6.0302687E-01   0.0000000E+00   8.0398127E-02  -6.1955267E-01   0.0000000E+00   8.4537238E-02  -6.2514114E-01   0.0000000E+00   8.4906325E-02  -6.3043451E-01   0.0000000E+00   8.6020224E-02  -6.3522267E-01   0.0000000E+00   8.7575935E-02  -6.3938296E-01   0.0000000E+00   8.9225553E-02  -6.4284289E-01   0.0000000E+00   9.0715922E-02  -6.4556253E-01   0.0000000E+00   9.1917023E-02  -6.4751774E-01   0.0000000E+00   9.2782825E-02  -6.4869475E-01   0.0000000E+00   9.3302578E-02  -6.5879977E-01   0.0000000E+00   9.3444914E-02  -6.6634345E-01   0.0000000E+00   9.4921157E-02  -6.7322510E-01   0.0000000E+00   9.6820079E-02  -6.7934126E-01   0.0000000E+00   9.8904893E-02  -6.8463808E-01   0.0000000E+00   1.0095274E-01  -6.8906248E-01   0.0000000E+00   1.0278045E-01  -6.9256449E-01   0.0000000E+00   1.0427620E-01  -6.9509947E-01   0.0000000E+00   1.0537940E-01  -6.9663280E-01   0.0000000E+00   1.0605504E-01  -6.9967240E-01   0.0000000E+00   1.0113055E-01  -7.0914453E-01   0.0000000E+00   1.0371053E-01  -7.1764070E-01   0.0000000E+00   1.0645939E-01  -7.2514707E-01   0.0000000E+00   1.0917896E-01  -7.3165631E-01   0.0000000E+00   1.1173747E-01  -7.3712099E-01   0.0000000E+00   1.1400667E-01  -7.4147332E-01   0.0000000E+00   1.1588546E-01  -7.4463981E-01   0.0000000E+00   1.1729518E-01  -7.4656314E-01   0.0000000E+00   1.1817163E-01  -7.4216354E-01   0.0000000E+00   1.0784342E-01  -7.5346637E-01   0.0000000E+00   1.1137290E-01  -7.6354057E-01   0.0000000E+00   1.1489261E-01  -7.7243608E-01   0.0000000E+00   1.1822426E-01  -7.8017443E-01   0.0000000E+00   1.2130323E-01  -7.8670365E-01   0.0000000E+00   1.2404154E-01  -7.9193115E-01   0.0000000E+00   1.2634143E-01  -7.9575199E-01   0.0000000E+00   1.2809756E-01  -7.9808211E-01   0.0000000E+00   1.2920526E-01  -7.8612608E-01   0.0000000E+00   1.1369888E-01  -7.9911691E-01   0.0000000E+00   1.1795080E-01  -8.1067759E-01   0.0000000E+00   1.2207814E-01  -8.2089841E-01   0.0000000E+00   1.2591296E-01  -8.2981682E-01   0.0000000E+00   1.2944344E-01  -8.3737665E-01   0.0000000E+00   1.3261421E-01  -8.4345633E-01   0.0000000E+00   1.3532507E-01  -8.4791964E-01   0.0000000E+00   1.3743515E-01  -8.5065025E-01   0.0000000E+00   1.3878679E-01  -8.3117604E-01   0.0000000E+00   1.1859330E-01  -8.4566218E-01   0.0000000E+00   1.2334387E-01  -8.5856730E-01   0.0000000E+00   1.2791234E-01  -8.6999309E-01   0.0000000E+00   1.3212779E-01  -8.7998933E-01   0.0000000E+00   1.3601653E-01  -8.8849074E-01   0.0000000E+00   1.3955140E-01  -8.9535606E-01   0.0000000E+00   1.4262980E-01  -9.0041584E-01   0.0000000E+00   1.4507237E-01  -9.0352017E-01   0.0000000E+00   1.4666048E-01  -8.7634903E-01   0.0000000E+00   1.2221228E-01  -8.9207470E-01   0.0000000E+00   1.2730999E-01  -9.0613770E-01   0.0000000E+00   1.3223267E-01  -9.1861778E-01   0.0000000E+00   1.3677065E-01  -9.2955989E-01   0.0000000E+00   1.4095953E-01  -9.3888825E-01   0.0000000E+00   1.4479561E-01  -9.4644421E-01   0.0000000E+00   1.4818259E-01  -9.5202923E-01   0.0000000E+00   1.5091179E-01  -9.5546395E-01   0.0000000E+00   1.5270859E-01  -9.1946876E-01   0.0000000E+00   1.2413513E-01  -9.3611187E-01   0.0000000E+00   1.2954906E-01  -9.5112401E-01   0.0000000E+00   1.3487956E-01  -9.6450800E-01   0.0000000E+00   1.3980395E-01  -9.7626776E-01   0.0000000E+00   1.4431152E-01  -9.8630673E-01   0.0000000E+00   1.4841501E-01  -9.9444854E-01   0.0000000E+00   1.5204558E-01  -1.0004761E+00   0.0000000E+00   1.5499231E-01  -1.0041890E+00   0.0000000E+00   1.5694733E-01  -9.5642579E-01   0.0000000E+00   1.2403163E-01  -9.7360581E-01   0.0000000E+00   1.2984832E-01  -9.8934507E-01   0.0000000E+00   1.3578445E-01  -1.0034958E+00   0.0000000E+00   1.4128646E-01  -1.0159652E+00   0.0000000E+00   1.4621304E-01  -1.0266119E+00   0.0000000E+00   1.5057965E-01  -1.0352404E+00   0.0000000E+00   1.5437865E-01  -1.0416251E+00   0.0000000E+00   1.5744516E-01  -1.0455570E+00   0.0000000E+00   1.5948008E-01  -9.8073494E-01   0.0000000E+00   1.2195167E-01  -9.9804485E-01   0.0000000E+00   1.2827481E-01  -1.0142680E+00   0.0000000E+00   1.3505620E-01  -1.0290384E+00   0.0000000E+00   1.4137755E-01  -1.0421089E+00   0.0000000E+00   1.4685614E-01  -1.0532594E+00   0.0000000E+00   1.5148258E-01  -1.0622696E+00   0.0000000E+00   1.5534857E-01  -1.0689189E+00   0.0000000E+00   1.5839747E-01  -1.0730053E+00   0.0000000E+00   1.6039962E-01  -9.8368156E-01   0.0000000E+00   1.1866902E-01  -1.0007855E+00   0.0000000E+00   1.2541297E-01  -1.0172472E+00   0.0000000E+00   1.3308667E-01  -1.0324602E+00   0.0000000E+00   1.4032754E-01  -1.0459874E+00   0.0000000E+00   1.4640479E-01  -1.0575073E+00   0.0000000E+00   1.5122585E-01  -1.0667710E+00   0.0000000E+00   1.5500081E-01  -1.0735701E+00   0.0000000E+00   1.5784250E-01  -1.0777321E+00   0.0000000E+00   1.5966070E-01  -9.5486939E-01   0.0000000E+00   1.1591087E-01  -9.7175360E-01   0.0000000E+00   1.2260929E-01  -9.8838568E-01   0.0000000E+00   1.3073963E-01  -1.0039390E+00   0.0000000E+00   1.3856675E-01  -1.0178047E+00   0.0000000E+00   1.4499255E-01  -1.0295707E+00   0.0000000E+00   1.4976753E-01  -1.0389630E+00   0.0000000E+00   1.5318656E-01  -1.0458016E+00   0.0000000E+00   1.5556151E-01  -1.0499613E+00   0.0000000E+00   1.5700281E-01  -8.8110566E-01   0.0000000E+00   1.1607826E-01  -8.9858496E-01   0.0000000E+00   1.2196133E-01  -9.1593033E-01   0.0000000E+00   1.2956581E-01  -9.3221277E-01   0.0000000E+00   1.3701461E-01  -9.4668615E-01   0.0000000E+00   1.4301635E-01  -9.5887190E-01   0.0000000E+00   1.4716929E-01  -9.6849638E-01   0.0000000E+00   1.4978191E-01  -9.7542727E-01   0.0000000E+00   1.5133545E-01  -9.7960556E-01   0.0000000E+00   1.5216358E-01  -7.3993921E-01   0.0000000E+00   1.2121692E-01  -7.6031828E-01   0.0000000E+00   1.2568063E-01  -7.7993327E-01   0.0000000E+00   1.3163929E-01  -7.9817611E-01   0.0000000E+00   1.3736939E-01  -8.1428665E-01   0.0000000E+00   1.4170226E-01  -8.2772875E-01   0.0000000E+00   1.4426869E-01  -8.3823228E-01   0.0000000E+00   1.4538832E-01  -8.4571010E-01   0.0000000E+00   1.4565395E-01  -8.5017240E-01   0.0000000E+00   1.4559187E-01  -4.9395636E-01   0.0000000E+00   1.3198704E-01  -5.2067298E-01   0.0000000E+00   1.3520992E-01  -5.4494900E-01   0.0000000E+00   1.3890350E-01  -5.6699336E-01   0.0000000E+00   1.4178696E-01  -5.8632916E-01   0.0000000E+00   1.4316928E-01  -6.0241497E-01   0.0000000E+00   1.4302580E-01  -6.1493856E-01   0.0000000E+00   1.4182582E-01  -6.2381512E-01   0.0000000E+00   1.4026603E-01  -6.2908983E-01   0.0000000E+00   1.3901642E-01  -1.0086703E-01   0.0000000E+00   1.4710136E-01  -1.3612004E-01   0.0000000E+00   1.5046126E-01  -1.6680484E-01   0.0000000E+00   1.5232038E-01  -1.9403952E-01   0.0000000E+00   1.5202895E-01  -2.1783981E-01   0.0000000E+00   1.4968899E-01  -2.3774390E-01   0.0000000E+00   1.4598295E-01  -2.5335199E-01   0.0000000E+00   1.4176606E-01  -2.6448178E-01   0.0000000E+00   1.3791624E-01  -2.7112252E-01   0.0000000E+00   1.3522959E-01   4.6201149E-01   0.0000000E+00   1.6321436E-01   4.2061150E-01   0.0000000E+00   1.6933750E-01   3.8500723E-01   0.0000000E+00   1.7107782E-01   3.5359758E-01   0.0000000E+00   1.6840757E-01   3.2597941E-01   0.0000000E+00   1.6245739E-01   3.0257308E-01   0.0000000E+00   1.5496860E-01   2.8393403E-01   0.0000000E+00   1.4746642E-01   2.7045694E-01   0.0000000E+00   1.4114128E-01   2.6233175E-01   0.0000000E+00   1.3693123E-01   1.1696639E+00   0.0000000E+00   1.7592593E-01   1.1312591E+00   0.0000000E+00   1.8787470E-01   1.0975957E+00   0.0000000E+00   1.9212049E-01   1.0673037E+00   0.0000000E+00   1.8882240E-01   1.0400220E+00   0.0000000E+00   1.8026276E-01   1.0162846E+00   0.0000000E+00   1.6951397E-01   9.9689513E-01   0.0000000E+00   1.5903319E-01   9.8257065E-01   0.0000000E+00   1.5046102E-01   9.7380096E-01   0.0000000E+00   1.4488851E-01   1.9322270E+00   0.0000000E+00   1.8187423E-01   1.9115744E+00   0.0000000E+00   2.0133634E-01   1.8917499E+00   0.0000000E+00   2.1044053E-01   1.8722762E+00   0.0000000E+00   2.0841086E-01   1.8533655E+00   0.0000000E+00   1.9865446E-01   1.8358252E+00   0.0000000E+00   1.8566757E-01   1.8207176E+00   0.0000000E+00   1.7296895E-01   1.8091060E+00   0.0000000E+00   1.6272612E-01   1.8018064E+00   0.0000000E+00   1.5617070E-01   2.6059861E+00   0.0000000E+00   1.8140580E-01   2.6186080E+00   0.0000000E+00   2.0657593E-01   2.6261477E+00   0.0000000E+00   2.2076748E-01   2.6292984E+00   0.0000000E+00   2.2075932E-01   2.6289980E+00   0.0000000E+00   2.1073656E-01   2.6263528E+00   0.0000000E+00   1.9641148E-01   2.6225879E+00   0.0000000E+00   1.8226562E-01   2.6189115E+00   0.0000000E+00   1.7095648E-01   2.6162972E+00   0.0000000E+00   1.6381210E-01   3.0422976E+00   0.0000000E+00   1.7641190E-01   3.0951545E+00   0.0000000E+00   2.0457968E-01   3.1370282E+00   0.0000000E+00   2.2052911E-01   3.1698620E+00   0.0000000E+00   2.2098237E-01   3.1950996E+00   0.0000000E+00   2.1034831E-01   3.2138104E+00   0.0000000E+00   1.9492944E-01   3.2269936E+00   0.0000000E+00   1.7970847E-01   3.2355919E+00   0.0000000E+00   1.6760841E-01   3.2403948E+00   0.0000000E+00   1.6001342E-01   3.1942530E+00   0.0000000E+00   1.7328499E-01   3.2793019E+00   0.0000000E+00   1.9911432E-01   3.3494759E+00   0.0000000E+00   2.1257079E-01   3.4079413E+00   0.0000000E+00   2.1099278E-01   3.4565747E+00   0.0000000E+00   1.9849841E-01   3.4960434E+00   0.0000000E+00   1.8139590E-01   3.5265186E+00   0.0000000E+00   1.6475210E-01   3.5481105E+00   0.0000000E+00   1.5156606E-01   3.5609672E+00   0.0000000E+00   1.4327903E-01   3.1659429E+00   0.0000000E+00   1.7365406E-01   3.2658329E+00   0.0000000E+00   1.9427629E-01   3.3498240E+00   0.0000000E+00   2.0307682E-01   3.4222207E+00   0.0000000E+00   1.9788726E-01   3.4851573E+00   0.0000000E+00   1.8239035E-01   3.5386527E+00   0.0000000E+00   1.6269685E-01   3.5817442E+00   0.0000000E+00   1.4384624E-01   3.6133404E+00   0.0000000E+00   1.2890488E-01   3.6326098E+00   0.0000000E+00   1.1944148E-01   3.0856953E+00   0.0000000E+00   1.7661047E-01   3.1812625E+00   0.0000000E+00   1.9276300E-01   3.2620723E+00   0.0000000E+00   1.9757994E-01   3.3336577E+00   0.0000000E+00   1.8896501E-01   3.3984179E+00   0.0000000E+00   1.7026882E-01   3.4557831E+00   0.0000000E+00   1.4751214E-01   3.5036721E+00   0.0000000E+00   1.2585737E-01   3.5397656E+00   0.0000000E+00   1.0858078E-01   3.5621884E+00   0.0000000E+00   9.7509906E-02   3.0279970E+00   0.0000000E+00   1.8011561E-01   3.1048200E+00   0.0000000E+00   1.9508123E-01   3.1687806E+00   0.0000000E+00   1.9867121E-01   3.2267644E+00   0.0000000E+00   1.8843642E-01   3.2816386E+00   0.0000000E+00   1.6757101E-01   3.3325894E+00   0.0000000E+00   1.4222075E-01   3.3768249E+00   0.0000000E+00   1.1789650E-01   3.4111297E+00   0.0000000E+00   9.8254919E-02   3.4328403E+00   0.0000000E+00   8.5512862E-02   2.9924581E+00   0.0000000E+00   1.8230127E-01   3.0438418E+00   0.0000000E+00   1.9999853E-01   3.0838218E+00   0.0000000E+00   2.0574063E-01   3.1205235E+00   0.0000000E+00   1.9646248E-01   3.1575017E+00   0.0000000E+00   1.7534205E-01   3.1942096E+00   0.0000000E+00   1.4882186E-01   3.2278051E+00   0.0000000E+00   1.2287654E-01   3.2548280E+00   0.0000000E+00   1.0161690E-01   3.2723143E+00   0.0000000E+00   8.7686241E-02   2.9258502E+00   0.0000000E+00   1.8272704E-01   2.9517593E+00   0.0000000E+00   2.0586076E-01   2.9669459E+00   0.0000000E+00   2.1623150E-01   2.9802618E+00   0.0000000E+00   2.1012539E-01   2.9959748E+00   0.0000000E+00   1.9080459E-01   3.0142455E+00   0.0000000E+00   1.6503602E-01   3.0328665E+00   0.0000000E+00   1.3919571E-01   3.0488622E+00   0.0000000E+00   1.1775565E-01   3.0596070E+00   0.0000000E+00   1.0363077E-01   2.7655423E+00   0.0000000E+00   1.8270001E-01   2.7688470E+00   0.0000000E+00   2.1180950E-01   2.7620518E+00   0.0000000E+00   2.2744855E-01   2.7537985E+00   0.0000000E+00   2.2549076E-01   2.7486994E+00   0.0000000E+00   2.0939417E-01   2.7477543E+00   0.0000000E+00   1.8615833E-01   2.7498584E+00   0.0000000E+00   1.6234115E-01   2.7531507E+00   0.0000000E+00   1.4248866E-01   2.7558939E+00   0.0000000E+00   1.2943035E-01   2.4786851E+00   0.0000000E+00   1.8439935E-01   2.4618464E+00   0.0000000E+00   2.1812418E-01   2.4367630E+00   0.0000000E+00   2.3786470E-01   2.4106185E+00   0.0000000E+00   2.3959675E-01   2.3875906E+00   0.0000000E+00   2.2715074E-01   2.3692806E+00   0.0000000E+00   2.0762073E-01   2.3558109E+00   0.0000000E+00   1.8742226E-01   2.3467269E+00   0.0000000E+00   1.7075245E-01   2.3415136E+00   0.0000000E+00   1.5992436E-01   2.0800560E+00   0.0000000E+00   1.8952422E-01   2.0447774E+00   0.0000000E+00   2.2566144E-01   2.0052519E+00   0.0000000E+00   2.4737272E-01   1.9659568E+00   0.0000000E+00   2.5140905E-01   1.9297378E+00   0.0000000E+00   2.4216665E-01   1.8982478E+00   0.0000000E+00   2.2671199E-01   1.8725632E+00   0.0000000E+00   2.1099699E-01   1.8535204E+00   0.0000000E+00   1.9848081E-01   1.8417959E+00   0.0000000E+00   1.9061603E-01   1.6230838E+00   0.0000000E+00   1.9845247E-01   1.5713731E+00   0.0000000E+00   2.3497958E-01   1.5214564E+00   0.0000000E+00   2.5662911E-01   1.4743389E+00   0.0000000E+00   2.6144323E-01   1.4308108E+00   0.0000000E+00   2.5450405E-01   1.3919475E+00   0.0000000E+00   2.4276978E-01   1.3592281E+00   0.0000000E+00   2.3154223E-01   1.3343122E+00   0.0000000E+00   2.2332926E-01   1.3186877E+00   0.0000000E+00   2.1857011E-01   1.1708260E+00   0.0000000E+00   2.0991230E-01   1.1063443E+00   0.0000000E+00   2.4559361E-01   1.0505377E+00   0.0000000E+00   2.6602128E-01   1.0009396E+00   0.0000000E+00   2.7060717E-01   9.5603150E-01   0.0000000E+00   2.6509282E-01   9.1585439E-01   0.0000000E+00   2.5629702E-01   8.8170069E-01   0.0000000E+00   2.4886167E-01   8.5544968E-01   0.0000000E+00   2.4436240E-01   8.3888668E-01   0.0000000E+00   2.4229595E-01   7.7451903E-01   0.0000000E+00   2.2121385E-01   7.0267743E-01   0.0000000E+00   2.5570253E-01   6.4554483E-01   0.0000000E+00   2.7484292E-01   5.9783596E-01   0.0000000E+00   2.7902973E-01   5.5605668E-01   0.0000000E+00   2.7444333E-01   5.1914513E-01   0.0000000E+00   2.6773924E-01   4.8785806E-01   0.0000000E+00   2.6303038E-01   4.6381646E-01   0.0000000E+00   2.6117977E-01   4.4864589E-01   0.0000000E+00   2.6101053E-01   4.6118450E-01   0.0000000E+00   2.2901021E-01   3.8802898E-01   0.0000000E+00   2.6266503E-01   3.3329469E-01   0.0000000E+00   2.8125468E-01   2.9000980E-01   0.0000000E+00   2.8563544E-01   2.5349057E-01   0.0000000E+00   2.8203025E-01   2.2193085E-01   0.0000000E+00   2.7684751E-01   1.9554149E-01   0.0000000E+00   2.7383485E-01   1.7544468E-01   0.0000000E+00   2.7346766E-01   1.6283388E-01   0.0000000E+00   2.7428705E-01   2.3334461E-01   0.0000000E+00   2.3089124E-01   1.6427901E-01   0.0000000E+00   2.6389602E-01   1.1411753E-01   0.0000000E+00   2.8292856E-01   7.5724103E-02   0.0000000E+00   2.8853396E-01   4.4255130E-02   0.0000000E+00   2.8648701E-01   1.7774293E-02   0.0000000E+00   2.8275317E-01  -3.8358672E-03   0.0000000E+00   2.8080010E-01  -1.9974006E-02   0.0000000E+00   2.8102028E-01  -2.9968869E-02   0.0000000E+00   2.8207210E-01   7.7516727E-02   0.0000000E+00   2.2597422E-01   1.6524987E-02   0.0000000E+00   2.5778595E-01  -2.8489640E-02   0.0000000E+00   2.7789453E-01  -6.3160688E-02   0.0000000E+00   2.8580096E-01  -9.1365837E-02   0.0000000E+00   2.8622392E-01  -1.1456691E-01   0.0000000E+00   2.8438047E-01  -1.3292655E-01   0.0000000E+00   2.8342018E-01  -1.4624766E-01   0.0000000E+00   2.8385603E-01  -1.5432619E-01   0.0000000E+00   2.8476480E-01  -2.5309427E-02   0.0000000E+00   2.1521743E-01  -7.5905554E-02   0.0000000E+00   2.4435951E-01  -1.1616063E-01   0.0000000E+00   2.6532590E-01  -1.4908107E-01   0.0000000E+00   2.7625051E-01  -1.7639330E-01   0.0000000E+00   2.8008500E-01  -1.9865848E-01   0.0000000E+00   2.8089440E-01  -2.1584217E-01   0.0000000E+00   2.8134066E-01  -2.2795807E-01   0.0000000E+00   2.8216407E-01  -2.3513813E-01   0.0000000E+00   2.8300059E-01  -9.2709102E-02   0.0000000E+00   2.0092560E-01  -1.3181069E-01   0.0000000E+00   2.2546878E-01  -1.6742873E-01   0.0000000E+00   2.4602932E-01  -2.0016642E-01   0.0000000E+00   2.5989750E-01  -2.2861837E-01   0.0000000E+00   2.6770425E-01  -2.5201610E-01   0.0000000E+00   2.7188894E-01  -2.6992869E-01   0.0000000E+00   2.7440819E-01  -2.8235731E-01   0.0000000E+00   2.7616316E-01  -2.8960702E-01   0.0000000E+00   2.7729949E-01  -1.3786720E-01   0.0000000E+00   1.8580802E-01  -1.6521606E-01   0.0000000E+00   2.0426285E-01  -1.9525646E-01   0.0000000E+00   2.2254759E-01  -2.2751877E-01   0.0000000E+00   2.3806122E-01  -2.5800678E-01   0.0000000E+00   2.4956901E-01  -2.8378141E-01   0.0000000E+00   2.5740635E-01  -3.0371562E-01   0.0000000E+00   2.6257804E-01  -3.1757066E-01   0.0000000E+00   2.6590738E-01  -3.2562804E-01   0.0000000E+00   2.6783085E-01  -1.6995777E-01   0.0000000E+00   1.7233019E-01  -1.8633927E-01   0.0000000E+00   1.8421635E-01  -2.0886566E-01   0.0000000E+00   1.9854514E-01  -2.3796654E-01   0.0000000E+00   2.1343137E-01  -2.6905471E-01   0.0000000E+00   2.2706155E-01  -2.9717821E-01   0.0000000E+00   2.3800546E-01  -3.1957316E-01   0.0000000E+00   2.4593975E-01  -3.3540088E-01   0.0000000E+00   2.5125375E-01  -3.4469488E-01   0.0000000E+00   2.5434268E-01  -1.9482270E-01   0.0000000E+00   1.6195735E-01  -2.0278524E-01   0.0000000E+00   1.6785756E-01  -2.1631770E-01   0.0000000E+00   1.7751093E-01  -2.3839675E-01   0.0000000E+00   1.8959810E-01  -2.6603931E-01   0.0000000E+00   2.0271952E-01  -2.9397032E-01   0.0000000E+00   2.1496834E-01  -3.1788823E-01   0.0000000E+00   2.2490941E-01  -3.3546495E-01   0.0000000E+00   2.3204879E-01  -3.4599510E-01   0.0000000E+00   2.3634054E-01  -2.1460162E-01   0.0000000E+00   1.5377095E-01  -2.1924619E-01   0.0000000E+00   1.5638277E-01  -2.2468399E-01   0.0000000E+00   1.6143315E-01  -2.3700607E-01   0.0000000E+00   1.6955748E-01  -2.5652647E-01   0.0000000E+00   1.7979632E-01  -2.7952507E-01   0.0000000E+00   1.9069608E-01  -3.0143970E-01   0.0000000E+00   2.0065403E-01  -3.1889987E-01   0.0000000E+00   2.0851137E-01  -3.2988551E-01   0.0000000E+00   2.1350549E-01  -2.2550777E-01   0.0000000E+00   1.4363931E-01  -2.3536047E-01   0.0000000E+00   1.4837833E-01  -2.3805279E-01   0.0000000E+00   1.5045460E-01  -2.4126743E-01   0.0000000E+00   1.5448692E-01  -2.4967752E-01   0.0000000E+00   1.6054089E-01  -2.6304722E-01   0.0000000E+00   1.6788334E-01  -2.7829427E-01   0.0000000E+00   1.7536224E-01  -2.9200041E-01   0.0000000E+00   1.8188387E-01  -3.0135819E-01   0.0000000E+00   1.8634708E-01  -2.1685104E-01   0.0000000E+00   1.2897478E-01  -2.4258028E-01   0.0000000E+00   1.3978243E-01  -2.5252137E-01   0.0000000E+00   1.4299366E-01  -2.5380442E-01   0.0000000E+00   1.4340800E-01  -2.5221747E-01   0.0000000E+00   1.4519325E-01  -2.5374621E-01   0.0000000E+00   1.4780635E-01  -2.5863817E-01   0.0000000E+00   1.5108569E-01  -2.6515955E-01   0.0000000E+00   1.5430765E-01  -2.7046394E-01   0.0000000E+00   1.5674886E-01  -1.7911743E-01   0.0000000E+00   1.2174565E-01  -2.2634852E-01   0.0000000E+00   1.2678239E-01  -2.5185293E-01   0.0000000E+00   1.3522211E-01  -2.6526183E-01   0.0000000E+00   1.3447328E-01  -2.6289594E-01   0.0000000E+00   1.3238426E-01  -2.5597385E-01   0.0000000E+00   1.3023666E-01  -2.5026461E-01   0.0000000E+00   1.2860818E-01  -2.4768484E-01   0.0000000E+00   1.2769921E-01  -2.4743453E-01   0.0000000E+00   1.2725261E-01  -1.5723558E-01   0.0000000E+00   1.3074575E-01  -1.8975174E-01   0.0000000E+00   1.2029706E-01  -2.2236447E-01   0.0000000E+00   1.2437664E-01  -2.5468555E-01   0.0000000E+00   1.2392081E-01  -2.6422974E-01   0.0000000E+00   1.2090073E-01  -2.6192239E-01   0.0000000E+00   1.1422967E-01  -2.5168556E-01   0.0000000E+00   1.0810643E-01  -2.4255130E-01   0.0000000E+00   1.0310521E-01  -2.3734328E-01   0.0000000E+00   9.9886090E-02  -2.1009538E-01   0.0000000E+00   1.2070510E-01  -2.0102945E-01   0.0000000E+00   1.1573978E-01  -2.2913405E-01   0.0000000E+00   1.0894208E-01  -2.4430209E-01   0.0000000E+00   1.0663538E-01  -2.5521779E-01   0.0000000E+00   9.7827472E-02  -2.4995056E-01   0.0000000E+00   8.8790208E-02  -2.3986936E-01   0.0000000E+00   8.1059404E-02  -2.3312987E-01   0.0000000E+00   7.5753227E-02  -2.5753546E-01   0.0000000E+00   9.3947709E-02  -2.4792358E-01   0.0000000E+00   8.8197879E-02  -2.5576293E-01   0.0000000E+00   7.7176221E-02  -2.4919674E-01   0.0000000E+00   6.8452947E-02  -2.4047443E-01   0.0000000E+00   6.0695231E-02  -2.3249035E-01   0.0000000E+00   5.5271249E-02  -3.1479996E-01   0.0000000E+00   5.8227427E-02  -2.9196799E-01   0.0000000E+00   4.9696073E-02  -2.7392447E-01   0.0000000E+00   4.3721206E-02  -2.6371616E-01   0.0000000E+00   3.8655091E-02  -1.7845586E-01   0.0000000E+00   3.7736997E-03  -1.7842564E-01   0.0000000E+00   3.8236114E-03  -1.7831233E-01   0.0000000E+00   3.9703972E-03  -1.7804602E-01   0.0000000E+00   4.2049228E-03  -1.7750520E-01   0.0000000E+00   4.5113056E-03  -1.7650890E-01   0.0000000E+00   4.8641013E-03  -1.7480689E-01   0.0000000E+00   5.2221986E-03  -1.7207223E-01   0.0000000E+00   5.5222656E-03  -2.0459440E-01   0.0000000E+00   5.1040663E-03  -2.0456801E-01   0.0000000E+00   5.1634558E-03  -2.0446491E-01   0.0000000E+00   5.3380020E-03  -2.0421058E-01   0.0000000E+00   5.6161685E-03  -2.0367490E-01   0.0000000E+00   5.9770951E-03  -2.0266217E-01   0.0000000E+00   6.3867192E-03  -2.0089883E-01   0.0000000E+00   6.7903139E-03  -1.9802091E-01   0.0000000E+00   7.1065300E-03  -2.2257814E-01   0.0000000E+00   6.3166469E-03  -2.2256035E-01   0.0000000E+00   6.3780402E-03  -2.2248313E-01   0.0000000E+00   6.5581831E-03  -2.2227368E-01   0.0000000E+00   6.8440037E-03  -2.2180347E-01   0.0000000E+00   7.2108018E-03  -2.2087657E-01   0.0000000E+00   7.6171020E-03  -2.1921401E-01   0.0000000E+00   7.9973107E-03  -2.1643856E-01   0.0000000E+00   8.2588028E-03  -2.3632792E-01   0.0000000E+00   7.3241112E-03  -2.3632133E-01   0.0000000E+00   7.3785982E-03  -2.3627982E-01   0.0000000E+00   7.5378441E-03  -2.3613600E-01   0.0000000E+00   7.7880640E-03  -2.3576936E-01   0.0000000E+00   8.1020631E-03  -2.3499344E-01   0.0000000E+00   8.4330337E-03  -2.3353815E-01   0.0000000E+00   8.7091634E-03  -2.3102804E-01   0.0000000E+00   8.8363504E-03  -2.4948749E-01   0.0000000E+00   8.1568677E-03  -2.4949348E-01   0.0000000E+00   8.1958696E-03  -2.4949181E-01   0.0000000E+00   8.3086798E-03  -2.4942234E-01   0.0000000E+00   8.4809931E-03  -2.4917598E-01   0.0000000E+00   8.6837811E-03  -2.4858135E-01   0.0000000E+00   8.8670896E-03  -2.4738374E-01   0.0000000E+00   8.9582549E-03  -2.4521935E-01   0.0000000E+00   8.8735903E-03  -2.6456138E-01   0.0000000E+00   8.9625111E-03  -2.6457968E-01   0.0000000E+00   8.9791389E-03  -2.6461744E-01   0.0000000E+00   9.0245903E-03  -2.6462188E-01   0.0000000E+00   9.0832850E-03  -2.6449612E-01   0.0000000E+00   9.1234772E-03  -2.6408529E-01   0.0000000E+00   9.0930220E-03  -2.6315355E-01   0.0000000E+00   8.9230342E-03  -2.6135412E-01   0.0000000E+00   8.5517215E-03  -2.8262430E-01   0.0000000E+00   9.9800657E-03  -2.8265354E-01   0.0000000E+00   9.9698035E-03  -2.8272656E-01   0.0000000E+00   9.9336021E-03  -2.8279680E-01   0.0000000E+00   9.8525165E-03  -2.8277898E-01   0.0000000E+00   9.6894465E-03  -2.8253469E-01   0.0000000E+00   9.3885614E-03  -2.8184879E-01   0.0000000E+00   8.8871112E-03  -2.8039715E-01   0.0000000E+00   8.1536854E-03  -3.0359966E-01   0.0000000E+00   1.1501969E-02  -3.0363747E-01   0.0000000E+00   1.1462986E-02  -3.0373713E-01   0.0000000E+00   1.1338404E-02  -3.0385721E-01   0.0000000E+00   1.1102682E-02  -3.0392215E-01   0.0000000E+00   1.0709227E-02  -3.0380988E-01   0.0000000E+00   1.0094462E-02  -3.0332968E-01   0.0000000E+00   9.2011793E-03  -3.0219159E-01   0.0000000E+00   8.0345394E-03  -3.2702193E-01   0.0000000E+00   1.3833841E-02  -3.2706353E-01   0.0000000E+00   1.3767111E-02  -3.2717571E-01   0.0000000E+00   1.3555698E-02  -3.2731965E-01   0.0000000E+00   1.3164041E-02  -3.2742804E-01   0.0000000E+00   1.2531050E-02  -3.2739580E-01   0.0000000E+00   1.1580633E-02  -3.2706240E-01   0.0000000E+00   1.0260263E-02  -3.2618725E-01   0.0000000E+00   8.6200805E-03  -3.5282084E-01   0.0000000E+00   1.7260758E-02  -3.5285956E-01   0.0000000E+00   1.7170085E-02  -3.5296360E-01   0.0000000E+00   1.6882332E-02  -3.5309523E-01   0.0000000E+00   1.6349453E-02  -3.5319394E-01   0.0000000E+00   1.5492501E-02  -3.5317141E-01   0.0000000E+00   1.4220843E-02  -3.5290456E-01   0.0000000E+00   1.2490234E-02  -3.5222036E-01   0.0000000E+00   1.0410990E-02  -3.8110256E-01   0.0000000E+00   2.2019399E-02  -3.8113001E-01   0.0000000E+00   2.1911060E-02  -3.8120049E-01   0.0000000E+00   2.1565927E-02  -3.8127643E-01   0.0000000E+00   2.0923423E-02  -3.8130227E-01   0.0000000E+00   1.9887932E-02  -3.8120788E-01   0.0000000E+00   1.8358970E-02  -3.8091153E-01   0.0000000E+00   1.6311223E-02  -3.8032246E-01   0.0000000E+00   1.3933723E-02  -4.1187954E-01   0.0000000E+00   2.8271502E-02  -4.1188645E-01   0.0000000E+00   2.8153386E-02  -4.1189417E-01   0.0000000E+00   2.7775498E-02  -4.1186666E-01   0.0000000E+00   2.7068250E-02  -4.1175246E-01   0.0000000E+00   2.5926575E-02  -4.1149887E-01   0.0000000E+00   2.4252363E-02  -4.1106814E-01   0.0000000E+00   2.2054257E-02  -4.1045362E-01   0.0000000E+00   1.9611580E-02  -4.4514623E-01   0.0000000E+00   3.6083449E-02  -4.4512147E-01   0.0000000E+00   3.5963248E-02  -4.4503498E-01   0.0000000E+00   3.5577770E-02  -4.4485199E-01   0.0000000E+00   3.4854829E-02  -4.4452676E-01   0.0000000E+00   3.3691667E-02  -4.4402337E-01   0.0000000E+00   3.2007538E-02  -4.4334194E-01   0.0000000E+00   2.9857598E-02  -4.4255108E-01   0.0000000E+00   2.7605349E-02  -4.8090819E-01   0.0000000E+00   4.5414582E-02  -4.8084000E-01   0.0000000E+00   4.5297407E-02  -4.8062345E-01   0.0000000E+00   4.4922616E-02  -4.8022816E-01   0.0000000E+00   4.4223312E-02  -4.7961569E-01   0.0000000E+00   4.3110635E-02  -4.7876391E-01   0.0000000E+00   4.1532431E-02  -4.7770101E-01   0.0000000E+00   3.9591640E-02  -4.7654667E-01   0.0000000E+00   3.7708774E-02  -5.1918423E-01   0.0000000E+00   5.6116223E-02  -5.1905847E-01   0.0000000E+00   5.6002390E-02  -5.1867229E-01   0.0000000E+00   5.5641063E-02  -5.1800084E-01   0.0000000E+00   5.4977506E-02  -5.1701528E-01   0.0000000E+00   5.3945038E-02  -5.1570505E-01   0.0000000E+00   5.2523639E-02  -5.1411158E-01   0.0000000E+00   5.0851680E-02  -5.1237512E-01   0.0000000E+00   4.9362816E-02  -5.5999011E-01   0.0000000E+00   6.7938603E-02  -5.5979162E-01   0.0000000E+00   6.7820497E-02  -5.5919069E-01   0.0000000E+00   6.7452222E-02  -5.5817068E-01   0.0000000E+00   6.6796109E-02  -5.5671442E-01   0.0000000E+00   6.5811247E-02  -5.5482173E-01   0.0000000E+00   6.4506121E-02  -5.5253488E-01   0.0000000E+00   6.3034020E-02  -5.4998475E-01   0.0000000E+00   6.1794598E-02  -6.0331416E-01   0.0000000E+00   8.0534719E-02  -6.0302693E-01   0.0000000E+00   8.0398083E-02  -6.0216296E-01   0.0000000E+00   7.9980791E-02  -6.0071558E-01   0.0000000E+00   7.9264432E-02  -5.9868175E-01   0.0000000E+00   7.8234620E-02  -5.9607124E-01   0.0000000E+00   7.6921605E-02  -5.9292531E-01   0.0000000E+00   7.5472750E-02  -5.8934402E-01   0.0000000E+00   7.4220046E-02  -6.4908731E-01   0.0000000E+00   9.3475603E-02  -6.4869457E-01   0.0000000E+00   9.3302593E-02  -6.4751798E-01   0.0000000E+00   9.2782825E-02  -6.4556283E-01   0.0000000E+00   9.1917031E-02  -6.4284319E-01   0.0000000E+00   9.0715885E-02  -6.3938332E-01   0.0000000E+00   8.9225523E-02  -6.3522279E-01   0.0000000E+00   8.7575905E-02  -6.3043463E-01   0.0000000E+00   8.6020254E-02  -6.9714594E-01   0.0000000E+00   1.0628259E-01  -6.9663268E-01   0.0000000E+00   1.0605498E-01  -6.9509882E-01   0.0000000E+00   1.0537946E-01  -6.9256449E-01   0.0000000E+00   1.0427613E-01  -6.8906248E-01   0.0000000E+00   1.0278039E-01  -6.8463832E-01   0.0000000E+00   1.0095268E-01  -6.7934161E-01   0.0000000E+00   9.8904863E-02  -6.7322528E-01   0.0000000E+00   9.6820056E-02  -7.4720842E-01   0.0000000E+00   1.1846934E-01  -7.4656332E-01   0.0000000E+00   1.1817162E-01  -7.4463964E-01   0.0000000E+00   1.1729512E-01  -7.4147362E-01   0.0000000E+00   1.1588547E-01  -7.3712111E-01   0.0000000E+00   1.1400665E-01  -7.3165613E-01   0.0000000E+00   1.1173744E-01  -7.2514719E-01   0.0000000E+00   1.0917892E-01  -7.1764088E-01   0.0000000E+00   1.0645934E-01  -7.9886413E-01   0.0000000E+00   1.2958473E-01  -7.9808176E-01   0.0000000E+00   1.2920529E-01  -7.9575258E-01   0.0000000E+00   1.2809750E-01  -7.9193109E-01   0.0000000E+00   1.2634140E-01  -7.8670371E-01   0.0000000E+00   1.2404157E-01  -7.8017426E-01   0.0000000E+00   1.2130318E-01  -7.7243608E-01   0.0000000E+00   1.1822423E-01  -7.6354069E-01   0.0000000E+00   1.1489256E-01  -8.5156906E-01   0.0000000E+00   1.3925339E-01  -8.5064930E-01   0.0000000E+00   1.3878676E-01  -8.4792006E-01   0.0000000E+00   1.3743526E-01  -8.4345645E-01   0.0000000E+00   1.3532507E-01  -8.3737648E-01   0.0000000E+00   1.3261423E-01  -8.2981724E-01   0.0000000E+00   1.2944335E-01  -8.2089865E-01   0.0000000E+00   1.2591295E-01  -8.1067812E-01   0.0000000E+00   1.2207803E-01  -9.0456712E-01   0.0000000E+00   1.4721328E-01  -9.0352029E-01   0.0000000E+00   1.4666054E-01  -9.0041602E-01   0.0000000E+00   1.4507231E-01  -8.9535606E-01   0.0000000E+00   1.4262982E-01  -8.8849097E-01   0.0000000E+00   1.3955137E-01  -8.7998897E-01   0.0000000E+00   1.3601647E-01  -8.6999297E-01   0.0000000E+00   1.3212776E-01  -8.5856748E-01   0.0000000E+00   1.2791227E-01  -9.5662361E-01   0.0000000E+00   1.5333834E-01  -9.5546389E-01   0.0000000E+00   1.5270866E-01  -9.5202899E-01   0.0000000E+00   1.5091170E-01  -9.4644439E-01   0.0000000E+00   1.4818272E-01  -9.3888819E-01   0.0000000E+00   1.4479557E-01  -9.2955923E-01   0.0000000E+00   1.4095952E-01  -9.1861773E-01   0.0000000E+00   1.3677061E-01  -9.0613711E-01   0.0000000E+00   1.3223256E-01  -1.0054437E+00   0.0000000E+00   1.5763557E-01  -1.0041891E+00   0.0000000E+00   1.5694736E-01  -1.0004760E+00   0.0000000E+00   1.5499245E-01  -9.9444836E-01   0.0000000E+00   1.5204564E-01  -9.8630679E-01   0.0000000E+00   1.4841506E-01  -9.7626758E-01   0.0000000E+00   1.4431153E-01  -9.6450788E-01   0.0000000E+00   1.3980395E-01  -9.5112330E-01   0.0000000E+00   1.3487960E-01  -1.0468861E+00   0.0000000E+00   1.6019739E-01  -1.0455570E+00   0.0000000E+00   1.5948017E-01  -1.0416251E+00   0.0000000E+00   1.5744518E-01  -1.0352404E+00   0.0000000E+00   1.5437871E-01  -1.0266126E+00   0.0000000E+00   1.5057956E-01  -1.0159647E+00   0.0000000E+00   1.4621301E-01  -1.0034950E+00   0.0000000E+00   1.4128637E-01  -9.8934573E-01   0.0000000E+00   1.3578445E-01  -1.0743842E+00   0.0000000E+00   1.6110303E-01  -1.0730050E+00   0.0000000E+00   1.6039969E-01  -1.0689186E+00   0.0000000E+00   1.5839744E-01  -1.0622698E+00   0.0000000E+00   1.5534858E-01  -1.0532591E+00   0.0000000E+00   1.5148258E-01  -1.0421090E+00   0.0000000E+00   1.4685616E-01  -1.0290380E+00   0.0000000E+00   1.4137751E-01  -1.0142682E+00   0.0000000E+00   1.3505620E-01  -1.0791341E+00   0.0000000E+00   1.6029225E-01  -1.0777326E+00   0.0000000E+00   1.5966076E-01  -1.0735699E+00   0.0000000E+00   1.5784235E-01  -1.0667710E+00   0.0000000E+00   1.5500067E-01  -1.0575079E+00   0.0000000E+00   1.5122582E-01  -1.0459872E+00   0.0000000E+00   1.4640465E-01  -1.0324599E+00   0.0000000E+00   1.4032748E-01  -1.0172472E+00   0.0000000E+00   1.3308662E-01  -1.0513587E+00   0.0000000E+00   1.5749119E-01  -1.0499616E+00   0.0000000E+00   1.5700267E-01  -1.0458018E+00   0.0000000E+00   1.5556136E-01  -1.0389626E+00   0.0000000E+00   1.5318662E-01  -1.0295707E+00   0.0000000E+00   1.4976743E-01  -1.0178053E+00   0.0000000E+00   1.4499252E-01  -1.0039392E+00   0.0000000E+00   1.3856681E-01  -9.8838544E-01   0.0000000E+00   1.3073975E-01  -9.8100168E-01   0.0000000E+00   1.5242520E-01  -9.7960567E-01   0.0000000E+00   1.5216349E-01  -9.7542721E-01   0.0000000E+00   1.5133531E-01  -9.6849686E-01   0.0000000E+00   1.4978169E-01  -9.5887184E-01   0.0000000E+00   1.4716923E-01  -9.4668603E-01   0.0000000E+00   1.4301626E-01  -9.3221259E-01   0.0000000E+00   1.3701461E-01  -9.1592979E-01   0.0000000E+00   1.2956598E-01  -8.5165489E-01   0.0000000E+00   1.4553377E-01  -8.5017228E-01   0.0000000E+00   1.4559172E-01  -8.4571010E-01   0.0000000E+00   1.4565390E-01  -8.3823246E-01   0.0000000E+00   1.4538811E-01  -8.2772923E-01   0.0000000E+00   1.4426850E-01  -8.1428641E-01   0.0000000E+00   1.4170218E-01  -7.9817605E-01   0.0000000E+00   1.3736950E-01  -7.7993327E-01   0.0000000E+00   1.3163939E-01  -6.3083738E-01   0.0000000E+00   1.3854399E-01  -6.2908977E-01   0.0000000E+00   1.3901627E-01  -6.2381518E-01   0.0000000E+00   1.4026579E-01  -6.1493856E-01   0.0000000E+00   1.4182557E-01  -6.0241479E-01   0.0000000E+00   1.4302561E-01  -5.8632928E-01   0.0000000E+00   1.4316918E-01  -5.6699336E-01   0.0000000E+00   1.4178698E-01  -5.4494917E-01   0.0000000E+00   1.3890357E-01  -2.7332738E-01   0.0000000E+00   1.3426699E-01  -2.7112278E-01   0.0000000E+00   1.3522950E-01  -2.6448166E-01   0.0000000E+00   1.3791600E-01  -2.5335184E-01   0.0000000E+00   1.4176573E-01  -2.3774421E-01   0.0000000E+00   1.4598273E-01  -2.1783985E-01   0.0000000E+00   1.4968881E-01  -1.9403958E-01   0.0000000E+00   1.5202895E-01  -1.6680500E-01   0.0000000E+00   1.5232053E-01   2.5961906E-01   0.0000000E+00   1.3545579E-01   2.6233172E-01   0.0000000E+00   1.3693109E-01   2.7045679E-01   0.0000000E+00   1.4114116E-01   2.8393385E-01   0.0000000E+00   1.4746606E-01   3.0257314E-01   0.0000000E+00   1.5496841E-01   3.2597938E-01   0.0000000E+00   1.6245727E-01   3.5359761E-01   0.0000000E+00   1.6840756E-01   3.8500714E-01   0.0000000E+00   1.7107786E-01   9.7085124E-01   0.0000000E+00   1.4295968E-01   9.7380120E-01   0.0000000E+00   1.4488842E-01   9.8257083E-01   0.0000000E+00   1.5046072E-01   9.9689525E-01   0.0000000E+00   1.5903287E-01   1.0162847E+00   0.0000000E+00   1.6951367E-01   1.0400223E+00   0.0000000E+00   1.8026254E-01   1.0673041E+00   0.0000000E+00   1.8882224E-01   1.0975951E+00   0.0000000E+00   1.9212052E-01   1.7993186E+00   0.0000000E+00   1.5392379E-01   1.8018074E+00   0.0000000E+00   1.5617050E-01   1.8091047E+00   0.0000000E+00   1.6272585E-01   1.8207166E+00   0.0000000E+00   1.7296861E-01   1.8358240E+00   0.0000000E+00   1.8566725E-01   1.8533660E+00   0.0000000E+00   1.9865413E-01   1.8722755E+00   0.0000000E+00   2.0841071E-01   1.8917481E+00   0.0000000E+00   2.1044047E-01   2.6153564E+00   0.0000000E+00   1.6138470E-01   2.6162968E+00   0.0000000E+00   1.6381197E-01   2.6189103E+00   0.0000000E+00   1.7095624E-01   2.6225863E+00   0.0000000E+00   1.8226533E-01   2.6263523E+00   0.0000000E+00   1.9641125E-01   2.6289976E+00   0.0000000E+00   2.1073648E-01   2.6292992E+00   0.0000000E+00   2.2075908E-01   2.6261461E+00   0.0000000E+00   2.2076742E-01   3.2419367E+00   0.0000000E+00   1.5744311E-01   3.2403948E+00   0.0000000E+00   1.6001339E-01   3.2355912E+00   0.0000000E+00   1.6760820E-01   3.2269945E+00   0.0000000E+00   1.7970821E-01   3.2138109E+00   0.0000000E+00   1.9492929E-01   3.1950996E+00   0.0000000E+00   2.1034814E-01   3.1698630E+00   0.0000000E+00   2.2098224E-01   3.1370294E+00   0.0000000E+00   2.2052895E-01   3.5652361E+00   0.0000000E+00   1.4046828E-01   3.5609672E+00   0.0000000E+00   1.4327919E-01   3.5481110E+00   0.0000000E+00   1.5156604E-01   3.5265179E+00   0.0000000E+00   1.6475198E-01   3.4960437E+00   0.0000000E+00   1.8139596E-01   3.4565749E+00   0.0000000E+00   1.9849849E-01   3.4079409E+00   0.0000000E+00   2.1099274E-01   3.3494766E+00   0.0000000E+00   2.1257067E-01   3.6390851E+00   0.0000000E+00   1.1620905E-01   3.6326113E+00   0.0000000E+00   1.1944142E-01   3.6133409E+00   0.0000000E+00   1.2890480E-01   3.5817475E+00   0.0000000E+00   1.4384618E-01   3.5386534E+00   0.0000000E+00   1.6269691E-01   3.4851575E+00   0.0000000E+00   1.8239032E-01   3.4222205E+00   0.0000000E+00   1.9788723E-01   3.3498230E+00   0.0000000E+00   2.0307665E-01   3.5697904E+00   0.0000000E+00   9.3695395E-02   3.5621879E+00   0.0000000E+00   9.7509906E-02   3.5397670E+00   0.0000000E+00   1.0858069E-01   3.5036728E+00   0.0000000E+00   1.2585732E-01   3.4557829E+00   0.0000000E+00   1.4751217E-01   3.3984189E+00   0.0000000E+00   1.7026888E-01   3.3336585E+00   0.0000000E+00   1.8896489E-01   3.2620728E+00   0.0000000E+00   1.9757964E-01   3.4402692E+00   0.0000000E+00   8.1089139E-02   3.4328396E+00   0.0000000E+00   8.5512795E-02   3.4111304E+00   0.0000000E+00   9.8254792E-02   3.3768246E+00   0.0000000E+00   1.1789642E-01   3.3325896E+00   0.0000000E+00   1.4222078E-01   3.2816389E+00   0.0000000E+00   1.6757110E-01   3.2267649E+00   0.0000000E+00   1.8843642E-01   3.1687803E+00   0.0000000E+00   1.9867119E-01   3.2783611E+00   0.0000000E+00   8.2825691E-02   3.2723145E+00   0.0000000E+00   8.7685987E-02   3.2548277E+00   0.0000000E+00   1.0161664E-01   3.2278061E+00   0.0000000E+00   1.2287634E-01   3.1942103E+00   0.0000000E+00   1.4882173E-01   3.1575019E+00   0.0000000E+00   1.7534210E-01   3.1205244E+00   0.0000000E+00   1.9646254E-01   3.0838230E+00   0.0000000E+00   2.0574059E-01   3.0633876E+00   0.0000000E+00   9.8692730E-02   3.0596089E+00   0.0000000E+00   1.0363057E-01   3.0488622E+00   0.0000000E+00   1.1775529E-01   3.0328658E+00   0.0000000E+00   1.3919543E-01   3.0142450E+00   0.0000000E+00   1.6503589E-01   2.9959741E+00   0.0000000E+00   1.9080451E-01   2.9802613E+00   0.0000000E+00   2.1012551E-01   2.9669459E+00   0.0000000E+00   2.1623148E-01   2.7569399E+00   0.0000000E+00   1.2487298E-01   2.7558937E+00   0.0000000E+00   1.2943010E-01   2.7531502E+00   0.0000000E+00   1.4248823E-01   2.7498586E+00   0.0000000E+00   1.6234075E-01   2.7477546E+00   0.0000000E+00   1.8615824E-01   2.7486992E+00   0.0000000E+00   2.0939416E-01   2.7537971E+00   0.0000000E+00   2.2549094E-01   2.7620504E+00   0.0000000E+00   2.2744869E-01   2.3398168E+00   0.0000000E+00   1.5617304E-01   2.3415127E+00   0.0000000E+00   1.5992390E-01   2.3467271E+00   0.0000000E+00   1.7075214E-01   2.3558106E+00   0.0000000E+00   1.8742184E-01   2.3692796E+00   0.0000000E+00   2.0762047E-01   2.3875899E+00   0.0000000E+00   2.2715081E-01   2.4106169E+00   0.0000000E+00   2.3959707E-01   2.4367621E+00   0.0000000E+00   2.3786478E-01   1.8378346E+00   0.0000000E+00   1.8794119E-01   1.8417959E+00   0.0000000E+00   1.9061577E-01   1.8535211E+00   0.0000000E+00   1.9848059E-01   1.8725632E+00   0.0000000E+00   2.1099669E-01   1.8982476E+00   0.0000000E+00   2.2671175E-01   1.9297373E+00   0.0000000E+00   2.4216674E-01   1.9659561E+00   0.0000000E+00   2.5140911E-01   2.0052516E+00   0.0000000E+00   2.4737278E-01   1.3133610E+00   0.0000000E+00   2.1702693E-01   1.3186877E+00   0.0000000E+00   2.1856998E-01   1.3343114E+00   0.0000000E+00   2.2332905E-01   1.3592287E+00   0.0000000E+00   2.3154189E-01   1.3919469E+00   0.0000000E+00   2.4276975E-01   1.4308103E+00   0.0000000E+00   2.5450400E-01   1.4743378E+00   0.0000000E+00   2.6144338E-01   1.5214558E+00   0.0000000E+00   2.5662932E-01   8.3322459E-01   0.0000000E+00   2.4173443E-01   8.3888626E-01   0.0000000E+00   2.4229591E-01   8.5544950E-01   0.0000000E+00   2.4436225E-01   8.8170040E-01   0.0000000E+00   2.4886145E-01   9.1585416E-01   0.0000000E+00   2.5629708E-01   9.5603096E-01   0.0000000E+00   2.6509297E-01   1.0009396E+00   0.0000000E+00   2.7060723E-01   1.0505383E+00   0.0000000E+00   2.6602161E-01   4.4345996E-01   0.0000000E+00   2.6113558E-01   4.4864589E-01   0.0000000E+00   2.6101044E-01   4.6381643E-01   0.0000000E+00   2.6117969E-01   4.8785803E-01   0.0000000E+00   2.6303026E-01   5.1914465E-01   0.0000000E+00   2.6773918E-01   5.5605674E-01   0.0000000E+00   2.7444333E-01   5.9783566E-01   0.0000000E+00   2.7902985E-01   6.4554495E-01   0.0000000E+00   2.7484310E-01   1.5853427E-01   0.0000000E+00   2.7475759E-01   1.6283391E-01   0.0000000E+00   2.7428693E-01   1.7544469E-01   0.0000000E+00   2.7346757E-01   1.9554168E-01   0.0000000E+00   2.7383500E-01   2.2193088E-01   0.0000000E+00   2.7684754E-01   2.5349066E-01   0.0000000E+00   2.8203017E-01   2.9000986E-01   0.0000000E+00   2.8563553E-01   3.3329511E-01   0.0000000E+00   2.8125501E-01  -3.3354670E-02   0.0000000E+00   2.8259557E-01  -2.9968824E-02   0.0000000E+00   2.8207219E-01  -1.9973928E-02   0.0000000E+00   2.8102031E-01  -3.8357771E-03   0.0000000E+00   2.8080022E-01   1.7774371E-02   0.0000000E+00   2.8275320E-01   4.4255242E-02   0.0000000E+00   2.8648707E-01   7.5724214E-02   0.0000000E+00   2.8853416E-01   1.1411764E-01   0.0000000E+00   2.8292876E-01  -1.5703334E-01   0.0000000E+00   2.8518894E-01  -1.5432605E-01   0.0000000E+00   2.8476495E-01  -1.4624757E-01   0.0000000E+00   2.8385621E-01  -1.3292649E-01   0.0000000E+00   2.8342041E-01  -1.1456671E-01   0.0000000E+00   2.8438056E-01  -9.1365725E-02   0.0000000E+00   2.8622398E-01  -6.3160576E-02   0.0000000E+00   2.8580105E-01  -2.8489467E-02   0.0000000E+00   2.7789459E-01  -2.3751491E-01   0.0000000E+00   2.8334716E-01  -2.3513828E-01   0.0000000E+00   2.8300074E-01  -2.2795804E-01   0.0000000E+00   2.8216398E-01  -2.1584198E-01   0.0000000E+00   2.8134078E-01  -1.9865835E-01   0.0000000E+00   2.8089449E-01  -1.7639309E-01   0.0000000E+00   2.8008494E-01  -1.4908090E-01   0.0000000E+00   2.7625051E-01  -1.1616044E-01   0.0000000E+00   2.6532602E-01  -2.9198459E-01   0.0000000E+00   2.7770197E-01  -2.8960687E-01   0.0000000E+00   2.7729937E-01  -2.8235739E-01   0.0000000E+00   2.7616322E-01  -2.6992857E-01   0.0000000E+00   2.7440831E-01  -2.5201601E-01   0.0000000E+00   2.7188885E-01  -2.2861828E-01   0.0000000E+00   2.6770446E-01  -2.0016643E-01   0.0000000E+00   2.5989765E-01  -1.6742860E-01   0.0000000E+00   2.4602960E-01  -3.2826161E-01   0.0000000E+00   2.6847014E-01  -3.2562828E-01   0.0000000E+00   2.6783100E-01  -3.1757072E-01   0.0000000E+00   2.6590744E-01  -3.0371562E-01   0.0000000E+00   2.6257810E-01  -2.8378135E-01   0.0000000E+00   2.5740635E-01  -2.5800669E-01   0.0000000E+00   2.4956906E-01  -2.2751871E-01   0.0000000E+00   2.3806134E-01  -1.9525634E-01   0.0000000E+00   2.2254775E-01  -3.4774351E-01   0.0000000E+00   2.5536233E-01  -3.4469485E-01   0.0000000E+00   2.5434256E-01  -3.3540076E-01   0.0000000E+00   2.5125378E-01  -3.1957319E-01   0.0000000E+00   2.4593976E-01  -2.9717773E-01   0.0000000E+00   2.3800562E-01  -2.6905459E-01   0.0000000E+00   2.2706164E-01  -2.3796652E-01   0.0000000E+00   2.1343140E-01  -2.0886560E-01   0.0000000E+00   1.9854519E-01  -3.4948206E-01   0.0000000E+00   2.3777288E-01  -3.4599525E-01   0.0000000E+00   2.3634052E-01  -3.3546507E-01   0.0000000E+00   2.3204876E-01  -3.1788823E-01   0.0000000E+00   2.2490939E-01  -2.9397035E-01   0.0000000E+00   2.1496834E-01  -2.6603934E-01   0.0000000E+00   2.0271954E-01  -2.3839684E-01   0.0000000E+00   1.8959819E-01  -2.1631762E-01   0.0000000E+00   1.7751090E-01  -3.3361417E-01   0.0000000E+00   2.1521668E-01  -3.2988557E-01   0.0000000E+00   2.1350557E-01  -3.1889990E-01   0.0000000E+00   2.0851132E-01  -3.0143988E-01   0.0000000E+00   2.0065399E-01  -2.7952531E-01   0.0000000E+00   1.9069605E-01  -2.5652656E-01   0.0000000E+00   1.7979631E-01  -2.3700605E-01   0.0000000E+00   1.6955735E-01  -2.2468413E-01   0.0000000E+00   1.6143301E-01  -3.0466884E-01   0.0000000E+00   1.8793315E-01  -3.0135819E-01   0.0000000E+00   1.8634701E-01  -2.9200035E-01   0.0000000E+00   1.8188365E-01  -2.7829435E-01   0.0000000E+00   1.7536213E-01  -2.6304752E-01   0.0000000E+00   1.6788331E-01  -2.4967781E-01   0.0000000E+00   1.6054086E-01  -2.4126753E-01   0.0000000E+00   1.5448692E-01  -2.3805289E-01   0.0000000E+00   1.5045452E-01  -2.7247503E-01   0.0000000E+00   1.5765798E-01  -2.7046412E-01   0.0000000E+00   1.5674882E-01  -2.6515958E-01   0.0000000E+00   1.5430750E-01  -2.5863838E-01   0.0000000E+00   1.5108559E-01  -2.5374642E-01   0.0000000E+00   1.4780635E-01  -2.5221765E-01   0.0000000E+00   1.4519313E-01  -2.5380501E-01   0.0000000E+00   1.4340803E-01  -2.5252166E-01   0.0000000E+00   1.4299358E-01  -2.4757433E-01   0.0000000E+00   1.2713103E-01  -2.4743450E-01   0.0000000E+00   1.2725253E-01  -2.4768488E-01   0.0000000E+00   1.2769911E-01  -2.5026459E-01   0.0000000E+00   1.2860802E-01  -2.5597411E-01   0.0000000E+00   1.3023652E-01  -2.6289612E-01   0.0000000E+00   1.3238417E-01  -2.6526204E-01   0.0000000E+00   1.3447320E-01  -2.5185314E-01   0.0000000E+00   1.3522217E-01  -2.3563343E-01   0.0000000E+00   9.8760836E-02  -2.3734330E-01   0.0000000E+00   9.9885933E-02  -2.4255158E-01   0.0000000E+00   1.0310503E-01  -2.5168607E-01   0.0000000E+00   1.0810620E-01  -2.6192245E-01   0.0000000E+00   1.1422951E-01  -2.6423028E-01   0.0000000E+00   1.2090060E-01  -2.5468621E-01   0.0000000E+00   1.2392070E-01  -2.2236468E-01   0.0000000E+00   1.2437649E-01  -2.3069496E-01   0.0000000E+00   7.3945671E-02  -2.3312981E-01   0.0000000E+00   7.5753085E-02  -2.3986939E-01   0.0000000E+00   8.1059210E-02  -2.4995105E-01   0.0000000E+00   8.8789985E-02  -2.5521827E-01   0.0000000E+00   9.7827189E-02  -2.4430297E-01   0.0000000E+00   1.0663517E-01  -2.2913465E-01   0.0000000E+00   1.0894197E-01  -2.0102972E-01   0.0000000E+00   1.1573959E-01  -2.2960871E-01   0.0000000E+00   5.3245138E-02  -2.3249033E-01   0.0000000E+00   5.5271141E-02  -2.4047478E-01   0.0000000E+00   6.0695037E-02  -2.4919720E-01   0.0000000E+00   6.8452641E-02  -2.5576341E-01   0.0000000E+00   7.7175938E-02  -2.4792403E-01   0.0000000E+00   8.8197589E-02  -2.5753549E-01   0.0000000E+00   9.3947574E-02  -2.6054609E-01   0.0000000E+00   3.6704328E-02  -2.6371598E-01   0.0000000E+00   3.8654961E-02  -2.7392495E-01   0.0000000E+00   4.3721016E-02  -2.9196829E-01   0.0000000E+00   4.9695835E-02  -3.1480074E-01   0.0000000E+00   5.8227126E-02  -1.6789921E-01   0.0000000E+00   5.6564840E-03  -1.6179535E-01   0.0000000E+00   5.4251836E-03  -1.5314440E-01   0.0000000E+00   4.5071039E-03  -1.4127240E-01   0.0000000E+00   2.5966177E-03  -1.2568337E-01   0.0000000E+00  -3.9424864E-04  -1.0640229E-01   0.0000000E+00  -4.1490295E-03  -8.4348530E-02   0.0000000E+00  -7.7912365E-03  -1.9357520E-01   0.0000000E+00   7.2136521E-03  -1.8700424E-01   0.0000000E+00   6.8746894E-03  -1.7758101E-01   0.0000000E+00   5.6970990E-03  -1.6447574E-01   0.0000000E+00   3.3060156E-03  -1.4703825E-01   0.0000000E+00  -4.1901181E-04  -1.2521684E-01   0.0000000E+00  -5.1254453E-03  -1.0001079E-01   0.0000000E+00  -9.7996984E-03  -7.3673934E-02   0.0000000E+00  -1.2775806E-02  -2.1206984E-01   0.0000000E+00   8.2843592E-03  -2.0550708E-01   0.0000000E+00   7.8316750E-03  -1.9592784E-01   0.0000000E+00   6.4694085E-03  -1.8233910E-01   0.0000000E+00   3.7698073E-03  -1.6389322E-01   0.0000000E+00  -4.2858953E-04  -1.4037272E-01   0.0000000E+00  -5.7791467E-03  -1.1273272E-01   0.0000000E+00  -1.1224871E-02  -8.3452463E-02   0.0000000E+00  -1.5012783E-02  -2.2696845E-01   0.0000000E+00   8.7226247E-03  -2.2072436E-01   0.0000000E+00   8.1631290E-03  -2.1138653E-01   0.0000000E+00   6.7238463E-03  -1.9779108E-01   0.0000000E+00   3.9359313E-03  -1.7885144E-01   0.0000000E+00  -4.2191520E-04  -1.5411600E-01   0.0000000E+00  -6.0613002E-03  -1.2445021E-01   0.0000000E+00  -1.1958121E-02  -9.2553064E-02   0.0000000E+00  -1.6299691E-02  -2.4159031E-01   0.0000000E+00   8.5644228E-03  -2.3582739E-01   0.0000000E+00   7.9036457E-03  -2.2694241E-01   0.0000000E+00   6.4865304E-03  -2.1359424E-01   0.0000000E+00   3.8140658E-03  -1.9443864E-01   0.0000000E+00  -4.0944619E-04  -1.6882727E-01   0.0000000E+00  -6.0000308E-03  -1.3749714E-01   0.0000000E+00  -1.2034715E-02  -1.0319880E-01   0.0000000E+00  -1.6689207E-02  -2.5819772E-01   0.0000000E+00   7.9897046E-03  -2.5299418E-01   0.0000000E+00   7.2074374E-03  -2.4467704E-01   0.0000000E+00   5.8609075E-03  -2.3178478E-01   0.0000000E+00   3.4449839E-03  -2.1294709E-01   0.0000000E+00  -4.1747140E-04  -1.8736519E-01   0.0000000E+00  -5.7024499E-03  -1.5536788E-01   0.0000000E+00  -1.1661023E-02  -1.1924412E-01   0.0000000E+00  -1.6455695E-02  -2.7771550E-01   0.0000000E+00   7.2729536E-03  -2.7312741E-01   0.0000000E+00   6.3165152E-03  -2.6555282E-01   0.0000000E+00   5.0380575E-03  -2.5375190E-01   0.0000000E+00   2.9542993E-03  -2.3660521E-01   0.0000000E+00  -4.3612951E-04  -2.1312904E-01   0.0000000E+00  -5.3339908E-03  -1.8281376E-01   0.0000000E+00  -1.1184906E-02  -1.4615640E-01   0.0000000E+00  -1.5979931E-02  -2.9997849E-01   0.0000000E+00   6.7666620E-03  -2.9607844E-01   0.0000000E+00   5.5919075E-03  -2.8970176E-01   0.0000000E+00   4.3784678E-03  -2.8021848E-01   0.0000000E+00   2.6234183E-03  -2.6706192E-01   0.0000000E+00  -3.7896656E-04  -2.4920635E-01   0.0000000E+00  -5.0938716E-03  -2.2478449E-01   0.0000000E+00  -1.1050638E-02  -1.9051437E-01   0.0000000E+00  -1.5609580E-02  -3.2443327E-01   0.0000000E+00   6.9395914E-03  -3.2136670E-01   0.0000000E+00   5.5675698E-03  -3.1680399E-01   0.0000000E+00   4.4460781E-03  -3.1106645E-01   0.0000000E+00   2.9265180E-03  -3.0452713E-01   0.0000000E+00  -1.2927456E-05  -2.9656404E-01   0.0000000E+00  -5.0837249E-03  -2.8400952E-01   0.0000000E+00  -1.1699467E-02  -2.5798854E-01   0.0000000E+00  -1.5830915E-02  -3.5089225E-01   0.0000000E+00   8.3931908E-03  -3.4878740E-01   0.0000000E+00   6.9444282E-03  -3.4646520E-01   0.0000000E+00   5.9823701E-03  -3.4533608E-01   0.0000000E+00   4.5643058E-03  -3.4702626E-01   0.0000000E+00   1.1796502E-03  -3.5194933E-01   0.0000000E+00  -5.2162171E-03  -3.5678899E-01   0.0000000E+00  -1.3876845E-02  -3.4817266E-01   0.0000000E+00  -1.9387331E-02  -3.7934849E-01   0.0000000E+00   1.1778210E-02  -3.7817594E-01   0.0000000E+00   1.0475122E-02  -3.7800252E-01   0.0000000E+00   9.8220743E-03  -3.8113859E-01   0.0000000E+00   8.4444610E-03  -3.9032680E-01   0.0000000E+00   4.0820776E-03  -4.0728757E-01   0.0000000E+00  -5.2175745E-03  -4.3000114E-01   0.0000000E+00  -1.8909354E-02  -4.4553280E-01   0.0000000E+00  -3.1830236E-02  -4.0970173E-01   0.0000000E+00   1.7604150E-02  -4.0922013E-01   0.0000000E+00   1.6732611E-02  -4.1053402E-01   0.0000000E+00   1.6645545E-02  -4.1635427E-01   0.0000000E+00   1.5468735E-02  -4.2989731E-01   0.0000000E+00   9.8949522E-03  -4.5350364E-01   0.0000000E+00  -3.3969991E-03  -4.8615691E-01   0.0000000E+00  -2.3212494E-02  -5.1451916E-01   0.0000000E+00  -4.0054999E-02  -4.4181755E-01   0.0000000E+00   2.6019415E-02  -4.4162607E-01   0.0000000E+00   2.5825059E-02  -4.4345507E-01   0.0000000E+00   2.6592683E-02  -4.4984525E-01   0.0000000E+00   2.6179530E-02  -4.6373793E-01   0.0000000E+00   2.0833097E-02  -4.8720995E-01   0.0000000E+00   8.3873253E-03  -5.1867199E-01   0.0000000E+00   7.3793717E-04  -5.4559851E-01   0.0000000E+00   8.6441413E-03  -4.7555339E-01   0.0000000E+00   3.6680099E-02  -4.7518605E-01   0.0000000E+00   3.7208371E-02  -4.7659805E-01   0.0000000E+00   3.8931318E-02  -4.8177978E-01   0.0000000E+00   3.9993539E-02  -4.9300197E-01   0.0000000E+00   3.7795529E-02  -5.1181376E-01   0.0000000E+00   3.3835944E-02  -5.3690374E-01   0.0000000E+00   4.3389797E-02  -5.5998421E-01   0.0000000E+00   6.1027464E-02  -5.1078063E-01   0.0000000E+00   4.8810650E-02  -5.0975800E-01   0.0000000E+00   4.9820993E-02  -5.1005507E-01   0.0000000E+00   5.2203141E-02  -5.1298594E-01   0.0000000E+00   5.4812312E-02  -5.2009034E-01   0.0000000E+00   5.6582831E-02  -5.3249049E-01   0.0000000E+00   6.0711462E-02  -5.4976016E-01   0.0000000E+00   7.4883953E-02  -5.6773400E-01   0.0000000E+00   8.9274347E-02  -5.4743236E-01   0.0000000E+00   6.1433114E-02  -5.4527235E-01   0.0000000E+00   6.2460035E-02  -5.4397255E-01   0.0000000E+00   6.4838491E-02  -5.4426229E-01   0.0000000E+00   6.8106249E-02  -5.4704678E-01   0.0000000E+00   7.2187640E-02  -5.5304575E-01   0.0000000E+00   7.9668351E-02  -5.6238395E-01   0.0000000E+00   9.0445459E-02  -5.7370436E-01   0.0000000E+00   9.7903103E-02  -5.8552778E-01   0.0000000E+00   7.3661342E-02  -5.8179194E-01   0.0000000E+00   7.4194103E-02  -5.7851899E-01   0.0000000E+00   7.5868644E-02  -5.7611054E-01   0.0000000E+00   7.8610040E-02  -5.7504410E-01   0.0000000E+00   8.2741983E-02  -5.7572234E-01   0.0000000E+00   8.9751147E-02  -5.7830310E-01   0.0000000E+00   9.6477993E-02  -5.8255869E-01   0.0000000E+00   9.8289132E-02  -6.2514138E-01   0.0000000E+00   8.4906280E-02  -6.1955237E-01   0.0000000E+00   8.4537290E-02  -6.1400050E-01   0.0000000E+00   8.5051194E-02  -6.0887259E-01   0.0000000E+00   8.6535811E-02  -6.0450345E-01   0.0000000E+00   8.9323260E-02  -6.0115176E-01   0.0000000E+00   9.4167970E-02  -5.9893298E-01   0.0000000E+00   9.7480074E-02  -5.9784210E-01   0.0000000E+00   9.5819719E-02  -6.6634363E-01   0.0000000E+00   9.4921179E-02  -6.5879995E-01   0.0000000E+00   9.3444951E-02  -6.5086794E-01   0.0000000E+00   9.2619032E-02  -6.4298850E-01   0.0000000E+00   9.2652440E-02  -6.3561654E-01   0.0000000E+00   9.3802489E-02  -6.2908155E-01   0.0000000E+00   9.6417382E-02  -6.2356108E-01   0.0000000E+00   9.7615078E-02  -6.1916345E-01   0.0000000E+00   9.4056182E-02  -7.0914471E-01   0.0000000E+00   1.0371048E-01  -6.9967258E-01   0.0000000E+00   1.0113054E-01  -6.8944365E-01   0.0000000E+00   9.9030562E-02  -6.7895025E-01   0.0000000E+00   9.7720221E-02  -6.6878915E-01   0.0000000E+00   9.7499698E-02  -6.5946370E-01   0.0000000E+00   9.8597236E-02  -6.5130579E-01   0.0000000E+00   9.8699488E-02  -6.4453197E-01   0.0000000E+00   9.4261713E-02  -7.5346655E-01   0.0000000E+00   1.1137289E-01  -7.4216384E-01   0.0000000E+00   1.0784334E-01  -7.2981465E-01   0.0000000E+00   1.0469448E-01  -7.1695989E-01   0.0000000E+00   1.0234288E-01  -7.0433027E-01   0.0000000E+00   1.0119443E-01  -6.9258732E-01   0.0000000E+00   1.0150679E-01  -6.8220186E-01   0.0000000E+00   1.0112855E-01  -6.7347473E-01   0.0000000E+00   9.6094631E-02  -7.9911661E-01   0.0000000E+00   1.1795068E-01  -7.8612620E-01   0.0000000E+00   1.1369891E-01  -7.7187711E-01   0.0000000E+00   1.0979426E-01  -7.5696683E-01   0.0000000E+00   1.0678412E-01  -7.4224305E-01   0.0000000E+00   1.0524282E-01  -7.2849905E-01   0.0000000E+00   1.0540607E-01  -7.1631467E-01   0.0000000E+00   1.0490730E-01  -7.0606065E-01   0.0000000E+00   9.8948397E-02  -8.4566200E-01   0.0000000E+00   1.2334386E-01  -8.3117664E-01   0.0000000E+00   1.1859327E-01  -8.1530058E-01   0.0000000E+00   1.1422143E-01  -7.9870480E-01   0.0000000E+00   1.1093723E-01  -7.8233516E-01   0.0000000E+00   1.0954753E-01  -7.6708037E-01   0.0000000E+00   1.1023650E-01  -7.5359255E-01   0.0000000E+00   1.0983313E-01  -7.4229532E-01   0.0000000E+00   1.0262198E-01  -8.9207458E-01   0.0000000E+00   1.2730999E-01  -8.7634921E-01   0.0000000E+00   1.2221225E-01  -8.5921246E-01   0.0000000E+00   1.1760937E-01  -8.4142160E-01   0.0000000E+00   1.1436952E-01  -8.2399786E-01   0.0000000E+00   1.1359930E-01  -8.0788219E-01   0.0000000E+00   1.1556657E-01  -7.9375529E-01   0.0000000E+00   1.1564373E-01  -7.8206104E-01   0.0000000E+00   1.0709007E-01  -9.3611175E-01   0.0000000E+00   1.2954909E-01  -9.1946864E-01   0.0000000E+00   1.2413508E-01  -9.0155315E-01   0.0000000E+00   1.1945221E-01  -8.8321435E-01   0.0000000E+00   1.1648462E-01  -8.6552095E-01   0.0000000E+00   1.1654864E-01  -8.4941459E-01   0.0000000E+00   1.2050752E-01  -8.3554673E-01   0.0000000E+00   1.2188004E-01  -8.2432985E-01   0.0000000E+00   1.1225922E-01  -9.7360599E-01   0.0000000E+00   1.2984838E-01  -9.5642614E-01   0.0000000E+00   1.2403171E-01  -9.3831420E-01   0.0000000E+00   1.1933942E-01  -9.2020410E-01   0.0000000E+00   1.1676871E-01  -9.0317070E-01   0.0000000E+00   1.1754119E-01  -8.8810509E-01   0.0000000E+00   1.2378190E-01  -8.7556511E-01   0.0000000E+00   1.2774940E-01  -8.6584878E-01   0.0000000E+00   1.1790559E-01  -9.9804461E-01   0.0000000E+00   1.2827490E-01  -9.8073423E-01   0.0000000E+00   1.2195174E-01  -9.6301967E-01   0.0000000E+00   1.1730476E-01  -9.4589657E-01   0.0000000E+00   1.1521018E-01  -9.3040341E-01   0.0000000E+00   1.1619186E-01  -9.1734290E-01   0.0000000E+00   1.2414330E-01  -9.0712029E-01   0.0000000E+00   1.3196470E-01  -8.9981925E-01   0.0000000E+00   1.2327230E-01  -1.0007848E+00   0.0000000E+00   1.2541305E-01  -9.8368222E-01   0.0000000E+00   1.1866906E-01  -9.6678317E-01   0.0000000E+00   1.1425679E-01  -9.5110404E-01   0.0000000E+00   1.1268828E-01  -9.3760204E-01   0.0000000E+00   1.1322237E-01  -9.2697269E-01   0.0000000E+00   1.2075365E-01  -9.1946310E-01   0.0000000E+00   1.3311091E-01  -9.1490662E-01   0.0000000E+00   1.2707098E-01  -9.7175354E-01   0.0000000E+00   1.2260940E-01  -9.5486933E-01   0.0000000E+00   1.1591095E-01  -9.3867785E-01   0.0000000E+00   1.1212326E-01  -9.2409313E-01   0.0000000E+00   1.1117817E-01  -9.1187149E-01   0.0000000E+00   1.1024638E-01  -9.0265858E-01   0.0000000E+00   1.1423491E-01  -8.9673012E-01   0.0000000E+00   1.3010252E-01  -8.9382392E-01   0.0000000E+00   1.2788191E-01  -8.9858484E-01   0.0000000E+00   1.2196141E-01  -8.8110602E-01   0.0000000E+00   1.1607840E-01  -8.6422747E-01   0.0000000E+00   1.1333460E-01  -8.4842336E-01   0.0000000E+00   1.1299604E-01  -8.3433270E-01   0.0000000E+00   1.0947582E-01  -8.2292724E-01   0.0000000E+00   1.0688446E-01  -8.1495583E-01   0.0000000E+00   1.2286326E-01  -8.1041288E-01   0.0000000E+00   1.2452186E-01  -7.6031846E-01   0.0000000E+00   1.2568077E-01  -7.3993909E-01   0.0000000E+00   1.2121709E-01  -7.1878821E-01   0.0000000E+00   1.1943757E-01  -6.9692504E-01   0.0000000E+00   1.1866974E-01  -6.7538029E-01   0.0000000E+00   1.1163580E-01  -6.5596521E-01   0.0000000E+00   1.0155304E-01  -6.4023119E-01   0.0000000E+00   1.1437317E-01  -6.2859154E-01   0.0000000E+00   1.1854432E-01  -5.2067316E-01   0.0000000E+00   1.3521002E-01  -4.9395633E-01   0.0000000E+00   1.3198717E-01  -4.6394771E-01   0.0000000E+00   1.2991036E-01  -4.3073720E-01   0.0000000E+00   1.2674002E-01  -3.9621887E-01   0.0000000E+00   1.1505178E-01  -3.6315712E-01   0.0000000E+00   1.0100893E-01  -3.3383897E-01   0.0000000E+00   1.0914360E-01  -3.0910978E-01   0.0000000E+00   1.1962788E-01  -1.3611989E-01   0.0000000E+00   1.5046142E-01  -1.0086688E-01   0.0000000E+00   1.4710158E-01  -5.9763156E-02   0.0000000E+00   1.4237864E-01  -1.3266571E-02   0.0000000E+00   1.3410790E-01   3.6098592E-02   0.0000000E+00   1.1989459E-01   8.5052587E-02   0.0000000E+00   1.1202905E-01   1.3094765E-01   0.0000000E+00   1.1822413E-01   1.7259786E-01   0.0000000E+00   1.3785499E-01   4.2061126E-01   0.0000000E+00   1.6933766E-01   4.6201137E-01   0.0000000E+00   1.6321449E-01   5.1046598E-01   0.0000000E+00   1.5290700E-01   5.6537175E-01   0.0000000E+00   1.3952614E-01   6.2448126E-01   0.0000000E+00   1.3306715E-01   6.8488443E-01   0.0000000E+00   1.3821223E-01   7.4424243E-01   0.0000000E+00   1.4002924E-01   8.0041778E-01   0.0000000E+00   1.6871469E-01   1.1312588E+00   0.0000000E+00   1.8787473E-01   1.1696637E+00   0.0000000E+00   1.7592598E-01   1.2137611E+00   0.0000000E+00   1.5827239E-01   1.2635998E+00   0.0000000E+00   1.4292014E-01   1.3184153E+00   0.0000000E+00   1.4687899E-01   1.3766906E+00   0.0000000E+00   1.5011671E-01   1.4370466E+00   0.0000000E+00   1.4755587E-01   1.4952314E+00   0.0000000E+00   2.0555830E-01   1.9115744E+00   0.0000000E+00   2.0133640E-01   1.9322267E+00   0.0000000E+00   1.8187423E-01   1.9543295E+00   0.0000000E+00   1.5954988E-01   1.9790696E+00   0.0000000E+00   1.4923055E-01   2.0077865E+00   0.0000000E+00   1.5353321E-01   2.0412617E+00   0.0000000E+00   1.4323863E-01   2.0792353E+00   0.0000000E+00   1.2264761E-01   2.1154165E+00   0.0000000E+00   1.8593775E-01   2.6186087E+00   0.0000000E+00   2.0657589E-01   2.6059854E+00   0.0000000E+00   1.8140562E-01   2.5883460E+00   0.0000000E+00   1.5723422E-01   2.5676267E+00   0.0000000E+00   1.4470525E-01   2.5477152E+00   0.0000000E+00   1.3999711E-01   2.5311420E+00   0.0000000E+00   1.0604371E-01   2.5164902E+00   0.0000000E+00   9.1185920E-02   2.5004714E+00   0.0000000E+00   1.5831186E-01   3.0951545E+00   0.0000000E+00   2.0457941E-01   3.0422986E+00   0.0000000E+00   1.7641185E-01   2.9775844E+00   0.0000000E+00   1.4769721E-01   2.9030383E+00   0.0000000E+00   1.2719725E-01   2.8228655E+00   0.0000000E+00   1.1090890E-01   2.7418237E+00   0.0000000E+00   7.9756789E-02   2.6642649E+00   0.0000000E+00   7.4321933E-02   2.5952990E+00   0.0000000E+00   2.0932397E-01   3.2793005E+00   0.0000000E+00   1.9911420E-01   3.1942523E+00   0.0000000E+00   1.7328474E-01   3.0924811E+00   0.0000000E+00   1.4499526E-01   2.9758241E+00   0.0000000E+00   1.2040226E-01   2.8496206E+00   0.0000000E+00   9.4283052E-02   2.7213893E+00   0.0000000E+00   7.2140045E-02   2.5996447E+00   0.0000000E+00   7.2198197E-02   2.4939053E+00   0.0000000E+00   3.0113822E-01   3.2658329E+00   0.0000000E+00   1.9427595E-01   3.1659448E+00   0.0000000E+00   1.7365377E-01   3.0471518E+00   0.0000000E+00   1.4837037E-01   2.9108045E+00   0.0000000E+00   1.2452816E-01   2.7628767E+00   0.0000000E+00   9.4200581E-02   2.6122897E+00   0.0000000E+00   9.3818061E-02   2.4693606E+00   0.0000000E+00   8.9919463E-02   2.3444927E+00   0.0000000E+00   3.5794494E-01   3.1812606E+00   0.0000000E+00   1.9276273E-01   3.0856981E+00   0.0000000E+00   1.7661019E-01   2.9706402E+00   0.0000000E+00   1.5496272E-01   2.8361838E+00   0.0000000E+00   1.3434796E-01   2.6880527E+00   0.0000000E+00   1.0974885E-01   2.5355923E+00   0.0000000E+00   1.1102905E-01   2.3894808E+00   0.0000000E+00   1.0423850E-01   2.2595513E+00   0.0000000E+00   3.8609475E-01   3.1048207E+00   0.0000000E+00   1.9508094E-01   3.0279961E+00   0.0000000E+00   1.8011530E-01   2.9314394E+00   0.0000000E+00   1.6020332E-01   2.8132899E+00   0.0000000E+00   1.4479777E-01   2.6784699E+00   0.0000000E+00   1.2445699E-01   2.5363717E+00   0.0000000E+00   1.0785122E-01   2.3977675E+00   0.0000000E+00   1.0275429E-01   2.2721200E+00   0.0000000E+00   3.8850585E-01   3.0438414E+00   0.0000000E+00   1.9999824E-01   2.9924574E+00   0.0000000E+00   1.8230090E-01   2.9208665E+00   0.0000000E+00   1.6077368E-01   2.8253009E+00   0.0000000E+00   1.4537828E-01   2.7096488E+00   0.0000000E+00   1.2383473E-01   2.5832374E+00   0.0000000E+00   9.4038881E-02   2.4571137E+00   0.0000000E+00   9.1222011E-02   2.3410220E+00   0.0000000E+00   3.6974156E-01   2.9517584E+00   0.0000000E+00   2.0586067E-01   2.9258473E+00   0.0000000E+00   1.8272676E-01   2.8794062E+00   0.0000000E+00   1.5685937E-01   2.8074489E+00   0.0000000E+00   1.3735694E-01   2.7129548E+00   0.0000000E+00   1.1315025E-01   2.6048689E+00   0.0000000E+00   7.9202279E-02   2.4942086E+00   0.0000000E+00   7.5466946E-02   2.3910460E+00   0.0000000E+00   3.3515003E-01   2.7688470E+00   0.0000000E+00   2.1180962E-01   2.7655420E+00   0.0000000E+00   1.8269990E-01   2.7425592E+00   0.0000000E+00   1.5155093E-01   2.6946697E+00   0.0000000E+00   1.2698750E-01   2.6240313E+00   0.0000000E+00   1.0221425E-01   2.5384772E+00   0.0000000E+00   6.8807036E-02   2.4479361E+00   0.0000000E+00   6.4136498E-02   2.3620193E+00   0.0000000E+00   2.9175326E-01   2.4618454E+00   0.0000000E+00   2.1812430E-01   2.4786847E+00   0.0000000E+00   1.8439935E-01   2.4792833E+00   0.0000000E+00   1.4867911E-01   2.4588647E+00   0.0000000E+00   1.1957206E-01   2.4182312E+00   0.0000000E+00   9.2867613E-02   2.3627586E+00   0.0000000E+00   6.5517724E-02   2.3001668E+00   0.0000000E+00   6.4389519E-02   2.2384567E+00   0.0000000E+00   2.4828160E-01   2.0447764E+00   0.0000000E+00   2.2566152E-01   2.0800562E+00   0.0000000E+00   1.8952441E-01   2.1059062E+00   0.0000000E+00   1.5039629E-01   2.1185007E+00   0.0000000E+00   1.1629303E-01   2.1161816E+00   0.0000000E+00   8.5867763E-02   2.1000974E+00   0.0000000E+00   6.4163476E-02   2.0746090E+00   0.0000000E+00   7.8860708E-02   2.0452054E+00   0.0000000E+00   2.1836051E-01   1.5713725E+00   0.0000000E+00   2.3497999E-01   1.6230855E+00   0.0000000E+00   1.9845279E-01   1.6746393E+00   0.0000000E+00   1.5760821E-01   1.7229275E+00   0.0000000E+00   1.1929660E-01   1.7641820E+00   0.0000000E+00   8.4487133E-02   1.7946198E+00   0.0000000E+00   7.5956650E-02   1.8133091E+00   0.0000000E+00   9.2342474E-02   1.8224316E+00   0.0000000E+00   1.9472286E-01   1.1063448E+00   0.0000000E+00   2.4559382E-01   1.1708266E+00   0.0000000E+00   2.0991263E-01   1.2451675E+00   0.0000000E+00   1.6876672E-01   1.3270886E+00   0.0000000E+00   1.2949692E-01   1.4108149E+00   0.0000000E+00   9.1627687E-02   1.4886308E+00   0.0000000E+00   8.9502536E-02   1.5533707E+00   0.0000000E+00   9.8009884E-02   1.6024697E+00   0.0000000E+00   1.7146993E-01   7.0267767E-01   0.0000000E+00   2.5570270E-01   7.7451938E-01   0.0000000E+00   2.2121395E-01   8.6477852E-01   0.0000000E+00   1.8055549E-01   9.7243875E-01   0.0000000E+00   1.4405181E-01   1.0909355E+00   0.0000000E+00   1.0725070E-01   1.2088810E+00   0.0000000E+00   9.5915087E-02   1.3136089E+00   0.0000000E+00   9.9743061E-02   1.3969536E+00   0.0000000E+00   1.5550110E-01   3.8802922E-01   0.0000000E+00   2.6266518E-01   4.6118489E-01   0.0000000E+00   2.2901039E-01   5.5809504E-01   0.0000000E+00   1.8892641E-01   6.7924029E-01   0.0000000E+00   1.5517305E-01   8.1902725E-01   0.0000000E+00   1.2456246E-01   9.6477365E-01   0.0000000E+00   1.0073885E-01   1.0965469E+00   0.0000000E+00   1.0184520E-01   1.2010062E+00   0.0000000E+00   1.4910345E-01   1.6427913E-01   0.0000000E+00   2.6389626E-01   2.3334493E-01   0.0000000E+00   2.3089138E-01   3.2720885E-01   0.0000000E+00   1.9224621E-01   4.4825280E-01   0.0000000E+00   1.6098149E-01   5.9349585E-01   0.0000000E+00   1.3598369E-01   7.5251824E-01   0.0000000E+00   1.1334544E-01   8.9828885E-01   0.0000000E+00   9.9230707E-02   1.0066860E+00   0.0000000E+00   1.5237556E-01   1.6525166E-02   0.0000000E+00   2.5778601E-01   7.7516854E-02   0.0000000E+00   2.2597435E-01   1.6018325E-01   0.0000000E+00   1.9035040E-01   2.6907849E-01   0.0000000E+00   1.6196661E-01   4.0507752E-01   0.0000000E+00   1.3972495E-01   5.6260872E-01   0.0000000E+00   1.1962880E-01   7.1840614E-01   0.0000000E+00   9.3783431E-02   8.2051182E-01   0.0000000E+00   1.6989343E-01  -7.5905465E-02   0.0000000E+00   2.4435972E-01  -2.5309322E-02   0.0000000E+00   2.1521747E-01   4.1041985E-02   0.0000000E+00   1.8492544E-01   1.2988421E-01   0.0000000E+00   1.6134207E-01   2.4576281E-01   0.0000000E+00   1.4019586E-01   3.8939112E-01   0.0000000E+00   1.1753758E-01   5.4745358E-01   0.0000000E+00   8.5911721E-02   6.7868352E-01   0.0000000E+00   1.1219795E-01  -1.3181056E-01   0.0000000E+00   2.2546884E-01  -9.2709139E-02   0.0000000E+00   2.0092572E-01  -4.4581067E-02   0.0000000E+00   1.7777812E-01   2.1163214E-02   0.0000000E+00   1.6020866E-01   1.1142105E-01   0.0000000E+00   1.3761188E-01   2.3217005E-01   0.0000000E+00   1.1069369E-01   3.8580811E-01   0.0000000E+00   8.8778377E-02   5.2258390E-01   0.0000000E+00   8.1741713E-02  -1.6521606E-01   0.0000000E+00   2.0426297E-01  -1.3786723E-01   0.0000000E+00   1.8580803E-01  -1.0684383E-01   0.0000000E+00   1.7075026E-01  -6.2692493E-02   0.0000000E+00   1.5701495E-01   2.3806859E-03   0.0000000E+00   1.3085008E-01   9.9604726E-02   0.0000000E+00   1.1143573E-01   2.4387972E-01   0.0000000E+00   9.8901182E-02  -1.8633939E-01   0.0000000E+00   1.8421650E-01  -1.6995783E-01   0.0000000E+00   1.7233020E-01  -1.5230694E-01   0.0000000E+00   1.6402957E-01  -1.2484866E-01   0.0000000E+00   1.4967436E-01  -7.8317776E-02   0.0000000E+00   1.2222224E-01   5.9155799E-03   0.0000000E+00   1.1624685E-01   1.3059354E-01   0.0000000E+00   1.0819621E-01  -2.0278521E-01   0.0000000E+00   1.6785757E-01  -1.9482285E-01   0.0000000E+00   1.6195740E-01  -1.8482421E-01   0.0000000E+00   1.5622672E-01  -1.6679959E-01   0.0000000E+00   1.3483047E-01  -1.2430411E-01   0.0000000E+00   1.1749561E-01  -3.9006766E-02   0.0000000E+00   1.2109652E-01  -2.1924628E-01   0.0000000E+00   1.5638271E-01  -2.1460177E-01   0.0000000E+00   1.5377088E-01  -2.0458987E-01   0.0000000E+00   1.4361095E-01  -1.8585816E-01   0.0000000E+00   1.1560843E-01  -1.2975860E-01   0.0000000E+00   1.1487561E-01  -5.5462915E-02   0.0000000E+00   1.2322310E-01  -2.3536070E-01   0.0000000E+00   1.4837822E-01  -2.2550766E-01   0.0000000E+00   1.4363928E-01  -2.0487395E-01   0.0000000E+00   1.2555249E-01  -1.7212509E-01   0.0000000E+00   1.0708354E-01  -1.0435715E-01   0.0000000E+00   1.2348178E-01  -2.4258053E-01   0.0000000E+00   1.3978256E-01  -2.1685097E-01   0.0000000E+00   1.2897474E-01  -1.7145762E-01   0.0000000E+00   1.1725519E-01  -1.3094713E-01   0.0000000E+00   1.1602207E-01  -2.2634864E-01   0.0000000E+00   1.2678242E-01  -1.7911778E-01   0.0000000E+00   1.2174554E-01  -1.2382765E-01   0.0000000E+00   1.2734881E-01  -1.5863782E-01   0.0000000E+00   1.3087572E-01  -1.8975154E-01   0.0000000E+00   1.2029705E-01  -1.5723543E-01   0.0000000E+00   1.3074580E-01  -2.1009561E-01   0.0000000E+00   1.2070514E-01 
Force 3 2975 float
0.0 0.0 0.0 0.0 0.0 0.0 0.0 0.0 0.0 0.0 0.0 0.0 0.0 0.0 0.0 0.0 0.0 0.0 0.0 0.0 0.0 0.0 0.0 0.0 0.0 0.0 0.0 0.0 0.0 0.0 0.0 0.0 0.0 0.0 0.0 0.0 0.0 0.0 0.0 0.0 0.0 0.0 0.0 0.0 0.0 0.0 0.0 0.0 0.0 0.0 0.0 0.0 0.0 0.0 0.0 0.0 0.0 0.0 0.0 0.0 0.0 0.0 0.0 0.0 0.0 0.0 0.0 0.0 0.0 0.0 0.0 0.0 0.0 0.0 0.0 0.0 0.0 0.0 0.0 0.0 0.0 0.0 0.0 0.0 0.0 0.0 0.0 0.0 0.0 0.0 0.0 0.0 0.0 0.0 0.0 0.0 0.0 0.0 0.0 0.0 0.0 0.0 0.0 0.0 0.0 0.0 0.0 0.0 0.0 0.0 0.0 0.0 0.0 0.0 0.0 0.0 0.0 0.0 0.0 0.0 0.0 0.0 0.0 0.0 0.0 0.0 0.0 0.0 0.0 0.0 0.0 0.0 0.0 0.0 0.0 0.0 0.0 0.0 0.0 0.0 0.0 0.0 0.0 0.0 0.0 0.0 0.0 0.0 0.0 0.0 0.0 0.0 0.0 0.0 0.0 0.0 0.0 0.0 0.0 0.0 0.0 0.0 0.0 0.0 0.0 0.0 0.0 0.0 0.0 0.0 0.0 0.0 0.0 0.0 0.0 0.0 0.0 0.0 0.0 0.0 0.0 0.0 0.0 0.0 0.0 0.0 0.0 0.0 0.0 0.0 0.0 0.0 0.0 0.0 0.0 0.0 0.0 0.0 0.0 0.0 0.0 0.0 0.0 0.0 0.0 0.0 0.0 0.0 0.0 0.0 0.0 0.0 0.0 0.0 0.0 0.0 0.0 0.0 0.0 0.0 0.0 0.0 0.0 0.0 0.0 0.0 0.0 0.0 0.0 0.0 0.0 0.0 0.0 0.0 0.0 0.0 0.0 0.0 0.0 0.0 0.0 0.0 0.0 0.0 0.0 0.0 0.0 0.0 0.0 0.0 0.0 0.0 0.0 0.0 0.0 0.0 0.0 0.0 0.0 0.0 0.0 0.0 0.0 0.0 0.0 0.0 0.0 0.0 0.0 0.0 0.0 0.0 0.0 0.0 0.0 0.0 0.0 0.0 0.0 0.0 0.0 0.0 0.0 0.0 0.0 0.0 0.0 0.0 0.0 0.0 0.0 0.0 0.0 0.0 0.0 0.0 0.0 0.0 0.0 0.0 0.0 0.0 0.0 0.0 0.0 0.0 0.0 0.0 0.0 0.0 0.0 0.0 0.0 0.0 0.0 0.0 0.0 0.0 0.0 0.0 0.0 0.0 0.0 0.0 0.0 0.0 0.0 0.0 0.0 0.0 0.0 0.0 0.0 0.0 0.0 0.0 0.0 0.0 0.0 0.0 0.0 0.0 0.0 0.0 0.0 0.0 0.0 0.0 0.0 0.0 0.0 0.0 0.0 0.0 0.0 0.0 0.0 0.0 0.0 0.0 0.0 0.0 0.0 0.0 0.0 0.0 0.0 0.0 0.0 0.0 0.0 0.0 0.0 0.0 0.0 0.0 0.0 0.0 0.0 0.0 0.0 0.0 0.0 0.0 0.0 0.0 0.0 0.0 0.0 0.0 0.0 0.0 0.0 0.0 0.0 0.0 0.0 0.0 0.0 0.0 0.0 0.0 0.0 0.0 0.0 0.0 0.0 0.0 0.0 0.0 0.0 0.0 0.0 0.0 0.0 0.0 0.0 0.0 0.0 0.0 0.0 0.0 0.0 0.0 0.0 0.0 0.0 0.0 0.0 0.0 0.0 0.0 0.0 0.0 0.0 0.0 0.0 0.0 0.0 0.0 0.0 0.0 0.0 0.0 0.0 0.0 0.0 0.0 0.0 0.0 0.0 0.0 0.0 0.0 0.0 0.0 0.0 0.0 0.0 0.0 0.0 0.0 0.0 0.0 0.0 0.0 0.0 0.0 0.0 0.0 0.0 0.0 0.0 0.0 0.0 0.0 0.0 0.0 0.0 0.0 0.0 0.0 0.0 0.0 0.0 0.0 0.0 0.0 0.0 0.0 0.0 0.0 0.0 0.0 0.0 0.0 0.0 0.0 0.0 0.0 0.0 0.0 0.0 0.0 0.0 0.0 0.0 0.0 0.0 0.0 0.0 0.0 0.0 0.0 0.0 0.0 0.0 0.0 0.0 0.0 0.0 0.0 0.0 0.0 0.0 0.0 0.0 0.0 0.0 0.0 0.0 0.0 0.0 0.0 0.0 0.0 0.0 0.0 0.0 0.0 0.0 0.0 0.0 0.0 0.0 0.0 0.0 0.0 0.0 0.0 0.0 0.0 0.0 0.0 0.0 0.0 0.0 0.0 0.0 0.0 0.0 0.0 0.0 0.0 0.0 0.0 0.0 0.0 0.0 0.0 0.0 0.0 0.0 0.0 0.0 0.0 0.0 0.0 0.0 0.0 0.0 0.0 0.0 0.0 0.0 0.0 0.0 0.0 0.0 0.0 0.0 0.0 0.0 0.0 0.0 0.0 0.0 0.0 0.0 0.0 0.0 0.0 0.0 0.0 0.0 0.0 0.0 0.0 0.0 0.0 0.0 0.0 0.0 0.0 0.0 0.0 0.0 0.0 0.0 0.0 0.0 0.0 0.0 0.0 0.0 0.0 0.0 0.0 0.0 0.0 0.0 0.0 0.0 0.0 0.0 0.0 0.0 0.0 0.0 0.0 0.0 0.0 0.0 0.0 0.0 0.0 0.0 0.0 0.0 0.0 0.0 0.0 0.0 0.0 0.0 0.0 0.0 0.0 0.0 0.0 0.0 0.0 0.0 0.0 0.0 0.0 0.0 0.0 0.0 0.0 0.0 0.0 0.0 0.0 0.0 0.0 0.0 0.0 0.0 0.0 0.0 0.0 0.0 0.0 0.0 0.0 0.0 0.0 0.0 0.0 0.0 0.0 0.0 0.0 0.0 0.0 0.0 0.0 0.0 0.0 0.0 0.0 0.0 0.0 0.0 0.0 0.0 0.0 0.0 0.0 0.0 0.0 0.0 0.0 0.0 0.0 0.0 0.0 0.0 0.0 0.0 0.0 0.0 0.0 0.0 0.0 0.0 0.0 0.0 0.0 0.0 0.0 0.0 0.0 0.0 0.0 0.0 0.0 0.0 0.0 0.0 0.0 0.0 0.0 0.0 0.0 0.0 0.0 0.0 0.0 0.0 0.0 0.0 0.0 0.0 0.0 0.0 0.0 0.0 0.0 0.0 0.0 0.0 0.0 0.0 0.0 0.0 0.0 0.0 0.0 0.0 0.0 0.0 0.0 0.0 0.0 0.0 0.0 0.0 0.0 0.0 0.0 0.0 0.0 0.0 0.0 0.0 0.0 0.0 0.0 0.0 0.0 0.0 0.0 0.0 0.0 0.0 0.0 0.0 0.0 0.0 0.0 0.0 0.0 0.0 0.0 0.0 0.0 0.0 0.0 0.0 0.0 0.0 0.0 0.0 0.0 0.0 0.0 0.0 0.0 0.0 0.0 0.0 0.0 0.0 0.0 0.0 0.0 0.0 0.0 0.0 0.0 0.0 0.0 0.0 0.0 0.0 0.0 0.0 0.0 0.0 0.0 0.0 0.0 0.0 0.0 0.0 0.0 0.0 0.0 0.0 0.0 0.0 0.0 0.0 0.0 0.0 0.0 0.0 0.0 0.0 0.0 0.0 0.0 0.0 0.0 0.0 0.0 0.0 0.0 0.0 0.0 0.0 0.0 0.0 0.0 0.0 0.0 0.0 0.0 0.0 0.0 0.0 0.0 0.0 0.0 0.0 0.0 0.0 0.0 0.0 0.0 0.0 0.0 0.0 0.0 0.0 0.0 0.0 0.0 0.0 0.0 0.0 0.0 0.0 0.0 0.0 0.0 0.0 0.0 0.0 0.0 0.0 0.0 0.0 0.0 0.0 0.0 0.0 0.0 0.0 0.0 0.0 0.0 0.0 0.0 0.0 0.0 0.0 0.0 0.0 0.0 0.0 0.0 0.0 0.0 0.0 0.0 0.0 0.0 0.0 0.0 0.0 0.0 0.0 0.0 0.0 0.0 0.0 0.0 0.0 0.0 0.0 0.0 0.0 0.0 0.0 0.0 0.0 0.0 0.0 0.0 0.0 0.0 0.0 0.0 0.0 0.0 0.0 0.0 0.0 0.0 0.0 0.0 0.0 0.0 0.0 0.0 0.0 0.0 0.0 0.0 0.0 0.0 0.0 0.0 0.0 0.0 0.0 0.0 0.0 0.0 0.0 0.0 0.0 0.0 0.0 0.0 0.0 0.0 0.0 0.0 0.0 0.0 0.0 0.0 0.0 0.0 0.0 0.0 0.0 0.0 0.0 0.0 0.0 0.0 0.0 0.0 0.0 0.0 0.0 0.0 0.0 0.0 0.0 0.0 0.0 0.0 0.0 0.0 0.0 0.0 0.0 0.0 0.0 0.0 0.0 0.0 0.0 0.0 0.0 0.0 0.0 0.0 0.0 0.0 0.0 0.0 0.0 0.0 0.0 0.0 0.0 0.0 0.0 0.0 0.0 0.0 0.0 0.0 0.0 0.0 0.0 0.0 0.0 0.0 0.0 0.0 0.0 0.0 0.0 0.0 0.0 0.0 0.0 0.0 0.0 0.0 0.0 0.0 0.0 0.0 0.0 0.0 0.0 0.0 0.0 0.0 0.0 0.0 0.0 0.0 0.0 0.0 0.0 0.0 0.0 0.0 0.0 0.0 0.0 0.0 0.0 0.0 0.0 0.0 0.0 0.0 0.0 0.0 0.0 0.0 0.0 0.0 0.0 0.0 0.0 0.0 0.0 0.0 0.0 0.0 0.0 0.0 0.0 0.0 0.0 0.0 0.0 0.0 0.0 0.0 0.0 0.0 0.0 0.0 0.0 0.0 0.0 0.0 0.0 0.0 0.0 0.0 0.0 0.0 0.0 0.0 0.0 0.0 0.0 0.0 0.0 0.0 0.0 0.0 0.0 0.0 0.0 0.0 0.0 0.0 0.0 0.0 0.0 0.0 0.0 0.0 0.0 0.0 0.0 0.0 0.0 0.0 0.0 0.0 0.0 0.0 0.0 0.0 0.0 0.0 0.0 0.0 0.0 0.0 0.0 0.0 0.0 0.0 0.0 0.0 0.0 0.0 0.0 0.0 0.0 0.0 0.0 0.0 0.0 0.0 0.0 0.0 0.0 0.0 0.0 0.0 0.0 0.0 0.0 0.0 0.0 0.0 0.0 0.0 0.0 0.0 0.0 0.0 0.0 0.0 0.0 0.0 0.0 0.0 0.0 0.0 0.0 0.0 0.0 0.0 0.0 0.0 0.0 0.0 0.0 0.0 0.0 0.0 0.0 0.0 0.0 0.0 0.0 0.0 0.0 0.0 0.0 0.0 0.0 0.0 0.0 0.0 0.0 0.0 0.0 0.0 0.0 0.0 0.0 0.0 0.0 0.0 0.0 0.0 0.0 0.0 0.0 0.0 0.0 0.0 0.0 0.0 0.0 0.0 0.0 0.0 0.0 0.0 0.0 0.0 0.0 0.0 0.0 0.0 0.0 0.0 0.0 0.0 0.0 0.0 0.0 0.0 0.0 0.0 0.0 0.0 0.0 0.0 0.0 0.0 0.0 0.0 0.0 0.0 0.0 0.0 0.0 0.0 0.0 0.0 0.0 0.0 0.0 0.0 0.0 0.0 0.0 0.0 0.0 0.0 0.0 0.0 0.0 0.0 0.0 0.0 0.0 0.0 0.0 0.0 0.0 0.0 0.0 0.0 0.0 0.0 0.0 0.0 0.0 0.0 0.0 0.0 0.0 0.0 0.0 0.0 0.0 0.0 0.0 0.0 0.0 0.0 0.0 0.0 0.0 0.0 0.0 0.0 0.0 0.0 0.0 0.0 0.0 0.0 0.0 0.0 0.0 0.0 0.0 0.0 0.0 0.0 0.0 0.0 0.0 0.0 0.0 0.0 0.0 0.0 0.0 0.0 0.0 0.0 0.0 0.0 0.0 0.0 0.0 0.0 0.0 0.0 0.0 0.0 0.0 0.0 0.0 0.0 0.0 0.0 0.0 0.0 0.0 0.0 0.0 0.0 0.0 0.0 0.0 0.0 0.0 0.0 0.0 0.0 0.0 0.0 0.0 0.0 0.0 0.0 0.0 0.0 0.0 0.0 0.0 0.0 0.0 0.0 0.0 0.0 0.0 0.0 0.0 0.0 0.0 0.0 0.0 0.0 0.0 0.0 0.0 0.0 0.0 0.0 0.0 0.0 0.0 0.0 0.0 0.0 0.0 0.0 0.0 0.0 0.0 0.0 0.0 0.0 0.0 0.0 0.0 0.0 0.0 0.0 0.0 0.0 0.0 0.0 0.0 0.0 0.0 0.0 0.0 0.0 0.0 0.0 0.0 0.0 0.0 0.0 0.0 0.0 0.0 0.0 0.0 0.0 0.0 0.0 0.0 0.0 0.0 0.0 0.0 0.0 0.0 0.0 0.0 0.0 0.0 0.0 0.0 0.0 0.0 0.0 0.0 0.0 0.0 0.0 0.0 0.0 0.0 0.0 0.0 0.0 0.0 0.0 0.0 0.0 0.0 0.0 0.0 0.0 0.0 0.0 0.0 0.0 0.0 0.0 0.0 0.0 0.0 0.0 0.0 0.0 0.0 0.0 0.0 0.0 0.0 0.0 0.0 0.0 0.0 0.0 0.0 0.0 0.0 0.0 0.0 0.0 0.0 0.0 0.0 0.0 0.0 0.0 0.0 0.0 0.0 0.0 0.0 0.0 0.0 0.0 0.0 0.0 0.0 0.0 0.0 0.0 0.0 0.0 0.0 0.0 0.0 0.0 0.0 0.0 0.0 0.0 0.0 0.0 0.0 0.0 0.0 0.0 0.0 0.0 0.0 0.0 0.0 0.0 0.0 0.0 0.0 0.0 0.0 0.0 0.0 0.0 0.0 0.0 0.0 0.0 0.0 0.0 0.0 0.0 0.0 0.0 0.0 0.0 0.0 0.0 0.0 0.0 0.0 0.0 0.0 0.0 0.0 0.0 0.0 0.0 0.0 0.0 0.0 0.0 0.0 0.0 0.0 0.0 0.0 0.0 0.0 0.0 0.0 0.0 0.0 0.0 0.0 0.0 0.0 0.0 0.0 0.0 0.0 0.0 0.0 0.0 0.0 0.0 0.0 0.0 0.0 0.0 0.0 0.0 0.0 0.0 0.0 0.0 0.0 0.0 0.0 0.0 0.0 0.0 0.0 0.0 0.0 0.0 0.0 0.0 0.0 0.0 0.0 0.0 0.0 0.0 0.0 0.0 0.0 0.0 0.0 0.0 0.0 0.0 0.0 0.0 0.0 0.0 0.0 0.0 0.0 0.0 0.0 0.0 0.0 0.0 0.0 0.0 0.0 0.0 0.0 0.0 0.0 0.0 0.0 0.0 0.0 0.0 0.0 0.0 0.0 0.0 0.0 0.0 0.0 0.0 0.0 0.0 0.0 0.0 0.0 0.0 0.0 0.0 0.0 0.0 0.0 0.0 0.0 0.0 0.0 0.0 0.0 0.0 0.0 0.0 0.0 0.0 0.0 0.0 0.0 0.0 0.0 0.0 0.0 0.0 0.0 0.0 0.0 0.0 0.0 0.0 0.0 0.0 0.0 0.0 0.0 0.0 0.0 0.0 0.0 0.0 0.0 0.0 0.0 0.0 0.0 0.0 0.0 0.0 0.0 0.0 0.0 0.0 0.0 0.0 0.0 0.0 0.0 0.0 0.0 0.0 0.0 0.0 0.0 0.0 0.0 0.0 0.0 0.0 0.0 0.0 0.0 0.0 0.0 0.0 0.0 0.0 0.0 0.0 0.0 0.0 0.0 0.0 0.0 0.0 0.0 0.0 0.0 0.0 0.0 0.0 0.0 0.0 0.0 0.0 0.0 0.0 0.0 0.0 0.0 0.0 0.0 0.0 0.0 0.0 0.0 0.0 0.0 0.0 0.0 0.0 0.0 0.0 0.0 0.0 0.0 0.0 0.0 0.0 0.0 0.0 0.0 0.0 0.0 0.0 0.0 0.0 0.0 0.0 0.0 0.0 0.0 0.0 0.0 0.0 0.0 0.0 0.0 0.0 0.0 0.0 0.0 0.0 0.0 0.0 0.0 0.0 0.0 0.0 0.0 0.0 0.0 0.0 0.0 0.0 0.0 0.0 0.0 0.0 0.0 0.0 0.0 0.0 0.0 0.0 0.0 0.0 0.0 0.0 0.0 0.0 0.0 0.0 0.0 0.0 0.0 0.0 0.0 0.0 0.0 0.0 0.0 0.0 0.0 0.0 0.0 0.0 0.0 0.0 0.0 0.0 0.0 0.0 0.0 0.0 0.0 0.0 0.0 0.0 0.0 0.0 0.0 0.0 0.0 0.0 0.0 0.0 0.0 0.0 0.0 0.0 0.0 0.0 0.0 0.0 0.0 0.0 0.0 0.0 0.0 0.0 0.0 0.0 0.0 0.0 0.0 0.0 0.0 0.0 0.0 0.0 0.0 0.0 0.0 0.0 0.0 0.0 0.0 0.0 0.0 0.0 0.0 0.0 0.0 0.0 0.0 0.0 0.0 0.0 0.0 0.0 0.0 0.0 0.0 0.0 0.0 0.0 0.0 0.0 0.0 0.0 0.0 0.0 0.0 0.0 0.0 0.0 0.0 0.0 0.0 0.0 0.0 0.0 0.0 0.0 0.0 0.0 0.0 0.0 0.0 0.0 0.0 0.0 0.0 0.0 0.0 0.0 0.0 0.0 0.0 0.0 0.0 0.0 0.0 0.0 0.0 0.0 0.0 0.0 0.0 0.0 0.0 0.0 0.0 0.0 0.0 0.0 0.0 0.0 0.0 0.0 0.0 0.0 0.0 0.0 0.0 0.0 0.0 0.0 0.0 0.0 0.0 0.0 0.0 0.0 0.0 0.0 0.0 0.0 0.0 0.0 0.0 0.0 0.0 0.0 0.0 0.0 0.0 0.0 0.0 0.0 0.0 0.0 0.0 0.0 0.0 0.0 0.0 0.0 0.0 0.0 0.0 0.0 0.0 0.0 0.0 0.0 0.0 0.0 0.0 0.0 0.0 0.0 0.0 0.0 0.0 0.0 0.0 0.0 0.0 0.0 0.0 0.0 0.0 0.0 0.0 0.0 0.0 0.0 0.0 0.0 0.0 0.0 0.0 0.0 0.0 0.0 0.0 0.0 0.0 0.0 0.0 0.0 0.0 0.0 0.0 0.0 0.0 0.0 0.0 0.0 0.0 0.0 0.0 0.0 0.0 0.0 0.0 0.0 0.0 0.0 0.0 0.0 0.0 0.0 0.0 0.0 0.0 0.0 0.0 0.0 0.0 0.0 0.0 0.0 0.0 0.0 0.0 0.0 0.0 0.0 0.0 0.0 0.0 0.0 0.0 0.0 0.0 0.0 0.0 0.0 0.0 0.0 0.0 0.0 0.0 0.0 0.0 0.0 0.0 0.0 0.0 0.0 0.0 0.0 0.0 0.0 0.0 0.0 0.0 0.0 0.0 0.0 0.0 0.0 0.0 0.0 0.0 0.0 0.0 0.0 0.0 0.0 0.0 0.0 0.0 0.0 0.0 0.0 0.0 0.0 0.0 0.0 0.0 0.0 0.0 0.0 0.0 0.0 0.0 0.0 0.0 0.0 0.0 0.0 0.0 0.0 0.0 0.0 0.0 0.0 0.0 0.0 0.0 0.0 0.0 0.0 0.0 0.0 0.0 0.0 0.0 0.0 0.0 0.0 0.0 0.0 0.0 0.0 0.0 0.0 0.0 0.0 0.0 0.0 0.0 0.0 0.0 0.0 0.0 0.0 0.0 0.0 0.0 0.0 0.0 0.0 0.0 0.0 0.0 0.0 0.0 0.0 0.0 0.0 0.0 0.0 0.0 0.0 0.0 0.0 0.0 0.0 0.0 0.0 0.0 0.0 0.0 0.0 0.0 0.0 0.0 0.0 0.0 0.0 0.0 0.0 0.0 0.0 0.0 0.0 0.0 0.0 0.0 0.0 0.0 0.0 0.0 0.0 0.0 0.0 0.0 0.0 0.0 0.0 0.0 0.0 0.0 0.0 0.0 0.0 0.0 0.0 0.0 0.0 0.0 0.0 0.0 0.0 0.0 0.0 0.0 0.0 0.0 0.0 0.0 0.0 0.0 0.0 0.0 0.0 0.0 0.0 0.0 0.0 0.0 0.0 0.0 0.0 0.0 0.0 0.0 0.0 0.0 0.0 0.0 0.0 0.0 0.0 0.0 0.0 0.0 0.0 0.0 0.0 0.0 0.0 0.0 0.0 0.0 0.0 0.0 0.0 0.0 0.0 0.0 0.0 0.0 0.0 0.0 0.0 0.0 0.0 0.0 0.0 0.0 0.0 0.0 0.0 0.0 0.0 0.0 0.0 0.0 0.0 0.0 0.0 0.0 0.0 0.0 0.0 0.0 0.0 0.0 0.0 0.0 0.0 0.0 0.0 0.0 0.0 0.0 0.0 0.0 0.0 0.0 0.0 0.0 0.0 0.0 0.0 0.0 0.0 0.0 0.0 0.0 0.0 0.0 0.0 0.0 0.0 0.0 0.0 0.0 0.0 0.0 0.0 0.0 0.0 0.0 0.0 0.0 0.0 0.0 0.0 0.0 0.0 0.0 0.0 0.0 0.0 0.0 0.0 0.0 0.0 0.0 0.0 0.0 0.0 0.0 0.0 0.0 0.0 0.0 0.0 0.0 0.0 0.0 0.0 0.0 0.0 0.0 0.0 0.0 0.0 0.0 0.0 0.0 0.0 0.0 0.0 0.0 0.0 0.0 0.0 0.0 0.0 0.0 0.0 0.0 0.0 0.0 0.0 0.0 0.0 0.0 0.0 0.0 0.0 0.0 0.0 0.0 0.0 0.0 0.0 0.0 0.0 0.0 0.0 0.0 0.0 0.0 0.0 0.0 0.0 0.0 0.0 0.0 0.0 0.0 0.0 0.0 0.0 0.0 0.0 0.0 0.0 0.0 0.0 0.0 0.0 0.0 0.0 0.0 0.0 0.0 0.0 0.0 0.0 0.0 0.0 0.0 0.0 0.0 0.0 0.0 0.0 0.0 0.0 0.0 0.0 0.0 0.0 0.0 0.0 0.0 0.0 0.0 0.0 0.0 0.0 0.0 0.0 0.0 0.0 0.0 0.0 0.0 0.0 0.0 0.0 0.0 0.0 0.0 0.0 0.0 0.0 0.0 0.0 0.0 0.0 0.0 0.0 0.0 0.0 0.0 0.0 0.0 0.0 0.0 0.0 0.0 0.0 0.0 0.0 0.0 0.0 0.0 0.0 0.0 0.0 0.0 0.0 0.0 0.0 0.0 0.0 0.0 0.0 0.0 0.0 0.0 0.0 0.0 0.0 0.0 0.0 0.0 0.0 0.0 0.0 0.0 0.0 0.0 0.0 0.0 0.0 0.0 0.0 0.0 0.0 0.0 0.0 0.0 0.0 0.0 0.0 0.0 0.0 0.0 0.0 0.0 0.0 0.0 0.0 0.0 0.0 0.0 0.0 0.0 0.0 0.0 0.0 0.0 0.0 0.0 0.0 0.0 0.0 0.0 0.0 0.0 0.0 0.0 0.0 0.0 0.0 0.0 0.0 0.0 0.0 0.0 0.0 0.0 0.0 0.0 0.0 0.0 0.0 0.0 0.0 0.0 0.0 0.0 0.0 0.0 0.0 0.0 0.0 0.0 0.0 0.0 0.0 0.0 0.0 0.0 0.0 0.0 0.0 0.0 0.0 0.0 0.0 0.0 0.0 0.0 0.0 0.0 0.0 0.0 0.0 0.0 0.0 0.0 0.0 0.0 0.0 0.0 0.0 0.0 0.0 0.0 0.0 0.0 0.0 0.0 0.0 0.0 0.0 0.0 0.0 0.0 0.0 0.0 0.0 0.0 0.0 0.0 0.0 0.0 0.0 0.0 0.0 0.0 0.0 0.0 0.0 0.0 0.0 0.0 0.0 0.0 0.0 0.0 0.0 0.0 0.0 0.0 0.0 0.0 0.0 0.0 0.0 0.0 0.0 0.0 0.0 0.0 0.0 0.0 0.0 0.0 0.0 0.0 0.0 0.0 0.0 0.0 0.0 0.0 0.0 0.0 0.0 0.0 0.0 0.0 0.0 0.0 0.0 0.0 0.0 0.0 0.0 0.0 0.0 0.0 0.0 0.0 0.0 0.0 0.0 0.0 0.0 0.0 0.0 0.0 0.0 0.0 0.0 0.0 0.0 0.0 0.0 0.0 0.0 0.0 0.0 0.0 0.0 0.0 0.0 0.0 0.0 0.0 0.0 0.0 0.0 0.0 0.0 0.0 0.0 0.0 0.0 0.0 0.0 0.0 0.0 0.0 0.0 0.0 0.0 0.0 0.0 0.0 0.0 0.0 0.0 0.0 0.0 0.0 0.0 0.0 0.0 0.0 0.0 0.0 0.0 0.0 0.0 0.0 0.0 0.0 0.0 0.0 0.0 0.0 0.0 0.0 0.0 0.0 0.0 0.0 0.0 0.0 0.0 0.0 0.0 0.0 0.0 0.0 0.0 0.0 0.0 0.0 0.0 0.0 0.0 0.0 0.0 0.0 0.0 0.0 0.0 0.0 0.0 0.0 0.0 0.0 0.0 0.0 0.0 0.0 0.0 0.0 0.0 0.0 0.0 0.0 0.0 0.0 0.0 0.0 0.0 0.0 0.0 0.0 0.0 0.0 0.0 0.0 0.0 0.0 0.0 0.0 0.0 0.0 0.0 0.0 0.0 0.0 0.0 0.0 0.0 0.0 0.0 0.0 0.0 0.0 0.0 0.0 0.0 0.0 0.0 0.0 0.0 0.0 0.0 0.0 0.0 0.0 0.0 0.0 0.0 0.0 0.0 0.0 0.0 0.0 0.0 0.0 0.0 0.0 0.0 0.0 0.0 0.0 0.0 0.0 0.0 0.0 0.0 0.0 0.0 0.0 0.0 0.0 0.0 0.0 0.0 0.0 0.0 0.0 0.0 0.0 0.0 0.0 0.0 0.0 0.0 0.0 0.0 0.0 0.0 0.0 0.0 0.0 0.0 0.0 0.0 0.0 0.0 0.0 0.0 0.0 0.0 0.0 0.0 0.0 0.0 0.0 0.0 0.0 0.0 0.0 0.0 0.0 0.0 0.0 0.0 0.0 0.0 0.0 0.0 0.0 0.0 0.0 0.0 0.0 0.0 0.0 0.0 0.0 0.0 0.0 0.0 0.0 0.0 0.0 0.0 0.0 0.0 0.0 0.0 0.0 0.0 0.0 0.0 0.0 0.0 0.0 0.0 0.0 0.0 0.0 0.0 0.0 0.0 0.0 0.0 0.0 0.0 0.0 0.0 0.0 0.0 0.0 0.0 0.0 0.0 0.0 0.0 0.0 0.0 0.0 0.0 0.0 0.0 0.0 0.0 0.0 0.0 0.0 0.0 0.0 0.0 0.0 0.0 0.0 0.0 0.0 0.0 0.0 0.0 0.0 0.0 0.0 -1.095896547397413 0.0 -0.45668929141723197 -1.2750915918772892 0.0 -0.42181817054545406 -1.425560035639 0.0 -0.3795209974880247 -1.554543358863583 0.0 -0.3356379603909488 -1.661910281547756 0.0 -0.2960547514013686 -1.027333465683336 0.0 -0.585253934631348 -1.339344073483601 0.0 -0.490167252254181 -1.560950519023762 0.0 -0.45955277148881896 -1.7291748432293699 0.0 -0.421717450542936 -1.869780766744518 0.0 -0.3811672295291805 -1.989409689735241 0.0 -0.34283576857089404 -1.31568643289216 0.0 -0.5807430545185761 -1.67214244180356 0.0 -0.485900492147512 -1.906099767652493 0.0 -0.44121001103025 -2.0802353320058824 0.0 -0.404467770111694 -2.2267242956681064 0.0 -0.37340899333522465 -2.358279458956985 0.0 -0.34193592854839805 -1.664668321616707 0.0 -0.551201253780031 -2.060847891521196 0.0 -0.44253237106330895 -2.292467937311697 0.0 -0.40224381005609505 -2.459692821492319 0.0 -0.3713955012848873 -2.606926025173149 0.0 -0.3497073247426829 -2.749790628744764 0.0 -0.3248975361224382 -2.067497291687431 0.0 -0.519203972980099 -2.503154822578869 0.0 -0.39012528575313193 -2.730372668259315 0.0 -0.354277048856926 -2.8882328722058204 0.0 -0.3315788362894707 -3.035436515885911 0.0 -0.31889095997227385 -3.18882207972055 0.0 -0.302949007573725 -2.53203246330081 0.0 -0.4983810524595261 -3.012587795314693 0.0 -0.33502884837572106 -3.232563080814075 0.0 -0.2994373394859333 -3.3812088845302206 0.0 -0.28504047912601177 -3.529116928227921 0.0 -0.2832586350814657 -3.692290572307262 0.0 -0.2774581749364542 -3.064909436622734 0.0 -0.513626892840672 -3.595547209888678 0.0 -0.2903488232587204 -3.8061696151542384 0.0 -0.2404861500121536 -3.9379059784476476 0.0 -0.2356161178904028 -4.085392102134801 0.0 -0.24359522608988052 -4.257874506446861 0.0 -0.24932943023323562 -3.678922371973057 0.0 -0.585637694640942 -4.25008690625217 0.0 -0.2781311109532776 -4.440106911002671 0.0 -0.1978054089451351 -4.54826931370673 0.0 -0.1965393129134827 -4.6931573173289305 0.0 -0.20701351717533784 -4.87306532182663 0.0 -0.2239170135979252 -4.41884611047115 0.0 -0.66791841669796 -4.9755989243899705 0.0 -0.2980949474523735 -5.116926927923171 0.0 -0.1926002568150063 -5.20258573006464 0.0 -0.18046951651173782 -5.339667333491681 0.0 -0.1925205288130131 -5.5268561381714 0.0 -0.20913496522837402 -5.40545653513641 0.0 -0.590786774769669 -5.7936509448412705 0.0 -0.30697708767442705 -5.8428469460711705 0.0 -0.2147720373693008 -5.8956321473908 0.0 -0.1924106648102665 -6.023073350576831 0.0 -0.2051751171293778 -6.21072895526822 0.0 -0.22653580166339488 -6.72825016820625 0.0 -0.347518928687973 -6.74931256873281 0.0 -0.284893807122345 -6.64213256605331 0.0 -0.2446334901158371 -6.62093656552341 0.0 -0.24326401408160023 -6.73174616829365 0.0 -0.2517418942935472 -6.91867537296688 0.0 -0.2782173709554341 -8.081872602046811 0.0 -0.53118441327961 -7.820240195506 0.0 -0.41632693040817303 -7.51971898799297 0.0 -0.3310134962753372 -7.410260985256521 0.0 -0.3157119838927994 -7.46417938660448 0.0 -0.3444556326113906 -7.641396591034911 0.0 -0.3707360372684007 -9.387715434692879 0.0 -1.715029962875748 -8.928376223209401 0.0 -1.1371093884277341 -8.463240211581 0.0 -0.680925017023125 -8.21110260527756 0.0 -0.535212133380303 -8.20823780520594 0.0 -0.5276489331912231 -8.37214380930359 0.0 -0.530166573254164 -10.94017347350433 0.0 -2.596357784908943 -10.155953453898832 0.0 -1.9103088877577212 -9.467595036689872 0.0 -1.2631588315789701 -9.04573902614347 0.0 -0.955520063888001 -8.9675042241876 0.0 -0.8139651403491279 -9.10426662760666 0.0 -0.768901379222534 -12.687529917188241 0.0 -3.123315878082895 -11.51982588799564 0.0 -2.405129700128241 -10.51978866299471 0.0 -1.7890610047265243 -9.90740744768518 0.0 -1.391947394798684 -9.72460744311518 0.0 -1.177126149428153 -9.84092064602301 0.0 -1.054685826367145 -14.482562762064061 0.0 -3.502849647571239 -12.86985792174644 0.0 -2.730356268258905 -11.52833748820843 0.0 -2.185298014632449 -10.736944668423611 0.0 -1.77327924433198 -10.47041106176027 0.0 -1.521464558036613 -10.57270466431761 0.0 -1.3594529539863232 -16.137779603444482 0.0 -3.8297631357440762 -14.103303952582591 0.0 -3.031032635775814 -12.4794763119869 0.0 -2.486399502159986 -11.529808288245201 0.0 -2.072429531810737 -11.194960279874001 0.0 -1.811031205275779 -11.296230682405762 0.0 -1.6230293605757329 -17.625859640646482 0.0 -4.13823130345578 -15.25503118137577 0.0 -3.290303122257576 -13.384846734621162 0.0 -2.723166148079152 -12.29507950737698 0.0 -2.297670217441754 -11.908679497716982 0.0 -2.026985210674629 -12.009054300226351 0.0 -1.844963326124082 -19.018186075454643 0.0 -4.41894851047371 -16.3640844091021 0.0 -3.5195176079879382 -14.27209955680248 0.0 -2.9071636726790904 -13.045332726133312 0.0 -2.463600421590009 -12.6070643151766 0.0 -2.1881106147027642 -12.71422391785559 0.0 -1.9950626898765662 -20.405078510126952 0.0 -4.64541331613533 -17.46835203670879 0.0 -3.7061070526526745 -15.1532243788306 0.0 -3.0401053160026312 -13.78301714457542 0.0 -2.5842856246071393 -13.285144332128601 0.0 -2.3030233775755833 -13.4046923351173 0.0 -2.092484892312121 -21.7943685448592 0.0 -4.82300732057518 -18.5700124642503 0.0 -3.835720935893021 -16.01822720045567 0.0 -3.14001567850039 -14.50434316260857 0.0 -2.6595301464882524 -13.950676348766901 0.0 -2.3644684591117104 -14.078232351955801 0.0 -2.1419773735494334 -23.17672337941807 0.0 -4.9272121231803006 -19.65942889148571 0.0 -3.899396617484913 -16.86186722154667 0.0 -3.1900849197521213 -15.202200780055012 0.0 -2.689413707235341 -14.59696996492424 0.0 -2.375083779377093 -14.73232756830818 0.0 -2.1399353734983833 -24.53754341343857 0.0 -4.94457372361434 -20.71725211793129 0.0 -3.897091777427292 -17.67379364184483 0.0 -3.181438159535952 -15.86816599670414 0.0 -2.667129586678238 -15.217139180428472 0.0 -2.330530778263268 -15.3623003840575 0.0 -2.0829468120736694 -25.863473792685102 0.0 -4.8590205327716 -21.73596705676375 0.0 -3.8105519226725404 -18.446687038931998 0.0 -3.0983759808386035 -16.4942663120157 0.0 -2.5809926072203 -15.801625908927331 0.0 -2.220004054496436 -15.963123100316 0.0 -1.960683973832436 -27.154031009630486 0.0 -4.65214408545858 -22.71397094337702 0.0 -3.620748286263456 -19.177774399544038 0.0 -2.923733337636183 -17.079662617085397 0.0 -2.40530795440008 -16.35304839997296 0.0 -2.014212936554832 -16.529391159408 0.0 -1.764769587995667 -28.42929236125392 0.0 -4.30539949897092 -23.66207047376475 0.0 -3.3093245693703786 -19.8726643391514 0.0 -2.63466259090965 -17.636067808055998 0.0 -2.0961204334416 -16.871820620043238 0.0 -1.6908490435169068 -17.0635646351148 0.0 -1.473225025375884 -29.733464643776298 0.0 -3.80109285204242 -24.60282417275586 0.0 -2.850381612752075 -20.5439486529264 0.0 -2.1948118799356964 -18.168749819746 0.0 -1.624381830251457 -17.3565594230208 0.0 -1.242315086984864 -17.56736435271935 0.0 -1.058526625995439 -31.11346252994292 0.0 -3.1336482346858503 -25.55685902952974 0.0 -2.218171650677132 -21.206830659291622 0.0 -1.562983025138696 -18.68200106804416 0.0 -0.977445255539472 -17.8144346869902 0.0 -0.6417963154020919 -18.04932104457592 0.0 -0.47898840029927703 -32.59068807792579 0.0 -2.2861952750163366 -26.52625230443832 0.0 -1.390981778087426 -21.85614277653926 0.0 -0.715233430811522 -19.16422856370761 0.0 -0.14157968816441668 -18.2366932593309 0.0 0.13488559109715959 -18.494176312449497 0.0 0.2630191885463883 -34.10848485903314 0.0 -1.2368755268923601 -27.47077713616544 0.0 -0.3589097207931136 -22.46001041757086 0.0 0.3640500937574137 -19.585181667318082 0.0 0.9007768657245601 -18.60234511057602 0.0 1.122325186378124 -18.87193805233308 0.0 1.1728982138738149 -35.5341191891697 0.0 0.0288436905673821 -28.347913661202963 0.0 0.9061466030374561 -22.99079165525154 0.0 1.6804528166523511 -19.91604940901101 0.0 2.16358647083408 -18.8613266972832 0.0 2.273639675576165 -19.11700955068742 0.0 2.206897121828848 -36.8119072746051 0.0 1.442600634500916 -29.113432114366155 0.0 2.380467360880752 -23.47062919221172 0.0 3.1964532481259678 -20.16996255896475 0.0 3.58917834082776 -19.012862101832248 0.0 3.5829866087960998 -19.2420348099111 0.0 3.4088789400768302 -37.87714301053137 0.0 2.990558826692962 -29.83518807146244 0.0 3.9345352035120356 -23.80968412976464 0.0 4.95956767715568 -20.37149724420528 0.0 5.2466306726852805 -19.12319265577392 0.0 5.20654074615296 -19.31741814873408 0.0 4.886325923307821 -38.14463165911752 0.0 4.6352157430502405 -30.141816708501604 0.0 5.7007556987202 -24.1317476355307 0.0 6.7741459288706505 -20.578521307460928 0.0 7.240644357642389 -19.16301319558584 0.0 7.112345747635479 -19.2944514504981 0.0 6.6137049346672 -35.3451981738648 0.0 6.66144531223216 -29.443680383448243 0.0 7.6288394529110395 -23.79516891348138 0.0 8.88083828384889 -20.297205437560653 0.0 9.36804346513803 -19.01999893816848 0.0 9.30527128313696 -19.19703759441476 0.0 8.73089812213749 -23.754569049235048 0.0 8.742297257558219 -23.292976601604156 0.0 9.999009284643058 -21.30653361091892 0.0 11.29397034086724 -19.010540071036797 0.0 11.8012614763836 -17.88878267722651 0.0 11.44053700354969 -18.162390664400082 0.0 10.526083363629361 -12.303603577488621 0.0 11.10060928869801 -11.8741663015566 0.0 12.646232597239411 -11.650494791176559 0.0 14.28255698719344 -11.66894047874275 0.0 14.888850142284191 -12.049284023282251 0.0 15.07989685379112 -12.890346029431399 0.0 14.5564073086108 -6.553871518135661 0.0 12.72586393896239 -5.8811117499928 0.0 14.21350920497604 -5.4239921808761 0.0 16.68105974053076 -5.3066607060624 0.0 17.48874720624852 -5.5078922383019995 0.0 17.6735755696797 -6.09045886652616 0.0 17.4878690582456 -5.16151445045608 0.0 14.407111824681731 -4.39967050291692 0.0 14.906607913596421 -3.7741690622569197 0.0 18.7031566864749 -3.4300646216479502 0.0 20.05978902701475 -3.4121772951343887 0.0 20.193731741086648 -3.6981967819989636 0.0 19.34508626213817 -5.0885332194256 0.0 15.910126076198399 -4.456501201830999 0.0 15.3490099705425 -3.904695443439021 0.0 20.17331648093096 -3.53034516813264 0.0 22.2248058843096 -3.370580939911572 0.0 22.035508926437878 -3.404296306494147 0.0 20.38638920614371 -3.713080204542375 0.0 16.81108153996302 -3.4076648890536 0.0 15.975840228673501 -3.15523906006516 0.0 21.129291932586 -2.9806939609627157 0.0 23.13526369219228 -2.8875376790701957 0.0 22.51977339675808 -2.860148003544216 0.0 21.04601773032003 0.01223222861075373 0.0 17.14098089153313 -0.1134985540075016 0.0 16.33132294666776 -0.2880078004877632 0.0 21.672676768317338 -0.47899198032036205 0.0 23.08066063552916 -0.65069149217457 0.0 22.31333890490747 -0.780295604742654 0.0 20.6043446284515 5.47532872902904 0.0 16.8954890975248 4.9317870070299605 0.0 16.3676254499836 4.32913478656072 0.0 21.292770020057922 3.72879606756384 0.0 22.49144157542016 3.1898414063682448 0.0 21.96880715642814 2.757179049181672 0.0 19.46950751238488 11.30719500260563 0.0 15.984662060790159 10.45129351542952 0.0 15.75288006963879 9.5217616168583 0.0 20.094123930561068 8.58207446303144 0.0 21.21797560719184 7.69774269507747 0.0 21.06639048280102 6.94242240062833 0.0 18.5772377963893 16.47652497053112 0.0 14.55028728926124 15.44728988960976 0.0 14.584982141770558 14.33598305927392 0.0 18.43258120348062 13.18892106577332 0.0 19.52102737996745 12.0313203284175 0.0 19.4081040404482 11.06215294351278 0.0 17.52514279131352 20.73390841956195 0.0 12.9198497664909 19.710814553542 0.0 13.12666016324544 18.48920147045666 0.0 16.412244820057218 17.152960158428503 0.0 17.34594684358872 15.867503121843269 0.0 17.572792197502892 14.9136410539149 0.0 16.17222871142676 24.47942690815934 0.0 11.085881684883 23.557941684164973 0.0 11.367922465633232 21.93617096383176 0.0 14.437899120937589 20.39869665317976 0.0 15.57773739001652 19.36952138955944 0.0 15.617863026323679 18.68631689898282 0.0 14.607422099628959 28.37516385398948 0.0 8.78710697879704 27.03108306575456 0.0 9.62854821209361 25.04888574035512 0.0 12.20542179675778 23.74247440139985 0.0 13.422434747037212 22.99123708712073 0.0 13.67104957222954 22.801585158671738 0.0 12.79751563726295 32.86415016136524 0.0 6.36291987002997 30.803734269794912 0.0 8.09855275632081 28.2737859725793 0.0 9.88112019419775 27.239030101615917 0.0 11.28015862219365 26.926877559115542 0.0 11.844888010325372 27.0768616640634 0.0 10.737136457544839 37.84486454574744 0.0 4.2659362796956595 35.09900883019125 0.0 6.2346258791025 31.948298434638854 0.0 7.6789243729803 30.70375739800677 0.0 9.14131665602617 29.94774306085197 0.0 9.516997992601521 29.946606755346263 0.0 8.1632177271246 43.357185302688 0.0 2.24571201529104 39.77326142311938 0.0 4.245372088119891 36.11273541349305 0.0 5.74283805886284 33.4707490865718 0.0 6.936235694708519 31.920309610325372 0.0 7.084538156125171 31.820174887964043 0.0 5.968573877654821 49.596801578181 0.0 0.3049092499188758 44.736794278093 0.0 2.18480074076224 40.15024405733763 0.0 3.9306416440209 35.8445803913912 0.0 4.811545860435601 33.6195678718404 0.0 4.9142281156632 32.87095397011678 0.0 4.49344180230029 56.6249950708572 0.0 -1.587025456574896 50.219502926593 0.0 0.68443219888351 43.549138730812004 0.0 2.33399859620818 37.80975381264833 0.0 3.067741827934936 34.78300518414785 0.0 3.403642670257725 33.51739635883704 0.0 3.4376169518465844 64.981241573421 0.0 -2.39760705261064 55.647185449618 0.0 -0.055931480303109 46.372920305485195 0.0 1.089171250689464 39.69163307338277 0.0 1.913671406658083 35.79011741262609 0.0 2.326501779450615 34.13015821353888 0.0 2.530745772514848 71.9962508546208 0.0 -3.027461971665006 60.5306794144275 0.0 -1.2394302340686718 49.77899498502 0.0 -0.0496999024786368 42.050369326372795 0.0 0.850140782417826 37.26021657607341 0.0 1.46275544421161 34.96170418521102 0.0 1.7200858964328862 66.06903098417921 0.0 -2.44370226415812 54.0718578091922 0.0 -1.14505761166156 45.1625105568912 0.0 -0.06275455507062361 39.41884719437568 0.0 0.627660404420832 36.20069563362771 0.0 1.006855833132369 71.9789191644105 0.0 -3.5194649355510808 59.39846531301539 0.0 -2.184981034445547 49.338302936666096 0.0 -0.959713543554402 42.37968014984519 0.0 -0.13528937569455088 38.06128841630346 0.0 0.3129352542212547 65.8757113320142 0.0 -3.0266741742765237 54.702675410011 0.0 -1.77230655143381 46.2549203735244 0.0 -0.723757917400443 40.747325810660996 0.0 -0.24027248334696127 72.8642839434316 0.0 -3.798404416632196 61.3628536838723 0.0 -2.4595312215805807 51.5289879818644 0.0 -1.28486040694872 44.5559159949184 0.0 -0.619859890586496 68.9065225212322 0.0 -3.136716769024174 58.2864141962677 0.0 -1.827077161404584 49.858130945148794 0.0 -0.90740004784152 66.12178115752481 0.0 -2.424257050172526 56.868538364451105 0.0 -1.377023147050185 73.8554414177358 0.0 -3.379987188867654 65.1030424601766 0.0 -1.9560354277508432 -1.7487999237199972 0.0 -0.2601362305034056 -1.8160934854023358 0.0 -0.2242181816054544 -1.8650810866270262 0.0 -0.190468364761709 -1.898966247474155 0.0 -0.15948276798706912 -1.922155808053894 0.0 -0.1294715192367879 -1.9375549684388729 0.0 -0.10091698252292451 -1.947409888685246 0.0 -0.0742746738568668 -1.953394368834858 0.0 -0.048781109219527705 -1.9566292489157302 0.0 -0.02391763379794083 -2.0893662122341543 0.0 -0.3039601395990033 -2.1674667741866678 0.0 -0.2660695626517389 -2.22462085561552 0.0 -0.2298911137472777 -2.265252736631317 0.0 -0.1946840088671001 -2.2937599773439983 0.0 -0.15981054799526362 -2.3133392978334815 0.0 -0.1257949871448746 -2.325991098149776 0.0 -0.09400494235012351 -2.334134738353367 0.0 -0.0619872575496814 -2.338623858465595 0.0 -0.03047745596193638 -2.4718804217970094 0.0 -0.3097070757426767 -2.562093424052334 0.0 -0.2773966389349158 -2.629705865742645 0.0 -0.24346275808656878 -2.6789643069741063 0.0 -0.20930729323268218 -2.714375387859383 0.0 -0.1737144283428606 -2.739160988479023 0.0 -0.13941824748545611 -2.75634086890852 0.0 -0.1043128986078224 -2.767419509185486 0.0 -0.0693015297325382 -2.773630589340763 0.0 -0.034307206457680144 -2.87706727192668 0.0 -0.3005435075135875 -2.980890354522257 0.0 -0.272927886823197 -3.059674516491861 0.0 -0.24331195808279882 -3.118199597954988 0.0 -0.2118752532968812 -3.161483079037075 0.0 -0.1782479804561994 -3.192748719818716 0.0 -0.14420281960507042 -3.214876240371904 0.0 -0.1088182107204552 -3.2294716807367903 0.0 -0.0727735898193397 -3.2376721209418013 0.0 -0.03678372291959305 -3.330664923266621 0.0 -0.2849538391238458 -3.44826288620657 0.0 -0.2626681145667027 -3.5388001284700015 0.0 -0.2367347539183687 -3.6071934501798344 0.0 -0.20790446519761152 -3.6586106114652632 0.0 -0.1776136804403419 -3.696873572421837 0.0 -0.14463370361584252 -3.724366453109159 0.0 -0.1100278267506956 -3.742767053569174 0.0 -0.074490841862271 -3.753395173834877 0.0 -0.03750295733757391 -3.8488552962213802 0.0 -0.26614997865374934 -3.980383779509592 0.0 -0.2487551982188798 -4.08263170206579 0.0 -0.22668130966703262 -4.16084250402106 0.0 -0.20198047704951183 -4.22078650551966 0.0 -0.1737810643445265 -4.26614330665358 0.0 -0.1429449835736245 -4.29922890748072 0.0 -0.110011282750282 -4.32179130804478 0.0 -0.0745683458642086 -4.33490090837252 0.0 -0.0376665929416648 -4.42848891071222 0.0 -0.24659546216488643 -4.573749314343731 0.0 -0.2348252818706319 -4.68763891719097 0.0 -0.21757557743938932 -4.77578651939466 0.0 -0.1961936289048406 -4.84431132110778 0.0 -0.1706649362666233 -4.89687492242187 0.0 -0.1419831075495776 -4.93588132339703 0.0 -0.1098284147457103 -4.9627441240686005 0.0 -0.07495048987376221 -4.97846452446161 0.0 -0.03799129214978228 -5.05717692642942 0.0 -0.23020704175517592 -5.21586373039659 0.0 -0.2258936936473422 -5.341250933531271 0.0 -0.21394718134867943 -5.43941853598546 0.0 -0.195799284894982 -5.516693737917341 0.0 -0.1724170483104261 -5.57679493941987 0.0 -0.1446609876165246 -5.621976940549421 0.0 -0.1126444348161108 -5.65341374133534 0.0 -0.07724848993121221 -5.67190494179762 0.0 -0.03933306738332666 -5.723098543077461 0.0 -0.22345080958627012 -5.894616547365411 0.0 -0.23077526576938154 -6.0319681507992 0.0 -0.2229996015749899 -6.14065295351632 0.0 -0.2070309931757747 -6.22727935568198 0.0 -0.18394046459851152 -6.295571757389291 0.0 -0.1550117158752928 -6.34734335868358 0.0 -0.12117973902949342 -6.38366095959152 0.0 -0.083262882081572 -6.40512616012815 0.0 -0.0425131970628299 -6.41745856043646 0.0 -0.2428301140707527 -6.60148856503721 0.0 -0.2551456743786417 -6.751216968780421 0.0 -0.2536552743413817 -6.871792171794801 0.0 -0.2368050619201264 -6.968964574224111 0.0 -0.2106358332658957 -7.04635777615894 0.0 -0.17750528443763203 -7.10551857763796 0.0 -0.13854372746359309 -7.147234578680861 0.0 -0.0950229063755726 -7.172028579300711 0.0 -0.048398281209957005 -7.1322321783058005 0.0 -0.2975025234375629 -7.32809018320225 0.0 -0.3136075078401875 -7.49223578730589 0.0 -0.31131015578275373 -7.6264681906617 0.0 -0.28980184324504593 -7.736098593402461 0.0 -0.2561225944030647 -7.8239161955979 0.0 -0.2136537373413433 -7.89129059728226 0.0 -0.1652426761310668 -7.93891179847279 0.0 -0.1125333348133333 -7.967064199176601 0.0 -0.057619961440499 -7.85844299646107 0.0 -0.3982336139558401 -8.06976700174417 0.0 -0.41118089027952204 -8.25034660625866 0.0 -0.401578970039474 -8.400692210017299 0.0 -0.37011734125293333 -8.525236613130911 0.0 -0.3207865560196637 -8.62493461562336 0.0 -0.26463816661595396 -8.70133821753345 0.0 -0.203736285093407 -8.75578621889465 0.0 -0.13943109948577742 -8.788248619706211 0.0 -0.0708664257716606 -8.59319341482983 0.0 -0.563295814082395 -8.82600062065001 0.0 -0.5447864136196601 -9.02520462563011 0.0 -0.5172842529321061 -9.195455429886382 0.0 -0.463107131577678 -9.33543583338589 0.0 -0.3998499979962497 -9.44801423620035 0.0 -0.3305692522642311 -9.53403583835089 0.0 -0.2567680424192009 -9.59620983990524 0.0 -0.17421700035542492 -9.633387840834692 0.0 -0.08697350217433751 -9.339205433480132 0.0 -0.752555978813899 -9.59048703976217 0.0 -0.7190427379760681 -9.81500944537523 0.0 -0.6588318564707961 -10.00525985013149 0.0 -0.582760214569005 -10.16345945408648 0.0 -0.497397532434938 -10.29125785728144 0.0 -0.40506453012661303 -10.38966305974157 0.0 -0.3104530397613258 -10.45995146149878 0.0 -0.20901599322539968 -10.501903062547571 0.0 -0.1061272186531804 -10.08994865224871 0.0 -0.985827864645696 -10.369267459231681 0.0 -0.903856502596412 -10.61494466537361 0.0 -0.824231060605776 -10.82879507071987 0.0 -0.723182298079557 -11.00611907515297 0.0 -0.612956775323919 -11.150982278774551 0.0 -0.49500425237510604 -11.26332348158308 0.0 -0.371249089281227 -11.34286668357166 0.0 -0.24771600219289988 -11.39059388476484 0.0 -0.1258082071452051 -10.84392667109816 0.0 -1.230413190760329 -11.15110787877769 0.0 -1.106083147652078 -11.42711988567799 0.0 -0.9891236647280911 -11.66294669157366 0.0 -0.86401082160027 -11.86140469653511 0.0 -0.7324882983122071 -12.023997900599941 0.0 -0.589569854739246 -12.15071350376783 0.0 -0.444657531116438 -12.24099070602476 0.0 -0.2960205394005133 -12.2956523073913 0.0 -0.14584125564603131 -11.59314148982853 0.0 -1.4647646366191152 -11.93484309837107 0.0 -1.303873192596829 -12.24098390602459 0.0 -1.1512559087813972 -12.50236391255909 0.0 -1.002216665055416 -12.72385351809633 0.0 -0.8468547011713671 -12.906613522665332 0.0 -0.681787857044696 -13.048681926217041 0.0 -0.51252201281305 -13.150099528752481 0.0 -0.3419386725484666 -13.21099873027496 0.0 -0.1711870962796773 -12.33918270847956 0.0 -1.657943561448588 -12.716439517910981 0.0 -1.4713707167842671 -13.054295526357382 0.0 -1.2962099524052482 -13.34272633356815 0.0 -1.1294594282364852 -13.589457939736441 0.0 -0.949031103725777 -13.79317194482929 0.0 -0.7620777790519441 -13.951965548799132 0.0 -0.5726887743172191 -14.06562995164074 0.0 -0.3834195935854896 -14.13338515333462 0.0 -0.1915845327896132 -13.07657512691437 0.0 -1.7988005249700119 -13.49123553728088 0.0 -1.602530720063267 -13.86339434658485 0.0 -1.413290235332255 -14.181250354531251 0.0 -1.2312573907814341 -14.45365796134144 0.0 -1.0349667858741691 -14.68003596700089 0.0 -0.827893940697348 -14.8561403714035 0.0 -0.6211534555288359 -14.981660774541512 0.0 -0.41426005035650104 -15.056746376418651 0.0 -0.20714269317856723 -13.800011145000271 0.0 -1.8914856472871402 -14.254518356362949 0.0 -1.692736282318406 -14.662202766555062 0.0 -1.498705157467628 -15.012839175320972 0.0 -1.305196232629905 -15.314070382851751 0.0 -1.094717147367928 -15.562962789074062 0.0 -0.8768240219206 -15.75633279390831 0.0 -0.655195736379893 -15.893994397349852 0.0 -0.43509441087736006 -15.976106799402661 0.0 -0.21707871342696772 -14.508055562701381 0.0 -1.935727928393197 -15.0022203750555 0.0 -1.7387957234698923 -15.444529986113242 0.0 -1.5518617987965442 -15.83313039582825 0.0 -1.345789673644741 -16.16597800414944 0.0 -1.124332948108323 -16.43799321094982 0.0 -0.8976667824416691 -16.648386016209642 0.0 -0.671101776777544 -16.79746121993652 0.0 -0.44406053110151306 -16.88633322215832 0.0 -0.22108476552711903 -15.201309580032731 0.0 -1.9270695281767372 -15.73327359333183 0.0 -1.738929963473248 -16.21723840543095 0.0 -1.550095878752396 -16.64287001607174 0.0 -1.340496873512421 -17.005769625144232 0.0 -1.118359107958977 -17.30038963250973 0.0 -0.8904979822624491 -17.527174838179363 0.0 -0.66501441662536 -17.68675444216885 0.0 -0.44062205101555096 -17.78178004454449 0.0 -0.2184421574610538 -15.868681596717032 0.0 -1.874767926869197 -16.44146321103657 0.0 -1.695913722397842 -16.969636824240908 0.0 -1.503536077588401 -17.435161235879022 0.0 -1.290407392260184 -17.82827964570698 0.0 -1.073476906836922 -18.1445484536137 0.0 -0.852237261305931 -18.386472059661788 0.0 -0.635516735887918 -18.55567966389198 0.0 -0.42101497052537407 -18.656014066400342 0.0 -0.20859313721482828 -16.508423696373082 0.0 -1.7643198990042699 -17.12778150657696 0.0 -1.5872782494586561 -17.70320619852768 0.0 -1.3922547590777001 -18.20607065991336 0.0 -1.187685299513841 -18.62729390539808 0.0 -0.984510122818624 -18.964012091225598 0.0 -0.7806941351096439 -19.21917148446981 0.0 -0.580913910621702 -19.3969170977274 0.0 -0.3855522764069585 -19.50153600357408 0.0 -0.19106312255039362 -17.1169002453795 0.0 -1.588214117125794 -17.78980723830102 0.0 -1.40763878302155 -18.41226014521887 0.0 -1.213702606200912 -18.949704678324 0.0 -1.027702545406425 -19.3966202244771 0.0 -0.85000388248347 -19.7515367841546 0.0 -0.6745280244036599 -20.018432935307523 0.0 -0.5030989629047761 -20.20283066312253 0.0 -0.3339646378970862 -20.310787312414558 0.0 -0.16599990879170398 -17.7001040966544 0.0 -1.30648832992404 -18.42906961391985 0.0 -1.133443713177534 -19.093684123156443 0.0 -0.9636747576460621 -19.66143391678725 0.0 -0.807748267433466 -20.13015043876473 0.0 -0.667008068776893 -20.500630754816278 0.0 -0.53380351436982 -20.777223815603403 0.0 -0.40196116249323005 -20.96699286034815 0.0 -0.268011456017121 -21.07705512312042 0.0 -0.13400222394925532 -18.25895937058208 0.0 -0.9049937858349121 -19.040897709154788 0.0 -0.764910890435368 -19.74440438795396 0.0 -0.639264996797538 -20.3388409341306 0.0 -0.529723153999998 -20.82410782101372 0.0 -0.437300998399992 -21.20636150576958 0.0 -0.3578853529353186 -21.490881997876652 0.0 -0.27820762200740123 -21.68485286284784 0.0 -0.19149779098415817 -21.796846725503563 0.0 -0.09853558040707901 -18.789824098195638 0.0 -0.36940572975509 -19.620474996706868 0.0 -0.2906433631728973 -20.35919544283228 0.0 -0.2352288727317456 -20.97662958668865 0.0 -0.19530824355197302 -21.47419635836833 0.0 -0.16330988521766612 -21.86439969459647 0.0 -0.14800738275970388 -22.153845263811842 0.0 -0.1326604304360321 -22.352241850311618 0.0 -0.10449329304631659 -22.46674523133634 0.0 -0.0583593267730077 -19.28091591905223 0.0 0.2979267797120785 -20.15230374357825 0.0 0.29222154563384434 -20.92276902226224 0.0 0.2601665361289246 -21.562948067718697 0.0 0.204379452744775 -22.07002733538516 0.0 0.1537285285972543 -22.465093091607898 0.0 0.08731821967476049 -22.75783193261722 0.0 0.03389091259467805 -22.9611491451342 0.0 -0.0056874185383638705 -23.078320857803142 0.0 -0.01060079179245285 -19.6898593228934 0.0 1.091972960195815 -20.6044231434744 0.0 0.990581461814924 -21.40991532802056 0.0 0.847186227202616 -22.0625568932925 0.0 0.685144066203272 -22.5844976453046 0.0 0.5123656853398021 -22.984249655653 0.0 0.3497544964033725 -23.282076213959918 0.0 0.2167916501200275 -23.49046262125914 0.0 0.1110725666204596 -23.61162412010642 0.0 0.0458049781170092 -19.984620693917673 0.0 2.0449509490254423 -20.92050213102395 0.0 1.787731406456975 -21.73441632961592 0.0 1.503156289832722 -22.42278777626685 0.0 1.174019822761885 -22.9517380160193 0.0 0.8689576382735681 -23.38263588285284 0.0 0.62929758716853 -23.691971670615917 0.0 0.3900598320213896 -23.91421253104705 0.0 0.2334293655948645 -24.04052342490388 0.0 0.1046491118098778 -20.1365590176912 0.0 3.132810494300508 -21.10185544488413 0.0 2.7452998426249406 -21.94520932504855 0.0 2.269774499991467 -22.66488143064968 0.0 1.7730019129940728 -23.22114772673784 0.0 1.29540837756968 -23.667038258535197 0.0 0.885881107319255 -23.9996158483116 0.0 0.5799537845946899 -24.23786538022962 0.0 0.34053068657886815 -24.3763028146476 0.0 0.15066578756082 -20.21890657327929 0.0 4.437062050280731 -21.16820484794133 0.0 3.8806243189474716 -22.02111652309621 0.0 3.210347367939738 -22.72398517249862 0.0 2.484615668718734 -23.32128775981972 0.0 1.888864472620136 -23.771100735947517 0.0 1.315264361334336 -24.13519906799619 0.0 0.8439201340356419 -24.393785262268228 0.0 0.486604980300168 -24.559416100814758 0.0 0.22054443089457237 -20.1120771408892 0.0 5.9598078348298005 -21.05741262485154 0.0 5.18412494450886 -21.924589437515852 0.0 4.25380233644055 -22.64477709497586 0.0 3.360626440382211 -23.228185391333998 0.0 2.497644243153325 -23.7205865942318 0.0 1.7640475176859858 -24.123368885023517 0.0 1.190983558152472 -24.404330317805982 0.0 0.732154823930509 -24.5667522224033 0.0 0.35261165509382536 -19.99386345360888 0.0 7.94650943063936 -20.94363695538878 0.0 7.00742234156332 -21.72985942093641 0.0 5.83836975782544 -22.457389974849832 0.0 4.609361807019971 -23.057862028848618 0.0 3.4815815310328277 -23.54636401685008 0.0 2.475130170306339 -23.946977189800503 0.0 1.69759554357663 -24.23947684059776 0.0 1.076341211063008 -24.41828051035776 0.0 0.527770444968896 -19.2705652893654 0.0 9.7896531226824 -20.4421976460722 0.0 8.9115038741263 -21.33151519068353 0.0 7.798404308234329 -22.048458898478447 0.0 6.43285913787555 -22.698732707644602 0.0 5.106372190919 -23.1900662318548 0.0 3.9386045846089397 -23.5514028229693 0.0 2.92077065697287 -23.79729680023266 0.0 1.97555865437595 -23.94284919104777 0.0 1.0037842191218052 -14.11103691748642 0.0 12.634371456763219 -15.72085032733011 0.0 10.20420129353176 -17.311485521227947 0.0 8.55419130896355 -18.714670556802332 0.0 7.15875524035848 -19.96990127727189 0.0 5.737193388072961 -21.02329795655454 0.0 4.47830997592038 -21.85301157684816 0.0 3.4027533682236717 -22.47100260955232 0.0 2.345286429061544 -22.8500070078283 0.0 1.2140146787438049 -7.0709753856208 0.0 15.27880556049906 -8.238622207146339 0.0 12.95798701874482 -9.45249688890247 0.0 11.284999063922431 -10.626296726647379 0.0 9.41799038109582 -11.70077419973397 0.0 7.6012587488482195 -12.64267679644998 0.0 5.9989883648751 -13.427347854747198 0.0 4.56896991074336 -14.025516783550522 0.0 3.1542867398267593 -14.40358246312752 0.0 1.6306627128389721 -4.226501412617339 0.0 17.05636641038424 -4.91578638434609 0.0 15.565564023679778 -5.6806686902922 0.0 13.64491331782695 -6.453144260703279 0.0 11.422059080834519 -7.1891614002967 0.0 9.2796238733441 -7.858727735596079 0.0 7.37795628524136 -8.43364117818032 0.0 5.64874596878456 -8.881607935564091 0.0 3.908071396824679 -9.168595760736599 0.0 2.02082721466161 -3.5838163883652303 0.0 18.882455224949098 -3.860969076932649 0.0 17.22497617709649 -4.1989816802419195 0.0 15.08621258862432 -4.56614017739834 0.0 12.66842142584424 -4.93912214872375 0.0 10.35913050946975 -5.29763419592452 0.0 8.2998948934771 -5.619109323149861 0.0 6.395721168089371 -5.87745552416044 0.0 4.4425772737696 -6.0462952454733605 0.0 2.3014797012894 -2.8721660430679323 0.0 19.47687944943078 -2.9047978785003488 0.0 17.713919897155687 -2.9530383607911683 0.0 15.49317381185184 -3.014439368485832 0.0 13.034594685627761 -3.0883141685102724 0.0 10.71235558468192 -3.1706035631034033 0.0 8.64127921221908 -3.2530910867759792 0.0 6.7025466625 -3.3247995076583203 0.0 4.6785500733208 -3.3742124919374996 0.0 2.43060459790295 -0.84909481659699 0.0 18.9960643990191 -0.8497154293141281 0.0 17.20247817415894 -0.791692887262541 0.0 14.99429943742363 -0.69538625286362 0.0 12.60218147411324 -0.582521131857379 0.0 10.377723038252569 -0.469788126149608 0.0 8.40891099982584 -0.369302454974252 0.0 6.5586873015964 -0.2909807520955348 0.0 4.58943970544189 -0.2414457163712904 0.0 2.3231248681912158 2.468923571593684 0.0 17.81167167883776 2.338990256287584 0.0 16.01744304587136 2.354401853083774 0.0 13.866575183148742 2.478824727480756 0.0 11.58974866098902 2.670725527377204 0.0 9.51647156813332 2.8915874817867278 0.0 7.71523759639308 3.106533775259642 0.0 6.03825240869795 3.28480750222338 0.0 4.255303837819651 3.402072286490094 0.0 2.191985081573721 6.38984069492993 0.0 16.28034645475784 6.073916705078861 0.0 14.50361855652402 5.9829041614854 0.0 12.42234378863445 6.0702639997509 0.0 10.265021474060699 6.2781286558851 0.0 8.348308772991599 6.5475772574674 0.0 6.733533071295801 6.8235703964818 0.0 5.270441283723599 7.058601470199081 0.0 3.726699064144972 7.2154021614963595 0.0 1.9563348437282517 10.3345557863828 0.0 14.71242104478664 9.8814075002594 0.0 12.92632385946208 9.711899974396502 0.0 10.919573149741112 9.770051026737601 0.0 8.8678666996608 9.98501378164281 0.0 7.08771915761661 10.282612554769798 0.0 5.6468095749268 10.5939493950832 0.0 4.4004500976913 10.861182823722201 0.0 3.116626332767715 11.0400736183011 0.0 1.6414702324847081 14.2072206827589 0.0 13.209393486600812 13.738610033593691 0.0 11.4405646038523 13.579087847182517 0.0 9.52398489886568 13.663631874614149 0.0 7.56898894689091 13.9132333641938 0.0 5.9018469609385 14.24651716703375 0.0 4.607680724744999 14.589761830619802 0.0 3.55492650328496 14.881704595697919 0.0 2.515648582687616 15.076433771211839 0.0 1.328476921306732 18.2479181450251 0.0 11.71636904109292 17.911014432107738 0.0 10.114268674606828 17.86099770312993 0.0 8.31876121805778 18.032890521445918 0.0 6.46636106614608 18.347100820117348 0.0 4.8968928251397 18.72630450897591 0.0 3.7195127520708304 19.10167504584063 0.0 2.8226996062684173 19.415937362049 0.0 1.98835691559195 19.624315114413 0.0 1.051324709158095 22.663906308591002 0.0 10.2550567253469 22.556221614194083 0.0 8.96546721173152 22.68404230146815 0.0 7.328772006897551 22.97445246400176 0.0 5.59706187658994 23.35747178711776 0.0 4.1199232043258 23.772021936804258 0.0 3.032053939147912 24.16498383771046 0.0 2.247982059815322 24.48569482516078 0.0 1.566995353260472 24.696558220086477 0.0 0.8268296664293469 27.18618611497789 0.0 8.9692368052287 27.343324990708762 0.0 7.928393287446379 27.63035014485769 0.0 6.47779491824354 27.966592298531896 0.0 4.8802037959668 28.30024295377572 0.0 3.487210396024274 28.582348667962318 0.0 2.460892697686122 28.813549769182202 0.0 1.75323985408093 28.963668392643022 0.0 1.189722527941788 29.07448607977882 0.0 0.614269145007401 30.078663212814803 0.0 7.227666570172751 30.33974652165 0.0 6.408776944875 30.64932951505792 0.0 5.186280166832961 30.89451032601038 0.0 3.8114670070887557 31.092668245779137 0.0 2.5935518819710497 31.130362043855705 0.0 1.7242914946693402 31.18448484932704 0.0 1.1643059439938719 31.14357095706484 0.0 0.782388946489344 31.097728067884077 0.0 0.4049510564222464 31.7370646401858 0.0 5.42878267535856 31.93851445142253 0.0 4.850652778121219 32.13273792911832 0.0 3.9065312014622458 32.25284171089116 0.0 2.834288085770904 32.33176890617322 0.0 1.921735822146374 32.267424591362555 0.0 1.23760267565056 32.1588551879792 0.0 0.7727622517576 32.07468405976087 0.0 0.490901077813124 32.01888879398253 0.0 0.2467419637737388 32.72930323432476 0.0 4.2660108428734995 32.79065084325336 0.0 3.7449647730470237 32.92514519357979 0.0 3.035693660880866 33.00485868826837 0.0 2.2281625103961242 32.91848817231876 0.0 1.467957610214568 32.84115181445849 0.0 0.924564355871062 32.71958665144168 0.0 0.626831719856094 32.57822350926647 0.0 0.390963590168704 32.4572626203394 0.0 0.2048303399673944 33.2015878808521 0.0 3.3445970154317304 33.30118140609585 0.0 3.005186657486847 33.3816005894406 0.0 2.516409002040815 33.43849674933313 0.0 1.9261222663681121 33.37842205521627 0.0 1.379685882596229 33.14135118830556 0.0 0.965861659826232 32.97619956714932 0.0 0.611374523517435 32.85159471716747 0.0 0.3891757369930908 32.79936172213827 0.0 0.2114453770159311 33.6557837091606 0.0 2.523071453442384 33.637866205459204 0.0 2.3760836126526 33.7031708609749 0.0 2.112709157432167 33.69049956560365 0.0 1.7364882840135603 33.5835139880328 0.0 1.3753970903717199 33.46749649306235 0.0 1.001074680075849 33.324751323833596 0.0 0.696364079733184 33.22793402476524 0.0 0.423869675150316 33.16959345748975 0.0 0.1887006757937675 34.11862863940439 0.0 1.85980451059572 33.90200840128462 0.0 1.9162023185546488 33.89331914558772 0.0 1.7250491185097518 33.89778711132579 0.0 1.506632347387485 33.83325718366506 0.0 1.2288327820526121 33.72899525420519 0.0 0.9664377631460191 33.618100754569966 0.0 0.698952155698753 33.5276262608426 0.0 0.436946553612345 33.48162485288344 0.0 0.19943309811334 34.711388916262834 0.0 1.297547591794054 34.13314188816 0.0 1.4290819603928 34.029854989754 0.0 1.360627438020604 34.02346557218752 0.0 1.222975831376572 33.98379944843134 0.0 1.053014536642382 33.895663359769976 0.0 0.85458664621592 33.8090773956186 0.0 0.64282671358168 33.73335581272492 0.0 0.40655050139735904 33.68410866481707 0.0 0.19057225127173702 35.69436224061002 0.0 0.6814086910047791 34.56776794829217 0.0 0.9175128685230202 34.16259643138144 0.0 1.0003316559726718 34.07142835974416 0.0 0.941368536566192 34.00095948648934 0.0 0.8338550999177341 33.93487416954038 0.0 0.725131573606133 33.8568704055677 0.0 0.55635597800754 33.8035228406628 0.0 0.3471410110356814 33.75695930208415 0.0 0.17393496939404202 37.30472391792275 0.0 0.0860492487289055 35.336395231140564 0.0 0.433796395929115 34.4891431953861 0.0 0.569395094439912 34.11218118873576 0.0 0.653858515037112 33.97731575036514 0.0 0.61947769837374 33.87322249642602 0.0 0.537487520591544 33.827884686075784 0.0 0.41796618612330605 33.77032279092801 0.0 0.2799672847654257 33.72680376650856 0.0 0.1431355010106 39.90665387101376 0.0 -0.3579838877230208 36.9081647023475 0.0 -0.0480242923112125 35.24599480707046 0.0 0.196334867425777 34.46416948523974 0.0 0.292816349351009 34.03595941251696 0.0 0.4009566247078132 33.849220950645204 0.0 0.3596650127637128 33.75984175494 0.0 0.2718032009747573 33.699917916313275 0.0 0.1958247451301484 33.65147082279664 0.0 0.09731080694623599 43.794920217407004 0.0 -0.601071340320331 39.61629115291816 0.0 -0.3769741655662124 36.9467168548002 0.0 -0.1417878728140833 35.42474761169146 0.0 0.015489640452994278 34.52150739958004 0.0 0.121223125797027 34.03425128657568 0.0 0.194827257052848 33.8255837394803 0.0 0.1305097910910367 33.6893561515104 0.0 0.10767284458048469 33.638772071732475 0.0 0.0562455522676508 49.401208159781504 0.0 -0.713086167593047 43.9481723880771 0.0 -0.455550257823947 40.0783133561055 0.0 -0.3553031959727579 37.45871894524978 0.0 -0.196846222190914 35.80437335747311 0.0 -0.0579273361429777 34.86799573041974 0.0 -0.018668993082566542 34.32011529857515 0.0 0.0232401988633915 34.045134611642 0.0 0.022366067779748 33.90662463412265 0.0 0.0111943855820068 56.8929181602012 0.0 -1.053189936937614 50.0977892059827 0.0 -0.498649161875529 45.0454621242678 0.0 -0.38056232379859195 41.203790446370995 0.0 -0.2506164650357277 38.52420979502556 0.0 -0.1645159315422762 36.83332907852526 0.0 -0.11389562328466861 35.779968653577114 0.0 -0.052960141958033696 35.18593387213026 0.0 -0.026867155097707953 34.91535570079569 0.0 -0.03415196283286395 65.3186779648578 0.0 -1.796025758648904 58.0584541800954 0.0 -0.9080876433396959 51.918030882972 0.0 -0.477023721421212 46.8704480313552 0.0 -0.1996820363876064 43.1841035832729 0.0 -0.1362145277794605 40.549625464772994 0.0 -0.118400456167131 38.78629358499915 0.0 -0.0697847058839487 37.7579240193774 0.0 -0.0398761543007271 37.28137505042016 0.0 -0.0531565691355624 66.36598076147 0.0 -1.54729568758395 60.11923078483159 0.0 -0.9139151590886799 54.490204976084996 0.0 -0.43653650274625005 49.90886611927 0.0 -0.233212844469425 46.337002885870405 0.0 -0.054976736523053404 43.913400330900004 0.0 0.020381733396931 42.440474229642206 0.0 -0.00477635104168278 41.650060074382196 0.0 -0.012296581603176518 62.640565128449005 0.0 -0.744657511326652 57.852640622801694 0.0 -0.3758679480134615 53.903043829674 0.0 -0.042574671961276 51.108194998548406 0.0 0.11395260943532981 49.3537438143128 0.0 0.08829291063487561 48.3913304957374 0.0 0.031214087130057917 62.0093256334482 0.0 -0.20628107007847532 59.378284639537895 0.0 -0.02278458698346776 57.59652040588029 0.0 0.03587046504103088 56.5865588403985 0.0 0.0356571322922846 -1.957589008939724 0.0 1.801691205042279e-06 -1.956617008915424 0.0 0.02391909419797734 -1.953390568834763 0.0 0.048778581219464504 -1.9474083286852073 0.0 0.0742750538568763 -1.9375549684388729 0.0 0.1009158385228959 -1.9221542880538562 0.0 0.1294712352367808 -1.898965487474136 0.0 0.15948214798705362 -1.865074966626873 0.0 0.19046898476172452 -2.339884258497105 0.0 1.874758926868972e-06 -2.338620818465519 0.0 0.03047723236193079 -2.334143138353577 0.0 0.061987449549686206 -2.32599645814991 0.0 0.09400471835011791 -2.313330137833252 0.0 0.1257949511448737 -2.29375845734396 0.0 0.1598107359952683 -2.265242816631069 0.0 0.19468422486710552 -2.22462165561554 0.0 0.2298891857472295 -2.7754883493872073 0.0 -4.3681321092033e-07 -2.7736290693407253 0.0 0.03430975165774377 -2.767423309185581 0.0 0.0692993297324832 -2.756340108908501 0.0 0.1043134466078361 -2.7391587084789664 0.0 0.13941793948544842 -2.714380707859516 0.0 0.1737137003428424 -2.678965826974144 0.0 0.2093086292327156 -2.6297081457427023 0.0 0.2434603020865074 -3.2403756010093883 0.0 2.4879271821981782e-06 -3.237680520942011 0.0 0.0367802689195067 -3.2294876807371904 0.0 0.072775961819399 -3.214877800371943 0.0 0.1088166867204171 -3.192750639818764 0.0 0.1442027356050683 -3.16148687903717 0.0 0.1782486484562161 -3.118207237955179 0.0 0.2118745852968645 -3.0596733964918332 0.0 0.24331336608283402 -3.7568657739216422 0.0 2.014821850370545e-07 -3.7533989738349725 0.0 0.03749645453741134 -3.74277049356926 0.0 0.0744902218622555 -3.7243614931090354 0.0 0.11002731475068281 -3.6968743324218556 0.0 0.144631963615799 -3.6586098514652443 0.0 0.1776143844403595 -3.6071991701799773 0.0 0.20790532119763291 -3.5388001284700015 0.0 0.2367391899184796 -4.33919770847994 0.0 -2.6367912659197802e-06 -4.33490170837254 0.0 0.037663526141588126 -4.32179130804478 0.0 0.0745690858642271 -4.29922250748056 0.0 0.11000920675023011 -4.26613970665349 0.0 0.1429434675735866 -4.22078970551974 0.0 0.1737780363444508 -4.16083690402092 0.0 0.20198400504959999 -4.08263850206596 0.0 0.22668147766703683 -4.98363132459078 0.0 -7.937189398429731e-07 -4.97846972446174 0.0 0.03799069614976738 -4.962746524068661 0.0 0.0749508098737702 -4.93587652339691 0.0 0.1098290107457252 -4.89686732242168 0.0 0.1419826195495654 -4.84430852110771 0.0 0.170664444266611 -4.775794519394861 0.0 0.1961950129048752 -4.68764891719122 0.0 0.21757646143941142 -5.67801294195032 0.0 -5.40981813524545e-06 -5.67191054179776 0.0 0.03933526058338149 -5.65341174133529 0.0 0.0772510739312768 -5.6219841405496 0.0 0.1126425908160647 -5.57681013942025 0.0 0.1446599996164999 -5.516690537917261 0.0 0.17241563231039073 -5.43941533598538 0.0 0.1957974248949355 -5.34125533353138 0.0 0.2139461093486526 -6.41223296030582 0.0 2.02293565057339e-06 -6.405130960128271 0.0 0.0425104650627616 -6.38365815959145 0.0 0.0832567580814189 -6.34734455868361 0.0 0.1211784870294621 -6.295560157389 0.0 0.15501016787525412 -6.22727575568189 0.0 0.1839413565985338 -6.14064095351602 0.0 0.2070335451758385 -6.031965750799141 0.0 0.2229965735749142 -7.1802073795051795 0.0 2.301709217542729e-06 -7.1720201793005005 0.0 0.0484036892100922 -7.1472321786808 0.0 0.0950225143755628 -7.10550857763771 0.0 0.1385382074634551 -7.04634937615873 0.0 0.17750559243763972 -6.96895297422382 0.0 0.2106319012657974 -6.87177897179447 0.0 0.2368110699202766 -6.751214168780351 0.0 0.253647526341188 -7.976421399410531 0.0 -9.73333984333349e-07 -7.96706499917662 0.0 0.0576232374405809 -7.938919398472979 0.0 0.1125364588134114 -7.891283797282091 0.0 0.1652466561311663 -7.823911395597781 0.0 0.2136526413413159 -7.7360877934021905 0.0 0.2561216664030415 -7.626465790661641 0.0 0.2898044192451103 -7.492225787305641 0.0 0.3113206237830154 -8.79909541997738 0.0 -3.965699659142489e-06 -8.788263819706591 0.0 0.070863801771595 -8.75577701889442 0.0 0.1394344594858614 -8.70135821753395 0.0 0.20373359309333972 -8.62490621562265 0.0 0.2646375706159391 -8.525229813130741 0.0 0.3207893200197328 -8.40070221001755 0.0 0.3701176972529422 -8.25034140625853 0.0 0.401587050039676 -9.6455722411393 0.0 -5.90168934754223e-06 -9.633386640834662 0.0 0.08696499817412491 -9.59620223990505 0.0 0.1742175283554381 -9.53405543835138 0.0 0.2567687104192176 -9.44800903620022 0.0 0.33056744026418583 -9.33545343338633 0.0 0.3998485419962133 -9.195455429886382 0.0 0.46311581157789505 -9.0252162256304 0.0 0.51728961293224 -10.51512946287823 0.0 5.751764143794101e-06 -10.501903862547591 0.0 0.10612629865315741 -10.45993906149847 0.0 0.2090173292254331 -10.38968985974224 0.0 0.31045111176127765 -10.29126745728168 0.0 0.40506349012658704 -10.16347585408689 0.0 0.4973976124349401 -10.005263050131571 0.0 0.5827622545690561 -9.81502344537558 0.0 0.658844776471119 -11.40679948516998 0.0 -3.150144838753619e-06 -11.39057428476435 0.0 0.12581685914542143 -11.3428882835722 0.0 0.24771974619299353 -11.26331428158285 0.0 0.371246849281171 -11.150984278774601 0.0 0.49500413237510305 -11.00612147515303 0.0 0.612954375323859 -10.82880587072014 0.0 0.723182298079557 -10.61495786537394 0.0 0.824227940605698 -12.31288190782204 0.0 -3.573751849343794e-06 -12.29563470739086 0.0 0.1458466796461669 -12.241020706025509 0.0 0.29601915540047874 -12.15070910376772 0.0 0.444653171116329 -12.02397550059938 0.0 0.589569094739227 -11.86140109653502 0.0 0.7324866583121661 -11.66295509157387 0.0 0.864006461600161 -11.42711588567789 0.0 0.9891292647282309 -13.231454730786362 0.0 -7.059552576488811e-06 -13.21101873027546 0.0 0.1711817802795444 -13.150095128752369 0.0 0.341933688548342 -13.048703526217581 0.0 0.5125214528130361 -12.906630322665752 0.0 0.681783977044599 -12.72384511809612 0.0 0.846853461171336 -12.5023563125589 0.0 1.0022135050553371 -12.24099750602493 0.0 1.151263748781593 -14.156029153900722 0.0 1.1969128699228211e-06 -14.13338955333473 0.0 0.19158078878951962 -14.06562555164063 0.0 0.3834151135853776 -13.951965548799132 0.0 0.5726834543170861 -13.79315514482887 0.0 0.7620716590517911 -13.58942753973568 0.0 0.9490267037256671 -13.342741533568532 0.0 1.129452628236315 -13.05429712635742 0.0 1.29621243240531 -15.0817323770433 0.0 2.6691918667297953e-06 -15.056700376417501 0.0 0.2071381131784527 -14.98164717454117 0.0 0.41426269035656704 -14.85614957140373 0.0 0.6211467355286681 -14.68004356700108 0.0 0.827891260697281 -14.453659561341482 0.0 1.034961265874031 -14.18123195453079 0.0 1.231252590781314 -13.86335954658398 0.0 1.4132812753320312 -16.00343520008587 0.0 -1.299184472479611e-06 -15.97611879940296 0.0 0.21707842942696062 -15.89397919734947 0.0 0.435096290877407 -15.75635279390881 0.0 0.655189096379727 -15.562970389074252 0.0 0.8768161819204041 -15.314103982852592 0.0 1.094710947367773 -15.01285757532143 0.0 1.3051891526297281 -14.662211966555292 0.0 1.498699317467482 -16.915791622894783 0.0 -1.2715188717879712e-05 -16.886340822158513 0.0 0.2210839335270982 -16.79748881993721 0.0 0.44405701110142504 -16.648354016208838 0.0 0.6710898167772451 -16.437996410949903 0.0 0.897659782441494 -16.166002404150053 0.0 1.124322628108065 -15.833136395828399 0.0 1.3457785136444622 -15.4445283861132 0.0 1.551865438796635 -17.813135245328372 0.0 4.16707690417692e-06 -17.78180724454517 0.0 0.2184461174611528 -17.68673124216827 0.0 0.440618891015472 -17.52715043817875 0.0 0.6650097366252431 -17.30038803250969 0.0 0.8904883422622081 -17.0057284251432 0.0 1.1183462279586551 -16.64288361607208 0.0 1.3404919135122972 -16.21720480543011 0.0 1.550115158752878 -18.68891206722279 0.0 -7.143130978578271e-06 -18.65606726640167 0.0 0.2085793292144831 -18.5556844638921 0.0 0.421000170525004 -18.38646725966167 0.0 0.635508695887717 -18.14453485361336 0.0 0.852227501305687 -17.8282244457056 0.0 1.073466906836672 -17.43518403587959 0.0 1.290402072260051 -16.96961882424046 0.0 1.5035413975885341 -19.53586368150755 0.0 -1.7364977182945453e-06 -19.50156640364704 0.0 0.1910663305580928 -19.39691109771345 0.0 0.38555370841028785 -19.21921428456932 0.0 0.580914510623097 -18.96401049122188 0.0 0.780684575087417 -18.627272305346242 0.0 0.98450256280048 -18.206073859921283 0.0 1.18768613951592 -17.703227798586 0.0 1.3922587990886082 -20.3460964562592 0.0 -2.025929103994512e-06 -20.31079331245536 0.0 0.16599012072514557 -20.20283226313329 0.0 0.3339519058114635 -20.01842053521576 0.0 0.503092962860376 -19.7515611843132 0.0 0.67452502438416 -19.3965990243234 0.0 0.85000224247158 -18.94969707827175 0.0 1.02770346541275 -18.41222174494911 0.0 1.21371052625655 -21.113078516233198 0.0 -1.6848255215469603e-05 -21.077114724129153 0.0 0.13398962373600032 -20.96696565988779 0.0 0.2679931237068519 -20.77721461545045 0.0 0.40195572240279 -20.50072515639276 0.0 0.53380071432306 -20.13012283831002 0.0 0.667007708770962 -19.66144311693882 0.0 0.8077573475830591 -19.09369652336538 0.0 0.9636923979432961 -21.8334800360149 0.0 -1.33486402723542e-05 -21.796787122781332 0.0 0.09852094773876241 -21.68485286284784 0.0 0.1914896386105928 -21.49089119829962 0.0 0.2781926733201669 -21.20636430589712 0.0 0.357877940597702 -20.82415662324998 0.0 0.437303078495308 -20.33886213509891 0.0 0.529735354557233 -19.74453239384836 0.0 0.639281997580388 -22.503862284474437 0.0 -9.54135199586256e-06 -22.46670082587403 0.0 0.0583508737332004 -22.352223848091768 0.0 0.1044755188545847 -22.15383926307279 0.0 0.13264041197056128 -21.864358450087998 0.0 0.14799860658035602 -21.47424676457635 0.0 0.1633111853777936 -20.9766723919477 0.0 0.19531977296847602 -20.359343460940078 0.0 0.23523092098231843 -23.116011485826743 0.0 -1.269787739971232e-05 -23.07834206483253 0.0 0.01058335041124378 -22.96117795469652 0.0 0.0056655964953049 -22.7578411356684 0.0 -0.03391114930395756 -22.4650154659126 0.0 -0.08733234835157 -22.07007134996786 0.0 -0.15373596706173062 -21.5628992515598 0.0 -0.2043789045633185 -20.92279343033803 0.0 -0.26016047812454 -23.6519438173738 0.0 -1.347998846620803e-05 -23.61163172681988 0.0 -0.0458241790631956 -23.4904730304491 0.0 -0.11109198776680419 -23.28207461254644 0.0 -0.21681176387333628 -22.984276879674 0.0 -0.34977318088955 -22.58448243188224 0.0 -0.512380538444264 -22.0625689038846 0.0 -0.6851465483923059 -21.4099077213128 0.0 -0.8471799416598881 -24.0837456435842 0.0 -9.1479058612333e-06 -24.040529839540522 0.0 -0.10466268277551931 -23.914190881661348 0.0 -0.23344850525548147 -23.691925565432317 0.0 -0.3900858794455504 -23.382620247188896 0.0 -0.629323125419632 -22.95171516392244 0.0 -0.868971710354266 -22.422804614647713 0.0 -1.174024112539866 -21.73442234332082 0.0 -1.5031480711026919 -24.42501259784586 0.0 -6.8710331437605005e-06 -24.376304423466483 0.0 -0.15068368567086002 -24.23789916539838 0.0 -0.34055118291458253 -23.999710768526402 0.0 -0.57997602649248 -23.6670197571535 0.0 -0.8859084169674598 -23.221152150977 0.0 -1.295423621084604 -22.66491521569076 0.0 -1.772995799510449 -21.945146179229358 0.0 -2.2697603424574826 -24.62290568942177 0.0 -1.189309262725742e-05 -24.559442399115362 0.0 -0.2205670514789808 -24.39375289515063 0.0 -0.48663006481630805 -24.13515254030604 0.0 -0.843943276504134 -23.771144026880638 0.0 -1.3152825273427198 -23.32123071298504 0.0 -1.8888783499707 -22.723917201953178 0.0 -2.4846075769871336 -22.02105340770049 0.0 -3.210330011205915 -24.62447574318155 0.0 -1.326592736971675e-05 -24.56675059187986 0.0 -0.3526351020208926 -24.40429281576962 0.0 -0.732182298248451 -24.12339864204564 0.0 -1.1910097280267198 -23.720651815003 0.0 -1.7640638636417678 -23.2282633275176 0.0 -2.4976446307853117 -22.64477709497586 0.0 -3.3606097276133013 -21.9245971824507 0.0 -4.25377461772635 -24.47863231196653 0.0 -1.229704742041946e-05 -24.4183026557664 0.0 -0.5277945178482879 -24.23950185670752 0.0 -1.0763731988754879 -23.946994414004703 0.0 -1.6976268342142602 -23.546362376450762 0.0 -2.475152069637261 -23.05786530964678 0.0 -3.481591701507124 -22.45741335053216 0.0 -4.6093490939295805 -21.72984219674859 0.0 -5.8383574548341395 -23.984981924231384 0.0 -1.41114624239121e-05 -23.94280968958505 0.0 -1.003792448593205 -23.79728733633572 0.0 -1.9755857293506742 -23.5513699050573 0.0 -2.9208026696422897 -23.1900143861056 0.0 -3.93863869582012 -22.6987660370548 0.0 -5.1063882384128 -22.04843671721814 0.0 -6.432861549189401 -21.331565390673788 0.0 -7.79838784922113 -22.98036071861684 0.0 1.039664793024452e-05 -22.84999917821045 0.0 -1.21403342861813 -22.47098200528632 0.0 -2.3452952476873916 -21.85298479127896 0.0 -3.402785181238168 -21.0232759395818 0.0 -4.478337345743 -19.96990581022328 0.0 -5.7372164649164 -18.714665611756292 0.0 -7.15875524035848 -17.31147643128144 0.0 -8.55416719720704 -14.533429194656659 0.0 -2.962295025150245e-06 -14.403574628851251 0.0 -1.6306722376695952 -14.025499465676662 0.0 -3.154295604928854 -13.42735898767664 0.0 -4.5689892902872 -12.64265947853874 0.0 -5.99900527045512 -11.7007993519695 0.0 -7.6012777161078 -10.6262888923314 0.0 -9.417991205760659 -9.4524758599159 0.0 -11.28498215826656 -9.2677552807452 0.0 -2.0213614404094798e-05 -9.1686110203839 0.0 -2.02086222936582 -8.88157782867998 0.0 -3.908096967055019 -8.43363787879408 0.0 -5.64876040359936 -7.8586980410853595 0.0 -7.3779785561244 -7.189165524539701 0.0 -9.2796465566806 -6.453141786153759 0.0 -11.422059080834519 -5.6806224986305995 0.0 -13.644911668124749 -6.10516834167282 0.0 4.58229984288335e-06 -6.04633236646296 0.0 -2.301461594495584 -5.8774716099343 0.0 -4.4425875851631 -5.61908168860925 0.0 -6.39573931614589 -5.29760037451776 0.0 -8.29991510382992 -4.93907512865425 0.0 -10.35912968455625 -4.566141334430109 0.0 -12.668419872536699 -4.19894950853664 0.0 -15.08619815260272 -3.391780769934722 0.0 -5.2296659565576796e-06 -3.3742353011911703 0.0 -2.43059692607441 -3.32483097867678 0.0 -4.678562859711 -3.253055326111632 0.0 -6.70255449932379 -3.170592550295646 0.0 -8.641284574260311 -3.088296844978592 0.0 -10.7123832198396 -3.014420683799588 0.0 -13.03459551055872 -2.9530035486540163 0.0 -15.49315318854784 -0.22460692204427918 0.0 -4.71697355683976e-05 -0.24145114828300318 0.0 -2.32309005776232 -0.2909951588318697 0.0 -4.589461152630251 -0.369301617708466 0.0 -6.5586951380742 -0.46975999730240003 0.0 -8.40892997236208 -0.5825251738351369 0.0 -10.37774819750188 -0.695363320797076 0.0 -12.60215961440952 -0.791680472587072 0.0 -14.994277577696058 3.4429473017103605 0.0 -3.87396792225504e-05 3.4021100478545465 0.0 -2.19198743135295 3.2848530961852624 0.0 -4.25531785404663 3.106571124394808 0.0 -6.03827466977189 2.8915670345497997 0.0 -7.715252437129559 2.670760526801112 0.0 -9.51648434766384 2.4788465351534423 0.0 -11.589744950798961 2.3544448913344063 0.0 -13.866581366805441 7.27036725936962 0.0 3.277761985322222e-06 7.215391041770729 0.0 -1.9563689854043531 7.058624533330359 0.0 -3.726694739807857 6.823606638568999 0.0 -5.2704499324034995 6.547555841673 0.0 -6.7335454265617996 6.278126184829799 0.0 -8.34831577431495 6.070263176064779 0.0 -10.265029299078838 5.9829350497441505 0.0 -12.42234378863445 11.102756896574938 0.0 1.38575686421961e-05 11.04003907184202 0.0 -1.6414608967154092 10.861172572297919 0.0 -3.116639019224864 10.59395391902625 0.0 -4.400471894871449 10.282552920931549 0.0 -5.6468112199982 9.98501542671597 0.0 -7.08773766468966 9.7700210041152 0.0 -8.867877803918399 9.711867895385641 0.0 -10.919570270855521 15.1447437721025 0.0 1.048280582581125e-05 15.076427202393281 0.0 -1.3284975720300802 14.88172019663744 0.0 -2.5156495680101116 14.589760188415399 0.0 -3.55492806337914 14.24656561208125 0.0 -4.60768195639875 13.913227205918302 0.0 -5.9018531192140005 13.66363967510652 0.0 -7.5689946946221305 13.57909728989278 0.0 -9.52398859383926 19.69710376290483 0.0 -4.12220051240238e-06 19.6242356266863 0.0 -1.0513376156704202 19.4159418690867 0.0 -1.9883703957319798 19.101682830722222 0.0 -2.8227019417328942 18.72627173049831 0.0 -3.719520209174484 18.34706968054995 0.0 -4.89690470734305 18.032881507356 0.0 -6.46635901748928 17.8610308913871 0.0 -8.318760398594641 24.769481618918878 0.0 3.387613018354008e-06 24.69656312625012 0.0 -0.8268270089240419 24.48567601820154 0.0 -1.5669956803380238 24.16499937389418 0.0 -2.24798459466635 23.772001903302726 0.0 -3.0320545115336697 23.35748895869428 0.0 -4.11992483971404 22.97446513826155 0.0 -5.59705083771851 22.6840435280096 0.0 -7.32876873612035 29.086658010111563 0.0 -1.261108893463796e-05 29.074495462347528 0.0 -0.614282566160034 28.963649627497777 0.0 -1.189730890669558 28.813484499131004 0.0 -1.7532456875917561 28.58232663932436 0.0 -2.4608905356161 28.30028660311069 0.0 -3.487210028880335 27.966601273160197 0.0 -4.88020012452795 27.6303595274195 0.0 -6.4777981817433 31.08627904059405 0.0 1.540313477855425e-06 31.09773132419192 0.0 -0.4049642037651504 31.14354938403176 0.0 -0.7823948892493999 31.18448484932704 0.0 -1.164315265170255 31.1304023406474 0.0 -1.7242930821187101 31.092699180671694 0.0 -2.5935518819710497 30.89448834596324 0.0 -3.811470914652692 30.649351495096962 0.0 -5.186280166832961 32.008325520197296 0.0 -6.0040992648704e-06 32.018854675063295 0.0 -0.24673549742618764 32.07473686283457 0.0 -0.490902499434339 32.158864530059404 0.0 -0.77276156125602 32.26741199986687 0.0 -1.237602391326464 32.3317936829818 0.0 -1.9217265206887229 32.25282302675928 0.0 -2.834281505707068 32.13270096704226 0.0 -3.9065273427839764 32.408233536901406 0.0 -7.1918647604968e-06 32.45735504658724 0.0 -0.2048369881711864 32.57822026624095 0.0 -0.39096414553682435 32.7196239462186 0.0 -0.626829328125835 32.84117046184695 0.0 -0.924569504171789 32.918404664508444 0.0 -1.4679482459892361 33.00496408642097 0.0 -2.2281717935411027 32.9252258636207 0.0 -3.035707362626508 32.7701670138522 0.0 2.6870493100767e-07 32.79929697718947 0.0 -0.2114537695799193 32.851579340241 0.0 -0.389179811878608 32.976128347716205 0.0 -0.6113676443676449 33.14142807288666 0.0 -0.965867041746909 33.37839737123138 0.0 -1.379691669169736 33.43853681019992 0.0 -1.9261379265251257 33.381597352201 0.0 -2.51640531968077 33.15041990590528 0.0 2.8446137052074882e-06 33.1696027499555 0.0 -0.18870229995517251 33.22791220767012 0.0 -0.423866321781992 33.3247573841369 0.0 -0.69636783712123 33.4674904327622 0.0 -1.0010730235938081 33.5835293407852 0.0 -1.37539195932026 33.69059814642753 0.0 -1.736500606616545 33.70318015342271 0.0 -2.112719177115023 33.45792798757544 0.0 -6.3417985668936e-07 33.48157562899688 0.0 -0.19943034238264162 33.527619805250445 0.0 -0.436946029095482 33.61803942648092 0.0 -0.69893767097246 33.72892464620794 0.0 -0.9664301374823161 33.8332910754861 0.0 -1.2288356870658441 33.89780567113117 0.0 -1.506628595079006 33.89327637735008 0.0 -1.7250494816362978 33.66906921634296 0.0 -1.614414783568984e-06 33.68419773149892 0.0 -0.1905710502820902 33.73339893549791 0.0 -0.406551468637127 33.8090314517433 0.0 -0.6428234088467901 33.895700437280624 0.0 -0.854583784799338 33.983863931024935 0.0 -1.053011473719186 34.02345348170392 0.0 -1.222977362837828 34.02977801367508 0.0 -1.3606227630336118 33.73977899636129 0.0 -1.317611385037527e-06 33.75692548022755 0.0 -0.173936515536058 33.80359370551048 0.0 -0.3471445381724182 33.8569074485673 0.0 -0.55635839385534 33.934868129922236 0.0 -0.725129801984809 34.00099652946686 0.0 -0.8338548985972041 34.0714774819608 0.0 -0.941376508860368 34.16252596924844 0.0 -1.000326864547628 33.7129636666566 0.0 1.4242223073751799e-06 33.72684963327768 0.0 -0.1431336341526288 33.77034451729719 0.0 -0.2799695660341896 33.82784807312304 0.0 -0.417969163440342 33.8732039887782 0.0 -0.537483537423861 33.97732782056574 0.0 -0.6194771350977121 34.11212566580472 0.0 -0.653842300731888 34.489087672467484 0.0 -0.5693832254102069 33.64045940026974 0.0 9.44407316450084e-06 33.651517064752035 0.0 -0.0973044416405492 33.69999431606568 0.0 -0.1958294055150448 33.75983894021249 0.0 -0.2718082835684325 33.8492330137658 0.0 -0.35966769479752625 34.03589185905168 0.0 -0.4009560014466752 34.46408665181162 0.0 -0.29280748295736797 35.246000838630756 0.0 -0.1963334882089884 33.605788406598904 0.0 6.249799061947381e-06 33.63870776411968 0.0 -0.05624088594649699 33.689344093828495 0.0 -0.1076766507887378 33.825574495263034 0.0 -0.13051743163757162 34.03425410003416 0.0 -0.19484033963477998 34.52147363808332 0.0 -0.1212205615309666 35.4247106348141 0.0 -0.015475838431597078 36.9467047971255 0.0 0.1417902320990996 33.862471446034 0.0 5.385309320622e-06 33.90658485730568 0.0 -0.01119152285654305 34.045171575954 0.0 -0.022365256573814 34.320118512864354 0.0 -0.023244416814394202 34.86800497149981 0.0 0.01865089543171467 35.80435808960397 0.0 0.05791039282609261 37.458743454192124 0.0 0.19684932397837082 40.078331838251835 0.0 0.35530305132987344 34.834000554973684 0.0 3.8650241005663085e-06 34.91531914741428 0.0 0.0341605609112055 35.18591258279823 0.0 0.026863470838210234 35.77987988110593 0.0 0.052959760356913195 36.83333831728992 0.0 0.1138857578907534 38.52417605345028 0.0 0.1645039010639472 41.2037623284021 0.0 0.2506263063248427 45.04537777038 0.0 0.38057644704952076 37.11826833587766 0.0 -3.854064200966748e-06 37.28136902622696 0.0 0.0531594406676544 37.7579059468059 0.0 0.0398712261112854 38.786192694209696 0.0 0.069762126021246 40.549577271249 0.0 0.11839198213916101 43.1841035832729 0.0 0.13618986875783848 46.8704600797416 0.0 0.1996727350333056 51.9180148184544 0.0 0.4770352075512959 41.40861413136 0.0 1.4767195475347838e-06 41.6500560587675 0.0 0.012295150036535968 42.440458167178605 0.0 0.00476471579461253 43.91337623721 0.0 -0.020406886004606502 46.3369868234152 0.0 0.054961718127441404 49.90887013488501 0.0 0.23318802395311 54.490217022930004 0.0 0.43653417368955 60.119234800447195 0.0 0.91393162311264 48.07771224075 0.0 -1.886111166771708e-06 48.3913385262546 0.0 -0.03121953784360742 49.353747829571404 0.0 -0.08830559483679301 51.1081829527726 0.0 -0.1139703930156692 53.90298761606199 0.0 0.042556759895338 57.853086009238 0.0 0.37604104982493397 62.64050489958801 0.0 0.7446666661135241 56.259969670836796 0.0 -5.37802600246582e-06 56.586562855413604 0.0 -0.03565361152554341 57.596564571052994 0.0 -0.03588389326103953 59.37832478967089 0.0 0.02276184313762725 62.0093938886641 0.0 0.2062574537737739 -1.816100365402508 0.0 0.2242168496054211 -1.748795363719883 0.0 0.260134606503365 -1.661912561547813 0.0 0.2960550394013758 -1.554538758863468 0.0 0.3356382443909559 -1.425563075639076 0.0 0.3795209974880247 -1.275083191877079 0.0 0.42181761054544 -1.0958946673973662 0.0 0.45668773141719304 -2.167469094186726 0.0 0.2660686546517162 -2.089363932234097 0.0 0.30395656359891393 -1.989409689735241 0.0 0.34283419657085473 -1.869775446744385 0.0 0.38116656152916384 -1.729179443229485 0.0 0.42171669054291705 -1.5609443990236092 0.0 0.459553731488843 -1.339346353483658 0.0 0.490165732254143 -1.0273361456834031 0.0 0.585253174631329 -2.5620949440523724 0.0 0.27739897493497423 -2.471874301796856 0.0 0.30970786374269643 -2.358269578956738 0.0 0.3419360725484016 -2.226723535668087 0.0 0.37340946933523655 -2.0802322920058063 0.0 0.404468530111713 -1.9060989676524733 0.0 0.44120829103020703 -1.6721394018034839 0.0 0.48590205214755106 -1.315689112892227 0.0 0.5807453345186331 -2.9808807945220184 0.0 0.27293001082325014 -2.8770725919268134 0.0 0.30053921551348023 -2.749787588744688 0.0 0.32489374412234345 -2.606920305173006 0.0 0.3497057047426424 -2.4596977814924434 0.0 0.3713953092848825 -2.292473297311831 0.0 0.402240010056 -2.0608528515213203 0.0 0.442534651063366 -1.6646755616168882 0.0 0.551198973779974 -3.4482651662066273 0.0 0.26267221456680523 -3.3306672032666778 0.0 0.28495131112378264 -3.1888207197205163 0.0 0.3029524635738114 -3.0354389958859733 0.0 0.3188934399723358 -2.888231152205777 0.0 0.33157902428947544 -2.73037726825943 0.0 0.3542793368569832 -2.503149462578735 0.0 0.3901237577530937 -2.067502651687565 0.0 0.5192024529800611 -3.980388339509706 0.0 0.248751406218785 -3.8488572162214285 0.0 0.2661457586536438 -3.6922894523072345 0.0 0.27745755493643875 -3.5291203282280064 0.0 0.28326006708150153 -3.3812119245302963 0.0 0.2850400991260023 -3.232569600814238 0.0 0.29943924748598105 -3.012592755314817 0.0 0.3350296123757401 -2.5320320633007998 0.0 0.4983810524595261 -4.573744514343611 0.0 0.23482003787050082 -4.42850051071251 0.0 0.24660254216506342 -4.2578681064467 0.0 0.249329166233229 -4.08539730213493 0.0 0.2435961780899043 -3.9379059784476476 0.0 0.23561420989035511 -3.806166535154161 0.0 0.24048309801207732 -3.595550249888754 0.0 0.29034805925870133 -3.0649071566226773 0.0 0.513627652840691 -5.21586333039658 0.0 0.22589631764740783 -5.05718292642957 0.0 0.2302049697551241 -4.873071721826791 0.0 0.2239164655979115 -4.6931541173288505 0.0 0.20701733317543322 -4.54826891370672 0.0 0.19653912091347792 -4.440106911002671 0.0 0.1978042649451065 -4.25008970625224 0.0 0.27812653095316314 -3.67892769197319 0.0 0.585638454640961 -5.894602547365061 0.0 0.23077512176937792 -5.7230881430772005 0.0 0.22345555358638872 -5.52685573817139 0.0 0.2091309612282739 -5.33965093349127 0.0 0.19251833281295821 -5.20259853006496 0.0 0.180466084511652 -5.116921327923031 0.0 0.1926010168150253 -4.9755981243899505 0.0 0.2980964754524117 -4.4188441104711 0.0 0.667915376697884 -6.6014741650368505 0.0 0.255141766378544 -6.417455360436381 0.0 0.24282437007060909 -6.210730955268271 0.0 0.2265348496633711 -6.0230761505769 0.0 0.205165965129149 -5.895633347390831 0.0 0.1924106648102665 -5.8428437460710905 0.0 0.21477738136943442 -5.7936541448413506 0.0 0.30696717167417914 -5.4054641351366 0.0 0.590786774769669 -7.32807698320192 0.0 0.3136230798405768 -7.13221817830545 0.0 0.29750872343771795 -6.91867697296692 0.0 0.27821851495546274 -6.731736168293399 0.0 0.251734646293366 -6.620937365523431 0.0 0.2432628700815716 -6.64212976605324 0.0 0.2446312021157799 -6.74930896873272 0.0 0.2849060111226501 -6.72824856820621 0.0 0.3475235086880875 -8.069754201743851 0.0 0.41118405027960103 -7.858432196460801 0.0 0.3982341139558526 -7.64138579103464 0.0 0.3707354652683864 -7.4641717866042905 0.0 0.3444463806111593 -7.41026178525654 0.0 0.31570778789269455 -7.51971378799284 0.0 0.33101120827528 -7.820228195505701 0.0 0.41633149040828704 -8.081872602046811 0.0 0.531185933279648 -8.82600102065002 0.0 0.544784093619602 -8.59319261482981 0.0 0.563311294082782 -8.372161409304029 0.0 0.530160293254007 -8.20820620520515 0.0 0.527641133191028 -8.21110100527752 0.0 0.535211973380299 -8.4632282115807 0.0 0.6809196570229911 -8.928369423209231 0.0 1.137110148427753 -9.3877122346928 0.0 1.7150268828756712 -9.590493839762342 0.0 0.719034937975873 -9.33920703348017 0.0 0.7525609788140241 -9.1042682276067 0.0 0.7688986992224671 -8.96749302418732 0.0 0.8139627803490691 -9.04572542614313 0.0 0.9555195038879871 -9.46758983668974 0.0 1.263159991578999 -10.15595585389889 0.0 1.9103150077578739 -10.94018867350471 0.0 2.596364664909115 -10.36925745923143 0.0 0.9038592625964811 -10.08994705224867 0.0 0.9858281446457031 -9.84093864602346 0.0 1.054684666367116 -9.724619443115479 0.0 1.177133029428325 -9.9073922476848 0.0 1.391944234798605 -10.51977866299446 0.0 1.789061204726529 -11.51981828799545 0.0 2.405134260128355 -12.68752871718821 0.0 3.12332047808301 -11.15111347877783 0.0 1.106082747652068 -10.843947071098672 0.0 1.230409750760243 -10.57271746431793 0.0 1.3594520739863012 -10.47042346176058 0.0 1.521472118036802 -10.73695106842377 0.0 1.7732822843320561 -11.52832308820807 0.0 2.1852991746324784 -12.86985792174644 0.0 2.7303595082589864 -14.4825563620639 0.0 3.502849647571239 -11.93483309837082 0.0 1.303870312596757 -11.59314588982864 0.0 1.4647669166191721 -11.29623668240591 0.0 1.623034520575862 -11.19497307987432 0.0 1.811037485275936 -11.529808288245201 0.0 2.07243045181076 -12.47947791198694 0.0 2.486403702160091 -14.10331475258286 0.0 3.03103567577589 -16.137779603444482 0.0 3.8297688557442195 -12.71641591791039 0.0 1.471366996784174 -12.33919470847986 0.0 1.6579456814486413 -12.009062300226551 0.0 1.844965206124129 -11.90869389771734 0.0 2.026993610674839 -12.2950923073773 0.0 2.29767005744175 -13.3848483346212 0.0 2.723169948079247 -15.255034381375852 0.0 3.2903080822577 -17.6258564406464 0.0 4.13823330345583 -13.491272337281801 0.0 1.6025339600633481 -13.076577926914439 0.0 1.798809084970226 -12.71422391785559 0.0 1.9950642098766043 -12.60706751517668 0.0 2.1881189747029732 -13.045312726132812 0.0 2.463604221590104 -14.27211035680275 0.0 2.9071655926791378 -16.36409360910233 0.0 3.519517967987947 -19.018208875455212 0.0 4.41895411047385 -14.254556756363911 0.0 1.692740082318501 -13.79996234499905 0.0 1.89148924728723 -13.40471513511787 0.0 2.0924944523123603 -13.285141132128519 0.0 2.30303045757576 -13.78302474457561 0.0 2.584285784607143 -15.153235178830872 0.0 3.0401053160026312 -17.4683324367083 0.0 3.706103972652597 -20.405078510126952 0.0 4.64541451613536 -15.00220677505516 0.0 1.738798203469954 -14.50810116270252 0.0 1.9357405283935123 -14.078270351956752 0.0 2.141996813549919 -13.950702348767551 0.0 2.364475099111876 -14.504295562607382 0.0 2.659532626488314 -16.01821160045528 0.0 3.140015318500381 -18.57003086425076 0.0 3.835720535893011 -21.79439894485996 0.0 4.82301132057528 -15.733299593332479 0.0 1.738934163473353 -15.201279180031971 0.0 1.927080968177023 -14.73232316830807 0.0 2.139940893498521 -14.59699276492481 0.0 2.37509885937747 -15.20222678005566 0.0 2.6894158272353943 -16.86186882154671 0.0 3.19008127975203 -19.6594364914859 0.0 3.8993946974848654 -23.17671097941776 0.0 4.92720692318017 -16.44141601103539 0.0 1.695919442397985 -15.868698396717452 0.0 1.8747854868696363 -15.3623003840575 0.0 2.0829622920740563 -15.21716638042915 0.0 2.330528898263221 -15.8681323967033 0.0 2.6671280666782002 -17.67381164184528 0.0 3.1814335595358374 -20.717282517932052 0.0 3.8970967374274164 -24.537558613438954 0.0 4.94458132361453 -17.12775270650784 0.0 1.587281889467392 -16.50838569627618 0.0 1.764327179022834 -15.963165500430481 0.0 1.960684533833948 -15.80163670895406 0.0 2.220001174489308 -16.494285912059798 0.0 2.58098724720824 -18.44668863893608 0.0 3.098368540819632 -21.736040256955903 0.0 3.810552682674535 -25.8634857927121 0.0 4.8590293327914 -17.78979203819538 0.0 1.40764918309383 -17.11688344526148 0.0 1.588212317113149 -16.5294431597577 0.0 1.7647817880777121 -16.3531232004816 0.0 2.014209336530352 -17.0796442169658 0.0 2.4052963143244197 -19.177760399443592 0.0 2.923719217534872 -22.71395854329549 0.0 3.62074980627345 -27.15404620973271 0.0 4.65215608553928 -18.42905441366943 0.0 1.133451833311311 -17.700042895614 0.0 1.30648752991044 -17.063567835169682 0.0 1.473226145395092 -16.87178581945947 0.0 1.690838563341105 -17.636097008552397 0.0 2.09610667320768 -19.87266913923264 0.0 2.6346517107255063 -23.66205029882946 0.0 3.3096279662915706 -28.42928636115372 0.0 4.30541349920472 -19.040917710071287 0.0 0.764916050671825 -18.259030973847043 0.0 0.904987585552192 -17.56736275264627 0.0 1.058531866234776 -17.35657902391456 0.0 1.2423155670067523 -18.16875902016621 0.0 1.624377630059622 -20.543899850710883 0.0 2.194797799296464 -24.60282417275586 0.0 2.850382012770405 -29.7334342423855 0.0 3.80109741225104 -19.62055900706617 0.0 0.29066568192501796 -18.789877304724612 0.0 0.3694153869401226 -18.04926303744047 0.0 0.47899268082582397 -17.8143966823124 0.0 0.641798235638444 -18.681978265244318 0.0 0.977444295421584 -21.2067970551605 0.0 1.56298674559607 -25.55676421787408 0.0 2.218176011213194 -31.11341652428722 0.0 3.1336516751087977 -20.152250125821908 0.0 -0.2922169441099793 -19.2809067160114 0.0 -0.2979122549128555 -18.49420992356522 0.0 -0.2629994420159028 -18.2367052633035 0.0 -0.1348694577579852 -19.16420855709711 0.0 0.14158641438686678 -21.85614557746452 0.0 0.715245114671178 -26.5262767125013 0.0 1.390992381590196 -32.59068487686811 0.0 2.286206518731438 -20.604429148766997 0.0 -0.9905549184216319 -19.6898513158344 0.0 -1.09195234201889 -18.87188600646778 0.0 -1.172879517397588 -18.602314683773862 0.0 -1.122308972095394 -19.58512361620848 0.0 -0.900771140684096 -22.460079278202578 0.0 -0.36404379621243144 -27.47085640595648 0.0 0.3589184524807024 -34.10849126466946 0.0 1.236886776791147 -20.92050213102395 0.0 -1.7876975693617951 -19.98456576882434 0.0 -2.044931063736178 -19.11696063930874 0.0 -2.20689082749569 -18.8612946242552 0.0 -2.273624200340155 -19.91596682105043 0.0 -2.163580577421359 -22.99081771453869 0.0 -1.680442473119913 -28.347870763648924 0.0 -0.9061411506380641 -35.5341652939692 0.0 -0.0288428334190227 -21.10180154981479 0.0 -2.745274503898311 -20.136538907629202 0.0 -3.1327907462196243 -19.2420440605272 0.0 -3.40886550657345 -19.01279453219025 0.0 -3.58298701099635 -20.169974624948253 0.0 -3.5891710207977705 -23.47056843677353 0.0 -3.196437209086429 -29.11348721547024 0.0 -2.380456622198424 -36.81190405703118 0.0 -1.442596612533516 -21.168163175689422 0.0 -3.8806030782365473 -20.21891749705188 0.0 -4.4370462714981 -19.317431904563563 0.0 -4.8863052895636 -19.12314815171872 0.0 -5.20653912782368 -20.3714725647472 0.0 -5.24664523761136 -23.80963598470656 0.0 -4.9595664634147205 -29.835185239408318 0.0 -3.934530186730452 -37.8770997207806 0.0 -2.9905503710313632 -21.05744034351678 0.0 -5.18410130211792 -20.1121346162398 0.0 -5.9597976441648 -19.2944734623102 0.0 -6.6136731398275 -19.162994852435638 0.0 -7.112333111243119 -20.57856166236464 0.0 -7.24064884152058 -24.1317288847646 0.0 -6.7741528585016 -30.141788990008404 0.0 -5.7007508072214 -38.144603533125 0.0 -4.635210036327121 -20.943673044168538 0.0 -7.007392814379879 -19.9939071565129 0.0 -7.9464837655528004 -19.197009297501648 0.0 -8.73088171812989 -19.01998950585376 0.0 -9.30524790740048 -20.2972320941913 0.0 -9.368034032791801 -23.795178345862567 0.0 -8.88082967167476 -29.443695967409358 0.0 -7.6288328912432 -35.3451981738648 0.0 -6.66144531223216 -20.442179129649947 0.0 -8.91147465932675 -19.2705085055601 0.0 -9.789623907826051 -18.16239651483782 0.0 -10.5260730211665 -17.88877197877485 0.0 -11.440506554110348 -19.010558999172 0.0 -11.8012495434288 -21.30650851043091 0.0 -11.29396334564927 -23.29298441981555 0.0 -9.99900352385572 -23.754529957999498 0.0 -8.742297257558219 -15.720862689989012 0.0 -10.20418068910026 -14.111011780019599 0.0 -12.63433272033894 -12.890317595179999 0.0 -14.556391649167997 -12.04924693502655 0.0 -15.079873364562511 -11.66890586286439 0.0 -14.888845197158709 -11.65045935091368 0.0 -14.28253020094824 -11.874148169296081 0.0 -12.646237130304542 -12.30360893475469 0.0 -11.10062041532754 -8.23864735951668 0.0 -12.95796887605146 -7.07094858388025 0.0 -15.27877710942063 -6.09045845419088 0.0 -17.487853389504963 -5.5078868779353 0.0 -17.6735648489463 -5.30662524508728 0.0 -17.48874844325928 -5.42397445035156 0.0 -16.68106427624634 -5.881075464294559 0.0 -14.21350466926376 -6.553858735682151 0.0 -12.72584497145073 -4.91574926600879 0.0 -15.56553556628785 -4.22639376933216 0.0 -17.05634413935972 -3.6981637466098807 0.0 -19.34509409824794 -3.412207979703933 0.0 -20.193731741086648 -3.4300630544255406 0.0 -20.059807998654453 -3.774170629478874 0.0 -18.70314225153585 -4.39968328812726 0.0 -14.90658151832346 -5.16145671092948 0.0 -14.40708666674514 -3.8609445690259196 0.0 -17.224952270004 -3.5838579344522463 0.0 -18.8824433953287 -3.4042979150823363 0.0 -20.38639250581179 -3.3705805274533622 0.0 -22.03551965035134 -3.5303380738591676 0.0 -22.2248182580424 -3.904709003856444 0.0 -20.17298862483778 -4.456521412197049 0.0 -15.348984810699049 -5.08850933936557 0.0 -15.91009645956591 -2.9047978785003488 0.0 -17.7139293838845 -2.872103141891607 0.0 -19.476887286298652 -2.8601183059353366 0.0 -21.046003706449174 -2.887516849514976 0.0 -22.51977174689232 -2.98070971715322 0.0 -23.135284315478277 -3.15522058162868 0.0 -21.129285745609497 -3.40771013640925 0.0 -15.975803931797499 -3.713143146406857 0.0 -16.81104689306514 -0.8497438469909739 0.0 -17.20248147374406 -0.84909894108399 0.0 -18.9960705857496 -0.7802742399046559 0.0 -20.60433844172235 -0.650700524796063 0.0 -22.31335004101616 -0.478982823970988 0.0 -23.08065568615112 -0.2879932947025059 0.0 -21.67267181894506 -0.1135342719081756 0.0 -16.3313006745357 0.01219476289278339 0.0 -17.14095408258018 2.3390126411541603 0.0 -16.017441396894082 2.468965414453064 0.0 -17.81166508291904 2.7571776887730404 0.0 -19.46950916136504 3.189812507987436 0.0 -21.968819523780837 3.7288216267612797 0.0 -22.49145600399936 4.32910675390616 0.0 -21.29277455475204 4.931703733653079 0.0 -16.36760648673936 5.475289978172 0.0 -16.89549363219956 6.07388664046175 0.0 -14.503611967018902 6.38983987124035 0.0 -16.2803151545538 6.94239119425104 0.0 -18.57722967716868 7.6977505201376 0.0 -21.06639377756318 8.581970677920081 0.0 -21.217992492864717 9.52175379178981 0.0 -20.09412557794391 10.451263862547039 0.0 -15.752858241822521 11.307155877333479 0.0 -15.98463858562687 9.88141205670444 0.0 -12.9263395612713 10.33451836077276 0.0 -14.712406650321242 11.062129501065211 0.0 -17.52515225054675 12.031296885953399 0.0 -19.4080974601074 13.18889433308227 0.0 -19.52102737996745 14.335930005105938 0.0 -18.43258120348062 15.447291534701519 0.0 -14.58497926285998 16.476488778501842 0.0 -14.55029057944572 13.73859894866242 0.0 -11.44056994104143 14.20715786805351 0.0 -13.20937788556287 14.913642696131822 0.0 -16.17222747976407 15.867476435787118 0.0 -17.572799998042377 17.1528944694989 0.0 -17.34595792859559 18.48915918309184 0.0 -16.412232503349017 19.7107878672902 0.0 -13.126655236552802 20.733919504642802 0.0 -12.91985510375205 17.91105335664869 0.0 -10.11426252862668 18.24788864430526 0.0 -11.716372318950679 18.68625748775872 0.0 -14.607417182838 19.3695074586252 0.0 -15.61785524138984 20.39866387439896 0.0 -15.577731243995117 21.93617096383176 0.0 -14.437881912017609 23.55792611412743 0.0 -11.36790771507135 24.47942977633332 0.0 -11.08587021218708 22.556196674512442 0.0 -8.96547130020392 22.6638686946394 0.0 -10.255063675751 22.80157411978735 0.0 -12.79751563726295 22.99119936982935 0.0 -13.67099441569752 23.74249484385135 0.0 -13.422416348830861 25.0488313631801 0.0 -12.20540953122958 27.031117409388923 0.0 -9.62854616782966 28.375182661302457 0.0 -8.78710452566926 27.343334373269194 0.0 -7.928397366820479 27.186161230788557 0.0 -8.969245371916829 27.076855544999997 0.0 -10.73713604960728 26.92689917982477 0.0 -11.84488719444955 27.239045603279298 0.0 -11.280150055484938 28.2737582326491 0.0 -9.88110387659175 30.803715504450487 0.0 -8.09855601985897 32.864106511313366 0.0 -6.36291987002997 30.339665928225003 0.0 -6.408779387099999 30.07861965981835 0.0 -7.2276612786872 29.946625479060224 0.0 -8.163223018608981 29.94767752779998 0.0 -9.5170028770526 30.70375739800677 0.0 -9.141312178607839 31.948292329053103 0.0 -7.67891501108215 35.0990556399005 0.0 -6.2346128537920995 37.84488326973556 0.0 -4.265915927534659 31.938564004934786 0.0 -4.850648716357919 31.737086573696278 0.0 -5.42878795564812 31.820168795324943 0.0 -5.96857347147888 31.920350227928374 0.0 -7.08452678319633 33.4707308086437 0.0 -6.9362255403040205 36.1127415061452 0.0 -5.74283318474112 39.77333575377939 0.0 -4.24536193365814 43.357185302688 0.0 -2.245710837368025 32.79068205727312 0.0 -3.744989095659824 32.72936201392886 0.0 -4.26601043749692 32.8709199185017 0.0 -4.49343977541844 33.6196051664508 0.0 -4.914217575882001 35.8445556634308 0.0 -4.811528834626801 40.15025338100104 0.0 -3.930634306703173 44.736859138461 0.0 -2.1847844851325102 49.596797524396095 0.0 -0.3048974088131829 33.30114458250086 0.0 -3.005190299380857 33.20156967139285 0.0 -3.3445970154317304 33.51740283330296 0.0 -3.437616183003756 34.7830112539574 0.0 -3.403626443633528 37.809794278039334 0.0 -3.067731023675539 43.549134684275 0.0 -2.33396925881493 50.219527205815 0.0 -0.68442738350448 56.6249950708572 0.0 1.587035087342952 33.6379308485376 0.0 -2.3761063185338878 33.65576835644088 0.0 -2.52305969649123 34.13021073596208 0.0 -2.530771589305944 35.79013276531731 0.0 -2.3265075973125513 39.691630245257684 0.0 -1.9136638919257012 46.372956667058396 0.0 -1.089166160069216 55.647173329099004 0.0 0.055949584318322004 64.98122137255599 0.0 2.3976226476784204 33.90203624097061 0.0 -1.9162146245028038 34.1186653554656 0.0 -1.85980834359112 34.96167674904566 0.0 -1.720084928097638 37.260185912176325 0.0 -1.462751207752145 42.0503935346934 0.0 -0.850127508188697 49.778982880876804 0.0 0.0497145363877656 60.530655206150094 0.0 1.239440522586567 71.9962508546208 0.0 3.02747100942123 34.13314188816 0.0 -1.4290919551896 34.711404230849176 0.0 -1.2975466245570222 36.2007234416703 0.0 -1.006854986800638 39.41886895717056 0.0 -0.627668666222592 45.1625871295854 0.0 0.0627451205086698 54.0718497489198 0.0 1.145074820343134 66.06900680335839 0.0 2.443704561336096 34.567804991244856 0.0 -0.9175223708456641 35.69442666305962 0.0 -0.68141396559284 38.061334317248644 0.0 -0.31293892227047043 42.3797445721476 0.0 0.13527666839540248 49.338282804711596 0.0 0.959723730323379 59.398489471339204 0.0 2.184983530805673 71.9789151380244 0.0 3.519469163256486 35.336385977328156 0.0 -0.433788992879187 37.30473920682565 0.0 -0.086047852610667 40.747333857441205 0.0 0.2402665850570747 46.2549123267526 0.0 0.7237488245483089 54.702691503537004 0.0 1.7723090459303399 65.8757877762684 0.0 3.026661862728216 36.908158670791245 0.0 0.0480291054931 39.90672464120512 0.0 0.35797051376526723 44.5559159949184 0.0 0.61985832238464 51.528975918784 0.0 1.284848303658052 61.362837599768696 0.0 2.4595342775602647 72.8642437331696 0.0 3.79841093069464 39.616321698991676 0.0 0.3769702347688568 43.7948719867538 0.0 0.6010833979836311 49.8581590796776 0.0 0.9073915270985119 58.28636596566489 0.0 1.8270875309841859 68.9065667326148 0.0 3.136697396400162 43.948144263080195 0.0 0.455551181930988 49.4011519097961 0.0 0.713098703304079 56.868498185890104 0.0 1.377029655977067 66.12172088966531 0.0 2.424273724280321 50.097736986897594 0.0 0.498658802322009 56.8929543118755 0.0 1.053189736094979 65.1030786118725 0.0 1.9560233771855429 73.8554615019963 0.0 3.379986023980545 58.058430083328 0.0 0.908098567207584 65.3186458358226 0.0 1.796042023972974 66.36596469901001 0.0 1.54730950129955 
TENSORS Ellispoids float
0.01 0.0 0.0 0.0 0.01 0.0 0.0 0.0 0.01 0.01 0.0 0.0 0.0 0.01 0.0 0.0 0.0 0.01 0.01 0.0 0.0 0.0 0.01 0.0 0.0 0.0 0.01 0.01 0.0 0.0 0.0 0.01 0.0 0.0 0.0 0.01 0.01 0.0 0.0 0.0 0.01 0.0 0.0 0.0 0.01 0.01 0.0 0.0 0.0 0.01 0.0 0.0 0.0 0.01 0.01 0.0 0.0 0.0 0.01 0.0 0.0 0.0 0.01 0.01 0.0 0.0 0.0 0.01 0.0 0.0 0.0 0.01 0.01 0.0 0.0 0.0 0.01 0.0 0.0 0.0 0.01 0.01 0.0 0.0 0.0 0.01 0.0 0.0 0.0 0.01 0.01 0.0 0.0 0.0 0.01 0.0 0.0 0.0 0.01 0.01 0.0 0.0 0.0 0.01 0.0 0.0 0.0 0.01 0.01 0.0 0.0 0.0 0.01 0.0 0.0 0.0 0.01 0.01 0.0 0.0 0.0 0.01 0.0 0.0 0.0 0.01 0.01 0.0 0.0 0.0 0.01 0.0 0.0 0.0 0.01 0.01 0.0 0.0 0.0 0.01 0.0 0.0 0.0 0.01 0.01 0.0 0.0 0.0 0.01 0.0 0.0 0.0 0.01 0.01 0.0 0.0 0.0 0.01 0.0 0.0 0.0 0.01 0.01 0.0 0.0 0.0 0.01 0.0 0.0 0.0 0.01 0.01 0.0 0.0 0.0 0.01 0.0 0.0 0.0 0.01 0.01 0.0 0.0 0.0 0.01 0.0 0.0 0.0 0.01 0.01 0.0 0.0 0.0 0.01 0.0 0.0 0.0 0.01 0.01 0.0 0.0 0.0 0.01 0.0 0.0 0.0 0.01 0.01 0.0 0.0 0.0 0.01 0.0 0.0 0.0 0.01 0.01 0.0 0.0 0.0 0.01 0.0 0.0 0.0 0.01 0.01 0.0 0.0 0.0 0.01 0.0 0.0 0.0 0.01 0.01 0.0 0.0 0.0 0.01 0.0 0.0 0.0 0.01 0.01 0.0 0.0 0.0 0.01 0.0 0.0 0.0 0.01 0.01 0.0 0.0 0.0 0.01 0.0 0.0 0.0 0.01 0.01 0.0 0.0 0.0 0.01 0.0 0.0 0.0 0.01 0.01 0.0 0.0 0.0 0.01 0.0 0.0 0.0 0.01 0.01 0.0 0.0 0.0 0.01 0.0 0.0 0.0 0.01 0.01 0.0 0.0 0.0 0.01 0.0 0.0 0.0 0.01 0.01 0.0 0.0 0.0 0.01 0.0 0.0 0.0 0.01 0.01 0.0 0.0 0.0 0.01 0.0 0.0 0.0 0.01 0.01 0.0 0.0 0.0 0.01 0.0 0.0 0.0 0.01 0.01 0.0 0.0 0.0 0.01 0.0 0.0 0.0 0.01 0.01 0.0 0.0 0.0 0.01 0.0 0.0 0.0 0.01 0.01 0.0 0.0 0.0 0.01 0.0 0.0 0.0 0.01 0.01 0.0 0.0 0.0 0.01 0.0 0.0 0.0 0.01 0.01 0.0 0.0 0.0 0.01 0.0 0.0 0.0 0.01 0.01 0.0 0.0 0.0 0.01 0.0 0.0 0.0 0.01 0.01 0.0 0.0 0.0 0.01 0.0 0.0 0.0 0.01 0.01 0.0 0.0 0.0 0.01 0.0 0.0 0.0 0.01 0.01 0.0 0.0 0.0 0.01 0.0 0.0 0.0 0.01 0.01 0.0 0.0 0.0 0.01 0.0 0.0 0.0 0.01 0.01 0.0 0.0 0.0 0.01 0.0 0.0 0.0 0.01 0.01 0.0 0.0 0.0 0.01 0.0 0.0 0.0 0.01 0.01 0.0 0.0 0.0 0.01 0.0 0.0 0.0 0.01 0.01 0.0 0.0 0.0 0.01 0.0 0.0 0.0 0.01 0.01 0.0 0.0 0.0 0.01 0.0 0.0 0.0 0.01 0.01 0.0 0.0 0.0 0.01 0.0 0.0 0.0 0.01 0.01 0.0 0.0 0.0 0.01 0.0 0.0 0.0 0.01 0.01 0.0 0.0 0.0 0.01 0.0 0.0 0.0 0.01 0.01 0.0 0.0 0.0 0.01 0.0 0.0 0.0 0.01 0.01 0.0 0.0 0.0 0.01 0.0 0.0 0.0 0.01 0.01 0.0 0.0 0.0 0.01 0.0 0.0 0.0 0.01 0.01 0.0 0.0 0.0 0.01 0.0 0.0 0.0 0.01 0.01 0.0 0.0 0.0 0.01 0.0 0.0 0.0 0.01 0.01 0.0 0.0 0.0 0.01 0.0 0.0 0.0 0.01 0.01 0.0 0.0 0.0 0.01 0.0 0.0 0.0 0.01 0.01 0.0 0.0 0.0 0.01 0.0 0.0 0.0 0.01 0.01 0.0 0.0 0.0 0.01 0.0 0.0 0.0 0.01 0.01 0.0 0.0 0.0 0.01 0.0 0.0 0.0 0.01 0.01 0.0 0.0 0.0 0.01 0.0 0.0 0.0 0.01 0.01 0.0 0.0 0.0 0.01 0.0 0.0 0.0 0.01 0.01 0.0 0.0 0.0 0.01 0.0 0.0 0.0 0.01 0.01 0.0 0.0 0.0 0.01 0.0 0.0 0.0 0.01 0.01 0.0 0.0 0.0 0.01 0.0 0.0 0.0 0.01 0.01 0.0 0.0 0.0 0.01 0.0 0.0 0.0 0.01 0.01 0.0 0.0 0.0 0.01 0.0 0.0 0.0 0.01 0.01 0.0 0.0 0.0 0.01 0.0 0.0 0.0 0.01 0.01 0.0 0.0 0.0 0.01 0.0 0.0 0.0 0.01 0.01 0.0 0.0 0.0 0.01 0.0 0.0 0.0 0.01 0.01 0.0 0.0 0.0 0.01 0.0 0.0 0.0 0.01 0.01 0.0 0.0 0.0 0.01 0.0 0.0 0.0 0.01 0.01 0.0 0.0 0.0 0.01 0.0 0.0 0.0 0.01 0.01 0.0 0.0 0.0 0.01 0.0 0.0 0.0 0.01 0.01 0.0 0.0 0.0 0.01 0.0 0.0 0.0 0.01 0.01 0.0 0.0 0.0 0.01 0.0 0.0 0.0 0.01 0.01 0.0 0.0 0.0 0.01 0.0 0.0 0.0 0.01 0.01 0.0 0.0 0.0 0.01 0.0 0.0 0.0 0.01 0.01 0.0 0.0 0.0 0.01 0.0 0.0 0.0 0.01 0.01 0.0 0.0 0.0 0.01 0.0 0.0 0.0 0.01 0.01 0.0 0.0 0.0 0.01 0.0 0.0 0.0 0.01 0.01 0.0 0.0 0.0 0.01 0.0 0.0 0.0 0.01 0.01 0.0 0.0 0.0 0.01 0.0 0.0 0.0 0.01 0.01 0.0 0.0 0.0 0.01 0.0 0.0 0.0 0.01 0.01 0.0 0.0 0.0 0.01 0.0 0.0 0.0 0.01 0.01 0.0 0.0 0.0 0.01 0.0 0.0 0.0 0.01 0.01 0.0 0.0 0.0 0.01 0.0 0.0 0.0 0.01 0.01 0.0 0.0 0.0 0.01 0.0 0.0 0.0 0.01 0.01 0.0 0.0 0.0 0.01 0.0 0.0 0.0 0.01 0.01 0.0 0.0 0.0 0.01 0.0 0.0 0.0 0.01 0.01 0.0 0.0 0.0 0.01 0.0 0.0 0.0 0.01 0.01 0.0 0.0 0.0 0.01 0.0 0.0 0.0 0.01 0.01 0.0 0.0 0.0 0.01 0.0 0.0 0.0 0.01 0.01 0.0 0.0 0.0 0.01 0.0 0.0 0.0 0.01 0.01 0.0 0.0 0.0 0.01 0.0 0.0 0.0 0.01 0.01 0.0 0.0 0.0 0.01 0.0 0.0 0.0 0.01 0.01 0.0 0.0 0.0 0.01 0.0 0.0 0.0 0.01 0.01 0.0 0.0 0.0 0.01 0.0 0.0 0.0 0.01 0.01 0.0 0.0 0.0 0.01 0.0 0.0 0.0 0.01 0.01 0.0 0.0 0.0 0.01 0.0 0.0 0.0 0.01 0.01 0.0 0.0 0.0 0.01 0.0 0.0 0.0 0.01 0.01 0.0 0.0 0.0 0.01 0.0 0.0 0.0 0.01 0.01 0.0 0.0 0.0 0.01 0.0 0.0 0.0 0.01 0.01 0.0 0.0 0.0 0.01 0.0 0.0 0.0 0.01 0.01 0.0 0.0 0.0 0.01 0.0 0.0 0.0 0.01 0.01 0.0 0.0 0.0 0.01 0.0 0.0 0.0 0.01 0.01 0.0 0.0 0.0 0.01 0.0 0.0 0.0 0.01 0.01 0.0 0.0 0.0 0.01 0.0 0.0 0.0 0.01 0.01 0.0 0.0 0.0 0.01 0.0 0.0 0.0 0.01 0.01 0.0 0.0 0.0 0.01 0.0 0.0 0.0 0.01 0.01 0.0 0.0 0.0 0.01 0.0 0.0 0.0 0.01 0.01 0.0 0.0 0.0 0.01 0.0 0.0 0.0 0.01 0.01 0.0 0.0 0.0 0.01 0.0 0.0 0.0 0.01 0.01 0.0 0.0 0.0 0.01 0.0 0.0 0.0 0.01 0.01 0.0 0.0 0.0 0.01 0.0 0.0 0.0 0.01 0.01 0.0 0.0 0.0 0.01 0.0 0.0 0.0 0.01 0.01 0.0 0.0 0.0 0.01 0.0 0.0 0.0 0.01 0.01 0.0 0.0 0.0 0.01 0.0 0.0 0.0 0.01 0.01 0.0 0.0 0.0 0.01 0.0 0.0 0.0 0.01 0.01 0.0 0.0 0.0 0.01 0.0 0.0 0.0 0.01 0.01 0.0 0.0 0.0 0.01 0.0 0.0 0.0 0.01 0.01 0.0 0.0 0.0 0.01 0.0 0.0 0.0 0.01 0.01 0.0 0.0 0.0 0.01 0.0 0.0 0.0 0.01 0.01 0.0 0.0 0.0 0.01 0.0 0.0 0.0 0.01 0.01 0.0 0.0 0.0 0.01 0.0 0.0 0.0 0.01 0.01 0.0 0.0 0.0 0.01 0.0 0.0 0.0 0.01 0.01 0.0 0.0 0.0 0.01 0.0 0.0 0.0 0.01 0.01 0.0 0.0 0.0 0.01 0.0 0.0 0.0 0.01 0.01 0.0 0.0 0.0 0.01 0.0 0.0 0.0 0.01 0.01 0.0 0.0 0.0 0.01 0.0 0.0 0.0 0.01 0.01 0.0 0.0 0.0 0.01 0.0 0.0 0.0 0.01 0.01 0.0 0.0 0.0 0.01 0.0 0.0 0.0 0.01 0.01 0.0 0.0 0.0 0.01 0.0 0.0 0.0 0.01 0.01 0.0 0.0 0.0 0.01 0.0 0.0 0.0 0.01 0.01 0.0 0.0 0.0 0.01 0.0 0.0 0.0 0.01 0.01 0.0 0.0 0.0 0.01 0.0 0.0 0.0 0.01 0.01 0.0 0.0 0.0 0.01 0.0 0.0 0.0 0.01 0.01 0.0 0.0 0.0 0.01 0.0 0.0 0.0 0.01 0.01 0.0 0.0 0.0 0.01 0.0 0.0 0.0 0.01 0.01 0.0 0.0 0.0 0.01 0.0 0.0 0.0 0.01 0.01 0.0 0.0 0.0 0.01 0.0 0.0 0.0 0.01 0.01 0.0 0.0 0.0 0.01 0.0 0.0 0.0 0.01 0.01 0.0 0.0 0.0 0.01 0.0 0.0 0.0 0.01 0.01 0.0 0.0 0.0 0.01 0.0 0.0 0.0 0.01 0.01 0.0 0.0 0.0 0.01 0.0 0.0 0.0 0.01 0.01 0.0 0.0 0.0 0.01 0.0 0.0 0.0 0.01 0.01 0.0 0.0 0.0 0.01 0.0 0.0 0.0 0.01 0.01 0.0 0.0 0.0 0.01 0.0 0.0 0.0 0.01 0.01 0.0 0.0 0.0 0.01 0.0 0.0 0.0 0.01 0.01 0.0 0.0 0.0 0.01 0.0 0.0 0.0 0.01 0.01 0.0 0.0 0.0 0.01 0.0 0.0 0.0 0.01 0.01 0.0 0.0 0.0 0.01 0.0 0.0 0.0 0.01 0.01 0.0 0.0 0.0 0.01 0.0 0.0 0.0 0.01 0.01 0.0 0.0 0.0 0.01 0.0 0.0 0.0 0.01 0.01 0.0 0.0 0.0 0.01 0.0 0.0 0.0 0.01 0.01 0.0 0.0 0.0 0.01 0.0 0.0 0.0 0.01 0.01 0.0 0.0 0.0 0.01 0.0 0.0 0.0 0.01 0.01 0.0 0.0 0.0 0.01 0.0 0.0 0.0 0.01 0.01 0.0 0.0 0.0 0.01 0.0 0.0 0.0 0.01 0.01 0.0 0.0 0.0 0.01 0.0 0.0 0.0 0.01 0.01 0.0 0.0 0.0 0.01 0.0 0.0 0.0 0.01 0.01 0.0 0.0 0.0 0.01 0.0 0.0 0.0 0.01 0.01 0.0 0.0 0.0 0.01 0.0 0.0 0.0 0.01 0.01 0.0 0.0 0.0 0.01 0.0 0.0 0.0 0.01 0.01 0.0 0.0 0.0 0.01 0.0 0.0 0.0 0.01 0.01 0.0 0.0 0.0 0.01 0.0 0.0 0.0 0.01 0.01 0.0 0.0 0.0 0.01 0.0 0.0 0.0 0.01 0.01 0.0 0.0 0.0 0.01 0.0 0.0 0.0 0.01 0.01 0.0 0.0 0.0 0.01 0.0 0.0 0.0 0.01 0.01 0.0 0.0 0.0 0.01 0.0 0.0 0.0 0.01 0.01 0.0 0.0 0.0 0.01 0.0 0.0 0.0 0.01 0.01 0.0 0.0 0.0 0.01 0.0 0.0 0.0 0.01 0.01 0.0 0.0 0.0 0.01 0.0 0.0 0.0 0.01 0.01 0.0 0.0 0.0 0.01 0.0 0.0 0.0 0.01 0.01 0.0 0.0 0.0 0.01 0.0 0.0 0.0 0.01 0.01 0.0 0.0 0.0 0.01 0.0 0.0 0.0 0.01 0.01 0.0 0.0 0.0 0.01 0.0 0.0 0.0 0.01 0.01 0.0 0.0 0.0 0.01 0.0 0.0 0.0 0.01 0.01 0.0 0.0 0.0 0.01 0.0 0.0 0.0 0.01 0.01 0.0 0.0 0.0 0.01 0.0 0.0 0.0 0.01 0.01 0.0 0.0 0.0 0.01 0.0 0.0 0.0 0.01 0.01 0.0 0.0 0.0 0.01 0.0 0.0 0.0 0.01 0.01 0.0 0.0 0.0 0.01 0.0 0.0 0.0 0.01 0.01 0.0 0.0 0.0 0.01 0.0 0.0 0.0 0.01 0.01 0.0 0.0 0.0 0.01 0.0 0.0 0.0 0.01 0.01 0.0 0.0 0.0 0.01 0.0 0.0 0.0 0.01 0.01 0.0 0.0 0.0 0.01 0.0 0.0 0.0 0.01 0.01 0.0 0.0 0.0 0.01 0.0 0.0 0.0 0.01 0.01 0.0 0.0 0.0 0.01 0.0 0.0 0.0 0.01 0.01 0.0 0.0 0.0 0.01 0.0 0.0 0.0 0.01 0.01 0.0 0.0 0.0 0.01 0.0 0.0 0.0 0.01 0.01 0.0 0.0 0.0 0.01 0.0 0.0 0.0 0.01 0.01 0.0 0.0 0.0 0.01 0.0 0.0 0.0 0.01 0.01 0.0 0.0 0.0 0.01 0.0 0.0 0.0 0.01 0.01 0.0 0.0 0.0 0.01 0.0 0.0 0.0 0.01 0.01 0.0 0.0 0.0 0.01 0.0 0.0 0.0 0.01 0.01 0.0 0.0 0.0 0.01 0.0 0.0 0.0 0.01 0.01 0.0 0.0 0.0 0.01 0.0 0.0 0.0 0.01 0.01 0.0 0.0 0.0 0.01 0.0 0.0 0.0 0.01 0.01 0.0 0.0 0.0 0.01 0.0 0.0 0.0 0.01 0.01 0.0 0.0 0.0 0.01 0.0 0.0 0.0 0.01 0.01 0.0 0.0 0.0 0.01 0.0 0.0 0.0 0.01 0.01 0.0 0.0 0.0 0.01 0.0 0.0 0.0 0.01 0.01 0.0 0.0 0.0 0.01 0.0 0.0 0.0 0.01 0.01 0.0 0.0 0.0 0.01 0.0 0.0 0.0 0.01 0.01 0.0 0.0 0.0 0.01 0.0 0.0 0.0 0.01 0.01 0.0 0.0 0.0 0.01 0.0 0.0 0.0 0.01 0.01 0.0 0.0 0.0 0.01 0.0 0.0 0.0 0.01 0.01 0.0 0.0 0.0 0.01 0.0 0.0 0.0 0.01 0.01 0.0 0.0 0.0 0.01 0.0 0.0 0.0 0.01 0.01 0.0 0.0 0.0 0.01 0.0 0.0 0.0 0.01 0.01 0.0 0.0 0.0 0.01 0.0 0.0 0.0 0.01 0.01 0.0 0.0 0.0 0.01 0.0 0.0 0.0 0.01 0.01 0.0 0.0 0.0 0.01 0.0 0.0 0.0 0.01 0.01 0.0 0.0 0.0 0.01 0.0 0.0 0.0 0.01 0.01 0.0 0.0 0.0 0.01 0.0 0.0 0.0 0.01 0.01 0.0 0.0 0.0 0.01 0.0 0.0 0.0 0.01 0.01 0.0 0.0 0.0 0.01 0.0 0.0 0.0 0.01 0.01 0.0 0.0 0.0 0.01 0.0 0.0 0.0 0.01 0.01 0.0 0.0 0.0 0.01 0.0 0.0 0.0 0.01 0.01 0.0 0.0 0.0 0.01 0.0 0.0 0.0 0.01 0.01 0.0 0.0 0.0 0.01 0.0 0.0 0.0 0.01 0.01 0.0 0.0 0.0 0.01 0.0 0.0 0.0 0.01 0.01 0.0 0.0 0.0 0.01 0.0 0.0 0.0 0.01 0.01 0.0 0.0 0.0 0.01 0.0 0.0 0.0 0.01 0.01 0.0 0.0 0.0 0.01 0.0 0.0 0.0 0.01 0.01 0.0 0.0 0.0 0.01 0.0 0.0 0.0 0.01 0.01 0.0 0.0 0.0 0.01 0.0 0.0 0.0 0.01 0.01 0.0 0.0 0.0 0.01 0.0 0.0 0.0 0.01 0.01 0.0 0.0 0.0 0.01 0.0 0.0 0.0 0.01 0.01 0.0 0.0 0.0 0.01 0.0 0.0 0.0 0.01 0.01 0.0 0.0 0.0 0.01 0.0 0.0 0.0 0.01 0.01 0.0 0.0 0.0 0.01 0.0 0.0 0.0 0.01 0.01 0.0 0.0 0.0 0.01 0.0 0.0 0.0 0.01 0.01 0.0 0.0 0.0 0.01 0.0 0.0 0.0 0.01 0.01 0.0 0.0 0.0 0.01 0.0 0.0 0.0 0.01 0.01 0.0 0.0 0.0 0.01 0.0 0.0 0.0 0.01 0.01 0.0 0.0 0.0 0.01 0.0 0.0 0.0 0.01 0.01 0.0 0.0 0.0 0.01 0.0 0.0 0.0 0.01 0.01 0.0 0.0 0.0 0.01 0.0 0.0 0.0 0.01 0.01 0.0 0.0 0.0 0.01 0.0 0.0 0.0 0.01 0.01 0.0 0.0 0.0 0.01 0.0 0.0 0.0 0.01 0.01 0.0 0.0 0.0 0.01 0.0 0.0 0.0 0.01 0.01 0.0 0.0 0.0 0.01 0.0 0.0 0.0 0.01 0.01 0.0 0.0 0.0 0.01 0.0 0.0 0.0 0.01 0.01 0.0 0.0 0.0 0.01 0.0 0.0 0.0 0.01 0.01 0.0 0.0 0.0 0.01 0.0 0.0 0.0 0.01 0.01 0.0 0.0 0.0 0.01 0.0 0.0 0.0 0.01 0.01 0.0 0.0 0.0 0.01 0.0 0.0 0.0 0.01 0.01 0.0 0.0 0.0 0.01 0.0 0.0 0.0 0.01 0.01 0.0 0.0 0.0 0.01 0.0 0.0 0.0 0.01 0.01 0.0 0.0 0.0 0.01 0.0 0.0 0.0 0.01 0.01 0.0 0.0 0.0 0.01 0.0 0.0 0.0 0.01 0.01 0.0 0.0 0.0 0.01 0.0 0.0 0.0 0.01 0.01 0.0 0.0 0.0 0.01 0.0 0.0 0.0 0.01 0.01 0.0 0.0 0.0 0.01 0.0 0.0 0.0 0.01 0.01 0.0 0.0 0.0 0.01 0.0 0.0 0.0 0.01 0.01 0.0 0.0 0.0 0.01 0.0 0.0 0.0 0.01 0.01 0.0 0.0 0.0 0.01 0.0 0.0 0.0 0.01 0.01 0.0 0.0 0.0 0.01 0.0 0.0 0.0 0.01 0.01 0.0 0.0 0.0 0.01 0.0 0.0 0.0 0.01 0.01 0.0 0.0 0.0 0.01 0.0 0.0 0.0 0.01 0.01 0.0 0.0 0.0 0.01 0.0 0.0 0.0 0.01 0.01 0.0 0.0 0.0 0.01 0.0 0.0 0.0 0.01 0.01 0.0 0.0 0.0 0.01 0.0 0.0 0.0 0.01 0.01 0.0 0.0 0.0 0.01 0.0 0.0 0.0 0.01 0.01 0.0 0.0 0.0 0.01 0.0 0.0 0.0 0.01 0.01 0.0 0.0 0.0 0.01 0.0 0.0 0.0 0.01 0.01 0.0 0.0 0.0 0.01 0.0 0.0 0.0 0.01 0.01 0.0 0.0 0.0 0.01 0.0 0.0 0.0 0.01 0.01 0.0 0.0 0.0 0.01 0.0 0.0 0.0 0.01 0.01 0.0 0.0 0.0 0.01 0.0 0.0 0.0 0.01 0.01 0.0 0.0 0.0 0.01 0.0 0.0 0.0 0.01 0.01 0.0 0.0 0.0 0.01 0.0 0.0 0.0 0.01 0.01 0.0 0.0 0.0 0.01 0.0 0.0 0.0 0.01 0.01 0.0 0.0 0.0 0.01 0.0 0.0 0.0 0.01 0.01 0.0 0.0 0.0 0.01 0.0 0.0 0.0 0.01 0.01 0.0 0.0 0.0 0.01 0.0 0.0 0.0 0.01 0.01 0.0 0.0 0.0 0.01 0.0 0.0 0.0 0.01 0.01 0.0 0.0 0.0 0.01 0.0 0.0 0.0 0.01 0.01 0.0 0.0 0.0 0.01 0.0 0.0 0.0 0.01 0.01 0.0 0.0 0.0 0.01 0.0 0.0 0.0 0.01 0.01 0.0 0.0 0.0 0.01 0.0 0.0 0.0 0.01 0.01 0.0 0.0 0.0 0.01 0.0 0.0 0.0 0.01 0.01 0.0 0.0 0.0 0.01 0.0 0.0 0.0 0.01 0.01 0.0 0.0 0.0 0.01 0.0 0.0 0.0 0.01 0.01 0.0 0.0 0.0 0.01 0.0 0.0 0.0 0.01 0.01 0.0 0.0 0.0 0.01 0.0 0.0 0.0 0.01 0.01 0.0 0.0 0.0 0.01 0.0 0.0 0.0 0.01 0.01 0.0 0.0 0.0 0.01 0.0 0.0 0.0 0.01 0.01 0.0 0.0 0.0 0.01 0.0 0.0 0.0 0.01 0.01 0.0 0.0 0.0 0.01 0.0 0.0 0.0 0.01 0.01 0.0 0.0 0.0 0.01 0.0 0.0 0.0 0.01 0.01 0.0 0.0 0.0 0.01 0.0 0.0 0.0 0.01 0.01 0.0 0.0 0.0 0.01 0.0 0.0 0.0 0.01 0.01 0.0 0.0 0.0 0.01 0.0 0.0 0.0 0.01 0.01 0.0 0.0 0.0 0.01 0.0 0.0 0.0 0.01 0.01 0.0 0.0 0.0 0.01 0.0 0.0 0.0 0.01 0.01 0.0 0.0 0.0 0.01 0.0 0.0 0.0 0.01 0.01 0.0 0.0 0.0 0.01 0.0 0.0 0.0 0.01 0.01 0.0 0.0 0.0 0.01 0.0 0.0 0.0 0.01 0.01 0.0 0.0 0.0 0.01 0.0 0.0 0.0 0.01 0.01 0.0 0.0 0.0 0.01 0.0 0.0 0.0 0.01 0.01 0.0 0.0 0.0 0.01 0.0 0.0 0.0 0.01 0.01 0.0 0.0 0.0 0.01 0.0 0.0 0.0 0.01 0.01 0.0 0.0 0.0 0.01 0.0 0.0 0.0 0.01 0.01 0.0 0.0 0.0 0.01 0.0 0.0 0.0 0.01 0.01 0.0 0.0 0.0 0.01 0.0 0.0 0.0 0.01 0.01 0.0 0.0 0.0 0.01 0.0 0.0 0.0 0.01 0.01 0.0 0.0 0.0 0.01 0.0 0.0 0.0 0.01 0.01 0.0 0.0 0.0 0.01 0.0 0.0 0.0 0.01 0.01 0.0 0.0 0.0 0.01 0.0 0.0 0.0 0.01 0.01 0.0 0.0 0.0 0.01 0.0 0.0 0.0 0.01 0.01 0.0 0.0 0.0 0.01 0.0 0.0 0.0 0.01 0.01 0.0 0.0 0.0 0.01 0.0 0.0 0.0 0.01 0.01 0.0 0.0 0.0 0.01 0.0 0.0 0.0 0.01 0.01 0.0 0.0 0.0 0.01 0.0 0.0 0.0 0.01 0.01 0.0 0.0 0.0 0.01 0.0 0.0 0.0 0.01 0.01 0.0 0.0 0.0 0.01 0.0 0.0 0.0 0.01 0.01 0.0 0.0 0.0 0.01 0.0 0.0 0.0 0.01 0.01 0.0 0.0 0.0 0.01 0.0 0.0 0.0 0.01 0.01 0.0 0.0 0.0 0.01 0.0 0.0 0.0 0.01 0.01 0.0 0.0 0.0 0.01 0.0 0.0 0.0 0.01 0.01 0.0 0.0 0.0 0.01 0.0 0.0 0.0 0.01 0.01 0.0 0.0 0.0 0.01 0.0 0.0 0.0 0.01 0.01 0.0 0.0 0.0 0.01 0.0 0.0 0.0 0.01 0.01 0.0 0.0 0.0 0.01 0.0 0.0 0.0 0.01 0.01 0.0 0.0 0.0 0.01 0.0 0.0 0.0 0.01 0.01 0.0 0.0 0.0 0.01 0.0 0.0 0.0 0.01 0.01 0.0 0.0 0.0 0.01 0.0 0.0 0.0 0.01 0.01 0.0 0.0 0.0 0.01 0.0 0.0 0.0 0.01 0.01 0.0 0.0 0.0 0.01 0.0 0.0 0.0 0.01 0.01 0.0 0.0 0.0 0.01 0.0 0.0 0.0 0.01 0.01 0.0 0.0 0.0 0.01 0.0 0.0 0.0 0.01 0.01 0.0 0.0 0.0 0.01 0.0 0.0 0.0 0.01 0.01 0.0 0.0 0.0 0.01 0.0 0.0 0.0 0.01 0.01 0.0 0.0 0.0 0.01 0.0 0.0 0.0 0.01 0.01 0.0 0.0 0.0 0.01 0.0 0.0 0.0 0.01 0.01 0.0 0.0 0.0 0.01 0.0 0.0 0.0 0.01 0.01 0.0 0.0 0.0 0.01 0.0 0.0 0.0 0.01 0.01 0.0 0.0 0.0 0.01 0.0 0.0 0.0 0.01 0.01 0.0 0.0 0.0 0.01 0.0 0.0 0.0 0.01 0.01 0.0 0.0 0.0 0.01 0.0 0.0 0.0 0.01 0.01 0.0 0.0 0.0 0.01 0.0 0.0 0.0 0.01 0.01 0.0 0.0 0.0 0.01 0.0 0.0 0.0 0.01 0.01 0.0 0.0 0.0 0.01 0.0 0.0 0.0 0.01 0.01 0.0 0.0 0.0 0.01 0.0 0.0 0.0 0.01 0.01 0.0 0.0 0.0 0.01 0.0 0.0 0.0 0.01 0.01 0.0 0.0 0.0 0.01 0.0 0.0 0.0 0.01 0.01 0.0 0.0 0.0 0.01 0.0 0.0 0.0 0.01 0.01 0.0 0.0 0.0 0.01 0.0 0.0 0.0 0.01 0.01 0.0 0.0 0.0 0.01 0.0 0.0 0.0 0.01 0.01 0.0 0.0 0.0 0.01 0.0 0.0 0.0 0.01 0.01 0.0 0.0 0.0 0.01 0.0 0.0 0.0 0.01 0.01 0.0 0.0 0.0 0.01 0.0 0.0 0.0 0.01 0.01 0.0 0.0 0.0 0.01 0.0 0.0 0.0 0.01 0.01 0.0 0.0 0.0 0.01 0.0 0.0 0.0 0.01 0.01 0.0 0.0 0.0 0.01 0.0 0.0 0.0 0.01 0.01 0.0 0.0 0.0 0.01 0.0 0.0 0.0 0.01 0.01 0.0 0.0 0.0 0.01 0.0 0.0 0.0 0.01 0.01 0.0 0.0 0.0 0.01 0.0 0.0 0.0 0.01 0.01 0.0 0.0 0.0 0.01 0.0 0.0 0.0 0.01 0.01 0.0 0.0 0.0 0.01 0.0 0.0 0.0 0.01 0.01 0.0 0.0 0.0 0.01 0.0 0.0 0.0 0.01 0.01 0.0 0.0 0.0 0.01 0.0 0.0 0.0 0.01 0.01 0.0 0.0 0.0 0.01 0.0 0.0 0.0 0.01 0.01 0.0 0.0 0.0 0.01 0.0 0.0 0.0 0.01 0.01 0.0 0.0 0.0 0.01 0.0 0.0 0.0 0.01 0.01 0.0 0.0 0.0 0.01 0.0 0.0 0.0 0.01 0.01 0.0 0.0 0.0 0.01 0.0 0.0 0.0 0.01 0.01 0.0 0.0 0.0 0.01 0.0 0.0 0.0 0.01 0.01 0.0 0.0 0.0 0.01 0.0 0.0 0.0 0.01 0.01 0.0 0.0 0.0 0.01 0.0 0.0 0.0 0.01 0.01 0.0 0.0 0.0 0.01 0.0 0.0 0.0 0.01 0.01 0.0 0.0 0.0 0.01 0.0 0.0 0.0 0.01 0.01 0.0 0.0 0.0 0.01 0.0 0.0 0.0 0.01 0.01 0.0 0.0 0.0 0.01 0.0 0.0 0.0 0.01 0.01 0.0 0.0 0.0 0.01 0.0 0.0 0.0 0.01 0.01 0.0 0.0 0.0 0.01 0.0 0.0 0.0 0.01 0.01 0.0 0.0 0.0 0.01 0.0 0.0 0.0 0.01 0.01 0.0 0.0 0.0 0.01 0.0 0.0 0.0 0.01 0.01 0.0 0.0 0.0 0.01 0.0 0.0 0.0 0.01 0.01 0.0 0.0 0.0 0.01 0.0 0.0 0.0 0.01 0.01 0.0 0.0 0.0 0.01 0.0 0.0 0.0 0.01 0.01 0.0 0.0 0.0 0.01 0.0 0.0 0.0 0.01 0.01 0.0 0.0 0.0 0.01 0.0 0.0 0.0 0.01 0.01 0.0 0.0 0.0 0.01 0.0 0.0 0.0 0.01 0.01 0.0 0.0 0.0 0.01 0.0 0.0 0.0 0.01 0.01 0.0 0.0 0.0 0.01 0.0 0.0 0.0 0.01 0.01 0.0 0.0 0.0 0.01 0.0 0.0 0.0 0.01 0.01 0.0 0.0 0.0 0.01 0.0 0.0 0.0 0.01 0.01 0.0 0.0 0.0 0.01 0.0 0.0 0.0 0.01 0.01 0.0 0.0 0.0 0.01 0.0 0.0 0.0 0.01 0.01 0.0 0.0 0.0 0.01 0.0 0.0 0.0 0.01 0.01 0.0 0.0 0.0 0.01 0.0 0.0 0.0 0.01 0.01 0.0 0.0 0.0 0.01 0.0 0.0 0.0 0.01 0.01 0.0 0.0 0.0 0.01 0.0 0.0 0.0 0.01 0.01 0.0 0.0 0.0 0.01 0.0 0.0 0.0 0.01 0.01 0.0 0.0 0.0 0.01 0.0 0.0 0.0 0.01 0.01 0.0 0.0 0.0 0.01 0.0 0.0 0.0 0.01 0.01 0.0 0.0 0.0 0.01 0.0 0.0 0.0 0.01 0.01 0.0 0.0 0.0 0.01 0.0 0.0 0.0 0.01 0.01 0.0 0.0 0.0 0.01 0.0 0.0 0.0 0.01 0.01 0.0 0.0 0.0 0.01 0.0 0.0 0.0 0.01 0.01 0.0 0.0 0.0 0.01 0.0 0.0 0.0 0.01 0.01 0.0 0.0 0.0 0.01 0.0 0.0 0.0 0.01 0.01 0.0 0.0 0.0 0.01 0.0 0.0 0.0 0.01 0.01 0.0 0.0 0.0 0.01 0.0 0.0 0.0 0.01 0.01 0.0 0.0 0.0 0.01 0.0 0.0 0.0 0.01 0.01 0.0 0.0 0.0 0.01 0.0 0.0 0.0 0.01 0.01 0.0 0.0 0.0 0.01 0.0 0.0 0.0 0.01 0.01 0.0 0.0 0.0 0.01 0.0 0.0 0.0 0.01 0.01 0.0 0.0 0.0 0.01 0.0 0.0 0.0 0.01 0.01 0.0 0.0 0.0 0.01 0.0 0.0 0.0 0.01 0.01 0.0 0.0 0.0 0.01 0.0 0.0 0.0 0.01 0.01 0.0 0.0 0.0 0.01 0.0 0.0 0.0 0.01 0.01 0.0 0.0 0.0 0.01 0.0 0.0 0.0 0.01 0.01 0.0 0.0 0.0 0.01 0.0 0.0 0.0 0.01 0.01 0.0 0.0 0.0 0.01 0.0 0.0 0.0 0.01 0.01 0.0 0.0 0.0 0.01 0.0 0.0 0.0 0.01 0.01 0.0 0.0 0.0 0.01 0.0 0.0 0.0 0.01 0.01 0.0 0.0 0.0 0.01 0.0 0.0 0.0 0.01 0.01 0.0 0.0 0.0 0.01 0.0 0.0 0.0 0.01 0.01 0.0 0.0 0.0 0.01 0.0 0.0 0.0 0.01 0.01 0.0 0.0 0.0 0.01 0.0 0.0 0.0 0.01 0.01 0.0 0.0 0.0 0.01 0.0 0.0 0.0 0.01 0.01 0.0 0.0 0.0 0.01 0.0 0.0 0.0 0.01 0.01 0.0 0.0 0.0 0.01 0.0 0.0 0.0 0.01 0.01 0.0 0.0 0.0 0.01 0.0 0.0 0.0 0.01 0.01 0.0 0.0 0.0 0.01 0.0 0.0 0.0 0.01 0.01 0.0 0.0 0.0 0.01 0.0 0.0 0.0 0.01 0.01 0.0 0.0 0.0 0.01 0.0 0.0 0.0 0.01 0.01 0.0 0.0 0.0 0.01 0.0 0.0 0.0 0.01 0.01 0.0 0.0 0.0 0.01 0.0 0.0 0.0 0.01 0.01 0.0 0.0 0.0 0.01 0.0 0.0 0.0 0.01 0.01 0.0 0.0 0.0 0.01 0.0 0.0 0.0 0.01 0.01 0.0 0.0 0.0 0.01 0.0 0.0 0.0 0.01 0.01 0.0 0.0 0.0 0.01 0.0 0.0 0.0 0.01 0.01 0.0 0.0 0.0 0.01 0.0 0.0 0.0 0.01 0.01 0.0 0.0 0.0 0.01 0.0 0.0 0.0 0.01 0.01 0.0 0.0 0.0 0.01 0.0 0.0 0.0 0.01 0.01 0.0 0.0 0.0 0.01 0.0 0.0 0.0 0.01 0.01 0.0 0.0 0.0 0.01 0.0 0.0 0.0 0.01 0.01 0.0 0.0 0.0 0.01 0.0 0.0 0.0 0.01 0.01 0.0 0.0 0.0 0.01 0.0 0.0 0.0 0.01 0.01 0.0 0.0 0.0 0.01 0.0 0.0 0.0 0.01 0.01 0.0 0.0 0.0 0.01 0.0 0.0 0.0 0.01 0.01 0.0 0.0 0.0 0.01 0.0 0.0 0.0 0.01 0.01 0.0 0.0 0.0 0.01 0.0 0.0 0.0 0.01 0.01 0.0 0.0 0.0 0.01 0.0 0.0 0.0 0.01 0.01 0.0 0.0 0.0 0.01 0.0 0.0 0.0 0.01 0.01 0.0 0.0 0.0 0.01 0.0 0.0 0.0 0.01 0.01 0.0 0.0 0.0 0.01 0.0 0.0 0.0 0.01 0.01 0.0 0.0 0.0 0.01 0.0 0.0 0.0 0.01 0.01 0.0 0.0 0.0 0.01 0.0 0.0 0.0 0.01 0.01 0.0 0.0 0.0 0.01 0.0 0.0 0.0 0.01 0.01 0.0 0.0 0.0 0.01 0.0 0.0 0.0 0.01 0.01 0.0 0.0 0.0 0.01 0.0 0.0 0.0 0.01 0.01 0.0 0.0 0.0 0.01 0.0 0.0 0.0 0.01 0.01 0.0 0.0 0.0 0.01 0.0 0.0 0.0 0.01 0.01 0.0 0.0 0.0 0.01 0.0 0.0 0.0 0.01 0.01 0.0 0.0 0.0 0.01 0.0 0.0 0.0 0.01 0.01 0.0 0.0 0.0 0.01 0.0 0.0 0.0 0.01 0.01 0.0 0.0 0.0 0.01 0.0 0.0 0.0 0.01 0.01 0.0 0.0 0.0 0.01 0.0 0.0 0.0 0.01 0.01 0.0 0.0 0.0 0.01 0.0 0.0 0.0 0.01 0.01 0.0 0.0 0.0 0.01 0.0 0.0 0.0 0.01 0.01 0.0 0.0 0.0 0.01 0.0 0.0 0.0 0.01 0.01 0.0 0.0 0.0 0.01 0.0 0.0 0.0 0.01 0.01 0.0 0.0 0.0 0.01 0.0 0.0 0.0 0.01 0.01 0.0 0.0 0.0 0.01 0.0 0.0 0.0 0.01 0.01 0.0 0.0 0.0 0.01 0.0 0.0 0.0 0.01 0.01 0.0 0.0 0.0 0.01 0.0 0.0 0.0 0.01 0.01 0.0 0.0 0.0 0.01 0.0 0.0 0.0 0.01 0.01 0.0 0.0 0.0 0.01 0.0 0.0 0.0 0.01 0.01 0.0 0.0 0.0 0.01 0.0 0.0 0.0 0.01 0.01 0.0 0.0 0.0 0.01 0.0 0.0 0.0 0.01 0.01 0.0 0.0 0.0 0.01 0.0 0.0 0.0 0.01 0.01 0.0 0.0 0.0 0.01 0.0 0.0 0.0 0.01 0.01 0.0 0.0 0.0 0.01 0.0 0.0 0.0 0.01 0.01 0.0 0.0 0.0 0.01 0.0 0.0 0.0 0.01 0.01 0.0 0.0 0.0 0.01 0.0 0.0 0.0 0.01 0.01 0.0 0.0 0.0 0.01 0.0 0.0 0.0 0.01 0.01 0.0 0.0 0.0 0.01 0.0 0.0 0.0 0.01 0.01 0.0 0.0 0.0 0.01 0.0 0.0 0.0 0.01 0.01 0.0 0.0 0.0 0.01 0.0 0.0 0.0 0.01 0.01 0.0 0.0 0.0 0.01 0.0 0.0 0.0 0.01 0.01 0.0 0.0 0.0 0.01 0.0 0.0 0.0 0.01 0.01 0.0 0.0 0.0 0.01 0.0 0.0 0.0 0.01 0.01 0.0 0.0 0.0 0.01 0.0 0.0 0.0 0.01 0.01 0.0 0.0 0.0 0.01 0.0 0.0 0.0 0.01 0.01 0.0 0.0 0.0 0.01 0.0 0.0 0.0 0.01 0.01 0.0 0.0 0.0 0.01 0.0 0.0 0.0 0.01 0.01 0.0 0.0 0.0 0.01 0.0 0.0 0.0 0.01 0.01 0.0 0.0 0.0 0.01 0.0 0.0 0.0 0.01 0.01 0.0 0.0 0.0 0.01 0.0 0.0 0.0 0.01 0.01 0.0 0.0 0.0 0.01 0.0 0.0 0.0 0.01 0.01 0.0 0.0 0.0 0.01 0.0 0.0 0.0 0.01 0.01 0.0 0.0 0.0 0.01 0.0 0.0 0.0 0.01 0.01 0.0 0.0 0.0 0.01 0.0 0.0 0.0 0.01 0.01 0.0 0.0 0.0 0.01 0.0 0.0 0.0 0.01 0.01 0.0 0.0 0.0 0.01 0.0 0.0 0.0 0.01 0.01 0.0 0.0 0.0 0.01 0.0 0.0 0.0 0.01 0.01 0.0 0.0 0.0 0.01 0.0 0.0 0.0 0.01 0.01 0.0 0.0 0.0 0.01 0.0 0.0 0.0 0.01 0.01 0.0 0.0 0.0 0.01 0.0 0.0 0.0 0.01 0.01 0.0 0.0 0.0 0.01 0.0 0.0 0.0 0.01 0.01 0.0 0.0 0.0 0.01 0.0 0.0 0.0 0.01 0.01 0.0 0.0 0.0 0.01 0.0 0.0 0.0 0.01 0.01 0.0 0.0 0.0 0.01 0.0 0.0 0.0 0.01 0.01 0.0 0.0 0.0 0.01 0.0 0.0 0.0 0.01 0.01 0.0 0.0 0.0 0.01 0.0 0.0 0.0 0.01 0.01 0.0 0.0 0.0 0.01 0.0 0.0 0.0 0.01 0.01 0.0 0.0 0.0 0.01 0.0 0.0 0.0 0.01 0.01 0.0 0.0 0.0 0.01 0.0 0.0 0.0 0.01 0.01 0.0 0.0 0.0 0.01 0.0 0.0 0.0 0.01 0.01 0.0 0.0 0.0 0.01 0.0 0.0 0.0 0.01 0.01 0.0 0.0 0.0 0.01 0.0 0.0 0.0 0.01 0.01 0.0 0.0 0.0 0.01 0.0 0.0 0.0 0.01 0.01 0.0 0.0 0.0 0.01 0.0 0.0 0.0 0.01 0.01 0.0 0.0 0.0 0.01 0.0 0.0 0.0 0.01 0.01 0.0 0.0 0.0 0.01 0.0 0.0 0.0 0.01 0.01 0.0 0.0 0.0 0.01 0.0 0.0 0.0 0.01 0.01 0.0 0.0 0.0 0.01 0.0 0.0 0.0 0.01 0.01 0.0 0.0 0.0 0.01 0.0 0.0 0.0 0.01 0.01 0.0 0.0 0.0 0.01 0.0 0.0 0.0 0.01 0.01 0.0 0.0 0.0 0.01 0.0 0.0 0.0 0.01 0.01 0.0 0.0 0.0 0.01 0.0 0.0 0.0 0.01 0.01 0.0 0.0 0.0 0.01 0.0 0.0 0.0 0.01 0.01 0.0 0.0 0.0 0.01 0.0 0.0 0.0 0.01 0.01 0.0 0.0 0.0 0.01 0.0 0.0 0.0 0.01 0.01 0.0 0.0 0.0 0.01 0.0 0.0 0.0 0.01 0.01 0.0 0.0 0.0 0.01 0.0 0.0 0.0 0.01 0.01 0.0 0.0 0.0 0.01 0.0 0.0 0.0 0.01 0.01 0.0 0.0 0.0 0.01 0.0 0.0 0.0 0.01 0.01 0.0 0.0 0.0 0.01 0.0 0.0 0.0 0.01 0.01 0.0 0.0 0.0 0.01 0.0 0.0 0.0 0.01 0.01 0.0 0.0 0.0 0.01 0.0 0.0 0.0 0.01 0.01 0.0 0.0 0.0 0.01 0.0 0.0 0.0 0.01 0.01 0.0 0.0 0.0 0.01 0.0 0.0 0.0 0.01 0.01 0.0 0.0 0.0 0.01 0.0 0.0 0.0 0.01 0.01 0.0 0.0 0.0 0.01 0.0 0.0 0.0 0.01 0.01 0.0 0.0 0.0 0.01 0.0 0.0 0.0 0.01 0.01 0.0 0.0 0.0 0.01 0.0 0.0 0.0 0.01 0.01 0.0 0.0 0.0 0.01 0.0 0.0 0.0 0.01 0.01 0.0 0.0 0.0 0.01 0.0 0.0 0.0 0.01 0.01 0.0 0.0 0.0 0.01 0.0 0.0 0.0 0.01 0.01 0.0 0.0 0.0 0.01 0.0 0.0 0.0 0.01 0.01 0.0 0.0 0.0 0.01 0.0 0.0 0.0 0.01 0.01 0.0 0.0 0.0 0.01 0.0 0.0 0.0 0.01 0.01 0.0 0.0 0.0 0.01 0.0 0.0 0.0 0.01 0.01 0.0 0.0 0.0 0.01 0.0 0.0 0.0 0.01 0.01 0.0 0.0 0.0 0.01 0.0 0.0 0.0 0.01 0.01 0.0 0.0 0.0 0.01 0.0 0.0 0.0 0.01 0.01 0.0 0.0 0.0 0.01 0.0 0.0 0.0 0.01 0.01 0.0 0.0 0.0 0.01 0.0 0.0 0.0 0.01 0.01 0.0 0.0 0.0 0.01 0.0 0.0 0.0 0.01 0.01 0.0 0.0 0.0 0.01 0.0 0.0 0.0 0.01 0.01 0.0 0.0 0.0 0.01 0.0 0.0 0.0 0.01 0.01 0.0 0.0 0.0 0.01 0.0 0.0 0.0 0.01 0.01 0.0 0.0 0.0 0.01 0.0 0.0 0.0 0.01 0.01 0.0 0.0 0.0 0.01 0.0 0.0 0.0 0.01 0.01 0.0 0.0 0.0 0.01 0.0 0.0 0.0 0.01 0.01 0.0 0.0 0.0 0.01 0.0 0.0 0.0 0.01 0.01 0.0 0.0 0.0 0.01 0.0 0.0 0.0 0.01 0.01 0.0 0.0 0.0 0.01 0.0 0.0 0.0 0.01 0.01 0.0 0.0 0.0 0.01 0.0 0.0 0.0 0.01 0.01 0.0 0.0 0.0 0.01 0.0 0.0 0.0 0.01 0.01 0.0 0.0 0.0 0.01 0.0 0.0 0.0 0.01 0.01 0.0 0.0 0.0 0.01 0.0 0.0 0.0 0.01 0.01 0.0 0.0 0.0 0.01 0.0 0.0 0.0 0.01 0.01 0.0 0.0 0.0 0.01 0.0 0.0 0.0 0.01 0.01 0.0 0.0 0.0 0.01 0.0 0.0 0.0 0.01 0.01 0.0 0.0 0.0 0.01 0.0 0.0 0.0 0.01 0.01 0.0 0.0 0.0 0.01 0.0 0.0 0.0 0.01 0.01 0.0 0.0 0.0 0.01 0.0 0.0 0.0 0.01 0.01 0.0 0.0 0.0 0.01 0.0 0.0 0.0 0.01 0.01 0.0 0.0 0.0 0.01 0.0 0.0 0.0 0.01 0.01 0.0 0.0 0.0 0.01 0.0 0.0 0.0 0.01 0.01 0.0 0.0 0.0 0.01 0.0 0.0 0.0 0.01 0.01 0.0 0.0 0.0 0.01 0.0 0.0 0.0 0.01 0.01 0.0 0.0 0.0 0.01 0.0 0.0 0.0 0.01 0.01 0.0 0.0 0.0 0.01 0.0 0.0 0.0 0.01 0.01 0.0 0.0 0.0 0.01 0.0 0.0 0.0 0.01 0.01 0.0 0.0 0.0 0.01 0.0 0.0 0.0 0.01 0.01 0.0 0.0 0.0 0.01 0.0 0.0 0.0 0.01 0.01 0.0 0.0 0.0 0.01 0.0 0.0 0.0 0.01 0.01 0.0 0.0 0.0 0.01 0.0 0.0 0.0 0.01 0.01 0.0 0.0 0.0 0.01 0.0 0.0 0.0 0.01 0.01 0.0 0.0 0.0 0.01 0.0 0.0 0.0 0.01 0.01 0.0 0.0 0.0 0.01 0.0 0.0 0.0 0.01 0.01 0.0 0.0 0.0 0.01 0.0 0.0 0.0 0.01 0.01 0.0 0.0 0.0 0.01 0.0 0.0 0.0 0.01 0.01 0.0 0.0 0.0 0.01 0.0 0.0 0.0 0.01 0.01 0.0 0.0 0.0 0.01 0.0 0.0 0.0 0.01 0.01 0.0 0.0 0.0 0.01 0.0 0.0 0.0 0.01 0.01 0.0 0.0 0.0 0.01 0.0 0.0 0.0 0.01 0.01 0.0 0.0 0.0 0.01 0.0 0.0 0.0 0.01 0.01 0.0 0.0 0.0 0.01 0.0 0.0 0.0 0.01 0.01 0.0 0.0 0.0 0.01 0.0 0.0 0.0 0.01 0.01 0.0 0.0 0.0 0.01 0.0 0.0 0.0 0.01 0.01 0.0 0.0 0.0 0.01 0.0 0.0 0.0 0.01 0.01 0.0 0.0 0.0 0.01 0.0 0.0 0.0 0.01 0.01 0.0 0.0 0.0 0.01 0.0 0.0 0.0 0.01 0.01 0.0 0.0 0.0 0.01 0.0 0.0 0.0 0.01 0.01 0.0 0.0 0.0 0.01 0.0 0.0 0.0 0.01 0.01 0.0 0.0 0.0 0.01 0.0 0.0 0.0 0.01 0.01 0.0 0.0 0.0 0.01 0.0 0.0 0.0 0.01 0.01 0.0 0.0 0.0 0.01 0.0 0.0 0.0 0.01 0.01 0.0 0.0 0.0 0.01 0.0 0.0 0.0 0.01 0.01 0.0 0.0 0.0 0.01 0.0 0.0 0.0 0.01 0.01 0.0 0.0 0.0 0.01 0.0 0.0 0.0 0.01 0.01 0.0 0.0 0.0 0.01 0.0 0.0 0.0 0.01 0.01 0.0 0.0 0.0 0.01 0.0 0.0 0.0 0.01 0.01 0.0 0.0 0.0 0.01 0.0 0.0 0.0 0.01 0.01 0.0 0.0 0.0 0.01 0.0 0.0 0.0 0.01 0.01 0.0 0.0 0.0 0.01 0.0 0.0 0.0 0.01 0.01 0.0 0.0 0.0 0.01 0.0 0.0 0.0 0.01 0.01 0.0 0.0 0.0 0.01 0.0 0.0 0.0 0.01 0.01 0.0 0.0 0.0 0.01 0.0 0.0 0.0 0.01 0.01 0.0 0.0 0.0 0.01 0.0 0.0 0.0 0.01 0.01 0.0 0.0 0.0 0.01 0.0 0.0 0.0 0.01 0.01 0.0 0.0 0.0 0.01 0.0 0.0 0.0 0.01 0.01 0.0 0.0 0.0 0.01 0.0 0.0 0.0 0.01 0.01 0.0 0.0 0.0 0.01 0.0 0.0 0.0 0.01 0.01 0.0 0.0 0.0 0.01 0.0 0.0 0.0 0.01 0.01 0.0 0.0 0.0 0.01 0.0 0.0 0.0 0.01 0.01 0.0 0.0 0.0 0.01 0.0 0.0 0.0 0.01 0.01 0.0 0.0 0.0 0.01 0.0 0.0 0.0 0.01 0.01 0.0 0.0 0.0 0.01 0.0 0.0 0.0 0.01 0.01 0.0 0.0 0.0 0.01 0.0 0.0 0.0 0.01 0.01 0.0 0.0 0.0 0.01 0.0 0.0 0.0 0.01 0.01 0.0 0.0 0.0 0.01 0.0 0.0 0.0 0.01 0.01 0.0 0.0 0.0 0.01 0.0 0.0 0.0 0.01 0.01 0.0 0.0 0.0 0.01 0.0 0.0 0.0 0.01 0.01 0.0 0.0 0.0 0.01 0.0 0.0 0.0 0.01 0.01 0.0 0.0 0.0 0.01 0.0 0.0 0.0 0.01 0.01 0.0 0.0 0.0 0.01 0.0 0.0 0.0 0.01 0.01 0.0 0.0 0.0 0.01 0.0 0.0 0.0 0.01 0.01 0.0 0.0 0.0 0.01 0.0 0.0 0.0 0.01 0.01 0.0 0.0 0.0 0.01 0.0 0.0 0.0 0.01 0.01 0.0 0.0 0.0 0.01 0.0 0.0 0.0 0.01 0.01 0.0 0.0 0.0 0.01 0.0 0.0 0.0 0.01 0.01 0.0 0.0 0.0 0.01 0.0 0.0 0.0 0.01 0.01 0.0 0.0 0.0 0.01 0.0 0.0 0.0 0.01 0.01 0.0 0.0 0.0 0.01 0.0 0.0 0.0 0.01 0.01 0.0 0.0 0.0 0.01 0.0 0.0 0.0 0.01 0.01 0.0 0.0 0.0 0.01 0.0 0.0 0.0 0.01 0.01 0.0 0.0 0.0 0.01 0.0 0.0 0.0 0.01 0.01 0.0 0.0 0.0 0.01 0.0 0.0 0.0 0.01 0.01 0.0 0.0 0.0 0.01 0.0 0.0 0.0 0.01 0.01 0.0 0.0 0.0 0.01 0.0 0.0 0.0 0.01 0.01 0.0 0.0 0.0 0.01 0.0 0.0 0.0 0.01 0.01 0.0 0.0 0.0 0.01 0.0 0.0 0.0 0.01 0.01 0.0 0.0 0.0 0.01 0.0 0.0 0.0 0.01 0.01 0.0 0.0 0.0 0.01 0.0 0.0 0.0 0.01 0.01 0.0 0.0 0.0 0.01 0.0 0.0 0.0 0.01 0.01 0.0 0.0 0.0 0.01 0.0 0.0 0.0 0.01 0.01 0.0 0.0 0.0 0.01 0.0 0.0 0.0 0.01 0.01 0.0 0.0 0.0 0.01 0.0 0.0 0.0 0.01 0.01 0.0 0.0 0.0 0.01 0.0 0.0 0.0 0.01 0.01 0.0 0.0 0.0 0.01 0.0 0.0 0.0 0.01 0.01 0.0 0.0 0.0 0.01 0.0 0.0 0.0 0.01 0.01 0.0 0.0 0.0 0.01 0.0 0.0 0.0 0.01 0.01 0.0 0.0 0.0 0.01 0.0 0.0 0.0 0.01 0.01 0.0 0.0 0.0 0.01 0.0 0.0 0.0 0.01 0.01 0.0 0.0 0.0 0.01 0.0 0.0 0.0 0.01 0.01 0.0 0.0 0.0 0.01 0.0 0.0 0.0 0.01 0.01 0.0 0.0 0.0 0.01 0.0 0.0 0.0 0.01 0.01 0.0 0.0 0.0 0.01 0.0 0.0 0.0 0.01 0.01 0.0 0.0 0.0 0.01 0.0 0.0 0.0 0.01 0.01 0.0 0.0 0.0 0.01 0.0 0.0 0.0 0.01 0.01 0.0 0.0 0.0 0.01 0.0 0.0 0.0 0.01 0.01 0.0 0.0 0.0 0.01 0.0 0.0 0.0 0.01 0.01 0.0 0.0 0.0 0.01 0.0 0.0 0.0 0.01 0.01 0.0 0.0 0.0 0.01 0.0 0.0 0.0 0.01 0.01 0.0 0.0 0.0 0.01 0.0 0.0 0.0 0.01 0.01 0.0 0.0 0.0 0.01 0.0 0.0 0.0 0.01 0.01 0.0 0.0 0.0 0.01 0.0 0.0 0.0 0.01 0.01 0.0 0.0 0.0 0.01 0.0 0.0 0.0 0.01 0.01 0.0 0.0 0.0 0.01 0.0 0.0 0.0 0.01 0.01 0.0 0.0 0.0 0.01 0.0 0.0 0.0 0.01 0.01 0.0 0.0 0.0 0.01 0.0 0.0 0.0 0.01 0.01 0.0 0.0 0.0 0.01 0.0 0.0 0.0 0.01 0.01 0.0 0.0 0.0 0.01 0.0 0.0 0.0 0.01 0.01 0.0 0.0 0.0 0.01 0.0 0.0 0.0 0.01 0.01 0.0 0.0 0.0 0.01 0.0 0.0 0.0 0.01 0.01 0.0 0.0 0.0 0.01 0.0 0.0 0.0 0.01 0.01 0.0 0.0 0.0 0.01 0.0 0.0 0.0 0.01 0.01 0.0 0.0 0.0 0.01 0.0 0.0 0.0 0.01 0.01 0.0 0.0 0.0 0.01 0.0 0.0 0.0 0.01 0.01 0.0 0.0 0.0 0.01 0.0 0.0 0.0 0.01 0.01 0.0 0.0 0.0 0.01 0.0 0.0 0.0 0.01 0.01 0.0 0.0 0.0 0.01 0.0 0.0 0.0 0.01 0.01 0.0 0.0 0.0 0.01 0.0 0.0 0.0 0.01 0.01 0.0 0.0 0.0 0.01 0.0 0.0 0.0 0.01 0.01 0.0 0.0 0.0 0.01 0.0 0.0 0.0 0.01 0.01 0.0 0.0 0.0 0.01 0.0 0.0 0.0 0.01 0.01 0.0 0.0 0.0 0.01 0.0 0.0 0.0 0.01 0.01 0.0 0.0 0.0 0.01 0.0 0.0 0.0 0.01 0.01 0.0 0.0 0.0 0.01 0.0 0.0 0.0 0.01 0.01 0.0 0.0 0.0 0.01 0.0 0.0 0.0 0.01 0.01 0.0 0.0 0.0 0.01 0.0 0.0 0.0 0.01 0.01 0.0 0.0 0.0 0.01 0.0 0.0 0.0 0.01 0.01 0.0 0.0 0.0 0.01 0.0 0.0 0.0 0.01 0.01 0.0 0.0 0.0 0.01 0.0 0.0 0.0 0.01 0.01 0.0 0.0 0.0 0.01 0.0 0.0 0.0 0.01 0.01 0.0 0.0 0.0 0.01 0.0 0.0 0.0 0.01 0.01 0.0 0.0 0.0 0.01 0.0 0.0 0.0 0.01 0.01 0.0 0.0 0.0 0.01 0.0 0.0 0.0 0.01 0.01 0.0 0.0 0.0 0.01 0.0 0.0 0.0 0.01 0.01 0.0 0.0 0.0 0.01 0.0 0.0 0.0 0.01 0.01 0.0 0.0 0.0 0.01 0.0 0.0 0.0 0.01 0.01 0.0 0.0 0.0 0.01 0.0 0.0 0.0 0.01 0.01 0.0 0.0 0.0 0.01 0.0 0.0 0.0 0.01 0.01 0.0 0.0 0.0 0.01 0.0 0.0 0.0 0.01 0.01 0.0 0.0 0.0 0.01 0.0 0.0 0.0 0.01 0.01 0.0 0.0 0.0 0.01 0.0 0.0 0.0 0.01 0.01 0.0 0.0 0.0 0.01 0.0 0.0 0.0 0.01 0.01 0.0 0.0 0.0 0.01 0.0 0.0 0.0 0.01 0.01 0.0 0.0 0.0 0.01 0.0 0.0 0.0 0.01 0.01 0.0 0.0 0.0 0.01 0.0 0.0 0.0 0.01 0.01 0.0 0.0 0.0 0.01 0.0 0.0 0.0 0.01 0.01 0.0 0.0 0.0 0.01 0.0 0.0 0.0 0.01 0.01 0.0 0.0 0.0 0.01 0.0 0.0 0.0 0.01 0.01 0.0 0.0 0.0 0.01 0.0 0.0 0.0 0.01 0.01 0.0 0.0 0.0 0.01 0.0 0.0 0.0 0.01 0.01 0.0 0.0 0.0 0.01 0.0 0.0 0.0 0.01 0.01 0.0 0.0 0.0 0.01 0.0 0.0 0.0 0.01 0.01 0.0 0.0 0.0 0.01 0.0 0.0 0.0 0.01 0.01 0.0 0.0 0.0 0.01 0.0 0.0 0.0 0.01 0.01 0.0 0.0 0.0 0.01 0.0 0.0 0.0 0.01 0.01 0.0 0.0 0.0 0.01 0.0 0.0 0.0 0.01 0.01 0.0 0.0 0.0 0.01 0.0 0.0 0.0 0.01 0.01 0.0 0.0 0.0 0.01 0.0 0.0 0.0 0.01 0.01 0.0 0.0 0.0 0.01 0.0 0.0 0.0 0.01 0.01 0.0 0.0 0.0 0.01 0.0 0.0 0.0 0.01 0.01 0.0 0.0 0.0 0.01 0.0 0.0 0.0 0.01 0.01 0.0 0.0 0.0 0.01 0.0 0.0 0.0 0.01 0.01 0.0 0.0 0.0 0.01 0.0 0.0 0.0 0.01 0.01 0.0 0.0 0.0 0.01 0.0 0.0 0.0 0.01 0.01 0.0 0.0 0.0 0.01 0.0 0.0 0.0 0.01 0.01 0.0 0.0 0.0 0.01 0.0 0.0 0.0 0.01 0.01 0.0 0.0 0.0 0.01 0.0 0.0 0.0 0.01 0.01 0.0 0.0 0.0 0.01 0.0 0.0 0.0 0.01 0.01 0.0 0.0 0.0 0.01 0.0 0.0 0.0 0.01 0.01 0.0 0.0 0.0 0.01 0.0 0.0 0.0 0.01 0.01 0.0 0.0 0.0 0.01 0.0 0.0 0.0 0.01 0.01 0.0 0.0 0.0 0.01 0.0 0.0 0.0 0.01 0.01 0.0 0.0 0.0 0.01 0.0 0.0 0.0 0.01 0.01 0.0 0.0 0.0 0.01 0.0 0.0 0.0 0.01 0.01 0.0 0.0 0.0 0.01 0.0 0.0 0.0 0.01 0.01 0.0 0.0 0.0 0.01 0.0 0.0 0.0 0.01 0.01 0.0 0.0 0.0 0.01 0.0 0.0 0.0 0.01 0.01 0.0 0.0 0.0 0.01 0.0 0.0 0.0 0.01 0.01 0.0 0.0 0.0 0.01 0.0 0.0 0.0 0.01 0.01 0.0 0.0 0.0 0.01 0.0 0.0 0.0 0.01 0.01 0.0 0.0 0.0 0.01 0.0 0.0 0.0 0.01 0.01 0.0 0.0 0.0 0.01 0.0 0.0 0.0 0.01 0.01 0.0 0.0 0.0 0.01 0.0 0.0 0.0 0.01 0.01 0.0 0.0 0.0 0.01 0.0 0.0 0.0 0.01 0.01 0.0 0.0 0.0 0.01 0.0 0.0 0.0 0.01 0.01 0.0 0.0 0.0 0.01 0.0 0.0 0.0 0.01 0.01 0.0 0.0 0.0 0.01 0.0 0.0 0.0 0.01 0.01 0.0 0.0 0.0 0.01 0.0 0.0 0.0 0.01 0.01 0.0 0.0 0.0 0.01 0.0 0.0 0.0 0.01 0.01 0.0 0.0 0.0 0.01 0.0 0.0 0.0 0.01 0.01 0.0 0.0 0.0 0.01 0.0 0.0 0.0 0.01 0.01 0.0 0.0 0.0 0.01 0.0 0.0 0.0 0.01 0.01 0.0 0.0 0.0 0.01 0.0 0.0 0.0 0.01 0.01 0.0 0.0 0.0 0.01 0.0 0.0 0.0 0.01 0.01 0.0 0.0 0.0 0.01 0.0 0.0 0.0 0.01 0.01 0.0 0.0 0.0 0.01 0.0 0.0 0.0 0.01 0.01 0.0 0.0 0.0 0.01 0.0 0.0 0.0 0.01 0.01 0.0 0.0 0.0 0.01 0.0 0.0 0.0 0.01 0.01 0.0 0.0 0.0 0.01 0.0 0.0 0.0 0.01 0.01 0.0 0.0 0.0 0.01 0.0 0.0 0.0 0.01 0.01 0.0 0.0 0.0 0.01 0.0 0.0 0.0 0.01 0.01 0.0 0.0 0.0 0.01 0.0 0.0 0.0 0.01 0.01 0.0 0.0 0.0 0.01 0.0 0.0 0.0 0.01 0.01 0.0 0.0 0.0 0.01 0.0 0.0 0.0 0.01 0.01 0.0 0.0 0.0 0.01 0.0 0.0 0.0 0.01 0.01 0.0 0.0 0.0 0.01 0.0 0.0 0.0 0.01 0.01 0.0 0.0 0.0 0.01 0.0 0.0 0.0 0.01 0.01 0.0 0.0 0.0 0.01 0.0 0.0 0.0 0.01 0.01 0.0 0.0 0.0 0.01 0.0 0.0 0.0 0.01 0.01 0.0 0.0 0.0 0.01 0.0 0.0 0.0 0.01 0.01 0.0 0.0 0.0 0.01 0.0 0.0 0.0 0.01 0.01 0.0 0.0 0.0 0.01 0.0 0.0 0.0 0.01 0.01 0.0 0.0 0.0 0.01 0.0 0.0 0.0 0.01 0.01 0.0 0.0 0.0 0.01 0.0 0.0 0.0 0.01 0.01 0.0 0.0 0.0 0.01 0.0 0.0 0.0 0.01 0.01 0.0 0.0 0.0 0.01 0.0 0.0 0.0 0.01 0.01 0.0 0.0 0.0 0.01 0.0 0.0 0.0 0.01 0.01 0.0 0.0 0.0 0.01 0.0 0.0 0.0 0.01 0.01 0.0 0.0 0.0 0.01 0.0 0.0 0.0 0.01 0.01 0.0 0.0 0.0 0.01 0.0 0.0 0.0 0.01 0.01 0.0 0.0 0.0 0.01 0.0 0.0 0.0 0.01 0.01 0.0 0.0 0.0 0.01 0.0 0.0 0.0 0.01 0.01 0.0 0.0 0.0 0.01 0.0 0.0 0.0 0.01 0.01 0.0 0.0 0.0 0.01 0.0 0.0 0.0 0.01 0.01 0.0 0.0 0.0 0.01 0.0 0.0 0.0 0.01 0.01 0.0 0.0 0.0 0.01 0.0 0.0 0.0 0.01 0.01 0.0 0.0 0.0 0.01 0.0 0.0 0.0 0.01 0.01 0.0 0.0 0.0 0.01 0.0 0.0 0.0 0.01 0.01 0.0 0.0 0.0 0.01 0.0 0.0 0.0 0.01 0.01 0.0 0.0 0.0 0.01 0.0 0.0 0.0 0.01 0.01 0.0 0.0 0.0 0.01 0.0 0.0 0.0 0.01 0.01 0.0 0.0 0.0 0.01 0.0 0.0 0.0 0.01 0.01 0.0 0.0 0.0 0.01 0.0 0.0 0.0 0.01 0.01 0.0 0.0 0.0 0.01 0.0 0.0 0.0 0.01 0.01 0.0 0.0 0.0 0.01 0.0 0.0 0.0 0.01 0.01 0.0 0.0 0.0 0.01 0.0 0.0 0.0 0.01 0.01 0.0 0.0 0.0 0.01 0.0 0.0 0.0 0.01 0.01 0.0 0.0 0.0 0.01 0.0 0.0 0.0 0.01 0.01 0.0 0.0 0.0 0.01 0.0 0.0 0.0 0.01 0.01 0.0 0.0 0.0 0.01 0.0 0.0 0.0 0.01 0.01 0.0 0.0 0.0 0.01 0.0 0.0 0.0 0.01 0.01 0.0 0.0 0.0 0.01 0.0 0.0 0.0 0.01 0.01 0.0 0.0 0.0 0.01 0.0 0.0 0.0 0.01 0.01 0.0 0.0 0.0 0.01 0.0 0.0 0.0 0.01 0.01 0.0 0.0 0.0 0.01 0.0 0.0 0.0 0.01 0.01 0.0 0.0 0.0 0.01 0.0 0.0 0.0 0.01 0.01 0.0 0.0 0.0 0.01 0.0 0.0 0.0 0.01 0.01 0.0 0.0 0.0 0.01 0.0 0.0 0.0 0.01 0.01 0.0 0.0 0.0 0.01 0.0 0.0 0.0 0.01 0.01 0.0 0.0 0.0 0.01 0.0 0.0 0.0 0.01 0.01 0.0 0.0 0.0 0.01 0.0 0.0 0.0 0.01 0.01 0.0 0.0 0.0 0.01 0.0 0.0 0.0 0.01 0.01 0.0 0.0 0.0 0.01 0.0 0.0 0.0 0.01 0.01 0.0 0.0 0.0 0.01 0.0 0.0 0.0 0.01 0.01 0.0 0.0 0.0 0.01 0.0 0.0 0.0 0.01 0.01 0.0 0.0 0.0 0.01 0.0 0.0 0.0 0.01 0.01 0.0 0.0 0.0 0.01 0.0 0.0 0.0 0.01 0.01 0.0 0.0 0.0 0.01 0.0 0.0 0.0 0.01 0.01 0.0 0.0 0.0 0.01 0.0 0.0 0.0 0.01 0.01 0.0 0.0 0.0 0.01 0.0 0.0 0.0 0.01 0.01 0.0 0.0 0.0 0.01 0.0 0.0 0.0 0.01 0.01 0.0 0.0 0.0 0.01 0.0 0.0 0.0 0.01 0.01 0.0 0.0 0.0 0.01 0.0 0.0 0.0 0.01 0.01 0.0 0.0 0.0 0.01 0.0 0.0 0.0 0.01 0.01 0.0 0.0 0.0 0.01 0.0 0.0 0.0 0.01 0.01 0.0 0.0 0.0 0.01 0.0 0.0 0.0 0.01 0.01 0.0 0.0 0.0 0.01 0.0 0.0 0.0 0.01 0.01 0.0 0.0 0.0 0.01 0.0 0.0 0.0 0.01 0.01 0.0 0.0 0.0 0.01 0.0 0.0 0.0 0.01 0.01 0.0 0.0 0.0 0.01 0.0 0.0 0.0 0.01 0.01 0.0 0.0 0.0 0.01 0.0 0.0 0.0 0.01 0.01 0.0 0.0 0.0 0.01 0.0 0.0 0.0 0.01 0.01 0.0 0.0 0.0 0.01 0.0 0.0 0.0 0.01 0.01 0.0 0.0 0.0 0.01 0.0 0.0 0.0 0.01 0.01 0.0 0.0 0.0 0.01 0.0 0.0 0.0 0.01 0.01 0.0 0.0 0.0 0.01 0.0 0.0 0.0 0.01 0.01 0.0 0.0 0.0 0.01 0.0 0.0 0.0 0.01 0.01 0.0 0.0 0.0 0.01 0.0 0.0 0.0 0.01 0.01 0.0 0.0 0.0 0.01 0.0 0.0 0.0 0.01 0.01 0.0 0.0 0.0 0.01 0.0 0.0 0.0 0.01 0.01 0.0 0.0 0.0 0.01 0.0 0.0 0.0 0.01 0.01 0.0 0.0 0.0 0.01 0.0 0.0 0.0 0.01 0.01 0.0 0.0 0.0 0.01 0.0 0.0 0.0 0.01 0.01 0.0 0.0 0.0 0.01 0.0 0.0 0.0 0.01 0.01 0.0 0.0 0.0 0.01 0.0 0.0 0.0 0.01 0.01 0.0 0.0 0.0 0.01 0.0 0.0 0.0 0.01 0.01 0.0 0.0 0.0 0.01 0.0 0.0 0.0 0.01 0.01 0.0 0.0 0.0 0.01 0.0 0.0 0.0 0.01 0.01 0.0 0.0 0.0 0.01 0.0 0.0 0.0 0.01 0.01 0.0 0.0 0.0 0.01 0.0 0.0 0.0 0.01 0.01 0.0 0.0 0.0 0.01 0.0 0.0 0.0 0.01 0.01 0.0 0.0 0.0 0.01 0.0 0.0 0.0 0.01 0.01 0.0 0.0 0.0 0.01 0.0 0.0 0.0 0.01 0.01 0.0 0.0 0.0 0.01 0.0 0.0 0.0 0.01 0.01 0.0 0.0 0.0 0.01 0.0 0.0 0.0 0.01 0.01 0.0 0.0 0.0 0.01 0.0 0.0 0.0 0.01 0.01 0.0 0.0 0.0 0.01 0.0 0.0 0.0 0.01 0.01 0.0 0.0 0.0 0.01 0.0 0.0 0.0 0.01 0.01 0.0 0.0 0.0 0.01 0.0 0.0 0.0 0.01 0.01 0.0 0.0 0.0 0.01 0.0 0.0 0.0 0.01 0.01 0.0 0.0 0.0 0.01 0.0 0.0 0.0 0.01 0.01 0.0 0.0 0.0 0.01 0.0 0.0 0.0 0.01 0.01 0.0 0.0 0.0 0.01 0.0 0.0 0.0 0.01 0.01 0.0 0.0 0.0 0.01 0.0 0.0 0.0 0.01 0.01 0.0 0.0 0.0 0.01 0.0 0.0 0.0 0.01 0.01 0.0 0.0 0.0 0.01 0.0 0.0 0.0 0.01 0.01 0.0 0.0 0.0 0.01 0.0 0.0 0.0 0.01 0.01 0.0 0.0 0.0 0.01 0.0 0.0 0.0 0.01 0.01 0.0 0.0 0.0 0.01 0.0 0.0 0.0 0.01 0.01 0.0 0.0 0.0 0.01 0.0 0.0 0.0 0.01 0.01 0.0 0.0 0.0 0.01 0.0 0.0 0.0 0.01 0.01 0.0 0.0 0.0 0.01 0.0 0.0 0.0 0.01 0.01 0.0 0.0 0.0 0.01 0.0 0.0 0.0 0.01 0.01 0.0 0.0 0.0 0.01 0.0 0.0 0.0 0.01 0.01 0.0 0.0 0.0 0.01 0.0 0.0 0.0 0.01 0.01 0.0 0.0 0.0 0.01 0.0 0.0 0.0 0.01 0.01 0.0 0.0 0.0 0.01 0.0 0.0 0.0 0.01 0.01 0.0 0.0 0.0 0.01 0.0 0.0 0.0 0.01 0.01 0.0 0.0 0.0 0.01 0.0 0.0 0.0 0.01 0.01 0.0 0.0 0.0 0.01 0.0 0.0 0.0 0.01 0.01 0.0 0.0 0.0 0.01 0.0 0.0 0.0 0.01 0.01 0.0 0.0 0.0 0.01 0.0 0.0 0.0 0.01 0.01 0.0 0.0 0.0 0.01 0.0 0.0 0.0 0.01 0.01 0.0 0.0 0.0 0.01 0.0 0.0 0.0 0.01 0.01 0.0 0.0 0.0 0.01 0.0 0.0 0.0 0.01 0.01 0.0 0.0 0.0 0.01 0.0 0.0 0.0 0.01 0.01 0.0 0.0 0.0 0.01 0.0 0.0 0.0 0.01 0.01 0.0 0.0 0.0 0.01 0.0 0.0 0.0 0.01 0.01 0.0 0.0 0.0 0.01 0.0 0.0 0.0 0.01 0.01 0.0 0.0 0.0 0.01 0.0 0.0 0.0 0.01 0.01 0.0 0.0 0.0 0.01 0.0 0.0 0.0 0.01 0.01 0.0 0.0 0.0 0.01 0.0 0.0 0.0 0.01 0.01 0.0 0.0 0.0 0.01 0.0 0.0 0.0 0.01 0.01 0.0 0.0 0.0 0.01 0.0 0.0 0.0 0.01 0.01 0.0 0.0 0.0 0.01 0.0 0.0 0.0 0.01 0.01 0.0 0.0 0.0 0.01 0.0 0.0 0.0 0.01 0.01 0.0 0.0 0.0 0.01 0.0 0.0 0.0 0.01 0.01 0.0 0.0 0.0 0.01 0.0 0.0 0.0 0.01 0.01 0.0 0.0 0.0 0.01 0.0 0.0 0.0 0.01 0.01 0.0 0.0 0.0 0.01 0.0 0.0 0.0 0.01 0.01 0.0 0.0 0.0 0.01 0.0 0.0 0.0 0.01 0.01 0.0 0.0 0.0 0.01 0.0 0.0 0.0 0.01 0.01 0.0 0.0 0.0 0.01 0.0 0.0 0.0 0.01 0.01 0.0 0.0 0.0 0.01 0.0 0.0 0.0 0.01 0.01 0.0 0.0 0.0 0.01 0.0 0.0 0.0 0.01 0.01 0.0 0.0 0.0 0.01 0.0 0.0 0.0 0.01 0.01 0.0 0.0 0.0 0.01 0.0 0.0 0.0 0.01 0.01 0.0 0.0 0.0 0.01 0.0 0.0 0.0 0.01 0.01 0.0 0.0 0.0 0.01 0.0 0.0 0.0 0.01 0.01 0.0 0.0 0.0 0.01 0.0 0.0 0.0 0.01 0.01 0.0 0.0 0.0 0.01 0.0 0.0 0.0 0.01 0.01 0.0 0.0 0.0 0.01 0.0 0.0 0.0 0.01 0.01 0.0 0.0 0.0 0.01 0.0 0.0 0.0 0.01 0.01 0.0 0.0 0.0 0.01 0.0 0.0 0.0 0.01 0.01 0.0 0.0 0.0 0.01 0.0 0.0 0.0 0.01 0.01 0.0 0.0 0.0 0.01 0.0 0.0 0.0 0.01 0.01 0.0 0.0 0.0 0.01 0.0 0.0 0.0 0.01 0.01 0.0 0.0 0.0 0.01 0.0 0.0 0.0 0.01 0.01 0.0 0.0 0.0 0.01 0.0 0.0 0.0 0.01 0.01 0.0 0.0 0.0 0.01 0.0 0.0 0.0 0.01 0.01 0.0 0.0 0.0 0.01 0.0 0.0 0.0 0.01 0.01 0.0 0.0 0.0 0.01 0.0 0.0 0.0 0.01 0.01 0.0 0.0 0.0 0.01 0.0 0.0 0.0 0.01 0.01 0.0 0.0 0.0 0.01 0.0 0.0 0.0 0.01 0.01 0.0 0.0 0.0 0.01 0.0 0.0 0.0 0.01 0.01 0.0 0.0 0.0 0.01 0.0 0.0 0.0 0.01 0.01 0.0 0.0 0.0 0.01 0.0 0.0 0.0 0.01 0.01 0.0 0.0 0.0 0.01 0.0 0.0 0.0 0.01 0.01 0.0 0.0 0.0 0.01 0.0 0.0 0.0 0.01 0.01 0.0 0.0 0.0 0.01 0.0 0.0 0.0 0.01 0.01 0.0 0.0 0.0 0.01 0.0 0.0 0.0 0.01 0.01 0.0 0.0 0.0 0.01 0.0 0.0 0.0 0.01 0.01 0.0 0.0 0.0 0.01 0.0 0.0 0.0 0.01 0.01 0.0 0.0 0.0 0.01 0.0 0.0 0.0 0.01 0.01 0.0 0.0 0.0 0.01 0.0 0.0 0.0 0.01 0.01 0.0 0.0 0.0 0.01 0.0 0.0 0.0 0.01 0.01 0.0 0.0 0.0 0.01 0.0 0.0 0.0 0.01 0.01 0.0 0.0 0.0 0.01 0.0 0.0 0.0 0.01 0.01 0.0 0.0 0.0 0.01 0.0 0.0 0.0 0.01 0.01 0.0 0.0 0.0 0.01 0.0 0.0 0.0 0.01 0.01 0.0 0.0 0.0 0.01 0.0 0.0 0.0 0.01 0.01 0.0 0.0 0.0 0.01 0.0 0.0 0.0 0.01 0.01 0.0 0.0 0.0 0.01 0.0 0.0 0.0 0.01 0.01 0.0 0.0 0.0 0.01 0.0 0.0 0.0 0.01 0.01 0.0 0.0 0.0 0.01 0.0 0.0 0.0 0.01 0.01 0.0 0.0 0.0 0.01 0.0 0.0 0.0 0.01 0.01 0.0 0.0 0.0 0.01 0.0 0.0 0.0 0.01 0.01 0.0 0.0 0.0 0.01 0.0 0.0 0.0 0.01 0.01 0.0 0.0 0.0 0.01 0.0 0.0 0.0 0.01 0.01 0.0 0.0 0.0 0.01 0.0 0.0 0.0 0.01 0.01 0.0 0.0 0.0 0.01 0.0 0.0 0.0 0.01 0.01 0.0 0.0 0.0 0.01 0.0 0.0 0.0 0.01 0.01 0.0 0.0 0.0 0.01 0.0 0.0 0.0 0.01 0.01 0.0 0.0 0.0 0.01 0.0 0.0 0.0 0.01 0.01 0.0 0.0 0.0 0.01 0.0 0.0 0.0 0.01 0.01 0.0 0.0 0.0 0.01 0.0 0.0 0.0 0.01 0.01 0.0 0.0 0.0 0.01 0.0 0.0 0.0 0.01 0.01 0.0 0.0 0.0 0.01 0.0 0.0 0.0 0.01 0.01 0.0 0.0 0.0 0.01 0.0 0.0 0.0 0.01 0.01 0.0 0.0 0.0 0.01 0.0 0.0 0.0 0.01 0.01 0.0 0.0 0.0 0.01 0.0 0.0 0.0 0.01 0.01 0.0 0.0 0.0 0.01 0.0 0.0 0.0 0.01 0.01 0.0 0.0 0.0 0.01 0.0 0.0 0.0 0.01 0.01 0.0 0.0 0.0 0.01 0.0 0.0 0.0 0.01 0.01 0.0 0.0 0.0 0.01 0.0 0.0 0.0 0.01 0.01 0.0 0.0 0.0 0.01 0.0 0.0 0.0 0.01 0.01 0.0 0.0 0.0 0.01 0.0 0.0 0.0 0.01 0.01 0.0 0.0 0.0 0.01 0.0 0.0 0.0 0.01 0.01 0.0 0.0 0.0 0.01 0.0 0.0 0.0 0.01 0.01 0.0 0.0 0.0 0.01 0.0 0.0 0.0 0.01 0.01 0.0 0.0 0.0 0.01 0.0 0.0 0.0 0.01 0.01 0.0 0.0 0.0 0.01 0.0 0.0 0.0 0.01 0.01 0.0 0.0 0.0 0.01 0.0 0.0 0.0 0.01 0.01 0.0 0.0 0.0 0.01 0.0 0.0 0.0 0.01 0.01 0.0 0.0 0.0 0.01 0.0 0.0 0.0 0.01 0.01 0.0 0.0 0.0 0.01 0.0 0.0 0.0 0.01 0.01 0.0 0.0 0.0 0.01 0.0 0.0 0.0 0.01 0.01 0.0 0.0 0.0 0.01 0.0 0.0 0.0 0.01 0.01 0.0 0.0 0.0 0.01 0.0 0.0 0.0 0.01 0.01 0.0 0.0 0.0 0.01 0.0 0.0 0.0 0.01 0.01 0.0 0.0 0.0 0.01 0.0 0.0 0.0 0.01 0.01 0.0 0.0 0.0 0.01 0.0 0.0 0.0 0.01 0.01 0.0 0.0 0.0 0.01 0.0 0.0 0.0 0.01 0.01 0.0 0.0 0.0 0.01 0.0 0.0 0.0 0.01 0.01 0.0 0.0 0.0 0.01 0.0 0.0 0.0 0.01 0.01 0.0 0.0 0.0 0.01 0.0 0.0 0.0 0.01 0.01 0.0 0.0 0.0 0.01 0.0 0.0 0.0 0.01 0.01 0.0 0.0 0.0 0.01 0.0 0.0 0.0 0.01 0.01 0.0 0.0 0.0 0.01 0.0 0.0 0.0 0.01 0.01 0.0 0.0 0.0 0.01 0.0 0.0 0.0 0.01 0.01 0.0 0.0 0.0 0.01 0.0 0.0 0.0 0.01 0.01 0.0 0.0 0.0 0.01 0.0 0.0 0.0 0.01 0.01 0.0 0.0 0.0 0.01 0.0 0.0 0.0 0.01 0.01 0.0 0.0 0.0 0.01 0.0 0.0 0.0 0.01 0.01 0.0 0.0 0.0 0.01 0.0 0.0 0.0 0.01 0.01 0.0 0.0 0.0 0.01 0.0 0.0 0.0 0.01 0.01 0.0 0.0 0.0 0.01 0.0 0.0 0.0 0.01 0.01 0.0 0.0 0.0 0.01 0.0 0.0 0.0 0.01 0.01 0.0 0.0 0.0 0.01 0.0 0.0 0.0 0.01 0.01 0.0 0.0 0.0 0.01 0.0 0.0 0.0 0.01 0.01 0.0 0.0 0.0 0.01 0.0 0.0 0.0 0.01 0.01 0.0 0.0 0.0 0.01 0.0 0.0 0.0 0.01 0.01 0.0 0.0 0.0 0.01 0.0 0.0 0.0 0.01 0.01 0.0 0.0 0.0 0.01 0.0 0.0 0.0 0.01 0.01 0.0 0.0 0.0 0.01 0.0 0.0 0.0 0.01 0.01 0.0 0.0 0.0 0.01 0.0 0.0 0.0 0.01 0.01 0.0 0.0 0.0 0.01 0.0 0.0 0.0 0.01 0.01 0.0 0.0 0.0 0.01 0.0 0.0 0.0 0.01 0.01 0.0 0.0 0.0 0.01 0.0 0.0 0.0 0.01 0.01 0.0 0.0 0.0 0.01 0.0 0.0 0.0 0.01 0.009998012092923336 0.0 4.356680802753421e-12 0.0 0.01 0.0 4.356680802753421e-12 0.0 0.009999829504360413 0.009997496440485474 0.0 1.9446185173722233e-12 0.0 0.01 0.0 1.9446185173738776e-12 0.0 0.009999917001033337 0.009997053802523588 0.0 4.862287035255218e-13 0.0 0.01 0.0 4.86228703525315e-13 0.0 0.010000005850005133 0.00999669963458106 0.0 7.45970315837175e-15 0.0 0.01 0.0 7.45970315837175e-15 0.0 0.010000076150869834 0.009996436405786058 0.0 2.2173182586482455e-14 0.0 0.01 0.0 2.2173182586482455e-14 0.0 0.010000117702078034 0.00999823646661722 0.0 4.4675418551865e-12 0.0 0.01 0.0 4.467541855193117e-12 0.0 0.009999709512657926 0.00999760985719057 0.0 1.6137103993906565e-12 0.0 0.01 0.0 1.6137103993906565e-12 0.0 0.009999786006869155 0.009997014337659439 0.0 -9.444481470041419e-13 0.0 0.01 0.0 -9.444481470037283e-13 0.0 0.009999899001530128 0.009996505332758827 0.0 -2.0902788418627145e-12 0.0 0.01 0.0 -2.0902788418627145e-12 0.0 0.010000012200022324 0.009996102779433644 0.0 -1.9410955848366624e-12 0.0 0.01 0.0 -1.9410955848366624e-12 0.0 0.010000100601518076 0.009995807637859514 0.0 -1.2669423720851149e-12 0.0 0.01 0.0 -1.2669423720842877e-12 0.0 0.010000154303571368 0.009997966620363102 0.0 3.006155092307057e-12 0.0 0.01 0.0 3.006155092307057e-12 0.0 0.009999654017956364 0.009997258128091638 0.0 8.07520199800344e-13 0.0 0.01 0.0 8.07520199800344e-13 0.0 0.009999751509262455 0.009996592242713273 0.0 -1.5738733744892014e-12 0.0 0.01 0.0 -1.5738733744892014e-12 0.0 0.009999888001881565 0.009996032861976948 0.0 -2.7954325318382878e-12 0.0 0.01 0.0 -2.7954325318374606e-12 0.0 0.010000019050054439 0.009995600904509735 0.0 -2.6902317152170154e-12 0.0 0.01 0.0 -2.6902317152170154e-12 0.0 0.010000120602181698 0.009995292825710681 0.0 -1.958681409139577e-12 0.0 0.01 0.0 -1.958681409139577e-12 0.0 0.01000018115492245 0.009997697295611393 0.0 2.5458120911513675e-11 0.0 0.01 0.0 2.5458120911513675e-11 0.0 0.009999617022001946 0.009996905936576903 0.0 1.0153794756909879e-11 0.0 0.01 0.0 1.0153794756916497e-11 0.0 0.009999733010692877 0.009996177193195633 0.0 2.74767942312116e-12 0.0 0.01 0.0 2.7476794231219873e-12 0.0 0.009999883002053308 0.009995575937581986 0.0 4.1017780100142584e-13 0.0 0.01 0.0 4.1017780100121905e-13 0.0 0.010000025900100623 0.009995123069988265 0.0 -9.132708314658611e-13 0.0 0.01 0.0 -9.132708314658611e-13 0.0 0.010000134302705532 0.009994809543923663 0.0 -1.2887540196905119e-12 0.0 0.01 0.0 -1.2887540196900983e-12 0.0 0.010000198755925428 0.009997370537475412 0.0 2.1733462416367286e-09 0.0 0.01 0.0 2.1733462416333404e-09 0.0 0.009999598024239689 0.009996498340102628 0.0 1.2269193349617323e-09 0.0 0.01 0.0 1.2269193349617323e-09 0.0 0.00999972451138474 0.009995710261857658 0.0 4.339445893518906e-10 0.0 0.01 0.0 4.339445893516788e-10 0.0 0.00999988700191534 0.009995072144958109 0.0 5.403399131092355e-11 0.0 0.01 0.0 5.403399131092355e-11 0.0 0.010000033700170356 0.009994605368449452 0.0 3.938329582332618e-12 0.0 0.01 0.0 3.938329582333445e-12 0.0 0.010000142603050287 0.009994294885965413 0.0 9.227016013543182e-13 0.0 0.01 0.0 9.227016013543182e-13 0.0 0.010000204106248734 0.009996888952449288 0.0 1.9020804074460786e-08 0.0 0.01 0.0 1.9020804074460786e-08 0.0 0.00999959202502219 0.00999594646602533 0.0 1.2081071887409215e-08 0.0 0.01 0.0 1.2081071887422767e-08 0.0 0.009999727011200747 0.009995115081701476 0.0 5.604374040431829e-09 0.0 0.01 0.0 5.604374040428441e-09 0.0 0.009999894501674222 0.009994461604474146 0.0 1.5650470707357871e-09 0.0 0.01 0.0 1.5650470707353636e-09 0.0 0.010000040050240968 0.009993994913493847 0.0 1.8457634500379381e-10 0.0 0.01 0.0 1.8457634500379381e-10 0.0 0.010000145003153835 0.009993688979378391 0.0 4.555171783692593e-12 0.0 0.01 0.0 4.5551717836917656e-12 0.0 0.010000203606218156 0.009996103279790265 0.0 7.920475869681136e-08 0.0 0.01 0.0 7.920475869683846e-08 0.0 0.00999958852633958 0.009995118077747523 0.0 5.4390267715018854e-08 0.0 0.01 0.0 5.43902677150053e-08 0.0 0.009999731511257381 0.00999430536813455 0.0 2.7511364116488508e-08 0.0 0.01 0.0 2.7511364116481732e-08 0.0 0.009999904001495993 0.009993686983177218 0.0 9.66299403508019e-09 0.0 0.01 0.0 9.662994035076802e-09 0.0 0.010000048350364681 0.009993249341866304 0.0 1.9714540216608996e-09 0.0 0.01 0.0 1.971454021661323e-09 0.0 0.01000014650322 0.009992968423419755 0.0 1.4868303321070444e-10 0.0 0.01 0.0 1.4868303321070444e-10 0.0 0.010000198755925435 0.00999482752376277 0.0 2.2811492185947566e-07 0.0 0.01 0.0 2.2811492185952987e-07 0.0 0.009999579534331917 0.009993870144768028 0.0 1.6088556375939284e-07 0.0 0.01 0.0 1.6088556375939284e-07 0.0 0.009999728014982863 0.009993181980230588 0.0 8.46723206029661e-08 0.0 0.01 0.0 8.46723206029661e-08 0.0 0.009999913002211718 0.009992689025533782 0.0 3.2526465325682344e-08 0.0 0.01 0.0 3.252646532567557e-08 0.0 0.010000061050717924 0.009992346295863841 0.0 8.2578880057574e-09 0.0 0.01 0.0 8.2578880057574e-09 0.0 0.010000153803558497 0.009992118826734089 0.0 1.0876003759830967e-09 0.0 0.01 0.0 1.0876003759830967e-09 0.0 0.010000199705982392 0.009992883643239948 0.0 5.136027215833089e-07 0.0 0.01 0.0 5.136027215833089e-07 0.0 0.009999557069040335 0.009992106375672055 0.0 3.5951855451233283e-07 0.0 0.01 0.0 3.595185545122786e-07 0.0 0.009999711031935827 0.00999170084830417 0.0 1.907891942308634e-07 0.0 0.01 0.0 1.907891942308905e-07 0.0 0.00999992550629864 0.009991450976250009 0.0 7.604220035393311e-08 0.0 0.01 0.0 7.604220035393311e-08 0.0 0.010000088852052521 0.009991269446776866 0.0 2.1436374679906082e-08 0.0 0.01 0.0 2.143637467990947e-08 0.0 0.010000184555177968 0.009991140786772669 0.0 3.628026003527124e-09 0.0 0.01 0.0 3.628026003526277e-09 0.0 0.010000224607569032 0.00999025588971322 0.0 9.262467309451884e-07 0.0 0.01 0.0 9.262467309451884e-07 0.0 0.009999459672672118 0.00998988841824604 0.0 6.364651217705651e-07 0.0 0.01 0.0 6.364651217705651e-07 0.0 0.009999665077677333 0.009989920775953396 0.0 3.345593857963106e-07 0.0 0.01 0.0 3.345593857963106e-07 0.0 0.009999945017265807 0.00999000201669946 0.0 1.348778303656578e-07 0.0 0.01 0.0 1.348778303656578e-07 0.0 0.010000151856191311 0.009990033918479987 0.0 4.002958245748206e-08 0.0 0.01 0.0 4.002958245747528e-08 0.0 0.010000255860059978 0.009990029930198353 0.0 7.686956835667943e-09 0.0 0.01 0.0 7.68695683566879e-09 0.0 0.010000291512755333 0.009987336852936787 0.0 1.3116511600429204e-06 0.0 0.01 0.0 1.3116511600429204e-06 0.0 0.009999174860697081 0.009987540943781186 0.0 8.959935049817312e-07 0.0 0.01 0.0 8.959935049818396e-07 0.0 0.009999566148870619 0.009988037033778827 0.0 4.654636975962739e-07 0.0 0.01 0.0 4.654636975962739e-07 0.0 0.00999999153256121 0.009988440579268183 0.0 1.8770119017451695e-07 0.0 0.01 0.0 1.8770119017451695e-07 0.0 0.01000027396655077 0.009988678755139152 0.0 5.702544303867014e-08 0.0 0.01 0.0 5.702544303867014e-08 0.0 0.010000403824948342 0.009988795359787693 0.0 1.1644356976354115e-08 0.0 0.01 0.0 1.1644356976354115e-08 0.0 0.010000427277403703 0.009985030508526489 0.0 1.4767280996468013e-06 0.0 0.01 0.0 1.4767280996468013e-06 0.0 0.009999036966979936 0.009985525139944202 0.0 1.0011680340751925e-06 0.0 0.01 0.0 1.0011680340751925e-06 0.0 0.009999514685992552 0.009986289289258847 0.0 5.160002953410558e-07 0.0 0.01 0.0 5.160002953410558e-07 0.0 0.010000114791986906 0.00998687688415133 0.0 2.070306230463417e-07 0.0 0.01 0.0 2.070306230463146e-07 0.0 0.010000501994236861 0.009987245443969702 0.0 6.317314729015514e-08 0.0 0.01 0.0 6.317314729015514e-08 0.0 0.010000649013776907 0.009987448171896656 0.0 1.3091043858439667e-08 0.0 0.01 0.0 1.3091043858437973e-08 0.0 0.010000652413866771 0.009983543992111864 0.0 1.370038794986858e-06 0.0 0.01 0.0 1.3700387949869665e-06 0.0 0.010000458313641295 0.009984010553960561 0.0 9.024486853905986e-07 0.0 0.01 0.0 9.024486853905986e-07 0.0 0.010000204728703232 0.00998475546174161 0.0 4.563173328769052e-07 0.0 0.01 0.0 4.563173328769052e-07 0.0 0.010000527423016355 0.009985358722845016 0.0 1.8054965634863615e-07 0.0 0.01 0.0 1.8054965634863615e-07 0.0 0.01000088782311862 0.009985755992109704 0.0 5.4224460414031026e-08 0.0 0.01 0.0 5.422446041402425e-08 0.0 0.010001010903710054 0.009985996967766461 0.0 1.0858383677520151e-08 0.0 0.01 0.0 1.0858383677520151e-08 0.0 0.010000977193235047 0.00998235047981547 0.0 9.768834532856508e-07 0.0 0.01 0.0 9.768834532856508e-07 0.0 0.01000217420226748 0.009982753778922717 0.0 6.378034356632691e-07 0.0 0.01 0.0 6.378034356632691e-07 0.0 0.01000149989852201 0.009983349195074265 0.0 3.172062837809408e-07 0.0 0.01 0.0 3.172062837809679e-07 0.0 0.010001320576663584 0.009983848716284377 0.0 1.2231264269670788e-07 0.0 0.01 0.0 1.2231264269670788e-07 0.0 0.010001453419050673 0.009984201020376237 0.0 3.510979491961144e-08 0.0 0.01 0.0 3.510979491960805e-08 0.0 0.010001479828604328 0.00998444088837882 0.0 6.3219672604571335e-09 0.0 0.01 0.0 6.321967260457557e-09 0.0 0.010001383086892503 0.009981183286385241 0.0 5.311728065937268e-07 0.0 0.01 0.0 5.311728065937268e-07 0.0 0.010003273599157479 0.009981503960243446 0.0 3.444241588227521e-07 0.0 0.01 0.0 3.444241588227521e-07 0.0 0.010002626051885904 0.00998192214402652 0.0 1.6828683540975593e-07 0.0 0.01 0.0 1.6828683540972883e-07 0.0 0.010002202381614953 0.009982281702781433 0.0 6.188965003882347e-08 0.0 0.01 0.0 6.188965003882347e-08 0.0 0.010002097360229105 0.009982557243870994 0.0 1.6048508622680736e-08 0.0 0.01 0.0 1.6048508622680736e-08 0.0 0.010001996697899909 0.009982768640510715 0.0 2.2473133555632065e-09 0.0 0.01 0.0 2.2473133555632065e-09 0.0 0.010001832553615616 0.009979915179645726 0.0 2.1844106291878974e-07 0.0 0.01 0.0 2.184410629188033e-07 0.0 0.010003829856216185 0.009980127895326709 0.0 1.3880720674767634e-07 0.0 0.01 0.0 1.3880720674768312e-07 0.0 0.010003358143707489 0.009980374426648947 0.0 6.448833155754514e-08 0.0 0.01 0.0 6.448833155754514e-08 0.0 0.010002927085297823 0.00998060208825118 0.0 2.1369971357442755e-08 0.0 0.01 0.0 2.1369971357442755e-08 0.0 0.010002688583952618 0.009980796955506407 0.0 4.373997236926046e-09 0.0 0.01 0.0 4.37399723692647e-09 0.0 0.010002496534594518 0.009980971450979502 0.0 2.967470863404784e-10 0.0 0.01 0.0 2.967470863404784e-10 0.0 0.010002291787602903 0.009978443901283838 0.0 6.341731387310347e-08 0.0 0.01 0.0 6.341731387310686e-08 0.0 0.010004100170936711 0.009978541269931132 0.0 3.733378494367453e-08 0.0 0.01 0.0 3.7333784943669447e-08 0.0 0.010003782895672234 0.00997865503617577 0.0 1.5211036880741564e-08 0.0 0.01 0.0 1.5211036880741564e-08 0.0 0.01000342951346278 0.00997877625879283 0.0 3.786419209488443e-09 0.0 0.01 0.0 3.786419209488231e-09 0.0 0.010003172408990672 0.009978900466907416 0.0 3.1897754863172386e-10 0.0 0.01 0.0 3.1897754863172386e-10 0.0 0.010002952457035856 0.009979034616883159 0.0 -5.632351517745021e-11 0.0 0.01 0.0 -5.63235151774469e-11 0.0 0.010002732069222623 0.00997671210227003 0.0 9.225259857149159e-09 0.0 0.01 0.0 9.225259857149159e-09 0.0 0.010004262023191489 0.00997672054302482 0.0 4.310471645783932e-09 0.0 0.01 0.0 4.310471645783932e-09 0.0 0.010004045403472763 0.009976742886326424 0.0 9.688186997129952e-10 0.0 0.01 0.0 9.688186997129952e-10 0.0 0.010003782394895069 0.00997678558728087 0.0 -1.5025099107472314e-10 0.0 0.01 0.0 -1.5025099107472975e-10 0.0 0.010003566356928468 0.00997685013627632 0.0 -1.4209030433902178e-10 0.0 0.01 0.0 -1.4209030433902178e-10 0.0 0.010003362545246518 0.009976942493171593 0.0 -4.943601012576867e-11 0.0 0.01 0.0 -4.9436010125765364e-11 0.0 0.01000315434185342 0.009974720184495888 0.0 -1.7907881694651848e-10 0.0 0.01 0.0 -1.7907881694653172e-10 0.0 0.010004448766969157 0.009974665104797921 0.0 -5.300561653303593e-10 0.0 0.01 0.0 -5.300561653303593e-10 0.0 0.010004285953836319 0.009974621438658739 0.0 -4.814816399974624e-10 0.0 0.01 0.0 -4.814816399974888e-10 0.0 0.010004091359514414 0.009974599109604599 0.0 -2.9395380199356253e-10 0.0 0.01 0.0 -2.9395380199356253e-10 0.0 0.010003931517309488 0.009974612507019066 0.0 -1.3520526418410036e-10 0.0 0.01 0.0 -1.3520526418409375e-10 0.0 0.010003752110694231 0.009974663119960932 0.0 -4.468895927544158e-11 0.0 0.01 0.0 -4.468895927544158e-11 0.0 0.01000355609597379 0.009972451259562722 0.0 -3.8050078570432874e-10 0.0 0.01 0.0 -3.8050078570432874e-10 0.0 0.01000471818709402 0.009972344647273982 0.0 -6.249536592552808e-10 0.0 0.01 0.0 -6.249536592553073e-10 0.0 0.01000457393622122 0.009972248451213079 0.0 -5.207575826416982e-10 0.0 0.01 0.0 -5.207575826417247e-10 0.0 0.010004418927313023 0.009972180520620311 0.0 -3.083777456085567e-10 0.0 0.01 0.0 -3.083777456085567e-10 0.0 0.01000430112335881 0.0099721527537704 0.0 -1.3613047846084445e-10 0.0 0.01 0.0 -1.3613047846085107e-10 0.0 0.010004140770477806 0.009972173083048472 0.0 -4.164020140330274e-11 0.0 0.01 0.0 -4.164020140330274e-11 0.0 0.010003957447970195 0.009969852381914779 0.0 -4.4658727379727377e-10 0.0 0.01 0.0 -4.465872737972473e-10 0.0 0.01000508197134162 0.009969718106437334 0.0 -7.154195132198846e-10 0.0 0.01 0.0 -7.154195132198581e-10 0.0 0.010004935801917712 0.009969590772712377 0.0 -5.825955708542674e-10 0.0 0.01 0.0 -5.825955708542674e-10 0.0 0.010004797400050218 0.009969495647199076 0.0 -3.357298220513716e-10 0.0 0.01 0.0 -3.357298220513716e-10 0.0 0.010004699110171416 0.00996944560830844 0.0 -1.4162826580095328e-10 0.0 0.01 0.0 -1.4162826580095328e-10 0.0 0.010004548000766273 0.009969454030643237 0.0 -3.898853984065544e-11 0.0 0.01 0.0 -3.898853984065544e-11 0.0 0.010004363704626752 0.009966883732458938 0.0 -5.02938922254583e-10 0.0 0.01 0.0 -5.029389222545565e-10 0.0 0.010005524574769019 0.009966744626604507 0.0 -8.199610246780874e-10 0.0 0.01 0.0 -8.199610246781139e-10 0.0 0.010005374930378052 0.009966618891804654 0.0 -6.593736804535512e-10 0.0 0.01 0.0 -6.593736804535247e-10 0.0 0.010005235058007374 0.009966522366348603 0.0 -3.713787465462575e-10 0.0 0.01 0.0 -3.713787465462443e-10 0.0 0.01000513675522911 0.009966480787016396 0.0 -1.5004464551424572e-10 0.0 0.01 0.0 -1.5004464551424572e-10 0.0 0.010004975410745052 0.009966496626700624 0.0 -3.6902769686653934e-11 0.0 0.01 0.0 -3.690276968665559e-11 0.0 0.010004782728987744 0.009963519103831479 0.0 -5.283779009147058e-10 0.0 0.01 0.0 -5.283779009147322e-10 0.0 0.010006057249098562 0.00996340783243966 0.0 -9.314441139250772e-10 0.0 0.01 0.0 -9.314441139250772e-10 0.0 0.01000589385654012 0.009963316839938863 0.0 -7.492652531112165e-10 0.0 0.01 0.0 -7.49265253111243e-10 0.0 0.010005730972845676 0.009963259476382628 0.0 -4.1629929261886854e-10 0.0 0.01 0.0 -4.1629929261886854e-10 0.0 0.010005604808562973 0.00996325453129484 0.0 -1.6361442853471045e-10 0.0 0.01 0.0 -1.6361442853472368e-10 0.0 0.010005419953201748 0.009963307444116037 0.0 -3.8051504919438266e-11 0.0 0.01 0.0 -3.805150491943661e-11 0.0 0.010005207665143663 0.009959751798229595 0.0 -5.036242177081817e-10 0.0 0.01 0.0 -5.036242177081949e-10 0.0 0.01000667222184589 0.009959719195245442 0.0 -1.0523862893326896e-09 0.0 0.01 0.0 -1.052386289332663e-09 0.0 0.010006474031540282 0.009959705363773027 0.0 -8.60535304283038e-10 0.0 0.01 0.0 -8.60535304283038e-10 0.0 0.010006250004504549 0.0099597315448229 0.0 -4.79059584434062e-10 0.0 0.01 0.0 -4.79059584434062e-10 0.0 0.010006080741819854 0.009959804161268314 0.0 -1.8958826097683792e-10 0.0 0.01 0.0 -1.8958826097683792e-10 0.0 0.010005865506592144 0.009959928650298756 0.0 -4.768104556934592e-11 0.0 0.01 0.0 -4.768104556934592e-11 0.0 0.010005627296408305 0.009955663116707968 0.0 -4.195731716314664e-10 0.0 0.01 0.0 -4.195731716314664e-10 0.0 0.010007353803818276 0.009955762287350902 0.0 -1.2006415882036933e-09 0.0 0.01 0.0 -1.2006415882037198e-09 0.0 0.010007071443731736 0.009955886624880997 0.0 -1.0158744482164905e-09 0.0 0.01 0.0 -1.0158744482164905e-09 0.0 0.010006744617348568 0.009956046987701054 0.0 -5.776656678448703e-10 0.0 0.01 0.0 -5.776656678448836e-10 0.0 0.010006534248886104 0.009956243381033465 0.0 -2.3993591917717524e-10 0.0 0.01 0.0 -2.3993591917717524e-10 0.0 0.01000629548999286 0.009956470382781716 0.0 -7.320155569024222e-11 0.0 0.01 0.0 -7.320155569024057e-11 0.0 0.010006039667234123 0.009951493232532737 0.0 -2.836336457102456e-10 0.0 0.01 0.0 -2.836336457102456e-10 0.0 0.010008053167591232 0.009951781509203343 0.0 -1.4164894659977613e-09 0.0 0.01 0.0 -1.4164894659977613e-09 0.0 0.010007621003109477 0.009952098888902736 0.0 -1.2585133266226064e-09 0.0 0.01 0.0 -1.25851332662258e-09 0.0 0.010007155122046273 0.00995244143677865 0.0 -7.420556958819116e-10 0.0 0.01 0.0 -7.420556958819116e-10 0.0 0.010006945729778543 0.009952802752218758 0.0 -3.308051440078686e-10 0.0 0.01 0.0 -3.308051440078554e-10 0.0 0.01000671671107587 0.009953159176942561 0.0 -1.223245209610531e-10 0.0 0.01 0.0 -1.223245209610531e-10 0.0 0.010006449584209109 0.009947708045874066 0.0 -1.2859765746684258e-10 0.0 0.01 0.0 -1.2859765746684258e-10 0.0 0.010008697834703345 0.009948222431793306 0.0 -1.7701893041662418e-09 0.0 0.01 0.0 -1.7701893041661889e-09 0.0 0.01000804925816419 0.0099487713621865 0.0 -1.6659497996398757e-09 0.0 0.01 0.0 -1.6659497996399287e-09 0.0 0.01000745803505452 0.009949325800263515 0.0 -1.0241960682205822e-09 0.0 0.01 0.0 -1.0241960682205822e-09 0.0 0.010007348442011184 0.009949868510595409 0.0 -4.834927455296703e-10 0.0 0.01 0.0 -4.834927455296703e-10 0.0 0.01000717175774556 0.009950367468768848 0.0 -1.9826004892614142e-10 0.0 0.01 0.0 -1.9826004892614142e-10 0.0 0.01000691586777417 0.009945048786971791 0.0 -6.588687552041934e-12 0.0 0.01 0.0 -6.588687552042348e-12 0.0 0.010009190855263523 0.00994578116183178 0.0 -2.3563962033145147e-09 0.0 0.01 0.0 -2.3563962033145147e-09 0.0 0.01000829886926628 0.00994654666401229 0.0 -2.362192697716113e-09 0.0 0.01 0.0 -2.36219269771606e-09 0.0 0.010007689510201253 0.009947300039538311 0.0 -1.5138198827852564e-09 0.0 0.01 0.0 -1.5138198827853094e-09 0.0 0.01000784762813395 0.009948002392834925 0.0 -7.342462636890633e-10 0.0 0.01 0.0 -7.342462636890633e-10 0.0 0.010007788890581204 0.009948624643640928 0.0 -2.9801947057576784e-10 0.0 0.01 0.0 -2.9801947057577446e-10 0.0 0.010007540770916142 0.009944542760793046 0.0 9.48560447059624e-12 0.0 0.01 0.0 9.48560447059624e-12 0.0 0.010009476854613676 0.00994540683855043 0.0 -3.274184799690462e-09 0.0 0.01 0.0 -3.274184799690462e-09 0.0 0.01000841440843936 0.009946295248882332 0.0 -3.503833432674679e-09 0.0 0.01 0.0 -3.503833432674785e-09 0.0 0.010007996381102563 0.009947143543795693 0.0 -2.3339694340405863e-09 0.0 0.01 0.0 -2.3339694340405863e-09 0.0 0.010008621486702856 0.009947920189632857 0.0 -1.139500055727947e-09 0.0 0.01 0.0 -1.1395000557279206e-09 0.0 0.010008739944657365 0.009948588211182783 0.0 -4.18698053526065e-10 0.0 0.01 0.0 -4.1869805352605176e-10 0.0 0.010008498621722206 0.009947601732993515 0.0 -2.689387491793741e-10 0.0 0.01 0.0 -2.689387491793741e-10 0.0 0.010009643832609513 0.009948393255103575 0.0 -4.703665920896645e-09 0.0 0.01 0.0 -4.703665920896645e-09 0.0 0.010008597976083751 0.009949176595115062 0.0 -5.299863104455369e-09 0.0 0.01 0.0 -5.299863104455369e-09 0.0 0.01000862835444578 0.009949896584237072 0.0 -3.612894742692815e-09 0.0 0.01 0.0 -3.612894742692603e-09 0.0 0.010009868087679894 0.009950541358306975 0.0 -1.7367955924969874e-09 0.0 0.01 0.0 -1.7367955924969345e-09 0.0 0.010010209463716701 0.00995109707777554 0.0 -5.468502944146864e-10 0.0 0.01 0.0 -5.468502944146996e-10 0.0 0.010009971946149089 0.009956012940792961 0.0 -1.1133731253243425e-09 0.0 0.01 0.0 -1.113373125324316e-09 0.0 0.01001010073313716 0.009956420046279106 0.0 -7.033555548083848e-09 0.0 0.01 0.0 -7.033555548083848e-09 0.0 0.010009326982689689 0.009956766495364151 0.0 -8.139771233675143e-09 0.0 0.01 0.0 -8.139771233675567e-09 0.0 0.010009918537125748 0.009957024628370658 0.0 -5.5865642929812475e-09 0.0 0.01 0.0 -5.586564292981459e-09 0.0 0.010011657051397083 0.009957224041225963 0.0 -2.5957319101366462e-09 0.0 0.01 0.0 -2.5957319101365933e-09 0.0 0.010012257851459679 0.009957399277760771 0.0 -6.576056767819468e-10 0.0 0.01 0.0 -6.576056767819468e-10 0.0 0.010012066705721492 0.0099716415876723 0.0 -2.608806737755167e-09 0.0 0.01 0.0 -2.608806737755167e-09 0.0 0.010011832969789214 0.009971319856129344 0.0 -1.0532240877386163e-08 0.0 0.01 0.0 -1.0532240877386163e-08 0.0 0.010011482145734604 0.009970886633563781 0.0 -1.2297884764964585e-08 0.0 0.01 0.0 -1.2297884764964585e-08 0.0 0.010012034389195582 0.009970344441388002 0.0 -8.5845905768303e-09 0.0 0.01 0.0 -8.584590576830723e-09 0.0 0.010013885316865156 0.009969769140391507 0.0 -3.947556575753183e-09 0.0 0.01 0.0 -3.947556575753183e-09 0.0 0.010014791051684966 0.009969266267187275 0.0 -8.482426156609079e-10 0.0 0.01 0.0 -8.482426156609344e-10 0.0 0.010014746404450735 0.009995676805121378 0.0 -4.001330427615097e-09 0.0 0.01 0.0 -4.001330427615097e-09 0.0 0.01001582362900336 0.009994366264455452 0.0 -1.4222224629245475e-08 0.0 0.01 0.0 -1.4222224629245475e-08 0.0 0.010015721547524186 0.00999291703242235 0.0 -1.727810825371477e-08 0.0 0.01 0.0 -1.7278108253713922e-08 0.0 0.010015745610762376 0.009991366693005758 0.0 -1.2624951030884598e-08 0.0 0.01 0.0 -1.2624951030885445e-08 0.0 0.010016622404004707 0.00998982754291756 0.0 -6.111124370598455e-09 0.0 0.01 0.0 -6.111124370598455e-09 0.0 0.010017554415678457 0.009988447549746537 0.0 -1.4664907102799002e-09 0.0 0.01 0.0 -1.4664907102799002e-09 0.0 0.010017806749376239 0.010027540606402366 0.0 -3.118269596612856e-09 0.0 0.01 0.0 -3.118269596612856e-09 0.0 0.01002103790327131 0.010025216158565931 0.0 -1.567633192365843e-08 0.0 0.01 0.0 -1.567633192365843e-08 0.0 0.010021218694423854 0.010022759614957348 0.0 -2.1237890809473726e-08 0.0 0.01 0.0 -2.1237890809473726e-08 0.0 0.010020905222066336 0.01002025225742044 0.0 -1.6833197157353763e-08 0.0 0.01 0.0 -1.6833197156920082e-08 0.0 0.010020198733968212 0.01001781604890288 0.0 -9.045317246428352e-09 0.0 0.01 0.0 -9.045317246428352e-09 0.0 0.010020409009577297 0.010015624944691362 0.0 -2.9260050074867133e-09 0.0 0.01 0.0 -2.9260050074884073e-09 0.0 0.010020906681113235 0.010063840529403888 0.0 -9.800189951299665e-12 0.0 0.01 0.0 -9.800189951299665e-12 0.0 0.010024345920846865 0.01006089851146249 0.0 -1.2165477017850465e-08 0.0 0.01 0.0 -1.2165477017850465e-08 0.0 0.010024817682861996 0.010057809962552735 0.0 -2.1124835653880725e-08 0.0 0.01 0.0 -2.112483565387903e-08 0.0 0.010024932787627732 0.010054758004470378 0.0 -1.9015690687392757e-08 0.0 0.01 0.0 -1.901569068739191e-08 0.0 0.010023714943881481 0.010051858118452049 0.0 -1.1646984935833545e-08 0.0 0.01 0.0 -1.1646984935833545e-08 0.0 0.01002305407924933 0.010049243210493436 0.0 -4.990554226093202e-09 0.0 0.01 0.0 -4.990554226093202e-09 0.0 0.01002367022749777 0.010098103695492619 0.0 -1.00396417733032e-08 0.0 0.01 0.0 -1.0039641773302988e-08 0.0 0.010024815718301064 0.010095479651458508 0.0 -8.702574626578473e-09 0.0 0.01 0.0 -8.702574626578473e-09 0.0 0.01002560092661755 0.010092636254345878 0.0 -1.6253634618505897e-08 0.0 0.01 0.0 -1.625363461850632e-08 0.0 0.010026836645605526 0.010089868959449362 0.0 -1.736711509371474e-08 0.0 0.01 0.0 -1.736711509371474e-08 0.0 0.010026297219082393 0.01008727437087288 0.0 -1.2081743593165959e-08 0.0 0.01 0.0 -1.2081743593165959e-08 0.0 0.0100253524370573 0.010084916658101479 0.0 -6.31378615607268e-09 0.0 0.01 0.0 -6.31378615607268e-09 0.0 0.010025876443137386 0.010122473527637179 0.0 -1.700057391481408e-08 0.0 0.01 0.0 -1.700057391481408e-08 0.0 0.010023822154724473 0.010121410675059981 0.0 -2.0110471744565255e-08 0.0 0.01 0.0 -2.0110471744565678e-08 0.0 0.01002448171061363 0.010120073329599882 0.0 -1.645940580021086e-08 0.0 0.01 0.0 -1.6459405800211072e-08 0.0 0.01002664864535046 0.010118677356434038 0.0 -1.3402552142153828e-08 0.0 0.01 0.0 -1.3402552142153828e-08 0.0 0.010027298374743993 0.010117330478950436 0.0 -9.551176599177561e-09 0.0 0.01 0.0 -9.551176599177561e-09 0.0 0.010026815476121873 0.010116008932308658 0.0 -5.550327537007892e-09 0.0 0.01 0.0 -5.550327537007892e-09 0.0 0.010027439678605025 0.010132757813789417 0.0 -8.547037237774489e-10 0.0 0.01 0.0 -8.547037237774356e-10 0.0 0.010023222241135311 0.010133639268458193 0.0 -1.334063103599281e-08 0.0 0.01 0.0 -1.3340631035993022e-08 0.0 0.010023007861387942 0.010134517414109626 0.0 -1.2842228872033743e-08 0.0 0.01 0.0 -1.2842228872033532e-08 0.0 0.010024492539742717 0.010135276836368388 0.0 -9.155794244854673e-09 0.0 0.01 0.0 -9.155794244854673e-09 0.0 0.010025929100222401 0.010135815770571845 0.0 -5.743157894207879e-09 0.0 0.01 0.0 -5.743157894207879e-09 0.0 0.01002660479691054 0.010136020184062598 0.0 -3.227764051542271e-09 0.0 0.01 0.0 -3.227764051542324e-09 0.0 0.01002797142391299 0.010131224049585417 0.0 9.906022788858655e-09 0.0 0.01 0.0 9.906022788858549e-09 0.0 0.010023944628044904 0.010133697752341327 0.0 -1.5047496581232409e-09 0.0 0.01 0.0 -1.5047496581232673e-09 0.0 0.010022574260155435 0.010136423424117738 0.0 -4.158384660429385e-09 0.0 0.01 0.0 -4.158384660429279e-09 0.0 0.010023136699038628 0.01013905665430958 0.0 -3.240969683800582e-09 0.0 0.01 0.0 -3.240969683800529e-09 0.0 0.010024922460719121 0.010141297716275113 0.0 -1.9183041903489715e-09 0.0 0.01 0.0 -1.9183041903489715e-09 0.0 0.01002642567962758 0.010142930861087637 0.0 -9.983273171380575e-10 0.0 0.01 0.0 -9.983273171380443e-10 0.0 0.010028268364873782 0.010123761190173056 0.0 5.795320605198241e-09 0.0 0.01 0.0 5.795320605198347e-09 0.0 0.010025235806478678 0.01012723947829801 0.0 1.6118772270955206e-09 0.0 0.01 0.0 1.6118772270954941e-09 0.0 0.010023267001823677 0.010131074777224866 0.0 -1.2364125132457898e-11 0.0 0.01 0.0 -1.2364125132457898e-11 0.0 0.010023486282474976 0.010134827981026096 0.0 -2.3995922733648065e-10 0.0 0.01 0.0 -2.3995922733648065e-10 0.0 0.010024857981634867 0.010138115223931297 0.0 -1.0429034604431433e-10 0.0 0.01 0.0 -1.0429034604431433e-10 0.0 0.010026623041804211 0.010140637254544426 0.0 8.045730732697553e-12 0.0 0.01 0.0 8.045730732697656e-12 0.0 0.010028596800499893 0.010116019025596976 0.0 -5.08952950188644e-11 0.0 0.01 0.0 -5.089529501886523e-11 0.0 0.010026427645127529 0.010119906360588309 0.0 9.131166651789342e-11 0.0 0.01 0.0 9.131166651789342e-11 0.0 0.010024283467493025 0.010124121927527433 0.0 9.678714141341355e-11 0.0 0.01 0.0 9.678714141341355e-11 0.0 0.010024530416886142 0.010128229102404362 0.0 7.803099848766806e-11 0.0 0.01 0.0 7.80309984876664e-11 0.0 0.010025576288433194 0.010131824273150368 0.0 7.678326916219726e-11 0.0 0.01 0.0 7.678326916219643e-11 0.0 0.010027147751255181 0.010134578931864913 0.0 8.20170600097589e-11 0.0 0.01 0.0 8.201706000976055e-11 0.0 0.010028988363347638 0.010110887819524893 0.0 1.7787297164526691e-10 0.0 0.01 0.0 1.7787297164527022e-10 0.0 0.01002713938348408 0.010114691939137648 0.0 -4.355063250595801e-10 0.0 0.01 0.0 -4.355063250595801e-10 0.0 0.010025030163710175 0.010118727966725706 0.0 -5.237820279485753e-10 0.0 0.01 0.0 -5.237820279485753e-10 0.0 0.01002549511978587 0.010122599652727852 0.0 -4.019184056537461e-10 0.0 0.01 0.0 -4.019184056537461e-10 0.0 0.01002657430496335 0.010125912020777103 0.0 -2.513522729001055e-10 0.0 0.01 0.0 -2.513522729001022e-10 0.0 0.010027764150650964 0.010128338195399555 0.0 -1.119527592849703e-10 0.0 0.01 0.0 -1.1195275928496864e-10 0.0 0.010029310514157808 0.010108014759626732 0.0 2.373869907346557e-09 0.0 0.01 0.0 2.373869907346557e-09 0.0 0.01002690554804092 0.0101113825026181 0.0 -6.158446628890568e-10 0.0 0.01 0.0 -6.158446628890568e-10 0.0 0.010024988351565595 0.010114873345109712 0.0 -1.3138556817264054e-09 0.0 0.01 0.0 -1.3138556817264319e-09 0.0 0.010025725883737365 0.01011813006753271 0.0 -1.0704363003030797e-09 0.0 0.01 0.0 -1.0704363003031062e-09 0.0 0.010027051271118068 0.010120771817916797 0.0 -6.447878198367692e-10 0.0 0.01 0.0 -6.447878198367559e-10 0.0 0.010028047761792714 0.010122499872421411 0.0 -2.8908162657519187e-10 0.0 0.01 0.0 -2.890816265751985e-10 0.0 0.010029394701159416 0.010105019189646038 0.0 1.6630011664151702e-09 0.0 0.01 0.0 1.6630011664151967e-09 0.0 0.010025966993664561 0.010107716254814093 0.0 -2.473210105087294e-09 0.0 0.01 0.0 -2.473210105087294e-09 0.0 0.010024329703009812 0.010110430621392023 0.0 -3.0047330420863974e-09 0.0 0.01 0.0 -3.0047330420863974e-09 0.0 0.01002533127697834 0.010112827479783655 0.0 -2.2082960619288327e-09 0.0 0.01 0.0 -2.2082960619288857e-09 0.0 0.010026887856048442 0.01011456155639049 0.0 -1.2035715056516911e-09 0.0 0.01 0.0 -1.2035715056516911e-09 0.0 0.010027854248151648 0.010115379170579768 0.0 -4.679169963272764e-10 0.0 0.01 0.0 -4.679169963272697e-10 0.0 0.010029139574156682 0.010099452488002586 0.0 -2.391528053368417e-09 0.0 0.01 0.0 -2.391528053368364e-09 0.0 0.010024750284192446 0.010101309558111511 0.0 -6.088567014048637e-09 0.0 0.01 0.0 -6.088567014048637e-09 0.0 0.010023443029428383 0.010103044779354116 0.0 -5.669120109863569e-09 0.0 0.01 0.0 -5.669120109863569e-09 0.0 0.010024563358287452 0.010104377860339573 0.0 -3.907979569631683e-09 0.0 0.01 0.0 -3.907979569631683e-09 0.0 0.010026233721317522 0.010105015165481264 0.0 -2.006004496425218e-09 0.0 0.01 0.0 -2.006004496425218e-09 0.0 0.010027238840336215 0.010104794978757218 0.0 -6.838871867180587e-10 0.0 0.01 0.0 -6.838871867180719e-10 0.0 0.01002853179663017 0.010090363543000297 0.0 -7.699854977772955e-09 0.0 0.01 0.0 -7.699854977773167e-09 0.0 0.010023564985340844 0.01009118485930805 0.0 -1.029910320460394e-08 0.0 0.01 0.0 -1.0299103204604152e-08 0.0 0.010022632755041163 0.010091732309382035 0.0 -8.554162920261239e-09 0.0 0.01 0.0 -8.554162920261239e-09 0.0 0.01002362153370976 0.010091772958040087 0.0 -5.702106577475744e-09 0.0 0.01 0.0 -5.702106577475744e-09 0.0 0.010025193991760821 0.010091128135939346 0.0 -2.7815112037730498e-09 0.0 0.01 0.0 -2.781511203772997e-09 0.0 0.01002627902631407 0.010089763672672338 0.0 -8.338292730576484e-10 0.0 0.01 0.0 -8.338292730576748e-10 0.0 0.010027636596507261 0.010078623164617589 0.0 -1.1766532487208453e-08 0.0 0.01 0.0 -1.1766532487208876e-08 0.0 0.010022513299744025 0.010078222279083334 0.0 -1.3682304048415709e-08 0.0 0.01 0.0 -1.3682304048415709e-08 0.0 0.010021945077198889 0.010077369174526759 0.0 -1.064855025847262e-08 0.0 0.01 0.0 -1.064855025847262e-08 0.0 0.010022504943566334 0.01007591090338102 0.0 -6.718922711818858e-09 0.0 0.01 0.0 -6.718922711818858e-09 0.0 0.01002388167859246 0.010073832663341732 0.0 -3.0369720255735992e-09 0.0 0.01 0.0 -3.0369720255735992e-09 0.0 0.010025055755017154 0.01007127437798383 0.0 -7.630394297635542e-10 0.0 0.01 0.0 -7.630394297635277e-10 0.0 0.010026529499952837 0.01006611928015914 0.0 -1.2983124630523601e-08 0.0 0.01 0.0 -1.2983124630523178e-08 0.0 0.010021496365953028 0.010064373142742453 0.0 -1.544794643887949e-08 0.0 0.01 0.0 -1.544794643887949e-08 0.0 0.010021242797289599 0.01006200210887035 0.0 -1.1105479699786285e-08 0.0 0.01 0.0 -1.1105479699786285e-08 0.0 0.01002136074783933 0.010058982618492847 0.0 -6.356512096563091e-09 0.0 0.01 0.0 -6.356512096563303e-09 0.0 0.010022350106426978 0.01005549170541048 0.0 -2.612736774540923e-09 0.0 0.01 0.0 -2.612736774540923e-09 0.0 0.010023767063283425 0.010051869036560778 0.0 -5.043795218107966e-10 0.0 0.01 0.0 -5.043795218107966e-10 0.0 0.01002529439833796 0.010054675159280472 0.0 -1.0999338318050191e-08 0.0 0.01 0.0 -1.0999338318049768e-08 0.0 0.010020337272913162 0.010051602745995336 0.0 -2.1639626382487356e-08 0.0 0.01 0.0 -2.163962638248651e-08 0.0 0.010020379026940252 0.010047768304650585 0.0 -1.5070328296702103e-08 0.0 0.01 0.0 -1.5070328296702103e-08 0.0 0.010020071015577921 0.010043326814020571 0.0 -7.053557971033369e-09 0.0 0.01 0.0 -7.053557971033369e-09 0.0 0.010021026582144063 0.010038664996789267 0.0 -2.02476158966503e-09 0.0 0.01 0.0 -2.024761589665242e-09 0.0 0.010022539828197995 0.010034233591847682 0.0 -2.3673531307520496e-10 0.0 0.01 0.0 -2.367353130751785e-10 0.0 0.010023960340396779 0.010045182332095792 0.0 -6.60601152579905e-09 0.0 0.01 0.0 -6.606011525798627e-09 0.0 0.01001891779737741 0.010041019061511154 0.0 -4.507042379733135e-08 0.0 0.01 0.0 -4.507042379733135e-08 0.0 0.010019101943872575 0.010035996635153388 0.0 -3.396768284931855e-08 0.0 0.01 0.0 -3.396768284931516e-08 0.0 0.010018629580349332 0.010030474692179199 0.0 -1.6906788747227325e-08 0.0 0.01 0.0 -1.6906788747227325e-08 0.0 0.01001994330208864 0.010025012985407143 0.0 -4.370189857875475e-09 0.0 0.01 0.0 -4.370189857875475e-09 0.0 0.01002124279725694 0.010020099486410571 0.0 -2.274361532050852e-10 0.0 0.01 0.0 -2.2743615320497932e-10 0.0 0.01002252658910343 0.010037529568033162 0.0 7.661743205136319e-09 0.0 0.01 0.0 7.661743205136319e-09 0.0 0.010017169618364123 0.010032706158069742 0.0 -8.27058976023918e-08 0.0 0.01 0.0 -8.27058976023918e-08 0.0 0.01001740518687058 0.01002692182942389 0.0 -6.514641097631307e-08 0.0 0.01 0.0 -6.514641097629952e-08 0.0 0.010017210830793492 0.010020755842554083 0.0 -3.4357503201406375e-08 0.0 0.01 0.0 -3.435750320137927e-08 0.0 0.010018794050167848 0.010014941621224219 0.0 -7.357741424108595e-09 0.0 0.01 0.0 -7.357741424106901e-09 0.0 0.010019829324773157 0.01000991999143509 0.0 1.0773960283506535e-09 0.0 0.01 0.0 1.0773960283508652e-09 0.0 0.010020997097054396 0.010031183810565086 0.0 3.53131728979187e-08 0.0 0.01 0.0 3.531317289791531e-08 0.0 0.01001513438844293 0.010026116607754432 0.0 -9.300118066678459e-08 0.0 0.01 0.0 -9.300118066678459e-08 0.0 0.010015363936474933 0.010019917247799064 0.0 -7.838260946565708e-08 0.0 0.01 0.0 -7.838260946568419e-08 0.0 0.010015957566395877 0.010013582322061074 0.0 -3.361013955739895e-08 0.0 0.01 0.0 -3.361013955739895e-08 0.0 0.010017580904958544 0.010007894588856883 0.0 7.193932145168023e-09 0.0 0.01 0.0 7.193932145168023e-09 0.0 0.010018437114026477 0.010003138677103587 0.0 1.3600509061750617e-08 0.0 0.01 0.0 1.3600509061752311e-08 0.0 0.010019443259427894 0.010026259321878237 0.0 1.6151495300588983e-08 0.0 0.01 0.0 1.615149530058729e-08 0.0 0.010012835219244351 0.010020703266769557 0.0 3.6778116901028794e-09 0.0 0.01 0.0 3.6778116901028794e-09 0.0 0.010013471021455774 0.010014073604329295 0.0 -1.4349499727393886e-08 0.0 0.01 0.0 -1.4349499727393886e-08 0.0 0.010014951415030901 0.010008023295843473 0.0 3.3877598168599425e-08 0.0 0.01 0.0 3.3877598168599425e-08 0.0 0.01001648351673047 0.010002921680730976 0.0 7.29977893879465e-08 0.0 0.01 0.0 7.29977893879465e-08 0.0 0.010017178916895296 0.00999878722114194 0.0 5.6707984111702446e-08 0.0 0.01 0.0 5.6707984111702446e-08 0.0 0.01001794121833491 0.010023626427553497 0.0 -2.504212458611158e-07 0.0 0.01 0.0 -2.504212458611158e-07 0.0 0.010010839859292695 0.010015877088932965 0.0 2.0923185143435687e-07 0.0 0.01 0.0 2.0923185143457371e-07 0.0 0.010012593104594266 0.010008857961411112 0.0 1.9661895443089062e-07 0.0 0.01 0.0 1.9661895443089062e-07 0.0 0.010014237403702777 0.010003358648351095 0.0 2.1682127114924462e-07 0.0 0.01 0.0 2.1682127114927173e-07 0.0 0.010015670565198358 0.009999183107700572 0.0 2.2520234190339695e-07 0.0 0.01 0.0 2.2520234190339695e-07 0.0 0.010016154769913816 0.009995943473226677 0.0 1.5456592437790187e-07 0.0 0.01 0.0 1.5456592437788832e-07 0.0 0.010016604267457532 0.010021046371331397 0.0 -8.779604749474448e-07 0.0 0.01 0.0 -8.779604749474448e-07 0.0 0.010009527864758887 0.010011664953413314 0.0 4.046120912776924e-07 0.0 0.01 0.0 4.04612091276825e-07 0.0 0.010011896218823165 0.010004165243247284 0.0 5.318334340276417e-07 0.0 0.01 0.0 5.318334340277502e-07 0.0 0.010013439687562652 0.009999298615424118 0.0 5.272650055582456e-07 0.0 0.01 0.0 5.272650055581913e-07 0.0 0.010014933325692192 0.009996189214439453 0.0 4.834273910807123e-07 0.0 0.01 0.0 4.834273910807123e-07 0.0 0.010015381651565599 0.009993977461296558 0.0 3.295043054842299e-07 0.0 0.01 0.0 3.295043054842299e-07 0.0 0.010015485110409004 0.010008387505810016 0.0 3.1745795011175505e-07 0.0 0.01 0.0 3.1745795011175505e-07 0.0 0.010011107343648903 0.010000382931218958 0.0 8.540704114997667e-07 0.0 0.01 0.0 8.540704114996583e-07 0.0 0.010012333438643219 0.009996014010036731 0.0 9.152479982005215e-07 0.0 0.01 0.0 9.152479982005215e-07 0.0 0.010013941325236314 0.009993809857731288 0.0 8.379983238710051e-07 0.0 0.01 0.0 8.379983238710051e-07 0.0 0.010014650387315334 0.009992568844943884 0.0 5.967530182935049e-07 0.0 0.01 0.0 5.967530182935049e-07 0.0 0.010014596901603211 0.010006342492766794 0.0 -3.0359596152752365e-07 0.0 0.01 0.0 -3.035959615273068e-07 0.0 0.010010243281029172 0.009998383537321423 0.0 9.847197321141742e-07 0.0 0.01 0.0 9.847197321141742e-07 0.0 0.010011327964428872 0.009993923785803304 0.0 1.2734982170019282e-06 0.0 0.01 0.0 1.2734982170019282e-06 0.0 0.01001257813433462 0.009992151483797453 0.0 1.249470551390212e-06 0.0 0.01 0.0 1.2494705513903205e-06 0.0 0.010013756116201861 0.009991580284713851 0.0 9.625193948101696e-07 0.0 0.01 0.0 9.625193948101154e-07 0.0 0.010013829574371306 0.009998746294412494 0.0 6.254124227772192e-07 0.0 0.01 0.0 6.254124227772192e-07 0.0 0.010010787488927081 0.009993555051572825 0.0 1.4503912697476752e-06 0.0 0.01 0.0 1.4503912697476752e-06 0.0 0.010011355577990745 0.009991478310204223 0.0 1.6425528980455392e-06 0.0 0.01 0.0 1.6425528980455392e-06 0.0 0.010012658699689496 0.009991012928694143 0.0 1.4114954067727782e-06 0.0 0.01 0.0 1.4114954067727782e-06 0.0 0.010013101199477249 0.010000632907509676 0.0 -5.627453868904068e-07 0.0 0.01 0.0 -5.627453868902984e-07 0.0 0.010010337354437513 0.00999552072507126 0.0 1.193714032778027e-06 0.0 0.01 0.0 1.193714032778027e-06 0.0 0.010010924840025883 0.009992228083009298 0.0 1.8491994691109898e-06 0.0 0.01 0.0 1.8491994691110982e-06 0.0 0.010011519385798855 0.00999115327720973 0.0 1.8677931510366168e-06 0.0 0.01 0.0 1.8677931510365084e-06 0.0 0.01001236326199334 0.009999107619485435 0.0 1.148886675002128e-08 0.0 0.01 0.0 1.148886675002128e-08 0.0 0.010011091174894172 0.009995033565105749 0.0 1.5553963917216192e-06 0.0 0.01 0.0 1.5553963917215108e-06 0.0 0.010011096905963267 0.00999271165463368 0.0 2.1270194349623083e-06 0.0 0.01 0.0 2.1270194349620915e-06 0.0 0.01001177484159504 0.009999343572281433 0.0 2.2585221969180762e-07 0.0 0.01 0.0 2.2585221969180762e-07 0.0 0.010011336656497597 0.009996541267822893 0.0 1.775528602247561e-06 0.0 0.01 0.0 1.775528602247561e-06 0.0 0.010011758980184124 0.010000201296408261 0.0 -1.985244578682748e-06 0.0 0.01 0.0 -1.9852445786825313e-06 0.0 0.010010382937982407 0.010001038720556767 0.0 2.4158672047019524e-07 0.0 0.01 0.0 2.4158672047016813e-07 0.0 0.010012079008899675 0.00999624961086831 0.0 1.0175518067205602e-13 0.0 0.01 0.0 1.0175518067205602e-13 0.0 0.0100001367028031 0.00999612025902706 0.0 9.062230322198197e-14 0.0 0.01 0.0 9.062230322193027e-14 0.0 0.010000136702803098 0.009996042350688598 0.0 4.946484323131882e-14 0.0 0.01 0.0 4.946484323131882e-14 0.0 0.010000128902492337 0.00999599440800111 0.0 2.6942179275646834e-14 0.0 0.01 0.0 2.6942179275646834e-14 0.0 0.010000115702008011 0.009995970436916047 0.0 1.5790258469142035e-14 0.0 0.01 0.0 1.5790258469142035e-14 0.0 0.010000103501606865 0.009995959949620561 0.0 8.406414500747055e-15 0.0 0.01 0.0 8.406414500747055e-15 0.0 0.010000088851184166 0.009995956953256486 0.0 3.4417334608318595e-15 0.0 0.01 0.0 3.4417334608318595e-15 0.0 0.010000078600926707 0.009995959450226362 0.0 1.3337428779435222e-15 0.0 0.01 0.0 1.3337428779435222e-15 0.0 0.010000069800730815 0.009995961947198108 0.0 6.715666496611296e-16 0.0 0.01 0.0 6.715666496611296e-16 0.0 0.010000065900651429 0.009995604399894553 0.0 -6.892035990252892e-13 0.0 0.01 0.0 -6.892035990248756e-13 0.0 0.010000175804635983 0.009995468082603902 0.0 -3.561317008433096e-13 0.0 0.01 0.0 -3.561317008435164e-13 0.0 0.010000177754739398 0.009995385196428508 0.0 -1.6896239655759084e-13 0.0 0.01 0.0 -1.6896239655759084e-13 0.0 0.010000167504208552 0.009995338261797803 0.0 -6.237247450985478e-14 0.0 0.01 0.0 -6.237247450985478e-14 0.0 0.01000015235348167 0.009995316292623362 0.0 -1.651944226130138e-14 0.0 0.01 0.0 -1.651944226130138e-14 0.0 0.010000135252743948 0.009995307804572036 0.0 -9.665622424941716e-16 0.0 0.01 0.0 -9.665622424941716e-16 0.0 0.010000118652111716 0.009995309302461876 0.0 2.2836252690905156e-15 0.0 0.01 0.0 2.2836252690905156e-15 0.0 0.010000105451667985 0.009995312797540786 0.0 1.683856020379482e-15 0.0 0.01 0.0 1.683856020379482e-15 0.0 0.010000094751346656 0.009995316791921173 0.0 4.069891431128744e-16 0.0 0.01 0.0 4.069891431128744e-16 0.0 0.010000087401145831 0.009995083128722307 0.0 -1.2291632096373652e-12 0.0 0.01 0.0 -1.2291632096373652e-12 0.0 0.010000207056430682 0.009994949828212907 0.0 -7.096311870851358e-13 0.0 0.01 0.0 -7.096311870851358e-13 0.0 0.010000209956612084 0.00999486995031339 0.0 -3.5209289259095014e-13 0.0 0.01 0.0 -3.5209289259095014e-13 0.0 0.010000197755865952 0.009994829013632144 0.0 -1.3719744524486986e-13 0.0 0.01 0.0 -1.3719744524486986e-13 0.0 0.010000181154922452 0.009994812539256022 0.0 -4.184112594136667e-14 0.0 0.01 0.0 -4.184112594136667e-14 0.0 0.01000016310399035 0.009994809543923663 0.0 -8.619460387506035e-15 0.0 0.01 0.0 -8.619460387506035e-15 0.0 0.010000144053112635 0.00999481453614576 0.0 -4.648140218395919e-16 0.0 0.01 0.0 -4.648140218395919e-16 0.0 0.010000128902492335 0.009994823522164383 0.0 9.116691588000876e-16 0.0 0.01 0.0 9.116691588000876e-16 0.0 0.010000115702008011 0.009994828514407425 0.0 2.253667142671054e-16 0.0 0.01 0.0 2.253667142671054e-16 0.0 0.010000108401762615 0.009994606866023511 0.0 -1.1410762455149957e-12 0.0 0.01 0.0 -1.1410762455158229e-12 0.0 0.010000225107600786 0.009994480572976408 0.0 -7.893518564856553e-13 0.0 0.01 0.0 -7.893518564856553e-13 0.0 0.01000022705773305 0.009994411687877673 0.0 -4.141257151408322e-13 0.0 0.01 0.0 -4.141257151408322e-13 0.0 0.010000217307083151 0.009994380240806134 0.0 -1.6485384662442925e-13 0.0 0.01 0.0 -1.6485384662448095e-13 0.0 0.010000200706042274 0.009994373751764828 0.0 -5.194192882082296e-14 0.0 0.01 0.0 -5.194192882082296e-14 0.0 0.010000181154922448 0.009994378743333943 0.0 -1.2165797605820973e-14 0.0 0.01 0.0 -1.2165797605820973e-14 0.0 0.01000016310399035 0.009994387728177194 0.0 -1.614642268862921e-15 0.0 0.01 0.0 -1.614642268862921e-15 0.0 0.010000146503219415 0.009994397711364785 0.0 1.277488908906823e-16 0.0 0.01 0.0 1.277488908906823e-16 0.0 0.010000134752723697 0.009994408692905687 0.0 -2.9475166264775878e-18 0.0 0.01 0.0 -2.9475166264775878e-18 0.0 0.010000127452436577 0.009994100724327118 0.0 -3.55444744031609e-13 0.0 0.01 0.0 -3.55444744031609e-13 0.0 0.010000231958070436 0.0099939899224998 0.0 -5.875401432154628e-13 0.0 0.01 0.0 -5.875401432154628e-13 0.0 0.010000232908136675 0.009993932526605787 0.0 -3.6926004745533274e-13 0.0 0.01 0.0 -3.6926004745522935e-13 0.0 0.01000022605766508 0.009993912563048366 0.0 -1.6095639900151434e-13 0.0 0.01 0.0 -1.6095639900146264e-13 0.0 0.010000211906735484 0.009993914060311018 0.0 -5.2679433403716195e-14 0.0 0.01 0.0 -5.2679433403716195e-14 0.0 0.010000193855636856 0.0099939290329746 0.0 -1.3306856548798068e-14 0.0 0.01 0.0 -1.3306856548798068e-14 0.0 0.010000175304609648 0.009993943506613366 0.0 -2.3849685564264854e-15 0.0 0.01 0.0 -2.3849685564264854e-15 0.0 0.010000160153847306 0.009993959976692592 0.0 -7.10154108792945e-17 0.0 0.01 0.0 -7.10154108792945e-17 0.0 0.010000148953327997 0.009993971455886872 0.0 3.938118738901875e-18 0.0 0.01 0.0 3.938118738901875e-18 0.0 0.010000140602965323 0.00999350882577602 0.0 9.973986639851222e-13 0.0 0.01 0.0 9.973986639855358e-13 0.0 0.01000022705773305 0.009993414511016558 0.0 -1.4982548736539796e-13 0.0 0.01 0.0 -1.4982548736539796e-13 0.0 0.010000230007935304 0.0099933730932094 0.0 -2.7206771525601915e-13 0.0 0.01 0.0 -2.7206771525607085e-13 0.0 0.010000225107600787 0.009993367105135311 0.0 -1.501584299513393e-13 0.0 0.01 0.0 -1.501584299513393e-13 0.0 0.010000215806985699 0.009993381077324927 0.0 -5.616409499145045e-14 0.0 0.01 0.0 -5.616409499145045e-14 0.0 0.0100002011560694 0.009993403532752451 0.0 -1.5524791681634534e-14 0.0 0.01 0.0 -1.5524791681634534e-14 0.0 0.010000187505273603 0.009993428483405016 0.0 -3.066967611028815e-15 0.0 0.01 0.0 -3.066967611028815e-15 0.0 0.010000174304557206 0.00999344694700823 0.0 -6.019999234563703e-16 0.0 0.01 0.0 -6.019999234563703e-16 0.0 0.0100001635540124 0.009993460420513002 0.0 -2.9284862293515527e-17 0.0 0.01 0.0 -2.9284862293515527e-17 0.0 0.010000156253662204 0.009992808265602518 0.0 2.7974830302673727e-12 0.0 0.01 0.0 2.7974830302682e-12 0.0 0.010000220207273472 0.009992731931408828 0.0 3.98293198459638e-13 0.0 0.01 0.0 3.98293198459638e-13 0.0 0.010000227557767144 0.009992706985973144 0.0 -1.7748226112000733e-13 0.0 0.01 0.0 -1.7748226111995564e-13 0.0 0.010000226557699029 0.00999271596630847 0.0 -1.5717584392358208e-13 0.0 0.01 0.0 -1.5717584392353038e-13 0.0 0.010000221707372907 0.009992742907459716 0.0 -7.008024499996359e-14 0.0 0.01 0.0 -7.008024499996359e-14 0.0 0.010000214856924329 0.009992774837995216 0.0 -2.2364190878361033e-14 0.0 0.01 0.0 -2.2364190878361033e-14 0.0 0.010000203106187652 0.009992805770993377 0.0 -5.195420123988194e-15 0.0 0.01 0.0 -5.195420123988194e-15 0.0 0.010000190455440853 0.009992830717168881 0.0 -6.09732279320129e-16 0.0 0.01 0.0 -6.09732279320129e-16 0.0 0.010000183605056499 0.00999284618389152 0.0 6.496152872054008e-17 0.0 0.01 0.0 6.496152872054008e-17 0.0 0.0100001777547394 0.009991989635181834 0.0 2.956934854994094e-11 0.0 0.01 0.0 2.956934854994094e-11 0.0 0.010000219757243774 0.009991937760447428 0.0 8.920242902480238e-13 0.0 0.01 0.0 8.920242902480238e-13 0.0 0.010000230007935304 0.00999193526649017 0.0 -1.464743342996818e-13 0.0 0.01 0.0 -1.464743342996818e-13 0.0 0.010000235358308773 0.009991959208556956 0.0 -2.024373774539789e-13 0.0 0.01 0.0 -2.024373774539789e-13 0.0 0.010000239758622355 0.009991997117181352 0.0 -1.0158110315816577e-13 0.0 0.01 0.0 -1.0158110315816577e-13 0.0 0.010000237308447029 0.009992039515496088 0.0 -3.5471584147507414e-14 0.0 0.01 0.0 -3.5471584147507414e-14 0.0 0.010000231458035675 0.00999207792384712 0.0 -1.008293376820695e-14 0.0 0.01 0.0 -1.008293376820695e-14 0.0 0.01000022265743623 0.009992108850373743 0.0 -2.5617892421422972e-15 0.0 0.01 0.0 -2.5617892421422972e-15 0.0 0.010000216307018106 0.009992127306663549 0.0 -5.084103385597497e-16 0.0 0.01 0.0 -5.084103385597497e-16 0.0 0.010000212906799203 0.009991063992122688 0.0 2.254347824014777e-10 0.0 0.01 0.0 2.2543478240153063e-10 0.0 0.010000237808482672 0.009991039557833302 0.0 1.2893931076032808e-12 0.0 0.01 0.0 1.2893931076032808e-12 0.0 0.010000250009375392 0.009991056512219139 0.0 -1.950267686169178e-13 0.0 0.01 0.0 -1.950267686168661e-13 0.0 0.010000263210391594 0.009991097402563615 0.0 -2.971196393663974e-13 0.0 0.01 0.0 -2.971196393663974e-13 0.0 0.01000027491133602 0.009991147768190147 0.0 -1.52950234530213e-13 0.0 0.01 0.0 -1.52950234530213e-13 0.0 0.010000277861580633 0.009991199630621348 0.0 -5.77688728102104e-14 0.0 0.01 0.0 -5.77688728102104e-14 0.0 0.01000027786158063 0.009991245509599102 0.0 -1.7778508073962025e-14 0.0 0.01 0.0 -1.7778508073962025e-14 0.0 0.010000274411294821 0.009991281914020295 0.0 -3.480663817932855e-15 0.0 0.01 0.0 -3.480663817932855e-15 0.0 0.010000268560818348 0.009991303856603361 0.0 -9.283408445304513e-16 0.0 0.01 0.0 -9.283408445304513e-16 0.0 0.010000266110621853 0.009990019461580435 0.0 6.652521983777638e-10 0.0 0.01 0.0 6.652521983777638e-10 0.0 0.010000296863218712 0.009990031425707766 0.0 3.842842573854465e-12 0.0 0.01 0.0 3.842842573854465e-12 0.0 0.010000305664014005 0.009990070807930752 0.0 -3.0974357839227566e-13 0.0 0.01 0.0 -3.0974357839232736e-13 0.0 0.010000322765625973 0.00999012763879504 0.0 -4.178586223741838e-13 0.0 0.01 0.0 -4.178586223741838e-13 0.0 0.010000341317473847 0.009990191450044155 0.0 -2.2149140378835967e-13 0.0 0.01 0.0 -2.2149140378830797e-13 0.0 0.010000350118386576 0.009990251772739888 0.0 -8.448868689432913e-14 0.0 0.01 0.0 -8.448868689432913e-14 0.0 0.010000355018904868 0.009990305116860563 0.0 -2.497265990437627e-14 0.0 0.01 0.0 -2.497265990437627e-14 0.0 0.010000352068591971 0.009990346496533338 0.0 -7.743055375893117e-15 0.0 0.01 0.0 -7.743055375893117e-15 0.0 0.010000348668234583 0.009990372919966878 0.0 -1.2379538044925554e-15 0.0 0.01 0.0 -1.2379538044925554e-15 0.0 0.010000345217875484 0.00998885216886745 0.0 1.1607079654500216e-09 0.0 0.01 0.0 1.1607079654500216e-09 0.0 0.010000417026085364 0.00998890200220904 0.0 1.1982271646084636e-11 0.0 0.01 0.0 1.1982271646084636e-11 0.0 0.010000413125599504 0.009988965789974881 0.0 -3.866993739793916e-13 0.0 0.01 0.0 -3.866993739794433e-13 0.0 0.010000426777319278 0.0099890395461025 0.0 -5.067170256517674e-13 0.0 0.01 0.0 -5.067170256517157e-13 0.0 0.010000446329879776 0.009989115297339623 0.0 -2.72596802532403e-13 0.0 0.01 0.0 -2.725968025323513e-13 0.0 0.010000459981735536 0.009989184072981718 0.0 -1.0726894748140508e-13 0.0 0.01 0.0 -1.0726894748140508e-13 0.0 0.010000465832547975 0.0099892448758194 0.0 -3.1252641469744976e-14 0.0 0.01 0.0 -3.1252641469744976e-14 0.0 0.010000465832547973 0.009989293219851533 0.0 -8.37369691545966e-15 0.0 0.01 0.0 -8.37369691545966e-15 0.0 0.010000461481942871 0.00998932212692772 0.0 -9.482126509740823e-16 0.0 0.01 0.0 -9.482126509740823e-16 0.0 0.010000457081336593 0.009987564235758365 0.0 1.3286823433525966e-09 0.0 0.01 0.0 1.3286823433525966e-09 0.0 0.01000061335642657 0.00998764892011735 0.0 1.3352407043699032e-11 0.0 0.01 0.0 1.3352407043697378e-11 0.0 0.010000588902016758 0.009987737093768646 0.0 -2.8951364893932356e-13 0.0 0.01 0.0 -2.8951364893932356e-13 0.0 0.010000587951849044 0.009987826764283619 0.0 -4.3032536077365346e-13 0.0 0.01 0.0 -4.3032536077370516e-13 0.0 0.010000605054909288 0.00998791494264521 0.0 -2.490834590607797e-13 0.0 0.01 0.0 -2.49083459060728e-13 0.0 0.010000614806693443 0.009987993657505866 0.0 -1.0187877427485469e-13 0.0 0.01 0.0 -1.0187877427485469e-13 0.0 0.010000617257146254 0.009988059918926174 0.0 -2.843051433124419e-14 0.0 0.01 0.0 -2.843051433124419e-14 0.0 0.010000615756868808 0.009988112729724318 0.0 -5.679971104619105e-15 0.0 0.01 0.0 -5.679971104619105e-15 0.0 0.010000611856150612 0.009988142623000212 0.0 -2.172197275924644e-15 0.0 0.01 0.0 -2.172197275924644e-15 0.0 0.010000607005263836 0.009986150823172446 0.0 9.867479649017802e-10 0.0 0.01 0.0 9.86747964901992e-10 0.0 0.010000899071234972 0.00998626684183542 0.0 4.002095049794942e-12 0.0 0.01 0.0 4.002095049794942e-12 0.0 0.010000837505200495 0.009986376391065898 0.0 5.2274403976958626e-14 0.0 0.01 0.0 5.2274403976958626e-14 0.0 0.01000081649998995 0.009986482458074134 0.0 -1.2650642866717518e-13 0.0 0.01 0.0 -1.2650642866717518e-13 0.0 0.01000081649998995 0.00998657906664701 0.0 -1.0883900484786848e-13 0.0 0.01 0.0 -1.0883900484786848e-13 0.0 0.010000819450713917 0.009986666713963522 0.0 -5.054271169822314e-14 0.0 0.01 0.0 -5.054271169822314e-14 0.0 0.010000815999867501 0.009986741415202555 0.0 -1.1822917615333688e-14 0.0 0.01 0.0 -1.1822917615333688e-14 0.0 0.01000081064856201 0.009986794703110789 0.0 -3.6086416138469085e-15 0.0 0.01 0.0 -3.6086416138469085e-15 0.0 0.010000802846674069 0.009986830560874951 0.0 -1.5352838908457607e-16 0.0 0.01 0.0 -1.5352838908457607e-16 0.0 0.010000797445377728 0.009984611593479195 0.0 4.134132608897289e-10 0.0 0.01 0.0 4.134132608897818e-10 0.0 0.010001254135889105 0.009984750951077674 0.0 -5.032554428825521e-13 0.0 0.01 0.0 -5.032554428825521e-13 0.0 0.010001156450575761 0.009984876377905502 0.0 5.14364648658175e-13 0.0 0.01 0.0 5.14364648658175e-13 0.0 0.010001105633336735 0.00998499434316394 0.0 3.3405733280802514e-13 0.0 0.01 0.0 3.3405733280802514e-13 0.0 0.010001083676127643 0.009985100863909323 0.0 1.359488919542951e-13 0.0 0.01 0.0 1.359488919542951e-13 0.0 0.010001072922649753 0.009985195939042641 0.0 4.863265086903066e-14 0.0 0.01 0.0 4.863265086903066e-14 0.0 0.010001060718744773 0.009985272100663536 0.0 2.4247359634413022e-14 0.0 0.01 0.0 2.4247359634413022e-14 0.0 0.010001046564271593 0.009985330840881785 0.0 1.2800597680228163e-14 0.0 0.01 0.0 1.2800597680228163e-14 0.0 0.010001035810913413 0.009985367678496705 0.0 1.8819138892331593e-15 0.0 0.01 0.0 1.8819138892331593e-15 0.0 0.010001025557743733 0.009982939259857373 0.0 4.6084202474477307e-11 0.0 0.01 0.0 4.6084202474474e-11 0.0 0.010001661564027528 0.009983091481586234 0.0 -1.056090316727714e-12 0.0 0.01 0.0 -1.056090316727714e-12 0.0 0.0100015286504444 0.009983230278055059 0.0 8.316161905189668e-13 0.0 0.01 0.0 8.316161905189151e-13 0.0 0.01000144661384321 0.009983358135121976 0.0 7.565388655629925e-13 0.0 0.01 0.0 7.565388655629925e-13 0.0 0.01000140264505679 0.009983472563899929 0.0 4.010816988461678e-13 0.0 0.01 0.0 4.010816988461678e-13 0.0 0.01000137088184604 0.009983571572843714 0.0 1.8276474336197357e-13 0.0 0.01 0.0 1.8276474336197357e-13 0.0 0.010001346471899172 0.009983654165472445 0.0 7.401445838090526e-14 0.0 0.01 0.0 7.401445838090526e-14 0.0 0.010001324012905113 0.009983715862508529 0.0 2.8182615889826015e-14 0.0 0.01 0.0 2.8182615889826015e-14 0.0 0.010001304955391848 0.009983753677386338 0.0 4.770706189766461e-15 0.0 0.01 0.0 4.770706189766461e-15 0.0 0.01000129225044353 0.009981130543149754 0.0 -1.4839440677144845e-11 0.0 0.01 0.0 -1.4839440677144845e-11 0.0 0.01000209440779791 0.009981285665340652 0.0 -1.5338002334346758e-12 0.0 0.01 0.0 -1.5338002334345724e-12 0.0 0.010001933160421932 0.009981428364255442 0.0 8.468431503273283e-13 0.0 0.01 0.0 8.468431503273283e-13 0.0 0.010001826200129257 0.009981561621729893 0.0 1.0017453586925155e-12 0.0 0.01 0.0 1.0017453586925155e-12 0.0 0.010001755812323305 0.009981682453083486 0.0 6.396500233090728e-13 0.0 0.01 0.0 6.396500233091245e-13 0.0 0.01000170598645919 0.009981785884229872 0.0 3.21831679791641e-13 0.0 0.01 0.0 3.21831679791641e-13 0.0 0.010001665966224064 0.009981871913546112 0.0 1.411089494684793e-13 0.0 0.01 0.0 1.411089494684793e-13 0.0 0.01000163174930399 0.009981936064021557 0.0 5.1297212353879433e-14 0.0 0.01 0.0 5.1297212353879433e-14 0.0 0.010001608287905315 0.009981974853281153 0.0 1.1055491118888498e-14 0.0 0.01 0.0 1.1055491118888498e-14 0.0 0.010001592180174948 0.009979176722387961 0.0 -1.3526954198090412e-11 0.0 0.01 0.0 -1.3526954198091239e-11 0.0 0.010002523905193163 0.009979319330868137 0.0 -1.8589330555888686e-12 0.0 0.01 0.0 -1.8589330555888686e-12 0.0 0.010002352379793335 0.00997946293931375 0.0 5.892505253802131e-13 0.0 0.01 0.0 5.892505253802131e-13 0.0 0.010002224842268278 0.009979598602813401 0.0 1.061903902160723e-12 0.0 0.01 0.0 1.0619039021606196e-12 0.0 0.010002133482568011 0.009979722344676192 0.0 8.129589000717001e-13 0.0 0.01 0.0 8.129589000717001e-13 0.0 0.01000206754103217 0.009979830684704712 0.0 4.688764533076387e-13 0.0 0.01 0.0 4.68876453307587e-13 0.0 0.010002011856972451 0.009979917160470581 0.0 2.260043363132605e-13 0.0 0.01 0.0 2.260043363132605e-13 0.0 0.010001969831882817 0.009979981273265342 0.0 8.076655192765344e-14 0.0 0.01 0.0 8.076655192765344e-14 0.0 0.010001938563558632 0.009980018548714043 0.0 2.010074638186708e-14 0.0 0.01 0.0 2.010074638186708e-14 0.0 0.010001918051697253 0.00997705620491505 0.0 -1.1772404197481481e-11 0.0 0.01 0.0 -1.1772404197481481e-11 0.0 0.010002949054025186 0.009977186307835952 0.0 -1.9566180824005385e-12 0.0 0.01 0.0 -1.956618082400642e-12 0.0 0.010002770701092428 0.00997732336832641 0.0 3.847382460450908e-13 0.0 0.01 0.0 3.847382460450908e-13 0.0 0.010002632389056122 0.009977459441212371 0.0 1.1303650097117702e-12 0.0 0.01 0.0 1.1303650097117185e-12 0.0 0.010002526857428695 0.009977585090098325 0.0 1.0005812309450424e-12 0.0 0.01 0.0 1.0005812309450424e-12 0.0 0.01000244374549202 0.009977694353857855 0.0 6.331996871938587e-13 0.0 0.01 0.0 6.331996871938587e-13 0.0 0.010002377797819576 0.009977783257474376 0.0 3.172192008734277e-13 0.0 0.01 0.0 3.172192008734277e-13 0.0 0.01000232601129767 0.009977846832467508 0.0 1.257346882591862e-13 0.0 0.01 0.0 1.257346882591862e-13 0.0 0.010002288385266466 0.009977886567455333 0.0 2.4362285121670165e-14 0.0 0.01 0.0 2.4362285121670165e-14 0.0 0.010002262967921864 0.009974748965241574 0.0 -9.724465185227432e-12 0.0 0.01 0.0 -9.724465185227018e-12 0.0 0.010003361043733196 0.009974866571912024 0.0 -1.4272709786476217e-12 0.0 0.01 0.0 -1.4272709786476217e-12 0.0 0.010003184620625586 0.009975002048042693 0.0 5.166132225650848e-13 0.0 0.01 0.0 5.166132225650331e-13 0.0 0.010003040936532055 0.00997513802597346 0.0 1.3315629581411335e-12 0.0 0.01 0.0 1.3315629581411335e-12 0.0 0.010002923131205045 0.009975264083474801 0.0 1.252502756630306e-12 0.0 0.01 0.0 1.252502756630306e-12 0.0 0.010002830301137394 0.009975373767314855 0.0 8.247056465483279e-13 0.0 0.01 0.0 8.247056465483279e-13 0.0 0.010002751635307993 0.009975461119929417 0.0 4.209656476079652e-13 0.0 0.01 0.0 4.209656476079652e-13 0.0 0.010002691986628768 0.009975526139558379 0.0 1.6423538172655749e-13 0.0 0.01 0.0 1.6423538172655749e-13 0.0 0.010002647050660752 0.009975564854139808 0.0 3.6037781078058764e-14 0.0 0.01 0.0 3.6037781078058764e-14 0.0 0.010002621630581788 0.009972242005184767 0.0 -7.212140381897748e-12 0.0 0.01 0.0 -7.212140381897748e-12 0.0 0.010003767728297265 0.009972352581093935 0.0 -3.2394956472937797e-13 0.0 0.01 0.0 -3.2394956472937797e-13 0.0 0.010003592284749743 0.009972486467162582 0.0 1.0127012899260875e-12 0.0 0.01 0.0 1.0127012899260875e-12 0.0 0.0100034441785381 0.009972624821765518 0.0 1.668452145235303e-12 0.0 0.01 0.0 1.668452145235303e-12 0.0 0.010003320002631036 0.009972755743251457 0.0 1.52654221672843e-12 0.0 0.01 0.0 1.52654221672843e-12 0.0 0.010003217352037313 0.009972867328133357 0.0 1.0059639872534066e-12 0.0 0.01 0.0 1.0059639872534583e-12 0.0 0.0100031303692685 0.009972953623010369 0.0 5.166416668227149e-13 0.0 0.01 0.0 5.166416668227149e-13 0.0 0.010003066359807963 0.00997301760169281 0.0 1.967340685407914e-13 0.0 0.01 0.0 1.967340685407914e-13 0.0 0.01000301696476245 0.009973057279013686 0.0 4.3271254553128835e-14 0.0 0.01 0.0 4.3271254553128835e-14 0.0 0.010002990591010454 0.0099695194283221 0.0 -4.23774867439125e-12 0.0 0.01 0.0 -4.23774867439125e-12 0.0 0.010004176464972725 0.009969633381898128 0.0 1.02705137248825e-12 0.0 0.01 0.0 1.02705137248825e-12 0.0 0.010003999948659078 0.009969772608744447 0.0 1.4287607530930146e-12 0.0 0.01 0.0 1.4287607530930146e-12 0.0 0.010003847419256749 0.009969918282934562 0.0 1.8950375317299594e-12 0.0 0.01 0.0 1.8950375317299594e-12 0.0 0.010003717872358897 0.009970054053064762 0.0 1.7025457886189712e-12 0.0 0.01 0.0 1.7025457886188678e-12 0.0 0.010003607901604242 0.00997016802497459 0.0 1.1289575206024157e-12 0.0 0.01 0.0 1.1289575206024157e-12 0.0 0.010003516504000753 0.009970259700868858 0.0 5.816566223822337e-13 0.0 0.01 0.0 5.816566223822337e-13 0.0 0.01000344462900326 0.009970322141033779 0.0 2.2070334029180198e-13 0.0 0.01 0.0 2.2070334029180198e-13 0.0 0.0100033933264185 0.009970361786191817 0.0 4.79841752312353e-14 0.0 0.01 0.0 4.79841752312353e-14 0.0 0.010003364997719717 0.00996657582625464 0.0 -1.7960390045235704e-12 0.0 0.01 0.0 -1.796039004523467e-12 0.0 0.010004588606365074 0.00996670502457929 0.0 1.5296610520353716e-12 0.0 0.01 0.0 1.5296610520354233e-12 0.0 0.010004406210493677 0.009966856999920878 0.0 1.0895130653984142e-12 0.0 0.01 0.0 1.089513065398466e-12 0.0 0.010004253712572074 0.00996701591316919 0.0 1.5946250268082697e-12 0.0 0.01 0.0 1.5946250268083214e-12 0.0 0.010004119243828258 0.009967159981281068 0.0 1.6064280209857152e-12 0.0 0.01 0.0 1.6064280209857152e-12 0.0 0.010004005805686944 0.009967282270800279 0.0 1.1263817775279315e-12 0.0 0.01 0.0 1.1263817775279315e-12 0.0 0.010003910993184295 0.009967376837846662 0.0 5.957028488902686e-13 0.0 0.01 0.0 5.957028488902686e-13 0.0 0.010003837658013007 0.00996744417518527 0.0 2.2402344262619664e-13 0.0 0.01 0.0 2.2402344262619664e-13 0.0 0.010003785348244918 0.00996748230060707 0.0 4.881299929270624e-14 0.0 0.01 0.0 4.881299929270624e-14 0.0 0.010003755064017397 0.009963420195743422 0.0 -1.85487249851789e-12 0.0 0.01 0.0 -1.854872498517838e-12 0.0 0.010004999847272706 0.009963574493647383 0.0 -2.488556302736707e-13 0.0 0.01 0.0 -2.488556302736707e-13 0.0 0.010004817428908517 0.00996375303318103 0.0 -8.830226218709473e-13 0.0 0.01 0.0 -8.830226218709215e-13 0.0 0.010004663910781756 0.009963928614658845 0.0 3.761459942672517e-13 0.0 0.01 0.0 3.761459942672517e-13 0.0 0.010004535333522814 0.009964088377139082 0.0 1.063503496038093e-12 0.0 0.01 0.0 1.0635034960379895e-12 0.0 0.010004424334479196 0.00996422094131545 0.0 9.431000018752232e-13 0.0 0.01 0.0 9.431000018751715e-13 0.0 0.010004328008127616 0.009964322346589106 0.0 5.396368408942352e-13 0.0 0.01 0.0 5.396368408942352e-13 0.0 0.010004252711295571 0.009964391106072572 0.0 2.1516437236668805e-13 0.0 0.01 0.0 2.1516437236668805e-13 0.0 0.010004204299935156 0.009964434143308096 0.0 4.460325371649532e-14 0.0 0.01 0.0 4.460325371649532e-14 0.0 0.01000417401190264 0.009960095631010532 0.0 -8.06236017349104e-12 0.0 0.01 0.0 -8.06236017349104e-12 0.0 0.01000541113889696 0.009960291275901437 0.0 -6.3654415528101265e-12 0.0 0.01 0.0 -6.365441552810333e-12 0.0 0.010005232153451685 0.00996050076705069 0.0 -5.6784841073882615e-12 0.0 0.01 0.0 -5.6784841073882615e-12 0.0 0.010005091786304626 0.009960699894712184 0.0 -2.3220939118165805e-12 0.0 0.01 0.0 -2.3220939118165805e-12 0.0 0.010004981269486382 0.009960874820675 0.0 -1.2666391826703378e-13 0.0 0.01 0.0 -1.2666391826703378e-13 0.0 0.010004881522063606 0.009961019116823632 0.0 5.244310974878047e-13 0.0 0.01 0.0 5.244310974878047e-13 0.0 0.010004794445803735 0.009961130308202263 0.0 4.1315074709324183e-13 0.0 0.01 0.0 4.1315074709324183e-13 0.0 0.010004726498858188 0.009961205426263274 0.0 1.7321482007554318e-13 0.0 0.01 0.0 1.7321482007554318e-13 0.0 0.0100046756271803 0.009961250399073598 0.0 3.953651898423576e-14 0.0 0.01 0.0 3.953651898423576e-14 0.0 0.010004648739608902 0.009956713193141401 0.0 -2.5025514721081152e-11 0.0 0.01 0.0 -2.5025514721080325e-11 0.0 0.010005819025220276 0.009956961944125499 0.0 -2.01154173433585e-11 0.0 0.01 0.0 -2.01154173433585e-11 0.0 0.010005658599340796 0.00995720429684313 0.0 -1.5396977125162275e-11 0.0 0.01 0.0 -1.539697712516269e-11 0.0 0.010005558330824121 0.009957426427910894 0.0 -7.614896997564383e-12 0.0 0.01 0.0 -7.614896997564383e-12 0.0 0.01000548300620907 0.009957616485180785 0.0 -2.3979576130744134e-12 0.0 0.01 0.0 -2.3979576130744134e-12 0.0 0.010005413092064762 0.00995777347575623 0.0 -2.481527922883429e-13 0.0 0.01 0.0 -2.481527922883429e-13 0.0 0.010005345082433803 0.009957892457836619 0.0 2.1897289639386602e-13 0.0 0.01 0.0 2.1897289639386602e-13 0.0 0.010005284435839885 0.009957974908501949 0.0 1.3631961682890933e-13 0.0 0.01 0.0 1.3631961682890933e-13 0.0 0.010005238463351598 0.009958026256058943 0.0 3.5841559961709523e-14 0.0 0.01 0.0 3.5841559961709523e-14 0.0 0.01000521157124209 0.009953497396802397 0.0 -5.7919651409371457e-11 0.0 0.01 0.0 -5.79196514093698e-11 0.0 0.01000623973528947 0.009953802613121562 0.0 -4.619093934740234e-11 0.0 0.01 0.0 -4.619093934740234e-11 0.0 0.010006127226839153 0.009954077282502251 0.0 -3.381967817129104e-11 0.0 0.01 0.0 -3.381967817129021e-11 0.0 0.010006092012373846 0.009954315479206577 0.0 -1.7847183676322493e-11 0.0 0.01 0.0 -1.784718367632208e-11 0.0 0.010006081242732525 0.009954516702168665 0.0 -6.891306773756771e-12 0.0 0.01 0.0 -6.891306773756771e-12 0.0 0.010006055295553455 0.009954683410825744 0.0 -1.7964448300003407e-12 0.0 0.01 0.0 -1.7964448300003407e-12 0.0 0.010006017627421055 0.009954811653953816 0.0 -1.7226413199202067e-13 0.0 0.01 0.0 -1.7226413199202067e-13 0.0 0.010005970693122625 0.009954900440561345 0.0 7.969700435169142e-14 0.0 0.01 0.0 7.969700435169142e-14 0.0 0.010005930571583223 0.009954955686760573 0.0 2.9199563960948855e-14 0.0 0.01 0.0 2.9199563960948855e-14 0.0 0.010005906128235256 0.009950802948692324 0.0 -1.0564580524127511e-10 0.0 0.01 0.0 -1.0564580524127511e-10 0.0 0.010006728935697935 0.009951164085703398 0.0 -8.6034963218411e-11 0.0 0.01 0.0 -8.60349632184077e-11 0.0 0.010006680538481142 0.009951463174356403 0.0 -6.455365335206017e-11 0.0 0.01 0.0 -6.455365335206183e-11 0.0 0.010006737753485935 0.009951710053676018 0.0 -3.636684635287029e-11 0.0 0.01 0.0 -3.636684635287029e-11 0.0 0.010006815060432175 0.009951915061245754 0.0 -1.569637620371813e-11 0.0 0.01 0.0 -1.569637620371813e-11 0.0 0.010006857647655288 0.0099520836106126 0.0 -5.147817887753501e-12 0.0 0.01 0.0 -5.147817887753294e-12 0.0 0.010006853739628629 0.00995221421761907 0.0 -1.174889238828581e-12 0.0 0.01 0.0 -1.174889238828555e-12 0.0 0.01000682678438995 0.009952309342184619 0.0 -1.3036732536167023e-13 0.0 0.01 0.0 -1.3036732536167023e-13 0.0 0.010006794017534404 0.009952366516811022 0.0 3.679088162412655e-15 0.0 0.01 0.0 3.679088162412655e-15 0.0 0.010006770068874168 0.009949136217312818 0.0 -1.5061830696497482e-10 0.0 0.01 0.0 -1.5061830696497482e-10 0.0 0.010007377806780557 0.009949538047541173 0.0 -1.2585615946555703e-10 0.0 0.01 0.0 -1.2585615946555372e-10 0.0 0.010007397851140286 0.009949840929707035 0.0 -1.0252655473859822e-10 0.0 0.01 0.0 -1.0252655473860153e-10 0.0 0.010007554952980993 0.009950080792608465 0.0 -6.353325554287348e-11 0.0 0.01 0.0 -6.353325554287348e-11 0.0 0.010007736518806248 0.00995027781823463 0.0 -3.051789839193004e-11 0.0 0.01 0.0 -3.051789839193087e-11 0.0 0.010007855446520632 0.009950440373187546 0.0 -1.1568376900511245e-11 0.0 0.01 0.0 -1.1568376900511658e-11 0.0 0.010007897545842675 0.009950569437642007 0.0 -3.400564851592779e-12 0.0 0.01 0.0 -3.400564851592779e-12 0.0 0.010007889677238542 0.00995066352977973 0.0 -7.634526573842222e-13 0.0 0.01 0.0 -7.634526573842222e-13 0.0 0.010007864718349512 0.00995072264662423 0.0 -1.1624507675258248e-13 0.0 0.01 0.0 -1.1624507675258248e-13 0.0 0.01000783830623456 0.009949123414699017 0.0 -1.574726475249055e-10 0.0 0.01 0.0 -1.574726475249055e-10 0.0 0.010008333655909757 0.009949517856380239 0.0 -1.2620951810413435e-10 0.0 0.01 0.0 -1.2620951810413435e-10 0.0 0.010008393355448782 0.00994979808128189 0.0 -1.2076089023478854e-10 0.0 0.01 0.0 -1.2076089023478854e-10 0.0 0.01000862685055577 0.009950010851326067 0.0 -8.702694089455683e-11 0.0 0.01 0.0 -8.702694089456013e-11 0.0 0.010008895154505325 0.009950178811394513 0.0 -4.760935232818442e-11 0.0 0.01 0.0 -4.760935232818442e-11 0.0 0.010009087572603645 0.009950318209933619 0.0 -2.0372453716411607e-11 0.0 0.01 0.0 -2.0372453716411607e-11 0.0 0.010009175713625031 0.00995043199894988 0.0 -6.988113125739191e-12 0.0 0.01 0.0 -6.9881131257389845e-12 0.0 0.010009188448640892 0.009950519683192579 0.0 -1.9515738229270177e-12 0.0 0.01 0.0 -1.9515738229270694e-12 0.0 0.010009165886638145 0.009950574363865726 0.0 -3.708000308369354e-13 0.0 0.01 0.0 -3.708000308369354e-13 0.0 0.01000913801024102 0.009951540537755281 0.0 -8.527001148003818e-11 0.0 0.01 0.0 -8.527001148003653e-11 0.0 0.010009767241237236 0.009951854444707595 0.0 -3.481774427767846e-11 0.0 0.01 0.0 -3.4817744277680117e-11 0.0 0.010009807860272403 0.00995205453277139 0.0 -7.475686462685288e-11 0.0 0.01 0.0 -7.475686462685123e-11 0.0 0.010010058104494807 0.009952194010161076 0.0 -7.959212892152513e-11 0.0 0.01 0.0 -7.959212892152513e-11 0.0 0.010010365694898049 0.009952300470348148 0.0 -5.4870797516492455e-11 0.0 0.01 0.0 -5.4870797516492455e-11 0.0 0.01001060329065496 0.009952389682672919 0.0 -2.7436862860686e-11 0.0 0.01 0.0 -2.743686286068517e-11 0.0 0.010010722772051455 0.009952471503820242 0.0 -1.0899079139528956e-11 0.0 0.01 0.0 -1.0899079139528956e-11 0.0 0.01001074970862475 0.009952535582031397 0.0 -3.630454133382701e-12 0.0 0.01 0.0 -3.6304541333825975e-12 0.0 0.010010730145728671 0.009952580930436414 0.0 -8.002003367811828e-13 0.0 0.01 0.0 -8.002003367811828e-13 0.0 0.010010704162367113 0.009957553296101608 0.0 1.1122836153821263e-10 0.0 0.01 0.0 1.1122836153821263e-10 0.0 0.010011813400540753 0.009957652029566473 0.0 1.9292912829650148e-10 0.0 0.01 0.0 1.929291282965081e-10 0.0 0.010011781036267967 0.009957686093293262 0.0 7.868869318616284e-11 0.0 0.01 0.0 7.868869318615953e-11 0.0 0.010011968251621836 0.009957683131216186 0.0 -7.395261006547877e-12 0.0 0.01 0.0 -7.395261006547877e-12 0.0 0.010012242645713052 0.009957675726035056 0.0 -3.3210135620498384e-11 0.0 0.01 0.0 -3.321013562049921e-11 0.0 0.010012470538422708 0.009957676219713286 0.0 -2.4637932200781137e-11 0.0 0.01 0.0 -2.4637932200781964e-11 0.0 0.010012597514685452 0.009957690042733476 0.0 -1.2355613826811552e-11 0.0 0.01 0.0 -1.2355613826811552e-11 0.0 0.010012633751485195 0.009957710777371702 0.0 -5.191527374998421e-12 0.0 0.01 0.0 -5.191527374998421e-12 0.0 0.010012617088531189 0.009957728550021845 0.0 -1.36211341046507e-12 0.0 0.01 0.0 -1.36211341046507e-12 0.0 0.010012592596147396 0.009968880369805509 0.0 4.1548098242016723e-10 0.0 0.01 0.0 4.1548098242018046e-10 0.0 0.01001449580846002 0.009968585156365646 0.0 5.674208953648285e-10 0.0 0.01 0.0 5.67420895364802e-10 0.0 0.010014375689757306 0.009968329094807868 0.0 3.647191765374985e-10 0.0 0.01 0.0 3.647191765374985e-10 0.0 0.010014451667347435 0.00996810128099644 0.0 1.623196922544555e-10 0.0 0.01 0.0 1.623196922544555e-10 0.0 0.01001462823529994 0.009967913098758689 0.0 4.5027649902544345e-11 0.0 0.01 0.0 4.5027649902544345e-11 0.0 0.010014795471238626 0.009967769988349487 0.0 4.106992687745589e-12 0.0 0.01 0.0 4.106992687745589e-12 0.0 0.0100148984786843 0.009967673924611972 0.0 -4.249251749703334e-12 0.0 0.01 0.0 -4.249251749703334e-12 0.0 0.010014931827460905 0.00996762044703373 0.0 -4.260906106745473e-12 0.0 0.01 0.0 -4.260906106745473e-12 0.0 0.010014921983510268 0.009967592718257949 0.0 -1.6216655281585578e-12 0.0 0.01 0.0 -1.6216655281586095e-12 0.0 0.010014905811368657 0.009987338089262098 0.0 5.792256422507054e-10 0.0 0.01 0.0 5.792256422507583e-10 0.0 0.010017681535188951 0.009986491919614772 0.0 9.432948330577424e-10 0.0 0.01 0.0 9.432948330576894e-10 0.0 0.01001754114606176 0.00998583415761798 0.0 7.17048427345785e-10 0.0 0.01 0.0 7.170484273458115e-10 0.0 0.010017515159892474 0.009985294501471967 0.0 4.199098942189166e-10 0.0 0.01 0.0 4.199098942189431e-10 0.0 0.010017580452411771 0.009984859454962415 0.0 1.969350475365751e-10 0.0 0.01 0.0 1.9693504753656186e-10 0.0 0.010017663891977531 0.009984519023442748 0.0 7.764900769529404e-11 0.0 0.01 0.0 7.764900769529735e-11 0.0 0.010017722803577257 0.009984272182599285 0.0 2.4351116093626166e-11 0.0 0.01 0.0 2.4351116093624512e-11 0.0 0.0100177478362952 0.009984109456814336 0.0 3.552773307313955e-12 0.0 0.01 0.0 3.5527733073143687e-12 0.0 0.010017752259766873 0.00998401590553084 0.0 -6.134959497348323e-13 0.0 0.01 0.0 -6.134959497348323e-13 0.0 0.010017751757099345 0.01001380684178305 0.0 1.1541826533093224e-10 0.0 0.01 0.0 1.1541826533090577e-10 0.0 0.010021069803913846 0.01001238918581492 0.0 9.444116906612622e-10 0.0 0.01 0.0 9.444116906616857e-10 0.0 0.010021059489003649 0.010011289087791727 0.0 8.963492661685155e-10 0.0 0.01 0.0 8.963492661685155e-10 0.0 0.010021038356116101 0.010010409280439708 0.0 6.409169735144731e-10 0.0 0.01 0.0 6.40916973514579e-10 0.0 0.010021044293437609 0.01000969277429038 0.0 3.76496027087057e-10 0.0 0.01 0.0 3.764960270869511e-10 0.0 0.010021066885545762 0.010009125776787763 0.0 1.8801960115062913e-10 0.0 0.01 0.0 1.880196011506556e-10 0.0 0.010021093905706536 0.01000869833600919 0.0 7.632838565745476e-11 0.0 0.01 0.0 7.632838565744152e-11 0.0 0.01002112631006096 0.010008402678898928 0.0 2.0917014923778208e-11 0.0 0.01 0.0 2.0917014923778208e-11 0.0 0.010021161733814269 0.010008231853366578 0.0 2.477855744960343e-12 0.0 0.01 0.0 2.477855744960343e-12 0.0 0.010021192679588013 0.010047021485864038 0.0 -1.1787425575390598e-09 0.0 0.01 0.0 -1.1787425575390598e-09 0.0 0.010024261357271127 0.010045228350573485 0.0 2.626402746087679e-10 0.0 0.01 0.0 2.6264027460879436e-10 0.0 0.010024582045366088 0.010043801716964682 0.0 6.273025157529418e-10 0.0 0.01 0.0 6.273025157529418e-10 0.0 0.010024741418700816 0.010042642312458569 0.0 6.212963711827592e-10 0.0 0.01 0.0 6.212963711827592e-10 0.0 0.010024810277989309 0.01004169042197229 0.0 4.5977328225992825e-10 0.0 0.01 0.0 4.5977328225992825e-10 0.0 0.010024847201659642 0.010040921218404015 0.0 2.7424492705863954e-10 0.0 0.01 0.0 2.7424492705863954e-10 0.0 0.01002488850829551 0.010040327086002169 0.0 1.2777481513519555e-10 0.0 0.01 0.0 1.2777481513519555e-10 0.0 0.010024959839005506 0.010039906565352717 0.0 4.089555760633515e-11 0.0 0.01 0.0 4.089555760633515e-11 0.0 0.010025052329396577 0.010039659995809743 0.0 6.575137249707237e-12 0.0 0.01 0.0 6.575137249707237e-12 0.0 0.010025133487289539 0.010082838889536299 0.0 -2.5453174937679957e-09 0.0 0.01 0.0 -2.5453174937680486e-09 0.0 0.01002687948892822 0.010081062011103247 0.0 -7.616070031200931e-10 0.0 0.01 0.0 -7.616070031200931e-10 0.0 0.010027698154638501 0.01007958057983821 0.0 -4.033204567836122e-12 0.0 0.01 0.0 -4.033204567836329e-12 0.0 0.01002821809130211 0.01007832874041747 0.0 3.076685605491249e-10 0.0 0.01 0.0 3.0766856054909844e-10 0.0 0.010028498816096524 0.010077270265245639 0.0 3.505088612292224e-10 0.0 0.01 0.0 3.505088612292224e-10 0.0 0.010028651971571928 0.010076390904208294 0.0 2.570205134345201e-10 0.0 0.01 0.0 2.5702051343451347e-10 0.0 0.010028779514034702 0.010075697114342936 0.0 1.3387157177330384e-10 0.0 0.01 0.0 1.3387157177330053e-10 0.0 0.010028936616322719 0.010075195684136415 0.0 4.603049192394684e-11 0.0 0.01 0.0 4.603049192394353e-11 0.0 0.01002911642302566 0.01007488959536713 0.0 7.974914615395343e-12 0.0 0.01 0.0 7.97491461539493e-12 0.0 0.010029269606799555 0.010114688369067822 0.0 -2.7541125655652575e-09 0.0 0.01 0.0 -2.7541125655652575e-09 0.0 0.010028739117497926 0.010113401216862949 0.0 -1.2579827685089809e-09 0.0 0.01 0.0 -1.2579827685089544e-09 0.0 0.010030067214002078 0.010112203327099773 0.0 -4.859545328040266e-10 0.0 0.01 0.0 -4.859545328040266e-10 0.0 0.010031046839727905 0.010111111919388434 0.0 -6.689910043301496e-11 0.0 0.01 0.0 -6.68991004330133e-11 0.0 0.01003164321275148 0.010110137947924454 0.0 1.0779548012035944e-10 0.0 0.01 0.0 1.0779548012036275e-10 0.0 0.010032000098188021 0.010109289834492398 0.0 1.2246165702733783e-10 0.0 0.01 0.0 1.2246165702733783e-10 0.0 0.010032278162066 0.010108598265482945 0.0 7.024262684440759e-11 0.0 0.01 0.0 7.024262684440759e-11 0.0 0.010032567609321873 0.01010808534921768 0.0 2.2387717174718853e-11 0.0 0.01 0.0 2.238771717471844e-11 0.0 0.01003286738252149 0.01010776969560986 0.0 2.8312531119649424e-12 0.0 0.01 0.0 2.8312531119649424e-12 0.0 0.010033108503085657 0.010135849300613493 0.0 -1.7055772361598826e-09 0.0 0.01 0.0 -1.7055772361598826e-09 0.0 0.01002980063433044 0.010135364813368452 0.0 -9.212549140153932e-10 0.0 0.01 0.0 -9.212549140153932e-10 0.0 0.010031582591442906 0.010134697390576573 0.0 -5.018951729780871e-10 0.0 0.01 0.0 -5.018951729780871e-10 0.0 0.010032949740281884 0.010133958392679861 0.0 -2.424902769825734e-10 0.0 0.01 0.0 -2.424902769825734e-10 0.0 0.01003385176876351 0.010133222157670112 0.0 -9.555294225101364e-11 0.0 0.01 0.0 -9.555294225101364e-11 0.0 0.01003444621735109 0.010132541426169026 0.0 -3.55818801599272e-11 0.0 0.01 0.0 -3.55818801599272e-11 0.0 0.010034911979599648 0.010131955272621052 0.0 -2.1616962172160445e-11 0.0 0.01 0.0 -2.1616962172160445e-11 0.0 0.010035361484738402 0.010131509406363098 0.0 -1.6105056599710286e-11 0.0 0.01 0.0 -1.6105056599710493e-11 0.0 0.010035797758533428 0.01013122711723597 0.0 -5.955441329147725e-12 0.0 0.01 0.0 -5.955441329147622e-12 0.0 0.01003613734657685 0.010143865440063064 0.0 -5.250712900925312e-10 0.0 0.01 0.0 -5.250712900925246e-10 0.0 0.010030377106792809 0.010144180938352761 0.0 -3.362577997685449e-10 0.0 0.01 0.0 -3.362577997685449e-10 0.0 0.01003236494817393 0.010144072846210876 0.0 -2.5749556875810567e-10 0.0 0.01 0.0 -2.5749556875810567e-10 0.0 0.010033944505486357 0.010143733925896197 0.0 -1.9621911816418076e-10 0.0 0.01 0.0 -1.9621911816417745e-10 0.0 0.010035060477369979 0.01014330434859583 0.0 -1.4148012711871959e-10 0.0 0.01 0.0 -1.4148012711872124e-10 0.0 0.010035843142765307 0.010142863556326343 0.0 -9.812874604389536e-11 0.0 0.01 0.0 -9.812874604389371e-11 0.0 0.010036477424037625 0.010142465702992277 0.0 -6.388008603798993e-11 0.0 0.01 0.0 -6.388008603798993e-11 0.0 0.010037079720938313 0.01014214833036417 0.0 -3.394308295193056e-11 0.0 0.01 0.0 -3.394308295193015e-11 0.0 0.010037644099842941 0.010141943545893668 0.0 -9.82545889675592e-12 0.0 0.01 0.0 -9.825458896755713e-12 0.0 0.010038068331535544 0.0101422721146647 0.0 2.8585014646035793e-11 0.0 0.01 0.0 2.8585014646035793e-11 0.0 0.010030717608250974 0.010143102050785141 0.0 -1.024548019278847e-11 0.0 0.01 0.0 -1.024548019278847e-11 0.0 0.01003268394055136 0.010143364461085286 0.0 -5.559769656713985e-11 0.0 0.01 0.0 -5.559769656713985e-11 0.0 0.010034293756067954 0.010143317602473013 0.0 -7.878416703866505e-11 0.0 0.01 0.0 -7.878416703866505e-11 0.0 0.010035483876208322 0.010143138209912946 0.0 -7.994629369574634e-11 0.0 0.01 0.0 -7.994629369574634e-11 0.0 0.010036364903500409 0.010142922669661231 0.0 -6.650639353919798e-11 0.0 0.01 0.0 -6.650639353919798e-11 0.0 0.010037105910219868 0.010142717890454506 0.0 -4.579631986837006e-11 0.0 0.01 0.0 -4.579631986837006e-11 0.0 0.010037811024979847 0.010142550737208638 0.0 -2.3947740696519544e-11 0.0 0.01 0.0 -2.394774069652037e-11 0.0 0.010038463938503371 0.010142438680296505 0.0 -6.718778724304686e-12 0.0 0.01 0.0 -6.718778724304686e-12 0.0 0.010038950039740152 0.010136358331747974 0.0 7.50121876059422e-11 0.0 0.01 0.0 7.501218760594303e-11 0.0 0.010030956656147108 0.010137263123920574 0.0 4.9398593427916675e-11 0.0 0.01 0.0 4.939859342791502e-11 0.0 0.01003276826302598 0.010137567327666496 0.0 1.7994411954112306e-11 0.0 0.01 0.0 1.7994411954112306e-11 0.0 0.010034280470340986 0.01013757800654895 0.0 -5.325691765767102e-12 0.0 0.01 0.0 -5.325691765767102e-12 0.0 0.010035435010043127 0.010137484398176733 0.0 -1.6444032583606784e-11 0.0 0.01 0.0 -1.644403258360637e-11 0.0 0.010036315518996912 0.010137381624692148 0.0 -1.7468348039197344e-11 0.0 0.01 0.0 -1.7468348039197758e-11 0.0 0.0100370757773963 0.010137298699759649 0.0 -1.2842987830231232e-11 0.0 0.01 0.0 -1.2842987830231025e-11 0.0 0.010037814008570619 0.010137236142787257 0.0 -6.727338192314827e-12 0.0 0.01 0.0 -6.727338192314827e-12 0.0 0.010038500507451158 0.010137196504872088 0.0 -1.8618120151058363e-12 0.0 0.01 0.0 -1.8618120151058363e-12 0.0 0.010039009782964452 0.010129764053224381 0.0 -1.4312837295787512e-11 0.0 0.01 0.0 -1.4312837295787512e-11 0.0 0.010031090695968789 0.010130324407996131 0.0 2.721085984000513e-11 0.0 0.01 0.0 2.721085984000513e-11 0.0 0.010032729787477417 0.010130340677917262 0.0 2.927135879973126e-11 0.0 0.01 0.0 2.927135879973126e-11 0.0 0.010034105336051964 0.010130141701645124 0.0 1.8390306455104572e-11 0.0 0.01 0.0 1.8390306455104572e-11 0.0 0.010035157694179767 0.010129925949350067 0.0 9.397759868435205e-12 0.0 0.01 0.0 9.397759868435205e-12 0.0 0.010035961609630325 0.010129770653653003 0.0 5.007129580528234e-12 0.0 0.01 0.0 5.007129580528234e-12 0.0 0.010036668960286472 0.010129683341939954 0.0 3.0653807806197702e-12 0.0 0.01 0.0 3.0653807806197185e-12 0.0 0.010037370544693391 0.01012963766010403 0.0 1.6705087097383767e-12 0.0 0.01 0.0 1.6705087097383767e-12 0.0 0.01003803475109824 0.010129619418724468 0.0 4.910734714295167e-13 0.0 0.01 0.0 4.910734714295167e-13 0.0 0.01003853161413209 0.010123232787076804 0.0 -7.923384532640424e-11 0.0 0.01 0.0 -7.923384532640424e-11 0.0 0.010031043357496338 0.010123165925549913 0.0 8.447716721859124e-12 0.0 0.01 0.0 8.447716721858917e-12 0.0 0.010032566094619015 0.010122658412469582 0.0 3.006448056170392e-11 0.0 0.01 0.0 3.006448056170475e-11 0.0 0.0100338251503643 0.010122047164125774 0.0 2.5611135747172465e-11 0.0 0.01 0.0 2.5611135747172878e-11 0.0 0.010034758991853736 0.0101215271171962 0.0 1.57019860856331e-11 0.0 0.01 0.0 1.5701986085633308e-11 0.0 0.01003545325265418 0.010121159606946843 0.0 8.256685346576216e-12 0.0 0.01 0.0 8.256685346576216e-12 0.0 0.010036058852632463 0.010120932816746307 0.0 4.058485317541668e-12 0.0 0.01 0.0 4.058485317541668e-12 0.0 0.010036680334517913 0.010120807738754027 0.0 1.7356715256092768e-12 0.0 0.01 0.0 1.7356715256093285e-12 0.0 0.010037279684834984 0.010120748026403887 0.0 4.382748469768664e-13 0.0 0.01 0.0 4.382748469768664e-13 0.0 0.010037737447439028 0.010115257351555154 0.0 -1.1835393311863432e-10 0.0 0.01 0.0 -1.1835393311863432e-10 0.0 0.010030734866361394 0.010114441318992246 0.0 -4.056874932702675e-12 0.0 0.01 0.0 -4.056874932702675e-12 0.0 0.010032208643928836 0.01011331179351014 0.0 2.7116690294063685e-11 0.0 0.01 0.0 2.711669029406327e-11 0.0 0.01003339307296397 0.0101121962956344 0.0 2.976313130780749e-11 0.0 0.01 0.0 2.976313130780666e-11 0.0 0.010034231116600666 0.010111271423894065 0.0 2.0341890959113746e-11 0.0 0.01 0.0 2.0341890959114573e-11 0.0 0.010034809818578353 0.010110585029287095 0.0 9.433646330896839e-12 0.0 0.01 0.0 9.433646330897046e-12 0.0 0.010035302766720999 0.010110122808551303 0.0 2.6862368634925403e-12 0.0 0.01 0.0 2.6862368634925403e-12 0.0 0.010035820450572401 0.010109833158421762 0.0 1.7354704470177097e-13 0.0 0.01 0.0 1.7354704470177097e-13 0.0 0.01003634069135489 0.010109678784969753 0.0 -1.2844579807326201e-13 0.0 0.01 0.0 -1.2844579807326201e-13 0.0 0.010036749440124093 0.010103765378986445 0.0 -1.3361256176200983e-10 0.0 0.01 0.0 -1.3361256176201314e-10 0.0 0.010030124326567542 0.010102205975716845 0.0 -5.37660906042005e-12 0.0 0.01 0.0 -5.3766090604199464e-12 0.0 0.010031593443636262 0.010100478245119835 0.0 1.9403086178191134e-11 0.0 0.01 0.0 1.9403086178191548e-11 0.0 0.010032737714818019 0.010098874066255998 0.0 2.7682069709233162e-11 0.0 0.01 0.0 2.7682069709233162e-11 0.0 0.010033498625002128 0.010097542647383913 0.0 2.39298401241367e-11 0.0 0.01 0.0 2.3929840124135873e-11 0.0 0.01003398051995043 0.010096514748047737 0.0 1.3502004137903415e-11 0.0 0.01 0.0 1.3502004137903828e-11 0.0 0.01003436725790647 0.010095779079980768 0.0 4.852499272189225e-12 0.0 0.01 0.0 4.852499272189225e-12 0.0 0.010034787133394106 0.010095287249233547 0.0 8.455472056105502e-13 0.0 0.01 0.0 8.455472056105502e-13 0.0 0.010035234196296195 0.010095008902827066 0.0 -3.816957020971446e-14 0.0 0.01 0.0 -3.816957020971446e-14 0.0 0.010035594901576182 0.010087824213113876 0.0 -1.0058607806491133e-10 0.0 0.01 0.0 -1.0058607806491133e-10 0.0 0.010029238081741691 0.010085598350783431 0.0 5.507047818407093e-12 0.0 0.01 0.0 5.5070478184072994e-12 0.0 0.010030704790881589 0.010083392005145391 0.0 1.1615216474091575e-12 0.0 0.01 0.0 1.1615216474092092e-12 0.0 0.010031815239901423 0.010081418203060537 0.0 1.1009228078275833e-11 0.0 0.01 0.0 1.1009228078275833e-11 0.0 0.010032515301980268 0.010079771112472335 0.0 1.9013957355564152e-11 0.0 0.01 0.0 1.9013957355563325e-11 0.0 0.010032912272551424 0.010078468220144066 0.0 1.603182937227381e-11 0.0 0.01 0.0 1.603182937227381e-11 0.0 0.010033216015638296 0.010077493621135627 0.0 8.851359156230988e-12 0.0 0.01 0.0 8.851359156231402e-12 0.0 0.010033556806305683 0.010076819044669458 0.0 3.343187475922627e-12 0.0 0.01 0.0 3.34318747592242e-12 0.0 0.010033943040670627 0.010076422876009957 0.0 6.744104424318281e-13 0.0 0.01 0.0 6.744104424318281e-13 0.0 0.010034263699080396 0.010068499707788057 0.0 -2.470274296334387e-11 0.0 0.01 0.0 -2.4702742963344696e-11 0.0 0.010028131463190513 0.010065769194647665 0.0 -4.776305012565534e-12 0.0 0.01 0.0 -4.776305012565741e-12 0.0 0.010029577508754906 0.010063278701283231 0.0 -4.965945854060864e-11 0.0 0.01 0.0 -4.965945854060864e-11 0.0 0.010030645195805475 0.010061128724375331 0.0 -3.400534556955254e-11 0.0 0.01 0.0 -3.400534556955254e-11 0.0 0.010031282882919523 0.010059339477931526 0.0 -5.7630622945412946e-12 0.0 0.01 0.0 -5.7630622945412946e-12 0.0 0.010031617066207112 0.010057904331693245 0.0 7.217751910449734e-12 0.0 0.01 0.0 7.217751910449734e-12 0.0 0.010031852241028797 0.010056802132770838 0.0 7.73864537573881e-12 0.0 0.01 0.0 7.738645375739223e-12 0.0 0.0100321322614691 0.010056018468988171 0.0 4.1618835589357075e-12 0.0 0.01 0.0 4.161883558935501e-12 0.0 0.010032473396109623 0.01005555179528577 0.0 1.0830262514747321e-12 0.0 0.01 0.0 1.0830262514747321e-12 0.0 0.010032765788863215 0.010048437063234278 0.0 1.912699015625705e-11 0.0 0.01 0.0 1.9126990156255397e-11 0.0 0.010026866686265403 0.010045410504832831 0.0 -7.923278395844503e-11 0.0 0.01 0.0 -7.923278395844503e-11 0.0 0.010028270785285329 0.010042856435230332 0.0 -1.4360744138805648e-10 0.0 0.01 0.0 -1.4360744138804325e-10 0.0 0.01002928584862541 0.010040737334315783 0.0 -1.0658391688642925e-10 0.0 0.01 0.0 -1.0658391688644249e-10 0.0 0.010029865662876501 0.010039000424302554 0.0 -5.0728695143234975e-11 0.0 0.01 0.0 -5.072869514322836e-11 0.0 0.010030140118465033 0.010037593735699377 0.0 -1.6111007724173442e-11 0.0 0.01 0.0 -1.6111007724166825e-11 0.0 0.010030322916368652 0.01003649814925729 0.0 -2.0642749761916834e-12 0.0 0.01 0.0 -2.0642749761916834e-12 0.0 0.01003055699098699 0.010035706436004111 0.0 1.078702263512496e-12 0.0 0.01 0.0 1.078702263512496e-12 0.0 0.010030857088628291 0.010035227778944429 0.0 5.258796064527422e-13 0.0 0.01 0.0 5.258796064523286e-13 0.0 0.010031125670345335 0.010030380588330492 0.0 -2.4919056588020494e-11 0.0 0.01 0.0 -2.4919056588013876e-11 0.0 0.01002548771343385 0.010027260012475234 0.0 -1.974486836695894e-10 0.0 0.01 0.0 -1.974486836695894e-10 0.0 0.010026840577051884 0.010024810781720078 0.0 -2.3870355634808874e-10 0.0 0.01 0.0 -2.3870355634808874e-10 0.0 0.010027803022861704 0.01002288149551093 0.0 -1.7005218258537414e-10 0.0 0.01 0.0 -1.7005218258542708e-10 0.0 0.010028330388476113 0.010021332719088021 0.0 -9.077286134011863e-11 0.0 0.01 0.0 -9.07728613401451e-11 0.0 0.010028564777489077 0.01002008228313712 0.0 -3.884826314482305e-11 0.0 0.01 0.0 -3.884826314482305e-11 0.0 0.010028704672395024 0.010019098524049872 0.0 -1.2559661666639006e-11 0.0 0.01 0.0 -1.2559661666637352e-11 0.0 0.010028898739622151 0.010018382111360481 0.0 -2.3242993965177426e-12 0.0 0.01 0.0 -2.3242993965177426e-12 0.0 0.010029159295616916 0.010017946144276741 0.0 -6.361103644850659e-14 0.0 0.01 0.0 -6.361103644850659e-14 0.0 0.010029398686096988 0.010016067441608 0.0 -9.439294447280503e-11 0.0 0.01 0.0 -9.43929444728315e-11 0.0 0.010023994786996919 0.010012995990537366 0.0 -2.6121005204482665e-10 0.0 0.01 0.0 -2.612100520448002e-10 0.0 0.010025305179755896 0.010010741883452566 0.0 -2.5852874050260374e-10 0.0 0.01 0.0 -2.5852874050260374e-10 0.0 0.010026233721315267 0.010009054282175238 0.0 -1.7585615949681498e-10 0.0 0.01 0.0 -1.7585615949681498e-10 0.0 0.010026737704703264 0.0100077423823995 0.0 -9.615722400280953e-11 0.0 0.01 0.0 -9.615722400280953e-11 0.0 0.010026950862145648 0.0100066937148795 0.0 -4.250577798071389e-11 0.0 0.01 0.0 -4.2505777980710584e-11 0.0 0.01002706357041625 0.010005868912580203 0.0 -1.2586908279431593e-11 0.0 0.01 0.0 -1.2586908279431593e-11 0.0 0.010027219634296418 0.01000526735883943 0.0 -8.13353598173164e-13 0.0 0.01 0.0 -8.13353598173164e-13 0.0 0.01002743917447325 0.010004898146426888 0.0 6.712769626329848e-13 0.0 0.01 0.0 6.712769626329848e-13 0.0 0.010027643503464597 0.010005921255040138 0.0 2.811584329911907e-10 0.0 0.01 0.0 2.811584329911907e-10 0.0 0.01002238992243538 0.010002985236213425 0.0 -1.7977757828988468e-10 0.0 0.01 0.0 -1.7977757828987144e-10 0.0 0.010023667760056145 0.010000922977767474 0.0 -1.6096731893430493e-10 0.0 0.01 0.0 -1.6096731893430493e-10 0.0 0.0100245909104341 0.009999444546282757 0.0 -1.1156319617532298e-10 0.0 0.01 0.0 -1.1156319617531637e-10 0.0 0.010025106434439553 0.009998326420224161 0.0 -6.598656216316506e-11 0.0 0.01 0.0 -6.598656216316506e-11 0.0 0.010025328808312226 0.009997450974960648 0.0 -2.8160391372911692e-11 0.0 0.01 0.0 -2.8160391372911692e-11 0.0 0.010025437532052818 0.00999677206360895 0.0 -2.9296372897745262e-12 0.0 0.01 0.0 -2.9296372897745262e-12 0.0 0.010025567924595679 0.009996277080052424 0.0 5.307711130924838e-12 0.0 0.01 0.0 5.307711130924838e-12 0.0 0.010025745081194224 0.009995974931481362 0.0 2.652253350755612e-12 0.0 0.01 0.0 2.652253350755819e-12 0.0 0.010025909448188942 0.009999396554629076 0.0 4.273986032703073e-09 0.0 0.01 0.0 4.273986032703073e-09 0.0 0.010020700348722388 0.009996638695515049 0.0 1.83115993130172e-10 0.0 0.01 0.0 1.8311599313015877e-10 0.0 0.010021927361093589 0.009994711697880722 0.0 2.7954792672123556e-11 0.0 0.01 0.0 2.7954792672123556e-11 0.0 0.010022866291654992 0.009993346146960768 0.0 -9.018682511387702e-12 0.0 0.01 0.0 -9.018682511387289e-12 0.0 0.010023425808922378 0.009992326840650346 0.0 -2.666965852190973e-11 0.0 0.01 0.0 -2.6669658521911384e-11 0.0 0.010023694801260937 0.009991546232024901 0.0 -1.4986299320918038e-11 0.0 0.01 0.0 -1.4986299320916384e-11 0.0 0.01002383101773397 0.009990954787198787 0.0 3.753408826041704e-12 0.0 0.01 0.0 3.753408826041497e-12 0.0 0.01002395590869622 0.009990537447949283 0.0 9.693690495918654e-12 0.0 0.01 0.0 9.693690495918654e-12 0.0 0.010024098531826887 0.00999028617212173 0.0 4.1635367781143144e-12 0.0 0.01 0.0 4.163536778114108e-12 0.0 0.010024226907922568 0.009995513521142944 0.0 2.0332035004893198e-08 0.0 0.01 0.0 2.0332035004893198e-08 0.0 0.010018989503620469 0.009992988880269608 0.0 2.364973983539152e-09 0.0 0.01 0.0 2.364973983539152e-09 0.0 0.01002011030138013 0.009991113858575646 0.0 2.5053731437021154e-10 0.0 0.01 0.0 2.5053731437021154e-10 0.0 0.010021052645958645 0.00998974728929409 0.0 9.819339832262733e-11 0.0 0.01 0.0 9.819339832263395e-11 0.0 0.010021676728927615 0.00998871712426026 0.0 3.182330824299565e-12 0.0 0.01 0.0 3.1823308242997717e-12 0.0 0.01002202812253674 0.009987943339563897 0.0 -1.6716946983896186e-11 0.0 0.01 0.0 -1.671694698389536e-11 0.0 0.010022226735159434 0.009987373952879663 0.0 -3.410410418032533e-12 0.0 0.01 0.0 -3.410410418032533e-12 0.0 0.010022372203998675 0.009986984952882326 0.0 5.927419516321113e-12 0.0 0.01 0.0 5.9274195163213195e-12 0.0 0.010022499557352049 0.009986753865572039 0.0 3.3456871779879598e-12 0.0 0.01 0.0 3.3456871779879598e-12 0.0 0.010022600789113097 0.009993330678500896 0.0 6.249582259105718e-08 0.0 0.01 0.0 6.249582259105379e-08 0.0 0.01001735316615424 0.00999111884528055 0.0 1.113660134386222e-08 0.0 0.01 0.0 1.113660134386222e-08 0.0 0.010018276030200083 0.009989265808200825 0.0 6.538602272388182e-10 0.0 0.01 0.0 6.538602272388447e-10 0.0 0.010019171189592078 0.009987794382985724 0.0 2.1764583463498394e-10 0.0 0.01 0.0 2.1764583463495747e-10 0.0 0.010019853417608351 0.009986662231942488 0.0 4.206985635424719e-11 0.0 0.01 0.0 4.206985635424719e-11 0.0 0.010020302863987305 0.009985810259553345 0.0 -2.1905191063142833e-11 0.0 0.01 0.0 -2.190519106314118e-11 0.0 0.010020592734906698 0.009985196436825355 0.0 -2.0909998898625644e-11 0.0 0.01 0.0 -2.090999889862647e-11 0.0 0.010020792218140045 0.009984787782275004 0.0 -6.1809566755745695e-12 0.0 0.01 0.0 -6.180956675574776e-12 0.0 0.0100209352094171 0.009984556847447618 0.0 -2.447413014748089e-13 0.0 0.01 0.0 -2.447413014748089e-13 0.0 0.010021027588458036 0.009992164721825503 0.0 1.5183641783693403e-07 0.0 0.01 0.0 1.5183641783692047e-07 0.0 0.010015887887139814 0.009990391366871725 0.0 3.943073989815881e-08 0.0 0.01 0.0 3.943073989815881e-08 0.0 0.010016536528494751 0.009988606501396277 0.0 3.923143152079118e-09 0.0 0.01 0.0 3.923143152079118e-09 0.0 0.010017293305553805 0.009986988439236151 0.0 3.8464565364086873e-10 0.0 0.01 0.0 3.8464565364086873e-10 0.0 0.010017986913232505 0.009985681312540576 0.0 1.370565044499832e-10 0.0 0.01 0.0 1.370565044499832e-10 0.0 0.010018521530281007 0.009984687244022903 0.0 7.75445938180586e-12 0.0 0.01 0.0 7.75445938180586e-12 0.0 0.01001891090842834 0.009983979082874557 0.0 -2.61393819318644e-11 0.0 0.01 0.0 -2.6139381931866055e-11 0.0 0.01001918542116015 0.009983511868605433 0.0 -1.7372190623862873e-11 0.0 0.01 0.0 -1.7372190623862873e-11 0.0 0.010019369129495987 0.00998324968017317 0.0 -4.496875722689474e-12 0.0 0.01 0.0 -4.496875722689474e-12 0.0 0.010019478162380649 0.009991597117946116 0.0 3.141026085926675e-07 0.0 0.01 0.0 3.141026085926675e-07 0.0 0.010014667471973845 0.009990390371349384 0.0 1.1059140114356265e-07 0.0 0.01 0.0 1.1059140114356265e-07 0.0 0.010015005408726725 0.00998882426259211 0.0 2.1703687172751175e-08 0.0 0.01 0.0 2.1703687172751175e-08 0.0 0.010015542510569336 0.009987132877103191 0.0 1.7485063218197981e-09 0.0 0.01 0.0 1.7485063218197981e-09 0.0 0.010016157224195788 0.009985625553217302 0.0 3.155006000430107e-10 0.0 0.01 0.0 3.155006000429842e-10 0.0 0.01001672692509828 0.009984441883712506 0.0 1.135166794325379e-10 0.0 0.01 0.0 1.135166794325379e-10 0.0 0.0100171882641205 0.009983583513819904 0.0 1.546681291795675e-11 0.0 0.01 0.0 1.546681291795758e-11 0.0 0.010017539688418151 0.009983022831709213 0.0 -9.202681652840738e-12 0.0 0.01 0.0 -9.202681652841152e-12 0.0 0.010017778247781309 0.009982705468801686 0.0 -4.561274124812953e-12 0.0 0.01 0.0 -4.561274124812953e-12 0.0 0.010017916686376803 0.009991342306992444 0.0 5.809636598189593e-07 0.0 0.01 0.0 5.809636598189593e-07 0.0 0.01001371180105285 0.009990781273889731 0.0 2.640632651041433e-07 0.0 0.01 0.0 2.640632651041433e-07 0.0 0.010013779891001296 0.00998963713169132 0.0 8.360256807907765e-08 0.0 0.01 0.0 8.360256807908443e-08 0.0 0.010014054474859731 0.009988080345682394 0.0 1.58122297249824e-08 0.0 0.01 0.0 1.5812229724984095e-08 0.0 0.010014488928672571 0.009986464033046488 0.0 1.575247979389477e-09 0.0 0.01 0.0 1.575247979389477e-09 0.0 0.01001499706948011 0.00998508045546514 0.0 2.9160810068118923e-10 0.0 0.01 0.0 2.9160810068120247e-10 0.0 0.010015473339685358 0.009984041781154675 0.0 1.2080414816334917e-10 0.0 0.01 0.0 1.2080414816334917e-10 0.0 0.01001586577872268 0.009983344204930715 0.0 3.430628621469483e-11 0.0 0.01 0.0 3.430628621469483e-11 0.0 0.010016148883909224 0.009982949706224072 0.0 5.139223335182598e-12 0.0 0.01 0.0 5.1392233351828045e-12 0.0 0.010016318658054331 0.009991188802082523 0.0 9.75416383509225e-07 0.0 0.01 0.0 9.754163835092792e-07 0.0 0.01001296576552876 0.009991231092485573 0.0 5.470914826694148e-07 0.0 0.01 0.0 5.47091482669469e-07 0.0 0.010012867588477496 0.0099906775611514 0.0 2.414126392597703e-07 0.0 0.01 0.0 2.414126392597432e-07 0.0 0.010012913178252623 0.009989522989148578 0.0 7.971611413378214e-08 0.0 0.01 0.0 7.971611413378892e-08 0.0 0.010013117566464664 0.009988051947609633 0.0 1.8626062364552827e-08 0.0 0.01 0.0 1.8626062364553674e-08 0.0 0.010013453852350572 0.009986601974246835 0.0 2.8541699782932867e-09 0.0 0.01 0.0 2.8541699782932867e-09 0.0 0.010013849016257218 0.009985407005589642 0.0 3.6598089340339373e-10 0.0 0.01 0.0 3.659808934034202e-10 0.0 0.010014219722674298 0.009984559833571573 0.0 1.0394316999526792e-10 0.0 0.01 0.0 1.0394316999528115e-10 0.0 0.01001451002011419 0.009984071637893705 0.0 2.3696692948275366e-11 0.0 0.01 0.0 2.369669294827702e-11 0.0 0.010014691512777937 0.009991098230021036 0.0 1.4819603101813182e-06 0.0 0.01 0.0 1.4819603101813182e-06 0.0 0.010012355238864581 0.009991460098492175 0.0 9.880594064909007e-07 0.0 0.01 0.0 9.880594064909007e-07 0.0 0.010012198229404577 0.00999152932066097 0.0 5.513705932658208e-07 0.0 0.01 0.0 5.51370593265875e-07 0.0 0.01001210007188864 0.0099909981792575 0.0 2.546635162484971e-07 0.0 0.01 0.0 2.5466351624851065e-07 0.0 0.010012095168337573 0.0099899736008827 0.0 9.644486285202784e-08 0.0 0.01 0.0 9.644486285203461e-08 0.0 0.01001221474499865 0.009988741043330671 0.0 2.9421784441407842e-08 0.0 0.01 0.0 2.9421784441406148e-08 0.0 0.010012434755205829 0.009987581670603901 0.0 6.716186096413027e-09 0.0 0.01 0.0 6.716186096413027e-09 0.0 0.010012692072486139 0.009986674184012164 0.0 1.074896600872859e-09 0.0 0.01 0.0 1.074896600872859e-09 0.0 0.010012923961212358 0.009986113478969346 0.0 7.816827700566092e-11 0.0 0.01 0.0 7.816827700566092e-11 0.0 0.010013083732888561 0.009991586736003834 0.0 2.0103595934035457e-06 0.0 0.01 0.0 2.0103595934035457e-06 0.0 0.01001192916683862 0.009991487743348354 0.0 1.5534151258615866e-06 0.0 0.01 0.0 1.5534151258618034e-06 0.0 0.010011703976690076 0.009991883552794461 0.0 1.0343474901430144e-06 0.0 0.01 0.0 1.034347490142906e-06 0.0 0.010011511707608136 0.009992034081828357 0.0 5.960884405570212e-07 0.0 0.01 0.0 5.960884405570212e-07 0.0 0.01001137046696184 0.009991693374646483 0.0 2.961794987381373e-07 0.0 0.01 0.0 2.961794987381102e-07 0.0 0.01001129597420186 0.00999098121780799 0.0 1.2524659846280348e-07 0.0 0.01 0.0 1.2524659846281704e-07 0.0 0.010011307703094966 0.00999013362132494 0.0 4.303107973064642e-08 0.0 0.01 0.0 4.303107973064642e-08 0.0 0.010011387120766584 0.009989373960952095 0.0 1.0949787973205755e-08 0.0 0.01 0.0 1.0949787973205755e-08 0.0 0.010011495391283718 0.00998885765049868 0.0 1.5086074237013329e-09 0.0 0.01 0.0 1.5086074237013329e-09 0.0 0.010011582592434811 0.009993694262873698 0.0 2.2998713200856214e-06 0.0 0.01 0.0 2.2998713200854046e-06 0.0 0.01001172011361149 0.009992233234712952 0.0 2.1237905668694892e-06 0.0 0.01 0.0 2.1237905668692724e-06 0.0 0.010011513679439329 0.009991934164305266 0.0 1.6225064519756862e-06 0.0 0.01 0.0 1.6225064519756862e-06 0.0 0.010011118509872399 0.009992359442945672 0.0 1.0868726370554666e-06 0.0 0.01 0.0 1.0868726370554666e-06 0.0 0.010010823874976612 0.009992738478547305 0.0 6.397720219676541e-07 0.0 0.01 0.0 6.397720219675999e-07 0.0 0.010010617998656272 0.009992751404708554 0.0 3.2409824599961183e-07 0.0 0.01 0.0 3.2409824599958473e-07 0.0 0.01001046170996336 0.009992469018679536 0.0 1.3602205884747872e-07 0.0 0.01 0.0 1.3602205884749227e-07 0.0 0.01001036424316366 0.009992068945516248 0.0 4.357580874060602e-08 0.0 0.01 0.0 4.357580874060602e-08 0.0 0.010010317696574655 0.009991740244825152 0.0 8.1523262567639e-09 0.0 0.01 0.0 8.1523262567639e-09 0.0 0.010010304004032928 0.009997670299680118 0.0 1.7995565154461674e-06 0.0 0.01 0.0 1.7995565154461674e-06 0.0 0.010011757989475607 0.009994940147762447 0.0 2.316605876964738e-06 0.0 0.01 0.0 2.316605876964738e-06 0.0 0.010011484406569982 0.009993248023210473 0.0 2.126738141358447e-06 0.0 0.01 0.0 2.126738141358447e-06 0.0 0.01001110755635724 0.009992646505134465 0.0 1.6039053489854283e-06 0.0 0.01 0.0 1.6039053489854283e-06 0.0 0.010010550257906746 0.009993025968759504 0.0 1.052988860006875e-06 0.0 0.01 0.0 1.052988860006875e-06 0.0 0.01001012587528799 0.009993638129812639 0.0 5.979362960448946e-07 0.0 0.01 0.0 5.979362960448946e-07 0.0 0.010009827020126313 0.00999402387341786 0.0 2.831831174187542e-07 0.0 0.01 0.0 2.831831174187542e-07 0.0 0.010009599266225083 0.009994141653666647 0.0 1.0356156996298496e-07 0.0 0.01 0.0 1.0356156996299852e-07 0.0 0.010009430825921707 0.00999412368379716 0.0 2.1912384363461607e-08 0.0 0.01 0.0 2.1912384363461607e-08 0.0 0.01000932552869362 0.01000030371386057 0.0 1.2871616416301309e-08 0.0 0.01 0.0 1.2871616416301309e-08 0.0 0.01001147968729459 0.009998466661978837 0.0 1.4366046221674957e-06 0.0 0.01 0.0 1.4366046221674957e-06 0.0 0.010011244345614265 0.009996656282208439 0.0 2.007900489038421e-06 0.0 0.01 0.0 2.0079004890386377e-06 0.0 0.01001111972300461 0.009995014259028968 0.0 1.8760837187953988e-06 0.0 0.01 0.0 1.8760837187956157e-06 0.0 0.010010645902996516 0.009994225793806787 0.0 1.387268411122476e-06 0.0 0.01 0.0 1.3872684111223676e-06 0.0 0.010010053027335918 0.009994224115899935 0.0 8.480882545272919e-07 0.0 0.01 0.0 8.480882545272919e-07 0.0 0.010009493108474718 0.009994710228026227 0.0 4.3054429658891417e-07 0.0 0.01 0.0 4.3054429658891417e-07 0.0 0.010009092965040094 0.009995184984188556 0.0 1.6926295932773844e-07 0.0 0.01 0.0 1.6926295932773844e-07 0.0 0.01000882366913613 0.009995455100513567 0.0 3.813905471218118e-08 0.0 0.01 0.0 3.813905471218118e-08 0.0 0.010008653820561922 0.009998672307059728 0.0 -5.33180487525685e-07 0.0 0.01 0.0 -5.331804875257392e-07 0.0 0.010010508282955199 0.009998869263992901 0.0 6.940685320563087e-07 0.0 0.01 0.0 6.940685320562003e-07 0.0 0.01001060481756871 0.00999788540781168 0.0 1.257221855313368e-06 0.0 0.01 0.0 1.257221855313368e-06 0.0 0.010010360565487968 0.009997300326340643 0.0 1.245942698187611e-06 0.0 0.01 0.0 1.2459426981878277e-06 0.0 0.010010067665616199 0.009996837120437668 0.0 8.917531947118295e-07 0.0 0.01 0.0 8.917531947120463e-07 0.0 0.01000947892953506 0.009996852523347706 0.0 4.949430069538002e-07 0.0 0.01 0.0 4.949430069538002e-07 0.0 0.010008921160554888 0.009996992363640092 0.0 2.035736009473911e-07 0.0 0.01 0.0 2.03573600947364e-07 0.0 0.010008495169141008 0.009997130236135222 0.0 4.6959984161512494e-08 0.0 0.01 0.0 4.6959984161512494e-08 0.0 0.010008238219398245 0.009997073293265085 0.0 -2.2986430234269556e-07 0.0 0.01 0.0 -2.2986430234272267e-07 0.0 0.010009610995860375 0.009997815227093977 0.0 2.6966722778401704e-07 0.0 0.01 0.0 2.6966722778401704e-07 0.0 0.010009606586148054 0.009997823232390237 0.0 3.7815348393361323e-07 0.0 0.01 0.0 3.78153483933559e-07 0.0 0.010009150265201917 0.00999844587350395 0.0 2.7252830114908415e-07 0.0 0.01 0.0 2.7252830114908415e-07 0.0 0.010008676841202295 0.009998995653750887 0.0 1.2717262246199996e-07 0.0 0.01 0.0 1.2717262246202707e-07 0.0 0.010008246040796647 0.009999417551035786 0.0 3.108577425599778e-08 0.0 0.01 0.0 3.1085774256004557e-08 0.0 0.01000797437861998 0.009994446151528637 0.0 -3.769020619384493e-07 0.0 0.01 0.0 -3.769020619384493e-07 0.0 0.010008703771447405 0.009995287835404083 0.0 -1.325529547578061e-07 0.0 0.01 0.0 -1.325529547578061e-07 0.0 0.010008276867282524 0.00999599590638197 0.0 -3.488427287912617e-08 0.0 0.01 0.0 -3.488427287912617e-08 0.0 0.010007971421596021 0.009996513324388513 0.0 -5.40109377469001e-09 0.0 0.01 0.0 -5.401093774691704e-09 0.0 0.010007776160910996 0.009995962446592684 0.0 -1.8496867586283543e-18 0.0 0.01 0.0 -1.8496867586283543e-18 0.0 0.010000062500585943 0.009995961947198108 0.0 4.0261403911005733e-16 0.0 0.01 0.0 4.0261403911005733e-16 0.0 0.010000065900651429 0.009995959450226362 0.0 1.5524219597537142e-15 0.0 0.01 0.0 1.5524219597537142e-15 0.0 0.010000069800730815 0.009995956953256486 0.0 3.789916046465666e-15 0.0 0.01 0.0 3.789916046465666e-15 0.0 0.010000078600926707 0.009995959949620561 0.0 7.98641406078056e-15 0.0 0.01 0.0 7.98641406078056e-15 0.0 0.010000088851184166 0.009995970436916047 0.0 1.5910083365195668e-14 0.0 0.01 0.0 1.5910083365195668e-14 0.0 0.010000103501606865 0.00999599440800111 0.0 2.7558929219775583e-14 0.0 0.01 0.0 2.7558929219775583e-14 0.0 0.010000115702008011 0.009996042350688598 0.0 4.958403224345642e-14 0.0 0.01 0.0 4.958403224345642e-14 0.0 0.010000128902492337 0.009995318289815052 0.0 3.3356396450623944e-18 0.0 0.01 0.0 3.3356396450623944e-18 0.0 0.010000086901132759 0.009995316791921173 0.0 5.436534867878217e-16 0.0 0.01 0.0 5.436534867878217e-16 0.0 0.010000087401145831 0.009995312797540786 0.0 1.2652810435303432e-15 0.0 0.01 0.0 1.2652810435303432e-15 0.0 0.010000094751346656 0.009995309302461876 0.0 2.221704783853404e-15 0.0 0.01 0.0 2.221704783853404e-15 0.0 0.010000105451667985 0.009995307804572036 0.0 -1.071324926972707e-15 0.0 0.01 0.0 -1.071324926972707e-15 0.0 0.010000118652111716 0.009995316292623362 0.0 -1.5755135549578743e-14 0.0 0.01 0.0 -1.5755135549578743e-14 0.0 0.010000135252743948 0.009995338261797803 0.0 -6.027899143956969e-14 0.0 0.01 0.0 -6.027899143956969e-14 0.0 0.01000015235348167 0.009995385196428508 0.0 -1.7131287759700507e-13 0.0 0.01 0.0 -1.7131287759700507e-13 0.0 0.010000167504208552 0.00999482901363214 0.0 -8.164695821970909e-19 0.0 0.01 0.0 -8.164695821970909e-19 0.0 0.010000107401730244 0.009994828514407425 0.0 1.9553858325353401e-16 0.0 0.01 0.0 1.9553858325353401e-16 0.0 0.010000108401762615 0.009994823522164383 0.0 7.039174754805033e-16 0.0 0.01 0.0 7.039174754805033e-16 0.0 0.010000115702008011 0.00999481453614576 0.0 -5.098537662551908e-16 0.0 0.01 0.0 -5.098537662551908e-16 0.0 0.010000128902492335 0.009994809543923663 0.0 -8.478334788039318e-15 0.0 0.01 0.0 -8.478334788039318e-15 0.0 0.010000144053112635 0.009994812539256022 0.0 -4.2342795594335083e-14 0.0 0.01 0.0 -4.2342795594335083e-14 0.0 0.01000016310399035 0.009994829013632144 0.0 -1.3663715989396353e-13 0.0 0.01 0.0 -1.3663715989396353e-13 0.0 0.010000181154922452 0.00999486995031339 0.0 -3.5245736275495943e-13 0.0 0.01 0.0 -3.524573627550628e-13 0.0 0.010000197755865952 0.00999441218703993 0.0 -1.4956778660343363e-18 0.0 0.01 0.0 -1.4956778660343363e-18 0.0 0.010000124002306448 0.009994408692905687 0.0 9.346070946510775e-17 0.0 0.01 0.0 9.346070946510775e-17 0.0 0.010000127452436577 0.009994397711364785 0.0 9.531255780973627e-17 0.0 0.01 0.0 9.531255780973627e-17 0.0 0.010000134752723697 0.009994387728177194 0.0 -1.752743509604508e-15 0.0 0.01 0.0 -1.752743509604508e-15 0.0 0.010000146503219415 0.009994378743333943 0.0 -1.2135008332626446e-14 0.0 0.01 0.0 -1.2135008332626446e-14 0.0 0.01000016310399035 0.009994373751764828 0.0 -5.1782304294360376e-14 0.0 0.01 0.0 -5.1782304294360376e-14 0.0 0.010000181154922448 0.009994380240806134 0.0 -1.6508204599150286e-13 0.0 0.01 0.0 -1.6508204599160625e-13 0.0 0.010000200706042274 0.009994411687877675 0.0 -4.1674701171416964e-13 0.0 0.01 0.0 -4.1674701171406624e-13 0.0 0.010000217307083153 0.0099939744504658 0.0 9.430250926073178e-19 0.0 0.01 0.0 9.430250926073178e-19 0.0 0.010000138202864953 0.009993971455886872 0.0 4.397714850970695e-17 0.0 0.01 0.0 4.397714850970695e-17 0.0 0.010000140602965323 0.009993959976692592 0.0 -2.358277402848523e-16 0.0 0.01 0.0 -2.358277402848523e-16 0.0 0.010000148953327997 0.009993943506613366 0.0 -2.3725925112831e-15 0.0 0.01 0.0 -2.3725925112831e-15 0.0 0.010000160153847306 0.0099939290329746 0.0 -1.3114651662880206e-14 0.0 0.01 0.0 -1.3114651662880206e-14 0.0 0.010000175304609648 0.009993914060311018 0.0 -5.265344639002321e-14 0.0 0.01 0.0 -5.265344639002321e-14 0.0 0.010000193855636856 0.009993912563048366 0.0 -1.6123085192135376e-13 0.0 0.01 0.0 -1.6123085192130206e-13 0.0 0.010000211906735484 0.00999393252660579 0.0 -3.667576318804554e-13 0.0 0.01 0.0 -3.667576318804554e-13 0.0 0.010000226057665084 0.009993465410713784 0.0 2.5975006117585303e-19 0.0 0.01 0.0 2.5975006117585303e-19 0.0 0.010000154303571365 0.009993460420513002 0.0 -3.1003121126061216e-17 0.0 0.01 0.0 -3.1003121126061216e-17 0.0 0.010000156253662204 0.00999344694700823 0.0 -6.855343918911827e-16 0.0 0.01 0.0 -6.855343918911827e-16 0.0 0.0100001635540124 0.009993428483405016 0.0 -3.1567960876133458e-15 0.0 0.01 0.0 -3.1567960876133458e-15 0.0 0.010000174304557206 0.009993403532752451 0.0 -1.5460304230890083e-14 0.0 0.01 0.0 -1.5460304230890083e-14 0.0 0.010000187505273603 0.009993381077324927 0.0 -5.6061428911867656e-14 0.0 0.01 0.0 -5.6061428911867656e-14 0.0 0.0100002011560694 0.009993367105135311 0.0 -1.5135174529214108e-13 0.0 0.01 0.0 -1.5135174529211523e-13 0.0 0.010000215806985699 0.0099933730932094 0.0 -2.6965288120152513e-13 0.0 0.01 0.0 -2.6965288120157683e-13 0.0 0.010000225107600787 0.00999285266995787 0.0 -1.0651180319729742e-18 0.0 0.01 0.0 -1.0651180319729742e-18 0.0 0.010000175804635981 0.00999284618389152 0.0 -2.2858857430645745e-16 0.0 0.01 0.0 -2.2858857430645745e-16 0.0 0.0100001777547394 0.009992830717168881 0.0 -1.0633843641146105e-15 0.0 0.01 0.0 -1.0633843641146105e-15 0.0 0.010000183605056499 0.009992805770993377 0.0 -5.31460878812105e-15 0.0 0.01 0.0 -5.31460878812105e-15 0.0 0.010000190455440853 0.009992774837995216 0.0 -2.249627262129778e-14 0.0 0.01 0.0 -2.249627262129778e-14 0.0 0.010000203106187652 0.009992742907459716 0.0 -7.1029611178796e-14 0.0 0.01 0.0 -7.1029611178796e-14 0.0 0.010000214856924329 0.00999271596630847 0.0 -1.5970991184938154e-13 0.0 0.01 0.0 -1.5970991184932984e-13 0.0 0.010000221707372907 0.009992706985973144 0.0 -1.756374035159974e-13 0.0 0.01 0.0 -1.756374035159974e-13 0.0 0.010000226557699029 0.009992132294867537 0.0 -7.577277098350165e-19 0.0 0.01 0.0 -7.577277098350165e-19 0.0 0.010000210456643613 0.009992127306663549 0.0 -6.725515472580914e-16 0.0 0.01 0.0 -6.725515472580914e-16 0.0 0.010000212906799203 0.009992108850373743 0.0 -2.2888081863731683e-15 0.0 0.01 0.0 -2.2888081863731683e-15 0.0 0.010000216307018106 0.00999207792384712 0.0 -1.0615387679648818e-14 0.0 0.01 0.0 -1.0615387679648818e-14 0.0 0.01000022265743623 0.009992039515496088 0.0 -3.5702125584164354e-14 0.0 0.01 0.0 -3.5702125584164354e-14 0.0 0.010000231458035675 0.009991997117181352 0.0 -1.0065965264452499e-13 0.0 0.01 0.0 -1.0065965264452499e-13 0.0 0.010000237308447029 0.009991959208556958 0.0 -2.0421131444318857e-13 0.0 0.01 0.0 -2.0421131444313687e-13 0.0 0.010000239758622357 0.00999193526649017 0.0 -1.466089410463932e-13 0.0 0.01 0.0 -1.466089410463932e-13 0.0 0.010000235358308773 0.00999131133706245 0.0 -4.085561612297121e-18 0.0 0.01 0.0 -4.085561612297121e-18 0.0 0.010000263210391592 0.009991303856603361 0.0 -7.718578479518562e-16 0.0 0.01 0.0 -7.718578479518562e-16 0.0 0.010000266110621853 0.009991281914020295 0.0 -4.339292150064024e-15 0.0 0.01 0.0 -4.339292150064024e-15 0.0 0.010000268560818348 0.009991245509599102 0.0 -1.7166137427844454e-14 0.0 0.01 0.0 -1.7166137427844454e-14 0.0 0.010000274411294821 0.009991199630621348 0.0 -5.737560614409866e-14 0.0 0.01 0.0 -5.737560614409866e-14 0.0 0.01000027786158063 0.009991147768190147 0.0 -1.534636933611778e-13 0.0 0.01 0.0 -1.534636933611778e-13 0.0 0.010000277861580633 0.009991097402563615 0.0 -2.9495369576287696e-13 0.0 0.01 0.0 -2.9495369576287696e-13 0.0 0.01000027491133602 0.009991056512219139 0.0 -1.9484134533420332e-13 0.0 0.01 0.0 -1.9484134533420332e-13 0.0 0.010000263210391594 0.009990382392569578 0.0 -3.346031583723452e-19 0.0 0.01 0.0 -3.346031583723452e-19 0.0 0.010000346217979203 0.009990372919966878 0.0 -1.2385774351071251e-15 0.0 0.01 0.0 -1.2385774351071251e-15 0.0 0.010000345217875484 0.009990346496533338 0.0 -8.471216251864427e-15 0.0 0.01 0.0 -8.471216251864427e-15 0.0 0.010000348668234583 0.009990305116860563 0.0 -2.6035817041443872e-14 0.0 0.01 0.0 -2.6035817041443872e-14 0.0 0.010000352068591971 0.009990252271279115 0.0 -8.457006842026003e-14 0.0 0.01 0.0 -8.457006842026003e-14 0.0 0.010000355018904868 0.009990191450044155 0.0 -2.2078251085932687e-13 0.0 0.01 0.0 -2.2078251085930102e-13 0.0 0.010000350118386576 0.00999012763879504 0.0 -4.1845726539093914e-13 0.0 0.01 0.0 -4.1845726539093914e-13 0.0 0.010000341317473847 0.009990070807930754 0.0 -3.1734218454506325e-13 0.0 0.01 0.0 -3.1734218454506325e-13 0.0 0.010000322765625975 0.009989330599738987 0.0 1.4821325242845034e-19 0.0 0.01 0.0 1.4821325242845034e-19 0.0 0.010000457081336593 0.00998932212692772 0.0 -8.292085589784048e-16 0.0 0.01 0.0 -8.292085589784048e-16 0.0 0.010000457081336593 0.009989293219851533 0.0 -8.604639995026775e-15 0.0 0.01 0.0 -8.604639995026775e-15 0.0 0.010000461481942871 0.0099892448758194 0.0 -3.17601934900728e-14 0.0 0.01 0.0 -3.17601934900728e-14 0.0 0.010000465832547973 0.009989184072981718 0.0 -1.0533487949384882e-13 0.0 0.01 0.0 -1.0533487949384882e-13 0.0 0.010000465832547975 0.009989115297339623 0.0 -2.722435906568711e-13 0.0 0.01 0.0 -2.722435906568194e-13 0.0 0.010000459981735536 0.0099890395461025 0.0 -5.059742987373599e-13 0.0 0.01 0.0 -5.059742987373082e-13 0.0 0.010000446329879776 0.009988965789974881 0.0 -3.954993515435785e-13 0.0 0.01 0.0 -3.954993515435785e-13 0.0 0.010000426777319278 0.009988153085710185 0.0 -6.327346007185618e-19 0.0 0.01 0.0 -6.327346007185618e-19 0.0 0.010000606005081875 0.009988142623000212 0.0 -3.9386684743054277e-16 0.0 0.01 0.0 -3.9386684743054277e-16 0.0 0.010000607005263836 0.009988112729724318 0.0 -6.6222783321391e-15 0.0 0.01 0.0 -6.6222783321391e-15 0.0 0.010000611856150612 0.009988059918926174 0.0 -2.9446914563935864e-14 0.0 0.01 0.0 -2.9446914563935864e-14 0.0 0.010000615756868808 0.009987993657505866 0.0 -1.0308305362117634e-13 0.0 0.01 0.0 -1.0308305362117634e-13 0.0 0.010000617257146254 0.00998791494264521 0.0 -2.4932099471042693e-13 0.0 0.01 0.0 -2.4932099471037523e-13 0.0 0.010000614806693443 0.009987826764283619 0.0 -4.342118109088323e-13 0.0 0.01 0.0 -4.34211810908884e-13 0.0 0.010000605054909288 0.009987737093768646 0.0 -2.945503190264332e-13 0.0 0.01 0.0 -2.945503190263815e-13 0.0 0.010000587951849044 0.009986840023404907 0.0 8.473584707252742e-19 0.0 0.01 0.0 8.473584707252742e-19 0.0 0.010000794044566004 0.009986830560874951 0.0 3.300367516561834e-16 0.0 0.01 0.0 3.300367516561834e-16 0.0 0.010000797445377728 0.009986794703110789 0.0 -2.107089997663593e-15 0.0 0.01 0.0 -2.107089997663593e-15 0.0 0.010000802846674069 0.009986741415202555 0.0 -1.2621015265762974e-14 0.0 0.01 0.0 -1.2621015265762974e-14 0.0 0.01000081064856201 0.009986666713963522 0.0 -4.8633557221891376e-14 0.0 0.01 0.0 -4.8633557221891376e-14 0.0 0.010000815999867501 0.00998657906664701 0.0 -1.0988724487538798e-13 0.0 0.01 0.0 -1.0988724487538798e-13 0.0 0.010000819450713917 0.009986482458074134 0.0 -1.2951147321153249e-13 0.0 0.01 0.0 -1.2951147321153249e-13 0.0 0.01000081649998995 0.009986376391065898 0.0 4.718770970276175e-14 0.0 0.01 0.0 4.718770970276175e-14 0.0 0.01000081649998995 0.009985380123729017 0.0 6.126176133408001e-19 0.0 0.01 0.0 6.126176133408001e-19 0.0 0.010001022106683959 0.009985367678496705 0.0 2.793863928693025e-15 0.0 0.01 0.0 2.793863928693025e-15 0.0 0.010001025557743733 0.009985330840881785 0.0 1.1599107071571052e-14 0.0 0.01 0.0 1.1599107071571052e-14 0.0 0.010001035810913413 0.009985272100663536 0.0 2.1707873976131247e-14 0.0 0.01 0.0 2.1707873976131247e-14 0.0 0.010001046564271593 0.009985195939042641 0.0 4.886075419866447e-14 0.0 0.01 0.0 4.886075419866447e-14 0.0 0.010001060718744773 0.009985100863909323 0.0 1.32952538624422e-13 0.0 0.01 0.0 1.32952538624422e-13 0.0 0.010001072922649753 0.00998499434316394 0.0 3.29696622623131e-13 0.0 0.01 0.0 3.296966226230793e-13 0.0 0.010001083676127643 0.009984876377905502 0.0 5.05747305150121e-13 0.0 0.01 0.0 5.05747305150121e-13 0.0 0.010001105633336735 0.009983766614153705 0.0 3.4915075583443693e-19 0.0 0.01 0.0 3.4915075583443693e-19 0.0 0.010001287348547279 0.009983753677386338 0.0 5.944962146937171e-15 0.0 0.01 0.0 5.944962146937171e-15 0.0 0.01000129225044353 0.009983715862508529 0.0 2.871710632434331e-14 0.0 0.01 0.0 2.871710632434331e-14 0.0 0.010001304955391848 0.009983654165472445 0.0 7.527604941905405e-14 0.0 0.01 0.0 7.527604941905405e-14 0.0 0.010001324012905113 0.009983571572843714 0.0 1.8138329551214458e-13 0.0 0.01 0.0 1.8138329551214458e-13 0.0 0.010001346471899172 0.009983472563899929 0.0 4.002415880731449e-13 0.0 0.01 0.0 4.002415880730932e-13 0.0 0.01000137088184604 0.009983358135121976 0.0 7.600463299440384e-13 0.0 0.01 0.0 7.600463299440384e-13 0.0 0.01000140264505679 0.009983230278055059 0.0 8.355349630065005e-13 0.0 0.01 0.0 8.355349630064488e-13 0.0 0.01000144661384321 0.00998198778313484 0.0 1.6420544281811315e-18 0.0 0.01 0.0 1.6420544281811315e-18 0.0 0.01000158482667174 0.009981974853281153 0.0 1.2163633971816093e-14 0.0 0.01 0.0 1.2163633971816093e-14 0.0 0.010001592180174948 0.009981936064021557 0.0 5.297693611665906e-14 0.0 0.01 0.0 5.297693611665906e-14 0.0 0.010001608287905315 0.009981871913546112 0.0 1.4255088774281966e-13 0.0 0.01 0.0 1.4255088774281966e-13 0.0 0.01000163174930399 0.00998178588422987 0.0 3.204776889541465e-13 0.0 0.01 0.0 3.204776889541465e-13 0.0 0.010001665966224062 0.009981682453083486 0.0 6.356139549720342e-13 0.0 0.01 0.0 6.356139549720342e-13 0.0 0.01000170598645919 0.009981561621729893 0.0 1.004832763588719e-12 0.0 0.01 0.0 1.004832763588719e-12 0.0 0.010001755812323305 0.009981428364255442 0.0 8.461814166497773e-13 0.0 0.01 0.0 8.461814166497773e-13 0.0 0.010001826200129257 0.009980033459010475 0.0 -1.0275042389250169e-18 0.0 0.01 0.0 -1.0275042389250169e-18 0.0 0.010001911197761946 0.009980018548714043 0.0 1.8491947200327013e-14 0.0 0.01 0.0 1.8491947200327013e-14 0.0 0.010001918051697253 0.009979981273265342 0.0 8.105888197794642e-14 0.0 0.01 0.0 8.105888197794642e-14 0.0 0.010001938563558632 0.009979917160470581 0.0 2.2331299838559537e-13 0.0 0.01 0.0 2.2331299838559537e-13 0.0 0.010001969831882817 0.009979830684704712 0.0 4.700030864243033e-13 0.0 0.01 0.0 4.700030864242774e-13 0.0 0.010002011856972451 0.009979722344676192 0.0 8.156602011896658e-13 0.0 0.01 0.0 8.156602011896141e-13 0.0 0.01000206754103217 0.0099795986028134 0.0 1.0490265858235324e-12 0.0 0.01 0.0 1.049026585823429e-12 0.0 0.01000213348256801 0.00997946293931375 0.0 5.980598104430012e-13 0.0 0.01 0.0 5.980598104430012e-13 0.0 0.010002224842268278 0.009977899481428588 0.0 -4.445540639921215e-19 0.0 0.01 0.0 -4.445540639921215e-19 0.0 0.010002255162634456 0.009977886567455333 0.0 2.7472773722304504e-14 0.0 0.01 0.0 2.7472773722304504e-14 0.0 0.010002262967921864 0.009977846832467508 0.0 1.210729505528629e-13 0.0 0.01 0.0 1.210729505528629e-13 0.0 0.010002288385266466 0.009977783257474376 0.0 3.169931822524406e-13 0.0 0.01 0.0 3.169931822524406e-13 0.0 0.01000232601129767 0.009977694353857855 0.0 6.358015363154328e-13 0.0 0.01 0.0 6.358015363153811e-13 0.0 0.010002377797819576 0.009977585090098325 0.0 9.972882755271749e-13 0.0 0.01 0.0 9.972882755272783e-13 0.0 0.01000244374549202 0.009977459441212371 0.0 1.131156974921476e-12 0.0 0.01 0.0 1.131156974921476e-12 0.0 0.010002526857428695 0.00997732336832641 0.0 3.969555599472235e-13 0.0 0.01 0.0 3.969555599472235e-13 0.0 0.010002632389056122 0.009975577262754885 0.0 1.3235354305728243e-18 0.0 0.01 0.0 1.3235354305728243e-18 0.0 0.010002612823670499 0.009975564854139808 0.0 3.5047331583217483e-14 0.0 0.01 0.0 3.5047331583217483e-14 0.0 0.010002621630581788 0.009975526139558379 0.0 1.6339954235732494e-13 0.0 0.01 0.0 1.6339954235732494e-13 0.0 0.010002647050660752 0.009975461119929417 0.0 4.215746552309089e-13 0.0 0.01 0.0 4.215746552309089e-13 0.0 0.010002691986628768 0.009975373767314855 0.0 8.232704713582132e-13 0.0 0.01 0.0 8.232704713582132e-13 0.0 0.010002751635307993 0.009975264083474801 0.0 1.2531392581651936e-12 0.0 0.01 0.0 1.2531392581651419e-12 0.0 0.010002830301137394 0.00997513802597346 0.0 1.3262882748323738e-12 0.0 0.01 0.0 1.3262882748323738e-12 0.0 0.010002923131205045 0.009975002048042693 0.0 5.337319494560911e-13 0.0 0.01 0.0 5.337319494560652e-13 0.0 0.010003040936532055 0.009973071166187873 0.0 1.0552363959627676e-19 0.0 0.01 0.0 1.0552363959627676e-19 0.0 0.010002980331827418 0.009973057279013686 0.0 4.3455020402805466e-14 0.0 0.01 0.0 4.3455020402805466e-14 0.0 0.010002990591010454 0.00997301760169281 0.0 1.9732537013982406e-13 0.0 0.01 0.0 1.9732537013982406e-13 0.0 0.01000301696476245 0.009972953623010369 0.0 5.13321702579687e-13 0.0 0.01 0.0 5.13321702579687e-13 0.0 0.010003066359807963 0.009972867328133357 0.0 1.0078887817942985e-12 0.0 0.01 0.0 1.0078887817942985e-12 0.0 0.0100031303692685 0.009972755743251458 0.0 1.5286080438466902e-12 0.0 0.01 0.0 1.5286080438466902e-12 0.0 0.010003217352037313 0.009972624821765518 0.0 1.6579542157226216e-12 0.0 0.01 0.0 1.6579542157226216e-12 0.0 0.010003320002631036 0.009972486467162582 0.0 9.971939873279214e-13 0.0 0.01 0.0 9.971939873280248e-13 0.0 0.0100034441785381 0.009970373679831447 0.0 -7.698341517000146e-19 0.0 0.01 0.0 -7.698341517000146e-19 0.0 0.01000335423688131 0.009970361786191817 0.0 4.7483595944059386e-14 0.0 0.01 0.0 4.7483595944059386e-14 0.0 0.010003364997719717 0.009970322141033779 0.0 2.2103908123762673e-13 0.0 0.01 0.0 2.2103908123762673e-13 0.0 0.0100033933264185 0.009970259700868858 0.0 5.792810802128718e-13 0.0 0.01 0.0 5.792810802128718e-13 0.0 0.01000344462900326 0.00997016802497459 0.0 1.1309855329235886e-12 0.0 0.01 0.0 1.1309855329236403e-12 0.0 0.010003516504000753 0.009970054053064762 0.0 1.6994377675220294e-12 0.0 0.01 0.0 1.6994377675220294e-12 0.0 0.010003607901604242 0.009969918282934562 0.0 1.8940108086166705e-12 0.0 0.01 0.0 1.8940108086168773e-12 0.0 0.010003717872358897 0.009969772608744447 0.0 1.442615852608572e-12 0.0 0.01 0.0 1.442615852608572e-12 0.0 0.010003847419256749 0.009967496659645577 0.0 -1.268037360541197e-19 0.0 0.01 0.0 -1.268037360541197e-19 0.0 0.010003744802482027 0.00996748230060707 0.0 4.772138376554057e-14 0.0 0.01 0.0 4.772138376554057e-14 0.0 0.010003755064017397 0.00996744417518527 0.0 2.2285801437141877e-13 0.0 0.01 0.0 2.2285801437141877e-13 0.0 0.010003785348244918 0.009967376837846662 0.0 5.896850479701558e-13 0.0 0.01 0.0 5.896850479701558e-13 0.0 0.010003837658013007 0.009967282270800279 0.0 1.126691383761097e-12 0.0 0.01 0.0 1.126691383761097e-12 0.0 0.010003910993184295 0.009967159981281068 0.0 1.6070051138229518e-12 0.0 0.01 0.0 1.6070051138229518e-12 0.0 0.010004005805686944 0.00996701591316919 0.0 1.6060862298874353e-12 0.0 0.01 0.0 1.6060862298874353e-12 0.0 0.010004119243828258 0.009966856999920878 0.0 1.0842183133773263e-12 0.0 0.01 0.0 1.0842183133773263e-12 0.0 0.010004253712572074 0.009964447005118894 0.0 -1.7348066334691585e-18 0.0 0.01 0.0 -1.7348066334691585e-18 0.0 0.010004164700265284 0.009964434143308096 0.0 4.434621242172333e-14 0.0 0.01 0.0 4.434621242172333e-14 0.0 0.01000417401190264 0.009964391106072572 0.0 2.0972193917671767e-13 0.0 0.01 0.0 2.0972193917671767e-13 0.0 0.010004204299935156 0.009964322346589106 0.0 5.423884575092421e-13 0.0 0.01 0.0 5.423884575092421e-13 0.0 0.010004252711295571 0.00996422094131545 0.0 9.46888243184787e-13 0.0 0.01 0.0 9.468882431847354e-13 0.0 0.010004328008127616 0.009964088377139082 0.0 1.0587994225279723e-12 0.0 0.01 0.0 1.0587994225279723e-12 0.0 0.010004424334479196 0.009963928614658845 0.0 3.7799739331824536e-13 0.0 0.01 0.0 3.7799739331824536e-13 0.0 0.010004535333522814 0.00996375303318103 0.0 -9.146231251875686e-13 0.0 0.01 0.0 -9.146231251875428e-13 0.0 0.010004663910781756 0.00996126621383298 0.0 -1.6332232122746274e-18 0.0 0.01 0.0 -1.6332232122746274e-18 0.0 0.010004639927342168 0.009961250399073598 0.0 3.9288033725197227e-14 0.0 0.01 0.0 3.9288033725197227e-14 0.0 0.010004648739608902 0.009961205426263274 0.0 1.7715261060532524e-13 0.0 0.01 0.0 1.7715261060532524e-13 0.0 0.0100046756271803 0.009961130308202263 0.0 4.171973179189724e-13 0.0 0.01 0.0 4.171973179189724e-13 0.0 0.010004726498858188 0.009961019116823632 0.0 5.254325846112389e-13 0.0 0.01 0.0 5.254325846112389e-13 0.0 0.010004794445803735 0.009960874820675 0.0 -1.286197484486197e-13 0.0 0.01 0.0 -1.286197484486197e-13 0.0 0.010004881522063606 0.009960699894712184 0.0 -2.3216869679267918e-12 0.0 0.01 0.0 -2.3216869679267918e-12 0.0 0.010004981269486382 0.00996050076705069 0.0 -5.678019020701901e-12 0.0 0.01 0.0 -5.678019020701901e-12 0.0 0.010005091786304626 0.009958043042932555 0.0 3.2823458212049657e-19 0.0 0.01 0.0 3.2823458212049657e-19 0.0 0.010005204259830815 0.009958026256058943 0.0 3.429414178089778e-14 0.0 0.01 0.0 3.429414178089778e-14 0.0 0.01000521157124209 0.009957974908501949 0.0 1.4310578114100762e-13 0.0 0.01 0.0 1.4310578114100762e-13 0.0 0.010005238463351598 0.009957892457836619 0.0 2.1994223651398743e-13 0.0 0.01 0.0 2.1994223651398743e-13 0.0 0.010005284435839885 0.00995777347575623 0.0 -2.4467703177803913e-13 0.0 0.01 0.0 -2.4467703177803913e-13 0.0 0.010005345082433803 0.009957616485180785 0.0 -2.401992855871035e-12 0.0 0.01 0.0 -2.4019928558711385e-12 0.0 0.010005413092064762 0.009957426427910894 0.0 -7.614247631378292e-12 0.0 0.01 0.0 -7.614247631378292e-12 0.0 0.01000548300620907 0.009957204296843129 0.0 -1.5382081313852495e-11 0.0 0.01 0.0 -1.5382081313852495e-11 0.0 0.01000555833082412 0.009954970485005835 0.0 2.0808296008664986e-19 0.0 0.01 0.0 2.0808296008664986e-19 0.0 0.010005899266098052 0.009954955686760573 0.0 3.090154554720991e-14 0.0 0.01 0.0 3.090154554720991e-14 0.0 0.010005906128235256 0.009954900440561345 0.0 7.466461375851193e-14 0.0 0.01 0.0 7.466461375851193e-14 0.0 0.010005930571583223 0.009954811653953816 0.0 -1.7296068906419823e-13 0.0 0.01 0.0 -1.7296068906419823e-13 0.0 0.010005970693122625 0.00995468390405905 0.0 -1.7947124397796527e-12 0.0 0.01 0.0 -1.7947124397797044e-12 0.0 0.010006017627421055 0.009954516702168665 0.0 -6.889983647691633e-12 0.0 0.01 0.0 -6.889983647691633e-12 0.0 0.010006055295553455 0.009954315479206574 0.0 -1.785495174171793e-11 0.0 0.01 0.0 -1.7854951741717103e-11 0.0 0.010006081242732523 0.009954077282502251 0.0 -3.38167418250319e-11 0.0 0.01 0.0 -3.38167418250319e-11 0.0 0.010006092012373844 0.009952385739536064 0.0 7.871581330202046e-19 0.0 0.01 0.0 7.871581330202046e-19 0.0 0.010006763204959317 0.009952366516811022 0.0 6.449353593904948e-15 0.0 0.01 0.0 6.449353593904948e-15 0.0 0.010006770068874168 0.009952309342184619 0.0 -1.3112665674430701e-13 0.0 0.01 0.0 -1.3112665674430701e-13 0.0 0.010006794017534404 0.00995221421761907 0.0 -1.172424083759053e-12 0.0 0.01 0.0 -1.1724240837590013e-12 0.0 0.01000682678438995 0.0099520836106126 0.0 -5.142775152361396e-12 0.0 0.01 0.0 -5.142775152361603e-12 0.0 0.010006853739628629 0.009951915061245757 0.0 -1.5693979125356096e-11 0.0 0.01 0.0 -1.5693979125355683e-11 0.0 0.010006857647655295 0.00995170906809331 0.0 -3.636238683978228e-11 0.0 0.01 0.0 -3.636238683978228e-11 0.0 0.01000681506043218 0.009951462681601684 0.0 -6.456168781183133e-11 0.0 0.01 0.0 -6.456168781183133e-11 0.0 0.010006737753485935 0.0099507438304166 0.0 4.837331479947969e-19 0.0 0.01 0.0 4.837331479947969e-19 0.0 0.010007829986712251 0.00995072264662423 0.0 -1.1275088405844439e-13 0.0 0.01 0.0 -1.1275088405844439e-13 0.0 0.01000783830623456 0.00995066352977973 0.0 -7.603810454475124e-13 0.0 0.01 0.0 -7.603810454475124e-13 0.0 0.010007864718349512 0.009950569437642007 0.0 -3.4052764921392524e-12 0.0 0.01 0.0 -3.4052764921392524e-12 0.0 0.010007889677238542 0.009950440373187546 0.0 -1.1568507081397819e-11 0.0 0.01 0.0 -1.1568507081398233e-11 0.0 0.010007897545842675 0.009950277818234626 0.0 -3.0522681149856284e-11 0.0 0.01 0.0 -3.052268114985711e-11 0.0 0.01000785544652063 0.009950080792608468 0.0 -6.354985478931227e-11 0.0 0.01 0.0 -6.354985478931392e-11 0.0 0.010007736518806248 0.009949840929707037 0.0 -1.0252949084541504e-10 0.0 0.01 0.0 -1.0252949084541504e-10 0.0 0.010007554952980995 0.009950593576208136 0.0 3.412052374209615e-19 0.0 0.01 0.0 3.412052374209615e-19 0.0 0.010009128183365185 0.009950574363865726 0.0 -3.6715710267142963e-13 0.0 0.01 0.0 -3.6715710267142963e-13 0.0 0.01000913801024102 0.009950519683192579 0.0 -1.9470059864693615e-12 0.0 0.01 0.0 -1.9470059864693615e-12 0.0 0.010009165886638145 0.00995043199894988 0.0 -6.989063827494297e-12 0.0 0.01 0.0 -6.989063827494297e-12 0.0 0.010009188448640892 0.009950318209933619 0.0 -2.0372900483046695e-11 0.0 0.01 0.0 -2.0372900483047108e-11 0.0 0.010009175713625031 0.009950178811394515 0.0 -4.7606069525774535e-11 0.0 0.01 0.0 -4.7606069525774535e-11 0.0 0.010009087572603652 0.009950010851326067 0.0 -8.702734836537266e-11 0.0 0.01 0.0 -8.702734836537597e-11 0.0 0.010008895154505325 0.00994979808128189 0.0 -1.2079710779707863e-10 0.0 0.01 0.0 -1.2079710779707533e-10 0.0 0.010008626850555766 0.009952595225170838 0.0 2.8566323764929884e-19 0.0 0.01 0.0 2.8566323764929884e-19 0.0 0.010010692926381532 0.009952580930436414 0.0 -7.975695234978706e-13 0.0 0.01 0.0 -7.975695234978706e-13 0.0 0.010010704162367113 0.009952535582031397 0.0 -3.630875147791002e-12 0.0 0.01 0.0 -3.630875147791002e-12 0.0 0.010010730145728671 0.009952471503820242 0.0 -1.091597827648904e-11 0.0 0.01 0.0 -1.091597827648904e-11 0.0 0.01001074970862475 0.009952389682672919 0.0 -2.7441931126508093e-11 0.0 0.01 0.0 -2.7441931126506438e-11 0.0 0.010010722772051457 0.009952300470348147 0.0 -5.486340393751269e-11 0.0 0.01 0.0 -5.486340393751434e-11 0.0 0.010010603290654957 0.009952194010161071 0.0 -7.956700597210572e-11 0.0 0.01 0.0 -7.956700597210572e-11 0.0 0.010010365694898047 0.009952054532771391 0.0 -7.472395790878752e-11 0.0 0.01 0.0 -7.472395790878421e-11 0.0 0.010010058104494804 0.009957734474259704 0.0 2.661859317983702e-18 0.0 0.01 0.0 2.661859317983702e-18 0.0 0.010012582809281996 0.009957728550021845 0.0 -1.3617844841326613e-12 0.0 0.01 0.0 -1.3617844841326613e-12 0.0 0.010012592596147396 0.0099577107773717 0.0 -5.1748630187392236e-12 0.0 0.01 0.0 -5.1748630187392236e-12 0.0 0.010012617088531189 0.009957690042733476 0.0 -1.2356747746984534e-11 0.0 0.01 0.0 -1.2356747746984534e-11 0.0 0.010012633751485195 0.009957676219713286 0.0 -2.4638345346820287e-11 0.0 0.01 0.0 -2.4638345346821114e-11 0.0 0.010012597514685452 0.009957675726035054 0.0 -3.318373758555016e-11 0.0 0.01 0.0 -3.318373758555181e-11 0.0 0.010012470538422705 0.009957683131216184 0.0 -7.364344359798274e-12 0.0 0.01 0.0 -7.364344359798481e-12 0.0 0.010012242645713052 0.009957686093293266 0.0 7.869464094222143e-11 0.0 0.01 0.0 7.869464094221812e-11 0.0 0.010011968251621838 0.009967585290946586 0.0 -1.0338884901622827e-19 0.0 0.01 0.0 -1.0338884901622827e-19 0.0 0.0100148984786843 0.009967592718257949 0.0 -1.6244251897167736e-12 0.0 0.01 0.0 -1.6244251897168253e-12 0.0 0.010014905811368657 0.00996762044703373 0.0 -4.265733738591806e-12 0.0 0.01 0.0 -4.265733738591806e-12 0.0 0.010014921983510268 0.009967673924611972 0.0 -4.271003453709877e-12 0.0 0.01 0.0 -4.271003453709774e-12 0.0 0.010014931827460907 0.009967769988349487 0.0 4.097502807540278e-12 0.0 0.01 0.0 4.097502807540278e-12 0.0 0.010014898478684298 0.009967913098758692 0.0 4.499923105423407e-11 0.0 0.01 0.0 4.499923105423407e-11 0.0 0.010014795471238626 0.00996810128099644 0.0 1.6227359238719172e-10 0.0 0.01 0.0 1.6227359238719834e-10 0.0 0.010014628235299942 0.009968329094807868 0.0 3.647641696444282e-10 0.0 0.01 0.0 3.647641696444282e-10 0.0 0.010014451667347433 0.009983986546893581 0.0 3.201126258076775e-18 0.0 0.01 0.0 3.201126258076775e-18 0.0 0.010017752712167715 0.009984015905530837 0.0 -6.189827230833064e-13 0.0 0.01 0.0 -6.189827230833064e-13 0.0 0.010017751757099342 0.009984109456814336 0.0 3.5403091477567514e-12 0.0 0.01 0.0 3.5403091477567514e-12 0.0 0.010017752259766873 0.009984272182599282 0.0 2.4336348702669382e-11 0.0 0.01 0.0 2.433634870267021e-11 0.0 0.010017747836295197 0.009984519023442748 0.0 7.763664860827846e-11 0.0 0.01 0.0 7.763664860827846e-11 0.0 0.010017722803577257 0.009984859454962417 0.0 1.969500681397001e-10 0.0 0.01 0.0 1.969500681397001e-10 0.0 0.010017663891977537 0.009985294501471967 0.0 4.1987067251396277e-10 0.0 0.01 0.0 4.198706725139363e-10 0.0 0.01001758045241177 0.009985834157617982 0.0 7.169930998361407e-10 0.0 0.01 0.0 7.169930998360877e-10 0.0 0.010017515159892475 0.010008174061380024 0.0 4.318041728273111e-18 0.0 0.01 0.0 4.318041728273111e-18 0.0 0.010021204454152824 0.01000823185336658 0.0 2.494996713351278e-12 0.0 0.01 0.0 2.4949967133508646e-12 0.0 0.010021192679588014 0.010008402678898928 0.0 2.0841341388072632e-11 0.0 0.01 0.0 2.084134138807594e-11 0.0 0.010021161733814267 0.010008698336009189 0.0 7.630053646057125e-11 0.0 0.01 0.0 7.630053646059772e-11 0.0 0.010021126310060958 0.010009125776787765 0.0 1.8804620636839035e-10 0.0 0.01 0.0 1.8804620636841682e-10 0.0 0.01002109390570654 0.010009692774290379 0.0 3.7644588648284744e-10 0.0 0.01 0.0 3.764458864827945e-10 0.0 0.010021066885545762 0.01001040928043971 0.0 6.409363647047444e-10 0.0 0.01 0.0 6.409363647046385e-10 0.0 0.010021044293437607 0.010011289087791727 0.0 8.964722606021553e-10 0.0 0.01 0.0 8.964722606021553e-10 0.0 0.010021038356116101 0.010039577472692206 0.0 1.538822077501452e-17 0.0 0.01 0.0 1.538822077501452e-17 0.0 0.01002516794598544 0.01003965999580974 0.0 6.586519145894537e-12 0.0 0.01 0.0 6.586519145894537e-12 0.0 0.010025133487289539 0.010039906565352717 0.0 4.089344566315834e-11 0.0 0.01 0.0 4.089344566315503e-11 0.0 0.01002505232939658 0.01004032708600217 0.0 1.2777208356164618e-10 0.0 0.01 0.0 1.2777208356167265e-10 0.0 0.010024959839005507 0.01004092121840402 0.0 2.7425568252230574e-10 0.0 0.01 0.0 2.7425568252230574e-10 0.0 0.010024888508295512 0.010041690421972286 0.0 4.597425374805837e-10 0.0 0.01 0.0 4.597425374805837e-10 0.0 0.010024847201659639 0.010042642312458574 0.0 6.211720721691969e-10 0.0 0.01 0.0 6.211720721691969e-10 0.0 0.010024810277989307 0.010043801716964687 0.0 6.273585377154387e-10 0.0 0.01 0.0 6.273585377154387e-10 0.0 0.010024741418700819 0.010074788713885141 0.0 2.2776157639673676e-18 0.0 0.01 0.0 2.2776157639673676e-18 0.0 0.010029328723389493 0.010074890106684945 0.0 7.95981843930526e-12 0.0 0.01 0.0 7.959818439305053e-12 0.0 0.010029269606799562 0.010075195684136416 0.0 4.6035092618144744e-11 0.0 0.01 0.0 4.6035092618144744e-11 0.0 0.010029116423025662 0.010075697114342936 0.0 1.3387106896897115e-10 0.0 0.01 0.0 1.3387106896896784e-10 0.0 0.010028936616322719 0.010076390904208296 0.0 2.5702607011907674e-10 0.0 0.01 0.0 2.5702607011909e-10 0.0 0.010028779514034705 0.010077270265245636 0.0 3.5054860053392127e-10 0.0 0.01 0.0 3.5054860053392127e-10 0.0 0.010028651971571927 0.010078328740417468 0.0 3.0755432071894243e-10 0.0 0.01 0.0 3.0755432071894243e-10 0.0 0.010028498816096524 0.010079580579838208 0.0 -3.88742250752726e-12 0.0 0.01 0.0 -3.887422507527157e-12 0.0 0.010028218091302108 0.010107663279555675 0.0 6.253031641505535e-19 0.0 0.01 0.0 6.253031641505535e-19 0.0 0.010033202229194819 0.01010776969560986 0.0 2.84571675880672e-12 0.0 0.01 0.0 2.84571675880672e-12 0.0 0.010033108503085657 0.010108085349217678 0.0 2.2367286792810166e-11 0.0 0.01 0.0 2.2367286792810166e-11 0.0 0.010032867382521488 0.010108598265482948 0.0 7.025111381071399e-11 0.0 0.01 0.0 7.025111381071399e-11 0.0 0.010032567609321875 0.010109289834492398 0.0 1.2247265703147724e-10 0.0 0.01 0.0 1.2247265703147724e-10 0.0 0.010032278162066002 0.010110137947924452 0.0 1.0777825861084231e-10 0.0 0.01 0.0 1.0777825861084231e-10 0.0 0.010032000098188018 0.010111111919388436 0.0 -6.692339252757818e-11 0.0 0.01 0.0 -6.692339252757652e-11 0.0 0.010031643212751478 0.010112203327099773 0.0 -4.859749854087826e-10 0.0 0.01 0.0 -4.859749854087959e-10 0.0 0.010031046839727904 0.010131131137028744 0.0 1.9802152195291127e-18 0.0 0.01 0.0 1.9802152195291127e-18 0.0 0.010036263709016856 0.01013122711723597 0.0 -5.9489185630052054e-12 0.0 0.01 0.0 -5.948918563005102e-12 0.0 0.01003613734657685 0.0101315094063631 0.0 -1.607537069712431e-11 0.0 0.01 0.0 -1.6075370697123897e-11 0.0 0.010035797758533431 0.010131955272621057 0.0 -2.1596539485287175e-11 0.0 0.01 0.0 -2.1596539485287175e-11 0.0 0.010035361484738404 0.010132541426169026 0.0 -3.556431966222663e-11 0.0 0.01 0.0 -3.556431966222663e-11 0.0 0.010034911979599647 0.01013322215767011 0.0 -9.554320178227442e-11 0.0 0.01 0.0 -9.554320178227607e-11 0.0 0.010034446217351087 0.010133958392679861 0.0 -2.424890517098892e-10 0.0 0.01 0.0 -2.424890517098892e-10 0.0 0.010033851768763508 0.010134697390576571 0.0 -5.01896244423136e-10 0.0 0.01 0.0 -5.018962444231294e-10 0.0 0.010032949740281877 0.010141873235594377 0.0 1.1664876500505694e-19 0.0 0.01 0.0 1.1664876500505694e-19 0.0 0.010038229360483927 0.010141943545893668 0.0 -9.836704071407193e-12 0.0 0.01 0.0 -9.836704071406986e-12 0.0 0.010038068331535544 0.010142148330364168 0.0 -3.3960246230737125e-11 0.0 0.01 0.0 -3.3960246230737125e-11 0.0 0.010037644099842938 0.010142465702992275 0.0 -6.386687729687619e-11 0.0 0.01 0.0 -6.386687729687702e-11 0.0 0.010037079720938312 0.01014286355632635 0.0 -9.812530530580994e-11 0.0 0.01 0.0 -9.812530530580994e-11 0.0 0.010036477424037626 0.010143304348595832 0.0 -1.4147213149328487e-10 0.0 0.01 0.0 -1.4147213149328487e-10 0.0 0.010035843142765313 0.010143733925896197 0.0 -1.9622801198464646e-10 0.0 0.01 0.0 -1.9622801198464977e-10 0.0 0.010035060477369974 0.010144072846210876 0.0 -2.5746499341193614e-10 0.0 0.01 0.0 -2.5746499341193945e-10 0.0 0.010033944505486357 0.010142399972486959 0.0 9.02326785403704e-19 0.0 0.01 0.0 9.02326785403704e-19 0.0 0.010039132307968691 0.010142438680296505 0.0 -6.7181535503194525e-12 0.0 0.01 0.0 -6.7181535503194525e-12 0.0 0.010038950039740152 0.010142551258897549 0.0 -2.3939172436435313e-11 0.0 0.01 0.0 -2.3939172436435313e-11 0.0 0.010038463938503371 0.010142717890454506 0.0 -4.5797967607813357e-11 0.0 0.01 0.0 -4.5797967607813357e-11 0.0 0.010037811024979847 0.010142922669661231 0.0 -6.651285971034775e-11 0.0 0.01 0.0 -6.651285971034858e-11 0.0 0.010037105910219868 0.010143138209912944 0.0 -7.993986398503631e-11 0.0 0.01 0.0 -7.993986398503797e-11 0.0 0.010036364903500409 0.010143317602473013 0.0 -7.878630833794248e-11 0.0 0.01 0.0 -7.878630833794165e-11 0.0 0.010035483876208322 0.010143364461085285 0.0 -5.558573917671402e-11 0.0 0.01 0.0 -5.558573917671402e-11 0.0 0.010034293756067954 0.010137183743749984 0.0 -1.8675483759838998e-18 0.0 0.01 0.0 -1.8675483759838998e-18 0.0 0.010039201464235354 0.010137196504872088 0.0 -1.8600827833433385e-12 0.0 0.01 0.0 -1.8600827833433644e-12 0.0 0.010039009782964452 0.010137236142787257 0.0 -6.7300205508198e-12 0.0 0.01 0.0 -6.7300205508198e-12 0.0 0.010038500507451158 0.010137298699759649 0.0 -1.2844678902721851e-11 0.0 0.01 0.0 -1.2844678902721645e-11 0.0 0.010037814008570619 0.01013738162469215 0.0 -1.7469958890492067e-11 0.0 0.01 0.0 -1.746995889049248e-11 0.0 0.0100370757773963 0.010137483877269286 0.0 -1.6438423399780756e-11 0.0 0.01 0.0 -1.643842339978055e-11 0.0 0.010036315518996912 0.01013757800654895 0.0 -5.321430783844826e-12 0.0 0.01 0.0 -5.321430783844826e-12 0.0 0.010035435010043127 0.010137567327666496 0.0 1.8001082138735437e-11 0.0 0.01 0.0 1.8001082138735644e-11 0.0 0.010034280470340988 0.010129614325707316 0.0 6.41175010880085e-19 0.0 0.01 0.0 6.41175010880085e-19 0.0 0.01003871982836471 0.010129619418724468 0.0 4.918505556219073e-13 0.0 0.01 0.0 4.918505556219073e-13 0.0 0.01003853161413209 0.01012963766010403 0.0 1.6684519178194936e-12 0.0 0.01 0.0 1.6684519178194936e-12 0.0 0.01003803475109824 0.010129683341939954 0.0 3.067301847233262e-12 0.0 0.01 0.0 3.067301847233262e-12 0.0 0.010037370544693391 0.010129770653653003 0.0 5.0075355834962505e-12 0.0 0.01 0.0 5.0075355834962505e-12 0.0 0.010036668960286472 0.010129925949350067 0.0 9.396910618170141e-12 0.0 0.01 0.0 9.396910618170141e-12 0.0 0.010035961609630325 0.010130141701645124 0.0 1.8401498450363895e-11 0.0 0.01 0.0 1.8401498450363895e-11 0.0 0.010035157694179767 0.010130340677917262 0.0 2.9268609198038527e-11 0.0 0.01 0.0 2.9268609198038527e-11 0.0 0.010034105336051964 0.010120729781174374 0.0 -1.3045805953057725e-18 0.0 0.01 0.0 -1.3045805953057725e-18 0.0 0.010037912266275303 0.010120748026403887 0.0 4.380566686171359e-13 0.0 0.01 0.0 4.380566686171359e-13 0.0 0.010037737447439028 0.01012080773875403 0.0 1.7406369167961879e-12 0.0 0.01 0.0 1.7406369167962137e-12 0.0 0.010037279684834984 0.010120932816746307 0.0 4.058594249117319e-12 0.0 0.01 0.0 4.058594249117422e-12 0.0 0.010036680334517913 0.010121159606946843 0.0 8.257849330021617e-12 0.0 0.01 0.0 8.257849330021824e-12 0.0 0.010036058852632463 0.010121527117196199 0.0 1.5694610362968544e-11 0.0 0.01 0.0 1.5694610362968544e-11 0.0 0.01003545325265418 0.010122047164125774 0.0 2.560898706925331e-11 0.0 0.01 0.0 2.5608987069253725e-11 0.0 0.010034758991853736 0.010122658412469584 0.0 3.00476000953801e-11 0.0 0.01 0.0 3.004760009537969e-11 0.0 0.010033825150364304 0.010109629860187479 0.0 2.769194998616757e-18 0.0 0.01 0.0 2.769194998616757e-18 0.0 0.010036905956708683 0.010109678784969753 0.0 -1.2969024917094628e-13 0.0 0.01 0.0 -1.2969024917094628e-13 0.0 0.010036749440124093 0.010109833158421762 0.0 1.7505416344335801e-13 0.0 0.01 0.0 1.7505416344335801e-13 0.0 0.01003634069135489 0.010110122808551303 0.0 2.6847112885397484e-12 0.0 0.01 0.0 2.6847112885398e-12 0.0 0.010035820450572401 0.010110585029287095 0.0 9.436831950524417e-12 0.0 0.01 0.0 9.436831950524417e-12 0.0 0.010035302766720999 0.010111271423894065 0.0 2.03431291644252e-11 0.0 0.01 0.0 2.0343129164425613e-11 0.0 0.010034809818578353 0.0101121962956344 0.0 2.975491724377818e-11 0.0 0.01 0.0 2.975491724377818e-11 0.0 0.010034231116600664 0.010113311276320088 0.0 2.7108898012562903e-11 0.0 0.01 0.0 2.710889801256249e-11 0.0 0.01003339307296397 0.010094916520160454 0.0 -4.726436483815836e-19 0.0 0.01 0.0 -4.726436483815836e-19 0.0 0.01003573311991647 0.010095008902827066 0.0 -3.9775121066963054e-14 0.0 0.01 0.0 -3.9775121066963054e-14 0.0 0.010035594901576182 0.010095287249233547 0.0 8.517773470350057e-13 0.0 0.01 0.0 8.517773470350057e-13 0.0 0.010035234196296195 0.010095779079980768 0.0 4.85013995439768e-12 0.0 0.01 0.0 4.85013995439768e-12 0.0 0.010034787133394106 0.010096514748047737 0.0 1.3495832151754274e-11 0.0 0.01 0.0 1.3495832151754274e-11 0.0 0.010034367257906468 0.010097542647383911 0.0 2.3923117350962255e-11 0.0 0.01 0.0 2.3923117350961427e-11 0.0 0.01003398051995043 0.010098874066255996 0.0 2.7663134548541254e-11 0.0 0.01 0.0 2.7663134548541254e-11 0.0 0.010033498625002125 0.010100478245119835 0.0 1.9425632776907745e-11 0.0 0.01 0.0 1.9425632776907745e-11 0.0 0.010032737714818014 0.010076294990629238 0.0 4.218170669192637e-18 0.0 0.01 0.0 4.218170669192637e-18 0.0 0.010034389990760872 0.010076422876009957 0.0 6.758685228107793e-13 0.0 0.01 0.0 6.758685228107793e-13 0.0 0.010034263699080396 0.010076819044669458 0.0 3.3468455017997106e-12 0.0 0.01 0.0 3.3468455017996072e-12 0.0 0.010033943040670627 0.010077493621135627 0.0 8.852643299509105e-12 0.0 0.01 0.0 8.852643299509519e-12 0.0 0.010033556806305683 0.010078468220144063 0.0 1.603583367269279e-11 0.0 0.01 0.0 1.6035833672693617e-11 0.0 0.010033216015638294 0.010079771112472338 0.0 1.9026749016509842e-11 0.0 0.01 0.0 1.902674901651067e-11 0.0 0.010032912272551426 0.010081418203060537 0.0 1.1012175852994662e-11 0.0 0.01 0.0 1.1012175852994662e-11 0.0 0.010032515301980268 0.010083392005145391 0.0 1.1268951903117679e-12 0.0 0.01 0.0 1.1268951903118196e-12 0.0 0.010031815239901423 0.010055395421508479 0.0 -4.646728897321126e-18 0.0 0.01 0.0 -4.646728897321126e-18 0.0 0.010032882177481658 0.01005555179528577 0.0 1.0863895349971e-12 0.0 0.01 0.0 1.0863895349971e-12 0.0 0.010032765334425355 0.01005601846898817 0.0 4.15410696194918e-12 0.0 0.01 0.0 4.15410696194918e-12 0.0 0.010032473396109621 0.010056802132770833 0.0 7.742113725295887e-12 0.0 0.01 0.0 7.742113725295473e-12 0.0 0.010032132261469099 0.010057904331693247 0.0 7.223702289829747e-12 0.0 0.01 0.0 7.223702289829747e-12 0.0 0.010031852241028798 0.010059339477931526 0.0 -5.764944231865807e-12 0.0 0.01 0.0 -5.764944231865807e-12 0.0 0.010031617066207112 0.01006112872437533 0.0 -3.4004677902300416e-11 0.0 0.01 0.0 -3.400467790230207e-11 0.0 0.010031282882919523 0.010063278701283231 0.0 -4.967911225086489e-11 0.0 0.01 0.0 -4.967911225086489e-11 0.0 0.010030645195805474 0.010035068864987513 0.0 1.5380200615172168e-17 0.0 0.01 0.0 1.5380200615172168e-17 0.0 0.010031233119167106 0.010035227778944429 0.0 5.256369573184938e-13 0.0 0.01 0.0 5.25636957318287e-13 0.0 0.010031125670345335 0.01003570643600411 0.0 1.0766804101250987e-12 0.0 0.01 0.0 1.0766804101250987e-12 0.0 0.01003085708862829 0.01003649814925729 0.0 -2.082411175440856e-12 0.0 0.01 0.0 -2.0824111754404423e-12 0.0 0.010030556990986995 0.010037593735699379 0.0 -1.610724060682504e-11 0.0 0.01 0.0 -1.610724060682835e-11 0.0 0.010030322916368654 0.010039000424302552 0.0 -5.073801109191046e-11 0.0 0.01 0.0 -5.073801109191046e-11 0.0 0.010030140118465036 0.01004073733431578 0.0 -1.0659361385524057e-10 0.0 0.01 0.0 -1.0659361385524057e-10 0.0 0.0100298656628765 0.010042856435230334 0.0 -1.4360442397245263e-10 0.0 0.01 0.0 -1.4360442397245263e-10 0.0 0.010029285848625412 0.010017798404968538 0.0 -2.6565313003421157e-17 0.0 0.01 0.0 -2.6565313003421157e-17 0.0 0.010029494729573853 0.010017946144276741 0.0 -5.878564256392368e-14 0.0 0.01 0.0 -5.878564256392368e-14 0.0 0.010029398686096988 0.010018382111360477 0.0 -2.3312721814535356e-12 0.0 0.01 0.0 -2.331272181453949e-12 0.0 0.010029159295616914 0.010019098524049868 0.0 -1.255406355788643e-11 0.0 0.01 0.0 -1.2554063557888084e-11 0.0 0.010028898739622151 0.010020082283137118 0.0 -3.88546617401533e-11 0.0 0.01 0.0 -3.8854661740159916e-11 0.0 0.010028704672395026 0.010021332719088021 0.0 -9.077159188625546e-11 0.0 0.01 0.0 -9.077159188628193e-11 0.0 0.010028564777489079 0.010022881495510933 0.0 -1.7003356026490854e-10 0.0 0.01 0.0 -1.7003356026496148e-10 0.0 0.010028330388476113 0.010024810781720076 0.0 -2.386959566856885e-10 0.0 0.01 0.0 -2.386959566857944e-10 0.0 0.010027803022861709 0.010004772965005862 0.0 -2.3745576214219355e-18 0.0 0.01 0.0 -2.3745576214219355e-18 0.0 0.010027725732645596 0.010004898146426888 0.0 6.792363177051739e-13 0.0 0.01 0.0 6.792363177051739e-13 0.0 0.010027643503464597 0.01000526735883943 0.0 -8.080157592725153e-13 0.0 0.01 0.0 -8.080157592725153e-13 0.0 0.01002743917447325 0.010005868912580202 0.0 -1.2583979799138957e-11 0.0 0.01 0.0 -1.2583979799139784e-11 0.0 0.010027219634296416 0.010006693714879502 0.0 -4.250133205327253e-11 0.0 0.01 0.0 -4.250133205327253e-11 0.0 0.010027063570416246 0.010007742382399498 0.0 -9.615163000264651e-11 0.0 0.01 0.0 -9.615163000263989e-11 0.0 0.010026950862145646 0.01000905428217524 0.0 -1.7580023038288013e-10 0.0 0.01 0.0 -1.758002303829066e-10 0.0 0.010026737704703264 0.010010741883452568 0.0 -2.5849402873023926e-10 0.0 0.01 0.0 -2.5849402873023926e-10 0.0 0.01002623372131527 0.009995874554300302 0.0 4.053696542364475e-18 0.0 0.01 0.0 4.053696542364475e-18 0.0 0.010025976366313494 0.00999597493148136 0.0 2.659458769899238e-12 0.0 0.01 0.0 2.659458769899238e-12 0.0 0.010025909448188939 0.009996277080052426 0.0 5.3107651840886846e-12 0.0 0.01 0.0 5.3107651840886846e-12 0.0 0.010025745081194224 0.009996772063608952 0.0 -2.9504478345716584e-12 0.0 0.01 0.0 -2.9504478345718652e-12 0.0 0.010025567924595679 0.009997450974960652 0.0 -2.816331186549173e-11 0.0 0.01 0.0 -2.816331186549173e-11 0.0 0.01002543753205282 0.009998326420224158 0.0 -6.597289382806633e-11 0.0 0.01 0.0 -6.597289382806302e-11 0.0 0.010025328808312226 0.009999445046199481 0.0 -1.1157838024649606e-10 0.0 0.01 0.0 -1.1157838024650268e-10 0.0 0.010025106434439553 0.010000922977767477 0.0 -1.6096244032457693e-10 0.0 0.01 0.0 -1.6096244032457693e-10 0.0 0.010024590910434103 0.009990200922130668 0.0 -7.274833534668137e-18 0.0 0.01 0.0 -7.274833534668137e-18 0.0 0.010024277071126712 0.00999028617212173 0.0 4.164368481302745e-12 0.0 0.01 0.0 4.164368481302745e-12 0.0 0.010024226907922568 0.009990537447949286 0.0 9.689844085448256e-12 0.0 0.01 0.0 9.689844085447429e-12 0.0 0.01002409853182689 0.009990954787198785 0.0 3.7398669568094224e-12 0.0 0.01 0.0 3.7398669568094224e-12 0.0 0.010023955908696218 0.0099915462320249 0.0 -1.5001654103959166e-11 0.0 0.01 0.0 -1.5001654103959166e-11 0.0 0.010023831017733967 0.009992326840650347 0.0 -2.6672486293012418e-11 0.0 0.01 0.0 -2.6672486293012418e-11 0.0 0.01002369480126094 0.009993346146960768 0.0 -9.047775950815782e-12 0.0 0.01 0.0 -9.047775950815368e-12 0.0 0.01002342580892238 0.00999471169788072 0.0 2.8082271702870974e-11 0.0 0.01 0.0 2.8082271702872628e-11 0.0 0.010022866291654992 0.009986678666049117 0.0 1.9956564247940894e-18 0.0 0.01 0.0 1.9956564247940894e-18 0.0 0.010022639651648211 0.009986753865572039 0.0 3.3478342742106026e-12 0.0 0.01 0.0 3.3478342742106026e-12 0.0 0.010022600789113097 0.009986984952882324 0.0 5.91815190230711e-12 0.0 0.01 0.0 5.91815190230711e-12 0.0 0.010022499557352049 0.009987373952879663 0.0 -3.4010959211179584e-12 0.0 0.01 0.0 -3.4010959211179584e-12 0.0 0.010022372203998674 0.009987943339563895 0.0 -1.6724312164970603e-11 0.0 0.01 0.0 -1.672431216497143e-11 0.0 0.010022226735159429 0.009988717124260258 0.0 3.210317679864686e-12 0.0 0.01 0.0 3.210317679864686e-12 0.0 0.010022028122536736 0.009989747289294087 0.0 9.8208108426357e-11 0.0 0.01 0.0 9.8208108426357e-11 0.0 0.010021676728927611 0.009991113858575644 0.0 2.503772433146842e-10 0.0 0.01 0.0 2.503772433146842e-10 0.0 0.010021052645958642 0.009984481199867735 0.0 -6.106774765968742e-19 0.0 0.01 0.0 -6.106774765968742e-19 0.0 0.010021060495334829 0.009984556847447618 0.0 -2.4261137244844175e-13 0.0 0.01 0.0 -2.4261137244844175e-13 0.0 0.010021027588458036 0.009984787782275005 0.0 -6.172566531922924e-12 0.0 0.01 0.0 -6.172566531922924e-12 0.0 0.010020935209417107 0.009985196436825357 0.0 -2.090115951889645e-11 0.0 0.01 0.0 -2.090115951889645e-11 0.0 0.01002079221814005 0.009985810259553344 0.0 -2.1919365082250525e-11 0.0 0.01 0.0 -2.1919365082251353e-11 0.0 0.010020592734906696 0.009986662231942485 0.0 4.202890433013724e-11 0.0 0.01 0.0 4.202890433013724e-11 0.0 0.010020302863987304 0.009987794382985724 0.0 2.177228425135961e-10 0.0 0.01 0.0 2.177228425135961e-10 0.0 0.010019853417608353 0.009989265808200825 0.0 6.538391506818926e-10 0.0 0.01 0.0 6.538391506818926e-10 0.0 0.010019171189592073 0.009983165605145 0.0 6.406100974211041e-19 0.0 0.01 0.0 6.406100974211041e-19 0.0 0.010019513518365346 0.00998324968017317 0.0 -4.5001402866984616e-12 0.0 0.01 0.0 -4.5001402866984616e-12 0.0 0.010019478162380649 0.009983511868605433 0.0 -1.7350970092380488e-11 0.0 0.01 0.0 -1.7350970092380488e-11 0.0 0.010019369129495985 0.00998397908287456 0.0 -2.6122198884479722e-11 0.0 0.01 0.0 -2.6122198884479722e-11 0.0 0.010019185421160152 0.009984687244022903 0.0 7.754603958963254e-12 0.0 0.01 0.0 7.754603958963254e-12 0.0 0.010018910908428342 0.009985681312540578 0.0 1.370559240873864e-10 0.0 0.01 0.0 1.3705592408739302e-10 0.0 0.010018521530281009 0.009986988439236151 0.0 3.8461577149425074e-10 0.0 0.01 0.0 3.846157714942772e-10 0.0 0.010017986913232505 0.009988606501396274 0.0 3.9231389483786915e-09 0.0 0.01 0.0 3.92313894837848e-09 0.0 0.010017293305553803 0.009982605490832493 0.0 1.4128619272584392e-19 0.0 0.01 0.0 1.4128619272584392e-19 0.0 0.010017959867926368 0.009982705468801686 0.0 -4.564549460157774e-12 0.0 0.01 0.0 -4.564549460157774e-12 0.0 0.010017916686376803 0.009983022831709215 0.0 -9.19148287490636e-12 0.0 0.01 0.0 -9.19148287490636e-12 0.0 0.010017778247781314 0.009983584011361511 0.0 1.546991607973817e-11 0.0 0.01 0.0 1.5469916079739e-11 0.0 0.010017539688418153 0.009984441883712508 0.0 1.1351408881306631e-10 0.0 0.01 0.0 1.135140888130597e-10 0.0 0.010017188264120498 0.009985625553217303 0.0 3.154955882991322e-10 0.0 0.01 0.0 3.1549558829914543e-10 0.0 0.010016726925098281 0.009987132877103191 0.0 1.7484433910376197e-09 0.0 0.01 0.0 1.7484433910377256e-09 0.0 0.010016157224195788 0.00998882426259211 0.0 2.1703806750614953e-08 0.0 0.01 0.0 2.1703806750614953e-08 0.0 0.010015542510569334 0.009982824849416136 0.0 -9.614678127590685e-19 0.0 0.01 0.0 -9.614678127590685e-19 0.0 0.010016375083867747 0.00998294970622407 0.0 5.1297789243297965e-12 0.0 0.01 0.0 5.1297789243297965e-12 0.0 0.01001631865805433 0.009983344204930715 0.0 3.4313550623211473e-11 0.0 0.01 0.0 3.4313550623211473e-11 0.0 0.010016148883909223 0.009984041781154673 0.0 1.2080140503946002e-10 0.0 0.01 0.0 1.2080140503946664e-10 0.0 0.010015865326577427 0.009985080455465138 0.0 2.916122910099173e-10 0.0 0.01 0.0 2.916122910099173e-10 0.0 0.01001547333968536 0.009986464033046491 0.0 1.5752440285399257e-09 0.0 0.01 0.0 1.575244028539714e-09 0.0 0.010014997069480114 0.009988080345682398 0.0 1.58122072163888e-08 0.0 0.01 0.0 1.58122072163888e-08 0.0 0.010014488928672573 0.009989637131691318 0.0 8.360257808458997e-08 0.0 0.01 0.0 8.360257808458997e-08 0.0 0.010014054474859733 0.009983910414684955 0.0 2.650188676361431e-18 0.0 0.01 0.0 2.650188676361431e-18 0.0 0.010014753787022587 0.009984071637893704 0.0 2.3682360174938187e-11 0.0 0.01 0.0 2.3682360174938187e-11 0.0 0.010014691512777934 0.009984559833571577 0.0 1.0396231723767472e-10 0.0 0.01 0.0 1.039623172376681e-10 0.0 0.010014510020114194 0.00998540700558964 0.0 3.6597984346653623e-10 0.0 0.01 0.0 3.659798434665627e-10 0.0 0.010014219722674297 0.009986601974246837 0.0 2.8541622778009315e-09 0.0 0.01 0.0 2.8541622778009315e-09 0.0 0.010013849016257213 0.009988051947609633 0.0 1.8626062364552827e-08 0.0 0.01 0.0 1.8626062364553674e-08 0.0 0.010013453852350572 0.00998952298914858 0.0 7.971609412592203e-08 0.0 0.01 0.0 7.971609412590848e-08 0.0 0.010013117566464665 0.009990677561151405 0.0 2.4141268428388117e-07 0.0 0.01 0.0 2.4141268428388117e-07 0.0 0.010012913178252628 0.009985926266346768 0.0 -6.580193781024492e-19 0.0 0.01 0.0 -6.580193781024492e-19 0.0 0.010013137644378787 0.009986113478969346 0.0 7.817598604923067e-11 0.0 0.01 0.0 7.817598604923067e-11 0.0 0.01001308373288856 0.009986674184012164 0.0 1.0749139497671151e-09 0.0 0.01 0.0 1.074913949767221e-09 0.0 0.010012923961212356 0.0099875816706039 0.0 6.7161985968871465e-09 0.0 0.01 0.0 6.7161985968871465e-09 0.0 0.010012692072486139 0.00998874104333067 0.0 2.9421793943055832e-08 0.0 0.01 0.0 2.9421793943057526e-08 0.0 0.010012434755205827 0.009989973600882702 0.0 9.644486785365575e-08 0.0 0.01 0.0 9.644486785365575e-08 0.0 0.010012214744998648 0.009990998179257497 0.0 2.5466345622080356e-07 0.0 0.01 0.0 2.5466345622079e-07 0.0 0.010012095168337568 0.00999152932066096 0.0 5.513705432388894e-07 0.0 0.01 0.0 5.513705432388352e-07 0.0 0.010012100071888633 0.009988674768224083 0.0 3.186313876688512e-18 0.0 0.01 0.0 3.186313876688512e-18 0.0 0.010011615908097057 0.009988857650498678 0.0 1.5085866223814107e-09 0.0 0.01 0.0 1.5085866223813048e-09 0.0 0.010011582592434811 0.009989373960952093 0.0 1.0949795474166158e-08 0.0 0.01 0.0 1.0949795474167005e-08 0.0 0.010011495391283718 0.00999013362132494 0.0 4.303107973064642e-08 0.0 0.01 0.0 4.303107973064642e-08 0.0 0.010011387120766584 0.00999098121780799 0.0 1.2524661346793116e-07 0.0 0.01 0.0 1.2524661346793116e-07 0.0 0.010011307703094966 0.009991693374646492 0.0 2.961795887782817e-07 0.0 0.01 0.0 2.961795887782817e-07 0.0 0.010011295974201865 0.009992034081828402 0.0 5.960886906840887e-07 0.0 0.01 0.0 5.96088690684143e-07 0.0 0.01001137046696188 0.009991883552794605 0.0 1.0343479403711938e-06 0.0 0.01 0.0 1.0343479403711938e-06 0.0 0.010011511707608278 0.009991619546583784 0.0 5.3233268655946285e-18 0.0 0.01 0.0 5.3233268655946285e-18 0.0 0.01001030495696275 0.009991740244825156 0.0 8.152322255544582e-09 0.0 0.01 0.0 8.152322255543735e-09 0.0 0.01001030400403293 0.009992068945516245 0.0 4.3575779230093335e-08 0.0 0.01 0.0 4.357577923008995e-08 0.0 0.010010317696574653 0.009992469018679534 0.0 1.3602202883479747e-07 0.0 0.01 0.0 1.3602202883479747e-07 0.0 0.010010364243163662 0.009992751404708546 0.0 3.24098185970807e-07 0.0 0.01 0.0 3.24098185970807e-07 0.0 0.010010461709963355 0.00999273847854728 0.0 6.397718718922809e-07 0.0 0.01 0.0 6.397718718922809e-07 0.0 0.01001061799865624 0.009992359442945672 0.0 1.0868726370554666e-06 0.0 0.01 0.0 1.0868726370554666e-06 0.0 0.010010823874976612 0.009991934164305433 0.0 1.6225068021354745e-06 0.0 0.01 0.0 1.622506802135366e-06 0.0 0.010011118509872569 0.009994100225211525 0.0 4.959667743855051e-18 0.0 0.01 0.0 4.959667743855051e-18 0.0 0.01000929078177315 0.009994123683797158 0.0 2.191235284719862e-08 0.0 0.01 0.0 2.191235284719862e-08 0.0 0.010009325528693616 0.009994141653666647 0.0 1.0356157496568352e-07 0.0 0.01 0.0 1.0356157496568352e-07 0.0 0.010009430825921711 0.009994023873417864 0.0 2.8318314743499976e-07 0.0 0.01 0.0 2.8318314743502686e-07 0.0 0.010009599266225085 0.009993638129812667 0.0 5.979364461227072e-07 0.0 0.01 0.0 5.979364461227072e-07 0.0 0.010009827020126339 0.009993025968759457 0.0 1.0529887099362725e-06 0.0 0.01 0.0 1.052988709936164e-06 0.0 0.010010125875287944 0.009992646505134537 0.0 1.6039054990572236e-06 0.0 0.01 0.0 1.6039054990572236e-06 0.0 0.01001055025790682 0.009993248023210919 0.0 2.126738841814633e-06 0.0 0.01 0.0 2.126738841814633e-06 0.0 0.010011107556357684 0.009995536490217451 0.0 -2.433700817947991e-17 0.0 0.01 0.0 -2.433700817947991e-17 0.0 0.010008592612273102 0.009995455100513568 0.0 3.8139032198330043e-08 0.0 0.01 0.0 3.8139032198330043e-08 0.0 0.01000865382056192 0.00999518498418855 0.0 1.6926286927377047e-07 0.0 0.01 0.0 1.6926286927371626e-07 0.0 0.010008823669136128 0.009994710228026173 0.0 4.3054388135260096e-07 0.0 0.01 0.0 4.3054388135260096e-07 0.0 0.010009092965040042 0.00999422411589986 0.0 8.480879543602826e-07 0.0 0.01 0.0 8.480879543602826e-07 0.0 0.010009493108474644 0.009994225793806684 0.0 1.3872681609623403e-06 0.0 0.01 0.0 1.3872681609623403e-06 0.0 0.010010053027335816 0.009995014259028968 0.0 1.8760837187953988e-06 0.0 0.01 0.0 1.8760837187956157e-06 0.0 0.010010645902996516 0.00999665628220829 0.0 2.0079002387473135e-06 0.0 0.01 0.0 2.0079002387470967e-06 0.0 0.01001111972300446 0.009997178694414079 0.0 1.3142586848933753e-17 0.0 0.01 0.0 1.3142586848933753e-17 0.0 0.010008153511131736 0.009997130236135222 0.0 4.695991710760612e-08 0.0 0.01 0.0 4.695991710760612e-08 0.0 0.010008238219398247 0.009996992363640081 0.0 2.0357346583633898e-07 0.0 0.01 0.0 2.0357346583633898e-07 0.0 0.010008495169140997 0.009996852523347697 0.0 4.949429469019019e-07 0.0 0.01 0.0 4.949429469018477e-07 0.0 0.010008921160554879 0.009996837120437549 0.0 8.91752744286e-07 0.0 0.01 0.0 8.91752744286e-07 0.0 0.010009478929534943 0.00999730032634055 0.0 1.2459424479117909e-06 0.0 0.01 0.0 1.2459424479116825e-06 0.0 0.010010067665616105 0.009997885407811774 0.0 1.25722210562269e-06 0.0 0.01 0.0 1.25722210562269e-06 0.0 0.010010360565488064 0.009998869263992976 0.0 6.940688825537175e-07 0.0 0.01 0.0 6.940688825537175e-07 0.0 0.010010604817568785 0.009999577026837458 0.0 -2.411798563289099e-17 0.0 0.01 0.0 -2.411798563289099e-17 0.0 0.010007883813386385 0.009999417551035788 0.0 3.108577775987493e-08 0.0 0.01 0.0 3.108577775986815e-08 0.0 0.010007974378619977 0.009998995653750892 0.0 1.271726825271798e-07 0.0 0.01 0.0 1.271726825271798e-07 0.0 0.010008246040796651 0.009998445873503937 0.0 2.7252809092472236e-07 0.0 0.01 0.0 2.7252809092466815e-07 0.0 0.010008676841202277 0.009997823232390221 0.0 3.7815336380796986e-07 0.0 0.01 0.0 3.781533638080783e-07 0.0 0.010009150265201902 0.009997815227093962 0.0 2.696670225558757e-07 0.0 0.01 0.0 2.696670225558486e-07 0.0 0.01000960658614804 0.009997073293265093 0.0 -2.2986436240283385e-07 0.0 0.01 0.0 -2.2986436240280675e-07 0.0 0.01000961099586038 0.009996705628647755 0.0 -2.1838808668925073e-17 0.0 0.01 0.0 -2.1838808668925073e-17 0.0 0.010007709606548919 0.009996513324388511 0.0 -5.401068258295966e-09 0.0 0.01 0.0 -5.401068258295966e-09 0.0 0.010007776160910992 0.00999599590638197 0.0 -3.4884295392502966e-08 0.0 0.01 0.0 -3.488429539249958e-08 0.0 0.01000797142159602 0.009995287835404078 0.0 -1.3255286470971993e-07 0.0 0.01 0.0 -1.3255286470971993e-07 0.0 0.010008276867282517 0.009994446151528606 0.0 -3.769018568419301e-07 0.0 0.01 0.0 -3.769018568419301e-07 0.0 0.01000870377144738 0.00999612025902706 0.0 8.637428952953551e-14 0.0 0.01 0.0 8.637428952953551e-14 0.0 0.010000136702803098 0.00999624961086831 0.0 9.672510360609846e-14 0.0 0.01 0.0 9.672510360604676e-14 0.0 0.0100001367028031 0.009996436405786058 0.0 2.441053858299975e-14 0.0 0.01 0.0 2.441053858299975e-14 0.0 0.010000117702078034 0.00999669963458106 0.0 9.980089181673103e-15 0.0 0.01 0.0 9.980089181673103e-15 0.0 0.010000076150869834 0.009997053802523592 0.0 4.787419218837953e-13 0.0 0.01 0.0 4.787419218837953e-13 0.0 0.010000005850005133 0.009997496440485474 0.0 1.9394213844513606e-12 0.0 0.01 0.0 1.9394213844513606e-12 0.0 0.009999917001033337 0.009998012092923336 0.0 4.361415019592155e-12 0.0 0.01 0.0 4.3614150195987725e-12 0.0 0.009999829504360415 0.009995468082603907 0.0 -3.517665335672213e-13 0.0 0.01 0.0 -3.517665335671179e-13 0.0 0.010000177754739404 0.009995604399894555 0.0 -6.917328471482011e-13 0.0 0.01 0.0 -6.917328471479943e-13 0.0 0.010000175804635985 0.009995807637859514 0.0 -1.2799364470507795e-12 0.0 0.01 0.0 -1.2799364470507795e-12 0.0 0.010000154303571365 0.009996102779433642 0.0 -1.944866036474839e-12 0.0 0.01 0.0 -1.944866036474839e-12 0.0 0.01000010060151808 0.00999650533275883 0.0 -2.09104424185334e-12 0.0 0.01 0.0 -2.0910442418549944e-12 0.0 0.010000012200022328 0.009997014337659435 0.0 -9.493313351913061e-13 0.0 0.01 0.0 -9.49331335190479e-13 0.0 0.009999899001530125 0.00999760985719057 0.0 1.6227845037219685e-12 0.0 0.01 0.0 1.6227845037236228e-12 0.0 0.009999786006869155 0.009998236466617218 0.0 4.468264682431829e-12 0.0 0.01 0.0 4.468264682431829e-12 0.0 0.009999709512657924 0.009994949828212907 0.0 -7.088500545955087e-13 0.0 0.01 0.0 -7.088500545953019e-13 0.0 0.010000209956612084 0.009995083128722307 0.0 -1.2328925232497895e-12 0.0 0.01 0.0 -1.2328925232489623e-12 0.0 0.010000207056430682 0.009995292825710683 0.0 -1.9646443583288813e-12 0.0 0.01 0.0 -1.9646443583288813e-12 0.0 0.01000018115492245 0.009995600904509738 0.0 -2.6923308672442332e-12 0.0 0.01 0.0 -2.692330867243406e-12 0.0 0.010000120602181698 0.009996032861976948 0.0 -2.7995839220291266e-12 0.0 0.01 0.0 -2.7995839220291266e-12 0.0 0.010000019050054439 0.009996592242713268 0.0 -1.5855225213702642e-12 0.0 0.01 0.0 -1.585522521369437e-12 0.0 0.009999888001881565 0.009997258128091638 0.0 8.208201818365664e-13 0.0 0.01 0.0 8.208201818365664e-13 0.0 0.009999751509262456 0.009997966620363103 0.0 3.0009342061802208e-12 0.0 0.01 0.0 3.0009342061802208e-12 0.0 0.009999654017956366 0.009994480572976406 0.0 -7.921989946023242e-13 0.0 0.01 0.0 -7.921989946023242e-13 0.0 0.010000227057733046 0.009994606866023513 0.0 -1.1392846853407822e-12 0.0 0.01 0.0 -1.1392846853411958e-12 0.0 0.010000225107600787 0.009994809543923665 0.0 -1.2915623654689834e-12 0.0 0.01 0.0 -1.2915623654685698e-12 0.0 0.010000198755925432 0.009995123069988267 0.0 -9.14600584871254e-13 0.0 0.01 0.0 -9.14600584871254e-13 0.0 0.010000134302705533 0.009995575937581987 0.0 4.1568249227913083e-13 0.0 0.01 0.0 4.1568249227892403e-13 0.0 0.010000025900100625 0.009996177193195633 0.0 2.7486908251080825e-12 0.0 0.01 0.0 2.7486908251072553e-12 0.0 0.009999883002053308 0.009996905936576901 0.0 1.0149448449056454e-11 0.0 0.01 0.0 1.0149448449049836e-11 0.0 0.009999733010692876 0.009997697295611395 0.0 2.5469796206638482e-11 0.0 0.01 0.0 2.5469796206638482e-11 0.0 0.00999961702200195 0.0099939899224998 0.0 -5.865848217385271e-13 0.0 0.01 0.0 -5.865848217385271e-13 0.0 0.010000232908136675 0.009994100724327116 0.0 -3.6154144715250397e-13 0.0 0.01 0.0 -3.6154144715250397e-13 0.0 0.010000231958070434 0.009994294885965411 0.0 9.149941660013201e-13 0.0 0.01 0.0 9.149941660011133e-13 0.0 0.010000204106248734 0.00999460536844945 0.0 3.9418388157530374e-12 0.0 0.01 0.0 3.941838815753865e-12 0.0 0.010000142603050285 0.009995072144958109 0.0 5.4024168526816094e-11 0.0 0.01 0.0 5.4024168526816094e-11 0.0 0.010000033700170356 0.00999571026185766 0.0 4.339510750664388e-10 0.0 0.01 0.0 4.3395107506622704e-10 0.0 0.009999887001915345 0.009996498340102626 0.0 1.2269331771152876e-09 0.0 0.01 0.0 1.2269331771152876e-09 0.0 0.009999724511384738 0.00999737053747541 0.0 2.1733480907909676e-09 0.0 0.01 0.0 2.1733480907909676e-09 0.0 0.009999598024239687 0.009993414511016558 0.0 -1.4734926008487672e-13 0.0 0.01 0.0 -1.4734926008485087e-13 0.0 0.010000230007935304 0.00999350882577602 0.0 9.822917210439732e-13 0.0 0.01 0.0 9.822917210439732e-13 0.0 0.01000022705773305 0.009993688979378397 0.0 4.5270736963907365e-12 0.0 0.01 0.0 4.5270736963907365e-12 0.0 0.010000203606218158 0.009993994913493847 0.0 1.8457346253950406e-10 0.0 0.01 0.0 1.8457346253950406e-10 0.0 0.010000145003153832 0.009994461604474147 0.0 1.5650476702398727e-09 0.0 0.01 0.0 1.5650476702402962e-09 0.0 0.010000040050240968 0.00999511508170148 0.0 5.604366546040166e-09 0.0 0.01 0.0 5.604366546040166e-09 0.0 0.009999894501674222 0.009995946466025333 0.0 1.2081064392285715e-08 0.0 0.01 0.0 1.2081064392278939e-08 0.0 0.009999727011200749 0.009996888952449294 0.0 1.9020843053873474e-08 0.0 0.01 0.0 1.9020843053859922e-08 0.0 0.009999592025022193 0.00999273193140883 0.0 4.058068907203596e-13 0.0 0.01 0.0 4.058068907205664e-13 0.0 0.010000227557767145 0.00999280826560252 0.0 2.7989564879494725e-12 0.0 0.01 0.0 2.798956487951127e-12 0.0 0.010000220207273472 0.009992968423419757 0.0 1.4867227424820983e-10 0.0 0.01 0.0 1.4867227424818336e-10 0.0 0.010000198755925439 0.009993249341866302 0.0 1.9714598159164068e-09 0.0 0.01 0.0 1.9714598159164068e-09 0.0 0.010000146503219998 0.00999368698317722 0.0 9.662986542125095e-09 0.0 0.01 0.0 9.662986542125095e-09 0.0 0.010000048350364683 0.00999430536813455 0.0 2.7511364116488508e-08 0.0 0.01 0.0 2.7511364116481732e-08 0.0 0.009999904001495993 0.009995118077747526 0.0 5.43902876995754e-08 0.0 0.01 0.0 5.4390287699561846e-08 0.0 0.009999731511257387 0.009996103279790265 0.0 7.920475869681136e-08 0.0 0.01 0.0 7.920475869683846e-08 0.0 0.00999958852633958 0.009991937760447428 0.0 8.943699814806785e-13 0.0 0.01 0.0 8.943699814806785e-13 0.0 0.010000230007935304 0.009991989635181837 0.0 2.9571225354379384e-11 0.0 0.01 0.0 2.9571225354379384e-11 0.0 0.01000021975724378 0.009992118826734089 0.0 1.087603772065984e-09 0.0 0.01 0.0 1.087603772065984e-09 0.0 0.01000019970598239 0.009992346295863843 0.0 8.257891501819821e-09 0.0 0.01 0.0 8.257891501821515e-09 0.0 0.010000153803558499 0.009992689025533784 0.0 3.252646182947593e-08 0.0 0.01 0.0 3.252646182947593e-08 0.0 0.010000061050717924 0.00999318198023059 0.0 8.467234058223715e-08 0.0 0.01 0.0 8.467234058221005e-08 0.0 0.009999913002211716 0.009993870144768033 0.0 1.6088563868730393e-07 0.0 0.01 0.0 1.6088563868730393e-07 0.0 0.009999728014982867 0.009994827523762776 0.0 2.2811496182604087e-07 0.0 0.01 0.0 2.2811496182598666e-07 0.0 0.009999579534331922 0.009991039557833299 0.0 1.2991655739573504e-12 0.0 0.01 0.0 1.2991655739575572e-12 0.0 0.010000250009375388 0.009991063992122688 0.0 2.2544255724527332e-10 0.0 0.01 0.0 2.254425572453792e-10 0.0 0.010000237808482668 0.009991140786772667 0.0 3.6280327447845245e-09 0.0 0.01 0.0 3.6280327447853715e-09 0.0 0.01000022460756903 0.009991269446776864 0.0 2.143637268247703e-08 0.0 0.01 0.0 2.143637268247703e-08 0.0 0.01000018455517797 0.009991450976250009 0.0 7.604220035393311e-08 0.0 0.01 0.0 7.604220035393311e-08 0.0 0.010000088852052521 0.009991700848304173 0.0 1.9078920921204376e-07 0.0 0.01 0.0 1.9078920921204376e-07 0.0 0.009999925506298643 0.00999210637567206 0.0 3.5951860944489957e-07 0.0 0.01 0.0 3.5951860944489957e-07 0.0 0.00999971103193583 0.009992883643239948 0.0 5.136027215833089e-07 0.0 0.01 0.0 5.136027215833089e-07 0.0 0.009999557069040335 0.009990031425707766 0.0 3.847590083473235e-12 0.0 0.01 0.0 3.847590083473235e-12 0.0 0.010000305664014005 0.009990019461580433 0.0 6.652657286979395e-10 0.0 0.01 0.0 6.652657286979395e-10 0.0 0.010000296863218707 0.009990029930198352 0.0 7.686983796474238e-09 0.0 0.01 0.0 7.686983796473391e-09 0.0 0.010000291512755333 0.009990033918479987 0.0 4.002958994656113e-08 0.0 0.01 0.0 4.002958994654758e-08 0.0 0.01000025586005998 0.009990002016699463 0.0 1.3487784534350422e-07 0.0 0.01 0.0 1.3487784534350422e-07 0.0 0.01000015185619131 0.009989920775953396 0.0 3.3455944570514847e-07 0.0 0.01 0.0 3.3455944570514847e-07 0.0 0.009999945017265805 0.009989888418246069 0.0 6.364652715354227e-07 0.0 0.01 0.0 6.364652715355312e-07 0.0 0.009999665077677359 0.009990255889713261 0.0 9.262468807136239e-07 0.0 0.01 0.0 9.262468807138408e-07 0.0 0.009999459672672158 0.009988902002209041 0.0 1.1985020733497674e-11 0.0 0.01 0.0 1.1985020733499329e-11 0.0 0.010000413125599503 0.009988852168867452 0.0 1.1607175000797805e-09 0.0 0.01 0.0 1.1607175000799922e-09 0.0 0.010000417026085366 0.009988795359787691 0.0 1.164437844159879e-08 0.0 0.01 0.0 1.1644378441600484e-08 0.0 0.0100004272774037 0.00998867875513915 0.0 5.702543804685426e-08 0.0 0.01 0.0 5.702543804686781e-08 0.0 0.010000403824948342 0.009988440579268183 0.0 1.8770116022532929e-07 0.0 0.01 0.0 1.8770116022532929e-07 0.0 0.01000027396655077 0.009988037033778818 0.0 4.654636377040785e-07 0.0 0.01 0.0 4.654636377040243e-07 0.0 0.009999991532561205 0.009987540943781228 0.0 8.959936546919451e-07 0.0 0.01 0.0 8.959936546918366e-07 0.0 0.009999566148870664 0.009987336852936865 0.0 1.311651359638252e-06 0.0 0.01 0.0 1.3116513596384688e-06 0.0 0.00999917486069716 0.00998764892011735 0.0 1.334960549471807e-11 0.0 0.01 0.0 1.334960549471807e-11 0.0 0.010000588902016758 0.009987564235758363 0.0 1.328677701597646e-09 0.0 0.01 0.0 1.328677701597646e-09 0.0 0.010000613356426566 0.009987448171896656 0.0 1.3091027387884008e-08 0.0 0.01 0.0 1.3091027387885702e-08 0.0 0.01000065241386677 0.0099872454439697 0.0 6.317315727201152e-08 0.0 0.01 0.0 6.317315727201152e-08 0.0 0.010000649013776909 0.009986876884151334 0.0 2.0703065298953915e-07 0.0 0.01 0.0 2.0703065298953915e-07 0.0 0.010000501994236867 0.009986289289258841 0.0 5.160002454429819e-07 0.0 0.01 0.0 5.160002454429819e-07 0.0 0.010000114791986902 0.009985525139944202 0.0 1.0011680340751925e-06 0.0 0.01 0.0 1.0011680340751925e-06 0.0 0.009999514685992552 0.009985030508526423 0.0 1.4767279500054343e-06 0.0 0.01 0.0 1.4767279500052174e-06 0.0 0.009999036966979872 0.00998626684183542 0.0 3.994318470107036e-12 0.0 0.01 0.0 3.994318470107036e-12 0.0 0.0100008375052005 0.00998615082317245 0.0 9.867450705348247e-10 0.0 0.01 0.0 9.867450705347188e-10 0.0 0.010000899071234977 0.009985996967766463 0.0 1.0858384675567214e-08 0.0 0.01 0.0 1.0858384675567214e-08 0.0 0.010000977193235049 0.009985755992109706 0.0 5.422447039418656e-08 0.0 0.01 0.0 5.4224470394179786e-08 0.0 0.010001010903710052 0.009985358722845016 0.0 1.8054965634863615e-07 0.0 0.01 0.0 1.8054965634863615e-07 0.0 0.01000088782311862 0.009984755461741601 0.0 4.5631727300937544e-07 0.0 0.01 0.0 4.5631727300937544e-07 0.0 0.010000527423016346 0.009984010553960579 0.0 9.0244873527203e-07 0.0 0.01 0.0 9.0244873527203e-07 0.0 0.010000204728703244 0.009983543992111904 0.0 1.3700388947470105e-06 0.0 0.01 0.0 1.370038894746902e-06 0.0 0.010000458313641334 0.009984750951077676 0.0 -5.325040378439217e-13 0.0 0.01 0.0 -5.325040378439734e-13 0.0 0.010001156450575763 0.009984611593479194 0.0 4.134019648884669e-10 0.0 0.01 0.0 4.1340196488851984e-10 0.0 0.010001254135889108 0.009984440888378817 0.0 6.321910880595688e-09 0.0 0.01 0.0 6.321910880595688e-09 0.0 0.010001383086892503 0.009984201020376237 0.0 3.510979491961144e-08 0.0 0.01 0.0 3.510979491960805e-08 0.0 0.010001479828604328 0.009983848716284383 0.0 1.2231268759749074e-07 0.0 0.01 0.0 1.2231268759749074e-07 0.0 0.010001453419050677 0.009983349195074265 0.0 3.172062538498864e-07 0.0 0.01 0.0 3.172062538498593e-07 0.0 0.01000132057666358 0.009982753778922717 0.0 6.378034356632691e-07 0.0 0.01 0.0 6.378034356632691e-07 0.0 0.01000149989852201 0.00998235047981547 0.0 9.768834532856508e-07 0.0 0.01 0.0 9.768834532856508e-07 0.0 0.01000217420226748 0.009983091481586236 0.0 -1.08138577757524e-12 0.0 0.01 0.0 -1.08138577757524e-12 0.0 0.010001528650444402 0.009982939259857373 0.0 4.606947008287227e-11 0.0 0.01 0.0 4.6069470082868964e-11 0.0 0.010001661564027532 0.009982768640510717 0.0 2.2472777879092328e-09 0.0 0.01 0.0 2.2472777879094445e-09 0.0 0.010001832553615617 0.009982557243870994 0.0 1.604849365743815e-08 0.0 0.01 0.0 1.604849365743476e-08 0.0 0.010001996697899909 0.009982281702781438 0.0 6.188966999195848e-08 0.0 0.01 0.0 6.18896699919517e-08 0.0 0.010002097360229107 0.009981922144026515 0.0 1.6828679051691486e-07 0.0 0.01 0.0 1.682867905169013e-07 0.0 0.010002202381614953 0.009981503960243446 0.0 3.444241588227521e-07 0.0 0.01 0.0 3.444241588227521e-07 0.0 0.010002626051885904 0.009981183286385253 0.0 5.311728564771369e-07 0.0 0.01 0.0 5.31172856477164e-07 0.0 0.01000327359915749 0.009981285665340652 0.0 -1.5296150948275048e-12 0.0 0.01 0.0 -1.5296150948274014e-12 0.0 0.010001933160421932 0.009981130543149752 0.0 -1.4873105251826502e-11 0.0 0.01 0.0 -1.4873105251828157e-11 0.0 0.010002094407797908 0.009980971450979507 0.0 2.967724574812104e-10 0.0 0.01 0.0 2.9677245748118395e-10 0.0 0.010002291787602905 0.009980796955506407 0.0 4.373984718380056e-09 0.0 0.01 0.0 4.373984718380056e-09 0.0 0.01000249653459452 0.009980602088251184 0.0 2.1369984324858186e-08 0.0 0.01 0.0 2.1369984324858186e-08 0.0 0.010002688583952625 0.009980374426648947 0.0 6.448831659512487e-08 0.0 0.01 0.0 6.448831659512826e-08 0.0 0.010002927085297821 0.009980127895326709 0.0 1.388071768220091e-07 0.0 0.01 0.0 1.3880717682201587e-07 0.0 0.010003358143707487 0.009979915179645726 0.0 2.1844106291878974e-07 0.0 0.01 0.0 2.184410629188033e-07 0.0 0.010003829856216185 0.009979319330868134 0.0 -1.8731366967919936e-12 0.0 0.01 0.0 -1.8731366967919936e-12 0.0 0.010002352379793333 0.009979176722387965 0.0 -1.3550427084874355e-11 0.0 0.01 0.0 -1.3550427084874355e-11 0.0 0.010002523905193168 0.009979034616883152 0.0 -5.634654201915078e-11 0.0 0.01 0.0 -5.634654201915078e-11 0.0 0.010002732069222621 0.009978900466907416 0.0 3.189671869183377e-10 0.0 0.01 0.0 3.189671869183377e-10 0.0 0.010002952457035856 0.00997877625879283 0.0 3.786417813280202e-09 0.0 0.01 0.0 3.78641781327999e-09 0.0 0.010003172408990674 0.009978655036175768 0.0 1.5211029400900233e-08 0.0 0.01 0.0 1.5211029400900233e-08 0.0 0.010003429513462777 0.009978541269931133 0.0 3.733380738399812e-08 0.0 0.01 0.0 3.733380738399643e-08 0.0 0.010003782895672237 0.009978443901283838 0.0 6.34172939254945e-08 0.0 0.01 0.0 6.341729392549789e-08 0.0 0.010004100170936711 0.00997718630783595 0.0 -1.945555394963779e-12 0.0 0.01 0.0 -1.9455553949638823e-12 0.0 0.010002770701092427 0.009977056204915048 0.0 -1.1776548728299424e-11 0.0 0.01 0.0 -1.1776548728300251e-11 0.0 0.01000294905402518 0.009976942493171593 0.0 -4.9455745022134444e-11 0.0 0.01 0.0 -4.945574502213775e-11 0.0 0.01000315434185342 0.009976850136276317 0.0 -1.42080119664025e-10 0.0 0.01 0.0 -1.42080119664025e-10 0.0 0.010003362545246518 0.00997678558728087 0.0 -1.502369326400597e-10 0.0 0.01 0.0 -1.502369326400597e-10 0.0 0.010003566356928464 0.009976742886326424 0.0 9.687813591425652e-10 0.0 0.01 0.0 9.687813591425652e-10 0.0 0.01000378239489507 0.009976720543024821 0.0 4.310479971685182e-09 0.0 0.01 0.0 4.310479971685394e-09 0.0 0.010004045403472765 0.009976712102270026 0.0 9.22525487142514e-09 0.0 0.01 0.0 9.225254871424717e-09 0.0 0.01000426202319149 0.009974866571912022 0.0 -1.4158896279894515e-12 0.0 0.01 0.0 -1.4158896279894515e-12 0.0 0.010003184620625584 0.009974748965241574 0.0 -9.726248808518055e-12 0.0 0.01 0.0 -9.726248808518469e-12 0.0 0.010003361043733196 0.009974663119960933 0.0 -4.4716437689019174e-11 0.0 0.01 0.0 -4.4716437689019174e-11 0.0 0.010003556095973795 0.009974612507019063 0.0 -1.352086282287142e-10 0.0 0.01 0.0 -1.3520862822872082e-10 0.0 0.010003752110694228 0.009974599109604597 0.0 -2.9397585073955465e-10 0.0 0.01 0.0 -2.9397585073955465e-10 0.0 0.010003931517309486 0.009974621438658736 0.0 -4.814669022210207e-10 0.0 0.01 0.0 -4.814669022210207e-10 0.0 0.01000409135951441 0.009974665104797923 0.0 -5.300684264820689e-10 0.0 0.01 0.0 -5.300684264820425e-10 0.0 0.01000428595383632 0.00997472018449589 0.0 -1.7905622777758444e-10 0.0 0.01 0.0 -1.7905622777758444e-10 0.0 0.010004448766969161 0.009972352581093935 0.0 -3.330429545955966e-13 0.0 0.01 0.0 -3.330429545955966e-13 0.0 0.010003592284749743 0.009972242005184767 0.0 -7.216690944403522e-12 0.0 0.01 0.0 -7.216690944403522e-12 0.0 0.010003767728297265 0.009972173083048475 0.0 -4.1606405866664255e-11 0.0 0.01 0.0 -4.16064058666626e-11 0.0 0.010003957447970198 0.009972152753770403 0.0 -1.361543482560658e-10 0.0 0.01 0.0 -1.3615434825605918e-10 0.0 0.010004140770477806 0.009972180520620308 0.0 -3.083662313833775e-10 0.0 0.01 0.0 -3.0836623138336424e-10 0.0 0.010004301123358806 0.00997224845121308 0.0 -5.20724947298765e-10 0.0 0.01 0.0 -5.207249472987914e-10 0.0 0.010004418927313024 0.009972344647273987 0.0 -6.249408537600181e-10 0.0 0.01 0.0 -6.249408537600181e-10 0.0 0.01000457393622122 0.00997245125956272 0.0 -3.8047688785681217e-10 0.0 0.01 0.0 -3.804768878568254e-10 0.0 0.01000471818709402 0.009969633381898128 0.0 1.0377075525793756e-12 0.0 0.01 0.0 1.0377075525793756e-12 0.0 0.010003999948659078 0.009969519428322098 0.0 -4.258037339429911e-12 0.0 0.01 0.0 -4.258037339429704e-12 0.0 0.01000417646497272 0.009969454030643232 0.0 -3.899127555161664e-11 0.0 0.01 0.0 -3.8991275551618295e-11 0.0 0.01000436370462675 0.009969445608308444 0.0 -1.416688219293414e-10 0.0 0.01 0.0 -1.4166882192934801e-10 0.0 0.010004548000766273 0.009969495647199074 0.0 -3.357352409877974e-10 0.0 0.01 0.0 -3.3573524098778415e-10 0.0 0.010004699110171414 0.009969590772712372 0.0 -5.826075247377345e-10 0.0 0.01 0.0 -5.826075247377345e-10 0.0 0.010004797400050214 0.009969718106437334 0.0 -7.155030443139199e-10 0.0 0.01 0.0 -7.155030443139199e-10 0.0 0.010004935801917712 0.009969852381914774 0.0 -4.465032759342185e-10 0.0 0.01 0.0 -4.465032759342185e-10 0.0 0.010005081971341619 0.009966705024579291 0.0 1.5376289177419255e-12 0.0 0.01 0.0 1.5376289177419772e-12 0.0 0.010004406210493678 0.00996657582625464 0.0 -1.7759443182402702e-12 0.0 0.01 0.0 -1.7759443182402185e-12 0.0 0.010004588606365074 0.009966496626700625 0.0 -3.6920696103246566e-11 0.0 0.01 0.0 -3.6920696103246566e-11 0.0 0.010004782728987742 0.009966480787016393 0.0 -1.5004861344704868e-10 0.0 0.01 0.0 -1.5004861344704868e-10 0.0 0.010004975410745052 0.0099665223663486 0.0 -3.714003692020002e-10 0.0 0.01 0.0 -3.714003692020002e-10 0.0 0.010005136755229106 0.009966618891804654 0.0 -6.593953385943099e-10 0.0 0.01 0.0 -6.593953385942569e-10 0.0 0.010005235058007374 0.009966744626604507 0.0 -8.199936376622361e-10 0.0 0.01 0.0 -8.199936376622361e-10 0.0 0.01000537493037805 0.009966883732458937 0.0 -5.029207478187495e-10 0.0 0.01 0.0 -5.029207478187495e-10 0.0 0.010005524574769022 0.009963574493647383 0.0 -2.6249847471586636e-13 0.0 0.01 0.0 -2.6249847471586636e-13 0.0 0.010004817428908517 0.009963420195743424 0.0 -1.906513650209243e-12 0.0 0.01 0.0 -1.9065136502091396e-12 0.0 0.010004999847272707 0.009963307444116035 0.0 -3.806652363326455e-11 0.0 0.01 0.0 -3.806652363326455e-11 0.0 0.010005207665143666 0.00996325453129484 0.0 -1.636065656674627e-10 0.0 0.01 0.0 -1.636065656674627e-10 0.0 0.010005419953201748 0.009963259476382626 0.0 -4.162848056204276e-10 0.0 0.01 0.0 -4.162848056204408e-10 0.0 0.010005604808562973 0.009963316839938865 0.0 -7.492697819781686e-10 0.0 0.01 0.0 -7.492697819781686e-10 0.0 0.010005730972845678 0.009963407832439658 0.0 -9.314605379145974e-10 0.0 0.01 0.0 -9.314605379145974e-10 0.0 0.010005893856540118 0.009963519103831477 0.0 -5.28328278511992e-10 0.0 0.01 0.0 -5.283282785119655e-10 0.0 0.010006057249098562 0.009960291275901437 0.0 -6.385949918487314e-12 0.0 0.01 0.0 -6.385949918487314e-12 0.0 0.010005232153451686 0.009960095631010532 0.0 -8.069630741686905e-12 0.0 0.01 0.0 -8.069630741687112e-12 0.0 0.010005410638084886 0.009959928650298757 0.0 -4.766313461652261e-11 0.0 0.01 0.0 -4.7663134616520955e-11 0.0 0.010005627296408309 0.009959804161268314 0.0 -1.8957822792775318e-10 0.0 0.01 0.0 -1.8957822792775318e-10 0.0 0.010005865506592144 0.0099597315448229 0.0 -4.790641011433384e-10 0.0 0.01 0.0 -4.790641011433119e-10 0.0 0.010006080741819854 0.009959705363773023 0.0 -8.605078452864797e-10 0.0 0.01 0.0 -8.605078452865062e-10 0.0 0.010006250004504547 0.009959719195245444 0.0 -1.05237957357781e-09 0.0 0.01 0.0 -1.0523795735778365e-09 0.0 0.010006474031540284 0.009959751798229595 0.0 -5.0366083227537e-10 0.0 0.01 0.0 -5.036608322753568e-10 0.0 0.010006672221845892 0.009956961944125497 0.0 -2.014159967733503e-11 0.0 0.01 0.0 -2.01415996773342e-11 0.0 0.010005658599340798 0.009956713193141405 0.0 -2.5005804651197298e-11 0.0 0.01 0.0 -2.5005804651197298e-11 0.0 0.010005819025220275 0.009956470382781711 0.0 -7.317467773994552e-11 0.0 0.01 0.0 -7.317467773994718e-11 0.0 0.01000603966723412 0.009956243381033467 0.0 -2.3996260333351023e-10 0.0 0.01 0.0 -2.3996260333352346e-10 0.0 0.010006295489992862 0.009956046987701054 0.0 -5.776708883658929e-10 0.0 0.01 0.0 -5.776708883659061e-10 0.0 0.010006534248886098 0.009955886624880998 0.0 -1.0158377551426358e-09 0.0 0.01 0.0 -1.0158377551426623e-09 0.0 0.010006744617348566 0.0099557622873509 0.0 -1.2006519301953467e-09 0.0 0.01 0.0 -1.2006519301953467e-09 0.0 0.010007071443731733 0.009955663116707963 0.0 -4.195229270727826e-10 0.0 0.01 0.0 -4.195229270727826e-10 0.0 0.010007353803818274 0.009953802613121565 0.0 -4.620973963356485e-11 0.0 0.01 0.0 -4.6209739633563195e-11 0.0 0.010006127226839155 0.009953497396802399 0.0 -5.789766503984841e-11 0.0 0.01 0.0 -5.7897665039846755e-11 0.0 0.010006239735289467 0.009953159176942561 0.0 -1.2232453587014322e-10 0.0 0.01 0.0 -1.2232453587014322e-10 0.0 0.01000644958420911 0.00995280275221876 0.0 -3.307939524045159e-10 0.0 0.01 0.0 -3.3079395240450265e-10 0.0 0.010006716711075872 0.009952441436778649 0.0 -7.420772636337198e-10 0.0 0.01 0.0 -7.420772636337198e-10 0.0 0.010006945729778543 0.009952098888902734 0.0 -1.2585148671449857e-09 0.0 0.01 0.0 -1.2585148671449857e-09 0.0 0.010007155122046273 0.009951781509203339 0.0 -1.4164091582983535e-09 0.0 0.01 0.0 -1.4164091582983535e-09 0.0 0.010007621003109477 0.009951493232532733 0.0 -2.8372202084173054e-10 0.0 0.01 0.0 -2.8372202084173716e-10 0.0 0.01000805316759123 0.0099511640857034 0.0 -8.606253768951514e-11 0.0 0.01 0.0 -8.606253768951514e-11 0.0 0.010006680538481144 0.009950802948692324 0.0 -1.0562527192497626e-10 0.0 0.01 0.0 -1.0562527192497295e-10 0.0 0.010006728935697935 0.009950367468768843 0.0 -1.9823727583826348e-10 0.0 0.01 0.0 -1.9823727583826348e-10 0.0 0.01000691586777417 0.00994986851059541 0.0 -4.834402660344137e-10 0.0 0.01 0.0 -4.834402660343873e-10 0.0 0.010007171757745563 0.009949325800263515 0.0 -1.0242120138700036e-09 0.0 0.01 0.0 -1.0242120138700036e-09 0.0 0.010007348442011184 0.0099487713621865 0.0 -1.6659455278840043e-09 0.0 0.01 0.0 -1.6659455278840573e-09 0.0 0.01000745803505452 0.009948222431793306 0.0 -1.7701790220908933e-09 0.0 0.01 0.0 -1.7701790220908933e-09 0.0 0.01000804925816419 0.009947708045874065 0.0 -1.2845057622210857e-10 0.0 0.01 0.0 -1.2845057622211519e-10 0.0 0.010008697834703345 0.009949538047541171 0.0 -1.2584869799831922e-10 0.0 0.01 0.0 -1.2584869799832252e-10 0.0 0.010007397851140284 0.00994913621731282 0.0 -1.506645531960842e-10 0.0 0.01 0.0 -1.506645531960842e-10 0.0 0.010007377806780557 0.009948624643640927 0.0 -2.9800897507344823e-10 0.0 0.01 0.0 -2.9800897507344823e-10 0.0 0.01000754077091614 0.009948002392834929 0.0 -7.342230189361628e-10 0.0 0.01 0.0 -7.342230189361363e-10 0.0 0.010007788890581204 0.009947300039538311 0.0 -1.5138257927354056e-09 0.0 0.01 0.0 -1.5138257927354586e-09 0.0 0.01000784762813395 0.00994654666401229 0.0 -2.3621968688725812e-09 0.0 0.01 0.0 -2.3621968688725283e-09 0.0 0.010007689510201251 0.009945781161831781 0.0 -2.356392280536694e-09 0.0 0.01 0.0 -2.356392280536747e-09 0.0 0.010008298869266281 0.009945048786971795 0.0 -6.699285612466867e-12 0.0 0.01 0.0 -6.699285612466867e-12 0.0 0.010009190855263528 0.009949517856380236 0.0 -1.26198498163397e-10 0.0 0.01 0.0 -1.2619849816340031e-10 0.0 0.010008393355448779 0.009949123414699017 0.0 -1.574724040893173e-10 0.0 0.01 0.0 -1.574724040893206e-10 0.0 0.010008333655909757 0.00994858821118278 0.0 -4.187017545330312e-10 0.0 0.01 0.0 -4.187017545330312e-10 0.0 0.010008498621722208 0.009947920189632859 0.0 -1.139420178758663e-09 0.0 0.01 0.0 -1.1394201787586366e-09 0.0 0.010008739944657365 0.009947143543795696 0.0 -2.333943507329859e-09 0.0 0.01 0.0 -2.333943507329859e-09 0.0 0.010008621486702859 0.009946295248882332 0.0 -3.5037846694804553e-09 0.0 0.01 0.0 -3.503784669480561e-09 0.0 0.010007996381102563 0.009945406838550427 0.0 -3.27413509656887e-09 0.0 0.01 0.0 -3.2741350965689757e-09 0.0 0.010008414408439359 0.009944542760793049 0.0 9.553954423447847e-12 0.0 0.01 0.0 9.553954423448053e-12 0.0 0.01000947685461368 0.009951854444707598 0.0 -3.47857445473705e-11 0.0 0.01 0.0 -3.47857445473705e-11 0.0 0.010009807860272406 0.00995154053775528 0.0 -8.525476059824307e-11 0.0 0.01 0.0 -8.525476059824638e-11 0.0 0.010009767241237236 0.00995109707777554 0.0 -5.469016921979679e-10 0.0 0.01 0.0 -5.469016921979811e-10 0.0 0.010009971946149087 0.009950541358306973 0.0 -1.7367780962241865e-09 0.0 0.01 0.0 -1.7367780962242395e-09 0.0 0.010010209463716696 0.00994989658423707 0.0 -3.6129243626674626e-09 0.0 0.01 0.0 -3.6129243626674626e-09 0.0 0.010009868087679894 0.009949176595115062 0.0 -5.299851180457792e-09 0.0 0.01 0.0 -5.299851180457686e-09 0.0 0.010008628354445779 0.009948393255103577 0.0 -4.703574763192227e-09 0.0 0.01 0.0 -4.703574763192121e-09 0.0 0.010008597976083753 0.009947601732993515 0.0 -2.689316947519298e-10 0.0 0.01 0.0 -2.689316947519298e-10 0.0 0.010009643832609513 0.009957652029566472 0.0 1.929275903921687e-10 0.0 0.01 0.0 1.929275903921687e-10 0.0 0.010011781036267963 0.009957553296101608 0.0 1.1125515763462351e-10 0.0 0.01 0.0 1.1125515763462351e-10 0.0 0.010011813400540751 0.009957399277760768 0.0 -6.575477438054683e-10 0.0 0.01 0.0 -6.575477438054948e-10 0.0 0.01001206670572149 0.009957224041225963 0.0 -2.5957845177741837e-09 0.0 0.01 0.0 -2.5957845177741837e-09 0.0 0.01001225785145968 0.009957024628370661 0.0 -5.58656080944962e-09 0.0 0.01 0.0 -5.586560809449832e-09 0.0 0.010011657051397085 0.00995676649536415 0.0 -8.139704568878554e-09 0.0 0.01 0.0 -8.139704568878342e-09 0.0 0.010009918537125748 0.009956420046279104 0.0 -7.033488892673019e-09 0.0 0.01 0.0 -7.033488892673019e-09 0.0 0.010009326982689687 0.00995601294079296 0.0 -1.113446549760191e-09 0.0 0.01 0.0 -1.1134465497602176e-09 0.0 0.010010100733137154 0.009968585156365648 0.0 5.67428076902808e-10 0.0 0.01 0.0 5.674280769027815e-10 0.0 0.010014375689757302 0.009968880369805509 0.0 4.1547125681366165e-10 0.0 0.01 0.0 4.154712568136484e-10 0.0 0.010014495808460016 0.009969266267187278 0.0 -8.480396053870648e-10 0.0 0.01 0.0 -8.480396053870648e-10 0.0 0.010014746404450738 0.009969769140391509 0.0 -3.947600722902553e-09 0.0 0.01 0.0 -3.947600722902342e-09 0.0 0.010014791051684969 0.009970344441388003 0.0 -8.584567631412913e-09 0.0 0.01 0.0 -8.584567631413337e-09 0.0 0.010013885316865154 0.009970886633563783 0.0 -1.2297939623718335e-08 0.0 0.01 0.0 -1.2297939623718335e-08 0.0 0.010012034389195583 0.009971319856129344 0.0 -1.0532127670844074e-08 0.0 0.01 0.0 -1.0532127670844921e-08 0.0 0.010011482145734602 0.009971641587672301 0.0 -2.608831429764337e-09 0.0 0.01 0.0 -2.608831429764337e-09 0.0 0.01001183246801221 0.009986491919614772 0.0 9.43300086209121e-10 0.0 0.01 0.0 9.433000862090152e-10 0.0 0.010017541146061758 0.009987338089262098 0.0 5.792245914647768e-10 0.0 0.01 0.0 5.792245914647768e-10 0.0 0.010017681535188953 0.009988447549746537 0.0 -1.466496765931363e-09 0.0 0.01 0.0 -1.4664967659314689e-09 0.0 0.01001780674937624 0.00998982754291756 0.0 -6.111011746413964e-09 0.0 0.01 0.0 -6.111011746414388e-09 0.0 0.010017554415678457 0.009991366693005758 0.0 -1.2624839898168003e-08 0.0 0.01 0.0 -1.2624839898167156e-08 0.0 0.010016622404004707 0.00999291703242235 0.0 -1.7278192362689674e-08 0.0 0.01 0.0 -1.727819236269052e-08 0.0 0.010015745610762376 0.00999436626445545 0.0 -1.4222073901740827e-08 0.0 0.01 0.0 -1.4222073901740827e-08 0.0 0.010015721547524184 0.009995676805121378 0.0 -4.001415824587878e-09 0.0 0.01 0.0 -4.001415824588302e-09 0.0 0.010015823629003358 0.010012389185814919 0.0 9.442569167620633e-10 0.0 0.01 0.0 9.442569167620633e-10 0.0 0.01002105948900365 0.010013806841783048 0.0 1.1536127825486006e-10 0.0 0.01 0.0 1.1536127825488653e-10 0.0 0.010021069803913846 0.010015624944691364 0.0 -2.925871377915546e-09 0.0 0.01 0.0 -2.925871377915546e-09 0.0 0.010020906681113237 0.010017816048902882 0.0 -9.045264947713948e-09 0.0 0.01 0.0 -9.045264947713948e-09 0.0 0.010020409009577298 0.010020252257420441 0.0 -1.6833153895518677e-08 0.0 0.01 0.0 -1.6833153895084996e-08 0.0 0.010020198733968214 0.01002275961495735 0.0 -2.1237684967131856e-08 0.0 0.01 0.0 -2.1237684967118304e-08 0.0 0.010020905222066336 0.010025216158565926 0.0 -1.5676199002118715e-08 0.0 0.01 0.0 -1.5676199002118715e-08 0.0 0.01002121869442385 0.01002754060640237 0.0 -3.1181086797558614e-09 0.0 0.01 0.0 -3.1181086797550143e-09 0.0 0.010021037903271312 0.010045228350573485 0.0 2.6253261024547264e-10 0.0 0.01 0.0 2.6253261024547264e-10 0.0 0.010024582045366092 0.01004702148586404 0.0 -1.1787992593789045e-09 0.0 0.01 0.0 -1.1787992593789045e-09 0.0 0.010024261357271127 0.01004924321049344 0.0 -4.990495842365256e-09 0.0 0.01 0.0 -4.990495842364832e-09 0.0 0.010023670227497774 0.010051858118452054 0.0 -1.1647177078046839e-08 0.0 0.01 0.0 -1.1647177078046839e-08 0.0 0.010023054079249333 0.010054758004470378 0.0 -1.9015792374532402e-08 0.0 0.01 0.0 -1.9015792374531555e-08 0.0 0.010023714943881481 0.01005780996255274 0.0 -2.1124837678795147e-08 0.0 0.01 0.0 -2.11248376787943e-08 0.0 0.010024932787627736 0.01006089851146249 0.0 -1.216564414735235e-08 0.0 0.01 0.0 -1.2165644147352773e-08 0.0 0.010024817682861998 0.010063840529403885 0.0 -9.887464645757868e-12 0.0 0.01 0.0 -9.887464645757868e-12 0.0 0.010024345920846863 0.010081062011103245 0.0 -7.617678466137642e-10 0.0 0.01 0.0 -7.617678466137377e-10 0.0 0.0100276981546385 0.0100828388895363 0.0 -2.5453707600692056e-09 0.0 0.01 0.0 -2.5453707600692056e-09 0.0 0.01002687948892822 0.010084916658101482 0.0 -6.313940693511197e-09 0.0 0.01 0.0 -6.313940693511197e-09 0.0 0.01002587644313739 0.010087274370872883 0.0 -1.2081650031921273e-08 0.0 0.01 0.0 -1.2081650031921273e-08 0.0 0.0100253524370573 0.010089868959449362 0.0 -1.7367094234841892e-08 0.0 0.01 0.0 -1.736709423484147e-08 0.0 0.010026297219082395 0.010092636254345876 0.0 -1.6253665158699362e-08 0.0 0.01 0.0 -1.6253665158699362e-08 0.0 0.010026836645605521 0.010095479651458503 0.0 -8.702564444101494e-09 0.0 0.01 0.0 -8.702564444101282e-09 0.0 0.010025600926617542 0.010098103695492617 0.0 -1.0039598995276604e-08 0.0 0.01 0.0 -1.003959899527618e-08 0.0 0.010024815718301064 0.010113401216862945 0.0 -1.2580851879225587e-09 0.0 0.01 0.0 -1.2580851879225587e-09 0.0 0.01003006721400208 0.01011468836906782 0.0 -2.754067358367918e-09 0.0 0.01 0.0 -2.754067358367918e-09 0.0 0.010028739117497928 0.010116008932308658 0.0 -5.5502340576351875e-09 0.0 0.01 0.0 -5.5502340576351875e-09 0.0 0.010027439678605025 0.010117330478950432 0.0 -9.551206740414697e-09 0.0 0.01 0.0 -9.551206740414697e-09 0.0 0.010026815476121867 0.010118677356434042 0.0 -1.3402483156174831e-08 0.0 0.01 0.0 -1.3402483156174831e-08 0.0 0.010027298374743995 0.010120073329599882 0.0 -1.6459329651809777e-08 0.0 0.01 0.0 -1.645932965180999e-08 0.0 0.010026648645350461 0.010121410675059983 0.0 -2.011056116926525e-08 0.0 0.01 0.0 -2.011056116926525e-08 0.0 0.01002448171061363 0.010122473527637179 0.0 -1.7000606109586034e-08 0.0 0.01 0.0 -1.7000606109586034e-08 0.0 0.010023822154724471 0.010135364813368448 0.0 -9.213210905092012e-10 0.0 0.01 0.0 -9.213210905092144e-10 0.0 0.010031582591442902 0.010135849300613488 0.0 -1.7054507515101489e-09 0.0 0.01 0.0 -1.7054507515101753e-09 0.0 0.01002980063433044 0.010136020184062596 0.0 -3.2277175282490667e-09 0.0 0.01 0.0 -3.227717528249014e-09 0.0 0.010027971423912988 0.010135815770571849 0.0 -5.74305288281914e-09 0.0 0.01 0.0 -5.7430528828189285e-09 0.0 0.010026604796910539 0.010135276836368388 0.0 -9.155711275254384e-09 0.0 0.01 0.0 -9.155711275254278e-09 0.0 0.010025929100222401 0.01013451741410963 0.0 -1.284227955907463e-08 0.0 0.01 0.0 -1.2842279559074419e-08 0.0 0.010024492539742717 0.010133639268458191 0.0 -1.3340518949612408e-08 0.0 0.01 0.0 -1.334051894961262e-08 0.0 0.010023007861387939 0.010132757813789419 0.0 -8.551182491744296e-10 0.0 0.01 0.0 -8.551182491744428e-10 0.0 0.010023222241135315 0.010144180938352763 0.0 -3.3626138792171825e-10 0.0 0.01 0.0 -3.3626138792171825e-10 0.0 0.010032364948173932 0.010143865440063064 0.0 -5.251717648418444e-10 0.0 0.01 0.0 -5.25171764841851e-10 0.0 0.010030377106792812 0.010142930861087635 0.0 -9.983247012612678e-10 0.0 0.01 0.0 -9.983247012612678e-10 0.0 0.010028268364873786 0.010141297716275118 0.0 -1.918317109173775e-09 0.0 0.01 0.0 -1.918317109173775e-09 0.0 0.010026425679627582 0.01013905665430958 0.0 -3.2409606149097714e-09 0.0 0.01 0.0 -3.2409606149097714e-09 0.0 0.010024922460719123 0.01013642342411774 0.0 -4.15835317056005e-09 0.0 0.01 0.0 -4.15835317056005e-09 0.0 0.010023136699038628 0.010133697752341327 0.0 -1.504682103017256e-09 0.0 0.01 0.0 -1.5046821030172824e-09 0.0 0.010022574260155431 0.010131224049585422 0.0 9.90609800863793e-09 0.0 0.01 0.0 9.90609800863793e-09 0.0 0.010023944628044908 0.010143102572559128 0.0 -1.0243092739117992e-11 0.0 0.01 0.0 -1.0243092739118095e-11 0.0 0.01003268394055136 0.010142272114664702 0.0 2.8559608142947133e-11 0.0 0.01 0.0 2.8559608142947133e-11 0.0 0.010030717608250975 0.010140637254544426 0.0 8.009466198295454e-12 0.0 0.01 0.0 8.009466198295558e-12 0.0 0.010028596800499893 0.010138115223931293 0.0 -1.0422947494935711e-10 0.0 0.01 0.0 -1.0422947494935545e-10 0.0 0.010026623041804208 0.010134827981026096 0.0 -2.399592878352795e-10 0.0 0.01 0.0 -2.399592878352828e-10 0.0 0.010024857528270722 0.010131074777224866 0.0 -1.2325887788761131e-11 0.0 0.01 0.0 -1.2325887788760925e-11 0.0 0.010023486282474976 0.01012723947829801 0.0 1.6119322479160282e-09 0.0 0.01 0.0 1.6119322479160282e-09 0.0 0.01002326700182368 0.010123761190173053 0.0 5.7955516828680825e-09 0.0 0.01 0.0 5.7955516828680825e-09 0.0 0.010025235806478676 0.010137263123920576 0.0 4.9415571295311006e-11 0.0 0.01 0.0 4.9415571295311006e-11 0.0 0.010032768263025982 0.010136358331747974 0.0 7.500989104195709e-11 0.0 0.01 0.0 7.500989104195709e-11 0.0 0.010030956656147106 0.010134578931864912 0.0 8.203152849271973e-11 0.0 0.01 0.0 8.203152849271973e-11 0.0 0.010028988363347632 0.010131824273150368 0.0 7.678438018117643e-11 0.0 0.01 0.0 7.67843801811756e-11 0.0 0.010027147751255181 0.010128229102404362 0.0 7.802495140172169e-11 0.0 0.01 0.0 7.802495140172003e-11 0.0 0.010025576288433192 0.010124121927527435 0.0 9.678228494675634e-11 0.0 0.01 0.0 9.678228494675469e-11 0.0 0.010024530416886146 0.010119906360588309 0.0 9.128961739606848e-11 0.0 0.01 0.0 9.128961739606848e-11 0.0 0.010024283467493024 0.010116019025596976 0.0 -5.086073889076109e-11 0.0 0.01 0.0 -5.086073889076192e-11 0.0 0.01002642764512753 0.010130324407996131 0.0 2.7213275358221485e-11 0.0 0.01 0.0 2.721327535822107e-11 0.0 0.010032729787477417 0.010129764053224381 0.0 -1.4318096941321037e-11 0.0 0.01 0.0 -1.4318096941321037e-11 0.0 0.010031090695968789 0.010128338195399558 0.0 -1.1196583301656041e-10 0.0 0.01 0.0 -1.1196583301656041e-10 0.0 0.010029310514157811 0.010125912020777101 0.0 -2.513486354935412e-10 0.0 0.01 0.0 -2.513486354935412e-10 0.0 0.010027764150650962 0.010122599652727856 0.0 -4.019252205959653e-10 0.0 0.01 0.0 -4.019252205959653e-10 0.0 0.010026574304963353 0.010118727966725704 0.0 -5.238272912992691e-10 0.0 0.01 0.0 -5.238272912992625e-10 0.0 0.010025495119785873 0.010114691939137645 0.0 -4.356113160267384e-10 0.0 0.01 0.0 -4.356113160267384e-10 0.0 0.010025030163710173 0.010110888336343228 0.0 1.7803763391014224e-10 0.0 0.01 0.0 1.7803763391013893e-10 0.0 0.010027138879402148 0.010123165925549913 0.0 8.44560012218838e-12 0.0 0.01 0.0 8.44560012218838e-12 0.0 0.010032566094619015 0.010123232787076804 0.0 -7.921461794091469e-11 0.0 0.01 0.0 -7.921461794091304e-11 0.0 0.010031043357496338 0.010122499872421416 0.0 -2.890777241583161e-10 0.0 0.01 0.0 -2.890777241583095e-10 0.0 0.010029394701159416 0.010120771817916797 0.0 -6.448017762266404e-10 0.0 0.01 0.0 -6.448017762266404e-10 0.0 0.01002804776179271 0.010118130067532706 0.0 -1.0704377309545258e-09 0.0 0.01 0.0 -1.0704377309545126e-09 0.0 0.010027051271118068 0.010114873345109712 0.0 -1.3138431720451176e-09 0.0 0.01 0.0 -1.313843172045091e-09 0.0 0.010025725883737362 0.0101113825026181 0.0 -6.157245432302755e-10 0.0 0.01 0.0 -6.157245432302755e-10 0.0 0.010024988351565591 0.010108014759626733 0.0 2.3735803343539247e-09 0.0 0.01 0.0 2.3735803343539247e-09 0.0 0.010026905548040924 0.010114441318992246 0.0 -4.0557802877984725e-12 0.0 0.01 0.0 -4.0557802877984725e-12 0.0 0.010032208643928836 0.010115257351555152 0.0 -1.1833001266811965e-10 0.0 0.01 0.0 -1.183300126681213e-10 0.0 0.010030734866361397 0.010115379170579773 0.0 -4.678985273396927e-10 0.0 0.01 0.0 -4.678985273396927e-10 0.0 0.010029139574156685 0.010114561556390487 0.0 -1.2035806478707262e-09 0.0 0.01 0.0 -1.2035806478707526e-09 0.0 0.010027854248151646 0.010112826962667904 0.0 -2.2082968628025607e-09 0.0 0.01 0.0 -2.2082968628026136e-09 0.0 0.010026887856048444 0.010110430621392026 0.0 -3.0047917189030433e-09 0.0 0.01 0.0 -3.004791718903096e-09 0.0 0.010025331276978343 0.01010771625481409 0.0 -2.4733723206524727e-09 0.0 0.01 0.0 -2.4733723206524198e-09 0.0 0.010024329703009812 0.01010501918964604 0.0 1.663211539899043e-09 0.0 0.01 0.0 1.6632115398990165e-09 0.0 0.010025966993664563 0.010102205460228764 0.0 -5.3811346748536294e-12 0.0 0.01 0.0 -5.381134674853423e-12 0.0 0.010031593443636262 0.01010376486325961 0.0 -1.3357886994424968e-10 0.0 0.01 0.0 -1.3357886994424637e-10 0.0 0.010030124326567542 0.01010479497875722 0.0 -6.838965213091154e-10 0.0 0.01 0.0 -6.838965213091154e-10 0.0 0.010028532300922202 0.010105015165481268 0.0 -2.006001385610904e-09 0.0 0.01 0.0 -2.006001385610957e-09 0.0 0.010027238840336215 0.010104377860339572 0.0 -3.907916654806335e-09 0.0 0.01 0.0 -3.9079166548064405e-09 0.0 0.010026233721317519 0.010103044779354113 0.0 -5.669079340558667e-09 0.0 0.01 0.0 -5.669079340558667e-09 0.0 0.010024563358287452 0.010101309558111508 0.0 -6.0884574931182146e-09 0.0 0.01 0.0 -6.088457493118109e-09 0.0 0.010023443029428383 0.010099452488002583 0.0 -2.3917469759261536e-09 0.0 0.01 0.0 -2.3917469759262595e-09 0.0 0.010024750284192448 0.010085598350783426 0.0 5.543204290378163e-12 0.0 0.01 0.0 5.543204290378163e-12 0.0 0.010030704790881582 0.010087824213113874 0.0 -1.0058875955963946e-10 0.0 0.01 0.0 -1.0058875955964277e-10 0.0 0.01002923808174169 0.010089763672672333 0.0 -8.338181801908484e-10 0.0 0.01 0.0 -8.338181801908484e-10 0.0 0.010027636596507258 0.010091128135939346 0.0 -2.7814867791288235e-09 0.0 0.01 0.0 -2.7814867791287706e-09 0.0 0.010026279026314072 0.010091772958040089 0.0 -5.702103137338779e-09 0.0 0.01 0.0 -5.702103137338779e-09 0.0 0.010025193538351086 0.010091732309382038 0.0 -8.554148676945468e-09 0.0 0.01 0.0 -8.554148676945257e-09 0.0 0.01002362153370976 0.010091184859308057 0.0 -1.0298967924139512e-08 0.0 0.01 0.0 -1.02989679241393e-08 0.0 0.010022632755041167 0.0100903635430003 0.0 -7.699612384069532e-09 0.0 0.01 0.0 -7.699612384069744e-09 0.0 0.010023564985340846 0.010065769194647665 0.0 -4.7890505940925394e-12 0.0 0.01 0.0 -4.7890505940925394e-12 0.0 0.010029577508754908 0.010068499707788054 0.0 -2.4660203111001734e-11 0.0 0.01 0.0 -2.4660203111000907e-11 0.0 0.010028131463190515 0.010071274377983833 0.0 -7.629873232557487e-10 0.0 0.01 0.0 -7.629873232557752e-10 0.0 0.010026529499952842 0.010073832663341734 0.0 -3.0369627900309622e-09 0.0 0.01 0.0 -3.036962790031174e-09 0.0 0.010025055755017154 0.010075910903381021 0.0 -6.718896828551127e-09 0.0 0.01 0.0 -6.718896828551339e-09 0.0 0.010023881678592464 0.010077369174526762 0.0 -1.064840561514041e-08 0.0 0.01 0.0 -1.064840561514041e-08 0.0 0.010022504943566336 0.010078222279083336 0.0 -1.368218985140242e-08 0.0 0.01 0.0 -1.368218985140242e-08 0.0 0.010021945077198887 0.010078623164617585 0.0 -1.1766491877948944e-08 0.0 0.01 0.0 -1.1766491877949367e-08 0.0 0.010022513299744023 0.01004541050483283 0.0 -7.926562926538095e-11 0.0 0.01 0.0 -7.926562926537433e-11 0.0 0.010028270785285329 0.010048437063234281 0.0 1.9144107520518985e-11 0.0 0.01 0.0 1.9144107520518985e-11 0.0 0.010026866686265403 0.010051869036560773 0.0 -5.044400568932678e-10 0.0 0.01 0.0 -5.044400568932678e-10 0.0 0.01002529439833796 0.010055491705410476 0.0 -2.6127480575706695e-09 0.0 0.01 0.0 -2.6127480575706695e-09 0.0 0.010023767063283427 0.010058982618492848 0.0 -6.356509059834991e-09 0.0 0.01 0.0 -6.356509059834991e-09 0.0 0.010022350106426976 0.01006200210887035 0.0 -1.1105413884144672e-08 0.0 0.01 0.0 -1.1105413884144672e-08 0.0 0.010021360747839334 0.010064373142742455 0.0 -1.544804063747327e-08 0.0 0.01 0.0 -1.544804063747327e-08 0.0 0.0100212427972896 0.01006611928015914 0.0 -1.2982741644701861e-08 0.0 0.01 0.0 -1.2982741644701861e-08 0.0 0.010021496365953023 0.010027260012475229 0.0 -1.974900525740801e-10 0.0 0.01 0.0 -1.9749005257323307e-10 0.0 0.010026840577051877 0.010030380588330497 0.0 -2.492774902667099e-11 0.0 0.01 0.0 -2.4927749026677606e-11 0.0 0.010025487713433855 0.010034233591847682 0.0 -2.3677522442657587e-10 0.0 0.01 0.0 -2.3677522442657587e-10 0.0 0.01002396034039678 0.010038664996789267 0.0 -2.0247155698010936e-09 0.0 0.01 0.0 -2.0247155698013054e-09 0.0 0.010022539828197995 0.010043326814020571 0.0 -7.0535781646655965e-09 0.0 0.01 0.0 -7.0535781646655965e-09 0.0 0.010021026582144064 0.010047768304650588 0.0 -1.5070306072156765e-08 0.0 0.01 0.0 -1.5070306072156765e-08 0.0 0.010020071015577925 0.01005160274599533 0.0 -2.163947223071734e-08 0.0 0.01 0.0 -2.163947223071734e-08 0.0 0.010020379026940246 0.010054675159280475 0.0 -1.0999258426283771e-08 0.0 0.01 0.0 -1.0999258426283771e-08 0.0 0.010020337272913158 0.010012995990537366 0.0 -2.6117167744659134e-10 0.0 0.01 0.0 -2.6117167744659134e-10 0.0 0.0100253051797559 0.010016067441607998 0.0 -9.441786864470633e-11 0.0 0.01 0.0 -9.441786864470633e-11 0.0 0.010023994786996919 0.01002009948641057 0.0 -2.2742101180367992e-10 0.0 0.01 0.0 -2.2742101180389168e-10 0.0 0.010022526589103424 0.010025012985407145 0.0 -4.370146585926815e-09 0.0 0.01 0.0 -4.370146585928509e-09 0.0 0.010021243300450173 0.010030474692179197 0.0 -1.6906779678997624e-08 0.0 0.01 0.0 -1.6906779678990848e-08 0.0 0.010019943302088639 0.010035996635153392 0.0 -3.396775443256759e-08 0.0 0.01 0.0 -3.396775443256759e-08 0.0 0.010018629580349334 0.010041019061511156 0.0 -4.507051057501654e-08 0.0 0.01 0.0 -4.507051057501654e-08 0.0 0.01001910194387258 0.010045182332095793 0.0 -6.605952966539619e-09 0.0 0.01 0.0 -6.605952966539619e-09 0.0 0.010018917797377406 0.010002985236213425 0.0 -1.7976701117790417e-10 0.0 0.01 0.0 -1.7976701117790417e-10 0.0 0.010023667760056143 0.010005921255040138 0.0 2.8115545538601625e-10 0.0 0.01 0.0 2.811554553859898e-10 0.0 0.01002238992243538 0.010009919991435088 0.0 1.077449626114808e-09 0.0 0.01 0.0 1.0774496261145962e-09 0.0 0.010020997097054396 0.01001494162122422 0.0 -7.35776806256295e-09 0.0 0.01 0.0 -7.3577680625612555e-09 0.0 0.010019829324773157 0.010020755842554087 0.0 -3.4357536900551195e-08 0.0 0.01 0.0 -3.435753690052409e-08 0.0 0.010018794050167852 0.01002692182942389 0.0 -6.514647137434296e-08 0.0 0.01 0.0 -6.514647137435652e-08 0.0 0.010017210830793492 0.010032706158069747 0.0 -8.270598828050108e-08 0.0 0.01 0.0 -8.270598828049431e-08 0.0 0.010017405186870582 0.010037529568033162 0.0 7.661819326144568e-09 0.0 0.01 0.0 7.661819326144145e-09 0.0 0.010017169618364125 0.009996638695515045 0.0 1.8316765156308058e-10 0.0 0.01 0.0 1.8316765156308058e-10 0.0 0.010021927361093589 0.009999396554629076 0.0 4.274036033015174e-09 0.0 0.01 0.0 4.274036033015598e-09 0.0 0.010020700348722388 0.010003138677103587 0.0 1.3600479963448209e-08 0.0 0.01 0.0 1.3600479963449903e-08 0.0 0.010019443259427897 0.010007894588856881 0.0 7.1939577460061705e-09 0.0 0.01 0.0 7.1939577460070176e-09 0.0 0.010018437114026477 0.010013582322061077 0.0 -3.361017673061213e-08 0.0 0.01 0.0 -3.3610176730639236e-08 0.0 0.010017580904958549 0.010019917247799064 0.0 -7.838260946565708e-08 0.0 0.01 0.0 -7.838260946568419e-08 0.0 0.010015957566395877 0.010026116607754435 0.0 -9.300120582267379e-08 0.0 0.01 0.0 -9.300120582267379e-08 0.0 0.010015363936474932 0.010031183810565092 0.0 3.531331941096264e-08 0.0 0.01 0.0 3.5313319410966025e-08 0.0 0.010015134388442936 0.009992988880269608 0.0 2.365006146534983e-09 0.0 0.01 0.0 2.365006146534877e-09 0.0 0.01002011030138013 0.009995513521142942 0.0 2.0332074089690337e-08 0.0 0.01 0.0 2.0332074089690337e-08 0.0 0.010018989503620465 0.00999878722114194 0.0 5.6707989124250304e-08 0.0 0.01 0.0 5.6707989124250304e-08 0.0 0.010017941218334908 0.010002921680730982 0.0 7.299783452370984e-08 0.0 0.01 0.0 7.299783452370306e-08 0.0 0.010017178916895299 0.010008023295843474 0.0 3.3877590640997294e-08 0.0 0.01 0.0 3.3877590640997294e-08 0.0 0.01001648351673047 0.0100140736043293 0.0 -1.4349663438100119e-08 0.0 0.01 0.0 -1.4349663438073014e-08 0.0 0.010014951415030905 0.010020703266769555 0.0 3.6780765933382674e-09 0.0 0.01 0.0 3.6780765933391144e-09 0.0 0.01001347102145577 0.010026259321878239 0.0 1.615155515013455e-08 0.0 0.01 0.0 1.6151555150137938e-08 0.0 0.010012835219244353 0.009991118845280549 0.0 1.1136533248240001e-08 0.0 0.01 0.0 1.1136533248241695e-08 0.0 0.010018276030200082 0.009993330678500896 0.0 6.249584763107566e-08 0.0 0.01 0.0 6.249584763107566e-08 0.0 0.010017353166154245 0.009995943473226677 0.0 1.545658492367824e-07 0.0 0.01 0.0 1.545658492367824e-07 0.0 0.01001660426745753 0.009999183107700572 0.0 2.2520234190339695e-07 0.0 0.01 0.0 2.2520234190339695e-07 0.0 0.010016154769913816 0.010003358648351097 0.0 2.1682125737285682e-07 0.0 0.01 0.0 2.1682125737285682e-07 0.0 0.010015671067552669 0.010008857961411103 0.0 1.9661877882380316e-07 0.0 0.01 0.0 1.9661877882380316e-07 0.0 0.010014237403702764 0.010015877088932966 0.0 2.0923183637034347e-07 0.0 0.01 0.0 2.092318363704519e-07 0.0 0.010012593104594266 0.010023626427553497 0.0 -2.504212458611158e-07 0.0 0.01 0.0 -2.504212458611158e-07 0.0 0.010010839859292695 0.009990391366871723 0.0 3.943081047120247e-08 0.0 0.01 0.0 3.943081047120417e-08 0.0 0.010016536528494746 0.009992164721825502 0.0 1.5183646289119925e-07 0.0 0.01 0.0 1.5183646289117214e-07 0.0 0.010015887887139814 0.009993977461296561 0.0 3.295043355268216e-07 0.0 0.01 0.0 3.295043355268216e-07 0.0 0.010015485110409011 0.009996189214439488 0.0 4.834275964362474e-07 0.0 0.01 0.0 4.834275964363016e-07 0.0 0.010015381651565632 0.009999298615424123 0.0 5.272650556650826e-07 0.0 0.01 0.0 5.272650556650826e-07 0.0 0.010014933325692199 0.010004165243247194 0.0 5.31832882574336e-07 0.0 0.01 0.0 5.31832882574336e-07 0.0 0.010013439687562563 0.010011664953413282 0.0 4.0461182533937934e-07 0.0 0.01 0.0 4.0461182533937934e-07 0.0 0.010011896218823134 0.010021046371331332 0.0 -8.779602237991672e-07 0.0 0.01 0.0 -8.779602237992757e-07 0.0 0.010009527864758824 0.009990390371349389 0.0 1.1059150122421198e-07 0.0 0.01 0.0 1.1059150122421198e-07 0.0 0.010015005408726728 0.009991597117946132 0.0 3.141027887614001e-07 0.0 0.01 0.0 3.141027887614001e-07 0.0 0.010014667471973862 0.009992568844943869 0.0 5.96752918186191e-07 0.0 0.01 0.0 5.96752918186191e-07 0.0 0.010014596901603192 0.009993809857731325 0.0 8.379984740611952e-07 0.0 0.01 0.0 8.379984740610868e-07 0.0 0.01001465038731537 0.009996014010036731 0.0 9.152479982005215e-07 0.0 0.01 0.0 9.152479982005215e-07 0.0 0.010013941325236314 0.010000382931218924 0.0 8.540702612135163e-07 0.0 0.01 0.0 8.540702612134079e-07 0.0 0.01001233343864318 0.010008388007069222 0.0 3.1745779343543383e-07 0.0 0.01 0.0 3.1745779343543383e-07 0.0 0.010011107343648892 0.00999078127388974 0.0 2.640633551654703e-07 0.0 0.01 0.0 2.6406335516548386e-07 0.0 0.010013779891001303 0.009991342306992444 0.0 5.809636598189593e-07 0.0 0.01 0.0 5.809636598189593e-07 0.0 0.01001371180105285 0.00999158028471382 0.0 9.625192947293102e-07 0.0 0.01 0.0 9.62519294729256e-07 0.0 0.010013829574371276 0.009992151483797361 0.0 1.249470301169361e-06 0.0 0.01 0.0 1.249470301169361e-06 0.0 0.01001375611620177 0.009993923785803244 0.0 1.2734980668557567e-06 0.0 0.01 0.0 1.2734980668559735e-06 0.0 0.01001257813433456 0.009998383537321338 0.0 9.847194316774154e-07 0.0 0.01 0.0 9.847194316771985e-07 0.0 0.010011327964428787 0.010006342492766739 0.0 -3.0359536504621747e-07 0.0 0.01 0.0 -3.0359536504621747e-07 0.0 0.010010243281029117 0.0099912310924856 0.0 5.470916327612678e-07 0.0 0.01 0.0 5.470916327613221e-07 0.0 0.010012867588477522 0.009991188802082432 0.0 9.754160833231338e-07 0.0 0.01 0.0 9.754160833230796e-07 0.0 0.01001296576552867 0.009991012928694035 0.0 1.4114951566192562e-06 0.0 0.01 0.0 1.4114951566191478e-06 0.0 0.010013101199477143 0.009991478310204048 0.0 1.6425525478290471e-06 0.0 0.01 0.0 1.6425525478291556e-06 0.0 0.010012658699689323 0.009993555051572869 0.0 1.450391369821379e-06 0.0 0.01 0.0 1.450391369821379e-06 0.0 0.010011355577990788 0.009998746294412442 0.0 6.254121223480498e-07 0.0 0.01 0.0 6.254121223480498e-07 0.0 0.010010787488927026 0.009991460098492232 0.0 9.880596066003068e-07 0.0 0.01 0.0 9.880596066003068e-07 0.0 0.010012198229404636 0.009991098230021036 0.0 1.4819603101813182e-06 0.0 0.01 0.0 1.4819603101813182e-06 0.0 0.010012355238864581 0.009991153277209786 0.0 1.8677932510891785e-06 0.0 0.01 0.0 1.86779325108907e-06 0.0 0.010012363261993399 0.009992228083008719 0.0 1.8491984185224457e-06 0.0 0.01 0.0 1.8491984185223373e-06 0.0 0.010011519385798272 0.009995520725071136 0.0 1.193713682439996e-06 0.0 0.01 0.0 1.193713682439996e-06 0.0 0.010010924840025763 0.010000632907509603 0.0 -5.627449361496166e-07 0.0 0.01 0.0 -5.627449361496166e-07 0.0 0.010010337354437437 0.009991487743348473 0.0 1.5534153759808478e-06 0.0 0.01 0.0 1.5534153759808478e-06 0.0 0.010011703976690196 0.009991586736003834 0.0 2.0103595934035457e-06 0.0 0.01 0.0 2.0103595934035457e-06 0.0 0.01001192916683862 0.009992711654633071 0.0 2.1270184843243025e-06 0.0 0.01 0.0 2.1270184843243025e-06 0.0 0.01001177484159443 0.009995033565105638 0.0 1.555396141491661e-06 0.0 0.01 0.0 1.555396141491661e-06 0.0 0.010011096905963152 0.009999107619485435 0.0 1.148871201365284e-08 0.0 0.01 0.0 1.1488712013651146e-08 0.0 0.010011091174894168 0.009992233234712952 0.0 2.1237905668694892e-06 0.0 0.01 0.0 2.1237905668692724e-06 0.0 0.010011513679439329 0.00999369426287304 0.0 2.299870369315126e-06 0.0 0.01 0.0 2.2998703693149092e-06 0.0 0.01001172011361083 0.009996541267823214 0.0 1.7755292029940101e-06 0.0 0.01 0.0 1.7755292029940101e-06 0.0 0.010011758980184445 0.009999343572281423 0.0 2.2585206945150023e-07 0.0 0.01 0.0 2.2585206945147313e-07 0.0 0.010011336656497588 0.009994940147762798 0.0 2.316606377445688e-06 0.0 0.01 0.0 2.316606377445905e-06 0.0 0.010011484406570334 0.00999767029967985 0.0 1.7995560147390528e-06 0.0 0.01 0.0 1.7995560147392696e-06 0.0 0.010011757989475338 0.010001038720556766 0.0 2.415866904111508e-07 0.0 0.01 0.0 2.415866904111237e-07 0.0 0.010012079008899675 0.010000201296407996 0.0 -1.985244127967979e-06 0.0 0.01 0.0 -1.985244127967979e-06 0.0 0.01001038293798214 0.009998466661979032 0.0 1.4366050728226339e-06 0.0 0.01 0.0 1.4366050728228507e-06 0.0 0.01001124434561446 0.010000303713860568 0.0 1.287160439508436e-08 0.0 0.01 0.0 1.287160439508436e-08 0.0 0.010011479687294588 0.009998672307059702 0.0 -5.331803373193403e-07 0.0 0.01 0.0 -5.331803373193403e-07 0.0 0.010010508282955176 
