# vtk DataFile Version 3.0
Test VTK file for Force data
ASCII
DATASET POLYDATA
POINTS 2975 float
 -2.2000000E-01   9.9999998E-03  -3.8000000E-01
 -2.2000000E-01   9.9999998E-03  -3.6000001E-01
 -2.0000000E-01   9.9999998E-03  -4.0000001E-01
 -2.0000000E-01   9.9999998E-03  -3.8000000E-01
 -2.0000000E-01   9.9999998E-03  -3.6000001E-01
 -1.8000001E-01   9.9999998E-03  -4.0000001E-01
 -1.8000001E-01   9.9999998E-03  -3.8000000E-01
 -1.8000001E-01   9.9999998E-03  -3.6000001E-01
 -1.6000000E-01   9.9999998E-03  -4.0000001E-01
 -1.6000000E-01   9.9999998E-03  -3.8000000E-01
 -1.6000000E-01   9.9999998E-03  -3.6000001E-01
 -1.4000000E-01   9.9999998E-03  -4.0000001E-01
 -1.4000000E-01   9.9999998E-03  -3.8000000E-01
 -1.4000000E-01   9.9999998E-03  -3.6000001E-01
 -1.2000000E-01   9.9999998E-03  -4.0000001E-01
 -1.2000000E-01   9.9999998E-03  -3.8000000E-01
 -1.2000000E-01   9.9999998E-03  -3.6000001E-01
 -1.0000000E-01   9.9999998E-03  -4.0000001E-01
 -1.0000000E-01   9.9999998E-03  -3.8000000E-01
 -1.0000000E-01   9.9999998E-03  -3.6000001E-01
 -7.9999998E-02   9.9999998E-03  -4.0000001E-01
 -7.9999998E-02   9.9999998E-03  -3.8000000E-01
 -7.9999998E-02   9.9999998E-03  -3.6000001E-01
 -5.9999999E-02   9.9999998E-03  -4.0000001E-01
 -5.9999999E-02   9.9999998E-03  -3.8000000E-01
 -5.9999999E-02   9.9999998E-03  -3.6000001E-01
 -3.9999999E-02   9.9999998E-03  -4.0000001E-01
 -3.9999999E-02   9.9999998E-03  -3.8000000E-01
 -3.9999999E-02   9.9999998E-03  -3.6000001E-01
 -2.0000000E-02   9.9999998E-03  -4.0000001E-01
 -2.0000000E-02   9.9999998E-03  -3.8000000E-01
 -2.0000000E-02   9.9999998E-03  -3.6000001E-01
  0.0000000E+00   9.9999998E-03  -4.0000001E-01
  0.0000000E+00   9.9999998E-03  -3.8000000E-01
  0.0000000E+00   9.9999998E-03  -3.6000001E-01
  2.0000000E-02   9.9999998E-03  -4.0000001E-01
  2.0000000E-02   9.9999998E-03  -3.8000000E-01
  2.0000000E-02   9.9999998E-03  -3.6000001E-01
  3.9999999E-02   9.9999998E-03  -4.0000001E-01
  3.9999999E-02   9.9999998E-03  -3.8000000E-01
  3.9999999E-02   9.9999998E-03  -3.6000001E-01
  5.9999999E-02   9.9999998E-03  -4.0000001E-01
  5.9999999E-02   9.9999998E-03  -3.8000000E-01
  5.9999999E-02   9.9999998E-03  -3.6000001E-01
  7.9999998E-02   9.9999998E-03  -4.0000001E-01
  7.9999998E-02   9.9999998E-03  -3.8000000E-01
  7.9999998E-02   9.9999998E-03  -3.6000001E-01
  1.0000000E-01   9.9999998E-03  -4.0000001E-01
  1.0000000E-01   9.9999998E-03  -3.8000000E-01
  1.0000000E-01   9.9999998E-03  -3.6000001E-01
  1.2000000E-01   9.9999998E-03  -4.0000001E-01
  1.2000000E-01   9.9999998E-03  -3.8000000E-01
  1.2000000E-01   9.9999998E-03  -3.6000001E-01
  1.4000000E-01   9.9999998E-03  -4.0000001E-01
  1.4000000E-01   9.9999998E-03  -3.8000000E-01
  1.4000000E-01   9.9999998E-03  -3.6000001E-01
  1.6000000E-01   9.9999998E-03  -4.0000001E-01
  1.6000000E-01   9.9999998E-03  -3.8000000E-01
  1.6000000E-01   9.9999998E-03  -3.6000001E-01
  1.8000001E-01   9.9999998E-03  -4.0000001E-01
  1.8000001E-01   9.9999998E-03  -3.8000000E-01
  1.8000001E-01   9.9999998E-03  -3.6000001E-01
  2.0000000E-01   9.9999998E-03  -3.8000000E-01
  2.0000000E-01   9.9999998E-03  -3.6000001E-01
 -2.2000000E-01   9.9999998E-03  -3.4000000E-01
 -2.2000000E-01   9.9999998E-03  -3.1999999E-01
 -2.2000000E-01   9.9999998E-03  -3.0000001E-01
 -2.2000000E-01   9.9999998E-03  -2.8000000E-01
 -2.2000000E-01   9.9999998E-03  -2.5999999E-01
 -2.2000000E-01   9.9999998E-03  -2.3999999E-01
 -2.2000000E-01   9.9999998E-03  -2.2000000E-01
 -2.2000000E-01   9.9999998E-03  -2.0000000E-01
 -2.0000000E-01   9.9999998E-03  -3.4000000E-01
 -2.0000000E-01   9.9999998E-03  -3.1999999E-01
 -2.0000000E-01   9.9999998E-03  -3.0000001E-01
 -2.0000000E-01   9.9999998E-03  -2.8000000E-01
 -2.0000000E-01   9.9999998E-03  -2.5999999E-01
 -2.0000000E-01   9.9999998E-03  -2.3999999E-01
 -2.0000000E-01   9.9999998E-03  -2.2000000E-01
 -2.0000000E-01   9.9999998E-03  -2.0000000E-01
 -1.8000001E-01   9.9999998E-03  -3.4000000E-01
 -1.8000001E-01   9.9999998E-03  -3.1999999E-01
 -1.8000001E-01   9.9999998E-03  -3.0000001E-01
 -1.8000001E-01   9.9999998E-03  -2.8000000E-01
 -1.8000001E-01   9.9999998E-03  -2.5999999E-01
 -1.8000001E-01   9.9999998E-03  -2.3999999E-01
 -1.8000001E-01   9.9999998E-03  -2.2000000E-01
 -1.8000001E-01   9.9999998E-03  -2.0000000E-01
 -1.6000000E-01   9.9999998E-03  -3.4000000E-01
 -1.6000000E-01   9.9999998E-03  -3.1999999E-01
 -1.6000000E-01   9.9999998E-03  -3.0000001E-01
 -1.6000000E-01   9.9999998E-03  -2.8000000E-01
 -1.6000000E-01   9.9999998E-03  -2.5999999E-01
 -1.6000000E-01   9.9999998E-03  -2.3999999E-01
 -1.6000000E-01   9.9999998E-03  -2.2000000E-01
 -1.6000000E-01   9.9999998E-03  -2.0000000E-01
 -1.4000000E-01   9.9999998E-03  -3.4000000E-01
 -1.4000000E-01   9.9999998E-03  -3.1999999E-01
 -1.4000000E-01   9.9999998E-03  -3.0000001E-01
 -1.4000000E-01   9.9999998E-03  -2.8000000E-01
 -1.4000000E-01   9.9999998E-03  -2.5999999E-01
 -1.4000000E-01   9.9999998E-03  -2.3999999E-01
 -1.4000000E-01   9.9999998E-03  -2.2000000E-01
 -1.4000000E-01   9.9999998E-03  -2.0000000E-01
 -1.2000000E-01   9.9999998E-03  -3.4000000E-01
 -1.2000000E-01   9.9999998E-03  -3.1999999E-01
 -1.2000000E-01   9.9999998E-03  -3.0000001E-01
 -1.2000000E-01   9.9999998E-03  -2.8000000E-01
 -1.2000000E-01   9.9999998E-03  -2.5999999E-01
 -1.2000000E-01   9.9999998E-03  -2.3999999E-01
 -1.2000000E-01   9.9999998E-03  -2.2000000E-01
 -1.2000000E-01   9.9999998E-03  -2.0000000E-01
 -1.0000000E-01   9.9999998E-03  -3.4000000E-01
 -1.0000000E-01   9.9999998E-03  -3.1999999E-01
 -1.0000000E-01   9.9999998E-03  -3.0000001E-01
 -1.0000000E-01   9.9999998E-03  -2.8000000E-01
 -1.0000000E-01   9.9999998E-03  -2.5999999E-01
 -1.0000000E-01   9.9999998E-03  -2.3999999E-01
 -1.0000000E-01   9.9999998E-03  -2.2000000E-01
 -1.0000000E-01   9.9999998E-03  -2.0000000E-01
 -7.9999998E-02   9.9999998E-03  -3.4000000E-01
 -7.9999998E-02   9.9999998E-03  -3.1999999E-01
 -7.9999998E-02   9.9999998E-03  -3.0000001E-01
 -7.9999998E-02   9.9999998E-03  -2.8000000E-01
 -7.9999998E-02   9.9999998E-03  -2.5999999E-01
 -7.9999998E-02   9.9999998E-03  -2.3999999E-01
 -7.9999998E-02   9.9999998E-03  -2.2000000E-01
 -7.9999998E-02   9.9999998E-03  -2.0000000E-01
 -5.9999999E-02   9.9999998E-03  -3.4000000E-01
 -5.9999999E-02   9.9999998E-03  -3.1999999E-01
 -5.9999999E-02   9.9999998E-03  -3.0000001E-01
 -5.9999999E-02   9.9999998E-03  -2.8000000E-01
 -5.9999999E-02   9.9999998E-03  -2.5999999E-01
 -5.9999999E-02   9.9999998E-03  -2.3999999E-01
 -5.9999999E-02   9.9999998E-03  -2.2000000E-01
 -5.9999999E-02   9.9999998E-03  -2.0000000E-01
 -3.9999999E-02   9.9999998E-03  -3.4000000E-01
 -3.9999999E-02   9.9999998E-03  -3.1999999E-01
 -3.9999999E-02   9.9999998E-03  -3.0000001E-01
 -3.9999999E-02   9.9999998E-03  -2.8000000E-01
 -3.9999999E-02   9.9999998E-03  -2.5999999E-01
 -3.9999999E-02   9.9999998E-03  -2.3999999E-01
 -3.9999999E-02   9.9999998E-03  -2.2000000E-01
 -3.9999999E-02   9.9999998E-03  -2.0000000E-01
 -2.0000000E-02   9.9999998E-03  -3.4000000E-01
 -2.0000000E-02   9.9999998E-03  -3.1999999E-01
 -2.0000000E-02   9.9999998E-03  -3.0000001E-01
 -2.0000000E-02   9.9999998E-03  -2.8000000E-01
 -2.0000000E-02   9.9999998E-03  -2.5999999E-01
 -2.0000000E-02   9.9999998E-03  -2.3999999E-01
 -2.0000000E-02   9.9999998E-03  -2.2000000E-01
 -2.0000000E-02   9.9999998E-03  -2.0000000E-01
  0.0000000E+00   9.9999998E-03  -3.4000000E-01
  0.0000000E+00   9.9999998E-03  -3.1999999E-01
  0.0000000E+00   9.9999998E-03  -3.0000001E-01
  2.0000000E-02   9.9999998E-03  -3.4000000E-01
  2.0000000E-02   9.9999998E-03  -3.1999999E-01
  3.9999999E-02   9.9999998E-03  -3.4000000E-01
  3.9999999E-02   9.9999998E-03  -3.1999999E-01
  5.9999999E-02   9.9999998E-03  -3.4000000E-01
  5.9999999E-02   9.9999998E-03  -3.1999999E-01
  7.9999998E-02   9.9999998E-03  -3.4000000E-01
  7.9999998E-02   9.9999998E-03  -3.1999999E-01
  1.0000000E-01   9.9999998E-03  -3.4000000E-01
  1.0000000E-01   9.9999998E-03  -3.1999999E-01
  1.2000000E-01   9.9999998E-03  -3.4000000E-01
  1.2000000E-01   9.9999998E-03  -3.1999999E-01
  1.4000000E-01   9.9999998E-03  -3.4000000E-01
  1.4000000E-01   9.9999998E-03  -3.1999999E-01
  1.6000000E-01   9.9999998E-03  -3.4000000E-01
  1.6000000E-01   9.9999998E-03  -3.1999999E-01
  1.8000001E-01   9.9999998E-03  -3.4000000E-01
  1.8000001E-01   9.9999998E-03  -3.1999999E-01
  2.0000000E-01   9.9999998E-03  -3.4000000E-01
  2.0000000E-01   9.9999998E-03  -3.1999999E-01
 -2.2000000E-01   9.9999998E-03  -1.8000001E-01
 -2.2000000E-01   9.9999998E-03  -1.6000000E-01
 -2.2000000E-01   9.9999998E-03  -1.4000000E-01
 -2.2000000E-01   9.9999998E-03  -1.2000000E-01
 -2.2000000E-01   9.9999998E-03  -1.0000000E-01
 -2.2000000E-01   9.9999998E-03  -7.9999998E-02
 -2.2000000E-01   9.9999998E-03  -5.9999999E-02
 -2.2000000E-01   9.9999998E-03  -3.9999999E-02
 -2.2000000E-01   9.9999998E-03  -2.0000000E-02
 -2.0000000E-01   9.9999998E-03  -1.8000001E-01
 -2.0000000E-01   9.9999998E-03  -1.6000000E-01
 -2.0000000E-01   9.9999998E-03  -1.4000000E-01
 -2.0000000E-01   9.9999998E-03  -1.2000000E-01
 -2.0000000E-01   9.9999998E-03  -1.0000000E-01
 -2.0000000E-01   9.9999998E-03  -7.9999998E-02
 -2.0000000E-01   9.9999998E-03  -5.9999999E-02
 -2.0000000E-01   9.9999998E-03  -3.9999999E-02
 -2.0000000E-01   9.9999998E-03  -2.0000000E-02
 -1.8000001E-01   9.9999998E-03  -1.8000001E-01
 -1.8000001E-01   9.9999998E-03  -1.6000000E-01
 -1.8000001E-01   9.9999998E-03  -1.4000000E-01
 -1.8000001E-01   9.9999998E-03  -1.2000000E-01
 -1.8000001E-01   9.9999998E-03  -1.0000000E-01
 -1.8000001E-01   9.9999998E-03  -7.9999998E-02
 -1.8000001E-01   9.9999998E-03  -5.9999999E-02
 -1.8000001E-01   9.9999998E-03  -3.9999999E-02
 -1.8000001E-01   9.9999998E-03  -2.0000000E-02
 -1.6000000E-01   9.9999998E-03  -1.8000001E-01
 -1.6000000E-01   9.9999998E-03  -1.6000000E-01
 -1.6000000E-01   9.9999998E-03  -1.4000000E-01
 -1.6000000E-01   9.9999998E-03  -1.2000000E-01
 -1.6000000E-01   9.9999998E-03  -1.0000000E-01
 -1.6000000E-01   9.9999998E-03  -7.9999998E-02
 -1.6000000E-01   9.9999998E-03  -5.9999999E-02
 -1.6000000E-01   9.9999998E-03  -3.9999999E-02
 -1.6000000E-01   9.9999998E-03  -2.0000000E-02
 -1.4000000E-01   9.9999998E-03  -1.8000001E-01
 -1.4000000E-01   9.9999998E-03  -1.6000000E-01
 -1.4000000E-01   9.9999998E-03  -1.4000000E-01
 -1.4000000E-01   9.9999998E-03  -1.2000000E-01
 -1.4000000E-01   9.9999998E-03  -1.0000000E-01
 -1.4000000E-01   9.9999998E-03  -7.9999998E-02
 -1.4000000E-01   9.9999998E-03  -5.9999999E-02
 -1.4000000E-01   9.9999998E-03  -3.9999999E-02
 -1.4000000E-01   9.9999998E-03  -2.0000000E-02
 -1.2000000E-01   9.9999998E-03  -1.8000001E-01
 -1.2000000E-01   9.9999998E-03  -1.6000000E-01
 -1.2000000E-01   9.9999998E-03  -1.4000000E-01
 -1.2000000E-01   9.9999998E-03  -1.2000000E-01
 -1.2000000E-01   9.9999998E-03  -1.0000000E-01
 -1.2000000E-01   9.9999998E-03  -7.9999998E-02
 -1.2000000E-01   9.9999998E-03  -5.9999999E-02
 -1.2000000E-01   9.9999998E-03  -3.9999999E-02
 -1.2000000E-01   9.9999998E-03  -2.0000000E-02
 -1.0000000E-01   9.9999998E-03  -1.8000001E-01
 -1.0000000E-01   9.9999998E-03  -1.6000000E-01
 -1.0000000E-01   9.9999998E-03  -1.4000000E-01
 -1.0000000E-01   9.9999998E-03  -1.2000000E-01
 -1.0000000E-01   9.9999998E-03  -1.0000000E-01
 -1.0000000E-01   9.9999998E-03  -7.9999998E-02
 -1.0000000E-01   9.9999998E-03  -5.9999999E-02
 -1.0000000E-01   9.9999998E-03  -3.9999999E-02
 -1.0000000E-01   9.9999998E-03  -2.0000000E-02
 -7.9999998E-02   9.9999998E-03  -1.8000001E-01
 -7.9999998E-02   9.9999998E-03  -1.6000000E-01
 -7.9999998E-02   9.9999998E-03  -1.4000000E-01
 -7.9999998E-02   9.9999998E-03  -1.2000000E-01
 -7.9999998E-02   9.9999998E-03  -1.0000000E-01
 -7.9999998E-02   9.9999998E-03  -7.9999998E-02
 -7.9999998E-02   9.9999998E-03  -5.9999999E-02
 -7.9999998E-02   9.9999998E-03  -3.9999999E-02
 -7.9999998E-02   9.9999998E-03  -2.0000000E-02
 -5.9999999E-02   9.9999998E-03  -1.8000001E-01
 -5.9999999E-02   9.9999998E-03  -1.6000000E-01
 -5.9999999E-02   9.9999998E-03  -1.4000000E-01
 -5.9999999E-02   9.9999998E-03  -1.2000000E-01
 -5.9999999E-02   9.9999998E-03  -1.0000000E-01
 -5.9999999E-02   9.9999998E-03  -7.9999998E-02
 -5.9999999E-02   9.9999998E-03  -5.9999999E-02
 -5.9999999E-02   9.9999998E-03  -3.9999999E-02
 -5.9999999E-02   9.9999998E-03  -2.0000000E-02
 -3.9999999E-02   9.9999998E-03  -1.8000001E-01
 -3.9999999E-02   9.9999998E-03  -1.6000000E-01
 -3.9999999E-02   9.9999998E-03  -1.4000000E-01
 -3.9999999E-02   9.9999998E-03  -1.2000000E-01
 -3.9999999E-02   9.9999998E-03  -1.0000000E-01
 -3.9999999E-02   9.9999998E-03  -7.9999998E-02
 -3.9999999E-02   9.9999998E-03  -5.9999999E-02
 -3.9999999E-02   9.9999998E-03  -3.9999999E-02
 -3.9999999E-02   9.9999998E-03  -2.0000000E-02
 -2.0000000E-02   9.9999998E-03  -1.8000001E-01
 -2.0000000E-02   9.9999998E-03  -1.6000000E-01
 -2.0000000E-02   9.9999998E-03  -1.4000000E-01
 -2.0000000E-02   9.9999998E-03  -1.2000000E-01
 -2.0000000E-02   9.9999998E-03  -1.0000000E-01
 -2.0000000E-02   9.9999998E-03  -7.9999998E-02
 -2.0000000E-02   9.9999998E-03  -5.9999999E-02
 -2.0000000E-02   9.9999998E-03  -3.9999999E-02
 -2.0000000E-02   9.9999998E-03  -2.0000000E-02
 -2.2000000E-01   9.9999998E-03   0.0000000E+00
 -2.2000000E-01   9.9999998E-03   2.0000000E-02
 -2.2000000E-01   9.9999998E-03   3.9999999E-02
 -2.2000000E-01   9.9999998E-03   5.9999999E-02
 -2.2000000E-01   9.9999998E-03   7.9999998E-02
 -2.2000000E-01   9.9999998E-03   1.0000000E-01
 -2.2000000E-01   9.9999998E-03   1.2000000E-01
 -2.2000000E-01   9.9999998E-03   1.4000000E-01
 -2.0000000E-01   9.9999998E-03   0.0000000E+00
 -2.0000000E-01   9.9999998E-03   2.0000000E-02
 -2.0000000E-01   9.9999998E-03   3.9999999E-02
 -2.0000000E-01   9.9999998E-03   5.9999999E-02
 -2.0000000E-01   9.9999998E-03   7.9999998E-02
 -2.0000000E-01   9.9999998E-03   1.0000000E-01
 -2.0000000E-01   9.9999998E-03   1.2000000E-01
 -2.0000000E-01   9.9999998E-03   1.4000000E-01
 -1.8000001E-01   9.9999998E-03   0.0000000E+00
 -1.8000001E-01   9.9999998E-03   2.0000000E-02
 -1.8000001E-01   9.9999998E-03   3.9999999E-02
 -1.8000001E-01   9.9999998E-03   5.9999999E-02
 -1.8000001E-01   9.9999998E-03   7.9999998E-02
 -1.8000001E-01   9.9999998E-03   1.0000000E-01
 -1.8000001E-01   9.9999998E-03   1.2000000E-01
 -1.8000001E-01   9.9999998E-03   1.4000000E-01
 -1.6000000E-01   9.9999998E-03   0.0000000E+00
 -1.6000000E-01   9.9999998E-03   2.0000000E-02
 -1.6000000E-01   9.9999998E-03   3.9999999E-02
 -1.6000000E-01   9.9999998E-03   5.9999999E-02
 -1.6000000E-01   9.9999998E-03   7.9999998E-02
 -1.6000000E-01   9.9999998E-03   1.0000000E-01
 -1.6000000E-01   9.9999998E-03   1.2000000E-01
 -1.6000000E-01   9.9999998E-03   1.4000000E-01
 -1.4000000E-01   9.9999998E-03   0.0000000E+00
 -1.4000000E-01   9.9999998E-03   2.0000000E-02
 -1.4000000E-01   9.9999998E-03   3.9999999E-02
 -1.4000000E-01   9.9999998E-03   5.9999999E-02
 -1.4000000E-01   9.9999998E-03   7.9999998E-02
 -1.4000000E-01   9.9999998E-03   1.0000000E-01
 -1.4000000E-01   9.9999998E-03   1.2000000E-01
 -1.4000000E-01   9.9999998E-03   1.4000000E-01
 -1.2000000E-01   9.9999998E-03   0.0000000E+00
 -1.2000000E-01   9.9999998E-03   2.0000000E-02
 -1.2000000E-01   9.9999998E-03   3.9999999E-02
 -1.2000000E-01   9.9999998E-03   5.9999999E-02
 -1.2000000E-01   9.9999998E-03   7.9999998E-02
 -1.2000000E-01   9.9999998E-03   1.0000000E-01
 -1.2000000E-01   9.9999998E-03   1.2000000E-01
 -1.2000000E-01   9.9999998E-03   1.4000000E-01
 -1.0000000E-01   9.9999998E-03   0.0000000E+00
 -1.0000000E-01   9.9999998E-03   2.0000000E-02
 -1.0000000E-01   9.9999998E-03   3.9999999E-02
 -1.0000000E-01   9.9999998E-03   5.9999999E-02
 -1.0000000E-01   9.9999998E-03   7.9999998E-02
 -1.0000000E-01   9.9999998E-03   1.0000000E-01
 -1.0000000E-01   9.9999998E-03   1.2000000E-01
 -1.0000000E-01   9.9999998E-03   1.4000000E-01
 -7.9999998E-02   9.9999998E-03   0.0000000E+00
 -7.9999998E-02   9.9999998E-03   2.0000000E-02
 -7.9999998E-02   9.9999998E-03   3.9999999E-02
 -7.9999998E-02   9.9999998E-03   5.9999999E-02
 -7.9999998E-02   9.9999998E-03   7.9999998E-02
 -7.9999998E-02   9.9999998E-03   1.0000000E-01
 -7.9999998E-02   9.9999998E-03   1.2000000E-01
 -7.9999998E-02   9.9999998E-03   1.4000000E-01
 -5.9999999E-02   9.9999998E-03   0.0000000E+00
 -5.9999999E-02   9.9999998E-03   2.0000000E-02
 -5.9999999E-02   9.9999998E-03   3.9999999E-02
 -5.9999999E-02   9.9999998E-03   5.9999999E-02
 -5.9999999E-02   9.9999998E-03   7.9999998E-02
 -5.9999999E-02   9.9999998E-03   1.0000000E-01
 -5.9999999E-02   9.9999998E-03   1.2000000E-01
 -5.9999999E-02   9.9999998E-03   1.4000000E-01
 -3.9999999E-02   9.9999998E-03   0.0000000E+00
 -3.9999999E-02   9.9999998E-03   2.0000000E-02
 -3.9999999E-02   9.9999998E-03   3.9999999E-02
 -3.9999999E-02   9.9999998E-03   5.9999999E-02
 -3.9999999E-02   9.9999998E-03   7.9999998E-02
 -3.9999999E-02   9.9999998E-03   1.0000000E-01
 -3.9999999E-02   9.9999998E-03   1.2000000E-01
 -3.9999999E-02   9.9999998E-03   1.4000000E-01
 -2.0000000E-02   9.9999998E-03   0.0000000E+00
 -2.0000000E-02   9.9999998E-03   2.0000000E-02
 -2.0000000E-02   9.9999998E-03   3.9999999E-02
 -2.0000000E-02   9.9999998E-03   5.9999999E-02
 -2.0000000E-02   9.9999998E-03   7.9999998E-02
 -2.0000000E-02   9.9999998E-03   1.0000000E-01
 -2.0000000E-02   9.9999998E-03   1.2000000E-01
 -2.0000000E-02   9.9999998E-03   1.4000000E-01
 -2.2000000E-01   9.9999998E-03   1.6000000E-01
 -2.2000000E-01   9.9999998E-03   1.8000001E-01
 -2.2000000E-01   9.9999998E-03   2.0000000E-01
 -2.2000000E-01   9.9999998E-03   2.2000000E-01
 -2.2000000E-01   9.9999998E-03   2.3999999E-01
 -2.2000000E-01   9.9999998E-03   2.5999999E-01
 -2.2000000E-01   9.9999998E-03   2.8000000E-01
 -2.2000000E-01   9.9999998E-03   3.0000001E-01
 -2.2000000E-01   9.9999998E-03   3.1999999E-01
 -2.0000000E-01   9.9999998E-03   1.6000000E-01
 -2.0000000E-01   9.9999998E-03   1.8000001E-01
 -2.0000000E-01   9.9999998E-03   2.0000000E-01
 -2.0000000E-01   9.9999998E-03   2.2000000E-01
 -2.0000000E-01   9.9999998E-03   2.3999999E-01
 -2.0000000E-01   9.9999998E-03   2.5999999E-01
 -2.0000000E-01   9.9999998E-03   2.8000000E-01
 -2.0000000E-01   9.9999998E-03   3.0000001E-01
 -2.0000000E-01   9.9999998E-03   3.1999999E-01
 -1.8000001E-01   9.9999998E-03   1.6000000E-01
 -1.8000001E-01   9.9999998E-03   1.8000001E-01
 -1.8000001E-01   9.9999998E-03   2.0000000E-01
 -1.8000001E-01   9.9999998E-03   2.2000000E-01
 -1.8000001E-01   9.9999998E-03   2.3999999E-01
 -1.8000001E-01   9.9999998E-03   2.5999999E-01
 -1.8000001E-01   9.9999998E-03   2.8000000E-01
 -1.8000001E-01   9.9999998E-03   3.0000001E-01
 -1.8000001E-01   9.9999998E-03   3.1999999E-01
 -1.6000000E-01   9.9999998E-03   1.6000000E-01
 -1.6000000E-01   9.9999998E-03   1.8000001E-01
 -1.6000000E-01   9.9999998E-03   2.0000000E-01
 -1.6000000E-01   9.9999998E-03   2.2000000E-01
 -1.6000000E-01   9.9999998E-03   2.3999999E-01
 -1.6000000E-01   9.9999998E-03   2.5999999E-01
 -1.6000000E-01   9.9999998E-03   2.8000000E-01
 -1.6000000E-01   9.9999998E-03   3.0000001E-01
 -1.6000000E-01   9.9999998E-03   3.1999999E-01
 -1.4000000E-01   9.9999998E-03   1.6000000E-01
 -1.4000000E-01   9.9999998E-03   1.8000001E-01
 -1.4000000E-01   9.9999998E-03   2.0000000E-01
 -1.4000000E-01   9.9999998E-03   2.2000000E-01
 -1.4000000E-01   9.9999998E-03   2.3999999E-01
 -1.4000000E-01   9.9999998E-03   2.5999999E-01
 -1.4000000E-01   9.9999998E-03   2.8000000E-01
 -1.4000000E-01   9.9999998E-03   3.0000001E-01
 -1.4000000E-01   9.9999998E-03   3.1999999E-01
 -1.2000000E-01   9.9999998E-03   1.6000000E-01
 -1.2000000E-01   9.9999998E-03   1.8000001E-01
 -1.2000000E-01   9.9999998E-03   2.0000000E-01
 -1.2000000E-01   9.9999998E-03   2.2000000E-01
 -1.2000000E-01   9.9999998E-03   2.3999999E-01
 -1.2000000E-01   9.9999998E-03   2.5999999E-01
 -1.2000000E-01   9.9999998E-03   2.8000000E-01
 -1.2000000E-01   9.9999998E-03   3.0000001E-01
 -1.2000000E-01   9.9999998E-03   3.1999999E-01
 -1.0000000E-01   9.9999998E-03   1.6000000E-01
 -1.0000000E-01   9.9999998E-03   1.8000001E-01
 -1.0000000E-01   9.9999998E-03   2.0000000E-01
 -1.0000000E-01   9.9999998E-03   2.2000000E-01
 -1.0000000E-01   9.9999998E-03   2.3999999E-01
 -1.0000000E-01   9.9999998E-03   2.5999999E-01
 -1.0000000E-01   9.9999998E-03   2.8000000E-01
 -1.0000000E-01   9.9999998E-03   3.0000001E-01
 -1.0000000E-01   9.9999998E-03   3.1999999E-01
 -7.9999998E-02   9.9999998E-03   1.6000000E-01
 -7.9999998E-02   9.9999998E-03   1.8000001E-01
 -7.9999998E-02   9.9999998E-03   2.0000000E-01
 -7.9999998E-02   9.9999998E-03   2.2000000E-01
 -7.9999998E-02   9.9999998E-03   2.3999999E-01
 -7.9999998E-02   9.9999998E-03   2.5999999E-01
 -7.9999998E-02   9.9999998E-03   2.8000000E-01
 -7.9999998E-02   9.9999998E-03   3.0000001E-01
 -7.9999998E-02   9.9999998E-03   3.1999999E-01
 -5.9999999E-02   9.9999998E-03   1.6000000E-01
 -5.9999999E-02   9.9999998E-03   1.8000001E-01
 -5.9999999E-02   9.9999998E-03   2.0000000E-01
 -5.9999999E-02   9.9999998E-03   2.2000000E-01
 -5.9999999E-02   9.9999998E-03   2.3999999E-01
 -5.9999999E-02   9.9999998E-03   2.5999999E-01
 -5.9999999E-02   9.9999998E-03   2.8000000E-01
 -5.9999999E-02   9.9999998E-03   3.0000001E-01
 -5.9999999E-02   9.9999998E-03   3.1999999E-01
 -3.9999999E-02   9.9999998E-03   1.6000000E-01
 -3.9999999E-02   9.9999998E-03   1.8000001E-01
 -3.9999999E-02   9.9999998E-03   2.0000000E-01
 -3.9999999E-02   9.9999998E-03   2.2000000E-01
 -3.9999999E-02   9.9999998E-03   2.3999999E-01
 -3.9999999E-02   9.9999998E-03   2.5999999E-01
 -3.9999999E-02   9.9999998E-03   2.8000000E-01
 -3.9999999E-02   9.9999998E-03   3.0000001E-01
 -3.9999999E-02   9.9999998E-03   3.1999999E-01
 -2.0000000E-02   9.9999998E-03   1.6000000E-01
 -2.0000000E-02   9.9999998E-03   1.8000001E-01
 -2.0000000E-02   9.9999998E-03   2.0000000E-01
 -2.0000000E-02   9.9999998E-03   2.2000000E-01
 -2.0000000E-02   9.9999998E-03   2.3999999E-01
 -2.0000000E-02   9.9999998E-03   2.5999999E-01
 -2.0000000E-02   9.9999998E-03   2.8000000E-01
 -2.0000000E-02   9.9999998E-03   3.0000001E-01
 -2.0000000E-02   9.9999998E-03   3.1999999E-01
  0.0000000E+00   9.9999998E-03   3.0000001E-01
  0.0000000E+00   9.9999998E-03   3.1999999E-01
  2.0000000E-02   9.9999998E-03   3.1999999E-01
  3.9999999E-02   9.9999998E-03   3.1999999E-01
  5.9999999E-02   9.9999998E-03   3.1999999E-01
  7.9999998E-02   9.9999998E-03   3.1999999E-01
  1.0000000E-01   9.9999998E-03   3.1999999E-01
  1.2000000E-01   9.9999998E-03   3.1999999E-01
  1.4000000E-01   9.9999998E-03   3.1999999E-01
  1.6000000E-01   9.9999998E-03   3.1999999E-01
  1.8000001E-01   9.9999998E-03   3.1999999E-01
  2.0000000E-01   9.9999998E-03   3.1999999E-01
 -2.2000000E-01   9.9999998E-03   3.4000000E-01
 -2.2000000E-01   9.9999998E-03   3.6000001E-01
 -2.2000000E-01   9.9999998E-03   3.8000000E-01
 -2.0000000E-01   9.9999998E-03   3.4000000E-01
 -2.0000000E-01   9.9999998E-03   3.6000001E-01
 -2.0000000E-01   9.9999998E-03   3.8000000E-01
 -2.0000000E-01   9.9999998E-03   4.0000001E-01
 -1.8000001E-01   9.9999998E-03   3.4000000E-01
 -1.8000001E-01   9.9999998E-03   3.6000001E-01
 -1.8000001E-01   9.9999998E-03   3.8000000E-01
 -1.8000001E-01   9.9999998E-03   4.0000001E-01
 -1.6000000E-01   9.9999998E-03   3.4000000E-01
 -1.6000000E-01   9.9999998E-03   3.6000001E-01
 -1.6000000E-01   9.9999998E-03   3.8000000E-01
 -1.6000000E-01   9.9999998E-03   4.0000001E-01
 -1.4000000E-01   9.9999998E-03   3.4000000E-01
 -1.4000000E-01   9.9999998E-03   3.6000001E-01
 -1.4000000E-01   9.9999998E-03   3.8000000E-01
 -1.4000000E-01   9.9999998E-03   4.0000001E-01
 -1.2000000E-01   9.9999998E-03   3.4000000E-01
 -1.2000000E-01   9.9999998E-03   3.6000001E-01
 -1.2000000E-01   9.9999998E-03   3.8000000E-01
 -1.2000000E-01   9.9999998E-03   4.0000001E-01
 -1.0000000E-01   9.9999998E-03   3.4000000E-01
 -1.0000000E-01   9.9999998E-03   3.6000001E-01
 -1.0000000E-01   9.9999998E-03   3.8000000E-01
 -1.0000000E-01   9.9999998E-03   4.0000001E-01
 -7.9999998E-02   9.9999998E-03   3.4000000E-01
 -7.9999998E-02   9.9999998E-03   3.6000001E-01
 -7.9999998E-02   9.9999998E-03   3.8000000E-01
 -7.9999998E-02   9.9999998E-03   4.0000001E-01
 -5.9999999E-02   9.9999998E-03   3.4000000E-01
 -5.9999999E-02   9.9999998E-03   3.6000001E-01
 -5.9999999E-02   9.9999998E-03   3.8000000E-01
 -5.9999999E-02   9.9999998E-03   4.0000001E-01
 -3.9999999E-02   9.9999998E-03   3.4000000E-01
 -3.9999999E-02   9.9999998E-03   3.6000001E-01
 -3.9999999E-02   9.9999998E-03   3.8000000E-01
 -3.9999999E-02   9.9999998E-03   4.0000001E-01
 -2.0000000E-02   9.9999998E-03   3.4000000E-01
 -2.0000000E-02   9.9999998E-03   3.6000001E-01
 -2.0000000E-02   9.9999998E-03   3.8000000E-01
 -2.0000000E-02   9.9999998E-03   4.0000001E-01
  0.0000000E+00   9.9999998E-03   3.4000000E-01
  0.0000000E+00   9.9999998E-03   3.6000001E-01
  0.0000000E+00   9.9999998E-03   3.8000000E-01
  0.0000000E+00   9.9999998E-03   4.0000001E-01
  2.0000000E-02   9.9999998E-03   3.4000000E-01
  2.0000000E-02   9.9999998E-03   3.6000001E-01
  2.0000000E-02   9.9999998E-03   3.8000000E-01
  2.0000000E-02   9.9999998E-03   4.0000001E-01
  3.9999999E-02   9.9999998E-03   3.4000000E-01
  3.9999999E-02   9.9999998E-03   3.6000001E-01
  3.9999999E-02   9.9999998E-03   3.8000000E-01
  3.9999999E-02   9.9999998E-03   4.0000001E-01
  5.9999999E-02   9.9999998E-03   3.4000000E-01
  5.9999999E-02   9.9999998E-03   3.6000001E-01
  5.9999999E-02   9.9999998E-03   3.8000000E-01
  5.9999999E-02   9.9999998E-03   4.0000001E-01
  7.9999998E-02   9.9999998E-03   3.4000000E-01
  7.9999998E-02   9.9999998E-03   3.6000001E-01
  7.9999998E-02   9.9999998E-03   3.8000000E-01
  7.9999998E-02   9.9999998E-03   4.0000001E-01
  1.0000000E-01   9.9999998E-03   3.4000000E-01
  1.0000000E-01   9.9999998E-03   3.6000001E-01
  1.0000000E-01   9.9999998E-03   3.8000000E-01
  1.0000000E-01   9.9999998E-03   4.0000001E-01
  1.2000000E-01   9.9999998E-03   3.4000000E-01
  1.2000000E-01   9.9999998E-03   3.6000001E-01
  1.2000000E-01   9.9999998E-03   3.8000000E-01
  1.2000000E-01   9.9999998E-03   4.0000001E-01
  1.4000000E-01   9.9999998E-03   3.4000000E-01
  1.4000000E-01   9.9999998E-03   3.6000001E-01
  1.4000000E-01   9.9999998E-03   3.8000000E-01
  1.4000000E-01   9.9999998E-03   4.0000001E-01
  1.6000000E-01   9.9999998E-03   3.4000000E-01
  1.6000000E-01   9.9999998E-03   3.6000001E-01
  1.6000000E-01   9.9999998E-03   3.8000000E-01
  1.6000000E-01   9.9999998E-03   4.0000001E-01
  1.8000001E-01   9.9999998E-03   3.4000000E-01
  1.8000001E-01   9.9999998E-03   3.6000001E-01
  1.8000001E-01   9.9999998E-03   3.8000000E-01
  1.8000001E-01   9.9999998E-03   4.0000001E-01
  2.0000000E-01   9.9999998E-03   3.4000000E-01
  2.0000000E-01   9.9999998E-03   3.6000001E-01
  2.0000000E-01   9.9999998E-03   3.8000000E-01
  1.9200000E+00   9.9999998E-03  -3.6000001E-01
  1.9200000E+00   9.9999998E-03  -3.4000000E-01
  1.9200000E+00   9.9999998E-03  -3.1999999E-01
  1.9400001E+00   9.9999998E-03  -3.8000000E-01
  1.9400001E+00   9.9999998E-03  -3.6000001E-01
  1.9400001E+00   9.9999998E-03  -3.4000000E-01
  1.9400001E+00   9.9999998E-03  -3.1999999E-01
  1.9400001E+00   9.9999998E-03  -3.0000001E-01
  1.9400001E+00   9.9999998E-03  -2.8000000E-01
  1.9400001E+00   9.9999998E-03  -2.5999999E-01
  1.9400001E+00   9.9999998E-03  -2.3999999E-01
  1.9400001E+00   9.9999998E-03  -2.2000000E-01
  1.9600000E+00   9.9999998E-03  -3.8000000E-01
  1.9600000E+00   9.9999998E-03  -3.6000001E-01
  1.9600000E+00   9.9999998E-03  -3.4000000E-01
  1.9600000E+00   9.9999998E-03  -3.1999999E-01
  1.9600000E+00   9.9999998E-03  -3.0000001E-01
  1.9600000E+00   9.9999998E-03  -2.8000000E-01
  1.9600000E+00   9.9999998E-03  -2.5999999E-01
  1.9600000E+00   9.9999998E-03  -2.3999999E-01
  1.9600000E+00   9.9999998E-03  -2.2000000E-01
  1.9600000E+00   9.9999998E-03  -2.0000000E-01
  1.9600000E+00   9.9999998E-03  -1.8000001E-01
  1.9600000E+00   9.9999998E-03  -1.6000000E-01
  1.9600000E+00   9.9999998E-03  -1.4000000E-01
  1.9600000E+00   9.9999998E-03  -1.2000000E-01
  1.9800000E+00   9.9999998E-03  -3.8000000E-01
  1.9800000E+00   9.9999998E-03  -3.6000001E-01
  1.9800000E+00   9.9999998E-03  -3.4000000E-01
  1.9800000E+00   9.9999998E-03  -3.1999999E-01
  1.9800000E+00   9.9999998E-03  -3.0000001E-01
  1.9800000E+00   9.9999998E-03  -2.8000000E-01
  1.9800000E+00   9.9999998E-03  -2.5999999E-01
  1.9800000E+00   9.9999998E-03  -2.3999999E-01
  1.9800000E+00   9.9999998E-03  -2.2000000E-01
  1.9800000E+00   9.9999998E-03  -2.0000000E-01
  1.9800000E+00   9.9999998E-03  -1.8000001E-01
  1.9800000E+00   9.9999998E-03  -1.6000000E-01
  1.9800000E+00   9.9999998E-03  -1.4000000E-01
  1.9800000E+00   9.9999998E-03  -1.2000000E-01
  1.9800000E+00   9.9999998E-03  -1.0000000E-01
  1.9800000E+00   9.9999998E-03  -7.9999998E-02
  1.9800000E+00   9.9999998E-03  -5.9999999E-02
  1.9800000E+00   9.9999998E-03  -3.9999999E-02
  1.9800000E+00   9.9999998E-03  -2.0000000E-02
  2.0000000E+00   9.9999998E-03  -3.8000000E-01
  2.0000000E+00   9.9999998E-03  -3.6000001E-01
  2.0000000E+00   9.9999998E-03  -3.4000000E-01
  2.0000000E+00   9.9999998E-03  -3.1999999E-01
  2.0000000E+00   9.9999998E-03  -3.0000001E-01
  2.0000000E+00   9.9999998E-03  -2.8000000E-01
  2.0000000E+00   9.9999998E-03  -2.5999999E-01
  2.0000000E+00   9.9999998E-03  -2.3999999E-01
  2.0000000E+00   9.9999998E-03  -2.2000000E-01
  2.0000000E+00   9.9999998E-03  -2.0000000E-01
  2.0000000E+00   9.9999998E-03  -1.8000001E-01
  2.0000000E+00   9.9999998E-03  -1.6000000E-01
  2.0000000E+00   9.9999998E-03  -1.4000000E-01
  2.0000000E+00   9.9999998E-03  -1.2000000E-01
  2.0000000E+00   9.9999998E-03  -1.0000000E-01
  2.0000000E+00   9.9999998E-03  -7.9999998E-02
  2.0000000E+00   9.9999998E-03  -5.9999999E-02
  2.0000000E+00   9.9999998E-03  -3.9999999E-02
  2.0000000E+00   9.9999998E-03  -2.0000000E-02
  2.0000000E+00   9.9999998E-03   0.0000000E+00
  2.0000000E+00   9.9999998E-03   2.0000000E-02
  2.0000000E+00   9.9999998E-03   3.9999999E-02
  2.0000000E+00   9.9999998E-03   5.9999999E-02
  2.0000000E+00   9.9999998E-03   7.9999998E-02
  2.0200000E+00   9.9999998E-03  -4.0000001E-01
  2.0200000E+00   9.9999998E-03  -3.8000000E-01
  2.0200000E+00   9.9999998E-03  -3.6000001E-01
  2.0200000E+00   9.9999998E-03  -3.4000000E-01
  2.0200000E+00   9.9999998E-03  -3.1999999E-01
  2.0200000E+00   9.9999998E-03  -3.0000001E-01
  2.0200000E+00   9.9999998E-03  -2.8000000E-01
  2.0200000E+00   9.9999998E-03  -2.5999999E-01
  2.0200000E+00   9.9999998E-03  -2.3999999E-01
  2.0200000E+00   9.9999998E-03  -2.2000000E-01
  2.0200000E+00   9.9999998E-03  -2.0000000E-01
  2.0200000E+00   9.9999998E-03  -1.8000001E-01
  2.0200000E+00   9.9999998E-03  -1.6000000E-01
  2.0200000E+00   9.9999998E-03  -1.4000000E-01
  2.0200000E+00   9.9999998E-03  -1.2000000E-01
  2.0200000E+00   9.9999998E-03  -1.0000000E-01
  2.0200000E+00   9.9999998E-03  -7.9999998E-02
  2.0200000E+00   9.9999998E-03  -5.9999999E-02
  2.0200000E+00   9.9999998E-03  -3.9999999E-02
  2.0200000E+00   9.9999998E-03  -2.0000000E-02
  2.0200000E+00   9.9999998E-03   0.0000000E+00
  2.0200000E+00   9.9999998E-03   2.0000000E-02
  2.0200000E+00   9.9999998E-03   3.9999999E-02
  2.0200000E+00   9.9999998E-03   5.9999999E-02
  2.0200000E+00   9.9999998E-03   7.9999998E-02
  2.0200000E+00   9.9999998E-03   1.0000000E-01
  2.0200000E+00   9.9999998E-03   1.2000000E-01
  2.0200000E+00   9.9999998E-03   1.4000000E-01
  2.0200000E+00   9.9999998E-03   1.6000000E-01
  2.0200000E+00   9.9999998E-03   1.8000001E-01
  2.0400000E+00   9.9999998E-03  -4.0000001E-01
  2.0400000E+00   9.9999998E-03  -3.8000000E-01
  2.0400000E+00   9.9999998E-03  -3.6000001E-01
  2.0400000E+00   9.9999998E-03  -3.4000000E-01
  2.0400000E+00   9.9999998E-03  -3.1999999E-01
  2.0400000E+00   9.9999998E-03  -3.0000001E-01
  2.0400000E+00   9.9999998E-03  -2.8000000E-01
  2.0400000E+00   9.9999998E-03  -2.5999999E-01
  2.0400000E+00   9.9999998E-03  -2.3999999E-01
  2.0400000E+00   9.9999998E-03  -2.2000000E-01
  2.0400000E+00   9.9999998E-03  -2.0000000E-01
  2.0400000E+00   9.9999998E-03  -1.8000001E-01
  2.0400000E+00   9.9999998E-03  -1.6000000E-01
  2.0400000E+00   9.9999998E-03  -1.4000000E-01
  2.0400000E+00   9.9999998E-03  -1.2000000E-01
  2.0400000E+00   9.9999998E-03  -1.0000000E-01
  2.0400000E+00   9.9999998E-03  -7.9999998E-02
  2.0400000E+00   9.9999998E-03  -5.9999999E-02
  2.0400000E+00   9.9999998E-03  -3.9999999E-02
  2.0400000E+00   9.9999998E-03  -2.0000000E-02
  2.0400000E+00   9.9999998E-03   0.0000000E+00
  2.0400000E+00   9.9999998E-03   2.0000000E-02
  2.0400000E+00   9.9999998E-03   3.9999999E-02
  2.0400000E+00   9.9999998E-03   5.9999999E-02
  2.0400000E+00   9.9999998E-03   7.9999998E-02
  2.0400000E+00   9.9999998E-03   1.0000000E-01
  2.0400000E+00   9.9999998E-03   1.2000000E-01
  2.0400000E+00   9.9999998E-03   1.4000000E-01
  2.0400000E+00   9.9999998E-03   1.6000000E-01
  2.0400000E+00   9.9999998E-03   1.8000001E-01
  2.0400000E+00   9.9999998E-03   2.0000000E-01
  2.0400000E+00   9.9999998E-03   2.2000000E-01
  2.0400000E+00   9.9999998E-03   2.3999999E-01
  2.0400000E+00   9.9999998E-03   2.5999999E-01
  2.0400000E+00   9.9999998E-03   2.8000000E-01
  2.0599999E+00   9.9999998E-03  -4.0000001E-01
  2.0599999E+00   9.9999998E-03  -3.8000000E-01
  2.0599999E+00   9.9999998E-03  -3.6000001E-01
  2.0599999E+00   9.9999998E-03  -3.4000000E-01
  2.0599999E+00   9.9999998E-03  -3.1999999E-01
  2.0599999E+00   9.9999998E-03  -3.0000001E-01
  2.0599999E+00   9.9999998E-03  -2.8000000E-01
  2.0599999E+00   9.9999998E-03  -2.5999999E-01
  2.0599999E+00   9.9999998E-03  -2.3999999E-01
  2.0599999E+00   9.9999998E-03  -2.2000000E-01
  2.0599999E+00   9.9999998E-03  -2.0000000E-01
  2.0599999E+00   9.9999998E-03  -1.8000001E-01
  2.0599999E+00   9.9999998E-03  -1.6000000E-01
  2.0599999E+00   9.9999998E-03  -1.4000000E-01
  2.0599999E+00   9.9999998E-03  -1.2000000E-01
  2.0599999E+00   9.9999998E-03  -1.0000000E-01
  2.0599999E+00   9.9999998E-03  -7.9999998E-02
  2.0599999E+00   9.9999998E-03  -5.9999999E-02
  2.0599999E+00   9.9999998E-03  -3.9999999E-02
  2.0599999E+00   9.9999998E-03  -2.0000000E-02
  2.0599999E+00   9.9999998E-03   0.0000000E+00
  2.0599999E+00   9.9999998E-03   2.0000000E-02
  2.0599999E+00   9.9999998E-03   3.9999999E-02
  2.0599999E+00   9.9999998E-03   5.9999999E-02
  2.0599999E+00   9.9999998E-03   7.9999998E-02
  2.0599999E+00   9.9999998E-03   1.0000000E-01
  2.0599999E+00   9.9999998E-03   1.2000000E-01
  2.0599999E+00   9.9999998E-03   1.4000000E-01
  2.0599999E+00   9.9999998E-03   1.6000000E-01
  2.0599999E+00   9.9999998E-03   1.8000001E-01
  2.0599999E+00   9.9999998E-03   2.0000000E-01
  2.0599999E+00   9.9999998E-03   2.2000000E-01
  2.0599999E+00   9.9999998E-03   2.3999999E-01
  2.0599999E+00   9.9999998E-03   2.5999999E-01
  2.0599999E+00   9.9999998E-03   2.8000000E-01
  2.0599999E+00   9.9999998E-03   3.0000001E-01
  2.0599999E+00   9.9999998E-03   3.1999999E-01
  2.0599999E+00   9.9999998E-03   3.4000000E-01
  2.0599999E+00   9.9999998E-03   3.6000001E-01
  2.0599999E+00   9.9999998E-03   3.8000000E-01
  2.0799999E+00   9.9999998E-03  -4.0000001E-01
  2.0799999E+00   9.9999998E-03  -3.8000000E-01
  2.0799999E+00   9.9999998E-03  -3.6000001E-01
  2.0799999E+00   9.9999998E-03  -3.4000000E-01
  2.0799999E+00   9.9999998E-03  -3.1999999E-01
  2.0799999E+00   9.9999998E-03  -3.0000001E-01
  2.0799999E+00   9.9999998E-03  -2.8000000E-01
  2.0799999E+00   9.9999998E-03  -2.5999999E-01
  2.0799999E+00   9.9999998E-03  -2.3999999E-01
  2.0799999E+00   9.9999998E-03  -2.2000000E-01
  2.0799999E+00   9.9999998E-03  -2.0000000E-01
  2.0799999E+00   9.9999998E-03  -1.8000001E-01
  2.0799999E+00   9.9999998E-03  -1.6000000E-01
  2.0799999E+00   9.9999998E-03  -1.4000000E-01
  2.0799999E+00   9.9999998E-03  -1.2000000E-01
  2.0799999E+00   9.9999998E-03  -1.0000000E-01
  2.0799999E+00   9.9999998E-03  -7.9999998E-02
  2.0799999E+00   9.9999998E-03  -5.9999999E-02
  2.0799999E+00   9.9999998E-03  -3.9999999E-02
  2.0799999E+00   9.9999998E-03  -2.0000000E-02
  2.0799999E+00   9.9999998E-03   0.0000000E+00
  2.0799999E+00   9.9999998E-03   2.0000000E-02
  2.0799999E+00   9.9999998E-03   3.9999999E-02
  2.0799999E+00   9.9999998E-03   5.9999999E-02
  2.0799999E+00   9.9999998E-03   7.9999998E-02
  2.0799999E+00   9.9999998E-03   1.0000000E-01
  2.0799999E+00   9.9999998E-03   1.2000000E-01
  2.0799999E+00   9.9999998E-03   1.4000000E-01
  2.0799999E+00   9.9999998E-03   1.6000000E-01
  2.0799999E+00   9.9999998E-03   1.8000001E-01
  2.0799999E+00   9.9999998E-03   2.0000000E-01
  2.0799999E+00   9.9999998E-03   2.2000000E-01
  2.0799999E+00   9.9999998E-03   2.3999999E-01
  2.0799999E+00   9.9999998E-03   2.5999999E-01
  2.0799999E+00   9.9999998E-03   2.8000000E-01
  2.0799999E+00   9.9999998E-03   3.0000001E-01
  2.0799999E+00   9.9999998E-03   3.1999999E-01
  2.0799999E+00   9.9999998E-03   3.4000000E-01
  2.0799999E+00   9.9999998E-03   3.6000001E-01
  2.0799999E+00   9.9999998E-03   3.8000000E-01
  2.0799999E+00   9.9999998E-03   4.0000001E-01
  2.0999999E+00   9.9999998E-03  -4.0000001E-01
  2.0999999E+00   9.9999998E-03  -3.8000000E-01
  2.0999999E+00   9.9999998E-03  -3.6000001E-01
  2.0999999E+00   9.9999998E-03  -3.4000000E-01
  2.0999999E+00   9.9999998E-03  -3.1999999E-01
  2.0999999E+00   9.9999998E-03  -3.0000001E-01
  2.0999999E+00   9.9999998E-03  -2.8000000E-01
  2.0999999E+00   9.9999998E-03  -2.5999999E-01
  2.0999999E+00   9.9999998E-03  -2.3999999E-01
  2.0999999E+00   9.9999998E-03  -2.2000000E-01
  2.0999999E+00   9.9999998E-03  -2.0000000E-01
  2.0999999E+00   9.9999998E-03  -1.8000001E-01
  2.0999999E+00   9.9999998E-03  -1.6000000E-01
  2.0999999E+00   9.9999998E-03  -1.4000000E-01
  2.0999999E+00   9.9999998E-03  -1.2000000E-01
  2.0999999E+00   9.9999998E-03  -1.0000000E-01
  2.0999999E+00   9.9999998E-03  -7.9999998E-02
  2.0999999E+00   9.9999998E-03  -5.9999999E-02
  2.0999999E+00   9.9999998E-03  -3.9999999E-02
  2.0999999E+00   9.9999998E-03  -2.0000000E-02
  2.0999999E+00   9.9999998E-03   0.0000000E+00
  2.0999999E+00   9.9999998E-03   2.0000000E-02
  2.0999999E+00   9.9999998E-03   3.9999999E-02
  2.0999999E+00   9.9999998E-03   5.9999999E-02
  2.0999999E+00   9.9999998E-03   7.9999998E-02
  2.0999999E+00   9.9999998E-03   1.0000000E-01
  2.0999999E+00   9.9999998E-03   1.2000000E-01
  2.0999999E+00   9.9999998E-03   1.4000000E-01
  2.0999999E+00   9.9999998E-03   1.6000000E-01
  2.0999999E+00   9.9999998E-03   1.8000001E-01
  2.0999999E+00   9.9999998E-03   2.0000000E-01
  2.0999999E+00   9.9999998E-03   2.2000000E-01
  2.0999999E+00   9.9999998E-03   2.3999999E-01
  2.0999999E+00   9.9999998E-03   2.5999999E-01
  2.0999999E+00   9.9999998E-03   2.8000000E-01
  2.0999999E+00   9.9999998E-03   3.0000001E-01
  2.0999999E+00   9.9999998E-03   3.1999999E-01
  2.0999999E+00   9.9999998E-03   3.4000000E-01
  2.0999999E+00   9.9999998E-03   3.6000001E-01
  2.0999999E+00   9.9999998E-03   3.8000000E-01
  2.0999999E+00   9.9999998E-03   4.0000001E-01
  2.1199999E+00   9.9999998E-03  -4.1999999E-01
  2.1199999E+00   9.9999998E-03  -4.0000001E-01
  2.1199999E+00   9.9999998E-03  -3.8000000E-01
  2.1199999E+00   9.9999998E-03  -3.6000001E-01
  2.1199999E+00   9.9999998E-03  -3.4000000E-01
  2.1199999E+00   9.9999998E-03  -3.1999999E-01
  2.1199999E+00   9.9999998E-03  -3.0000001E-01
  2.1199999E+00   9.9999998E-03  -2.8000000E-01
  2.1199999E+00   9.9999998E-03  -2.5999999E-01
  2.1199999E+00   9.9999998E-03  -2.3999999E-01
  2.1199999E+00   9.9999998E-03  -2.2000000E-01
  2.1199999E+00   9.9999998E-03  -2.0000000E-01
  2.1199999E+00   9.9999998E-03  -1.8000001E-01
  2.1199999E+00   9.9999998E-03  -1.6000000E-01
  2.1199999E+00   9.9999998E-03  -1.4000000E-01
  2.1199999E+00   9.9999998E-03  -1.2000000E-01
  2.1199999E+00   9.9999998E-03  -1.0000000E-01
  2.1199999E+00   9.9999998E-03  -7.9999998E-02
  2.1199999E+00   9.9999998E-03  -5.9999999E-02
  2.1199999E+00   9.9999998E-03  -3.9999999E-02
  2.1199999E+00   9.9999998E-03  -2.0000000E-02
  2.1199999E+00   9.9999998E-03   0.0000000E+00
  2.1199999E+00   9.9999998E-03   2.0000000E-02
  2.1199999E+00   9.9999998E-03   3.9999999E-02
  2.1199999E+00   9.9999998E-03   5.9999999E-02
  2.1199999E+00   9.9999998E-03   7.9999998E-02
  2.1199999E+00   9.9999998E-03   1.0000000E-01
  2.1199999E+00   9.9999998E-03   1.2000000E-01
  2.1199999E+00   9.9999998E-03   1.4000000E-01
  2.1199999E+00   9.9999998E-03   1.6000000E-01
  2.1199999E+00   9.9999998E-03   1.8000001E-01
  2.1199999E+00   9.9999998E-03   2.0000000E-01
  2.1199999E+00   9.9999998E-03   2.2000000E-01
  2.1199999E+00   9.9999998E-03   2.3999999E-01
  2.1199999E+00   9.9999998E-03   2.5999999E-01
  2.1199999E+00   9.9999998E-03   2.8000000E-01
  2.1199999E+00   9.9999998E-03   3.0000001E-01
  2.1199999E+00   9.9999998E-03   3.1999999E-01
  2.1199999E+00   9.9999998E-03   3.4000000E-01
  2.1199999E+00   9.9999998E-03   3.6000001E-01
  2.1199999E+00   9.9999998E-03   3.8000000E-01
  2.1199999E+00   9.9999998E-03   4.0000001E-01
  2.1400001E+00   9.9999998E-03  -3.8000000E-01
  2.1400001E+00   9.9999998E-03  -3.6000001E-01
  2.1400001E+00   9.9999998E-03  -3.4000000E-01
  2.1400001E+00   9.9999998E-03  -3.1999999E-01
  2.1400001E+00   9.9999998E-03  -3.0000001E-01
  2.1400001E+00   9.9999998E-03  -2.8000000E-01
  2.1400001E+00   9.9999998E-03  -2.5999999E-01
  2.1400001E+00   9.9999998E-03  -2.3999999E-01
  2.1400001E+00   9.9999998E-03  -2.2000000E-01
  2.1400001E+00   9.9999998E-03  -2.0000000E-01
  2.1400001E+00   9.9999998E-03  -1.8000001E-01
  2.1400001E+00   9.9999998E-03  -1.6000000E-01
  2.1400001E+00   9.9999998E-03  -1.4000000E-01
  2.1400001E+00   9.9999998E-03  -1.2000000E-01
  2.1400001E+00   9.9999998E-03  -1.0000000E-01
  2.1400001E+00   9.9999998E-03  -7.9999998E-02
  2.1400001E+00   9.9999998E-03  -5.9999999E-02
  2.1400001E+00   9.9999998E-03  -3.9999999E-02
  2.1400001E+00   9.9999998E-03  -2.0000000E-02
  2.1400001E+00   9.9999998E-03   0.0000000E+00
  2.1400001E+00   9.9999998E-03   2.0000000E-02
  2.1400001E+00   9.9999998E-03   3.9999999E-02
  2.1400001E+00   9.9999998E-03   5.9999999E-02
  2.1400001E+00   9.9999998E-03   7.9999998E-02
  2.1400001E+00   9.9999998E-03   1.0000000E-01
  2.1400001E+00   9.9999998E-03   1.2000000E-01
  2.1400001E+00   9.9999998E-03   1.4000000E-01
  2.1400001E+00   9.9999998E-03   1.6000000E-01
  2.1400001E+00   9.9999998E-03   1.8000001E-01
  2.1400001E+00   9.9999998E-03   2.0000000E-01
  2.1400001E+00   9.9999998E-03   2.2000000E-01
  2.1400001E+00   9.9999998E-03   2.3999999E-01
  2.1400001E+00   9.9999998E-03   2.5999999E-01
  2.1400001E+00   9.9999998E-03   2.8000000E-01
  2.1400001E+00   9.9999998E-03   3.0000001E-01
  2.1400001E+00   9.9999998E-03   3.1999999E-01
  2.1400001E+00   9.9999998E-03   3.4000000E-01
  2.1400001E+00   9.9999998E-03   3.6000001E-01
  2.1400001E+00   9.9999998E-03   3.8000000E-01
  2.1400001E+00   9.9999998E-03   4.0000001E-01
  2.1600001E+00   9.9999998E-03  -2.8000000E-01
  2.1600001E+00   9.9999998E-03  -2.5999999E-01
  2.1600001E+00   9.9999998E-03  -2.3999999E-01
  2.1600001E+00   9.9999998E-03  -2.2000000E-01
  2.1600001E+00   9.9999998E-03  -2.0000000E-01
  2.1600001E+00   9.9999998E-03  -1.8000001E-01
  2.1600001E+00   9.9999998E-03  -1.6000000E-01
  2.1600001E+00   9.9999998E-03  -1.4000000E-01
  2.1600001E+00   9.9999998E-03  -1.2000000E-01
  2.1600001E+00   9.9999998E-03  -1.0000000E-01
  2.1600001E+00   9.9999998E-03  -7.9999998E-02
  2.1600001E+00   9.9999998E-03  -5.9999999E-02
  2.1600001E+00   9.9999998E-03  -3.9999999E-02
  2.1600001E+00   9.9999998E-03  -2.0000000E-02
  2.1600001E+00   9.9999998E-03   0.0000000E+00
  2.1600001E+00   9.9999998E-03   2.0000000E-02
  2.1600001E+00   9.9999998E-03   3.9999999E-02
  2.1600001E+00   9.9999998E-03   5.9999999E-02
  2.1600001E+00   9.9999998E-03   7.9999998E-02
  2.1600001E+00   9.9999998E-03   1.0000000E-01
  2.1600001E+00   9.9999998E-03   1.2000000E-01
  2.1600001E+00   9.9999998E-03   1.4000000E-01
  2.1600001E+00   9.9999998E-03   1.6000000E-01
  2.1600001E+00   9.9999998E-03   1.8000001E-01
  2.1600001E+00   9.9999998E-03   2.0000000E-01
  2.1600001E+00   9.9999998E-03   2.2000000E-01
  2.1600001E+00   9.9999998E-03   2.3999999E-01
  2.1600001E+00   9.9999998E-03   2.5999999E-01
  2.1600001E+00   9.9999998E-03   2.8000000E-01
  2.1600001E+00   9.9999998E-03   3.0000001E-01
  2.1600001E+00   9.9999998E-03   3.1999999E-01
  2.1600001E+00   9.9999998E-03   3.4000000E-01
  2.1600001E+00   9.9999998E-03   3.6000001E-01
  2.1600001E+00   9.9999998E-03   3.8000000E-01
  2.1600001E+00   9.9999998E-03   4.0000001E-01
  2.1800001E+00   9.9999998E-03  -1.8000001E-01
  2.1800001E+00   9.9999998E-03  -1.6000000E-01
  2.1800001E+00   9.9999998E-03  -1.4000000E-01
  2.1800001E+00   9.9999998E-03  -1.2000000E-01
  2.1800001E+00   9.9999998E-03  -1.0000000E-01
  2.1800001E+00   9.9999998E-03  -7.9999998E-02
  2.1800001E+00   9.9999998E-03  -5.9999999E-02
  2.1800001E+00   9.9999998E-03  -3.9999999E-02
  2.1800001E+00   9.9999998E-03  -2.0000000E-02
  2.1800001E+00   9.9999998E-03   0.0000000E+00
  2.1800001E+00   9.9999998E-03   2.0000000E-02
  2.1800001E+00   9.9999998E-03   3.9999999E-02
  2.1800001E+00   9.9999998E-03   5.9999999E-02
  2.1800001E+00   9.9999998E-03   7.9999998E-02
  2.1800001E+00   9.9999998E-03   1.0000000E-01
  2.1800001E+00   9.9999998E-03   1.2000000E-01
  2.1800001E+00   9.9999998E-03   1.4000000E-01
  2.1800001E+00   9.9999998E-03   1.6000000E-01
  2.1800001E+00   9.9999998E-03   1.8000001E-01
  2.1800001E+00   9.9999998E-03   2.0000000E-01
  2.1800001E+00   9.9999998E-03   2.2000000E-01
  2.1800001E+00   9.9999998E-03   2.3999999E-01
  2.1800001E+00   9.9999998E-03   2.5999999E-01
  2.1800001E+00   9.9999998E-03   2.8000000E-01
  2.1800001E+00   9.9999998E-03   3.0000001E-01
  2.1800001E+00   9.9999998E-03   3.1999999E-01
  2.1800001E+00   9.9999998E-03   3.4000000E-01
  2.1800001E+00   9.9999998E-03   3.6000001E-01
  2.1800001E+00   9.9999998E-03   3.8000000E-01
  2.1800001E+00   9.9999998E-03   4.0000001E-01
  2.2000000E+00   9.9999998E-03  -7.9999998E-02
  2.2000000E+00   9.9999998E-03  -5.9999999E-02
  2.2000000E+00   9.9999998E-03  -3.9999999E-02
  2.2000000E+00   9.9999998E-03  -2.0000000E-02
  2.2000000E+00   9.9999998E-03   0.0000000E+00
  2.2000000E+00   9.9999998E-03   2.0000000E-02
  2.2000000E+00   9.9999998E-03   3.9999999E-02
  2.2000000E+00   9.9999998E-03   5.9999999E-02
  2.2000000E+00   9.9999998E-03   7.9999998E-02
  2.2000000E+00   9.9999998E-03   1.0000000E-01
  2.2000000E+00   9.9999998E-03   1.2000000E-01
  2.2000000E+00   9.9999998E-03   1.4000000E-01
  2.2000000E+00   9.9999998E-03   1.6000000E-01
  2.2000000E+00   9.9999998E-03   1.8000001E-01
  2.2000000E+00   9.9999998E-03   2.0000000E-01
  2.2000000E+00   9.9999998E-03   2.2000000E-01
  2.2000000E+00   9.9999998E-03   2.3999999E-01
  2.2000000E+00   9.9999998E-03   2.5999999E-01
  2.2000000E+00   9.9999998E-03   2.8000000E-01
  2.2000000E+00   9.9999998E-03   3.0000001E-01
  2.2000000E+00   9.9999998E-03   3.1999999E-01
  2.2000000E+00   9.9999998E-03   3.4000000E-01
  2.2000000E+00   9.9999998E-03   3.6000001E-01
  2.2000000E+00   9.9999998E-03   3.8000000E-01
  2.2200000E+00   9.9999998E-03   2.0000000E-02
  2.2200000E+00   9.9999998E-03   3.9999999E-02
  2.2200000E+00   9.9999998E-03   5.9999999E-02
  2.2200000E+00   9.9999998E-03   7.9999998E-02
  2.2200000E+00   9.9999998E-03   1.0000000E-01
  2.2200000E+00   9.9999998E-03   1.2000000E-01
  2.2200000E+00   9.9999998E-03   1.4000000E-01
  2.2200000E+00   9.9999998E-03   1.6000000E-01
  2.2200000E+00   9.9999998E-03   1.8000001E-01
  2.2200000E+00   9.9999998E-03   2.0000000E-01
  2.2200000E+00   9.9999998E-03   2.2000000E-01
  2.2200000E+00   9.9999998E-03   2.3999999E-01
  2.2200000E+00   9.9999998E-03   2.5999999E-01
  2.2200000E+00   9.9999998E-03   2.8000000E-01
  2.2200000E+00   9.9999998E-03   3.0000001E-01
  2.2200000E+00   9.9999998E-03   3.1999999E-01
  2.2200000E+00   9.9999998E-03   3.4000000E-01
  2.2200000E+00   9.9999998E-03   3.6000001E-01
  2.2200000E+00   9.9999998E-03   3.8000000E-01
  2.2400000E+00   9.9999998E-03   1.2000000E-01
  2.2400000E+00   9.9999998E-03   1.4000000E-01
  2.2400000E+00   9.9999998E-03   1.6000000E-01
  2.2400000E+00   9.9999998E-03   1.8000001E-01
  2.2400000E+00   9.9999998E-03   2.0000000E-01
  2.2400000E+00   9.9999998E-03   2.2000000E-01
  2.2400000E+00   9.9999998E-03   2.3999999E-01
  2.2400000E+00   9.9999998E-03   2.5999999E-01
  2.2400000E+00   9.9999998E-03   2.8000000E-01
  2.2400000E+00   9.9999998E-03   3.0000001E-01
  2.2400000E+00   9.9999998E-03   3.1999999E-01
  2.2400000E+00   9.9999998E-03   3.4000000E-01
  2.2400000E+00   9.9999998E-03   3.6000001E-01
  2.2400000E+00   9.9999998E-03   3.8000000E-01
  2.2600000E+00   9.9999998E-03   2.2000000E-01
  2.2600000E+00   9.9999998E-03   2.3999999E-01
  2.2600000E+00   9.9999998E-03   2.5999999E-01
  2.2600000E+00   9.9999998E-03   2.8000000E-01
  2.2600000E+00   9.9999998E-03   3.0000001E-01
  2.2600000E+00   9.9999998E-03   3.1999999E-01
  2.2600000E+00   9.9999998E-03   3.4000000E-01
  2.2600000E+00   9.9999998E-03   3.6000001E-01
  2.2600000E+00   9.9999998E-03   3.8000000E-01
  2.2800000E+00   9.9999998E-03   3.1999999E-01
  2.2800000E+00   9.9999998E-03   3.4000000E-01
  2.2800000E+00   9.9999998E-03   3.6000001E-01
 -2.8110534E-07   9.9999998E-03  -2.8000012E-01
 -3.4039050E-07   9.9999998E-03  -2.6000011E-01
 -3.9040947E-07   9.9999998E-03  -2.4000010E-01
 -4.2942628E-07   9.9999998E-03  -2.2000009E-01
 -4.5883741E-07   9.9999998E-03  -2.0000006E-01
  1.9999711E-02   9.9999998E-03  -3.0000013E-01
  1.9999599E-02   9.9999998E-03  -2.8000015E-01
  1.9999506E-02   9.9999998E-03  -2.6000014E-01
  1.9999430E-02   9.9999998E-03  -2.4000013E-01
  1.9999372E-02   9.9999998E-03  -2.2000012E-01
  1.9999331E-02   9.9999998E-03  -2.0000009E-01
  3.9999586E-02   9.9999998E-03  -3.0000016E-01
  3.9999429E-02   9.9999998E-03  -2.8000018E-01
  3.9999295E-02   9.9999998E-03  -2.6000017E-01
  3.9999187E-02   9.9999998E-03  -2.4000016E-01
  3.9999109E-02   9.9999998E-03  -2.2000013E-01
  3.9999053E-02   9.9999998E-03  -2.0000012E-01
  5.9999425E-02   9.9999998E-03  -3.0000019E-01
  5.9999213E-02   9.9999998E-03  -2.8000021E-01
  5.9999034E-02   9.9999998E-03  -2.6000020E-01
  5.9998889E-02   9.9999998E-03  -2.4000017E-01
  5.9998784E-02   9.9999998E-03  -2.2000016E-01
  5.9998710E-02   9.9999998E-03  -2.0000014E-01
  7.9999223E-02   9.9999998E-03  -3.0000025E-01
  7.9998940E-02   9.9999998E-03  -2.8000024E-01
  7.9998709E-02   9.9999998E-03  -2.6000023E-01
  7.9998523E-02   9.9999998E-03  -2.4000020E-01
  7.9998396E-02   9.9999998E-03  -2.2000018E-01
  7.9998299E-02   9.9999998E-03  -2.0000015E-01
  9.9998973E-02   9.9999998E-03  -3.0000028E-01
  9.9998601E-02   9.9999998E-03  -2.8000027E-01
  9.9998310E-02   9.9999998E-03  -2.6000026E-01
  9.9998079E-02   9.9999998E-03  -2.4000023E-01
  9.9997923E-02   9.9999998E-03  -2.2000021E-01
  9.9997811E-02   9.9999998E-03  -2.0000017E-01
  1.1999864E-01   9.9999998E-03  -3.0000034E-01
  1.1999818E-01   9.9999998E-03  -2.8000030E-01
  1.1999781E-01   9.9999998E-03  -2.6000029E-01
  1.1999754E-01   9.9999998E-03  -2.4000025E-01
  1.1999734E-01   9.9999998E-03  -2.2000022E-01
  1.1999722E-01   9.9999998E-03  -2.0000020E-01
  1.3999821E-01   9.9999998E-03  -3.0000043E-01
  1.3999763E-01   9.9999998E-03  -2.8000036E-01
  1.3999718E-01   9.9999998E-03  -2.6000032E-01
  1.3999686E-01   9.9999998E-03  -2.4000029E-01
  1.3999663E-01   9.9999998E-03  -2.2000025E-01
  1.3999650E-01   9.9999998E-03  -2.0000021E-01
  1.5999766E-01   9.9999998E-03  -3.0000052E-01
  1.5999694E-01   9.9999998E-03  -2.8000045E-01
  1.5999641E-01   9.9999998E-03  -2.6000038E-01
  1.5999603E-01   9.9999998E-03  -2.4000035E-01
  1.5999578E-01   9.9999998E-03  -2.2000030E-01
  1.5999562E-01   9.9999998E-03  -2.0000026E-01
  1.7999691E-01   9.9999998E-03  -3.0000064E-01
  1.7999606E-01   9.9999998E-03  -2.8000054E-01
  1.7999545E-01   9.9999998E-03  -2.6000047E-01
  1.7999500E-01   9.9999998E-03  -2.4000043E-01
  1.7999472E-01   9.9999998E-03  -2.2000037E-01
  1.7999455E-01   9.9999998E-03  -2.0000032E-01
  1.9999589E-01   9.9999998E-03  -3.0000076E-01
  1.9999494E-01   9.9999998E-03  -2.8000066E-01
  1.9999424E-01   9.9999998E-03  -2.6000059E-01
  1.9999373E-01   9.9999998E-03  -2.4000053E-01
  1.9999342E-01   9.9999998E-03  -2.2000048E-01
  1.9999325E-01   9.9999998E-03  -2.0000041E-01
  2.1999465E-01   9.9999998E-03  -3.0000117E-01
  2.1999352E-01   9.9999998E-03  -2.8000093E-01
  2.1999273E-01   9.9999998E-03  -2.6000080E-01
  2.1999218E-01   9.9999998E-03  -2.4000071E-01
  2.1999183E-01   9.9999998E-03  -2.2000064E-01
  2.1999167E-01   9.9999998E-03  -2.0000054E-01
  2.3999295E-01   9.9999998E-03  -3.0000231E-01
  2.3999169E-01   9.9999998E-03  -2.8000161E-01
  2.3999085E-01   9.9999998E-03  -2.6000124E-01
  2.3999025E-01   9.9999998E-03  -2.4000101E-01
  2.3998991E-01   9.9999998E-03  -2.2000086E-01
  2.3998976E-01   9.9999998E-03  -2.0000073E-01
  2.5999057E-01   9.9999998E-03  -3.0000362E-01
  2.5998932E-01   9.9999998E-03  -2.8000262E-01
  2.5998846E-01   9.9999998E-03  -2.6000190E-01
  2.5998789E-01   9.9999998E-03  -2.4000148E-01
  2.5998756E-01   9.9999998E-03  -2.2000122E-01
  2.5998744E-01   9.9999998E-03  -2.0000099E-01
  2.7998754E-01   9.9999998E-03  -3.0000487E-01
  2.7998635E-01   9.9999998E-03  -2.8000370E-01
  2.7998552E-01   9.9999998E-03  -2.6000273E-01
  2.7998498E-01   9.9999998E-03  -2.4000210E-01
  2.7998474E-01   9.9999998E-03  -2.2000167E-01
  2.7998465E-01   9.9999998E-03  -2.0000133E-01
  2.9998392E-01   9.9999998E-03  -3.0000606E-01
  2.9998276E-01   9.9999998E-03  -2.8000477E-01
  2.9998198E-01   9.9999998E-03  -2.6000363E-01
  2.9998150E-01   9.9999998E-03  -2.4000280E-01
  2.9998133E-01   9.9999998E-03  -2.2000220E-01
  2.9998133E-01   9.9999998E-03  -2.0000173E-01
  3.1997976E-01   9.9999998E-03  -3.0000734E-01
  3.1997856E-01   9.9999998E-03  -2.8000587E-01
  3.1997779E-01   9.9999998E-03  -2.6000458E-01
  3.1997737E-01   9.9999998E-03  -2.4000357E-01
  3.1997722E-01   9.9999998E-03  -2.2000282E-01
  3.1997731E-01   9.9999998E-03  -2.0000219E-01
  3.3997497E-01   9.9999998E-03  -3.0000877E-01
  3.3997369E-01   9.9999998E-03  -2.8000712E-01
  3.3997285E-01   9.9999998E-03  -2.6000562E-01
  3.3997244E-01   9.9999998E-03  -2.4000442E-01
  3.3997235E-01   9.9999998E-03  -2.2000349E-01
  3.3997253E-01   9.9999998E-03  -2.0000270E-01
  3.5996941E-01   9.9999998E-03  -3.0001044E-01
  3.5996792E-01   9.9999998E-03  -2.8000852E-01
  3.5996699E-01   9.9999998E-03  -2.6000679E-01
  3.5996658E-01   9.9999998E-03  -2.4000537E-01
  3.5996655E-01   9.9999998E-03  -2.2000423E-01
  3.5996681E-01   9.9999998E-03  -2.0000327E-01
  3.7996283E-01   9.9999998E-03  -3.0001241E-01
  3.7996107E-01   9.9999998E-03  -2.8001016E-01
  3.7996003E-01   9.9999998E-03  -2.6000810E-01
  3.7995958E-01   9.9999998E-03  -2.4000645E-01
  3.7995964E-01   9.9999998E-03  -2.2000507E-01
  3.7996006E-01   9.9999998E-03  -2.0000388E-01
  3.9995497E-01   9.9999998E-03  -3.0001476E-01
  3.9995292E-01   9.9999998E-03  -2.8001210E-01
  3.9995176E-01   9.9999998E-03  -2.6000965E-01
  3.9995131E-01   9.9999998E-03  -2.4000764E-01
  3.9995149E-01   9.9999998E-03  -2.2000599E-01
  3.9995208E-01   9.9999998E-03  -2.0000458E-01
  4.1994560E-01   9.9999998E-03  -3.0001757E-01
  4.1994321E-01   9.9999998E-03  -2.8001440E-01
  4.1994190E-01   9.9999998E-03  -2.6001143E-01
  4.1994151E-01   9.9999998E-03  -2.4000901E-01
  4.1994184E-01   9.9999998E-03  -2.2000702E-01
  4.1994271E-01   9.9999998E-03  -2.0000537E-01
  4.3993437E-01   9.9999998E-03  -3.0002093E-01
  4.3993166E-01   9.9999998E-03  -2.8001708E-01
  4.3993023E-01   9.9999998E-03  -2.6001346E-01
  4.3992990E-01   9.9999998E-03  -2.4001054E-01
  4.3993050E-01   9.9999998E-03  -2.2000821E-01
  4.3993172E-01   9.9999998E-03  -2.0000632E-01
  4.5992088E-01   9.9999998E-03  -3.0002502E-01
  4.5991781E-01   9.9999998E-03  -2.8002030E-01
  4.5991632E-01   9.9999998E-03  -2.6001579E-01
  4.5991620E-01   9.9999998E-03  -2.4001230E-01
  4.5991713E-01   9.9999998E-03  -2.2000965E-01
  4.5991883E-01   9.9999998E-03  -2.0000757E-01
  4.7990456E-01   9.9999998E-03  -3.0002999E-01
  4.7990125E-01   9.9999998E-03  -2.8002408E-01
  4.7989982E-01   9.9999998E-03  -2.6001847E-01
  4.7990006E-01   9.9999998E-03  -2.4001440E-01
  4.7990149E-01   9.9999998E-03  -2.2001150E-01
  4.7990382E-01   9.9999998E-03  -2.0000932E-01
  4.9988469E-01   9.9999998E-03  -3.0003610E-01
  4.9988139E-01   9.9999998E-03  -2.8002858E-01
  4.9988028E-01   9.9999998E-03  -2.6002163E-01
  4.9988112E-01   9.9999998E-03  -2.4001710E-01
  4.9988329E-01   9.9999998E-03  -2.2001408E-01
  4.9988639E-01   9.9999998E-03  -2.0001191E-01
  5.1986033E-01   9.9999998E-03  -3.0004367E-01
  5.1985770E-01   9.9999998E-03  -2.8003407E-01
  5.1985741E-01   9.9999998E-03  -2.6002562E-01
  5.1985919E-01   9.9999998E-03  -2.4002089E-01
  5.1986235E-01   9.9999998E-03  -2.2001794E-01
  5.1986641E-01   9.9999998E-03  -2.0001586E-01
  5.3983074E-01   9.9999998E-03  -3.0005312E-01
  5.3982979E-01   9.9999998E-03  -2.8004104E-01
  5.3983116E-01   9.9999998E-03  -2.6003113E-01
  5.3983438E-01   9.9999998E-03  -2.4002647E-01
  5.3983879E-01   9.9999998E-03  -2.2002380E-01
  5.3984392E-01   9.9999998E-03  -2.0002180E-01
  5.5979568E-01   9.9999998E-03  -3.0006528E-01
  5.5979812E-01   9.9999998E-03  -2.8005043E-01
  5.5980211E-01   9.9999998E-03  -2.6003927E-01
  5.5980724E-01   9.9999998E-03  -2.4003483E-01
  5.5981308E-01   9.9999998E-03  -2.2003245E-01
  5.5981934E-01   9.9999998E-03  -2.0003036E-01
  5.7975662E-01   9.9999998E-03  -3.0008134E-01
  5.7976407E-01   9.9999998E-03  -2.8006393E-01
  5.7977152E-01   9.9999998E-03  -2.6005149E-01
  5.7977891E-01   9.9999998E-03  -2.4004698E-01
  5.7978642E-01   9.9999998E-03  -2.2004470E-01
  5.7979375E-01   9.9999998E-03  -2.0004188E-01
  5.9971696E-01   9.9999998E-03  -3.0010337E-01
  5.9973013E-01   9.9999998E-03  -2.8008410E-01
  5.9974122E-01   9.9999998E-03  -2.6006979E-01
  5.9975111E-01   9.9999998E-03  -2.4006395E-01
  5.9976000E-01   9.9999998E-03  -2.2006030E-01
  5.9976834E-01   9.9999998E-03  -2.0005602E-01
  6.1968160E-01   9.9999998E-03  -3.0013424E-01
  6.1969918E-01   9.9999998E-03  -2.8011465E-01
  6.1971301E-01   9.9999998E-03  -2.6009715E-01
  6.1972457E-01   9.9999998E-03  -2.4008642E-01
  6.1973494E-01   9.9999998E-03  -2.2007924E-01
  6.1974436E-01   9.9999998E-03  -2.0007241E-01
  6.3965493E-01   9.9999998E-03  -3.0017611E-01
  6.3967466E-01   9.9999998E-03  -2.8015828E-01
  6.3968992E-01   9.9999998E-03  -2.6013950E-01
  6.3970172E-01   9.9999998E-03  -2.4011892E-01
  6.3971257E-01   9.9999998E-03  -2.2010304E-01
  6.3972324E-01   9.9999998E-03  -2.0009190E-01
  6.5964049E-01   9.9999998E-03  -3.0022487E-01
  6.5966010E-01   9.9999998E-03  -2.8021026E-01
  6.5967679E-01   9.9999998E-03  -2.6019666E-01
  6.5968800E-01   9.9999998E-03  -2.4016720E-01
  6.5969801E-01   9.9999998E-03  -2.2013821E-01
  6.5970862E-01   9.9999998E-03  -2.0011809E-01
  6.7964637E-01   9.9999998E-03  -3.0026948E-01
  6.7966002E-01   9.9999998E-03  -2.8025839E-01
  6.7967677E-01   9.9999998E-03  -2.6025215E-01
  6.7968655E-01   9.9999998E-03  -2.4022144E-01
  6.7969424E-01   9.9999998E-03  -2.2018178E-01
  6.7970365E-01   9.9999998E-03  -2.0015155E-01
  6.9969952E-01   9.9999998E-03  -3.0030397E-01
  6.9969034E-01   9.9999998E-03  -2.8029487E-01
  6.9969893E-01   9.9999998E-03  -2.6029637E-01
  6.9970572E-01   9.9999998E-03  -2.4026798E-01
  6.9970936E-01   9.9999998E-03  -2.2022533E-01
  6.9971633E-01   9.9999998E-03  -2.0018885E-01
  7.1978992E-01   9.9999998E-03  -3.0032846E-01
  7.1977490E-01   9.9999998E-03  -2.8031749E-01
  7.1976614E-01   9.9999998E-03  -2.6032180E-01
  7.1976280E-01   9.9999998E-03  -2.4029852E-01
  7.1976388E-01   9.9999998E-03  -2.2025758E-01
  7.1977007E-01   9.9999998E-03  -2.0021902E-01
  7.3987138E-01   9.9999998E-03  -3.0034474E-01
  7.3986059E-01   9.9999998E-03  -2.8032961E-01
  7.3985356E-01   9.9999998E-03  -2.6033074E-01
  7.3984963E-01   9.9999998E-03  -2.4030770E-01
  7.3984951E-01   9.9999998E-03  -2.2026831E-01
  7.3985320E-01   9.9999998E-03  -2.0023049E-01
  7.5993353E-01   9.9999998E-03  -3.0035570E-01
  7.5992680E-01   9.9999998E-03  -2.8033665E-01
  7.5992244E-01   9.9999998E-03  -2.6033422E-01
  7.5991946E-01   9.9999998E-03  -2.4031034E-01
  7.5991863E-01   9.9999998E-03  -2.2027242E-01
  7.5992000E-01   9.9999998E-03  -2.0023596E-01
  7.7997839E-01   9.9999998E-03  -3.0036256E-01
  7.7997535E-01   9.9999998E-03  -2.8034079E-01
  7.7997345E-01   9.9999998E-03  -2.6033568E-01
  7.7997160E-01   9.9999998E-03  -2.4031073E-01
  7.7997047E-01   9.9999998E-03  -2.2027339E-01
  7.7997035E-01   9.9999998E-03  -2.0023775E-01
  8.0001354E-01   9.9999998E-03  -3.0036575E-01
  8.0001378E-01   9.9999998E-03  -2.8034273E-01
  8.0001384E-01   9.9999998E-03  -2.6033613E-01
  8.0001324E-01   9.9999998E-03  -2.4031034E-01
  8.0001211E-01   9.9999998E-03  -2.2027265E-01
  8.0001092E-01   9.9999998E-03  -2.0023702E-01
  8.2004672E-01   9.9999998E-03  -3.0036545E-01
  8.2005000E-01   9.9999998E-03  -2.8034246E-01
  8.2005125E-01   9.9999998E-03  -2.6033571E-01
  8.2005179E-01   9.9999998E-03  -2.4030919E-01
  8.2005084E-01   9.9999998E-03  -2.2027053E-01
  8.2004875E-01   9.9999998E-03  -2.0023432E-01
  8.4008181E-01   9.9999998E-03  -3.0036044E-01
  8.4008759E-01   9.9999998E-03  -2.8033805E-01
  8.4008980E-01   9.9999998E-03  -2.6033139E-01
  8.4009117E-01   9.9999998E-03  -2.4030477E-01
  8.4009033E-01   9.9999998E-03  -2.2026573E-01
  8.4008729E-01   9.9999998E-03  -2.0022947E-01
  8.6011839E-01   9.9999998E-03  -3.0035082E-01
  8.6012650E-01   9.9999998E-03  -2.8032920E-01
  8.6012924E-01   9.9999998E-03  -2.6032245E-01
  8.6013126E-01   9.9999998E-03  -2.4029632E-01
  8.6013049E-01   9.9999998E-03  -2.2025785E-01
  8.6012626E-01   9.9999998E-03  -2.0022231E-01
  8.8015383E-01   9.9999998E-03  -3.0033711E-01
  8.8016385E-01   9.9999998E-03  -2.8031629E-01
  8.8016677E-01   9.9999998E-03  -2.6030916E-01
  8.8016951E-01   9.9999998E-03  -2.4028385E-01
  8.8016862E-01   9.9999998E-03  -2.2024688E-01
  8.8016319E-01   9.9999998E-03  -2.0021276E-01
  9.0018541E-01   9.9999998E-03  -3.0032003E-01
  9.0019667E-01   9.9999998E-03  -2.8029996E-01
  9.0019912E-01   9.9999998E-03  -2.6029196E-01
  9.0020227E-01   9.9999998E-03  -2.4026741E-01
  9.0020162E-01   9.9999998E-03  -2.2023277E-01
  9.0019524E-01   9.9999998E-03  -2.0020099E-01
  9.2021054E-01   9.9999998E-03  -3.0030021E-01
  9.2022187E-01   9.9999998E-03  -2.8028077E-01
  9.2022407E-01   9.9999998E-03  -2.6027191E-01
  9.2022711E-01   9.9999998E-03  -2.4024795E-01
  9.2022669E-01   9.9999998E-03  -2.2021599E-01
  9.2021859E-01   9.9999998E-03  -2.0018736E-01
  9.4022804E-01   9.9999998E-03  -3.0027848E-01
  9.4023943E-01   9.9999998E-03  -2.8026003E-01
  9.4024146E-01   9.9999998E-03  -2.6025042E-01
  9.4024372E-01   9.9999998E-03  -2.4022718E-01
  9.4023830E-01   9.9999998E-03  -2.2019845E-01
  9.4022560E-01   9.9999998E-03  -2.0017269E-01
  9.6024013E-01   9.9999998E-03  -3.0025566E-01
  9.6025127E-01   9.9999998E-03  -2.8023839E-01
  9.6025252E-01   9.9999998E-03  -2.6022840E-01
  9.6025068E-01   9.9999998E-03  -2.4020696E-01
  9.6023959E-01   9.9999998E-03  -2.2018118E-01
  9.6022499E-01   9.9999998E-03  -2.0015752E-01
  9.8025042E-01   9.9999998E-03  -3.0023256E-01
  9.8026007E-01   9.9999998E-03  -2.8021637E-01
  9.8025894E-01   9.9999998E-03  -2.6020664E-01
  9.8025149E-01   9.9999998E-03  -2.4018756E-01
  9.8023736E-01   9.9999998E-03  -2.2016385E-01
  9.8022181E-01   9.9999998E-03  -2.0014259E-01
  1.0002620E+00   9.9999998E-03  -3.0020967E-01
  1.0002676E+00   9.9999998E-03  -2.8019446E-01
  1.0002620E+00   9.9999998E-03  -2.6018575E-01
  1.0002502E+00   9.9999998E-03  -2.4016874E-01
  1.0002334E+00   9.9999998E-03  -2.2014682E-01
  1.0002172E+00   9.9999998E-03  -2.0012861E-01
  1.0202777E+00   9.9999998E-03  -3.0018765E-01
  1.0202754E+00   9.9999998E-03  -2.8017393E-01
  1.0202643E+00   9.9999998E-03  -2.6016623E-01
  1.0202483E+00   9.9999998E-03  -2.4015100E-01
  1.0202290E+00   9.9999998E-03  -2.2013164E-01
  1.0202121E+00   9.9999998E-03  -2.0011590E-01
  1.0403000E+00   9.9999998E-03  -3.0016863E-01
  1.0402857E+00   9.9999998E-03  -2.8015631E-01
  1.0402672E+00   9.9999998E-03  -2.6014882E-01
  1.0402465E+00   9.9999998E-03  -2.4013537E-01
  1.0402249E+00   9.9999998E-03  -2.2011843E-01
  1.0402066E+00   9.9999998E-03  -2.0010406E-01
  1.0603235E+00   9.9999998E-03  -3.0015394E-01
  1.0602980E+00   9.9999998E-03  -2.8014290E-01
  1.0602720E+00   9.9999998E-03  -2.6013494E-01
  1.0602455E+00   9.9999998E-03  -2.4012251E-01
  1.0602216E+00   9.9999998E-03  -2.2010693E-01
  1.0602012E+00   9.9999998E-03  -2.0009348E-01
  1.0803388E+00   9.9999998E-03  -3.0014181E-01
  1.0803075E+00   9.9999998E-03  -2.8013191E-01
  1.0802765E+00   9.9999998E-03  -2.6012319E-01
  1.0802456E+00   9.9999998E-03  -2.4011160E-01
  1.0802191E+00   9.9999998E-03  -2.2009724E-01
  1.0801966E+00   9.9999998E-03  -2.0008411E-01
  1.1003114E+00   9.9999998E-03  -2.8012207E-01
  1.1002793E+00   9.9999998E-03  -2.6011270E-01
  1.1002473E+00   9.9999998E-03  -2.4010241E-01
  1.1002178E+00   9.9999998E-03  -2.2008902E-01
  1.1001931E+00   9.9999998E-03  -2.0007606E-01
  1.1203099E+00   9.9999998E-03  -2.8011402E-01
  1.1202807E+00   9.9999998E-03  -2.6010469E-01
  1.1202496E+00   9.9999998E-03  -2.4009489E-01
  1.1202185E+00   9.9999998E-03  -2.2008246E-01
  1.1201912E+00   9.9999998E-03  -2.0006944E-01
  1.1402802E+00   9.9999998E-03  -2.6009941E-01
  1.1402520E+00   9.9999998E-03  -2.4008982E-01
  1.1402217E+00   9.9999998E-03  -2.2007853E-01
  1.1401918E+00   9.9999998E-03  -2.0006508E-01
  1.1602770E+00   9.9999998E-03  -2.6009560E-01
  1.1602541E+00   9.9999998E-03  -2.4008760E-01
  1.1602263E+00   9.9999998E-03  -2.2007695E-01
  1.1601962E+00   9.9999998E-03  -2.0006402E-01
  1.1802531E+00   9.9999998E-03  -2.4008618E-01
  1.1802306E+00   9.9999998E-03  -2.2007726E-01
  1.1802033E+00   9.9999998E-03  -2.0006570E-01
  1.2002317E+00   9.9999998E-03  -2.2007757E-01
  1.2002102E+00   9.9999998E-03  -2.0006837E-01
  1.2202255E+00   9.9999998E-03  -2.2007509E-01
  1.2202129E+00   9.9999998E-03  -2.0007023E-01
 -4.7979114E-07   9.9999998E-03  -1.8000005E-01
 -4.9415718E-07   9.9999998E-03  -1.6000004E-01
 -5.0329271E-07   9.9999998E-03  -1.4000003E-01
 -5.0872654E-07   9.9999998E-03  -1.2000003E-01
 -5.1161953E-07   9.9999998E-03  -1.0000002E-01
 -5.1287668E-07   9.9999998E-03  -8.0000013E-02
 -5.1323309E-07   9.9999998E-03  -6.0000010E-02
 -5.1316067E-07   9.9999998E-03  -4.0000007E-02
 -5.1299594E-07   9.9999998E-03  -2.0000003E-02
  1.9999301E-02   9.9999998E-03  -1.8000008E-01
  1.9999282E-02   9.9999998E-03  -1.6000006E-01
  1.9999271E-02   9.9999998E-03  -1.4000005E-01
  1.9999264E-02   9.9999998E-03  -1.2000003E-01
  1.9999262E-02   9.9999998E-03  -1.0000002E-01
  1.9999260E-02   9.9999998E-03  -8.0000021E-02
  1.9999260E-02   9.9999998E-03  -6.0000014E-02
  1.9999262E-02   9.9999998E-03  -4.0000007E-02
  1.9999262E-02   9.9999998E-03  -2.0000003E-02
  3.9999012E-02   9.9999998E-03  -1.8000010E-01
  3.9998990E-02   9.9999998E-03  -1.6000007E-01
  3.9998975E-02   9.9999998E-03  -1.4000006E-01
  3.9998967E-02   9.9999998E-03  -1.2000004E-01
  3.9998963E-02   9.9999998E-03  -1.0000003E-01
  3.9998963E-02   9.9999998E-03  -8.0000021E-02
  3.9998963E-02   9.9999998E-03  -6.0000017E-02
  3.9998967E-02   9.9999998E-03  -4.0000010E-02
  3.9998967E-02   9.9999998E-03  -2.0000005E-02
  5.9998661E-02   9.9999998E-03  -1.8000011E-01
  5.9998631E-02   9.9999998E-03  -1.6000009E-01
  5.9998617E-02   9.9999998E-03  -1.4000008E-01
  5.9998609E-02   9.9999998E-03  -1.2000005E-01
  5.9998605E-02   9.9999998E-03  -1.0000004E-01
  5.9998609E-02   9.9999998E-03  -8.0000028E-02
  5.9998609E-02   9.9999998E-03  -6.0000021E-02
  5.9998613E-02   9.9999998E-03  -4.0000010E-02
  5.9998617E-02   9.9999998E-03  -2.0000005E-02
  7.9998247E-02   9.9999998E-03  -1.8000013E-01
  7.9998210E-02   9.9999998E-03  -1.6000010E-01
  7.9998195E-02   9.9999998E-03  -1.4000008E-01
  7.9998188E-02   9.9999998E-03  -1.2000006E-01
  7.9998188E-02   9.9999998E-03  -1.0000005E-01
  7.9998188E-02   9.9999998E-03  -8.0000028E-02
  7.9998195E-02   9.9999998E-03  -6.0000021E-02
  7.9998203E-02   9.9999998E-03  -4.0000014E-02
  7.9998203E-02   9.9999998E-03  -2.0000007E-02
  9.9997744E-02   9.9999998E-03  -1.8000014E-01
  9.9997714E-02   9.9999998E-03  -1.6000012E-01
  9.9997692E-02   9.9999998E-03  -1.4000009E-01
  9.9997692E-02   9.9999998E-03  -1.2000006E-01
  9.9997692E-02   9.9999998E-03  -1.0000005E-01
  9.9997699E-02   9.9999998E-03  -8.0000035E-02
  9.9997707E-02   9.9999998E-03  -6.0000025E-02
  9.9997714E-02   9.9999998E-03  -4.0000014E-02
  9.9997722E-02   9.9999998E-03  -2.0000007E-02
  1.1999715E-01   9.9999998E-03  -1.8000016E-01
  1.1999711E-01   9.9999998E-03  -1.6000013E-01
  1.1999710E-01   9.9999998E-03  -1.4000009E-01
  1.1999710E-01   9.9999998E-03  -1.2000007E-01
  1.1999711E-01   9.9999998E-03  -1.0000005E-01
  1.1999712E-01   9.9999998E-03  -8.0000035E-02
  1.1999713E-01   9.9999998E-03  -6.0000025E-02
  1.1999714E-01   9.9999998E-03  -4.0000018E-02
  1.1999715E-01   9.9999998E-03  -2.0000007E-02
  1.3999642E-01   9.9999998E-03  -1.8000017E-01
  1.3999639E-01   9.9999998E-03  -1.6000015E-01
  1.3999638E-01   9.9999998E-03  -1.4000010E-01
  1.3999639E-01   9.9999998E-03  -1.2000009E-01
  1.3999641E-01   9.9999998E-03  -1.0000006E-01
  1.3999642E-01   9.9999998E-03  -8.0000043E-02
  1.3999644E-01   9.9999998E-03  -6.0000032E-02
  1.3999645E-01   9.9999998E-03  -4.0000018E-02
  1.3999647E-01   9.9999998E-03  -2.0000009E-02
  1.5999554E-01   9.9999998E-03  -1.8000022E-01
  1.5999551E-01   9.9999998E-03  -1.6000018E-01
  1.5999551E-01   9.9999998E-03  -1.4000013E-01
  1.5999553E-01   9.9999998E-03  -1.2000010E-01
  1.5999556E-01   9.9999998E-03  -1.0000008E-01
  1.5999559E-01   9.9999998E-03  -8.0000050E-02
  1.5999562E-01   9.9999998E-03  -6.0000036E-02
  1.5999563E-01   9.9999998E-03  -4.0000021E-02
  1.5999565E-01   9.9999998E-03  -2.0000011E-02
  1.7999448E-01   9.9999998E-03  -1.8000026E-01
  1.7999445E-01   9.9999998E-03  -1.6000022E-01
  1.7999446E-01   9.9999998E-03  -1.4000016E-01
  1.7999449E-01   9.9999998E-03  -1.2000012E-01
  1.7999454E-01   9.9999998E-03  -1.0000009E-01
  1.7999458E-01   9.9999998E-03  -8.0000065E-02
  1.7999461E-01   9.9999998E-03  -6.0000043E-02
  1.7999464E-01   9.9999998E-03  -4.0000029E-02
  1.7999466E-01   9.9999998E-03  -2.0000013E-02
  1.9999318E-01   9.9999998E-03  -1.8000033E-01
  1.9999318E-01   9.9999998E-03  -1.6000028E-01
  1.9999321E-01   9.9999998E-03  -1.4000021E-01
  1.9999325E-01   9.9999998E-03  -1.2000016E-01
  1.9999331E-01   9.9999998E-03  -1.0000012E-01
  1.9999337E-01   9.9999998E-03  -8.0000080E-02
  1.9999342E-01   9.9999998E-03  -6.0000055E-02
  1.9999345E-01   9.9999998E-03  -4.0000033E-02
  1.9999348E-01   9.9999998E-03  -2.0000016E-02
  2.1999161E-01   9.9999998E-03  -1.8000045E-01
  2.1999162E-01   9.9999998E-03  -1.6000037E-01
  2.1999168E-01   9.9999998E-03  -1.4000028E-01
  2.1999176E-01   9.9999998E-03  -1.2000021E-01
  2.1999183E-01   9.9999998E-03  -1.0000015E-01
  2.1999191E-01   9.9999998E-03  -8.0000110E-02
  2.1999198E-01   9.9999998E-03  -6.0000069E-02
  2.1999203E-01   9.9999998E-03  -4.0000044E-02
  2.1999206E-01   9.9999998E-03  -2.0000020E-02
  2.3998973E-01   9.9999998E-03  -1.8000060E-01
  2.3998977E-01   9.9999998E-03  -1.6000047E-01
  2.3998986E-01   9.9999998E-03  -1.4000037E-01
  2.3998997E-01   9.9999998E-03  -1.2000027E-01
  2.3999007E-01   9.9999998E-03  -1.0000020E-01
  2.3999017E-01   9.9999998E-03  -8.0000132E-02
  2.3999026E-01   9.9999998E-03  -6.0000088E-02
  2.3999032E-01   9.9999998E-03  -4.0000051E-02
  2.3999035E-01   9.9999998E-03  -2.0000024E-02
  2.5998744E-01   9.9999998E-03  -1.8000080E-01
  2.5998753E-01   9.9999998E-03  -1.6000062E-01
  2.5998768E-01   9.9999998E-03  -1.4000048E-01
  2.5998780E-01   9.9999998E-03  -1.2000035E-01
  2.5998795E-01   9.9999998E-03  -1.0000025E-01
  2.5998810E-01   9.9999998E-03  -8.0000170E-02
  2.5998822E-01   9.9999998E-03  -6.0000107E-02
  2.5998828E-01   9.9999998E-03  -4.0000062E-02
  2.5998834E-01   9.9999998E-03  -2.0000029E-02
  2.7998471E-01   9.9999998E-03  -1.8000104E-01
  2.7998486E-01   9.9999998E-03  -1.6000080E-01
  2.7998504E-01   9.9999998E-03  -1.4000060E-01
  2.7998525E-01   9.9999998E-03  -1.2000044E-01
  2.7998546E-01   9.9999998E-03  -1.0000031E-01
  2.7998561E-01   9.9999998E-03  -8.0000207E-02
  2.7998576E-01   9.9999998E-03  -6.0000129E-02
  2.7998587E-01   9.9999998E-03  -4.0000077E-02
  2.7998593E-01   9.9999998E-03  -2.0000035E-02
  2.9998145E-01   9.9999998E-03  -1.8000133E-01
  2.9998165E-01   9.9999998E-03  -1.6000101E-01
  2.9998192E-01   9.9999998E-03  -1.4000075E-01
  2.9998219E-01   9.9999998E-03  -1.2000053E-01
  2.9998246E-01   9.9999998E-03  -1.0000037E-01
  2.9998267E-01   9.9999998E-03  -8.0000244E-02
  2.9998288E-01   9.9999998E-03  -6.0000151E-02
  2.9998299E-01   9.9999998E-03  -4.0000089E-02
  2.9998308E-01   9.9999998E-03  -2.0000041E-02
  3.1997752E-01   9.9999998E-03  -1.8000168E-01
  3.1997785E-01   9.9999998E-03  -1.6000125E-01
  3.1997821E-01   9.9999998E-03  -1.4000091E-01
  3.1997856E-01   9.9999998E-03  -1.2000064E-01
  3.1997889E-01   9.9999998E-03  -1.0000043E-01
  3.1997919E-01   9.9999998E-03  -8.0000281E-02
  3.1997943E-01   9.9999998E-03  -6.0000174E-02
  3.1997961E-01   9.9999998E-03  -4.0000100E-02
  3.1997973E-01   9.9999998E-03  -2.0000044E-02
  3.3997285E-01   9.9999998E-03  -1.8000205E-01
  3.3997330E-01   9.9999998E-03  -1.6000152E-01
  3.3997378E-01   9.9999998E-03  -1.4000109E-01
  3.3997425E-01   9.9999998E-03  -1.2000076E-01
  3.3997470E-01   9.9999998E-03  -1.0000051E-01
  3.3997509E-01   9.9999998E-03  -8.0000326E-02
  3.3997539E-01   9.9999998E-03  -6.0000200E-02
  3.3997560E-01   9.9999998E-03  -4.0000111E-02
  3.3997574E-01   9.9999998E-03  -2.0000050E-02
  3.5996732E-01   9.9999998E-03  -1.8000245E-01
  3.5996792E-01   9.9999998E-03  -1.6000180E-01
  3.5996854E-01   9.9999998E-03  -1.4000128E-01
  3.5996917E-01   9.9999998E-03  -1.2000088E-01
  3.5996974E-01   9.9999998E-03  -1.0000059E-01
  3.5997021E-01   9.9999998E-03  -8.0000378E-02
  3.5997060E-01   9.9999998E-03  -6.0000230E-02
  3.5997087E-01   9.9999998E-03  -4.0000126E-02
  3.5997105E-01   9.9999998E-03  -2.0000057E-02
  3.7996075E-01   9.9999998E-03  -1.8000291E-01
  3.7996155E-01   9.9999998E-03  -1.6000213E-01
  3.7996238E-01   9.9999998E-03  -1.4000151E-01
  3.7996316E-01   9.9999998E-03  -1.2000104E-01
  3.7996387E-01   9.9999998E-03  -1.0000069E-01
  3.7996450E-01   9.9999998E-03  -8.0000445E-02
  3.7996498E-01   9.9999998E-03  -6.0000274E-02
  3.7996534E-01   9.9999998E-03  -4.0000156E-02
  3.7996554E-01   9.9999998E-03  -2.0000070E-02
  3.9995301E-01   9.9999998E-03  -1.8000342E-01
  3.9995405E-01   9.9999998E-03  -1.6000250E-01
  3.9995512E-01   9.9999998E-03  -1.4000179E-01
  3.9995614E-01   9.9999998E-03  -1.2000124E-01
  3.9995706E-01   9.9999998E-03  -1.0000085E-01
  3.9995781E-01   9.9999998E-03  -8.0000564E-02
  3.9995840E-01   9.9999998E-03  -6.0000356E-02
  3.9995885E-01   9.9999998E-03  -4.0000211E-02
  3.9995909E-01   9.9999998E-03  -2.0000096E-02
  4.1994393E-01   9.9999998E-03  -1.8000403E-01
  4.1994530E-01   9.9999998E-03  -1.6000299E-01
  4.1994667E-01   9.9999998E-03  -1.4000218E-01
  4.1994795E-01   9.9999998E-03  -1.2000155E-01
  4.1994908E-01   9.9999998E-03  -1.0000110E-01
  4.1995004E-01   9.9999998E-03  -8.0000766E-02
  4.1995078E-01   9.9999998E-03  -6.0000509E-02
  4.1995129E-01   9.9999998E-03  -4.0000312E-02
  4.1995162E-01   9.9999998E-03  -2.0000149E-02
  4.3993333E-01   9.9999998E-03  -1.8000482E-01
  4.3993512E-01   9.9999998E-03  -1.6000366E-01
  4.3993688E-01   9.9999998E-03  -1.4000276E-01
  4.3993849E-01   9.9999998E-03  -1.2000206E-01
  4.3993989E-01   9.9999998E-03  -1.0000153E-01
  4.3994102E-01   9.9999998E-03  -8.0001116E-02
  4.3994194E-01   9.9999998E-03  -6.0000781E-02
  4.3994257E-01   9.9999998E-03  -4.0000498E-02
  4.3994296E-01   9.9999998E-03  -2.0000244E-02
  4.5992097E-01   9.9999998E-03  -1.8000594E-01
  4.5992327E-01   9.9999998E-03  -1.6000468E-01
  4.5992547E-01   9.9999998E-03  -1.4000367E-01
  4.5992747E-01   9.9999998E-03  -1.2000288E-01
  4.5992920E-01   9.9999998E-03  -1.0000224E-01
  4.5993060E-01   9.9999998E-03  -8.0001704E-02
  4.5993167E-01   9.9999998E-03  -6.0001239E-02
  4.5993242E-01   9.9999998E-03  -4.0000811E-02
  4.5993289E-01   9.9999998E-03  -2.0000402E-02
  4.7990662E-01   9.9999998E-03  -1.8000761E-01
  4.7990951E-01   9.9999998E-03  -1.6000625E-01
  4.7991225E-01   9.9999998E-03  -1.4000514E-01
  4.7991470E-01   9.9999998E-03  -1.2000419E-01
  4.7991678E-01   9.9999998E-03  -1.0000338E-01
  4.7991845E-01   9.9999998E-03  -8.0002651E-02
  4.7991973E-01   9.9999998E-03  -6.0001969E-02
  4.7992063E-01   9.9999998E-03  -4.0001310E-02
  4.7992116E-01   9.9999998E-03  -2.0000657E-02
  4.9988994E-01   9.9999998E-03  -1.8001017E-01
  4.9989355E-01   9.9999998E-03  -1.6000870E-01
  4.9989691E-01   9.9999998E-03  -1.4000741E-01
  4.9989989E-01   9.9999998E-03  -1.2000622E-01
  4.9990237E-01   9.9999998E-03  -1.0000512E-01
  4.9990433E-01   9.9999998E-03  -8.0004074E-02
  4.9990585E-01   9.9999998E-03  -6.0003065E-02
  4.9990690E-01   9.9999998E-03  -4.0002052E-02
  4.9990749E-01   9.9999998E-03  -2.0001030E-02
  5.1987082E-01   9.9999998E-03  -1.8001407E-01
  5.1987523E-01   9.9999998E-03  -1.6001239E-01
  5.1987922E-01   9.9999998E-03  -1.4001079E-01
  5.1988274E-01   9.9999998E-03  -1.2000920E-01
  5.1988572E-01   9.9999998E-03  -1.0000765E-01
  5.1988798E-01   9.9999998E-03  -8.0006130E-02
  5.1988971E-01   9.9999998E-03  -6.0004614E-02
  5.1989090E-01   9.9999998E-03  -4.0003091E-02
  5.1989162E-01   9.9999998E-03  -2.0001553E-02
  5.3984922E-01   9.9999998E-03  -1.8001980E-01
  5.3985447E-01   9.9999998E-03  -1.6001774E-01
  5.3985918E-01   9.9999998E-03  -1.4001557E-01
  5.3986329E-01   9.9999998E-03  -1.2001334E-01
  5.3986669E-01   9.9999998E-03  -1.0001110E-01
  5.3986931E-01   9.9999998E-03  -8.0008887E-02
  5.3987128E-01   9.9999998E-03  -6.0006682E-02
  5.3987265E-01   9.9999998E-03  -4.0004473E-02
  5.3987342E-01   9.9999998E-03  -2.0002244E-02
  5.5982566E-01   9.9999998E-03  -1.8002787E-01
  5.5983162E-01   9.9999998E-03  -1.6002509E-01
  5.5983704E-01   9.9999998E-03  -1.4002204E-01
  5.5984175E-01   9.9999998E-03  -1.2001885E-01
  5.5984563E-01   9.9999998E-03  -1.0001566E-01
  5.5984861E-01   9.9999998E-03  -8.0012485E-02
  5.5985087E-01   9.9999998E-03  -6.0009342E-02
  5.5985236E-01   9.9999998E-03  -4.0006220E-02
  5.5985326E-01   9.9999998E-03  -2.0003108E-02
  5.7980096E-01   9.9999998E-03  -1.8003850E-01
  5.7980764E-01   9.9999998E-03  -1.6003449E-01
  5.7981378E-01   9.9999998E-03  -1.4003021E-01
  5.7981908E-01   9.9999998E-03  -1.2002573E-01
  5.7982343E-01   9.9999998E-03  -1.0002123E-01
  5.7982677E-01   9.9999998E-03  -8.0016807E-02
  5.7982928E-01   9.9999998E-03  -6.0012490E-02
  5.7983094E-01   9.9999998E-03  -4.0008277E-02
  5.7983196E-01   9.9999998E-03  -2.0004127E-02
  5.9977639E-01   9.9999998E-03  -1.8005106E-01
  5.9978402E-01   9.9999998E-03  -1.6004573E-01
  5.9979093E-01   9.9999998E-03  -1.4004000E-01
  5.9979683E-01   9.9999998E-03  -1.2003389E-01
  5.9980160E-01   9.9999998E-03  -1.0002775E-01
  5.9980530E-01   9.9999998E-03  -8.0021791E-02
  5.9980804E-01   9.9999998E-03  -6.0016099E-02
  5.9980994E-01   9.9999998E-03  -4.0010639E-02
  5.9981108E-01   9.9999998E-03  -2.0005299E-02
  6.1975342E-01   9.9999998E-03  -1.8006577E-01
  6.1976206E-01   9.9999998E-03  -1.6005893E-01
  6.1976969E-01   9.9999998E-03  -1.4005139E-01
  6.1977613E-01   9.9999998E-03  -1.2004329E-01
  6.1978132E-01   9.9999998E-03  -1.0003518E-01
  6.1978543E-01   9.9999998E-03  -8.0027431E-02
  6.1978853E-01   9.9999998E-03  -6.0020160E-02
  6.1979067E-01   9.9999998E-03  -4.0013269E-02
  6.1979192E-01   9.9999998E-03  -2.0006595E-02
  6.3973355E-01   9.9999998E-03  -1.8008289E-01
  6.3974297E-01   9.9999998E-03  -1.6007394E-01
  6.3975114E-01   9.9999998E-03  -1.4006406E-01
  6.3975805E-01   9.9999998E-03  -1.2005346E-01
  6.3976377E-01   9.9999998E-03  -1.0004300E-01
  6.3976836E-01   9.9999998E-03  -8.0033273E-02
  6.3977176E-01   9.9999998E-03  -6.0024347E-02
  6.3977420E-01   9.9999998E-03  -4.0016003E-02
  6.3977563E-01   9.9999998E-03  -2.0007951E-02
  6.5971923E-01   9.9999998E-03  -1.8010406E-01
  6.5972894E-01   9.9999998E-03  -1.6009206E-01
  6.5973729E-01   9.9999998E-03  -1.4007930E-01
  6.5974432E-01   9.9999998E-03  -1.2006572E-01
  6.5975034E-01   9.9999998E-03  -1.0005251E-01
  6.5975523E-01   9.9999998E-03  -8.0040388E-02
  6.5975899E-01   9.9999998E-03  -6.0029417E-02
  6.5976167E-01   9.9999998E-03  -4.0019277E-02
  6.5976322E-01   9.9999998E-03  -2.0009561E-02
  6.7971396E-01   9.9999998E-03  -1.8013136E-01
  6.7972356E-01   9.9999998E-03  -1.6011529E-01
  6.7973179E-01   9.9999998E-03  -1.4009890E-01
  6.7973882E-01   9.9999998E-03  -1.2008161E-01
  6.7974478E-01   9.9999998E-03  -1.0006484E-01
  6.7974979E-01   9.9999998E-03  -8.0049552E-02
  6.7975366E-01   9.9999998E-03  -6.0035914E-02
  6.7975640E-01   9.9999998E-03  -4.0023472E-02
  6.7975807E-01   9.9999998E-03  -2.0011622E-02
  6.9972551E-01   9.9999998E-03  -1.8016297E-01
  6.9973445E-01   9.9999998E-03  -1.6014239E-01
  6.9974196E-01   9.9999998E-03  -1.4012119E-01
  6.9974840E-01   9.9999998E-03  -1.2009887E-01
  6.9975400E-01   9.9999998E-03  -1.0007760E-01
  6.9975877E-01   9.9999998E-03  -8.0058634E-02
  6.9976252E-01   9.9999998E-03  -6.0042094E-02
  6.9976521E-01   9.9999998E-03  -4.0027332E-02
  6.9976681E-01   9.9999998E-03  -2.0013502E-02
  7.1977866E-01   9.9999998E-03  -1.8018974E-01
  7.1978742E-01   9.9999998E-03  -1.6016571E-01
  7.1979541E-01   9.9999998E-03  -1.4014034E-01
  7.1980226E-01   9.9999998E-03  -1.2011375E-01
  7.1980798E-01   9.9999998E-03  -1.0008880E-01
  7.1981251E-01   9.9999998E-03  -8.0066822E-02
  7.1981591E-01   9.9999998E-03  -6.0047828E-02
  7.1981835E-01   9.9999998E-03  -4.0031001E-02
  7.1981978E-01   9.9999998E-03  -2.0015303E-02
  7.3985881E-01   9.9999998E-03  -1.8020126E-01
  7.3986477E-01   9.9999998E-03  -1.6017658E-01
  7.3987037E-01   9.9999998E-03  -1.4015001E-01
  7.3987526E-01   9.9999998E-03  -1.2012194E-01
  7.3987937E-01   9.9999998E-03  -1.0009547E-01
  7.3988271E-01   9.9999998E-03  -8.0072030E-02
  7.3988521E-01   9.9999998E-03  -6.0051683E-02
  7.3988700E-01   9.9999998E-03  -4.0033560E-02
  7.3988813E-01   9.9999998E-03  -2.0016586E-02
  7.5992280E-01   9.9999998E-03  -1.8020755E-01
  7.5992596E-01   9.9999998E-03  -1.6018303E-01
  7.5992918E-01   9.9999998E-03  -1.4015608E-01
  7.5993210E-01   9.9999998E-03  -1.2012727E-01
  7.5993460E-01   9.9999998E-03  -1.0009991E-01
  7.5993663E-01   9.9999998E-03  -8.0075569E-02
  7.5993824E-01   9.9999998E-03  -6.0054347E-02
  7.5993943E-01   9.9999998E-03  -4.0035356E-02
  7.5994015E-01   9.9999998E-03  -2.0017495E-02
  7.7997094E-01   9.9999998E-03  -1.8021011E-01
  7.7997196E-01   9.9999998E-03  -1.6018601E-01
  7.7997315E-01   9.9999998E-03  -1.4015909E-01
  7.7997434E-01   9.9999998E-03  -1.2013002E-01
  7.7997535E-01   9.9999998E-03  -1.0010228E-01
  7.7997625E-01   9.9999998E-03  -8.0077514E-02
  7.7997702E-01   9.9999998E-03  -6.0055852E-02
  7.7997756E-01   9.9999998E-03  -4.0036399E-02
  7.7997792E-01   9.9999998E-03  -2.0018028E-02
  8.0000997E-01   9.9999998E-03  -1.8020989E-01
  8.0000919E-01   9.9999998E-03  -1.6018622E-01
  8.0000865E-01   9.9999998E-03  -1.4015952E-01
  8.0000830E-01   9.9999998E-03  -1.2013055E-01
  8.0000806E-01   9.9999998E-03  -1.0010283E-01
  8.0000794E-01   9.9999998E-03  -8.0078036E-02
  8.0000794E-01   9.9999998E-03  -6.0056310E-02
  8.0000794E-01   9.9999998E-03  -4.0036742E-02
  8.0000794E-01   9.9999998E-03  -2.0018214E-02
  8.2004631E-01   9.9999998E-03  -1.8020745E-01
  8.2004404E-01   9.9999998E-03  -1.6018414E-01
  8.2004195E-01   9.9999998E-03  -1.4015782E-01
  8.2004029E-01   9.9999998E-03  -1.2012921E-01
  8.2003897E-01   9.9999998E-03  -1.0010182E-01
  8.2003796E-01   9.9999998E-03  -8.0077328E-02
  8.2003725E-01   9.9999998E-03  -6.0055848E-02
  8.2003677E-01   9.9999998E-03  -4.0036473E-02
  8.2003647E-01   9.9999998E-03  -2.0018095E-02
  8.4008342E-01   9.9999998E-03  -1.8020296E-01
  8.4007961E-01   9.9999998E-03  -1.6018008E-01
  8.4007615E-01   9.9999998E-03  -1.4015429E-01
  8.4007329E-01   9.9999998E-03  -1.2012628E-01
  8.4007090E-01   9.9999998E-03  -1.0009950E-01
  8.4006912E-01   9.9999998E-03  -8.0075577E-02
  8.4006780E-01   9.9999998E-03  -6.0054611E-02
  8.4006691E-01   9.9999998E-03  -4.0035684E-02
  8.4006637E-01   9.9999998E-03  -2.0017710E-02
  8.6012089E-01   9.9999998E-03  -1.8019642E-01
  8.6011553E-01   9.9999998E-03  -1.6017415E-01
  8.6011076E-01   9.9999998E-03  -1.4014909E-01
  8.6010677E-01   9.9999998E-03  -1.2012193E-01
  8.6010349E-01   9.9999998E-03  -1.0009602E-01
  8.6010098E-01   9.9999998E-03  -8.0072924E-02
  8.6009914E-01   9.9999998E-03  -6.0052693E-02
  8.6009789E-01   9.9999998E-03  -4.0034436E-02
  8.6009711E-01   9.9999998E-03  -2.0017093E-02
  8.8015634E-01   9.9999998E-03  -1.8018788E-01
  8.8014954E-01   9.9999998E-03  -1.6016644E-01
  8.8014352E-01   9.9999998E-03  -1.4014237E-01
  8.8013846E-01   9.9999998E-03  -1.2011633E-01
  8.8013440E-01   9.9999998E-03  -1.0009154E-01
  8.8013130E-01   9.9999998E-03  -8.0069475E-02
  8.8012898E-01   9.9999998E-03  -6.0050186E-02
  8.8012737E-01   9.9999998E-03  -4.0032793E-02
  8.8012642E-01   9.9999998E-03  -2.0016277E-02
  9.0018702E-01   9.9999998E-03  -1.8017747E-01
  9.0017891E-01   9.9999998E-03  -1.6015711E-01
  9.0017182E-01   9.9999998E-03  -1.4013429E-01
  9.0016586E-01   9.9999998E-03  -1.2010962E-01
  9.0016109E-01   9.9999998E-03  -1.0008616E-01
  9.0015739E-01   9.9999998E-03  -8.0065340E-02
  9.0015459E-01   9.9999998E-03  -6.0047168E-02
  9.0015268E-01   9.9999998E-03  -4.0030811E-02
  9.0015155E-01   9.9999998E-03  -2.0015292E-02
  9.2020774E-01   9.9999998E-03  -1.8016554E-01
  9.2019737E-01   9.9999998E-03  -1.6014650E-01
  9.2018861E-01   9.9999998E-03  -1.4012511E-01
  9.2018133E-01   9.9999998E-03  -1.2010205E-01
  9.2017537E-01   9.9999998E-03  -1.0008020E-01
  9.2017061E-01   9.9999998E-03  -8.0060855E-02
  9.2016703E-01   9.9999998E-03  -6.0043979E-02
  9.2016453E-01   9.9999998E-03  -4.0028762E-02
  9.2016304E-01   9.9999998E-03  -2.0014288E-02
  9.4021249E-01   9.9999998E-03  -1.8015277E-01
  9.4020104E-01   9.9999998E-03  -1.6013509E-01
  9.4019157E-01   9.9999998E-03  -1.4011528E-01
  9.4018376E-01   9.9999998E-03  -1.2009400E-01
  9.4017738E-01   9.9999998E-03  -1.0007392E-01
  9.4017231E-01   9.9999998E-03  -8.0056161E-02
  9.4016850E-01   9.9999998E-03  -6.0040656E-02
  9.4016582E-01   9.9999998E-03  -4.0026631E-02
  9.4016421E-01   9.9999998E-03  -2.0013237E-02
  9.6021140E-01   9.9999998E-03  -1.8013965E-01
  9.6019971E-01   9.9999998E-03  -1.6012338E-01
  9.6019000E-01   9.9999998E-03  -1.4010517E-01
  9.6018201E-01   9.9999998E-03  -1.2008575E-01
  9.6017557E-01   9.9999998E-03  -1.0006744E-01
  9.6017045E-01   9.9999998E-03  -8.0051228E-02
  9.6016663E-01   9.9999998E-03  -6.0037080E-02
  9.6016395E-01   9.9999998E-03  -4.0024277E-02
  9.6016240E-01   9.9999998E-03  -2.0012066E-02
  9.8020780E-01   9.9999998E-03  -1.8012671E-01
  9.8019594E-01   9.9999998E-03  -1.6011186E-01
  9.8018616E-01   9.9999998E-03  -1.4009528E-01
  9.8017818E-01   9.9999998E-03  -1.2007765E-01
  9.8017174E-01   9.9999998E-03  -1.0006105E-01
  9.8016673E-01   9.9999998E-03  -8.0046393E-02
  9.8016298E-01   9.9999998E-03  -6.0033582E-02
  9.8016042E-01   9.9999998E-03  -4.0021982E-02
  9.8015893E-01   9.9999998E-03  -2.0010917E-02
  1.0002030E+00   9.9999998E-03  -1.8011452E-01
  1.0001910E+00   9.9999998E-03  -1.6010116E-01
  1.0001811E+00   9.9999998E-03  -1.4008613E-01
  1.0001731E+00   9.9999998E-03  -1.2007029E-01
  1.0001668E+00   9.9999998E-03  -1.0005531E-01
  1.0001620E+00   9.9999998E-03  -8.0042027E-02
  1.0001584E+00   9.9999998E-03  -6.0030404E-02
  1.0001559E+00   9.9999998E-03  -4.0019885E-02
  1.0001544E+00   9.9999998E-03  -2.0009864E-02
  1.0201976E+00   9.9999998E-03  -1.8010305E-01
  1.0201854E+00   9.9999998E-03  -1.6009110E-01
  1.0201752E+00   9.9999998E-03  -1.4007765E-01
  1.0201672E+00   9.9999998E-03  -1.2006346E-01
  1.0201610E+00   9.9999998E-03  -1.0004998E-01
  1.0201563E+00   9.9999998E-03  -8.0038026E-02
  1.0201528E+00   9.9999998E-03  -6.0027529E-02
  1.0201504E+00   9.9999998E-03  -4.0017981E-02
  1.0201491E+00   9.9999998E-03  -2.0008907E-02
  1.0401917E+00   9.9999998E-03  -1.8009271E-01
  1.0401789E+00   9.9999998E-03  -1.6008160E-01
  1.0401686E+00   9.9999998E-03  -1.4006981E-01
  1.0401605E+00   9.9999998E-03  -1.2005722E-01
  1.0401543E+00   9.9999998E-03  -1.0004522E-01
  1.0401498E+00   9.9999998E-03  -8.0034472E-02
  1.0401465E+00   9.9999998E-03  -6.0024954E-02
  1.0401442E+00   9.9999998E-03  -4.0016271E-02
  1.0401428E+00   9.9999998E-03  -2.0008046E-02
  1.0601852E+00   9.9999998E-03  -1.8008302E-01
  1.0601721E+00   9.9999998E-03  -1.6007282E-01
  1.0601616E+00   9.9999998E-03  -1.4006241E-01
  1.0601534E+00   9.9999998E-03  -1.2005153E-01
  1.0601472E+00   9.9999998E-03  -1.0004096E-01
  1.0601426E+00   9.9999998E-03  -8.0031328E-02
  1.0601394E+00   9.9999998E-03  -6.0022671E-02
  1.0601372E+00   9.9999998E-03  -4.0014759E-02
  1.0601360E+00   9.9999998E-03  -2.0007279E-02
  1.0801790E+00   9.9999998E-03  -1.8007387E-01
  1.0801654E+00   9.9999998E-03  -1.6006495E-01
  1.0801544E+00   9.9999998E-03  -1.4005557E-01
  1.0801461E+00   9.9999998E-03  -1.2004633E-01
  1.0801399E+00   9.9999998E-03  -1.0003710E-01
  1.0801353E+00   9.9999998E-03  -8.0028534E-02
  1.0801321E+00   9.9999998E-03  -6.0020678E-02
  1.0801299E+00   9.9999998E-03  -4.0013444E-02
  1.0801287E+00   9.9999998E-03  -2.0006619E-02
  1.1001736E+00   9.9999998E-03  -1.8006560E-01
  1.1001588E+00   9.9999998E-03  -1.6005707E-01
  1.1001477E+00   9.9999998E-03  -1.4004932E-01
  1.1001390E+00   9.9999998E-03  -1.2004133E-01
  1.1001327E+00   9.9999998E-03  -1.0003360E-01
  1.1001281E+00   9.9999998E-03  -8.0025978E-02
  1.1001248E+00   9.9999998E-03  -6.0018908E-02
  1.1001227E+00   9.9999998E-03  -4.0012293E-02
  1.1001215E+00   9.9999998E-03  -2.0006049E-02
  1.1201698E+00   9.9999998E-03  -1.8005861E-01
  1.1201535E+00   9.9999998E-03  -1.6005000E-01
  1.1201415E+00   9.9999998E-03  -1.4004292E-01
  1.1201327E+00   9.9999998E-03  -1.2003650E-01
  1.1201260E+00   9.9999998E-03  -1.0002991E-01
  1.1201214E+00   9.9999998E-03  -8.0023549E-02
  1.1201180E+00   9.9999998E-03  -6.0017228E-02
  1.1201159E+00   9.9999998E-03  -4.0011264E-02
  1.1201147E+00   9.9999998E-03  -2.0005547E-02
  1.1401677E+00   9.9999998E-03  -1.8005334E-01
  1.1401497E+00   9.9999998E-03  -1.6004421E-01
  1.1401365E+00   9.9999998E-03  -1.4003725E-01
  1.1401269E+00   9.9999998E-03  -1.2003151E-01
  1.1401203E+00   9.9999998E-03  -1.0002628E-01
  1.1401154E+00   9.9999998E-03  -8.0020815E-02
  1.1401119E+00   9.9999998E-03  -6.0015492E-02
  1.1401098E+00   9.9999998E-03  -4.0010192E-02
  1.1401085E+00   9.9999998E-03  -2.0005057E-02
  1.1601686E+00   9.9999998E-03  -1.8005082E-01
  1.1601480E+00   9.9999998E-03  -1.6004044E-01
  1.1601331E+00   9.9999998E-03  -1.4003283E-01
  1.1601226E+00   9.9999998E-03  -1.2002719E-01
  1.1601152E+00   9.9999998E-03  -1.0002244E-01
  1.1601102E+00   9.9999998E-03  -8.0018058E-02
  1.1601067E+00   9.9999998E-03  -6.0013484E-02
  1.1601044E+00   9.9999998E-03  -4.0008973E-02
  1.1601031E+00   9.9999998E-03  -2.0004496E-02
  1.1801752E+00   9.9999998E-03  -1.8005247E-01
  1.1801503E+00   9.9999998E-03  -1.6004008E-01
  1.1801323E+00   9.9999998E-03  -1.4003073E-01
  1.1801200E+00   9.9999998E-03  -1.2002421E-01
  1.1801116E+00   9.9999998E-03  -1.0001943E-01
  1.1801059E+00   9.9999998E-03  -8.0015279E-02
  1.1801021E+00   9.9999998E-03  -6.0011439E-02
  1.1800998E+00   9.9999998E-03  -4.0007662E-02
  1.1800984E+00   9.9999998E-03  -2.0003822E-02
  1.2001851E+00   9.9999998E-03  -1.8005662E-01
  1.2001593E+00   9.9999998E-03  -1.6004439E-01
  1.2001367E+00   9.9999998E-03  -1.4003301E-01
  1.2001204E+00   9.9999998E-03  -1.2002416E-01
  1.2001100E+00   9.9999998E-03  -1.0001810E-01
  1.2001033E+00   9.9999998E-03  -8.0013715E-02
  1.2000989E+00   9.9999998E-03  -6.0009897E-02
  1.2000961E+00   9.9999998E-03  -4.0006451E-02
  1.2000947E+00   9.9999998E-03  -2.0003188E-02
  1.2201935E+00   9.9999998E-03  -1.8006085E-01
  1.2201718E+00   9.9999998E-03  -1.6005032E-01
  1.2201490E+00   9.9999998E-03  -1.4003950E-01
  1.2201284E+00   9.9999998E-03  -1.2002945E-01
  1.2201130E+00   9.9999998E-03  -1.0002091E-01
  1.2201034E+00   9.9999998E-03  -8.0014594E-02
  1.2200975E+00   9.9999998E-03  -6.0009915E-02
  1.2200942E+00   9.9999998E-03  -4.0006254E-02
  1.2200924E+00   9.9999998E-03  -2.0003036E-02
  1.2401936E+00   9.9999998E-03  -1.8006246E-01
  1.2401789E+00   9.9999998E-03  -1.6005473E-01
  1.2401623E+00   9.9999998E-03  -1.4004602E-01
  1.2401447E+00   9.9999998E-03  -1.2003703E-01
  1.2401271E+00   9.9999998E-03  -1.0002848E-01
  1.2401124E+00   9.9999998E-03  -8.0020577E-02
  1.2401025E+00   9.9999998E-03  -6.0013641E-02
  1.2400968E+00   9.9999998E-03  -4.0008157E-02
  1.2400941E+00   9.9999998E-03  -2.0003781E-02
  1.2601759E+00   9.9999998E-03  -1.6005580E-01
  1.2601659E+00   9.9999998E-03  -1.4004982E-01
  1.2601551E+00   9.9999998E-03  -1.2004283E-01
  1.2601436E+00   9.9999998E-03  -1.0003508E-01
  1.2601329E+00   9.9999998E-03  -8.0026686E-02
  1.2601235E+00   9.9999998E-03  -6.0018398E-02
  1.2601171E+00   9.9999998E-03  -4.0011078E-02
  1.2601134E+00   9.9999998E-03  -2.0005103E-02
  1.2801533E+00   9.9999998E-03  -1.2004565E-01
  1.2801472E+00   9.9999998E-03  -1.0003963E-01
  1.2801412E+00   9.9999998E-03  -8.0031320E-02
  1.2801374E+00   9.9999998E-03  -6.0021728E-02
  1.2801349E+00   9.9999998E-03  -4.0012911E-02
  1.2801334E+00   9.9999998E-03  -2.0005880E-02
  1.3001369E+00   9.9999998E-03  -8.0034524E-02
  1.3001347E+00   9.9999998E-03  -6.0024735E-02
  1.3001339E+00   9.9999998E-03  -4.0014740E-02
  1.3001336E+00   9.9999998E-03  -2.0006634E-02
 -5.1292119E-07   9.9999998E-03  -1.1443483E-14
 -5.1299594E-07   9.9999998E-03   2.0000003E-02
 -5.1316067E-07   9.9999998E-03   4.0000007E-02
 -5.1323315E-07   9.9999998E-03   6.0000010E-02
 -5.1287697E-07   9.9999998E-03   8.0000013E-02
 -5.1161953E-07   9.9999998E-03   1.0000002E-01
 -5.0872666E-07   9.9999998E-03   1.2000003E-01
 -5.0329282E-07   9.9999998E-03   1.4000003E-01
  1.9999262E-02   9.9999998E-03  -3.0026285E-14
  1.9999262E-02   9.9999998E-03   2.0000003E-02
  1.9999262E-02   9.9999998E-03   4.0000007E-02
  1.9999260E-02   9.9999998E-03   6.0000014E-02
  1.9999260E-02   9.9999998E-03   8.0000021E-02
  1.9999262E-02   9.9999998E-03   1.0000002E-01
  1.9999264E-02   9.9999998E-03   1.2000003E-01
  1.9999271E-02   9.9999998E-03   1.4000005E-01
  3.9998967E-02   9.9999998E-03   9.1850415E-15
  3.9998967E-02   9.9999998E-03   2.0000005E-02
  3.9998967E-02   9.9999998E-03   4.0000010E-02
  3.9998963E-02   9.9999998E-03   6.0000017E-02
  3.9998963E-02   9.9999998E-03   8.0000021E-02
  3.9998963E-02   9.9999998E-03   1.0000003E-01
  3.9998967E-02   9.9999998E-03   1.2000004E-01
  3.9998975E-02   9.9999998E-03   1.4000006E-01
  5.9998617E-02   9.9999998E-03  -6.5814487E-14
  5.9998617E-02   9.9999998E-03   2.0000005E-02
  5.9998613E-02   9.9999998E-03   4.0000010E-02
  5.9998609E-02   9.9999998E-03   6.0000021E-02
  5.9998609E-02   9.9999998E-03   8.0000028E-02
  5.9998605E-02   9.9999998E-03   1.0000004E-01
  5.9998609E-02   9.9999998E-03   1.2000005E-01
  5.9998617E-02   9.9999998E-03   1.4000008E-01
  7.9998203E-02   9.9999998E-03  -5.1760954E-14
  7.9998203E-02   9.9999998E-03   2.0000007E-02
  7.9998203E-02   9.9999998E-03   4.0000014E-02
  7.9998195E-02   9.9999998E-03   6.0000021E-02
  7.9998188E-02   9.9999998E-03   8.0000028E-02
  7.9998188E-02   9.9999998E-03   1.0000005E-01
  7.9998188E-02   9.9999998E-03   1.2000006E-01
  7.9998195E-02   9.9999998E-03   1.4000008E-01
  9.9997722E-02   9.9999998E-03  -3.7582330E-14
  9.9997722E-02   9.9999998E-03   2.0000007E-02
  9.9997714E-02   9.9999998E-03   4.0000014E-02
  9.9997707E-02   9.9999998E-03   6.0000025E-02
  9.9997699E-02   9.9999998E-03   8.0000035E-02
  9.9997692E-02   9.9999998E-03   1.0000005E-01
  9.9997692E-02   9.9999998E-03   1.2000006E-01
  9.9997692E-02   9.9999998E-03   1.4000009E-01
  1.1999715E-01   9.9999998E-03  -6.0812276E-14
  1.1999715E-01   9.9999998E-03   2.0000007E-02
  1.1999714E-01   9.9999998E-03   4.0000018E-02
  1.1999713E-01   9.9999998E-03   6.0000025E-02
  1.1999712E-01   9.9999998E-03   8.0000035E-02
  1.1999711E-01   9.9999998E-03   1.0000005E-01
  1.1999710E-01   9.9999998E-03   1.2000007E-01
  1.1999710E-01   9.9999998E-03   1.4000009E-01
  1.3999647E-01   9.9999998E-03  -7.1953267E-14
  1.3999647E-01   9.9999998E-03   2.0000009E-02
  1.3999645E-01   9.9999998E-03   4.0000018E-02
  1.3999644E-01   9.9999998E-03   6.0000032E-02
  1.3999642E-01   9.9999998E-03   8.0000043E-02
  1.3999641E-01   9.9999998E-03   1.0000006E-01
  1.3999639E-01   9.9999998E-03   1.2000009E-01
  1.3999638E-01   9.9999998E-03   1.4000010E-01
  1.5999565E-01   9.9999998E-03  -1.0573392E-13
  1.5999565E-01   9.9999998E-03   2.0000011E-02
  1.5999563E-01   9.9999998E-03   4.0000021E-02
  1.5999562E-01   9.9999998E-03   6.0000036E-02
  1.5999559E-01   9.9999998E-03   8.0000050E-02
  1.5999556E-01   9.9999998E-03   1.0000008E-01
  1.5999553E-01   9.9999998E-03   1.2000010E-01
  1.5999551E-01   9.9999998E-03   1.4000013E-01
  1.7999466E-01   9.9999998E-03   1.1765626E-14
  1.7999466E-01   9.9999998E-03   2.0000013E-02
  1.7999464E-01   9.9999998E-03   4.0000029E-02
  1.7999461E-01   9.9999998E-03   6.0000043E-02
  1.7999458E-01   9.9999998E-03   8.0000065E-02
  1.7999454E-01   9.9999998E-03   1.0000009E-01
  1.7999449E-01   9.9999998E-03   1.2000012E-01
  1.7999446E-01   9.9999998E-03   1.4000016E-01
  1.9999348E-01   9.9999998E-03   2.6820638E-13
  1.9999348E-01   9.9999998E-03   2.0000016E-02
  1.9999345E-01   9.9999998E-03   4.0000033E-02
  1.9999342E-01   9.9999998E-03   6.0000055E-02
  1.9999337E-01   9.9999998E-03   8.0000080E-02
  1.9999331E-01   9.9999998E-03   1.0000012E-01
  1.9999325E-01   9.9999998E-03   1.2000016E-01
  1.9999321E-01   9.9999998E-03   1.4000021E-01
  2.1999207E-01   9.9999998E-03  -4.2614287E-13
  2.1999206E-01   9.9999998E-03   2.0000020E-02
  2.1999203E-01   9.9999998E-03   4.0000044E-02
  2.1999198E-01   9.9999998E-03   6.0000069E-02
  2.1999191E-01   9.9999998E-03   8.0000110E-02
  2.1999183E-01   9.9999998E-03   1.0000015E-01
  2.1999176E-01   9.9999998E-03   1.2000021E-01
  2.1999168E-01   9.9999998E-03   1.4000028E-01
  2.3999037E-01   9.9999998E-03  -7.0056195E-13
  2.3999035E-01   9.9999998E-03   2.0000024E-02
  2.3999032E-01   9.9999998E-03   4.0000051E-02
  2.3999026E-01   9.9999998E-03   6.0000088E-02
  2.3999017E-01   9.9999998E-03   8.0000132E-02
  2.3999007E-01   9.9999998E-03   1.0000020E-01
  2.3998997E-01   9.9999998E-03   1.2000027E-01
  2.3998986E-01   9.9999998E-03   1.4000037E-01
  2.5998837E-01   9.9999998E-03  -9.4256153E-14
  2.5998834E-01   9.9999998E-03   2.0000029E-02
  2.5998828E-01   9.9999998E-03   4.0000062E-02
  2.5998822E-01   9.9999998E-03   6.0000107E-02
  2.5998810E-01   9.9999998E-03   8.0000170E-02
  2.5998795E-01   9.9999998E-03   1.0000025E-01
  2.5998780E-01   9.9999998E-03   1.2000035E-01
  2.5998768E-01   9.9999998E-03   1.4000048E-01
  2.7998596E-01   9.9999998E-03   1.0965760E-13
  2.7998593E-01   9.9999998E-03   2.0000035E-02
  2.7998587E-01   9.9999998E-03   4.0000077E-02
  2.7998576E-01   9.9999998E-03   6.0000129E-02
  2.7998561E-01   9.9999998E-03   8.0000207E-02
  2.7998546E-01   9.9999998E-03   1.0000031E-01
  2.7998525E-01   9.9999998E-03   1.2000044E-01
  2.7998504E-01   9.9999998E-03   1.4000060E-01
  2.9998311E-01   9.9999998E-03  -1.3510097E-13
  2.9998308E-01   9.9999998E-03   2.0000041E-02
  2.9998299E-01   9.9999998E-03   4.0000089E-02
  2.9998288E-01   9.9999998E-03   6.0000151E-02
  2.9998267E-01   9.9999998E-03   8.0000244E-02
  2.9998246E-01   9.9999998E-03   1.0000037E-01
  2.9998219E-01   9.9999998E-03   1.2000053E-01
  2.9998192E-01   9.9999998E-03   1.4000075E-01
  3.1997976E-01   9.9999998E-03  -2.1079480E-13
  3.1997973E-01   9.9999998E-03   2.0000044E-02
  3.1997961E-01   9.9999998E-03   4.0000100E-02
  3.1997943E-01   9.9999998E-03   6.0000174E-02
  3.1997919E-01   9.9999998E-03   8.0000281E-02
  3.1997889E-01   9.9999998E-03   1.0000043E-01
  3.1997856E-01   9.9999998E-03   1.2000064E-01
  3.1997821E-01   9.9999998E-03   1.4000091E-01
  3.3997577E-01   9.9999998E-03   3.5008923E-13
  3.3997574E-01   9.9999998E-03   2.0000050E-02
  3.3997560E-01   9.9999998E-03   4.0000111E-02
  3.3997539E-01   9.9999998E-03   6.0000200E-02
  3.3997509E-01   9.9999998E-03   8.0000326E-02
  3.3997470E-01   9.9999998E-03   1.0000051E-01
  3.3997425E-01   9.9999998E-03   1.2000076E-01
  3.3997378E-01   9.9999998E-03   1.4000109E-01
  3.5997111E-01   9.9999998E-03  -1.6589587E-12
  3.5997105E-01   9.9999998E-03   2.0000057E-02
  3.5997087E-01   9.9999998E-03   4.0000126E-02
  3.5997060E-01   9.9999998E-03   6.0000230E-02
  3.5997021E-01   9.9999998E-03   8.0000378E-02
  3.5996974E-01   9.9999998E-03   1.0000059E-01
  3.5996917E-01   9.9999998E-03   1.2000088E-01
  3.5996854E-01   9.9999998E-03   1.4000128E-01
  3.7996560E-01   9.9999998E-03   5.9249020E-13
  3.7996554E-01   9.9999998E-03   2.0000070E-02
  3.7996534E-01   9.9999998E-03   4.0000156E-02
  3.7996498E-01   9.9999998E-03   6.0000274E-02
  3.7996450E-01   9.9999998E-03   8.0000445E-02
  3.7996387E-01   9.9999998E-03   1.0000069E-01
  3.7996316E-01   9.9999998E-03   1.2000104E-01
  3.7996238E-01   9.9999998E-03   1.4000151E-01
  3.9995918E-01   9.9999998E-03  -6.3751559E-13
  3.9995909E-01   9.9999998E-03   2.0000096E-02
  3.9995885E-01   9.9999998E-03   4.0000211E-02
  3.9995840E-01   9.9999998E-03   6.0000356E-02
  3.9995781E-01   9.9999998E-03   8.0000564E-02
  3.9995706E-01   9.9999998E-03   1.0000085E-01
  3.9995614E-01   9.9999998E-03   1.2000124E-01
  3.9995512E-01   9.9999998E-03   1.4000179E-01
  4.1995174E-01   9.9999998E-03  -3.8133919E-12
  4.1995162E-01   9.9999998E-03   2.0000149E-02
  4.1995129E-01   9.9999998E-03   4.0000312E-02
  4.1995078E-01   9.9999998E-03   6.0000509E-02
  4.1995004E-01   9.9999998E-03   8.0000766E-02
  4.1994908E-01   9.9999998E-03   1.0000110E-01
  4.1994795E-01   9.9999998E-03   1.2000155E-01
  4.1994667E-01   9.9999998E-03   1.4000218E-01
  4.3994308E-01   9.9999998E-03  -3.0016523E-12
  4.3994296E-01   9.9999998E-03   2.0000244E-02
  4.3994257E-01   9.9999998E-03   4.0000498E-02
  4.3994194E-01   9.9999998E-03   6.0000781E-02
  4.3994102E-01   9.9999998E-03   8.0001116E-02
  4.3993989E-01   9.9999998E-03   1.0000153E-01
  4.3993849E-01   9.9999998E-03   1.2000206E-01
  4.3993688E-01   9.9999998E-03   1.4000276E-01
  4.5993304E-01   9.9999998E-03   2.3582425E-12
  4.5993289E-01   9.9999998E-03   2.0000402E-02
  4.5993242E-01   9.9999998E-03   4.0000811E-02
  4.5993167E-01   9.9999998E-03   6.0001239E-02
  4.5993060E-01   9.9999998E-03   8.0001704E-02
  4.5992920E-01   9.9999998E-03   1.0000224E-01
  4.5992747E-01   9.9999998E-03   1.2000288E-01
  4.5992547E-01   9.9999998E-03   1.4000367E-01
  4.7992134E-01   9.9999998E-03  -1.1631069E-12
  4.7992116E-01   9.9999998E-03   2.0000657E-02
  4.7992063E-01   9.9999998E-03   4.0001310E-02
  4.7991973E-01   9.9999998E-03   6.0001969E-02
  4.7991845E-01   9.9999998E-03   8.0002651E-02
  4.7991678E-01   9.9999998E-03   1.0000338E-01
  4.7991470E-01   9.9999998E-03   1.2000419E-01
  4.7991225E-01   9.9999998E-03   1.4000514E-01
  4.9990770E-01   9.9999998E-03   1.8595813E-12
  4.9990749E-01   9.9999998E-03   2.0001030E-02
  4.9990690E-01   9.9999998E-03   4.0002052E-02
  4.9990585E-01   9.9999998E-03   6.0003065E-02
  4.9990433E-01   9.9999998E-03   8.0004074E-02
  4.9990237E-01   9.9999998E-03   1.0000512E-01
  4.9989989E-01   9.9999998E-03   1.2000622E-01
  4.9989691E-01   9.9999998E-03   1.4000741E-01
  5.1989186E-01   9.9999998E-03  -2.6357551E-12
  5.1989162E-01   9.9999998E-03   2.0001553E-02
  5.1989090E-01   9.9999998E-03   4.0003091E-02
  5.1988971E-01   9.9999998E-03   6.0004614E-02
  5.1988798E-01   9.9999998E-03   8.0006130E-02
  5.1988572E-01   9.9999998E-03   1.0000765E-01
  5.1988274E-01   9.9999998E-03   1.2000920E-01
  5.1987922E-01   9.9999998E-03   1.4001079E-01
  5.3987372E-01   9.9999998E-03   1.9505072E-12
  5.3987342E-01   9.9999998E-03   2.0002244E-02
  5.3987265E-01   9.9999998E-03   4.0004473E-02
  5.3987128E-01   9.9999998E-03   6.0006682E-02
  5.3986931E-01   9.9999998E-03   8.0008887E-02
  5.3986669E-01   9.9999998E-03   1.0001110E-01
  5.3986329E-01   9.9999998E-03   1.2001334E-01
  5.3985918E-01   9.9999998E-03   1.4001557E-01
  5.5985355E-01   9.9999998E-03  -2.8530351E-12
  5.5985326E-01   9.9999998E-03   2.0003108E-02
  5.5985236E-01   9.9999998E-03   4.0006220E-02
  5.5985087E-01   9.9999998E-03   6.0009342E-02
  5.5984861E-01   9.9999998E-03   8.0012485E-02
  5.5984563E-01   9.9999998E-03   1.0001566E-01
  5.5984175E-01   9.9999998E-03   1.2001885E-01
  5.5983704E-01   9.9999998E-03   1.4002204E-01
  5.7983232E-01   9.9999998E-03  -2.0211733E-13
  5.7983196E-01   9.9999998E-03   2.0004127E-02
  5.7983094E-01   9.9999998E-03   4.0008277E-02
  5.7982928E-01   9.9999998E-03   6.0012490E-02
  5.7982677E-01   9.9999998E-03   8.0016807E-02
  5.7982343E-01   9.9999998E-03   1.0002123E-01
  5.7981908E-01   9.9999998E-03   1.2002573E-01
  5.7981378E-01   9.9999998E-03   1.4003021E-01
  5.9981143E-01   9.9999998E-03   6.2757937E-12
  5.9981108E-01   9.9999998E-03   2.0005299E-02
  5.9980994E-01   9.9999998E-03   4.0010639E-02
  5.9980804E-01   9.9999998E-03   6.0016099E-02
  5.9980530E-01   9.9999998E-03   8.0021791E-02
  5.9980160E-01   9.9999998E-03   1.0002775E-01
  5.9979683E-01   9.9999998E-03   1.2003389E-01
  5.9979093E-01   9.9999998E-03   1.4004000E-01
  6.1979234E-01   9.9999998E-03  -4.7277594E-12
  6.1979192E-01   9.9999998E-03   2.0006595E-02
  6.1979067E-01   9.9999998E-03   4.0013269E-02
  6.1978853E-01   9.9999998E-03   6.0020160E-02
  6.1978543E-01   9.9999998E-03   8.0027431E-02
  6.1978132E-01   9.9999998E-03   1.0003518E-01
  6.1977613E-01   9.9999998E-03   1.2004329E-01
  6.1976969E-01   9.9999998E-03   1.4005139E-01
  6.3977605E-01   9.9999998E-03   6.7666844E-12
  6.3977563E-01   9.9999998E-03   2.0007951E-02
  6.3977420E-01   9.9999998E-03   4.0016003E-02
  6.3977176E-01   9.9999998E-03   6.0024347E-02
  6.3976836E-01   9.9999998E-03   8.0033273E-02
  6.3976377E-01   9.9999998E-03   1.0004300E-01
  6.3975805E-01   9.9999998E-03   1.2005346E-01
  6.3975114E-01   9.9999998E-03   1.4006406E-01
  6.5976375E-01   9.9999998E-03  -4.2565786E-12
  6.5976322E-01   9.9999998E-03   2.0009561E-02
  6.5976167E-01   9.9999998E-03   4.0019277E-02
  6.5975899E-01   9.9999998E-03   6.0029417E-02
  6.5975523E-01   9.9999998E-03   8.0040388E-02
  6.5975034E-01   9.9999998E-03   1.0005251E-01
  6.5974432E-01   9.9999998E-03   1.2006572E-01
  6.5973729E-01   9.9999998E-03   1.4007930E-01
  6.7975861E-01   9.9999998E-03   1.1773537E-12
  6.7975807E-01   9.9999998E-03   2.0011622E-02
  6.7975640E-01   9.9999998E-03   4.0023472E-02
  6.7975366E-01   9.9999998E-03   6.0035914E-02
  6.7974979E-01   9.9999998E-03   8.0049552E-02
  6.7974478E-01   9.9999998E-03   1.0006484E-01
  6.7973882E-01   9.9999998E-03   1.2008161E-01
  6.7973179E-01   9.9999998E-03   1.4009890E-01
  6.9976735E-01   9.9999998E-03   2.7764308E-11
  6.9976681E-01   9.9999998E-03   2.0013502E-02
  6.9976521E-01   9.9999998E-03   4.0027332E-02
  6.9976252E-01   9.9999998E-03   6.0042094E-02
  6.9975877E-01   9.9999998E-03   8.0058634E-02
  6.9975400E-01   9.9999998E-03   1.0007760E-01
  6.9974840E-01   9.9999998E-03   1.2009887E-01
  6.9974196E-01   9.9999998E-03   1.4012119E-01
  7.1982026E-01   9.9999998E-03  -5.3092457E-12
  7.1981978E-01   9.9999998E-03   2.0015303E-02
  7.1981835E-01   9.9999998E-03   4.0031001E-02
  7.1981591E-01   9.9999998E-03   6.0047828E-02
  7.1981251E-01   9.9999998E-03   8.0066822E-02
  7.1980798E-01   9.9999998E-03   1.0008880E-01
  7.1980226E-01   9.9999998E-03   1.2011375E-01
  7.1979541E-01   9.9999998E-03   1.4014034E-01
  7.3988849E-01   9.9999998E-03   2.8033333E-11
  7.3988813E-01   9.9999998E-03   2.0016586E-02
  7.3988700E-01   9.9999998E-03   4.0033560E-02
  7.3988521E-01   9.9999998E-03   6.0051683E-02
  7.3988271E-01   9.9999998E-03   8.0072030E-02
  7.3987937E-01   9.9999998E-03   1.0009547E-01
  7.3987526E-01   9.9999998E-03   1.2012194E-01
  7.3987037E-01   9.9999998E-03   1.4015001E-01
  7.5994039E-01   9.9999998E-03   5.5538612E-11
  7.5994015E-01   9.9999998E-03   2.0017495E-02
  7.5993943E-01   9.9999998E-03   4.0035356E-02
  7.5993824E-01   9.9999998E-03   6.0054347E-02
  7.5993663E-01   9.9999998E-03   8.0075569E-02
  7.5993460E-01   9.9999998E-03   1.0009991E-01
  7.5993210E-01   9.9999998E-03   1.2012727E-01
  7.5992918E-01   9.9999998E-03   1.4015608E-01
  7.7997804E-01   9.9999998E-03  -6.3075036E-12
  7.7997792E-01   9.9999998E-03   2.0018028E-02
  7.7997756E-01   9.9999998E-03   4.0036399E-02
  7.7997702E-01   9.9999998E-03   6.0055852E-02
  7.7997625E-01   9.9999998E-03   8.0077514E-02
  7.7997535E-01   9.9999998E-03   1.0010228E-01
  7.7997434E-01   9.9999998E-03   1.2013002E-01
  7.7997315E-01   9.9999998E-03   1.4015909E-01
  8.0000800E-01   9.9999998E-03  -6.7565328E-11
  8.0000794E-01   9.9999998E-03   2.0018214E-02
  8.0000794E-01   9.9999998E-03   4.0036742E-02
  8.0000794E-01   9.9999998E-03   6.0056310E-02
  8.0000794E-01   9.9999998E-03   8.0078036E-02
  8.0000806E-01   9.9999998E-03   1.0010283E-01
  8.0000830E-01   9.9999998E-03   1.2013055E-01
  8.0000865E-01   9.9999998E-03   1.4015952E-01
  8.2003641E-01   9.9999998E-03   1.6245954E-11
  8.2003647E-01   9.9999998E-03   2.0018095E-02
  8.2003677E-01   9.9999998E-03   4.0036473E-02
  8.2003725E-01   9.9999998E-03   6.0055848E-02
  8.2003796E-01   9.9999998E-03   8.0077328E-02
  8.2003897E-01   9.9999998E-03   1.0010182E-01
  8.2004029E-01   9.9999998E-03   1.2012921E-01
  8.2004195E-01   9.9999998E-03   1.4015782E-01
  8.4006619E-01   9.9999998E-03   6.1210259E-11
  8.4006637E-01   9.9999998E-03   2.0017710E-02
  8.4006691E-01   9.9999998E-03   4.0035684E-02
  8.4006780E-01   9.9999998E-03   6.0054611E-02
  8.4006912E-01   9.9999998E-03   8.0075577E-02
  8.4007090E-01   9.9999998E-03   1.0009950E-01
  8.4007329E-01   9.9999998E-03   1.2012628E-01
  8.4007615E-01   9.9999998E-03   1.4015429E-01
  8.6009687E-01   9.9999998E-03   3.5139322E-11
  8.6009711E-01   9.9999998E-03   2.0017093E-02
  8.6009789E-01   9.9999998E-03   4.0034436E-02
  8.6009914E-01   9.9999998E-03   6.0052693E-02
  8.6010098E-01   9.9999998E-03   8.0072924E-02
  8.6010349E-01   9.9999998E-03   1.0009602E-01
  8.6010677E-01   9.9999998E-03   1.2012193E-01
  8.6011076E-01   9.9999998E-03   1.4014909E-01
  8.8012612E-01   9.9999998E-03  -5.5894560E-11
  8.8012642E-01   9.9999998E-03   2.0016277E-02
  8.8012737E-01   9.9999998E-03   4.0032793E-02
  8.8012898E-01   9.9999998E-03   6.0050186E-02
  8.8013130E-01   9.9999998E-03   8.0069475E-02
  8.8013440E-01   9.9999998E-03   1.0009154E-01
  8.8013846E-01   9.9999998E-03   1.2011633E-01
  8.8014352E-01   9.9999998E-03   1.4014237E-01
  9.0015113E-01   9.9999998E-03  -8.7849505E-11
  9.0015155E-01   9.9999998E-03   2.0015292E-02
  9.0015268E-01   9.9999998E-03   4.0030811E-02
  9.0015459E-01   9.9999998E-03   6.0047168E-02
  9.0015739E-01   9.9999998E-03   8.0065340E-02
  9.0016109E-01   9.9999998E-03   1.0008616E-01
  9.0016586E-01   9.9999998E-03   1.2010962E-01
  9.0017182E-01   9.9999998E-03   1.4013429E-01
  9.2016256E-01   9.9999998E-03  -6.8823176E-12
  9.2016304E-01   9.9999998E-03   2.0014288E-02
  9.2016453E-01   9.9999998E-03   4.0028762E-02
  9.2016703E-01   9.9999998E-03   6.0043979E-02
  9.2017061E-01   9.9999998E-03   8.0060855E-02
  9.2017537E-01   9.9999998E-03   1.0008020E-01
  9.2018133E-01   9.9999998E-03   1.2010205E-01
  9.2018861E-01   9.9999998E-03   1.4012511E-01
  9.4016373E-01   9.9999998E-03   2.3596618E-11
  9.4016421E-01   9.9999998E-03   2.0013237E-02
  9.4016582E-01   9.9999998E-03   4.0026631E-02
  9.4016850E-01   9.9999998E-03   6.0040656E-02
  9.4017231E-01   9.9999998E-03   8.0056161E-02
  9.4017738E-01   9.9999998E-03   1.0007392E-01
  9.4018376E-01   9.9999998E-03   1.2009400E-01
  9.4019157E-01   9.9999998E-03   1.4011528E-01
  9.6016186E-01   9.9999998E-03  -4.4182382E-13
  9.6016240E-01   9.9999998E-03   2.0012066E-02
  9.6016395E-01   9.9999998E-03   4.0024277E-02
  9.6016663E-01   9.9999998E-03   6.0037080E-02
  9.6017045E-01   9.9999998E-03   8.0051228E-02
  9.6017557E-01   9.9999998E-03   1.0006744E-01
  9.6018201E-01   9.9999998E-03   1.2008575E-01
  9.6019000E-01   9.9999998E-03   1.4010517E-01
  9.8015839E-01   9.9999998E-03  -9.6711614E-12
  9.8015893E-01   9.9999998E-03   2.0010917E-02
  9.8016042E-01   9.9999998E-03   4.0021982E-02
  9.8016298E-01   9.9999998E-03   6.0033582E-02
  9.8016673E-01   9.9999998E-03   8.0046393E-02
  9.8017174E-01   9.9999998E-03   1.0006105E-01
  9.8017818E-01   9.9999998E-03   1.2007765E-01
  9.8018616E-01   9.9999998E-03   1.4009528E-01
  1.0001539E+00   9.9999998E-03  -5.0164469E-12
  1.0001544E+00   9.9999998E-03   2.0009866E-02
  1.0001559E+00   9.9999998E-03   4.0019885E-02
  1.0001584E+00   9.9999998E-03   6.0030404E-02
  1.0001620E+00   9.9999998E-03   8.0042027E-02
  1.0001668E+00   9.9999998E-03   1.0005531E-01
  1.0001731E+00   9.9999998E-03   1.2007029E-01
  1.0001811E+00   9.9999998E-03   1.4008613E-01
  1.0201486E+00   9.9999998E-03   7.0775673E-12
  1.0201491E+00   9.9999998E-03   2.0008907E-02
  1.0201504E+00   9.9999998E-03   4.0017981E-02
  1.0201528E+00   9.9999998E-03   6.0027529E-02
  1.0201563E+00   9.9999998E-03   8.0038026E-02
  1.0201610E+00   9.9999998E-03   1.0004998E-01
  1.0201672E+00   9.9999998E-03   1.2006346E-01
  1.0201752E+00   9.9999998E-03   1.4007765E-01
  1.0401424E+00   9.9999998E-03   1.4196376E-11
  1.0401428E+00   9.9999998E-03   2.0008046E-02
  1.0401442E+00   9.9999998E-03   4.0016271E-02
  1.0401465E+00   9.9999998E-03   6.0024954E-02
  1.0401498E+00   9.9999998E-03   8.0034472E-02
  1.0401543E+00   9.9999998E-03   1.0004522E-01
  1.0401605E+00   9.9999998E-03   1.2005722E-01
  1.0401686E+00   9.9999998E-03   1.4006981E-01
  1.0601355E+00   9.9999998E-03   1.5157644E-11
  1.0601360E+00   9.9999998E-03   2.0007279E-02
  1.0601372E+00   9.9999998E-03   4.0014759E-02
  1.0601394E+00   9.9999998E-03   6.0022671E-02
  1.0601426E+00   9.9999998E-03   8.0031328E-02
  1.0601472E+00   9.9999998E-03   1.0004096E-01
  1.0601534E+00   9.9999998E-03   1.2005153E-01
  1.0601616E+00   9.9999998E-03   1.4006241E-01
  1.0801282E+00   9.9999998E-03   3.1009143E-12
  1.0801287E+00   9.9999998E-03   2.0006619E-02
  1.0801299E+00   9.9999998E-03   4.0013444E-02
  1.0801321E+00   9.9999998E-03   6.0020678E-02
  1.0801353E+00   9.9999998E-03   8.0028534E-02
  1.0801399E+00   9.9999998E-03   1.0003710E-01
  1.0801461E+00   9.9999998E-03   1.2004633E-01
  1.0801544E+00   9.9999998E-03   1.4005557E-01
  1.1001210E+00   9.9999998E-03  -3.0220253E-12
  1.1001215E+00   9.9999998E-03   2.0006049E-02
  1.1001227E+00   9.9999998E-03   4.0012293E-02
  1.1001248E+00   9.9999998E-03   6.0018908E-02
  1.1001281E+00   9.9999998E-03   8.0025978E-02
  1.1001327E+00   9.9999998E-03   1.0003360E-01
  1.1001390E+00   9.9999998E-03   1.2004133E-01
  1.1001477E+00   9.9999998E-03   1.4004932E-01
  1.1201142E+00   9.9999998E-03  -4.9024955E-12
  1.1201147E+00   9.9999998E-03   2.0005547E-02
  1.1201159E+00   9.9999998E-03   4.0011264E-02
  1.1201180E+00   9.9999998E-03   6.0017228E-02
  1.1201214E+00   9.9999998E-03   8.0023549E-02
  1.1201260E+00   9.9999998E-03   1.0002991E-01
  1.1201327E+00   9.9999998E-03   1.2003650E-01
  1.1201415E+00   9.9999998E-03   1.4004292E-01
  1.1401081E+00   9.9999998E-03   4.3390075E-13
  1.1401085E+00   9.9999998E-03   2.0005057E-02
  1.1401098E+00   9.9999998E-03   4.0010192E-02
  1.1401119E+00   9.9999998E-03   6.0015492E-02
  1.1401154E+00   9.9999998E-03   8.0020815E-02
  1.1401203E+00   9.9999998E-03   1.0002628E-01
  1.1401269E+00   9.9999998E-03   1.2003151E-01
  1.1401365E+00   9.9999998E-03   1.4003725E-01
  1.1601027E+00   9.9999998E-03   2.7919492E-12
  1.1601031E+00   9.9999998E-03   2.0004496E-02
  1.1601044E+00   9.9999998E-03   4.0008973E-02
  1.1601067E+00   9.9999998E-03   6.0013484E-02
  1.1601102E+00   9.9999998E-03   8.0018058E-02
  1.1601152E+00   9.9999998E-03   1.0002244E-01
  1.1601226E+00   9.9999998E-03   1.2002719E-01
  1.1601331E+00   9.9999998E-03   1.4003283E-01
  1.1800981E+00   9.9999998E-03   3.5797888E-12
  1.1800984E+00   9.9999998E-03   2.0003822E-02
  1.1800998E+00   9.9999998E-03   4.0007662E-02
  1.1801021E+00   9.9999998E-03   6.0011439E-02
  1.1801059E+00   9.9999998E-03   8.0015279E-02
  1.1801116E+00   9.9999998E-03   1.0001943E-01
  1.1801200E+00   9.9999998E-03   1.2002421E-01
  1.1801323E+00   9.9999998E-03   1.4003073E-01
  1.2000942E+00   9.9999998E-03  -1.2320286E-12
  1.2000947E+00   9.9999998E-03   2.0003188E-02
  1.2000961E+00   9.9999998E-03   4.0006451E-02
  1.2000989E+00   9.9999998E-03   6.0009897E-02
  1.2001033E+00   9.9999998E-03   8.0013715E-02
  1.2001100E+00   9.9999998E-03   1.0001810E-01
  1.2001204E+00   9.9999998E-03   1.2002416E-01
  1.2001367E+00   9.9999998E-03   1.4003301E-01
  1.2200918E+00   9.9999998E-03  -9.5437696E-14
  1.2200924E+00   9.9999998E-03   2.0003036E-02
  1.2200942E+00   9.9999998E-03   4.0006254E-02
  1.2200975E+00   9.9999998E-03   6.0009915E-02
  1.2201034E+00   9.9999998E-03   8.0014594E-02
  1.2201130E+00   9.9999998E-03   1.0002091E-01
  1.2201284E+00   9.9999998E-03   1.2002945E-01
  1.2201490E+00   9.9999998E-03   1.4003950E-01
  1.2400932E+00   9.9999998E-03  -2.4867432E-12
  1.2400941E+00   9.9999998E-03   2.0003781E-02
  1.2400968E+00   9.9999998E-03   4.0008157E-02
  1.2401025E+00   9.9999998E-03   6.0013641E-02
  1.2401124E+00   9.9999998E-03   8.0020577E-02
  1.2401271E+00   9.9999998E-03   1.0002848E-01
  1.2401447E+00   9.9999998E-03   1.2003703E-01
  1.2401623E+00   9.9999998E-03   1.4004602E-01
  1.2601122E+00   9.9999998E-03  -8.1414687E-13
  1.2601134E+00   9.9999998E-03   2.0005103E-02
  1.2601171E+00   9.9999998E-03   4.0011078E-02
  1.2601235E+00   9.9999998E-03   6.0018398E-02
  1.2601329E+00   9.9999998E-03   8.0026686E-02
  1.2601436E+00   9.9999998E-03   1.0003508E-01
  1.2601551E+00   9.9999998E-03   1.2004283E-01
  1.2601659E+00   9.9999998E-03   1.4004982E-01
  1.2801328E+00   9.9999998E-03   2.7110608E-12
  1.2801334E+00   9.9999998E-03   2.0005880E-02
  1.2801349E+00   9.9999998E-03   4.0012911E-02
  1.2801374E+00   9.9999998E-03   6.0021728E-02
  1.2801412E+00   9.9999998E-03   8.0031320E-02
  1.2801472E+00   9.9999998E-03   1.0003963E-01
  1.2801533E+00   9.9999998E-03   1.2004565E-01
  1.3001335E+00   9.9999998E-03   1.7534737E-12
  1.3001336E+00   9.9999998E-03   2.0006634E-02
  1.3001339E+00   9.9999998E-03   4.0014740E-02
  1.3001347E+00   9.9999998E-03   6.0024735E-02
  1.3001369E+00   9.9999998E-03   8.0034524E-02
 -4.9415723E-07   9.9999998E-03   1.6000004E-01
 -4.7979137E-07   9.9999998E-03   1.8000005E-01
 -4.5883752E-07   9.9999998E-03   2.0000006E-01
 -4.2942648E-07   9.9999998E-03   2.2000009E-01
 -3.9040955E-07   9.9999998E-03   2.4000010E-01
 -3.4039056E-07   9.9999998E-03   2.6000011E-01
 -2.8110537E-07   9.9999998E-03   2.8000012E-01
  1.9999282E-02   9.9999998E-03   1.6000006E-01
  1.9999301E-02   9.9999998E-03   1.8000008E-01
  1.9999331E-02   9.9999998E-03   2.0000009E-01
  1.9999372E-02   9.9999998E-03   2.2000012E-01
  1.9999430E-02   9.9999998E-03   2.4000013E-01
  1.9999506E-02   9.9999998E-03   2.6000014E-01
  1.9999599E-02   9.9999998E-03   2.8000015E-01
  1.9999711E-02   9.9999998E-03   3.0000013E-01
  3.9998990E-02   9.9999998E-03   1.6000007E-01
  3.9999012E-02   9.9999998E-03   1.8000010E-01
  3.9999053E-02   9.9999998E-03   2.0000012E-01
  3.9999109E-02   9.9999998E-03   2.2000013E-01
  3.9999187E-02   9.9999998E-03   2.4000016E-01
  3.9999295E-02   9.9999998E-03   2.6000017E-01
  3.9999429E-02   9.9999998E-03   2.8000018E-01
  3.9999586E-02   9.9999998E-03   3.0000016E-01
  5.9998631E-02   9.9999998E-03   1.6000009E-01
  5.9998661E-02   9.9999998E-03   1.8000011E-01
  5.9998710E-02   9.9999998E-03   2.0000014E-01
  5.9998784E-02   9.9999998E-03   2.2000016E-01
  5.9998889E-02   9.9999998E-03   2.4000017E-01
  5.9999034E-02   9.9999998E-03   2.6000020E-01
  5.9999213E-02   9.9999998E-03   2.8000021E-01
  5.9999425E-02   9.9999998E-03   3.0000019E-01
  7.9998210E-02   9.9999998E-03   1.6000010E-01
  7.9998247E-02   9.9999998E-03   1.8000013E-01
  7.9998299E-02   9.9999998E-03   2.0000015E-01
  7.9998396E-02   9.9999998E-03   2.2000018E-01
  7.9998523E-02   9.9999998E-03   2.4000020E-01
  7.9998709E-02   9.9999998E-03   2.6000023E-01
  7.9998940E-02   9.9999998E-03   2.8000024E-01
  7.9999223E-02   9.9999998E-03   3.0000025E-01
  9.9997714E-02   9.9999998E-03   1.6000012E-01
  9.9997744E-02   9.9999998E-03   1.8000014E-01
  9.9997811E-02   9.9999998E-03   2.0000017E-01
  9.9997923E-02   9.9999998E-03   2.2000021E-01
  9.9998079E-02   9.9999998E-03   2.4000023E-01
  9.9998310E-02   9.9999998E-03   2.6000026E-01
  9.9998601E-02   9.9999998E-03   2.8000027E-01
  9.9998973E-02   9.9999998E-03   3.0000028E-01
  1.1999711E-01   9.9999998E-03   1.6000013E-01
  1.1999715E-01   9.9999998E-03   1.8000016E-01
  1.1999722E-01   9.9999998E-03   2.0000020E-01
  1.1999734E-01   9.9999998E-03   2.2000022E-01
  1.1999754E-01   9.9999998E-03   2.4000025E-01
  1.1999781E-01   9.9999998E-03   2.6000029E-01
  1.1999818E-01   9.9999998E-03   2.8000030E-01
  1.1999864E-01   9.9999998E-03   3.0000034E-01
  1.3999639E-01   9.9999998E-03   1.6000015E-01
  1.3999642E-01   9.9999998E-03   1.8000017E-01
  1.3999650E-01   9.9999998E-03   2.0000021E-01
  1.3999663E-01   9.9999998E-03   2.2000025E-01
  1.3999686E-01   9.9999998E-03   2.4000029E-01
  1.3999718E-01   9.9999998E-03   2.6000032E-01
  1.3999763E-01   9.9999998E-03   2.8000036E-01
  1.3999821E-01   9.9999998E-03   3.0000043E-01
  1.5999551E-01   9.9999998E-03   1.6000018E-01
  1.5999554E-01   9.9999998E-03   1.8000022E-01
  1.5999562E-01   9.9999998E-03   2.0000026E-01
  1.5999578E-01   9.9999998E-03   2.2000030E-01
  1.5999603E-01   9.9999998E-03   2.4000035E-01
  1.5999641E-01   9.9999998E-03   2.6000038E-01
  1.5999694E-01   9.9999998E-03   2.8000045E-01
  1.5999766E-01   9.9999998E-03   3.0000052E-01
  1.7999445E-01   9.9999998E-03   1.6000022E-01
  1.7999448E-01   9.9999998E-03   1.8000026E-01
  1.7999455E-01   9.9999998E-03   2.0000032E-01
  1.7999472E-01   9.9999998E-03   2.2000037E-01
  1.7999500E-01   9.9999998E-03   2.4000043E-01
  1.7999545E-01   9.9999998E-03   2.6000047E-01
  1.7999606E-01   9.9999998E-03   2.8000054E-01
  1.7999691E-01   9.9999998E-03   3.0000064E-01
  1.9999318E-01   9.9999998E-03   1.6000028E-01
  1.9999318E-01   9.9999998E-03   1.8000033E-01
  1.9999325E-01   9.9999998E-03   2.0000041E-01
  1.9999342E-01   9.9999998E-03   2.2000048E-01
  1.9999373E-01   9.9999998E-03   2.4000053E-01
  1.9999424E-01   9.9999998E-03   2.6000059E-01
  1.9999494E-01   9.9999998E-03   2.8000066E-01
  1.9999589E-01   9.9999998E-03   3.0000076E-01
  2.1999162E-01   9.9999998E-03   1.6000037E-01
  2.1999161E-01   9.9999998E-03   1.8000045E-01
  2.1999167E-01   9.9999998E-03   2.0000054E-01
  2.1999183E-01   9.9999998E-03   2.2000064E-01
  2.1999218E-01   9.9999998E-03   2.4000071E-01
  2.1999273E-01   9.9999998E-03   2.6000080E-01
  2.1999352E-01   9.9999998E-03   2.8000093E-01
  2.1999465E-01   9.9999998E-03   3.0000117E-01
  2.3998977E-01   9.9999998E-03   1.6000047E-01
  2.3998973E-01   9.9999998E-03   1.8000060E-01
  2.3998976E-01   9.9999998E-03   2.0000073E-01
  2.3998991E-01   9.9999998E-03   2.2000086E-01
  2.3999025E-01   9.9999998E-03   2.4000101E-01
  2.3999085E-01   9.9999998E-03   2.6000124E-01
  2.3999169E-01   9.9999998E-03   2.8000161E-01
  2.3999295E-01   9.9999998E-03   3.0000231E-01
  2.5998753E-01   9.9999998E-03   1.6000062E-01
  2.5998744E-01   9.9999998E-03   1.8000080E-01
  2.5998744E-01   9.9999998E-03   2.0000099E-01
  2.5998756E-01   9.9999998E-03   2.2000122E-01
  2.5998789E-01   9.9999998E-03   2.4000148E-01
  2.5998846E-01   9.9999998E-03   2.6000190E-01
  2.5998932E-01   9.9999998E-03   2.8000262E-01
  2.5999057E-01   9.9999998E-03   3.0000362E-01
  2.7998486E-01   9.9999998E-03   1.6000080E-01
  2.7998471E-01   9.9999998E-03   1.8000104E-01
  2.7998465E-01   9.9999998E-03   2.0000133E-01
  2.7998474E-01   9.9999998E-03   2.2000167E-01
  2.7998498E-01   9.9999998E-03   2.4000210E-01
  2.7998552E-01   9.9999998E-03   2.6000273E-01
  2.7998635E-01   9.9999998E-03   2.8000370E-01
  2.7998754E-01   9.9999998E-03   3.0000487E-01
  2.9998165E-01   9.9999998E-03   1.6000101E-01
  2.9998145E-01   9.9999998E-03   1.8000133E-01
  2.9998133E-01   9.9999998E-03   2.0000173E-01
  2.9998133E-01   9.9999998E-03   2.2000220E-01
  2.9998150E-01   9.9999998E-03   2.4000280E-01
  2.9998198E-01   9.9999998E-03   2.6000363E-01
  2.9998276E-01   9.9999998E-03   2.8000477E-01
  2.9998392E-01   9.9999998E-03   3.0000606E-01
  3.1997785E-01   9.9999998E-03   1.6000125E-01
  3.1997752E-01   9.9999998E-03   1.8000168E-01
  3.1997731E-01   9.9999998E-03   2.0000219E-01
  3.1997722E-01   9.9999998E-03   2.2000282E-01
  3.1997737E-01   9.9999998E-03   2.4000357E-01
  3.1997779E-01   9.9999998E-03   2.6000458E-01
  3.1997856E-01   9.9999998E-03   2.8000587E-01
  3.1997976E-01   9.9999998E-03   3.0000734E-01
  3.3997330E-01   9.9999998E-03   1.6000152E-01
  3.3997285E-01   9.9999998E-03   1.8000205E-01
  3.3997253E-01   9.9999998E-03   2.0000270E-01
  3.3997235E-01   9.9999998E-03   2.2000349E-01
  3.3997244E-01   9.9999998E-03   2.4000442E-01
  3.3997285E-01   9.9999998E-03   2.6000562E-01
  3.3997369E-01   9.9999998E-03   2.8000712E-01
  3.3997497E-01   9.9999998E-03   3.0000877E-01
  3.5996792E-01   9.9999998E-03   1.6000180E-01
  3.5996732E-01   9.9999998E-03   1.8000245E-01
  3.5996681E-01   9.9999998E-03   2.0000327E-01
  3.5996655E-01   9.9999998E-03   2.2000423E-01
  3.5996658E-01   9.9999998E-03   2.4000537E-01
  3.5996699E-01   9.9999998E-03   2.6000679E-01
  3.5996792E-01   9.9999998E-03   2.8000852E-01
  3.5996941E-01   9.9999998E-03   3.0001044E-01
  3.7996155E-01   9.9999998E-03   1.6000213E-01
  3.7996075E-01   9.9999998E-03   1.8000291E-01
  3.7996006E-01   9.9999998E-03   2.0000388E-01
  3.7995964E-01   9.9999998E-03   2.2000507E-01
  3.7995958E-01   9.9999998E-03   2.4000645E-01
  3.7996003E-01   9.9999998E-03   2.6000810E-01
  3.7996107E-01   9.9999998E-03   2.8001016E-01
  3.7996283E-01   9.9999998E-03   3.0001241E-01
  3.9995405E-01   9.9999998E-03   1.6000250E-01
  3.9995301E-01   9.9999998E-03   1.8000342E-01
  3.9995208E-01   9.9999998E-03   2.0000458E-01
  3.9995149E-01   9.9999998E-03   2.2000599E-01
  3.9995131E-01   9.9999998E-03   2.4000764E-01
  3.9995176E-01   9.9999998E-03   2.6000965E-01
  3.9995292E-01   9.9999998E-03   2.8001210E-01
  3.9995497E-01   9.9999998E-03   3.0001476E-01
  4.1994530E-01   9.9999998E-03   1.6000299E-01
  4.1994393E-01   9.9999998E-03   1.8000403E-01
  4.1994271E-01   9.9999998E-03   2.0000537E-01
  4.1994184E-01   9.9999998E-03   2.2000702E-01
  4.1994151E-01   9.9999998E-03   2.4000901E-01
  4.1994190E-01   9.9999998E-03   2.6001143E-01
  4.1994321E-01   9.9999998E-03   2.8001440E-01
  4.1994560E-01   9.9999998E-03   3.0001757E-01
  4.3993512E-01   9.9999998E-03   1.6000366E-01
  4.3993333E-01   9.9999998E-03   1.8000482E-01
  4.3993172E-01   9.9999998E-03   2.0000632E-01
  4.3993050E-01   9.9999998E-03   2.2000821E-01
  4.3992990E-01   9.9999998E-03   2.4001054E-01
  4.3993023E-01   9.9999998E-03   2.6001346E-01
  4.3993166E-01   9.9999998E-03   2.8001708E-01
  4.3993437E-01   9.9999998E-03   3.0002093E-01
  4.5992327E-01   9.9999998E-03   1.6000468E-01
  4.5992097E-01   9.9999998E-03   1.8000594E-01
  4.5991883E-01   9.9999998E-03   2.0000757E-01
  4.5991713E-01   9.9999998E-03   2.2000965E-01
  4.5991620E-01   9.9999998E-03   2.4001230E-01
  4.5991632E-01   9.9999998E-03   2.6001579E-01
  4.5991781E-01   9.9999998E-03   2.8002030E-01
  4.5992088E-01   9.9999998E-03   3.0002502E-01
  4.7990951E-01   9.9999998E-03   1.6000625E-01
  4.7990662E-01   9.9999998E-03   1.8000761E-01
  4.7990382E-01   9.9999998E-03   2.0000932E-01
  4.7990149E-01   9.9999998E-03   2.2001150E-01
  4.7990006E-01   9.9999998E-03   2.4001440E-01
  4.7989982E-01   9.9999998E-03   2.6001847E-01
  4.7990125E-01   9.9999998E-03   2.8002408E-01
  4.7990456E-01   9.9999998E-03   3.0002999E-01
  4.9989355E-01   9.9999998E-03   1.6000870E-01
  4.9988994E-01   9.9999998E-03   1.8001017E-01
  4.9988639E-01   9.9999998E-03   2.0001191E-01
  4.9988329E-01   9.9999998E-03   2.2001408E-01
  4.9988112E-01   9.9999998E-03   2.4001710E-01
  4.9988028E-01   9.9999998E-03   2.6002163E-01
  4.9988139E-01   9.9999998E-03   2.8002858E-01
  4.9988469E-01   9.9999998E-03   3.0003610E-01
  5.1987523E-01   9.9999998E-03   1.6001239E-01
  5.1987082E-01   9.9999998E-03   1.8001407E-01
  5.1986641E-01   9.9999998E-03   2.0001586E-01
  5.1986235E-01   9.9999998E-03   2.2001794E-01
  5.1985919E-01   9.9999998E-03   2.4002089E-01
  5.1985741E-01   9.9999998E-03   2.6002562E-01
  5.1985770E-01   9.9999998E-03   2.8003407E-01
  5.1986033E-01   9.9999998E-03   3.0004367E-01
  5.3985447E-01   9.9999998E-03   1.6001774E-01
  5.3984922E-01   9.9999998E-03   1.8001980E-01
  5.3984392E-01   9.9999998E-03   2.0002180E-01
  5.3983879E-01   9.9999998E-03   2.2002380E-01
  5.3983438E-01   9.9999998E-03   2.4002647E-01
  5.3983116E-01   9.9999998E-03   2.6003113E-01
  5.3982979E-01   9.9999998E-03   2.8004104E-01
  5.3983074E-01   9.9999998E-03   3.0005312E-01
  5.5983162E-01   9.9999998E-03   1.6002509E-01
  5.5982566E-01   9.9999998E-03   1.8002787E-01
  5.5981934E-01   9.9999998E-03   2.0003036E-01
  5.5981308E-01   9.9999998E-03   2.2003245E-01
  5.5980724E-01   9.9999998E-03   2.4003483E-01
  5.5980211E-01   9.9999998E-03   2.6003927E-01
  5.5979812E-01   9.9999998E-03   2.8005043E-01
  5.5979568E-01   9.9999998E-03   3.0006528E-01
  5.7980764E-01   9.9999998E-03   1.6003449E-01
  5.7980096E-01   9.9999998E-03   1.8003850E-01
  5.7979375E-01   9.9999998E-03   2.0004188E-01
  5.7978642E-01   9.9999998E-03   2.2004470E-01
  5.7977891E-01   9.9999998E-03   2.4004698E-01
  5.7977152E-01   9.9999998E-03   2.6005149E-01
  5.7976407E-01   9.9999998E-03   2.8006393E-01
  5.7975662E-01   9.9999998E-03   3.0008134E-01
  5.9978402E-01   9.9999998E-03   1.6004573E-01
  5.9977639E-01   9.9999998E-03   1.8005106E-01
  5.9976834E-01   9.9999998E-03   2.0005602E-01
  5.9976000E-01   9.9999998E-03   2.2006030E-01
  5.9975111E-01   9.9999998E-03   2.4006395E-01
  5.9974122E-01   9.9999998E-03   2.6006979E-01
  5.9973013E-01   9.9999998E-03   2.8008410E-01
  5.9971696E-01   9.9999998E-03   3.0010337E-01
  6.1976206E-01   9.9999998E-03   1.6005893E-01
  6.1975342E-01   9.9999998E-03   1.8006577E-01
  6.1974436E-01   9.9999998E-03   2.0007241E-01
  6.1973494E-01   9.9999998E-03   2.2007924E-01
  6.1972457E-01   9.9999998E-03   2.4008642E-01
  6.1971301E-01   9.9999998E-03   2.6009715E-01
  6.1969918E-01   9.9999998E-03   2.8011465E-01
  6.1968160E-01   9.9999998E-03   3.0013424E-01
  6.3974297E-01   9.9999998E-03   1.6007394E-01
  6.3973355E-01   9.9999998E-03   1.8008289E-01
  6.3972324E-01   9.9999998E-03   2.0009190E-01
  6.3971257E-01   9.9999998E-03   2.2010304E-01
  6.3970172E-01   9.9999998E-03   2.4011892E-01
  6.3968992E-01   9.9999998E-03   2.6013950E-01
  6.3967466E-01   9.9999998E-03   2.8015828E-01
  6.3965493E-01   9.9999998E-03   3.0017611E-01
  6.5972894E-01   9.9999998E-03   1.6009206E-01
  6.5971923E-01   9.9999998E-03   1.8010406E-01
  6.5970862E-01   9.9999998E-03   2.0011809E-01
  6.5969801E-01   9.9999998E-03   2.2013821E-01
  6.5968800E-01   9.9999998E-03   2.4016720E-01
  6.5967679E-01   9.9999998E-03   2.6019666E-01
  6.5966010E-01   9.9999998E-03   2.8021026E-01
  6.5964049E-01   9.9999998E-03   3.0022487E-01
  6.7972356E-01   9.9999998E-03   1.6011529E-01
  6.7971396E-01   9.9999998E-03   1.8013136E-01
  6.7970365E-01   9.9999998E-03   2.0015155E-01
  6.7969424E-01   9.9999998E-03   2.2018178E-01
  6.7968655E-01   9.9999998E-03   2.4022144E-01
  6.7967677E-01   9.9999998E-03   2.6025215E-01
  6.7966002E-01   9.9999998E-03   2.8025839E-01
  6.7964637E-01   9.9999998E-03   3.0026948E-01
  6.9973445E-01   9.9999998E-03   1.6014239E-01
  6.9972551E-01   9.9999998E-03   1.8016297E-01
  6.9971633E-01   9.9999998E-03   2.0018885E-01
  6.9970936E-01   9.9999998E-03   2.2022533E-01
  6.9970572E-01   9.9999998E-03   2.4026798E-01
  6.9969893E-01   9.9999998E-03   2.6029637E-01
  6.9969034E-01   9.9999998E-03   2.8029487E-01
  6.9969952E-01   9.9999998E-03   3.0030397E-01
  7.1978742E-01   9.9999998E-03   1.6016571E-01
  7.1977866E-01   9.9999998E-03   1.8018974E-01
  7.1977007E-01   9.9999998E-03   2.0021902E-01
  7.1976388E-01   9.9999998E-03   2.2025758E-01
  7.1976280E-01   9.9999998E-03   2.4029852E-01
  7.1976614E-01   9.9999998E-03   2.6032180E-01
  7.1977490E-01   9.9999998E-03   2.8031749E-01
  7.1978992E-01   9.9999998E-03   3.0032846E-01
  7.3986477E-01   9.9999998E-03   1.6017658E-01
  7.3985881E-01   9.9999998E-03   1.8020126E-01
  7.3985320E-01   9.9999998E-03   2.0023049E-01
  7.3984951E-01   9.9999998E-03   2.2026831E-01
  7.3984963E-01   9.9999998E-03   2.4030770E-01
  7.3985356E-01   9.9999998E-03   2.6033074E-01
  7.3986059E-01   9.9999998E-03   2.8032961E-01
  7.3987138E-01   9.9999998E-03   3.0034474E-01
  7.5992596E-01   9.9999998E-03   1.6018303E-01
  7.5992280E-01   9.9999998E-03   1.8020755E-01
  7.5992000E-01   9.9999998E-03   2.0023596E-01
  7.5991863E-01   9.9999998E-03   2.2027242E-01
  7.5991946E-01   9.9999998E-03   2.4031034E-01
  7.5992244E-01   9.9999998E-03   2.6033422E-01
  7.5992680E-01   9.9999998E-03   2.8033665E-01
  7.5993353E-01   9.9999998E-03   3.0035570E-01
  7.7997196E-01   9.9999998E-03   1.6018601E-01
  7.7997094E-01   9.9999998E-03   1.8021011E-01
  7.7997035E-01   9.9999998E-03   2.0023775E-01
  7.7997047E-01   9.9999998E-03   2.2027339E-01
  7.7997160E-01   9.9999998E-03   2.4031073E-01
  7.7997345E-01   9.9999998E-03   2.6033568E-01
  7.7997535E-01   9.9999998E-03   2.8034079E-01
  7.7997839E-01   9.9999998E-03   3.0036256E-01
  8.0000919E-01   9.9999998E-03   1.6018622E-01
  8.0000997E-01   9.9999998E-03   1.8020989E-01
  8.0001092E-01   9.9999998E-03   2.0023702E-01
  8.0001211E-01   9.9999998E-03   2.2027265E-01
  8.0001324E-01   9.9999998E-03   2.4031034E-01
  8.0001384E-01   9.9999998E-03   2.6033613E-01
  8.0001378E-01   9.9999998E-03   2.8034273E-01
  8.0001354E-01   9.9999998E-03   3.0036575E-01
  8.2004404E-01   9.9999998E-03   1.6018414E-01
  8.2004631E-01   9.9999998E-03   1.8020745E-01
  8.2004875E-01   9.9999998E-03   2.0023432E-01
  8.2005084E-01   9.9999998E-03   2.2027053E-01
  8.2005179E-01   9.9999998E-03   2.4030919E-01
  8.2005125E-01   9.9999998E-03   2.6033571E-01
  8.2005000E-01   9.9999998E-03   2.8034246E-01
  8.2004672E-01   9.9999998E-03   3.0036545E-01
  8.4007961E-01   9.9999998E-03   1.6018008E-01
  8.4008342E-01   9.9999998E-03   1.8020296E-01
  8.4008729E-01   9.9999998E-03   2.0022947E-01
  8.4009033E-01   9.9999998E-03   2.2026573E-01
  8.4009117E-01   9.9999998E-03   2.4030477E-01
  8.4008980E-01   9.9999998E-03   2.6033139E-01
  8.4008759E-01   9.9999998E-03   2.8033805E-01
  8.4008181E-01   9.9999998E-03   3.0036044E-01
  8.6011553E-01   9.9999998E-03   1.6017415E-01
  8.6012089E-01   9.9999998E-03   1.8019642E-01
  8.6012626E-01   9.9999998E-03   2.0022231E-01
  8.6013049E-01   9.9999998E-03   2.2025785E-01
  8.6013126E-01   9.9999998E-03   2.4029632E-01
  8.6012924E-01   9.9999998E-03   2.6032245E-01
  8.6012650E-01   9.9999998E-03   2.8032920E-01
  8.6011839E-01   9.9999998E-03   3.0035082E-01
  8.8014954E-01   9.9999998E-03   1.6016644E-01
  8.8015634E-01   9.9999998E-03   1.8018788E-01
  8.8016319E-01   9.9999998E-03   2.0021276E-01
  8.8016862E-01   9.9999998E-03   2.2024688E-01
  8.8016951E-01   9.9999998E-03   2.4028385E-01
  8.8016677E-01   9.9999998E-03   2.6030916E-01
  8.8016385E-01   9.9999998E-03   2.8031629E-01
  8.8015383E-01   9.9999998E-03   3.0033711E-01
  9.0017891E-01   9.9999998E-03   1.6015711E-01
  9.0018702E-01   9.9999998E-03   1.8017747E-01
  9.0019524E-01   9.9999998E-03   2.0020099E-01
  9.0020162E-01   9.9999998E-03   2.2023277E-01
  9.0020227E-01   9.9999998E-03   2.4026741E-01
  9.0019912E-01   9.9999998E-03   2.6029196E-01
  9.0019667E-01   9.9999998E-03   2.8029996E-01
  9.0018541E-01   9.9999998E-03   3.0032003E-01
  9.2019737E-01   9.9999998E-03   1.6014650E-01
  9.2020774E-01   9.9999998E-03   1.8016554E-01
  9.2021859E-01   9.9999998E-03   2.0018736E-01
  9.2022669E-01   9.9999998E-03   2.2021599E-01
  9.2022711E-01   9.9999998E-03   2.4024795E-01
  9.2022407E-01   9.9999998E-03   2.6027191E-01
  9.2022187E-01   9.9999998E-03   2.8028077E-01
  9.2021054E-01   9.9999998E-03   3.0030021E-01
  9.4020104E-01   9.9999998E-03   1.6013509E-01
  9.4021249E-01   9.9999998E-03   1.8015277E-01
  9.4022560E-01   9.9999998E-03   2.0017269E-01
  9.4023830E-01   9.9999998E-03   2.2019845E-01
  9.4024372E-01   9.9999998E-03   2.4022718E-01
  9.4024146E-01   9.9999998E-03   2.6025042E-01
  9.4023943E-01   9.9999998E-03   2.8026003E-01
  9.4022804E-01   9.9999998E-03   3.0027848E-01
  9.6019971E-01   9.9999998E-03   1.6012338E-01
  9.6021140E-01   9.9999998E-03   1.8013965E-01
  9.6022499E-01   9.9999998E-03   2.0015752E-01
  9.6023959E-01   9.9999998E-03   2.2018118E-01
  9.6025068E-01   9.9999998E-03   2.4020696E-01
  9.6025252E-01   9.9999998E-03   2.6022840E-01
  9.6025127E-01   9.9999998E-03   2.8023839E-01
  9.6024013E-01   9.9999998E-03   3.0025566E-01
  9.8019594E-01   9.9999998E-03   1.6011186E-01
  9.8020780E-01   9.9999998E-03   1.8012671E-01
  9.8022181E-01   9.9999998E-03   2.0014259E-01
  9.8023736E-01   9.9999998E-03   2.2016385E-01
  9.8025149E-01   9.9999998E-03   2.4018756E-01
  9.8025894E-01   9.9999998E-03   2.6020664E-01
  9.8026007E-01   9.9999998E-03   2.8021637E-01
  9.8025042E-01   9.9999998E-03   3.0023256E-01
  1.0001910E+00   9.9999998E-03   1.6010116E-01
  1.0002030E+00   9.9999998E-03   1.8011452E-01
  1.0002172E+00   9.9999998E-03   2.0012861E-01
  1.0002334E+00   9.9999998E-03   2.2014682E-01
  1.0002502E+00   9.9999998E-03   2.4016874E-01
  1.0002620E+00   9.9999998E-03   2.6018575E-01
  1.0002676E+00   9.9999998E-03   2.8019446E-01
  1.0002620E+00   9.9999998E-03   3.0020967E-01
  1.0201854E+00   9.9999998E-03   1.6009110E-01
  1.0201976E+00   9.9999998E-03   1.8010305E-01
  1.0202121E+00   9.9999998E-03   2.0011590E-01
  1.0202290E+00   9.9999998E-03   2.2013164E-01
  1.0202483E+00   9.9999998E-03   2.4015100E-01
  1.0202643E+00   9.9999998E-03   2.6016623E-01
  1.0202754E+00   9.9999998E-03   2.8017393E-01
  1.0202777E+00   9.9999998E-03   3.0018765E-01
  1.0401789E+00   9.9999998E-03   1.6008160E-01
  1.0401917E+00   9.9999998E-03   1.8009271E-01
  1.0402066E+00   9.9999998E-03   2.0010406E-01
  1.0402249E+00   9.9999998E-03   2.2011843E-01
  1.0402465E+00   9.9999998E-03   2.4013537E-01
  1.0402672E+00   9.9999998E-03   2.6014882E-01
  1.0402857E+00   9.9999998E-03   2.8015631E-01
  1.0403000E+00   9.9999998E-03   3.0016863E-01
  1.0601721E+00   9.9999998E-03   1.6007282E-01
  1.0601852E+00   9.9999998E-03   1.8008302E-01
  1.0602012E+00   9.9999998E-03   2.0009348E-01
  1.0602216E+00   9.9999998E-03   2.2010693E-01
  1.0602455E+00   9.9999998E-03   2.4012251E-01
  1.0602720E+00   9.9999998E-03   2.6013494E-01
  1.0602980E+00   9.9999998E-03   2.8014290E-01
  1.0603235E+00   9.9999998E-03   3.0015394E-01
  1.0801654E+00   9.9999998E-03   1.6006495E-01
  1.0801790E+00   9.9999998E-03   1.8007387E-01
  1.0801966E+00   9.9999998E-03   2.0008411E-01
  1.0802191E+00   9.9999998E-03   2.2009724E-01
  1.0802456E+00   9.9999998E-03   2.4011160E-01
  1.0802765E+00   9.9999998E-03   2.6012319E-01
  1.0803075E+00   9.9999998E-03   2.8013191E-01
  1.0803388E+00   9.9999998E-03   3.0014181E-01
  1.1001588E+00   9.9999998E-03   1.6005707E-01
  1.1001736E+00   9.9999998E-03   1.8006560E-01
  1.1001931E+00   9.9999998E-03   2.0007606E-01
  1.1002178E+00   9.9999998E-03   2.2008902E-01
  1.1002473E+00   9.9999998E-03   2.4010241E-01
  1.1002793E+00   9.9999998E-03   2.6011270E-01
  1.1003114E+00   9.9999998E-03   2.8012207E-01
  1.1201535E+00   9.9999998E-03   1.6005000E-01
  1.1201698E+00   9.9999998E-03   1.8005861E-01
  1.1201912E+00   9.9999998E-03   2.0006944E-01
  1.1202185E+00   9.9999998E-03   2.2008246E-01
  1.1202496E+00   9.9999998E-03   2.4009489E-01
  1.1202807E+00   9.9999998E-03   2.6010469E-01
  1.1203099E+00   9.9999998E-03   2.8011402E-01
  1.1401497E+00   9.9999998E-03   1.6004421E-01
  1.1401677E+00   9.9999998E-03   1.8005334E-01
  1.1401918E+00   9.9999998E-03   2.0006508E-01
  1.1402217E+00   9.9999998E-03   2.2007853E-01
  1.1402520E+00   9.9999998E-03   2.4008982E-01
  1.1402802E+00   9.9999998E-03   2.6009941E-01
  1.1601480E+00   9.9999998E-03   1.6004044E-01
  1.1601686E+00   9.9999998E-03   1.8005082E-01
  1.1601962E+00   9.9999998E-03   2.0006402E-01
  1.1602263E+00   9.9999998E-03   2.2007695E-01
  1.1602541E+00   9.9999998E-03   2.4008760E-01
  1.1602770E+00   9.9999998E-03   2.6009560E-01
  1.1801503E+00   9.9999998E-03   1.6004008E-01
  1.1801752E+00   9.9999998E-03   1.8005247E-01
  1.1802033E+00   9.9999998E-03   2.0006570E-01
  1.1802306E+00   9.9999998E-03   2.2007726E-01
  1.1802531E+00   9.9999998E-03   2.4008618E-01
  1.2001593E+00   9.9999998E-03   1.6004439E-01
  1.2001851E+00   9.9999998E-03   1.8005662E-01
  1.2002102E+00   9.9999998E-03   2.0006837E-01
  1.2002317E+00   9.9999998E-03   2.2007757E-01
  1.2201718E+00   9.9999998E-03   1.6005032E-01
  1.2201935E+00   9.9999998E-03   1.8006085E-01
  1.2202129E+00   9.9999998E-03   2.0007023E-01
  1.2202255E+00   9.9999998E-03   2.2007509E-01
  1.2401789E+00   9.9999998E-03   1.6005473E-01
  1.2401936E+00   9.9999998E-03   1.8006246E-01
  1.2601759E+00   9.9999998E-03   1.6005580E-01
VERTICES 2975 5950
1 0
1 1
1 2
1 3
1 4
1 5
1 6
1 7
1 8
1 9
1 10
1 11
1 12
1 13
1 14
1 15
1 16
1 17
1 18
1 19
1 20
1 21
1 22
1 23
1 24
1 25
1 26
1 27
1 28
1 29
1 30
1 31
1 32
1 33
1 34
1 35
1 36
1 37
1 38
1 39
1 40
1 41
1 42
1 43
1 44
1 45
1 46
1 47
1 48
1 49
1 50
1 51
1 52
1 53
1 54
1 55
1 56
1 57
1 58
1 59
1 60
1 61
1 62
1 63
1 64
1 65
1 66
1 67
1 68
1 69
1 70
1 71
1 72
1 73
1 74
1 75
1 76
1 77
1 78
1 79
1 80
1 81
1 82
1 83
1 84
1 85
1 86
1 87
1 88
1 89
1 90
1 91
1 92
1 93
1 94
1 95
1 96
1 97
1 98
1 99
1 100
1 101
1 102
1 103
1 104
1 105
1 106
1 107
1 108
1 109
1 110
1 111
1 112
1 113
1 114
1 115
1 116
1 117
1 118
1 119
1 120
1 121
1 122
1 123
1 124
1 125
1 126
1 127
1 128
1 129
1 130
1 131
1 132
1 133
1 134
1 135
1 136
1 137
1 138
1 139
1 140
1 141
1 142
1 143
1 144
1 145
1 146
1 147
1 148
1 149
1 150
1 151
1 152
1 153
1 154
1 155
1 156
1 157
1 158
1 159
1 160
1 161
1 162
1 163
1 164
1 165
1 166
1 167
1 168
1 169
1 170
1 171
1 172
1 173
1 174
1 175
1 176
1 177
1 178
1 179
1 180
1 181
1 182
1 183
1 184
1 185
1 186
1 187
1 188
1 189
1 190
1 191
1 192
1 193
1 194
1 195
1 196
1 197
1 198
1 199
1 200
1 201
1 202
1 203
1 204
1 205
1 206
1 207
1 208
1 209
1 210
1 211
1 212
1 213
1 214
1 215
1 216
1 217
1 218
1 219
1 220
1 221
1 222
1 223
1 224
1 225
1 226
1 227
1 228
1 229
1 230
1 231
1 232
1 233
1 234
1 235
1 236
1 237
1 238
1 239
1 240
1 241
1 242
1 243
1 244
1 245
1 246
1 247
1 248
1 249
1 250
1 251
1 252
1 253
1 254
1 255
1 256
1 257
1 258
1 259
1 260
1 261
1 262
1 263
1 264
1 265
1 266
1 267
1 268
1 269
1 270
1 271
1 272
1 273
1 274
1 275
1 276
1 277
1 278
1 279
1 280
1 281
1 282
1 283
1 284
1 285
1 286
1 287
1 288
1 289
1 290
1 291
1 292
1 293
1 294
1 295
1 296
1 297
1 298
1 299
1 300
1 301
1 302
1 303
1 304
1 305
1 306
1 307
1 308
1 309
1 310
1 311
1 312
1 313
1 314
1 315
1 316
1 317
1 318
1 319
1 320
1 321
1 322
1 323
1 324
1 325
1 326
1 327
1 328
1 329
1 330
1 331
1 332
1 333
1 334
1 335
1 336
1 337
1 338
1 339
1 340
1 341
1 342
1 343
1 344
1 345
1 346
1 347
1 348
1 349
1 350
1 351
1 352
1 353
1 354
1 355
1 356
1 357
1 358
1 359
1 360
1 361
1 362
1 363
1 364
1 365
1 366
1 367
1 368
1 369
1 370
1 371
1 372
1 373
1 374
1 375
1 376
1 377
1 378
1 379
1 380
1 381
1 382
1 383
1 384
1 385
1 386
1 387
1 388
1 389
1 390
1 391
1 392
1 393
1 394
1 395
1 396
1 397
1 398
1 399
1 400
1 401
1 402
1 403
1 404
1 405
1 406
1 407
1 408
1 409
1 410
1 411
1 412
1 413
1 414
1 415
1 416
1 417
1 418
1 419
1 420
1 421
1 422
1 423
1 424
1 425
1 426
1 427
1 428
1 429
1 430
1 431
1 432
1 433
1 434
1 435
1 436
1 437
1 438
1 439
1 440
1 441
1 442
1 443
1 444
1 445
1 446
1 447
1 448
1 449
1 450
1 451
1 452
1 453
1 454
1 455
1 456
1 457
1 458
1 459
1 460
1 461
1 462
1 463
1 464
1 465
1 466
1 467
1 468
1 469
1 470
1 471
1 472
1 473
1 474
1 475
1 476
1 477
1 478
1 479
1 480
1 481
1 482
1 483
1 484
1 485
1 486
1 487
1 488
1 489
1 490
1 491
1 492
1 493
1 494
1 495
1 496
1 497
1 498
1 499
1 500
1 501
1 502
1 503
1 504
1 505
1 506
1 507
1 508
1 509
1 510
1 511
1 512
1 513
1 514
1 515
1 516
1 517
1 518
1 519
1 520
1 521
1 522
1 523
1 524
1 525
1 526
1 527
1 528
1 529
1 530
1 531
1 532
1 533
1 534
1 535
1 536
1 537
1 538
1 539
1 540
1 541
1 542
1 543
1 544
1 545
1 546
1 547
1 548
1 549
1 550
1 551
1 552
1 553
1 554
1 555
1 556
1 557
1 558
1 559
1 560
1 561
1 562
1 563
1 564
1 565
1 566
1 567
1 568
1 569
1 570
1 571
1 572
1 573
1 574
1 575
1 576
1 577
1 578
1 579
1 580
1 581
1 582
1 583
1 584
1 585
1 586
1 587
1 588
1 589
1 590
1 591
1 592
1 593
1 594
1 595
1 596
1 597
1 598
1 599
1 600
1 601
1 602
1 603
1 604
1 605
1 606
1 607
1 608
1 609
1 610
1 611
1 612
1 613
1 614
1 615
1 616
1 617
1 618
1 619
1 620
1 621
1 622
1 623
1 624
1 625
1 626
1 627
1 628
1 629
1 630
1 631
1 632
1 633
1 634
1 635
1 636
1 637
1 638
1 639
1 640
1 641
1 642
1 643
1 644
1 645
1 646
1 647
1 648
1 649
1 650
1 651
1 652
1 653
1 654
1 655
1 656
1 657
1 658
1 659
1 660
1 661
1 662
1 663
1 664
1 665
1 666
1 667
1 668
1 669
1 670
1 671
1 672
1 673
1 674
1 675
1 676
1 677
1 678
1 679
1 680
1 681
1 682
1 683
1 684
1 685
1 686
1 687
1 688
1 689
1 690
1 691
1 692
1 693
1 694
1 695
1 696
1 697
1 698
1 699
1 700
1 701
1 702
1 703
1 704
1 705
1 706
1 707
1 708
1 709
1 710
1 711
1 712
1 713
1 714
1 715
1 716
1 717
1 718
1 719
1 720
1 721
1 722
1 723
1 724
1 725
1 726
1 727
1 728
1 729
1 730
1 731
1 732
1 733
1 734
1 735
1 736
1 737
1 738
1 739
1 740
1 741
1 742
1 743
1 744
1 745
1 746
1 747
1 748
1 749
1 750
1 751
1 752
1 753
1 754
1 755
1 756
1 757
1 758
1 759
1 760
1 761
1 762
1 763
1 764
1 765
1 766
1 767
1 768
1 769
1 770
1 771
1 772
1 773
1 774
1 775
1 776
1 777
1 778
1 779
1 780
1 781
1 782
1 783
1 784
1 785
1 786
1 787
1 788
1 789
1 790
1 791
1 792
1 793
1 794
1 795
1 796
1 797
1 798
1 799
1 800
1 801
1 802
1 803
1 804
1 805
1 806
1 807
1 808
1 809
1 810
1 811
1 812
1 813
1 814
1 815
1 816
1 817
1 818
1 819
1 820
1 821
1 822
1 823
1 824
1 825
1 826
1 827
1 828
1 829
1 830
1 831
1 832
1 833
1 834
1 835
1 836
1 837
1 838
1 839
1 840
1 841
1 842
1 843
1 844
1 845
1 846
1 847
1 848
1 849
1 850
1 851
1 852
1 853
1 854
1 855
1 856
1 857
1 858
1 859
1 860
1 861
1 862
1 863
1 864
1 865
1 866
1 867
1 868
1 869
1 870
1 871
1 872
1 873
1 874
1 875
1 876
1 877
1 878
1 879
1 880
1 881
1 882
1 883
1 884
1 885
1 886
1 887
1 888
1 889
1 890
1 891
1 892
1 893
1 894
1 895
1 896
1 897
1 898
1 899
1 900
1 901
1 902
1 903
1 904
1 905
1 906
1 907
1 908
1 909
1 910
1 911
1 912
1 913
1 914
1 915
1 916
1 917
1 918
1 919
1 920
1 921
1 922
1 923
1 924
1 925
1 926
1 927
1 928
1 929
1 930
1 931
1 932
1 933
1 934
1 935
1 936
1 937
1 938
1 939
1 940
1 941
1 942
1 943
1 944
1 945
1 946
1 947
1 948
1 949
1 950
1 951
1 952
1 953
1 954
1 955
1 956
1 957
1 958
1 959
1 960
1 961
1 962
1 963
1 964
1 965
1 966
1 967
1 968
1 969
1 970
1 971
1 972
1 973
1 974
1 975
1 976
1 977
1 978
1 979
1 980
1 981
1 982
1 983
1 984
1 985
1 986
1 987
1 988
1 989
1 990
1 991
1 992
1 993
1 994
1 995
1 996
1 997
1 998
1 999
1 1000
1 1001
1 1002
1 1003
1 1004
1 1005
1 1006
1 1007
1 1008
1 1009
1 1010
1 1011
1 1012
1 1013
1 1014
1 1015
1 1016
1 1017
1 1018
1 1019
1 1020
1 1021
1 1022
1 1023
1 1024
1 1025
1 1026
1 1027
1 1028
1 1029
1 1030
1 1031
1 1032
1 1033
1 1034
1 1035
1 1036
1 1037
1 1038
1 1039
1 1040
1 1041
1 1042
1 1043
1 1044
1 1045
1 1046
1 1047
1 1048
1 1049
1 1050
1 1051
1 1052
1 1053
1 1054
1 1055
1 1056
1 1057
1 1058
1 1059
1 1060
1 1061
1 1062
1 1063
1 1064
1 1065
1 1066
1 1067
1 1068
1 1069
1 1070
1 1071
1 1072
1 1073
1 1074
1 1075
1 1076
1 1077
1 1078
1 1079
1 1080
1 1081
1 1082
1 1083
1 1084
1 1085
1 1086
1 1087
1 1088
1 1089
1 1090
1 1091
1 1092
1 1093
1 1094
1 1095
1 1096
1 1097
1 1098
1 1099
1 1100
1 1101
1 1102
1 1103
1 1104
1 1105
1 1106
1 1107
1 1108
1 1109
1 1110
1 1111
1 1112
1 1113
1 1114
1 1115
1 1116
1 1117
1 1118
1 1119
1 1120
1 1121
1 1122
1 1123
1 1124
1 1125
1 1126
1 1127
1 1128
1 1129
1 1130
1 1131
1 1132
1 1133
1 1134
1 1135
1 1136
1 1137
1 1138
1 1139
1 1140
1 1141
1 1142
1 1143
1 1144
1 1145
1 1146
1 1147
1 1148
1 1149
1 1150
1 1151
1 1152
1 1153
1 1154
1 1155
1 1156
1 1157
1 1158
1 1159
1 1160
1 1161
1 1162
1 1163
1 1164
1 1165
1 1166
1 1167
1 1168
1 1169
1 1170
1 1171
1 1172
1 1173
1 1174
1 1175
1 1176
1 1177
1 1178
1 1179
1 1180
1 1181
1 1182
1 1183
1 1184
1 1185
1 1186
1 1187
1 1188
1 1189
1 1190
1 1191
1 1192
1 1193
1 1194
1 1195
1 1196
1 1197
1 1198
1 1199
1 1200
1 1201
1 1202
1 1203
1 1204
1 1205
1 1206
1 1207
1 1208
1 1209
1 1210
1 1211
1 1212
1 1213
1 1214
1 1215
1 1216
1 1217
1 1218
1 1219
1 1220
1 1221
1 1222
1 1223
1 1224
1 1225
1 1226
1 1227
1 1228
1 1229
1 1230
1 1231
1 1232
1 1233
1 1234
1 1235
1 1236
1 1237
1 1238
1 1239
1 1240
1 1241
1 1242
1 1243
1 1244
1 1245
1 1246
1 1247
1 1248
1 1249
1 1250
1 1251
1 1252
1 1253
1 1254
1 1255
1 1256
1 1257
1 1258
1 1259
1 1260
1 1261
1 1262
1 1263
1 1264
1 1265
1 1266
1 1267
1 1268
1 1269
1 1270
1 1271
1 1272
1 1273
1 1274
1 1275
1 1276
1 1277
1 1278
1 1279
1 1280
1 1281
1 1282
1 1283
1 1284
1 1285
1 1286
1 1287
1 1288
1 1289
1 1290
1 1291
1 1292
1 1293
1 1294
1 1295
1 1296
1 1297
1 1298
1 1299
1 1300
1 1301
1 1302
1 1303
1 1304
1 1305
1 1306
1 1307
1 1308
1 1309
1 1310
1 1311
1 1312
1 1313
1 1314
1 1315
1 1316
1 1317
1 1318
1 1319
1 1320
1 1321
1 1322
1 1323
1 1324
1 1325
1 1326
1 1327
1 1328
1 1329
1 1330
1 1331
1 1332
1 1333
1 1334
1 1335
1 1336
1 1337
1 1338
1 1339
1 1340
1 1341
1 1342
1 1343
1 1344
1 1345
1 1346
1 1347
1 1348
1 1349
1 1350
1 1351
1 1352
1 1353
1 1354
1 1355
1 1356
1 1357
1 1358
1 1359
1 1360
1 1361
1 1362
1 1363
1 1364
1 1365
1 1366
1 1367
1 1368
1 1369
1 1370
1 1371
1 1372
1 1373
1 1374
1 1375
1 1376
1 1377
1 1378
1 1379
1 1380
1 1381
1 1382
1 1383
1 1384
1 1385
1 1386
1 1387
1 1388
1 1389
1 1390
1 1391
1 1392
1 1393
1 1394
1 1395
1 1396
1 1397
1 1398
1 1399
1 1400
1 1401
1 1402
1 1403
1 1404
1 1405
1 1406
1 1407
1 1408
1 1409
1 1410
1 1411
1 1412
1 1413
1 1414
1 1415
1 1416
1 1417
1 1418
1 1419
1 1420
1 1421
1 1422
1 1423
1 1424
1 1425
1 1426
1 1427
1 1428
1 1429
1 1430
1 1431
1 1432
1 1433
1 1434
1 1435
1 1436
1 1437
1 1438
1 1439
1 1440
1 1441
1 1442
1 1443
1 1444
1 1445
1 1446
1 1447
1 1448
1 1449
1 1450
1 1451
1 1452
1 1453
1 1454
1 1455
1 1456
1 1457
1 1458
1 1459
1 1460
1 1461
1 1462
1 1463
1 1464
1 1465
1 1466
1 1467
1 1468
1 1469
1 1470
1 1471
1 1472
1 1473
1 1474
1 1475
1 1476
1 1477
1 1478
1 1479
1 1480
1 1481
1 1482
1 1483
1 1484
1 1485
1 1486
1 1487
1 1488
1 1489
1 1490
1 1491
1 1492
1 1493
1 1494
1 1495
1 1496
1 1497
1 1498
1 1499
1 1500
1 1501
1 1502
1 1503
1 1504
1 1505
1 1506
1 1507
1 1508
1 1509
1 1510
1 1511
1 1512
1 1513
1 1514
1 1515
1 1516
1 1517
1 1518
1 1519
1 1520
1 1521
1 1522
1 1523
1 1524
1 1525
1 1526
1 1527
1 1528
1 1529
1 1530
1 1531
1 1532
1 1533
1 1534
1 1535
1 1536
1 1537
1 1538
1 1539
1 1540
1 1541
1 1542
1 1543
1 1544
1 1545
1 1546
1 1547
1 1548
1 1549
1 1550
1 1551
1 1552
1 1553
1 1554
1 1555
1 1556
1 1557
1 1558
1 1559
1 1560
1 1561
1 1562
1 1563
1 1564
1 1565
1 1566
1 1567
1 1568
1 1569
1 1570
1 1571
1 1572
1 1573
1 1574
1 1575
1 1576
1 1577
1 1578
1 1579
1 1580
1 1581
1 1582
1 1583
1 1584
1 1585
1 1586
1 1587
1 1588
1 1589
1 1590
1 1591
1 1592
1 1593
1 1594
1 1595
1 1596
1 1597
1 1598
1 1599
1 1600
1 1601
1 1602
1 1603
1 1604
1 1605
1 1606
1 1607
1 1608
1 1609
1 1610
1 1611
1 1612
1 1613
1 1614
1 1615
1 1616
1 1617
1 1618
1 1619
1 1620
1 1621
1 1622
1 1623
1 1624
1 1625
1 1626
1 1627
1 1628
1 1629
1 1630
1 1631
1 1632
1 1633
1 1634
1 1635
1 1636
1 1637
1 1638
1 1639
1 1640
1 1641
1 1642
1 1643
1 1644
1 1645
1 1646
1 1647
1 1648
1 1649
1 1650
1 1651
1 1652
1 1653
1 1654
1 1655
1 1656
1 1657
1 1658
1 1659
1 1660
1 1661
1 1662
1 1663
1 1664
1 1665
1 1666
1 1667
1 1668
1 1669
1 1670
1 1671
1 1672
1 1673
1 1674
1 1675
1 1676
1 1677
1 1678
1 1679
1 1680
1 1681
1 1682
1 1683
1 1684
1 1685
1 1686
1 1687
1 1688
1 1689
1 1690
1 1691
1 1692
1 1693
1 1694
1 1695
1 1696
1 1697
1 1698
1 1699
1 1700
1 1701
1 1702
1 1703
1 1704
1 1705
1 1706
1 1707
1 1708
1 1709
1 1710
1 1711
1 1712
1 1713
1 1714
1 1715
1 1716
1 1717
1 1718
1 1719
1 1720
1 1721
1 1722
1 1723
1 1724
1 1725
1 1726
1 1727
1 1728
1 1729
1 1730
1 1731
1 1732
1 1733
1 1734
1 1735
1 1736
1 1737
1 1738
1 1739
1 1740
1 1741
1 1742
1 1743
1 1744
1 1745
1 1746
1 1747
1 1748
1 1749
1 1750
1 1751
1 1752
1 1753
1 1754
1 1755
1 1756
1 1757
1 1758
1 1759
1 1760
1 1761
1 1762
1 1763
1 1764
1 1765
1 1766
1 1767
1 1768
1 1769
1 1770
1 1771
1 1772
1 1773
1 1774
1 1775
1 1776
1 1777
1 1778
1 1779
1 1780
1 1781
1 1782
1 1783
1 1784
1 1785
1 1786
1 1787
1 1788
1 1789
1 1790
1 1791
1 1792
1 1793
1 1794
1 1795
1 1796
1 1797
1 1798
1 1799
1 1800
1 1801
1 1802
1 1803
1 1804
1 1805
1 1806
1 1807
1 1808
1 1809
1 1810
1 1811
1 1812
1 1813
1 1814
1 1815
1 1816
1 1817
1 1818
1 1819
1 1820
1 1821
1 1822
1 1823
1 1824
1 1825
1 1826
1 1827
1 1828
1 1829
1 1830
1 1831
1 1832
1 1833
1 1834
1 1835
1 1836
1 1837
1 1838
1 1839
1 1840
1 1841
1 1842
1 1843
1 1844
1 1845
1 1846
1 1847
1 1848
1 1849
1 1850
1 1851
1 1852
1 1853
1 1854
1 1855
1 1856
1 1857
1 1858
1 1859
1 1860
1 1861
1 1862
1 1863
1 1864
1 1865
1 1866
1 1867
1 1868
1 1869
1 1870
1 1871
1 1872
1 1873
1 1874
1 1875
1 1876
1 1877
1 1878
1 1879
1 1880
1 1881
1 1882
1 1883
1 1884
1 1885
1 1886
1 1887
1 1888
1 1889
1 1890
1 1891
1 1892
1 1893
1 1894
1 1895
1 1896
1 1897
1 1898
1 1899
1 1900
1 1901
1 1902
1 1903
1 1904
1 1905
1 1906
1 1907
1 1908
1 1909
1 1910
1 1911
1 1912
1 1913
1 1914
1 1915
1 1916
1 1917
1 1918
1 1919
1 1920
1 1921
1 1922
1 1923
1 1924
1 1925
1 1926
1 1927
1 1928
1 1929
1 1930
1 1931
1 1932
1 1933
1 1934
1 1935
1 1936
1 1937
1 1938
1 1939
1 1940
1 1941
1 1942
1 1943
1 1944
1 1945
1 1946
1 1947
1 1948
1 1949
1 1950
1 1951
1 1952
1 1953
1 1954
1 1955
1 1956
1 1957
1 1958
1 1959
1 1960
1 1961
1 1962
1 1963
1 1964
1 1965
1 1966
1 1967
1 1968
1 1969
1 1970
1 1971
1 1972
1 1973
1 1974
1 1975
1 1976
1 1977
1 1978
1 1979
1 1980
1 1981
1 1982
1 1983
1 1984
1 1985
1 1986
1 1987
1 1988
1 1989
1 1990
1 1991
1 1992
1 1993
1 1994
1 1995
1 1996
1 1997
1 1998
1 1999
1 2000
1 2001
1 2002
1 2003
1 2004
1 2005
1 2006
1 2007
1 2008
1 2009
1 2010
1 2011
1 2012
1 2013
1 2014
1 2015
1 2016
1 2017
1 2018
1 2019
1 2020
1 2021
1 2022
1 2023
1 2024
1 2025
1 2026
1 2027
1 2028
1 2029
1 2030
1 2031
1 2032
1 2033
1 2034
1 2035
1 2036
1 2037
1 2038
1 2039
1 2040
1 2041
1 2042
1 2043
1 2044
1 2045
1 2046
1 2047
1 2048
1 2049
1 2050
1 2051
1 2052
1 2053
1 2054
1 2055
1 2056
1 2057
1 2058
1 2059
1 2060
1 2061
1 2062
1 2063
1 2064
1 2065
1 2066
1 2067
1 2068
1 2069
1 2070
1 2071
1 2072
1 2073
1 2074
1 2075
1 2076
1 2077
1 2078
1 2079
1 2080
1 2081
1 2082
1 2083
1 2084
1 2085
1 2086
1 2087
1 2088
1 2089
1 2090
1 2091
1 2092
1 2093
1 2094
1 2095
1 2096
1 2097
1 2098
1 2099
1 2100
1 2101
1 2102
1 2103
1 2104
1 2105
1 2106
1 2107
1 2108
1 2109
1 2110
1 2111
1 2112
1 2113
1 2114
1 2115
1 2116
1 2117
1 2118
1 2119
1 2120
1 2121
1 2122
1 2123
1 2124
1 2125
1 2126
1 2127
1 2128
1 2129
1 2130
1 2131
1 2132
1 2133
1 2134
1 2135
1 2136
1 2137
1 2138
1 2139
1 2140
1 2141
1 2142
1 2143
1 2144
1 2145
1 2146
1 2147
1 2148
1 2149
1 2150
1 2151
1 2152
1 2153
1 2154
1 2155
1 2156
1 2157
1 2158
1 2159
1 2160
1 2161
1 2162
1 2163
1 2164
1 2165
1 2166
1 2167
1 2168
1 2169
1 2170
1 2171
1 2172
1 2173
1 2174
1 2175
1 2176
1 2177
1 2178
1 2179
1 2180
1 2181
1 2182
1 2183
1 2184
1 2185
1 2186
1 2187
1 2188
1 2189
1 2190
1 2191
1 2192
1 2193
1 2194
1 2195
1 2196
1 2197
1 2198
1 2199
1 2200
1 2201
1 2202
1 2203
1 2204
1 2205
1 2206
1 2207
1 2208
1 2209
1 2210
1 2211
1 2212
1 2213
1 2214
1 2215
1 2216
1 2217
1 2218
1 2219
1 2220
1 2221
1 2222
1 2223
1 2224
1 2225
1 2226
1 2227
1 2228
1 2229
1 2230
1 2231
1 2232
1 2233
1 2234
1 2235
1 2236
1 2237
1 2238
1 2239
1 2240
1 2241
1 2242
1 2243
1 2244
1 2245
1 2246
1 2247
1 2248
1 2249
1 2250
1 2251
1 2252
1 2253
1 2254
1 2255
1 2256
1 2257
1 2258
1 2259
1 2260
1 2261
1 2262
1 2263
1 2264
1 2265
1 2266
1 2267
1 2268
1 2269
1 2270
1 2271
1 2272
1 2273
1 2274
1 2275
1 2276
1 2277
1 2278
1 2279
1 2280
1 2281
1 2282
1 2283
1 2284
1 2285
1 2286
1 2287
1 2288
1 2289
1 2290
1 2291
1 2292
1 2293
1 2294
1 2295
1 2296
1 2297
1 2298
1 2299
1 2300
1 2301
1 2302
1 2303
1 2304
1 2305
1 2306
1 2307
1 2308
1 2309
1 2310
1 2311
1 2312
1 2313
1 2314
1 2315
1 2316
1 2317
1 2318
1 2319
1 2320
1 2321
1 2322
1 2323
1 2324
1 2325
1 2326
1 2327
1 2328
1 2329
1 2330
1 2331
1 2332
1 2333
1 2334
1 2335
1 2336
1 2337
1 2338
1 2339
1 2340
1 2341
1 2342
1 2343
1 2344
1 2345
1 2346
1 2347
1 2348
1 2349
1 2350
1 2351
1 2352
1 2353
1 2354
1 2355
1 2356
1 2357
1 2358
1 2359
1 2360
1 2361
1 2362
1 2363
1 2364
1 2365
1 2366
1 2367
1 2368
1 2369
1 2370
1 2371
1 2372
1 2373
1 2374
1 2375
1 2376
1 2377
1 2378
1 2379
1 2380
1 2381
1 2382
1 2383
1 2384
1 2385
1 2386
1 2387
1 2388
1 2389
1 2390
1 2391
1 2392
1 2393
1 2394
1 2395
1 2396
1 2397
1 2398
1 2399
1 2400
1 2401
1 2402
1 2403
1 2404
1 2405
1 2406
1 2407
1 2408
1 2409
1 2410
1 2411
1 2412
1 2413
1 2414
1 2415
1 2416
1 2417
1 2418
1 2419
1 2420
1 2421
1 2422
1 2423
1 2424
1 2425
1 2426
1 2427
1 2428
1 2429
1 2430
1 2431
1 2432
1 2433
1 2434
1 2435
1 2436
1 2437
1 2438
1 2439
1 2440
1 2441
1 2442
1 2443
1 2444
1 2445
1 2446
1 2447
1 2448
1 2449
1 2450
1 2451
1 2452
1 2453
1 2454
1 2455
1 2456
1 2457
1 2458
1 2459
1 2460
1 2461
1 2462
1 2463
1 2464
1 2465
1 2466
1 2467
1 2468
1 2469
1 2470
1 2471
1 2472
1 2473
1 2474
1 2475
1 2476
1 2477
1 2478
1 2479
1 2480
1 2481
1 2482
1 2483
1 2484
1 2485
1 2486
1 2487
1 2488
1 2489
1 2490
1 2491
1 2492
1 2493
1 2494
1 2495
1 2496
1 2497
1 2498
1 2499
1 2500
1 2501
1 2502
1 2503
1 2504
1 2505
1 2506
1 2507
1 2508
1 2509
1 2510
1 2511
1 2512
1 2513
1 2514
1 2515
1 2516
1 2517
1 2518
1 2519
1 2520
1 2521
1 2522
1 2523
1 2524
1 2525
1 2526
1 2527
1 2528
1 2529
1 2530
1 2531
1 2532
1 2533
1 2534
1 2535
1 2536
1 2537
1 2538
1 2539
1 2540
1 2541
1 2542
1 2543
1 2544
1 2545
1 2546
1 2547
1 2548
1 2549
1 2550
1 2551
1 2552
1 2553
1 2554
1 2555
1 2556
1 2557
1 2558
1 2559
1 2560
1 2561
1 2562
1 2563
1 2564
1 2565
1 2566
1 2567
1 2568
1 2569
1 2570
1 2571
1 2572
1 2573
1 2574
1 2575
1 2576
1 2577
1 2578
1 2579
1 2580
1 2581
1 2582
1 2583
1 2584
1 2585
1 2586
1 2587
1 2588
1 2589
1 2590
1 2591
1 2592
1 2593
1 2594
1 2595
1 2596
1 2597
1 2598
1 2599
1 2600
1 2601
1 2602
1 2603
1 2604
1 2605
1 2606
1 2607
1 2608
1 2609
1 2610
1 2611
1 2612
1 2613
1 2614
1 2615
1 2616
1 2617
1 2618
1 2619
1 2620
1 2621
1 2622
1 2623
1 2624
1 2625
1 2626
1 2627
1 2628
1 2629
1 2630
1 2631
1 2632
1 2633
1 2634
1 2635
1 2636
1 2637
1 2638
1 2639
1 2640
1 2641
1 2642
1 2643
1 2644
1 2645
1 2646
1 2647
1 2648
1 2649
1 2650
1 2651
1 2652
1 2653
1 2654
1 2655
1 2656
1 2657
1 2658
1 2659
1 2660
1 2661
1 2662
1 2663
1 2664
1 2665
1 2666
1 2667
1 2668
1 2669
1 2670
1 2671
1 2672
1 2673
1 2674
1 2675
1 2676
1 2677
1 2678
1 2679
1 2680
1 2681
1 2682
1 2683
1 2684
1 2685
1 2686
1 2687
1 2688
1 2689
1 2690
1 2691
1 2692
1 2693
1 2694
1 2695
1 2696
1 2697
1 2698
1 2699
1 2700
1 2701
1 2702
1 2703
1 2704
1 2705
1 2706
1 2707
1 2708
1 2709
1 2710
1 2711
1 2712
1 2713
1 2714
1 2715
1 2716
1 2717
1 2718
1 2719
1 2720
1 2721
1 2722
1 2723
1 2724
1 2725
1 2726
1 2727
1 2728
1 2729
1 2730
1 2731
1 2732
1 2733
1 2734
1 2735
1 2736
1 2737
1 2738
1 2739
1 2740
1 2741
1 2742
1 2743
1 2744
1 2745
1 2746
1 2747
1 2748
1 2749
1 2750
1 2751
1 2752
1 2753
1 2754
1 2755
1 2756
1 2757
1 2758
1 2759
1 2760
1 2761
1 2762
1 2763
1 2764
1 2765
1 2766
1 2767
1 2768
1 2769
1 2770
1 2771
1 2772
1 2773
1 2774
1 2775
1 2776
1 2777
1 2778
1 2779
1 2780
1 2781
1 2782
1 2783
1 2784
1 2785
1 2786
1 2787
1 2788
1 2789
1 2790
1 2791
1 2792
1 2793
1 2794
1 2795
1 2796
1 2797
1 2798
1 2799
1 2800
1 2801
1 2802
1 2803
1 2804
1 2805
1 2806
1 2807
1 2808
1 2809
1 2810
1 2811
1 2812
1 2813
1 2814
1 2815
1 2816
1 2817
1 2818
1 2819
1 2820
1 2821
1 2822
1 2823
1 2824
1 2825
1 2826
1 2827
1 2828
1 2829
1 2830
1 2831
1 2832
1 2833
1 2834
1 2835
1 2836
1 2837
1 2838
1 2839
1 2840
1 2841
1 2842
1 2843
1 2844
1 2845
1 2846
1 2847
1 2848
1 2849
1 2850
1 2851
1 2852
1 2853
1 2854
1 2855
1 2856
1 2857
1 2858
1 2859
1 2860
1 2861
1 2862
1 2863
1 2864
1 2865
1 2866
1 2867
1 2868
1 2869
1 2870
1 2871
1 2872
1 2873
1 2874
1 2875
1 2876
1 2877
1 2878
1 2879
1 2880
1 2881
1 2882
1 2883
1 2884
1 2885
1 2886
1 2887
1 2888
1 2889
1 2890
1 2891
1 2892
1 2893
1 2894
1 2895
1 2896
1 2897
1 2898
1 2899
1 2900
1 2901
1 2902
1 2903
1 2904
1 2905
1 2906
1 2907
1 2908
1 2909
1 2910
1 2911
1 2912
1 2913
1 2914
1 2915
1 2916
1 2917
1 2918
1 2919
1 2920
1 2921
1 2922
1 2923
1 2924
1 2925
1 2926
1 2927
1 2928
1 2929
1 2930
1 2931
1 2932
1 2933
1 2934
1 2935
1 2936
1 2937
1 2938
1 2939
1 2940
1 2941
1 2942
1 2943
1 2944
1 2945
1 2946
1 2947
1 2948
1 2949
1 2950
1 2951
1 2952
1 2953
1 2954
1 2955
1 2956
1 2957
1 2958
1 2959
1 2960
1 2961
1 2962
1 2963
1 2964
1 2965
1 2966
1 2967
1 2968
1 2969
1 2970
1 2971
1 2972
1 2973
1 2974
POINT_DATA 2975
SCALARS Idp unsigned_int
LOOKUP_TABLE default
0 1 39 40 41 80 81 82 121 122 123 162 163 164 203 204 205 244 245 246 285 286 287 326 327 328 367 368 369 408 409 410 449 450 451 461 462 463 471 472 473 481 482 483 491 492 493 501 502 503 511 512 513 521 522 523 531 532 533 541 542 543 551 552 2 3 4 5 6 7 8 9 42 43 44 45 46 47 48 49 83 84 85 86 87 88 89 90 124 125 126 127 128 129 130 131 165 166 167 168 169 170 171 172 206 207 208 209 210 211 212 213 247 248 249 250 251 252 253 254 288 289 290 291 292 293 294 295 329 330 331 332 333 334 335 336 370 371 372 373 374 375 376 377 411 412 413 414 415 416 417 418 452 453 454 464 465 474 475 484 485 494 495 504 505 514 515 524 525 534 535 544 545 553 554 10 11 12 13 14 15 16 17 18 50 51 52 53 54 55 56 57 58 91 92 93 94 95 96 97 98 99 132 133 134 135 136 137 138 139 140 173 174 175 176 177 178 179 180 181 214 215 216 217 218 219 220 221 222 255 256 257 258 259 260 261 262 263 296 297 298 299 300 301 302 303 304 337 338 339 340 341 342 343 344 345 378 379 380 381 382 383 384 385 386 419 420 421 422 423 424 425 426 427 19 20 21 22 23 24 25 26 59 60 61 62 63 64 65 66 100 101 102 103 104 105 106 107 141 142 143 144 145 146 147 148 182 183 184 185 186 187 188 189 223 224 225 226 227 228 229 230 264 265 266 267 268 269 270 271 305 306 307 308 309 310 311 312 346 347 348 349 350 351 352 353 387 388 389 390 391 392 393 394 428 429 430 431 432 433 434 435 27 28 29 30 31 32 33 34 35 67 68 69 70 71 72 73 74 75 108 109 110 111 112 113 114 115 116 149 150 151 152 153 154 155 156 157 190 191 192 193 194 195 196 197 198 231 232 233 234 235 236 237 238 239 272 273 274 275 276 277 278 279 280 313 314 315 316 317 318 319 320 321 354 355 356 357 358 359 360 361 362 395 396 397 398 399 400 401 402 403 436 437 438 439 440 441 442 443 444 455 456 466 476 486 496 506 516 526 536 546 555 36 37 38 76 77 78 79 117 118 119 120 158 159 160 161 199 200 201 202 240 241 242 243 281 282 283 284 322 323 324 325 363 364 365 366 404 405 406 407 445 446 447 448 457 458 459 460 467 468 469 470 477 478 479 480 487 488 489 490 497 498 499 500 507 508 509 510 517 518 519 520 527 528 529 530 537 538 539 540 547 548 549 550 556 557 558 559 560 561 562 563 564 565 566 567 568 569 570 571 572 573 574 575 576 577 578 579 580 581 582 583 584 585 586 587 588 589 590 591 592 593 594 595 596 597 598 599 600 601 602 603 604 605 606 607 608 609 610 611 612 613 614 615 616 617 618 619 620 621 622 623 624 625 626 627 628 629 630 631 632 633 634 635 636 637 638 639 640 641 642 643 644 645 646 647 648 649 650 651 652 653 654 655 656 657 658 659 660 661 662 663 664 665 666 667 668 669 670 671 672 673 674 675 676 677 678 679 680 681 682 683 684 685 686 687 688 689 690 691 692 693 694 695 696 697 698 699 700 701 702 703 704 705 706 707 708 709 710 711 712 713 714 715 716 717 718 719 720 721 722 723 724 725 726 727 728 729 730 731 732 733 734 735 736 737 738 739 740 741 742 743 744 745 746 747 748 749 750 751 752 753 754 755 756 757 758 759 760 761 762 763 764 765 766 767 768 769 770 771 772 773 774 775 776 777 778 779 780 781 782 783 784 785 786 787 788 789 790 791 792 793 794 795 796 797 798 799 800 801 802 803 804 805 806 807 808 809 810 811 812 813 814 815 816 817 818 819 820 821 822 823 824 825 826 827 828 829 830 831 832 833 834 835 836 837 838 839 840 841 842 843 844 845 846 847 848 849 850 851 852 853 854 855 856 857 858 859 860 861 862 863 864 865 866 867 868 869 870 871 872 873 874 875 876 877 878 879 880 881 882 883 884 885 886 887 888 889 890 891 892 893 894 895 896 897 898 899 900 901 902 903 904 905 906 907 908 909 910 911 912 913 914 915 916 917 918 919 920 921 922 923 924 925 926 927 928 929 930 931 932 933 934 935 936 937 938 939 940 941 942 943 944 945 946 947 948 949 950 951 952 953 954 955 956 957 958 959 960 961 962 963 964 965 966 967 968 969 970 971 972 973 974 975 976 977 978 979 980 981 982 983 984 985 986 987 988 989 990 991 992 993 994 995 996 997 998 999 1000 1001 1002 1003 1004 1005 1006 1007 1008 1009 1010 1011 1012 1013 1014 1015 1016 1017 1018 1019 1020 1021 1022 1023 1024 1025 1026 1027 1028 1029 1030 1031 1032 1033 1034 1035 1060 1061 1062 1063 1064 1065 1091 1092 1093 1094 1095 1096 1122 1123 1124 1125 1126 1127 1153 1154 1155 1156 1157 1158 1184 1185 1186 1187 1188 1189 1215 1216 1217 1218 1219 1220 1246 1247 1248 1249 1250 1251 1277 1278 1279 1280 1281 1282 1308 1309 1310 1311 1312 1313 1339 1340 1341 1342 1343 1344 1370 1371 1372 1373 1374 1375 1401 1402 1403 1404 1405 1406 1432 1433 1434 1435 1436 1437 1463 1464 1465 1466 1467 1468 1494 1495 1496 1497 1498 1499 1525 1526 1527 1528 1529 1530 1556 1557 1558 1559 1560 1561 1587 1588 1589 1590 1591 1592 1618 1619 1620 1621 1622 1623 1649 1650 1651 1652 1653 1654 1680 1681 1682 1683 1684 1685 1711 1712 1713 1714 1715 1716 1742 1743 1744 1745 1746 1747 1773 1774 1775 1776 1777 1778 1804 1805 1806 1807 1808 1809 1835 1836 1837 1838 1839 1840 1866 1867 1868 1869 1870 1871 1897 1898 1899 1900 1901 1902 1928 1929 1930 1931 1932 1933 1959 1960 1961 1962 1963 1964 1990 1991 1992 1993 1994 1995 2021 2022 2023 2024 2025 2026 2052 2053 2054 2055 2056 2057 2083 2084 2085 2086 2087 2088 2114 2115 2116 2117 2118 2119 2145 2146 2147 2148 2149 2150 2176 2177 2178 2179 2180 2181 2207 2208 2209 2210 2211 2212 2238 2239 2240 2241 2242 2243 2269 2270 2271 2272 2273 2274 2300 2301 2302 2303 2304 2305 2331 2332 2333 2334 2335 2336 2362 2363 2364 2365 2366 2367 2393 2394 2395 2396 2397 2398 2424 2425 2426 2427 2428 2429 2455 2456 2457 2458 2459 2460 2486 2487 2488 2489 2490 2491 2517 2518 2519 2520 2521 2522 2548 2549 2550 2551 2552 2553 2579 2580 2581 2582 2583 2584 2610 2611 2612 2613 2614 2615 2641 2642 2643 2644 2645 2646 2672 2673 2674 2675 2676 2677 2703 2704 2705 2706 2707 2708 2734 2735 2736 2737 2738 2763 2764 2765 2766 2767 2792 2793 2794 2795 2819 2820 2821 2822 2846 2847 2848 2871 2872 2894 2895 1036 1037 1038 1039 1040 1041 1042 1043 1044 1066 1067 1068 1069 1070 1071 1072 1073 1074 1097 1098 1099 1100 1101 1102 1103 1104 1105 1128 1129 1130 1131 1132 1133 1134 1135 1136 1159 1160 1161 1162 1163 1164 1165 1166 1167 1190 1191 1192 1193 1194 1195 1196 1197 1198 1221 1222 1223 1224 1225 1226 1227 1228 1229 1252 1253 1254 1255 1256 1257 1258 1259 1260 1283 1284 1285 1286 1287 1288 1289 1290 1291 1314 1315 1316 1317 1318 1319 1320 1321 1322 1345 1346 1347 1348 1349 1350 1351 1352 1353 1376 1377 1378 1379 1380 1381 1382 1383 1384 1407 1408 1409 1410 1411 1412 1413 1414 1415 1438 1439 1440 1441 1442 1443 1444 1445 1446 1469 1470 1471 1472 1473 1474 1475 1476 1477 1500 1501 1502 1503 1504 1505 1506 1507 1508 1531 1532 1533 1534 1535 1536 1537 1538 1539 1562 1563 1564 1565 1566 1567 1568 1569 1570 1593 1594 1595 1596 1597 1598 1599 1600 1601 1624 1625 1626 1627 1628 1629 1630 1631 1632 1655 1656 1657 1658 1659 1660 1661 1662 1663 1686 1687 1688 1689 1690 1691 1692 1693 1694 1717 1718 1719 1720 1721 1722 1723 1724 1725 1748 1749 1750 1751 1752 1753 1754 1755 1756 1779 1780 1781 1782 1783 1784 1785 1786 1787 1810 1811 1812 1813 1814 1815 1816 1817 1818 1841 1842 1843 1844 1845 1846 1847 1848 1849 1872 1873 1874 1875 1876 1877 1878 1879 1880 1903 1904 1905 1906 1907 1908 1909 1910 1911 1934 1935 1936 1937 1938 1939 1940 1941 1942 1965 1966 1967 1968 1969 1970 1971 1972 1973 1996 1997 1998 1999 2000 2001 2002 2003 2004 2027 2028 2029 2030 2031 2032 2033 2034 2035 2058 2059 2060 2061 2062 2063 2064 2065 2066 2089 2090 2091 2092 2093 2094 2095 2096 2097 2120 2121 2122 2123 2124 2125 2126 2127 2128 2151 2152 2153 2154 2155 2156 2157 2158 2159 2182 2183 2184 2185 2186 2187 2188 2189 2190 2213 2214 2215 2216 2217 2218 2219 2220 2221 2244 2245 2246 2247 2248 2249 2250 2251 2252 2275 2276 2277 2278 2279 2280 2281 2282 2283 2306 2307 2308 2309 2310 2311 2312 2313 2314 2337 2338 2339 2340 2341 2342 2343 2344 2345 2368 2369 2370 2371 2372 2373 2374 2375 2376 2399 2400 2401 2402 2403 2404 2405 2406 2407 2430 2431 2432 2433 2434 2435 2436 2437 2438 2461 2462 2463 2464 2465 2466 2467 2468 2469 2492 2493 2494 2495 2496 2497 2498 2499 2500 2523 2524 2525 2526 2527 2528 2529 2530 2531 2554 2555 2556 2557 2558 2559 2560 2561 2562 2585 2586 2587 2588 2589 2590 2591 2592 2593 2616 2617 2618 2619 2620 2621 2622 2623 2624 2647 2648 2649 2650 2651 2652 2653 2654 2655 2678 2679 2680 2681 2682 2683 2684 2685 2686 2709 2710 2711 2712 2713 2714 2715 2716 2717 2739 2740 2741 2742 2743 2744 2745 2746 2747 2768 2769 2770 2771 2772 2773 2774 2775 2776 2796 2797 2798 2799 2800 2801 2802 2803 2804 2823 2824 2825 2826 2827 2828 2829 2830 2831 2849 2850 2851 2852 2853 2854 2855 2856 2857 2873 2874 2875 2876 2877 2878 2879 2880 2881 2896 2897 2898 2899 2900 2901 2902 2903 2904 2917 2918 2919 2920 2921 2922 2923 2924 2925 2936 2937 2938 2939 2940 2941 2942 2943 2953 2954 2955 2956 2957 2958 2966 2967 2968 2969 1045 1046 1047 1048 1049 1050 1051 1052 1075 1076 1077 1078 1079 1080 1081 1082 1106 1107 1108 1109 1110 1111 1112 1113 1137 1138 1139 1140 1141 1142 1143 1144 1168 1169 1170 1171 1172 1173 1174 1175 1199 1200 1201 1202 1203 1204 1205 1206 1230 1231 1232 1233 1234 1235 1236 1237 1261 1262 1263 1264 1265 1266 1267 1268 1292 1293 1294 1295 1296 1297 1298 1299 1323 1324 1325 1326 1327 1328 1329 1330 1354 1355 1356 1357 1358 1359 1360 1361 1385 1386 1387 1388 1389 1390 1391 1392 1416 1417 1418 1419 1420 1421 1422 1423 1447 1448 1449 1450 1451 1452 1453 1454 1478 1479 1480 1481 1482 1483 1484 1485 1509 1510 1511 1512 1513 1514 1515 1516 1540 1541 1542 1543 1544 1545 1546 1547 1571 1572 1573 1574 1575 1576 1577 1578 1602 1603 1604 1605 1606 1607 1608 1609 1633 1634 1635 1636 1637 1638 1639 1640 1664 1665 1666 1667 1668 1669 1670 1671 1695 1696 1697 1698 1699 1700 1701 1702 1726 1727 1728 1729 1730 1731 1732 1733 1757 1758 1759 1760 1761 1762 1763 1764 1788 1789 1790 1791 1792 1793 1794 1795 1819 1820 1821 1822 1823 1824 1825 1826 1850 1851 1852 1853 1854 1855 1856 1857 1881 1882 1883 1884 1885 1886 1887 1888 1912 1913 1914 1915 1916 1917 1918 1919 1943 1944 1945 1946 1947 1948 1949 1950 1974 1975 1976 1977 1978 1979 1980 1981 2005 2006 2007 2008 2009 2010 2011 2012 2036 2037 2038 2039 2040 2041 2042 2043 2067 2068 2069 2070 2071 2072 2073 2074 2098 2099 2100 2101 2102 2103 2104 2105 2129 2130 2131 2132 2133 2134 2135 2136 2160 2161 2162 2163 2164 2165 2166 2167 2191 2192 2193 2194 2195 2196 2197 2198 2222 2223 2224 2225 2226 2227 2228 2229 2253 2254 2255 2256 2257 2258 2259 2260 2284 2285 2286 2287 2288 2289 2290 2291 2315 2316 2317 2318 2319 2320 2321 2322 2346 2347 2348 2349 2350 2351 2352 2353 2377 2378 2379 2380 2381 2382 2383 2384 2408 2409 2410 2411 2412 2413 2414 2415 2439 2440 2441 2442 2443 2444 2445 2446 2470 2471 2472 2473 2474 2475 2476 2477 2501 2502 2503 2504 2505 2506 2507 2508 2532 2533 2534 2535 2536 2537 2538 2539 2563 2564 2565 2566 2567 2568 2569 2570 2594 2595 2596 2597 2598 2599 2600 2601 2625 2626 2627 2628 2629 2630 2631 2632 2656 2657 2658 2659 2660 2661 2662 2663 2687 2688 2689 2690 2691 2692 2693 2694 2718 2719 2720 2721 2722 2723 2724 2725 2748 2749 2750 2751 2752 2753 2754 2755 2777 2778 2779 2780 2781 2782 2783 2784 2805 2806 2807 2808 2809 2810 2811 2812 2832 2833 2834 2835 2836 2837 2838 2839 2858 2859 2860 2861 2862 2863 2864 2865 2882 2883 2884 2885 2886 2887 2888 2889 2905 2906 2907 2908 2909 2910 2911 2912 2926 2927 2928 2929 2930 2931 2932 2933 2944 2945 2946 2947 2948 2949 2950 2951 2959 2960 2961 2962 2963 2964 2965 2970 2971 2972 2973 2974 1053 1054 1055 1056 1057 1058 1059 1083 1084 1085 1086 1087 1088 1089 1090 1114 1115 1116 1117 1118 1119 1120 1121 1145 1146 1147 1148 1149 1150 1151 1152 1176 1177 1178 1179 1180 1181 1182 1183 1207 1208 1209 1210 1211 1212 1213 1214 1238 1239 1240 1241 1242 1243 1244 1245 1269 1270 1271 1272 1273 1274 1275 1276 1300 1301 1302 1303 1304 1305 1306 1307 1331 1332 1333 1334 1335 1336 1337 1338 1362 1363 1364 1365 1366 1367 1368 1369 1393 1394 1395 1396 1397 1398 1399 1400 1424 1425 1426 1427 1428 1429 1430 1431 1455 1456 1457 1458 1459 1460 1461 1462 1486 1487 1488 1489 1490 1491 1492 1493 1517 1518 1519 1520 1521 1522 1523 1524 1548 1549 1550 1551 1552 1553 1554 1555 1579 1580 1581 1582 1583 1584 1585 1586 1610 1611 1612 1613 1614 1615 1616 1617 1641 1642 1643 1644 1645 1646 1647 1648 1672 1673 1674 1675 1676 1677 1678 1679 1703 1704 1705 1706 1707 1708 1709 1710 1734 1735 1736 1737 1738 1739 1740 1741 1765 1766 1767 1768 1769 1770 1771 1772 1796 1797 1798 1799 1800 1801 1802 1803 1827 1828 1829 1830 1831 1832 1833 1834 1858 1859 1860 1861 1862 1863 1864 1865 1889 1890 1891 1892 1893 1894 1895 1896 1920 1921 1922 1923 1924 1925 1926 1927 1951 1952 1953 1954 1955 1956 1957 1958 1982 1983 1984 1985 1986 1987 1988 1989 2013 2014 2015 2016 2017 2018 2019 2020 2044 2045 2046 2047 2048 2049 2050 2051 2075 2076 2077 2078 2079 2080 2081 2082 2106 2107 2108 2109 2110 2111 2112 2113 2137 2138 2139 2140 2141 2142 2143 2144 2168 2169 2170 2171 2172 2173 2174 2175 2199 2200 2201 2202 2203 2204 2205 2206 2230 2231 2232 2233 2234 2235 2236 2237 2261 2262 2263 2264 2265 2266 2267 2268 2292 2293 2294 2295 2296 2297 2298 2299 2323 2324 2325 2326 2327 2328 2329 2330 2354 2355 2356 2357 2358 2359 2360 2361 2385 2386 2387 2388 2389 2390 2391 2392 2416 2417 2418 2419 2420 2421 2422 2423 2447 2448 2449 2450 2451 2452 2453 2454 2478 2479 2480 2481 2482 2483 2484 2485 2509 2510 2511 2512 2513 2514 2515 2516 2540 2541 2542 2543 2544 2545 2546 2547 2571 2572 2573 2574 2575 2576 2577 2578 2602 2603 2604 2605 2606 2607 2608 2609 2633 2634 2635 2636 2637 2638 2639 2640 2664 2665 2666 2667 2668 2669 2670 2671 2695 2696 2697 2698 2699 2700 2701 2702 2726 2727 2728 2729 2730 2731 2732 2733 2756 2757 2758 2759 2760 2761 2762 2785 2786 2787 2788 2789 2790 2791 2813 2814 2815 2816 2817 2818 2840 2841 2842 2843 2844 2845 2866 2867 2868 2869 2870 2890 2891 2892 2893 2913 2914 2915 2916 2934 2935 2952 
FIELD FieldData 12
Idp 1 2975 float
0 1 39 40 41 80 81 82 121 122 123 162 163 164 203 204 205 244 245 246 285 286 287 326 327 328 367 368 369 408 409 410 449 450 451 461 462 463 471 472 473 481 482 483 491 492 493 501 502 503 511 512 513 521 522 523 531 532 533 541 542 543 551 552 2 3 4 5 6 7 8 9 42 43 44 45 46 47 48 49 83 84 85 86 87 88 89 90 124 125 126 127 128 129 130 131 165 166 167 168 169 170 171 172 206 207 208 209 210 211 212 213 247 248 249 250 251 252 253 254 288 289 290 291 292 293 294 295 329 330 331 332 333 334 335 336 370 371 372 373 374 375 376 377 411 412 413 414 415 416 417 418 452 453 454 464 465 474 475 484 485 494 495 504 505 514 515 524 525 534 535 544 545 553 554 10 11 12 13 14 15 16 17 18 50 51 52 53 54 55 56 57 58 91 92 93 94 95 96 97 98 99 132 133 134 135 136 137 138 139 140 173 174 175 176 177 178 179 180 181 214 215 216 217 218 219 220 221 222 255 256 257 258 259 260 261 262 263 296 297 298 299 300 301 302 303 304 337 338 339 340 341 342 343 344 345 378 379 380 381 382 383 384 385 386 419 420 421 422 423 424 425 426 427 19 20 21 22 23 24 25 26 59 60 61 62 63 64 65 66 100 101 102 103 104 105 106 107 141 142 143 144 145 146 147 148 182 183 184 185 186 187 188 189 223 224 225 226 227 228 229 230 264 265 266 267 268 269 270 271 305 306 307 308 309 310 311 312 346 347 348 349 350 351 352 353 387 388 389 390 391 392 393 394 428 429 430 431 432 433 434 435 27 28 29 30 31 32 33 34 35 67 68 69 70 71 72 73 74 75 108 109 110 111 112 113 114 115 116 149 150 151 152 153 154 155 156 157 190 191 192 193 194 195 196 197 198 231 232 233 234 235 236 237 238 239 272 273 274 275 276 277 278 279 280 313 314 315 316 317 318 319 320 321 354 355 356 357 358 359 360 361 362 395 396 397 398 399 400 401 402 403 436 437 438 439 440 441 442 443 444 455 456 466 476 486 496 506 516 526 536 546 555 36 37 38 76 77 78 79 117 118 119 120 158 159 160 161 199 200 201 202 240 241 242 243 281 282 283 284 322 323 324 325 363 364 365 366 404 405 406 407 445 446 447 448 457 458 459 460 467 468 469 470 477 478 479 480 487 488 489 490 497 498 499 500 507 508 509 510 517 518 519 520 527 528 529 530 537 538 539 540 547 548 549 550 556 557 558 559 560 561 562 563 564 565 566 567 568 569 570 571 572 573 574 575 576 577 578 579 580 581 582 583 584 585 586 587 588 589 590 591 592 593 594 595 596 597 598 599 600 601 602 603 604 605 606 607 608 609 610 611 612 613 614 615 616 617 618 619 620 621 622 623 624 625 626 627 628 629 630 631 632 633 634 635 636 637 638 639 640 641 642 643 644 645 646 647 648 649 650 651 652 653 654 655 656 657 658 659 660 661 662 663 664 665 666 667 668 669 670 671 672 673 674 675 676 677 678 679 680 681 682 683 684 685 686 687 688 689 690 691 692 693 694 695 696 697 698 699 700 701 702 703 704 705 706 707 708 709 710 711 712 713 714 715 716 717 718 719 720 721 722 723 724 725 726 727 728 729 730 731 732 733 734 735 736 737 738 739 740 741 742 743 744 745 746 747 748 749 750 751 752 753 754 755 756 757 758 759 760 761 762 763 764 765 766 767 768 769 770 771 772 773 774 775 776 777 778 779 780 781 782 783 784 785 786 787 788 789 790 791 792 793 794 795 796 797 798 799 800 801 802 803 804 805 806 807 808 809 810 811 812 813 814 815 816 817 818 819 820 821 822 823 824 825 826 827 828 829 830 831 832 833 834 835 836 837 838 839 840 841 842 843 844 845 846 847 848 849 850 851 852 853 854 855 856 857 858 859 860 861 862 863 864 865 866 867 868 869 870 871 872 873 874 875 876 877 878 879 880 881 882 883 884 885 886 887 888 889 890 891 892 893 894 895 896 897 898 899 900 901 902 903 904 905 906 907 908 909 910 911 912 913 914 915 916 917 918 919 920 921 922 923 924 925 926 927 928 929 930 931 932 933 934 935 936 937 938 939 940 941 942 943 944 945 946 947 948 949 950 951 952 953 954 955 956 957 958 959 960 961 962 963 964 965 966 967 968 969 970 971 972 973 974 975 976 977 978 979 980 981 982 983 984 985 986 987 988 989 990 991 992 993 994 995 996 997 998 999 1000 1001 1002 1003 1004 1005 1006 1007 1008 1009 1010 1011 1012 1013 1014 1015 1016 1017 1018 1019 1020 1021 1022 1023 1024 1025 1026 1027 1028 1029 1030 1031 1032 1033 1034 1035 1060 1061 1062 1063 1064 1065 1091 1092 1093 1094 1095 1096 1122 1123 1124 1125 1126 1127 1153 1154 1155 1156 1157 1158 1184 1185 1186 1187 1188 1189 1215 1216 1217 1218 1219 1220 1246 1247 1248 1249 1250 1251 1277 1278 1279 1280 1281 1282 1308 1309 1310 1311 1312 1313 1339 1340 1341 1342 1343 1344 1370 1371 1372 1373 1374 1375 1401 1402 1403 1404 1405 1406 1432 1433 1434 1435 1436 1437 1463 1464 1465 1466 1467 1468 1494 1495 1496 1497 1498 1499 1525 1526 1527 1528 1529 1530 1556 1557 1558 1559 1560 1561 1587 1588 1589 1590 1591 1592 1618 1619 1620 1621 1622 1623 1649 1650 1651 1652 1653 1654 1680 1681 1682 1683 1684 1685 1711 1712 1713 1714 1715 1716 1742 1743 1744 1745 1746 1747 1773 1774 1775 1776 1777 1778 1804 1805 1806 1807 1808 1809 1835 1836 1837 1838 1839 1840 1866 1867 1868 1869 1870 1871 1897 1898 1899 1900 1901 1902 1928 1929 1930 1931 1932 1933 1959 1960 1961 1962 1963 1964 1990 1991 1992 1993 1994 1995 2021 2022 2023 2024 2025 2026 2052 2053 2054 2055 2056 2057 2083 2084 2085 2086 2087 2088 2114 2115 2116 2117 2118 2119 2145 2146 2147 2148 2149 2150 2176 2177 2178 2179 2180 2181 2207 2208 2209 2210 2211 2212 2238 2239 2240 2241 2242 2243 2269 2270 2271 2272 2273 2274 2300 2301 2302 2303 2304 2305 2331 2332 2333 2334 2335 2336 2362 2363 2364 2365 2366 2367 2393 2394 2395 2396 2397 2398 2424 2425 2426 2427 2428 2429 2455 2456 2457 2458 2459 2460 2486 2487 2488 2489 2490 2491 2517 2518 2519 2520 2521 2522 2548 2549 2550 2551 2552 2553 2579 2580 2581 2582 2583 2584 2610 2611 2612 2613 2614 2615 2641 2642 2643 2644 2645 2646 2672 2673 2674 2675 2676 2677 2703 2704 2705 2706 2707 2708 2734 2735 2736 2737 2738 2763 2764 2765 2766 2767 2792 2793 2794 2795 2819 2820 2821 2822 2846 2847 2848 2871 2872 2894 2895 1036 1037 1038 1039 1040 1041 1042 1043 1044 1066 1067 1068 1069 1070 1071 1072 1073 1074 1097 1098 1099 1100 1101 1102 1103 1104 1105 1128 1129 1130 1131 1132 1133 1134 1135 1136 1159 1160 1161 1162 1163 1164 1165 1166 1167 1190 1191 1192 1193 1194 1195 1196 1197 1198 1221 1222 1223 1224 1225 1226 1227 1228 1229 1252 1253 1254 1255 1256 1257 1258 1259 1260 1283 1284 1285 1286 1287 1288 1289 1290 1291 1314 1315 1316 1317 1318 1319 1320 1321 1322 1345 1346 1347 1348 1349 1350 1351 1352 1353 1376 1377 1378 1379 1380 1381 1382 1383 1384 1407 1408 1409 1410 1411 1412 1413 1414 1415 1438 1439 1440 1441 1442 1443 1444 1445 1446 1469 1470 1471 1472 1473 1474 1475 1476 1477 1500 1501 1502 1503 1504 1505 1506 1507 1508 1531 1532 1533 1534 1535 1536 1537 1538 1539 1562 1563 1564 1565 1566 1567 1568 1569 1570 1593 1594 1595 1596 1597 1598 1599 1600 1601 1624 1625 1626 1627 1628 1629 1630 1631 1632 1655 1656 1657 1658 1659 1660 1661 1662 1663 1686 1687 1688 1689 1690 1691 1692 1693 1694 1717 1718 1719 1720 1721 1722 1723 1724 1725 1748 1749 1750 1751 1752 1753 1754 1755 1756 1779 1780 1781 1782 1783 1784 1785 1786 1787 1810 1811 1812 1813 1814 1815 1816 1817 1818 1841 1842 1843 1844 1845 1846 1847 1848 1849 1872 1873 1874 1875 1876 1877 1878 1879 1880 1903 1904 1905 1906 1907 1908 1909 1910 1911 1934 1935 1936 1937 1938 1939 1940 1941 1942 1965 1966 1967 1968 1969 1970 1971 1972 1973 1996 1997 1998 1999 2000 2001 2002 2003 2004 2027 2028 2029 2030 2031 2032 2033 2034 2035 2058 2059 2060 2061 2062 2063 2064 2065 2066 2089 2090 2091 2092 2093 2094 2095 2096 2097 2120 2121 2122 2123 2124 2125 2126 2127 2128 2151 2152 2153 2154 2155 2156 2157 2158 2159 2182 2183 2184 2185 2186 2187 2188 2189 2190 2213 2214 2215 2216 2217 2218 2219 2220 2221 2244 2245 2246 2247 2248 2249 2250 2251 2252 2275 2276 2277 2278 2279 2280 2281 2282 2283 2306 2307 2308 2309 2310 2311 2312 2313 2314 2337 2338 2339 2340 2341 2342 2343 2344 2345 2368 2369 2370 2371 2372 2373 2374 2375 2376 2399 2400 2401 2402 2403 2404 2405 2406 2407 2430 2431 2432 2433 2434 2435 2436 2437 2438 2461 2462 2463 2464 2465 2466 2467 2468 2469 2492 2493 2494 2495 2496 2497 2498 2499 2500 2523 2524 2525 2526 2527 2528 2529 2530 2531 2554 2555 2556 2557 2558 2559 2560 2561 2562 2585 2586 2587 2588 2589 2590 2591 2592 2593 2616 2617 2618 2619 2620 2621 2622 2623 2624 2647 2648 2649 2650 2651 2652 2653 2654 2655 2678 2679 2680 2681 2682 2683 2684 2685 2686 2709 2710 2711 2712 2713 2714 2715 2716 2717 2739 2740 2741 2742 2743 2744 2745 2746 2747 2768 2769 2770 2771 2772 2773 2774 2775 2776 2796 2797 2798 2799 2800 2801 2802 2803 2804 2823 2824 2825 2826 2827 2828 2829 2830 2831 2849 2850 2851 2852 2853 2854 2855 2856 2857 2873 2874 2875 2876 2877 2878 2879 2880 2881 2896 2897 2898 2899 2900 2901 2902 2903 2904 2917 2918 2919 2920 2921 2922 2923 2924 2925 2936 2937 2938 2939 2940 2941 2942 2943 2953 2954 2955 2956 2957 2958 2966 2967 2968 2969 1045 1046 1047 1048 1049 1050 1051 1052 1075 1076 1077 1078 1079 1080 1081 1082 1106 1107 1108 1109 1110 1111 1112 1113 1137 1138 1139 1140 1141 1142 1143 1144 1168 1169 1170 1171 1172 1173 1174 1175 1199 1200 1201 1202 1203 1204 1205 1206 1230 1231 1232 1233 1234 1235 1236 1237 1261 1262 1263 1264 1265 1266 1267 1268 1292 1293 1294 1295 1296 1297 1298 1299 1323 1324 1325 1326 1327 1328 1329 1330 1354 1355 1356 1357 1358 1359 1360 1361 1385 1386 1387 1388 1389 1390 1391 1392 1416 1417 1418 1419 1420 1421 1422 1423 1447 1448 1449 1450 1451 1452 1453 1454 1478 1479 1480 1481 1482 1483 1484 1485 1509 1510 1511 1512 1513 1514 1515 1516 1540 1541 1542 1543 1544 1545 1546 1547 1571 1572 1573 1574 1575 1576 1577 1578 1602 1603 1604 1605 1606 1607 1608 1609 1633 1634 1635 1636 1637 1638 1639 1640 1664 1665 1666 1667 1668 1669 1670 1671 1695 1696 1697 1698 1699 1700 1701 1702 1726 1727 1728 1729 1730 1731 1732 1733 1757 1758 1759 1760 1761 1762 1763 1764 1788 1789 1790 1791 1792 1793 1794 1795 1819 1820 1821 1822 1823 1824 1825 1826 1850 1851 1852 1853 1854 1855 1856 1857 1881 1882 1883 1884 1885 1886 1887 1888 1912 1913 1914 1915 1916 1917 1918 1919 1943 1944 1945 1946 1947 1948 1949 1950 1974 1975 1976 1977 1978 1979 1980 1981 2005 2006 2007 2008 2009 2010 2011 2012 2036 2037 2038 2039 2040 2041 2042 2043 2067 2068 2069 2070 2071 2072 2073 2074 2098 2099 2100 2101 2102 2103 2104 2105 2129 2130 2131 2132 2133 2134 2135 2136 2160 2161 2162 2163 2164 2165 2166 2167 2191 2192 2193 2194 2195 2196 2197 2198 2222 2223 2224 2225 2226 2227 2228 2229 2253 2254 2255 2256 2257 2258 2259 2260 2284 2285 2286 2287 2288 2289 2290 2291 2315 2316 2317 2318 2319 2320 2321 2322 2346 2347 2348 2349 2350 2351 2352 2353 2377 2378 2379 2380 2381 2382 2383 2384 2408 2409 2410 2411 2412 2413 2414 2415 2439 2440 2441 2442 2443 2444 2445 2446 2470 2471 2472 2473 2474 2475 2476 2477 2501 2502 2503 2504 2505 2506 2507 2508 2532 2533 2534 2535 2536 2537 2538 2539 2563 2564 2565 2566 2567 2568 2569 2570 2594 2595 2596 2597 2598 2599 2600 2601 2625 2626 2627 2628 2629 2630 2631 2632 2656 2657 2658 2659 2660 2661 2662 2663 2687 2688 2689 2690 2691 2692 2693 2694 2718 2719 2720 2721 2722 2723 2724 2725 2748 2749 2750 2751 2752 2753 2754 2755 2777 2778 2779 2780 2781 2782 2783 2784 2805 2806 2807 2808 2809 2810 2811 2812 2832 2833 2834 2835 2836 2837 2838 2839 2858 2859 2860 2861 2862 2863 2864 2865 2882 2883 2884 2885 2886 2887 2888 2889 2905 2906 2907 2908 2909 2910 2911 2912 2926 2927 2928 2929 2930 2931 2932 2933 2944 2945 2946 2947 2948 2949 2950 2951 2959 2960 2961 2962 2963 2964 2965 2970 2971 2972 2973 2974 1053 1054 1055 1056 1057 1058 1059 1083 1084 1085 1086 1087 1088 1089 1090 1114 1115 1116 1117 1118 1119 1120 1121 1145 1146 1147 1148 1149 1150 1151 1152 1176 1177 1178 1179 1180 1181 1182 1183 1207 1208 1209 1210 1211 1212 1213 1214 1238 1239 1240 1241 1242 1243 1244 1245 1269 1270 1271 1272 1273 1274 1275 1276 1300 1301 1302 1303 1304 1305 1306 1307 1331 1332 1333 1334 1335 1336 1337 1338 1362 1363 1364 1365 1366 1367 1368 1369 1393 1394 1395 1396 1397 1398 1399 1400 1424 1425 1426 1427 1428 1429 1430 1431 1455 1456 1457 1458 1459 1460 1461 1462 1486 1487 1488 1489 1490 1491 1492 1493 1517 1518 1519 1520 1521 1522 1523 1524 1548 1549 1550 1551 1552 1553 1554 1555 1579 1580 1581 1582 1583 1584 1585 1586 1610 1611 1612 1613 1614 1615 1616 1617 1641 1642 1643 1644 1645 1646 1647 1648 1672 1673 1674 1675 1676 1677 1678 1679 1703 1704 1705 1706 1707 1708 1709 1710 1734 1735 1736 1737 1738 1739 1740 1741 1765 1766 1767 1768 1769 1770 1771 1772 1796 1797 1798 1799 1800 1801 1802 1803 1827 1828 1829 1830 1831 1832 1833 1834 1858 1859 1860 1861 1862 1863 1864 1865 1889 1890 1891 1892 1893 1894 1895 1896 1920 1921 1922 1923 1924 1925 1926 1927 1951 1952 1953 1954 1955 1956 1957 1958 1982 1983 1984 1985 1986 1987 1988 1989 2013 2014 2015 2016 2017 2018 2019 2020 2044 2045 2046 2047 2048 2049 2050 2051 2075 2076 2077 2078 2079 2080 2081 2082 2106 2107 2108 2109 2110 2111 2112 2113 2137 2138 2139 2140 2141 2142 2143 2144 2168 2169 2170 2171 2172 2173 2174 2175 2199 2200 2201 2202 2203 2204 2205 2206 2230 2231 2232 2233 2234 2235 2236 2237 2261 2262 2263 2264 2265 2266 2267 2268 2292 2293 2294 2295 2296 2297 2298 2299 2323 2324 2325 2326 2327 2328 2329 2330 2354 2355 2356 2357 2358 2359 2360 2361 2385 2386 2387 2388 2389 2390 2391 2392 2416 2417 2418 2419 2420 2421 2422 2423 2447 2448 2449 2450 2451 2452 2453 2454 2478 2479 2480 2481 2482 2483 2484 2485 2509 2510 2511 2512 2513 2514 2515 2516 2540 2541 2542 2543 2544 2545 2546 2547 2571 2572 2573 2574 2575 2576 2577 2578 2602 2603 2604 2605 2606 2607 2608 2609 2633 2634 2635 2636 2637 2638 2639 2640 2664 2665 2666 2667 2668 2669 2670 2671 2695 2696 2697 2698 2699 2700 2701 2702 2726 2727 2728 2729 2730 2731 2732 2733 2756 2757 2758 2759 2760 2761 2762 2785 2786 2787 2788 2789 2790 2791 2813 2814 2815 2816 2817 2818 2840 2841 2842 2843 2844 2845 2866 2867 2868 2869 2870 2890 2891 2892 2893 2913 2914 2915 2916 2934 2935 2952 
Rhop 1 2975 float
  1.0000000E+03   1.0000000E+03   1.0000000E+03   1.0000000E+03   1.0000000E+03   1.0000000E+03   1.0000000E+03   1.0000000E+03   1.0000000E+03   1.0000000E+03   1.0000000E+03   1.0000000E+03   1.0000000E+03   1.0000000E+03   1.0000000E+03   1.0000000E+03   1.0000000E+03   1.0000000E+03   1.0000000E+03   1.0000000E+03   1.0000000E+03   1.0000000E+03   1.0000001E+03   1.0000000E+03   1.0000001E+03   1.0000003E+03   1.0000001E+03   1.0000002E+03   1.0000006E+03   1.0000002E+03   1.0000006E+03   1.0000011E+03   1.0000004E+03   1.0000009E+03   1.0000016E+03   1.0000005E+03   1.0000012E+03   1.0000021E+03   1.0000007E+03   1.0000016E+03   1.0000028E+03   1.0000009E+03   1.0000020E+03   1.0000035E+03   1.0000011E+03   1.0000025E+03   1.0000045E+03   1.0000015E+03   1.0000032E+03   1.0000056E+03   1.0000020E+03   1.0000043E+03   1.0000075E+03   1.0000026E+03   1.0000060E+03   1.0000105E+03   1.0000041E+03   1.0000089E+03   1.0000150E+03   1.0000065E+03   1.0000130E+03   1.0000216E+03   1.0000193E+03   1.0000303E+03   1.0000000E+03   1.0000000E+03   1.0000000E+03   1.0000000E+03   1.0000000E+03   1.0000000E+03   1.0000000E+03   1.0000000E+03   1.0000000E+03   1.0000000E+03   1.0000000E+03   1.0000000E+03   1.0000000E+03   1.0000000E+03   1.0000000E+03   1.0000000E+03   1.0000000E+03   1.0000000E+03   1.0000000E+03   1.0000000E+03   1.0000000E+03   1.0000000E+03   1.0000000E+03   1.0000000E+03   1.0000000E+03   1.0000000E+03   1.0000000E+03   1.0000000E+03   1.0000000E+03   1.0000000E+03   1.0000000E+03   1.0000000E+03   1.0000000E+03   1.0000000E+03   1.0000000E+03   1.0000000E+03   1.0000000E+03   1.0000000E+03   1.0000000E+03   1.0000000E+03   1.0000000E+03   1.0000000E+03   1.0000000E+03   1.0000000E+03   1.0000001E+03   1.0000001E+03   1.0000001E+03   1.0000002E+03   1.0000000E+03   1.0000001E+03   1.0000002E+03   1.0000003E+03   1.0000004E+03   1.0000005E+03   1.0000006E+03   1.0000006E+03   1.0000002E+03   1.0000004E+03   1.0000006E+03   1.0000009E+03   1.0000011E+03   1.0000013E+03   1.0000014E+03   1.0000015E+03   1.0000006E+03   1.0000009E+03   1.0000014E+03   1.0000018E+03   1.0000022E+03   1.0000026E+03   1.0000029E+03   1.0000031E+03   1.0000011E+03   1.0000016E+03   1.0000024E+03   1.0000031E+03   1.0000038E+03   1.0000043E+03   1.0000048E+03   1.0000052E+03   1.0000018E+03   1.0000027E+03   1.0000038E+03   1.0000047E+03   1.0000058E+03   1.0000066E+03   1.0000073E+03   1.0000077E+03   1.0000026E+03   1.0000038E+03   1.0000051E+03   1.0000035E+03   1.0000051E+03   1.0000043E+03   1.0000063E+03   1.0000055E+03   1.0000077E+03   1.0000068E+03   1.0000096E+03   1.0000086E+03   1.0000122E+03   1.0000115E+03   1.0000160E+03   1.0000159E+03   1.0000217E+03   1.0000225E+03   1.0000303E+03   1.0000320E+03   1.0000422E+03   1.0000440E+03   1.0000572E+03   1.0000000E+03   1.0000000E+03   1.0000000E+03   1.0000000E+03   1.0000000E+03   1.0000000E+03   1.0000000E+03   1.0000000E+03   1.0000000E+03   1.0000000E+03   1.0000000E+03   1.0000000E+03   1.0000000E+03   1.0000000E+03   1.0000000E+03   1.0000000E+03   1.0000000E+03   1.0000000E+03   1.0000000E+03   1.0000000E+03   1.0000000E+03   1.0000000E+03   1.0000000E+03   1.0000000E+03   1.0000000E+03   1.0000000E+03   1.0000000E+03   1.0000000E+03   1.0000000E+03   1.0000000E+03   1.0000000E+03   1.0000000E+03   1.0000000E+03   1.0000000E+03   1.0000000E+03   1.0000000E+03   1.0000000E+03   1.0000000E+03   1.0000000E+03   1.0000000E+03   1.0000000E+03   1.0000000E+03   1.0000000E+03   1.0000000E+03   1.0000000E+03   1.0000002E+03   1.0000002E+03   1.0000002E+03   1.0000002E+03   1.0000002E+03   1.0000002E+03   1.0000002E+03   1.0000002E+03   1.0000002E+03   1.0000006E+03   1.0000006E+03   1.0000007E+03   1.0000007E+03   1.0000007E+03   1.0000007E+03   1.0000007E+03   1.0000007E+03   1.0000007E+03   1.0000016E+03   1.0000017E+03   1.0000017E+03   1.0000018E+03   1.0000018E+03   1.0000018E+03   1.0000018E+03   1.0000019E+03   1.0000019E+03   1.0000032E+03   1.0000034E+03   1.0000035E+03   1.0000036E+03   1.0000036E+03   1.0000036E+03   1.0000036E+03   1.0000036E+03   1.0000036E+03   1.0000054E+03   1.0000057E+03   1.0000059E+03   1.0000060E+03   1.0000061E+03   1.0000062E+03   1.0000062E+03   1.0000062E+03   1.0000062E+03   1.0000082E+03   1.0000084E+03   1.0000085E+03   1.0000087E+03   1.0000089E+03   1.0000090E+03   1.0000090E+03   1.0000090E+03   1.0000090E+03   1.0000000E+03   1.0000000E+03   1.0000000E+03   1.0000000E+03   1.0000000E+03   1.0000000E+03   1.0000000E+03   1.0000000E+03   1.0000000E+03   1.0000000E+03   1.0000000E+03   1.0000000E+03   1.0000000E+03   1.0000000E+03   1.0000000E+03   1.0000000E+03   1.0000000E+03   1.0000000E+03   1.0000000E+03   1.0000000E+03   1.0000000E+03   1.0000000E+03   1.0000000E+03   1.0000000E+03   1.0000000E+03   1.0000000E+03   1.0000000E+03   1.0000000E+03   1.0000000E+03   1.0000000E+03   1.0000000E+03   1.0000000E+03   1.0000000E+03   1.0000000E+03   1.0000000E+03   1.0000000E+03   1.0000000E+03   1.0000000E+03   1.0000000E+03   1.0000000E+03   1.0000002E+03   1.0000002E+03   1.0000002E+03   1.0000002E+03   1.0000002E+03   1.0000002E+03   1.0000002E+03   1.0000002E+03   1.0000007E+03   1.0000007E+03   1.0000007E+03   1.0000007E+03   1.0000007E+03   1.0000007E+03   1.0000007E+03   1.0000007E+03   1.0000019E+03   1.0000019E+03   1.0000019E+03   1.0000018E+03   1.0000018E+03   1.0000018E+03   1.0000018E+03   1.0000017E+03   1.0000036E+03   1.0000036E+03   1.0000036E+03   1.0000036E+03   1.0000036E+03   1.0000036E+03   1.0000036E+03   1.0000035E+03   1.0000062E+03   1.0000062E+03   1.0000062E+03   1.0000062E+03   1.0000062E+03   1.0000061E+03   1.0000060E+03   1.0000059E+03   1.0000090E+03   1.0000090E+03   1.0000090E+03   1.0000090E+03   1.0000090E+03   1.0000089E+03   1.0000087E+03   1.0000085E+03   1.0000000E+03   1.0000000E+03   1.0000000E+03   1.0000000E+03   1.0000000E+03   1.0000000E+03   1.0000000E+03   1.0000000E+03   1.0000000E+03   1.0000000E+03   1.0000000E+03   1.0000000E+03   1.0000000E+03   1.0000000E+03   1.0000000E+03   1.0000000E+03   1.0000000E+03   1.0000000E+03   1.0000000E+03   1.0000000E+03   1.0000000E+03   1.0000000E+03   1.0000000E+03   1.0000000E+03   1.0000000E+03   1.0000000E+03   1.0000000E+03   1.0000000E+03   1.0000000E+03   1.0000000E+03   1.0000000E+03   1.0000000E+03   1.0000000E+03   1.0000000E+03   1.0000000E+03   1.0000000E+03   1.0000000E+03   1.0000000E+03   1.0000000E+03   1.0000000E+03   1.0000000E+03   1.0000000E+03   1.0000000E+03   1.0000000E+03   1.0000000E+03   1.0000002E+03   1.0000002E+03   1.0000002E+03   1.0000001E+03   1.0000001E+03   1.0000001E+03   1.0000000E+03   1.0000000E+03   1.0000000E+03   1.0000006E+03   1.0000006E+03   1.0000006E+03   1.0000006E+03   1.0000005E+03   1.0000004E+03   1.0000003E+03   1.0000002E+03   1.0000001E+03   1.0000017E+03   1.0000016E+03   1.0000015E+03   1.0000014E+03   1.0000013E+03   1.0000011E+03   1.0000009E+03   1.0000006E+03   1.0000004E+03   1.0000034E+03   1.0000032E+03   1.0000031E+03   1.0000029E+03   1.0000026E+03   1.0000022E+03   1.0000018E+03   1.0000014E+03   1.0000009E+03   1.0000057E+03   1.0000054E+03   1.0000052E+03   1.0000048E+03   1.0000043E+03   1.0000038E+03   1.0000031E+03   1.0000024E+03   1.0000016E+03   1.0000084E+03   1.0000082E+03   1.0000077E+03   1.0000073E+03   1.0000066E+03   1.0000058E+03   1.0000047E+03   1.0000038E+03   1.0000027E+03   1.0000051E+03   1.0000038E+03   1.0000051E+03   1.0000063E+03   1.0000077E+03   1.0000096E+03   1.0000122E+03   1.0000160E+03   1.0000217E+03   1.0000303E+03   1.0000422E+03   1.0000572E+03   1.0000000E+03   1.0000000E+03   1.0000000E+03   1.0000000E+03   1.0000000E+03   1.0000000E+03   1.0000000E+03   1.0000000E+03   1.0000000E+03   1.0000000E+03   1.0000000E+03   1.0000000E+03   1.0000000E+03   1.0000000E+03   1.0000000E+03   1.0000000E+03   1.0000000E+03   1.0000000E+03   1.0000000E+03   1.0000000E+03   1.0000000E+03   1.0000000E+03   1.0000000E+03   1.0000000E+03   1.0000000E+03   1.0000000E+03   1.0000000E+03   1.0000002E+03   1.0000001E+03   1.0000000E+03   1.0000000E+03   1.0000006E+03   1.0000003E+03   1.0000001E+03   1.0000000E+03   1.0000011E+03   1.0000006E+03   1.0000002E+03   1.0000001E+03   1.0000018E+03   1.0000011E+03   1.0000006E+03   1.0000002E+03   1.0000026E+03   1.0000016E+03   1.0000009E+03   1.0000004E+03   1.0000035E+03   1.0000021E+03   1.0000012E+03   1.0000005E+03   1.0000043E+03   1.0000028E+03   1.0000016E+03   1.0000007E+03   1.0000055E+03   1.0000035E+03   1.0000020E+03   1.0000009E+03   1.0000068E+03   1.0000045E+03   1.0000025E+03   1.0000011E+03   1.0000086E+03   1.0000056E+03   1.0000032E+03   1.0000015E+03   1.0000115E+03   1.0000075E+03   1.0000043E+03   1.0000020E+03   1.0000159E+03   1.0000105E+03   1.0000060E+03   1.0000026E+03   1.0000225E+03   1.0000150E+03   1.0000089E+03   1.0000041E+03   1.0000320E+03   1.0000216E+03   1.0000130E+03   1.0000065E+03   1.0000440E+03   1.0000303E+03   1.0000193E+03   1.0000000E+03   1.0000000E+03   1.0000000E+03   1.0000000E+03   1.0000000E+03   1.0000000E+03   1.0000000E+03   1.0000000E+03   1.0000000E+03   1.0000000E+03   1.0000000E+03   1.0000000E+03   1.0000000E+03   1.0000000E+03   1.0000000E+03   1.0000000E+03   1.0000000E+03   1.0000000E+03   1.0000000E+03   1.0000000E+03   1.0000000E+03   1.0000000E+03   1.0000000E+03   1.0000000E+03   1.0000000E+03   1.0000000E+03   1.0000000E+03   1.0000000E+03   1.0000000E+03   1.0000000E+03   1.0000000E+03   1.0000000E+03   1.0000000E+03   1.0000000E+03   1.0000000E+03   1.0000000E+03   1.0000000E+03   1.0000000E+03   1.0000000E+03   1.0000000E+03   1.0000000E+03   1.0000000E+03   1.0000000E+03   1.0000000E+03   1.0000000E+03   1.0000000E+03   1.0000000E+03   1.0000000E+03   1.0000000E+03   1.0000000E+03   1.0000000E+03   1.0000000E+03   1.0000000E+03   1.0000000E+03   1.0000000E+03   1.0000000E+03   1.0000000E+03   1.0000000E+03   1.0000000E+03   1.0000000E+03   1.0000000E+03   1.0000000E+03   1.0000000E+03   1.0000000E+03   1.0000000E+03   1.0000000E+03   1.0000000E+03   1.0000000E+03   1.0000000E+03   1.0000000E+03   1.0000000E+03   1.0000000E+03   1.0000000E+03   1.0000000E+03   1.0000000E+03   1.0000000E+03   1.0000000E+03   1.0000000E+03   1.0000000E+03   1.0000000E+03   1.0000000E+03   1.0000000E+03   1.0000000E+03   1.0000000E+03   1.0000000E+03   1.0000000E+03   1.0000000E+03   1.0000000E+03   1.0000000E+03   1.0000000E+03   1.0000000E+03   1.0000000E+03   1.0000000E+03   1.0000000E+03   1.0000000E+03   1.0000000E+03   1.0000000E+03   1.0000000E+03   1.0000000E+03   1.0000000E+03   1.0000000E+03   1.0000000E+03   1.0000000E+03   1.0000000E+03   1.0000000E+03   1.0000000E+03   1.0000000E+03   1.0000000E+03   1.0000000E+03   1.0000000E+03   1.0000000E+03   1.0000000E+03   1.0000000E+03   1.0000000E+03   1.0000000E+03   1.0000000E+03   1.0000000E+03   1.0000000E+03   1.0000000E+03   1.0000000E+03   1.0000000E+03   1.0000000E+03   1.0000000E+03   1.0000000E+03   1.0000000E+03   1.0000000E+03   1.0000000E+03   1.0000000E+03   1.0000000E+03   1.0000000E+03   1.0000000E+03   1.0000000E+03   1.0000000E+03   1.0000000E+03   1.0000000E+03   1.0000000E+03   1.0000000E+03   1.0000000E+03   1.0000000E+03   1.0000000E+03   1.0000000E+03   1.0000000E+03   1.0000000E+03   1.0000000E+03   1.0000000E+03   1.0000000E+03   1.0000000E+03   1.0000000E+03   1.0000000E+03   1.0000000E+03   1.0000000E+03   1.0000000E+03   1.0000000E+03   1.0000000E+03   1.0000000E+03   1.0000000E+03   1.0000000E+03   1.0000000E+03   1.0000000E+03   1.0000000E+03   1.0000000E+03   1.0000000E+03   1.0000000E+03   1.0000000E+03   1.0000000E+03   1.0000000E+03   1.0000000E+03   1.0000000E+03   1.0000000E+03   1.0000000E+03   1.0000000E+03   1.0000000E+03   1.0000000E+03   1.0000000E+03   1.0000000E+03   1.0000000E+03   1.0000000E+03   1.0000000E+03   1.0000000E+03   1.0000000E+03   1.0000000E+03   1.0000000E+03   1.0000000E+03   1.0000000E+03   1.0000000E+03   1.0000000E+03   1.0000000E+03   1.0000000E+03   1.0000000E+03   1.0000000E+03   1.0000000E+03   1.0000000E+03   1.0000000E+03   1.0000000E+03   1.0000000E+03   1.0000000E+03   1.0000000E+03   1.0000000E+03   1.0000000E+03   1.0000000E+03   1.0000000E+03   1.0000000E+03   1.0000000E+03   1.0000000E+03   1.0000000E+03   1.0000000E+03   1.0000000E+03   1.0000000E+03   1.0000000E+03   1.0000000E+03   1.0000000E+03   1.0000000E+03   1.0000000E+03   1.0000000E+03   1.0000000E+03   1.0000000E+03   1.0000000E+03   1.0000000E+03   1.0000000E+03   1.0000000E+03   1.0000000E+03   1.0000000E+03   1.0000000E+03   1.0000000E+03   1.0000000E+03   1.0000000E+03   1.0000000E+03   1.0000000E+03   1.0000000E+03   1.0000000E+03   1.0000000E+03   1.0000000E+03   1.0000000E+03   1.0000000E+03   1.0000000E+03   1.0000000E+03   1.0000000E+03   1.0000000E+03   1.0000000E+03   1.0000000E+03   1.0000000E+03   1.0000000E+03   1.0000000E+03   1.0000000E+03   1.0000000E+03   1.0000000E+03   1.0000000E+03   1.0000000E+03   1.0000000E+03   1.0000000E+03   1.0000000E+03   1.0000000E+03   1.0000000E+03   1.0000000E+03   1.0000000E+03   1.0000000E+03   1.0000000E+03   1.0000000E+03   1.0000000E+03   1.0000000E+03   1.0000000E+03   1.0000000E+03   1.0000000E+03   1.0000000E+03   1.0000000E+03   1.0000000E+03   1.0000000E+03   1.0000000E+03   1.0000000E+03   1.0000000E+03   1.0000000E+03   1.0000000E+03   1.0000000E+03   1.0000000E+03   1.0000000E+03   1.0000000E+03   1.0000000E+03   1.0000000E+03   1.0000000E+03   1.0000000E+03   1.0000000E+03   1.0000000E+03   1.0000000E+03   1.0000000E+03   1.0000000E+03   1.0000000E+03   1.0000000E+03   1.0000000E+03   1.0000000E+03   1.0000000E+03   1.0000000E+03   1.0000000E+03   1.0000000E+03   1.0000000E+03   1.0000000E+03   1.0000000E+03   1.0000000E+03   1.0000000E+03   1.0000000E+03   1.0000000E+03   1.0000000E+03   1.0000000E+03   1.0000000E+03   1.0000000E+03   1.0000000E+03   1.0000000E+03   1.0000000E+03   1.0000000E+03   1.0000000E+03   1.0000000E+03   1.0000000E+03   1.0000000E+03   1.0000000E+03   1.0000000E+03   1.0000000E+03   1.0000000E+03   1.0000000E+03   1.0000000E+03   1.0000000E+03   1.0000000E+03   1.0000000E+03   1.0000000E+03   1.0000000E+03   1.0000000E+03   1.0000000E+03   1.0000000E+03   1.0000000E+03   1.0000000E+03   1.0000000E+03   1.0000000E+03   1.0000000E+03   1.0000000E+03   1.0000000E+03   1.0000000E+03   1.0000000E+03   1.0000000E+03   1.0000000E+03   1.0000000E+03   1.0000000E+03   1.0000000E+03   1.0000000E+03   1.0000000E+03   1.0000000E+03   1.0000000E+03   1.0000000E+03   1.0000000E+03   1.0000000E+03   1.0000000E+03   1.0000000E+03   1.0000000E+03   1.0000000E+03   1.0000000E+03   1.0000000E+03   1.0000000E+03   1.0000000E+03   1.0000000E+03   1.0000000E+03   1.0000000E+03   1.0000000E+03   1.0000000E+03   1.0000000E+03   1.0000000E+03   1.0000000E+03   1.0000000E+03   1.0000000E+03   1.0000000E+03   1.0000000E+03   1.0000000E+03   1.0000000E+03   1.0000000E+03   1.0000000E+03   1.0000000E+03   1.0000000E+03   1.0000000E+03   1.0000000E+03   1.0000000E+03   1.0000000E+03   1.0000000E+03   1.0000000E+03   1.0000000E+03   1.0000000E+03   1.0000000E+03   1.0000000E+03   1.0000000E+03   1.0000000E+03   1.0000000E+03   1.0000000E+03   1.0000000E+03   1.0000000E+03   1.0000000E+03   1.0000000E+03   1.0000000E+03   1.0000000E+03   1.0000000E+03   1.0000000E+03   1.0000000E+03   1.0000000E+03   1.0000000E+03   1.0000000E+03   1.0000000E+03   1.0000000E+03   1.0000000E+03   1.0000000E+03   1.0000000E+03   1.0000000E+03   1.0000000E+03   1.0000000E+03   1.0000000E+03   1.0000000E+03   1.0000000E+03   1.0000000E+03   1.0000000E+03   1.0000000E+03   1.0000000E+03   1.0000000E+03   1.0000000E+03   1.0000000E+03   1.0000000E+03   1.0000000E+03   1.0000000E+03   1.0000000E+03   1.0000000E+03   1.0000000E+03   1.0000000E+03   1.0000000E+03   1.0000000E+03   1.0000000E+03   1.0000000E+03   1.0000000E+03   1.0000000E+03   1.0000000E+03   1.0000000E+03   1.0000000E+03   1.0000000E+03   1.0000000E+03   1.0000000E+03   1.0000000E+03   1.0000000E+03   1.0000000E+03   1.0000000E+03   1.0000000E+03   1.0000000E+03   1.0000000E+03   1.0000000E+03   1.0000000E+03   1.0000000E+03   1.0000000E+03   1.0000000E+03   1.0000000E+03   1.0000000E+03   1.0000000E+03   1.0000000E+03   1.0000000E+03   1.0000000E+03   1.0000000E+03   1.0000000E+03   1.0000000E+03   1.0000000E+03   1.0000000E+03   1.0000000E+03   1.0000000E+03   1.0000000E+03   1.0000000E+03   1.0000000E+03   1.0000000E+03   1.0000000E+03   1.0000000E+03   1.0000000E+03   1.0000000E+03   1.0000000E+03   1.0000000E+03   1.0000000E+03   1.0000066E+03   1.0000078E+03   1.0000089E+03   1.0000098E+03   1.0000103E+03   1.0000067E+03   1.0000085E+03   1.0000099E+03   1.0000111E+03   1.0000121E+03   1.0000128E+03   1.0000082E+03   1.0000104E+03   1.0000121E+03   1.0000136E+03   1.0000146E+03   1.0000154E+03   1.0000101E+03   1.0000128E+03   1.0000148E+03   1.0000165E+03   1.0000176E+03   1.0000185E+03   1.0000127E+03   1.0000156E+03   1.0000179E+03   1.0000200E+03   1.0000214E+03   1.0000221E+03   1.0000159E+03   1.0000195E+03   1.0000224E+03   1.0000244E+03   1.0000259E+03   1.0000269E+03   1.0000211E+03   1.0000251E+03   1.0000283E+03   1.0000302E+03   1.0000317E+03   1.0000329E+03   1.0000292E+03   1.0000334E+03   1.0000361E+03   1.0000379E+03   1.0000391E+03   1.0000399E+03   1.0000416E+03   1.0000455E+03   1.0000468E+03   1.0000477E+03   1.0000482E+03   1.0000488E+03   1.0000593E+03   1.0000611E+03   1.0000604E+03   1.0000594E+03   1.0000590E+03   1.0000591E+03   1.0000809E+03   1.0000798E+03   1.0000760E+03   1.0000730E+03   1.0000715E+03   1.0000714E+03   1.0001005E+03   1.0000984E+03   1.0000924E+03   1.0000880E+03   1.0000860E+03   1.0000854E+03   1.0001111E+03   1.0001135E+03   1.0001083E+03   1.0001041E+03   1.0001021E+03   1.0001015E+03   1.0001187E+03   1.0001260E+03   1.0001244E+03   1.0001215E+03   1.0001204E+03   1.0001204E+03   1.0001317E+03   1.0001409E+03   1.0001429E+03   1.0001420E+03   1.0001420E+03   1.0001425E+03   1.0001532E+03   1.0001625E+03   1.0001660E+03   1.0001666E+03   1.0001673E+03   1.0001680E+03   1.0001833E+03   1.0001915E+03   1.0001951E+03   1.0001962E+03   1.0001974E+03   1.0001986E+03   1.0002205E+03   1.0002276E+03   1.0002308E+03   1.0002318E+03   1.0002332E+03   1.0002344E+03   1.0002635E+03   1.0002701E+03   1.0002732E+03   1.0002741E+03   1.0002754E+03   1.0002766E+03   1.0003139E+03   1.0003207E+03   1.0003235E+03   1.0003242E+03   1.0003253E+03   1.0003262E+03   1.0003736E+03   1.0003808E+03   1.0003834E+03   1.0003835E+03   1.0003842E+03   1.0003844E+03   1.0004449E+03   1.0004521E+03   1.0004548E+03   1.0004539E+03   1.0004531E+03   1.0004520E+03   1.0005288E+03   1.0005370E+03   1.0005394E+03   1.0005363E+03   1.0005334E+03   1.0005299E+03   1.0006279E+03   1.0006377E+03   1.0006397E+03   1.0006330E+03   1.0006257E+03   1.0006190E+03   1.0007415E+03   1.0007549E+03   1.0007552E+03   1.0007415E+03   1.0007281E+03   1.0007166E+03   1.0008663E+03   1.0008854E+03   1.0008815E+03   1.0008566E+03   1.0008348E+03   1.0008168E+03   1.0009998E+03   1.0010272E+03   1.0010139E+03   1.0009720E+03   1.0009401E+03   1.0009157E+03   1.0011385E+03   1.0011741E+03   1.0011438E+03   1.0010804E+03   1.0010375E+03   1.0010080E+03   1.0012958E+03   1.0013373E+03   1.0012816E+03   1.0011942E+03   1.0011427E+03   1.0011118E+03   1.0015373E+03   1.0015787E+03   1.0014953E+03   1.0013871E+03   1.0013320E+03   1.0013063E+03   1.0020610E+03   1.0020951E+03   1.0019985E+03   1.0018820E+03   1.0018328E+03   1.0018204E+03   1.0032839E+03   1.0033087E+03   1.0032370E+03   1.0031452E+03   1.0031124E+03   1.0031208E+03   1.0055973E+03   1.0056174E+03   1.0056067E+03   1.0056007E+03   1.0056066E+03   1.0056419E+03   1.0084702E+03   1.0084885E+03   1.0085222E+03   1.0086443E+03   1.0087207E+03   1.0087908E+03   1.0105532E+03   1.0105527E+03   1.0105919E+03   1.0108011E+03   1.0109473E+03   1.0110518E+03   1.0114112E+03   1.0113793E+03   1.0113704E+03   1.0116121E+03   1.0117933E+03   1.0119196E+03   1.0116020E+03   1.0115655E+03   1.0114868E+03   1.0116872E+03   1.0118631E+03   1.0119913E+03   1.0116634E+03   1.0116398E+03   1.0115162E+03   1.0116465E+03   1.0117773E+03   1.0118847E+03   1.0117887E+03   1.0117816E+03   1.0116276E+03   1.0117014E+03   1.0117897E+03   1.0118743E+03   1.0119886E+03   1.0119921E+03   1.0118259E+03   1.0118670E+03   1.0119283E+03   1.0119962E+03   1.0122039E+03   1.0122124E+03   1.0120472E+03   1.0120792E+03   1.0121307E+03   1.0121903E+03   1.0123713E+03   1.0123795E+03   1.0122230E+03   1.0122659E+03   1.0123220E+03   1.0123812E+03   1.0122939E+03   1.0123002E+03   1.0121553E+03   1.0122109E+03   1.0122758E+03   1.0123393E+03   1.0119846E+03   1.0119901E+03   1.0118594E+03   1.0119249E+03   1.0119995E+03   1.0120700E+03   1.0114974E+03   1.0115048E+03   1.0113923E+03   1.0114665E+03   1.0115504E+03   1.0116295E+03   1.0108796E+03   1.0108945E+03   1.0108054E+03   1.0108878E+03   1.0109796E+03   1.0110682E+03   1.0101631E+03   1.0101901E+03   1.0101271E+03   1.0102188E+03   1.0103180E+03   1.0104141E+03   1.0093641E+03   1.0094027E+03   1.0093678E+03   1.0094694E+03   1.0095743E+03   1.0096773E+03   1.0084977E+03   1.0085479E+03   1.0085385E+03   1.0086462E+03   1.0087576E+03   1.0088650E+03   1.0075922E+03   1.0076529E+03   1.0076600E+03   1.0077697E+03   1.0078873E+03   1.0079965E+03   1.0066926E+03   1.0067565E+03   1.0067665E+03   1.0068759E+03   1.0069958E+03   1.0071048E+03   1.0058408E+03   1.0058954E+03   1.0059017E+03   1.0060058E+03   1.0061225E+03   1.0062287E+03   1.0050285E+03   1.0050922E+03   1.0051029E+03   1.0051964E+03   1.0053040E+03   1.0054034E+03   1.0042304E+03   1.0043453E+03   1.0043843E+03   1.0044734E+03   1.0045692E+03   1.0046561E+03   1.0035007E+03   1.0036857E+03   1.0037658E+03   1.0038522E+03   1.0039322E+03   1.0040014E+03   1.0031347E+03   1.0032536E+03   1.0033292E+03   1.0033948E+03   1.0034442E+03   1.0026718E+03   1.0028123E+03   1.0028885E+03   1.0029481E+03   1.0029828E+03   1.0024109E+03   1.0025017E+03   1.0025656E+03   1.0026065E+03   1.0020524E+03   1.0021332E+03   1.0022190E+03   1.0022855E+03   1.0018047E+03   1.0018861E+03   1.0019819E+03   1.0015891E+03   1.0016761E+03   1.0014305E+03   1.0014122E+03   1.0000108E+03   1.0000112E+03   1.0000114E+03   1.0000117E+03   1.0000117E+03   1.0000118E+03   1.0000119E+03   1.0000119E+03   1.0000119E+03   1.0000132E+03   1.0000138E+03   1.0000140E+03   1.0000143E+03   1.0000145E+03   1.0000146E+03   1.0000146E+03   1.0000146E+03   1.0000146E+03   1.0000160E+03   1.0000164E+03   1.0000168E+03   1.0000170E+03   1.0000172E+03   1.0000172E+03   1.0000172E+03   1.0000172E+03   1.0000172E+03   1.0000191E+03   1.0000195E+03   1.0000198E+03   1.0000200E+03   1.0000201E+03   1.0000201E+03   1.0000201E+03   1.0000201E+03   1.0000201E+03   1.0000228E+03   1.0000233E+03   1.0000235E+03   1.0000235E+03   1.0000236E+03   1.0000236E+03   1.0000236E+03   1.0000236E+03   1.0000236E+03   1.0000275E+03   1.0000279E+03   1.0000281E+03   1.0000282E+03   1.0000283E+03   1.0000283E+03   1.0000281E+03   1.0000281E+03   1.0000281E+03   1.0000333E+03   1.0000337E+03   1.0000339E+03   1.0000339E+03   1.0000338E+03   1.0000337E+03   1.0000335E+03   1.0000335E+03   1.0000334E+03   1.0000405E+03   1.0000407E+03   1.0000407E+03   1.0000406E+03   1.0000405E+03   1.0000404E+03   1.0000403E+03   1.0000402E+03   1.0000402E+03   1.0000490E+03   1.0000494E+03   1.0000493E+03   1.0000491E+03   1.0000488E+03   1.0000486E+03   1.0000482E+03   1.0000482E+03   1.0000480E+03   1.0000593E+03   1.0000593E+03   1.0000591E+03   1.0000587E+03   1.0000584E+03   1.0000580E+03   1.0000577E+03   1.0000575E+03   1.0000574E+03   1.0000713E+03   1.0000712E+03   1.0000709E+03   1.0000706E+03   1.0000699E+03   1.0000695E+03   1.0000692E+03   1.0000689E+03   1.0000687E+03   1.0000854E+03   1.0000852E+03   1.0000847E+03   1.0000840E+03   1.0000834E+03   1.0000828E+03   1.0000825E+03   1.0000821E+03   1.0000820E+03   1.0001016E+03   1.0001014E+03   1.0001008E+03   1.0001001E+03   1.0000994E+03   1.0000989E+03   1.0000983E+03   1.0000979E+03   1.0000976E+03   1.0001207E+03   1.0001205E+03   1.0001200E+03   1.0001193E+03   1.0001183E+03   1.0001174E+03   1.0001169E+03   1.0001165E+03   1.0001162E+03   1.0001429E+03   1.0001429E+03   1.0001423E+03   1.0001414E+03   1.0001403E+03   1.0001391E+03   1.0001385E+03   1.0001380E+03   1.0001376E+03   1.0001688E+03   1.0001687E+03   1.0001682E+03   1.0001672E+03   1.0001661E+03   1.0001649E+03   1.0001641E+03   1.0001633E+03   1.0001629E+03   1.0001993E+03   1.0001993E+03   1.0001986E+03   1.0001973E+03   1.0001959E+03   1.0001946E+03   1.0001934E+03   1.0001925E+03   1.0001921E+03   1.0002352E+03   1.0002351E+03   1.0002341E+03   1.0002327E+03   1.0002307E+03   1.0002292E+03   1.0002276E+03   1.0002264E+03   1.0002259E+03   1.0002772E+03   1.0002768E+03   1.0002754E+03   1.0002732E+03   1.0002708E+03   1.0002687E+03   1.0002667E+03   1.0002654E+03   1.0002646E+03   1.0003265E+03   1.0003254E+03   1.0003233E+03   1.0003201E+03   1.0003170E+03   1.0003140E+03   1.0003116E+03   1.0003098E+03   1.0003085E+03   1.0003839E+03   1.0003818E+03   1.0003784E+03   1.0003741E+03   1.0003696E+03   1.0003657E+03   1.0003623E+03   1.0003598E+03   1.0003585E+03   1.0004502E+03   1.0004465E+03   1.0004413E+03   1.0004353E+03   1.0004292E+03   1.0004238E+03   1.0004194E+03   1.0004161E+03   1.0004141E+03   1.0005256E+03   1.0005198E+03   1.0005121E+03   1.0005038E+03   1.0004955E+03   1.0004886E+03   1.0004828E+03   1.0004787E+03   1.0004760E+03   1.0006116E+03   1.0006024E+03   1.0005914E+03   1.0005798E+03   1.0005692E+03   1.0005601E+03   1.0005529E+03   1.0005475E+03   1.0005445E+03   1.0007045E+03   1.0006912E+03   1.0006761E+03   1.0006609E+03   1.0006472E+03   1.0006359E+03   1.0006271E+03   1.0006207E+03   1.0006170E+03   1.0007996E+03   1.0007811E+03   1.0007612E+03   1.0007421E+03   1.0007253E+03   1.0007117E+03   1.0007017E+03   1.0006942E+03   1.0006904E+03   1.0008932E+03   1.0008696E+03   1.0008448E+03   1.0008215E+03   1.0008018E+03   1.0007863E+03   1.0007750E+03   1.0007673E+03   1.0007631E+03   1.0009818E+03   1.0009545E+03   1.0009261E+03   1.0008995E+03   1.0008777E+03   1.0008611E+03   1.0008496E+03   1.0008419E+03   1.0008376E+03   1.0010859E+03   1.0010586E+03   1.0010293E+03   1.0010015E+03   1.0009792E+03   1.0009628E+03   1.0009520E+03   1.0009453E+03   1.0009418E+03   1.0012875E+03   1.0012660E+03   1.0012409E+03   1.0012162E+03   1.0011960E+03   1.0011821E+03   1.0011740E+03   1.0011697E+03   1.0011675E+03   1.0018163E+03   1.0018089E+03   1.0017947E+03   1.0017783E+03   1.0017650E+03   1.0017568E+03   1.0017537E+03   1.0017535E+03   1.0017542E+03   1.0031400E+03   1.0031542E+03   1.0031593E+03   1.0031583E+03   1.0031568E+03   1.0031586E+03   1.0031641E+03   1.0031704E+03   1.0031753E+03   1.0056902E+03   1.0057333E+03   1.0057640E+03   1.0057846E+03   1.0058012E+03   1.0058181E+03   1.0058354E+03   1.0058515E+03   1.0058625E+03   1.0088698E+03   1.0089442E+03   1.0090040E+03   1.0090503E+03   1.0090892E+03   1.0091253E+03   1.0091592E+03   1.0091876E+03   1.0092064E+03   1.0111571E+03   1.0112586E+03   1.0113465E+03   1.0114197E+03   1.0114835E+03   1.0115414E+03   1.0115939E+03   1.0116367E+03   1.0116646E+03   1.0120419E+03   1.0121632E+03   1.0122736E+03   1.0123713E+03   1.0124589E+03   1.0125391E+03   1.0126108E+03   1.0126686E+03   1.0127063E+03   1.0121187E+03   1.0122501E+03   1.0123763E+03   1.0124930E+03   1.0126008E+03   1.0127007E+03   1.0127899E+03   1.0128612E+03   1.0129075E+03   1.0120043E+03   1.0121370E+03   1.0122707E+03   1.0123989E+03   1.0125207E+03   1.0126347E+03   1.0127368E+03   1.0128183E+03   1.0128712E+03   1.0119825E+03   1.0121104E+03   1.0122443E+03   1.0123765E+03   1.0125046E+03   1.0126261E+03   1.0127355E+03   1.0128231E+03   1.0128798E+03   1.0120936E+03   1.0122145E+03   1.0123439E+03   1.0124741E+03   1.0126024E+03   1.0127255E+03   1.0128369E+03   1.0129267E+03   1.0129847E+03   1.0122806E+03   1.0123950E+03   1.0125184E+03   1.0126438E+03   1.0127683E+03   1.0128890E+03   1.0129987E+03   1.0130873E+03   1.0131448E+03   1.0124689E+03   1.0125789E+03   1.0126971E+03   1.0128168E+03   1.0129359E+03   1.0130521E+03   1.0131581E+03   1.0132440E+03   1.0132996E+03   1.0124279E+03   1.0125365E+03   1.0126506E+03   1.0127648E+03   1.0128785E+03   1.0129893E+03   1.0130908E+03   1.0131730E+03   1.0132264E+03   1.0121621E+03   1.0122703E+03   1.0123814E+03   1.0124913E+03   1.0125993E+03   1.0127048E+03   1.0128011E+03   1.0128795E+03   1.0129303E+03   1.0117266E+03   1.0118353E+03   1.0119434E+03   1.0120480E+03   1.0121501E+03   1.0122494E+03   1.0123403E+03   1.0124139E+03   1.0124618E+03   1.0111700E+03   1.0112782E+03   1.0113821E+03   1.0114798E+03   1.0115747E+03   1.0116664E+03   1.0117505E+03   1.0118188E+03   1.0118632E+03   1.0105194E+03   1.0106249E+03   1.0107213E+03   1.0108098E+03   1.0108953E+03   1.0109775E+03   1.0110535E+03   1.0111151E+03   1.0111552E+03   1.0097828E+03   1.0098823E+03   1.0099691E+03   1.0100467E+03   1.0101204E+03   1.0101923E+03   1.0102587E+03   1.0103132E+03   1.0103483E+03   1.0089686E+03   1.0090604E+03   1.0091368E+03   1.0092026E+03   1.0092650E+03   1.0093260E+03   1.0093827E+03   1.0094297E+03   1.0094600E+03   1.0080977E+03   1.0081826E+03   1.0082498E+03   1.0083056E+03   1.0083574E+03   1.0084089E+03   1.0084572E+03   1.0084969E+03   1.0085230E+03   1.0072039E+03   1.0072844E+03   1.0073455E+03   1.0073942E+03   1.0074388E+03   1.0074822E+03   1.0075231E+03   1.0075571E+03   1.0075792E+03   1.0063255E+03   1.0064047E+03   1.0064637E+03   1.0065095E+03   1.0065496E+03   1.0065875E+03   1.0066229E+03   1.0066517E+03   1.0066708E+03   1.0054963E+03   1.0055759E+03   1.0056373E+03   1.0056843E+03   1.0057230E+03   1.0057575E+03   1.0057885E+03   1.0058138E+03   1.0058300E+03   1.0047408E+03   1.0048203E+03   1.0048868E+03   1.0049388E+03   1.0049797E+03   1.0050135E+03   1.0050417E+03   1.0050638E+03   1.0050779E+03   1.0040729E+03   1.0041483E+03   1.0042200E+03   1.0042799E+03   1.0043267E+03   1.0043623E+03   1.0043900E+03   1.0044103E+03   1.0044229E+03   1.0034968E+03   1.0035624E+03   1.0036350E+03   1.0037032E+03   1.0037587E+03   1.0038005E+03   1.0038306E+03   1.0038510E+03   1.0038629E+03   1.0030142E+03   1.0030633E+03   1.0031296E+03   1.0032014E+03   1.0032661E+03   1.0033169E+03   1.0033531E+03   1.0033768E+03   1.0033900E+03   1.0026233E+03   1.0026514E+03   1.0027028E+03   1.0027690E+03   1.0028368E+03   1.0028956E+03   1.0029398E+03   1.0029696E+03   1.0029862E+03   1.0023143E+03   1.0023272E+03   1.0023564E+03   1.0024064E+03   1.0024670E+03   1.0025259E+03   1.0025750E+03   1.0026102E+03   1.0026311E+03   1.0020491E+03   1.0020780E+03   1.0020912E+03   1.0021171E+03   1.0021583E+03   1.0022062E+03   1.0022510E+03   1.0022863E+03   1.0023088E+03   1.0017816E+03   1.0018539E+03   1.0018884E+03   1.0019012E+03   1.0019166E+03   1.0019420E+03   1.0019722E+03   1.0019996E+03   1.0020188E+03   1.0015071E+03   1.0016025E+03   1.0016794E+03   1.0017224E+03   1.0017366E+03   1.0017410E+03   1.0017493E+03   1.0017610E+03   1.0017714E+03   1.0013382E+03   1.0013762E+03   1.0014341E+03   1.0014936E+03   1.0015440E+03   1.0015726E+03   1.0015818E+03   1.0015838E+03   1.0015853E+03   1.0013099E+03   1.0012837E+03   1.0012824E+03   1.0013003E+03   1.0013260E+03   1.0013495E+03   1.0013625E+03   1.0013683E+03   1.0012568E+03   1.0012026E+03   1.0011789E+03   1.0011481E+03   1.0011215E+03   1.0011057E+03   1.0012633E+03   1.0012282E+03   1.0011829E+03   1.0011489E+03   1.0000119E+03   1.0000119E+03   1.0000119E+03   1.0000119E+03   1.0000118E+03   1.0000117E+03   1.0000117E+03   1.0000114E+03   1.0000146E+03   1.0000146E+03   1.0000146E+03   1.0000146E+03   1.0000146E+03   1.0000145E+03   1.0000143E+03   1.0000140E+03   1.0000172E+03   1.0000172E+03   1.0000172E+03   1.0000172E+03   1.0000172E+03   1.0000172E+03   1.0000170E+03   1.0000168E+03   1.0000201E+03   1.0000201E+03   1.0000201E+03   1.0000201E+03   1.0000201E+03   1.0000201E+03   1.0000200E+03   1.0000198E+03   1.0000236E+03   1.0000236E+03   1.0000236E+03   1.0000236E+03   1.0000236E+03   1.0000236E+03   1.0000235E+03   1.0000235E+03   1.0000281E+03   1.0000281E+03   1.0000281E+03   1.0000281E+03   1.0000283E+03   1.0000283E+03   1.0000282E+03   1.0000281E+03   1.0000334E+03   1.0000334E+03   1.0000335E+03   1.0000335E+03   1.0000337E+03   1.0000338E+03   1.0000339E+03   1.0000339E+03   1.0000400E+03   1.0000402E+03   1.0000402E+03   1.0000403E+03   1.0000404E+03   1.0000405E+03   1.0000406E+03   1.0000407E+03   1.0000480E+03   1.0000480E+03   1.0000482E+03   1.0000482E+03   1.0000486E+03   1.0000488E+03   1.0000491E+03   1.0000493E+03   1.0000573E+03   1.0000574E+03   1.0000575E+03   1.0000577E+03   1.0000580E+03   1.0000584E+03   1.0000587E+03   1.0000591E+03   1.0000687E+03   1.0000687E+03   1.0000689E+03   1.0000692E+03   1.0000695E+03   1.0000699E+03   1.0000706E+03   1.0000709E+03   1.0000820E+03   1.0000820E+03   1.0000821E+03   1.0000825E+03   1.0000828E+03   1.0000834E+03   1.0000840E+03   1.0000847E+03   1.0000976E+03   1.0000976E+03   1.0000979E+03   1.0000983E+03   1.0000989E+03   1.0000994E+03   1.0001001E+03   1.0001008E+03   1.0001161E+03   1.0001162E+03   1.0001165E+03   1.0001169E+03   1.0001174E+03   1.0001183E+03   1.0001193E+03   1.0001200E+03   1.0001376E+03   1.0001376E+03   1.0001380E+03   1.0001385E+03   1.0001391E+03   1.0001403E+03   1.0001414E+03   1.0001423E+03   1.0001628E+03   1.0001629E+03   1.0001633E+03   1.0001641E+03   1.0001649E+03   1.0001661E+03   1.0001672E+03   1.0001682E+03   1.0001919E+03   1.0001921E+03   1.0001925E+03   1.0001934E+03   1.0001946E+03   1.0001959E+03   1.0001973E+03   1.0001986E+03   1.0002256E+03   1.0002259E+03   1.0002264E+03   1.0002276E+03   1.0002292E+03   1.0002307E+03   1.0002327E+03   1.0002341E+03   1.0002642E+03   1.0002646E+03   1.0002654E+03   1.0002667E+03   1.0002687E+03   1.0002708E+03   1.0002732E+03   1.0002754E+03   1.0003082E+03   1.0003085E+03   1.0003098E+03   1.0003116E+03   1.0003140E+03   1.0003170E+03   1.0003201E+03   1.0003233E+03   1.0003579E+03   1.0003585E+03   1.0003598E+03   1.0003623E+03   1.0003657E+03   1.0003696E+03   1.0003741E+03   1.0003784E+03   1.0004135E+03   1.0004141E+03   1.0004161E+03   1.0004194E+03   1.0004238E+03   1.0004292E+03   1.0004353E+03   1.0004413E+03   1.0004752E+03   1.0004760E+03   1.0004787E+03   1.0004828E+03   1.0004886E+03   1.0004955E+03   1.0005038E+03   1.0005121E+03   1.0005434E+03   1.0005445E+03   1.0005475E+03   1.0005529E+03   1.0005601E+03   1.0005692E+03   1.0005798E+03   1.0005914E+03   1.0006158E+03   1.0006170E+03   1.0006207E+03   1.0006271E+03   1.0006359E+03   1.0006472E+03   1.0006609E+03   1.0006761E+03   1.0006889E+03   1.0006904E+03   1.0006942E+03   1.0007017E+03   1.0007117E+03   1.0007253E+03   1.0007421E+03   1.0007612E+03   1.0007615E+03   1.0007631E+03   1.0007673E+03   1.0007750E+03   1.0007863E+03   1.0008018E+03   1.0008215E+03   1.0008448E+03   1.0008362E+03   1.0008376E+03   1.0008419E+03   1.0008496E+03   1.0008611E+03   1.0008777E+03   1.0008995E+03   1.0009261E+03   1.0009406E+03   1.0009418E+03   1.0009453E+03   1.0009520E+03   1.0009628E+03   1.0009792E+03   1.0010015E+03   1.0010293E+03   1.0011669E+03   1.0011675E+03   1.0011697E+03   1.0011740E+03   1.0011821E+03   1.0011960E+03   1.0012162E+03   1.0012409E+03   1.0017545E+03   1.0017542E+03   1.0017535E+03   1.0017537E+03   1.0017568E+03   1.0017650E+03   1.0017783E+03   1.0017947E+03   1.0031771E+03   1.0031753E+03   1.0031704E+03   1.0031641E+03   1.0031586E+03   1.0031568E+03   1.0031583E+03   1.0031593E+03   1.0058665E+03   1.0058625E+03   1.0058515E+03   1.0058354E+03   1.0058181E+03   1.0058012E+03   1.0057846E+03   1.0057640E+03   1.0092131E+03   1.0092064E+03   1.0091876E+03   1.0091592E+03   1.0091253E+03   1.0090892E+03   1.0090503E+03   1.0090040E+03   1.0116746E+03   1.0116646E+03   1.0116367E+03   1.0115939E+03   1.0115414E+03   1.0114835E+03   1.0114197E+03   1.0113465E+03   1.0127192E+03   1.0127063E+03   1.0126686E+03   1.0126108E+03   1.0125391E+03   1.0124589E+03   1.0123713E+03   1.0122736E+03   1.0129235E+03   1.0129075E+03   1.0128612E+03   1.0127899E+03   1.0127007E+03   1.0126008E+03   1.0124930E+03   1.0123763E+03   1.0128895E+03   1.0128712E+03   1.0128183E+03   1.0127368E+03   1.0126347E+03   1.0125207E+03   1.0123989E+03   1.0122707E+03   1.0128995E+03   1.0128798E+03   1.0128231E+03   1.0127355E+03   1.0126261E+03   1.0125046E+03   1.0123765E+03   1.0122443E+03   1.0130046E+03   1.0129847E+03   1.0129267E+03   1.0128369E+03   1.0127255E+03   1.0126024E+03   1.0124741E+03   1.0123439E+03   1.0131649E+03   1.0131448E+03   1.0130873E+03   1.0129987E+03   1.0128890E+03   1.0127683E+03   1.0126438E+03   1.0125184E+03   1.0133190E+03   1.0132996E+03   1.0132440E+03   1.0131581E+03   1.0130521E+03   1.0129359E+03   1.0128168E+03   1.0126971E+03   1.0132450E+03   1.0132264E+03   1.0131730E+03   1.0130908E+03   1.0129893E+03   1.0128785E+03   1.0127648E+03   1.0126506E+03   1.0129480E+03   1.0129303E+03   1.0128795E+03   1.0128011E+03   1.0127048E+03   1.0125993E+03   1.0124913E+03   1.0123814E+03   1.0124785E+03   1.0124617E+03   1.0124139E+03   1.0123403E+03   1.0122494E+03   1.0121501E+03   1.0120480E+03   1.0119434E+03   1.0118784E+03   1.0118632E+03   1.0118188E+03   1.0117505E+03   1.0116664E+03   1.0115747E+03   1.0114798E+03   1.0113821E+03   1.0111691E+03   1.0111552E+03   1.0111151E+03   1.0110535E+03   1.0109775E+03   1.0108953E+03   1.0108098E+03   1.0107213E+03   1.0103605E+03   1.0103483E+03   1.0103132E+03   1.0102587E+03   1.0101923E+03   1.0101204E+03   1.0100467E+03   1.0099691E+03   1.0094706E+03   1.0094600E+03   1.0094297E+03   1.0093827E+03   1.0093260E+03   1.0092650E+03   1.0092026E+03   1.0091368E+03   1.0085322E+03   1.0085230E+03   1.0084969E+03   1.0084572E+03   1.0084089E+03   1.0083574E+03   1.0083056E+03   1.0082498E+03   1.0075869E+03   1.0075792E+03   1.0075571E+03   1.0075231E+03   1.0074822E+03   1.0074388E+03   1.0073942E+03   1.0073455E+03   1.0066776E+03   1.0066708E+03   1.0066517E+03   1.0066229E+03   1.0065875E+03   1.0065496E+03   1.0065095E+03   1.0064637E+03   1.0058357E+03   1.0058300E+03   1.0058138E+03   1.0057885E+03   1.0057575E+03   1.0057230E+03   1.0056843E+03   1.0056373E+03   1.0050829E+03   1.0050779E+03   1.0050638E+03   1.0050417E+03   1.0050135E+03   1.0049797E+03   1.0049388E+03   1.0048868E+03   1.0044270E+03   1.0044229E+03   1.0044103E+03   1.0043900E+03   1.0043623E+03   1.0043267E+03   1.0042799E+03   1.0042200E+03   1.0038668E+03   1.0038629E+03   1.0038510E+03   1.0038306E+03   1.0038005E+03   1.0037587E+03   1.0037032E+03   1.0036350E+03   1.0033942E+03   1.0033900E+03   1.0033768E+03   1.0033531E+03   1.0033169E+03   1.0032661E+03   1.0032014E+03   1.0031296E+03   1.0029919E+03   1.0029862E+03   1.0029696E+03   1.0029398E+03   1.0028956E+03   1.0028368E+03   1.0027690E+03   1.0027028E+03   1.0026379E+03   1.0026311E+03   1.0026102E+03   1.0025750E+03   1.0025259E+03   1.0024670E+03   1.0024064E+03   1.0023564E+03   1.0023163E+03   1.0023088E+03   1.0022863E+03   1.0022510E+03   1.0022062E+03   1.0021583E+03   1.0021171E+03   1.0020912E+03   1.0020255E+03   1.0020188E+03   1.0019996E+03   1.0019722E+03   1.0019420E+03   1.0019166E+03   1.0019012E+03   1.0018884E+03   1.0017754E+03   1.0017714E+03   1.0017610E+03   1.0017493E+03   1.0017410E+03   1.0017366E+03   1.0017224E+03   1.0016794E+03   1.0015859E+03   1.0015853E+03   1.0015838E+03   1.0015818E+03   1.0015726E+03   1.0015440E+03   1.0014936E+03   1.0014341E+03   1.0013701E+03   1.0013683E+03   1.0013625E+03   1.0013495E+03   1.0013260E+03   1.0013003E+03   1.0012824E+03   1.0012837E+03   1.0011006E+03   1.0011057E+03   1.0011215E+03   1.0011481E+03   1.0011789E+03   1.0012026E+03   1.0012568E+03   1.0011371E+03   1.0011489E+03   1.0011829E+03   1.0012282E+03   1.0012633E+03   1.0000112E+03   1.0000108E+03   1.0000103E+03   1.0000098E+03   1.0000089E+03   1.0000078E+03   1.0000066E+03   1.0000138E+03   1.0000132E+03   1.0000128E+03   1.0000121E+03   1.0000111E+03   1.0000099E+03   1.0000085E+03   1.0000067E+03   1.0000164E+03   1.0000160E+03   1.0000154E+03   1.0000146E+03   1.0000136E+03   1.0000121E+03   1.0000104E+03   1.0000082E+03   1.0000195E+03   1.0000191E+03   1.0000185E+03   1.0000176E+03   1.0000165E+03   1.0000148E+03   1.0000128E+03   1.0000101E+03   1.0000233E+03   1.0000228E+03   1.0000221E+03   1.0000214E+03   1.0000200E+03   1.0000179E+03   1.0000156E+03   1.0000127E+03   1.0000279E+03   1.0000275E+03   1.0000269E+03   1.0000259E+03   1.0000244E+03   1.0000224E+03   1.0000195E+03   1.0000159E+03   1.0000337E+03   1.0000333E+03   1.0000329E+03   1.0000317E+03   1.0000302E+03   1.0000283E+03   1.0000251E+03   1.0000211E+03   1.0000407E+03   1.0000405E+03   1.0000399E+03   1.0000391E+03   1.0000379E+03   1.0000361E+03   1.0000334E+03   1.0000292E+03   1.0000494E+03   1.0000490E+03   1.0000488E+03   1.0000482E+03   1.0000477E+03   1.0000468E+03   1.0000455E+03   1.0000416E+03   1.0000593E+03   1.0000593E+03   1.0000591E+03   1.0000590E+03   1.0000594E+03   1.0000604E+03   1.0000611E+03   1.0000593E+03   1.0000712E+03   1.0000713E+03   1.0000714E+03   1.0000715E+03   1.0000730E+03   1.0000760E+03   1.0000798E+03   1.0000809E+03   1.0000852E+03   1.0000854E+03   1.0000854E+03   1.0000860E+03   1.0000880E+03   1.0000924E+03   1.0000984E+03   1.0001005E+03   1.0001014E+03   1.0001016E+03   1.0001015E+03   1.0001021E+03   1.0001041E+03   1.0001083E+03   1.0001135E+03   1.0001111E+03   1.0001205E+03   1.0001207E+03   1.0001204E+03   1.0001204E+03   1.0001215E+03   1.0001244E+03   1.0001260E+03   1.0001187E+03   1.0001429E+03   1.0001429E+03   1.0001425E+03   1.0001420E+03   1.0001420E+03   1.0001429E+03   1.0001409E+03   1.0001317E+03   1.0001687E+03   1.0001688E+03   1.0001680E+03   1.0001673E+03   1.0001666E+03   1.0001660E+03   1.0001625E+03   1.0001532E+03   1.0001993E+03   1.0001993E+03   1.0001986E+03   1.0001974E+03   1.0001962E+03   1.0001951E+03   1.0001915E+03   1.0001833E+03   1.0002351E+03   1.0002352E+03   1.0002344E+03   1.0002332E+03   1.0002318E+03   1.0002308E+03   1.0002276E+03   1.0002205E+03   1.0002768E+03   1.0002772E+03   1.0002766E+03   1.0002754E+03   1.0002741E+03   1.0002732E+03   1.0002701E+03   1.0002635E+03   1.0003254E+03   1.0003265E+03   1.0003262E+03   1.0003253E+03   1.0003242E+03   1.0003235E+03   1.0003207E+03   1.0003139E+03   1.0003818E+03   1.0003839E+03   1.0003844E+03   1.0003842E+03   1.0003835E+03   1.0003834E+03   1.0003808E+03   1.0003736E+03   1.0004465E+03   1.0004502E+03   1.0004520E+03   1.0004531E+03   1.0004539E+03   1.0004548E+03   1.0004521E+03   1.0004449E+03   1.0005198E+03   1.0005256E+03   1.0005299E+03   1.0005334E+03   1.0005363E+03   1.0005394E+03   1.0005370E+03   1.0005288E+03   1.0006024E+03   1.0006116E+03   1.0006190E+03   1.0006257E+03   1.0006330E+03   1.0006397E+03   1.0006377E+03   1.0006279E+03   1.0006912E+03   1.0007045E+03   1.0007166E+03   1.0007281E+03   1.0007415E+03   1.0007552E+03   1.0007549E+03   1.0007415E+03   1.0007811E+03   1.0007996E+03   1.0008168E+03   1.0008348E+03   1.0008566E+03   1.0008815E+03   1.0008854E+03   1.0008663E+03   1.0008696E+03   1.0008932E+03   1.0009157E+03   1.0009401E+03   1.0009720E+03   1.0010139E+03   1.0010272E+03   1.0009998E+03   1.0009545E+03   1.0009818E+03   1.0010080E+03   1.0010375E+03   1.0010804E+03   1.0011438E+03   1.0011741E+03   1.0011385E+03   1.0010586E+03   1.0010859E+03   1.0011118E+03   1.0011427E+03   1.0011942E+03   1.0012816E+03   1.0013373E+03   1.0012958E+03   1.0012660E+03   1.0012875E+03   1.0013063E+03   1.0013320E+03   1.0013871E+03   1.0014953E+03   1.0015787E+03   1.0015373E+03   1.0018089E+03   1.0018163E+03   1.0018204E+03   1.0018328E+03   1.0018820E+03   1.0019985E+03   1.0020951E+03   1.0020610E+03   1.0031542E+03   1.0031400E+03   1.0031208E+03   1.0031124E+03   1.0031452E+03   1.0032370E+03   1.0033087E+03   1.0032839E+03   1.0057333E+03   1.0056902E+03   1.0056419E+03   1.0056066E+03   1.0056007E+03   1.0056067E+03   1.0056174E+03   1.0055973E+03   1.0089442E+03   1.0088698E+03   1.0087908E+03   1.0087207E+03   1.0086443E+03   1.0085222E+03   1.0084885E+03   1.0084702E+03   1.0112586E+03   1.0111571E+03   1.0110518E+03   1.0109473E+03   1.0108011E+03   1.0105919E+03   1.0105527E+03   1.0105532E+03   1.0121632E+03   1.0120419E+03   1.0119196E+03   1.0117933E+03   1.0116121E+03   1.0113704E+03   1.0113793E+03   1.0114112E+03   1.0122501E+03   1.0121187E+03   1.0119913E+03   1.0118631E+03   1.0116872E+03   1.0114868E+03   1.0115655E+03   1.0116020E+03   1.0121370E+03   1.0120043E+03   1.0118847E+03   1.0117773E+03   1.0116465E+03   1.0115162E+03   1.0116398E+03   1.0116634E+03   1.0121104E+03   1.0119825E+03   1.0118743E+03   1.0117897E+03   1.0117014E+03   1.0116276E+03   1.0117816E+03   1.0117887E+03   1.0122145E+03   1.0120936E+03   1.0119962E+03   1.0119283E+03   1.0118670E+03   1.0118259E+03   1.0119921E+03   1.0119886E+03   1.0123950E+03   1.0122806E+03   1.0121903E+03   1.0121307E+03   1.0120792E+03   1.0120472E+03   1.0122124E+03   1.0122039E+03   1.0125789E+03   1.0124689E+03   1.0123812E+03   1.0123220E+03   1.0122659E+03   1.0122230E+03   1.0123795E+03   1.0123713E+03   1.0125365E+03   1.0124279E+03   1.0123393E+03   1.0122758E+03   1.0122109E+03   1.0121553E+03   1.0123002E+03   1.0122939E+03   1.0122703E+03   1.0121621E+03   1.0120699E+03   1.0119995E+03   1.0119249E+03   1.0118594E+03   1.0119901E+03   1.0119846E+03   1.0118353E+03   1.0117266E+03   1.0116295E+03   1.0115504E+03   1.0114665E+03   1.0113923E+03   1.0115048E+03   1.0114974E+03   1.0112782E+03   1.0111700E+03   1.0110682E+03   1.0109796E+03   1.0108878E+03   1.0108054E+03   1.0108945E+03   1.0108796E+03   1.0106249E+03   1.0105194E+03   1.0104141E+03   1.0103180E+03   1.0102188E+03   1.0101271E+03   1.0101901E+03   1.0101631E+03   1.0098823E+03   1.0097828E+03   1.0096773E+03   1.0095743E+03   1.0094694E+03   1.0093678E+03   1.0094027E+03   1.0093641E+03   1.0090604E+03   1.0089686E+03   1.0088650E+03   1.0087576E+03   1.0086462E+03   1.0085385E+03   1.0085479E+03   1.0084977E+03   1.0081826E+03   1.0080977E+03   1.0079965E+03   1.0078873E+03   1.0077697E+03   1.0076600E+03   1.0076529E+03   1.0075922E+03   1.0072844E+03   1.0072039E+03   1.0071048E+03   1.0069958E+03   1.0068759E+03   1.0067665E+03   1.0067565E+03   1.0066926E+03   1.0064047E+03   1.0063255E+03   1.0062287E+03   1.0061225E+03   1.0060058E+03   1.0059017E+03   1.0058954E+03   1.0058408E+03   1.0055759E+03   1.0054963E+03   1.0054034E+03   1.0053040E+03   1.0051964E+03   1.0051029E+03   1.0050922E+03   1.0050285E+03   1.0048203E+03   1.0047408E+03   1.0046561E+03   1.0045692E+03   1.0044734E+03   1.0043843E+03   1.0043453E+03   1.0042304E+03   1.0041483E+03   1.0040729E+03   1.0040014E+03   1.0039322E+03   1.0038522E+03   1.0037658E+03   1.0036857E+03   1.0035007E+03   1.0035624E+03   1.0034968E+03   1.0034442E+03   1.0033948E+03   1.0033292E+03   1.0032536E+03   1.0031347E+03   1.0030633E+03   1.0030142E+03   1.0029828E+03   1.0029481E+03   1.0028885E+03   1.0028123E+03   1.0026718E+03   1.0026514E+03   1.0026233E+03   1.0026065E+03   1.0025656E+03   1.0025017E+03   1.0024109E+03   1.0023272E+03   1.0023143E+03   1.0022855E+03   1.0022190E+03   1.0021332E+03   1.0020524E+03   1.0020780E+03   1.0020491E+03   1.0019819E+03   1.0018861E+03   1.0018047E+03   1.0018539E+03   1.0017816E+03   1.0016761E+03   1.0015891E+03   1.0016025E+03   1.0015071E+03   1.0014122E+03   1.0014305E+03   1.0013762E+03   1.0013382E+03   1.0013099E+03 
Mass 1 2975 float
  4.0000001E-01   4.0000001E-01   4.0000001E-01   4.0000001E-01   4.0000001E-01   4.0000001E-01   4.0000001E-01   4.0000001E-01   4.0000001E-01   4.0000001E-01   4.0000001E-01   4.0000001E-01   4.0000001E-01   4.0000001E-01   4.0000001E-01   4.0000001E-01   4.0000001E-01   4.0000001E-01   4.0000001E-01   4.0000001E-01   4.0000001E-01   4.0000001E-01   4.0000001E-01   4.0000001E-01   4.0000001E-01   4.0000001E-01   4.0000001E-01   4.0000001E-01   4.0000001E-01   4.0000001E-01   4.0000001E-01   4.0000001E-01   4.0000001E-01   4.0000001E-01   4.0000001E-01   4.0000001E-01   4.0000001E-01   4.0000001E-01   4.0000001E-01   4.0000001E-01   4.0000001E-01   4.0000001E-01   4.0000001E-01   4.0000001E-01   4.0000001E-01   4.0000001E-01   4.0000001E-01   4.0000001E-01   4.0000001E-01   4.0000001E-01   4.0000001E-01   4.0000001E-01   4.0000001E-01   4.0000001E-01   4.0000001E-01   4.0000001E-01   4.0000001E-01   4.0000001E-01   4.0000001E-01   4.0000001E-01   4.0000001E-01   4.0000001E-01   4.0000001E-01   4.0000001E-01   4.0000001E-01   4.0000001E-01   4.0000001E-01   4.0000001E-01   4.0000001E-01   4.0000001E-01   4.0000001E-01   4.0000001E-01   4.0000001E-01   4.0000001E-01   4.0000001E-01   4.0000001E-01   4.0000001E-01   4.0000001E-01   4.0000001E-01   4.0000001E-01   4.0000001E-01   4.0000001E-01   4.0000001E-01   4.0000001E-01   4.0000001E-01   4.0000001E-01   4.0000001E-01   4.0000001E-01   4.0000001E-01   4.0000001E-01   4.0000001E-01   4.0000001E-01   4.0000001E-01   4.0000001E-01   4.0000001E-01   4.0000001E-01   4.0000001E-01   4.0000001E-01   4.0000001E-01   4.0000001E-01   4.0000001E-01   4.0000001E-01   4.0000001E-01   4.0000001E-01   4.0000001E-01   4.0000001E-01   4.0000001E-01   4.0000001E-01   4.0000001E-01   4.0000001E-01   4.0000001E-01   4.0000001E-01   4.0000001E-01   4.0000001E-01   4.0000001E-01   4.0000001E-01   4.0000001E-01   4.0000001E-01   4.0000001E-01   4.0000001E-01   4.0000001E-01   4.0000001E-01   4.0000001E-01   4.0000001E-01   4.0000001E-01   4.0000001E-01   4.0000001E-01   4.0000001E-01   4.0000001E-01   4.0000001E-01   4.0000001E-01   4.0000001E-01   4.0000001E-01   4.0000001E-01   4.0000001E-01   4.0000001E-01   4.0000001E-01   4.0000001E-01   4.0000001E-01   4.0000001E-01   4.0000001E-01   4.0000001E-01   4.0000001E-01   4.0000001E-01   4.0000001E-01   4.0000001E-01   4.0000001E-01   4.0000001E-01   4.0000001E-01   4.0000001E-01   4.0000001E-01   4.0000001E-01   4.0000001E-01   4.0000001E-01   4.0000001E-01   4.0000001E-01   4.0000001E-01   4.0000001E-01   4.0000001E-01   4.0000001E-01   4.0000001E-01   4.0000001E-01   4.0000001E-01   4.0000001E-01   4.0000001E-01   4.0000001E-01   4.0000001E-01   4.0000001E-01   4.0000001E-01   4.0000001E-01   4.0000001E-01   4.0000001E-01   4.0000001E-01   4.0000001E-01   4.0000001E-01   4.0000001E-01   4.0000001E-01   4.0000001E-01   4.0000001E-01   4.0000001E-01   4.0000001E-01   4.0000001E-01   4.0000001E-01   4.0000001E-01   4.0000001E-01   4.0000001E-01   4.0000001E-01   4.0000001E-01   4.0000001E-01   4.0000001E-01   4.0000001E-01   4.0000001E-01   4.0000001E-01   4.0000001E-01   4.0000001E-01   4.0000001E-01   4.0000001E-01   4.0000001E-01   4.0000001E-01   4.0000001E-01   4.0000001E-01   4.0000001E-01   4.0000001E-01   4.0000001E-01   4.0000001E-01   4.0000001E-01   4.0000001E-01   4.0000001E-01   4.0000001E-01   4.0000001E-01   4.0000001E-01   4.0000001E-01   4.0000001E-01   4.0000001E-01   4.0000001E-01   4.0000001E-01   4.0000001E-01   4.0000001E-01   4.0000001E-01   4.0000001E-01   4.0000001E-01   4.0000001E-01   4.0000001E-01   4.0000001E-01   4.0000001E-01   4.0000001E-01   4.0000001E-01   4.0000001E-01   4.0000001E-01   4.0000001E-01   4.0000001E-01   4.0000001E-01   4.0000001E-01   4.0000001E-01   4.0000001E-01   4.0000001E-01   4.0000001E-01   4.0000001E-01   4.0000001E-01   4.0000001E-01   4.0000001E-01   4.0000001E-01   4.0000001E-01   4.0000001E-01   4.0000001E-01   4.0000001E-01   4.0000001E-01   4.0000001E-01   4.0000001E-01   4.0000001E-01   4.0000001E-01   4.0000001E-01   4.0000001E-01   4.0000001E-01   4.0000001E-01   4.0000001E-01   4.0000001E-01   4.0000001E-01   4.0000001E-01   4.0000001E-01   4.0000001E-01   4.0000001E-01   4.0000001E-01   4.0000001E-01   4.0000001E-01   4.0000001E-01   4.0000001E-01   4.0000001E-01   4.0000001E-01   4.0000001E-01   4.0000001E-01   4.0000001E-01   4.0000001E-01   4.0000001E-01   4.0000001E-01   4.0000001E-01   4.0000001E-01   4.0000001E-01   4.0000001E-01   4.0000001E-01   4.0000001E-01   4.0000001E-01   4.0000001E-01   4.0000001E-01   4.0000001E-01   4.0000001E-01   4.0000001E-01   4.0000001E-01   4.0000001E-01   4.0000001E-01   4.0000001E-01   4.0000001E-01   4.0000001E-01   4.0000001E-01   4.0000001E-01   4.0000001E-01   4.0000001E-01   4.0000001E-01   4.0000001E-01   4.0000001E-01   4.0000001E-01   4.0000001E-01   4.0000001E-01   4.0000001E-01   4.0000001E-01   4.0000001E-01   4.0000001E-01   4.0000001E-01   4.0000001E-01   4.0000001E-01   4.0000001E-01   4.0000001E-01   4.0000001E-01   4.0000001E-01   4.0000001E-01   4.0000001E-01   4.0000001E-01   4.0000001E-01   4.0000001E-01   4.0000001E-01   4.0000001E-01   4.0000001E-01   4.0000001E-01   4.0000001E-01   4.0000001E-01   4.0000001E-01   4.0000001E-01   4.0000001E-01   4.0000001E-01   4.0000001E-01   4.0000001E-01   4.0000001E-01   4.0000001E-01   4.0000001E-01   4.0000001E-01   4.0000001E-01   4.0000001E-01   4.0000001E-01   4.0000001E-01   4.0000001E-01   4.0000001E-01   4.0000001E-01   4.0000001E-01   4.0000001E-01   4.0000001E-01   4.0000001E-01   4.0000001E-01   4.0000001E-01   4.0000001E-01   4.0000001E-01   4.0000001E-01   4.0000001E-01   4.0000001E-01   4.0000001E-01   4.0000001E-01   4.0000001E-01   4.0000001E-01   4.0000001E-01   4.0000001E-01   4.0000001E-01   4.0000001E-01   4.0000001E-01   4.0000001E-01   4.0000001E-01   4.0000001E-01   4.0000001E-01   4.0000001E-01   4.0000001E-01   4.0000001E-01   4.0000001E-01   4.0000001E-01   4.0000001E-01   4.0000001E-01   4.0000001E-01   4.0000001E-01   4.0000001E-01   4.0000001E-01   4.0000001E-01   4.0000001E-01   4.0000001E-01   4.0000001E-01   4.0000001E-01   4.0000001E-01   4.0000001E-01   4.0000001E-01   4.0000001E-01   4.0000001E-01   4.0000001E-01   4.0000001E-01   4.0000001E-01   4.0000001E-01   4.0000001E-01   4.0000001E-01   4.0000001E-01   4.0000001E-01   4.0000001E-01   4.0000001E-01   4.0000001E-01   4.0000001E-01   4.0000001E-01   4.0000001E-01   4.0000001E-01   4.0000001E-01   4.0000001E-01   4.0000001E-01   4.0000001E-01   4.0000001E-01   4.0000001E-01   4.0000001E-01   4.0000001E-01   4.0000001E-01   4.0000001E-01   4.0000001E-01   4.0000001E-01   4.0000001E-01   4.0000001E-01   4.0000001E-01   4.0000001E-01   4.0000001E-01   4.0000001E-01   4.0000001E-01   4.0000001E-01   4.0000001E-01   4.0000001E-01   4.0000001E-01   4.0000001E-01   4.0000001E-01   4.0000001E-01   4.0000001E-01   4.0000001E-01   4.0000001E-01   4.0000001E-01   4.0000001E-01   4.0000001E-01   4.0000001E-01   4.0000001E-01   4.0000001E-01   4.0000001E-01   4.0000001E-01   4.0000001E-01   4.0000001E-01   4.0000001E-01   4.0000001E-01   4.0000001E-01   4.0000001E-01   4.0000001E-01   4.0000001E-01   4.0000001E-01   4.0000001E-01   4.0000001E-01   4.0000001E-01   4.0000001E-01   4.0000001E-01   4.0000001E-01   4.0000001E-01   4.0000001E-01   4.0000001E-01   4.0000001E-01   4.0000001E-01   4.0000001E-01   4.0000001E-01   4.0000001E-01   4.0000001E-01   4.0000001E-01   4.0000001E-01   4.0000001E-01   4.0000001E-01   4.0000001E-01   4.0000001E-01   4.0000001E-01   4.0000001E-01   4.0000001E-01   4.0000001E-01   4.0000001E-01   4.0000001E-01   4.0000001E-01   4.0000001E-01   4.0000001E-01   4.0000001E-01   4.0000001E-01   4.0000001E-01   4.0000001E-01   4.0000001E-01   4.0000001E-01   4.0000001E-01   4.0000001E-01   4.0000001E-01   4.0000001E-01   4.0000001E-01   4.0000001E-01   4.0000001E-01   4.0000001E-01   4.0000001E-01   4.0000001E-01   4.0000001E-01   4.0000001E-01   4.0000001E-01   4.0000001E-01   4.0000001E-01   4.0000001E-01   4.0000001E-01   4.0000001E-01   4.0000001E-01   4.0000001E-01   4.0000001E-01   4.0000001E-01   4.0000001E-01   4.0000001E-01   4.0000001E-01   4.0000001E-01   4.0000001E-01   4.0000001E-01   4.0000001E-01   4.0000001E-01   4.0000001E-01   4.0000001E-01   4.0000001E-01   4.0000001E-01   4.0000001E-01   4.0000001E-01   4.0000001E-01   4.0000001E-01   4.0000001E-01   4.0000001E-01   4.0000001E-01   4.0000001E-01   4.0000001E-01   4.0000001E-01   4.0000001E-01   4.0000001E-01   4.0000001E-01   4.0000001E-01   4.0000001E-01   4.0000001E-01   4.0000001E-01   4.0000001E-01   4.0000001E-01   4.0000001E-01   4.0000001E-01   4.0000001E-01   4.0000001E-01   4.0000001E-01   4.0000001E-01   4.0000001E-01   4.0000001E-01   4.0000001E-01   4.0000001E-01   4.0000001E-01   4.0000001E-01   4.0000001E-01   4.0000001E-01   4.0000001E-01   4.0000001E-01   4.0000001E-01   4.0000001E-01   4.0000001E-01   4.0000001E-01   4.0000001E-01   4.0000001E-01   4.0000001E-01   4.0000001E-01   4.0000001E-01   4.0000001E-01   4.0000001E-01   4.0000001E-01   4.0000001E-01   4.0000001E-01   4.0000001E-01   4.0000001E-01   4.0000001E-01   4.0000001E-01   4.0000001E-01   4.0000001E-01   4.0000001E-01   4.0000001E-01   4.0000001E-01   4.0000001E-01   4.0000001E-01   4.0000001E-01   4.0000001E-01   4.0000001E-01   4.0000001E-01   4.0000001E-01   4.0000001E-01   4.0000001E-01   4.0000001E-01   4.0000001E-01   4.0000001E-01   4.0000001E-01   4.0000001E-01   4.0000001E-01   4.0000001E-01   4.0000001E-01   4.0000001E-01   4.0000001E-01   4.0000001E-01   4.0000001E-01   4.0000001E-01   4.0000001E-01   4.0000001E-01   4.0000001E-01   4.0000001E-01   4.0000001E-01   4.0000001E-01   4.0000001E-01   4.0000001E-01   4.0000001E-01   4.0000001E-01   4.0000001E-01   4.0000001E-01   4.0000001E-01   4.0000001E-01   4.0000001E-01   4.0000001E-01   4.0000001E-01   4.0000001E-01   4.0000001E-01   4.0000001E-01   4.0000001E-01   4.0000001E-01   4.0000001E-01   4.0000001E-01   4.0000001E-01   4.0000001E-01   4.0000001E-01   4.0000001E-01   4.0000001E-01   4.0000001E-01   4.0000001E-01   4.0000001E-01   4.0000001E-01   4.0000001E-01   4.0000001E-01   4.0000001E-01   4.0000001E-01   4.0000001E-01   4.0000001E-01   4.0000001E-01   4.0000001E-01   4.0000001E-01   4.0000001E-01   4.0000001E-01   4.0000001E-01   4.0000001E-01   4.0000001E-01   4.0000001E-01   4.0000001E-01   4.0000001E-01   4.0000001E-01   4.0000001E-01   4.0000001E-01   4.0000001E-01   4.0000001E-01   4.0000001E-01   4.0000001E-01   4.0000001E-01   4.0000001E-01   4.0000001E-01   4.0000001E-01   4.0000001E-01   4.0000001E-01   4.0000001E-01   4.0000001E-01   4.0000001E-01   4.0000001E-01   4.0000001E-01   4.0000001E-01   4.0000001E-01   4.0000001E-01   4.0000001E-01   4.0000001E-01   4.0000001E-01   4.0000001E-01   4.0000001E-01   4.0000001E-01   4.0000001E-01   4.0000001E-01   4.0000001E-01   4.0000001E-01   4.0000001E-01   4.0000001E-01   4.0000001E-01   4.0000001E-01   4.0000001E-01   4.0000001E-01   4.0000001E-01   4.0000001E-01   4.0000001E-01   4.0000001E-01   4.0000001E-01   4.0000001E-01   4.0000001E-01   4.0000001E-01   4.0000001E-01   4.0000001E-01   4.0000001E-01   4.0000001E-01   4.0000001E-01   4.0000001E-01   4.0000001E-01   4.0000001E-01   4.0000001E-01   4.0000001E-01   4.0000001E-01   4.0000001E-01   4.0000001E-01   4.0000001E-01   4.0000001E-01   4.0000001E-01   4.0000001E-01   4.0000001E-01   4.0000001E-01   4.0000001E-01   4.0000001E-01   4.0000001E-01   4.0000001E-01   4.0000001E-01   4.0000001E-01   4.0000001E-01   4.0000001E-01   4.0000001E-01   4.0000001E-01   4.0000001E-01   4.0000001E-01   4.0000001E-01   4.0000001E-01   4.0000001E-01   4.0000001E-01   4.0000001E-01   4.0000001E-01   4.0000001E-01   4.0000001E-01   4.0000001E-01   4.0000001E-01   4.0000001E-01   4.0000001E-01   4.0000001E-01   4.0000001E-01   4.0000001E-01   4.0000001E-01   4.0000001E-01   4.0000001E-01   4.0000001E-01   4.0000001E-01   4.0000001E-01   4.0000001E-01   4.0000001E-01   4.0000001E-01   4.0000001E-01   4.0000001E-01   4.0000001E-01   4.0000001E-01   4.0000001E-01   4.0000001E-01   4.0000001E-01   4.0000001E-01   4.0000001E-01   4.0000001E-01   4.0000001E-01   4.0000001E-01   4.0000001E-01   4.0000001E-01   4.0000001E-01   4.0000001E-01   4.0000001E-01   4.0000001E-01   4.0000001E-01   4.0000001E-01   4.0000001E-01   4.0000001E-01   4.0000001E-01   4.0000001E-01   4.0000001E-01   4.0000001E-01   4.0000001E-01   4.0000001E-01   4.0000001E-01   4.0000001E-01   4.0000001E-01   4.0000001E-01   4.0000001E-01   4.0000001E-01   4.0000001E-01   4.0000001E-01   4.0000001E-01   4.0000001E-01   4.0000001E-01   4.0000001E-01   4.0000001E-01   4.0000001E-01   4.0000001E-01   4.0000001E-01   4.0000001E-01   4.0000001E-01   4.0000001E-01   4.0000001E-01   4.0000001E-01   4.0000001E-01   4.0000001E-01   4.0000001E-01   4.0000001E-01   4.0000001E-01   4.0000001E-01   4.0000001E-01   4.0000001E-01   4.0000001E-01   4.0000001E-01   4.0000001E-01   4.0000001E-01   4.0000001E-01   4.0000001E-01   4.0000001E-01   4.0000001E-01   4.0000001E-01   4.0000001E-01   4.0000001E-01   4.0000001E-01   4.0000001E-01   4.0000001E-01   4.0000001E-01   4.0000001E-01   4.0000001E-01   4.0000001E-01   4.0000001E-01   4.0000001E-01   4.0000001E-01   4.0000001E-01   4.0000001E-01   4.0000001E-01   4.0000001E-01   4.0000001E-01   4.0000001E-01   4.0000001E-01   4.0000001E-01   4.0000001E-01   4.0000001E-01   4.0000001E-01   4.0000001E-01   4.0000001E-01   4.0000001E-01   4.0000001E-01   4.0000001E-01   4.0000001E-01   4.0000001E-01   4.0000001E-01   4.0000001E-01   4.0000001E-01   4.0000001E-01   4.0000001E-01   4.0000001E-01   4.0000001E-01   4.0000001E-01   4.0000001E-01   4.0000001E-01   4.0000001E-01   4.0000001E-01   4.0000001E-01   4.0000001E-01   4.0000001E-01   4.0000001E-01   4.0000001E-01   4.0000001E-01   4.0000001E-01   4.0000001E-01   4.0000001E-01   4.0000001E-01   4.0000001E-01   4.0000001E-01   4.0000001E-01   4.0000001E-01   4.0000001E-01   4.0000001E-01   4.0000001E-01   4.0000001E-01   4.0000001E-01   4.0000001E-01   4.0000001E-01   4.0000001E-01   4.0000001E-01   4.0000001E-01   4.0000001E-01   4.0000001E-01   4.0000001E-01   4.0000001E-01   4.0000001E-01   4.0000001E-01   4.0000001E-01   4.0000001E-01   4.0000001E-01   4.0000001E-01   4.0000001E-01   4.0000001E-01   4.0000001E-01   4.0000001E-01   4.0000001E-01   4.0000001E-01   4.0000001E-01   4.0000001E-01   4.0000001E-01   4.0000001E-01   4.0000001E-01   4.0000001E-01   4.0000001E-01   4.0000001E-01   4.0000001E-01   4.0000001E-01   4.0000001E-01   4.0000001E-01   4.0000001E-01   4.0000001E-01   4.0000001E-01   4.0000001E-01   4.0000001E-01   4.0000001E-01   4.0000001E-01   4.0000001E-01   4.0000001E-01   4.0000001E-01   4.0000001E-01   4.0000001E-01   4.0000001E-01   4.0000001E-01   4.0000001E-01   4.0000001E-01   4.0000001E-01   4.0000001E-01   4.0000001E-01   4.0000001E-01   4.0000001E-01   4.0000001E-01   4.0000001E-01   4.0000001E-01   4.0000001E-01   4.0000001E-01   4.0000001E-01   4.0000001E-01   4.0000001E-01   4.0000001E-01   4.0000001E-01   4.0000001E-01   4.0000001E-01   4.0000001E-01   4.0000001E-01   4.0000001E-01   4.0000001E-01   4.0000001E-01   4.0000001E-01   4.0000001E-01   4.0000001E-01   4.0000001E-01   4.0000001E-01   4.0000001E-01   4.0000001E-01   4.0000001E-01   4.0000001E-01   4.0000001E-01   4.0000001E-01   4.0000001E-01   4.0000001E-01   4.0000001E-01   4.0000001E-01   4.0000001E-01   4.0000001E-01   4.0000001E-01   4.0000001E-01   4.0000001E-01   4.0000001E-01   4.0000001E-01   4.0000001E-01   4.0000001E-01   4.0000001E-01   4.0000001E-01   4.0000001E-01   4.0000001E-01   4.0000001E-01   4.0000001E-01   4.0000001E-01   4.0000001E-01   4.0000001E-01   4.0000001E-01   4.0000001E-01   4.0000001E-01   4.0000001E-01   4.0000001E-01   4.0000001E-01   4.0000001E-01   4.0000001E-01   4.0000001E-01   4.0000001E-01   4.0000001E-01   4.0000001E-01   4.0000001E-01   4.0000001E-01   4.0000001E-01   4.0000001E-01   4.0000001E-01   4.0000001E-01   4.0000001E-01   4.0000001E-01   4.0000001E-01   4.0000001E-01   4.0000001E-01   4.0000001E-01   4.0000001E-01   4.0000001E-01   4.0000001E-01   4.0000001E-01   4.0000001E-01   4.0000001E-01   4.0000001E-01   4.0000001E-01   4.0000001E-01   4.0000001E-01   4.0000001E-01   4.0000001E-01   4.0000001E-01   4.0000001E-01   4.0000001E-01   4.0000001E-01   4.0000001E-01   4.0000001E-01   4.0000001E-01   4.0000001E-01   4.0000001E-01   4.0000001E-01   4.0000001E-01   4.0000001E-01   4.0000001E-01   4.0000001E-01   4.0000001E-01   4.0000001E-01   4.0000001E-01   4.0000001E-01   4.0000001E-01   4.0000001E-01   4.0000001E-01   4.0000001E-01   4.0000001E-01   4.0000001E-01   4.0000001E-01   4.0000001E-01   4.0000001E-01   4.0000001E-01   4.0000001E-01   4.0000001E-01   4.0000001E-01   4.0000001E-01   4.0000001E-01   4.0000001E-01   4.0000001E-01   4.0000001E-01   4.0000001E-01   4.0000001E-01   4.0000001E-01   4.0000001E-01   4.0000001E-01   4.0000001E-01   4.0000001E-01   4.0000001E-01   4.0000001E-01   4.0000001E-01   4.0000001E-01   4.0000001E-01   4.0000001E-01   4.0000001E-01   4.0000001E-01   4.0000001E-01   4.0000001E-01   4.0000001E-01   4.0000001E-01   4.0000001E-01   4.0000001E-01   4.0000001E-01   4.0000001E-01   4.0000001E-01   4.0000001E-01   4.0000001E-01   4.0000001E-01   4.0000001E-01   4.0000001E-01   4.0000001E-01   4.0000001E-01   4.0000001E-01   4.0000001E-01   4.0000001E-01   4.0000001E-01   4.0000001E-01   4.0000001E-01   4.0000001E-01   4.0000001E-01   4.0000001E-01   4.0000001E-01   4.0000001E-01   4.0000001E-01   4.0000001E-01   4.0000001E-01   4.0000001E-01   4.0000001E-01   4.0000001E-01   4.0000001E-01   4.0000001E-01   4.0000001E-01   4.0000001E-01   4.0000001E-01   4.0000001E-01   4.0000001E-01   4.0000001E-01   4.0000001E-01   4.0000001E-01   4.0000001E-01   4.0000001E-01   4.0000001E-01   4.0000001E-01   4.0000001E-01   4.0000001E-01   4.0000001E-01   4.0000001E-01   4.0000001E-01   4.0000001E-01   4.0000001E-01   4.0000001E-01   4.0000001E-01   4.0000001E-01   4.0000001E-01   4.0000001E-01   4.0000001E-01   4.0000001E-01   4.0000001E-01   4.0000001E-01   4.0000001E-01   4.0000001E-01   4.0000001E-01   4.0000001E-01   4.0000001E-01   4.0000001E-01   4.0000001E-01   4.0000001E-01   4.0000001E-01   4.0000001E-01   4.0000001E-01   4.0000001E-01   4.0000001E-01   4.0000001E-01   4.0000001E-01   4.0000001E-01   4.0000001E-01   4.0000001E-01   4.0000001E-01   4.0000001E-01   4.0000001E-01   4.0000001E-01   4.0000001E-01   4.0000001E-01   4.0000001E-01   4.0000001E-01   4.0000001E-01   4.0000001E-01   4.0000001E-01   4.0000001E-01   4.0000001E-01   4.0000001E-01   4.0000001E-01   4.0000001E-01   4.0000001E-01   4.0000001E-01   4.0000001E-01   4.0000001E-01   4.0000001E-01   4.0000048E-01   4.0000054E-01   4.0000054E-01   4.0000045E-01   4.0000054E-01   4.0000057E-01   4.0000147E-01   4.0000144E-01   4.0000156E-01   4.0000144E-01   4.0000147E-01   4.0000144E-01   4.0000346E-01   4.0000352E-01   4.0000349E-01   4.0000352E-01   4.0000343E-01   4.0000355E-01   4.0000960E-01   4.0000960E-01   4.0000954E-01   4.0000966E-01   4.0000966E-01   4.0000960E-01   4.0002584E-01   4.0002584E-01   4.0002584E-01   4.0002590E-01   4.0002593E-01   4.0002590E-01   4.0006953E-01   4.0006959E-01   4.0006950E-01   4.0006962E-01   4.0006971E-01   4.0006956E-01   4.0018556E-01   4.0018567E-01   4.0018570E-01   4.0018567E-01   4.0018567E-01   4.0018579E-01   4.0048024E-01   4.0048048E-01   4.0048054E-01   4.0048069E-01   4.0048081E-01   4.0048075E-01   4.0115541E-01   4.0115574E-01   4.0115607E-01   4.0115625E-01   4.0115643E-01   4.0115643E-01   4.0239418E-01   4.0239483E-01   4.0239510E-01   4.0239534E-01   4.0239561E-01   4.0239564E-01   4.0395498E-01   4.0395561E-01   4.0395570E-01   4.0395573E-01   4.0395573E-01   4.0395588E-01   4.0520364E-01   4.0520418E-01   4.0520385E-01   4.0520334E-01   4.0520298E-01   4.0520284E-01   4.0588814E-01   4.0588844E-01   4.0588799E-01   4.0588734E-01   4.0588671E-01   4.0588623E-01   4.0618768E-01   4.0618810E-01   4.0618771E-01   4.0618676E-01   4.0618622E-01   4.0618578E-01   4.0630543E-01   4.0630585E-01   4.0630573E-01   4.0630496E-01   4.0630436E-01   4.0630382E-01   4.0634957E-01   4.0635008E-01   4.0635005E-01   4.0634939E-01   4.0634894E-01   4.0634835E-01   4.0636551E-01   4.0636614E-01   4.0636611E-01   4.0636548E-01   4.0636501E-01   4.0636447E-01   4.0637013E-01   4.0637076E-01   4.0637070E-01   4.0637007E-01   4.0636975E-01   4.0636912E-01   4.0636221E-01   4.0636280E-01   4.0636277E-01   4.0636230E-01   4.0636173E-01   4.0636128E-01   4.0625915E-01   4.0625972E-01   4.0625957E-01   4.0625900E-01   4.0625858E-01   4.0625808E-01   4.0605634E-01   4.0605688E-01   4.0605676E-01   4.0605626E-01   4.0605578E-01   4.0605536E-01   4.0576556E-01   4.0576592E-01   4.0576583E-01   4.0576535E-01   4.0576488E-01   4.0576443E-01   4.0540239E-01   4.0540275E-01   4.0540263E-01   4.0540212E-01   4.0540174E-01   4.0540147E-01   4.0498576E-01   4.0498596E-01   4.0498582E-01   4.0498549E-01   4.0498504E-01   4.0498477E-01   4.0453541E-01   4.0453565E-01   4.0453550E-01   4.0453511E-01   4.0453488E-01   4.0453467E-01   4.0407127E-01   4.0407136E-01   4.0407136E-01   4.0407097E-01   4.0407079E-01   4.0407065E-01   4.0361118E-01   4.0361112E-01   4.0361103E-01   4.0361086E-01   4.0361080E-01   4.0361053E-01   4.0317005E-01   4.0317020E-01   4.0316996E-01   4.0316984E-01   4.0316981E-01   4.0316963E-01   4.0275985E-01   4.0276009E-01   4.0276021E-01   4.0276006E-01   4.0275994E-01   4.0275994E-01   4.0238932E-01   4.0238950E-01   4.0238956E-01   4.0238962E-01   4.0238953E-01   4.0238950E-01   4.0206307E-01   4.0206319E-01   4.0206313E-01   4.0206325E-01   4.0206331E-01   4.0206322E-01   4.0178284E-01   4.0178302E-01   4.0178290E-01   4.0178302E-01   4.0178299E-01   4.0178311E-01   4.0154797E-01   4.0154791E-01   4.0154800E-01   4.0154806E-01   4.0154806E-01   4.0135518E-01   4.0135521E-01   4.0135530E-01   4.0135524E-01   4.0135533E-01   4.0120077E-01   4.0120062E-01   4.0120074E-01   4.0120068E-01   4.0107942E-01   4.0107945E-01   4.0107942E-01   4.0107957E-01   4.0098628E-01   4.0098628E-01   4.0098637E-01   4.0091622E-01   4.0091622E-01   4.0086451E-01   4.0086463E-01   4.0000001E-01   4.0000001E-01   4.0000001E-01   4.0000001E-01   4.0000001E-01   4.0000001E-01   4.0000001E-01   4.0000001E-01   4.0000001E-01   4.0000001E-01   4.0000001E-01   4.0000001E-01   4.0000001E-01   4.0000001E-01   4.0000001E-01   4.0000001E-01   4.0000001E-01   4.0000001E-01   4.0000001E-01   4.0000001E-01   4.0000001E-01   4.0000001E-01   4.0000001E-01   4.0000001E-01   4.0000001E-01   4.0000001E-01   4.0000001E-01   4.0000001E-01   4.0000001E-01   4.0000001E-01   4.0000001E-01   4.0000001E-01   4.0000001E-01   4.0000001E-01   4.0000001E-01   4.0000001E-01   4.0000001E-01   4.0000001E-01   4.0000001E-01   4.0000001E-01   4.0000001E-01   4.0000001E-01   4.0000001E-01   4.0000001E-01   4.0000001E-01   4.0000001E-01   4.0000001E-01   4.0000001E-01   4.0000001E-01   4.0000001E-01   4.0000001E-01   4.0000001E-01   4.0000001E-01   4.0000001E-01   4.0000001E-01   4.0000001E-01   4.0000001E-01   4.0000001E-01   4.0000001E-01   4.0000001E-01   4.0000001E-01   4.0000001E-01   4.0000001E-01   4.0000001E-01   4.0000001E-01   4.0000001E-01   4.0000001E-01   4.0000001E-01   4.0000001E-01   4.0000001E-01   4.0000001E-01   4.0000001E-01   4.0000001E-01   4.0000001E-01   4.0000001E-01   4.0000001E-01   4.0000001E-01   4.0000001E-01   4.0000001E-01   4.0000001E-01   4.0000001E-01   4.0000001E-01   4.0000001E-01   4.0000001E-01   4.0000001E-01   4.0000001E-01   4.0000001E-01   4.0000001E-01   4.0000001E-01   4.0000001E-01   4.0000001E-01   4.0000001E-01   4.0000001E-01   4.0000001E-01   4.0000001E-01   4.0000001E-01   4.0000001E-01   4.0000001E-01   4.0000001E-01   4.0000001E-01   4.0000001E-01   4.0000001E-01   4.0000001E-01   4.0000001E-01   4.0000001E-01   4.0000001E-01   4.0000001E-01   4.0000001E-01   4.0000001E-01   4.0000001E-01   4.0000001E-01   4.0000001E-01   4.0000001E-01   4.0000001E-01   4.0000001E-01   4.0000001E-01   4.0000001E-01   4.0000001E-01   4.0000001E-01   4.0000001E-01   4.0000001E-01   4.0000001E-01   4.0000001E-01   4.0000001E-01   4.0000001E-01   4.0000001E-01   4.0000001E-01   4.0000001E-01   4.0000001E-01   4.0000001E-01   4.0000001E-01   4.0000001E-01   4.0000001E-01   4.0000001E-01   4.0000001E-01   4.0000001E-01   4.0000001E-01   4.0000001E-01   4.0000001E-01   4.0000001E-01   4.0000001E-01   4.0000001E-01   4.0000001E-01   4.0000001E-01   4.0000001E-01   4.0000001E-01   4.0000001E-01   4.0000001E-01   4.0000001E-01   4.0000001E-01   4.0000001E-01   4.0000001E-01   4.0000001E-01   4.0000001E-01   4.0000001E-01   4.0000001E-01   4.0000001E-01   4.0000001E-01   4.0000001E-01   4.0000001E-01   4.0000001E-01   4.0000001E-01   4.0000001E-01   4.0000001E-01   4.0000001E-01   4.0000001E-01   4.0000001E-01   4.0000001E-01   4.0000001E-01   4.0000001E-01   4.0000001E-01   4.0000001E-01   4.0000001E-01   4.0000001E-01   4.0000001E-01   4.0000001E-01   4.0000001E-01   4.0000001E-01   4.0000001E-01   4.0000001E-01   4.0000001E-01   4.0000001E-01   4.0000001E-01   4.0000001E-01   4.0000001E-01   4.0000001E-01   4.0000001E-01   4.0000001E-01   4.0000001E-01   4.0000001E-01   4.0000001E-01   4.0000001E-01   4.0000001E-01   4.0000001E-01   4.0000001E-01   4.0000001E-01   4.0000001E-01   4.0000001E-01   4.0000001E-01   4.0000001E-01   4.0000001E-01   4.0000001E-01   4.0000001E-01   4.0000001E-01   4.0000001E-01   4.0000001E-01   4.0000001E-01   4.0000051E-01   4.0000048E-01   4.0000060E-01   4.0000054E-01   4.0000048E-01   4.0000048E-01   4.0000045E-01   4.0000045E-01   4.0000048E-01   4.0000159E-01   4.0000156E-01   4.0000153E-01   4.0000147E-01   4.0000156E-01   4.0000147E-01   4.0000156E-01   4.0000153E-01   4.0000147E-01   4.0000346E-01   4.0000343E-01   4.0000346E-01   4.0000346E-01   4.0000349E-01   4.0000337E-01   4.0000340E-01   4.0000349E-01   4.0000352E-01   4.0000960E-01   4.0000978E-01   4.0000966E-01   4.0000966E-01   4.0000963E-01   4.0000960E-01   4.0000975E-01   4.0000969E-01   4.0000960E-01   4.0002573E-01   4.0002590E-01   4.0002573E-01   4.0002581E-01   4.0002584E-01   4.0002587E-01   4.0002590E-01   4.0002590E-01   4.0002584E-01   4.0006962E-01   4.0006959E-01   4.0006959E-01   4.0006971E-01   4.0006968E-01   4.0006959E-01   4.0006971E-01   4.0006974E-01   4.0006974E-01   4.0018579E-01   4.0018576E-01   4.0018576E-01   4.0018576E-01   4.0018579E-01   4.0018576E-01   4.0018582E-01   4.0018588E-01   4.0018579E-01   4.0048069E-01   4.0048087E-01   4.0048087E-01   4.0048078E-01   4.0048087E-01   4.0048096E-01   4.0048110E-01   4.0048096E-01   4.0048105E-01   4.0115643E-01   4.0115663E-01   4.0115684E-01   4.0115675E-01   4.0115684E-01   4.0115678E-01   4.0115684E-01   4.0115690E-01   4.0115684E-01   4.0239584E-01   4.0239593E-01   4.0239602E-01   4.0239605E-01   4.0239620E-01   4.0239626E-01   4.0239617E-01   4.0239626E-01   4.0239623E-01   4.0395570E-01   4.0395585E-01   4.0395585E-01   4.0395579E-01   4.0395579E-01   4.0395582E-01   4.0395582E-01   4.0395585E-01   4.0395585E-01   4.0520254E-01   4.0520242E-01   4.0520227E-01   4.0520206E-01   4.0520197E-01   4.0520182E-01   4.0520182E-01   4.0520164E-01   4.0520161E-01   4.0588588E-01   4.0588531E-01   4.0588507E-01   4.0588477E-01   4.0588447E-01   4.0588439E-01   4.0588421E-01   4.0588418E-01   4.0588400E-01   4.0618521E-01   4.0618461E-01   4.0618432E-01   4.0618384E-01   4.0618348E-01   4.0618333E-01   4.0618303E-01   4.0618289E-01   4.0618286E-01   4.0630314E-01   4.0630269E-01   4.0630203E-01   4.0630171E-01   4.0630138E-01   4.0630102E-01   4.0630075E-01   4.0630057E-01   4.0630054E-01   4.0634763E-01   4.0634710E-01   4.0634659E-01   4.0634617E-01   4.0634573E-01   4.0634549E-01   4.0634516E-01   4.0634504E-01   4.0634498E-01   4.0636382E-01   4.0636331E-01   4.0636277E-01   4.0636230E-01   4.0636200E-01   4.0636161E-01   4.0636137E-01   4.0636125E-01   4.0636110E-01   4.0636852E-01   4.0636796E-01   4.0636739E-01   4.0636694E-01   4.0636659E-01   4.0636635E-01   4.0636611E-01   4.0636587E-01   4.0636566E-01   4.0636072E-01   4.0636003E-01   4.0635958E-01   4.0635914E-01   4.0635872E-01   4.0635845E-01   4.0635824E-01   4.0635803E-01   4.0635791E-01   4.0625763E-01   4.0625700E-01   4.0625647E-01   4.0625614E-01   4.0625572E-01   4.0625551E-01   4.0625519E-01   4.0625504E-01   4.0625489E-01   4.0605488E-01   4.0605423E-01   4.0605378E-01   4.0605348E-01   4.0605322E-01   4.0605289E-01   4.0605271E-01   4.0605253E-01   4.0605244E-01   4.0576404E-01   4.0576348E-01   4.0576324E-01   4.0576288E-01   4.0576252E-01   4.0576240E-01   4.0576223E-01   4.0576208E-01   4.0576190E-01   4.0540105E-01   4.0540057E-01   4.0540037E-01   4.0540010E-01   4.0539971E-01   4.0539956E-01   4.0539950E-01   4.0539929E-01   4.0539932E-01   4.0498438E-01   4.0498421E-01   4.0498388E-01   4.0498361E-01   4.0498343E-01   4.0498328E-01   4.0498313E-01   4.0498307E-01   4.0498295E-01   4.0453431E-01   4.0453413E-01   4.0453389E-01   4.0453374E-01   4.0453357E-01   4.0453351E-01   4.0453342E-01   4.0453333E-01   4.0453333E-01   4.0407047E-01   4.0407014E-01   4.0407008E-01   4.0406990E-01   4.0406984E-01   4.0406972E-01   4.0406969E-01   4.0406972E-01   4.0406951E-01   4.0361044E-01   4.0361026E-01   4.0361020E-01   4.0361011E-01   4.0361002E-01   4.0361005E-01   4.0360987E-01   4.0360981E-01   4.0360987E-01   4.0316951E-01   4.0316951E-01   4.0316927E-01   4.0316924E-01   4.0316930E-01   4.0316921E-01   4.0316918E-01   4.0316918E-01   4.0316921E-01   4.0275991E-01   4.0275970E-01   4.0275967E-01   4.0275964E-01   4.0275958E-01   4.0275967E-01   4.0275958E-01   4.0275955E-01   4.0275955E-01   4.0238947E-01   4.0238935E-01   4.0238920E-01   4.0238923E-01   4.0238920E-01   4.0238917E-01   4.0238920E-01   4.0238911E-01   4.0238920E-01   4.0206316E-01   4.0206316E-01   4.0206310E-01   4.0206310E-01   4.0206301E-01   4.0206307E-01   4.0206310E-01   4.0206301E-01   4.0206298E-01   4.0178311E-01   4.0178311E-01   4.0178314E-01   4.0178311E-01   4.0178296E-01   4.0178302E-01   4.0178296E-01   4.0178305E-01   4.0178293E-01   4.0154797E-01   4.0154809E-01   4.0154809E-01   4.0154794E-01   4.0154788E-01   4.0154794E-01   4.0154794E-01   4.0154794E-01   4.0154794E-01   4.0135533E-01   4.0135545E-01   4.0135536E-01   4.0135542E-01   4.0135536E-01   4.0135533E-01   4.0135545E-01   4.0135533E-01   4.0135530E-01   4.0120086E-01   4.0120077E-01   4.0120086E-01   4.0120080E-01   4.0120068E-01   4.0120077E-01   4.0120080E-01   4.0120074E-01   4.0120065E-01   4.0107954E-01   4.0107960E-01   4.0107971E-01   4.0107954E-01   4.0107945E-01   4.0107954E-01   4.0107945E-01   4.0107951E-01   4.0107948E-01   4.0098637E-01   4.0098622E-01   4.0098640E-01   4.0098637E-01   4.0098625E-01   4.0098631E-01   4.0098625E-01   4.0098628E-01   4.0098628E-01   4.0091622E-01   4.0091622E-01   4.0091625E-01   4.0091625E-01   4.0091625E-01   4.0091619E-01   4.0091628E-01   4.0091619E-01   4.0091622E-01   4.0086460E-01   4.0086457E-01   4.0086448E-01   4.0086454E-01   4.0086463E-01   4.0086451E-01   4.0086451E-01   4.0086451E-01   4.0086448E-01   4.0082735E-01   4.0082720E-01   4.0082729E-01   4.0082729E-01   4.0082732E-01   4.0082726E-01   4.0082717E-01   4.0082717E-01   4.0082723E-01   4.0080100E-01   4.0080091E-01   4.0080085E-01   4.0080091E-01   4.0080082E-01   4.0080091E-01   4.0080091E-01   4.0080085E-01   4.0078264E-01   4.0078259E-01   4.0078250E-01   4.0078256E-01   4.0078256E-01   4.0078253E-01   4.0077001E-01   4.0077010E-01   4.0077016E-01   4.0077010E-01   4.0000001E-01   4.0000001E-01   4.0000001E-01   4.0000001E-01   4.0000001E-01   4.0000001E-01   4.0000001E-01   4.0000001E-01   4.0000001E-01   4.0000001E-01   4.0000001E-01   4.0000001E-01   4.0000001E-01   4.0000001E-01   4.0000001E-01   4.0000001E-01   4.0000001E-01   4.0000001E-01   4.0000001E-01   4.0000001E-01   4.0000001E-01   4.0000001E-01   4.0000001E-01   4.0000001E-01   4.0000001E-01   4.0000001E-01   4.0000001E-01   4.0000001E-01   4.0000001E-01   4.0000001E-01   4.0000001E-01   4.0000001E-01   4.0000001E-01   4.0000001E-01   4.0000001E-01   4.0000001E-01   4.0000001E-01   4.0000001E-01   4.0000001E-01   4.0000001E-01   4.0000001E-01   4.0000001E-01   4.0000001E-01   4.0000001E-01   4.0000001E-01   4.0000001E-01   4.0000001E-01   4.0000001E-01   4.0000001E-01   4.0000001E-01   4.0000001E-01   4.0000001E-01   4.0000001E-01   4.0000001E-01   4.0000001E-01   4.0000001E-01   4.0000001E-01   4.0000001E-01   4.0000001E-01   4.0000001E-01   4.0000001E-01   4.0000001E-01   4.0000001E-01   4.0000001E-01   4.0000001E-01   4.0000001E-01   4.0000001E-01   4.0000001E-01   4.0000001E-01   4.0000001E-01   4.0000001E-01   4.0000001E-01   4.0000001E-01   4.0000001E-01   4.0000001E-01   4.0000001E-01   4.0000001E-01   4.0000001E-01   4.0000001E-01   4.0000001E-01   4.0000001E-01   4.0000001E-01   4.0000001E-01   4.0000001E-01   4.0000001E-01   4.0000001E-01   4.0000001E-01   4.0000001E-01   4.0000001E-01   4.0000001E-01   4.0000001E-01   4.0000001E-01   4.0000001E-01   4.0000001E-01   4.0000001E-01   4.0000001E-01   4.0000001E-01   4.0000001E-01   4.0000001E-01   4.0000001E-01   4.0000001E-01   4.0000001E-01   4.0000001E-01   4.0000001E-01   4.0000001E-01   4.0000001E-01   4.0000001E-01   4.0000001E-01   4.0000001E-01   4.0000001E-01   4.0000001E-01   4.0000001E-01   4.0000001E-01   4.0000001E-01   4.0000001E-01   4.0000001E-01   4.0000001E-01   4.0000001E-01   4.0000001E-01   4.0000001E-01   4.0000001E-01   4.0000001E-01   4.0000001E-01   4.0000001E-01   4.0000001E-01   4.0000001E-01   4.0000001E-01   4.0000001E-01   4.0000001E-01   4.0000001E-01   4.0000001E-01   4.0000001E-01   4.0000001E-01   4.0000001E-01   4.0000001E-01   4.0000001E-01   4.0000001E-01   4.0000001E-01   4.0000001E-01   4.0000001E-01   4.0000001E-01   4.0000001E-01   4.0000001E-01   4.0000001E-01   4.0000001E-01   4.0000001E-01   4.0000001E-01   4.0000001E-01   4.0000001E-01   4.0000001E-01   4.0000001E-01   4.0000001E-01   4.0000001E-01   4.0000001E-01   4.0000001E-01   4.0000001E-01   4.0000001E-01   4.0000001E-01   4.0000001E-01   4.0000001E-01   4.0000001E-01   4.0000001E-01   4.0000001E-01   4.0000001E-01   4.0000001E-01   4.0000001E-01   4.0000001E-01   4.0000001E-01   4.0000001E-01   4.0000001E-01   4.0000001E-01   4.0000001E-01   4.0000001E-01   4.0000001E-01   4.0000001E-01   4.0000001E-01   4.0000001E-01   4.0000001E-01   4.0000001E-01   4.0000001E-01   4.0000001E-01   4.0000001E-01   4.0000001E-01   4.0000001E-01   4.0000054E-01   4.0000048E-01   4.0000045E-01   4.0000045E-01   4.0000048E-01   4.0000048E-01   4.0000054E-01   4.0000060E-01   4.0000153E-01   4.0000147E-01   4.0000153E-01   4.0000156E-01   4.0000147E-01   4.0000156E-01   4.0000147E-01   4.0000153E-01   4.0000355E-01   4.0000352E-01   4.0000349E-01   4.0000340E-01   4.0000337E-01   4.0000349E-01   4.0000346E-01   4.0000346E-01   4.0000963E-01   4.0000960E-01   4.0000969E-01   4.0000975E-01   4.0000960E-01   4.0000963E-01   4.0000966E-01   4.0000966E-01   4.0002596E-01   4.0002584E-01   4.0002590E-01   4.0002590E-01   4.0002587E-01   4.0002584E-01   4.0002581E-01   4.0002573E-01   4.0006965E-01   4.0006974E-01   4.0006974E-01   4.0006971E-01   4.0006959E-01   4.0006968E-01   4.0006971E-01   4.0006959E-01   4.0018588E-01   4.0018579E-01   4.0018588E-01   4.0018582E-01   4.0018576E-01   4.0018579E-01   4.0018576E-01   4.0018576E-01   4.0048099E-01   4.0048105E-01   4.0048096E-01   4.0048110E-01   4.0048096E-01   4.0048087E-01   4.0048078E-01   4.0048087E-01   4.0115681E-01   4.0115684E-01   4.0115690E-01   4.0115684E-01   4.0115678E-01   4.0115684E-01   4.0115675E-01   4.0115684E-01   4.0239635E-01   4.0239623E-01   4.0239626E-01   4.0239617E-01   4.0239626E-01   4.0239620E-01   4.0239605E-01   4.0239602E-01   4.0395585E-01   4.0395585E-01   4.0395585E-01   4.0395582E-01   4.0395582E-01   4.0395579E-01   4.0395579E-01   4.0395585E-01   4.0520176E-01   4.0520161E-01   4.0520164E-01   4.0520182E-01   4.0520182E-01   4.0520197E-01   4.0520206E-01   4.0520227E-01   4.0588400E-01   4.0588400E-01   4.0588418E-01   4.0588421E-01   4.0588439E-01   4.0588447E-01   4.0588477E-01   4.0588507E-01   4.0618280E-01   4.0618286E-01   4.0618289E-01   4.0618303E-01   4.0618333E-01   4.0618348E-01   4.0618384E-01   4.0618432E-01   4.0630040E-01   4.0630054E-01   4.0630057E-01   4.0630075E-01   4.0630102E-01   4.0630138E-01   4.0630171E-01   4.0630203E-01   4.0634474E-01   4.0634498E-01   4.0634504E-01   4.0634516E-01   4.0634549E-01   4.0634573E-01   4.0634617E-01   4.0634659E-01   4.0636104E-01   4.0636110E-01   4.0636125E-01   4.0636137E-01   4.0636161E-01   4.0636200E-01   4.0636230E-01   4.0636277E-01   4.0636563E-01   4.0636566E-01   4.0636587E-01   4.0636611E-01   4.0636635E-01   4.0636659E-01   4.0636694E-01   4.0636739E-01   4.0635780E-01   4.0635791E-01   4.0635803E-01   4.0635824E-01   4.0635845E-01   4.0635872E-01   4.0635914E-01   4.0635958E-01   4.0625480E-01   4.0625489E-01   4.0625504E-01   4.0625519E-01   4.0625551E-01   4.0625572E-01   4.0625614E-01   4.0625647E-01   4.0605250E-01   4.0605244E-01   4.0605253E-01   4.0605271E-01   4.0605289E-01   4.0605322E-01   4.0605348E-01   4.0605378E-01   4.0576190E-01   4.0576190E-01   4.0576208E-01   4.0576223E-01   4.0576240E-01   4.0576252E-01   4.0576288E-01   4.0576324E-01   4.0539935E-01   4.0539932E-01   4.0539929E-01   4.0539950E-01   4.0539956E-01   4.0539971E-01   4.0540010E-01   4.0540037E-01   4.0498298E-01   4.0498295E-01   4.0498307E-01   4.0498313E-01   4.0498328E-01   4.0498343E-01   4.0498361E-01   4.0498388E-01   4.0453324E-01   4.0453333E-01   4.0453333E-01   4.0453342E-01   4.0453351E-01   4.0453357E-01   4.0453374E-01   4.0453389E-01   4.0406960E-01   4.0406951E-01   4.0406972E-01   4.0406969E-01   4.0406972E-01   4.0406984E-01   4.0406990E-01   4.0407008E-01   4.0360984E-01   4.0360987E-01   4.0360981E-01   4.0360987E-01   4.0361005E-01   4.0361002E-01   4.0361011E-01   4.0361020E-01   4.0316921E-01   4.0316921E-01   4.0316918E-01   4.0316918E-01   4.0316921E-01   4.0316930E-01   4.0316924E-01   4.0316927E-01   4.0275949E-01   4.0275955E-01   4.0275955E-01   4.0275958E-01   4.0275967E-01   4.0275958E-01   4.0275964E-01   4.0275967E-01   4.0238917E-01   4.0238920E-01   4.0238911E-01   4.0238920E-01   4.0238917E-01   4.0238920E-01   4.0238923E-01   4.0238920E-01   4.0206295E-01   4.0206298E-01   4.0206301E-01   4.0206310E-01   4.0206307E-01   4.0206301E-01   4.0206310E-01   4.0206310E-01   4.0178302E-01   4.0178293E-01   4.0178305E-01   4.0178296E-01   4.0178302E-01   4.0178296E-01   4.0178311E-01   4.0178314E-01   4.0154782E-01   4.0154794E-01   4.0154794E-01   4.0154794E-01   4.0154794E-01   4.0154788E-01   4.0154794E-01   4.0154809E-01   4.0135527E-01   4.0135530E-01   4.0135533E-01   4.0135545E-01   4.0135533E-01   4.0135536E-01   4.0135542E-01   4.0135536E-01   4.0120077E-01   4.0120065E-01   4.0120074E-01   4.0120080E-01   4.0120077E-01   4.0120068E-01   4.0120080E-01   4.0120086E-01   4.0107951E-01   4.0107948E-01   4.0107951E-01   4.0107945E-01   4.0107954E-01   4.0107945E-01   4.0107954E-01   4.0107971E-01   4.0098622E-01   4.0098628E-01   4.0098628E-01   4.0098625E-01   4.0098631E-01   4.0098625E-01   4.0098637E-01   4.0098640E-01   4.0091616E-01   4.0091622E-01   4.0091619E-01   4.0091628E-01   4.0091619E-01   4.0091625E-01   4.0091625E-01   4.0091625E-01   4.0086445E-01   4.0086448E-01   4.0086451E-01   4.0086451E-01   4.0086451E-01   4.0086463E-01   4.0086454E-01   4.0086448E-01   4.0082729E-01   4.0082723E-01   4.0082717E-01   4.0082717E-01   4.0082726E-01   4.0082732E-01   4.0082729E-01   4.0082729E-01   4.0080088E-01   4.0080085E-01   4.0080091E-01   4.0080091E-01   4.0080082E-01   4.0080091E-01   4.0080085E-01   4.0080091E-01   4.0078259E-01   4.0078253E-01   4.0078256E-01   4.0078256E-01   4.0078250E-01   4.0078259E-01   4.0078264E-01   4.0077010E-01   4.0077010E-01   4.0077016E-01   4.0077010E-01   4.0077001E-01   4.0000001E-01   4.0000001E-01   4.0000001E-01   4.0000001E-01   4.0000001E-01   4.0000001E-01   4.0000001E-01   4.0000001E-01   4.0000001E-01   4.0000001E-01   4.0000001E-01   4.0000001E-01   4.0000001E-01   4.0000001E-01   4.0000001E-01   4.0000001E-01   4.0000001E-01   4.0000001E-01   4.0000001E-01   4.0000001E-01   4.0000001E-01   4.0000001E-01   4.0000001E-01   4.0000001E-01   4.0000001E-01   4.0000001E-01   4.0000001E-01   4.0000001E-01   4.0000001E-01   4.0000001E-01   4.0000001E-01   4.0000001E-01   4.0000001E-01   4.0000001E-01   4.0000001E-01   4.0000001E-01   4.0000001E-01   4.0000001E-01   4.0000001E-01   4.0000001E-01   4.0000001E-01   4.0000001E-01   4.0000001E-01   4.0000001E-01   4.0000001E-01   4.0000001E-01   4.0000001E-01   4.0000001E-01   4.0000001E-01   4.0000001E-01   4.0000001E-01   4.0000001E-01   4.0000001E-01   4.0000001E-01   4.0000001E-01   4.0000001E-01   4.0000001E-01   4.0000001E-01   4.0000001E-01   4.0000001E-01   4.0000001E-01   4.0000001E-01   4.0000001E-01   4.0000001E-01   4.0000001E-01   4.0000001E-01   4.0000001E-01   4.0000001E-01   4.0000001E-01   4.0000001E-01   4.0000001E-01   4.0000001E-01   4.0000001E-01   4.0000001E-01   4.0000001E-01   4.0000001E-01   4.0000001E-01   4.0000001E-01   4.0000001E-01   4.0000001E-01   4.0000001E-01   4.0000001E-01   4.0000001E-01   4.0000001E-01   4.0000001E-01   4.0000001E-01   4.0000001E-01   4.0000001E-01   4.0000001E-01   4.0000001E-01   4.0000001E-01   4.0000001E-01   4.0000001E-01   4.0000001E-01   4.0000001E-01   4.0000001E-01   4.0000001E-01   4.0000001E-01   4.0000001E-01   4.0000001E-01   4.0000001E-01   4.0000001E-01   4.0000001E-01   4.0000001E-01   4.0000001E-01   4.0000001E-01   4.0000001E-01   4.0000001E-01   4.0000001E-01   4.0000001E-01   4.0000001E-01   4.0000001E-01   4.0000001E-01   4.0000001E-01   4.0000001E-01   4.0000001E-01   4.0000001E-01   4.0000001E-01   4.0000001E-01   4.0000001E-01   4.0000001E-01   4.0000001E-01   4.0000001E-01   4.0000001E-01   4.0000001E-01   4.0000001E-01   4.0000001E-01   4.0000001E-01   4.0000001E-01   4.0000001E-01   4.0000001E-01   4.0000001E-01   4.0000001E-01   4.0000001E-01   4.0000001E-01   4.0000001E-01   4.0000001E-01   4.0000001E-01   4.0000001E-01   4.0000001E-01   4.0000001E-01   4.0000001E-01   4.0000001E-01   4.0000001E-01   4.0000001E-01   4.0000001E-01   4.0000001E-01   4.0000001E-01   4.0000001E-01   4.0000001E-01   4.0000001E-01   4.0000001E-01   4.0000001E-01   4.0000001E-01   4.0000001E-01   4.0000001E-01   4.0000001E-01   4.0000001E-01   4.0000001E-01   4.0000001E-01   4.0000001E-01   4.0000001E-01   4.0000001E-01   4.0000001E-01   4.0000001E-01   4.0000001E-01   4.0000001E-01   4.0000001E-01   4.0000001E-01   4.0000001E-01   4.0000001E-01   4.0000001E-01   4.0000001E-01   4.0000001E-01   4.0000001E-01   4.0000001E-01   4.0000001E-01   4.0000001E-01   4.0000001E-01   4.0000001E-01   4.0000001E-01   4.0000001E-01   4.0000001E-01   4.0000048E-01   4.0000051E-01   4.0000057E-01   4.0000054E-01   4.0000045E-01   4.0000054E-01   4.0000054E-01   4.0000048E-01   4.0000156E-01   4.0000159E-01   4.0000144E-01   4.0000147E-01   4.0000144E-01   4.0000156E-01   4.0000144E-01   4.0000147E-01   4.0000343E-01   4.0000346E-01   4.0000355E-01   4.0000343E-01   4.0000352E-01   4.0000349E-01   4.0000352E-01   4.0000346E-01   4.0000978E-01   4.0000960E-01   4.0000960E-01   4.0000966E-01   4.0000966E-01   4.0000954E-01   4.0000960E-01   4.0000960E-01   4.0002590E-01   4.0002573E-01   4.0002590E-01   4.0002593E-01   4.0002590E-01   4.0002584E-01   4.0002584E-01   4.0002584E-01   4.0006959E-01   4.0006962E-01   4.0006956E-01   4.0006971E-01   4.0006962E-01   4.0006950E-01   4.0006959E-01   4.0006953E-01   4.0018576E-01   4.0018579E-01   4.0018579E-01   4.0018567E-01   4.0018567E-01   4.0018570E-01   4.0018567E-01   4.0018556E-01   4.0048087E-01   4.0048069E-01   4.0048075E-01   4.0048081E-01   4.0048069E-01   4.0048054E-01   4.0048048E-01   4.0048024E-01   4.0115663E-01   4.0115643E-01   4.0115643E-01   4.0115643E-01   4.0115625E-01   4.0115607E-01   4.0115574E-01   4.0115541E-01   4.0239593E-01   4.0239584E-01   4.0239564E-01   4.0239561E-01   4.0239534E-01   4.0239510E-01   4.0239483E-01   4.0239418E-01   4.0395585E-01   4.0395570E-01   4.0395588E-01   4.0395573E-01   4.0395573E-01   4.0395570E-01   4.0395561E-01   4.0395498E-01   4.0520242E-01   4.0520254E-01   4.0520284E-01   4.0520298E-01   4.0520334E-01   4.0520385E-01   4.0520418E-01   4.0520364E-01   4.0588531E-01   4.0588588E-01   4.0588623E-01   4.0588671E-01   4.0588734E-01   4.0588799E-01   4.0588844E-01   4.0588814E-01   4.0618461E-01   4.0618521E-01   4.0618578E-01   4.0618622E-01   4.0618676E-01   4.0618771E-01   4.0618810E-01   4.0618768E-01   4.0630269E-01   4.0630314E-01   4.0630382E-01   4.0630436E-01   4.0630496E-01   4.0630573E-01   4.0630585E-01   4.0630543E-01   4.0634710E-01   4.0634763E-01   4.0634835E-01   4.0634894E-01   4.0634939E-01   4.0635005E-01   4.0635008E-01   4.0634957E-01   4.0636331E-01   4.0636387E-01   4.0636447E-01   4.0636501E-01   4.0636548E-01   4.0636611E-01   4.0636614E-01   4.0636551E-01   4.0636796E-01   4.0636852E-01   4.0636912E-01   4.0636975E-01   4.0637007E-01   4.0637070E-01   4.0637076E-01   4.0637013E-01   4.0636003E-01   4.0636072E-01   4.0636128E-01   4.0636173E-01   4.0636230E-01   4.0636277E-01   4.0636280E-01   4.0636221E-01   4.0625700E-01   4.0625763E-01   4.0625808E-01   4.0625858E-01   4.0625900E-01   4.0625957E-01   4.0625972E-01   4.0625915E-01   4.0605423E-01   4.0605488E-01   4.0605536E-01   4.0605578E-01   4.0605626E-01   4.0605676E-01   4.0605688E-01   4.0605634E-01   4.0576348E-01   4.0576404E-01   4.0576443E-01   4.0576488E-01   4.0576535E-01   4.0576583E-01   4.0576592E-01   4.0576556E-01   4.0540057E-01   4.0540105E-01   4.0540147E-01   4.0540174E-01   4.0540212E-01   4.0540263E-01   4.0540275E-01   4.0540239E-01   4.0498421E-01   4.0498438E-01   4.0498477E-01   4.0498504E-01   4.0498549E-01   4.0498582E-01   4.0498596E-01   4.0498576E-01   4.0453413E-01   4.0453431E-01   4.0453467E-01   4.0453488E-01   4.0453511E-01   4.0453550E-01   4.0453565E-01   4.0453541E-01   4.0407014E-01   4.0407047E-01   4.0407065E-01   4.0407079E-01   4.0407097E-01   4.0407136E-01   4.0407136E-01   4.0407127E-01   4.0361026E-01   4.0361044E-01   4.0361053E-01   4.0361080E-01   4.0361086E-01   4.0361103E-01   4.0361112E-01   4.0361118E-01   4.0316951E-01   4.0316951E-01   4.0316963E-01   4.0316981E-01   4.0316984E-01   4.0316996E-01   4.0317020E-01   4.0317005E-01   4.0275970E-01   4.0275991E-01   4.0275994E-01   4.0275994E-01   4.0276006E-01   4.0276021E-01   4.0276009E-01   4.0275985E-01   4.0238935E-01   4.0238947E-01   4.0238950E-01   4.0238953E-01   4.0238962E-01   4.0238956E-01   4.0238950E-01   4.0238932E-01   4.0206316E-01   4.0206316E-01   4.0206322E-01   4.0206331E-01   4.0206325E-01   4.0206313E-01   4.0206319E-01   4.0206307E-01   4.0178311E-01   4.0178311E-01   4.0178311E-01   4.0178299E-01   4.0178302E-01   4.0178290E-01   4.0178302E-01   4.0178284E-01   4.0154809E-01   4.0154797E-01   4.0154806E-01   4.0154806E-01   4.0154800E-01   4.0154791E-01   4.0154797E-01   4.0135545E-01   4.0135533E-01   4.0135533E-01   4.0135524E-01   4.0135530E-01   4.0135521E-01   4.0135518E-01   4.0120077E-01   4.0120086E-01   4.0120068E-01   4.0120074E-01   4.0120062E-01   4.0120077E-01   4.0107960E-01   4.0107954E-01   4.0107957E-01   4.0107942E-01   4.0107945E-01   4.0107942E-01   4.0098622E-01   4.0098637E-01   4.0098637E-01   4.0098628E-01   4.0098628E-01   4.0091622E-01   4.0091622E-01   4.0091622E-01   4.0091622E-01   4.0086457E-01   4.0086460E-01   4.0086463E-01   4.0086451E-01   4.0082720E-01   4.0082735E-01   4.0080100E-01 
Press 1 2975 float
  0.0000000E+00   0.0000000E+00   0.0000000E+00   0.0000000E+00   0.0000000E+00   0.0000000E+00   0.0000000E+00   0.0000000E+00   0.0000000E+00   0.0000000E+00   0.0000000E+00   0.0000000E+00   0.0000000E+00   0.0000000E+00   0.0000000E+00   0.0000000E+00   0.0000000E+00   0.0000000E+00   0.0000000E+00   0.0000000E+00   0.0000000E+00   0.0000000E+00   9.8762624E-02   0.0000000E+00   9.8762624E-02   2.9628786E-01   9.8762624E-02   1.9752525E-01   4.9381313E-01   1.9752525E-01   4.9381313E-01   8.8886362E-01   2.9628786E-01   6.9133836E-01   1.2839141E+00   3.9505050E-01   9.8762625E-01   1.7777272E+00   5.9257573E-01   1.2839141E+00   2.3703029E+00   6.9133836E-01   1.6789646E+00   2.9628787E+00   8.8886362E-01   2.0740151E+00   3.6542170E+00   1.2839141E+00   2.6665909E+00   4.6418433E+00   1.5802020E+00   3.5554545E+00   6.2220454E+00   2.1727777E+00   5.0368938E+00   8.6911106E+00   3.3579292E+00   7.3084340E+00   1.2345328E+01   5.3331819E+00   1.0765126E+01   1.7876036E+01   1.5999545E+01   2.5085707E+01   0.0000000E+00   0.0000000E+00   0.0000000E+00   0.0000000E+00   0.0000000E+00   0.0000000E+00   0.0000000E+00   0.0000000E+00   0.0000000E+00   0.0000000E+00   0.0000000E+00   0.0000000E+00   0.0000000E+00   0.0000000E+00   0.0000000E+00   0.0000000E+00   0.0000000E+00   0.0000000E+00   0.0000000E+00   0.0000000E+00   0.0000000E+00   0.0000000E+00   0.0000000E+00   0.0000000E+00   0.0000000E+00   0.0000000E+00   0.0000000E+00   0.0000000E+00   0.0000000E+00   0.0000000E+00   0.0000000E+00   0.0000000E+00   0.0000000E+00   0.0000000E+00   0.0000000E+00   0.0000000E+00   0.0000000E+00   0.0000000E+00   0.0000000E+00   0.0000000E+00   0.0000000E+00   0.0000000E+00   0.0000000E+00   0.0000000E+00   9.8762624E-02   9.8762624E-02   9.8762624E-02   1.9752525E-01   0.0000000E+00   9.8762624E-02   1.9752525E-01   2.9628786E-01   3.9505050E-01   3.9505050E-01   4.9381313E-01   4.9381313E-01   1.9752525E-01   3.9505050E-01   4.9381313E-01   6.9133836E-01   8.8886362E-01   1.0863888E+00   1.1851515E+00   1.2839141E+00   4.9381313E-01   6.9133836E-01   1.1851515E+00   1.4814394E+00   1.7777272E+00   2.1727777E+00   2.4690657E+00   2.5678282E+00   8.8886362E-01   1.2839141E+00   1.9752525E+00   2.5678282E+00   3.1604040E+00   3.5554545E+00   3.9505050E+00   4.3455553E+00   1.4814394E+00   2.2715404E+00   3.1604040E+00   3.8517423E+00   4.8393683E+00   5.4319444E+00   6.0245199E+00   6.4195704E+00   2.1727777E+00   3.1604040E+00   4.1480303E+00   2.9628787E+00   4.1480303E+00   3.5554545E+00   5.2344189E+00   4.5430808E+00   6.4195704E+00   5.6294694E+00   7.9997725E+00   7.1109090E+00   1.0073788E+01   9.5799742E+00   1.3234192E+01   1.3234192E+01   1.7974798E+01   1.8666136E+01   2.5085707E+01   2.6468384E+01   3.4961967E+01   3.6443409E+01   4.7406059E+01   0.0000000E+00   0.0000000E+00   0.0000000E+00   0.0000000E+00   0.0000000E+00   0.0000000E+00   0.0000000E+00   0.0000000E+00   0.0000000E+00   0.0000000E+00   0.0000000E+00   0.0000000E+00   0.0000000E+00   0.0000000E+00   0.0000000E+00   0.0000000E+00   0.0000000E+00   0.0000000E+00   0.0000000E+00   0.0000000E+00   0.0000000E+00   0.0000000E+00   0.0000000E+00   0.0000000E+00   0.0000000E+00   0.0000000E+00   0.0000000E+00   0.0000000E+00   0.0000000E+00   0.0000000E+00   0.0000000E+00   0.0000000E+00   0.0000000E+00   0.0000000E+00   0.0000000E+00   0.0000000E+00   0.0000000E+00   0.0000000E+00   0.0000000E+00   0.0000000E+00   0.0000000E+00   0.0000000E+00   0.0000000E+00   0.0000000E+00   0.0000000E+00   1.9752525E-01   1.9752525E-01   1.9752525E-01   1.9752525E-01   1.9752525E-01   1.9752525E-01   1.9752525E-01   1.9752525E-01   1.9752525E-01   4.9381313E-01   4.9381313E-01   5.9257573E-01   5.9257573E-01   5.9257573E-01   5.9257573E-01   5.9257573E-01   5.9257573E-01   5.9257573E-01   1.2839141E+00   1.3826767E+00   1.3826767E+00   1.4814394E+00   1.4814394E+00   1.4814394E+00   1.4814394E+00   1.5802020E+00   1.5802020E+00   2.6665909E+00   2.8641162E+00   2.8641162E+00   2.9628787E+00   2.9628787E+00   2.9628787E+00   2.9628787E+00   2.9628787E+00   2.9628787E+00   4.5430808E+00   4.7406058E+00   4.8393683E+00   4.9381313E+00   5.0368938E+00   5.1356564E+00   5.1356564E+00   5.1356564E+00   5.1356564E+00   6.8146210E+00   7.0121465E+00   7.1109090E+00   7.2096715E+00   7.3084340E+00   7.4071970E+00   7.4071970E+00   7.4071970E+00   7.5059595E+00   0.0000000E+00   0.0000000E+00   0.0000000E+00   0.0000000E+00   0.0000000E+00   0.0000000E+00   0.0000000E+00   0.0000000E+00   0.0000000E+00   0.0000000E+00   0.0000000E+00   0.0000000E+00   0.0000000E+00   0.0000000E+00   0.0000000E+00   0.0000000E+00   0.0000000E+00   0.0000000E+00   0.0000000E+00   0.0000000E+00   0.0000000E+00   0.0000000E+00   0.0000000E+00   0.0000000E+00   0.0000000E+00   0.0000000E+00   0.0000000E+00   0.0000000E+00   0.0000000E+00   0.0000000E+00   0.0000000E+00   0.0000000E+00   0.0000000E+00   0.0000000E+00   0.0000000E+00   0.0000000E+00   0.0000000E+00   0.0000000E+00   0.0000000E+00   0.0000000E+00   1.9752525E-01   1.9752525E-01   1.9752525E-01   1.9752525E-01   1.9752525E-01   1.9752525E-01   1.9752525E-01   1.9752525E-01   5.9257573E-01   5.9257573E-01   5.9257573E-01   5.9257573E-01   5.9257573E-01   5.9257573E-01   5.9257573E-01   5.9257573E-01   1.5802020E+00   1.5802020E+00   1.5802020E+00   1.4814394E+00   1.4814394E+00   1.4814394E+00   1.4814394E+00   1.3826767E+00   2.9628787E+00   2.9628787E+00   2.9628787E+00   2.9628787E+00   2.9628787E+00   2.9628787E+00   2.9628787E+00   2.8641162E+00   5.1356564E+00   5.1356564E+00   5.1356564E+00   5.1356564E+00   5.1356564E+00   5.0368938E+00   4.9381313E+00   4.8393683E+00   7.5059595E+00   7.5059595E+00   7.4071970E+00   7.4071970E+00   7.4071970E+00   7.3084340E+00   7.2096715E+00   7.1109090E+00   0.0000000E+00   0.0000000E+00   0.0000000E+00   0.0000000E+00   0.0000000E+00   0.0000000E+00   0.0000000E+00   0.0000000E+00   0.0000000E+00   0.0000000E+00   0.0000000E+00   0.0000000E+00   0.0000000E+00   0.0000000E+00   0.0000000E+00   0.0000000E+00   0.0000000E+00   0.0000000E+00   0.0000000E+00   0.0000000E+00   0.0000000E+00   0.0000000E+00   0.0000000E+00   0.0000000E+00   0.0000000E+00   0.0000000E+00   0.0000000E+00   0.0000000E+00   0.0000000E+00   0.0000000E+00   0.0000000E+00   0.0000000E+00   0.0000000E+00   0.0000000E+00   0.0000000E+00   0.0000000E+00   0.0000000E+00   0.0000000E+00   0.0000000E+00   0.0000000E+00   0.0000000E+00   0.0000000E+00   0.0000000E+00   0.0000000E+00   0.0000000E+00   1.9752525E-01   1.9752525E-01   1.9752525E-01   9.8762624E-02   9.8762624E-02   9.8762624E-02   0.0000000E+00   0.0000000E+00   0.0000000E+00   4.9381313E-01   4.9381313E-01   4.9381313E-01   4.9381313E-01   3.9505050E-01   3.9505050E-01   2.9628786E-01   1.9752525E-01   9.8762624E-02   1.3826767E+00   1.2839141E+00   1.2839141E+00   1.1851515E+00   1.0863888E+00   8.8886362E-01   6.9133836E-01   4.9381313E-01   3.9505050E-01   2.8641162E+00   2.6665909E+00   2.5678282E+00   2.4690657E+00   2.1727777E+00   1.7777272E+00   1.4814394E+00   1.1851515E+00   6.9133836E-01   4.7406058E+00   4.5430808E+00   4.3455553E+00   3.9505050E+00   3.5554545E+00   3.1604040E+00   2.5678282E+00   1.9752525E+00   1.2839141E+00   7.0121465E+00   6.8146210E+00   6.4195704E+00   6.0245199E+00   5.4319444E+00   4.8393683E+00   3.8517423E+00   3.1604040E+00   2.2715404E+00   4.1480303E+00   3.1604040E+00   4.1480303E+00   5.2344189E+00   6.4195704E+00   7.9997725E+00   1.0073788E+01   1.3234192E+01   1.7974798E+01   2.5085707E+01   3.4961967E+01   4.7406059E+01   0.0000000E+00   0.0000000E+00   0.0000000E+00   0.0000000E+00   0.0000000E+00   0.0000000E+00   0.0000000E+00   0.0000000E+00   0.0000000E+00   0.0000000E+00   0.0000000E+00   0.0000000E+00   0.0000000E+00   0.0000000E+00   0.0000000E+00   0.0000000E+00   0.0000000E+00   0.0000000E+00   0.0000000E+00   0.0000000E+00   0.0000000E+00   0.0000000E+00   0.0000000E+00   0.0000000E+00   0.0000000E+00   0.0000000E+00   0.0000000E+00   1.9752525E-01   9.8762624E-02   0.0000000E+00   0.0000000E+00   4.9381313E-01   2.9628786E-01   9.8762624E-02   0.0000000E+00   8.8886362E-01   4.9381313E-01   1.9752525E-01   9.8762624E-02   1.4814394E+00   8.8886362E-01   4.9381313E-01   1.9752525E-01   2.1727777E+00   1.2839141E+00   6.9133836E-01   2.9628786E-01   2.9628787E+00   1.7777272E+00   9.8762625E-01   3.9505050E-01   3.5554545E+00   2.3703029E+00   1.2839141E+00   5.9257573E-01   4.5430808E+00   2.9628787E+00   1.6789646E+00   6.9133836E-01   5.6294694E+00   3.6542170E+00   2.0740151E+00   8.8886362E-01   7.1109090E+00   4.6418433E+00   2.6665909E+00   1.2839141E+00   9.5799742E+00   6.2220454E+00   3.5554545E+00   1.5802020E+00   1.3234192E+01   8.6911106E+00   5.0368938E+00   2.1727777E+00   1.8666136E+01   1.2345328E+01   7.3084340E+00   3.3579292E+00   2.6468384E+01   1.7876036E+01   1.0765126E+01   5.3331819E+00   3.6443409E+01   2.5085707E+01   1.5999545E+01   0.0000000E+00   0.0000000E+00   0.0000000E+00   0.0000000E+00   0.0000000E+00   0.0000000E+00   0.0000000E+00   0.0000000E+00   0.0000000E+00   0.0000000E+00   0.0000000E+00   0.0000000E+00   0.0000000E+00   0.0000000E+00   0.0000000E+00   0.0000000E+00   0.0000000E+00   0.0000000E+00   0.0000000E+00   0.0000000E+00   0.0000000E+00   0.0000000E+00   0.0000000E+00   0.0000000E+00   0.0000000E+00   0.0000000E+00   0.0000000E+00   0.0000000E+00   0.0000000E+00   0.0000000E+00   0.0000000E+00   0.0000000E+00   0.0000000E+00   0.0000000E+00   0.0000000E+00   0.0000000E+00   0.0000000E+00   0.0000000E+00   0.0000000E+00   0.0000000E+00   0.0000000E+00   0.0000000E+00   0.0000000E+00   0.0000000E+00   0.0000000E+00   0.0000000E+00   0.0000000E+00   0.0000000E+00   0.0000000E+00   0.0000000E+00   0.0000000E+00   0.0000000E+00   0.0000000E+00   0.0000000E+00   0.0000000E+00   0.0000000E+00   0.0000000E+00   0.0000000E+00   0.0000000E+00   0.0000000E+00   0.0000000E+00   0.0000000E+00   0.0000000E+00   0.0000000E+00   0.0000000E+00   0.0000000E+00   0.0000000E+00   0.0000000E+00   0.0000000E+00   0.0000000E+00   0.0000000E+00   0.0000000E+00   0.0000000E+00   0.0000000E+00   0.0000000E+00   0.0000000E+00   0.0000000E+00   0.0000000E+00   0.0000000E+00   0.0000000E+00   0.0000000E+00   0.0000000E+00   0.0000000E+00   0.0000000E+00   0.0000000E+00   0.0000000E+00   0.0000000E+00   0.0000000E+00   0.0000000E+00   0.0000000E+00   0.0000000E+00   0.0000000E+00   0.0000000E+00   0.0000000E+00   0.0000000E+00   0.0000000E+00   0.0000000E+00   0.0000000E+00   0.0000000E+00   0.0000000E+00   0.0000000E+00   0.0000000E+00   0.0000000E+00   0.0000000E+00   0.0000000E+00   0.0000000E+00   0.0000000E+00   0.0000000E+00   0.0000000E+00   0.0000000E+00   0.0000000E+00   0.0000000E+00   0.0000000E+00   0.0000000E+00   0.0000000E+00   0.0000000E+00   0.0000000E+00   0.0000000E+00   0.0000000E+00   0.0000000E+00   0.0000000E+00   0.0000000E+00   0.0000000E+00   0.0000000E+00   0.0000000E+00   0.0000000E+00   0.0000000E+00   0.0000000E+00   0.0000000E+00   0.0000000E+00   0.0000000E+00   0.0000000E+00   0.0000000E+00   0.0000000E+00   0.0000000E+00   0.0000000E+00   0.0000000E+00   0.0000000E+00   0.0000000E+00   0.0000000E+00   0.0000000E+00   0.0000000E+00   0.0000000E+00   0.0000000E+00   0.0000000E+00   0.0000000E+00   0.0000000E+00   0.0000000E+00   0.0000000E+00   0.0000000E+00   0.0000000E+00   0.0000000E+00   0.0000000E+00   0.0000000E+00   0.0000000E+00   0.0000000E+00   0.0000000E+00   0.0000000E+00   0.0000000E+00   0.0000000E+00   0.0000000E+00   0.0000000E+00   0.0000000E+00   0.0000000E+00   0.0000000E+00   0.0000000E+00   0.0000000E+00   0.0000000E+00   0.0000000E+00   0.0000000E+00   0.0000000E+00   0.0000000E+00   0.0000000E+00   0.0000000E+00   0.0000000E+00   0.0000000E+00   0.0000000E+00   0.0000000E+00   0.0000000E+00   0.0000000E+00   0.0000000E+00   0.0000000E+00   0.0000000E+00   0.0000000E+00   0.0000000E+00   0.0000000E+00   0.0000000E+00   0.0000000E+00   0.0000000E+00   0.0000000E+00   0.0000000E+00   0.0000000E+00   0.0000000E+00   0.0000000E+00   0.0000000E+00   0.0000000E+00   0.0000000E+00   0.0000000E+00   0.0000000E+00   0.0000000E+00   0.0000000E+00   0.0000000E+00   0.0000000E+00   0.0000000E+00   0.0000000E+00   0.0000000E+00   0.0000000E+00   0.0000000E+00   0.0000000E+00   0.0000000E+00   0.0000000E+00   0.0000000E+00   0.0000000E+00   0.0000000E+00   0.0000000E+00   0.0000000E+00   0.0000000E+00   0.0000000E+00   0.0000000E+00   0.0000000E+00   0.0000000E+00   0.0000000E+00   0.0000000E+00   0.0000000E+00   0.0000000E+00   0.0000000E+00   0.0000000E+00   0.0000000E+00   0.0000000E+00   0.0000000E+00   0.0000000E+00   0.0000000E+00   0.0000000E+00   0.0000000E+00   0.0000000E+00   0.0000000E+00   0.0000000E+00   0.0000000E+00   0.0000000E+00   0.0000000E+00   0.0000000E+00   0.0000000E+00   0.0000000E+00   0.0000000E+00   0.0000000E+00   0.0000000E+00   0.0000000E+00   0.0000000E+00   0.0000000E+00   0.0000000E+00   0.0000000E+00   0.0000000E+00   0.0000000E+00   0.0000000E+00   0.0000000E+00   0.0000000E+00   0.0000000E+00   0.0000000E+00   0.0000000E+00   0.0000000E+00   0.0000000E+00   0.0000000E+00   0.0000000E+00   0.0000000E+00   0.0000000E+00   0.0000000E+00   0.0000000E+00   0.0000000E+00   0.0000000E+00   0.0000000E+00   0.0000000E+00   0.0000000E+00   0.0000000E+00   0.0000000E+00   0.0000000E+00   0.0000000E+00   0.0000000E+00   0.0000000E+00   0.0000000E+00   0.0000000E+00   0.0000000E+00   0.0000000E+00   0.0000000E+00   0.0000000E+00   0.0000000E+00   0.0000000E+00   0.0000000E+00   0.0000000E+00   0.0000000E+00   0.0000000E+00   0.0000000E+00   0.0000000E+00   0.0000000E+00   0.0000000E+00   0.0000000E+00   0.0000000E+00   0.0000000E+00   0.0000000E+00   0.0000000E+00   0.0000000E+00   0.0000000E+00   0.0000000E+00   0.0000000E+00   0.0000000E+00   0.0000000E+00   0.0000000E+00   0.0000000E+00   0.0000000E+00   0.0000000E+00   0.0000000E+00   0.0000000E+00   0.0000000E+00   0.0000000E+00   0.0000000E+00   0.0000000E+00   0.0000000E+00   0.0000000E+00   0.0000000E+00   0.0000000E+00   0.0000000E+00   0.0000000E+00   0.0000000E+00   0.0000000E+00   0.0000000E+00   0.0000000E+00   0.0000000E+00   0.0000000E+00   0.0000000E+00   0.0000000E+00   0.0000000E+00   0.0000000E+00   0.0000000E+00   0.0000000E+00   0.0000000E+00   0.0000000E+00   0.0000000E+00   0.0000000E+00   0.0000000E+00   0.0000000E+00   0.0000000E+00   0.0000000E+00   0.0000000E+00   0.0000000E+00   0.0000000E+00   0.0000000E+00   0.0000000E+00   0.0000000E+00   0.0000000E+00   0.0000000E+00   0.0000000E+00   0.0000000E+00   0.0000000E+00   0.0000000E+00   0.0000000E+00   0.0000000E+00   0.0000000E+00   0.0000000E+00   0.0000000E+00   0.0000000E+00   0.0000000E+00   0.0000000E+00   0.0000000E+00   0.0000000E+00   0.0000000E+00   0.0000000E+00   0.0000000E+00   0.0000000E+00   0.0000000E+00   0.0000000E+00   0.0000000E+00   0.0000000E+00   0.0000000E+00   0.0000000E+00   0.0000000E+00   0.0000000E+00   0.0000000E+00   0.0000000E+00   0.0000000E+00   0.0000000E+00   0.0000000E+00   0.0000000E+00   0.0000000E+00   0.0000000E+00   0.0000000E+00   0.0000000E+00   0.0000000E+00   0.0000000E+00   0.0000000E+00   0.0000000E+00   0.0000000E+00   0.0000000E+00   0.0000000E+00   0.0000000E+00   0.0000000E+00   0.0000000E+00   0.0000000E+00   0.0000000E+00   0.0000000E+00   0.0000000E+00   0.0000000E+00   0.0000000E+00   0.0000000E+00   0.0000000E+00   0.0000000E+00   0.0000000E+00   0.0000000E+00   0.0000000E+00   0.0000000E+00   0.0000000E+00   0.0000000E+00   0.0000000E+00   0.0000000E+00   0.0000000E+00   0.0000000E+00   0.0000000E+00   0.0000000E+00   0.0000000E+00   0.0000000E+00   0.0000000E+00   0.0000000E+00   0.0000000E+00   0.0000000E+00   0.0000000E+00   0.0000000E+00   0.0000000E+00   0.0000000E+00   0.0000000E+00   0.0000000E+00   0.0000000E+00   0.0000000E+00   0.0000000E+00   0.0000000E+00   0.0000000E+00   0.0000000E+00   0.0000000E+00   0.0000000E+00   0.0000000E+00   0.0000000E+00   0.0000000E+00   0.0000000E+00   0.0000000E+00   0.0000000E+00   0.0000000E+00   0.0000000E+00   0.0000000E+00   0.0000000E+00   0.0000000E+00   0.0000000E+00   0.0000000E+00   0.0000000E+00   0.0000000E+00   0.0000000E+00   0.0000000E+00   0.0000000E+00   0.0000000E+00   0.0000000E+00   0.0000000E+00   0.0000000E+00   0.0000000E+00   0.0000000E+00   0.0000000E+00   0.0000000E+00   0.0000000E+00   0.0000000E+00   0.0000000E+00   0.0000000E+00   0.0000000E+00   0.0000000E+00   0.0000000E+00   0.0000000E+00   0.0000000E+00   0.0000000E+00   5.4319444E+00   6.4195704E+00   7.4071970E+00   8.0985355E+00   8.5923481E+00   5.5307069E+00   7.0121465E+00   8.1972980E+00   9.1849241E+00   9.9750252E+00   1.0567601E+01   6.8146210E+00   8.5923481E+00   1.0073788E+01   1.1258939E+01   1.2147802E+01   1.2740378E+01   8.3948231E+00   1.0567601E+01   1.2246566E+01   1.3629242E+01   1.4518106E+01   1.5308207E+01   1.0468838E+01   1.2937903E+01   1.4913157E+01   1.6493359E+01   1.7678509E+01   1.8271086E+01   1.3135429E+01   1.6197071E+01   1.8567373E+01   2.0147575E+01   2.1530252E+01   2.2320353E+01   1.7480984E+01   2.0740150E+01   2.3505505E+01   2.4986944E+01   2.6270859E+01   2.7258484E+01   2.4196842E+01   2.7752296E+01   2.9925076E+01   3.1406515E+01   3.2394142E+01   3.3085480E+01   3.4468155E+01   3.7628559E+01   3.8813713E+01   3.9505051E+01   3.9900101E+01   4.0492676E+01   4.9183788E+01   5.0665226E+01   5.0072651E+01   4.9282551E+01   4.8887501E+01   4.8986263E+01   6.7059822E+01   6.6072197E+01   6.2911793E+01   6.0442726E+01   5.9257576E+01   5.9158813E+01   8.3256889E+01   8.1577927E+01   7.6541031E+01   7.2886818E+01   7.1207855E+01   7.0714035E+01   9.2046768E+01   9.4022018E+01   8.9676460E+01   8.6219772E+01   8.4540810E+01   8.4046989E+01   9.8367569E+01   1.0439208E+02   1.0300941E+02   1.0063911E+02   9.9750244E+01   9.9750244E+01   1.0913269E+02   1.1673741E+02   1.1841637E+02   1.1762627E+02   1.1762627E+02   1.1802132E+02   1.2690994E+02   1.3461342E+02   1.3757631E+02   1.3797136E+02   1.3856393E+02   1.3925526E+02   1.5189688E+02   1.5871150E+02   1.6167438E+02   1.6256325E+02   1.6355087E+02   1.6453850E+02   1.8261203E+02   1.8853780E+02   1.9120438E+02   1.9209325E+02   1.9317964E+02   1.9426602E+02   2.1836406E+02   2.2379601E+02   2.2636383E+02   2.2705518E+02   2.2814156E+02   2.2912918E+02   2.6004184E+02   2.6577005E+02   2.6804160E+02   2.6863419E+02   2.6952304E+02   2.7031314E+02   3.0952182E+02   3.1544757E+02   3.1762033E+02   3.1771909E+02   3.1831168E+02   3.1850919E+02   3.6858170E+02   3.7460620E+02   3.7677899E+02   3.7608765E+02   3.7539630E+02   3.7450745E+02   4.3811035E+02   4.4492496E+02   4.4690021E+02   4.4433237E+02   4.4186331E+02   4.3899921E+02   5.2018164E+02   5.2828015E+02   5.2995911E+02   5.2442841E+02   5.1840393E+02   5.1277448E+02   6.1430176E+02   6.2546191E+02   6.2565942E+02   6.1430176E+02   6.0324036E+02   5.9366040E+02   7.1770520E+02   7.3360596E+02   7.3024805E+02   7.0960675E+02   6.9163202E+02   6.7671887E+02   8.2831781E+02   8.5093433E+02   8.3997174E+02   8.0530627E+02   7.7883801E+02   7.5869055E+02   9.4327515E+02   9.7270618E+02   9.4762067E+02   8.9507928E+02   8.5952502E+02   8.3513080E+02   1.0735396E+03   1.1079086E+03   1.0617869E+03   9.8939459E+02   9.4672949E+02   9.2115021E+02   1.2736265E+03   1.3078966E+03   1.2387637E+03   1.1491871E+03   1.1035594E+03   1.0822269E+03   1.7074774E+03   1.7357230E+03   1.6556279E+03   1.5592373E+03   1.5183502E+03   1.5081779E+03   2.7205503E+03   2.7410925E+03   2.6817375E+03   2.6056921E+03   2.5785330E+03   2.5854463E+03   4.6370552E+03   4.6537456E+03   4.6448574E+03   4.6399194E+03   4.6448574E+03   4.6740898E+03   7.0170820E+03   7.0321924E+03   7.0601406E+03   7.1613682E+03   7.2246714E+03   7.2827412E+03   8.7426553E+03   8.7421621E+03   8.7746523E+03   8.9479717E+03   9.0690469E+03   9.1556572E+03   9.4532188E+03   9.4268516E+03   9.4194443E+03   9.6196211E+03   9.7697285E+03   9.8744082E+03   9.6110635E+03   9.5807461E+03   9.5155693E+03   9.6815723E+03   9.8273301E+03   9.9335879E+03   9.6615625E+03   9.6420117E+03   9.5396094E+03   9.6475420E+03   9.7558691E+03   9.8448418E+03   9.7648613E+03   9.7589365E+03   9.6314580E+03   9.6924814E+03   9.7656514E+03   9.8357588E+03   9.9297861E+03   9.9326494E+03   9.7950107E+03   9.8290752E+03   9.8798252E+03   9.9360068E+03   1.0107188E+04   1.0114197E+04   9.9774590E+03   1.0003819E+04   1.0046568E+04   1.0095933E+04   1.0244546E+04   1.0251259E+04   1.0121743E+04   1.0157281E+04   1.0203776E+04   1.0252739E+04   1.0178794E+04   1.0183926E+04   1.0064006E+04   1.0110000E+04   1.0163791E+04   1.0216397E+04   9.9204521E+03   9.9249902E+03   9.8168389E+03   9.8710127E+03   9.9327842E+03   9.9912021E+03   9.5142881E+03   9.5204023E+03   9.4273770E+03   9.4887354E+03   9.5580850E+03   9.6235879E+03   8.9994346E+03   9.0116592E+03   8.9379990E+03   9.0061357E+03   9.0821631E+03   9.1554297E+03   8.4021953E+03   8.4244648E+03   8.3723291E+03   8.4481162E+03   8.5302109E+03   8.6095498E+03   7.7358750E+03   7.7677793E+03   7.7389229E+03   7.8228281E+03   7.9094932E+03   7.9945850E+03   7.0131401E+03   7.0545547E+03   7.0467817E+03   7.1357207E+03   7.2276152E+03   7.3162646E+03   6.2574482E+03   6.3074536E+03   6.3133491E+03   6.4037441E+03   6.5006279E+03   6.5907319E+03   5.5060405E+03   5.5586055E+03   5.5668472E+03   5.6568872E+03   5.7555610E+03   5.8452114E+03   4.7937212E+03   4.8386309E+03   4.8437261E+03   4.9291504E+03   5.0249492E+03   5.1121357E+03   4.1137437E+03   4.1659302E+03   4.1746240E+03   4.2510991E+03   4.3391812E+03   4.4205327E+03   3.4459414E+03   3.5395723E+03   3.5713484E+03   3.6440073E+03   3.7220056E+03   3.7928157E+03   2.8352842E+03   2.9851602E+03   3.0500732E+03   3.1201050E+03   3.1849194E+03   3.2409443E+03   2.5197712E+03   2.6153438E+03   2.6762292E+03   2.7289683E+03   2.7686702E+03   2.1263774E+03   2.2382742E+03   2.2990366E+03   2.3464229E+03   2.3741650E+03   1.8941995E+03   1.9656100E+03   2.0157643E+03   2.0480298E+03   1.5860060E+03   1.6484059E+03   1.7147770E+03   1.7662314E+03   1.3655858E+03   1.4272323E+03   1.4998057E+03   1.1714036E+03   1.2356801E+03   1.0215630E+03   1.0084749E+03   8.9873991E+00   9.2836866E+00   9.4812117E+00   9.6787367E+00   9.6787367E+00   9.7775002E+00   9.8762627E+00   9.8762627E+00   9.8762627E+00   1.0962651E+01   1.1456465E+01   1.1653990E+01   1.1851515E+01   1.1950277E+01   1.2049040E+01   1.2049040E+01   1.2049040E+01   1.2049040E+01   1.3234192E+01   1.3530479E+01   1.3925530E+01   1.4024293E+01   1.4221818E+01   1.4221818E+01   1.4221818E+01   1.4221818E+01   1.4221818E+01   1.5802020E+01   1.6197071E+01   1.6394596E+01   1.6493359E+01   1.6690884E+01   1.6690884E+01   1.6690884E+01   1.6690884E+01   1.6690884E+01   1.8863661E+01   1.9258711E+01   1.9456238E+01   1.9456238E+01   1.9555000E+01   1.9555000E+01   1.9555000E+01   1.9555000E+01   1.9555000E+01   2.2715403E+01   2.3110455E+01   2.3307980E+01   2.3406742E+01   2.3505505E+01   2.3406742E+01   2.3307980E+01   2.3307980E+01   2.3307980E+01   2.7653534E+01   2.7949823E+01   2.8048586E+01   2.8048586E+01   2.7949823E+01   2.7949823E+01   2.7752296E+01   2.7752296E+01   2.7752296E+01   3.3579292E+01   3.3776817E+01   3.3776817E+01   3.3678055E+01   3.3579292E+01   3.3480530E+01   3.3381767E+01   3.3283005E+01   3.3283005E+01   4.0591438E+01   4.0887726E+01   4.0788963E+01   4.0690201E+01   4.0393913E+01   4.0295151E+01   3.9900101E+01   3.9900101E+01   3.9801338E+01   4.9183788E+01   4.9183788E+01   4.8986263E+01   4.8689972E+01   4.8393684E+01   4.8097397E+01   4.7801109E+01   4.7603584E+01   4.7603584E+01   5.9060051E+01   5.9060051E+01   5.8664997E+01   5.8467472E+01   5.7973660E+01   5.7578609E+01   5.7381084E+01   5.7084797E+01   5.6986034E+01   7.0812805E+01   7.0615273E+01   7.0121460E+01   6.9627647E+01   6.9035072E+01   6.8640022E+01   6.8343735E+01   6.8047447E+01   6.7948685E+01   8.4145752E+01   8.4046989E+01   8.3553177E+01   8.2960602E+01   8.2368027E+01   8.1874214E+01   8.1380402E+01   8.1084114E+01   8.0886589E+01   1.0004653E+02   9.9849007E+01   9.9453957E+01   9.8762619E+01   9.7972519E+01   9.7281174E+01   9.6886124E+01   9.6491074E+01   9.6293549E+01   1.1841637E+02   1.1841637E+02   1.1782380E+02   1.1713246E+02   1.1624360E+02   1.1525597E+02   1.1476216E+02   1.1436711E+02   1.1407082E+02   1.3984784E+02   1.3974908E+02   1.3935403E+02   1.3846516E+02   1.3767506E+02   1.3658868E+02   1.3589734E+02   1.3530476E+02   1.3500848E+02   1.6513107E+02   1.6513107E+02   1.6453850E+02   1.6345210E+02   1.6226695E+02   1.6118057E+02   1.6019295E+02   1.5950160E+02   1.5910655E+02   1.9485860E+02   1.9475984E+02   1.9396974E+02   1.9278458E+02   1.9110562E+02   1.8992047E+02   1.8853780E+02   1.8764893E+02   1.8715512E+02   2.2972176E+02   2.2932671E+02   2.2814156E+02   2.2636383E+02   2.2428981E+02   2.2261086E+02   2.2093188E+02   2.1994426E+02   2.1925293E+02   2.7051065E+02   2.6962180E+02   2.6784409E+02   2.6517749E+02   2.6260965E+02   2.6014059E+02   2.5816534E+02   2.5658514E+02   2.5559752E+02   3.1801538E+02   3.1633643E+02   3.1347232E+02   3.0991687E+02   3.0626263E+02   3.0300348E+02   3.0013937E+02   2.9806534E+02   2.9697897E+02   3.7302600E+02   3.6986560E+02   3.6561884E+02   3.6068069E+02   3.5554504E+02   3.5110074E+02   3.4744653E+02   3.4477994E+02   3.4300220E+02   4.3544376E+02   4.3070316E+02   4.2428360E+02   4.1737021E+02   4.1055560E+02   4.0482739E+02   3.9998804E+02   3.9663010E+02   3.9435855E+02   5.0665118E+02   4.9904648E+02   4.8996036E+02   4.8038040E+02   4.7159055E+02   4.6398584E+02   4.5806009E+02   4.5361578E+02   4.5114673E+02   5.8368542E+02   5.7262402E+02   5.6017999E+02   5.4753839E+02   5.3618073E+02   5.2679834E+02   5.1958868E+02   5.1425549E+02   5.1119388E+02   6.6249713E+02   6.4709021E+02   6.3069568E+02   6.1479498E+02   6.0096826E+02   5.8961060E+02   5.8131458E+02   5.7509253E+02   5.7193213E+02   7.4002448E+02   7.2037085E+02   6.9992706E+02   6.8056970E+02   6.6427393E+02   6.5143488E+02   6.4205249E+02   6.3573169E+02   6.3227502E+02   8.1340320E+02   7.9078674E+02   7.6728137E+02   7.4525745E+02   7.2718402E+02   7.1345612E+02   7.0387622E+02   6.9745673E+02   6.9390125E+02   8.9971893E+02   8.7700378E+02   8.5270837E+02   8.2969690E+02   8.1122845E+02   7.9769812E+02   7.8871082E+02   7.8318018E+02   7.8021729E+02   1.0667214E+03   1.0488456E+03   1.0280070E+03   1.0075634E+03   9.9087268E+02   9.7931763E+02   9.7260187E+02   9.6904645E+02   9.6726874E+02   1.5047212E+03   1.4985980E+03   1.4868455E+03   1.4733153E+03   1.4622540E+03   1.4554396E+03   1.4528717E+03   1.4526742E+03   1.4532668E+03   2.6013467E+03   2.6130991E+03   2.6173459E+03   2.6165557E+03   2.6152717E+03   2.6168518E+03   2.6213948E+03   2.6265303E+03   2.6305796E+03   4.7140879E+03   4.7498384E+03   4.7752197E+03   4.7923052E+03   4.8060327E+03   4.8199580E+03   4.8343760E+03   4.8477085E+03   4.8568931E+03   7.3481191E+03   7.4098433E+03   7.4593213E+03   7.4976396E+03   7.5299336E+03   7.5598574E+03   7.5879048E+03   7.6114092E+03   7.6270132E+03   9.2429580E+03   9.3270000E+03   9.3997842E+03   9.4604199E+03   9.5133535E+03   9.5613496E+03   9.6048027E+03   9.6401582E+03   9.6632666E+03   9.9757314E+03   1.0076164E+04   1.0167710E+04   1.0248591E+04   1.0321176E+04   1.0387638E+04   1.0446989E+04   1.0494885E+04   1.0526092E+04   1.0039056E+04   1.0147880E+04   1.0252458E+04   1.0349137E+04   1.0438408E+04   1.0521262E+04   1.0595128E+04   1.0654183E+04   1.0692498E+04   9.9439854E+03   1.0053793E+04   1.0164588E+04   1.0270842E+04   1.0371664E+04   1.0466166E+04   1.0550695E+04   1.0618239E+04   1.0661984E+04   9.9253193E+03   1.0031271E+04   1.0142260E+04   1.0251766E+04   1.0357816E+04   1.0458437E+04   1.0549083E+04   1.0621660E+04   1.0668662E+04   1.0016675E+04   1.0116795E+04   1.0224022E+04   1.0331942E+04   1.0438184E+04   1.0540080E+04   1.0632399E+04   1.0706748E+04   1.0754733E+04   1.0170669E+04   1.0265448E+04   1.0367632E+04   1.0471494E+04   1.0574566E+04   1.0674577E+04   1.0765407E+04   1.0838861E+04   1.0886350E+04   1.0325395E+04   1.0416509E+04   1.0514337E+04   1.0613447E+04   1.0712065E+04   1.0808313E+04   1.0896072E+04   1.0967246E+04   1.1013248E+04   1.0289732E+04   1.0379647E+04   1.0474104E+04   1.0568659E+04   1.0662818E+04   1.0754511E+04   1.0838504E+04   1.0906606E+04   1.0950824E+04   1.0067383E+04   1.0156982E+04   1.0248950E+04   1.0339833E+04   1.0429334E+04   1.0516565E+04   1.0596396E+04   1.0661228E+04   1.0703264E+04   9.7039883E+03   9.7938574E+03   9.8833311E+03   9.9699453E+03   1.0054487E+04   1.0136563E+04   1.0211832E+04   1.0272697E+04   1.0312354E+04   9.2396426E+03   9.3290811E+03   9.4150693E+03   9.4959287E+03   9.5744219E+03   9.6502520E+03   9.7197705E+03   9.7763721E+03   9.8130547E+03   8.6966748E+03   8.7838975E+03   8.8635303E+03   8.9367588E+03   9.0074238E+03   9.0754268E+03   9.1383047E+03   9.1891592E+03   9.2222744E+03   8.0817451E+03   8.1639805E+03   8.2356777E+03   8.2997920E+03   8.3606553E+03   8.4200420E+03   8.4748965E+03   8.5199043E+03   8.5489570E+03   7.4017651E+03   7.4775249E+03   7.5405933E+03   7.5949043E+03   7.6464600E+03   7.6967363E+03   7.7435679E+03   7.7823325E+03   7.8073228E+03   6.6740566E+03   6.7440186E+03   6.7994380E+03   6.8454238E+03   6.8881670E+03   6.9306147E+03   6.9704087E+03   7.0032266E+03   7.0246460E+03   5.9267217E+03   5.9930278E+03   6.0433472E+03   6.0833677E+03   6.1200518E+03   6.1558525E+03   6.1894946E+03   6.2173501E+03   6.2355928E+03   5.1915928E+03   5.2566650E+03   5.3050059E+03   5.3426802E+03   5.3755591E+03   5.4066763E+03   5.4357373E+03   5.4593188E+03   5.4750723E+03   4.4966147E+03   4.5616748E+03   4.6119097E+03   4.6503423E+03   4.6820430E+03   4.7102324E+03   4.7356899E+03   4.7563672E+03   4.7696318E+03   3.8618740E+03   3.9266580E+03   3.9808542E+03   4.0232017E+03   4.0565159E+03   4.0840994E+03   4.1070205E+03   4.1250850E+03   4.1365449E+03   3.2988965E+03   3.3600308E+03   3.4180730E+03   3.4665530E+03   3.5045066E+03   3.5333821E+03   3.5557871E+03   3.5723008E+03   3.5824407E+03   2.8109543E+03   2.8637744E+03   2.9221487E+03   2.9769744E+03   3.0215439E+03   3.0551868E+03   3.0793403E+03   3.0957307E+03   3.1053152E+03   2.3991484E+03   2.4382632E+03   2.4910361E+03   2.5481702E+03   2.5997029E+03   2.6401313E+03   2.6689822E+03   2.6877732E+03   2.6983074E+03   2.0612729E+03   2.0833130E+03   2.1237048E+03   2.1758010E+03   2.2291111E+03   2.2752993E+03   2.3100576E+03   2.3334795E+03   2.3465020E+03   1.7885719E+03   1.7985564E+03   1.8211534E+03   1.8598666E+03   1.9066827E+03   1.9522056E+03   1.9900787E+03   2.0173545E+03   2.0334802E+03   1.5506442E+03   1.5726113E+03   1.5826587E+03   1.6021683E+03   1.6333994E+03   1.6696785E+03   1.7036082E+03   1.7303177E+03   1.7473721E+03   1.3134137E+03   1.3668097E+03   1.3922544E+03   1.4017793E+03   1.4130507E+03   1.4317856E+03   1.4541199E+03   1.4743413E+03   1.4884955E+03   1.0763615E+03   1.1445125E+03   1.1994739E+03   1.2301687E+03   1.2403337E+03   1.2435902E+03   1.2494781E+03   1.2579150E+03   1.2653271E+03   9.2052692E+02   9.4663080E+02   9.8651703E+02   1.0274736E+03   1.0622004E+03   1.0819152E+03   1.0882520E+03   1.0896586E+03   1.0907310E+03   8.6320044E+02   8.4593677E+02   8.4517206E+02   8.5697852E+02   8.7389130E+02   8.8946613E+02   8.9804327E+02   9.0190070E+02   7.9003687E+02   7.5595276E+02   7.4105133E+02   7.2172430E+02   7.0494269E+02   6.9505353E+02   7.5536444E+02   7.3441199E+02   7.0732654E+02   6.8694049E+02   9.8762627E+00   9.8762627E+00   9.8762627E+00   9.8762627E+00   9.7775002E+00   9.6787367E+00   9.6787367E+00   9.4812117E+00   1.2049040E+01   1.2049040E+01   1.2049040E+01   1.2049040E+01   1.2049040E+01   1.1950277E+01   1.1851515E+01   1.1653990E+01   1.4221818E+01   1.4221818E+01   1.4221818E+01   1.4221818E+01   1.4221818E+01   1.4221818E+01   1.4024293E+01   1.3925530E+01   1.6690884E+01   1.6690884E+01   1.6690884E+01   1.6690884E+01   1.6690884E+01   1.6690884E+01   1.6493359E+01   1.6394596E+01   1.9555000E+01   1.9555000E+01   1.9555000E+01   1.9555000E+01   1.9555000E+01   1.9555000E+01   1.9456238E+01   1.9456238E+01   2.3307980E+01   2.3307980E+01   2.3307980E+01   2.3307980E+01   2.3406742E+01   2.3505505E+01   2.3406742E+01   2.3307980E+01   2.7653534E+01   2.7752296E+01   2.7752296E+01   2.7752296E+01   2.7949823E+01   2.7949823E+01   2.8048586E+01   2.8048586E+01   3.3184242E+01   3.3283005E+01   3.3283005E+01   3.3381767E+01   3.3480530E+01   3.3579292E+01   3.3678055E+01   3.3776817E+01   3.9801338E+01   3.9801338E+01   3.9900101E+01   3.9900101E+01   4.0295151E+01   4.0393913E+01   4.0690201E+01   4.0788963E+01   4.7504822E+01   4.7603584E+01   4.7603584E+01   4.7801109E+01   4.8097397E+01   4.8393684E+01   4.8689972E+01   4.8986263E+01   5.6887272E+01   5.6986034E+01   5.7084797E+01   5.7381084E+01   5.7578609E+01   5.7973660E+01   5.8467472E+01   5.8664997E+01   6.7948685E+01   6.7948685E+01   6.8047447E+01   6.8343735E+01   6.8640022E+01   6.9035072E+01   6.9627647E+01   7.0121460E+01   8.0886589E+01   8.0886589E+01   8.1084114E+01   8.1380402E+01   8.1874214E+01   8.2368027E+01   8.2960602E+01   8.3553177E+01   9.6194786E+01   9.6293549E+01   9.6491074E+01   9.6886124E+01   9.7281174E+01   9.7972519E+01   9.8762619E+01   9.9453957E+01   1.1397206E+02   1.1407082E+02   1.1436711E+02   1.1476216E+02   1.1525597E+02   1.1624360E+02   1.1713246E+02   1.1782380E+02   1.3490971E+02   1.3500848E+02   1.3530476E+02   1.3589734E+02   1.3658868E+02   1.3767506E+02   1.3846516E+02   1.3935403E+02   1.5900778E+02   1.5910655E+02   1.5950160E+02   1.6019295E+02   1.6118057E+02   1.6226695E+02   1.6345210E+02   1.6453850E+02   1.8695760E+02   1.8715512E+02   1.8764893E+02   1.8853780E+02   1.8992047E+02   1.9110562E+02   1.9278458E+02   1.9396974E+02   2.1885788E+02   2.1925293E+02   2.1994426E+02   2.2093188E+02   2.2261086E+02   2.2428981E+02   2.2636383E+02   2.2814156E+02   2.5530122E+02   2.5559752E+02   2.5658514E+02   2.5816534E+02   2.6014059E+02   2.6260965E+02   2.6517749E+02   2.6784409E+02   2.9648514E+02   2.9697897E+02   2.9806534E+02   3.0013937E+02   3.0300348E+02   3.0626263E+02   3.0991687E+02   3.1347232E+02   3.4260715E+02   3.4300220E+02   3.4477994E+02   3.4744653E+02   3.5110074E+02   3.5554504E+02   3.6068069E+02   3.6561884E+02   3.9366724E+02   3.9435855E+02   3.9663010E+02   3.9998804E+02   4.0482739E+02   4.1055560E+02   4.1737021E+02   4.2428360E+02   4.5015909E+02   4.5114673E+02   4.5361578E+02   4.5806009E+02   4.6398584E+02   4.7159055E+02   4.8038040E+02   4.8996036E+02   5.1020624E+02   5.1119388E+02   5.1425549E+02   5.1958868E+02   5.2679834E+02   5.3618073E+02   5.4753839E+02   5.6017999E+02   5.7074701E+02   5.7193213E+02   5.7509253E+02   5.8131458E+02   5.8961060E+02   6.0096826E+02   6.1479498E+02   6.3069568E+02   6.3089233E+02   6.3227502E+02   6.3573169E+02   6.4205249E+02   6.5143488E+02   6.6427393E+02   6.8056970E+02   6.9992706E+02   6.9271613E+02   6.9390125E+02   6.9745673E+02   7.0387622E+02   7.1345612E+02   7.2718402E+02   7.4525745E+02   7.6728137E+02   7.7922968E+02   7.8021729E+02   7.8318018E+02   7.8871082E+02   7.9769812E+02   8.1122845E+02   8.2969690E+02   8.5270837E+02   9.6667615E+02   9.6726874E+02   9.6904645E+02   9.7260187E+02   9.7931763E+02   9.9087268E+02   1.0075634E+03   1.0280070E+03   1.4534644E+03   1.4532668E+03   1.4526742E+03   1.4528717E+03   1.4554396E+03   1.4622540E+03   1.4733153E+03   1.4868455E+03   2.6320610E+03   2.6305796E+03   2.6265303E+03   2.6213948E+03   2.6168518E+03   2.6152717E+03   2.6165557E+03   2.6173459E+03   4.8600537E+03   4.8568931E+03   4.8477085E+03   4.8343760E+03   4.8199580E+03   4.8060327E+03   4.7923052E+03   4.7752197E+03   7.6325435E+03   7.6270132E+03   7.6114092E+03   7.5879048E+03   7.5598574E+03   7.5299336E+03   7.4976396E+03   7.4593213E+03   9.6715625E+03   9.6632666E+03   9.6401582E+03   9.6048027E+03   9.5613496E+03   9.5133535E+03   9.4604199E+03   9.3997842E+03   1.0536758E+04   1.0526092E+04   1.0494885E+04   1.0446989E+04   1.0387638E+04   1.0321176E+04   1.0248591E+04   1.0167710E+04   1.0705730E+04   1.0692498E+04   1.0654183E+04   1.0595128E+04   1.0521262E+04   1.0438408E+04   1.0349137E+04   1.0252458E+04   1.0677191E+04   1.0661984E+04   1.0618239E+04   1.0550695E+04   1.0466166E+04   1.0371664E+04   1.0270842E+04   1.0164588E+04   1.0684954E+04   1.0668662E+04   1.0621660E+04   1.0549083E+04   1.0458437E+04   1.0357816E+04   1.0251766E+04   1.0142260E+04   1.0771321E+04   1.0754733E+04   1.0706748E+04   1.0632399E+04   1.0540080E+04   1.0438184E+04   1.0331942E+04   1.0224022E+04   1.0903034E+04   1.0886350E+04   1.0838861E+04   1.0765407E+04   1.0674577E+04   1.0574566E+04   1.0471494E+04   1.0367632E+04   1.1029339E+04   1.1013248E+04   1.0967246E+04   1.0896072E+04   1.0808313E+04   1.0712065E+04   1.0613447E+04   1.0514337E+04   1.0966223E+04   1.0950824E+04   1.0906606E+04   1.0838504E+04   1.0754511E+04   1.0662818E+04   1.0568659E+04   1.0474104E+04   1.0717967E+04   1.0703264E+04   1.0661228E+04   1.0596396E+04   1.0516565E+04   1.0429334E+04   1.0339833E+04   1.0248950E+04   1.0326165E+04   1.0312354E+04   1.0272697E+04   1.0211832E+04   1.0136563E+04   1.0054487E+04   9.9699453E+03   9.8833311E+03   9.8255781E+03   9.8130547E+03   9.7763721E+03   9.7197705E+03   9.6502520E+03   9.5744219E+03   9.4959287E+03   9.4150693E+03   9.2338057E+03   9.2222744E+03   9.1891592E+03   9.1383047E+03   9.0754268E+03   9.0074238E+03   8.9367588E+03   8.8635303E+03   8.5590020E+03   8.5489570E+03   8.5199043E+03   8.4748965E+03   8.4200420E+03   8.3606553E+03   8.2997920E+03   8.2356777E+03   7.8160791E+03   7.8073228E+03   7.7823325E+03   7.7435679E+03   7.6967363E+03   7.6464600E+03   7.5949043E+03   7.5405933E+03   7.0322119E+03   7.0246460E+03   7.0032266E+03   6.9704087E+03   6.9306147E+03   6.8881670E+03   6.8454238E+03   6.7994380E+03   6.2419683E+03   6.2355928E+03   6.2173501E+03   6.1894946E+03   6.1558525E+03   6.1200518E+03   6.0833677E+03   6.0433472E+03   5.4805522E+03   5.4750723E+03   5.4593188E+03   5.4357373E+03   5.4066763E+03   5.3755591E+03   5.3426802E+03   5.3050059E+03   4.7742163E+03   4.7696318E+03   4.7563672E+03   4.7356899E+03   4.7102324E+03   4.6820430E+03   4.6503423E+03   4.6119097E+03   4.1405269E+03   4.1365449E+03   4.1250850E+03   4.1070205E+03   4.0840994E+03   4.0565159E+03   4.0232017E+03   3.9808542E+03   3.5857244E+03   3.5824407E+03   3.5723008E+03   3.5557871E+03   3.5333821E+03   3.5045066E+03   3.4665530E+03   3.4180730E+03   3.1084780E+03   3.1053152E+03   3.0957307E+03   3.0793403E+03   3.0551868E+03   3.0215439E+03   2.9769744E+03   2.9221487E+03   2.7017241E+03   2.6983074E+03   2.6877732E+03   2.6689822E+03   2.6401313E+03   2.5997029E+03   2.5481702E+03   2.4910361E+03   2.3509993E+03   2.3465020E+03   2.3334795E+03   2.3100576E+03   2.2752993E+03   2.2291111E+03   2.1758010E+03   2.1237048E+03   2.0388248E+03   2.0334802E+03   2.0173545E+03   1.9900787E+03   1.9522056E+03   1.9066827E+03   1.8598666E+03   1.8211534E+03   1.7530566E+03   1.7473721E+03   1.7303177E+03   1.7036082E+03   1.6696785E+03   1.6333994E+03   1.6021683E+03   1.5826587E+03   1.4934186E+03   1.4884955E+03   1.4743413E+03   1.4541199E+03   1.4317856E+03   1.4130507E+03   1.4017793E+03   1.3922544E+03   1.2681382E+03   1.2653271E+03   1.2579150E+03   1.2494781E+03   1.2435902E+03   1.2403337E+03   1.2301687E+03   1.1994739E+03   1.0911428E+03   1.0907310E+03   1.0896586E+03   1.0882520E+03   1.0819152E+03   1.0622004E+03   1.0274736E+03   9.8651703E+02   9.0300299E+02   9.0190070E+02   8.9804327E+02   8.8946613E+02   8.7389130E+02   8.5697852E+02   8.4517206E+02   8.4593677E+02   6.9190692E+02   6.9505353E+02   7.0494269E+02   7.2172430E+02   7.4105133E+02   7.5595276E+02   7.9003687E+02   6.7995514E+02   6.8694049E+02   7.0732654E+02   7.3441199E+02   7.5536444E+02   9.2836866E+00   8.9873991E+00   8.5923481E+00   8.0985355E+00   7.4071970E+00   6.4195704E+00   5.4319444E+00   1.1456465E+01   1.0962651E+01   1.0567601E+01   9.9750252E+00   9.1849241E+00   8.1972980E+00   7.0121465E+00   5.5307069E+00   1.3530479E+01   1.3234192E+01   1.2740378E+01   1.2147802E+01   1.1258939E+01   1.0073788E+01   8.5923481E+00   6.8146210E+00   1.6197071E+01   1.5802020E+01   1.5308207E+01   1.4518106E+01   1.3629242E+01   1.2246566E+01   1.0567601E+01   8.3948231E+00   1.9258711E+01   1.8863661E+01   1.8271086E+01   1.7678509E+01   1.6493359E+01   1.4913157E+01   1.2937903E+01   1.0468838E+01   2.3110455E+01   2.2715403E+01   2.2320353E+01   2.1530252E+01   2.0147575E+01   1.8567373E+01   1.6197071E+01   1.3135429E+01   2.7949823E+01   2.7653534E+01   2.7258484E+01   2.6270859E+01   2.4986944E+01   2.3505505E+01   2.0740150E+01   1.7480984E+01   3.3776817E+01   3.3579292E+01   3.3085480E+01   3.2394142E+01   3.1406515E+01   2.9925076E+01   2.7752296E+01   2.4196842E+01   4.0887726E+01   4.0591438E+01   4.0492676E+01   3.9900101E+01   3.9505051E+01   3.8813713E+01   3.7628559E+01   3.4468155E+01   4.9183788E+01   4.9183788E+01   4.8986263E+01   4.8887501E+01   4.9282551E+01   5.0072651E+01   5.0665226E+01   4.9183788E+01   5.9060051E+01   5.9060051E+01   5.9158813E+01   5.9257576E+01   6.0442726E+01   6.2911793E+01   6.6072197E+01   6.7059822E+01   7.0615273E+01   7.0812805E+01   7.0714035E+01   7.1207855E+01   7.2886818E+01   7.6541031E+01   8.1577927E+01   8.3256889E+01   8.4046989E+01   8.4145752E+01   8.4046989E+01   8.4540810E+01   8.6219772E+01   8.9676460E+01   9.4022018E+01   9.2046768E+01   9.9849007E+01   1.0004653E+02   9.9750244E+01   9.9750244E+01   1.0063911E+02   1.0300941E+02   1.0439208E+02   9.8367569E+01   1.1841637E+02   1.1841637E+02   1.1802132E+02   1.1762627E+02   1.1762627E+02   1.1841637E+02   1.1673741E+02   1.0913269E+02   1.3974908E+02   1.3984784E+02   1.3925526E+02   1.3856393E+02   1.3797136E+02   1.3757631E+02   1.3461342E+02   1.2690994E+02   1.6513107E+02   1.6513107E+02   1.6453850E+02   1.6355087E+02   1.6256325E+02   1.6167438E+02   1.5871150E+02   1.5189688E+02   1.9475984E+02   1.9485860E+02   1.9426602E+02   1.9317964E+02   1.9209325E+02   1.9120438E+02   1.8853780E+02   1.8261203E+02   2.2932671E+02   2.2972176E+02   2.2912918E+02   2.2814156E+02   2.2705518E+02   2.2636383E+02   2.2379601E+02   2.1836406E+02   2.6962180E+02   2.7051065E+02   2.7031314E+02   2.6952304E+02   2.6863419E+02   2.6804160E+02   2.6577005E+02   2.6004184E+02   3.1633643E+02   3.1801538E+02   3.1850919E+02   3.1831168E+02   3.1771909E+02   3.1762033E+02   3.1544757E+02   3.0952182E+02   3.6986560E+02   3.7302600E+02   3.7450745E+02   3.7539630E+02   3.7608765E+02   3.7677899E+02   3.7460620E+02   3.6858170E+02   4.3070316E+02   4.3544376E+02   4.3899921E+02   4.4186331E+02   4.4433237E+02   4.4690021E+02   4.4492496E+02   4.3811035E+02   4.9904648E+02   5.0665118E+02   5.1277448E+02   5.1840393E+02   5.2442841E+02   5.2995911E+02   5.2828015E+02   5.2018164E+02   5.7262402E+02   5.8368542E+02   5.9366040E+02   6.0324036E+02   6.1430176E+02   6.2565942E+02   6.2546191E+02   6.1430176E+02   6.4709021E+02   6.6249713E+02   6.7671887E+02   6.9163202E+02   7.0960675E+02   7.3024805E+02   7.3360596E+02   7.1770520E+02   7.2037085E+02   7.4002448E+02   7.5869055E+02   7.7883801E+02   8.0530627E+02   8.3997174E+02   8.5093433E+02   8.2831781E+02   7.9078674E+02   8.1340320E+02   8.3513080E+02   8.5952502E+02   8.9507928E+02   9.4762067E+02   9.7270618E+02   9.4327515E+02   8.7700378E+02   8.9971893E+02   9.2115021E+02   9.4672949E+02   9.8939459E+02   1.0617869E+03   1.1079086E+03   1.0735396E+03   1.0488456E+03   1.0667214E+03   1.0822269E+03   1.1035594E+03   1.1491871E+03   1.2387637E+03   1.3078966E+03   1.2736265E+03   1.4985980E+03   1.5047212E+03   1.5081779E+03   1.5183502E+03   1.5592373E+03   1.6556279E+03   1.7357230E+03   1.7074774E+03   2.6130991E+03   2.6013467E+03   2.5854463E+03   2.5785330E+03   2.6056921E+03   2.6817375E+03   2.7410925E+03   2.7205503E+03   4.7498384E+03   4.7140879E+03   4.6740898E+03   4.6448574E+03   4.6399194E+03   4.6448574E+03   4.6537456E+03   4.6370552E+03   7.4098433E+03   7.3481191E+03   7.2827412E+03   7.2246714E+03   7.1613682E+03   7.0601406E+03   7.0321924E+03   7.0170820E+03   9.3270000E+03   9.2429580E+03   9.1556572E+03   9.0690469E+03   8.9479717E+03   8.7746523E+03   8.7421621E+03   8.7426553E+03   1.0076164E+04   9.9757314E+03   9.8744082E+03   9.7697285E+03   9.6196211E+03   9.4194443E+03   9.4268516E+03   9.4532188E+03   1.0147880E+04   1.0039056E+04   9.9335879E+03   9.8273301E+03   9.6815723E+03   9.5155693E+03   9.5807461E+03   9.6110635E+03   1.0053793E+04   9.9439854E+03   9.8448418E+03   9.7558691E+03   9.6475420E+03   9.5396094E+03   9.6420117E+03   9.6615625E+03   1.0031271E+04   9.9253193E+03   9.8357588E+03   9.7656514E+03   9.6924814E+03   9.6314580E+03   9.7589365E+03   9.7648613E+03   1.0116795E+04   1.0016773E+04   9.9360068E+03   9.8798252E+03   9.8290752E+03   9.7950107E+03   9.9326494E+03   9.9297861E+03   1.0265448E+04   1.0170669E+04   1.0095933E+04   1.0046568E+04   1.0003819E+04   9.9774590E+03   1.0114197E+04   1.0107188E+04   1.0416509E+04   1.0325395E+04   1.0252739E+04   1.0203776E+04   1.0157281E+04   1.0121743E+04   1.0251259E+04   1.0244546E+04   1.0379647E+04   1.0289732E+04   1.0216397E+04   1.0163791E+04   1.0110000E+04   1.0064006E+04   1.0183926E+04   1.0178794E+04   1.0156982E+04   1.0067383E+04   9.9911035E+03   9.9327842E+03   9.8710127E+03   9.8168389E+03   9.9249902E+03   9.9204521E+03   9.7938574E+03   9.7039883E+03   9.6235879E+03   9.5580850E+03   9.4887354E+03   9.4273770E+03   9.5204023E+03   9.5142881E+03   9.3290811E+03   9.2396426E+03   9.1554297E+03   9.0821631E+03   9.0061357E+03   8.9379990E+03   9.0116592E+03   8.9994346E+03   8.7838975E+03   8.6966748E+03   8.6095498E+03   8.5302109E+03   8.4481162E+03   8.3723291E+03   8.4244648E+03   8.4021953E+03   8.1639805E+03   8.0817451E+03   7.9945850E+03   7.9094932E+03   7.8228281E+03   7.7389229E+03   7.7677793E+03   7.7358750E+03   7.4775249E+03   7.4017651E+03   7.3162646E+03   7.2276152E+03   7.1357207E+03   7.0467817E+03   7.0545547E+03   7.0131401E+03   6.7440186E+03   6.6740566E+03   6.5907319E+03   6.5006279E+03   6.4037441E+03   6.3133491E+03   6.3074536E+03   6.2574482E+03   5.9930278E+03   5.9267217E+03   5.8452114E+03   5.7555610E+03   5.6568872E+03   5.5668472E+03   5.5586055E+03   5.5060405E+03   5.2566650E+03   5.1915928E+03   5.1121357E+03   5.0249492E+03   4.9291504E+03   4.8437261E+03   4.8386309E+03   4.7937212E+03   4.5616748E+03   4.4966147E+03   4.4205327E+03   4.3391812E+03   4.2510991E+03   4.1746240E+03   4.1659302E+03   4.1137437E+03   3.9266580E+03   3.8618740E+03   3.7928157E+03   3.7220056E+03   3.6440073E+03   3.5713484E+03   3.5395723E+03   3.4459414E+03   3.3600308E+03   3.2988965E+03   3.2409443E+03   3.1849194E+03   3.1201050E+03   3.0500732E+03   2.9851602E+03   2.8352842E+03   2.8637744E+03   2.8109543E+03   2.7686702E+03   2.7289683E+03   2.6762292E+03   2.6153438E+03   2.5197712E+03   2.4382632E+03   2.3991484E+03   2.3741650E+03   2.3464229E+03   2.2990366E+03   2.2382742E+03   2.1263774E+03   2.0833130E+03   2.0612729E+03   2.0480298E+03   2.0157643E+03   1.9656100E+03   1.8941995E+03   1.7985564E+03   1.7885719E+03   1.7662314E+03   1.7147770E+03   1.6484059E+03   1.5860060E+03   1.5726113E+03   1.5506442E+03   1.4998057E+03   1.4272323E+03   1.3655858E+03   1.3668097E+03   1.3134137E+03   1.2356801E+03   1.1714036E+03   1.1445125E+03   1.0763615E+03   1.0084749E+03   1.0215630E+03   9.4663080E+02   9.2052692E+02   8.6320044E+02 
Type 1 2975 float
0 0 0 0 0 0 0 0 0 0 0 0 0 0 0 0 0 0 0 0 0 0 0 0 0 0 0 0 0 0 0 0 0 0 0 0 0 0 0 0 0 0 0 0 0 0 0 0 0 0 0 0 0 0 0 0 0 0 0 0 0 0 0 0 0 0 0 0 0 0 0 0 0 0 0 0 0 0 0 0 0 0 0 0 0 0 0 0 0 0 0 0 0 0 0 0 0 0 0 0 0 0 0 0 0 0 0 0 0 0 0 0 0 0 0 0 0 0 0 0 0 0 0 0 0 0 0 0 0 0 0 0 0 0 0 0 0 0 0 0 0 0 0 0 0 0 0 0 0 0 0 0 0 0 0 0 0 0 0 0 0 0 0 0 0 0 0 0 0 0 0 0 0 0 0 0 0 0 0 0 0 0 0 0 0 0 0 0 0 0 0 0 0 0 0 0 0 0 0 0 0 0 0 0 0 0 0 0 0 0 0 0 0 0 0 0 0 0 0 0 0 0 0 0 0 0 0 0 0 0 0 0 0 0 0 0 0 0 0 0 0 0 0 0 0 0 0 0 0 0 0 0 0 0 0 0 0 0 0 0 0 0 0 0 0 0 0 0 0 0 0 0 0 0 0 0 0 0 0 0 0 0 0 0 0 0 0 0 0 0 0 0 0 0 0 0 0 0 0 0 0 0 0 0 0 0 0 0 0 0 0 0 0 0 0 0 0 0 0 0 0 0 0 0 0 0 0 0 0 0 0 0 0 0 0 0 0 0 0 0 0 0 0 0 0 0 0 0 0 0 0 0 0 0 0 0 0 0 0 0 0 0 0 0 0 0 0 0 0 0 0 0 0 0 0 0 0 0 0 0 0 0 0 0 0 0 0 0 0 0 0 0 0 0 0 0 0 0 0 0 0 0 0 0 0 0 0 0 0 0 0 0 0 0 0 0 0 0 0 0 0 0 0 0 0 0 0 0 0 0 0 0 0 0 0 0 0 0 0 0 0 0 0 0 0 0 0 0 0 0 0 0 0 0 0 0 0 0 0 0 0 0 0 0 0 0 0 0 0 0 0 0 0 0 0 0 0 0 0 0 0 0 0 0 0 0 0 0 0 0 0 0 0 0 0 0 0 0 0 0 0 0 0 0 0 0 0 0 0 0 0 0 0 0 0 0 0 0 0 0 0 0 0 0 0 0 0 0 0 0 0 0 0 0 0 0 0 0 0 0 0 0 0 0 0 0 0 0 0 0 0 0 0 0 0 0 0 0 0 0 0 0 0 0 0 0 0 0 0 0 0 0 0 0 0 0 0 0 0 0 0 0 0 0 0 0 0 0 0 0 0 0 0 0 0 0 0 0 0 0 0 0 0 0 0 0 0 0 0 0 0 0 0 0 0 0 0 0 0 0 0 0 0 0 0 0 0 0 0 0 0 0 0 0 0 0 0 0 0 0 0 0 0 0 0 0 0 0 0 0 0 0 0 0 0 0 0 0 0 0 0 0 0 0 0 0 0 0 0 0 0 0 0 0 0 0 0 0 0 0 0 0 0 0 0 0 0 0 0 0 0 0 0 0 0 0 0 0 0 0 0 0 0 0 0 0 0 0 0 0 0 0 0 0 0 0 0 0 0 0 0 0 0 0 0 0 0 0 0 0 0 0 0 0 0 0 0 0 0 0 0 0 0 0 0 0 0 0 0 0 0 0 0 0 0 0 0 0 0 0 0 0 0 0 0 0 0 0 0 0 0 0 0 0 0 0 0 0 0 0 0 0 0 0 0 0 0 0 0 0 0 0 0 0 0 0 0 0 0 0 0 0 0 0 0 0 0 0 0 0 0 0 0 0 0 0 0 0 0 0 0 0 0 0 0 0 0 0 0 0 0 0 0 0 0 0 0 0 0 0 0 0 0 0 0 0 0 0 0 0 0 0 0 0 0 0 0 0 0 0 0 0 0 0 0 0 0 0 0 0 0 0 0 0 0 0 0 0 0 0 0 0 0 0 0 0 0 0 0 0 0 0 0 0 0 0 0 0 0 0 0 0 0 0 0 0 0 0 0 0 0 0 0 0 0 0 0 0 0 0 0 0 0 0 0 0 0 0 0 0 0 0 0 0 0 0 0 0 0 0 0 0 0 0 0 0 0 0 0 0 0 0 0 0 0 0 0 0 0 0 0 0 0 0 0 0 0 0 0 0 0 0 0 0 0 0 0 0 0 0 0 0 0 0 0 0 0 0 0 0 0 0 0 0 0 0 0 0 0 0 0 0 0 0 0 0 0 0 0 0 0 0 0 0 0 0 0 0 0 0 0 0 0 0 0 0 0 0 0 0 0 3 3 3 3 3 3 3 3 3 3 3 3 3 3 3 3 3 3 3 3 3 3 3 3 3 3 3 3 3 3 3 3 3 3 3 3 3 3 3 3 3 3 3 3 3 3 3 3 3 3 3 3 3 3 3 3 3 3 3 3 3 3 3 3 3 3 3 3 3 3 3 3 3 3 3 3 3 3 3 3 3 3 3 3 3 3 3 3 3 3 3 3 3 3 3 3 3 3 3 3 3 3 3 3 3 3 3 3 3 3 3 3 3 3 3 3 3 3 3 3 3 3 3 3 3 3 3 3 3 3 3 3 3 3 3 3 3 3 3 3 3 3 3 3 3 3 3 3 3 3 3 3 3 3 3 3 3 3 3 3 3 3 3 3 3 3 3 3 3 3 3 3 3 3 3 3 3 3 3 3 3 3 3 3 3 3 3 3 3 3 3 3 3 3 3 3 3 3 3 3 3 3 3 3 3 3 3 3 3 3 3 3 3 3 3 3 3 3 3 3 3 3 3 3 3 3 3 3 3 3 3 3 3 3 3 3 3 3 3 3 3 3 3 3 3 3 3 3 3 3 3 3 3 3 3 3 3 3 3 3 3 3 3 3 3 3 3 3 3 3 3 3 3 3 3 3 3 3 3 3 3 3 3 3 3 3 3 3 3 3 3 3 3 3 3 3 3 3 3 3 3 3 3 3 3 3 3 3 3 3 3 3 3 3 3 3 3 3 3 3 3 3 3 3 3 3 3 3 3 3 3 3 3 3 3 3 3 3 3 3 3 3 3 3 3 3 3 3 3 3 3 3 3 3 3 3 3 3 3 3 3 3 3 3 3 3 3 3 3 3 3 3 3 3 3 3 3 3 3 3 3 3 3 3 3 3 3 3 3 3 3 3 3 3 3 3 3 3 3 3 3 3 3 3 3 3 3 3 3 3 3 3 3 3 3 3 3 3 3 3 3 3 3 3 3 3 3 3 3 3 3 3 3 3 3 3 3 3 3 3 3 3 3 3 3 3 3 3 3 3 3 3 3 3 3 3 3 3 3 3 3 3 3 3 3 3 3 3 3 3 3 3 3 3 3 3 3 3 3 3 3 3 3 3 3 3 3 3 3 3 3 3 3 3 3 3 3 3 3 3 3 3 3 3 3 3 3 3 3 3 3 3 3 3 3 3 3 3 3 3 3 3 3 3 3 3 3 3 3 3 3 3 3 3 3 3 3 3 3 3 3 3 3 3 3 3 3 3 3 3 3 3 3 3 3 3 3 3 3 3 3 3 3 3 3 3 3 3 3 3 3 3 3 3 3 3 3 3 3 3 3 3 3 3 3 3 3 3 3 3 3 3 3 3 3 3 3 3 3 3 3 3 3 3 3 3 3 3 3 3 3 3 3 3 3 3 3 3 3 3 3 3 3 3 3 3 3 3 3 3 3 3 3 3 3 3 3 3 3 3 3 3 3 3 3 3 3 3 3 3 3 3 3 3 3 3 3 3 3 3 3 3 3 3 3 3 3 3 3 3 3 3 3 3 3 3 3 3 3 3 3 3 3 3 3 3 3 3 3 3 3 3 3 3 3 3 3 3 3 3 3 3 3 3 3 3 3 3 3 3 3 3 3 3 3 3 3 3 3 3 3 3 3 3 3 3 3 3 3 3 3 3 3 3 3 3 3 3 3 3 3 3 3 3 3 3 3 3 3 3 3 3 3 3 3 3 3 3 3 3 3 3 3 3 3 3 3 3 3 3 3 3 3 3 3 3 3 3 3 3 3 3 3 3 3 3 3 3 3 3 3 3 3 3 3 3 3 3 3 3 3 3 3 3 3 3 3 3 3 3 3 3 3 3 3 3 3 3 3 3 3 3 3 3 3 3 3 3 3 3 3 3 3 3 3 3 3 3 3 3 3 3 3 3 3 3 3 3 3 3 3 3 3 3 3 3 3 3 3 3 3 3 3 3 3 3 3 3 3 3 3 3 3 3 3 3 3 3 3 3 3 3 3 3 3 3 3 3 3 3 3 3 3 3 3 3 3 3 3 3 3 3 3 3 3 3 3 3 3 3 3 3 3 3 3 3 3 3 3 3 3 3 3 3 3 3 3 3 3 3 3 3 3 3 3 3 3 3 3 3 3 3 3 3 3 3 3 3 3 3 3 3 3 3 3 3 3 3 3 3 3 3 3 3 3 3 3 3 3 3 3 3 3 3 3 3 3 3 3 3 3 3 3 3 3 3 3 3 3 3 3 3 3 3 3 3 3 3 3 3 3 3 3 3 3 3 3 3 3 3 3 3 3 3 3 3 3 3 3 3 3 3 3 3 3 3 3 3 3 3 3 3 3 3 3 3 3 3 3 3 3 3 3 3 3 3 3 3 3 3 3 3 3 3 3 3 3 3 3 3 3 3 3 3 3 3 3 3 3 3 3 3 3 3 3 3 3 3 3 3 3 3 3 3 3 3 3 3 3 3 3 3 3 3 3 3 3 3 3 3 3 3 3 3 3 3 3 3 3 3 3 3 3 3 3 3 3 3 3 3 3 3 3 3 3 3 3 3 3 3 3 3 3 3 3 3 3 3 3 3 3 3 3 3 3 3 3 3 3 3 3 3 3 3 3 3 3 3 3 3 3 3 3 3 3 3 3 3 3 3 3 3 3 3 3 3 3 3 3 3 3 3 3 3 3 3 3 3 3 3 3 3 3 3 3 3 3 3 3 3 3 3 3 3 3 3 3 3 3 3 3 3 3 3 3 3 3 3 3 3 3 3 3 3 3 3 3 3 3 3 3 3 3 3 3 3 3 3 3 3 3 3 3 3 3 3 3 3 3 3 3 3 3 3 3 3 3 3 3 3 3 3 3 3 3 3 3 3 3 3 3 3 3 3 3 3 3 3 3 3 3 3 3 3 3 3 3 3 3 3 3 3 3 3 3 3 3 3 3 3 3 3 3 3 3 3 3 3 3 3 3 3 3 3 3 3 3 3 3 3 3 3 3 3 3 3 3 3 3 3 3 3 3 3 3 3 3 3 3 3 3 3 3 3 3 3 3 3 3 3 3 3 3 3 3 3 3 3 3 3 3 3 3 3 3 3 3 3 3 3 3 3 3 3 3 3 3 3 3 3 3 3 3 3 3 3 3 3 3 3 3 3 3 3 3 3 3 3 3 3 3 3 3 3 3 3 3 3 3 3 3 3 3 3 3 3 3 3 3 3 3 3 3 3 3 3 3 3 3 3 3 3 3 3 3 3 3 3 3 3 3 3 3 3 3 3 3 3 3 3 3 3 3 3 3 3 3 3 3 3 3 3 3 3 3 3 3 3 3 3 3 3 3 3 3 3 3 3 3 3 3 3 3 3 3 3 3 3 3 3 3 3 3 3 3 3 3 3 3 3 3 3 3 3 3 3 3 3 3 3 3 3 3 3 3 3 3 3 3 3 3 3 3 3 3 3 3 3 3 3 3 3 3 3 3 3 3 3 3 3 3 3 3 3 3 3 3 3 3 3 3 3 3 3 3 3 3 3 3 3 3 3 3 3 3 3 3 3 3 3 3 3 3 3 3 3 3 3 3 3 3 3 3 3 3 3 3 3 3 3 3 3 3 3 3 3 3 3 3 3 3 3 3 3 3 3 3 3 3 3 3 3 3 3 3 3 3 3 3 3 3 3 3 3 3 3 3 3 3 3 3 3 3 3 3 3 3 3 3 3 3 3 3 3 3 3 3 3 3 3 3 3 3 3 3 3 3 3 3 3 3 3 3 3 3 3 3 3 3 3 3 3 3 3 3 3 3 3 3 3 3 3 3 3 3 3 3 3 3 3 3 3 3 3 3 3 3 3 3 3 3 3 3 3 3 3 3 3 3 3 3 3 3 3 3 3 3 3 3 3 3 3 3 3 3 3 3 3 3 3 3 3 3 3 3 3 3 3 3 3 3 3 3 3 3 3 3 3 3 3 3 3 3 3 3 3 3 3 3 3 3 3 3 3 3 3 3 3 3 3 3 3 3 3 3 3 3 3 3 3 3 3 3 3 3 3 3 3 3 3 3 3 3 3 3 3 3 3 3 3 3 3 3 3 3 3 3 3 3 3 3 3 3 3 3 3 3 3 3 3 3 3 3 3 3 3 3 3 3 3 3 3 3 3 3 3 3 3 3 3 3 3 3 3 3 3 3 3 3 3 3 3 3 3 3 3 3 3 3 3 3 3 3 3 3 3 3 3 3 3 3 3 3 3 3 3 3 3 3 3 3 3 3 3 3 3 3 3 3 3 3 3 3 3 3 3 3 3 3 3 3 3 3 3 3 3 3 3 3 3 3 3 3 3 3 3 3 3 3 3 3 3 3 3 3 3 3 3 3 3 3 3 3 3 3 3 3 3 3 3 3 3 3 3 
CellOffSpring 1 2975 float
0 0 0 0 0 0 0 0 0 0 0 0 0 0 0 0 0 0 0 0 0 0 0 0 0 0 0 0 0 0 0 0 0 0 0 0 0 0 0 0 0 0 0 0 0 0 0 0 0 0 0 0 0 0 0 0 0 0 0 0 0 0 0 0 0 0 0 0 0 0 0 0 0 0 0 0 0 0 0 0 0 0 0 0 0 0 0 0 0 0 0 0 0 0 0 0 0 0 0 0 0 0 0 0 0 0 0 0 0 0 0 0 0 0 0 0 0 0 0 0 0 0 0 0 0 0 0 0 0 0 0 0 0 0 0 0 0 0 0 0 0 0 0 0 0 0 0 0 0 0 0 0 0 0 0 0 0 0 0 0 0 0 0 0 0 0 0 0 0 0 0 0 0 0 0 0 0 0 0 0 0 0 0 0 0 0 0 0 0 0 0 0 0 0 0 0 0 0 0 0 0 0 0 0 0 0 0 0 0 0 0 0 0 0 0 0 0 0 0 0 0 0 0 0 0 0 0 0 0 0 0 0 0 0 0 0 0 0 0 0 0 0 0 0 0 0 0 0 0 0 0 0 0 0 0 0 0 0 0 0 0 0 0 0 0 0 0 0 0 0 0 0 0 0 0 0 0 0 0 0 0 0 0 0 0 0 0 0 0 0 0 0 0 0 0 0 0 0 0 0 0 0 0 0 0 0 0 0 0 0 0 0 0 0 0 0 0 0 0 0 0 0 0 0 0 0 0 0 0 0 0 0 0 0 0 0 0 0 0 0 0 0 0 0 0 0 0 0 0 0 0 0 0 0 0 0 0 0 0 0 0 0 0 0 0 0 0 0 0 0 0 0 0 0 0 0 0 0 0 0 0 0 0 0 0 0 0 0 0 0 0 0 0 0 0 0 0 0 0 0 0 0 0 0 0 0 0 0 0 0 0 0 0 0 0 0 0 0 0 0 0 0 0 0 0 0 0 0 0 0 0 0 0 0 0 0 0 0 0 0 0 0 0 0 0 0 0 0 0 0 0 0 0 0 0 0 0 0 0 0 0 0 0 0 0 0 0 0 0 0 0 0 0 0 0 0 0 0 0 0 0 0 0 0 0 0 0 0 0 0 0 0 0 0 0 0 0 0 0 0 0 0 0 0 0 0 0 0 0 0 0 0 0 0 0 0 0 0 0 0 0 0 0 0 0 0 0 0 0 0 0 0 0 0 0 0 0 0 0 0 0 0 0 0 0 0 0 0 0 0 0 0 0 0 0 0 0 0 0 0 0 0 0 0 0 0 0 0 0 0 0 0 0 0 0 0 0 0 0 0 0 0 0 0 0 0 0 0 0 0 0 0 0 0 0 0 0 0 0 0 0 0 0 0 0 0 0 0 0 0 0 0 0 0 0 0 0 0 0 0 0 0 0 0 0 0 0 0 0 0 0 0 0 0 0 0 0 0 0 0 0 0 0 0 0 0 0 0 0 0 0 0 0 0 0 0 0 0 0 0 0 0 0 0 0 0 0 0 0 0 0 0 0 0 0 0 0 0 0 0 0 0 0 0 0 0 0 0 0 0 0 0 0 0 0 0 0 0 0 0 0 0 0 0 0 0 0 0 0 0 0 0 0 0 0 0 0 0 0 0 0 0 0 0 0 0 0 0 0 0 0 0 0 0 0 0 0 0 0 0 0 0 0 0 0 0 0 0 0 0 0 0 0 0 0 0 0 0 0 0 0 0 0 0 0 0 0 0 0 0 0 0 0 0 0 0 0 0 0 0 0 0 0 0 0 0 0 0 0 0 0 0 0 0 0 0 0 0 0 0 0 0 0 0 0 0 0 0 0 0 0 0 0 0 0 0 0 0 0 0 0 0 0 0 0 0 0 0 0 0 0 0 0 0 0 0 0 0 0 0 0 0 0 0 0 0 0 0 0 0 0 0 0 0 0 0 0 0 0 0 0 0 0 0 0 0 0 0 0 0 0 0 0 0 0 0 0 0 0 0 0 0 0 0 0 0 0 0 0 0 0 0 0 0 0 0 0 0 0 0 0 0 0 0 0 0 0 0 0 0 0 0 0 0 0 0 0 0 0 0 0 0 0 0 0 0 0 0 0 0 0 0 0 0 0 0 0 0 0 0 0 0 0 0 0 0 0 0 0 0 0 0 0 0 0 0 0 0 0 0 0 0 0 0 0 0 0 0 0 0 0 0 0 0 0 0 0 0 0 0 0 0 0 0 0 0 0 0 0 0 0 0 0 0 0 0 0 0 0 0 0 0 0 0 0 0 0 0 0 0 0 0 0 0 0 0 0 0 0 0 0 0 0 0 0 0 0 0 0 0 0 0 0 0 0 0 0 0 0 0 0 0 0 0 0 0 0 0 0 0 0 0 0 0 0 0 0 0 0 0 0 0 0 0 0 0 0 0 0 0 0 0 0 0 0 0 0 0 0 0 0 0 0 0 0 0 0 0 0 0 0 0 0 0 0 0 0 0 0 0 0 0 0 0 0 0 0 0 0 0 0 0 0 0 0 0 0 0 0 0 0 0 0 0 0 0 0 0 0 0 0 0 0 0 0 0 0 0 0 0 0 0 0 0 0 0 0 0 0 0 0 0 0 0 0 0 0 0 0 0 0 0 0 0 0 0 0 0 0 0 0 0 0 0 0 0 0 0 0 0 0 0 0 0 0 0 0 0 0 0 0 0 0 0 0 0 0 0 0 0 0 0 0 0 0 0 0 0 0 0 0 0 0 0 0 0 0 0 0 0 0 0 0 0 0 0 0 0 0 0 0 0 0 0 0 0 0 0 0 0 0 0 0 0 0 0 0 0 0 0 0 0 0 0 0 0 0 0 0 0 0 0 0 0 0 0 0 0 0 0 0 0 0 0 0 0 0 0 0 0 0 0 0 0 0 0 0 0 0 0 0 0 0 0 0 0 0 0 0 0 0 0 0 0 0 0 0 0 0 0 0 0 0 0 0 0 0 0 0 0 0 0 0 0 0 0 0 0 0 0 0 0 0 0 0 0 0 0 0 0 0 0 0 0 0 0 0 0 0 0 0 0 0 0 0 0 0 0 0 0 0 0 0 0 0 0 0 0 0 0 0 0 0 0 0 0 0 0 0 0 0 0 0 0 0 0 0 0 0 0 0 0 0 0 0 0 0 0 0 0 0 0 0 0 0 0 0 0 0 0 0 0 0 0 0 0 0 0 0 0 0 0 0 0 0 0 0 0 0 0 0 0 0 0 0 0 0 0 0 0 0 0 0 0 0 0 0 0 0 0 0 0 0 0 0 0 0 0 0 0 0 0 0 0 0 0 0 0 0 0 0 0 0 0 0 0 0 0 0 0 0 0 0 0 0 0 0 0 0 0 0 0 0 0 0 0 0 0 0 0 0 0 0 0 0 0 0 0 0 0 0 0 0 0 0 0 0 0 0 0 0 0 0 0 0 0 0 0 0 0 0 0 0 0 0 0 0 0 0 0 0 0 0 0 0 0 0 0 0 0 0 0 0 0 0 0 0 0 0 0 0 0 0 0 0 0 0 0 0 0 0 0 0 0 0 0 0 0 0 0 0 0 0 0 0 0 0 0 0 0 0 0 0 0 0 0 0 0 0 0 0 0 0 0 0 0 0 0 0 0 0 0 0 0 0 0 0 0 0 0 0 0 0 0 0 0 0 0 0 0 0 0 0 0 0 0 0 0 0 0 0 0 0 0 0 0 0 0 0 0 0 0 0 0 0 0 0 0 0 0 0 0 0 0 0 0 0 0 0 0 0 0 0 0 0 0 0 0 0 0 0 0 0 0 0 0 0 0 0 0 0 0 0 0 0 0 0 0 0 0 0 0 0 0 0 0 0 0 0 0 0 0 0 0 0 0 0 0 0 0 0 0 0 0 0 0 0 0 0 0 0 0 0 0 0 0 0 0 0 0 0 0 0 0 0 0 0 0 0 0 0 0 0 0 0 0 0 0 0 0 0 0 0 0 0 0 0 0 0 0 0 0 0 0 0 0 0 0 0 0 0 0 0 0 0 0 0 0 0 0 0 0 0 0 0 0 0 0 0 0 0 0 0 0 0 0 0 0 0 0 0 0 0 0 0 0 0 0 0 0 0 0 0 0 0 0 0 0 0 0 0 0 0 0 0 0 0 0 0 0 0 0 0 0 0 0 0 0 0 0 0 0 0 0 0 0 0 0 0 0 0 0 0 0 0 0 0 0 0 0 0 0 0 0 0 0 0 0 0 0 0 0 0 0 0 0 0 0 0 0 0 0 0 0 0 0 0 0 0 0 0 0 0 0 0 0 0 0 0 0 0 0 0 0 0 0 0 0 0 0 0 0 0 0 0 0 0 0 0 0 0 0 0 0 0 0 0 0 0 0 0 0 0 0 0 0 0 0 0 0 0 0 0 0 0 0 0 0 0 0 0 0 0 0 0 0 0 0 0 0 0 0 0 0 0 0 0 0 0 0 0 0 0 0 0 0 0 0 0 0 0 0 0 0 0 0 0 0 0 0 0 0 0 0 0 0 0 0 0 0 0 0 0 0 0 0 0 0 0 0 0 0 0 0 0 0 0 0 0 0 0 0 0 0 0 0 0 0 0 0 0 0 0 0 0 0 0 0 0 0 0 0 0 0 0 0 0 0 0 0 0 0 0 0 0 0 0 0 0 0 0 0 0 0 0 0 0 0 0 0 0 0 0 0 0 0 0 0 0 0 0 0 0 0 0 0 0 0 0 0 0 0 0 0 0 0 0 0 0 0 0 0 0 0 0 0 0 0 0 0 0 0 0 0 0 0 0 0 0 0 0 0 0 0 0 0 0 0 0 0 0 0 0 0 0 0 0 0 0 0 0 0 0 0 0 0 0 0 0 0 0 0 0 0 0 0 0 0 0 0 0 0 0 0 0 0 0 0 0 0 0 0 0 0 0 0 0 0 0 0 0 0 0 0 0 0 0 0 0 0 0 0 0 0 0 0 0 0 0 0 0 0 0 0 0 0 0 0 0 0 0 0 0 0 0 0 0 0 0 0 0 0 0 0 0 0 0 0 0 0 0 0 0 0 0 0 0 0 0 0 0 0 0 0 0 0 0 0 0 0 0 0 0 0 0 0 0 0 0 0 0 0 0 0 0 0 0 0 0 0 0 0 0 0 0 0 0 0 0 0 0 0 0 0 0 0 0 0 0 0 0 0 0 0 0 0 0 0 0 0 0 0 0 0 0 0 0 0 0 0 0 0 0 0 0 0 0 0 0 0 0 0 0 0 0 0 0 0 0 0 0 0 0 0 0 0 0 0 0 0 0 0 0 0 0 0 0 0 0 0 0 0 0 0 0 0 0 0 0 0 0 0 0 0 0 0 0 0 0 0 0 0 0 0 0 0 0 0 0 0 0 0 0 0 0 0 0 0 0 0 0 0 0 0 0 0 0 0 0 0 0 0 0 0 0 0 0 0 0 0 0 0 0 0 0 0 0 0 0 0 0 0 0 0 0 0 0 0 0 0 0 0 0 0 0 0 0 0 0 0 0 0 0 0 0 0 0 0 0 0 0 0 0 0 0 0 0 0 0 0 0 0 0 0 0 0 0 0 0 0 0 0 0 0 0 0 0 0 0 0 0 0 0 0 0 0 0 0 0 0 0 0 0 0 0 0 0 0 0 0 0 0 0 0 0 0 0 0 0 0 0 0 0 0 0 0 0 0 0 0 0 0 0 0 0 0 0 0 0 0 0 0 0 0 0 0 0 0 0 0 0 0 0 0 0 0 0 0 0 0 0 0 0 0 0 0 0 0 0 0 0 0 0 0 0 0 0 0 0 0 0 0 0 0 0 0 0 0 0 0 0 0 0 0 0 0 0 0 0 0 0 0 0 0 0 0 0 0 0 0 0 0 0 0 0 0 0 0 0 0 0 0 0 0 0 0 0 0 0 0 0 0 0 0 0 0 0 0 0 0 0 0 0 0 0 0 0 0 0 0 0 0 0 0 0 0 0 0 0 0 0 0 0 0 0 0 0 0 0 0 0 0 0 0 0 0 0 0 0 0 0 0 0 0 0 0 0 0 0 0 0 0 0 0 0 0 0 0 0 0 0 0 0 0 0 0 0 0 0 0 0 0 0 0 0 0 0 0 0 0 0 0 0 0 0 0 0 0 0 0 0 0 0 0 0 0 0 0 0 0 0 0 0 0 0 0 0 0 0 0 0 0 0 0 0 0 0 0 0 0 0 0 0 0 0 0 0 0 0 0 0 0 0 0 0 0 0 0 0 0 0 0 0 0 0 0 0 0 0 0 0 0 0 0 0 0 0 0 0 0 0 0 0 0 0 0 0 0 0 0 0 0 0 0 0 0 0 0 0 0 0 0 0 0 0 0 0 0 0 0 0 0 0 0 0 0 0 0 0 0 0 0 0 0 0 0 0 0 0 0 0 0 0 0 0 0 0 0 0 0 0 0 0 0 0 0 0 0 0 0 0 0 0 0 0 0 0 0 0 0 0 0 0 0 0 0 0 0 0 0 0 0 0 0 0 0 0 0 0 0 0 0 0 0 0 0 0 0 0 0 0 0 0 0 0 0 0 0 0 0 0 0 0 0 0 0 0 0 0 0 0 0 0 0 0 0 0 0 0 0 0 0 0 0 0 0 0 0 0 0 0 0 0 0 0 0 0 0 0 0 0 0 0 0 0 0 0 0 0 0 0 0 0 0 0 
GradVel 1 2975 float
  0.0000000E+00   0.0000000E+00   0.0000000E+00   0.0000000E+00   0.0000000E+00   0.0000000E+00   0.0000000E+00   0.0000000E+00   0.0000000E+00   0.0000000E+00   0.0000000E+00   0.0000000E+00   0.0000000E+00  -1.9177045E-07  -5.8632157E-21  -1.0139000E-06  -6.8459804E-06  -1.8694780E-06  -1.3579485E-05  -4.2746713E-05  -1.5789377E-05  -5.9928767E-05  -1.4400018E-04  -5.6520184E-05  -1.6524259E-04  -3.4737794E-04  -1.3453040E-04  -3.4469774E-04  -6.7184167E-04  -2.4948333E-04  -5.9472100E-04  -1.1077509E-03  -3.9020824E-04  -8.9399132E-04  -1.6190980E-03  -5.4150703E-04  -1.2154009E-03  -2.1630090E-03  -6.9388328E-04  -1.5434215E-03  -2.7190091E-03  -8.5080357E-04  -1.8870202E-03  -3.3082953E-03  -1.0315733E-03  -2.2877930E-03  -4.0085716E-03  -1.2742484E-03  -2.8272865E-03  -4.9650259E-03  -1.6442256E-03  -3.6424450E-03  -6.4092744E-03  -2.2633381E-03  -4.9604233E-03  -8.6906888E-03  -3.3513578E-03  -7.0989258E-03  -1.2221713E-02  -5.2440856E-03  -1.0343937E-02  -1.7213132E-02  -1.4890815E-02  -2.3587929E-02   0.0000000E+00   0.0000000E+00   0.0000000E+00   0.0000000E+00   0.0000000E+00   0.0000000E+00   0.0000000E+00   0.0000000E+00   0.0000000E+00   0.0000000E+00   0.0000000E+00   0.0000000E+00   0.0000000E+00   0.0000000E+00   0.0000000E+00   0.0000000E+00   0.0000000E+00   0.0000000E+00   0.0000000E+00   0.0000000E+00   0.0000000E+00   0.0000000E+00   0.0000000E+00   0.0000000E+00   0.0000000E+00  -3.4364483E-08  -2.1831822E-07  -5.1459739E-07  -7.6530483E-07  -9.0119255E-07  -9.9295812E-07  -1.0622638E-06  -1.6506840E-06  -5.3542753E-06  -1.1374282E-05  -1.8746199E-05  -2.5941798E-05  -3.1735868E-05  -3.5757901E-05  -3.8447335E-05  -2.0464868E-05  -4.3224609E-05  -7.4216761E-05  -1.0967909E-04  -1.4420340E-04  -1.7343339E-04  -1.9576360E-04  -2.1179467E-04  -9.3375791E-05  -1.6738835E-04  -2.6193363E-04  -3.6694203E-04  -4.6831180E-04  -5.5519544E-04  -6.2366738E-04  -6.7483482E-04  -2.7291139E-04  -4.5051335E-04  -6.7048363E-04  -9.1034337E-04  -1.1398073E-03  -1.3365793E-03  -1.4933738E-03  -1.6127750E-03  -6.0890522E-04  -9.5772045E-04  -1.3818619E-03  -1.8380969E-03  -2.2695654E-03  -2.6371870E-03  -2.9306442E-03  -3.1560995E-03  -1.1228423E-03  -1.7121119E-03  -2.4191325E-03  -3.1688593E-03  -3.8665074E-03  -4.4542649E-03  -4.9221232E-03  -5.2828528E-03  -1.7951198E-03  -2.6781657E-03  -3.7216013E-03  -4.8069572E-03  -5.7950788E-03  -6.6172956E-03  -7.2688391E-03  -7.7711414E-03  -2.5683728E-03  -3.7665570E-03  -5.1472224E-03  -3.3780341E-03  -4.8818551E-03  -4.2019011E-03  -6.0074427E-03  -5.0846529E-03  -7.2299978E-03  -6.1508808E-03  -8.7191360E-03  -7.6205470E-03  -1.0759280E-02  -9.8257894E-03  -1.3757419E-02  -1.3236937E-02  -1.8251376E-02  -1.8377025E-02  -2.4812959E-02  -2.5470756E-02  -3.3713982E-02  -3.4241382E-02  -4.4671521E-02   0.0000000E+00   0.0000000E+00   0.0000000E+00   0.0000000E+00   0.0000000E+00   0.0000000E+00   0.0000000E+00   0.0000000E+00   0.0000000E+00   0.0000000E+00   0.0000000E+00   0.0000000E+00   0.0000000E+00   0.0000000E+00   0.0000000E+00   0.0000000E+00   0.0000000E+00   0.0000000E+00   0.0000000E+00   0.0000000E+00   0.0000000E+00   0.0000000E+00   0.0000000E+00   0.0000000E+00   0.0000000E+00   0.0000000E+00   0.0000000E+00  -1.1118937E-06  -1.1453307E-06  -1.1662016E-06  -1.1779161E-06  -1.1834422E-06  -1.1851253E-06  -1.1847611E-06  -1.1836501E-06  -1.1826537E-06  -4.0380663E-05  -4.1733208E-05  -4.2622301E-05  -4.3162545E-05  -4.3456799E-05  -4.3590797E-05  -4.3631575E-05  -4.3627977E-05  -4.3613160E-05  -2.2302203E-04  -2.3091090E-04  -2.3623856E-04  -2.3960252E-04  -2.4155081E-04  -2.4254947E-04  -2.4296893E-04  -2.4308384E-04  -2.4308100E-04  -7.1179314E-04  -7.3784392E-04  -7.5567618E-04  -7.6720631E-04  -7.7412481E-04  -7.7788823E-04  -7.7966944E-04  -7.8034721E-04  -7.8052242E-04  -1.7008799E-03  -1.7639600E-03  -1.8075014E-03  -1.8360480E-03  -1.8535242E-03  -1.8633355E-03  -1.8682431E-03  -1.8703311E-03  -1.8710305E-03  -3.3246023E-03  -3.4467729E-03  -3.5318197E-03  -3.5879931E-03  -3.6227289E-03  -3.6425306E-03  -3.6526853E-03  -3.6572039E-03  -3.6588486E-03  -5.5544260E-03  -5.7529528E-03  -5.8919131E-03  -5.9839729E-03  -6.0410309E-03  -6.0736733E-03  -6.0905078E-03  -6.0980716E-03  -6.1008683E-03  -8.1503028E-03  -8.4284972E-03  -8.6234491E-03  -8.7522455E-03  -8.8316444E-03  -8.8767055E-03  -8.8996384E-03  -8.9097042E-03  -8.9132776E-03   0.0000000E+00   0.0000000E+00   0.0000000E+00   0.0000000E+00   0.0000000E+00   0.0000000E+00   0.0000000E+00   0.0000000E+00   0.0000000E+00   0.0000000E+00   0.0000000E+00   0.0000000E+00   0.0000000E+00   0.0000000E+00   0.0000000E+00   0.0000000E+00   0.0000000E+00   0.0000000E+00   0.0000000E+00   0.0000000E+00   0.0000000E+00   0.0000000E+00   0.0000000E+00   0.0000000E+00  -1.1822677E-06  -1.1826536E-06  -1.1836501E-06  -1.1847612E-06  -1.1851254E-06  -1.1834424E-06  -1.1779161E-06  -1.1662016E-06  -4.3606164E-05  -4.3613160E-05  -4.3627970E-05  -4.3631564E-05  -4.3590804E-05  -4.3456806E-05  -4.3162549E-05  -4.2622305E-05  -2.4306827E-04  -2.4308098E-04  -2.4308391E-04  -2.4296890E-04  -2.4254945E-04  -2.4155081E-04  -2.3960254E-04  -2.3623851E-04  -7.8054273E-04  -7.8052253E-04  -7.8034727E-04  -7.7966973E-04  -7.7788817E-04  -7.7412487E-04  -7.6720631E-04  -7.5567618E-04  -1.8711732E-03  -1.8710301E-03  -1.8703304E-03  -1.8682429E-03  -1.8633353E-03  -1.8535246E-03  -1.8360480E-03  -1.8075015E-03  -3.6592223E-03  -3.6588486E-03  -3.6572043E-03  -3.6526856E-03  -3.6425295E-03  -3.6227279E-03  -3.5879924E-03  -3.5318183E-03  -6.1015161E-03  -6.1008665E-03  -6.0980720E-03  -6.0905078E-03  -6.0736728E-03  -6.0410323E-03  -5.9839734E-03  -5.8919149E-03  -8.9140683E-03  -8.9132786E-03  -8.9097060E-03  -8.8996394E-03  -8.8767083E-03  -8.8316510E-03  -8.7522473E-03  -8.6234482E-03   0.0000000E+00   0.0000000E+00   0.0000000E+00   0.0000000E+00   0.0000000E+00   0.0000000E+00   0.0000000E+00   0.0000000E+00   0.0000000E+00   0.0000000E+00   0.0000000E+00   0.0000000E+00   0.0000000E+00   0.0000000E+00   0.0000000E+00   0.0000000E+00   0.0000000E+00   0.0000000E+00   0.0000000E+00   0.0000000E+00   0.0000000E+00   0.0000000E+00   0.0000000E+00   0.0000000E+00   0.0000000E+00   0.0000000E+00   0.0000000E+00  -1.1453305E-06  -1.1118939E-06  -1.0622640E-06  -9.9295846E-07  -9.0119255E-07  -7.6530489E-07  -5.1459750E-07  -2.1831822E-07  -3.4364493E-08  -4.1733198E-05  -4.0380666E-05  -3.8447331E-05  -3.5757890E-05  -3.1735864E-05  -2.5941796E-05  -1.8746201E-05  -1.1374284E-05  -5.3542753E-06  -2.3091093E-04  -2.2302207E-04  -2.1179472E-04  -1.9576363E-04  -1.7343341E-04  -1.4420343E-04  -1.0967912E-04  -7.4216761E-05  -4.3224609E-05  -7.3784380E-04  -7.1179308E-04  -6.7483482E-04  -6.2366750E-04  -5.5519555E-04  -4.6831180E-04  -3.6694194E-04  -2.6193366E-04  -1.6738835E-04  -1.7639595E-03  -1.7008804E-03  -1.6127754E-03  -1.4933740E-03  -1.3365794E-03  -1.1398075E-03  -9.1034331E-04  -6.7048386E-04  -4.5051341E-04  -3.4467722E-03  -3.3246018E-03  -3.1561002E-03  -2.9306444E-03  -2.6371863E-03  -2.2695654E-03  -1.8380971E-03  -1.3818622E-03  -9.5772097E-04  -5.7529514E-03  -5.5544260E-03  -5.2828528E-03  -4.9221264E-03  -4.4542640E-03  -3.8665084E-03  -3.1688605E-03  -2.4191332E-03  -1.7121126E-03  -8.4284991E-03  -8.1503028E-03  -7.7711404E-03  -7.2688400E-03  -6.6172956E-03  -5.7950802E-03  -4.8069577E-03  -3.7216030E-03  -2.6781664E-03  -5.1472215E-03  -3.7665584E-03  -4.8818570E-03  -6.0074427E-03  -7.2299968E-03  -8.7191351E-03  -1.0759283E-02  -1.3757421E-02  -1.8251378E-02  -2.4812963E-02  -3.3713985E-02  -4.4671506E-02   0.0000000E+00   0.0000000E+00   0.0000000E+00   0.0000000E+00   0.0000000E+00   0.0000000E+00   0.0000000E+00   0.0000000E+00   0.0000000E+00   0.0000000E+00   0.0000000E+00   0.0000000E+00   0.0000000E+00   0.0000000E+00   0.0000000E+00  -1.6506841E-06  -1.9177050E-07   0.0000000E+00   0.0000000E+00  -2.0464868E-05  -6.8459817E-06  -1.0139001E-06  -5.8632153E-21  -9.3375813E-05  -4.2746717E-05  -1.3579487E-05  -1.8694784E-06  -2.7291145E-04  -1.4400022E-04  -5.9928774E-05  -1.5789379E-05  -6.0890528E-04  -3.4737799E-04  -1.6524256E-04  -5.6520192E-05  -1.1228428E-03  -6.7184167E-04  -3.4469774E-04  -1.3453040E-04  -1.7951203E-03  -1.1077512E-03  -5.9472094E-04  -2.4948339E-04  -2.5683730E-03  -1.6190987E-03  -8.9399132E-04  -3.9020827E-04  -3.3780346E-03  -2.1630095E-03  -1.2154006E-03  -5.4150703E-04  -4.2019030E-03  -2.7190084E-03  -1.5434215E-03  -6.9388328E-04  -5.0846543E-03  -3.3082955E-03  -1.8870202E-03  -8.5080368E-04  -6.1508799E-03  -4.0085725E-03  -2.2877939E-03  -1.0315735E-03  -7.6205479E-03  -4.9650259E-03  -2.8272867E-03  -1.2742486E-03  -9.8257922E-03  -6.4092753E-03  -3.6424457E-03  -1.6442258E-03  -1.3236940E-02  -8.6906897E-03  -4.9604243E-03  -2.2633383E-03  -1.8377025E-02  -1.2221714E-02  -7.0989248E-03  -3.3513573E-03  -2.5470762E-02  -1.7213132E-02  -1.0343938E-02  -5.2440846E-03  -3.4241378E-02  -2.3587931E-02  -1.4890816E-02   0.0000000E+00   0.0000000E+00   0.0000000E+00   0.0000000E+00   0.0000000E+00   0.0000000E+00   0.0000000E+00   0.0000000E+00   0.0000000E+00   0.0000000E+00   0.0000000E+00   0.0000000E+00   0.0000000E+00   0.0000000E+00   0.0000000E+00   0.0000000E+00   0.0000000E+00   0.0000000E+00   0.0000000E+00   0.0000000E+00   0.0000000E+00   0.0000000E+00   0.0000000E+00   0.0000000E+00   0.0000000E+00   0.0000000E+00   0.0000000E+00   0.0000000E+00   0.0000000E+00   0.0000000E+00   0.0000000E+00   0.0000000E+00   0.0000000E+00   0.0000000E+00   0.0000000E+00   0.0000000E+00   0.0000000E+00   0.0000000E+00   0.0000000E+00   0.0000000E+00   0.0000000E+00   0.0000000E+00   0.0000000E+00   0.0000000E+00   0.0000000E+00   0.0000000E+00   0.0000000E+00   0.0000000E+00   0.0000000E+00   0.0000000E+00   0.0000000E+00   0.0000000E+00   0.0000000E+00   0.0000000E+00   0.0000000E+00   0.0000000E+00   0.0000000E+00   0.0000000E+00   0.0000000E+00   0.0000000E+00   0.0000000E+00   0.0000000E+00   0.0000000E+00   0.0000000E+00   0.0000000E+00   0.0000000E+00   0.0000000E+00   0.0000000E+00   0.0000000E+00   0.0000000E+00   0.0000000E+00   0.0000000E+00   0.0000000E+00   0.0000000E+00   0.0000000E+00   0.0000000E+00   0.0000000E+00   0.0000000E+00   0.0000000E+00   0.0000000E+00   0.0000000E+00   0.0000000E+00   0.0000000E+00   0.0000000E+00   0.0000000E+00   0.0000000E+00   0.0000000E+00   0.0000000E+00   0.0000000E+00   0.0000000E+00   0.0000000E+00   0.0000000E+00   0.0000000E+00   0.0000000E+00   0.0000000E+00   0.0000000E+00   0.0000000E+00   0.0000000E+00   0.0000000E+00   0.0000000E+00   0.0000000E+00   0.0000000E+00   0.0000000E+00   0.0000000E+00   0.0000000E+00   0.0000000E+00   0.0000000E+00   0.0000000E+00   0.0000000E+00   0.0000000E+00   0.0000000E+00   0.0000000E+00   0.0000000E+00   0.0000000E+00   0.0000000E+00   0.0000000E+00   0.0000000E+00   0.0000000E+00   0.0000000E+00   0.0000000E+00   0.0000000E+00   0.0000000E+00   0.0000000E+00   0.0000000E+00   0.0000000E+00   0.0000000E+00   0.0000000E+00   0.0000000E+00   0.0000000E+00   0.0000000E+00   0.0000000E+00   0.0000000E+00   0.0000000E+00   0.0000000E+00   0.0000000E+00   0.0000000E+00   0.0000000E+00   0.0000000E+00   0.0000000E+00   0.0000000E+00   0.0000000E+00   0.0000000E+00   0.0000000E+00   0.0000000E+00   0.0000000E+00   0.0000000E+00   0.0000000E+00   0.0000000E+00   0.0000000E+00   0.0000000E+00   0.0000000E+00   0.0000000E+00   0.0000000E+00   0.0000000E+00   0.0000000E+00   0.0000000E+00   0.0000000E+00   0.0000000E+00   0.0000000E+00   0.0000000E+00   0.0000000E+00   0.0000000E+00   0.0000000E+00   0.0000000E+00   0.0000000E+00   0.0000000E+00   0.0000000E+00   0.0000000E+00   0.0000000E+00   0.0000000E+00   0.0000000E+00   0.0000000E+00   0.0000000E+00   0.0000000E+00   0.0000000E+00   0.0000000E+00   0.0000000E+00   0.0000000E+00   0.0000000E+00   0.0000000E+00   0.0000000E+00   0.0000000E+00   0.0000000E+00   0.0000000E+00   0.0000000E+00   0.0000000E+00   0.0000000E+00   0.0000000E+00   0.0000000E+00   0.0000000E+00   0.0000000E+00   0.0000000E+00   0.0000000E+00   0.0000000E+00   0.0000000E+00   0.0000000E+00   0.0000000E+00   0.0000000E+00   0.0000000E+00   0.0000000E+00   0.0000000E+00   0.0000000E+00   0.0000000E+00   0.0000000E+00   0.0000000E+00   0.0000000E+00   0.0000000E+00   0.0000000E+00   0.0000000E+00   0.0000000E+00   0.0000000E+00   0.0000000E+00   0.0000000E+00   0.0000000E+00   0.0000000E+00   0.0000000E+00   0.0000000E+00   0.0000000E+00   0.0000000E+00   0.0000000E+00   0.0000000E+00   0.0000000E+00   0.0000000E+00   0.0000000E+00   0.0000000E+00   0.0000000E+00   0.0000000E+00   0.0000000E+00   0.0000000E+00   0.0000000E+00   0.0000000E+00   0.0000000E+00   0.0000000E+00   0.0000000E+00   0.0000000E+00   0.0000000E+00   0.0000000E+00   0.0000000E+00   0.0000000E+00   0.0000000E+00   0.0000000E+00   0.0000000E+00   0.0000000E+00   0.0000000E+00   0.0000000E+00   0.0000000E+00   0.0000000E+00   0.0000000E+00   0.0000000E+00   0.0000000E+00   0.0000000E+00   0.0000000E+00   0.0000000E+00   0.0000000E+00   0.0000000E+00   0.0000000E+00   0.0000000E+00   0.0000000E+00   0.0000000E+00   0.0000000E+00   0.0000000E+00   0.0000000E+00   0.0000000E+00   0.0000000E+00   0.0000000E+00   0.0000000E+00   0.0000000E+00   0.0000000E+00   0.0000000E+00   0.0000000E+00   0.0000000E+00   0.0000000E+00   0.0000000E+00   0.0000000E+00   0.0000000E+00   0.0000000E+00   0.0000000E+00   0.0000000E+00   0.0000000E+00   0.0000000E+00   0.0000000E+00   0.0000000E+00   0.0000000E+00   0.0000000E+00   0.0000000E+00   0.0000000E+00   0.0000000E+00   0.0000000E+00   0.0000000E+00   0.0000000E+00   0.0000000E+00   0.0000000E+00   0.0000000E+00   0.0000000E+00   0.0000000E+00   0.0000000E+00   0.0000000E+00   0.0000000E+00   0.0000000E+00   0.0000000E+00   0.0000000E+00   0.0000000E+00   0.0000000E+00   0.0000000E+00   0.0000000E+00   0.0000000E+00   0.0000000E+00   0.0000000E+00   0.0000000E+00   0.0000000E+00   0.0000000E+00   0.0000000E+00   0.0000000E+00   0.0000000E+00   0.0000000E+00   0.0000000E+00   0.0000000E+00   0.0000000E+00   0.0000000E+00   0.0000000E+00   0.0000000E+00   0.0000000E+00   0.0000000E+00   0.0000000E+00   0.0000000E+00   0.0000000E+00   0.0000000E+00   0.0000000E+00   0.0000000E+00   0.0000000E+00   0.0000000E+00   0.0000000E+00   0.0000000E+00   0.0000000E+00   0.0000000E+00   0.0000000E+00   0.0000000E+00   0.0000000E+00   0.0000000E+00   0.0000000E+00   0.0000000E+00   0.0000000E+00   0.0000000E+00   0.0000000E+00   0.0000000E+00   0.0000000E+00   0.0000000E+00   0.0000000E+00   0.0000000E+00   0.0000000E+00   0.0000000E+00   0.0000000E+00   0.0000000E+00   0.0000000E+00   0.0000000E+00   0.0000000E+00   0.0000000E+00   0.0000000E+00   0.0000000E+00   0.0000000E+00   0.0000000E+00   0.0000000E+00   0.0000000E+00   0.0000000E+00   0.0000000E+00   0.0000000E+00   0.0000000E+00   0.0000000E+00   0.0000000E+00   0.0000000E+00   0.0000000E+00   0.0000000E+00   0.0000000E+00   0.0000000E+00   0.0000000E+00   0.0000000E+00   0.0000000E+00   0.0000000E+00   0.0000000E+00   0.0000000E+00   0.0000000E+00   0.0000000E+00   0.0000000E+00   0.0000000E+00   0.0000000E+00   0.0000000E+00   0.0000000E+00   0.0000000E+00   0.0000000E+00   0.0000000E+00   0.0000000E+00   0.0000000E+00   0.0000000E+00   0.0000000E+00   0.0000000E+00   0.0000000E+00   0.0000000E+00   0.0000000E+00   0.0000000E+00   0.0000000E+00   0.0000000E+00   0.0000000E+00   0.0000000E+00   0.0000000E+00   0.0000000E+00   0.0000000E+00   0.0000000E+00   0.0000000E+00   0.0000000E+00   0.0000000E+00   0.0000000E+00   0.0000000E+00   0.0000000E+00   0.0000000E+00   0.0000000E+00   0.0000000E+00   0.0000000E+00   0.0000000E+00   0.0000000E+00   0.0000000E+00   0.0000000E+00   0.0000000E+00   0.0000000E+00   0.0000000E+00   0.0000000E+00   0.0000000E+00   0.0000000E+00   0.0000000E+00   0.0000000E+00   0.0000000E+00   0.0000000E+00   0.0000000E+00   0.0000000E+00   0.0000000E+00   0.0000000E+00   0.0000000E+00   0.0000000E+00   0.0000000E+00   0.0000000E+00   0.0000000E+00   0.0000000E+00   0.0000000E+00   0.0000000E+00   0.0000000E+00   0.0000000E+00   0.0000000E+00   0.0000000E+00   0.0000000E+00   0.0000000E+00   0.0000000E+00   0.0000000E+00   0.0000000E+00   0.0000000E+00   0.0000000E+00   0.0000000E+00   0.0000000E+00   0.0000000E+00   0.0000000E+00   0.0000000E+00   0.0000000E+00   0.0000000E+00   0.0000000E+00   0.0000000E+00   0.0000000E+00   0.0000000E+00   0.0000000E+00   0.0000000E+00   0.0000000E+00   0.0000000E+00   0.0000000E+00   0.0000000E+00   0.0000000E+00  -6.5271258E-03  -7.7759861E-03  -8.8001713E-03  -9.6059861E-03  -1.0223907E-02  -6.4994656E-03  -8.2038501E-03  -9.6717691E-03  -1.0858393E-02  -1.1777732E-02  -1.2472373E-02  -7.9189735E-03  -9.9101607E-03  -1.1603631E-02  -1.2943754E-02  -1.3956234E-02  -1.4701140E-02  -9.4894823E-03  -1.1816995E-02  -1.3769921E-02  -1.5279995E-02  -1.6385358E-02  -1.7168466E-02  -1.1424542E-02  -1.4147424E-02  -1.6395921E-02  -1.8098477E-02  -1.9306714E-02  -2.0123363E-02  -1.4135672E-02  -1.7273648E-02  -1.9785307E-02  -2.1640936E-02  -2.2928562E-02  -2.3766683E-02  -1.8293476E-02  -2.1778850E-02  -2.4361180E-02  -2.6190933E-02  -2.7438207E-02  -2.8237373E-02  -2.4844727E-02  -2.8407590E-02  -3.0613234E-02  -3.2036010E-02  -3.2996316E-02  -3.3626366E-02  -3.4842566E-02  -3.7832595E-02  -3.8904712E-02  -3.9356548E-02  -3.9695345E-02  -3.9986018E-02  -4.8817340E-02  -5.0117016E-02  -4.9145024E-02  -4.8075058E-02  -4.7512591E-02  -4.7334541E-02  -6.5563425E-02  -6.4163029E-02  -6.0584046E-02  -5.7784706E-02  -5.6279428E-02  -5.5639651E-02  -7.9952151E-02  -7.7551864E-02  -7.2011337E-02  -6.7930825E-02  -6.5784365E-02  -6.4856552E-02  -8.5561149E-02  -8.6943179E-02  -8.2255289E-02  -7.8163013E-02  -7.5958267E-02  -7.5016171E-02  -8.8171780E-02  -9.3218580E-02  -9.1560833E-02  -8.8681512E-02  -8.6993739E-02  -8.6276591E-02  -9.4481155E-02  -1.0057487E-01  -1.0156670E-01  -1.0024701E-01  -9.9321134E-02  -9.8899737E-02  -1.0618213E-01  -1.1183720E-01  -1.1397916E-01  -1.1374368E-01  -1.1338412E-01  -1.1317319E-01  -1.2258035E-01  -1.2732485E-01  -1.2947616E-01  -1.2961528E-01  -1.2950143E-01  -1.2936257E-01  -1.4245465E-01  -1.4628622E-01  -1.4796850E-01  -1.4799006E-01  -1.4789726E-01  -1.4773536E-01  -1.6493455E-01  -1.6818492E-01  -1.6928566E-01  -1.6900849E-01  -1.6882861E-01  -1.6856690E-01  -1.9029894E-01  -1.9307317E-01  -1.9357544E-01  -1.9293043E-01  -1.9257653E-01  -1.9212094E-01  -2.1924031E-01  -2.2129613E-01  -2.2111087E-01  -2.2005068E-01  -2.1941675E-01  -2.1865140E-01  -2.5218287E-01  -2.5313860E-01  -2.5222346E-01  -2.5068057E-01  -2.4961947E-01  -2.4838524E-01  -2.8934732E-01  -2.8883317E-01  -2.8726178E-01  -2.8510469E-01  -2.8336444E-01  -2.8142503E-01  -3.3053035E-01  -3.2836267E-01  -3.2638270E-01  -3.2329816E-01  -3.2046527E-01  -3.1747997E-01  -3.7473911E-01  -3.7100357E-01  -3.6903614E-01  -3.6441386E-01  -3.5986349E-01  -3.5539228E-01  -4.1937360E-01  -4.1472578E-01  -4.1322261E-01  -4.0600720E-01  -3.9895210E-01  -3.9253917E-01  -4.5941964E-01  -4.5525607E-01  -4.5447662E-01  -4.4318771E-01  -4.3290621E-01  -4.2428723E-01  -4.8732227E-01  -4.8565507E-01  -4.8512766E-01  -4.6830329E-01  -4.5445222E-01  -4.4378680E-01  -4.9252421E-01  -4.9554265E-01  -4.9447039E-01  -4.7138718E-01  -4.5425391E-01  -4.4231206E-01  -4.5987141E-01  -4.6975860E-01  -4.6807441E-01  -4.3999556E-01  -4.2130175E-01  -4.0949345E-01  -3.6854494E-01  -3.8646182E-01  -3.8767797E-01  -3.5929412E-01  -3.4180373E-01  -3.3215040E-01  -1.9151112E-01  -2.2209530E-01  -2.3485039E-01  -2.1274248E-01  -2.0027265E-01  -1.9432357E-01   9.1153428E-02   3.6221087E-02   9.7675622E-03   1.1496276E-02   1.5164763E-02   1.7479852E-02   4.6933037E-01   3.6225092E-01   3.3989918E-01   3.2016987E-01   3.0745643E-01   3.0515385E-01   8.8173437E-01   7.1639526E-01   7.0875239E-01   6.8651944E-01   6.5677017E-01   6.4950597E-01   1.2471762E+00   1.0652146E+00   1.0693487E+00   1.0504044E+00   1.0153526E+00   1.0060303E+00   1.5322396E+00   1.3328935E+00   1.3411281E+00   1.3434292E+00   1.3160478E+00   1.3106354E+00   1.6922998E+00   1.4592322E+00   1.4644508E+00   1.4932339E+00   1.4898244E+00   1.5007116E+00   1.7307173E+00   1.4672601E+00   1.4714699E+00   1.5200806E+00   1.5386097E+00   1.5647751E+00   1.6890867E+00   1.4069235E+00   1.4079635E+00   1.4679533E+00   1.4993138E+00   1.5348892E+00   1.6135241E+00   1.3260152E+00   1.3238072E+00   1.3856764E+00   1.4200518E+00   1.4583098E+00   1.5349339E+00   1.2512132E+00   1.2483281E+00   1.3047469E+00   1.3343606E+00   1.3696901E+00   1.4588304E+00   1.1838876E+00   1.1800810E+00   1.2287054E+00   1.2503102E+00   1.2793930E+00   1.3762800E+00   1.1111538E+00   1.1050889E+00   1.1449435E+00   1.1573830E+00   1.1784046E+00   1.2727565E+00   1.0183353E+00   1.0074635E+00   1.0372084E+00   1.0402820E+00   1.0522907E+00   1.1411953E+00   8.9960885E-01   8.8039470E-01   8.9858919E-01   8.9224875E-01   8.9538932E-01   9.8904097E-01   7.6076555E-01   7.3217249E-01   7.3699218E-01   7.2219956E-01   7.1786582E-01   8.3171964E-01   6.1889356E-01   5.8131623E-01   5.7268620E-01   5.5253780E-01   5.4203224E-01   6.8499810E-01   4.9134594E-01   4.4526052E-01   4.2988175E-01   4.0520972E-01   3.8967234E-01   5.6578028E-01   3.8617742E-01   3.3834016E-01   3.2047755E-01   2.9122514E-01   2.7251607E-01   4.7507602E-01   3.0458224E-01   2.6402155E-01   2.4369565E-01   2.1113876E-01   1.9123481E-01   4.0603116E-01   2.4677104E-01   2.1181627E-01   1.9188544E-01   1.5934201E-01   1.3922289E-01   3.4733361E-01   2.0903036E-01   1.7314124E-01   1.5593588E-01   1.2652668E-01   1.0750768E-01   3.0381587E-01   1.9087905E-01   1.4668831E-01   1.2937920E-01   1.0449546E-01   8.8416867E-02   2.9363304E-01   1.8071726E-01   1.2285352E-01   1.0555711E-01   8.8128611E-02   7.6876812E-02   1.7563051E-01   9.8494574E-02   8.3749466E-02   7.4780934E-02   7.0121452E-02   1.7895399E-01   9.1991842E-02   6.7433432E-02   6.4235143E-02   6.5743521E-02   1.1634232E-01   6.9271259E-02   6.3813284E-02   6.3698322E-02   1.5629742E-01   1.0853849E-01   8.1586450E-02   7.1454987E-02   1.6402219E-01   1.2692963E-01   1.0086022E-01   1.8654422E-01   1.5859070E-01   1.8735653E-01   2.1864045E-01  -1.0688942E-02  -1.1029493E-02  -1.1266949E-02  -1.1422121E-02  -1.1516249E-02  -1.1568361E-02  -1.1593789E-02  -1.1604088E-02  -1.1607205E-02  -1.2988647E-02  -1.3362333E-02  -1.3618508E-02  -1.3781399E-02  -1.3876427E-02  -1.3925779E-02  -1.3947026E-02  -1.3953316E-02  -1.3953644E-02  -1.5240438E-02  -1.5620054E-02  -1.5870342E-02  -1.6020216E-02  -1.6099889E-02  -1.6134279E-02  -1.6142655E-02  -1.6139170E-02  -1.6133426E-02  -1.7711898E-02  -1.8075280E-02  -1.8297104E-02  -1.8413737E-02  -1.8461404E-02  -1.8467812E-02  -1.8453650E-02  -1.8433794E-02  -1.8418146E-02  -2.0656621E-02  -2.0984432E-02  -2.1156855E-02  -2.1221146E-02  -2.1220474E-02  -2.1185793E-02  -2.1139191E-02  -2.1096071E-02  -2.1066459E-02  -2.4272658E-02  -2.4543570E-02  -2.4645632E-02  -2.4638791E-02  -2.4573769E-02  -2.4485108E-02  -2.4396304E-02  -2.4323110E-02  -2.4275575E-02  -2.8686214E-02  -2.8874068E-02  -2.8883059E-02  -2.8785540E-02  -2.8640265E-02  -2.8485211E-02  -2.8344996E-02  -2.8235443E-02  -2.8166259E-02  -3.3960421E-02  -3.4036193E-02  -3.3927478E-02  -3.3719279E-02  -3.3478282E-02  -3.3245463E-02  -3.3045746E-02  -3.2894373E-02  -3.2800443E-02  -4.0131669E-02  -4.0064856E-02  -3.9816659E-02  -3.9479889E-02  -3.9129913E-02  -3.8809985E-02  -3.8544498E-02  -3.8347393E-02  -3.8226474E-02  -4.7238283E-02  -4.7009565E-02  -4.6610709E-02  -4.6134524E-02  -4.5667186E-02  -4.5254424E-02  -4.4919498E-02  -4.4674415E-02  -4.4525448E-02  -5.5309765E-02  -5.4926809E-02  -5.4382458E-02  -5.3767473E-02  -5.3181771E-02  -5.2675251E-02  -5.2270442E-02  -5.1977303E-02  -5.1800247E-02  -6.4375073E-02  -6.3876092E-02  -6.3208774E-02  -6.2468532E-02  -6.1772071E-02  -6.1176293E-02  -6.0704459E-02  -6.0365114E-02  -6.0161009E-02  -7.4502118E-02  -7.3940665E-02  -7.3184110E-02  -7.2342165E-02  -7.1549810E-02  -7.0873857E-02  -7.0340544E-02  -6.9958337E-02  -6.9729000E-02  -8.5822873E-02  -8.5243084E-02  -8.4431566E-02  -8.3514474E-02  -8.2644247E-02  -8.1899203E-02  -8.1310913E-02  -8.0889404E-02  -8.0636650E-02  -9.8528832E-02  -9.7949818E-02  -9.7107463E-02  -9.6135564E-02  -9.5202103E-02  -9.4397061E-02  -9.3758546E-02  -9.3299732E-02  -9.3024269E-02  -1.1284937E-01  -1.1226651E-01  -1.1139727E-01  -1.1037643E-01  -1.0938422E-01  -1.0852069E-01  -1.0783086E-01  -1.0733268E-01  -1.0703253E-01  -1.2903409E-01  -1.2842257E-01  -1.2750573E-01  -1.2642097E-01  -1.2535776E-01  -1.2442388E-01  -1.2367118E-01  -1.2312357E-01  -1.2279175E-01  -1.4734636E-01  -1.4665425E-01  -1.4564306E-01  -1.4445436E-01  -1.4328453E-01  -1.4224823E-01  -1.4140475E-01  -1.4078517E-01  -1.4040706E-01  -1.6804181E-01  -1.6719218E-01  -1.6601214E-01  -1.6464885E-01  -1.6330646E-01  -1.6210757E-01  -1.6112161E-01  -1.6039047E-01  -1.5994075E-01  -1.9136283E-01  -1.9025359E-01  -1.8879689E-01  -1.8714839E-01  -1.8552727E-01  -1.8406905E-01  -1.8285896E-01  -1.8195368E-01  -1.8139336E-01  -2.1753693E-01  -2.1603227E-01  -2.1414520E-01  -2.1204859E-01  -2.0999020E-01  -2.0813085E-01  -2.0657836E-01  -2.0541063E-01  -2.0468470E-01  -2.4674843E-01  -2.4466139E-01  -2.4212812E-01  -2.3935437E-01  -2.3663999E-01  -2.3418705E-01  -2.3213524E-01  -2.3058949E-01  -2.2962734E-01  -2.7903247E-01  -2.7610356E-01  -2.7263063E-01  -2.6887777E-01  -2.6522681E-01  -2.6193997E-01  -2.5919828E-01  -2.5713620E-01  -2.5585434E-01  -3.1401390E-01  -3.0990019E-01  -3.0511385E-01  -3.0001235E-01  -2.9509628E-01  -2.9070559E-01  -2.8706464E-01  -2.8433761E-01  -2.8264683E-01  -3.5046470E-01  -3.4475487E-01  -3.3822241E-01  -3.3136392E-01  -3.2483715E-01  -3.1907037E-01  -3.1432807E-01  -3.1079602E-01  -3.0861354E-01  -3.8576773E-01  -3.7804687E-01  -3.6933386E-01  -3.6032203E-01  -3.5186404E-01  -3.4448326E-01  -3.3847144E-01  -3.3402252E-01  -3.3128464E-01  -4.1546771E-01  -4.0545529E-01  -3.9423159E-01  -3.8275659E-01  -3.7212595E-01  -3.6296478E-01  -3.5557684E-01  -3.5014737E-01  -3.4681934E-01  -4.3309361E-01  -4.2084557E-01  -4.0705892E-01  -3.9301741E-01  -3.8011920E-01  -3.6912173E-01  -3.6033651E-01  -3.5392255E-01  -3.5000613E-01  -4.3042618E-01  -4.1649103E-01  -4.0054655E-01  -3.8419589E-01  -3.6917481E-01  -3.5643664E-01  -3.4633166E-01  -3.3899415E-01  -3.3452666E-01  -3.9758012E-01  -3.8292852E-01  -3.6565730E-01  -3.4764600E-01  -3.3093250E-01  -3.1672561E-01  -3.0548346E-01  -2.9734454E-01  -2.9239678E-01  -3.2166731E-01  -3.0743247E-01  -2.8982523E-01  -2.7102745E-01  -2.5329435E-01  -2.3807199E-01  -2.2599608E-01  -2.1725889E-01  -2.1194932E-01  -1.8642102E-01  -1.7358465E-01  -1.5651301E-01  -1.3781564E-01  -1.1990286E-01  -1.0434715E-01  -9.1944158E-02  -8.2963288E-02  -7.7503517E-02   2.2710860E-02   3.3897534E-02   5.0033346E-02   6.7962527E-02   8.5167289E-02   1.0014640E-01   1.1210383E-01   1.2075594E-01   1.2601593E-01   3.0894226E-01   3.1954268E-01   3.3520505E-01   3.5216573E-01   3.6791337E-01   3.8129982E-01   3.9181858E-01   3.9935312E-01   4.0391400E-01   6.5422761E-01   6.6667724E-01   6.8333030E-01   6.9971442E-01   7.1354532E-01   7.2437268E-01   7.3236084E-01   7.3785460E-01   7.4112219E-01   1.0145262E+00   1.0318205E+00   1.0514196E+00   1.0679711E+00   1.0796936E+00   1.0872052E+00   1.0917362E+00   1.0943844E+00   1.0958323E+00   1.3259630E+00   1.3503478E+00   1.3742676E+00   1.3915803E+00   1.4012601E+00   1.4052361E+00   1.4059979E+00   1.4055221E+00   1.4049685E+00   1.5278897E+00   1.5606718E+00   1.5894922E+00   1.6082561E+00   1.6167424E+00   1.6180861E+00   1.6159041E+00   1.6129513E+00   1.6108047E+00   1.6025487E+00   1.6429929E+00   1.6768806E+00   1.6981686E+00   1.7071272E+00   1.7077196E+00   1.7043507E+00   1.7003143E+00   1.6974578E+00   1.5795921E+00   1.6254734E+00   1.6636124E+00   1.6878912E+00   1.6986849E+00   1.7003033E+00   1.6975126E+00   1.6938269E+00   1.6911831E+00   1.5054543E+00   1.5536097E+00   1.5941864E+00   1.6209121E+00   1.6339537E+00   1.6375535E+00   1.6364396E+00   1.6340582E+00   1.6322567E+00   1.4150760E+00   1.4622521E+00   1.5029997E+00   1.5308819E+00   1.5456696E+00   1.5512562E+00   1.5520654E+00   1.5512795E+00   1.5505338E+00   1.3198488E+00   1.3634053E+00   1.4022460E+00   1.4297888E+00   1.4453267E+00   1.4522638E+00   1.4545996E+00   1.4551681E+00   1.4553409E+00   1.2119021E+00   1.2501235E+00   1.2855899E+00   1.3115706E+00   1.3268776E+00   1.3343749E+00   1.3376060E+00   1.3390574E+00   1.3398565E+00   1.0778003E+00   1.1098989E+00   1.1413194E+00   1.1651433E+00   1.1796850E+00   1.1872401E+00   1.1909057E+00   1.1928668E+00   1.1940496E+00   9.1283500E-01   9.3901402E-01   9.6666336E-01   9.8855627E-01   1.0024633E+00   1.0100992E+00   1.0141337E+00   1.0165038E+00   1.0179901E+00   7.2839642E-01   7.4993253E-01   7.7494502E-01   7.9578853E-01   8.0969203E-01   8.1781602E-01   8.2245302E-01   8.2534242E-01   8.2716775E-01   5.4765505E-01   5.6622094E-01   5.8981681E-01   6.1040956E-01   6.2478614E-01   6.3365608E-01   6.3900530E-01   6.4243233E-01   6.4457476E-01   3.9223737E-01   4.0893584E-01   4.3163916E-01   4.5209584E-01   4.6681875E-01   4.7619617E-01   4.8199108E-01   4.8570976E-01   4.8799023E-01   2.7292252E-01   2.8790459E-01   3.0939057E-01   3.2914650E-01   3.4357637E-01   3.5285926E-01   3.5858315E-01   3.6218506E-01   3.6433554E-01   1.8955900E-01   2.0217471E-01   2.2149114E-01   2.3957554E-01   2.5286371E-01   2.6137286E-01   2.6650754E-01   2.6960853E-01   2.7138701E-01   1.3537385E-01   1.4467227E-01   1.6055563E-01   1.7587456E-01   1.8722051E-01   1.9443101E-01   1.9864251E-01   2.0102584E-01   2.0230398E-01   1.0194343E-01   1.0723106E-01   1.1845560E-01   1.2997161E-01   1.3873689E-01   1.4434774E-01   1.4753029E-01   1.4918402E-01   1.4997517E-01   8.2431942E-02   8.3883934E-02   8.9680836E-02   9.6492156E-02   1.0211487E-01   1.0589285E-01   1.0804789E-01   1.0908552E-01   1.0950626E-01   7.2498076E-02   7.1532525E-02   7.2181404E-02   7.3676705E-02   7.5463891E-02   7.6943994E-02   7.7892169E-02   7.8351572E-02   7.8507230E-02   6.9520041E-02   6.8588547E-02   6.5783061E-02   6.2212855E-02   5.9369937E-02   5.7671085E-02   5.6768104E-02   5.6313261E-02   5.6096703E-02   7.0642948E-02   7.2600432E-02   6.9372237E-02   6.2624641E-02   5.5294976E-02   4.9481750E-02   4.5700297E-02   4.3538824E-02   4.2485386E-02   7.2272293E-02   7.9261400E-02   7.9212464E-02   7.2725564E-02   6.3155852E-02   5.3817026E-02   4.6594933E-02   4.1931123E-02   3.9456159E-02   7.3485687E-02   8.3555870E-02   8.9336425E-02   8.7227747E-02   7.9325028E-02   6.9391496E-02   6.0312897E-02   5.3559311E-02   4.9574092E-02   8.5832134E-02   8.5081846E-02   9.3843155E-02   9.9103466E-02   9.7453356E-02   9.1198109E-02   8.3666585E-02   7.7068612E-02   7.2721265E-02   1.2195697E-01   1.0117604E-01   9.5924452E-02   1.0294561E-01   1.1004396E-01   1.1209198E-01   1.1025081E-01   1.0700881E-01   1.0430365E-01   1.7877519E-01   1.4469433E-01   1.2024797E-01   1.1110784E-01   1.1537886E-01   1.2498049E-01   1.3204047E-01   1.3551207E-01   1.3662495E-01   2.0281187E-01   1.8891527E-01   1.7056775E-01   1.5416829E-01   1.4271691E-01   1.3975132E-01   1.4590257E-01   1.5386800E-01   1.5919505E-01   1.7938279E-01   1.9169417E-01   1.9515686E-01   1.9677700E-01   1.9713160E-01   1.9590001E-01   1.9810542E-01   2.0169085E-01   1.7692010E-01   2.0107347E-01   2.1181647E-01   2.3015383E-01   2.5374699E-01   2.6985943E-01   1.6876896E-01   1.7960691E-01   1.9625774E-01   2.1548942E-01  -1.1607744E-02  -1.1607205E-02  -1.1604088E-02  -1.1593786E-02  -1.1568360E-02  -1.1516249E-02  -1.1422118E-02  -1.1266950E-02  -1.3953190E-02  -1.3953648E-02  -1.3953325E-02  -1.3947028E-02  -1.3925775E-02  -1.3876430E-02  -1.3781400E-02  -1.3618510E-02  -1.6130913E-02  -1.6133424E-02  -1.6139178E-02  -1.6142659E-02  -1.6134279E-02  -1.6099887E-02  -1.6020214E-02  -1.5870346E-02  -1.8412318E-02  -1.8418144E-02  -1.8433800E-02  -1.8453656E-02  -1.8467810E-02  -1.8461399E-02  -1.8413728E-02  -1.8297099E-02  -2.1055989E-02  -2.1066459E-02  -2.1096073E-02  -2.1139197E-02  -2.1185789E-02  -2.1220481E-02  -2.1221152E-02  -2.1156853E-02  -2.4259133E-02  -2.4275571E-02  -2.4323123E-02  -2.4396311E-02  -2.4485113E-02  -2.4573782E-02  -2.4638796E-02  -2.4645632E-02  -2.8142622E-02  -2.8166246E-02  -2.8235449E-02  -2.8344991E-02  -2.8485207E-02  -2.8640263E-02  -2.8785525E-02  -2.8883066E-02  -3.2768644E-02  -3.2800440E-02  -3.2894388E-02  -3.3045739E-02  -3.3245452E-02  -3.3478282E-02  -3.3719275E-02  -3.3927489E-02  -3.8185779E-02  -3.8226459E-02  -3.8347371E-02  -3.8544483E-02  -3.8809970E-02  -3.9129913E-02  -3.9479867E-02  -3.9816678E-02  -4.4475485E-02  -4.4525448E-02  -4.4674434E-02  -4.4919513E-02  -4.5254409E-02  -4.5667175E-02  -4.6134513E-02  -4.6610739E-02  -5.1741041E-02  -5.1800270E-02  -5.1977314E-02  -5.2270461E-02  -5.2675251E-02  -5.3181782E-02  -5.3767521E-02  -5.4382477E-02  -6.0092948E-02  -6.0161013E-02  -6.0365126E-02  -6.0704459E-02  -6.1176304E-02  -6.1772063E-02  -6.2468573E-02  -6.3208826E-02  -6.9652610E-02  -6.9728971E-02  -6.9958284E-02  -7.0340551E-02  -7.0873894E-02  -7.1549818E-02  -7.2342165E-02  -7.3184088E-02  -8.0552533E-02  -8.0636650E-02  -8.0889389E-02  -8.1310958E-02  -8.1899241E-02  -8.2644232E-02  -8.3514504E-02  -8.4431559E-02  -9.2932530E-02  -9.3024284E-02  -9.3299739E-02  -9.3758553E-02  -9.4397046E-02  -9.5202066E-02  -9.6135601E-02  -9.7107448E-02  -1.0693236E-01  -1.0703254E-01  -1.0733270E-01  -1.0783091E-01  -1.0852073E-01  -1.0938418E-01  -1.1037641E-01  -1.1139734E-01  -1.2268068E-01  -1.2279170E-01  -1.2312347E-01  -1.2367119E-01  -1.2442389E-01  -1.2535772E-01  -1.2642086E-01  -1.2750576E-01  -1.4028016E-01  -1.4040715E-01  -1.4078522E-01  -1.4140475E-01  -1.4224815E-01  -1.4328456E-01  -1.4445429E-01  -1.4564306E-01  -1.5978914E-01  -1.5994076E-01  -1.6039044E-01  -1.6112164E-01  -1.6210757E-01  -1.6330636E-01  -1.6464885E-01  -1.6601220E-01  -1.8120357E-01  -1.8139321E-01  -1.8195367E-01  -1.8285894E-01  -1.8406904E-01  -1.8552727E-01  -1.8714854E-01  -1.8879706E-01  -2.0443851E-01  -2.0468487E-01  -2.0541064E-01  -2.0657854E-01  -2.0813100E-01  -2.0999010E-01  -2.1204862E-01  -2.1414508E-01  -2.2930066E-01  -2.2962733E-01  -2.3058948E-01  -2.3213530E-01  -2.3418696E-01  -2.3664004E-01  -2.3935434E-01  -2.4212801E-01  -2.5541884E-01  -2.5585437E-01  -2.5713620E-01  -2.5919846E-01  -2.6194015E-01  -2.6522681E-01  -2.6887774E-01  -2.7263057E-01  -2.8207341E-01  -2.8264683E-01  -2.8433764E-01  -2.8706467E-01  -2.9070562E-01  -2.9509631E-01  -3.0001226E-01  -3.0511379E-01  -3.0787492E-01  -3.0861366E-01  -3.1079590E-01  -3.1432787E-01  -3.1907034E-01  -3.2483706E-01  -3.3136395E-01  -3.3822232E-01  -3.3035937E-01  -3.3128449E-01  -3.3402246E-01  -3.3847135E-01  -3.4448323E-01  -3.5186407E-01  -3.6032191E-01  -3.6933371E-01  -3.4569693E-01  -3.4681934E-01  -3.5014746E-01  -3.5557678E-01  -3.6296460E-01  -3.7212592E-01  -3.8275677E-01  -3.9423159E-01  -3.4868705E-01  -3.5000631E-01  -3.5392261E-01  -3.6033660E-01  -3.6912173E-01  -3.8011926E-01  -3.9301735E-01  -4.0705860E-01  -3.3302391E-01  -3.3452675E-01  -3.3899438E-01  -3.4633160E-01  -3.5643646E-01  -3.6917469E-01  -3.8419589E-01  -4.0054661E-01  -2.9073331E-01  -2.9239732E-01  -2.9734460E-01  -3.0548352E-01  -3.1672567E-01  -3.3093271E-01  -3.4764588E-01  -3.6565754E-01  -2.1016295E-01  -2.1194904E-01  -2.1725883E-01  -2.2599618E-01  -2.3807183E-01  -2.5329444E-01  -2.7102768E-01  -2.8982553E-01  -7.5665683E-02  -7.7503294E-02  -8.2963213E-02  -9.1943949E-02  -1.0434714E-01  -1.1990280E-01  -1.3781574E-01  -1.5651305E-01   1.2778743E-01   1.2601571E-01   1.2075602E-01   1.1210398E-01   1.0014644E-01   8.5167512E-02   6.7962497E-02   5.0033420E-02   4.0544987E-01   4.0391412E-01   3.9935309E-01   3.9181900E-01   3.8129988E-01   3.6791354E-01   3.5216594E-01   3.3520505E-01   7.4221873E-01   7.4112231E-01   7.3785484E-01   7.3236084E-01   7.2437274E-01   7.1354550E-01   6.9971442E-01   6.8333042E-01   1.0963084E+00   1.0958321E+00   1.0943844E+00   1.0917363E+00   1.0872054E+00   1.0796936E+00   1.0679710E+00   1.0514203E+00   1.4047608E+00   1.4049678E+00   1.4055221E+00   1.4059976E+00   1.4052359E+00   1.4012601E+00   1.3915801E+00   1.3742672E+00   1.6100543E+00   1.6108048E+00   1.6129522E+00   1.6159036E+00   1.6180859E+00   1.6167431E+00   1.6082571E+00   1.5894918E+00   1.6964650E+00   1.6974581E+00   1.7003143E+00   1.7043507E+00   1.7077191E+00   1.7071273E+00   1.6981685E+00   1.6768816E+00   1.6902664E+00   1.6911819E+00   1.6938276E+00   1.6975120E+00   1.7003028E+00   1.6986851E+00   1.6878920E+00   1.6636126E+00   1.6316338E+00   1.6322560E+00   1.6340582E+00   1.6364388E+00   1.6375532E+00   1.6339535E+00   1.6209122E+00   1.5941864E+00   1.5502820E+00   1.5505338E+00   1.5512798E+00   1.5520653E+00   1.5512561E+00   1.5456696E+00   1.5308825E+00   1.5029993E+00   1.4554138E+00   1.4553409E+00   1.4551680E+00   1.4545994E+00   1.4522636E+00   1.4453262E+00   1.4297893E+00   1.4022470E+00   1.3401538E+00   1.3398571E+00   1.3390572E+00   1.3376062E+00   1.3343750E+00   1.3268778E+00   1.3115705E+00   1.2855897E+00   1.1944878E+00   1.1940501E+00   1.1928666E+00   1.1909053E+00   1.1872404E+00   1.1796849E+00   1.1651435E+00   1.1413198E+00   1.0185366E+00   1.0179898E+00   1.0165033E+00   1.0141337E+00   1.0100992E+00   1.0024633E+00   9.8855603E-01   9.6666312E-01   8.2783079E-01   8.2716739E-01   8.2534182E-01   8.2245332E-01   8.1781614E-01   8.0969167E-01   7.9578865E-01   7.7494496E-01   6.4534038E-01   6.4457494E-01   6.4243251E-01   6.3900536E-01   6.3365597E-01   6.2478620E-01   6.1040944E-01   5.8981723E-01   4.8879197E-01   4.8798999E-01   4.8570997E-01   4.8199132E-01   4.7619623E-01   4.6681878E-01   4.5209605E-01   4.3163905E-01   3.6507860E-01   3.6433533E-01   3.6218482E-01   3.5858321E-01   3.5285944E-01   3.4357664E-01   3.2914633E-01   3.0939037E-01   2.7198926E-01   2.7138695E-01   2.6960865E-01   2.6650757E-01   2.6137289E-01   2.5286359E-01   2.3957573E-01   2.2149113E-01   2.0272163E-01   2.0230386E-01   2.0102605E-01   1.9864261E-01   1.9443125E-01   1.8722069E-01   1.7587456E-01   1.6055578E-01   1.5021543E-01   1.4997518E-01   1.4918387E-01   1.4753047E-01   1.4434779E-01   1.3873686E-01   1.2997161E-01   1.1845557E-01   1.0961543E-01   1.0950617E-01   1.0908578E-01   1.0804786E-01   1.0589282E-01   1.0211495E-01   9.6491963E-02   8.9680776E-02   7.8535959E-02   7.8507155E-02   7.8351974E-02   7.7892274E-02   7.6943934E-02   7.5463757E-02   7.3676705E-02   7.2181381E-02   5.6031331E-02   5.6096777E-02   5.6313321E-02   5.6768060E-02   5.7671204E-02   5.9369996E-02   6.2212989E-02   6.5783069E-02   4.2177200E-02   4.2485207E-02   4.3538883E-02   4.5700356E-02   4.9481809E-02   5.5294894E-02   6.2624678E-02   6.9372408E-02   3.8695440E-02   3.9456189E-02   4.1931182E-02   4.6594985E-02   5.3817056E-02   6.3155763E-02   7.2725572E-02   7.9212457E-02   4.8269562E-02   4.9574062E-02   5.3559303E-02   6.0312919E-02   6.9391459E-02   7.9325050E-02   8.7227799E-02   8.9336380E-02   7.1214922E-02   7.2721295E-02   7.7068560E-02   8.3666489E-02   9.1198161E-02   9.7453341E-02   9.9103436E-02   9.3843028E-02   1.0329631E-01   1.0430361E-01   1.0700872E-01   1.1025078E-01   1.1209197E-01   1.1004400E-01   1.0294560E-01   9.5924541E-02   1.3684614E-01   1.3662495E-01   1.3551201E-01   1.3204049E-01   1.2498053E-01   1.1537892E-01   1.1110786E-01   1.2024803E-01   1.6108865E-01   1.5919507E-01   1.5386799E-01   1.4590254E-01   1.3975126E-01   1.4271683E-01   1.5416822E-01   1.7056772E-01   2.0318647E-01   2.0169094E-01   1.9810525E-01   1.9590014E-01   1.9713143E-01   1.9677696E-01   1.9515696E-01   1.9169402E-01   2.7516907E-01   2.6985911E-01   2.5374705E-01   2.3015365E-01   2.1181643E-01   2.0107347E-01   1.7691991E-01   2.2232890E-01   2.1548946E-01   1.9625768E-01   1.7960703E-01   1.6876882E-01  -1.1029493E-02  -1.0688941E-02  -1.0223910E-02  -9.6059870E-03  -8.8001704E-03  -7.7759856E-03  -6.5271277E-03  -1.3362337E-02  -1.2988647E-02  -1.2472379E-02  -1.1777734E-02  -1.0858392E-02  -9.6717710E-03  -8.2038511E-03  -6.4994660E-03  -1.5620051E-02  -1.5240437E-02  -1.4701146E-02  -1.3956239E-02  -1.2943757E-02  -1.1603630E-02  -9.9101597E-03  -7.9189716E-03  -1.8075278E-02  -1.7711904E-02  -1.7168472E-02  -1.6385358E-02  -1.5279998E-02  -1.3769925E-02  -1.1816995E-02  -9.4894823E-03  -2.0984439E-02  -2.0656640E-02  -2.0123376E-02  -1.9306716E-02  -1.8098487E-02  -1.6395923E-02  -1.4147422E-02  -1.1424541E-02  -2.4543572E-02  -2.4272667E-02  -2.3766680E-02  -2.2928568E-02  -2.1640942E-02  -1.9785305E-02  -1.7273644E-02  -1.4135673E-02  -2.8874068E-02  -2.8686229E-02  -2.8237363E-02  -2.7438210E-02  -2.6190948E-02  -2.4361180E-02  -2.1778850E-02  -1.8293478E-02  -3.4036212E-02  -3.3960424E-02  -3.3626374E-02  -3.2996319E-02  -3.2036021E-02  -3.0613244E-02  -2.8407598E-02  -2.4844741E-02  -4.0064845E-02  -4.0131677E-02  -3.9986003E-02  -3.9695363E-02  -3.9356548E-02  -3.8904727E-02  -3.7832610E-02  -3.4842569E-02  -4.7009572E-02  -4.7238290E-02  -4.7334522E-02  -4.7512602E-02  -4.8075054E-02  -4.9145035E-02  -5.0117031E-02  -4.8817359E-02  -5.4926820E-02  -5.5309780E-02  -5.5639654E-02  -5.6279439E-02  -5.7784718E-02  -6.0584072E-02  -6.4163029E-02  -6.5563433E-02  -6.3876107E-02  -6.4375095E-02  -6.4856596E-02  -6.5784387E-02  -6.7930847E-02  -7.2011344E-02  -7.7551894E-02  -7.9952165E-02  -7.3940687E-02  -7.4502125E-02  -7.5016171E-02  -7.5958274E-02  -7.8163013E-02  -8.2255311E-02  -8.6943194E-02  -8.5561141E-02  -8.5243061E-02  -8.5822895E-02  -8.6276554E-02  -8.6993739E-02  -8.8681489E-02  -9.1560841E-02  -9.3218587E-02  -8.8171795E-02  -9.7949833E-02  -9.8528847E-02  -9.8899737E-02  -9.9321172E-02  -1.0024700E-01  -1.0156667E-01  -1.0057484E-01  -9.4481155E-02  -1.1226656E-01  -1.1284937E-01  -1.1317319E-01  -1.1338416E-01  -1.1374371E-01  -1.1397918E-01  -1.1183717E-01  -1.0618219E-01  -1.2842259E-01  -1.2903407E-01  -1.2936260E-01  -1.2950145E-01  -1.2961529E-01  -1.2947616E-01  -1.2732486E-01  -1.2258038E-01  -1.4665429E-01  -1.4734644E-01  -1.4773527E-01  -1.4789727E-01  -1.4799005E-01  -1.4796850E-01  -1.4628623E-01  -1.4245471E-01  -1.6719222E-01  -1.6804194E-01  -1.6856693E-01  -1.6882855E-01  -1.6900846E-01  -1.6928566E-01  -1.6818498E-01  -1.6493461E-01  -1.9025367E-01  -1.9136286E-01  -1.9212109E-01  -1.9257645E-01  -1.9293046E-01  -1.9357549E-01  -1.9307321E-01  -1.9029894E-01  -2.1603221E-01  -2.1753667E-01  -2.1865149E-01  -2.1941657E-01  -2.2005069E-01  -2.2111085E-01  -2.2129621E-01  -2.1924040E-01  -2.4466124E-01  -2.4674833E-01  -2.4838549E-01  -2.4961945E-01  -2.5068057E-01  -2.5222340E-01  -2.5313860E-01  -2.5218278E-01  -2.7610356E-01  -2.7903253E-01  -2.8142512E-01  -2.8336442E-01  -2.8510475E-01  -2.8726178E-01  -2.8883308E-01  -2.8934735E-01  -3.0990034E-01  -3.1401423E-01  -3.1748000E-01  -3.2046524E-01  -3.2329804E-01  -3.2638282E-01  -3.2836279E-01  -3.3053035E-01  -3.4475508E-01  -3.5046461E-01  -3.5539246E-01  -3.5986361E-01  -3.6441401E-01  -3.6903614E-01  -3.7100354E-01  -3.7473920E-01  -3.7804684E-01  -3.8576770E-01  -3.9253914E-01  -3.9895222E-01  -4.0600717E-01  -4.1322243E-01  -4.1472575E-01  -4.1937363E-01  -4.0545529E-01  -4.1546786E-01  -4.2428732E-01  -4.3290609E-01  -4.4318771E-01  -4.5447636E-01  -4.5525610E-01  -4.5941967E-01  -4.2084560E-01  -4.3309376E-01  -4.4378713E-01  -4.5445216E-01  -4.6830362E-01  -4.8512781E-01  -4.8565510E-01  -4.8732227E-01  -4.1649082E-01  -4.3042609E-01  -4.4231200E-01  -4.5425367E-01  -4.7138754E-01  -4.9447045E-01  -4.9554300E-01  -4.9252415E-01  -3.8292834E-01  -3.9758039E-01  -4.0949333E-01  -4.2130166E-01  -4.3999574E-01  -4.6807462E-01  -4.6975875E-01  -4.5987141E-01  -3.0743229E-01  -3.2166773E-01  -3.3215055E-01  -3.4180385E-01  -3.5929441E-01  -3.8767809E-01  -3.8646173E-01  -3.6854476E-01  -1.7358473E-01  -1.8642107E-01  -1.9432363E-01  -2.0027278E-01  -2.1274251E-01  -2.3485044E-01  -2.2209515E-01  -1.9151102E-01   3.3897579E-02   2.2710845E-02   1.7480016E-02   1.5164867E-02   1.1496380E-02   9.7675025E-03   3.6221206E-02   9.1153651E-02   3.1954271E-01   3.0894226E-01   3.0515373E-01   3.0745655E-01   3.2016978E-01   3.3989933E-01   3.6225078E-01   4.6933046E-01   6.6667712E-01   6.5422726E-01   6.4950609E-01   6.5677029E-01   6.8651962E-01   7.0875233E-01   7.1639508E-01   8.8173413E-01   1.0318207E+00   1.0145264E+00   1.0060307E+00   1.0153526E+00   1.0504045E+00   1.0693486E+00   1.0652144E+00   1.2471759E+00   1.3503487E+00   1.3259636E+00   1.3106360E+00   1.3160465E+00   1.3434290E+00   1.3411289E+00   1.3328937E+00   1.5322397E+00   1.5606716E+00   1.5278901E+00   1.5007126E+00   1.4898248E+00   1.4932340E+00   1.4644506E+00   1.4592321E+00   1.6922996E+00   1.6429925E+00   1.6025499E+00   1.5647762E+00   1.5386101E+00   1.5200806E+00   1.4714695E+00   1.4672601E+00   1.7307168E+00   1.6254737E+00   1.5795914E+00   1.5348901E+00   1.4993141E+00   1.4679536E+00   1.4079638E+00   1.4069233E+00   1.6890857E+00   1.5536097E+00   1.5054550E+00   1.4583104E+00   1.4200524E+00   1.3856773E+00   1.3238071E+00   1.3260148E+00   1.6135243E+00   1.4622531E+00   1.4150765E+00   1.3696902E+00   1.3343610E+00   1.3047469E+00   1.2483273E+00   1.2512133E+00   1.5349338E+00   1.3634053E+00   1.3198485E+00   1.2793939E+00   1.2503102E+00   1.2287058E+00   1.1800814E+00   1.1838875E+00   1.4588307E+00   1.2501230E+00   1.2119024E+00   1.1784049E+00   1.1573825E+00   1.1449437E+00   1.1050888E+00   1.1111538E+00   1.3762794E+00   1.1098984E+00   1.0778002E+00   1.0522908E+00   1.0402824E+00   1.0372087E+00   1.0074635E+00   1.0183351E+00   1.2727559E+00   9.3901372E-01   9.1283518E-01   8.9538980E-01   8.9224863E-01   8.9858902E-01   8.8039446E-01   8.9960933E-01   1.1411953E+00   7.4993205E-01   7.2839653E-01   7.1786571E-01   7.2219986E-01   7.3699200E-01   7.3217231E-01   7.6076579E-01   9.8904085E-01   5.6622064E-01   5.4765475E-01   5.4203224E-01   5.5253768E-01   5.7268608E-01   5.8131576E-01   6.1889350E-01   8.3171999E-01   4.0893579E-01   3.9223748E-01   3.8967222E-01   4.0520969E-01   4.2988169E-01   4.4526055E-01   4.9134564E-01   6.8499786E-01   2.8790444E-01   2.7292237E-01   2.7251589E-01   2.9122508E-01   3.2047746E-01   3.3834013E-01   3.8617730E-01   5.6578028E-01   2.0217484E-01   1.8955883E-01   1.9123472E-01   2.1113874E-01   2.4369562E-01   2.6402158E-01   3.0458212E-01   4.7507578E-01   1.4467238E-01   1.3537386E-01   1.3922283E-01   1.5934205E-01   1.9188546E-01   2.1181631E-01   2.4677098E-01   4.0603098E-01   1.0723104E-01   1.0194336E-01   1.0750753E-01   1.2652664E-01   1.5593594E-01   1.7314136E-01   2.0903054E-01   3.4733361E-01   8.3883904E-02   8.2431763E-02   8.8416807E-02   1.0449541E-01   1.2937915E-01   1.4668840E-01   1.9087920E-01   3.0381596E-01   7.1532503E-02   7.2498031E-02   7.6876715E-02   8.8128537E-02   1.0555711E-01   1.2285359E-01   1.8071711E-01   2.9363328E-01   6.8588480E-02   6.9519967E-02   7.0121393E-02   7.4780911E-02   8.3749473E-02   9.8494701E-02   1.7563038E-01   7.2600335E-02   7.0643015E-02   6.5743484E-02   6.4235151E-02   6.7433350E-02   9.1991693E-02   1.7895383E-01   7.9261288E-02   7.2272278E-02   6.3698165E-02   6.3813150E-02   6.9271415E-02   1.1634236E-01   8.3555758E-02   7.3485576E-02   7.1455047E-02   8.1586480E-02   1.0853826E-01   1.5629750E-01   8.5081905E-02   8.5832283E-02   1.0086001E-01   1.2692970E-01   1.6402240E-01   1.0117598E-01   1.2195671E-01   1.5859081E-01   1.8654409E-01   1.4469439E-01   1.7877519E-01   2.1864037E-01   1.8735616E-01   1.8891512E-01   2.0281175E-01   1.7938261E-01 
VonMises3D 1 2975 float
  0.0000000E+00   0.0000000E+00   0.0000000E+00   0.0000000E+00   0.0000000E+00   0.0000000E+00   0.0000000E+00   0.0000000E+00   0.0000000E+00   0.0000000E+00   0.0000000E+00   0.0000000E+00   0.0000000E+00   3.1779933E-04   2.4670209E-18   2.3561122E-03   1.3235464E-02   5.0426777E-03   3.5733510E-02   9.3136877E-02   4.7512729E-02   1.7338425E-01   3.4506139E-01   1.8632007E-01   5.2062786E-01   9.0945691E-01   4.8450693E-01   1.1819344E+00   1.9234365E+00   9.8128057E-01   2.2189467E+00   3.4687803E+00   1.6714990E+00   3.6179504E+00   5.5251617E+00   2.5080783E+00   5.2933373E+00   7.9668980E+00   3.4316249E+00   7.1400833E+00   1.0638005E+01   4.4104829E+00   9.1067419E+00   1.3468216E+01   5.4694524E+00   1.1242504E+01   1.6567692E+01   6.9395428E+00   1.3736934E+01   2.0413631E+01   1.2279964E+01   1.7989767E+01   2.6263929E+01   3.4381622E+01   3.3559093E+01   3.6324921E+01   9.9256264E+01   8.5724068E+01   5.1942268E+01   2.5120172E+02   2.0703287E+02   7.0645805E+01   4.1246298E+02   9.9209312E+01   0.0000000E+00   0.0000000E+00   0.0000000E+00   0.0000000E+00   0.0000000E+00   0.0000000E+00   0.0000000E+00   0.0000000E+00   0.0000000E+00   0.0000000E+00   0.0000000E+00   0.0000000E+00   0.0000000E+00   0.0000000E+00   0.0000000E+00   0.0000000E+00   0.0000000E+00   0.0000000E+00   0.0000000E+00   0.0000000E+00   0.0000000E+00   0.0000000E+00   0.0000000E+00   0.0000000E+00   0.0000000E+00   2.0190282E-05   6.2839048E-05   3.5619832E-05   4.5352554E-05   7.9795333E-05   8.9255082E-05   9.4715280E-05   1.9823404E-03   4.2054118E-03   5.1124217E-03   3.7687626E-03   6.6824484E-04   2.6792441E-03   4.6825493E-03   5.2065956E-03   2.8818235E-02   3.9997596E-02   4.0706728E-02   2.9532200E-02   9.4517069E-03   1.2535942E-02   2.9065978E-02   3.7240416E-02   1.4832669E-01   1.7656280E-01   1.6705422E-01   1.1895106E-01   4.2593624E-02   3.9745167E-02   1.0430679E-01   1.4060512E-01   4.7959840E-01   5.3049117E-01   4.8290002E-01   3.3915341E-01   1.2608960E-01   1.0055783E-01   2.8077403E-01   3.8643169E-01   1.1778563E+00   1.2524191E+00   1.1153911E+00   7.7513605E-01   2.9107302E-01   2.1615715E-01   6.1977518E-01   8.6029780E-01   2.3965201E+00   2.4944415E+00   2.1933579E+00   1.5080415E+00   5.6041789E-01   4.1242933E-01   1.1791675E+00   1.6369039E+00   4.2312717E+00   4.3537302E+00   3.7942092E+00   2.5711553E+00   9.2511910E-01   7.1709490E-01   1.9906029E+00   2.7454822E+00   6.6599431E+00   6.8031101E+00   5.8556161E+00   9.5212851E+00   9.6574697E+00   1.2605898E+01   1.2659820E+01   1.5829193E+01   1.5734159E+01   1.9354364E+01   1.9045975E+01   2.4461462E+01   2.4398018E+01   3.8267498E+01   4.4442734E+01   7.9772659E+01   1.0980373E+02   1.7440933E+02   2.6079660E+02   3.3669247E+02   5.3281842E+02   5.3424054E+02   8.9817957E+02   0.0000000E+00   0.0000000E+00   0.0000000E+00   0.0000000E+00   0.0000000E+00   0.0000000E+00   0.0000000E+00   0.0000000E+00   0.0000000E+00   0.0000000E+00   0.0000000E+00   0.0000000E+00   0.0000000E+00   0.0000000E+00   0.0000000E+00   0.0000000E+00   0.0000000E+00   0.0000000E+00   0.0000000E+00   0.0000000E+00   0.0000000E+00   0.0000000E+00   0.0000000E+00   0.0000000E+00   0.0000000E+00   0.0000000E+00   0.0000000E+00   9.7087650E-05   9.7315715E-05   9.6370713E-05   9.4934527E-05   9.3249917E-05   9.1593676E-05   9.0141832E-05   8.9000074E-05   8.8283778E-05   5.2526547E-03   5.1226341E-03   4.8987032E-03   4.6420796E-03   4.3897051E-03   4.1623660E-03   3.9725443E-03   3.8302653E-03   3.7421260E-03   3.8632620E-02   3.7364587E-02   3.5195455E-02   3.2691553E-02   3.0223785E-02   2.8010819E-02   2.6181230E-02   2.4817562E-02   2.3976760E-02   1.5200384E-01   1.4808320E-01   1.3861887E-01   1.2740162E-01   1.1620627E-01   1.0612440E-01   9.7792342E-02   9.1596842E-02   8.7784313E-02   4.2468089E-01   4.1886008E-01   3.9160454E-01   3.5793847E-01   3.2386661E-01   2.9298216E-01   2.6740867E-01   2.4839738E-01   2.3670703E-01   9.5143402E-01   9.4317901E-01   8.8308626E-01   8.0446327E-01   7.2394049E-01   6.5049958E-01   5.8953595E-01   5.4419124E-01   5.1631290E-01   1.8121171E+00   1.7972901E+00   1.6829479E+00   1.5289674E+00   1.3699360E+00   1.2242311E+00   1.1030316E+00   1.0128293E+00   9.5737487E-01   3.0312479E+00   3.0002105E+00   2.8043611E+00   2.5411532E+00   2.2679327E+00   2.0169368E+00   1.8078829E+00   1.6522386E+00   1.5565633E+00   0.0000000E+00   0.0000000E+00   0.0000000E+00   0.0000000E+00   0.0000000E+00   0.0000000E+00   0.0000000E+00   0.0000000E+00   0.0000000E+00   0.0000000E+00   0.0000000E+00   0.0000000E+00   0.0000000E+00   0.0000000E+00   0.0000000E+00   0.0000000E+00   0.0000000E+00   0.0000000E+00   0.0000000E+00   0.0000000E+00   0.0000000E+00   0.0000000E+00   0.0000000E+00   0.0000000E+00   8.8039684E-05   8.8283792E-05   8.9000081E-05   9.0141839E-05   9.1593691E-05   9.3249939E-05   9.4934527E-05   9.6370684E-05   3.7121773E-03   3.7421265E-03   3.8302650E-03   3.9725443E-03   4.1623670E-03   4.3897056E-03   4.6420800E-03   4.8987032E-03   2.3692843E-02   2.3976762E-02   2.4817564E-02   2.6181230E-02   2.8010821E-02   3.0223789E-02   3.2691553E-02   3.5195459E-02   8.6498238E-02   8.7784313E-02   9.1596864E-02   9.7792365E-02   1.0612442E-01   1.1620627E-01   1.2740162E-01   1.3861889E-01   2.3276401E-01   2.3670706E-01   2.4839742E-01   2.6740879E-01   2.9298228E-01   3.2386667E-01   3.5793847E-01   3.9160460E-01   5.0690955E-01   5.1631296E-01   5.4419130E-01   5.8953613E-01   6.5049976E-01   7.2394067E-01   8.0446333E-01   8.8308638E-01   9.3867254E-01   9.5737493E-01   1.0128295E+00   1.1030320E+00   1.2242315E+00   1.3699363E+00   1.5289677E+00   1.6829485E+00   1.5243034E+00   1.5565633E+00   1.6522391E+00   1.8078830E+00   2.0169373E+00   2.2679329E+00   2.5411537E+00   2.8043616E+00   0.0000000E+00   0.0000000E+00   0.0000000E+00   0.0000000E+00   0.0000000E+00   0.0000000E+00   0.0000000E+00   0.0000000E+00   0.0000000E+00   0.0000000E+00   0.0000000E+00   0.0000000E+00   0.0000000E+00   0.0000000E+00   0.0000000E+00   0.0000000E+00   0.0000000E+00   0.0000000E+00   0.0000000E+00   0.0000000E+00   0.0000000E+00   0.0000000E+00   0.0000000E+00   0.0000000E+00   0.0000000E+00   0.0000000E+00   0.0000000E+00   9.7315693E-05   9.7087694E-05   9.4715331E-05   8.9255125E-05   7.9795347E-05   4.5352575E-05   3.5619825E-05   6.2839048E-05   2.0190277E-05   5.1226341E-03   5.2526575E-03   5.2065980E-03   4.6825511E-03   2.6792453E-03   6.6824455E-04   3.7687635E-03   5.1124217E-03   4.2054099E-03   3.7364591E-02   3.8632635E-02   3.7240434E-02   2.9065991E-02   1.2535951E-02   9.4517041E-03   2.9532207E-02   4.0706728E-02   3.9997593E-02   1.4808321E-01   1.5200388E-01   1.4060520E-01   1.0430686E-01   3.9745219E-02   4.2593602E-02   1.1895110E-01   1.6705422E-01   1.7656283E-01   4.1886011E-01   4.2468104E-01   3.8643181E-01   2.8077427E-01   1.0055800E-01   1.2608953E-01   3.3915347E-01   4.8289996E-01   5.3049123E-01   9.4317907E-01   9.5143420E-01   8.6029828E-01   6.1977571E-01   2.1615748E-01   2.9107282E-01   7.7513623E-01   1.1153915E+00   1.2524194E+00   1.7972904E+00   1.8121171E+00   1.6369046E+00   1.1791682E+00   4.1242990E-01   5.6041753E-01   1.5080415E+00   2.1933587E+00   2.4944425E+00   3.0002115E+00   3.0312486E+00   2.7454834E+00   1.9906044E+00   7.1709627E-01   9.2511845E-01   2.5711553E+00   3.7942107E+00   4.3537316E+00   5.8556185E+00   6.8031125E+00   9.6574717E+00   1.2659822E+01   1.5734159E+01   1.9045977E+01   2.4398022E+01   4.4442745E+01   1.0980373E+02   2.6079660E+02   5.3281842E+02   8.9817944E+02   0.0000000E+00   0.0000000E+00   0.0000000E+00   0.0000000E+00   0.0000000E+00   0.0000000E+00   0.0000000E+00   0.0000000E+00   0.0000000E+00   0.0000000E+00   0.0000000E+00   0.0000000E+00   0.0000000E+00   0.0000000E+00   0.0000000E+00   1.9823399E-03   3.1779933E-04   0.0000000E+00   0.0000000E+00   2.8818231E-02   1.3235463E-02   2.3561127E-03   2.4670213E-18   1.4832669E-01   9.3136892E-02   3.5733517E-02   5.0426791E-03   4.7959837E-01   3.4506136E-01   1.7338425E-01   4.7512744E-02   1.1778562E+00   9.0945691E-01   5.2062774E-01   1.8632010E-01   2.3965206E+00   1.9234362E+00   1.1819342E+00   4.8450702E-01   4.2312732E+00   3.4687810E+00   2.2189465E+00   9.8128086E-01   6.6599441E+00   5.5251622E+00   3.6179504E+00   1.6714993E+00   9.5212889E+00   7.9669008E+00   5.2933373E+00   2.5080783E+00   1.2605902E+01   1.0638008E+01   7.1400847E+00   3.4316254E+00   1.5829193E+01   1.3468216E+01   9.1067438E+00   4.4104834E+00   1.9354366E+01   1.6567692E+01   1.1242504E+01   5.4694529E+00   2.4461466E+01   2.0413633E+01   1.3736938E+01   6.9395437E+00   3.8267502E+01   2.6263931E+01   1.7989769E+01   1.2279964E+01   7.9772644E+01   3.6324924E+01   3.3559090E+01   3.4381622E+01   1.7440941E+02   5.1942284E+01   8.5724083E+01   9.9256279E+01   3.3669260E+02   7.0645821E+01   2.0703284E+02   2.5120177E+02   5.3424066E+02   9.9209312E+01   4.1246304E+02   0.0000000E+00   0.0000000E+00   0.0000000E+00   0.0000000E+00   0.0000000E+00   0.0000000E+00   0.0000000E+00   0.0000000E+00   0.0000000E+00   0.0000000E+00   0.0000000E+00   0.0000000E+00   0.0000000E+00   0.0000000E+00   0.0000000E+00   0.0000000E+00   0.0000000E+00   0.0000000E+00   0.0000000E+00   0.0000000E+00   0.0000000E+00   0.0000000E+00   0.0000000E+00   0.0000000E+00   0.0000000E+00   0.0000000E+00   0.0000000E+00   0.0000000E+00   0.0000000E+00   0.0000000E+00   0.0000000E+00   0.0000000E+00   0.0000000E+00   0.0000000E+00   0.0000000E+00   0.0000000E+00   0.0000000E+00   0.0000000E+00   0.0000000E+00   0.0000000E+00   0.0000000E+00   0.0000000E+00   0.0000000E+00   0.0000000E+00   0.0000000E+00   0.0000000E+00   0.0000000E+00   0.0000000E+00   0.0000000E+00   0.0000000E+00   0.0000000E+00   0.0000000E+00   0.0000000E+00   0.0000000E+00   0.0000000E+00   0.0000000E+00   0.0000000E+00   0.0000000E+00   0.0000000E+00   0.0000000E+00   0.0000000E+00   0.0000000E+00   0.0000000E+00   0.0000000E+00   0.0000000E+00   0.0000000E+00   0.0000000E+00   0.0000000E+00   0.0000000E+00   0.0000000E+00   0.0000000E+00   0.0000000E+00   0.0000000E+00   0.0000000E+00   0.0000000E+00   0.0000000E+00   0.0000000E+00   0.0000000E+00   0.0000000E+00   0.0000000E+00   0.0000000E+00   0.0000000E+00   0.0000000E+00   0.0000000E+00   0.0000000E+00   0.0000000E+00   0.0000000E+00   0.0000000E+00   0.0000000E+00   0.0000000E+00   0.0000000E+00   0.0000000E+00   0.0000000E+00   0.0000000E+00   0.0000000E+00   0.0000000E+00   0.0000000E+00   0.0000000E+00   0.0000000E+00   0.0000000E+00   0.0000000E+00   0.0000000E+00   0.0000000E+00   0.0000000E+00   0.0000000E+00   0.0000000E+00   0.0000000E+00   0.0000000E+00   0.0000000E+00   0.0000000E+00   0.0000000E+00   0.0000000E+00   0.0000000E+00   0.0000000E+00   0.0000000E+00   0.0000000E+00   0.0000000E+00   0.0000000E+00   0.0000000E+00   0.0000000E+00   0.0000000E+00   0.0000000E+00   0.0000000E+00   0.0000000E+00   0.0000000E+00   0.0000000E+00   0.0000000E+00   0.0000000E+00   0.0000000E+00   0.0000000E+00   0.0000000E+00   0.0000000E+00   0.0000000E+00   0.0000000E+00   0.0000000E+00   0.0000000E+00   0.0000000E+00   0.0000000E+00   0.0000000E+00   0.0000000E+00   0.0000000E+00   0.0000000E+00   0.0000000E+00   0.0000000E+00   0.0000000E+00   0.0000000E+00   0.0000000E+00   0.0000000E+00   0.0000000E+00   0.0000000E+00   0.0000000E+00   0.0000000E+00   0.0000000E+00   0.0000000E+00   0.0000000E+00   0.0000000E+00   0.0000000E+00   0.0000000E+00   0.0000000E+00   0.0000000E+00   0.0000000E+00   0.0000000E+00   0.0000000E+00   0.0000000E+00   0.0000000E+00   0.0000000E+00   0.0000000E+00   0.0000000E+00   0.0000000E+00   0.0000000E+00   0.0000000E+00   0.0000000E+00   0.0000000E+00   0.0000000E+00   0.0000000E+00   0.0000000E+00   0.0000000E+00   0.0000000E+00   0.0000000E+00   0.0000000E+00   0.0000000E+00   0.0000000E+00   0.0000000E+00   0.0000000E+00   0.0000000E+00   0.0000000E+00   0.0000000E+00   0.0000000E+00   0.0000000E+00   0.0000000E+00   0.0000000E+00   0.0000000E+00   0.0000000E+00   0.0000000E+00   0.0000000E+00   0.0000000E+00   0.0000000E+00   0.0000000E+00   0.0000000E+00   0.0000000E+00   0.0000000E+00   0.0000000E+00   0.0000000E+00   0.0000000E+00   0.0000000E+00   0.0000000E+00   0.0000000E+00   0.0000000E+00   0.0000000E+00   0.0000000E+00   0.0000000E+00   0.0000000E+00   0.0000000E+00   0.0000000E+00   0.0000000E+00   0.0000000E+00   0.0000000E+00   0.0000000E+00   0.0000000E+00   0.0000000E+00   0.0000000E+00   0.0000000E+00   0.0000000E+00   0.0000000E+00   0.0000000E+00   0.0000000E+00   0.0000000E+00   0.0000000E+00   0.0000000E+00   0.0000000E+00   0.0000000E+00   0.0000000E+00   0.0000000E+00   0.0000000E+00   0.0000000E+00   0.0000000E+00   0.0000000E+00   0.0000000E+00   0.0000000E+00   0.0000000E+00   0.0000000E+00   0.0000000E+00   0.0000000E+00   0.0000000E+00   0.0000000E+00   0.0000000E+00   0.0000000E+00   0.0000000E+00   0.0000000E+00   0.0000000E+00   0.0000000E+00   0.0000000E+00   0.0000000E+00   0.0000000E+00   0.0000000E+00   0.0000000E+00   0.0000000E+00   0.0000000E+00   0.0000000E+00   0.0000000E+00   0.0000000E+00   0.0000000E+00   0.0000000E+00   0.0000000E+00   0.0000000E+00   0.0000000E+00   0.0000000E+00   0.0000000E+00   0.0000000E+00   0.0000000E+00   0.0000000E+00   0.0000000E+00   0.0000000E+00   0.0000000E+00   0.0000000E+00   0.0000000E+00   0.0000000E+00   0.0000000E+00   0.0000000E+00   0.0000000E+00   0.0000000E+00   0.0000000E+00   0.0000000E+00   0.0000000E+00   0.0000000E+00   0.0000000E+00   0.0000000E+00   0.0000000E+00   0.0000000E+00   0.0000000E+00   0.0000000E+00   0.0000000E+00   0.0000000E+00   0.0000000E+00   0.0000000E+00   0.0000000E+00   0.0000000E+00   0.0000000E+00   0.0000000E+00   0.0000000E+00   0.0000000E+00   0.0000000E+00   0.0000000E+00   0.0000000E+00   0.0000000E+00   0.0000000E+00   0.0000000E+00   0.0000000E+00   0.0000000E+00   0.0000000E+00   0.0000000E+00   0.0000000E+00   0.0000000E+00   0.0000000E+00   0.0000000E+00   0.0000000E+00   0.0000000E+00   0.0000000E+00   0.0000000E+00   0.0000000E+00   0.0000000E+00   0.0000000E+00   0.0000000E+00   0.0000000E+00   0.0000000E+00   0.0000000E+00   0.0000000E+00   0.0000000E+00   0.0000000E+00   0.0000000E+00   0.0000000E+00   0.0000000E+00   0.0000000E+00   0.0000000E+00   0.0000000E+00   0.0000000E+00   0.0000000E+00   0.0000000E+00   0.0000000E+00   0.0000000E+00   0.0000000E+00   0.0000000E+00   0.0000000E+00   0.0000000E+00   0.0000000E+00   0.0000000E+00   0.0000000E+00   0.0000000E+00   0.0000000E+00   0.0000000E+00   0.0000000E+00   0.0000000E+00   0.0000000E+00   0.0000000E+00   0.0000000E+00   0.0000000E+00   0.0000000E+00   0.0000000E+00   0.0000000E+00   0.0000000E+00   0.0000000E+00   0.0000000E+00   0.0000000E+00   0.0000000E+00   0.0000000E+00   0.0000000E+00   0.0000000E+00   0.0000000E+00   0.0000000E+00   0.0000000E+00   0.0000000E+00   0.0000000E+00   0.0000000E+00   0.0000000E+00   0.0000000E+00   0.0000000E+00   0.0000000E+00   0.0000000E+00   0.0000000E+00   0.0000000E+00   0.0000000E+00   0.0000000E+00   0.0000000E+00   0.0000000E+00   0.0000000E+00   0.0000000E+00   0.0000000E+00   0.0000000E+00   0.0000000E+00   0.0000000E+00   0.0000000E+00   0.0000000E+00   0.0000000E+00   0.0000000E+00   0.0000000E+00   0.0000000E+00   0.0000000E+00   0.0000000E+00   0.0000000E+00   0.0000000E+00   0.0000000E+00   0.0000000E+00   0.0000000E+00   0.0000000E+00   0.0000000E+00   0.0000000E+00   0.0000000E+00   0.0000000E+00   0.0000000E+00   0.0000000E+00   0.0000000E+00   0.0000000E+00   0.0000000E+00   0.0000000E+00   0.0000000E+00   0.0000000E+00   0.0000000E+00   0.0000000E+00   0.0000000E+00   0.0000000E+00   0.0000000E+00   0.0000000E+00   0.0000000E+00   0.0000000E+00   0.0000000E+00   0.0000000E+00   0.0000000E+00   0.0000000E+00   0.0000000E+00   0.0000000E+00   0.0000000E+00   0.0000000E+00   0.0000000E+00   0.0000000E+00   0.0000000E+00   0.0000000E+00   0.0000000E+00   0.0000000E+00   0.0000000E+00   0.0000000E+00   0.0000000E+00   0.0000000E+00   0.0000000E+00   0.0000000E+00   0.0000000E+00   0.0000000E+00   0.0000000E+00   0.0000000E+00   0.0000000E+00   0.0000000E+00   0.0000000E+00   0.0000000E+00   0.0000000E+00   0.0000000E+00   0.0000000E+00   0.0000000E+00   0.0000000E+00   0.0000000E+00   0.0000000E+00   0.0000000E+00   0.0000000E+00   0.0000000E+00   0.0000000E+00   0.0000000E+00   0.0000000E+00   0.0000000E+00   0.0000000E+00   0.0000000E+00   0.0000000E+00   0.0000000E+00   0.0000000E+00   0.0000000E+00   3.8142529E+00   1.3276767E+00   1.1411517E+00   3.0267370E+00   4.1317320E+00   7.6183181E+00   5.1604590E+00   1.6916744E+00   1.6789751E+00   4.2196794E+00   5.6867499E+00   9.8762417E+00   6.4853201E+00   1.9617029E+00   2.3428953E+00   5.5368600E+00   7.3423796E+00   1.2133050E+01   7.7569242E+00   2.1076839E+00   3.1614871E+00   6.9954996E+00   9.1005878E+00   1.4460812E+01   8.9964571E+00   2.1168597E+00   4.1770897E+00   8.6551580E+00   1.1030812E+01   1.8339523E+01   1.1154155E+01   2.8374481E+00   5.5186424E+00   1.0638794E+01   1.3273849E+01   3.6993179E+01   2.4359608E+01   1.0972116E+01   8.3131990E+00   1.3276748E+01   1.6111164E+01   9.9162033E+01   6.9244408E+01   3.5744141E+01   1.7221964E+01   1.7513283E+01   2.0125854E+01   2.3553807E+02   1.6447702E+02   8.6415680E+01   3.7541023E+01   2.5375444E+01   2.6357794E+01   4.6063327E+02   3.1495605E+02   1.6344951E+02   6.9257767E+01   3.8881454E+01   3.6309719E+01   7.2088025E+02   4.8354266E+02   2.4644211E+02   1.0460405E+02   5.8395508E+01   5.1712215E+01   9.0306183E+02   5.9313129E+02   2.9830582E+02   1.3240691E+02   8.4038895E+01   7.4223434E+01   9.1419171E+02   5.8646747E+02   2.9621027E+02   1.5270227E+02   1.1828002E+02   1.0513467E+02   7.4357874E+02   4.7774158E+02   2.6475906E+02   1.8442963E+02   1.6412910E+02   1.4492511E+02   5.4351007E+02   3.7714420E+02   2.7159308E+02   2.4132594E+02   2.2115149E+02   1.9314294E+02   4.7582700E+02   3.8530978E+02   3.3650824E+02   3.1533344E+02   2.8697482E+02   2.4912056E+02   5.3143115E+02   4.6443301E+02   4.2476175E+02   3.9805084E+02   3.6050851E+02   3.1273773E+02   6.2508026E+02   5.6128796E+02   5.2113666E+02   4.8916040E+02   4.4288327E+02   3.8441635E+02   7.3617377E+02   6.7084253E+02   6.2918475E+02   5.9195020E+02   5.3574884E+02   4.6472427E+02   8.7282410E+02   8.0186707E+02   7.5442737E+02   7.0901141E+02   6.4018140E+02   5.5395447E+02   1.0417660E+03   9.5922461E+02   8.9918304E+02   8.4112317E+02   7.5626349E+02   6.5176306E+02   1.2488474E+03   1.1442803E+03   1.0621758E+03   9.8678973E+02   8.8268591E+02   7.5709283E+02   1.4962981E+03   1.3537173E+03   1.2373376E+03   1.1418694E+03   1.0169695E+03   8.6877704E+02   1.7837111E+03   1.5769982E+03   1.4140253E+03   1.3009098E+03   1.1570372E+03   9.8719952E+02   2.0992837E+03   1.7938669E+03   1.5787441E+03   1.4605009E+03   1.3047457E+03   1.1172577E+03   2.4193018E+03   1.9760245E+03   1.7212272E+03   1.6267744E+03   1.4720343E+03   1.2729518E+03   2.7114436E+03   2.1026611E+03   1.8494957E+03   1.8259117E+03   1.6891213E+03   1.4834955E+03   2.9399192E+03   2.1683301E+03   2.0033492E+03   2.1103767E+03   2.0097648E+03   1.7984591E+03   3.0958865E+03   2.2190867E+03   2.2571663E+03   2.5559915E+03   2.5079805E+03   2.2858162E+03   3.2442075E+03   2.3870488E+03   2.7156514E+03   3.2424917E+03   3.2614709E+03   3.0180034E+03   3.6125479E+03   2.9356050E+03   3.5088728E+03   4.2336475E+03   4.3132290E+03   4.0459922E+03   4.6682227E+03   4.2905552E+03   4.8348179E+03   5.5335981E+03   5.6601484E+03   5.3747124E+03   6.8787109E+03   6.8458062E+03   7.0801846E+03   7.2310376E+03   7.2501509E+03   6.9468340E+03   9.7762402E+03   1.0115531E+04   1.0203586E+04   9.4064590E+03   9.0300293E+03   8.6445654E+03   1.1910183E+04   1.2745572E+04   1.3006566E+04   1.1593173E+04   1.0785205E+04   1.0291574E+04   1.2807252E+04   1.4053856E+04   1.4895791E+04   1.3287908E+04   1.2271147E+04   1.1710857E+04   1.2834354E+04   1.4071934E+04   1.5530825E+04   1.4272474E+04   1.3305867E+04   1.2769389E+04   1.2510522E+04   1.3493208E+04   1.5217710E+04   1.4463950E+04   1.3810373E+04   1.3425068E+04   1.2371495E+04   1.3047375E+04   1.4860922E+04   1.4453821E+04   1.4051288E+04   1.3783193E+04   1.2474040E+04   1.2911463E+04   1.4682087E+04   1.4423787E+04   1.4142074E+04   1.3928164E+04   1.2727218E+04   1.3022114E+04   1.4686329E+04   1.4417475E+04   1.4137286E+04   1.3922061E+04   1.3008101E+04   1.3264404E+04   1.4806795E+04   1.4403845E+04   1.4044523E+04   1.3792568E+04   1.3027714E+04   1.3310781E+04   1.4759287E+04   1.4258623E+04   1.3828285E+04   1.3537653E+04   1.2753564E+04   1.3087449E+04   1.4456783E+04   1.3927989E+04   1.3462405E+04   1.3145072E+04   1.2247549E+04   1.2623318E+04   1.3903991E+04   1.3397970E+04   1.2935876E+04   1.2607469E+04   1.1573410E+04   1.1953654E+04   1.3123810E+04   1.2670220E+04   1.2251839E+04   1.1930394E+04   1.0763244E+04   1.1116520E+04   1.2167774E+04   1.1781306E+04   1.1431772E+04   1.1133559E+04   9.8493564E+03   1.0191716E+04   1.1117488E+04   1.0798664E+04   1.0522775E+04   1.0248155E+04   8.8633232E+03   9.2006543E+03   1.0024007E+04   9.7913359E+03   9.5645859E+03   9.3088379E+03   7.8116631E+03   8.1495703E+03   8.9341982E+03   8.7934873E+03   8.5888535E+03   8.3531943E+03   6.6706274E+03   7.0619399E+03   7.8927236E+03   7.8293413E+03   7.6398540E+03   7.4230703E+03   5.4695376E+03   6.0283413E+03   6.9343813E+03   6.9401416E+03   6.7704595E+03   6.5565825E+03   4.5079907E+03   5.1688667E+03   6.0872935E+03   6.1658789E+03   6.0054009E+03   5.7774399E+03   4.0407385E+03   4.6590635E+03   5.4666270E+03   5.5487661E+03   5.3609839E+03   5.1010425E+03   4.2776689E+03   4.2900938E+03   5.0785942E+03   5.1348643E+03   4.8829854E+03   4.5442700E+03   3.6621892E+03   4.7787554E+03   4.9529448E+03   4.6116855E+03   4.1409790E+03   3.0639846E+03   4.2390791E+03   4.8264990E+03   4.5080283E+03   3.9155459E+03   3.1548994E+03   4.3890938E+03   4.4293179E+03   3.8284329E+03   2.5135002E+03   3.3475732E+03   4.0690693E+03   3.7502146E+03   2.0921326E+03   3.0824700E+03   3.4228850E+03   1.7490330E+03   2.5240544E+03   2.2697905E+03   1.3575703E+03   4.5391307E+00   4.4766364E+00   4.1725659E+00   3.7707334E+00   3.3531048E+00   2.9689741E+00   2.6488214E+00   2.4104424E+00   2.2639413E+00   6.2063527E+00   6.0940099E+00   5.6630816E+00   5.1059008E+00   4.5275130E+00   3.9952521E+00   3.5514548E+00   3.2210190E+00   3.0179765E+00   7.9446692E+00   7.7599049E+00   7.1903524E+00   6.4720321E+00   5.7284269E+00   5.0440483E+00   4.4731469E+00   4.0479698E+00   3.7866948E+00   9.7439833E+00   9.4594326E+00   8.7409801E+00   7.8585372E+00   6.9485788E+00   6.1110692E+00   5.4117994E+00   4.8905621E+00   4.5700736E+00   1.1677121E+01   1.1264701E+01   1.0383475E+01   9.3277674E+00   8.2438278E+00   7.2454147E+00   6.4101686E+00   5.7863946E+00   5.4023447E+00   1.3897899E+01   1.3331874E+01   1.2264424E+01   1.1012519E+01   9.7304602E+00   8.5464468E+00   7.5522738E+00   6.8074317E+00   6.3478131E+00   1.6666679E+01   1.5904244E+01   1.4605038E+01   1.3109377E+01   1.1577209E+01   1.0155008E+01   8.9543123E+00   8.0507889E+00   7.4916182E+00   2.0436092E+01   1.9345928E+01   1.7712513E+01   1.5877563E+01   1.3998583E+01   1.2244551E+01   1.0754917E+01   9.6287518E+00   8.9297256E+00   2.5970982E+01   2.4214584E+01   2.2011314E+01   1.9648165E+01   1.7253036E+01   1.5014558E+01   1.3106887E+01   1.1660173E+01   1.0760351E+01   3.4395779E+01   3.1316759E+01   2.8075115E+01   2.4836500E+01   2.1643600E+01   1.8685434E+01   1.6169981E+01   1.4262908E+01   1.3076664E+01   4.7091240E+01   4.1666039E+01   3.6612877E+01   3.1933079E+01   2.7507246E+01   2.3486532E+01   2.0098890E+01   1.7542490E+01   1.5956202E+01   6.5437332E+01   5.6321236E+01   4.8385082E+01   4.1457470E+01   3.5186729E+01   2.9636633E+01   2.5028954E+01   2.1581312E+01   1.9452095E+01   9.0490295E+01   7.6170303E+01   6.4072243E+01   5.3884136E+01   4.4989746E+01   3.7322746E+01   3.1066389E+01   2.6435738E+01   2.3593977E+01   1.2275415E+02   1.0176198E+02   8.4150925E+01   6.9566200E+01   5.7148731E+01   4.6684372E+01   3.8288967E+01   3.2147125E+01   2.8404928E+01   1.6221696E+02   1.3327061E+02   1.0883720E+02   8.8691231E+01   7.1800629E+01   5.7816589E+01   4.6767731E+01   3.8776756E+01   3.3944202E+01   2.0863797E+02   1.7059431E+02   1.3811620E+02   1.1129037E+02   8.9005478E+01   7.0808060E+01   5.6623684E+01   4.6477253E+01   4.0387634E+01   2.6184708E+02   2.1352058E+02   1.7183224E+02   1.3730411E+02   1.0881761E+02   8.5830078E+01   6.8135986E+01   5.5615704E+01   4.8160145E+01   3.2179251E+02   2.6183801E+02   2.0979631E+02   1.6670024E+02   1.3142197E+02   1.0329329E+02   8.1917465E+01   6.6963036E+01   5.8133198E+01   3.8848996E+02   3.1535281E+02   2.5189975E+02   1.9965427E+02   1.5735608E+02   1.2409402E+02   9.9174194E+01   8.1960426E+01   7.1893906E+01   4.6180920E+02   3.7388675E+02   2.9828058E+02   2.3682584E+02   1.8784341E+02   1.4996675E+02   1.2205613E+02   1.0305997E+02   9.2076637E+01   5.4134564E+02   4.3741583E+02   3.4965048E+02   2.7978983E+02   2.2525998E+02   1.8394104E+02   1.5408026E+02   1.3411032E+02   1.2272157E+02   6.2665308E+02   5.0654108E+02   4.0790424E+02   3.3168030E+02   2.7373920E+02   2.3086813E+02   2.0056857E+02   1.8071758E+02   1.6958391E+02   7.1807629E+02   5.8343604E+02   4.7706284E+02   3.9803232E+02   3.3985416E+02   2.9792773E+02   2.6899695E+02   2.5046951E+02   2.4027873E+02   8.1834314E+02   6.7327594E+02   5.6445422E+02   4.8766434E+02   4.3320029E+02   3.9493948E+02   3.6908438E+02   3.5286295E+02   3.4410989E+02   9.3491278E+02   7.8592584E+02   6.8179028E+02   6.1325061E+02   5.6657080E+02   5.3423822E+02   5.1244073E+02   4.9879056E+02   4.9146048E+02   1.0829994E+03   9.3757562E+02   8.4574524E+02   7.9120575E+02   7.5543158E+02   7.2990002E+02   7.1164789E+02   6.9953113E+02   6.9273273E+02   1.2894980E+03   1.1524304E+03   1.0779580E+03   1.0407845E+03   1.0166416E+03   9.9635229E+02   9.7885040E+02   9.6536267E+02   9.5698474E+02   1.5969789E+03   1.4648074E+03   1.4051613E+03   1.3829828E+03   1.3669733E+03   1.3469194E+03   1.3244362E+03   1.3043607E+03   1.2908043E+03   2.0634431E+03   1.9197936E+03   1.8597363E+03   1.8404071E+03   1.8225219E+03   1.7931938E+03   1.7565535E+03   1.7220752E+03   1.6981006E+03   2.7528608E+03   2.5683870E+03   2.4784182E+03   2.4375732E+03   2.3991780E+03   2.3453821E+03   2.2814612E+03   2.2219844E+03   2.1806519E+03   3.7156099E+03   3.4545398E+03   3.2952327E+03   3.1980613E+03   3.1117732E+03   3.0121560E+03   2.9037026E+03   2.8058611E+03   2.7385830E+03   4.9652319E+03   4.5956802E+03   4.3273999E+03   4.1355044E+03   3.9689399E+03   3.7977122E+03   3.6242947E+03   3.4726218E+03   3.3695691E+03   6.4571689E+03   5.9627778E+03   5.5581914E+03   5.2403354E+03   4.9637334E+03   4.6953154E+03   4.4361113E+03   4.2148208E+03   4.0660071E+03   8.0815342E+03   7.4699741E+03   6.9252427E+03   6.4682349E+03   6.0634980E+03   5.6791006E+03   5.3173682E+03   5.0133853E+03   4.8104810E+03   9.6793623E+03   8.9838643E+03   8.3230918E+03   7.7376484E+03   7.2047769E+03   6.6984087E+03   6.2265386E+03   5.8332866E+03   5.5720068E+03   1.1085370E+04   1.0355102E+04   9.6232422E+03   8.9413574E+03   8.2996309E+03   7.6815977E+03   7.1051104E+03   6.6258574E+03   6.3081064E+03   1.2178730E+04   1.1462359E+04   1.0709069E+04   9.9739805E+03   9.2572549E+03   8.5529512E+03   7.8908896E+03   7.3394712E+03   6.9738442E+03   1.2916968E+04   1.2246926E+04   1.1510418E+04   1.0763049E+04   1.0009411E+04   9.2518838E+03   8.5316338E+03   7.9289658E+03   7.5287056E+03   1.3340895E+04   1.2719850E+04   1.2018634E+04   1.1286740E+04   1.0527287E+04   9.7472422E+03   8.9964502E+03   8.3646318E+03   7.9440449E+03   1.3519674E+04   1.2933654E+04   1.2268140E+04   1.1563168E+04   1.0816428E+04   1.0035949E+04   9.2767500E+03   8.6345195E+03   8.2060869E+03   1.3517460E+04   1.2947484E+04   1.2307799E+04   1.1629000E+04   1.0902019E+04   1.0133694E+04   9.3809219E+03   8.7418086E+03   8.3148447E+03   1.3373086E+04   1.2804711E+04   1.2179896E+04   1.1521661E+04   1.0815023E+04   1.0064707E+04   9.3271260E+03   8.6998770E+03   8.2806182E+03   1.3099000E+04   1.2527167E+04   1.1911581E+04   1.1269966E+04   1.0583146E+04   9.8538740E+03   9.1368311E+03   8.5271221E+03   8.1197231E+03   1.2693164E+04   1.2121806E+04   1.1517117E+04   1.0893029E+04   1.0227863E+04   9.5230068E+03   8.8309951E+03   8.2433555E+03   7.8511226E+03   1.2153171E+04   1.1591862E+04   1.1005463E+04   1.0404587E+04   9.7661514E+03   9.0908125E+03   8.4290049E+03   7.8680918E+03   7.4942910E+03   1.1485609E+04   1.0945835E+04   1.0387717E+04   9.8183506E+03   9.2138076E+03   8.5745176E+03   7.9489087E+03   7.4197598E+03   7.0677861E+03   1.0708880E+04   1.0201048E+04   9.6806865E+03   9.1510586E+03   8.5877441E+03   7.9912705E+03   7.4079478E+03   6.9154785E+03   6.5885156E+03   9.8505977E+03   9.3821064E+03   8.9063779E+03   8.4227344E+03   7.9066548E+03   7.3588359E+03   6.8230435E+03   6.3713301E+03   6.0718828E+03   8.9428760E+03   8.5175840E+03   8.0898408E+03   7.6555620E+03   7.1906367E+03   6.6957583E+03   6.2114297E+03   5.8033931E+03   5.5331455E+03   8.0194609E+03   7.6373701E+03   7.2569800E+03   6.8721152E+03   6.4598296E+03   6.0204502E+03   5.5902344E+03   5.2277988E+03   4.9877969E+03   7.1143022E+03   6.7702817E+03   6.4322393E+03   6.0932329E+03   5.7324419E+03   5.3493457E+03   4.9747271E+03   4.6590737E+03   4.4499282E+03   6.2600493E+03   5.9424307E+03   5.6373252E+03   5.3369805E+03   5.0236865E+03   4.6955991E+03   4.3767334E+03   4.1083477E+03   3.9303623E+03   5.4824312E+03   5.1761553E+03   4.8907871E+03   4.6188970E+03   4.3461660E+03   4.0692559E+03   3.8044133E+03   3.5826987E+03   3.4357170E+03   4.7945293E+03   4.4873511E+03   4.2082437E+03   3.9531729E+03   3.7114373E+03   3.4786824E+03   3.2633931E+03   3.0859072E+03   2.9688152E+03   4.2003901E+03   3.8838257E+03   3.6019697E+03   3.3531382E+03   3.1314524E+03   2.9327100E+03   2.7590066E+03   2.6204888E+03   2.5304841E+03   3.7083884E+03   3.3647297E+03   3.0779521E+03   2.8294668E+03   2.6181370E+03   2.4418064E+03   2.2986367E+03   2.1905679E+03   2.1225503E+03   3.3498396E+03   2.9343967E+03   2.6332969E+03   2.3859023E+03   2.1800476E+03   2.0161602E+03   1.8916705E+03   1.8034989E+03   1.7504575E+03   3.1602534E+03   2.6263584E+03   2.2693572E+03   2.0164330E+03   1.8170404E+03   1.6609343E+03   1.5459222E+03   1.4677875E+03   1.4224756E+03   3.1013245E+03   2.4850684E+03   2.0217500E+03   1.7221942E+03   1.5201105E+03   1.3714373E+03   1.2625172E+03   1.1883997E+03   1.1455098E+03   3.0434219E+03   2.4609243E+03   1.9294955E+03   1.5403740E+03   1.2938392E+03   1.1385504E+03   1.0340430E+03   9.6326508E+02   9.2139783E+02   2.7452344E+03   2.4118625E+03   1.9186234E+03   1.4794985E+03   1.1631256E+03   9.6699261E+02   8.5283752E+02   7.8419592E+02   7.4474390E+02   1.9232422E+03   2.0935896E+03   1.8304686E+03   1.4405071E+03   1.0956326E+03   8.5568939E+02   7.1680273E+02   6.4386920E+02   6.0668359E+02   9.8193365E+02   1.2800044E+03   1.4331683E+03   1.2790979E+03   1.0058965E+03   7.6700781E+02   6.1622766E+02   5.3908032E+02   5.0317184E+02   7.7073877E+02   7.4129016E+02   8.3665918E+02   7.6370764E+02   6.0525079E+02   4.7585745E+02   4.0758868E+02   3.7857404E+02   5.3034253E+02   4.6484354E+02   4.0170560E+02   3.1346277E+02   2.4972203E+02   2.1749466E+02   4.3994724E+02   3.3015323E+02   2.5562759E+02   2.1587521E+02   2.2145560E+00   2.2639413E+00   2.4104433E+00   2.6488218E+00   2.9689751E+00   3.3531053E+00   3.7707338E+00   4.1725669E+00   2.9495459E+00   3.0179768E+00   3.2210193E+00   3.5514555E+00   3.9952536E+00   4.5275135E+00   5.1059017E+00   5.6630826E+00   3.6986456E+00   3.7866957E+00   4.0479712E+00   4.4731488E+00   5.0440507E+00   5.7284274E+00   6.4720325E+00   7.1903524E+00   4.4620476E+00   4.5700750E+00   4.8905640E+00   5.4118009E+00   6.1110721E+00   6.9485803E+00   7.8585396E+00   8.7409821E+00   5.2728105E+00   5.4023466E+00   5.7863970E+00   6.4101710E+00   7.2454181E+00   8.2438307E+00   9.3277693E+00   1.0383476E+01   6.1926193E+00   6.3478150E+00   6.8074341E+00   7.5522780E+00   8.5464487E+00   9.7304621E+00   1.1012523E+01   1.2264427E+01   7.3025336E+00   7.4916191E+00   8.0507889E+00   8.9543142E+00   1.0155010E+01   1.1577211E+01   1.3109379E+01   1.4605039E+01   8.6930056E+00   8.9297266E+00   9.6287527E+00   1.0754921E+01   1.2244556E+01   1.3998588E+01   1.5877569E+01   1.7712519E+01   1.0455351E+01   1.0760352E+01   1.1660174E+01   1.3106891E+01   1.5014561E+01   1.7253038E+01   1.9648172E+01   2.2011322E+01   1.2674564E+01   1.3076662E+01   1.4262908E+01   1.6169983E+01   1.8685438E+01   2.1643610E+01   2.4836510E+01   2.8075121E+01   1.5419080E+01   1.5956205E+01   1.7542492E+01   2.0098890E+01   2.3486538E+01   2.7507257E+01   3.1933081E+01   3.6612888E+01   1.8732670E+01   1.9452101E+01   2.1581316E+01   2.5028959E+01   2.9636646E+01   3.5186741E+01   4.1457478E+01   4.8385101E+01   2.2636545E+01   2.3593975E+01   2.6435743E+01   3.1066395E+01   3.7322754E+01   4.4989765E+01   5.3884144E+01   6.4072258E+01   2.7148365E+01   2.8404936E+01   3.2147141E+01   3.8288982E+01   4.6684387E+01   5.7148758E+01   6.9566216E+01   8.4150963E+01   3.2327412E+01   3.3944214E+01   3.8776768E+01   4.6767746E+01   5.7816616E+01   7.1800652E+01   8.8691246E+01   1.0883721E+02   3.8358112E+01   4.0387642E+01   4.6477276E+01   5.6623714E+01   7.0808090E+01   8.9005524E+01   1.1129040E+02   1.3811621E+02   4.5685570E+01   4.8160160E+01   5.5615726E+01   6.8136040E+01   8.5830101E+01   1.0881765E+02   1.3730414E+02   1.7183224E+02   5.5215702E+01   5.8133209E+01   6.6963066E+01   8.1917511E+01   1.0329333E+02   1.3142203E+02   1.6670032E+02   2.0979634E+02   6.8585075E+01   7.1893921E+01   8.1960457E+01   9.9174240E+01   1.2409407E+02   1.5735616E+02   1.9965431E+02   2.5189980E+02   8.8488884E+01   9.2076637E+01   1.0306001E+02   1.2205618E+02   1.4996681E+02   1.8784344E+02   2.3682596E+02   2.9828058E+02   1.1902989E+02   1.2272159E+02   1.3411037E+02   1.5408029E+02   1.8394112E+02   2.2526006E+02   2.7978992E+02   3.4965054E+02   1.6600935E+02   1.6958394E+02   1.8071761E+02   2.0056860E+02   2.3086816E+02   2.7373923E+02   3.3168030E+02   4.0790430E+02   2.3704500E+02   2.4027873E+02   2.5046957E+02   2.6899695E+02   2.9792776E+02   3.3985428E+02   3.9803238E+02   4.7706284E+02   3.4136664E+02   3.4410989E+02   3.5286301E+02   3.6908438E+02   3.9493948E+02   4.3320032E+02   4.8766434E+02   5.6445435E+02   4.8917404E+02   4.9146048E+02   4.9879062E+02   5.1244080E+02   5.3423822E+02   5.6657080E+02   6.1325079E+02   6.8179034E+02   6.9056165E+02   6.9273279E+02   6.9953113E+02   7.1164795E+02   7.2990002E+02   7.5543164E+02   7.9120575E+02   8.4574506E+02   9.5416418E+02   9.5698462E+02   9.6536249E+02   9.7885040E+02   9.9635242E+02   1.0166417E+03   1.0407845E+03   1.0779580E+03   1.2860575E+03   1.2908043E+03   1.3043606E+03   1.3244359E+03   1.3469193E+03   1.3669730E+03   1.3829828E+03   1.4051617E+03   1.6895897E+03   1.6981008E+03   1.7220751E+03   1.7565532E+03   1.7931936E+03   1.8225221E+03   1.8404070E+03   1.8597365E+03   2.1659626E+03   2.1806516E+03   2.2219841E+03   2.2814614E+03   2.3453821E+03   2.3991780E+03   2.4375732E+03   2.4784185E+03   2.7147495E+03   2.7385835E+03   2.8058611E+03   2.9037031E+03   3.0121560E+03   3.1117727E+03   3.1980605E+03   3.2952319E+03   3.3332100E+03   3.3695688E+03   3.4726211E+03   3.6242952E+03   3.7977122E+03   3.9689407E+03   4.1355049E+03   4.3274004E+03   4.0136921E+03   4.0660073E+03   4.2148203E+03   4.4361108E+03   4.6953154E+03   4.9637339E+03   5.2403354E+03   5.5581909E+03   4.7393477E+03   4.8104819E+03   5.0133872E+03   5.3173691E+03   5.6791011E+03   6.0634995E+03   6.4682354E+03   6.9252422E+03   5.4805845E+03   5.5720068E+03   5.8332861E+03   6.2265391E+03   6.6984092E+03   7.2047773E+03   7.7376494E+03   8.3230918E+03   6.1970396E+03   6.3081074E+03   6.6258589E+03   7.1051118E+03   7.6815996E+03   8.2996289E+03   8.9413564E+03   9.6232422E+03   6.8460640E+03   6.9738462E+03   7.3394727E+03   7.8908896E+03   8.5529512E+03   9.2572559E+03   9.9739805E+03   1.0709071E+04   7.3887568E+03   7.5287046E+03   7.9289668E+03   8.5316328E+03   9.2518857E+03   1.0009409E+04   1.0763050E+04   1.1510419E+04   7.7968877E+03   7.9440444E+03   8.3646299E+03   8.9964502E+03   9.7472422E+03   1.0527287E+04   1.1286739E+04   1.2018636E+04   8.0560908E+03   8.2060869E+03   8.6345195E+03   9.2767500E+03   1.0035949E+04   1.0816427E+04   1.1563170E+04   1.2268140E+04   8.1653032E+03   8.3148408E+03   8.7418047E+03   9.3809219E+03   1.0133693E+04   1.0902018E+04   1.1629002E+04   1.2307801E+04   8.1337661E+03   8.2806182E+03   8.6998770E+03   9.3271260E+03   1.0064709E+04   1.0815021E+04   1.1521660E+04   1.2179896E+04   7.9770684E+03   8.1197236E+03   8.5271240E+03   9.1368291E+03   9.8538740E+03   1.0583146E+04   1.1269963E+04   1.1911582E+04   7.7138618E+03   7.8511211E+03   8.2433574E+03   8.8309951E+03   9.5230059E+03   1.0227862E+04   1.0893028E+04   1.1517118E+04   7.3635986E+03   7.4942920E+03   7.8680947E+03   8.4290049E+03   9.0908125E+03   9.7661504E+03   1.0404586E+04   1.1005463E+04   6.9448516E+03   7.0677856E+03   7.4197607E+03   7.9489102E+03   8.5745176E+03   9.2138076E+03   9.8183506E+03   1.0387717E+04   6.4744409E+03   6.5885151E+03   6.9154795E+03   7.4079482E+03   7.9912710E+03   8.5877441E+03   9.1510566E+03   9.6806885E+03   5.9675073E+03   6.0718828E+03   6.3713296E+03   6.8230415E+03   7.3588354E+03   7.9066538E+03   8.4227363E+03   8.9063770E+03   5.4390020E+03   5.5331455E+03   5.8033926E+03   6.2114282E+03   6.6957593E+03   7.1906377E+03   7.6555615E+03   8.0898423E+03   4.9041880E+03   4.9877964E+03   5.2277983E+03   5.5902349E+03   6.0204507E+03   6.4598291E+03   6.8721147E+03   7.2569800E+03   4.3770366E+03   4.4499287E+03   4.6590747E+03   4.9747271E+03   5.3493452E+03   5.7324429E+03   6.0932324E+03   6.4322402E+03   3.8682747E+03   3.9303616E+03   4.1083481E+03   4.3767339E+03   4.6956001E+03   5.0236865E+03   5.3369795E+03   5.6373252E+03   3.3844014E+03   3.4357163E+03   3.5826987E+03   3.8044133E+03   4.0692559E+03   4.3461670E+03   4.6188965E+03   4.8907866E+03   2.9279675E+03   2.9688154E+03   3.0859072E+03   3.2633931E+03   3.4786829E+03   3.7114365E+03   3.9531729E+03   4.2082437E+03   2.4992500E+03   2.5304846E+03   2.6204888E+03   2.7590068E+03   2.9327102E+03   3.1314524E+03   3.3531384E+03   3.6019697E+03   2.0992661E+03   2.1225503E+03   2.1905679E+03   2.2986365E+03   2.4418062E+03   2.6181372E+03   2.8294668E+03   3.0779519E+03   1.7326989E+03   1.7504570E+03   1.8034988E+03   1.8916708E+03   2.0161598E+03   2.1800476E+03   2.3859023E+03   2.6332969E+03   1.4076168E+03   1.4224756E+03   1.4677872E+03   1.5459225E+03   1.6609346E+03   1.8170404E+03   2.0164331E+03   2.2693572E+03   1.1314619E+03   1.1455095E+03   1.1883999E+03   1.2625172E+03   1.3714371E+03   1.5201108E+03   1.7221943E+03   2.0217501E+03   9.0748090E+02   9.2139777E+02   9.6326508E+02   1.0340427E+03   1.1385505E+03   1.2938394E+03   1.5403744E+03   1.9294956E+03   7.3160645E+02   7.4474377E+02   7.8419604E+02   8.5283759E+02   9.6699261E+02   1.1631256E+03   1.4794985E+03   1.9186243E+03   5.9480872E+02   6.0668359E+02   6.4386914E+02   7.1680286E+02   8.5568951E+02   1.0956327E+03   1.4405073E+03   1.8304694E+03   4.9236774E+02   5.0317166E+02   5.3908032E+02   6.1622772E+02   7.6700793E+02   1.0058967E+03   1.2790988E+03   1.4331682E+03   3.7037094E+02   3.7857401E+02   4.0758875E+02   4.7585745E+02   6.0525085E+02   7.6370801E+02   8.3665948E+02   7.4129010E+02   2.0783153E+02   2.1749480E+02   2.4972192E+02   3.1346286E+02   4.0170566E+02   4.6484341E+02   5.3034235E+02   2.0350545E+02   2.1587529E+02   2.5562762E+02   3.3015323E+02   4.3994724E+02   4.4766364E+00   4.5391326E+00   4.1317339E+00   3.0267386E+00   1.1411533E+00   1.3276751E+00   3.8142529E+00   6.0940127E+00   6.2063556E+00   5.6867533E+00   4.2196813E+00   1.6789787E+00   1.6916730E+00   5.1604581E+00   7.6183195E+00   7.7599053E+00   7.9446707E+00   7.3423829E+00   5.5368629E+00   2.3428986E+00   1.9617010E+00   6.4853210E+00   9.8762426E+00   9.4594355E+00   9.7439852E+00   9.1005926E+00   6.9955034E+00   3.1614902E+00   2.1076803E+00   7.7569218E+00   1.2133050E+01   1.1264703E+01   1.1677123E+01   1.1030816E+01   8.6551619E+00   4.1770954E+00   2.1168544E+00   8.9964542E+00   1.4460808E+01   1.3331875E+01   1.3897902E+01   1.3273854E+01   1.0638799E+01   5.5186462E+00   2.8374372E+00   1.1154152E+01   1.8339521E+01   1.5904243E+01   1.6666681E+01   1.6111166E+01   1.3276755E+01   8.3132067E+00   1.0972107E+01   2.4359608E+01   3.6993183E+01   1.9345932E+01   2.0436098E+01   2.0125860E+01   1.7513292E+01   1.7221977E+01   3.5744156E+01   6.9244408E+01   9.9162041E+01   2.4214592E+01   2.5970991E+01   2.6357798E+01   2.5375452E+01   3.7541039E+01   8.6415703E+01   1.6447704E+02   2.3553807E+02   3.1316765E+01   3.4395782E+01   3.6309727E+01   3.8881447E+01   6.9257782E+01   1.6344952E+02   3.1495615E+02   4.6063336E+02   4.1666050E+01   4.7091255E+01   5.1712219E+01   5.8395504E+01   1.0460407E+02   2.4644212E+02   4.8354285E+02   7.2088043E+02   5.6321243E+01   6.5437355E+01   7.4223427E+01   8.4038887E+01   1.3240691E+02   2.9830585E+02   5.9313147E+02   9.0306195E+02   7.6170319E+01   9.0490318E+01   1.0513468E+02   1.1828003E+02   1.5270226E+02   2.9621024E+02   5.8646747E+02   9.1419183E+02   1.0176199E+02   1.2275420E+02   1.4492514E+02   1.6412910E+02   1.8442966E+02   2.6475909E+02   4.7774173E+02   7.4357892E+02   1.3327065E+02   1.6221700E+02   1.9314296E+02   2.2115149E+02   2.4132591E+02   2.7159302E+02   3.7714420E+02   5.4351007E+02   1.7059431E+02   2.0863806E+02   2.4912056E+02   2.8697485E+02   3.1533344E+02   3.3650821E+02   3.8530978E+02   4.7582700E+02   2.1352060E+02   2.6184708E+02   3.1273776E+02   3.6050851E+02   3.9805090E+02   4.2476184E+02   4.6443301E+02   5.3143109E+02   2.6183807E+02   3.2179251E+02   3.8441632E+02   4.4288339E+02   4.8916046E+02   5.2113672E+02   5.6128796E+02   6.2508020E+02   3.1535281E+02   3.8849005E+02   4.6472446E+02   5.3574884E+02   5.9195026E+02   6.2918488E+02   6.7084265E+02   7.3617383E+02   3.7388690E+02   4.6180927E+02   5.5395447E+02   6.4018140E+02   7.0901135E+02   7.5442749E+02   8.0186719E+02   8.7282416E+02   4.3741589E+02   5.4134564E+02   6.5176300E+02   7.5626355E+02   8.4112323E+02   8.9918311E+02   9.5922479E+02   1.0417661E+03   5.0654123E+02   6.2665314E+02   7.5709277E+02   8.8268597E+02   9.8678986E+02   1.0621757E+03   1.1442804E+03   1.2488475E+03   5.8343616E+02   7.1807635E+02   8.6877698E+02   1.0169697E+03   1.1418696E+03   1.2373376E+03   1.3537175E+03   1.4962977E+03   6.7327606E+02   8.1834320E+02   9.8719971E+02   1.1570372E+03   1.3009097E+03   1.4140253E+03   1.5769983E+03   1.7837111E+03   7.8592590E+02   9.3491272E+02   1.1172577E+03   1.3047460E+03   1.4605009E+03   1.5787444E+03   1.7938671E+03   2.0992839E+03   9.3757544E+02   1.0829991E+03   1.2729518E+03   1.4720344E+03   1.6267744E+03   1.7212271E+03   1.9760245E+03   2.4193020E+03   1.1524305E+03   1.2894979E+03   1.4834954E+03   1.6891212E+03   1.8259119E+03   1.8494955E+03   2.1026611E+03   2.7114436E+03   1.4648079E+03   1.5969789E+03   1.7984596E+03   2.0097648E+03   2.1103767E+03   2.0033492E+03   2.1683301E+03   2.9399194E+03   1.9197937E+03   2.0634431E+03   2.2858164E+03   2.5079805E+03   2.5559915E+03   2.2571665E+03   2.2190859E+03   3.0958872E+03   2.5683875E+03   2.7528608E+03   3.0180027E+03   3.2614712E+03   3.2424912E+03   2.7156514E+03   2.3870491E+03   3.2442073E+03   3.4545400E+03   3.7156091E+03   4.0459917E+03   4.3132285E+03   4.2336484E+03   3.5088726E+03   2.9356045E+03   3.6125479E+03   4.5956812E+03   4.9652319E+03   5.3747129E+03   5.6601484E+03   5.5335981E+03   4.8348184E+03   4.2905542E+03   4.6682222E+03   5.9627773E+03   6.4571685E+03   6.9468330E+03   7.2501509E+03   7.2310386E+03   7.0801841E+03   6.8458057E+03   6.8787100E+03   7.4699731E+03   8.0815361E+03   8.6445654E+03   9.0300293E+03   9.4064600E+03   1.0203585E+04   1.0115529E+04   9.7762402E+03   8.9838643E+03   9.6793623E+03   1.0291572E+04   1.0785205E+04   1.1593175E+04   1.3006568E+04   1.2745572E+04   1.1910182E+04   1.0355104E+04   1.1085370E+04   1.1710862E+04   1.2271148E+04   1.3287909E+04   1.4895793E+04   1.4053856E+04   1.2807251E+04   1.1462359E+04   1.2178727E+04   1.2769389E+04   1.3305869E+04   1.4272475E+04   1.5530829E+04   1.4071935E+04   1.2834354E+04   1.2246926E+04   1.2916971E+04   1.3425069E+04   1.3810370E+04   1.4463951E+04   1.5217716E+04   1.3493208E+04   1.2510522E+04   1.2719849E+04   1.3340895E+04   1.3783193E+04   1.4051292E+04   1.4453825E+04   1.4860923E+04   1.3047375E+04   1.2371496E+04   1.2933656E+04   1.3519672E+04   1.3928163E+04   1.4142074E+04   1.4423789E+04   1.4682087E+04   1.2911465E+04   1.2474040E+04   1.2947484E+04   1.3517461E+04   1.3922063E+04   1.4137287E+04   1.4417478E+04   1.4686328E+04   1.3022113E+04   1.2727218E+04   1.2804712E+04   1.3373084E+04   1.3792567E+04   1.4044524E+04   1.4403841E+04   1.4806795E+04   1.3264404E+04   1.3008102E+04   1.2527166E+04   1.3098998E+04   1.3537653E+04   1.3828284E+04   1.4258621E+04   1.4759285E+04   1.3310782E+04   1.3027717E+04   1.2121807E+04   1.2693163E+04   1.3145076E+04   1.3462406E+04   1.3927990E+04   1.4456787E+04   1.3087448E+04   1.2753564E+04   1.1591863E+04   1.2153171E+04   1.2607470E+04   1.2935879E+04   1.3397971E+04   1.3903989E+04   1.2623318E+04   1.2247549E+04   1.0945833E+04   1.1485605E+04   1.1930395E+04   1.2251843E+04   1.2670219E+04   1.3123808E+04   1.1953655E+04   1.1573411E+04   1.0201048E+04   1.0708881E+04   1.1133559E+04   1.1431772E+04   1.1781308E+04   1.2167775E+04   1.1116520E+04   1.0763244E+04   9.3821074E+03   9.8505996E+03   1.0248153E+04   1.0522776E+04   1.0798667E+04   1.1117487E+04   1.0191714E+04   9.8493574E+03   8.5175840E+03   8.9428750E+03   9.3088369E+03   9.5645859E+03   9.7913350E+03   1.0024007E+04   9.2006543E+03   8.8633223E+03   7.6373701E+03   8.0194604E+03   8.3531953E+03   8.5888525E+03   8.7934854E+03   8.9341973E+03   8.1495703E+03   7.8116636E+03   6.7702832E+03   7.1143022E+03   7.4230693E+03   7.6398540E+03   7.8293408E+03   7.8927236E+03   7.0619404E+03   6.6706289E+03   5.9424297E+03   6.2600488E+03   6.5565825E+03   6.7704595E+03   6.9401401E+03   6.9343828E+03   6.0283408E+03   5.4695371E+03   5.1761553E+03   5.4824312E+03   5.7774390E+03   6.0053999E+03   6.1658799E+03   6.0872935E+03   5.1688662E+03   4.5079897E+03   4.4873511E+03   4.7945293E+03   5.1010444E+03   5.3609834E+03   5.5487661E+03   5.4666274E+03   4.6590630E+03   4.0407385E+03   3.8838252E+03   4.2003896E+03   4.5442695E+03   4.8829854E+03   5.1348643E+03   5.0785933E+03   4.2900928E+03   4.2776689E+03   3.3647297E+03   3.7083884E+03   4.1409785E+03   4.6116860E+03   4.9529468E+03   4.7787563E+03   3.6621895E+03   2.9343967E+03   3.3498401E+03   3.9155442E+03   4.5080283E+03   4.8265000E+03   4.2390801E+03   3.0639839E+03   2.6263584E+03   3.1602534E+03   3.8284326E+03   4.4293179E+03   4.3890942E+03   3.1548999E+03   2.4850684E+03   3.1013254E+03   3.7502156E+03   4.0690691E+03   3.3475730E+03   2.5134993E+03   2.4609250E+03   3.0434216E+03   3.4228845E+03   3.0824705E+03   2.0921328E+03   2.4118630E+03   2.7452341E+03   2.5240542E+03   1.7490336E+03   2.0935896E+03   1.9232426E+03   1.3575704E+03   2.2697900E+03   1.2800048E+03   9.8193347E+02   7.7073871E+02 
Vel 3 2975 float
  0.0000000E+00   0.0000000E+00   0.0000000E+00   0.0000000E+00   0.0000000E+00   0.0000000E+00   0.0000000E+00   0.0000000E+00   0.0000000E+00   0.0000000E+00   0.0000000E+00   0.0000000E+00   0.0000000E+00   0.0000000E+00   0.0000000E+00   0.0000000E+00   0.0000000E+00   0.0000000E+00   0.0000000E+00   0.0000000E+00   0.0000000E+00   0.0000000E+00   0.0000000E+00   0.0000000E+00   0.0000000E+00   0.0000000E+00   0.0000000E+00   0.0000000E+00   0.0000000E+00   0.0000000E+00   0.0000000E+00   0.0000000E+00   0.0000000E+00   0.0000000E+00   0.0000000E+00   0.0000000E+00   0.0000000E+00   0.0000000E+00   0.0000000E+00   0.0000000E+00   0.0000000E+00   0.0000000E+00   0.0000000E+00   0.0000000E+00   0.0000000E+00   0.0000000E+00   0.0000000E+00   0.0000000E+00   0.0000000E+00   0.0000000E+00   0.0000000E+00   0.0000000E+00   0.0000000E+00   0.0000000E+00   0.0000000E+00   0.0000000E+00   0.0000000E+00   0.0000000E+00   0.0000000E+00   0.0000000E+00   0.0000000E+00   0.0000000E+00   0.0000000E+00   0.0000000E+00   0.0000000E+00   0.0000000E+00   0.0000000E+00   0.0000000E+00   0.0000000E+00   0.0000000E+00   0.0000000E+00   0.0000000E+00   0.0000000E+00   0.0000000E+00   0.0000000E+00   0.0000000E+00   0.0000000E+00   0.0000000E+00   0.0000000E+00   0.0000000E+00   0.0000000E+00   0.0000000E+00   0.0000000E+00   0.0000000E+00   0.0000000E+00   0.0000000E+00   0.0000000E+00   0.0000000E+00   0.0000000E+00   0.0000000E+00   0.0000000E+00   0.0000000E+00   0.0000000E+00   0.0000000E+00   0.0000000E+00   0.0000000E+00   0.0000000E+00   0.0000000E+00   0.0000000E+00   0.0000000E+00   0.0000000E+00   0.0000000E+00   0.0000000E+00   0.0000000E+00   0.0000000E+00   0.0000000E+00   0.0000000E+00   0.0000000E+00   0.0000000E+00   0.0000000E+00   0.0000000E+00   0.0000000E+00   0.0000000E+00   0.0000000E+00   0.0000000E+00   0.0000000E+00   0.0000000E+00   0.0000000E+00   0.0000000E+00   0.0000000E+00   0.0000000E+00   0.0000000E+00   0.0000000E+00   0.0000000E+00   0.0000000E+00   0.0000000E+00   0.0000000E+00   0.0000000E+00   0.0000000E+00   0.0000000E+00   0.0000000E+00   0.0000000E+00   0.0000000E+00   0.0000000E+00   0.0000000E+00   0.0000000E+00   0.0000000E+00   0.0000000E+00   0.0000000E+00   0.0000000E+00   0.0000000E+00   0.0000000E+00   0.0000000E+00   0.0000000E+00   0.0000000E+00   0.0000000E+00   0.0000000E+00   0.0000000E+00   0.0000000E+00   0.0000000E+00   0.0000000E+00   0.0000000E+00   0.0000000E+00   0.0000000E+00   0.0000000E+00   0.0000000E+00   0.0000000E+00   0.0000000E+00   0.0000000E+00   0.0000000E+00   0.0000000E+00   0.0000000E+00   0.0000000E+00   0.0000000E+00   0.0000000E+00   0.0000000E+00   0.0000000E+00   0.0000000E+00   0.0000000E+00   0.0000000E+00   0.0000000E+00   0.0000000E+00   0.0000000E+00   0.0000000E+00   0.0000000E+00   0.0000000E+00   0.0000000E+00   0.0000000E+00   0.0000000E+00   0.0000000E+00   0.0000000E+00   0.0000000E+00   0.0000000E+00   0.0000000E+00   0.0000000E+00   0.0000000E+00   0.0000000E+00   0.0000000E+00   0.0000000E+00   0.0000000E+00   0.0000000E+00   0.0000000E+00   0.0000000E+00   0.0000000E+00   0.0000000E+00   0.0000000E+00   0.0000000E+00   0.0000000E+00   0.0000000E+00   0.0000000E+00   0.0000000E+00   0.0000000E+00   0.0000000E+00   0.0000000E+00   0.0000000E+00   0.0000000E+00   0.0000000E+00   0.0000000E+00   0.0000000E+00   0.0000000E+00   0.0000000E+00   0.0000000E+00   0.0000000E+00   0.0000000E+00   0.0000000E+00   0.0000000E+00   0.0000000E+00   0.0000000E+00   0.0000000E+00   0.0000000E+00   0.0000000E+00   0.0000000E+00   0.0000000E+00   0.0000000E+00   0.0000000E+00   0.0000000E+00   0.0000000E+00   0.0000000E+00   0.0000000E+00   0.0000000E+00   0.0000000E+00   0.0000000E+00   0.0000000E+00   0.0000000E+00   0.0000000E+00   0.0000000E+00   0.0000000E+00   0.0000000E+00   0.0000000E+00   0.0000000E+00   0.0000000E+00   0.0000000E+00   0.0000000E+00   0.0000000E+00   0.0000000E+00   0.0000000E+00   0.0000000E+00   0.0000000E+00   0.0000000E+00   0.0000000E+00   0.0000000E+00   0.0000000E+00   0.0000000E+00   0.0000000E+00   0.0000000E+00   0.0000000E+00   0.0000000E+00   0.0000000E+00   0.0000000E+00   0.0000000E+00   0.0000000E+00   0.0000000E+00   0.0000000E+00   0.0000000E+00   0.0000000E+00   0.0000000E+00   0.0000000E+00   0.0000000E+00   0.0000000E+00   0.0000000E+00   0.0000000E+00   0.0000000E+00   0.0000000E+00   0.0000000E+00   0.0000000E+00   0.0000000E+00   0.0000000E+00   0.0000000E+00   0.0000000E+00   0.0000000E+00   0.0000000E+00   0.0000000E+00   0.0000000E+00   0.0000000E+00   0.0000000E+00   0.0000000E+00   0.0000000E+00   0.0000000E+00   0.0000000E+00   0.0000000E+00   0.0000000E+00   0.0000000E+00   0.0000000E+00   0.0000000E+00   0.0000000E+00   0.0000000E+00   0.0000000E+00   0.0000000E+00   0.0000000E+00   0.0000000E+00   0.0000000E+00   0.0000000E+00   0.0000000E+00   0.0000000E+00   0.0000000E+00   0.0000000E+00   0.0000000E+00   0.0000000E+00   0.0000000E+00   0.0000000E+00   0.0000000E+00   0.0000000E+00   0.0000000E+00   0.0000000E+00   0.0000000E+00   0.0000000E+00   0.0000000E+00   0.0000000E+00   0.0000000E+00   0.0000000E+00   0.0000000E+00   0.0000000E+00   0.0000000E+00   0.0000000E+00   0.0000000E+00   0.0000000E+00   0.0000000E+00   0.0000000E+00   0.0000000E+00   0.0000000E+00   0.0000000E+00   0.0000000E+00   0.0000000E+00   0.0000000E+00   0.0000000E+00   0.0000000E+00   0.0000000E+00   0.0000000E+00   0.0000000E+00   0.0000000E+00   0.0000000E+00   0.0000000E+00   0.0000000E+00   0.0000000E+00   0.0000000E+00   0.0000000E+00   0.0000000E+00   0.0000000E+00   0.0000000E+00   0.0000000E+00   0.0000000E+00   0.0000000E+00   0.0000000E+00   0.0000000E+00   0.0000000E+00   0.0000000E+00   0.0000000E+00   0.0000000E+00   0.0000000E+00   0.0000000E+00   0.0000000E+00   0.0000000E+00   0.0000000E+00   0.0000000E+00   0.0000000E+00   0.0000000E+00   0.0000000E+00   0.0000000E+00   0.0000000E+00   0.0000000E+00   0.0000000E+00   0.0000000E+00   0.0000000E+00   0.0000000E+00   0.0000000E+00   0.0000000E+00   0.0000000E+00   0.0000000E+00   0.0000000E+00   0.0000000E+00   0.0000000E+00   0.0000000E+00   0.0000000E+00   0.0000000E+00   0.0000000E+00   0.0000000E+00   0.0000000E+00   0.0000000E+00   0.0000000E+00   0.0000000E+00   0.0000000E+00   0.0000000E+00   0.0000000E+00   0.0000000E+00   0.0000000E+00   0.0000000E+00   0.0000000E+00   0.0000000E+00   0.0000000E+00   0.0000000E+00   0.0000000E+00   0.0000000E+00   0.0000000E+00   0.0000000E+00   0.0000000E+00   0.0000000E+00   0.0000000E+00   0.0000000E+00   0.0000000E+00   0.0000000E+00   0.0000000E+00   0.0000000E+00   0.0000000E+00   0.0000000E+00   0.0000000E+00   0.0000000E+00   0.0000000E+00   0.0000000E+00   0.0000000E+00   0.0000000E+00   0.0000000E+00   0.0000000E+00   0.0000000E+00   0.0000000E+00   0.0000000E+00   0.0000000E+00   0.0000000E+00   0.0000000E+00   0.0000000E+00   0.0000000E+00   0.0000000E+00   0.0000000E+00   0.0000000E+00   0.0000000E+00   0.0000000E+00   0.0000000E+00   0.0000000E+00   0.0000000E+00   0.0000000E+00   0.0000000E+00   0.0000000E+00   0.0000000E+00   0.0000000E+00   0.0000000E+00   0.0000000E+00   0.0000000E+00   0.0000000E+00   0.0000000E+00   0.0000000E+00   0.0000000E+00   0.0000000E+00   0.0000000E+00   0.0000000E+00   0.0000000E+00   0.0000000E+00   0.0000000E+00   0.0000000E+00   0.0000000E+00   0.0000000E+00   0.0000000E+00   0.0000000E+00   0.0000000E+00   0.0000000E+00   0.0000000E+00   0.0000000E+00   0.0000000E+00   0.0000000E+00   0.0000000E+00   0.0000000E+00   0.0000000E+00   0.0000000E+00   0.0000000E+00   0.0000000E+00   0.0000000E+00   0.0000000E+00   0.0000000E+00   0.0000000E+00   0.0000000E+00   0.0000000E+00   0.0000000E+00   0.0000000E+00   0.0000000E+00   0.0000000E+00   0.0000000E+00   0.0000000E+00   0.0000000E+00   0.0000000E+00   0.0000000E+00   0.0000000E+00   0.0000000E+00   0.0000000E+00   0.0000000E+00   0.0000000E+00   0.0000000E+00   0.0000000E+00   0.0000000E+00   0.0000000E+00   0.0000000E+00   0.0000000E+00   0.0000000E+00   0.0000000E+00   0.0000000E+00   0.0000000E+00   0.0000000E+00   0.0000000E+00   0.0000000E+00   0.0000000E+00   0.0000000E+00   0.0000000E+00   0.0000000E+00   0.0000000E+00   0.0000000E+00   0.0000000E+00   0.0000000E+00   0.0000000E+00   0.0000000E+00   0.0000000E+00   0.0000000E+00   0.0000000E+00   0.0000000E+00   0.0000000E+00   0.0000000E+00   0.0000000E+00   0.0000000E+00   0.0000000E+00   0.0000000E+00   0.0000000E+00   0.0000000E+00   0.0000000E+00   0.0000000E+00   0.0000000E+00   0.0000000E+00   0.0000000E+00   0.0000000E+00   0.0000000E+00   0.0000000E+00   0.0000000E+00   0.0000000E+00   0.0000000E+00   0.0000000E+00   0.0000000E+00   0.0000000E+00   0.0000000E+00   0.0000000E+00   0.0000000E+00   0.0000000E+00   0.0000000E+00   0.0000000E+00   0.0000000E+00   0.0000000E+00   0.0000000E+00   0.0000000E+00   0.0000000E+00   0.0000000E+00   0.0000000E+00   0.0000000E+00   0.0000000E+00   0.0000000E+00   0.0000000E+00   0.0000000E+00   0.0000000E+00   0.0000000E+00   0.0000000E+00   0.0000000E+00   0.0000000E+00   0.0000000E+00   0.0000000E+00   0.0000000E+00   0.0000000E+00   0.0000000E+00   0.0000000E+00   0.0000000E+00   0.0000000E+00   0.0000000E+00   0.0000000E+00   0.0000000E+00   0.0000000E+00   0.0000000E+00   0.0000000E+00   0.0000000E+00   0.0000000E+00   0.0000000E+00   0.0000000E+00   0.0000000E+00   0.0000000E+00   0.0000000E+00   0.0000000E+00   0.0000000E+00   0.0000000E+00   0.0000000E+00   0.0000000E+00   0.0000000E+00   0.0000000E+00   0.0000000E+00   0.0000000E+00   0.0000000E+00   0.0000000E+00   0.0000000E+00   0.0000000E+00   0.0000000E+00   0.0000000E+00   0.0000000E+00   0.0000000E+00   0.0000000E+00   0.0000000E+00   0.0000000E+00   0.0000000E+00   0.0000000E+00   0.0000000E+00   0.0000000E+00   0.0000000E+00   0.0000000E+00   0.0000000E+00   0.0000000E+00   0.0000000E+00   0.0000000E+00   0.0000000E+00   0.0000000E+00   0.0000000E+00   0.0000000E+00   0.0000000E+00   0.0000000E+00   0.0000000E+00   0.0000000E+00   0.0000000E+00   0.0000000E+00   0.0000000E+00   0.0000000E+00   0.0000000E+00   0.0000000E+00   0.0000000E+00   0.0000000E+00   0.0000000E+00   0.0000000E+00   0.0000000E+00   0.0000000E+00   0.0000000E+00   0.0000000E+00   0.0000000E+00   0.0000000E+00   0.0000000E+00   0.0000000E+00   0.0000000E+00   0.0000000E+00   0.0000000E+00   0.0000000E+00   0.0000000E+00   0.0000000E+00   0.0000000E+00   0.0000000E+00   0.0000000E+00   0.0000000E+00   0.0000000E+00   0.0000000E+00   0.0000000E+00   0.0000000E+00   0.0000000E+00   0.0000000E+00   0.0000000E+00   0.0000000E+00   0.0000000E+00   0.0000000E+00   0.0000000E+00   0.0000000E+00   0.0000000E+00   0.0000000E+00   0.0000000E+00   0.0000000E+00   0.0000000E+00   0.0000000E+00   0.0000000E+00   0.0000000E+00   0.0000000E+00   0.0000000E+00   0.0000000E+00   0.0000000E+00   0.0000000E+00   0.0000000E+00   0.0000000E+00   0.0000000E+00   0.0000000E+00   0.0000000E+00   0.0000000E+00   0.0000000E+00   0.0000000E+00   0.0000000E+00   0.0000000E+00   0.0000000E+00   0.0000000E+00   0.0000000E+00   0.0000000E+00   0.0000000E+00   0.0000000E+00   0.0000000E+00   0.0000000E+00   0.0000000E+00   0.0000000E+00   0.0000000E+00   0.0000000E+00   0.0000000E+00   0.0000000E+00   0.0000000E+00   0.0000000E+00   0.0000000E+00   0.0000000E+00   0.0000000E+00   0.0000000E+00   0.0000000E+00   0.0000000E+00   0.0000000E+00   0.0000000E+00   0.0000000E+00   0.0000000E+00   0.0000000E+00   0.0000000E+00   0.0000000E+00   0.0000000E+00   0.0000000E+00   0.0000000E+00   0.0000000E+00   0.0000000E+00   0.0000000E+00   0.0000000E+00   0.0000000E+00   0.0000000E+00   0.0000000E+00   0.0000000E+00   0.0000000E+00   0.0000000E+00   0.0000000E+00   0.0000000E+00   0.0000000E+00   0.0000000E+00   0.0000000E+00   0.0000000E+00   0.0000000E+00   0.0000000E+00   0.0000000E+00   0.0000000E+00   0.0000000E+00   0.0000000E+00   0.0000000E+00   0.0000000E+00   0.0000000E+00   0.0000000E+00   0.0000000E+00   0.0000000E+00   0.0000000E+00   0.0000000E+00   0.0000000E+00   0.0000000E+00   0.0000000E+00   0.0000000E+00   0.0000000E+00   0.0000000E+00   0.0000000E+00   0.0000000E+00   0.0000000E+00   0.0000000E+00   0.0000000E+00   0.0000000E+00   0.0000000E+00   0.0000000E+00   0.0000000E+00   0.0000000E+00   0.0000000E+00   0.0000000E+00   0.0000000E+00   0.0000000E+00   0.0000000E+00   0.0000000E+00   0.0000000E+00   0.0000000E+00   0.0000000E+00   0.0000000E+00   0.0000000E+00   0.0000000E+00   0.0000000E+00   0.0000000E+00   0.0000000E+00   0.0000000E+00   0.0000000E+00   0.0000000E+00   0.0000000E+00   0.0000000E+00   0.0000000E+00   0.0000000E+00   0.0000000E+00   0.0000000E+00   0.0000000E+00   0.0000000E+00   0.0000000E+00   0.0000000E+00   0.0000000E+00   0.0000000E+00   0.0000000E+00   0.0000000E+00   0.0000000E+00   0.0000000E+00   0.0000000E+00   0.0000000E+00   0.0000000E+00   0.0000000E+00   0.0000000E+00   0.0000000E+00   0.0000000E+00   0.0000000E+00   0.0000000E+00   0.0000000E+00   0.0000000E+00   0.0000000E+00   0.0000000E+00   0.0000000E+00   0.0000000E+00   0.0000000E+00   0.0000000E+00   0.0000000E+00   0.0000000E+00   0.0000000E+00   0.0000000E+00   0.0000000E+00   0.0000000E+00   0.0000000E+00   0.0000000E+00   0.0000000E+00   0.0000000E+00   0.0000000E+00   0.0000000E+00   0.0000000E+00   0.0000000E+00   0.0000000E+00   0.0000000E+00   0.0000000E+00   0.0000000E+00   0.0000000E+00   0.0000000E+00   0.0000000E+00   0.0000000E+00   0.0000000E+00   0.0000000E+00   0.0000000E+00   0.0000000E+00   0.0000000E+00   0.0000000E+00   0.0000000E+00   0.0000000E+00   0.0000000E+00   0.0000000E+00   0.0000000E+00   0.0000000E+00   0.0000000E+00   0.0000000E+00   0.0000000E+00   0.0000000E+00   0.0000000E+00   0.0000000E+00   0.0000000E+00   0.0000000E+00   0.0000000E+00   0.0000000E+00   0.0000000E+00   0.0000000E+00   0.0000000E+00   0.0000000E+00   0.0000000E+00   0.0000000E+00   0.0000000E+00   0.0000000E+00   0.0000000E+00   0.0000000E+00   0.0000000E+00   0.0000000E+00   0.0000000E+00   0.0000000E+00   0.0000000E+00   0.0000000E+00   0.0000000E+00   0.0000000E+00   0.0000000E+00   0.0000000E+00   0.0000000E+00   0.0000000E+00   0.0000000E+00   0.0000000E+00   0.0000000E+00   0.0000000E+00   0.0000000E+00   0.0000000E+00   0.0000000E+00   0.0000000E+00   0.0000000E+00   0.0000000E+00   0.0000000E+00   0.0000000E+00   0.0000000E+00   0.0000000E+00   0.0000000E+00   0.0000000E+00   0.0000000E+00   0.0000000E+00   0.0000000E+00   0.0000000E+00   0.0000000E+00   0.0000000E+00   0.0000000E+00   0.0000000E+00   0.0000000E+00   0.0000000E+00   0.0000000E+00   0.0000000E+00   0.0000000E+00   0.0000000E+00   0.0000000E+00   0.0000000E+00   0.0000000E+00   0.0000000E+00   0.0000000E+00   0.0000000E+00   0.0000000E+00   0.0000000E+00   0.0000000E+00   0.0000000E+00   0.0000000E+00   0.0000000E+00   0.0000000E+00   0.0000000E+00   0.0000000E+00   0.0000000E+00   0.0000000E+00   0.0000000E+00   0.0000000E+00   0.0000000E+00   0.0000000E+00   0.0000000E+00   0.0000000E+00   0.0000000E+00   0.0000000E+00   0.0000000E+00   0.0000000E+00   0.0000000E+00   0.0000000E+00   0.0000000E+00   0.0000000E+00   0.0000000E+00   0.0000000E+00   0.0000000E+00   0.0000000E+00   0.0000000E+00   0.0000000E+00   0.0000000E+00   0.0000000E+00   0.0000000E+00   0.0000000E+00   0.0000000E+00   0.0000000E+00   0.0000000E+00   0.0000000E+00   0.0000000E+00   0.0000000E+00   0.0000000E+00   0.0000000E+00   0.0000000E+00   0.0000000E+00   0.0000000E+00   0.0000000E+00   0.0000000E+00   0.0000000E+00   0.0000000E+00   0.0000000E+00   0.0000000E+00   0.0000000E+00   0.0000000E+00   0.0000000E+00   0.0000000E+00   0.0000000E+00   0.0000000E+00   0.0000000E+00   0.0000000E+00   0.0000000E+00   0.0000000E+00   0.0000000E+00   0.0000000E+00   0.0000000E+00   0.0000000E+00   0.0000000E+00   0.0000000E+00   0.0000000E+00   0.0000000E+00   0.0000000E+00   0.0000000E+00   0.0000000E+00   0.0000000E+00   0.0000000E+00   0.0000000E+00   0.0000000E+00   0.0000000E+00   0.0000000E+00   0.0000000E+00   0.0000000E+00   0.0000000E+00   0.0000000E+00   0.0000000E+00   0.0000000E+00   0.0000000E+00   0.0000000E+00   0.0000000E+00   0.0000000E+00   0.0000000E+00   0.0000000E+00   0.0000000E+00   0.0000000E+00   0.0000000E+00   0.0000000E+00   0.0000000E+00   0.0000000E+00   0.0000000E+00   0.0000000E+00   0.0000000E+00   0.0000000E+00   0.0000000E+00   0.0000000E+00   0.0000000E+00   0.0000000E+00   0.0000000E+00   0.0000000E+00   0.0000000E+00   0.0000000E+00   0.0000000E+00   0.0000000E+00   0.0000000E+00   0.0000000E+00   0.0000000E+00   0.0000000E+00   0.0000000E+00   0.0000000E+00   0.0000000E+00   0.0000000E+00   0.0000000E+00   0.0000000E+00   0.0000000E+00   0.0000000E+00   0.0000000E+00   0.0000000E+00   0.0000000E+00   0.0000000E+00   0.0000000E+00   0.0000000E+00   0.0000000E+00   0.0000000E+00   0.0000000E+00   0.0000000E+00   0.0000000E+00   0.0000000E+00   0.0000000E+00   0.0000000E+00   0.0000000E+00   0.0000000E+00   0.0000000E+00   0.0000000E+00   0.0000000E+00   0.0000000E+00   0.0000000E+00   0.0000000E+00   0.0000000E+00   0.0000000E+00   0.0000000E+00   0.0000000E+00   0.0000000E+00   0.0000000E+00   0.0000000E+00   0.0000000E+00   0.0000000E+00   0.0000000E+00   0.0000000E+00   0.0000000E+00   0.0000000E+00   0.0000000E+00   0.0000000E+00   0.0000000E+00   0.0000000E+00   0.0000000E+00   0.0000000E+00   0.0000000E+00   0.0000000E+00   0.0000000E+00   0.0000000E+00   0.0000000E+00   0.0000000E+00   0.0000000E+00   0.0000000E+00   0.0000000E+00   0.0000000E+00   0.0000000E+00   0.0000000E+00   0.0000000E+00   0.0000000E+00   0.0000000E+00   0.0000000E+00   0.0000000E+00   0.0000000E+00   0.0000000E+00   0.0000000E+00   0.0000000E+00   0.0000000E+00   0.0000000E+00   0.0000000E+00   0.0000000E+00   0.0000000E+00   0.0000000E+00   0.0000000E+00   0.0000000E+00   0.0000000E+00   0.0000000E+00   0.0000000E+00   0.0000000E+00   0.0000000E+00   0.0000000E+00   0.0000000E+00   0.0000000E+00   0.0000000E+00   0.0000000E+00   0.0000000E+00   0.0000000E+00   0.0000000E+00   0.0000000E+00   0.0000000E+00   0.0000000E+00   0.0000000E+00   0.0000000E+00   0.0000000E+00   0.0000000E+00   0.0000000E+00   0.0000000E+00   0.0000000E+00   0.0000000E+00   0.0000000E+00   0.0000000E+00   0.0000000E+00   0.0000000E+00   0.0000000E+00   0.0000000E+00   0.0000000E+00   0.0000000E+00   0.0000000E+00   0.0000000E+00   0.0000000E+00   0.0000000E+00   0.0000000E+00   0.0000000E+00   0.0000000E+00   0.0000000E+00   0.0000000E+00   0.0000000E+00   0.0000000E+00   0.0000000E+00   0.0000000E+00   0.0000000E+00   0.0000000E+00   0.0000000E+00   0.0000000E+00   0.0000000E+00   0.0000000E+00   0.0000000E+00   0.0000000E+00   0.0000000E+00   0.0000000E+00   0.0000000E+00   0.0000000E+00   0.0000000E+00   0.0000000E+00   0.0000000E+00   0.0000000E+00   0.0000000E+00   0.0000000E+00   0.0000000E+00   0.0000000E+00   0.0000000E+00   0.0000000E+00   0.0000000E+00   0.0000000E+00   0.0000000E+00   0.0000000E+00   0.0000000E+00   0.0000000E+00   0.0000000E+00   0.0000000E+00   0.0000000E+00   0.0000000E+00   0.0000000E+00   0.0000000E+00   0.0000000E+00   0.0000000E+00   0.0000000E+00   0.0000000E+00   0.0000000E+00   0.0000000E+00   0.0000000E+00   0.0000000E+00   0.0000000E+00   0.0000000E+00   0.0000000E+00   0.0000000E+00   0.0000000E+00   0.0000000E+00   0.0000000E+00   0.0000000E+00   0.0000000E+00   0.0000000E+00   0.0000000E+00   0.0000000E+00   0.0000000E+00   0.0000000E+00   0.0000000E+00   0.0000000E+00   0.0000000E+00   0.0000000E+00   0.0000000E+00   0.0000000E+00   0.0000000E+00   0.0000000E+00   0.0000000E+00   0.0000000E+00   0.0000000E+00   0.0000000E+00   0.0000000E+00   0.0000000E+00   0.0000000E+00   0.0000000E+00   0.0000000E+00   0.0000000E+00   0.0000000E+00   0.0000000E+00   0.0000000E+00   0.0000000E+00   0.0000000E+00   0.0000000E+00   0.0000000E+00   0.0000000E+00   0.0000000E+00   0.0000000E+00   0.0000000E+00   0.0000000E+00   0.0000000E+00   0.0000000E+00   0.0000000E+00   0.0000000E+00   0.0000000E+00   0.0000000E+00   0.0000000E+00   0.0000000E+00   0.0000000E+00   0.0000000E+00   0.0000000E+00   0.0000000E+00   0.0000000E+00   0.0000000E+00   0.0000000E+00   0.0000000E+00   0.0000000E+00   0.0000000E+00   0.0000000E+00   0.0000000E+00   0.0000000E+00   0.0000000E+00   0.0000000E+00   0.0000000E+00   0.0000000E+00   0.0000000E+00   0.0000000E+00   0.0000000E+00   0.0000000E+00   0.0000000E+00   0.0000000E+00   0.0000000E+00   0.0000000E+00   0.0000000E+00   0.0000000E+00   0.0000000E+00   0.0000000E+00   0.0000000E+00   0.0000000E+00   0.0000000E+00   0.0000000E+00   0.0000000E+00   0.0000000E+00   0.0000000E+00   0.0000000E+00   0.0000000E+00   0.0000000E+00   0.0000000E+00   0.0000000E+00   0.0000000E+00   0.0000000E+00   0.0000000E+00   0.0000000E+00   0.0000000E+00   0.0000000E+00   0.0000000E+00   0.0000000E+00   0.0000000E+00   0.0000000E+00   0.0000000E+00   0.0000000E+00   0.0000000E+00   0.0000000E+00   0.0000000E+00   0.0000000E+00   0.0000000E+00   0.0000000E+00   0.0000000E+00   0.0000000E+00   0.0000000E+00   0.0000000E+00   0.0000000E+00   0.0000000E+00   0.0000000E+00   0.0000000E+00   0.0000000E+00   0.0000000E+00   0.0000000E+00   0.0000000E+00   0.0000000E+00   0.0000000E+00   0.0000000E+00   0.0000000E+00   0.0000000E+00   0.0000000E+00   0.0000000E+00   0.0000000E+00   0.0000000E+00   0.0000000E+00   0.0000000E+00   0.0000000E+00   0.0000000E+00   0.0000000E+00   0.0000000E+00   0.0000000E+00   0.0000000E+00   0.0000000E+00   0.0000000E+00   0.0000000E+00   0.0000000E+00   0.0000000E+00   0.0000000E+00   0.0000000E+00   0.0000000E+00   0.0000000E+00   0.0000000E+00   0.0000000E+00   0.0000000E+00   0.0000000E+00   0.0000000E+00   0.0000000E+00   0.0000000E+00   0.0000000E+00   0.0000000E+00   0.0000000E+00   0.0000000E+00   0.0000000E+00   0.0000000E+00   0.0000000E+00   0.0000000E+00   0.0000000E+00   0.0000000E+00   0.0000000E+00   0.0000000E+00   0.0000000E+00   0.0000000E+00   0.0000000E+00   0.0000000E+00   0.0000000E+00   0.0000000E+00   0.0000000E+00   0.0000000E+00   0.0000000E+00   0.0000000E+00   0.0000000E+00   0.0000000E+00   0.0000000E+00   0.0000000E+00   0.0000000E+00   0.0000000E+00   0.0000000E+00   0.0000000E+00   0.0000000E+00   0.0000000E+00   0.0000000E+00   0.0000000E+00   0.0000000E+00   0.0000000E+00   0.0000000E+00   0.0000000E+00   0.0000000E+00   0.0000000E+00   0.0000000E+00   0.0000000E+00   0.0000000E+00   0.0000000E+00   0.0000000E+00   0.0000000E+00   0.0000000E+00   0.0000000E+00   0.0000000E+00   0.0000000E+00   0.0000000E+00   0.0000000E+00   0.0000000E+00   0.0000000E+00   0.0000000E+00   0.0000000E+00   0.0000000E+00   0.0000000E+00   0.0000000E+00   0.0000000E+00   0.0000000E+00   0.0000000E+00   0.0000000E+00   0.0000000E+00   0.0000000E+00   0.0000000E+00   0.0000000E+00   0.0000000E+00   0.0000000E+00   0.0000000E+00   0.0000000E+00   0.0000000E+00   0.0000000E+00   0.0000000E+00   0.0000000E+00   0.0000000E+00   0.0000000E+00   0.0000000E+00   0.0000000E+00   0.0000000E+00   0.0000000E+00   0.0000000E+00   0.0000000E+00   0.0000000E+00   0.0000000E+00   0.0000000E+00   0.0000000E+00   0.0000000E+00   0.0000000E+00   0.0000000E+00   0.0000000E+00   0.0000000E+00   0.0000000E+00   0.0000000E+00   0.0000000E+00   0.0000000E+00   0.0000000E+00   0.0000000E+00   0.0000000E+00   0.0000000E+00   0.0000000E+00   0.0000000E+00   0.0000000E+00   0.0000000E+00   0.0000000E+00   0.0000000E+00   0.0000000E+00   0.0000000E+00   0.0000000E+00   0.0000000E+00   0.0000000E+00   0.0000000E+00   0.0000000E+00   0.0000000E+00   0.0000000E+00   0.0000000E+00   0.0000000E+00   0.0000000E+00   0.0000000E+00   0.0000000E+00   0.0000000E+00   0.0000000E+00   0.0000000E+00   0.0000000E+00   0.0000000E+00   0.0000000E+00   0.0000000E+00   0.0000000E+00   0.0000000E+00   0.0000000E+00   0.0000000E+00   0.0000000E+00   0.0000000E+00   0.0000000E+00   0.0000000E+00   0.0000000E+00   0.0000000E+00   0.0000000E+00   0.0000000E+00   0.0000000E+00   0.0000000E+00   0.0000000E+00   0.0000000E+00   0.0000000E+00   0.0000000E+00   0.0000000E+00   0.0000000E+00   0.0000000E+00   0.0000000E+00   0.0000000E+00   0.0000000E+00   0.0000000E+00   0.0000000E+00   0.0000000E+00   0.0000000E+00   0.0000000E+00   0.0000000E+00   0.0000000E+00   0.0000000E+00   0.0000000E+00   0.0000000E+00   0.0000000E+00   0.0000000E+00   0.0000000E+00   0.0000000E+00   0.0000000E+00   0.0000000E+00   0.0000000E+00   0.0000000E+00   0.0000000E+00   0.0000000E+00   0.0000000E+00   0.0000000E+00   0.0000000E+00   0.0000000E+00   0.0000000E+00   0.0000000E+00   0.0000000E+00   0.0000000E+00   0.0000000E+00   0.0000000E+00   0.0000000E+00   0.0000000E+00   0.0000000E+00   0.0000000E+00   0.0000000E+00   0.0000000E+00   0.0000000E+00   0.0000000E+00   0.0000000E+00   0.0000000E+00   0.0000000E+00   0.0000000E+00   0.0000000E+00   0.0000000E+00   0.0000000E+00   0.0000000E+00   0.0000000E+00   0.0000000E+00   0.0000000E+00   0.0000000E+00   0.0000000E+00   0.0000000E+00   0.0000000E+00   0.0000000E+00   0.0000000E+00   0.0000000E+00   0.0000000E+00   0.0000000E+00   0.0000000E+00   0.0000000E+00   0.0000000E+00   0.0000000E+00   0.0000000E+00   0.0000000E+00   0.0000000E+00   0.0000000E+00   0.0000000E+00   0.0000000E+00   0.0000000E+00   0.0000000E+00   0.0000000E+00   0.0000000E+00   0.0000000E+00   0.0000000E+00   0.0000000E+00   0.0000000E+00   0.0000000E+00   0.0000000E+00   0.0000000E+00   0.0000000E+00   0.0000000E+00   0.0000000E+00   0.0000000E+00   0.0000000E+00   0.0000000E+00   0.0000000E+00   0.0000000E+00   0.0000000E+00   0.0000000E+00   0.0000000E+00   0.0000000E+00   0.0000000E+00   0.0000000E+00   0.0000000E+00   0.0000000E+00   0.0000000E+00   0.0000000E+00   0.0000000E+00   0.0000000E+00   0.0000000E+00   0.0000000E+00   0.0000000E+00   0.0000000E+00   0.0000000E+00   0.0000000E+00   0.0000000E+00   0.0000000E+00   0.0000000E+00   0.0000000E+00   0.0000000E+00   0.0000000E+00   0.0000000E+00   0.0000000E+00   0.0000000E+00   0.0000000E+00   0.0000000E+00   0.0000000E+00   0.0000000E+00   0.0000000E+00   0.0000000E+00   0.0000000E+00   0.0000000E+00   0.0000000E+00   0.0000000E+00   0.0000000E+00   0.0000000E+00   0.0000000E+00   0.0000000E+00   0.0000000E+00   0.0000000E+00   0.0000000E+00   0.0000000E+00   0.0000000E+00   0.0000000E+00   0.0000000E+00   0.0000000E+00   0.0000000E+00   0.0000000E+00   0.0000000E+00   0.0000000E+00   0.0000000E+00   0.0000000E+00   0.0000000E+00   0.0000000E+00   0.0000000E+00   0.0000000E+00   0.0000000E+00   0.0000000E+00   0.0000000E+00   0.0000000E+00   0.0000000E+00   0.0000000E+00   0.0000000E+00   0.0000000E+00   0.0000000E+00   0.0000000E+00   0.0000000E+00   0.0000000E+00   0.0000000E+00   0.0000000E+00   0.0000000E+00   0.0000000E+00   0.0000000E+00   0.0000000E+00   0.0000000E+00   0.0000000E+00   0.0000000E+00   0.0000000E+00   0.0000000E+00   0.0000000E+00   0.0000000E+00   0.0000000E+00   0.0000000E+00   0.0000000E+00   0.0000000E+00   0.0000000E+00   0.0000000E+00   0.0000000E+00   0.0000000E+00   0.0000000E+00   0.0000000E+00   0.0000000E+00   0.0000000E+00   0.0000000E+00   0.0000000E+00   0.0000000E+00   0.0000000E+00   0.0000000E+00   0.0000000E+00   0.0000000E+00   0.0000000E+00   0.0000000E+00   0.0000000E+00   0.0000000E+00   0.0000000E+00   0.0000000E+00   0.0000000E+00   0.0000000E+00   0.0000000E+00   0.0000000E+00   0.0000000E+00   0.0000000E+00   0.0000000E+00   0.0000000E+00   0.0000000E+00   0.0000000E+00   0.0000000E+00   0.0000000E+00   0.0000000E+00   0.0000000E+00   0.0000000E+00   0.0000000E+00   0.0000000E+00   0.0000000E+00   0.0000000E+00   0.0000000E+00   0.0000000E+00   0.0000000E+00   0.0000000E+00   0.0000000E+00   0.0000000E+00   0.0000000E+00   0.0000000E+00   0.0000000E+00   0.0000000E+00   0.0000000E+00   0.0000000E+00   0.0000000E+00   0.0000000E+00   0.0000000E+00   0.0000000E+00   0.0000000E+00   0.0000000E+00   0.0000000E+00   0.0000000E+00   0.0000000E+00   0.0000000E+00   0.0000000E+00   0.0000000E+00   0.0000000E+00   0.0000000E+00   0.0000000E+00   0.0000000E+00   0.0000000E+00   0.0000000E+00   0.0000000E+00   0.0000000E+00   0.0000000E+00   0.0000000E+00   0.0000000E+00   0.0000000E+00   0.0000000E+00   0.0000000E+00   0.0000000E+00   0.0000000E+00   0.0000000E+00   0.0000000E+00   0.0000000E+00   0.0000000E+00   0.0000000E+00   0.0000000E+00   0.0000000E+00   0.0000000E+00   0.0000000E+00   0.0000000E+00   0.0000000E+00   0.0000000E+00   0.0000000E+00   0.0000000E+00   0.0000000E+00   0.0000000E+00   0.0000000E+00   0.0000000E+00   0.0000000E+00   0.0000000E+00   0.0000000E+00   0.0000000E+00   0.0000000E+00   0.0000000E+00   0.0000000E+00   0.0000000E+00   0.0000000E+00   0.0000000E+00   0.0000000E+00   0.0000000E+00   0.0000000E+00   0.0000000E+00   0.0000000E+00   0.0000000E+00   0.0000000E+00   0.0000000E+00   0.0000000E+00   0.0000000E+00   0.0000000E+00   0.0000000E+00   0.0000000E+00   0.0000000E+00   0.0000000E+00   0.0000000E+00   0.0000000E+00   0.0000000E+00   0.0000000E+00   0.0000000E+00   0.0000000E+00   0.0000000E+00   0.0000000E+00   0.0000000E+00   0.0000000E+00   0.0000000E+00   0.0000000E+00   0.0000000E+00   0.0000000E+00   0.0000000E+00   0.0000000E+00   0.0000000E+00   0.0000000E+00   0.0000000E+00   0.0000000E+00   0.0000000E+00   0.0000000E+00   0.0000000E+00   0.0000000E+00   0.0000000E+00   0.0000000E+00   0.0000000E+00   0.0000000E+00   0.0000000E+00   0.0000000E+00   0.0000000E+00   0.0000000E+00   0.0000000E+00   0.0000000E+00   0.0000000E+00   0.0000000E+00   0.0000000E+00   0.0000000E+00   0.0000000E+00   0.0000000E+00   0.0000000E+00   0.0000000E+00   0.0000000E+00   0.0000000E+00   0.0000000E+00   0.0000000E+00   0.0000000E+00   0.0000000E+00   0.0000000E+00   0.0000000E+00   0.0000000E+00   0.0000000E+00   0.0000000E+00   0.0000000E+00   0.0000000E+00   0.0000000E+00   0.0000000E+00   0.0000000E+00   0.0000000E+00   0.0000000E+00   0.0000000E+00   0.0000000E+00   0.0000000E+00   0.0000000E+00   0.0000000E+00   0.0000000E+00   0.0000000E+00   0.0000000E+00   0.0000000E+00   0.0000000E+00   0.0000000E+00   0.0000000E+00   0.0000000E+00   0.0000000E+00   0.0000000E+00   0.0000000E+00   0.0000000E+00   0.0000000E+00   0.0000000E+00   0.0000000E+00   0.0000000E+00   0.0000000E+00   0.0000000E+00   0.0000000E+00   0.0000000E+00   0.0000000E+00   0.0000000E+00   0.0000000E+00   0.0000000E+00   0.0000000E+00   0.0000000E+00   0.0000000E+00   0.0000000E+00   0.0000000E+00   0.0000000E+00   0.0000000E+00   0.0000000E+00   0.0000000E+00   0.0000000E+00   0.0000000E+00   0.0000000E+00   0.0000000E+00   0.0000000E+00   0.0000000E+00   0.0000000E+00   0.0000000E+00   0.0000000E+00   0.0000000E+00   0.0000000E+00   0.0000000E+00   0.0000000E+00   0.0000000E+00   0.0000000E+00   0.0000000E+00   0.0000000E+00   0.0000000E+00   0.0000000E+00   0.0000000E+00   0.0000000E+00   0.0000000E+00   0.0000000E+00   0.0000000E+00   0.0000000E+00   0.0000000E+00   0.0000000E+00   0.0000000E+00   0.0000000E+00   0.0000000E+00   0.0000000E+00   0.0000000E+00   0.0000000E+00   0.0000000E+00   0.0000000E+00   0.0000000E+00   0.0000000E+00   0.0000000E+00   0.0000000E+00   0.0000000E+00   0.0000000E+00   0.0000000E+00   0.0000000E+00   0.0000000E+00   0.0000000E+00   0.0000000E+00   0.0000000E+00   0.0000000E+00   0.0000000E+00   0.0000000E+00   0.0000000E+00   0.0000000E+00   0.0000000E+00   0.0000000E+00   0.0000000E+00   0.0000000E+00   0.0000000E+00   0.0000000E+00   0.0000000E+00   0.0000000E+00   0.0000000E+00   0.0000000E+00   0.0000000E+00   0.0000000E+00   0.0000000E+00   0.0000000E+00   0.0000000E+00   0.0000000E+00   0.0000000E+00   0.0000000E+00   0.0000000E+00   0.0000000E+00   0.0000000E+00   0.0000000E+00   0.0000000E+00   0.0000000E+00   0.0000000E+00   0.0000000E+00   0.0000000E+00   0.0000000E+00   0.0000000E+00   0.0000000E+00   0.0000000E+00   0.0000000E+00   0.0000000E+00   0.0000000E+00   0.0000000E+00   0.0000000E+00   0.0000000E+00   0.0000000E+00   0.0000000E+00   0.0000000E+00   0.0000000E+00   0.0000000E+00   0.0000000E+00   0.0000000E+00   0.0000000E+00   0.0000000E+00   0.0000000E+00   0.0000000E+00   0.0000000E+00   0.0000000E+00   0.0000000E+00   0.0000000E+00   0.0000000E+00   0.0000000E+00   0.0000000E+00   0.0000000E+00   0.0000000E+00   0.0000000E+00   0.0000000E+00   0.0000000E+00   0.0000000E+00   0.0000000E+00   0.0000000E+00   0.0000000E+00   0.0000000E+00   0.0000000E+00   0.0000000E+00   0.0000000E+00   0.0000000E+00   0.0000000E+00   0.0000000E+00   0.0000000E+00   0.0000000E+00   0.0000000E+00   0.0000000E+00   0.0000000E+00   0.0000000E+00   0.0000000E+00   0.0000000E+00   0.0000000E+00   0.0000000E+00   0.0000000E+00   0.0000000E+00   0.0000000E+00   0.0000000E+00   0.0000000E+00   0.0000000E+00   0.0000000E+00   0.0000000E+00   0.0000000E+00   0.0000000E+00   0.0000000E+00   0.0000000E+00   0.0000000E+00   0.0000000E+00   0.0000000E+00   0.0000000E+00   0.0000000E+00   0.0000000E+00   0.0000000E+00   0.0000000E+00   0.0000000E+00   0.0000000E+00   0.0000000E+00   0.0000000E+00   0.0000000E+00   0.0000000E+00   0.0000000E+00   0.0000000E+00   0.0000000E+00   0.0000000E+00   0.0000000E+00   0.0000000E+00   0.0000000E+00   0.0000000E+00   0.0000000E+00   0.0000000E+00   0.0000000E+00   0.0000000E+00   0.0000000E+00   0.0000000E+00   0.0000000E+00   0.0000000E+00   0.0000000E+00   0.0000000E+00   0.0000000E+00   0.0000000E+00   0.0000000E+00   0.0000000E+00   0.0000000E+00   0.0000000E+00   0.0000000E+00   0.0000000E+00   0.0000000E+00   0.0000000E+00   0.0000000E+00   0.0000000E+00   0.0000000E+00   0.0000000E+00   0.0000000E+00   0.0000000E+00   0.0000000E+00   0.0000000E+00   0.0000000E+00   0.0000000E+00   0.0000000E+00   0.0000000E+00   0.0000000E+00   0.0000000E+00   0.0000000E+00   0.0000000E+00   0.0000000E+00   0.0000000E+00   0.0000000E+00   0.0000000E+00   0.0000000E+00   0.0000000E+00   0.0000000E+00   0.0000000E+00   0.0000000E+00   0.0000000E+00   0.0000000E+00   0.0000000E+00   0.0000000E+00   0.0000000E+00   0.0000000E+00   0.0000000E+00   0.0000000E+00   0.0000000E+00   0.0000000E+00   0.0000000E+00   0.0000000E+00   0.0000000E+00   0.0000000E+00   0.0000000E+00   0.0000000E+00   0.0000000E+00   0.0000000E+00   0.0000000E+00   0.0000000E+00   0.0000000E+00   0.0000000E+00   0.0000000E+00   0.0000000E+00   0.0000000E+00   0.0000000E+00   0.0000000E+00   0.0000000E+00   0.0000000E+00   0.0000000E+00   0.0000000E+00   0.0000000E+00   0.0000000E+00   0.0000000E+00   0.0000000E+00   0.0000000E+00   0.0000000E+00   0.0000000E+00   0.0000000E+00   0.0000000E+00   0.0000000E+00   0.0000000E+00   0.0000000E+00   0.0000000E+00   0.0000000E+00   0.0000000E+00   0.0000000E+00   0.0000000E+00   0.0000000E+00   0.0000000E+00   0.0000000E+00   0.0000000E+00   0.0000000E+00   0.0000000E+00   0.0000000E+00   0.0000000E+00   0.0000000E+00   0.0000000E+00   0.0000000E+00   0.0000000E+00   0.0000000E+00   0.0000000E+00   0.0000000E+00   0.0000000E+00   0.0000000E+00   0.0000000E+00   0.0000000E+00   0.0000000E+00   0.0000000E+00   0.0000000E+00   0.0000000E+00   0.0000000E+00   0.0000000E+00   0.0000000E+00   0.0000000E+00   0.0000000E+00   0.0000000E+00   0.0000000E+00   0.0000000E+00   0.0000000E+00   0.0000000E+00   0.0000000E+00   0.0000000E+00   0.0000000E+00   0.0000000E+00   0.0000000E+00   0.0000000E+00   0.0000000E+00   0.0000000E+00   0.0000000E+00   0.0000000E+00   0.0000000E+00   0.0000000E+00   0.0000000E+00   0.0000000E+00   0.0000000E+00   0.0000000E+00   0.0000000E+00   0.0000000E+00   0.0000000E+00   0.0000000E+00   0.0000000E+00   0.0000000E+00   0.0000000E+00   0.0000000E+00   0.0000000E+00   0.0000000E+00   0.0000000E+00   0.0000000E+00   0.0000000E+00   0.0000000E+00   0.0000000E+00   0.0000000E+00   0.0000000E+00   0.0000000E+00   0.0000000E+00   0.0000000E+00   0.0000000E+00   0.0000000E+00   0.0000000E+00   0.0000000E+00   0.0000000E+00   0.0000000E+00   0.0000000E+00   0.0000000E+00   0.0000000E+00   0.0000000E+00   0.0000000E+00   0.0000000E+00   0.0000000E+00   0.0000000E+00   0.0000000E+00   0.0000000E+00   0.0000000E+00   0.0000000E+00   0.0000000E+00   0.0000000E+00   0.0000000E+00   0.0000000E+00   0.0000000E+00   0.0000000E+00   0.0000000E+00   0.0000000E+00   0.0000000E+00   0.0000000E+00   0.0000000E+00   0.0000000E+00   0.0000000E+00   0.0000000E+00   0.0000000E+00   0.0000000E+00   0.0000000E+00   0.0000000E+00   0.0000000E+00   0.0000000E+00   0.0000000E+00   0.0000000E+00   0.0000000E+00   0.0000000E+00   0.0000000E+00   0.0000000E+00   0.0000000E+00   0.0000000E+00   0.0000000E+00   0.0000000E+00   0.0000000E+00   0.0000000E+00   0.0000000E+00   0.0000000E+00   0.0000000E+00   0.0000000E+00   0.0000000E+00   0.0000000E+00   0.0000000E+00   0.0000000E+00   0.0000000E+00   0.0000000E+00   0.0000000E+00   0.0000000E+00   0.0000000E+00   0.0000000E+00   0.0000000E+00   0.0000000E+00   0.0000000E+00   0.0000000E+00   0.0000000E+00   0.0000000E+00   0.0000000E+00   0.0000000E+00   0.0000000E+00   0.0000000E+00   0.0000000E+00   0.0000000E+00   0.0000000E+00   0.0000000E+00   0.0000000E+00   0.0000000E+00   0.0000000E+00   0.0000000E+00   0.0000000E+00   0.0000000E+00   0.0000000E+00   0.0000000E+00   0.0000000E+00   0.0000000E+00   0.0000000E+00   0.0000000E+00   0.0000000E+00   0.0000000E+00   0.0000000E+00   0.0000000E+00   0.0000000E+00   0.0000000E+00   0.0000000E+00   0.0000000E+00   0.0000000E+00   0.0000000E+00   0.0000000E+00   0.0000000E+00   0.0000000E+00   0.0000000E+00   0.0000000E+00   0.0000000E+00   0.0000000E+00   0.0000000E+00   0.0000000E+00   0.0000000E+00   0.0000000E+00   0.0000000E+00   0.0000000E+00   0.0000000E+00   0.0000000E+00   0.0000000E+00   0.0000000E+00   0.0000000E+00   0.0000000E+00   0.0000000E+00   0.0000000E+00   0.0000000E+00   0.0000000E+00   0.0000000E+00   0.0000000E+00   0.0000000E+00   0.0000000E+00   0.0000000E+00   0.0000000E+00   0.0000000E+00   0.0000000E+00   0.0000000E+00   0.0000000E+00   0.0000000E+00   0.0000000E+00   0.0000000E+00   0.0000000E+00   0.0000000E+00   0.0000000E+00   0.0000000E+00   0.0000000E+00   0.0000000E+00   0.0000000E+00   0.0000000E+00   0.0000000E+00   0.0000000E+00   0.0000000E+00   0.0000000E+00   0.0000000E+00   0.0000000E+00   0.0000000E+00   0.0000000E+00   0.0000000E+00   0.0000000E+00   0.0000000E+00   0.0000000E+00   0.0000000E+00   0.0000000E+00   0.0000000E+00   0.0000000E+00   0.0000000E+00   0.0000000E+00   0.0000000E+00   0.0000000E+00   0.0000000E+00   0.0000000E+00   0.0000000E+00   0.0000000E+00   0.0000000E+00   0.0000000E+00   0.0000000E+00   0.0000000E+00   0.0000000E+00   0.0000000E+00   0.0000000E+00   0.0000000E+00   0.0000000E+00   0.0000000E+00   0.0000000E+00   0.0000000E+00   0.0000000E+00   0.0000000E+00   0.0000000E+00   0.0000000E+00   0.0000000E+00   0.0000000E+00   0.0000000E+00   0.0000000E+00   0.0000000E+00   0.0000000E+00   0.0000000E+00   0.0000000E+00   0.0000000E+00   0.0000000E+00   0.0000000E+00   0.0000000E+00   0.0000000E+00   0.0000000E+00   0.0000000E+00   0.0000000E+00   0.0000000E+00   0.0000000E+00   0.0000000E+00   0.0000000E+00   0.0000000E+00   0.0000000E+00   0.0000000E+00   0.0000000E+00   0.0000000E+00   0.0000000E+00   0.0000000E+00   0.0000000E+00   0.0000000E+00   0.0000000E+00   0.0000000E+00   0.0000000E+00   0.0000000E+00   0.0000000E+00   0.0000000E+00   0.0000000E+00   0.0000000E+00   0.0000000E+00   0.0000000E+00   0.0000000E+00   0.0000000E+00   0.0000000E+00   0.0000000E+00   0.0000000E+00   0.0000000E+00   0.0000000E+00   0.0000000E+00   0.0000000E+00   0.0000000E+00   0.0000000E+00   0.0000000E+00   0.0000000E+00   0.0000000E+00   0.0000000E+00   0.0000000E+00   0.0000000E+00   0.0000000E+00   0.0000000E+00   0.0000000E+00   0.0000000E+00   0.0000000E+00   0.0000000E+00   0.0000000E+00   0.0000000E+00   0.0000000E+00   0.0000000E+00   0.0000000E+00   0.0000000E+00   0.0000000E+00   0.0000000E+00   0.0000000E+00   0.0000000E+00   0.0000000E+00   0.0000000E+00   0.0000000E+00   0.0000000E+00   0.0000000E+00   0.0000000E+00   0.0000000E+00   0.0000000E+00   0.0000000E+00   0.0000000E+00   0.0000000E+00   0.0000000E+00   0.0000000E+00   0.0000000E+00   0.0000000E+00   0.0000000E+00   0.0000000E+00   0.0000000E+00   0.0000000E+00   0.0000000E+00   0.0000000E+00   0.0000000E+00   0.0000000E+00   0.0000000E+00   0.0000000E+00   0.0000000E+00   0.0000000E+00   0.0000000E+00   0.0000000E+00   0.0000000E+00   0.0000000E+00   0.0000000E+00   0.0000000E+00   0.0000000E+00   0.0000000E+00   0.0000000E+00   0.0000000E+00   0.0000000E+00   0.0000000E+00   0.0000000E+00   0.0000000E+00   0.0000000E+00   0.0000000E+00   0.0000000E+00   0.0000000E+00   0.0000000E+00   0.0000000E+00   0.0000000E+00   0.0000000E+00   0.0000000E+00   0.0000000E+00   0.0000000E+00   0.0000000E+00   0.0000000E+00   0.0000000E+00   0.0000000E+00   0.0000000E+00   0.0000000E+00   0.0000000E+00   0.0000000E+00   0.0000000E+00   0.0000000E+00   0.0000000E+00   0.0000000E+00   0.0000000E+00   0.0000000E+00   0.0000000E+00   0.0000000E+00   0.0000000E+00   0.0000000E+00   0.0000000E+00   0.0000000E+00   0.0000000E+00   0.0000000E+00   0.0000000E+00   0.0000000E+00   0.0000000E+00   0.0000000E+00   0.0000000E+00   0.0000000E+00   0.0000000E+00   0.0000000E+00   0.0000000E+00   0.0000000E+00   0.0000000E+00   0.0000000E+00   0.0000000E+00   0.0000000E+00   0.0000000E+00   0.0000000E+00   0.0000000E+00   0.0000000E+00   0.0000000E+00   0.0000000E+00   0.0000000E+00   0.0000000E+00   0.0000000E+00   0.0000000E+00   0.0000000E+00   0.0000000E+00   0.0000000E+00   0.0000000E+00   0.0000000E+00   0.0000000E+00   0.0000000E+00   0.0000000E+00   0.0000000E+00   0.0000000E+00   0.0000000E+00   0.0000000E+00   0.0000000E+00   0.0000000E+00   0.0000000E+00   0.0000000E+00   0.0000000E+00   0.0000000E+00   0.0000000E+00   0.0000000E+00   0.0000000E+00   0.0000000E+00   0.0000000E+00   0.0000000E+00   0.0000000E+00   0.0000000E+00   0.0000000E+00   0.0000000E+00   0.0000000E+00   0.0000000E+00   0.0000000E+00   0.0000000E+00   0.0000000E+00   0.0000000E+00   0.0000000E+00   0.0000000E+00   0.0000000E+00   0.0000000E+00   0.0000000E+00   0.0000000E+00   0.0000000E+00   0.0000000E+00   0.0000000E+00   0.0000000E+00   0.0000000E+00   0.0000000E+00   0.0000000E+00   0.0000000E+00   0.0000000E+00   0.0000000E+00   0.0000000E+00   0.0000000E+00   0.0000000E+00   0.0000000E+00   0.0000000E+00   0.0000000E+00   0.0000000E+00   0.0000000E+00   0.0000000E+00   0.0000000E+00   0.0000000E+00   0.0000000E+00   0.0000000E+00   0.0000000E+00   0.0000000E+00   0.0000000E+00   0.0000000E+00   0.0000000E+00   0.0000000E+00   0.0000000E+00   0.0000000E+00   0.0000000E+00   0.0000000E+00   0.0000000E+00   0.0000000E+00   0.0000000E+00   0.0000000E+00   0.0000000E+00   0.0000000E+00   0.0000000E+00   0.0000000E+00   0.0000000E+00   0.0000000E+00   0.0000000E+00   0.0000000E+00   0.0000000E+00   0.0000000E+00   0.0000000E+00   0.0000000E+00   0.0000000E+00   0.0000000E+00   0.0000000E+00   0.0000000E+00   0.0000000E+00   0.0000000E+00   0.0000000E+00   0.0000000E+00   0.0000000E+00   0.0000000E+00   0.0000000E+00   0.0000000E+00   0.0000000E+00   0.0000000E+00   0.0000000E+00   0.0000000E+00   0.0000000E+00   0.0000000E+00   0.0000000E+00   0.0000000E+00   0.0000000E+00   0.0000000E+00   0.0000000E+00   0.0000000E+00   0.0000000E+00   0.0000000E+00   0.0000000E+00   0.0000000E+00   0.0000000E+00   0.0000000E+00   0.0000000E+00   0.0000000E+00   0.0000000E+00   0.0000000E+00   0.0000000E+00   0.0000000E+00   0.0000000E+00   0.0000000E+00   0.0000000E+00   0.0000000E+00   0.0000000E+00   0.0000000E+00   0.0000000E+00   0.0000000E+00   0.0000000E+00   0.0000000E+00   0.0000000E+00   0.0000000E+00   0.0000000E+00   0.0000000E+00   0.0000000E+00   0.0000000E+00   0.0000000E+00   0.0000000E+00   0.0000000E+00   0.0000000E+00   0.0000000E+00   0.0000000E+00   0.0000000E+00   0.0000000E+00   0.0000000E+00   0.0000000E+00   0.0000000E+00   0.0000000E+00   0.0000000E+00   0.0000000E+00   0.0000000E+00   0.0000000E+00   0.0000000E+00   0.0000000E+00   0.0000000E+00   0.0000000E+00   0.0000000E+00   0.0000000E+00   0.0000000E+00   0.0000000E+00   0.0000000E+00   0.0000000E+00   0.0000000E+00   0.0000000E+00   0.0000000E+00   0.0000000E+00   0.0000000E+00   0.0000000E+00   0.0000000E+00   0.0000000E+00   0.0000000E+00   0.0000000E+00   0.0000000E+00   0.0000000E+00   0.0000000E+00   0.0000000E+00   0.0000000E+00   0.0000000E+00   0.0000000E+00   0.0000000E+00   0.0000000E+00   0.0000000E+00   0.0000000E+00   0.0000000E+00   0.0000000E+00   0.0000000E+00   0.0000000E+00   0.0000000E+00   0.0000000E+00   0.0000000E+00   0.0000000E+00   0.0000000E+00   0.0000000E+00   0.0000000E+00   0.0000000E+00   0.0000000E+00   0.0000000E+00   0.0000000E+00   0.0000000E+00   0.0000000E+00   0.0000000E+00   0.0000000E+00   0.0000000E+00   0.0000000E+00   0.0000000E+00   0.0000000E+00   0.0000000E+00   0.0000000E+00   0.0000000E+00   0.0000000E+00   0.0000000E+00   0.0000000E+00   0.0000000E+00   0.0000000E+00   0.0000000E+00   0.0000000E+00   0.0000000E+00   0.0000000E+00   0.0000000E+00   0.0000000E+00   0.0000000E+00   0.0000000E+00   0.0000000E+00   0.0000000E+00   0.0000000E+00   0.0000000E+00   0.0000000E+00   0.0000000E+00   0.0000000E+00   0.0000000E+00   0.0000000E+00   0.0000000E+00   0.0000000E+00   0.0000000E+00   0.0000000E+00   0.0000000E+00   0.0000000E+00   0.0000000E+00   0.0000000E+00   0.0000000E+00   0.0000000E+00   0.0000000E+00   0.0000000E+00   0.0000000E+00   0.0000000E+00   0.0000000E+00   0.0000000E+00   0.0000000E+00   0.0000000E+00   0.0000000E+00   0.0000000E+00   0.0000000E+00   0.0000000E+00   0.0000000E+00   0.0000000E+00   0.0000000E+00   0.0000000E+00   0.0000000E+00   0.0000000E+00   0.0000000E+00   0.0000000E+00   0.0000000E+00   0.0000000E+00   0.0000000E+00   0.0000000E+00   0.0000000E+00   0.0000000E+00   0.0000000E+00   0.0000000E+00   0.0000000E+00   0.0000000E+00   0.0000000E+00   0.0000000E+00   0.0000000E+00   0.0000000E+00   0.0000000E+00   0.0000000E+00   0.0000000E+00   0.0000000E+00   0.0000000E+00   0.0000000E+00   0.0000000E+00   0.0000000E+00   0.0000000E+00   0.0000000E+00   0.0000000E+00   0.0000000E+00   0.0000000E+00   0.0000000E+00   0.0000000E+00   0.0000000E+00   0.0000000E+00   0.0000000E+00   0.0000000E+00   0.0000000E+00   0.0000000E+00   0.0000000E+00   0.0000000E+00   0.0000000E+00   0.0000000E+00   0.0000000E+00   0.0000000E+00   0.0000000E+00   0.0000000E+00   0.0000000E+00   0.0000000E+00   0.0000000E+00   0.0000000E+00   0.0000000E+00   0.0000000E+00   0.0000000E+00   0.0000000E+00   0.0000000E+00   0.0000000E+00   0.0000000E+00   0.0000000E+00   0.0000000E+00   0.0000000E+00   0.0000000E+00   0.0000000E+00   0.0000000E+00   0.0000000E+00   0.0000000E+00   0.0000000E+00   0.0000000E+00   0.0000000E+00   0.0000000E+00   0.0000000E+00   0.0000000E+00   0.0000000E+00   0.0000000E+00   0.0000000E+00   0.0000000E+00   0.0000000E+00   0.0000000E+00   0.0000000E+00   0.0000000E+00   0.0000000E+00   0.0000000E+00   0.0000000E+00   0.0000000E+00   0.0000000E+00   0.0000000E+00   0.0000000E+00   0.0000000E+00   0.0000000E+00   0.0000000E+00   0.0000000E+00   0.0000000E+00   0.0000000E+00   0.0000000E+00   0.0000000E+00   0.0000000E+00   0.0000000E+00   0.0000000E+00   0.0000000E+00   0.0000000E+00   0.0000000E+00   0.0000000E+00   0.0000000E+00   0.0000000E+00   0.0000000E+00   0.0000000E+00   0.0000000E+00   0.0000000E+00   0.0000000E+00   0.0000000E+00   0.0000000E+00   0.0000000E+00   0.0000000E+00   0.0000000E+00   0.0000000E+00   0.0000000E+00   0.0000000E+00   0.0000000E+00   0.0000000E+00   0.0000000E+00   0.0000000E+00   0.0000000E+00   0.0000000E+00   0.0000000E+00   0.0000000E+00   0.0000000E+00   0.0000000E+00   0.0000000E+00   0.0000000E+00   0.0000000E+00   0.0000000E+00   0.0000000E+00   0.0000000E+00   0.0000000E+00   0.0000000E+00   0.0000000E+00   0.0000000E+00   0.0000000E+00   0.0000000E+00   0.0000000E+00   0.0000000E+00   0.0000000E+00   0.0000000E+00   0.0000000E+00   0.0000000E+00   0.0000000E+00   0.0000000E+00   0.0000000E+00   0.0000000E+00   0.0000000E+00   0.0000000E+00   0.0000000E+00   0.0000000E+00   0.0000000E+00   0.0000000E+00   0.0000000E+00   0.0000000E+00   0.0000000E+00   0.0000000E+00   0.0000000E+00   0.0000000E+00   0.0000000E+00   0.0000000E+00   0.0000000E+00   0.0000000E+00   0.0000000E+00   0.0000000E+00   0.0000000E+00   0.0000000E+00   0.0000000E+00   0.0000000E+00   0.0000000E+00   0.0000000E+00   0.0000000E+00   0.0000000E+00   0.0000000E+00   0.0000000E+00   0.0000000E+00   0.0000000E+00   0.0000000E+00   0.0000000E+00   0.0000000E+00   0.0000000E+00   0.0000000E+00   0.0000000E+00   0.0000000E+00   0.0000000E+00   0.0000000E+00   0.0000000E+00   0.0000000E+00   0.0000000E+00   0.0000000E+00   0.0000000E+00   0.0000000E+00   0.0000000E+00   0.0000000E+00   0.0000000E+00   0.0000000E+00   0.0000000E+00   0.0000000E+00   0.0000000E+00   0.0000000E+00   0.0000000E+00   0.0000000E+00   0.0000000E+00   0.0000000E+00   0.0000000E+00   0.0000000E+00   0.0000000E+00   0.0000000E+00   0.0000000E+00   0.0000000E+00   0.0000000E+00   0.0000000E+00   0.0000000E+00   0.0000000E+00   0.0000000E+00   0.0000000E+00   0.0000000E+00   0.0000000E+00   0.0000000E+00   0.0000000E+00   0.0000000E+00   0.0000000E+00   0.0000000E+00   0.0000000E+00   0.0000000E+00   0.0000000E+00   0.0000000E+00   0.0000000E+00   0.0000000E+00   0.0000000E+00   0.0000000E+00   0.0000000E+00   0.0000000E+00   0.0000000E+00   0.0000000E+00   0.0000000E+00   0.0000000E+00   0.0000000E+00   0.0000000E+00   0.0000000E+00   0.0000000E+00   0.0000000E+00   0.0000000E+00   0.0000000E+00   0.0000000E+00  -3.2152739E-04   0.0000000E+00  -1.2283049E-04  -3.8994011E-04   0.0000000E+00  -1.1822875E-04  -4.4760638E-04   0.0000000E+00  -1.0677429E-04  -4.9231987E-04   0.0000000E+00  -9.2398281E-05  -5.2552676E-04   0.0000000E+00  -7.6513315E-05  -3.2582684E-04   0.0000000E+00  -1.6473708E-04  -4.5286011E-04   0.0000000E+00  -1.5516358E-04  -5.6094036E-04   0.0000000E+00  -1.5295969E-04  -6.4781046E-04   0.0000000E+00  -1.4142774E-04  -7.1313273E-04   0.0000000E+00  -1.2429638E-04  -7.6001330E-04   0.0000000E+00  -1.0386558E-04  -4.6097412E-04   0.0000000E+00  -1.8924702E-04  -6.3885050E-04   0.0000000E+00  -1.8380028E-04  -7.9043419E-04   0.0000000E+00  -1.7922051E-04  -9.1273949E-04   0.0000000E+00  -1.6547542E-04  -1.0031268E-03   0.0000000E+00  -1.4658447E-04  -1.0665925E-03   0.0000000E+00  -1.2301549E-04  -6.3165557E-04   0.0000000E+00  -2.1331891E-04  -8.7191974E-04   0.0000000E+00  -2.0608320E-04  -1.0731786E-03   0.0000000E+00  -2.0066465E-04  -1.2339161E-03   0.0000000E+00  -1.8488913E-04  -1.3513721E-03   0.0000000E+00  -1.6348033E-04  -1.4320175E-03   0.0000000E+00  -1.3704100E-04  -8.4100640E-04   0.0000000E+00  -2.4083522E-04  -1.1546606E-03   0.0000000E+00  -2.2646305E-04  -1.4121545E-03   0.0000000E+00  -2.1859037E-04  -1.6141946E-03   0.0000000E+00  -2.0021503E-04  -1.7591817E-03   0.0000000E+00  -1.7620414E-04  -1.8562705E-03   0.0000000E+00  -1.4696232E-04  -1.0990165E-03   0.0000000E+00  -2.7494057E-04  -1.4984782E-03   0.0000000E+00  -2.4727482E-04  -1.8185655E-03   0.0000000E+00  -2.3415632E-04  -2.0644183E-03   0.0000000E+00  -2.1221029E-04  -2.2367369E-03   0.0000000E+00  -1.8588369E-04  -2.3488468E-03   0.0000000E+00  -1.5428079E-04  -1.4218631E-03   0.0000000E+00  -3.2043247E-04  -1.9208901E-03   0.0000000E+00  -2.7245830E-04  -2.3099235E-03   0.0000000E+00  -2.5044740E-04  -2.6021469E-03   0.0000000E+00  -2.2325799E-04  -2.8011510E-03   0.0000000E+00  -1.9531728E-04  -2.9266377E-03   0.0000000E+00  -1.6153978E-04  -1.8320349E-03   0.0000000E+00  -3.8343185E-04  -2.4439115E-03   0.0000000E+00  -3.0826946E-04  -2.9073611E-03   0.0000000E+00  -2.7396629E-04  -3.2486396E-03   0.0000000E+00  -2.3908280E-04  -3.4740972E-03   0.0000000E+00  -2.0902179E-04  -3.6105427E-03   0.0000000E+00  -1.7350918E-04  -2.3623256E-03   0.0000000E+00  -4.6080936E-04  -3.0927837E-03   0.0000000E+00  -3.5904767E-04  -3.6363292E-03   0.0000000E+00  -3.0898704E-04  -4.0257131E-03   0.0000000E+00  -2.6950872E-04  -4.2772521E-03   0.0000000E+00  -2.3596529E-04  -4.4222446E-03   0.0000000E+00  -1.9714833E-04  -3.0639926E-03   0.0000000E+00  -5.2503770E-04  -3.8985831E-03   0.0000000E+00  -4.2100009E-04  -4.5193559E-03   0.0000000E+00  -3.6442999E-04  -4.9575213E-03   0.0000000E+00  -3.2261558E-04  -5.2345414E-03   0.0000000E+00  -2.8299185E-04  -5.3832480E-03   0.0000000E+00  -2.4097944E-04  -3.9882632E-03   0.0000000E+00  -5.7516294E-04  -4.9068867E-03   0.0000000E+00  -4.8859970E-04  -5.5915443E-03   0.0000000E+00  -4.3913594E-04  -6.0743238E-03   0.0000000E+00  -4.0095398E-04  -6.3696029E-03   0.0000000E+00  -3.6305530E-04  -6.5174815E-03   0.0000000E+00  -3.1318079E-04  -5.0877193E-03   0.0000000E+00  -8.7954826E-04  -6.1444305E-03   0.0000000E+00  -6.7051587E-04  -6.8884664E-03   0.0000000E+00  -5.8285927E-04  -7.4098073E-03   0.0000000E+00  -5.2715407E-04  -7.7125193E-03   0.0000000E+00  -4.8473023E-04  -7.8511108E-03   0.0000000E+00  -4.2307444E-04  -6.5395366E-03   0.0000000E+00  -1.8675096E-03  -7.6813879E-03   0.0000000E+00  -1.2594571E-03  -8.4655313E-03   0.0000000E+00  -9.4123051E-04  -9.0071447E-03   0.0000000E+00  -7.7059196E-04  -9.2995120E-03   0.0000000E+00  -6.7912758E-04  -9.4154663E-03   0.0000000E+00  -5.8567215E-04  -8.5122325E-03   0.0000000E+00  -2.9197009E-03  -9.6344342E-03   0.0000000E+00  -2.0903726E-03  -1.0410156E-02   0.0000000E+00  -1.5023282E-03  -1.0918205E-02   0.0000000E+00  -1.1682621E-03  -1.1171310E-02   0.0000000E+00  -9.7989594E-04  -1.1248122E-02   0.0000000E+00  -8.1755558E-04  -1.0973236E-02   0.0000000E+00  -3.7819170E-03  -1.2017947E-02   0.0000000E+00  -2.9062422E-03  -1.2735695E-02   0.0000000E+00  -2.1653597E-03  -1.3175480E-02   0.0000000E+00  -1.6870003E-03  -1.3367482E-02   0.0000000E+00  -1.3689328E-03  -1.3389514E-02   0.0000000E+00  -1.1165332E-03  -1.3802068E-02   0.0000000E+00  -4.5505394E-03  -1.4775527E-02   0.0000000E+00  -3.6563512E-03  -1.5425573E-02   0.0000000E+00  -2.8454533E-03  -1.5793622E-02   0.0000000E+00  -2.2561457E-03  -1.5924305E-02   0.0000000E+00  -1.8246388E-03  -1.5881065E-02   0.0000000E+00  -1.4720460E-03  -1.6918838E-02   0.0000000E+00  -5.3169243E-03  -1.7865470E-02   0.0000000E+00  -4.3865386E-03  -1.8483864E-02   0.0000000E+00  -3.5289603E-03  -1.8803228E-02   0.0000000E+00  -2.8561968E-03  -1.8876068E-02   0.0000000E+00  -2.3208656E-03  -1.8766515E-02   0.0000000E+00  -1.8770855E-03  -2.0321621E-02   0.0000000E+00  -6.1345417E-03  -2.1315947E-02   0.0000000E+00  -5.1472415E-03  -2.1951588E-02   0.0000000E+00  -4.2313887E-03  -2.2249592E-02   0.0000000E+00  -3.4909162E-03  -2.2275183E-02   0.0000000E+00  -2.8614041E-03  -2.2093700E-02   0.0000000E+00  -2.3196621E-03  -2.4102340E-02   0.0000000E+00  -7.0377872E-03  -2.5213074E-02   0.0000000E+00  -5.9699202E-03  -2.5902066E-02   0.0000000E+00  -4.9838629E-03  -2.6195269E-02   0.0000000E+00  -4.1740243E-03  -2.6177000E-02   0.0000000E+00  -3.4467129E-03  -2.5918534E-02   0.0000000E+00  -2.8001075E-03  -2.8398136E-02   0.0000000E+00  -8.0493335E-03  -2.9655535E-02   0.0000000E+00  -6.8866760E-03  -3.0412592E-02   0.0000000E+00  -5.8156783E-03  -3.0708287E-02   0.0000000E+00  -4.9190228E-03  -3.0641956E-02   0.0000000E+00  -4.0839333E-03  -3.0299019E-02   0.0000000E+00  -3.3211114E-03  -3.3309150E-02   0.0000000E+00  -9.1944253E-03  -3.4722906E-02   0.0000000E+00  -7.9263560E-03  -3.5553377E-02   0.0000000E+00  -6.7538926E-03  -3.5854239E-02   0.0000000E+00  -5.7459893E-03  -3.5735656E-02   0.0000000E+00  -4.7835642E-03  -3.5298157E-02   0.0000000E+00  -3.8894466E-03  -3.8911473E-02   0.0000000E+00  -1.0511577E-02  -4.0493421E-02   0.0000000E+00  -9.1243703E-03  -4.1400891E-02   0.0000000E+00  -7.8230174E-03  -4.1706771E-02   0.0000000E+00  -6.6705602E-03  -4.1530196E-02   0.0000000E+00  -5.5564921E-03  -4.0983409E-02   0.0000000E+00  -4.5170016E-03  -4.5300920E-02   0.0000000E+00  -1.2043341E-02  -4.7059704E-02   0.0000000E+00  -1.0522897E-02  -4.8046034E-02   0.0000000E+00  -9.0434402E-03  -4.8352931E-02   0.0000000E+00  -7.7015213E-03  -4.8106842E-02   0.0000000E+00  -6.4152228E-03  -4.7429275E-02   0.0000000E+00  -5.2244440E-03  -5.2598808E-02   0.0000000E+00  -1.3856460E-02  -5.4536365E-02   0.0000000E+00  -1.2171287E-02  -5.5597767E-02   0.0000000E+00  -1.0432187E-02  -5.5894528E-02   0.0000000E+00  -8.8514797E-03  -5.5557556E-02   0.0000000E+00  -7.3848069E-03  -5.4718032E-02   0.0000000E+00  -6.0521080E-03  -6.0969934E-02   0.0000000E+00  -1.6032407E-02  -6.3067228E-02   0.0000000E+00  -1.4128150E-02  -6.4185031E-02   0.0000000E+00  -1.2006969E-02  -6.4443253E-02   0.0000000E+00  -1.0143315E-02  -6.3977487E-02   0.0000000E+00  -8.5164243E-03  -6.2933095E-02   0.0000000E+00  -7.0796921E-03  -7.0642196E-02   0.0000000E+00  -1.8672926E-02  -7.2825760E-02   0.0000000E+00  -1.6458219E-02  -7.3943816E-02   0.0000000E+00  -1.3796618E-02  -7.4103624E-02   0.0000000E+00  -1.1636858E-02  -7.3449463E-02   0.0000000E+00  -9.9121798E-03  -7.2146341E-02   0.0000000E+00  -8.4400699E-03  -8.1899770E-02   0.0000000E+00  -2.1911468E-02  -8.3989903E-02   0.0000000E+00  -1.9251278E-02  -8.4983110E-02   0.0000000E+00  -1.5884578E-02  -8.4937349E-02   0.0000000E+00  -1.3482073E-02  -8.4017083E-02   0.0000000E+00  -1.1760892E-02  -8.2390673E-02   0.0000000E+00  -1.0342966E-02  -9.4990626E-02   0.0000000E+00  -2.5902219E-02  -9.6653871E-02   0.0000000E+00  -2.2636296E-02  -9.7302243E-02   0.0000000E+00  -1.8468700E-02  -9.6909679E-02   0.0000000E+00  -1.5943743E-02  -9.5613383E-02   0.0000000E+00  -1.4354598E-02  -9.3608342E-02   0.0000000E+00  -1.3057077E-02  -1.0990044E-01   0.0000000E+00  -3.0838830E-02  -1.1065986E-01   0.0000000E+00  -2.6841071E-02  -1.1067916E-01   0.0000000E+00  -2.1879621E-02  -1.0975377E-01   0.0000000E+00  -1.9341365E-02  -1.0796304E-01   0.0000000E+00  -1.8044328E-02  -1.0555877E-01   0.0000000E+00  -1.6853604E-02  -1.2601669E-01   0.0000000E+00  -3.7012286E-02  -1.2537056E-01   0.0000000E+00  -3.2235313E-02  -1.2446462E-01   0.0000000E+00  -2.6599826E-02  -1.2286495E-01   0.0000000E+00  -2.4124740E-02  -1.2052399E-01   0.0000000E+00  -2.3063598E-02  -1.1769642E-01   0.0000000E+00  -2.1958150E-02  -1.4195424E-01   0.0000000E+00  -4.4839870E-02  -1.3963954E-01   0.0000000E+00  -3.9437141E-02  -1.3769239E-01   0.0000000E+00  -3.3273559E-02  -1.3544179E-01   0.0000000E+00  -3.0586055E-02  -1.3254847E-01   0.0000000E+00  -2.9563481E-02  -1.2935810E-01   0.0000000E+00  -2.8290140E-02  -1.5595904E-01   0.0000000E+00  -5.4857966E-02  -1.5237230E-01   0.0000000E+00  -4.9049582E-02  -1.4985776E-01   0.0000000E+00  -4.2162869E-02  -1.4681421E-01   0.0000000E+00  -3.9060835E-02  -1.4348821E-01   0.0000000E+00  -3.7384093E-02  -1.4003663E-01   0.0000000E+00  -3.5532109E-02  -1.6630296E-01   0.0000000E+00  -6.7479439E-02  -1.6269152E-01   0.0000000E+00  -6.1188787E-02  -1.5977691E-01   0.0000000E+00  -5.4616254E-02  -1.5656173E-01   0.0000000E+00  -4.9879245E-02  -1.5300588E-01   0.0000000E+00  -4.6344921E-02  -1.4913659E-01   0.0000000E+00  -4.3663535E-02  -1.7229161E-01   0.0000000E+00  -8.2203716E-02  -1.6930547E-01   0.0000000E+00  -7.3915184E-02  -1.6610377E-01   0.0000000E+00  -6.9892168E-02  -1.6252820E-01   0.0000000E+00  -6.5224856E-02  -1.5926409E-01   0.0000000E+00  -5.8848098E-02  -1.5544999E-01   0.0000000E+00  -5.4019369E-02  -1.7206429E-01   0.0000000E+00  -9.6369281E-02  -1.7111064E-01   0.0000000E+00  -8.5191488E-02  -1.6774637E-01   0.0000000E+00  -8.4572881E-02  -1.6356689E-01   0.0000000E+00  -8.3897531E-02  -1.6078632E-01   0.0000000E+00  -7.6225936E-02  -1.5750167E-01   0.0000000E+00  -6.8798482E-02  -1.4968407E-01   0.0000000E+00  -1.0707616E-01  -1.6059351E-01   0.0000000E+00  -9.5600098E-02  -1.6075227E-01   0.0000000E+00  -9.7762302E-02  -1.5662789E-01   0.0000000E+00  -1.0148038E-01  -1.5483804E-01   0.0000000E+00  -9.6655972E-02  -1.5267219E-01   0.0000000E+00  -8.8589214E-02  -1.0306501E-01   0.0000000E+00  -1.1674274E-01  -1.1624973E-01   0.0000000E+00  -1.0446998E-01  -1.2575249E-01   0.0000000E+00  -1.0661287E-01  -1.3077310E-01   0.0000000E+00  -1.1455580E-01  -1.3273673E-01   0.0000000E+00  -1.1464573E-01  -1.3154314E-01   0.0000000E+00  -1.0854296E-01  -6.2000189E-02   0.0000000E+00  -1.2510356E-01  -7.1025707E-02   0.0000000E+00  -1.1005713E-01  -7.7882081E-02   0.0000000E+00  -1.0954618E-01  -8.2701273E-02   0.0000000E+00  -1.1693340E-01  -8.5125044E-02   0.0000000E+00  -1.1829380E-01  -8.5001551E-02   0.0000000E+00  -1.1333744E-01  -3.1978186E-02   0.0000000E+00  -1.3151562E-01  -3.7356351E-02   0.0000000E+00  -1.1390026E-01  -4.1335721E-02   0.0000000E+00  -1.1056736E-01  -4.4570286E-02   0.0000000E+00  -1.1679159E-01  -4.6563651E-02   0.0000000E+00  -1.1850202E-01  -4.7124743E-02   0.0000000E+00  -1.1453503E-01  -1.1217923E-02   0.0000000E+00  -1.3594714E-01  -1.3432106E-02   0.0000000E+00  -1.1652765E-01  -1.5014864E-02   0.0000000E+00  -1.1117590E-01  -1.6639566E-02   0.0000000E+00  -1.1641766E-01  -1.7975498E-02   0.0000000E+00  -1.1798026E-01  -1.8761808E-02   0.0000000E+00  -1.1430553E-01   4.9556457E-03   0.0000000E+00  -1.3832754E-01   5.4649953E-03   0.0000000E+00  -1.1823537E-01   5.7940516E-03   0.0000000E+00  -1.1180625E-01   5.6627593E-03   0.0000000E+00  -1.1636099E-01   5.0673475E-03   0.0000000E+00  -1.1749191E-01   4.3049445E-03   0.0000000E+00  -1.1335798E-01   2.0958930E-02   0.0000000E+00  -1.3870022E-01   2.3908412E-02   0.0000000E+00  -1.1866999E-01   2.5685141E-02   0.0000000E+00  -1.1232549E-01   2.6816839E-02   0.0000000E+00  -1.1656081E-01   2.6928578E-02   0.0000000E+00  -1.1699317E-01   2.6184000E-02   0.0000000E+00  -1.1188676E-01   3.8845722E-02   0.0000000E+00  -1.3707115E-01   4.3976407E-02   0.0000000E+00  -1.1754669E-01   4.6953931E-02   0.0000000E+00  -1.1160858E-01   4.9061533E-02   0.0000000E+00  -1.1575987E-01   4.9771097E-02   0.0000000E+00  -1.1555597E-01   4.8851997E-02   0.0000000E+00  -1.0974873E-01   5.8167987E-02   0.0000000E+00  -1.3375328E-01   6.5343715E-02   0.0000000E+00  -1.1492652E-01   6.9316201E-02   0.0000000E+00  -1.0939061E-01   7.2178297E-02   0.0000000E+00  -1.1341174E-01   7.3325388E-02   0.0000000E+00  -1.1280458E-01   7.1999855E-02   0.0000000E+00  -1.0670844E-01   7.7280670E-02   0.0000000E+00  -1.2900026E-01   8.6285882E-02   0.0000000E+00  -1.1103123E-01   9.0990290E-02   0.0000000E+00  -1.0573831E-01   9.4498053E-02   0.0000000E+00  -1.0943977E-01   9.5929518E-02   0.0000000E+00  -1.0865310E-01   9.4110429E-02   0.0000000E+00  -1.0259242E-01   9.4487868E-02   0.0000000E+00  -1.2300773E-01   1.0497423E-01   0.0000000E+00  -1.0613271E-01   1.0998861E-01   0.0000000E+00  -1.0077927E-01   1.1383528E-01   0.0000000E+00  -1.0388688E-01   1.1554017E-01   0.0000000E+00  -1.0280143E-01   1.1350745E-01   0.0000000E+00  -9.7368486E-02   1.0841865E-01   0.0000000E+00  -1.1603808E-01   1.1982050E-01   0.0000000E+00  -1.0038313E-01   1.2509076E-01   0.0000000E+00  -9.4952807E-02   1.2861851E-01   0.0000000E+00  -9.7001910E-02   1.3056797E-01   0.0000000E+00  -9.5533952E-02   1.2790291E-01   0.0000000E+00  -9.1205440E-02   1.1836503E-01   0.0000000E+00  -1.0825010E-01   1.3049723E-01   0.0000000E+00  -9.3981683E-02   1.3588440E-01   0.0000000E+00  -8.8607110E-02   1.3858746E-01   0.0000000E+00  -8.9356065E-02   1.3743149E-01   0.0000000E+00  -8.8251963E-02   1.3174687E-01   0.0000000E+00  -8.4573381E-02   1.2540680E-01   0.0000000E+00  -9.9758856E-02   1.3777369E-01   0.0000000E+00  -8.7077290E-02   1.4288948E-01   0.0000000E+00  -8.1769697E-02   1.4302580E-01   0.0000000E+00  -8.2375571E-02   1.3831443E-01   0.0000000E+00  -8.1827328E-02   1.3167389E-01   0.0000000E+00  -7.7757999E-02   1.3144594E-01   0.0000000E+00  -9.1145717E-02   1.4320114E-01   0.0000000E+00  -7.9708897E-02   1.4668195E-01   0.0000000E+00  -7.4946724E-02   1.4356790E-01   0.0000000E+00  -7.6046042E-02   1.3767044E-01   0.0000000E+00  -7.5440109E-02   1.3049084E-01   0.0000000E+00  -7.1146905E-02   1.3822995E-01   0.0000000E+00  -8.2943521E-02   1.4756528E-01   0.0000000E+00  -7.2120115E-02   1.4781076E-01   0.0000000E+00  -6.8531185E-02   1.4311491E-01   0.0000000E+00  -6.9858335E-02   1.3628262E-01   0.0000000E+00  -6.8677485E-02   1.2879370E-01   0.0000000E+00  -6.5002538E-02   1.4706533E-01   0.0000000E+00  -7.5323910E-02   1.5119185E-01   0.0000000E+00  -6.4992093E-02   1.4823605E-01   0.0000000E+00  -6.2197614E-02   1.4246315E-01   0.0000000E+00  -6.3536033E-02   1.3477829E-01   0.0000000E+00  -6.2343903E-02   1.2689684E-01   0.0000000E+00  -5.9401844E-02   1.5886857E-01   0.0000000E+00  -6.7145243E-02   1.5549904E-01   0.0000000E+00  -5.8897898E-02   1.4896731E-01   0.0000000E+00  -5.6201544E-02   1.4187138E-01   0.0000000E+00  -5.7300888E-02   1.3344909E-01   0.0000000E+00  -5.6261268E-02   1.2484919E-01   0.0000000E+00  -5.3841464E-02   1.7021957E-01   0.0000000E+00  -5.8624163E-02   1.6071364E-01   0.0000000E+00  -5.3675216E-02   1.5089026E-01   0.0000000E+00  -5.1140741E-02   1.4153236E-01   0.0000000E+00  -5.1658381E-02   1.3226913E-01   0.0000000E+00  -5.0454099E-02   1.2285086E-01   0.0000000E+00  -4.8290070E-02   1.7624587E-01   0.0000000E+00  -5.2152175E-02   1.6458017E-01   0.0000000E+00  -4.8931506E-02   1.5264855E-01   0.0000000E+00  -4.6269778E-02   1.4153904E-01   0.0000000E+00  -4.6073034E-02   1.3129492E-01   0.0000000E+00  -4.4939574E-02   1.2103897E-01   0.0000000E+00  -4.2809870E-02   1.6637981E-01   0.0000000E+00  -4.4564296E-02   1.5350893E-01   0.0000000E+00  -4.1390158E-02   1.4186950E-01   0.0000000E+00  -4.0707134E-02   1.3062777E-01   0.0000000E+00  -3.9638903E-02   1.1958588E-01   0.0000000E+00  -3.7628423E-02   1.6581294E-01   0.0000000E+00  -4.0902015E-02   1.5412827E-01   0.0000000E+00  -3.7586097E-02   1.4230312E-01   0.0000000E+00  -3.5868801E-02   1.3048775E-01   0.0000000E+00  -3.4721091E-02   1.1862247E-01   0.0000000E+00  -3.2769568E-02   1.5418750E-01   0.0000000E+00  -3.5350867E-02   1.4273751E-01   0.0000000E+00  -3.2537982E-02   1.3121805E-01   0.0000000E+00  -3.1088376E-02   1.1850745E-01   0.0000000E+00  -2.8780362E-02   1.5260857E-01   0.0000000E+00  -3.3834528E-02   1.4348301E-01   0.0000000E+00  -3.1315081E-02   1.3239780E-01   0.0000000E+00  -2.8882379E-02   1.1975903E-01   0.0000000E+00  -2.6386356E-02   1.4271380E-01   0.0000000E+00  -3.0758472E-02   1.3341150E-01   0.0000000E+00  -2.8179599E-02   1.2188408E-01   0.0000000E+00  -2.5606610E-02   1.3296685E-01   0.0000000E+00  -2.8034212E-02   1.2383099E-01   0.0000000E+00  -2.5870781E-02   1.2836646E-01   0.0000000E+00  -2.6139250E-02   1.2355436E-01   0.0000000E+00  -2.6088189E-02  -5.4858328E-04   0.0000000E+00  -6.1404724E-05  -5.6377612E-04   0.0000000E+00  -4.7490750E-05  -5.7275710E-04   0.0000000E+00  -3.5958394E-05  -5.7740457E-04   0.0000000E+00  -2.6360851E-05  -5.7917199E-04   0.0000000E+00  -1.8696246E-05  -5.7920406E-04   0.0000000E+00  -1.2826094E-05  -5.7843240E-04   0.0000000E+00  -8.2947281E-06  -5.7746028E-04   0.0000000E+00  -4.9236119E-06  -5.7672377E-04   0.0000000E+00  -2.2659842E-06  -7.9157279E-04   0.0000000E+00  -8.3520659E-05  -8.1124710E-04   0.0000000E+00  -6.5033491E-05  -8.2206877E-04   0.0000000E+00  -4.9552549E-05  -8.2701782E-04   0.0000000E+00  -3.6378595E-05  -8.2806189E-04   0.0000000E+00  -2.6032005E-05  -8.2695123E-04   0.0000000E+00  -1.7946291E-05  -8.2495844E-04   0.0000000E+00  -1.1741082E-05  -8.2295656E-04   0.0000000E+00  -7.0207961E-06  -8.2153879E-04   0.0000000E+00  -3.2577334E-06  -1.1077703E-03   0.0000000E+00  -9.9553654E-05  -1.1322952E-03   0.0000000E+00  -7.7966644E-05  -1.1449165E-03   0.0000000E+00  -5.9412101E-05  -1.1496264E-03   0.0000000E+00  -4.3825417E-05  -1.1493368E-03   0.0000000E+00  -3.1507068E-05  -1.1464697E-03   0.0000000E+00  -2.1722037E-05  -1.1426925E-03   0.0000000E+00  -1.4285140E-05  -1.1392252E-03   0.0000000E+00  -8.5460924E-06  -1.1368491E-03   0.0000000E+00  -3.9888600E-06  -1.4827404E-03   0.0000000E+00  -1.1065086E-04  -1.5114606E-03   0.0000000E+00  -8.6732631E-05  -1.5250391E-03   0.0000000E+00  -6.5846230E-05  -1.5285593E-03   0.0000000E+00  -4.8598224E-05  -1.5260460E-03   0.0000000E+00  -3.4806741E-05  -1.5205800E-03   0.0000000E+00  -2.3978931E-05  -1.5143519E-03   0.0000000E+00  -1.5740039E-05  -1.5089236E-03   0.0000000E+00  -9.3976796E-06  -1.5052884E-03   0.0000000E+00  -4.3819696E-06  -1.9151738E-03   0.0000000E+00  -1.1817092E-04  -1.9465970E-03   0.0000000E+00  -9.2360715E-05  -1.9596282E-03   0.0000000E+00  -6.9608730E-05  -1.9605332E-03   0.0000000E+00  -5.1220395E-05  -1.9545343E-03   0.0000000E+00  -3.6399182E-05  -1.9454048E-03   0.0000000E+00  -2.4973964E-05  -1.9359022E-03   0.0000000E+00  -1.6266185E-05  -1.9279106E-03   0.0000000E+00  -9.6804097E-06  -1.9226591E-03   0.0000000E+00  -4.4878734E-06  -2.4138810E-03   0.0000000E+00  -1.2372584E-04  -2.4459441E-03   0.0000000E+00  -9.6146199E-05  -2.4562557E-03   0.0000000E+00  -7.2152179E-05  -2.4526790E-03   0.0000000E+00  -5.2792155E-05  -2.4415599E-03   0.0000000E+00  -3.7219099E-05  -2.4274481E-03   0.0000000E+00  -2.5351681E-05  -2.4136424E-03   0.0000000E+00  -1.6376502E-05  -2.4023659E-03   0.0000000E+00  -9.6796812E-06  -2.3950636E-03   0.0000000E+00  -4.4643352E-06  -2.9953232E-03   0.0000000E+00  -1.2981950E-04  -3.0253481E-03   0.0000000E+00  -1.0070729E-04  -3.0302990E-03   0.0000000E+00  -7.5605574E-05  -3.0199313E-03   0.0000000E+00  -5.5066397E-05  -3.0016901E-03   0.0000000E+00  -3.8696668E-05  -2.9809913E-03   0.0000000E+00  -2.6179017E-05  -2.9616344E-03   0.0000000E+00  -1.6840466E-05  -2.9461938E-03   0.0000000E+00  -9.9001909E-06  -2.9363146E-03   0.0000000E+00  -4.5471047E-06  -3.6799712E-03   0.0000000E+00  -1.4026854E-04  -3.7046839E-03   0.0000000E+00  -1.0939634E-04  -3.7011467E-03   0.0000000E+00  -8.2793893E-05  -3.6812050E-03   0.0000000E+00  -6.0475180E-05  -3.6534728E-03   0.0000000E+00  -4.2690135E-05  -3.6242481E-03   0.0000000E+00  -2.8903052E-05  -3.5978416E-03   0.0000000E+00  -1.8630953E-05  -3.5771672E-03   0.0000000E+00  -1.0959034E-05  -3.5640714E-03   0.0000000E+00  -5.0379463E-06  -4.4887564E-03   0.0000000E+00  -1.6075003E-04  -4.5042830E-03   0.0000000E+00  -1.2683129E-04  -4.4886707E-03   0.0000000E+00  -9.7421878E-05  -4.4559217E-03   0.0000000E+00  -7.1992552E-05  -4.4159181E-03   0.0000000E+00  -5.1419396E-05  -4.3758620E-03   0.0000000E+00  -3.5159333E-05  -4.3406044E-03   0.0000000E+00  -2.2878219E-05  -4.3134033E-03   0.0000000E+00  -1.3566687E-05  -4.2963158E-03   0.0000000E+00  -6.2767322E-06  -5.4420824E-03   0.0000000E+00  -1.9917131E-04  -5.4439437E-03   0.0000000E+00  -1.5930954E-04  -5.4122717E-03   0.0000000E+00  -1.2400723E-04  -5.3630457E-03   0.0000000E+00  -9.2941758E-05  -5.3075515E-03   0.0000000E+00  -6.7269124E-05  -5.2539483E-03   0.0000000E+00  -4.6654215E-05  -5.2076979E-03   0.0000000E+00  -3.0728366E-05  -5.1724296E-03   0.0000000E+00  -1.8441204E-05  -5.1504206E-03   0.0000000E+00  -8.5979927E-06  -6.5623745E-03   0.0000000E+00  -2.6329915E-04  -6.5455493E-03   0.0000000E+00  -2.1297080E-04  -6.4932806E-03   0.0000000E+00  -1.6726405E-04  -6.4233947E-03   0.0000000E+00  -1.2678749E-04  -6.3487235E-03   0.0000000E+00  -9.2616945E-05  -6.2784161E-03   0.0000000E+00  -6.4999047E-05  -6.2186625E-03   0.0000000E+00  -4.3204764E-05  -6.1734905E-03   0.0000000E+00  -2.6184505E-05  -6.1454587E-03   0.0000000E+00  -1.2289018E-05  -7.8753782E-03   0.0000000E+00  -3.5989017E-04  -7.8344662E-03   0.0000000E+00  -2.9251922E-04  -7.7563142E-03   0.0000000E+00  -2.3096797E-04  -7.6609482E-03   0.0000000E+00  -1.7645161E-04  -7.5628697E-03   0.0000000E+00  -1.2936718E-04  -7.4722003E-03   0.0000000E+00  -9.1355265E-05  -7.3959851E-03   0.0000000E+00  -6.1099672E-05  -7.3387655E-03   0.0000000E+00  -3.7162699E-05  -7.3033962E-03   0.0000000E+00  -1.7530632E-05  -9.4116414E-03   0.0000000E+00  -4.9413787E-04  -9.3393829E-03   0.0000000E+00  -4.0257559E-04  -9.2293378E-03   0.0000000E+00  -3.1771604E-04  -9.1029480E-03   0.0000000E+00  -2.4277167E-04  -8.9763701E-03   0.0000000E+00  -1.7838799E-04  -8.8610752E-03   0.0000000E+00  -1.2597893E-04  -8.7649543E-03   0.0000000E+00  -8.4652187E-05  -8.6932071E-03   0.0000000E+00  -5.1584724E-05  -8.6489702E-03   0.0000000E+00  -2.4346309E-05  -1.1205696E-02   0.0000000E+00  -6.7514100E-04  -1.1093527E-02   0.0000000E+00  -5.4479798E-04  -1.0943604E-02   0.0000000E+00  -4.2881496E-04  -1.0779483E-02   0.0000000E+00  -3.2570795E-04  -1.0618318E-02   0.0000000E+00  -2.3973154E-04  -1.0473421E-02   0.0000000E+00  -1.6890718E-04  -1.0353387E-02   0.0000000E+00  -1.1325496E-04  -1.0264163E-02   0.0000000E+00  -6.9032787E-05  -1.0209337E-02   0.0000000E+00  -3.2567150E-05  -1.3296159E-02   0.0000000E+00  -9.0546475E-04  -1.3133470E-02   0.0000000E+00  -7.2208128E-04  -1.2933806E-02   0.0000000E+00  -5.6417158E-04  -1.2723534E-02   0.0000000E+00  -4.2520923E-04  -1.2520699E-02   0.0000000E+00  -3.1136442E-04  -1.2340177E-02   0.0000000E+00  -2.1916171E-04  -1.2191560E-02   0.0000000E+00  -1.4633230E-04  -1.2081406E-02   0.0000000E+00  -8.8919973E-05  -1.2013924E-02   0.0000000E+00  -4.1859665E-05  -1.5724376E-02   0.0000000E+00  -1.1800396E-03  -1.5498787E-02   0.0000000E+00  -9.3175372E-04  -1.5238186E-02   0.0000000E+00  -7.2173780E-04  -1.4971683E-02   0.0000000E+00  -5.3894363E-04  -1.4718644E-02   0.0000000E+00  -3.9170933E-04  -1.4495275E-02   0.0000000E+00  -2.7429359E-04  -1.4312608E-02   0.0000000E+00  -1.8234247E-04  -1.4177587E-02   0.0000000E+00  -1.1033054E-04  -1.4094956E-02   0.0000000E+00  -5.1643208E-05  -1.8535573E-02   0.0000000E+00  -1.4957357E-03  -1.8233903E-02   0.0000000E+00  -1.1709968E-03  -1.7899819E-02   0.0000000E+00  -8.9955848E-04  -1.7565414E-02   0.0000000E+00  -6.6610228E-04  -1.7251842E-02   0.0000000E+00  -4.7946858E-04  -1.6977049E-02   0.0000000E+00  -3.3302829E-04  -1.6753538E-02   0.0000000E+00  -2.1925799E-04  -1.6588969E-02   0.0000000E+00  -1.3216570E-04  -1.6488250E-02   0.0000000E+00  -6.1483748E-05  -2.1778494E-02   0.0000000E+00  -1.8444635E-03  -2.1387272E-02   0.0000000E+00  -1.4337987E-03  -2.0965798E-02   0.0000000E+00  -1.0928083E-03  -2.0550430E-02   0.0000000E+00  -8.0346927E-04  -2.0164493E-02   0.0000000E+00  -5.7251507E-04  -1.9828213E-02   0.0000000E+00  -3.9372742E-04  -1.9555809E-02   0.0000000E+00  -2.5639619E-04  -1.9355796E-02   0.0000000E+00  -1.5331614E-04  -1.9233622E-02   0.0000000E+00  -7.1002010E-05  -2.5507053E-02   0.0000000E+00  -2.2213561E-03  -2.5012072E-02   0.0000000E+00  -1.7179005E-03  -2.4487125E-02   0.0000000E+00  -1.2974903E-03  -2.3975611E-02   0.0000000E+00  -9.4630459E-04  -2.3504131E-02   0.0000000E+00  -6.6931976E-04  -2.3095015E-02   0.0000000E+00  -4.5673209E-04  -2.2764232E-02   0.0000000E+00  -2.9427055E-04  -2.2521824E-02   0.0000000E+00  -1.7427545E-04  -2.2374047E-02   0.0000000E+00  -8.0463717E-05  -2.9778888E-02   0.0000000E+00  -2.6293832E-03  -2.9164137E-02   0.0000000E+00  -2.0250797E-03  -2.8518438E-02   0.0000000E+00  -1.5199312E-03  -2.7893072E-02   0.0000000E+00  -1.1006298E-03  -2.7319765E-02   0.0000000E+00  -7.7262981E-04  -2.6824499E-02   0.0000000E+00  -5.2520703E-04  -2.6424408E-02   0.0000000E+00  -3.3628003E-04  -2.6131522E-02   0.0000000E+00  -1.9793586E-04  -2.5953174E-02   0.0000000E+00  -9.1280621E-05  -3.4653746E-02   0.0000000E+00  -3.0745827E-03  -3.3899881E-02   0.0000000E+00  -2.3626464E-03  -3.3112776E-02   0.0000000E+00  -1.7681682E-03  -3.2353349E-02   0.0000000E+00  -1.2772708E-03  -3.1659607E-02   0.0000000E+00  -8.9506526E-04  -3.1061983E-02   0.0000000E+00  -6.0863927E-04  -3.0580183E-02   0.0000000E+00  -3.9080100E-04  -3.0227505E-02   0.0000000E+00  -2.3044072E-04  -3.0012837E-02   0.0000000E+00  -1.0662685E-04  -4.0193655E-02   0.0000000E+00  -3.5716284E-03  -3.9276231E-02   0.0000000E+00  -2.7490524E-03  -3.8322911E-02   0.0000000E+00  -2.0638613E-03  -3.7405849E-02   0.0000000E+00  -1.4996845E-03  -3.6570363E-02   0.0000000E+00  -1.0599893E-03  -3.5852253E-02   0.0000000E+00  -7.2893046E-04  -3.5274118E-02   0.0000000E+00  -4.7480006E-04  -3.4851056E-02   0.0000000E+00  -2.8360554E-04  -3.4593608E-02   0.0000000E+00  -1.3280942E-04  -4.6465870E-02   0.0000000E+00  -4.1505354E-03  -4.5354079E-02   0.0000000E+00  -3.2214667E-03  -4.4204291E-02   0.0000000E+00  -2.4481018E-03  -4.3102782E-02   0.0000000E+00  -1.8096425E-03  -4.2101867E-02   0.0000000E+00  -1.3080139E-03  -4.1243125E-02   0.0000000E+00  -9.2054374E-04  -4.0552333E-02   0.0000000E+00  -6.1590486E-04  -4.0047295E-02   0.0000000E+00  -3.7647461E-04  -3.9739847E-02   0.0000000E+00  -1.7966991E-04  -5.3544354E-02   0.0000000E+00  -4.8680399E-03  -5.2201409E-02   0.0000000E+00  -3.8471010E-03  -5.0821871E-02   0.0000000E+00  -2.9890921E-03  -4.9505211E-02   0.0000000E+00  -2.2744881E-03  -4.8313290E-02   0.0000000E+00  -1.6988793E-03  -4.7292724E-02   0.0000000E+00  -1.2354571E-03  -4.6472497E-02   0.0000000E+00  -8.5658859E-04  -4.5873195E-02   0.0000000E+00  -5.3784758E-04  -4.5508120E-02   0.0000000E+00  -2.6037608E-04  -6.1506297E-02   0.0000000E+00  -5.8211782E-03  -5.9892498E-02   0.0000000E+00  -4.7319233E-03  -5.8248136E-02   0.0000000E+00  -3.7921395E-03  -5.6685612E-02   0.0000000E+00  -2.9922810E-03  -5.5276915E-02   0.0000000E+00  -2.3181548E-03  -5.4073803E-02   0.0000000E+00  -1.7472686E-03  -5.3107880E-02   0.0000000E+00  -1.2510137E-03  -5.2401796E-02   0.0000000E+00  -8.0763188E-04  -5.1971730E-02   0.0000000E+00  -3.9627840E-04  -7.0420943E-02   0.0000000E+00  -7.1578193E-03  -6.8499297E-02   0.0000000E+00  -6.0236449E-03  -6.6557646E-02   0.0000000E+00  -5.0008711E-03  -6.4720824E-02   0.0000000E+00  -4.0863561E-03  -6.3071609E-02   0.0000000E+00  -3.2719746E-03  -6.1667334E-02   0.0000000E+00  -2.5404289E-03  -6.0541101E-02   0.0000000E+00  -1.8651242E-03  -5.9718557E-02   0.0000000E+00  -1.2274304E-03  -5.9217162E-02   0.0000000E+00  -6.0937909E-04  -8.0326885E-02   0.0000000E+00  -9.0778638E-03  -7.8067735E-02   0.0000000E+00  -7.9029268E-03  -7.5807139E-02   0.0000000E+00  -6.7770020E-03  -7.3674150E-02   0.0000000E+00  -5.7046670E-03  -7.1765535E-02   0.0000000E+00  -4.6856534E-03  -7.0144512E-02   0.0000000E+00  -3.7171401E-03  -6.8847418E-02   0.0000000E+00  -2.7773452E-03  -6.7900874E-02   0.0000000E+00  -1.8515406E-03  -6.7324072E-02   0.0000000E+00  -9.2683622E-04  -9.1178536E-02   0.0000000E+00  -1.1817999E-02  -8.8568725E-02   0.0000000E+00  -1.0559868E-02  -8.5977718E-02   0.0000000E+00  -9.2823748E-03  -8.3543010E-02   0.0000000E+00  -7.9789450E-03  -8.1368133E-02   0.0000000E+00  -6.6655260E-03  -7.9521850E-02   0.0000000E+00  -5.3545469E-03  -7.8046858E-02   0.0000000E+00  -4.0429747E-03  -7.6970719E-02   0.0000000E+00  -2.7144831E-03  -7.6314718E-02   0.0000000E+00  -1.3644464E-03  -1.0274511E-01   0.0000000E+00  -1.5591381E-02  -9.9801041E-02   0.0000000E+00  -1.4200555E-02  -9.6898504E-02   0.0000000E+00  -1.2685509E-02  -9.4172701E-02   0.0000000E+00  -1.1043164E-02  -9.1733679E-02   0.0000000E+00  -9.3273520E-03  -8.9664087E-02   0.0000000E+00  -7.5471504E-03  -8.8009059E-02   0.0000000E+00  -5.7171877E-03  -8.6801268E-02   0.0000000E+00  -3.8449229E-03  -8.6063735E-02   0.0000000E+00  -1.9334146E-03  -1.1454811E-01   0.0000000E+00  -2.0600392E-02  -1.1131697E-01   0.0000000E+00  -1.8949719E-02  -1.0814150E-01   0.0000000E+00  -1.7026667E-02  -1.0515138E-01   0.0000000E+00  -1.4920685E-02  -1.0247846E-01   0.0000000E+00  -1.2654534E-02  -1.0020505E-01   0.0000000E+00  -1.0264366E-02  -9.8383732E-02   0.0000000E+00  -7.7883857E-03  -9.7051062E-02   0.0000000E+00  -5.2449903E-03  -9.6233457E-02   0.0000000E+00  -2.6416266E-03  -1.2596075E-01   0.0000000E+00  -2.6621036E-02  -1.2244185E-01   0.0000000E+00  -2.4625793E-02  -1.1899989E-01   0.0000000E+00  -2.2313833E-02  -1.1577998E-01   0.0000000E+00  -1.9652903E-02  -1.1291645E-01   0.0000000E+00  -1.6709670E-02  -1.1047626E-01   0.0000000E+00  -1.3568372E-02  -1.0851819E-01   0.0000000E+00  -1.0314043E-02  -1.0707329E-01   0.0000000E+00  -6.9610127E-03  -1.0618059E-01   0.0000000E+00  -3.5072081E-03  -1.3629118E-01   0.0000000E+00  -3.3485752E-02  -1.3246921E-01   0.0000000E+00  -3.1177687E-02  -1.2882109E-01   0.0000000E+00  -2.8413160E-02  -1.2546811E-01   0.0000000E+00  -2.5108237E-02  -1.2248933E-01   0.0000000E+00  -2.1424951E-02  -1.1991354E-01   0.0000000E+00  -1.7467724E-02  -1.1779758E-01   0.0000000E+00  -1.3298062E-02  -1.1624385E-01   0.0000000E+00  -8.9834910E-03  -1.1528252E-01   0.0000000E+00  -4.5357724E-03  -1.4504115E-01   0.0000000E+00  -4.1157782E-02  -1.4100029E-01   0.0000000E+00  -3.8433880E-02  -1.3723847E-01   0.0000000E+00  -3.5065535E-02  -1.3380224E-01   0.0000000E+00  -3.1003471E-02  -1.3069566E-01   0.0000000E+00  -2.6390150E-02  -1.2796268E-01   0.0000000E+00  -2.1483021E-02  -1.2575701E-01   0.0000000E+00  -1.6378548E-02  -1.2413153E-01   0.0000000E+00  -1.1105552E-02  -1.2312531E-01   0.0000000E+00  -5.6186551E-03  -1.5128238E-01   0.0000000E+00  -5.0384264E-02  -1.4716640E-01   0.0000000E+00  -4.7008410E-02  -1.4337555E-01   0.0000000E+00  -4.2910051E-02  -1.3996910E-01   0.0000000E+00  -3.7857573E-02  -1.3687354E-01   0.0000000E+00  -3.2216817E-02  -1.3412033E-01   0.0000000E+00  -2.6300361E-02  -1.3187353E-01   0.0000000E+00  -2.0134469E-02  -1.3021974E-01   0.0000000E+00  -1.3675765E-02  -1.2921651E-01   0.0000000E+00  -6.9266194E-03  -1.5355699E-01   0.0000000E+00  -6.3448533E-02  -1.4958985E-01   0.0000000E+00  -5.8910731E-02  -1.4599597E-01   0.0000000E+00  -5.3779069E-02  -1.4280996E-01   0.0000000E+00  -4.7613837E-02  -1.3986607E-01   0.0000000E+00  -4.0667720E-02  -1.3720824E-01   0.0000000E+00  -3.3242971E-02  -1.3497820E-01   0.0000000E+00  -2.5489150E-02  -1.3329066E-01   0.0000000E+00  -1.7357202E-02  -1.3224158E-01   0.0000000E+00  -8.8012842E-03  -1.4938629E-01   0.0000000E+00  -8.1571698E-02  -1.4591406E-01   0.0000000E+00  -7.5418584E-02  -1.4303419E-01   0.0000000E+00  -6.8285584E-02  -1.4050801E-01   0.0000000E+00  -5.9773624E-02  -1.3790685E-01   0.0000000E+00  -5.0464798E-02  -1.3532919E-01   0.0000000E+00  -4.0878445E-02  -1.3310814E-01   0.0000000E+00  -3.1135380E-02  -1.3140495E-01   0.0000000E+00  -2.1120798E-02  -1.3034526E-01   0.0000000E+00  -1.0711434E-02  -1.2851664E-01   0.0000000E+00  -1.0048785E-01  -1.2487058E-01   0.0000000E+00  -9.2759706E-02  -1.2120156E-01   0.0000000E+00  -8.3077319E-02  -1.1762963E-01   0.0000000E+00  -7.1581334E-02  -1.1429326E-01   0.0000000E+00  -5.9675209E-02  -1.1136011E-01   0.0000000E+00  -4.7927901E-02  -1.0893525E-01   0.0000000E+00  -3.6320228E-02  -1.0710512E-01   0.0000000E+00  -2.4566185E-02  -1.0595911E-01   0.0000000E+00  -1.2439159E-02  -8.3231293E-02   0.0000000E+00  -1.0599691E-01  -8.0863789E-02   0.0000000E+00  -9.8451644E-02  -7.8305751E-02   0.0000000E+00  -8.8545270E-02  -7.5771175E-02   0.0000000E+00  -7.6625161E-02  -7.3399283E-02   0.0000000E+00  -6.4168230E-02  -7.1285918E-02   0.0000000E+00  -5.1745072E-02  -6.9510698E-02   0.0000000E+00  -3.9340489E-02  -6.8154819E-02   0.0000000E+00  -2.6671436E-02  -6.7299083E-02   0.0000000E+00  -1.3524026E-02  -4.6602894E-02   0.0000000E+00  -1.0819313E-01  -4.5576010E-02   0.0000000E+00  -1.0127116E-01  -4.4290613E-02   0.0000000E+00  -9.1639027E-02  -4.2910881E-02   0.0000000E+00  -7.9713315E-02  -4.1551396E-02   0.0000000E+00  -6.7050949E-02  -4.0291499E-02   0.0000000E+00  -5.4275744E-02  -3.9197676E-02   0.0000000E+00  -4.1393518E-02  -3.8339954E-02   0.0000000E+00  -2.8127681E-02  -3.7788708E-02   0.0000000E+00  -1.4281899E-02  -1.8994777E-02   0.0000000E+00  -1.0860398E-01  -1.8902915E-02   0.0000000E+00  -1.0224154E-01  -1.8597065E-02   0.0000000E+00  -9.2946440E-02  -1.8168395E-02   0.0000000E+00  -8.1161149E-02  -1.7680727E-02   0.0000000E+00  -6.8495974E-02  -1.7179152E-02   0.0000000E+00  -5.5610064E-02  -1.6706010E-02   0.0000000E+00  -4.2519543E-02  -1.6311316E-02   0.0000000E+00  -2.8949345E-02  -1.6047267E-02   0.0000000E+00  -1.4716905E-02   3.6009995E-03   0.0000000E+00  -1.0789166E-01   3.0092020E-03   0.0000000E+00  -1.0187943E-01   2.5438459E-03   0.0000000E+00  -9.2856690E-02   2.1932046E-03   0.0000000E+00  -8.1258461E-02   1.9483464E-03   0.0000000E+00  -6.8716273E-02   1.8006550E-03   0.0000000E+00  -5.5899523E-02   1.7334763E-03   0.0000000E+00  -4.2819917E-02   1.7189591E-03   0.0000000E+00  -2.9197393E-02   1.7264467E-03   0.0000000E+00  -1.4857181E-02   2.5045630E-02   0.0000000E+00  -1.0639384E-01   2.3835920E-02   0.0000000E+00  -1.0051057E-01   2.2689622E-02   0.0000000E+00  -9.1665551E-02   2.1663295E-02   0.0000000E+00  -8.0264114E-02   2.0789351E-02   0.0000000E+00  -6.7928538E-02   2.0085063E-02   0.0000000E+00  -5.5315595E-02   1.9552756E-02   0.0000000E+00  -4.2420529E-02   1.9184172E-02   0.0000000E+00  -2.8953947E-02   1.8968288E-02   0.0000000E+00  -1.4743202E-02   4.7160175E-02   0.0000000E+00  -1.0413899E-01   4.5278795E-02   0.0000000E+00  -9.8269284E-02   4.3457214E-02   0.0000000E+00  -8.9549780E-02   4.1800350E-02   0.0000000E+00  -7.8367300E-02   4.0361147E-02   0.0000000E+00  -6.6311590E-02   3.9166965E-02   0.0000000E+00  -5.4011632E-02   3.8229428E-02   0.0000000E+00  -4.1441370E-02   3.7553396E-02   0.0000000E+00  -2.8301027E-02   3.7143853E-02   0.0000000E+00  -1.4416433E-02   6.9612443E-02   0.0000000E+00  -1.0102192E-01   6.6984229E-02   0.0000000E+00  -9.5153220E-02   6.4470276E-02   0.0000000E+00  -8.6575665E-02   6.2204413E-02   0.0000000E+00  -7.5669982E-02   6.0241446E-02   0.0000000E+00  -6.3977145E-02   5.8605373E-02   0.0000000E+00  -5.2092038E-02   5.7308499E-02   0.0000000E+00  -3.9968841E-02   5.6362618E-02   0.0000000E+00  -2.7300190E-02   5.5784125E-02   0.0000000E+00  -1.3908993E-02   9.0959504E-02   0.0000000E+00  -9.6940488E-02   8.7563887E-02   0.0000000E+00  -9.1136009E-02   8.4371090E-02   0.0000000E+00  -8.2772620E-02   8.1529580E-02   0.0000000E+00  -7.2232947E-02   7.9084694E-02   0.0000000E+00  -6.0998023E-02   7.7050149E-02   0.0000000E+00  -4.9628764E-02   7.5433895E-02   0.0000000E+00  -3.8065147E-02   7.4250773E-02   0.0000000E+00  -2.5997227E-02   7.3524699E-02   0.0000000E+00  -1.3245255E-02   1.0963290E-01   0.0000000E+00  -9.1886334E-02   1.0552780E-01   0.0000000E+00  -8.6245261E-02   1.0171267E-01   0.0000000E+00  -7.8194357E-02   9.8341696E-02   0.0000000E+00  -6.8122208E-02   9.5450237E-02   0.0000000E+00  -5.7442930E-02   9.3042821E-02   0.0000000E+00  -4.6686616E-02   9.1127187E-02   0.0000000E+00  -3.5785921E-02   8.9722596E-02   0.0000000E+00  -2.4433365E-02   8.8859417E-02   0.0000000E+00  -1.2447035E-02   1.2248821E-01   0.0000000E+00  -8.6022884E-02   1.1703898E-01   0.0000000E+00  -8.0594853E-02   1.1219355E-01   0.0000000E+00  -7.2930403E-02   1.0799370E-01   0.0000000E+00  -6.3430287E-02   1.0439456E-01   0.0000000E+00  -5.3421527E-02   1.0138863E-01   0.0000000E+00  -4.3391280E-02   9.9003837E-02   0.0000000E+00  -3.3255327E-02   9.7266912E-02   0.0000000E+00  -2.2706250E-02   9.6214488E-02   0.0000000E+00  -1.1568150E-02   1.2519474E-01   0.0000000E+00  -7.9684243E-02   1.1925161E-01   0.0000000E+00  -7.4453719E-02   1.1407892E-01   0.0000000E+00  -6.7218326E-02   1.0963100E-01   0.0000000E+00  -5.8372390E-02   1.0583757E-01   0.0000000E+00  -4.9109247E-02   1.0268692E-01   0.0000000E+00  -3.9865579E-02   1.0019619E-01   0.0000000E+00  -3.0539379E-02   9.8398082E-02   0.0000000E+00  -2.0844849E-02   9.7312674E-02   0.0000000E+00  -1.0616039E-02   1.2493967E-01   0.0000000E+00  -7.3239252E-02   1.1885992E-01   0.0000000E+00  -6.8180509E-02   1.1358918E-01   0.0000000E+00  -6.1408531E-02   1.0906854E-01   0.0000000E+00  -5.3227536E-02   1.0522866E-01   0.0000000E+00  -4.4697903E-02   1.0204614E-01   0.0000000E+00  -3.6210805E-02   9.9538513E-02   0.0000000E+00  -2.7686127E-02   9.7732432E-02   0.0000000E+00  -1.8866125E-02   9.6647277E-02   0.0000000E+00  -9.5994473E-03   1.2356757E-01   0.0000000E+00  -6.7012206E-02   1.1735960E-01   0.0000000E+00  -6.2197294E-02   1.1199766E-01   0.0000000E+00  -5.5838998E-02   1.0742553E-01   0.0000000E+00  -4.8265185E-02   1.0356322E-01   0.0000000E+00  -4.0419560E-02   1.0038285E-01   0.0000000E+00  -3.2668591E-02   9.7885117E-02   0.0000000E+00  -2.4929449E-02   9.6081950E-02   0.0000000E+00  -1.6956085E-02   9.4989948E-02   0.0000000E+00  -8.6124800E-03   1.2173356E-01   0.0000000E+00  -6.1223231E-02   1.1535808E-01   0.0000000E+00  -5.6766108E-02   1.0979544E-01   0.0000000E+00  -5.0841041E-02   1.0514039E-01   0.0000000E+00  -4.3874491E-02   1.0127019E-01   0.0000000E+00  -3.6660269E-02   9.8111339E-02   0.0000000E+00  -2.9541729E-02   9.5620587E-02   0.0000000E+00  -2.2444228E-02   9.3809105E-02   0.0000000E+00  -1.5207862E-02   9.2707098E-02   0.0000000E+00  -7.7034892E-03   1.1955947E-01   0.0000000E+00  -5.5741630E-02   1.1297119E-01   0.0000000E+00  -5.1633280E-02   1.0721460E-01   0.0000000E+00  -4.6201441E-02   1.0245107E-01   0.0000000E+00  -3.9822340E-02   9.8549701E-02   0.0000000E+00  -3.3155240E-02   9.5396526E-02   0.0000000E+00  -2.6601413E-02   9.2926383E-02   0.0000000E+00  -2.0138444E-02   9.1129996E-02   0.0000000E+00  -1.3594072E-02   9.0029344E-02   0.0000000E+00  -6.8677338E-03   1.1711132E-01   0.0000000E+00  -5.0739184E-02   1.1018603E-01   0.0000000E+00  -4.6707992E-02   1.0425840E-01   0.0000000E+00  -4.1878879E-02   9.9331729E-02   0.0000000E+00  -3.6094531E-02   9.5378064E-02   0.0000000E+00  -3.0001355E-02   9.2228197E-02   0.0000000E+00  -2.3978190E-02   8.9782327E-02   0.0000000E+00  -1.8066222E-02   8.8004254E-02   0.0000000E+00  -1.2133389E-02   8.6915933E-02   0.0000000E+00  -6.1101918E-03   1.1448968E-01   0.0000000E+00  -4.5695253E-02   1.0715061E-01   0.0000000E+00  -4.2097501E-02   1.0095454E-01   0.0000000E+00  -3.7732340E-02   9.5910922E-02   0.0000000E+00  -3.2624569E-02   9.1868080E-02   0.0000000E+00  -2.7140154E-02   8.8707343E-02   0.0000000E+00  -2.1649275E-02   8.6275071E-02   0.0000000E+00  -1.6219012E-02   8.4522568E-02   0.0000000E+00  -1.0835714E-02   8.3451681E-02   0.0000000E+00  -5.4304660E-03   1.1187222E-01   0.0000000E+00  -4.0476412E-02   1.0414259E-01   0.0000000E+00  -3.7679262E-02   9.7585969E-02   0.0000000E+00  -3.3824503E-02   9.2344567E-02   0.0000000E+00  -2.9472420E-02   8.8213123E-02   0.0000000E+00  -2.4553675E-02   8.5011899E-02   0.0000000E+00  -1.9566666E-02   8.2588829E-02   0.0000000E+00  -1.4615338E-02   8.0860496E-02   0.0000000E+00  -9.7117601E-03   7.9817772E-02   0.0000000E+00  -4.8505254E-03   1.0959792E-01   0.0000000E+00  -3.5373680E-02   1.0120452E-01   0.0000000E+00  -3.2954779E-02   9.4417736E-02   0.0000000E+00  -3.0092398E-02   8.8872924E-02   0.0000000E+00  -2.6319990E-02   8.4607147E-02   0.0000000E+00  -2.2233063E-02   8.1320234E-02   0.0000000E+00  -1.7729109E-02   7.8891493E-02   0.0000000E+00  -1.3214617E-02   7.7180497E-02   0.0000000E+00  -8.7523079E-03   7.6157466E-02   0.0000000E+00  -4.3535372E-03   1.0787773E-01   0.0000000E+00  -3.0600142E-02   9.8755851E-02   0.0000000E+00  -2.8368840E-02   9.1433398E-02   0.0000000E+00  -2.6020274E-02   8.5710779E-02   0.0000000E+00  -2.3246728E-02   8.1219457E-02   0.0000000E+00  -1.9739490E-02   7.7860251E-02   0.0000000E+00  -1.5986813E-02   7.5361729E-02   0.0000000E+00  -1.1942634E-02   7.3644981E-02   0.0000000E+00  -7.9223653E-03   7.2636999E-02   0.0000000E+00  -3.9373664E-03   1.0682151E-01   0.0000000E+00  -2.6365571E-02   9.6971050E-02   0.0000000E+00  -2.4149461E-02   8.9061417E-02   0.0000000E+00  -2.2086607E-02   8.2893923E-02   0.0000000E+00  -1.9887984E-02   7.8237601E-02   0.0000000E+00  -1.7286619E-02   7.4699201E-02   0.0000000E+00  -1.4056453E-02   7.2168946E-02   0.0000000E+00  -1.0658905E-02   7.0429362E-02   0.0000000E+00  -7.1080662E-03   6.9417283E-02   0.0000000E+00  -3.5517297E-03   1.0694683E-01   0.0000000E+00  -2.3287904E-02   9.6031845E-02   0.0000000E+00  -2.0671127E-02   8.7383531E-02   0.0000000E+00  -1.8516632E-02   8.0726013E-02   0.0000000E+00  -1.6629620E-02   7.5662628E-02   0.0000000E+00  -1.4562756E-02   7.2003454E-02   0.0000000E+00  -1.2132033E-02   6.9342583E-02   0.0000000E+00  -9.2318347E-03   6.7579456E-02   0.0000000E+00  -6.2212883E-03   6.6571027E-02   0.0000000E+00  -3.1566718E-03   1.0914187E-01   0.0000000E+00  -2.2322774E-02   9.6647955E-02   0.0000000E+00  -1.8676335E-02   8.6709708E-02   0.0000000E+00  -1.5859211E-02   7.9316579E-02   0.0000000E+00  -1.3774474E-02   7.3807053E-02   0.0000000E+00  -1.2037049E-02   6.9738835E-02   0.0000000E+00  -1.0052905E-02   6.6947579E-02   0.0000000E+00  -7.7751460E-03   6.5133922E-02   0.0000000E+00  -5.3015146E-03   6.4092368E-02   0.0000000E+00  -2.6778653E-03   1.1220869E-01   0.0000000E+00  -2.2689657E-02   9.9906012E-02   0.0000000E+00  -1.9078877E-02   8.8178754E-02   0.0000000E+00  -1.5147094E-02   7.9111829E-02   0.0000000E+00  -1.2050896E-02   7.2738782E-02   0.0000000E+00  -9.9900207E-03   6.8241186E-02   0.0000000E+00  -8.3434517E-03   6.5123633E-02   0.0000000E+00  -6.4512831E-03   6.3136198E-02   0.0000000E+00  -4.3722992E-03   6.2034007E-02   0.0000000E+00  -2.2184926E-03   1.1417391E-01   0.0000000E+00  -2.3389764E-02   1.0360131E-01   0.0000000E+00  -2.0381080E-02   9.2362709E-02   0.0000000E+00  -1.6811153E-02   8.1890270E-02   0.0000000E+00  -1.2932858E-02   7.3505662E-02   0.0000000E+00  -9.6772639E-03   6.7801006E-02   0.0000000E+00  -7.4584987E-03   6.4100474E-02   0.0000000E+00  -5.6356038E-03   6.1834339E-02   0.0000000E+00  -3.8674199E-03   6.0586940E-02   0.0000000E+00  -1.9804982E-03   1.1245176E-01   0.0000000E+00  -2.2702415E-02   1.0464904E-01   0.0000000E+00  -2.0746954E-02   9.5898829E-02   0.0000000E+00  -1.8536633E-02   8.6964399E-02   0.0000000E+00  -1.5707325E-02   7.8263491E-02   0.0000000E+00  -1.2302238E-02   7.0489116E-02   0.0000000E+00  -9.1844723E-03   6.5076903E-02   0.0000000E+00  -6.4572152E-03   6.1861474E-02   0.0000000E+00  -4.2056195E-03   6.0206674E-02   0.0000000E+00  -2.0766754E-03   1.0162809E-01   0.0000000E+00  -1.9576292E-02   9.5548406E-02   0.0000000E+00  -1.8323513E-02   8.8947386E-02   0.0000000E+00  -1.6778026E-02   8.2525425E-02   0.0000000E+00  -1.4922138E-02   7.6718234E-02   0.0000000E+00  -1.2356259E-02   7.1484268E-02   0.0000000E+00  -9.3023153E-03   6.7808539E-02   0.0000000E+00  -5.9691668E-03   6.5817207E-02   0.0000000E+00  -2.8278094E-03   8.6603791E-02   0.0000000E+00  -1.5919635E-02   8.1859119E-02   0.0000000E+00  -1.4943244E-02   7.7173069E-02   0.0000000E+00  -1.3157474E-02   7.3992476E-02   0.0000000E+00  -1.0302711E-02   7.2429761E-02   0.0000000E+00  -6.4619565E-03   7.1633294E-02   0.0000000E+00  -3.0028166E-03   7.4491017E-02   0.0000000E+00  -1.2525003E-02   7.1303427E-02   0.0000000E+00  -1.0282004E-02   6.9422640E-02   0.0000000E+00  -6.8895561E-03   6.8859458E-02   0.0000000E+00  -3.1769511E-03  -5.7645125E-04   0.0000000E+00  -1.7402876E-11  -5.7672348E-04   0.0000000E+00   2.2659740E-06  -5.7746010E-04   0.0000000E+00   4.9236746E-06  -5.7843275E-04   0.0000000E+00   8.2947154E-06  -5.7920418E-04   0.0000000E+00   1.2826046E-05  -5.7917211E-04   0.0000000E+00   1.8696230E-05  -5.7740486E-04   0.0000000E+00   2.6360829E-05  -5.7275733E-04   0.0000000E+00   3.5958397E-05  -8.2102889E-04   0.0000000E+00   1.0305663E-11  -8.2153850E-04   0.0000000E+00   3.2577550E-06  -8.2295627E-04   0.0000000E+00   7.0207184E-06  -8.2495809E-04   0.0000000E+00   1.1741015E-05  -8.2695129E-04   0.0000000E+00   1.7946255E-05  -8.2806195E-04   0.0000000E+00   2.6031970E-05  -8.2701753E-04   0.0000000E+00   3.6378562E-05  -8.2206848E-04   0.0000000E+00   4.9552480E-05  -1.1360089E-03   0.0000000E+00   2.0565502E-11  -1.1368498E-03   0.0000000E+00   3.9887450E-06  -1.1392254E-03   0.0000000E+00   8.5460943E-06  -1.1426926E-03   0.0000000E+00   1.4285055E-05  -1.1464702E-03   0.0000000E+00   2.1722020E-05  -1.1493370E-03   0.0000000E+00   3.1507028E-05  -1.1496261E-03   0.0000000E+00   4.3825308E-05  -1.1449159E-03   0.0000000E+00   5.9412174E-05  -1.5040139E-03   0.0000000E+00  -3.2272279E-11  -1.5052885E-03   0.0000000E+00   4.3819773E-06  -1.5089237E-03   0.0000000E+00   9.3975996E-06  -1.5143519E-03   0.0000000E+00   1.5740015E-05  -1.5205794E-03   0.0000000E+00   2.3978931E-05  -1.5260448E-03   0.0000000E+00   3.4806737E-05  -1.5285588E-03   0.0000000E+00   4.8598104E-05  -1.5250394E-03   0.0000000E+00   6.5846245E-05  -1.9208330E-03   0.0000000E+00   1.6196243E-10  -1.9226593E-03   0.0000000E+00   4.4878025E-06  -1.9279106E-03   0.0000000E+00   9.6801505E-06  -1.9359019E-03   0.0000000E+00   1.6266047E-05  -1.9454050E-03   0.0000000E+00   2.4973884E-05  -1.9545348E-03   0.0000000E+00   3.6399098E-05  -1.9605330E-03   0.0000000E+00   5.1220268E-05  -1.9596287E-03   0.0000000E+00   6.9608788E-05  -2.3925414E-03   0.0000000E+00  -1.7738047E-10  -2.3950632E-03   0.0000000E+00   4.4638873E-06  -2.4023659E-03   0.0000000E+00   9.6793892E-06  -2.4136428E-03   0.0000000E+00   1.6376387E-05  -2.4274483E-03   0.0000000E+00   2.5351605E-05  -2.4415606E-03   0.0000000E+00   3.7218921E-05  -2.4526785E-03   0.0000000E+00   5.2792140E-05  -2.4562557E-03   0.0000000E+00   7.2152201E-05  -2.9329222E-03   0.0000000E+00  -1.7289678E-10  -2.9363143E-03   0.0000000E+00   4.5471484E-06  -2.9461945E-03   0.0000000E+00   9.8999144E-06  -2.9616347E-03   0.0000000E+00   1.6840286E-05  -2.9809913E-03   0.0000000E+00   2.6178825E-05  -3.0016901E-03   0.0000000E+00   3.8696577E-05  -3.0199320E-03   0.0000000E+00   5.5066441E-05  -3.0302983E-03   0.0000000E+00   7.5605749E-05  -3.5595966E-03   0.0000000E+00   2.0916938E-10  -3.5640718E-03   0.0000000E+00   5.0376048E-06  -3.5771669E-03   0.0000000E+00   1.0959105E-05  -3.5978416E-03   0.0000000E+00   1.8630806E-05  -3.6242479E-03   0.0000000E+00   2.8902950E-05  -3.6534728E-03   0.0000000E+00   4.2690041E-05  -3.6812052E-03   0.0000000E+00   6.0475108E-05  -3.7011465E-03   0.0000000E+00   8.2793675E-05  -4.2904974E-03   0.0000000E+00   2.0773575E-10  -4.2963163E-03   0.0000000E+00   6.2764825E-06  -4.3134033E-03   0.0000000E+00   1.3566298E-05  -4.3406030E-03   0.0000000E+00   2.2877934E-05  -4.3758624E-03   0.0000000E+00   3.5159304E-05  -4.4159186E-03   0.0000000E+00   5.1419291E-05  -4.4559222E-03   0.0000000E+00   7.1992603E-05  -4.4886717E-03   0.0000000E+00   9.7421740E-05  -5.1429477E-03   0.0000000E+00  -1.9164913E-10  -5.1504215E-03   0.0000000E+00   8.5975234E-06  -5.1724291E-03   0.0000000E+00   1.8441184E-05  -5.2076993E-03   0.0000000E+00   3.0728050E-05  -5.2539487E-03   0.0000000E+00   4.6653917E-05  -5.3075529E-03   0.0000000E+00   6.7269204E-05  -5.3630471E-03   0.0000000E+00   9.2941635E-05  -5.4122722E-03   0.0000000E+00   1.2400723E-04  -6.1359606E-03   0.0000000E+00   2.6007022E-10  -6.1454587E-03   0.0000000E+00   1.2288805E-05  -6.1734910E-03   0.0000000E+00   2.6184081E-05  -6.2186620E-03   0.0000000E+00   4.3204287E-05  -6.2784166E-03   0.0000000E+00   6.4998821E-05  -6.3487240E-03   0.0000000E+00   9.2617018E-05  -6.4233956E-03   0.0000000E+00   1.2678702E-04  -6.4932811E-03   0.0000000E+00   1.6726463E-04  -7.2914427E-03   0.0000000E+00  -3.8831272E-10  -7.3033967E-03   0.0000000E+00   1.7530345E-05  -7.3387665E-03   0.0000000E+00   3.7162430E-05  -7.3959846E-03   0.0000000E+00   6.1099367E-05  -7.4721999E-03   0.0000000E+00   9.1355214E-05  -7.5628669E-03   0.0000000E+00   1.2936699E-04  -7.6609491E-03   0.0000000E+00   1.7645113E-04  -7.7563138E-03   0.0000000E+00   2.3096791E-04  -8.6340476E-03   0.0000000E+00   4.4349989E-11  -8.6489702E-03   0.0000000E+00   2.4346236E-05  -8.6932071E-03   0.0000000E+00   5.1584208E-05  -8.7649552E-03   0.0000000E+00   8.4652056E-05  -8.8610742E-03   0.0000000E+00   1.2597848E-04  -8.9763710E-03   0.0000000E+00   1.7838848E-04  -9.1029489E-03   0.0000000E+00   2.4277200E-04  -9.2293378E-03   0.0000000E+00   3.1771715E-04  -1.0190827E-02   0.0000000E+00  -2.6586303E-10  -1.0209337E-02   0.0000000E+00   3.2566444E-05  -1.0264161E-02   0.0000000E+00   6.9033180E-05  -1.0353385E-02   0.0000000E+00   1.1325505E-04  -1.0473420E-02   0.0000000E+00   1.6890687E-04  -1.0618318E-02   0.0000000E+00   2.3973057E-04  -1.0779485E-02   0.0000000E+00   3.2570792E-04  -1.0943605E-02   0.0000000E+00   4.2881494E-04  -1.1991183E-02   0.0000000E+00   4.6444648E-10  -1.2013924E-02   0.0000000E+00   4.1858963E-05  -1.2081407E-02   0.0000000E+00   8.8920824E-05  -1.2191562E-02   0.0000000E+00   1.4633218E-04  -1.2340178E-02   0.0000000E+00   2.1916124E-04  -1.2520698E-02   0.0000000E+00   3.1136398E-04  -1.2723533E-02   0.0000000E+00   4.2520979E-04  -1.2933804E-02   0.0000000E+00   5.6417170E-04  -1.4067204E-02   0.0000000E+00  -7.0815742E-10  -1.4094954E-02   0.0000000E+00   5.1642710E-05  -1.4177587E-02   0.0000000E+00   1.1032906E-04  -1.4312607E-02   0.0000000E+00   1.8234224E-04  -1.4495280E-02   0.0000000E+00   2.7429295E-04  -1.4718646E-02   0.0000000E+00   3.9170892E-04  -1.4971684E-02   0.0000000E+00   5.3894339E-04  -1.5238187E-02   0.0000000E+00   7.2173733E-04  -1.6454464E-02   0.0000000E+00   5.1805182E-10  -1.6488250E-02   0.0000000E+00   6.1484214E-05  -1.6588967E-02   0.0000000E+00   1.3216391E-04  -1.6753539E-02   0.0000000E+00   2.1925713E-04  -1.6977048E-02   0.0000000E+00   3.3302797E-04  -1.7251842E-02   0.0000000E+00   4.7946794E-04  -1.7565411E-02   0.0000000E+00   6.6610187E-04  -1.7899817E-02   0.0000000E+00   8.9955784E-04  -1.9192584E-02   0.0000000E+00   1.6659760E-09  -1.9233622E-02   0.0000000E+00   7.0997929E-05  -1.9355800E-02   0.0000000E+00   1.5331464E-04  -1.9555813E-02   0.0000000E+00   2.5639523E-04  -1.9828212E-02   0.0000000E+00   3.9372718E-04  -2.0164497E-02   0.0000000E+00   5.7251379E-04  -2.0550434E-02   0.0000000E+00   8.0346811E-04  -2.0965802E-02   0.0000000E+00   1.0928076E-03  -2.2324376E-02   0.0000000E+00  -1.6268721E-09  -2.2374045E-02   0.0000000E+00   8.0465135E-05  -2.2521826E-02   0.0000000E+00   1.7427627E-04  -2.2764232E-02   0.0000000E+00   2.9427031E-04  -2.3095014E-02   0.0000000E+00   4.5673162E-04  -2.3504132E-02   0.0000000E+00   6.6932017E-04  -2.3975611E-02   0.0000000E+00   9.4630424E-04  -2.4487127E-02   0.0000000E+00   1.2974900E-03  -2.5893182E-02   0.0000000E+00   4.1476367E-11  -2.5953170E-02   0.0000000E+00   9.1280366E-05  -2.6131524E-02   0.0000000E+00   1.9793477E-04  -2.6424410E-02   0.0000000E+00   3.3627913E-04  -2.6824499E-02   0.0000000E+00   5.2520703E-04  -2.7319768E-02   0.0000000E+00   7.7262969E-04  -2.7893066E-02   0.0000000E+00   1.1006292E-03  -2.8518436E-02   0.0000000E+00   1.5199292E-03  -2.9940579E-02   0.0000000E+00  -1.5621335E-09  -3.0012839E-02   0.0000000E+00   1.0662652E-04  -3.0227507E-02   0.0000000E+00   2.3044065E-04  -3.0580183E-02   0.0000000E+00   3.9080225E-04  -3.1061983E-02   0.0000000E+00   6.0863898E-04  -3.1659603E-02   0.0000000E+00   8.9506508E-04  -3.2353349E-02   0.0000000E+00   1.2772704E-03  -3.3112779E-02   0.0000000E+00   1.7681693E-03  -3.4506865E-02   0.0000000E+00  -3.0335880E-09  -3.4593605E-02   0.0000000E+00   1.3280640E-04  -3.4851048E-02   0.0000000E+00   2.8360312E-04  -3.5274118E-02   0.0000000E+00   4.7480114E-04  -3.5852261E-02   0.0000000E+00   7.2893058E-04  -3.6570366E-02   0.0000000E+00   1.0599878E-03  -3.7405852E-02   0.0000000E+00   1.4996834E-03  -3.8322911E-02   0.0000000E+00   2.0638625E-03  -3.9636292E-02   0.0000000E+00   2.9069525E-09  -3.9739843E-02   0.0000000E+00   1.7966673E-04  -4.0047299E-02   0.0000000E+00   3.7647571E-04  -4.0552340E-02   0.0000000E+00   6.1590312E-04  -4.1243136E-02   0.0000000E+00   9.2054415E-04  -4.2101867E-02   0.0000000E+00   1.3080139E-03  -4.3102778E-02   0.0000000E+00   1.8096424E-03  -4.4204298E-02   0.0000000E+00   2.4481015E-03  -4.5385513E-02   0.0000000E+00   4.3338209E-09  -4.5508120E-02   0.0000000E+00   2.6037436E-04  -4.5873187E-02   0.0000000E+00   5.3784752E-04  -4.6472497E-02   0.0000000E+00   8.5658778E-04  -4.7292732E-02   0.0000000E+00   1.2354570E-03  -4.8313301E-02   0.0000000E+00   1.6988789E-03  -4.9505211E-02   0.0000000E+00   2.2744893E-03  -5.0821871E-02   0.0000000E+00   2.9890917E-03  -5.1827420E-02   0.0000000E+00  -1.0081781E-09  -5.1971734E-02   0.0000000E+00   3.9627976E-04  -5.2401800E-02   0.0000000E+00   8.0762926E-04  -5.3107873E-02   0.0000000E+00   1.2510134E-03  -5.4073811E-02   0.0000000E+00   1.7472681E-03  -5.5276908E-02   0.0000000E+00   2.3181557E-03  -5.6685615E-02   0.0000000E+00   2.9922808E-03  -5.8248136E-02   0.0000000E+00   3.7921413E-03  -5.9048682E-02   0.0000000E+00   1.6828613E-09  -5.9217162E-02   0.0000000E+00   6.0937490E-04  -5.9718553E-02   0.0000000E+00   1.2274315E-03  -6.0541093E-02   0.0000000E+00   1.8651236E-03  -6.1667327E-02   0.0000000E+00   2.5404289E-03  -6.3071601E-02   0.0000000E+00   3.2719737E-03  -6.4720817E-02   0.0000000E+00   4.0863557E-03  -6.6557646E-02   0.0000000E+00   5.0008688E-03  -6.7130223E-02   0.0000000E+00   7.6757900E-10  -6.7324080E-02   0.0000000E+00   9.2683540E-04  -6.7900866E-02   0.0000000E+00   1.8515411E-03  -6.8847418E-02   0.0000000E+00   2.7773448E-03  -7.0144527E-02   0.0000000E+00   3.7171396E-03  -7.1765527E-02   0.0000000E+00   4.6856534E-03  -7.3674157E-02   0.0000000E+00   5.7046679E-03  -7.5807147E-02   0.0000000E+00   6.7770057E-03  -7.6094002E-02   0.0000000E+00   1.5369211E-09  -7.6314718E-02   0.0000000E+00   1.3644490E-03  -7.6970719E-02   0.0000000E+00   2.7144833E-03  -7.8046858E-02   0.0000000E+00   4.0429737E-03  -7.9521827E-02   0.0000000E+00   5.3545474E-03  -8.1368126E-02   0.0000000E+00   6.6655274E-03  -8.3543010E-02   0.0000000E+00   7.9789469E-03  -8.5977711E-02   0.0000000E+00   9.2823757E-03  -8.5815310E-02   0.0000000E+00  -1.2584459E-09  -8.6063728E-02   0.0000000E+00   1.9334146E-03  -8.6801276E-02   0.0000000E+00   3.8449219E-03  -8.8009059E-02   0.0000000E+00   5.7171881E-03  -8.9664094E-02   0.0000000E+00   7.5471508E-03  -9.1733672E-02   0.0000000E+00   9.3273539E-03  -9.4172709E-02   0.0000000E+00   1.1043165E-02  -9.6898489E-02   0.0000000E+00   1.2685507E-02  -9.5957339E-02   0.0000000E+00  -1.1448509E-09  -9.6233450E-02   0.0000000E+00   2.6416283E-03  -9.7051069E-02   0.0000000E+00   5.2449894E-03  -9.8383754E-02   0.0000000E+00   7.7883871E-03  -1.0020504E-01   0.0000000E+00   1.0264368E-02  -1.0247847E-01   0.0000000E+00   1.2654536E-02  -1.0515138E-01   0.0000000E+00   1.4920685E-02  -1.0814150E-01   0.0000000E+00   1.7026667E-02  -1.0587695E-01   0.0000000E+00   3.4745824E-09  -1.0618059E-01   0.0000000E+00   3.5072099E-03  -1.0707328E-01   0.0000000E+00   6.9610137E-03  -1.0851820E-01   0.0000000E+00   1.0314042E-02  -1.1047625E-01   0.0000000E+00   1.3568372E-02  -1.1291645E-01   0.0000000E+00   1.6709674E-02  -1.1577997E-01   0.0000000E+00   1.9652905E-02  -1.1899991E-01   0.0000000E+00   2.2313833E-02  -1.1495562E-01   0.0000000E+00  -1.6142687E-09  -1.1528250E-01   0.0000000E+00   4.5357770E-03  -1.1624388E-01   0.0000000E+00   8.9834891E-03  -1.1779758E-01   0.0000000E+00   1.3298062E-02  -1.1991356E-01   0.0000000E+00   1.7467724E-02  -1.2248933E-01   0.0000000E+00   2.1424955E-02  -1.2546811E-01   0.0000000E+00   2.5108239E-02  -1.2882109E-01   0.0000000E+00   2.8413167E-02  -1.2279503E-01   0.0000000E+00   6.6518067E-09  -1.2312532E-01   0.0000000E+00   5.6186537E-03  -1.2413152E-01   0.0000000E+00   1.1105545E-02  -1.2575701E-01   0.0000000E+00   1.6378554E-02  -1.2796269E-01   0.0000000E+00   2.1483025E-02  -1.3069566E-01   0.0000000E+00   2.6390152E-02  -1.3380222E-01   0.0000000E+00   3.1003470E-02  -1.3723846E-01   0.0000000E+00   3.5065532E-02  -1.2889679E-01   0.0000000E+00   6.8430395E-09  -1.2921651E-01   0.0000000E+00   6.9266157E-03  -1.3021973E-01   0.0000000E+00   1.3675772E-02  -1.3187352E-01   0.0000000E+00   2.0134479E-02  -1.3412033E-01   0.0000000E+00   2.6300354E-02  -1.3687356E-01   0.0000000E+00   3.2216832E-02  -1.3996910E-01   0.0000000E+00   3.7857570E-02  -1.4337553E-01   0.0000000E+00   4.2910032E-02  -1.3189535E-01   0.0000000E+00  -7.5217166E-09  -1.3224158E-01   0.0000000E+00   8.8012740E-03  -1.3329065E-01   0.0000000E+00   1.7357206E-02  -1.3497820E-01   0.0000000E+00   2.5489153E-02  -1.3720825E-01   0.0000000E+00   3.3242978E-02  -1.3986607E-01   0.0000000E+00   4.0667713E-02  -1.4280996E-01   0.0000000E+00   4.7613818E-02  -1.4599596E-01   0.0000000E+00   5.3779081E-02  -1.2997152E-01   0.0000000E+00  -2.5528875E-09  -1.3034527E-01   0.0000000E+00   1.0711433E-02  -1.3140495E-01   0.0000000E+00   2.1120783E-02  -1.3310814E-01   0.0000000E+00   3.1135380E-02  -1.3532920E-01   0.0000000E+00   4.0878460E-02  -1.3790686E-01   0.0000000E+00   5.0464772E-02  -1.4050800E-01   0.0000000E+00   5.9773628E-02  -1.4303422E-01   0.0000000E+00   6.8285577E-02  -1.0556853E-01   0.0000000E+00  -6.9913355E-09  -1.0595910E-01   0.0000000E+00   1.2439161E-02  -1.0710511E-01   0.0000000E+00   2.4566207E-02  -1.0893527E-01   0.0000000E+00   3.6320191E-02  -1.1136007E-01   0.0000000E+00   4.7927897E-02  -1.1429325E-01   0.0000000E+00   5.9675213E-02  -1.1762966E-01   0.0000000E+00   7.1581349E-02  -1.2120157E-01   0.0000000E+00   8.3077252E-02  -6.7005910E-02   0.0000000E+00   1.9148063E-08  -6.7299083E-02   0.0000000E+00   1.3523987E-02  -6.8154797E-02   0.0000000E+00   2.6671454E-02  -6.9510669E-02   0.0000000E+00   3.9340489E-02  -7.1285926E-02   0.0000000E+00   5.1745068E-02  -7.3399246E-02   0.0000000E+00   6.4168192E-02  -7.5771168E-02   0.0000000E+00   7.6625198E-02  -7.8305788E-02   0.0000000E+00   8.8545270E-02  -3.7598148E-02   0.0000000E+00   3.4595978E-08  -3.7788726E-02   0.0000000E+00   1.4281949E-02  -3.8339972E-02   0.0000000E+00   2.8127698E-02  -3.9197665E-02   0.0000000E+00   4.1393511E-02  -4.0291477E-02   0.0000000E+00   5.4275718E-02  -4.1551426E-02   0.0000000E+00   6.7050941E-02  -4.2910893E-02   0.0000000E+00   7.9713292E-02  -4.4290621E-02   0.0000000E+00   9.1639027E-02  -1.5954163E-02   0.0000000E+00  -3.7319384E-12  -1.6047264E-02   0.0000000E+00   1.4716908E-02  -1.6311329E-02   0.0000000E+00   2.8949343E-02  -1.6706012E-02   0.0000000E+00   4.2519521E-02  -1.7179152E-02   0.0000000E+00   5.5610038E-02  -1.7680746E-02   0.0000000E+00   6.8495937E-02  -1.8168399E-02   0.0000000E+00   8.1161164E-02  -1.8597126E-02   0.0000000E+00   9.2946395E-02   1.7318933E-03   0.0000000E+00  -3.4837122E-08   1.7264599E-03   0.0000000E+00   1.4857191E-02   1.7189962E-03   0.0000000E+00   2.9197389E-02   1.7334250E-03   0.0000000E+00   4.2819899E-02   1.8007051E-03   0.0000000E+00   5.5899516E-02   1.9483505E-03   0.0000000E+00   6.8716250E-02   2.1932325E-03   0.0000000E+00   8.1258439E-02   2.5438545E-03   0.0000000E+00   9.2856683E-02   1.8897258E-02   0.0000000E+00   4.7923034E-09   1.8968295E-02   0.0000000E+00   1.4743157E-02   1.9184163E-02   0.0000000E+00   2.8953929E-02   1.9552739E-02   0.0000000E+00   4.2420540E-02   2.0085068E-02   0.0000000E+00   5.5315562E-02   2.0789385E-02   0.0000000E+00   6.7928538E-02   2.1663262E-02   0.0000000E+00   8.0264054E-02   2.2689633E-02   0.0000000E+00   9.1665536E-02   3.7006516E-02   0.0000000E+00   4.4196092E-08   3.7143845E-02   0.0000000E+00   1.4416425E-02   3.7553377E-02   0.0000000E+00   2.8301017E-02   3.8229451E-02   0.0000000E+00   4.1441362E-02   3.9166957E-02   0.0000000E+00   5.4011609E-02   4.0361110E-02   0.0000000E+00   6.6311561E-02   4.1800372E-02   0.0000000E+00   7.8367256E-02   4.3457218E-02   0.0000000E+00   8.9549839E-02   5.5588979E-02   0.0000000E+00   1.9014108E-08   5.5784069E-02   0.0000000E+00   1.3908966E-02   5.6362610E-02   0.0000000E+00   2.7300186E-02   5.7308506E-02   0.0000000E+00   3.9968830E-02   5.8605403E-02   0.0000000E+00   5.2092031E-02   6.0241438E-02   0.0000000E+00   6.3977137E-02   6.2204447E-02   0.0000000E+00   7.5669937E-02   6.4470269E-02   0.0000000E+00   8.6575642E-02   7.3279321E-02   0.0000000E+00  -3.6872265E-08   7.3524743E-02   0.0000000E+00   1.3245231E-02   7.4250802E-02   0.0000000E+00   2.5997208E-02   7.5433940E-02   0.0000000E+00   3.8065139E-02   7.7050172E-02   0.0000000E+00   4.9628768E-02   7.9084724E-02   0.0000000E+00   6.0998037E-02   8.1529595E-02   0.0000000E+00   7.2232924E-02   8.4371150E-02   0.0000000E+00   8.2772627E-02   8.8567577E-02   0.0000000E+00  -2.6435089E-08   8.8859424E-02   0.0000000E+00   1.2447054E-02   8.9722589E-02   0.0000000E+00   2.4433393E-02   9.1127194E-02   0.0000000E+00   3.5785925E-02   9.3042843E-02   0.0000000E+00   4.6686605E-02   9.5450193E-02   0.0000000E+00   5.7442937E-02   9.8341726E-02   0.0000000E+00   6.8122201E-02   1.0171270E-01   0.0000000E+00   7.8194357E-02   9.5861167E-02   0.0000000E+00  -1.2920682E-08   9.6214496E-02   0.0000000E+00   1.1568154E-02   9.7266905E-02   0.0000000E+00   2.2706220E-02   9.9003814E-02   0.0000000E+00   3.3255339E-02   1.0138863E-01   0.0000000E+00   4.3391261E-02   1.0439456E-01   0.0000000E+00   5.3421520E-02   1.0799372E-01   0.0000000E+00   6.3430324E-02   1.1219355E-01   0.0000000E+00   7.2930440E-02   9.6948072E-02   0.0000000E+00   1.6203744E-08   9.7312704E-02   0.0000000E+00   1.0616056E-02   9.8398097E-02   0.0000000E+00   2.0844853E-02   1.0019619E-01   0.0000000E+00   3.0539382E-02   1.0268691E-01   0.0000000E+00   3.9865598E-02   1.0583759E-01   0.0000000E+00   4.9109239E-02   1.0963101E-01   0.0000000E+00   5.8372360E-02   1.1407894E-01   0.0000000E+00   6.7218333E-02   9.6285611E-02   0.0000000E+00   4.0682306E-09   9.6647292E-02   0.0000000E+00   9.5994705E-03   9.7732447E-02   0.0000000E+00   1.8866142E-02   9.9538498E-02   0.0000000E+00   2.7686110E-02   1.0204615E-01   0.0000000E+00   3.6210809E-02   1.0522864E-01   0.0000000E+00   4.4697922E-02   1.0906854E-01   0.0000000E+00   5.3227540E-02   1.1358918E-01   0.0000000E+00   6.1408550E-02   9.4624154E-02   0.0000000E+00  -1.5663172E-08   9.4989933E-02   0.0000000E+00   8.6124493E-03   9.6081957E-02   0.0000000E+00   1.6956093E-02   9.7885124E-02   0.0000000E+00   2.4929443E-02   1.0038283E-01   0.0000000E+00   3.2668609E-02   1.0356322E-01   0.0000000E+00   4.0419567E-02   1.0742555E-01   0.0000000E+00   4.8265204E-02   1.1199769E-01   0.0000000E+00   5.5838998E-02   9.2337891E-02   0.0000000E+00  -9.5154815E-11   9.2707112E-02   0.0000000E+00   7.7034854E-03   9.3809128E-02   0.0000000E+00   1.5207862E-02   9.5620587E-02   0.0000000E+00   2.2444235E-02   9.8111324E-02   0.0000000E+00   2.9541742E-02   1.0127020E-01   0.0000000E+00   3.6660280E-02   1.0514037E-01   0.0000000E+00   4.3874487E-02   1.0979546E-01   0.0000000E+00   5.0841056E-02   8.9658193E-02   0.0000000E+00   1.2169759E-08   9.0029344E-02   0.0000000E+00   6.8677338E-03   9.1129988E-02   0.0000000E+00   1.3594065E-02   9.2926383E-02   0.0000000E+00   2.0138446E-02   9.5396526E-02   0.0000000E+00   2.6601434E-02   9.8549716E-02   0.0000000E+00   3.3155248E-02   1.0245107E-01   0.0000000E+00   3.9822351E-02   1.0721458E-01   0.0000000E+00   4.6201445E-02   8.6547881E-02   0.0000000E+00   2.9368941E-10   8.6915910E-02   0.0000000E+00   6.1102016E-03   8.8004254E-02   0.0000000E+00   1.2133373E-02   8.9782327E-02   0.0000000E+00   1.8066226E-02   9.2228197E-02   0.0000000E+00   2.3978189E-02   9.5378049E-02   0.0000000E+00   3.0001367E-02   9.9331737E-02   0.0000000E+00   3.6094539E-02   1.0425840E-01   0.0000000E+00   4.1878879E-02   8.3090901E-02   0.0000000E+00   5.2060436E-09   8.3451673E-02   0.0000000E+00   5.4304530E-03   8.4522568E-02   0.0000000E+00   1.0835717E-02   8.6275071E-02   0.0000000E+00   1.6219022E-02   8.8707358E-02   0.0000000E+00   2.1649281E-02   9.1868103E-02   0.0000000E+00   2.7140168E-02   9.5910937E-02   0.0000000E+00   3.2624580E-02   1.0095454E-01   0.0000000E+00   3.7732344E-02   7.9466149E-02   0.0000000E+00   3.0746086E-10   7.9817779E-02   0.0000000E+00   4.8505212E-03   8.0860496E-02   0.0000000E+00   9.7117694E-03   8.2588814E-02   0.0000000E+00   1.4615339E-02   8.5011892E-02   0.0000000E+00   1.9566672E-02   8.8213138E-02   0.0000000E+00   2.4553685E-02   9.2344575E-02   0.0000000E+00   2.9472426E-02   9.7585984E-02   0.0000000E+00   3.3824503E-02   7.5817555E-02   0.0000000E+00  -6.0401222E-09   7.6157451E-02   0.0000000E+00   4.3535386E-03   7.7180512E-02   0.0000000E+00   8.7523097E-03   7.8891508E-02   0.0000000E+00   1.3214621E-02   8.1320234E-02   0.0000000E+00   1.7729111E-02   8.4607132E-02   0.0000000E+00   2.2233069E-02   8.8872954E-02   0.0000000E+00   2.6319999E-02   9.4417758E-02   0.0000000E+00   3.0092398E-02   7.2302252E-02   0.0000000E+00  -4.4858437E-09   7.2637022E-02   0.0000000E+00   3.9373678E-03   7.3644981E-02   0.0000000E+00   7.9223718E-03   7.5361729E-02   0.0000000E+00   1.1942637E-02   7.7860244E-02   0.0000000E+00   1.5986815E-02   8.1219465E-02   0.0000000E+00   1.9739492E-02   8.5710771E-02   0.0000000E+00   2.3246728E-02   9.1433406E-02   0.0000000E+00   2.6020274E-02   6.9092959E-02   0.0000000E+00   3.2004484E-09   6.9417283E-02   0.0000000E+00   3.5517276E-03   7.0429370E-02   0.0000000E+00   7.1080741E-03   7.2168946E-02   0.0000000E+00   1.0658906E-02   7.4699193E-02   0.0000000E+00   1.4056453E-02   7.8237616E-02   0.0000000E+00   1.7286617E-02   8.2893915E-02   0.0000000E+00   1.9887988E-02   8.9061424E-02   0.0000000E+00   2.2086613E-02   6.6243351E-02   0.0000000E+00   2.7575457E-09   6.6571020E-02   0.0000000E+00   3.1566746E-03   6.7579441E-02   0.0000000E+00   6.2212870E-03   6.9342606E-02   0.0000000E+00   9.2318347E-03   7.2003469E-02   0.0000000E+00   1.2132030E-02   7.5662650E-02   0.0000000E+00   1.4562755E-02   8.0726013E-02   0.0000000E+00   1.6629623E-02   8.7383538E-02   0.0000000E+00   1.8516636E-02   6.3746467E-02   0.0000000E+00   1.7768826E-09   6.4092375E-02   0.0000000E+00   2.6778725E-03   6.5133922E-02   0.0000000E+00   5.3015114E-03   6.6947579E-02   0.0000000E+00   7.7751460E-03   6.9738843E-02   0.0000000E+00   1.0052905E-02   7.3807061E-02   0.0000000E+00   1.2037049E-02   7.9316586E-02   0.0000000E+00   1.3774478E-02   8.6709723E-02   0.0000000E+00   1.5859211E-02   6.1711926E-02   0.0000000E+00   1.7637412E-09   6.2034003E-02   0.0000000E+00   2.2184900E-03   6.3136190E-02   0.0000000E+00   4.3722950E-03   6.5123640E-02   0.0000000E+00   6.4512817E-03   6.8241194E-02   0.0000000E+00   8.3434507E-03   7.2738796E-02   0.0000000E+00   9.9900197E-03   7.9111837E-02   0.0000000E+00   1.2050896E-02   8.8178769E-02   0.0000000E+00   1.5147098E-02   6.0199317E-02   0.0000000E+00  -1.7156072E-10   6.0586940E-02   0.0000000E+00   1.9804989E-03   6.1834343E-02   0.0000000E+00   3.8674236E-03   6.4100467E-02   0.0000000E+00   5.6356038E-03   6.7801021E-02   0.0000000E+00   7.4585020E-03   7.3505677E-02   0.0000000E+00   9.6772695E-03   8.1890285E-02   0.0000000E+00   1.2932857E-02   9.2362709E-02   0.0000000E+00   1.6811153E-02   5.9752468E-02   0.0000000E+00   5.2300642E-10   6.0206674E-02   0.0000000E+00   2.0766777E-03   6.1861478E-02   0.0000000E+00   4.2056176E-03   6.5076910E-02   0.0000000E+00   6.4572128E-03   7.0489123E-02   0.0000000E+00   9.1844685E-03   7.8263491E-02   0.0000000E+00   1.2302235E-02   8.6964421E-02   0.0000000E+00   1.5707327E-02   9.5898859E-02   0.0000000E+00   1.8536631E-02   6.5190770E-02   0.0000000E+00   1.4675461E-10   6.5817207E-02   0.0000000E+00   2.8278099E-03   6.7808531E-02   0.0000000E+00   5.9691663E-03   7.1484290E-02   0.0000000E+00   9.3023162E-03   7.6718241E-02   0.0000000E+00   1.2356255E-02   8.2525425E-02   0.0000000E+00   1.4922138E-02   8.8947400E-02   0.0000000E+00   1.6778033E-02   9.5548414E-02   0.0000000E+00   1.8323516E-02   7.1357183E-02   0.0000000E+00   7.9365570E-10   7.1633294E-02   0.0000000E+00   3.0028208E-03   7.2429769E-02   0.0000000E+00   6.4619579E-03   7.3992468E-02   0.0000000E+00   1.0302711E-02   7.7173062E-02   0.0000000E+00   1.3157474E-02   8.1859134E-02   0.0000000E+00   1.4943242E-02   8.6603798E-02   0.0000000E+00   1.5919628E-02   6.8679683E-02   0.0000000E+00   2.0324697E-10   6.8859443E-02   0.0000000E+00   3.1769481E-03   6.9422655E-02   0.0000000E+00   6.8895570E-03   7.1303435E-02   0.0000000E+00   1.0282002E-02   7.4491024E-02   0.0000000E+00   1.2525002E-02  -5.6377624E-04   0.0000000E+00   4.7490783E-05  -5.4858346E-04   0.0000000E+00   6.1404746E-05  -5.2552705E-04   0.0000000E+00   7.6513330E-05  -4.9232016E-04   0.0000000E+00   9.2398266E-05  -4.4760635E-04   0.0000000E+00   1.0677432E-04  -3.8994019E-04   0.0000000E+00   1.1822875E-04  -3.2152736E-04   0.0000000E+00   1.2283045E-04  -8.1124692E-04   0.0000000E+00   6.5033571E-05  -7.9157244E-04   0.0000000E+00   8.3520579E-05  -7.6001324E-04   0.0000000E+00   1.0386550E-04  -7.1313285E-04   0.0000000E+00   1.2429642E-04  -6.4781064E-04   0.0000000E+00   1.4142781E-04  -5.6094048E-04   0.0000000E+00   1.5295978E-04  -4.5286008E-04   0.0000000E+00   1.5516355E-04  -3.2582704E-04   0.0000000E+00   1.6473720E-04  -1.1322956E-03   0.0000000E+00   7.7966528E-05  -1.1077698E-03   0.0000000E+00   9.9553501E-05  -1.0665926E-03   0.0000000E+00   1.2301530E-04  -1.0031268E-03   0.0000000E+00   1.4658448E-04  -9.1273990E-04   0.0000000E+00   1.6547543E-04  -7.9043402E-04   0.0000000E+00   1.7922063E-04  -6.3885085E-04   0.0000000E+00   1.8380022E-04  -4.6097414E-04   0.0000000E+00   1.8924690E-04  -1.5114613E-03   0.0000000E+00   8.6732805E-05  -1.4827407E-03   0.0000000E+00   1.1065069E-04  -1.4320182E-03   0.0000000E+00   1.3704096E-04  -1.3513722E-03   0.0000000E+00   1.6348029E-04  -1.2339163E-03   0.0000000E+00   1.8488918E-04  -1.0731790E-03   0.0000000E+00   2.0066470E-04  -8.7191985E-04   0.0000000E+00   2.0608334E-04  -6.3165562E-04   0.0000000E+00   2.1331906E-04  -1.9465970E-03   0.0000000E+00   9.2360504E-05  -1.9151742E-03   0.0000000E+00   1.1817087E-04  -1.8562707E-03   0.0000000E+00   1.4696222E-04  -1.7591821E-03   0.0000000E+00   1.7620396E-04  -1.6141948E-03   0.0000000E+00   2.0021498E-04  -1.4121545E-03   0.0000000E+00   2.1859026E-04  -1.1546606E-03   0.0000000E+00   2.2646305E-04  -8.4100652E-04   0.0000000E+00   2.4083533E-04  -2.4459446E-03   0.0000000E+00   9.6146185E-05  -2.4138812E-03   0.0000000E+00   1.2372575E-04  -2.3488468E-03   0.0000000E+00   1.5428070E-04  -2.2367369E-03   0.0000000E+00   1.8588363E-04  -2.0644180E-03   0.0000000E+00   2.1221032E-04  -1.8185655E-03   0.0000000E+00   2.3415631E-04  -1.4984782E-03   0.0000000E+00   2.4727485E-04  -1.0990166E-03   0.0000000E+00   2.7494074E-04  -3.0253483E-03   0.0000000E+00   1.0070732E-04  -2.9953229E-03   0.0000000E+00   1.2981906E-04  -2.9266381E-03   0.0000000E+00   1.6153963E-04  -2.8011515E-03   0.0000000E+00   1.9531733E-04  -2.6021479E-03   0.0000000E+00   2.2325790E-04  -2.3099235E-03   0.0000000E+00   2.5044757E-04  -1.9208905E-03   0.0000000E+00   2.7245833E-04  -1.4218634E-03   0.0000000E+00   3.2043250E-04  -3.7046839E-03   0.0000000E+00   1.0939610E-04  -3.6799712E-03   0.0000000E+00   1.4026834E-04  -3.6105430E-03   0.0000000E+00   1.7350919E-04  -3.4740975E-03   0.0000000E+00   2.0902173E-04  -3.2486401E-03   0.0000000E+00   2.3908280E-04  -2.9073621E-03   0.0000000E+00   2.7396606E-04  -2.4439117E-03   0.0000000E+00   3.0826961E-04  -1.8320351E-03   0.0000000E+00   3.8343153E-04  -4.5042834E-03   0.0000000E+00   1.2683126E-04  -4.4887573E-03   0.0000000E+00   1.6075038E-04  -4.4222455E-03   0.0000000E+00   1.9714770E-04  -4.2772535E-03   0.0000000E+00   2.3596533E-04  -4.0257140E-03   0.0000000E+00   2.6950866E-04  -3.6363299E-03   0.0000000E+00   3.0898713E-04  -3.0927840E-03   0.0000000E+00   3.5904741E-04  -2.3623258E-03   0.0000000E+00   4.6080953E-04  -5.4439432E-03   0.0000000E+00   1.5930952E-04  -5.4420829E-03   0.0000000E+00   1.9917193E-04  -5.3832489E-03   0.0000000E+00   2.4097960E-04  -5.2345418E-03   0.0000000E+00   2.8299208E-04  -4.9575213E-03   0.0000000E+00   3.2261561E-04  -4.5193564E-03   0.0000000E+00   3.6442972E-04  -3.8985836E-03   0.0000000E+00   4.2100047E-04  -3.0639931E-03   0.0000000E+00   5.2503758E-04  -6.5455493E-03   0.0000000E+00   2.1297114E-04  -6.5623750E-03   0.0000000E+00   2.6329904E-04  -6.5174815E-03   0.0000000E+00   3.1318117E-04  -6.3696029E-03   0.0000000E+00   3.6305550E-04  -6.0743238E-03   0.0000000E+00   4.0095381E-04  -5.5915462E-03   0.0000000E+00   4.3913582E-04  -4.9068872E-03   0.0000000E+00   4.8859941E-04  -3.9882627E-03   0.0000000E+00   5.7516276E-04  -7.8344662E-03   0.0000000E+00   2.9251864E-04  -7.8753801E-03   0.0000000E+00   3.5989081E-04  -7.8511108E-03   0.0000000E+00   4.2307450E-04  -7.7125211E-03   0.0000000E+00   4.8473076E-04  -7.4098082E-03   0.0000000E+00   5.2715425E-04  -6.8884646E-03   0.0000000E+00   5.8285892E-04  -6.1444314E-03   0.0000000E+00   6.7051535E-04  -5.0877193E-03   0.0000000E+00   8.7954744E-04  -9.3393847E-03   0.0000000E+00   4.0257507E-04  -9.4116423E-03   0.0000000E+00   4.9413840E-04  -9.4154673E-03   0.0000000E+00   5.8567279E-04  -9.2995130E-03   0.0000000E+00   6.7912787E-04  -9.0071447E-03   0.0000000E+00   7.7059190E-04  -8.4655331E-03   0.0000000E+00   9.4123080E-04  -7.6813875E-03   0.0000000E+00   1.2594567E-03  -6.5395371E-03   0.0000000E+00   1.8675099E-03  -1.1093529E-02   0.0000000E+00   5.4479908E-04  -1.1205697E-02   0.0000000E+00   6.7514105E-04  -1.1248124E-02   0.0000000E+00   8.1755529E-04  -1.1171312E-02   0.0000000E+00   9.7989617E-04  -1.0918207E-02   0.0000000E+00   1.1682622E-03  -1.0410157E-02   0.0000000E+00   1.5023276E-03  -9.6344370E-03   0.0000000E+00   2.0903728E-03  -8.5122334E-03   0.0000000E+00   2.9197002E-03  -1.3133470E-02   0.0000000E+00   7.2208134E-04  -1.3296160E-02   0.0000000E+00   9.0546568E-04  -1.3389514E-02   0.0000000E+00   1.1165342E-03  -1.3367482E-02   0.0000000E+00   1.3689325E-03  -1.3175483E-02   0.0000000E+00   1.6870004E-03  -1.2735695E-02   0.0000000E+00   2.1653597E-03  -1.2017948E-02   0.0000000E+00   2.9062424E-03  -1.0973236E-02   0.0000000E+00   3.7819173E-03  -1.5498787E-02   0.0000000E+00   9.3175343E-04  -1.5724378E-02   0.0000000E+00   1.1800388E-03  -1.5881063E-02   0.0000000E+00   1.4720459E-03  -1.5924305E-02   0.0000000E+00   1.8246386E-03  -1.5793622E-02   0.0000000E+00   2.2561457E-03  -1.5425576E-02   0.0000000E+00   2.8454533E-03  -1.4775528E-02   0.0000000E+00   3.6563510E-03  -1.3802069E-02   0.0000000E+00   4.5505394E-03  -1.8233903E-02   0.0000000E+00   1.1709959E-03  -1.8535573E-02   0.0000000E+00   1.4957354E-03  -1.8766511E-02   0.0000000E+00   1.8770858E-03  -1.8876072E-02   0.0000000E+00   2.3208654E-03  -1.8803231E-02   0.0000000E+00   2.8561964E-03  -1.8483866E-02   0.0000000E+00   3.5289605E-03  -1.7865473E-02   0.0000000E+00   4.3865386E-03  -1.6918844E-02   0.0000000E+00   5.3169238E-03  -2.1387277E-02   0.0000000E+00   1.4337976E-03  -2.1778494E-02   0.0000000E+00   1.8444638E-03  -2.2093708E-02   0.0000000E+00   2.3196614E-03  -2.2275187E-02   0.0000000E+00   2.8614046E-03  -2.2249594E-02   0.0000000E+00   3.4909169E-03  -2.1951588E-02   0.0000000E+00   4.2313887E-03  -2.1315947E-02   0.0000000E+00   5.1472415E-03  -2.0321622E-02   0.0000000E+00   6.1345422E-03  -2.5012072E-02   0.0000000E+00   1.7178998E-03  -2.5507051E-02   0.0000000E+00   2.2213550E-03  -2.5918534E-02   0.0000000E+00   2.8001068E-03  -2.6176998E-02   0.0000000E+00   3.4467122E-03  -2.6195267E-02   0.0000000E+00   4.1740253E-03  -2.5902068E-02   0.0000000E+00   4.9838624E-03  -2.5213076E-02   0.0000000E+00   5.9699188E-03  -2.4102340E-02   0.0000000E+00   7.0377877E-03  -2.9164145E-02   0.0000000E+00   2.0250799E-03  -2.9778892E-02   0.0000000E+00   2.6293828E-03  -3.0299019E-02   0.0000000E+00   3.3211105E-03  -3.0641953E-02   0.0000000E+00   4.0839333E-03  -3.0708287E-02   0.0000000E+00   4.9190223E-03  -3.0412588E-02   0.0000000E+00   5.8156778E-03  -2.9655542E-02   0.0000000E+00   6.8866750E-03  -2.8398141E-02   0.0000000E+00   8.0493335E-03  -3.3899881E-02   0.0000000E+00   2.3626441E-03  -3.4653742E-02   0.0000000E+00   3.0745815E-03  -3.5298157E-02   0.0000000E+00   3.8894452E-03  -3.5735659E-02   0.0000000E+00   4.7835638E-03  -3.5854246E-02   0.0000000E+00   5.7459893E-03  -3.5553373E-02   0.0000000E+00   6.7538912E-03  -3.4722917E-02   0.0000000E+00   7.9263542E-03  -3.3309154E-02   0.0000000E+00   9.1944234E-03  -3.9276235E-02   0.0000000E+00   2.7490505E-03  -4.0193655E-02   0.0000000E+00   3.5716274E-03  -4.0983416E-02   0.0000000E+00   4.5170011E-03  -4.1530188E-02   0.0000000E+00   5.5564917E-03  -4.1706771E-02   0.0000000E+00   6.6705598E-03  -4.1400891E-02   0.0000000E+00   7.8230165E-03  -4.0493421E-02   0.0000000E+00   9.1243694E-03  -3.8911480E-02   0.0000000E+00   1.0511577E-02  -4.5354083E-02   0.0000000E+00   3.2214667E-03  -4.6465874E-02   0.0000000E+00   4.1505359E-03  -4.7429278E-02   0.0000000E+00   5.2244426E-03  -4.8106845E-02   0.0000000E+00   6.4152223E-03  -4.8352934E-02   0.0000000E+00   7.7015194E-03  -4.8046038E-02   0.0000000E+00   9.0434393E-03  -4.7059700E-02   0.0000000E+00   1.0522896E-02  -4.5300920E-02   0.0000000E+00   1.2043342E-02  -5.2201401E-02   0.0000000E+00   3.8471001E-03  -5.3544357E-02   0.0000000E+00   4.8680399E-03  -5.4718047E-02   0.0000000E+00   6.0521076E-03  -5.5557568E-02   0.0000000E+00   7.3848055E-03  -5.5894535E-02   0.0000000E+00   8.8514788E-03  -5.5597775E-02   0.0000000E+00   1.0432187E-02  -5.4536376E-02   0.0000000E+00   1.2171288E-02  -5.2598815E-02   0.0000000E+00   1.3856461E-02  -5.9892498E-02   0.0000000E+00   4.7319224E-03  -6.1506305E-02   0.0000000E+00   5.8211740E-03  -6.2933102E-02   0.0000000E+00   7.0796893E-03  -6.3977487E-02   0.0000000E+00   8.5164253E-03  -6.4443253E-02   0.0000000E+00   1.0143314E-02  -6.4185038E-02   0.0000000E+00   1.2006970E-02  -6.3067235E-02   0.0000000E+00   1.4128149E-02  -6.0969941E-02   0.0000000E+00   1.6032411E-02  -6.8499304E-02   0.0000000E+00   6.0236468E-03  -7.0420943E-02   0.0000000E+00   7.1578161E-03  -7.2146334E-02   0.0000000E+00   8.4400708E-03  -7.3449463E-02   0.0000000E+00   9.9121798E-03  -7.4103646E-02   0.0000000E+00   1.1636859E-02  -7.3943816E-02   0.0000000E+00   1.3796618E-02  -7.2825767E-02   0.0000000E+00   1.6458221E-02  -7.0642196E-02   0.0000000E+00   1.8672924E-02  -7.8067727E-02   0.0000000E+00   7.9029230E-03  -8.0326892E-02   0.0000000E+00   9.0778628E-03  -8.2390673E-02   0.0000000E+00   1.0342967E-02  -8.4017068E-02   0.0000000E+00   1.1760892E-02  -8.4937356E-02   0.0000000E+00   1.3482074E-02  -8.4983118E-02   0.0000000E+00   1.5884578E-02  -8.3989874E-02   0.0000000E+00   1.9251276E-02  -8.1899770E-02   0.0000000E+00   2.1911472E-02  -8.8568732E-02   0.0000000E+00   1.0559872E-02  -9.1178536E-02   0.0000000E+00   1.1817999E-02  -9.3608364E-02   0.0000000E+00   1.3057078E-02  -9.5613390E-02   0.0000000E+00   1.4354596E-02  -9.6909687E-02   0.0000000E+00   1.5943743E-02  -9.7302243E-02   0.0000000E+00   1.8468698E-02  -9.6653894E-02   0.0000000E+00   2.2636298E-02  -9.4990626E-02   0.0000000E+00   2.5902221E-02  -9.9801064E-02   0.0000000E+00   1.4200557E-02  -1.0274509E-01   0.0000000E+00   1.5591375E-02  -1.0555875E-01   0.0000000E+00   1.6853599E-02  -1.0796306E-01   0.0000000E+00   1.8044326E-02  -1.0975380E-01   0.0000000E+00   1.9341365E-02  -1.1067918E-01   0.0000000E+00   2.1879619E-02  -1.1065987E-01   0.0000000E+00   2.6841072E-02  -1.0990047E-01   0.0000000E+00   3.0838832E-02  -1.1131699E-01   0.0000000E+00   1.8949721E-02  -1.1454812E-01   0.0000000E+00   2.0600388E-02  -1.1769642E-01   0.0000000E+00   2.1958144E-02  -1.2052400E-01   0.0000000E+00   2.3063594E-02  -1.2286495E-01   0.0000000E+00   2.4124740E-02  -1.2446463E-01   0.0000000E+00   2.6599826E-02  -1.2537056E-01   0.0000000E+00   3.2235313E-02  -1.2601669E-01   0.0000000E+00   3.7012286E-02  -1.2244187E-01   0.0000000E+00   2.4625791E-02  -1.2596077E-01   0.0000000E+00   2.6621034E-02  -1.2935811E-01   0.0000000E+00   2.8290138E-02  -1.3254848E-01   0.0000000E+00   2.9563477E-02  -1.3544181E-01   0.0000000E+00   3.0586051E-02  -1.3769239E-01   0.0000000E+00   3.3273559E-02  -1.3963953E-01   0.0000000E+00   3.9437141E-02  -1.4195423E-01   0.0000000E+00   4.4839874E-02  -1.3246922E-01   0.0000000E+00   3.1177692E-02  -1.3629116E-01   0.0000000E+00   3.3485748E-02  -1.4003663E-01   0.0000000E+00   3.5532106E-02  -1.4348821E-01   0.0000000E+00   3.7384089E-02  -1.4681421E-01   0.0000000E+00   3.9060835E-02  -1.4985776E-01   0.0000000E+00   4.2162865E-02  -1.5237229E-01   0.0000000E+00   4.9049586E-02  -1.5595905E-01   0.0000000E+00   5.4857969E-02  -1.4100032E-01   0.0000000E+00   3.8433895E-02  -1.4504117E-01   0.0000000E+00   4.1157782E-02  -1.4913660E-01   0.0000000E+00   4.3663535E-02  -1.5300588E-01   0.0000000E+00   4.6344921E-02  -1.5656173E-01   0.0000000E+00   4.9879242E-02  -1.5977693E-01   0.0000000E+00   5.4616254E-02  -1.6269153E-01   0.0000000E+00   6.1188795E-02  -1.6630295E-01   0.0000000E+00   6.7479454E-02  -1.4716642E-01   0.0000000E+00   4.7008418E-02  -1.5128238E-01   0.0000000E+00   5.0384272E-02  -1.5544999E-01   0.0000000E+00   5.4019365E-02  -1.5926410E-01   0.0000000E+00   5.8848102E-02  -1.6252823E-01   0.0000000E+00   6.5224856E-02  -1.6610378E-01   0.0000000E+00   6.9892168E-02  -1.6930549E-01   0.0000000E+00   7.3915191E-02  -1.7229159E-01   0.0000000E+00   8.2203723E-02  -1.4958982E-01   0.0000000E+00   5.8910768E-02  -1.5355699E-01   0.0000000E+00   6.3448541E-02  -1.5750167E-01   0.0000000E+00   6.8798482E-02  -1.6078635E-01   0.0000000E+00   7.6225944E-02  -1.6356692E-01   0.0000000E+00   8.3897531E-02  -1.6774639E-01   0.0000000E+00   8.4572881E-02  -1.7111064E-01   0.0000000E+00   8.5191481E-02  -1.7206429E-01   0.0000000E+00   9.6369267E-02  -1.4591408E-01   0.0000000E+00   7.5418577E-02  -1.4938629E-01   0.0000000E+00   8.1571691E-02  -1.5267222E-01   0.0000000E+00   8.8589221E-02  -1.5483806E-01   0.0000000E+00   9.6655995E-02  -1.5662791E-01   0.0000000E+00   1.0148039E-01  -1.6075227E-01   0.0000000E+00   9.7762309E-02  -1.6059349E-01   0.0000000E+00   9.5600098E-02  -1.4968410E-01   0.0000000E+00   1.0707616E-01  -1.2487061E-01   0.0000000E+00   9.2759684E-02  -1.2851669E-01   0.0000000E+00   1.0048782E-01  -1.3154314E-01   0.0000000E+00   1.0854297E-01  -1.3273674E-01   0.0000000E+00   1.1464575E-01  -1.3077310E-01   0.0000000E+00   1.1455580E-01  -1.2575251E-01   0.0000000E+00   1.0661288E-01  -1.1624977E-01   0.0000000E+00   1.0446998E-01  -1.0306502E-01   0.0000000E+00   1.1674274E-01  -8.0863833E-02   0.0000000E+00   9.8451644E-02  -8.3231322E-02   0.0000000E+00   1.0599693E-01  -8.5001573E-02   0.0000000E+00   1.1333743E-01  -8.5125059E-02   0.0000000E+00   1.1829381E-01  -8.2701281E-02   0.0000000E+00   1.1693344E-01  -7.7882148E-02   0.0000000E+00   1.0954619E-01  -7.1025692E-02   0.0000000E+00   1.1005712E-01  -6.2000234E-02   0.0000000E+00   1.2510355E-01  -4.5575984E-02   0.0000000E+00   1.0127110E-01  -4.6602946E-02   0.0000000E+00   1.0819315E-01  -4.7124736E-02   0.0000000E+00   1.1453508E-01  -4.6563640E-02   0.0000000E+00   1.1850204E-01  -4.4570319E-02   0.0000000E+00   1.1679161E-01  -4.1335735E-02   0.0000000E+00   1.1056737E-01  -3.7356343E-02   0.0000000E+00   1.1390027E-01  -3.1978231E-02   0.0000000E+00   1.3151559E-01  -1.8902926E-02   0.0000000E+00   1.0224148E-01  -1.8994803E-02   0.0000000E+00   1.0860402E-01  -1.8761823E-02   0.0000000E+00   1.1430556E-01  -1.7975494E-02   0.0000000E+00   1.1798029E-01  -1.6639585E-02   0.0000000E+00   1.1641769E-01  -1.5014863E-02   0.0000000E+00   1.1117593E-01  -1.3432104E-02   0.0000000E+00   1.1652766E-01  -1.1217913E-02   0.0000000E+00   1.3594711E-01   3.0092385E-03   0.0000000E+00   1.0187941E-01   3.6010265E-03   0.0000000E+00   1.0789163E-01   4.3049473E-03   0.0000000E+00   1.1335800E-01   5.0674072E-03   0.0000000E+00   1.1749195E-01   5.6627537E-03   0.0000000E+00   1.1636101E-01   5.7940679E-03   0.0000000E+00   1.1180629E-01   5.4649943E-03   0.0000000E+00   1.1823538E-01   4.9556601E-03   0.0000000E+00   1.3832754E-01   2.3835881E-02   0.0000000E+00   1.0051056E-01   2.5045674E-02   0.0000000E+00   1.0639384E-01   2.6184009E-02   0.0000000E+00   1.1188676E-01   2.6928592E-02   0.0000000E+00   1.1699317E-01   2.6816856E-02   0.0000000E+00   1.1656084E-01   2.5685146E-02   0.0000000E+00   1.1232550E-01   2.3908412E-02   0.0000000E+00   1.1866999E-01   2.0958915E-02   0.0000000E+00   1.3870019E-01   4.5278840E-02   0.0000000E+00   9.8269269E-02   4.7160219E-02   0.0000000E+00   1.0413895E-01   4.8851997E-02   0.0000000E+00   1.0974876E-01   4.9771145E-02   0.0000000E+00   1.1555598E-01   4.9061496E-02   0.0000000E+00   1.1575988E-01   4.6953958E-02   0.0000000E+00   1.1160859E-01   4.3976404E-02   0.0000000E+00   1.1754667E-01   3.8845744E-02   0.0000000E+00   1.3707116E-01   6.6984288E-02   0.0000000E+00   9.5153220E-02   6.9612466E-02   0.0000000E+00   1.0102189E-01   7.1999870E-02   0.0000000E+00   1.0670845E-01   7.3325410E-02   0.0000000E+00   1.1280458E-01   7.2178297E-02   0.0000000E+00   1.1341176E-01   6.9316171E-02   0.0000000E+00   1.0939062E-01   6.5343760E-02   0.0000000E+00   1.1492656E-01   5.8167920E-02   0.0000000E+00   1.3375327E-01   8.7563872E-02   0.0000000E+00   9.1136001E-02   9.0959512E-02   0.0000000E+00   9.6940465E-02   9.4110489E-02   0.0000000E+00   1.0259243E-01   9.5929556E-02   0.0000000E+00   1.0865311E-01   9.4498113E-02   0.0000000E+00   1.0943977E-01   9.0990312E-02   0.0000000E+00   1.0573832E-01   8.6285934E-02   0.0000000E+00   1.1103123E-01   7.7280723E-02   0.0000000E+00   1.2900025E-01   1.0552789E-01   0.0000000E+00   8.6245254E-02   1.0963295E-01   0.0000000E+00   9.1886304E-02   1.1350747E-01   0.0000000E+00   9.7368509E-02   1.1554018E-01   0.0000000E+00   1.0280144E-01   1.1383534E-01   0.0000000E+00   1.0388691E-01   1.0998861E-01   0.0000000E+00   1.0077929E-01   1.0497422E-01   0.0000000E+00   1.0613272E-01   9.4487838E-02   0.0000000E+00   1.2300771E-01   1.1703897E-01   0.0000000E+00   8.0594823E-02   1.2248826E-01   0.0000000E+00   8.6022906E-02   1.2790291E-01   0.0000000E+00   9.1205440E-02   1.3056798E-01   0.0000000E+00   9.5533952E-02   1.2861854E-01   0.0000000E+00   9.7001925E-02   1.2509078E-01   0.0000000E+00   9.4952822E-02   1.1982051E-01   0.0000000E+00   1.0038314E-01   1.0841867E-01   0.0000000E+00   1.1603808E-01   1.1925163E-01   0.0000000E+00   7.4453719E-02   1.2519477E-01   0.0000000E+00   7.9684250E-02   1.3174689E-01   0.0000000E+00   8.4573396E-02   1.3743155E-01   0.0000000E+00   8.8251963E-02   1.3858750E-01   0.0000000E+00   8.9356057E-02   1.3588443E-01   0.0000000E+00   8.8607095E-02   1.3049728E-01   0.0000000E+00   9.3981683E-02   1.1836501E-01   0.0000000E+00   1.0825011E-01   1.1885991E-01   0.0000000E+00   6.8180516E-02   1.2493965E-01   0.0000000E+00   7.3239267E-02   1.3167390E-01   0.0000000E+00   7.7758014E-02   1.3831440E-01   0.0000000E+00   8.1827335E-02   1.4302580E-01   0.0000000E+00   8.2375564E-02   1.4288951E-01   0.0000000E+00   8.1769705E-02   1.3777368E-01   0.0000000E+00   8.7077282E-02   1.2540680E-01   0.0000000E+00   9.9758856E-02   1.1735961E-01   0.0000000E+00   6.2197316E-02   1.2356758E-01   0.0000000E+00   6.7012228E-02   1.3049085E-01   0.0000000E+00   7.1146913E-02   1.3767043E-01   0.0000000E+00   7.5440094E-02   1.4356792E-01   0.0000000E+00   7.6046050E-02   1.4668195E-01   0.0000000E+00   7.4946731E-02   1.4320114E-01   0.0000000E+00   7.9708904E-02   1.3144594E-01   0.0000000E+00   9.1145724E-02   1.1535808E-01   0.0000000E+00   5.6766115E-02   1.2173359E-01   0.0000000E+00   6.1223239E-02   1.2879370E-01   0.0000000E+00   6.5002523E-02   1.3628261E-01   0.0000000E+00   6.8677470E-02   1.4311492E-01   0.0000000E+00   6.9858342E-02   1.4781076E-01   0.0000000E+00   6.8531185E-02   1.4756526E-01   0.0000000E+00   7.2120123E-02   1.3822994E-01   0.0000000E+00   8.2943514E-02   1.1297116E-01   0.0000000E+00   5.1633269E-02   1.1955947E-01   0.0000000E+00   5.5741642E-02   1.2689686E-01   0.0000000E+00   5.9401836E-02   1.3477832E-01   0.0000000E+00   6.2343903E-02   1.4246313E-01   0.0000000E+00   6.3536033E-02   1.4823608E-01   0.0000000E+00   6.2197614E-02   1.5119186E-01   0.0000000E+00   6.4992107E-02   1.4706533E-01   0.0000000E+00   7.5323902E-02   1.1018603E-01   0.0000000E+00   4.6707999E-02   1.1711133E-01   0.0000000E+00   5.0739188E-02   1.2484920E-01   0.0000000E+00   5.3841457E-02   1.3344908E-01   0.0000000E+00   5.6261271E-02   1.4187141E-01   0.0000000E+00   5.7300888E-02   1.4896733E-01   0.0000000E+00   5.6201555E-02   1.5549906E-01   0.0000000E+00   5.8897901E-02   1.5886855E-01   0.0000000E+00   6.7145251E-02   1.0715060E-01   0.0000000E+00   4.2097505E-02   1.1448970E-01   0.0000000E+00   4.5695253E-02   1.2285088E-01   0.0000000E+00   4.8290074E-02   1.3226916E-01   0.0000000E+00   5.0454099E-02   1.4153236E-01   0.0000000E+00   5.1658377E-02   1.5089025E-01   0.0000000E+00   5.1140741E-02   1.6071364E-01   0.0000000E+00   5.3675223E-02   1.7021956E-01   0.0000000E+00   5.8624160E-02   1.0414263E-01   0.0000000E+00   3.7679262E-02   1.1187220E-01   0.0000000E+00   4.0476412E-02   1.2103896E-01   0.0000000E+00   4.2809863E-02   1.3129494E-01   0.0000000E+00   4.4939574E-02   1.4153907E-01   0.0000000E+00   4.6073031E-02   1.5264855E-01   0.0000000E+00   4.6269782E-02   1.6458014E-01   0.0000000E+00   4.8931498E-02   1.7624585E-01   0.0000000E+00   5.2152187E-02   1.0120452E-01   0.0000000E+00   3.2954779E-02   1.0959793E-01   0.0000000E+00   3.5373677E-02   1.1958590E-01   0.0000000E+00   3.7628423E-02   1.3062777E-01   0.0000000E+00   3.9638907E-02   1.4186952E-01   0.0000000E+00   4.0707137E-02   1.5350895E-01   0.0000000E+00   4.1390166E-02   1.6637981E-01   0.0000000E+00   4.4564284E-02   9.8755859E-02   0.0000000E+00   2.8368838E-02   1.0787775E-01   0.0000000E+00   3.0600149E-02   1.1862247E-01   0.0000000E+00   3.2769561E-02   1.3048775E-01   0.0000000E+00   3.4721088E-02   1.4230314E-01   0.0000000E+00   3.5868794E-02   1.5412825E-01   0.0000000E+00   3.7586089E-02   1.6581292E-01   0.0000000E+00   4.0902007E-02   9.6971050E-02   0.0000000E+00   2.4149463E-02   1.0682152E-01   0.0000000E+00   2.6365573E-02   1.1850744E-01   0.0000000E+00   2.8780354E-02   1.3121803E-01   0.0000000E+00   3.1088373E-02   1.4273752E-01   0.0000000E+00   3.2537993E-02   1.5418749E-01   0.0000000E+00   3.5350870E-02   9.6031852E-02   0.0000000E+00   2.0671129E-02   1.0694686E-01   0.0000000E+00   2.3287913E-02   1.1975905E-01   0.0000000E+00   2.6386363E-02   1.3239782E-01   0.0000000E+00   2.8882384E-02   1.4348300E-01   0.0000000E+00   3.1315073E-02   1.5260857E-01   0.0000000E+00   3.3834532E-02   9.6647970E-02   0.0000000E+00   1.8676342E-02   1.0914189E-01   0.0000000E+00   2.2322780E-02   1.2188406E-01   0.0000000E+00   2.5606604E-02   1.3341151E-01   0.0000000E+00   2.8179601E-02   1.4271381E-01   0.0000000E+00   3.0758483E-02   9.9906012E-02   0.0000000E+00   1.9078875E-02   1.1220869E-01   0.0000000E+00   2.2689650E-02   1.2383102E-01   0.0000000E+00   2.5870783E-02   1.3296685E-01   0.0000000E+00   2.8034212E-02   1.0360132E-01   0.0000000E+00   2.0381087E-02   1.1417392E-01   0.0000000E+00   2.3389764E-02   1.2355438E-01   0.0000000E+00   2.6088186E-02   1.2836646E-01   0.0000000E+00   2.6139241E-02   1.0464903E-01   0.0000000E+00   2.0746954E-02   1.1245177E-01   0.0000000E+00   2.2702416E-02   1.0162809E-01   0.0000000E+00   1.9576291E-02 
Acec 3 2975 float
  0.0000000E+00   0.0000000E+00   0.0000000E+00   0.0000000E+00   0.0000000E+00   0.0000000E+00   0.0000000E+00   0.0000000E+00   0.0000000E+00   0.0000000E+00   0.0000000E+00   0.0000000E+00   0.0000000E+00   0.0000000E+00   0.0000000E+00   0.0000000E+00   0.0000000E+00   0.0000000E+00   0.0000000E+00   0.0000000E+00   0.0000000E+00   0.0000000E+00   0.0000000E+00   0.0000000E+00   0.0000000E+00   0.0000000E+00   0.0000000E+00   0.0000000E+00   0.0000000E+00   0.0000000E+00   0.0000000E+00   0.0000000E+00   0.0000000E+00   0.0000000E+00   0.0000000E+00   0.0000000E+00   0.0000000E+00   0.0000000E+00   0.0000000E+00   0.0000000E+00   0.0000000E+00   0.0000000E+00   0.0000000E+00   0.0000000E+00   0.0000000E+00   0.0000000E+00   0.0000000E+00   0.0000000E+00   0.0000000E+00   0.0000000E+00   0.0000000E+00   0.0000000E+00   0.0000000E+00   0.0000000E+00   0.0000000E+00   0.0000000E+00   0.0000000E+00   0.0000000E+00   0.0000000E+00   0.0000000E+00   0.0000000E+00   0.0000000E+00   0.0000000E+00   0.0000000E+00   0.0000000E+00   0.0000000E+00   0.0000000E+00   0.0000000E+00   0.0000000E+00   0.0000000E+00   0.0000000E+00   0.0000000E+00   0.0000000E+00   0.0000000E+00   0.0000000E+00   0.0000000E+00   0.0000000E+00   0.0000000E+00   0.0000000E+00   0.0000000E+00   0.0000000E+00   0.0000000E+00   0.0000000E+00   0.0000000E+00   0.0000000E+00   0.0000000E+00   0.0000000E+00   0.0000000E+00   0.0000000E+00   0.0000000E+00   0.0000000E+00   0.0000000E+00   0.0000000E+00   0.0000000E+00   0.0000000E+00   0.0000000E+00   0.0000000E+00   0.0000000E+00   0.0000000E+00   0.0000000E+00   0.0000000E+00   0.0000000E+00   0.0000000E+00   0.0000000E+00   0.0000000E+00   0.0000000E+00   0.0000000E+00   0.0000000E+00   0.0000000E+00   0.0000000E+00   0.0000000E+00   0.0000000E+00   0.0000000E+00   0.0000000E+00   0.0000000E+00   0.0000000E+00   0.0000000E+00   0.0000000E+00   0.0000000E+00   0.0000000E+00   0.0000000E+00   0.0000000E+00   0.0000000E+00   0.0000000E+00   0.0000000E+00   0.0000000E+00   0.0000000E+00   0.0000000E+00   0.0000000E+00   0.0000000E+00   0.0000000E+00   0.0000000E+00   0.0000000E+00   0.0000000E+00   0.0000000E+00   0.0000000E+00   0.0000000E+00   0.0000000E+00   0.0000000E+00   0.0000000E+00   0.0000000E+00   0.0000000E+00   0.0000000E+00   0.0000000E+00   0.0000000E+00   0.0000000E+00   0.0000000E+00   0.0000000E+00   0.0000000E+00   0.0000000E+00   0.0000000E+00   0.0000000E+00   0.0000000E+00   0.0000000E+00   0.0000000E+00   0.0000000E+00   0.0000000E+00   0.0000000E+00   0.0000000E+00   0.0000000E+00   0.0000000E+00   0.0000000E+00   0.0000000E+00   0.0000000E+00   0.0000000E+00   0.0000000E+00   0.0000000E+00   0.0000000E+00   0.0000000E+00   0.0000000E+00   0.0000000E+00   0.0000000E+00   0.0000000E+00   0.0000000E+00   0.0000000E+00   0.0000000E+00   0.0000000E+00   0.0000000E+00   0.0000000E+00   0.0000000E+00   0.0000000E+00   0.0000000E+00   0.0000000E+00   0.0000000E+00   0.0000000E+00   0.0000000E+00   0.0000000E+00   0.0000000E+00   0.0000000E+00   0.0000000E+00   0.0000000E+00   0.0000000E+00   0.0000000E+00   0.0000000E+00   0.0000000E+00   0.0000000E+00   0.0000000E+00   0.0000000E+00   0.0000000E+00   0.0000000E+00   0.0000000E+00   0.0000000E+00   0.0000000E+00   0.0000000E+00   0.0000000E+00   0.0000000E+00   0.0000000E+00   0.0000000E+00   0.0000000E+00   0.0000000E+00   0.0000000E+00   0.0000000E+00   0.0000000E+00   0.0000000E+00   0.0000000E+00   0.0000000E+00   0.0000000E+00   0.0000000E+00   0.0000000E+00   0.0000000E+00   0.0000000E+00   0.0000000E+00   0.0000000E+00   0.0000000E+00   0.0000000E+00   0.0000000E+00   0.0000000E+00   0.0000000E+00   0.0000000E+00   0.0000000E+00   0.0000000E+00   0.0000000E+00   0.0000000E+00   0.0000000E+00   0.0000000E+00   0.0000000E+00   0.0000000E+00   0.0000000E+00   0.0000000E+00   0.0000000E+00   0.0000000E+00   0.0000000E+00   0.0000000E+00   0.0000000E+00   0.0000000E+00   0.0000000E+00   0.0000000E+00   0.0000000E+00   0.0000000E+00   0.0000000E+00   0.0000000E+00   0.0000000E+00   0.0000000E+00   0.0000000E+00   0.0000000E+00   0.0000000E+00   0.0000000E+00   0.0000000E+00   0.0000000E+00   0.0000000E+00   0.0000000E+00   0.0000000E+00   0.0000000E+00   0.0000000E+00   0.0000000E+00   0.0000000E+00   0.0000000E+00   0.0000000E+00   0.0000000E+00   0.0000000E+00   0.0000000E+00   0.0000000E+00   0.0000000E+00   0.0000000E+00   0.0000000E+00   0.0000000E+00   0.0000000E+00   0.0000000E+00   0.0000000E+00   0.0000000E+00   0.0000000E+00   0.0000000E+00   0.0000000E+00   0.0000000E+00   0.0000000E+00   0.0000000E+00   0.0000000E+00   0.0000000E+00   0.0000000E+00   0.0000000E+00   0.0000000E+00   0.0000000E+00   0.0000000E+00   0.0000000E+00   0.0000000E+00   0.0000000E+00   0.0000000E+00   0.0000000E+00   0.0000000E+00   0.0000000E+00   0.0000000E+00   0.0000000E+00   0.0000000E+00   0.0000000E+00   0.0000000E+00   0.0000000E+00   0.0000000E+00   0.0000000E+00   0.0000000E+00   0.0000000E+00   0.0000000E+00   0.0000000E+00   0.0000000E+00   0.0000000E+00   0.0000000E+00   0.0000000E+00   0.0000000E+00   0.0000000E+00   0.0000000E+00   0.0000000E+00   0.0000000E+00   0.0000000E+00   0.0000000E+00   0.0000000E+00   0.0000000E+00   0.0000000E+00   0.0000000E+00   0.0000000E+00   0.0000000E+00   0.0000000E+00   0.0000000E+00   0.0000000E+00   0.0000000E+00   0.0000000E+00   0.0000000E+00   0.0000000E+00   0.0000000E+00   0.0000000E+00   0.0000000E+00   0.0000000E+00   0.0000000E+00   0.0000000E+00   0.0000000E+00   0.0000000E+00   0.0000000E+00   0.0000000E+00   0.0000000E+00   0.0000000E+00   0.0000000E+00   0.0000000E+00   0.0000000E+00   0.0000000E+00   0.0000000E+00   0.0000000E+00   0.0000000E+00   0.0000000E+00   0.0000000E+00   0.0000000E+00   0.0000000E+00   0.0000000E+00   0.0000000E+00   0.0000000E+00   0.0000000E+00   0.0000000E+00   0.0000000E+00   0.0000000E+00   0.0000000E+00   0.0000000E+00   0.0000000E+00   0.0000000E+00   0.0000000E+00   0.0000000E+00   0.0000000E+00   0.0000000E+00   0.0000000E+00   0.0000000E+00   0.0000000E+00   0.0000000E+00   0.0000000E+00   0.0000000E+00   0.0000000E+00   0.0000000E+00   0.0000000E+00   0.0000000E+00   0.0000000E+00   0.0000000E+00   0.0000000E+00   0.0000000E+00   0.0000000E+00   0.0000000E+00   0.0000000E+00   0.0000000E+00   0.0000000E+00   0.0000000E+00   0.0000000E+00   0.0000000E+00   0.0000000E+00   0.0000000E+00   0.0000000E+00   0.0000000E+00   0.0000000E+00   0.0000000E+00   0.0000000E+00   0.0000000E+00   0.0000000E+00   0.0000000E+00   0.0000000E+00   0.0000000E+00   0.0000000E+00   0.0000000E+00   0.0000000E+00   0.0000000E+00   0.0000000E+00   0.0000000E+00   0.0000000E+00   0.0000000E+00   0.0000000E+00   0.0000000E+00   0.0000000E+00   0.0000000E+00   0.0000000E+00   0.0000000E+00   0.0000000E+00   0.0000000E+00   0.0000000E+00   0.0000000E+00   0.0000000E+00   0.0000000E+00   0.0000000E+00   0.0000000E+00   0.0000000E+00   0.0000000E+00   0.0000000E+00   0.0000000E+00   0.0000000E+00   0.0000000E+00   0.0000000E+00   0.0000000E+00   0.0000000E+00   0.0000000E+00   0.0000000E+00   0.0000000E+00   0.0000000E+00   0.0000000E+00   0.0000000E+00   0.0000000E+00   0.0000000E+00   0.0000000E+00   0.0000000E+00   0.0000000E+00   0.0000000E+00   0.0000000E+00   0.0000000E+00   0.0000000E+00   0.0000000E+00   0.0000000E+00   0.0000000E+00   0.0000000E+00   0.0000000E+00   0.0000000E+00   0.0000000E+00   0.0000000E+00   0.0000000E+00   0.0000000E+00   0.0000000E+00   0.0000000E+00   0.0000000E+00   0.0000000E+00   0.0000000E+00   0.0000000E+00   0.0000000E+00   0.0000000E+00   0.0000000E+00   0.0000000E+00   0.0000000E+00   0.0000000E+00   0.0000000E+00   0.0000000E+00   0.0000000E+00   0.0000000E+00   0.0000000E+00   0.0000000E+00   0.0000000E+00   0.0000000E+00   0.0000000E+00   0.0000000E+00   0.0000000E+00   0.0000000E+00   0.0000000E+00   0.0000000E+00   0.0000000E+00   0.0000000E+00   0.0000000E+00   0.0000000E+00   0.0000000E+00   0.0000000E+00   0.0000000E+00   0.0000000E+00   0.0000000E+00   0.0000000E+00   0.0000000E+00   0.0000000E+00   0.0000000E+00   0.0000000E+00   0.0000000E+00   0.0000000E+00   0.0000000E+00   0.0000000E+00   0.0000000E+00   0.0000000E+00   0.0000000E+00   0.0000000E+00   0.0000000E+00   0.0000000E+00   0.0000000E+00   0.0000000E+00   0.0000000E+00   0.0000000E+00   0.0000000E+00   0.0000000E+00   0.0000000E+00   0.0000000E+00   0.0000000E+00   0.0000000E+00   0.0000000E+00   0.0000000E+00   0.0000000E+00   0.0000000E+00   0.0000000E+00   0.0000000E+00   0.0000000E+00   0.0000000E+00   0.0000000E+00   0.0000000E+00   0.0000000E+00   0.0000000E+00   0.0000000E+00   0.0000000E+00   0.0000000E+00   0.0000000E+00   0.0000000E+00   0.0000000E+00   0.0000000E+00   0.0000000E+00   0.0000000E+00   0.0000000E+00   0.0000000E+00   0.0000000E+00   0.0000000E+00   0.0000000E+00   0.0000000E+00   0.0000000E+00   0.0000000E+00   0.0000000E+00   0.0000000E+00   0.0000000E+00   0.0000000E+00   0.0000000E+00   0.0000000E+00   0.0000000E+00   0.0000000E+00   0.0000000E+00   0.0000000E+00   0.0000000E+00   0.0000000E+00   0.0000000E+00   0.0000000E+00   0.0000000E+00   0.0000000E+00   0.0000000E+00   0.0000000E+00   0.0000000E+00   0.0000000E+00   0.0000000E+00   0.0000000E+00   0.0000000E+00   0.0000000E+00   0.0000000E+00   0.0000000E+00   0.0000000E+00   0.0000000E+00   0.0000000E+00   0.0000000E+00   0.0000000E+00   0.0000000E+00   0.0000000E+00   0.0000000E+00   0.0000000E+00   0.0000000E+00   0.0000000E+00   0.0000000E+00   0.0000000E+00   0.0000000E+00   0.0000000E+00   0.0000000E+00   0.0000000E+00   0.0000000E+00   0.0000000E+00   0.0000000E+00   0.0000000E+00   0.0000000E+00   0.0000000E+00   0.0000000E+00   0.0000000E+00   0.0000000E+00   0.0000000E+00   0.0000000E+00   0.0000000E+00   0.0000000E+00   0.0000000E+00   0.0000000E+00   0.0000000E+00   0.0000000E+00   0.0000000E+00   0.0000000E+00   0.0000000E+00   0.0000000E+00   0.0000000E+00   0.0000000E+00   0.0000000E+00   0.0000000E+00   0.0000000E+00   0.0000000E+00   0.0000000E+00   0.0000000E+00   0.0000000E+00   0.0000000E+00   0.0000000E+00   0.0000000E+00   0.0000000E+00   0.0000000E+00   0.0000000E+00   0.0000000E+00   0.0000000E+00   0.0000000E+00   0.0000000E+00   0.0000000E+00   0.0000000E+00   0.0000000E+00   0.0000000E+00   0.0000000E+00   0.0000000E+00   0.0000000E+00   0.0000000E+00   0.0000000E+00   0.0000000E+00   0.0000000E+00   0.0000000E+00   0.0000000E+00   0.0000000E+00   0.0000000E+00   0.0000000E+00   0.0000000E+00   0.0000000E+00   0.0000000E+00   0.0000000E+00   0.0000000E+00   0.0000000E+00   0.0000000E+00   0.0000000E+00   0.0000000E+00   0.0000000E+00   0.0000000E+00   0.0000000E+00   0.0000000E+00   0.0000000E+00   0.0000000E+00   0.0000000E+00   0.0000000E+00   0.0000000E+00   0.0000000E+00   0.0000000E+00   0.0000000E+00   0.0000000E+00   0.0000000E+00   0.0000000E+00   0.0000000E+00   0.0000000E+00   0.0000000E+00   0.0000000E+00   0.0000000E+00   0.0000000E+00   0.0000000E+00   0.0000000E+00   0.0000000E+00   0.0000000E+00   0.0000000E+00   0.0000000E+00   0.0000000E+00   0.0000000E+00   0.0000000E+00   0.0000000E+00   0.0000000E+00   0.0000000E+00   0.0000000E+00   0.0000000E+00   0.0000000E+00   0.0000000E+00   0.0000000E+00   0.0000000E+00   0.0000000E+00   0.0000000E+00   0.0000000E+00   0.0000000E+00   0.0000000E+00   0.0000000E+00   0.0000000E+00   0.0000000E+00   0.0000000E+00   0.0000000E+00   0.0000000E+00   0.0000000E+00   0.0000000E+00   0.0000000E+00   0.0000000E+00   0.0000000E+00   0.0000000E+00   0.0000000E+00   0.0000000E+00   0.0000000E+00   0.0000000E+00   0.0000000E+00   0.0000000E+00   0.0000000E+00   0.0000000E+00   0.0000000E+00   0.0000000E+00   0.0000000E+00   0.0000000E+00   0.0000000E+00   0.0000000E+00   0.0000000E+00   0.0000000E+00   0.0000000E+00   0.0000000E+00   0.0000000E+00   0.0000000E+00   0.0000000E+00   0.0000000E+00   0.0000000E+00   0.0000000E+00   0.0000000E+00   0.0000000E+00   0.0000000E+00   0.0000000E+00   0.0000000E+00   0.0000000E+00   0.0000000E+00   0.0000000E+00   0.0000000E+00   0.0000000E+00   0.0000000E+00   0.0000000E+00   0.0000000E+00   0.0000000E+00   0.0000000E+00   0.0000000E+00   0.0000000E+00   0.0000000E+00   0.0000000E+00   0.0000000E+00   0.0000000E+00   0.0000000E+00   0.0000000E+00   0.0000000E+00   0.0000000E+00   0.0000000E+00   0.0000000E+00   0.0000000E+00   0.0000000E+00   0.0000000E+00   0.0000000E+00   0.0000000E+00   0.0000000E+00   0.0000000E+00   0.0000000E+00   0.0000000E+00   0.0000000E+00   0.0000000E+00   0.0000000E+00   0.0000000E+00   0.0000000E+00   0.0000000E+00   0.0000000E+00   0.0000000E+00   0.0000000E+00   0.0000000E+00   0.0000000E+00   0.0000000E+00   0.0000000E+00   0.0000000E+00   0.0000000E+00   0.0000000E+00   0.0000000E+00   0.0000000E+00   0.0000000E+00   0.0000000E+00   0.0000000E+00   0.0000000E+00   0.0000000E+00   0.0000000E+00   0.0000000E+00   0.0000000E+00   0.0000000E+00   0.0000000E+00   0.0000000E+00   0.0000000E+00   0.0000000E+00   0.0000000E+00   0.0000000E+00   0.0000000E+00   0.0000000E+00   0.0000000E+00   0.0000000E+00   0.0000000E+00   0.0000000E+00   0.0000000E+00   0.0000000E+00   0.0000000E+00   0.0000000E+00   0.0000000E+00   0.0000000E+00   0.0000000E+00   0.0000000E+00   0.0000000E+00   0.0000000E+00   0.0000000E+00   0.0000000E+00   0.0000000E+00   0.0000000E+00   0.0000000E+00   0.0000000E+00   0.0000000E+00   0.0000000E+00   0.0000000E+00   0.0000000E+00   0.0000000E+00   0.0000000E+00   0.0000000E+00   0.0000000E+00   0.0000000E+00   0.0000000E+00   0.0000000E+00   0.0000000E+00   0.0000000E+00   0.0000000E+00   0.0000000E+00   0.0000000E+00   0.0000000E+00   0.0000000E+00   0.0000000E+00   0.0000000E+00   0.0000000E+00   0.0000000E+00   0.0000000E+00   0.0000000E+00   0.0000000E+00   0.0000000E+00   0.0000000E+00   0.0000000E+00   0.0000000E+00   0.0000000E+00   0.0000000E+00   0.0000000E+00   0.0000000E+00   0.0000000E+00   0.0000000E+00   0.0000000E+00   0.0000000E+00   0.0000000E+00   0.0000000E+00   0.0000000E+00   0.0000000E+00   0.0000000E+00   0.0000000E+00   0.0000000E+00   0.0000000E+00   0.0000000E+00   0.0000000E+00   0.0000000E+00   0.0000000E+00   0.0000000E+00   0.0000000E+00   0.0000000E+00   0.0000000E+00   0.0000000E+00   0.0000000E+00   0.0000000E+00   0.0000000E+00   0.0000000E+00   0.0000000E+00   0.0000000E+00   0.0000000E+00   0.0000000E+00   0.0000000E+00   0.0000000E+00   0.0000000E+00   0.0000000E+00   0.0000000E+00   0.0000000E+00   0.0000000E+00   0.0000000E+00   0.0000000E+00   0.0000000E+00   0.0000000E+00   0.0000000E+00   0.0000000E+00   0.0000000E+00   0.0000000E+00   0.0000000E+00   0.0000000E+00   0.0000000E+00   0.0000000E+00   0.0000000E+00   0.0000000E+00   0.0000000E+00   0.0000000E+00   0.0000000E+00   0.0000000E+00   0.0000000E+00   0.0000000E+00   0.0000000E+00   0.0000000E+00   0.0000000E+00   0.0000000E+00   0.0000000E+00   0.0000000E+00   0.0000000E+00   0.0000000E+00   0.0000000E+00   0.0000000E+00   0.0000000E+00   0.0000000E+00   0.0000000E+00   0.0000000E+00   0.0000000E+00   0.0000000E+00   0.0000000E+00   0.0000000E+00   0.0000000E+00   0.0000000E+00   0.0000000E+00   0.0000000E+00   0.0000000E+00   0.0000000E+00   0.0000000E+00   0.0000000E+00   0.0000000E+00   0.0000000E+00   0.0000000E+00   0.0000000E+00   0.0000000E+00   0.0000000E+00   0.0000000E+00   0.0000000E+00   0.0000000E+00   0.0000000E+00   0.0000000E+00   0.0000000E+00   0.0000000E+00   0.0000000E+00   0.0000000E+00   0.0000000E+00   0.0000000E+00   0.0000000E+00   0.0000000E+00   0.0000000E+00   0.0000000E+00   0.0000000E+00   0.0000000E+00   0.0000000E+00   0.0000000E+00   0.0000000E+00   0.0000000E+00   0.0000000E+00   0.0000000E+00   0.0000000E+00   0.0000000E+00   0.0000000E+00   0.0000000E+00   0.0000000E+00   0.0000000E+00   0.0000000E+00   0.0000000E+00   0.0000000E+00   0.0000000E+00   0.0000000E+00   0.0000000E+00   0.0000000E+00   0.0000000E+00   0.0000000E+00   0.0000000E+00   0.0000000E+00   0.0000000E+00   0.0000000E+00   0.0000000E+00   0.0000000E+00   0.0000000E+00   0.0000000E+00   0.0000000E+00   0.0000000E+00   0.0000000E+00   0.0000000E+00   0.0000000E+00   0.0000000E+00   0.0000000E+00   0.0000000E+00   0.0000000E+00   0.0000000E+00   0.0000000E+00   0.0000000E+00   0.0000000E+00   0.0000000E+00   0.0000000E+00   0.0000000E+00   0.0000000E+00   0.0000000E+00   0.0000000E+00   0.0000000E+00   0.0000000E+00   0.0000000E+00   0.0000000E+00   0.0000000E+00   0.0000000E+00   0.0000000E+00   0.0000000E+00   0.0000000E+00   0.0000000E+00   0.0000000E+00   0.0000000E+00   0.0000000E+00   0.0000000E+00   0.0000000E+00   0.0000000E+00   0.0000000E+00   0.0000000E+00   0.0000000E+00   0.0000000E+00   0.0000000E+00   0.0000000E+00   0.0000000E+00   0.0000000E+00   0.0000000E+00   0.0000000E+00   0.0000000E+00   0.0000000E+00   0.0000000E+00   0.0000000E+00   0.0000000E+00   0.0000000E+00   0.0000000E+00   0.0000000E+00   0.0000000E+00   0.0000000E+00   0.0000000E+00   0.0000000E+00   0.0000000E+00   0.0000000E+00   0.0000000E+00   0.0000000E+00   0.0000000E+00   0.0000000E+00   0.0000000E+00   0.0000000E+00   0.0000000E+00   0.0000000E+00   0.0000000E+00   0.0000000E+00   0.0000000E+00   0.0000000E+00   0.0000000E+00   0.0000000E+00   0.0000000E+00   0.0000000E+00   0.0000000E+00   0.0000000E+00   0.0000000E+00   0.0000000E+00   0.0000000E+00   0.0000000E+00   0.0000000E+00   0.0000000E+00   0.0000000E+00   0.0000000E+00   0.0000000E+00   0.0000000E+00   0.0000000E+00   0.0000000E+00   0.0000000E+00   0.0000000E+00   0.0000000E+00   0.0000000E+00   0.0000000E+00   0.0000000E+00   0.0000000E+00   0.0000000E+00   0.0000000E+00   0.0000000E+00   0.0000000E+00   0.0000000E+00   0.0000000E+00   0.0000000E+00   0.0000000E+00   0.0000000E+00   0.0000000E+00   0.0000000E+00   0.0000000E+00   0.0000000E+00   0.0000000E+00   0.0000000E+00   0.0000000E+00   0.0000000E+00   0.0000000E+00   0.0000000E+00   0.0000000E+00   0.0000000E+00   0.0000000E+00   0.0000000E+00   0.0000000E+00   0.0000000E+00   0.0000000E+00   0.0000000E+00   0.0000000E+00   0.0000000E+00   0.0000000E+00   0.0000000E+00   0.0000000E+00   0.0000000E+00   0.0000000E+00   0.0000000E+00   0.0000000E+00   0.0000000E+00   0.0000000E+00   0.0000000E+00   0.0000000E+00   0.0000000E+00   0.0000000E+00   0.0000000E+00   0.0000000E+00   0.0000000E+00   0.0000000E+00   0.0000000E+00   0.0000000E+00   0.0000000E+00   0.0000000E+00   0.0000000E+00   0.0000000E+00   0.0000000E+00   0.0000000E+00   0.0000000E+00   0.0000000E+00   0.0000000E+00   0.0000000E+00   0.0000000E+00   0.0000000E+00   0.0000000E+00   0.0000000E+00   0.0000000E+00   0.0000000E+00   0.0000000E+00   0.0000000E+00   0.0000000E+00   0.0000000E+00   0.0000000E+00   0.0000000E+00   0.0000000E+00   0.0000000E+00   0.0000000E+00   0.0000000E+00   0.0000000E+00   0.0000000E+00   0.0000000E+00   0.0000000E+00   0.0000000E+00   0.0000000E+00   0.0000000E+00   0.0000000E+00   0.0000000E+00   0.0000000E+00   0.0000000E+00   0.0000000E+00   0.0000000E+00   0.0000000E+00   0.0000000E+00   0.0000000E+00   0.0000000E+00   0.0000000E+00   0.0000000E+00   0.0000000E+00   0.0000000E+00   0.0000000E+00   0.0000000E+00   0.0000000E+00   0.0000000E+00   0.0000000E+00   0.0000000E+00   0.0000000E+00   0.0000000E+00   0.0000000E+00   0.0000000E+00   0.0000000E+00   0.0000000E+00   0.0000000E+00   0.0000000E+00   0.0000000E+00   0.0000000E+00   0.0000000E+00   0.0000000E+00   0.0000000E+00   0.0000000E+00   0.0000000E+00   0.0000000E+00   0.0000000E+00   0.0000000E+00   0.0000000E+00   0.0000000E+00   0.0000000E+00   0.0000000E+00   0.0000000E+00   0.0000000E+00   0.0000000E+00   0.0000000E+00   0.0000000E+00   0.0000000E+00   0.0000000E+00   0.0000000E+00   0.0000000E+00   0.0000000E+00   0.0000000E+00   0.0000000E+00   0.0000000E+00   0.0000000E+00   0.0000000E+00   0.0000000E+00   0.0000000E+00   0.0000000E+00   0.0000000E+00   0.0000000E+00   0.0000000E+00   0.0000000E+00   0.0000000E+00   0.0000000E+00   0.0000000E+00   0.0000000E+00   0.0000000E+00   0.0000000E+00   0.0000000E+00   0.0000000E+00   0.0000000E+00   0.0000000E+00   0.0000000E+00   0.0000000E+00   0.0000000E+00   0.0000000E+00   0.0000000E+00   0.0000000E+00   0.0000000E+00   0.0000000E+00   0.0000000E+00   0.0000000E+00   0.0000000E+00   0.0000000E+00   0.0000000E+00   0.0000000E+00   0.0000000E+00   0.0000000E+00   0.0000000E+00   0.0000000E+00   0.0000000E+00   0.0000000E+00   0.0000000E+00   0.0000000E+00   0.0000000E+00   0.0000000E+00   0.0000000E+00   0.0000000E+00   0.0000000E+00   0.0000000E+00   0.0000000E+00   0.0000000E+00   0.0000000E+00   0.0000000E+00   0.0000000E+00   0.0000000E+00   0.0000000E+00   0.0000000E+00   0.0000000E+00   0.0000000E+00   0.0000000E+00   0.0000000E+00   0.0000000E+00   0.0000000E+00   0.0000000E+00   0.0000000E+00   0.0000000E+00   0.0000000E+00   0.0000000E+00   0.0000000E+00   0.0000000E+00   0.0000000E+00   0.0000000E+00   0.0000000E+00   0.0000000E+00   0.0000000E+00   0.0000000E+00   0.0000000E+00   0.0000000E+00   0.0000000E+00   0.0000000E+00   0.0000000E+00   0.0000000E+00   0.0000000E+00   0.0000000E+00   0.0000000E+00   0.0000000E+00   0.0000000E+00   0.0000000E+00   0.0000000E+00   0.0000000E+00   0.0000000E+00   0.0000000E+00   0.0000000E+00   0.0000000E+00   0.0000000E+00   0.0000000E+00   0.0000000E+00   0.0000000E+00   0.0000000E+00   0.0000000E+00   0.0000000E+00   0.0000000E+00   0.0000000E+00   0.0000000E+00   0.0000000E+00   0.0000000E+00   0.0000000E+00   0.0000000E+00   0.0000000E+00   0.0000000E+00   0.0000000E+00   0.0000000E+00   0.0000000E+00   0.0000000E+00   0.0000000E+00   0.0000000E+00   0.0000000E+00   0.0000000E+00   0.0000000E+00   0.0000000E+00   0.0000000E+00   0.0000000E+00   0.0000000E+00   0.0000000E+00   0.0000000E+00   0.0000000E+00   0.0000000E+00   0.0000000E+00   0.0000000E+00   0.0000000E+00   0.0000000E+00   0.0000000E+00   0.0000000E+00   0.0000000E+00   0.0000000E+00   0.0000000E+00   0.0000000E+00   0.0000000E+00   0.0000000E+00   0.0000000E+00   0.0000000E+00   0.0000000E+00   0.0000000E+00   0.0000000E+00   0.0000000E+00   0.0000000E+00   0.0000000E+00   0.0000000E+00   0.0000000E+00   0.0000000E+00   0.0000000E+00   0.0000000E+00   0.0000000E+00   0.0000000E+00   0.0000000E+00   0.0000000E+00   0.0000000E+00   0.0000000E+00   0.0000000E+00   0.0000000E+00   0.0000000E+00   0.0000000E+00   0.0000000E+00   0.0000000E+00   0.0000000E+00   0.0000000E+00   0.0000000E+00   0.0000000E+00   0.0000000E+00   0.0000000E+00   0.0000000E+00   0.0000000E+00   0.0000000E+00   0.0000000E+00   0.0000000E+00   0.0000000E+00   0.0000000E+00   0.0000000E+00   0.0000000E+00   0.0000000E+00   0.0000000E+00   0.0000000E+00   0.0000000E+00   0.0000000E+00   0.0000000E+00   0.0000000E+00   0.0000000E+00   0.0000000E+00   0.0000000E+00   0.0000000E+00   0.0000000E+00   0.0000000E+00   0.0000000E+00   0.0000000E+00   0.0000000E+00   0.0000000E+00   0.0000000E+00   0.0000000E+00   0.0000000E+00   0.0000000E+00   0.0000000E+00   0.0000000E+00   0.0000000E+00   0.0000000E+00   0.0000000E+00   0.0000000E+00   0.0000000E+00   0.0000000E+00   0.0000000E+00   0.0000000E+00   0.0000000E+00   0.0000000E+00   0.0000000E+00   0.0000000E+00   0.0000000E+00   0.0000000E+00   0.0000000E+00   0.0000000E+00   0.0000000E+00   0.0000000E+00   0.0000000E+00   0.0000000E+00   0.0000000E+00   0.0000000E+00   0.0000000E+00   0.0000000E+00   0.0000000E+00   0.0000000E+00   0.0000000E+00   0.0000000E+00   0.0000000E+00   0.0000000E+00   0.0000000E+00   0.0000000E+00   0.0000000E+00   0.0000000E+00   0.0000000E+00   0.0000000E+00   0.0000000E+00   0.0000000E+00   0.0000000E+00   0.0000000E+00   0.0000000E+00   0.0000000E+00   0.0000000E+00   0.0000000E+00   0.0000000E+00   0.0000000E+00   0.0000000E+00   0.0000000E+00   0.0000000E+00   0.0000000E+00   0.0000000E+00   0.0000000E+00   0.0000000E+00   0.0000000E+00   0.0000000E+00   0.0000000E+00   0.0000000E+00   0.0000000E+00   0.0000000E+00   0.0000000E+00   0.0000000E+00   0.0000000E+00   0.0000000E+00   0.0000000E+00   0.0000000E+00   0.0000000E+00   0.0000000E+00   0.0000000E+00   0.0000000E+00   0.0000000E+00   0.0000000E+00   0.0000000E+00   0.0000000E+00   0.0000000E+00   0.0000000E+00   0.0000000E+00   0.0000000E+00   0.0000000E+00   0.0000000E+00   0.0000000E+00   0.0000000E+00   0.0000000E+00   0.0000000E+00   0.0000000E+00   0.0000000E+00   0.0000000E+00   0.0000000E+00   0.0000000E+00   0.0000000E+00   0.0000000E+00   0.0000000E+00   0.0000000E+00   0.0000000E+00   0.0000000E+00   0.0000000E+00   0.0000000E+00   0.0000000E+00   0.0000000E+00   0.0000000E+00   0.0000000E+00   0.0000000E+00   0.0000000E+00   0.0000000E+00   0.0000000E+00   0.0000000E+00   0.0000000E+00   0.0000000E+00   0.0000000E+00   0.0000000E+00   0.0000000E+00   0.0000000E+00   0.0000000E+00   0.0000000E+00   0.0000000E+00   0.0000000E+00   0.0000000E+00   0.0000000E+00   0.0000000E+00   0.0000000E+00   0.0000000E+00   0.0000000E+00   0.0000000E+00   0.0000000E+00   0.0000000E+00   0.0000000E+00   0.0000000E+00   0.0000000E+00   0.0000000E+00   0.0000000E+00   0.0000000E+00   0.0000000E+00   0.0000000E+00   0.0000000E+00   0.0000000E+00   0.0000000E+00   0.0000000E+00   0.0000000E+00   0.0000000E+00   0.0000000E+00   0.0000000E+00   0.0000000E+00   0.0000000E+00   0.0000000E+00   0.0000000E+00   0.0000000E+00   0.0000000E+00   0.0000000E+00   0.0000000E+00   0.0000000E+00   0.0000000E+00   0.0000000E+00   0.0000000E+00   0.0000000E+00   0.0000000E+00   0.0000000E+00   0.0000000E+00   0.0000000E+00   0.0000000E+00   0.0000000E+00   0.0000000E+00   0.0000000E+00   0.0000000E+00   0.0000000E+00   0.0000000E+00   0.0000000E+00   0.0000000E+00   0.0000000E+00   0.0000000E+00   0.0000000E+00   0.0000000E+00   0.0000000E+00   0.0000000E+00   0.0000000E+00   0.0000000E+00   0.0000000E+00   0.0000000E+00   0.0000000E+00   0.0000000E+00   0.0000000E+00   0.0000000E+00   0.0000000E+00   0.0000000E+00   0.0000000E+00   0.0000000E+00   0.0000000E+00   0.0000000E+00   0.0000000E+00   0.0000000E+00   0.0000000E+00   0.0000000E+00   0.0000000E+00   0.0000000E+00   0.0000000E+00   0.0000000E+00   0.0000000E+00   0.0000000E+00   0.0000000E+00   0.0000000E+00   0.0000000E+00   0.0000000E+00   0.0000000E+00   0.0000000E+00   0.0000000E+00   0.0000000E+00   0.0000000E+00   0.0000000E+00   0.0000000E+00   0.0000000E+00   0.0000000E+00   0.0000000E+00   0.0000000E+00   0.0000000E+00   0.0000000E+00   0.0000000E+00   0.0000000E+00   0.0000000E+00   0.0000000E+00   0.0000000E+00   0.0000000E+00   0.0000000E+00   0.0000000E+00   0.0000000E+00   0.0000000E+00   0.0000000E+00   0.0000000E+00   0.0000000E+00   0.0000000E+00   0.0000000E+00   0.0000000E+00   0.0000000E+00   0.0000000E+00   0.0000000E+00   0.0000000E+00   0.0000000E+00   0.0000000E+00   0.0000000E+00   0.0000000E+00   0.0000000E+00   0.0000000E+00   0.0000000E+00   0.0000000E+00   0.0000000E+00   0.0000000E+00   0.0000000E+00   0.0000000E+00   0.0000000E+00   0.0000000E+00   0.0000000E+00   0.0000000E+00   0.0000000E+00   0.0000000E+00   0.0000000E+00   0.0000000E+00   0.0000000E+00   0.0000000E+00   0.0000000E+00   0.0000000E+00   0.0000000E+00   0.0000000E+00   0.0000000E+00   0.0000000E+00   0.0000000E+00   0.0000000E+00   0.0000000E+00   0.0000000E+00   0.0000000E+00   0.0000000E+00   0.0000000E+00   0.0000000E+00   0.0000000E+00   0.0000000E+00   0.0000000E+00   0.0000000E+00   0.0000000E+00   0.0000000E+00   0.0000000E+00   0.0000000E+00   0.0000000E+00   0.0000000E+00   0.0000000E+00   0.0000000E+00   0.0000000E+00   0.0000000E+00   0.0000000E+00   0.0000000E+00   0.0000000E+00   0.0000000E+00   0.0000000E+00   0.0000000E+00   0.0000000E+00   0.0000000E+00   0.0000000E+00   0.0000000E+00   0.0000000E+00   0.0000000E+00   0.0000000E+00   0.0000000E+00   0.0000000E+00   0.0000000E+00   0.0000000E+00   0.0000000E+00   0.0000000E+00   0.0000000E+00   0.0000000E+00   0.0000000E+00   0.0000000E+00   0.0000000E+00   0.0000000E+00   0.0000000E+00   0.0000000E+00   0.0000000E+00   0.0000000E+00   0.0000000E+00   0.0000000E+00   0.0000000E+00   0.0000000E+00   0.0000000E+00   0.0000000E+00   0.0000000E+00   0.0000000E+00   0.0000000E+00   0.0000000E+00   0.0000000E+00   0.0000000E+00   0.0000000E+00   0.0000000E+00   0.0000000E+00   0.0000000E+00   0.0000000E+00   0.0000000E+00   0.0000000E+00   0.0000000E+00   0.0000000E+00   0.0000000E+00   0.0000000E+00   0.0000000E+00   0.0000000E+00   0.0000000E+00   0.0000000E+00   0.0000000E+00   0.0000000E+00   0.0000000E+00   0.0000000E+00   0.0000000E+00   0.0000000E+00   0.0000000E+00   0.0000000E+00   0.0000000E+00   0.0000000E+00   0.0000000E+00   0.0000000E+00   0.0000000E+00   0.0000000E+00   0.0000000E+00   0.0000000E+00   0.0000000E+00   0.0000000E+00   0.0000000E+00   0.0000000E+00   0.0000000E+00   0.0000000E+00   0.0000000E+00   0.0000000E+00   0.0000000E+00   0.0000000E+00   0.0000000E+00   0.0000000E+00   0.0000000E+00   0.0000000E+00   0.0000000E+00   0.0000000E+00   0.0000000E+00   0.0000000E+00   0.0000000E+00   0.0000000E+00   0.0000000E+00   0.0000000E+00   0.0000000E+00   0.0000000E+00   0.0000000E+00   0.0000000E+00   0.0000000E+00   0.0000000E+00   0.0000000E+00   0.0000000E+00   0.0000000E+00   0.0000000E+00   0.0000000E+00   0.0000000E+00   0.0000000E+00   0.0000000E+00   0.0000000E+00   0.0000000E+00   0.0000000E+00   0.0000000E+00   0.0000000E+00   0.0000000E+00   0.0000000E+00   0.0000000E+00   0.0000000E+00   0.0000000E+00   0.0000000E+00   0.0000000E+00   0.0000000E+00   0.0000000E+00   0.0000000E+00   0.0000000E+00   0.0000000E+00   0.0000000E+00   0.0000000E+00   0.0000000E+00   0.0000000E+00   0.0000000E+00   0.0000000E+00   0.0000000E+00   0.0000000E+00   0.0000000E+00   0.0000000E+00   0.0000000E+00   0.0000000E+00   0.0000000E+00   0.0000000E+00   0.0000000E+00   0.0000000E+00   0.0000000E+00   0.0000000E+00   0.0000000E+00   0.0000000E+00   0.0000000E+00   0.0000000E+00   0.0000000E+00   0.0000000E+00   0.0000000E+00   0.0000000E+00   0.0000000E+00   0.0000000E+00   0.0000000E+00   0.0000000E+00   0.0000000E+00   0.0000000E+00   0.0000000E+00   0.0000000E+00   0.0000000E+00   0.0000000E+00   0.0000000E+00   0.0000000E+00   0.0000000E+00   0.0000000E+00   0.0000000E+00   0.0000000E+00   0.0000000E+00   0.0000000E+00   0.0000000E+00   0.0000000E+00   0.0000000E+00   0.0000000E+00   0.0000000E+00   0.0000000E+00   0.0000000E+00   0.0000000E+00   0.0000000E+00   0.0000000E+00   0.0000000E+00   0.0000000E+00   0.0000000E+00   0.0000000E+00   0.0000000E+00   0.0000000E+00   0.0000000E+00   0.0000000E+00   0.0000000E+00   0.0000000E+00   0.0000000E+00   0.0000000E+00   0.0000000E+00   0.0000000E+00   0.0000000E+00   0.0000000E+00   0.0000000E+00   0.0000000E+00   0.0000000E+00   0.0000000E+00   0.0000000E+00   0.0000000E+00   0.0000000E+00   0.0000000E+00   0.0000000E+00   0.0000000E+00   0.0000000E+00   0.0000000E+00   0.0000000E+00   0.0000000E+00   0.0000000E+00   0.0000000E+00   0.0000000E+00   0.0000000E+00   0.0000000E+00   0.0000000E+00   0.0000000E+00   0.0000000E+00   0.0000000E+00   0.0000000E+00   0.0000000E+00   0.0000000E+00   0.0000000E+00   0.0000000E+00   0.0000000E+00   0.0000000E+00   0.0000000E+00   0.0000000E+00   0.0000000E+00   0.0000000E+00   0.0000000E+00   0.0000000E+00   0.0000000E+00   0.0000000E+00   0.0000000E+00   0.0000000E+00   0.0000000E+00   0.0000000E+00   0.0000000E+00   0.0000000E+00   0.0000000E+00   0.0000000E+00   0.0000000E+00   0.0000000E+00   0.0000000E+00   0.0000000E+00   0.0000000E+00   0.0000000E+00   0.0000000E+00   0.0000000E+00   0.0000000E+00   0.0000000E+00   0.0000000E+00   0.0000000E+00   0.0000000E+00   0.0000000E+00   0.0000000E+00   0.0000000E+00   0.0000000E+00   0.0000000E+00   0.0000000E+00   0.0000000E+00   0.0000000E+00   0.0000000E+00   0.0000000E+00   0.0000000E+00   0.0000000E+00   0.0000000E+00   0.0000000E+00   0.0000000E+00   0.0000000E+00   0.0000000E+00   0.0000000E+00   0.0000000E+00   0.0000000E+00   0.0000000E+00   0.0000000E+00   0.0000000E+00   0.0000000E+00   0.0000000E+00   0.0000000E+00   0.0000000E+00   0.0000000E+00   0.0000000E+00   0.0000000E+00   0.0000000E+00   0.0000000E+00   0.0000000E+00   0.0000000E+00   0.0000000E+00   0.0000000E+00   0.0000000E+00   0.0000000E+00   0.0000000E+00   0.0000000E+00   0.0000000E+00   0.0000000E+00   0.0000000E+00   0.0000000E+00   0.0000000E+00   0.0000000E+00   0.0000000E+00   0.0000000E+00   0.0000000E+00   0.0000000E+00   0.0000000E+00   0.0000000E+00   0.0000000E+00   0.0000000E+00   0.0000000E+00   0.0000000E+00   0.0000000E+00   0.0000000E+00   0.0000000E+00   0.0000000E+00   0.0000000E+00   0.0000000E+00   0.0000000E+00   0.0000000E+00   0.0000000E+00   0.0000000E+00   0.0000000E+00   0.0000000E+00   0.0000000E+00   0.0000000E+00   0.0000000E+00   0.0000000E+00   0.0000000E+00   0.0000000E+00   0.0000000E+00   0.0000000E+00   0.0000000E+00   0.0000000E+00   0.0000000E+00   0.0000000E+00   0.0000000E+00   0.0000000E+00   0.0000000E+00   0.0000000E+00   0.0000000E+00   0.0000000E+00   0.0000000E+00   0.0000000E+00   0.0000000E+00   0.0000000E+00   0.0000000E+00   0.0000000E+00   0.0000000E+00   0.0000000E+00   0.0000000E+00   0.0000000E+00   0.0000000E+00   0.0000000E+00   0.0000000E+00   0.0000000E+00   0.0000000E+00   0.0000000E+00   0.0000000E+00   0.0000000E+00   0.0000000E+00   0.0000000E+00   0.0000000E+00   0.0000000E+00   0.0000000E+00   0.0000000E+00   0.0000000E+00   0.0000000E+00   0.0000000E+00   0.0000000E+00   0.0000000E+00   0.0000000E+00   0.0000000E+00   0.0000000E+00   0.0000000E+00   0.0000000E+00   0.0000000E+00   0.0000000E+00   0.0000000E+00   0.0000000E+00   0.0000000E+00   0.0000000E+00   0.0000000E+00   0.0000000E+00   0.0000000E+00   0.0000000E+00   0.0000000E+00   0.0000000E+00   0.0000000E+00   0.0000000E+00   0.0000000E+00   0.0000000E+00   0.0000000E+00   0.0000000E+00   0.0000000E+00   0.0000000E+00   0.0000000E+00   0.0000000E+00   0.0000000E+00   0.0000000E+00   0.0000000E+00   0.0000000E+00   0.0000000E+00   0.0000000E+00   0.0000000E+00   0.0000000E+00   0.0000000E+00   0.0000000E+00   0.0000000E+00   0.0000000E+00   0.0000000E+00   0.0000000E+00   0.0000000E+00   0.0000000E+00   0.0000000E+00   0.0000000E+00   0.0000000E+00   0.0000000E+00   0.0000000E+00   0.0000000E+00   0.0000000E+00   0.0000000E+00   0.0000000E+00   0.0000000E+00   0.0000000E+00   0.0000000E+00   0.0000000E+00   0.0000000E+00   0.0000000E+00   0.0000000E+00   0.0000000E+00   0.0000000E+00   0.0000000E+00   0.0000000E+00   0.0000000E+00   0.0000000E+00   0.0000000E+00   0.0000000E+00   0.0000000E+00   0.0000000E+00   0.0000000E+00   0.0000000E+00   0.0000000E+00   0.0000000E+00   0.0000000E+00   0.0000000E+00   0.0000000E+00   0.0000000E+00   0.0000000E+00   0.0000000E+00   0.0000000E+00   0.0000000E+00   0.0000000E+00   0.0000000E+00   0.0000000E+00   0.0000000E+00   0.0000000E+00   0.0000000E+00   0.0000000E+00   0.0000000E+00   0.0000000E+00   0.0000000E+00   0.0000000E+00   0.0000000E+00   0.0000000E+00   0.0000000E+00   0.0000000E+00   0.0000000E+00   0.0000000E+00   0.0000000E+00   0.0000000E+00   0.0000000E+00   0.0000000E+00   0.0000000E+00   0.0000000E+00   0.0000000E+00   0.0000000E+00   0.0000000E+00   0.0000000E+00   0.0000000E+00   0.0000000E+00   0.0000000E+00   0.0000000E+00   0.0000000E+00   0.0000000E+00   0.0000000E+00   0.0000000E+00   0.0000000E+00   0.0000000E+00   0.0000000E+00   0.0000000E+00   0.0000000E+00   0.0000000E+00   0.0000000E+00   0.0000000E+00   0.0000000E+00   0.0000000E+00   0.0000000E+00   0.0000000E+00   0.0000000E+00   0.0000000E+00   0.0000000E+00   0.0000000E+00   0.0000000E+00   0.0000000E+00   0.0000000E+00   0.0000000E+00   0.0000000E+00   0.0000000E+00   0.0000000E+00   0.0000000E+00   0.0000000E+00   0.0000000E+00   0.0000000E+00   0.0000000E+00   0.0000000E+00   0.0000000E+00   0.0000000E+00   0.0000000E+00   0.0000000E+00   0.0000000E+00   0.0000000E+00   0.0000000E+00   0.0000000E+00   0.0000000E+00   0.0000000E+00   0.0000000E+00   0.0000000E+00   0.0000000E+00   0.0000000E+00   0.0000000E+00   0.0000000E+00   0.0000000E+00   0.0000000E+00   0.0000000E+00   0.0000000E+00   0.0000000E+00   0.0000000E+00   0.0000000E+00   0.0000000E+00   0.0000000E+00   0.0000000E+00   0.0000000E+00   0.0000000E+00   0.0000000E+00   0.0000000E+00   0.0000000E+00   0.0000000E+00   0.0000000E+00   0.0000000E+00   0.0000000E+00   0.0000000E+00   0.0000000E+00   0.0000000E+00   0.0000000E+00   0.0000000E+00   0.0000000E+00   0.0000000E+00   0.0000000E+00   0.0000000E+00   0.0000000E+00   0.0000000E+00   0.0000000E+00   0.0000000E+00   0.0000000E+00   0.0000000E+00   0.0000000E+00   0.0000000E+00   0.0000000E+00   0.0000000E+00   0.0000000E+00   0.0000000E+00   0.0000000E+00   0.0000000E+00   0.0000000E+00   0.0000000E+00   0.0000000E+00   0.0000000E+00   0.0000000E+00   0.0000000E+00   0.0000000E+00   0.0000000E+00   0.0000000E+00   0.0000000E+00   0.0000000E+00   0.0000000E+00   0.0000000E+00   0.0000000E+00   0.0000000E+00   0.0000000E+00   0.0000000E+00   0.0000000E+00   0.0000000E+00   0.0000000E+00   0.0000000E+00   0.0000000E+00   0.0000000E+00   0.0000000E+00   0.0000000E+00   0.0000000E+00   0.0000000E+00   0.0000000E+00   0.0000000E+00   0.0000000E+00   0.0000000E+00   0.0000000E+00   0.0000000E+00   0.0000000E+00   0.0000000E+00   0.0000000E+00   0.0000000E+00   0.0000000E+00   0.0000000E+00   0.0000000E+00   0.0000000E+00   0.0000000E+00   0.0000000E+00   0.0000000E+00   0.0000000E+00   0.0000000E+00   0.0000000E+00   0.0000000E+00   0.0000000E+00   0.0000000E+00   0.0000000E+00   0.0000000E+00   0.0000000E+00   0.0000000E+00   0.0000000E+00   0.0000000E+00   0.0000000E+00   0.0000000E+00   0.0000000E+00   0.0000000E+00   0.0000000E+00   0.0000000E+00   0.0000000E+00   0.0000000E+00   0.0000000E+00   0.0000000E+00   0.0000000E+00   0.0000000E+00   0.0000000E+00   0.0000000E+00   0.0000000E+00   0.0000000E+00   0.0000000E+00   0.0000000E+00   0.0000000E+00   0.0000000E+00   0.0000000E+00   0.0000000E+00   0.0000000E+00   0.0000000E+00   0.0000000E+00   0.0000000E+00   0.0000000E+00   0.0000000E+00   0.0000000E+00   0.0000000E+00   0.0000000E+00   0.0000000E+00   0.0000000E+00   0.0000000E+00   0.0000000E+00   0.0000000E+00   0.0000000E+00   0.0000000E+00   0.0000000E+00   0.0000000E+00   0.0000000E+00   0.0000000E+00   0.0000000E+00   0.0000000E+00   0.0000000E+00   0.0000000E+00   0.0000000E+00   0.0000000E+00   0.0000000E+00   0.0000000E+00   0.0000000E+00   0.0000000E+00   0.0000000E+00   0.0000000E+00   0.0000000E+00   0.0000000E+00   0.0000000E+00   0.0000000E+00   0.0000000E+00   0.0000000E+00   0.0000000E+00   0.0000000E+00   0.0000000E+00   0.0000000E+00   0.0000000E+00   0.0000000E+00   0.0000000E+00   0.0000000E+00   0.0000000E+00   0.0000000E+00   0.0000000E+00   0.0000000E+00   0.0000000E+00   0.0000000E+00   0.0000000E+00   0.0000000E+00   0.0000000E+00   0.0000000E+00   0.0000000E+00   0.0000000E+00   0.0000000E+00   0.0000000E+00   0.0000000E+00   0.0000000E+00   0.0000000E+00   0.0000000E+00   0.0000000E+00   0.0000000E+00   0.0000000E+00   0.0000000E+00   0.0000000E+00   0.0000000E+00   0.0000000E+00   0.0000000E+00   0.0000000E+00   0.0000000E+00   0.0000000E+00   0.0000000E+00   0.0000000E+00   0.0000000E+00   0.0000000E+00   0.0000000E+00   0.0000000E+00   0.0000000E+00   0.0000000E+00   0.0000000E+00   0.0000000E+00   0.0000000E+00   0.0000000E+00   0.0000000E+00   0.0000000E+00   0.0000000E+00   0.0000000E+00   0.0000000E+00   0.0000000E+00   0.0000000E+00   0.0000000E+00   0.0000000E+00   0.0000000E+00   0.0000000E+00   0.0000000E+00   0.0000000E+00   0.0000000E+00   0.0000000E+00   0.0000000E+00   0.0000000E+00   0.0000000E+00   0.0000000E+00   0.0000000E+00   0.0000000E+00   0.0000000E+00   0.0000000E+00   0.0000000E+00   0.0000000E+00   0.0000000E+00   0.0000000E+00   0.0000000E+00   0.0000000E+00   0.0000000E+00   0.0000000E+00   0.0000000E+00   0.0000000E+00   0.0000000E+00   0.0000000E+00   0.0000000E+00   0.0000000E+00   0.0000000E+00   0.0000000E+00   0.0000000E+00   0.0000000E+00   0.0000000E+00   0.0000000E+00   0.0000000E+00   0.0000000E+00   0.0000000E+00   0.0000000E+00   0.0000000E+00   0.0000000E+00   0.0000000E+00   0.0000000E+00   0.0000000E+00   0.0000000E+00   0.0000000E+00   0.0000000E+00   0.0000000E+00   0.0000000E+00   0.0000000E+00   0.0000000E+00   0.0000000E+00   0.0000000E+00   0.0000000E+00   0.0000000E+00   0.0000000E+00   0.0000000E+00   0.0000000E+00   0.0000000E+00   0.0000000E+00   0.0000000E+00   0.0000000E+00   0.0000000E+00   0.0000000E+00   0.0000000E+00   0.0000000E+00   0.0000000E+00   0.0000000E+00   0.0000000E+00   0.0000000E+00   0.0000000E+00   0.0000000E+00   0.0000000E+00   0.0000000E+00   0.0000000E+00   0.0000000E+00   0.0000000E+00   0.0000000E+00   0.0000000E+00   0.0000000E+00   0.0000000E+00   0.0000000E+00   0.0000000E+00   0.0000000E+00   0.0000000E+00   0.0000000E+00   0.0000000E+00   0.0000000E+00   0.0000000E+00   0.0000000E+00   0.0000000E+00   0.0000000E+00   0.0000000E+00   0.0000000E+00   0.0000000E+00   0.0000000E+00   0.0000000E+00   0.0000000E+00   0.0000000E+00   0.0000000E+00   0.0000000E+00   0.0000000E+00   0.0000000E+00   0.0000000E+00   0.0000000E+00   0.0000000E+00   0.0000000E+00   0.0000000E+00   0.0000000E+00   0.0000000E+00   0.0000000E+00   0.0000000E+00   0.0000000E+00   0.0000000E+00   0.0000000E+00   0.0000000E+00   0.0000000E+00   0.0000000E+00   0.0000000E+00   0.0000000E+00   0.0000000E+00   0.0000000E+00   0.0000000E+00   0.0000000E+00   0.0000000E+00   0.0000000E+00   0.0000000E+00   0.0000000E+00   0.0000000E+00   0.0000000E+00   0.0000000E+00   0.0000000E+00   0.0000000E+00   0.0000000E+00   0.0000000E+00   0.0000000E+00   0.0000000E+00   0.0000000E+00   0.0000000E+00   0.0000000E+00   0.0000000E+00   0.0000000E+00   0.0000000E+00   0.0000000E+00   0.0000000E+00   0.0000000E+00   0.0000000E+00   0.0000000E+00   0.0000000E+00   0.0000000E+00   0.0000000E+00   0.0000000E+00   0.0000000E+00   0.0000000E+00   0.0000000E+00   0.0000000E+00   0.0000000E+00   0.0000000E+00   0.0000000E+00   0.0000000E+00   0.0000000E+00   0.0000000E+00   0.0000000E+00   0.0000000E+00   0.0000000E+00   0.0000000E+00   0.0000000E+00   0.0000000E+00   0.0000000E+00   0.0000000E+00   0.0000000E+00   0.0000000E+00   0.0000000E+00   0.0000000E+00   0.0000000E+00   0.0000000E+00   0.0000000E+00   0.0000000E+00   0.0000000E+00   0.0000000E+00   0.0000000E+00   0.0000000E+00   0.0000000E+00   0.0000000E+00   0.0000000E+00   0.0000000E+00   0.0000000E+00   0.0000000E+00   0.0000000E+00   0.0000000E+00   0.0000000E+00   0.0000000E+00   0.0000000E+00   0.0000000E+00   0.0000000E+00   0.0000000E+00   0.0000000E+00   0.0000000E+00   0.0000000E+00   0.0000000E+00   0.0000000E+00   0.0000000E+00   0.0000000E+00   0.0000000E+00   0.0000000E+00   0.0000000E+00   0.0000000E+00   0.0000000E+00   0.0000000E+00   0.0000000E+00   0.0000000E+00   0.0000000E+00   0.0000000E+00   0.0000000E+00   0.0000000E+00   0.0000000E+00   0.0000000E+00   0.0000000E+00   0.0000000E+00   0.0000000E+00   0.0000000E+00   0.0000000E+00   0.0000000E+00   0.0000000E+00   0.0000000E+00   0.0000000E+00   0.0000000E+00   0.0000000E+00   0.0000000E+00   0.0000000E+00   0.0000000E+00   0.0000000E+00   0.0000000E+00   0.0000000E+00   0.0000000E+00   0.0000000E+00   0.0000000E+00   0.0000000E+00   0.0000000E+00   0.0000000E+00   0.0000000E+00   0.0000000E+00   0.0000000E+00   0.0000000E+00   0.0000000E+00   0.0000000E+00   0.0000000E+00   0.0000000E+00   0.0000000E+00   0.0000000E+00   0.0000000E+00   0.0000000E+00   0.0000000E+00   0.0000000E+00   0.0000000E+00   0.0000000E+00   0.0000000E+00   0.0000000E+00   0.0000000E+00   0.0000000E+00   0.0000000E+00   0.0000000E+00   0.0000000E+00   0.0000000E+00   0.0000000E+00   0.0000000E+00   0.0000000E+00   0.0000000E+00   0.0000000E+00   0.0000000E+00   0.0000000E+00   0.0000000E+00   0.0000000E+00   0.0000000E+00   0.0000000E+00   0.0000000E+00   0.0000000E+00   0.0000000E+00   0.0000000E+00   0.0000000E+00   0.0000000E+00   0.0000000E+00   0.0000000E+00   0.0000000E+00   0.0000000E+00   0.0000000E+00   0.0000000E+00   0.0000000E+00   0.0000000E+00   0.0000000E+00   0.0000000E+00   0.0000000E+00   0.0000000E+00   0.0000000E+00   0.0000000E+00   0.0000000E+00   0.0000000E+00   0.0000000E+00   0.0000000E+00   0.0000000E+00   0.0000000E+00   0.0000000E+00   0.0000000E+00   0.0000000E+00   0.0000000E+00   0.0000000E+00   0.0000000E+00   0.0000000E+00   0.0000000E+00   0.0000000E+00   0.0000000E+00   0.0000000E+00   0.0000000E+00   0.0000000E+00   0.0000000E+00   0.0000000E+00   0.0000000E+00   0.0000000E+00   0.0000000E+00   0.0000000E+00   0.0000000E+00   0.0000000E+00   0.0000000E+00   0.0000000E+00   0.0000000E+00   0.0000000E+00   0.0000000E+00   0.0000000E+00   0.0000000E+00   0.0000000E+00   0.0000000E+00   0.0000000E+00   0.0000000E+00   0.0000000E+00   0.0000000E+00   0.0000000E+00   0.0000000E+00   0.0000000E+00   0.0000000E+00   0.0000000E+00   0.0000000E+00   0.0000000E+00   0.0000000E+00   0.0000000E+00   0.0000000E+00   0.0000000E+00   0.0000000E+00   0.0000000E+00   0.0000000E+00   0.0000000E+00   0.0000000E+00   0.0000000E+00   0.0000000E+00   0.0000000E+00   0.0000000E+00   0.0000000E+00   0.0000000E+00   0.0000000E+00   0.0000000E+00   0.0000000E+00   0.0000000E+00   0.0000000E+00   0.0000000E+00   0.0000000E+00   0.0000000E+00   0.0000000E+00   0.0000000E+00   0.0000000E+00   0.0000000E+00   0.0000000E+00   0.0000000E+00   0.0000000E+00   0.0000000E+00   0.0000000E+00   0.0000000E+00   0.0000000E+00   0.0000000E+00   0.0000000E+00   0.0000000E+00   0.0000000E+00   0.0000000E+00   0.0000000E+00   0.0000000E+00   0.0000000E+00   0.0000000E+00   0.0000000E+00   0.0000000E+00   0.0000000E+00   0.0000000E+00   0.0000000E+00   0.0000000E+00   0.0000000E+00   0.0000000E+00   0.0000000E+00   0.0000000E+00   0.0000000E+00   0.0000000E+00   0.0000000E+00   0.0000000E+00   0.0000000E+00   0.0000000E+00   0.0000000E+00   0.0000000E+00   0.0000000E+00   0.0000000E+00   0.0000000E+00   0.0000000E+00   0.0000000E+00   0.0000000E+00   0.0000000E+00   0.0000000E+00   0.0000000E+00   0.0000000E+00   0.0000000E+00   0.0000000E+00   0.0000000E+00   0.0000000E+00   0.0000000E+00   0.0000000E+00   0.0000000E+00   0.0000000E+00   0.0000000E+00   0.0000000E+00   0.0000000E+00   0.0000000E+00   0.0000000E+00   0.0000000E+00   0.0000000E+00   0.0000000E+00   0.0000000E+00   0.0000000E+00   0.0000000E+00   0.0000000E+00   0.0000000E+00   0.0000000E+00   0.0000000E+00   0.0000000E+00   0.0000000E+00   0.0000000E+00   0.0000000E+00   0.0000000E+00   0.0000000E+00   0.0000000E+00   0.0000000E+00   0.0000000E+00   0.0000000E+00   0.0000000E+00   0.0000000E+00   0.0000000E+00   0.0000000E+00   0.0000000E+00   0.0000000E+00   0.0000000E+00   0.0000000E+00   0.0000000E+00   0.0000000E+00   0.0000000E+00   0.0000000E+00   0.0000000E+00   0.0000000E+00   0.0000000E+00   0.0000000E+00   0.0000000E+00   0.0000000E+00   0.0000000E+00   0.0000000E+00   0.0000000E+00   0.0000000E+00   0.0000000E+00   0.0000000E+00   0.0000000E+00   0.0000000E+00   0.0000000E+00   0.0000000E+00   0.0000000E+00   0.0000000E+00   0.0000000E+00   0.0000000E+00   0.0000000E+00   0.0000000E+00   0.0000000E+00   0.0000000E+00   0.0000000E+00   0.0000000E+00   0.0000000E+00   0.0000000E+00   0.0000000E+00   0.0000000E+00   0.0000000E+00   0.0000000E+00   0.0000000E+00   0.0000000E+00   0.0000000E+00   0.0000000E+00   0.0000000E+00   0.0000000E+00   0.0000000E+00   0.0000000E+00   0.0000000E+00   0.0000000E+00   0.0000000E+00   0.0000000E+00   0.0000000E+00   0.0000000E+00   0.0000000E+00   0.0000000E+00   0.0000000E+00   0.0000000E+00   0.0000000E+00   0.0000000E+00   0.0000000E+00   0.0000000E+00   0.0000000E+00   0.0000000E+00   0.0000000E+00   0.0000000E+00   0.0000000E+00   0.0000000E+00   0.0000000E+00   0.0000000E+00   0.0000000E+00   0.0000000E+00   0.0000000E+00   0.0000000E+00   0.0000000E+00   0.0000000E+00   0.0000000E+00   0.0000000E+00   0.0000000E+00   0.0000000E+00   0.0000000E+00   0.0000000E+00   0.0000000E+00   0.0000000E+00   0.0000000E+00   0.0000000E+00   0.0000000E+00   0.0000000E+00   0.0000000E+00   0.0000000E+00   0.0000000E+00   0.0000000E+00   0.0000000E+00   0.0000000E+00   0.0000000E+00   0.0000000E+00   0.0000000E+00   0.0000000E+00   0.0000000E+00   0.0000000E+00   0.0000000E+00   0.0000000E+00   0.0000000E+00   0.0000000E+00   0.0000000E+00   0.0000000E+00   0.0000000E+00   0.0000000E+00   0.0000000E+00   0.0000000E+00   0.0000000E+00   0.0000000E+00   0.0000000E+00   0.0000000E+00   0.0000000E+00   0.0000000E+00   0.0000000E+00   0.0000000E+00   0.0000000E+00   0.0000000E+00   0.0000000E+00   0.0000000E+00   0.0000000E+00   0.0000000E+00   0.0000000E+00   0.0000000E+00   0.0000000E+00   0.0000000E+00   0.0000000E+00   0.0000000E+00   0.0000000E+00   0.0000000E+00   0.0000000E+00   0.0000000E+00   0.0000000E+00   0.0000000E+00   0.0000000E+00   0.0000000E+00   0.0000000E+00   0.0000000E+00   0.0000000E+00   0.0000000E+00   0.0000000E+00   0.0000000E+00   0.0000000E+00   0.0000000E+00   0.0000000E+00   0.0000000E+00   0.0000000E+00   0.0000000E+00   0.0000000E+00   0.0000000E+00   0.0000000E+00   0.0000000E+00   0.0000000E+00   0.0000000E+00   0.0000000E+00   0.0000000E+00   0.0000000E+00   0.0000000E+00   0.0000000E+00   0.0000000E+00   0.0000000E+00   0.0000000E+00   0.0000000E+00   0.0000000E+00   0.0000000E+00   0.0000000E+00   0.0000000E+00   0.0000000E+00   0.0000000E+00   0.0000000E+00   0.0000000E+00   0.0000000E+00   0.0000000E+00   0.0000000E+00   0.0000000E+00   0.0000000E+00   0.0000000E+00   0.0000000E+00   0.0000000E+00   0.0000000E+00   0.0000000E+00   0.0000000E+00  -3.4246713E-01   0.0000000E+00  -1.3095063E-01  -4.0435994E-01   0.0000000E+00  -1.2231860E-01  -4.5553219E-01   0.0000000E+00  -1.0798903E-01  -4.9564409E-01   0.0000000E+00  -9.1703430E-02  -5.2610469E-01   0.0000000E+00  -7.4758068E-02  -3.4240824E-01   0.0000000E+00  -1.7372316E-01  -4.5694864E-01   0.0000000E+00  -1.5520242E-01  -5.4680192E-01   0.0000000E+00  -1.4735439E-01  -6.1661363E-01   0.0000000E+00  -1.3232134E-01  -6.6943622E-01   0.0000000E+00  -1.1376949E-01  -7.0847678E-01   0.0000000E+00  -9.3449123E-02  -4.6665269E-01   0.0000000E+00  -1.8905777E-01  -6.1563087E-01   0.0000000E+00  -1.7205441E-01  -7.3098457E-01   0.0000000E+00  -1.5982085E-01  -8.2050514E-01   0.0000000E+00  -1.4254645E-01  -8.8720274E-01   0.0000000E+00  -1.2331606E-01  -9.3589187E-01   0.0000000E+00  -1.0160118E-01  -6.2095892E-01   0.0000000E+00  -2.0186460E-01  -8.1023097E-01   0.0000000E+00  -1.8035454E-01  -9.5197433E-01   0.0000000E+00  -1.6597247E-01  -1.0604143E+00   0.0000000E+00  -1.4712375E-01  -1.1408813E+00   0.0000000E+00  -1.2668310E-01  -1.1988480E+00   0.0000000E+00  -1.0408220E-01  -8.0788708E-01   0.0000000E+00  -2.1652293E-01  -1.0435152E+00   0.0000000E+00  -1.8552262E-01  -1.2138517E+00   0.0000000E+00  -1.6788751E-01  -1.3413072E+00   0.0000000E+00  -1.4733183E-01  -1.4347936E+00   0.0000000E+00  -1.2583156E-01  -1.5010567E+00   0.0000000E+00  -1.0254440E-01  -1.0358486E+00   0.0000000E+00  -2.3626149E-01  -1.3248149E+00   0.0000000E+00  -1.8941534E-01  -1.5255207E+00   0.0000000E+00  -1.6647422E-01  -1.6717142E+00   0.0000000E+00  -1.4375511E-01  -1.7768871E+00   0.0000000E+00  -1.2179267E-01  -1.8499200E+00   0.0000000E+00  -9.8271564E-02  -1.3173522E+00   0.0000000E+00  -2.6442277E-01  -1.6659019E+00   0.0000000E+00  -1.9524360E-01  -1.8974004E+00   0.0000000E+00  -1.6385251E-01  -2.0611634E+00   0.0000000E+00  -1.3781703E-01  -2.1757019E+00   0.0000000E+00  -1.1630115E-01  -2.2533376E+00   0.0000000E+00  -9.3174592E-02  -1.6683202E+00   0.0000000E+00  -3.0663729E-01  -2.0797894E+00   0.0000000E+00  -2.0790482E-01  -2.3391964E+00   0.0000000E+00  -1.6545129E-01  -2.5186250E+00   0.0000000E+00  -1.3365906E-01  -2.6396780E+00   0.0000000E+00  -1.1265413E-01  -2.7189262E+00   0.0000000E+00  -9.0484351E-02  -2.1132672E+00   0.0000000E+00  -3.5724545E-01  -2.5802417E+00   0.0000000E+00  -2.3008251E-01  -2.8633914E+00   0.0000000E+00  -1.7430842E-01  -3.0520632E+00   0.0000000E+00  -1.3874733E-01  -3.1761448E+00   0.0000000E+00  -1.1758780E-01  -3.2539399E+00   0.0000000E+00  -9.5910065E-02  -2.6945388E+00   0.0000000E+00  -3.8373280E-01  -3.1851909E+00   0.0000000E+00  -2.5633192E-01  -3.4794862E+00   0.0000000E+00  -1.9453204E-01  -3.6707091E+00   0.0000000E+00  -1.5911204E-01  -3.7944720E+00   0.0000000E+00  -1.3596264E-01  -3.8655505E+00   0.0000000E+00  -1.1630115E-01  -3.4508204E+00   0.0000000E+00  -3.8319874E-01  -3.9239993E+00   0.0000000E+00  -2.7992034E-01  -4.2046452E+00   0.0000000E+00  -2.2509956E-01  -4.3862009E+00   0.0000000E+00  -1.9694394E-01  -4.5009198E+00   0.0000000E+00  -1.7840648E-01  -4.5612288E+00   0.0000000E+00  -1.5808439E-01  -4.3266430E+00   0.0000000E+00  -5.7198763E-01  -4.8083200E+00   0.0000000E+00  -3.7488604E-01  -5.0543647E+00   0.0000000E+00  -2.9735208E-01  -5.2135363E+00   0.0000000E+00  -2.6341105E-01  -5.3058171E+00   0.0000000E+00  -2.4896869E-01  -5.3480129E+00   0.0000000E+00  -2.2753009E-01  -5.4297504E+00   0.0000000E+00  -1.3320885E+00  -5.8674464E+00   0.0000000E+00  -7.8483701E-01  -6.0524502E+00   0.0000000E+00  -5.2476597E-01  -6.1664314E+00   0.0000000E+00  -4.1060638E-01  -6.2198229E+00   0.0000000E+00  -3.7004676E-01  -6.2345810E+00   0.0000000E+00  -3.3510700E-01  -6.8996668E+00   0.0000000E+00  -2.0715218E+00  -7.1735864E+00   0.0000000E+00  -1.3506076E+00  -7.2449760E+00   0.0000000E+00  -8.8842154E-01  -7.2640676E+00   0.0000000E+00  -6.6401374E-01  -7.2563157E+00   0.0000000E+00  -5.6260133E-01  -7.2318082E+00   0.0000000E+00  -4.9133223E-01  -8.6866350E+00   0.0000000E+00  -2.5897899E+00  -8.7200336E+00   0.0000000E+00  -1.8541071E+00  -8.6163826E+00   0.0000000E+00  -1.3005474E+00  -8.5077190E+00   0.0000000E+00  -9.8793608E-01  -8.4219437E+00   0.0000000E+00  -8.1205487E-01  -8.3497324E+00   0.0000000E+00  -6.9491124E-01  -1.0662501E+01   0.0000000E+00  -3.0213788E+00  -1.0430686E+01   0.0000000E+00  -2.2702303E+00  -1.0129768E+01   0.0000000E+00  -1.6947582E+00  -9.8855181E+00   0.0000000E+00  -1.3340950E+00  -9.7182837E+00   0.0000000E+00  -1.0972364E+00  -9.5949287E+00   0.0000000E+00  -9.3193692E-01  -1.2743315E+01   0.0000000E+00  -3.4231608E+00  -1.2255098E+01   0.0000000E+00  -2.6480243E+00  -1.1765081E+01   0.0000000E+00  -2.0568876E+00  -1.1390468E+01   0.0000000E+00  -1.6699715E+00  -1.1144912E+01   0.0000000E+00  -1.3981802E+00  -1.0972399E+01   0.0000000E+00  -1.1965088E+00  -1.4905639E+01   0.0000000E+00  -3.8319786E+00  -1.4192988E+01   0.0000000E+00  -3.0145712E+00  -1.3526033E+01   0.0000000E+00  -2.4032288E+00  -1.3026879E+01   0.0000000E+00  -2.0070336E+00  -1.2705943E+01   0.0000000E+00  -1.7104408E+00  -1.2485119E+01   0.0000000E+00  -1.4827259E+00  -1.7198219E+01   0.0000000E+00  -4.2640486E+00  -1.6277914E+01   0.0000000E+00  -3.3845191E+00  -1.5431752E+01   0.0000000E+00  -2.7481167E+00  -1.4802594E+01   0.0000000E+00  -2.3503098E+00  -1.4404249E+01   0.0000000E+00  -2.0372753E+00  -1.4137468E+01   0.0000000E+00  -1.7846898E+00  -1.9696020E+01   0.0000000E+00  -4.7174644E+00  -1.8544420E+01   0.0000000E+00  -3.7693226E+00  -1.7495842E+01   0.0000000E+00  -3.1074703E+00  -1.6730970E+01   0.0000000E+00  -2.6988161E+00  -1.6241585E+01   0.0000000E+00  -2.3844309E+00  -1.5930761E+01   0.0000000E+00  -2.1083136E+00  -2.2434139E+01   0.0000000E+00  -5.1994600E+00  -2.1005211E+01   0.0000000E+00  -4.1764131E+00  -1.9719946E+01   0.0000000E+00  -3.4925613E+00  -1.8798815E+01   0.0000000E+00  -3.0813885E+00  -1.8218512E+01   0.0000000E+00  -2.7610514E+00  -1.7868082E+01   0.0000000E+00  -2.4580872E+00  -2.5413202E+01   0.0000000E+00  -5.7320914E+00  -2.3663111E+01   0.0000000E+00  -4.6201935E+00  -2.2102013E+01   0.0000000E+00  -3.9232848E+00  -2.1005585E+01   0.0000000E+00  -3.5081806E+00  -2.0334421E+01   0.0000000E+00  -3.1728086E+00  -1.9953196E+01   0.0000000E+00  -2.8341265E+00  -2.8655277E+01   0.0000000E+00  -6.3034511E+00  -2.6518173E+01   0.0000000E+00  -5.1181369E+00  -2.4637537E+01   0.0000000E+00  -4.4120374E+00  -2.3346722E+01   0.0000000E+00  -3.9836419E+00  -2.2588545E+01   0.0000000E+00  -3.6196563E+00  -2.2189276E+01   0.0000000E+00  -3.2344236E+00  -3.2170067E+01   0.0000000E+00  -6.9348502E+00  -2.9572546E+01   0.0000000E+00  -5.6923194E+00  -2.7324217E+01   0.0000000E+00  -4.9730477E+00  -2.5820707E+01   0.0000000E+00  -4.5080838E+00  -2.4982443E+01   0.0000000E+00  -4.0991254E+00  -2.4580851E+01   0.0000000E+00  -3.6515408E+00  -3.5982513E+01   0.0000000E+00  -7.6608295E+00  -3.2834213E+01   0.0000000E+00  -6.3681026E+00  -3.0161606E+01   0.0000000E+00  -5.6053991E+00  -2.8430347E+01   0.0000000E+00  -5.0721221E+00  -2.7518518E+01   0.0000000E+00  -4.6008229E+00  -2.7129219E+01   0.0000000E+00  -4.0868702E+00  -4.0140625E+01   0.0000000E+00  -8.5128546E+00  -3.6320339E+01   0.0000000E+00  -7.1749325E+00  -3.3159271E+01   0.0000000E+00  -6.3081169E+00  -3.1181425E+01   0.0000000E+00  -5.6618280E+00  -3.0199379E+01   0.0000000E+00  -5.1211247E+00  -2.9837957E+01   0.0000000E+00  -4.5286212E+00  -4.4714691E+01   0.0000000E+00  -9.5347347E+00  -4.0054123E+01   0.0000000E+00  -8.1395054E+00  -3.6329376E+01   0.0000000E+00  -7.0700059E+00  -3.4072083E+01   0.0000000E+00  -6.2664232E+00  -3.3027779E+01   0.0000000E+00  -5.6338997E+00  -3.2701389E+01   0.0000000E+00  -4.9642620E+00  -4.9764969E+01   0.0000000E+00  -1.0772789E+01  -4.4041485E+01   0.0000000E+00  -9.3003654E+00  -3.9660748E+01   0.0000000E+00  -7.9014707E+00  -3.7099709E+01   0.0000000E+00  -6.8922749E+00  -3.5994278E+01   0.0000000E+00  -6.1678424E+00  -3.5707897E+01   0.0000000E+00  -5.4406300E+00  -5.5254841E+01   0.0000000E+00  -1.2284721E+01  -4.8226295E+01   0.0000000E+00  -1.0710666E+01  -4.3106247E+01   0.0000000E+00  -8.8293066E+00  -4.0220535E+01   0.0000000E+00  -7.4913106E+00  -3.9031395E+01   0.0000000E+00  -6.7195663E+00  -3.8804497E+01   0.0000000E+00  -5.9007292E+00  -6.0944004E+01   0.0000000E+00  -1.4257842E+01  -5.2411316E+01   0.0000000E+00  -1.2423400E+01  -4.6518929E+01   0.0000000E+00  -9.9225235E+00  -4.3310814E+01   0.0000000E+00  -8.1403036E+00  -4.2098763E+01   0.0000000E+00  -7.0012884E+00  -4.1864925E+01   0.0000000E+00  -6.3049879E+00  -6.6420639E+01   0.0000000E+00  -1.7082605E+01  -5.6295067E+01   0.0000000E+00  -1.4535445E+01  -4.9681068E+01   0.0000000E+00  -1.1255754E+01  -4.6322796E+01   0.0000000E+00  -8.5305843E+00  -4.4983376E+01   0.0000000E+00  -7.2878008E+00  -4.4668835E+01   0.0000000E+00  -6.6553550E+00  -7.1109085E+01   0.0000000E+00  -2.0957632E+01  -5.9662479E+01   0.0000000E+00  -1.7196449E+01  -5.2837460E+01   0.0000000E+00  -1.2107546E+01  -4.9071751E+01   0.0000000E+00  -8.9821634E+00  -4.7390598E+01   0.0000000E+00  -7.6757221E+00  -4.7020119E+01   0.0000000E+00  -7.1508584E+00  -7.4194595E+01   0.0000000E+00  -2.6569292E+01  -6.2356064E+01   0.0000000E+00  -2.0790281E+01  -5.5262535E+01   0.0000000E+00  -1.3706786E+01  -5.1142899E+01   0.0000000E+00  -9.8541193E+00  -4.9289009E+01   0.0000000E+00  -8.0877619E+00  -4.8759575E+01   0.0000000E+00  -7.3954406E+00  -7.5753357E+01   0.0000000E+00  -3.3888794E+01  -6.3839645E+01   0.0000000E+00  -2.5469213E+01  -5.6873787E+01   0.0000000E+00  -1.5303026E+01  -5.2610085E+01   0.0000000E+00  -1.0306333E+01  -5.0686459E+01   0.0000000E+00  -7.9786043E+00  -5.0200790E+01   0.0000000E+00  -7.2447796E+00  -7.5184608E+01   0.0000000E+00  -4.2119762E+01  -6.4096375E+01   0.0000000E+00  -2.8733410E+01  -5.7742168E+01   0.0000000E+00  -1.7055840E+01  -5.3194016E+01   0.0000000E+00  -1.1563321E+01  -5.1168716E+01   0.0000000E+00  -8.4584341E+00  -5.0607334E+01   0.0000000E+00  -7.7179813E+00  -6.5331276E+01   0.0000000E+00  -4.6003498E+01  -6.1989700E+01   0.0000000E+00  -3.1294638E+01  -5.7729416E+01   0.0000000E+00  -1.8454071E+01  -5.2724388E+01   0.0000000E+00  -1.3952063E+01  -4.9661289E+01   0.0000000E+00  -1.1772886E+01  -4.8821072E+01   0.0000000E+00  -1.1110380E+01  -4.3590816E+01   0.0000000E+00  -4.9673515E+01  -4.4389015E+01   0.0000000E+00  -3.4952621E+01  -4.5201900E+01   0.0000000E+00  -2.0354280E+01  -4.5595657E+01   0.0000000E+00  -1.5943785E+01  -4.5380741E+01   0.0000000E+00  -1.6012213E+01  -4.5769707E+01   0.0000000E+00  -1.8581116E+01  -2.5470121E+01   0.0000000E+00  -5.4481556E+01  -2.6186090E+01   0.0000000E+00  -3.7819351E+01  -2.7124823E+01   0.0000000E+00  -2.1336094E+01  -2.8160456E+01   0.0000000E+00  -1.4845292E+01  -2.9125355E+01   0.0000000E+00  -1.5233546E+01  -3.0096203E+01   0.0000000E+00  -1.8403698E+01  -1.3363782E+01   0.0000000E+00  -5.8194649E+01  -1.3833973E+01   0.0000000E+00  -4.0551620E+01  -1.4495050E+01   0.0000000E+00  -2.1230785E+01  -1.5306938E+01   0.0000000E+00  -1.4194489E+01  -1.6194693E+01   0.0000000E+00  -1.3803374E+01  -1.7064285E+01   0.0000000E+00  -1.7013594E+01  -5.7325749E+00   0.0000000E+00  -6.0667110E+01  -5.8633265E+00   0.0000000E+00  -4.2451061E+01  -6.1238079E+00   0.0000000E+00  -2.1352421E+01  -6.5358620E+00   0.0000000E+00  -1.3974198E+01  -7.0705142E+00   0.0000000E+00  -1.2908924E+01  -7.6574206E+00   0.0000000E+00  -1.5800485E+01   2.2756499E-01   0.0000000E+00  -6.1985928E+01   3.7999767E-01   0.0000000E+00  -4.4005669E+01   4.6838945E-01   0.0000000E+00  -2.1667540E+01   4.3968537E-01   0.0000000E+00  -1.3869113E+01   2.8623807E-01   0.0000000E+00  -1.2722561E+01   4.1278783E-02   0.0000000E+00  -1.5181103E+01   6.8886700E+00   0.0000000E+00  -6.2299538E+01   7.1720161E+00   0.0000000E+00  -4.4587688E+01   7.4402914E+00   0.0000000E+00  -2.2209730E+01   7.6350613E+00   0.0000000E+00  -1.4309176E+01   7.7300496E+00   0.0000000E+00  -1.3158059E+01   7.7246819E+00   0.0000000E+00  -1.4894744E+01   1.5188929E+01   0.0000000E+00  -6.1586895E+01   1.5442305E+01   0.0000000E+00  -4.4152439E+01   1.5700893E+01   0.0000000E+00  -2.2486456E+01   1.5914989E+01   0.0000000E+00  -1.4936799E+01   1.6057926E+01   0.0000000E+00  -1.3620168E+01   1.6110619E+01   0.0000000E+00  -1.4885243E+01   2.4701271E+01   0.0000000E+00  -6.0213844E+01   2.4816902E+01   0.0000000E+00  -4.3136990E+01   2.4934332E+01   0.0000000E+00  -2.2510153E+01   2.5011112E+01   0.0000000E+00  -1.5391222E+01   2.5030529E+01   0.0000000E+00  -1.4041865E+01   2.4973726E+01   0.0000000E+00  -1.4943738E+01   3.4382496E+01   0.0000000E+00  -5.8292061E+01   3.4321022E+01   0.0000000E+00  -4.1763966E+01   3.4242786E+01   0.0000000E+00  -2.2279209E+01   3.4106892E+01   0.0000000E+00  -1.5660055E+01   3.3909649E+01   0.0000000E+00  -1.4279691E+01   3.3645420E+01   0.0000000E+00  -1.4885207E+01   4.3218052E+01   0.0000000E+00  -5.5893570E+01   4.2988022E+01   0.0000000E+00  -4.0269321E+01   4.2718456E+01   0.0000000E+00  -2.1805050E+01   4.2366497E+01   0.0000000E+00  -1.5779572E+01   4.1791931E+01   0.0000000E+00  -1.4034973E+01   4.1453007E+01   0.0000000E+00  -1.4604113E+01   5.0499954E+01   0.0000000E+00  -5.3198376E+01   5.0130733E+01   0.0000000E+00  -3.8706829E+01   4.9853722E+01   0.0000000E+00  -2.1313147E+01   4.9115406E+01   0.0000000E+00  -1.5648492E+01   4.8260197E+01   0.0000000E+00  -1.3557059E+01   4.7648186E+01   0.0000000E+00  -1.4103524E+01   5.5857063E+01   0.0000000E+00  -5.0118557E+01   5.5443665E+01   0.0000000E+00  -3.6749214E+01   5.5054653E+01   0.0000000E+00  -2.0460896E+01   5.3610126E+01   0.0000000E+00  -1.4868401E+01   5.1333878E+01   0.0000000E+00  -1.2869002E+01   4.9393684E+01   0.0000000E+00  -1.3617288E+01   5.9698273E+01   0.0000000E+00  -4.6532463E+01   5.9091064E+01   0.0000000E+00  -3.4205696E+01   5.8523872E+01   0.0000000E+00  -1.9412090E+01   5.5194702E+01   0.0000000E+00  -1.4167320E+01   5.1680977E+01   0.0000000E+00  -1.2694116E+01   4.9700096E+01   0.0000000E+00  -1.3164142E+01   6.3071789E+01   0.0000000E+00  -4.2758282E+01   6.1952614E+01   0.0000000E+00  -3.1445074E+01   6.0008492E+01   0.0000000E+00  -1.8264374E+01   5.5061062E+01   0.0000000E+00  -1.3624504E+01   5.1776165E+01   0.0000000E+00  -1.2617338E+01   4.9830410E+01   0.0000000E+00  -1.2795696E+01   6.7270546E+01   0.0000000E+00  -3.9686573E+01   6.4773506E+01   0.0000000E+00  -2.8537458E+01   6.0199356E+01   0.0000000E+00  -1.7153799E+01   5.4925674E+01   0.0000000E+00  -1.3111510E+01   5.1814781E+01   0.0000000E+00  -1.2426044E+01   4.9902264E+01   0.0000000E+00  -1.2371767E+01   7.3241333E+01   0.0000000E+00  -3.7536175E+01   6.7964188E+01   0.0000000E+00  -2.5572748E+01   6.0624275E+01   0.0000000E+00  -1.5994422E+01   5.5116817E+01   0.0000000E+00  -1.2568473E+01   5.1977306E+01   0.0000000E+00  -1.2023752E+01   4.9760036E+01   0.0000000E+00  -1.2274613E+01   8.1607269E+01   0.0000000E+00  -3.3423618E+01   7.1760887E+01   0.0000000E+00  -2.3343023E+01   6.1570225E+01   0.0000000E+00  -1.4938382E+01   5.5615845E+01   0.0000000E+00  -1.2066151E+01   5.2126358E+01   0.0000000E+00  -1.1361531E+01   4.9849995E+01   0.0000000E+00  -1.1585740E+01   9.0148674E+01   0.0000000E+00  -2.7028830E+01   7.5749001E+01   0.0000000E+00  -2.0911406E+01   6.3545925E+01   0.0000000E+00  -1.4099877E+01   5.6376637E+01   0.0000000E+00  -1.1727471E+01   5.2448826E+01   0.0000000E+00  -1.0861979E+01   4.9817631E+01   0.0000000E+00  -1.0643228E+01   9.5562592E+01   0.0000000E+00  -2.3076805E+01   7.9748932E+01   0.0000000E+00  -1.8865696E+01   6.6190338E+01   0.0000000E+00  -1.3397148E+01   5.7745682E+01   0.0000000E+00  -1.1047611E+01   5.2986256E+01   0.0000000E+00  -1.0243979E+01   4.9829086E+01   0.0000000E+00  -9.7303143E+00   8.4332420E+01   0.0000000E+00  -1.7390062E+01   6.9385864E+01   0.0000000E+00  -1.2719600E+01   5.9710655E+01   0.0000000E+00  -1.0222317E+01   5.4070301E+01   0.0000000E+00  -9.3659201E+00   5.0108280E+01   0.0000000E+00  -8.8185940E+00   8.8951706E+01   0.0000000E+00  -1.6152241E+01   7.3860992E+01   0.0000000E+00  -1.2031933E+01   6.2525623E+01   0.0000000E+00  -9.1090193E+00   5.5605232E+01   0.0000000E+00  -8.2332392E+00   5.0837761E+01   0.0000000E+00  -7.7610478E+00   7.9379036E+01   0.0000000E+00  -1.1989356E+01   6.6534378E+01   0.0000000E+00  -8.5555859E+00   5.8069542E+01   0.0000000E+00  -7.2706432E+00   5.2119373E+01   0.0000000E+00  -6.6835465E+00   8.4774399E+01   0.0000000E+00  -1.2253086E+01   7.2138786E+01   0.0000000E+00  -9.0661469E+00   6.1788933E+01   0.0000000E+00  -6.8817477E+00   5.4333199E+01   0.0000000E+00  -5.9641037E+00   7.8187317E+01   0.0000000E+00  -1.0153426E+01   6.7004745E+01   0.0000000E+00  -7.4295483E+00   5.8090942E+01   0.0000000E+00  -5.9439554E+00   7.2926208E+01   0.0000000E+00  -8.7056913E+00   6.3470276E+01   0.0000000E+00  -6.8474193E+00   7.7177177E+01   0.0000000E+00  -9.0797110E+00   6.9274239E+01   0.0000000E+00  -8.1033115E+00  -5.4761922E-01   0.0000000E+00  -5.9064046E-02  -5.6170881E-01   0.0000000E+00  -4.4814490E-02  -5.6957459E-01   0.0000000E+00  -3.3237647E-02  -5.7301629E-01   0.0000000E+00  -2.3797110E-02  -5.7355940E-01   0.0000000E+00  -1.6453533E-02  -5.7245696E-01   0.0000000E+00  -1.0986468E-02  -5.7071364E-01   0.0000000E+00  -6.9020586E-03  -5.6900370E-01   0.0000000E+00  -3.9791651E-03  -5.6780648E-01   0.0000000E+00  -1.7887144E-03  -7.3544288E-01   0.0000000E+00  -7.3832333E-02  -7.5207889E-01   0.0000000E+00  -5.6348138E-02  -7.6045394E-01   0.0000000E+00  -4.1909251E-02  -7.6322472E-01   0.0000000E+00  -2.9870709E-02  -7.6234686E-01   0.0000000E+00  -2.0694464E-02  -7.5959110E-01   0.0000000E+00  -1.3738300E-02  -7.5626051E-01   0.0000000E+00  -8.6423708E-03  -7.5327766E-01   0.0000000E+00  -4.9694902E-03  -7.5125766E-01   0.0000000E+00  -2.2405572E-03  -9.6849716E-01   0.0000000E+00  -8.0713131E-02  -9.8762465E-01   0.0000000E+00  -6.1862729E-02  -9.9629629E-01   0.0000000E+00  -4.5779191E-02  -9.9783719E-01   0.0000000E+00  -3.2590009E-02  -9.9498081E-01   0.0000000E+00  -2.2501972E-02  -9.9007225E-01   0.0000000E+00  -1.4729375E-02  -9.8470461E-01   0.0000000E+00  -9.2041269E-03  -9.8010457E-01   0.0000000E+00  -5.2070757E-03  -9.7704470E-01   0.0000000E+00  -2.3496447E-03  -1.2367220E+00   0.0000000E+00  -8.2285561E-02  -1.2576604E+00   0.0000000E+00  -6.2961861E-02  -1.2658954E+00   0.0000000E+00  -4.6096947E-02  -1.2654488E+00   0.0000000E+00  -3.2529905E-02  -1.2599809E+00   0.0000000E+00  -2.1987267E-02  -1.2522762E+00   0.0000000E+00  -1.4180887E-02  -1.2444042E+00   0.0000000E+00  -8.6200619E-03  -1.2378373E+00   0.0000000E+00  -4.7803703E-03  -1.2335327E+00   0.0000000E+00  -2.1008167E-03  -1.5430013E+00   0.0000000E+00  -8.0510065E-02  -1.5646230E+00   0.0000000E+00  -6.1014008E-02  -1.5711982E+00   0.0000000E+00  -4.3952197E-02  -1.5676819E+00   0.0000000E+00  -3.0538416E-02  -1.5586474E+00   0.0000000E+00  -2.0033840E-02  -1.5473800E+00   0.0000000E+00  -1.2549605E-02  -1.5364054E+00   0.0000000E+00  -7.2828042E-03  -1.5274312E+00   0.0000000E+00  -3.8890187E-03  -1.5216252E+00   0.0000000E+00  -1.6355895E-03  -1.8942248E+00   0.0000000E+00  -7.6628730E-02  -1.9149250E+00   0.0000000E+00  -5.7121709E-02  -1.9181588E+00   0.0000000E+00  -4.0639184E-02  -1.9102143E+00   0.0000000E+00  -2.7481021E-02  -1.8963590E+00   0.0000000E+00  -1.7504089E-02  -1.8805698E+00   0.0000000E+00  -1.0416862E-02  -1.8657131E+00   0.0000000E+00  -5.7240007E-03  -1.8538091E+00   0.0000000E+00  -2.8229142E-03  -1.8461767E+00   0.0000000E+00  -1.1201357E-03  -2.2977881E+00   0.0000000E+00  -7.2630696E-02  -2.3154445E+00   0.0000000E+00  -5.3675089E-02  -2.3134377E+00   0.0000000E+00  -3.7946172E-02  -2.2993574E+00   0.0000000E+00  -2.5174242E-02  -2.2792518E+00   0.0000000E+00  -1.5718302E-02  -2.2577724E+00   0.0000000E+00  -8.9687863E-03  -2.2381470E+00   0.0000000E+00  -4.7064149E-03  -2.2226799E+00   0.0000000E+00  -2.1591436E-03  -2.2128415E+00   0.0000000E+00  -7.9730334E-04  -2.7609034E+00   0.0000000E+00  -7.1338966E-02  -2.7730422E+00   0.0000000E+00  -5.3275462E-02  -2.7635362E+00   0.0000000E+00  -3.8379222E-02  -2.7413836E+00   0.0000000E+00  -2.5757849E-02  -2.7134099E+00   0.0000000E+00  -1.6464552E-02  -2.6849246E+00   0.0000000E+00  -9.6056089E-03  -2.6595371E+00   0.0000000E+00  -5.2378941E-03  -2.6397893E+00   0.0000000E+00  -2.5414394E-03  -2.6273201E+00   0.0000000E+00  -9.9661644E-04  -3.2904484E+00   0.0000000E+00  -7.7563167E-02  -3.2943332E+00   0.0000000E+00  -5.9947275E-02  -3.2749705E+00   0.0000000E+00  -4.5242172E-02  -3.2426574E+00   0.0000000E+00  -3.2069948E-02  -3.2050822E+00   0.0000000E+00  -2.1996465E-02  -3.1681640E+00   0.0000000E+00  -1.4065401E-02  -3.1358936E+00   0.0000000E+00  -8.6148391E-03  -3.1110690E+00   0.0000000E+00  -4.7926432E-03  -3.0954881E+00   0.0000000E+00  -2.1290258E-03  -3.8931165E+00   0.0000000E+00  -9.7429544E-02  -3.8857548E+00   0.0000000E+00  -7.9075448E-02  -3.8541684E+00   0.0000000E+00  -6.2784247E-02  -3.8096094E+00   0.0000000E+00  -4.7366008E-02  -3.7606175E+00   0.0000000E+00  -3.4810312E-02  -3.7137511E+00   0.0000000E+00  -2.4249978E-02  -3.6733954E+00   0.0000000E+00  -1.6194146E-02  -3.6426351E+00   0.0000000E+00  -9.7966529E-03  -3.6234248E+00   0.0000000E+00  -4.6222028E-03  -4.5755014E+00   0.0000000E+00  -1.3776408E-01  -4.5540857E+00   0.0000000E+00  -1.1603543E-01  -4.5079217E+00   0.0000000E+00  -9.5377080E-02  -4.4490581E+00   0.0000000E+00  -7.5038910E-02  -4.3868537E+00   0.0000000E+00  -5.7464387E-02  -4.3284917E+00   0.0000000E+00  -4.2073004E-02  -4.2788415E+00   0.0000000E+00  -2.9264182E-02  -4.2412524E+00   0.0000000E+00  -1.8423066E-02  -4.2178788E+00   0.0000000E+00  -8.8841422E-03  -5.3448105E+00   0.0000000E+00  -2.0449051E-01  -5.3070283E+00   0.0000000E+00  -1.7495054E-01  -5.2440495E+00   0.0000000E+00  -1.4623867E-01  -5.1688156E+00   0.0000000E+00  -1.1814192E-01  -5.0916195E+00   0.0000000E+00  -9.2212491E-02  -5.0202498E+00   0.0000000E+00  -6.9287896E-02  -4.9601221E+00   0.0000000E+00  -4.9068075E-02  -4.9148278E+00   0.0000000E+00  -3.1350274E-02  -4.8867512E+00   0.0000000E+00  -1.5268818E-02  -6.2105198E+00   0.0000000E+00  -2.9919267E-01  -6.1530833E+00   0.0000000E+00  -2.5894836E-01  -6.0711036E+00   0.0000000E+00  -2.1817365E-01  -5.9774747E+00   0.0000000E+00  -1.7853771E-01  -5.8836627E+00   0.0000000E+00  -1.4066105E-01  -5.7978487E+00   0.0000000E+00  -1.0657734E-01  -5.7259917E+00   0.0000000E+00  -7.6379254E-02  -5.6721554E+00   0.0000000E+00  -4.9162369E-02  -5.6388631E+00   0.0000000E+00  -2.3981119E-02  -7.1818190E+00   0.0000000E+00  -4.3004176E-01  -7.1016912E+00   0.0000000E+00  -3.7070093E-01  -6.9982038E+00   0.0000000E+00  -3.1284091E-01  -6.8844886E+00   0.0000000E+00  -2.5631380E-01  -6.7721148E+00   0.0000000E+00  -2.0339775E-01  -6.6704903E+00   0.0000000E+00  -1.5469313E-01  -6.5858459E+00   0.0000000E+00  -1.1112718E-01  -6.5225201E+00   0.0000000E+00  -7.1836889E-02  -6.4835453E+00   0.0000000E+00  -3.5173289E-02  -8.2685719E+00   0.0000000E+00  -5.9725815E-01  -8.1625261E+00   0.0000000E+00  -5.1107478E-01  -8.0348749E+00   0.0000000E+00  -4.3099219E-01  -7.8988924E+00   0.0000000E+00  -3.5190630E-01  -7.7665391E+00   0.0000000E+00  -2.7893680E-01  -7.6476107E+00   0.0000000E+00  -2.1327861E-01  -7.5491953E+00   0.0000000E+00  -1.5361300E-01  -7.4756355E+00   0.0000000E+00  -9.9474005E-02  -7.4304061E+00   0.0000000E+00  -4.8512235E-02  -9.4792166E+00   0.0000000E+00  -7.9734194E-01  -9.3443766E+00   0.0000000E+00  -6.7881787E-01  -9.1900873E+00   0.0000000E+00  -5.7026768E-01  -9.0299349E+00   0.0000000E+00  -4.6380797E-01  -8.8762980E+00   0.0000000E+00  -3.6757469E-01  -8.7388735E+00   0.0000000E+00  -2.8123611E-01  -8.6257343E+00   0.0000000E+00  -2.0202275E-01  -8.5415659E+00   0.0000000E+00  -1.3110487E-01  -8.4896078E+00   0.0000000E+00  -6.3916743E-02  -1.0820765E+01   0.0000000E+00  -1.0250181E+00  -1.0655116E+01   0.0000000E+00  -8.6914086E-01  -1.0473183E+01   0.0000000E+00  -7.2838145E-01  -1.0287811E+01   0.0000000E+00  -5.9350717E-01  -1.0111470E+01   0.0000000E+00  -4.6812311E-01  -9.9545250E+00   0.0000000E+00  -3.5728937E-01  -9.8258438E+00   0.0000000E+00  -2.5543195E-01  -9.7304993E+00   0.0000000E+00  -1.6563535E-01  -9.6713371E+00   0.0000000E+00  -8.0770463E-02  -1.2298924E+01   0.0000000E+00  -1.2771457E+00  -1.2103465E+01   0.0000000E+00  -1.0834367E+00  -1.1892983E+01   0.0000000E+00  -9.0310651E-01  -1.1681501E+01   0.0000000E+00  -7.3475069E-01  -1.1482214E+01   0.0000000E+00  -5.7717562E-01  -1.1305072E+01   0.0000000E+00  -4.3867147E-01  -1.1160018E+01   0.0000000E+00  -3.1188479E-01  -1.1052287E+01   0.0000000E+00  -2.0015098E-01  -1.0986040E+01   0.0000000E+00  -9.8237410E-02  -1.3918612E+01   0.0000000E+00  -1.5464588E+00  -1.3695656E+01   0.0000000E+00  -1.3132631E+00  -1.3457808E+01   0.0000000E+00  -1.0892711E+00  -1.3220964E+01   0.0000000E+00  -8.8297969E-01  -1.2998365E+01   0.0000000E+00  -6.8857294E-01  -1.2801108E+01   0.0000000E+00  -5.2241814E-01  -1.2638821E+01   0.0000000E+00  -3.6883420E-01  -1.2517993E+01   0.0000000E+00  -2.3487310E-01  -1.2443752E+01   0.0000000E+00  -1.1529277E-01  -1.5685163E+01   0.0000000E+00  -1.8352534E+00  -1.5439846E+01   0.0000000E+00  -1.5576441E+00  -1.5179031E+01   0.0000000E+00  -1.2889102E+00  -1.4916730E+01   0.0000000E+00  -1.0360297E+00  -1.4670816E+01   0.0000000E+00  -8.0010641E-01  -1.4452620E+01   0.0000000E+00  -6.0424292E-01  -1.4271938E+01   0.0000000E+00  -4.2322940E-01  -1.4136687E+01   0.0000000E+00  -2.6732671E-01  -1.4053569E+01   0.0000000E+00  -1.3099001E-01  -1.7604126E+01   0.0000000E+00  -2.1437976E+00  -1.7343554E+01   0.0000000E+00  -1.8141291E+00  -1.7063688E+01   0.0000000E+00  -1.4962485E+00  -1.6778509E+01   0.0000000E+00  -1.1895682E+00  -1.6509155E+01   0.0000000E+00  -9.0932459E-01  -1.6267422E+01   0.0000000E+00  -6.7817551E-01  -1.6067390E+01   0.0000000E+00  -4.7208688E-01  -1.5915946E+01   0.0000000E+00  -2.9574129E-01  -1.5822448E+01   0.0000000E+00  -1.4436939E-01  -1.9681383E+01   0.0000000E+00  -2.4712462E+00  -1.9414370E+01   0.0000000E+00  -2.0804157E+00  -1.9119764E+01   0.0000000E+00  -1.7074174E+00  -1.8814842E+01   0.0000000E+00  -1.3415946E+00  -1.8521666E+01   0.0000000E+00  -1.0145831E+00  -1.8254215E+01   0.0000000E+00  -7.4741048E-01  -1.8031425E+01   0.0000000E+00  -5.1656747E-01  -1.7860764E+01   0.0000000E+00  -3.2006007E-01  -1.7754831E+01   0.0000000E+00  -1.5632281E-01  -2.1922213E+01   0.0000000E+00  -2.8153679E+00  -2.1659264E+01   0.0000000E+00  -2.3554304E+00  -2.1353590E+01   0.0000000E+00  -1.9243301E+00  -2.1032259E+01   0.0000000E+00  -1.4925804E+00  -2.0714544E+01   0.0000000E+00  -1.1217248E+00  -2.0418068E+01   0.0000000E+00  -8.1335503E-01  -2.0166727E+01   0.0000000E+00  -5.5806005E-01  -1.9973051E+01   0.0000000E+00  -3.4225145E-01  -1.9851498E+01   0.0000000E+00  -1.6709094E-01  -2.4332035E+01   0.0000000E+00  -3.1725521E+00  -2.4083403E+01   0.0000000E+00  -2.6417537E+00  -2.3772783E+01   0.0000000E+00  -2.1407378E+00  -2.3434996E+01   0.0000000E+00  -1.6493527E+00  -2.3089361E+01   0.0000000E+00  -1.2326607E+00  -2.2760756E+01   0.0000000E+00  -8.8230348E-01  -2.2474455E+01   0.0000000E+00  -6.0539234E-01  -2.2252151E+01   0.0000000E+00  -3.6799642E-01  -2.2110756E+01   0.0000000E+00  -1.7445530E-01  -2.6915581E+01   0.0000000E+00  -3.5414860E+00  -2.6690304E+01   0.0000000E+00  -2.9441926E+00  -2.6379030E+01   0.0000000E+00  -2.3707633E+00  -2.6024715E+01   0.0000000E+00  -1.8316425E+00  -2.5646315E+01   0.0000000E+00  -1.3649330E+00  -2.5279819E+01   0.0000000E+00  -9.7923148E-01  -2.4953835E+01   0.0000000E+00  -6.6283077E-01  -2.4695105E+01   0.0000000E+00  -4.0434611E-01  -2.4529287E+01   0.0000000E+00  -1.8838046E-01  -2.9673885E+01   0.0000000E+00  -3.9215279E+00  -2.9480515E+01   0.0000000E+00  -3.2699845E+00  -2.9172388E+01   0.0000000E+00  -2.6511075E+00  -2.8799608E+01   0.0000000E+00  -2.0586805E+00  -2.8383881E+01   0.0000000E+00  -1.5447290E+00  -2.7971876E+01   0.0000000E+00  -1.1224777E+00  -2.7595320E+01   0.0000000E+00  -7.6368546E-01  -2.7294113E+01   0.0000000E+00  -4.7095311E-01  -2.7099184E+01   0.0000000E+00  -2.2320293E-01  -3.2595627E+01   0.0000000E+00  -4.3073072E+00  -3.2443993E+01   0.0000000E+00  -3.6267931E+00  -3.2157501E+01   0.0000000E+00  -2.9730837E+00  -3.1761530E+01   0.0000000E+00  -2.3526003E+00  -3.1302938E+01   0.0000000E+00  -1.7973200E+00  -3.0834270E+01   0.0000000E+00  -1.3331082E+00  -3.0397461E+01   0.0000000E+00  -9.3112922E-01  -3.0045261E+01   0.0000000E+00  -5.8903915E-01  -2.9816105E+01   0.0000000E+00  -2.8493062E-01  -3.5666866E+01   0.0000000E+00  -4.7636938E+00  -3.5563114E+01   0.0000000E+00  -4.0692391E+00  -3.5288273E+01   0.0000000E+00  -3.4111273E+00  -3.4873981E+01   0.0000000E+00  -2.7729480E+00  -3.4370800E+01   0.0000000E+00  -2.1847200E+00  -3.3836773E+01   0.0000000E+00  -1.6610868E+00  -3.3338303E+01   0.0000000E+00  -1.1955489E+00  -3.2932419E+01   0.0000000E+00  -7.7377158E-01  -3.2666702E+01   0.0000000E+00  -3.7981346E-01  -3.8827820E+01   0.0000000E+00  -5.2207646E+00  -3.8765900E+01   0.0000000E+00  -4.5654755E+00  -3.8508293E+01   0.0000000E+00  -3.9361730E+00  -3.8080212E+01   0.0000000E+00  -3.3276134E+00  -3.7533169E+01   0.0000000E+00  -2.7358971E+00  -3.6942245E+01   0.0000000E+00  -2.1588368E+00  -3.6380222E+01   0.0000000E+00  -1.6094640E+00  -3.5921448E+01   0.0000000E+00  -1.0791301E+00  -3.5618683E+01   0.0000000E+00  -5.4205704E-01  -4.1935642E+01   0.0000000E+00  -5.6854777E+00  -4.1913589E+01   0.0000000E+00  -5.1869116E+00  -4.1685417E+01   0.0000000E+00  -4.6328759E+00  -4.1254974E+01   0.0000000E+00  -4.0693550E+00  -4.0687042E+01   0.0000000E+00  -3.4810891E+00  -4.0050636E+01   0.0000000E+00  -2.8683593E+00  -3.9437611E+01   0.0000000E+00  -2.2218654E+00  -3.8933243E+01   0.0000000E+00  -1.5260010E+00  -3.8602028E+01   0.0000000E+00  -7.7833575E-01  -4.4747517E+01   0.0000000E+00  -6.3054676E+00  -4.4783360E+01   0.0000000E+00  -5.8885489E+00  -4.4611992E+01   0.0000000E+00  -5.4746237E+00  -4.4192448E+01   0.0000000E+00  -5.0198212E+00  -4.3615707E+01   0.0000000E+00  -4.4901562E+00  -4.2952396E+01   0.0000000E+00  -3.8321204E+00  -4.2318253E+01   0.0000000E+00  -3.0692933E+00  -4.1795048E+01   0.0000000E+00  -2.1565604E+00  -4.1456863E+01   0.0000000E+00  -1.1037164E+00  -4.7076698E+01   0.0000000E+00  -6.8342605E+00  -4.7130276E+01   0.0000000E+00  -6.6231451E+00  -4.7006889E+01   0.0000000E+00  -6.4238439E+00  -4.6643135E+01   0.0000000E+00  -6.1145082E+00  -4.6123692E+01   0.0000000E+00  -5.7024174E+00  -4.5518902E+01   0.0000000E+00  -5.0684347E+00  -4.4887360E+01   0.0000000E+00  -4.0940366E+00  -4.4377895E+01   0.0000000E+00  -2.9148498E+00  -4.4031635E+01   0.0000000E+00  -1.5185326E+00  -4.8875267E+01   0.0000000E+00  -7.1850553E+00  -4.8963097E+01   0.0000000E+00  -7.1552606E+00  -4.8905266E+01   0.0000000E+00  -7.2451105E+00  -4.8642735E+01   0.0000000E+00  -7.2712250E+00  -4.8225616E+01   0.0000000E+00  -7.0138745E+00  -4.7657158E+01   0.0000000E+00  -6.3147812E+00  -4.7070755E+01   0.0000000E+00  -5.1490445E+00  -4.6610775E+01   0.0000000E+00  -3.6811125E+00  -4.6310303E+01   0.0000000E+00  -1.9181007E+00  -5.0295616E+01   0.0000000E+00  -7.1266289E+00  -5.0357941E+01   0.0000000E+00  -7.4415808E+00  -5.0288033E+01   0.0000000E+00  -7.9559178E+00  -5.0069721E+01   0.0000000E+00  -8.3507233E+00  -4.9735435E+01   0.0000000E+00  -8.2754688E+00  -4.9221123E+01   0.0000000E+00  -7.6305728E+00  -4.8726162E+01   0.0000000E+00  -6.4563375E+00  -4.8353306E+01   0.0000000E+00  -4.6969051E+00  -4.8116085E+01   0.0000000E+00  -2.4787018E+00  -5.0582253E+01   0.0000000E+00  -7.8838539E+00  -5.0659420E+01   0.0000000E+00  -8.6246567E+00  -5.0500900E+01   0.0000000E+00  -9.5336142E+00  -5.0453854E+01   0.0000000E+00  -1.0477459E+01  -5.0272018E+01   0.0000000E+00  -1.0837463E+01  -4.9995541E+01   0.0000000E+00  -1.0346515E+01  -4.9694130E+01   0.0000000E+00  -8.9210625E+00  -4.9365364E+01   0.0000000E+00  -6.5596118E+00  -4.9147785E+01   0.0000000E+00  -3.4790349E+00  -4.8944687E+01   0.0000000E+00  -1.1582268E+01  -4.9173668E+01   0.0000000E+00  -1.2557211E+01  -4.9550262E+01   0.0000000E+00  -1.3816783E+01  -5.0076469E+01   0.0000000E+00  -1.4965938E+01  -5.0292507E+01   0.0000000E+00  -1.5155555E+01  -5.0172604E+01   0.0000000E+00  -1.4195252E+01  -4.9921131E+01   0.0000000E+00  -1.2041654E+01  -4.9660656E+01   0.0000000E+00  -8.7894144E+00  -4.9448650E+01   0.0000000E+00  -4.6502500E+00  -4.6476421E+01   0.0000000E+00  -1.9741686E+01  -4.6987251E+01   0.0000000E+00  -2.0903208E+01  -4.7255604E+01   0.0000000E+00  -2.1596512E+01  -4.7114487E+01   0.0000000E+00  -2.1402449E+01  -4.6572731E+01   0.0000000E+00  -2.0346550E+01  -4.5815933E+01   0.0000000E+00  -1.8317663E+01  -4.5032307E+01   0.0000000E+00  -1.5187133E+01  -4.4341389E+01   0.0000000E+00  -1.0928544E+01  -4.3859997E+01   0.0000000E+00  -5.7315254E+00  -3.0834154E+01   0.0000000E+00  -2.0216965E+01  -3.1321083E+01   0.0000000E+00  -2.1785700E+01  -3.1507248E+01   0.0000000E+00  -2.2698191E+01  -3.1402777E+01   0.0000000E+00  -2.2707674E+01  -3.1060966E+01   0.0000000E+00  -2.1805191E+01  -3.0563370E+01   0.0000000E+00  -1.9798191E+01  -3.0011940E+01   0.0000000E+00  -1.6504332E+01  -2.9515617E+01   0.0000000E+00  -1.1916877E+01  -2.9172297E+01   0.0000000E+00  -6.2624483E+00  -1.7826973E+01   0.0000000E+00  -1.9355824E+01  -1.8405109E+01   0.0000000E+00  -2.1463587E+01  -1.8753740E+01   0.0000000E+00  -2.2848118E+01  -1.8874908E+01   0.0000000E+00  -2.3233561E+01  -1.8802086E+01   0.0000000E+00  -2.2579979E+01  -1.8589020E+01   0.0000000E+00  -2.0677240E+01  -1.8304991E+01   0.0000000E+00  -1.7337488E+01  -1.8026871E+01   0.0000000E+00  -1.2564554E+01  -1.7826195E+01   0.0000000E+00  -6.6159372E+00  -8.2200804E+00   0.0000000E+00  -1.8400209E+01  -8.6968279E+00   0.0000000E+00  -2.0873180E+01  -9.0531998E+00   0.0000000E+00  -2.2601574E+01  -9.2789354E+00   0.0000000E+00  -2.3275768E+01  -9.3821125E+00   0.0000000E+00  -2.2833082E+01  -9.3839788E+00   0.0000000E+00  -2.1050802E+01  -9.3177929E+00   0.0000000E+00  -1.7734722E+01  -9.2259007E+00   0.0000000E+00  -1.2892422E+01  -9.1500950E+00   0.0000000E+00  -6.8004136E+00  -2.5057259E-01   0.0000000E+00  -1.7649496E+01  -5.5407029E-01   0.0000000E+00  -2.0270157E+01  -8.4503222E-01   0.0000000E+00  -2.2166958E+01  -1.1030619E+00   0.0000000E+00  -2.3001183E+01  -1.3132223E+00   0.0000000E+00  -2.2696167E+01  -1.4677474E+00   0.0000000E+00  -2.1019632E+01  -1.5680290E+00   0.0000000E+00  -1.7768454E+01  -1.6242911E+00   0.0000000E+00  -1.2946944E+01  -1.6503091E+00   0.0000000E+00  -6.8383126E+00   7.6290960E+00   0.0000000E+00  -1.7194798E+01   7.4544325E+00   0.0000000E+00  -1.9767706E+01   7.2162580E+00   0.0000000E+00  -2.1665756E+01   6.9405508E+00   0.0000000E+00  -2.2532314E+01   6.6555262E+00   0.0000000E+00  -2.2285379E+01   6.3886833E+00   0.0000000E+00  -2.0685839E+01   6.1619101E+00   0.0000000E+00  -1.7520428E+01   5.9905715E+00   0.0000000E+00  -1.2784872E+01   5.8843131E+00   0.0000000E+00  -6.7587399E+00   1.6061380E+01   0.0000000E+00  -1.6949450E+01   1.5906451E+01   0.0000000E+00  -1.9349556E+01   1.5656265E+01   0.0000000E+00  -2.1127745E+01   1.5335678E+01   0.0000000E+00  -2.1930744E+01   1.4976557E+01   0.0000000E+00  -2.1678795E+01   1.4614343E+01   0.0000000E+00  -2.0129536E+01   1.4284950E+01   0.0000000E+00  -1.7061054E+01   1.4021472E+01   0.0000000E+00  -1.2458161E+01   1.3851072E+01   0.0000000E+00  -6.5890379E+00   2.4825310E+01   0.0000000E+00  -1.6753468E+01   2.4579330E+01   0.0000000E+00  -1.8920528E+01   2.4243757E+01   0.0000000E+00  -2.0513819E+01   2.3838026E+01   0.0000000E+00  -2.1199961E+01   2.3389727E+01   0.0000000E+00  -2.0906815E+01   2.2933960E+01   0.0000000E+00  -1.9393507E+01   2.2512711E+01   0.0000000E+00  -1.6433514E+01   2.2170010E+01   0.0000000E+00  -1.2000941E+01   2.1945669E+01   0.0000000E+00  -6.3480773E+00   3.3310139E+01   0.0000000E+00  -1.6454756E+01   3.2904167E+01   0.0000000E+00  -1.8375546E+01   3.2434917E+01   0.0000000E+00  -1.9764332E+01   3.1914648E+01   0.0000000E+00  -2.0316734E+01   3.1362642E+01   0.0000000E+00  -1.9971420E+01   3.0809631E+01   0.0000000E+00  -1.8494299E+01   3.0299797E+01   0.0000000E+00  -1.5659655E+01   2.9884380E+01   0.0000000E+00  -1.1432675E+01   2.9611662E+01   0.0000000E+00  -6.0470600E+00   4.0915440E+01   0.0000000E+00  -1.5960214E+01   4.0337067E+01   0.0000000E+00  -1.7647017E+01   3.9724045E+01   0.0000000E+00  -1.8837820E+01   3.9081043E+01   0.0000000E+00  -1.9261133E+01   3.8418385E+01   0.0000000E+00  -1.8868853E+01   3.7763535E+01   0.0000000E+00  -1.7438713E+01   3.7163906E+01   0.0000000E+00  -1.4751136E+01   3.6676620E+01   0.0000000E+00  -1.0764726E+01   3.6357212E+01   0.0000000E+00  -5.6928444E+00   4.6615379E+01   0.0000000E+00  -1.5277177E+01   4.5641933E+01   0.0000000E+00  -1.6727491E+01   4.4643139E+01   0.0000000E+00  -1.7711979E+01   4.3688416E+01   0.0000000E+00  -1.8007315E+01   4.2781078E+01   0.0000000E+00  -1.7575417E+01   4.1945065E+01   0.0000000E+00  -1.6205017E+01   4.1218155E+01   0.0000000E+00  -1.3688673E+01   4.0652798E+01   0.0000000E+00  -9.9822712E+00   4.0293888E+01   0.0000000E+00  -5.2786784E+00   4.8027534E+01   0.0000000E+00  -1.4536039E+01   4.6870090E+01   0.0000000E+00  -1.5681490E+01   4.5760754E+01   0.0000000E+00  -1.6442766E+01   4.4734604E+01   0.0000000E+00  -1.6619921E+01   4.3772919E+01   0.0000000E+00  -1.6152443E+01   4.2894123E+01   0.0000000E+00  -1.4846293E+01   4.2146717E+01   0.0000000E+00  -1.2513927E+01   4.1572102E+01   0.0000000E+00  -9.1146078E+00   4.1206024E+01   0.0000000E+00  -4.8168435E+00   4.8327770E+01   0.0000000E+00  -1.3855900E+01   4.7122398E+01   0.0000000E+00  -1.4666205E+01   4.5987808E+01   0.0000000E+00  -1.5200974E+01   4.4904350E+01   0.0000000E+00  -1.5239765E+01   4.3902023E+01   0.0000000E+00  -1.4715936E+01   4.2999485E+01   0.0000000E+00  -1.3456911E+01   4.2233360E+01   0.0000000E+00  -1.1300380E+01   4.1645100E+01   0.0000000E+00  -8.2101898E+00   4.1283642E+01   0.0000000E+00  -4.3378711E+00   4.8374672E+01   0.0000000E+00  -1.3319872E+01   4.7096264E+01   0.0000000E+00  -1.3857093E+01   4.5874851E+01   0.0000000E+00  -1.4157518E+01   4.4735874E+01   0.0000000E+00  -1.4020296E+01   4.3685848E+01   0.0000000E+00  -1.3404145E+01   4.2739914E+01   0.0000000E+00  -1.2166945E+01   4.1929691E+01   0.0000000E+00  -1.0161840E+01   4.1305092E+01   0.0000000E+00  -7.3535261E+00   4.0911480E+01   0.0000000E+00  -3.8703132E+00   4.8344490E+01   0.0000000E+00  -1.2823797E+01   4.6963806E+01   0.0000000E+00  -1.3251417E+01   4.5641064E+01   0.0000000E+00  -1.3381057E+01   4.4397083E+01   0.0000000E+00  -1.3090540E+01   4.3266190E+01   0.0000000E+00  -1.2357215E+01   4.2238033E+01   0.0000000E+00  -1.1095698E+01   4.1343285E+01   0.0000000E+00  -9.1752234E+00   4.0645760E+01   0.0000000E+00  -6.5836020E+00   4.0220680E+01   0.0000000E+00  -3.4479170E+00   4.8181873E+01   0.0000000E+00  -1.2351982E+01   4.6742771E+01   0.0000000E+00  -1.2607918E+01   4.5270977E+01   0.0000000E+00  -1.2619510E+01   4.3925098E+01   0.0000000E+00  -1.2215496E+01   4.2702824E+01   0.0000000E+00  -1.1374629E+01   4.1595192E+01   0.0000000E+00  -1.0077053E+01   4.0645073E+01   0.0000000E+00  -8.2516375E+00   3.9912109E+01   0.0000000E+00  -5.8913975E+00   3.9440033E+01   0.0000000E+00  -3.0744576E+00   4.8013268E+01   0.0000000E+00  -1.1887626E+01   4.6338505E+01   0.0000000E+00  -1.1944898E+01   4.4769981E+01   0.0000000E+00  -1.1853745E+01   4.3288136E+01   0.0000000E+00  -1.1395612E+01   4.1951183E+01   0.0000000E+00  -1.0488080E+01   4.0771595E+01   0.0000000E+00  -9.1642323E+00   3.9760254E+01   0.0000000E+00  -7.4175248E+00   3.8969231E+01   0.0000000E+00  -5.2411084E+00   3.8466045E+01   0.0000000E+00  -2.7209322E+00   4.7769897E+01   0.0000000E+00  -1.1053048E+01   4.5846703E+01   0.0000000E+00  -1.1225226E+01   4.4058369E+01   0.0000000E+00  -1.1145786E+01   4.2503502E+01   0.0000000E+00  -1.0541887E+01   4.1053921E+01   0.0000000E+00  -9.6118069E+00   3.9788082E+01   0.0000000E+00  -8.2970390E+00   3.8715073E+01   0.0000000E+00  -6.6220613E+00   3.7882683E+01   0.0000000E+00  -4.6281114E+00   3.7352303E+01   0.0000000E+00  -2.3825901E+00   4.7421734E+01   0.0000000E+00  -9.9363079E+00   4.5338753E+01   0.0000000E+00  -1.0278078E+01   4.3351585E+01   0.0000000E+00  -1.0220336E+01   4.1586834E+01   0.0000000E+00  -9.8236876E+00   4.0012001E+01   0.0000000E+00  -8.8240337E+00   3.8690689E+01   0.0000000E+00  -7.5127997E+00   3.7575981E+01   0.0000000E+00  -5.9263735E+00   3.6722343E+01   0.0000000E+00  -4.0930252E+00   3.6184986E+01   0.0000000E+00  -2.0963161E+00   4.7192585E+01   0.0000000E+00  -8.7631636E+00   4.4777233E+01   0.0000000E+00  -9.0290909E+00   4.2618629E+01   0.0000000E+00  -9.2217979E+00   4.0644592E+01   0.0000000E+00  -8.8328810E+00   3.8977356E+01   0.0000000E+00  -8.0553131E+00   3.7507359E+01   0.0000000E+00  -6.8425870E+00   3.6367157E+01   0.0000000E+00  -5.3124442E+00   3.5498226E+01   0.0000000E+00  -3.6364558E+00   3.4957172E+01   0.0000000E+00  -1.8416954E+00   4.7199593E+01   0.0000000E+00  -7.5299888E+00   4.4327610E+01   0.0000000E+00  -7.6514220E+00   4.1905617E+01   0.0000000E+00  -7.9216733E+00   3.9737289E+01   0.0000000E+00  -7.8600068E+00   3.7906757E+01   0.0000000E+00  -7.1764598E+00   3.6398148E+01   0.0000000E+00  -6.1340714E+00   3.5165710E+01   0.0000000E+00  -4.7807717E+00   3.4268597E+01   0.0000000E+00  -3.2643552E+00   3.3728867E+01   0.0000000E+00  -1.6492863E+00   4.7715679E+01   0.0000000E+00  -6.3677850E+00   4.4202850E+01   0.0000000E+00  -6.3382668E+00   4.1393951E+01   0.0000000E+00  -6.4535551E+00   3.8999710E+01   0.0000000E+00  -6.5866780E+00   3.6945518E+01   0.0000000E+00  -6.2680926E+00   3.5294212E+01   0.0000000E+00  -5.3776436E+00   3.4039341E+01   0.0000000E+00  -4.2293496E+00   3.3114506E+01   0.0000000E+00  -2.9085598E+00   3.2557915E+01   0.0000000E+00  -1.4793949E+00   4.8844139E+01   0.0000000E+00  -5.3666797E+00   4.4551327E+01   0.0000000E+00  -5.1162324E+00   4.1192780E+01   0.0000000E+00  -5.0585823E+00   3.8502968E+01   0.0000000E+00  -5.1055746E+00   3.6190189E+01   0.0000000E+00  -5.0855575E+00   3.4410007E+01   0.0000000E+00  -4.5888186E+00   3.3026985E+01   0.0000000E+00  -3.6183476E+00   3.2081112E+01   0.0000000E+00  -2.5031025E+00   3.1522770E+01   0.0000000E+00  -1.3103058E+00   5.1122799E+01   0.0000000E+00  -5.0100517E+00   4.5691456E+01   0.0000000E+00  -4.2366638E+00   4.1598766E+01   0.0000000E+00  -3.8900981E+00   3.8440674E+01   0.0000000E+00  -3.7087312E+00   3.5825859E+01   0.0000000E+00  -3.7288504E+00   3.3724655E+01   0.0000000E+00  -3.5660875E+00   3.2189590E+01   0.0000000E+00  -2.9728022E+00   3.1189697E+01   0.0000000E+00  -2.0911539E+00   3.0589804E+01   0.0000000E+00  -1.0792904E+00   5.5082592E+01   0.0000000E+00  -5.2572856E+00   4.8308372E+01   0.0000000E+00  -4.2421498E+00   4.2940022E+01   0.0000000E+00  -3.2415581E+00   3.8949005E+01   0.0000000E+00  -2.6101129E+00   3.5932285E+01   0.0000000E+00  -2.3652141E+00   3.3500843E+01   0.0000000E+00  -2.4526696E+00   3.1746046E+01   0.0000000E+00  -2.2134230E+00   3.0554993E+01   0.0000000E+00  -1.6228876E+00   2.9899443E+01   0.0000000E+00  -8.7664634E-01   6.0209892E+01   0.0000000E+00  -6.1082401E+00   5.2487240E+01   0.0000000E+00  -4.6689925E+00   4.5781410E+01   0.0000000E+00  -3.5774100E+00   4.0679382E+01   0.0000000E+00  -2.4016812E+00   3.6963531E+01   0.0000000E+00  -1.4248536E+00   3.4033012E+01   0.0000000E+00  -1.3186628E+00   3.1876898E+01   0.0000000E+00  -1.3941283E+00   3.0479664E+01   0.0000000E+00  -1.1815962E+00   2.9685312E+01   0.0000000E+00  -6.8346322E-01   6.5289909E+01   0.0000000E+00  -6.7030125E+00   5.7144127E+01   0.0000000E+00  -5.1185484E+00   5.0019688E+01   0.0000000E+00  -4.0644665E+00   4.3801270E+01   0.0000000E+00  -3.2383139E+00   3.9332737E+01   0.0000000E+00  -1.8563384E+00   3.5805618E+01   0.0000000E+00  -9.7896057E-01   3.2946251E+01   0.0000000E+00  -7.7679098E-01   3.1148056E+01   0.0000000E+00  -7.9614830E-01   3.0047983E+01   0.0000000E+00  -5.4092783E-01   6.1506702E+01   0.0000000E+00  -5.4334340E+00   5.4514816E+01   0.0000000E+00  -4.2405996E+00   4.7977852E+01   0.0000000E+00  -3.2988560E+00   4.2539894E+01   0.0000000E+00  -2.8802109E+00   3.8258595E+01   0.0000000E+00  -2.5887032E+00   3.4575100E+01   0.0000000E+00  -2.5811431E+00   3.1953159E+01   0.0000000E+00  -2.0704284E+00   3.0736412E+01   0.0000000E+00  -1.0487583E+00   5.2040699E+01   0.0000000E+00  -3.2509727E+00   4.6458908E+01   0.0000000E+00  -2.6504617E+00   4.1314594E+01   0.0000000E+00  -2.6644769E+00   3.6940384E+01   0.0000000E+00  -3.2322366E+00   3.4595215E+01   0.0000000E+00  -2.4450393E+00   3.3721245E+01   0.0000000E+00  -1.1518452E+00   4.5342369E+01   0.0000000E+00  -2.3022804E+00   4.1195484E+01   0.0000000E+00  -2.4811046E+00   3.7607986E+01   0.0000000E+00  -2.7238927E+00   3.6483303E+01   0.0000000E+00  -1.3458955E+00  -5.6737769E-01   0.0000000E+00  -1.8440335E-07  -5.6780577E-01   0.0000000E+00   1.7887338E-03  -5.6900346E-01   0.0000000E+00   3.9795227E-03  -5.7071519E-01   0.0000000E+00   6.9020484E-03  -5.7245529E-01   0.0000000E+00   1.0986410E-02  -5.7356036E-01   0.0000000E+00   1.6453467E-02  -5.7301688E-01   0.0000000E+00   2.3796976E-02  -5.6957531E-01   0.0000000E+00   3.3237714E-02  -7.5054657E-01   0.0000000E+00   2.6750911E-08  -7.5125766E-01   0.0000000E+00   2.2409954E-03  -7.5327694E-01   0.0000000E+00   4.9694772E-03  -7.5625932E-01   0.0000000E+00   8.6423382E-03  -7.5959158E-01   0.0000000E+00   1.3738280E-02  -7.6234639E-01   0.0000000E+00   2.0694403E-02  -7.6322389E-01   0.0000000E+00   2.9870607E-02  -7.6045310E-01   0.0000000E+00   4.1908842E-02  -9.7597885E-01   0.0000000E+00   5.9738909E-08  -9.7704649E-01   0.0000000E+00   2.3494875E-03  -9.8010480E-01   0.0000000E+00   5.2075274E-03  -9.8470390E-01   0.0000000E+00   9.2040095E-03  -9.9007368E-01   0.0000000E+00   1.4729267E-02  -9.9498129E-01   0.0000000E+00   2.2501945E-02  -9.9783492E-01   0.0000000E+00   3.2589912E-02  -9.9629557E-01   0.0000000E+00   4.5779273E-02  -1.2320333E+00   0.0000000E+00  -1.4702425E-07  -1.2335327E+00   0.0000000E+00   2.1005739E-03  -1.2378383E+00   0.0000000E+00   4.7805784E-03  -1.2444052E+00   0.0000000E+00   8.6201970E-03  -1.2522748E+00   0.0000000E+00   1.4180942E-02  -1.2599776E+00   0.0000000E+00   2.1987552E-02  -1.2654471E+00   0.0000000E+00   3.2529656E-02  -1.2658972E+00   0.0000000E+00   4.6096642E-02  -1.5196180E+00   0.0000000E+00   8.6498756E-07  -1.5216259E+00   0.0000000E+00   1.6342616E-03  -1.5274330E+00   0.0000000E+00   3.8880366E-03  -1.5364051E+00   0.0000000E+00   7.2823795E-03  -1.5473795E+00   0.0000000E+00   1.2549714E-02  -1.5586483E+00   0.0000000E+00   2.0033944E-02  -1.5676813E+00   0.0000000E+00   3.0538427E-02  -1.5711976E+00   0.0000000E+00   4.3952189E-02  -1.8435508E+00   0.0000000E+00  -3.5144944E-07  -1.8461746E+00   0.0000000E+00   1.1197365E-03  -1.8538085E+00   0.0000000E+00   2.8217828E-03  -1.8657136E+00   0.0000000E+00   5.7237200E-03  -1.8805712E+00   0.0000000E+00   1.0417155E-02  -1.8963616E+00   0.0000000E+00   1.7503735E-02  -1.9102114E+00   0.0000000E+00   2.7480910E-02  -1.9181583E+00   0.0000000E+00   4.0639572E-02  -2.2094736E+00   0.0000000E+00  -9.6560439E-07  -2.2128415E+00   0.0000000E+00   7.9793873E-04  -2.2226813E+00   0.0000000E+00   2.1595047E-03  -2.2381468E+00   0.0000000E+00   4.7065415E-03  -2.2577720E+00   0.0000000E+00   8.9686345E-03  -2.2792528E+00   0.0000000E+00   1.5718542E-02  -2.2993562E+00   0.0000000E+00   2.5174294E-02  -2.3134358E+00   0.0000000E+00   3.7946373E-02  -2.6230643E+00   0.0000000E+00   1.7531800E-06  -2.6273201E+00   0.0000000E+00   9.9544961E-04  -2.6397893E+00   0.0000000E+00   2.5419618E-03  -2.6595354E+00   0.0000000E+00   5.2376832E-03  -2.6849229E+00   0.0000000E+00   9.6057309E-03  -2.7134113E+00   0.0000000E+00   1.6464213E-02  -2.7413852E+00   0.0000000E+00   2.5757648E-02  -2.7635374E+00   0.0000000E+00   3.8378470E-02  -3.0901814E+00   0.0000000E+00   2.7853980E-07  -3.0954874E+00   0.0000000E+00   2.1291780E-03  -3.1110680E+00   0.0000000E+00   4.7921301E-03  -3.1358910E+00   0.0000000E+00   8.6147413E-03  -3.1681631E+00   0.0000000E+00   1.4065557E-02  -3.2050781E+00   0.0000000E+00   2.1996563E-02  -3.2426591E+00   0.0000000E+00   3.2070477E-02  -3.2749763E+00   0.0000000E+00   4.5241702E-02  -3.6168966E+00   0.0000000E+00  -9.0579169E-07  -3.6234231E+00   0.0000000E+00   4.6224762E-03  -3.6426334E+00   0.0000000E+00   9.7968634E-03  -3.6733949E+00   0.0000000E+00   1.6192893E-02  -3.7137527E+00   0.0000000E+00   2.4248891E-02  -3.7606192E+00   0.0000000E+00   3.4810841E-02  -3.8096099E+00   0.0000000E+00   4.7366578E-02  -3.8541677E+00   0.0000000E+00   6.2784031E-02  -4.2099557E+00   0.0000000E+00  -1.7902053E-06  -4.2178798E+00   0.0000000E+00   8.8837082E-03  -4.2412548E+00   0.0000000E+00   1.8423166E-02  -4.2788386E+00   0.0000000E+00   2.9263673E-02  -4.3284907E+00   0.0000000E+00   4.2072579E-02  -4.3868537E+00   0.0000000E+00   5.7464819E-02  -4.4490628E+00   0.0000000E+00   7.5038128E-02  -4.5079260E+00   0.0000000E+00   9.5379181E-02  -4.8772502E+00   0.0000000E+00   4.7722688E-07  -4.8867497E+00   0.0000000E+00   1.5269837E-02  -4.9148297E+00   0.0000000E+00   3.1350430E-02  -4.9601159E+00   0.0000000E+00   4.9067274E-02  -5.0202489E+00   0.0000000E+00   6.9287576E-02  -5.0916133E+00   0.0000000E+00   9.2212878E-02  -5.1688204E+00   0.0000000E+00   1.1814363E-01  -5.2440515E+00   0.0000000E+00   1.4624028E-01  -5.6275783E+00   0.0000000E+00   4.1817002E-06  -5.6388559E+00   0.0000000E+00   2.3982514E-02  -5.6721520E+00   0.0000000E+00   4.9162790E-02  -5.7259974E+00   0.0000000E+00   7.6379649E-02  -5.7978477E+00   0.0000000E+00   1.0657603E-01  -5.8836656E+00   0.0000000E+00   1.4066257E-01  -5.9774837E+00   0.0000000E+00   1.7853794E-01  -6.0711045E+00   0.0000000E+00   2.1817413E-01  -6.4703093E+00   0.0000000E+00  -1.4875873E-06  -6.4835391E+00   0.0000000E+00   3.5172846E-02  -6.5225153E+00   0.0000000E+00   7.1839020E-02  -6.5858388E+00   0.0000000E+00   1.1112751E-01  -6.6704888E+00   0.0000000E+00   1.5469179E-01  -6.7721190E+00   0.0000000E+00   2.0339561E-01  -6.8844957E+00   0.0000000E+00   2.5631312E-01  -6.9982004E+00   0.0000000E+00   3.1283963E-01  -7.4152331E+00   0.0000000E+00   2.3342086E-06  -7.4304109E+00   0.0000000E+00   4.8508205E-02  -7.4756427E+00   0.0000000E+00   9.9474348E-02  -7.5492015E+00   0.0000000E+00   1.5361229E-01  -7.6476097E+00   0.0000000E+00   2.1327724E-01  -7.7665334E+00   0.0000000E+00   2.7893537E-01  -7.8988881E+00   0.0000000E+00   3.5190970E-01  -8.0348730E+00   0.0000000E+00   4.3098864E-01  -8.4723091E+00   0.0000000E+00  -5.0386670E-06  -8.4895992E+00   0.0000000E+00   6.3917592E-02  -8.5415649E+00   0.0000000E+00   1.3110484E-01  -8.6257343E+00   0.0000000E+00   2.0202233E-01  -8.7388821E+00   0.0000000E+00   2.8123444E-01  -8.8762913E+00   0.0000000E+00   3.6757308E-01  -9.0299320E+00   0.0000000E+00   4.6380839E-01  -9.1900969E+00   0.0000000E+00   5.7026660E-01  -9.6516132E+00   0.0000000E+00   1.9928475E-06  -9.6713343E+00   0.0000000E+00   8.0768183E-02  -9.7304926E+00   0.0000000E+00   1.6563553E-01  -9.8258476E+00   0.0000000E+00   2.5543150E-01  -9.9545193E+00   0.0000000E+00   3.5728970E-01  -1.0111477E+01   0.0000000E+00   4.6812293E-01  -1.0287801E+01   0.0000000E+00   5.9350532E-01  -1.0473174E+01   0.0000000E+00   7.2837907E-01  -1.0963528E+01   0.0000000E+00   4.4413646E-06  -1.0986032E+01   0.0000000E+00   9.8229103E-02  -1.1052294E+01   0.0000000E+00   2.0015055E-01  -1.1160020E+01   0.0000000E+00   3.1188324E-01  -1.1305074E+01   0.0000000E+00   4.3867201E-01  -1.1482216E+01   0.0000000E+00   5.7717210E-01  -1.1681490E+01   0.0000000E+00   7.3474991E-01  -1.1892986E+01   0.0000000E+00   9.0310061E-01  -1.2418354E+01   0.0000000E+00  -5.0412737E-06  -1.2443756E+01   0.0000000E+00   1.1529563E-01  -1.2517983E+01   0.0000000E+00   2.3487532E-01  -1.2638823E+01   0.0000000E+00   3.6883870E-01  -1.2801102E+01   0.0000000E+00   5.2241880E-01  -1.2998362E+01   0.0000000E+00   6.8857521E-01  -1.3220959E+01   0.0000000E+00   8.8297999E-01  -1.3457800E+01   0.0000000E+00   1.0892624E+00  -1.4024958E+01   0.0000000E+00  -4.9212849E-07  -1.4053569E+01   0.0000000E+00   1.3099135E-01  -1.4136683E+01   0.0000000E+00   2.6732126E-01  -1.4271933E+01   0.0000000E+00   4.2322490E-01  -1.4452611E+01   0.0000000E+00   6.0424167E-01  -1.4670820E+01   0.0000000E+00   8.0010468E-01  -1.4916733E+01   0.0000000E+00   1.0360284E+00  -1.5179032E+01   0.0000000E+00   1.2889041E+00  -1.5790215E+01   0.0000000E+00   2.7949072E-06  -1.5822455E+01   0.0000000E+00   1.4436044E-01  -1.5915936E+01   0.0000000E+00   2.9573750E-01  -1.6067383E+01   0.0000000E+00   4.7209042E-01  -1.6267416E+01   0.0000000E+00   6.7817259E-01  -1.6509151E+01   0.0000000E+00   9.0932643E-01  -1.6778494E+01   0.0000000E+00   1.1895739E+00  -1.7063686E+01   0.0000000E+00   1.4962456E+00  -1.7718056E+01   0.0000000E+00  -7.3882893E-07  -1.7754833E+01   0.0000000E+00   1.5632960E-01  -1.7860750E+01   0.0000000E+00   3.2005975E-01  -1.8031410E+01   0.0000000E+00   5.1657104E-01  -1.8254234E+01   0.0000000E+00   7.4741018E-01  -1.8521685E+01   0.0000000E+00   1.0145798E+00  -1.8814854E+01   0.0000000E+00   1.3415878E+00  -1.9119749E+01   0.0000000E+00   1.7074248E+00  -1.9809502E+01   0.0000000E+00   1.1961104E-05  -1.9851500E+01   0.0000000E+00   1.6709195E-01  -1.9973043E+01   0.0000000E+00   3.4225771E-01  -2.0166771E+01   0.0000000E+00   5.5805826E-01  -2.0418083E+01   0.0000000E+00   8.1335914E-01  -2.0714529E+01   0.0000000E+00   1.1217266E+00  -2.1032217E+01   0.0000000E+00   1.4925832E+00  -2.1353586E+01   0.0000000E+00   1.9243441E+00  -2.2063576E+01   0.0000000E+00   1.3652108E-05  -2.2110756E+01   0.0000000E+00   1.7445132E-01  -2.2252110E+01   0.0000000E+00   3.6799753E-01  -2.2474457E+01   0.0000000E+00   6.0539538E-01  -2.2760761E+01   0.0000000E+00   8.8230497E-01  -2.3089355E+01   0.0000000E+00   1.2326609E+00  -2.3434990E+01   0.0000000E+00   1.6493584E+00  -2.3772791E+01   0.0000000E+00   2.1407480E+00  -2.4472919E+01   0.0000000E+00   6.7346191E-06  -2.4529299E+01   0.0000000E+00   1.8837988E-01  -2.4695084E+01   0.0000000E+00   4.0433985E-01  -2.4953840E+01   0.0000000E+00   6.6282755E-01  -2.5279854E+01   0.0000000E+00   9.7923106E-01  -2.5646313E+01   0.0000000E+00   1.3649353E+00  -2.6024748E+01   0.0000000E+00   1.8316356E+00  -2.6379028E+01   0.0000000E+00   2.3707604E+00  -2.7031727E+01   0.0000000E+00   4.7135145E-06  -2.7099192E+01   0.0000000E+00   2.2319812E-01  -2.7294107E+01   0.0000000E+00   4.7094679E-01  -2.7595327E+01   0.0000000E+00   7.6368469E-01  -2.7971891E+01   0.0000000E+00   1.1224775E+00  -2.8383919E+01   0.0000000E+00   1.5447273E+00  -2.8799582E+01   0.0000000E+00   2.0586798E+00  -2.9172379E+01   0.0000000E+00   2.6511140E+00  -2.9736580E+01   0.0000000E+00   5.7577272E-06  -2.9816095E+01   0.0000000E+00   2.8492865E-01  -3.0045250E+01   0.0000000E+00   5.8904022E-01  -3.0397457E+01   0.0000000E+00   9.3112695E-01  -3.0834272E+01   0.0000000E+00   1.3331126E+00  -3.1302931E+01   0.0000000E+00   1.7973239E+00  -3.1761526E+01   0.0000000E+00   2.3525999E+00  -3.2157471E+01   0.0000000E+00   2.9730902E+00  -3.2574333E+01   0.0000000E+00   1.0572279E-05  -3.2666695E+01   0.0000000E+00   3.7981364E-01  -3.2932457E+01   0.0000000E+00   7.7377242E-01  -3.3338291E+01   0.0000000E+00   1.1955492E+00  -3.3836720E+01   0.0000000E+00   1.6610889E+00  -3.4370842E+01   0.0000000E+00   2.1847267E+00  -3.4874020E+01   0.0000000E+00   2.7729523E+00  -3.5288273E+01   0.0000000E+00   3.4111407E+00  -3.5513157E+01   0.0000000E+00  -3.9092629E-06  -3.5618725E+01   0.0000000E+00   5.4205716E-01  -3.5921459E+01   0.0000000E+00   1.0791264E+00  -3.6380219E+01   0.0000000E+00   1.6094633E+00  -3.6942253E+01   0.0000000E+00   2.1588349E+00  -3.7533222E+01   0.0000000E+00   2.7359016E+00  -3.8080238E+01   0.0000000E+00   3.3276098E+00  -3.8508308E+01   0.0000000E+00   3.9361739E+00  -3.8487606E+01   0.0000000E+00  -2.3708599E-06  -3.8602013E+01   0.0000000E+00   7.7833968E-01  -3.8933277E+01   0.0000000E+00   1.5260031E+00  -3.9437618E+01   0.0000000E+00   2.2218635E+00  -4.0050671E+01   0.0000000E+00   2.8683605E+00  -4.0687016E+01   0.0000000E+00   3.4810920E+00  -4.1254971E+01   0.0000000E+00   4.0693560E+00  -4.1685432E+01   0.0000000E+00   4.6328802E+00  -4.1336033E+01   0.0000000E+00  -9.3244307E-07  -4.1456825E+01   0.0000000E+00   1.1037211E+00  -4.1795021E+01   0.0000000E+00   2.1565652E+00  -4.2318188E+01   0.0000000E+00   3.0692849E+00  -4.2952393E+01   0.0000000E+00   3.8321135E+00  -4.3615707E+01   0.0000000E+00   4.4901590E+00  -4.4192436E+01   0.0000000E+00   5.0198183E+00  -4.4611988E+01   0.0000000E+00   5.4746132E+00  -4.3910213E+01   0.0000000E+00  -7.7120203E-06  -4.4031624E+01   0.0000000E+00   1.5185286E+00  -4.4377834E+01   0.0000000E+00   2.9148405E+00  -4.4887291E+01   0.0000000E+00   4.0940361E+00  -4.5518917E+01   0.0000000E+00   5.0684328E+00  -4.6123657E+01   0.0000000E+00   5.7024002E+00  -4.6643162E+01   0.0000000E+00   6.1145086E+00  -4.7006905E+01   0.0000000E+00   6.4238458E+00  -4.6226048E+01   0.0000000E+00   9.2582195E-07  -4.6310326E+01   0.0000000E+00   1.9180999E+00  -4.6610802E+01   0.0000000E+00   3.6811104E+00  -4.7070770E+01   0.0000000E+00   5.1490507E+00  -4.7657215E+01   0.0000000E+00   6.3147807E+00  -4.8225574E+01   0.0000000E+00   7.0138588E+00  -4.8642624E+01   0.0000000E+00   7.2712126E+00  -4.8905239E+01   0.0000000E+00   7.2451119E+00  -4.8070427E+01   0.0000000E+00   1.1460739E-05  -4.8116093E+01   0.0000000E+00   2.4787357E+00  -4.8353302E+01   0.0000000E+00   4.6969171E+00  -4.8726089E+01   0.0000000E+00   6.4563446E+00  -4.9221073E+01   0.0000000E+00   7.6305652E+00  -4.9735497E+01   0.0000000E+00   8.2754679E+00  -5.0069756E+01   0.0000000E+00   8.3507309E+00  -5.0288010E+01   0.0000000E+00   7.9558835E+00  -4.9084217E+01   0.0000000E+00   9.7881421E-06  -4.9147774E+01   0.0000000E+00   3.4790335E+00  -4.9365337E+01   0.0000000E+00   6.5596094E+00  -4.9694134E+01   0.0000000E+00   8.9210386E+00  -4.9995586E+01   0.0000000E+00   1.0346520E+01  -5.0271976E+01   0.0000000E+00   1.0837463E+01  -5.0453831E+01   0.0000000E+00   1.0477449E+01  -5.0500874E+01   0.0000000E+00   9.5336313E+00  -4.9363007E+01   0.0000000E+00  -1.8723775E-05  -4.9448666E+01   0.0000000E+00   4.6502752E+00  -4.9660645E+01   0.0000000E+00   8.7894192E+00  -4.9921158E+01   0.0000000E+00   1.2041677E+01  -5.0172657E+01   0.0000000E+00   1.4195271E+01  -5.0292519E+01   0.0000000E+00   1.5155551E+01  -5.0076473E+01   0.0000000E+00   1.4965928E+01  -4.9550346E+01   0.0000000E+00   1.3816731E+01  -4.3688694E+01   0.0000000E+00   1.1721859E-05  -4.3859974E+01   0.0000000E+00   5.7315850E+00  -4.4341442E+01   0.0000000E+00   1.0928588E+01  -4.5032291E+01   0.0000000E+00   1.5187127E+01  -4.5815983E+01   0.0000000E+00   1.8317656E+01  -4.6572704E+01   0.0000000E+00   2.0346537E+01  -4.7114521E+01   0.0000000E+00   2.1402428E+01  -4.7255592E+01   0.0000000E+00   2.1596497E+01  -2.9049774E+01   0.0000000E+00  -1.9393628E-06  -2.9172302E+01   0.0000000E+00   6.2623830E+00  -2.9515619E+01   0.0000000E+00   1.1916929E+01  -3.0011921E+01   0.0000000E+00   1.6504345E+01  -3.0563314E+01   0.0000000E+00   1.9798166E+01  -3.1060936E+01   0.0000000E+00   2.1805187E+01  -3.1402826E+01   0.0000000E+00   2.2707676E+01  -3.1507332E+01   0.0000000E+00   2.2698181E+01  -1.7753189E+01   0.0000000E+00   3.1820382E-06  -1.7826181E+01   0.0000000E+00   6.6160116E+00  -1.8026926E+01   0.0000000E+00   1.2564567E+01  -1.8304945E+01   0.0000000E+00   1.7337471E+01  -1.8589048E+01   0.0000000E+00   2.0677231E+01  -1.8802094E+01   0.0000000E+00   2.2579975E+01  -1.8874989E+01   0.0000000E+00   2.3233530E+01  -1.8753748E+01   0.0000000E+00   2.2848082E+01  -9.1210918E+00   0.0000000E+00  -2.7858070E-05  -9.1500874E+00   0.0000000E+00   6.8003659E+00  -9.2259264E+00   0.0000000E+00   1.2892424E+01  -9.3178244E+00   0.0000000E+00   1.7734707E+01  -9.3839693E+00   0.0000000E+00   2.1050802E+01  -9.3820810E+00   0.0000000E+00   2.2833042E+01  -9.2789717E+00   0.0000000E+00   2.3275721E+01  -9.0530930E+00   0.0000000E+00   2.2601545E+01  -1.6575419E+00   0.0000000E+00  -1.2472388E-05  -1.6503273E+00   0.0000000E+00   6.8383307E+00  -1.6243352E+00   0.0000000E+00   1.2946941E+01  -1.5680822E+00   0.0000000E+00   1.7768421E+01  -1.4676778E+00   0.0000000E+00   2.1019640E+01  -1.3131843E+00   0.0000000E+00   2.2696146E+01  -1.1031389E+00   0.0000000E+00   2.3001163E+01  -8.4503186E-01   0.0000000E+00   2.2166916E+01   5.8483176E+00   0.0000000E+00  -1.8127903E-05   5.8842854E+00   0.0000000E+00   6.7587290E+00   5.9905858E+00   0.0000000E+00   1.2784891E+01   6.1619053E+00   0.0000000E+00   1.7520414E+01   6.3886523E+00   0.0000000E+00   2.0685860E+01   6.6556115E+00   0.0000000E+00   2.2285389E+01   6.9405036E+00   0.0000000E+00   2.2532280E+01   7.2163024E+00   0.0000000E+00   2.1665754E+01   1.3792122E+01   0.0000000E+00  -1.2130185E-05   1.3851048E+01   0.0000000E+00   6.5890570E+00   1.4021508E+01   0.0000000E+00   1.2458138E+01   1.4284980E+01   0.0000000E+00   1.7061060E+01   1.4614323E+01   0.0000000E+00   2.0129530E+01   1.4976555E+01   0.0000000E+00   2.1678778E+01   1.5335669E+01   0.0000000E+00   2.1930717E+01   1.5656286E+01   0.0000000E+00   2.1127756E+01   2.1867458E+01   0.0000000E+00  -6.9109956E-07   2.1945568E+01   0.0000000E+00   6.3480296E+00   2.2169991E+01   0.0000000E+00   1.2000937E+01   2.2512703E+01   0.0000000E+00   1.6433533E+01   2.2933987E+01   0.0000000E+00   1.9393494E+01   2.3389791E+01   0.0000000E+00   2.0906790E+01   2.3838034E+01   0.0000000E+00   2.1199949E+01   2.4243763E+01   0.0000000E+00   2.0513811E+01   2.9516430E+01   0.0000000E+00   8.6723594E-06   2.9611666E+01   0.0000000E+00   6.0470390E+00   2.9884396E+01   0.0000000E+00   1.1432673E+01   3.0299797E+01   0.0000000E+00   1.5659639E+01   3.0809681E+01   0.0000000E+00   1.8494295E+01   3.1362701E+01   0.0000000E+00   1.9971432E+01   3.1914774E+01   0.0000000E+00   2.0316740E+01   3.2435001E+01   0.0000000E+00   1.9764366E+01   3.6245899E+01   0.0000000E+00   1.8693099E-05   3.6357273E+01   0.0000000E+00   5.6928401E+00   3.6676678E+01   0.0000000E+00   1.0764711E+01   3.7163944E+01   0.0000000E+00   1.4751120E+01   3.7763527E+01   0.0000000E+00   1.7438728E+01   3.8418362E+01   0.0000000E+00   1.8868843E+01   3.9081081E+01   0.0000000E+00   1.9261131E+01   3.9724079E+01   0.0000000E+00   1.8837812E+01   4.0167721E+01   0.0000000E+00  -2.0947075E-05   4.0293945E+01   0.0000000E+00   5.2786460E+00   4.0652725E+01   0.0000000E+00   9.9822636E+00   4.1218132E+01   0.0000000E+00   1.3688681E+01   4.1945156E+01   0.0000000E+00   1.6205019E+01   4.2781105E+01   0.0000000E+00   1.7575415E+01   4.3688423E+01   0.0000000E+00   1.8007334E+01   4.4643166E+01   0.0000000E+00   1.7711979E+01   4.1079781E+01   0.0000000E+00   2.3090892E-05   4.1205963E+01   0.0000000E+00   4.8168607E+00   4.1572109E+01   0.0000000E+00   9.1146078E+00   4.2146717E+01   0.0000000E+00   1.2513932E+01   4.2894119E+01   0.0000000E+00   1.4846294E+01   4.3773010E+01   0.0000000E+00   1.6152477E+01   4.4734684E+01   0.0000000E+00   1.6619938E+01   4.5760761E+01   0.0000000E+00   1.6442770E+01   4.1151302E+01   0.0000000E+00   4.3601613E-06   4.1283726E+01   0.0000000E+00   4.3378978E+00   4.1645096E+01   0.0000000E+00   8.2101974E+00   4.2233395E+01   0.0000000E+00   1.1300378E+01   4.2999500E+01   0.0000000E+00   1.3456907E+01   4.3902046E+01   0.0000000E+00   1.4715940E+01   4.4904259E+01   0.0000000E+00   1.5239767E+01   4.5987839E+01   0.0000000E+00   1.5200941E+01   4.0778656E+01   0.0000000E+00   6.5645727E-06   4.0911449E+01   0.0000000E+00   3.8703244E+00   4.1305161E+01   0.0000000E+00   7.3535361E+00   4.1929718E+01   0.0000000E+00   1.0161845E+01   4.2739895E+01   0.0000000E+00   1.2166957E+01   4.3685837E+01   0.0000000E+00   1.3404147E+01   4.4735882E+01   0.0000000E+00   1.4020271E+01   4.5874947E+01   0.0000000E+00   1.4157513E+01   4.0074585E+01   0.0000000E+00   5.1232346E-06   4.0220772E+01   0.0000000E+00   3.4478805E+00   4.0645844E+01   0.0000000E+00   6.5836029E+00   4.1343311E+01   0.0000000E+00   9.1752214E+00   4.2237926E+01   0.0000000E+00   1.1095700E+01   4.3266193E+01   0.0000000E+00   1.2357203E+01   4.4397045E+01   0.0000000E+00   1.3090518E+01   4.5641026E+01   0.0000000E+00   1.3381062E+01   3.9275131E+01   0.0000000E+00   1.1498109E-05   3.9440010E+01   0.0000000E+00   3.0744631E+00   3.9912052E+01   0.0000000E+00   5.8913970E+00   4.0645157E+01   0.0000000E+00   8.2516394E+00   4.1595284E+01   0.0000000E+00   1.0077058E+01   4.2702766E+01   0.0000000E+00   1.1374618E+01   4.3925079E+01   0.0000000E+00   1.2215498E+01   4.5270878E+01   0.0000000E+00   1.2619512E+01   3.8291634E+01   0.0000000E+00  -3.1742675E-06   3.8465977E+01   0.0000000E+00   2.7209494E+00   3.8969219E+01   0.0000000E+00   5.2411151E+00   3.9760220E+01   0.0000000E+00   7.4175329E+00   4.0771530E+01   0.0000000E+00   9.1642303E+00   4.1951168E+01   0.0000000E+00   1.0488078E+01   4.3288231E+01   0.0000000E+00   1.1395624E+01   4.4769932E+01   0.0000000E+00   1.1853734E+01   3.7168468E+01   0.0000000E+00  -5.4984994E-06   3.7352333E+01   0.0000000E+00   2.3825986E+00   3.7882668E+01   0.0000000E+00   4.6281095E+00   3.8715122E+01   0.0000000E+00   6.6220613E+00   3.9788033E+01   0.0000000E+00   8.2970381E+00   4.1053898E+01   0.0000000E+00   9.6118059E+00   4.2503510E+01   0.0000000E+00   1.0541889E+01   4.4058357E+01   0.0000000E+00   1.1145790E+01   3.6001984E+01   0.0000000E+00  -3.4215627E-06   3.6185013E+01   0.0000000E+00   2.0963326E+00   3.6722382E+01   0.0000000E+00   4.0930281E+00   3.7575935E+01   0.0000000E+00   5.9263783E+00   3.8690659E+01   0.0000000E+00   7.5127988E+00   4.0011990E+01   0.0000000E+00   8.8240385E+00   4.1586853E+01   0.0000000E+00   9.8236752E+00   4.3351578E+01   0.0000000E+00   1.0220335E+01   3.4774387E+01   0.0000000E+00   9.3410636E-06   3.4957188E+01   0.0000000E+00   1.8416975E+00   3.5498211E+01   0.0000000E+00   3.6364477E+00   3.6367203E+01   0.0000000E+00   5.3124504E+00   3.7507381E+01   0.0000000E+00   6.8425856E+00   3.8977356E+01   0.0000000E+00   8.0553150E+00   4.0644596E+01   0.0000000E+00   8.8328886E+00   4.2618656E+01   0.0000000E+00   9.2217903E+00   3.3546780E+01   0.0000000E+00  -6.9610542E-06   3.3728889E+01   0.0000000E+00   1.6492951E+00   3.4268574E+01   0.0000000E+00   3.2643614E+00   3.5165695E+01   0.0000000E+00   4.7807760E+00   3.6398079E+01   0.0000000E+00   6.1340737E+00   3.7906754E+01   0.0000000E+00   7.1764607E+00   3.9737270E+01   0.0000000E+00   7.8600087E+00   4.1905590E+01   0.0000000E+00   7.9216766E+00   3.2377682E+01   0.0000000E+00   9.9921308E-06   3.2557911E+01   0.0000000E+00   1.4794120E+00   3.3114529E+01   0.0000000E+00   2.9085739E+00   3.4039368E+01   0.0000000E+00   4.2293439E+00   3.5294186E+01   0.0000000E+00   5.3776369E+00   3.6945572E+01   0.0000000E+00   6.2680864E+00   3.8999722E+01   0.0000000E+00   6.5866642E+00   4.1393982E+01   0.0000000E+00   6.4535680E+00   3.1335918E+01   0.0000000E+00   5.6550198E-07   3.1522753E+01   0.0000000E+00   1.3102953E+00   3.2081055E+01   0.0000000E+00   2.5030982E+00   3.3027016E+01   0.0000000E+00   3.6183412E+00   3.4410034E+01   0.0000000E+00   4.5888124E+00   3.6190258E+01   0.0000000E+00   5.0855508E+00   3.8502968E+01   0.0000000E+00   5.1055679E+00   4.1192734E+01   0.0000000E+00   5.0585904E+00   3.0398932E+01   0.0000000E+00  -4.9977243E-06   3.0589796E+01   0.0000000E+00   1.0792965E+00   3.1189688E+01   0.0000000E+00   2.0911443E+00   3.2189575E+01   0.0000000E+00   2.9728055E+00   3.3724667E+01   0.0000000E+00   3.5660872E+00   3.5825871E+01   0.0000000E+00   3.7288547E+00   3.8440670E+01   0.0000000E+00   3.7087319E+00   4.1598782E+01   0.0000000E+00   3.8900890E+00   2.9751759E+01   0.0000000E+00  -2.6763882E-07   2.9899439E+01   0.0000000E+00   8.7663919E-01   3.0555025E+01   0.0000000E+00   1.6228899E+00   3.1746077E+01   0.0000000E+00   2.2134204E+00   3.3500854E+01   0.0000000E+00   2.4526711E+00   3.5932293E+01   0.0000000E+00   2.3652179E+00   3.8949001E+01   0.0000000E+00   2.6101127E+00   4.2939991E+01   0.0000000E+00   3.2415695E+00   2.9421232E+01   0.0000000E+00  -2.9324437E-06   2.9685318E+01   0.0000000E+00   6.8346524E-01   3.0479675E+01   0.0000000E+00   1.1816018E+00   3.1876904E+01   0.0000000E+00   1.3941244E+00   3.4032997E+01   0.0000000E+00   1.3186725E+00   3.6963516E+01   0.0000000E+00   1.4248581E+00   4.0679382E+01   0.0000000E+00   2.4016860E+00   4.5781414E+01   0.0000000E+00   3.5773985E+00   2.9817394E+01   0.0000000E+00   4.1130115E-06   3.0047949E+01   0.0000000E+00   5.4093015E-01   3.1148058E+01   0.0000000E+00   7.9615265E-01   3.2946251E+01   0.0000000E+00   7.7678710E-01   3.5805641E+01   0.0000000E+00   9.7895861E-01   3.9332737E+01   0.0000000E+00   1.8563362E+00   4.3801273E+01   0.0000000E+00   3.2383168E+00   5.0019726E+01   0.0000000E+00   4.0644784E+00   3.0389147E+01   0.0000000E+00  -9.4261486E-07   3.0736408E+01   0.0000000E+00   1.0487597E+00   3.1953159E+01   0.0000000E+00   2.0704284E+00   3.4575115E+01   0.0000000E+00   2.5811422E+00   3.8258625E+01   0.0000000E+00   2.5886989E+00   4.2539909E+01   0.0000000E+00   2.8802016E+00   4.7977848E+01   0.0000000E+00   3.2988496E+00   5.4514843E+01   0.0000000E+00   4.2405982E+00   3.3450653E+01   0.0000000E+00  -1.3649696E-07   3.3721275E+01   0.0000000E+00   1.1518465E+00   3.4595230E+01   0.0000000E+00   2.4450386E+00   3.6940376E+01   0.0000000E+00   3.2322316E+00   4.1314590E+01   0.0000000E+00   2.6644721E+00   4.6458916E+01   0.0000000E+00   2.6504607E+00   5.2040718E+01   0.0000000E+00   3.2509701E+00   3.6170460E+01   0.0000000E+00  -1.3487006E-06   3.6483299E+01   0.0000000E+00   1.3458940E+00   3.7608002E+01   0.0000000E+00   2.7238920E+00   4.1195484E+01   0.0000000E+00   2.4811108E+00   4.5342365E+01   0.0000000E+00   2.3022730E+00  -5.6170893E-01   0.0000000E+00   4.4814885E-02  -5.4761899E-01   0.0000000E+00   5.9064128E-02  -5.2610540E-01   0.0000000E+00   7.4757978E-02  -4.9564457E-01   0.0000000E+00   9.1703326E-02  -4.5553172E-01   0.0000000E+00   1.0798906E-01  -4.0436029E-01   0.0000000E+00   1.2231880E-01  -3.4246713E-01   0.0000000E+00   1.3095039E-01  -7.5207853E-01   0.0000000E+00   5.6348335E-02  -7.3544168E-01   0.0000000E+00   7.3832266E-02  -7.0847595E-01   0.0000000E+00   9.3448982E-02  -6.6943526E-01   0.0000000E+00   1.1376974E-01  -6.1661434E-01   0.0000000E+00   1.3232152E-01  -5.4680169E-01   0.0000000E+00   1.4735472E-01  -4.5694870E-01   0.0000000E+00   1.5520224E-01  -3.4240890E-01   0.0000000E+00   1.7372334E-01  -9.8762584E-01   0.0000000E+00   6.1862536E-02  -9.6849465E-01   0.0000000E+00   8.0712870E-02  -9.3589151E-01   0.0000000E+00   1.0160062E-01  -8.8720214E-01   0.0000000E+00   1.2331624E-01  -8.2050622E-01   0.0000000E+00   1.4254633E-01  -7.3098433E-01   0.0000000E+00   1.5982133E-01  -6.1563206E-01   0.0000000E+00   1.7205429E-01  -4.6665269E-01   0.0000000E+00   1.8905747E-01  -1.2576610E+00   0.0000000E+00   6.2962063E-02  -1.2367220E+00   0.0000000E+00   8.2284898E-02  -1.1988487E+00   0.0000000E+00   1.0408258E-01  -1.1408817E+00   0.0000000E+00   1.2668328E-01  -1.0604144E+00   0.0000000E+00   1.4712372E-01  -9.5197421E-01   0.0000000E+00   1.6597223E-01  -8.1023115E-01   0.0000000E+00   1.8035460E-01  -6.2095857E-01   0.0000000E+00   2.0186490E-01  -1.5646211E+00   0.0000000E+00   6.1013885E-02  -1.5430005E+00   0.0000000E+00   8.0509782E-02  -1.5010555E+00   0.0000000E+00   1.0254444E-01  -1.4347932E+00   0.0000000E+00   1.2583120E-01  -1.3413067E+00   0.0000000E+00   1.4733189E-01  -1.2138518E+00   0.0000000E+00   1.6788757E-01  -1.0435147E+00   0.0000000E+00   1.8552250E-01  -8.0788815E-01   0.0000000E+00   2.1652317E-01  -1.9149246E+00   0.0000000E+00   5.7121739E-02  -1.8942242E+00   0.0000000E+00   7.6628350E-02  -1.8499191E+00   0.0000000E+00   9.8271668E-02  -1.7768871E+00   0.0000000E+00   1.2179245E-01  -1.6717136E+00   0.0000000E+00   1.4375490E-01  -1.5255206E+00   0.0000000E+00   1.6647416E-01  -1.3248150E+00   0.0000000E+00   1.8941557E-01  -1.0358486E+00   0.0000000E+00   2.3626125E-01  -2.3154459E+00   0.0000000E+00   5.3674899E-02  -2.2977865E+00   0.0000000E+00   7.2629377E-02  -2.2533371E+00   0.0000000E+00   9.3173772E-02  -2.1757021E+00   0.0000000E+00   1.1630163E-01  -2.0611637E+00   0.0000000E+00   1.3781694E-01  -1.8973992E+00   0.0000000E+00   1.6385323E-01  -1.6659030E+00   0.0000000E+00   1.9524384E-01  -1.3173534E+00   0.0000000E+00   2.6442254E-01  -2.7730417E+00   0.0000000E+00   5.3274717E-02  -2.7609024E+00   0.0000000E+00   7.1339980E-02  -2.7189267E+00   0.0000000E+00   9.0483442E-02  -2.6396778E+00   0.0000000E+00   1.1265422E-01  -2.5186255E+00   0.0000000E+00   1.3365936E-01  -2.3391967E+00   0.0000000E+00   1.6545141E-01  -2.0797901E+00   0.0000000E+00   2.0790553E-01  -1.6683198E+00   0.0000000E+00   3.0663633E-01  -3.2943349E+00   0.0000000E+00   5.9947446E-02  -3.2904477E+00   0.0000000E+00   7.7564180E-02  -3.2539401E+00   0.0000000E+00   9.5907234E-02  -3.1761467E+00   0.0000000E+00   1.1758825E-01  -3.0520620E+00   0.0000000E+00   1.3874692E-01  -2.8633928E+00   0.0000000E+00   1.7430902E-01  -2.5802400E+00   0.0000000E+00   2.3008156E-01  -2.1132677E+00   0.0000000E+00   3.5724568E-01  -3.8857548E+00   0.0000000E+00   7.9075322E-02  -3.8931177E+00   0.0000000E+00   9.7430699E-02  -3.8655546E+00   0.0000000E+00   1.1630040E-01  -3.7944705E+00   0.0000000E+00   1.3596398E-01  -3.6707091E+00   0.0000000E+00   1.5911293E-01  -3.4794841E+00   0.0000000E+00   1.9453192E-01  -3.1851890E+00   0.0000000E+00   2.5633311E-01  -2.6945376E+00   0.0000000E+00   3.8373184E-01  -4.5540810E+00   0.0000000E+00   1.1603516E-01  -4.5755019E+00   0.0000000E+00   1.3776328E-01  -4.5612283E+00   0.0000000E+00   1.5808481E-01  -4.5009189E+00   0.0000000E+00   1.7840779E-01  -4.3861995E+00   0.0000000E+00   1.9694364E-01  -4.2046447E+00   0.0000000E+00   2.2509861E-01  -3.9239957E+00   0.0000000E+00   2.7991939E-01  -3.4508171E+00   0.0000000E+00   3.8320017E-01  -5.3070283E+00   0.0000000E+00   1.7494872E-01  -5.3448148E+00   0.0000000E+00   2.0448951E-01  -5.3480101E+00   0.0000000E+00   2.2752860E-01  -5.3058209E+00   0.0000000E+00   2.4897048E-01  -5.2135415E+00   0.0000000E+00   2.6341182E-01  -5.0543613E+00   0.0000000E+00   2.9735088E-01  -4.8083229E+00   0.0000000E+00   3.7488532E-01  -4.3266420E+00   0.0000000E+00   5.7198763E-01  -6.1530838E+00   0.0000000E+00   2.5894606E-01  -6.2105241E+00   0.0000000E+00   2.9919159E-01  -6.2345805E+00   0.0000000E+00   3.3510908E-01  -6.2198281E+00   0.0000000E+00   3.7004694E-01  -6.1664276E+00   0.0000000E+00   4.1060591E-01  -6.0524540E+00   0.0000000E+00   5.2476656E-01  -5.8674383E+00   0.0000000E+00   7.8483486E-01  -5.4297528E+00   0.0000000E+00   1.3320913E+00  -7.1016898E+00   0.0000000E+00   3.7070182E-01  -7.1818209E+00   0.0000000E+00   4.3004134E-01  -7.2318101E+00   0.0000000E+00   4.9133319E-01  -7.2563119E+00   0.0000000E+00   5.6260264E-01  -7.2640700E+00   0.0000000E+00   6.6401422E-01  -7.2449732E+00   0.0000000E+00   8.8842070E-01  -7.1735816E+00   0.0000000E+00   1.3506074E+00  -6.8996687E+00   0.0000000E+00   2.0715206E+00  -8.1625261E+00   0.0000000E+00   5.1107478E-01  -8.2685738E+00   0.0000000E+00   5.9726006E-01  -8.3497276E+00   0.0000000E+00   6.9491267E-01  -8.4219360E+00   0.0000000E+00   8.1205380E-01  -8.5077257E+00   0.0000000E+00   9.8793674E-01  -8.6163864E+00   0.0000000E+00   1.3005471E+00  -8.7200336E+00   0.0000000E+00   1.8541079E+00  -8.6866322E+00   0.0000000E+00   2.5897906E+00  -9.3443766E+00   0.0000000E+00   6.7881948E-01  -9.4792156E+00   0.0000000E+00   7.9734170E-01  -9.5949316E+00   0.0000000E+00   9.3193817E-01  -9.7182827E+00   0.0000000E+00   1.0972368E+00  -9.8855114E+00   0.0000000E+00   1.3340950E+00  -1.0129765E+01   0.0000000E+00   1.6947589E+00  -1.0430684E+01   0.0000000E+00   2.2702296E+00  -1.0662502E+01   0.0000000E+00   3.0213785E+00  -1.0655119E+01   0.0000000E+00   8.6913377E-01  -1.0820755E+01   0.0000000E+00   1.0250196E+00  -1.0972389E+01   0.0000000E+00   1.1965058E+00  -1.1144922E+01   0.0000000E+00   1.3981800E+00  -1.1390469E+01   0.0000000E+00   1.6699703E+00  -1.1765089E+01   0.0000000E+00   2.0568886E+00  -1.2255099E+01   0.0000000E+00   2.6480236E+00  -1.2743320E+01   0.0000000E+00   3.4231603E+00  -1.2103477E+01   0.0000000E+00   1.0834326E+00  -1.2298928E+01   0.0000000E+00   1.2771477E+00  -1.2485136E+01   0.0000000E+00   1.4827255E+00  -1.2705947E+01   0.0000000E+00   1.7104417E+00  -1.3026863E+01   0.0000000E+00   2.0070338E+00  -1.3526039E+01   0.0000000E+00   2.4032278E+00  -1.4192992E+01   0.0000000E+00   3.0145707E+00  -1.4905640E+01   0.0000000E+00   3.8319778E+00  -1.3695651E+01   0.0000000E+00   1.3132607E+00  -1.3918596E+01   0.0000000E+00   1.5464590E+00  -1.4137476E+01   0.0000000E+00   1.7846868E+00  -1.4404243E+01   0.0000000E+00   2.0372758E+00  -1.4802588E+01   0.0000000E+00   2.3503120E+00  -1.5431755E+01   0.0000000E+00   2.7481184E+00  -1.6277912E+01   0.0000000E+00   3.3845181E+00  -1.7198229E+01   0.0000000E+00   4.2640476E+00  -1.5439865E+01   0.0000000E+00   1.5576463E+00  -1.5685163E+01   0.0000000E+00   1.8352568E+00  -1.5930746E+01   0.0000000E+00   2.1083114E+00  -1.6241575E+01   0.0000000E+00   2.3844316E+00  -1.6730965E+01   0.0000000E+00   2.6988165E+00  -1.7495836E+01   0.0000000E+00   3.1074686E+00  -1.8544437E+01   0.0000000E+00   3.7693214E+00  -1.9696020E+01   0.0000000E+00   4.7174625E+00  -1.7343538E+01   0.0000000E+00   1.8141260E+00  -1.7604107E+01   0.0000000E+00   2.1437917E+00  -1.7868071E+01   0.0000000E+00   2.4580870E+00  -1.8218504E+01   0.0000000E+00   2.7610507E+00  -1.8798820E+01   0.0000000E+00   3.0813875E+00  -1.9719946E+01   0.0000000E+00   3.4925621E+00  -2.1005220E+01   0.0000000E+00   4.1764116E+00  -2.2434130E+01   0.0000000E+00   5.1994586E+00  -1.9414354E+01   0.0000000E+00   2.0804110E+00  -1.9681387E+01   0.0000000E+00   2.4712355E+00  -1.9953215E+01   0.0000000E+00   2.8341322E+00  -2.0334406E+01   0.0000000E+00   3.1728041E+00  -2.1005592E+01   0.0000000E+00   3.5081787E+00  -2.2102016E+01   0.0000000E+00   3.9232850E+00  -2.3663097E+01   0.0000000E+00   4.6201925E+00  -2.5413200E+01   0.0000000E+00   5.7320910E+00  -2.1659273E+01   0.0000000E+00   2.3554199E+00  -2.1922226E+01   0.0000000E+00   2.8153675E+00  -2.2189255E+01   0.0000000E+00   3.2344182E+00  -2.2588535E+01   0.0000000E+00   3.6196532E+00  -2.3346739E+01   0.0000000E+00   3.9836369E+00  -2.4637562E+01   0.0000000E+00   4.4120359E+00  -2.6518156E+01   0.0000000E+00   5.1181340E+00  -2.8655270E+01   0.0000000E+00   6.3034511E+00  -2.4083382E+01   0.0000000E+00   2.6417627E+00  -2.4332033E+01   0.0000000E+00   3.1725540E+00  -2.4580854E+01   0.0000000E+00   3.6515422E+00  -2.4982443E+01   0.0000000E+00   4.0991192E+00  -2.5820726E+01   0.0000000E+00   4.5080829E+00  -2.7324234E+01   0.0000000E+00   4.9730477E+00  -2.9572577E+01   0.0000000E+00   5.6923184E+00  -3.2170071E+01   0.0000000E+00   6.9348464E+00  -2.6690300E+01   0.0000000E+00   2.9441977E+00  -2.6915604E+01   0.0000000E+00   3.5414791E+00  -2.7129234E+01   0.0000000E+00   4.0868669E+00  -2.7518509E+01   0.0000000E+00   4.6008234E+00  -2.8430347E+01   0.0000000E+00   5.0721178E+00  -3.0161602E+01   0.0000000E+00   5.6053963E+00  -3.2834240E+01   0.0000000E+00   6.3681059E+00  -3.5982529E+01   0.0000000E+00   7.6608262E+00  -2.9480547E+01   0.0000000E+00   3.2699752E+00  -2.9673878E+01   0.0000000E+00   3.9215205E+00  -2.9837957E+01   0.0000000E+00   4.5286260E+00  -3.0199417E+01   0.0000000E+00   5.1211352E+00  -3.1181454E+01   0.0000000E+00   5.6618285E+00  -3.3159286E+01   0.0000000E+00   6.3081160E+00  -3.6320347E+01   0.0000000E+00   7.1749296E+00  -4.0140621E+01   0.0000000E+00   8.5128555E+00  -3.2443993E+01   0.0000000E+00   3.6267896E+00  -3.2595657E+01   0.0000000E+00   4.3073182E+00  -3.2701412E+01   0.0000000E+00   4.9642649E+00  -3.3027824E+01   0.0000000E+00   5.6339054E+00  -3.4072079E+01   0.0000000E+00   6.2664261E+00  -3.6329357E+01   0.0000000E+00   7.0700021E+00  -4.0054100E+01   0.0000000E+00   8.1395016E+00  -4.4714699E+01   0.0000000E+00   9.5347319E+00  -3.5563107E+01   0.0000000E+00   4.0692401E+00  -3.5666843E+01   0.0000000E+00   4.7636995E+00  -3.5707912E+01   0.0000000E+00   5.4406171E+00  -3.5994259E+01   0.0000000E+00   6.1678367E+00  -3.7099731E+01   0.0000000E+00   6.8922801E+00  -3.9660797E+01   0.0000000E+00   7.9014702E+00  -4.4041466E+01   0.0000000E+00   9.3003693E+00  -4.9764950E+01   0.0000000E+00   1.0772792E+01  -3.8765862E+01   0.0000000E+00   4.5654664E+00  -3.8827751E+01   0.0000000E+00   5.2207398E+00  -3.8804516E+01   0.0000000E+00   5.9007120E+00  -3.9031414E+01   0.0000000E+00   6.7195697E+00  -4.0220608E+01   0.0000000E+00   7.4913163E+00  -4.3106289E+01   0.0000000E+00   8.8293018E+00  -4.8226242E+01   0.0000000E+00   1.0710681E+01  -5.5254887E+01   0.0000000E+00   1.2284716E+01  -4.1913658E+01   0.0000000E+00   5.1869178E+00  -4.1935680E+01   0.0000000E+00   5.6854725E+00  -4.1864960E+01   0.0000000E+00   6.3049698E+00  -4.2098713E+01   0.0000000E+00   7.0012832E+00  -4.3310837E+01   0.0000000E+00   8.1403008E+00  -4.6518925E+01   0.0000000E+00   9.9225378E+00  -5.2411339E+01   0.0000000E+00   1.2423404E+01  -6.0943977E+01   0.0000000E+00   1.4257850E+01  -4.4783295E+01   0.0000000E+00   5.8885427E+00  -4.4747585E+01   0.0000000E+00   6.3054562E+00  -4.4668877E+01   0.0000000E+00   6.6553607E+00  -4.4983429E+01   0.0000000E+00   7.2877998E+00  -4.6322796E+01   0.0000000E+00   8.5305862E+00  -4.9681030E+01   0.0000000E+00   1.1255766E+01  -5.6295017E+01   0.0000000E+00   1.4535452E+01  -6.6420593E+01   0.0000000E+00   1.7082613E+01  -4.7130314E+01   0.0000000E+00   6.6231403E+00  -4.7076641E+01   0.0000000E+00   6.8342609E+00  -4.7020039E+01   0.0000000E+00   7.1508493E+00  -4.7390549E+01   0.0000000E+00   7.6757112E+00  -4.9071651E+01   0.0000000E+00   8.9821568E+00  -5.2837414E+01   0.0000000E+00   1.2107553E+01  -5.9662514E+01   0.0000000E+00   1.7196455E+01  -7.1109116E+01   0.0000000E+00   2.0957636E+01  -4.8963173E+01   0.0000000E+00   7.1552811E+00  -4.8875336E+01   0.0000000E+00   7.1850500E+00  -4.8759666E+01   0.0000000E+00   7.3954635E+00  -4.9289032E+01   0.0000000E+00   8.0877495E+00  -5.1142899E+01   0.0000000E+00   9.8541231E+00  -5.5262501E+01   0.0000000E+00   1.3706785E+01  -6.2356071E+01   0.0000000E+00   2.0790297E+01  -7.4194534E+01   0.0000000E+00   2.6569296E+01  -5.0357903E+01   0.0000000E+00   7.4415746E+00  -5.0295609E+01   0.0000000E+00   7.1266499E+00  -5.0200760E+01   0.0000000E+00   7.2447906E+00  -5.0686417E+01   0.0000000E+00   7.9786143E+00  -5.2610096E+01   0.0000000E+00   1.0306339E+01  -5.6873692E+01   0.0000000E+00   1.5303026E+01  -6.3839664E+01   0.0000000E+00   2.5469227E+01  -7.5753304E+01   0.0000000E+00   3.3888790E+01  -5.0659477E+01   0.0000000E+00   8.6246729E+00  -5.0582237E+01   0.0000000E+00   7.8838553E+00  -5.0607334E+01   0.0000000E+00   7.7179575E+00  -5.1168743E+01   0.0000000E+00   8.4584312E+00  -5.3194023E+01   0.0000000E+00   1.1563316E+01  -5.7742268E+01   0.0000000E+00   1.7055830E+01  -6.4096466E+01   0.0000000E+00   2.8733412E+01  -7.5184624E+01   0.0000000E+00   4.2119766E+01  -4.9173702E+01   0.0000000E+00   1.2557232E+01  -4.8944744E+01   0.0000000E+00   1.1582284E+01  -4.8821117E+01   0.0000000E+00   1.1110385E+01  -4.9661350E+01   0.0000000E+00   1.1772912E+01  -5.2724422E+01   0.0000000E+00   1.3952065E+01  -5.7729427E+01   0.0000000E+00   1.8454071E+01  -6.1989685E+01   0.0000000E+00   3.1294659E+01  -6.5331253E+01   0.0000000E+00   4.6003475E+01  -4.6987274E+01   0.0000000E+00   2.0903196E+01  -4.6476425E+01   0.0000000E+00   1.9741676E+01  -4.5769760E+01   0.0000000E+00   1.8581129E+01  -4.5380768E+01   0.0000000E+00   1.6012220E+01  -4.5595657E+01   0.0000000E+00   1.5943804E+01  -4.5201912E+01   0.0000000E+00   2.0354277E+01  -4.4389061E+01   0.0000000E+00   3.4952599E+01  -4.3590839E+01   0.0000000E+00   4.9673512E+01  -3.1321131E+01   0.0000000E+00   2.1785677E+01  -3.0834190E+01   0.0000000E+00   2.0216969E+01  -3.0096273E+01   0.0000000E+00   1.8403736E+01  -2.9125326E+01   0.0000000E+00   1.5233569E+01  -2.8160454E+01   0.0000000E+00   1.4845291E+01  -2.7124908E+01   0.0000000E+00   2.1336100E+01  -2.6186075E+01   0.0000000E+00   3.7819359E+01  -2.5470118E+01   0.0000000E+00   5.4481544E+01  -1.8405064E+01   0.0000000E+00   2.1463554E+01  -1.7826988E+01   0.0000000E+00   1.9355825E+01  -1.7064285E+01   0.0000000E+00   1.7013624E+01  -1.6194677E+01   0.0000000E+00   1.3803418E+01  -1.5306993E+01   0.0000000E+00   1.4194517E+01  -1.4495095E+01   0.0000000E+00   2.1230799E+01  -1.3833941E+01   0.0000000E+00   4.0551643E+01  -1.3363830E+01   0.0000000E+00   5.8194618E+01  -8.6968517E+00   0.0000000E+00   2.0873148E+01  -8.2200785E+00   0.0000000E+00   1.8400219E+01  -7.6574364E+00   0.0000000E+00   1.5800510E+01  -7.0704370E+00   0.0000000E+00   1.2908964E+01  -6.5358644E+00   0.0000000E+00   1.3974228E+01  -6.1237454E+00   0.0000000E+00   2.1352461E+01  -5.8633175E+00   0.0000000E+00   4.2451065E+01  -5.7325563E+00   0.0000000E+00   6.0667122E+01  -5.5402410E-01   0.0000000E+00   2.0270134E+01  -2.5054142E-01   0.0000000E+00   1.7649515E+01   4.1363657E-02   0.0000000E+00   1.5181137E+01   2.8632751E-01   0.0000000E+00   1.2722599E+01   4.3960440E-01   0.0000000E+00   1.3869153E+01   4.6831208E-01   0.0000000E+00   2.1667574E+01   3.7999511E-01   0.0000000E+00   4.4005695E+01   2.2764720E-01   0.0000000E+00   6.1985928E+01   7.4544067E+00   0.0000000E+00   1.9767687E+01   7.6291394E+00   0.0000000E+00   1.7194809E+01   7.7246728E+00   0.0000000E+00   1.4894764E+01   7.7300935E+00   0.0000000E+00   1.3158084E+01   7.6350803E+00   0.0000000E+00   1.4309205E+01   7.4402828E+00   0.0000000E+00   2.2209753E+01   7.1720648E+00   0.0000000E+00   4.4587696E+01   6.8886623E+00   0.0000000E+00   6.2299530E+01   1.5906494E+01   0.0000000E+00   1.9349546E+01   1.6061380E+01   0.0000000E+00   1.6949448E+01   1.6110607E+01   0.0000000E+00   1.4885247E+01   1.6057940E+01   0.0000000E+00   1.3620192E+01   1.5915050E+01   0.0000000E+00   1.4936822E+01   1.5700927E+01   0.0000000E+00   2.2486492E+01   1.5442356E+01   0.0000000E+00   4.4152424E+01   1.5188964E+01   0.0000000E+00   6.1586884E+01   2.4579346E+01   0.0000000E+00   1.8920513E+01   2.4825314E+01   0.0000000E+00   1.6753473E+01   2.4973701E+01   0.0000000E+00   1.4943735E+01   2.5030544E+01   0.0000000E+00   1.4041874E+01   2.5011122E+01   0.0000000E+00   1.5391236E+01   2.4934296E+01   0.0000000E+00   2.2510141E+01   2.4816963E+01   0.0000000E+00   4.3137012E+01   2.4701183E+01   0.0000000E+00   6.0213844E+01   3.2904171E+01   0.0000000E+00   1.8375544E+01   3.3310139E+01   0.0000000E+00   1.6454754E+01   3.3645481E+01   0.0000000E+00   1.4885215E+01   3.3909649E+01   0.0000000E+00   1.4279694E+01   3.4106964E+01   0.0000000E+00   1.5660062E+01   3.4242859E+01   0.0000000E+00   2.2279221E+01   3.4321037E+01   0.0000000E+00   4.1764000E+01   3.4382481E+01   0.0000000E+00   5.8292034E+01   4.0337090E+01   0.0000000E+00   1.7647034E+01   4.0915527E+01   0.0000000E+00   1.5960198E+01   4.1452999E+01   0.0000000E+00   1.4604113E+01   4.1791939E+01   0.0000000E+00   1.4034965E+01   4.2366535E+01   0.0000000E+00   1.5779590E+01   4.2718445E+01   0.0000000E+00   2.1805050E+01   4.2987946E+01   0.0000000E+00   4.0269341E+01   4.3217987E+01   0.0000000E+00   5.5893555E+01   4.5641895E+01   0.0000000E+00   1.6727484E+01   4.6615326E+01   0.0000000E+00   1.5277175E+01   4.7648212E+01   0.0000000E+00   1.4103537E+01   4.8260231E+01   0.0000000E+00   1.3557057E+01   4.9115425E+01   0.0000000E+00   1.5648494E+01   4.9853737E+01   0.0000000E+00   2.1313145E+01   5.0130764E+01   0.0000000E+00   3.8706856E+01   5.0499969E+01   0.0000000E+00   5.3198376E+01   4.6870152E+01   0.0000000E+00   1.5681494E+01   4.8027565E+01   0.0000000E+00   1.4536025E+01   4.9393635E+01   0.0000000E+00   1.3617290E+01   5.1333908E+01   0.0000000E+00   1.2868995E+01   5.3610172E+01   0.0000000E+00   1.4868388E+01   5.5054684E+01   0.0000000E+00   2.0460909E+01   5.5443687E+01   0.0000000E+00   3.6749210E+01   5.5857033E+01   0.0000000E+00   5.0118553E+01   4.7122345E+01   0.0000000E+00   1.4666234E+01   4.8327721E+01   0.0000000E+00   1.3855910E+01   4.9700012E+01   0.0000000E+00   1.3164132E+01   5.1680901E+01   0.0000000E+00   1.2694124E+01   5.5194729E+01   0.0000000E+00   1.4167340E+01   5.8523891E+01   0.0000000E+00   1.9412086E+01   5.9091038E+01   0.0000000E+00   3.4205700E+01   5.9698231E+01   0.0000000E+00   4.6532478E+01   4.7096210E+01   0.0000000E+00   1.3857087E+01   4.8374645E+01   0.0000000E+00   1.3319864E+01   4.9830509E+01   0.0000000E+00   1.2795693E+01   5.1776230E+01   0.0000000E+00   1.2617336E+01   5.5061096E+01   0.0000000E+00   1.3624505E+01   6.0008472E+01   0.0000000E+00   1.8264370E+01   6.1952602E+01   0.0000000E+00   3.1445057E+01   6.3071743E+01   0.0000000E+00   4.2758278E+01   4.6963882E+01   0.0000000E+00   1.3251424E+01   4.8344547E+01   0.0000000E+00   1.2823804E+01   4.9902245E+01   0.0000000E+00   1.2371758E+01   5.1814789E+01   0.0000000E+00   1.2426044E+01   5.4925613E+01   0.0000000E+00   1.3111521E+01   6.0199387E+01   0.0000000E+00   1.7153801E+01   6.4773514E+01   0.0000000E+00   2.8537462E+01   6.7270554E+01   0.0000000E+00   3.9686569E+01   4.6742683E+01   0.0000000E+00   1.2607904E+01   4.8181870E+01   0.0000000E+00   1.2351976E+01   4.9760063E+01   0.0000000E+00   1.2274622E+01   5.1977386E+01   0.0000000E+00   1.2023740E+01   5.5116772E+01   0.0000000E+00   1.2568469E+01   6.0624321E+01   0.0000000E+00   1.5994426E+01   6.7964233E+01   0.0000000E+00   2.5572763E+01   7.3241394E+01   0.0000000E+00   3.7536182E+01   4.6338459E+01   0.0000000E+00   1.1944874E+01   4.8013260E+01   0.0000000E+00   1.1887631E+01   4.9849949E+01   0.0000000E+00   1.1585752E+01   5.2126366E+01   0.0000000E+00   1.1361523E+01   5.5615871E+01   0.0000000E+00   1.2066159E+01   6.1570229E+01   0.0000000E+00   1.4938392E+01   7.1760902E+01   0.0000000E+00   2.3343018E+01   8.1607239E+01   0.0000000E+00   3.3423637E+01   4.5846588E+01   0.0000000E+00   1.1225224E+01   4.7769897E+01   0.0000000E+00   1.1053060E+01   4.9817627E+01   0.0000000E+00   1.0643231E+01   5.2448864E+01   0.0000000E+00   1.0861971E+01   5.6376675E+01   0.0000000E+00   1.1727463E+01   6.3545853E+01   0.0000000E+00   1.4099872E+01   7.5748955E+01   0.0000000E+00   2.0911419E+01   9.0148697E+01   0.0000000E+00   2.7028820E+01   4.5338802E+01   0.0000000E+00   1.0278077E+01   4.7421688E+01   0.0000000E+00   9.9363213E+00   4.9829071E+01   0.0000000E+00   9.7303295E+00   5.2986309E+01   0.0000000E+00   1.0243979E+01   5.7745724E+01   0.0000000E+00   1.1047608E+01   6.6190346E+01   0.0000000E+00   1.3397132E+01   7.9748901E+01   0.0000000E+00   1.8865686E+01   9.5562561E+01   0.0000000E+00   2.3076818E+01   4.4777210E+01   0.0000000E+00   9.0290928E+00   4.7192604E+01   0.0000000E+00   8.7631731E+00   5.0108276E+01   0.0000000E+00   8.8185959E+00   5.4070274E+01   0.0000000E+00   9.3659363E+00   5.9710663E+01   0.0000000E+00   1.0222320E+01   6.9385857E+01   0.0000000E+00   1.2719595E+01   8.4332397E+01   0.0000000E+00   1.7390049E+01   4.4327591E+01   0.0000000E+00   7.6514087E+00   4.7199509E+01   0.0000000E+00   7.5299954E+00   5.0837784E+01   0.0000000E+00   7.7610497E+00   5.5605251E+01   0.0000000E+00   8.2332411E+00   6.2525688E+01   0.0000000E+00   9.1090202E+00   7.3861000E+01   0.0000000E+00   1.2031916E+01   8.8951706E+01   0.0000000E+00   1.6152224E+01   4.4202911E+01   0.0000000E+00   6.3382506E+00   4.7715691E+01   0.0000000E+00   6.3677845E+00   5.2119392E+01   0.0000000E+00   6.6835241E+00   5.8069557E+01   0.0000000E+00   7.2706480E+00   6.6534355E+01   0.0000000E+00   8.5555906E+00   7.9378967E+01   0.0000000E+00   1.1989371E+01   4.4551376E+01   0.0000000E+00   5.1162219E+00   4.8844166E+01   0.0000000E+00   5.3666749E+00   5.4333199E+01   0.0000000E+00   5.9640970E+00   6.1788895E+01   0.0000000E+00   6.8817697E+00   7.2138817E+01   0.0000000E+00   9.0661297E+00   8.4774384E+01   0.0000000E+00   1.2253108E+01   4.5691437E+01   0.0000000E+00   4.2366681E+00   5.1122746E+01   0.0000000E+00   5.0100698E+00   5.8090969E+01   0.0000000E+00   5.9439549E+00   6.7004723E+01   0.0000000E+00   7.4295549E+00   7.8187317E+01   0.0000000E+00   1.0153425E+01   4.8308353E+01   0.0000000E+00   4.2421384E+00   5.5082630E+01   0.0000000E+00   5.2572536E+00   6.3470295E+01   0.0000000E+00   6.8474069E+00   7.2926178E+01   0.0000000E+00   8.7056799E+00   5.2487236E+01   0.0000000E+00   4.6690044E+00   6.0209862E+01   0.0000000E+00   6.1082506E+00   6.9274239E+01   0.0000000E+00   8.1033182E+00   7.7177193E+01   0.0000000E+00   9.0797024E+00   5.7144096E+01   0.0000000E+00   5.1185431E+00   6.5289909E+01   0.0000000E+00   6.7030120E+00   6.1506680E+01   0.0000000E+00   5.4334326E+00 
StrainDot 3 2975 float
  0.0000000E+00   0.0000000E+00   0.0000000E+00   0.0000000E+00   0.0000000E+00   0.0000000E+00   0.0000000E+00   0.0000000E+00   0.0000000E+00   0.0000000E+00   0.0000000E+00   0.0000000E+00   0.0000000E+00   0.0000000E+00   0.0000000E+00   0.0000000E+00   0.0000000E+00   0.0000000E+00   0.0000000E+00   0.0000000E+00   0.0000000E+00   0.0000000E+00   0.0000000E+00   0.0000000E+00   0.0000000E+00   0.0000000E+00   0.0000000E+00   0.0000000E+00   0.0000000E+00   0.0000000E+00   0.0000000E+00   0.0000000E+00   0.0000000E+00   0.0000000E+00   0.0000000E+00   0.0000000E+00   0.0000000E+00   0.0000000E+00   0.0000000E+00  -1.5144228E-07   0.0000000E+00  -4.0328178E-08  -4.1337426E-21   0.0000000E+00  -1.7294731E-21  -7.1834302E-07   0.0000000E+00  -2.9555702E-07  -5.1770694E-06   0.0000000E+00  -1.6689112E-06  -1.2416378E-06   0.0000000E+00  -6.2784011E-07  -9.1274223E-06   0.0000000E+00  -4.4520634E-06  -3.1104046E-05   0.0000000E+00  -1.1642666E-05  -9.9126910E-06   0.0000000E+00  -5.8766873E-06  -3.8504168E-05   0.0000000E+00  -2.1424599E-05  -1.0123465E-04   0.0000000E+00  -4.2765532E-05  -3.3674081E-05   0.0000000E+00  -2.2846103E-05  -1.0152309E-04   0.0000000E+00  -6.3719490E-05  -2.3584283E-04   0.0000000E+00  -1.1153510E-04  -7.5751675E-05   0.0000000E+00  -5.8778725E-05  -2.0169296E-04   0.0000000E+00  -1.4300477E-04  -4.3885165E-04   0.0000000E+00  -2.3299002E-04  -1.3199997E-04   0.0000000E+00  -1.1748337E-04  -3.2997242E-04   0.0000000E+00  -2.6474858E-04  -6.9372880E-04   0.0000000E+00  -4.1402213E-04  -1.9336292E-04   0.0000000E+00  -1.9684531E-04  -4.6970553E-04   0.0000000E+00  -4.2428583E-04  -9.7138050E-04   0.0000000E+00  -6.4771745E-04  -2.5219287E-04   0.0000000E+00  -2.8931414E-04  -6.0781901E-04   0.0000000E+00  -6.0758181E-04  -1.2495525E-03   0.0000000E+00  -9.1345661E-04  -3.0810456E-04   0.0000000E+00  -3.8577869E-04  -7.4533903E-04   0.0000000E+00  -7.9808244E-04  -1.5322500E-03   0.0000000E+00  -1.1867591E-03  -3.7022459E-04   0.0000000E+00  -4.8057895E-04  -9.0126449E-04   0.0000000E+00  -9.8575570E-04  -1.8546978E-03   0.0000000E+00  -1.4535976E-03  -4.5717970E-04   0.0000000E+00  -5.7439361E-04  -1.1155045E-03   0.0000000E+00  -1.1722884E-03  -2.2902952E-03   0.0000000E+00  -1.7182765E-03  -5.9902074E-04   0.0000000E+00  -6.7522761E-04  -1.4533630E-03   0.0000000E+00  -1.3739235E-03  -2.9579776E-03   0.0000000E+00  -2.0070486E-03  -8.4173336E-04   0.0000000E+00  -8.0249214E-04  -2.0119285E-03   0.0000000E+00  -1.6305165E-03  -4.0298072E-03   0.0000000E+00  -2.3794672E-03  -1.2584890E-03   0.0000000E+00  -1.0048491E-03  -2.9329737E-03   0.0000000E+00  -2.0274499E-03  -5.7411944E-03   0.0000000E+00  -2.9494946E-03  -1.9521951E-03   0.0000000E+00  -1.3991628E-03  -4.3684579E-03   0.0000000E+00  -2.7304678E-03  -8.3078118E-03   0.0000000E+00  -3.9139008E-03  -2.9968440E-03   0.0000000E+00  -2.2472413E-03  -6.3057500E-03   0.0000000E+00  -4.0381872E-03  -1.1626573E-02   0.0000000E+00  -5.5865580E-03  -8.4665865E-03   0.0000000E+00  -6.4242287E-03  -1.5172819E-02   0.0000000E+00  -8.4151104E-03   0.0000000E+00   0.0000000E+00   0.0000000E+00   0.0000000E+00   0.0000000E+00   0.0000000E+00   0.0000000E+00   0.0000000E+00   0.0000000E+00   0.0000000E+00   0.0000000E+00   0.0000000E+00   0.0000000E+00   0.0000000E+00   0.0000000E+00   0.0000000E+00   0.0000000E+00   0.0000000E+00   0.0000000E+00   0.0000000E+00   0.0000000E+00   0.0000000E+00   0.0000000E+00   0.0000000E+00   0.0000000E+00   0.0000000E+00   0.0000000E+00   0.0000000E+00   0.0000000E+00   0.0000000E+00   0.0000000E+00   0.0000000E+00   0.0000000E+00   0.0000000E+00   0.0000000E+00   0.0000000E+00   0.0000000E+00   0.0000000E+00   0.0000000E+00   0.0000000E+00   0.0000000E+00   0.0000000E+00   0.0000000E+00   0.0000000E+00   0.0000000E+00   0.0000000E+00   0.0000000E+00   0.0000000E+00   0.0000000E+00   0.0000000E+00   0.0000000E+00   0.0000000E+00   0.0000000E+00   0.0000000E+00   0.0000000E+00   0.0000000E+00   0.0000000E+00   0.0000000E+00   0.0000000E+00   0.0000000E+00   0.0000000E+00   0.0000000E+00   0.0000000E+00   0.0000000E+00   0.0000000E+00   0.0000000E+00   0.0000000E+00   0.0000000E+00   0.0000000E+00   0.0000000E+00   0.0000000E+00   0.0000000E+00   0.0000000E+00   0.0000000E+00   0.0000000E+00  -3.1630716E-08   0.0000000E+00  -2.7337663E-09  -2.0908844E-07   0.0000000E+00  -9.2297796E-09  -5.0629285E-07   0.0000000E+00  -8.3045393E-09  -7.6446054E-07   0.0000000E+00  -8.4428109E-10  -9.0346794E-07   0.0000000E+00   2.2753650E-09  -9.9562749E-07   0.0000000E+00   2.6693177E-09  -1.0649940E-06   0.0000000E+00   2.7301525E-09  -1.3953871E-06   0.0000000E+00  -2.5529681E-07  -4.8023626E-06   0.0000000E+00  -5.5191288E-07  -1.0661410E-05   0.0000000E+00  -7.1287201E-07  -1.8133242E-05   0.0000000E+00  -6.1295782E-07  -2.5650274E-05   0.0000000E+00  -2.9152383E-07  -3.1808657E-05   0.0000000E+00   7.2790279E-08  -3.6043370E-05   0.0000000E+00   2.8546845E-07  -3.8772967E-05   0.0000000E+00   3.2563133E-07  -1.6800421E-05   0.0000000E+00  -3.6644465E-06  -3.8017090E-05   0.0000000E+00  -5.2075202E-06  -6.8661990E-05   0.0000000E+00  -5.5547725E-06  -1.0520472E-04   0.0000000E+00  -4.4743642E-06  -1.4191653E-04   0.0000000E+00  -2.2868567E-06  -1.7361046E-04   0.0000000E+00   1.7706387E-07  -1.9778407E-04   0.0000000E+00   2.0204707E-06  -2.1467087E-04   0.0000000E+00   2.8761992E-06  -7.4646654E-05   0.0000000E+00  -1.8729137E-05  -1.4464762E-04   0.0000000E+00  -2.2740725E-05  -2.3960942E-04   0.0000000E+00  -2.2324222E-05  -3.4966029E-04   0.0000000E+00  -1.7281734E-05  -4.5955612E-04   0.0000000E+00  -8.7556955E-06  -5.5581232E-04   0.0000000E+00   6.1689792E-07  -6.3161069E-04   0.0000000E+00   7.9433376E-06  -6.8673928E-04   0.0000000E+00   1.1904441E-05  -2.1296259E-04   0.0000000E+00  -5.9948783E-05  -3.8308959E-04   0.0000000E+00  -6.7423774E-05  -6.0713815E-04   0.0000000E+00  -6.3345498E-05  -8.6256006E-04   0.0000000E+00  -4.7783280E-05  -1.1160912E-03   0.0000000E+00  -2.3716162E-05  -1.3388420E-03   0.0000000E+00   2.2625977E-06  -1.5162431E-03   0.0000000E+00   2.2869313E-05  -1.6473616E-03   0.0000000E+00   3.4586468E-05  -4.6341552E-04   0.0000000E+00  -1.4548971E-04  -8.0076326E-04   0.0000000E+00  -1.5695719E-04  -1.2381611E-03   0.0000000E+00  -1.4370072E-04  -1.7318095E-03   0.0000000E+00  -1.0628738E-04  -2.2182295E-03   0.0000000E+00  -5.1335934E-05  -2.6441049E-03   0.0000000E+00   6.9178463E-06  -2.9838106E-03   0.0000000E+00   5.3166463E-05  -3.2361187E-03   0.0000000E+00   8.0019345E-05  -8.3080557E-04   0.0000000E+00  -2.9203677E-04  -1.4042824E-03   0.0000000E+00  -3.0782944E-04  -2.1418273E-03   0.0000000E+00  -2.7730528E-04  -2.9674717E-03   0.0000000E+00  -2.0138749E-04  -3.7727987E-03   0.0000000E+00  -9.3708724E-05  -4.4721025E-03   0.0000000E+00   1.7837749E-05  -5.0276415E-03   0.0000000E+00   1.0551840E-04  -5.4395054E-03   0.0000000E+00   1.5665262E-04  -1.2875744E-03   0.0000000E+00  -5.0754548E-04  -2.1501458E-03   0.0000000E+00  -5.2801985E-04  -3.2515693E-03   0.0000000E+00  -4.7003190E-04  -4.4727069E-03   0.0000000E+00  -3.3425051E-04  -5.6473590E-03   0.0000000E+00  -1.4771985E-04  -6.6568288E-03   0.0000000E+00   3.9533290E-05  -7.4530803E-03   0.0000000E+00   1.8424111E-04  -8.0392910E-03   0.0000000E+00   2.6814951E-04  -1.7844270E-03   0.0000000E+00  -7.8394578E-04  -2.9580223E-03   0.0000000E+00  -8.0853474E-04  -4.4382750E-03   0.0000000E+00  -7.0894742E-04  -2.2828358E-03   0.0000000E+00  -1.0951983E-03  -3.7617481E-03   0.0000000E+00  -1.1201072E-03  -2.7924934E-03   0.0000000E+00  -1.4094078E-03  -4.5822719E-03   0.0000000E+00  -1.4251709E-03  -3.3743731E-03   0.0000000E+00  -1.7102798E-03  -5.5207638E-03   0.0000000E+00  -1.7092342E-03  -4.1452758E-03   0.0000000E+00  -2.0056050E-03  -6.7366138E-03   0.0000000E+00  -1.9825220E-03  -5.2911458E-03   0.0000000E+00  -2.3294014E-03  -8.4790755E-03   0.0000000E+00  -2.2802046E-03  -7.0730280E-03   0.0000000E+00  -2.7527611E-03  -1.1085475E-02   0.0000000E+00  -2.6719442E-03  -9.8319817E-03   0.0000000E+00  -3.4049554E-03  -1.4970108E-02   0.0000000E+00  -3.2812676E-03  -1.3871785E-02   0.0000000E+00  -4.5052385E-03  -2.0493034E-02   0.0000000E+00  -4.3199239E-03  -1.9071039E-02   0.0000000E+00  -6.3997172E-03  -2.7577892E-02   0.0000000E+00  -6.1360905E-03  -2.4680141E-02   0.0000000E+00  -9.5612407E-03  -3.5444811E-02   0.0000000E+00  -9.2267115E-03   0.0000000E+00   0.0000000E+00   0.0000000E+00   0.0000000E+00   0.0000000E+00   0.0000000E+00   0.0000000E+00   0.0000000E+00   0.0000000E+00   0.0000000E+00   0.0000000E+00   0.0000000E+00   0.0000000E+00   0.0000000E+00   0.0000000E+00   0.0000000E+00   0.0000000E+00   0.0000000E+00   0.0000000E+00   0.0000000E+00   0.0000000E+00   0.0000000E+00   0.0000000E+00   0.0000000E+00   0.0000000E+00   0.0000000E+00   0.0000000E+00   0.0000000E+00   0.0000000E+00   0.0000000E+00   0.0000000E+00   0.0000000E+00   0.0000000E+00   0.0000000E+00   0.0000000E+00   0.0000000E+00   0.0000000E+00   0.0000000E+00   0.0000000E+00   0.0000000E+00   0.0000000E+00   0.0000000E+00   0.0000000E+00   0.0000000E+00   0.0000000E+00   0.0000000E+00   0.0000000E+00   0.0000000E+00   0.0000000E+00   0.0000000E+00   0.0000000E+00   0.0000000E+00   0.0000000E+00   0.0000000E+00   0.0000000E+00   0.0000000E+00   0.0000000E+00   0.0000000E+00   0.0000000E+00   0.0000000E+00   0.0000000E+00   0.0000000E+00   0.0000000E+00   0.0000000E+00   0.0000000E+00   0.0000000E+00   0.0000000E+00   0.0000000E+00   0.0000000E+00   0.0000000E+00   0.0000000E+00   0.0000000E+00   0.0000000E+00   0.0000000E+00   0.0000000E+00   0.0000000E+00   0.0000000E+00   0.0000000E+00   0.0000000E+00   0.0000000E+00   0.0000000E+00  -1.1144506E-06   0.0000000E+00   2.5569746E-09  -1.1475752E-06   0.0000000E+00   2.2445485E-09  -1.1680885E-06   0.0000000E+00   1.8869077E-09  -1.1794601E-06   0.0000000E+00   1.5439403E-09  -1.1846672E-06   0.0000000E+00   1.2250236E-09  -1.1860745E-06   0.0000000E+00   9.4932862E-10  -1.1854885E-06   0.0000000E+00   7.2738232E-10  -1.1842139E-06   0.0000000E+00   5.6385968E-10  -1.1831187E-06   0.0000000E+00   4.6502324E-10  -4.0692095E-05   0.0000000E+00   3.1143179E-07  -4.2012398E-05   0.0000000E+00   2.7919037E-07  -4.2860960E-05   0.0000000E+00   2.3865883E-07  -4.3359418E-05   0.0000000E+00   1.9687135E-07  -4.3614720E-05   0.0000000E+00   1.5791986E-07  -4.3714830E-05   0.0000000E+00   1.2403432E-07  -4.3728065E-05   0.0000000E+00   9.6491789E-08  -4.3704258E-05   0.0000000E+00   7.6281083E-08  -4.3677115E-05   0.0000000E+00   6.3955071E-08  -2.2594600E-04   0.0000000E+00   2.9239727E-06  -2.3357215E-04   0.0000000E+00   2.6612506E-06  -2.3854154E-04   0.0000000E+00   2.3029911E-06  -2.4152097E-04   0.0000000E+00   1.9184586E-06  -2.4310326E-04   0.0000000E+00   1.5524525E-06  -2.4378058E-04   0.0000000E+00   1.2311037E-06  -2.4393847E-04   0.0000000E+00   9.6954182E-07  -2.4386084E-04   0.0000000E+00   7.7700543E-07  -2.4374039E-04   0.0000000E+00   6.5939656E-07  -7.2466669E-04   0.0000000E+00   1.2873568E-05  -7.4984977E-04   0.0000000E+00   1.2005842E-05  -7.6617394E-04   0.0000000E+00   1.0497769E-05  -7.7602552E-04   0.0000000E+00   8.8192119E-06  -7.8131561E-04   0.0000000E+00   7.1908207E-06  -7.8363600E-04   0.0000000E+00   5.7477860E-06  -7.8423781E-04   0.0000000E+00   4.5683923E-06  -7.8404613E-04   0.0000000E+00   3.6989070E-06  -7.8368955E-04   0.0000000E+00   3.1671618E-06  -1.7390634E-03   0.0000000E+00   3.8183542E-05  -1.8004227E-03   0.0000000E+00   3.6462687E-05  -1.8396960E-03   0.0000000E+00   3.2194534E-05  -1.8632871E-03   0.0000000E+00   2.7239053E-05  -1.8758739E-03   0.0000000E+00   2.2349635E-05  -1.8813130E-03   0.0000000E+00   1.7977545E-05  -1.8826321E-03   0.0000000E+00   1.4389028E-05  -1.8820696E-03   0.0000000E+00   1.1738516E-05  -1.8811467E-03   0.0000000E+00   1.0116139E-05  -3.4135154E-03   0.0000000E+00   8.8913192E-05  -3.5325761E-03   0.0000000E+00   8.5803164E-05  -3.6083045E-03   0.0000000E+00   7.6484845E-05  -3.6530697E-03   0.0000000E+00   6.5076587E-05  -3.6763907E-03   0.0000000E+00   5.3661868E-05  -3.6859054E-03   0.0000000E+00   4.3374777E-05  -3.6875829E-03   0.0000000E+00   3.4897635E-05  -3.6858285E-03   0.0000000E+00   2.8624732E-05  -3.6836306E-03   0.0000000E+00   2.4781986E-05  -5.7284362E-03   0.0000000E+00   1.7401036E-04  -5.9214463E-03   0.0000000E+00   1.6849370E-04  -6.0429578E-03   0.0000000E+00   1.5104449E-04  -6.1130086E-03   0.0000000E+00   1.2903547E-04  -6.1478149E-03   0.0000000E+00   1.0678390E-04  -6.1602830E-03   0.0000000E+00   8.6609747E-05  -6.1604390E-03   0.0000000E+00   6.9931331E-05  -6.1556422E-03   0.0000000E+00   5.7570454E-05  -6.1508617E-03   0.0000000E+00   4.9993436E-05  -8.4467949E-03   0.0000000E+00   2.9649239E-04  -8.7154908E-03   0.0000000E+00   2.8699310E-04  -8.8812532E-03   0.0000000E+00   2.5780371E-04  -8.9730686E-03   0.0000000E+00   2.2082296E-04  -9.0148114E-03   0.0000000E+00   1.8316686E-04  -9.0255924E-03   0.0000000E+00   1.4888693E-04  -9.0201190E-03   0.0000000E+00   1.2048087E-04  -9.0091089E-03   0.0000000E+00   9.9404555E-05  -8.9997575E-03   0.0000000E+00   8.6479544E-05   0.0000000E+00   0.0000000E+00   0.0000000E+00   0.0000000E+00   0.0000000E+00   0.0000000E+00   0.0000000E+00   0.0000000E+00   0.0000000E+00   0.0000000E+00   0.0000000E+00   0.0000000E+00   0.0000000E+00   0.0000000E+00   0.0000000E+00   0.0000000E+00   0.0000000E+00   0.0000000E+00   0.0000000E+00   0.0000000E+00   0.0000000E+00   0.0000000E+00   0.0000000E+00   0.0000000E+00   0.0000000E+00   0.0000000E+00   0.0000000E+00   0.0000000E+00   0.0000000E+00   0.0000000E+00   0.0000000E+00   0.0000000E+00   0.0000000E+00   0.0000000E+00   0.0000000E+00   0.0000000E+00   0.0000000E+00   0.0000000E+00   0.0000000E+00   0.0000000E+00   0.0000000E+00   0.0000000E+00   0.0000000E+00   0.0000000E+00   0.0000000E+00   0.0000000E+00   0.0000000E+00   0.0000000E+00   0.0000000E+00   0.0000000E+00   0.0000000E+00   0.0000000E+00   0.0000000E+00   0.0000000E+00   0.0000000E+00   0.0000000E+00   0.0000000E+00   0.0000000E+00   0.0000000E+00   0.0000000E+00   0.0000000E+00   0.0000000E+00   0.0000000E+00   0.0000000E+00   0.0000000E+00   0.0000000E+00   0.0000000E+00   0.0000000E+00   0.0000000E+00   0.0000000E+00   0.0000000E+00   0.0000000E+00  -1.1826995E-06   0.0000000E+00   4.3176376E-10  -1.1831186E-06   0.0000000E+00   4.6502030E-10  -1.1842139E-06   0.0000000E+00   5.6386096E-10  -1.1854886E-06   0.0000000E+00   7.2738460E-10  -1.1860747E-06   0.0000000E+00   9.4933128E-10  -1.1846673E-06   0.0000000E+00   1.2250261E-09  -1.1794601E-06   0.0000000E+00   1.5439372E-09  -1.1680885E-06   0.0000000E+00   1.8869029E-09  -4.3665968E-05   0.0000000E+00   5.9805139E-08  -4.3677115E-05   0.0000000E+00   6.3955071E-08  -4.3704251E-05   0.0000000E+00   7.6281133E-08  -4.3728058E-05   0.0000000E+00   9.6491988E-08  -4.3714837E-05   0.0000000E+00   1.2403456E-07  -4.3614727E-05   0.0000000E+00   1.5791989E-07  -4.3359421E-05   0.0000000E+00   1.9687117E-07  -4.2860964E-05   0.0000000E+00   2.3865871E-07  -2.4368815E-04   0.0000000E+00   6.1988658E-07  -2.4374037E-04   0.0000000E+00   6.5939713E-07  -2.4386091E-04   0.0000000E+00   7.7700645E-07  -2.4393844E-04   0.0000000E+00   9.6954273E-07  -2.4378055E-04   0.0000000E+00   1.2311045E-06  -2.4310326E-04   0.0000000E+00   1.5524528E-06  -2.4152099E-04   0.0000000E+00   1.9184579E-06  -2.3854150E-04   0.0000000E+00   2.3029904E-06  -7.8353111E-04   0.0000000E+00   2.9883829E-06  -7.8368967E-04   0.0000000E+00   3.1671641E-06  -7.8404619E-04   0.0000000E+00   3.6989113E-06  -7.8423810E-04   0.0000000E+00   4.5683960E-06  -7.8363594E-04   0.0000000E+00   5.7477896E-06  -7.8131567E-04   0.0000000E+00   7.1908207E-06  -7.7602552E-04   0.0000000E+00   8.8192119E-06  -7.6617394E-04   0.0000000E+00   1.0497769E-05  -1.8807434E-03   0.0000000E+00   9.5702217E-06  -1.8811462E-03   0.0000000E+00   1.0116146E-05  -1.8820689E-03   0.0000000E+00   1.1738526E-05  -1.8826319E-03   0.0000000E+00   1.4389038E-05  -1.8813128E-03   0.0000000E+00   1.7977549E-05  -1.8758742E-03   0.0000000E+00   2.2349637E-05  -1.8632871E-03   0.0000000E+00   2.7239057E-05  -1.8396961E-03   0.0000000E+00   3.2194530E-05  -3.6827105E-03   0.0000000E+00   2.3488286E-05  -3.6836306E-03   0.0000000E+00   2.4782001E-05  -3.6858290E-03   0.0000000E+00   2.8624749E-05  -3.6875831E-03   0.0000000E+00   3.4897657E-05  -3.6859042E-03   0.0000000E+00   4.3374788E-05  -3.6763898E-03   0.0000000E+00   5.3661875E-05  -3.6530690E-03   0.0000000E+00   6.5076587E-05  -3.6083031E-03   0.0000000E+00   7.6484859E-05  -6.1489581E-03   0.0000000E+00   4.7442103E-05  -6.1508599E-03   0.0000000E+00   4.9993465E-05  -6.1556427E-03   0.0000000E+00   5.7570505E-05  -6.1604390E-03   0.0000000E+00   6.9931339E-05  -6.1602825E-03   0.0000000E+00   8.6609754E-05  -6.1478163E-03   0.0000000E+00   1.0678393E-04  -6.1130091E-03   0.0000000E+00   1.2903550E-04  -6.0429596E-03   0.0000000E+00   1.5104453E-04  -8.9961952E-03   0.0000000E+00   8.2127161E-05  -8.9997584E-03   0.0000000E+00   8.6479580E-05  -9.0091107E-03   0.0000000E+00   9.9404628E-05  -9.0201199E-03   0.0000000E+00   1.2048097E-04  -9.0255952E-03   0.0000000E+00   1.4888699E-04  -9.0148179E-03   0.0000000E+00   1.8316694E-04  -8.9730704E-03   0.0000000E+00   2.2082296E-04  -8.8812523E-03   0.0000000E+00   2.5780380E-04   0.0000000E+00   0.0000000E+00   0.0000000E+00   0.0000000E+00   0.0000000E+00   0.0000000E+00   0.0000000E+00   0.0000000E+00   0.0000000E+00   0.0000000E+00   0.0000000E+00   0.0000000E+00   0.0000000E+00   0.0000000E+00   0.0000000E+00   0.0000000E+00   0.0000000E+00   0.0000000E+00   0.0000000E+00   0.0000000E+00   0.0000000E+00   0.0000000E+00   0.0000000E+00   0.0000000E+00   0.0000000E+00   0.0000000E+00   0.0000000E+00   0.0000000E+00   0.0000000E+00   0.0000000E+00   0.0000000E+00   0.0000000E+00   0.0000000E+00   0.0000000E+00   0.0000000E+00   0.0000000E+00   0.0000000E+00   0.0000000E+00   0.0000000E+00   0.0000000E+00   0.0000000E+00   0.0000000E+00   0.0000000E+00   0.0000000E+00   0.0000000E+00   0.0000000E+00   0.0000000E+00   0.0000000E+00   0.0000000E+00   0.0000000E+00   0.0000000E+00   0.0000000E+00   0.0000000E+00   0.0000000E+00   0.0000000E+00   0.0000000E+00   0.0000000E+00   0.0000000E+00   0.0000000E+00   0.0000000E+00   0.0000000E+00   0.0000000E+00   0.0000000E+00   0.0000000E+00   0.0000000E+00   0.0000000E+00   0.0000000E+00   0.0000000E+00   0.0000000E+00   0.0000000E+00   0.0000000E+00   0.0000000E+00   0.0000000E+00   0.0000000E+00   0.0000000E+00   0.0000000E+00   0.0000000E+00   0.0000000E+00   0.0000000E+00   0.0000000E+00   0.0000000E+00  -1.1475751E-06   0.0000000E+00   2.2445485E-09  -1.1144508E-06   0.0000000E+00   2.5569791E-09  -1.0649942E-06   0.0000000E+00   2.7301585E-09  -9.9562783E-07   0.0000000E+00   2.6693223E-09  -9.0346794E-07   0.0000000E+00   2.2753615E-09  -7.6446059E-07   0.0000000E+00  -8.4428065E-10  -5.0629296E-07   0.0000000E+00  -8.3045384E-09  -2.0908844E-07   0.0000000E+00  -9.2297823E-09  -3.1630726E-08   0.0000000E+00  -2.7337672E-09  -4.2012387E-05   0.0000000E+00   2.7919040E-07  -4.0692099E-05   0.0000000E+00   3.1143216E-07  -3.8772963E-05   0.0000000E+00   3.2563182E-07  -3.6043359E-05   0.0000000E+00   2.8546881E-07  -3.1808653E-05   0.0000000E+00   7.2790343E-08  -2.5650272E-05   0.0000000E+00  -2.9152389E-07  -1.8133243E-05   0.0000000E+00  -6.1295810E-07  -1.0661412E-05   0.0000000E+00  -7.1287212E-07  -4.8023626E-06   0.0000000E+00  -5.5191288E-07  -2.3357218E-04   0.0000000E+00   2.6612520E-06  -2.2594605E-04   0.0000000E+00   2.9239757E-06  -2.1467092E-04   0.0000000E+00   2.8762017E-06  -1.9778410E-04   0.0000000E+00   2.0204736E-06  -1.7361048E-04   0.0000000E+00   1.7706557E-07  -1.4191656E-04   0.0000000E+00  -2.2868571E-06  -1.0520476E-04   0.0000000E+00  -4.4743651E-06  -6.8661990E-05   0.0000000E+00  -5.5547735E-06  -3.8017086E-05   0.0000000E+00  -5.2075211E-06  -7.4984966E-04   0.0000000E+00   1.2005850E-05  -7.2466664E-04   0.0000000E+00   1.2873576E-05  -6.8673928E-04   0.0000000E+00   1.1904451E-05  -6.3161086E-04   0.0000000E+00   7.9433457E-06  -5.5581244E-04   0.0000000E+00   6.1690787E-07  -4.5955612E-04   0.0000000E+00  -8.7556909E-06  -3.4966020E-04   0.0000000E+00  -1.7281742E-05  -2.3960944E-04   0.0000000E+00  -2.2324230E-05  -1.4464762E-04   0.0000000E+00  -2.2740729E-05  -1.8004222E-03   0.0000000E+00   3.6462690E-05  -1.7390639E-03   0.0000000E+00   3.8183567E-05  -1.6473619E-03   0.0000000E+00   3.4586479E-05  -1.5162433E-03   0.0000000E+00   2.2869348E-05  -1.3388421E-03   0.0000000E+00   2.2626211E-06  -1.1160914E-03   0.0000000E+00  -2.3716157E-05  -8.6256000E-04   0.0000000E+00  -4.7783291E-05  -6.0713832E-04   0.0000000E+00  -6.3345513E-05  -3.8308962E-04   0.0000000E+00  -6.7423804E-05  -3.5325754E-03   0.0000000E+00   8.5803185E-05  -3.4135149E-03   0.0000000E+00   8.8913250E-05  -3.2361196E-03   0.0000000E+00   8.0019374E-05  -2.9838108E-03   0.0000000E+00   5.3166517E-05  -2.6441042E-03   0.0000000E+00   6.9179023E-06  -2.2182295E-03   0.0000000E+00  -5.1335908E-05  -1.7318097E-03   0.0000000E+00  -1.0628738E-04  -1.2381615E-03   0.0000000E+00  -1.4370076E-04  -8.0076372E-04   0.0000000E+00  -1.5695723E-04  -5.9214453E-03   0.0000000E+00   1.6849383E-04  -5.7284366E-03   0.0000000E+00   1.7401043E-04  -5.4395054E-03   0.0000000E+00   1.5665275E-04  -5.0276448E-03   0.0000000E+00   1.0551855E-04  -4.4721020E-03   0.0000000E+00   1.7837885E-05  -3.7727996E-03   0.0000000E+00  -9.3708695E-05  -2.9674729E-03   0.0000000E+00  -2.0138749E-04  -2.1418277E-03   0.0000000E+00  -2.7730543E-04  -1.4042829E-03   0.0000000E+00  -3.0782967E-04  -8.7154927E-03   0.0000000E+00   2.8699313E-04  -8.4467959E-03   0.0000000E+00   2.9649262E-04  -8.0392901E-03   0.0000000E+00   2.6814948E-04  -7.4530812E-03   0.0000000E+00   1.8424141E-04  -6.6568288E-03   0.0000000E+00   3.9533428E-05  -5.6473603E-03   0.0000000E+00  -1.4771977E-04  -4.4727074E-03   0.0000000E+00  -3.3425048E-04  -3.2515707E-03   0.0000000E+00  -4.7003219E-04  -2.1501463E-03   0.0000000E+00  -5.2802009E-04  -4.4382741E-03   0.0000000E+00  -7.0894766E-04  -2.9580232E-03   0.0000000E+00  -8.0853509E-04  -3.7617492E-03   0.0000000E+00  -1.1201076E-03  -4.5822714E-03   0.0000000E+00  -1.4251713E-03  -5.5207629E-03   0.0000000E+00  -1.7092342E-03  -6.7366143E-03   0.0000000E+00  -1.9825213E-03  -8.4790774E-03   0.0000000E+00  -2.2802053E-03  -1.1085477E-02   0.0000000E+00  -2.6719444E-03  -1.4970111E-02   0.0000000E+00  -3.2812678E-03  -2.0493038E-02   0.0000000E+00  -4.3199244E-03  -2.7577894E-02   0.0000000E+00  -6.1360914E-03  -3.5444796E-02   0.0000000E+00  -9.2267096E-03   0.0000000E+00   0.0000000E+00   0.0000000E+00   0.0000000E+00   0.0000000E+00   0.0000000E+00   0.0000000E+00   0.0000000E+00   0.0000000E+00   0.0000000E+00   0.0000000E+00   0.0000000E+00   0.0000000E+00   0.0000000E+00   0.0000000E+00   0.0000000E+00   0.0000000E+00   0.0000000E+00   0.0000000E+00   0.0000000E+00   0.0000000E+00   0.0000000E+00   0.0000000E+00   0.0000000E+00   0.0000000E+00   0.0000000E+00   0.0000000E+00   0.0000000E+00   0.0000000E+00   0.0000000E+00   0.0000000E+00   0.0000000E+00   0.0000000E+00   0.0000000E+00   0.0000000E+00   0.0000000E+00   0.0000000E+00   0.0000000E+00   0.0000000E+00   0.0000000E+00   0.0000000E+00   0.0000000E+00   0.0000000E+00   0.0000000E+00   0.0000000E+00  -1.3953872E-06   0.0000000E+00  -2.5529684E-07  -1.5144231E-07   0.0000000E+00  -4.0328185E-08   0.0000000E+00   0.0000000E+00   0.0000000E+00   0.0000000E+00   0.0000000E+00   0.0000000E+00  -1.6800421E-05   0.0000000E+00  -3.6644469E-06  -5.1770703E-06   0.0000000E+00  -1.6689114E-06  -7.1834296E-07   0.0000000E+00  -2.9555713E-07  -4.1337414E-21   0.0000000E+00  -1.7294737E-21  -7.4646676E-05   0.0000000E+00  -1.8729139E-05  -3.1104049E-05   0.0000000E+00  -1.1642665E-05  -9.1274214E-06   0.0000000E+00  -4.4520657E-06  -1.2416380E-06   0.0000000E+00  -6.2784045E-07  -2.1296267E-04   0.0000000E+00  -5.9948790E-05  -1.0123468E-04   0.0000000E+00  -4.2765547E-05  -3.8504168E-05   0.0000000E+00  -2.1424607E-05  -9.9126910E-06   0.0000000E+00  -5.8766886E-06  -4.6341555E-04   0.0000000E+00  -1.4548974E-04  -2.3584288E-04   0.0000000E+00  -1.1153512E-04  -1.0152307E-04   0.0000000E+00  -6.3719483E-05  -3.3674085E-05   0.0000000E+00  -2.2846107E-05  -8.3080574E-04   0.0000000E+00  -2.9203697E-04  -4.3885162E-04   0.0000000E+00  -2.3299006E-04  -2.0169299E-04   0.0000000E+00  -1.4300476E-04  -7.5751675E-05   0.0000000E+00  -5.8778725E-05  -1.2875746E-03   0.0000000E+00  -5.0754566E-04  -6.9372891E-04   0.0000000E+00  -4.1402219E-04  -3.2997233E-04   0.0000000E+00  -2.6474861E-04  -1.3199999E-04   0.0000000E+00  -1.1748341E-04  -1.7844272E-03   0.0000000E+00  -7.8394584E-04  -9.7138091E-04   0.0000000E+00  -6.4771774E-04  -4.6970544E-04   0.0000000E+00  -4.2428588E-04  -1.9336295E-04   0.0000000E+00  -1.9684531E-04  -2.2828362E-03   0.0000000E+00  -1.0951984E-03  -1.2495526E-03   0.0000000E+00  -9.1345684E-04  -6.0781877E-04   0.0000000E+00  -6.0758193E-04  -2.5219290E-04   0.0000000E+00  -2.8931416E-04  -2.7924948E-03   0.0000000E+00  -1.4094083E-03  -1.5322495E-03   0.0000000E+00  -1.1867590E-03  -7.4533885E-04   0.0000000E+00  -7.9808268E-04  -3.0810462E-04   0.0000000E+00  -3.8577869E-04  -3.3743733E-03   0.0000000E+00  -1.7102808E-03  -1.8546979E-03   0.0000000E+00  -1.4535976E-03  -9.0126437E-04   0.0000000E+00  -9.8575582E-04  -3.7022465E-04   0.0000000E+00  -4.8057907E-04  -4.1452753E-03   0.0000000E+00  -2.0056046E-03  -2.2902957E-03   0.0000000E+00  -1.7182771E-03  -1.1155049E-03   0.0000000E+00  -1.1722889E-03  -4.5717965E-04   0.0000000E+00  -5.7439390E-04  -5.2911462E-03   0.0000000E+00  -2.3294017E-03  -2.9579776E-03   0.0000000E+00  -2.0070486E-03  -1.4533631E-03   0.0000000E+00  -1.3739237E-03  -5.9902080E-04   0.0000000E+00  -6.7522778E-04  -7.0730299E-03   0.0000000E+00  -2.7527618E-03  -4.0298076E-03   0.0000000E+00  -2.3794675E-03  -2.0119294E-03   0.0000000E+00  -1.6305163E-03  -8.4173348E-04   0.0000000E+00  -8.0249226E-04  -9.8319836E-03   0.0000000E+00  -3.4049558E-03  -5.7411948E-03   0.0000000E+00  -2.9494946E-03  -2.9329746E-03   0.0000000E+00  -2.0274499E-03  -1.2584891E-03   0.0000000E+00  -1.0048491E-03  -1.3871787E-02   0.0000000E+00  -4.5052385E-03  -8.3078137E-03   0.0000000E+00  -3.9139008E-03  -4.3684575E-03   0.0000000E+00  -2.7304674E-03  -1.9521947E-03   0.0000000E+00  -1.3991626E-03  -1.9071043E-02   0.0000000E+00  -6.3997186E-03  -1.1626575E-02   0.0000000E+00  -5.5865562E-03  -6.3057509E-03   0.0000000E+00  -4.0381872E-03  -2.9968438E-03   0.0000000E+00  -2.2472406E-03  -2.4680139E-02   0.0000000E+00  -9.5612388E-03  -1.5172821E-02   0.0000000E+00  -8.4151104E-03  -8.4665874E-03   0.0000000E+00  -6.4242287E-03   0.0000000E+00   0.0000000E+00   0.0000000E+00   0.0000000E+00   0.0000000E+00   0.0000000E+00   0.0000000E+00   0.0000000E+00   0.0000000E+00   0.0000000E+00   0.0000000E+00   0.0000000E+00   0.0000000E+00   0.0000000E+00   0.0000000E+00   0.0000000E+00   0.0000000E+00   0.0000000E+00   0.0000000E+00   0.0000000E+00   0.0000000E+00   0.0000000E+00   0.0000000E+00   0.0000000E+00   0.0000000E+00   0.0000000E+00   0.0000000E+00   0.0000000E+00   0.0000000E+00   0.0000000E+00   0.0000000E+00   0.0000000E+00   0.0000000E+00   0.0000000E+00   0.0000000E+00   0.0000000E+00   0.0000000E+00   0.0000000E+00   0.0000000E+00   0.0000000E+00   0.0000000E+00   0.0000000E+00   0.0000000E+00   0.0000000E+00   0.0000000E+00   0.0000000E+00   0.0000000E+00   0.0000000E+00   0.0000000E+00   0.0000000E+00   0.0000000E+00   0.0000000E+00   0.0000000E+00   0.0000000E+00   0.0000000E+00   0.0000000E+00   0.0000000E+00   0.0000000E+00   0.0000000E+00   0.0000000E+00   0.0000000E+00   0.0000000E+00   0.0000000E+00   0.0000000E+00   0.0000000E+00   0.0000000E+00   0.0000000E+00   0.0000000E+00   0.0000000E+00   0.0000000E+00   0.0000000E+00   0.0000000E+00   0.0000000E+00   0.0000000E+00   0.0000000E+00   0.0000000E+00   0.0000000E+00   0.0000000E+00   0.0000000E+00   0.0000000E+00   0.0000000E+00   0.0000000E+00   0.0000000E+00   0.0000000E+00   0.0000000E+00   0.0000000E+00   0.0000000E+00   0.0000000E+00   0.0000000E+00   0.0000000E+00   0.0000000E+00   0.0000000E+00   0.0000000E+00   0.0000000E+00   0.0000000E+00   0.0000000E+00   0.0000000E+00   0.0000000E+00   0.0000000E+00   0.0000000E+00   0.0000000E+00   0.0000000E+00   0.0000000E+00   0.0000000E+00   0.0000000E+00   0.0000000E+00   0.0000000E+00   0.0000000E+00   0.0000000E+00   0.0000000E+00   0.0000000E+00   0.0000000E+00   0.0000000E+00   0.0000000E+00   0.0000000E+00   0.0000000E+00   0.0000000E+00   0.0000000E+00   0.0000000E+00   0.0000000E+00   0.0000000E+00   0.0000000E+00   0.0000000E+00   0.0000000E+00   0.0000000E+00   0.0000000E+00   0.0000000E+00   0.0000000E+00   0.0000000E+00   0.0000000E+00   0.0000000E+00   0.0000000E+00   0.0000000E+00   0.0000000E+00   0.0000000E+00   0.0000000E+00   0.0000000E+00   0.0000000E+00   0.0000000E+00   0.0000000E+00   0.0000000E+00   0.0000000E+00   0.0000000E+00   0.0000000E+00   0.0000000E+00   0.0000000E+00   0.0000000E+00   0.0000000E+00   0.0000000E+00   0.0000000E+00   0.0000000E+00   0.0000000E+00   0.0000000E+00   0.0000000E+00   0.0000000E+00   0.0000000E+00   0.0000000E+00   0.0000000E+00   0.0000000E+00   0.0000000E+00   0.0000000E+00   0.0000000E+00   0.0000000E+00   0.0000000E+00   0.0000000E+00   0.0000000E+00   0.0000000E+00   0.0000000E+00   0.0000000E+00   0.0000000E+00   0.0000000E+00   0.0000000E+00   0.0000000E+00   0.0000000E+00   0.0000000E+00   0.0000000E+00   0.0000000E+00   0.0000000E+00   0.0000000E+00   0.0000000E+00   0.0000000E+00   0.0000000E+00   0.0000000E+00   0.0000000E+00   0.0000000E+00   0.0000000E+00   0.0000000E+00   0.0000000E+00   0.0000000E+00   0.0000000E+00   0.0000000E+00   0.0000000E+00   0.0000000E+00   0.0000000E+00   0.0000000E+00   0.0000000E+00   0.0000000E+00   0.0000000E+00   0.0000000E+00   0.0000000E+00   0.0000000E+00   0.0000000E+00   0.0000000E+00   0.0000000E+00   0.0000000E+00   0.0000000E+00   0.0000000E+00   0.0000000E+00   0.0000000E+00   0.0000000E+00   0.0000000E+00   0.0000000E+00   0.0000000E+00   0.0000000E+00   0.0000000E+00   0.0000000E+00   0.0000000E+00   0.0000000E+00   0.0000000E+00   0.0000000E+00   0.0000000E+00   0.0000000E+00   0.0000000E+00   0.0000000E+00   0.0000000E+00   0.0000000E+00   0.0000000E+00   0.0000000E+00   0.0000000E+00   0.0000000E+00   0.0000000E+00   0.0000000E+00   0.0000000E+00   0.0000000E+00   0.0000000E+00   0.0000000E+00   0.0000000E+00   0.0000000E+00   0.0000000E+00   0.0000000E+00   0.0000000E+00   0.0000000E+00   0.0000000E+00   0.0000000E+00   0.0000000E+00   0.0000000E+00   0.0000000E+00   0.0000000E+00   0.0000000E+00   0.0000000E+00   0.0000000E+00   0.0000000E+00   0.0000000E+00   0.0000000E+00   0.0000000E+00   0.0000000E+00   0.0000000E+00   0.0000000E+00   0.0000000E+00   0.0000000E+00   0.0000000E+00   0.0000000E+00   0.0000000E+00   0.0000000E+00   0.0000000E+00   0.0000000E+00   0.0000000E+00   0.0000000E+00   0.0000000E+00   0.0000000E+00   0.0000000E+00   0.0000000E+00   0.0000000E+00   0.0000000E+00   0.0000000E+00   0.0000000E+00   0.0000000E+00   0.0000000E+00   0.0000000E+00   0.0000000E+00   0.0000000E+00   0.0000000E+00   0.0000000E+00   0.0000000E+00   0.0000000E+00   0.0000000E+00   0.0000000E+00   0.0000000E+00   0.0000000E+00   0.0000000E+00   0.0000000E+00   0.0000000E+00   0.0000000E+00   0.0000000E+00   0.0000000E+00   0.0000000E+00   0.0000000E+00   0.0000000E+00   0.0000000E+00   0.0000000E+00   0.0000000E+00   0.0000000E+00   0.0000000E+00   0.0000000E+00   0.0000000E+00   0.0000000E+00   0.0000000E+00   0.0000000E+00   0.0000000E+00   0.0000000E+00   0.0000000E+00   0.0000000E+00   0.0000000E+00   0.0000000E+00   0.0000000E+00   0.0000000E+00   0.0000000E+00   0.0000000E+00   0.0000000E+00   0.0000000E+00   0.0000000E+00   0.0000000E+00   0.0000000E+00   0.0000000E+00   0.0000000E+00   0.0000000E+00   0.0000000E+00   0.0000000E+00   0.0000000E+00   0.0000000E+00   0.0000000E+00   0.0000000E+00   0.0000000E+00   0.0000000E+00   0.0000000E+00   0.0000000E+00   0.0000000E+00   0.0000000E+00   0.0000000E+00   0.0000000E+00   0.0000000E+00   0.0000000E+00   0.0000000E+00   0.0000000E+00   0.0000000E+00   0.0000000E+00   0.0000000E+00   0.0000000E+00   0.0000000E+00   0.0000000E+00   0.0000000E+00   0.0000000E+00   0.0000000E+00   0.0000000E+00   0.0000000E+00   0.0000000E+00   0.0000000E+00   0.0000000E+00   0.0000000E+00   0.0000000E+00   0.0000000E+00   0.0000000E+00   0.0000000E+00   0.0000000E+00   0.0000000E+00   0.0000000E+00   0.0000000E+00   0.0000000E+00   0.0000000E+00   0.0000000E+00   0.0000000E+00   0.0000000E+00   0.0000000E+00   0.0000000E+00   0.0000000E+00   0.0000000E+00   0.0000000E+00   0.0000000E+00   0.0000000E+00   0.0000000E+00   0.0000000E+00   0.0000000E+00   0.0000000E+00   0.0000000E+00   0.0000000E+00   0.0000000E+00   0.0000000E+00   0.0000000E+00   0.0000000E+00   0.0000000E+00   0.0000000E+00   0.0000000E+00   0.0000000E+00   0.0000000E+00   0.0000000E+00   0.0000000E+00   0.0000000E+00   0.0000000E+00   0.0000000E+00   0.0000000E+00   0.0000000E+00   0.0000000E+00   0.0000000E+00   0.0000000E+00   0.0000000E+00   0.0000000E+00   0.0000000E+00   0.0000000E+00   0.0000000E+00   0.0000000E+00   0.0000000E+00   0.0000000E+00   0.0000000E+00   0.0000000E+00   0.0000000E+00   0.0000000E+00   0.0000000E+00   0.0000000E+00   0.0000000E+00   0.0000000E+00   0.0000000E+00   0.0000000E+00   0.0000000E+00   0.0000000E+00   0.0000000E+00   0.0000000E+00   0.0000000E+00   0.0000000E+00   0.0000000E+00   0.0000000E+00   0.0000000E+00   0.0000000E+00   0.0000000E+00   0.0000000E+00   0.0000000E+00   0.0000000E+00   0.0000000E+00   0.0000000E+00   0.0000000E+00   0.0000000E+00   0.0000000E+00   0.0000000E+00   0.0000000E+00   0.0000000E+00   0.0000000E+00   0.0000000E+00   0.0000000E+00   0.0000000E+00   0.0000000E+00   0.0000000E+00   0.0000000E+00   0.0000000E+00   0.0000000E+00   0.0000000E+00   0.0000000E+00   0.0000000E+00   0.0000000E+00   0.0000000E+00   0.0000000E+00   0.0000000E+00   0.0000000E+00   0.0000000E+00   0.0000000E+00   0.0000000E+00   0.0000000E+00   0.0000000E+00   0.0000000E+00   0.0000000E+00   0.0000000E+00   0.0000000E+00   0.0000000E+00   0.0000000E+00   0.0000000E+00   0.0000000E+00   0.0000000E+00   0.0000000E+00   0.0000000E+00   0.0000000E+00   0.0000000E+00   0.0000000E+00   0.0000000E+00   0.0000000E+00   0.0000000E+00   0.0000000E+00   0.0000000E+00   0.0000000E+00   0.0000000E+00   0.0000000E+00   0.0000000E+00   0.0000000E+00   0.0000000E+00   0.0000000E+00   0.0000000E+00   0.0000000E+00   0.0000000E+00   0.0000000E+00   0.0000000E+00   0.0000000E+00   0.0000000E+00   0.0000000E+00   0.0000000E+00   0.0000000E+00   0.0000000E+00   0.0000000E+00   0.0000000E+00   0.0000000E+00   0.0000000E+00   0.0000000E+00   0.0000000E+00   0.0000000E+00   0.0000000E+00   0.0000000E+00   0.0000000E+00   0.0000000E+00   0.0000000E+00   0.0000000E+00   0.0000000E+00   0.0000000E+00   0.0000000E+00   0.0000000E+00   0.0000000E+00   0.0000000E+00   0.0000000E+00   0.0000000E+00   0.0000000E+00   0.0000000E+00   0.0000000E+00   0.0000000E+00   0.0000000E+00   0.0000000E+00   0.0000000E+00   0.0000000E+00   0.0000000E+00   0.0000000E+00   0.0000000E+00   0.0000000E+00   0.0000000E+00   0.0000000E+00   0.0000000E+00   0.0000000E+00   0.0000000E+00   0.0000000E+00   0.0000000E+00   0.0000000E+00   0.0000000E+00   0.0000000E+00   0.0000000E+00   0.0000000E+00   0.0000000E+00   0.0000000E+00   0.0000000E+00   0.0000000E+00   0.0000000E+00   0.0000000E+00   0.0000000E+00   0.0000000E+00   0.0000000E+00   0.0000000E+00   0.0000000E+00   0.0000000E+00   0.0000000E+00   0.0000000E+00   0.0000000E+00   0.0000000E+00   0.0000000E+00   0.0000000E+00   0.0000000E+00   0.0000000E+00   0.0000000E+00   0.0000000E+00   0.0000000E+00   0.0000000E+00   0.0000000E+00   0.0000000E+00   0.0000000E+00   0.0000000E+00   0.0000000E+00   0.0000000E+00   0.0000000E+00   0.0000000E+00   0.0000000E+00   0.0000000E+00   0.0000000E+00   0.0000000E+00   0.0000000E+00   0.0000000E+00   0.0000000E+00   0.0000000E+00   0.0000000E+00   0.0000000E+00   0.0000000E+00   0.0000000E+00   0.0000000E+00   0.0000000E+00   0.0000000E+00   0.0000000E+00   0.0000000E+00   0.0000000E+00   0.0000000E+00   0.0000000E+00   0.0000000E+00   0.0000000E+00   0.0000000E+00   0.0000000E+00   0.0000000E+00   0.0000000E+00   0.0000000E+00   0.0000000E+00   0.0000000E+00   0.0000000E+00   0.0000000E+00   0.0000000E+00   0.0000000E+00   0.0000000E+00   0.0000000E+00   0.0000000E+00   0.0000000E+00   0.0000000E+00   0.0000000E+00   0.0000000E+00   0.0000000E+00   0.0000000E+00   0.0000000E+00   0.0000000E+00   0.0000000E+00   0.0000000E+00   0.0000000E+00   0.0000000E+00   0.0000000E+00   0.0000000E+00   0.0000000E+00   0.0000000E+00   0.0000000E+00   0.0000000E+00   0.0000000E+00   0.0000000E+00   0.0000000E+00   0.0000000E+00   0.0000000E+00   0.0000000E+00   0.0000000E+00   0.0000000E+00   0.0000000E+00   0.0000000E+00   0.0000000E+00   0.0000000E+00   0.0000000E+00   0.0000000E+00   0.0000000E+00   0.0000000E+00   0.0000000E+00   0.0000000E+00   0.0000000E+00   0.0000000E+00   0.0000000E+00   0.0000000E+00   0.0000000E+00   0.0000000E+00   0.0000000E+00   0.0000000E+00   0.0000000E+00   0.0000000E+00   0.0000000E+00   0.0000000E+00   0.0000000E+00   0.0000000E+00   0.0000000E+00   0.0000000E+00   0.0000000E+00   0.0000000E+00   0.0000000E+00   0.0000000E+00   0.0000000E+00   0.0000000E+00   0.0000000E+00   0.0000000E+00   0.0000000E+00   0.0000000E+00   0.0000000E+00   0.0000000E+00   0.0000000E+00   0.0000000E+00   0.0000000E+00   0.0000000E+00   0.0000000E+00   0.0000000E+00   0.0000000E+00   0.0000000E+00   0.0000000E+00   0.0000000E+00   0.0000000E+00   0.0000000E+00   0.0000000E+00   0.0000000E+00   0.0000000E+00   0.0000000E+00   0.0000000E+00   0.0000000E+00   0.0000000E+00   0.0000000E+00   0.0000000E+00   0.0000000E+00   0.0000000E+00   0.0000000E+00   0.0000000E+00   0.0000000E+00   0.0000000E+00   0.0000000E+00   0.0000000E+00   0.0000000E+00   0.0000000E+00   0.0000000E+00   0.0000000E+00   0.0000000E+00   0.0000000E+00   0.0000000E+00   0.0000000E+00   0.0000000E+00   0.0000000E+00   0.0000000E+00   0.0000000E+00   0.0000000E+00   0.0000000E+00   0.0000000E+00   0.0000000E+00   0.0000000E+00   0.0000000E+00   0.0000000E+00   0.0000000E+00   0.0000000E+00   0.0000000E+00   0.0000000E+00   0.0000000E+00   0.0000000E+00   0.0000000E+00   0.0000000E+00   0.0000000E+00   0.0000000E+00   0.0000000E+00   0.0000000E+00   0.0000000E+00   0.0000000E+00   0.0000000E+00   0.0000000E+00   0.0000000E+00   0.0000000E+00   0.0000000E+00   0.0000000E+00   0.0000000E+00   0.0000000E+00   0.0000000E+00   0.0000000E+00   0.0000000E+00   0.0000000E+00   0.0000000E+00   0.0000000E+00   0.0000000E+00   0.0000000E+00   0.0000000E+00   0.0000000E+00   0.0000000E+00   0.0000000E+00   0.0000000E+00   0.0000000E+00   0.0000000E+00   0.0000000E+00   0.0000000E+00   0.0000000E+00   0.0000000E+00   0.0000000E+00   0.0000000E+00   0.0000000E+00   0.0000000E+00   0.0000000E+00   0.0000000E+00   0.0000000E+00   0.0000000E+00   0.0000000E+00   0.0000000E+00   0.0000000E+00   0.0000000E+00   0.0000000E+00   0.0000000E+00   0.0000000E+00   0.0000000E+00   0.0000000E+00   0.0000000E+00   0.0000000E+00   0.0000000E+00   0.0000000E+00   0.0000000E+00   0.0000000E+00   0.0000000E+00   0.0000000E+00   0.0000000E+00   0.0000000E+00   0.0000000E+00   0.0000000E+00   0.0000000E+00   0.0000000E+00   0.0000000E+00   0.0000000E+00   0.0000000E+00   0.0000000E+00   0.0000000E+00   0.0000000E+00   0.0000000E+00   0.0000000E+00   0.0000000E+00   0.0000000E+00   0.0000000E+00   0.0000000E+00   0.0000000E+00   0.0000000E+00   0.0000000E+00   0.0000000E+00   0.0000000E+00   0.0000000E+00   0.0000000E+00   0.0000000E+00   0.0000000E+00   0.0000000E+00   0.0000000E+00   0.0000000E+00   0.0000000E+00   0.0000000E+00   0.0000000E+00   0.0000000E+00   0.0000000E+00   0.0000000E+00   0.0000000E+00   0.0000000E+00   0.0000000E+00   0.0000000E+00   0.0000000E+00   0.0000000E+00   0.0000000E+00   0.0000000E+00   0.0000000E+00   0.0000000E+00   0.0000000E+00   0.0000000E+00   0.0000000E+00   0.0000000E+00   0.0000000E+00   0.0000000E+00   0.0000000E+00   0.0000000E+00   0.0000000E+00   0.0000000E+00   0.0000000E+00   0.0000000E+00   0.0000000E+00   0.0000000E+00   0.0000000E+00   0.0000000E+00   0.0000000E+00   0.0000000E+00   0.0000000E+00   0.0000000E+00   0.0000000E+00   0.0000000E+00   0.0000000E+00   0.0000000E+00   0.0000000E+00   0.0000000E+00   0.0000000E+00   0.0000000E+00   0.0000000E+00   0.0000000E+00   0.0000000E+00   0.0000000E+00   0.0000000E+00   0.0000000E+00   0.0000000E+00   0.0000000E+00   0.0000000E+00   0.0000000E+00   0.0000000E+00   0.0000000E+00   0.0000000E+00   0.0000000E+00   0.0000000E+00   0.0000000E+00   0.0000000E+00   0.0000000E+00   0.0000000E+00   0.0000000E+00   0.0000000E+00   0.0000000E+00   0.0000000E+00   0.0000000E+00   0.0000000E+00   0.0000000E+00   0.0000000E+00   0.0000000E+00   0.0000000E+00   0.0000000E+00   0.0000000E+00   0.0000000E+00   0.0000000E+00   0.0000000E+00   0.0000000E+00   0.0000000E+00   0.0000000E+00   0.0000000E+00   0.0000000E+00   0.0000000E+00   0.0000000E+00   0.0000000E+00   0.0000000E+00   0.0000000E+00   0.0000000E+00   0.0000000E+00   0.0000000E+00   0.0000000E+00   0.0000000E+00   0.0000000E+00   0.0000000E+00   0.0000000E+00   0.0000000E+00   0.0000000E+00   0.0000000E+00   0.0000000E+00   0.0000000E+00   0.0000000E+00   0.0000000E+00   0.0000000E+00   0.0000000E+00   0.0000000E+00   0.0000000E+00   0.0000000E+00   0.0000000E+00   0.0000000E+00   0.0000000E+00   0.0000000E+00   0.0000000E+00   0.0000000E+00   0.0000000E+00   0.0000000E+00   0.0000000E+00   0.0000000E+00   0.0000000E+00   0.0000000E+00   0.0000000E+00   0.0000000E+00   0.0000000E+00   0.0000000E+00   0.0000000E+00   0.0000000E+00   0.0000000E+00   0.0000000E+00   0.0000000E+00   0.0000000E+00   0.0000000E+00   0.0000000E+00   0.0000000E+00   0.0000000E+00   0.0000000E+00   0.0000000E+00   0.0000000E+00   0.0000000E+00   0.0000000E+00   0.0000000E+00   0.0000000E+00   0.0000000E+00   0.0000000E+00   0.0000000E+00   0.0000000E+00   0.0000000E+00   0.0000000E+00   0.0000000E+00   0.0000000E+00   0.0000000E+00   0.0000000E+00   0.0000000E+00   0.0000000E+00   0.0000000E+00   0.0000000E+00   0.0000000E+00   0.0000000E+00   0.0000000E+00   0.0000000E+00   0.0000000E+00   0.0000000E+00   0.0000000E+00   0.0000000E+00   0.0000000E+00   0.0000000E+00   0.0000000E+00   0.0000000E+00   0.0000000E+00   0.0000000E+00   0.0000000E+00   0.0000000E+00   0.0000000E+00   0.0000000E+00   0.0000000E+00   0.0000000E+00   0.0000000E+00   0.0000000E+00   0.0000000E+00   0.0000000E+00   0.0000000E+00   0.0000000E+00   0.0000000E+00   0.0000000E+00   0.0000000E+00   0.0000000E+00   0.0000000E+00   0.0000000E+00   0.0000000E+00   0.0000000E+00   0.0000000E+00   0.0000000E+00   0.0000000E+00   0.0000000E+00   0.0000000E+00   0.0000000E+00   0.0000000E+00   0.0000000E+00   0.0000000E+00   0.0000000E+00   0.0000000E+00   0.0000000E+00   0.0000000E+00   0.0000000E+00   0.0000000E+00   0.0000000E+00   0.0000000E+00   0.0000000E+00   0.0000000E+00   0.0000000E+00   0.0000000E+00   0.0000000E+00   0.0000000E+00   0.0000000E+00   0.0000000E+00   0.0000000E+00   0.0000000E+00   0.0000000E+00   0.0000000E+00   0.0000000E+00   0.0000000E+00   0.0000000E+00   0.0000000E+00   0.0000000E+00   0.0000000E+00   0.0000000E+00   0.0000000E+00   0.0000000E+00   0.0000000E+00   0.0000000E+00   0.0000000E+00   0.0000000E+00   0.0000000E+00   0.0000000E+00   0.0000000E+00   0.0000000E+00   0.0000000E+00   0.0000000E+00   0.0000000E+00   0.0000000E+00   0.0000000E+00   0.0000000E+00   0.0000000E+00   0.0000000E+00   0.0000000E+00   0.0000000E+00   0.0000000E+00   0.0000000E+00   0.0000000E+00   0.0000000E+00   0.0000000E+00   0.0000000E+00   0.0000000E+00   0.0000000E+00   0.0000000E+00   0.0000000E+00   0.0000000E+00   0.0000000E+00   0.0000000E+00   0.0000000E+00   0.0000000E+00   0.0000000E+00   0.0000000E+00   0.0000000E+00   0.0000000E+00   0.0000000E+00   0.0000000E+00   0.0000000E+00   0.0000000E+00   0.0000000E+00   0.0000000E+00   0.0000000E+00   0.0000000E+00   0.0000000E+00   0.0000000E+00   0.0000000E+00   0.0000000E+00   0.0000000E+00   0.0000000E+00   0.0000000E+00   0.0000000E+00   0.0000000E+00   0.0000000E+00   0.0000000E+00   0.0000000E+00   0.0000000E+00   0.0000000E+00   0.0000000E+00   0.0000000E+00   0.0000000E+00   0.0000000E+00   0.0000000E+00   0.0000000E+00   0.0000000E+00   0.0000000E+00   0.0000000E+00   0.0000000E+00   0.0000000E+00   0.0000000E+00   0.0000000E+00   0.0000000E+00   0.0000000E+00   0.0000000E+00   0.0000000E+00   0.0000000E+00   0.0000000E+00   0.0000000E+00   0.0000000E+00   0.0000000E+00   0.0000000E+00   0.0000000E+00   0.0000000E+00   0.0000000E+00   0.0000000E+00   0.0000000E+00   0.0000000E+00   0.0000000E+00   0.0000000E+00   0.0000000E+00   0.0000000E+00   0.0000000E+00   0.0000000E+00   0.0000000E+00   0.0000000E+00   0.0000000E+00   0.0000000E+00   0.0000000E+00   0.0000000E+00   0.0000000E+00   0.0000000E+00   0.0000000E+00   0.0000000E+00   0.0000000E+00   0.0000000E+00   0.0000000E+00   0.0000000E+00   0.0000000E+00   0.0000000E+00   0.0000000E+00   0.0000000E+00   0.0000000E+00   0.0000000E+00   0.0000000E+00   0.0000000E+00   0.0000000E+00   0.0000000E+00   0.0000000E+00   0.0000000E+00   0.0000000E+00   0.0000000E+00   0.0000000E+00   0.0000000E+00   0.0000000E+00   0.0000000E+00   0.0000000E+00   0.0000000E+00   0.0000000E+00   0.0000000E+00   0.0000000E+00   0.0000000E+00   0.0000000E+00   0.0000000E+00   0.0000000E+00   0.0000000E+00   0.0000000E+00   0.0000000E+00   0.0000000E+00   0.0000000E+00   0.0000000E+00   0.0000000E+00   0.0000000E+00   0.0000000E+00   0.0000000E+00   0.0000000E+00   0.0000000E+00   0.0000000E+00   0.0000000E+00   0.0000000E+00   0.0000000E+00   0.0000000E+00   0.0000000E+00   0.0000000E+00   0.0000000E+00   0.0000000E+00   0.0000000E+00   0.0000000E+00   0.0000000E+00   0.0000000E+00   0.0000000E+00   0.0000000E+00   0.0000000E+00   0.0000000E+00   0.0000000E+00   0.0000000E+00   0.0000000E+00   0.0000000E+00   0.0000000E+00   0.0000000E+00   0.0000000E+00   0.0000000E+00   0.0000000E+00   0.0000000E+00   0.0000000E+00   0.0000000E+00   0.0000000E+00   0.0000000E+00   0.0000000E+00   0.0000000E+00   0.0000000E+00   0.0000000E+00   0.0000000E+00   0.0000000E+00   0.0000000E+00   0.0000000E+00   0.0000000E+00   0.0000000E+00   0.0000000E+00   0.0000000E+00   0.0000000E+00   0.0000000E+00   0.0000000E+00   0.0000000E+00   0.0000000E+00   0.0000000E+00   0.0000000E+00   0.0000000E+00   0.0000000E+00   0.0000000E+00   0.0000000E+00   0.0000000E+00   0.0000000E+00   0.0000000E+00   0.0000000E+00   0.0000000E+00   0.0000000E+00   0.0000000E+00   0.0000000E+00   0.0000000E+00   0.0000000E+00   0.0000000E+00   0.0000000E+00   0.0000000E+00   0.0000000E+00   0.0000000E+00   0.0000000E+00   0.0000000E+00   0.0000000E+00   0.0000000E+00   0.0000000E+00   0.0000000E+00   0.0000000E+00   0.0000000E+00   0.0000000E+00   0.0000000E+00   0.0000000E+00   0.0000000E+00   0.0000000E+00   0.0000000E+00   0.0000000E+00   0.0000000E+00   0.0000000E+00   0.0000000E+00   0.0000000E+00   0.0000000E+00   0.0000000E+00   0.0000000E+00   0.0000000E+00   0.0000000E+00   0.0000000E+00   0.0000000E+00   0.0000000E+00   0.0000000E+00   0.0000000E+00   0.0000000E+00   0.0000000E+00   0.0000000E+00   0.0000000E+00   0.0000000E+00   0.0000000E+00   0.0000000E+00   0.0000000E+00   0.0000000E+00   0.0000000E+00   0.0000000E+00   0.0000000E+00   0.0000000E+00   0.0000000E+00   0.0000000E+00   0.0000000E+00   0.0000000E+00   0.0000000E+00   0.0000000E+00   0.0000000E+00   0.0000000E+00   0.0000000E+00   0.0000000E+00   0.0000000E+00   0.0000000E+00   0.0000000E+00   0.0000000E+00   0.0000000E+00   0.0000000E+00   0.0000000E+00   0.0000000E+00   0.0000000E+00   0.0000000E+00   0.0000000E+00   0.0000000E+00   0.0000000E+00   0.0000000E+00   0.0000000E+00   0.0000000E+00   0.0000000E+00   0.0000000E+00   0.0000000E+00   0.0000000E+00   0.0000000E+00   0.0000000E+00   0.0000000E+00   0.0000000E+00   0.0000000E+00   0.0000000E+00   0.0000000E+00   0.0000000E+00   0.0000000E+00   0.0000000E+00   0.0000000E+00   0.0000000E+00   0.0000000E+00   0.0000000E+00   0.0000000E+00   0.0000000E+00   0.0000000E+00   0.0000000E+00   0.0000000E+00   0.0000000E+00   0.0000000E+00   0.0000000E+00   0.0000000E+00   0.0000000E+00   0.0000000E+00   0.0000000E+00   0.0000000E+00   0.0000000E+00   0.0000000E+00   0.0000000E+00   0.0000000E+00   0.0000000E+00   0.0000000E+00   0.0000000E+00   0.0000000E+00   0.0000000E+00   0.0000000E+00   0.0000000E+00   0.0000000E+00   0.0000000E+00   0.0000000E+00   0.0000000E+00   0.0000000E+00   0.0000000E+00   0.0000000E+00   0.0000000E+00   0.0000000E+00   0.0000000E+00   0.0000000E+00   0.0000000E+00   0.0000000E+00   0.0000000E+00   0.0000000E+00   0.0000000E+00   0.0000000E+00   0.0000000E+00   0.0000000E+00   0.0000000E+00   0.0000000E+00   0.0000000E+00   0.0000000E+00   0.0000000E+00   0.0000000E+00   0.0000000E+00   0.0000000E+00   0.0000000E+00   0.0000000E+00   0.0000000E+00   0.0000000E+00   0.0000000E+00   0.0000000E+00   0.0000000E+00   0.0000000E+00   0.0000000E+00   0.0000000E+00   0.0000000E+00   0.0000000E+00  -6.0451054E-03   0.0000000E+00  -4.8202052E-04  -7.5727412E-03   0.0000000E+00  -2.0324472E-04  -8.8753048E-03   0.0000000E+00   7.5133285E-05  -9.8928362E-03   0.0000000E+00   2.8685038E-04  -1.0632218E-02   0.0000000E+00   4.0831001E-04  -5.6037507E-03   0.0000000E+00  -8.9571462E-04  -7.5721066E-03   0.0000000E+00  -6.3174352E-04  -9.4224270E-03   0.0000000E+00  -2.4934238E-04  -1.0981940E-02   0.0000000E+00   1.2354684E-04  -1.2181010E-02   0.0000000E+00   4.0327862E-04  -1.3033794E-02   0.0000000E+00   5.6142057E-04  -6.7943390E-03   0.0000000E+00  -1.1246343E-03  -9.1439318E-03   0.0000000E+00  -7.6622923E-04  -1.1323590E-02   0.0000000E+00  -2.8004101E-04  -1.3126882E-02   0.0000000E+00   1.8312735E-04  -1.4481000E-02   0.0000000E+00   5.2476535E-04  -1.5414691E-02   0.0000000E+00   7.1355014E-04  -8.1585590E-03   0.0000000E+00  -1.3309233E-03  -1.0936228E-02   0.0000000E+00  -8.8076771E-04  -1.3476447E-02   0.0000000E+00  -2.9347377E-04  -1.5533303E-02   0.0000000E+00   2.5330775E-04  -1.7033201E-02   0.0000000E+00   6.4784335E-04  -1.8027108E-02   0.0000000E+00   8.5864129E-04  -9.9061150E-03   0.0000000E+00  -1.5184273E-03  -1.3170604E-02   0.0000000E+00  -9.7682071E-04  -1.6105579E-02   0.0000000E+00  -2.9034127E-04  -1.8432632E-02   0.0000000E+00   3.3415540E-04  -2.0080084E-02   0.0000000E+00   7.7336980E-04  -2.1121657E-02   0.0000000E+00   9.9829317E-04  -1.2434326E-02   0.0000000E+00  -1.7013457E-03  -1.6211824E-02   0.0000000E+00  -1.0618237E-03  -1.9514220E-02   0.0000000E+00  -2.7108710E-04  -2.2070294E-02   0.0000000E+00   4.2935763E-04  -2.3836019E-02   0.0000000E+00   9.0745691E-04  -2.4907826E-02   0.0000000E+00   1.1411416E-03  -1.6393328E-02   0.0000000E+00  -1.9001471E-03  -2.0635016E-02   0.0000000E+00  -1.1438343E-03  -2.4133576E-02   0.0000000E+00  -2.2760342E-04  -2.6748493E-02   0.0000000E+00   5.5756042E-04  -2.8510116E-02   0.0000000E+00   1.0719094E-03  -2.9545693E-02   0.0000000E+00   1.3083209E-03  -2.2708464E-02   0.0000000E+00  -2.1362624E-03  -2.7181758E-02   0.0000000E+00  -1.2258334E-03  -3.0480221E-02   0.0000000E+00  -1.3301393E-04  -3.2801397E-02   0.0000000E+00   7.6538662E-04  -3.4315635E-02   0.0000000E+00   1.3193175E-03  -3.5173479E-02   0.0000000E+00   1.5471120E-03  -3.2407422E-02   0.0000000E+00  -2.4351436E-03  -3.6537051E-02   0.0000000E+00  -1.2955435E-03  -3.8976256E-02   0.0000000E+00   7.1546063E-05  -4.0498041E-02   0.0000000E+00   1.1414939E-03  -4.1439459E-02   0.0000000E+00   1.7441126E-03  -4.1927386E-02   0.0000000E+00   1.9413671E-03  -4.5916010E-02   0.0000000E+00  -2.9013306E-03  -4.8794646E-02   0.0000000E+00  -1.3223718E-03  -4.9646202E-02   0.0000000E+00   5.0117832E-04  -4.9906991E-02   0.0000000E+00   1.8319326E-03  -4.9998790E-02   0.0000000E+00   2.4861975E-03  -4.9945954E-02   0.0000000E+00   2.6114129E-03  -6.1823968E-02   0.0000000E+00  -3.7394562E-03  -6.2885284E-02   0.0000000E+00  -1.2777415E-03  -6.1908852E-02   0.0000000E+00   1.3248076E-03  -6.0821146E-02   0.0000000E+00   3.0364413E-03  -6.0003214E-02   0.0000000E+00   3.7237871E-03  -5.9340611E-02   0.0000000E+00   3.7009621E-03  -7.6645084E-02   0.0000000E+00  -3.3070694E-03  -7.6965608E-02   0.0000000E+00  -5.8625313E-04  -7.4898727E-02   0.0000000E+00   2.8873906E-03  -7.2924420E-02   0.0000000E+00   4.9935970E-03  -7.1413949E-02   0.0000000E+00   5.6295805E-03  -7.0199251E-02   0.0000000E+00   5.3427005E-03  -8.9934841E-02   0.0000000E+00   4.3736906E-03  -9.0406917E-02   0.0000000E+00   3.4637358E-03  -8.8319823E-02   0.0000000E+00   6.0645379E-03  -8.6135872E-02   0.0000000E+00   7.9728588E-03  -8.4270716E-02   0.0000000E+00   8.3124451E-03  -8.2626432E-02   0.0000000E+00   7.6102582E-03  -1.0378375E-01   0.0000000E+00   1.5611969E-02  -1.0433109E-01   0.0000000E+00   1.1112512E-02  -1.0271723E-01   0.0000000E+00   1.1156397E-02  -1.0072506E-01   0.0000000E+00   1.2043549E-02  -9.8738551E-02   0.0000000E+00   1.1744814E-02  -9.6759379E-02   0.0000000E+00   1.0482788E-02  -1.1957160E-01   0.0000000E+00   2.5090443E-02  -1.2001494E-01   0.0000000E+00   1.9440074E-02  -1.1884531E-01   0.0000000E+00   1.7278610E-02  -1.1709210E-01   0.0000000E+00   1.6845081E-02  -1.1503662E-01   0.0000000E+00   1.5715485E-02  -1.1275298E-01   0.0000000E+00   1.3853242E-02  -1.3797636E-01   0.0000000E+00   3.1794235E-02  -1.3817254E-01   0.0000000E+00   2.6335334E-02  -1.3719593E-01   0.0000000E+00   2.3216771E-02  -1.3553882E-01   0.0000000E+00   2.1795137E-02  -1.3336471E-01   0.0000000E+00   1.9980587E-02  -1.3077158E-01   0.0000000E+00   1.7598385E-02  -1.5911682E-01   0.0000000E+00   3.6536474E-02  -1.5895480E-01   0.0000000E+00   3.1629950E-02  -1.5795286E-01   0.0000000E+00   2.8476696E-02  -1.5625769E-01   0.0000000E+00   2.6642419E-02  -1.5391982E-01   0.0000000E+00   2.4418382E-02  -1.5101378E-01   0.0000000E+00   2.1651214E-02  -1.8277480E-01   0.0000000E+00   4.0320136E-02  -1.8231769E-01   0.0000000E+00   3.6031473E-02  -1.8124779E-01   0.0000000E+00   3.3279289E-02  -1.7948440E-01   0.0000000E+00   3.1494334E-02  -1.7697230E-01   0.0000000E+00   2.9075047E-02  -1.7374307E-01   0.0000000E+00   2.6007704E-02  -2.0902674E-01   0.0000000E+00   4.4092197E-02  -2.0851983E-01   0.0000000E+00   4.0334906E-02  -2.0744911E-01   0.0000000E+00   3.8163453E-02  -2.0561357E-01   0.0000000E+00   3.6605079E-02  -2.0288657E-01   0.0000000E+00   3.4057956E-02  -1.9926681E-01   0.0000000E+00   3.0699911E-02  -2.3872882E-01   0.0000000E+00   4.8429880E-02  -2.3825622E-01   0.0000000E+00   4.5183048E-02  -2.3713616E-01   0.0000000E+00   4.3560721E-02  -2.3511794E-01   0.0000000E+00   4.2187516E-02  -2.3203884E-01   0.0000000E+00   3.9462313E-02  -2.2788233E-01   0.0000000E+00   3.5761394E-02  -2.7279657E-01   0.0000000E+00   5.3556256E-02  -2.7219287E-01   0.0000000E+00   5.0896741E-02  -2.7082610E-01   0.0000000E+00   4.9715240E-02  -2.6840892E-01   0.0000000E+00   4.8358250E-02  -2.6475266E-01   0.0000000E+00   4.5335904E-02  -2.5983849E-01   0.0000000E+00   4.1187089E-02  -3.1183133E-01   0.0000000E+00   5.9648443E-02  -3.1083646E-01   0.0000000E+00   5.7697862E-02  -3.0893114E-01   0.0000000E+00   5.6707680E-02  -3.0580181E-01   0.0000000E+00   5.5121258E-02  -3.0125302E-01   0.0000000E+00   5.1633555E-02  -2.9528707E-01   0.0000000E+00   4.6901841E-02  -3.5629073E-01   0.0000000E+00   6.6943400E-02  -3.5452843E-01   0.0000000E+00   6.5695263E-02  -3.5167417E-01   0.0000000E+00   6.4412378E-02  -3.4740853E-01   0.0000000E+00   6.2303856E-02  -3.4155825E-01   0.0000000E+00   5.8193807E-02  -3.3418146E-01   0.0000000E+00   5.2756421E-02  -4.0618947E-01   0.0000000E+00   7.5659126E-02  -4.0314525E-01   0.0000000E+00   7.4782573E-02  -3.9880329E-01   0.0000000E+00   7.2420612E-02  -3.9286837E-01   0.0000000E+00   6.9570199E-02  -3.8523173E-01   0.0000000E+00   6.4766474E-02  -3.7604806E-01   0.0000000E+00   5.8568105E-02  -4.6047992E-01   0.0000000E+00   8.5740805E-02  -4.5553502E-01   0.0000000E+00   8.4531464E-02  -4.4907853E-01   0.0000000E+00   8.0042377E-02  -4.4088933E-01   0.0000000E+00   7.6475471E-02  -4.3096998E-01   0.0000000E+00   7.1106493E-02  -4.1960964E-01   0.0000000E+00   6.4217344E-02  -5.1623136E-01   0.0000000E+00   9.6857764E-02  -5.0878924E-01   0.0000000E+00   9.4063468E-02  -4.9963644E-01   0.0000000E+00   8.6413831E-02  -4.8869142E-01   0.0000000E+00   8.2684219E-02  -4.7611022E-01   0.0000000E+00   7.7158131E-02  -4.6234149E-01   0.0000000E+00   6.9802307E-02  -5.6791264E-01   0.0000000E+00   1.0849299E-01  -5.5762142E-01   0.0000000E+00   1.0236534E-01  -5.4545480E-01   0.0000000E+00   9.0978168E-02  -5.3154719E-01   0.0000000E+00   8.8359490E-02  -5.1623547E-01   0.0000000E+00   8.3329268E-02  -5.0012296E-01   0.0000000E+00   7.5835742E-02  -6.0715503E-01   0.0000000E+00   1.1983275E-01  -5.9417051E-01   0.0000000E+00   1.0851543E-01  -5.7921141E-01   0.0000000E+00   9.4083756E-02  -5.6267965E-01   0.0000000E+00   9.4376363E-02  -5.4508859E-01   0.0000000E+00   9.0636387E-02  -5.2716154E-01   0.0000000E+00   8.3374724E-02  -6.2280101E-01   0.0000000E+00   1.3027681E-01  -6.0809141E-01   0.0000000E+00   1.1254878E-01  -5.9145445E-01   0.0000000E+00   9.6984066E-02  -5.7350266E-01   0.0000000E+00   1.0211549E-01  -5.5484098E-01   0.0000000E+00   1.0058708E-01  -5.3623772E-01   0.0000000E+00   9.3925670E-02  -6.0039866E-01   0.0000000E+00   1.4052723E-01  -5.8602369E-01   0.0000000E+00   1.1626508E-01  -5.7006860E-01   0.0000000E+00   1.0199418E-01  -5.5315691E-01   0.0000000E+00   1.1316136E-01  -5.3575987E-01   0.0000000E+00   1.1445811E-01  -5.1848966E-01   0.0000000E+00   1.0899623E-01  -5.2218330E-01   0.0000000E+00   1.5363835E-01  -5.1127726E-01   0.0000000E+00   1.2481543E-01  -4.9943978E-01   0.0000000E+00   1.1176182E-01  -4.8710844E-01   0.0000000E+00   1.2781431E-01  -4.7439855E-01   0.0000000E+00   1.3259484E-01  -4.6146125E-01   0.0000000E+00   1.2931083E-01  -3.6991164E-01   0.0000000E+00   1.7840052E-01  -3.6609623E-01   0.0000000E+00   1.4400093E-01  -3.6207724E-01   0.0000000E+00   1.2722684E-01  -3.5807997E-01   0.0000000E+00   1.4533749E-01  -3.5374463E-01   0.0000000E+00   1.5347198E-01  -3.4853888E-01   0.0000000E+00   1.5421531E-01  -1.3177395E-01   0.0000000E+00   2.2292738E-01  -1.3814276E-01   0.0000000E+00   1.7436385E-01  -1.4489220E-01   0.0000000E+00   1.5465976E-01  -1.5207945E-01   0.0000000E+00   1.6357572E-01  -1.5892833E-01   0.0000000E+00   1.7409310E-01  -1.6419907E-01   0.0000000E+00   1.8167892E-01   1.8777724E-01   0.0000000E+00   2.8155312E-01   1.6991995E-01   0.0000000E+00   1.9233097E-01   1.5116963E-01   0.0000000E+00   1.8872957E-01   1.3180120E-01   0.0000000E+00   1.8836865E-01   1.1289889E-01   0.0000000E+00   1.9455755E-01   9.6171930E-02   0.0000000E+00   2.0898192E-01   5.5824643E-01   0.0000000E+00   3.2348794E-01   5.3088659E-01   0.0000000E+00   1.8550864E-01   5.0169867E-01   0.0000000E+00   2.0705369E-01   4.7188157E-01   0.0000000E+00   2.1463788E-01   4.4278917E-01   0.0000000E+00   2.1398100E-01   4.1618752E-01   0.0000000E+00   2.3331848E-01   9.1819829E-01   0.0000000E+00   3.2897782E-01   8.8833213E-01   0.0000000E+00   1.7688254E-01   8.5475862E-01   0.0000000E+00   2.1459010E-01   8.2003593E-01   0.0000000E+00   2.3036851E-01   7.8585130E-01   0.0000000E+00   2.2950135E-01   7.5362396E-01   0.0000000E+00   2.5240642E-01   1.1902345E+00   0.0000000E+00   3.4200504E-01   1.1675988E+00   0.0000000E+00   1.6529469E-01   1.1400245E+00   0.0000000E+00   2.0110361E-01   1.1097976E+00   0.0000000E+00   2.3363158E-01   1.0783279E+00   0.0000000E+00   2.3771986E-01   1.0463991E+00   0.0000000E+00   2.6423636E-01   1.3256401E+00   0.0000000E+00   3.6665982E-01   1.3156352E+00   0.0000000E+00   1.4359699E-01   1.3018076E+00   0.0000000E+00   1.6264315E-01   1.2839164E+00   0.0000000E+00   2.0931754E-01   1.2617394E+00   0.0000000E+00   2.2808501E-01   1.2352482E+00   0.0000000E+00   2.6546338E-01   1.3320154E+00   0.0000000E+00   3.9870188E-01   1.3346884E+00   0.0000000E+00   1.3257168E-01   1.3351282E+00   0.0000000E+00   1.3634168E-01   1.3308102E+00   0.0000000E+00   1.8927042E-01   1.3197846E+00   0.0000000E+00   2.1882509E-01   1.3010761E+00   0.0000000E+00   2.6369908E-01   1.2565023E+00   0.0000000E+00   4.3258438E-01   1.2688904E+00   0.0000000E+00   1.3803309E-01   1.2799619E+00   0.0000000E+00   1.2800160E-01   1.2860504E+00   0.0000000E+00   1.8190289E-01   1.2841678E+00   0.0000000E+00   2.1514601E-01   1.2726191E+00   0.0000000E+00   2.6227009E-01   1.1535603E+00   0.0000000E+00   4.5996377E-01   1.1713283E+00   0.0000000E+00   1.5468690E-01   1.1878974E+00   0.0000000E+00   1.3590978E-01   1.1995069E+00   0.0000000E+00   1.8616951E-01   1.2028592E+00   0.0000000E+00   2.1719259E-01   1.1958840E+00   0.0000000E+00   2.6242581E-01   1.0593538E+00   0.0000000E+00   4.7558013E-01   1.0779650E+00   0.0000000E+00   1.7324814E-01   1.0950660E+00   0.0000000E+00   1.5326214E-01   1.1073545E+00   0.0000000E+00   1.9739236E-01   1.1116829E+00   0.0000000E+00   2.2267766E-01   1.1059209E+00   0.0000000E+00   2.6376918E-01   9.8247629E-01   0.0000000E+00   4.7635412E-01   9.9811488E-01   0.0000000E+00   1.8577272E-01   1.0117930E+00   0.0000000E+00   1.6828801E-01   1.0207919E+00   0.0000000E+00   2.0791349E-01   1.0223483E+00   0.0000000E+00   2.2796190E-01   1.0145583E+00   0.0000000E+00   2.6483470E-01   9.1045451E-01   0.0000000E+00   4.6582547E-01   9.2056084E-01   0.0000000E+00   1.9059302E-01   9.2809707E-01   0.0000000E+00   1.7699184E-01   9.3089426E-01   0.0000000E+00   2.1404918E-01   9.2675751E-01   0.0000000E+00   2.3062547E-01   9.1433495E-01   0.0000000E+00   2.6406968E-01   8.2516539E-01   0.0000000E+00   4.4759110E-01   8.2832587E-01   0.0000000E+00   1.9000952E-01   8.2801610E-01   0.0000000E+00   1.7944738E-01   8.2260084E-01   0.0000000E+00   2.1460755E-01   8.1070203E-01   0.0000000E+00   2.2958001E-01   7.9188299E-01   0.0000000E+00   2.6040766E-01   7.1772474E-01   0.0000000E+00   4.2347053E-01   7.1309179E-01   0.0000000E+00   1.8651707E-01   7.0386982E-01   0.0000000E+00   1.7652485E-01   6.8893886E-01   0.0000000E+00   2.0965034E-01   6.6800362E-01   0.0000000E+00   2.2424515E-01   6.4190370E-01   0.0000000E+00   2.5348565E-01   5.9407127E-01   0.0000000E+00   3.9496970E-01   5.8110797E-01   0.0000000E+00   1.7965759E-01   5.6243032E-01   0.0000000E+00   1.6974220E-01   5.3750348E-01   0.0000000E+00   1.9948868E-01   5.0730860E-01   0.0000000E+00   2.1489093E-01   4.7427347E-01   0.0000000E+00   2.4359234E-01   4.7028166E-01   0.0000000E+00   3.6143801E-01   4.4879714E-01   0.0000000E+00   1.7009644E-01   4.2081198E-01   0.0000000E+00   1.6050425E-01   3.8663092E-01   0.0000000E+00   1.8605530E-01   3.4861636E-01   0.0000000E+00   2.0392147E-01   3.1052983E-01   0.0000000E+00   2.3150238E-01   3.6340484E-01   0.0000000E+00   3.2159325E-01   3.3381635E-01   0.0000000E+00   1.5752961E-01   2.9740965E-01   0.0000000E+00   1.4785087E-01   2.5582007E-01   0.0000000E+00   1.7406169E-01   2.1251996E-01   0.0000000E+00   1.9268976E-01   1.7177302E-01   0.0000000E+00   2.1789932E-01   2.8244853E-01   0.0000000E+00   2.8333175E-01   2.4640550E-01   0.0000000E+00   1.3977191E-01   2.0330459E-01   0.0000000E+00   1.3503557E-01   1.5669268E-01   0.0000000E+00   1.6378488E-01   1.1065841E-01   0.0000000E+00   1.8056674E-01   6.9155239E-02   0.0000000E+00   2.0336083E-01   2.2666110E-01   0.0000000E+00   2.4841493E-01   1.8672013E-01   0.0000000E+00   1.1786209E-01   1.3890179E-01   0.0000000E+00   1.2511976E-01   8.9718707E-02   0.0000000E+00   1.5397693E-01   4.3271422E-02   0.0000000E+00   1.6786733E-01   2.5699278E-03   0.0000000E+00   1.8866488E-01   1.9047441E-01   0.0000000E+00   2.1555676E-01   1.4711140E-01   0.0000000E+00   9.9659637E-02   9.6323267E-02   0.0000000E+00   1.1549300E-01   4.7126856E-02   0.0000000E+00   1.4475858E-01   2.5964691E-03   0.0000000E+00   1.5674554E-01  -3.5606347E-02   0.0000000E+00   1.7482924E-01   1.7354922E-01   0.0000000E+00   1.7378440E-01   1.1857921E-01   0.0000000E+00   9.0451159E-02   6.4990960E-02   0.0000000E+00   1.0815029E-01   1.8317403E-02   0.0000000E+00   1.3761848E-01  -2.1675877E-02   0.0000000E+00   1.4820255E-01  -5.5301320E-02   0.0000000E+00   1.6280900E-01   1.7881757E-01   0.0000000E+00   1.2499829E-01   9.8567039E-02   0.0000000E+00   9.2312008E-02   3.8588509E-02   0.0000000E+00   1.0809981E-01  -5.1146280E-03   0.0000000E+00   1.3449383E-01  -3.8223065E-02   0.0000000E+00   1.4271852E-01  -6.5002225E-02   0.0000000E+00   1.5341909E-01   1.9436039E-01   0.0000000E+00   9.9272639E-02   8.6115845E-02   0.0000000E+00   9.4601408E-02   1.5741285E-02   0.0000000E+00   1.0711224E-01  -2.6402017E-02   0.0000000E+00   1.3195913E-01  -5.1718399E-02   0.0000000E+00   1.3984701E-01  -7.0003100E-02   0.0000000E+00   1.4687991E-01   8.2757428E-02   0.0000000E+00   9.2873082E-02  -6.8784342E-04   0.0000000E+00   9.9182419E-02  -4.2992242E-02   0.0000000E+00   1.2674171E-01  -6.2776230E-02   0.0000000E+00   1.3755716E-01  -7.2596461E-02   0.0000000E+00   1.4271791E-01   8.8021487E-02   0.0000000E+00   9.0932503E-02  -1.4333659E-03   0.0000000E+00   9.3425207E-02  -4.9495790E-02   0.0000000E+00   1.1692923E-01  -6.9033034E-02   0.0000000E+00   1.3326818E-01  -7.3593706E-02   0.0000000E+00   1.3933723E-01   1.8740479E-02   0.0000000E+00   9.7601838E-02  -3.9650254E-02   0.0000000E+00   1.0892151E-01  -6.5135017E-02   0.0000000E+00   1.2894830E-01  -7.2094068E-02   0.0000000E+00   1.3579239E-01   5.2426010E-02   0.0000000E+00   1.0387140E-01  -5.8058836E-03   0.0000000E+00   1.1434437E-01  -4.4740561E-02   0.0000000E+00   1.2632701E-01  -6.2405605E-02   0.0000000E+00   1.3386059E-01   4.1503403E-02   0.0000000E+00   1.2251879E-01  -2.9147025E-03   0.0000000E+00   1.2984432E-01  -3.5117470E-02   0.0000000E+00   1.3597769E-01   5.1620025E-02   0.0000000E+00   1.3492420E-01   1.6483044E-02   0.0000000E+00   1.4210767E-01   7.1087420E-02   0.0000000E+00   1.1626911E-01   7.2227120E-02   0.0000000E+00   1.4641333E-01  -1.1137246E-02   0.0000000E+00   4.4830458E-04  -1.1462374E-02   0.0000000E+00   4.3288071E-04  -1.1655807E-02   0.0000000E+00   3.8885928E-04  -1.1755683E-02   0.0000000E+00   3.3356165E-04  -1.1793308E-02   0.0000000E+00   2.7705877E-04  -1.1793850E-02   0.0000000E+00   2.2548861E-04  -1.1776475E-02   0.0000000E+00   1.8268666E-04  -1.1754993E-02   0.0000000E+00   1.5090505E-04  -1.1738615E-02   0.0000000E+00   1.3140979E-04  -1.3599858E-02   0.0000000E+00   6.1121094E-04  -1.3950269E-02   0.0000000E+00   5.8793603E-04  -1.4146090E-02   0.0000000E+00   5.2758108E-04  -1.4234237E-02   0.0000000E+00   4.5283907E-04  -1.4252828E-02   0.0000000E+00   3.7640007E-04  -1.4232297E-02   0.0000000E+00   3.0651881E-04  -1.4195476E-02   0.0000000E+00   2.4845000E-04  -1.4158625E-02   0.0000000E+00   2.0530871E-04  -1.4132483E-02   0.0000000E+00   1.7883863E-04  -1.6009120E-02   0.0000000E+00   7.6868228E-04  -1.6355479E-02   0.0000000E+00   7.3542551E-04  -1.6528964E-02   0.0000000E+00   6.5862242E-04  -1.6585505E-02   0.0000000E+00   5.6528865E-04  -1.6569823E-02   0.0000000E+00   4.6993431E-04  -1.6516954E-02   0.0000000E+00   3.8267547E-04  -1.6452750E-02   0.0000000E+00   3.1009506E-04  -1.6395308E-02   0.0000000E+00   2.5613836E-04  -1.6356446E-02   0.0000000E+00   2.2302080E-04  -1.8624991E-02   0.0000000E+00   9.1309234E-04  -1.8942719E-02   0.0000000E+00   8.6743938E-04  -1.9071860E-02   0.0000000E+00   7.7475578E-04  -1.9078361E-02   0.0000000E+00   6.6462351E-04  -1.9013805E-02   0.0000000E+00   5.5240066E-04  -1.8917454E-02   0.0000000E+00   4.4964219E-04  -1.8817721E-02   0.0000000E+00   3.6407079E-04  -1.8734181E-02   0.0000000E+00   3.0038654E-04  -1.8679418E-02   0.0000000E+00   2.6127047E-04  -2.1703221E-02   0.0000000E+00   1.0465994E-03  -2.1970946E-02   0.0000000E+00   9.8651508E-04  -2.2035539E-02   0.0000000E+00   8.7868486E-04  -2.1974614E-02   0.0000000E+00   7.5346814E-04  -2.1846795E-02   0.0000000E+00   6.2632147E-04  -2.1695549E-02   0.0000000E+00   5.0975563E-04  -2.1551665E-02   0.0000000E+00   4.1247348E-04  -2.1435995E-02   0.0000000E+00   3.3992252E-04  -2.1361753E-02   0.0000000E+00   2.9529448E-04  -2.5452878E-02   0.0000000E+00   1.1802203E-03  -2.5648486E-02   0.0000000E+00   1.1049157E-03  -2.5628109E-02   0.0000000E+00   9.8247558E-04  -2.5481967E-02   0.0000000E+00   8.4317609E-04  -2.5275737E-02   0.0000000E+00   7.0196780E-04  -2.5057163E-02   0.0000000E+00   5.7205569E-04  -2.4859456E-02   0.0000000E+00   4.6315262E-04  -2.4704734E-02   0.0000000E+00   3.8162438E-04  -2.4606913E-02   0.0000000E+00   3.3133887E-04  -3.0021317E-02   0.0000000E+00   1.3351025E-03  -3.0117970E-02   0.0000000E+00   1.2439026E-03  -2.9989578E-02   0.0000000E+00   1.1065200E-03  -2.9738262E-02   0.0000000E+00   9.5272309E-04  -2.9436586E-02   0.0000000E+00   7.9632149E-04  -2.9136527E-02   0.0000000E+00   6.5131689E-04  -2.8873816E-02   0.0000000E+00   5.2882044E-04  -2.8671999E-02   0.0000000E+00   4.3655545E-04  -2.8545670E-02   0.0000000E+00   3.7941139E-04  -3.5510071E-02   0.0000000E+00   1.5496493E-03  -3.5472050E-02   0.0000000E+00   1.4358582E-03  -3.5207231E-02   0.0000000E+00   1.2797539E-03  -3.4827154E-02   0.0000000E+00   1.1078737E-03  -3.4410134E-02   0.0000000E+00   9.3185192E-04  -3.4012191E-02   0.0000000E+00   7.6672900E-04  -3.3671487E-02   0.0000000E+00   6.2574144E-04  -3.3413060E-02   0.0000000E+00   5.1868701E-04  -3.3252478E-02   0.0000000E+00   4.5203403E-04  -4.2021297E-02   0.0000000E+00   1.8896264E-03  -4.1795336E-02   0.0000000E+00   1.7304791E-03  -4.1358516E-02   0.0000000E+00   1.5418559E-03  -4.0821191E-02   0.0000000E+00   1.3413021E-03  -4.0265530E-02   0.0000000E+00   1.1356161E-03  -3.9750561E-02   0.0000000E+00   9.4057602E-04  -3.9316770E-02   0.0000000E+00   7.7227154E-04  -3.8990825E-02   0.0000000E+00   6.4343045E-04  -3.8789269E-02   0.0000000E+00   5.6279282E-04  -4.9689285E-02   0.0000000E+00   2.4510026E-03  -4.9208775E-02   0.0000000E+00   2.1992100E-03  -4.8556339E-02   0.0000000E+00   1.9456288E-03  -4.7827654E-02   0.0000000E+00   1.6931307E-03  -4.7105834E-02   0.0000000E+00   1.4386467E-03  -4.6451468E-02   0.0000000E+00   1.1970433E-03  -4.5906920E-02   0.0000000E+00   9.8742172E-04  -4.5500547E-02   0.0000000E+00   8.2613120E-04  -4.5250285E-02   0.0000000E+00   7.2483718E-04  -5.8658335E-02   0.0000000E+00   3.3485703E-03  -5.7856809E-02   0.0000000E+00   2.9300004E-03  -5.6937523E-02   0.0000000E+00   2.5550630E-03  -5.5977147E-02   0.0000000E+00   2.2096748E-03  -5.5056367E-02   0.0000000E+00   1.8745951E-03  -5.4235939E-02   0.0000000E+00   1.5606878E-03  -5.3559694E-02   0.0000000E+00   1.2892508E-03  -5.3057753E-02   0.0000000E+00   1.0804500E-03  -5.2749511E-02   0.0000000E+00   9.4926520E-04  -6.9065109E-02   0.0000000E+00   4.6900380E-03  -6.7886345E-02   0.0000000E+00   4.0102531E-03  -6.6645116E-02   0.0000000E+00   3.4363414E-03  -6.5406986E-02   0.0000000E+00   2.9384540E-03  -6.4248644E-02   0.0000000E+00   2.4765711E-03  -6.3230366E-02   0.0000000E+00   2.0540718E-03  -6.2397372E-02   0.0000000E+00   1.6929117E-03  -6.1781749E-02   0.0000000E+00   1.4166334E-03  -6.1404519E-02   0.0000000E+00   1.2435104E-03  -8.1046142E-02   0.0000000E+00   6.5440205E-03  -7.9445846E-02   0.0000000E+00   5.5051795E-03  -7.7828526E-02   0.0000000E+00   4.6444149E-03  -7.6262675E-02   0.0000000E+00   3.9205123E-03  -7.4822493E-02   0.0000000E+00   3.2726836E-03  -7.3568918E-02   0.0000000E+00   2.6950641E-03  -7.2549388E-02   0.0000000E+00   2.2088448E-03  -7.1798518E-02   0.0000000E+00   1.8401833E-03  -7.1339257E-02   0.0000000E+00   1.6102537E-03  -9.4741806E-02   0.0000000E+00   8.9189336E-03  -9.2685275E-02   0.0000000E+00   7.4421931E-03  -9.0642862E-02   0.0000000E+00   6.2112948E-03  -8.8697493E-02   0.0000000E+00   5.1830178E-03  -8.6926095E-02   0.0000000E+00   4.2818473E-03  -8.5393824E-02   0.0000000E+00   3.4946208E-03  -8.4152669E-02   0.0000000E+00   2.8417574E-03  -8.3240904E-02   0.0000000E+00   2.3514980E-03  -8.2684085E-02   0.0000000E+00   2.0474310E-03  -1.1029817E-01   0.0000000E+00   1.1769340E-02  -1.0775997E-01   0.0000000E+00   9.8101581E-03  -1.0524971E-01   0.0000000E+00   8.1422459E-03  -1.0287117E-01   0.0000000E+00   6.7356084E-03  -1.0071372E-01   0.0000000E+00   5.5116196E-03  -9.8853201E-02   0.0000000E+00   4.4561378E-03  -9.7349666E-02   0.0000000E+00   3.5911219E-03  -9.6246921E-02   0.0000000E+00   2.9471898E-03  -9.5574282E-02   0.0000000E+00   2.5500113E-03  -1.2787811E-01   0.0000000E+00   1.5028748E-02  -1.2483981E-01   0.0000000E+00   1.2573301E-02  -1.2181854E-01   0.0000000E+00   1.0421273E-02  -1.1894856E-01   0.0000000E+00   8.5721249E-03  -1.1634356E-01   0.0000000E+00   6.9593382E-03  -1.1409807E-01   0.0000000E+00   5.5773845E-03  -1.1228502E-01   0.0000000E+00   4.4541559E-03  -1.1095662E-01   0.0000000E+00   3.6239335E-03  -1.1014691E-01   0.0000000E+00   3.1143795E-03  -1.4767894E-01   0.0000000E+00   1.8644860E-02  -1.4411438E-01   0.0000000E+00   1.5691806E-02  -1.4052777E-01   0.0000000E+00   1.3022036E-02  -1.3709769E-01   0.0000000E+00   1.0676712E-02  -1.3397455E-01   0.0000000E+00   8.6167939E-03  -1.3127951E-01   0.0000000E+00   6.8556359E-03  -1.2910326E-01   0.0000000E+00   5.4320795E-03  -1.2750936E-01   0.0000000E+00   4.3857871E-03  -1.2653816E-01   0.0000000E+00   3.7464083E-03  -1.6993715E-01   0.0000000E+00   2.2590784E-02  -1.6578928E-01   0.0000000E+00   1.9135026E-02  -1.6156067E-01   0.0000000E+00   1.5917610E-02  -1.5748629E-01   0.0000000E+00   1.3031934E-02  -1.5376273E-01   0.0000000E+00   1.0478197E-02  -1.5054481E-01   0.0000000E+00   8.2965735E-03  -1.4794533E-01   0.0000000E+00   6.5405811E-03  -1.4604130E-01   0.0000000E+00   5.2561364E-03  -1.4488137E-01   0.0000000E+00   4.4743102E-03  -1.9490345E-01   0.0000000E+00   2.6861640E-02  -1.9007269E-01   0.0000000E+00   2.2880506E-02  -1.8509714E-01   0.0000000E+00   1.9085001E-02  -1.8027593E-01   0.0000000E+00   1.5627084E-02  -1.7585784E-01   0.0000000E+00   1.2551381E-02  -1.7203556E-01   0.0000000E+00   9.9279881E-03  -1.6894718E-01   0.0000000E+00   7.8255674E-03  -1.6668548E-01   0.0000000E+00   6.2950091E-03  -1.6530778E-01   0.0000000E+00   5.3670225E-03  -2.2281386E-01   0.0000000E+00   3.1451035E-02  -2.1715696E-01   0.0000000E+00   2.6903372E-02  -2.1130238E-01   0.0000000E+00   2.2505490E-02  -2.0561561E-01   0.0000000E+00   1.8467214E-02  -2.0040032E-01   0.0000000E+00   1.4873056E-02  -1.9588794E-01   0.0000000E+00   1.1818885E-02  -1.9224361E-01   0.0000000E+00   9.3846451E-03  -1.8957578E-01   0.0000000E+00   7.6220883E-03  -1.8795137E-01   0.0000000E+00   6.5580145E-03  -2.5385997E-01   0.0000000E+00   3.6323033E-02  -2.4719778E-01   0.0000000E+00   3.1165509E-02  -2.4031283E-01   0.0000000E+00   2.6167633E-02  -2.3363492E-01   0.0000000E+00   2.1586334E-02  -2.2751912E-01   0.0000000E+00   1.7528916E-02  -2.2223492E-01   0.0000000E+00   1.4104067E-02  -2.1797219E-01   0.0000000E+00   1.1393834E-02  -2.1485478E-01   0.0000000E+00   9.4441455E-03  -2.1295770E-01   0.0000000E+00   8.2729887E-03  -2.8814626E-01   0.0000000E+00   4.1397821E-02  -2.8027833E-01   0.0000000E+00   3.5616927E-02  -2.7220970E-01   0.0000000E+00   3.0081579E-02  -2.6442447E-01   0.0000000E+00   2.5070101E-02  -2.5732091E-01   0.0000000E+00   2.0680914E-02  -2.5119990E-01   0.0000000E+00   1.7012848E-02  -2.4627158E-01   0.0000000E+00   1.4136345E-02  -2.4267264E-01   0.0000000E+00   1.2083145E-02  -2.4048455E-01   0.0000000E+00   1.0857202E-02  -3.2559597E-01   0.0000000E+00   4.6563510E-02  -3.1632340E-01   0.0000000E+00   4.0219847E-02  -3.0694193E-01   0.0000000E+00   3.4311287E-02  -2.9796889E-01   0.0000000E+00   2.9091125E-02  -2.8982773E-01   0.0000000E+00   2.4600919E-02  -2.8283900E-01   0.0000000E+00   2.0899024E-02  -2.7722654E-01   0.0000000E+00   1.8028261E-02  -2.7313459E-01   0.0000000E+00   1.5998393E-02  -2.7064955E-01   0.0000000E+00   1.4795227E-02  -3.6573914E-01   0.0000000E+00   5.1725253E-02  -3.5490164E-01   0.0000000E+00   4.5001451E-02  -3.4413868E-01   0.0000000E+00   3.9024834E-02  -3.3396453E-01   0.0000000E+00   3.3952165E-02  -3.2480034E-01   0.0000000E+00   2.9704062E-02  -3.1696910E-01   0.0000000E+00   2.6263492E-02  -3.1069672E-01   0.0000000E+00   2.3632074E-02  -3.0613101E-01   0.0000000E+00   2.1793403E-02  -3.0336070E-01   0.0000000E+00   2.0713877E-02  -4.0735921E-01   0.0000000E+00   5.6894522E-02  -3.9488328E-01   0.0000000E+00   5.0128385E-02  -3.8277173E-01   0.0000000E+00   4.4549324E-02  -3.7148449E-01   0.0000000E+00   4.0120587E-02  -3.6140275E-01   0.0000000E+00   3.6565617E-02  -3.5282770E-01   0.0000000E+00   3.3757340E-02  -3.4597674E-01   0.0000000E+00   3.1648651E-02  -3.4099564E-01   0.0000000E+00   3.0199606E-02  -3.3797446E-01   0.0000000E+00   2.9360915E-02  -4.4807500E-01   0.0000000E+00   6.2307280E-02  -4.3403122E-01   0.0000000E+00   5.5984344E-02  -4.2074224E-01   0.0000000E+00   5.1408391E-02  -4.0855584E-01   0.0000000E+00   4.8233811E-02  -3.9776805E-01   0.0000000E+00   4.5904011E-02  -3.8863325E-01   0.0000000E+00   4.4149980E-02  -3.8134754E-01   0.0000000E+00   4.2876102E-02  -3.7605181E-01   0.0000000E+00   4.2029306E-02  -3.7283942E-01   0.0000000E+00   4.1554786E-02  -4.8402381E-01   0.0000000E+00   6.8556100E-02  -4.6869001E-01   0.0000000E+00   6.3234709E-02  -4.5456025E-01   0.0000000E+00   6.0328666E-02  -4.4182163E-01   0.0000000E+00   5.9065059E-02  -4.3064800E-01   0.0000000E+00   5.8522057E-02  -4.2122203E-01   0.0000000E+00   5.8257259E-02  -4.1370854E-01   0.0000000E+00   5.8131687E-02  -4.0824279E-01   0.0000000E+00   5.8095440E-02  -4.0492287E-01   0.0000000E+00   5.8103543E-02  -5.0978971E-01   0.0000000E+00   7.6696105E-02  -4.9372244E-01   0.0000000E+00   7.2876863E-02  -4.7928295E-01   0.0000000E+00   7.2224014E-02  -4.6647888E-01   0.0000000E+00   7.3461480E-02  -4.5534357E-01   0.0000000E+00   7.5224362E-02  -4.4597569E-01   0.0000000E+00   7.6853953E-02  -4.3850163E-01   0.0000000E+00   7.8165121E-02  -4.3304968E-01   0.0000000E+00   7.9127133E-02  -4.2972931E-01   0.0000000E+00   7.9723172E-02  -5.1862615E-01   0.0000000E+00   8.8199988E-02  -5.0272530E-01   0.0000000E+00   8.6234272E-02  -4.8874146E-01   0.0000000E+00   8.8194892E-02  -4.7651765E-01   0.0000000E+00   9.2321754E-02  -4.6595472E-01   0.0000000E+00   9.6779920E-02  -4.5707151E-01   0.0000000E+00   1.0063487E-01  -4.4995740E-01   0.0000000E+00   1.0362574E-01  -4.4473955E-01   0.0000000E+00   1.0574540E-01  -4.4154540E-01   0.0000000E+00   1.0701875E-01  -5.0223488E-01   0.0000000E+00   1.0465477E-01  -4.8774365E-01   0.0000000E+00   1.0481513E-01  -4.7519171E-01   0.0000000E+00   1.0953442E-01  -4.6432000E-01   0.0000000E+00   1.1667401E-01  -4.5493734E-01   0.0000000E+00   1.2400483E-01  -4.4700906E-01   0.0000000E+00   1.3028346E-01  -4.4060448E-01   0.0000000E+00   1.3512103E-01  -4.3586069E-01   0.0000000E+00   1.3851616E-01  -4.3293285E-01   0.0000000E+00   1.4053607E-01  -4.4887522E-01   0.0000000E+00   1.2720792E-01  -4.3741605E-01   0.0000000E+00   1.2998356E-01  -4.2743537E-01   0.0000000E+00   1.3761014E-01  -4.1875115E-01   0.0000000E+00   1.4772370E-01  -4.1117024E-01   0.0000000E+00   1.5787588E-01  -4.0465856E-01   0.0000000E+00   1.6658656E-01  -3.9930597E-01   0.0000000E+00   1.7330989E-01  -3.9527842E-01   0.0000000E+00   1.7801954E-01  -3.9276293E-01   0.0000000E+00   1.8081361E-01  -3.4243354E-01   0.0000000E+00   1.5601252E-01  -3.3603454E-01   0.0000000E+00   1.6244988E-01  -3.2997802E-01   0.0000000E+00   1.7346501E-01  -3.2440725E-01   0.0000000E+00   1.8659161E-01  -3.1929442E-01   0.0000000E+00   1.9939156E-01  -3.1469512E-01   0.0000000E+00   2.1034797E-01  -3.1076887E-01   0.0000000E+00   2.1882471E-01  -3.0772886E-01   0.0000000E+00   2.2476557E-01  -3.0579323E-01   0.0000000E+00   2.2828971E-01  -1.6709775E-01   0.0000000E+00   1.8980861E-01  -1.6780965E-01   0.0000000E+00   2.0170718E-01  -1.6714825E-01   0.0000000E+00   2.1718159E-01  -1.6573609E-01   0.0000000E+00   2.3369862E-01  -1.6387700E-01   0.0000000E+00   2.4904428E-01  -1.6180767E-01   0.0000000E+00   2.6195407E-01  -1.5979074E-01   0.0000000E+00   2.7189457E-01  -1.5809333E-01   0.0000000E+00   2.7884927E-01  -1.5695786E-01   0.0000000E+00   2.8297380E-01   8.3058961E-02   0.0000000E+00   2.2588329E-01   7.3906012E-02   0.0000000E+00   2.4563666E-01   6.7948461E-02   0.0000000E+00   2.6725659E-01   6.4163364E-02   0.0000000E+00   2.8800237E-01   6.1880231E-02   0.0000000E+00   3.0603313E-01   6.0654171E-02   0.0000000E+00   3.2064566E-01   6.0128085E-02   0.0000000E+00   3.3169049E-01   6.0002416E-02   0.0000000E+00   3.3935070E-01   6.0036402E-02   0.0000000E+00   3.4387761E-01   3.9372316E-01   0.0000000E+00   2.6050442E-01   3.7615988E-01   0.0000000E+00   2.9051736E-01   3.6304677E-01   0.0000000E+00   3.2028353E-01   3.5327873E-01   0.0000000E+00   3.4643573E-01   3.4598258E-01   0.0000000E+00   3.6756277E-01   3.4059656E-01   0.0000000E+00   3.8377613E-01   3.3674663E-01   0.0000000E+00   3.9561424E-01   3.3417839E-01   0.0000000E+00   4.0367618E-01   3.3271369E-01   0.0000000E+00   4.0840849E-01   7.2472215E-01   0.0000000E+00   2.8980413E-01   7.0020658E-01   0.0000000E+00   3.3161393E-01   6.8023920E-01   0.0000000E+00   3.7118044E-01   6.6409415E-01   0.0000000E+00   4.0387696E-01   6.5103716E-01   0.0000000E+00   4.2865646E-01   6.4061886E-01   0.0000000E+00   4.4658628E-01   6.3261563E-01   0.0000000E+00   4.5912057E-01   6.2693566E-01   0.0000000E+00   4.6744883E-01   6.2353992E-01   0.0000000E+00   4.7229245E-01   1.0150962E+00   0.0000000E+00   3.1086689E-01   9.8591965E-01   0.0000000E+00   3.6442804E-01   9.5997655E-01   0.0000000E+00   4.1429102E-01   9.3741977E-01   0.0000000E+00   4.5416057E-01   9.1811574E-01   0.0000000E+00   4.8314434E-01   9.0204453E-01   0.0000000E+00   5.0319159E-01   8.8931024E-01   0.0000000E+00   5.1668763E-01   8.8006610E-01   0.0000000E+00   5.2545595E-01   8.7445515E-01   0.0000000E+00   5.3051329E-01   1.2054269E+00   0.0000000E+00   3.2246277E-01   1.1743219E+00   0.0000000E+00   3.8634986E-01   1.1440766E+00   0.0000000E+00   4.4541559E-01   1.1160411E+00   0.0000000E+00   4.9221510E-01   1.0910486E+00   0.0000000E+00   5.2569377E-01   1.0697194E+00   0.0000000E+00   5.4836667E-01   1.0525620E+00   0.0000000E+00   5.6334209E-01   1.0399851E+00   0.0000000E+00   5.7296628E-01   1.0323036E+00   0.0000000E+00   5.7850111E-01   1.2754041E+00   0.0000000E+00   3.2714465E-01   1.2451105E+00   0.0000000E+00   3.9788231E-01   1.2131096E+00   0.0000000E+00   4.6377105E-01   1.1818547E+00   0.0000000E+00   5.1631391E-01   1.1531312E+00   0.0000000E+00   5.5399597E-01   1.1282073E+00   0.0000000E+00   5.7951224E-01   1.1079749E+00   0.0000000E+00   5.9637582E-01   1.0930685E+00   0.0000000E+00   6.0724580E-01   1.0839370E+00   0.0000000E+00   6.1352074E-01   1.2517377E+00   0.0000000E+00   3.2785442E-01   1.2238308E+00   0.0000000E+00   4.0164256E-01   1.1922102E+00   0.0000000E+00   4.7140223E-01   1.1600906E+00   0.0000000E+00   5.2780074E-01   1.1299524E+00   0.0000000E+00   5.6873244E-01   1.1035235E+00   0.0000000E+00   5.9677976E-01   1.0819584E+00   0.0000000E+00   6.1555421E-01   1.0660250E+00   0.0000000E+00   6.2780190E-01   1.0562494E+00   0.0000000E+00   6.3493365E-01   1.1785814E+00   0.0000000E+00   3.2687300E-01   1.1530900E+00   0.0000000E+00   4.0051973E-01   1.1228647E+00   0.0000000E+00   4.7132167E-01   1.0914806E+00   0.0000000E+00   5.2943146E-01   1.0617416E+00   0.0000000E+00   5.7221210E-01   1.0355617E+00   0.0000000E+00   6.0199183E-01   1.0141726E+00   0.0000000E+00   6.2226695E-01   9.9836463E-01   0.0000000E+00   6.3569355E-01   9.8866528E-01   0.0000000E+00   6.4359140E-01   1.0899290E+00   0.0000000E+00   3.2514697E-01   1.0657694E+00   0.0000000E+00   3.9648274E-01   1.0369159E+00   0.0000000E+00   4.6608377E-01   1.0069468E+00   0.0000000E+00   5.2393508E-01   9.7861671E-01   0.0000000E+00   5.6705290E-01   9.5376199E-01   0.0000000E+00   5.9749424E-01   9.3351883E-01   0.0000000E+00   6.1854649E-01   9.1859514E-01   0.0000000E+00   6.3268435E-01   9.0945488E-01   0.0000000E+00   6.4107889E-01   9.9743879E-01   0.0000000E+00   3.2240993E-01   9.7314864E-01   0.0000000E+00   3.9025673E-01   9.4509703E-01   0.0000000E+00   4.5714891E-01   9.1657829E-01   0.0000000E+00   5.1321048E-01   8.9000410E-01   0.0000000E+00   5.5532259E-01   8.6692971E-01   0.0000000E+00   5.8533412E-01   8.4827840E-01   0.0000000E+00   6.0632122E-01   8.3460027E-01   0.0000000E+00   6.2056786E-01   8.2624900E-01   0.0000000E+00   6.2909180E-01   8.9411253E-01   0.0000000E+00   3.1778955E-01   8.6846435E-01   0.0000000E+00   3.8165912E-01   8.4061664E-01   0.0000000E+00   4.4497329E-01   8.1336194E-01   0.0000000E+00   4.9820870E-01   7.8858638E-01   0.0000000E+00   5.3829122E-01   7.6742560E-01   0.0000000E+00   5.6694925E-01   7.5051087E-01   0.0000000E+00   5.8709514E-01   7.3819619E-01   0.0000000E+00   6.0086131E-01   7.3070997E-01   0.0000000E+00   6.0914654E-01   7.6733565E-01   0.0000000E+00   3.1046459E-01   7.3967975E-01   0.0000000E+00   3.7021914E-01   7.1180779E-01   0.0000000E+00   4.2951158E-01   6.8584210E-01   0.0000000E+00   4.7930118E-01   6.6300303E-01   0.0000000E+00   5.1668197E-01   6.4391488E-01   0.0000000E+00   5.4332525E-01   6.2887043E-01   0.0000000E+00   5.6203526E-01   6.1801630E-01   0.0000000E+00   5.7485044E-01   6.1145282E-01   0.0000000E+00   5.8259684E-01   6.1273664E-01   0.0000000E+00   3.0009839E-01   5.8328122E-01   0.0000000E+00   3.5573280E-01   5.5586118E-01   0.0000000E+00   4.1080216E-01   5.3173327E-01   0.0000000E+00   4.5682299E-01   5.1134366E-01   0.0000000E+00   4.9111968E-01   4.9475381E-01   0.0000000E+00   5.1534539E-01   4.8190123E-01   0.0000000E+00   5.3223252E-01   4.7272953E-01   0.0000000E+00   5.4377425E-01   4.6722037E-01   0.0000000E+00   5.5076969E-01   4.4143429E-01   0.0000000E+00   2.8696212E-01   4.1141555E-01   0.0000000E+00   3.3851698E-01   3.8564831E-01   0.0000000E+00   3.8929674E-01   3.6437556E-01   0.0000000E+00   4.3141297E-01   3.4724489E-01   0.0000000E+00   4.6244711E-01   3.3377025E-01   0.0000000E+00   4.8404580E-01   3.2356143E-01   0.0000000E+00   4.9889162E-01   3.1637868E-01   0.0000000E+00   5.0896376E-01   3.1210050E-01   0.0000000E+00   5.1506728E-01   2.7592483E-01   0.0000000E+00   2.7173021E-01   2.4695913E-01   0.0000000E+00   3.1926179E-01   2.2404069E-01   0.0000000E+00   3.6577609E-01   2.0642675E-01   0.0000000E+00   4.0398279E-01   1.9306791E-01   0.0000000E+00   4.3171826E-01   1.8303457E-01   0.0000000E+00   4.5062152E-01   1.7567602E-01   0.0000000E+00   4.6332926E-01   1.7060933E-01   0.0000000E+00   4.7182301E-01   1.6763194E-01   0.0000000E+00   4.7694281E-01   1.3713883E-01   0.0000000E+00   2.5509852E-01   1.1022823E-01   0.0000000E+00   2.9870763E-01   9.0563037E-02   0.0000000E+00   3.4107614E-01   7.6599725E-02   0.0000000E+00   3.7549612E-01   6.6784240E-02   0.0000000E+00   4.0003452E-01   5.9893806E-02   0.0000000E+00   4.1630235E-01   5.5107761E-02   0.0000000E+00   4.2688331E-01   5.1943000E-02   0.0000000E+00   4.3376675E-01   5.0133239E-02   0.0000000E+00   4.3785700E-01   3.5336547E-02   0.0000000E+00   2.3758596E-01   1.0469696E-02   0.0000000E+00   2.7743489E-01  -6.4832927E-03   0.0000000E+00   3.1587386E-01  -1.7611191E-02   0.0000000E+00   3.4675768E-01  -2.4769614E-02   0.0000000E+00   3.6834598E-01  -2.9327476E-02   0.0000000E+00   3.8218674E-01  -3.2194737E-02   0.0000000E+00   3.9077789E-01  -3.3925775E-02   0.0000000E+00   3.9611083E-01  -3.4847122E-02   0.0000000E+00   3.9918265E-01  -3.0085932E-02   0.0000000E+00   2.1964493E-01  -5.3652953E-02   0.0000000E+00   2.5582767E-01  -6.9093540E-02   0.0000000E+00   2.9058468E-01  -7.8694202E-02   0.0000000E+00   3.1826973E-01  -8.4426820E-02   0.0000000E+00   3.3729053E-01  -8.7692901E-02   0.0000000E+00   3.4906575E-01  -8.9441337E-02   0.0000000E+00   3.5594887E-01  -9.0295821E-02   0.0000000E+00   3.5990435E-01  -9.0656430E-02   0.0000000E+00   3.6204344E-01  -6.6542685E-02   0.0000000E+00   2.0191653E-01  -8.9531936E-02   0.0000000E+00   2.3420422E-01  -1.0487326E-01   0.0000000E+00   2.6542890E-01  -1.1437508E-01   0.0000000E+00   2.9024965E-01  -1.1993432E-01   0.0000000E+00   3.0715483E-01  -1.2291399E-01   0.0000000E+00   3.1734499E-01  -1.2429510E-01   0.0000000E+00   3.2293761E-01  -1.2479068E-01   0.0000000E+00   3.2581651E-01  -1.2489418E-01   0.0000000E+00   3.2719815E-01  -8.3357453E-02   0.0000000E+00   1.8530089E-01  -1.0582147E-01   0.0000000E+00   2.1305253E-01  -1.2214862E-01   0.0000000E+00   2.4060422E-01  -1.3280247E-01   0.0000000E+00   2.6277408E-01  -1.3924591E-01   0.0000000E+00   2.7798280E-01  -1.4275901E-01   0.0000000E+00   2.8710675E-01  -1.4438063E-01   0.0000000E+00   2.9191092E-01  -1.4493793E-01   0.0000000E+00   2.9412195E-01  -1.4503188E-01   0.0000000E+00   2.9500705E-01  -8.8294521E-02   0.0000000E+00   1.7072646E-01  -1.0927268E-01   0.0000000E+00   1.9315661E-01  -1.2684821E-01   0.0000000E+00   2.1652904E-01  -1.3954096E-01   0.0000000E+00   2.3603311E-01  -1.4767779E-01   0.0000000E+00   2.4979267E-01  -1.5237285E-01   0.0000000E+00   2.5826570E-01  -1.5472002E-01   0.0000000E+00   2.6276791E-01  -1.5567555E-01   0.0000000E+00   2.6476106E-01  -1.5595739E-01   0.0000000E+00   2.6546365E-01  -8.6497568E-02   0.0000000E+00   1.5899564E-01  -1.0410481E-01   0.0000000E+00   1.7563733E-01  -1.2190914E-01   0.0000000E+00   1.9409055E-01  -1.3688843E-01   0.0000000E+00   2.1056513E-01  -1.4735794E-01   0.0000000E+00   2.2282183E-01  -1.5385342E-01   0.0000000E+00   2.3079741E-01  -1.5742205E-01   0.0000000E+00   2.3531422E-01  -1.5911375E-01   0.0000000E+00   2.3746532E-01  -1.5977578E-01   0.0000000E+00   2.3828301E-01  -8.0934197E-02   0.0000000E+00   1.5045424E-01  -9.2942469E-02   0.0000000E+00   1.6153102E-01  -1.0883806E-01   0.0000000E+00   1.7462112E-01  -1.2514544E-01   0.0000000E+00   1.8735829E-01  -1.3832547E-01   0.0000000E+00   1.9769540E-01  -1.4729953E-01   0.0000000E+00   2.0497061E-01  -1.5273865E-01   0.0000000E+00   2.0950675E-01  -1.5565385E-01   0.0000000E+00   2.1196711E-01  -1.5697847E-01   0.0000000E+00   2.1307518E-01  -7.4044317E-02   0.0000000E+00   1.4468727E-01  -7.8735314E-02   0.0000000E+00   1.5133575E-01  -8.9950562E-02   0.0000000E+00   1.5932280E-01  -1.0513074E-01   0.0000000E+00   1.6775538E-01  -1.2013486E-01   0.0000000E+00   1.7542984E-01  -1.3198493E-01   0.0000000E+00   1.8146668E-01  -1.3997684E-01   0.0000000E+00   1.8567714E-01  -1.4474362E-01   0.0000000E+00   1.8828245E-01  -1.4715433E-01   0.0000000E+00   1.8963972E-01  -6.8029918E-02   0.0000000E+00   1.4030221E-01  -6.5160222E-02   0.0000000E+00   1.4442162E-01  -6.9292240E-02   0.0000000E+00   1.4850470E-01  -8.0076918E-02   0.0000000E+00   1.5280248E-01  -9.4074152E-02   0.0000000E+00   1.5723000E-01  -1.0749043E-01   0.0000000E+00   1.6130745E-01  -1.1801335E-01   0.0000000E+00   1.6460828E-01  -1.2501197E-01   0.0000000E+00   1.6694309E-01  -1.2884726E-01   0.0000000E+00   1.6830342E-01  -6.2911421E-02   0.0000000E+00   1.3639711E-01  -5.5614837E-02   0.0000000E+00   1.3917071E-01  -5.1706728E-02   0.0000000E+00   1.4104316E-01  -5.5151206E-02   0.0000000E+00   1.4237896E-01  -6.4466529E-02   0.0000000E+00   1.4379156E-01  -7.6155715E-02   0.0000000E+00   1.4554721E-01  -8.7086782E-02   0.0000000E+00   1.4739968E-01  -9.5439233E-02   0.0000000E+00   1.4899854E-01  -1.0047941E-01   0.0000000E+00   1.5005350E-01  -5.0179619E-02   0.0000000E+00   1.3601175E-01  -4.9701437E-02   0.0000000E+00   1.3478328E-01  -4.1168593E-02   0.0000000E+00   1.3501175E-01  -3.5816029E-02   0.0000000E+00   1.3491949E-01  -3.7132863E-02   0.0000000E+00   1.3458622E-01  -4.3338038E-02   0.0000000E+00   1.3453615E-01  -5.1323675E-02   0.0000000E+00   1.3499026E-01  -5.8623645E-02   0.0000000E+00   1.3569225E-01  -6.3560806E-02   0.0000000E+00   1.3628207E-01  -1.7621944E-02   0.0000000E+00   1.3957891E-01  -3.3864018E-02   0.0000000E+00   1.3504006E-01  -3.4647603E-02   0.0000000E+00   1.3057205E-01  -2.5727239E-02   0.0000000E+00   1.2867285E-01  -1.7943520E-02   0.0000000E+00   1.2798747E-01  -1.5517658E-02   0.0000000E+00   1.2760964E-01  -1.7282225E-02   0.0000000E+00   1.2753303E-01  -2.0773502E-02   0.0000000E+00   1.2778232E-01  -2.3790350E-02   0.0000000E+00   1.2809400E-01   3.4618195E-02   0.0000000E+00   1.4415699E-01   5.3797280E-03   0.0000000E+00   1.3931461E-01  -1.1925228E-02   0.0000000E+00   1.3217320E-01  -1.5040040E-02   0.0000000E+00   1.2614788E-01  -8.3396491E-03   0.0000000E+00   1.2371852E-01   1.2374774E-03   0.0000000E+00   1.2374301E-01   7.6250224E-03   0.0000000E+00   1.2441545E-01   1.0373558E-02   0.0000000E+00   1.2513851E-01   1.0989903E-02   0.0000000E+00   1.2563504E-01   6.6927038E-02   0.0000000E+00   1.3588482E-01   5.0544009E-02   0.0000000E+00   1.3837126E-01   3.3785630E-02   0.0000000E+00   1.3678212E-01   2.2516066E-02   0.0000000E+00   1.3165222E-01   1.5932785E-02   0.0000000E+00   1.2678413E-01   1.4532335E-02   0.0000000E+00   1.2521897E-01   2.0139590E-02   0.0000000E+00   1.2576298E-01   2.6795728E-02   0.0000000E+00   1.2707227E-01   3.1194204E-02   0.0000000E+00   1.2800084E-01   5.5545382E-02   0.0000000E+00   1.2383740E-01   6.0276080E-02   0.0000000E+00   1.3141809E-01   6.0337767E-02   0.0000000E+00   1.3481909E-01   6.1324611E-02   0.0000000E+00   1.3545239E-01   6.3128531E-02   0.0000000E+00   1.3400307E-01   6.2893137E-02   0.0000000E+00   1.3300687E-01   6.5018110E-02   0.0000000E+00   1.3308731E-01   6.7993276E-02   0.0000000E+00   1.3369757E-01   4.9296085E-02   0.0000000E+00   1.2762402E-01   6.3670583E-02   0.0000000E+00   1.3740288E-01   7.0915699E-02   0.0000000E+00   1.4090078E-01   8.9761093E-02   0.0000000E+00   1.4039274E-01   1.1404576E-01   0.0000000E+00   1.3970122E-01   1.2938747E-01   0.0000000E+00   1.4047195E-01   2.5208859E-02   0.0000000E+00   1.4356010E-01   3.2729253E-02   0.0000000E+00   1.4687766E-01   4.9596664E-02   0.0000000E+00   1.4666107E-01   6.8350881E-02   0.0000000E+00   1.4713854E-01  -1.1732589E-02   0.0000000E+00   1.2484487E-04  -1.1738615E-02   0.0000000E+00   1.3140983E-04  -1.1754993E-02   0.0000000E+00   1.5090514E-04  -1.1776472E-02   0.0000000E+00   1.8268671E-04  -1.1793849E-02   0.0000000E+00   2.2548868E-04  -1.1793308E-02   0.0000000E+00   2.7705892E-04  -1.1755680E-02   0.0000000E+00   3.3356179E-04  -1.1655809E-02   0.0000000E+00   3.8885939E-04  -1.4123116E-02   0.0000000E+00   1.6992522E-04  -1.4132487E-02   0.0000000E+00   1.7883867E-04  -1.4158634E-02   0.0000000E+00   2.0530891E-04  -1.4195478E-02   0.0000000E+00   2.4845029E-04  -1.4232294E-02   0.0000000E+00   3.0651898E-04  -1.4252830E-02   0.0000000E+00   3.7640039E-04  -1.4234239E-02   0.0000000E+00   4.5283916E-04  -1.4146091E-02   0.0000000E+00   5.2758120E-04  -1.6342781E-02   0.0000000E+00   2.1186798E-04  -1.6356444E-02   0.0000000E+00   2.2302080E-04  -1.6395316E-02   0.0000000E+00   2.5613865E-04  -1.6452754E-02   0.0000000E+00   3.1009535E-04  -1.6516954E-02   0.0000000E+00   3.8267559E-04  -1.6569821E-02   0.0000000E+00   4.6993472E-04  -1.6585503E-02   0.0000000E+00   5.6528882E-04  -1.6528968E-02   0.0000000E+00   6.5862248E-04  -1.8660411E-02   0.0000000E+00   2.4809330E-04  -1.8679416E-02   0.0000000E+00   2.6127059E-04  -1.8734187E-02   0.0000000E+00   3.0038678E-04  -1.8817727E-02   0.0000000E+00   3.6407111E-04  -1.8917453E-02   0.0000000E+00   4.4964248E-04  -1.9013800E-02   0.0000000E+00   5.5240106E-04  -1.9078352E-02   0.0000000E+00   6.6462363E-04  -1.9071855E-02   0.0000000E+00   7.7475584E-04  -2.1336239E-02   0.0000000E+00   2.8024896E-04  -2.1361753E-02   0.0000000E+00   2.9529471E-04  -2.1435997E-02   0.0000000E+00   3.3992293E-04  -2.1551671E-02   0.0000000E+00   4.1247421E-04  -2.1695545E-02   0.0000000E+00   5.0975644E-04  -2.1846803E-02   0.0000000E+00   6.2632217E-04  -2.1974619E-02   0.0000000E+00   7.5346843E-04  -2.2035537E-02   0.0000000E+00   8.7868475E-04  -2.4573496E-02   0.0000000E+00   3.1436319E-04  -2.4606910E-02   0.0000000E+00   3.3133928E-04  -2.4704747E-02   0.0000000E+00   3.8162517E-04  -2.4859466E-02   0.0000000E+00   4.6315344E-04  -2.5057171E-02   0.0000000E+00   5.7205657E-04  -2.5275752E-02   0.0000000E+00   7.0196897E-04  -2.5481973E-02   0.0000000E+00   8.4317644E-04  -2.5628109E-02   0.0000000E+00   9.8247570E-04  -2.8502701E-02   0.0000000E+00   3.6007984E-04  -2.8545657E-02   0.0000000E+00   3.7941188E-04  -2.8672004E-02   0.0000000E+00   4.3655612E-04  -2.8873812E-02   0.0000000E+00   5.2882131E-04  -2.9136525E-02   0.0000000E+00   6.5131794E-04  -2.9436585E-02   0.0000000E+00   7.9632254E-04  -2.9738249E-02   0.0000000E+00   9.5272390E-04  -2.9989587E-02   0.0000000E+00   1.1065206E-03  -3.3198070E-02   0.0000000E+00   4.2942620E-04  -3.3252474E-02   0.0000000E+00   4.5203484E-04  -3.3413075E-02   0.0000000E+00   5.1868841E-04  -3.3671483E-02   0.0000000E+00   6.2574324E-04  -3.4012184E-02   0.0000000E+00   7.6673046E-04  -3.4410138E-02   0.0000000E+00   9.3185360E-04  -3.4827150E-02   0.0000000E+00   1.1078754E-03  -3.5207245E-02   0.0000000E+00   1.2797548E-03  -3.8721152E-02   0.0000000E+00   5.3537381E-04  -3.8789254E-02   0.0000000E+00   5.6279369E-04  -3.8990803E-02   0.0000000E+00   6.4343191E-04  -3.9316755E-02   0.0000000E+00   7.7227305E-04  -3.9750546E-02   0.0000000E+00   9.4057806E-04  -4.0265530E-02   0.0000000E+00   1.1356178E-03  -4.0821172E-02   0.0000000E+00   1.3413039E-03  -4.1358534E-02   0.0000000E+00   1.5418568E-03  -4.5165822E-02   0.0000000E+00   6.9033878E-04  -4.5250285E-02   0.0000000E+00   7.2483777E-04  -4.5500565E-02   0.0000000E+00   8.2613289E-04  -4.5906939E-02   0.0000000E+00   9.8742405E-04  -4.6451453E-02   0.0000000E+00   1.1970453E-03  -4.7105823E-02   0.0000000E+00   1.4386491E-03  -4.7827646E-02   0.0000000E+00   1.6931336E-03  -4.8556369E-02   0.0000000E+00   1.9456305E-03  -5.2645616E-02   0.0000000E+00   9.0457569E-04  -5.2749537E-02   0.0000000E+00   9.4926683E-04  -5.3057767E-02   0.0000000E+00   1.0804520E-03  -5.3559713E-02   0.0000000E+00   1.2892535E-03  -5.4235943E-02   0.0000000E+00   1.5606908E-03  -5.5056382E-02   0.0000000E+00   1.8745980E-03  -5.5977196E-02   0.0000000E+00   2.2096755E-03  -5.6937542E-02   0.0000000E+00   2.5550646E-03  -6.1277546E-02   0.0000000E+00   1.1845957E-03  -6.1404526E-02   0.0000000E+00   1.2435116E-03  -6.1781760E-02   0.0000000E+00   1.4166357E-03  -6.2397372E-02   0.0000000E+00   1.6929142E-03  -6.3230380E-02   0.0000000E+00   2.0540759E-03  -6.4248636E-02   0.0000000E+00   2.4765739E-03  -6.5407030E-02   0.0000000E+00   2.9384552E-03  -6.6645168E-02   0.0000000E+00   3.4363435E-03  -7.1184769E-02   0.0000000E+00   1.5321587E-03  -7.1339227E-02   0.0000000E+00   1.6102546E-03  -7.1798474E-02   0.0000000E+00   1.8401860E-03  -7.2549403E-02   0.0000000E+00   2.2088480E-03  -7.3568963E-02   0.0000000E+00   2.6950680E-03  -7.4822508E-02   0.0000000E+00   3.2726882E-03  -7.6262683E-02   0.0000000E+00   3.9205155E-03  -7.7828504E-02   0.0000000E+00   4.6444153E-03  -8.2496941E-02   0.0000000E+00   1.9444065E-03  -8.2684085E-02   0.0000000E+00   2.0474331E-03  -8.3240889E-02   0.0000000E+00   2.3515008E-03  -8.4152721E-02   0.0000000E+00   2.8417602E-03  -8.5393868E-02   0.0000000E+00   3.4946250E-03  -8.6926080E-02   0.0000000E+00   4.2818510E-03  -8.8697523E-02   0.0000000E+00   5.1830192E-03  -9.0642855E-02   0.0000000E+00   6.2112962E-03  -9.5348313E-02   0.0000000E+00   2.4157804E-03  -9.5574297E-02   0.0000000E+00   2.5500113E-03  -9.6246935E-02   0.0000000E+00   2.9471931E-03  -9.7349681E-02   0.0000000E+00   3.5911268E-03  -9.8853186E-02   0.0000000E+00   4.4561420E-03  -1.0071369E-01   0.0000000E+00   5.5116247E-03  -1.0287121E-01   0.0000000E+00   6.7356089E-03  -1.0524970E-01   0.0000000E+00   8.1422469E-03  -1.0987496E-01   0.0000000E+00   2.9425896E-03  -1.1014692E-01   0.0000000E+00   3.1143792E-03  -1.1095663E-01   0.0000000E+00   3.6239342E-03  -1.1228507E-01   0.0000000E+00   4.4541592E-03  -1.1409812E-01   0.0000000E+00   5.5773901E-03  -1.1634352E-01   0.0000000E+00   6.9593433E-03  -1.1894854E-01   0.0000000E+00   8.5721286E-03  -1.2181862E-01   0.0000000E+00   1.0421278E-02  -1.2621202E-01   0.0000000E+00   3.5313349E-03  -1.2653811E-01   0.0000000E+00   3.7464101E-03  -1.2750927E-01   0.0000000E+00   4.3857894E-03  -1.2910327E-01   0.0000000E+00   5.4320837E-03  -1.3127953E-01   0.0000000E+00   6.8556401E-03  -1.3397452E-01   0.0000000E+00   8.6167976E-03  -1.3709757E-01   0.0000000E+00   1.0676714E-02  -1.4052780E-01   0.0000000E+00   1.3022036E-02  -1.4449205E-01   0.0000000E+00   4.2118924E-03  -1.4488146E-01   0.0000000E+00   4.4743139E-03  -1.4604136E-01   0.0000000E+00   5.2561406E-03  -1.4794533E-01   0.0000000E+00   6.5405881E-03  -1.5054473E-01   0.0000000E+00   8.2965838E-03  -1.5376276E-01   0.0000000E+00   1.0478198E-02  -1.5748622E-01   0.0000000E+00   1.3031933E-02  -1.6156067E-01   0.0000000E+00   1.5917612E-02  -1.6484538E-01   0.0000000E+00   5.0562331E-03  -1.6530779E-01   0.0000000E+00   5.3670211E-03  -1.6668545E-01   0.0000000E+00   6.2950104E-03  -1.6894720E-01   0.0000000E+00   7.8255665E-03  -1.7203556E-01   0.0000000E+00   9.9279890E-03  -1.7585774E-01   0.0000000E+00   1.2551383E-02  -1.8027593E-01   0.0000000E+00   1.5627092E-02  -1.8509720E-01   0.0000000E+00   1.9085001E-02  -1.8740609E-01   0.0000000E+00   6.2025152E-03  -1.8795122E-01   0.0000000E+00   6.5580159E-03  -1.8957576E-01   0.0000000E+00   7.6220916E-03  -1.9224359E-01   0.0000000E+00   9.3846498E-03  -1.9588792E-01   0.0000000E+00   1.1818890E-02  -2.0040032E-01   0.0000000E+00   1.4873059E-02  -2.0561577E-01   0.0000000E+00   1.8467227E-02  -2.1130253E-01   0.0000000E+00   2.2505483E-02  -2.1232134E-01   0.0000000E+00   7.8828270E-03  -2.1295786E-01   0.0000000E+00   8.2729952E-03  -2.1485479E-01   0.0000000E+00   9.4441455E-03  -2.1797238E-01   0.0000000E+00   1.1393847E-02  -2.2223507E-01   0.0000000E+00   1.4104067E-02  -2.2751902E-01   0.0000000E+00   1.7528921E-02  -2.3363496E-01   0.0000000E+00   2.1586338E-02  -2.4031274E-01   0.0000000E+00   2.6167659E-02  -2.3975085E-01   0.0000000E+00   1.0450182E-02  -2.4048454E-01   0.0000000E+00   1.0857205E-02  -2.4267262E-01   0.0000000E+00   1.2083147E-02  -2.4627165E-01   0.0000000E+00   1.4136362E-02  -2.5119981E-01   0.0000000E+00   1.7012844E-02  -2.5732094E-01   0.0000000E+00   2.0680910E-02  -2.6442444E-01   0.0000000E+00   2.5070101E-02  -2.7220961E-01   0.0000000E+00   3.0081604E-02  -2.6981628E-01   0.0000000E+00   1.4397450E-02  -2.7064958E-01   0.0000000E+00   1.4795224E-02  -2.7313459E-01   0.0000000E+00   1.5998391E-02  -2.7722672E-01   0.0000000E+00   1.8028263E-02  -2.8283918E-01   0.0000000E+00   2.0899029E-02  -2.8982773E-01   0.0000000E+00   2.4600934E-02  -2.9796886E-01   0.0000000E+00   2.9091129E-02  -3.0694187E-01   0.0000000E+00   3.4311291E-02  -3.0243236E-01   0.0000000E+00   2.0358946E-02  -3.0336070E-01   0.0000000E+00   2.0713869E-02  -3.0613104E-01   0.0000000E+00   2.1793403E-02  -3.1069675E-01   0.0000000E+00   2.3632074E-02  -3.1696910E-01   0.0000000E+00   2.6263490E-02  -3.2480037E-01   0.0000000E+00   2.9704068E-02  -3.3396441E-01   0.0000000E+00   3.3952150E-02  -3.4413865E-01   0.0000000E+00   3.9024863E-02  -3.3696243E-01   0.0000000E+00   2.9087519E-02  -3.3797458E-01   0.0000000E+00   2.9360920E-02  -3.4099549E-01   0.0000000E+00   3.0199600E-02  -3.4597650E-01   0.0000000E+00   3.1648625E-02  -3.5282767E-01   0.0000000E+00   3.3757322E-02  -3.6140266E-01   0.0000000E+00   3.6565613E-02  -3.7148452E-01   0.0000000E+00   4.0120564E-02  -3.8277164E-01   0.0000000E+00   4.4549324E-02  -3.7176275E-01   0.0000000E+00   4.1403379E-02  -3.7283930E-01   0.0000000E+00   4.1554812E-02  -3.7605178E-01   0.0000000E+00   4.2029332E-02  -3.8134748E-01   0.0000000E+00   4.2876117E-02  -3.8863319E-01   0.0000000E+00   4.4149954E-02  -3.9776808E-01   0.0000000E+00   4.5904022E-02  -4.0855575E-01   0.0000000E+00   4.8233829E-02  -4.2074209E-01   0.0000000E+00   5.1408373E-02  -4.0380952E-01   0.0000000E+00   5.8112577E-02  -4.0492287E-01   0.0000000E+00   5.8103535E-02  -4.0824285E-01   0.0000000E+00   5.8095399E-02  -4.1370851E-01   0.0000000E+00   5.8131717E-02  -4.2122185E-01   0.0000000E+00   5.8257256E-02  -4.3064797E-01   0.0000000E+00   5.8522061E-02  -4.4182181E-01   0.0000000E+00   5.9065059E-02  -4.5456028E-01   0.0000000E+00   6.0328692E-02  -4.2861363E-01   0.0000000E+00   7.9926580E-02  -4.2972949E-01   0.0000000E+00   7.9723187E-02  -4.3304974E-01   0.0000000E+00   7.9127133E-02  -4.3850178E-01   0.0000000E+00   7.8165174E-02  -4.4597569E-01   0.0000000E+00   7.6853961E-02  -4.5534360E-01   0.0000000E+00   7.5224355E-02  -4.6647877E-01   0.0000000E+00   7.3461421E-02  -4.7928259E-01   0.0000000E+00   7.2223976E-02  -4.4046918E-01   0.0000000E+00   1.0744528E-01  -4.4154549E-01   0.0000000E+00   1.0701874E-01  -4.4473979E-01   0.0000000E+00   1.0574540E-01  -4.4995737E-01   0.0000000E+00   1.0362576E-01  -4.5707136E-01   0.0000000E+00   1.0063490E-01  -4.6595466E-01   0.0000000E+00   9.6779972E-02  -4.7651768E-01   0.0000000E+00   9.2321776E-02  -4.8874155E-01   0.0000000E+00   8.8194922E-02  -4.3194199E-01   0.0000000E+00   1.4120868E-01  -4.3293327E-01   0.0000000E+00   1.4053597E-01  -4.3586078E-01   0.0000000E+00   1.3851619E-01  -4.4060454E-01   0.0000000E+00   1.3512102E-01  -4.4700918E-01   0.0000000E+00   1.3028350E-01  -4.5493758E-01   0.0000000E+00   1.2400486E-01  -4.6431991E-01   0.0000000E+00   1.1667403E-01  -4.7519192E-01   0.0000000E+00   1.0953438E-01  -3.9190525E-01   0.0000000E+00   1.8174230E-01  -3.9276260E-01   0.0000000E+00   1.8081357E-01  -3.9527845E-01   0.0000000E+00   1.7801963E-01  -3.9930600E-01   0.0000000E+00   1.7330982E-01  -4.0465841E-01   0.0000000E+00   1.6658658E-01  -4.1117039E-01   0.0000000E+00   1.5787596E-01  -4.1875124E-01   0.0000000E+00   1.4772354E-01  -4.2743567E-01   0.0000000E+00   1.3761014E-01  -3.0512729E-01   0.0000000E+00   2.2946161E-01  -3.0579311E-01   0.0000000E+00   2.2828981E-01  -3.0772874E-01   0.0000000E+00   2.2476552E-01  -3.1076878E-01   0.0000000E+00   2.1882483E-01  -3.1469521E-01   0.0000000E+00   2.1034807E-01  -3.1929430E-01   0.0000000E+00   1.9939150E-01  -3.2440719E-01   0.0000000E+00   1.8659145E-01  -3.2997805E-01   0.0000000E+00   1.7346500E-01  -1.5655826E-01   0.0000000E+00   2.8434569E-01  -1.5695788E-01   0.0000000E+00   2.8297359E-01  -1.5809335E-01   0.0000000E+00   2.7884936E-01  -1.5979059E-01   0.0000000E+00   2.7189457E-01  -1.6180763E-01   0.0000000E+00   2.6195407E-01  -1.6387689E-01   0.0000000E+00   2.4904440E-01  -1.6573600E-01   0.0000000E+00   2.3369850E-01  -1.6714814E-01   0.0000000E+00   2.1718156E-01   6.0067054E-02   0.0000000E+00   3.4538281E-01   6.0036425E-02   0.0000000E+00   3.4387770E-01   6.0002420E-02   0.0000000E+00   3.3935067E-01   6.0128134E-02   0.0000000E+00   3.3169088E-01   6.0654245E-02   0.0000000E+00   3.2064563E-01   6.1880287E-02   0.0000000E+00   3.0603325E-01   6.4163379E-02   0.0000000E+00   2.8800255E-01   6.7948483E-02   0.0000000E+00   2.6725656E-01   3.3223921E-01   0.0000000E+00   4.0997952E-01   3.3271369E-01   0.0000000E+00   4.0840861E-01   3.3417848E-01   0.0000000E+00   4.0367639E-01   3.3674663E-01   0.0000000E+00   3.9561421E-01   3.4059662E-01   0.0000000E+00   3.8377616E-01   3.4598261E-01   0.0000000E+00   3.6756289E-01   3.5327861E-01   0.0000000E+00   3.4643584E-01   3.6304674E-01   0.0000000E+00   3.2028371E-01   6.2241018E-01   0.0000000E+00   4.7389817E-01   6.2353975E-01   0.0000000E+00   4.7229230E-01   6.2693554E-01   0.0000000E+00   4.6744892E-01   6.3261580E-01   0.0000000E+00   4.5912045E-01   6.4061904E-01   0.0000000E+00   4.4658640E-01   6.5103734E-01   0.0000000E+00   4.2865622E-01   6.6409409E-01   0.0000000E+00   4.0387684E-01   6.8023962E-01   0.0000000E+00   3.7118068E-01   8.7257308E-01   0.0000000E+00   5.3218770E-01   8.7445462E-01   0.0000000E+00   5.3051317E-01   8.8006651E-01   0.0000000E+00   5.2545565E-01   8.8931006E-01   0.0000000E+00   5.1668757E-01   9.0204436E-01   0.0000000E+00   5.0319153E-01   9.1811579E-01   0.0000000E+00   4.8314431E-01   9.3741953E-01   0.0000000E+00   4.5416063E-01   9.5997608E-01   0.0000000E+00   4.1429114E-01   1.0297198E+00   0.0000000E+00   5.8033442E-01   1.0323037E+00   0.0000000E+00   5.7850116E-01   1.0399855E+00   0.0000000E+00   5.7296675E-01   1.0525615E+00   0.0000000E+00   5.6334203E-01   1.0697194E+00   0.0000000E+00   5.4836637E-01   1.0910492E+00   0.0000000E+00   5.2569395E-01   1.1160421E+00   0.0000000E+00   4.9221498E-01   1.1440761E+00   0.0000000E+00   4.4541574E-01   1.0808599E+00   0.0000000E+00   6.1560512E-01   1.0839372E+00   0.0000000E+00   6.1352098E-01   1.0930690E+00   0.0000000E+00   6.0724533E-01   1.1079749E+00   0.0000000E+00   5.9637576E-01   1.1282071E+00   0.0000000E+00   5.7951206E-01   1.1531311E+00   0.0000000E+00   5.5399615E-01   1.1818547E+00   0.0000000E+00   5.1631373E-01   1.2131106E+00   0.0000000E+00   4.6377102E-01   1.0529534E+00   0.0000000E+00   6.3731295E-01   1.0562483E+00   0.0000000E+00   6.3493359E-01   1.0660256E+00   0.0000000E+00   6.2780201E-01   1.0819579E+00   0.0000000E+00   6.1555409E-01   1.1035230E+00   0.0000000E+00   5.9677988E-01   1.1299525E+00   0.0000000E+00   5.6873250E-01   1.1600912E+00   0.0000000E+00   5.2780074E-01   1.1922104E+00   0.0000000E+00   4.7140217E-01   9.8539531E-01   0.0000000E+00   6.4623839E-01   9.8866504E-01   0.0000000E+00   6.4359105E-01   9.9836463E-01   0.0000000E+00   6.3569361E-01   1.0141721E+00   0.0000000E+00   6.2226677E-01   1.0355618E+00   0.0000000E+00   6.0199147E-01   1.0617409E+00   0.0000000E+00   5.7221258E-01   1.0914805E+00   0.0000000E+00   5.2943170E-01   1.1228647E+00   0.0000000E+00   4.7132173E-01   9.0637618E-01   0.0000000E+00   6.4390582E-01   9.0945476E-01   0.0000000E+00   6.4107901E-01   9.1859537E-01   0.0000000E+00   6.3268441E-01   9.3351895E-01   0.0000000E+00   6.1854631E-01   9.5376176E-01   0.0000000E+00   5.9749430E-01   9.7861695E-01   0.0000000E+00   5.6705254E-01   1.0069472E+00   0.0000000E+00   5.2393532E-01   1.0369155E+00   0.0000000E+00   4.6608377E-01   8.2344091E-01   0.0000000E+00   6.3197297E-01   8.2624918E-01   0.0000000E+00   6.2909168E-01   8.3460039E-01   0.0000000E+00   6.2056762E-01   8.4827822E-01   0.0000000E+00   6.0632116E-01   8.6692971E-01   0.0000000E+00   5.8533394E-01   8.9000392E-01   0.0000000E+00   5.5532229E-01   9.1657823E-01   0.0000000E+00   5.1321113E-01   9.4509774E-01   0.0000000E+00   4.5714918E-01   7.2819769E-01   0.0000000E+00   6.1195612E-01   7.3071039E-01   0.0000000E+00   6.0914665E-01   7.3819643E-01   0.0000000E+00   6.0086083E-01   7.5051087E-01   0.0000000E+00   5.8709532E-01   7.6742566E-01   0.0000000E+00   5.6694937E-01   7.8858662E-01   0.0000000E+00   5.3829128E-01   8.1336170E-01   0.0000000E+00   4.9820882E-01   8.4061617E-01   0.0000000E+00   4.4497350E-01   6.0925579E-01   0.0000000E+00   5.8523196E-01   6.1145294E-01   0.0000000E+00   5.8259714E-01   6.1801624E-01   0.0000000E+00   5.7485026E-01   6.2887025E-01   0.0000000E+00   5.6203508E-01   6.4391488E-01   0.0000000E+00   5.4332548E-01   6.6300315E-01   0.0000000E+00   5.1668179E-01   6.8584204E-01   0.0000000E+00   4.7930145E-01   7.1180809E-01   0.0000000E+00   4.2951173E-01   4.6538121E-01   0.0000000E+00   5.5315530E-01   4.6722007E-01   0.0000000E+00   5.5076969E-01   4.7272944E-01   0.0000000E+00   5.4377395E-01   4.8190141E-01   0.0000000E+00   5.3223234E-01   4.9475363E-01   0.0000000E+00   5.1534551E-01   5.1134372E-01   0.0000000E+00   4.9111959E-01   5.3173321E-01   0.0000000E+00   4.5682281E-01   5.5586088E-01   0.0000000E+00   4.1080225E-01   3.1067851E-01   0.0000000E+00   5.1715231E-01   3.1210062E-01   0.0000000E+00   5.1506680E-01   3.1637838E-01   0.0000000E+00   5.0896341E-01   3.2356152E-01   0.0000000E+00   4.9889180E-01   3.3377036E-01   0.0000000E+00   4.8404577E-01   3.4724465E-01   0.0000000E+00   4.6244702E-01   3.6437556E-01   0.0000000E+00   4.3141311E-01   3.8564834E-01   0.0000000E+00   3.8929662E-01   1.6664878E-01   0.0000000E+00   4.7869161E-01   1.6763192E-01   0.0000000E+00   4.7694302E-01   1.7060922E-01   0.0000000E+00   4.7182328E-01   1.7567594E-01   0.0000000E+00   4.6332943E-01   1.8303451E-01   0.0000000E+00   4.5062146E-01   1.9306786E-01   0.0000000E+00   4.3171832E-01   2.0642672E-01   0.0000000E+00   4.0398273E-01   2.2404094E-01   0.0000000E+00   3.6577630E-01   4.9543861E-02   0.0000000E+00   4.3924811E-01   5.0133232E-02   0.0000000E+00   4.3785676E-01   5.1942959E-02   0.0000000E+00   4.3376702E-01   5.5107735E-02   0.0000000E+00   4.2688358E-01   5.9893835E-02   0.0000000E+00   4.1630238E-01   6.6784255E-02   0.0000000E+00   4.0003452E-01   7.6599665E-02   0.0000000E+00   3.7549639E-01   9.0562932E-02   0.0000000E+00   3.4107611E-01  -3.5135448E-02   0.0000000E+00   4.0021405E-01  -3.4847103E-02   0.0000000E+00   3.9918244E-01  -3.3925787E-02   0.0000000E+00   3.9611062E-01  -3.2194715E-02   0.0000000E+00   3.9077792E-01  -2.9327432E-02   0.0000000E+00   3.8218686E-01  -2.4769571E-02   0.0000000E+00   3.6834621E-01  -1.7611142E-02   0.0000000E+00   3.4675747E-01  -6.4832638E-03   0.0000000E+00   3.1587362E-01  -9.0751581E-02   0.0000000E+00   3.6274084E-01  -9.0656392E-02   0.0000000E+00   3.6204335E-01  -9.0295829E-02   0.0000000E+00   3.5990447E-01  -8.9441285E-02   0.0000000E+00   3.5594884E-01  -8.7692857E-02   0.0000000E+00   3.4906575E-01  -8.4426813E-02   0.0000000E+00   3.3729041E-01  -7.8694120E-02   0.0000000E+00   3.1826985E-01  -6.9093563E-02   0.0000000E+00   2.9058468E-01  -1.2489674E-01   0.0000000E+00   3.2761836E-01  -1.2489417E-01   0.0000000E+00   3.2719803E-01  -1.2479061E-01   0.0000000E+00   3.2581666E-01  -1.2429506E-01   0.0000000E+00   3.2293767E-01  -1.2291392E-01   0.0000000E+00   3.1734517E-01  -1.1993429E-01   0.0000000E+00   3.0715498E-01  -1.1437494E-01   0.0000000E+00   2.9024950E-01  -1.0487320E-01   0.0000000E+00   2.6542899E-01  -1.4502324E-01   0.0000000E+00   2.9523867E-01  -1.4503190E-01   0.0000000E+00   2.9500708E-01  -1.4493793E-01   0.0000000E+00   2.9412180E-01  -1.4438051E-01   0.0000000E+00   2.9191098E-01  -1.4275891E-01   0.0000000E+00   2.8710669E-01  -1.3924588E-01   0.0000000E+00   2.7798274E-01  -1.3280232E-01   0.0000000E+00   2.6277393E-01  -1.2214857E-01   0.0000000E+00   2.4060413E-01  -1.5600277E-01   0.0000000E+00   2.6561821E-01  -1.5595745E-01   0.0000000E+00   2.6546362E-01  -1.5567546E-01   0.0000000E+00   2.6476124E-01  -1.5472002E-01   0.0000000E+00   2.6276788E-01  -1.5237279E-01   0.0000000E+00   2.5826561E-01  -1.4767769E-01   0.0000000E+00   2.4979264E-01  -1.3954102E-01   0.0000000E+00   2.3603298E-01  -1.2684821E-01   0.0000000E+00   2.1652898E-01  -1.5993740E-01   0.0000000E+00   2.3847336E-01  -1.5977584E-01   0.0000000E+00   2.3828299E-01  -1.5911365E-01   0.0000000E+00   2.3746562E-01  -1.5742199E-01   0.0000000E+00   2.3531426E-01  -1.5385345E-01   0.0000000E+00   2.3079738E-01  -1.4735800E-01   0.0000000E+00   2.2282176E-01  -1.3688844E-01   0.0000000E+00   2.1056515E-01  -1.2190913E-01   0.0000000E+00   1.9409052E-01  -1.5734614E-01   0.0000000E+00   2.1337748E-01  -1.5697847E-01   0.0000000E+00   2.1307525E-01  -1.5565389E-01   0.0000000E+00   2.1196721E-01  -1.5273871E-01   0.0000000E+00   2.0950677E-01  -1.4729959E-01   0.0000000E+00   2.0497079E-01  -1.3832542E-01   0.0000000E+00   1.9769542E-01  -1.2514539E-01   0.0000000E+00   1.8735838E-01  -1.0883807E-01   0.0000000E+00   1.7462113E-01  -1.4787576E-01   0.0000000E+00   1.9005296E-01  -1.4715450E-01   0.0000000E+00   1.8963970E-01  -1.4474362E-01   0.0000000E+00   1.8828250E-01  -1.3997686E-01   0.0000000E+00   1.8567722E-01  -1.3198487E-01   0.0000000E+00   1.8146668E-01  -1.2013488E-01   0.0000000E+00   1.7542978E-01  -1.0513072E-01   0.0000000E+00   1.6775540E-01  -8.9950509E-02   0.0000000E+00   1.5932292E-01  -1.3005233E-01   0.0000000E+00   1.6874777E-01  -1.2884727E-01   0.0000000E+00   1.6830346E-01  -1.2501198E-01   0.0000000E+00   1.6694316E-01  -1.1801334E-01   0.0000000E+00   1.6460833E-01  -1.0749043E-01   0.0000000E+00   1.6130748E-01  -9.4074138E-02   0.0000000E+00   1.5722990E-01  -8.0076851E-02   0.0000000E+00   1.5280242E-01  -6.9292232E-02   0.0000000E+00   1.4850469E-01  -1.0214978E-01   0.0000000E+00   1.5041934E-01  -1.0047935E-01   0.0000000E+00   1.5005341E-01  -9.5439225E-02   0.0000000E+00   1.4899853E-01  -8.7086760E-02   0.0000000E+00   1.4739968E-01  -7.6155737E-02   0.0000000E+00   1.4554720E-01  -6.4466536E-02   0.0000000E+00   1.4379159E-01  -5.5151187E-02   0.0000000E+00   1.4237899E-01  -5.1706731E-02   0.0000000E+00   1.4104311E-01  -6.5291651E-02   0.0000000E+00   1.3650657E-01  -6.3560776E-02   0.0000000E+00   1.3628207E-01  -5.8623724E-02   0.0000000E+00   1.3569228E-01  -5.1323708E-02   0.0000000E+00   1.3499020E-01  -4.3338045E-02   0.0000000E+00   1.3453621E-01  -3.7132856E-02   0.0000000E+00   1.3458620E-01  -3.5816032E-02   0.0000000E+00   1.3491946E-01  -4.1168645E-02   0.0000000E+00   1.3501167E-01  -2.4928687E-02   0.0000000E+00   1.2822500E-01  -2.3790358E-02   0.0000000E+00   1.2809397E-01  -2.0773521E-02   0.0000000E+00   1.2778224E-01  -1.7282255E-02   0.0000000E+00   1.2753303E-01  -1.5517659E-02   0.0000000E+00   1.2760963E-01  -1.7943531E-02   0.0000000E+00   1.2798753E-01  -2.5727255E-02   0.0000000E+00   1.2867285E-01  -3.4647528E-02   0.0000000E+00   1.3057207E-01   1.1037790E-02   0.0000000E+00   1.2580834E-01   1.0989903E-02   0.0000000E+00   1.2563504E-01   1.0373538E-02   0.0000000E+00   1.2513848E-01   7.6250131E-03   0.0000000E+00   1.2441548E-01   1.2374872E-03   0.0000000E+00   1.2374304E-01  -8.3396025E-03   0.0000000E+00   1.2371852E-01  -1.5040033E-02   0.0000000E+00   1.2614790E-01  -1.1925251E-02   0.0000000E+00   1.3217328E-01   3.2773279E-02   0.0000000E+00   1.2831536E-01   3.1194193E-02   0.0000000E+00   1.2800087E-01   2.6795721E-02   0.0000000E+00   1.2707227E-01   2.0139556E-02   0.0000000E+00   1.2576298E-01   1.4532276E-02   0.0000000E+00   1.2521897E-01   1.5932685E-02   0.0000000E+00   1.2678415E-01   2.2516087E-02   0.0000000E+00   1.3165213E-01   3.3785619E-02   0.0000000E+00   1.3678211E-01   6.9192722E-02   0.0000000E+00   1.3399374E-01   6.7993343E-02   0.0000000E+00   1.3369760E-01   6.5017961E-02   0.0000000E+00   1.3308729E-01   6.2893309E-02   0.0000000E+00   1.3300683E-01   6.3128479E-02   0.0000000E+00   1.3400295E-01   6.1324563E-02   0.0000000E+00   1.3545239E-01   6.0337804E-02   0.0000000E+00   1.3481916E-01   6.0275961E-02   0.0000000E+00   1.3141806E-01   1.3426624E-01   0.0000000E+00   1.4090282E-01   1.2938723E-01   0.0000000E+00   1.4047188E-01   1.1404587E-01   0.0000000E+00   1.3970119E-01   8.9760877E-02   0.0000000E+00   1.4039277E-01   7.0915617E-02   0.0000000E+00   1.4090082E-01   6.3670613E-02   0.0000000E+00   1.3740285E-01   4.9295958E-02   0.0000000E+00   1.2762395E-01   7.4692287E-02   0.0000000E+00   1.4763661E-01   6.8350881E-02   0.0000000E+00   1.4713858E-01   4.9596641E-02   0.0000000E+00   1.4666104E-01   3.2729309E-02   0.0000000E+00   1.4687772E-01   2.5208790E-02   0.0000000E+00   1.4356004E-01  -1.1462374E-02   0.0000000E+00   4.3288100E-04  -1.1137245E-02   0.0000000E+00   4.4830467E-04  -1.0632221E-02   0.0000000E+00   4.0830998E-04  -9.8928381E-03   0.0000000E+00   2.8685064E-04  -8.8753039E-03   0.0000000E+00   7.5133634E-05  -7.5727412E-03   0.0000000E+00  -2.0324450E-04  -6.0451068E-03   0.0000000E+00  -4.8202067E-04  -1.3950273E-02   0.0000000E+00   5.8793649E-04  -1.3599858E-02   0.0000000E+00   6.1121129E-04  -1.3033800E-02   0.0000000E+00   5.6142092E-04  -1.2181014E-02   0.0000000E+00   4.0327918E-04  -1.0981940E-02   0.0000000E+00   1.2354710E-04  -9.4224289E-03   0.0000000E+00  -2.4934200E-04  -7.5721079E-03   0.0000000E+00  -6.3174346E-04  -5.6037516E-03   0.0000000E+00  -8.9571456E-04  -1.6355477E-02   0.0000000E+00   7.3542586E-04  -1.6009120E-02   0.0000000E+00   7.6868298E-04  -1.5414696E-02   0.0000000E+00   7.1355078E-04  -1.4481004E-02   0.0000000E+00   5.2476558E-04  -1.3126885E-02   0.0000000E+00   1.8312785E-04  -1.1323590E-02   0.0000000E+00  -2.8004061E-04  -9.1439309E-03   0.0000000E+00  -7.6622906E-04  -6.7943381E-03   0.0000000E+00  -1.1246338E-03  -1.8942717E-02   0.0000000E+00   8.6743955E-04  -1.8624997E-02   0.0000000E+00   9.1309269E-04  -1.8027114E-02   0.0000000E+00   8.5864199E-04  -1.7033201E-02   0.0000000E+00   6.4784370E-04  -1.5533306E-02   0.0000000E+00   2.5330792E-04  -1.3476452E-02   0.0000000E+00  -2.9347325E-04  -1.0936227E-02   0.0000000E+00  -8.8076817E-04  -8.1585590E-03   0.0000000E+00  -1.3309229E-03  -2.1970954E-02   0.0000000E+00   9.8651508E-04  -2.1703240E-02   0.0000000E+00   1.0465998E-03  -2.1121670E-02   0.0000000E+00   9.9829340E-04  -2.0080086E-02   0.0000000E+00   7.7336957E-04  -1.8432641E-02   0.0000000E+00   3.3415551E-04  -1.6105581E-02   0.0000000E+00  -2.9034115E-04  -1.3170602E-02   0.0000000E+00  -9.7682024E-04  -9.9061150E-03   0.0000000E+00  -1.5184268E-03  -2.5648488E-02   0.0000000E+00   1.1049155E-03  -2.5452888E-02   0.0000000E+00   1.1802203E-03  -2.4907822E-02   0.0000000E+00   1.1411420E-03  -2.3836024E-02   0.0000000E+00   9.0745714E-04  -2.2070300E-02   0.0000000E+00   4.2935839E-04  -1.9514220E-02   0.0000000E+00  -2.7108617E-04  -1.6211821E-02   0.0000000E+00  -1.0618230E-03  -1.2434328E-02   0.0000000E+00  -1.7013447E-03  -3.0117970E-02   0.0000000E+00   1.2439030E-03  -3.0021332E-02   0.0000000E+00   1.3351029E-03  -2.9545683E-02   0.0000000E+00   1.3083206E-03  -2.8510120E-02   0.0000000E+00   1.0719101E-03  -2.6748508E-02   0.0000000E+00   5.5756094E-04  -2.4133578E-02   0.0000000E+00  -2.2760307E-04  -2.0635016E-02   0.0000000E+00  -1.1438334E-03  -1.6393332E-02   0.0000000E+00  -1.9001465E-03  -3.5472069E-02   0.0000000E+00   1.4358577E-03  -3.5510074E-02   0.0000000E+00   1.5496502E-03  -3.5173487E-02   0.0000000E+00   1.5471121E-03  -3.4315638E-02   0.0000000E+00   1.3193181E-03  -3.2801408E-02   0.0000000E+00   7.6538610E-04  -3.0480230E-02   0.0000000E+00  -1.3301382E-04  -2.7181765E-02   0.0000000E+00  -1.2258328E-03  -2.2708479E-02   0.0000000E+00  -2.1362619E-03  -4.1795325E-02   0.0000000E+00   1.7304795E-03  -4.2021304E-02   0.0000000E+00   1.8896263E-03  -4.1927371E-02   0.0000000E+00   1.9413675E-03  -4.1439474E-02   0.0000000E+00   1.7441117E-03  -4.0498041E-02   0.0000000E+00   1.1414929E-03  -3.8976271E-02   0.0000000E+00   7.1546063E-05  -3.6537066E-02   0.0000000E+00  -1.2955430E-03  -3.2407425E-02   0.0000000E+00  -2.4351426E-03  -4.9208783E-02   0.0000000E+00   2.1992100E-03  -4.9689293E-02   0.0000000E+00   2.4510010E-03  -4.9945932E-02   0.0000000E+00   2.6114115E-03  -4.9998797E-02   0.0000000E+00   2.4861966E-03  -4.9906984E-02   0.0000000E+00   1.8319318E-03  -4.9646214E-02   0.0000000E+00   5.0117681E-04  -4.8794661E-02   0.0000000E+00  -1.3223713E-03  -4.5916028E-02   0.0000000E+00  -2.9013294E-03  -5.7856821E-02   0.0000000E+00   2.9300023E-03  -5.8658350E-02   0.0000000E+00   3.3485712E-03  -5.9340615E-02   0.0000000E+00   3.7009609E-03  -6.0003225E-02   0.0000000E+00   3.7237857E-03  -6.0821157E-02   0.0000000E+00   3.0364399E-03  -6.1908878E-02   0.0000000E+00   1.3248072E-03  -6.2885284E-02   0.0000000E+00  -1.2777430E-03  -6.1823972E-02   0.0000000E+00  -3.7394583E-03  -6.7886360E-02   0.0000000E+00   4.0102541E-03  -6.9065139E-02   0.0000000E+00   4.6900408E-03  -7.0199296E-02   0.0000000E+00   5.3427014E-03  -7.1413964E-02   0.0000000E+00   5.6295795E-03  -7.2924443E-02   0.0000000E+00   4.9935975E-03  -7.4898735E-02   0.0000000E+00   2.8873899E-03  -7.6965638E-02   0.0000000E+00  -5.8625569E-04  -7.6645091E-02   0.0000000E+00  -3.3070766E-03  -7.9445869E-02   0.0000000E+00   5.5051786E-03  -8.1046142E-02   0.0000000E+00   6.5440191E-03  -8.2626425E-02   0.0000000E+00   7.6102540E-03  -8.4270716E-02   0.0000000E+00   8.3124414E-03  -8.6135872E-02   0.0000000E+00   7.9728607E-03  -8.8319853E-02   0.0000000E+00   6.0645384E-03  -9.0406932E-02   0.0000000E+00   3.4637402E-03  -8.9934826E-02   0.0000000E+00   4.3736873E-03  -9.2685252E-02   0.0000000E+00   7.4421936E-03  -9.4741829E-02   0.0000000E+00   8.9189326E-03  -9.6759334E-02   0.0000000E+00   1.0482782E-02  -9.8738544E-02   0.0000000E+00   1.1744806E-02  -1.0072503E-01   0.0000000E+00   1.2043547E-02  -1.0271724E-01   0.0000000E+00   1.1156395E-02  -1.0433110E-01   0.0000000E+00   1.1112513E-02  -1.0378376E-01   0.0000000E+00   1.5611961E-02  -1.0776000E-01   0.0000000E+00   9.8101608E-03  -1.1029819E-01   0.0000000E+00   1.1769343E-02  -1.1275298E-01   0.0000000E+00   1.3853246E-02  -1.1503665E-01   0.0000000E+00   1.5715478E-02  -1.1709207E-01   0.0000000E+00   1.6845079E-02  -1.1884528E-01   0.0000000E+00   1.7278612E-02  -1.2001492E-01   0.0000000E+00   1.9440081E-02  -1.1957159E-01   0.0000000E+00   2.5090430E-02  -1.2483985E-01   0.0000000E+00   1.2573295E-02  -1.2787811E-01   0.0000000E+00   1.5028747E-02  -1.3077159E-01   0.0000000E+00   1.7598396E-02  -1.3336474E-01   0.0000000E+00   1.9980583E-02  -1.3553885E-01   0.0000000E+00   2.1795133E-02  -1.3719596E-01   0.0000000E+00   2.3216778E-02  -1.3817251E-01   0.0000000E+00   2.6335336E-02  -1.3797644E-01   0.0000000E+00   3.1794254E-02  -1.4411440E-01   0.0000000E+00   1.5691813E-02  -1.4767894E-01   0.0000000E+00   1.8644871E-02  -1.5101381E-01   0.0000000E+00   2.1651212E-02  -1.5391983E-01   0.0000000E+00   2.4418382E-02  -1.5625772E-01   0.0000000E+00   2.6642425E-02  -1.5795286E-01   0.0000000E+00   2.8476695E-02  -1.5895480E-01   0.0000000E+00   3.1629931E-02  -1.5911685E-01   0.0000000E+00   3.6536470E-02  -1.6578931E-01   0.0000000E+00   1.9135019E-02  -1.6993722E-01   0.0000000E+00   2.2590779E-02  -1.7374296E-01   0.0000000E+00   2.6007701E-02  -1.7697233E-01   0.0000000E+00   2.9075051E-02  -1.7948438E-01   0.0000000E+00   3.1494331E-02  -1.8124779E-01   0.0000000E+00   3.3279285E-02  -1.8231769E-01   0.0000000E+00   3.6031451E-02  -1.8277486E-01   0.0000000E+00   4.0320139E-02  -1.9007273E-01   0.0000000E+00   2.2880509E-02  -1.9490358E-01   0.0000000E+00   2.6861632E-02  -1.9926684E-01   0.0000000E+00   3.0699905E-02  -2.0288649E-01   0.0000000E+00   3.4057949E-02  -2.0561355E-01   0.0000000E+00   3.6605090E-02  -2.0744909E-01   0.0000000E+00   3.8163435E-02  -2.0851988E-01   0.0000000E+00   4.0334899E-02  -2.0902681E-01   0.0000000E+00   4.4092216E-02  -2.1715707E-01   0.0000000E+00   2.6903389E-02  -2.2281390E-01   0.0000000E+00   3.1451050E-02  -2.2788246E-01   0.0000000E+00   3.5761364E-02  -2.3203877E-01   0.0000000E+00   3.9462309E-02  -2.3511799E-01   0.0000000E+00   4.2187519E-02  -2.3713621E-01   0.0000000E+00   4.3560725E-02  -2.3825626E-01   0.0000000E+00   4.5183044E-02  -2.3872882E-01   0.0000000E+00   4.8429880E-02  -2.4719772E-01   0.0000000E+00   3.1165514E-02  -2.5385973E-01   0.0000000E+00   3.6323059E-02  -2.5983855E-01   0.0000000E+00   4.1187067E-02  -2.6475248E-01   0.0000000E+00   4.5335904E-02  -2.6840892E-01   0.0000000E+00   4.8358232E-02  -2.7082607E-01   0.0000000E+00   4.9715221E-02  -2.7219293E-01   0.0000000E+00   5.0896723E-02  -2.7279663E-01   0.0000000E+00   5.3556237E-02  -2.8027818E-01   0.0000000E+00   3.5616931E-02  -2.8814617E-01   0.0000000E+00   4.1397844E-02  -2.9528734E-01   0.0000000E+00   4.6901852E-02  -3.0125302E-01   0.0000000E+00   5.1633563E-02  -3.0580184E-01   0.0000000E+00   5.5121258E-02  -3.0893105E-01   0.0000000E+00   5.6707643E-02  -3.1083646E-01   0.0000000E+00   5.7697870E-02  -3.1183121E-01   0.0000000E+00   5.9648428E-02  -3.1632340E-01   0.0000000E+00   4.0219836E-02  -3.2559603E-01   0.0000000E+00   4.6563521E-02  -3.3418152E-01   0.0000000E+00   5.2756414E-02  -3.4155822E-01   0.0000000E+00   5.8193803E-02  -3.4740856E-01   0.0000000E+00   6.2303826E-02  -3.5167420E-01   0.0000000E+00   6.4412422E-02  -3.5452837E-01   0.0000000E+00   6.5695271E-02  -3.5629079E-01   0.0000000E+00   6.6943422E-02  -3.5490179E-01   0.0000000E+00   4.5001455E-02  -3.6573949E-01   0.0000000E+00   5.1725280E-02  -3.7604812E-01   0.0000000E+00   5.8568127E-02  -3.8523173E-01   0.0000000E+00   6.4766496E-02  -3.9286822E-01   0.0000000E+00   6.9570191E-02  -3.9880344E-01   0.0000000E+00   7.2420619E-02  -4.0314537E-01   0.0000000E+00   7.4782588E-02  -4.0618953E-01   0.0000000E+00   7.5659171E-02  -3.9488345E-01   0.0000000E+00   5.0128378E-02  -4.0735915E-01   0.0000000E+00   5.6894537E-02  -4.1960979E-01   0.0000000E+00   6.4217329E-02  -4.3097007E-01   0.0000000E+00   7.1106471E-02  -4.4088951E-01   0.0000000E+00   7.6475509E-02  -4.4907853E-01   0.0000000E+00   8.0042392E-02  -4.5553499E-01   0.0000000E+00   8.4531464E-02  -4.6048006E-01   0.0000000E+00   8.5740857E-02  -4.3403119E-01   0.0000000E+00   5.5984344E-02  -4.4807494E-01   0.0000000E+00   6.2307253E-02  -4.6234149E-01   0.0000000E+00   6.9802351E-02  -4.7611031E-01   0.0000000E+00   7.7158101E-02  -4.8869142E-01   0.0000000E+00   8.2684256E-02  -4.9963629E-01   0.0000000E+00   8.6413868E-02  -5.0878930E-01   0.0000000E+00   9.4063543E-02  -5.1623136E-01   0.0000000E+00   9.6857712E-02  -4.6869001E-01   0.0000000E+00   6.3234709E-02  -4.8402393E-01   0.0000000E+00   6.8556085E-02  -5.0012308E-01   0.0000000E+00   7.5835750E-02  -5.1623529E-01   0.0000000E+00   8.3329216E-02  -5.3154719E-01   0.0000000E+00   8.8359490E-02  -5.4545456E-01   0.0000000E+00   9.0978205E-02  -5.5762148E-01   0.0000000E+00   1.0236537E-01  -5.6791276E-01   0.0000000E+00   1.0849310E-01  -4.9372241E-01   0.0000000E+00   7.2876811E-02  -5.0978982E-01   0.0000000E+00   7.6696075E-02  -5.2716184E-01   0.0000000E+00   8.3374709E-02  -5.4508853E-01   0.0000000E+00   9.0636358E-02  -5.6268001E-01   0.0000000E+00   9.4376385E-02  -5.7921159E-01   0.0000000E+00   9.4083779E-02  -5.9417063E-01   0.0000000E+00   1.0851552E-01  -6.0715503E-01   0.0000000E+00   1.1983274E-01  -5.0272512E-01   0.0000000E+00   8.6234309E-02  -5.1862603E-01   0.0000000E+00   8.8199943E-02  -5.3623772E-01   0.0000000E+00   9.3925700E-02  -5.5484074E-01   0.0000000E+00   1.0058706E-01  -5.7350302E-01   0.0000000E+00   1.0211548E-01  -5.9145451E-01   0.0000000E+00   9.6984059E-02  -6.0809177E-01   0.0000000E+00   1.1254877E-01  -6.2280101E-01   0.0000000E+00   1.3027686E-01  -4.8774347E-01   0.0000000E+00   1.0481513E-01  -5.0223511E-01   0.0000000E+00   1.0465474E-01  -5.1848954E-01   0.0000000E+00   1.0899621E-01  -5.3575975E-01   0.0000000E+00   1.1445809E-01  -5.5315709E-01   0.0000000E+00   1.1316136E-01  -5.7006878E-01   0.0000000E+00   1.0199415E-01  -5.8602375E-01   0.0000000E+00   1.1626501E-01  -6.0039860E-01   0.0000000E+00   1.4052717E-01  -4.3741584E-01   0.0000000E+00   1.2998353E-01  -4.4887561E-01   0.0000000E+00   1.2720786E-01  -4.6146137E-01   0.0000000E+00   1.2931082E-01  -4.7439873E-01   0.0000000E+00   1.3259490E-01  -4.8710868E-01   0.0000000E+00   1.2781425E-01  -4.9943990E-01   0.0000000E+00   1.1176182E-01  -5.1127714E-01   0.0000000E+00   1.2481539E-01  -5.2218312E-01   0.0000000E+00   1.5363838E-01  -3.3603457E-01   0.0000000E+00   1.6244984E-01  -3.4243360E-01   0.0000000E+00   1.5601254E-01  -3.4853888E-01   0.0000000E+00   1.5421525E-01  -3.5374469E-01   0.0000000E+00   1.5347190E-01  -3.5807994E-01   0.0000000E+00   1.4533743E-01  -3.6207724E-01   0.0000000E+00   1.2722680E-01  -3.6609611E-01   0.0000000E+00   1.4400096E-01  -3.6991158E-01   0.0000000E+00   1.7840056E-01  -1.6780967E-01   0.0000000E+00   2.0170724E-01  -1.6709772E-01   0.0000000E+00   1.8980856E-01  -1.6419895E-01   0.0000000E+00   1.8167897E-01  -1.5892832E-01   0.0000000E+00   1.7409319E-01  -1.5207943E-01   0.0000000E+00   1.6357581E-01  -1.4489225E-01   0.0000000E+00   1.5465975E-01  -1.3814272E-01   0.0000000E+00   1.7436393E-01  -1.3177383E-01   0.0000000E+00   2.2292748E-01   7.3905990E-02   0.0000000E+00   2.4563670E-01   8.3058938E-02   0.0000000E+00   2.2588331E-01   9.6171826E-02   0.0000000E+00   2.0898190E-01   1.1289892E-01   0.0000000E+00   1.9455762E-01   1.3180126E-01   0.0000000E+00   1.8836851E-01   1.5116976E-01   0.0000000E+00   1.8872957E-01   1.6991995E-01   0.0000000E+00   1.9233082E-01   1.8777716E-01   0.0000000E+00   2.8155330E-01   3.7615973E-01   0.0000000E+00   2.9051736E-01   3.9372295E-01   0.0000000E+00   2.6050434E-01   4.1618744E-01   0.0000000E+00   2.3331867E-01   4.4278926E-01   0.0000000E+00   2.1398102E-01   4.7188178E-01   0.0000000E+00   2.1463785E-01   5.0169867E-01   0.0000000E+00   2.0705368E-01   5.3088659E-01   0.0000000E+00   1.8550849E-01   5.5824655E-01   0.0000000E+00   3.2348761E-01   7.0020664E-01   0.0000000E+00   3.3161405E-01   7.2472221E-01   0.0000000E+00   2.8980416E-01   7.5362426E-01   0.0000000E+00   2.5240642E-01   7.8585118E-01   0.0000000E+00   2.2950147E-01   8.2003605E-01   0.0000000E+00   2.3036852E-01   8.5475850E-01   0.0000000E+00   2.1459001E-01   8.8833183E-01   0.0000000E+00   1.7688251E-01   9.1819805E-01   0.0000000E+00   3.2897785E-01   9.8592049E-01   0.0000000E+00   3.6442819E-01   1.0150967E+00   0.0000000E+00   3.1086692E-01   1.0463996E+00   0.0000000E+00   2.6423642E-01   1.0783266E+00   0.0000000E+00   2.3771995E-01   1.1097975E+00   0.0000000E+00   2.3363151E-01   1.1400251E+00   0.0000000E+00   2.0110376E-01   1.1675992E+00   0.0000000E+00   1.6529456E-01   1.1902345E+00   0.0000000E+00   3.4200507E-01   1.1743215E+00   0.0000000E+00   3.8635007E-01   1.2054269E+00   0.0000000E+00   3.2246315E-01   1.2352490E+00   0.0000000E+00   2.6546362E-01   1.2617397E+00   0.0000000E+00   2.2808507E-01   1.2839164E+00   0.0000000E+00   2.0931764E-01   1.3018076E+00   0.0000000E+00   1.6264294E-01   1.3156353E+00   0.0000000E+00   1.4359671E-01   1.3256402E+00   0.0000000E+00   3.6665940E-01   1.2451103E+00   0.0000000E+00   3.9788219E-01   1.2754049E+00   0.0000000E+00   3.2714501E-01   1.3010770E+00   0.0000000E+00   2.6369917E-01   1.3197849E+00   0.0000000E+00   2.1882524E-01   1.3308101E+00   0.0000000E+00   1.8927053E-01   1.3351279E+00   0.0000000E+00   1.3634157E-01   1.3346885E+00   0.0000000E+00   1.3257159E-01   1.3320153E+00   0.0000000E+00   3.9870152E-01   1.2238309E+00   0.0000000E+00   4.0164286E-01   1.2517368E+00   0.0000000E+00   3.2785463E-01   1.2726197E+00   0.0000000E+00   2.6227030E-01   1.2841679E+00   0.0000000E+00   2.1514615E-01   1.2860506E+00   0.0000000E+00   1.8190297E-01   1.2799621E+00   0.0000000E+00   1.2800163E-01   1.2688903E+00   0.0000000E+00   1.3803308E-01   1.2565022E+00   0.0000000E+00   4.3258363E-01   1.1530899E+00   0.0000000E+00   4.0051988E-01   1.1785817E+00   0.0000000E+00   3.2687336E-01   1.1958843E+00   0.0000000E+00   2.6242608E-01   1.2028596E+00   0.0000000E+00   2.1719274E-01   1.1995077E+00   0.0000000E+00   1.8616965E-01   1.1878973E+00   0.0000000E+00   1.3590978E-01   1.1713279E+00   0.0000000E+00   1.5468676E-01   1.1535608E+00   0.0000000E+00   4.5996359E-01   1.0657699E+00   0.0000000E+00   3.9648318E-01   1.0899293E+00   0.0000000E+00   3.2514709E-01   1.1059209E+00   0.0000000E+00   2.6376927E-01   1.1116832E+00   0.0000000E+00   2.2267774E-01   1.1073543E+00   0.0000000E+00   1.9739255E-01   1.0950652E+00   0.0000000E+00   1.5326203E-01   1.0779654E+00   0.0000000E+00   1.7324792E-01   1.0593538E+00   0.0000000E+00   4.7557995E-01   9.7314864E-01   0.0000000E+00   3.9025667E-01   9.9743837E-01   0.0000000E+00   3.2241014E-01   1.0145589E+00   0.0000000E+00   2.6483497E-01   1.0223483E+00   0.0000000E+00   2.2796194E-01   1.0207924E+00   0.0000000E+00   2.0791337E-01   1.0117933E+00   0.0000000E+00   1.6828810E-01   9.9811500E-01   0.0000000E+00   1.8577246E-01   9.8247635E-01   0.0000000E+00   4.7635436E-01   8.6846399E-01   0.0000000E+00   3.8165897E-01   8.9411253E-01   0.0000000E+00   3.1778985E-01   9.1433507E-01   0.0000000E+00   2.6406986E-01   9.2675710E-01   0.0000000E+00   2.3062544E-01   9.3089455E-01   0.0000000E+00   2.1404919E-01   9.2809701E-01   0.0000000E+00   1.7699181E-01   9.2056072E-01   0.0000000E+00   1.9059318E-01   9.1045439E-01   0.0000000E+00   4.6582490E-01   7.3967940E-01   0.0000000E+00   3.7021905E-01   7.6733536E-01   0.0000000E+00   3.1046483E-01   7.9188299E-01   0.0000000E+00   2.6040784E-01   8.1070226E-01   0.0000000E+00   2.2958012E-01   8.2260108E-01   0.0000000E+00   2.1460761E-01   8.2801616E-01   0.0000000E+00   1.7944731E-01   8.2832569E-01   0.0000000E+00   1.9000944E-01   8.2516515E-01   0.0000000E+00   4.4759077E-01   5.8328092E-01   0.0000000E+00   3.5573277E-01   6.1273688E-01   0.0000000E+00   3.0009830E-01   6.4190400E-01   0.0000000E+00   2.5348580E-01   6.6800362E-01   0.0000000E+00   2.2424504E-01   6.8893874E-01   0.0000000E+00   2.0965029E-01   7.0386952E-01   0.0000000E+00   1.7652495E-01   7.1309227E-01   0.0000000E+00   1.8651706E-01   7.1772492E-01   0.0000000E+00   4.2347044E-01   4.1141525E-01   0.0000000E+00   3.3851683E-01   4.4143426E-01   0.0000000E+00   2.8696230E-01   4.7427338E-01   0.0000000E+00   2.4359229E-01   5.0730890E-01   0.0000000E+00   2.1489097E-01   5.3750336E-01   0.0000000E+00   1.9948867E-01   5.6243002E-01   0.0000000E+00   1.6974227E-01   5.8110815E-01   0.0000000E+00   1.7965765E-01   5.9407127E-01   0.0000000E+00   3.9496961E-01   2.4695894E-01   0.0000000E+00   3.1926173E-01   2.7592453E-01   0.0000000E+00   2.7173021E-01   3.1052995E-01   0.0000000E+00   2.3150231E-01   3.4861633E-01   0.0000000E+00   2.0392135E-01   3.8663086E-01   0.0000000E+00   1.8605521E-01   4.2081177E-01   0.0000000E+00   1.6050401E-01   4.4879702E-01   0.0000000E+00   1.7009652E-01   4.7028160E-01   0.0000000E+00   3.6143842E-01   1.1022826E-01   0.0000000E+00   2.9870752E-01   1.3713884E-01   0.0000000E+00   2.5509864E-01   1.7177291E-01   0.0000000E+00   2.1789929E-01   2.1251997E-01   0.0000000E+00   1.9268972E-01   2.5582013E-01   0.0000000E+00   1.7406158E-01   2.9740968E-01   0.0000000E+00   1.4785087E-01   3.3381620E-01   0.0000000E+00   1.5752944E-01   3.6340475E-01   0.0000000E+00   3.2159311E-01   1.0469701E-02   0.0000000E+00   2.7743474E-01   3.5336517E-02   0.0000000E+00   2.3758586E-01   6.9155194E-02   0.0000000E+00   2.0336071E-01   1.1065833E-01   0.0000000E+00   1.8056676E-01   1.5669256E-01   0.0000000E+00   1.6378489E-01   2.0330453E-01   0.0000000E+00   1.3503560E-01   2.4640544E-01   0.0000000E+00   1.3977188E-01   2.8244838E-01   0.0000000E+00   2.8333187E-01  -5.3652965E-02   0.0000000E+00   2.5582781E-01  -3.0085953E-02   0.0000000E+00   2.1964478E-01   2.5698920E-03   0.0000000E+00   1.8866482E-01   4.3271434E-02   0.0000000E+00   1.6786730E-01   8.9718610E-02   0.0000000E+00   1.5397701E-01   1.3890180E-01   0.0000000E+00   1.2511978E-01   1.8671998E-01   0.0000000E+00   1.1786214E-01   2.2666095E-01   0.0000000E+00   2.4841481E-01  -8.9531884E-02   0.0000000E+00   2.3420426E-01  -6.6542670E-02   0.0000000E+00   2.0191653E-01  -3.5606351E-02   0.0000000E+00   1.7482919E-01   2.5964612E-03   0.0000000E+00   1.5674558E-01   4.7126841E-02   0.0000000E+00   1.4475861E-01   9.6323274E-02   0.0000000E+00   1.1549304E-01   1.4711125E-01   0.0000000E+00   9.9659719E-02   1.9047438E-01   0.0000000E+00   2.1555661E-01  -1.0582142E-01   0.0000000E+00   2.1305245E-01  -8.3357438E-02   0.0000000E+00   1.8530080E-01  -5.5301320E-02   0.0000000E+00   1.6280885E-01  -2.1675872E-02   0.0000000E+00   1.4820251E-01   1.8317426E-02   0.0000000E+00   1.3761851E-01   6.4991005E-02   0.0000000E+00   1.0815035E-01   1.1857925E-01   0.0000000E+00   9.0451285E-02   1.7354918E-01   0.0000000E+00   1.7378442E-01  -1.0927267E-01   0.0000000E+00   1.9315657E-01  -8.8294551E-02   0.0000000E+00   1.7072631E-01  -6.5002225E-02   0.0000000E+00   1.5341903E-01  -3.8223069E-02   0.0000000E+00   1.4271848E-01  -5.1146420E-03   0.0000000E+00   1.3449380E-01   3.8588524E-02   0.0000000E+00   1.0809988E-01   9.8567173E-02   0.0000000E+00   9.2312030E-02   1.7881769E-01   0.0000000E+00   1.2499829E-01  -1.0410485E-01   0.0000000E+00   1.7563735E-01  -8.6497627E-02   0.0000000E+00   1.5899566E-01  -7.0003137E-02   0.0000000E+00   1.4687985E-01  -5.1718425E-02   0.0000000E+00   1.3984697E-01  -2.6402017E-02   0.0000000E+00   1.3195913E-01   1.5741277E-02   0.0000000E+00   1.0711231E-01   8.6115718E-02   0.0000000E+00   9.4601400E-02   1.9436051E-01   0.0000000E+00   9.9272758E-02  -9.2942476E-02   0.0000000E+00   1.6153096E-01  -8.0934212E-02   0.0000000E+00   1.5045418E-01  -7.2596475E-02   0.0000000E+00   1.4271787E-01  -6.2776223E-02   0.0000000E+00   1.3755713E-01  -4.2992234E-02   0.0000000E+00   1.2674171E-01  -6.8779808E-04   0.0000000E+00   9.9182501E-02   8.2757398E-02   0.0000000E+00   9.2872977E-02  -7.8735337E-02   0.0000000E+00   1.5133567E-01  -7.4044250E-02   0.0000000E+00   1.4468727E-01  -7.3593788E-02   0.0000000E+00   1.3933727E-01  -6.9033071E-02   0.0000000E+00   1.3326822E-01  -4.9495831E-02   0.0000000E+00   1.1692918E-01  -1.4334342E-03   0.0000000E+00   9.3425125E-02   8.8021405E-02   0.0000000E+00   9.0932429E-02  -6.5160260E-02   0.0000000E+00   1.4442155E-01  -6.8029933E-02   0.0000000E+00   1.4030221E-01  -7.2094150E-02   0.0000000E+00   1.3579232E-01  -6.5135032E-02   0.0000000E+00   1.2894818E-01  -3.9650183E-02   0.0000000E+00   1.0892160E-01   1.8740566E-02   0.0000000E+00   9.7601794E-02  -5.5614855E-02   0.0000000E+00   1.3917062E-01  -6.2911414E-02   0.0000000E+00   1.3639699E-01  -6.2405523E-02   0.0000000E+00   1.3386057E-01  -4.4740479E-02   0.0000000E+00   1.2632696E-01  -5.8060298E-03   0.0000000E+00   1.1434428E-01   5.2426137E-02   0.0000000E+00   1.0387136E-01  -4.9701426E-02   0.0000000E+00   1.3478333E-01  -5.0179508E-02   0.0000000E+00   1.3601179E-01  -3.5117574E-02   0.0000000E+00   1.3597758E-01  -2.9146299E-03   0.0000000E+00   1.2984432E-01   4.1503515E-02   0.0000000E+00   1.2251889E-01  -3.3864066E-02   0.0000000E+00   1.3504004E-01  -1.7622158E-02   0.0000000E+00   1.3957886E-01   1.6483044E-02   0.0000000E+00   1.4210777E-01   5.1619913E-02   0.0000000E+00   1.3492417E-01   5.3797639E-03   0.0000000E+00   1.3931462E-01   3.4618266E-02   0.0000000E+00   1.4415693E-01   7.2227091E-02   0.0000000E+00   1.4641328E-01   7.1087092E-02   0.0000000E+00   1.1626907E-01   5.0543845E-02   0.0000000E+00   1.3837127E-01   6.6926874E-02   0.0000000E+00   1.3588487E-01   5.5545244E-02   0.0000000E+00   1.2383736E-01 
Force 3 2975 float
0.0 0.0 0.0 0.0 0.0 0.0 0.0 0.0 0.0 0.0 0.0 0.0 0.0 0.0 0.0 0.0 0.0 0.0 0.0 0.0 0.0 0.0 0.0 0.0 0.0 0.0 0.0 0.0 0.0 0.0 0.0 0.0 0.0 0.0 0.0 0.0 0.0 0.0 0.0 0.0 0.0 0.0 0.0 0.0 0.0 0.0 0.0 0.0 0.0 0.0 0.0 0.0 0.0 0.0 0.0 0.0 0.0 0.0 0.0 0.0 0.0 0.0 0.0 0.0 0.0 0.0 0.0 0.0 0.0 0.0 0.0 0.0 0.0 0.0 0.0 0.0 0.0 0.0 0.0 0.0 0.0 0.0 0.0 0.0 0.0 0.0 0.0 0.0 0.0 0.0 0.0 0.0 0.0 0.0 0.0 0.0 0.0 0.0 0.0 0.0 0.0 0.0 0.0 0.0 0.0 0.0 0.0 0.0 0.0 0.0 0.0 0.0 0.0 0.0 0.0 0.0 0.0 0.0 0.0 0.0 0.0 0.0 0.0 0.0 0.0 0.0 0.0 0.0 0.0 0.0 0.0 0.0 0.0 0.0 0.0 0.0 0.0 0.0 0.0 0.0 0.0 0.0 0.0 0.0 0.0 0.0 0.0 0.0 0.0 0.0 0.0 0.0 0.0 0.0 0.0 0.0 0.0 0.0 0.0 0.0 0.0 0.0 0.0 0.0 0.0 0.0 0.0 0.0 0.0 0.0 0.0 0.0 0.0 0.0 0.0 0.0 0.0 0.0 0.0 0.0 0.0 0.0 0.0 0.0 0.0 0.0 0.0 0.0 0.0 0.0 0.0 0.0 0.0 0.0 0.0 0.0 0.0 0.0 0.0 0.0 0.0 0.0 0.0 0.0 0.0 0.0 0.0 0.0 0.0 0.0 0.0 0.0 0.0 0.0 0.0 0.0 0.0 0.0 0.0 0.0 0.0 0.0 0.0 0.0 0.0 0.0 0.0 0.0 0.0 0.0 0.0 0.0 0.0 0.0 0.0 0.0 0.0 0.0 0.0 0.0 0.0 0.0 0.0 0.0 0.0 0.0 0.0 0.0 0.0 0.0 0.0 0.0 0.0 0.0 0.0 0.0 0.0 0.0 0.0 0.0 0.0 0.0 0.0 0.0 0.0 0.0 0.0 0.0 0.0 0.0 0.0 0.0 0.0 0.0 0.0 0.0 0.0 0.0 0.0 0.0 0.0 0.0 0.0 0.0 0.0 0.0 0.0 0.0 0.0 0.0 0.0 0.0 0.0 0.0 0.0 0.0 0.0 0.0 0.0 0.0 0.0 0.0 0.0 0.0 0.0 0.0 0.0 0.0 0.0 0.0 0.0 0.0 0.0 0.0 0.0 0.0 0.0 0.0 0.0 0.0 0.0 0.0 0.0 0.0 0.0 0.0 0.0 0.0 0.0 0.0 0.0 0.0 0.0 0.0 0.0 0.0 0.0 0.0 0.0 0.0 0.0 0.0 0.0 0.0 0.0 0.0 0.0 0.0 0.0 0.0 0.0 0.0 0.0 0.0 0.0 0.0 0.0 0.0 0.0 0.0 0.0 0.0 0.0 0.0 0.0 0.0 0.0 0.0 0.0 0.0 0.0 0.0 0.0 0.0 0.0 0.0 0.0 0.0 0.0 0.0 0.0 0.0 0.0 0.0 0.0 0.0 0.0 0.0 0.0 0.0 0.0 0.0 0.0 0.0 0.0 0.0 0.0 0.0 0.0 0.0 0.0 0.0 0.0 0.0 0.0 0.0 0.0 0.0 0.0 0.0 0.0 0.0 0.0 0.0 0.0 0.0 0.0 0.0 0.0 0.0 0.0 0.0 0.0 0.0 0.0 0.0 0.0 0.0 0.0 0.0 0.0 0.0 0.0 0.0 0.0 0.0 0.0 0.0 0.0 0.0 0.0 0.0 0.0 0.0 0.0 0.0 0.0 0.0 0.0 0.0 0.0 0.0 0.0 0.0 0.0 0.0 0.0 0.0 0.0 0.0 0.0 0.0 0.0 0.0 0.0 0.0 0.0 0.0 0.0 0.0 0.0 0.0 0.0 0.0 0.0 0.0 0.0 0.0 0.0 0.0 0.0 0.0 0.0 0.0 0.0 0.0 0.0 0.0 0.0 0.0 0.0 0.0 0.0 0.0 0.0 0.0 0.0 0.0 0.0 0.0 0.0 0.0 0.0 0.0 0.0 0.0 0.0 0.0 0.0 0.0 0.0 0.0 0.0 0.0 0.0 0.0 0.0 0.0 0.0 0.0 0.0 0.0 0.0 0.0 0.0 0.0 0.0 0.0 0.0 0.0 0.0 0.0 0.0 0.0 0.0 0.0 0.0 0.0 0.0 0.0 0.0 0.0 0.0 0.0 0.0 0.0 0.0 0.0 0.0 0.0 0.0 0.0 0.0 0.0 0.0 0.0 0.0 0.0 0.0 0.0 0.0 0.0 0.0 0.0 0.0 0.0 0.0 0.0 0.0 0.0 0.0 0.0 0.0 0.0 0.0 0.0 0.0 0.0 0.0 0.0 0.0 0.0 0.0 0.0 0.0 0.0 0.0 0.0 0.0 0.0 0.0 0.0 0.0 0.0 0.0 0.0 0.0 0.0 0.0 0.0 0.0 0.0 0.0 0.0 0.0 0.0 0.0 0.0 0.0 0.0 0.0 0.0 0.0 0.0 0.0 0.0 0.0 0.0 0.0 0.0 0.0 0.0 0.0 0.0 0.0 0.0 0.0 0.0 0.0 0.0 0.0 0.0 0.0 0.0 0.0 0.0 0.0 0.0 0.0 0.0 0.0 0.0 0.0 0.0 0.0 0.0 0.0 0.0 0.0 0.0 0.0 0.0 0.0 0.0 0.0 0.0 0.0 0.0 0.0 0.0 0.0 0.0 0.0 0.0 0.0 0.0 0.0 0.0 0.0 0.0 0.0 0.0 0.0 0.0 0.0 0.0 0.0 0.0 0.0 0.0 0.0 0.0 0.0 0.0 0.0 0.0 0.0 0.0 0.0 0.0 0.0 0.0 0.0 0.0 0.0 0.0 0.0 0.0 0.0 0.0 0.0 0.0 0.0 0.0 0.0 0.0 0.0 0.0 0.0 0.0 0.0 0.0 0.0 0.0 0.0 0.0 0.0 0.0 0.0 0.0 0.0 0.0 0.0 0.0 0.0 0.0 0.0 0.0 0.0 0.0 0.0 0.0 0.0 0.0 0.0 0.0 0.0 0.0 0.0 0.0 0.0 0.0 0.0 0.0 0.0 0.0 0.0 0.0 0.0 0.0 0.0 0.0 0.0 0.0 0.0 0.0 0.0 0.0 0.0 0.0 0.0 0.0 0.0 0.0 0.0 0.0 0.0 0.0 0.0 0.0 0.0 0.0 0.0 0.0 0.0 0.0 0.0 0.0 0.0 0.0 0.0 0.0 0.0 0.0 0.0 0.0 0.0 0.0 0.0 0.0 0.0 0.0 0.0 0.0 0.0 0.0 0.0 0.0 0.0 0.0 0.0 0.0 0.0 0.0 0.0 0.0 0.0 0.0 0.0 0.0 0.0 0.0 0.0 0.0 0.0 0.0 0.0 0.0 0.0 0.0 0.0 0.0 0.0 0.0 0.0 0.0 0.0 0.0 0.0 0.0 0.0 0.0 0.0 0.0 0.0 0.0 0.0 0.0 0.0 0.0 0.0 0.0 0.0 0.0 0.0 0.0 0.0 0.0 0.0 0.0 0.0 0.0 0.0 0.0 0.0 0.0 0.0 0.0 0.0 0.0 0.0 0.0 0.0 0.0 0.0 0.0 0.0 0.0 0.0 0.0 0.0 0.0 0.0 0.0 0.0 0.0 0.0 0.0 0.0 0.0 0.0 0.0 0.0 0.0 0.0 0.0 0.0 0.0 0.0 0.0 0.0 0.0 0.0 0.0 0.0 0.0 0.0 0.0 0.0 0.0 0.0 0.0 0.0 0.0 0.0 0.0 0.0 0.0 0.0 0.0 0.0 0.0 0.0 0.0 0.0 0.0 0.0 0.0 0.0 0.0 0.0 0.0 0.0 0.0 0.0 0.0 0.0 0.0 0.0 0.0 0.0 0.0 0.0 0.0 0.0 0.0 0.0 0.0 0.0 0.0 0.0 0.0 0.0 0.0 0.0 0.0 0.0 0.0 0.0 0.0 0.0 0.0 0.0 0.0 0.0 0.0 0.0 0.0 0.0 0.0 0.0 0.0 0.0 0.0 0.0 0.0 0.0 0.0 0.0 0.0 0.0 0.0 0.0 0.0 0.0 0.0 0.0 0.0 0.0 0.0 0.0 0.0 0.0 0.0 0.0 0.0 0.0 0.0 0.0 0.0 0.0 0.0 0.0 0.0 0.0 0.0 0.0 0.0 0.0 0.0 0.0 0.0 0.0 0.0 0.0 0.0 0.0 0.0 0.0 0.0 0.0 0.0 0.0 0.0 0.0 0.0 0.0 0.0 0.0 0.0 0.0 0.0 0.0 0.0 0.0 0.0 0.0 0.0 0.0 0.0 0.0 0.0 0.0 0.0 0.0 0.0 0.0 0.0 0.0 0.0 0.0 0.0 0.0 0.0 0.0 0.0 0.0 0.0 0.0 0.0 0.0 0.0 0.0 0.0 0.0 0.0 0.0 0.0 0.0 0.0 0.0 0.0 0.0 0.0 0.0 0.0 0.0 0.0 0.0 0.0 0.0 0.0 0.0 0.0 0.0 0.0 0.0 0.0 0.0 0.0 0.0 0.0 0.0 0.0 0.0 0.0 0.0 0.0 0.0 0.0 0.0 0.0 0.0 0.0 0.0 0.0 0.0 0.0 0.0 0.0 0.0 0.0 0.0 0.0 0.0 0.0 0.0 0.0 0.0 0.0 0.0 0.0 0.0 0.0 0.0 0.0 0.0 0.0 0.0 0.0 0.0 0.0 0.0 0.0 0.0 0.0 0.0 0.0 0.0 0.0 0.0 0.0 0.0 0.0 0.0 0.0 0.0 0.0 0.0 0.0 0.0 0.0 0.0 0.0 0.0 0.0 0.0 0.0 0.0 0.0 0.0 0.0 0.0 0.0 0.0 0.0 0.0 0.0 0.0 0.0 0.0 0.0 0.0 0.0 0.0 0.0 0.0 0.0 0.0 0.0 0.0 0.0 0.0 0.0 0.0 0.0 0.0 0.0 0.0 0.0 0.0 0.0 0.0 0.0 0.0 0.0 0.0 0.0 0.0 0.0 0.0 0.0 0.0 0.0 0.0 0.0 0.0 0.0 0.0 0.0 0.0 0.0 0.0 0.0 0.0 0.0 0.0 0.0 0.0 0.0 0.0 0.0 0.0 0.0 0.0 0.0 0.0 0.0 0.0 0.0 0.0 0.0 0.0 0.0 0.0 0.0 0.0 0.0 0.0 0.0 0.0 0.0 0.0 0.0 0.0 0.0 0.0 0.0 0.0 0.0 0.0 0.0 0.0 0.0 0.0 0.0 0.0 0.0 0.0 0.0 0.0 0.0 0.0 0.0 0.0 0.0 0.0 0.0 0.0 0.0 0.0 0.0 0.0 0.0 0.0 0.0 0.0 0.0 0.0 0.0 0.0 0.0 0.0 0.0 0.0 0.0 0.0 0.0 0.0 0.0 0.0 0.0 0.0 0.0 0.0 0.0 0.0 0.0 0.0 0.0 0.0 0.0 0.0 0.0 0.0 0.0 0.0 0.0 0.0 0.0 0.0 0.0 0.0 0.0 0.0 0.0 0.0 0.0 0.0 0.0 0.0 0.0 0.0 0.0 0.0 0.0 0.0 0.0 0.0 0.0 0.0 0.0 0.0 0.0 0.0 0.0 0.0 0.0 0.0 0.0 0.0 0.0 0.0 0.0 0.0 0.0 0.0 0.0 0.0 0.0 0.0 0.0 0.0 0.0 0.0 0.0 0.0 0.0 0.0 0.0 0.0 0.0 0.0 0.0 0.0 0.0 0.0 0.0 0.0 0.0 0.0 0.0 0.0 0.0 0.0 0.0 0.0 0.0 0.0 0.0 0.0 0.0 0.0 0.0 0.0 0.0 0.0 0.0 0.0 0.0 0.0 0.0 0.0 0.0 0.0 0.0 0.0 0.0 0.0 0.0 0.0 0.0 0.0 0.0 0.0 0.0 0.0 0.0 0.0 0.0 0.0 0.0 0.0 0.0 0.0 0.0 0.0 0.0 0.0 0.0 0.0 0.0 0.0 0.0 0.0 0.0 0.0 0.0 0.0 0.0 0.0 0.0 0.0 0.0 0.0 0.0 0.0 0.0 0.0 0.0 0.0 0.0 0.0 0.0 0.0 0.0 0.0 0.0 0.0 0.0 0.0 0.0 0.0 0.0 0.0 0.0 0.0 0.0 0.0 0.0 0.0 0.0 0.0 0.0 0.0 0.0 0.0 0.0 0.0 0.0 0.0 0.0 0.0 0.0 0.0 0.0 0.0 0.0 0.0 0.0 0.0 0.0 0.0 0.0 0.0 0.0 0.0 0.0 0.0 0.0 0.0 0.0 0.0 0.0 0.0 0.0 0.0 0.0 0.0 0.0 0.0 0.0 0.0 0.0 0.0 0.0 0.0 0.0 0.0 0.0 0.0 0.0 0.0 0.0 0.0 0.0 0.0 0.0 0.0 0.0 0.0 0.0 0.0 0.0 0.0 0.0 0.0 0.0 0.0 0.0 0.0 0.0 0.0 0.0 0.0 0.0 0.0 0.0 0.0 0.0 0.0 0.0 0.0 0.0 0.0 0.0 0.0 0.0 0.0 0.0 0.0 0.0 0.0 0.0 0.0 0.0 0.0 0.0 0.0 0.0 0.0 0.0 0.0 0.0 0.0 0.0 0.0 0.0 0.0 0.0 0.0 0.0 0.0 0.0 0.0 0.0 0.0 0.0 0.0 0.0 0.0 0.0 0.0 0.0 0.0 0.0 0.0 0.0 0.0 0.0 0.0 0.0 0.0 0.0 0.0 0.0 0.0 0.0 0.0 0.0 0.0 0.0 0.0 0.0 0.0 0.0 0.0 0.0 0.0 0.0 0.0 0.0 0.0 0.0 0.0 0.0 0.0 0.0 0.0 0.0 0.0 0.0 0.0 0.0 0.0 0.0 0.0 0.0 0.0 0.0 0.0 0.0 0.0 0.0 0.0 0.0 0.0 0.0 0.0 0.0 0.0 0.0 0.0 0.0 0.0 0.0 0.0 0.0 0.0 0.0 0.0 0.0 0.0 0.0 0.0 0.0 0.0 0.0 0.0 0.0 0.0 0.0 0.0 0.0 0.0 0.0 0.0 0.0 0.0 0.0 0.0 0.0 0.0 0.0 0.0 0.0 0.0 0.0 0.0 0.0 0.0 0.0 0.0 0.0 0.0 0.0 0.0 0.0 0.0 0.0 0.0 0.0 0.0 0.0 0.0 0.0 0.0 0.0 0.0 0.0 0.0 0.0 0.0 0.0 0.0 0.0 0.0 0.0 0.0 0.0 0.0 0.0 0.0 0.0 0.0 0.0 0.0 0.0 0.0 0.0 0.0 0.0 0.0 0.0 0.0 0.0 0.0 0.0 0.0 0.0 0.0 0.0 0.0 0.0 0.0 0.0 0.0 0.0 0.0 0.0 0.0 0.0 0.0 0.0 0.0 0.0 0.0 0.0 0.0 0.0 0.0 0.0 0.0 0.0 0.0 0.0 0.0 0.0 0.0 0.0 0.0 0.0 0.0 0.0 0.0 0.0 0.0 0.0 0.0 0.0 0.0 0.0 0.0 0.0 0.0 0.0 0.0 0.0 0.0 0.0 0.0 0.0 0.0 0.0 0.0 0.0 0.0 0.0 0.0 0.0 0.0 0.0 0.0 0.0 0.0 0.0 0.0 0.0 0.0 0.0 0.0 0.0 0.0 0.0 0.0 0.0 0.0 0.0 0.0 0.0 0.0 0.0 0.0 0.0 0.0 0.0 0.0 0.0 0.0 0.0 0.0 0.0 0.0 0.0 0.0 0.0 0.0 0.0 0.0 0.0 0.0 0.0 0.0 0.0 0.0 0.0 0.0 0.0 0.0 0.0 0.0 0.0 0.0 0.0 0.0 0.0 0.0 0.0 0.0 0.0 0.0 0.0 0.0 0.0 0.0 0.0 0.0 0.0 0.0 0.0 0.0 0.0 0.0 0.0 0.0 0.0 0.0 0.0 0.0 0.0 0.0 0.0 0.0 0.0 0.0 0.0 0.0 0.0 0.0 0.0 0.0 0.0 0.0 0.0 0.0 0.0 0.0 0.0 0.0 0.0 0.0 0.0 0.0 0.0 0.0 0.0 0.0 0.0 0.0 0.0 0.0 0.0 0.0 0.0 0.0 0.0 0.0 0.0 0.0 0.0 0.0 0.0 0.0 0.0 0.0 0.0 0.0 0.0 0.0 0.0 0.0 0.0 0.0 0.0 0.0 0.0 0.0 0.0 0.0 0.0 0.0 0.0 0.0 0.0 0.0 0.0 0.0 0.0 0.0 0.0 0.0 0.0 0.0 0.0 0.0 0.0 0.0 0.0 0.0 0.0 0.0 0.0 0.0 0.0 0.0 0.0 0.0 0.0 0.0 0.0 0.0 0.0 0.0 0.0 0.0 0.0 0.0 0.0 0.0 0.0 0.0 0.0 0.0 0.0 0.0 0.0 0.0 0.0 0.0 0.0 0.0 0.0 0.0 0.0 0.0 0.0 0.0 0.0 0.0 0.0 0.0 0.0 0.0 0.0 0.0 0.0 0.0 0.0 0.0 0.0 0.0 0.0 0.0 0.0 0.0 0.0 0.0 0.0 0.0 0.0 0.0 0.0 0.0 0.0 0.0 0.0 0.0 0.0 0.0 0.0 0.0 0.0 0.0 0.0 0.0 0.0 0.0 0.0 0.0 0.0 0.0 0.0 0.0 0.0 0.0 0.0 0.0 0.0 0.0 0.0 0.0 0.0 0.0 0.0 0.0 0.0 0.0 0.0 0.0 0.0 0.0 0.0 0.0 0.0 0.0 0.0 0.0 0.0 0.0 0.0 0.0 0.0 0.0 0.0 0.0 0.0 0.0 0.0 0.0 0.0 0.0 0.0 0.0 0.0 0.0 0.0 0.0 0.0 0.0 0.0 0.0 0.0 0.0 0.0 0.0 0.0 0.0 0.0 0.0 0.0 0.0 0.0 0.0 0.0 0.0 0.0 0.0 0.0 0.0 0.0 0.0 0.0 0.0 0.0 0.0 0.0 0.0 0.0 0.0 0.0 0.0 0.0 0.0 0.0 0.0 0.0 0.0 0.0 0.0 0.0 0.0 0.0 0.0 0.0 0.0 0.0 0.0 0.0 0.0 0.0 0.0 0.0 0.0 0.0 0.0 0.0 0.0 0.0 0.0 0.0 0.0 0.0 0.0 0.0 0.0 0.0 0.0 0.0 0.0 0.0 0.0 0.0 0.0 0.0 0.0 0.0 0.0 0.0 0.0 0.0 0.0 0.0 0.0 0.0 0.0 0.0 0.0 0.0 0.0 0.0 0.0 0.0 0.0 0.0 0.0 0.0 0.0 0.0 0.0 0.0 0.0 0.0 0.0 0.0 0.0 0.0 0.0 0.0 0.0 0.0 0.0 0.0 0.0 0.0 0.0 0.0 0.0 0.0 0.0 0.0 0.0 0.0 0.0 0.0 0.0 0.0 0.0 0.0 0.0 0.0 0.0 0.0 0.0 0.0 0.0 0.0 0.0 0.0 0.0 0.0 0.0 0.0 0.0 0.0 0.0 0.0 0.0 0.0 0.0 0.0 0.0 0.0 0.0 0.0 0.0 0.0 0.0 0.0 0.0 0.0 0.0 0.0 0.0 0.0 0.0 0.0 0.0 0.0 0.0 0.0 0.0 0.0 0.0 0.0 0.0 0.0 0.0 0.0 0.0 0.0 0.0 0.0 0.0 0.0 0.0 0.0 0.0 0.0 0.0 0.0 0.0 0.0 0.0 0.0 0.0 0.0 0.0 0.0 0.0 0.0 0.0 0.0 0.0 0.0 0.0 0.0 0.0 0.0 0.0 0.0 0.0 0.0 0.0 0.0 0.0 0.0 0.0 0.0 0.0 0.0 0.0 0.0 0.0 0.0 0.0 0.0 0.0 0.0 0.0 0.0 0.0 0.0 0.0 0.0 0.0 0.0 0.0 0.0 0.0 0.0 0.0 0.0 0.0 0.0 0.0 0.0 0.0 0.0 0.0 0.0 0.0 0.0 0.0 0.0 0.0 0.0 0.0 0.0 0.0 0.0 0.0 0.0 0.0 0.0 0.0 0.0 0.0 0.0 0.0 0.0 0.0 0.0 0.0 0.0 0.0 0.0 0.0 0.0 0.0 0.0 0.0 0.0 0.0 0.0 0.0 0.0 0.0 0.0 0.0 0.0 0.0 0.0 0.0 0.0 0.0 0.0 0.0 0.0 0.0 0.0 0.0 0.0 0.0 0.0 0.0 0.0 0.0 0.0 0.0 0.0 0.0 0.0 0.0 0.0 0.0 0.0 0.0 0.0 0.0 0.0 0.0 0.0 0.0 0.0 0.0 0.0 0.0 0.0 0.0 0.0 0.0 0.0 0.0 0.0 0.0 0.0 0.0 0.0 0.0 0.0 0.0 0.0 0.0 0.0 0.0 0.0 0.0 0.0 0.0 0.0 0.0 0.0 0.0 0.0 0.0 0.0 0.0 0.0 0.0 0.0 0.0 0.0 0.0 0.0 0.0 0.0 0.0 0.0 0.0 0.0 0.0 0.0 0.0 0.0 0.0 0.0 0.0 0.0 0.0 0.0 0.0 0.0 0.0 0.0 0.0 0.0 0.0 0.0 0.0 0.0 0.0 0.0 0.0 0.0 0.0 0.0 0.0 0.0 0.0 0.0 0.0 0.0 0.0 0.0 0.0 0.0 0.0 0.0 0.0 0.0 0.0 0.0 0.0 0.0 0.0 0.0 0.0 0.0 0.0 0.0 0.0 0.0 0.0 0.0 0.0 0.0 0.0 0.0 0.0 0.0 0.0 0.0 0.0 0.0 0.0 0.0 0.0 0.0 0.0 0.0 0.0 0.0 0.0 0.0 0.0 0.0 0.0 0.0 0.0 0.0 0.0 0.0 0.0 0.0 0.0 0.0 0.0 0.0 0.0 0.0 0.0 0.0 0.0 0.0 0.0 0.0 0.0 0.0 0.0 0.0 0.0 0.0 0.0 0.0 0.0 0.0 0.0 0.0 0.0 0.0 0.0 0.0 0.0 0.0 0.0 0.0 0.0 0.0 0.0 0.0 0.0 0.0 0.0 0.0 0.0 0.0 0.0 0.0 0.0 0.0 0.0 0.0 0.0 0.0 0.0 0.0 0.0 0.0 0.0 0.0 0.0 0.0 0.0 0.0 0.0 0.0 0.0 0.0 0.0 0.0 0.0 0.0 0.0 0.0 0.0 0.0 0.0 0.0 0.0 0.0 0.0 0.0 0.0 0.0 0.0 0.0 0.0 0.0 0.0 0.0 0.0 0.0 0.0 0.0 0.0 0.0 0.0 0.0 0.0 0.0 0.0 0.0 0.0 0.0 0.0 0.0 0.0 0.0 0.0 0.0 0.0 0.0 0.0 0.0 0.0 0.0 0.0 0.0 0.0 0.0 0.0 0.0 0.0 0.0 0.0 0.0 0.0 0.0 0.0 0.0 0.0 0.0 0.0 0.0 0.0 0.0 0.0 0.0 0.0 0.0 0.0 0.0 0.0 0.0 0.0 0.0 0.0 0.0 0.0 0.0 0.0 0.0 0.0 0.0 0.0 0.0 0.0 0.0 0.0 0.0 0.0 0.0 0.0 0.0 0.0 0.0 0.0 0.0 0.0 0.0 0.0 0.0 0.0 0.0 0.0 0.0 0.0 0.0 0.0 0.0 0.0 0.0 0.0 0.0 0.0 0.0 0.0 0.0 0.0 0.0 0.0 0.0 0.0 0.0 0.0 0.0 0.0 0.0 0.0 0.0 0.0 0.0 0.0 0.0 0.0 0.0 0.0 0.0 0.0 0.0 0.0 0.0 0.0 0.0 0.0 0.0 0.0 0.0 0.0 0.0 0.0 0.0 0.0 0.0 0.0 0.0 0.0 0.0 0.0 0.0 0.0 0.0 0.0 0.0 0.0 0.0 0.0 0.0 0.0 0.0 0.0 0.0 0.0 0.0 0.0 0.0 0.0 0.0 0.0 0.0 0.0 0.0 0.0 0.0 0.0 0.0 0.0 0.0 0.0 0.0 0.0 0.0 0.0 0.0 0.0 0.0 0.0 0.0 0.0 0.0 0.0 0.0 0.0 0.0 0.0 0.0 0.0 0.0 0.0 0.0 0.0 0.0 0.0 0.0 0.0 0.0 0.0 0.0 0.0 0.0 0.0 0.0 0.0 0.0 0.0 0.0 0.0 0.0 0.0 0.0 0.0 0.0 0.0 0.0 0.0 0.0 0.0 0.0 0.0 0.0 0.0 0.0 0.0 0.0 0.0 0.0 0.0 0.0 0.0 0.0 0.0 0.0 0.0 0.0 0.0 0.0 0.0 0.0 0.0 0.0 0.0 0.0 0.0 0.0 0.0 0.0 0.0 0.0 0.0 0.0 0.0 0.0 0.0 0.0 0.0 0.0 0.0 0.0 0.0 0.0 0.0 0.0 0.0 0.0 0.0 0.0 0.0 0.0 0.0 0.0 0.0 0.0 0.0 0.0 0.0 0.0 0.0 0.0 0.0 0.0 0.0 0.0 0.0 0.0 0.0 0.0 0.0 0.0 0.0 0.0 0.0 0.0 0.0 0.0 0.0 0.0 0.0 0.0 0.0 0.0 0.0 0.0 0.0 0.0 0.0 0.0 0.0 0.0 0.0 0.0 0.0 0.0 0.0 0.0 0.0 0.0 0.0 0.0 0.0 0.0 0.0 0.0 0.0 0.0 0.0 0.0 0.0 0.0 0.0 0.0 0.0 0.0 0.0 0.0 0.0 0.0 0.0 0.0 0.0 0.0 0.0 0.0 0.0 0.0 0.0 0.0 0.0 0.0 0.0 0.0 0.0 0.0 0.0 0.0 0.0 0.0 0.0 0.0 0.0 0.0 0.0 0.0 0.0 0.0 0.0 0.0 0.0 0.0 0.0 0.0 0.0 0.0 0.0 0.0 0.0 0.0 0.0 0.0 0.0 0.0 0.0 0.0 0.0 0.0 0.0 0.0 0.0 0.0 0.0 0.0 0.0 0.0 0.0 0.0 0.0 0.0 0.0 0.0 0.0 0.0 0.0 0.0 0.0 0.0 0.0 0.0 0.0 0.0 0.0 0.0 0.0 0.0 0.0 0.0 0.0 0.0 0.0 0.0 0.0 0.0 0.0 0.0 0.0 0.0 0.0 0.0 0.0 0.0 0.0 0.0 0.0 0.0 0.0 0.0 0.0 0.0 0.0 0.0 0.0 0.0 0.0 0.0 0.0 0.0 0.0 0.0 0.0 0.0 0.0 0.0 0.0 0.0 0.0 0.0 0.0 0.0 0.0 0.0 0.0 0.0 0.0 0.0 0.0 0.0 0.0 0.0 0.0 0.0 0.0 0.0 0.0 0.0 0.0 0.0 0.0 0.0 0.0 0.0 0.0 0.0 0.0 0.0 0.0 -0.13698685542467132 0.0 -0.052380253309506304 -0.16174398004359938 0.0 -0.048927441223186 -0.18221288055532192 0.0 -0.0431956130798903 -0.1982576409564409 0.0 -0.0366813729170343 -0.21044188126104693 0.0 -0.02990322794758068 -0.1369632994240824 0.0 -0.0694892657372316 -0.1827794605694864 0.0 -0.062080969552024204 -0.21872077346801924 0.0 -0.0589417574735439 -0.2466454581661363 0.0 -0.052928537323213405 -0.2677744946943622 0.0 -0.0455077971376949 -0.2833907190847678 0.0 -0.03737965013449123 -0.1866610806665269 0.0 -0.0756231098905777 -0.24625235415630872 0.0 -0.0688217657205441 -0.2923938353098457 0.0 -0.0639283415982085 -0.3282020642050514 0.0 -0.057018581425464496 -0.3548811048720274 0.0 -0.0493264252331606 -0.3743567573589187 0.0 -0.0406404730160118 -0.2483835742095892 0.0 -0.080745842018646 -0.3240923961023097 0.0 -0.07214181780354541 -0.3807897415197433 0.0 -0.0663889896597247 -0.424165730604143 0.0 -0.0588495014712375 -0.456352531408813 0.0 -0.050673241266831 -0.47953921198848 0.0 -0.041632881040822 -0.3231548400788708 0.0 -0.0866091741652293 -0.41740609043515203 0.0 -0.07420904985522621 -0.485540692138517 0.0 -0.0671550056788751 -0.536522893413072 0.0 -0.0589327334733183 -0.573917454347936 0.0 -0.050332625258315604 -0.600422695010567 0.0 -0.041017761025444 -0.414339450358486 0.0 -0.0945045983626149 -0.529925973248149 0.0 -0.0757661378941534 -0.610208295255207 0.0 -0.0665896896647422 -0.6686856967171421 0.0 -0.0575020454375511 -0.710754857768871 0.0 -0.048717069217926706 -0.7399680184992 0.0 -0.039308626582715646 -0.526940893173522 0.0 -0.1057691106442277 -0.666360776659019 0.0 -0.078097441952436 -0.758960178974004 0.0 -0.06554100563852511 -0.824465380611634 0.0 -0.055126813378170304 -0.8702807817570191 0.0 -0.046520461163011506 -0.901335062533376 0.0 -0.03726983773174592 -0.667328096683202 0.0 -0.12265491906637291 -0.8319157807978941 0.0 -0.0831619300790482 -0.9356785833919641 0.0 -0.0661805176545129 -1.0074500251862502 0.0 -0.0534636253365906 -1.05587122639678 0.0 -0.045061653126541305 -1.087570507189262 0.0 -0.03619374130484351 -0.845306901132672 0.0 -0.1428981835724545 -1.032096705802417 0.0 -0.0920330063008251 -1.1453565886339139 0.0 -0.0697233697430842 -1.2208253105206321 0.0 -0.055498933387473304 -1.270457951761448 0.0 -0.047035121175878006 -1.301575992539399 0.0 -0.038364026959100656 -1.077815546945388 0.0 -0.153493123837328 -1.274076391851909 0.0 -0.1025327705633192 -1.391794514794862 0.0 -0.0778128179453204 -1.468283676707091 0.0 -0.06364481759112041 -1.51778883794472 0.0 -0.0543850573596264 -1.546220238655505 0.0 -0.046520461163011506 -1.380328194508204 0.0 -0.1532794998319874 -1.569599759239993 0.0 -0.1119681387992034 -1.681858122046452 0.0 -0.0900398262509956 -1.7544804038620092 0.0 -0.0787775779694394 -1.8003679650091982 0.0 -0.0713625937840648 -1.8244915656122882 0.0 -0.0632337575808439 -1.73065724326643 0.0 -0.2287950577198763 -1.9233280480832002 0.0 -0.1499544197488604 -2.021745930543647 0.0 -0.11894083497352081 -2.085414572135363 0.0 -0.1053644226341105 -2.122326893058171 0.0 -0.0995874784896869 -2.139205213480129 0.0 -0.0910120382753009 -2.171900214297504 0.0 -0.532835413320885 -2.346978618674464 0.0 -0.3139348118483701 -2.420980140524502 0.0 -0.20990639324765972 -2.466572621664314 0.0 -0.1642425561060638 -2.487929222198229 0.0 -0.1480187077004676 -2.4938324623458104 0.0 -0.13404280335107 -2.759866788996668 0.0 -0.8286087407152181 -2.869434631735864 0.0 -0.540243053506076 -2.8979904724497603 0.0 -0.3553686248842154 -2.905627112640676 0.0 -0.26560550264013744 -2.9025263525631573 0.0 -0.2250405376260133 -2.892723352318082 0.0 -0.1965328969133223 -3.4746540868663502 0.0 -1.035915985897899 -3.4880135272003363 0.0 -0.741642858541071 -3.446553126163826 0.0 -0.520218973005474 -3.4030876850771903 0.0 -0.3951744418793608 -3.368777564219437 0.0 -0.3248219561205487 -3.3398930434973244 0.0 -0.2779645029491124 -4.26500050662501 0.0 -1.208551550213788 -4.17227450430686 0.0 -0.9080921427023031 -4.05190730129768 0.0 -0.6779032969475821 -3.9542073388551815 0.0 -0.5336380133409501 -3.8873135771828373 0.0 -0.43889457097236395 -3.8379715759492874 0.0 -0.3727747773193692 -5.097326127433151 0.0 -1.3692643542316079 -4.90203932255098 0.0 -1.059209746480243 -4.706032517650811 0.0 -0.822755060568876 -4.5561873139046805 0.0 -0.667988616699715 -4.45796491144912 0.0 -0.5592720939818021 -4.38895970972399 0.0 -0.478603531965088 -5.96225574905639 0.0 -1.532791478319786 -5.67719534192988 0.0 -1.205828510145712 -5.41041333526033 0.0 -0.961291544032288 -5.21075173026879 0.0 -0.8028134600703362 -5.08237732705943 0.0 -0.6841763371044081 -4.99404772485119 0.0 -0.593090374827259 -6.879287771982191 0.0 -1.705619482640486 -6.5111657627791395 0.0 -1.353807673845191 -6.17270095431752 0.0 -1.0992467074811672 -5.92103774802594 0.0 -0.9401239435030979 -5.76169974404249 0.0 -0.8149101403727531 -5.654987341374681 0.0 -0.7138759378468981 -7.8784081969602004 0.0 -1.886985807174644 -7.4177681854442 0.0 -1.5077290776932262 -6.99833697495842 0.0 -1.2429881510747032 -6.6923881673097 0.0 -1.079526466988161 -6.496634162415851 0.0 -0.953772383844309 -6.372304559307611 0.0 -0.843325461083136 -8.973655824341389 0.0 -2.0797840519946003 -8.40208461005211 0.0 -1.6705652817641312 -7.88797859719946 0.0 -1.397024554925613 -7.519526187988151 0.0 -1.232555430813885 -7.28740498218512 0.0 -1.104420587610514 -7.147232978680821 0.0 -0.983234904580872 -10.16528105413202 0.0 -2.292836617320914 -9.46524463663111 0.0 -1.8480774462019351 -8.84080542102013 0.0 -1.569313959232848 -8.40223421005585 0.0 -1.403272275081806 -8.13376860334421 0.0 -1.2691234717280861 -7.98127859953196 0.0 -1.133650628341265 -11.46211108655277 0.0 -2.521380503034511 -10.60726946518173 0.0 -2.047254811181369 -9.85501504637537 0.0 -1.764815004120374 -9.33868903346722 0.0 -1.593456799836419 -9.03541822588545 0.0 -1.447862556196563 -8.875710621892761 0.0 -1.2937694723442361 -12.86804224163216 0.0 -2.773943408728096 -11.82903436917484 0.0 -2.276930833852476 -10.92970155507718 0.0 -1.9892217654457582 -10.32829441931815 0.0 -1.8032355486377099 -9.992990690519221 0.0 -1.6396523735277162 -9.83235441108507 0.0 -1.460618401378256 -14.39305809429411 0.0 -3.064343061419365 -13.133732481266719 0.0 -2.547250210067744 -12.064689452105359 0.0 -2.242168384422596 -11.37217973969968 0.0 -2.028856143855824 -11.00744765222146 0.0 -1.840335923209663 -10.85172666607536 0.0 -1.6347539650930878 -16.056388886562498 0.0 -3.405171294476916 -14.528263447593279 0.0 -2.8699982557624 -13.26382412585579 0.0 -2.523268775327981 -12.472679758616 0.0 -2.26475112963456 -12.07985518386997 0.0 -2.048467445457721 -11.93528872474735 0.0 -1.8114645566052598 -17.886305661033603 0.0 -3.81398541345312 -16.0220337195808 0.0 -3.2558802992518396 -14.532096982247042 0.0 -2.828069807856286 -13.62916233632178 0.0 -2.506629813648112 -13.211430648345141 0.0 -2.253614303471102 -13.0808695333344 0.0 -1.9857524569152 -19.90727352679896 0.0 -4.30939396886776 -17.617732031972402 0.0 -3.7203864814419365 -15.86532403372832 0.0 -3.160792454002888 -14.840844482463098 0.0 -2.75708846991991 -14.39864453162854 0.0 -2.4672968921534317 -14.284083634532301 0.0 -2.1763929123169996 -22.10577826909473 0.0 -4.91474255665113 -19.293874067869048 0.0 -4.28501175524694 -17.245494684166502 0.0 -3.5323362768087003 -16.0910141536467 0.0 -2.997045785043972 -15.615278878545451 0.0 -2.6882949409667733 -15.524498040811318 0.0 -2.360702134723152 -24.38891036938224 0.0 -5.70578248516152 -20.974257609041718 0.0 -4.9716666526780005 -18.616210165115298 0.0 -3.97085201261395 -17.33236711883538 0.0 -3.257632850169412 -16.84732167732621 0.0 -2.801815289217228 -16.75374808441575 0.0 -2.523166563701941 -26.600153447673357 0.0 -6.8412457502252 -22.545075453792162 0.0 -5.8211619906136 -19.896300940416722 0.0 -4.50771044002716 -18.551385304809237 0.0 -3.4163342865671664 -18.01497885701456 0.0 -2.918624367502648 -17.88900854242625 0.0 -2.66534156191625 -28.52579414789985 0.0 -8.40726745758912 -23.93394591347946 0.0 -6.89845422396726 -21.1960678023822 0.0 -4.8570155707042195 -19.68543961209375 0.0 -3.6032509864312496 -19.01104310924514 0.0 -3.079165275308103 -18.862423076215173 0.0 -2.868612827179512 -29.855473215457103 0.0 -10.69132846752056 -25.09175777274912 0.0 -8.36590158864723 -22.2373732975785 0.0 -5.5155435231486 -20.57966423169066 0.0 -3.9652516861240623 -19.83368084285049 0.0 -3.254479883285259 -19.620640388252998 0.0 -2.975893053318984 -30.60094581186786 0.0 -13.689547102494119 -25.78838273815845 0.0 -10.28843147363493 -22.974490439235897 0.0 -6.181744579948199 -21.25214529153705 0.0 -4.16330227063809 -20.475085546460072 0.0 -3.223002924387639 -20.2789043011452 0.0 -2.926571318724048 -30.465076833573118 0.0 -17.06708087833368 -25.972119072847498 0.0 -11.6428978376538 -23.3973487809468 0.0 -6.9110920329839995 -21.55439295121344 0.0 -4.68549629069214 -20.733716205973682 0.0 -3.4273827034536177 -20.50623546162856 0.0 -3.127347941826892 -26.517190099466642 0.0 -18.672274236713722 -25.160902629068 0.0 -12.70213179818472 -23.431676624113837 0.0 -7.4902857855072895 -21.40016159844792 0.0 -5.66296573858242 -20.15685720656919 0.0 -4.778457965745059 -19.81580085863856 0.0 -4.5095502520674 -17.70605242034688 0.0 -20.176769815295202 -18.0302896637215 0.0 -14.1973387140101 -18.360456248649 0.0 -8.2676583818988 -18.52035218690132 0.0 -6.4761543712866 -18.43303164758902 0.0 -6.50394027230486 -18.591004138166458 0.0 -7.547385095730481 -10.34864846505703 0.0 -22.13615203764908 -10.6395615556265 0.0 -15.36622355450335 -11.020971010135789 0.0 -8.668977248018619 -11.441732948661759 0.0 -6.031715772248321 -11.833758723047799 0.0 -6.18945615806056 -12.228202246395458 0.0 -7.477492799526359 -5.43036706927374 0.0 -23.64737059745093 -5.62143603526784 0.0 -16.4781540311296 -5.890064292252501 0.0 -8.627130546289251 -6.21996491906782 0.0 -5.76792194651171 -6.58069633417542 0.0 -5.60898639332356 -6.934044053679751 0.0 -6.913445849469901 -2.329520722851699 0.0 -24.6530210953761 -2.38265735736471 0.0 -17.25067379747454 -2.488507994710269 0.0 -8.67690026085231 -2.6559486988437597 0.0 -5.67863167788504 -2.873209573588142 0.0 -5.24573503034924 -3.111703663686082 0.0 -6.420755712767949 0.09247561456974869 0.0 -25.18922961953064 0.1544199419561292 0.0 -17.88261715583844 0.190339748669115 0.0 -8.805053397078 0.1786749745848759 0.0 -5.63599242064791 0.1163184929463825 0.0 -5.17006393292975 0.016774422722380958 0.0 -6.169131466739359 2.7992951651607 0.0 -25.316177943658978 2.91444054404108 0.0 -18.1187777412064 3.023457422911178 0.0 -9.0252074037521 3.10260107050899 0.0 -5.814709670464801 3.141196328441808 0.0 -5.34693161868207 3.139011624476832 0.0 -6.0526472371123194 6.1706413849503505 0.0 -25.02023961383925 6.2735865054546 0.0 -17.93735750545708 6.37863803879601 0.0 -9.13533794538392 6.465607516151 0.0 -6.068209024941 6.523670214505079 0.0 -5.533310111041439 6.545069142551521 0.0 -6.04725024151344 10.03010769560814 0.0 -24.45021311197096 10.07707379738576 0.0 -17.516071571991198 10.124754064684321 0.0 -9.14039979428428 10.15591859716112 0.0 -6.24970204214972 10.16379097690762 0.0 -5.7017804452297 10.140715301471358 0.0 -6.067984913335679 13.951232743637762 0.0 -23.65291077521916 13.92630106717024 0.0 -16.946394086838723 13.89455248280238 0.0 -9.04014173162847 13.839394969792203 0.0 -6.35430769809425 13.759344657327121 0.0 -5.7941971050520795 13.6521146684106 0.0 -6.0398875337870095 17.52070157194428 0.0 -22.6593868636323 17.4274623358605 0.0 -16.325293474032748 17.31817441193928 0.0 -8.8398246172815 17.17546770077364 0.0 -6.39707194149264 16.94252154535994 0.0 -5.68980247505302 16.80510997372029 0.0 -5.92052887824611 20.45176225065504 0.0 -21.54458473512576 20.302243029508677 0.0 -15.675722301120839 20.190050484222038 0.0 -8.631522314575541 19.89102676545894 0.0 -6.337412200381079 19.54465781245288 0.0 -5.49040608139736 19.29678964812722 0.0 -5.71171242332948 22.596159882100828 0.0 -20.27473100460337 22.42893905915725 0.0 -14.866367172479102 22.2715615786815 0.0 -8.277158793808 21.687178218523858 0.0 -6.0147902340591095 20.76634417666464 0.0 -5.20596017978976 19.98145765702428 0.0 -5.50866510737496 24.12235698791671 0.0 -18.80243142063801 23.87700659432704 0.0 -13.82154210246656 23.64782055150592 0.0 -7.843869606742399 22.302576776000937 0.0 -5.7246027347004 20.88277320436183 0.0 -5.12932148047164 20.0823500957824 0.0 -5.319243414632299 25.456479183001022 0.0 -17.25772065279276 25.004763923467678 0.0 -12.69158153562288 24.220089264866758 0.0 -7.37170280244522 22.22324258633332 0.0 -5.49899777651344 20.897419376582 0.0 -5.0924938840504 20.1120781902173 0.0 -5.16447764427888 27.121469394347297 0.0 -16.00043762073865 26.114747368721197 0.0 -11.5054526493516 24.27057195054576 0.0 -6.915896456678039 22.14437519847216 0.0 -5.2861653888584 20.89015541096161 0.0 -5.00980579853164 20.11907731304232 0.0 -4.98792072383621 29.498668292880048 0.0 -15.11806421257375 27.37326247565692 0.0 -10.29968228602732 24.41704573009775 0.0 -6.44191676354862 22.198852521929016 0.0 -5.062078939588379 20.93437664592164 0.0 -4.84268563409488 20.04134911375784 0.0 -4.94372239540322 32.83789347996708 0.0 -13.449306918959758 28.8758274394865 0.0 -9.3929873534585 24.775215746851 0.0 -6.01104896009192 22.3792387355289 0.0 -4.85529391575262 20.975100696231742 0.0 -4.5717611191704295 20.0591145630525 0.0 -4.6619801257299995 36.24545262486918 0.0 -10.8672943683081 30.455884981373195 0.0 -8.40770660374514 25.54947350424525 0.0 -5.669040679235009 22.66697389629025 0.0 -4.715185104540749 21.087748587174058 0.0 -4.36720322989049 20.02983713263182 0.0 -4.27925052087416 38.39540961152127 0.0 -9.2718642510262 32.04176674073464 0.0 -7.579916313281919 26.5941459536202 0.0 -5.3827449751692 23.20123450591964 0.0 -4.43874251136522 21.28897636458544 0.0 -4.11585651211721 20.02048514153746 0.0 -3.9094759407314728 33.863512056187396 0.0 -6.982944094274139 27.86174867274424 0.0 -5.107528796036 23.97669409394 0.0 -4.104750946716 21.71182447016606 0.0 -3.760867046270006 20.1208826239368 0.0 -3.5410893126276397 35.701227972937076 0.0 -6.48278559395838 29.64449395496832 0.0 -4.829078995920931 25.0949901768519 0.0 -3.65595317385729 22.31745123461568 0.0 -3.304453695093408 20.40400634261613 0.0 -3.114937900914774 31.84693036505772 0.0 -4.8101388590041205 26.69363370491436 0.0 -3.432506367543258 23.29754322186108 0.0 -2.916987432115968 20.91032788877364 0.0 -2.68144340061162 34.001266781768585 0.0 -4.91446062609012 28.933384612547698 0.0 -3.636245212271205 24.782269410058863 0.0 -2.760127376102334 21.79193609164443 0.0 -2.392080147431409 31.352041387010754 0.0 -4.07138452099528 26.867983439898598 0.0 -2.979146934897324 23.293675962460537 0.0 -2.383445099287898 29.23729965029376 0.0 -3.4902528484828856 25.44626313627672 0.0 -2.745241462511046 30.93759124128827 0.0 -3.63973390095661 27.769592185266568 0.0 -3.248330966222245 -0.21904769347619218 0.0 -0.023625618990640463 -0.2246835296170881 0.0 -0.0179257964481449 -0.2278298416957459 0.0 -0.01329505913237647 -0.2292065217301629 0.0 -0.0095188442379711 -0.22942376573559403 0.0 -0.00658141336453533 -0.22898278972456962 0.0 -0.00439458730986468 -0.22828546170713643 0.0 -0.002760823509020586 -0.22760148569003702 0.0 -0.0015916660797916512 -0.2271225976780648 0.0 -0.000715485777887144 -0.29417715935442884 0.0 -0.02953293393832333 -0.30083156352078894 0.0 -0.02253925576348138 -0.3041815836045394 0.0 -0.016763700819092512 -0.3052898956322472 0.0 -0.01194828389870709 -0.3049387516234686 0.0 -0.00827778580694464 -0.303836447595911 0.0 -0.0054953201373830005 -0.30250421156260515 0.0 -0.003456948406423708 -0.3013110715327766 0.0 -0.001987796129694902 -0.30050307151257666 0.0 -0.0008962229024055719 -0.3873988736849716 0.0 -0.03228525320713131 -0.3950498698762465 0.0 -0.02474509221862729 -0.3985185259629629 0.0 -0.01831167685779191 -0.39913488597837193 0.0 -0.013036003925900092 -0.39799233394980815 0.0 -0.00900078902501972 -0.39602890990072254 0.0 -0.00589175014729375 -0.3938818538470461 0.0 -0.003681650852041269 -0.3920418378010457 0.0 -0.002082830332070757 -0.390817889770447 0.0 -0.000939857903496447 -0.49468881236722007 0.0 -0.03291422522285561 -0.5030641725766041 0.0 -0.025184745029618608 -0.506358172658954 0.0 -0.01843877926096947 -0.506179532654488 0.0 -0.01301196232529905 -0.503992372599809 0.0 -0.00879490701987267 -0.5009104925227621 0.0 -0.00567235494180887 -0.497761692444042 0.0 -0.003448024846200619 -0.495134932378373 0.0 -0.001912148167803703 -0.49341309233532704 0.0 -0.0008403267010081671 -0.6172005354300131 0.0 -0.032204026805100656 -0.6258492156462301 0.0 -0.02440560381014008 -0.628479295711982 0.0 -0.01758087923952197 -0.627072775676819 0.0 -0.012215366705384161 -0.623458975586474 0.0 -0.0080135362003384 -0.6189520154738 0.0 -0.00501984212549605 -0.614562175364054 0.0 -0.0029131217528280424 -0.6109724952743121 0.0 -0.001555607518890187 -0.608650095216252 0.0 -0.000654235816355895 -0.757689938942248 0.0 -0.030651492766287303 -0.76597001914925 0.0 -0.02284868417121709 -0.7672635391815881 0.0 -0.016255674006391843 -0.7640857391021431 0.0 -0.010992408674810212 -0.75854361896359 0.0 -0.007001635775040891 -0.752227938805698 0.0 -0.00416674490416862 -0.746285258657131 0.0 -0.002289600337240007 -0.7415236585380911 0.0 -0.001129165708229142 -0.738470698461767 0.0 -0.000448054291201357 -0.919115262977881 0.0 -0.029052279126306958 -0.926177823154445 0.0 -0.021470036136750893 -0.9253751031343771 0.0 -0.015178469179461722 -0.919742982993574 0.0 -0.01006969705174242 -0.911700742792518 0.0 -0.00628732095718302 -0.903108982577724 0.0 -0.003587514609687863 -0.89525882238147 0.0 -0.001882566007064149 -0.8890719822267991 0.0 -0.000863657461591436 -0.885136622128415 0.0 -0.00031892134397303344 -1.1043613876090341 0.0 -0.028535587113389663 -1.109216907730422 0.0 -0.02131018533275462 -1.105414507635362 0.0 -0.01535168918379222 -1.096553467413836 0.0 -0.01030313985757849 -1.085363987134099 0.0 -0.006585820964645521 -1.0739698668492461 0.0 -0.003842243656056089 -1.063814866595371 0.0 -0.0020951576923789413 -1.055915746397893 0.0 -0.0010165757854143941 -1.050928066273201 0.0 -0.00039864658596616443 -1.316179392904484 0.0 -0.031025267575631673 -1.3177333129433322 0.0 -0.023978910599472752 -1.309988232749705 0.0 -0.01809686925242172 -1.2970629924265742 0.0 -0.012827979520699482 -1.282032912050822 0.0 -0.00879858621996465 -1.26726563168164 0.0 -0.00562616054065401 -1.254357471358936 0.0 -0.003445935726148391 -1.24442763111069 0.0 -0.001917057327926432 -1.238195270954881 0.0 -0.000851610341290258 -1.557246638931165 0.0 -0.03897181857429544 -1.554301958857548 0.0 -0.03163017999075449 -1.541667398541684 0.0 -0.025113699427842473 -1.523843798096094 0.0 -0.01894640367366008 -1.504247037606175 0.0 -0.013924125148103123 -1.485500477137511 0.0 -0.00969999144249978 -1.469358196733954 0.0 -0.00647765856194146 -1.457054076426351 0.0 -0.003918661257966529 -1.4493699562342481 0.0 -0.001848881166222028 -1.8302006057550142 0.0 -0.05510563337764081 -1.8216343255408571 0.0 -0.0464141731603543 -1.803168725079217 0.0 -0.0381508329537708 -1.7796232844905813 0.0 -0.030015564750389103 -1.7547415238685369 0.0 -0.02298575537464387 -1.731396723284917 0.0 -0.01682920202073004 -1.7115366427884153 0.0 -0.011705673092641821 -1.696501002412524 0.0 -0.00736922658423066 -1.6871515621787883 0.0 -0.003553656968841422 -2.137924253448105 0.0 -0.0817962060449051 -2.122811373070283 0.0 -0.0699802177495054 -2.097619852440495 0.0 -0.0584954694623867 -2.0675262916881563 0.0 -0.0472567691814192 -2.036647850916195 0.0 -0.036884997322124906 -2.008099970202498 0.0 -0.02771515909287896 -1.9840488896012212 0.0 -0.019627230490680752 -1.9659311691482781 0.0 -0.01254010991350274 -1.954700528867512 0.0 -0.0061075273526881805 -2.484207982105198 0.0 -0.1196770709919267 -2.461233381530833 0.0 -0.1035793465894836 -2.428441500711036 0.0 -0.0872694621817365 -2.390989939774747 0.0 -0.0714150857853771 -2.3534651388366274 0.0 -0.056264421406610504 -2.3191395379784874 0.0 -0.0426309370657734 -2.290396737259917 0.0 -0.030551702363792538 -2.2688622167215544 0.0 -0.01966494809162369 -2.255545296388631 0.0 -0.00959244783981119 -2.87272767181819 0.0 -0.1720167083004176 -2.8406765510169123 0.0 -0.1482803757070093 -2.799281589982038 0.0 -0.12513636712840912 -2.753795508844886 0.0 -0.102525522563138 -2.708845987721148 0.0 -0.0813591020339775 -2.668196186704903 0.0 -0.061877253546931306 -2.6343384258584592 0.0 -0.044450873111271806 -2.609008105225201 0.0 -0.02873475631836889 -2.5934181848354534 0.0 -0.014069315951732893 -3.307428842685719 0.0 -0.23890326597258152 -3.265010521625261 0.0 -0.2044299171107478 -3.2139500403487493 0.0 -0.1723968803099219 -3.159557038988924 0.0 -0.14076252351906302 -3.1066157176653912 0.0 -0.111574722789368 -3.0590443564761074 0.0 -0.0853114461327861 -3.019678195491953 0.0 -0.06144520153613 -2.990254274756355 0.0 -0.039789602994740055 -2.972162514304061 0.0 -0.01940489448512235 -3.7916867347921666 0.0 -0.3189367839734194 -3.7377507334437663 0.0 -0.27152715478817874 -3.6760350119008733 0.0 -0.22810707770267682 -3.6119740502993496 0.0 -0.1855231926380797 -3.55051928876298 0.0 -0.1470298796757469 -3.495549487388735 0.0 -0.11249444681236109 -3.450293806257343 0.0 -0.08080910202022751 -3.4166264454156594 0.0 -0.05244194931104871 -3.395843204896078 0.0 -0.02556669783916743 -4.32830610820765 0.0 -0.41000725025018103 -4.26204650655116 0.0 -0.3476563526914086 -4.18927330473183 0.0 -0.2913525872838145 -4.11512450287811 0.0 -0.2374028739350717 -4.044588101114701 0.0 -0.1872492486812311 -3.98181009954525 0.0 -0.1429157515728937 -3.930337618258438 0.0 -0.10217278255431951 -3.892199817304993 0.0 -0.0662541416563535 -3.8685349367133712 0.0 -0.03230818600770463 -4.91956972298924 0.0 -0.510858292771457 -4.84138612103465 0.0 -0.433374690834367 -4.75719331892983 0.0 -0.3612426130310651 -4.67260051681501 0.0 -0.29390028334750695 -4.592885714822141 0.0 -0.2308702537717562 -4.52202891305072 0.0 -0.17546859238671472 -4.464007311600181 0.0 -0.12475391911884791 -4.42091491052287 0.0 -0.0800603940015098 -4.3944161098603995 0.0 -0.0392949649823741 -5.56744493918612 0.0 -0.618583535464588 -5.47826253695656 0.0 -0.525305253132631 -5.38312333457808 0.0 -0.435708450892711 -5.28838573220964 0.0 -0.3531918848297969 -5.19934612998365 0.0 -0.27542918288572943 -5.1204433280110795 0.0 -0.2089672612241814 -5.05552852638821 0.0 -0.147533683688342 -5.007197325179931 0.0 -0.093949242348731 -4.97750092443752 0.0 -0.0461171091529277 -6.27406535685163 0.0 -0.7341013783525341 -6.17593855439846 0.0 -0.6230576555764411 -6.07161255179031 0.0 -0.515564092889102 -5.9666921491673 0.0 -0.414411890360297 -5.86832654670816 0.0 -0.3200425720010641 -5.7810481445262 0.0 -0.2416971740424292 -5.70877534271938 0.0 -0.169291764232294 -5.654674941366871 0.0 -0.10693068667326712 -5.62142774053569 0.0 -0.0523960053099001 -7.041650576041261 0.0 -0.8575190614379761 -6.937421773435541 0.0 -0.725651658141291 -6.82547537063688 0.0 -0.598499414962485 -6.71140376778509 0.0 -0.47582729189568207 -6.60366216509155 0.0 -0.3637298450932459 -6.50696896267422 0.0 -0.2712702107817551 -6.4269561606739005 0.0 -0.1888347567208688 -6.36637855915946 0.0 -0.1182965189574129 -6.32897935822448 0.0 -0.0577477574436939 -7.872553396813831 0.0 -0.988498504712462 -7.765748194143701 0.0 -0.8321663008041571 -7.6479057911976405 0.0 -0.682966977074174 -7.52593698814842 0.0 -0.536637853415946 -7.40866658521666 0.0 -0.40583325014583105 -7.3016861825421495 0.0 -0.2989641994741048 -7.21257018031425 0.0 -0.20662699316567473 -7.14430577860764 0.0 -0.12802403120060069 -7.10193257754831 0.0 -0.06252912556322811 -8.76888541922213 0.0 -1.126147188153679 -8.66370581659264 0.0 -0.942172183554304 -8.541436213535901 0.0 -0.769732059243301 -8.41290381032259 0.0 -0.5970321749258041 -8.28581780714544 0.0 -0.448689931217248 -8.16722740418068 0.0 -0.3253420201335503 -8.066691001667271 0.0 -0.22322402558060053 -7.989220599730511 0.0 -0.13690058342251452 -7.94059939851498 0.0 -0.0668363776709094 -9.73282640933785 0.0 -1.2690224580015708 -9.63337276003344 0.0 -1.056702748041776 -9.5091274636698 0.0 -0.8562964044426801 -9.37401105489784 0.0 -0.659741970650458 -9.23575548289328 0.0 -0.49306487167713603 -9.104313325162881 0.0 -0.3529218155056704 -8.98979211350475 0.0 -0.242157208426553 -8.90087041346795 0.0 -0.147198733598389 -8.844313013162878 0.0 -0.069782203738544 -10.76627519577379 0.0 -1.41660003096274 -10.67616323687424 0.0 -1.177681632940456 -10.5516523599159 0.0 -0.9483089472678491 -10.40992425633105 0.0 -0.732659692514475 -10.2585660082514 0.0 -0.54597532929548 -10.111964761333931 0.0 -0.39169403147027565 -9.9815729279826 0.0 -0.2651333420160012 -9.87807978351065 0.0 -0.1617390626495483 -9.81175085805189 0.0 -0.0753524609192762 -11.8696566716421 0.0 -1.568624728486534 -11.79230711816645 0.0 -1.308005016046835 -11.66905613646248 0.0 -1.06045217283195 -11.519942846643678 0.0 -0.8234793230345299 -11.35365145974469 0.0 -0.61789699110421 -11.18884466522212 0.0 -0.448994862749849 -11.038221824088001 0.0 -0.30547678053056404 -10.91774045645437 0.0 -0.1883828876263539 -10.83976898912768 0.0 -0.0892819576743136 -13.038563718019201 0.0 -1.7229642301491201 -12.977914502251538 0.0 -1.4507527100365178 -12.863311041459662 0.0 -1.189262199988542 -12.7049188163798 0.0 -0.941062846118898 -12.52147664729294 0.0 -0.7189453081916001 -12.334004008992 0.0 -0.5332560778387201 -12.15928077524475 0.0 -0.372460766509895 -12.018395538579089 0.0 -0.23562136778936346 -11.926728234608001 0.0 -0.11397498333395202 -14.26766410846218 0.0 -1.9056000898414742 -14.226166684652599 0.0 -1.62780103329269 -14.11621716726429 0.0 -1.3645386883054291 -13.95049249744961 0.0 -1.10925076978788 -13.749208141472002 0.0 -0.8739444531648001 -13.535584557317511 0.0 -0.664477692315516 -13.336184662047701 0.0 -0.47825052471651 -13.1738205496521 0.0 -0.309528672683922 -13.067524907579681 0.0 -0.1519351983798064 -15.533831192828401 0.0 -2.088669309631452 -15.509057718981 0.0 -1.8265079114400449 -15.40599699210987 0.0 -1.5747431182790699 -15.234739371578522 0.0 -1.3312773279301142 -15.01588291121592 0.0 -1.0945494773099278 -14.779468810829549 0.0 -0.863684953452912 -14.554624865275622 0.0 -0.64389779573544 -14.37108436178352 0.0 -0.431727298533174 -14.24995724695242 0.0 -0.2168606190579696 -16.78204802292718 0.0 -2.275247384901883 -16.77322146829264 0.0 -2.0757281606988163 -16.68191028306192 0.0 -1.8540109630271842 -16.50965312397024 0.0 -1.6284979233848 -16.28237604553318 0.0 -1.393082391543889 -16.02769420614336 0.0 -1.1478765464235678 -15.78237269687602 0.0 -0.889159027028628 -15.58053411120884 0.0 -0.6106840530658799 -15.447983070782119 0.0 -0.3114789069989925 -17.92051648394673 0.0 -2.525218015220644 -17.9348789743232 0.0 -2.358251186509543 -17.86624936859304 0.0 -2.192482062298619 -17.69822604514944 0.0 -2.010341909636536 -17.46725628502509 0.0 -1.798221661411894 -17.20161678438016 0.0 -1.5346912566275839 -16.947660511518297 0.0 -1.22919395700663 -16.73812094628608 0.0 -0.863661379289984 -16.60268802394615 0.0 -0.44201750277422 -18.88512010586814 0.0 -2.741607543870015 -18.906622691129883 0.0 -2.656918568317013 -18.85713504947076 0.0 -2.576968919577276 -18.711208446411252 0.0 -2.4528762373603503 -18.50283453185328 0.0 -2.287563744545016 -18.26021615545556 0.0 -2.033236943892266 -18.006871493542402 0.0 -1.642350785300344 -17.8024987867255 0.0 -1.1693121097336199 -17.663591556633403 0.0 -0.609169739252984 -19.66720411968928 0.0 -2.891236362889952 -19.70255095299521 0.0 -2.879247743529358 -19.67928439544132 0.0 -2.91540362966021 -19.57364442519675 0.0 -2.9259122186612503 -19.4058046210592 0.0 -2.8223564460769 -19.177062141429083 0.0 -2.541044337598312 -18.94109153100835 0.0 -2.071955785959565 -18.7560015357015 0.0 -1.4812659026392498 -18.63509133735769 0.0 -0.7718364904403611 -20.3172007682112 0.0 -2.8788423659397298 -20.34238486090485 0.0 -3.00607009740768 -20.31414511534305 0.0 -3.21383953742913 -20.22595370163459 0.0 -3.373323027722907 -20.09091693641865 0.0 -3.342923536724352 -19.88315910278586 0.0 -3.0824142924936964 -19.683216726162843 0.0 -2.60807510900925 -19.5326008255401 0.0 -1.8973422920398353 -19.43677401484725 0.0 -1.00128609251553 -20.49605739452262 0.0 -3.194557625268906 -20.527319579796398 0.0 -3.4947317665092137 -20.463079317043 0.0 -3.863042115144234 -20.44400557573924 0.0 -4.24548797036554 -20.370320729475463 0.0 -4.39136135740211 -20.25828420508462 0.0 -4.1924267086573 -20.1361519193166 0.0 -3.61483076133375 -20.00292645199696 0.0 -2.6579654591233517 -19.914761609933848 0.0 -1.409710542726189 -19.86595735431956 0.0 -4.7010790395758395 -19.95886948001708 0.0 -5.09678747947041 -20.11171156038834 0.0 -5.60802593512981 -20.325276102477133 0.0 -6.07444630296426 -20.41294754866629 0.0 -6.1514044087308495 -20.36427676925156 0.0 -5.761631198916279 -20.26219881824151 0.0 -4.88751722088334 -20.15647463882208 0.0 -3.567484256424192 -20.0704158566 0.0 -1.887462071 -18.87803482393341 0.0 -8.018780873664062 -19.08549822240711 0.0 -8.49056138922888 -19.19448537692928 0.0 -8.77216454109184 -19.13714324929008 0.0 -8.693328920224161 -18.91707395068388 0.0 -8.264432484994 -18.609668232996892 0.0 -7.44032935515779 -18.29135890515021 0.0 -6.16875569895299 -18.01071353063421 0.0 -4.4389875854121605 -17.81517902105142 0.0 -2.328047379134644 -12.52801358944356 0.0 -8.214216360770099 -12.72584027661327 0.0 -8.851588513533 -12.801458822113439 0.0 -9.22232108062773 -12.759001993848669 0.0 -9.22616677632254 -12.62011334993308 0.0 -8.85947919446358 -12.4179284056374 0.0 -8.04402519745482 -12.193873730955 0.0 -6.705722469849 -11.99221201100169 0.0 -4.84183391771989 -11.85272002414038 0.0 -2.544436126012082 -7.24394822862399 0.0 -7.86519320909712 -7.4788626673339005 0.0 -8.7216663330477 -7.6205182987466005 0.0 -9.28425483721762 -7.66974657490236 0.0 -9.440868527811372 -7.64014736119278 0.0 -9.17527805013967 -7.5535644405198 0.0 -8.4021032196476 -7.43814449669356 0.0 -7.04500433535808 -7.32512961756984 0.0 -5.10554419771216 -7.2435848507511 0.0 -2.6883528692152563 -3.340343272051128 0.0 -7.47717921803838 -3.534071771944349 0.0 -8.4820945150258 -3.678883348091446 0.0 -9.184438216999979 -3.77060953069542 0.0 -9.4583946187464 -3.812533999725 0.0 -9.278496867684 -3.813288733373868 0.0 -8.55423779251122 -3.7863910882202734 0.0 -7.20670592848914 -3.749048540827875 0.0 -5.2389807194475 -3.7182426693045 0.0 -2.76342355095096 -0.1018248125508668 0.0 -7.17219956826592 -0.22515641344390838 0.0 -8.23714234896972 -0.3433935377073058 0.0 -9.00792886669962 -0.44824788893358597 0.0 -9.34692035209002 -0.5336496679629571 0.0 -9.22296398986053 -0.5964431536599899 0.0 -8.5416711341832 -0.63719384509719 0.0 -7.22049753269394 -0.660056465984757 0.0 -5.26119616240128 -0.6706289466255061 0.0 -2.7788554129853162 3.10016494350912 0.0 -6.98729049553456 3.0291834143329748 0.0 -8.03280560319118 2.9323955700516398 0.0 -8.80408750854248 2.8203562542143117 0.0 -9.15621173924996 2.704531107558464 0.0 -9.05585808515488 2.596095443328885 0.0 -8.40586547298955 2.503942943274224 0.0 -7.119570286126719 2.4343168333141447 0.0 -5.19523539972216 2.391137173101621 0.0 -2.746467419997609 6.525058173329399 0.0 -6.885843386803499 6.462107063907 0.0 -7.860892571891999 6.360458952284549 0.0 -8.58328310276015 6.23021334856292 0.0 -8.90949940476816 6.084311947156039 0.0 -8.8071344714574 5.93715736877993 0.0 -8.177734913743361 5.8033350763905 0.0 -6.931141734370259 5.69629366821888 0.0 -5.06119069538144 5.62706573174208 0.0 -2.676828867270331 10.0804382730128 0.0 -6.802827438323841 9.9805409170659 0.0 -7.682760428233441 9.844269171251458 0.0 -8.32971374718582 9.679513413630481 0.0 -8.60831793991428 9.49747396327094 0.0 -8.4892795506943 9.312400737144399 0.0 -7.87478956458523 9.14134731099681 0.0 -6.672872894522939 9.002188650625301 0.0 -4.87301245543073 8.91109244488236 0.0 -2.577652276973612 13.51605657360156 0.0 -6.6767482717742395 13.351309308421161 0.0 -7.45612549186008 13.16089701105108 0.0 -8.01963938875568 12.94977948666624 0.0 -8.24377650003392 12.725784651777841 0.0 -8.103653707178399 12.5013898176744 0.0 -7.504291148557601 12.29451319926731 0.0 -6.35409653383065 12.125948188310401 0.0 -4.638945987964 12.0152842352778 0.0 -2.453666555014 16.587162337211996 0.0 -6.4702875138247 16.35266995392819 0.0 -7.154110750599691 16.10414254089665 0.0 -7.636859197993401 15.8434587403043 0.0 -7.8084652443133 15.574802137668351 0.0 -7.649427534232631 15.309320473044599 0.0 -7.06964657716628 15.066228910447 0.0 -5.980103158832001 14.8686757075998 0.0 -4.36401227744454 14.73918902189584 0.0 -2.307875248625808 18.878500362780017 0.0 -6.18701805549526 18.48426217887793 0.0 -6.774369727917111 18.07975164759932 0.0 -7.17306597789852 17.693092426861757 0.0 -7.292667435107149 17.32562770753754 0.0 -7.11775266034031 16.9870500035132 0.0 -6.562760937115761 16.69265742472515 0.0 -5.5436816370864905 16.46369493812986 0.0 -4.042650836148584 16.3183376292096 0.0 -2.1377747505332803 19.428785327691543 0.0 -5.880326506998091 18.960551081171698 0.0 -6.3436979142537 18.51177582495306 0.0 -6.651656092339739 18.09665666353896 0.0 -6.72331880063454 17.707615192390833 0.0 -6.534205431011511 17.35211013556173 0.0 -6.00582301777843 17.04975556978214 0.0 -5.06230168694034 16.817300857159662 0.0 -3.6871626449779744 16.66921010477992 0.0 -1.948573741143855 19.5278247379519 0.0 -5.598760025273 19.04075395699572 0.0 -5.926175507618701 18.582297257584642 0.0 -6.1422587802579205 18.144496214065 0.0 -6.1579303195735 17.739483409286322 0.0 -5.9462659049702395 17.3747898640942 0.0 -5.43753025983492 17.0652206828584 0.0 -4.5661410434822 16.827523896372 0.0 -3.3174890936328563 16.681460993955422 0.0 -1.7528014498201612 19.52452265077568 0.0 -5.37603939866368 19.008535358068638 0.0 -5.59286490857418 18.515557787080198 0.0 -5.714118671483599 18.055851026086142 0.0 -5.65873321079256 17.63204598499696 0.0 -5.4100472315329 17.2502588265357 0.0 -4.91070127979725 16.92323713365017 0.0 -4.1014189213608 16.671140334152522 0.0 -2.967955272051041 16.512277124307598 0.0 -1.5620966075112839 19.491024344499902 0.0 -5.17016395282947 18.93437465275506 0.0 -5.34256729869567 18.40107445490328 0.0 -5.39483098251839 17.89953821132692 0.0 -5.2777030629896 17.443599535967 0.0 -4.9820497214995 17.02907439656393 0.0 -4.4734437970585805 16.6683383119563 0.0 -3.699167294494812 16.387117729676802 0.0 -2.6543054197863603 16.2157397812628 0.0 -1.39009397303557 19.40572683311143 0.0 -4.97488315864162 18.826104425128698 0.0 -5.0779612713046 18.23332375709759 0.0 -5.0826296831617 17.69125665744472 0.0 -4.91990877138144 17.19897145905392 0.0 -4.58124079869582 16.75286580350664 0.0 -4.05863054085251 16.37019253054934 0.0 -3.3234260538122498 16.074983060390952 0.0 -2.372816605971125 15.88484994306515 0.0 -1.23826715947008 19.32003346348796 0.0 -4.78345552569822 18.646120906921748 0.0 -4.8064997420363 18.0149568386052 0.0 -4.769818967554 17.41867971317528 0.0 -4.585471538058759 16.880702966423602 0.0 -4.220290120736 16.40604827162615 0.0 -3.6875878288841912 15.999096798856801 0.0 -2.98473187025216 15.68079417947441 0.0 -2.1089649444895238 15.478321074714001 0.0 -1.09487373121224 19.20651574069452 0.0 -4.44402340651168 18.433270283761477 0.0 -4.513249837274159 17.7142444210839 0.0 -4.4813092710966 17.0890897749762 0.0 -4.2385037670697 16.50626304956221 0.0 -3.864552013752769 15.997318398331743 0.0 -3.33593297224973 15.5659022671063 0.0 -2.66248649466803 15.23122555385583 0.0 -1.860792400099314 15.01797825404294 0.0 -0.957951275724498 19.05325176811274 0.0 -3.992240689979569 18.21634518386183 0.0 -4.12955814366258 17.4179359452769 0.0 -4.10635868993504 16.70888749957374 0.0 -3.946991755596436 16.07614019730296 0.0 -3.545346379125752 15.54526187230078 0.0 -3.018515352121094 15.09738887108376 0.0 -2.3811158868955604 14.75441497368615 0.0 -1.6445081485828597 14.53850969708898 0.0 -0.8422640248641731 18.95008670580245 0.0 -3.518830554357892 17.98021238663497 0.0 -3.6256142053313813 17.11342907336861 0.0 -3.7029953331110113 16.32075218974048 0.0 -3.5468251698151403 15.65127466980528 0.0 -3.234593898041228 15.06100274129046 0.0 -2.7476267141207797 14.603156977006579 0.0 -2.133201024874948 14.25423952395444 0.0 -1.460211335391052 14.03698040482568 0.0 -0.7395289939774761 18.94380822438069 0.0 -3.022201139720304 17.7911278589745 0.0 -3.0709399199499 16.81904399705712 0.0 -3.179406039123888 15.94877631625638 0.0 -3.1546563304168562 15.21408010216752 0.0 -2.880310606554528 14.60859070192884 0.0 -2.461942250990562 14.113949361619499 0.0 -1.918788777000765 13.75388405757201 0.0 -1.310166358533216 13.537259533445102 0.0 -0.66194979772239 19.14357145028394 0.0 -2.5547608182950996 17.7342174561945 0.0 -2.542917520625436 16.60728873999786 0.0 -2.5891718561773858 15.646714851768001 0.0 -2.6425804829424 14.82256694455224 0.0 -2.514763013422968 14.16006503094324 0.0 -2.157514753105572 13.656610840672801 0.0 -1.69681844299968 13.28556431193444 0.0 -1.166916344094252 13.062256660644751 0.0 -0.593534195486685 19.59038480181606 0.0 -2.1524654254033377 17.8686284126292 0.0 -2.05201644449904 16.5215882564938 0.0 -2.028894721895133 15.442752694074722 0.0 -2.047741512003684 14.515141099516049 0.0 -2.039712605043375 13.80114977895678 0.0 -1.8404812532314438 13.246444978958252 0.0 -1.45124486531682 12.867076681215119 0.0 -1.003943124179775 12.643136199759601 0.0 -0.525536768904984 20.49954559524963 0.0 -2.008962444695329 18.32164422773632 0.0 -1.6988438025728358 16.6805394227824 0.0 -1.55987643276584 15.414186327613379 0.0 -1.487150661193744 14.36567685343875 0.0 -1.4952177387069998 13.52312496447305 0.0 -1.429952267762125 12.9075829831375 0.0 -1.19205280616975 12.506640574357158 0.0 -0.838524023268492 12.26609171188912 0.0 -0.432780642535712 22.083504572442237 0.0 -2.107731070212432 19.367609896593837 0.0 -1.700746662489756 17.215352595157498 0.0 -1.299593317609125 15.615289025831249 0.0 -1.0464366759446249 14.40583695613125 0.0 -0.948252767419125 13.431030337348172 0.0 -0.983314951360824 12.72750666702888 0.0 -0.88739731522644 12.24999137903667 0.0 -0.650641913390244 11.98717166766546 0.0 -0.3514617369096348 24.136014272623203 0.0 -2.4485772243904598 21.0402748930868 0.0 -1.8716336708457249 18.3521411133168 0.0 -1.4340565993968 16.306921752914278 0.0 -0.962748829464648 14.817372177808531 0.0 -0.571173411168168 13.64262667920412 0.0 -0.528605117177228 12.77831709708998 0.0 -0.558856557856633 12.21821557432464 0.0 -0.473659981730862 11.89978715851776 0.0 -0.27397612828442564 26.16998120621115 0.0 -2.686750737391875 22.9049204218544 0.0 -2.05165342323648 20.04925598768552 0.0 -1.629149092490785 17.556744352658303 0.0 -1.298004584706331 15.76563555997484 0.0 -0.744071145885088 14.351867755546682 0.0 -0.39239408292113825 13.20575255043967 0.0 -0.3113589301949266 12.48498713748152 0.0 -0.319117869989311 12.04404979297709 0.0 -0.2168186037288109 24.651947668302 0.0 -2.1777257806340002 21.84958786128256 0.0 -1.6996361786256362 19.2295638627742 0.0 -1.3221842888275999 17.05002822650354 0.0 -1.154391149711919 15.3340762480479 0.0 -1.037554365296624 13.857731543341 0.0 -1.034524503320221 12.80685520457469 0.0 -0.829829586809844 12.3191800555502 0.0 -0.420343218084555 20.85700873266536 0.0 -1.302933421273928 18.61992147681172 0.0 -1.062258904821803 16.558166269805 0.0 -1.06787571317425 14.805061666903041 0.0 -1.2954240590736958 13.865158831450401 0.0 -0.979929109954608 13.514885885849852 0.0 -0.461639433424356 18.17186167755369 0.0 -0.9226849389308039 16.5099182422284 0.0 -0.9943525386524601 15.072158566497759 0.0 -1.0916549132018318 14.6214169916403 0.0 -0.53939467412455 -0.22695108167377692 0.0 -7.376134184403351e-08 -0.2271223136780577 0.0 0.0007154935378873381 -0.22760138969003463 0.0 0.001591809119795227 -0.22828608170715192 0.0 0.0027608194290204844 -0.2289821217245529 0.0 0.0043945641098641006 -0.2294241497356036 0.0 0.00658138696453467 -0.2292067577301688 0.0 0.009518790637969761 -0.2278301296957531 0.0 0.01329508593237714 -0.30021863550546574 0.0 1.070036466750911e-08 -0.30050307151257666 0.0 0.0008963981824099541 -0.3013107835327694 0.0 0.0019877909296947723 -0.3025037355625932 0.0 0.0034569353664233825 -0.30383663959591584 0.0 0.0054953121373828 -0.30493856362346394 0.0 0.00827776140694403 -0.3052895636322389 0.0 0.01194824309870607 -0.304181247604531 0.0 0.016763537219088423 -0.3903915497597885 0.0 2.389556419738909e-08 -0.3908186057704649 0.0 0.0009397950234948751 -0.392041929801048 0.0 0.002083011012075274 -0.393881569847039 0.0 0.0036816038920400953 -0.3960294819007368 0.0 0.0058917069472926705 -0.39799252594981294 0.0 0.00900077822501945 -0.3991339779783492 0.0 0.01303596512589912 -0.3985182379629557 0.0 0.018311709657792732 -0.4928133323203331 0.0 -5.88097014702425e-08 -0.49341309233532704 0.0 0.000840229581005739 -0.495135332378383 0.0 0.001912231407805784 -0.49776209244405206 0.0 0.00344807888620197 -0.500909932522748 0.0 0.00567237694180942 -0.5039910525997761 0.0 0.00879502101987552 -0.506178852654471 0.0 0.01301186272529656 -0.506358892658972 0.0 0.01843865726096642 -0.60784721519618 0.0 3.459950326498756e-07 -0.6086503752162591 0.0 0.000653704656342616 -0.61097321527433 0.0 0.001555214678880366 -0.6145620553640511 0.0 0.002912951872823795 -0.618951815473795 0.0 0.005019885725497141 -0.623459335586483 0.0 0.008013577800339441 -0.6270725356768131 0.0 0.01221537110538427 -0.628479055711976 0.0 0.01758087603952189 -0.737420338435508 0.0 -1.405797795144944e-07 -0.7384698584617461 0.0 0.000447894611197365 -0.741523418538085 0.0 0.001128713148217828 -0.746285458657136 0.0 0.0022894880572372 -0.7522284988057121 0.0 0.00416686210417155 -0.7585446589636161 0.0 0.00700149417503735 -0.764084579102114 0.0 0.0109923642748091 -0.7672633391815831 0.0 0.01625582920639572 -0.883789462094736 0.0 -3.862417656560439e-07 -0.885136622128415 0.0 0.0003191754999793873 -0.8890725422268131 0.0 0.000863801901595047 -0.8952587423814681 0.0 0.0018826166470654149 -0.9031088225777201 0.0 0.003587453889686345 -0.9117011427925281 0.0 0.00628741695718542 -0.9197425029935621 0.0 0.01006971785174294 -0.9253743431343581 0.0 0.01517854957946373 -1.049225746230643 0.0 7.012720175318001e-07 -1.050928066273201 0.0 0.0003981798539544961 -1.055915746397893 0.0 0.0010167847454196181 -1.063814186595354 0.0 0.002095073332376832 -1.0739691868492292 0.0 0.003842292456057309 -1.0853645471341131 0.0 0.00658568536464213 -1.096554107413852 0.0 0.01030305945757648 -1.105414987635374 0.0 0.015351388383784699 -1.236072590901814 0.0 1.1141592278539802e-07 -1.2381949909548742 0.0 0.00085167122129178 -1.24442723111068 0.0 0.001916852087921301 -1.25435643135891 0.0 0.003445896606147413 -1.267265271681631 0.0 0.00562622294065557 -1.2820312720507812 0.0 0.008798625419965631 -1.2970636724265912 0.0 0.01282819112070477 -1.309990552749763 0.0 0.01809668125241702 -1.4467586761689661 0.0 -3.623166850579169e-07 -1.4493692762342312 0.0 0.0018489905262247623 -1.457053396426334 0.0 0.003918745457968634 -1.469357996733949 0.0 0.00647715736192893 -1.4855011171375272 0.0 0.00969955664248891 -1.504247717606192 0.0 0.013924336748108411 -1.523843998096099 0.0 0.01894663167366578 -1.541667118541677 0.0 0.025113613027840313 -1.6839823220995571 0.0 -7.16082137902053e-07 -1.6871519621787983 0.0 0.003553483368837082 -1.6965019624125481 0.0 0.007369266584231661 -1.7115354827883862 0.0 0.011705469492636731 -1.731396323284907 0.0 0.01682903202072579 -1.7547415238685369 0.0 0.02298592817464819 -1.779625164490628 0.0 0.03001525195038128 -1.8031704450792603 0.0 0.03815167335379181 -1.950900128772502 0.0 1.908907567722688e-07 -1.954699928867497 0.0 0.0061079349526983705 -1.9659319291482973 0.0 0.0125401723135043 -1.984046409601159 0.0 0.01962691009067274 -2.008099610202489 0.0 0.027715031092875764 -2.036645370916133 0.0 0.036885152122128784 -2.067528211688204 0.0 0.0472574531814363 -2.0976206524405154 0.0 0.058496113462402806 -2.2510313762757828 0.0 1.6726801218170021e-06 -2.2555424163885593 0.0 0.00959300583982514 -2.26886085672152 0.0 0.0196651164916279 -2.290399017259974 0.0 0.03055186036379649 -2.3191391379784774 0.0 0.042630413065760306 -2.353466298836656 0.0 0.0562650294066257 -2.3909935397748368 0.0 0.07141517778537941 -2.428441860711045 0.0 0.0872696541817413 -2.588123784703093 0.0 -5.95034934875873e-07 -2.593415704835391 0.0 0.01406913875172846 -2.6090061852251534 0.0 0.028735608718390204 -2.634335585858388 0.0 0.0444510051112751 -2.668195586704888 0.0 0.0618767175469179 -2.70884766772119 0.0 0.08135824603395611 -2.753798348844957 0.0 0.1025252505631312 -2.799280229982004 0.0 0.12513585512839628 -2.966093314152331 0.0 9.33683463342086e-07 -2.972164434304109 0.0 0.019403282485082052 -2.990257154756427 0.0 0.03978974019474348 -3.019680675492015 0.0 0.061444917536122905 -3.0590439564760974 0.0 0.0853108981327724 -3.106613437665334 0.0 0.1115741507893537 -3.159555318988881 0.0 0.140763883519097 -3.21394928034873 0.0 0.1723954603098864 -3.3889237247230914 0.0 -2.0154668503866704e-06 -3.3958397648959924 0.0 0.02556703743917592 -3.416626045415649 0.0 0.0524419373110484 -3.450293806257343 0.0 0.08080893402022331 -3.495552927388821 0.0 0.11249377881234439 -3.550516608762913 0.0 0.1470292356757308 -3.6119728902993202 0.0 0.18552336063808392 -3.6760388519009695 0.0 0.228106645702666 -3.860645376516132 0.0 7.971390199284751e-07 -3.868533816713343 0.0 0.03230727400768183 -3.892197137304926 0.0 0.06625421365635531 -3.930339138258476 0.0 0.102172602554315 -3.981807819545193 0.0 0.142915883572897 -4.044590901114771 0.0 0.1872491766812293 -4.1151205028780105 0.0 0.23740213393505322 -4.18926970473174 0.0 0.2913516352837907 -4.3854113096352805 0.0 1.776545884413646e-06 -4.39441290986032 0.0 0.03929164218229103 -4.42091771052294 0.0 0.0800602220015055 -4.4640081116002 0.0 0.12475329911883241 -4.52202971305074 0.0 0.1754688083867201 -4.59288651482216 0.0 0.230868845771721 -4.6725961168149 0.0 0.2938999713474991 -4.75719451892986 0.0 0.3612402530310061 -4.967341724183541 0.0 -2.0165095304127373e-06 -4.97750252443756 0.0 0.0461182531529563 -5.00719332517983 0.0 0.0939501303487532 -5.05552932638823 0.0 0.147535483688387 -5.12044092801102 0.0 0.208967525224188 -5.19934492998362 0.0 0.2754300908857521 -5.28838373220959 0.0 0.35319200482979995 -5.383120134578 0.0 0.435704970892624 -5.60998334024958 0.0 -1.9685140092128493e-07 -5.62142774053569 0.0 0.0523965413099135 -5.65467334136683 0.0 0.1069285066732126 -5.70877334271933 0.0 0.169289964232249 -5.78104454452611 0.0 0.24169667404241668 -5.8683281467082 0.0 0.32004188000104683 -5.966693349167331 0.0 0.414411370360284 -6.07161295179032 0.0 0.5155616528890411 -6.31608615790215 0.0 1.117962907949072e-06 -6.32898215822455 0.0 0.057744177443604404 -6.36637455915936 0.0 0.118295002957375 -6.4269533606738305 0.0 0.18883617272090422 -6.506966562674161 0.0 0.2712690427817259 -6.60366056509151 0.0 0.36373058109326434 -6.7113977677849395 0.0 0.47582957189573905 -6.82547457063686 0.0 0.598498254962456 -7.087222577180561 0.0 -2.9553157938828934e-07 -7.101933377548331 0.0 0.06253184156329601 -7.1443001786075 0.0 0.1280239032005975 -7.212564180314101 0.0 0.2066284211657104 -7.3016937825423405 0.0 0.2989640794741018 -7.408674185216851 0.0 0.405831930145798 -7.525941788148541 0.0 0.5366351334158781 -7.6478997911974895 0.0 0.682969937074248 -7.92380099809502 0.0 4.784441719611041e-06 -7.940600198515001 0.0 0.0668367816709195 -7.989217399730431 0.0 0.1369030874225771 -8.066708601667711 0.0 0.22322330958058262 -8.16723340418083 0.0 0.3253436641335914 -8.28581180714529 0.0 0.448690651217266 -8.41288701032217 0.0 0.597033294925832 -8.541434613535861 0.0 0.769737659243441 -8.82544231433104 0.0 5.46085057213832e-06 -8.844313013162878 0.0 0.0697806117366336 -8.9008540134495 0.0 0.1471991775988885 -8.989792913505651 0.0 0.24215842442792102 -9.10431532516528 0.0 0.3529224115063856 -9.235753082890401 0.0 0.49306495167723197 -9.3740086548946 0.0 0.659744250653536 -9.5091306636746 0.0 0.8563004844487999 -9.78920504356607 0.0 2.693857943967223e-06 -9.811755658069531 0.0 0.07535222891842361 -9.87807138347852 0.0 0.1617365586399705 -9.9815749279904 0.0 0.265132054010978 -10.11197876138538 0.0 0.39169386346965823 -10.25856520824828 0.0 0.545976249299068 -10.409937456379561 0.0 0.7326569325043321 -10.551651559912841 0.0 0.948307787263412 -10.81278676263085 0.0 1.885422532976475e-06 -10.83977218915584 0.0 0.08928003365738241 -10.91773805643343 0.0 0.1883803596042971 -11.0382246241118 0.0 0.305476472527946 -11.188850665272671 0.0 0.44899478274917504 -11.35366665987731 0.0 0.617896311098277 -11.51993244655372 0.0 0.8234790430321081 -11.669052536431339 0.0 1.06045477285444 -11.8949183632654 0.0 2.303146326912936e-06 -11.926724234512001 0.0 0.11397419531504001 -12.018391138472499 0.0 0.23562179579973178 -12.15927917520575 0.0 0.3724598584877625 -12.3340048090112 0.0 0.53325783788096 -12.521473847225531 0.0 0.718946868229157 -12.70491721634116 0.0 0.941062686115034 -12.86329904116986 0.0 1.189264800051332 -13.030578829684682 0.0 4.22918605636284e-06 -13.0675221073988 0.0 0.15193527038445762 -13.1738357506363 0.0 0.309529008705678 -13.336179861736898 0.0 0.47825064472428 -13.5355633559464 0.0 0.664478532369843 -13.749224942557282 0.0 0.8739471333379281 -13.9505080984562 0.0 1.109252489898863 -14.11621716726429 0.0 1.364544048650211 -14.20773629138505 0.0 -1.5639774401609848e-06 -14.2499740498815 0.0 0.21686066706633841 -14.37108876255066 0.0 0.431725818275136 -14.55462366506649 0.0 0.6438975156866431 -14.77947201138627 0.0 0.8636841933206909 -15.01590411490896 0.0 1.094551277623488 -15.234749773390982 0.0 1.331275887679158 -15.406002993153718 0.0 1.574743478341701 -15.40219647620328 0.0 -9.487846554382119e-07 -15.44797706799527 0.0 0.31148047972914716 -15.58054771752876 0.0 0.610684893456228 -15.78237549817676 0.0 0.8891582666755701 -16.02770821264496 0.0 1.14787702664648 -16.28236564070264 0.0 1.3930835520826799 -16.50965192341296 0.0 1.62849832357056 -16.68191628584832 0.0 1.8540126838259519 -16.55429541851267 0.0 -3.734257237922393e-07 -16.602672805666252 0.0 0.44201938503515503 -16.73811013330016 0.0 0.8636633015985921 -16.947634480246798 0.0 1.22919059296539 -17.20161558293728 0.0 1.53468849330896 -17.46725628502509 0.0 1.7982227827583301 -17.69822123938008 0.0 2.0103407482422737 -17.86624776666956 0.0 2.192477857249484 -17.61488097350053 0.0 -3.0937294622032427e-06 -17.66358714390816 0.0 0.609168134625624 -17.802474316154598 0.0 1.1693083789744498 -18.00684381372044 0.0 1.6423505847219242 -18.26022217280726 0.0 2.033236181694384 -18.50282049136388 0.0 2.287556844647368 -18.711219277643497 0.0 2.45287639782305 -18.857141467980203 0.0 2.576969681775272 -18.6011929901248 0.0 3.725473734298825e-07 -18.635100592470984 0.0 0.7718361685233771 -18.75601240040052 0.0 1.481265057607104 -18.9410975669509 0.0 2.071958280815819 -19.1770850780159 0.0 2.541044136400182 -19.4057877204188 0.0 2.82235012845656 -19.5735997592352 0.0 2.92590722895023 -19.67927353074878 0.0 2.915404193014638 -19.41833019864795 0.0 4.62963256437315e-06 -19.43677724649405 0.0 1.0012997866188451 -19.5325992097167 0.0 1.8973471395100352 -19.683187237387983 0.0 2.608077977095572 -19.88313890499486 0.0 3.082411222429464 -20.09094198167763 0.0 3.342923173164141 -20.22596784008724 0.0 3.373326097786911 -20.3141358243585 0.0 3.213825681743475 -19.889011116621923 0.0 3.966172406050096e-06 -19.914757152716138 0.0 1.4097099754439348 -20.00291551155268 0.0 2.657964486639416 -20.13615354012388 0.0 3.6148210770102516 -20.25830243916652 0.0 4.1924287346664 -20.370303710992722 0.0 4.39136135740211 -20.44399625609186 0.0 4.24548391834494 -20.46306878178398 0.0 3.8630490441030507 -20.035654733188004 0.0 -7.599680692100001e-06 -20.070422350744003 0.0 1.8874722992768003 -20.1564701740961 0.0 3.5674862046682554 -20.26220977711518 0.0 4.887526556220171 -20.36429828112423 0.0 5.7616389107196895 -20.41295241927993 0.0 6.15140278519297 -20.32527772601621 0.0 6.07444224411656 -20.11174565473422 0.0 5.608004829106171 -17.7455960572632 0.0 4.7612175098252e-06 -17.81516967884564 0.0 2.3280715876331 -18.01073505832738 0.0 4.43900545745932 -18.29135240622173 0.0 6.16875326185481 -18.60968854216339 0.0 7.44032651187448 -18.91706298372992 0.0 8.26442720460876 -19.13715705954064 0.0 8.693320390363521 -19.19448050271744 0.0 8.772158448327039 -11.8029347961096 0.0 -7.879638813851201e-07 -11.85272205564308 0.0 2.5444095945868197 -11.99221282360283 0.0 4.84185504534953 -12.19386601124075 0.0 6.70572775175875 -12.417905652780279 0.0 8.04401503992932 -12.62010116089168 0.0 8.85947756925806 -12.75902190263246 0.0 9.226167588925959 -12.80149295148396 0.0 9.22231701760743 -7.213914968375859 0.0 1.2930044850490678e-06 -7.24357916192138 0.0 2.6883831012817683 -7.32515196654704 0.0 5.10554948019768 -7.4381258048162 0.0 7.04499742749036 -7.553575818193519 0.0 8.402099562538188 -7.64015061195862 0.0 9.17527642475675 -7.66977948894213 0.0 9.4408559310801 -7.620521549519321 0.0 9.28424020874038 -3.706456349783472 0.0 -1.13204342975928e-05 -3.71823958096014 0.0 2.76340416752649 -3.749058984312 0.0 5.23898153217 -3.7864038886034277 0.0 7.2066998330685905 -3.813284872938573 0.0 8.55423779251122 -3.8125211993219996 0.0 9.278480613204 -3.77062428164691 0.0 9.4583755197183 -3.67883994854761 0.0 9.18442643247965 -0.673568058444897 0.0 -5.068349807224439e-06 -0.6706363424805181 0.0 2.778862768203762 -0.660074386719624 0.0 5.26119494330367 -0.6372154637742421 0.0 7.22048412261231 -0.5964148705620299 0.0 8.541674385114 -0.5336342260325371 0.0 9.22295545616214 -0.448279179187966 0.0 9.34691222475122 -0.3433933914150454 0.0 9.00791179926924 2.3765094736372796 0.0 -7.3664147816934e-06 2.391125916987514 0.0 2.74646299069639 2.434322644233974 0.0 5.195243120524729 2.503940992754672 0.0 7.119564597111359 2.596082846216935 0.0 8.405874006517001 2.7045657699572803 0.0 9.05586214874208 2.820337074062904 0.0 9.1561979230392 2.932413612416992 0.0 8.80408669582332 5.603115764685601 0.0 -4.927945881138e-06 5.62705598162472 0.0 2.67683662673873 5.69630829340032 0.0 5.06118135151552 5.8033472640462 0.0 6.9311441719014 5.93714924366973 0.0 8.177732476210299 6.0843111346446 0.0 8.80712756511016 6.2302096922576595 0.0 8.90948843585238 6.360467483670419 0.0 8.58328757158132 8.879335989545 0.0 -2.806227040869e-07 8.911051433585921 0.0 2.577632908272224 9.00218093562723 0.0 4.87301083122061 9.14134406257513 0.0 6.67288060952443 9.31241170057243 0.0 7.87478428589766 9.49749995067702 0.0 8.4892693993638 9.67951666205832 0.0 8.60831306727252 9.84427160757414 0.0 8.32971049875558 11.976642718017 0.0 3.5189130276268597e-06 12.0152858583254 0.0 2.4536580340141 12.12595468050368 0.0 4.63894517643984 12.29451319926731 0.0 6.35409004163497 12.5014101057944 0.0 7.504289525508001 12.725808591766521 0.0 8.103658576328641 12.949830612789121 0.0 8.2437789346112 13.16093109516324 0.0 8.01965318470584 14.69406389476565 0.0 7.578170184085649e-06 14.73921375125436 0.0 2.307873505408732 14.868699220758621 0.0 4.364006196455191 15.066244315628001 0.0 5.98009667244 15.309317229848121 0.0 7.06965265815968 15.574792813475021 0.0 7.64942348023553 15.843474145508099 0.0 7.808464433513099 16.104156324509233 0.0 7.63685595479044 16.26724335038858 0.0 -8.4832088557835e-06 16.31836071323775 0.0 2.1377616290857 16.46366537436575 0.0 4.042647758277252 16.69264811011316 0.0 5.543684876951531 16.987086856991677 0.0 6.56276174708232 17.325638642090148 0.0 7.117751850373449 17.69309526174703 0.0 7.29267512979574 18.079762582164083 0.0 7.17306597789852 16.61813690642044 0.0 9.341033355250081e-06 16.66918542824679 0.0 1.9485806991171313 16.81730368889297 0.0 3.6871626449779744 17.04975556978214 0.0 5.0623037096074395 17.35210851742769 0.0 6.0058234223119396 17.7076520049457 0.0 6.534219185152891 18.09668902623816 0.0 6.72332567770812 18.511778656690293 0.0 6.6516577104753 16.6279901386192 0.0 1.7618086324264798e-06 16.681494935794262 0.0 1.7528122384760783 16.82752228009312 0.0 3.3174921645627284 17.06523482529755 0.0 4.56614023534282 17.37479592514 0.0 5.43752864355604 17.73949270289264 0.0 5.9462675212496 18.1444594437041 0.0 6.1579311277133 18.582309783757122 0.0 6.14224544594528 16.45866682357504 0.0 2.649526137115368e-06 16.51226461240163 0.0 1.562101127941828 16.67116818322941 0.0 2.9679593081491413 16.92324803111666 0.0 4.10142093941015 17.25025115794475 0.0 4.91070612311785 17.63204154528674 0.0 5.41004803875294 18.05585425496702 0.0 5.65872312053981 18.515596533659398 0.0 5.714116653432599 16.15683877552785 0.0 2.065530446326666e-06 16.21577687283012 0.0 1.390079257359405 16.387151595887918 0.0 2.654305782638622 16.66834879435498 0.0 3.699166488156452 17.02903125745846 0.0 4.473444603397001 17.4436007454749 0.0 4.9820448834679 17.8995228908958 0.0 5.27769419326632 18.40105913447102 0.0 5.39483299836474 15.81843173124319 0.0 4.63097251680441e-06 15.8848406795955 0.0 1.238269374647605 16.0749601030966 0.0 2.3728164045913505 16.37022636235406 0.0 3.3234268190554523 16.75290285739628 0.0 4.05863255465086 17.19894809899828 0.0 4.5812363683404405 17.691249005011557 0.0 4.91990957690072 18.233283883890262 0.0 5.0826304886810405 15.408138823203782 0.0 -1.277290864682975e-06 15.478293712248401 0.0 1.09488065230648 15.68078935080509 0.0 2.108967640496561 15.999083117623998 0.0 2.98473512960468 16.4060221163301 0.0 3.6875870241058513 16.8806969305856 0.0 4.2202893159576 17.41871794015213 0.0 4.5854763667295195 18.0149371215344 0.0 4.7698145412728 14.944063891060598 0.0 -2.21074288933723e-06 15.017990315932341 0.0 0.9579546932598281 15.231219522910681 0.0 1.8607916361795949 15.5659219681982 0.0 2.66248649466803 15.99729869724131 0.0 3.335932610392967 16.50625380211298 0.0 3.864551611689759 17.089092991481 0.0 4.2385045711959 17.7142395963267 0.0 4.481310879349 14.46498585751168 0.0 -1.374725794725354e-06 14.538520545228089 0.0 0.842270654282518 14.754430643225101 0.0 1.6445093137537048 15.097370389067601 0.0 2.3811178154537678 15.545249818810179 0.0 3.0185149905163757 16.0761357776904 0.0 3.5453483076839603 16.708895133452828 0.0 3.946986773485872 17.41793313279492 0.0 4.1063582881519 13.963579291686338 0.0 3.750883725061352e-06 14.03698682959272 0.0 0.73952983722815 14.254233500735339 0.0 1.460208082852738 14.603175448211822 0.0 2.133203514472176 15.061011575345141 0.0 2.7476261519536638 15.65127466980528 0.0 3.2345946609822005 16.32075379593224 0.0 3.546828221579484 17.113439915167042 0.0 3.7029922813455274 13.4641769445306 0.0 -2.793855787925634e-06 13.537268363261703 0.0 0.6619533296490301 13.753874826399421 0.0 1.310168846936262 14.113943341287749 0.0 1.9187905028292 14.608563008411071 0.0 2.4619431741078213 15.21407889810144 0.0 2.880310967774352 15.948768690503401 0.0 3.1546570929921542 16.8190331604624 0.0 3.179407363596576 12.989950949215139 0.0 4.008850570900716e-06 13.062255055842149 0.0 0.5935410560177999 13.285573539551459 0.0 1.166922001024686 13.656621673094403 0.0 1.69681615615512 14.160054599723221 0.0 2.1575120650604127 14.822588609388959 0.0 2.5147605259787515 15.646719666177601 0.0 2.64257494637136 16.60730117722452 0.0 2.5891770316684797 12.568194636840179 0.0 2.268112570424298e-07 12.643129381408441 0.0 0.5255325575704439 12.867053819683049 0.0 1.003941399537882 13.2464574124212 0.0 1.4512422984083402 13.801160608104361 0.0 1.840478766538296 14.5151687739981 0.0 2.03970991781106 15.442752694074722 0.0 2.0477388247707657 16.521569806827138 0.0 2.028897970640784 12.18955283471704 0.0 -2.004018575659146e-06 12.26608850399888 0.0 0.43278308855202 12.50663696548064 0.0 0.8385201738002038 12.907576968343749 0.0 1.192054129424375 13.52312977630877 0.0 1.429952147466232 14.36568166527375 0.0 1.495219462947875 15.414184723667898 0.0 1.487150941884203 16.6805458385648 0.0 1.5598727837896 11.92796097152544 0.0 -1.073007279813312e-07 11.98717006400058 0.0 0.3514588703586618 12.250004208354751 0.0 0.650642835497481 12.72751909543356 0.0 0.887396272844112 13.431034747426258 0.0 0.983315552735109 14.40584016346125 0.0 0.948254290900875 15.61528742216625 0.0 1.046436595761375 17.215340166753748 0.0 1.299597888054375 11.7939259840024 0.0 -1.175512430956465e-06 11.89978956370464 0.0 0.2739769380306752 12.218219983834251 0.0 0.473662226572118 12.77831950227704 0.0 0.5588549944850439 13.642620666236471 0.0 0.528609005562975 14.817366164839079 0.0 0.571175215059003 16.306921752914278 0.0 0.9627507536144401 18.352142716774722 0.0 1.4340519894552801 11.951625231882261 0.0 1.648607253283835e-06 12.044036164851269 0.0 0.21681953364798448 12.48498793913586 0.0 0.3191196135875005 13.20575255043967 0.0 0.311357374985507 14.351876974573662 0.0 0.3923932972997086 15.76563555997484 0.0 0.744070264064984 17.55674555514017 0.0 1.298005747105472 20.049271219122538 0.0 1.629153862335536 12.17999686004936 0.0 -3.778008653890768e-07 12.319178452346799 0.0 0.42034377920574495 12.80685520457469 0.0 0.829829586809844 13.85773755535465 0.0 1.034524142599402 15.334088272072501 0.0 1.037552641853098 17.050034238517192 0.0 1.154387422263456 19.2295622595708 0.0 1.32218172370216 21.84959868290713 0.0 1.699635617504362 13.40643934653127 0.0 -5.4705605155926394e-08 13.51489790932575 0.0 0.461639954441645 13.8651648431888 0.0 0.9799288294068161 14.805058460642561 0.0 1.295422055160896 16.558164666675 0.0 1.06787378941825 18.61992468307244 0.0 1.062258504039213 20.85701634753552 0.0 1.3029323792390641 14.496038871246 0.0 -5.4051887433206e-07 14.621415388559901 0.0 0.5393940729694 15.07216497882032 0.0 1.0916546326627201 16.5099182422284 0.0 0.9943550234270802 18.17186007447365 0.0 0.92268197323273 -0.22468357761708932 0.0 0.01792595444814885 -0.21904760147618993 0.0 0.023625651790641283 -0.210442165261054 0.0 0.02990319194757978 -0.19825783295644572 0.0 0.036681331317033265 -0.1822126925553172 0.0 0.0431956250798906 -0.16174412004360292 0.0 0.048927521223188004 -0.13698685542467132 0.0 0.052380157309503905 -0.30083141952078535 0.0 0.02253933456348335 -0.2941766793544168 0.0 0.02953290713832266 -0.2833903870847595 0.0 0.03737959373448982 -0.2677741106943526 0.0 0.0455078971376974 -0.24664574216614343 0.0 0.0529286093232152 -0.2187206814680169 0.0 0.0589418894735472 -0.182779484569487 0.0 0.062080897552022396 -0.13696356342408902 0.0 0.0694893377372334 -0.3950503458762584 0.0 0.024745015018625364 -0.3873978696849465 0.0 0.032285148807128704 -0.3743566133589151 0.0 0.0406402490160062 -0.3548808648720214 0.0 0.0493264972331624 -0.3282024962050622 0.0 0.0570185334254633 -0.2923937393098433 0.0 0.06392853359821331 -0.24625283015632063 0.0 0.06882171772054291 -0.1866610806665269 0.0 0.0756229898905747 -0.5030644125766099 0.0 0.02518482582962063 -0.49468881236722007 0.0 0.03291396002284898 -0.47953949198848705 0.0 0.0416330330408258 -0.456352691408817 0.0 0.0506733132668328 -0.424165770604144 0.0 0.05884948947123721 -0.3807896935197421 0.0 0.06638889365972231 -0.3240924681023115 0.0 0.072141841803546 -0.2483834342095857 0.0 0.080745962018649 -0.625848455646211 0.0 0.02440555461013885 -0.617200215430005 0.0 0.03220391360509782 -0.600422215010555 0.0 0.0410177770254444 -0.573917294347932 0.0 0.050332481258312 -0.536522693413067 0.0 0.0589327574733189 -0.48554073213851806 0.0 0.06715502967887571 -0.41740589043514703 0.0 0.07420900185522501 -0.3231552680788815 0.0 0.0866092701652317 -0.765969859149246 0.0 0.02284869617121739 -0.757689698942242 0.0 0.0306513407662835 -0.739967658499191 0.0 0.03930866818271669 -0.710754857768871 0.0 0.0487169812179245 -0.668685456717136 0.0 0.057501961437549 -0.610208255255206 0.0 0.0665896656647416 -0.52992601324815 0.0 0.07576622989415571 -0.414339450358486 0.0 0.0945045023626125 -0.926178383154459 0.0 0.02146996013674899 -0.9191146229778651 0.0 0.02905175152629377 -0.901334862533371 0.0 0.037269509731737725 -0.870280861757021 0.0 0.046520653163016304 -0.8244655006116369 0.0 0.0551267773781694 -0.758959698973992 0.0 0.0655412936385323 -0.66636121665903 0.0 0.0780975379524384 -0.5269413731735341 0.0 0.1057690186442254 -1.109216707730417 0.0 0.02130988733274717 -1.1043609876090241 0.0 0.0285359927133998 -1.087570707189267 0.0 0.03619337770483442 -1.055871146396778 0.0 0.0450616891265422 -1.0074502251862552 0.0 0.05346374533659361 -0.935678703391967 0.0 0.0661805656545141 -0.831916060797901 0.0 0.0831622140790553 -0.667327936683198 0.0 0.12265453506636331 -1.3177339929433491 0.0 0.023978978999474463 -1.316179112904477 0.0 0.0310256727756418 -1.301576072539401 0.0 0.03836289455907234 -1.270458711761467 0.0 0.047035301175882505 -1.22082483052062 0.0 0.0554987693874692 -1.145357148633928 0.0 0.0697236097430902 -1.0320960258024 0.0 0.0920326263008156 -0.8453071011326772 0.0 0.14289827557245682 -1.554301958857548 0.0 0.031630129590753224 -1.557247118931177 0.0 0.03897228057430699 -1.546221878655546 0.0 0.046520161163004004 -1.5177882379447052 0.0 0.05438559335963981 -1.468283676707091 0.0 0.06364517359112931 -1.3917936747948412 0.0 0.0778127699453192 -1.27407563185189 0.0 0.1025332465633311 -1.077815066945376 0.0 0.1534927398373184 -1.8216324455408102 0.0 0.046414065160351604 -1.830200805755019 0.0 0.055105313377632796 -1.824491365612283 0.0 0.0632339255808481 -1.8003676050091892 0.0 0.0713631177840779 -1.754479843861995 0.0 0.0787774579694364 -1.6818579220464471 0.0 0.0900394462509861 -1.569598319239957 0.0 0.1119677587991939 -1.3803268745081712 0.0 0.1532800718320017 -2.122811373070283 0.0 0.0699794897494872 -2.137925973448148 0.0 0.08179580604489511 -2.139204093480101 0.0 0.091011442275286 -2.122328413058209 0.0 0.0995881944897048 -2.085416652135415 0.0 0.1053647306341182 -2.0217445705436132 0.0 0.1189403549735088 -1.9233292080832292 0.0 0.14995413174885322 -1.73065684326642 0.0 0.2287950577198763 -2.461233581530838 0.0 0.10357842658946059 -2.484209702105241 0.0 0.11967663899191591 -2.493832262345805 0.0 0.13404363535109082 -2.487931302198281 0.0 0.1480187797004694 -2.4665711016642757 0.0 0.1642423681060591 -2.4209816605245402 0.0 0.2099066292476656 -2.346975378674383 0.0 0.3139339518483486 -2.171901174297528 0.0 0.5328365333209131 -2.840675991016898 0.0 0.14828073170701822 -2.872728431818209 0.0 0.1720165403004134 -2.892724112318101 0.0 0.1965332809133319 -2.902524832563119 0.0 0.22504106162602644 -2.9056280726407 0.0 0.2656056946401422 -2.897989352449732 0.0 0.355368288884207 -2.8694327117358163 0.0 0.540242973506074 -2.759867548996687 0.0 0.828608260715206 -3.265010521625261 0.0 0.2044299171107478 -3.307429602685738 0.0 0.2389040299726006 -3.339891123497276 0.0 0.2779650749491267 -3.3687744842193603 0.0 0.32482152812053805 -3.403090365077257 0.0 0.3951747058793674 -3.446554646163864 0.0 0.520218853005471 -3.4880135272003363 0.0 0.7416431785410791 -3.474652966866322 0.0 1.0359162658979062 -3.7377507334437663 0.0 0.27152779878819483 -3.791686334792156 0.0 0.318936687973417 -3.8379727359493163 0.0 0.3727752773193817 -3.887313177182827 0.0 0.438894730972368 -3.9542046588551143 0.0 0.5336380133409501 -4.05190610129765 0.0 0.6779035769475891 -4.17227370430684 0.0 0.908091862702296 -4.26500090662502 0.0 1.208551430213785 -4.26204770655119 0.0 0.3476535166913377 -4.32830210820755 0.0 0.41000785025019604 -4.3889557097238905 0.0 0.478602331965058 -4.45796891144922 0.0 0.5592720139818 -4.55618771390469 0.0 0.667988136699703 -4.70603571765089 0.0 0.8227554605688862 -4.90203972255099 0.0 1.059209466480236 -5.0973281274332 0.0 1.369264154231603 -4.84139092103477 0.0 0.43337305083432603 -4.91957132298928 0.0 0.510859092771477 -4.994054524851361 0.0 0.593090214827255 -5.08237892705947 0.0 0.6841766971044171 -5.21074533026863 0.0 0.802813540070338 -5.410415735260391 0.0 0.961291144032278 -5.67719694192992 0.0 1.205828310145707 -5.9622561490564 0.0 1.5327911583197782 -5.47826053695651 0.0 0.5253042931326071 -5.567438539185961 0.0 0.6185836154645901 -5.65499054137476 0.0 0.7138747378468681 -5.76169734404243 0.0 0.8149103403727581 -5.92103534802588 0.0 0.9401248235031201 -6.172702154317551 0.0 1.0992473874811841 -6.51116496277912 0.0 1.3538072738451812 -6.879291771982291 0.0 1.705619082640476 -6.17594615439865 0.0 0.6230585355764631 -6.27406535685163 0.0 0.734102738352568 -6.37229855930746 0.0 0.8433245810831139 -6.496630162415751 0.0 0.953772663844316 -6.6923861673096505 0.0 1.079526626988165 -6.998334574958361 0.0 1.242987471074686 -7.417774985444369 0.0 1.507728597693214 -7.8784081969602004 0.0 1.886985047174625 -6.93741537343538 0.0 0.72565041814126 -7.04164297604107 0.0 0.857516701437917 -7.147228578680711 0.0 0.98323482458087 -7.28740178218504 0.0 1.104420307610507 -7.5195281879882 0.0 1.232555030813875 -7.88797859719946 0.0 1.3970248749256209 -8.4020882100522 0.0 1.670564681764116 -8.9736522243413 0.0 2.079783491994586 -7.7657417941435405 0.0 0.8321644208041099 -7.872554996813871 0.0 0.9884942247123552 -7.981286199532151 0.0 1.133652908341322 -8.13376260334406 0.0 1.2691216717280411 -8.40223701005592 0.0 1.4032715150817872 -8.84080662102016 0.0 1.56931403923285 -9.46523903663097 0.0 1.8480770462019251 -10.165280254132 0.0 2.29283645732091 -8.663709416592729 0.0 0.942167983554199 -8.76889061922226 0.0 1.126147028153675 -8.87570222189255 0.0 1.293767312344182 -9.03541422588535 0.0 1.4478613161965321 -9.33869583346739 0.0 1.593454799836369 -9.85502504637562 0.0 1.764814404120359 -10.607262665181562 0.0 2.0472536511813404 -11.4621082865527 0.0 2.521380503034511 -9.63336436002336 0.0 1.056706348046096 -9.73282560933683 0.0 1.2690232180025398 -9.83235561108678 0.0 1.4606189613790541 -9.992990690519221 0.0 1.639649893524368 -10.328302019326701 0.0 1.803235188637305 -10.92970835508636 0.0 1.9892217654457582 -11.82904676919158 0.0 2.276930433851936 -12.86804384163408 0.0 2.773941888726272 -10.676161636867999 0.0 1.177683672948412 -10.76628439581036 0.0 1.4165972709517691 -10.851732666096959 0.0 1.634752645088336 -11.007444052208232 0.0 1.8403361232103983 -11.37217973969968 0.0 2.0288544238496318 -12.06468785209912 0.0 2.242167264418228 -13.1337432813056 0.0 2.547251530072496 -14.393064494317631 0.0 3.064341741414514 -11.79231991827621 0.0 1.308001296014936 -11.869653871617878 0.0 1.56862176846093 -11.93528872474735 0.0 1.8114664766222999 -12.07987038400031 0.0 2.048471645493736 -12.47269135871808 0.0 2.26475132963632 -13.263830125908141 0.0 2.52326841532484 -14.52826664762144 0.0 2.8699970957521916 -16.05638728654866 0.0 3.40517165448003 -12.977914502251538 0.0 1.450751310002288 -13.038575718307202 0.0 1.72296863025472 -13.080878733555199 0.0 1.98575361694304 -13.211448648779841 0.0 2.253616583526164 -13.62916073628314 0.0 2.506630973676126 -14.53208938206578 0.0 2.828068287820034 -16.02202451936 0.0 3.25587877921536 -17.8863088611104 0.0 3.8139842934262402 -14.226163884471301 0.0 1.62780143331859 -14.26765490787039 0.0 1.9056023699881353 -14.2840896349208 0.0 2.17638775198289 -14.398636931135869 0.0 2.4672946120056305 -14.8408532830329 0.0 2.7570905500545897 -15.865343634994481 0.0 3.1607922539899684 -17.61772443148144 0.0 3.720388041542712 -19.907265926308 0.0 4.30939516894528 -15.509042516336578 0.0 1.8265042708067758 -15.53380358802462 0.0 2.088659387904876 -15.52450564213296 0.0 2.3606952535267203 -15.61528647986994 0.0 2.688296301203787 -16.09104335872896 0.0 2.997048065440806 -17.2455114870855 0.0 3.5323343564751 -19.293852864180778 0.0 4.28501775629079 -22.10579667229311 0.0 4.91474055630348 -16.77324908111008 0.0 2.075730641850528 -16.782063229987198 0.0 2.275245303935775 -16.7537620909184 0.0 2.523159320339142 -16.847301668042707 0.0 2.801813208251744 -17.33237632310579 0.0 3.2576317296495363 -18.6162085643725 0.0 3.97085773526946 -20.97426681331213 0.0 4.97166825342068 -24.388899564372117 0.0 5.705785686646 -17.93485294306665 0.0 2.358248703528149 -17.92054371663365 0.0 2.525213449740778 -17.88902536261775 0.0 2.665343844656525 -18.01500008249749 0.0 2.9186239670218384 -18.551385304809237 0.0 3.416335047480478 -19.8962857221562 0.0 4.50771524579364 -22.545055429768162 0.0 5.82116479397696 -26.60013502558232 0.0 6.841248954067119 -18.90663793508182 0.0 2.6569166427651894 -18.88509723995163 0.0 2.741607704332587 -18.86239098370077 0.0 2.868609176655999 -19.01102345258007 0.0 3.0791609027030162 -19.68539949646875 0.0 3.6032483388 -21.19604934920298 0.0 4.85701837879671 -23.93395995393036 0.0 6.8984566309017 -28.52580658371756 0.0 8.40726906221076 -19.70258153508589 0.0 2.879255992645923 -19.667231885002238 0.0 2.891234230192 -19.62067700625624 0.0 2.97590226817914 -19.83369009794952 0.0 3.2544748935796948 -20.57966423169066 0.0 3.965253215226354 -22.2373596161451 0.0 5.5155431207535 -25.09176058951293 0.0 8.36590802696451 -29.85544866941212 0.0 10.69133007709728 -20.34236951058255 0.0 3.00606759288141 -20.317197940521297 0.0 2.87885084900943 -20.2788921824688 0.0 2.926575762238728 -20.47506858031941 0.0 3.2230069639449392 -21.25214973505008 0.0 4.16330469437247 -22.9744520634444 0.0 6.181744579948199 -25.788390413315042 0.0 10.28843712901347 -30.60092440225392 0.0 13.6895454866742 -20.527342676334342 0.0 3.4947383307884183 -20.49605091128198 0.0 3.1945581925524618 -20.50623546162856 0.0 3.1273382979993 -20.73372714645414 0.0 3.427381528364976 -21.55439578763682 0.0 4.68549426467544 -23.3973893013318 0.0 6.9110879809455 -25.972155946427883 0.0 11.642898648062161 -30.465083316831358 0.0 17.06708249914824 -19.958883280117618 0.0 5.09679600306192 -19.865980489814717 0.0 4.70108553374992 -19.81581912351891 0.0 4.509552281498551 -20.1568819656585 0.0 4.77846851879952 -21.400175398617478 0.0 5.662966550357099 -23.431681088881728 0.0 7.4902857855072895 -25.1608965407414 0.0 12.702140321841961 -26.517180764039423 0.0 18.6722649012865 -19.08550756465314 0.0 8.49055651501356 -18.87803644867425 0.0 8.018776811811959 -18.5910256660128 0.0 7.5473903761456205 -18.433042614616962 0.0 6.5039431156084 -18.52035218690132 0.0 6.476162088835039 -18.36046112290152 0.0 8.26765716333567 -18.0303083483741 0.0 14.1973297778719 -17.70606176266352 0.0 20.17676859673216 -12.725859779142391 0.0 8.85157916857113 -12.5280282163566 0.0 8.21421798598266 -12.22823068766286 0.0 7.477508239071519 -11.83374694022136 0.0 6.189465503060839 -11.44173213605184 0.0 6.031715365943359 -11.02100554612284 0.0 8.668979685853 -10.63955546103875 0.0 15.36622680495015 -10.34864724614074 0.0 22.13614716198392 -7.4788443817144 0.0 8.7216529235934 -7.24395432383844 0.0 7.86519361544475 -6.934044053679751 0.0 6.913458039920401 -6.5806898325923795 0.0 5.60900427267692 -6.21998726828427 0.0 5.76793332429463 -5.89008257800475 0.0 8.627136235189951 -5.621423032065279 0.0 16.47816337718144 -5.4303865740531 0.0 23.647358000614258 -3.534081443391127 0.0 8.48208151139988 -3.3403429109637948 0.0 7.47718420168753 -3.1117100842447076 0.0 6.420765871879699 -2.8731782022093704 0.0 5.24575128494964 -2.655949674120912 0.0 5.67864386884944 -2.488482596828394 0.0 8.67691651549671 -2.38265370006945 0.0 17.2506754229391 -2.3295131644532128 0.0 24.65302597176222 -0.225137643307836 0.0 8.237133002506638 -0.10181214604409841 0.0 7.1722072892678 0.01680891289507184 0.0 6.169145283289439 0.1163548386568225 0.0 5.17007937498025 0.17864207080030803 0.0 5.636008675450711 0.190308307768056 0.0 8.805067213681799 0.1544189016469836 0.0 17.8826277214782 0.092509022258136 0.0 25.18922961953064 3.0291729302442008 0.0 8.032797882350609 3.100182579564368 0.0 6.98729496550248 3.139007926589184 0.0 6.05265536433792 3.141214167721755 0.0 5.34694177772532 3.10260879139269 0.0 5.8147214549715 3.023453928191356 0.0 9.02521675009581 2.91446033390944 0.0 18.118780992108803 2.799292036171683 0.0 25.316174692761297 6.462124532958 0.0 7.860888509322 6.525058173329399 0.0 6.885842574288239 6.545064267454561 0.0 6.04725186654576 6.523675902125199 0.0 5.533319861247359 6.46563229795 0.0 6.068218368897999 6.37865185162139 0.0 9.13535257072844 6.27360722470032 0.0 17.93735141156128 6.170655604020601 0.0 25.0202351449886 9.98054741393358 0.0 7.68275433741999 10.080439897232319 0.0 6.80282946859824 10.140705150087358 0.0 6.0679836951696 10.16379706774432 0.0 5.70178409973172 10.15592265772372 0.0 6.24970772693736 10.12473944664096 0.0 9.14039492160316 10.07709856685544 0.0 17.51608050524256 10.03007196265022 0.0 24.45021311197096 13.35131093147508 0.0 7.4561246803331205 13.51605657360156 0.0 6.67674746024616 13.652139420040829 0.0 6.03989077990245 13.759344657327121 0.0 5.79419832234672 13.8394241848974 0.0 6.3543105384517 13.894582103707972 0.0 9.04014660081843 13.926307153659039 0.0 16.946407882880003 13.95122665715436 0.0 23.65289981954904 16.352679278141302 0.0 7.154117642409381 16.58719760710335 0.0 6.4702810274079 16.80510673050853 0.0 5.92052887824611 16.94252478857386 0.0 5.6897992318391 17.175483106054198 0.0 6.3970792387308 17.31816995251035 0.0 8.8398246172815 17.4274315252515 0.0 16.325301582087747 17.52067522078893 0.0 22.65938078259645 18.48424678947795 0.0 6.77436689302764 18.87847889860788 0.0 6.1870172455265 19.29680017773124 0.0 5.71171768813149 19.54467158194424 0.0 5.490405271427281 19.89103446018325 0.0 6.337413010352059 20.190056559009342 0.0 8.6315215046039 20.30225558407344 0.0 15.67573323574176 20.45176832544144 0.0 21.54458473512576 18.960576162287758 0.0 6.34369953239022 19.428797868255153 0.0 5.88032084351775 19.98143783482545 0.0 5.5086659164443 20.76635631271104 0.0 5.2059573480456 21.68719682713892 0.0 6.014784975102679 22.271574119282 0.0 8.2771640527695 22.42894795894155 0.0 14.8663655543365 22.59614774603853 0.0 20.27472938646173 19.040732541278302 0.0 5.92618722565276 19.527804938498868 0.0 5.5987640659777 20.0823161538478 0.0 5.3192393739258 20.88274249498179 0.0 5.129324713037961 22.30258768591713 0.0 5.7246108161197995 23.64782822886176 0.0 7.8438679904569595 23.876996088471678 0.0 13.821543718752 24.12234001692337 0.0 18.80243748170706 19.0085135631146 0.0 5.59286248691262 19.5245117532938 0.0 5.376036169780161 20.11211814765977 0.0 5.16447643344729 20.897445611284 0.0 5.0924930768287995 22.22325630910256 0.0 5.4989981801243 24.22008119264616 0.0 7.3717011880011 25.00475908013424 0.0 12.69157467423384 25.45646061688674 0.0 17.25771903834804 18.93440529363782 0.0 5.3425701208822405 19.49104732516197 0.0 5.170166775016041 20.119069652819352 0.0 4.98791709530954 20.89015863632009 0.0 5.00980579853164 22.14435060511192 0.0 5.28616982372664 24.27058444881452 0.0 6.9158972630179605 26.1147505940828 0.0 11.5054542620324 27.121472619707703 0.0 16.00043600805845 18.8260689822751 0.0 5.0779556326688 19.4057256248317 0.0 4.97488074208216 20.04135998827622 0.0 4.94372602024268 20.93440886671684 0.0 4.8426808009756 22.19883439772632 0.0 5.06207732854814 24.417064257067413 0.0 6.44191837458946 27.37328059986097 0.0 10.29968832742867 29.498692861230897 0.0 15.118067031892698 18.64610239701165 0.0 4.8064900846919 19.3200302443722 0.0 4.783457537645571 20.0590960531355 0.0 4.661984954404 20.97510391534798 0.0 4.57175790005419 22.37924919765902 0.0 4.855297134869581 24.77521735640924 0.0 6.01105298398752 28.875833475329003 0.0 9.392985341511 32.83788140828748 0.0 13.44931456435684 18.43322404649808 0.0 4.51324903314784 19.20651574069452 0.0 4.4440282312696 20.029835524378942 0.0 4.27925172706382 21.08776386557984 0.0 4.36720001338401 22.66698917469375 0.0 4.71518188803475 25.54944455569989 0.0 5.6690386689193595 30.455866486466448 0.0 8.40771183056661 36.245461872319794 0.0 10.8672903476774 18.21636487123422 0.0 4.12955774187947 19.053233286089682 0.0 3.992246073873243 20.02047911479081 0.0 3.9094820478347447 21.28899765908391 0.0 4.11585651211721 23.20125138080648 0.0 4.43874130601616 26.5941491678834 0.0 5.382738546642799 32.04175428546102 0.0 7.57991229545172 38.39539715625324 0.0 9.27186947420312 17.9802031510289 0.0 3.6256149682727528 18.95009433521388 0.0 3.518834369063607 20.12088101774456 0.0 3.541090075568954 21.71181362836844 0.0 3.7608735513485776 23.976697306324 0.0 4.1047521513600005 27.861745861908872 0.0 5.10752678829645 33.86350282058409 0.0 6.9829388741505305 17.791120233220948 0.0 3.070934581922415 18.943774510532972 0.0 3.022203788665482 20.40401557378872 0.0 3.1149386634899012 22.317458860365242 0.0 3.3044544576683643 25.095016264946402 0.0 3.6559535350770602 29.64449716581 0.0 4.829072172882361 35.701227972937076 0.0 6.48277877092032 17.73424192944147 0.0 2.542911021172962 19.14357626469426 0.0 2.55476061769467 20.910335511586556 0.0 2.6814344137163877 23.297549239872183 0.0 2.9169893578795203 26.6936244773001 0.0 3.4325082531861724 31.84690268220459 0.0 4.81014487701567 17.868648065529598 0.0 2.0520122331632398 19.59039563096364 0.0 2.152463500221546 21.79193609164443 0.0 2.3920774601982897 24.7822541690409 0.0 2.7601361998495744 28.93339704601065 0.0 3.636238313704665 34.00126076557728 0.0 4.91446944983736 18.32163660899814 0.0 1.698845526813582 20.49952434297202 0.0 2.008969702548626 23.29368678909253 0.0 2.3834448987947128 26.86797461820044 0.0 2.979149581406772 31.352041387010754 0.0 4.071384120009 19.367602279185657 0.0 1.700742092044848 22.0835198072586 0.0 2.107718240893392 25.4462707536849 0.0 2.745236491149918 29.237287622807155 0.0 3.4902482780379778 21.04027328962852 0.0 1.871638441134108 24.1360022466852 0.0 2.44858143346876 27.769592185266568 0.0 3.2483336520152664 30.93759765512043 0.0 3.6397304535218242 22.9049079962112 0.0 2.05165129885232 26.16998120621115 0.0 2.6867505369782 24.65193885068 0.0 2.1777252195126 
TENSORS Ellispoids float
0.01 0.0 0.0 0.0 0.01 0.0 0.0 0.0 0.01 0.01 0.0 0.0 0.0 0.01 0.0 0.0 0.0 0.01 0.01 0.0 0.0 0.0 0.01 0.0 0.0 0.0 0.01 0.01 0.0 0.0 0.0 0.01 0.0 0.0 0.0 0.01 0.01 0.0 0.0 0.0 0.01 0.0 0.0 0.0 0.01 0.01 0.0 0.0 0.0 0.01 0.0 0.0 0.0 0.01 0.01 0.0 0.0 0.0 0.01 0.0 0.0 0.0 0.01 0.01 0.0 0.0 0.0 0.01 0.0 0.0 0.0 0.01 0.01 0.0 0.0 0.0 0.01 0.0 0.0 0.0 0.01 0.01 0.0 0.0 0.0 0.01 0.0 0.0 0.0 0.01 0.01 0.0 0.0 0.0 0.01 0.0 0.0 0.0 0.01 0.01 0.0 0.0 0.0 0.01 0.0 0.0 0.0 0.01 0.01 0.0 0.0 0.0 0.01 0.0 0.0 0.0 0.01 0.01 0.0 0.0 0.0 0.01 0.0 0.0 0.0 0.01 0.01 0.0 0.0 0.0 0.01 0.0 0.0 0.0 0.01 0.01 0.0 0.0 0.0 0.01 0.0 0.0 0.0 0.01 0.01 0.0 0.0 0.0 0.01 0.0 0.0 0.0 0.01 0.01 0.0 0.0 0.0 0.01 0.0 0.0 0.0 0.01 0.01 0.0 0.0 0.0 0.01 0.0 0.0 0.0 0.01 0.01 0.0 0.0 0.0 0.01 0.0 0.0 0.0 0.01 0.01 0.0 0.0 0.0 0.01 0.0 0.0 0.0 0.01 0.01 0.0 0.0 0.0 0.01 0.0 0.0 0.0 0.01 0.01 0.0 0.0 0.0 0.01 0.0 0.0 0.0 0.01 0.01 0.0 0.0 0.0 0.01 0.0 0.0 0.0 0.01 0.01 0.0 0.0 0.0 0.01 0.0 0.0 0.0 0.01 0.01 0.0 0.0 0.0 0.01 0.0 0.0 0.0 0.01 0.01 0.0 0.0 0.0 0.01 0.0 0.0 0.0 0.01 0.01 0.0 0.0 0.0 0.01 0.0 0.0 0.0 0.01 0.01 0.0 0.0 0.0 0.01 0.0 0.0 0.0 0.01 0.01 0.0 0.0 0.0 0.01 0.0 0.0 0.0 0.01 0.01 0.0 0.0 0.0 0.01 0.0 0.0 0.0 0.01 0.01 0.0 0.0 0.0 0.01 0.0 0.0 0.0 0.01 0.01 0.0 0.0 0.0 0.01 0.0 0.0 0.0 0.01 0.01 0.0 0.0 0.0 0.01 0.0 0.0 0.0 0.01 0.01 0.0 0.0 0.0 0.01 0.0 0.0 0.0 0.01 0.01 0.0 0.0 0.0 0.01 0.0 0.0 0.0 0.01 0.01 0.0 0.0 0.0 0.01 0.0 0.0 0.0 0.01 0.01 0.0 0.0 0.0 0.01 0.0 0.0 0.0 0.01 0.01 0.0 0.0 0.0 0.01 0.0 0.0 0.0 0.01 0.01 0.0 0.0 0.0 0.01 0.0 0.0 0.0 0.01 0.01 0.0 0.0 0.0 0.01 0.0 0.0 0.0 0.01 0.01 0.0 0.0 0.0 0.01 0.0 0.0 0.0 0.01 0.01 0.0 0.0 0.0 0.01 0.0 0.0 0.0 0.01 0.01 0.0 0.0 0.0 0.01 0.0 0.0 0.0 0.01 0.01 0.0 0.0 0.0 0.01 0.0 0.0 0.0 0.01 0.01 0.0 0.0 0.0 0.01 0.0 0.0 0.0 0.01 0.01 0.0 0.0 0.0 0.01 0.0 0.0 0.0 0.01 0.01 0.0 0.0 0.0 0.01 0.0 0.0 0.0 0.01 0.01 0.0 0.0 0.0 0.01 0.0 0.0 0.0 0.01 0.01 0.0 0.0 0.0 0.01 0.0 0.0 0.0 0.01 0.01 0.0 0.0 0.0 0.01 0.0 0.0 0.0 0.01 0.01 0.0 0.0 0.0 0.01 0.0 0.0 0.0 0.01 0.01 0.0 0.0 0.0 0.01 0.0 0.0 0.0 0.01 0.01 0.0 0.0 0.0 0.01 0.0 0.0 0.0 0.01 0.01 0.0 0.0 0.0 0.01 0.0 0.0 0.0 0.01 0.01 0.0 0.0 0.0 0.01 0.0 0.0 0.0 0.01 0.01 0.0 0.0 0.0 0.01 0.0 0.0 0.0 0.01 0.01 0.0 0.0 0.0 0.01 0.0 0.0 0.0 0.01 0.01 0.0 0.0 0.0 0.01 0.0 0.0 0.0 0.01 0.01 0.0 0.0 0.0 0.01 0.0 0.0 0.0 0.01 0.01 0.0 0.0 0.0 0.01 0.0 0.0 0.0 0.01 0.01 0.0 0.0 0.0 0.01 0.0 0.0 0.0 0.01 0.01 0.0 0.0 0.0 0.01 0.0 0.0 0.0 0.01 0.01 0.0 0.0 0.0 0.01 0.0 0.0 0.0 0.01 0.01 0.0 0.0 0.0 0.01 0.0 0.0 0.0 0.01 0.01 0.0 0.0 0.0 0.01 0.0 0.0 0.0 0.01 0.01 0.0 0.0 0.0 0.01 0.0 0.0 0.0 0.01 0.01 0.0 0.0 0.0 0.01 0.0 0.0 0.0 0.01 0.01 0.0 0.0 0.0 0.01 0.0 0.0 0.0 0.01 0.01 0.0 0.0 0.0 0.01 0.0 0.0 0.0 0.01 0.01 0.0 0.0 0.0 0.01 0.0 0.0 0.0 0.01 0.01 0.0 0.0 0.0 0.01 0.0 0.0 0.0 0.01 0.01 0.0 0.0 0.0 0.01 0.0 0.0 0.0 0.01 0.01 0.0 0.0 0.0 0.01 0.0 0.0 0.0 0.01 0.01 0.0 0.0 0.0 0.01 0.0 0.0 0.0 0.01 0.01 0.0 0.0 0.0 0.01 0.0 0.0 0.0 0.01 0.01 0.0 0.0 0.0 0.01 0.0 0.0 0.0 0.01 0.01 0.0 0.0 0.0 0.01 0.0 0.0 0.0 0.01 0.01 0.0 0.0 0.0 0.01 0.0 0.0 0.0 0.01 0.01 0.0 0.0 0.0 0.01 0.0 0.0 0.0 0.01 0.01 0.0 0.0 0.0 0.01 0.0 0.0 0.0 0.01 0.01 0.0 0.0 0.0 0.01 0.0 0.0 0.0 0.01 0.01 0.0 0.0 0.0 0.01 0.0 0.0 0.0 0.01 0.01 0.0 0.0 0.0 0.01 0.0 0.0 0.0 0.01 0.01 0.0 0.0 0.0 0.01 0.0 0.0 0.0 0.01 0.01 0.0 0.0 0.0 0.01 0.0 0.0 0.0 0.01 0.01 0.0 0.0 0.0 0.01 0.0 0.0 0.0 0.01 0.01 0.0 0.0 0.0 0.01 0.0 0.0 0.0 0.01 0.01 0.0 0.0 0.0 0.01 0.0 0.0 0.0 0.01 0.01 0.0 0.0 0.0 0.01 0.0 0.0 0.0 0.01 0.01 0.0 0.0 0.0 0.01 0.0 0.0 0.0 0.01 0.01 0.0 0.0 0.0 0.01 0.0 0.0 0.0 0.01 0.01 0.0 0.0 0.0 0.01 0.0 0.0 0.0 0.01 0.01 0.0 0.0 0.0 0.01 0.0 0.0 0.0 0.01 0.01 0.0 0.0 0.0 0.01 0.0 0.0 0.0 0.01 0.01 0.0 0.0 0.0 0.01 0.0 0.0 0.0 0.01 0.01 0.0 0.0 0.0 0.01 0.0 0.0 0.0 0.01 0.01 0.0 0.0 0.0 0.01 0.0 0.0 0.0 0.01 0.01 0.0 0.0 0.0 0.01 0.0 0.0 0.0 0.01 0.01 0.0 0.0 0.0 0.01 0.0 0.0 0.0 0.01 0.01 0.0 0.0 0.0 0.01 0.0 0.0 0.0 0.01 0.01 0.0 0.0 0.0 0.01 0.0 0.0 0.0 0.01 0.01 0.0 0.0 0.0 0.01 0.0 0.0 0.0 0.01 0.01 0.0 0.0 0.0 0.01 0.0 0.0 0.0 0.01 0.01 0.0 0.0 0.0 0.01 0.0 0.0 0.0 0.01 0.01 0.0 0.0 0.0 0.01 0.0 0.0 0.0 0.01 0.01 0.0 0.0 0.0 0.01 0.0 0.0 0.0 0.01 0.01 0.0 0.0 0.0 0.01 0.0 0.0 0.0 0.01 0.01 0.0 0.0 0.0 0.01 0.0 0.0 0.0 0.01 0.01 0.0 0.0 0.0 0.01 0.0 0.0 0.0 0.01 0.01 0.0 0.0 0.0 0.01 0.0 0.0 0.0 0.01 0.01 0.0 0.0 0.0 0.01 0.0 0.0 0.0 0.01 0.01 0.0 0.0 0.0 0.01 0.0 0.0 0.0 0.01 0.01 0.0 0.0 0.0 0.01 0.0 0.0 0.0 0.01 0.01 0.0 0.0 0.0 0.01 0.0 0.0 0.0 0.01 0.01 0.0 0.0 0.0 0.01 0.0 0.0 0.0 0.01 0.01 0.0 0.0 0.0 0.01 0.0 0.0 0.0 0.01 0.01 0.0 0.0 0.0 0.01 0.0 0.0 0.0 0.01 0.01 0.0 0.0 0.0 0.01 0.0 0.0 0.0 0.01 0.01 0.0 0.0 0.0 0.01 0.0 0.0 0.0 0.01 0.01 0.0 0.0 0.0 0.01 0.0 0.0 0.0 0.01 0.01 0.0 0.0 0.0 0.01 0.0 0.0 0.0 0.01 0.01 0.0 0.0 0.0 0.01 0.0 0.0 0.0 0.01 0.01 0.0 0.0 0.0 0.01 0.0 0.0 0.0 0.01 0.01 0.0 0.0 0.0 0.01 0.0 0.0 0.0 0.01 0.01 0.0 0.0 0.0 0.01 0.0 0.0 0.0 0.01 0.01 0.0 0.0 0.0 0.01 0.0 0.0 0.0 0.01 0.01 0.0 0.0 0.0 0.01 0.0 0.0 0.0 0.01 0.01 0.0 0.0 0.0 0.01 0.0 0.0 0.0 0.01 0.01 0.0 0.0 0.0 0.01 0.0 0.0 0.0 0.01 0.01 0.0 0.0 0.0 0.01 0.0 0.0 0.0 0.01 0.01 0.0 0.0 0.0 0.01 0.0 0.0 0.0 0.01 0.01 0.0 0.0 0.0 0.01 0.0 0.0 0.0 0.01 0.01 0.0 0.0 0.0 0.01 0.0 0.0 0.0 0.01 0.01 0.0 0.0 0.0 0.01 0.0 0.0 0.0 0.01 0.01 0.0 0.0 0.0 0.01 0.0 0.0 0.0 0.01 0.01 0.0 0.0 0.0 0.01 0.0 0.0 0.0 0.01 0.01 0.0 0.0 0.0 0.01 0.0 0.0 0.0 0.01 0.01 0.0 0.0 0.0 0.01 0.0 0.0 0.0 0.01 0.01 0.0 0.0 0.0 0.01 0.0 0.0 0.0 0.01 0.01 0.0 0.0 0.0 0.01 0.0 0.0 0.0 0.01 0.01 0.0 0.0 0.0 0.01 0.0 0.0 0.0 0.01 0.01 0.0 0.0 0.0 0.01 0.0 0.0 0.0 0.01 0.01 0.0 0.0 0.0 0.01 0.0 0.0 0.0 0.01 0.01 0.0 0.0 0.0 0.01 0.0 0.0 0.0 0.01 0.01 0.0 0.0 0.0 0.01 0.0 0.0 0.0 0.01 0.01 0.0 0.0 0.0 0.01 0.0 0.0 0.0 0.01 0.01 0.0 0.0 0.0 0.01 0.0 0.0 0.0 0.01 0.01 0.0 0.0 0.0 0.01 0.0 0.0 0.0 0.01 0.01 0.0 0.0 0.0 0.01 0.0 0.0 0.0 0.01 0.01 0.0 0.0 0.0 0.01 0.0 0.0 0.0 0.01 0.01 0.0 0.0 0.0 0.01 0.0 0.0 0.0 0.01 0.01 0.0 0.0 0.0 0.01 0.0 0.0 0.0 0.01 0.01 0.0 0.0 0.0 0.01 0.0 0.0 0.0 0.01 0.01 0.0 0.0 0.0 0.01 0.0 0.0 0.0 0.01 0.01 0.0 0.0 0.0 0.01 0.0 0.0 0.0 0.01 0.01 0.0 0.0 0.0 0.01 0.0 0.0 0.0 0.01 0.01 0.0 0.0 0.0 0.01 0.0 0.0 0.0 0.01 0.01 0.0 0.0 0.0 0.01 0.0 0.0 0.0 0.01 0.01 0.0 0.0 0.0 0.01 0.0 0.0 0.0 0.01 0.01 0.0 0.0 0.0 0.01 0.0 0.0 0.0 0.01 0.01 0.0 0.0 0.0 0.01 0.0 0.0 0.0 0.01 0.01 0.0 0.0 0.0 0.01 0.0 0.0 0.0 0.01 0.01 0.0 0.0 0.0 0.01 0.0 0.0 0.0 0.01 0.01 0.0 0.0 0.0 0.01 0.0 0.0 0.0 0.01 0.01 0.0 0.0 0.0 0.01 0.0 0.0 0.0 0.01 0.01 0.0 0.0 0.0 0.01 0.0 0.0 0.0 0.01 0.01 0.0 0.0 0.0 0.01 0.0 0.0 0.0 0.01 0.01 0.0 0.0 0.0 0.01 0.0 0.0 0.0 0.01 0.01 0.0 0.0 0.0 0.01 0.0 0.0 0.0 0.01 0.01 0.0 0.0 0.0 0.01 0.0 0.0 0.0 0.01 0.01 0.0 0.0 0.0 0.01 0.0 0.0 0.0 0.01 0.01 0.0 0.0 0.0 0.01 0.0 0.0 0.0 0.01 0.01 0.0 0.0 0.0 0.01 0.0 0.0 0.0 0.01 0.01 0.0 0.0 0.0 0.01 0.0 0.0 0.0 0.01 0.01 0.0 0.0 0.0 0.01 0.0 0.0 0.0 0.01 0.01 0.0 0.0 0.0 0.01 0.0 0.0 0.0 0.01 0.01 0.0 0.0 0.0 0.01 0.0 0.0 0.0 0.01 0.01 0.0 0.0 0.0 0.01 0.0 0.0 0.0 0.01 0.01 0.0 0.0 0.0 0.01 0.0 0.0 0.0 0.01 0.01 0.0 0.0 0.0 0.01 0.0 0.0 0.0 0.01 0.01 0.0 0.0 0.0 0.01 0.0 0.0 0.0 0.01 0.01 0.0 0.0 0.0 0.01 0.0 0.0 0.0 0.01 0.01 0.0 0.0 0.0 0.01 0.0 0.0 0.0 0.01 0.01 0.0 0.0 0.0 0.01 0.0 0.0 0.0 0.01 0.01 0.0 0.0 0.0 0.01 0.0 0.0 0.0 0.01 0.01 0.0 0.0 0.0 0.01 0.0 0.0 0.0 0.01 0.01 0.0 0.0 0.0 0.01 0.0 0.0 0.0 0.01 0.01 0.0 0.0 0.0 0.01 0.0 0.0 0.0 0.01 0.01 0.0 0.0 0.0 0.01 0.0 0.0 0.0 0.01 0.01 0.0 0.0 0.0 0.01 0.0 0.0 0.0 0.01 0.01 0.0 0.0 0.0 0.01 0.0 0.0 0.0 0.01 0.01 0.0 0.0 0.0 0.01 0.0 0.0 0.0 0.01 0.01 0.0 0.0 0.0 0.01 0.0 0.0 0.0 0.01 0.01 0.0 0.0 0.0 0.01 0.0 0.0 0.0 0.01 0.01 0.0 0.0 0.0 0.01 0.0 0.0 0.0 0.01 0.01 0.0 0.0 0.0 0.01 0.0 0.0 0.0 0.01 0.01 0.0 0.0 0.0 0.01 0.0 0.0 0.0 0.01 0.01 0.0 0.0 0.0 0.01 0.0 0.0 0.0 0.01 0.01 0.0 0.0 0.0 0.01 0.0 0.0 0.0 0.01 0.01 0.0 0.0 0.0 0.01 0.0 0.0 0.0 0.01 0.01 0.0 0.0 0.0 0.01 0.0 0.0 0.0 0.01 0.01 0.0 0.0 0.0 0.01 0.0 0.0 0.0 0.01 0.01 0.0 0.0 0.0 0.01 0.0 0.0 0.0 0.01 0.01 0.0 0.0 0.0 0.01 0.0 0.0 0.0 0.01 0.01 0.0 0.0 0.0 0.01 0.0 0.0 0.0 0.01 0.01 0.0 0.0 0.0 0.01 0.0 0.0 0.0 0.01 0.01 0.0 0.0 0.0 0.01 0.0 0.0 0.0 0.01 0.01 0.0 0.0 0.0 0.01 0.0 0.0 0.0 0.01 0.01 0.0 0.0 0.0 0.01 0.0 0.0 0.0 0.01 0.01 0.0 0.0 0.0 0.01 0.0 0.0 0.0 0.01 0.01 0.0 0.0 0.0 0.01 0.0 0.0 0.0 0.01 0.01 0.0 0.0 0.0 0.01 0.0 0.0 0.0 0.01 0.01 0.0 0.0 0.0 0.01 0.0 0.0 0.0 0.01 0.01 0.0 0.0 0.0 0.01 0.0 0.0 0.0 0.01 0.01 0.0 0.0 0.0 0.01 0.0 0.0 0.0 0.01 0.01 0.0 0.0 0.0 0.01 0.0 0.0 0.0 0.01 0.01 0.0 0.0 0.0 0.01 0.0 0.0 0.0 0.01 0.01 0.0 0.0 0.0 0.01 0.0 0.0 0.0 0.01 0.01 0.0 0.0 0.0 0.01 0.0 0.0 0.0 0.01 0.01 0.0 0.0 0.0 0.01 0.0 0.0 0.0 0.01 0.01 0.0 0.0 0.0 0.01 0.0 0.0 0.0 0.01 0.01 0.0 0.0 0.0 0.01 0.0 0.0 0.0 0.01 0.01 0.0 0.0 0.0 0.01 0.0 0.0 0.0 0.01 0.01 0.0 0.0 0.0 0.01 0.0 0.0 0.0 0.01 0.01 0.0 0.0 0.0 0.01 0.0 0.0 0.0 0.01 0.01 0.0 0.0 0.0 0.01 0.0 0.0 0.0 0.01 0.01 0.0 0.0 0.0 0.01 0.0 0.0 0.0 0.01 0.01 0.0 0.0 0.0 0.01 0.0 0.0 0.0 0.01 0.01 0.0 0.0 0.0 0.01 0.0 0.0 0.0 0.01 0.01 0.0 0.0 0.0 0.01 0.0 0.0 0.0 0.01 0.01 0.0 0.0 0.0 0.01 0.0 0.0 0.0 0.01 0.01 0.0 0.0 0.0 0.01 0.0 0.0 0.0 0.01 0.01 0.0 0.0 0.0 0.01 0.0 0.0 0.0 0.01 0.01 0.0 0.0 0.0 0.01 0.0 0.0 0.0 0.01 0.01 0.0 0.0 0.0 0.01 0.0 0.0 0.0 0.01 0.01 0.0 0.0 0.0 0.01 0.0 0.0 0.0 0.01 0.01 0.0 0.0 0.0 0.01 0.0 0.0 0.0 0.01 0.01 0.0 0.0 0.0 0.01 0.0 0.0 0.0 0.01 0.01 0.0 0.0 0.0 0.01 0.0 0.0 0.0 0.01 0.01 0.0 0.0 0.0 0.01 0.0 0.0 0.0 0.01 0.01 0.0 0.0 0.0 0.01 0.0 0.0 0.0 0.01 0.01 0.0 0.0 0.0 0.01 0.0 0.0 0.0 0.01 0.01 0.0 0.0 0.0 0.01 0.0 0.0 0.0 0.01 0.01 0.0 0.0 0.0 0.01 0.0 0.0 0.0 0.01 0.01 0.0 0.0 0.0 0.01 0.0 0.0 0.0 0.01 0.01 0.0 0.0 0.0 0.01 0.0 0.0 0.0 0.01 0.01 0.0 0.0 0.0 0.01 0.0 0.0 0.0 0.01 0.01 0.0 0.0 0.0 0.01 0.0 0.0 0.0 0.01 0.01 0.0 0.0 0.0 0.01 0.0 0.0 0.0 0.01 0.01 0.0 0.0 0.0 0.01 0.0 0.0 0.0 0.01 0.01 0.0 0.0 0.0 0.01 0.0 0.0 0.0 0.01 0.01 0.0 0.0 0.0 0.01 0.0 0.0 0.0 0.01 0.01 0.0 0.0 0.0 0.01 0.0 0.0 0.0 0.01 0.01 0.0 0.0 0.0 0.01 0.0 0.0 0.0 0.01 0.01 0.0 0.0 0.0 0.01 0.0 0.0 0.0 0.01 0.01 0.0 0.0 0.0 0.01 0.0 0.0 0.0 0.01 0.01 0.0 0.0 0.0 0.01 0.0 0.0 0.0 0.01 0.01 0.0 0.0 0.0 0.01 0.0 0.0 0.0 0.01 0.01 0.0 0.0 0.0 0.01 0.0 0.0 0.0 0.01 0.01 0.0 0.0 0.0 0.01 0.0 0.0 0.0 0.01 0.01 0.0 0.0 0.0 0.01 0.0 0.0 0.0 0.01 0.01 0.0 0.0 0.0 0.01 0.0 0.0 0.0 0.01 0.01 0.0 0.0 0.0 0.01 0.0 0.0 0.0 0.01 0.01 0.0 0.0 0.0 0.01 0.0 0.0 0.0 0.01 0.01 0.0 0.0 0.0 0.01 0.0 0.0 0.0 0.01 0.01 0.0 0.0 0.0 0.01 0.0 0.0 0.0 0.01 0.01 0.0 0.0 0.0 0.01 0.0 0.0 0.0 0.01 0.01 0.0 0.0 0.0 0.01 0.0 0.0 0.0 0.01 0.01 0.0 0.0 0.0 0.01 0.0 0.0 0.0 0.01 0.01 0.0 0.0 0.0 0.01 0.0 0.0 0.0 0.01 0.01 0.0 0.0 0.0 0.01 0.0 0.0 0.0 0.01 0.01 0.0 0.0 0.0 0.01 0.0 0.0 0.0 0.01 0.01 0.0 0.0 0.0 0.01 0.0 0.0 0.0 0.01 0.01 0.0 0.0 0.0 0.01 0.0 0.0 0.0 0.01 0.01 0.0 0.0 0.0 0.01 0.0 0.0 0.0 0.01 0.01 0.0 0.0 0.0 0.01 0.0 0.0 0.0 0.01 0.01 0.0 0.0 0.0 0.01 0.0 0.0 0.0 0.01 0.01 0.0 0.0 0.0 0.01 0.0 0.0 0.0 0.01 0.01 0.0 0.0 0.0 0.01 0.0 0.0 0.0 0.01 0.01 0.0 0.0 0.0 0.01 0.0 0.0 0.0 0.01 0.01 0.0 0.0 0.0 0.01 0.0 0.0 0.0 0.01 0.01 0.0 0.0 0.0 0.01 0.0 0.0 0.0 0.01 0.01 0.0 0.0 0.0 0.01 0.0 0.0 0.0 0.01 0.01 0.0 0.0 0.0 0.01 0.0 0.0 0.0 0.01 0.01 0.0 0.0 0.0 0.01 0.0 0.0 0.0 0.01 0.01 0.0 0.0 0.0 0.01 0.0 0.0 0.0 0.01 0.01 0.0 0.0 0.0 0.01 0.0 0.0 0.0 0.01 0.01 0.0 0.0 0.0 0.01 0.0 0.0 0.0 0.01 0.01 0.0 0.0 0.0 0.01 0.0 0.0 0.0 0.01 0.01 0.0 0.0 0.0 0.01 0.0 0.0 0.0 0.01 0.01 0.0 0.0 0.0 0.01 0.0 0.0 0.0 0.01 0.01 0.0 0.0 0.0 0.01 0.0 0.0 0.0 0.01 0.01 0.0 0.0 0.0 0.01 0.0 0.0 0.0 0.01 0.01 0.0 0.0 0.0 0.01 0.0 0.0 0.0 0.01 0.01 0.0 0.0 0.0 0.01 0.0 0.0 0.0 0.01 0.01 0.0 0.0 0.0 0.01 0.0 0.0 0.0 0.01 0.01 0.0 0.0 0.0 0.01 0.0 0.0 0.0 0.01 0.01 0.0 0.0 0.0 0.01 0.0 0.0 0.0 0.01 0.01 0.0 0.0 0.0 0.01 0.0 0.0 0.0 0.01 0.01 0.0 0.0 0.0 0.01 0.0 0.0 0.0 0.01 0.01 0.0 0.0 0.0 0.01 0.0 0.0 0.0 0.01 0.01 0.0 0.0 0.0 0.01 0.0 0.0 0.0 0.01 0.01 0.0 0.0 0.0 0.01 0.0 0.0 0.0 0.01 0.01 0.0 0.0 0.0 0.01 0.0 0.0 0.0 0.01 0.01 0.0 0.0 0.0 0.01 0.0 0.0 0.0 0.01 0.01 0.0 0.0 0.0 0.01 0.0 0.0 0.0 0.01 0.01 0.0 0.0 0.0 0.01 0.0 0.0 0.0 0.01 0.01 0.0 0.0 0.0 0.01 0.0 0.0 0.0 0.01 0.01 0.0 0.0 0.0 0.01 0.0 0.0 0.0 0.01 0.01 0.0 0.0 0.0 0.01 0.0 0.0 0.0 0.01 0.01 0.0 0.0 0.0 0.01 0.0 0.0 0.0 0.01 0.01 0.0 0.0 0.0 0.01 0.0 0.0 0.0 0.01 0.01 0.0 0.0 0.0 0.01 0.0 0.0 0.0 0.01 0.01 0.0 0.0 0.0 0.01 0.0 0.0 0.0 0.01 0.01 0.0 0.0 0.0 0.01 0.0 0.0 0.0 0.01 0.01 0.0 0.0 0.0 0.01 0.0 0.0 0.0 0.01 0.01 0.0 0.0 0.0 0.01 0.0 0.0 0.0 0.01 0.01 0.0 0.0 0.0 0.01 0.0 0.0 0.0 0.01 0.01 0.0 0.0 0.0 0.01 0.0 0.0 0.0 0.01 0.01 0.0 0.0 0.0 0.01 0.0 0.0 0.0 0.01 0.01 0.0 0.0 0.0 0.01 0.0 0.0 0.0 0.01 0.01 0.0 0.0 0.0 0.01 0.0 0.0 0.0 0.01 0.01 0.0 0.0 0.0 0.01 0.0 0.0 0.0 0.01 0.01 0.0 0.0 0.0 0.01 0.0 0.0 0.0 0.01 0.01 0.0 0.0 0.0 0.01 0.0 0.0 0.0 0.01 0.01 0.0 0.0 0.0 0.01 0.0 0.0 0.0 0.01 0.01 0.0 0.0 0.0 0.01 0.0 0.0 0.0 0.01 0.01 0.0 0.0 0.0 0.01 0.0 0.0 0.0 0.01 0.01 0.0 0.0 0.0 0.01 0.0 0.0 0.0 0.01 0.01 0.0 0.0 0.0 0.01 0.0 0.0 0.0 0.01 0.01 0.0 0.0 0.0 0.01 0.0 0.0 0.0 0.01 0.01 0.0 0.0 0.0 0.01 0.0 0.0 0.0 0.01 0.01 0.0 0.0 0.0 0.01 0.0 0.0 0.0 0.01 0.01 0.0 0.0 0.0 0.01 0.0 0.0 0.0 0.01 0.01 0.0 0.0 0.0 0.01 0.0 0.0 0.0 0.01 0.01 0.0 0.0 0.0 0.01 0.0 0.0 0.0 0.01 0.01 0.0 0.0 0.0 0.01 0.0 0.0 0.0 0.01 0.01 0.0 0.0 0.0 0.01 0.0 0.0 0.0 0.01 0.01 0.0 0.0 0.0 0.01 0.0 0.0 0.0 0.01 0.01 0.0 0.0 0.0 0.01 0.0 0.0 0.0 0.01 0.01 0.0 0.0 0.0 0.01 0.0 0.0 0.0 0.01 0.01 0.0 0.0 0.0 0.01 0.0 0.0 0.0 0.01 0.01 0.0 0.0 0.0 0.01 0.0 0.0 0.0 0.01 0.01 0.0 0.0 0.0 0.01 0.0 0.0 0.0 0.01 0.01 0.0 0.0 0.0 0.01 0.0 0.0 0.0 0.01 0.01 0.0 0.0 0.0 0.01 0.0 0.0 0.0 0.01 0.01 0.0 0.0 0.0 0.01 0.0 0.0 0.0 0.01 0.01 0.0 0.0 0.0 0.01 0.0 0.0 0.0 0.01 0.01 0.0 0.0 0.0 0.01 0.0 0.0 0.0 0.01 0.01 0.0 0.0 0.0 0.01 0.0 0.0 0.0 0.01 0.01 0.0 0.0 0.0 0.01 0.0 0.0 0.0 0.01 0.01 0.0 0.0 0.0 0.01 0.0 0.0 0.0 0.01 0.01 0.0 0.0 0.0 0.01 0.0 0.0 0.0 0.01 0.01 0.0 0.0 0.0 0.01 0.0 0.0 0.0 0.01 0.01 0.0 0.0 0.0 0.01 0.0 0.0 0.0 0.01 0.01 0.0 0.0 0.0 0.01 0.0 0.0 0.0 0.01 0.01 0.0 0.0 0.0 0.01 0.0 0.0 0.0 0.01 0.01 0.0 0.0 0.0 0.01 0.0 0.0 0.0 0.01 0.01 0.0 0.0 0.0 0.01 0.0 0.0 0.0 0.01 0.01 0.0 0.0 0.0 0.01 0.0 0.0 0.0 0.01 0.01 0.0 0.0 0.0 0.01 0.0 0.0 0.0 0.01 0.01 0.0 0.0 0.0 0.01 0.0 0.0 0.0 0.01 0.01 0.0 0.0 0.0 0.01 0.0 0.0 0.0 0.01 0.01 0.0 0.0 0.0 0.01 0.0 0.0 0.0 0.01 0.01 0.0 0.0 0.0 0.01 0.0 0.0 0.0 0.01 0.01 0.0 0.0 0.0 0.01 0.0 0.0 0.0 0.01 0.01 0.0 0.0 0.0 0.01 0.0 0.0 0.0 0.01 0.01 0.0 0.0 0.0 0.01 0.0 0.0 0.0 0.01 0.01 0.0 0.0 0.0 0.01 0.0 0.0 0.0 0.01 0.01 0.0 0.0 0.0 0.01 0.0 0.0 0.0 0.01 0.01 0.0 0.0 0.0 0.01 0.0 0.0 0.0 0.01 0.01 0.0 0.0 0.0 0.01 0.0 0.0 0.0 0.01 0.01 0.0 0.0 0.0 0.01 0.0 0.0 0.0 0.01 0.01 0.0 0.0 0.0 0.01 0.0 0.0 0.0 0.01 0.01 0.0 0.0 0.0 0.01 0.0 0.0 0.0 0.01 0.01 0.0 0.0 0.0 0.01 0.0 0.0 0.0 0.01 0.01 0.0 0.0 0.0 0.01 0.0 0.0 0.0 0.01 0.01 0.0 0.0 0.0 0.01 0.0 0.0 0.0 0.01 0.01 0.0 0.0 0.0 0.01 0.0 0.0 0.0 0.01 0.01 0.0 0.0 0.0 0.01 0.0 0.0 0.0 0.01 0.01 0.0 0.0 0.0 0.01 0.0 0.0 0.0 0.01 0.01 0.0 0.0 0.0 0.01 0.0 0.0 0.0 0.01 0.01 0.0 0.0 0.0 0.01 0.0 0.0 0.0 0.01 0.01 0.0 0.0 0.0 0.01 0.0 0.0 0.0 0.01 0.01 0.0 0.0 0.0 0.01 0.0 0.0 0.0 0.01 0.01 0.0 0.0 0.0 0.01 0.0 0.0 0.0 0.01 0.01 0.0 0.0 0.0 0.01 0.0 0.0 0.0 0.01 0.01 0.0 0.0 0.0 0.01 0.0 0.0 0.0 0.01 0.01 0.0 0.0 0.0 0.01 0.0 0.0 0.0 0.01 0.01 0.0 0.0 0.0 0.01 0.0 0.0 0.0 0.01 0.01 0.0 0.0 0.0 0.01 0.0 0.0 0.0 0.01 0.01 0.0 0.0 0.0 0.01 0.0 0.0 0.0 0.01 0.01 0.0 0.0 0.0 0.01 0.0 0.0 0.0 0.01 0.01 0.0 0.0 0.0 0.01 0.0 0.0 0.0 0.01 0.01 0.0 0.0 0.0 0.01 0.0 0.0 0.0 0.01 0.01 0.0 0.0 0.0 0.01 0.0 0.0 0.0 0.01 0.01 0.0 0.0 0.0 0.01 0.0 0.0 0.0 0.01 0.01 0.0 0.0 0.0 0.01 0.0 0.0 0.0 0.01 0.01 0.0 0.0 0.0 0.01 0.0 0.0 0.0 0.01 0.01 0.0 0.0 0.0 0.01 0.0 0.0 0.0 0.01 0.01 0.0 0.0 0.0 0.01 0.0 0.0 0.0 0.01 0.01 0.0 0.0 0.0 0.01 0.0 0.0 0.0 0.01 0.01 0.0 0.0 0.0 0.01 0.0 0.0 0.0 0.01 0.01 0.0 0.0 0.0 0.01 0.0 0.0 0.0 0.01 0.01 0.0 0.0 0.0 0.01 0.0 0.0 0.0 0.01 0.01 0.0 0.0 0.0 0.01 0.0 0.0 0.0 0.01 0.01 0.0 0.0 0.0 0.01 0.0 0.0 0.0 0.01 0.01 0.0 0.0 0.0 0.01 0.0 0.0 0.0 0.01 0.01 0.0 0.0 0.0 0.01 0.0 0.0 0.0 0.01 0.01 0.0 0.0 0.0 0.01 0.0 0.0 0.0 0.01 0.01 0.0 0.0 0.0 0.01 0.0 0.0 0.0 0.01 0.01 0.0 0.0 0.0 0.01 0.0 0.0 0.0 0.01 0.01 0.0 0.0 0.0 0.01 0.0 0.0 0.0 0.01 0.01 0.0 0.0 0.0 0.01 0.0 0.0 0.0 0.01 0.01 0.0 0.0 0.0 0.01 0.0 0.0 0.0 0.01 0.01 0.0 0.0 0.0 0.01 0.0 0.0 0.0 0.01 0.01 0.0 0.0 0.0 0.01 0.0 0.0 0.0 0.01 0.01 0.0 0.0 0.0 0.01 0.0 0.0 0.0 0.01 0.01 0.0 0.0 0.0 0.01 0.0 0.0 0.0 0.01 0.01 0.0 0.0 0.0 0.01 0.0 0.0 0.0 0.01 0.01 0.0 0.0 0.0 0.01 0.0 0.0 0.0 0.01 0.01 0.0 0.0 0.0 0.01 0.0 0.0 0.0 0.01 0.01 0.0 0.0 0.0 0.01 0.0 0.0 0.0 0.01 0.01 0.0 0.0 0.0 0.01 0.0 0.0 0.0 0.01 0.01 0.0 0.0 0.0 0.01 0.0 0.0 0.0 0.01 0.01 0.0 0.0 0.0 0.01 0.0 0.0 0.0 0.01 0.01 0.0 0.0 0.0 0.01 0.0 0.0 0.0 0.01 0.01 0.0 0.0 0.0 0.01 0.0 0.0 0.0 0.01 0.01 0.0 0.0 0.0 0.01 0.0 0.0 0.0 0.01 0.01 0.0 0.0 0.0 0.01 0.0 0.0 0.0 0.01 0.01 0.0 0.0 0.0 0.01 0.0 0.0 0.0 0.01 0.01 0.0 0.0 0.0 0.01 0.0 0.0 0.0 0.01 0.01 0.0 0.0 0.0 0.01 0.0 0.0 0.0 0.01 0.01 0.0 0.0 0.0 0.01 0.0 0.0 0.0 0.01 0.01 0.0 0.0 0.0 0.01 0.0 0.0 0.0 0.01 0.01 0.0 0.0 0.0 0.01 0.0 0.0 0.0 0.01 0.01 0.0 0.0 0.0 0.01 0.0 0.0 0.0 0.01 0.01 0.0 0.0 0.0 0.01 0.0 0.0 0.0 0.01 0.01 0.0 0.0 0.0 0.01 0.0 0.0 0.0 0.01 0.01 0.0 0.0 0.0 0.01 0.0 0.0 0.0 0.01 0.01 0.0 0.0 0.0 0.01 0.0 0.0 0.0 0.01 0.01 0.0 0.0 0.0 0.01 0.0 0.0 0.0 0.01 0.01 0.0 0.0 0.0 0.01 0.0 0.0 0.0 0.01 0.01 0.0 0.0 0.0 0.01 0.0 0.0 0.0 0.01 0.01 0.0 0.0 0.0 0.01 0.0 0.0 0.0 0.01 0.01 0.0 0.0 0.0 0.01 0.0 0.0 0.0 0.01 0.01 0.0 0.0 0.0 0.01 0.0 0.0 0.0 0.01 0.01 0.0 0.0 0.0 0.01 0.0 0.0 0.0 0.01 0.01 0.0 0.0 0.0 0.01 0.0 0.0 0.0 0.01 0.01 0.0 0.0 0.0 0.01 0.0 0.0 0.0 0.01 0.01 0.0 0.0 0.0 0.01 0.0 0.0 0.0 0.01 0.01 0.0 0.0 0.0 0.01 0.0 0.0 0.0 0.01 0.01 0.0 0.0 0.0 0.01 0.0 0.0 0.0 0.01 0.01 0.0 0.0 0.0 0.01 0.0 0.0 0.0 0.01 0.01 0.0 0.0 0.0 0.01 0.0 0.0 0.0 0.01 0.01 0.0 0.0 0.0 0.01 0.0 0.0 0.0 0.01 0.01 0.0 0.0 0.0 0.01 0.0 0.0 0.0 0.01 0.01 0.0 0.0 0.0 0.01 0.0 0.0 0.0 0.01 0.01 0.0 0.0 0.0 0.01 0.0 0.0 0.0 0.01 0.01 0.0 0.0 0.0 0.01 0.0 0.0 0.0 0.01 0.01 0.0 0.0 0.0 0.01 0.0 0.0 0.0 0.01 0.01 0.0 0.0 0.0 0.01 0.0 0.0 0.0 0.01 0.01 0.0 0.0 0.0 0.01 0.0 0.0 0.0 0.01 0.01 0.0 0.0 0.0 0.01 0.0 0.0 0.0 0.01 0.01 0.0 0.0 0.0 0.01 0.0 0.0 0.0 0.01 0.01 0.0 0.0 0.0 0.01 0.0 0.0 0.0 0.01 0.01 0.0 0.0 0.0 0.01 0.0 0.0 0.0 0.01 0.01 0.0 0.0 0.0 0.01 0.0 0.0 0.0 0.01 0.01 0.0 0.0 0.0 0.01 0.0 0.0 0.0 0.01 0.01 0.0 0.0 0.0 0.01 0.0 0.0 0.0 0.01 0.01 0.0 0.0 0.0 0.01 0.0 0.0 0.0 0.01 0.01 0.0 0.0 0.0 0.01 0.0 0.0 0.0 0.01 0.01 0.0 0.0 0.0 0.01 0.0 0.0 0.0 0.01 0.01 0.0 0.0 0.0 0.01 0.0 0.0 0.0 0.01 0.01 0.0 0.0 0.0 0.01 0.0 0.0 0.0 0.01 0.01 0.0 0.0 0.0 0.01 0.0 0.0 0.0 0.01 0.01 0.0 0.0 0.0 0.01 0.0 0.0 0.0 0.01 0.01 0.0 0.0 0.0 0.01 0.0 0.0 0.0 0.01 0.01 0.0 0.0 0.0 0.01 0.0 0.0 0.0 0.01 0.01 0.0 0.0 0.0 0.01 0.0 0.0 0.0 0.01 0.01 0.0 0.0 0.0 0.01 0.0 0.0 0.0 0.01 0.01 0.0 0.0 0.0 0.01 0.0 0.0 0.0 0.01 0.01 0.0 0.0 0.0 0.01 0.0 0.0 0.0 0.01 0.01 0.0 0.0 0.0 0.01 0.0 0.0 0.0 0.01 0.01 0.0 0.0 0.0 0.01 0.0 0.0 0.0 0.01 0.01 0.0 0.0 0.0 0.01 0.0 0.0 0.0 0.01 0.01 0.0 0.0 0.0 0.01 0.0 0.0 0.0 0.01 0.01 0.0 0.0 0.0 0.01 0.0 0.0 0.0 0.01 0.01 0.0 0.0 0.0 0.01 0.0 0.0 0.0 0.01 0.01 0.0 0.0 0.0 0.01 0.0 0.0 0.0 0.01 0.01 0.0 0.0 0.0 0.01 0.0 0.0 0.0 0.01 0.01 0.0 0.0 0.0 0.01 0.0 0.0 0.0 0.01 0.01 0.0 0.0 0.0 0.01 0.0 0.0 0.0 0.01 0.01 0.0 0.0 0.0 0.01 0.0 0.0 0.0 0.01 0.01 0.0 0.0 0.0 0.01 0.0 0.0 0.0 0.01 0.01 0.0 0.0 0.0 0.01 0.0 0.0 0.0 0.01 0.01 0.0 0.0 0.0 0.01 0.0 0.0 0.0 0.01 0.01 0.0 0.0 0.0 0.01 0.0 0.0 0.0 0.01 0.01 0.0 0.0 0.0 0.01 0.0 0.0 0.0 0.01 0.01 0.0 0.0 0.0 0.01 0.0 0.0 0.0 0.01 0.01 0.0 0.0 0.0 0.01 0.0 0.0 0.0 0.01 0.01 0.0 0.0 0.0 0.01 0.0 0.0 0.0 0.01 0.01 0.0 0.0 0.0 0.01 0.0 0.0 0.0 0.01 0.01 0.0 0.0 0.0 0.01 0.0 0.0 0.0 0.01 0.01 0.0 0.0 0.0 0.01 0.0 0.0 0.0 0.01 0.01 0.0 0.0 0.0 0.01 0.0 0.0 0.0 0.01 0.01 0.0 0.0 0.0 0.01 0.0 0.0 0.0 0.01 0.01 0.0 0.0 0.0 0.01 0.0 0.0 0.0 0.01 0.01 0.0 0.0 0.0 0.01 0.0 0.0 0.0 0.01 0.01 0.0 0.0 0.0 0.01 0.0 0.0 0.0 0.01 0.01 0.0 0.0 0.0 0.01 0.0 0.0 0.0 0.01 0.01 0.0 0.0 0.0 0.01 0.0 0.0 0.0 0.01 0.01 0.0 0.0 0.0 0.01 0.0 0.0 0.0 0.01 0.01 0.0 0.0 0.0 0.01 0.0 0.0 0.0 0.01 0.01 0.0 0.0 0.0 0.01 0.0 0.0 0.0 0.01 0.01 0.0 0.0 0.0 0.01 0.0 0.0 0.0 0.01 0.01 0.0 0.0 0.0 0.01 0.0 0.0 0.0 0.01 0.01 0.0 0.0 0.0 0.01 0.0 0.0 0.0 0.01 0.01 0.0 0.0 0.0 0.01 0.0 0.0 0.0 0.01 0.01 0.0 0.0 0.0 0.01 0.0 0.0 0.0 0.01 0.01 0.0 0.0 0.0 0.01 0.0 0.0 0.0 0.01 0.01 0.0 0.0 0.0 0.01 0.0 0.0 0.0 0.01 0.01 0.0 0.0 0.0 0.01 0.0 0.0 0.0 0.01 0.01 0.0 0.0 0.0 0.01 0.0 0.0 0.0 0.01 0.01 0.0 0.0 0.0 0.01 0.0 0.0 0.0 0.01 0.01 0.0 0.0 0.0 0.01 0.0 0.0 0.0 0.01 0.01 0.0 0.0 0.0 0.01 0.0 0.0 0.0 0.01 0.01 0.0 0.0 0.0 0.01 0.0 0.0 0.0 0.01 0.01 0.0 0.0 0.0 0.01 0.0 0.0 0.0 0.01 0.01 0.0 0.0 0.0 0.01 0.0 0.0 0.0 0.01 0.01 0.0 0.0 0.0 0.01 0.0 0.0 0.0 0.01 0.01 0.0 0.0 0.0 0.01 0.0 0.0 0.0 0.01 0.01 0.0 0.0 0.0 0.01 0.0 0.0 0.0 0.01 0.01 0.0 0.0 0.0 0.01 0.0 0.0 0.0 0.01 0.01 0.0 0.0 0.0 0.01 0.0 0.0 0.0 0.01 0.01 0.0 0.0 0.0 0.01 0.0 0.0 0.0 0.01 0.01 0.0 0.0 0.0 0.01 0.0 0.0 0.0 0.01 0.01 0.0 0.0 0.0 0.01 0.0 0.0 0.0 0.01 0.01 0.0 0.0 0.0 0.01 0.0 0.0 0.0 0.01 0.01 0.0 0.0 0.0 0.01 0.0 0.0 0.0 0.01 0.01 0.0 0.0 0.0 0.01 0.0 0.0 0.0 0.01 0.01 0.0 0.0 0.0 0.01 0.0 0.0 0.0 0.01 0.01 0.0 0.0 0.0 0.01 0.0 0.0 0.0 0.01 0.01 0.0 0.0 0.0 0.01 0.0 0.0 0.0 0.01 0.01 0.0 0.0 0.0 0.01 0.0 0.0 0.0 0.01 0.01 0.0 0.0 0.0 0.01 0.0 0.0 0.0 0.01 0.01 0.0 0.0 0.0 0.01 0.0 0.0 0.0 0.01 0.01 0.0 0.0 0.0 0.01 0.0 0.0 0.0 0.01 0.01 0.0 0.0 0.0 0.01 0.0 0.0 0.0 0.01 0.01 0.0 0.0 0.0 0.01 0.0 0.0 0.0 0.01 0.01 0.0 0.0 0.0 0.01 0.0 0.0 0.0 0.01 0.01 0.0 0.0 0.0 0.01 0.0 0.0 0.0 0.01 0.01 0.0 0.0 0.0 0.01 0.0 0.0 0.0 0.01 0.01 0.0 0.0 0.0 0.01 0.0 0.0 0.0 0.01 0.01 0.0 0.0 0.0 0.01 0.0 0.0 0.0 0.01 0.01 0.0 0.0 0.0 0.01 0.0 0.0 0.0 0.01 0.01 0.0 0.0 0.0 0.01 0.0 0.0 0.0 0.01 0.01 0.0 0.0 0.0 0.01 0.0 0.0 0.0 0.01 0.01 0.0 0.0 0.0 0.01 0.0 0.0 0.0 0.01 0.01 0.0 0.0 0.0 0.01 0.0 0.0 0.0 0.01 0.01 0.0 0.0 0.0 0.01 0.0 0.0 0.0 0.01 0.01 0.0 0.0 0.0 0.01 0.0 0.0 0.0 0.01 0.01 0.0 0.0 0.0 0.01 0.0 0.0 0.0 0.01 0.01 0.0 0.0 0.0 0.01 0.0 0.0 0.0 0.01 0.01 0.0 0.0 0.0 0.01 0.0 0.0 0.0 0.01 0.01 0.0 0.0 0.0 0.01 0.0 0.0 0.0 0.01 0.01 0.0 0.0 0.0 0.01 0.0 0.0 0.0 0.01 0.01 0.0 0.0 0.0 0.01 0.0 0.0 0.0 0.01 0.01 0.0 0.0 0.0 0.01 0.0 0.0 0.0 0.01 0.01 0.0 0.0 0.0 0.01 0.0 0.0 0.0 0.01 0.01 0.0 0.0 0.0 0.01 0.0 0.0 0.0 0.01 0.01 0.0 0.0 0.0 0.01 0.0 0.0 0.0 0.01 0.01 0.0 0.0 0.0 0.01 0.0 0.0 0.0 0.01 0.01 0.0 0.0 0.0 0.01 0.0 0.0 0.0 0.01 0.01 0.0 0.0 0.0 0.01 0.0 0.0 0.0 0.01 0.01 0.0 0.0 0.0 0.01 0.0 0.0 0.0 0.01 0.01 0.0 0.0 0.0 0.01 0.0 0.0 0.0 0.01 0.01 0.0 0.0 0.0 0.01 0.0 0.0 0.0 0.01 0.01 0.0 0.0 0.0 0.01 0.0 0.0 0.0 0.01 0.01 0.0 0.0 0.0 0.01 0.0 0.0 0.0 0.01 0.01 0.0 0.0 0.0 0.01 0.0 0.0 0.0 0.01 0.01 0.0 0.0 0.0 0.01 0.0 0.0 0.0 0.01 0.01 0.0 0.0 0.0 0.01 0.0 0.0 0.0 0.01 0.01 0.0 0.0 0.0 0.01 0.0 0.0 0.0 0.01 0.01 0.0 0.0 0.0 0.01 0.0 0.0 0.0 0.01 0.01 0.0 0.0 0.0 0.01 0.0 0.0 0.0 0.01 0.01 0.0 0.0 0.0 0.01 0.0 0.0 0.0 0.01 0.01 0.0 0.0 0.0 0.01 0.0 0.0 0.0 0.01 0.01 0.0 0.0 0.0 0.01 0.0 0.0 0.0 0.01 0.01 0.0 0.0 0.0 0.01 0.0 0.0 0.0 0.01 0.01 0.0 0.0 0.0 0.01 0.0 0.0 0.0 0.01 0.01 0.0 0.0 0.0 0.01 0.0 0.0 0.0 0.01 0.01 0.0 0.0 0.0 0.01 0.0 0.0 0.0 0.01 0.01 0.0 0.0 0.0 0.01 0.0 0.0 0.0 0.01 0.01 0.0 0.0 0.0 0.01 0.0 0.0 0.0 0.01 0.01 0.0 0.0 0.0 0.01 0.0 0.0 0.0 0.01 0.01 0.0 0.0 0.0 0.01 0.0 0.0 0.0 0.01 0.01 0.0 0.0 0.0 0.01 0.0 0.0 0.0 0.01 0.01 0.0 0.0 0.0 0.01 0.0 0.0 0.0 0.01 0.01 0.0 0.0 0.0 0.01 0.0 0.0 0.0 0.01 0.01 0.0 0.0 0.0 0.01 0.0 0.0 0.0 0.01 0.01 0.0 0.0 0.0 0.01 0.0 0.0 0.0 0.01 0.01 0.0 0.0 0.0 0.01 0.0 0.0 0.0 0.01 0.01 0.0 0.0 0.0 0.01 0.0 0.0 0.0 0.01 0.01 0.0 0.0 0.0 0.01 0.0 0.0 0.0 0.01 0.01 0.0 0.0 0.0 0.01 0.0 0.0 0.0 0.01 0.01 0.0 0.0 0.0 0.01 0.0 0.0 0.0 0.01 0.01 0.0 0.0 0.0 0.01 0.0 0.0 0.0 0.01 0.01 0.0 0.0 0.0 0.01 0.0 0.0 0.0 0.01 0.01 0.0 0.0 0.0 0.01 0.0 0.0 0.0 0.01 0.01 0.0 0.0 0.0 0.01 0.0 0.0 0.0 0.01 0.01 0.0 0.0 0.0 0.01 0.0 0.0 0.0 0.01 0.01 0.0 0.0 0.0 0.01 0.0 0.0 0.0 0.01 0.01 0.0 0.0 0.0 0.01 0.0 0.0 0.0 0.01 0.01 0.0 0.0 0.0 0.01 0.0 0.0 0.0 0.01 0.01 0.0 0.0 0.0 0.01 0.0 0.0 0.0 0.01 0.01 0.0 0.0 0.0 0.01 0.0 0.0 0.0 0.01 0.01 0.0 0.0 0.0 0.01 0.0 0.0 0.0 0.01 0.01 0.0 0.0 0.0 0.01 0.0 0.0 0.0 0.01 0.01 0.0 0.0 0.0 0.01 0.0 0.0 0.0 0.01 0.01 0.0 0.0 0.0 0.01 0.0 0.0 0.0 0.01 0.01 0.0 0.0 0.0 0.01 0.0 0.0 0.0 0.01 0.01 0.0 0.0 0.0 0.01 0.0 0.0 0.0 0.01 0.01 0.0 0.0 0.0 0.01 0.0 0.0 0.0 0.01 0.01 0.0 0.0 0.0 0.01 0.0 0.0 0.0 0.01 0.01 0.0 0.0 0.0 0.01 0.0 0.0 0.0 0.01 0.01 0.0 0.0 0.0 0.01 0.0 0.0 0.0 0.01 0.01 0.0 0.0 0.0 0.01 0.0 0.0 0.0 0.01 0.01 0.0 0.0 0.0 0.01 0.0 0.0 0.0 0.01 0.01 0.0 0.0 0.0 0.01 0.0 0.0 0.0 0.01 0.01 0.0 0.0 0.0 0.01 0.0 0.0 0.0 0.01 0.01 0.0 0.0 0.0 0.01 0.0 0.0 0.0 0.01 0.01 0.0 0.0 0.0 0.01 0.0 0.0 0.0 0.01 0.01 0.0 0.0 0.0 0.01 0.0 0.0 0.0 0.01 0.01 0.0 0.0 0.0 0.01 0.0 0.0 0.0 0.01 0.01 0.0 0.0 0.0 0.01 0.0 0.0 0.0 0.01 0.01 0.0 0.0 0.0 0.01 0.0 0.0 0.0 0.01 0.01 0.0 0.0 0.0 0.01 0.0 0.0 0.0 0.01 0.01 0.0 0.0 0.0 0.01 0.0 0.0 0.0 0.01 0.01 0.0 0.0 0.0 0.01 0.0 0.0 0.0 0.01 0.01 0.0 0.0 0.0 0.01 0.0 0.0 0.0 0.01 0.01 0.0 0.0 0.0 0.01 0.0 0.0 0.0 0.01 0.01 0.0 0.0 0.0 0.01 0.0 0.0 0.0 0.01 0.01 0.0 0.0 0.0 0.01 0.0 0.0 0.0 0.01 0.01 0.0 0.0 0.0 0.01 0.0 0.0 0.0 0.01 0.01 0.0 0.0 0.0 0.01 0.0 0.0 0.0 0.01 0.01 0.0 0.0 0.0 0.01 0.0 0.0 0.0 0.01 0.01 0.0 0.0 0.0 0.01 0.0 0.0 0.0 0.01 0.01 0.0 0.0 0.0 0.01 0.0 0.0 0.0 0.01 0.01 0.0 0.0 0.0 0.01 0.0 0.0 0.0 0.01 0.01 0.0 0.0 0.0 0.01 0.0 0.0 0.0 0.01 0.01 0.0 0.0 0.0 0.01 0.0 0.0 0.0 0.01 0.01 0.0 0.0 0.0 0.01 0.0 0.0 0.0 0.01 0.01 0.0 0.0 0.0 0.01 0.0 0.0 0.0 0.01 0.01 0.0 0.0 0.0 0.01 0.0 0.0 0.0 0.01 0.01 0.0 0.0 0.0 0.01 0.0 0.0 0.0 0.01 0.01 0.0 0.0 0.0 0.01 0.0 0.0 0.0 0.01 0.01 0.0 0.0 0.0 0.01 0.0 0.0 0.0 0.01 0.01 0.0 0.0 0.0 0.01 0.0 0.0 0.0 0.01 0.01 0.0 0.0 0.0 0.01 0.0 0.0 0.0 0.01 0.01 0.0 0.0 0.0 0.01 0.0 0.0 0.0 0.01 0.01 0.0 0.0 0.0 0.01 0.0 0.0 0.0 0.01 0.01 0.0 0.0 0.0 0.01 0.0 0.0 0.0 0.01 0.01 0.0 0.0 0.0 0.01 0.0 0.0 0.0 0.01 0.01 0.0 0.0 0.0 0.01 0.0 0.0 0.0 0.01 0.01 0.0 0.0 0.0 0.01 0.0 0.0 0.0 0.01 0.01 0.0 0.0 0.0 0.01 0.0 0.0 0.0 0.01 0.01 0.0 0.0 0.0 0.01 0.0 0.0 0.0 0.01 0.01 0.0 0.0 0.0 0.01 0.0 0.0 0.0 0.01 0.01 0.0 0.0 0.0 0.01 0.0 0.0 0.0 0.01 0.01 0.0 0.0 0.0 0.01 0.0 0.0 0.0 0.01 0.01 0.0 0.0 0.0 0.01 0.0 0.0 0.0 0.01 0.01 0.0 0.0 0.0 0.01 0.0 0.0 0.0 0.01 0.01 0.0 0.0 0.0 0.01 0.0 0.0 0.0 0.01 0.01 0.0 0.0 0.0 0.01 0.0 0.0 0.0 0.01 0.01 0.0 0.0 0.0 0.01 0.0 0.0 0.0 0.01 0.01 0.0 0.0 0.0 0.01 0.0 0.0 0.0 0.01 0.01 0.0 0.0 0.0 0.01 0.0 0.0 0.0 0.01 0.01 0.0 0.0 0.0 0.01 0.0 0.0 0.0 0.01 0.01 0.0 0.0 0.0 0.01 0.0 0.0 0.0 0.01 0.01 0.0 0.0 0.0 0.01 0.0 0.0 0.0 0.01 0.01 0.0 0.0 0.0 0.01 0.0 0.0 0.0 0.01 0.01 0.0 0.0 0.0 0.01 0.0 0.0 0.0 0.01 0.01 0.0 0.0 0.0 0.01 0.0 0.0 0.0 0.01 0.01 0.0 0.0 0.0 0.01 0.0 0.0 0.0 0.01 0.01 0.0 0.0 0.0 0.01 0.0 0.0 0.0 0.01 0.01 0.0 0.0 0.0 0.01 0.0 0.0 0.0 0.01 0.01 0.0 0.0 0.0 0.01 0.0 0.0 0.0 0.01 0.01 0.0 0.0 0.0 0.01 0.0 0.0 0.0 0.01 0.01 0.0 0.0 0.0 0.01 0.0 0.0 0.0 0.01 0.01 0.0 0.0 0.0 0.01 0.0 0.0 0.0 0.01 0.01 0.0 0.0 0.0 0.01 0.0 0.0 0.0 0.01 0.01 0.0 0.0 0.0 0.01 0.0 0.0 0.0 0.01 0.01 0.0 0.0 0.0 0.01 0.0 0.0 0.0 0.01 0.01 0.0 0.0 0.0 0.01 0.0 0.0 0.0 0.01 0.01 0.0 0.0 0.0 0.01 0.0 0.0 0.0 0.01 0.01 0.0 0.0 0.0 0.01 0.0 0.0 0.0 0.01 0.01 0.0 0.0 0.0 0.01 0.0 0.0 0.0 0.01 0.01 0.0 0.0 0.0 0.01 0.0 0.0 0.0 0.01 0.01 0.0 0.0 0.0 0.01 0.0 0.0 0.0 0.01 0.01 0.0 0.0 0.0 0.01 0.0 0.0 0.0 0.01 0.01 0.0 0.0 0.0 0.01 0.0 0.0 0.0 0.01 0.01 0.0 0.0 0.0 0.01 0.0 0.0 0.0 0.01 0.01 0.0 0.0 0.0 0.01 0.0 0.0 0.0 0.01 0.01 0.0 0.0 0.0 0.01 0.0 0.0 0.0 0.01 0.01 0.0 0.0 0.0 0.01 0.0 0.0 0.0 0.01 0.01 0.0 0.0 0.0 0.01 0.0 0.0 0.0 0.01 0.01 0.0 0.0 0.0 0.01 0.0 0.0 0.0 0.01 0.01 0.0 0.0 0.0 0.01 0.0 0.0 0.0 0.01 0.01 0.0 0.0 0.0 0.01 0.0 0.0 0.0 0.01 0.01 0.0 0.0 0.0 0.01 0.0 0.0 0.0 0.01 0.01 0.0 0.0 0.0 0.01 0.0 0.0 0.0 0.01 0.01 0.0 0.0 0.0 0.01 0.0 0.0 0.0 0.01 0.01 0.0 0.0 0.0 0.01 0.0 0.0 0.0 0.01 0.01 0.0 0.0 0.0 0.01 0.0 0.0 0.0 0.01 0.01 0.0 0.0 0.0 0.01 0.0 0.0 0.0 0.01 0.01 0.0 0.0 0.0 0.01 0.0 0.0 0.0 0.01 0.01 0.0 0.0 0.0 0.01 0.0 0.0 0.0 0.01 0.01 0.0 0.0 0.0 0.01 0.0 0.0 0.0 0.01 0.01 0.0 0.0 0.0 0.01 0.0 0.0 0.0 0.01 0.01 0.0 0.0 0.0 0.01 0.0 0.0 0.0 0.01 0.01 0.0 0.0 0.0 0.01 0.0 0.0 0.0 0.01 0.01 0.0 0.0 0.0 0.01 0.0 0.0 0.0 0.01 0.01 0.0 0.0 0.0 0.01 0.0 0.0 0.0 0.01 0.01 0.0 0.0 0.0 0.01 0.0 0.0 0.0 0.01 0.01 0.0 0.0 0.0 0.01 0.0 0.0 0.0 0.01 0.01 0.0 0.0 0.0 0.01 0.0 0.0 0.0 0.01 0.01 0.0 0.0 0.0 0.01 0.0 0.0 0.0 0.01 0.01 0.0 0.0 0.0 0.01 0.0 0.0 0.0 0.01 0.01 0.0 0.0 0.0 0.01 0.0 0.0 0.0 0.01 0.01 0.0 0.0 0.0 0.01 0.0 0.0 0.0 0.01 0.01 0.0 0.0 0.0 0.01 0.0 0.0 0.0 0.01 0.01 0.0 0.0 0.0 0.01 0.0 0.0 0.0 0.01 0.01 0.0 0.0 0.0 0.01 0.0 0.0 0.0 0.01 0.01 0.0 0.0 0.0 0.01 0.0 0.0 0.0 0.01 0.01 0.0 0.0 0.0 0.01 0.0 0.0 0.0 0.01 0.01 0.0 0.0 0.0 0.01 0.0 0.0 0.0 0.01 0.01 0.0 0.0 0.0 0.01 0.0 0.0 0.0 0.01 0.01 0.0 0.0 0.0 0.01 0.0 0.0 0.0 0.01 0.01 0.0 0.0 0.0 0.01 0.0 0.0 0.0 0.01 0.01 0.0 0.0 0.0 0.01 0.0 0.0 0.0 0.01 0.01 0.0 0.0 0.0 0.01 0.0 0.0 0.0 0.01 0.01 0.0 0.0 0.0 0.01 0.0 0.0 0.0 0.01 0.01 0.0 0.0 0.0 0.01 0.0 0.0 0.0 0.01 0.01 0.0 0.0 0.0 0.01 0.0 0.0 0.0 0.01 0.01 0.0 0.0 0.0 0.01 0.0 0.0 0.0 0.01 0.01 0.0 0.0 0.0 0.01 0.0 0.0 0.0 0.01 0.01 0.0 0.0 0.0 0.01 0.0 0.0 0.0 0.01 0.01 0.0 0.0 0.0 0.01 0.0 0.0 0.0 0.01 0.01 0.0 0.0 0.0 0.01 0.0 0.0 0.0 0.01 0.01 0.0 0.0 0.0 0.01 0.0 0.0 0.0 0.01 0.01 0.0 0.0 0.0 0.01 0.0 0.0 0.0 0.01 0.01 0.0 0.0 0.0 0.01 0.0 0.0 0.0 0.01 0.01 0.0 0.0 0.0 0.01 0.0 0.0 0.0 0.01 0.01 0.0 0.0 0.0 0.01 0.0 0.0 0.0 0.01 0.01 0.0 0.0 0.0 0.01 0.0 0.0 0.0 0.01 0.01 0.0 0.0 0.0 0.01 0.0 0.0 0.0 0.01 0.01 0.0 0.0 0.0 0.01 0.0 0.0 0.0 0.01 0.01 0.0 0.0 0.0 0.01 0.0 0.0 0.0 0.01 0.01 0.0 0.0 0.0 0.01 0.0 0.0 0.0 0.01 0.01 0.0 0.0 0.0 0.01 0.0 0.0 0.0 0.01 0.01 0.0 0.0 0.0 0.01 0.0 0.0 0.0 0.01 0.01 0.0 0.0 0.0 0.01 0.0 0.0 0.0 0.01 0.01 0.0 0.0 0.0 0.01 0.0 0.0 0.0 0.01 0.01 0.0 0.0 0.0 0.01 0.0 0.0 0.0 0.01 0.01 0.0 0.0 0.0 0.01 0.0 0.0 0.0 0.01 0.01 0.0 0.0 0.0 0.01 0.0 0.0 0.0 0.01 0.01 0.0 0.0 0.0 0.01 0.0 0.0 0.0 0.01 0.01 0.0 0.0 0.0 0.01 0.0 0.0 0.0 0.01 0.01 0.0 0.0 0.0 0.01 0.0 0.0 0.0 0.01 0.01 0.0 0.0 0.0 0.01 0.0 0.0 0.0 0.01 0.01 0.0 0.0 0.0 0.01 0.0 0.0 0.0 0.01 0.01 0.0 0.0 0.0 0.01 0.0 0.0 0.0 0.01 0.01 0.0 0.0 0.0 0.01 0.0 0.0 0.0 0.01 0.01 0.0 0.0 0.0 0.01 0.0 0.0 0.0 0.01 0.01 0.0 0.0 0.0 0.01 0.0 0.0 0.0 0.01 0.01 0.0 0.0 0.0 0.01 0.0 0.0 0.0 0.01 0.01 0.0 0.0 0.0 0.01 0.0 0.0 0.0 0.01 0.01 0.0 0.0 0.0 0.01 0.0 0.0 0.0 0.01 0.01 0.0 0.0 0.0 0.01 0.0 0.0 0.0 0.01 0.01 0.0 0.0 0.0 0.01 0.0 0.0 0.0 0.01 0.01 0.0 0.0 0.0 0.01 0.0 0.0 0.0 0.01 0.01 0.0 0.0 0.0 0.01 0.0 0.0 0.0 0.01 0.01 0.0 0.0 0.0 0.01 0.0 0.0 0.0 0.01 0.01 0.0 0.0 0.0 0.01 0.0 0.0 0.0 0.01 0.01 0.0 0.0 0.0 0.01 0.0 0.0 0.0 0.01 0.01 0.0 0.0 0.0 0.01 0.0 0.0 0.0 0.01 0.01 0.0 0.0 0.0 0.01 0.0 0.0 0.0 0.01 0.01 0.0 0.0 0.0 0.01 0.0 0.0 0.0 0.01 0.01 0.0 0.0 0.0 0.01 0.0 0.0 0.0 0.01 0.01 0.0 0.0 0.0 0.01 0.0 0.0 0.0 0.01 0.01 0.0 0.0 0.0 0.01 0.0 0.0 0.0 0.01 0.01 0.0 0.0 0.0 0.01 0.0 0.0 0.0 0.01 0.01 0.0 0.0 0.0 0.01 0.0 0.0 0.0 0.01 0.01 0.0 0.0 0.0 0.01 0.0 0.0 0.0 0.01 0.01 0.0 0.0 0.0 0.01 0.0 0.0 0.0 0.01 0.01 0.0 0.0 0.0 0.01 0.0 0.0 0.0 0.01 0.01 0.0 0.0 0.0 0.01 0.0 0.0 0.0 0.01 0.01 0.0 0.0 0.0 0.01 0.0 0.0 0.0 0.01 0.01 0.0 0.0 0.0 0.01 0.0 0.0 0.0 0.01 0.01 0.0 0.0 0.0 0.01 0.0 0.0 0.0 0.01 0.01 0.0 0.0 0.0 0.01 0.0 0.0 0.0 0.01 0.01 0.0 0.0 0.0 0.01 0.0 0.0 0.0 0.01 0.01 0.0 0.0 0.0 0.01 0.0 0.0 0.0 0.01 0.01 0.0 0.0 0.0 0.01 0.0 0.0 0.0 0.01 0.01 0.0 0.0 0.0 0.01 0.0 0.0 0.0 0.01 0.01 0.0 0.0 0.0 0.01 0.0 0.0 0.0 0.01 0.01 0.0 0.0 0.0 0.01 0.0 0.0 0.0 0.01 0.01 0.0 0.0 0.0 0.01 0.0 0.0 0.0 0.01 0.01 0.0 0.0 0.0 0.01 0.0 0.0 0.0 0.01 0.01 0.0 0.0 0.0 0.01 0.0 0.0 0.0 0.01 0.01 0.0 0.0 0.0 0.01 0.0 0.0 0.0 0.01 0.01 0.0 0.0 0.0 0.01 0.0 0.0 0.0 0.01 0.01 0.0 0.0 0.0 0.01 0.0 0.0 0.0 0.01 0.01 0.0 0.0 0.0 0.01 0.0 0.0 0.0 0.01 0.01 0.0 0.0 0.0 0.01 0.0 0.0 0.0 0.01 0.01 0.0 0.0 0.0 0.01 0.0 0.0 0.0 0.01 0.01 0.0 0.0 0.0 0.01 0.0 0.0 0.0 0.01 0.01 0.0 0.0 0.0 0.01 0.0 0.0 0.0 0.01 0.01 0.0 0.0 0.0 0.01 0.0 0.0 0.0 0.01 0.01 0.0 0.0 0.0 0.01 0.0 0.0 0.0 0.01 0.01 0.0 0.0 0.0 0.01 0.0 0.0 0.0 0.01 0.01 0.0 0.0 0.0 0.01 0.0 0.0 0.0 0.01 0.01 0.0 0.0 0.0 0.01 0.0 0.0 0.0 0.01 0.01 0.0 0.0 0.0 0.01 0.0 0.0 0.0 0.01 0.01 0.0 0.0 0.0 0.01 0.0 0.0 0.0 0.01 0.01 0.0 0.0 0.0 0.01 0.0 0.0 0.0 0.01 0.01 0.0 0.0 0.0 0.01 0.0 0.0 0.0 0.01 0.01 0.0 0.0 0.0 0.01 0.0 0.0 0.0 0.01 0.01 0.0 0.0 0.0 0.01 0.0 0.0 0.0 0.01 0.01 0.0 0.0 0.0 0.01 0.0 0.0 0.0 0.01 0.01 0.0 0.0 0.0 0.01 0.0 0.0 0.0 0.01 0.01 0.0 0.0 0.0 0.01 0.0 0.0 0.0 0.01 0.01 0.0 0.0 0.0 0.01 0.0 0.0 0.0 0.01 0.01 0.0 0.0 0.0 0.01 0.0 0.0 0.0 0.01 0.01 0.0 0.0 0.0 0.01 0.0 0.0 0.0 0.01 0.01 0.0 0.0 0.0 0.01 0.0 0.0 0.0 0.01 0.01 0.0 0.0 0.0 0.01 0.0 0.0 0.0 0.01 0.01 0.0 0.0 0.0 0.01 0.0 0.0 0.0 0.01 0.01 0.0 0.0 0.0 0.01 0.0 0.0 0.0 0.01 0.01 0.0 0.0 0.0 0.01 0.0 0.0 0.0 0.01 0.01 0.0 0.0 0.0 0.01 0.0 0.0 0.0 0.01 0.01 0.0 0.0 0.0 0.01 0.0 0.0 0.0 0.01 0.01 0.0 0.0 0.0 0.01 0.0 0.0 0.0 0.01 0.01 0.0 0.0 0.0 0.01 0.0 0.0 0.0 0.01 0.01 0.0 0.0 0.0 0.01 0.0 0.0 0.0 0.01 0.01 0.0 0.0 0.0 0.01 0.0 0.0 0.0 0.01 0.01 0.0 0.0 0.0 0.01 0.0 0.0 0.0 0.01 0.01 0.0 0.0 0.0 0.01 0.0 0.0 0.0 0.01 0.01 0.0 0.0 0.0 0.01 0.0 0.0 0.0 0.01 0.01 0.0 0.0 0.0 0.01 0.0 0.0 0.0 0.01 0.01 0.0 0.0 0.0 0.01 0.0 0.0 0.0 0.01 0.01 0.0 0.0 0.0 0.01 0.0 0.0 0.0 0.01 0.01 0.0 0.0 0.0 0.01 0.0 0.0 0.0 0.01 0.01 0.0 0.0 0.0 0.01 0.0 0.0 0.0 0.01 0.01 0.0 0.0 0.0 0.01 0.0 0.0 0.0 0.01 0.01 0.0 0.0 0.0 0.01 0.0 0.0 0.0 0.01 0.01 0.0 0.0 0.0 0.01 0.0 0.0 0.0 0.01 0.01 0.0 0.0 0.0 0.01 0.0 0.0 0.0 0.01 0.01 0.0 0.0 0.0 0.01 0.0 0.0 0.0 0.01 0.01 0.0 0.0 0.0 0.01 0.0 0.0 0.0 0.01 0.01 0.0 0.0 0.0 0.01 0.0 0.0 0.0 0.01 0.01 0.0 0.0 0.0 0.01 0.0 0.0 0.0 0.01 0.01 0.0 0.0 0.0 0.01 0.0 0.0 0.0 0.01 0.01 0.0 0.0 0.0 0.01 0.0 0.0 0.0 0.01 0.01 0.0 0.0 0.0 0.01 0.0 0.0 0.0 0.01 0.01 0.0 0.0 0.0 0.01 0.0 0.0 0.0 0.01 0.01 0.0 0.0 0.0 0.01 0.0 0.0 0.0 0.01 0.01 0.0 0.0 0.0 0.01 0.0 0.0 0.0 0.01 0.01 0.0 0.0 0.0 0.01 0.0 0.0 0.0 0.01 0.01 0.0 0.0 0.0 0.01 0.0 0.0 0.0 0.01 0.01 0.0 0.0 0.0 0.01 0.0 0.0 0.0 0.01 0.01 0.0 0.0 0.0 0.01 0.0 0.0 0.0 0.01 0.01 0.0 0.0 0.0 0.01 0.0 0.0 0.0 0.01 0.01 0.0 0.0 0.0 0.01 0.0 0.0 0.0 0.01 0.01 0.0 0.0 0.0 0.01 0.0 0.0 0.0 0.01 0.01 0.0 0.0 0.0 0.01 0.0 0.0 0.0 0.01 0.01 0.0 0.0 0.0 0.01 0.0 0.0 0.0 0.01 0.01 0.0 0.0 0.0 0.01 0.0 0.0 0.0 0.01 0.01 0.0 0.0 0.0 0.01 0.0 0.0 0.0 0.01 0.01 0.0 0.0 0.0 0.01 0.0 0.0 0.0 0.01 0.01 0.0 0.0 0.0 0.01 0.0 0.0 0.0 0.01 0.01 0.0 0.0 0.0 0.01 0.0 0.0 0.0 0.01 0.01 0.0 0.0 0.0 0.01 0.0 0.0 0.0 0.01 0.01 0.0 0.0 0.0 0.01 0.0 0.0 0.0 0.01 0.01 0.0 0.0 0.0 0.01 0.0 0.0 0.0 0.01 0.01 0.0 0.0 0.0 0.01 0.0 0.0 0.0 0.01 0.01 0.0 0.0 0.0 0.01 0.0 0.0 0.0 0.01 0.01 0.0 0.0 0.0 0.01 0.0 0.0 0.0 0.01 0.01 0.0 0.0 0.0 0.01 0.0 0.0 0.0 0.01 0.01 0.0 0.0 0.0 0.01 0.0 0.0 0.0 0.01 0.01 0.0 0.0 0.0 0.01 0.0 0.0 0.0 0.01 0.01 0.0 0.0 0.0 0.01 0.0 0.0 0.0 0.01 0.01 0.0 0.0 0.0 0.01 0.0 0.0 0.0 0.01 0.01 0.0 0.0 0.0 0.01 0.0 0.0 0.0 0.01 0.01 0.0 0.0 0.0 0.01 0.0 0.0 0.0 0.01 0.01 0.0 0.0 0.0 0.01 0.0 0.0 0.0 0.01 0.01 0.0 0.0 0.0 0.01 0.0 0.0 0.0 0.01 0.01 0.0 0.0 0.0 0.01 0.0 0.0 0.0 0.01 0.01 0.0 0.0 0.0 0.01 0.0 0.0 0.0 0.01 0.01 0.0 0.0 0.0 0.01 0.0 0.0 0.0 0.01 0.01 0.0 0.0 0.0 0.01 0.0 0.0 0.0 0.01 0.01 0.0 0.0 0.0 0.01 0.0 0.0 0.0 0.01 0.01 0.0 0.0 0.0 0.01 0.0 0.0 0.0 0.01 0.01 0.0 0.0 0.0 0.01 0.0 0.0 0.0 0.01 0.01 0.0 0.0 0.0 0.01 0.0 0.0 0.0 0.01 0.01 0.0 0.0 0.0 0.01 0.0 0.0 0.0 0.01 0.01 0.0 0.0 0.0 0.01 0.0 0.0 0.0 0.01 0.01 0.0 0.0 0.0 0.01 0.0 0.0 0.0 0.01 0.01 0.0 0.0 0.0 0.01 0.0 0.0 0.0 0.01 0.01 0.0 0.0 0.0 0.01 0.0 0.0 0.0 0.01 0.01 0.0 0.0 0.0 0.01 0.0 0.0 0.0 0.01 0.01 0.0 0.0 0.0 0.01 0.0 0.0 0.0 0.01 0.01 0.0 0.0 0.0 0.01 0.0 0.0 0.0 0.01 0.01 0.0 0.0 0.0 0.01 0.0 0.0 0.0 0.01 0.01 0.0 0.0 0.0 0.01 0.0 0.0 0.0 0.01 0.01 0.0 0.0 0.0 0.01 0.0 0.0 0.0 0.01 0.01 0.0 0.0 0.0 0.01 0.0 0.0 0.0 0.01 0.01 0.0 0.0 0.0 0.01 0.0 0.0 0.0 0.01 0.01 0.0 0.0 0.0 0.01 0.0 0.0 0.0 0.01 0.01 0.0 0.0 0.0 0.01 0.0 0.0 0.0 0.01 0.01 0.0 0.0 0.0 0.01 0.0 0.0 0.0 0.01 0.01 0.0 0.0 0.0 0.01 0.0 0.0 0.0 0.01 0.01 0.0 0.0 0.0 0.01 0.0 0.0 0.0 0.01 0.01 0.0 0.0 0.0 0.01 0.0 0.0 0.0 0.01 0.01 0.0 0.0 0.0 0.01 0.0 0.0 0.0 0.01 0.01 0.0 0.0 0.0 0.01 0.0 0.0 0.0 0.01 0.01 0.0 0.0 0.0 0.01 0.0 0.0 0.0 0.01 0.01 0.0 0.0 0.0 0.01 0.0 0.0 0.0 0.01 0.01 0.0 0.0 0.0 0.01 0.0 0.0 0.0 0.01 0.01 0.0 0.0 0.0 0.01 0.0 0.0 0.0 0.01 0.01 0.0 0.0 0.0 0.01 0.0 0.0 0.0 0.01 0.01 0.0 0.0 0.0 0.01 0.0 0.0 0.0 0.01 0.01 0.0 0.0 0.0 0.01 0.0 0.0 0.0 0.01 0.01 0.0 0.0 0.0 0.01 0.0 0.0 0.0 0.01 0.01 0.0 0.0 0.0 0.01 0.0 0.0 0.0 0.01 0.01 0.0 0.0 0.0 0.01 0.0 0.0 0.0 0.01 0.01 0.0 0.0 0.0 0.01 0.0 0.0 0.0 0.01 0.01 0.0 0.0 0.0 0.01 0.0 0.0 0.0 0.01 0.01 0.0 0.0 0.0 0.01 0.0 0.0 0.0 0.01 0.01 0.0 0.0 0.0 0.01 0.0 0.0 0.0 0.01 0.01 0.0 0.0 0.0 0.01 0.0 0.0 0.0 0.01 0.01 0.0 0.0 0.0 0.01 0.0 0.0 0.0 0.01 0.01 0.0 0.0 0.0 0.01 0.0 0.0 0.0 0.01 0.01 0.0 0.0 0.0 0.01 0.0 0.0 0.0 0.01 0.01 0.0 0.0 0.0 0.01 0.0 0.0 0.0 0.01 0.01 0.0 0.0 0.0 0.01 0.0 0.0 0.0 0.01 0.01 0.0 0.0 0.0 0.01 0.0 0.0 0.0 0.01 0.01 0.0 0.0 0.0 0.01 0.0 0.0 0.0 0.01 0.01 0.0 0.0 0.0 0.01 0.0 0.0 0.0 0.01 0.01 0.0 0.0 0.0 0.01 0.0 0.0 0.0 0.01 0.01 0.0 0.0 0.0 0.01 0.0 0.0 0.0 0.01 0.01 0.0 0.0 0.0 0.01 0.0 0.0 0.0 0.01 0.01 0.0 0.0 0.0 0.01 0.0 0.0 0.0 0.01 0.01 0.0 0.0 0.0 0.01 0.0 0.0 0.0 0.01 0.01 0.0 0.0 0.0 0.01 0.0 0.0 0.0 0.01 0.01 0.0 0.0 0.0 0.01 0.0 0.0 0.0 0.01 0.01 0.0 0.0 0.0 0.01 0.0 0.0 0.0 0.01 0.01 0.0 0.0 0.0 0.01 0.0 0.0 0.0 0.01 0.01 0.0 0.0 0.0 0.01 0.0 0.0 0.0 0.01 0.01 0.0 0.0 0.0 0.01 0.0 0.0 0.0 0.01 0.01 0.0 0.0 0.0 0.01 0.0 0.0 0.0 0.01 0.01 0.0 0.0 0.0 0.01 0.0 0.0 0.0 0.01 0.01 0.0 0.0 0.0 0.01 0.0 0.0 0.0 0.01 0.01 0.0 0.0 0.0 0.01 0.0 0.0 0.0 0.01 0.01 0.0 0.0 0.0 0.01 0.0 0.0 0.0 0.01 0.01 0.0 0.0 0.0 0.01 0.0 0.0 0.0 0.01 0.01 0.0 0.0 0.0 0.01 0.0 0.0 0.0 0.01 0.01 0.0 0.0 0.0 0.01 0.0 0.0 0.0 0.01 0.01 0.0 0.0 0.0 0.01 0.0 0.0 0.0 0.01 0.01 0.0 0.0 0.0 0.01 0.0 0.0 0.0 0.01 0.01 0.0 0.0 0.0 0.01 0.0 0.0 0.0 0.01 0.01 0.0 0.0 0.0 0.01 0.0 0.0 0.0 0.01 0.01 0.0 0.0 0.0 0.01 0.0 0.0 0.0 0.01 0.01 0.0 0.0 0.0 0.01 0.0 0.0 0.0 0.01 0.01 0.0 0.0 0.0 0.01 0.0 0.0 0.0 0.01 0.01 0.0 0.0 0.0 0.01 0.0 0.0 0.0 0.01 0.01 0.0 0.0 0.0 0.01 0.0 0.0 0.0 0.01 0.01 0.0 0.0 0.0 0.01 0.0 0.0 0.0 0.01 0.01 0.0 0.0 0.0 0.01 0.0 0.0 0.0 0.01 0.01 0.0 0.0 0.0 0.01 0.0 0.0 0.0 0.01 0.01 0.0 0.0 0.0 0.01 0.0 0.0 0.0 0.01 0.01 0.0 0.0 0.0 0.01 0.0 0.0 0.0 0.01 0.01 0.0 0.0 0.0 0.01 0.0 0.0 0.0 0.01 0.01 0.0 0.0 0.0 0.01 0.0 0.0 0.0 0.01 0.01 0.0 0.0 0.0 0.01 0.0 0.0 0.0 0.01 0.01 0.0 0.0 0.0 0.01 0.0 0.0 0.0 0.01 0.01 0.0 0.0 0.0 0.01 0.0 0.0 0.0 0.01 0.01 0.0 0.0 0.0 0.01 0.0 0.0 0.0 0.01 0.01 0.0 0.0 0.0 0.01 0.0 0.0 0.0 0.01 0.01 0.0 0.0 0.0 0.01 0.0 0.0 0.0 0.01 0.01 0.0 0.0 0.0 0.01 0.0 0.0 0.0 0.01 0.01 0.0 0.0 0.0 0.01 0.0 0.0 0.0 0.01 0.01 0.0 0.0 0.0 0.01 0.0 0.0 0.0 0.01 0.01 0.0 0.0 0.0 0.01 0.0 0.0 0.0 0.01 0.01 0.0 0.0 0.0 0.01 0.0 0.0 0.0 0.01 0.01 0.0 0.0 0.0 0.01 0.0 0.0 0.0 0.01 0.01 0.0 0.0 0.0 0.01 0.0 0.0 0.0 0.01 0.01 0.0 0.0 0.0 0.01 0.0 0.0 0.0 0.01 0.01 0.0 0.0 0.0 0.01 0.0 0.0 0.0 0.01 0.01 0.0 0.0 0.0 0.01 0.0 0.0 0.0 0.01 0.01 0.0 0.0 0.0 0.01 0.0 0.0 0.0 0.01 0.01 0.0 0.0 0.0 0.01 0.0 0.0 0.0 0.01 0.01 0.0 0.0 0.0 0.01 0.0 0.0 0.0 0.01 0.01 0.0 0.0 0.0 0.01 0.0 0.0 0.0 0.01 0.01 0.0 0.0 0.0 0.01 0.0 0.0 0.0 0.01 0.01 0.0 0.0 0.0 0.01 0.0 0.0 0.0 0.01 0.01 0.0 0.0 0.0 0.01 0.0 0.0 0.0 0.01 0.01 0.0 0.0 0.0 0.01 0.0 0.0 0.0 0.01 0.01 0.0 0.0 0.0 0.01 0.0 0.0 0.0 0.01 0.01 0.0 0.0 0.0 0.01 0.0 0.0 0.0 0.01 0.01 0.0 0.0 0.0 0.01 0.0 0.0 0.0 0.01 0.01 0.0 0.0 0.0 0.01 0.0 0.0 0.0 0.01 0.01 0.0 0.0 0.0 0.01 0.0 0.0 0.0 0.01 0.01 0.0 0.0 0.0 0.01 0.0 0.0 0.0 0.01 0.01 0.0 0.0 0.0 0.01 0.0 0.0 0.0 0.01 0.01 0.0 0.0 0.0 0.01 0.0 0.0 0.0 0.01 0.01 0.0 0.0 0.0 0.01 0.0 0.0 0.0 0.01 0.01 0.0 0.0 0.0 0.01 0.0 0.0 0.0 0.01 0.01 0.0 0.0 0.0 0.01 0.0 0.0 0.0 0.01 0.01 0.0 0.0 0.0 0.01 0.0 0.0 0.0 0.01 0.01 0.0 0.0 0.0 0.01 0.0 0.0 0.0 0.01 0.01 0.0 0.0 0.0 0.01 0.0 0.0 0.0 0.01 0.01 0.0 0.0 0.0 0.01 0.0 0.0 0.0 0.01 0.01 0.0 0.0 0.0 0.01 0.0 0.0 0.0 0.01 0.01 0.0 0.0 0.0 0.01 0.0 0.0 0.0 0.01 0.01 0.0 0.0 0.0 0.01 0.0 0.0 0.0 0.01 0.01 0.0 0.0 0.0 0.01 0.0 0.0 0.0 0.01 0.01 0.0 0.0 0.0 0.01 0.0 0.0 0.0 0.01 0.01 0.0 0.0 0.0 0.01 0.0 0.0 0.0 0.01 0.009999939000558145 0.0 3.1052033084599473e-15 0.0 0.01 0.0 3.1052033084599473e-15 0.0 0.00999999500000375 0.00999992300088934 0.0 5.858938071626565e-16 0.0 0.01 0.0 5.858938071626565e-16 0.0 0.0099999980000006 0.009999910001214982 0.0 -2.112361183171307e-16 0.0 0.01 0.0 -2.112361183171307e-16 0.0 0.01 0.009999899501515013 0.0 -3.215009015313463e-16 0.0 0.01 0.0 -3.215009015313463e-16 0.0 0.0100000024500009 0.009999892501733406 0.0 -3.773645674669931e-17 0.0 0.01 0.0 -3.773645674669931e-17 0.0 0.010000003400001733 0.009999943500478834 0.0 5.886874719508125e-15 0.0 0.01 0.0 5.88687471971492e-15 0.0 0.009999990500013536 0.009999922500900928 0.0 1.7400864749051175e-15 0.0 0.01 0.0 1.7400864749051175e-15 0.0 0.009999993500006339 0.009999903501396816 0.0 -1.7203143033885313e-15 0.0 0.01 0.0 -1.7203143033368325e-15 0.0 0.009999997500000938 0.009999887501898404 0.0 -2.4347962781234166e-15 0.0 0.01 0.0 -2.434796278097567e-15 0.0 0.010000001000000152 0.009999875502324992 0.0 -1.6758510082132865e-15 0.0 0.01 0.0 -1.6758510082132865e-15 0.0 0.010000003400001735 0.009999865502713475 0.0 -7.672204352807514e-16 0.0 0.01 0.0 -7.672204352807514e-16 0.0 0.010000004900003601 0.009999928500766832 0.0 6.360725831756359e-15 0.0 0.01 0.0 6.360725831756359e-15 0.0 0.009999988000021604 0.009999904501368015 0.0 3.5968810887306e-15 0.0 0.01 0.0 3.5968810887306e-15 0.0 0.009999991500010838 0.009999881502106298 0.0 -1.3163943087620959e-15 0.0 0.01 0.0 -1.3163943087620959e-15 0.0 0.009999997000001353 0.009999863002815286 0.0 -2.7631843677005762e-15 0.0 0.01 0.0 -2.763184367674727e-15 0.0 0.010000001450000314 0.009999847503488353 0.0 -2.722141531954404e-15 0.0 0.01 0.0 -2.722141531954404e-15 0.0 0.010000004900003604 0.009999838503912232 0.0 -1.4088441184524477e-15 0.0 0.01 0.0 -1.4088441184524477e-15 0.0 0.010000006850007037 0.00999991300113533 0.0 7.13425338116224e-13 0.0 0.01 0.0 7.134253381294589e-13 0.0 0.009999985500031536 0.009999883502035801 0.0 1.9418082498629372e-13 0.0 0.01 0.0 1.9418082497967628e-13 0.0 0.00999999050001354 0.009999856503088761 0.0 4.91665323799167e-15 0.0 0.01 0.0 4.91665323799167e-15 0.0 0.009999996500001836 0.009999833504158222 0.0 8.69370741818214e-16 0.0 0.01 0.0 8.69370741818214e-16 0.0 0.01000000195000057 0.009999816005078243 0.0 -8.747990045019859e-16 0.0 0.01 0.0 -8.747990045019859e-16 0.0 0.010000006850007037 0.009999806005645217 0.0 -9.91917069066482e-16 0.0 0.01 0.0 -9.91917069066482e-16 0.0 0.010000009300012973 0.00999989150176581 0.0 7.772640679783768e-11 0.0 0.01 0.0 7.772640679783768e-11 0.0 0.009999983000043353 0.009999855003153672 0.0 4.3662574796758235e-11 0.0 0.01 0.0 4.3662574796758235e-11 0.0 0.00999998900001815 0.009999823504672703 0.0 1.5202220041036506e-11 0.0 0.01 0.0 1.5202220041036506e-11 0.0 0.009999996500001839 0.009999797506150728 0.0 1.6570452006977375e-12 0.0 0.01 0.0 1.6570452007109724e-12 0.0 0.010000002950001306 0.009999779507292772 0.0 6.1086750618239795e-15 0.0 0.01 0.0 6.1086750618239795e-15 0.0 0.010000008300010337 0.009999767508108123 0.0 1.9359622150160655e-15 0.0 0.01 0.0 1.9359622150160655e-15 0.0 0.01000000975001426 0.009999860502919046 0.0 7.202422681971011e-10 0.0 0.01 0.0 7.202422681903248e-10 0.0 0.009999980000060076 0.009999819004914031 0.0 4.5756711981382366e-10 0.0 0.01 0.0 4.5756711981382366e-10 0.0 0.009999987000025379 0.009999780007259741 0.0 2.120486110903226e-10 0.0 0.01 0.0 2.1204861109201667e-10 0.0 0.009999996500001846 0.00999975050933715 0.0 5.88117583850102e-11 0.0 0.01 0.0 5.88117583850102e-11 0.0 0.010000003900002283 0.00999973201077312 0.0 6.607960579578419e-12 0.0 0.01 0.0 6.607960579578419e-12 0.0 0.010000009300012973 0.009999718011928043 0.0 7.701454824192948e-15 0.0 0.01 0.0 7.701454824192948e-15 0.0 0.01000001220002233 0.009999813005246706 0.0 3.1822080331597204e-09 0.0 0.01 0.0 3.1822080331868254e-09 0.0 0.009999976000087922 0.009999763008425736 0.0 2.1857851053490394e-09 0.0 0.01 0.0 2.185785105335487e-09 0.0 0.009999986000030117 0.009999722011592245 0.0 1.103973534909554e-09 0.0 0.01 0.0 1.103973534909554e-09 0.0 0.00999999650000202 0.009999692014228893 0.0 3.8600514643588233e-10 0.0 0.01 0.0 3.8600514643418826e-10 0.0 0.010000005350004318 0.009999670016334106 0.0 7.779439656804393e-11 0.0 0.01 0.0 7.779439656804393e-11 0.0 0.01000001220002233 0.009999657517594934 0.0 5.524236621274976e-12 0.0 0.01 0.0 5.524236621301446e-12 0.0 0.010000015600036506 0.009999735510507918 0.0 9.778505734954132e-09 0.0 0.01 0.0 9.778505734899922e-09 0.0 0.009999971500136179 0.009999681515222665 0.0 6.8955764982823065e-09 0.0 0.01 0.0 6.8955764982823065e-09 0.0 0.009999983500047972 0.009999641019332949 0.0 3.612311202602376e-09 0.0 0.01 0.0 3.6123112025888233e-09 0.0 0.009999997000003306 0.009999612522522265 0.0 1.3746999076664416e-09 0.0 0.01 0.0 1.3746999076799942e-09 0.0 0.010000008300010617 0.009999593524784677 0.0 3.431348504725378e-10 0.0 0.01 0.0 3.431348504725378e-10 0.0 0.010000015600036521 0.009999581026332314 0.0 4.373433279398891e-11 0.0 0.01 0.0 4.373433279420067e-11 0.0 0.010000019050054435 0.00999961502231612 0.0 2.3635589324372437e-08 0.0 0.01 0.0 2.3635589324372437e-08 0.0 0.009999967500242237 0.00999956402855335 0.0 1.653729955568544e-08 0.0 0.01 0.0 1.653729955568544e-08 0.0 0.009999982500086962 0.009999531033002914 0.0 8.695298790538505e-09 0.0 0.01 0.0 8.6952987905114e-09 0.0 0.010000000000011344 0.009999510036013803 0.0 3.4076881702576256e-09 0.0 0.01 0.0 3.4076881702576256e-09 0.0 0.010000014150031775 0.009999495038250664 0.0 9.340773100167206e-10 0.0 0.01 0.0 9.340773100133325e-10 0.0 0.01000002295007914 0.00999948753939508 0.0 1.5114694658688622e-10 0.0 0.01 0.0 1.5114694658688622e-10 0.0 0.01000002540009678 0.009999448046021825 0.0 4.62193387733463e-08 0.0 0.01 0.0 4.621933877345472e-08 0.0 0.009999959500566494 0.009999406552980988 0.0 3.161026407045176e-08 0.0 0.01 0.0 3.161026407034334e-08 0.0 0.009999982000198492 0.00999938955594101 0.0 1.636254647443061e-08 0.0 0.01 0.0 1.636254647443061e-08 0.0 0.010000005850045297 0.009999381557381615 0.0 6.423719058374776e-09 0.0 0.01 0.0 6.423719058374776e-09 0.0 0.010000024400095495 0.00999937555849445 0.0 1.827305529674241e-09 0.0 0.01 0.0 1.8273055296810174e-09 0.0 0.010000033200165837 0.009999374558681438 0.0 3.291076771601127e-10 0.0 0.01 0.0 3.291076771601127e-10 0.0 0.010000035150185346 0.009999242586838547 0.0 7.204117286052636e-08 0.0 0.01 0.0 7.20411728607432e-08 0.0 0.0099999485011764 0.00999921859194981 0.0 4.8332970482237864e-08 0.0 0.01 0.0 4.8332970482237864e-08 0.0 0.009999983000393797 0.009999220591221276 0.0 2.450609635758303e-08 0.0 0.01 0.0 2.450609635758303e-08 0.0 0.010000018550141702 0.009999227089631354 0.0 9.50465090960857e-09 0.0 0.01 0.0 9.504650909595018e-09 0.0 0.010000041000265702 0.009999231588578603 0.0 2.7212165955029974e-09 0.0 0.01 0.0 2.7212165955097737e-09 0.0 0.010000052250410622 0.009999236587428755 0.0 5.096360411311249e-10 0.0 0.01 0.0 5.096360411302778e-10 0.0 0.010000051750401754 0.009999039639572717 0.0 8.984654100102716e-08 0.0 0.01 0.0 8.984654100102716e-08 0.0 0.009999957001488364 0.009999021144264668 0.0 5.8991001918701734e-08 0.0 0.01 0.0 5.8991001918701734e-08 0.0 0.00999999600052446 0.009999035139790061 0.0 2.930042744856646e-08 0.0 0.01 0.0 2.930042744862067e-08 0.0 0.0100000420003934 0.009999049135657238 0.0 1.1132333238372078e-08 0.0 0.01 0.0 1.1132333238385631e-08 0.0 0.010000070800770495 0.009999060632379786 0.0 3.1395251455195567e-09 0.0 0.01 0.0 3.1395251455195567e-09 0.0 0.010000080100963893 0.009999071629296882 0.0 5.823514766361076e-10 0.0 0.01 0.0 5.823514766361076e-10 0.0 0.010000074200825911 0.009998838703549744 0.0 9.042961905431513e-08 0.0 0.01 0.0 9.042961905442355e-08 0.0 0.010000049301591398 0.009998816210737666 0.0 5.777983085893503e-08 0.0 0.01 0.0 5.777983085888082e-08 0.0 0.01000004930086543 0.00999882770629031 0.0 2.7948282731898085e-08 0.0 0.01 0.0 2.794828273187098e-08 0.0 0.010000088851301351 0.009998844200427674 0.0 1.02906685163235e-08 0.0 0.01 0.0 1.02906685163235e-08 0.0 0.010000114251973885 0.00999886069473323 0.0 2.7953371737354815e-09 0.0 0.01 0.0 2.7953371737388696e-09 0.0 0.01000011865211289 0.009998875189808194 0.0 4.881270966321209e-10 0.0 0.01 0.0 4.881270966321209e-10 0.0 0.010000107901746423 0.009998615288422212 0.0 7.094230680660361e-08 0.0 0.01 0.0 7.094230680665782e-08 0.0 0.010000197756621018 0.009998588299291178 0.0 4.471839934488313e-08 0.0 0.01 0.0 4.471839934493734e-08 0.0 0.010000152853804576 0.00999859379673301 0.0 2.1011041351161244e-08 0.0 0.01 0.0 2.101104135113414e-08 0.0 0.010000163554078633 0.009998607790799151 0.0 7.3935122196647565e-09 0.0 0.01 0.0 7.393512219671533e-09 0.0 0.010000175804644183 0.009998624283941809 0.0 1.873913239322869e-09 0.0 0.01 0.0 1.873913239322869e-09 0.0 0.010000170404356072 0.009998645275341583 0.0 2.8603512880711043e-10 0.0 0.01 0.0 2.8603512880711043e-10 0.0 0.010000150403393122 0.009998341413008678 0.0 4.325686761094834e-08 0.0 0.01 0.0 4.325686761094834e-08 0.0 0.010000341817805824 0.009998315425872794 0.0 2.6910026590328028e-08 0.0 0.01 0.0 2.6910026590273818e-08 0.0 0.010000275411485945 0.00999831642528123 0.0 1.2162067071134043e-08 0.0 0.01 0.0 1.2162067071134043e-08 0.0 0.010000254909768708 0.009998329418721918 0.0 3.984766457682703e-09 0.0 0.01 0.0 3.984766457679315e-09 0.0 0.010000250509415312 0.009998349408757792 0.0 8.891644244062171e-10 0.0 0.01 0.0 8.891644244070641e-10 0.0 0.010000232908136794 0.009998375895742893 0.0 1.028822311837527e-10 0.0 0.01 0.0 1.0288223118364683e-10 0.0 0.0100002021561299 0.009998006096567716 0.0 2.024355192828918e-08 0.0 0.01 0.0 2.0243551928275628e-08 0.0 0.01000046148200436 0.009997986608247513 0.0 1.2186388575430806e-08 0.0 0.01 0.0 1.2186388575437582e-08 0.0 0.010000389672797826 0.00999798660822918 0.0 5.1250038856783214e-09 0.0 0.01 0.0 5.1250038856783214e-09 0.0 0.01000035256864876 0.009998001599200848 0.0 1.4792857613666135e-09 0.0 0.01 0.0 1.4792857613674606e-09 0.0 0.010000333016634602 0.009998026084605167 0.0 2.562348065692049e-10 0.0 0.01 0.0 2.562348065692049e-10 0.0 0.010000300813572787 0.009998057566104026 0.0 1.5580107031099823e-11 0.0 0.01 0.0 1.5580107031086588e-11 0.0 0.01000026126023818 0.009997601363301481 0.0 6.675069420068584e-09 0.0 0.01 0.0 6.6750694200651956e-09 0.0 0.010000564997886473 0.009997592369783738 0.0 3.688576406120665e-09 0.0 0.01 0.0 3.688576406120665e-09 0.0 0.010000493186484577 0.009997597366175143 0.0 1.348607714022647e-09 0.0 0.01 0.0 1.3486077140218e-09 0.0 0.010000450230404563 0.009997615852894744 0.0 2.9556517450713245e-10 0.0 0.01 0.0 2.955651745073442e-10 0.0 0.010000421426638576 0.009997645331930441 0.0 2.673788285475448e-11 0.0 0.01 0.0 2.673788285475448e-11 0.0 0.010000379921649974 0.009997686303226698 0.0 -8.625198202348263e-14 0.0 0.01 0.0 -8.625198202353433e-14 0.0 0.010000327666104057 0.009997130235805009 0.0 1.0948787166505736e-09 0.0 0.01 0.0 1.094878716650997e-09 0.0 0.01000066656664092 0.00999713123494434 0.0 5.085261983334487e-10 0.0 0.01 0.0 5.085261983334487e-10 0.0 0.010000593802886131 0.009997141725926799 0.0 1.274260843027228e-10 0.0 0.01 0.0 1.2742608430277574e-10 0.0 0.010000549845346166 0.009997166205014393 0.0 8.208172534850145e-12 0.0 0.01 0.0 8.208172534853454e-12 0.0 0.010000514689733099 0.009997203673353876 0.0 -7.793004191326807e-13 0.0 0.01 0.0 -7.793004191326807e-13 0.0 0.010000465382485115 0.009997254630971649 0.0 -6.865725649319803e-14 0.0 0.01 0.0 -6.865725649317218e-14 0.0 0.010000404324520427 0.009996586248850536 0.0 6.196905647554212e-12 0.0 0.01 0.0 6.1969056475525576e-12 0.0 0.010000778390874423 0.009996591743224295 0.0 -9.88485279509485e-12 0.0 0.01 0.0 -9.884852795091542e-12 0.0 0.010000706624890757 0.009996609225382905 0.0 -8.392301650318088e-12 0.0 0.01 0.0 -8.39230165031478e-12 0.0 0.010000660715475973 0.009996638196019106 0.0 -3.4828974839731747e-12 0.0 0.01 0.0 -3.4828974839731747e-12 0.0 0.01000062165796399 0.009996685648467375 0.0 -8.614788649008992e-13 0.0 0.01 0.0 -8.614788649008992e-13 0.0 0.010000561547296765 0.009996748086928851 0.0 -5.423986836842993e-14 0.0 0.01 0.0 -5.423986836842993e-14 0.0 0.010000486835549022 0.009995944967827129 0.0 -1.4758795521719942e-11 0.0 0.01 0.0 -1.475879552172325e-11 0.0 0.010000916125877616 0.009995953457501802 0.0 -1.7318827110760337e-11 0.0 0.01 0.0 -1.7318827110760337e-11 0.0 0.010000839955817017 0.009995975430877881 0.0 -1.0842278259265153e-11 0.0 0.01 0.0 -1.0842278259261844e-11 0.0 0.010000790143639181 0.009996017380452788 0.0 -4.3121483169379046e-12 0.0 0.01 0.0 -4.31214831693625e-12 0.0 0.010000742282639351 0.009996078807568929 0.0 -9.819868752992877e-13 0.0 0.01 0.0 -9.819868752997013e-13 0.0 0.010000669517231997 0.009996160212727765 0.0 -4.700434032263326e-14 0.0 0.01 0.0 -4.700434032263326e-14 0.0 0.010000579650395294 0.009995176492180007 0.0 -1.9361754648262418e-11 0.0 0.01 0.0 -1.9361754648262418e-11 0.0 0.010001089027871429 0.009995194466194108 0.0 -2.294610655427209e-11 0.0 0.01 0.0 -2.2946106554278707e-11 0.0 0.010001000650175082 0.009995228417374201 0.0 -1.410097234109046e-11 0.0 0.01 0.0 -1.410097234109046e-11 0.0 0.01000093863213801 0.00999528733347839 0.0 -5.416411263696334e-12 0.0 0.01 0.0 -5.41641126369468e-12 0.0 0.010000879015886754 0.009995371215831078 0.0 -1.1505408769099537e-12 0.0 0.01 0.0 -1.1505408769099537e-12 0.0 0.010000789143402272 0.00999547906767346 0.0 -4.125979115350131e-14 0.0 0.01 0.0 -4.125979115350131e-14 0.0 0.010000678269001086 0.009994257949460818 0.0 -2.4319474794326104e-11 0.0 0.01 0.0 -2.4319474794326104e-11 0.0 0.010001296652152429 0.0099942913919542 0.0 -3.0066576196010754e-11 0.0 0.01 0.0 -3.0066576196010754e-11 0.0 0.010001188211743528 0.009994350291490171 0.0 -1.8395564731018082e-11 0.0 0.01 0.0 -1.8395564731018082e-11 0.0 0.01000110518318749 0.00999443564775046 0.0 -6.9186510189419614e-12 0.0 0.01 0.0 -6.918651018943616e-12 0.0 0.010001028458637321 0.009994554451331891 0.0 -1.4150561400027186e-12 0.0 0.01 0.0 -1.4150561400027186e-12 0.0 0.010000918576551934 0.009994694225675442 0.0 -4.765793510353967e-14 0.0 0.01 0.0 -4.765793510353967e-14 0.0 0.010000787192941153 0.009993168506776824 0.0 -2.8468442537712452e-11 0.0 0.01 0.0 -2.8468442537712452e-11 0.0 0.010001548209468681 0.009993232875299629 0.0 -3.8903064494395616e-11 0.0 0.01 0.0 -3.8903064494395616e-11 0.0 0.010001402645056794 0.009993327184916467 0.0 -2.420566742433887e-11 0.0 0.01 0.0 -2.4205667424352106e-11 0.0 0.010001284447428403 0.009993454432281937 0.0 -9.171783641368945e-12 0.0 0.01 0.0 -9.17178364136729e-12 0.0 0.01000118626104891 0.009993616118299358 0.0 -1.9427008087474385e-12 0.0 0.01 0.0 -1.942700808747852e-12 0.0 0.010001055817188957 0.009993802765620967 0.0 -1.1346449824890386e-13 0.0 0.01 0.0 -1.1346449824890386e-13 0.0 0.010000899521356247 0.00999190234642935 0.0 -3.0488839424220015e-11 0.0 0.01 0.0 -3.048883942422663e-11 0.0 0.010001838406836716 0.009992011582428077 0.0 -5.026781489917698e-11 0.0 0.01 0.0 -5.026781489917698e-11 0.0 0.010001630298594381 0.009992156238350678 0.0 -3.2712970023870136e-11 0.0 0.01 0.0 -3.2712970023870136e-11 0.0 0.010001464171506966 0.00999234180618124 0.0 -1.2976143027065653e-11 0.0 0.01 0.0 -1.2976143027065653e-11 0.0 0.010001347922485283 0.009992561807244995 0.0 -3.110987495923351e-12 0.0 0.01 0.0 -3.110987495923351e-12 0.0 0.010001197465054049 0.00999280726775864 0.0 -3.4913229199619783e-13 0.0 0.01 0.0 -3.4913229199619783e-13 0.0 0.01000101970594883 0.009990473131497543 0.0 -2.923762758037489e-11 0.0 0.01 0.0 -2.923762758037158e-11 0.0 0.010002159399249439 0.009990646639188569 0.0 -6.626642028818703e-11 0.0 0.01 0.0 -6.626642028818703e-11 0.0 0.010001851113866549 0.0099908620406235 0.0 -4.638317745969453e-11 0.0 0.01 0.0 -4.638317745969453e-11 0.0 0.010001629798349836 0.0099911218372774 0.0 -1.9931000685055123e-11 0.0 0.01 0.0 -1.9931000685055123e-11 0.0 0.010001509641783953 0.009991417062681087 0.0 -5.71598708229325e-12 0.0 0.01 0.0 -5.71598708229325e-12 0.0 0.010001346972101208 0.009991728773307583 0.0 -1.1301140691752807e-12 0.0 0.01 0.0 -1.1301140691752807e-12 0.0 0.010001150598551096 0.009988953829675705 0.0 -2.5291609153831e-11 0.0 0.01 0.0 -2.5291609153831e-11 0.0 0.010002485276182744 0.009989207496894269 0.0 -9.22518879405977e-11 0.0 0.01 0.0 -9.225188794061094e-11 0.0 0.010002038222983636 0.009989510527468333 0.0 -7.063412294351388e-11 0.0 0.01 0.0 -7.063412294351388e-11 0.0 0.010001771470605058 0.009989856454627103 0.0 -3.331783088310226e-11 0.0 0.01 0.0 -3.3317830883108874e-11 0.0 0.010001674720609446 0.00999023532098723 0.0 -1.1322591693235071e-11 0.0 0.01 0.0 -1.1322591693235071e-11 0.0 0.01000151449398434 0.009990622207961106 0.0 -3.2936631288802167e-12 0.0 0.01 0.0 -3.2936631288802167e-12 0.0 0.010001306906155917 0.009987478557304499 0.0 -2.3792063203197006e-11 0.0 0.01 0.0 -2.3792063203193697e-11 0.0 0.010002784862887392 0.009987823775227542 0.0 -1.4019205234790165e-10 0.0 0.01 0.0 -1.4019205234790165e-10 0.0 0.010002167704637847 0.009988222339714805 0.0 -1.1731977981509206e-10 0.0 0.01 0.0 -1.1731977981509206e-10 0.0 0.010001898490503109 0.009988659320862629 0.0 -6.016624497850027e-11 0.0 0.01 0.0 -6.016624497850027e-11 0.0 0.010001874526945988 0.00998912177614385 0.0 -2.284570297467554e-11 0.0 0.01 0.0 -2.2845702974672232e-11 0.0 0.010001731899817673 0.009989579809712917 0.0 -7.887931748549947e-12 0.0 0.01 0.0 -7.887931748549947e-12 0.0 0.010001519896442575 0.009986271821267684 0.0 -3.598034975370927e-11 0.0 0.01 0.0 -3.598034975370265e-11 0.0 0.010003021368748956 0.009986700578317513 0.0 -2.32989026727846e-10 0.0 0.01 0.0 -2.32989026727846e-10 0.0 0.010002233147819716 0.009987182684716728 0.0 -2.1074805630790494e-10 0.0 0.01 0.0 -2.1074805630790494e-10 0.0 0.01000205143108281 0.0099877012262389 0.0 -1.1532652425376065e-10 0.0 0.01 0.0 -1.1532652425377388e-10 0.0 0.010002162801454238 0.009988231307964631 0.0 -4.587701847007922e-11 0.0 0.01 0.0 -4.587701847009245e-11 0.0 0.010002059235893273 0.00998874602633539 0.0 -1.577297104479615e-11 0.0 0.01 0.0 -1.5772971044794496e-11 0.0 0.010001840858189094 0.009985634514474106 0.0 -7.827710721367314e-11 0.0 0.01 0.0 -7.827710721367976e-11 0.0 0.010003188524355057 0.009986116964410584 0.0 -4.0732941111896913e-10 0.0 0.01 0.0 -4.073294111189162e-10 0.0 0.010002287384579967 0.00998664978191574 0.0 -3.9334620277670317e-10 0.0 0.01 0.0 -3.9334620277670317e-10 0.0 0.010002308399060014 0.009987207588803178 0.0 -2.2596038670704753e-10 0.0 0.01 0.0 -2.2596038670702106e-10 0.0 0.010002620179441408 0.009987769972677038 0.0 -9.062557429477059e-11 0.0 0.01 0.0 -9.062557429478382e-11 0.0 0.010002571291391019 0.009988306542567372 0.0 -2.7043926775909162e-11 0.0 0.01 0.0 -2.7043926775905854e-11 0.0 0.010002342122573844 0.009985956637891816 0.0 -1.6920650904018516e-10 0.0 0.01 0.0 -1.6920650904021163e-10 0.0 0.01000336059327934 0.009986429673131235 0.0 -7.157604440043949e-10 0.0 0.01 0.0 -7.15760444004342e-10 0.0 0.010002470164955965 0.009986945109098224 0.0 -7.284470498805115e-10 0.0 0.01 0.0 -7.284470498805115e-10 0.0 0.010002784362469659 0.009987474074190332 0.0 -4.3315134425987187e-10 0.0 0.01 0.0 -4.3315134425987187e-10 0.0 0.010003332214808668 0.009988001130532408 0.0 -1.7265957060077182e-10 0.0 0.01 0.0 -1.7265957060077182e-10 0.0 0.010003354236881316 0.009988505349467408 0.0 -4.16354769404868e-11 0.0 0.01 0.0 -4.163547694048349e-11 0.0 0.010003102993688163 0.009987670838773027 0.0 -3.201709216338125e-10 0.0 0.01 0.0 -3.2017092163378604e-10 0.0 0.010003770181068506 0.009988047463671558 0.0 -1.2097818896633696e-09 0.0 0.01 0.0 -1.2097818896633696e-09 0.0 0.010003053648145997 0.009988449044554195 0.0 -1.2809074116623304e-09 0.0 0.01 0.0 -1.2809074116624363e-09 0.0 0.010003612306371546 0.00998885665383756 0.0 -7.830669003563603e-10 0.0 0.01 0.0 -7.830669003563603e-10 0.0 0.010004365156526196 0.009989261322679405 0.0 -3.115494171323217e-10 0.0 0.01 0.0 -3.115494171323217e-10 0.0 0.01000445122024137 0.009989660059294449 0.0 -6.111108217076084e-11 0.0 0.01 0.0 -6.111108217076084e-11 0.0 0.010004176464972724 0.009991155746973185 0.0 -5.080759568298059e-10 0.0 0.01 0.0 -5.080759568298059e-10 0.0 0.010004907910775322 0.009991343253877185 0.0 -1.8498137928125584e-09 0.0 0.01 0.0 -1.8498137928125584e-09 0.0 0.010004480559514571 0.009991537254843499 0.0 -2.028995566349078e-09 0.0 0.01 0.0 -2.02899556634929e-09 0.0 0.01000500034802371 0.009991728274547524 0.0 -1.2815623726952616e-09 0.0 0.01 0.0 -1.2815623726953675e-09 0.0 0.010005725112787363 0.009991919803996878 0.0 -5.205465096306368e-10 0.0 0.01 0.0 -5.205465096305838e-10 0.0 0.010005860147176823 0.009992130798405559 0.0 -9.307564297928936e-11 0.0 0.01 0.0 -9.30756429793026e-11 0.0 0.010005569599612955 0.009996574760643822 0.0 -6.294746678198578e-10 0.0 0.01 0.0 -6.29474667819646e-10 0.0 0.010007260349253448 0.009996497840628362 0.0 -2.3917146999765735e-09 0.0 0.01 0.0 -2.39171469997615e-09 0.0 0.010007152215818745 0.00999641193206016 0.0 -2.759711433815405e-09 0.0 0.01 0.0 -2.7597114338158286e-09 0.0 0.010007347439806163 0.00999631703563407 0.0 -1.82036913193916e-09 0.0 0.01 0.0 -1.82036913193916e-09 0.0 0.010007502584879166 0.009996233628901844 0.0 -7.766489567065098e-10 0.0 0.01 0.0 -7.766489567066157e-10 0.0 0.010007527541058478 0.009996189179460354 0.0 -1.4939454470649018e-10 0.0 0.01 0.0 -1.4939454470649018e-10 0.0 0.01000722512282341 0.010003676326313032 0.0 -4.928883253595103e-10 0.0 0.01 0.0 -4.928883253594044e-10 0.0 0.010010339764529521 0.010003305838563922 0.0 -2.446645327273498e-09 0.0 0.01 0.0 -2.446645327272651e-09 0.0 0.010010544002986803 0.010002913873105278 0.0 -3.1037678437522044e-09 0.0 0.01 0.0 -3.1037678437513574e-09 0.0 0.010010602287472192 0.010002514598163386 0.0 -2.1739770676284864e-09 0.0 0.01 0.0 -2.173977067628063e-09 0.0 0.010009785344228335 0.010002136434458003 0.0 -9.936740403348594e-10 0.0 0.01 0.0 -9.936740403346477e-10 0.0 0.010009400438642646 0.010001819346382782 0.0 -2.2767111203124258e-10 0.0 0.01 0.0 -2.2767111203118964e-10 0.0 0.010009021493433405 0.01001163994174088 0.0 -1.2115213634782033e-10 0.0 0.01 0.0 -1.2115213634782033e-10 0.0 0.010012634253382693 0.010011025507504136 0.0 -1.8246109177879846e-09 0.0 0.01 0.0 -1.8246109177862905e-09 0.0 0.010013262688254842 0.010010368152526782 0.0 -2.7637825249947405e-09 0.0 0.01 0.0 -2.7637825249964346e-09 0.0 0.010013522479247625 0.01000971042556518 0.0 -2.101266575644953e-09 0.0 0.01 0.0 -2.101266575644953e-09 0.0 0.010012088283716048 0.01000908461455531 0.0 -1.041579827636553e-09 0.0 0.01 0.0 -1.0415798276374e-09 0.0 0.010011257280462885 0.010008529450331064 0.0 -2.89516392974268e-10 0.0 0.01 0.0 -2.8951639297405623e-10 0.0 0.010010770325031672 0.010019087209488358 0.0 -3.686029846831668e-10 0.0 0.01 0.0 -3.686029846831668e-10 0.0 0.010013623489435412 0.010018375726284456 0.0 -1.1712060991164443e-09 0.0 0.01 0.0 -1.1712060991168678e-09 0.0 0.010014645410497 0.010017588293632142 0.0 -1.9493048305014622e-09 0.0 0.01 0.0 -1.9493048305014622e-09 0.0 0.01001550523745003 0.010016794664570271 0.0 -1.6107055410561542e-09 0.0 0.01 0.0 -1.6107055410561542e-09 0.0 0.010013883358720823 0.010016028705714133 0.0 -8.614690538036958e-10 0.0 0.01 0.0 -8.614690538041193e-10 0.0 0.01001283818058052 0.010015318325914494 0.0 -2.8319452842387874e-10 0.0 0.01 0.0 -2.831945284239846e-10 0.0 0.010012285804115676 0.010024508758346774 0.0 -6.82778005535303e-10 0.0 0.01 0.0 -6.82778005535303e-10 0.0 0.010013723498558363 0.010023884599413991 0.0 -1.2768732240321227e-09 0.0 0.01 0.0 -1.2768732240321227e-09 0.0 0.010014706227474716 0.010023165699526148 0.0 -1.3443071593127002e-09 0.0 0.01 0.0 -1.3443071593127002e-09 0.0 0.010016185209524723 0.010022406130860478 0.0 -1.0141540613090532e-09 0.0 0.01 0.0 -1.0141540613088414e-09 0.0 0.010014936247203446 0.010021640846784852 0.0 -5.564560933201162e-10 0.0 0.01 0.0 -5.564560933201162e-10 0.0 0.01001394561789025 0.010020882630984024 0.0 -2.0586082616643985e-10 0.0 0.01 0.0 -2.0586082616638691e-10 0.0 0.010013420518284154 0.010027057672796229 0.0 -1.43201325410237e-10 0.0 0.01 0.0 -1.4320132541022377e-10 0.0 0.010013469063563154 0.010026630904277467 0.0 -7.745462091424398e-10 0.0 0.01 0.0 -7.745462091423339e-10 0.0 0.010014127531779157 0.01002612104102564 0.0 -7.797046231069988e-10 0.0 0.01 0.0 -7.797046231069988e-10 0.0 0.01001585352058434 0.010025532000640104 0.0 -5.290321179339867e-10 0.0 0.01 0.0 -5.290321179340926e-10 0.0 0.010015131927116895 0.010024876216999273 0.0 -2.76502455574993e-10 0.0 0.01 0.0 -2.76502455574993e-10 0.0 0.010014476675551139 0.010024160528454621 0.0 -1.0948982928309876e-10 0.0 0.01 0.0 -1.0948982928312523e-10 0.0 0.010014118694441368 0.010026973998282965 0.0 3.445620808489707e-10 0.0 0.01 0.0 3.4456208084891774e-10 0.0 0.01001339014646762 0.010026762301037542 0.0 -1.4657900000759953e-10 0.0 0.01 0.0 -1.4657900000759953e-10 0.0 0.010013677911698913 0.010026480814874181 0.0 -2.3679257918661457e-10 0.0 0.01 0.0 -2.367925791866675e-10 0.0 0.010015474796426995 0.01002610083355782 0.0 -1.651522942417202e-10 0.0 0.01 0.0 -1.651522942417202e-10 0.0 0.010015112288291505 0.010025597953892766 0.0 -8.608743242698513e-11 0.0 0.01 0.0 -8.608743242698513e-11 0.0 0.010014725813689944 0.010024980492955799 0.0 -3.834306677813557e-11 0.0 0.01 0.0 -3.834306677813557e-11 0.0 0.010014495306282501 0.010025228954869686 0.0 3.1569412277767986e-10 0.0 0.01 0.0 3.1569412277767986e-10 0.0 0.010013544066654292 0.010025192026980928 0.0 9.249187875015497e-11 0.0 0.01 0.0 9.249187875014173e-11 0.0 0.010013552400435109 0.010025094646115324 0.0 7.723686641016968e-12 0.0 0.01 0.0 7.723686641016968e-12 0.0 0.01001528989578363 0.010024884075363774 0.0 -8.250843209741053e-12 0.0 0.01 0.0 -8.250843209739398e-12 0.0 0.010015080444508212 0.01002452694143664 0.0 -7.195974998493389e-12 0.0 0.01 0.0 -7.195974998493389e-12 0.0 0.01001481997979176 0.01002401442776123 0.0 -5.882190286056447e-12 0.0 0.01 0.0 -5.882190286058101e-12 0.0 0.010014647821057812 0.010022910544130044 0.0 8.373036181200534e-11 0.0 0.01 0.0 8.373036181200534e-11 0.0 0.010013839727784645 0.01002298278919131 0.0 5.1961537928340765e-11 0.0 0.01 0.0 5.196153792833415e-11 0.0 0.010013691165963876 0.01002299557698161 0.0 2.4552285522522577e-11 0.0 0.01 0.0 2.4552285522529194e-11 0.0 0.010015309987723807 0.010022891362951142 0.0 8.925938442394916e-12 0.0 0.01 0.0 8.925938442394916e-12 0.0 0.010015085316486925 0.010022633761830794 0.0 2.6969603780812042e-12 0.0 0.01 0.0 2.6969603780812042e-12 0.0 0.01001482490161306 0.010022208514249493 0.0 5.812777427439737e-13 0.0 0.01 0.0 5.812777427438703e-13 0.0 0.01001464782105781 0.0100207489496426 0.0 -2.0715126985706208e-11 0.0 0.01 0.0 -2.071512698569959e-11 0.0 0.010014154495846085 0.010020857071623632 0.0 -3.695907319954085e-11 0.0 0.01 0.0 -3.695907319954085e-11 0.0 0.010013970622302967 0.010020903259744274 0.0 -4.202903182085131e-11 0.0 0.01 0.0 -4.202903182085131e-11 0.0 0.010015468416907952 0.01002083689596743 0.0 -3.124134442331251e-11 0.0 0.01 0.0 -3.124134442330589e-11 0.0 0.010015098576341272 0.010020623675409445 0.0 -1.6008617685417005e-11 0.0 0.01 0.0 -1.6008617685417005e-11 0.0 0.010014750823947531 0.010020244409900922 0.0 -4.668627141892918e-12 0.0 0.01 0.0 -4.668627141892918e-12 0.0 0.010014531111726656 0.010018934994647188 0.0 -2.315718632482852e-11 0.0 0.01 0.0 -2.315718632482852e-11 0.0 0.010014193260212344 0.010019017009776596 0.0 -1.3324328780173136e-10 0.0 0.01 0.0 -1.3324328780173136e-10 0.0 0.010014053519798366 0.010019036168720572 0.0 -1.5023077520884e-10 0.0 0.01 0.0 -1.5023077520884e-10 0.0 0.010015464498784198 0.010018949728056661 0.0 -1.0396113795464439e-10 0.0 0.01 0.0 -1.0396113795464439e-10 0.0 0.010014988732091418 0.010018726772762896 0.0 -5.0885026228704094e-11 0.0 0.01 0.0 -5.0885026228677624e-11 0.0 0.010014558581240783 0.010018353604854724 0.0 -1.6082096043601394e-11 0.0 0.01 0.0 -1.608209604360801e-11 0.0 0.010014293788554906 0.01001725842539886 0.0 -7.06633824101727e-11 0.0 0.01 0.0 -7.066338241019917e-11 0.0 0.01001392598604277 0.010017273151413106 0.0 -2.883000284615101e-10 0.0 0.01 0.0 -2.883000284614042e-10 0.0 0.010013862271200408 0.010017221133189147 0.0 -3.1800392601326476e-10 0.0 0.01 0.0 -3.18003926013053e-10 0.0 0.010015202547479308 0.010017068500817187 0.0 -2.1592073428836978e-10 0.0 0.01 0.0 -2.1592073428836978e-10 0.0 0.01001469296917846 0.010016792704729069 0.0 -1.0367892049464113e-10 0.0 0.01 0.0 -1.0367892049474701e-10 0.0 0.010014220726946414 0.010016383424718934 0.0 -3.2913418414171906e-11 0.0 0.01 0.0 -3.2913418414224846e-11 0.0 0.010013924529976848 0.010015407133960309 0.0 -2.0540235256912295e-10 0.0 0.01 0.0 -2.054023525693347e-10 0.0 0.010013421522315867 0.010015331084391165 0.0 -5.081876189748157e-10 0.0 0.01 0.0 -5.081876189748157e-10 0.0 0.010013426893890684 0.010015173616054904 0.0 -5.405584425986331e-10 0.0 0.01 0.0 -5.405584425986331e-10 0.0 0.010014687545345307 0.010014921029251306 0.0 -3.5967501056967106e-10 0.0 0.01 0.0 -3.5967501056882403e-10 0.0 0.010014196172579303 0.010014552705658432 0.0 -1.6910463137471908e-10 0.0 0.01 0.0 -1.691046313751426e-10 0.0 0.01001372646072158 0.010014073102184483 0.0 -5.168265236292909e-11 0.0 0.01 0.0 -5.168265236303497e-11 0.0 0.010013410226976511 0.0100132278501884 0.0 -3.7063120146499514e-10 0.0 0.01 0.0 -3.7063120146499514e-10 0.0 0.010012746027835034 0.010013038154766143 0.0 -7.390823349345593e-10 0.0 0.01 0.0 -7.390823349311712e-10 0.0 0.010012787686985481 0.01001275777265137 0.0 -7.691614941423986e-10 0.0 0.01 0.0 -7.691614941407045e-10 0.0 0.010013943659721296 0.0100123735277983 0.0 -4.995621342726526e-10 0.0 0.01 0.0 -4.995621342726526e-10 0.0 0.010013500440153289 0.010011882947156252 0.0 -2.2680735225851073e-10 0.0 0.01 0.0 -2.2680735225851073e-10 0.0 0.01001307002926868 0.010011311162456744 0.0 -6.410665039909962e-11 0.0 0.01 0.0 -6.410665039909962e-11 0.0 0.010012757270735214 0.010010837893564654 0.0 -4.98023933345141e-10 0.0 0.01 0.0 -4.98023933345141e-10 0.0 0.010011934882262449 0.010010520980393423 0.0 -9.237255668842617e-10 0.0 0.01 0.0 -9.237255668842617e-10 0.0 0.010011981950718748 0.010010094865397562 0.0 -9.343355433618927e-10 0.0 0.01 0.0 -9.343355433618927e-10 0.0 0.010013023949377262 0.01000955517778622 0.0 -5.872714564560308e-10 0.0 0.01 0.0 -5.87271456455819e-10 0.0 0.010012642584892198 0.01000892794200555 0.0 -2.5295647868483614e-10 0.0 0.01 0.0 -2.5295647868483614e-10 0.0 0.01001228088603697 0.010008255812523603 0.0 -6.362641822316589e-11 0.0 0.01 0.0 -6.362641822319236e-11 0.0 0.010011989778799177 0.010008532859040298 0.0 -5.530187631598284e-10 0.0 0.01 0.0 -5.530187631602519e-10 0.0 0.010011021594591902 0.010008073266130757 0.0 -1.060653462614003e-09 0.0 0.01 0.0 -1.060653462614003e-09 0.0 0.010011095087867902 0.010007488403036587 0.0 -9.952661462682454e-10 0.0 0.01 0.0 -9.952661462682454e-10 0.0 0.010012017729211124 0.010006791562538364 0.0 -5.891973622458485e-10 0.0 0.01 0.0 -5.891973622456368e-10 0.0 0.01001169628851976 0.010006027895952214 0.0 -2.4205688562022247e-10 0.0 0.01 0.0 -2.4205688562022247e-10 0.0 0.010011410098886116 0.010005275671972425 0.0 -5.3191425646363e-11 0.0 0.01 0.0 -5.319142564637624e-11 0.0 0.010011139184610187 0.010006617913725277 0.0 -5.039077839744372e-10 0.0 0.01 0.0 -5.039077839744372e-10 0.0 0.010010040000024525 0.01000600735892265 0.0 -2.73929330092382e-09 0.0 0.01 0.0 -2.739293300922973e-09 0.0 0.010010151186093606 0.010005263903387586 0.0 -2.5253539339473564e-09 0.0 0.01 0.0 -2.5253539339473564e-09 0.0 0.010010977047920646 0.01000442042930291 0.0 -1.1363665871141858e-09 0.0 0.01 0.0 -1.136366587113974e-09 0.0 0.010010742385065803 0.010003548287658722 0.0 -2.611942157453471e-10 0.0 0.01 0.0 -2.611942157453471e-10 0.0 0.010010505280982249 0.010002738924845603 0.0 -3.9001127990835614e-11 0.0 0.01 0.0 -3.900112799084223e-11 0.0 0.010010245223209587 0.010005238463351614 0.0 -2.9242120799503364e-10 0.0 0.01 0.0 -2.9242120799503364e-10 0.0 0.010009006803780507 0.010004488370024043 0.0 -8.809696300029492e-09 0.0 0.01 0.0 -8.80969630003288e-09 0.0 0.010009150243750778 0.010003601544746702 0.0 -8.924872803121536e-09 0.0 0.01 0.0 -8.92487280312323e-09 0.0 0.01000995770366852 0.010002642647171812 0.0 -4.607154858221656e-09 0.0 0.01 0.0 -4.607154858220809e-09 0.0 0.010009820597704513 0.010001696731737347 0.0 -1.2539236073397006e-09 0.0 0.01 0.0 -1.2539236073397006e-09 0.0 0.010009599254182969 0.010000851658786055 0.0 -1.2445117508412208e-10 0.0 0.01 0.0 -1.2445117508414855e-10 0.0 0.010009353907989809 0.010004353441218677 0.0 1.5831067444644926e-09 0.0 0.01 0.0 1.5831067444644926e-09 0.0 0.010007888724988723 0.010003487173258965 0.0 -1.829387096389162e-08 0.0 0.01 0.0 -1.8293870963898397e-08 0.0 0.010008113363379175 0.010002487728070157 0.0 -1.990791985039995e-08 0.0 0.01 0.0 -1.9907919850386396e-08 0.0 0.010009010213036898 0.010001452966622684 0.0 -1.0722186288884367e-08 0.0 0.01 0.0 -1.072218628888606e-08 0.0 0.010008954864110206 0.010000473683655618 0.0 -2.9660468955574362e-09 0.0 0.01 0.0 -2.9660468955578597e-09 0.0 0.010008740445970657 0.009999623521261516 0.0 -2.5961535451913847e-10 0.0 0.01 0.0 -2.596153545191914e-10 0.0 0.010008506942912125 0.010003825944561343 0.0 4.5588935525540985e-09 0.0 0.01 0.0 4.558893552547322e-09 0.0 0.010006699576643106 0.010002838608268678 0.0 -2.1841813351880675e-08 0.0 0.01 0.0 -2.184181335188745e-08 0.0 0.010007142394861333 0.010001752410629143 0.0 -2.52250598010913e-08 0.0 0.01 0.0 -2.52250598010913e-08 0.0 0.01000816819712342 0.01000069247194029 0.0 -1.1356912429483806e-08 0.0 0.01 0.0 -1.1356912429483806e-08 0.0 0.010008190251074363 0.00999973401061294 0.0 -3.0114313647001747e-10 0.0 0.01 0.0 -3.0114313646996453e-10 0.0 0.010007990517061003 0.009998920174929031 0.0 1.8517440625150616e-09 0.0 0.01 0.0 1.8517440625150616e-09 0.0 0.010007747293793744 0.010003638685050583 0.0 -7.894810452183435e-09 0.0 0.01 0.0 -7.894810452183435e-09 0.0 0.010005754463278166 0.010002371943650818 0.0 9.33116617171204e-10 0.0 0.01 0.0 9.33116617171204e-10 0.0 0.010006388416569768 0.010001184760516814 0.0 -3.107803723176882e-09 0.0 0.01 0.0 -3.107803723176882e-09 0.0 0.010007473720134018 0.010000150903431511 0.0 1.0269597781168796e-08 0.0 0.01 0.0 1.0269597781168796e-08 0.0 0.010007578907292767 0.00999928357704478 0.0 1.7922731500535325e-08 0.0 0.01 0.0 1.7922731500531937e-08 0.0 0.010007375852510127 0.009998568807327671 0.0 1.215795532757868e-08 0.0 0.01 0.0 1.2157955327580375e-08 0.0 0.01000710326130859 0.010003908541469608 0.0 -8.796896904493534e-08 0.0 0.01 0.0 -8.796896904482692e-08 0.0 0.010005306972765204 0.010002045077828599 0.0 6.577719575173225e-08 0.0 0.01 0.0 6.577719575175936e-08 0.0 0.010006034759003007 0.010000669518007795 0.0 7.194940134034721e-08 0.0 0.01 0.0 7.194940134034721e-08 0.0 0.010007029856665644 0.009999672516868629 0.0 7.219524371912306e-08 0.0 0.01 0.0 7.219524371915016e-08 0.0 0.010007139940319322 0.009998962662062632 0.0 6.48182298762333e-08 0.0 0.01 0.0 6.481822987624685e-08 0.0 0.010006899233981239 0.009998409879585625 0.0 3.940076056215057e-08 0.0 0.01 0.0 3.940076056215057e-08 0.0 0.010006589006767506 0.010004514319573814 0.0 -3.1174539352578357e-07 0.0 0.01 0.0 -3.1174539352578357e-07 0.0 0.01000499690741837 0.010001877481392233 0.0 1.3632447719551938e-07 0.0 0.01 0.0 1.3632447719551938e-07 0.0 0.010005799944787279 0.010000212912682382 0.0 1.9813081385863362e-07 0.0 0.01 0.0 1.9813081385874204e-07 0.0 0.010006669271827818 0.009999219096405965 0.0 1.8126073005826139e-07 0.0 0.01 0.0 1.812607300582885e-07 0.0 0.01000680724941317 0.009998693259488689 0.0 1.4855237007892945e-07 0.0 0.01 0.0 1.4855237007892945e-07 0.0 0.010006541566524895 0.009998352908307721 0.0 9.245448179231368e-08 0.0 0.01 0.0 9.245448179228657e-08 0.0 0.010006193750914412 0.010001874528777769 0.0 1.1054391325666241e-07 0.0 0.01 0.0 1.1054391325655399e-07 0.0 0.010005438034448573 0.00999992251662452 0.0 3.238997910491679e-07 0.0 0.01 0.0 3.238997910492763e-07 0.0 0.010006213301684871 0.00999888420258314 0.0 3.2469233480407565e-07 0.0 0.01 0.0 3.2469233480402144e-07 0.0 0.010006500498772074 0.009998482356216885 0.0 2.666475220455995e-07 0.0 0.01 0.0 2.666475220455995e-07 0.0 0.01000625342155468 0.009998355410473767 0.0 1.7673338819222304e-07 0.0 0.01 0.0 1.7673338819216883e-07 0.0 0.010005890956097729 0.010002079250018621 0.0 -1.067195703382531e-07 0.0 0.01 0.0 -1.0671957033830731e-07 0.0 0.010005051677045039 0.009999981020412267 0.0 3.685444039119726e-07 0.0 0.01 0.0 3.685444039119726e-07 0.0 0.010005753031142208 0.009998826738831136 0.0 4.642840876755176e-07 0.0 0.01 0.0 4.642840876755176e-07 0.0 0.010006152205076523 0.009998400908370933 0.0 4.0607246341970056e-07 0.0 0.01 0.0 4.0607246341959214e-07 0.0 0.010005989751974649 0.009998406893546691 0.0 2.9179619427655273e-07 0.0 0.01 0.0 2.917961942764443e-07 0.0 0.010005636624907175 0.010000499545011296 0.0 2.2492168895356943e-07 0.0 0.01 0.0 2.2492168895356943e-07 0.0 0.01000538911082623 0.009999183642156545 0.0 5.304280211791516e-07 0.0 0.01 0.0 5.304280211791516e-07 0.0 0.01000580148682745 0.009998585844485562 0.0 5.444937942443179e-07 0.0 0.01 0.0 5.444937942442095e-07 0.0 0.010005766728852627 0.009998533850060772 0.0 4.2869950937296855e-07 0.0 0.01 0.0 4.2869950937286013e-07 0.0 0.010005412618830246 0.010001382592521053 0.0 -1.9741132460074796e-07 0.0 0.01 0.0 -1.9741132460074796e-07 0.0 0.010005059993777845 0.010000063027355736 0.0 4.225337623279873e-07 0.0 0.01 0.0 4.2253376232820414e-07 0.0 0.01000557548618316 0.009999195155530747 0.0 6.238860509360155e-07 0.0 0.01 0.0 6.23886050936124e-07 0.0 0.010005587738240356 0.0099988667408837 0.0 5.670529039568601e-07 0.0 0.01 0.0 5.670529039568601e-07 0.0 0.010005254186243992 0.010001247783507937 0.0 3.858757842532953e-09 0.0 0.01 0.0 3.858757842534647e-09 0.0 0.010005345583238267 0.010000305254518442 0.0 5.200953411374932e-07 0.0 0.01 0.0 5.200953411374932e-07 0.0 0.010005476686344907 0.009999631583508518 0.0 6.490272520401699e-07 0.0 0.01 0.0 6.490272520397362e-07 0.0 0.010005196510855165 0.010001678173148561 0.0 7.32224478799514e-08 0.0 0.01 0.0 7.32224478799514e-08 0.0 0.010005322096496641 0.010000945977530202 0.0 5.376305438004395e-07 0.0 0.01 0.0 5.376305438004395e-07 0.0 0.010005185223486578 0.010002433555127248 0.0 -6.691978714067764e-07 0.0 0.01 0.0 -6.691978714072101e-07 0.0 0.010004860558524271 0.010002355833019673 0.0 7.256000570787097e-08 0.0 0.01 0.0 7.256000570787097e-08 0.0 0.010005121132002949 0.009999888501864803 0.0 5.642346432701322e-16 0.0 0.01 0.0 5.642346432701322e-16 0.0 0.010000003900002281 0.009999883502035798 0.0 3.7677590626865215e-16 0.0 0.01 0.0 3.7677590626865215e-16 0.0 0.010000003900002281 0.009999882002088558 0.0 1.236625342454968e-16 0.0 0.01 0.0 1.236625342454968e-16 0.0 0.010000003400001733 0.009999880502141994 0.0 1.3660284184694364e-17 0.0 0.01 0.0 1.3660284184694364e-17 0.0 0.010000002950001304 0.009999880002159957 0.0 1.3159276956502577e-17 0.0 0.01 0.0 1.3159276956502577e-17 0.0 0.010000002950001304 0.009999879502177995 0.0 6.69584993119698e-18 0.0 0.01 0.0 6.69584993119698e-18 0.0 0.01000000195000057 0.009999879002196106 0.0 1.8283289506748323e-17 0.0 0.01 0.0 1.8283289506748323e-17 0.0 0.01000000195000057 0.009999878502214293 0.0 8.895209319755658e-18 0.0 0.01 0.0 8.895209319755658e-18 0.0 0.010000001450000314 0.009999878502214293 0.0 -3.2941933575830503e-18 0.0 0.01 0.0 -3.2941933575830503e-18 0.0 0.01000000100000015 0.00999986050291897 0.0 -3.908475145107249e-16 0.0 0.01 0.0 -3.908475145107249e-16 0.0 0.010000005850005133 0.009999855503131962 0.0 -2.7432316978053052e-17 0.0 0.01 0.0 -2.7432316978053052e-17 0.0 0.010000005850005133 0.00999985350321926 0.0 -1.400175710348292e-17 0.0 0.01 0.0 -1.400175710348292e-17 0.0 0.010000004900003601 0.009999853003241271 0.0 -2.0733840504558534e-17 0.0 0.01 0.0 -2.0733840504558534e-17 0.0 0.010000004400002904 0.009999852503263358 0.0 -5.995091866108645e-18 0.0 0.01 0.0 -5.995091866108645e-18 0.0 0.010000003900002281 0.00999985200328552 0.0 1.1221202355260189e-17 0.0 0.01 0.0 1.1221202355260189e-17 0.0 0.010000002950001304 0.00999985200328552 0.0 8.107769487602947e-18 0.0 0.01 0.0 8.107769487602947e-18 0.0 0.0100000024500009 0.00999985200328552 0.0 8.893350169330789e-18 0.0 0.01 0.0 8.893350169330789e-18 0.0 0.01000000195000057 0.00999985200328552 0.0 -1.9183894704515685e-14 0.0 0.01 0.0 -1.9183894704515685e-14 0.0 0.01000000195000057 0.00999983100428403 0.0 -4.644410150267849e-16 0.0 0.01 0.0 -4.644410150267849e-16 0.0 0.010000007300007994 0.009999828004437473 0.0 -2.4513477742199707e-16 0.0 0.01 0.0 -2.4513477742199707e-16 0.0 0.010000006850007037 0.009999825004593616 0.0 -1.4493663934932954e-16 0.0 0.01 0.0 -1.4493663934932954e-16 0.0 0.010000006850007037 0.009999824504619902 0.0 -1.0977568826067527e-16 0.0 0.01 0.0 -1.0977568826067527e-16 0.0 0.010000005350004294 0.009999823504672701 0.0 -4.843886595760758e-17 0.0 0.01 0.0 -4.843886595760758e-17 0.0 0.010000005350004294 0.009999824004646263 0.0 -1.3366547443749375e-17 0.0 0.01 0.0 -1.3366547443749375e-17 0.0 0.010000003900002281 0.009999824504619902 0.0 6.474520860832097e-18 0.0 0.01 0.0 6.474520860832097e-18 0.0 0.010000003400001733 0.009999824504619902 0.0 8.395555573010329e-18 0.0 0.01 0.0 8.395555573010329e-18 0.0 0.0100000024500009 0.009999825004593616 0.0 7.591131473797418e-14 0.0 0.01 0.0 7.591131473797418e-14 0.0 0.0100000024500009 0.009999799506029836 0.0 -3.129776888415856e-16 0.0 0.01 0.0 -3.129776888415856e-16 0.0 0.010000009300012973 0.009999794506334321 0.0 -2.58408325079027e-16 0.0 0.01 0.0 -2.58408325079027e-16 0.0 0.010000009300012973 0.009999793506396118 0.0 -2.659173193154248e-16 0.0 0.01 0.0 -2.659173193154248e-16 0.0 0.010000008300010334 0.009999793506396118 0.0 -1.0154355089246893e-16 0.0 0.01 0.0 -1.0154355089246893e-16 0.0 0.010000007300007994 0.00999979400636518 0.0 -4.385471337758769e-17 0.0 0.01 0.0 -4.385471337758769e-17 0.0 0.010000005850005133 0.009999794506334321 0.0 -3.6429426120396234e-14 0.0 0.01 0.0 -3.6429426120396234e-14 0.0 0.010000004900003601 0.009999795006303535 0.0 1.0736399943023447e-17 0.0 0.01 0.0 1.0736399943023447e-17 0.0 0.010000004400002904 0.009999795006303535 0.0 2.548344288353899e-18 0.0 0.01 0.0 2.548344288353899e-18 0.0 0.010000003400001733 0.009999796006242189 0.0 2.823268807574932e-18 0.0 0.01 0.0 2.823268807574932e-18 0.0 0.010000002950001304 0.009999760508603696 0.0 5.951931570048714e-17 0.0 0.01 0.0 5.951931570048714e-17 0.0 0.010000012200022326 0.009999758008784247 0.0 -3.5345638455040755e-16 0.0 0.01 0.0 -3.5345638455040755e-16 0.0 0.010000010750017335 0.009999754509040167 0.0 -2.559521016679519e-16 0.0 0.01 0.0 -2.559521016679519e-16 0.0 0.010000009300012973 0.009999754509040167 0.0 -6.75120929328253e-17 0.0 0.01 0.0 -6.75120929328253e-17 0.0 0.010000008300010334 0.009999754509040167 0.0 -3.4748074112161086e-17 0.0 0.01 0.0 -3.4748074112161086e-17 0.0 0.010000006850007037 0.009999756508893476 0.0 8.383870766312542e-18 0.0 0.01 0.0 8.383870766312542e-18 0.0 0.010000006350006049 0.009999757508820581 0.0 1.9807778554064726e-17 0.0 0.01 0.0 1.9807778554064726e-17 0.0 0.010000004900003601 0.009999758508747986 0.0 7.479156505003064e-18 0.0 0.01 0.0 7.479156505003064e-18 0.0 0.010000004400002904 0.009999758508747986 0.0 9.444806888627211e-18 0.0 0.01 0.0 9.444806888627211e-18 0.0 0.010000003900002281 0.009999711012527546 0.0 1.4964300308804766e-15 0.0 0.01 0.0 1.4964300308804766e-15 0.0 0.010000012700024194 0.009999708512745217 0.0 1.0660849366758065e-16 0.0 0.01 0.0 1.0660849366758065e-16 0.0 0.010000012200022326 0.00999970701287672 0.0 -2.7890693277625336e-16 0.0 0.01 0.0 -2.7890693277625336e-16 0.0 0.010000011250018984 0.009999707512832813 0.0 -8.186954001140927e-17 0.0 0.01 0.0 -8.186954001140927e-17 0.0 0.010000010750017335 0.009999709512657926 0.0 -1.990502321458437e-14 0.0 0.01 0.0 -1.990502321458437e-14 0.0 0.010000008300010334 0.009999711512484239 0.0 1.4949324431987903e-17 0.0 0.01 0.0 1.4949324431987903e-17 0.0 0.010000006850007037 0.009999713012354758 0.0 2.211585848318181e-17 0.0 0.01 0.0 2.211585848318181e-17 0.0 0.010000006350006049 0.009999714012268814 0.0 2.0940335969211705e-17 0.0 0.01 0.0 2.0940335969211705e-17 0.0 0.010000005350004294 0.009999714512225956 0.0 5.9585607452630695e-15 0.0 0.01 0.0 5.9585607452630695e-15 0.0 0.010000004400002904 0.00999965101826909 0.0 4.5245600286241164e-15 0.0 0.01 0.0 4.5245600286241164e-15 0.0 0.010000015600036506 0.00999964801858451 0.0 1.0418720775689123e-15 0.0 0.01 0.0 1.0418720775689123e-15 0.0 0.010000015600036504 0.009999647518637344 0.0 -1.7762378189894678e-16 0.0 0.01 0.0 -1.7762378189894678e-16 0.0 0.010000013650027948 0.00999964951842646 0.0 -8.537145069361204e-17 0.0 0.01 0.0 -8.537145069361204e-17 0.0 0.010000011250018984 0.00999965251811239 0.0 4.004753650645398e-15 0.0 0.01 0.0 4.004753650645398e-15 0.0 0.01000001025001576 0.009999655017852722 0.0 2.684401226608137e-17 0.0 0.01 0.0 2.684401226608137e-17 0.0 0.010000008800011615 0.009999657017646341 0.0 3.1329289959906724e-17 0.0 0.01 0.0 3.1329289959906724e-17 0.0 0.010000006350006049 0.00999965851749234 0.0 2.5805248778903653e-17 0.0 0.01 0.0 2.5805248778903653e-17 0.0 0.010000005850005133 0.009999659017441157 0.0 8.203859958900061e-18 0.0 0.01 0.0 8.203859958900061e-18 0.0 0.010000005350004294 0.009999574527155611 0.0 9.79663222987109e-13 0.0 0.01 0.0 9.796632229838003e-13 0.0 0.010000019050054437 0.009999573527283399 0.0 9.414439118818504e-16 0.0 0.01 0.0 9.414439118818504e-16 0.0 0.010000019050054435 0.009999576026964494 0.0 -2.1829963846472017e-16 0.0 0.01 0.0 -2.1829963846472017e-16 0.0 0.010000016100038882 0.009999579526521179 0.0 -7.846789722935588e-17 0.0 0.01 0.0 -7.846789722935588e-17 0.0 0.010000014150030033 0.009999582526144118 0.0 3.566240392344451e-17 0.0 0.01 0.0 3.566240392344451e-17 0.0 0.010000012200022326 0.00999958652564557 0.0 5.706855309529556e-17 0.0 0.01 0.0 5.706855309529556e-17 0.0 0.01000001025001576 0.009999589025336415 0.0 2.7734591205600463e-17 0.0 0.01 0.0 2.7734591205600463e-17 0.0 0.010000008300010334 0.0099995920249679 0.0 1.1075990282899825e-17 0.0 0.01 0.0 1.1075990282899825e-17 0.0 0.010000007300007994 0.009999592524906746 0.0 -1.8363665020933112e-17 0.0 0.01 0.0 -1.8363665020933112e-17 0.0 0.010000006350006049 0.00999948503978034 0.0 8.605949696020623e-12 0.0 0.01 0.0 8.605949696020623e-12 0.0 0.010000024400089307 0.009999485039780334 0.0 1.3246102350212314e-15 0.0 0.01 0.0 1.3246102350212314e-15 0.0 0.010000022950079004 0.009999488039318244 0.0 -3.4522146295365167e-16 0.0 0.01 0.0 -3.4522146295365167e-16 0.0 0.01000002000006 0.00999949253863017 0.0 -1.434211858120298e-16 0.0 0.01 0.0 -1.434211858120298e-16 0.0 0.010000017600046464 0.009999497537872767 0.0 8.687652114482352e-17 0.0 0.01 0.0 8.687652114482352e-17 0.0 0.010000014150030033 0.009999503037048281 0.0 1.1832820413584786e-16 0.0 0.01 0.0 1.1832820413584786e-16 0.0 0.010000012700024194 0.009999507036454355 0.0 3.7036258916035094e-17 0.0 0.01 0.0 3.7036258916035094e-17 0.0 0.010000010750017335 0.009999510535938606 0.0 6.609879903370401e-18 0.0 0.01 0.0 6.609879903370401e-18 0.0 0.010000008300010334 0.009999512035718694 0.0 -2.0819935354060716e-17 0.0 0.01 0.0 -2.0819935354060716e-17 0.0 0.010000007800009127 0.009999373558869188 0.0 2.5718425224792643e-11 0.0 0.01 0.0 2.5718425224845583e-11 0.0 0.010000033200165336 0.009999377558119908 0.0 8.083263368293394e-14 0.0 0.01 0.0 8.083263368334753e-14 0.0 0.010000029800133209 0.009999384056912556 0.0 -3.665772378813786e-16 0.0 0.01 0.0 -3.665772378813786e-16 0.0 0.010000025900100622 0.009999390555717878 0.0 -1.411811992852181e-16 0.0 0.01 0.0 -1.411811992852181e-16 0.0 0.010000023450082485 0.00999939755444547 0.0 1.7731062071852015e-16 0.0 0.01 0.0 1.7731062071852015e-16 0.0 0.01000001955005733 0.009999404053277108 0.0 7.380676107058769e-17 0.0 0.01 0.0 7.380676107058769e-17 0.0 0.010000017100043862 0.00999940905238699 0.0 -2.487496261257069e-18 0.0 0.01 0.0 -2.487496261257069e-18 0.0 0.010000013200026137 0.009999414051504368 0.0 -8.703658491646175e-17 0.0 0.01 0.0 -8.703658491646175e-17 0.0 0.010000010750017335 0.009999416551065872 0.0 -4.950379362749781e-17 0.0 0.01 0.0 -4.950379362749781e-17 0.0 0.01000000975001426 0.009999239586743045 0.0 4.4627326492867916e-11 0.0 0.01 0.0 4.462732649276204e-11 0.0 0.010000045900316026 0.009999246585153644 0.0 3.375576214296464e-13 0.0 0.01 0.0 3.3755762143130077e-13 0.0 0.010000040550246647 0.009999256582908565 0.0 -8.496369618411949e-16 0.0 0.01 0.0 -8.496369618411949e-16 0.0 0.010000034650180095 0.009999266080803515 0.0 2.0074280089654404e-17 0.0 0.01 0.0 2.0074280089654404e-17 0.0 0.010000029800133207 0.009999276078616913 0.0 2.3553810302421446e-16 0.0 0.01 0.0 2.3553810302421446e-16 0.0 0.010000024400089305 0.009999283576996643 0.0 5.388802513317563e-17 0.0 0.01 0.0 5.388802513317563e-17 0.0 0.01000002000006 0.009999291575286949 0.0 1.9089056302570532e-17 0.0 0.01 0.0 1.9089056302570532e-17 0.0 0.010000017100043862 0.009999298073911953 0.0 1.4017354191893717e-14 0.0 0.01 0.0 1.4017354191893717e-14 0.0 0.010000014150030033 0.009999302073072099 0.0 -3.005609391694866e-17 0.0 0.01 0.0 -3.005609391694866e-17 0.0 0.010000011700020532 0.009999081126664748 0.0 5.031402078923714e-11 0.0 0.01 0.0 5.03140207894489e-11 0.0 0.010000064450623075 0.00999909262351476 0.0 3.6620376852413016e-13 0.0 0.01 0.0 3.66203768523303e-13 0.0 0.010000055650464544 0.009999105620001647 0.0 -8.605340650512884e-16 0.0 0.01 0.0 -8.605340650512884e-16 0.0 0.010000045900316024 0.009999119616274975 0.0 2.1629000343269057e-16 0.0 0.01 0.0 2.1629000343269057e-16 0.0 0.010000040050240602 0.00999913311273706 0.0 4.1838755728669056e-16 0.0 0.01 0.0 4.1838755728669056e-16 0.0 0.010000031750151211 0.009999144609766388 0.0 2.1387862542990522e-16 0.0 0.01 0.0 2.1387862542990522e-16 0.0 0.010000025900100622 0.009999153607469176 0.0 -8.837646034549102e-17 0.0 0.01 0.0 -8.837646034549102e-17 0.0 0.010000020500063036 0.00999916060569925 0.0 3.533089980270624e-17 0.0 0.01 0.0 3.533089980270624e-17 0.0 0.010000017600046464 0.009999164604694459 0.0 -6.370389142587153e-17 0.0 0.01 0.0 -6.370389142587153e-17 0.0 0.010000014650032193 0.00999889168428179 0.0 3.647716967131138e-11 0.0 0.01 0.0 3.647716967131138e-11 0.0 0.010000093251304356 0.009998908678673339 0.0 1.0042129174151846e-13 0.0 0.01 0.0 1.0042129174131167e-13 0.0 0.010000075200848271 0.009998927172668471 0.0 -5.621867889140655e-16 0.0 0.01 0.0 -5.621867889140655e-16 0.0 0.010000062500585943 0.009998947166292165 0.0 5.818582707671426e-16 0.0 0.01 0.0 5.818582707671426e-16 0.0 0.010000051250393988 0.009998963661122004 0.0 8.673467015848547e-16 0.0 0.01 0.0 8.673467015848547e-16 0.0 0.01000004150025834 0.009998978156645919 0.0 2.2200584947607782e-16 0.0 0.01 0.0 2.2200584947607782e-16 0.0 0.010000033700170356 0.009998991152686473 0.0 -6.560453017923008e-17 0.0 0.01 0.0 -6.560453017923008e-17 0.0 0.010000026850108139 0.00999899865042523 0.0 -1.5866552734503645e-16 0.0 0.01 0.0 -1.5866552734503645e-16 0.0 0.01000002195007227 0.009999005148479128 0.0 -3.2061837573964424e-17 0.0 0.01 0.0 -3.2061837573964424e-17 0.0 0.010000018550051615 0.009998668266074533 0.0 1.4891110197747782e-11 0.0 0.01 0.0 1.4891110197761017e-11 0.0 0.010000125502362593 0.009998692256573667 0.0 4.1204522289137335e-16 0.0 0.01 0.0 4.1204522289137335e-16 0.0 0.010000102551577501 0.00999871674705299 0.0 1.3333361578804865e-17 0.0 0.01 0.0 1.3333361578804865e-17 0.0 0.010000084001058415 0.009998740238090002 0.0 5.949129347768221e-16 0.0 0.01 0.0 5.949129347768221e-16 0.0 0.010000066900671348 0.00999876123022061 0.0 8.325518307558401e-16 0.0 0.01 0.0 8.325518307558401e-16 0.0 0.010000053700432558 0.009998781222848875 0.0 -4.730919633451256e-18 0.0 0.01 0.0 -4.730919633451256e-18 0.0 0.010000042500270938 0.009998796217398777 0.0 -2.36254452760759e-16 0.0 0.01 0.0 -2.36254452760759e-16 0.0 0.010000033700170356 0.00999880771326605 0.0 -3.6371838355993424e-16 0.0 0.01 0.0 -3.6371838355993424e-16 0.0 0.010000027350112205 0.009998814710769894 0.0 -1.2845743015756095e-16 0.0 0.01 0.0 -1.2845743015756095e-16 0.0 0.0100000224500756 0.00999840388222014 0.0 1.958481204867261e-12 0.0 0.01 0.0 1.958481204867261e-12 0.0 0.0100001679542312 0.009998435867053328 0.0 1.824218516164662e-15 0.0 0.01 0.0 1.824218516164662e-15 0.0 0.010000135752764273 0.009998468851734058 0.0 1.66586021249499e-16 0.0 0.01 0.0 1.66586021249499e-16 0.0 0.010000108401762615 0.0099984998376406 0.0 9.682764899162236e-16 0.0 0.01 0.0 9.682764899162236e-16 0.0 0.010000087901158979 0.009998528824717202 0.0 5.549015209896948e-16 0.0 0.01 0.0 5.549015209896948e-16 0.0 0.01000006785069055 0.00999855231442972 0.0 -1.427650273796966e-16 0.0 0.01 0.0 -1.427650273796966e-16 0.0 0.010000053700432558 0.00999857230580482 0.0 -5.353599217265634e-16 0.0 0.01 0.0 -5.353599217265634e-16 0.0 0.010000041000252152 0.00999858629983874 0.0 -4.848312205359073e-16 0.0 0.01 0.0 -4.848312205359073e-16 0.0 0.010000032250156011 0.009998594796245144 0.0 -5.655318526462237e-16 0.0 0.01 0.0 -5.655318526462237e-16 0.0 0.010000026850108139 0.009998094544752353 0.0 6.8332447243916365e-15 0.0 0.01 0.0 6.8332447243916365e-15 0.0 0.01000021730708315 0.00999813602129205 0.0 2.8788351888248743e-15 0.0 0.01 0.0 2.8788351888248743e-15 0.0 0.010000174804583388 0.00999817799807465 0.0 -1.0635119344188969e-15 0.0 0.01 0.0 -1.0635119344188969e-15 0.0 0.010000140152946372 0.009998217476721687 0.0 9.672690761288645e-17 0.0 0.01 0.0 9.672690761288645e-17 0.0 0.010000110351826602 0.009998253457668095 0.0 -4.1285005970808634e-16 0.0 0.01 0.0 -4.1285005970808634e-16 0.0 0.010000085951108127 0.00999828394182944 0.0 -1.3924635593538779e-15 0.0 0.01 0.0 -1.3924635593538779e-15 0.0 0.010000065450642562 0.009998309428801302 0.0 -1.6418526232298781e-15 0.0 0.01 0.0 -1.6418526232298781e-15 0.0 0.010000049800372009 0.00999832791947151 0.0 -8.0850391975509e-16 0.0 0.01 0.0 -8.0850391975509e-16 0.0 0.010000039550234633 0.00999833841422186 0.0 -3.0800929073681914e-16 0.0 0.01 0.0 -3.0800929073681914e-16 0.0 0.010000032250156011 0.009997734270262376 0.0 1.3230253075215662e-14 0.0 0.01 0.0 1.3230253075215662e-14 0.0 0.010000271961094024 0.009997785235994277 0.0 -6.536645249919548e-16 0.0 0.01 0.0 -6.536645249919548e-16 0.0 0.010000220707306542 0.009997838700884052 0.0 -3.56697337548031e-15 0.0 0.01 0.0 -3.56697337548031e-15 0.0 0.010000174804583388 0.009997889168529575 0.0 -1.928047956338678e-15 0.0 0.01 0.0 -1.928047956338678e-15 0.0 0.010000136702803097 0.00999793464003302 0.0 -2.3991143985539513e-15 0.0 0.01 0.0 -2.3991143985539513e-15 0.0 0.010000105451667985 0.009997973616101214 0.0 -2.7471609116182843e-15 0.0 0.01 0.0 -2.7471609116182843e-15 0.0 0.010000081050985378 0.009998003598002318 0.0 -2.435781964694072e-15 0.0 0.01 0.0 -2.435781964694072e-15 0.0 0.010000060550549951 0.009998025584901224 0.0 -1.6578756730404735e-15 0.0 0.01 0.0 -1.6578756730404735e-15 0.0 0.010000047850343446 0.00999803907693373 0.0 -1.2219348973171744e-15 0.0 0.01 0.0 -1.2219348973171744e-15 0.0 0.010000039050228738 0.009997313582913394 0.0 1.4619811649300564e-14 0.0 0.01 0.0 1.4619811649300564e-14 0.0 0.010000335966930307 0.009997378031568393 0.0 -8.852684888284495e-15 0.0 0.01 0.0 -8.852684888284495e-15 0.0 0.010000270510976031 0.00999744497955312 0.0 -6.62890879399066e-15 0.0 0.01 0.0 -6.62890879399066e-15 0.0 0.010000214356892134 0.009997507931870165 0.0 -3.9340173155004554e-15 0.0 0.01 0.0 -3.9340173155004554e-15 0.0 0.010000167004183467 0.009997565389388029 0.0 -4.369416817866616e-15 0.0 0.01 0.0 -4.369416817866616e-15 0.0 0.010000128902492335 0.009997612855041301 0.0 -4.378066313218734e-15 0.0 0.01 0.0 -4.378066313218734e-15 0.0 0.010000096701402656 0.00999765132769843 0.0 -3.839133739258907e-15 0.0 0.01 0.0 -3.839133739258907e-15 0.0 0.010000074200825857 0.00999767880843974 0.0 -1.925464972135464e-15 0.0 0.01 0.0 -1.925464972135464e-15 0.0 0.010000058100506347 0.009997695296993299 0.0 -9.490577262782577e-16 0.0 0.01 0.0 -9.490577262782577e-16 0.0 0.01000004685032924 0.009996823014626986 0.0 6.482298778054209e-15 0.0 0.01 0.0 6.482298778054209e-15 0.0 0.010000405274635799 0.009996904937504984 0.0 -2.026472086536402e-14 0.0 0.01 0.0 -2.026472086536402e-14 0.0 0.010000326666005904 0.009996989859687404 0.0 -8.201990057018677e-15 0.0 0.01 0.0 -8.201990057018677e-15 0.0 0.010000258310008265 0.009997067790182562 0.0 2.3905421487625754e-16 0.0 0.01 0.0 2.3905421487625754e-16 0.0 0.010000200706042276 0.00999713772935814 0.0 -1.9194988104849664e-15 0.0 0.01 0.0 -1.9194988104849664e-15 0.0 0.010000154303571365 0.009997196679231858 0.0 -3.7604060300362046e-15 0.0 0.01 0.0 -3.7604060300362046e-15 0.0 0.010000117702078034 0.00999724314046038 0.0 -3.2497970798685606e-15 0.0 0.01 0.0 -3.2497970798685606e-15 0.0 0.010000090351224488 0.009997276113338121 0.0 -1.2788329909572028e-15 0.0 0.01 0.0 -1.2788329909572028e-15 0.0 0.010000070300741322 0.00999729609705917 0.0 -9.113079851171456e-16 0.0 0.01 0.0 -9.113079851171456e-16 0.0 0.010000059100523926 0.009996257102441517 0.0 -7.488026280784238e-15 0.0 0.01 0.0 -7.488026280784238e-15 0.0 0.010000480484627603 0.009996360987326211 0.0 -2.7569904726957533e-14 0.0 0.01 0.0 -2.7569904726957533e-14 0.0 0.0100003862723798 0.009996463876510119 0.0 5.470376095751163e-15 0.0 0.01 0.0 5.470376095751163e-15 0.0 0.010000305213972766 0.009996560775054187 0.0 1.7943792193863434e-14 0.0 0.01 0.0 1.7943792193863434e-14 0.0 0.010000237808482661 0.009996647186957414 0.0 1.256997108321882e-14 0.0 0.01 0.0 1.256997108321882e-14 0.0 0.010000184555108963 0.009996718615829247 0.0 2.8759963718947517e-15 0.0 0.01 0.0 2.8759963718947517e-15 0.0 0.010000142103028933 0.00999677306264103 0.0 7.699490783658801e-16 0.0 0.01 0.0 7.699490783658801e-16 0.0 0.010000112301891729 0.009996814522736545 0.0 -1.2699905868337212e-15 0.0 0.01 0.0 -1.2699905868337212e-15 0.0 0.010000089851210972 0.009996838499894677 0.0 -1.5180239665580329e-15 0.0 0.01 0.0 -1.5180239665580329e-15 0.0 0.010000078600926707 0.009995602402531351 0.0 -1.960989054951451e-14 0.0 0.01 0.0 -1.960989054951451e-14 0.0 0.010000562047381038 0.009995733731710607 0.0 -2.3510772897563974e-14 0.0 0.01 0.0 -2.3510772897563974e-14 0.0 0.010000451180532744 0.009995860571649366 0.0 4.069785119952295e-14 0.0 0.01 0.0 4.069785119952295e-14 0.0 0.010000357419161356 0.009995979925449932 0.0 6.145153344344083e-14 0.0 0.01 0.0 6.145153344344083e-14 0.0 0.01000028076182364 0.00999608430110603 0.0 4.3066117520463994e-14 0.0 0.01 0.0 4.3066117520463994e-14 0.0 0.01000022215740287 0.00999616870295088 0.0 2.1784155080893407e-14 0.0 0.01 0.0 2.1784155080893407e-14 0.0 0.010000176254659746 0.00999623662551464 0.0 8.882170861541383e-15 0.0 0.01 0.0 8.882170861541383e-15 0.0 0.010000142103028933 0.009996282573916422 0.0 2.272017589990569e-15 0.0 0.01 0.0 2.272017589990569e-15 0.0 0.010000119152129552 0.009996311042265855 0.0 2.2400783430074725e-16 0.0 0.01 0.0 2.2400783430074725e-16 0.0 0.010000106451699771 0.009994853475734847 0.0 -3.149018015933591e-14 0.0 0.01 0.0 -3.149018015933591e-14 0.0 0.010000649463264902 0.009995017725933279 0.0 8.630618133834341e-15 0.0 0.01 0.0 8.630618133834341e-15 0.0 0.010000521040719685 0.009995173995796828 0.0 1.1669622072472058e-13 0.0 0.01 0.0 1.1669622072472058e-13 0.0 0.0100004160259602 0.009995316791921177 0.0 1.311166888485896e-13 0.0 0.01 0.0 1.311166888485896e-13 0.0 0.010000333016634276 0.009995440120772093 0.0 9.28572534672274e-14 0.0 0.01 0.0 9.285725346720155e-14 0.0 0.010000269060858671 0.00999554148352892 0.0 4.844581483237293e-14 0.0 0.01 0.0 4.844581483237293e-14 0.0 0.010000223157469668 0.00999561938015672 0.0 2.2407033322444686e-14 0.0 0.01 0.0 2.2407033322444686e-14 0.0 0.010000188505330005 0.009995675307063915 0.0 8.631325934538894e-15 0.0 0.01 0.0 8.631325934538894e-15 0.0 0.010000167004183467 0.009995706267005503 0.0 2.1577620221436406e-15 0.0 0.01 0.0 2.1577620221436406e-15 0.0 0.010000153303525224 0.009994003897301956 0.0 -7.350228112922673e-15 0.0 0.01 0.0 -7.350228112922673e-15 0.0 0.010000740782305634 0.009994204541995925 0.0 9.237373835324374e-14 0.0 0.01 0.0 9.237373835324374e-14 0.0 0.010000599153843501 0.00999439621388474 0.0 2.2654528845015606e-13 0.0 0.01 0.0 2.2654528845015606e-13 0.0 0.010000485885410401 0.009994564934204244 0.0 2.176586737487473e-13 0.0 0.01 0.0 2.176586737487473e-13 0.0 0.0100003999239896 0.009994710699466525 0.0 1.427665949485888e-13 0.0 0.01 0.0 1.427665949485888e-13 0.0 0.010000336466980746 0.009994828015182786 0.0 7.533862090216136e-14 0.0 0.01 0.0 7.533862090216136e-14 0.0 0.010000289062533092 0.009994917377585254 0.0 3.547981663642657e-14 0.0 0.01 0.0 3.547981663642657e-14 0.0 0.010000255859819302 0.009994979782918967 0.0 1.4512328180559372e-14 0.0 0.01 0.0 1.4512328180559372e-14 0.0 0.010000235858344112 0.009995017725933279 0.0 2.9632083253988352e-15 0.0 0.01 0.0 2.9632083253988352e-15 0.0 0.010000224107533404 0.009993059232830465 0.0 1.3381891739973904e-14 0.0 0.01 0.0 1.3381891739973904e-14 0.0 0.010000843356675577 0.009993304231007263 0.0 1.9520836053466672e-13 0.0 0.01 0.0 1.9520836053461502e-13 0.0 0.010000689521309392 0.009993529784974099 0.0 3.374406412218202e-13 0.0 0.01 0.0 3.374406412217168e-13 0.0 0.010000573299297046 0.009993726408634484 0.0 2.846482657416649e-13 0.0 0.01 0.0 2.846482657416649e-13 0.0 0.010000490286054705 0.00999389309869506 0.0 1.7346335976716315e-13 0.0 0.01 0.0 1.7346335976705975e-13 0.0 0.0100004302277628 0.009994028353346791 0.0 8.430562871766105e-14 0.0 0.01 0.0 8.430562871766105e-14 0.0 0.01000038722249003 0.009994128674919682 0.0 3.58541901774355e-14 0.0 0.01 0.0 3.58541901774355e-14 0.0 0.010000359369371024 0.009994199051557412 0.0 1.4851885446175124e-14 0.0 0.01 0.0 1.4851885446175124e-14 0.0 0.010000339867325686 0.00999424097877169 0.0 2.852498560005743e-15 0.0 0.01 0.0 2.852498560005743e-15 0.0 0.010000330566390398 0.009992038517882483 0.0 -1.9944980474982194e-13 0.0 0.01 0.0 -1.9944980474982194e-13 0.0 0.010000960088247721 0.009992329334900825 0.0 1.3366928071257692e-13 0.0 0.01 0.0 1.3366928071257692e-13 0.0 0.010000800896204937 0.009992590742706522 0.0 3.091713787172406e-13 0.0 0.01 0.0 3.091713787172406e-13 0.0 0.010000690971609667 0.00999281525051806 0.0 2.588849858473568e-13 0.0 0.01 0.0 2.588849858473568e-13 0.0 0.010000616256961217 0.009993001852969833 0.0 1.474239082976523e-13 0.0 0.01 0.0 1.474239082976006e-13 0.0 0.010000566448125886 0.00999315054369012 0.0 6.632654231309479e-14 0.0 0.01 0.0 6.632654231309479e-14 0.0 0.010000532742569172 0.009993262315581185 0.0 2.7939550517453296e-14 0.0 0.01 0.0 2.7939550517453296e-14 0.0 0.0100005078386824 0.009993340657936842 0.0 9.361820458129896e-15 0.0 0.01 0.0 9.361820458129896e-15 0.0 0.010000492236342107 0.009993386566415454 0.0 2.6001363530814535e-15 0.0 0.01 0.0 2.6001363530814535e-15 0.0 0.010000483435054159 0.009990992185742148 0.0 -1.2561945660411577e-12 0.0 0.01 0.0 -1.2561945660413645e-12 0.0 0.010001106633668613 0.009991328292831924 0.0 -6.300170736031308e-13 0.0 0.01 0.0 -6.300170736032342e-13 0.0 0.01000095423656774 0.009991623037793513 0.0 -2.508081916514151e-13 0.0 0.01 0.0 -2.508081916514151e-13 0.0 0.010000858510543402 0.009991872918165577 0.0 -6.955764206337107e-14 0.0 0.01 0.0 -6.955764206337107e-14 0.0 0.010000801346313096 0.00999207792384712 0.0 -1.737042278896904e-14 0.0 0.01 0.0 -1.737042278896904e-14 0.0 0.010000762287153398 0.009992240041897157 0.0 -3.319473481223825e-15 0.0 0.01 0.0 -3.319473481223825e-15 0.0 0.010000735931231245 0.009992360762616895 0.0 3.587177386091711e-15 0.0 0.01 0.0 3.587177386091711e-15 0.0 0.010000716376972044 0.009992445070177096 0.0 2.0349151224587505e-15 0.0 0.01 0.0 2.0349151224587505e-15 0.0 0.010000702724066227 0.00999249495731233 0.0 7.400006172834866e-16 0.0 0.01 0.0 7.400006172834866e-16 0.0 0.01000069587262907 0.009990006001988417 0.0 -3.907690268277097e-12 0.0 0.01 0.0 -3.907690268276684e-12 0.0 0.010001315709618227 0.00999038438680516 0.0 -2.8959853519681036e-12 0.0 0.01 0.0 -2.8959853519681036e-12 0.0 0.010001173556552929 0.009990707967345115 0.0 -2.0279424644446008e-12 0.0 0.01 0.0 -2.0279424644446008e-12 0.0 0.010001096880445615 0.009990978223570165 0.0 -1.1516534110044185e-12 0.0 0.01 0.0 -1.1516534110042117e-12 0.0 0.010001060718744775 0.00999119763589752 0.0 -5.478810573345496e-13 0.0 0.01 0.0 -5.478810573347564e-13 0.0 0.010001036311068839 0.00999137118134003 0.0 -2.2102338502261844e-13 0.0 0.01 0.0 -2.210233850225926e-13 0.0 0.010001015304605588 0.00999150034890436 0.0 -7.41943751355815e-14 0.0 0.01 0.0 -7.41943751355815e-14 0.0 0.010000999649875005 0.009991590120818648 0.0 -1.9823424328042746e-14 0.0 0.01 0.0 -1.9823424328042746e-14 0.0 0.010000985495661115 0.009991642987633578 0.0 -3.633460393208174e-15 0.0 0.01 0.0 -3.633460393208174e-15 0.0 0.010000978643642763 0.009989214972645724 0.0 -7.83328937760939e-12 0.0 0.01 0.0 -7.83328937760939e-12 0.0 0.010001630748814539 0.009989624669489057 0.0 -6.7419696057895086e-12 0.0 0.01 0.0 -6.741969605788681e-12 0.0 0.010001494985180293 0.009989966620531848 0.0 -5.567743833824846e-12 0.0 0.01 0.0 -5.567743833824019e-12 0.0 0.010001435859194554 0.00999024977858372 0.0 -3.5615853769824613e-12 0.0 0.01 0.0 -3.5615853769824613e-12 0.0 0.010001418751871428 0.009990479612944147 0.0 -1.8279045640907654e-12 0.0 0.01 0.0 -1.827904564090972e-12 0.0 0.010001406046489423 0.009990662594372642 0.0 -7.713237877228652e-13 0.0 0.01 0.0 -7.713237877228652e-13 0.0 0.010001387988923522 0.009990798216523638 0.0 -2.6387812170141335e-13 0.0 0.01 0.0 -2.6387812170141335e-13 0.0 0.010001368430839206 0.009990891958591378 0.0 -7.804924171250776e-14 0.0 0.01 0.0 -7.804924171250776e-14 0.0 0.010001351824064848 0.00999094830482731 0.0 -1.5656113649914876e-14 0.0 0.01 0.0 -1.5656113649914876e-14 0.0 0.010001338668757135 0.009988794363125142 0.0 -9.879144291137015e-12 0.0 0.01 0.0 -9.879144291137015e-12 0.0 0.010002112969507397 0.009989211483959622 0.0 -9.598772520510057e-12 0.0 0.01 0.0 -9.598772520510057e-12 0.0 0.010001968330996557 0.009989559872228623 0.0 -9.754409923403791e-12 0.0 0.01 0.0 -9.754409923402136e-12 0.0 0.01000191169804872 0.009989847980477695 0.0 -7.177801687230996e-12 0.0 0.01 0.0 -7.177801687230996e-12 0.0 0.010001899491072913 0.009990081775215006 0.0 -4.01221163700159e-12 0.0 0.01 0.0 -4.012211637001176e-12 0.0 0.010001890185785312 0.009990267227490668 0.0 -1.7508922158267682e-12 0.0 0.01 0.0 -1.7508922158263547e-12 0.0 0.010001867723128178 0.009990406822037733 0.0 -6.073882071172652e-13 0.0 0.01 0.0 -6.073882071172652e-13 0.0 0.01000183595548614 0.009990503544548592 0.0 -1.6920257831603823e-13 0.0 0.01 0.0 -1.6920257831603823e-13 0.0 0.010001806139203014 0.009990560881383842 0.0 -3.433364827241189e-14 0.0 0.01 0.0 -3.433364827241189e-14 0.0 0.010001782226336414 0.009988966288321612 0.0 -3.994103728108157e-12 0.0 0.01 0.0 -3.994103728108157e-12 0.0 0.010002830301137392 0.009989365488012542 0.0 -5.318740821103223e-12 0.0 0.01 0.0 -5.318740821103223e-12 0.0 0.010002646550263629 0.00998969794175645 0.0 -1.0693368112972318e-11 0.0 0.01 0.0 -1.0693368112970664e-11 0.0 0.010002563985766448 0.009989976091978867 0.0 -1.0127692396771637e-11 0.0 0.01 0.0 -1.0127692396771637e-11 0.0 0.010002534162971914 0.009990202916257579 0.0 -6.309263075695088e-12 0.0 0.01 0.0 -6.309263075695088e-12 0.0 0.010002508743753592 0.009990383888246152 0.0 -2.7900463478099942e-12 0.0 0.01 0.0 -2.7900463478099942e-12 0.0 0.010002465761697369 0.009990523487683667 0.0 -8.707000878032925e-13 0.0 0.01 0.0 -8.707000878032925e-13 0.0 0.01000240907026339 0.009990620213583105 0.0 -1.8323290870497238e-13 0.0 0.01 0.0 -1.8323290870497238e-13 0.0 0.010002354331170372 0.009990679048236271 0.0 -2.3033494016043127e-14 0.0 0.01 0.0 -2.3033494016043127e-14 0.0 0.010002316254506777 0.009990035912266626 0.0 1.6076345228498267e-11 0.0 0.01 0.0 1.6076345228498267e-11 0.0 0.010003839610259468 0.009990373418524242 0.0 1.3832610411669994e-11 0.0 0.01 0.0 1.3832610411671648e-11 0.0 0.010003580522103135 0.00999066259437264 0.0 -2.145407289454102e-12 0.0 0.01 0.0 -2.1454072894543086e-12 0.0 0.010003431965950431 0.009990907914950815 0.0 -8.43307619561791e-12 0.0 0.01 0.0 -8.433076195617082e-12 0.0 0.010003350332957824 0.009991113359907409 0.0 -6.566449155236438e-12 0.0 0.01 0.0 -6.566449155235611e-12 0.0 0.01000327896203401 0.009991279420554094 0.0 -2.714035844234769e-12 0.0 0.01 0.0 -2.7140358442351825e-12 0.0 0.01000319342904729 0.00999141008069711 0.0 -4.3937874090509643e-13 0.0 0.01 0.0 -4.3937874090509643e-13 0.0 0.010003096637781178 0.009991503341262522 0.0 1.6503018033646106e-13 0.0 0.01 0.0 1.6503018033646106e-13 0.0 0.010003004303333656 0.009991559697843298 0.0 8.381899880563093e-14 0.0 0.01 0.0 8.381899880563093e-14 0.0 0.010002941247131499 0.009992354776362402 0.0 4.9626297779055234e-11 0.0 0.01 0.0 4.9626297779055234e-11 0.0 0.010005156836203002 0.009992578769381612 0.0 5.092740822494629e-11 0.0 0.01 0.0 5.092740822495291e-11 0.0 0.010004791541631832 0.009992786812024946 0.0 2.045527169075342e-11 0.0 0.01 0.0 2.045527169075011e-11 0.0 0.010004536785496895 0.009992971916043621 0.0 2.1923162041392703e-12 0.0 0.01 0.0 2.1923162041388567e-12 0.0 0.010004363203971947 0.009993136073496283 0.0 -1.6943034572579773e-12 0.0 0.01 0.0 -1.6943034572583909e-12 0.0 0.01000421456288461 0.009993272295396703 0.0 2.830834005386634e-13 0.0 0.01 0.0 2.830834005386634e-13 0.0 0.010004060071288975 0.009993381077324929 0.0 1.6207327536486756e-12 0.0 0.01 0.0 1.6207327536486756e-12 0.0 0.010003900731169081 0.009993460919532748 0.0 1.2408571829146144e-12 0.0 0.01 0.0 1.2408571829148212e-12 0.0 0.010003756515651782 0.009993509823830082 0.0 3.838612287638574e-13 0.0 0.01 0.0 3.838612287638574e-13 0.0 0.01000366020858876 0.009996202664059694 0.0 7.990251094868343e-11 0.0 0.01 0.0 7.990251094868343e-11 0.0 0.01000673680156452 0.009996261597393532 0.0 9.521959945276283e-11 0.0 0.01 0.0 9.521959945276283e-11 0.0 0.010006251958163551 0.009996348001538497 0.0 5.3192184659590376e-11 0.0 0.01 0.0 5.3192184659590376e-11 0.0 0.010005862551399429 0.009996442399379264 0.0 2.193184879313761e-11 0.0 0.01 0.0 2.1931848793140918e-11 0.0 0.010005568147189142 0.00999653580093309 0.0 9.728470297104804e-12 0.0 0.01 0.0 9.728470297101495e-12 0.0 0.010005313782443742 0.009996619714722097 0.0 7.323779090982084e-12 0.0 0.01 0.0 7.323779090982084e-12 0.0 0.010005062942413922 0.00999669114300504 0.0 5.85261361022997e-12 0.0 0.01 0.0 5.8526136102291425e-12 0.0 0.010004818430354598 0.00999674508985597 0.0 3.270267048013968e-12 0.0 0.01 0.0 3.2702670480131407e-12 0.0 0.010004606681272765 0.009996777558289104 0.0 9.095196350664033e-13 0.0 0.01 0.0 9.095196350668169e-13 0.0 0.010004463937232302 0.010001590229243951 0.0 8.07217952013663e-11 0.0 0.01 0.0 8.072179520137954e-11 0.0 0.010008465838440905 0.010001451465951869 0.0 1.2157805836963316e-10 0.0 0.01 0.0 1.2157805836963316e-10 0.0 0.01000787158453129 0.010001381636285084 0.0 8.02586211221606e-11 0.0 0.01 0.0 8.025862112218708e-11 0.0 0.010007349895210264 0.010001353324673586 0.0 4.2917809562855785e-11 0.0 0.01 0.0 4.291780956284255e-11 0.0 0.010006917320784965 0.010001348922889862 0.0 2.4199533413950737e-11 0.0 0.01 0.0 2.419953341394412e-11 0.0 0.010006537655557082 0.010001356225852402 0.0 1.6638820828795034e-11 0.0 0.01 0.0 1.663882082880827e-11 0.0 0.01000617271065325 0.010001368430839205 0.0 1.1239971384248834e-11 0.0 0.01 0.0 1.1239971384245526e-11 0.0 0.010005828341477818 0.010001380635870685 0.0 5.7293002096107974e-12 0.0 0.01 0.0 5.7293002096107974e-12 0.0 0.01000553389020407 0.010001389939736179 0.0 1.5201812677545703e-12 0.0 0.01 0.0 1.5201812677545703e-12 0.0 0.010005338722252047 0.010008074719645611 0.0 4.405668669936602e-11 0.0 0.01 0.0 4.405668669939249e-11 0.0 0.010010179572484307 0.010007735015322459 0.0 1.1003262950395696e-10 0.0 0.01 0.0 1.1003262950406284e-10 0.0 0.01000950964783091 0.010007489856296655 0.0 8.38436778735348e-11 0.0 0.01 0.0 8.384367787364067e-11 0.0 0.010008879512875627 0.010007315168932688 0.0 5.243772543898845e-11 0.0 0.01 0.0 5.243772543898845e-11 0.0 0.01000832533515203 0.01000718839352798 0.0 3.348617656033899e-11 0.0 0.01 0.0 3.348617656033899e-11 0.0 0.010007820213805918 0.010007097398816476 0.0 2.310705064565234e-11 0.0 0.01 0.0 2.310705064565234e-11 0.0 0.010007335212916035 0.010007032311060503 0.0 1.4823613716964527e-11 0.0 0.01 0.0 1.4823613716964527e-11 0.0 0.010006879141883775 0.010006988769614032 0.0 7.23550980849789e-12 0.0 0.01 0.0 7.23550980847142e-12 0.0 0.010006497527197171 0.01000696527049644 0.0 1.8956548783634467e-12 0.0 0.01 0.0 1.8956548783634467e-12 0.0 0.01000624314165971 0.0100146958819814 0.0 -3.897918666698792e-12 0.0 0.01 0.0 -3.8979186666954835e-12 0.0 0.010011690869553946 0.0100141760873417 0.0 6.714458563332824e-11 0.0 0.01 0.0 6.714458563330177e-11 0.0 0.010011002030101798 0.010013761755852484 0.0 6.070245726879831e-11 0.0 0.01 0.0 6.070245726877184e-11 0.0 0.01001031278111038 0.010013432767491672 0.0 4.351447542217041e-11 0.0 0.01 0.0 4.351447542217041e-11 0.0 0.010009668303360197 0.010013172481503225 0.0 3.08567638944028e-11 0.0 0.01 0.0 3.0856763894416033e-11 0.0 0.010009058694140632 0.010012968031931782 0.0 2.2010104911424633e-11 0.0 0.01 0.0 2.2010104911437868e-11 0.0 0.010008462880943602 0.010012815593887817 0.0 1.3942778228216798e-11 0.0 0.01 0.0 1.3942778228216798e-11 0.0 0.010007902908532559 0.010012709739625349 0.0 6.692649235571089e-12 0.0 0.01 0.0 6.6926492355694345e-12 0.0 0.010007434081626097 0.010012645997805637 0.0 1.7241130241973183e-12 0.0 0.01 0.0 1.7241130241969047e-12 0.0 0.010007123303996468 0.010020161408868043 0.0 -3.0854140471873027e-11 0.0 0.01 0.0 -3.085414047186641e-11 0.0 0.010012870504913044 0.0100195085896281 0.0 2.1268783369451377e-11 0.0 0.01 0.0 2.1268783369448068e-11 0.0 0.010012207868476081 0.01001894676125567 0.0 2.6415409376383183e-11 0.0 0.01 0.0 2.6415409376383183e-11 0.0 0.010011512048620157 0.010018472911482224 0.0 2.2562831027229658e-11 0.0 0.01 0.0 2.2562831027229658e-11 0.0 0.010010824199163427 0.010018081623800567 0.0 1.8351214650685534e-11 0.0 0.01 0.0 1.8351214650682225e-11 0.0 0.010010142359277809 0.010017765982619702 0.0 1.40522607712021e-11 0.0 0.01 0.0 1.40522607712021e-11 0.0 0.010009461661535131 0.010017526418865455 0.0 9.075710391083809e-12 0.0 0.01 0.0 9.075710391085463e-12 0.0 0.010008816846825417 0.01001735708590828 0.0 4.340710269678733e-12 0.0 0.01 0.0 4.340710269680387e-12 0.0 0.010008275411041498 0.010017256465285824 0.0 1.106827087556157e-12 0.0 0.01 0.0 1.1068270875559502e-12 0.0 0.010007917092137079 0.010023417450465815 0.0 -3.0930537152077475e-11 0.0 0.01 0.0 -3.093053715208409e-11 0.0 0.010013665159539114 0.010022691754331427 0.0 -5.7799587543968806e-12 0.0 0.01 0.0 -5.779958754397708e-12 0.0 0.010013062148457815 0.010022024700020279 0.0 6.8501264222356e-13 0.0 0.01 0.0 6.8501264222356e-13 0.0 0.010012393100330396 0.010021436884507068 0.0 3.542563294900675e-12 0.0 0.01 0.0 3.542563294900675e-12 0.0 0.010011700703979793 0.01002093913396492 0.0 5.052429000346819e-12 0.0 0.01 0.0 5.052429000346819e-12 0.0 0.010010988786512085 0.010020535231611682 0.0 4.980021928841056e-12 0.0 0.01 0.0 4.980021928841056e-12 0.0 0.01001025846384852 0.010020222326394426 0.0 3.546286731934169e-12 0.0 0.01 0.0 3.546286731934169e-12 0.0 0.010009555177786168 0.01002000270657484 0.0 1.7304977179012384e-12 0.0 0.01 0.0 1.7304977179014452e-12 0.0 0.010008963687766648 0.010019871575377539 0.0 4.402234536067e-13 0.0 0.01 0.0 4.402234536067e-13 0.0 0.010008571056872754 0.010024274603240622 0.0 -1.801675418859292e-11 0.0 0.01 0.0 -1.8016754188589612e-11 0.0 0.010014117238291381 0.010023536938099995 0.0 -1.1494083330882522e-11 0.0 0.01 0.0 -1.1494083330880868e-11 0.0 0.010013571528046895 0.0100228245065795 0.0 -8.181549202065128e-12 0.0 0.01 0.0 -8.181549202063473e-12 0.0 0.010012945996499245 0.010022176099395704 0.0 -4.710255502488312e-12 0.0 0.01 0.0 -4.7102555024891395e-12 0.0 0.010012277473496806 0.010021613822199588 0.0 -1.844234769178364e-12 0.0 0.01 0.0 -1.8442347691787775e-12 0.0 0.010011563476218005 0.010021153833882194 0.0 -2.586101474635233e-13 0.0 0.01 0.0 -2.58610147463575e-13 0.0 0.01001081341423502 0.010020797098459235 0.0 2.1000382272689142e-13 0.0 0.01 0.0 2.1000382272691727e-13 0.0 0.01001008212692147 0.010020545544903205 0.0 1.5927767560883075e-13 0.0 0.01 0.0 1.5927767560883075e-13 0.0 0.010009462162955762 0.010020394722475663 0.0 3.768769701858288e-14 0.0 0.01 0.0 3.768769701858288e-14 0.0 0.010009049368857003 0.010023378578882344 0.0 -6.139443051720049e-12 0.0 0.01 0.0 -6.139443051718394e-12 0.0 0.01001430553881853 0.010022673581225962 0.0 -6.536805523630965e-12 0.0 0.01 0.0 -6.536805523630965e-12 0.0 0.010013800013585167 0.010021964756219573 0.0 -5.786818036666692e-12 0.0 0.01 0.0 -5.786818036666692e-12 0.0 0.010013215601732853 0.0100213037345056 0.0 -4.102926975067956e-12 0.0 0.01 0.0 -4.102926975067129e-12 0.0 0.010012577890765607 0.010020721932272053 0.0 -2.427464324470689e-12 0.0 0.01 0.0 -2.427464324470689e-12 0.0 0.01001188099019703 0.010020243906858146 0.0 -1.2667653563033954e-12 0.0 0.01 0.0 -1.2667653563033954e-12 0.0 0.010011133315044298 0.010019874040013097 0.0 -6.126135159313029e-13 0.0 0.01 0.0 -6.126135159313029e-13 0.0 0.010010395587797349 0.010019612245522017 0.0 -2.573349443215171e-13 0.0 0.01 0.0 -2.573349443215171e-13 0.0 0.01000976623830435 0.010019455078091889 0.0 -6.759180505031765e-14 0.0 0.01 0.0 -6.759180505031765e-14 0.0 0.010009345584687163 0.010021639387350968 0.0 -4.0454088000072515e-13 0.0 0.01 0.0 -4.0454088000072515e-13 0.0 0.010014308953432811 0.010020984316911638 0.0 -9.938224883820748e-13 0.0 0.01 0.0 -9.938224883820748e-13 0.0 0.010013817636389073 0.010020306787792225 0.0 -1.1381890784302836e-12 0.0 0.01 0.0 -1.1381890784304904e-12 0.0 0.010013260228494244 0.01001966676548795 0.0 -9.404739463565111e-13 0.0 0.01 0.0 -9.40473946356718e-13 0.0 0.010012650414522397 0.01001910244644015 0.0 -6.461387610328134e-13 0.0 0.01 0.0 -6.461387610328134e-13 0.0 0.010011974574274902 0.010018634960137532 0.0 -3.96994923718099e-13 0.0 0.01 0.0 -3.96994923718099e-13 0.0 0.010011240624379901 0.01001827406947099 0.0 -2.2216677014769532e-13 0.0 0.01 0.0 -2.2216677014759193e-13 0.0 0.010010510196444848 0.010018017326895997 0.0 -1.0174801091219825e-13 0.0 0.01 0.0 -1.0174801091219825e-13 0.0 0.010009886241363918 0.010017864155442452 0.0 -2.68535658641416e-14 0.0 0.01 0.0 -2.68535658641416e-14 0.0 0.010009468029582731 0.010019724203536527 0.0 4.0504227614382616e-13 0.0 0.01 0.0 4.0504227614403295e-13 0.0 0.010014171166476923 0.010019113258180796 0.0 1.5070909791663552e-12 0.0 0.01 0.0 1.5070909791663552e-12 0.0 0.01001367791169891 0.010018478341468075 0.0 1.236366402399247e-12 0.0 0.01 0.0 1.236366402399247e-12 0.0 0.01001313126932477 0.010017875465860903 0.0 8.079890710514194e-13 0.0 0.01 0.0 8.079890710516262e-13 0.0 0.010012542608151355 0.010017343867341818 0.0 5.124434639457289e-13 0.0 0.01 0.0 5.124434639453153e-13 0.0 0.010011885907686468 0.01001690456825343 0.0 3.2702011347428994e-13 0.0 0.01 0.0 3.2702011347439333e-13 0.0 0.0100111700376263 0.010016564516769706 0.0 1.9520069896754472e-13 0.0 0.01 0.0 1.9520069896749302e-13 0.0 0.010010456327382391 0.010016322577180634 0.0 9.309694347287524e-14 0.0 0.01 0.0 9.309694347287524e-14 0.0 0.010009843113984002 0.010016179331078586 0.0 2.4645078315272733e-14 0.0 0.01 0.0 2.4645078315272733e-14 0.0 0.010009432779834007 0.010017847969043583 0.0 -1.6243767835134727e-12 0.0 0.01 0.0 -1.6243767835134727e-12 0.0 0.010013907860577704 0.010017265813527576 0.0 1.5324406836223896e-12 0.0 0.01 0.0 1.5324406836223896e-12 0.0 0.010013405809254184 0.010016665116542088 0.0 1.2765164295369522e-12 0.0 0.01 0.0 1.2765164295365386e-12 0.0 0.010012865134233608 0.010016101806901826 0.0 7.578721907445585e-13 0.0 0.01 0.0 7.578721907445585e-13 0.0 0.010012286757621556 0.010015609221253309 0.0 4.998352465245733e-13 0.0 0.01 0.0 4.998352465245733e-13 0.0 0.010011648270768482 0.010015202547479294 0.0 3.891604275442401e-13 0.0 0.01 0.0 3.891604275443435e-13 0.0 0.01001095156428004 0.01001488913706866 0.0 2.836861545543997e-13 0.0 0.01 0.0 2.836861545545031e-13 0.0 0.010010256959227819 0.010014666954947623 0.0 1.5174617966932293e-13 0.0 0.01 0.0 1.5174617966932293e-13 0.0 0.010009659979273219 0.010014536033122072 0.0 4.104369031036643e-14 0.0 0.01 0.0 4.104369031036643e-14 0.0 0.0100092598959895 0.010015864321810423 0.0 -4.6790357605458074e-12 0.0 0.01 0.0 -4.6790357605458074e-12 0.0 0.010013518061375588 0.010015288891189793 0.0 1.1027831620818393e-12 0.0 0.01 0.0 1.1027831620818393e-12 0.0 0.010013009242094695 0.010014715016146687 0.0 8.532396016273469e-13 0.0 0.01 0.0 8.532396016273469e-13 0.0 0.010012472044041786 0.010014189343584943 0.0 2.7989747005164826e-13 0.0 0.01 0.0 2.7989747005144147e-13 0.0 0.010011907484511482 0.010013733338975277 0.0 1.4581572335612215e-13 0.0 0.01 0.0 1.4581572335612215e-13 0.0 0.010011285174570752 0.010013360226733428 0.0 2.3085426374245154e-13 0.0 0.01 0.0 2.3085426374245154e-13 0.0 0.010010608657695604 0.010013075400277825 0.0 2.6121416433333297e-13 0.0 0.01 0.0 2.6121416433333297e-13 0.0 0.010009936189584286 0.010012873466319424 0.0 1.649744780069106e-13 0.0 0.01 0.0 1.649744780069106e-13 0.0 0.010009358821756536 0.010012753857707935 0.0 4.94555969361472e-14 0.0 0.01 0.0 4.94555969361472e-14 0.0 0.010008973514157988 0.010013516605487592 0.0 -6.243274264333254e-12 0.0 0.01 0.0 -6.243274264359724e-12 0.0 0.010012994534877065 0.01001293666034619 0.0 2.4527416579862734e-12 0.0 0.01 0.0 2.452741657979656e-12 0.0 0.01001248915795977 0.010012382812190222 0.0 1.7301974833449811e-12 0.0 0.01 0.0 1.7301974833383637e-12 0.0 0.010011962330417918 0.010011890825183155 0.0 6.973499762630087e-13 0.0 0.01 0.0 6.973499762646631e-13 0.0 0.010011413560710837 0.010011474820551146 0.0 3.705773624917778e-13 0.0 0.01 0.0 3.705773624917778e-13 0.0 0.010010812912611284 0.010011138682937484 0.0 4.2828865019695745e-13 0.0 0.01 0.0 4.2828865019695745e-13 0.0 0.010010159511404984 0.010010883943281954 0.0 4.2919964667178754e-13 0.0 0.01 0.0 4.2919964667178754e-13 0.0 0.010009511603399916 0.010010702707706137 0.0 2.6393514625691666e-13 0.0 0.01 0.0 2.6393514625691666e-13 0.0 0.010008959275926889 0.010010596920440344 0.0 7.548208876457457e-14 0.0 0.01 0.0 7.548208876457457e-14 0.0 0.010008589654663414 0.010010704162367113 0.0 -3.697328713727731e-12 0.0 0.01 0.0 -3.69732871373104e-12 0.0 0.010012346578114931 0.010010116380492854 0.0 6.2849415133891615e-12 0.0 0.01 0.0 6.284941513382544e-12 0.0 0.010011853091108417 0.010009588974652522 0.0 4.285828197786059e-12 0.0 0.01 0.0 4.285828197779441e-12 0.0 0.010011345428646653 0.010009139965592216 0.0 2.2293043068937917e-12 0.0 0.01 0.0 2.2293043068937917e-12 0.0 0.010010821239574951 0.010008771778129791 0.0 1.3546668535444541e-12 0.0 0.01 0.0 1.3546668535444541e-12 0.0 0.01001024522320959 0.010008480024438977 0.0 1.0940062328022724e-12 0.0 0.01 0.0 1.0940062328022724e-12 0.0 0.010009623223161571 0.010008259722193168 0.0 8.540823609451392e-13 0.0 0.01 0.0 8.540823609451392e-13 0.0 0.010009005801076169 0.010008106546771258 0.0 4.76591326600721e-13 0.0 0.01 0.0 4.76591326600721e-13 0.0 0.010008481478131236 0.010008015476891232 0.0 1.3057891900788529e-13 0.0 0.01 0.0 1.3057891900788529e-13 0.0 0.010008130003807828 0.010007605818479872 0.0 2.148307978295058e-12 0.0 0.01 0.0 2.148307978295058e-12 0.0 0.01001158991783778 0.010007026448715265 0.0 1.054481415562095e-11 0.0 0.01 0.0 1.0544814155624258e-11 0.0 0.01001112057260345 0.010006542064195345 0.0 6.81164853555449e-12 0.0 0.01 0.0 6.811648535551181e-12 0.0 0.010010641963636187 0.010006151671807522 0.0 3.81941084696817e-12 0.0 0.01 0.0 3.81941084696817e-12 0.0 0.010010148227100871 0.01000584592222826 0.0 2.412712626663718e-12 0.0 0.01 0.0 2.4127126266628907e-12 0.0 0.010009607578118217 0.010005612120852376 0.0 1.8011898045995295e-12 0.0 0.01 0.0 1.8011898046003567e-12 0.0 0.0100090214934334 0.01000543898416652 0.0 1.2736415435289688e-12 0.0 0.01 0.0 1.2736415435289688e-12 0.0 0.010008438419032553 0.01000531919106103 0.0 6.684831489880942e-13 0.0 0.01 0.0 6.684831489876806e-13 0.0 0.010007945509646307 0.010005250231847623 0.0 1.840770450941009e-13 0.0 0.01 0.0 1.840770450942043e-13 0.0 0.010007617094188095 0.010004603777264373 0.0 6.420333284912559e-12 0.0 0.01 0.0 6.420333284910905e-12 0.0 0.010010758035430703 0.010004053263010015 0.0 1.1461753605660458e-11 0.0 0.01 0.0 1.1461753605663766e-11 0.0 0.010010319652332086 0.01000363037598797 0.0 7.0200502491851175e-12 0.0 0.01 0.0 7.0200502491851175e-12 0.0 0.010009877415250102 0.010003313145813217 0.0 4.035031400267374e-12 0.0 0.01 0.0 4.035031400267374e-12 0.0 0.010009421999402007 0.010003081974199487 0.0 2.6485999190146283e-12 0.0 0.01 0.0 2.6485999190154555e-12 0.0 0.01000891866722127 0.010002912421836247 0.0 1.9644725132453126e-12 0.0 0.01 0.0 1.9644725132461398e-12 0.0 0.010008374257495142 0.010002793670253108 0.0 1.3625923306387015e-12 0.0 0.01 0.0 1.362592330639115e-12 0.0 0.010007832442472706 0.010002713003659089 0.0 6.99999575524832e-13 0.0 0.01 0.0 6.99999575524832e-13 0.0 0.01000737384803375 0.010002666115847159 0.0 1.8665883229574034e-13 0.0 0.01 0.0 1.8665883229574034e-13 0.0 0.010007069489592369 0.010002063138305362 0.0 5.3388978093887146e-12 0.0 0.01 0.0 5.338897809387887e-12 0.0 0.010009891105766172 0.010001554062191347 0.0 7.51888589998976e-12 0.0 0.01 0.0 7.518885899991415e-12 0.0 0.010009486130949772 0.010001197014892401 0.0 4.351628586546353e-12 0.0 0.01 0.0 4.351628586546353e-12 0.0 0.01000908416332764 0.010000956187126592 0.0 2.6209112180088293e-12 0.0 0.01 0.0 2.6209112180088293e-12 0.0 0.010008666503237321 0.010000796945258138 0.0 1.881669202763111e-12 0.0 0.01 0.0 1.881669202763111e-12 0.0 0.010008207844258404 0.010000691971817122 0.0 1.4918586517065363e-12 0.0 0.01 0.0 1.4918586517069499e-12 0.0 0.010007707150878889 0.010000622608141309 0.0 1.0517357707049456e-12 0.0 0.01 0.0 1.0517357707049456e-12 0.0 0.010007209939996044 0.010000579150308378 0.0 5.407959561809855e-13 0.0 0.01 0.0 5.407959561809855e-13 0.0 0.010006787153570272 0.010000556696483198 0.0 1.4512371226046479e-13 0.0 0.01 0.0 1.4512371226041309e-13 0.0 0.010006509300136617 0.010000181154922452 0.0 1.3758363647102907e-12 0.0 0.01 0.0 1.3758363647102907e-12 0.0 0.010009020992078996 0.009999704013141755 0.0 1.7228445613490446e-12 0.0 0.01 0.0 1.722844561348631e-12 0.0 0.010008651363978379 0.009999402053635253 0.0 8.430181567948682e-13 0.0 0.01 0.0 8.43018156795075e-13 0.0 0.010008285686525273 0.009999220091248139 0.0 7.040801948811524e-13 0.0 0.01 0.0 7.04080194881049e-13 0.0 0.010007909273605573 0.009999117616803757 0.0 7.357569361861584e-13 0.0 0.01 0.0 7.357569361863652e-13 0.0 0.010007496220581587 0.009999062131955975 0.0 7.275253040578346e-13 0.0 0.01 0.0 7.275253040580414e-13 0.0 0.010007041129650522 0.009999033640095772 0.0 5.606068648207394e-13 0.0 0.01 0.0 5.606068648207394e-13 0.0 0.010006590509501888 0.009999021143742695 0.0 2.998331094870109e-13 0.0 0.01 0.0 2.998331094870109e-13 0.0 0.010006207425038846 0.009999014145805441 0.0 7.960437044314913e-14 0.0 0.01 0.0 7.960437044314913e-14 0.0 0.010005954514216582 0.009998956163461956 0.0 1.1854391559624673e-11 0.0 0.01 0.0 1.1854391559623019e-11 0.0 0.010008189248596077 0.009998498338315912 0.0 -5.793614256159604e-13 0.0 0.01 0.0 -5.793614256157537e-13 0.0 0.010007845172361978 0.009998222973785583 0.0 -3.747616829163552e-13 0.0 0.01 0.0 -3.747616829163552e-13 0.0 0.010007511855726847 0.009998074556242853 0.0 -1.5712775824728845e-13 0.0 0.01 0.0 -1.5712775824728845e-13 0.0 0.010007172258822099 0.009998006596207264 0.0 -6.247184464718631e-14 0.0 0.01 0.0 -6.247184464718631e-14 0.0 0.010006799879471158 0.009997980611854012 0.0 5.374513032884479e-14 0.0 0.01 0.0 5.374513032884479e-14 0.0 0.010006394327889597 0.009997976614279187 0.0 1.0816841449143149e-13 0.0 0.01 0.0 1.0816841449143149e-13 0.0 0.010005992181636201 0.009997980611854012 0.0 6.66832752389051e-14 0.0 0.01 0.0 6.66832752389051e-14 0.0 0.010005650285253274 0.009997986108527228 0.0 2.1899809368061183e-14 0.0 0.01 0.0 2.1899809368061183e-14 0.0 0.010005421906374705 0.009998276445698388 0.0 5.486001075023962e-10 0.0 0.01 0.0 5.486001075023962e-10 0.0 0.010007427216344813 0.009997820212927956 0.0 1.9617035559174204e-11 0.0 0.01 0.0 1.9617035559167587e-11 0.0 0.010007095444662129 0.00999754340552506 0.0 3.107821854797645e-12 0.0 0.01 0.0 3.1078218547968178e-12 0.0 0.010006783746644422 0.009997400014340442 0.0 1.1134992611956622e-12 0.0 0.01 0.0 1.1134992611956622e-12 0.0 0.0100064725787224 0.009997335565260305 0.0 -1.6581545402209867e-13 0.0 0.01 0.0 -1.6581545402204698e-13 0.0 0.010006136493865501 0.00999731608090006 0.0 -4.621396950922681e-13 0.0 0.01 0.0 -4.621396950923715e-13 0.0 0.010005777452990335 0.009997320577280774 0.0 -3.1587084512113813e-13 0.0 0.01 0.0 -3.1587084512113813e-13 0.0 0.010005423358734833 0.00999733256765901 0.0 -1.33734603156322e-13 0.0 0.01 0.0 -1.33734603156322e-13 0.0 0.010005122583442473 0.009997343558876954 0.0 -2.90379408608248e-14 0.0 0.01 0.0 -2.90379408608248e-14 0.0 0.010004922081649697 0.00999798061185607 0.0 3.7064340594455196e-09 0.0 0.01 0.0 3.7064340594446726e-09 0.0 0.010006766611866252 0.009997528416610746 0.0 3.3024202333150403e-10 0.0 0.01 0.0 3.3024202333150403e-10 0.0 0.010006426589854355 0.00999722515539185 0.0 1.2516263636320881e-11 0.0 0.01 0.0 1.2516263636319227e-11 0.0 0.010006116457084125 0.009997054801640141 0.0 5.176773221544708e-12 0.0 0.01 0.0 5.176773221545535e-12 0.0 0.010005820026967151 0.0099969718759858 0.0 5.899139639284986e-13 0.0 0.01 0.0 5.89913963928602e-13 0.0 0.010005515309442688 0.009996943401990071 0.0 -9.08280561371437e-13 0.0 0.01 0.0 -9.082805613716438e-13 0.0 0.010005199352180182 0.00999694240290692 0.0 -8.346288808585804e-13 0.0 0.01 0.0 -8.346288808587872e-13 0.0 0.010004892237758158 0.009996951394666062 0.0 -4.034947188037518e-13 0.0 0.01 0.0 -4.034947188037518e-13 0.0 0.010004630664473258 0.009996959886905313 0.0 -9.694263286429052e-14 0.0 0.01 0.0 -9.694263286429052e-14 0.0 0.010004459030670994 0.009997931142231898 0.0 1.3877546755342962e-08 0.0 0.01 0.0 1.3877546755342962e-08 0.0 0.010006223104266554 0.009997507432244552 0.0 2.05155294248378e-09 0.0 0.01 0.0 2.0515529424842036e-09 0.0 0.01000585523856156 0.009997172199920402 0.0 5.822459255476739e-11 0.0 0.01 0.0 5.822459255476739e-11 0.0 0.010005527028832692 0.009996952893294947 0.0 1.3289223253970437e-11 0.0 0.01 0.0 1.3289223253977055e-11 0.0 0.010005228197250686 0.00999683250558897 0.0 3.1220192394270602e-12 0.0 0.01 0.0 3.1220192394278874e-12 0.0 0.010004941159847808 0.00999677506070609 0.0 -9.077168143499554e-13 0.0 0.01 0.0 -9.077168143499554e-13 0.0 0.010004660956653578 0.009996755579622851 0.0 -1.3822187304165336e-12 0.0 0.01 0.0 -1.38221873041612e-12 0.0 0.010004398900847835 0.009996754081082703 0.0 -7.573733336834262e-13 0.0 0.01 0.0 -7.573733336832194e-13 0.0 0.010004179869236235 0.009996759076219148 0.0 -1.942854924773709e-13 0.0 0.01 0.0 -1.9428549247726751e-13 0.0 0.010004035141041116 0.009998037578035817 0.0 3.827007823077095e-08 0.0 0.01 0.0 3.827007823077095e-08 0.0 0.010005800443090108 0.009997685303932042 0.0 8.661918682898869e-09 0.0 0.01 0.0 8.661918682900563e-09 0.0 0.010005397917494715 0.009997336064860852 0.0 6.748499183761825e-10 0.0 0.01 0.0 6.748499183761825e-10 0.0 0.010005033598017285 0.00999705779899159 0.0 2.75181476029329e-11 0.0 0.01 0.0 2.75181476029329e-11 0.0 0.010004712779451313 0.009996877463144607 0.0 9.693045425332563e-12 0.0 0.01 0.0 9.693045425332563e-12 0.0 0.01000442823966024 0.009996777058772353 0.0 1.0038347750452535e-12 0.0 0.01 0.0 1.0038347750452535e-12 0.0 0.010004171058208404 0.009996729605022351 0.0 -1.283070544520017e-12 0.0 0.01 0.0 -1.283070544520017e-12 0.0 0.010003944232318686 0.00999670912519164 0.0 -9.705026438154439e-13 0.0 0.01 0.0 -9.705026438154439e-13 0.0 0.010003762372252086 0.009996703131118657 0.0 -2.794431135989814e-13 0.0 0.01 0.0 -2.794431135990331e-13 0.0 0.010003642589302334 0.009998239965872026 0.0 8.583818196122612e-08 0.0 0.01 0.0 8.583818196123967e-08 0.0 0.010005481554928662 0.009998014091842715 0.0 2.7248179465644393e-08 0.0 0.01 0.0 2.724817946565117e-08 0.0 0.010005054629922582 0.00999769679596 0.0 4.649030062298539e-09 0.0 0.01 0.0 4.649030062298539e-09 0.0 0.010004649240309816 0.009997370537474714 0.0 2.6979510875096965e-10 0.0 0.01 0.0 2.6979510875096965e-10 0.0 0.010004292812654754 0.009997118745722488 0.0 2.309713259745661e-11 0.0 0.01 0.0 2.3097132597449992e-11 0.0 0.010003990186968837 0.009996955391011248 0.0 7.319158959244158e-12 0.0 0.01 0.0 7.319158959244158e-12 0.0 0.010003737944790632 0.009996859480049572 0.0 9.288321923151123e-13 0.0 0.01 0.0 9.288321923151123e-13 0.0 0.010003534573098279 0.009996811026082067 0.0 -4.3003533288334686e-13 0.0 0.01 0.0 -4.3003533288334686e-13 0.0 0.010003378661532017 0.009996789047195066 0.0 -2.091636659096094e-13 0.0 0.01 0.0 -2.091636659096094e-13 0.0 0.010003280913953404 0.009998491345603471 0.0 1.659375908922905e-07 0.0 0.01 0.0 1.6593759089234472e-07 0.0 0.010005241922909885 0.009998433868723643 0.0 6.985162969799807e-08 0.0 0.01 0.0 6.985162969798452e-08 0.0 0.010004810619815337 0.009998206482681278 0.0 2.0036652952913115e-08 0.0 0.01 0.0 2.0036652952913115e-08 0.0 0.01000437737259217 0.009997887169798053 0.0 3.3118205877592647e-09 0.0 0.01 0.0 3.3118205877601117e-09 0.0 0.01000397892351725 0.009997575382100965 0.0 2.4180886461756444e-10 0.0 0.01 0.0 2.418088646176174e-10 0.0 0.010003645542528515 0.009997334566059578 0.0 2.0062915462425695e-11 0.0 0.01 0.0 2.0062915462432312e-11 0.0 0.01000338011300255 0.009997174697801087 0.0 7.092331175437363e-12 0.0 0.01 0.0 7.092331175437363e-12 0.0 0.010003177764086152 0.009997081278337892 0.0 1.7961177866903127e-12 0.0 0.01 0.0 1.7961177866898991e-12 0.0 0.010003036032064126 0.009997032821145219 0.0 2.6107063634060195e-13 0.0 0.01 0.0 2.6107063634060195e-13 0.0 0.010002950505308717 0.00999874025001216 0.0 2.8202445284192723e-07 0.0 0.01 0.0 2.8202445284198144e-07 0.0 0.010005038016602498 0.00999886769571021 0.0 1.497838286863254e-07 0.0 0.01 0.0 1.497838286863254e-07 0.0 0.010004631619160051 0.009998792219415607 0.0 6.166639280839198e-08 0.0 0.01 0.0 6.166639280840553e-08 0.0 0.010004196991302457 0.009998550815133752 0.0 1.8683766525034334e-08 0.0 0.01 0.0 1.8683766525034334e-08 0.0 0.010003774586102295 0.009998241463978421 0.0 3.908674359685759e-09 0.0 0.01 0.0 3.908674359685759e-09 0.0 0.010003405538866944 0.009997949131082104 0.0 4.985759783264987e-10 0.0 0.01 0.0 4.985759783264987e-10 0.0 0.010003112802828259 0.009997721778780352 0.0 3.6769572126059745e-11 0.0 0.01 0.0 3.676957212604651e-11 0.0 0.010002897258629915 0.009997569886105138 0.0 6.36265704077855e-12 0.0 0.01 0.0 6.36265704077855e-12 0.0 0.01000275063448243 0.009997487946878774 0.0 1.3531631889117643e-12 0.0 0.01 0.0 1.3531631889117643e-12 0.0 0.010002666115847159 0.009998983681877679 0.0 4.237249552967951e-07 0.0 0.01 0.0 4.237249552967951e-07 0.0 0.010004854159043073 0.009999236098573856 0.0 2.712620567463502e-07 0.0 0.01 0.0 2.7126205674645864e-07 0.0 0.010004474712692535 0.009999349566598842 0.0 1.4456718875987097e-07 0.0 0.01 0.0 1.4456718875992518e-07 0.0 0.01000406938576982 0.009999264081843344 0.0 6.320394932435042e-08 0.0 0.01 0.0 6.320394932432332e-08 0.0 0.01000365435276723 0.00999904213771817 0.0 2.2447285761665887e-08 0.0 0.01 0.0 2.2447285761672663e-08 0.0 0.010003271154443464 0.009998771226525812 0.0 6.3592528160616625e-09 0.0 0.01 0.0 6.3592528160599684e-09 0.0 0.010002953457928057 0.009998523826927652 0.0 1.3282508365192342e-09 0.0 0.01 0.0 1.3282508365183871e-09 0.0 0.010002712553293028 0.009998336415219257 0.0 1.8714844879488268e-10 0.0 0.01 0.0 1.8714844879493562e-10 0.0 0.01000254782337993 0.009998221474585442 0.0 9.680733280897807e-12 0.0 0.01 0.0 9.680733280897807e-12 0.0 0.01000245355269281 0.009999407600920619 0.0 5.674440401630745e-07 0.0 0.01 0.0 5.674440401630745e-07 0.0 0.010004750481159461 0.009999538558204112 0.0 4.185276208024851e-07 0.0 0.01 0.0 4.185276208025935e-07 0.0 0.01000433294077637 0.009999785517802652 0.0 2.696564028150305e-07 0.0 0.01 0.0 2.6965640281513895e-07 0.0 0.010003954505376713 0.009999907504673075 0.0 1.5036135642717934e-07 0.0 0.01 0.0 1.5036135642717934e-07 0.0 0.010003575169750369 0.009999859503739649 0.0 7.2065597105759e-08 0.0 0.01 0.0 7.20655971057861e-08 0.0 0.010003210045776163 0.00999970151349355 0.0 2.9317360099404563e-08 0.0 0.01 0.0 2.9317360099404563e-08 0.0 0.01000288945198645 0.009999510036026137 0.0 9.689545837637413e-09 0.0 0.01 0.0 9.689545837630637e-09 0.0 0.010002633840215913 0.009999340565234712 0.0 2.3769791335726475e-09 0.0 0.01 0.0 2.3769791335726475e-09 0.0 0.010002451100890753 0.009999227089617821 0.0 3.1779863273996276e-10 0.0 0.01 0.0 3.177986327401745e-10 0.0 0.01000234067155511 0.01000032232890084 0.0 6.499370091307948e-07 0.0 0.01 0.0 6.499370091307948e-07 0.0 0.01000475590392287 0.010000064498100841 0.0 5.627601002899593e-07 0.0 0.01 0.0 5.627601002901762e-07 0.0 0.010004293360810209 0.01000014357870006 0.0 4.132964468639075e-07 0.0 0.01 0.0 4.132964468639075e-07 0.0 0.01000387092204131 0.010000377982335691 0.0 2.697205965247317e-07 0.0 0.01 0.0 2.697205965246233e-07 0.0 0.010003509157165356 0.010000547398571568 0.0 1.5556654755566942e-07 0.0 0.01 0.0 1.5556654755566942e-07 0.0 0.010003187577076439 0.010000583051885711 0.0 7.736219635170669e-08 0.0 0.01 0.0 7.73621963517609e-08 0.0 0.01000289775996242 0.010000526391712793 0.0 3.189075858291558e-08 0.0 0.01 0.0 3.189075858291558e-08 0.0 0.010002652405067248 0.010000438978918879 0.0 1.0068113118106854e-08 0.0 0.01 0.0 1.0068113118106854e-08 0.0 0.010002464310640016 0.010000366220117119 0.0 1.8653575037842226e-09 0.0 0.01 0.0 1.8653575037876107e-09 0.0 0.010002346025317573 0.010001728987967626 0.0 5.144884340879501e-07 0.0 0.01 0.0 5.144884340879501e-07 0.0 0.01000480034392912 0.010001215629525318 0.0 6.215594344988543e-07 0.0 0.01 0.0 6.215594344986374e-07 0.0 0.010004361309368383 0.010000892262452939 0.0 5.359106684595539e-07 0.0 0.01 0.0 5.359106684595539e-07 0.0 0.010003917393724247 0.01000085218163855 0.0 3.8931351983482153e-07 0.0 0.01 0.0 3.8931351983482153e-07 0.0 0.010003529240162425 0.01000102801781767 0.0 2.4930364378320316e-07 0.0 0.01 0.0 2.4930364378320316e-07 0.0 0.01000321345759665 0.010001238532972991 0.0 1.3948734224784876e-07 0.0 0.01 0.0 1.3948734224774034e-07 0.0 0.010002957364299151 0.010001369932096901 0.0 6.540581236851159e-08 0.0 0.01 0.0 6.540581236851159e-08 0.0 0.010002743829518164 0.010001420702786512 0.0 2.3727775563456418e-08 0.0 0.01 0.0 2.3727775563429313e-08 0.0 0.010002573743366749 0.010001430506897703 0.0 4.9945980336408105e-09 0.0 0.01 0.0 4.994598033634034e-09 0.0 0.01000246235918715 0.010002598662608126 0.0 3.5514386937187965e-09 0.0 0.01 0.0 3.5514386937154083e-09 0.0 0.01000468739369224 0.010002490704108372 0.0 3.992175171526127e-07 0.0 0.01 0.0 3.9921751715217904e-07 0.0 0.010004416998629112 0.010002273766039349 0.0 5.216599478848234e-07 0.0 0.01 0.0 5.216599478848234e-07 0.0 0.010004053754369965 0.010002044108601615 0.0 4.6223091100050864e-07 0.0 0.01 0.0 4.6223091100050864e-07 0.0 0.010003690574054026 0.010001852080438038 0.0 3.271077233693402e-07 0.0 0.01 0.0 3.271077233693402e-07 0.0 0.010003377226109882 0.010001827156317034 0.0 1.944066542660522e-07 0.0 0.01 0.0 1.9440665426583535e-07 0.0 0.010003120115323685 0.010001941466646359 0.0 9.661054919756461e-08 0.0 0.01 0.0 9.661054919734777e-08 0.0 0.010002914374940894 0.010002074395498474 0.0 3.738489712430421e-08 0.0 0.01 0.0 3.738489712430421e-08 0.0 0.01000276139358263 0.010002161850848217 0.0 8.318700021062381e-09 0.0 0.01 0.0 8.318700021062381e-09 0.0 0.010002659760783291 0.010002597715510125 0.0 -1.559132708730442e-07 0.0 0.01 0.0 -1.559132708730442e-07 0.0 0.010004310388958009 0.010003026278696535 0.0 1.9154989713680327e-07 0.0 0.01 0.0 1.9154989713680327e-07 0.0 0.010004146132633042 0.010003282882715922 0.0 3.351507573585988e-07 0.0 0.01 0.0 3.351507573577314e-07 0.0 0.010003903200881861 0.010003376223722915 0.0 3.128322402685957e-07 0.0 0.01 0.0 3.128322402677283e-07 0.0 0.010003628939083265 0.010003384023786496 0.0 2.133523973237711e-07 0.0 0.01 0.0 2.1335239732463845e-07 0.0 0.010003365004545291 0.010003365950575408 0.0 1.1245126952524886e-07 0.0 0.01 0.0 1.1245126952524886e-07 0.0 0.0100031489386423 0.010003392826206353 0.0 4.450294959737651e-08 0.0 0.01 0.0 4.450294959737651e-08 0.0 0.010002993543956194 0.01000342901292847 0.0 1.0024115190389532e-08 0.0 0.01 0.0 1.0024115190416637e-08 0.0 0.010002898209471074 0.010002901162748913 0.0 -6.958287630213101e-08 0.0 0.01 0.0 -6.958287630202259e-08 0.0 0.01000408405128473 0.01000359909299077 0.0 7.761240809235626e-08 0.0 0.01 0.0 7.761240809235626e-08 0.0 0.010003927113023977 0.010004107030420123 0.0 1.0496726659744993e-07 0.0 0.01 0.0 1.0496726659831729e-07 0.0 0.01000365580541044 0.010004671221737153 0.0 6.97076966200581e-08 0.0 0.01 0.0 6.970769661984125e-08 0.0 0.01000339773163062 0.010005104005107183 0.0 2.9975841377670454e-08 0.0 0.01 0.0 2.997584137764335e-08 0.0 0.010003230064458305 0.010005354397374811 0.0 6.9529105924671084e-09 0.0 0.01 0.0 6.952910592460332e-09 0.0 0.010003139678025207 0.010002607972565636 0.0 -1.3405115928660088e-07 0.0 0.01 0.0 -1.3405115928660088e-07 0.0 0.010004003856038059 0.01000328236567571 0.0 -4.430465363482704e-08 0.0 0.01 0.0 -4.430465363504388e-08 0.0 0.01000367782826263 0.010003953493297017 0.0 -1.0300827178754725e-08 0.0 0.01 0.0 -1.030082717872762e-08 0.0 0.010003459294195771 0.010004394995701448 0.0 -1.4333601136773199e-09 0.0 0.01 0.0 -1.4333601136756258e-09 0.0 0.010003358641313605 0.009999878502214293 0.0 -7.821393843338363e-18 0.0 0.01 0.0 -7.821393843338363e-18 0.0 0.01000000100000015 0.009999878502214293 0.0 -3.784737317236897e-14 0.0 0.01 0.0 -3.784737317236897e-14 0.0 0.01000000100000015 0.009999878502214293 0.0 5.8944263563340865e-18 0.0 0.01 0.0 5.8944263563340865e-18 0.0 0.010000001450000314 0.009999879002196106 0.0 1.657020609806061e-17 0.0 0.01 0.0 1.657020609806061e-17 0.0 0.01000000195000057 0.009999879502177995 0.0 1.3699248393354942e-17 0.0 0.01 0.0 1.3699248393354942e-17 0.0 0.01000000195000057 0.009999880002159957 0.0 8.922529842904359e-18 0.0 0.01 0.0 8.922529842904359e-18 0.0 0.010000002950001304 0.009999880502141994 0.0 3.194820796678555e-17 0.0 0.01 0.0 3.194820796678555e-17 0.0 0.010000002950001304 0.009999882002088558 0.0 2.1388349335307497e-16 0.0 0.01 0.0 2.1388349335307497e-16 0.0 0.010000003400001733 0.00999985200328552 0.0 1.592394641960908e-18 0.0 0.01 0.0 1.592394641960908e-18 0.0 0.01000000195000057 0.00999985200328552 0.0 4.8632345089491275e-18 0.0 0.01 0.0 4.8632345089491275e-18 0.0 0.01000000195000057 0.00999985200328552 0.0 1.0136227941111387e-17 0.0 0.01 0.0 1.0136227941111387e-17 0.0 0.01000000195000057 0.00999985200328552 0.0 7.191890483455456e-18 0.0 0.01 0.0 7.191890483455456e-18 0.0 0.0100000024500009 0.00999985200328552 0.0 1.2720110242851537e-17 0.0 0.01 0.0 1.2720110242851537e-17 0.0 0.010000002950001304 0.009999852503263358 0.0 -1.0043963653564848e-17 0.0 0.01 0.0 -1.0043963653564848e-17 0.0 0.010000003900002281 0.009999853003241271 0.0 1.0122971970220848e-17 0.0 0.01 0.0 1.0122971970220848e-17 0.0 0.010000004400002904 0.00999985350321926 0.0 -7.594891685002336e-17 0.0 0.01 0.0 -7.594891685002336e-17 0.0 0.010000004900003601 0.009999825004593616 0.0 -1.0689765087285544e-18 0.0 0.01 0.0 -1.0689765087285544e-18 0.0 0.0100000024500009 0.009999825004593616 0.0 6.404971138105882e-14 0.0 0.01 0.0 6.404971138105882e-14 0.0 0.0100000024500009 0.009999824504619902 0.0 3.2319696064123423e-18 0.0 0.01 0.0 3.2319696064123423e-18 0.0 0.0100000024500009 0.009999824504619902 0.0 5.089273620846689e-18 0.0 0.01 0.0 5.089273620846689e-18 0.0 0.010000003400001733 0.009999824004646263 0.0 -3.647233497002718e-18 0.0 0.01 0.0 -3.647233497002718e-18 0.0 0.010000003900002281 0.009999823504672701 0.0 -4.4396363238421884e-17 0.0 0.01 0.0 -4.4396363238421884e-17 0.0 0.010000005350004294 0.009999824504619902 0.0 -1.1930366008377655e-16 0.0 0.01 0.0 -1.1930366008377655e-16 0.0 0.010000005350004294 0.009999825004593616 0.0 -2.0249382761923274e-16 0.0 0.01 0.0 -2.0249382761923274e-16 0.0 0.010000006850007037 0.009999796006242189 0.0 -1.6585275972645866e-19 0.0 0.01 0.0 -1.6585275972645866e-19 0.0 0.010000002950001304 0.009999796006242189 0.0 3.88221402255319e-18 0.0 0.01 0.0 3.88221402255319e-18 0.0 0.010000002950001304 0.009999795006303535 0.0 4.7413155731886155e-18 0.0 0.01 0.0 4.7413155731886155e-18 0.0 0.010000003400001733 0.009999795006303535 0.0 4.265481652198557e-18 0.0 0.01 0.0 4.265481652198557e-18 0.0 0.010000004400002904 0.009999794506334321 0.0 -4.437697670228048e-18 0.0 0.01 0.0 -4.437697670228048e-18 0.0 0.010000004900003601 0.00999979400636518 0.0 -4.0861187250797874e-17 0.0 0.01 0.0 -4.0861187250797874e-17 0.0 0.010000005850005133 0.009999793506396118 0.0 -1.0256763529297982e-16 0.0 0.01 0.0 -1.0256763529297982e-16 0.0 0.010000007300007994 0.009999793506396118 0.0 -2.7438457258566467e-16 0.0 0.01 0.0 -2.7438457258566467e-16 0.0 0.010000008300010334 0.009999758508747986 0.0 -8.452105782066686e-19 0.0 0.01 0.0 -8.452105782066686e-19 0.0 0.010000003900002281 0.009999758508747986 0.0 4.679801862617295e-18 0.0 0.01 0.0 4.679801862617295e-18 0.0 0.010000003900002281 0.009999758508747986 0.0 1.0897699425157709e-17 0.0 0.01 0.0 1.0897699425157709e-17 0.0 0.010000004400002904 0.009999757508820581 0.0 1.348949123680082e-17 0.0 0.01 0.0 1.348949123680082e-17 0.0 0.010000004900003601 0.009999756508893476 0.0 1.631991846272097e-17 0.0 0.01 0.0 1.631991846272097e-17 0.0 0.010000006350006049 0.009999754509040167 0.0 -1.3339766972100572e-17 0.0 0.01 0.0 -1.3339766972100572e-17 0.0 0.010000006850007037 0.009999754509040167 0.0 -1.2796243212106176e-16 0.0 0.01 0.0 -1.2796243212106176e-16 0.0 0.010000008300010334 0.009999754509040167 0.0 -2.831361135441864e-16 0.0 0.01 0.0 -2.831361135441864e-16 0.0 0.010000009300012973 0.009999715012183172 0.0 -2.397176935894284e-18 0.0 0.01 0.0 -2.397176935894284e-18 0.0 0.010000004400002904 0.009999714512225956 0.0 3.573402228317838e-18 0.0 0.01 0.0 3.573402228317838e-18 0.0 0.010000004400002904 0.009999714012268814 0.0 1.894415900277599e-17 0.0 0.01 0.0 1.894415900277599e-17 0.0 0.010000005350004294 0.009999713012354758 0.0 1.7671517077679638e-17 0.0 0.01 0.0 1.7671517077679638e-17 0.0 0.010000006350006049 0.009999711512484239 0.0 2.591694208016388e-17 0.0 0.01 0.0 2.591694208016388e-17 0.0 0.010000006850007037 0.009999709512657926 0.0 5.753238966862747e-18 0.0 0.01 0.0 5.753238966862747e-18 0.0 0.010000008300010334 0.009999707512832813 0.0 -6.003948759780433e-17 0.0 0.01 0.0 -6.003948759780433e-17 0.0 0.010000010750017335 0.00999970701287672 0.0 -2.2852037222360557e-16 0.0 0.01 0.0 -2.2852037222360557e-16 0.0 0.010000011250018984 0.009999660017339018 0.0 5.514575557790241e-19 0.0 0.01 0.0 5.514575557790241e-19 0.0 0.010000005350004294 0.009999659017441157 0.0 1.3168047026108507e-17 0.0 0.01 0.0 1.3168047026108507e-17 0.0 0.010000005350004294 0.00999965851749234 0.0 -6.6927197638098216e-15 0.0 0.01 0.0 -6.6927197638098216e-15 0.0 0.010000005850005133 0.009999657017646341 0.0 3.800668027076685e-17 0.0 0.01 0.0 3.800668027076685e-17 0.0 0.010000006350006049 0.009999655017852722 0.0 2.7056578046550756e-17 0.0 0.01 0.0 2.7056578046550756e-17 0.0 0.010000008800011615 0.00999965251811239 0.0 7.719383998535724e-18 0.0 0.01 0.0 7.719383998535724e-18 0.0 0.01000001025001576 0.00999964951842646 0.0 -6.69074352739357e-17 0.0 0.01 0.0 -6.69074352739357e-17 0.0 0.010000011250018984 0.009999647518637344 0.0 -2.1719799045696427e-16 0.0 0.01 0.0 -2.1719799045696427e-16 0.0 0.010000013650027948 0.009999593524784658 0.0 -4.743191458097782e-19 0.0 0.01 0.0 -4.743191458097782e-19 0.0 0.010000006350006049 0.009999592524906746 0.0 -5.226036038806959e-18 0.0 0.01 0.0 -5.226036038806959e-18 0.0 0.010000006350006049 0.0099995920249679 0.0 2.940875840068238e-17 0.0 0.01 0.0 2.940875840068238e-17 0.0 0.010000007300007994 0.009999589025336415 0.0 2.7133401520109216e-17 0.0 0.01 0.0 2.7133401520109216e-17 0.0 0.010000008300010334 0.00999958652564557 0.0 5.12351509402375e-17 0.0 0.01 0.0 5.12351509402375e-17 0.0 0.01000001025001576 0.009999582526144118 0.0 7.923541292567222e-17 0.0 0.01 0.0 7.923541292567222e-17 0.0 0.010000012200022326 0.009999579526521179 0.0 -7.432164495169064e-17 0.0 0.01 0.0 -7.432164495169064e-17 0.0 0.010000014150030033 0.009999576026964494 0.0 -1.3617779804166876e-16 0.0 0.01 0.0 -1.3617779804166876e-16 0.0 0.010000016100038882 0.00999951253564554 0.0 -6.064776961641264e-19 0.0 0.01 0.0 -6.064776961641264e-19 0.0 0.010000007300007994 0.009999512035718694 0.0 -1.6318733572588208e-17 0.0 0.01 0.0 -1.6318733572588208e-17 0.0 0.010000007800009127 0.009999510535938606 0.0 -2.682862402814539e-17 0.0 0.01 0.0 -2.682862402814539e-17 0.0 0.010000008300010334 0.009999507036454355 0.0 6.699598872545285e-17 0.0 0.01 0.0 6.699598872545285e-17 0.0 0.010000010750017335 0.009999503037048281 0.0 7.964361434897517e-17 0.0 0.01 0.0 7.964361434897517e-17 0.0 0.010000012700024194 0.009999497537872767 0.0 9.919096909038003e-17 0.0 0.01 0.0 9.919096909038003e-17 0.0 0.010000014150030033 0.00999949253863017 0.0 -3.131822460602019e-17 0.0 0.01 0.0 -3.131822460602019e-17 0.0 0.010000017600046464 0.009999488039318244 0.0 -4.4168140429453614e-16 0.0 0.01 0.0 -4.4168140429453614e-16 0.0 0.01000002000006 0.009999418550716422 0.0 -1.780501101738744e-18 0.0 0.01 0.0 -1.780501101738744e-18 0.0 0.01000000975001426 0.009999416551065872 0.0 -3.524957286759223e-17 0.0 0.01 0.0 -3.524957286759223e-17 0.0 0.01000000975001426 0.009999414051504368 0.0 -9.982014186796433e-17 0.0 0.01 0.0 -9.982014186796433e-17 0.0 0.010000010750017335 0.00999940905238699 0.0 2.46018742809171e-17 0.0 0.01 0.0 2.46018742809171e-17 0.0 0.010000013200026137 0.009999404053277108 0.0 8.064900193197836e-17 0.0 0.01 0.0 8.064900193197836e-17 0.0 0.010000017100043862 0.00999939755444547 0.0 1.789194850373039e-16 0.0 0.01 0.0 1.789194850373039e-16 0.0 0.01000001955005733 0.009999390555717878 0.0 -8.273019749556742e-17 0.0 0.01 0.0 -8.273019749556742e-17 0.0 0.010000023450082485 0.009999384056912556 0.0 -7.491521897468951e-16 0.0 0.01 0.0 -7.491521897468951e-16 0.0 0.010000025900100622 0.009999302073072099 0.0 -3.707915979656582e-19 0.0 0.01 0.0 -3.707915979656582e-19 0.0 0.010000011250018984 0.009999302073072099 0.0 9.694871974794431e-18 0.0 0.01 0.0 9.694871974794431e-18 0.0 0.010000011700020532 0.009999298073911953 0.0 -7.826209522448085e-17 0.0 0.01 0.0 -7.826209522448085e-17 0.0 0.010000014150030033 0.009999291575286949 0.0 1.382212602801228e-17 0.0 0.01 0.0 1.382212602801228e-17 0.0 0.010000017100043862 0.009999283576996643 0.0 1.6749865584095482e-16 0.0 0.01 0.0 1.6749865584095482e-16 0.0 0.01000002000006 0.009999276078616913 0.0 2.5926729792202014e-16 0.0 0.01 0.0 2.5926729792202014e-16 0.0 0.010000024400089305 0.009999266080803515 0.0 1.033025983310727e-17 0.0 0.01 0.0 1.033025983310727e-17 0.0 0.010000029800133207 0.009999256582908565 0.0 -8.139702041301444e-16 0.0 0.01 0.0 -8.139702041301444e-16 0.0 0.010000034650180095 0.009999166104318901 0.0 1.8544421689297752e-18 0.0 0.01 0.0 1.8544421689297752e-18 0.0 0.010000014150030033 0.009999164604694459 0.0 -5.252323804948513e-17 0.0 0.01 0.0 -5.252323804948513e-17 0.0 0.010000014650032193 0.00999916060569925 0.0 -9.89062615449294e-17 0.0 0.01 0.0 -9.89062615449294e-17 0.0 0.010000017600046464 0.009999153607469176 0.0 -5.945144909258705e-17 0.0 0.01 0.0 -5.945144909258705e-17 0.0 0.010000020500063036 0.009999144609766388 0.0 1.772096234371234e-16 0.0 0.01 0.0 1.772096234371234e-16 0.0 0.010000025900100622 0.00999913311273706 0.0 4.3218973308016704e-16 0.0 0.01 0.0 4.3218973308016704e-16 0.0 0.010000031750151211 0.009999119616274975 0.0 1.709318565006196e-16 0.0 0.01 0.0 1.709318565006196e-16 0.0 0.010000040050240602 0.009999105620001647 0.0 -1.0124623765263507e-15 0.0 0.01 0.0 -1.0124623765263507e-15 0.0 0.010000045900316024 0.00999900614818085 0.0 3.383629759902614e-18 0.0 0.01 0.0 3.383629759902614e-18 0.0 0.010000017100043862 0.009999005148479128 0.0 -3.6838143014039084e-17 0.0 0.01 0.0 -3.6838143014039084e-17 0.0 0.010000018550051615 0.00999899865042523 0.0 -2.0144565667934696e-16 0.0 0.01 0.0 -2.0144565667934696e-16 0.0 0.01000002195007227 0.009998991152686473 0.0 -5.430609965734545e-17 0.0 0.01 0.0 -5.430609965734545e-17 0.0 0.010000026850108139 0.009998978156645919 0.0 2.1632357182670099e-16 0.0 0.01 0.0 2.1632357182670099e-16 0.0 0.010000033700170356 0.009998963661122004 0.0 6.692957099911656e-16 0.0 0.01 0.0 6.692957099911656e-16 0.0 0.01000004150025834 0.009998947166292165 0.0 6.731921470623702e-16 0.0 0.01 0.0 6.731921470623702e-16 0.0 0.010000051250393988 0.009998927172668471 0.0 -4.3196038743095135e-16 0.0 0.01 0.0 -4.3196038743095135e-16 0.0 0.010000062500585943 0.00999881770970461 0.0 3.84734297764349e-19 0.0 0.01 0.0 3.84734297764349e-19 0.0 0.01000002100006615 0.009998814710769894 0.0 -1.351144688140998e-16 0.0 0.01 0.0 -1.351144688140998e-16 0.0 0.0100000224500756 0.00999880771326605 0.0 -4.181108574804562e-16 0.0 0.01 0.0 -4.181108574804562e-16 0.0 0.010000027350112205 0.009998796217398777 0.0 -4.2523561390168926e-16 0.0 0.01 0.0 -4.2523561390168926e-16 0.0 0.010000033700170356 0.009998781222848875 0.0 6.275334590172863e-17 0.0 0.01 0.0 6.275334590172863e-17 0.0 0.010000042500270938 0.00999876123022061 0.0 1.0997982170670701e-15 0.0 0.01 0.0 1.0997982170670701e-15 0.0 0.010000053700432558 0.009998740238090002 0.0 1.1337587032972989e-15 0.0 0.01 0.0 1.1337587032972989e-15 0.0 0.010000066900671348 0.00999871674705299 0.0 -1.185302041987058e-16 0.0 0.01 0.0 -1.185302041987058e-16 0.0 0.010000084001058415 0.009998598294771722 0.0 3.783651582631898e-18 0.0 0.01 0.0 3.783651582631898e-18 0.0 0.010000024900093002 0.009998594796245144 0.0 -3.0610542990494837e-16 0.0 0.01 0.0 -3.0610542990494837e-16 0.0 0.010000026850108139 0.00999858629983874 0.0 -5.279486791583884e-16 0.0 0.01 0.0 -5.279486791583884e-16 0.0 0.010000032250156011 0.00999857230580482 0.0 -5.495838625243461e-16 0.0 0.01 0.0 -5.495838625243461e-16 0.0 0.010000041000252152 0.00999855231442972 0.0 -2.119483585024542e-16 0.0 0.01 0.0 -2.119483585024542e-16 0.0 0.010000053700432558 0.009998528824717202 0.0 7.367856270950906e-16 0.0 0.01 0.0 7.367856270950906e-16 0.0 0.01000006785069055 0.0099984998376406 0.0 8.974344000605428e-16 0.0 0.01 0.0 8.974344000605428e-16 0.0 0.010000087901158979 0.009998468851734058 0.0 3.8048788765803564e-16 0.0 0.01 0.0 3.8048788765803564e-16 0.0 0.010000108401762615 0.009998342911982129 0.0 6.087377333313205e-19 0.0 0.01 0.0 6.087377333313205e-19 0.0 0.010000029300128775 0.00999833841422186 0.0 -6.508948858033078e-16 0.0 0.01 0.0 -6.508948858033078e-16 0.0 0.010000032250156011 0.00999832791947151 0.0 -9.67627994829609e-16 0.0 0.01 0.0 -9.67627994829609e-16 0.0 0.010000039550234633 0.009998309428801302 0.0 -1.5285921047035219e-15 0.0 0.01 0.0 -1.5285921047035219e-15 0.0 0.010000049800372009 0.00999828394182944 0.0 -1.3708389146518183e-15 0.0 0.01 0.0 -1.3708389146518183e-15 0.0 0.010000065450642562 0.009998253457668095 0.0 -1.1276190572645334e-15 0.0 0.01 0.0 -1.1276190572645334e-15 0.0 0.010000085951108127 0.009998217476721687 0.0 6.780478375693756e-16 0.0 0.01 0.0 6.780478375693756e-16 0.0 0.010000110351826602 0.00999817799807465 0.0 -5.460619572497442e-16 0.0 0.01 0.0 -5.460619572497442e-16 0.0 0.010000140152946372 0.00999804407399667 0.0 3.003466915642254e-18 0.0 0.01 0.0 3.003466915642254e-18 0.0 0.010000036600200936 0.00999803907693373 0.0 -4.636398515063187e-16 0.0 0.01 0.0 -4.636398515063187e-16 0.0 0.010000039050228738 0.009998025584901224 0.0 -1.3925396712922674e-15 0.0 0.01 0.0 -1.3925396712922674e-15 0.0 0.010000047850343446 0.009998003598002318 0.0 -2.2758277742049214e-15 0.0 0.01 0.0 -2.2758277742049214e-15 0.0 0.010000060550549951 0.009997973616101214 0.0 -3.0011777194626493e-15 0.0 0.01 0.0 -3.0011777194626493e-15 0.0 0.010000081050985378 0.00999793464003302 0.0 -2.269453177698167e-15 0.0 0.01 0.0 -2.269453177698167e-15 0.0 0.010000105451667985 0.009997889168529575 0.0 -1.50633896782227e-15 0.0 0.01 0.0 -1.50633896782227e-15 0.0 0.010000136702803097 0.009997838700884052 0.0 -2.611579240909185e-15 0.0 0.01 0.0 -2.611579240909185e-15 0.0 0.010000174804583388 0.0099976997938857 0.0 2.8601224743911215e-18 0.0 0.01 0.0 2.8601224743911215e-18 0.0 0.010000043450283188 0.009997695296993299 0.0 -2.9216326033168426e-16 0.0 0.01 0.0 -2.9216326033168426e-16 0.0 0.01000004685032924 0.00999767880843974 0.0 -2.0167587216253346e-15 0.0 0.01 0.0 -2.0167587216253346e-15 0.0 0.010000058100506347 0.00999765132769843 0.0 -3.876438258058265e-15 0.0 0.01 0.0 -3.876438258058265e-15 0.0 0.010000074200825857 0.009997612855041301 0.0 -4.530059076939841e-15 0.0 0.01 0.0 -4.530059076939841e-15 0.0 0.010000096701402656 0.009997565389388029 0.0 -4.6777771847841935e-15 0.0 0.01 0.0 -4.6777771847841935e-15 0.0 0.010000128902492335 0.009997507931870165 0.0 -4.2616199727681784e-15 0.0 0.01 0.0 -4.2616199727681784e-15 0.0 0.010000167004183467 0.00999744497955312 0.0 -6.188408006719258e-15 0.0 0.01 0.0 -6.188408006719258e-15 0.0 0.010000214356892134 0.009997302591794313 0.0 1.0744058846821345e-18 0.0 0.01 0.0 1.0744058846821345e-18 0.0 0.010000055650464542 0.00999729609705917 0.0 -1.18287196128522e-15 0.0 0.01 0.0 -1.18287196128522e-15 0.0 0.010000059100523926 0.009997276113338121 0.0 -1.849649351815776e-15 0.0 0.01 0.0 -1.849649351815776e-15 0.0 0.010000070300741322 0.00999724314046038 0.0 -3.691632940963856e-15 0.0 0.01 0.0 -3.691632940963856e-15 0.0 0.010000090351224488 0.009997196679231858 0.0 -4.266417610553146e-15 0.0 0.01 0.0 -4.266417610553146e-15 0.0 0.010000117702078034 0.00999713772935814 0.0 -1.634463534743589e-15 0.0 0.01 0.0 -1.634463534743589e-15 0.0 0.010000154303571365 0.009997067790182562 0.0 -3.038295743234241e-16 0.0 0.01 0.0 -3.038295743234241e-16 0.0 0.010000200706042276 0.009996989859687404 0.0 -6.308418491509589e-15 0.0 0.01 0.0 -6.308418491509589e-15 0.0 0.010000258310008265 0.009996845992791973 0.0 -4.225760668855368e-18 0.0 0.01 0.0 -4.225760668855368e-18 0.0 0.01000007375081587 0.009996838499894677 0.0 -8.600496652156985e-16 0.0 0.01 0.0 -8.600496652156985e-16 0.0 0.010000078600926707 0.009996814522736545 0.0 -3.017751929387909e-16 0.0 0.01 0.0 -3.017751929387909e-16 0.0 0.010000089851210972 0.00999677306264103 0.0 7.295850443809668e-16 0.0 0.01 0.0 7.295850443809668e-16 0.0 0.010000112301891729 0.009996718615829247 0.0 2.872980642599692e-15 0.0 0.01 0.0 2.872980642599692e-15 0.0 0.010000142103028933 0.009996647186957414 0.0 1.1644443127253036e-14 0.0 0.01 0.0 1.1644443127253036e-14 0.0 0.010000184555108963 0.009996560775054187 0.0 1.932256128644832e-14 0.0 0.01 0.0 1.932256128644832e-14 0.0 0.010000237808482661 0.009996463876510119 0.0 2.6854536124561236e-15 0.0 0.01 0.0 2.6854536124561236e-15 0.0 0.010000305213972766 0.009996320531769716 0.0 -1.791166414889753e-19 0.0 0.01 0.0 -1.791166414889753e-19 0.0 0.010000103051592922 0.009996311042265855 0.0 1.0428205373740033e-16 0.0 0.01 0.0 1.0428205373740033e-16 0.0 0.010000106451699771 0.009996282573916422 0.0 2.6880406337910573e-15 0.0 0.01 0.0 2.6880406337910573e-15 0.0 0.010000119152129552 0.00999623662551464 0.0 9.063146008096404e-15 0.0 0.01 0.0 9.063146008096404e-15 0.0 0.010000142103028933 0.00999616870295088 0.0 2.1614044892653947e-14 0.0 0.01 0.0 2.1614044892653947e-14 0.0 0.010000176254659746 0.00999608430110603 0.0 4.34045004474964e-14 0.0 0.01 0.0 4.34045004474964e-14 0.0 0.01000022215740287 0.009995979925449932 0.0 5.832366879883394e-14 0.0 0.01 0.0 5.832366879883394e-14 0.0 0.01000028076182364 0.009995860571649367 0.0 4.321885023708664e-14 0.0 0.01 0.0 4.321885023708664e-14 0.0 0.010000357419161358 0.009995718750934303 0.0 -1.4426916071446304e-18 0.0 0.01 0.0 -1.4426916071446304e-18 0.0 0.010000148953327997 0.009995706267005503 0.0 3.04276681190102e-15 0.0 0.01 0.0 3.04276681190102e-15 0.0 0.010000153303525224 0.009995675307063915 0.0 8.919690990799673e-15 0.0 0.01 0.0 8.919690990799673e-15 0.0 0.010000167004183467 0.00999561938015672 0.0 2.2618553237208213e-14 0.0 0.01 0.0 2.2618553237208213e-14 0.0 0.010000188505330005 0.00999554148352892 0.0 4.7998425729902574e-14 0.0 0.01 0.0 4.7998425729902574e-14 0.0 0.010000223157469668 0.009995440120772093 0.0 9.041584577220472e-14 0.0 0.01 0.0 9.041584577220472e-14 0.0 0.010000269060858671 0.009995316791921177 0.0 1.3119407332127158e-13 0.0 0.01 0.0 1.3119407332127158e-13 0.0 0.010000333016634276 0.009995173995796828 0.0 1.1736585247801174e-13 0.0 0.01 0.0 1.1736585247796004e-13 0.0 0.0100004160259602 0.009995029208772783 0.0 7.577446584625374e-19 0.0 0.01 0.0 7.577446584625374e-19 0.0 0.010000220207273473 0.009995017725933279 0.0 3.6562769854772996e-15 0.0 0.01 0.0 3.6562769854772996e-15 0.0 0.010000224107533404 0.009994979782918967 0.0 1.437600208118753e-14 0.0 0.01 0.0 1.437600208118753e-14 0.0 0.010000235858344112 0.009994917377585254 0.0 3.527405071521197e-14 0.0 0.01 0.0 3.527405071521197e-14 0.0 0.010000255859819302 0.009994828015182786 0.0 7.547594025456725e-14 0.0 0.01 0.0 7.547594025456725e-14 0.0 0.010000289062533092 0.009994710699466525 0.0 1.417189688079264e-13 0.0 0.01 0.0 1.417189688079264e-13 0.0 0.010000336466980746 0.009994564934204244 0.0 2.2123267244129306e-13 0.0 0.01 0.0 2.2123267244134476e-13 0.0 0.0100003999239896 0.00999439621388474 0.0 2.307111729517423e-13 0.0 0.01 0.0 2.307111729517423e-13 0.0 0.010000485885410401 0.009994253956349716 0.0 1.5868999557094704e-19 0.0 0.01 0.0 1.5868999557094704e-19 0.0 0.010000328116148325 0.00999424097877169 0.0 3.361501625385019e-15 0.0 0.01 0.0 3.361501625385019e-15 0.0 0.010000330566390398 0.009994199051557412 0.0 1.395794929371751e-14 0.0 0.01 0.0 1.395794929371751e-14 0.0 0.010000339867325686 0.009994128674919682 0.0 3.748679279075003e-14 0.0 0.01 0.0 3.748679279075003e-14 0.0 0.010000359369371024 0.009994028353346791 0.0 8.529610836481731e-14 0.0 0.01 0.0 8.529610836481731e-14 0.0 0.01000038722249003 0.00999389309869506 0.0 1.7090867686430977e-13 0.0 0.01 0.0 1.7090867686430977e-13 0.0 0.0100004302277628 0.009993726408634484 0.0 2.8689953113262583e-13 0.0 0.01 0.0 2.8689953113262583e-13 0.0 0.010000490286054705 0.009993529784974099 0.0 3.3622810968527623e-13 0.0 0.01 0.0 3.3622810968517283e-13 0.0 0.010000573299297046 0.009993400538686702 0.0 1.1203300954823807e-19 0.0 0.01 0.0 1.1203300954823807e-19 0.0 0.010000480984699717 0.009993386566415454 0.0 2.551657568879075e-15 0.0 0.01 0.0 2.551657568879075e-15 0.0 0.010000483435054159 0.009993340657936842 0.0 1.1075349913598936e-14 0.0 0.01 0.0 1.1075349913598936e-14 0.0 0.010000492236342107 0.009993262315581185 0.0 2.703320923859807e-14 0.0 0.01 0.0 2.703320923859807e-14 0.0 0.0100005078386824 0.00999315054369012 0.0 6.67382818280702e-14 0.0 0.01 0.0 6.67382818280702e-14 0.0 0.010000532742569172 0.009993001852969833 0.0 1.5103959176863515e-13 0.0 0.01 0.0 1.5103959176858345e-13 0.0 0.010000566448125886 0.00999281525051806 0.0 2.6038857796546496e-13 0.0 0.01 0.0 2.6038857796546496e-13 0.0 0.010000616256961217 0.009992590742706522 0.0 3.0658090685282687e-13 0.0 0.01 0.0 3.0658090685282687e-13 0.0 0.010000690971609667 0.009992508925844093 0.0 -1.22767557350466e-18 0.0 0.01 0.0 -1.22767557350466e-18 0.0 0.010000694422326657 0.00999249495731233 0.0 -2.9442225526505504e-16 0.0 0.01 0.0 -2.9442225526505504e-16 0.0 0.01000069587262907 0.009992445070177096 0.0 3.771441350413786e-16 0.0 0.01 0.0 3.771441350413786e-16 0.0 0.010000702724066227 0.009992360762616895 0.0 1.0222233008692416e-15 0.0 0.01 0.0 1.0222233008692416e-15 0.0 0.010000716376972044 0.009992240041897157 0.0 -1.905311856051262e-15 0.0 0.01 0.0 -1.905311856051262e-15 0.0 0.010000735931231245 0.00999207792384712 0.0 -1.568756905113324e-14 0.0 0.01 0.0 -1.568756905113324e-14 0.0 0.010000762287153398 0.009991872918165577 0.0 -7.393989629827218e-14 0.0 0.01 0.0 -7.393989629827218e-14 0.0 0.010000801346313096 0.009991623037793513 0.0 -2.5522772180982107e-13 0.0 0.01 0.0 -2.5522772180982107e-13 0.0 0.010000858510543402 0.009991660443841663 0.0 3.5683919212818447e-19 0.0 0.01 0.0 3.5683919212818447e-19 0.0 0.010000975742792522 0.009991642987633578 0.0 -1.993583941064427e-15 0.0 0.01 0.0 -1.993583941064427e-15 0.0 0.010000978643642763 0.009991590120818648 0.0 -1.8673556346955618e-14 0.0 0.01 0.0 -1.8673556346955618e-14 0.0 0.010000985495661115 0.00999150034890436 0.0 -7.19022517461175e-14 0.0 0.01 0.0 -7.19022517461175e-14 0.0 0.010000999649875005 0.00999137118134003 0.0 -2.176584074137799e-13 0.0 0.01 0.0 -2.176584074137282e-13 0.0 0.010001015304605588 0.00999119763589752 0.0 -5.496550882855832e-13 0.0 0.01 0.0 -5.496550882856866e-13 0.0 0.010001036311068839 0.009990978223570165 0.0 -1.1533170219589691e-12 0.0 0.01 0.0 -1.1533170219589691e-12 0.0 0.010001060718744775 0.009990707967345117 0.0 -2.0243291617757137e-12 0.0 0.01 0.0 -2.0243291617757137e-12 0.0 0.010001096880445618 0.009990966754686966 0.0 -2.0507085895813785e-19 0.0 0.01 0.0 -2.0507085895813785e-19 0.0 0.010001333766792632 0.00999094830482731 0.0 -1.5967212776501264e-14 0.0 0.01 0.0 -1.5967212776501264e-14 0.0 0.010001338668757135 0.009990891958591378 0.0 -7.709355997056253e-14 0.0 0.01 0.0 -7.709355997056253e-14 0.0 0.010001351824064848 0.009990798216523638 0.0 -2.663718928204395e-13 0.0 0.01 0.0 -2.663718928204395e-13 0.0 0.010001368430839206 0.009990662594372642 0.0 -7.699321492519983e-13 0.0 0.01 0.0 -7.699321492519983e-13 0.0 0.010001387988923522 0.009990479612944149 0.0 -1.8306201045596144e-12 0.0 0.01 0.0 -1.830620104560028e-12 0.0 0.010001406046489424 0.009990249778583721 0.0 -3.5649370327629554e-12 0.0 0.01 0.0 -3.564937032763369e-12 0.0 0.01000141875187143 0.00998996662053185 0.0 -5.557233406954279e-12 0.0 0.01 0.0 -5.557233406954279e-12 0.0 0.010001435859194552 0.009990580824862288 0.0 1.5785313985062365e-18 0.0 0.01 0.0 1.5785313985062365e-18 0.0 0.01000177537268033 0.009990560881383842 0.0 -3.234207067551372e-14 0.0 0.01 0.0 -3.234207067551372e-14 0.0 0.010001782226336414 0.009990503544548592 0.0 -1.6811410558375804e-13 0.0 0.01 0.0 -1.6811410558375804e-13 0.0 0.010001806139203014 0.009990406822037733 0.0 -6.062064839913952e-13 0.0 0.01 0.0 -6.062064839913952e-13 0.0 0.01000183595548614 0.009990267227490668 0.0 -1.7497337344104342e-12 0.0 0.01 0.0 -1.7497337344100206e-12 0.0 0.010001867723128178 0.009990081775215006 0.0 -4.0124169394328665e-12 0.0 0.01 0.0 -4.0124169394328665e-12 0.0 0.010001890185785312 0.009989847980477699 0.0 -7.181250911472339e-12 0.0 0.01 0.0 -7.181250911472339e-12 0.0 0.010001899491072917 0.009989559872228623 0.0 -9.769221947413426e-12 0.0 0.01 0.0 -9.76922194741508e-12 0.0 0.01000191169804872 0.00999069799521025 0.0 7.176918587699895e-19 0.0 0.01 0.0 7.176918587699895e-19 0.0 0.01000230304535845 0.009990679048236271 0.0 -2.2105407473823175e-14 0.0 0.01 0.0 -2.2105407473823175e-14 0.0 0.010002316254506777 0.009990620213583105 0.0 -1.8510232101003355e-13 0.0 0.01 0.0 -1.8510232101003355e-13 0.0 0.010002354331170372 0.009990523487683667 0.0 -8.736057032787274e-13 0.0 0.01 0.0 -8.73605703278624e-13 0.0 0.01000240907026339 0.009990383888246154 0.0 -2.7913316673112315e-12 0.0 0.01 0.0 -2.7913316673112315e-12 0.0 0.010002465761697369 0.00999020291625758 0.0 -6.307349171049774e-12 0.0 0.01 0.0 -6.3073491710514284e-12 0.0 0.010002508743753594 0.009989976091978867 0.0 -1.0119595007092988e-11 0.0 0.01 0.0 -1.0119595007091334e-11 0.0 0.010002534162971912 0.009989697941756446 0.0 -1.0709832474157312e-11 0.0 0.01 0.0 -1.0709832474158966e-11 0.0 0.010002563985766448 0.009991578151090268 0.0 1.5749633756497584e-18 0.0 0.01 0.0 1.5749633756497584e-18 0.0 0.010002919227786265 0.009991559697843298 0.0 8.529612875441875e-14 0.0 0.01 0.0 8.529612875441875e-14 0.0 0.010002941247131499 0.009991503341262522 0.0 1.607177479563518e-13 0.0 0.01 0.0 1.607177479563518e-13 0.0 0.010003004303333656 0.00999141008069711 0.0 -4.4397250545723645e-13 0.0 0.01 0.0 -4.4397250545723645e-13 0.0 0.010003096637781178 0.009991279420554097 0.0 -2.705878966414802e-12 0.0 0.01 0.0 -2.7058789664152155e-12 0.0 0.01000319342904729 0.009991113359907409 0.0 -6.5618730100195514e-12 0.0 0.01 0.0 -6.5618730100195514e-12 0.0 0.01000327896203401 0.009990907914950813 0.0 -8.415072724201493e-12 0.0 0.01 0.0 -8.415072724201493e-12 0.0 0.01000335033295782 0.00999066259437264 0.0 -2.1608911528548083e-12 0.0 0.01 0.0 -2.160891152855015e-12 0.0 0.010003431965950431 0.009993525293706266 0.0 2.6037577434633015e-18 0.0 0.01 0.0 2.6037577434633015e-18 0.0 0.010003625020163399 0.009993509823830082 0.0 3.799968616253702e-13 0.0 0.01 0.0 3.799968616254219e-13 0.0 0.01000366020858876 0.009993460919532748 0.0 1.2401704699821247e-12 0.0 0.01 0.0 1.2401704699821247e-12 0.0 0.010003756515651782 0.009993381077324929 0.0 1.6199596193915233e-12 0.0 0.01 0.0 1.6199596193915233e-12 0.0 0.010003900731169081 0.009993272295396703 0.0 2.8044913644134047e-13 0.0 0.01 0.0 2.8044913644134047e-13 0.0 0.010004060071288975 0.009993136073496282 0.0 -1.6891342152568493e-12 0.0 0.01 0.0 -1.689134215257056e-12 0.0 0.010004214562884608 0.009992971916043617 0.0 2.17231281525168e-12 0.0 0.01 0.0 2.17231281525168e-12 0.0 0.010004363203971944 0.009992786812024944 0.0 2.0467120924295778e-11 0.0 0.01 0.0 2.0467120924295778e-11 0.0 0.010004536785496895 0.009996789546713614 0.0 4.687459070470973e-18 0.0 0.01 0.0 4.687459070470973e-18 0.0 0.01000441452148033 0.009996777558289104 0.0 9.089597309769482e-13 0.0 0.01 0.0 9.089597309773618e-13 0.0 0.010004463937232302 0.009996745089855971 0.0 3.2660758996020536e-12 0.0 0.01 0.0 3.2660758996020536e-12 0.0 0.010004606681272765 0.009996691143005035 0.0 5.855461254001113e-12 0.0 0.01 0.0 5.855461254001113e-12 0.0 0.010004818430354593 0.0099966197147221 0.0 7.313005376005799e-12 0.0 0.01 0.0 7.313005376007453e-12 0.0 0.01000506294241392 0.009996535800933093 0.0 9.72975565314964e-12 0.0 0.01 0.0 9.729755653147986e-12 0.0 0.010005313782443745 0.009996442399379265 0.0 2.190574243238004e-11 0.0 0.01 0.0 2.190574243238004e-11 0.0 0.010005568147189144 0.009996348001538502 0.0 5.315369691791667e-11 0.0 0.01 0.0 5.315369691792329e-11 0.0 0.010005862551399425 0.010001392390758824 0.0 -6.464509500863705e-18 0.0 0.01 0.0 -6.464509500863705e-18 0.0 0.01000526931192303 0.010001389939736174 0.0 1.524935112209503e-12 0.0 0.01 0.0 1.524935112209503e-12 0.0 0.010005338722252044 0.010001380635870688 0.0 5.713019837021622e-12 0.0 0.01 0.0 5.713019837023277e-12 0.0 0.010005533890204074 0.010001368430839201 0.0 1.1230724910625198e-11 0.0 0.01 0.0 1.1230724910631815e-11 0.0 0.010005828341477814 0.010001356225852406 0.0 1.664145430034502e-11 0.0 0.01 0.0 1.664145430035164e-11 0.0 0.010006172710653254 0.01000134892288986 0.0 2.420017066713162e-11 0.0 0.01 0.0 2.4200170667138237e-11 0.0 0.01000653765555708 0.010001353324673586 0.0 4.2942286900472276e-11 0.0 0.01 0.0 4.2942286900472276e-11 0.0 0.010006917320784965 0.010001381636285086 0.0 8.023421418791099e-11 0.0 0.01 0.0 8.023421418791099e-11 0.0 0.010007349895210262 0.010006957955239893 0.0 3.1743781029976176e-17 0.0 0.01 0.0 3.1743781029976176e-17 0.0 0.010006153625409032 0.010006965270496439 0.0 1.8906058381055873e-12 0.0 0.01 0.0 1.8906058381055873e-12 0.0 0.010006243141659708 0.010006988769614037 0.0 7.2389342265695624e-12 0.0 0.01 0.0 7.2389342265695624e-12 0.0 0.010006497527197173 0.010007032311060508 0.0 1.4825491129281457e-11 0.0 0.01 0.0 1.48254911290697e-11 0.0 0.010006879141883777 0.010007097398816478 0.0 2.3115542001870764e-11 0.0 0.01 0.0 2.3115542002082523e-11 0.0 0.010007335212916036 0.010007188393527978 0.0 3.349195956026055e-11 0.0 0.01 0.0 3.349195956015467e-11 0.0 0.010007820213805918 0.01000731516893269 0.0 5.2462553596634686e-11 0.0 0.01 0.0 5.2462553596634686e-11 0.0 0.010008325335152033 0.010007489856296653 0.0 8.386822805561417e-11 0.0 0.01 0.0 8.386822805572005e-11 0.0 0.010008879512875627 0.010012625419997794 0.0 6.4866658285787164e-18 0.0 0.01 0.0 6.4866658285787164e-18 0.0 0.01000701271984452 0.010012645997805637 0.0 1.7230950114999864e-12 0.0 0.01 0.0 1.7230950114991593e-12 0.0 0.010007123303996467 0.01001270973962535 0.0 6.684285515959886e-12 0.0 0.01 0.0 6.684285515959886e-12 0.0 0.010007434081626096 0.010012815593887815 0.0 1.394478344685029e-11 0.0 0.01 0.0 1.3944783446853598e-11 0.0 0.01000790290853256 0.010012968031931784 0.0 2.2009979007580468e-11 0.0 0.01 0.0 2.2009979007580468e-11 0.0 0.010008462880943604 0.010013172481503222 0.0 3.085783696473594e-11 0.0 0.01 0.0 3.085783696472271e-11 0.0 0.01000905869414063 0.010013432767491672 0.0 4.352366067652749e-11 0.0 0.01 0.0 4.352366067652749e-11 0.0 0.010009668303360197 0.010013761755852486 0.0 6.07025074495712e-11 0.0 0.01 0.0 6.070250744954473e-11 0.0 0.010010312781110382 0.010017223595869382 0.0 3.2138383288507513e-18 0.0 0.01 0.0 3.2138383288507513e-18 0.0 0.010007790845141746 0.010017256465285824 0.0 1.1064493650097516e-12 0.0 0.01 0.0 1.1064493650095448e-12 0.0 0.010007917092137079 0.01001735708590828 0.0 4.330013150180431e-12 0.0 0.01 0.0 4.330013150181258e-12 0.0 0.010008275411041495 0.010017526418865455 0.0 9.069689163074698e-12 0.0 0.01 0.0 9.069689163073044e-12 0.0 0.010008816846825414 0.010017765982619706 0.0 1.4049497015228169e-11 0.0 0.01 0.0 1.4049497015228169e-11 0.0 0.010009461661535133 0.010018081623800572 0.0 1.83432063447143e-11 0.0 0.01 0.0 1.83432063447143e-11 0.0 0.01001014235927781 0.010018472911482229 0.0 2.2572451679467616e-11 0.0 0.01 0.0 2.2572451679470924e-11 0.0 0.010010824199163432 0.010018946761255672 0.0 2.6423440455268648e-11 0.0 0.01 0.0 2.6423440455275265e-11 0.0 0.010011512048620158 0.010019827866122493 0.0 -4.288100460140518e-20 0.0 0.01 0.0 -4.288100460140518e-20 0.0 0.01000843205294987 0.010019871575377539 0.0 4.399248936356134e-13 0.0 0.01 0.0 4.399248936356134e-13 0.0 0.010008571056872754 0.01002000270657484 0.0 1.7317000762758518e-12 0.0 0.01 0.0 1.7317000762760586e-12 0.0 0.010008963687766648 0.010020222326394426 0.0 3.5411317277660997e-12 0.0 0.01 0.0 3.541131727765686e-12 0.0 0.01000955517778617 0.010020535231611682 0.0 4.980029212376453e-12 0.0 0.01 0.0 4.980029212376453e-12 0.0 0.01001025846384852 0.010020939133964919 0.0 5.050724363353743e-12 0.0 0.01 0.0 5.050724363353743e-12 0.0 0.010010988786512083 0.010021436884507066 0.0 3.548488195329457e-12 0.0 0.01 0.0 3.5484881953290433e-12 0.0 0.010011700703979793 0.010022024700020279 0.0 7.057031342994911e-13 0.0 0.01 0.0 7.057031342995945e-13 0.0 0.010012393100330396 0.010020345623648437 0.0 -1.074348851170149e-18 0.0 0.01 0.0 -1.074348851170149e-18 0.0 0.010008904930561122 0.010020394722475663 0.0 4.0247949817680975e-14 0.0 0.01 0.0 4.0247949817680975e-14 0.0 0.010009049368857003 0.010020545544903205 0.0 1.5495670208382558e-13 0.0 0.01 0.0 1.5495670208382558e-13 0.0 0.010009462162955762 0.010020797098459235 0.0 2.1064476699733123e-13 0.0 0.01 0.0 2.1064476699738293e-13 0.0 0.01001008212692147 0.010021153833882194 0.0 -2.583129721829076e-13 0.0 0.01 0.0 -2.583129721829076e-13 0.0 0.01001081341423502 0.010021613822199592 0.0 -1.852971952360428e-12 0.0 0.01 0.0 -1.8529719523608416e-12 0.0 0.010011563476218007 0.0100221760993957 0.0 -4.714576454507242e-12 0.0 0.01 0.0 -4.714576454507242e-12 0.0 0.010012277473496808 0.010022824506579498 0.0 -8.188250024364202e-12 0.0 0.01 0.0 -8.188250024364202e-12 0.0 0.010012945996499243 0.010019403478493954 0.0 -2.367561047767052e-18 0.0 0.01 0.0 -2.367561047767052e-18 0.0 0.010009198726937174 0.010019455078091889 0.0 -6.676464733338727e-14 0.0 0.01 0.0 -6.676464733338727e-14 0.0 0.010009345584687163 0.010019612245522017 0.0 -2.5978134729106013e-13 0.0 0.01 0.0 -2.5978134729106013e-13 0.0 0.01000976623830435 0.010019874040013097 0.0 -6.131802812751793e-13 0.0 0.01 0.0 -6.131802812751793e-13 0.0 0.010010395587797349 0.010020243906858146 0.0 -1.2674262568802022e-12 0.0 0.01 0.0 -1.2674262568802022e-12 0.0 0.010011133315044298 0.010020721932272056 0.0 -2.426352505297261e-12 0.0 0.01 0.0 -2.4263525052968473e-12 0.0 0.010011880990197033 0.010021303734505601 0.0 -4.107161672519973e-12 0.0 0.01 0.0 -4.107161672519973e-12 0.0 0.010012577890765605 0.010021964756219576 0.0 -5.7932835333069174e-12 0.0 0.01 0.0 -5.7932835333069174e-12 0.0 0.010013215601732853 0.010017814088450245 0.0 -5.706989126397686e-18 0.0 0.01 0.0 -5.706989126397686e-18 0.0 0.010009322119102345 0.010017864155442452 0.0 -2.6536946931778558e-14 0.0 0.01 0.0 -2.6536946931778558e-14 0.0 0.010009468029582731 0.010018017326895997 0.0 -1.0166914174740707e-13 0.0 0.01 0.0 -1.0166914174740707e-13 0.0 0.010009886241363918 0.01001827406947099 0.0 -2.222926821917536e-13 0.0 0.01 0.0 -2.222926821916502e-13 0.0 0.010010510196444848 0.010018634960137532 0.0 -3.9764852883704406e-13 0.0 0.01 0.0 -3.9764852883704406e-13 0.0 0.010011240624379901 0.010019101943569345 0.0 -6.458235981271842e-13 0.0 0.01 0.0 -6.458235981271842e-13 0.0 0.010011974574274902 0.01001966676548795 0.0 -9.404817842267892e-13 0.0 0.01 0.0 -9.404817842272028e-13 0.0 0.010012650414522397 0.010020306787792223 0.0 -1.1371312201479551e-12 0.0 0.01 0.0 -1.1371312201483687e-12 0.0 0.010013260228494242 0.010016131248794543 0.0 -3.001988271875083e-18 0.0 0.01 0.0 -3.001988271875083e-18 0.0 0.010009288826333564 0.010016179331078586 0.0 2.4227136357073635e-14 0.0 0.01 0.0 2.4227136357073635e-14 0.0 0.010009432779834007 0.010016322577180634 0.0 9.290449013394815e-14 0.0 0.01 0.0 9.290449013394815e-14 0.0 0.010009843113984002 0.010016564516769706 0.0 1.947222350094568e-13 0.0 0.01 0.0 1.947222350094568e-13 0.0 0.010010456327382391 0.01001690456825343 0.0 3.2756368606200626e-13 0.0 0.01 0.0 3.2756368606210966e-13 0.0 0.0100111700376263 0.010017343867341818 0.0 5.134612632900197e-13 0.0 0.01 0.0 5.134612632896061e-13 0.0 0.010011885907686468 0.010017875465860903 0.0 8.069543142258113e-13 0.0 0.01 0.0 8.069543142260181e-13 0.0 0.010012542608151353 0.010018478341468075 0.0 1.237144881766823e-12 0.0 0.01 0.0 1.2371448817664094e-12 0.0 0.01001313126932477 0.010014491891477595 0.0 1.4447417559717645e-17 0.0 0.01 0.0 1.4447417559717645e-17 0.0 0.010009121815966193 0.010014536033122072 0.0 4.22170167608256e-14 0.0 0.01 0.0 4.22170167608256e-14 0.0 0.0100092598959895 0.010014666954947623 0.0 1.5406670651817604e-13 0.0 0.01 0.0 1.5406670651817604e-13 0.0 0.010009659979273219 0.01001488913706866 0.0 2.83658681190165e-13 0.0 0.01 0.0 2.836586811903718e-13 0.0 0.010010256959227819 0.010015202547479294 0.0 3.887565974422777e-13 0.0 0.01 0.0 3.887565974423811e-13 0.0 0.01001095156428004 0.01001560922125331 0.0 4.962065156406565e-13 0.0 0.01 0.0 4.962065156406565e-13 0.0 0.010011648270768484 0.010016101806901828 0.0 7.629578351647926e-13 0.0 0.01 0.0 7.629578351656197e-13 0.0 0.010012286757621558 0.01001666511654209 0.0 1.2773357479896888e-12 0.0 0.01 0.0 1.2773357479888617e-12 0.0 0.010012865134233608 0.01001271365451695 0.0 9.405979575038391e-18 0.0 0.01 0.0 9.405979575038391e-18 0.0 0.010008838353681184 0.010012753857707935 0.0 4.8747156110433006e-14 0.0 0.01 0.0 4.8747156110433006e-14 0.0 0.010008973514157988 0.010012873466319424 0.0 1.660803777570716e-13 0.0 0.01 0.0 1.6608037775717499e-13 0.0 0.010009358821756536 0.010013075400277823 0.0 2.5902329449952936e-13 0.0 0.01 0.0 2.5902329449973615e-13 0.0 0.010009936189584285 0.010013360226733428 0.0 2.312562354923848e-13 0.0 0.01 0.0 2.312562354922814e-13 0.0 0.010010608657695604 0.010013733338975277 0.0 1.4405417421197876e-13 0.0 0.01 0.0 1.4405417421208216e-13 0.0 0.010011285174570752 0.010014189343584945 0.0 2.8476815669715065e-13 0.0 0.01 0.0 2.8476815669715065e-13 0.0 0.010011907484511483 0.010014715016146689 0.0 8.384236957509138e-13 0.0 0.01 0.0 8.384236957509138e-13 0.0 0.010012472044041792 0.010010559652420583 0.0 6.223799305761601e-17 0.0 0.01 0.0 6.223799305761601e-17 0.0 0.01000846042471902 0.010010596920440346 0.0 7.75916433614091e-14 0.0 0.01 0.0 7.75916433613574e-14 0.0 0.010008589654663416 0.010010702707706133 0.0 2.6960579777996487e-13 0.0 0.01 0.0 2.6960579778017166e-13 0.0 0.010008959275926885 0.010010883943281958 0.0 4.2762713564823607e-13 0.0 0.01 0.0 4.2762713564823607e-13 0.0 0.010009511603399919 0.010011138682937487 0.0 4.266797962793366e-13 0.0 0.01 0.0 4.266797962801638e-13 0.0 0.010010159511404987 0.010011474820551146 0.0 3.744804370580106e-13 0.0 0.01 0.0 3.744804370571834e-13 0.0 0.010010812912611284 0.010011890825183152 0.0 6.881228464085435e-13 0.0 0.01 0.0 6.881228464068891e-13 0.0 0.010011413560710834 0.010012382812190225 0.0 1.7503703711204892e-12 0.0 0.01 0.0 1.7503703711204892e-12 0.0 0.010011962330417921 0.010007987610104949 0.0 5.539721219874688e-16 0.0 0.01 0.0 5.539721219874688e-16 0.0 0.01000800765812914 0.010008015476891232 0.0 1.327393577706479e-13 0.0 0.01 0.0 1.3273935776733917e-13 0.0 0.010008130003807828 0.010008106546771256 0.0 4.756403893973395e-13 0.0 0.01 0.0 4.756403893956851e-13 0.0 0.010008481478131234 0.010008259722193167 0.0 8.536516975251405e-13 0.0 0.01 0.0 8.536516975267949e-13 0.0 0.010009005801076169 0.010008480024438977 0.0 1.0968946620965637e-12 0.0 0.01 0.0 1.0968946620965637e-12 0.0 0.010009623223161571 0.010008771778129793 0.0 1.3536871642493925e-12 0.0 0.01 0.0 1.3536871642493925e-12 0.0 0.010010245223209592 0.010009139965592214 0.0 2.225897877801796e-12 0.0 0.01 0.0 2.225897877801796e-12 0.0 0.01001082123957495 0.010009588974652523 0.0 4.274895940648716e-12 0.0 0.01 0.0 4.274895940648716e-12 0.0 0.010011345428646654 0.010005226744975546 0.0 1.14773432661742e-17 0.0 0.01 0.0 1.14773432661742e-17 0.0 0.010007502083752472 0.010005250231847623 0.0 1.8442273644533553e-13 0.0 0.01 0.0 1.8442273644533553e-13 0.0 0.010007617094188095 0.010005319191061032 0.0 6.709427863721711e-13 0.0 0.01 0.0 6.709427863717575e-13 0.0 0.010007945509646307 0.01000543898416652 0.0 1.2720015344739616e-12 0.0 0.01 0.0 1.2720015344747888e-12 0.0 0.010008438419032551 0.010005612120852374 0.0 1.7995562241573238e-12 0.0 0.01 0.0 1.7995562241573238e-12 0.0 0.010009021493433402 0.010005845922228258 0.0 2.4173023490097662e-12 0.0 0.01 0.0 2.4173023490105934e-12 0.0 0.010009607578118212 0.01000615167180752 0.0 3.805209883476901e-12 0.0 0.01 0.0 3.8052098834752465e-12 0.0 0.01001014822710087 0.010006542064195342 0.0 6.806599042716339e-12 0.0 0.01 0.0 6.806599042716339e-12 0.0 0.010010641963636187 0.010002652404914693 0.0 -2.2400858322913822e-17 0.0 0.01 0.0 -2.2400858322913822e-17 0.0 0.010006963316419492 0.010002666115847159 0.0 1.8686877857026106e-13 0.0 0.01 0.0 1.8686877857031276e-13 0.0 0.010007069489592369 0.010002713003659089 0.0 6.998560085386001e-13 0.0 0.01 0.0 6.998560085383933e-13 0.0 0.01000737384803375 0.010002793670253104 0.0 1.3601403268081894e-12 0.0 0.01 0.0 1.3601403268081894e-12 0.0 0.010007832442472702 0.010002912421836246 0.0 1.963303185978028e-12 0.0 0.01 0.0 1.963303185978855e-12 0.0 0.01000837425749514 0.010003081974199485 0.0 2.6478760176074444e-12 0.0 0.01 0.0 2.6478760176074444e-12 0.0 0.01000891866722127 0.010003313145813212 0.0 4.035766753067832e-12 0.0 0.01 0.0 4.035766753067832e-12 0.0 0.010009421999402005 0.010003630375987964 0.0 7.0314613365588635e-12 0.0 0.01 0.0 7.0314613365588635e-12 0.0 0.010009877415250102 0.010000547895025054 0.0 4.723978498127921e-18 0.0 0.01 0.0 4.723978498127921e-18 0.0 0.010006411410661248 0.010000556696483198 0.0 1.4474144745190332e-13 0.0 0.01 0.0 1.4474144745190332e-13 0.0 0.010006509300136617 0.010000579150308378 0.0 5.412289842179472e-13 0.0 0.01 0.0 5.412289842179472e-13 0.0 0.010006787153570272 0.010000622608141309 0.0 1.0526606562858958e-12 0.0 0.01 0.0 1.052660656285689e-12 0.0 0.010007209939996044 0.010000691971817128 0.0 1.4902930312711953e-12 0.0 0.01 0.0 1.4902930312711953e-12 0.0 0.010007707150878894 0.010000796945258137 0.0 1.885531714175092e-12 0.0 0.01 0.0 1.8855317141755058e-12 0.0 0.010008207844258403 0.01000095618712659 0.0 2.608670420215531e-12 0.0 0.01 0.0 2.6086704202159447e-12 0.0 0.010008666503237318 0.010001197014892401 0.0 4.355986799424691e-12 0.0 0.01 0.0 4.355986799424691e-12 0.0 0.01000908416332764 0.009999012146397493 0.0 -2.670199749428466e-19 0.0 0.01 0.0 -2.670199749428466e-19 0.0 0.010005864504831602 0.009999014145805441 0.0 7.97035693153844e-14 0.0 0.01 0.0 7.97035693153844e-14 0.0 0.010005954514216582 0.009999021143742695 0.0 2.9800555738505126e-13 0.0 0.01 0.0 2.9800555738505126e-13 0.0 0.010006207425038846 0.009999033640095772 0.0 5.620003393289909e-13 0.0 0.01 0.0 5.620003393288875e-13 0.0 0.010006590509501888 0.009999062131955973 0.0 7.235088305392834e-13 0.0 0.01 0.0 7.235088305392834e-13 0.0 0.01000704112965052 0.009999117616803757 0.0 7.32581138750569e-13 0.0 0.01 0.0 7.325811387506724e-13 0.0 0.010007496220581587 0.00999922009124814 0.0 6.96660518693858e-13 0.0 0.01 0.0 6.96660518693858e-13 0.0 0.010007909273605575 0.009999402053635253 0.0 8.621598557589756e-13 0.0 0.01 0.0 8.621598557589756e-13 0.0 0.010008285686525273 0.00999798860701805 0.0 1.0819132651024862e-18 0.0 0.01 0.0 1.0819132651024862e-18 0.0 0.01000534217778236 0.009997986108527228 0.0 2.0250378418159348e-14 0.0 0.01 0.0 2.0250378418159348e-14 0.0 0.010005421906374705 0.009997980611854014 0.0 7.3695215737402e-14 0.0 0.01 0.0 7.3695215737402e-14 0.0 0.010005650285253275 0.009997976614279187 0.0 1.0883254449089948e-13 0.0 0.01 0.0 1.0883254449089948e-13 0.0 0.010005992181636201 0.009997980611854012 0.0 5.5235827630605285e-14 0.0 0.01 0.0 5.5235827630605285e-14 0.0 0.010006394327889597 0.009998006596207264 0.0 -5.072319281214282e-14 0.0 0.01 0.0 -5.072319281214282e-14 0.0 0.010006799879471158 0.009998075055954129 0.0 -1.63697895929465e-13 0.0 0.01 0.0 -1.63697895929465e-13 0.0 0.010007172258822099 0.009998222973785581 0.0 -3.8273869756939167e-13 0.0 0.01 0.0 -3.8273869756933997e-13 0.0 0.010007511855726845 0.009997346556488141 0.0 2.729516746323571e-19 0.0 0.01 0.0 2.729516746323571e-19 0.0 0.010004851177806955 0.009997343558876954 0.0 -2.875247745111394e-14 0.0 0.01 0.0 -2.875247745111394e-14 0.0 0.010004922081649697 0.00999733256765901 0.0 -1.3504737109610213e-13 0.0 0.01 0.0 -1.3504737109610213e-13 0.0 0.010005122583442473 0.009997320577280774 0.0 -3.169840978342918e-13 0.0 0.01 0.0 -3.169840978343952e-13 0.0 0.010005423358734833 0.009997316080900057 0.0 -4.635014713149397e-13 0.0 0.01 0.0 -4.635014713149397e-13 0.0 0.010005777452990331 0.009997335565260309 0.0 -1.4972305209241883e-13 0.0 0.01 0.0 -1.4972305209241883e-13 0.0 0.010006136493865505 0.009997400014340447 0.0 1.1060796559482044e-12 0.0 0.01 0.0 1.1060796559482044e-12 0.0 0.010006472578722406 0.009997543405525056 0.0 3.1405703377869654e-12 0.0 0.01 0.0 3.1405703377869654e-12 0.0 0.010006783746644418 0.009996963383715998 0.0 2.503704498561176e-18 0.0 0.01 0.0 2.503704498561176e-18 0.0 0.010004398400187743 0.009996959886905313 0.0 -9.751328414272869e-14 0.0 0.01 0.0 -9.751328414272869e-14 0.0 0.010004459030670994 0.009996951394666062 0.0 -4.022647023186634e-13 0.0 0.01 0.0 -4.022647023186634e-13 0.0 0.010004630664473258 0.00999694240290692 0.0 -8.40390314272022e-13 0.0 0.01 0.0 -8.40390314272022e-13 0.0 0.010004892237758158 0.009996943401990071 0.0 -9.066792473438591e-13 0.0 0.01 0.0 -9.066792473438591e-13 0.0 0.010005199352180182 0.009996971875985798 0.0 5.925902611712702e-13 0.0 0.01 0.0 5.925902611713736e-13 0.0 0.010005515309442686 0.009997054801640141 0.0 5.192804126318648e-12 0.0 0.01 0.0 5.192804126319475e-12 0.0 0.01000582002696715 0.009997225155391852 0.0 1.2513491748493166e-11 0.0 0.01 0.0 1.2513491748493166e-11 0.0 0.010006116457084126 0.009996761573790177 0.0 -3.1632744037905252e-18 0.0 0.01 0.0 -3.1632744037905252e-18 0.0 0.010003984329968409 0.009996759076219148 0.0 -1.9538406305177212e-13 0.0 0.01 0.0 -1.9538406305177212e-13 0.0 0.010004035141041116 0.009996754081082705 0.0 -7.610586989115592e-13 0.0 0.01 0.0 -7.610586989115592e-13 0.0 0.010004179869236237 0.00999675557962285 0.0 -1.3805838478106843e-12 0.0 0.01 0.0 -1.3805838478102707e-12 0.0 0.010004398900847835 0.00999677506070609 0.0 -9.074709614767454e-13 0.0 0.01 0.0 -9.074709614765386e-13 0.0 0.010004660956653578 0.00999683250558897 0.0 3.1219558225790154e-12 0.0 0.01 0.0 3.1219558225790154e-12 0.0 0.010004941159847808 0.009996952893294947 0.0 1.329457550282063e-11 0.0 0.01 0.0 1.329457550282063e-11 0.0 0.010005228197250686 0.009997172199920402 0.0 5.821310791006981e-11 0.0 0.01 0.0 5.821310791006981e-11 0.0 0.010005527028832692 0.00999670213210754 0.0 2.1438063819846063e-18 0.0 0.01 0.0 2.1438063819846063e-18 0.0 0.010003602045275234 0.009996703131118657 0.0 -2.800024224679826e-13 0.0 0.01 0.0 -2.80002422468086e-13 0.0 0.010003642589302334 0.00999670912519164 0.0 -9.715239657906777e-13 0.0 0.01 0.0 -9.715239657906777e-13 0.0 0.010003762372252086 0.009996729605022353 0.0 -1.2777587590462423e-12 0.0 0.01 0.0 -1.277758759046656e-12 0.0 0.010003944232318688 0.009996777058772352 0.0 9.990236922044932e-13 0.0 0.01 0.0 9.990236922044932e-13 0.0 0.010004171058208403 0.00999687746314461 0.0 9.692110242462235e-12 0.0 0.01 0.0 9.692110242462235e-12 0.0 0.01000442823966024 0.009997057798991592 0.0 2.7507969403198592e-11 0.0 0.01 0.0 2.7507969403191975e-11 0.0 0.010004712779451315 0.009997336064860857 0.0 6.74864323491022e-10 0.0 0.01 0.0 6.74864323491022e-10 0.0 0.010005033598017288 0.009996783552495968 0.0 -3.292100125998227e-18 0.0 0.01 0.0 -3.292100125998227e-18 0.0 0.010003247180943113 0.009996789047195066 0.0 -2.086519256471798e-13 0.0 0.01 0.0 -2.086519256471798e-13 0.0 0.010003280913953404 0.009996811026082067 0.0 -4.2962596632412923e-13 0.0 0.01 0.0 -4.2962596632412923e-13 0.0 0.010003378661532017 0.009996859480049572 0.0 9.36618100771845e-13 0.0 0.01 0.0 9.36618100771845e-13 0.0 0.010003534573098277 0.00999695539101125 0.0 7.32043709186812e-12 0.0 0.01 0.0 7.320437091866466e-12 0.0 0.010003737944790628 0.00999711874572249 0.0 2.3091923732335334e-11 0.0 0.01 0.0 2.3091923732335334e-11 0.0 0.01000399018696884 0.00999737053747471 0.0 2.6978221053643655e-10 0.0 0.01 0.0 2.6978221053643655e-10 0.0 0.010004292812654754 0.00999769679596 0.0 4.649078979495635e-09 0.0 0.01 0.0 4.649078979495635e-09 0.0 0.010004649240309818 0.009997018833633027 0.0 3.5572560220154796e-19 0.0 0.01 0.0 3.5572560220154796e-19 0.0 0.010002922680810336 0.009997032821145219 0.0 2.596227802152708e-13 0.0 0.01 0.0 2.596227802152191e-13 0.0 0.010002950505308717 0.009997081278337896 0.0 1.7998797522205466e-12 0.0 0.01 0.0 1.7998797522197194e-12 0.0 0.01000303603206413 0.009997174697801089 0.0 7.094662298255881e-12 0.0 0.01 0.0 7.094662298255881e-12 0.0 0.01000317776408615 0.009997334566059574 0.0 2.0067108411119284e-11 0.0 0.01 0.0 2.0067108411125902e-11 0.0 0.010003380113002544 0.009997575382100965 0.0 2.418007431319938e-10 0.0 0.01 0.0 2.4180074313194084e-10 0.0 0.010003645542528517 0.009997887169798053 0.0 3.3118063837892333e-09 0.0 0.01 0.0 3.3118063837883863e-09 0.0 0.010003978923517254 0.009998206482681283 0.0 2.0036641448457416e-08 0.0 0.01 0.0 2.0036641448457416e-08 0.0 0.010004377372592176 0.009997460967330505 0.0 1.3046560662814127e-18 0.0 0.01 0.0 1.3046560662814127e-18 0.0 0.010002639244474152 0.009997487946878776 0.0 1.3521717161323327e-12 0.0 0.01 0.0 1.3521717161323327e-12 0.0 0.01000266611584716 0.009997569886105137 0.0 6.3586088466953434e-12 0.0 0.01 0.0 6.358608846698652e-12 0.0 0.010002750634482428 0.00999772177878035 0.0 3.6772686914850674e-11 0.0 0.01 0.0 3.6772686914850674e-11 0.0 0.010002897258629916 0.009997949131082103 0.0 4.985737679747528e-10 0.0 0.01 0.0 4.985737679747528e-10 0.0 0.010003112802828255 0.00999824146397842 0.0 3.908670158648827e-09 0.0 0.01 0.0 3.908670158648827e-09 0.0 0.010003405538866944 0.009998550815133754 0.0 1.8683772026953783e-08 0.0 0.01 0.0 1.8683772026953783e-08 0.0 0.010003774586102297 0.009998792219415608 0.0 6.166643282633482e-08 0.0 0.01 0.0 6.166643282633482e-08 0.0 0.010004196991302462 0.009998184994256486 0.0 1.6808045805891373e-18 0.0 0.01 0.0 1.6808045805891373e-18 0.0 0.01000242177946838 0.009998221474585437 0.0 9.67962366865342e-12 0.0 0.01 0.0 9.679623668656729e-12 0.0 0.010002453552692808 0.009998336415219251 0.0 1.8715489464933095e-10 0.0 0.01 0.0 1.8715489464933095e-10 0.0 0.010002547823379929 0.009998523826927652 0.0 1.3282454855266563e-09 0.0 0.01 0.0 1.3282454855262328e-09 0.0 0.010002712553293026 0.009998771226525817 0.0 6.359260818124217e-09 0.0 0.01 0.0 6.359260818125911e-09 0.0 0.010002953457928059 0.00999904213771817 0.0 2.2447281760275468e-08 0.0 0.01 0.0 2.2447281760275468e-08 0.0 0.010003271154443463 0.009999264081843344 0.0 6.320394932435042e-08 0.0 0.01 0.0 6.320394932432332e-08 0.0 0.01000365435276723 0.009999349566598838 0.0 1.4456720376756008e-07 0.0 0.01 0.0 1.4456720376756008e-07 0.0 0.010004069385769816 0.00999918759901003 0.0 3.6571247227222424e-18 0.0 0.01 0.0 3.6571247227222424e-18 0.0 0.010002303545704024 0.00999922708961782 0.0 3.177985777272904e-10 0.0 0.01 0.0 3.1779857772707866e-10 0.0 0.01000234067155511 0.009999340565234714 0.0 2.376978683450869e-09 0.0 0.01 0.0 2.376978683452563e-09 0.0 0.010002451100890755 0.00999951003602614 0.0 9.689551339401008e-09 0.0 0.01 0.0 9.689551339394232e-09 0.0 0.010002633840215913 0.009999701513493546 0.0 2.931737110366359e-08 0.0 0.01 0.0 2.9317371103650038e-08 0.0 0.010002889451986446 0.009999859503739649 0.0 7.2065597105759e-08 0.0 0.01 0.0 7.20655971057861e-08 0.0 0.010003210045776163 0.009999907504673075 0.0 1.5036141645858626e-07 0.0 0.01 0.0 1.5036141645853205e-07 0.0 0.010003575169750369 0.00999978551780266 0.0 2.696565478966769e-07 0.0 0.01 0.0 2.6965654789656845e-07 0.0 0.010003954505376724 0.010000339867325686 0.0 1.9026751778937767e-17 0.0 0.01 0.0 1.9026751778937767e-17 0.0 0.010002307448402078 0.010000366220117117 0.0 1.865358904359977e-09 0.0 0.01 0.0 1.865358904358283e-09 0.0 0.010002346025317575 0.010000438978918884 0.0 1.0068112117672852e-08 0.0 0.01 0.0 1.0068112117679628e-08 0.0 0.01000246431064002 0.010000526391712797 0.0 3.189077008833351e-08 0.0 0.01 0.0 3.1890770088360615e-08 0.0 0.010002652405067248 0.010000583051885713 0.0 7.73622313700274e-08 0.0 0.01 0.0 7.736223136997318e-08 0.0 0.010002897759962421 0.010000547398571568 0.0 1.5556654755566942e-07 0.0 0.01 0.0 1.5556654755566942e-07 0.0 0.010003187577076439 0.010000377982335691 0.0 2.697205965247317e-07 0.0 0.01 0.0 2.697205965246233e-07 0.0 0.010003509157165356 0.010000143578700077 0.0 4.1329659695435103e-07 0.0 0.01 0.0 4.1329659695435103e-07 0.0 0.010003870922041328 0.01000143000667939 0.0 1.5075662559054973e-17 0.0 0.01 0.0 1.5075662559054973e-17 0.0 0.01000242423124972 0.0100014305068977 0.0 4.994605037729146e-09 0.0 0.01 0.0 4.994605037729146e-09 0.0 0.010002462359187147 0.01000142070278651 0.0 2.3727792573666933e-08 0.0 0.01 0.0 2.3727792573666933e-08 0.0 0.010002573743366747 0.010001369932096903 0.0 6.540585239319004e-08 0.0 0.01 0.0 6.540585239319004e-08 0.0 0.010002743829518164 0.010001238532972995 0.0 1.3948740228565248e-07 0.0 0.01 0.0 1.394874022857609e-07 0.0 0.01000295736429916 0.010001028017817671 0.0 2.493036888118541e-07 0.0 0.01 0.0 2.493036888122878e-07 0.0 0.010003213457596652 0.010000852181638578 0.0 3.8931375999254163e-07 0.0 0.01 0.0 3.8931375999254163e-07 0.0 0.010003529240162451 0.010000892262452986 0.0 5.359109686764365e-07 0.0 0.01 0.0 5.359109686762197e-07 0.0 0.010003917393724297 0.010002192620927214 0.0 -1.3320732173339366e-16 0.0 0.01 0.0 -1.3320732173339366e-16 0.0 0.010002624082510092 0.01000216185084822 0.0 8.318708026892538e-09 0.0 0.01 0.0 8.318708026865433e-09 0.0 0.010002659760783291 0.010002074395498469 0.0 3.7384941656390565e-08 0.0 0.01 0.0 3.7384941656282145e-08 0.0 0.010002761393582624 0.010001941466646357 0.0 9.661055420137447e-08 0.0 0.01 0.0 9.661055420137447e-08 0.0 0.010002914374940896 0.010001827156317037 0.0 1.9440668428804403e-07 0.0 0.01 0.0 1.9440668428826087e-07 0.0 0.01000312011532369 0.010001852080438047 0.0 3.271078434633791e-07 0.0 0.01 0.0 3.271078434629454e-07 0.0 0.010003377226109889 0.010002044108601647 0.0 4.6223112118090603e-07 0.0 0.01 0.0 4.6223112118090603e-07 0.0 0.010003690574054053 0.010002273766039332 0.0 5.216598477904115e-07 0.0 0.01 0.0 5.216598477899778e-07 0.0 0.010004053754369949 0.010003445630037149 0.0 -4.534779526480318e-17 0.0 0.01 0.0 -4.534779526480318e-17 0.0 0.01000286498074705 0.010003429012928474 0.0 1.0024138712697766e-08 0.0 0.01 0.0 1.002413871272487e-08 0.0 0.010002898209471076 0.010003392826206353 0.0 4.450297211885772e-08 0.0 0.01 0.0 4.450297211885772e-08 0.0 0.010002993543956196 0.01000336595057541 0.0 1.1245135961290842e-07 0.0 0.01 0.0 1.1245135961290842e-07 0.0 0.0100031489386423 0.010003384023786501 0.0 2.1335250242979914e-07 0.0 0.01 0.0 2.1335250242979914e-07 0.0 0.010003365004545295 0.01000337622372294 0.0 3.1283248051999085e-07 0.0 0.01 0.0 3.1283248051999085e-07 0.0 0.01000362893908329 0.010003282882715937 0.0 3.351509325465879e-07 0.0 0.01 0.0 3.3515093254528686e-07 0.0 0.010003903200881877 0.01000302627869654 0.0 1.9154997221780372e-07 0.0 0.01 0.0 1.9154997221780372e-07 0.0 0.010004146132633047 0.010005433124621058 0.0 -8.033327532823784e-18 0.0 0.01 0.0 -8.033327532823784e-18 0.0 0.010003109850073837 0.010005354397374813 0.0 6.952917100756567e-09 0.0 0.01 0.0 6.952917100756567e-09 0.0 0.010003139678025205 0.010005104005107181 0.0 2.997588042640432e-08 0.0 0.01 0.0 2.997588042643142e-08 0.0 0.010003230064458302 0.010004671221737153 0.0 6.97077516864696e-08 0.0 0.01 0.0 6.970775168657802e-08 0.0 0.010003397731630621 0.010004107030420128 0.0 1.0496732166277722e-07 0.0 0.01 0.0 1.0496732166234354e-07 0.0 0.01000365580541044 0.010003599092990772 0.0 7.761243312094657e-08 0.0 0.01 0.0 7.761243312094657e-08 0.0 0.010003927113023978 0.010002901162748913 0.0 -6.958275617610817e-08 0.0 0.01 0.0 -6.958275617610817e-08 0.0 0.010004084051284726 0.01000453873815269 0.0 -2.527724948666594e-17 0.0 0.01 0.0 -2.527724948666594e-17 0.0 0.01000333076335896 0.010004394995701448 0.0 -1.4333471986728997e-09 0.0 0.01 0.0 -1.4333471986695116e-09 0.0 0.010003358641313602 0.010003953493297019 0.0 -1.0300832184299315e-08 0.0 0.01 0.0 -1.0300832184299315e-08 0.0 0.010003459294195773 0.01000328236567571 0.0 -4.430465013133614e-08 0.0 0.01 0.0 -4.430465013133614e-08 0.0 0.01000367782826263 0.010002607972565634 0.0 -1.340511743013915e-07 0.0 0.01 0.0 -1.3405117430149993e-07 0.0 0.010004003856038056 0.009999883502035798 0.0 3.9165217501801006e-16 0.0 0.01 0.0 3.9165217501801006e-16 0.0 0.010000003900002281 0.009999888501864803 0.0 3.4082130915771787e-16 0.0 0.01 0.0 3.4082130915771787e-16 0.0 0.010000003900002281 0.009999892501733406 0.0 -2.378451110555959e-16 0.0 0.01 0.0 -2.378451110555959e-16 0.0 0.010000003400001733 0.009999899501515013 0.0 -2.7059229027067465e-16 0.0 0.01 0.0 -2.7059229027067465e-16 0.0 0.0100000024500009 0.009999910001214982 0.0 -2.8771371587076697e-16 0.0 0.01 0.0 -2.8771371587076697e-16 0.0 0.01 0.009999923000889342 0.0 8.503860229221624e-16 0.0 0.01 0.0 8.503860229221624e-16 0.0 0.009999998000000601 0.009999939000558143 0.0 3.505595294487096e-15 0.0 0.01 0.0 3.5055952946938913e-15 0.0 0.009999995000003748 0.009999855503131962 0.0 1.2795288390860809e-17 0.0 0.01 0.0 1.2795288390860809e-17 0.0 0.010000005850005133 0.00999986050291897 0.0 -3.681466246063782e-16 0.0 0.01 0.0 -3.681466246063782e-16 0.0 0.010000005850005133 0.009999865502713475 0.0 -1.1413744617482836e-15 0.0 0.01 0.0 -1.1413744617482836e-15 0.0 0.010000004900003601 0.009999875502324994 0.0 -2.0932797256383265e-15 0.0 0.01 0.0 -2.0932797256383265e-15 0.0 0.010000003400001737 0.009999887501898404 0.0 -2.5633879274280906e-15 0.0 0.01 0.0 -2.5633879274022412e-15 0.0 0.010000001000000152 0.009999903501396817 0.0 -1.3621593719558711e-15 0.0 0.01 0.0 -1.3621593719558711e-15 0.0 0.00999999750000094 0.009999922500900928 0.0 1.0454739770006279e-15 0.0 0.01 0.0 1.0454739770006279e-15 0.0 0.009999993500006339 0.009999943500478834 0.0 5.524282809079963e-15 0.0 0.01 0.0 5.524282809493553e-15 0.0 0.009999990500013536 0.009999828004437473 0.0 -5.694380436486501e-17 0.0 0.01 0.0 -5.694380436486501e-17 0.0 0.010000006850007037 0.00999983100428403 0.0 -8.338006762426478e-16 0.0 0.01 0.0 -8.338006762426478e-16 0.0 0.010000007300007994 0.009999838503912232 0.0 -1.558274452059547e-15 0.0 0.01 0.0 -1.558274452059547e-15 0.0 0.010000006850007037 0.009999847503488353 0.0 -2.664362811200457e-15 0.0 0.01 0.0 -2.664362811200457e-15 0.0 0.010000004900003604 0.009999863002815287 0.0 -2.97039395463669e-15 0.0 0.01 0.0 -2.970393954584991e-15 0.0 0.010000001450000316 0.009999881502106296 0.0 -8.369914458652865e-16 0.0 0.01 0.0 -8.369914458652865e-16 0.0 0.009999997000001351 0.009999904501368017 0.0 3.0175806257598895e-15 0.0 0.01 0.0 3.0175806257598895e-15 0.0 0.00999999150001084 0.009999928500766832 0.0 6.443516794920588e-15 0.0 0.01 0.0 6.443516794920588e-15 0.0 0.009999988000021604 0.009999794506334321 0.0 -3.798623157059021e-16 0.0 0.01 0.0 -3.798623157059021e-16 0.0 0.010000009300012973 0.009999799506029836 0.0 -4.864093948456484e-16 0.0 0.01 0.0 -4.864093948456484e-16 0.0 0.010000009300012973 0.009999806005645217 0.0 -1.0906111347649537e-15 0.0 0.01 0.0 -1.0906111347649537e-15 0.0 0.010000009300012973 0.009999816005078243 0.0 -7.556484706157507e-16 0.0 0.01 0.0 -7.556484706157507e-16 0.0 0.010000006850007037 0.009999833504158222 0.0 1.2134246997383954e-15 0.0 0.01 0.0 1.2134246997383954e-15 0.0 0.01000000195000057 0.009999856503088761 0.0 4.963897096298217e-15 0.0 0.01 0.0 4.963897096246518e-15 0.0 0.009999996500001836 0.0099998835020358 0.0 1.9425743353786682e-13 0.0 0.01 0.0 1.9425743353124938e-13 0.0 0.009999990500013538 0.009999913001135332 0.0 7.149578647824098e-13 0.0 0.01 0.0 7.149578647691749e-13 0.0 0.009999985500031538 0.009999758008784247 0.0 -1.0327964750684183e-16 0.0 0.01 0.0 -1.0327964750684183e-16 0.0 0.010000010750017335 0.009999760508603696 0.0 1.9778395659562019e-16 0.0 0.01 0.0 1.9778395659562019e-16 0.0 0.010000012200022326 0.009999767508108123 0.0 1.831024971216285e-15 0.0 0.01 0.0 1.831024971216285e-15 0.0 0.01000000975001426 0.009999779507292772 0.0 5.742748209233043e-15 0.0 0.01 0.0 5.742748209233043e-15 0.0 0.010000008300010337 0.009999797506150728 0.0 1.6571280982108636e-12 0.0 0.01 0.0 1.6571280982373334e-12 0.0 0.010000002950001306 0.009999823504672704 0.0 1.5202122543414992e-11 0.0 0.01 0.0 1.520212254352087e-11 0.0 0.009999996500001839 0.009999855003153672 0.0 4.366340427706524e-11 0.0 0.01 0.0 4.3663404277488756e-11 0.0 0.009999989000018148 0.00999989150176581 0.0 7.772637679931882e-11 0.0 0.01 0.0 7.772637680101288e-11 0.0 0.009999983000043355 0.009999708512745217 0.0 2.9382299536896125e-17 0.0 0.01 0.0 2.9382299536896125e-17 0.0 0.010000012200022326 0.009999711012527546 0.0 1.2849199968539907e-15 0.0 0.01 0.0 1.2849199968539907e-15 0.0 0.010000012700024194 0.009999718011928041 0.0 6.5115814780539e-15 0.0 0.01 0.0 6.5115814780022016e-15 0.0 0.010000012200022328 0.00999973201077312 0.0 6.608017077390685e-12 0.0 0.01 0.0 6.608017077390685e-12 0.0 0.010000009300012973 0.009999750509337152 0.0 5.881188838042717e-11 0.0 0.01 0.0 5.881188838000365e-11 0.0 0.010000003900002285 0.009999780007259738 0.0 2.120476211256477e-10 0.0 0.01 0.0 2.120476211256477e-10 0.0 0.009999996500001844 0.009999819004914036 0.0 4.5756650982474076e-10 0.0 0.01 0.0 4.575665098281289e-10 0.0 0.009999987000025383 0.009999860502919048 0.0 7.202417681969405e-10 0.0 0.01 0.0 7.202417682037167e-10 0.0 0.009999980000060076 0.00999964801858451 0.0 8.026943963761131e-16 0.0 0.01 0.0 8.026943963761131e-16 0.0 0.010000015600036504 0.00999965101826909 0.0 4.526214195901218e-15 0.0 0.01 0.0 4.526214195901218e-15 0.0 0.010000015600036506 0.009999657517594934 0.0 5.524181624008046e-12 0.0 0.01 0.0 5.524181623981576e-12 0.0 0.010000015600036508 0.009999670016334108 0.0 7.779423657580217e-11 0.0 0.01 0.0 7.779423657580217e-11 0.0 0.01000001220002233 0.009999692014228895 0.0 3.8600541142166955e-10 0.0 0.01 0.0 3.8600541142166955e-10 0.0 0.010000005350004317 0.009999722011592249 0.0 1.103973334921687e-09 0.0 0.01 0.0 1.1039733349149108e-09 0.0 0.009999996500002023 0.009999763008425734 0.0 2.1857860553405354e-09 0.0 0.01 0.0 2.1857860553405354e-09 0.0 0.009999986000030119 0.009999813005246702 0.0 3.1822077831426994e-09 0.0 0.01 0.0 3.1822077831698044e-09 0.0 0.009999976000087916 0.009999573527283399 0.0 7.873065322797256e-16 0.0 0.01 0.0 7.873065322797256e-16 0.0 0.010000019050054435 0.009999574527155611 0.0 9.79525431382945e-13 0.0 0.01 0.0 9.795254313895624e-13 0.0 0.010000019050054433 0.009999581026332312 0.0 4.373370333183031e-11 0.0 0.01 0.0 4.373370333183031e-11 0.0 0.010000019050054433 0.009999593524784679 0.0 3.431349954642496e-10 0.0 0.01 0.0 3.431349954642496e-10 0.0 0.010000015600036521 0.009999612522522267 0.0 1.3747008576240564e-09 0.0 0.01 0.0 1.3747008576308326e-09 0.0 0.010000008300010618 0.009999641019332952 0.0 3.6123126025106684e-09 0.0 0.01 0.0 3.612312602524221e-09 0.0 0.00999999700000331 0.009999681515222663 0.0 6.895576998235033e-09 0.0 0.01 0.0 6.895576998235033e-09 0.0 0.009999983500047969 0.009999735510507918 0.0 9.778505734954132e-09 0.0 0.01 0.0 9.778505734899922e-09 0.0 0.009999971500136179 0.009999485039780334 0.0 1.2636990306695826e-15 0.0 0.01 0.0 1.2636990306695826e-15 0.0 0.010000022950079004 0.009999485039780338 0.0 8.60561222086261e-12 0.0 0.01 0.0 8.60561222086261e-12 0.0 0.010000024400089309 0.009999487539395079 0.0 1.5114789151778393e-10 0.0 0.01 0.0 1.5114789151736042e-10 0.0 0.010000025400096781 0.00999949503825066 0.0 9.340768100504413e-10 0.0 0.01 0.0 9.340768100538294e-10 0.0 0.010000022950079136 0.009999510036013801 0.0 3.407689120208464e-09 0.0 0.01 0.0 3.407689120208464e-09 0.0 0.010000014150031778 0.009999531033002914 0.0 8.695300790376517e-09 0.0 0.01 0.0 8.695300790403622e-09 0.0 0.010000000000011344 0.00999956402855335 0.0 1.653729955568544e-08 0.0 0.01 0.0 1.653729955568544e-08 0.0 0.009999982500086962 0.00999961502231612 0.0 2.3635589324372437e-08 0.0 0.01 0.0 2.3635589324372437e-08 0.0 0.009999967500242237 0.009999377558119906 0.0 8.077773356381732e-14 0.0 0.01 0.0 8.077773356423092e-14 0.0 0.010000029800133207 0.009999373558869191 0.0 2.5718201244717434e-11 0.0 0.01 0.0 2.5718201244770373e-11 0.0 0.01000003320016534 0.009999374558681435 0.0 3.2910860707862196e-10 0.0 0.01 0.0 3.2910860707862196e-10 0.0 0.010000035150185346 0.009999375558494448 0.0 1.8273044797667386e-09 0.0 0.01 0.0 1.8273044797667386e-09 0.0 0.010000033200165834 0.009999381557381611 0.0 6.423718558408497e-09 0.0 0.01 0.0 6.423718558422049e-09 0.0 0.010000024400095493 0.00999938955594101 0.0 1.636254647443061e-08 0.0 0.01 0.0 1.636254647443061e-08 0.0 0.010000005850045297 0.009999406552980993 0.0 3.161027156966135e-08 0.0 0.01 0.0 3.161027156966135e-08 0.0 0.009999982000198495 0.009999448046021826 0.0 4.6219350272502964e-08 0.0 0.01 0.0 4.6219350272394544e-08 0.0 0.009999959500566494 0.009999246585153644 0.0 3.372928697436397e-13 0.0 0.01 0.0 3.372928697436397e-13 0.0 0.010000040550246647 0.009999239586743043 0.0 4.462685004382311e-11 0.0 0.01 0.0 4.4626850043928987e-11 0.0 0.010000045900316024 0.009999236587428751 0.0 5.096375409706705e-10 0.0 0.01 0.0 5.096375409715175e-10 0.0 0.01000005175040175 0.0099992315885786 0.0 2.721216845479361e-09 0.0 0.01 0.0 2.721216845486137e-09 0.0 0.01000005225041062 0.009999227089631354 0.0 9.50465090960857e-09 0.0 0.01 0.0 9.504650909595018e-09 0.0 0.010000041000265702 0.009999220591221276 0.0 2.450609635758303e-08 0.0 0.01 0.0 2.450609635758303e-08 0.0 0.010000018550141702 0.009999218591949808 0.0 4.8332985480440196e-08 0.0 0.01 0.0 4.8332985480440196e-08 0.0 0.009999983000393795 0.009999242586838545 0.0 7.204118285947247e-08 0.0 0.01 0.0 7.204118285947247e-08 0.0 0.009999948501176399 0.009999092623514757 0.0 3.6581679796860913e-13 0.0 0.01 0.0 3.658167979694363e-13 0.0 0.010000055650464542 0.009999081126664752 0.0 5.0314410739383253e-11 0.0 0.01 0.0 5.0314410739383253e-11 0.0 0.010000064450623078 0.009999071629296882 0.0 5.823529264498874e-10 0.0 0.01 0.0 5.823529264490404e-10 0.0 0.010000074200825906 0.009999060632379788 0.0 3.1395239956621664e-09 0.0 0.01 0.0 3.1395239956621664e-09 0.0 0.010000080100963891 0.009999049135657237 0.0 1.113233523810167e-08 0.0 0.01 0.0 1.1132335238115223e-08 0.0 0.010000070800770493 0.009999035139790061 0.0 2.930042544875555e-08 0.0 0.01 0.0 2.930042544875555e-08 0.0 0.010000042000393396 0.009999021144264672 0.0 5.8991016916361966e-08 0.0 0.01 0.0 5.8991016916470386e-08 0.0 0.009999996000524461 0.009999039639572717 0.0 8.984655099943117e-08 0.0 0.01 0.0 8.984655099943117e-08 0.0 0.009999957001488362 0.009998908678673339 0.0 1.0036266567852926e-13 0.0 0.01 0.0 1.0036266567832247e-13 0.0 0.010000075200848271 0.009998891684281794 0.0 3.647669324381297e-11 0.0 0.01 0.0 3.647669324391885e-11 0.0 0.010000093251304357 0.009998875189808196 0.0 4.881300611813677e-10 0.0 0.01 0.0 4.881300611813677e-10 0.0 0.010000107901746429 0.009998860694733226 0.0 2.7953376236658305e-09 0.0 0.01 0.0 2.7953376236692187e-09 0.0 0.010000118652112889 0.009998844200427674 0.0 1.02906685163235e-08 0.0 0.01 0.0 1.02906685163235e-08 0.0 0.010000114251973885 0.00999882770629031 0.0 2.7948281232148325e-08 0.0 0.01 0.0 2.7948281232148325e-08 0.0 0.010000088851301351 0.009998816210737666 0.0 5.777983085893503e-08 0.0 0.01 0.0 5.777983085888082e-08 0.0 0.01000004930086543 0.009998838703549742 0.0 9.04296340516501e-08 0.0 0.01 0.0 9.04296340516501e-08 0.0 0.010000049301591395 0.009998692256573667 0.0 1.0574108090066677e-16 0.0 0.01 0.0 1.0574108090066677e-16 0.0 0.010000102551577501 0.009998668266074533 0.0 1.4890481811479845e-11 0.0 0.01 0.0 1.4890481811453375e-11 0.0 0.010000125502362588 0.009998645275341583 0.0 2.860373734016455e-10 0.0 0.01 0.0 2.8603737340143373e-10 0.0 0.010000150403393122 0.009998624283941812 0.0 1.873912089528159e-09 0.0 0.01 0.0 1.873912089529853e-09 0.0 0.010000170404356076 0.009998607790799153 0.0 7.393511219854171e-09 0.0 0.01 0.0 7.393511219847394e-09 0.0 0.010000175804644186 0.00999859379673301 0.0 2.1011041351161244e-08 0.0 0.01 0.0 2.101104135113414e-08 0.0 0.010000163554078633 0.00999858829929118 0.0 4.471840284419985e-08 0.0 0.01 0.0 4.471840284414564e-08 0.0 0.010000152853804576 0.009998615288422217 0.0 7.094232180383016e-08 0.0 0.01 0.0 7.094232180377595e-08 0.0 0.01000019775662102 0.009998435867053328 0.0 1.4219191797513323e-15 0.0 0.01 0.0 1.4219191797513323e-15 0.0 0.010000135752764273 0.00999840388222014 0.0 1.9595475763758214e-12 0.0 0.01 0.0 1.959547576374167e-12 0.0 0.0100001679542312 0.009998375895742895 0.0 1.028792918107603e-10 0.0 0.01 0.0 1.0287929181086618e-10 0.0 0.010000202156129906 0.009998349408757795 0.0 8.891661240438943e-10 0.0 0.01 0.0 8.891661240430473e-10 0.0 0.010000232908136794 0.00999832941872192 0.0 3.984766007782847e-09 0.0 0.01 0.0 3.984766007782847e-09 0.0 0.010000250509415314 0.009998316425281232 0.0 1.2162065071567082e-08 0.0 0.01 0.0 1.216206507155353e-08 0.0 0.01000025490976871 0.009998315425872794 0.0 2.691002309103841e-08 0.0 0.01 0.0 2.6910023091011306e-08 0.0 0.010000275411485944 0.00999834141300868 0.0 4.325686411157741e-08 0.0 0.01 0.0 4.325686411163162e-08 0.0 0.010000341817805826 0.00999813602129205 0.0 1.915445100136526e-15 0.0 0.01 0.0 1.915445100136526e-15 0.0 0.010000174804583388 0.009998094544752353 0.0 7.611397128105861e-15 0.0 0.01 0.0 7.611397128105861e-15 0.0 0.01000021730708315 0.00999805756610403 0.0 1.5579290737004694e-11 0.0 0.01 0.0 1.557929073699146e-11 0.0 0.01000026126023818 0.009998026084605165 0.0 2.562378907948898e-10 0.0 0.01 0.0 2.5623789079467805e-10 0.0 0.010000300813572786 0.00999800159920085 0.0 1.4792876109028644e-09 0.0 0.01 0.0 1.4792876109045585e-09 0.0 0.0100003330166346 0.009997986608229177 0.0 5.125001386297546e-09 0.0 0.01 0.0 5.125001386297546e-09 0.0 0.010000352568648757 0.009997986608247517 0.0 1.218639057495711e-08 0.0 0.01 0.0 1.2186390574963886e-08 0.0 0.010000389672797831 0.009998006096567714 0.0 2.0243557427010233e-08 0.0 0.01 0.0 2.0243557427010233e-08 0.0 0.010000461482004357 0.009997785235994277 0.0 -4.709025869673916e-16 0.0 0.01 0.0 -4.709025869673916e-16 0.0 0.010000220707306542 0.009997734270262376 0.0 1.3288059781926037e-14 0.0 0.01 0.0 1.3288059781926037e-14 0.0 0.010000271961094024 0.0099976863032267 0.0 -8.88296388851591e-14 0.0 0.01 0.0 -8.88296388852625e-14 0.0 0.010000327666104059 0.009997645331930443 0.0 2.6738873561178784e-11 0.0 0.01 0.0 2.6738873561178784e-11 0.0 0.01000037992164997 0.009997615852894742 0.0 2.9556744383926474e-10 0.0 0.01 0.0 2.9556744383926474e-10 0.0 0.010000421426638576 0.009997597366175143 0.0 1.348607014226896e-09 0.0 0.01 0.0 1.3486070142260489e-09 0.0 0.010000450230404561 0.00999759236978374 0.0 3.6885789553865983e-09 0.0 0.01 0.0 3.688578955384904e-09 0.0 0.010000493186484579 0.009997601363301481 0.0 6.675069919933219e-09 0.0 0.01 0.0 6.675069919933219e-09 0.0 0.010000564997886471 0.009997378031568393 0.0 -9.6338927442177e-15 0.0 0.01 0.0 -9.6338927442177e-15 0.0 0.010000270510976031 0.009997313582913394 0.0 1.3560559743325407e-14 0.0 0.01 0.0 1.3560559743325407e-14 0.0 0.010000335966930307 0.009997254630971649 0.0 -7.162129526036656e-14 0.0 0.01 0.0 -7.162129526034071e-14 0.0 0.010000404324520427 0.009997203673353874 0.0 -7.753390047416582e-13 0.0 0.01 0.0 -7.753390047420718e-13 0.0 0.010000465382485113 0.009997166205014398 0.0 8.20804008094983e-12 0.0 0.01 0.0 8.208040080946521e-12 0.0 0.010000514689733104 0.009997141725926797 0.0 1.2742801863268918e-10 0.0 0.01 0.0 1.2742801863268918e-10 0.0 0.010000549845346162 0.009997131234944338 0.0 5.085193506711342e-10 0.0 0.01 0.0 5.085193506707107e-10 0.0 0.010000593802886133 0.009997130235805009 0.0 1.0948784667335025e-09 0.0 0.01 0.0 1.094878466733926e-09 0.0 0.010000666566640918 0.009996904937504984 0.0 -2.122303175135881e-14 0.0 0.01 0.0 -2.122303175135881e-14 0.0 0.010000326666005904 0.009996823014626986 0.0 6.320963883059381e-15 0.0 0.01 0.0 6.320963883059381e-15 0.0 0.010000405274635799 0.009996748086928851 0.0 -5.828680410749853e-14 0.0 0.01 0.0 -5.828680410749853e-14 0.0 0.010000486835549022 0.009996685648467377 0.0 -8.634359564077662e-13 0.0 0.01 0.0 -8.634359564073526e-13 0.0 0.010000561547296767 0.009996638196019104 0.0 -3.483348148653472e-12 0.0 0.01 0.0 -3.483348148653472e-12 0.0 0.01000062165796399 0.009996609225382907 0.0 -8.395437365603918e-12 0.0 0.01 0.0 -8.395437365603918e-12 0.0 0.010000660715475975 0.0099965917432243 0.0 -9.886132776134955e-12 0.0 0.01 0.0 -9.886132776134955e-12 0.0 0.010000706624890759 0.009996586248850534 0.0 6.2030622126562564e-12 0.0 0.01 0.0 6.203062212654602e-12 0.0 0.010000778390874421 0.009996360987326211 0.0 -2.891618453929649e-14 0.0 0.01 0.0 -2.891618453929649e-14 0.0 0.0100003862723798 0.009996257102441517 0.0 -5.878780185196282e-15 0.0 0.01 0.0 -5.878780185196282e-15 0.0 0.010000480484627603 0.009996160212727765 0.0 -4.7510968940537924e-14 0.0 0.01 0.0 -4.7510968940537924e-14 0.0 0.010000579650395294 0.00999607880756893 0.0 -9.845350317597742e-13 0.0 0.01 0.0 -9.845350317597742e-13 0.0 0.010000669517231999 0.009996017380452785 0.0 -4.3102415942154675e-12 0.0 0.01 0.0 -4.310241594213813e-12 0.0 0.010000742282639346 0.009995975430877881 0.0 -1.0838612038985887e-11 0.0 0.01 0.0 -1.0838612038979269e-11 0.0 0.010000790143639181 0.009995953457501802 0.0 -1.732409957332552e-11 0.0 0.01 0.0 -1.7324099573332136e-11 0.0 0.010000839955817017 0.00999594496782713 0.0 -1.4763142473837877e-11 0.0 0.01 0.0 -1.4763142473837877e-11 0.0 0.01000091612587762 0.009995733731710607 0.0 -2.2971280806918347e-14 0.0 0.01 0.0 -2.2971280806918347e-14 0.0 0.010000451180532744 0.009995602402531351 0.0 -2.18924080581324e-14 0.0 0.01 0.0 -2.18924080581324e-14 0.0 0.010000562047381038 0.00999547906767346 0.0 -4.257710588386368e-14 0.0 0.01 0.0 -4.257710588386368e-14 0.0 0.010000678269001086 0.009995371215831076 0.0 -1.1477485361755354e-12 0.0 0.01 0.0 -1.1477485361755354e-12 0.0 0.01000078914340227 0.009995287333478393 0.0 -5.417068885283284e-12 0.0 0.01 0.0 -5.417068885283284e-12 0.0 0.010000879015886758 0.009995228417374198 0.0 -1.4103618318787436e-11 0.0 0.01 0.0 -1.4103618318790745e-11 0.0 0.010000938632138004 0.009995194466194107 0.0 -2.294466137963883e-11 0.0 0.01 0.0 -2.2944661379645447e-11 0.0 0.010001000650175078 0.009995176492180008 0.0 -1.9365061794417403e-11 0.0 0.01 0.0 -1.936506179442402e-11 0.0 0.01000108902787143 0.009995017725933279 0.0 1.3162724275788303e-14 0.0 0.01 0.0 1.3162724275788303e-14 0.0 0.010000521040719685 0.009994853475734847 0.0 -3.1226547619410635e-14 0.0 0.01 0.0 -3.1226547619410635e-14 0.0 0.010000649463264902 0.009994694225675442 0.0 -5.2161559887540013e-14 0.0 0.01 0.0 -5.2161559887540013e-14 0.0 0.010000787192941153 0.009994554451331891 0.0 -1.4145585281577736e-12 0.0 0.01 0.0 -1.4145585281586008e-12 0.0 0.010000918576551934 0.009994435647750462 0.0 -6.914784651593227e-12 0.0 0.01 0.0 -6.914784651593227e-12 0.0 0.010001028458637323 0.009994350291490171 0.0 -1.8393748969759298e-11 0.0 0.01 0.0 -1.8393748969762606e-11 0.0 0.010001105183187486 0.009994291391954197 0.0 -3.0059665385709206e-11 0.0 0.01 0.0 -3.0059665385709206e-11 0.0 0.010001188211743525 0.009994257949460817 0.0 -2.4317120865234816e-11 0.0 0.01 0.0 -2.4317120865234816e-11 0.0 0.010001296652152427 0.009994204541995925 0.0 9.100496607166365e-14 0.0 0.01 0.0 9.100496607166365e-14 0.0 0.010000599153843501 0.009994003897301956 0.0 -7.009456960827518e-15 0.0 0.01 0.0 -7.009456960827518e-15 0.0 0.010000740782305634 0.009993802765620967 0.0 -1.14250662988309e-13 0.0 0.01 0.0 -1.14250662988309e-13 0.0 0.010000899521356247 0.009993616118299358 0.0 -1.9427818938867494e-12 0.0 0.01 0.0 -1.9427818938867494e-12 0.0 0.010001055817188957 0.009993454432281931 0.0 -9.173442306763848e-12 0.0 0.01 0.0 -9.173442306763848e-12 0.0 0.010001186261048909 0.009993327184916473 0.0 -2.4207690287830016e-11 0.0 0.01 0.0 -2.4207690287830016e-11 0.0 0.010001284447428404 0.009993232875299624 0.0 -3.889936047775593e-11 0.0 0.01 0.0 -3.889936047774931e-11 0.0 0.010001402645056792 0.00999316850677682 0.0 -2.8482430441636442e-11 0.0 0.01 0.0 -2.8482430441629825e-11 0.0 0.01000154820946868 0.009993304231007263 0.0 1.9490087281222442e-13 0.0 0.01 0.0 1.9490087281222442e-13 0.0 0.010000689521309392 0.009993059232830465 0.0 1.2169487163579066e-14 0.0 0.01 0.0 1.2169487163579066e-14 0.0 0.010000843356675577 0.009992807267758641 0.0 -3.5087145003396744e-13 0.0 0.01 0.0 -3.5087145003396744e-13 0.0 0.010001019705948832 0.009992561807244995 0.0 -3.1110284075865793e-12 0.0 0.01 0.0 -3.1110284075861657e-12 0.0 0.010001197465054049 0.009992341806181233 0.0 -1.2972255710471242e-11 0.0 0.01 0.0 -1.297225571047455e-11 0.0 0.010001347922485282 0.00999215623835068 0.0 -3.271078561649199e-11 0.0 0.01 0.0 -3.2710785616498606e-11 0.0 0.010001464171506966 0.009992011582428077 0.0 -5.02847487309571e-11 0.0 0.01 0.0 -5.028474873097034e-11 0.0 0.010001630298594385 0.009991902346429351 0.0 -3.048182851426468e-11 0.0 0.01 0.0 -3.048182851426468e-11 0.0 0.010001838406836718 0.009992329334900825 0.0 1.2818281018854028e-13 0.0 0.01 0.0 1.2818281018854028e-13 0.0 0.010000800896204937 0.009992038517882483 0.0 -2.0321844261699776e-13 0.0 0.01 0.0 -2.0321844261699776e-13 0.0 0.010000960088247721 0.009991728773307585 0.0 -1.1353133096278535e-12 0.0 0.01 0.0 -1.135313309628267e-12 0.0 0.010001150598551098 0.009991417062681087 0.0 -5.712297092111369e-12 0.0 0.01 0.0 -5.712297092111369e-12 0.0 0.010001346972101208 0.0099911218372774 0.0 -1.9935809863055683e-11 0.0 0.01 0.0 -1.9935809863058992e-11 0.0 0.010001509641783953 0.0099908620406235 0.0 -4.638178203325179e-11 0.0 0.01 0.0 -4.6381782033258406e-11 0.0 0.010001629798349837 0.00999064663918857 0.0 -6.626397804014162e-11 0.0 0.01 0.0 -6.6263978040135e-11 0.0 0.01000185111386655 0.009990473131497542 0.0 -2.9220435105886566e-11 0.0 0.01 0.0 -2.922043510589318e-11 0.0 0.010002159399249436 0.009991328292831924 0.0 -6.326339906519646e-13 0.0 0.01 0.0 -6.326339906519646e-13 0.0 0.01000095423656774 0.009990992185742146 0.0 -1.2491341441260886e-12 0.0 0.01 0.0 -1.2491341441260886e-12 0.0 0.010001106633668612 0.009990622207961106 0.0 -3.293323190946613e-12 0.0 0.01 0.0 -3.29332319094744e-12 0.0 0.010001306906155917 0.00999023532098723 0.0 -1.1321129005780382e-11 0.0 0.01 0.0 -1.1321129005778727e-11 0.0 0.010001514493984346 0.009989856454627105 0.0 -3.332133342751921e-11 0.0 0.01 0.0 -3.33213334275159e-11 0.0 0.01000167472060945 0.009989510527468336 0.0 -7.063675949069344e-11 0.0 0.01 0.0 -7.063675949070005e-11 0.0 0.01000177147060506 0.009989207496894265 0.0 -9.226002224303417e-11 0.0 0.01 0.0 -9.226002224303417e-11 0.0 0.010002038222983635 0.009988953829675701 0.0 -2.530157883131199e-11 0.0 0.01 0.0 -2.5301578831308682e-11 0.0 0.010002485276182738 0.009990384386805162 0.0 -2.8969793416277695e-12 0.0 0.01 0.0 -2.896979341627356e-12 0.0 0.010001173556552929 0.009990006001988419 0.0 -3.909244841867559e-12 0.0 0.01 0.0 -3.909244841867559e-12 0.0 0.010001315709618227 0.009989579809712917 0.0 -7.893099839082575e-12 0.0 0.01 0.0 -7.893099839083402e-12 0.0 0.010001519896442572 0.009989121776143852 0.0 -2.2846259210402406e-11 0.0 0.01 0.0 -2.2846259210405715e-11 0.0 0.010001731899817675 0.009988659320862629 0.0 -6.016961019268131e-11 0.0 0.01 0.0 -6.016961019268131e-11 0.0 0.010001874526945988 0.009988222339714805 0.0 -1.1731594550630256e-10 0.0 0.01 0.0 -1.173159455062761e-10 0.0 0.010001898490503112 0.00998782377522754 0.0 -1.4020111871377304e-10 0.0 0.01 0.0 -1.402011187137995e-10 0.0 0.010002167704637846 0.009987478557304497 0.0 -2.3750064151350975e-11 0.0 0.01 0.0 -2.3750064151354284e-11 0.0 0.01000278486288739 0.009989624669489052 0.0 -6.744074298252617e-12 0.0 0.01 0.0 -6.744074298252617e-12 0.0 0.010001494985180288 0.009989214972645724 0.0 -7.820009140223842e-12 0.0 0.01 0.0 -7.820009140223842e-12 0.0 0.010001630748814539 0.009988746026335394 0.0 -1.5776158537181108e-11 0.0 0.01 0.0 -1.5776158537182762e-11 0.0 0.010001840858189098 0.009988231307964635 0.0 -4.5881224833875486e-11 0.0 0.01 0.0 -4.5881224833882103e-11 0.0 0.010002059235893276 0.009987701226238904 0.0 -1.1532899049770682e-10 0.0 0.01 0.0 -1.1532899049769359e-10 0.0 0.010002162801454242 0.009987182684716732 0.0 -2.1074363845481144e-10 0.0 0.01 0.0 -2.1074363845478497e-10 0.0 0.010002051431082813 0.00998670057831751 0.0 -2.3294486516811607e-10 0.0 0.01 0.0 -2.329448651680896e-10 0.0 0.010002233147819716 0.009986271821267685 0.0 -3.5930988683029993e-11 0.0 0.01 0.0 -3.5930988683026685e-11 0.0 0.010003021368748958 0.009989211483959624 0.0 -9.608618973851416e-12 0.0 0.01 0.0 -9.608618973851416e-12 0.0 0.010001968330996558 0.009988794363125142 0.0 -9.866484085360386e-12 0.0 0.01 0.0 -9.866484085360386e-12 0.0 0.010002112969507397 0.009988306542567374 0.0 -2.7044800548260502e-11 0.0 0.01 0.0 -2.7044800548253885e-11 0.0 0.010002342122573846 0.009987769972677044 0.0 -9.063071183859274e-11 0.0 0.01 0.0 -9.063071183860597e-11 0.0 0.010002571291391022 0.00998720758880318 0.0 -2.2595660748384139e-10 0.0 0.01 0.0 -2.2595660748386786e-10 0.0 0.010002620179441405 0.009986649781915736 0.0 -3.933463774868306e-10 0.0 0.01 0.0 -3.9334637748677766e-10 0.0 0.01000230839906001 0.009986116964410586 0.0 -4.07295679901617e-10 0.0 0.01 0.0 -4.072956799015641e-10 0.0 0.010002287384579967 0.009985634514474108 0.0 -7.826292603755642e-11 0.0 0.01 0.0 -7.826292603755642e-11 0.0 0.010003188524355059 0.009989365488012545 0.0 -5.314657221568908e-12 0.0 0.01 0.0 -5.314657221568908e-12 0.0 0.010002646550263629 0.009988966288321612 0.0 -3.9803286556750046e-12 0.0 0.01 0.0 -3.9803286556750046e-12 0.0 0.010002830301137394 0.009988505349467403 0.0 -4.16448581120161e-11 0.0 0.01 0.0 -4.164485811201941e-11 0.0 0.010003102993688158 0.00998800113053241 0.0 -1.7264552884099088e-10 0.0 0.01 0.0 -1.7264552884099088e-10 0.0 0.01000335423688132 0.009987474074190329 0.0 -4.3313666953428643e-10 0.0 0.01 0.0 -4.3313666953433937e-10 0.0 0.01000333221480867 0.009986945109098226 0.0 -7.284795996425445e-10 0.0 0.01 0.0 -7.284795996424915e-10 0.0 0.010002784362469659 0.009986429673131233 0.0 -7.157289465470735e-10 0.0 0.01 0.0 -7.157289465470735e-10 0.0 0.010002470164955958 0.009985956637891822 0.0 -1.6918197343570162e-10 0.0 0.01 0.0 -1.6918197343567515e-10 0.0 0.010003360593279342 0.009990373418524242 0.0 1.3815028881518892e-11 0.0 0.01 0.0 1.3815028881517237e-11 0.0 0.010003580522103135 0.009990035912266625 0.0 1.6120138930028173e-11 0.0 0.01 0.0 1.6120138930028173e-11 0.0 0.01000383961025947 0.009989660059294449 0.0 -6.111291547285766e-11 0.0 0.01 0.0 -6.111291547285104e-11 0.0 0.010004176464972724 0.009989261322679403 0.0 -3.115302552377868e-10 0.0 0.01 0.0 -3.115302552377868e-10 0.0 0.010004451220241366 0.009988856653837561 0.0 -7.830571602778071e-10 0.0 0.01 0.0 -7.830571602778071e-10 0.0 0.0100043651565262 0.009988449044554197 0.0 -1.2808863368023294e-09 0.0 0.01 0.0 -1.2808863368024353e-09 0.0 0.010003612306371548 0.009988047463671556 0.0 -1.2097095863438923e-09 0.0 0.01 0.0 -1.2097095863436805e-09 0.0 0.010003053648145997 0.009987670838773027 0.0 -3.201989955238803e-10 0.0 0.01 0.0 -3.2019899552385385e-10 0.0 0.010003770181068508 0.00999257876938161 0.0 5.088928329584626e-11 0.0 0.01 0.0 5.088928329584626e-11 0.0 0.01000479154163183 0.009992354776362402 0.0 4.962523217777259e-11 0.0 0.01 0.0 4.962523217777259e-11 0.0 0.010005156836203006 0.009992130798405559 0.0 -9.300779644897194e-11 0.0 0.01 0.0 -9.300779644897194e-11 0.0 0.010005569599612952 0.009991919803996876 0.0 -5.2050622308851e-10 0.0 0.01 0.0 -5.2050622308851e-10 0.0 0.010005860147176826 0.009991728274547522 0.0 -1.281528285752712e-09 0.0 0.01 0.0 -1.2815282857528178e-09 0.0 0.010005725112787361 0.009991537254843499 0.0 -2.0289694799260005e-09 0.0 0.01 0.0 -2.0289694799262122e-09 0.0 0.01000500034802371 0.009991343253877188 0.0 -1.849780963414721e-09 0.0 0.01 0.0 -1.8497809634151445e-09 0.0 0.010004480559514575 0.009991155746973186 0.0 -5.080859627522436e-10 0.0 0.01 0.0 -5.080859627523494e-10 0.0 0.010004907410038812 0.009996261597393533 0.0 9.525169153349973e-11 0.0 0.01 0.0 9.525169153349973e-11 0.0 0.01000625195816355 0.009996202664059688 0.0 7.990167558092834e-11 0.0 0.01 0.0 7.990167558092834e-11 0.0 0.010006736801564518 0.009996189179460352 0.0 -1.4939844670188102e-10 0.0 0.01 0.0 -1.4939844670185455e-10 0.0 0.01000722512282341 0.009996233628901837 0.0 -7.766429533248149e-10 0.0 0.01 0.0 -7.766429533249207e-10 0.0 0.010007527541058475 0.009996317035634064 0.0 -1.8203342119617295e-09 0.0 0.01 0.0 -1.8203342119619413e-09 0.0 0.010007502584879166 0.009996411932060164 0.0 -2.759713985252284e-09 0.0 0.01 0.0 -2.759713985252284e-09 0.0 0.010007347439806165 0.009996497840628362 0.0 -2.3916597199166942e-09 0.0 0.01 0.0 -2.3916597199162707e-09 0.0 0.010007152215818743 0.00999657476064382 0.0 -6.295556143215507e-10 0.0 0.01 0.0 -6.295556143215507e-10 0.0 0.010007260349253448 0.010001451465951869 0.0 1.2152047292571718e-10 0.0 0.01 0.0 1.2152047292574365e-10 0.0 0.010007871584531291 0.010001590229243946 0.0 8.070568593020672e-11 0.0 0.01 0.0 8.070568593020672e-11 0.0 0.010008465838440901 0.010001819346382782 0.0 -2.2768993259786366e-10 0.0 0.01 0.0 -2.276899325979166e-10 0.0 0.010009021493433407 0.010002136434458 0.0 -9.93658263067197e-10 0.0 0.01 0.0 -9.936582630674088e-10 0.0 0.010009400438642645 0.010002514598163387 0.0 -2.1739315838260794e-09 0.0 0.01 0.0 -2.173931583825656e-09 0.0 0.010009785344228335 0.010002913873105278 0.0 -3.1037015595658467e-09 0.0 0.01 0.0 -3.1037015595658467e-09 0.0 0.01001060228747219 0.010003305838563924 0.0 -2.4465268314718632e-09 0.0 0.01 0.0 -2.4465268314722867e-09 0.0 0.010010544002986801 0.01000367632631303 0.0 -4.927492634338037e-10 0.0 0.01 0.0 -4.927492634338037e-10 0.0 0.010010339764529521 0.01000773501532246 0.0 1.0997375247005699e-10 0.0 0.01 0.0 1.0997375247005699e-10 0.0 0.010009509647830912 0.010008074719645613 0.0 4.4138699852073444e-11 0.0 0.01 0.0 4.4138699852099914e-11 0.0 0.01001017957248431 0.010008529450331063 0.0 -2.8952678299507175e-10 0.0 0.01 0.0 -2.8952678299486e-10 0.0 0.01001077032503167 0.010009084614555309 0.0 -1.041540106683789e-09 0.0 0.01 0.0 -1.041540106684636e-09 0.0 0.010011257280462883 0.010009710425565177 0.0 -2.101288296514007e-09 0.0 0.01 0.0 -2.101288296512313e-09 0.0 0.010012088283716046 0.010010368152526783 0.0 -2.763768274048262e-09 0.0 0.01 0.0 -2.763768274048262e-09 0.0 0.010013522479247628 0.010011025507504137 0.0 -1.824638267185891e-09 0.0 0.01 0.0 -1.824638267185891e-09 0.0 0.010013262688254842 0.010011639941740882 0.0 -1.2122113697879254e-10 0.0 0.01 0.0 -1.2122113697879254e-10 0.0 0.010012634253382693 0.010014176087341703 0.0 6.714172485625831e-11 0.0 0.01 0.0 6.714172485625831e-11 0.0 0.010011002030101796 0.010014695881981403 0.0 -3.89677595579165e-12 0.0 0.01 0.0 -3.89677595579165e-12 0.0 0.01001169086955395 0.010015318325914492 0.0 -2.831748571980565e-10 0.0 0.01 0.0 -2.8317485719816236e-10 0.0 0.010012285804115676 0.010016028705714131 0.0 -8.614338518191393e-10 0.0 0.01 0.0 -8.614338518187158e-10 0.0 0.010012838180580519 0.010016794664570271 0.0 -1.6106732428851941e-09 0.0 0.01 0.0 -1.6106732428868882e-09 0.0 0.010013883358720823 0.010017588293632146 0.0 -1.9493139757501753e-09 0.0 0.01 0.0 -1.949313975748481e-09 0.0 0.01001550523745003 0.010018375726284452 0.0 -1.1711970042174872e-09 0.0 0.01 0.0 -1.1711970042170637e-09 0.0 0.010014645410496995 0.010019087209488357 0.0 -3.686018441052342e-10 0.0 0.01 0.0 -3.686018441052342e-10 0.0 0.01001362348943541 0.010019508589628103 0.0 2.12996231163135e-11 0.0 0.01 0.0 2.129962311631681e-11 0.0 0.010012207868476085 0.010020161408868042 0.0 -3.0763408418669824e-11 0.0 0.01 0.0 -3.076340841867644e-11 0.0 0.010012870504913046 0.010020882630984022 0.0 -2.0590663606107314e-10 0.0 0.01 0.0 -2.0590663606107314e-10 0.0 0.010013420518284152 0.010021640846784852 0.0 -5.564663981286643e-10 0.0 0.01 0.0 -5.564663981286643e-10 0.0 0.01001394561789025 0.010022406130860476 0.0 -1.0141232895960726e-09 0.0 0.01 0.0 -1.0141232895964961e-09 0.0 0.010014936247203442 0.010023165699526151 0.0 -1.344274366516427e-09 0.0 0.01 0.0 -1.344274366516427e-09 0.0 0.010016185209524724 0.010023884599413993 0.0 -1.2768716650434194e-09 0.0 0.01 0.0 -1.2768716650432076e-09 0.0 0.010014706227474718 0.010024508758346772 0.0 -6.828425240916466e-10 0.0 0.01 0.0 -6.828425240916466e-10 0.0 0.01001372349855836 0.010022691754331427 0.0 -5.805704828744868e-12 0.0 0.01 0.0 -5.8057048287465225e-12 0.0 0.010013062148457815 0.010023417450465815 0.0 -3.088891350056175e-11 0.0 0.01 0.0 -3.088891350056175e-11 0.0 0.010013665159539114 0.010024160528454621 0.0 -1.0949876539294498e-10 0.0 0.01 0.0 -1.0949876539294498e-10 0.0 0.010014118694441371 0.010024876216999271 0.0 -2.7646987402000184e-10 0.0 0.01 0.0 -2.7646987402000184e-10 0.0 0.010014476675551142 0.010025532000640106 0.0 -5.290295020443591e-10 0.0 0.01 0.0 -5.290295020442532e-10 0.0 0.010015131927116895 0.010026121041025642 0.0 -7.797399445488235e-10 0.0 0.01 0.0 -7.797399445488235e-10 0.0 0.01001585352058434 0.010026630904277467 0.0 -7.744784465935862e-10 0.0 0.01 0.0 -7.744784465935862e-10 0.0 0.010014127531779157 0.010027057672796229 0.0 -1.432996254738802e-10 0.0 0.01 0.0 -1.4329962547389342e-10 0.0 0.010013469063563159 0.010023536938099997 0.0 -1.14749688374578e-11 0.0 0.01 0.0 -1.1474968837459455e-11 0.0 0.010013571528046895 0.010024274603240624 0.0 -1.80112747573288e-11 0.0 0.01 0.0 -1.8011274757332108e-11 0.0 0.01001411723829138 0.0100249804929558 0.0 -3.834381318006144e-11 0.0 0.01 0.0 -3.8343813180054825e-11 0.0 0.010014495306282503 0.01002559795389277 0.0 -8.609022424399262e-11 0.0 0.01 0.0 -8.609022424397939e-11 0.0 0.010014725813689942 0.010026100833557818 0.0 -1.6517005859875482e-10 0.0 0.01 0.0 -1.6517005859872835e-10 0.0 0.010015112288291503 0.010026480814874178 0.0 -2.3680695929857673e-10 0.0 0.01 0.0 -2.368069592986032e-10 0.0 0.010015474796426994 0.010026762301037544 0.0 -1.465946545726795e-10 0.0 0.01 0.0 -1.465946545726795e-10 0.0 0.010013677911698915 0.010026973998282963 0.0 3.4459264513173517e-10 0.0 0.01 0.0 3.4459264513173517e-10 0.0 0.010013390146467622 0.010022673581225966 0.0 -6.543604583639974e-12 0.0 0.01 0.0 -6.543604583639974e-12 0.0 0.01001380001358517 0.010023378578882348 0.0 -6.150339911667336e-12 0.0 0.01 0.0 -6.150339911667336e-12 0.0 0.010014305538818536 0.010024014427761232 0.0 -5.893561472321111e-12 0.0 0.01 0.0 -5.893561472321938e-12 0.0 0.010014647821057814 0.010024526941436641 0.0 -7.187861302742291e-12 0.0 0.01 0.0 -7.1878613027414635e-12 0.0 0.010014819979791761 0.010024884075363777 0.0 -8.244740776234958e-12 0.0 0.01 0.0 -8.244740776234958e-12 0.0 0.010015080444508216 0.010025094646115328 0.0 7.732369523317675e-12 0.0 0.01 0.0 7.732369523316021e-12 0.0 0.01001528989578363 0.01002519202698093 0.0 9.250035783172779e-11 0.0 0.01 0.0 9.250035783172779e-11 0.0 0.01001355240043511 0.010025228954869686 0.0 3.1570468255738584e-10 0.0 0.01 0.0 3.1570468255738584e-10 0.0 0.010013544568688694 0.010020984316911638 0.0 -9.950976215269201e-13 0.0 0.01 0.0 -9.950976215269201e-13 0.0 0.010013817636389073 0.010021639387350968 0.0 -4.053192418732923e-13 0.0 0.01 0.0 -4.053192418731889e-13 0.0 0.010014308953432811 0.010022208514249493 0.0 5.806153443506999e-13 0.0 0.01 0.0 5.806153443504931e-13 0.0 0.01001464782105781 0.010022633761830794 0.0 2.696792991129733e-12 0.0 0.01 0.0 2.696792991129733e-12 0.0 0.01001482490161306 0.010022891362951142 0.0 8.921627982107401e-12 0.0 0.01 0.0 8.921627982107401e-12 0.0 0.010015085316486925 0.010022995576981608 0.0 2.4553374253985372e-11 0.0 0.01 0.0 2.4553374253985372e-11 0.0 0.010015309987723807 0.010022982789191306 0.0 5.195173922603513e-11 0.0 0.01 0.0 5.195173922603513e-11 0.0 0.010013691165963874 0.010022910544130048 0.0 8.373236782891113e-11 0.0 0.01 0.0 8.373236782892437e-11 0.0 0.010013839727784647 0.010019113258180796 0.0 1.5078075420765395e-12 0.0 0.01 0.0 1.5078075420757123e-12 0.0 0.01001367791169891 0.010019724203536525 0.0 4.025398815913305e-13 0.0 0.01 0.0 4.025398815915373e-13 0.0 0.010014171166476921 0.010020244409900918 0.0 -4.672422168740358e-12 0.0 0.01 0.0 -4.672422168738703e-12 0.0 0.010014531111726656 0.010020623675409441 0.0 -1.6014629974126594e-11 0.0 0.01 0.0 -1.6014629974119976e-11 0.0 0.01001475082394753 0.010020836895967434 0.0 -3.124540121168482e-11 0.0 0.01 0.0 -3.1245401211698056e-11 0.0 0.010015098576341275 0.010020903259744278 0.0 -4.2041003898943424e-11 0.0 0.01 0.0 -4.204100389895666e-11 0.0 0.010015468416907956 0.010020857071623628 0.0 -3.6961472188137956e-11 0.0 0.01 0.0 -3.696147218813134e-11 0.0 0.010013970622302965 0.010020748949642598 0.0 -2.0720073290969095e-11 0.0 0.01 0.0 -2.0720073290969095e-11 0.0 0.010014154495846084 0.010017265813527576 0.0 1.5377840414365681e-12 0.0 0.01 0.0 1.537784041435741e-12 0.0 0.010013405809254186 0.010017847969043585 0.0 -1.6050498652295634e-12 0.0 0.01 0.0 -1.6050498652303906e-12 0.0 0.010013907860577704 0.010018353604854728 0.0 -1.6067350067278642e-11 0.0 0.01 0.0 -1.6067350067278642e-11 0.0 0.010014293788554906 0.010018726772762894 0.0 -5.0878031421493594e-11 0.0 0.01 0.0 -5.0878031421493594e-11 0.0 0.010014558581240783 0.010018949728056666 0.0 -1.039633642496679e-10 0.0 0.01 0.0 -1.039633642496679e-10 0.0 0.01001498873209142 0.010019036168720574 0.0 -1.5022161798281637e-10 0.0 0.01 0.0 -1.502216179828693e-10 0.0 0.0100154644987842 0.010019017009776594 0.0 -1.3322591691839403e-10 0.0 0.01 0.0 -1.3322591691839403e-10 0.0 0.010014053519798366 0.010018934994647186 0.0 -2.3186713062192255e-11 0.0 0.01 0.0 -2.318671306217902e-11 0.0 0.010014193260212342 0.010015288891189793 0.0 1.0921986609508444e-12 0.0 0.01 0.0 1.0921986609508444e-12 0.0 0.010013009242094691 0.010015864321810425 0.0 -4.67298697971463e-12 0.0 0.01 0.0 -4.67298697971463e-12 0.0 0.01001351806137559 0.010016383424718932 0.0 -3.289153121222561e-11 0.0 0.01 0.0 -3.289153121222561e-11 0.0 0.010013924529976844 0.010016792704729069 0.0 -1.0367544939719254e-10 0.0 0.01 0.0 -1.036754493971396e-10 0.0 0.010014220726946412 0.01001706850081719 0.0 -2.1591817714439465e-10 0.0 0.01 0.0 -2.159181771441829e-10 0.0 0.010014692969178462 0.010017221133189142 0.0 -3.180194563009428e-10 0.0 0.01 0.0 -3.1801945630051927e-10 0.0 0.010015202547479306 0.010017273151413106 0.0 -2.8831631428425997e-10 0.0 0.01 0.0 -2.883163142841541e-10 0.0 0.01001386227120041 0.01001725842539886 0.0 -7.071428979421353e-11 0.0 0.01 0.0 -7.071428979424e-11 0.0 0.010013925986042772 0.010012936660346191 0.0 2.4564807321483596e-12 0.0 0.01 0.0 2.4564807321483596e-12 0.0 0.010012489157959771 0.010013516605487592 0.0 -6.2449323405389875e-12 0.0 0.01 0.0 -6.244932340512518e-12 0.0 0.010012994534877065 0.010014073102184481 0.0 -5.170795137221466e-11 0.0 0.01 0.0 -5.170795137210878e-11 0.0 0.010013410226976511 0.010014552705658432 0.0 -1.6910732275880503e-10 0.0 0.01 0.0 -1.6910732275922854e-10 0.0 0.010013726460721581 0.010014921029251304 0.0 -3.596628224914673e-10 0.0 0.01 0.0 -3.5966282248977324e-10 0.0 0.010014196172579303 0.010015173616054902 0.0 -5.405408641001618e-10 0.0 0.01 0.0 -5.405408641018559e-10 0.0 0.0100146875453453 0.010015331084391167 0.0 -5.082222177944103e-10 0.0 0.01 0.0 -5.082222177944103e-10 0.0 0.010013426893890688 0.010015407133960309 0.0 -2.0541296332141881e-10 0.0 0.01 0.0 -2.0541296332141881e-10 0.0 0.010013421522315864 0.010010116380492855 0.0 6.299761243319085e-12 0.0 0.01 0.0 6.2997612433124674e-12 0.0 0.010011853091108419 0.010010704162367113 0.0 -3.686521884021534e-12 0.0 0.01 0.0 -3.686521884024843e-12 0.0 0.010012346578114926 0.010011311162456743 0.0 -6.407689322629023e-11 0.0 0.01 0.0 -6.407689322629023e-11 0.0 0.010012757270735214 0.010011882947156252 0.0 -2.2681913625498831e-10 0.0 0.01 0.0 -2.2681913625541183e-10 0.0 0.010013070029268682 0.0100123735277983 0.0 -4.995324117933598e-10 0.0 0.01 0.0 -4.995324117942069e-10 0.0 0.010013499938125522 0.010012757772651374 0.0 -7.691600383256963e-10 0.0 0.01 0.0 -7.691600383256963e-10 0.0 0.010013943659721296 0.010013038154766143 0.0 -7.390401218245173e-10 0.0 0.01 0.0 -7.390401218245173e-10 0.0 0.010012787686985481 0.010013227850188398 0.0 -3.7062851602835103e-10 0.0 0.01 0.0 -3.706285160300451e-10 0.0 0.010012746027835032 0.010007026448715265 0.0 1.0542337927621324e-11 0.0 0.01 0.0 1.0542337927618015e-11 0.0 0.01001112057260345 0.01000760581847987 0.0 2.1932395008489524e-12 0.0 0.01 0.0 2.1932395008489524e-12 0.0 0.010011589917837778 0.0100082558125236 0.0 -6.362166381434217e-11 0.0 0.01 0.0 -6.362166381434217e-11 0.0 0.010011989778799173 0.01000892794200555 0.0 -2.5296415806341286e-10 0.0 0.01 0.0 -2.5296415806341286e-10 0.0 0.01001228088603697 0.010009555177786221 0.0 -5.872785801223371e-10 0.0 0.01 0.0 -5.872785801223371e-10 0.0 0.010012642584892198 0.010010094865397563 0.0 -9.343558636657802e-10 0.0 0.01 0.0 -9.343558636653566e-10 0.0 0.010013023949377262 0.010010520980393425 0.0 -9.23743376864979e-10 0.0 0.01 0.0 -9.23743376864132e-10 0.0 0.010011981950718746 0.010010837893564656 0.0 -4.980513267065985e-10 0.0 0.01 0.0 -4.980513267074455e-10 0.0 0.010011934882262452 0.010004053263010012 0.0 1.1425632349362102e-11 0.0 0.01 0.0 1.142563234936541e-11 0.0 0.010010319652332083 0.01000460377726437 0.0 6.441869329617353e-12 0.0 0.01 0.0 6.4418693296156984e-12 0.0 0.0100107580354307 0.010005275671972425 0.0 -5.318594216787951e-11 0.0 0.01 0.0 -5.318594216787951e-11 0.0 0.010011139184610187 0.010006027895952214 0.0 -2.4204500961203814e-10 0.0 0.01 0.0 -2.420450096119852e-10 0.0 0.010011410098886118 0.01000679156253836 0.0 -5.891862314362871e-10 0.0 0.01 0.0 -5.891862314360754e-10 0.0 0.010011696288519757 0.010007488403036583 0.0 -9.952544621488108e-10 0.0 0.01 0.0 -9.952544621496578e-10 0.0 0.010012017729211118 0.010008073266130756 0.0 -1.060684601974011e-09 0.0 0.01 0.0 -1.0606846019744345e-09 0.0 0.010011095087867898 0.0100085328590403 0.0 -5.530289429610307e-10 0.0 0.01 0.0 -5.530289429614542e-10 0.0 0.010011021594591905 0.010001554062191345 0.0 7.531469211385036e-12 0.0 0.01 0.0 7.53146921138669e-12 0.0 0.010009486130949772 0.01000206313830536 0.0 5.32574525724861e-12 0.0 0.01 0.0 5.32574525724861e-12 0.0 0.01000989110576617 0.010002738924845603 0.0 -3.9005852178509776e-11 0.0 0.01 0.0 -3.9005852178516394e-11 0.0 0.010010245223209587 0.01000354828765872 0.0 -2.611703304706317e-10 0.0 0.01 0.0 -2.611703304706317e-10 0.0 0.010010505280982246 0.01000442042930291 0.0 -1.1363811702292934e-09 0.0 0.01 0.0 -1.1363811702295052e-09 0.0 0.010010742385065803 0.010005263903387586 0.0 -2.5253508765116296e-09 0.0 0.01 0.0 -2.5253508765124766e-09 0.0 0.010010977047920647 0.010006007358922644 0.0 -2.7392335563544343e-09 0.0 0.01 0.0 -2.7392335563544343e-09 0.0 0.010010151186093602 0.010006617913725275 0.0 -5.038604659408177e-10 0.0 0.01 0.0 -5.038604659403942e-10 0.0 0.010010040000024522 0.009999704013141753 0.0 1.7207719667490726e-12 0.0 0.01 0.0 1.7207719667490726e-12 0.0 0.010008651363978377 0.01000018115492245 0.0 1.361672938118113e-12 0.0 0.01 0.0 1.361672938118113e-12 0.0 0.010009020992078994 0.010000851658786052 0.0 -1.244529077331879e-10 0.0 0.01 0.0 -1.2445290773321437e-10 0.0 0.010009353907989807 0.010001696731737349 0.0 -1.253925560644899e-09 0.0 0.01 0.0 -1.253925560644899e-09 0.0 0.01000959925418297 0.010002642647171807 0.0 -4.607154407379899e-09 0.0 0.01 0.0 -4.6071544073815934e-09 0.0 0.01000982059770451 0.010003601544746705 0.0 -8.924866289893875e-09 0.0 0.01 0.0 -8.924866289892181e-09 0.0 0.01000995770366852 0.01000448837002404 0.0 -8.809688784675458e-09 0.0 0.01 0.0 -8.809688784675458e-09 0.0 0.010009150243750771 0.010005238463351614 0.0 -2.924237734690484e-10 0.0 0.01 0.0 -2.9242377346894253e-10 0.0 0.01000900680378051 0.009998498338315912 0.0 -5.740139929496115e-13 0.0 0.01 0.0 -5.740139929495081e-13 0.0 0.010007845172361978 0.009998956163461956 0.0 1.1847997714238474e-11 0.0 0.01 0.0 1.1847997714238474e-11 0.0 0.010008189248596077 0.009999623521261516 0.0 -2.5962161714818416e-10 0.0 0.01 0.0 -2.5962161714818416e-10 0.0 0.010008506942912125 0.010000473683655624 0.0 -2.966073682536477e-09 0.0 0.01 0.0 -2.966073682536477e-09 0.0 0.010008740445970662 0.010001452966622682 0.0 -1.0722197306064035e-08 0.0 0.01 0.0 -1.0722197306064035e-08 0.0 0.010008954864110207 0.010002487728070157 0.0 -1.9907941888354093e-08 0.0 0.01 0.0 -1.9907941888354093e-08 0.0 0.0100090102130369 0.010003487173258961 0.0 -1.8293887993502578e-08 0.0 0.01 0.0 -1.8293887993495802e-08 0.0 0.010008113363379173 0.010004353441218672 0.0 1.5830767895271718e-09 0.0 0.01 0.0 1.5830767895271718e-09 0.0 0.010007888724988721 0.009997820212927956 0.0 1.962370747341504e-11 0.0 0.01 0.0 1.962370747341173e-11 0.0 0.010007095444662127 0.009998276445698385 0.0 5.485622751692539e-10 0.0 0.01 0.0 5.48562275169148e-10 0.0 0.010007427216344811 0.009998920174929028 0.0 1.8517285970643676e-09 0.0 0.01 0.0 1.851728597063944e-09 0.0 0.010007747293793744 0.009999734010612944 0.0 -3.011362585091227e-10 0.0 0.01 0.0 -3.0113625850917563e-10 0.0 0.010007990517061001 0.010000692471940291 0.0 -1.1356898410829337e-08 0.0 0.01 0.0 -1.1356898410829337e-08 0.0 0.010008190251074368 0.010001752410629143 0.0 -2.5225050286946187e-08 0.0 0.01 0.0 -2.5225050286952963e-08 0.0 0.01000816819712342 0.010002838608268682 0.0 -2.1841815354876426e-08 0.0 0.01 0.0 -2.1841815354876426e-08 0.0 0.010007142394861335 0.010003825944561342 0.0 4.558899111319623e-09 0.0 0.01 0.0 4.558899111319623e-09 0.0 0.010006699576643102 0.009997528416610743 0.0 3.302656973613375e-10 0.0 0.01 0.0 3.302656973613375e-10 0.0 0.010006426589854355 0.009997980611856068 0.0 3.7064555247156056e-09 0.0 0.01 0.0 3.7064555247147586e-09 0.0 0.010006766611866254 0.009998568807327668 0.0 1.2157935310567222e-08 0.0 0.01 0.0 1.2157935310568916e-08 0.0 0.010007103261308587 0.009999283577044778 0.0 1.7922761530499436e-08 0.0 0.01 0.0 1.7922761530499436e-08 0.0 0.010007375852510124 0.010000150903431511 0.0 1.0269619806683414e-08 0.0 0.01 0.0 1.026961980668172e-08 0.0 0.010007578907292768 0.010001184760516812 0.0 -3.1077703799154956e-09 0.0 0.01 0.0 -3.1077703799163426e-09 0.0 0.010007473720134016 0.010002371943650817 0.0 9.331497106167396e-10 0.0 0.01 0.0 9.331497106171632e-10 0.0 0.010006388416569766 0.010003638685050581 0.0 -7.89482447190686e-09 0.0 0.01 0.0 -7.894824471913636e-09 0.0 0.010005754463278164 0.009997507432244552 0.0 2.0515303811153673e-09 0.0 0.01 0.0 2.0515303811153673e-09 0.0 0.010005855238561557 0.0099979311422319 0.0 1.3877539250671707e-08 0.0 0.01 0.0 1.3877539250668319e-08 0.0 0.010006223104266557 0.009998409879585625 0.0 3.9400738545650074e-08 0.0 0.01 0.0 3.94007385456433e-08 0.0 0.010006589006767503 0.009998962662062634 0.0 6.481824488941117e-08 0.0 0.01 0.0 6.481824488941117e-08 0.0 0.010006899233981235 0.009999672516868632 0.0 7.219523370891479e-08 0.0 0.01 0.0 7.219523370890124e-08 0.0 0.010007139940319324 0.010000669518007798 0.0 7.194944639233561e-08 0.0 0.01 0.0 7.194944639233561e-08 0.0 0.010007029856665645 0.010002045077828599 0.0 6.577718573961308e-08 0.0 0.01 0.0 6.577718573961308e-08 0.0 0.010006034759003007 0.0100039085414696 0.0 -8.796887892030449e-08 0.0 0.01 0.0 -8.796887892041291e-08 0.0 0.010005306972765193 0.009997685303932042 0.0 8.661901675039718e-09 0.0 0.01 0.0 8.661901675039718e-09 0.0 0.010005397917494717 0.009998037578035817 0.0 3.827010024343608e-08 0.0 0.01 0.0 3.827010024343608e-08 0.0 0.010005800443090107 0.009998352908307724 0.0 9.245449680252355e-08 0.0 0.01 0.0 9.245449680252355e-08 0.0 0.010006193750914417 0.009998693259488687 0.0 1.4855238509073852e-07 0.0 0.01 0.0 1.4855238509071142e-07 0.0 0.010006541566524895 0.009999219096405962 0.0 1.812607450718594e-07 0.0 0.01 0.0 1.8126074507183228e-07 0.0 0.01000680724941317 0.010000212912682379 0.0 1.9813075379681482e-07 0.0 0.01 0.0 1.9813075379681482e-07 0.0 0.010006669271827815 0.010001877481392233 0.0 1.3632447719551938e-07 0.0 0.01 0.0 1.3632447719551938e-07 0.0 0.010005799944787279 0.010004514319573814 0.0 -3.1174539352578357e-07 0.0 0.01 0.0 -3.1174539352578357e-07 0.0 0.01000499690741837 0.009998014091842717 0.0 2.7248216982895255e-08 0.0 0.01 0.0 2.7248216982895255e-08 0.0 0.010005054629922584 0.009998239965872026 0.0 8.583821197795957e-08 0.0 0.01 0.0 8.583821197795957e-08 0.0 0.010005481554928662 0.009998355410473765 0.0 1.7673335817313144e-07 0.0 0.01 0.0 1.7673335817310434e-07 0.0 0.010005890956097729 0.009998482356216885 0.0 2.666475220455995e-07 0.0 0.01 0.0 2.666475220455995e-07 0.0 0.01000625342155468 0.009998884202583162 0.0 3.2469251494925393e-07 0.0 0.01 0.0 3.2469251494925393e-07 0.0 0.010006500498772091 0.009999922516624526 0.0 3.238998511045357e-07 0.0 0.01 0.0 3.238998511045357e-07 0.0 0.010006213301684878 0.010001874528777767 0.0 1.1054388822921051e-07 0.0 0.01 0.0 1.105438882291563e-07 0.0 0.010005438034448571 0.009998433868723641 0.0 6.985171974178809e-08 0.0 0.01 0.0 6.98517197418152e-08 0.0 0.010004810619815337 0.009998491345603471 0.0 1.659375908922905e-07 0.0 0.01 0.0 1.6593759089234472e-07 0.0 0.010005241922909885 0.009998406893546688 0.0 2.9179613424010426e-07 0.0 0.01 0.0 2.9179613424010426e-07 0.0 0.01000563662490717 0.009998400908370923 0.0 4.060723733604471e-07 0.0 0.01 0.0 4.060723733605555e-07 0.0 0.01000598975197464 0.00999882673883116 0.0 4.642842678099623e-07 0.0 0.01 0.0 4.642842678099623e-07 0.0 0.010006152205076547 0.009999981020412262 0.0 3.6854437388618606e-07 0.0 0.01 0.0 3.685443738862945e-07 0.0 0.010005753031142203 0.010002079250018621 0.0 -1.0671952028481297e-07 0.0 0.01 0.0 -1.0671952028481297e-07 0.0 0.010005051677045039 0.009998867695710206 0.0 1.4978385870202887e-07 0.0 0.01 0.0 1.4978385870197466e-07 0.0 0.01000463161916005 0.009998740250012171 0.0 2.8202456790700275e-07 0.0 0.01 0.0 2.8202456790694854e-07 0.0 0.010005038016602508 0.009998533850060755 0.0 4.286993893020232e-07 0.0 0.01 0.0 4.286993893020232e-07 0.0 0.010005412618830232 0.009998585844485553 0.0 5.444937442116403e-07 0.0 0.01 0.0 5.444937442116403e-07 0.0 0.010005766728852618 0.009999183642156574 0.0 5.304282213290526e-07 0.0 0.01 0.0 5.304282213289442e-07 0.0 0.010005801486827483 0.010000499545011298 0.0 2.2492173399322503e-07 0.0 0.01 0.0 2.2492173399327924e-07 0.0 0.010005389110826232 0.00999923609857386 0.0 2.712620867631379e-07 0.0 0.01 0.0 2.7126208676302947e-07 0.0 0.010004474712692538 0.009998983681877693 0.0 4.237250753661142e-07 0.0 0.01 0.0 4.237250753661142e-07 0.0 0.010004854159043092 0.009998866740883733 0.0 5.670531040805234e-07 0.0 0.01 0.0 5.670531040805234e-07 0.0 0.010005254186244027 0.009999195155530757 0.0 6.238861009720542e-07 0.0 0.01 0.0 6.238861009718374e-07 0.0 0.010005587738240366 0.010000063027355722 0.0 4.225336722519287e-07 0.0 0.01 0.0 4.2253367225203713e-07 0.0 0.010005575486183148 0.010001382592521047 0.0 -1.974112645428865e-07 0.0 0.01 0.0 -1.974112645428865e-07 0.0 0.010005059993777843 0.009999538558204134 0.0 4.185278309246608e-07 0.0 0.01 0.0 4.185278309246608e-07 0.0 0.010004332940776394 0.009999407600920638 0.0 5.674441402251772e-07 0.0 0.01 0.0 5.674441402249604e-07 0.0 0.010004750481159477 0.009999631583508518 0.0 6.490272520401699e-07 0.0 0.01 0.0 6.490272520397362e-07 0.0 0.010005196510855165 0.010000305254518442 0.0 5.200953411374932e-07 0.0 0.01 0.0 5.200953411374932e-07 0.0 0.010005476686344907 0.010001247783507932 0.0 3.8586751107717865e-09 0.0 0.01 0.0 3.8586751107717865e-09 0.0 0.010005345583238264 0.010000064498100883 0.0 5.627603504533476e-07 0.0 0.01 0.0 5.627603504535644e-07 0.0 0.010004293360810252 0.01000032232890078 0.0 6.499367089022028e-07 0.0 0.01 0.0 6.49936708901986e-07 0.0 0.010004755903922809 0.010000945977530191 0.0 5.376304937547514e-07 0.0 0.01 0.0 5.376304937547514e-07 0.0 0.01000518522348657 0.010001678173148565 0.0 7.322247791151132e-08 0.0 0.01 0.0 7.322247791148422e-08 0.0 0.010005322096496646 0.010001215629525308 0.0 6.215593844570693e-07 0.0 0.01 0.0 6.215593844568525e-07 0.0 0.010004361309368371 0.010001728987967648 0.0 5.144885842347721e-07 0.0 0.01 0.0 5.144885842347721e-07 0.0 0.010004800343929143 0.010002355833019673 0.0 7.256001071346977e-08 0.0 0.01 0.0 7.256001071346977e-08 0.0 0.010005121132002949 0.010002433555127187 0.0 -6.691975710784379e-07 0.0 0.01 0.0 -6.691975710784379e-07 0.0 0.01000486055852421 0.010002490704108394 0.0 3.9921772236519576e-07 0.0 0.01 0.0 3.992177223654126e-07 0.0 0.010004416998629138 0.01000259866260813 0.0 3.551418421577626e-09 0.0 0.01 0.0 3.5514184215742377e-09 0.0 0.010004687393692242 0.01000259771551012 0.0 -1.5591325585760304e-07 0.0 0.01 0.0 -1.5591325585749462e-07 0.0 0.010004310388958004 
