# vtk DataFile Version 3.0
Test VTK file for Force data
ASCII
DATASET POLYDATA
POINTS 2975 float
 -2.2000000E-01   9.9999998E-03  -3.8000000E-01
 -2.2000000E-01   9.9999998E-03  -3.6000001E-01
 -2.0000000E-01   9.9999998E-03  -4.0000001E-01
 -2.0000000E-01   9.9999998E-03  -3.8000000E-01
 -2.0000000E-01   9.9999998E-03  -3.6000001E-01
 -1.8000001E-01   9.9999998E-03  -4.0000001E-01
 -1.8000001E-01   9.9999998E-03  -3.8000000E-01
 -1.8000001E-01   9.9999998E-03  -3.6000001E-01
 -1.6000000E-01   9.9999998E-03  -4.0000001E-01
 -1.6000000E-01   9.9999998E-03  -3.8000000E-01
 -1.6000000E-01   9.9999998E-03  -3.6000001E-01
 -1.4000000E-01   9.9999998E-03  -4.0000001E-01
 -1.4000000E-01   9.9999998E-03  -3.8000000E-01
 -1.4000000E-01   9.9999998E-03  -3.6000001E-01
 -1.2000000E-01   9.9999998E-03  -4.0000001E-01
 -1.2000000E-01   9.9999998E-03  -3.8000000E-01
 -1.2000000E-01   9.9999998E-03  -3.6000001E-01
 -1.0000000E-01   9.9999998E-03  -4.0000001E-01
 -1.0000000E-01   9.9999998E-03  -3.8000000E-01
 -1.0000000E-01   9.9999998E-03  -3.6000001E-01
 -7.9999998E-02   9.9999998E-03  -4.0000001E-01
 -7.9999998E-02   9.9999998E-03  -3.8000000E-01
 -7.9999998E-02   9.9999998E-03  -3.6000001E-01
 -5.9999999E-02   9.9999998E-03  -4.0000001E-01
 -5.9999999E-02   9.9999998E-03  -3.8000000E-01
 -5.9999999E-02   9.9999998E-03  -3.6000001E-01
 -3.9999999E-02   9.9999998E-03  -4.0000001E-01
 -3.9999999E-02   9.9999998E-03  -3.8000000E-01
 -3.9999999E-02   9.9999998E-03  -3.6000001E-01
 -2.0000000E-02   9.9999998E-03  -4.0000001E-01
 -2.0000000E-02   9.9999998E-03  -3.8000000E-01
 -2.0000000E-02   9.9999998E-03  -3.6000001E-01
  0.0000000E+00   9.9999998E-03  -4.0000001E-01
  0.0000000E+00   9.9999998E-03  -3.8000000E-01
  0.0000000E+00   9.9999998E-03  -3.6000001E-01
  2.0000000E-02   9.9999998E-03  -4.0000001E-01
  2.0000000E-02   9.9999998E-03  -3.8000000E-01
  2.0000000E-02   9.9999998E-03  -3.6000001E-01
  3.9999999E-02   9.9999998E-03  -4.0000001E-01
  3.9999999E-02   9.9999998E-03  -3.8000000E-01
  3.9999999E-02   9.9999998E-03  -3.6000001E-01
  5.9999999E-02   9.9999998E-03  -4.0000001E-01
  5.9999999E-02   9.9999998E-03  -3.8000000E-01
  5.9999999E-02   9.9999998E-03  -3.6000001E-01
  7.9999998E-02   9.9999998E-03  -4.0000001E-01
  7.9999998E-02   9.9999998E-03  -3.8000000E-01
  7.9999998E-02   9.9999998E-03  -3.6000001E-01
  1.0000000E-01   9.9999998E-03  -4.0000001E-01
  1.0000000E-01   9.9999998E-03  -3.8000000E-01
  1.0000000E-01   9.9999998E-03  -3.6000001E-01
  1.2000000E-01   9.9999998E-03  -4.0000001E-01
  1.2000000E-01   9.9999998E-03  -3.8000000E-01
  1.2000000E-01   9.9999998E-03  -3.6000001E-01
  1.4000000E-01   9.9999998E-03  -4.0000001E-01
  1.4000000E-01   9.9999998E-03  -3.8000000E-01
  1.4000000E-01   9.9999998E-03  -3.6000001E-01
  1.6000000E-01   9.9999998E-03  -4.0000001E-01
  1.6000000E-01   9.9999998E-03  -3.8000000E-01
  1.6000000E-01   9.9999998E-03  -3.6000001E-01
  1.8000001E-01   9.9999998E-03  -4.0000001E-01
  1.8000001E-01   9.9999998E-03  -3.8000000E-01
  1.8000001E-01   9.9999998E-03  -3.6000001E-01
  2.0000000E-01   9.9999998E-03  -3.8000000E-01
  2.0000000E-01   9.9999998E-03  -3.6000001E-01
 -2.2000000E-01   9.9999998E-03  -3.4000000E-01
 -2.2000000E-01   9.9999998E-03  -3.1999999E-01
 -2.2000000E-01   9.9999998E-03  -3.0000001E-01
 -2.2000000E-01   9.9999998E-03  -2.8000000E-01
 -2.2000000E-01   9.9999998E-03  -2.5999999E-01
 -2.2000000E-01   9.9999998E-03  -2.3999999E-01
 -2.2000000E-01   9.9999998E-03  -2.2000000E-01
 -2.2000000E-01   9.9999998E-03  -2.0000000E-01
 -2.0000000E-01   9.9999998E-03  -3.4000000E-01
 -2.0000000E-01   9.9999998E-03  -3.1999999E-01
 -2.0000000E-01   9.9999998E-03  -3.0000001E-01
 -2.0000000E-01   9.9999998E-03  -2.8000000E-01
 -2.0000000E-01   9.9999998E-03  -2.5999999E-01
 -2.0000000E-01   9.9999998E-03  -2.3999999E-01
 -2.0000000E-01   9.9999998E-03  -2.2000000E-01
 -2.0000000E-01   9.9999998E-03  -2.0000000E-01
 -1.8000001E-01   9.9999998E-03  -3.4000000E-01
 -1.8000001E-01   9.9999998E-03  -3.1999999E-01
 -1.8000001E-01   9.9999998E-03  -3.0000001E-01
 -1.8000001E-01   9.9999998E-03  -2.8000000E-01
 -1.8000001E-01   9.9999998E-03  -2.5999999E-01
 -1.8000001E-01   9.9999998E-03  -2.3999999E-01
 -1.8000001E-01   9.9999998E-03  -2.2000000E-01
 -1.8000001E-01   9.9999998E-03  -2.0000000E-01
 -1.6000000E-01   9.9999998E-03  -3.4000000E-01
 -1.6000000E-01   9.9999998E-03  -3.1999999E-01
 -1.6000000E-01   9.9999998E-03  -3.0000001E-01
 -1.6000000E-01   9.9999998E-03  -2.8000000E-01
 -1.6000000E-01   9.9999998E-03  -2.5999999E-01
 -1.6000000E-01   9.9999998E-03  -2.3999999E-01
 -1.6000000E-01   9.9999998E-03  -2.2000000E-01
 -1.6000000E-01   9.9999998E-03  -2.0000000E-01
 -1.4000000E-01   9.9999998E-03  -3.4000000E-01
 -1.4000000E-01   9.9999998E-03  -3.1999999E-01
 -1.4000000E-01   9.9999998E-03  -3.0000001E-01
 -1.4000000E-01   9.9999998E-03  -2.8000000E-01
 -1.4000000E-01   9.9999998E-03  -2.5999999E-01
 -1.4000000E-01   9.9999998E-03  -2.3999999E-01
 -1.4000000E-01   9.9999998E-03  -2.2000000E-01
 -1.4000000E-01   9.9999998E-03  -2.0000000E-01
 -1.2000000E-01   9.9999998E-03  -3.4000000E-01
 -1.2000000E-01   9.9999998E-03  -3.1999999E-01
 -1.2000000E-01   9.9999998E-03  -3.0000001E-01
 -1.2000000E-01   9.9999998E-03  -2.8000000E-01
 -1.2000000E-01   9.9999998E-03  -2.5999999E-01
 -1.2000000E-01   9.9999998E-03  -2.3999999E-01
 -1.2000000E-01   9.9999998E-03  -2.2000000E-01
 -1.2000000E-01   9.9999998E-03  -2.0000000E-01
 -1.0000000E-01   9.9999998E-03  -3.4000000E-01
 -1.0000000E-01   9.9999998E-03  -3.1999999E-01
 -1.0000000E-01   9.9999998E-03  -3.0000001E-01
 -1.0000000E-01   9.9999998E-03  -2.8000000E-01
 -1.0000000E-01   9.9999998E-03  -2.5999999E-01
 -1.0000000E-01   9.9999998E-03  -2.3999999E-01
 -1.0000000E-01   9.9999998E-03  -2.2000000E-01
 -1.0000000E-01   9.9999998E-03  -2.0000000E-01
 -7.9999998E-02   9.9999998E-03  -3.4000000E-01
 -7.9999998E-02   9.9999998E-03  -3.1999999E-01
 -7.9999998E-02   9.9999998E-03  -3.0000001E-01
 -7.9999998E-02   9.9999998E-03  -2.8000000E-01
 -7.9999998E-02   9.9999998E-03  -2.5999999E-01
 -7.9999998E-02   9.9999998E-03  -2.3999999E-01
 -7.9999998E-02   9.9999998E-03  -2.2000000E-01
 -7.9999998E-02   9.9999998E-03  -2.0000000E-01
 -5.9999999E-02   9.9999998E-03  -3.4000000E-01
 -5.9999999E-02   9.9999998E-03  -3.1999999E-01
 -5.9999999E-02   9.9999998E-03  -3.0000001E-01
 -5.9999999E-02   9.9999998E-03  -2.8000000E-01
 -5.9999999E-02   9.9999998E-03  -2.5999999E-01
 -5.9999999E-02   9.9999998E-03  -2.3999999E-01
 -5.9999999E-02   9.9999998E-03  -2.2000000E-01
 -5.9999999E-02   9.9999998E-03  -2.0000000E-01
 -3.9999999E-02   9.9999998E-03  -3.4000000E-01
 -3.9999999E-02   9.9999998E-03  -3.1999999E-01
 -3.9999999E-02   9.9999998E-03  -3.0000001E-01
 -3.9999999E-02   9.9999998E-03  -2.8000000E-01
 -3.9999999E-02   9.9999998E-03  -2.5999999E-01
 -3.9999999E-02   9.9999998E-03  -2.3999999E-01
 -3.9999999E-02   9.9999998E-03  -2.2000000E-01
 -3.9999999E-02   9.9999998E-03  -2.0000000E-01
 -2.0000000E-02   9.9999998E-03  -3.4000000E-01
 -2.0000000E-02   9.9999998E-03  -3.1999999E-01
 -2.0000000E-02   9.9999998E-03  -3.0000001E-01
 -2.0000000E-02   9.9999998E-03  -2.8000000E-01
 -2.0000000E-02   9.9999998E-03  -2.5999999E-01
 -2.0000000E-02   9.9999998E-03  -2.3999999E-01
 -2.0000000E-02   9.9999998E-03  -2.2000000E-01
 -2.0000000E-02   9.9999998E-03  -2.0000000E-01
  0.0000000E+00   9.9999998E-03  -3.4000000E-01
  0.0000000E+00   9.9999998E-03  -3.1999999E-01
  0.0000000E+00   9.9999998E-03  -3.0000001E-01
  2.0000000E-02   9.9999998E-03  -3.4000000E-01
  2.0000000E-02   9.9999998E-03  -3.1999999E-01
  3.9999999E-02   9.9999998E-03  -3.4000000E-01
  3.9999999E-02   9.9999998E-03  -3.1999999E-01
  5.9999999E-02   9.9999998E-03  -3.4000000E-01
  5.9999999E-02   9.9999998E-03  -3.1999999E-01
  7.9999998E-02   9.9999998E-03  -3.4000000E-01
  7.9999998E-02   9.9999998E-03  -3.1999999E-01
  1.0000000E-01   9.9999998E-03  -3.4000000E-01
  1.0000000E-01   9.9999998E-03  -3.1999999E-01
  1.2000000E-01   9.9999998E-03  -3.4000000E-01
  1.2000000E-01   9.9999998E-03  -3.1999999E-01
  1.4000000E-01   9.9999998E-03  -3.4000000E-01
  1.4000000E-01   9.9999998E-03  -3.1999999E-01
  1.6000000E-01   9.9999998E-03  -3.4000000E-01
  1.6000000E-01   9.9999998E-03  -3.1999999E-01
  1.8000001E-01   9.9999998E-03  -3.4000000E-01
  1.8000001E-01   9.9999998E-03  -3.1999999E-01
  2.0000000E-01   9.9999998E-03  -3.4000000E-01
  2.0000000E-01   9.9999998E-03  -3.1999999E-01
 -2.2000000E-01   9.9999998E-03  -1.8000001E-01
 -2.2000000E-01   9.9999998E-03  -1.6000000E-01
 -2.2000000E-01   9.9999998E-03  -1.4000000E-01
 -2.2000000E-01   9.9999998E-03  -1.2000000E-01
 -2.2000000E-01   9.9999998E-03  -1.0000000E-01
 -2.2000000E-01   9.9999998E-03  -7.9999998E-02
 -2.2000000E-01   9.9999998E-03  -5.9999999E-02
 -2.2000000E-01   9.9999998E-03  -3.9999999E-02
 -2.2000000E-01   9.9999998E-03  -2.0000000E-02
 -2.0000000E-01   9.9999998E-03  -1.8000001E-01
 -2.0000000E-01   9.9999998E-03  -1.6000000E-01
 -2.0000000E-01   9.9999998E-03  -1.4000000E-01
 -2.0000000E-01   9.9999998E-03  -1.2000000E-01
 -2.0000000E-01   9.9999998E-03  -1.0000000E-01
 -2.0000000E-01   9.9999998E-03  -7.9999998E-02
 -2.0000000E-01   9.9999998E-03  -5.9999999E-02
 -2.0000000E-01   9.9999998E-03  -3.9999999E-02
 -2.0000000E-01   9.9999998E-03  -2.0000000E-02
 -1.8000001E-01   9.9999998E-03  -1.8000001E-01
 -1.8000001E-01   9.9999998E-03  -1.6000000E-01
 -1.8000001E-01   9.9999998E-03  -1.4000000E-01
 -1.8000001E-01   9.9999998E-03  -1.2000000E-01
 -1.8000001E-01   9.9999998E-03  -1.0000000E-01
 -1.8000001E-01   9.9999998E-03  -7.9999998E-02
 -1.8000001E-01   9.9999998E-03  -5.9999999E-02
 -1.8000001E-01   9.9999998E-03  -3.9999999E-02
 -1.8000001E-01   9.9999998E-03  -2.0000000E-02
 -1.6000000E-01   9.9999998E-03  -1.8000001E-01
 -1.6000000E-01   9.9999998E-03  -1.6000000E-01
 -1.6000000E-01   9.9999998E-03  -1.4000000E-01
 -1.6000000E-01   9.9999998E-03  -1.2000000E-01
 -1.6000000E-01   9.9999998E-03  -1.0000000E-01
 -1.6000000E-01   9.9999998E-03  -7.9999998E-02
 -1.6000000E-01   9.9999998E-03  -5.9999999E-02
 -1.6000000E-01   9.9999998E-03  -3.9999999E-02
 -1.6000000E-01   9.9999998E-03  -2.0000000E-02
 -1.4000000E-01   9.9999998E-03  -1.8000001E-01
 -1.4000000E-01   9.9999998E-03  -1.6000000E-01
 -1.4000000E-01   9.9999998E-03  -1.4000000E-01
 -1.4000000E-01   9.9999998E-03  -1.2000000E-01
 -1.4000000E-01   9.9999998E-03  -1.0000000E-01
 -1.4000000E-01   9.9999998E-03  -7.9999998E-02
 -1.4000000E-01   9.9999998E-03  -5.9999999E-02
 -1.4000000E-01   9.9999998E-03  -3.9999999E-02
 -1.4000000E-01   9.9999998E-03  -2.0000000E-02
 -1.2000000E-01   9.9999998E-03  -1.8000001E-01
 -1.2000000E-01   9.9999998E-03  -1.6000000E-01
 -1.2000000E-01   9.9999998E-03  -1.4000000E-01
 -1.2000000E-01   9.9999998E-03  -1.2000000E-01
 -1.2000000E-01   9.9999998E-03  -1.0000000E-01
 -1.2000000E-01   9.9999998E-03  -7.9999998E-02
 -1.2000000E-01   9.9999998E-03  -5.9999999E-02
 -1.2000000E-01   9.9999998E-03  -3.9999999E-02
 -1.2000000E-01   9.9999998E-03  -2.0000000E-02
 -1.0000000E-01   9.9999998E-03  -1.8000001E-01
 -1.0000000E-01   9.9999998E-03  -1.6000000E-01
 -1.0000000E-01   9.9999998E-03  -1.4000000E-01
 -1.0000000E-01   9.9999998E-03  -1.2000000E-01
 -1.0000000E-01   9.9999998E-03  -1.0000000E-01
 -1.0000000E-01   9.9999998E-03  -7.9999998E-02
 -1.0000000E-01   9.9999998E-03  -5.9999999E-02
 -1.0000000E-01   9.9999998E-03  -3.9999999E-02
 -1.0000000E-01   9.9999998E-03  -2.0000000E-02
 -7.9999998E-02   9.9999998E-03  -1.8000001E-01
 -7.9999998E-02   9.9999998E-03  -1.6000000E-01
 -7.9999998E-02   9.9999998E-03  -1.4000000E-01
 -7.9999998E-02   9.9999998E-03  -1.2000000E-01
 -7.9999998E-02   9.9999998E-03  -1.0000000E-01
 -7.9999998E-02   9.9999998E-03  -7.9999998E-02
 -7.9999998E-02   9.9999998E-03  -5.9999999E-02
 -7.9999998E-02   9.9999998E-03  -3.9999999E-02
 -7.9999998E-02   9.9999998E-03  -2.0000000E-02
 -5.9999999E-02   9.9999998E-03  -1.8000001E-01
 -5.9999999E-02   9.9999998E-03  -1.6000000E-01
 -5.9999999E-02   9.9999998E-03  -1.4000000E-01
 -5.9999999E-02   9.9999998E-03  -1.2000000E-01
 -5.9999999E-02   9.9999998E-03  -1.0000000E-01
 -5.9999999E-02   9.9999998E-03  -7.9999998E-02
 -5.9999999E-02   9.9999998E-03  -5.9999999E-02
 -5.9999999E-02   9.9999998E-03  -3.9999999E-02
 -5.9999999E-02   9.9999998E-03  -2.0000000E-02
 -3.9999999E-02   9.9999998E-03  -1.8000001E-01
 -3.9999999E-02   9.9999998E-03  -1.6000000E-01
 -3.9999999E-02   9.9999998E-03  -1.4000000E-01
 -3.9999999E-02   9.9999998E-03  -1.2000000E-01
 -3.9999999E-02   9.9999998E-03  -1.0000000E-01
 -3.9999999E-02   9.9999998E-03  -7.9999998E-02
 -3.9999999E-02   9.9999998E-03  -5.9999999E-02
 -3.9999999E-02   9.9999998E-03  -3.9999999E-02
 -3.9999999E-02   9.9999998E-03  -2.0000000E-02
 -2.0000000E-02   9.9999998E-03  -1.8000001E-01
 -2.0000000E-02   9.9999998E-03  -1.6000000E-01
 -2.0000000E-02   9.9999998E-03  -1.4000000E-01
 -2.0000000E-02   9.9999998E-03  -1.2000000E-01
 -2.0000000E-02   9.9999998E-03  -1.0000000E-01
 -2.0000000E-02   9.9999998E-03  -7.9999998E-02
 -2.0000000E-02   9.9999998E-03  -5.9999999E-02
 -2.0000000E-02   9.9999998E-03  -3.9999999E-02
 -2.0000000E-02   9.9999998E-03  -2.0000000E-02
 -2.2000000E-01   9.9999998E-03   0.0000000E+00
 -2.2000000E-01   9.9999998E-03   2.0000000E-02
 -2.2000000E-01   9.9999998E-03   3.9999999E-02
 -2.2000000E-01   9.9999998E-03   5.9999999E-02
 -2.2000000E-01   9.9999998E-03   7.9999998E-02
 -2.2000000E-01   9.9999998E-03   1.0000000E-01
 -2.2000000E-01   9.9999998E-03   1.2000000E-01
 -2.2000000E-01   9.9999998E-03   1.4000000E-01
 -2.0000000E-01   9.9999998E-03   0.0000000E+00
 -2.0000000E-01   9.9999998E-03   2.0000000E-02
 -2.0000000E-01   9.9999998E-03   3.9999999E-02
 -2.0000000E-01   9.9999998E-03   5.9999999E-02
 -2.0000000E-01   9.9999998E-03   7.9999998E-02
 -2.0000000E-01   9.9999998E-03   1.0000000E-01
 -2.0000000E-01   9.9999998E-03   1.2000000E-01
 -2.0000000E-01   9.9999998E-03   1.4000000E-01
 -1.8000001E-01   9.9999998E-03   0.0000000E+00
 -1.8000001E-01   9.9999998E-03   2.0000000E-02
 -1.8000001E-01   9.9999998E-03   3.9999999E-02
 -1.8000001E-01   9.9999998E-03   5.9999999E-02
 -1.8000001E-01   9.9999998E-03   7.9999998E-02
 -1.8000001E-01   9.9999998E-03   1.0000000E-01
 -1.8000001E-01   9.9999998E-03   1.2000000E-01
 -1.8000001E-01   9.9999998E-03   1.4000000E-01
 -1.6000000E-01   9.9999998E-03   0.0000000E+00
 -1.6000000E-01   9.9999998E-03   2.0000000E-02
 -1.6000000E-01   9.9999998E-03   3.9999999E-02
 -1.6000000E-01   9.9999998E-03   5.9999999E-02
 -1.6000000E-01   9.9999998E-03   7.9999998E-02
 -1.6000000E-01   9.9999998E-03   1.0000000E-01
 -1.6000000E-01   9.9999998E-03   1.2000000E-01
 -1.6000000E-01   9.9999998E-03   1.4000000E-01
 -1.4000000E-01   9.9999998E-03   0.0000000E+00
 -1.4000000E-01   9.9999998E-03   2.0000000E-02
 -1.4000000E-01   9.9999998E-03   3.9999999E-02
 -1.4000000E-01   9.9999998E-03   5.9999999E-02
 -1.4000000E-01   9.9999998E-03   7.9999998E-02
 -1.4000000E-01   9.9999998E-03   1.0000000E-01
 -1.4000000E-01   9.9999998E-03   1.2000000E-01
 -1.4000000E-01   9.9999998E-03   1.4000000E-01
 -1.2000000E-01   9.9999998E-03   0.0000000E+00
 -1.2000000E-01   9.9999998E-03   2.0000000E-02
 -1.2000000E-01   9.9999998E-03   3.9999999E-02
 -1.2000000E-01   9.9999998E-03   5.9999999E-02
 -1.2000000E-01   9.9999998E-03   7.9999998E-02
 -1.2000000E-01   9.9999998E-03   1.0000000E-01
 -1.2000000E-01   9.9999998E-03   1.2000000E-01
 -1.2000000E-01   9.9999998E-03   1.4000000E-01
 -1.0000000E-01   9.9999998E-03   0.0000000E+00
 -1.0000000E-01   9.9999998E-03   2.0000000E-02
 -1.0000000E-01   9.9999998E-03   3.9999999E-02
 -1.0000000E-01   9.9999998E-03   5.9999999E-02
 -1.0000000E-01   9.9999998E-03   7.9999998E-02
 -1.0000000E-01   9.9999998E-03   1.0000000E-01
 -1.0000000E-01   9.9999998E-03   1.2000000E-01
 -1.0000000E-01   9.9999998E-03   1.4000000E-01
 -7.9999998E-02   9.9999998E-03   0.0000000E+00
 -7.9999998E-02   9.9999998E-03   2.0000000E-02
 -7.9999998E-02   9.9999998E-03   3.9999999E-02
 -7.9999998E-02   9.9999998E-03   5.9999999E-02
 -7.9999998E-02   9.9999998E-03   7.9999998E-02
 -7.9999998E-02   9.9999998E-03   1.0000000E-01
 -7.9999998E-02   9.9999998E-03   1.2000000E-01
 -7.9999998E-02   9.9999998E-03   1.4000000E-01
 -5.9999999E-02   9.9999998E-03   0.0000000E+00
 -5.9999999E-02   9.9999998E-03   2.0000000E-02
 -5.9999999E-02   9.9999998E-03   3.9999999E-02
 -5.9999999E-02   9.9999998E-03   5.9999999E-02
 -5.9999999E-02   9.9999998E-03   7.9999998E-02
 -5.9999999E-02   9.9999998E-03   1.0000000E-01
 -5.9999999E-02   9.9999998E-03   1.2000000E-01
 -5.9999999E-02   9.9999998E-03   1.4000000E-01
 -3.9999999E-02   9.9999998E-03   0.0000000E+00
 -3.9999999E-02   9.9999998E-03   2.0000000E-02
 -3.9999999E-02   9.9999998E-03   3.9999999E-02
 -3.9999999E-02   9.9999998E-03   5.9999999E-02
 -3.9999999E-02   9.9999998E-03   7.9999998E-02
 -3.9999999E-02   9.9999998E-03   1.0000000E-01
 -3.9999999E-02   9.9999998E-03   1.2000000E-01
 -3.9999999E-02   9.9999998E-03   1.4000000E-01
 -2.0000000E-02   9.9999998E-03   0.0000000E+00
 -2.0000000E-02   9.9999998E-03   2.0000000E-02
 -2.0000000E-02   9.9999998E-03   3.9999999E-02
 -2.0000000E-02   9.9999998E-03   5.9999999E-02
 -2.0000000E-02   9.9999998E-03   7.9999998E-02
 -2.0000000E-02   9.9999998E-03   1.0000000E-01
 -2.0000000E-02   9.9999998E-03   1.2000000E-01
 -2.0000000E-02   9.9999998E-03   1.4000000E-01
 -2.2000000E-01   9.9999998E-03   1.6000000E-01
 -2.2000000E-01   9.9999998E-03   1.8000001E-01
 -2.2000000E-01   9.9999998E-03   2.0000000E-01
 -2.2000000E-01   9.9999998E-03   2.2000000E-01
 -2.2000000E-01   9.9999998E-03   2.3999999E-01
 -2.2000000E-01   9.9999998E-03   2.5999999E-01
 -2.2000000E-01   9.9999998E-03   2.8000000E-01
 -2.2000000E-01   9.9999998E-03   3.0000001E-01
 -2.2000000E-01   9.9999998E-03   3.1999999E-01
 -2.0000000E-01   9.9999998E-03   1.6000000E-01
 -2.0000000E-01   9.9999998E-03   1.8000001E-01
 -2.0000000E-01   9.9999998E-03   2.0000000E-01
 -2.0000000E-01   9.9999998E-03   2.2000000E-01
 -2.0000000E-01   9.9999998E-03   2.3999999E-01
 -2.0000000E-01   9.9999998E-03   2.5999999E-01
 -2.0000000E-01   9.9999998E-03   2.8000000E-01
 -2.0000000E-01   9.9999998E-03   3.0000001E-01
 -2.0000000E-01   9.9999998E-03   3.1999999E-01
 -1.8000001E-01   9.9999998E-03   1.6000000E-01
 -1.8000001E-01   9.9999998E-03   1.8000001E-01
 -1.8000001E-01   9.9999998E-03   2.0000000E-01
 -1.8000001E-01   9.9999998E-03   2.2000000E-01
 -1.8000001E-01   9.9999998E-03   2.3999999E-01
 -1.8000001E-01   9.9999998E-03   2.5999999E-01
 -1.8000001E-01   9.9999998E-03   2.8000000E-01
 -1.8000001E-01   9.9999998E-03   3.0000001E-01
 -1.8000001E-01   9.9999998E-03   3.1999999E-01
 -1.6000000E-01   9.9999998E-03   1.6000000E-01
 -1.6000000E-01   9.9999998E-03   1.8000001E-01
 -1.6000000E-01   9.9999998E-03   2.0000000E-01
 -1.6000000E-01   9.9999998E-03   2.2000000E-01
 -1.6000000E-01   9.9999998E-03   2.3999999E-01
 -1.6000000E-01   9.9999998E-03   2.5999999E-01
 -1.6000000E-01   9.9999998E-03   2.8000000E-01
 -1.6000000E-01   9.9999998E-03   3.0000001E-01
 -1.6000000E-01   9.9999998E-03   3.1999999E-01
 -1.4000000E-01   9.9999998E-03   1.6000000E-01
 -1.4000000E-01   9.9999998E-03   1.8000001E-01
 -1.4000000E-01   9.9999998E-03   2.0000000E-01
 -1.4000000E-01   9.9999998E-03   2.2000000E-01
 -1.4000000E-01   9.9999998E-03   2.3999999E-01
 -1.4000000E-01   9.9999998E-03   2.5999999E-01
 -1.4000000E-01   9.9999998E-03   2.8000000E-01
 -1.4000000E-01   9.9999998E-03   3.0000001E-01
 -1.4000000E-01   9.9999998E-03   3.1999999E-01
 -1.2000000E-01   9.9999998E-03   1.6000000E-01
 -1.2000000E-01   9.9999998E-03   1.8000001E-01
 -1.2000000E-01   9.9999998E-03   2.0000000E-01
 -1.2000000E-01   9.9999998E-03   2.2000000E-01
 -1.2000000E-01   9.9999998E-03   2.3999999E-01
 -1.2000000E-01   9.9999998E-03   2.5999999E-01
 -1.2000000E-01   9.9999998E-03   2.8000000E-01
 -1.2000000E-01   9.9999998E-03   3.0000001E-01
 -1.2000000E-01   9.9999998E-03   3.1999999E-01
 -1.0000000E-01   9.9999998E-03   1.6000000E-01
 -1.0000000E-01   9.9999998E-03   1.8000001E-01
 -1.0000000E-01   9.9999998E-03   2.0000000E-01
 -1.0000000E-01   9.9999998E-03   2.2000000E-01
 -1.0000000E-01   9.9999998E-03   2.3999999E-01
 -1.0000000E-01   9.9999998E-03   2.5999999E-01
 -1.0000000E-01   9.9999998E-03   2.8000000E-01
 -1.0000000E-01   9.9999998E-03   3.0000001E-01
 -1.0000000E-01   9.9999998E-03   3.1999999E-01
 -7.9999998E-02   9.9999998E-03   1.6000000E-01
 -7.9999998E-02   9.9999998E-03   1.8000001E-01
 -7.9999998E-02   9.9999998E-03   2.0000000E-01
 -7.9999998E-02   9.9999998E-03   2.2000000E-01
 -7.9999998E-02   9.9999998E-03   2.3999999E-01
 -7.9999998E-02   9.9999998E-03   2.5999999E-01
 -7.9999998E-02   9.9999998E-03   2.8000000E-01
 -7.9999998E-02   9.9999998E-03   3.0000001E-01
 -7.9999998E-02   9.9999998E-03   3.1999999E-01
 -5.9999999E-02   9.9999998E-03   1.6000000E-01
 -5.9999999E-02   9.9999998E-03   1.8000001E-01
 -5.9999999E-02   9.9999998E-03   2.0000000E-01
 -5.9999999E-02   9.9999998E-03   2.2000000E-01
 -5.9999999E-02   9.9999998E-03   2.3999999E-01
 -5.9999999E-02   9.9999998E-03   2.5999999E-01
 -5.9999999E-02   9.9999998E-03   2.8000000E-01
 -5.9999999E-02   9.9999998E-03   3.0000001E-01
 -5.9999999E-02   9.9999998E-03   3.1999999E-01
 -3.9999999E-02   9.9999998E-03   1.6000000E-01
 -3.9999999E-02   9.9999998E-03   1.8000001E-01
 -3.9999999E-02   9.9999998E-03   2.0000000E-01
 -3.9999999E-02   9.9999998E-03   2.2000000E-01
 -3.9999999E-02   9.9999998E-03   2.3999999E-01
 -3.9999999E-02   9.9999998E-03   2.5999999E-01
 -3.9999999E-02   9.9999998E-03   2.8000000E-01
 -3.9999999E-02   9.9999998E-03   3.0000001E-01
 -3.9999999E-02   9.9999998E-03   3.1999999E-01
 -2.0000000E-02   9.9999998E-03   1.6000000E-01
 -2.0000000E-02   9.9999998E-03   1.8000001E-01
 -2.0000000E-02   9.9999998E-03   2.0000000E-01
 -2.0000000E-02   9.9999998E-03   2.2000000E-01
 -2.0000000E-02   9.9999998E-03   2.3999999E-01
 -2.0000000E-02   9.9999998E-03   2.5999999E-01
 -2.0000000E-02   9.9999998E-03   2.8000000E-01
 -2.0000000E-02   9.9999998E-03   3.0000001E-01
 -2.0000000E-02   9.9999998E-03   3.1999999E-01
  0.0000000E+00   9.9999998E-03   3.0000001E-01
  0.0000000E+00   9.9999998E-03   3.1999999E-01
  2.0000000E-02   9.9999998E-03   3.1999999E-01
  3.9999999E-02   9.9999998E-03   3.1999999E-01
  5.9999999E-02   9.9999998E-03   3.1999999E-01
  7.9999998E-02   9.9999998E-03   3.1999999E-01
  1.0000000E-01   9.9999998E-03   3.1999999E-01
  1.2000000E-01   9.9999998E-03   3.1999999E-01
  1.4000000E-01   9.9999998E-03   3.1999999E-01
  1.6000000E-01   9.9999998E-03   3.1999999E-01
  1.8000001E-01   9.9999998E-03   3.1999999E-01
  2.0000000E-01   9.9999998E-03   3.1999999E-01
 -2.2000000E-01   9.9999998E-03   3.4000000E-01
 -2.2000000E-01   9.9999998E-03   3.6000001E-01
 -2.2000000E-01   9.9999998E-03   3.8000000E-01
 -2.0000000E-01   9.9999998E-03   3.4000000E-01
 -2.0000000E-01   9.9999998E-03   3.6000001E-01
 -2.0000000E-01   9.9999998E-03   3.8000000E-01
 -2.0000000E-01   9.9999998E-03   4.0000001E-01
 -1.8000001E-01   9.9999998E-03   3.4000000E-01
 -1.8000001E-01   9.9999998E-03   3.6000001E-01
 -1.8000001E-01   9.9999998E-03   3.8000000E-01
 -1.8000001E-01   9.9999998E-03   4.0000001E-01
 -1.6000000E-01   9.9999998E-03   3.4000000E-01
 -1.6000000E-01   9.9999998E-03   3.6000001E-01
 -1.6000000E-01   9.9999998E-03   3.8000000E-01
 -1.6000000E-01   9.9999998E-03   4.0000001E-01
 -1.4000000E-01   9.9999998E-03   3.4000000E-01
 -1.4000000E-01   9.9999998E-03   3.6000001E-01
 -1.4000000E-01   9.9999998E-03   3.8000000E-01
 -1.4000000E-01   9.9999998E-03   4.0000001E-01
 -1.2000000E-01   9.9999998E-03   3.4000000E-01
 -1.2000000E-01   9.9999998E-03   3.6000001E-01
 -1.2000000E-01   9.9999998E-03   3.8000000E-01
 -1.2000000E-01   9.9999998E-03   4.0000001E-01
 -1.0000000E-01   9.9999998E-03   3.4000000E-01
 -1.0000000E-01   9.9999998E-03   3.6000001E-01
 -1.0000000E-01   9.9999998E-03   3.8000000E-01
 -1.0000000E-01   9.9999998E-03   4.0000001E-01
 -7.9999998E-02   9.9999998E-03   3.4000000E-01
 -7.9999998E-02   9.9999998E-03   3.6000001E-01
 -7.9999998E-02   9.9999998E-03   3.8000000E-01
 -7.9999998E-02   9.9999998E-03   4.0000001E-01
 -5.9999999E-02   9.9999998E-03   3.4000000E-01
 -5.9999999E-02   9.9999998E-03   3.6000001E-01
 -5.9999999E-02   9.9999998E-03   3.8000000E-01
 -5.9999999E-02   9.9999998E-03   4.0000001E-01
 -3.9999999E-02   9.9999998E-03   3.4000000E-01
 -3.9999999E-02   9.9999998E-03   3.6000001E-01
 -3.9999999E-02   9.9999998E-03   3.8000000E-01
 -3.9999999E-02   9.9999998E-03   4.0000001E-01
 -2.0000000E-02   9.9999998E-03   3.4000000E-01
 -2.0000000E-02   9.9999998E-03   3.6000001E-01
 -2.0000000E-02   9.9999998E-03   3.8000000E-01
 -2.0000000E-02   9.9999998E-03   4.0000001E-01
  0.0000000E+00   9.9999998E-03   3.4000000E-01
  0.0000000E+00   9.9999998E-03   3.6000001E-01
  0.0000000E+00   9.9999998E-03   3.8000000E-01
  0.0000000E+00   9.9999998E-03   4.0000001E-01
  2.0000000E-02   9.9999998E-03   3.4000000E-01
  2.0000000E-02   9.9999998E-03   3.6000001E-01
  2.0000000E-02   9.9999998E-03   3.8000000E-01
  2.0000000E-02   9.9999998E-03   4.0000001E-01
  3.9999999E-02   9.9999998E-03   3.4000000E-01
  3.9999999E-02   9.9999998E-03   3.6000001E-01
  3.9999999E-02   9.9999998E-03   3.8000000E-01
  3.9999999E-02   9.9999998E-03   4.0000001E-01
  5.9999999E-02   9.9999998E-03   3.4000000E-01
  5.9999999E-02   9.9999998E-03   3.6000001E-01
  5.9999999E-02   9.9999998E-03   3.8000000E-01
  5.9999999E-02   9.9999998E-03   4.0000001E-01
  7.9999998E-02   9.9999998E-03   3.4000000E-01
  7.9999998E-02   9.9999998E-03   3.6000001E-01
  7.9999998E-02   9.9999998E-03   3.8000000E-01
  7.9999998E-02   9.9999998E-03   4.0000001E-01
  1.0000000E-01   9.9999998E-03   3.4000000E-01
  1.0000000E-01   9.9999998E-03   3.6000001E-01
  1.0000000E-01   9.9999998E-03   3.8000000E-01
  1.0000000E-01   9.9999998E-03   4.0000001E-01
  1.2000000E-01   9.9999998E-03   3.4000000E-01
  1.2000000E-01   9.9999998E-03   3.6000001E-01
  1.2000000E-01   9.9999998E-03   3.8000000E-01
  1.2000000E-01   9.9999998E-03   4.0000001E-01
  1.4000000E-01   9.9999998E-03   3.4000000E-01
  1.4000000E-01   9.9999998E-03   3.6000001E-01
  1.4000000E-01   9.9999998E-03   3.8000000E-01
  1.4000000E-01   9.9999998E-03   4.0000001E-01
  1.6000000E-01   9.9999998E-03   3.4000000E-01
  1.6000000E-01   9.9999998E-03   3.6000001E-01
  1.6000000E-01   9.9999998E-03   3.8000000E-01
  1.6000000E-01   9.9999998E-03   4.0000001E-01
  1.8000001E-01   9.9999998E-03   3.4000000E-01
  1.8000001E-01   9.9999998E-03   3.6000001E-01
  1.8000001E-01   9.9999998E-03   3.8000000E-01
  1.8000001E-01   9.9999998E-03   4.0000001E-01
  2.0000000E-01   9.9999998E-03   3.4000000E-01
  2.0000000E-01   9.9999998E-03   3.6000001E-01
  2.0000000E-01   9.9999998E-03   3.8000000E-01
  1.9200000E+00   9.9999998E-03  -3.6000001E-01
  1.9200000E+00   9.9999998E-03  -3.4000000E-01
  1.9200000E+00   9.9999998E-03  -3.1999999E-01
  1.9400001E+00   9.9999998E-03  -3.8000000E-01
  1.9400001E+00   9.9999998E-03  -3.6000001E-01
  1.9400001E+00   9.9999998E-03  -3.4000000E-01
  1.9400001E+00   9.9999998E-03  -3.1999999E-01
  1.9400001E+00   9.9999998E-03  -3.0000001E-01
  1.9400001E+00   9.9999998E-03  -2.8000000E-01
  1.9400001E+00   9.9999998E-03  -2.5999999E-01
  1.9400001E+00   9.9999998E-03  -2.3999999E-01
  1.9400001E+00   9.9999998E-03  -2.2000000E-01
  1.9600000E+00   9.9999998E-03  -3.8000000E-01
  1.9600000E+00   9.9999998E-03  -3.6000001E-01
  1.9600000E+00   9.9999998E-03  -3.4000000E-01
  1.9600000E+00   9.9999998E-03  -3.1999999E-01
  1.9600000E+00   9.9999998E-03  -3.0000001E-01
  1.9600000E+00   9.9999998E-03  -2.8000000E-01
  1.9600000E+00   9.9999998E-03  -2.5999999E-01
  1.9600000E+00   9.9999998E-03  -2.3999999E-01
  1.9600000E+00   9.9999998E-03  -2.2000000E-01
  1.9600000E+00   9.9999998E-03  -2.0000000E-01
  1.9600000E+00   9.9999998E-03  -1.8000001E-01
  1.9600000E+00   9.9999998E-03  -1.6000000E-01
  1.9600000E+00   9.9999998E-03  -1.4000000E-01
  1.9600000E+00   9.9999998E-03  -1.2000000E-01
  1.9800000E+00   9.9999998E-03  -3.8000000E-01
  1.9800000E+00   9.9999998E-03  -3.6000001E-01
  1.9800000E+00   9.9999998E-03  -3.4000000E-01
  1.9800000E+00   9.9999998E-03  -3.1999999E-01
  1.9800000E+00   9.9999998E-03  -3.0000001E-01
  1.9800000E+00   9.9999998E-03  -2.8000000E-01
  1.9800000E+00   9.9999998E-03  -2.5999999E-01
  1.9800000E+00   9.9999998E-03  -2.3999999E-01
  1.9800000E+00   9.9999998E-03  -2.2000000E-01
  1.9800000E+00   9.9999998E-03  -2.0000000E-01
  1.9800000E+00   9.9999998E-03  -1.8000001E-01
  1.9800000E+00   9.9999998E-03  -1.6000000E-01
  1.9800000E+00   9.9999998E-03  -1.4000000E-01
  1.9800000E+00   9.9999998E-03  -1.2000000E-01
  1.9800000E+00   9.9999998E-03  -1.0000000E-01
  1.9800000E+00   9.9999998E-03  -7.9999998E-02
  1.9800000E+00   9.9999998E-03  -5.9999999E-02
  1.9800000E+00   9.9999998E-03  -3.9999999E-02
  1.9800000E+00   9.9999998E-03  -2.0000000E-02
  2.0000000E+00   9.9999998E-03  -3.8000000E-01
  2.0000000E+00   9.9999998E-03  -3.6000001E-01
  2.0000000E+00   9.9999998E-03  -3.4000000E-01
  2.0000000E+00   9.9999998E-03  -3.1999999E-01
  2.0000000E+00   9.9999998E-03  -3.0000001E-01
  2.0000000E+00   9.9999998E-03  -2.8000000E-01
  2.0000000E+00   9.9999998E-03  -2.5999999E-01
  2.0000000E+00   9.9999998E-03  -2.3999999E-01
  2.0000000E+00   9.9999998E-03  -2.2000000E-01
  2.0000000E+00   9.9999998E-03  -2.0000000E-01
  2.0000000E+00   9.9999998E-03  -1.8000001E-01
  2.0000000E+00   9.9999998E-03  -1.6000000E-01
  2.0000000E+00   9.9999998E-03  -1.4000000E-01
  2.0000000E+00   9.9999998E-03  -1.2000000E-01
  2.0000000E+00   9.9999998E-03  -1.0000000E-01
  2.0000000E+00   9.9999998E-03  -7.9999998E-02
  2.0000000E+00   9.9999998E-03  -5.9999999E-02
  2.0000000E+00   9.9999998E-03  -3.9999999E-02
  2.0000000E+00   9.9999998E-03  -2.0000000E-02
  2.0000000E+00   9.9999998E-03   0.0000000E+00
  2.0000000E+00   9.9999998E-03   2.0000000E-02
  2.0000000E+00   9.9999998E-03   3.9999999E-02
  2.0000000E+00   9.9999998E-03   5.9999999E-02
  2.0000000E+00   9.9999998E-03   7.9999998E-02
  2.0200000E+00   9.9999998E-03  -4.0000001E-01
  2.0200000E+00   9.9999998E-03  -3.8000000E-01
  2.0200000E+00   9.9999998E-03  -3.6000001E-01
  2.0200000E+00   9.9999998E-03  -3.4000000E-01
  2.0200000E+00   9.9999998E-03  -3.1999999E-01
  2.0200000E+00   9.9999998E-03  -3.0000001E-01
  2.0200000E+00   9.9999998E-03  -2.8000000E-01
  2.0200000E+00   9.9999998E-03  -2.5999999E-01
  2.0200000E+00   9.9999998E-03  -2.3999999E-01
  2.0200000E+00   9.9999998E-03  -2.2000000E-01
  2.0200000E+00   9.9999998E-03  -2.0000000E-01
  2.0200000E+00   9.9999998E-03  -1.8000001E-01
  2.0200000E+00   9.9999998E-03  -1.6000000E-01
  2.0200000E+00   9.9999998E-03  -1.4000000E-01
  2.0200000E+00   9.9999998E-03  -1.2000000E-01
  2.0200000E+00   9.9999998E-03  -1.0000000E-01
  2.0200000E+00   9.9999998E-03  -7.9999998E-02
  2.0200000E+00   9.9999998E-03  -5.9999999E-02
  2.0200000E+00   9.9999998E-03  -3.9999999E-02
  2.0200000E+00   9.9999998E-03  -2.0000000E-02
  2.0200000E+00   9.9999998E-03   0.0000000E+00
  2.0200000E+00   9.9999998E-03   2.0000000E-02
  2.0200000E+00   9.9999998E-03   3.9999999E-02
  2.0200000E+00   9.9999998E-03   5.9999999E-02
  2.0200000E+00   9.9999998E-03   7.9999998E-02
  2.0200000E+00   9.9999998E-03   1.0000000E-01
  2.0200000E+00   9.9999998E-03   1.2000000E-01
  2.0200000E+00   9.9999998E-03   1.4000000E-01
  2.0200000E+00   9.9999998E-03   1.6000000E-01
  2.0200000E+00   9.9999998E-03   1.8000001E-01
  2.0400000E+00   9.9999998E-03  -4.0000001E-01
  2.0400000E+00   9.9999998E-03  -3.8000000E-01
  2.0400000E+00   9.9999998E-03  -3.6000001E-01
  2.0400000E+00   9.9999998E-03  -3.4000000E-01
  2.0400000E+00   9.9999998E-03  -3.1999999E-01
  2.0400000E+00   9.9999998E-03  -3.0000001E-01
  2.0400000E+00   9.9999998E-03  -2.8000000E-01
  2.0400000E+00   9.9999998E-03  -2.5999999E-01
  2.0400000E+00   9.9999998E-03  -2.3999999E-01
  2.0400000E+00   9.9999998E-03  -2.2000000E-01
  2.0400000E+00   9.9999998E-03  -2.0000000E-01
  2.0400000E+00   9.9999998E-03  -1.8000001E-01
  2.0400000E+00   9.9999998E-03  -1.6000000E-01
  2.0400000E+00   9.9999998E-03  -1.4000000E-01
  2.0400000E+00   9.9999998E-03  -1.2000000E-01
  2.0400000E+00   9.9999998E-03  -1.0000000E-01
  2.0400000E+00   9.9999998E-03  -7.9999998E-02
  2.0400000E+00   9.9999998E-03  -5.9999999E-02
  2.0400000E+00   9.9999998E-03  -3.9999999E-02
  2.0400000E+00   9.9999998E-03  -2.0000000E-02
  2.0400000E+00   9.9999998E-03   0.0000000E+00
  2.0400000E+00   9.9999998E-03   2.0000000E-02
  2.0400000E+00   9.9999998E-03   3.9999999E-02
  2.0400000E+00   9.9999998E-03   5.9999999E-02
  2.0400000E+00   9.9999998E-03   7.9999998E-02
  2.0400000E+00   9.9999998E-03   1.0000000E-01
  2.0400000E+00   9.9999998E-03   1.2000000E-01
  2.0400000E+00   9.9999998E-03   1.4000000E-01
  2.0400000E+00   9.9999998E-03   1.6000000E-01
  2.0400000E+00   9.9999998E-03   1.8000001E-01
  2.0400000E+00   9.9999998E-03   2.0000000E-01
  2.0400000E+00   9.9999998E-03   2.2000000E-01
  2.0400000E+00   9.9999998E-03   2.3999999E-01
  2.0400000E+00   9.9999998E-03   2.5999999E-01
  2.0400000E+00   9.9999998E-03   2.8000000E-01
  2.0599999E+00   9.9999998E-03  -4.0000001E-01
  2.0599999E+00   9.9999998E-03  -3.8000000E-01
  2.0599999E+00   9.9999998E-03  -3.6000001E-01
  2.0599999E+00   9.9999998E-03  -3.4000000E-01
  2.0599999E+00   9.9999998E-03  -3.1999999E-01
  2.0599999E+00   9.9999998E-03  -3.0000001E-01
  2.0599999E+00   9.9999998E-03  -2.8000000E-01
  2.0599999E+00   9.9999998E-03  -2.5999999E-01
  2.0599999E+00   9.9999998E-03  -2.3999999E-01
  2.0599999E+00   9.9999998E-03  -2.2000000E-01
  2.0599999E+00   9.9999998E-03  -2.0000000E-01
  2.0599999E+00   9.9999998E-03  -1.8000001E-01
  2.0599999E+00   9.9999998E-03  -1.6000000E-01
  2.0599999E+00   9.9999998E-03  -1.4000000E-01
  2.0599999E+00   9.9999998E-03  -1.2000000E-01
  2.0599999E+00   9.9999998E-03  -1.0000000E-01
  2.0599999E+00   9.9999998E-03  -7.9999998E-02
  2.0599999E+00   9.9999998E-03  -5.9999999E-02
  2.0599999E+00   9.9999998E-03  -3.9999999E-02
  2.0599999E+00   9.9999998E-03  -2.0000000E-02
  2.0599999E+00   9.9999998E-03   0.0000000E+00
  2.0599999E+00   9.9999998E-03   2.0000000E-02
  2.0599999E+00   9.9999998E-03   3.9999999E-02
  2.0599999E+00   9.9999998E-03   5.9999999E-02
  2.0599999E+00   9.9999998E-03   7.9999998E-02
  2.0599999E+00   9.9999998E-03   1.0000000E-01
  2.0599999E+00   9.9999998E-03   1.2000000E-01
  2.0599999E+00   9.9999998E-03   1.4000000E-01
  2.0599999E+00   9.9999998E-03   1.6000000E-01
  2.0599999E+00   9.9999998E-03   1.8000001E-01
  2.0599999E+00   9.9999998E-03   2.0000000E-01
  2.0599999E+00   9.9999998E-03   2.2000000E-01
  2.0599999E+00   9.9999998E-03   2.3999999E-01
  2.0599999E+00   9.9999998E-03   2.5999999E-01
  2.0599999E+00   9.9999998E-03   2.8000000E-01
  2.0599999E+00   9.9999998E-03   3.0000001E-01
  2.0599999E+00   9.9999998E-03   3.1999999E-01
  2.0599999E+00   9.9999998E-03   3.4000000E-01
  2.0599999E+00   9.9999998E-03   3.6000001E-01
  2.0599999E+00   9.9999998E-03   3.8000000E-01
  2.0799999E+00   9.9999998E-03  -4.0000001E-01
  2.0799999E+00   9.9999998E-03  -3.8000000E-01
  2.0799999E+00   9.9999998E-03  -3.6000001E-01
  2.0799999E+00   9.9999998E-03  -3.4000000E-01
  2.0799999E+00   9.9999998E-03  -3.1999999E-01
  2.0799999E+00   9.9999998E-03  -3.0000001E-01
  2.0799999E+00   9.9999998E-03  -2.8000000E-01
  2.0799999E+00   9.9999998E-03  -2.5999999E-01
  2.0799999E+00   9.9999998E-03  -2.3999999E-01
  2.0799999E+00   9.9999998E-03  -2.2000000E-01
  2.0799999E+00   9.9999998E-03  -2.0000000E-01
  2.0799999E+00   9.9999998E-03  -1.8000001E-01
  2.0799999E+00   9.9999998E-03  -1.6000000E-01
  2.0799999E+00   9.9999998E-03  -1.4000000E-01
  2.0799999E+00   9.9999998E-03  -1.2000000E-01
  2.0799999E+00   9.9999998E-03  -1.0000000E-01
  2.0799999E+00   9.9999998E-03  -7.9999998E-02
  2.0799999E+00   9.9999998E-03  -5.9999999E-02
  2.0799999E+00   9.9999998E-03  -3.9999999E-02
  2.0799999E+00   9.9999998E-03  -2.0000000E-02
  2.0799999E+00   9.9999998E-03   0.0000000E+00
  2.0799999E+00   9.9999998E-03   2.0000000E-02
  2.0799999E+00   9.9999998E-03   3.9999999E-02
  2.0799999E+00   9.9999998E-03   5.9999999E-02
  2.0799999E+00   9.9999998E-03   7.9999998E-02
  2.0799999E+00   9.9999998E-03   1.0000000E-01
  2.0799999E+00   9.9999998E-03   1.2000000E-01
  2.0799999E+00   9.9999998E-03   1.4000000E-01
  2.0799999E+00   9.9999998E-03   1.6000000E-01
  2.0799999E+00   9.9999998E-03   1.8000001E-01
  2.0799999E+00   9.9999998E-03   2.0000000E-01
  2.0799999E+00   9.9999998E-03   2.2000000E-01
  2.0799999E+00   9.9999998E-03   2.3999999E-01
  2.0799999E+00   9.9999998E-03   2.5999999E-01
  2.0799999E+00   9.9999998E-03   2.8000000E-01
  2.0799999E+00   9.9999998E-03   3.0000001E-01
  2.0799999E+00   9.9999998E-03   3.1999999E-01
  2.0799999E+00   9.9999998E-03   3.4000000E-01
  2.0799999E+00   9.9999998E-03   3.6000001E-01
  2.0799999E+00   9.9999998E-03   3.8000000E-01
  2.0799999E+00   9.9999998E-03   4.0000001E-01
  2.0999999E+00   9.9999998E-03  -4.0000001E-01
  2.0999999E+00   9.9999998E-03  -3.8000000E-01
  2.0999999E+00   9.9999998E-03  -3.6000001E-01
  2.0999999E+00   9.9999998E-03  -3.4000000E-01
  2.0999999E+00   9.9999998E-03  -3.1999999E-01
  2.0999999E+00   9.9999998E-03  -3.0000001E-01
  2.0999999E+00   9.9999998E-03  -2.8000000E-01
  2.0999999E+00   9.9999998E-03  -2.5999999E-01
  2.0999999E+00   9.9999998E-03  -2.3999999E-01
  2.0999999E+00   9.9999998E-03  -2.2000000E-01
  2.0999999E+00   9.9999998E-03  -2.0000000E-01
  2.0999999E+00   9.9999998E-03  -1.8000001E-01
  2.0999999E+00   9.9999998E-03  -1.6000000E-01
  2.0999999E+00   9.9999998E-03  -1.4000000E-01
  2.0999999E+00   9.9999998E-03  -1.2000000E-01
  2.0999999E+00   9.9999998E-03  -1.0000000E-01
  2.0999999E+00   9.9999998E-03  -7.9999998E-02
  2.0999999E+00   9.9999998E-03  -5.9999999E-02
  2.0999999E+00   9.9999998E-03  -3.9999999E-02
  2.0999999E+00   9.9999998E-03  -2.0000000E-02
  2.0999999E+00   9.9999998E-03   0.0000000E+00
  2.0999999E+00   9.9999998E-03   2.0000000E-02
  2.0999999E+00   9.9999998E-03   3.9999999E-02
  2.0999999E+00   9.9999998E-03   5.9999999E-02
  2.0999999E+00   9.9999998E-03   7.9999998E-02
  2.0999999E+00   9.9999998E-03   1.0000000E-01
  2.0999999E+00   9.9999998E-03   1.2000000E-01
  2.0999999E+00   9.9999998E-03   1.4000000E-01
  2.0999999E+00   9.9999998E-03   1.6000000E-01
  2.0999999E+00   9.9999998E-03   1.8000001E-01
  2.0999999E+00   9.9999998E-03   2.0000000E-01
  2.0999999E+00   9.9999998E-03   2.2000000E-01
  2.0999999E+00   9.9999998E-03   2.3999999E-01
  2.0999999E+00   9.9999998E-03   2.5999999E-01
  2.0999999E+00   9.9999998E-03   2.8000000E-01
  2.0999999E+00   9.9999998E-03   3.0000001E-01
  2.0999999E+00   9.9999998E-03   3.1999999E-01
  2.0999999E+00   9.9999998E-03   3.4000000E-01
  2.0999999E+00   9.9999998E-03   3.6000001E-01
  2.0999999E+00   9.9999998E-03   3.8000000E-01
  2.0999999E+00   9.9999998E-03   4.0000001E-01
  2.1199999E+00   9.9999998E-03  -4.1999999E-01
  2.1199999E+00   9.9999998E-03  -4.0000001E-01
  2.1199999E+00   9.9999998E-03  -3.8000000E-01
  2.1199999E+00   9.9999998E-03  -3.6000001E-01
  2.1199999E+00   9.9999998E-03  -3.4000000E-01
  2.1199999E+00   9.9999998E-03  -3.1999999E-01
  2.1199999E+00   9.9999998E-03  -3.0000001E-01
  2.1199999E+00   9.9999998E-03  -2.8000000E-01
  2.1199999E+00   9.9999998E-03  -2.5999999E-01
  2.1199999E+00   9.9999998E-03  -2.3999999E-01
  2.1199999E+00   9.9999998E-03  -2.2000000E-01
  2.1199999E+00   9.9999998E-03  -2.0000000E-01
  2.1199999E+00   9.9999998E-03  -1.8000001E-01
  2.1199999E+00   9.9999998E-03  -1.6000000E-01
  2.1199999E+00   9.9999998E-03  -1.4000000E-01
  2.1199999E+00   9.9999998E-03  -1.2000000E-01
  2.1199999E+00   9.9999998E-03  -1.0000000E-01
  2.1199999E+00   9.9999998E-03  -7.9999998E-02
  2.1199999E+00   9.9999998E-03  -5.9999999E-02
  2.1199999E+00   9.9999998E-03  -3.9999999E-02
  2.1199999E+00   9.9999998E-03  -2.0000000E-02
  2.1199999E+00   9.9999998E-03   0.0000000E+00
  2.1199999E+00   9.9999998E-03   2.0000000E-02
  2.1199999E+00   9.9999998E-03   3.9999999E-02
  2.1199999E+00   9.9999998E-03   5.9999999E-02
  2.1199999E+00   9.9999998E-03   7.9999998E-02
  2.1199999E+00   9.9999998E-03   1.0000000E-01
  2.1199999E+00   9.9999998E-03   1.2000000E-01
  2.1199999E+00   9.9999998E-03   1.4000000E-01
  2.1199999E+00   9.9999998E-03   1.6000000E-01
  2.1199999E+00   9.9999998E-03   1.8000001E-01
  2.1199999E+00   9.9999998E-03   2.0000000E-01
  2.1199999E+00   9.9999998E-03   2.2000000E-01
  2.1199999E+00   9.9999998E-03   2.3999999E-01
  2.1199999E+00   9.9999998E-03   2.5999999E-01
  2.1199999E+00   9.9999998E-03   2.8000000E-01
  2.1199999E+00   9.9999998E-03   3.0000001E-01
  2.1199999E+00   9.9999998E-03   3.1999999E-01
  2.1199999E+00   9.9999998E-03   3.4000000E-01
  2.1199999E+00   9.9999998E-03   3.6000001E-01
  2.1199999E+00   9.9999998E-03   3.8000000E-01
  2.1199999E+00   9.9999998E-03   4.0000001E-01
  2.1400001E+00   9.9999998E-03  -3.8000000E-01
  2.1400001E+00   9.9999998E-03  -3.6000001E-01
  2.1400001E+00   9.9999998E-03  -3.4000000E-01
  2.1400001E+00   9.9999998E-03  -3.1999999E-01
  2.1400001E+00   9.9999998E-03  -3.0000001E-01
  2.1400001E+00   9.9999998E-03  -2.8000000E-01
  2.1400001E+00   9.9999998E-03  -2.5999999E-01
  2.1400001E+00   9.9999998E-03  -2.3999999E-01
  2.1400001E+00   9.9999998E-03  -2.2000000E-01
  2.1400001E+00   9.9999998E-03  -2.0000000E-01
  2.1400001E+00   9.9999998E-03  -1.8000001E-01
  2.1400001E+00   9.9999998E-03  -1.6000000E-01
  2.1400001E+00   9.9999998E-03  -1.4000000E-01
  2.1400001E+00   9.9999998E-03  -1.2000000E-01
  2.1400001E+00   9.9999998E-03  -1.0000000E-01
  2.1400001E+00   9.9999998E-03  -7.9999998E-02
  2.1400001E+00   9.9999998E-03  -5.9999999E-02
  2.1400001E+00   9.9999998E-03  -3.9999999E-02
  2.1400001E+00   9.9999998E-03  -2.0000000E-02
  2.1400001E+00   9.9999998E-03   0.0000000E+00
  2.1400001E+00   9.9999998E-03   2.0000000E-02
  2.1400001E+00   9.9999998E-03   3.9999999E-02
  2.1400001E+00   9.9999998E-03   5.9999999E-02
  2.1400001E+00   9.9999998E-03   7.9999998E-02
  2.1400001E+00   9.9999998E-03   1.0000000E-01
  2.1400001E+00   9.9999998E-03   1.2000000E-01
  2.1400001E+00   9.9999998E-03   1.4000000E-01
  2.1400001E+00   9.9999998E-03   1.6000000E-01
  2.1400001E+00   9.9999998E-03   1.8000001E-01
  2.1400001E+00   9.9999998E-03   2.0000000E-01
  2.1400001E+00   9.9999998E-03   2.2000000E-01
  2.1400001E+00   9.9999998E-03   2.3999999E-01
  2.1400001E+00   9.9999998E-03   2.5999999E-01
  2.1400001E+00   9.9999998E-03   2.8000000E-01
  2.1400001E+00   9.9999998E-03   3.0000001E-01
  2.1400001E+00   9.9999998E-03   3.1999999E-01
  2.1400001E+00   9.9999998E-03   3.4000000E-01
  2.1400001E+00   9.9999998E-03   3.6000001E-01
  2.1400001E+00   9.9999998E-03   3.8000000E-01
  2.1400001E+00   9.9999998E-03   4.0000001E-01
  2.1600001E+00   9.9999998E-03  -2.8000000E-01
  2.1600001E+00   9.9999998E-03  -2.5999999E-01
  2.1600001E+00   9.9999998E-03  -2.3999999E-01
  2.1600001E+00   9.9999998E-03  -2.2000000E-01
  2.1600001E+00   9.9999998E-03  -2.0000000E-01
  2.1600001E+00   9.9999998E-03  -1.8000001E-01
  2.1600001E+00   9.9999998E-03  -1.6000000E-01
  2.1600001E+00   9.9999998E-03  -1.4000000E-01
  2.1600001E+00   9.9999998E-03  -1.2000000E-01
  2.1600001E+00   9.9999998E-03  -1.0000000E-01
  2.1600001E+00   9.9999998E-03  -7.9999998E-02
  2.1600001E+00   9.9999998E-03  -5.9999999E-02
  2.1600001E+00   9.9999998E-03  -3.9999999E-02
  2.1600001E+00   9.9999998E-03  -2.0000000E-02
  2.1600001E+00   9.9999998E-03   0.0000000E+00
  2.1600001E+00   9.9999998E-03   2.0000000E-02
  2.1600001E+00   9.9999998E-03   3.9999999E-02
  2.1600001E+00   9.9999998E-03   5.9999999E-02
  2.1600001E+00   9.9999998E-03   7.9999998E-02
  2.1600001E+00   9.9999998E-03   1.0000000E-01
  2.1600001E+00   9.9999998E-03   1.2000000E-01
  2.1600001E+00   9.9999998E-03   1.4000000E-01
  2.1600001E+00   9.9999998E-03   1.6000000E-01
  2.1600001E+00   9.9999998E-03   1.8000001E-01
  2.1600001E+00   9.9999998E-03   2.0000000E-01
  2.1600001E+00   9.9999998E-03   2.2000000E-01
  2.1600001E+00   9.9999998E-03   2.3999999E-01
  2.1600001E+00   9.9999998E-03   2.5999999E-01
  2.1600001E+00   9.9999998E-03   2.8000000E-01
  2.1600001E+00   9.9999998E-03   3.0000001E-01
  2.1600001E+00   9.9999998E-03   3.1999999E-01
  2.1600001E+00   9.9999998E-03   3.4000000E-01
  2.1600001E+00   9.9999998E-03   3.6000001E-01
  2.1600001E+00   9.9999998E-03   3.8000000E-01
  2.1600001E+00   9.9999998E-03   4.0000001E-01
  2.1800001E+00   9.9999998E-03  -1.8000001E-01
  2.1800001E+00   9.9999998E-03  -1.6000000E-01
  2.1800001E+00   9.9999998E-03  -1.4000000E-01
  2.1800001E+00   9.9999998E-03  -1.2000000E-01
  2.1800001E+00   9.9999998E-03  -1.0000000E-01
  2.1800001E+00   9.9999998E-03  -7.9999998E-02
  2.1800001E+00   9.9999998E-03  -5.9999999E-02
  2.1800001E+00   9.9999998E-03  -3.9999999E-02
  2.1800001E+00   9.9999998E-03  -2.0000000E-02
  2.1800001E+00   9.9999998E-03   0.0000000E+00
  2.1800001E+00   9.9999998E-03   2.0000000E-02
  2.1800001E+00   9.9999998E-03   3.9999999E-02
  2.1800001E+00   9.9999998E-03   5.9999999E-02
  2.1800001E+00   9.9999998E-03   7.9999998E-02
  2.1800001E+00   9.9999998E-03   1.0000000E-01
  2.1800001E+00   9.9999998E-03   1.2000000E-01
  2.1800001E+00   9.9999998E-03   1.4000000E-01
  2.1800001E+00   9.9999998E-03   1.6000000E-01
  2.1800001E+00   9.9999998E-03   1.8000001E-01
  2.1800001E+00   9.9999998E-03   2.0000000E-01
  2.1800001E+00   9.9999998E-03   2.2000000E-01
  2.1800001E+00   9.9999998E-03   2.3999999E-01
  2.1800001E+00   9.9999998E-03   2.5999999E-01
  2.1800001E+00   9.9999998E-03   2.8000000E-01
  2.1800001E+00   9.9999998E-03   3.0000001E-01
  2.1800001E+00   9.9999998E-03   3.1999999E-01
  2.1800001E+00   9.9999998E-03   3.4000000E-01
  2.1800001E+00   9.9999998E-03   3.6000001E-01
  2.1800001E+00   9.9999998E-03   3.8000000E-01
  2.1800001E+00   9.9999998E-03   4.0000001E-01
  2.2000000E+00   9.9999998E-03  -7.9999998E-02
  2.2000000E+00   9.9999998E-03  -5.9999999E-02
  2.2000000E+00   9.9999998E-03  -3.9999999E-02
  2.2000000E+00   9.9999998E-03  -2.0000000E-02
  2.2000000E+00   9.9999998E-03   0.0000000E+00
  2.2000000E+00   9.9999998E-03   2.0000000E-02
  2.2000000E+00   9.9999998E-03   3.9999999E-02
  2.2000000E+00   9.9999998E-03   5.9999999E-02
  2.2000000E+00   9.9999998E-03   7.9999998E-02
  2.2000000E+00   9.9999998E-03   1.0000000E-01
  2.2000000E+00   9.9999998E-03   1.2000000E-01
  2.2000000E+00   9.9999998E-03   1.4000000E-01
  2.2000000E+00   9.9999998E-03   1.6000000E-01
  2.2000000E+00   9.9999998E-03   1.8000001E-01
  2.2000000E+00   9.9999998E-03   2.0000000E-01
  2.2000000E+00   9.9999998E-03   2.2000000E-01
  2.2000000E+00   9.9999998E-03   2.3999999E-01
  2.2000000E+00   9.9999998E-03   2.5999999E-01
  2.2000000E+00   9.9999998E-03   2.8000000E-01
  2.2000000E+00   9.9999998E-03   3.0000001E-01
  2.2000000E+00   9.9999998E-03   3.1999999E-01
  2.2000000E+00   9.9999998E-03   3.4000000E-01
  2.2000000E+00   9.9999998E-03   3.6000001E-01
  2.2000000E+00   9.9999998E-03   3.8000000E-01
  2.2200000E+00   9.9999998E-03   2.0000000E-02
  2.2200000E+00   9.9999998E-03   3.9999999E-02
  2.2200000E+00   9.9999998E-03   5.9999999E-02
  2.2200000E+00   9.9999998E-03   7.9999998E-02
  2.2200000E+00   9.9999998E-03   1.0000000E-01
  2.2200000E+00   9.9999998E-03   1.2000000E-01
  2.2200000E+00   9.9999998E-03   1.4000000E-01
  2.2200000E+00   9.9999998E-03   1.6000000E-01
  2.2200000E+00   9.9999998E-03   1.8000001E-01
  2.2200000E+00   9.9999998E-03   2.0000000E-01
  2.2200000E+00   9.9999998E-03   2.2000000E-01
  2.2200000E+00   9.9999998E-03   2.3999999E-01
  2.2200000E+00   9.9999998E-03   2.5999999E-01
  2.2200000E+00   9.9999998E-03   2.8000000E-01
  2.2200000E+00   9.9999998E-03   3.0000001E-01
  2.2200000E+00   9.9999998E-03   3.1999999E-01
  2.2200000E+00   9.9999998E-03   3.4000000E-01
  2.2200000E+00   9.9999998E-03   3.6000001E-01
  2.2200000E+00   9.9999998E-03   3.8000000E-01
  2.2400000E+00   9.9999998E-03   1.2000000E-01
  2.2400000E+00   9.9999998E-03   1.4000000E-01
  2.2400000E+00   9.9999998E-03   1.6000000E-01
  2.2400000E+00   9.9999998E-03   1.8000001E-01
  2.2400000E+00   9.9999998E-03   2.0000000E-01
  2.2400000E+00   9.9999998E-03   2.2000000E-01
  2.2400000E+00   9.9999998E-03   2.3999999E-01
  2.2400000E+00   9.9999998E-03   2.5999999E-01
  2.2400000E+00   9.9999998E-03   2.8000000E-01
  2.2400000E+00   9.9999998E-03   3.0000001E-01
  2.2400000E+00   9.9999998E-03   3.1999999E-01
  2.2400000E+00   9.9999998E-03   3.4000000E-01
  2.2400000E+00   9.9999998E-03   3.6000001E-01
  2.2400000E+00   9.9999998E-03   3.8000000E-01
  2.2600000E+00   9.9999998E-03   2.2000000E-01
  2.2600000E+00   9.9999998E-03   2.3999999E-01
  2.2600000E+00   9.9999998E-03   2.5999999E-01
  2.2600000E+00   9.9999998E-03   2.8000000E-01
  2.2600000E+00   9.9999998E-03   3.0000001E-01
  2.2600000E+00   9.9999998E-03   3.1999999E-01
  2.2600000E+00   9.9999998E-03   3.4000000E-01
  2.2600000E+00   9.9999998E-03   3.6000001E-01
  2.2600000E+00   9.9999998E-03   3.8000000E-01
  2.2800000E+00   9.9999998E-03   3.1999999E-01
  2.2800000E+00   9.9999998E-03   3.4000000E-01
  2.2800000E+00   9.9999998E-03   3.6000001E-01
 -9.7374331E-10   9.9999998E-03  -2.8000000E-01
 -1.1822030E-09   9.9999998E-03  -2.5999999E-01
 -1.3593044E-09   9.9999998E-03  -2.3999999E-01
 -1.5051894E-09   9.9999998E-03  -2.2000000E-01
 -1.6247842E-09   9.9999998E-03  -2.0000000E-01
  2.0000000E-02   9.9999998E-03  -3.0000001E-01
  1.9999998E-02   9.9999998E-03  -2.8000000E-01
  1.9999998E-02   9.9999998E-03  -2.5999999E-01
  1.9999998E-02   9.9999998E-03  -2.3999999E-01
  1.9999998E-02   9.9999998E-03  -2.2000000E-01
  1.9999998E-02   9.9999998E-03  -2.0000000E-01
  3.9999999E-02   9.9999998E-03  -3.0000001E-01
  3.9999999E-02   9.9999998E-03  -2.8000000E-01
  3.9999995E-02   9.9999998E-03  -2.5999999E-01
  3.9999995E-02   9.9999998E-03  -2.3999999E-01
  3.9999995E-02   9.9999998E-03  -2.2000000E-01
  3.9999995E-02   9.9999998E-03  -2.0000000E-01
  5.9999999E-02   9.9999998E-03  -3.0000001E-01
  5.9999995E-02   9.9999998E-03  -2.8000000E-01
  5.9999995E-02   9.9999998E-03  -2.5999999E-01
  5.9999995E-02   9.9999998E-03  -2.3999999E-01
  5.9999995E-02   9.9999998E-03  -2.2000000E-01
  5.9999995E-02   9.9999998E-03  -2.0000000E-01
  7.9999998E-02   9.9999998E-03  -3.0000001E-01
  7.9999998E-02   9.9999998E-03  -2.8000000E-01
  7.9999991E-02   9.9999998E-03  -2.5999999E-01
  7.9999991E-02   9.9999998E-03  -2.3999999E-01
  7.9999991E-02   9.9999998E-03  -2.2000000E-01
  7.9999991E-02   9.9999998E-03  -2.0000000E-01
  9.9999994E-02   9.9999998E-03  -3.0000001E-01
  9.9999994E-02   9.9999998E-03  -2.8000000E-01
  9.9999994E-02   9.9999998E-03  -2.5999999E-01
  9.9999987E-02   9.9999998E-03  -2.3999999E-01
  9.9999987E-02   9.9999998E-03  -2.2000000E-01
  9.9999987E-02   9.9999998E-03  -2.0000000E-01
  1.1999999E-01   9.9999998E-03  -3.0000001E-01
  1.1999999E-01   9.9999998E-03  -2.8000000E-01
  1.1999998E-01   9.9999998E-03  -2.5999999E-01
  1.1999998E-01   9.9999998E-03  -2.4000001E-01
  1.1999998E-01   9.9999998E-03  -2.2000000E-01
  1.1999998E-01   9.9999998E-03  -2.0000000E-01
  1.3999999E-01   9.9999998E-03  -3.0000001E-01
  1.3999999E-01   9.9999998E-03  -2.8000000E-01
  1.3999999E-01   9.9999998E-03  -2.5999999E-01
  1.3999997E-01   9.9999998E-03  -2.4000001E-01
  1.3999997E-01   9.9999998E-03  -2.2000000E-01
  1.3999997E-01   9.9999998E-03  -2.0000000E-01
  1.5999998E-01   9.9999998E-03  -3.0000001E-01
  1.5999998E-01   9.9999998E-03  -2.8000000E-01
  1.5999997E-01   9.9999998E-03  -2.6000002E-01
  1.5999997E-01   9.9999998E-03  -2.4000001E-01
  1.5999997E-01   9.9999998E-03  -2.2000000E-01
  1.5999997E-01   9.9999998E-03  -2.0000000E-01
  1.7999998E-01   9.9999998E-03  -3.0000001E-01
  1.7999996E-01   9.9999998E-03  -2.8000000E-01
  1.7999996E-01   9.9999998E-03  -2.6000002E-01
  1.7999995E-01   9.9999998E-03  -2.4000001E-01
  1.7999995E-01   9.9999998E-03  -2.2000001E-01
  1.7999995E-01   9.9999998E-03  -2.0000000E-01
  1.9999996E-01   9.9999998E-03  -3.0000001E-01
  1.9999994E-01   9.9999998E-03  -2.8000000E-01
  1.9999994E-01   9.9999998E-03  -2.6000002E-01
  1.9999993E-01   9.9999998E-03  -2.4000001E-01
  1.9999993E-01   9.9999998E-03  -2.2000001E-01
  1.9999993E-01   9.9999998E-03  -2.0000000E-01
  2.1999994E-01   9.9999998E-03  -3.0000001E-01
  2.1999992E-01   9.9999998E-03  -2.8000003E-01
  2.1999991E-01   9.9999998E-03  -2.6000002E-01
  2.1999991E-01   9.9999998E-03  -2.4000001E-01
  2.1999989E-01   9.9999998E-03  -2.2000001E-01
  2.1999989E-01   9.9999998E-03  -2.0000002E-01
  2.3999991E-01   9.9999998E-03  -3.0000004E-01
  2.3999989E-01   9.9999998E-03  -2.8000003E-01
  2.3999988E-01   9.9999998E-03  -2.6000002E-01
  2.3999988E-01   9.9999998E-03  -2.4000002E-01
  2.3999986E-01   9.9999998E-03  -2.2000001E-01
  2.3999986E-01   9.9999998E-03  -2.0000002E-01
  2.5999987E-01   9.9999998E-03  -3.0000007E-01
  2.5999984E-01   9.9999998E-03  -2.8000006E-01
  2.5999984E-01   9.9999998E-03  -2.6000005E-01
  2.5999981E-01   9.9999998E-03  -2.4000002E-01
  2.5999981E-01   9.9999998E-03  -2.2000003E-01
  2.5999981E-01   9.9999998E-03  -2.0000002E-01
  2.7999979E-01   9.9999998E-03  -3.0000010E-01
  2.7999979E-01   9.9999998E-03  -2.8000009E-01
  2.7999976E-01   9.9999998E-03  -2.6000005E-01
  2.7999973E-01   9.9999998E-03  -2.4000004E-01
  2.7999973E-01   9.9999998E-03  -2.2000003E-01
  2.7999973E-01   9.9999998E-03  -2.0000003E-01
  2.9999971E-01   9.9999998E-03  -3.0000013E-01
  2.9999968E-01   9.9999998E-03  -2.8000012E-01
  2.9999965E-01   9.9999998E-03  -2.6000008E-01
  2.9999965E-01   9.9999998E-03  -2.4000005E-01
  2.9999962E-01   9.9999998E-03  -2.2000004E-01
  2.9999962E-01   9.9999998E-03  -2.0000003E-01
  3.1999961E-01   9.9999998E-03  -3.0000019E-01
  3.1999958E-01   9.9999998E-03  -2.8000015E-01
  3.1999955E-01   9.9999998E-03  -2.6000011E-01
  3.1999952E-01   9.9999998E-03  -2.4000008E-01
  3.1999952E-01   9.9999998E-03  -2.2000006E-01
  3.1999949E-01   9.9999998E-03  -2.0000005E-01
  3.3999944E-01   9.9999998E-03  -3.0000025E-01
  3.3999941E-01   9.9999998E-03  -2.8000021E-01
  3.3999938E-01   9.9999998E-03  -2.6000014E-01
  3.3999935E-01   9.9999998E-03  -2.4000011E-01
  3.3999932E-01   9.9999998E-03  -2.2000009E-01
  3.3999932E-01   9.9999998E-03  -2.0000006E-01
  3.5999924E-01   9.9999998E-03  -3.0000037E-01
  3.5999918E-01   9.9999998E-03  -2.8000027E-01
  3.5999912E-01   9.9999998E-03  -2.6000020E-01
  3.5999909E-01   9.9999998E-03  -2.4000014E-01
  3.5999909E-01   9.9999998E-03  -2.2000012E-01
  3.5999906E-01   9.9999998E-03  -2.0000008E-01
  3.7999895E-01   9.9999998E-03  -3.0000049E-01
  3.7999889E-01   9.9999998E-03  -2.8000036E-01
  3.7999883E-01   9.9999998E-03  -2.6000026E-01
  3.7999877E-01   9.9999998E-03  -2.4000019E-01
  3.7999877E-01   9.9999998E-03  -2.2000015E-01
  3.7999874E-01   9.9999998E-03  -2.0000011E-01
  3.9999858E-01   9.9999998E-03  -3.0000064E-01
  3.9999849E-01   9.9999998E-03  -2.8000048E-01
  3.9999840E-01   9.9999998E-03  -2.6000035E-01
  3.9999837E-01   9.9999998E-03  -2.4000025E-01
  3.9999834E-01   9.9999998E-03  -2.2000019E-01
  3.9999834E-01   9.9999998E-03  -2.0000014E-01
  4.1999808E-01   9.9999998E-03  -3.0000088E-01
  4.1999793E-01   9.9999998E-03  -2.8000063E-01
  4.1999784E-01   9.9999998E-03  -2.6000044E-01
  4.1999781E-01   9.9999998E-03  -2.4000032E-01
  4.1999781E-01   9.9999998E-03  -2.2000024E-01
  4.1999781E-01   9.9999998E-03  -2.0000018E-01
  4.3999738E-01   9.9999998E-03  -3.0000114E-01
  4.3999720E-01   9.9999998E-03  -2.8000084E-01
  4.3999711E-01   9.9999998E-03  -2.6000056E-01
  4.3999708E-01   9.9999998E-03  -2.4000041E-01
  4.3999711E-01   9.9999998E-03  -2.2000031E-01
  4.3999711E-01   9.9999998E-03  -2.0000024E-01
  4.5999643E-01   9.9999998E-03  -3.0000150E-01
  4.5999622E-01   9.9999998E-03  -2.8000107E-01
  4.5999616E-01   9.9999998E-03  -2.6000074E-01
  4.5999613E-01   9.9999998E-03  -2.4000053E-01
  4.5999616E-01   9.9999998E-03  -2.2000042E-01
  4.5999622E-01   9.9999998E-03  -2.0000035E-01
  4.7999513E-01   9.9999998E-03  -3.0000198E-01
  4.7999492E-01   9.9999998E-03  -2.8000137E-01
  4.7999489E-01   9.9999998E-03  -2.6000094E-01
  4.7999492E-01   9.9999998E-03  -2.4000071E-01
  4.7999498E-01   9.9999998E-03  -2.2000057E-01
  4.7999504E-01   9.9999998E-03  -2.0000048E-01
  4.9999335E-01   9.9999998E-03  -3.0000263E-01
  4.9999321E-01   9.9999998E-03  -2.8000179E-01
  4.9999323E-01   9.9999998E-03  -2.6000124E-01
  4.9999335E-01   9.9999998E-03  -2.4000098E-01
  4.9999347E-01   9.9999998E-03  -2.2000082E-01
  4.9999356E-01   9.9999998E-03  -2.0000072E-01
  5.1999092E-01   9.9999998E-03  -3.0000353E-01
  5.1999098E-01   9.9999998E-03  -2.8000236E-01
  5.1999116E-01   9.9999998E-03  -2.6000169E-01
  5.1999140E-01   9.9999998E-03  -2.4000141E-01
  5.1999158E-01   9.9999998E-03  -2.2000122E-01
  5.1999170E-01   9.9999998E-03  -2.0000106E-01
  5.3998774E-01   9.9999998E-03  -3.0000481E-01
  5.3998816E-01   9.9999998E-03  -2.8000325E-01
  5.3998870E-01   9.9999998E-03  -2.6000243E-01
  5.3998905E-01   9.9999998E-03  -2.4000210E-01
  5.3998929E-01   9.9999998E-03  -2.2000182E-01
  5.3998941E-01   9.9999998E-03  -2.0000154E-01
  5.5998367E-01   9.9999998E-03  -3.0000681E-01
  5.5998486E-01   9.9999998E-03  -2.8000474E-01
  5.5998582E-01   9.9999998E-03  -2.6000366E-01
  5.5998635E-01   9.9999998E-03  -2.4000306E-01
  5.5998659E-01   9.9999998E-03  -2.2000259E-01
  5.5998677E-01   9.9999998E-03  -2.0000218E-01
  5.7997888E-01   9.9999998E-03  -3.0000997E-01
  5.7998115E-01   9.9999998E-03  -2.8000730E-01
  5.7998252E-01   9.9999998E-03  -2.6000550E-01
  5.7998317E-01   9.9999998E-03  -2.4000433E-01
  5.7998359E-01   9.9999998E-03  -2.2000356E-01
  5.7998389E-01   9.9999998E-03  -2.0000292E-01
  5.9997392E-01   9.9999998E-03  -3.0001521E-01
  5.9997714E-01   9.9999998E-03  -2.8001153E-01
  5.9997886E-01   9.9999998E-03  -2.6000822E-01
  5.9997988E-01   9.9999998E-03  -2.4000612E-01
  5.9998041E-01   9.9999998E-03  -2.2000474E-01
  5.9998083E-01   9.9999998E-03  -2.0000380E-01
  6.1996955E-01   9.9999998E-03  -3.0002385E-01
  6.1997330E-01   9.9999998E-03  -2.8001890E-01
  6.1997527E-01   9.9999998E-03  -2.6001322E-01
  6.1997640E-01   9.9999998E-03  -2.4000888E-01
  6.1997730E-01   9.9999998E-03  -2.2000635E-01
  6.1997795E-01   9.9999998E-03  -2.0000485E-01
  6.3996655E-01   9.9999998E-03  -3.0003715E-01
  6.3997066E-01   9.9999998E-03  -2.8003100E-01
  6.3997251E-01   9.9999998E-03  -2.6002195E-01
  6.3997346E-01   9.9999998E-03  -2.4001391E-01
  6.3997442E-01   9.9999998E-03  -2.2000889E-01
  6.3997525E-01   9.9999998E-03  -2.0000625E-01
  6.5996575E-01   9.9999998E-03  -3.0005336E-01
  6.5996951E-01   9.9999998E-03  -2.8004646E-01
  6.5997100E-01   9.9999998E-03  -2.6003370E-01
  6.5997159E-01   9.9999998E-03  -2.4002089E-01
  6.5997243E-01   9.9999998E-03  -2.2001265E-01
  6.5997332E-01   9.9999998E-03  -2.0000824E-01
  6.7996812E-01   9.9999998E-03  -3.0006763E-01
  6.7997062E-01   9.9999998E-03  -2.8006035E-01
  6.7997158E-01   9.9999998E-03  -2.6004446E-01
  6.7997175E-01   9.9999998E-03  -2.4002755E-01
  6.7997235E-01   9.9999998E-03  -2.2001630E-01
  6.7997319E-01   9.9999998E-03  -2.0001023E-01
  6.9997436E-01   9.9999998E-03  -3.0007708E-01
  6.9997489E-01   9.9999998E-03  -2.8006956E-01
  6.9997519E-01   9.9999998E-03  -2.6005182E-01
  6.9997519E-01   9.9999998E-03  -2.4003235E-01
  6.9997561E-01   9.9999998E-03  -2.2001918E-01
  6.9997621E-01   9.9999998E-03  -2.0001195E-01
  7.1998203E-01   9.9999998E-03  -3.0008262E-01
  7.1998179E-01   9.9999998E-03  -2.8007454E-01
  7.1998173E-01   9.9999998E-03  -2.6005575E-01
  7.1998191E-01   9.9999998E-03  -2.4003500E-01
  7.1998227E-01   9.9999998E-03  -2.2002091E-01
  7.1998280E-01   9.9999998E-03  -2.0001313E-01
  7.3998892E-01   9.9999998E-03  -3.0008572E-01
  7.3998868E-01   9.9999998E-03  -2.8007710E-01
  7.3998863E-01   9.9999998E-03  -2.6005769E-01
  7.3998874E-01   9.9999998E-03  -2.4003635E-01
  7.3998904E-01   9.9999998E-03  -2.2002187E-01
  7.3998934E-01   9.9999998E-03  -2.0001388E-01
  7.5999433E-01   9.9999998E-03  -3.0008733E-01
  7.5999415E-01   9.9999998E-03  -2.8007838E-01
  7.5999409E-01   9.9999998E-03  -2.6005858E-01
  7.5999415E-01   9.9999998E-03  -2.4003702E-01
  7.5999433E-01   9.9999998E-03  -2.2002241E-01
  7.5999451E-01   9.9999998E-03  -2.0001431E-01
  7.7999830E-01   9.9999998E-03  -3.0008805E-01
  7.7999824E-01   9.9999998E-03  -2.8007886E-01
  7.7999818E-01   9.9999998E-03  -2.6005891E-01
  7.7999818E-01   9.9999998E-03  -2.4003726E-01
  7.7999824E-01   9.9999998E-03  -2.2002263E-01
  7.7999830E-01   9.9999998E-03  -2.0001452E-01
  8.0000144E-01   9.9999998E-03  -3.0008814E-01
  8.0000144E-01   9.9999998E-03  -2.8007886E-01
  8.0000138E-01   9.9999998E-03  -2.6005885E-01
  8.0000132E-01   9.9999998E-03  -2.4003723E-01
  8.0000132E-01   9.9999998E-03  -2.2002263E-01
  8.0000126E-01   9.9999998E-03  -2.0001455E-01
  8.2000428E-01   9.9999998E-03  -3.0008778E-01
  8.2000434E-01   9.9999998E-03  -2.8007853E-01
  8.2000428E-01   9.9999998E-03  -2.6005855E-01
  8.2000422E-01   9.9999998E-03  -2.4003699E-01
  8.2000411E-01   9.9999998E-03  -2.2002244E-01
  8.2000399E-01   9.9999998E-03  -2.0001441E-01
  8.4000719E-01   9.9999998E-03  -3.0008626E-01
  8.4000725E-01   9.9999998E-03  -2.8007716E-01
  8.4000725E-01   9.9999998E-03  -2.6005748E-01
  8.4000713E-01   9.9999998E-03  -2.4003628E-01
  8.4000695E-01   9.9999998E-03  -2.2002199E-01
  8.4000677E-01   9.9999998E-03  -2.0001411E-01
  8.6001015E-01   9.9999998E-03  -3.0008361E-01
  8.6001021E-01   9.9999998E-03  -2.8007475E-01
  8.6001021E-01   9.9999998E-03  -2.6005566E-01
  8.6001009E-01   9.9999998E-03  -2.4003510E-01
  8.6000985E-01   9.9999998E-03  -2.2002126E-01
  8.6000955E-01   9.9999998E-03  -2.0001364E-01
  8.8001293E-01   9.9999998E-03  -3.0007991E-01
  8.8001305E-01   9.9999998E-03  -2.8007135E-01
  8.8001305E-01   9.9999998E-03  -2.6005310E-01
  8.8001287E-01   9.9999998E-03  -2.4003346E-01
  8.8001257E-01   9.9999998E-03  -2.2002026E-01
  8.8001221E-01   9.9999998E-03  -2.0001301E-01
  9.0001529E-01   9.9999998E-03  -3.0007529E-01
  9.0001547E-01   9.9999998E-03  -2.8006715E-01
  9.0001547E-01   9.9999998E-03  -2.6004988E-01
  9.0001523E-01   9.9999998E-03  -2.4003144E-01
  9.0001488E-01   9.9999998E-03  -2.2001904E-01
  9.0001446E-01   9.9999998E-03  -2.0001224E-01
  9.2001718E-01   9.9999998E-03  -3.0006999E-01
  9.2001724E-01   9.9999998E-03  -2.8006229E-01
  9.2001730E-01   9.9999998E-03  -2.6004621E-01
  9.2001706E-01   9.9999998E-03  -2.4002911E-01
  9.2001665E-01   9.9999998E-03  -2.2001764E-01
  9.2001611E-01   9.9999998E-03  -2.0001134E-01
  9.4001836E-01   9.9999998E-03  -3.0006421E-01
  9.4001842E-01   9.9999998E-03  -2.8005701E-01
  9.4001848E-01   9.9999998E-03  -2.6004222E-01
  9.4001824E-01   9.9999998E-03  -2.4002656E-01
  9.4001764E-01   9.9999998E-03  -2.2001612E-01
  9.4001681E-01   9.9999998E-03  -2.0001040E-01
  9.6001911E-01   9.9999998E-03  -3.0005825E-01
  9.6001911E-01   9.9999998E-03  -2.8005159E-01
  9.6001905E-01   9.9999998E-03  -2.6003808E-01
  9.6001863E-01   9.9999998E-03  -2.4002391E-01
  9.6001774E-01   9.9999998E-03  -2.2001453E-01
  9.6001679E-01   9.9999998E-03  -2.0000945E-01
  9.8001975E-01   9.9999998E-03  -3.0005231E-01
  9.8001957E-01   9.9999998E-03  -2.8004619E-01
  9.8001927E-01   9.9999998E-03  -2.6003397E-01
  9.8001856E-01   9.9999998E-03  -2.4002132E-01
  9.8001748E-01   9.9999998E-03  -2.2001296E-01
  9.8001641E-01   9.9999998E-03  -2.0000850E-01
  1.0000207E+00   9.9999998E-03  -3.0004659E-01
  1.0000201E+00   9.9999998E-03  -2.8004101E-01
  1.0000193E+00   9.9999998E-03  -2.6003012E-01
  1.0000184E+00   9.9999998E-03  -2.4001890E-01
  1.0000170E+00   9.9999998E-03  -2.2001152E-01
  1.0000159E+00   9.9999998E-03  -2.0000760E-01
  1.0200223E+00   9.9999998E-03  -3.0004120E-01
  1.0200210E+00   9.9999998E-03  -2.8003624E-01
  1.0200197E+00   9.9999998E-03  -2.6002672E-01
  1.0200182E+00   9.9999998E-03  -2.4001685E-01
  1.0200166E+00   9.9999998E-03  -2.2001030E-01
  1.0200152E+00   9.9999998E-03  -2.0000684E-01
  1.0400245E+00   9.9999998E-03  -3.0003631E-01
  1.0400224E+00   9.9999998E-03  -2.8003204E-01
  1.0400201E+00   9.9999998E-03  -2.6002392E-01
  1.0400180E+00   9.9999998E-03  -2.4001530E-01
  1.0400159E+00   9.9999998E-03  -2.2000942E-01
  1.0400145E+00   9.9999998E-03  -2.0000622E-01
  1.0600274E+00   9.9999998E-03  -3.0003196E-01
  1.0600241E+00   9.9999998E-03  -2.8002846E-01
  1.0600208E+00   9.9999998E-03  -2.6002181E-01
  1.0600178E+00   9.9999998E-03  -2.4001431E-01
  1.0600154E+00   9.9999998E-03  -2.2000889E-01
  1.0600139E+00   9.9999998E-03  -2.0000578E-01
  1.0800296E+00   9.9999998E-03  -3.0002815E-01
  1.0800256E+00   9.9999998E-03  -2.8002557E-01
  1.0800215E+00   9.9999998E-03  -2.6002038E-01
  1.0800179E+00   9.9999998E-03  -2.4001391E-01
  1.0800152E+00   9.9999998E-03  -2.2000876E-01
  1.0800133E+00   9.9999998E-03  -2.0000558E-01
  1.1000261E+00   9.9999998E-03  -2.8002325E-01
  1.1000220E+00   9.9999998E-03  -2.6001936E-01
  1.1000180E+00   9.9999998E-03  -2.4001394E-01
  1.1000149E+00   9.9999998E-03  -2.2000898E-01
  1.1000129E+00   9.9999998E-03  -2.0000562E-01
  1.1200260E+00   9.9999998E-03  -2.8002116E-01
  1.1200222E+00   9.9999998E-03  -2.6001853E-01
  1.1200184E+00   9.9999998E-03  -2.4001421E-01
  1.1200150E+00   9.9999998E-03  -2.2000954E-01
  1.1200126E+00   9.9999998E-03  -2.0000596E-01
  1.1400222E+00   9.9999998E-03  -2.6001760E-01
  1.1400187E+00   9.9999998E-03  -2.4001443E-01
  1.1400154E+00   9.9999998E-03  -2.2001034E-01
  1.1400126E+00   9.9999998E-03  -2.0000662E-01
  1.1600221E+00   9.9999998E-03  -2.6001662E-01
  1.1600193E+00   9.9999998E-03  -2.4001446E-01
  1.1600161E+00   9.9999998E-03  -2.2001119E-01
  1.1600132E+00   9.9999998E-03  -2.0000763E-01
  1.1800196E+00   9.9999998E-03  -2.4001427E-01
  1.1800170E+00   9.9999998E-03  -2.2001185E-01
  1.1800143E+00   9.9999998E-03  -2.0000874E-01
  1.2000178E+00   9.9999998E-03  -2.2001219E-01
  1.2000157E+00   9.9999998E-03  -2.0000964E-01
  1.2200181E+00   9.9999998E-03  -2.2001220E-01
  1.2200168E+00   9.9999998E-03  -2.0001023E-01
 -1.7210192E-09   9.9999998E-03  -1.8000001E-01
 -1.7976577E-09   9.9999998E-03  -1.6000000E-01
 -1.8579195E-09   9.9999998E-03  -1.4000000E-01
 -1.9050708E-09   9.9999998E-03  -1.2000000E-01
 -1.9412774E-09   9.9999998E-03  -1.0000000E-01
 -1.9685533E-09   9.9999998E-03  -7.9999998E-02
 -1.9883926E-09   9.9999998E-03  -5.9999999E-02
 -2.0018263E-09   9.9999998E-03  -3.9999999E-02
 -2.0096129E-09   9.9999998E-03  -2.0000000E-02
  1.9999998E-02   9.9999998E-03  -1.8000001E-01
  1.9999998E-02   9.9999998E-03  -1.6000000E-01
  1.9999998E-02   9.9999998E-03  -1.4000000E-01
  1.9999998E-02   9.9999998E-03  -1.2000000E-01
  1.9999998E-02   9.9999998E-03  -1.0000000E-01
  1.9999998E-02   9.9999998E-03  -7.9999998E-02
  1.9999998E-02   9.9999998E-03  -5.9999999E-02
  1.9999998E-02   9.9999998E-03  -3.9999999E-02
  1.9999998E-02   9.9999998E-03  -2.0000000E-02
  3.9999995E-02   9.9999998E-03  -1.8000001E-01
  3.9999995E-02   9.9999998E-03  -1.6000000E-01
  3.9999995E-02   9.9999998E-03  -1.4000000E-01
  3.9999995E-02   9.9999998E-03  -1.2000000E-01
  3.9999995E-02   9.9999998E-03  -1.0000000E-01
  3.9999995E-02   9.9999998E-03  -7.9999998E-02
  3.9999995E-02   9.9999998E-03  -5.9999999E-02
  3.9999995E-02   9.9999998E-03  -3.9999999E-02
  3.9999995E-02   9.9999998E-03  -2.0000000E-02
  5.9999995E-02   9.9999998E-03  -1.8000001E-01
  5.9999995E-02   9.9999998E-03  -1.6000000E-01
  5.9999995E-02   9.9999998E-03  -1.4000000E-01
  5.9999995E-02   9.9999998E-03  -1.2000000E-01
  5.9999991E-02   9.9999998E-03  -1.0000000E-01
  5.9999991E-02   9.9999998E-03  -7.9999998E-02
  5.9999991E-02   9.9999998E-03  -5.9999999E-02
  5.9999991E-02   9.9999998E-03  -3.9999999E-02
  5.9999991E-02   9.9999998E-03  -2.0000000E-02
  7.9999991E-02   9.9999998E-03  -1.8000001E-01
  7.9999991E-02   9.9999998E-03  -1.6000000E-01
  7.9999991E-02   9.9999998E-03  -1.4000000E-01
  7.9999991E-02   9.9999998E-03  -1.2000000E-01
  7.9999991E-02   9.9999998E-03  -1.0000000E-01
  7.9999991E-02   9.9999998E-03  -7.9999998E-02
  7.9999991E-02   9.9999998E-03  -5.9999999E-02
  7.9999991E-02   9.9999998E-03  -3.9999999E-02
  7.9999991E-02   9.9999998E-03  -2.0000000E-02
  9.9999987E-02   9.9999998E-03  -1.8000001E-01
  9.9999987E-02   9.9999998E-03  -1.6000000E-01
  9.9999987E-02   9.9999998E-03  -1.4000000E-01
  9.9999987E-02   9.9999998E-03  -1.2000000E-01
  9.9999987E-02   9.9999998E-03  -1.0000000E-01
  9.9999987E-02   9.9999998E-03  -7.9999998E-02
  9.9999987E-02   9.9999998E-03  -5.9999999E-02
  9.9999987E-02   9.9999998E-03  -3.9999999E-02
  9.9999987E-02   9.9999998E-03  -2.0000000E-02
  1.1999998E-01   9.9999998E-03  -1.8000001E-01
  1.1999998E-01   9.9999998E-03  -1.6000000E-01
  1.1999998E-01   9.9999998E-03  -1.4000000E-01
  1.1999998E-01   9.9999998E-03  -1.2000000E-01
  1.1999998E-01   9.9999998E-03  -1.0000000E-01
  1.1999998E-01   9.9999998E-03  -7.9999998E-02
  1.1999998E-01   9.9999998E-03  -5.9999999E-02
  1.1999998E-01   9.9999998E-03  -3.9999999E-02
  1.1999998E-01   9.9999998E-03  -2.0000000E-02
  1.3999997E-01   9.9999998E-03  -1.8000001E-01
  1.3999997E-01   9.9999998E-03  -1.6000000E-01
  1.3999997E-01   9.9999998E-03  -1.4000000E-01
  1.3999997E-01   9.9999998E-03  -1.2000000E-01
  1.3999997E-01   9.9999998E-03  -1.0000000E-01
  1.3999997E-01   9.9999998E-03  -7.9999998E-02
  1.3999997E-01   9.9999998E-03  -6.0000002E-02
  1.3999997E-01   9.9999998E-03  -3.9999999E-02
  1.3999997E-01   9.9999998E-03  -2.0000000E-02
  1.5999997E-01   9.9999998E-03  -1.8000001E-01
  1.5999997E-01   9.9999998E-03  -1.6000000E-01
  1.5999997E-01   9.9999998E-03  -1.4000000E-01
  1.5999995E-01   9.9999998E-03  -1.2000000E-01
  1.5999995E-01   9.9999998E-03  -1.0000000E-01
  1.5999995E-01   9.9999998E-03  -7.9999998E-02
  1.5999995E-01   9.9999998E-03  -6.0000002E-02
  1.5999995E-01   9.9999998E-03  -3.9999999E-02
  1.5999995E-01   9.9999998E-03  -2.0000000E-02
  1.7999995E-01   9.9999998E-03  -1.8000001E-01
  1.7999995E-01   9.9999998E-03  -1.6000001E-01
  1.7999995E-01   9.9999998E-03  -1.4000000E-01
  1.7999995E-01   9.9999998E-03  -1.2000000E-01
  1.7999995E-01   9.9999998E-03  -1.0000000E-01
  1.7999995E-01   9.9999998E-03  -7.9999998E-02
  1.7999995E-01   9.9999998E-03  -6.0000002E-02
  1.7999995E-01   9.9999998E-03  -3.9999999E-02
  1.7999995E-01   9.9999998E-03  -2.0000000E-02
  1.9999993E-01   9.9999998E-03  -1.8000001E-01
  1.9999993E-01   9.9999998E-03  -1.6000001E-01
  1.9999991E-01   9.9999998E-03  -1.4000000E-01
  1.9999991E-01   9.9999998E-03  -1.2000000E-01
  1.9999991E-01   9.9999998E-03  -1.0000000E-01
  1.9999991E-01   9.9999998E-03  -8.0000006E-02
  1.9999991E-01   9.9999998E-03  -6.0000002E-02
  1.9999991E-01   9.9999998E-03  -3.9999999E-02
  1.9999991E-01   9.9999998E-03  -2.0000000E-02
  2.1999989E-01   9.9999998E-03  -1.8000001E-01
  2.1999989E-01   9.9999998E-03  -1.6000001E-01
  2.1999989E-01   9.9999998E-03  -1.4000000E-01
  2.1999989E-01   9.9999998E-03  -1.2000000E-01
  2.1999989E-01   9.9999998E-03  -1.0000000E-01
  2.1999989E-01   9.9999998E-03  -8.0000006E-02
  2.1999989E-01   9.9999998E-03  -6.0000002E-02
  2.1999989E-01   9.9999998E-03  -4.0000003E-02
  2.1999989E-01   9.9999998E-03  -2.0000001E-02
  2.3999986E-01   9.9999998E-03  -1.8000001E-01
  2.3999985E-01   9.9999998E-03  -1.6000001E-01
  2.3999985E-01   9.9999998E-03  -1.4000000E-01
  2.3999985E-01   9.9999998E-03  -1.2000000E-01
  2.3999985E-01   9.9999998E-03  -1.0000000E-01
  2.3999985E-01   9.9999998E-03  -8.0000006E-02
  2.3999985E-01   9.9999998E-03  -6.0000002E-02
  2.3999985E-01   9.9999998E-03  -4.0000003E-02
  2.3999985E-01   9.9999998E-03  -2.0000001E-02
  2.5999981E-01   9.9999998E-03  -1.8000002E-01
  2.5999978E-01   9.9999998E-03  -1.6000001E-01
  2.5999978E-01   9.9999998E-03  -1.4000002E-01
  2.5999978E-01   9.9999998E-03  -1.2000000E-01
  2.5999978E-01   9.9999998E-03  -1.0000001E-01
  2.5999978E-01   9.9999998E-03  -8.0000006E-02
  2.5999978E-01   9.9999998E-03  -6.0000002E-02
  2.5999978E-01   9.9999998E-03  -4.0000003E-02
  2.5999978E-01   9.9999998E-03  -2.0000001E-02
  2.7999973E-01   9.9999998E-03  -1.8000002E-01
  2.7999973E-01   9.9999998E-03  -1.6000001E-01
  2.7999970E-01   9.9999998E-03  -1.4000002E-01
  2.7999970E-01   9.9999998E-03  -1.2000001E-01
  2.7999970E-01   9.9999998E-03  -1.0000001E-01
  2.7999970E-01   9.9999998E-03  -8.0000006E-02
  2.7999970E-01   9.9999998E-03  -6.0000002E-02
  2.7999970E-01   9.9999998E-03  -4.0000003E-02
  2.7999970E-01   9.9999998E-03  -2.0000001E-02
  2.9999962E-01   9.9999998E-03  -1.8000002E-01
  2.9999962E-01   9.9999998E-03  -1.6000003E-01
  2.9999962E-01   9.9999998E-03  -1.4000002E-01
  2.9999962E-01   9.9999998E-03  -1.2000001E-01
  2.9999962E-01   9.9999998E-03  -1.0000001E-01
  2.9999962E-01   9.9999998E-03  -8.0000006E-02
  2.9999962E-01   9.9999998E-03  -6.0000006E-02
  2.9999962E-01   9.9999998E-03  -4.0000003E-02
  2.9999962E-01   9.9999998E-03  -2.0000001E-02
  3.1999949E-01   9.9999998E-03  -1.8000004E-01
  3.1999949E-01   9.9999998E-03  -1.6000003E-01
  3.1999949E-01   9.9999998E-03  -1.4000002E-01
  3.1999949E-01   9.9999998E-03  -1.2000002E-01
  3.1999949E-01   9.9999998E-03  -1.0000002E-01
  3.1999949E-01   9.9999998E-03  -8.0000013E-02
  3.1999949E-01   9.9999998E-03  -6.0000006E-02
  3.1999949E-01   9.9999998E-03  -4.0000003E-02
  3.1999949E-01   9.9999998E-03  -2.0000001E-02
  3.3999932E-01   9.9999998E-03  -1.8000005E-01
  3.3999929E-01   9.9999998E-03  -1.6000004E-01
  3.3999929E-01   9.9999998E-03  -1.4000003E-01
  3.3999929E-01   9.9999998E-03  -1.2000002E-01
  3.3999929E-01   9.9999998E-03  -1.0000002E-01
  3.3999929E-01   9.9999998E-03  -8.0000013E-02
  3.3999929E-01   9.9999998E-03  -6.0000010E-02
  3.3999929E-01   9.9999998E-03  -4.0000007E-02
  3.3999929E-01   9.9999998E-03  -2.0000003E-02
  3.5999906E-01   9.9999998E-03  -1.8000007E-01
  3.5999906E-01   9.9999998E-03  -1.6000006E-01
  3.5999906E-01   9.9999998E-03  -1.4000005E-01
  3.5999906E-01   9.9999998E-03  -1.2000003E-01
  3.5999906E-01   9.9999998E-03  -1.0000002E-01
  3.5999906E-01   9.9999998E-03  -8.0000021E-02
  3.5999906E-01   9.9999998E-03  -6.0000014E-02
  3.5999906E-01   9.9999998E-03  -4.0000007E-02
  3.5999906E-01   9.9999998E-03  -2.0000003E-02
  3.7999874E-01   9.9999998E-03  -1.8000008E-01
  3.7999874E-01   9.9999998E-03  -1.6000007E-01
  3.7999874E-01   9.9999998E-03  -1.4000005E-01
  3.7999874E-01   9.9999998E-03  -1.2000004E-01
  3.7999874E-01   9.9999998E-03  -1.0000003E-01
  3.7999877E-01   9.9999998E-03  -8.0000021E-02
  3.7999877E-01   9.9999998E-03  -6.0000017E-02
  3.7999877E-01   9.9999998E-03  -4.0000010E-02
  3.7999877E-01   9.9999998E-03  -2.0000005E-02
  3.9999834E-01   9.9999998E-03  -1.8000011E-01
  3.9999834E-01   9.9999998E-03  -1.6000009E-01
  3.9999837E-01   9.9999998E-03  -1.4000008E-01
  3.9999837E-01   9.9999998E-03  -1.2000006E-01
  3.9999837E-01   9.9999998E-03  -1.0000005E-01
  3.9999837E-01   9.9999998E-03  -8.0000035E-02
  3.9999837E-01   9.9999998E-03  -6.0000025E-02
  3.9999837E-01   9.9999998E-03  -4.0000018E-02
  3.9999837E-01   9.9999998E-03  -2.0000009E-02
  4.1999781E-01   9.9999998E-03  -1.8000014E-01
  4.1999784E-01   9.9999998E-03  -1.6000012E-01
  4.1999784E-01   9.9999998E-03  -1.4000009E-01
  4.1999784E-01   9.9999998E-03  -1.2000008E-01
  4.1999784E-01   9.9999998E-03  -1.0000006E-01
  4.1999787E-01   9.9999998E-03  -8.0000050E-02
  4.1999787E-01   9.9999998E-03  -6.0000036E-02
  4.1999787E-01   9.9999998E-03  -4.0000021E-02
  4.1999787E-01   9.9999998E-03  -2.0000011E-02
  4.3999714E-01   9.9999998E-03  -1.8000020E-01
  4.3999717E-01   9.9999998E-03  -1.6000016E-01
  4.3999717E-01   9.9999998E-03  -1.4000013E-01
  4.3999720E-01   9.9999998E-03  -1.2000011E-01
  4.3999720E-01   9.9999998E-03  -1.0000009E-01
  4.3999723E-01   9.9999998E-03  -8.0000065E-02
  4.3999723E-01   9.9999998E-03  -6.0000051E-02
  4.3999723E-01   9.9999998E-03  -4.0000033E-02
  4.3999723E-01   9.9999998E-03  -2.0000016E-02
  4.5999625E-01   9.9999998E-03  -1.8000029E-01
  4.5999628E-01   9.9999998E-03  -1.6000023E-01
  4.5999631E-01   9.9999998E-03  -1.4000019E-01
  4.5999634E-01   9.9999998E-03  -1.2000016E-01
  4.5999637E-01   9.9999998E-03  -1.0000013E-01
  4.5999637E-01   9.9999998E-03  -8.0000095E-02
  4.5999637E-01   9.9999998E-03  -6.0000069E-02
  4.5999637E-01   9.9999998E-03  -4.0000048E-02
  4.5999640E-01   9.9999998E-03  -2.0000022E-02
  4.7999510E-01   9.9999998E-03  -1.8000041E-01
  4.7999516E-01   9.9999998E-03  -1.6000035E-01
  4.7999522E-01   9.9999998E-03  -1.4000028E-01
  4.7999525E-01   9.9999998E-03  -1.2000023E-01
  4.7999528E-01   9.9999998E-03  -1.0000018E-01
  4.7999531E-01   9.9999998E-03  -8.0000140E-02
  4.7999531E-01   9.9999998E-03  -6.0000099E-02
  4.7999531E-01   9.9999998E-03  -4.0000062E-02
  4.7999531E-01   9.9999998E-03  -2.0000031E-02
  4.9999365E-01   9.9999998E-03  -1.8000060E-01
  4.9999374E-01   9.9999998E-03  -1.6000050E-01
  4.9999380E-01   9.9999998E-03  -1.4000042E-01
  4.9999386E-01   9.9999998E-03  -1.2000033E-01
  4.9999389E-01   9.9999998E-03  -1.0000025E-01
  4.9999392E-01   9.9999998E-03  -8.0000192E-02
  4.9999392E-01   9.9999998E-03  -6.0000136E-02
  4.9999392E-01   9.9999998E-03  -4.0000089E-02
  4.9999392E-01   9.9999998E-03  -2.0000044E-02
  5.1999182E-01   9.9999998E-03  -1.8000089E-01
  5.1999193E-01   9.9999998E-03  -1.6000073E-01
  5.1999199E-01   9.9999998E-03  -1.4000058E-01
  5.1999205E-01   9.9999998E-03  -1.2000046E-01
  5.1999211E-01   9.9999998E-03  -1.0000035E-01
  5.1999217E-01   9.9999998E-03  -8.0000266E-02
  5.1999217E-01   9.9999998E-03  -6.0000185E-02
  5.1999217E-01   9.9999998E-03  -4.0000118E-02
  5.1999217E-01   9.9999998E-03  -2.0000059E-02
  5.3998959E-01   9.9999998E-03  -1.8000129E-01
  5.3998971E-01   9.9999998E-03  -1.6000104E-01
  5.3998983E-01   9.9999998E-03  -1.4000082E-01
  5.3998989E-01   9.9999998E-03  -1.2000064E-01
  5.3998995E-01   9.9999998E-03  -1.0000049E-01
  5.3999001E-01   9.9999998E-03  -8.0000356E-02
  5.3999007E-01   9.9999998E-03  -6.0000252E-02
  5.3999007E-01   9.9999998E-03  -4.0000159E-02
  5.3999007E-01   9.9999998E-03  -2.0000078E-02
  5.5998695E-01   9.9999998E-03  -1.8000180E-01
  5.5998713E-01   9.9999998E-03  -1.6000144E-01
  5.5998731E-01   9.9999998E-03  -1.4000113E-01
  5.5998743E-01   9.9999998E-03  -1.2000087E-01
  5.5998749E-01   9.9999998E-03  -1.0000065E-01
  5.5998755E-01   9.9999998E-03  -8.0000475E-02
  5.5998760E-01   9.9999998E-03  -6.0000326E-02
  5.5998760E-01   9.9999998E-03  -4.0000208E-02
  5.5998760E-01   9.9999998E-03  -2.0000100E-02
  5.7998413E-01   9.9999998E-03  -1.8000241E-01
  5.7998437E-01   9.9999998E-03  -1.6000193E-01
  5.7998455E-01   9.9999998E-03  -1.4000151E-01
  5.7998472E-01   9.9999998E-03  -1.2000114E-01
  5.7998484E-01   9.9999998E-03  -1.0000085E-01
  5.7998490E-01   9.9999998E-03  -8.0000609E-02
  5.7998490E-01   9.9999998E-03  -6.0000416E-02
  5.7998496E-01   9.9999998E-03  -4.0000260E-02
  5.7998496E-01   9.9999998E-03  -2.0000124E-02
  5.9998125E-01   9.9999998E-03  -1.8000308E-01
  5.9998155E-01   9.9999998E-03  -1.6000247E-01
  5.9998184E-01   9.9999998E-03  -1.4000192E-01
  5.9998202E-01   9.9999998E-03  -1.2000146E-01
  5.9998220E-01   9.9999998E-03  -1.0000107E-01
  5.9998226E-01   9.9999998E-03  -8.0000758E-02
  5.9998232E-01   9.9999998E-03  -6.0000509E-02
  5.9998232E-01   9.9999998E-03  -4.0000316E-02
  5.9998238E-01   9.9999998E-03  -2.0000150E-02
  6.1997843E-01   9.9999998E-03  -1.8000384E-01
  6.1997890E-01   9.9999998E-03  -1.6000307E-01
  6.1997926E-01   9.9999998E-03  -1.4000237E-01
  6.1997956E-01   9.9999998E-03  -1.2000177E-01
  6.1997974E-01   9.9999998E-03  -1.0000128E-01
  6.1997986E-01   9.9999998E-03  -8.0000885E-02
  6.1997992E-01   9.9999998E-03  -6.0000587E-02
  6.1997998E-01   9.9999998E-03  -4.0000357E-02
  6.1997998E-01   9.9999998E-03  -2.0000169E-02
  6.3997597E-01   9.9999998E-03  -1.8000479E-01
  6.3997656E-01   9.9999998E-03  -1.6000377E-01
  6.3997698E-01   9.9999998E-03  -1.4000289E-01
  6.3997734E-01   9.9999998E-03  -1.2000212E-01
  6.3997757E-01   9.9999998E-03  -1.0000148E-01
  6.3997769E-01   9.9999998E-03  -8.0000997E-02
  6.3997781E-01   9.9999998E-03  -6.0000639E-02
  6.3997787E-01   9.9999998E-03  -4.0000379E-02
  6.3997787E-01   9.9999998E-03  -2.0000177E-02
  6.5997422E-01   9.9999998E-03  -1.8000598E-01
  6.5997487E-01   9.9999998E-03  -1.6000463E-01
  6.5997535E-01   9.9999998E-03  -1.4000353E-01
  6.5997571E-01   9.9999998E-03  -1.2000255E-01
  6.5997601E-01   9.9999998E-03  -1.0000175E-01
  6.5997618E-01   9.9999998E-03  -8.0001146E-02
  6.5997630E-01   9.9999998E-03  -6.0000714E-02
  6.5997642E-01   9.9999998E-03  -4.0000413E-02
  6.5997642E-01   9.9999998E-03  -2.0000188E-02
  6.7997402E-01   9.9999998E-03  -1.8000722E-01
  6.7997468E-01   9.9999998E-03  -1.6000552E-01
  6.7997521E-01   9.9999998E-03  -1.4000420E-01
  6.7997557E-01   9.9999998E-03  -1.2000301E-01
  6.7997587E-01   9.9999998E-03  -1.0000203E-01
  6.7997605E-01   9.9999998E-03  -8.0001295E-02
  6.7997617E-01   9.9999998E-03  -6.0000781E-02
  6.7997622E-01   9.9999998E-03  -4.0000435E-02
  6.7997628E-01   9.9999998E-03  -2.0000195E-02
  6.9997686E-01   9.9999998E-03  -1.8000834E-01
  6.9997746E-01   9.9999998E-03  -1.6000636E-01
  6.9997787E-01   9.9999998E-03  -1.4000481E-01
  6.9997823E-01   9.9999998E-03  -1.2000342E-01
  6.9997847E-01   9.9999998E-03  -1.0000226E-01
  6.9997859E-01   9.9999998E-03  -8.0001391E-02
  6.9997871E-01   9.9999998E-03  -6.0000807E-02
  6.9997877E-01   9.9999998E-03  -4.0000431E-02
  6.9997877E-01   9.9999998E-03  -2.0000184E-02
  7.1998334E-01   9.9999998E-03  -1.8000920E-01
  7.1998382E-01   9.9999998E-03  -1.6000703E-01
  7.1998417E-01   9.9999998E-03  -1.4000534E-01
  7.1998441E-01   9.9999998E-03  -1.2000378E-01
  7.1998459E-01   9.9999998E-03  -1.0000250E-01
  7.1998471E-01   9.9999998E-03  -8.0001533E-02
  7.1998483E-01   9.9999998E-03  -6.0000882E-02
  7.1998483E-01   9.9999998E-03  -4.0000465E-02
  7.1998489E-01   9.9999998E-03  -2.0000199E-02
  7.3998976E-01   9.9999998E-03  -1.8000980E-01
  7.3999006E-01   9.9999998E-03  -1.6000752E-01
  7.3999029E-01   9.9999998E-03  -1.4000571E-01
  7.3999053E-01   9.9999998E-03  -1.2000405E-01
  7.3999065E-01   9.9999998E-03  -1.0000267E-01
  7.3999071E-01   9.9999998E-03  -8.0001645E-02
  7.3999077E-01   9.9999998E-03  -6.0000945E-02
  7.3999083E-01   9.9999998E-03  -4.0000498E-02
  7.3999083E-01   9.9999998E-03  -2.0000212E-02
  7.5999469E-01   9.9999998E-03  -1.8001017E-01
  7.5999492E-01   9.9999998E-03  -1.6000783E-01
  7.5999504E-01   9.9999998E-03  -1.4000596E-01
  7.5999522E-01   9.9999998E-03  -1.2000423E-01
  7.5999528E-01   9.9999998E-03  -1.0000280E-01
  7.5999534E-01   9.9999998E-03  -8.0001719E-02
  7.5999540E-01   9.9999998E-03  -6.0000986E-02
  7.5999540E-01   9.9999998E-03  -4.0000521E-02
  7.5999540E-01   9.9999998E-03  -2.0000223E-02
  7.7999836E-01   9.9999998E-03  -1.8001038E-01
  7.7999848E-01   9.9999998E-03  -1.6000801E-01
  7.7999854E-01   9.9999998E-03  -1.4000610E-01
  7.7999860E-01   9.9999998E-03  -1.2000433E-01
  7.7999860E-01   9.9999998E-03  -1.0000286E-01
  7.7999866E-01   9.9999998E-03  -8.0001757E-02
  7.7999866E-01   9.9999998E-03  -6.0001012E-02
  7.7999866E-01   9.9999998E-03  -4.0000536E-02
  7.7999866E-01   9.9999998E-03  -2.0000229E-02
  8.0000126E-01   9.9999998E-03  -1.8001041E-01
  8.0000120E-01   9.9999998E-03  -1.6000806E-01
  8.0000120E-01   9.9999998E-03  -1.4000614E-01
  8.0000120E-01   9.9999998E-03  -1.2000436E-01
  8.0000120E-01   9.9999998E-03  -1.0000288E-01
  8.0000120E-01   9.9999998E-03  -8.0001771E-02
  8.0000120E-01   9.9999998E-03  -6.0001019E-02
  8.0000120E-01   9.9999998E-03  -4.0000539E-02
  8.0000120E-01   9.9999998E-03  -2.0000231E-02
  8.2000387E-01   9.9999998E-03  -1.8001032E-01
  8.2000375E-01   9.9999998E-03  -1.6000798E-01
  8.2000369E-01   9.9999998E-03  -1.4000608E-01
  8.2000363E-01   9.9999998E-03  -1.2000433E-01
  8.2000357E-01   9.9999998E-03  -1.0000286E-01
  8.2000357E-01   9.9999998E-03  -8.0001757E-02
  8.2000351E-01   9.9999998E-03  -6.0001012E-02
  8.2000351E-01   9.9999998E-03  -4.0000536E-02
  8.2000351E-01   9.9999998E-03  -2.0000229E-02
  8.4000653E-01   9.9999998E-03  -1.8001010E-01
  8.4000635E-01   9.9999998E-03  -1.6000782E-01
  8.4000617E-01   9.9999998E-03  -1.4000596E-01
  8.4000611E-01   9.9999998E-03  -1.2000423E-01
  8.4000599E-01   9.9999998E-03  -1.0000280E-01
  8.4000599E-01   9.9999998E-03  -8.0001719E-02
  8.4000593E-01   9.9999998E-03  -6.0000990E-02
  8.4000593E-01   9.9999998E-03  -4.0000524E-02
  8.4000593E-01   9.9999998E-03  -2.0000223E-02
  8.6000925E-01   9.9999998E-03  -1.8000975E-01
  8.6000896E-01   9.9999998E-03  -1.6000755E-01
  8.6000878E-01   9.9999998E-03  -1.4000575E-01
  8.6000860E-01   9.9999998E-03  -1.2000409E-01
  8.6000854E-01   9.9999998E-03  -1.0000270E-01
  8.6000848E-01   9.9999998E-03  -8.0001660E-02
  8.6000842E-01   9.9999998E-03  -6.0000956E-02
  8.6000836E-01   9.9999998E-03  -4.0000506E-02
  8.6000836E-01   9.9999998E-03  -2.0000216E-02
  8.8001180E-01   9.9999998E-03  -1.8000931E-01
  8.8001150E-01   9.9999998E-03  -1.6000721E-01
  8.8001120E-01   9.9999998E-03  -1.4000550E-01
  8.8001102E-01   9.9999998E-03  -1.2000390E-01
  8.8001090E-01   9.9999998E-03  -1.0000258E-01
  8.8001078E-01   9.9999998E-03  -8.0001585E-02
  8.8001078E-01   9.9999998E-03  -6.0000911E-02
  8.8001072E-01   9.9999998E-03  -4.0000480E-02
  8.8001072E-01   9.9999998E-03  -2.0000206E-02
  9.0001404E-01   9.9999998E-03  -1.8000875E-01
  9.0001363E-01   9.9999998E-03  -1.6000679E-01
  9.0001333E-01   9.9999998E-03  -1.4000517E-01
  9.0001309E-01   9.9999998E-03  -1.2000368E-01
  9.0001291E-01   9.9999998E-03  -1.0000243E-01
  9.0001285E-01   9.9999998E-03  -8.0001488E-02
  9.0001279E-01   9.9999998E-03  -6.0000855E-02
  9.0001273E-01   9.9999998E-03  -4.0000454E-02
  9.0001273E-01   9.9999998E-03  -2.0000193E-02
  9.2001557E-01   9.9999998E-03  -1.8000814E-01
  9.2001504E-01   9.9999998E-03  -1.6000633E-01
  9.2001468E-01   9.9999998E-03  -1.4000483E-01
  9.2001438E-01   9.9999998E-03  -1.2000344E-01
  9.2001420E-01   9.9999998E-03  -1.0000228E-01
  9.2001402E-01   9.9999998E-03  -8.0001414E-02
  9.2001396E-01   9.9999998E-03  -6.0000822E-02
  9.2001390E-01   9.9999998E-03  -4.0000442E-02
  9.2001384E-01   9.9999998E-03  -2.0000193E-02
  9.4001609E-01   9.9999998E-03  -1.8000753E-01
  9.4001549E-01   9.9999998E-03  -1.6000587E-01
  9.4001502E-01   9.9999998E-03  -1.4000449E-01
  9.4001466E-01   9.9999998E-03  -1.2000320E-01
  9.4001442E-01   9.9999998E-03  -1.0000215E-01
  9.4001424E-01   9.9999998E-03  -8.0001347E-02
  9.4001412E-01   9.9999998E-03  -6.0000807E-02
  9.4001406E-01   9.9999998E-03  -4.0000450E-02
  9.4001400E-01   9.9999998E-03  -2.0000201E-02
  9.6001595E-01   9.9999998E-03  -1.8000689E-01
  9.6001530E-01   9.9999998E-03  -1.6000539E-01
  9.6001482E-01   9.9999998E-03  -1.4000413E-01
  9.6001446E-01   9.9999998E-03  -1.2000296E-01
  9.6001422E-01   9.9999998E-03  -1.0000199E-01
  9.6001405E-01   9.9999998E-03  -8.0001272E-02
  9.6001393E-01   9.9999998E-03  -6.0000774E-02
  9.6001387E-01   9.9999998E-03  -4.0000435E-02
  9.6001381E-01   9.9999998E-03  -2.0000195E-02
  9.8001558E-01   9.9999998E-03  -1.8000625E-01
  9.8001492E-01   9.9999998E-03  -1.6000490E-01
  9.8001444E-01   9.9999998E-03  -1.4000376E-01
  9.8001409E-01   9.9999998E-03  -1.2000271E-01
  9.8001379E-01   9.9999998E-03  -1.0000184E-01
  9.8001367E-01   9.9999998E-03  -8.0001190E-02
  9.8001355E-01   9.9999998E-03  -6.0000736E-02
  9.8001349E-01   9.9999998E-03  -4.0000424E-02
  9.8001343E-01   9.9999998E-03  -2.0000191E-02
  1.0000150E+00   9.9999998E-03  -1.8000564E-01
  1.0000143E+00   9.9999998E-03  -1.6000445E-01
  1.0000138E+00   9.9999998E-03  -1.4000341E-01
  1.0000135E+00   9.9999998E-03  -1.2000248E-01
  1.0000132E+00   9.9999998E-03  -1.0000171E-01
  1.0000131E+00   9.9999998E-03  -8.0001131E-02
  1.0000130E+00   9.9999998E-03  -6.0000710E-02
  1.0000130E+00   9.9999998E-03  -4.0000416E-02
  1.0000130E+00   9.9999998E-03  -2.0000193E-02
  1.0200144E+00   9.9999998E-03  -1.8000509E-01
  1.0200137E+00   9.9999998E-03  -1.6000403E-01
  1.0200132E+00   9.9999998E-03  -1.4000310E-01
  1.0200129E+00   9.9999998E-03  -1.2000228E-01
  1.0200126E+00   9.9999998E-03  -1.0000160E-01
  1.0200125E+00   9.9999998E-03  -8.0001071E-02
  1.0200124E+00   9.9999998E-03  -6.0000688E-02
  1.0200124E+00   9.9999998E-03  -4.0000409E-02
  1.0200124E+00   9.9999998E-03  -2.0000191E-02
  1.0400137E+00   9.9999998E-03  -1.8000463E-01
  1.0400130E+00   9.9999998E-03  -1.6000365E-01
  1.0400125E+00   9.9999998E-03  -1.4000283E-01
  1.0400121E+00   9.9999998E-03  -1.2000210E-01
  1.0400119E+00   9.9999998E-03  -1.0000149E-01
  1.0400118E+00   9.9999998E-03  -8.0001019E-02
  1.0400118E+00   9.9999998E-03  -6.0000665E-02
  1.0400116E+00   9.9999998E-03  -4.0000401E-02
  1.0400116E+00   9.9999998E-03  -2.0000188E-02
  1.0600129E+00   9.9999998E-03  -1.8000424E-01
  1.0600122E+00   9.9999998E-03  -1.6000329E-01
  1.0600117E+00   9.9999998E-03  -1.4000256E-01
  1.0600114E+00   9.9999998E-03  -1.2000193E-01
  1.0600111E+00   9.9999998E-03  -1.0000139E-01
  1.0600110E+00   9.9999998E-03  -8.0000967E-02
  1.0600109E+00   9.9999998E-03  -6.0000639E-02
  1.0600109E+00   9.9999998E-03  -4.0000390E-02
  1.0600108E+00   9.9999998E-03  -2.0000184E-02
  1.0800122E+00   9.9999998E-03  -1.8000393E-01
  1.0800115E+00   9.9999998E-03  -1.6000299E-01
  1.0800109E+00   9.9999998E-03  -1.4000231E-01
  1.0800105E+00   9.9999998E-03  -1.2000177E-01
  1.0800103E+00   9.9999998E-03  -1.0000130E-01
  1.0800102E+00   9.9999998E-03  -8.0000922E-02
  1.0800101E+00   9.9999998E-03  -6.0000621E-02
  1.0800101E+00   9.9999998E-03  -4.0000379E-02
  1.0800099E+00   9.9999998E-03  -2.0000180E-02
  1.1000115E+00   9.9999998E-03  -1.8000376E-01
  1.1000108E+00   9.9999998E-03  -1.6000272E-01
  1.1000102E+00   9.9999998E-03  -1.4000209E-01
  1.1000098E+00   9.9999998E-03  -1.2000161E-01
  1.1000096E+00   9.9999998E-03  -1.0000121E-01
  1.1000093E+00   9.9999998E-03  -8.0000877E-02
  1.1000092E+00   9.9999998E-03  -6.0000598E-02
  1.1000092E+00   9.9999998E-03  -4.0000372E-02
  1.1000092E+00   9.9999998E-03  -2.0000178E-02
  1.1200111E+00   9.9999998E-03  -1.8000378E-01
  1.1200101E+00   9.9999998E-03  -1.6000256E-01
  1.1200095E+00   9.9999998E-03  -1.4000188E-01
  1.1200091E+00   9.9999998E-03  -1.2000145E-01
  1.1200088E+00   9.9999998E-03  -1.0000110E-01
  1.1200086E+00   9.9999998E-03  -8.0000818E-02
  1.1200085E+00   9.9999998E-03  -6.0000576E-02
  1.1200085E+00   9.9999998E-03  -4.0000364E-02
  1.1200083E+00   9.9999998E-03  -2.0000175E-02
  1.1400108E+00   9.9999998E-03  -1.8000408E-01
  1.1400096E+00   9.9999998E-03  -1.6000259E-01
  1.1400089E+00   9.9999998E-03  -1.4000176E-01
  1.1400084E+00   9.9999998E-03  -1.2000129E-01
  1.1400082E+00   9.9999998E-03  -1.0000099E-01
  1.1400080E+00   9.9999998E-03  -8.0000743E-02
  1.1400079E+00   9.9999998E-03  -6.0000531E-02
  1.1400077E+00   9.9999998E-03  -4.0000342E-02
  1.1400077E+00   9.9999998E-03  -2.0000167E-02
  1.1600109E+00   9.9999998E-03  -1.8000475E-01
  1.1600095E+00   9.9999998E-03  -1.6000287E-01
  1.1600085E+00   9.9999998E-03  -1.4000180E-01
  1.1600080E+00   9.9999998E-03  -1.2000121E-01
  1.1600076E+00   9.9999998E-03  -1.0000087E-01
  1.1600074E+00   9.9999998E-03  -8.0000654E-02
  1.1600072E+00   9.9999998E-03  -6.0000461E-02
  1.1600071E+00   9.9999998E-03  -4.0000301E-02
  1.1600071E+00   9.9999998E-03  -2.0000147E-02
  1.1800117E+00   9.9999998E-03  -1.8000582E-01
  1.1800097E+00   9.9999998E-03  -1.6000360E-01
  1.1800085E+00   9.9999998E-03  -1.4000216E-01
  1.1800077E+00   9.9999998E-03  -1.2000132E-01
  1.1800072E+00   9.9999998E-03  -1.0000086E-01
  1.1800069E+00   9.9999998E-03  -8.0000579E-02
  1.1800067E+00   9.9999998E-03  -6.0000390E-02
  1.1800066E+00   9.9999998E-03  -4.0000245E-02
  1.1800065E+00   9.9999998E-03  -2.0000117E-02
  1.2000134E+00   9.9999998E-03  -1.8000700E-01
  1.2000110E+00   9.9999998E-03  -1.6000475E-01
  1.2000091E+00   9.9999998E-03  -1.4000304E-01
  1.2000079E+00   9.9999998E-03  -1.2000183E-01
  1.2000071E+00   9.9999998E-03  -1.0000110E-01
  1.2000066E+00   9.9999998E-03  -8.0000661E-02
  1.2000064E+00   9.9999998E-03  -6.0000394E-02
  1.2000062E+00   9.9999998E-03  -4.0000223E-02
  1.2000061E+00   9.9999998E-03  -2.0000100E-02
  1.2200152E+00   9.9999998E-03  -1.8000802E-01
  1.2200131E+00   9.9999998E-03  -1.6000591E-01
  1.2200110E+00   9.9999998E-03  -1.4000417E-01
  1.2200091E+00   9.9999998E-03  -1.2000283E-01
  1.2200078E+00   9.9999998E-03  -1.0000180E-01
  1.2200069E+00   9.9999998E-03  -8.0001079E-02
  1.2200065E+00   9.9999998E-03  -6.0000602E-02
  1.2200061E+00   9.9999998E-03  -4.0000316E-02
  1.2200060E+00   9.9999998E-03  -2.0000132E-02
  1.2400160E+00   9.9999998E-03  -1.8000887E-01
  1.2400148E+00   9.9999998E-03  -1.6000701E-01
  1.2400132E+00   9.9999998E-03  -1.4000529E-01
  1.2400116E+00   9.9999998E-03  -1.2000387E-01
  1.2400099E+00   9.9999998E-03  -1.0000273E-01
  1.2400086E+00   9.9999998E-03  -8.0001824E-02
  1.2400076E+00   9.9999998E-03  -6.0001124E-02
  1.2400070E+00   9.9999998E-03  -4.0000618E-02
  1.2400068E+00   9.9999998E-03  -2.0000268E-02
  1.2600151E+00   9.9999998E-03  -1.6000792E-01
  1.2600145E+00   9.9999998E-03  -1.4000636E-01
  1.2600137E+00   9.9999998E-03  -1.2000496E-01
  1.2600126E+00   9.9999998E-03  -1.0000368E-01
  1.2600116E+00   9.9999998E-03  -8.0002561E-02
  1.2600106E+00   9.9999998E-03  -6.0001627E-02
  1.2600100E+00   9.9999998E-03  -4.0000916E-02
  1.2600096E+00   9.9999998E-03  -2.0000404E-02
  1.2800142E+00   9.9999998E-03  -1.2000602E-01
  1.2800140E+00   9.9999998E-03  -1.0000470E-01
  1.2800136E+00   9.9999998E-03  -8.0003388E-02
  1.2800132E+00   9.9999998E-03  -6.0002178E-02
  1.2800130E+00   9.9999998E-03  -4.0001228E-02
  1.2800127E+00   9.9999998E-03  -2.0000542E-02
  1.3000137E+00   9.9999998E-03  -8.0004260E-02
  1.3000138E+00   9.9999998E-03  -6.0002755E-02
  1.3000139E+00   9.9999998E-03  -4.0001556E-02
  1.3000139E+00   9.9999998E-03  -2.0000681E-02
 -2.0121678E-09   9.9999998E-03  -2.2790222E-17
 -2.0096127E-09   9.9999998E-03   2.0000000E-02
 -2.0018274E-09   9.9999998E-03   3.9999999E-02
 -1.9883928E-09   9.9999998E-03   5.9999999E-02
 -1.9685535E-09   9.9999998E-03   7.9999998E-02
 -1.9412776E-09   9.9999998E-03   1.0000000E-01
 -1.9050705E-09   9.9999998E-03   1.2000000E-01
 -1.8579202E-09   9.9999998E-03   1.4000000E-01
  1.9999998E-02   9.9999998E-03   1.4332046E-16
  1.9999998E-02   9.9999998E-03   2.0000000E-02
  1.9999998E-02   9.9999998E-03   3.9999999E-02
  1.9999998E-02   9.9999998E-03   5.9999999E-02
  1.9999998E-02   9.9999998E-03   7.9999998E-02
  1.9999998E-02   9.9999998E-03   1.0000000E-01
  1.9999998E-02   9.9999998E-03   1.2000000E-01
  1.9999998E-02   9.9999998E-03   1.4000000E-01
  3.9999995E-02   9.9999998E-03  -2.2158362E-16
  3.9999995E-02   9.9999998E-03   2.0000000E-02
  3.9999995E-02   9.9999998E-03   3.9999999E-02
  3.9999995E-02   9.9999998E-03   5.9999999E-02
  3.9999995E-02   9.9999998E-03   7.9999998E-02
  3.9999995E-02   9.9999998E-03   1.0000000E-01
  3.9999995E-02   9.9999998E-03   1.2000000E-01
  3.9999995E-02   9.9999998E-03   1.4000000E-01
  5.9999991E-02   9.9999998E-03   4.7249568E-16
  5.9999991E-02   9.9999998E-03   2.0000000E-02
  5.9999991E-02   9.9999998E-03   3.9999999E-02
  5.9999991E-02   9.9999998E-03   5.9999999E-02
  5.9999991E-02   9.9999998E-03   7.9999998E-02
  5.9999991E-02   9.9999998E-03   1.0000000E-01
  5.9999995E-02   9.9999998E-03   1.2000000E-01
  5.9999995E-02   9.9999998E-03   1.4000000E-01
  7.9999991E-02   9.9999998E-03   2.5687680E-16
  7.9999991E-02   9.9999998E-03   2.0000000E-02
  7.9999991E-02   9.9999998E-03   3.9999999E-02
  7.9999991E-02   9.9999998E-03   5.9999999E-02
  7.9999991E-02   9.9999998E-03   7.9999998E-02
  7.9999991E-02   9.9999998E-03   1.0000000E-01
  7.9999991E-02   9.9999998E-03   1.2000000E-01
  7.9999991E-02   9.9999998E-03   1.4000000E-01
  9.9999987E-02   9.9999998E-03  -3.8579844E-16
  9.9999987E-02   9.9999998E-03   2.0000000E-02
  9.9999987E-02   9.9999998E-03   3.9999999E-02
  9.9999987E-02   9.9999998E-03   5.9999999E-02
  9.9999987E-02   9.9999998E-03   7.9999998E-02
  9.9999987E-02   9.9999998E-03   1.0000000E-01
  9.9999987E-02   9.9999998E-03   1.2000000E-01
  9.9999987E-02   9.9999998E-03   1.4000000E-01
  1.1999998E-01   9.9999998E-03  -1.4257690E-16
  1.1999998E-01   9.9999998E-03   2.0000000E-02
  1.1999998E-01   9.9999998E-03   3.9999999E-02
  1.1999998E-01   9.9999998E-03   5.9999999E-02
  1.1999998E-01   9.9999998E-03   7.9999998E-02
  1.1999998E-01   9.9999998E-03   1.0000000E-01
  1.1999998E-01   9.9999998E-03   1.2000000E-01
  1.1999998E-01   9.9999998E-03   1.4000000E-01
  1.3999997E-01   9.9999998E-03  -9.5470682E-16
  1.3999997E-01   9.9999998E-03   2.0000000E-02
  1.3999997E-01   9.9999998E-03   3.9999999E-02
  1.3999997E-01   9.9999998E-03   6.0000002E-02
  1.3999997E-01   9.9999998E-03   7.9999998E-02
  1.3999997E-01   9.9999998E-03   1.0000000E-01
  1.3999997E-01   9.9999998E-03   1.2000000E-01
  1.3999997E-01   9.9999998E-03   1.4000000E-01
  1.5999995E-01   9.9999998E-03  -7.5058321E-16
  1.5999995E-01   9.9999998E-03   2.0000000E-02
  1.5999995E-01   9.9999998E-03   3.9999999E-02
  1.5999995E-01   9.9999998E-03   6.0000002E-02
  1.5999995E-01   9.9999998E-03   7.9999998E-02
  1.5999995E-01   9.9999998E-03   1.0000000E-01
  1.5999995E-01   9.9999998E-03   1.2000000E-01
  1.5999997E-01   9.9999998E-03   1.4000000E-01
  1.7999995E-01   9.9999998E-03   1.9598189E-15
  1.7999995E-01   9.9999998E-03   2.0000000E-02
  1.7999995E-01   9.9999998E-03   3.9999999E-02
  1.7999995E-01   9.9999998E-03   6.0000002E-02
  1.7999995E-01   9.9999998E-03   7.9999998E-02
  1.7999995E-01   9.9999998E-03   1.0000000E-01
  1.7999995E-01   9.9999998E-03   1.2000000E-01
  1.7999995E-01   9.9999998E-03   1.4000000E-01
  1.9999991E-01   9.9999998E-03   2.8846711E-15
  1.9999991E-01   9.9999998E-03   2.0000000E-02
  1.9999991E-01   9.9999998E-03   3.9999999E-02
  1.9999991E-01   9.9999998E-03   6.0000002E-02
  1.9999991E-01   9.9999998E-03   8.0000006E-02
  1.9999991E-01   9.9999998E-03   1.0000000E-01
  1.9999991E-01   9.9999998E-03   1.2000000E-01
  1.9999991E-01   9.9999998E-03   1.4000000E-01
  2.1999989E-01   9.9999998E-03   6.8877151E-16
  2.1999989E-01   9.9999998E-03   2.0000001E-02
  2.1999989E-01   9.9999998E-03   4.0000003E-02
  2.1999989E-01   9.9999998E-03   6.0000002E-02
  2.1999989E-01   9.9999998E-03   8.0000006E-02
  2.1999989E-01   9.9999998E-03   1.0000000E-01
  2.1999989E-01   9.9999998E-03   1.2000000E-01
  2.1999989E-01   9.9999998E-03   1.4000000E-01
  2.3999985E-01   9.9999998E-03  -7.7464983E-15
  2.3999985E-01   9.9999998E-03   2.0000001E-02
  2.3999985E-01   9.9999998E-03   4.0000003E-02
  2.3999985E-01   9.9999998E-03   6.0000002E-02
  2.3999985E-01   9.9999998E-03   8.0000006E-02
  2.3999985E-01   9.9999998E-03   1.0000000E-01
  2.3999985E-01   9.9999998E-03   1.2000000E-01
  2.3999985E-01   9.9999998E-03   1.4000000E-01
  2.5999978E-01   9.9999998E-03   6.6449163E-16
  2.5999978E-01   9.9999998E-03   2.0000001E-02
  2.5999978E-01   9.9999998E-03   4.0000003E-02
  2.5999978E-01   9.9999998E-03   6.0000002E-02
  2.5999978E-01   9.9999998E-03   8.0000006E-02
  2.5999978E-01   9.9999998E-03   1.0000001E-01
  2.5999978E-01   9.9999998E-03   1.2000000E-01
  2.5999978E-01   9.9999998E-03   1.4000002E-01
  2.7999970E-01   9.9999998E-03   3.1173135E-15
  2.7999970E-01   9.9999998E-03   2.0000001E-02
  2.7999970E-01   9.9999998E-03   4.0000003E-02
  2.7999970E-01   9.9999998E-03   6.0000002E-02
  2.7999970E-01   9.9999998E-03   8.0000006E-02
  2.7999970E-01   9.9999998E-03   1.0000001E-01
  2.7999970E-01   9.9999998E-03   1.2000001E-01
  2.7999970E-01   9.9999998E-03   1.4000002E-01
  2.9999962E-01   9.9999998E-03  -1.2482847E-14
  2.9999962E-01   9.9999998E-03   2.0000001E-02
  2.9999962E-01   9.9999998E-03   4.0000003E-02
  2.9999962E-01   9.9999998E-03   6.0000006E-02
  2.9999962E-01   9.9999998E-03   8.0000006E-02
  2.9999962E-01   9.9999998E-03   1.0000001E-01
  2.9999962E-01   9.9999998E-03   1.2000001E-01
  2.9999962E-01   9.9999998E-03   1.4000002E-01
  3.1999949E-01   9.9999998E-03  -8.9149201E-15
  3.1999949E-01   9.9999998E-03   2.0000001E-02
  3.1999949E-01   9.9999998E-03   4.0000003E-02
  3.1999949E-01   9.9999998E-03   6.0000006E-02
  3.1999949E-01   9.9999998E-03   8.0000013E-02
  3.1999949E-01   9.9999998E-03   1.0000002E-01
  3.1999949E-01   9.9999998E-03   1.2000002E-01
  3.1999949E-01   9.9999998E-03   1.4000002E-01
  3.3999929E-01   9.9999998E-03   5.1682742E-14
  3.3999929E-01   9.9999998E-03   2.0000003E-02
  3.3999929E-01   9.9999998E-03   4.0000007E-02
  3.3999929E-01   9.9999998E-03   6.0000010E-02
  3.3999929E-01   9.9999998E-03   8.0000013E-02
  3.3999929E-01   9.9999998E-03   1.0000002E-01
  3.3999929E-01   9.9999998E-03   1.2000002E-01
  3.3999929E-01   9.9999998E-03   1.4000003E-01
  3.5999906E-01   9.9999998E-03   8.3071232E-15
  3.5999906E-01   9.9999998E-03   2.0000003E-02
  3.5999906E-01   9.9999998E-03   4.0000007E-02
  3.5999906E-01   9.9999998E-03   6.0000014E-02
  3.5999906E-01   9.9999998E-03   8.0000021E-02
  3.5999906E-01   9.9999998E-03   1.0000002E-01
  3.5999906E-01   9.9999998E-03   1.2000003E-01
  3.5999906E-01   9.9999998E-03   1.4000005E-01
  3.7999877E-01   9.9999998E-03   1.4288001E-14
  3.7999877E-01   9.9999998E-03   2.0000005E-02
  3.7999877E-01   9.9999998E-03   4.0000010E-02
  3.7999877E-01   9.9999998E-03   6.0000017E-02
  3.7999877E-01   9.9999998E-03   8.0000021E-02
  3.7999874E-01   9.9999998E-03   1.0000003E-01
  3.7999874E-01   9.9999998E-03   1.2000004E-01
  3.7999874E-01   9.9999998E-03   1.4000005E-01
  3.9999837E-01   9.9999998E-03  -1.6171894E-14
  3.9999837E-01   9.9999998E-03   2.0000009E-02
  3.9999837E-01   9.9999998E-03   4.0000018E-02
  3.9999837E-01   9.9999998E-03   6.0000025E-02
  3.9999837E-01   9.9999998E-03   8.0000035E-02
  3.9999837E-01   9.9999998E-03   1.0000005E-01
  3.9999837E-01   9.9999998E-03   1.2000006E-01
  3.9999837E-01   9.9999998E-03   1.4000008E-01
  4.1999787E-01   9.9999998E-03  -2.7720127E-14
  4.1999787E-01   9.9999998E-03   2.0000011E-02
  4.1999787E-01   9.9999998E-03   4.0000021E-02
  4.1999787E-01   9.9999998E-03   6.0000036E-02
  4.1999787E-01   9.9999998E-03   8.0000050E-02
  4.1999784E-01   9.9999998E-03   1.0000006E-01
  4.1999784E-01   9.9999998E-03   1.2000008E-01
  4.1999784E-01   9.9999998E-03   1.4000009E-01
  4.3999723E-01   9.9999998E-03  -8.7635126E-14
  4.3999723E-01   9.9999998E-03   2.0000016E-02
  4.3999723E-01   9.9999998E-03   4.0000033E-02
  4.3999723E-01   9.9999998E-03   6.0000051E-02
  4.3999723E-01   9.9999998E-03   8.0000065E-02
  4.3999720E-01   9.9999998E-03   1.0000009E-01
  4.3999720E-01   9.9999998E-03   1.2000011E-01
  4.3999717E-01   9.9999998E-03   1.4000013E-01
  4.5999640E-01   9.9999998E-03  -9.4485082E-14
  4.5999640E-01   9.9999998E-03   2.0000022E-02
  4.5999637E-01   9.9999998E-03   4.0000048E-02
  4.5999637E-01   9.9999998E-03   6.0000069E-02
  4.5999637E-01   9.9999998E-03   8.0000095E-02
  4.5999637E-01   9.9999998E-03   1.0000013E-01
  4.5999634E-01   9.9999998E-03   1.2000016E-01
  4.5999631E-01   9.9999998E-03   1.4000019E-01
  4.7999531E-01   9.9999998E-03   1.8365742E-13
  4.7999531E-01   9.9999998E-03   2.0000031E-02
  4.7999531E-01   9.9999998E-03   4.0000062E-02
  4.7999531E-01   9.9999998E-03   6.0000099E-02
  4.7999531E-01   9.9999998E-03   8.0000140E-02
  4.7999528E-01   9.9999998E-03   1.0000018E-01
  4.7999525E-01   9.9999998E-03   1.2000023E-01
  4.7999522E-01   9.9999998E-03   1.4000028E-01
  4.9999392E-01   9.9999998E-03   3.6761132E-13
  4.9999392E-01   9.9999998E-03   2.0000044E-02
  4.9999392E-01   9.9999998E-03   4.0000089E-02
  4.9999392E-01   9.9999998E-03   6.0000136E-02
  4.9999392E-01   9.9999998E-03   8.0000192E-02
  4.9999389E-01   9.9999998E-03   1.0000025E-01
  4.9999386E-01   9.9999998E-03   1.2000033E-01
  4.9999380E-01   9.9999998E-03   1.4000042E-01
  5.1999217E-01   9.9999998E-03   4.5218828E-13
  5.1999217E-01   9.9999998E-03   2.0000059E-02
  5.1999217E-01   9.9999998E-03   4.0000118E-02
  5.1999217E-01   9.9999998E-03   6.0000185E-02
  5.1999217E-01   9.9999998E-03   8.0000266E-02
  5.1999211E-01   9.9999998E-03   1.0000035E-01
  5.1999205E-01   9.9999998E-03   1.2000046E-01
  5.1999199E-01   9.9999998E-03   1.4000058E-01
  5.3999007E-01   9.9999998E-03  -5.1262098E-13
  5.3999007E-01   9.9999998E-03   2.0000078E-02
  5.3999007E-01   9.9999998E-03   4.0000159E-02
  5.3999007E-01   9.9999998E-03   6.0000252E-02
  5.3999001E-01   9.9999998E-03   8.0000356E-02
  5.3998995E-01   9.9999998E-03   1.0000049E-01
  5.3998989E-01   9.9999998E-03   1.2000064E-01
  5.3998983E-01   9.9999998E-03   1.4000082E-01
  5.5998760E-01   9.9999998E-03  -7.7356584E-13
  5.5998760E-01   9.9999998E-03   2.0000100E-02
  5.5998760E-01   9.9999998E-03   4.0000208E-02
  5.5998760E-01   9.9999998E-03   6.0000326E-02
  5.5998755E-01   9.9999998E-03   8.0000475E-02
  5.5998749E-01   9.9999998E-03   1.0000065E-01
  5.5998743E-01   9.9999998E-03   1.2000087E-01
  5.5998731E-01   9.9999998E-03   1.4000113E-01
  5.7998496E-01   9.9999998E-03  -7.5430639E-13
  5.7998496E-01   9.9999998E-03   2.0000124E-02
  5.7998496E-01   9.9999998E-03   4.0000260E-02
  5.7998490E-01   9.9999998E-03   6.0000416E-02
  5.7998490E-01   9.9999998E-03   8.0000609E-02
  5.7998484E-01   9.9999998E-03   1.0000085E-01
  5.7998472E-01   9.9999998E-03   1.2000114E-01
  5.7998455E-01   9.9999998E-03   1.4000151E-01
  5.9998238E-01   9.9999998E-03  -5.4441575E-13
  5.9998238E-01   9.9999998E-03   2.0000150E-02
  5.9998232E-01   9.9999998E-03   4.0000316E-02
  5.9998232E-01   9.9999998E-03   6.0000509E-02
  5.9998226E-01   9.9999998E-03   8.0000758E-02
  5.9998220E-01   9.9999998E-03   1.0000107E-01
  5.9998202E-01   9.9999998E-03   1.2000146E-01
  5.9998184E-01   9.9999998E-03   1.4000192E-01
  6.1997998E-01   9.9999998E-03   1.1816978E-12
  6.1997998E-01   9.9999998E-03   2.0000169E-02
  6.1997998E-01   9.9999998E-03   4.0000357E-02
  6.1997992E-01   9.9999998E-03   6.0000587E-02
  6.1997986E-01   9.9999998E-03   8.0000885E-02
  6.1997974E-01   9.9999998E-03   1.0000128E-01
  6.1997956E-01   9.9999998E-03   1.2000177E-01
  6.1997926E-01   9.9999998E-03   1.4000237E-01
  6.3997793E-01   9.9999998E-03  -8.5633844E-13
  6.3997787E-01   9.9999998E-03   2.0000177E-02
  6.3997787E-01   9.9999998E-03   4.0000379E-02
  6.3997781E-01   9.9999998E-03   6.0000639E-02
  6.3997769E-01   9.9999998E-03   8.0000997E-02
  6.3997757E-01   9.9999998E-03   1.0000148E-01
  6.3997734E-01   9.9999998E-03   1.2000212E-01
  6.3997698E-01   9.9999998E-03   1.4000289E-01
  6.5997648E-01   9.9999998E-03  -5.9321498E-13
  6.5997642E-01   9.9999998E-03   2.0000188E-02
  6.5997642E-01   9.9999998E-03   4.0000413E-02
  6.5997630E-01   9.9999998E-03   6.0000714E-02
  6.5997618E-01   9.9999998E-03   8.0001146E-02
  6.5997601E-01   9.9999998E-03   1.0000175E-01
  6.5997571E-01   9.9999998E-03   1.2000255E-01
  6.5997535E-01   9.9999998E-03   1.4000353E-01
  6.7997628E-01   9.9999998E-03   3.2026059E-12
  6.7997628E-01   9.9999998E-03   2.0000195E-02
  6.7997622E-01   9.9999998E-03   4.0000435E-02
  6.7997617E-01   9.9999998E-03   6.0000781E-02
  6.7997605E-01   9.9999998E-03   8.0001295E-02
  6.7997587E-01   9.9999998E-03   1.0000203E-01
  6.7997557E-01   9.9999998E-03   1.2000301E-01
  6.7997521E-01   9.9999998E-03   1.4000420E-01
  6.9997877E-01   9.9999998E-03   4.1385441E-12
  6.9997877E-01   9.9999998E-03   2.0000184E-02
  6.9997877E-01   9.9999998E-03   4.0000431E-02
  6.9997871E-01   9.9999998E-03   6.0000807E-02
  6.9997859E-01   9.9999998E-03   8.0001391E-02
  6.9997847E-01   9.9999998E-03   1.0000226E-01
  6.9997823E-01   9.9999998E-03   1.2000342E-01
  6.9997787E-01   9.9999998E-03   1.4000481E-01
  7.1998489E-01   9.9999998E-03   1.7301179E-12
  7.1998489E-01   9.9999998E-03   2.0000199E-02
  7.1998483E-01   9.9999998E-03   4.0000465E-02
  7.1998483E-01   9.9999998E-03   6.0000882E-02
  7.1998471E-01   9.9999998E-03   8.0001533E-02
  7.1998459E-01   9.9999998E-03   1.0000250E-01
  7.1998441E-01   9.9999998E-03   1.2000378E-01
  7.1998417E-01   9.9999998E-03   1.4000534E-01
  7.3999083E-01   9.9999998E-03   2.7209107E-12
  7.3999083E-01   9.9999998E-03   2.0000212E-02
  7.3999083E-01   9.9999998E-03   4.0000498E-02
  7.3999077E-01   9.9999998E-03   6.0000945E-02
  7.3999071E-01   9.9999998E-03   8.0001645E-02
  7.3999065E-01   9.9999998E-03   1.0000267E-01
  7.3999053E-01   9.9999998E-03   1.2000405E-01
  7.3999029E-01   9.9999998E-03   1.4000571E-01
  7.5999540E-01   9.9999998E-03   5.2039154E-12
  7.5999540E-01   9.9999998E-03   2.0000223E-02
  7.5999540E-01   9.9999998E-03   4.0000521E-02
  7.5999540E-01   9.9999998E-03   6.0000986E-02
  7.5999534E-01   9.9999998E-03   8.0001719E-02
  7.5999528E-01   9.9999998E-03   1.0000280E-01
  7.5999522E-01   9.9999998E-03   1.2000423E-01
  7.5999504E-01   9.9999998E-03   1.4000596E-01
  7.7999866E-01   9.9999998E-03  -6.5361705E-12
  7.7999866E-01   9.9999998E-03   2.0000229E-02
  7.7999866E-01   9.9999998E-03   4.0000536E-02
  7.7999866E-01   9.9999998E-03   6.0001012E-02
  7.7999866E-01   9.9999998E-03   8.0001757E-02
  7.7999860E-01   9.9999998E-03   1.0000286E-01
  7.7999860E-01   9.9999998E-03   1.2000433E-01
  7.7999854E-01   9.9999998E-03   1.4000610E-01
  8.0000120E-01   9.9999998E-03  -6.5177880E-12
  8.0000120E-01   9.9999998E-03   2.0000231E-02
  8.0000120E-01   9.9999998E-03   4.0000539E-02
  8.0000120E-01   9.9999998E-03   6.0001019E-02
  8.0000120E-01   9.9999998E-03   8.0001771E-02
  8.0000120E-01   9.9999998E-03   1.0000288E-01
  8.0000120E-01   9.9999998E-03   1.2000436E-01
  8.0000120E-01   9.9999998E-03   1.4000614E-01
  8.2000351E-01   9.9999998E-03   9.4864123E-13
  8.2000351E-01   9.9999998E-03   2.0000229E-02
  8.2000351E-01   9.9999998E-03   4.0000536E-02
  8.2000351E-01   9.9999998E-03   6.0001012E-02
  8.2000357E-01   9.9999998E-03   8.0001757E-02
  8.2000357E-01   9.9999998E-03   1.0000286E-01
  8.2000363E-01   9.9999998E-03   1.2000433E-01
  8.2000369E-01   9.9999998E-03   1.4000608E-01
  8.4000593E-01   9.9999998E-03  -8.6410382E-13
  8.4000593E-01   9.9999998E-03   2.0000223E-02
  8.4000593E-01   9.9999998E-03   4.0000524E-02
  8.4000593E-01   9.9999998E-03   6.0000990E-02
  8.4000599E-01   9.9999998E-03   8.0001719E-02
  8.4000599E-01   9.9999998E-03   1.0000280E-01
  8.4000611E-01   9.9999998E-03   1.2000423E-01
  8.4000617E-01   9.9999998E-03   1.4000596E-01
  8.6000836E-01   9.9999998E-03   9.8857866E-12
  8.6000836E-01   9.9999998E-03   2.0000216E-02
  8.6000836E-01   9.9999998E-03   4.0000506E-02
  8.6000842E-01   9.9999998E-03   6.0000956E-02
  8.6000848E-01   9.9999998E-03   8.0001660E-02
  8.6000854E-01   9.9999998E-03   1.0000270E-01
  8.6000860E-01   9.9999998E-03   1.2000409E-01
  8.6000878E-01   9.9999998E-03   1.4000575E-01
  8.8001072E-01   9.9999998E-03   1.2460302E-12
  8.8001072E-01   9.9999998E-03   2.0000206E-02
  8.8001072E-01   9.9999998E-03   4.0000480E-02
  8.8001078E-01   9.9999998E-03   6.0000911E-02
  8.8001078E-01   9.9999998E-03   8.0001585E-02
  8.8001090E-01   9.9999998E-03   1.0000258E-01
  8.8001102E-01   9.9999998E-03   1.2000390E-01
  8.8001120E-01   9.9999998E-03   1.4000550E-01
  9.0001273E-01   9.9999998E-03  -1.3109841E-11
  9.0001273E-01   9.9999998E-03   2.0000193E-02
  9.0001273E-01   9.9999998E-03   4.0000454E-02
  9.0001279E-01   9.9999998E-03   6.0000855E-02
  9.0001285E-01   9.9999998E-03   8.0001488E-02
  9.0001291E-01   9.9999998E-03   1.0000243E-01
  9.0001309E-01   9.9999998E-03   1.2000368E-01
  9.0001333E-01   9.9999998E-03   1.4000517E-01
  9.2001384E-01   9.9999998E-03  -3.9345415E-12
  9.2001384E-01   9.9999998E-03   2.0000193E-02
  9.2001390E-01   9.9999998E-03   4.0000442E-02
  9.2001396E-01   9.9999998E-03   6.0000822E-02
  9.2001402E-01   9.9999998E-03   8.0001414E-02
  9.2001420E-01   9.9999998E-03   1.0000228E-01
  9.2001438E-01   9.9999998E-03   1.2000344E-01
  9.2001468E-01   9.9999998E-03   1.4000483E-01
  9.4001400E-01   9.9999998E-03  -2.3100068E-12
  9.4001400E-01   9.9999998E-03   2.0000201E-02
  9.4001406E-01   9.9999998E-03   4.0000450E-02
  9.4001412E-01   9.9999998E-03   6.0000807E-02
  9.4001424E-01   9.9999998E-03   8.0001347E-02
  9.4001442E-01   9.9999998E-03   1.0000215E-01
  9.4001466E-01   9.9999998E-03   1.2000320E-01
  9.4001502E-01   9.9999998E-03   1.4000449E-01
  9.6001381E-01   9.9999998E-03  -7.2245604E-12
  9.6001381E-01   9.9999998E-03   2.0000195E-02
  9.6001387E-01   9.9999998E-03   4.0000435E-02
  9.6001393E-01   9.9999998E-03   6.0000774E-02
  9.6001405E-01   9.9999998E-03   8.0001272E-02
  9.6001422E-01   9.9999998E-03   1.0000199E-01
  9.6001446E-01   9.9999998E-03   1.2000296E-01
  9.6001482E-01   9.9999998E-03   1.4000413E-01
  9.8001343E-01   9.9999998E-03  -1.3530281E-12
  9.8001343E-01   9.9999998E-03   2.0000191E-02
  9.8001349E-01   9.9999998E-03   4.0000424E-02
  9.8001355E-01   9.9999998E-03   6.0000736E-02
  9.8001367E-01   9.9999998E-03   8.0001190E-02
  9.8001379E-01   9.9999998E-03   1.0000184E-01
  9.8001409E-01   9.9999998E-03   1.2000271E-01
  9.8001444E-01   9.9999998E-03   1.4000376E-01
  1.0000130E+00   9.9999998E-03   4.6008716E-14
  1.0000130E+00   9.9999998E-03   2.0000193E-02
  1.0000130E+00   9.9999998E-03   4.0000416E-02
  1.0000130E+00   9.9999998E-03   6.0000710E-02
  1.0000131E+00   9.9999998E-03   8.0001131E-02
  1.0000132E+00   9.9999998E-03   1.0000171E-01
  1.0000135E+00   9.9999998E-03   1.2000248E-01
  1.0000138E+00   9.9999998E-03   1.4000341E-01
  1.0200124E+00   9.9999998E-03   3.9933995E-14
  1.0200124E+00   9.9999998E-03   2.0000191E-02
  1.0200124E+00   9.9999998E-03   4.0000409E-02
  1.0200124E+00   9.9999998E-03   6.0000688E-02
  1.0200125E+00   9.9999998E-03   8.0001071E-02
  1.0200126E+00   9.9999998E-03   1.0000160E-01
  1.0200129E+00   9.9999998E-03   1.2000228E-01
  1.0200132E+00   9.9999998E-03   1.4000310E-01
  1.0400116E+00   9.9999998E-03   2.3017914E-12
  1.0400116E+00   9.9999998E-03   2.0000188E-02
  1.0400116E+00   9.9999998E-03   4.0000401E-02
  1.0400118E+00   9.9999998E-03   6.0000665E-02
  1.0400118E+00   9.9999998E-03   8.0001019E-02
  1.0400119E+00   9.9999998E-03   1.0000149E-01
  1.0400121E+00   9.9999998E-03   1.2000210E-01
  1.0400125E+00   9.9999998E-03   1.4000283E-01
  1.0600108E+00   9.9999998E-03   1.6962295E-12
  1.0600108E+00   9.9999998E-03   2.0000184E-02
  1.0600109E+00   9.9999998E-03   4.0000390E-02
  1.0600109E+00   9.9999998E-03   6.0000639E-02
  1.0600110E+00   9.9999998E-03   8.0000967E-02
  1.0600111E+00   9.9999998E-03   1.0000139E-01
  1.0600114E+00   9.9999998E-03   1.2000193E-01
  1.0600117E+00   9.9999998E-03   1.4000256E-01
  1.0800099E+00   9.9999998E-03  -7.8745246E-13
  1.0800099E+00   9.9999998E-03   2.0000180E-02
  1.0800101E+00   9.9999998E-03   4.0000379E-02
  1.0800101E+00   9.9999998E-03   6.0000621E-02
  1.0800102E+00   9.9999998E-03   8.0000922E-02
  1.0800103E+00   9.9999998E-03   1.0000130E-01
  1.0800105E+00   9.9999998E-03   1.2000177E-01
  1.0800109E+00   9.9999998E-03   1.4000231E-01
  1.1000091E+00   9.9999998E-03  -2.5233353E-13
  1.1000092E+00   9.9999998E-03   2.0000178E-02
  1.1000092E+00   9.9999998E-03   4.0000372E-02
  1.1000092E+00   9.9999998E-03   6.0000598E-02
  1.1000093E+00   9.9999998E-03   8.0000877E-02
  1.1000096E+00   9.9999998E-03   1.0000121E-01
  1.1000098E+00   9.9999998E-03   1.2000161E-01
  1.1000102E+00   9.9999998E-03   1.4000209E-01
  1.1200083E+00   9.9999998E-03  -6.8178758E-13
  1.1200083E+00   9.9999998E-03   2.0000175E-02
  1.1200085E+00   9.9999998E-03   4.0000364E-02
  1.1200085E+00   9.9999998E-03   6.0000576E-02
  1.1200086E+00   9.9999998E-03   8.0000818E-02
  1.1200088E+00   9.9999998E-03   1.0000110E-01
  1.1200091E+00   9.9999998E-03   1.2000145E-01
  1.1200095E+00   9.9999998E-03   1.4000188E-01
  1.1400076E+00   9.9999998E-03  -3.6691087E-13
  1.1400077E+00   9.9999998E-03   2.0000167E-02
  1.1400077E+00   9.9999998E-03   4.0000342E-02
  1.1400079E+00   9.9999998E-03   6.0000531E-02
  1.1400080E+00   9.9999998E-03   8.0000743E-02
  1.1400082E+00   9.9999998E-03   1.0000099E-01
  1.1400084E+00   9.9999998E-03   1.2000129E-01
  1.1400089E+00   9.9999998E-03   1.4000176E-01
  1.1600071E+00   9.9999998E-03  -1.1636550E-12
  1.1600071E+00   9.9999998E-03   2.0000147E-02
  1.1600071E+00   9.9999998E-03   4.0000301E-02
  1.1600072E+00   9.9999998E-03   6.0000461E-02
  1.1600074E+00   9.9999998E-03   8.0000654E-02
  1.1600076E+00   9.9999998E-03   1.0000087E-01
  1.1600080E+00   9.9999998E-03   1.2000121E-01
  1.1600085E+00   9.9999998E-03   1.4000180E-01
  1.1800065E+00   9.9999998E-03  -5.3051530E-13
  1.1800065E+00   9.9999998E-03   2.0000117E-02
  1.1800066E+00   9.9999998E-03   4.0000245E-02
  1.1800067E+00   9.9999998E-03   6.0000390E-02
  1.1800069E+00   9.9999998E-03   8.0000579E-02
  1.1800072E+00   9.9999998E-03   1.0000086E-01
  1.1800077E+00   9.9999998E-03   1.2000132E-01
  1.1800085E+00   9.9999998E-03   1.4000216E-01
  1.2000061E+00   9.9999998E-03   3.1610280E-13
  1.2000061E+00   9.9999998E-03   2.0000100E-02
  1.2000062E+00   9.9999998E-03   4.0000223E-02
  1.2000064E+00   9.9999998E-03   6.0000394E-02
  1.2000066E+00   9.9999998E-03   8.0000661E-02
  1.2000071E+00   9.9999998E-03   1.0000110E-01
  1.2000079E+00   9.9999998E-03   1.2000183E-01
  1.2000091E+00   9.9999998E-03   1.4000304E-01
  1.2200060E+00   9.9999998E-03  -8.9141619E-14
  1.2200060E+00   9.9999998E-03   2.0000132E-02
  1.2200061E+00   9.9999998E-03   4.0000316E-02
  1.2200065E+00   9.9999998E-03   6.0000602E-02
  1.2200069E+00   9.9999998E-03   8.0001079E-02
  1.2200078E+00   9.9999998E-03   1.0000180E-01
  1.2200091E+00   9.9999998E-03   1.2000283E-01
  1.2200110E+00   9.9999998E-03   1.4000417E-01
  1.2400067E+00   9.9999998E-03  -4.8747258E-13
  1.2400068E+00   9.9999998E-03   2.0000268E-02
  1.2400070E+00   9.9999998E-03   4.0000618E-02
  1.2400076E+00   9.9999998E-03   6.0001124E-02
  1.2400086E+00   9.9999998E-03   8.0001824E-02
  1.2400099E+00   9.9999998E-03   1.0000273E-01
  1.2400116E+00   9.9999998E-03   1.2000387E-01
  1.2400132E+00   9.9999998E-03   1.4000529E-01
  1.2600095E+00   9.9999998E-03  -6.2031343E-13
  1.2600096E+00   9.9999998E-03   2.0000404E-02
  1.2600100E+00   9.9999998E-03   4.0000916E-02
  1.2600106E+00   9.9999998E-03   6.0001627E-02
  1.2600116E+00   9.9999998E-03   8.0002561E-02
  1.2600126E+00   9.9999998E-03   1.0000368E-01
  1.2600137E+00   9.9999998E-03   1.2000496E-01
  1.2600145E+00   9.9999998E-03   1.4000636E-01
  1.2800127E+00   9.9999998E-03   4.3285593E-13
  1.2800127E+00   9.9999998E-03   2.0000542E-02
  1.2800130E+00   9.9999998E-03   4.0001228E-02
  1.2800132E+00   9.9999998E-03   6.0002178E-02
  1.2800136E+00   9.9999998E-03   8.0003388E-02
  1.2800140E+00   9.9999998E-03   1.0000470E-01
  1.2800142E+00   9.9999998E-03   1.2000602E-01
  1.3000139E+00   9.9999998E-03   9.5850248E-14
  1.3000139E+00   9.9999998E-03   2.0000681E-02
  1.3000139E+00   9.9999998E-03   4.0001556E-02
  1.3000138E+00   9.9999998E-03   6.0002755E-02
  1.3000137E+00   9.9999998E-03   8.0004260E-02
 -1.7976577E-09   9.9999998E-03   1.6000000E-01
 -1.7210191E-09   9.9999998E-03   1.8000001E-01
 -1.6247848E-09   9.9999998E-03   2.0000000E-01
 -1.5051894E-09   9.9999998E-03   2.2000000E-01
 -1.3593046E-09   9.9999998E-03   2.3999999E-01
 -1.1822029E-09   9.9999998E-03   2.5999999E-01
 -9.7374353E-10   9.9999998E-03   2.8000000E-01
  1.9999998E-02   9.9999998E-03   1.6000000E-01
  1.9999998E-02   9.9999998E-03   1.8000001E-01
  1.9999998E-02   9.9999998E-03   2.0000000E-01
  1.9999998E-02   9.9999998E-03   2.2000000E-01
  1.9999998E-02   9.9999998E-03   2.3999999E-01
  1.9999998E-02   9.9999998E-03   2.5999999E-01
  1.9999998E-02   9.9999998E-03   2.8000000E-01
  2.0000000E-02   9.9999998E-03   3.0000001E-01
  3.9999995E-02   9.9999998E-03   1.6000000E-01
  3.9999995E-02   9.9999998E-03   1.8000001E-01
  3.9999995E-02   9.9999998E-03   2.0000000E-01
  3.9999995E-02   9.9999998E-03   2.2000000E-01
  3.9999995E-02   9.9999998E-03   2.3999999E-01
  3.9999995E-02   9.9999998E-03   2.5999999E-01
  3.9999999E-02   9.9999998E-03   2.8000000E-01
  3.9999999E-02   9.9999998E-03   3.0000001E-01
  5.9999995E-02   9.9999998E-03   1.6000000E-01
  5.9999995E-02   9.9999998E-03   1.8000001E-01
  5.9999995E-02   9.9999998E-03   2.0000000E-01
  5.9999995E-02   9.9999998E-03   2.2000000E-01
  5.9999995E-02   9.9999998E-03   2.3999999E-01
  5.9999995E-02   9.9999998E-03   2.5999999E-01
  5.9999995E-02   9.9999998E-03   2.8000000E-01
  5.9999999E-02   9.9999998E-03   3.0000001E-01
  7.9999991E-02   9.9999998E-03   1.6000000E-01
  7.9999991E-02   9.9999998E-03   1.8000001E-01
  7.9999991E-02   9.9999998E-03   2.0000000E-01
  7.9999991E-02   9.9999998E-03   2.2000000E-01
  7.9999991E-02   9.9999998E-03   2.3999999E-01
  7.9999991E-02   9.9999998E-03   2.5999999E-01
  7.9999998E-02   9.9999998E-03   2.8000000E-01
  7.9999998E-02   9.9999998E-03   3.0000001E-01
  9.9999987E-02   9.9999998E-03   1.6000000E-01
  9.9999987E-02   9.9999998E-03   1.8000001E-01
  9.9999987E-02   9.9999998E-03   2.0000000E-01
  9.9999987E-02   9.9999998E-03   2.2000000E-01
  9.9999987E-02   9.9999998E-03   2.3999999E-01
  9.9999994E-02   9.9999998E-03   2.5999999E-01
  9.9999994E-02   9.9999998E-03   2.8000000E-01
  9.9999994E-02   9.9999998E-03   3.0000001E-01
  1.1999998E-01   9.9999998E-03   1.6000000E-01
  1.1999998E-01   9.9999998E-03   1.8000001E-01
  1.1999998E-01   9.9999998E-03   2.0000000E-01
  1.1999998E-01   9.9999998E-03   2.2000000E-01
  1.1999998E-01   9.9999998E-03   2.4000001E-01
  1.1999998E-01   9.9999998E-03   2.5999999E-01
  1.1999999E-01   9.9999998E-03   2.8000000E-01
  1.1999999E-01   9.9999998E-03   3.0000001E-01
  1.3999997E-01   9.9999998E-03   1.6000000E-01
  1.3999997E-01   9.9999998E-03   1.8000001E-01
  1.3999997E-01   9.9999998E-03   2.0000000E-01
  1.3999997E-01   9.9999998E-03   2.2000000E-01
  1.3999997E-01   9.9999998E-03   2.4000001E-01
  1.3999999E-01   9.9999998E-03   2.5999999E-01
  1.3999999E-01   9.9999998E-03   2.8000000E-01
  1.3999999E-01   9.9999998E-03   3.0000001E-01
  1.5999997E-01   9.9999998E-03   1.6000000E-01
  1.5999997E-01   9.9999998E-03   1.8000001E-01
  1.5999997E-01   9.9999998E-03   2.0000000E-01
  1.5999997E-01   9.9999998E-03   2.2000000E-01
  1.5999997E-01   9.9999998E-03   2.4000001E-01
  1.5999997E-01   9.9999998E-03   2.6000002E-01
  1.5999998E-01   9.9999998E-03   2.8000000E-01
  1.5999998E-01   9.9999998E-03   3.0000001E-01
  1.7999995E-01   9.9999998E-03   1.6000001E-01
  1.7999995E-01   9.9999998E-03   1.8000001E-01
  1.7999995E-01   9.9999998E-03   2.0000000E-01
  1.7999995E-01   9.9999998E-03   2.2000001E-01
  1.7999995E-01   9.9999998E-03   2.4000001E-01
  1.7999996E-01   9.9999998E-03   2.6000002E-01
  1.7999996E-01   9.9999998E-03   2.8000000E-01
  1.7999998E-01   9.9999998E-03   3.0000001E-01
  1.9999993E-01   9.9999998E-03   1.6000001E-01
  1.9999993E-01   9.9999998E-03   1.8000001E-01
  1.9999993E-01   9.9999998E-03   2.0000000E-01
  1.9999993E-01   9.9999998E-03   2.2000001E-01
  1.9999993E-01   9.9999998E-03   2.4000001E-01
  1.9999994E-01   9.9999998E-03   2.6000002E-01
  1.9999994E-01   9.9999998E-03   2.8000000E-01
  1.9999996E-01   9.9999998E-03   3.0000001E-01
  2.1999989E-01   9.9999998E-03   1.6000001E-01
  2.1999989E-01   9.9999998E-03   1.8000001E-01
  2.1999989E-01   9.9999998E-03   2.0000002E-01
  2.1999989E-01   9.9999998E-03   2.2000001E-01
  2.1999991E-01   9.9999998E-03   2.4000001E-01
  2.1999991E-01   9.9999998E-03   2.6000002E-01
  2.1999992E-01   9.9999998E-03   2.8000003E-01
  2.1999994E-01   9.9999998E-03   3.0000001E-01
  2.3999985E-01   9.9999998E-03   1.6000001E-01
  2.3999986E-01   9.9999998E-03   1.8000001E-01
  2.3999986E-01   9.9999998E-03   2.0000002E-01
  2.3999986E-01   9.9999998E-03   2.2000001E-01
  2.3999988E-01   9.9999998E-03   2.4000002E-01
  2.3999988E-01   9.9999998E-03   2.6000002E-01
  2.3999989E-01   9.9999998E-03   2.8000003E-01
  2.3999991E-01   9.9999998E-03   3.0000004E-01
  2.5999978E-01   9.9999998E-03   1.6000001E-01
  2.5999981E-01   9.9999998E-03   1.8000002E-01
  2.5999981E-01   9.9999998E-03   2.0000002E-01
  2.5999981E-01   9.9999998E-03   2.2000003E-01
  2.5999981E-01   9.9999998E-03   2.4000002E-01
  2.5999984E-01   9.9999998E-03   2.6000005E-01
  2.5999984E-01   9.9999998E-03   2.8000006E-01
  2.5999987E-01   9.9999998E-03   3.0000007E-01
  2.7999973E-01   9.9999998E-03   1.6000001E-01
  2.7999973E-01   9.9999998E-03   1.8000002E-01
  2.7999973E-01   9.9999998E-03   2.0000003E-01
  2.7999973E-01   9.9999998E-03   2.2000003E-01
  2.7999973E-01   9.9999998E-03   2.4000004E-01
  2.7999976E-01   9.9999998E-03   2.6000005E-01
  2.7999979E-01   9.9999998E-03   2.8000009E-01
  2.7999979E-01   9.9999998E-03   3.0000010E-01
  2.9999962E-01   9.9999998E-03   1.6000003E-01
  2.9999962E-01   9.9999998E-03   1.8000002E-01
  2.9999962E-01   9.9999998E-03   2.0000003E-01
  2.9999962E-01   9.9999998E-03   2.2000004E-01
  2.9999965E-01   9.9999998E-03   2.4000005E-01
  2.9999965E-01   9.9999998E-03   2.6000008E-01
  2.9999968E-01   9.9999998E-03   2.8000012E-01
  2.9999971E-01   9.9999998E-03   3.0000013E-01
  3.1999949E-01   9.9999998E-03   1.6000003E-01
  3.1999949E-01   9.9999998E-03   1.8000004E-01
  3.1999949E-01   9.9999998E-03   2.0000005E-01
  3.1999952E-01   9.9999998E-03   2.2000006E-01
  3.1999952E-01   9.9999998E-03   2.4000008E-01
  3.1999955E-01   9.9999998E-03   2.6000011E-01
  3.1999958E-01   9.9999998E-03   2.8000015E-01
  3.1999961E-01   9.9999998E-03   3.0000019E-01
  3.3999929E-01   9.9999998E-03   1.6000004E-01
  3.3999932E-01   9.9999998E-03   1.8000005E-01
  3.3999932E-01   9.9999998E-03   2.0000006E-01
  3.3999932E-01   9.9999998E-03   2.2000009E-01
  3.3999935E-01   9.9999998E-03   2.4000011E-01
  3.3999938E-01   9.9999998E-03   2.6000014E-01
  3.3999941E-01   9.9999998E-03   2.8000021E-01
  3.3999944E-01   9.9999998E-03   3.0000025E-01
  3.5999906E-01   9.9999998E-03   1.6000006E-01
  3.5999906E-01   9.9999998E-03   1.8000007E-01
  3.5999906E-01   9.9999998E-03   2.0000008E-01
  3.5999909E-01   9.9999998E-03   2.2000012E-01
  3.5999909E-01   9.9999998E-03   2.4000014E-01
  3.5999912E-01   9.9999998E-03   2.6000020E-01
  3.5999918E-01   9.9999998E-03   2.8000027E-01
  3.5999924E-01   9.9999998E-03   3.0000037E-01
  3.7999874E-01   9.9999998E-03   1.6000007E-01
  3.7999874E-01   9.9999998E-03   1.8000008E-01
  3.7999874E-01   9.9999998E-03   2.0000011E-01
  3.7999877E-01   9.9999998E-03   2.2000015E-01
  3.7999877E-01   9.9999998E-03   2.4000019E-01
  3.7999883E-01   9.9999998E-03   2.6000026E-01
  3.7999889E-01   9.9999998E-03   2.8000036E-01
  3.7999895E-01   9.9999998E-03   3.0000049E-01
  3.9999834E-01   9.9999998E-03   1.6000009E-01
  3.9999834E-01   9.9999998E-03   1.8000011E-01
  3.9999834E-01   9.9999998E-03   2.0000014E-01
  3.9999834E-01   9.9999998E-03   2.2000019E-01
  3.9999837E-01   9.9999998E-03   2.4000025E-01
  3.9999840E-01   9.9999998E-03   2.6000035E-01
  3.9999849E-01   9.9999998E-03   2.8000048E-01
  3.9999858E-01   9.9999998E-03   3.0000064E-01
  4.1999784E-01   9.9999998E-03   1.6000012E-01
  4.1999781E-01   9.9999998E-03   1.8000014E-01
  4.1999781E-01   9.9999998E-03   2.0000018E-01
  4.1999781E-01   9.9999998E-03   2.2000024E-01
  4.1999781E-01   9.9999998E-03   2.4000032E-01
  4.1999784E-01   9.9999998E-03   2.6000044E-01
  4.1999793E-01   9.9999998E-03   2.8000063E-01
  4.1999808E-01   9.9999998E-03   3.0000088E-01
  4.3999717E-01   9.9999998E-03   1.6000016E-01
  4.3999714E-01   9.9999998E-03   1.8000020E-01
  4.3999711E-01   9.9999998E-03   2.0000024E-01
  4.3999711E-01   9.9999998E-03   2.2000031E-01
  4.3999708E-01   9.9999998E-03   2.4000041E-01
  4.3999711E-01   9.9999998E-03   2.6000056E-01
  4.3999720E-01   9.9999998E-03   2.8000084E-01
  4.3999738E-01   9.9999998E-03   3.0000114E-01
  4.5999628E-01   9.9999998E-03   1.6000023E-01
  4.5999625E-01   9.9999998E-03   1.8000029E-01
  4.5999622E-01   9.9999998E-03   2.0000035E-01
  4.5999616E-01   9.9999998E-03   2.2000042E-01
  4.5999613E-01   9.9999998E-03   2.4000053E-01
  4.5999616E-01   9.9999998E-03   2.6000074E-01
  4.5999622E-01   9.9999998E-03   2.8000107E-01
  4.5999643E-01   9.9999998E-03   3.0000150E-01
  4.7999516E-01   9.9999998E-03   1.6000035E-01
  4.7999510E-01   9.9999998E-03   1.8000041E-01
  4.7999504E-01   9.9999998E-03   2.0000048E-01
  4.7999498E-01   9.9999998E-03   2.2000057E-01
  4.7999492E-01   9.9999998E-03   2.4000071E-01
  4.7999489E-01   9.9999998E-03   2.6000094E-01
  4.7999492E-01   9.9999998E-03   2.8000137E-01
  4.7999513E-01   9.9999998E-03   3.0000198E-01
  4.9999374E-01   9.9999998E-03   1.6000050E-01
  4.9999365E-01   9.9999998E-03   1.8000060E-01
  4.9999356E-01   9.9999998E-03   2.0000072E-01
  4.9999347E-01   9.9999998E-03   2.2000082E-01
  4.9999335E-01   9.9999998E-03   2.4000098E-01
  4.9999323E-01   9.9999998E-03   2.6000124E-01
  4.9999321E-01   9.9999998E-03   2.8000179E-01
  4.9999335E-01   9.9999998E-03   3.0000263E-01
  5.1999193E-01   9.9999998E-03   1.6000073E-01
  5.1999182E-01   9.9999998E-03   1.8000089E-01
  5.1999170E-01   9.9999998E-03   2.0000106E-01
  5.1999158E-01   9.9999998E-03   2.2000122E-01
  5.1999140E-01   9.9999998E-03   2.4000141E-01
  5.1999116E-01   9.9999998E-03   2.6000169E-01
  5.1999098E-01   9.9999998E-03   2.8000236E-01
  5.1999092E-01   9.9999998E-03   3.0000353E-01
  5.3998971E-01   9.9999998E-03   1.6000104E-01
  5.3998959E-01   9.9999998E-03   1.8000129E-01
  5.3998941E-01   9.9999998E-03   2.0000154E-01
  5.3998929E-01   9.9999998E-03   2.2000182E-01
  5.3998905E-01   9.9999998E-03   2.4000210E-01
  5.3998870E-01   9.9999998E-03   2.6000243E-01
  5.3998816E-01   9.9999998E-03   2.8000325E-01
  5.3998774E-01   9.9999998E-03   3.0000481E-01
  5.5998713E-01   9.9999998E-03   1.6000144E-01
  5.5998695E-01   9.9999998E-03   1.8000180E-01
  5.5998677E-01   9.9999998E-03   2.0000218E-01
  5.5998659E-01   9.9999998E-03   2.2000259E-01
  5.5998635E-01   9.9999998E-03   2.4000306E-01
  5.5998582E-01   9.9999998E-03   2.6000366E-01
  5.5998486E-01   9.9999998E-03   2.8000474E-01
  5.5998367E-01   9.9999998E-03   3.0000681E-01
  5.7998437E-01   9.9999998E-03   1.6000193E-01
  5.7998413E-01   9.9999998E-03   1.8000241E-01
  5.7998389E-01   9.9999998E-03   2.0000292E-01
  5.7998359E-01   9.9999998E-03   2.2000356E-01
  5.7998317E-01   9.9999998E-03   2.4000433E-01
  5.7998252E-01   9.9999998E-03   2.6000550E-01
  5.7998115E-01   9.9999998E-03   2.8000730E-01
  5.7997888E-01   9.9999998E-03   3.0000997E-01
  5.9998155E-01   9.9999998E-03   1.6000247E-01
  5.9998125E-01   9.9999998E-03   1.8000308E-01
  5.9998083E-01   9.9999998E-03   2.0000380E-01
  5.9998041E-01   9.9999998E-03   2.2000474E-01
  5.9997988E-01   9.9999998E-03   2.4000612E-01
  5.9997886E-01   9.9999998E-03   2.6000822E-01
  5.9997714E-01   9.9999998E-03   2.8001153E-01
  5.9997392E-01   9.9999998E-03   3.0001521E-01
  6.1997890E-01   9.9999998E-03   1.6000307E-01
  6.1997843E-01   9.9999998E-03   1.8000384E-01
  6.1997795E-01   9.9999998E-03   2.0000485E-01
  6.1997730E-01   9.9999998E-03   2.2000635E-01
  6.1997640E-01   9.9999998E-03   2.4000888E-01
  6.1997527E-01   9.9999998E-03   2.6001322E-01
  6.1997330E-01   9.9999998E-03   2.8001890E-01
  6.1996955E-01   9.9999998E-03   3.0002385E-01
  6.3997656E-01   9.9999998E-03   1.6000377E-01
  6.3997597E-01   9.9999998E-03   1.8000479E-01
  6.3997525E-01   9.9999998E-03   2.0000625E-01
  6.3997442E-01   9.9999998E-03   2.2000889E-01
  6.3997346E-01   9.9999998E-03   2.4001391E-01
  6.3997251E-01   9.9999998E-03   2.6002195E-01
  6.3997066E-01   9.9999998E-03   2.8003100E-01
  6.3996655E-01   9.9999998E-03   3.0003715E-01
  6.5997487E-01   9.9999998E-03   1.6000463E-01
  6.5997422E-01   9.9999998E-03   1.8000598E-01
  6.5997332E-01   9.9999998E-03   2.0000824E-01
  6.5997243E-01   9.9999998E-03   2.2001265E-01
  6.5997159E-01   9.9999998E-03   2.4002089E-01
  6.5997100E-01   9.9999998E-03   2.6003370E-01
  6.5996951E-01   9.9999998E-03   2.8004646E-01
  6.5996575E-01   9.9999998E-03   3.0005336E-01
  6.7997468E-01   9.9999998E-03   1.6000552E-01
  6.7997402E-01   9.9999998E-03   1.8000722E-01
  6.7997319E-01   9.9999998E-03   2.0001023E-01
  6.7997235E-01   9.9999998E-03   2.2001630E-01
  6.7997175E-01   9.9999998E-03   2.4002755E-01
  6.7997158E-01   9.9999998E-03   2.6004446E-01
  6.7997062E-01   9.9999998E-03   2.8006035E-01
  6.7996812E-01   9.9999998E-03   3.0006763E-01
  6.9997746E-01   9.9999998E-03   1.6000636E-01
  6.9997686E-01   9.9999998E-03   1.8000834E-01
  6.9997621E-01   9.9999998E-03   2.0001195E-01
  6.9997561E-01   9.9999998E-03   2.2001918E-01
  6.9997519E-01   9.9999998E-03   2.4003235E-01
  6.9997519E-01   9.9999998E-03   2.6005182E-01
  6.9997489E-01   9.9999998E-03   2.8006956E-01
  6.9997436E-01   9.9999998E-03   3.0007708E-01
  7.1998382E-01   9.9999998E-03   1.6000703E-01
  7.1998334E-01   9.9999998E-03   1.8000920E-01
  7.1998280E-01   9.9999998E-03   2.0001313E-01
  7.1998227E-01   9.9999998E-03   2.2002091E-01
  7.1998191E-01   9.9999998E-03   2.4003500E-01
  7.1998173E-01   9.9999998E-03   2.6005575E-01
  7.1998179E-01   9.9999998E-03   2.8007454E-01
  7.1998203E-01   9.9999998E-03   3.0008262E-01
  7.3999006E-01   9.9999998E-03   1.6000752E-01
  7.3998976E-01   9.9999998E-03   1.8000980E-01
  7.3998934E-01   9.9999998E-03   2.0001388E-01
  7.3998904E-01   9.9999998E-03   2.2002187E-01
  7.3998874E-01   9.9999998E-03   2.4003635E-01
  7.3998863E-01   9.9999998E-03   2.6005769E-01
  7.3998868E-01   9.9999998E-03   2.8007710E-01
  7.3998892E-01   9.9999998E-03   3.0008572E-01
  7.5999492E-01   9.9999998E-03   1.6000783E-01
  7.5999469E-01   9.9999998E-03   1.8001017E-01
  7.5999451E-01   9.9999998E-03   2.0001431E-01
  7.5999433E-01   9.9999998E-03   2.2002241E-01
  7.5999415E-01   9.9999998E-03   2.4003702E-01
  7.5999409E-01   9.9999998E-03   2.6005858E-01
  7.5999415E-01   9.9999998E-03   2.8007838E-01
  7.5999433E-01   9.9999998E-03   3.0008733E-01
  7.7999848E-01   9.9999998E-03   1.6000801E-01
  7.7999836E-01   9.9999998E-03   1.8001038E-01
  7.7999830E-01   9.9999998E-03   2.0001452E-01
  7.7999824E-01   9.9999998E-03   2.2002263E-01
  7.7999818E-01   9.9999998E-03   2.4003726E-01
  7.7999818E-01   9.9999998E-03   2.6005891E-01
  7.7999824E-01   9.9999998E-03   2.8007886E-01
  7.7999830E-01   9.9999998E-03   3.0008805E-01
  8.0000120E-01   9.9999998E-03   1.6000806E-01
  8.0000126E-01   9.9999998E-03   1.8001041E-01
  8.0000126E-01   9.9999998E-03   2.0001455E-01
  8.0000132E-01   9.9999998E-03   2.2002263E-01
  8.0000132E-01   9.9999998E-03   2.4003723E-01
  8.0000138E-01   9.9999998E-03   2.6005885E-01
  8.0000144E-01   9.9999998E-03   2.8007886E-01
  8.0000144E-01   9.9999998E-03   3.0008814E-01
  8.2000375E-01   9.9999998E-03   1.6000798E-01
  8.2000387E-01   9.9999998E-03   1.8001032E-01
  8.2000399E-01   9.9999998E-03   2.0001441E-01
  8.2000411E-01   9.9999998E-03   2.2002244E-01
  8.2000422E-01   9.9999998E-03   2.4003699E-01
  8.2000428E-01   9.9999998E-03   2.6005855E-01
  8.2000434E-01   9.9999998E-03   2.8007853E-01
  8.2000428E-01   9.9999998E-03   3.0008778E-01
  8.4000635E-01   9.9999998E-03   1.6000782E-01
  8.4000653E-01   9.9999998E-03   1.8001010E-01
  8.4000677E-01   9.9999998E-03   2.0001411E-01
  8.4000695E-01   9.9999998E-03   2.2002199E-01
  8.4000713E-01   9.9999998E-03   2.4003628E-01
  8.4000725E-01   9.9999998E-03   2.6005748E-01
  8.4000725E-01   9.9999998E-03   2.8007716E-01
  8.4000719E-01   9.9999998E-03   3.0008626E-01
  8.6000896E-01   9.9999998E-03   1.6000755E-01
  8.6000925E-01   9.9999998E-03   1.8000975E-01
  8.6000955E-01   9.9999998E-03   2.0001364E-01
  8.6000985E-01   9.9999998E-03   2.2002126E-01
  8.6001009E-01   9.9999998E-03   2.4003510E-01
  8.6001021E-01   9.9999998E-03   2.6005566E-01
  8.6001021E-01   9.9999998E-03   2.8007475E-01
  8.6001015E-01   9.9999998E-03   3.0008361E-01
  8.8001150E-01   9.9999998E-03   1.6000721E-01
  8.8001180E-01   9.9999998E-03   1.8000931E-01
  8.8001221E-01   9.9999998E-03   2.0001301E-01
  8.8001257E-01   9.9999998E-03   2.2002026E-01
  8.8001287E-01   9.9999998E-03   2.4003346E-01
  8.8001305E-01   9.9999998E-03   2.6005310E-01
  8.8001305E-01   9.9999998E-03   2.8007135E-01
  8.8001293E-01   9.9999998E-03   3.0007991E-01
  9.0001363E-01   9.9999998E-03   1.6000679E-01
  9.0001404E-01   9.9999998E-03   1.8000875E-01
  9.0001446E-01   9.9999998E-03   2.0001224E-01
  9.0001488E-01   9.9999998E-03   2.2001904E-01
  9.0001523E-01   9.9999998E-03   2.4003144E-01
  9.0001547E-01   9.9999998E-03   2.6004988E-01
  9.0001547E-01   9.9999998E-03   2.8006715E-01
  9.0001529E-01   9.9999998E-03   3.0007529E-01
  9.2001504E-01   9.9999998E-03   1.6000633E-01
  9.2001557E-01   9.9999998E-03   1.8000814E-01
  9.2001611E-01   9.9999998E-03   2.0001134E-01
  9.2001665E-01   9.9999998E-03   2.2001764E-01
  9.2001706E-01   9.9999998E-03   2.4002911E-01
  9.2001730E-01   9.9999998E-03   2.6004621E-01
  9.2001724E-01   9.9999998E-03   2.8006229E-01
  9.2001718E-01   9.9999998E-03   3.0006999E-01
  9.4001549E-01   9.9999998E-03   1.6000587E-01
  9.4001609E-01   9.9999998E-03   1.8000753E-01
  9.4001681E-01   9.9999998E-03   2.0001040E-01
  9.4001764E-01   9.9999998E-03   2.2001612E-01
  9.4001824E-01   9.9999998E-03   2.4002656E-01
  9.4001848E-01   9.9999998E-03   2.6004222E-01
  9.4001842E-01   9.9999998E-03   2.8005701E-01
  9.4001836E-01   9.9999998E-03   3.0006421E-01
  9.6001530E-01   9.9999998E-03   1.6000539E-01
  9.6001595E-01   9.9999998E-03   1.8000689E-01
  9.6001679E-01   9.9999998E-03   2.0000945E-01
  9.6001774E-01   9.9999998E-03   2.2001453E-01
  9.6001863E-01   9.9999998E-03   2.4002391E-01
  9.6001905E-01   9.9999998E-03   2.6003808E-01
  9.6001911E-01   9.9999998E-03   2.8005159E-01
  9.6001911E-01   9.9999998E-03   3.0005825E-01
  9.8001492E-01   9.9999998E-03   1.6000490E-01
  9.8001558E-01   9.9999998E-03   1.8000625E-01
  9.8001641E-01   9.9999998E-03   2.0000850E-01
  9.8001748E-01   9.9999998E-03   2.2001296E-01
  9.8001856E-01   9.9999998E-03   2.4002132E-01
  9.8001927E-01   9.9999998E-03   2.6003397E-01
  9.8001957E-01   9.9999998E-03   2.8004619E-01
  9.8001975E-01   9.9999998E-03   3.0005231E-01
  1.0000143E+00   9.9999998E-03   1.6000445E-01
  1.0000150E+00   9.9999998E-03   1.8000564E-01
  1.0000159E+00   9.9999998E-03   2.0000760E-01
  1.0000170E+00   9.9999998E-03   2.2001152E-01
  1.0000184E+00   9.9999998E-03   2.4001890E-01
  1.0000193E+00   9.9999998E-03   2.6003012E-01
  1.0000201E+00   9.9999998E-03   2.8004101E-01
  1.0000207E+00   9.9999998E-03   3.0004659E-01
  1.0200137E+00   9.9999998E-03   1.6000403E-01
  1.0200144E+00   9.9999998E-03   1.8000509E-01
  1.0200152E+00   9.9999998E-03   2.0000684E-01
  1.0200166E+00   9.9999998E-03   2.2001030E-01
  1.0200182E+00   9.9999998E-03   2.4001685E-01
  1.0200197E+00   9.9999998E-03   2.6002672E-01
  1.0200210E+00   9.9999998E-03   2.8003624E-01
  1.0200223E+00   9.9999998E-03   3.0004120E-01
  1.0400130E+00   9.9999998E-03   1.6000365E-01
  1.0400137E+00   9.9999998E-03   1.8000463E-01
  1.0400145E+00   9.9999998E-03   2.0000622E-01
  1.0400159E+00   9.9999998E-03   2.2000942E-01
  1.0400180E+00   9.9999998E-03   2.4001530E-01
  1.0400201E+00   9.9999998E-03   2.6002392E-01
  1.0400224E+00   9.9999998E-03   2.8003204E-01
  1.0400245E+00   9.9999998E-03   3.0003631E-01
  1.0600122E+00   9.9999998E-03   1.6000329E-01
  1.0600129E+00   9.9999998E-03   1.8000424E-01
  1.0600139E+00   9.9999998E-03   2.0000578E-01
  1.0600154E+00   9.9999998E-03   2.2000889E-01
  1.0600178E+00   9.9999998E-03   2.4001431E-01
  1.0600208E+00   9.9999998E-03   2.6002181E-01
  1.0600241E+00   9.9999998E-03   2.8002846E-01
  1.0600274E+00   9.9999998E-03   3.0003196E-01
  1.0800115E+00   9.9999998E-03   1.6000299E-01
  1.0800122E+00   9.9999998E-03   1.8000393E-01
  1.0800133E+00   9.9999998E-03   2.0000558E-01
  1.0800152E+00   9.9999998E-03   2.2000876E-01
  1.0800179E+00   9.9999998E-03   2.4001391E-01
  1.0800215E+00   9.9999998E-03   2.6002038E-01
  1.0800256E+00   9.9999998E-03   2.8002557E-01
  1.0800296E+00   9.9999998E-03   3.0002815E-01
  1.1000108E+00   9.9999998E-03   1.6000272E-01
  1.1000115E+00   9.9999998E-03   1.8000376E-01
  1.1000129E+00   9.9999998E-03   2.0000562E-01
  1.1000149E+00   9.9999998E-03   2.2000898E-01
  1.1000180E+00   9.9999998E-03   2.4001394E-01
  1.1000220E+00   9.9999998E-03   2.6001936E-01
  1.1000261E+00   9.9999998E-03   2.8002325E-01
  1.1200101E+00   9.9999998E-03   1.6000256E-01
  1.1200111E+00   9.9999998E-03   1.8000378E-01
  1.1200126E+00   9.9999998E-03   2.0000596E-01
  1.1200150E+00   9.9999998E-03   2.2000954E-01
  1.1200184E+00   9.9999998E-03   2.4001421E-01
  1.1200222E+00   9.9999998E-03   2.6001853E-01
  1.1200260E+00   9.9999998E-03   2.8002116E-01
  1.1400096E+00   9.9999998E-03   1.6000259E-01
  1.1400108E+00   9.9999998E-03   1.8000408E-01
  1.1400126E+00   9.9999998E-03   2.0000662E-01
  1.1400154E+00   9.9999998E-03   2.2001034E-01
  1.1400187E+00   9.9999998E-03   2.4001443E-01
  1.1400222E+00   9.9999998E-03   2.6001760E-01
  1.1600095E+00   9.9999998E-03   1.6000287E-01
  1.1600109E+00   9.9999998E-03   1.8000475E-01
  1.1600132E+00   9.9999998E-03   2.0000763E-01
  1.1600161E+00   9.9999998E-03   2.2001119E-01
  1.1600193E+00   9.9999998E-03   2.4001446E-01
  1.1600221E+00   9.9999998E-03   2.6001662E-01
  1.1800097E+00   9.9999998E-03   1.6000360E-01
  1.1800117E+00   9.9999998E-03   1.8000582E-01
  1.1800143E+00   9.9999998E-03   2.0000874E-01
  1.1800170E+00   9.9999998E-03   2.2001185E-01
  1.1800196E+00   9.9999998E-03   2.4001427E-01
  1.2000110E+00   9.9999998E-03   1.6000475E-01
  1.2000134E+00   9.9999998E-03   1.8000700E-01
  1.2000157E+00   9.9999998E-03   2.0000964E-01
  1.2000178E+00   9.9999998E-03   2.2001219E-01
  1.2200131E+00   9.9999998E-03   1.6000591E-01
  1.2200152E+00   9.9999998E-03   1.8000802E-01
  1.2200168E+00   9.9999998E-03   2.0001023E-01
  1.2200181E+00   9.9999998E-03   2.2001220E-01
  1.2400148E+00   9.9999998E-03   1.6000701E-01
  1.2400160E+00   9.9999998E-03   1.8000887E-01
  1.2600151E+00   9.9999998E-03   1.6000792E-01
VERTICES 2975 5950
1 0
1 1
1 2
1 3
1 4
1 5
1 6
1 7
1 8
1 9
1 10
1 11
1 12
1 13
1 14
1 15
1 16
1 17
1 18
1 19
1 20
1 21
1 22
1 23
1 24
1 25
1 26
1 27
1 28
1 29
1 30
1 31
1 32
1 33
1 34
1 35
1 36
1 37
1 38
1 39
1 40
1 41
1 42
1 43
1 44
1 45
1 46
1 47
1 48
1 49
1 50
1 51
1 52
1 53
1 54
1 55
1 56
1 57
1 58
1 59
1 60
1 61
1 62
1 63
1 64
1 65
1 66
1 67
1 68
1 69
1 70
1 71
1 72
1 73
1 74
1 75
1 76
1 77
1 78
1 79
1 80
1 81
1 82
1 83
1 84
1 85
1 86
1 87
1 88
1 89
1 90
1 91
1 92
1 93
1 94
1 95
1 96
1 97
1 98
1 99
1 100
1 101
1 102
1 103
1 104
1 105
1 106
1 107
1 108
1 109
1 110
1 111
1 112
1 113
1 114
1 115
1 116
1 117
1 118
1 119
1 120
1 121
1 122
1 123
1 124
1 125
1 126
1 127
1 128
1 129
1 130
1 131
1 132
1 133
1 134
1 135
1 136
1 137
1 138
1 139
1 140
1 141
1 142
1 143
1 144
1 145
1 146
1 147
1 148
1 149
1 150
1 151
1 152
1 153
1 154
1 155
1 156
1 157
1 158
1 159
1 160
1 161
1 162
1 163
1 164
1 165
1 166
1 167
1 168
1 169
1 170
1 171
1 172
1 173
1 174
1 175
1 176
1 177
1 178
1 179
1 180
1 181
1 182
1 183
1 184
1 185
1 186
1 187
1 188
1 189
1 190
1 191
1 192
1 193
1 194
1 195
1 196
1 197
1 198
1 199
1 200
1 201
1 202
1 203
1 204
1 205
1 206
1 207
1 208
1 209
1 210
1 211
1 212
1 213
1 214
1 215
1 216
1 217
1 218
1 219
1 220
1 221
1 222
1 223
1 224
1 225
1 226
1 227
1 228
1 229
1 230
1 231
1 232
1 233
1 234
1 235
1 236
1 237
1 238
1 239
1 240
1 241
1 242
1 243
1 244
1 245
1 246
1 247
1 248
1 249
1 250
1 251
1 252
1 253
1 254
1 255
1 256
1 257
1 258
1 259
1 260
1 261
1 262
1 263
1 264
1 265
1 266
1 267
1 268
1 269
1 270
1 271
1 272
1 273
1 274
1 275
1 276
1 277
1 278
1 279
1 280
1 281
1 282
1 283
1 284
1 285
1 286
1 287
1 288
1 289
1 290
1 291
1 292
1 293
1 294
1 295
1 296
1 297
1 298
1 299
1 300
1 301
1 302
1 303
1 304
1 305
1 306
1 307
1 308
1 309
1 310
1 311
1 312
1 313
1 314
1 315
1 316
1 317
1 318
1 319
1 320
1 321
1 322
1 323
1 324
1 325
1 326
1 327
1 328
1 329
1 330
1 331
1 332
1 333
1 334
1 335
1 336
1 337
1 338
1 339
1 340
1 341
1 342
1 343
1 344
1 345
1 346
1 347
1 348
1 349
1 350
1 351
1 352
1 353
1 354
1 355
1 356
1 357
1 358
1 359
1 360
1 361
1 362
1 363
1 364
1 365
1 366
1 367
1 368
1 369
1 370
1 371
1 372
1 373
1 374
1 375
1 376
1 377
1 378
1 379
1 380
1 381
1 382
1 383
1 384
1 385
1 386
1 387
1 388
1 389
1 390
1 391
1 392
1 393
1 394
1 395
1 396
1 397
1 398
1 399
1 400
1 401
1 402
1 403
1 404
1 405
1 406
1 407
1 408
1 409
1 410
1 411
1 412
1 413
1 414
1 415
1 416
1 417
1 418
1 419
1 420
1 421
1 422
1 423
1 424
1 425
1 426
1 427
1 428
1 429
1 430
1 431
1 432
1 433
1 434
1 435
1 436
1 437
1 438
1 439
1 440
1 441
1 442
1 443
1 444
1 445
1 446
1 447
1 448
1 449
1 450
1 451
1 452
1 453
1 454
1 455
1 456
1 457
1 458
1 459
1 460
1 461
1 462
1 463
1 464
1 465
1 466
1 467
1 468
1 469
1 470
1 471
1 472
1 473
1 474
1 475
1 476
1 477
1 478
1 479
1 480
1 481
1 482
1 483
1 484
1 485
1 486
1 487
1 488
1 489
1 490
1 491
1 492
1 493
1 494
1 495
1 496
1 497
1 498
1 499
1 500
1 501
1 502
1 503
1 504
1 505
1 506
1 507
1 508
1 509
1 510
1 511
1 512
1 513
1 514
1 515
1 516
1 517
1 518
1 519
1 520
1 521
1 522
1 523
1 524
1 525
1 526
1 527
1 528
1 529
1 530
1 531
1 532
1 533
1 534
1 535
1 536
1 537
1 538
1 539
1 540
1 541
1 542
1 543
1 544
1 545
1 546
1 547
1 548
1 549
1 550
1 551
1 552
1 553
1 554
1 555
1 556
1 557
1 558
1 559
1 560
1 561
1 562
1 563
1 564
1 565
1 566
1 567
1 568
1 569
1 570
1 571
1 572
1 573
1 574
1 575
1 576
1 577
1 578
1 579
1 580
1 581
1 582
1 583
1 584
1 585
1 586
1 587
1 588
1 589
1 590
1 591
1 592
1 593
1 594
1 595
1 596
1 597
1 598
1 599
1 600
1 601
1 602
1 603
1 604
1 605
1 606
1 607
1 608
1 609
1 610
1 611
1 612
1 613
1 614
1 615
1 616
1 617
1 618
1 619
1 620
1 621
1 622
1 623
1 624
1 625
1 626
1 627
1 628
1 629
1 630
1 631
1 632
1 633
1 634
1 635
1 636
1 637
1 638
1 639
1 640
1 641
1 642
1 643
1 644
1 645
1 646
1 647
1 648
1 649
1 650
1 651
1 652
1 653
1 654
1 655
1 656
1 657
1 658
1 659
1 660
1 661
1 662
1 663
1 664
1 665
1 666
1 667
1 668
1 669
1 670
1 671
1 672
1 673
1 674
1 675
1 676
1 677
1 678
1 679
1 680
1 681
1 682
1 683
1 684
1 685
1 686
1 687
1 688
1 689
1 690
1 691
1 692
1 693
1 694
1 695
1 696
1 697
1 698
1 699
1 700
1 701
1 702
1 703
1 704
1 705
1 706
1 707
1 708
1 709
1 710
1 711
1 712
1 713
1 714
1 715
1 716
1 717
1 718
1 719
1 720
1 721
1 722
1 723
1 724
1 725
1 726
1 727
1 728
1 729
1 730
1 731
1 732
1 733
1 734
1 735
1 736
1 737
1 738
1 739
1 740
1 741
1 742
1 743
1 744
1 745
1 746
1 747
1 748
1 749
1 750
1 751
1 752
1 753
1 754
1 755
1 756
1 757
1 758
1 759
1 760
1 761
1 762
1 763
1 764
1 765
1 766
1 767
1 768
1 769
1 770
1 771
1 772
1 773
1 774
1 775
1 776
1 777
1 778
1 779
1 780
1 781
1 782
1 783
1 784
1 785
1 786
1 787
1 788
1 789
1 790
1 791
1 792
1 793
1 794
1 795
1 796
1 797
1 798
1 799
1 800
1 801
1 802
1 803
1 804
1 805
1 806
1 807
1 808
1 809
1 810
1 811
1 812
1 813
1 814
1 815
1 816
1 817
1 818
1 819
1 820
1 821
1 822
1 823
1 824
1 825
1 826
1 827
1 828
1 829
1 830
1 831
1 832
1 833
1 834
1 835
1 836
1 837
1 838
1 839
1 840
1 841
1 842
1 843
1 844
1 845
1 846
1 847
1 848
1 849
1 850
1 851
1 852
1 853
1 854
1 855
1 856
1 857
1 858
1 859
1 860
1 861
1 862
1 863
1 864
1 865
1 866
1 867
1 868
1 869
1 870
1 871
1 872
1 873
1 874
1 875
1 876
1 877
1 878
1 879
1 880
1 881
1 882
1 883
1 884
1 885
1 886
1 887
1 888
1 889
1 890
1 891
1 892
1 893
1 894
1 895
1 896
1 897
1 898
1 899
1 900
1 901
1 902
1 903
1 904
1 905
1 906
1 907
1 908
1 909
1 910
1 911
1 912
1 913
1 914
1 915
1 916
1 917
1 918
1 919
1 920
1 921
1 922
1 923
1 924
1 925
1 926
1 927
1 928
1 929
1 930
1 931
1 932
1 933
1 934
1 935
1 936
1 937
1 938
1 939
1 940
1 941
1 942
1 943
1 944
1 945
1 946
1 947
1 948
1 949
1 950
1 951
1 952
1 953
1 954
1 955
1 956
1 957
1 958
1 959
1 960
1 961
1 962
1 963
1 964
1 965
1 966
1 967
1 968
1 969
1 970
1 971
1 972
1 973
1 974
1 975
1 976
1 977
1 978
1 979
1 980
1 981
1 982
1 983
1 984
1 985
1 986
1 987
1 988
1 989
1 990
1 991
1 992
1 993
1 994
1 995
1 996
1 997
1 998
1 999
1 1000
1 1001
1 1002
1 1003
1 1004
1 1005
1 1006
1 1007
1 1008
1 1009
1 1010
1 1011
1 1012
1 1013
1 1014
1 1015
1 1016
1 1017
1 1018
1 1019
1 1020
1 1021
1 1022
1 1023
1 1024
1 1025
1 1026
1 1027
1 1028
1 1029
1 1030
1 1031
1 1032
1 1033
1 1034
1 1035
1 1036
1 1037
1 1038
1 1039
1 1040
1 1041
1 1042
1 1043
1 1044
1 1045
1 1046
1 1047
1 1048
1 1049
1 1050
1 1051
1 1052
1 1053
1 1054
1 1055
1 1056
1 1057
1 1058
1 1059
1 1060
1 1061
1 1062
1 1063
1 1064
1 1065
1 1066
1 1067
1 1068
1 1069
1 1070
1 1071
1 1072
1 1073
1 1074
1 1075
1 1076
1 1077
1 1078
1 1079
1 1080
1 1081
1 1082
1 1083
1 1084
1 1085
1 1086
1 1087
1 1088
1 1089
1 1090
1 1091
1 1092
1 1093
1 1094
1 1095
1 1096
1 1097
1 1098
1 1099
1 1100
1 1101
1 1102
1 1103
1 1104
1 1105
1 1106
1 1107
1 1108
1 1109
1 1110
1 1111
1 1112
1 1113
1 1114
1 1115
1 1116
1 1117
1 1118
1 1119
1 1120
1 1121
1 1122
1 1123
1 1124
1 1125
1 1126
1 1127
1 1128
1 1129
1 1130
1 1131
1 1132
1 1133
1 1134
1 1135
1 1136
1 1137
1 1138
1 1139
1 1140
1 1141
1 1142
1 1143
1 1144
1 1145
1 1146
1 1147
1 1148
1 1149
1 1150
1 1151
1 1152
1 1153
1 1154
1 1155
1 1156
1 1157
1 1158
1 1159
1 1160
1 1161
1 1162
1 1163
1 1164
1 1165
1 1166
1 1167
1 1168
1 1169
1 1170
1 1171
1 1172
1 1173
1 1174
1 1175
1 1176
1 1177
1 1178
1 1179
1 1180
1 1181
1 1182
1 1183
1 1184
1 1185
1 1186
1 1187
1 1188
1 1189
1 1190
1 1191
1 1192
1 1193
1 1194
1 1195
1 1196
1 1197
1 1198
1 1199
1 1200
1 1201
1 1202
1 1203
1 1204
1 1205
1 1206
1 1207
1 1208
1 1209
1 1210
1 1211
1 1212
1 1213
1 1214
1 1215
1 1216
1 1217
1 1218
1 1219
1 1220
1 1221
1 1222
1 1223
1 1224
1 1225
1 1226
1 1227
1 1228
1 1229
1 1230
1 1231
1 1232
1 1233
1 1234
1 1235
1 1236
1 1237
1 1238
1 1239
1 1240
1 1241
1 1242
1 1243
1 1244
1 1245
1 1246
1 1247
1 1248
1 1249
1 1250
1 1251
1 1252
1 1253
1 1254
1 1255
1 1256
1 1257
1 1258
1 1259
1 1260
1 1261
1 1262
1 1263
1 1264
1 1265
1 1266
1 1267
1 1268
1 1269
1 1270
1 1271
1 1272
1 1273
1 1274
1 1275
1 1276
1 1277
1 1278
1 1279
1 1280
1 1281
1 1282
1 1283
1 1284
1 1285
1 1286
1 1287
1 1288
1 1289
1 1290
1 1291
1 1292
1 1293
1 1294
1 1295
1 1296
1 1297
1 1298
1 1299
1 1300
1 1301
1 1302
1 1303
1 1304
1 1305
1 1306
1 1307
1 1308
1 1309
1 1310
1 1311
1 1312
1 1313
1 1314
1 1315
1 1316
1 1317
1 1318
1 1319
1 1320
1 1321
1 1322
1 1323
1 1324
1 1325
1 1326
1 1327
1 1328
1 1329
1 1330
1 1331
1 1332
1 1333
1 1334
1 1335
1 1336
1 1337
1 1338
1 1339
1 1340
1 1341
1 1342
1 1343
1 1344
1 1345
1 1346
1 1347
1 1348
1 1349
1 1350
1 1351
1 1352
1 1353
1 1354
1 1355
1 1356
1 1357
1 1358
1 1359
1 1360
1 1361
1 1362
1 1363
1 1364
1 1365
1 1366
1 1367
1 1368
1 1369
1 1370
1 1371
1 1372
1 1373
1 1374
1 1375
1 1376
1 1377
1 1378
1 1379
1 1380
1 1381
1 1382
1 1383
1 1384
1 1385
1 1386
1 1387
1 1388
1 1389
1 1390
1 1391
1 1392
1 1393
1 1394
1 1395
1 1396
1 1397
1 1398
1 1399
1 1400
1 1401
1 1402
1 1403
1 1404
1 1405
1 1406
1 1407
1 1408
1 1409
1 1410
1 1411
1 1412
1 1413
1 1414
1 1415
1 1416
1 1417
1 1418
1 1419
1 1420
1 1421
1 1422
1 1423
1 1424
1 1425
1 1426
1 1427
1 1428
1 1429
1 1430
1 1431
1 1432
1 1433
1 1434
1 1435
1 1436
1 1437
1 1438
1 1439
1 1440
1 1441
1 1442
1 1443
1 1444
1 1445
1 1446
1 1447
1 1448
1 1449
1 1450
1 1451
1 1452
1 1453
1 1454
1 1455
1 1456
1 1457
1 1458
1 1459
1 1460
1 1461
1 1462
1 1463
1 1464
1 1465
1 1466
1 1467
1 1468
1 1469
1 1470
1 1471
1 1472
1 1473
1 1474
1 1475
1 1476
1 1477
1 1478
1 1479
1 1480
1 1481
1 1482
1 1483
1 1484
1 1485
1 1486
1 1487
1 1488
1 1489
1 1490
1 1491
1 1492
1 1493
1 1494
1 1495
1 1496
1 1497
1 1498
1 1499
1 1500
1 1501
1 1502
1 1503
1 1504
1 1505
1 1506
1 1507
1 1508
1 1509
1 1510
1 1511
1 1512
1 1513
1 1514
1 1515
1 1516
1 1517
1 1518
1 1519
1 1520
1 1521
1 1522
1 1523
1 1524
1 1525
1 1526
1 1527
1 1528
1 1529
1 1530
1 1531
1 1532
1 1533
1 1534
1 1535
1 1536
1 1537
1 1538
1 1539
1 1540
1 1541
1 1542
1 1543
1 1544
1 1545
1 1546
1 1547
1 1548
1 1549
1 1550
1 1551
1 1552
1 1553
1 1554
1 1555
1 1556
1 1557
1 1558
1 1559
1 1560
1 1561
1 1562
1 1563
1 1564
1 1565
1 1566
1 1567
1 1568
1 1569
1 1570
1 1571
1 1572
1 1573
1 1574
1 1575
1 1576
1 1577
1 1578
1 1579
1 1580
1 1581
1 1582
1 1583
1 1584
1 1585
1 1586
1 1587
1 1588
1 1589
1 1590
1 1591
1 1592
1 1593
1 1594
1 1595
1 1596
1 1597
1 1598
1 1599
1 1600
1 1601
1 1602
1 1603
1 1604
1 1605
1 1606
1 1607
1 1608
1 1609
1 1610
1 1611
1 1612
1 1613
1 1614
1 1615
1 1616
1 1617
1 1618
1 1619
1 1620
1 1621
1 1622
1 1623
1 1624
1 1625
1 1626
1 1627
1 1628
1 1629
1 1630
1 1631
1 1632
1 1633
1 1634
1 1635
1 1636
1 1637
1 1638
1 1639
1 1640
1 1641
1 1642
1 1643
1 1644
1 1645
1 1646
1 1647
1 1648
1 1649
1 1650
1 1651
1 1652
1 1653
1 1654
1 1655
1 1656
1 1657
1 1658
1 1659
1 1660
1 1661
1 1662
1 1663
1 1664
1 1665
1 1666
1 1667
1 1668
1 1669
1 1670
1 1671
1 1672
1 1673
1 1674
1 1675
1 1676
1 1677
1 1678
1 1679
1 1680
1 1681
1 1682
1 1683
1 1684
1 1685
1 1686
1 1687
1 1688
1 1689
1 1690
1 1691
1 1692
1 1693
1 1694
1 1695
1 1696
1 1697
1 1698
1 1699
1 1700
1 1701
1 1702
1 1703
1 1704
1 1705
1 1706
1 1707
1 1708
1 1709
1 1710
1 1711
1 1712
1 1713
1 1714
1 1715
1 1716
1 1717
1 1718
1 1719
1 1720
1 1721
1 1722
1 1723
1 1724
1 1725
1 1726
1 1727
1 1728
1 1729
1 1730
1 1731
1 1732
1 1733
1 1734
1 1735
1 1736
1 1737
1 1738
1 1739
1 1740
1 1741
1 1742
1 1743
1 1744
1 1745
1 1746
1 1747
1 1748
1 1749
1 1750
1 1751
1 1752
1 1753
1 1754
1 1755
1 1756
1 1757
1 1758
1 1759
1 1760
1 1761
1 1762
1 1763
1 1764
1 1765
1 1766
1 1767
1 1768
1 1769
1 1770
1 1771
1 1772
1 1773
1 1774
1 1775
1 1776
1 1777
1 1778
1 1779
1 1780
1 1781
1 1782
1 1783
1 1784
1 1785
1 1786
1 1787
1 1788
1 1789
1 1790
1 1791
1 1792
1 1793
1 1794
1 1795
1 1796
1 1797
1 1798
1 1799
1 1800
1 1801
1 1802
1 1803
1 1804
1 1805
1 1806
1 1807
1 1808
1 1809
1 1810
1 1811
1 1812
1 1813
1 1814
1 1815
1 1816
1 1817
1 1818
1 1819
1 1820
1 1821
1 1822
1 1823
1 1824
1 1825
1 1826
1 1827
1 1828
1 1829
1 1830
1 1831
1 1832
1 1833
1 1834
1 1835
1 1836
1 1837
1 1838
1 1839
1 1840
1 1841
1 1842
1 1843
1 1844
1 1845
1 1846
1 1847
1 1848
1 1849
1 1850
1 1851
1 1852
1 1853
1 1854
1 1855
1 1856
1 1857
1 1858
1 1859
1 1860
1 1861
1 1862
1 1863
1 1864
1 1865
1 1866
1 1867
1 1868
1 1869
1 1870
1 1871
1 1872
1 1873
1 1874
1 1875
1 1876
1 1877
1 1878
1 1879
1 1880
1 1881
1 1882
1 1883
1 1884
1 1885
1 1886
1 1887
1 1888
1 1889
1 1890
1 1891
1 1892
1 1893
1 1894
1 1895
1 1896
1 1897
1 1898
1 1899
1 1900
1 1901
1 1902
1 1903
1 1904
1 1905
1 1906
1 1907
1 1908
1 1909
1 1910
1 1911
1 1912
1 1913
1 1914
1 1915
1 1916
1 1917
1 1918
1 1919
1 1920
1 1921
1 1922
1 1923
1 1924
1 1925
1 1926
1 1927
1 1928
1 1929
1 1930
1 1931
1 1932
1 1933
1 1934
1 1935
1 1936
1 1937
1 1938
1 1939
1 1940
1 1941
1 1942
1 1943
1 1944
1 1945
1 1946
1 1947
1 1948
1 1949
1 1950
1 1951
1 1952
1 1953
1 1954
1 1955
1 1956
1 1957
1 1958
1 1959
1 1960
1 1961
1 1962
1 1963
1 1964
1 1965
1 1966
1 1967
1 1968
1 1969
1 1970
1 1971
1 1972
1 1973
1 1974
1 1975
1 1976
1 1977
1 1978
1 1979
1 1980
1 1981
1 1982
1 1983
1 1984
1 1985
1 1986
1 1987
1 1988
1 1989
1 1990
1 1991
1 1992
1 1993
1 1994
1 1995
1 1996
1 1997
1 1998
1 1999
1 2000
1 2001
1 2002
1 2003
1 2004
1 2005
1 2006
1 2007
1 2008
1 2009
1 2010
1 2011
1 2012
1 2013
1 2014
1 2015
1 2016
1 2017
1 2018
1 2019
1 2020
1 2021
1 2022
1 2023
1 2024
1 2025
1 2026
1 2027
1 2028
1 2029
1 2030
1 2031
1 2032
1 2033
1 2034
1 2035
1 2036
1 2037
1 2038
1 2039
1 2040
1 2041
1 2042
1 2043
1 2044
1 2045
1 2046
1 2047
1 2048
1 2049
1 2050
1 2051
1 2052
1 2053
1 2054
1 2055
1 2056
1 2057
1 2058
1 2059
1 2060
1 2061
1 2062
1 2063
1 2064
1 2065
1 2066
1 2067
1 2068
1 2069
1 2070
1 2071
1 2072
1 2073
1 2074
1 2075
1 2076
1 2077
1 2078
1 2079
1 2080
1 2081
1 2082
1 2083
1 2084
1 2085
1 2086
1 2087
1 2088
1 2089
1 2090
1 2091
1 2092
1 2093
1 2094
1 2095
1 2096
1 2097
1 2098
1 2099
1 2100
1 2101
1 2102
1 2103
1 2104
1 2105
1 2106
1 2107
1 2108
1 2109
1 2110
1 2111
1 2112
1 2113
1 2114
1 2115
1 2116
1 2117
1 2118
1 2119
1 2120
1 2121
1 2122
1 2123
1 2124
1 2125
1 2126
1 2127
1 2128
1 2129
1 2130
1 2131
1 2132
1 2133
1 2134
1 2135
1 2136
1 2137
1 2138
1 2139
1 2140
1 2141
1 2142
1 2143
1 2144
1 2145
1 2146
1 2147
1 2148
1 2149
1 2150
1 2151
1 2152
1 2153
1 2154
1 2155
1 2156
1 2157
1 2158
1 2159
1 2160
1 2161
1 2162
1 2163
1 2164
1 2165
1 2166
1 2167
1 2168
1 2169
1 2170
1 2171
1 2172
1 2173
1 2174
1 2175
1 2176
1 2177
1 2178
1 2179
1 2180
1 2181
1 2182
1 2183
1 2184
1 2185
1 2186
1 2187
1 2188
1 2189
1 2190
1 2191
1 2192
1 2193
1 2194
1 2195
1 2196
1 2197
1 2198
1 2199
1 2200
1 2201
1 2202
1 2203
1 2204
1 2205
1 2206
1 2207
1 2208
1 2209
1 2210
1 2211
1 2212
1 2213
1 2214
1 2215
1 2216
1 2217
1 2218
1 2219
1 2220
1 2221
1 2222
1 2223
1 2224
1 2225
1 2226
1 2227
1 2228
1 2229
1 2230
1 2231
1 2232
1 2233
1 2234
1 2235
1 2236
1 2237
1 2238
1 2239
1 2240
1 2241
1 2242
1 2243
1 2244
1 2245
1 2246
1 2247
1 2248
1 2249
1 2250
1 2251
1 2252
1 2253
1 2254
1 2255
1 2256
1 2257
1 2258
1 2259
1 2260
1 2261
1 2262
1 2263
1 2264
1 2265
1 2266
1 2267
1 2268
1 2269
1 2270
1 2271
1 2272
1 2273
1 2274
1 2275
1 2276
1 2277
1 2278
1 2279
1 2280
1 2281
1 2282
1 2283
1 2284
1 2285
1 2286
1 2287
1 2288
1 2289
1 2290
1 2291
1 2292
1 2293
1 2294
1 2295
1 2296
1 2297
1 2298
1 2299
1 2300
1 2301
1 2302
1 2303
1 2304
1 2305
1 2306
1 2307
1 2308
1 2309
1 2310
1 2311
1 2312
1 2313
1 2314
1 2315
1 2316
1 2317
1 2318
1 2319
1 2320
1 2321
1 2322
1 2323
1 2324
1 2325
1 2326
1 2327
1 2328
1 2329
1 2330
1 2331
1 2332
1 2333
1 2334
1 2335
1 2336
1 2337
1 2338
1 2339
1 2340
1 2341
1 2342
1 2343
1 2344
1 2345
1 2346
1 2347
1 2348
1 2349
1 2350
1 2351
1 2352
1 2353
1 2354
1 2355
1 2356
1 2357
1 2358
1 2359
1 2360
1 2361
1 2362
1 2363
1 2364
1 2365
1 2366
1 2367
1 2368
1 2369
1 2370
1 2371
1 2372
1 2373
1 2374
1 2375
1 2376
1 2377
1 2378
1 2379
1 2380
1 2381
1 2382
1 2383
1 2384
1 2385
1 2386
1 2387
1 2388
1 2389
1 2390
1 2391
1 2392
1 2393
1 2394
1 2395
1 2396
1 2397
1 2398
1 2399
1 2400
1 2401
1 2402
1 2403
1 2404
1 2405
1 2406
1 2407
1 2408
1 2409
1 2410
1 2411
1 2412
1 2413
1 2414
1 2415
1 2416
1 2417
1 2418
1 2419
1 2420
1 2421
1 2422
1 2423
1 2424
1 2425
1 2426
1 2427
1 2428
1 2429
1 2430
1 2431
1 2432
1 2433
1 2434
1 2435
1 2436
1 2437
1 2438
1 2439
1 2440
1 2441
1 2442
1 2443
1 2444
1 2445
1 2446
1 2447
1 2448
1 2449
1 2450
1 2451
1 2452
1 2453
1 2454
1 2455
1 2456
1 2457
1 2458
1 2459
1 2460
1 2461
1 2462
1 2463
1 2464
1 2465
1 2466
1 2467
1 2468
1 2469
1 2470
1 2471
1 2472
1 2473
1 2474
1 2475
1 2476
1 2477
1 2478
1 2479
1 2480
1 2481
1 2482
1 2483
1 2484
1 2485
1 2486
1 2487
1 2488
1 2489
1 2490
1 2491
1 2492
1 2493
1 2494
1 2495
1 2496
1 2497
1 2498
1 2499
1 2500
1 2501
1 2502
1 2503
1 2504
1 2505
1 2506
1 2507
1 2508
1 2509
1 2510
1 2511
1 2512
1 2513
1 2514
1 2515
1 2516
1 2517
1 2518
1 2519
1 2520
1 2521
1 2522
1 2523
1 2524
1 2525
1 2526
1 2527
1 2528
1 2529
1 2530
1 2531
1 2532
1 2533
1 2534
1 2535
1 2536
1 2537
1 2538
1 2539
1 2540
1 2541
1 2542
1 2543
1 2544
1 2545
1 2546
1 2547
1 2548
1 2549
1 2550
1 2551
1 2552
1 2553
1 2554
1 2555
1 2556
1 2557
1 2558
1 2559
1 2560
1 2561
1 2562
1 2563
1 2564
1 2565
1 2566
1 2567
1 2568
1 2569
1 2570
1 2571
1 2572
1 2573
1 2574
1 2575
1 2576
1 2577
1 2578
1 2579
1 2580
1 2581
1 2582
1 2583
1 2584
1 2585
1 2586
1 2587
1 2588
1 2589
1 2590
1 2591
1 2592
1 2593
1 2594
1 2595
1 2596
1 2597
1 2598
1 2599
1 2600
1 2601
1 2602
1 2603
1 2604
1 2605
1 2606
1 2607
1 2608
1 2609
1 2610
1 2611
1 2612
1 2613
1 2614
1 2615
1 2616
1 2617
1 2618
1 2619
1 2620
1 2621
1 2622
1 2623
1 2624
1 2625
1 2626
1 2627
1 2628
1 2629
1 2630
1 2631
1 2632
1 2633
1 2634
1 2635
1 2636
1 2637
1 2638
1 2639
1 2640
1 2641
1 2642
1 2643
1 2644
1 2645
1 2646
1 2647
1 2648
1 2649
1 2650
1 2651
1 2652
1 2653
1 2654
1 2655
1 2656
1 2657
1 2658
1 2659
1 2660
1 2661
1 2662
1 2663
1 2664
1 2665
1 2666
1 2667
1 2668
1 2669
1 2670
1 2671
1 2672
1 2673
1 2674
1 2675
1 2676
1 2677
1 2678
1 2679
1 2680
1 2681
1 2682
1 2683
1 2684
1 2685
1 2686
1 2687
1 2688
1 2689
1 2690
1 2691
1 2692
1 2693
1 2694
1 2695
1 2696
1 2697
1 2698
1 2699
1 2700
1 2701
1 2702
1 2703
1 2704
1 2705
1 2706
1 2707
1 2708
1 2709
1 2710
1 2711
1 2712
1 2713
1 2714
1 2715
1 2716
1 2717
1 2718
1 2719
1 2720
1 2721
1 2722
1 2723
1 2724
1 2725
1 2726
1 2727
1 2728
1 2729
1 2730
1 2731
1 2732
1 2733
1 2734
1 2735
1 2736
1 2737
1 2738
1 2739
1 2740
1 2741
1 2742
1 2743
1 2744
1 2745
1 2746
1 2747
1 2748
1 2749
1 2750
1 2751
1 2752
1 2753
1 2754
1 2755
1 2756
1 2757
1 2758
1 2759
1 2760
1 2761
1 2762
1 2763
1 2764
1 2765
1 2766
1 2767
1 2768
1 2769
1 2770
1 2771
1 2772
1 2773
1 2774
1 2775
1 2776
1 2777
1 2778
1 2779
1 2780
1 2781
1 2782
1 2783
1 2784
1 2785
1 2786
1 2787
1 2788
1 2789
1 2790
1 2791
1 2792
1 2793
1 2794
1 2795
1 2796
1 2797
1 2798
1 2799
1 2800
1 2801
1 2802
1 2803
1 2804
1 2805
1 2806
1 2807
1 2808
1 2809
1 2810
1 2811
1 2812
1 2813
1 2814
1 2815
1 2816
1 2817
1 2818
1 2819
1 2820
1 2821
1 2822
1 2823
1 2824
1 2825
1 2826
1 2827
1 2828
1 2829
1 2830
1 2831
1 2832
1 2833
1 2834
1 2835
1 2836
1 2837
1 2838
1 2839
1 2840
1 2841
1 2842
1 2843
1 2844
1 2845
1 2846
1 2847
1 2848
1 2849
1 2850
1 2851
1 2852
1 2853
1 2854
1 2855
1 2856
1 2857
1 2858
1 2859
1 2860
1 2861
1 2862
1 2863
1 2864
1 2865
1 2866
1 2867
1 2868
1 2869
1 2870
1 2871
1 2872
1 2873
1 2874
1 2875
1 2876
1 2877
1 2878
1 2879
1 2880
1 2881
1 2882
1 2883
1 2884
1 2885
1 2886
1 2887
1 2888
1 2889
1 2890
1 2891
1 2892
1 2893
1 2894
1 2895
1 2896
1 2897
1 2898
1 2899
1 2900
1 2901
1 2902
1 2903
1 2904
1 2905
1 2906
1 2907
1 2908
1 2909
1 2910
1 2911
1 2912
1 2913
1 2914
1 2915
1 2916
1 2917
1 2918
1 2919
1 2920
1 2921
1 2922
1 2923
1 2924
1 2925
1 2926
1 2927
1 2928
1 2929
1 2930
1 2931
1 2932
1 2933
1 2934
1 2935
1 2936
1 2937
1 2938
1 2939
1 2940
1 2941
1 2942
1 2943
1 2944
1 2945
1 2946
1 2947
1 2948
1 2949
1 2950
1 2951
1 2952
1 2953
1 2954
1 2955
1 2956
1 2957
1 2958
1 2959
1 2960
1 2961
1 2962
1 2963
1 2964
1 2965
1 2966
1 2967
1 2968
1 2969
1 2970
1 2971
1 2972
1 2973
1 2974
POINT_DATA 2975
SCALARS Idp unsigned_int
LOOKUP_TABLE default
0 1 39 40 41 80 81 82 121 122 123 162 163 164 203 204 205 244 245 246 285 286 287 326 327 328 367 368 369 408 409 410 449 450 451 461 462 463 471 472 473 481 482 483 491 492 493 501 502 503 511 512 513 521 522 523 531 532 533 541 542 543 551 552 2 3 4 5 6 7 8 9 42 43 44 45 46 47 48 49 83 84 85 86 87 88 89 90 124 125 126 127 128 129 130 131 165 166 167 168 169 170 171 172 206 207 208 209 210 211 212 213 247 248 249 250 251 252 253 254 288 289 290 291 292 293 294 295 329 330 331 332 333 334 335 336 370 371 372 373 374 375 376 377 411 412 413 414 415 416 417 418 452 453 454 464 465 474 475 484 485 494 495 504 505 514 515 524 525 534 535 544 545 553 554 10 11 12 13 14 15 16 17 18 50 51 52 53 54 55 56 57 58 91 92 93 94 95 96 97 98 99 132 133 134 135 136 137 138 139 140 173 174 175 176 177 178 179 180 181 214 215 216 217 218 219 220 221 222 255 256 257 258 259 260 261 262 263 296 297 298 299 300 301 302 303 304 337 338 339 340 341 342 343 344 345 378 379 380 381 382 383 384 385 386 419 420 421 422 423 424 425 426 427 19 20 21 22 23 24 25 26 59 60 61 62 63 64 65 66 100 101 102 103 104 105 106 107 141 142 143 144 145 146 147 148 182 183 184 185 186 187 188 189 223 224 225 226 227 228 229 230 264 265 266 267 268 269 270 271 305 306 307 308 309 310 311 312 346 347 348 349 350 351 352 353 387 388 389 390 391 392 393 394 428 429 430 431 432 433 434 435 27 28 29 30 31 32 33 34 35 67 68 69 70 71 72 73 74 75 108 109 110 111 112 113 114 115 116 149 150 151 152 153 154 155 156 157 190 191 192 193 194 195 196 197 198 231 232 233 234 235 236 237 238 239 272 273 274 275 276 277 278 279 280 313 314 315 316 317 318 319 320 321 354 355 356 357 358 359 360 361 362 395 396 397 398 399 400 401 402 403 436 437 438 439 440 441 442 443 444 455 456 466 476 486 496 506 516 526 536 546 555 36 37 38 76 77 78 79 117 118 119 120 158 159 160 161 199 200 201 202 240 241 242 243 281 282 283 284 322 323 324 325 363 364 365 366 404 405 406 407 445 446 447 448 457 458 459 460 467 468 469 470 477 478 479 480 487 488 489 490 497 498 499 500 507 508 509 510 517 518 519 520 527 528 529 530 537 538 539 540 547 548 549 550 556 557 558 559 560 561 562 563 564 565 566 567 568 569 570 571 572 573 574 575 576 577 578 579 580 581 582 583 584 585 586 587 588 589 590 591 592 593 594 595 596 597 598 599 600 601 602 603 604 605 606 607 608 609 610 611 612 613 614 615 616 617 618 619 620 621 622 623 624 625 626 627 628 629 630 631 632 633 634 635 636 637 638 639 640 641 642 643 644 645 646 647 648 649 650 651 652 653 654 655 656 657 658 659 660 661 662 663 664 665 666 667 668 669 670 671 672 673 674 675 676 677 678 679 680 681 682 683 684 685 686 687 688 689 690 691 692 693 694 695 696 697 698 699 700 701 702 703 704 705 706 707 708 709 710 711 712 713 714 715 716 717 718 719 720 721 722 723 724 725 726 727 728 729 730 731 732 733 734 735 736 737 738 739 740 741 742 743 744 745 746 747 748 749 750 751 752 753 754 755 756 757 758 759 760 761 762 763 764 765 766 767 768 769 770 771 772 773 774 775 776 777 778 779 780 781 782 783 784 785 786 787 788 789 790 791 792 793 794 795 796 797 798 799 800 801 802 803 804 805 806 807 808 809 810 811 812 813 814 815 816 817 818 819 820 821 822 823 824 825 826 827 828 829 830 831 832 833 834 835 836 837 838 839 840 841 842 843 844 845 846 847 848 849 850 851 852 853 854 855 856 857 858 859 860 861 862 863 864 865 866 867 868 869 870 871 872 873 874 875 876 877 878 879 880 881 882 883 884 885 886 887 888 889 890 891 892 893 894 895 896 897 898 899 900 901 902 903 904 905 906 907 908 909 910 911 912 913 914 915 916 917 918 919 920 921 922 923 924 925 926 927 928 929 930 931 932 933 934 935 936 937 938 939 940 941 942 943 944 945 946 947 948 949 950 951 952 953 954 955 956 957 958 959 960 961 962 963 964 965 966 967 968 969 970 971 972 973 974 975 976 977 978 979 980 981 982 983 984 985 986 987 988 989 990 991 992 993 994 995 996 997 998 999 1000 1001 1002 1003 1004 1005 1006 1007 1008 1009 1010 1011 1012 1013 1014 1015 1016 1017 1018 1019 1020 1021 1022 1023 1024 1025 1026 1027 1028 1029 1030 1031 1032 1033 1034 1035 1060 1061 1062 1063 1064 1065 1091 1092 1093 1094 1095 1096 1122 1123 1124 1125 1126 1127 1153 1154 1155 1156 1157 1158 1184 1185 1186 1187 1188 1189 1215 1216 1217 1218 1219 1220 1246 1247 1248 1249 1250 1251 1277 1278 1279 1280 1281 1282 1308 1309 1310 1311 1312 1313 1339 1340 1341 1342 1343 1344 1370 1371 1372 1373 1374 1375 1401 1402 1403 1404 1405 1406 1432 1433 1434 1435 1436 1437 1463 1464 1465 1466 1467 1468 1494 1495 1496 1497 1498 1499 1525 1526 1527 1528 1529 1530 1556 1557 1558 1559 1560 1561 1587 1588 1589 1590 1591 1592 1618 1619 1620 1621 1622 1623 1649 1650 1651 1652 1653 1654 1680 1681 1682 1683 1684 1685 1711 1712 1713 1714 1715 1716 1742 1743 1744 1745 1746 1747 1773 1774 1775 1776 1777 1778 1804 1805 1806 1807 1808 1809 1835 1836 1837 1838 1839 1840 1866 1867 1868 1869 1870 1871 1897 1898 1899 1900 1901 1902 1928 1929 1930 1931 1932 1933 1959 1960 1961 1962 1963 1964 1990 1991 1992 1993 1994 1995 2021 2022 2023 2024 2025 2026 2052 2053 2054 2055 2056 2057 2083 2084 2085 2086 2087 2088 2114 2115 2116 2117 2118 2119 2145 2146 2147 2148 2149 2150 2176 2177 2178 2179 2180 2181 2207 2208 2209 2210 2211 2212 2238 2239 2240 2241 2242 2243 2269 2270 2271 2272 2273 2274 2300 2301 2302 2303 2304 2305 2331 2332 2333 2334 2335 2336 2362 2363 2364 2365 2366 2367 2393 2394 2395 2396 2397 2398 2424 2425 2426 2427 2428 2429 2455 2456 2457 2458 2459 2460 2486 2487 2488 2489 2490 2491 2517 2518 2519 2520 2521 2522 2548 2549 2550 2551 2552 2553 2579 2580 2581 2582 2583 2584 2610 2611 2612 2613 2614 2615 2641 2642 2643 2644 2645 2646 2672 2673 2674 2675 2676 2677 2703 2704 2705 2706 2707 2708 2734 2735 2736 2737 2738 2763 2764 2765 2766 2767 2792 2793 2794 2795 2819 2820 2821 2822 2846 2847 2848 2871 2872 2894 2895 1036 1037 1038 1039 1040 1041 1042 1043 1044 1066 1067 1068 1069 1070 1071 1072 1073 1074 1097 1098 1099 1100 1101 1102 1103 1104 1105 1128 1129 1130 1131 1132 1133 1134 1135 1136 1159 1160 1161 1162 1163 1164 1165 1166 1167 1190 1191 1192 1193 1194 1195 1196 1197 1198 1221 1222 1223 1224 1225 1226 1227 1228 1229 1252 1253 1254 1255 1256 1257 1258 1259 1260 1283 1284 1285 1286 1287 1288 1289 1290 1291 1314 1315 1316 1317 1318 1319 1320 1321 1322 1345 1346 1347 1348 1349 1350 1351 1352 1353 1376 1377 1378 1379 1380 1381 1382 1383 1384 1407 1408 1409 1410 1411 1412 1413 1414 1415 1438 1439 1440 1441 1442 1443 1444 1445 1446 1469 1470 1471 1472 1473 1474 1475 1476 1477 1500 1501 1502 1503 1504 1505 1506 1507 1508 1531 1532 1533 1534 1535 1536 1537 1538 1539 1562 1563 1564 1565 1566 1567 1568 1569 1570 1593 1594 1595 1596 1597 1598 1599 1600 1601 1624 1625 1626 1627 1628 1629 1630 1631 1632 1655 1656 1657 1658 1659 1660 1661 1662 1663 1686 1687 1688 1689 1690 1691 1692 1693 1694 1717 1718 1719 1720 1721 1722 1723 1724 1725 1748 1749 1750 1751 1752 1753 1754 1755 1756 1779 1780 1781 1782 1783 1784 1785 1786 1787 1810 1811 1812 1813 1814 1815 1816 1817 1818 1841 1842 1843 1844 1845 1846 1847 1848 1849 1872 1873 1874 1875 1876 1877 1878 1879 1880 1903 1904 1905 1906 1907 1908 1909 1910 1911 1934 1935 1936 1937 1938 1939 1940 1941 1942 1965 1966 1967 1968 1969 1970 1971 1972 1973 1996 1997 1998 1999 2000 2001 2002 2003 2004 2027 2028 2029 2030 2031 2032 2033 2034 2035 2058 2059 2060 2061 2062 2063 2064 2065 2066 2089 2090 2091 2092 2093 2094 2095 2096 2097 2120 2121 2122 2123 2124 2125 2126 2127 2128 2151 2152 2153 2154 2155 2156 2157 2158 2159 2182 2183 2184 2185 2186 2187 2188 2189 2190 2213 2214 2215 2216 2217 2218 2219 2220 2221 2244 2245 2246 2247 2248 2249 2250 2251 2252 2275 2276 2277 2278 2279 2280 2281 2282 2283 2306 2307 2308 2309 2310 2311 2312 2313 2314 2337 2338 2339 2340 2341 2342 2343 2344 2345 2368 2369 2370 2371 2372 2373 2374 2375 2376 2399 2400 2401 2402 2403 2404 2405 2406 2407 2430 2431 2432 2433 2434 2435 2436 2437 2438 2461 2462 2463 2464 2465 2466 2467 2468 2469 2492 2493 2494 2495 2496 2497 2498 2499 2500 2523 2524 2525 2526 2527 2528 2529 2530 2531 2554 2555 2556 2557 2558 2559 2560 2561 2562 2585 2586 2587 2588 2589 2590 2591 2592 2593 2616 2617 2618 2619 2620 2621 2622 2623 2624 2647 2648 2649 2650 2651 2652 2653 2654 2655 2678 2679 2680 2681 2682 2683 2684 2685 2686 2709 2710 2711 2712 2713 2714 2715 2716 2717 2739 2740 2741 2742 2743 2744 2745 2746 2747 2768 2769 2770 2771 2772 2773 2774 2775 2776 2796 2797 2798 2799 2800 2801 2802 2803 2804 2823 2824 2825 2826 2827 2828 2829 2830 2831 2849 2850 2851 2852 2853 2854 2855 2856 2857 2873 2874 2875 2876 2877 2878 2879 2880 2881 2896 2897 2898 2899 2900 2901 2902 2903 2904 2917 2918 2919 2920 2921 2922 2923 2924 2925 2936 2937 2938 2939 2940 2941 2942 2943 2953 2954 2955 2956 2957 2958 2966 2967 2968 2969 1045 1046 1047 1048 1049 1050 1051 1052 1075 1076 1077 1078 1079 1080 1081 1082 1106 1107 1108 1109 1110 1111 1112 1113 1137 1138 1139 1140 1141 1142 1143 1144 1168 1169 1170 1171 1172 1173 1174 1175 1199 1200 1201 1202 1203 1204 1205 1206 1230 1231 1232 1233 1234 1235 1236 1237 1261 1262 1263 1264 1265 1266 1267 1268 1292 1293 1294 1295 1296 1297 1298 1299 1323 1324 1325 1326 1327 1328 1329 1330 1354 1355 1356 1357 1358 1359 1360 1361 1385 1386 1387 1388 1389 1390 1391 1392 1416 1417 1418 1419 1420 1421 1422 1423 1447 1448 1449 1450 1451 1452 1453 1454 1478 1479 1480 1481 1482 1483 1484 1485 1509 1510 1511 1512 1513 1514 1515 1516 1540 1541 1542 1543 1544 1545 1546 1547 1571 1572 1573 1574 1575 1576 1577 1578 1602 1603 1604 1605 1606 1607 1608 1609 1633 1634 1635 1636 1637 1638 1639 1640 1664 1665 1666 1667 1668 1669 1670 1671 1695 1696 1697 1698 1699 1700 1701 1702 1726 1727 1728 1729 1730 1731 1732 1733 1757 1758 1759 1760 1761 1762 1763 1764 1788 1789 1790 1791 1792 1793 1794 1795 1819 1820 1821 1822 1823 1824 1825 1826 1850 1851 1852 1853 1854 1855 1856 1857 1881 1882 1883 1884 1885 1886 1887 1888 1912 1913 1914 1915 1916 1917 1918 1919 1943 1944 1945 1946 1947 1948 1949 1950 1974 1975 1976 1977 1978 1979 1980 1981 2005 2006 2007 2008 2009 2010 2011 2012 2036 2037 2038 2039 2040 2041 2042 2043 2067 2068 2069 2070 2071 2072 2073 2074 2098 2099 2100 2101 2102 2103 2104 2105 2129 2130 2131 2132 2133 2134 2135 2136 2160 2161 2162 2163 2164 2165 2166 2167 2191 2192 2193 2194 2195 2196 2197 2198 2222 2223 2224 2225 2226 2227 2228 2229 2253 2254 2255 2256 2257 2258 2259 2260 2284 2285 2286 2287 2288 2289 2290 2291 2315 2316 2317 2318 2319 2320 2321 2322 2346 2347 2348 2349 2350 2351 2352 2353 2377 2378 2379 2380 2381 2382 2383 2384 2408 2409 2410 2411 2412 2413 2414 2415 2439 2440 2441 2442 2443 2444 2445 2446 2470 2471 2472 2473 2474 2475 2476 2477 2501 2502 2503 2504 2505 2506 2507 2508 2532 2533 2534 2535 2536 2537 2538 2539 2563 2564 2565 2566 2567 2568 2569 2570 2594 2595 2596 2597 2598 2599 2600 2601 2625 2626 2627 2628 2629 2630 2631 2632 2656 2657 2658 2659 2660 2661 2662 2663 2687 2688 2689 2690 2691 2692 2693 2694 2718 2719 2720 2721 2722 2723 2724 2725 2748 2749 2750 2751 2752 2753 2754 2755 2777 2778 2779 2780 2781 2782 2783 2784 2805 2806 2807 2808 2809 2810 2811 2812 2832 2833 2834 2835 2836 2837 2838 2839 2858 2859 2860 2861 2862 2863 2864 2865 2882 2883 2884 2885 2886 2887 2888 2889 2905 2906 2907 2908 2909 2910 2911 2912 2926 2927 2928 2929 2930 2931 2932 2933 2944 2945 2946 2947 2948 2949 2950 2951 2959 2960 2961 2962 2963 2964 2965 2970 2971 2972 2973 2974 1053 1054 1055 1056 1057 1058 1059 1083 1084 1085 1086 1087 1088 1089 1090 1114 1115 1116 1117 1118 1119 1120 1121 1145 1146 1147 1148 1149 1150 1151 1152 1176 1177 1178 1179 1180 1181 1182 1183 1207 1208 1209 1210 1211 1212 1213 1214 1238 1239 1240 1241 1242 1243 1244 1245 1269 1270 1271 1272 1273 1274 1275 1276 1300 1301 1302 1303 1304 1305 1306 1307 1331 1332 1333 1334 1335 1336 1337 1338 1362 1363 1364 1365 1366 1367 1368 1369 1393 1394 1395 1396 1397 1398 1399 1400 1424 1425 1426 1427 1428 1429 1430 1431 1455 1456 1457 1458 1459 1460 1461 1462 1486 1487 1488 1489 1490 1491 1492 1493 1517 1518 1519 1520 1521 1522 1523 1524 1548 1549 1550 1551 1552 1553 1554 1555 1579 1580 1581 1582 1583 1584 1585 1586 1610 1611 1612 1613 1614 1615 1616 1617 1641 1642 1643 1644 1645 1646 1647 1648 1672 1673 1674 1675 1676 1677 1678 1679 1703 1704 1705 1706 1707 1708 1709 1710 1734 1735 1736 1737 1738 1739 1740 1741 1765 1766 1767 1768 1769 1770 1771 1772 1796 1797 1798 1799 1800 1801 1802 1803 1827 1828 1829 1830 1831 1832 1833 1834 1858 1859 1860 1861 1862 1863 1864 1865 1889 1890 1891 1892 1893 1894 1895 1896 1920 1921 1922 1923 1924 1925 1926 1927 1951 1952 1953 1954 1955 1956 1957 1958 1982 1983 1984 1985 1986 1987 1988 1989 2013 2014 2015 2016 2017 2018 2019 2020 2044 2045 2046 2047 2048 2049 2050 2051 2075 2076 2077 2078 2079 2080 2081 2082 2106 2107 2108 2109 2110 2111 2112 2113 2137 2138 2139 2140 2141 2142 2143 2144 2168 2169 2170 2171 2172 2173 2174 2175 2199 2200 2201 2202 2203 2204 2205 2206 2230 2231 2232 2233 2234 2235 2236 2237 2261 2262 2263 2264 2265 2266 2267 2268 2292 2293 2294 2295 2296 2297 2298 2299 2323 2324 2325 2326 2327 2328 2329 2330 2354 2355 2356 2357 2358 2359 2360 2361 2385 2386 2387 2388 2389 2390 2391 2392 2416 2417 2418 2419 2420 2421 2422 2423 2447 2448 2449 2450 2451 2452 2453 2454 2478 2479 2480 2481 2482 2483 2484 2485 2509 2510 2511 2512 2513 2514 2515 2516 2540 2541 2542 2543 2544 2545 2546 2547 2571 2572 2573 2574 2575 2576 2577 2578 2602 2603 2604 2605 2606 2607 2608 2609 2633 2634 2635 2636 2637 2638 2639 2640 2664 2665 2666 2667 2668 2669 2670 2671 2695 2696 2697 2698 2699 2700 2701 2702 2726 2727 2728 2729 2730 2731 2732 2733 2756 2757 2758 2759 2760 2761 2762 2785 2786 2787 2788 2789 2790 2791 2813 2814 2815 2816 2817 2818 2840 2841 2842 2843 2844 2845 2866 2867 2868 2869 2870 2890 2891 2892 2893 2913 2914 2915 2916 2934 2935 2952 
FIELD FieldData 12
Idp 1 2975 float
0 1 39 40 41 80 81 82 121 122 123 162 163 164 203 204 205 244 245 246 285 286 287 326 327 328 367 368 369 408 409 410 449 450 451 461 462 463 471 472 473 481 482 483 491 492 493 501 502 503 511 512 513 521 522 523 531 532 533 541 542 543 551 552 2 3 4 5 6 7 8 9 42 43 44 45 46 47 48 49 83 84 85 86 87 88 89 90 124 125 126 127 128 129 130 131 165 166 167 168 169 170 171 172 206 207 208 209 210 211 212 213 247 248 249 250 251 252 253 254 288 289 290 291 292 293 294 295 329 330 331 332 333 334 335 336 370 371 372 373 374 375 376 377 411 412 413 414 415 416 417 418 452 453 454 464 465 474 475 484 485 494 495 504 505 514 515 524 525 534 535 544 545 553 554 10 11 12 13 14 15 16 17 18 50 51 52 53 54 55 56 57 58 91 92 93 94 95 96 97 98 99 132 133 134 135 136 137 138 139 140 173 174 175 176 177 178 179 180 181 214 215 216 217 218 219 220 221 222 255 256 257 258 259 260 261 262 263 296 297 298 299 300 301 302 303 304 337 338 339 340 341 342 343 344 345 378 379 380 381 382 383 384 385 386 419 420 421 422 423 424 425 426 427 19 20 21 22 23 24 25 26 59 60 61 62 63 64 65 66 100 101 102 103 104 105 106 107 141 142 143 144 145 146 147 148 182 183 184 185 186 187 188 189 223 224 225 226 227 228 229 230 264 265 266 267 268 269 270 271 305 306 307 308 309 310 311 312 346 347 348 349 350 351 352 353 387 388 389 390 391 392 393 394 428 429 430 431 432 433 434 435 27 28 29 30 31 32 33 34 35 67 68 69 70 71 72 73 74 75 108 109 110 111 112 113 114 115 116 149 150 151 152 153 154 155 156 157 190 191 192 193 194 195 196 197 198 231 232 233 234 235 236 237 238 239 272 273 274 275 276 277 278 279 280 313 314 315 316 317 318 319 320 321 354 355 356 357 358 359 360 361 362 395 396 397 398 399 400 401 402 403 436 437 438 439 440 441 442 443 444 455 456 466 476 486 496 506 516 526 536 546 555 36 37 38 76 77 78 79 117 118 119 120 158 159 160 161 199 200 201 202 240 241 242 243 281 282 283 284 322 323 324 325 363 364 365 366 404 405 406 407 445 446 447 448 457 458 459 460 467 468 469 470 477 478 479 480 487 488 489 490 497 498 499 500 507 508 509 510 517 518 519 520 527 528 529 530 537 538 539 540 547 548 549 550 556 557 558 559 560 561 562 563 564 565 566 567 568 569 570 571 572 573 574 575 576 577 578 579 580 581 582 583 584 585 586 587 588 589 590 591 592 593 594 595 596 597 598 599 600 601 602 603 604 605 606 607 608 609 610 611 612 613 614 615 616 617 618 619 620 621 622 623 624 625 626 627 628 629 630 631 632 633 634 635 636 637 638 639 640 641 642 643 644 645 646 647 648 649 650 651 652 653 654 655 656 657 658 659 660 661 662 663 664 665 666 667 668 669 670 671 672 673 674 675 676 677 678 679 680 681 682 683 684 685 686 687 688 689 690 691 692 693 694 695 696 697 698 699 700 701 702 703 704 705 706 707 708 709 710 711 712 713 714 715 716 717 718 719 720 721 722 723 724 725 726 727 728 729 730 731 732 733 734 735 736 737 738 739 740 741 742 743 744 745 746 747 748 749 750 751 752 753 754 755 756 757 758 759 760 761 762 763 764 765 766 767 768 769 770 771 772 773 774 775 776 777 778 779 780 781 782 783 784 785 786 787 788 789 790 791 792 793 794 795 796 797 798 799 800 801 802 803 804 805 806 807 808 809 810 811 812 813 814 815 816 817 818 819 820 821 822 823 824 825 826 827 828 829 830 831 832 833 834 835 836 837 838 839 840 841 842 843 844 845 846 847 848 849 850 851 852 853 854 855 856 857 858 859 860 861 862 863 864 865 866 867 868 869 870 871 872 873 874 875 876 877 878 879 880 881 882 883 884 885 886 887 888 889 890 891 892 893 894 895 896 897 898 899 900 901 902 903 904 905 906 907 908 909 910 911 912 913 914 915 916 917 918 919 920 921 922 923 924 925 926 927 928 929 930 931 932 933 934 935 936 937 938 939 940 941 942 943 944 945 946 947 948 949 950 951 952 953 954 955 956 957 958 959 960 961 962 963 964 965 966 967 968 969 970 971 972 973 974 975 976 977 978 979 980 981 982 983 984 985 986 987 988 989 990 991 992 993 994 995 996 997 998 999 1000 1001 1002 1003 1004 1005 1006 1007 1008 1009 1010 1011 1012 1013 1014 1015 1016 1017 1018 1019 1020 1021 1022 1023 1024 1025 1026 1027 1028 1029 1030 1031 1032 1033 1034 1035 1060 1061 1062 1063 1064 1065 1091 1092 1093 1094 1095 1096 1122 1123 1124 1125 1126 1127 1153 1154 1155 1156 1157 1158 1184 1185 1186 1187 1188 1189 1215 1216 1217 1218 1219 1220 1246 1247 1248 1249 1250 1251 1277 1278 1279 1280 1281 1282 1308 1309 1310 1311 1312 1313 1339 1340 1341 1342 1343 1344 1370 1371 1372 1373 1374 1375 1401 1402 1403 1404 1405 1406 1432 1433 1434 1435 1436 1437 1463 1464 1465 1466 1467 1468 1494 1495 1496 1497 1498 1499 1525 1526 1527 1528 1529 1530 1556 1557 1558 1559 1560 1561 1587 1588 1589 1590 1591 1592 1618 1619 1620 1621 1622 1623 1649 1650 1651 1652 1653 1654 1680 1681 1682 1683 1684 1685 1711 1712 1713 1714 1715 1716 1742 1743 1744 1745 1746 1747 1773 1774 1775 1776 1777 1778 1804 1805 1806 1807 1808 1809 1835 1836 1837 1838 1839 1840 1866 1867 1868 1869 1870 1871 1897 1898 1899 1900 1901 1902 1928 1929 1930 1931 1932 1933 1959 1960 1961 1962 1963 1964 1990 1991 1992 1993 1994 1995 2021 2022 2023 2024 2025 2026 2052 2053 2054 2055 2056 2057 2083 2084 2085 2086 2087 2088 2114 2115 2116 2117 2118 2119 2145 2146 2147 2148 2149 2150 2176 2177 2178 2179 2180 2181 2207 2208 2209 2210 2211 2212 2238 2239 2240 2241 2242 2243 2269 2270 2271 2272 2273 2274 2300 2301 2302 2303 2304 2305 2331 2332 2333 2334 2335 2336 2362 2363 2364 2365 2366 2367 2393 2394 2395 2396 2397 2398 2424 2425 2426 2427 2428 2429 2455 2456 2457 2458 2459 2460 2486 2487 2488 2489 2490 2491 2517 2518 2519 2520 2521 2522 2548 2549 2550 2551 2552 2553 2579 2580 2581 2582 2583 2584 2610 2611 2612 2613 2614 2615 2641 2642 2643 2644 2645 2646 2672 2673 2674 2675 2676 2677 2703 2704 2705 2706 2707 2708 2734 2735 2736 2737 2738 2763 2764 2765 2766 2767 2792 2793 2794 2795 2819 2820 2821 2822 2846 2847 2848 2871 2872 2894 2895 1036 1037 1038 1039 1040 1041 1042 1043 1044 1066 1067 1068 1069 1070 1071 1072 1073 1074 1097 1098 1099 1100 1101 1102 1103 1104 1105 1128 1129 1130 1131 1132 1133 1134 1135 1136 1159 1160 1161 1162 1163 1164 1165 1166 1167 1190 1191 1192 1193 1194 1195 1196 1197 1198 1221 1222 1223 1224 1225 1226 1227 1228 1229 1252 1253 1254 1255 1256 1257 1258 1259 1260 1283 1284 1285 1286 1287 1288 1289 1290 1291 1314 1315 1316 1317 1318 1319 1320 1321 1322 1345 1346 1347 1348 1349 1350 1351 1352 1353 1376 1377 1378 1379 1380 1381 1382 1383 1384 1407 1408 1409 1410 1411 1412 1413 1414 1415 1438 1439 1440 1441 1442 1443 1444 1445 1446 1469 1470 1471 1472 1473 1474 1475 1476 1477 1500 1501 1502 1503 1504 1505 1506 1507 1508 1531 1532 1533 1534 1535 1536 1537 1538 1539 1562 1563 1564 1565 1566 1567 1568 1569 1570 1593 1594 1595 1596 1597 1598 1599 1600 1601 1624 1625 1626 1627 1628 1629 1630 1631 1632 1655 1656 1657 1658 1659 1660 1661 1662 1663 1686 1687 1688 1689 1690 1691 1692 1693 1694 1717 1718 1719 1720 1721 1722 1723 1724 1725 1748 1749 1750 1751 1752 1753 1754 1755 1756 1779 1780 1781 1782 1783 1784 1785 1786 1787 1810 1811 1812 1813 1814 1815 1816 1817 1818 1841 1842 1843 1844 1845 1846 1847 1848 1849 1872 1873 1874 1875 1876 1877 1878 1879 1880 1903 1904 1905 1906 1907 1908 1909 1910 1911 1934 1935 1936 1937 1938 1939 1940 1941 1942 1965 1966 1967 1968 1969 1970 1971 1972 1973 1996 1997 1998 1999 2000 2001 2002 2003 2004 2027 2028 2029 2030 2031 2032 2033 2034 2035 2058 2059 2060 2061 2062 2063 2064 2065 2066 2089 2090 2091 2092 2093 2094 2095 2096 2097 2120 2121 2122 2123 2124 2125 2126 2127 2128 2151 2152 2153 2154 2155 2156 2157 2158 2159 2182 2183 2184 2185 2186 2187 2188 2189 2190 2213 2214 2215 2216 2217 2218 2219 2220 2221 2244 2245 2246 2247 2248 2249 2250 2251 2252 2275 2276 2277 2278 2279 2280 2281 2282 2283 2306 2307 2308 2309 2310 2311 2312 2313 2314 2337 2338 2339 2340 2341 2342 2343 2344 2345 2368 2369 2370 2371 2372 2373 2374 2375 2376 2399 2400 2401 2402 2403 2404 2405 2406 2407 2430 2431 2432 2433 2434 2435 2436 2437 2438 2461 2462 2463 2464 2465 2466 2467 2468 2469 2492 2493 2494 2495 2496 2497 2498 2499 2500 2523 2524 2525 2526 2527 2528 2529 2530 2531 2554 2555 2556 2557 2558 2559 2560 2561 2562 2585 2586 2587 2588 2589 2590 2591 2592 2593 2616 2617 2618 2619 2620 2621 2622 2623 2624 2647 2648 2649 2650 2651 2652 2653 2654 2655 2678 2679 2680 2681 2682 2683 2684 2685 2686 2709 2710 2711 2712 2713 2714 2715 2716 2717 2739 2740 2741 2742 2743 2744 2745 2746 2747 2768 2769 2770 2771 2772 2773 2774 2775 2776 2796 2797 2798 2799 2800 2801 2802 2803 2804 2823 2824 2825 2826 2827 2828 2829 2830 2831 2849 2850 2851 2852 2853 2854 2855 2856 2857 2873 2874 2875 2876 2877 2878 2879 2880 2881 2896 2897 2898 2899 2900 2901 2902 2903 2904 2917 2918 2919 2920 2921 2922 2923 2924 2925 2936 2937 2938 2939 2940 2941 2942 2943 2953 2954 2955 2956 2957 2958 2966 2967 2968 2969 1045 1046 1047 1048 1049 1050 1051 1052 1075 1076 1077 1078 1079 1080 1081 1082 1106 1107 1108 1109 1110 1111 1112 1113 1137 1138 1139 1140 1141 1142 1143 1144 1168 1169 1170 1171 1172 1173 1174 1175 1199 1200 1201 1202 1203 1204 1205 1206 1230 1231 1232 1233 1234 1235 1236 1237 1261 1262 1263 1264 1265 1266 1267 1268 1292 1293 1294 1295 1296 1297 1298 1299 1323 1324 1325 1326 1327 1328 1329 1330 1354 1355 1356 1357 1358 1359 1360 1361 1385 1386 1387 1388 1389 1390 1391 1392 1416 1417 1418 1419 1420 1421 1422 1423 1447 1448 1449 1450 1451 1452 1453 1454 1478 1479 1480 1481 1482 1483 1484 1485 1509 1510 1511 1512 1513 1514 1515 1516 1540 1541 1542 1543 1544 1545 1546 1547 1571 1572 1573 1574 1575 1576 1577 1578 1602 1603 1604 1605 1606 1607 1608 1609 1633 1634 1635 1636 1637 1638 1639 1640 1664 1665 1666 1667 1668 1669 1670 1671 1695 1696 1697 1698 1699 1700 1701 1702 1726 1727 1728 1729 1730 1731 1732 1733 1757 1758 1759 1760 1761 1762 1763 1764 1788 1789 1790 1791 1792 1793 1794 1795 1819 1820 1821 1822 1823 1824 1825 1826 1850 1851 1852 1853 1854 1855 1856 1857 1881 1882 1883 1884 1885 1886 1887 1888 1912 1913 1914 1915 1916 1917 1918 1919 1943 1944 1945 1946 1947 1948 1949 1950 1974 1975 1976 1977 1978 1979 1980 1981 2005 2006 2007 2008 2009 2010 2011 2012 2036 2037 2038 2039 2040 2041 2042 2043 2067 2068 2069 2070 2071 2072 2073 2074 2098 2099 2100 2101 2102 2103 2104 2105 2129 2130 2131 2132 2133 2134 2135 2136 2160 2161 2162 2163 2164 2165 2166 2167 2191 2192 2193 2194 2195 2196 2197 2198 2222 2223 2224 2225 2226 2227 2228 2229 2253 2254 2255 2256 2257 2258 2259 2260 2284 2285 2286 2287 2288 2289 2290 2291 2315 2316 2317 2318 2319 2320 2321 2322 2346 2347 2348 2349 2350 2351 2352 2353 2377 2378 2379 2380 2381 2382 2383 2384 2408 2409 2410 2411 2412 2413 2414 2415 2439 2440 2441 2442 2443 2444 2445 2446 2470 2471 2472 2473 2474 2475 2476 2477 2501 2502 2503 2504 2505 2506 2507 2508 2532 2533 2534 2535 2536 2537 2538 2539 2563 2564 2565 2566 2567 2568 2569 2570 2594 2595 2596 2597 2598 2599 2600 2601 2625 2626 2627 2628 2629 2630 2631 2632 2656 2657 2658 2659 2660 2661 2662 2663 2687 2688 2689 2690 2691 2692 2693 2694 2718 2719 2720 2721 2722 2723 2724 2725 2748 2749 2750 2751 2752 2753 2754 2755 2777 2778 2779 2780 2781 2782 2783 2784 2805 2806 2807 2808 2809 2810 2811 2812 2832 2833 2834 2835 2836 2837 2838 2839 2858 2859 2860 2861 2862 2863 2864 2865 2882 2883 2884 2885 2886 2887 2888 2889 2905 2906 2907 2908 2909 2910 2911 2912 2926 2927 2928 2929 2930 2931 2932 2933 2944 2945 2946 2947 2948 2949 2950 2951 2959 2960 2961 2962 2963 2964 2965 2970 2971 2972 2973 2974 1053 1054 1055 1056 1057 1058 1059 1083 1084 1085 1086 1087 1088 1089 1090 1114 1115 1116 1117 1118 1119 1120 1121 1145 1146 1147 1148 1149 1150 1151 1152 1176 1177 1178 1179 1180 1181 1182 1183 1207 1208 1209 1210 1211 1212 1213 1214 1238 1239 1240 1241 1242 1243 1244 1245 1269 1270 1271 1272 1273 1274 1275 1276 1300 1301 1302 1303 1304 1305 1306 1307 1331 1332 1333 1334 1335 1336 1337 1338 1362 1363 1364 1365 1366 1367 1368 1369 1393 1394 1395 1396 1397 1398 1399 1400 1424 1425 1426 1427 1428 1429 1430 1431 1455 1456 1457 1458 1459 1460 1461 1462 1486 1487 1488 1489 1490 1491 1492 1493 1517 1518 1519 1520 1521 1522 1523 1524 1548 1549 1550 1551 1552 1553 1554 1555 1579 1580 1581 1582 1583 1584 1585 1586 1610 1611 1612 1613 1614 1615 1616 1617 1641 1642 1643 1644 1645 1646 1647 1648 1672 1673 1674 1675 1676 1677 1678 1679 1703 1704 1705 1706 1707 1708 1709 1710 1734 1735 1736 1737 1738 1739 1740 1741 1765 1766 1767 1768 1769 1770 1771 1772 1796 1797 1798 1799 1800 1801 1802 1803 1827 1828 1829 1830 1831 1832 1833 1834 1858 1859 1860 1861 1862 1863 1864 1865 1889 1890 1891 1892 1893 1894 1895 1896 1920 1921 1922 1923 1924 1925 1926 1927 1951 1952 1953 1954 1955 1956 1957 1958 1982 1983 1984 1985 1986 1987 1988 1989 2013 2014 2015 2016 2017 2018 2019 2020 2044 2045 2046 2047 2048 2049 2050 2051 2075 2076 2077 2078 2079 2080 2081 2082 2106 2107 2108 2109 2110 2111 2112 2113 2137 2138 2139 2140 2141 2142 2143 2144 2168 2169 2170 2171 2172 2173 2174 2175 2199 2200 2201 2202 2203 2204 2205 2206 2230 2231 2232 2233 2234 2235 2236 2237 2261 2262 2263 2264 2265 2266 2267 2268 2292 2293 2294 2295 2296 2297 2298 2299 2323 2324 2325 2326 2327 2328 2329 2330 2354 2355 2356 2357 2358 2359 2360 2361 2385 2386 2387 2388 2389 2390 2391 2392 2416 2417 2418 2419 2420 2421 2422 2423 2447 2448 2449 2450 2451 2452 2453 2454 2478 2479 2480 2481 2482 2483 2484 2485 2509 2510 2511 2512 2513 2514 2515 2516 2540 2541 2542 2543 2544 2545 2546 2547 2571 2572 2573 2574 2575 2576 2577 2578 2602 2603 2604 2605 2606 2607 2608 2609 2633 2634 2635 2636 2637 2638 2639 2640 2664 2665 2666 2667 2668 2669 2670 2671 2695 2696 2697 2698 2699 2700 2701 2702 2726 2727 2728 2729 2730 2731 2732 2733 2756 2757 2758 2759 2760 2761 2762 2785 2786 2787 2788 2789 2790 2791 2813 2814 2815 2816 2817 2818 2840 2841 2842 2843 2844 2845 2866 2867 2868 2869 2870 2890 2891 2892 2893 2913 2914 2915 2916 2934 2935 2952 
Rhop 1 2975 float
  1.0000000E+03   1.0000000E+03   1.0000000E+03   1.0000000E+03   1.0000000E+03   1.0000000E+03   1.0000000E+03   1.0000000E+03   1.0000000E+03   1.0000000E+03   1.0000000E+03   1.0000000E+03   1.0000000E+03   1.0000000E+03   1.0000000E+03   1.0000000E+03   1.0000000E+03   1.0000000E+03   1.0000000E+03   1.0000000E+03   1.0000000E+03   1.0000000E+03   1.0000000E+03   1.0000000E+03   1.0000000E+03   1.0000000E+03   1.0000000E+03   1.0000000E+03   1.0000000E+03   1.0000000E+03   1.0000000E+03   1.0000000E+03   1.0000000E+03   1.0000000E+03   1.0000000E+03   1.0000000E+03   1.0000000E+03   1.0000000E+03   1.0000000E+03   1.0000000E+03   1.0000000E+03   1.0000000E+03   1.0000000E+03   1.0000000E+03   1.0000000E+03   1.0000000E+03   1.0000000E+03   1.0000000E+03   1.0000000E+03   1.0000000E+03   1.0000000E+03   1.0000000E+03   1.0000001E+03   1.0000000E+03   1.0000001E+03   1.0000001E+03   1.0000000E+03   1.0000001E+03   1.0000002E+03   1.0000001E+03   1.0000002E+03   1.0000003E+03   1.0000003E+03   1.0000004E+03   1.0000000E+03   1.0000000E+03   1.0000000E+03   1.0000000E+03   1.0000000E+03   1.0000000E+03   1.0000000E+03   1.0000000E+03   1.0000000E+03   1.0000000E+03   1.0000000E+03   1.0000000E+03   1.0000000E+03   1.0000000E+03   1.0000000E+03   1.0000000E+03   1.0000000E+03   1.0000000E+03   1.0000000E+03   1.0000000E+03   1.0000000E+03   1.0000000E+03   1.0000000E+03   1.0000000E+03   1.0000000E+03   1.0000000E+03   1.0000000E+03   1.0000000E+03   1.0000000E+03   1.0000000E+03   1.0000000E+03   1.0000000E+03   1.0000000E+03   1.0000000E+03   1.0000000E+03   1.0000000E+03   1.0000000E+03   1.0000000E+03   1.0000000E+03   1.0000000E+03   1.0000000E+03   1.0000000E+03   1.0000000E+03   1.0000000E+03   1.0000000E+03   1.0000000E+03   1.0000000E+03   1.0000000E+03   1.0000000E+03   1.0000000E+03   1.0000000E+03   1.0000000E+03   1.0000000E+03   1.0000000E+03   1.0000000E+03   1.0000000E+03   1.0000000E+03   1.0000000E+03   1.0000000E+03   1.0000000E+03   1.0000000E+03   1.0000000E+03   1.0000000E+03   1.0000000E+03   1.0000000E+03   1.0000000E+03   1.0000000E+03   1.0000000E+03   1.0000000E+03   1.0000000E+03   1.0000000E+03   1.0000000E+03   1.0000000E+03   1.0000000E+03   1.0000000E+03   1.0000000E+03   1.0000000E+03   1.0000000E+03   1.0000000E+03   1.0000000E+03   1.0000000E+03   1.0000000E+03   1.0000000E+03   1.0000000E+03   1.0000000E+03   1.0000000E+03   1.0000000E+03   1.0000000E+03   1.0000000E+03   1.0000000E+03   1.0000000E+03   1.0000000E+03   1.0000000E+03   1.0000000E+03   1.0000000E+03   1.0000000E+03   1.0000000E+03   1.0000000E+03   1.0000001E+03   1.0000001E+03   1.0000001E+03   1.0000001E+03   1.0000001E+03   1.0000002E+03   1.0000002E+03   1.0000003E+03   1.0000004E+03   1.0000004E+03   1.0000006E+03   1.0000007E+03   1.0000009E+03   1.0000000E+03   1.0000000E+03   1.0000000E+03   1.0000000E+03   1.0000000E+03   1.0000000E+03   1.0000000E+03   1.0000000E+03   1.0000000E+03   1.0000000E+03   1.0000000E+03   1.0000000E+03   1.0000000E+03   1.0000000E+03   1.0000000E+03   1.0000000E+03   1.0000000E+03   1.0000000E+03   1.0000000E+03   1.0000000E+03   1.0000000E+03   1.0000000E+03   1.0000000E+03   1.0000000E+03   1.0000000E+03   1.0000000E+03   1.0000000E+03   1.0000000E+03   1.0000000E+03   1.0000000E+03   1.0000000E+03   1.0000000E+03   1.0000000E+03   1.0000000E+03   1.0000000E+03   1.0000000E+03   1.0000000E+03   1.0000000E+03   1.0000000E+03   1.0000000E+03   1.0000000E+03   1.0000000E+03   1.0000000E+03   1.0000000E+03   1.0000000E+03   1.0000000E+03   1.0000000E+03   1.0000000E+03   1.0000000E+03   1.0000000E+03   1.0000000E+03   1.0000000E+03   1.0000000E+03   1.0000000E+03   1.0000000E+03   1.0000000E+03   1.0000000E+03   1.0000000E+03   1.0000000E+03   1.0000000E+03   1.0000000E+03   1.0000000E+03   1.0000000E+03   1.0000000E+03   1.0000000E+03   1.0000000E+03   1.0000000E+03   1.0000000E+03   1.0000000E+03   1.0000000E+03   1.0000000E+03   1.0000000E+03   1.0000000E+03   1.0000000E+03   1.0000000E+03   1.0000000E+03   1.0000000E+03   1.0000000E+03   1.0000000E+03   1.0000000E+03   1.0000000E+03   1.0000000E+03   1.0000000E+03   1.0000000E+03   1.0000000E+03   1.0000000E+03   1.0000000E+03   1.0000000E+03   1.0000000E+03   1.0000000E+03   1.0000000E+03   1.0000000E+03   1.0000000E+03   1.0000000E+03   1.0000000E+03   1.0000000E+03   1.0000000E+03   1.0000000E+03   1.0000000E+03   1.0000000E+03   1.0000000E+03   1.0000000E+03   1.0000000E+03   1.0000000E+03   1.0000000E+03   1.0000000E+03   1.0000000E+03   1.0000000E+03   1.0000000E+03   1.0000000E+03   1.0000000E+03   1.0000000E+03   1.0000000E+03   1.0000000E+03   1.0000000E+03   1.0000000E+03   1.0000000E+03   1.0000000E+03   1.0000000E+03   1.0000000E+03   1.0000000E+03   1.0000000E+03   1.0000000E+03   1.0000000E+03   1.0000000E+03   1.0000000E+03   1.0000000E+03   1.0000000E+03   1.0000000E+03   1.0000000E+03   1.0000000E+03   1.0000000E+03   1.0000000E+03   1.0000000E+03   1.0000000E+03   1.0000000E+03   1.0000000E+03   1.0000000E+03   1.0000000E+03   1.0000000E+03   1.0000000E+03   1.0000000E+03   1.0000000E+03   1.0000000E+03   1.0000000E+03   1.0000000E+03   1.0000000E+03   1.0000000E+03   1.0000000E+03   1.0000000E+03   1.0000000E+03   1.0000000E+03   1.0000000E+03   1.0000000E+03   1.0000000E+03   1.0000000E+03   1.0000000E+03   1.0000000E+03   1.0000000E+03   1.0000000E+03   1.0000000E+03   1.0000000E+03   1.0000000E+03   1.0000000E+03   1.0000000E+03   1.0000000E+03   1.0000000E+03   1.0000000E+03   1.0000000E+03   1.0000000E+03   1.0000000E+03   1.0000000E+03   1.0000000E+03   1.0000000E+03   1.0000000E+03   1.0000000E+03   1.0000000E+03   1.0000000E+03   1.0000000E+03   1.0000000E+03   1.0000000E+03   1.0000000E+03   1.0000000E+03   1.0000000E+03   1.0000000E+03   1.0000000E+03   1.0000000E+03   1.0000000E+03   1.0000000E+03   1.0000000E+03   1.0000000E+03   1.0000000E+03   1.0000000E+03   1.0000000E+03   1.0000000E+03   1.0000000E+03   1.0000000E+03   1.0000000E+03   1.0000000E+03   1.0000000E+03   1.0000000E+03   1.0000000E+03   1.0000000E+03   1.0000000E+03   1.0000000E+03   1.0000000E+03   1.0000000E+03   1.0000000E+03   1.0000000E+03   1.0000000E+03   1.0000000E+03   1.0000000E+03   1.0000000E+03   1.0000000E+03   1.0000000E+03   1.0000000E+03   1.0000000E+03   1.0000000E+03   1.0000000E+03   1.0000000E+03   1.0000000E+03   1.0000000E+03   1.0000000E+03   1.0000000E+03   1.0000000E+03   1.0000000E+03   1.0000000E+03   1.0000000E+03   1.0000000E+03   1.0000000E+03   1.0000000E+03   1.0000000E+03   1.0000000E+03   1.0000000E+03   1.0000000E+03   1.0000000E+03   1.0000000E+03   1.0000000E+03   1.0000000E+03   1.0000000E+03   1.0000000E+03   1.0000000E+03   1.0000000E+03   1.0000000E+03   1.0000000E+03   1.0000000E+03   1.0000000E+03   1.0000000E+03   1.0000000E+03   1.0000000E+03   1.0000000E+03   1.0000000E+03   1.0000000E+03   1.0000000E+03   1.0000000E+03   1.0000000E+03   1.0000000E+03   1.0000000E+03   1.0000000E+03   1.0000000E+03   1.0000000E+03   1.0000000E+03   1.0000000E+03   1.0000000E+03   1.0000000E+03   1.0000000E+03   1.0000000E+03   1.0000000E+03   1.0000000E+03   1.0000000E+03   1.0000000E+03   1.0000000E+03   1.0000000E+03   1.0000000E+03   1.0000000E+03   1.0000000E+03   1.0000000E+03   1.0000000E+03   1.0000000E+03   1.0000000E+03   1.0000000E+03   1.0000000E+03   1.0000000E+03   1.0000000E+03   1.0000000E+03   1.0000000E+03   1.0000000E+03   1.0000000E+03   1.0000000E+03   1.0000000E+03   1.0000000E+03   1.0000001E+03   1.0000001E+03   1.0000001E+03   1.0000002E+03   1.0000004E+03   1.0000006E+03   1.0000009E+03   1.0000000E+03   1.0000000E+03   1.0000000E+03   1.0000000E+03   1.0000000E+03   1.0000000E+03   1.0000000E+03   1.0000000E+03   1.0000000E+03   1.0000000E+03   1.0000000E+03   1.0000000E+03   1.0000000E+03   1.0000000E+03   1.0000000E+03   1.0000000E+03   1.0000000E+03   1.0000000E+03   1.0000000E+03   1.0000000E+03   1.0000000E+03   1.0000000E+03   1.0000000E+03   1.0000000E+03   1.0000000E+03   1.0000000E+03   1.0000000E+03   1.0000000E+03   1.0000000E+03   1.0000000E+03   1.0000000E+03   1.0000000E+03   1.0000000E+03   1.0000000E+03   1.0000000E+03   1.0000000E+03   1.0000000E+03   1.0000000E+03   1.0000000E+03   1.0000000E+03   1.0000000E+03   1.0000000E+03   1.0000000E+03   1.0000000E+03   1.0000000E+03   1.0000000E+03   1.0000000E+03   1.0000000E+03   1.0000000E+03   1.0000000E+03   1.0000000E+03   1.0000000E+03   1.0000000E+03   1.0000000E+03   1.0000000E+03   1.0000000E+03   1.0000000E+03   1.0000000E+03   1.0000000E+03   1.0000000E+03   1.0000000E+03   1.0000000E+03   1.0000000E+03   1.0000001E+03   1.0000000E+03   1.0000000E+03   1.0000000E+03   1.0000001E+03   1.0000001E+03   1.0000000E+03   1.0000000E+03   1.0000002E+03   1.0000001E+03   1.0000001E+03   1.0000000E+03   1.0000003E+03   1.0000002E+03   1.0000001E+03   1.0000000E+03   1.0000004E+03   1.0000003E+03   1.0000002E+03   1.0000001E+03   1.0000007E+03   1.0000004E+03   1.0000003E+03   1.0000000E+03   1.0000000E+03   1.0000000E+03   1.0000000E+03   1.0000000E+03   1.0000000E+03   1.0000000E+03   1.0000000E+03   1.0000000E+03   1.0000000E+03   1.0000000E+03   1.0000000E+03   1.0000000E+03   1.0000000E+03   1.0000000E+03   1.0000000E+03   1.0000000E+03   1.0000000E+03   1.0000000E+03   1.0000000E+03   1.0000000E+03   1.0000000E+03   1.0000000E+03   1.0000000E+03   1.0000000E+03   1.0000000E+03   1.0000000E+03   1.0000000E+03   1.0000000E+03   1.0000000E+03   1.0000000E+03   1.0000000E+03   1.0000000E+03   1.0000000E+03   1.0000000E+03   1.0000000E+03   1.0000000E+03   1.0000000E+03   1.0000000E+03   1.0000000E+03   1.0000000E+03   1.0000000E+03   1.0000000E+03   1.0000000E+03   1.0000000E+03   1.0000000E+03   1.0000000E+03   1.0000000E+03   1.0000000E+03   1.0000000E+03   1.0000000E+03   1.0000000E+03   1.0000000E+03   1.0000000E+03   1.0000000E+03   1.0000000E+03   1.0000000E+03   1.0000000E+03   1.0000000E+03   1.0000000E+03   1.0000000E+03   1.0000000E+03   1.0000000E+03   1.0000000E+03   1.0000000E+03   1.0000000E+03   1.0000000E+03   1.0000000E+03   1.0000000E+03   1.0000000E+03   1.0000000E+03   1.0000000E+03   1.0000000E+03   1.0000000E+03   1.0000000E+03   1.0000000E+03   1.0000000E+03   1.0000000E+03   1.0000000E+03   1.0000000E+03   1.0000000E+03   1.0000000E+03   1.0000000E+03   1.0000000E+03   1.0000000E+03   1.0000000E+03   1.0000000E+03   1.0000000E+03   1.0000000E+03   1.0000000E+03   1.0000000E+03   1.0000000E+03   1.0000000E+03   1.0000000E+03   1.0000000E+03   1.0000000E+03   1.0000000E+03   1.0000000E+03   1.0000000E+03   1.0000000E+03   1.0000000E+03   1.0000000E+03   1.0000000E+03   1.0000000E+03   1.0000000E+03   1.0000000E+03   1.0000000E+03   1.0000000E+03   1.0000000E+03   1.0000000E+03   1.0000000E+03   1.0000000E+03   1.0000000E+03   1.0000000E+03   1.0000000E+03   1.0000000E+03   1.0000000E+03   1.0000000E+03   1.0000000E+03   1.0000000E+03   1.0000000E+03   1.0000000E+03   1.0000000E+03   1.0000000E+03   1.0000000E+03   1.0000000E+03   1.0000000E+03   1.0000000E+03   1.0000000E+03   1.0000000E+03   1.0000000E+03   1.0000000E+03   1.0000000E+03   1.0000000E+03   1.0000000E+03   1.0000000E+03   1.0000000E+03   1.0000000E+03   1.0000000E+03   1.0000000E+03   1.0000000E+03   1.0000000E+03   1.0000000E+03   1.0000000E+03   1.0000000E+03   1.0000000E+03   1.0000000E+03   1.0000000E+03   1.0000000E+03   1.0000000E+03   1.0000000E+03   1.0000000E+03   1.0000000E+03   1.0000000E+03   1.0000000E+03   1.0000000E+03   1.0000000E+03   1.0000000E+03   1.0000000E+03   1.0000000E+03   1.0000000E+03   1.0000000E+03   1.0000000E+03   1.0000000E+03   1.0000000E+03   1.0000000E+03   1.0000000E+03   1.0000000E+03   1.0000000E+03   1.0000000E+03   1.0000000E+03   1.0000000E+03   1.0000000E+03   1.0000000E+03   1.0000000E+03   1.0000000E+03   1.0000000E+03   1.0000000E+03   1.0000000E+03   1.0000000E+03   1.0000000E+03   1.0000000E+03   1.0000000E+03   1.0000000E+03   1.0000000E+03   1.0000000E+03   1.0000000E+03   1.0000000E+03   1.0000000E+03   1.0000000E+03   1.0000000E+03   1.0000000E+03   1.0000000E+03   1.0000000E+03   1.0000000E+03   1.0000000E+03   1.0000000E+03   1.0000000E+03   1.0000000E+03   1.0000000E+03   1.0000000E+03   1.0000000E+03   1.0000000E+03   1.0000000E+03   1.0000000E+03   1.0000000E+03   1.0000000E+03   1.0000000E+03   1.0000000E+03   1.0000000E+03   1.0000000E+03   1.0000000E+03   1.0000000E+03   1.0000000E+03   1.0000000E+03   1.0000000E+03   1.0000000E+03   1.0000000E+03   1.0000000E+03   1.0000000E+03   1.0000000E+03   1.0000000E+03   1.0000000E+03   1.0000000E+03   1.0000000E+03   1.0000000E+03   1.0000000E+03   1.0000000E+03   1.0000000E+03   1.0000000E+03   1.0000000E+03   1.0000000E+03   1.0000000E+03   1.0000000E+03   1.0000000E+03   1.0000000E+03   1.0000000E+03   1.0000000E+03   1.0000000E+03   1.0000000E+03   1.0000000E+03   1.0000000E+03   1.0000000E+03   1.0000000E+03   1.0000000E+03   1.0000000E+03   1.0000000E+03   1.0000000E+03   1.0000000E+03   1.0000000E+03   1.0000000E+03   1.0000000E+03   1.0000000E+03   1.0000000E+03   1.0000000E+03   1.0000000E+03   1.0000000E+03   1.0000000E+03   1.0000000E+03   1.0000000E+03   1.0000000E+03   1.0000000E+03   1.0000000E+03   1.0000000E+03   1.0000000E+03   1.0000000E+03   1.0000000E+03   1.0000000E+03   1.0000000E+03   1.0000000E+03   1.0000000E+03   1.0000000E+03   1.0000000E+03   1.0000000E+03   1.0000000E+03   1.0000000E+03   1.0000000E+03   1.0000000E+03   1.0000000E+03   1.0000000E+03   1.0000000E+03   1.0000000E+03   1.0000000E+03   1.0000000E+03   1.0000000E+03   1.0000000E+03   1.0000000E+03   1.0000000E+03   1.0000000E+03   1.0000000E+03   1.0000000E+03   1.0000000E+03   1.0000000E+03   1.0000000E+03   1.0000000E+03   1.0000000E+03   1.0000000E+03   1.0000000E+03   1.0000000E+03   1.0000000E+03   1.0000000E+03   1.0000000E+03   1.0000000E+03   1.0000000E+03   1.0000000E+03   1.0000000E+03   1.0000000E+03   1.0000000E+03   1.0000000E+03   1.0000000E+03   1.0000000E+03   1.0000000E+03   1.0000000E+03   1.0000000E+03   1.0000000E+03   1.0000000E+03   1.0000000E+03   1.0000000E+03   1.0000000E+03   1.0000000E+03   1.0000000E+03   1.0000000E+03   1.0000000E+03   1.0000000E+03   1.0000000E+03   1.0000000E+03   1.0000000E+03   1.0000000E+03   1.0000000E+03   1.0000000E+03   1.0000000E+03   1.0000000E+03   1.0000000E+03   1.0000000E+03   1.0000000E+03   1.0000000E+03   1.0000000E+03   1.0000000E+03   1.0000000E+03   1.0000000E+03   1.0000000E+03   1.0000000E+03   1.0000000E+03   1.0000000E+03   1.0000000E+03   1.0000000E+03   1.0000000E+03   1.0000000E+03   1.0000000E+03   1.0000000E+03   1.0000000E+03   1.0000000E+03   1.0000000E+03   1.0000000E+03   1.0000000E+03   1.0000000E+03   1.0000000E+03   1.0000000E+03   1.0000000E+03   1.0000000E+03   1.0000000E+03   1.0000000E+03   1.0000000E+03   1.0000000E+03   1.0000000E+03   1.0000000E+03   1.0000000E+03   1.0000000E+03   1.0000000E+03   1.0000000E+03   1.0000000E+03   1.0000000E+03   1.0000000E+03   1.0000000E+03   1.0000000E+03   1.0000000E+03   1.0000000E+03   1.0000000E+03   1.0000000E+03   1.0000000E+03   1.0000000E+03   1.0000000E+03   1.0000000E+03   1.0000000E+03   1.0000000E+03   1.0000000E+03   1.0000000E+03   1.0000000E+03   1.0000000E+03   1.0000000E+03   1.0000000E+03   1.0000000E+03   1.0000000E+03   1.0000000E+03   1.0000000E+03   1.0000000E+03   1.0000000E+03   1.0000000E+03   1.0000000E+03   1.0000000E+03   1.0000000E+03   1.0000000E+03   1.0000000E+03   1.0000000E+03   1.0000000E+03   1.0000000E+03   1.0000000E+03   1.0000000E+03   1.0000000E+03   1.0000000E+03   1.0000000E+03   1.0000000E+03   1.0000000E+03   1.0000000E+03   1.0000000E+03   1.0000000E+03   1.0000000E+03   1.0000000E+03   1.0000000E+03   1.0000000E+03   1.0000000E+03   1.0000000E+03   1.0000000E+03   1.0000000E+03   1.0000000E+03   1.0000000E+03   1.0000000E+03   1.0000000E+03   1.0000000E+03   1.0000000E+03   1.0000000E+03   1.0000000E+03   1.0000000E+03   1.0000000E+03   1.0000000E+03   1.0000000E+03   1.0000000E+03   1.0000000E+03   1.0000000E+03   1.0000000E+03   1.0000000E+03   1.0000000E+03   1.0000000E+03   1.0000000E+03   1.0000000E+03   1.0000000E+03   1.0000000E+03   1.0000000E+03   1.0000000E+03   1.0000000E+03   1.0000000E+03   1.0000000E+03   1.0000000E+03   1.0000000E+03   1.0000000E+03   1.0000000E+03   1.0000000E+03   1.0000000E+03   1.0000000E+03   1.0000000E+03   1.0000000E+03   1.0000000E+03   1.0000000E+03   1.0000000E+03   1.0000000E+03   1.0000000E+03   1.0000000E+03   1.0000000E+03   1.0000000E+03   1.0000000E+03   1.0000000E+03   1.0000000E+03   1.0000000E+03   1.0000000E+03   1.0000000E+03   1.0000000E+03   1.0000000E+03   1.0000000E+03   1.0000000E+03   1.0000001E+03   1.0000001E+03   1.0000001E+03   1.0000001E+03   1.0000000E+03   1.0000001E+03   1.0000001E+03   1.0000001E+03   1.0000001E+03   1.0000001E+03   1.0000001E+03   1.0000001E+03   1.0000001E+03   1.0000001E+03   1.0000001E+03   1.0000001E+03   1.0000001E+03   1.0000001E+03   1.0000001E+03   1.0000001E+03   1.0000002E+03   1.0000002E+03   1.0000001E+03   1.0000002E+03   1.0000002E+03   1.0000002E+03   1.0000002E+03   1.0000002E+03   1.0000002E+03   1.0000002E+03   1.0000003E+03   1.0000003E+03   1.0000004E+03   1.0000004E+03   1.0000004E+03   1.0000004E+03   1.0000004E+03   1.0000004E+03   1.0000004E+03   1.0000004E+03   1.0000005E+03   1.0000006E+03   1.0000006E+03   1.0000007E+03   1.0000007E+03   1.0000007E+03   1.0000009E+03   1.0000009E+03   1.0000009E+03   1.0000009E+03   1.0000009E+03   1.0000010E+03   1.0000012E+03   1.0000012E+03   1.0000012E+03   1.0000012E+03   1.0000012E+03   1.0000013E+03   1.0000018E+03   1.0000018E+03   1.0000018E+03   1.0000018E+03   1.0000018E+03   1.0000018E+03   1.0000021E+03   1.0000024E+03   1.0000024E+03   1.0000024E+03   1.0000024E+03   1.0000024E+03   1.0000028E+03   1.0000031E+03   1.0000031E+03   1.0000031E+03   1.0000032E+03   1.0000034E+03   1.0000038E+03   1.0000040E+03   1.0000042E+03   1.0000042E+03   1.0000045E+03   1.0000045E+03   1.0000051E+03   1.0000054E+03   1.0000056E+03   1.0000057E+03   1.0000059E+03   1.0000060E+03   1.0000070E+03   1.0000073E+03   1.0000074E+03   1.0000076E+03   1.0000079E+03   1.0000081E+03   1.0000097E+03   1.0000099E+03   1.0000101E+03   1.0000102E+03   1.0000104E+03   1.0000107E+03   1.0000129E+03   1.0000131E+03   1.0000134E+03   1.0000136E+03   1.0000138E+03   1.0000141E+03   1.0000171E+03   1.0000175E+03   1.0000177E+03   1.0000179E+03   1.0000182E+03   1.0000185E+03   1.0000226E+03   1.0000233E+03   1.0000235E+03   1.0000236E+03   1.0000239E+03   1.0000242E+03   1.0000301E+03   1.0000308E+03   1.0000311E+03   1.0000310E+03   1.0000312E+03   1.0000313E+03   1.0000397E+03   1.0000407E+03   1.0000407E+03   1.0000403E+03   1.0000402E+03   1.0000402E+03   1.0000526E+03   1.0000538E+03   1.0000532E+03   1.0000522E+03   1.0000516E+03   1.0000514E+03   1.0000690E+03   1.0000706E+03   1.0000685E+03   1.0000663E+03   1.0000652E+03   1.0000649E+03   1.0000892E+03   1.0000901E+03   1.0000861E+03   1.0000820E+03   1.0000804E+03   1.0000800E+03   1.0001149E+03   1.0001146E+03   1.0001065E+03   1.0001003E+03   1.0000984E+03   1.0000986E+03   1.0001489E+03   1.0001452E+03   1.0001314E+03   1.0001227E+03   1.0001213E+03   1.0001229E+03   1.0002037E+03   1.0001944E+03   1.0001736E+03   1.0001634E+03   1.0001638E+03   1.0001686E+03   1.0003182E+03   1.0003012E+03   1.0002759E+03   1.0002651E+03   1.0002690E+03   1.0002797E+03   1.0005934E+03   1.0005718E+03   1.0005492E+03   1.0005403E+03   1.0005503E+03   1.0005699E+03   1.0012299E+03   1.0012113E+03   1.0012067E+03   1.0012108E+03   1.0012312E+03   1.0012628E+03   1.0024086E+03   1.0024023E+03   1.0024432E+03   1.0024781E+03   1.0025163E+03   1.0025637E+03   1.0038840E+03   1.0038927E+03   1.0039966E+03   1.0040768E+03   1.0041378E+03   1.0042026E+03   1.0050345E+03   1.0050463E+03   1.0052001E+03   1.0053179E+03   1.0053996E+03   1.0054806E+03   1.0056398E+03   1.0056395E+03   1.0058120E+03   1.0059489E+03   1.0060438E+03   1.0061379E+03   1.0058933E+03   1.0058796E+03   1.0060496E+03   1.0061902E+03   1.0062911E+03   1.0063937E+03   1.0059988E+03   1.0059727E+03   1.0061345E+03   1.0062719E+03   1.0063748E+03   1.0064828E+03   1.0060547E+03   1.0060202E+03   1.0061738E+03   1.0063073E+03   1.0064107E+03   1.0065215E+03   1.0060947E+03   1.0060555E+03   1.0062042E+03   1.0063347E+03   1.0064379E+03   1.0065498E+03   1.0061234E+03   1.0060834E+03   1.0062305E+03   1.0063595E+03   1.0064620E+03   1.0065739E+03   1.0061374E+03   1.0061000E+03   1.0062485E+03   1.0063779E+03   1.0064798E+03   1.0065903E+03   1.0060510E+03   1.0060161E+03   1.0061636E+03   1.0062914E+03   1.0063915E+03   1.0064998E+03   1.0058641E+03   1.0058309E+03   1.0059745E+03   1.0060986E+03   1.0061957E+03   1.0063008E+03   1.0055909E+03   1.0055593E+03   1.0056963E+03   1.0058149E+03   1.0059081E+03   1.0060090E+03   1.0052482E+03   1.0052184E+03   1.0053467E+03   1.0054582E+03   1.0055468E+03   1.0056429E+03   1.0048538E+03   1.0048263E+03   1.0049443E+03   1.0050480E+03   1.0051314E+03   1.0052220E+03   1.0044244E+03   1.0044000E+03   1.0045074E+03   1.0046025E+03   1.0046802E+03   1.0047650E+03   1.0039769E+03   1.0039557E+03   1.0040530E+03   1.0041396E+03   1.0042116E+03   1.0042903E+03   1.0035285E+03   1.0035104E+03   1.0035977E+03   1.0036759E+03   1.0037422E+03   1.0038147E+03   1.0030959E+03   1.0030798E+03   1.0031564E+03   1.0032268E+03   1.0032875E+03   1.0033537E+03   1.0026937E+03   1.0026776E+03   1.0027432E+03   1.0028062E+03   1.0028613E+03   1.0029213E+03   1.0023304E+03   1.0023138E+03   1.0023679E+03   1.0024241E+03   1.0024736E+03   1.0025268E+03   1.0020095E+03   1.0019937E+03   1.0020367E+03   1.0020877E+03   1.0021315E+03   1.0021776E+03   1.0017315E+03   1.0017184E+03   1.0017514E+03   1.0017986E+03   1.0018377E+03   1.0018760E+03   1.0014899E+03   1.0015123E+03   1.0015549E+03   1.0015906E+03   1.0016220E+03   1.0013076E+03   1.0013172E+03   1.0013519E+03   1.0013862E+03   1.0014126E+03   1.0011621E+03   1.0011854E+03   1.0012178E+03   1.0012426E+03   1.0010398E+03   1.0010511E+03   1.0010788E+03   1.0011051E+03   1.0009448E+03   1.0009647E+03   1.0009917E+03   1.0008740E+03   1.0008969E+03   1.0008064E+03   1.0008217E+03   1.0000001E+03   1.0000001E+03   1.0000001E+03   1.0000001E+03   1.0000001E+03   1.0000001E+03   1.0000001E+03   1.0000001E+03   1.0000001E+03   1.0000001E+03   1.0000001E+03   1.0000001E+03   1.0000001E+03   1.0000001E+03   1.0000001E+03   1.0000001E+03   1.0000001E+03   1.0000001E+03   1.0000001E+03   1.0000001E+03   1.0000001E+03   1.0000001E+03   1.0000001E+03   1.0000001E+03   1.0000001E+03   1.0000001E+03   1.0000001E+03   1.0000001E+03   1.0000001E+03   1.0000001E+03   1.0000001E+03   1.0000001E+03   1.0000001E+03   1.0000001E+03   1.0000001E+03   1.0000001E+03   1.0000002E+03   1.0000002E+03   1.0000002E+03   1.0000002E+03   1.0000002E+03   1.0000002E+03   1.0000002E+03   1.0000002E+03   1.0000002E+03   1.0000002E+03   1.0000003E+03   1.0000003E+03   1.0000003E+03   1.0000003E+03   1.0000003E+03   1.0000003E+03   1.0000003E+03   1.0000003E+03   1.0000004E+03   1.0000004E+03   1.0000004E+03   1.0000004E+03   1.0000004E+03   1.0000004E+03   1.0000004E+03   1.0000004E+03   1.0000004E+03   1.0000005E+03   1.0000005E+03   1.0000005E+03   1.0000005E+03   1.0000006E+03   1.0000006E+03   1.0000006E+03   1.0000006E+03   1.0000006E+03   1.0000007E+03   1.0000008E+03   1.0000008E+03   1.0000009E+03   1.0000009E+03   1.0000009E+03   1.0000009E+03   1.0000009E+03   1.0000009E+03   1.0000010E+03   1.0000010E+03   1.0000011E+03   1.0000011E+03   1.0000011E+03   1.0000011E+03   1.0000011E+03   1.0000011E+03   1.0000011E+03   1.0000014E+03   1.0000015E+03   1.0000015E+03   1.0000016E+03   1.0000016E+03   1.0000016E+03   1.0000016E+03   1.0000016E+03   1.0000016E+03   1.0000020E+03   1.0000020E+03   1.0000020E+03   1.0000020E+03   1.0000020E+03   1.0000020E+03   1.0000020E+03   1.0000020E+03   1.0000021E+03   1.0000026E+03   1.0000026E+03   1.0000026E+03   1.0000026E+03   1.0000027E+03   1.0000027E+03   1.0000027E+03   1.0000027E+03   1.0000027E+03   1.0000035E+03   1.0000036E+03   1.0000037E+03   1.0000037E+03   1.0000037E+03   1.0000037E+03   1.0000038E+03   1.0000038E+03   1.0000038E+03   1.0000047E+03   1.0000048E+03   1.0000049E+03   1.0000049E+03   1.0000049E+03   1.0000049E+03   1.0000049E+03   1.0000049E+03   1.0000049E+03   1.0000062E+03   1.0000062E+03   1.0000065E+03   1.0000065E+03   1.0000066E+03   1.0000066E+03   1.0000066E+03   1.0000066E+03   1.0000066E+03   1.0000083E+03   1.0000084E+03   1.0000085E+03   1.0000085E+03   1.0000086E+03   1.0000086E+03   1.0000086E+03   1.0000086E+03   1.0000086E+03   1.0000110E+03   1.0000112E+03   1.0000113E+03   1.0000114E+03   1.0000114E+03   1.0000115E+03   1.0000114E+03   1.0000114E+03   1.0000114E+03   1.0000144E+03   1.0000145E+03   1.0000147E+03   1.0000148E+03   1.0000148E+03   1.0000148E+03   1.0000149E+03   1.0000149E+03   1.0000149E+03   1.0000189E+03   1.0000190E+03   1.0000192E+03   1.0000192E+03   1.0000192E+03   1.0000192E+03   1.0000193E+03   1.0000193E+03   1.0000192E+03   1.0000245E+03   1.0000247E+03   1.0000248E+03   1.0000248E+03   1.0000248E+03   1.0000248E+03   1.0000248E+03   1.0000248E+03   1.0000248E+03   1.0000317E+03   1.0000318E+03   1.0000319E+03   1.0000319E+03   1.0000318E+03   1.0000319E+03   1.0000318E+03   1.0000317E+03   1.0000317E+03   1.0000404E+03   1.0000406E+03   1.0000404E+03   1.0000405E+03   1.0000404E+03   1.0000405E+03   1.0000405E+03   1.0000405E+03   1.0000404E+03   1.0000517E+03   1.0000516E+03   1.0000515E+03   1.0000514E+03   1.0000515E+03   1.0000513E+03   1.0000515E+03   1.0000515E+03   1.0000515E+03   1.0000648E+03   1.0000649E+03   1.0000648E+03   1.0000646E+03   1.0000647E+03   1.0000646E+03   1.0000648E+03   1.0000648E+03   1.0000648E+03   1.0000800E+03   1.0000801E+03   1.0000800E+03   1.0000800E+03   1.0000801E+03   1.0000801E+03   1.0000803E+03   1.0000804E+03   1.0000808E+03   1.0000991E+03   1.0000997E+03   1.0000998E+03   1.0001000E+03   1.0001002E+03   1.0001004E+03   1.0001008E+03   1.0001011E+03   1.0001014E+03   1.0001251E+03   1.0001269E+03   1.0001279E+03   1.0001285E+03   1.0001290E+03   1.0001296E+03   1.0001302E+03   1.0001307E+03   1.0001310E+03   1.0001742E+03   1.0001785E+03   1.0001813E+03   1.0001829E+03   1.0001840E+03   1.0001849E+03   1.0001859E+03   1.0001866E+03   1.0001872E+03   1.0002912E+03   1.0003004E+03   1.0003063E+03   1.0003098E+03   1.0003120E+03   1.0003136E+03   1.0003151E+03   1.0003162E+03   1.0003170E+03   1.0005905E+03   1.0006074E+03   1.0006185E+03   1.0006250E+03   1.0006291E+03   1.0006318E+03   1.0006341E+03   1.0006358E+03   1.0006369E+03   1.0012960E+03   1.0013234E+03   1.0013422E+03   1.0013533E+03   1.0013599E+03   1.0013644E+03   1.0013679E+03   1.0013703E+03   1.0013718E+03   1.0026118E+03   1.0026525E+03   1.0026807E+03   1.0026978E+03   1.0027080E+03   1.0027146E+03   1.0027194E+03   1.0027228E+03   1.0027250E+03   1.0042674E+03   1.0043223E+03   1.0043611E+03   1.0043850E+03   1.0043992E+03   1.0044084E+03   1.0044149E+03   1.0044196E+03   1.0044225E+03   1.0055611E+03   1.0056299E+03   1.0056793E+03   1.0057097E+03   1.0057282E+03   1.0057401E+03   1.0057483E+03   1.0057543E+03   1.0057578E+03   1.0062314E+03   1.0063122E+03   1.0063705E+03   1.0064069E+03   1.0064291E+03   1.0064433E+03   1.0064534E+03   1.0064604E+03   1.0064648E+03   1.0064973E+03   1.0065869E+03   1.0066519E+03   1.0066930E+03   1.0067180E+03   1.0067341E+03   1.0067455E+03   1.0067537E+03   1.0067586E+03   1.0065927E+03   1.0066884E+03   1.0067579E+03   1.0068019E+03   1.0068289E+03   1.0068463E+03   1.0068586E+03   1.0068674E+03   1.0068729E+03   1.0066350E+03   1.0067339E+03   1.0068058E+03   1.0068514E+03   1.0068795E+03   1.0068976E+03   1.0069105E+03   1.0069199E+03   1.0069256E+03   1.0066647E+03   1.0067649E+03   1.0068376E+03   1.0068839E+03   1.0069122E+03   1.0069307E+03   1.0069439E+03   1.0069534E+03   1.0069593E+03   1.0066885E+03   1.0067885E+03   1.0068611E+03   1.0069071E+03   1.0069352E+03   1.0069537E+03   1.0069670E+03   1.0069766E+03   1.0069825E+03   1.0067037E+03   1.0068022E+03   1.0068738E+03   1.0069191E+03   1.0069469E+03   1.0069651E+03   1.0069783E+03   1.0069877E+03   1.0069936E+03   1.0066108E+03   1.0067073E+03   1.0067770E+03   1.0068211E+03   1.0068482E+03   1.0068660E+03   1.0068788E+03   1.0068881E+03   1.0068939E+03   1.0064083E+03   1.0065016E+03   1.0065691E+03   1.0066119E+03   1.0066380E+03   1.0066552E+03   1.0066675E+03   1.0066765E+03   1.0066821E+03   1.0061122E+03   1.0062017E+03   1.0062662E+03   1.0063070E+03   1.0063320E+03   1.0063484E+03   1.0063602E+03   1.0063687E+03   1.0063740E+03   1.0057409E+03   1.0058256E+03   1.0058868E+03   1.0059252E+03   1.0059488E+03   1.0059641E+03   1.0059753E+03   1.0059833E+03   1.0059882E+03   1.0053141E+03   1.0053936E+03   1.0054504E+03   1.0054861E+03   1.0055080E+03   1.0055221E+03   1.0055324E+03   1.0055397E+03   1.0055443E+03   1.0048508E+03   1.0049241E+03   1.0049766E+03   1.0050092E+03   1.0050291E+03   1.0050419E+03   1.0050511E+03   1.0050577E+03   1.0050618E+03   1.0043693E+03   1.0044366E+03   1.0044843E+03   1.0045136E+03   1.0045314E+03   1.0045428E+03   1.0045509E+03   1.0045568E+03   1.0045605E+03   1.0038871E+03   1.0039484E+03   1.0039915E+03   1.0040179E+03   1.0040336E+03   1.0040437E+03   1.0040508E+03   1.0040559E+03   1.0040591E+03   1.0034199E+03   1.0034755E+03   1.0035146E+03   1.0035385E+03   1.0035525E+03   1.0035614E+03   1.0035677E+03   1.0035721E+03   1.0035748E+03   1.0029811E+03   1.0030318E+03   1.0030674E+03   1.0030894E+03   1.0031022E+03   1.0031102E+03   1.0031157E+03   1.0031196E+03   1.0031219E+03   1.0025803E+03   1.0026263E+03   1.0026594E+03   1.0026802E+03   1.0026924E+03   1.0027000E+03   1.0027050E+03   1.0027084E+03   1.0027104E+03   1.0022242E+03   1.0022658E+03   1.0022969E+03   1.0023173E+03   1.0023297E+03   1.0023370E+03   1.0023418E+03   1.0023450E+03   1.0023468E+03   1.0019156E+03   1.0019523E+03   1.0019818E+03   1.0020023E+03   1.0020153E+03   1.0020233E+03   1.0020281E+03   1.0020313E+03   1.0020330E+03   1.0016540E+03   1.0016855E+03   1.0017129E+03   1.0017339E+03   1.0017482E+03   1.0017573E+03   1.0017629E+03   1.0017663E+03   1.0017680E+03   1.0014376E+03   1.0014635E+03   1.0014882E+03   1.0015090E+03   1.0015247E+03   1.0015354E+03   1.0015421E+03   1.0015462E+03   1.0015483E+03   1.0012625E+03   1.0012827E+03   1.0013037E+03   1.0013232E+03   1.0013395E+03   1.0013517E+03   1.0013600E+03   1.0013652E+03   1.0013680E+03   1.0011237E+03   1.0011395E+03   1.0011562E+03   1.0011730E+03   1.0011885E+03   1.0012009E+03   1.0012103E+03   1.0012166E+03   1.0012202E+03   1.0010130E+03   1.0010282E+03   1.0010413E+03   1.0010545E+03   1.0010674E+03   1.0010787E+03   1.0010879E+03   1.0010945E+03   1.0010985E+03   1.0009208E+03   1.0009398E+03   1.0009532E+03   1.0009638E+03   1.0009733E+03   1.0009821E+03   1.0009897E+03   1.0009955E+03   1.0009992E+03   1.0008417E+03   1.0008630E+03   1.0008807E+03   1.0008934E+03   1.0009019E+03   1.0009082E+03   1.0009135E+03   1.0009177E+03   1.0009205E+03   1.0007855E+03   1.0007993E+03   1.0008150E+03   1.0008301E+03   1.0008419E+03   1.0008500E+03   1.0008553E+03   1.0008587E+03   1.0008608E+03   1.0007631E+03   1.0007678E+03   1.0007756E+03   1.0007853E+03   1.0007944E+03   1.0008010E+03   1.0008052E+03   1.0008074E+03   1.0007505E+03   1.0007495E+03   1.0007513E+03   1.0007532E+03   1.0007543E+03   1.0007549E+03   1.0007487E+03   1.0007454E+03   1.0007416E+03   1.0007391E+03   1.0000001E+03   1.0000001E+03   1.0000001E+03   1.0000001E+03   1.0000001E+03   1.0000001E+03   1.0000001E+03   1.0000001E+03   1.0000001E+03   1.0000001E+03   1.0000001E+03   1.0000001E+03   1.0000001E+03   1.0000001E+03   1.0000001E+03   1.0000001E+03   1.0000001E+03   1.0000001E+03   1.0000001E+03   1.0000001E+03   1.0000001E+03   1.0000001E+03   1.0000001E+03   1.0000001E+03   1.0000001E+03   1.0000001E+03   1.0000001E+03   1.0000001E+03   1.0000001E+03   1.0000001E+03   1.0000001E+03   1.0000001E+03   1.0000002E+03   1.0000002E+03   1.0000002E+03   1.0000002E+03   1.0000002E+03   1.0000002E+03   1.0000002E+03   1.0000002E+03   1.0000003E+03   1.0000003E+03   1.0000003E+03   1.0000003E+03   1.0000003E+03   1.0000003E+03   1.0000003E+03   1.0000003E+03   1.0000004E+03   1.0000004E+03   1.0000004E+03   1.0000004E+03   1.0000004E+03   1.0000004E+03   1.0000004E+03   1.0000004E+03   1.0000006E+03   1.0000006E+03   1.0000006E+03   1.0000006E+03   1.0000006E+03   1.0000006E+03   1.0000005E+03   1.0000005E+03   1.0000009E+03   1.0000009E+03   1.0000009E+03   1.0000009E+03   1.0000009E+03   1.0000009E+03   1.0000009E+03   1.0000008E+03   1.0000011E+03   1.0000011E+03   1.0000011E+03   1.0000011E+03   1.0000011E+03   1.0000011E+03   1.0000011E+03   1.0000011E+03   1.0000016E+03   1.0000016E+03   1.0000016E+03   1.0000016E+03   1.0000016E+03   1.0000016E+03   1.0000016E+03   1.0000015E+03   1.0000021E+03   1.0000021E+03   1.0000020E+03   1.0000020E+03   1.0000020E+03   1.0000020E+03   1.0000020E+03   1.0000020E+03   1.0000027E+03   1.0000027E+03   1.0000027E+03   1.0000027E+03   1.0000027E+03   1.0000027E+03   1.0000026E+03   1.0000026E+03   1.0000038E+03   1.0000038E+03   1.0000038E+03   1.0000038E+03   1.0000037E+03   1.0000037E+03   1.0000037E+03   1.0000037E+03   1.0000049E+03   1.0000049E+03   1.0000049E+03   1.0000049E+03   1.0000049E+03   1.0000049E+03   1.0000049E+03   1.0000049E+03   1.0000066E+03   1.0000066E+03   1.0000066E+03   1.0000066E+03   1.0000066E+03   1.0000066E+03   1.0000065E+03   1.0000065E+03   1.0000086E+03   1.0000086E+03   1.0000086E+03   1.0000086E+03   1.0000086E+03   1.0000086E+03   1.0000085E+03   1.0000085E+03   1.0000114E+03   1.0000114E+03   1.0000114E+03   1.0000114E+03   1.0000115E+03   1.0000114E+03   1.0000114E+03   1.0000113E+03   1.0000149E+03   1.0000149E+03   1.0000149E+03   1.0000149E+03   1.0000148E+03   1.0000148E+03   1.0000148E+03   1.0000147E+03   1.0000192E+03   1.0000192E+03   1.0000193E+03   1.0000193E+03   1.0000192E+03   1.0000192E+03   1.0000192E+03   1.0000192E+03   1.0000248E+03   1.0000248E+03   1.0000248E+03   1.0000248E+03   1.0000248E+03   1.0000248E+03   1.0000248E+03   1.0000248E+03   1.0000317E+03   1.0000317E+03   1.0000317E+03   1.0000318E+03   1.0000319E+03   1.0000318E+03   1.0000319E+03   1.0000319E+03   1.0000404E+03   1.0000404E+03   1.0000405E+03   1.0000405E+03   1.0000405E+03   1.0000404E+03   1.0000405E+03   1.0000404E+03   1.0000515E+03   1.0000515E+03   1.0000515E+03   1.0000515E+03   1.0000513E+03   1.0000515E+03   1.0000514E+03   1.0000515E+03   1.0000648E+03   1.0000648E+03   1.0000648E+03   1.0000648E+03   1.0000646E+03   1.0000647E+03   1.0000646E+03   1.0000648E+03   1.0000808E+03   1.0000808E+03   1.0000804E+03   1.0000803E+03   1.0000801E+03   1.0000801E+03   1.0000800E+03   1.0000800E+03   1.0001014E+03   1.0001014E+03   1.0001011E+03   1.0001008E+03   1.0001004E+03   1.0001002E+03   1.0001000E+03   1.0000998E+03   1.0001312E+03   1.0001310E+03   1.0001307E+03   1.0001302E+03   1.0001296E+03   1.0001290E+03   1.0001285E+03   1.0001279E+03   1.0001873E+03   1.0001872E+03   1.0001866E+03   1.0001859E+03   1.0001849E+03   1.0001840E+03   1.0001829E+03   1.0001813E+03   1.0003172E+03   1.0003170E+03   1.0003162E+03   1.0003151E+03   1.0003136E+03   1.0003120E+03   1.0003098E+03   1.0003063E+03   1.0006373E+03   1.0006369E+03   1.0006358E+03   1.0006341E+03   1.0006318E+03   1.0006291E+03   1.0006250E+03   1.0006185E+03   1.0013723E+03   1.0013718E+03   1.0013703E+03   1.0013679E+03   1.0013644E+03   1.0013599E+03   1.0013533E+03   1.0013422E+03   1.0027257E+03   1.0027250E+03   1.0027228E+03   1.0027194E+03   1.0027146E+03   1.0027080E+03   1.0026978E+03   1.0026807E+03   1.0044235E+03   1.0044225E+03   1.0044196E+03   1.0044149E+03   1.0044084E+03   1.0043992E+03   1.0043850E+03   1.0043611E+03   1.0057592E+03   1.0057578E+03   1.0057543E+03   1.0057483E+03   1.0057401E+03   1.0057282E+03   1.0057097E+03   1.0056793E+03   1.0064662E+03   1.0064648E+03   1.0064604E+03   1.0064534E+03   1.0064433E+03   1.0064291E+03   1.0064069E+03   1.0063705E+03   1.0067603E+03   1.0067586E+03   1.0067537E+03   1.0067455E+03   1.0067341E+03   1.0067180E+03   1.0066930E+03   1.0066519E+03   1.0068748E+03   1.0068729E+03   1.0068674E+03   1.0068586E+03   1.0068463E+03   1.0068289E+03   1.0068019E+03   1.0067579E+03   1.0069276E+03   1.0069256E+03   1.0069199E+03   1.0069105E+03   1.0068976E+03   1.0068795E+03   1.0068514E+03   1.0068058E+03   1.0069612E+03   1.0069593E+03   1.0069534E+03   1.0069439E+03   1.0069307E+03   1.0069122E+03   1.0068839E+03   1.0068376E+03   1.0069846E+03   1.0069825E+03   1.0069766E+03   1.0069670E+03   1.0069537E+03   1.0069352E+03   1.0069071E+03   1.0068611E+03   1.0069956E+03   1.0069936E+03   1.0069877E+03   1.0069783E+03   1.0069651E+03   1.0069469E+03   1.0069191E+03   1.0068738E+03   1.0068958E+03   1.0068939E+03   1.0068881E+03   1.0068788E+03   1.0068660E+03   1.0068482E+03   1.0068211E+03   1.0067770E+03   1.0066840E+03   1.0066821E+03   1.0066765E+03   1.0066675E+03   1.0066552E+03   1.0066380E+03   1.0066119E+03   1.0065691E+03   1.0063759E+03   1.0063740E+03   1.0063687E+03   1.0063602E+03   1.0063484E+03   1.0063320E+03   1.0063070E+03   1.0062662E+03   1.0059899E+03   1.0059882E+03   1.0059833E+03   1.0059753E+03   1.0059641E+03   1.0059488E+03   1.0059252E+03   1.0058868E+03   1.0055459E+03   1.0055443E+03   1.0055397E+03   1.0055324E+03   1.0055221E+03   1.0055080E+03   1.0054861E+03   1.0054504E+03   1.0050633E+03   1.0050618E+03   1.0050577E+03   1.0050511E+03   1.0050419E+03   1.0050291E+03   1.0050092E+03   1.0049766E+03   1.0045616E+03   1.0045605E+03   1.0045568E+03   1.0045509E+03   1.0045428E+03   1.0045314E+03   1.0045136E+03   1.0044843E+03   1.0040602E+03   1.0040591E+03   1.0040559E+03   1.0040508E+03   1.0040437E+03   1.0040336E+03   1.0040179E+03   1.0039915E+03   1.0035757E+03   1.0035748E+03   1.0035721E+03   1.0035677E+03   1.0035614E+03   1.0035525E+03   1.0035385E+03   1.0035146E+03   1.0031228E+03   1.0031219E+03   1.0031196E+03   1.0031157E+03   1.0031102E+03   1.0031022E+03   1.0030894E+03   1.0030674E+03   1.0027111E+03   1.0027104E+03   1.0027084E+03   1.0027050E+03   1.0027000E+03   1.0026924E+03   1.0026802E+03   1.0026594E+03   1.0023475E+03   1.0023468E+03   1.0023450E+03   1.0023418E+03   1.0023370E+03   1.0023297E+03   1.0023173E+03   1.0022969E+03   1.0020336E+03   1.0020330E+03   1.0020313E+03   1.0020281E+03   1.0020233E+03   1.0020153E+03   1.0020023E+03   1.0019818E+03   1.0017686E+03   1.0017680E+03   1.0017663E+03   1.0017629E+03   1.0017573E+03   1.0017482E+03   1.0017339E+03   1.0017129E+03   1.0015490E+03   1.0015483E+03   1.0015462E+03   1.0015421E+03   1.0015354E+03   1.0015247E+03   1.0015090E+03   1.0014882E+03   1.0013689E+03   1.0013680E+03   1.0013652E+03   1.0013600E+03   1.0013517E+03   1.0013395E+03   1.0013232E+03   1.0013037E+03   1.0012213E+03   1.0012202E+03   1.0012166E+03   1.0012103E+03   1.0012009E+03   1.0011885E+03   1.0011730E+03   1.0011562E+03   1.0010999E+03   1.0010985E+03   1.0010945E+03   1.0010879E+03   1.0010787E+03   1.0010674E+03   1.0010545E+03   1.0010413E+03   1.0010005E+03   1.0009992E+03   1.0009955E+03   1.0009897E+03   1.0009821E+03   1.0009733E+03   1.0009638E+03   1.0009532E+03   1.0009215E+03   1.0009205E+03   1.0009177E+03   1.0009135E+03   1.0009082E+03   1.0009019E+03   1.0008934E+03   1.0008807E+03   1.0008616E+03   1.0008608E+03   1.0008587E+03   1.0008553E+03   1.0008500E+03   1.0008419E+03   1.0008301E+03   1.0008150E+03   1.0008083E+03   1.0008074E+03   1.0008052E+03   1.0008010E+03   1.0007944E+03   1.0007853E+03   1.0007756E+03   1.0007678E+03   1.0007550E+03   1.0007549E+03   1.0007543E+03   1.0007532E+03   1.0007513E+03   1.0007495E+03   1.0007505E+03   1.0007382E+03   1.0007391E+03   1.0007416E+03   1.0007454E+03   1.0007487E+03   1.0000001E+03   1.0000001E+03   1.0000000E+03   1.0000000E+03   1.0000000E+03   1.0000000E+03   1.0000000E+03   1.0000001E+03   1.0000001E+03   1.0000001E+03   1.0000001E+03   1.0000001E+03   1.0000001E+03   1.0000000E+03   1.0000000E+03   1.0000001E+03   1.0000001E+03   1.0000001E+03   1.0000001E+03   1.0000001E+03   1.0000001E+03   1.0000001E+03   1.0000000E+03   1.0000001E+03   1.0000001E+03   1.0000001E+03   1.0000001E+03   1.0000001E+03   1.0000001E+03   1.0000001E+03   1.0000001E+03   1.0000002E+03   1.0000002E+03   1.0000002E+03   1.0000002E+03   1.0000001E+03   1.0000001E+03   1.0000001E+03   1.0000001E+03   1.0000003E+03   1.0000002E+03   1.0000002E+03   1.0000002E+03   1.0000002E+03   1.0000002E+03   1.0000002E+03   1.0000001E+03   1.0000004E+03   1.0000004E+03   1.0000004E+03   1.0000004E+03   1.0000003E+03   1.0000003E+03   1.0000002E+03   1.0000002E+03   1.0000005E+03   1.0000005E+03   1.0000004E+03   1.0000004E+03   1.0000004E+03   1.0000004E+03   1.0000004E+03   1.0000004E+03   1.0000008E+03   1.0000007E+03   1.0000007E+03   1.0000007E+03   1.0000007E+03   1.0000006E+03   1.0000006E+03   1.0000005E+03   1.0000010E+03   1.0000010E+03   1.0000010E+03   1.0000009E+03   1.0000009E+03   1.0000009E+03   1.0000009E+03   1.0000009E+03   1.0000015E+03   1.0000014E+03   1.0000013E+03   1.0000012E+03   1.0000012E+03   1.0000012E+03   1.0000012E+03   1.0000012E+03   1.0000020E+03   1.0000020E+03   1.0000018E+03   1.0000018E+03   1.0000018E+03   1.0000018E+03   1.0000018E+03   1.0000018E+03   1.0000026E+03   1.0000026E+03   1.0000024E+03   1.0000024E+03   1.0000024E+03   1.0000024E+03   1.0000024E+03   1.0000021E+03   1.0000036E+03   1.0000035E+03   1.0000034E+03   1.0000032E+03   1.0000031E+03   1.0000031E+03   1.0000031E+03   1.0000028E+03   1.0000048E+03   1.0000047E+03   1.0000045E+03   1.0000045E+03   1.0000042E+03   1.0000042E+03   1.0000040E+03   1.0000038E+03   1.0000062E+03   1.0000062E+03   1.0000060E+03   1.0000059E+03   1.0000057E+03   1.0000056E+03   1.0000054E+03   1.0000051E+03   1.0000084E+03   1.0000083E+03   1.0000081E+03   1.0000079E+03   1.0000076E+03   1.0000074E+03   1.0000073E+03   1.0000070E+03   1.0000112E+03   1.0000110E+03   1.0000107E+03   1.0000104E+03   1.0000102E+03   1.0000101E+03   1.0000099E+03   1.0000097E+03   1.0000145E+03   1.0000144E+03   1.0000141E+03   1.0000138E+03   1.0000136E+03   1.0000134E+03   1.0000131E+03   1.0000129E+03   1.0000190E+03   1.0000189E+03   1.0000185E+03   1.0000182E+03   1.0000179E+03   1.0000177E+03   1.0000175E+03   1.0000171E+03   1.0000247E+03   1.0000245E+03   1.0000242E+03   1.0000239E+03   1.0000236E+03   1.0000235E+03   1.0000233E+03   1.0000226E+03   1.0000318E+03   1.0000317E+03   1.0000313E+03   1.0000312E+03   1.0000310E+03   1.0000311E+03   1.0000308E+03   1.0000301E+03   1.0000406E+03   1.0000404E+03   1.0000402E+03   1.0000402E+03   1.0000403E+03   1.0000407E+03   1.0000407E+03   1.0000397E+03   1.0000516E+03   1.0000517E+03   1.0000514E+03   1.0000516E+03   1.0000522E+03   1.0000532E+03   1.0000538E+03   1.0000526E+03   1.0000649E+03   1.0000648E+03   1.0000649E+03   1.0000652E+03   1.0000663E+03   1.0000685E+03   1.0000706E+03   1.0000690E+03   1.0000801E+03   1.0000800E+03   1.0000800E+03   1.0000804E+03   1.0000820E+03   1.0000861E+03   1.0000901E+03   1.0000892E+03   1.0000997E+03   1.0000991E+03   1.0000986E+03   1.0000984E+03   1.0001003E+03   1.0001065E+03   1.0001146E+03   1.0001149E+03   1.0001269E+03   1.0001251E+03   1.0001229E+03   1.0001213E+03   1.0001227E+03   1.0001314E+03   1.0001452E+03   1.0001489E+03   1.0001785E+03   1.0001742E+03   1.0001686E+03   1.0001638E+03   1.0001634E+03   1.0001736E+03   1.0001944E+03   1.0002037E+03   1.0003004E+03   1.0002912E+03   1.0002797E+03   1.0002690E+03   1.0002651E+03   1.0002759E+03   1.0003012E+03   1.0003182E+03   1.0006074E+03   1.0005905E+03   1.0005699E+03   1.0005503E+03   1.0005403E+03   1.0005492E+03   1.0005718E+03   1.0005934E+03   1.0013234E+03   1.0012960E+03   1.0012628E+03   1.0012312E+03   1.0012108E+03   1.0012067E+03   1.0012113E+03   1.0012299E+03   1.0026525E+03   1.0026118E+03   1.0025637E+03   1.0025163E+03   1.0024781E+03   1.0024432E+03   1.0024023E+03   1.0024086E+03   1.0043223E+03   1.0042674E+03   1.0042026E+03   1.0041378E+03   1.0040768E+03   1.0039966E+03   1.0038927E+03   1.0038840E+03   1.0056299E+03   1.0055611E+03   1.0054806E+03   1.0053996E+03   1.0053179E+03   1.0052001E+03   1.0050463E+03   1.0050345E+03   1.0063122E+03   1.0062314E+03   1.0061379E+03   1.0060438E+03   1.0059489E+03   1.0058120E+03   1.0056395E+03   1.0056398E+03   1.0065869E+03   1.0064973E+03   1.0063937E+03   1.0062911E+03   1.0061902E+03   1.0060496E+03   1.0058796E+03   1.0058933E+03   1.0066884E+03   1.0065927E+03   1.0064828E+03   1.0063748E+03   1.0062719E+03   1.0061345E+03   1.0059727E+03   1.0059988E+03   1.0067339E+03   1.0066350E+03   1.0065215E+03   1.0064107E+03   1.0063073E+03   1.0061738E+03   1.0060202E+03   1.0060547E+03   1.0067649E+03   1.0066647E+03   1.0065498E+03   1.0064379E+03   1.0063347E+03   1.0062042E+03   1.0060555E+03   1.0060947E+03   1.0067885E+03   1.0066885E+03   1.0065739E+03   1.0064620E+03   1.0063595E+03   1.0062305E+03   1.0060834E+03   1.0061234E+03   1.0068022E+03   1.0067037E+03   1.0065903E+03   1.0064798E+03   1.0063779E+03   1.0062485E+03   1.0061000E+03   1.0061374E+03   1.0067073E+03   1.0066108E+03   1.0064998E+03   1.0063915E+03   1.0062914E+03   1.0061636E+03   1.0060161E+03   1.0060510E+03   1.0065016E+03   1.0064083E+03   1.0063008E+03   1.0061957E+03   1.0060986E+03   1.0059745E+03   1.0058309E+03   1.0058641E+03   1.0062017E+03   1.0061122E+03   1.0060090E+03   1.0059081E+03   1.0058149E+03   1.0056963E+03   1.0055593E+03   1.0055909E+03   1.0058256E+03   1.0057409E+03   1.0056429E+03   1.0055468E+03   1.0054582E+03   1.0053467E+03   1.0052184E+03   1.0052482E+03   1.0053936E+03   1.0053141E+03   1.0052220E+03   1.0051314E+03   1.0050480E+03   1.0049443E+03   1.0048263E+03   1.0048538E+03   1.0049241E+03   1.0048508E+03   1.0047650E+03   1.0046802E+03   1.0046025E+03   1.0045074E+03   1.0044000E+03   1.0044244E+03   1.0044366E+03   1.0043693E+03   1.0042903E+03   1.0042116E+03   1.0041396E+03   1.0040530E+03   1.0039557E+03   1.0039769E+03   1.0039484E+03   1.0038871E+03   1.0038147E+03   1.0037422E+03   1.0036759E+03   1.0035977E+03   1.0035104E+03   1.0035285E+03   1.0034755E+03   1.0034199E+03   1.0033537E+03   1.0032875E+03   1.0032268E+03   1.0031564E+03   1.0030798E+03   1.0030959E+03   1.0030318E+03   1.0029811E+03   1.0029213E+03   1.0028613E+03   1.0028062E+03   1.0027432E+03   1.0026776E+03   1.0026937E+03   1.0026263E+03   1.0025803E+03   1.0025268E+03   1.0024736E+03   1.0024241E+03   1.0023679E+03   1.0023138E+03   1.0023304E+03   1.0022658E+03   1.0022242E+03   1.0021776E+03   1.0021315E+03   1.0020877E+03   1.0020367E+03   1.0019937E+03   1.0020095E+03   1.0019523E+03   1.0019156E+03   1.0018760E+03   1.0018377E+03   1.0017986E+03   1.0017514E+03   1.0017184E+03   1.0017315E+03   1.0016855E+03   1.0016540E+03   1.0016220E+03   1.0015906E+03   1.0015549E+03   1.0015123E+03   1.0014899E+03   1.0014635E+03   1.0014376E+03   1.0014126E+03   1.0013862E+03   1.0013519E+03   1.0013172E+03   1.0013076E+03   1.0012827E+03   1.0012625E+03   1.0012426E+03   1.0012178E+03   1.0011854E+03   1.0011621E+03   1.0011395E+03   1.0011237E+03   1.0011051E+03   1.0010788E+03   1.0010511E+03   1.0010398E+03   1.0010282E+03   1.0010130E+03   1.0009917E+03   1.0009647E+03   1.0009448E+03   1.0009398E+03   1.0009208E+03   1.0008969E+03   1.0008740E+03   1.0008630E+03   1.0008417E+03   1.0008217E+03   1.0008064E+03   1.0007993E+03   1.0007855E+03   1.0007631E+03 
Mass 1 2975 float
  4.0000001E-01   4.0000001E-01   4.0000001E-01   4.0000001E-01   4.0000001E-01   4.0000001E-01   4.0000001E-01   4.0000001E-01   4.0000001E-01   4.0000001E-01   4.0000001E-01   4.0000001E-01   4.0000001E-01   4.0000001E-01   4.0000001E-01   4.0000001E-01   4.0000001E-01   4.0000001E-01   4.0000001E-01   4.0000001E-01   4.0000001E-01   4.0000001E-01   4.0000001E-01   4.0000001E-01   4.0000001E-01   4.0000001E-01   4.0000001E-01   4.0000001E-01   4.0000001E-01   4.0000001E-01   4.0000001E-01   4.0000001E-01   4.0000001E-01   4.0000001E-01   4.0000001E-01   4.0000001E-01   4.0000001E-01   4.0000001E-01   4.0000001E-01   4.0000001E-01   4.0000001E-01   4.0000001E-01   4.0000001E-01   4.0000001E-01   4.0000001E-01   4.0000001E-01   4.0000001E-01   4.0000001E-01   4.0000001E-01   4.0000001E-01   4.0000001E-01   4.0000001E-01   4.0000001E-01   4.0000001E-01   4.0000001E-01   4.0000001E-01   4.0000001E-01   4.0000001E-01   4.0000001E-01   4.0000001E-01   4.0000001E-01   4.0000001E-01   4.0000001E-01   4.0000001E-01   4.0000001E-01   4.0000001E-01   4.0000001E-01   4.0000001E-01   4.0000001E-01   4.0000001E-01   4.0000001E-01   4.0000001E-01   4.0000001E-01   4.0000001E-01   4.0000001E-01   4.0000001E-01   4.0000001E-01   4.0000001E-01   4.0000001E-01   4.0000001E-01   4.0000001E-01   4.0000001E-01   4.0000001E-01   4.0000001E-01   4.0000001E-01   4.0000001E-01   4.0000001E-01   4.0000001E-01   4.0000001E-01   4.0000001E-01   4.0000001E-01   4.0000001E-01   4.0000001E-01   4.0000001E-01   4.0000001E-01   4.0000001E-01   4.0000001E-01   4.0000001E-01   4.0000001E-01   4.0000001E-01   4.0000001E-01   4.0000001E-01   4.0000001E-01   4.0000001E-01   4.0000001E-01   4.0000001E-01   4.0000001E-01   4.0000001E-01   4.0000001E-01   4.0000001E-01   4.0000001E-01   4.0000001E-01   4.0000001E-01   4.0000001E-01   4.0000001E-01   4.0000001E-01   4.0000001E-01   4.0000001E-01   4.0000001E-01   4.0000001E-01   4.0000001E-01   4.0000001E-01   4.0000001E-01   4.0000001E-01   4.0000001E-01   4.0000001E-01   4.0000001E-01   4.0000001E-01   4.0000001E-01   4.0000001E-01   4.0000001E-01   4.0000001E-01   4.0000001E-01   4.0000001E-01   4.0000001E-01   4.0000001E-01   4.0000001E-01   4.0000001E-01   4.0000001E-01   4.0000001E-01   4.0000001E-01   4.0000001E-01   4.0000001E-01   4.0000001E-01   4.0000001E-01   4.0000001E-01   4.0000001E-01   4.0000001E-01   4.0000001E-01   4.0000001E-01   4.0000001E-01   4.0000001E-01   4.0000001E-01   4.0000001E-01   4.0000001E-01   4.0000001E-01   4.0000001E-01   4.0000001E-01   4.0000001E-01   4.0000001E-01   4.0000001E-01   4.0000001E-01   4.0000001E-01   4.0000001E-01   4.0000001E-01   4.0000001E-01   4.0000001E-01   4.0000001E-01   4.0000001E-01   4.0000001E-01   4.0000001E-01   4.0000001E-01   4.0000001E-01   4.0000001E-01   4.0000001E-01   4.0000001E-01   4.0000001E-01   4.0000001E-01   4.0000001E-01   4.0000001E-01   4.0000001E-01   4.0000001E-01   4.0000001E-01   4.0000001E-01   4.0000001E-01   4.0000001E-01   4.0000001E-01   4.0000001E-01   4.0000001E-01   4.0000001E-01   4.0000001E-01   4.0000001E-01   4.0000001E-01   4.0000001E-01   4.0000001E-01   4.0000001E-01   4.0000001E-01   4.0000001E-01   4.0000001E-01   4.0000001E-01   4.0000001E-01   4.0000001E-01   4.0000001E-01   4.0000001E-01   4.0000001E-01   4.0000001E-01   4.0000001E-01   4.0000001E-01   4.0000001E-01   4.0000001E-01   4.0000001E-01   4.0000001E-01   4.0000001E-01   4.0000001E-01   4.0000001E-01   4.0000001E-01   4.0000001E-01   4.0000001E-01   4.0000001E-01   4.0000001E-01   4.0000001E-01   4.0000001E-01   4.0000001E-01   4.0000001E-01   4.0000001E-01   4.0000001E-01   4.0000001E-01   4.0000001E-01   4.0000001E-01   4.0000001E-01   4.0000001E-01   4.0000001E-01   4.0000001E-01   4.0000001E-01   4.0000001E-01   4.0000001E-01   4.0000001E-01   4.0000001E-01   4.0000001E-01   4.0000001E-01   4.0000001E-01   4.0000001E-01   4.0000001E-01   4.0000001E-01   4.0000001E-01   4.0000001E-01   4.0000001E-01   4.0000001E-01   4.0000001E-01   4.0000001E-01   4.0000001E-01   4.0000001E-01   4.0000001E-01   4.0000001E-01   4.0000001E-01   4.0000001E-01   4.0000001E-01   4.0000001E-01   4.0000001E-01   4.0000001E-01   4.0000001E-01   4.0000001E-01   4.0000001E-01   4.0000001E-01   4.0000001E-01   4.0000001E-01   4.0000001E-01   4.0000001E-01   4.0000001E-01   4.0000001E-01   4.0000001E-01   4.0000001E-01   4.0000001E-01   4.0000001E-01   4.0000001E-01   4.0000001E-01   4.0000001E-01   4.0000001E-01   4.0000001E-01   4.0000001E-01   4.0000001E-01   4.0000001E-01   4.0000001E-01   4.0000001E-01   4.0000001E-01   4.0000001E-01   4.0000001E-01   4.0000001E-01   4.0000001E-01   4.0000001E-01   4.0000001E-01   4.0000001E-01   4.0000001E-01   4.0000001E-01   4.0000001E-01   4.0000001E-01   4.0000001E-01   4.0000001E-01   4.0000001E-01   4.0000001E-01   4.0000001E-01   4.0000001E-01   4.0000001E-01   4.0000001E-01   4.0000001E-01   4.0000001E-01   4.0000001E-01   4.0000001E-01   4.0000001E-01   4.0000001E-01   4.0000001E-01   4.0000001E-01   4.0000001E-01   4.0000001E-01   4.0000001E-01   4.0000001E-01   4.0000001E-01   4.0000001E-01   4.0000001E-01   4.0000001E-01   4.0000001E-01   4.0000001E-01   4.0000001E-01   4.0000001E-01   4.0000001E-01   4.0000001E-01   4.0000001E-01   4.0000001E-01   4.0000001E-01   4.0000001E-01   4.0000001E-01   4.0000001E-01   4.0000001E-01   4.0000001E-01   4.0000001E-01   4.0000001E-01   4.0000001E-01   4.0000001E-01   4.0000001E-01   4.0000001E-01   4.0000001E-01   4.0000001E-01   4.0000001E-01   4.0000001E-01   4.0000001E-01   4.0000001E-01   4.0000001E-01   4.0000001E-01   4.0000001E-01   4.0000001E-01   4.0000001E-01   4.0000001E-01   4.0000001E-01   4.0000001E-01   4.0000001E-01   4.0000001E-01   4.0000001E-01   4.0000001E-01   4.0000001E-01   4.0000001E-01   4.0000001E-01   4.0000001E-01   4.0000001E-01   4.0000001E-01   4.0000001E-01   4.0000001E-01   4.0000001E-01   4.0000001E-01   4.0000001E-01   4.0000001E-01   4.0000001E-01   4.0000001E-01   4.0000001E-01   4.0000001E-01   4.0000001E-01   4.0000001E-01   4.0000001E-01   4.0000001E-01   4.0000001E-01   4.0000001E-01   4.0000001E-01   4.0000001E-01   4.0000001E-01   4.0000001E-01   4.0000001E-01   4.0000001E-01   4.0000001E-01   4.0000001E-01   4.0000001E-01   4.0000001E-01   4.0000001E-01   4.0000001E-01   4.0000001E-01   4.0000001E-01   4.0000001E-01   4.0000001E-01   4.0000001E-01   4.0000001E-01   4.0000001E-01   4.0000001E-01   4.0000001E-01   4.0000001E-01   4.0000001E-01   4.0000001E-01   4.0000001E-01   4.0000001E-01   4.0000001E-01   4.0000001E-01   4.0000001E-01   4.0000001E-01   4.0000001E-01   4.0000001E-01   4.0000001E-01   4.0000001E-01   4.0000001E-01   4.0000001E-01   4.0000001E-01   4.0000001E-01   4.0000001E-01   4.0000001E-01   4.0000001E-01   4.0000001E-01   4.0000001E-01   4.0000001E-01   4.0000001E-01   4.0000001E-01   4.0000001E-01   4.0000001E-01   4.0000001E-01   4.0000001E-01   4.0000001E-01   4.0000001E-01   4.0000001E-01   4.0000001E-01   4.0000001E-01   4.0000001E-01   4.0000001E-01   4.0000001E-01   4.0000001E-01   4.0000001E-01   4.0000001E-01   4.0000001E-01   4.0000001E-01   4.0000001E-01   4.0000001E-01   4.0000001E-01   4.0000001E-01   4.0000001E-01   4.0000001E-01   4.0000001E-01   4.0000001E-01   4.0000001E-01   4.0000001E-01   4.0000001E-01   4.0000001E-01   4.0000001E-01   4.0000001E-01   4.0000001E-01   4.0000001E-01   4.0000001E-01   4.0000001E-01   4.0000001E-01   4.0000001E-01   4.0000001E-01   4.0000001E-01   4.0000001E-01   4.0000001E-01   4.0000001E-01   4.0000001E-01   4.0000001E-01   4.0000001E-01   4.0000001E-01   4.0000001E-01   4.0000001E-01   4.0000001E-01   4.0000001E-01   4.0000001E-01   4.0000001E-01   4.0000001E-01   4.0000001E-01   4.0000001E-01   4.0000001E-01   4.0000001E-01   4.0000001E-01   4.0000001E-01   4.0000001E-01   4.0000001E-01   4.0000001E-01   4.0000001E-01   4.0000001E-01   4.0000001E-01   4.0000001E-01   4.0000001E-01   4.0000001E-01   4.0000001E-01   4.0000001E-01   4.0000001E-01   4.0000001E-01   4.0000001E-01   4.0000001E-01   4.0000001E-01   4.0000001E-01   4.0000001E-01   4.0000001E-01   4.0000001E-01   4.0000001E-01   4.0000001E-01   4.0000001E-01   4.0000001E-01   4.0000001E-01   4.0000001E-01   4.0000001E-01   4.0000001E-01   4.0000001E-01   4.0000001E-01   4.0000001E-01   4.0000001E-01   4.0000001E-01   4.0000001E-01   4.0000001E-01   4.0000001E-01   4.0000001E-01   4.0000001E-01   4.0000001E-01   4.0000001E-01   4.0000001E-01   4.0000001E-01   4.0000001E-01   4.0000001E-01   4.0000001E-01   4.0000001E-01   4.0000001E-01   4.0000001E-01   4.0000001E-01   4.0000001E-01   4.0000001E-01   4.0000001E-01   4.0000001E-01   4.0000001E-01   4.0000001E-01   4.0000001E-01   4.0000001E-01   4.0000001E-01   4.0000001E-01   4.0000001E-01   4.0000001E-01   4.0000001E-01   4.0000001E-01   4.0000001E-01   4.0000001E-01   4.0000001E-01   4.0000001E-01   4.0000001E-01   4.0000001E-01   4.0000001E-01   4.0000001E-01   4.0000001E-01   4.0000001E-01   4.0000001E-01   4.0000001E-01   4.0000001E-01   4.0000001E-01   4.0000001E-01   4.0000001E-01   4.0000001E-01   4.0000001E-01   4.0000001E-01   4.0000001E-01   4.0000001E-01   4.0000001E-01   4.0000001E-01   4.0000001E-01   4.0000001E-01   4.0000001E-01   4.0000001E-01   4.0000001E-01   4.0000001E-01   4.0000001E-01   4.0000001E-01   4.0000001E-01   4.0000001E-01   4.0000001E-01   4.0000001E-01   4.0000001E-01   4.0000001E-01   4.0000001E-01   4.0000001E-01   4.0000001E-01   4.0000001E-01   4.0000001E-01   4.0000001E-01   4.0000001E-01   4.0000001E-01   4.0000001E-01   4.0000001E-01   4.0000001E-01   4.0000001E-01   4.0000001E-01   4.0000001E-01   4.0000001E-01   4.0000001E-01   4.0000001E-01   4.0000001E-01   4.0000001E-01   4.0000001E-01   4.0000001E-01   4.0000001E-01   4.0000001E-01   4.0000001E-01   4.0000001E-01   4.0000001E-01   4.0000001E-01   4.0000001E-01   4.0000001E-01   4.0000001E-01   4.0000001E-01   4.0000001E-01   4.0000001E-01   4.0000001E-01   4.0000001E-01   4.0000001E-01   4.0000001E-01   4.0000001E-01   4.0000001E-01   4.0000001E-01   4.0000001E-01   4.0000001E-01   4.0000001E-01   4.0000001E-01   4.0000001E-01   4.0000001E-01   4.0000001E-01   4.0000001E-01   4.0000001E-01   4.0000001E-01   4.0000001E-01   4.0000001E-01   4.0000001E-01   4.0000001E-01   4.0000001E-01   4.0000001E-01   4.0000001E-01   4.0000001E-01   4.0000001E-01   4.0000001E-01   4.0000001E-01   4.0000001E-01   4.0000001E-01   4.0000001E-01   4.0000001E-01   4.0000001E-01   4.0000001E-01   4.0000001E-01   4.0000001E-01   4.0000001E-01   4.0000001E-01   4.0000001E-01   4.0000001E-01   4.0000001E-01   4.0000001E-01   4.0000001E-01   4.0000001E-01   4.0000001E-01   4.0000001E-01   4.0000001E-01   4.0000001E-01   4.0000001E-01   4.0000001E-01   4.0000001E-01   4.0000001E-01   4.0000001E-01   4.0000001E-01   4.0000001E-01   4.0000001E-01   4.0000001E-01   4.0000001E-01   4.0000001E-01   4.0000001E-01   4.0000001E-01   4.0000001E-01   4.0000001E-01   4.0000001E-01   4.0000001E-01   4.0000001E-01   4.0000001E-01   4.0000001E-01   4.0000001E-01   4.0000001E-01   4.0000001E-01   4.0000001E-01   4.0000001E-01   4.0000001E-01   4.0000001E-01   4.0000001E-01   4.0000001E-01   4.0000001E-01   4.0000001E-01   4.0000001E-01   4.0000001E-01   4.0000001E-01   4.0000001E-01   4.0000001E-01   4.0000001E-01   4.0000001E-01   4.0000001E-01   4.0000001E-01   4.0000001E-01   4.0000001E-01   4.0000001E-01   4.0000001E-01   4.0000001E-01   4.0000001E-01   4.0000001E-01   4.0000001E-01   4.0000001E-01   4.0000001E-01   4.0000001E-01   4.0000001E-01   4.0000001E-01   4.0000001E-01   4.0000001E-01   4.0000001E-01   4.0000001E-01   4.0000001E-01   4.0000001E-01   4.0000001E-01   4.0000001E-01   4.0000001E-01   4.0000001E-01   4.0000001E-01   4.0000001E-01   4.0000001E-01   4.0000001E-01   4.0000001E-01   4.0000001E-01   4.0000001E-01   4.0000001E-01   4.0000001E-01   4.0000001E-01   4.0000001E-01   4.0000001E-01   4.0000001E-01   4.0000001E-01   4.0000001E-01   4.0000001E-01   4.0000001E-01   4.0000001E-01   4.0000001E-01   4.0000001E-01   4.0000001E-01   4.0000001E-01   4.0000001E-01   4.0000001E-01   4.0000001E-01   4.0000001E-01   4.0000001E-01   4.0000001E-01   4.0000001E-01   4.0000001E-01   4.0000001E-01   4.0000001E-01   4.0000001E-01   4.0000001E-01   4.0000001E-01   4.0000001E-01   4.0000001E-01   4.0000001E-01   4.0000001E-01   4.0000001E-01   4.0000001E-01   4.0000001E-01   4.0000001E-01   4.0000001E-01   4.0000001E-01   4.0000001E-01   4.0000001E-01   4.0000001E-01   4.0000001E-01   4.0000001E-01   4.0000001E-01   4.0000001E-01   4.0000001E-01   4.0000001E-01   4.0000001E-01   4.0000001E-01   4.0000001E-01   4.0000001E-01   4.0000001E-01   4.0000001E-01   4.0000001E-01   4.0000001E-01   4.0000001E-01   4.0000001E-01   4.0000001E-01   4.0000001E-01   4.0000001E-01   4.0000001E-01   4.0000001E-01   4.0000001E-01   4.0000001E-01   4.0000001E-01   4.0000001E-01   4.0000001E-01   4.0000001E-01   4.0000001E-01   4.0000001E-01   4.0000001E-01   4.0000001E-01   4.0000001E-01   4.0000001E-01   4.0000001E-01   4.0000001E-01   4.0000001E-01   4.0000001E-01   4.0000001E-01   4.0000001E-01   4.0000001E-01   4.0000001E-01   4.0000001E-01   4.0000001E-01   4.0000001E-01   4.0000001E-01   4.0000001E-01   4.0000001E-01   4.0000001E-01   4.0000001E-01   4.0000001E-01   4.0000001E-01   4.0000001E-01   4.0000001E-01   4.0000001E-01   4.0000001E-01   4.0000001E-01   4.0000001E-01   4.0000001E-01   4.0000001E-01   4.0000001E-01   4.0000001E-01   4.0000001E-01   4.0000001E-01   4.0000001E-01   4.0000001E-01   4.0000001E-01   4.0000001E-01   4.0000001E-01   4.0000001E-01   4.0000001E-01   4.0000001E-01   4.0000001E-01   4.0000001E-01   4.0000001E-01   4.0000001E-01   4.0000001E-01   4.0000001E-01   4.0000001E-01   4.0000001E-01   4.0000001E-01   4.0000001E-01   4.0000001E-01   4.0000001E-01   4.0000001E-01   4.0000001E-01   4.0000001E-01   4.0000001E-01   4.0000001E-01   4.0000001E-01   4.0000001E-01   4.0000001E-01   4.0000001E-01   4.0000001E-01   4.0000001E-01   4.0000001E-01   4.0000001E-01   4.0000001E-01   4.0000001E-01   4.0000001E-01   4.0000001E-01   4.0000001E-01   4.0000001E-01   4.0000001E-01   4.0000001E-01   4.0000001E-01   4.0000001E-01   4.0000001E-01   4.0000001E-01   4.0000001E-01   4.0000001E-01   4.0000001E-01   4.0000001E-01   4.0000001E-01   4.0000001E-01   4.0000001E-01   4.0000001E-01   4.0000001E-01   4.0000001E-01   4.0000001E-01   4.0000001E-01   4.0000001E-01   4.0000001E-01   4.0000001E-01   4.0000001E-01   4.0000001E-01   4.0000001E-01   4.0000001E-01   4.0000001E-01   4.0000001E-01   4.0000001E-01   4.0000001E-01   4.0000001E-01   4.0000001E-01   4.0000001E-01   4.0000001E-01   4.0000001E-01   4.0000001E-01   4.0000001E-01   4.0000001E-01   4.0000001E-01   4.0000001E-01   4.0000001E-01   4.0000001E-01   4.0000001E-01   4.0000001E-01   4.0000001E-01   4.0000001E-01   4.0000001E-01   4.0000001E-01   4.0000001E-01   4.0000001E-01   4.0000001E-01   4.0000001E-01   4.0000001E-01   4.0000001E-01   4.0000001E-01   4.0000001E-01   4.0000001E-01   4.0000001E-01   4.0000001E-01   4.0000001E-01   4.0000001E-01   4.0000001E-01   4.0000001E-01   4.0000001E-01   4.0000001E-01   4.0000001E-01   4.0000001E-01   4.0000001E-01   4.0000001E-01   4.0000001E-01   4.0000001E-01   4.0000001E-01   4.0000001E-01   4.0000001E-01   4.0000001E-01   4.0000001E-01   4.0000001E-01   4.0000001E-01   4.0000001E-01   4.0000001E-01   4.0000001E-01   4.0000001E-01   4.0000001E-01   4.0000001E-01   4.0000001E-01   4.0000001E-01   4.0000001E-01   4.0000001E-01   4.0000001E-01   4.0000001E-01   4.0000001E-01   4.0000001E-01   4.0000001E-01   4.0000001E-01   4.0000001E-01   4.0000001E-01   4.0000001E-01   4.0000001E-01   4.0000001E-01   4.0000001E-01   4.0000001E-01   4.0000001E-01   4.0000001E-01   4.0000001E-01   4.0000001E-01   4.0000001E-01   4.0000001E-01   4.0000001E-01   4.0000001E-01   4.0000001E-01   4.0000001E-01   4.0000001E-01   4.0000001E-01   4.0000001E-01   4.0000001E-01   4.0000001E-01   4.0000001E-01   4.0000001E-01   4.0000001E-01   4.0000001E-01   4.0000001E-01   4.0000001E-01   4.0000001E-01   4.0000001E-01   4.0000001E-01   4.0000001E-01   4.0000001E-01   4.0000001E-01   4.0000001E-01   4.0000001E-01   4.0000001E-01   4.0000001E-01   4.0000001E-01   4.0000001E-01   4.0000001E-01   4.0000001E-01   4.0000001E-01   4.0000001E-01   4.0000001E-01   4.0000001E-01   4.0000001E-01   4.0000001E-01   4.0000001E-01   4.0000001E-01   4.0000001E-01   4.0000001E-01   4.0000001E-01   4.0000001E-01   4.0000001E-01   4.0000001E-01   4.0000001E-01   4.0000001E-01   4.0000001E-01   4.0000001E-01   4.0000001E-01   4.0000001E-01   4.0000001E-01   4.0000001E-01   4.0000001E-01   4.0000001E-01   4.0000001E-01   4.0000001E-01   4.0000001E-01   4.0000001E-01   4.0000001E-01   4.0000001E-01   4.0000001E-01   4.0000001E-01   4.0000001E-01   4.0000001E-01   4.0000001E-01   4.0000001E-01   4.0000001E-01   4.0000001E-01   4.0000001E-01   4.0000001E-01   4.0000001E-01   4.0000001E-01   4.0000001E-01   4.0000001E-01   4.0000001E-01   4.0000001E-01   4.0000001E-01   4.0000001E-01   4.0000001E-01   4.0000001E-01   4.0000001E-01   4.0000001E-01   4.0000001E-01   4.0000001E-01   4.0000001E-01   4.0000001E-01   4.0000001E-01   4.0000001E-01   4.0000001E-01   4.0000001E-01   4.0000001E-01   4.0000001E-01   4.0000001E-01   4.0000001E-01   4.0000001E-01   4.0000001E-01   4.0000001E-01   4.0000001E-01   4.0000001E-01   4.0000001E-01   4.0000001E-01   4.0000001E-01   4.0000001E-01   4.0000001E-01   4.0000001E-01   4.0000001E-01   4.0000001E-01   4.0000001E-01   4.0000001E-01   4.0000001E-01   4.0000001E-01   4.0000001E-01   4.0000001E-01   4.0000001E-01   4.0000001E-01   4.0000001E-01   4.0000001E-01   4.0000001E-01   4.0000001E-01   4.0000001E-01   4.0000001E-01   4.0000001E-01   4.0000001E-01   4.0000001E-01   4.0000001E-01   4.0000001E-01   4.0000001E-01   4.0000001E-01   4.0000001E-01   4.0000001E-01   4.0000001E-01   4.0000001E-01   4.0000001E-01   4.0000001E-01   4.0000001E-01   4.0000001E-01   4.0000001E-01   4.0000001E-01   4.0000001E-01   4.0000001E-01   4.0000001E-01   4.0000001E-01   4.0000001E-01   4.0000001E-01   4.0000001E-01   4.0000001E-01   4.0000001E-01   4.0000001E-01   4.0000001E-01   4.0000001E-01   4.0000001E-01   4.0000001E-01   4.0000001E-01   4.0000001E-01   4.0000001E-01   4.0000001E-01   4.0000001E-01   4.0000001E-01   4.0000001E-01   4.0000001E-01   4.0000001E-01   4.0000001E-01   4.0000001E-01   4.0000001E-01   4.0000001E-01   4.0000001E-01   4.0000001E-01   4.0000001E-01   4.0000001E-01   4.0000001E-01   4.0000001E-01   4.0000001E-01   4.0000001E-01   4.0000001E-01   4.0000001E-01   4.0000001E-01   4.0000001E-01   4.0000001E-01   4.0000001E-01   4.0000001E-01   4.0000001E-01   4.0000001E-01   4.0000001E-01   4.0000001E-01   4.0000021E-01   4.0000024E-01   4.0000024E-01   4.0000021E-01   4.0000024E-01   4.0000024E-01   4.0000072E-01   4.0000069E-01   4.0000075E-01   4.0000069E-01   4.0000072E-01   4.0000060E-01   4.0000159E-01   4.0000162E-01   4.0000159E-01   4.0000159E-01   4.0000162E-01   4.0000159E-01   4.0000436E-01   4.0000445E-01   4.0000439E-01   4.0000442E-01   4.0000442E-01   4.0000448E-01   4.0001169E-01   4.0001166E-01   4.0001166E-01   4.0001175E-01   4.0001175E-01   4.0001169E-01   4.0003145E-01   4.0003145E-01   4.0003142E-01   4.0003145E-01   4.0003151E-01   4.0003142E-01   4.0008396E-01   4.0008393E-01   4.0008396E-01   4.0008396E-01   4.0008393E-01   4.0008396E-01   4.0021726E-01   4.0021724E-01   4.0021729E-01   4.0021726E-01   4.0021732E-01   4.0021726E-01   4.0052250E-01   4.0052244E-01   4.0052247E-01   4.0052253E-01   4.0052253E-01   4.0052250E-01   4.0108147E-01   4.0108144E-01   4.0108144E-01   4.0108144E-01   4.0108144E-01   4.0108132E-01   4.0178341E-01   4.0178341E-01   4.0178335E-01   4.0178332E-01   4.0178329E-01   4.0178323E-01   4.0234289E-01   4.0234292E-01   4.0234274E-01   4.0234262E-01   4.0234259E-01   4.0234253E-01   4.0264866E-01   4.0264854E-01   4.0264833E-01   4.0264833E-01   4.0264815E-01   4.0264806E-01   4.0278217E-01   4.0278217E-01   4.0278196E-01   4.0278175E-01   4.0278172E-01   4.0278164E-01   4.0283477E-01   4.0283471E-01   4.0283459E-01   4.0283442E-01   4.0283427E-01   4.0283418E-01   4.0285456E-01   4.0285456E-01   4.0285441E-01   4.0285423E-01   4.0285414E-01   4.0285408E-01   4.0286186E-01   4.0286192E-01   4.0286171E-01   4.0286154E-01   4.0286145E-01   4.0286136E-01   4.0286344E-01   4.0286344E-01   4.0286326E-01   4.0286312E-01   4.0286306E-01   4.0286294E-01   4.0286070E-01   4.0286070E-01   4.0286049E-01   4.0286040E-01   4.0286022E-01   4.0286016E-01   4.0281445E-01   4.0281442E-01   4.0281430E-01   4.0281409E-01   4.0281406E-01   4.0281394E-01   4.0272343E-01   4.0272346E-01   4.0272328E-01   4.0272319E-01   4.0272304E-01   4.0272295E-01   4.0259290E-01   4.0259293E-01   4.0259275E-01   4.0259263E-01   4.0259254E-01   4.0259242E-01   4.0242985E-01   4.0242985E-01   4.0242973E-01   4.0242958E-01   4.0242955E-01   4.0242946E-01   4.0224272E-01   4.0224269E-01   4.0224263E-01   4.0224254E-01   4.0224245E-01   4.0224236E-01   4.0204039E-01   4.0204045E-01   4.0204036E-01   4.0204021E-01   4.0204021E-01   4.0204015E-01   4.0183184E-01   4.0183178E-01   4.0183172E-01   4.0183166E-01   4.0183160E-01   4.0183166E-01   4.0162498E-01   4.0162492E-01   4.0162483E-01   4.0162477E-01   4.0162480E-01   4.0162477E-01   4.0142652E-01   4.0142661E-01   4.0142652E-01   4.0142646E-01   4.0142646E-01   4.0142637E-01   4.0124214E-01   4.0124217E-01   4.0124214E-01   4.0124214E-01   4.0124211E-01   4.0124205E-01   4.0107539E-01   4.0107539E-01   4.0107539E-01   4.0107542E-01   4.0107536E-01   4.0107536E-01   4.0092859E-01   4.0092859E-01   4.0092856E-01   4.0092856E-01   4.0092856E-01   4.0092856E-01   4.0080243E-01   4.0080252E-01   4.0080243E-01   4.0080249E-01   4.0080246E-01   4.0080249E-01   4.0069672E-01   4.0069669E-01   4.0069669E-01   4.0069675E-01   4.0069675E-01   4.0060994E-01   4.0060994E-01   4.0061000E-01   4.0060997E-01   4.0061000E-01   4.0054044E-01   4.0054038E-01   4.0054035E-01   4.0054038E-01   4.0048584E-01   4.0048587E-01   4.0048581E-01   4.0048590E-01   4.0044388E-01   4.0044388E-01   4.0044388E-01   4.0041232E-01   4.0041232E-01   4.0038905E-01   4.0038911E-01   4.0000001E-01   4.0000001E-01   4.0000001E-01   4.0000001E-01   4.0000001E-01   4.0000001E-01   4.0000001E-01   4.0000001E-01   4.0000001E-01   4.0000001E-01   4.0000001E-01   4.0000001E-01   4.0000001E-01   4.0000001E-01   4.0000001E-01   4.0000001E-01   4.0000001E-01   4.0000001E-01   4.0000001E-01   4.0000001E-01   4.0000001E-01   4.0000001E-01   4.0000001E-01   4.0000001E-01   4.0000001E-01   4.0000001E-01   4.0000001E-01   4.0000001E-01   4.0000001E-01   4.0000001E-01   4.0000001E-01   4.0000001E-01   4.0000001E-01   4.0000001E-01   4.0000001E-01   4.0000001E-01   4.0000001E-01   4.0000001E-01   4.0000001E-01   4.0000001E-01   4.0000001E-01   4.0000001E-01   4.0000001E-01   4.0000001E-01   4.0000001E-01   4.0000001E-01   4.0000001E-01   4.0000001E-01   4.0000001E-01   4.0000001E-01   4.0000001E-01   4.0000001E-01   4.0000001E-01   4.0000001E-01   4.0000001E-01   4.0000001E-01   4.0000001E-01   4.0000001E-01   4.0000001E-01   4.0000001E-01   4.0000001E-01   4.0000001E-01   4.0000001E-01   4.0000001E-01   4.0000001E-01   4.0000001E-01   4.0000001E-01   4.0000001E-01   4.0000001E-01   4.0000001E-01   4.0000001E-01   4.0000001E-01   4.0000001E-01   4.0000001E-01   4.0000001E-01   4.0000001E-01   4.0000001E-01   4.0000001E-01   4.0000001E-01   4.0000001E-01   4.0000001E-01   4.0000001E-01   4.0000001E-01   4.0000001E-01   4.0000001E-01   4.0000001E-01   4.0000001E-01   4.0000001E-01   4.0000001E-01   4.0000001E-01   4.0000001E-01   4.0000001E-01   4.0000001E-01   4.0000001E-01   4.0000001E-01   4.0000001E-01   4.0000001E-01   4.0000001E-01   4.0000001E-01   4.0000001E-01   4.0000001E-01   4.0000001E-01   4.0000001E-01   4.0000001E-01   4.0000001E-01   4.0000001E-01   4.0000001E-01   4.0000001E-01   4.0000001E-01   4.0000001E-01   4.0000001E-01   4.0000001E-01   4.0000001E-01   4.0000001E-01   4.0000001E-01   4.0000001E-01   4.0000001E-01   4.0000001E-01   4.0000001E-01   4.0000001E-01   4.0000001E-01   4.0000001E-01   4.0000001E-01   4.0000001E-01   4.0000001E-01   4.0000001E-01   4.0000001E-01   4.0000001E-01   4.0000001E-01   4.0000001E-01   4.0000001E-01   4.0000001E-01   4.0000001E-01   4.0000001E-01   4.0000001E-01   4.0000001E-01   4.0000001E-01   4.0000001E-01   4.0000001E-01   4.0000001E-01   4.0000001E-01   4.0000001E-01   4.0000001E-01   4.0000001E-01   4.0000001E-01   4.0000001E-01   4.0000001E-01   4.0000001E-01   4.0000001E-01   4.0000001E-01   4.0000001E-01   4.0000001E-01   4.0000001E-01   4.0000001E-01   4.0000001E-01   4.0000001E-01   4.0000001E-01   4.0000001E-01   4.0000001E-01   4.0000001E-01   4.0000001E-01   4.0000001E-01   4.0000001E-01   4.0000001E-01   4.0000001E-01   4.0000001E-01   4.0000001E-01   4.0000001E-01   4.0000001E-01   4.0000001E-01   4.0000001E-01   4.0000001E-01   4.0000001E-01   4.0000001E-01   4.0000001E-01   4.0000001E-01   4.0000001E-01   4.0000001E-01   4.0000001E-01   4.0000001E-01   4.0000001E-01   4.0000001E-01   4.0000001E-01   4.0000001E-01   4.0000001E-01   4.0000001E-01   4.0000001E-01   4.0000001E-01   4.0000001E-01   4.0000001E-01   4.0000001E-01   4.0000001E-01   4.0000001E-01   4.0000001E-01   4.0000001E-01   4.0000001E-01   4.0000001E-01   4.0000001E-01   4.0000001E-01   4.0000001E-01   4.0000001E-01   4.0000001E-01   4.0000001E-01   4.0000001E-01   4.0000001E-01   4.0000001E-01   4.0000001E-01   4.0000027E-01   4.0000024E-01   4.0000027E-01   4.0000027E-01   4.0000018E-01   4.0000021E-01   4.0000018E-01   4.0000024E-01   4.0000024E-01   4.0000075E-01   4.0000075E-01   4.0000075E-01   4.0000066E-01   4.0000072E-01   4.0000072E-01   4.0000072E-01   4.0000072E-01   4.0000072E-01   4.0000156E-01   4.0000162E-01   4.0000153E-01   4.0000156E-01   4.0000159E-01   4.0000153E-01   4.0000156E-01   4.0000159E-01   4.0000162E-01   4.0000442E-01   4.0000448E-01   4.0000442E-01   4.0000448E-01   4.0000445E-01   4.0000445E-01   4.0000451E-01   4.0000448E-01   4.0000445E-01   4.0001169E-01   4.0001169E-01   4.0001166E-01   4.0001166E-01   4.0001163E-01   4.0001166E-01   4.0001172E-01   4.0001169E-01   4.0001169E-01   4.0003142E-01   4.0003142E-01   4.0003142E-01   4.0003145E-01   4.0003148E-01   4.0003142E-01   4.0003151E-01   4.0003151E-01   4.0003148E-01   4.0008396E-01   4.0008393E-01   4.0008393E-01   4.0008396E-01   4.0008393E-01   4.0008390E-01   4.0008393E-01   4.0008396E-01   4.0008393E-01   4.0021721E-01   4.0021726E-01   4.0021726E-01   4.0021724E-01   4.0021724E-01   4.0021732E-01   4.0021735E-01   4.0021726E-01   4.0021726E-01   4.0052241E-01   4.0052244E-01   4.0052256E-01   4.0052244E-01   4.0052250E-01   4.0052247E-01   4.0052250E-01   4.0052247E-01   4.0052244E-01   4.0108132E-01   4.0108144E-01   4.0108135E-01   4.0108129E-01   4.0108135E-01   4.0108135E-01   4.0108129E-01   4.0108129E-01   4.0108132E-01   4.0178320E-01   4.0178320E-01   4.0178314E-01   4.0178314E-01   4.0178311E-01   4.0178311E-01   4.0178308E-01   4.0178311E-01   4.0178311E-01   4.0234241E-01   4.0234244E-01   4.0234238E-01   4.0234232E-01   4.0234232E-01   4.0234226E-01   4.0234229E-01   4.0234226E-01   4.0234229E-01   4.0264800E-01   4.0264791E-01   4.0264788E-01   4.0264791E-01   4.0264779E-01   4.0264788E-01   4.0264791E-01   4.0264788E-01   4.0264782E-01   4.0278149E-01   4.0278143E-01   4.0278137E-01   4.0278134E-01   4.0278128E-01   4.0278131E-01   4.0278125E-01   4.0278128E-01   4.0278128E-01   4.0283406E-01   4.0283397E-01   4.0283391E-01   4.0283391E-01   4.0283388E-01   4.0283379E-01   4.0283379E-01   4.0283385E-01   4.0283388E-01   4.0285388E-01   4.0285382E-01   4.0285373E-01   4.0285370E-01   4.0285367E-01   4.0285367E-01   4.0285367E-01   4.0285367E-01   4.0285367E-01   4.0286118E-01   4.0286115E-01   4.0286109E-01   4.0286106E-01   4.0286103E-01   4.0286097E-01   4.0286094E-01   4.0286097E-01   4.0286097E-01   4.0286276E-01   4.0286273E-01   4.0286267E-01   4.0286255E-01   4.0286252E-01   4.0286252E-01   4.0286261E-01   4.0286258E-01   4.0286246E-01   4.0285999E-01   4.0285993E-01   4.0285987E-01   4.0285981E-01   4.0285978E-01   4.0285978E-01   4.0285978E-01   4.0285978E-01   4.0285975E-01   4.0281385E-01   4.0281373E-01   4.0281361E-01   4.0281361E-01   4.0281355E-01   4.0281358E-01   4.0281355E-01   4.0281352E-01   4.0281352E-01   4.0272287E-01   4.0272272E-01   4.0272266E-01   4.0272269E-01   4.0272263E-01   4.0272266E-01   4.0272260E-01   4.0272260E-01   4.0272257E-01   4.0259236E-01   4.0259224E-01   4.0259224E-01   4.0259221E-01   4.0259212E-01   4.0259221E-01   4.0259221E-01   4.0259218E-01   4.0259215E-01   4.0242940E-01   4.0242928E-01   4.0242931E-01   4.0242928E-01   4.0242919E-01   4.0242922E-01   4.0242922E-01   4.0242922E-01   4.0242925E-01   4.0224227E-01   4.0224224E-01   4.0224221E-01   4.0224212E-01   4.0224212E-01   4.0224212E-01   4.0224215E-01   4.0224215E-01   4.0224209E-01   4.0204009E-01   4.0204003E-01   4.0204000E-01   4.0203997E-01   4.0203995E-01   4.0203997E-01   4.0203995E-01   4.0203992E-01   4.0204000E-01   4.0183157E-01   4.0183145E-01   4.0183148E-01   4.0183139E-01   4.0183145E-01   4.0183139E-01   4.0183139E-01   4.0183145E-01   4.0183139E-01   4.0162471E-01   4.0162468E-01   4.0162471E-01   4.0162468E-01   4.0162459E-01   4.0162462E-01   4.0162456E-01   4.0162459E-01   4.0162462E-01   4.0142637E-01   4.0142640E-01   4.0142629E-01   4.0142632E-01   4.0142637E-01   4.0142637E-01   4.0142635E-01   4.0142637E-01   4.0142640E-01   4.0124205E-01   4.0124202E-01   4.0124199E-01   4.0124199E-01   4.0124196E-01   4.0124202E-01   4.0124199E-01   4.0124199E-01   4.0124199E-01   4.0107539E-01   4.0107533E-01   4.0107524E-01   4.0107530E-01   4.0107527E-01   4.0107527E-01   4.0107530E-01   4.0107527E-01   4.0107527E-01   4.0092853E-01   4.0092853E-01   4.0092853E-01   4.0092850E-01   4.0092853E-01   4.0092856E-01   4.0092853E-01   4.0092853E-01   4.0092847E-01   4.0080246E-01   4.0080246E-01   4.0080249E-01   4.0080249E-01   4.0080240E-01   4.0080246E-01   4.0080243E-01   4.0080249E-01   4.0080246E-01   4.0069664E-01   4.0069669E-01   4.0069672E-01   4.0069664E-01   4.0069661E-01   4.0069667E-01   4.0069667E-01   4.0069672E-01   4.0069667E-01   4.0060997E-01   4.0061006E-01   4.0061003E-01   4.0060997E-01   4.0060997E-01   4.0061000E-01   4.0061003E-01   4.0060997E-01   4.0061000E-01   4.0054047E-01   4.0054041E-01   4.0054041E-01   4.0054047E-01   4.0054038E-01   4.0054038E-01   4.0054047E-01   4.0054044E-01   4.0054041E-01   4.0048584E-01   4.0048587E-01   4.0048590E-01   4.0048587E-01   4.0048578E-01   4.0048584E-01   4.0048578E-01   4.0048584E-01   4.0048584E-01   4.0044388E-01   4.0044385E-01   4.0044388E-01   4.0044388E-01   4.0044382E-01   4.0044388E-01   4.0044385E-01   4.0044385E-01   4.0044382E-01   4.0041238E-01   4.0041229E-01   4.0041235E-01   4.0041232E-01   4.0041235E-01   4.0041232E-01   4.0041238E-01   4.0041229E-01   4.0041235E-01   4.0038902E-01   4.0038911E-01   4.0038908E-01   4.0038908E-01   4.0038905E-01   4.0038905E-01   4.0038908E-01   4.0038908E-01   4.0038902E-01   4.0037221E-01   4.0037224E-01   4.0037227E-01   4.0037227E-01   4.0037221E-01   4.0037224E-01   4.0037218E-01   4.0037224E-01   4.0037227E-01   4.0036044E-01   4.0036038E-01   4.0036041E-01   4.0036041E-01   4.0036035E-01   4.0036038E-01   4.0036044E-01   4.0036035E-01   4.0035221E-01   4.0035218E-01   4.0035209E-01   4.0035209E-01   4.0035212E-01   4.0035212E-01   4.0034652E-01   4.0034652E-01   4.0034655E-01   4.0034652E-01   4.0000001E-01   4.0000001E-01   4.0000001E-01   4.0000001E-01   4.0000001E-01   4.0000001E-01   4.0000001E-01   4.0000001E-01   4.0000001E-01   4.0000001E-01   4.0000001E-01   4.0000001E-01   4.0000001E-01   4.0000001E-01   4.0000001E-01   4.0000001E-01   4.0000001E-01   4.0000001E-01   4.0000001E-01   4.0000001E-01   4.0000001E-01   4.0000001E-01   4.0000001E-01   4.0000001E-01   4.0000001E-01   4.0000001E-01   4.0000001E-01   4.0000001E-01   4.0000001E-01   4.0000001E-01   4.0000001E-01   4.0000001E-01   4.0000001E-01   4.0000001E-01   4.0000001E-01   4.0000001E-01   4.0000001E-01   4.0000001E-01   4.0000001E-01   4.0000001E-01   4.0000001E-01   4.0000001E-01   4.0000001E-01   4.0000001E-01   4.0000001E-01   4.0000001E-01   4.0000001E-01   4.0000001E-01   4.0000001E-01   4.0000001E-01   4.0000001E-01   4.0000001E-01   4.0000001E-01   4.0000001E-01   4.0000001E-01   4.0000001E-01   4.0000001E-01   4.0000001E-01   4.0000001E-01   4.0000001E-01   4.0000001E-01   4.0000001E-01   4.0000001E-01   4.0000001E-01   4.0000001E-01   4.0000001E-01   4.0000001E-01   4.0000001E-01   4.0000001E-01   4.0000001E-01   4.0000001E-01   4.0000001E-01   4.0000001E-01   4.0000001E-01   4.0000001E-01   4.0000001E-01   4.0000001E-01   4.0000001E-01   4.0000001E-01   4.0000001E-01   4.0000001E-01   4.0000001E-01   4.0000001E-01   4.0000001E-01   4.0000001E-01   4.0000001E-01   4.0000001E-01   4.0000001E-01   4.0000001E-01   4.0000001E-01   4.0000001E-01   4.0000001E-01   4.0000001E-01   4.0000001E-01   4.0000001E-01   4.0000001E-01   4.0000001E-01   4.0000001E-01   4.0000001E-01   4.0000001E-01   4.0000001E-01   4.0000001E-01   4.0000001E-01   4.0000001E-01   4.0000001E-01   4.0000001E-01   4.0000001E-01   4.0000001E-01   4.0000001E-01   4.0000001E-01   4.0000001E-01   4.0000001E-01   4.0000001E-01   4.0000001E-01   4.0000001E-01   4.0000001E-01   4.0000001E-01   4.0000001E-01   4.0000001E-01   4.0000001E-01   4.0000001E-01   4.0000001E-01   4.0000001E-01   4.0000001E-01   4.0000001E-01   4.0000001E-01   4.0000001E-01   4.0000001E-01   4.0000001E-01   4.0000001E-01   4.0000001E-01   4.0000001E-01   4.0000001E-01   4.0000001E-01   4.0000001E-01   4.0000001E-01   4.0000001E-01   4.0000001E-01   4.0000001E-01   4.0000001E-01   4.0000001E-01   4.0000001E-01   4.0000001E-01   4.0000001E-01   4.0000001E-01   4.0000001E-01   4.0000001E-01   4.0000001E-01   4.0000001E-01   4.0000001E-01   4.0000001E-01   4.0000001E-01   4.0000001E-01   4.0000001E-01   4.0000001E-01   4.0000001E-01   4.0000001E-01   4.0000001E-01   4.0000001E-01   4.0000001E-01   4.0000001E-01   4.0000001E-01   4.0000001E-01   4.0000001E-01   4.0000001E-01   4.0000001E-01   4.0000001E-01   4.0000001E-01   4.0000001E-01   4.0000001E-01   4.0000001E-01   4.0000001E-01   4.0000001E-01   4.0000001E-01   4.0000001E-01   4.0000001E-01   4.0000001E-01   4.0000001E-01   4.0000001E-01   4.0000001E-01   4.0000001E-01   4.0000001E-01   4.0000001E-01   4.0000001E-01   4.0000024E-01   4.0000024E-01   4.0000024E-01   4.0000018E-01   4.0000021E-01   4.0000018E-01   4.0000027E-01   4.0000027E-01   4.0000072E-01   4.0000072E-01   4.0000072E-01   4.0000072E-01   4.0000072E-01   4.0000072E-01   4.0000066E-01   4.0000075E-01   4.0000162E-01   4.0000162E-01   4.0000159E-01   4.0000156E-01   4.0000153E-01   4.0000159E-01   4.0000156E-01   4.0000153E-01   4.0000445E-01   4.0000445E-01   4.0000448E-01   4.0000451E-01   4.0000445E-01   4.0000445E-01   4.0000448E-01   4.0000442E-01   4.0001172E-01   4.0001169E-01   4.0001169E-01   4.0001172E-01   4.0001166E-01   4.0001163E-01   4.0001166E-01   4.0001166E-01   4.0003145E-01   4.0003148E-01   4.0003151E-01   4.0003151E-01   4.0003142E-01   4.0003148E-01   4.0003145E-01   4.0003142E-01   4.0008396E-01   4.0008393E-01   4.0008396E-01   4.0008393E-01   4.0008390E-01   4.0008393E-01   4.0008396E-01   4.0008393E-01   4.0021729E-01   4.0021726E-01   4.0021726E-01   4.0021735E-01   4.0021732E-01   4.0021724E-01   4.0021724E-01   4.0021726E-01   4.0052244E-01   4.0052244E-01   4.0052247E-01   4.0052250E-01   4.0052247E-01   4.0052250E-01   4.0052244E-01   4.0052256E-01   4.0108138E-01   4.0108132E-01   4.0108129E-01   4.0108129E-01   4.0108135E-01   4.0108135E-01   4.0108129E-01   4.0108135E-01   4.0178314E-01   4.0178311E-01   4.0178311E-01   4.0178308E-01   4.0178311E-01   4.0178311E-01   4.0178314E-01   4.0178314E-01   4.0234232E-01   4.0234229E-01   4.0234226E-01   4.0234229E-01   4.0234226E-01   4.0234232E-01   4.0234232E-01   4.0234238E-01   4.0264782E-01   4.0264782E-01   4.0264788E-01   4.0264791E-01   4.0264788E-01   4.0264779E-01   4.0264791E-01   4.0264788E-01   4.0278128E-01   4.0278128E-01   4.0278128E-01   4.0278125E-01   4.0278131E-01   4.0278128E-01   4.0278134E-01   4.0278137E-01   4.0283379E-01   4.0283388E-01   4.0283385E-01   4.0283379E-01   4.0283379E-01   4.0283388E-01   4.0283391E-01   4.0283391E-01   4.0285361E-01   4.0285367E-01   4.0285367E-01   4.0285367E-01   4.0285367E-01   4.0285367E-01   4.0285370E-01   4.0285373E-01   4.0286094E-01   4.0286097E-01   4.0286097E-01   4.0286094E-01   4.0286097E-01   4.0286103E-01   4.0286106E-01   4.0286109E-01   4.0286252E-01   4.0286246E-01   4.0286258E-01   4.0286261E-01   4.0286252E-01   4.0286252E-01   4.0286255E-01   4.0286267E-01   4.0285975E-01   4.0285975E-01   4.0285978E-01   4.0285978E-01   4.0285978E-01   4.0285978E-01   4.0285981E-01   4.0285987E-01   4.0281349E-01   4.0281352E-01   4.0281352E-01   4.0281355E-01   4.0281358E-01   4.0281355E-01   4.0281361E-01   4.0281361E-01   4.0272263E-01   4.0272257E-01   4.0272260E-01   4.0272260E-01   4.0272266E-01   4.0272263E-01   4.0272269E-01   4.0272266E-01   4.0259212E-01   4.0259215E-01   4.0259218E-01   4.0259221E-01   4.0259221E-01   4.0259212E-01   4.0259221E-01   4.0259224E-01   4.0242925E-01   4.0242925E-01   4.0242922E-01   4.0242922E-01   4.0242922E-01   4.0242919E-01   4.0242928E-01   4.0242931E-01   4.0224218E-01   4.0224209E-01   4.0224215E-01   4.0224215E-01   4.0224212E-01   4.0224212E-01   4.0224212E-01   4.0224221E-01   4.0203992E-01   4.0204000E-01   4.0203992E-01   4.0203995E-01   4.0203997E-01   4.0203995E-01   4.0203997E-01   4.0204000E-01   4.0183136E-01   4.0183139E-01   4.0183145E-01   4.0183139E-01   4.0183139E-01   4.0183145E-01   4.0183139E-01   4.0183148E-01   4.0162468E-01   4.0162462E-01   4.0162459E-01   4.0162456E-01   4.0162462E-01   4.0162459E-01   4.0162468E-01   4.0162471E-01   4.0142643E-01   4.0142640E-01   4.0142637E-01   4.0142635E-01   4.0142637E-01   4.0142637E-01   4.0142632E-01   4.0142629E-01   4.0124199E-01   4.0124199E-01   4.0124199E-01   4.0124199E-01   4.0124202E-01   4.0124196E-01   4.0124199E-01   4.0124199E-01   4.0107524E-01   4.0107527E-01   4.0107527E-01   4.0107530E-01   4.0107527E-01   4.0107527E-01   4.0107530E-01   4.0107524E-01   4.0092844E-01   4.0092847E-01   4.0092853E-01   4.0092853E-01   4.0092856E-01   4.0092853E-01   4.0092850E-01   4.0092853E-01   4.0080249E-01   4.0080246E-01   4.0080249E-01   4.0080243E-01   4.0080246E-01   4.0080240E-01   4.0080249E-01   4.0080249E-01   4.0069667E-01   4.0069667E-01   4.0069672E-01   4.0069667E-01   4.0069667E-01   4.0069661E-01   4.0069664E-01   4.0069672E-01   4.0060997E-01   4.0061000E-01   4.0060997E-01   4.0061003E-01   4.0061000E-01   4.0060997E-01   4.0060997E-01   4.0061003E-01   4.0054038E-01   4.0054041E-01   4.0054044E-01   4.0054047E-01   4.0054038E-01   4.0054038E-01   4.0054047E-01   4.0054041E-01   4.0048587E-01   4.0048584E-01   4.0048584E-01   4.0048578E-01   4.0048584E-01   4.0048578E-01   4.0048587E-01   4.0048590E-01   4.0044382E-01   4.0044382E-01   4.0044385E-01   4.0044385E-01   4.0044388E-01   4.0044382E-01   4.0044388E-01   4.0044388E-01   4.0041226E-01   4.0041235E-01   4.0041229E-01   4.0041238E-01   4.0041232E-01   4.0041235E-01   4.0041232E-01   4.0041235E-01   4.0038908E-01   4.0038902E-01   4.0038908E-01   4.0038908E-01   4.0038905E-01   4.0038905E-01   4.0038908E-01   4.0038908E-01   4.0037227E-01   4.0037227E-01   4.0037224E-01   4.0037218E-01   4.0037224E-01   4.0037221E-01   4.0037227E-01   4.0037227E-01   4.0036038E-01   4.0036035E-01   4.0036044E-01   4.0036038E-01   4.0036035E-01   4.0036041E-01   4.0036041E-01   4.0036038E-01   4.0035215E-01   4.0035212E-01   4.0035212E-01   4.0035209E-01   4.0035209E-01   4.0035218E-01   4.0035221E-01   4.0034655E-01   4.0034652E-01   4.0034655E-01   4.0034652E-01   4.0034652E-01   4.0000001E-01   4.0000001E-01   4.0000001E-01   4.0000001E-01   4.0000001E-01   4.0000001E-01   4.0000001E-01   4.0000001E-01   4.0000001E-01   4.0000001E-01   4.0000001E-01   4.0000001E-01   4.0000001E-01   4.0000001E-01   4.0000001E-01   4.0000001E-01   4.0000001E-01   4.0000001E-01   4.0000001E-01   4.0000001E-01   4.0000001E-01   4.0000001E-01   4.0000001E-01   4.0000001E-01   4.0000001E-01   4.0000001E-01   4.0000001E-01   4.0000001E-01   4.0000001E-01   4.0000001E-01   4.0000001E-01   4.0000001E-01   4.0000001E-01   4.0000001E-01   4.0000001E-01   4.0000001E-01   4.0000001E-01   4.0000001E-01   4.0000001E-01   4.0000001E-01   4.0000001E-01   4.0000001E-01   4.0000001E-01   4.0000001E-01   4.0000001E-01   4.0000001E-01   4.0000001E-01   4.0000001E-01   4.0000001E-01   4.0000001E-01   4.0000001E-01   4.0000001E-01   4.0000001E-01   4.0000001E-01   4.0000001E-01   4.0000001E-01   4.0000001E-01   4.0000001E-01   4.0000001E-01   4.0000001E-01   4.0000001E-01   4.0000001E-01   4.0000001E-01   4.0000001E-01   4.0000001E-01   4.0000001E-01   4.0000001E-01   4.0000001E-01   4.0000001E-01   4.0000001E-01   4.0000001E-01   4.0000001E-01   4.0000001E-01   4.0000001E-01   4.0000001E-01   4.0000001E-01   4.0000001E-01   4.0000001E-01   4.0000001E-01   4.0000001E-01   4.0000001E-01   4.0000001E-01   4.0000001E-01   4.0000001E-01   4.0000001E-01   4.0000001E-01   4.0000001E-01   4.0000001E-01   4.0000001E-01   4.0000001E-01   4.0000001E-01   4.0000001E-01   4.0000001E-01   4.0000001E-01   4.0000001E-01   4.0000001E-01   4.0000001E-01   4.0000001E-01   4.0000001E-01   4.0000001E-01   4.0000001E-01   4.0000001E-01   4.0000001E-01   4.0000001E-01   4.0000001E-01   4.0000001E-01   4.0000001E-01   4.0000001E-01   4.0000001E-01   4.0000001E-01   4.0000001E-01   4.0000001E-01   4.0000001E-01   4.0000001E-01   4.0000001E-01   4.0000001E-01   4.0000001E-01   4.0000001E-01   4.0000001E-01   4.0000001E-01   4.0000001E-01   4.0000001E-01   4.0000001E-01   4.0000001E-01   4.0000001E-01   4.0000001E-01   4.0000001E-01   4.0000001E-01   4.0000001E-01   4.0000001E-01   4.0000001E-01   4.0000001E-01   4.0000001E-01   4.0000001E-01   4.0000001E-01   4.0000001E-01   4.0000001E-01   4.0000001E-01   4.0000001E-01   4.0000001E-01   4.0000001E-01   4.0000001E-01   4.0000001E-01   4.0000001E-01   4.0000001E-01   4.0000001E-01   4.0000001E-01   4.0000001E-01   4.0000001E-01   4.0000001E-01   4.0000001E-01   4.0000001E-01   4.0000001E-01   4.0000001E-01   4.0000001E-01   4.0000001E-01   4.0000001E-01   4.0000001E-01   4.0000001E-01   4.0000001E-01   4.0000001E-01   4.0000001E-01   4.0000001E-01   4.0000001E-01   4.0000001E-01   4.0000001E-01   4.0000001E-01   4.0000001E-01   4.0000001E-01   4.0000001E-01   4.0000001E-01   4.0000001E-01   4.0000001E-01   4.0000001E-01   4.0000001E-01   4.0000001E-01   4.0000001E-01   4.0000001E-01   4.0000001E-01   4.0000001E-01   4.0000001E-01   4.0000001E-01   4.0000001E-01   4.0000024E-01   4.0000027E-01   4.0000024E-01   4.0000024E-01   4.0000021E-01   4.0000024E-01   4.0000024E-01   4.0000021E-01   4.0000075E-01   4.0000075E-01   4.0000060E-01   4.0000072E-01   4.0000069E-01   4.0000075E-01   4.0000069E-01   4.0000072E-01   4.0000162E-01   4.0000156E-01   4.0000159E-01   4.0000162E-01   4.0000159E-01   4.0000159E-01   4.0000162E-01   4.0000159E-01   4.0000448E-01   4.0000442E-01   4.0000448E-01   4.0000442E-01   4.0000442E-01   4.0000439E-01   4.0000445E-01   4.0000436E-01   4.0001169E-01   4.0001169E-01   4.0001169E-01   4.0001175E-01   4.0001175E-01   4.0001166E-01   4.0001166E-01   4.0001169E-01   4.0003142E-01   4.0003142E-01   4.0003142E-01   4.0003151E-01   4.0003145E-01   4.0003142E-01   4.0003145E-01   4.0003145E-01   4.0008393E-01   4.0008396E-01   4.0008396E-01   4.0008393E-01   4.0008396E-01   4.0008396E-01   4.0008393E-01   4.0008396E-01   4.0021726E-01   4.0021721E-01   4.0021726E-01   4.0021732E-01   4.0021726E-01   4.0021729E-01   4.0021724E-01   4.0021726E-01   4.0052244E-01   4.0052241E-01   4.0052250E-01   4.0052253E-01   4.0052253E-01   4.0052247E-01   4.0052244E-01   4.0052250E-01   4.0108144E-01   4.0108132E-01   4.0108132E-01   4.0108144E-01   4.0108144E-01   4.0108144E-01   4.0108144E-01   4.0108147E-01   4.0178320E-01   4.0178320E-01   4.0178323E-01   4.0178329E-01   4.0178332E-01   4.0178335E-01   4.0178341E-01   4.0178341E-01   4.0234244E-01   4.0234241E-01   4.0234253E-01   4.0234259E-01   4.0234262E-01   4.0234274E-01   4.0234292E-01   4.0234289E-01   4.0264791E-01   4.0264800E-01   4.0264806E-01   4.0264815E-01   4.0264833E-01   4.0264833E-01   4.0264854E-01   4.0264866E-01   4.0278143E-01   4.0278149E-01   4.0278164E-01   4.0278172E-01   4.0278175E-01   4.0278196E-01   4.0278217E-01   4.0278217E-01   4.0283397E-01   4.0283406E-01   4.0283418E-01   4.0283427E-01   4.0283442E-01   4.0283459E-01   4.0283471E-01   4.0283477E-01   4.0285382E-01   4.0285388E-01   4.0285408E-01   4.0285414E-01   4.0285423E-01   4.0285441E-01   4.0285456E-01   4.0285456E-01   4.0286115E-01   4.0286118E-01   4.0286136E-01   4.0286145E-01   4.0286154E-01   4.0286171E-01   4.0286192E-01   4.0286186E-01   4.0286273E-01   4.0286276E-01   4.0286294E-01   4.0286306E-01   4.0286312E-01   4.0286326E-01   4.0286344E-01   4.0286344E-01   4.0285993E-01   4.0285999E-01   4.0286016E-01   4.0286022E-01   4.0286040E-01   4.0286049E-01   4.0286070E-01   4.0286070E-01   4.0281373E-01   4.0281385E-01   4.0281394E-01   4.0281406E-01   4.0281409E-01   4.0281430E-01   4.0281442E-01   4.0281445E-01   4.0272272E-01   4.0272287E-01   4.0272295E-01   4.0272304E-01   4.0272319E-01   4.0272328E-01   4.0272346E-01   4.0272343E-01   4.0259224E-01   4.0259236E-01   4.0259242E-01   4.0259254E-01   4.0259263E-01   4.0259275E-01   4.0259293E-01   4.0259290E-01   4.0242928E-01   4.0242940E-01   4.0242946E-01   4.0242955E-01   4.0242958E-01   4.0242973E-01   4.0242985E-01   4.0242985E-01   4.0224224E-01   4.0224227E-01   4.0224236E-01   4.0224245E-01   4.0224254E-01   4.0224263E-01   4.0224269E-01   4.0224272E-01   4.0204003E-01   4.0204009E-01   4.0204015E-01   4.0204021E-01   4.0204021E-01   4.0204036E-01   4.0204045E-01   4.0204039E-01   4.0183145E-01   4.0183157E-01   4.0183166E-01   4.0183160E-01   4.0183166E-01   4.0183172E-01   4.0183178E-01   4.0183184E-01   4.0162468E-01   4.0162471E-01   4.0162477E-01   4.0162480E-01   4.0162477E-01   4.0162483E-01   4.0162492E-01   4.0162498E-01   4.0142640E-01   4.0142637E-01   4.0142637E-01   4.0142646E-01   4.0142646E-01   4.0142652E-01   4.0142661E-01   4.0142652E-01   4.0124202E-01   4.0124205E-01   4.0124205E-01   4.0124211E-01   4.0124214E-01   4.0124214E-01   4.0124217E-01   4.0124214E-01   4.0107533E-01   4.0107539E-01   4.0107536E-01   4.0107536E-01   4.0107542E-01   4.0107539E-01   4.0107539E-01   4.0107539E-01   4.0092853E-01   4.0092853E-01   4.0092856E-01   4.0092856E-01   4.0092856E-01   4.0092856E-01   4.0092859E-01   4.0092859E-01   4.0080246E-01   4.0080246E-01   4.0080249E-01   4.0080246E-01   4.0080249E-01   4.0080243E-01   4.0080252E-01   4.0080243E-01   4.0069669E-01   4.0069664E-01   4.0069675E-01   4.0069675E-01   4.0069669E-01   4.0069669E-01   4.0069672E-01   4.0061006E-01   4.0060997E-01   4.0061000E-01   4.0060997E-01   4.0061000E-01   4.0060994E-01   4.0060994E-01   4.0054041E-01   4.0054047E-01   4.0054038E-01   4.0054035E-01   4.0054038E-01   4.0054044E-01   4.0048587E-01   4.0048584E-01   4.0048590E-01   4.0048581E-01   4.0048587E-01   4.0048584E-01   4.0044385E-01   4.0044388E-01   4.0044388E-01   4.0044388E-01   4.0044388E-01   4.0041229E-01   4.0041238E-01   4.0041232E-01   4.0041232E-01   4.0038911E-01   4.0038902E-01   4.0038911E-01   4.0038905E-01   4.0037224E-01   4.0037221E-01   4.0036044E-01 
Press 1 2975 float
  0.0000000E+00   0.0000000E+00   0.0000000E+00   0.0000000E+00   0.0000000E+00   0.0000000E+00   0.0000000E+00   0.0000000E+00   0.0000000E+00   0.0000000E+00   0.0000000E+00   0.0000000E+00   0.0000000E+00   0.0000000E+00   0.0000000E+00   0.0000000E+00   0.0000000E+00   0.0000000E+00   0.0000000E+00   0.0000000E+00   0.0000000E+00   0.0000000E+00   0.0000000E+00   0.0000000E+00   0.0000000E+00   0.0000000E+00   0.0000000E+00   0.0000000E+00   0.0000000E+00   0.0000000E+00   0.0000000E+00   0.0000000E+00   0.0000000E+00   0.0000000E+00   0.0000000E+00   0.0000000E+00   0.0000000E+00   0.0000000E+00   0.0000000E+00   0.0000000E+00   0.0000000E+00   0.0000000E+00   0.0000000E+00   0.0000000E+00   0.0000000E+00   0.0000000E+00   0.0000000E+00   0.0000000E+00   0.0000000E+00   0.0000000E+00   0.0000000E+00   0.0000000E+00   9.8762624E-02   0.0000000E+00   9.8762624E-02   9.8762624E-02   0.0000000E+00   9.8762624E-02   1.9752525E-01   9.8762624E-02   1.9752525E-01   2.9628786E-01   2.9628786E-01   3.9505050E-01   0.0000000E+00   0.0000000E+00   0.0000000E+00   0.0000000E+00   0.0000000E+00   0.0000000E+00   0.0000000E+00   0.0000000E+00   0.0000000E+00   0.0000000E+00   0.0000000E+00   0.0000000E+00   0.0000000E+00   0.0000000E+00   0.0000000E+00   0.0000000E+00   0.0000000E+00   0.0000000E+00   0.0000000E+00   0.0000000E+00   0.0000000E+00   0.0000000E+00   0.0000000E+00   0.0000000E+00   0.0000000E+00   0.0000000E+00   0.0000000E+00   0.0000000E+00   0.0000000E+00   0.0000000E+00   0.0000000E+00   0.0000000E+00   0.0000000E+00   0.0000000E+00   0.0000000E+00   0.0000000E+00   0.0000000E+00   0.0000000E+00   0.0000000E+00   0.0000000E+00   0.0000000E+00   0.0000000E+00   0.0000000E+00   0.0000000E+00   0.0000000E+00   0.0000000E+00   0.0000000E+00   0.0000000E+00   0.0000000E+00   0.0000000E+00   0.0000000E+00   0.0000000E+00   0.0000000E+00   0.0000000E+00   0.0000000E+00   0.0000000E+00   0.0000000E+00   0.0000000E+00   0.0000000E+00   0.0000000E+00   0.0000000E+00   0.0000000E+00   0.0000000E+00   0.0000000E+00   0.0000000E+00   0.0000000E+00   0.0000000E+00   0.0000000E+00   0.0000000E+00   0.0000000E+00   0.0000000E+00   0.0000000E+00   0.0000000E+00   0.0000000E+00   0.0000000E+00   0.0000000E+00   0.0000000E+00   0.0000000E+00   0.0000000E+00   0.0000000E+00   0.0000000E+00   0.0000000E+00   0.0000000E+00   0.0000000E+00   0.0000000E+00   0.0000000E+00   0.0000000E+00   0.0000000E+00   0.0000000E+00   0.0000000E+00   0.0000000E+00   0.0000000E+00   0.0000000E+00   0.0000000E+00   0.0000000E+00   0.0000000E+00   0.0000000E+00   0.0000000E+00   9.8762624E-02   9.8762624E-02   9.8762624E-02   9.8762624E-02   9.8762624E-02   1.9752525E-01   1.9752525E-01   2.9628786E-01   2.9628786E-01   3.9505050E-01   4.9381313E-01   5.9257573E-01   7.9010099E-01   0.0000000E+00   0.0000000E+00   0.0000000E+00   0.0000000E+00   0.0000000E+00   0.0000000E+00   0.0000000E+00   0.0000000E+00   0.0000000E+00   0.0000000E+00   0.0000000E+00   0.0000000E+00   0.0000000E+00   0.0000000E+00   0.0000000E+00   0.0000000E+00   0.0000000E+00   0.0000000E+00   0.0000000E+00   0.0000000E+00   0.0000000E+00   0.0000000E+00   0.0000000E+00   0.0000000E+00   0.0000000E+00   0.0000000E+00   0.0000000E+00   0.0000000E+00   0.0000000E+00   0.0000000E+00   0.0000000E+00   0.0000000E+00   0.0000000E+00   0.0000000E+00   0.0000000E+00   0.0000000E+00   0.0000000E+00   0.0000000E+00   0.0000000E+00   0.0000000E+00   0.0000000E+00   0.0000000E+00   0.0000000E+00   0.0000000E+00   0.0000000E+00   0.0000000E+00   0.0000000E+00   0.0000000E+00   0.0000000E+00   0.0000000E+00   0.0000000E+00   0.0000000E+00   0.0000000E+00   0.0000000E+00   0.0000000E+00   0.0000000E+00   0.0000000E+00   0.0000000E+00   0.0000000E+00   0.0000000E+00   0.0000000E+00   0.0000000E+00   0.0000000E+00   0.0000000E+00   0.0000000E+00   0.0000000E+00   0.0000000E+00   0.0000000E+00   0.0000000E+00   0.0000000E+00   0.0000000E+00   0.0000000E+00   0.0000000E+00   0.0000000E+00   0.0000000E+00   0.0000000E+00   0.0000000E+00   0.0000000E+00   0.0000000E+00   0.0000000E+00   0.0000000E+00   0.0000000E+00   0.0000000E+00   0.0000000E+00   0.0000000E+00   0.0000000E+00   0.0000000E+00   0.0000000E+00   0.0000000E+00   0.0000000E+00   0.0000000E+00   0.0000000E+00   0.0000000E+00   0.0000000E+00   0.0000000E+00   0.0000000E+00   0.0000000E+00   0.0000000E+00   0.0000000E+00   0.0000000E+00   0.0000000E+00   0.0000000E+00   0.0000000E+00   0.0000000E+00   0.0000000E+00   0.0000000E+00   0.0000000E+00   0.0000000E+00   0.0000000E+00   0.0000000E+00   0.0000000E+00   0.0000000E+00   0.0000000E+00   0.0000000E+00   0.0000000E+00   0.0000000E+00   0.0000000E+00   0.0000000E+00   0.0000000E+00   0.0000000E+00   0.0000000E+00   0.0000000E+00   0.0000000E+00   0.0000000E+00   0.0000000E+00   0.0000000E+00   0.0000000E+00   0.0000000E+00   0.0000000E+00   0.0000000E+00   0.0000000E+00   0.0000000E+00   0.0000000E+00   0.0000000E+00   0.0000000E+00   0.0000000E+00   0.0000000E+00   0.0000000E+00   0.0000000E+00   0.0000000E+00   0.0000000E+00   0.0000000E+00   0.0000000E+00   0.0000000E+00   0.0000000E+00   0.0000000E+00   0.0000000E+00   0.0000000E+00   0.0000000E+00   0.0000000E+00   0.0000000E+00   0.0000000E+00   0.0000000E+00   0.0000000E+00   0.0000000E+00   0.0000000E+00   0.0000000E+00   0.0000000E+00   0.0000000E+00   0.0000000E+00   0.0000000E+00   0.0000000E+00   0.0000000E+00   0.0000000E+00   0.0000000E+00   0.0000000E+00   0.0000000E+00   0.0000000E+00   0.0000000E+00   0.0000000E+00   0.0000000E+00   0.0000000E+00   0.0000000E+00   0.0000000E+00   0.0000000E+00   0.0000000E+00   0.0000000E+00   0.0000000E+00   0.0000000E+00   0.0000000E+00   0.0000000E+00   0.0000000E+00   0.0000000E+00   0.0000000E+00   0.0000000E+00   0.0000000E+00   0.0000000E+00   0.0000000E+00   0.0000000E+00   0.0000000E+00   0.0000000E+00   0.0000000E+00   0.0000000E+00   0.0000000E+00   0.0000000E+00   0.0000000E+00   0.0000000E+00   0.0000000E+00   0.0000000E+00   0.0000000E+00   0.0000000E+00   0.0000000E+00   0.0000000E+00   0.0000000E+00   0.0000000E+00   0.0000000E+00   0.0000000E+00   0.0000000E+00   0.0000000E+00   0.0000000E+00   0.0000000E+00   0.0000000E+00   0.0000000E+00   0.0000000E+00   0.0000000E+00   0.0000000E+00   0.0000000E+00   0.0000000E+00   0.0000000E+00   0.0000000E+00   0.0000000E+00   0.0000000E+00   0.0000000E+00   0.0000000E+00   0.0000000E+00   0.0000000E+00   0.0000000E+00   0.0000000E+00   0.0000000E+00   0.0000000E+00   0.0000000E+00   0.0000000E+00   0.0000000E+00   0.0000000E+00   0.0000000E+00   0.0000000E+00   0.0000000E+00   0.0000000E+00   0.0000000E+00   0.0000000E+00   0.0000000E+00   0.0000000E+00   0.0000000E+00   0.0000000E+00   0.0000000E+00   0.0000000E+00   0.0000000E+00   0.0000000E+00   0.0000000E+00   0.0000000E+00   0.0000000E+00   0.0000000E+00   0.0000000E+00   0.0000000E+00   0.0000000E+00   0.0000000E+00   0.0000000E+00   0.0000000E+00   0.0000000E+00   0.0000000E+00   0.0000000E+00   0.0000000E+00   0.0000000E+00   0.0000000E+00   0.0000000E+00   0.0000000E+00   0.0000000E+00   0.0000000E+00   0.0000000E+00   0.0000000E+00   0.0000000E+00   0.0000000E+00   0.0000000E+00   0.0000000E+00   0.0000000E+00   0.0000000E+00   0.0000000E+00   0.0000000E+00   0.0000000E+00   0.0000000E+00   0.0000000E+00   0.0000000E+00   0.0000000E+00   0.0000000E+00   0.0000000E+00   0.0000000E+00   0.0000000E+00   0.0000000E+00   0.0000000E+00   0.0000000E+00   0.0000000E+00   9.8762624E-02   9.8762624E-02   9.8762624E-02   1.9752525E-01   2.9628786E-01   4.9381313E-01   7.9010099E-01   0.0000000E+00   0.0000000E+00   0.0000000E+00   0.0000000E+00   0.0000000E+00   0.0000000E+00   0.0000000E+00   0.0000000E+00   0.0000000E+00   0.0000000E+00   0.0000000E+00   0.0000000E+00   0.0000000E+00   0.0000000E+00   0.0000000E+00   0.0000000E+00   0.0000000E+00   0.0000000E+00   0.0000000E+00   0.0000000E+00   0.0000000E+00   0.0000000E+00   0.0000000E+00   0.0000000E+00   0.0000000E+00   0.0000000E+00   0.0000000E+00   0.0000000E+00   0.0000000E+00   0.0000000E+00   0.0000000E+00   0.0000000E+00   0.0000000E+00   0.0000000E+00   0.0000000E+00   0.0000000E+00   0.0000000E+00   0.0000000E+00   0.0000000E+00   0.0000000E+00   0.0000000E+00   0.0000000E+00   0.0000000E+00   0.0000000E+00   0.0000000E+00   0.0000000E+00   0.0000000E+00   0.0000000E+00   0.0000000E+00   0.0000000E+00   0.0000000E+00   0.0000000E+00   0.0000000E+00   0.0000000E+00   0.0000000E+00   0.0000000E+00   0.0000000E+00   0.0000000E+00   0.0000000E+00   0.0000000E+00   0.0000000E+00   0.0000000E+00   0.0000000E+00   9.8762624E-02   0.0000000E+00   0.0000000E+00   0.0000000E+00   9.8762624E-02   9.8762624E-02   0.0000000E+00   0.0000000E+00   1.9752525E-01   9.8762624E-02   9.8762624E-02   0.0000000E+00   2.9628786E-01   1.9752525E-01   9.8762624E-02   0.0000000E+00   3.9505050E-01   2.9628786E-01   1.9752525E-01   9.8762624E-02   5.9257573E-01   3.9505050E-01   2.9628786E-01   0.0000000E+00   0.0000000E+00   0.0000000E+00   0.0000000E+00   0.0000000E+00   0.0000000E+00   0.0000000E+00   0.0000000E+00   0.0000000E+00   0.0000000E+00   0.0000000E+00   0.0000000E+00   0.0000000E+00   0.0000000E+00   0.0000000E+00   0.0000000E+00   0.0000000E+00   0.0000000E+00   0.0000000E+00   0.0000000E+00   0.0000000E+00   0.0000000E+00   0.0000000E+00   0.0000000E+00   0.0000000E+00   0.0000000E+00   0.0000000E+00   0.0000000E+00   0.0000000E+00   0.0000000E+00   0.0000000E+00   0.0000000E+00   0.0000000E+00   0.0000000E+00   0.0000000E+00   0.0000000E+00   0.0000000E+00   0.0000000E+00   0.0000000E+00   0.0000000E+00   0.0000000E+00   0.0000000E+00   0.0000000E+00   0.0000000E+00   0.0000000E+00   0.0000000E+00   0.0000000E+00   0.0000000E+00   0.0000000E+00   0.0000000E+00   0.0000000E+00   0.0000000E+00   0.0000000E+00   0.0000000E+00   0.0000000E+00   0.0000000E+00   0.0000000E+00   0.0000000E+00   0.0000000E+00   0.0000000E+00   0.0000000E+00   0.0000000E+00   0.0000000E+00   0.0000000E+00   0.0000000E+00   0.0000000E+00   0.0000000E+00   0.0000000E+00   0.0000000E+00   0.0000000E+00   0.0000000E+00   0.0000000E+00   0.0000000E+00   0.0000000E+00   0.0000000E+00   0.0000000E+00   0.0000000E+00   0.0000000E+00   0.0000000E+00   0.0000000E+00   0.0000000E+00   0.0000000E+00   0.0000000E+00   0.0000000E+00   0.0000000E+00   0.0000000E+00   0.0000000E+00   0.0000000E+00   0.0000000E+00   0.0000000E+00   0.0000000E+00   0.0000000E+00   0.0000000E+00   0.0000000E+00   0.0000000E+00   0.0000000E+00   0.0000000E+00   0.0000000E+00   0.0000000E+00   0.0000000E+00   0.0000000E+00   0.0000000E+00   0.0000000E+00   0.0000000E+00   0.0000000E+00   0.0000000E+00   0.0000000E+00   0.0000000E+00   0.0000000E+00   0.0000000E+00   0.0000000E+00   0.0000000E+00   0.0000000E+00   0.0000000E+00   0.0000000E+00   0.0000000E+00   0.0000000E+00   0.0000000E+00   0.0000000E+00   0.0000000E+00   0.0000000E+00   0.0000000E+00   0.0000000E+00   0.0000000E+00   0.0000000E+00   0.0000000E+00   0.0000000E+00   0.0000000E+00   0.0000000E+00   0.0000000E+00   0.0000000E+00   0.0000000E+00   0.0000000E+00   0.0000000E+00   0.0000000E+00   0.0000000E+00   0.0000000E+00   0.0000000E+00   0.0000000E+00   0.0000000E+00   0.0000000E+00   0.0000000E+00   0.0000000E+00   0.0000000E+00   0.0000000E+00   0.0000000E+00   0.0000000E+00   0.0000000E+00   0.0000000E+00   0.0000000E+00   0.0000000E+00   0.0000000E+00   0.0000000E+00   0.0000000E+00   0.0000000E+00   0.0000000E+00   0.0000000E+00   0.0000000E+00   0.0000000E+00   0.0000000E+00   0.0000000E+00   0.0000000E+00   0.0000000E+00   0.0000000E+00   0.0000000E+00   0.0000000E+00   0.0000000E+00   0.0000000E+00   0.0000000E+00   0.0000000E+00   0.0000000E+00   0.0000000E+00   0.0000000E+00   0.0000000E+00   0.0000000E+00   0.0000000E+00   0.0000000E+00   0.0000000E+00   0.0000000E+00   0.0000000E+00   0.0000000E+00   0.0000000E+00   0.0000000E+00   0.0000000E+00   0.0000000E+00   0.0000000E+00   0.0000000E+00   0.0000000E+00   0.0000000E+00   0.0000000E+00   0.0000000E+00   0.0000000E+00   0.0000000E+00   0.0000000E+00   0.0000000E+00   0.0000000E+00   0.0000000E+00   0.0000000E+00   0.0000000E+00   0.0000000E+00   0.0000000E+00   0.0000000E+00   0.0000000E+00   0.0000000E+00   0.0000000E+00   0.0000000E+00   0.0000000E+00   0.0000000E+00   0.0000000E+00   0.0000000E+00   0.0000000E+00   0.0000000E+00   0.0000000E+00   0.0000000E+00   0.0000000E+00   0.0000000E+00   0.0000000E+00   0.0000000E+00   0.0000000E+00   0.0000000E+00   0.0000000E+00   0.0000000E+00   0.0000000E+00   0.0000000E+00   0.0000000E+00   0.0000000E+00   0.0000000E+00   0.0000000E+00   0.0000000E+00   0.0000000E+00   0.0000000E+00   0.0000000E+00   0.0000000E+00   0.0000000E+00   0.0000000E+00   0.0000000E+00   0.0000000E+00   0.0000000E+00   0.0000000E+00   0.0000000E+00   0.0000000E+00   0.0000000E+00   0.0000000E+00   0.0000000E+00   0.0000000E+00   0.0000000E+00   0.0000000E+00   0.0000000E+00   0.0000000E+00   0.0000000E+00   0.0000000E+00   0.0000000E+00   0.0000000E+00   0.0000000E+00   0.0000000E+00   0.0000000E+00   0.0000000E+00   0.0000000E+00   0.0000000E+00   0.0000000E+00   0.0000000E+00   0.0000000E+00   0.0000000E+00   0.0000000E+00   0.0000000E+00   0.0000000E+00   0.0000000E+00   0.0000000E+00   0.0000000E+00   0.0000000E+00   0.0000000E+00   0.0000000E+00   0.0000000E+00   0.0000000E+00   0.0000000E+00   0.0000000E+00   0.0000000E+00   0.0000000E+00   0.0000000E+00   0.0000000E+00   0.0000000E+00   0.0000000E+00   0.0000000E+00   0.0000000E+00   0.0000000E+00   0.0000000E+00   0.0000000E+00   0.0000000E+00   0.0000000E+00   0.0000000E+00   0.0000000E+00   0.0000000E+00   0.0000000E+00   0.0000000E+00   0.0000000E+00   0.0000000E+00   0.0000000E+00   0.0000000E+00   0.0000000E+00   0.0000000E+00   0.0000000E+00   0.0000000E+00   0.0000000E+00   0.0000000E+00   0.0000000E+00   0.0000000E+00   0.0000000E+00   0.0000000E+00   0.0000000E+00   0.0000000E+00   0.0000000E+00   0.0000000E+00   0.0000000E+00   0.0000000E+00   0.0000000E+00   0.0000000E+00   0.0000000E+00   0.0000000E+00   0.0000000E+00   0.0000000E+00   0.0000000E+00   0.0000000E+00   0.0000000E+00   0.0000000E+00   0.0000000E+00   0.0000000E+00   0.0000000E+00   0.0000000E+00   0.0000000E+00   0.0000000E+00   0.0000000E+00   0.0000000E+00   0.0000000E+00   0.0000000E+00   0.0000000E+00   0.0000000E+00   0.0000000E+00   0.0000000E+00   0.0000000E+00   0.0000000E+00   0.0000000E+00   0.0000000E+00   0.0000000E+00   0.0000000E+00   0.0000000E+00   0.0000000E+00   0.0000000E+00   0.0000000E+00   0.0000000E+00   0.0000000E+00   0.0000000E+00   0.0000000E+00   0.0000000E+00   0.0000000E+00   0.0000000E+00   0.0000000E+00   0.0000000E+00   0.0000000E+00   0.0000000E+00   0.0000000E+00   0.0000000E+00   0.0000000E+00   0.0000000E+00   0.0000000E+00   0.0000000E+00   0.0000000E+00   0.0000000E+00   0.0000000E+00   0.0000000E+00   0.0000000E+00   0.0000000E+00   0.0000000E+00   0.0000000E+00   0.0000000E+00   0.0000000E+00   0.0000000E+00   0.0000000E+00   0.0000000E+00   0.0000000E+00   0.0000000E+00   0.0000000E+00   0.0000000E+00   0.0000000E+00   0.0000000E+00   0.0000000E+00   0.0000000E+00   0.0000000E+00   0.0000000E+00   0.0000000E+00   0.0000000E+00   0.0000000E+00   0.0000000E+00   0.0000000E+00   0.0000000E+00   0.0000000E+00   0.0000000E+00   0.0000000E+00   0.0000000E+00   0.0000000E+00   0.0000000E+00   0.0000000E+00   0.0000000E+00   0.0000000E+00   0.0000000E+00   0.0000000E+00   0.0000000E+00   0.0000000E+00   0.0000000E+00   0.0000000E+00   0.0000000E+00   0.0000000E+00   0.0000000E+00   0.0000000E+00   0.0000000E+00   0.0000000E+00   0.0000000E+00   0.0000000E+00   0.0000000E+00   0.0000000E+00   0.0000000E+00   0.0000000E+00   0.0000000E+00   0.0000000E+00   0.0000000E+00   0.0000000E+00   0.0000000E+00   0.0000000E+00   0.0000000E+00   0.0000000E+00   0.0000000E+00   0.0000000E+00   0.0000000E+00   0.0000000E+00   0.0000000E+00   0.0000000E+00   0.0000000E+00   0.0000000E+00   0.0000000E+00   0.0000000E+00   0.0000000E+00   0.0000000E+00   0.0000000E+00   0.0000000E+00   0.0000000E+00   0.0000000E+00   0.0000000E+00   0.0000000E+00   0.0000000E+00   0.0000000E+00   0.0000000E+00   0.0000000E+00   0.0000000E+00   0.0000000E+00   0.0000000E+00   0.0000000E+00   0.0000000E+00   0.0000000E+00   0.0000000E+00   0.0000000E+00   0.0000000E+00   0.0000000E+00   0.0000000E+00   0.0000000E+00   0.0000000E+00   0.0000000E+00   0.0000000E+00   0.0000000E+00   0.0000000E+00   0.0000000E+00   0.0000000E+00   0.0000000E+00   0.0000000E+00   0.0000000E+00   0.0000000E+00   0.0000000E+00   0.0000000E+00   0.0000000E+00   0.0000000E+00   0.0000000E+00   9.8762624E-02   9.8762624E-02   9.8762624E-02   9.8762624E-02   0.0000000E+00   9.8762624E-02   9.8762624E-02   9.8762624E-02   9.8762624E-02   9.8762624E-02   9.8762624E-02   9.8762624E-02   9.8762624E-02   9.8762624E-02   9.8762624E-02   9.8762624E-02   9.8762624E-02   9.8762624E-02   9.8762624E-02   9.8762624E-02   1.9752525E-01   1.9752525E-01   9.8762624E-02   1.9752525E-01   1.9752525E-01   1.9752525E-01   1.9752525E-01   1.9752525E-01   1.9752525E-01   1.9752525E-01   2.9628786E-01   2.9628786E-01   2.9628786E-01   2.9628786E-01   2.9628786E-01   2.9628786E-01   3.9505050E-01   3.9505050E-01   3.9505050E-01   3.9505050E-01   3.9505050E-01   4.9381313E-01   4.9381313E-01   5.9257573E-01   5.9257573E-01   5.9257573E-01   6.9133836E-01   6.9133836E-01   7.9010099E-01   7.9010099E-01   7.9010099E-01   7.9010099E-01   9.8762625E-01   9.8762625E-01   9.8762625E-01   9.8762625E-01   9.8762625E-01   1.0863888E+00   1.4814394E+00   1.4814394E+00   1.4814394E+00   1.4814394E+00   1.4814394E+00   1.4814394E+00   1.7777272E+00   1.9752525E+00   1.9752525E+00   1.9752525E+00   1.9752525E+00   1.9752525E+00   2.3703027E+00   2.5678279E+00   2.5678279E+00   2.5678279E+00   2.6665907E+00   2.8641160E+00   3.1604037E+00   3.3579290E+00   3.4566915E+00   3.4566915E+00   3.6542168E+00   3.7529795E+00   4.2467918E+00   4.4443169E+00   4.6418424E+00   4.7406049E+00   4.8393674E+00   4.9381299E+00   5.8269935E+00   6.0245185E+00   6.1232815E+00   6.3208065E+00   6.5183315E+00   6.7158570E+00   7.9997702E+00   8.1972952E+00   8.2960577E+00   8.4935827E+00   8.6911087E+00   8.8886337E+00   1.0666359E+01   1.0863884E+01   1.1061409E+01   1.1258934E+01   1.1456459E+01   1.1653984E+01   1.4123047E+01   1.4419334E+01   1.4616859E+01   1.4913147E+01   1.5110672E+01   1.5308197E+01   1.8666121E+01   1.9258696E+01   1.9456221E+01   1.9554983E+01   1.9752508E+01   2.0048796E+01   2.4888153E+01   2.5579491E+01   2.5777016E+01   2.5678253E+01   2.5875778E+01   2.5974541E+01   3.2887905E+01   3.3776768E+01   3.3776768E+01   3.3381718E+01   3.3282955E+01   3.3282955E+01   4.3554226E+01   4.4640614E+01   4.4048038E+01   4.3257938E+01   4.2764126E+01   4.2566601E+01   5.7183395E+01   5.8467304E+01   5.6788345E+01   5.4911861E+01   5.4022999E+01   5.3825478E+01   7.3874161E+01   7.4664253E+01   7.1306343E+01   6.7948425E+01   6.6565750E+01   6.6269463E+01   9.5206673E+01   9.5009148E+01   8.8194565E+01   8.3058937E+01   8.1478737E+01   8.1676262E+01   1.2335365E+02   1.2029202E+02   1.0883564E+02   1.0172478E+02   1.0044088E+02   1.0182354E+02   1.6878372E+02   1.6108031E+02   1.4379701E+02   1.3540227E+02   1.3569856E+02   1.3964902E+02   2.6359406E+02   2.4956993E+02   2.2853377E+02   2.1964525E+02   2.2280560E+02   2.3169412E+02   4.9163177E+02   4.7365729E+02   4.5499149E+02   4.4758441E+02   4.5588034E+02   4.7217587E+02   1.0189100E+03   1.0035034E+03   9.9965173E+02   1.0031083E+03   1.0199964E+03   1.0461678E+03   1.9954354E+03   1.9902012E+03   2.0240757E+03   2.0530122E+03   2.0846152E+03   2.1239216E+03   3.2176472E+03   3.2248564E+03   3.3109739E+03   3.3774382E+03   3.4280024E+03   3.4816284E+03   4.1707017E+03   4.1804785E+03   4.3079736E+03   4.4055454E+03   4.4731938E+03   4.5403486E+03   4.6720947E+03   4.6717983E+03   4.8146968E+03   4.9281660E+03   5.0067749E+03   5.0846924E+03   4.8820122E+03   4.8706558E+03   5.0114761E+03   5.1279053E+03   5.2115483E+03   5.2965737E+03   4.9691260E+03   4.9475986E+03   5.0816006E+03   5.1954575E+03   5.2806772E+03   5.3701436E+03   5.0152876E+03   4.9866523E+03   5.1138340E+03   5.2244268E+03   5.3101362E+03   5.4019678E+03   5.0480273E+03   5.0156416E+03   5.1386680E+03   5.2467847E+03   5.3322910E+03   5.4250049E+03   5.0712627E+03   5.0382876E+03   5.1600195E+03   5.2668433E+03   5.3517490E+03   5.4443560E+03   5.0822900E+03   5.0512930E+03   5.1743916E+03   5.2814985E+03   5.3658018E+03   5.4573115E+03   5.0099907E+03   4.9809731E+03   5.1031631E+03   5.2089692E+03   5.2918770E+03   5.3814961E+03   4.8540479E+03   4.8266157E+03   4.9455220E+03   5.0482451E+03   5.1286675E+03   5.2156025E+03   4.6265850E+03   4.6003442E+03   4.7137896E+03   4.8119443E+03   4.8890869E+03   4.9725430E+03   4.3412100E+03   4.3165581E+03   4.4227588E+03   4.5149570E+03   4.5882227E+03   4.6677012E+03   4.0127207E+03   3.9900532E+03   4.0876216E+03   4.1732651E+03   4.2422529E+03   4.3171543E+03   3.6550349E+03   3.6349446E+03   3.7236763E+03   3.8021660E+03   3.8664749E+03   3.9364951E+03   3.2820781E+03   3.2646641E+03   3.3449453E+03   3.4163721E+03   3.4758940E+03   3.5408276E+03   2.9081736E+03   2.8933374E+03   2.9652581E+03   3.0297119E+03   3.0843403E+03   3.1440784E+03   2.5470444E+03   2.5338042E+03   2.5968674E+03   2.6547332E+03   2.7047522E+03   2.7591848E+03   2.2108115E+03   2.1976033E+03   2.2514160E+03   2.3031743E+03   2.3484753E+03   2.3975920E+03   1.9065442E+03   1.8928914E+03   1.9371692E+03   1.9832024E+03   2.0236766E+03   2.0671741E+03   1.6369579E+03   1.6240436E+03   1.6591011E+03   1.7006649E+03   1.7363047E+03   1.7738865E+03   1.4024728E+03   1.3918534E+03   1.4186012E+03   1.4568394E+03   1.4885110E+03   1.5195065E+03   1.1976844E+03   1.2157026E+03   1.2500121E+03   1.2786671E+03   1.3038716E+03   1.0407976E+03   1.0483907E+03   1.0760996E+03   1.1034288E+03   1.1244000E+03   9.1309735E+02   9.3145911E+02   9.5684613E+02   9.7642529E+02   8.0355756E+02   8.1231207E+02   8.3378088E+02   8.5405194E+02   7.1504309E+02   7.3011115E+02   7.5050214E+02   6.4440051E+02   6.6127710E+02   5.7599030E+02   5.8688989E+02   9.8762624E-02   9.8762624E-02   9.8762624E-02   9.8762624E-02   9.8762624E-02   9.8762624E-02   9.8762624E-02   9.8762624E-02   9.8762624E-02   9.8762624E-02   9.8762624E-02   9.8762624E-02   9.8762624E-02   9.8762624E-02   9.8762624E-02   9.8762624E-02   9.8762624E-02   9.8762624E-02   9.8762624E-02   9.8762624E-02   9.8762624E-02   9.8762624E-02   9.8762624E-02   9.8762624E-02   9.8762624E-02   9.8762624E-02   9.8762624E-02   9.8762624E-02   9.8762624E-02   9.8762624E-02   9.8762624E-02   9.8762624E-02   9.8762624E-02   9.8762624E-02   9.8762624E-02   9.8762624E-02   1.9752525E-01   1.9752525E-01   1.9752525E-01   1.9752525E-01   1.9752525E-01   1.9752525E-01   1.9752525E-01   1.9752525E-01   1.9752525E-01   1.9752525E-01   2.9628786E-01   2.9628786E-01   2.9628786E-01   2.9628786E-01   2.9628786E-01   2.9628786E-01   2.9628786E-01   2.9628786E-01   2.9628786E-01   2.9628786E-01   3.9505050E-01   3.9505050E-01   3.9505050E-01   3.9505050E-01   3.9505050E-01   3.9505050E-01   3.9505050E-01   3.9505050E-01   4.9381313E-01   4.9381313E-01   4.9381313E-01   4.9381313E-01   4.9381313E-01   4.9381313E-01   4.9381313E-01   4.9381313E-01   5.9257573E-01   6.9133836E-01   6.9133836E-01   6.9133836E-01   6.9133836E-01   6.9133836E-01   6.9133836E-01   6.9133836E-01   6.9133836E-01   7.9010099E-01   7.9010099E-01   8.8886362E-01   8.8886362E-01   8.8886362E-01   8.8886362E-01   8.8886362E-01   8.8886362E-01   8.8886362E-01   1.1851515E+00   1.1851515E+00   1.2839141E+00   1.2839141E+00   1.2839141E+00   1.2839141E+00   1.2839141E+00   1.2839141E+00   1.2839141E+00   1.5802020E+00   1.5802020E+00   1.5802020E+00   1.5802020E+00   1.5802020E+00   1.5802020E+00   1.6789646E+00   1.6789646E+00   1.6789646E+00   2.1727777E+00   2.1727777E+00   2.1727777E+00   2.1727777E+00   2.2715404E+00   2.2715404E+00   2.2715404E+00   2.2715404E+00   2.2715404E+00   2.9628785E+00   2.9628785E+00   3.0616412E+00   3.0616412E+00   3.0616412E+00   3.0616412E+00   3.1604037E+00   3.1604037E+00   3.1604037E+00   3.8517420E+00   3.9505048E+00   4.0492673E+00   4.0492673E+00   4.0492673E+00   4.0492673E+00   4.0492673E+00   4.0492673E+00   4.0492673E+00   5.1356554E+00   5.1356554E+00   5.3331804E+00   5.3331804E+00   5.4319429E+00   5.4319429E+00   5.4319429E+00   5.4319429E+00   5.4319429E+00   6.9133821E+00   6.9133821E+00   7.0121446E+00   7.1109076E+00   7.1109076E+00   7.1109076E+00   7.1109076E+00   7.1109076E+00   7.1109076E+00   9.0861588E+00   9.2836838E+00   9.3824463E+00   9.3824463E+00   9.4812088E+00   9.4812088E+00   9.4812088E+00   9.4812088E+00   9.4812088E+00   1.1950273E+01   1.2049035E+01   1.2147798E+01   1.2246560E+01   1.2246560E+01   1.2246560E+01   1.2345323E+01   1.2345323E+01   1.2345323E+01   1.5604486E+01   1.5802011E+01   1.5900773E+01   1.5900773E+01   1.5900773E+01   1.5900773E+01   1.5999536E+01   1.5999536E+01   1.5900773E+01   2.0345083E+01   2.0443846E+01   2.0542608E+01   2.0542608E+01   2.0542608E+01   2.0542608E+01   2.0542608E+01   2.0542608E+01   2.0542608E+01   2.6270828E+01   2.6369591E+01   2.6468353E+01   2.6369591E+01   2.6369591E+01   2.6369591E+01   2.6369591E+01   2.6270828E+01   2.6270828E+01   3.3480480E+01   3.3579243E+01   3.3480480E+01   3.3480480E+01   3.3480480E+01   3.3579243E+01   3.3480480E+01   3.3480480E+01   3.3480480E+01   4.2862888E+01   4.2764126E+01   4.2665363E+01   4.2566601E+01   4.2665363E+01   4.2566601E+01   4.2665363E+01   4.2665363E+01   4.2665363E+01   5.3726715E+01   5.3726715E+01   5.3627953E+01   5.3529190E+01   5.3627953E+01   5.3529190E+01   5.3726715E+01   5.3627953E+01   5.3627953E+01   6.6269463E+01   6.6368225E+01   6.6269463E+01   6.6269463E+01   6.6368225E+01   6.6368225E+01   6.6565750E+01   6.6664513E+01   6.6960800E+01   8.2071312E+01   8.2565125E+01   8.2663887E+01   8.2861412E+01   8.3058937E+01   8.3157700E+01   8.3552742E+01   8.3750267E+01   8.4046555E+01   1.0370002E+02   1.0508269E+02   1.0597154E+02   1.0646535E+02   1.0686040E+02   1.0735421E+02   1.0784802E+02   1.0824306E+02   1.0853935E+02   1.4429082E+02   1.4784624E+02   1.5021652E+02   1.5150043E+02   1.5238928E+02   1.5317937E+02   1.5406822E+02   1.5456204E+02   1.5505585E+02   2.4127397E+02   2.4887860E+02   2.5371791E+02   2.5658200E+02   2.5845847E+02   2.5984113E+02   2.6102625E+02   2.6201385E+02   2.6260641E+02   4.8926151E+02   5.0318680E+02   5.1247034E+02   5.1780341E+02   5.2116125E+02   5.2343280E+02   5.2530927E+02   5.2679065E+02   5.2767950E+02   1.0737219E+03   1.0963381E+03   1.1119423E+03   1.1212257E+03   1.1265587E+03   1.1303116E+03   1.1331757E+03   1.1352496E+03   1.1365336E+03   2.1638203E+03   2.1973987E+03   2.2208047E+03   2.2350259E+03   2.2434204E+03   2.2489509E+03   2.2529014E+03   2.2556667E+03   2.2575432E+03   3.5353530E+03   3.5807817E+03   3.6129771E+03   3.6327288E+03   3.6444810E+03   3.6520854E+03   3.6575171E+03   3.6613687E+03   3.6638376E+03   4.6070093E+03   4.6639922E+03   4.7048774E+03   4.7301592E+03   4.7454668E+03   4.7552437E+03   4.7620576E+03   4.7669956E+03   4.7699585E+03   5.1622153E+03   5.2291709E+03   5.2773633E+03   5.3075825E+03   5.3260493E+03   5.3377026E+03   5.3460967E+03   5.3519233E+03   5.3555771E+03   5.3822910E+03   5.4565522E+03   5.5103726E+03   5.5444419E+03   5.5650811E+03   5.5784126E+03   5.5878931E+03   5.5947065E+03   5.5987554E+03   5.4611899E+03   5.5403862E+03   5.5979565E+03   5.6344937E+03   5.6568105E+03   5.6712280E+03   5.6813989E+03   5.6887065E+03   5.6932490E+03   5.4958730E+03   5.5778301E+03   5.6374712E+03   5.6751909E+03   5.6983960E+03   5.7135034E+03   5.7241680E+03   5.7318701E+03   5.7366099E+03   5.5201875E+03   5.6031265E+03   5.6633560E+03   5.7016660E+03   5.7250669E+03   5.7404697E+03   5.7514297E+03   5.7592295E+03   5.7641665E+03   5.5394312E+03   5.6221650E+03   5.6822905E+03   5.7203994E+03   5.7436992E+03   5.7590020E+03   5.7699609E+03   5.7779580E+03   5.7827954E+03   5.5511904E+03   5.6328286E+03   5.6921567E+03   5.7295698E+03   5.7526694E+03   5.7677729E+03   5.7786318E+03   5.7864307E+03   5.7912676E+03   5.4733853E+03   5.5533320E+03   5.6109727E+03   5.6475903E+03   5.6699951E+03   5.6847012E+03   5.6952622E+03   5.7030596E+03   5.7077969E+03   5.3046099E+03   5.3818740E+03   5.4377256E+03   5.4731509E+03   5.4947612E+03   5.5089707E+03   5.5191348E+03   5.5266343E+03   5.5311733E+03   5.0579717E+03   5.1319585E+03   5.1853271E+03   5.2191631E+03   5.2398794E+03   5.2533940E+03   5.2631602E+03   5.2702627E+03   5.2746035E+03   4.7487568E+03   4.8188667E+03   4.8694526E+03   4.9012046E+03   4.9207285E+03   4.9334492E+03   4.9426196E+03   4.9492266E+03   4.9533677E+03   4.3933364E+03   4.4589731E+03   4.5060820E+03   4.5355493E+03   4.5535850E+03   4.5653135E+03   4.5737891E+03   4.5798008E+03   4.5836445E+03   4.0073030E+03   4.0679678E+03   4.1112012E+03   4.1381851E+03   4.1546313E+03   4.1651689E+03   4.1728506E+03   4.1782671E+03   4.1817139E+03   3.6060559E+03   3.6615447E+03   3.7008979E+03   3.7251003E+03   3.7397595E+03   3.7492051E+03   3.7558950E+03   3.7607158E+03   3.7637659E+03   3.2037178E+03   3.2542197E+03   3.2897871E+03   3.3115010E+03   3.3244702E+03   3.3328220E+03   3.3387170E+03   3.3428438E+03   3.3454966E+03   2.8136179E+03   2.8594197E+03   2.8915889E+03   2.9112043E+03   2.9226792E+03   2.9300352E+03   2.9352332E+03   2.9388621E+03   2.9411179E+03   2.4468062E+03   2.4883889E+03   2.5176436E+03   2.5355483E+03   2.5461155E+03   2.5526707E+03   2.5572693E+03   2.5604001E+03   2.5623569E+03   2.1109639E+03   2.1486094E+03   2.1757219E+03   2.1926919E+03   2.2027371E+03   2.2088816E+03   2.2129775E+03   2.2157085E+03   2.2174639E+03   1.8118566E+03   1.8457479E+03   1.8710934E+03   1.8876992E+03   1.8977988E+03   1.9037224E+03   1.9076068E+03   1.9102289E+03   1.9116855E+03   1.5515637E+03   1.5813033E+03   1.6052496E+03   1.6218575E+03   1.6323823E+03   1.6387551E+03   1.6427140E+03   1.6452244E+03   1.6466729E+03   1.3296509E+03   1.3549507E+03   1.3769919E+03   1.3938584E+03   1.4053583E+03   1.4127374E+03   1.4171456E+03   1.4199248E+03   1.4212665E+03   1.1443271E+03   1.1649181E+03   1.1845599E+03   1.2010703E+03   1.2135956E+03   1.2221355E+03   1.2274492E+03   1.2306753E+03   1.2323834E+03   9.9206964E+02   1.0079009E+03   1.0243875E+03   1.0397499E+03   1.0525831E+03   1.0621377E+03   1.0686012E+03   1.0727228E+03   1.0748773E+03   8.6842615E+02   8.8068079E+02   8.9357990E+02   9.0657086E+02   9.1854816E+02   9.2813007E+02   9.3540851E+02   9.4029150E+02   9.4305554E+02   7.6665302E+02   7.7811218E+02   7.8803711E+02   7.9805188E+02   8.0779572E+02   8.1636652E+02   8.2331329E+02   8.2827533E+02   8.3134265E+02   6.7894513E+02   6.9292181E+02   7.0276733E+02   7.1059088E+02   7.1753497E+02   7.2403931E+02   7.2966455E+02   7.3397137E+02   7.3669604E+02   6.0119562E+02   6.1635327E+02   6.2904199E+02   6.3815436E+02   6.4420111E+02   6.4871466E+02   6.5246167E+02   6.5544196E+02   6.5740045E+02   5.4035455E+02   5.4986884E+02   5.6069568E+02   5.7111279E+02   5.7915161E+02   5.8481189E+02   5.8842145E+02   5.9071838E+02   5.9219495E+02   5.0289587E+02   5.0596054E+02   5.1114685E+02   5.1759052E+02   5.2356281E+02   5.2788501E+02   5.3071411E+02   5.3212872E+02   4.7180750E+02   4.7113333E+02   4.7225787E+02   4.7345731E+02   4.7413205E+02   4.7450693E+02   4.4764474E+02   4.4572000E+02   4.4343893E+02   4.4194202E+02   9.8762624E-02   9.8762624E-02   9.8762624E-02   9.8762624E-02   9.8762624E-02   9.8762624E-02   9.8762624E-02   9.8762624E-02   9.8762624E-02   9.8762624E-02   9.8762624E-02   9.8762624E-02   9.8762624E-02   9.8762624E-02   9.8762624E-02   9.8762624E-02   9.8762624E-02   9.8762624E-02   9.8762624E-02   9.8762624E-02   9.8762624E-02   9.8762624E-02   9.8762624E-02   9.8762624E-02   9.8762624E-02   9.8762624E-02   9.8762624E-02   9.8762624E-02   9.8762624E-02   9.8762624E-02   9.8762624E-02   9.8762624E-02   1.9752525E-01   1.9752525E-01   1.9752525E-01   1.9752525E-01   1.9752525E-01   1.9752525E-01   1.9752525E-01   1.9752525E-01   2.9628786E-01   2.9628786E-01   2.9628786E-01   2.9628786E-01   2.9628786E-01   2.9628786E-01   2.9628786E-01   2.9628786E-01   3.9505050E-01   3.9505050E-01   3.9505050E-01   3.9505050E-01   3.9505050E-01   3.9505050E-01   3.9505050E-01   3.9505050E-01   4.9381313E-01   4.9381313E-01   4.9381313E-01   4.9381313E-01   4.9381313E-01   4.9381313E-01   4.9381313E-01   4.9381313E-01   6.9133836E-01   6.9133836E-01   6.9133836E-01   6.9133836E-01   6.9133836E-01   6.9133836E-01   6.9133836E-01   6.9133836E-01   8.8886362E-01   8.8886362E-01   8.8886362E-01   8.8886362E-01   8.8886362E-01   8.8886362E-01   8.8886362E-01   8.8886362E-01   1.2839141E+00   1.2839141E+00   1.2839141E+00   1.2839141E+00   1.2839141E+00   1.2839141E+00   1.2839141E+00   1.2839141E+00   1.6789646E+00   1.6789646E+00   1.6789646E+00   1.6789646E+00   1.5802020E+00   1.5802020E+00   1.5802020E+00   1.5802020E+00   2.2715404E+00   2.2715404E+00   2.2715404E+00   2.2715404E+00   2.2715404E+00   2.2715404E+00   2.1727777E+00   2.1727777E+00   3.1604037E+00   3.1604037E+00   3.1604037E+00   3.1604037E+00   3.0616412E+00   3.0616412E+00   3.0616412E+00   3.0616412E+00   4.0492673E+00   4.0492673E+00   4.0492673E+00   4.0492673E+00   4.0492673E+00   4.0492673E+00   4.0492673E+00   4.0492673E+00   5.4319429E+00   5.4319429E+00   5.4319429E+00   5.4319429E+00   5.4319429E+00   5.4319429E+00   5.3331804E+00   5.3331804E+00   7.1109076E+00   7.1109076E+00   7.1109076E+00   7.1109076E+00   7.1109076E+00   7.1109076E+00   7.1109076E+00   7.0121446E+00   9.4812088E+00   9.4812088E+00   9.4812088E+00   9.4812088E+00   9.4812088E+00   9.4812088E+00   9.3824463E+00   9.3824463E+00   1.2345323E+01   1.2345323E+01   1.2345323E+01   1.2345323E+01   1.2246560E+01   1.2246560E+01   1.2246560E+01   1.2147798E+01   1.5900773E+01   1.5900773E+01   1.5999536E+01   1.5999536E+01   1.5900773E+01   1.5900773E+01   1.5900773E+01   1.5900773E+01   2.0542608E+01   2.0542608E+01   2.0542608E+01   2.0542608E+01   2.0542608E+01   2.0542608E+01   2.0542608E+01   2.0542608E+01   2.6270828E+01   2.6270828E+01   2.6270828E+01   2.6369591E+01   2.6369591E+01   2.6369591E+01   2.6369591E+01   2.6468353E+01   3.3480480E+01   3.3480480E+01   3.3480480E+01   3.3480480E+01   3.3579243E+01   3.3480480E+01   3.3480480E+01   3.3480480E+01   4.2665363E+01   4.2665363E+01   4.2665363E+01   4.2665363E+01   4.2566601E+01   4.2665363E+01   4.2566601E+01   4.2665363E+01   5.3726715E+01   5.3627953E+01   5.3627953E+01   5.3726715E+01   5.3529190E+01   5.3627953E+01   5.3529190E+01   5.3627953E+01   6.6960800E+01   6.6960800E+01   6.6664513E+01   6.6565750E+01   6.6368225E+01   6.6368225E+01   6.6269463E+01   6.6269463E+01   8.4046555E+01   8.4046555E+01   8.3750267E+01   8.3552742E+01   8.3157700E+01   8.3058937E+01   8.2861412E+01   8.2663887E+01   1.0863811E+02   1.0853935E+02   1.0824306E+02   1.0784802E+02   1.0735421E+02   1.0686040E+02   1.0646535E+02   1.0597154E+02   1.5515460E+02   1.5505585E+02   1.5456204E+02   1.5406822E+02   1.5317937E+02   1.5238928E+02   1.5150043E+02   1.5021652E+02   2.6280396E+02   2.6260641E+02   2.6201385E+02   2.6102625E+02   2.5984113E+02   2.5845847E+02   2.5658200E+02   2.5371791E+02   5.2797577E+02   5.2767950E+02   5.2679065E+02   5.2530927E+02   5.2343280E+02   5.2116125E+02   5.1780341E+02   5.1247034E+02   1.1369286E+03   1.1365336E+03   1.1352496E+03   1.1331757E+03   1.1303116E+03   1.1265587E+03   1.1212257E+03   1.1119423E+03   2.2581357E+03   2.2575432E+03   2.2556667E+03   2.2529014E+03   2.2489509E+03   2.2434204E+03   2.2350259E+03   2.2208047E+03   3.6646277E+03   3.6638376E+03   3.6613687E+03   3.6575171E+03   3.6520854E+03   3.6444810E+03   3.6327288E+03   3.6129771E+03   4.7711436E+03   4.7699585E+03   4.7669956E+03   4.7620576E+03   4.7552437E+03   4.7454668E+03   4.7301592E+03   4.7048774E+03   5.3567622E+03   5.3555771E+03   5.3519233E+03   5.3460967E+03   5.3377026E+03   5.3260493E+03   5.3075825E+03   5.2773633E+03   5.6002368E+03   5.5987554E+03   5.5947065E+03   5.5878931E+03   5.5784126E+03   5.5650811E+03   5.5444419E+03   5.5103726E+03   5.6948291E+03   5.6932490E+03   5.6887065E+03   5.6813989E+03   5.6712280E+03   5.6568105E+03   5.6344937E+03   5.5979565E+03   5.7382881E+03   5.7366099E+03   5.7318701E+03   5.7241680E+03   5.7135034E+03   5.6983960E+03   5.6751909E+03   5.6374712E+03   5.7657461E+03   5.7641665E+03   5.7592295E+03   5.7514297E+03   5.7404697E+03   5.7250669E+03   5.7016660E+03   5.6633560E+03   5.7845728E+03   5.7827954E+03   5.7779580E+03   5.7699609E+03   5.7590020E+03   5.7436992E+03   5.7203994E+03   5.6822905E+03   5.7929458E+03   5.7912676E+03   5.7864307E+03   5.7786318E+03   5.7677729E+03   5.7526694E+03   5.7295698E+03   5.6921567E+03   5.7093760E+03   5.7077969E+03   5.7030596E+03   5.6952622E+03   5.6847012E+03   5.6699951E+03   5.6475903E+03   5.6109727E+03   5.5327520E+03   5.5311733E+03   5.5266343E+03   5.5191348E+03   5.5089707E+03   5.4947612E+03   5.4731509E+03   5.4377256E+03   5.2761816E+03   5.2746035E+03   5.2702627E+03   5.2631602E+03   5.2533940E+03   5.2398794E+03   5.2191631E+03   5.1853271E+03   4.9547485E+03   4.9533677E+03   4.9492266E+03   4.9426196E+03   4.9334492E+03   4.9207285E+03   4.9012046E+03   4.8694526E+03   4.5849258E+03   4.5836445E+03   4.5798008E+03   4.5737891E+03   4.5653135E+03   4.5535850E+03   4.5355493E+03   4.5060820E+03   4.1828955E+03   4.1817139E+03   4.1782671E+03   4.1728506E+03   4.1651689E+03   4.1546313E+03   4.1381851E+03   4.1112012E+03   3.7647495E+03   3.7637659E+03   3.7607158E+03   3.7558950E+03   3.7492051E+03   3.7397595E+03   3.7251003E+03   3.7008979E+03   3.3464790E+03   3.3454966E+03   3.3428438E+03   3.3387170E+03   3.3328220E+03   3.3244702E+03   3.3115010E+03   3.2897871E+03   2.9419026E+03   2.9411179E+03   2.9388621E+03   2.9352332E+03   2.9300352E+03   2.9226792E+03   2.9112043E+03   2.8915889E+03   2.5630420E+03   2.5623569E+03   2.5604001E+03   2.5572693E+03   2.5526707E+03   2.5461155E+03   2.5355483E+03   2.5176436E+03   2.2180491E+03   2.2174639E+03   2.2157085E+03   2.2129775E+03   2.2088816E+03   2.2027371E+03   2.1926919E+03   2.1757219E+03   1.9122682E+03   1.9116855E+03   1.9102289E+03   1.9076068E+03   1.9037224E+03   1.8977988E+03   1.8876992E+03   1.8710934E+03   1.6471556E+03   1.6466729E+03   1.6452244E+03   1.6427140E+03   1.6387551E+03   1.6323823E+03   1.6218575E+03   1.6052496E+03   1.4217456E+03   1.4212665E+03   1.4199248E+03   1.4171456E+03   1.4127374E+03   1.4053583E+03   1.3938584E+03   1.3769919E+03   1.2329528E+03   1.2323834E+03   1.2306753E+03   1.2274492E+03   1.2221355E+03   1.2135956E+03   1.2010703E+03   1.1845599E+03   1.0756267E+03   1.0748773E+03   1.0727228E+03   1.0686012E+03   1.0621377E+03   1.0525831E+03   1.0397499E+03   1.0243875E+03   9.4388470E+02   9.4305554E+02   9.4029150E+02   9.3540851E+02   9.2813007E+02   9.1854816E+02   9.0657086E+02   8.9357990E+02   8.3233514E+02   8.3134265E+02   8.2827533E+02   8.2331329E+02   8.1636652E+02   8.0779572E+02   7.9805188E+02   7.8803711E+02   7.3766284E+02   7.3669604E+02   7.3397137E+02   7.2966455E+02   7.2403931E+02   7.1753497E+02   7.1059088E+02   7.0276733E+02   6.5816681E+02   6.5740045E+02   6.5544196E+02   6.5246167E+02   6.4871466E+02   6.4420111E+02   6.3815436E+02   6.2904199E+02   5.9276910E+02   5.9219495E+02   5.9071838E+02   5.8842145E+02   5.8481189E+02   5.7915161E+02   5.7111279E+02   5.6069568E+02   5.3267883E+02   5.3212872E+02   5.3071411E+02   5.2788501E+02   5.2356281E+02   5.1759052E+02   5.1114685E+02   5.0596054E+02   4.7458197E+02   4.7450693E+02   4.7413205E+02   4.7345731E+02   4.7225787E+02   4.7113333E+02   4.7180750E+02   4.4137177E+02   4.4194202E+02   4.4343893E+02   4.4572000E+02   4.4764474E+02   9.8762624E-02   9.8762624E-02   0.0000000E+00   0.0000000E+00   0.0000000E+00   0.0000000E+00   0.0000000E+00   9.8762624E-02   9.8762624E-02   9.8762624E-02   9.8762624E-02   9.8762624E-02   9.8762624E-02   0.0000000E+00   0.0000000E+00   9.8762624E-02   9.8762624E-02   9.8762624E-02   9.8762624E-02   9.8762624E-02   9.8762624E-02   9.8762624E-02   0.0000000E+00   9.8762624E-02   9.8762624E-02   9.8762624E-02   9.8762624E-02   9.8762624E-02   9.8762624E-02   9.8762624E-02   9.8762624E-02   1.9752525E-01   1.9752525E-01   1.9752525E-01   1.9752525E-01   9.8762624E-02   9.8762624E-02   9.8762624E-02   9.8762624E-02   2.9628786E-01   1.9752525E-01   1.9752525E-01   1.9752525E-01   1.9752525E-01   1.9752525E-01   1.9752525E-01   9.8762624E-02   2.9628786E-01   2.9628786E-01   2.9628786E-01   2.9628786E-01   2.9628786E-01   2.9628786E-01   1.9752525E-01   1.9752525E-01   4.9381313E-01   3.9505050E-01   3.9505050E-01   3.9505050E-01   3.9505050E-01   3.9505050E-01   2.9628786E-01   2.9628786E-01   6.9133836E-01   5.9257573E-01   5.9257573E-01   5.9257573E-01   5.9257573E-01   4.9381313E-01   4.9381313E-01   3.9505050E-01   7.9010099E-01   7.9010099E-01   7.9010099E-01   7.9010099E-01   7.9010099E-01   7.9010099E-01   6.9133836E-01   6.9133836E-01   1.1851515E+00   1.1851515E+00   1.0863888E+00   9.8762625E-01   9.8762625E-01   9.8762625E-01   9.8762625E-01   9.8762625E-01   1.5802020E+00   1.5802020E+00   1.4814394E+00   1.4814394E+00   1.4814394E+00   1.4814394E+00   1.4814394E+00   1.4814394E+00   2.1727777E+00   2.1727777E+00   1.9752525E+00   1.9752525E+00   1.9752525E+00   1.9752525E+00   1.9752525E+00   1.7777272E+00   2.9628785E+00   2.9628785E+00   2.8641160E+00   2.6665907E+00   2.5678279E+00   2.5678279E+00   2.5678279E+00   2.3703027E+00   3.9505048E+00   3.8517420E+00   3.7529795E+00   3.6542168E+00   3.4566915E+00   3.4566915E+00   3.3579290E+00   3.1604037E+00   5.1356554E+00   5.1356554E+00   4.9381299E+00   4.8393674E+00   4.7406049E+00   4.6418424E+00   4.4443169E+00   4.2467918E+00   6.9133821E+00   6.9133821E+00   6.7158570E+00   6.5183315E+00   6.3208065E+00   6.1232815E+00   6.0245185E+00   5.8269935E+00   9.2836838E+00   9.0861588E+00   8.8886337E+00   8.6911087E+00   8.4935827E+00   8.2960577E+00   8.1972952E+00   7.9997702E+00   1.2049035E+01   1.1950273E+01   1.1653984E+01   1.1456459E+01   1.1258934E+01   1.1061409E+01   1.0863884E+01   1.0666359E+01   1.5802011E+01   1.5604486E+01   1.5308197E+01   1.5110672E+01   1.4913147E+01   1.4616859E+01   1.4419334E+01   1.4123047E+01   2.0443846E+01   2.0345083E+01   2.0048796E+01   1.9752508E+01   1.9554983E+01   1.9456221E+01   1.9258696E+01   1.8666121E+01   2.6369591E+01   2.6270828E+01   2.5974541E+01   2.5875778E+01   2.5678253E+01   2.5777016E+01   2.5579491E+01   2.4888153E+01   3.3579243E+01   3.3480480E+01   3.3282955E+01   3.3282955E+01   3.3381718E+01   3.3776768E+01   3.3776768E+01   3.2887905E+01   4.2764126E+01   4.2862888E+01   4.2566601E+01   4.2764126E+01   4.3257938E+01   4.4048038E+01   4.4640614E+01   4.3554226E+01   5.3726715E+01   5.3726715E+01   5.3825478E+01   5.4022999E+01   5.4911861E+01   5.6788345E+01   5.8467304E+01   5.7183395E+01   6.6368225E+01   6.6269463E+01   6.6269463E+01   6.6565750E+01   6.7948425E+01   7.1306343E+01   7.4664253E+01   7.3874161E+01   8.2565125E+01   8.2071312E+01   8.1676262E+01   8.1478737E+01   8.3058937E+01   8.8194565E+01   9.5009148E+01   9.5206673E+01   1.0508269E+02   1.0370002E+02   1.0182354E+02   1.0044088E+02   1.0172478E+02   1.0883564E+02   1.2029202E+02   1.2335365E+02   1.4784624E+02   1.4429082E+02   1.3964902E+02   1.3569856E+02   1.3540227E+02   1.4379701E+02   1.6108031E+02   1.6878372E+02   2.4887860E+02   2.4127397E+02   2.3169412E+02   2.2280560E+02   2.1964525E+02   2.2853377E+02   2.4956993E+02   2.6359406E+02   5.0318680E+02   4.8926151E+02   4.7217587E+02   4.5588034E+02   4.4758441E+02   4.5499149E+02   4.7365729E+02   4.9163177E+02   1.0963381E+03   1.0737219E+03   1.0461678E+03   1.0199964E+03   1.0031083E+03   9.9965173E+02   1.0035034E+03   1.0189100E+03   2.1973987E+03   2.1638203E+03   2.1239216E+03   2.0846152E+03   2.0530122E+03   2.0240757E+03   1.9902012E+03   1.9954354E+03   3.5807817E+03   3.5353530E+03   3.4816284E+03   3.4280024E+03   3.3774382E+03   3.3109739E+03   3.2248564E+03   3.2176472E+03   4.6639922E+03   4.6070093E+03   4.5403486E+03   4.4731938E+03   4.4055454E+03   4.3079736E+03   4.1804785E+03   4.1707017E+03   5.2291709E+03   5.1622153E+03   5.0846924E+03   5.0067749E+03   4.9281660E+03   4.8146968E+03   4.6717983E+03   4.6720947E+03   5.4565522E+03   5.3822910E+03   5.2965737E+03   5.2115483E+03   5.1279053E+03   5.0114761E+03   4.8706558E+03   4.8820122E+03   5.5403862E+03   5.4611899E+03   5.3701436E+03   5.2806772E+03   5.1954575E+03   5.0816006E+03   4.9475986E+03   4.9691260E+03   5.5778301E+03   5.4958730E+03   5.4019678E+03   5.3101362E+03   5.2244268E+03   5.1138340E+03   4.9866523E+03   5.0152876E+03   5.6031265E+03   5.5201875E+03   5.4250049E+03   5.3322910E+03   5.2467847E+03   5.1386680E+03   5.0156416E+03   5.0480273E+03   5.6221650E+03   5.5394312E+03   5.4443560E+03   5.3517490E+03   5.2668433E+03   5.1600195E+03   5.0382876E+03   5.0712627E+03   5.6328286E+03   5.5511904E+03   5.4573115E+03   5.3658018E+03   5.2814985E+03   5.1743916E+03   5.0512930E+03   5.0822900E+03   5.5533320E+03   5.4733853E+03   5.3814961E+03   5.2918770E+03   5.2089692E+03   5.1031631E+03   4.9809731E+03   5.0099907E+03   5.3818740E+03   5.3046099E+03   5.2156025E+03   5.1286675E+03   5.0482451E+03   4.9455220E+03   4.8266157E+03   4.8540479E+03   5.1319585E+03   5.0579717E+03   4.9725430E+03   4.8890869E+03   4.8119443E+03   4.7137896E+03   4.6003442E+03   4.6265850E+03   4.8188667E+03   4.7487568E+03   4.6677012E+03   4.5882227E+03   4.5149570E+03   4.4227588E+03   4.3165581E+03   4.3412100E+03   4.4589731E+03   4.3933364E+03   4.3171543E+03   4.2422529E+03   4.1732651E+03   4.0876216E+03   3.9900532E+03   4.0127207E+03   4.0679678E+03   4.0073030E+03   3.9364951E+03   3.8664749E+03   3.8021660E+03   3.7236763E+03   3.6349446E+03   3.6550349E+03   3.6615447E+03   3.6060559E+03   3.5408276E+03   3.4758940E+03   3.4163721E+03   3.3449453E+03   3.2646641E+03   3.2820781E+03   3.2542197E+03   3.2037178E+03   3.1440784E+03   3.0843403E+03   3.0297119E+03   2.9652581E+03   2.8933374E+03   2.9081736E+03   2.8594197E+03   2.8136179E+03   2.7591848E+03   2.7047522E+03   2.6547332E+03   2.5968674E+03   2.5338042E+03   2.5470444E+03   2.4883889E+03   2.4468062E+03   2.3975920E+03   2.3484753E+03   2.3031743E+03   2.2514160E+03   2.1976033E+03   2.2108115E+03   2.1486094E+03   2.1109639E+03   2.0671741E+03   2.0236766E+03   1.9832024E+03   1.9371692E+03   1.8928914E+03   1.9065442E+03   1.8457479E+03   1.8118566E+03   1.7738865E+03   1.7363047E+03   1.7006649E+03   1.6591011E+03   1.6240436E+03   1.6369579E+03   1.5813033E+03   1.5515637E+03   1.5195065E+03   1.4885110E+03   1.4568394E+03   1.4186012E+03   1.3918534E+03   1.4024728E+03   1.3549507E+03   1.3296509E+03   1.3038716E+03   1.2786671E+03   1.2500121E+03   1.2157026E+03   1.1976844E+03   1.1649181E+03   1.1443271E+03   1.1244000E+03   1.1034288E+03   1.0760996E+03   1.0483907E+03   1.0407976E+03   1.0079009E+03   9.9206964E+02   9.7642529E+02   9.5684613E+02   9.3145911E+02   9.1309735E+02   8.8068079E+02   8.6842615E+02   8.5405194E+02   8.3378088E+02   8.1231207E+02   8.0355756E+02   7.7811218E+02   7.6665302E+02   7.5050214E+02   7.3011115E+02   7.1504309E+02   6.9292181E+02   6.7894513E+02   6.6127710E+02   6.4440051E+02   6.1635327E+02   6.0119562E+02   5.8688989E+02   5.7599030E+02   5.4986884E+02   5.4035455E+02   5.0289587E+02 
Type 1 2975 float
0 0 0 0 0 0 0 0 0 0 0 0 0 0 0 0 0 0 0 0 0 0 0 0 0 0 0 0 0 0 0 0 0 0 0 0 0 0 0 0 0 0 0 0 0 0 0 0 0 0 0 0 0 0 0 0 0 0 0 0 0 0 0 0 0 0 0 0 0 0 0 0 0 0 0 0 0 0 0 0 0 0 0 0 0 0 0 0 0 0 0 0 0 0 0 0 0 0 0 0 0 0 0 0 0 0 0 0 0 0 0 0 0 0 0 0 0 0 0 0 0 0 0 0 0 0 0 0 0 0 0 0 0 0 0 0 0 0 0 0 0 0 0 0 0 0 0 0 0 0 0 0 0 0 0 0 0 0 0 0 0 0 0 0 0 0 0 0 0 0 0 0 0 0 0 0 0 0 0 0 0 0 0 0 0 0 0 0 0 0 0 0 0 0 0 0 0 0 0 0 0 0 0 0 0 0 0 0 0 0 0 0 0 0 0 0 0 0 0 0 0 0 0 0 0 0 0 0 0 0 0 0 0 0 0 0 0 0 0 0 0 0 0 0 0 0 0 0 0 0 0 0 0 0 0 0 0 0 0 0 0 0 0 0 0 0 0 0 0 0 0 0 0 0 0 0 0 0 0 0 0 0 0 0 0 0 0 0 0 0 0 0 0 0 0 0 0 0 0 0 0 0 0 0 0 0 0 0 0 0 0 0 0 0 0 0 0 0 0 0 0 0 0 0 0 0 0 0 0 0 0 0 0 0 0 0 0 0 0 0 0 0 0 0 0 0 0 0 0 0 0 0 0 0 0 0 0 0 0 0 0 0 0 0 0 0 0 0 0 0 0 0 0 0 0 0 0 0 0 0 0 0 0 0 0 0 0 0 0 0 0 0 0 0 0 0 0 0 0 0 0 0 0 0 0 0 0 0 0 0 0 0 0 0 0 0 0 0 0 0 0 0 0 0 0 0 0 0 0 0 0 0 0 0 0 0 0 0 0 0 0 0 0 0 0 0 0 0 0 0 0 0 0 0 0 0 0 0 0 0 0 0 0 0 0 0 0 0 0 0 0 0 0 0 0 0 0 0 0 0 0 0 0 0 0 0 0 0 0 0 0 0 0 0 0 0 0 0 0 0 0 0 0 0 0 0 0 0 0 0 0 0 0 0 0 0 0 0 0 0 0 0 0 0 0 0 0 0 0 0 0 0 0 0 0 0 0 0 0 0 0 0 0 0 0 0 0 0 0 0 0 0 0 0 0 0 0 0 0 0 0 0 0 0 0 0 0 0 0 0 0 0 0 0 0 0 0 0 0 0 0 0 0 0 0 0 0 0 0 0 0 0 0 0 0 0 0 0 0 0 0 0 0 0 0 0 0 0 0 0 0 0 0 0 0 0 0 0 0 0 0 0 0 0 0 0 0 0 0 0 0 0 0 0 0 0 0 0 0 0 0 0 0 0 0 0 0 0 0 0 0 0 0 0 0 0 0 0 0 0 0 0 0 0 0 0 0 0 0 0 0 0 0 0 0 0 0 0 0 0 0 0 0 0 0 0 0 0 0 0 0 0 0 0 0 0 0 0 0 0 0 0 0 0 0 0 0 0 0 0 0 0 0 0 0 0 0 0 0 0 0 0 0 0 0 0 0 0 0 0 0 0 0 0 0 0 0 0 0 0 0 0 0 0 0 0 0 0 0 0 0 0 0 0 0 0 0 0 0 0 0 0 0 0 0 0 0 0 0 0 0 0 0 0 0 0 0 0 0 0 0 0 0 0 0 0 0 0 0 0 0 0 0 0 0 0 0 0 0 0 0 0 0 0 0 0 0 0 0 0 0 0 0 0 0 0 0 0 0 0 0 0 0 0 0 0 0 0 0 0 0 0 0 0 0 0 0 0 0 0 0 0 0 0 0 0 0 0 0 0 0 0 0 0 0 0 0 0 0 0 0 0 0 0 0 0 0 0 0 0 0 0 0 0 0 0 0 0 0 0 0 0 0 0 0 0 0 0 0 0 0 0 0 0 0 0 0 0 0 0 0 0 0 0 0 0 0 0 0 0 0 0 0 0 0 0 0 0 0 0 0 0 0 0 0 0 0 0 0 0 0 0 0 0 0 0 0 0 0 0 0 0 0 0 0 0 0 0 0 0 0 0 0 0 0 0 0 0 0 0 0 0 0 0 0 0 0 0 0 0 0 0 0 0 0 0 0 0 0 0 0 0 0 0 0 0 0 0 0 0 0 0 0 0 0 0 0 0 0 0 0 0 0 0 0 0 0 0 0 0 0 0 0 0 0 0 0 0 0 0 0 0 0 0 0 0 0 0 0 0 0 3 3 3 3 3 3 3 3 3 3 3 3 3 3 3 3 3 3 3 3 3 3 3 3 3 3 3 3 3 3 3 3 3 3 3 3 3 3 3 3 3 3 3 3 3 3 3 3 3 3 3 3 3 3 3 3 3 3 3 3 3 3 3 3 3 3 3 3 3 3 3 3 3 3 3 3 3 3 3 3 3 3 3 3 3 3 3 3 3 3 3 3 3 3 3 3 3 3 3 3 3 3 3 3 3 3 3 3 3 3 3 3 3 3 3 3 3 3 3 3 3 3 3 3 3 3 3 3 3 3 3 3 3 3 3 3 3 3 3 3 3 3 3 3 3 3 3 3 3 3 3 3 3 3 3 3 3 3 3 3 3 3 3 3 3 3 3 3 3 3 3 3 3 3 3 3 3 3 3 3 3 3 3 3 3 3 3 3 3 3 3 3 3 3 3 3 3 3 3 3 3 3 3 3 3 3 3 3 3 3 3 3 3 3 3 3 3 3 3 3 3 3 3 3 3 3 3 3 3 3 3 3 3 3 3 3 3 3 3 3 3 3 3 3 3 3 3 3 3 3 3 3 3 3 3 3 3 3 3 3 3 3 3 3 3 3 3 3 3 3 3 3 3 3 3 3 3 3 3 3 3 3 3 3 3 3 3 3 3 3 3 3 3 3 3 3 3 3 3 3 3 3 3 3 3 3 3 3 3 3 3 3 3 3 3 3 3 3 3 3 3 3 3 3 3 3 3 3 3 3 3 3 3 3 3 3 3 3 3 3 3 3 3 3 3 3 3 3 3 3 3 3 3 3 3 3 3 3 3 3 3 3 3 3 3 3 3 3 3 3 3 3 3 3 3 3 3 3 3 3 3 3 3 3 3 3 3 3 3 3 3 3 3 3 3 3 3 3 3 3 3 3 3 3 3 3 3 3 3 3 3 3 3 3 3 3 3 3 3 3 3 3 3 3 3 3 3 3 3 3 3 3 3 3 3 3 3 3 3 3 3 3 3 3 3 3 3 3 3 3 3 3 3 3 3 3 3 3 3 3 3 3 3 3 3 3 3 3 3 3 3 3 3 3 3 3 3 3 3 3 3 3 3 3 3 3 3 3 3 3 3 3 3 3 3 3 3 3 3 3 3 3 3 3 3 3 3 3 3 3 3 3 3 3 3 3 3 3 3 3 3 3 3 3 3 3 3 3 3 3 3 3 3 3 3 3 3 3 3 3 3 3 3 3 3 3 3 3 3 3 3 3 3 3 3 3 3 3 3 3 3 3 3 3 3 3 3 3 3 3 3 3 3 3 3 3 3 3 3 3 3 3 3 3 3 3 3 3 3 3 3 3 3 3 3 3 3 3 3 3 3 3 3 3 3 3 3 3 3 3 3 3 3 3 3 3 3 3 3 3 3 3 3 3 3 3 3 3 3 3 3 3 3 3 3 3 3 3 3 3 3 3 3 3 3 3 3 3 3 3 3 3 3 3 3 3 3 3 3 3 3 3 3 3 3 3 3 3 3 3 3 3 3 3 3 3 3 3 3 3 3 3 3 3 3 3 3 3 3 3 3 3 3 3 3 3 3 3 3 3 3 3 3 3 3 3 3 3 3 3 3 3 3 3 3 3 3 3 3 3 3 3 3 3 3 3 3 3 3 3 3 3 3 3 3 3 3 3 3 3 3 3 3 3 3 3 3 3 3 3 3 3 3 3 3 3 3 3 3 3 3 3 3 3 3 3 3 3 3 3 3 3 3 3 3 3 3 3 3 3 3 3 3 3 3 3 3 3 3 3 3 3 3 3 3 3 3 3 3 3 3 3 3 3 3 3 3 3 3 3 3 3 3 3 3 3 3 3 3 3 3 3 3 3 3 3 3 3 3 3 3 3 3 3 3 3 3 3 3 3 3 3 3 3 3 3 3 3 3 3 3 3 3 3 3 3 3 3 3 3 3 3 3 3 3 3 3 3 3 3 3 3 3 3 3 3 3 3 3 3 3 3 3 3 3 3 3 3 3 3 3 3 3 3 3 3 3 3 3 3 3 3 3 3 3 3 3 3 3 3 3 3 3 3 3 3 3 3 3 3 3 3 3 3 3 3 3 3 3 3 3 3 3 3 3 3 3 3 3 3 3 3 3 3 3 3 3 3 3 3 3 3 3 3 3 3 3 3 3 3 3 3 3 3 3 3 3 3 3 3 3 3 3 3 3 3 3 3 3 3 3 3 3 3 3 3 3 3 3 3 3 3 3 3 3 3 3 3 3 3 3 3 3 3 3 3 3 3 3 3 3 3 3 3 3 3 3 3 3 3 3 3 3 3 3 3 3 3 3 3 3 3 3 3 3 3 3 3 3 3 3 3 3 3 3 3 3 3 3 3 3 3 3 3 3 3 3 3 3 3 3 3 3 3 3 3 3 3 3 3 3 3 3 3 3 3 3 3 3 3 3 3 3 3 3 3 3 3 3 3 3 3 3 3 3 3 3 3 3 3 3 3 3 3 3 3 3 3 3 3 3 3 3 3 3 3 3 3 3 3 3 3 3 3 3 3 3 3 3 3 3 3 3 3 3 3 3 3 3 3 3 3 3 3 3 3 3 3 3 3 3 3 3 3 3 3 3 3 3 3 3 3 3 3 3 3 3 3 3 3 3 3 3 3 3 3 3 3 3 3 3 3 3 3 3 3 3 3 3 3 3 3 3 3 3 3 3 3 3 3 3 3 3 3 3 3 3 3 3 3 3 3 3 3 3 3 3 3 3 3 3 3 3 3 3 3 3 3 3 3 3 3 3 3 3 3 3 3 3 3 3 3 3 3 3 3 3 3 3 3 3 3 3 3 3 3 3 3 3 3 3 3 3 3 3 3 3 3 3 3 3 3 3 3 3 3 3 3 3 3 3 3 3 3 3 3 3 3 3 3 3 3 3 3 3 3 3 3 3 3 3 3 3 3 3 3 3 3 3 3 3 3 3 3 3 3 3 3 3 3 3 3 3 3 3 3 3 3 3 3 3 3 3 3 3 3 3 3 3 3 3 3 3 3 3 3 3 3 3 3 3 3 3 3 3 3 3 3 3 3 3 3 3 3 3 3 3 3 3 3 3 3 3 3 3 3 3 3 3 3 3 3 3 3 3 3 3 3 3 3 3 3 3 3 3 3 3 3 3 3 3 3 3 3 3 3 3 3 3 3 3 3 3 3 3 3 3 3 3 3 3 3 3 3 3 3 3 3 3 3 3 3 3 3 3 3 3 3 3 3 3 3 3 3 3 3 3 3 3 3 3 3 3 3 3 3 3 3 3 3 3 3 3 3 3 3 3 3 3 3 3 3 3 3 3 3 3 3 3 3 3 3 3 3 3 3 3 3 3 3 3 3 3 3 3 3 3 3 3 3 3 3 3 3 3 3 3 3 3 3 3 3 3 3 3 3 3 3 3 3 3 3 3 3 3 3 3 3 3 3 3 3 3 3 3 3 3 3 3 3 3 3 3 3 3 3 3 3 3 3 3 3 3 3 3 3 3 3 3 3 3 3 3 3 3 3 3 3 3 3 3 3 3 3 3 3 3 3 3 3 3 3 3 3 3 3 3 3 3 3 3 3 3 3 3 3 3 3 3 3 3 3 3 3 3 3 3 3 3 3 3 3 3 3 3 3 3 3 3 3 3 3 3 3 3 3 3 3 3 3 3 3 3 3 3 3 3 3 3 3 3 3 3 3 3 3 3 3 3 3 3 3 3 3 3 3 3 3 3 3 3 3 3 3 3 3 3 3 3 3 3 3 3 3 3 3 3 3 3 3 3 3 3 3 3 3 3 3 3 3 3 3 3 3 3 3 3 3 3 3 3 3 3 3 3 3 3 3 3 3 3 3 3 3 3 3 3 3 3 3 3 3 3 3 3 3 3 3 3 3 3 3 3 3 3 3 3 3 3 3 3 3 3 3 3 3 3 3 3 3 3 3 3 3 3 3 3 3 3 3 3 3 3 3 3 3 3 3 3 3 3 3 3 3 3 3 3 3 3 3 3 3 3 3 3 3 3 3 3 3 3 3 3 3 3 3 3 3 3 3 3 3 3 3 3 3 3 3 3 3 3 3 3 3 3 3 3 3 3 3 3 3 3 3 3 3 3 3 3 3 3 3 3 3 3 3 3 3 3 3 3 3 3 3 3 3 3 3 3 3 3 3 3 3 3 3 3 3 3 3 3 3 3 3 3 3 3 3 3 3 3 3 3 3 3 3 3 3 3 3 3 3 3 3 3 3 3 3 3 3 3 3 3 3 3 3 3 3 3 3 3 3 3 3 3 3 3 3 3 3 3 3 3 3 3 3 3 3 3 3 3 3 3 3 3 3 3 3 3 3 3 3 3 3 3 3 3 3 3 3 3 3 3 3 
CellOffSpring 1 2975 float
0 0 0 0 0 0 0 0 0 0 0 0 0 0 0 0 0 0 0 0 0 0 0 0 0 0 0 0 0 0 0 0 0 0 0 0 0 0 0 0 0 0 0 0 0 0 0 0 0 0 0 0 0 0 0 0 0 0 0 0 0 0 0 0 0 0 0 0 0 0 0 0 0 0 0 0 0 0 0 0 0 0 0 0 0 0 0 0 0 0 0 0 0 0 0 0 0 0 0 0 0 0 0 0 0 0 0 0 0 0 0 0 0 0 0 0 0 0 0 0 0 0 0 0 0 0 0 0 0 0 0 0 0 0 0 0 0 0 0 0 0 0 0 0 0 0 0 0 0 0 0 0 0 0 0 0 0 0 0 0 0 0 0 0 0 0 0 0 0 0 0 0 0 0 0 0 0 0 0 0 0 0 0 0 0 0 0 0 0 0 0 0 0 0 0 0 0 0 0 0 0 0 0 0 0 0 0 0 0 0 0 0 0 0 0 0 0 0 0 0 0 0 0 0 0 0 0 0 0 0 0 0 0 0 0 0 0 0 0 0 0 0 0 0 0 0 0 0 0 0 0 0 0 0 0 0 0 0 0 0 0 0 0 0 0 0 0 0 0 0 0 0 0 0 0 0 0 0 0 0 0 0 0 0 0 0 0 0 0 0 0 0 0 0 0 0 0 0 0 0 0 0 0 0 0 0 0 0 0 0 0 0 0 0 0 0 0 0 0 0 0 0 0 0 0 0 0 0 0 0 0 0 0 0 0 0 0 0 0 0 0 0 0 0 0 0 0 0 0 0 0 0 0 0 0 0 0 0 0 0 0 0 0 0 0 0 0 0 0 0 0 0 0 0 0 0 0 0 0 0 0 0 0 0 0 0 0 0 0 0 0 0 0 0 0 0 0 0 0 0 0 0 0 0 0 0 0 0 0 0 0 0 0 0 0 0 0 0 0 0 0 0 0 0 0 0 0 0 0 0 0 0 0 0 0 0 0 0 0 0 0 0 0 0 0 0 0 0 0 0 0 0 0 0 0 0 0 0 0 0 0 0 0 0 0 0 0 0 0 0 0 0 0 0 0 0 0 0 0 0 0 0 0 0 0 0 0 0 0 0 0 0 0 0 0 0 0 0 0 0 0 0 0 0 0 0 0 0 0 0 0 0 0 0 0 0 0 0 0 0 0 0 0 0 0 0 0 0 0 0 0 0 0 0 0 0 0 0 0 0 0 0 0 0 0 0 0 0 0 0 0 0 0 0 0 0 0 0 0 0 0 0 0 0 0 0 0 0 0 0 0 0 0 0 0 0 0 0 0 0 0 0 0 0 0 0 0 0 0 0 0 0 0 0 0 0 0 0 0 0 0 0 0 0 0 0 0 0 0 0 0 0 0 0 0 0 0 0 0 0 0 0 0 0 0 0 0 0 0 0 0 0 0 0 0 0 0 0 0 0 0 0 0 0 0 0 0 0 0 0 0 0 0 0 0 0 0 0 0 0 0 0 0 0 0 0 0 0 0 0 0 0 0 0 0 0 0 0 0 0 0 0 0 0 0 0 0 0 0 0 0 0 0 0 0 0 0 0 0 0 0 0 0 0 0 0 0 0 0 0 0 0 0 0 0 0 0 0 0 0 0 0 0 0 0 0 0 0 0 0 0 0 0 0 0 0 0 0 0 0 0 0 0 0 0 0 0 0 0 0 0 0 0 0 0 0 0 0 0 0 0 0 0 0 0 0 0 0 0 0 0 0 0 0 0 0 0 0 0 0 0 0 0 0 0 0 0 0 0 0 0 0 0 0 0 0 0 0 0 0 0 0 0 0 0 0 0 0 0 0 0 0 0 0 0 0 0 0 0 0 0 0 0 0 0 0 0 0 0 0 0 0 0 0 0 0 0 0 0 0 0 0 0 0 0 0 0 0 0 0 0 0 0 0 0 0 0 0 0 0 0 0 0 0 0 0 0 0 0 0 0 0 0 0 0 0 0 0 0 0 0 0 0 0 0 0 0 0 0 0 0 0 0 0 0 0 0 0 0 0 0 0 0 0 0 0 0 0 0 0 0 0 0 0 0 0 0 0 0 0 0 0 0 0 0 0 0 0 0 0 0 0 0 0 0 0 0 0 0 0 0 0 0 0 0 0 0 0 0 0 0 0 0 0 0 0 0 0 0 0 0 0 0 0 0 0 0 0 0 0 0 0 0 0 0 0 0 0 0 0 0 0 0 0 0 0 0 0 0 0 0 0 0 0 0 0 0 0 0 0 0 0 0 0 0 0 0 0 0 0 0 0 0 0 0 0 0 0 0 0 0 0 0 0 0 0 0 0 0 0 0 0 0 0 0 0 0 0 0 0 0 0 0 0 0 0 0 0 0 0 0 0 0 0 0 0 0 0 0 0 0 0 0 0 0 0 0 0 0 0 0 0 0 0 0 0 0 0 0 0 0 0 0 0 0 0 0 0 0 0 0 0 0 0 0 0 0 0 0 0 0 0 0 0 0 0 0 0 0 0 0 0 0 0 0 0 0 0 0 0 0 0 0 0 0 0 0 0 0 0 0 0 0 0 0 0 0 0 0 0 0 0 0 0 0 0 0 0 0 0 0 0 0 0 0 0 0 0 0 0 0 0 0 0 0 0 0 0 0 0 0 0 0 0 0 0 0 0 0 0 0 0 0 0 0 0 0 0 0 0 0 0 0 0 0 0 0 0 0 0 0 0 0 0 0 0 0 0 0 0 0 0 0 0 0 0 0 0 0 0 0 0 0 0 0 0 0 0 0 0 0 0 0 0 0 0 0 0 0 0 0 0 0 0 0 0 0 0 0 0 0 0 0 0 0 0 0 0 0 0 0 0 0 0 0 0 0 0 0 0 0 0 0 0 0 0 0 0 0 0 0 0 0 0 0 0 0 0 0 0 0 0 0 0 0 0 0 0 0 0 0 0 0 0 0 0 0 0 0 0 0 0 0 0 0 0 0 0 0 0 0 0 0 0 0 0 0 0 0 0 0 0 0 0 0 0 0 0 0 0 0 0 0 0 0 0 0 0 0 0 0 0 0 0 0 0 0 0 0 0 0 0 0 0 0 0 0 0 0 0 0 0 0 0 0 0 0 0 0 0 0 0 0 0 0 0 0 0 0 0 0 0 0 0 0 0 0 0 0 0 0 0 0 0 0 0 0 0 0 0 0 0 0 0 0 0 0 0 0 0 0 0 0 0 0 0 0 0 0 0 0 0 0 0 0 0 0 0 0 0 0 0 0 0 0 0 0 0 0 0 0 0 0 0 0 0 0 0 0 0 0 0 0 0 0 0 0 0 0 0 0 0 0 0 0 0 0 0 0 0 0 0 0 0 0 0 0 0 0 0 0 0 0 0 0 0 0 0 0 0 0 0 0 0 0 0 0 0 0 0 0 0 0 0 0 0 0 0 0 0 0 0 0 0 0 0 0 0 0 0 0 0 0 0 0 0 0 0 0 0 0 0 0 0 0 0 0 0 0 0 0 0 0 0 0 0 0 0 0 0 0 0 0 0 0 0 0 0 0 0 0 0 0 0 0 0 0 0 0 0 0 0 0 0 0 0 0 0 0 0 0 0 0 0 0 0 0 0 0 0 0 0 0 0 0 0 0 0 0 0 0 0 0 0 0 0 0 0 0 0 0 0 0 0 0 0 0 0 0 0 0 0 0 0 0 0 0 0 0 0 0 0 0 0 0 0 0 0 0 0 0 0 0 0 0 0 0 0 0 0 0 0 0 0 0 0 0 0 0 0 0 0 0 0 0 0 0 0 0 0 0 0 0 0 0 0 0 0 0 0 0 0 0 0 0 0 0 0 0 0 0 0 0 0 0 0 0 0 0 0 0 0 0 0 0 0 0 0 0 0 0 0 0 0 0 0 0 0 0 0 0 0 0 0 0 0 0 0 0 0 0 0 0 0 0 0 0 0 0 0 0 0 0 0 0 0 0 0 0 0 0 0 0 0 0 0 0 0 0 0 0 0 0 0 0 0 0 0 0 0 0 0 0 0 0 0 0 0 0 0 0 0 0 0 0 0 0 0 0 0 0 0 0 0 0 0 0 0 0 0 0 0 0 0 0 0 0 0 0 0 0 0 0 0 0 0 0 0 0 0 0 0 0 0 0 0 0 0 0 0 0 0 0 0 0 0 0 0 0 0 0 0 0 0 0 0 0 0 0 0 0 0 0 0 0 0 0 0 0 0 0 0 0 0 0 0 0 0 0 0 0 0 0 0 0 0 0 0 0 0 0 0 0 0 0 0 0 0 0 0 0 0 0 0 0 0 0 0 0 0 0 0 0 0 0 0 0 0 0 0 0 0 0 0 0 0 0 0 0 0 0 0 0 0 0 0 0 0 0 0 0 0 0 0 0 0 0 0 0 0 0 0 0 0 0 0 0 0 0 0 0 0 0 0 0 0 0 0 0 0 0 0 0 0 0 0 0 0 0 0 0 0 0 0 0 0 0 0 0 0 0 0 0 0 0 0 0 0 0 0 0 0 0 0 0 0 0 0 0 0 0 0 0 0 0 0 0 0 0 0 0 0 0 0 0 0 0 0 0 0 0 0 0 0 0 0 0 0 0 0 0 0 0 0 0 0 0 0 0 0 0 0 0 0 0 0 0 0 0 0 0 0 0 0 0 0 0 0 0 0 0 0 0 0 0 0 0 0 0 0 0 0 0 0 0 0 0 0 0 0 0 0 0 0 0 0 0 0 0 0 0 0 0 0 0 0 0 0 0 0 0 0 0 0 0 0 0 0 0 0 0 0 0 0 0 0 0 0 0 0 0 0 0 0 0 0 0 0 0 0 0 0 0 0 0 0 0 0 0 0 0 0 0 0 0 0 0 0 0 0 0 0 0 0 0 0 0 0 0 0 0 0 0 0 0 0 0 0 0 0 0 0 0 0 0 0 0 0 0 0 0 0 0 0 0 0 0 0 0 0 0 0 0 0 0 0 0 0 0 0 0 0 0 0 0 0 0 0 0 0 0 0 0 0 0 0 0 0 0 0 0 0 0 0 0 0 0 0 0 0 0 0 0 0 0 0 0 0 0 0 0 0 0 0 0 0 0 0 0 0 0 0 0 0 0 0 0 0 0 0 0 0 0 0 0 0 0 0 0 0 0 0 0 0 0 0 0 0 0 0 0 0 0 0 0 0 0 0 0 0 0 0 0 0 0 0 0 0 0 0 0 0 0 0 0 0 0 0 0 0 0 0 0 0 0 0 0 0 0 0 0 0 0 0 0 0 0 0 0 0 0 0 0 0 0 0 0 0 0 0 0 0 0 0 0 0 0 0 0 0 0 0 0 0 0 0 0 0 0 0 0 0 0 0 0 0 0 0 0 0 0 0 0 0 0 0 0 0 0 0 0 0 0 0 0 0 0 0 0 0 0 0 0 0 0 0 0 0 0 0 0 0 0 0 0 0 0 0 0 0 0 0 0 0 0 0 0 0 0 0 0 0 0 0 0 0 0 0 0 0 0 0 0 0 0 0 0 0 0 0 0 0 0 0 0 0 0 0 0 0 0 0 0 0 0 0 0 0 0 0 0 0 0 0 0 0 0 0 0 0 0 0 0 0 0 0 0 0 0 0 0 0 0 0 0 0 0 0 0 0 0 0 0 0 0 0 0 0 0 0 0 0 0 0 0 0 0 0 0 0 0 0 0 0 0 0 0 0 0 0 0 0 0 0 0 0 0 0 0 0 0 0 0 0 0 0 0 0 0 0 0 0 0 0 0 0 0 0 0 0 0 0 0 0 0 0 0 0 0 0 0 0 0 0 0 0 0 0 0 0 0 0 0 0 0 0 0 0 0 0 0 0 0 0 0 0 0 0 0 0 0 0 0 0 0 0 0 0 0 0 0 0 0 0 0 0 0 0 0 0 0 0 0 0 0 0 0 0 0 0 0 0 0 0 0 0 0 0 0 0 0 0 0 0 0 0 0 0 0 0 0 0 0 0 0 0 0 0 0 0 0 0 0 0 0 0 0 0 0 0 0 0 0 0 0 0 0 0 0 0 0 0 0 0 0 0 0 0 0 0 0 0 0 0 0 0 0 0 0 0 0 0 0 0 0 0 0 0 0 0 0 0 0 0 0 0 0 0 0 0 0 0 0 0 0 0 0 0 0 0 0 0 0 0 0 0 0 0 0 0 0 0 0 0 0 0 0 0 0 0 0 0 0 0 0 0 0 0 0 0 0 0 0 0 0 0 0 0 0 0 0 0 0 0 0 0 0 0 0 0 0 0 0 0 0 0 0 0 0 0 0 0 0 0 0 0 0 0 0 0 0 0 0 0 0 0 0 0 0 0 0 0 0 0 0 0 0 0 0 0 0 0 0 0 0 0 0 0 0 0 0 0 0 0 0 0 0 0 0 0 0 0 0 0 0 0 0 0 0 0 0 0 0 0 0 0 0 0 0 0 0 0 0 0 0 0 0 0 0 0 0 0 0 0 0 0 0 0 0 0 0 0 0 0 0 0 0 0 0 0 0 0 0 0 0 0 0 0 0 0 0 0 0 0 0 0 0 0 0 0 0 0 0 0 0 0 0 0 0 0 0 0 0 0 0 0 0 0 0 0 0 0 0 0 0 0 0 0 0 0 0 0 0 0 0 0 0 0 0 0 0 0 0 0 0 0 0 0 0 0 0 0 0 0 0 0 0 0 0 0 0 0 0 0 0 
GradVel 1 2975 float
  0.0000000E+00   0.0000000E+00   0.0000000E+00   0.0000000E+00   0.0000000E+00   0.0000000E+00   0.0000000E+00   0.0000000E+00   0.0000000E+00   0.0000000E+00   0.0000000E+00   0.0000000E+00   0.0000000E+00  -1.3705301E-09   0.0000000E+00  -7.4221207E-09  -5.0496855E-08  -1.4204222E-08  -1.0278802E-07  -3.2519688E-07  -1.2301570E-07  -4.6929770E-07  -1.1356467E-06  -4.5695040E-07  -1.3506292E-06  -2.8656495E-06  -1.1439470E-06  -2.9780290E-06  -5.8701339E-06  -2.2696445E-06  -5.5221462E-06  -1.0422113E-05  -3.8803992E-06  -9.1095617E-06  -1.6746548E-05  -6.0348975E-06  -1.3918843E-05  -2.5182080E-05  -8.8835823E-06  -2.0329891E-05  -3.6438782E-05  -1.2753320E-05  -2.9086623E-05  -5.1853625E-05  -1.8262692E-05  -4.1580788E-05  -7.3928881E-05  -2.6584687E-05  -6.0451304E-05  -1.0738615E-04  -4.0028135E-05  -9.0731395E-05  -1.6094875E-04  -6.3405023E-05  -1.4190331E-04  -2.4998974E-04  -1.0651924E-04  -2.2982736E-04  -3.9746944E-04  -1.8715335E-04  -3.7504444E-04  -6.2704500E-04  -6.0046790E-04  -9.5651869E-04   0.0000000E+00   0.0000000E+00   0.0000000E+00   0.0000000E+00   0.0000000E+00   0.0000000E+00   0.0000000E+00   0.0000000E+00   0.0000000E+00   0.0000000E+00   0.0000000E+00   0.0000000E+00   0.0000000E+00   0.0000000E+00   0.0000000E+00   0.0000000E+00   0.0000000E+00   0.0000000E+00   0.0000000E+00   0.0000000E+00   0.0000000E+00   0.0000000E+00   0.0000000E+00   0.0000000E+00   0.0000000E+00  -2.4728325E-10  -1.5744718E-09  -3.7183894E-09  -5.5416995E-09  -6.5484111E-09  -7.2614816E-09  -7.8456859E-09  -1.1864827E-08  -3.8692114E-08  -8.2456822E-08  -1.3621923E-07  -1.8907332E-07  -2.3240588E-07  -2.6369850E-07  -2.8624748E-07  -1.5157195E-07  -3.2103392E-07  -5.5210330E-07  -8.1701603E-07  -1.0766371E-06  -1.3002816E-06  -1.4774290E-06  -1.6131378E-06  -7.1340196E-07  -1.2822375E-06  -2.0092152E-06  -2.8178777E-06  -3.6037657E-06  -4.2892079E-06  -4.8487327E-06  -5.2929054E-06  -2.1632270E-06  -3.5808564E-06  -5.3358713E-06  -7.2517360E-06  -9.0972790E-06  -1.0708827E-05  -1.2039484E-05  -1.3114448E-05  -5.0521412E-06  -7.9681686E-06  -1.1508146E-05  -1.5318688E-05  -1.8949231E-05  -2.2103148E-05  -2.4715999E-05  -2.6846930E-05  -9.8729315E-06  -1.5093463E-05  -2.1338890E-05  -2.7965441E-05  -3.4186261E-05  -3.9541595E-05  -4.3976717E-05  -4.7614802E-05  -1.7005243E-05  -2.5435793E-05  -3.5363308E-05  -4.5707504E-05  -5.5239256E-05  -6.3367515E-05  -7.0090187E-05  -7.5623997E-05  -2.6766034E-05  -3.9372975E-05  -5.3895546E-05  -3.9663322E-05  -5.7564044E-05  -5.6831872E-05  -8.1684411E-05  -8.0374535E-05  -1.1482565E-04  -1.1411624E-04  -1.6214068E-04  -1.6519395E-04  -2.3301446E-04  -2.4642376E-04  -3.4374578E-04  -3.7955798E-04  -5.2086276E-04  -5.9606740E-04  -8.0189831E-04  -9.2731975E-04  -1.2260741E-03  -1.3913098E-03  -1.8186105E-03   0.0000000E+00   0.0000000E+00   0.0000000E+00   0.0000000E+00   0.0000000E+00   0.0000000E+00   0.0000000E+00   0.0000000E+00   0.0000000E+00   0.0000000E+00   0.0000000E+00   0.0000000E+00   0.0000000E+00   0.0000000E+00   0.0000000E+00   0.0000000E+00   0.0000000E+00   0.0000000E+00   0.0000000E+00   0.0000000E+00   0.0000000E+00   0.0000000E+00   0.0000000E+00   0.0000000E+00   0.0000000E+00   0.0000000E+00   0.0000000E+00  -8.3186018E-09  -8.6975946E-09  -8.9994581E-09  -9.2386996E-09  -9.4262518E-09  -9.5697619E-09  -9.6750705E-09  -9.7467661E-09  -9.7883168E-09  -3.0424607E-07  -3.1879375E-07  -3.3043918E-07  -3.3966759E-07  -3.4688563E-07  -3.5241192E-07  -3.5648461E-07  -3.5927562E-07  -3.6090358E-07  -1.7180649E-06  -1.8021053E-06  -1.8695404E-06  -1.9230106E-06  -1.9647962E-06  -1.9967595E-06  -2.0203252E-06  -2.0365064E-06  -2.0459668E-06  -5.6441440E-06  -5.9240192E-06  -6.1482992E-06  -6.3262064E-06  -6.4651617E-06  -6.5713552E-06  -6.6496054E-06  -6.7033488E-06  -6.7347964E-06  -1.3978920E-05  -1.4673598E-05  -1.5229983E-05  -1.5671263E-05  -1.6015696E-05  -1.6278649E-05  -1.6472222E-05  -1.6605096E-05  -1.6682841E-05  -2.8579969E-05  -2.9984358E-05  -3.1112253E-05  -3.2006530E-05  -3.2703923E-05  -3.3235738E-05  -3.3626788E-05  -3.3894983E-05  -3.4051813E-05  -5.0597282E-05  -5.3030370E-05  -5.4990003E-05  -5.6543646E-05  -5.7753809E-05  -5.8675483E-05  -5.9352369E-05  -5.9816193E-05  -6.0087299E-05  -8.0185404E-05  -8.3924126E-05  -8.6940447E-05  -8.9330024E-05  -9.1188325E-05  -9.2601542E-05  -9.3638140E-05  -9.4347975E-05  -9.4762639E-05   0.0000000E+00   0.0000000E+00   0.0000000E+00   0.0000000E+00   0.0000000E+00   0.0000000E+00   0.0000000E+00   0.0000000E+00   0.0000000E+00   0.0000000E+00   0.0000000E+00   0.0000000E+00   0.0000000E+00   0.0000000E+00   0.0000000E+00   0.0000000E+00   0.0000000E+00   0.0000000E+00   0.0000000E+00   0.0000000E+00   0.0000000E+00   0.0000000E+00   0.0000000E+00   0.0000000E+00  -9.8019246E-09  -9.7883195E-09  -9.7467669E-09  -9.6750714E-09  -9.5697619E-09  -9.4262536E-09  -9.2387005E-09  -8.9994554E-09  -3.6143854E-07  -3.6090361E-07  -3.5927553E-07  -3.5648463E-07  -3.5241192E-07  -3.4688557E-07  -3.3966765E-07  -3.3043921E-07  -2.0490797E-06  -2.0459668E-06  -2.0365062E-06  -2.0203247E-06  -1.9967597E-06  -1.9647966E-06  -1.9230108E-06  -1.8695405E-06  -6.7451529E-06  -6.7347964E-06  -6.7033493E-06  -6.6496068E-06  -6.5713571E-06  -6.4651626E-06  -6.3262064E-06  -6.1482997E-06  -1.6708440E-05  -1.6682838E-05  -1.6605096E-05  -1.6472226E-05  -1.6278647E-05  -1.6015696E-05  -1.5671267E-05  -1.5229988E-05  -3.4103468E-05  -3.4051820E-05  -3.3894994E-05  -3.3626777E-05  -3.3235745E-05  -3.2703927E-05  -3.2006508E-05  -3.1112246E-05  -6.0176564E-05  -6.0087317E-05  -5.9816208E-05  -5.9352395E-05  -5.8675487E-05  -5.7753798E-05  -5.6543631E-05  -5.4990000E-05  -9.4899107E-05  -9.4762625E-05  -9.4347954E-05  -9.3638162E-05  -9.2601527E-05  -9.1188340E-05  -8.9330009E-05  -8.6940468E-05   0.0000000E+00   0.0000000E+00   0.0000000E+00   0.0000000E+00   0.0000000E+00   0.0000000E+00   0.0000000E+00   0.0000000E+00   0.0000000E+00   0.0000000E+00   0.0000000E+00   0.0000000E+00   0.0000000E+00   0.0000000E+00   0.0000000E+00   0.0000000E+00   0.0000000E+00   0.0000000E+00   0.0000000E+00   0.0000000E+00   0.0000000E+00   0.0000000E+00   0.0000000E+00   0.0000000E+00   0.0000000E+00   0.0000000E+00   0.0000000E+00  -8.6975938E-09  -8.3186036E-09  -7.8456894E-09  -7.2614816E-09  -6.5484111E-09  -5.5417022E-09  -3.7183903E-09  -1.5744722E-09  -2.4728330E-10  -3.1879375E-07  -3.0424619E-07  -2.8624751E-07  -2.6369850E-07  -2.3240592E-07  -1.8907336E-07  -1.3621926E-07  -8.2456857E-08  -3.8692122E-08  -1.8021053E-06  -1.7180651E-06  -1.6131380E-06  -1.4774289E-06  -1.3002815E-06  -1.0766373E-06  -8.1701626E-07  -5.5210336E-07  -3.2103404E-07  -5.9240183E-06  -5.6441436E-06  -5.2929036E-06  -4.8487336E-06  -4.2892079E-06  -3.6037666E-06  -2.8178783E-06  -2.0092157E-06  -1.2822383E-06  -1.4673599E-05  -1.3978920E-05  -1.3114451E-05  -1.2039482E-05  -1.0708826E-05  -9.0972790E-06  -7.2517378E-06  -5.3358726E-06  -3.5808571E-06  -2.9984369E-05  -2.8579976E-05  -2.6846941E-05  -2.4716004E-05  -2.2103151E-05  -1.8949233E-05  -1.5318690E-05  -1.1508148E-05  -7.9681686E-06  -5.3030381E-05  -5.0597300E-05  -4.7614813E-05  -4.3976732E-05  -3.9541599E-05  -3.4186269E-05  -2.7965440E-05  -2.1338890E-05  -1.5093467E-05  -8.3924140E-05  -8.0185411E-05  -7.5623990E-05  -7.0090202E-05  -6.3367530E-05  -5.5239263E-05  -4.5707508E-05  -3.5363326E-05  -2.5435796E-05  -5.3895550E-05  -3.9372979E-05  -5.7564055E-05  -8.1684426E-05  -1.1482569E-04  -1.6214074E-04  -2.3301455E-04  -3.4374575E-04  -5.2086276E-04  -8.0189825E-04  -1.2260744E-03  -1.8186111E-03   0.0000000E+00   0.0000000E+00   0.0000000E+00   0.0000000E+00   0.0000000E+00   0.0000000E+00   0.0000000E+00   0.0000000E+00   0.0000000E+00   0.0000000E+00   0.0000000E+00   0.0000000E+00   0.0000000E+00   0.0000000E+00   0.0000000E+00  -1.1864830E-08  -1.3705306E-09   0.0000000E+00   0.0000000E+00  -1.5157198E-07  -5.0496872E-08  -7.4221225E-09   0.0000000E+00  -7.1340219E-07  -3.2519696E-07  -1.0278804E-07  -1.4204224E-08  -2.1632281E-06  -1.1356468E-06  -4.6929773E-07  -1.2301575E-07  -5.0521421E-06  -2.8656509E-06  -1.3506292E-06  -4.5695054E-07  -9.8729342E-06  -5.8701362E-06  -2.9780297E-06  -1.1439477E-06  -1.7005248E-05  -1.0422115E-05  -5.5221467E-06  -2.2696449E-06  -2.6766040E-05  -1.6746551E-05  -9.1095608E-06  -3.8804001E-06  -3.9663333E-05  -2.5182084E-05  -1.3918843E-05  -6.0348984E-06  -5.6831886E-05  -3.6438789E-05  -2.0329891E-05  -8.8835823E-06  -8.0374542E-05  -5.1853647E-05  -2.9086623E-05  -1.2753322E-05  -1.1411625E-04  -7.3928881E-05  -4.1580792E-05  -1.8262694E-05  -1.6519403E-04  -1.0738619E-04  -6.0451286E-05  -2.6584687E-05  -2.4642376E-04  -1.6094881E-04  -9.0731395E-05  -4.0028150E-05  -3.7955804E-04  -2.4998977E-04  -1.4190332E-04  -6.3405038E-05  -5.9606752E-04  -3.9746950E-04  -2.2982733E-04  -1.0651923E-04  -9.2731987E-04  -6.2704494E-04  -3.7504444E-04  -1.8715338E-04  -1.3913098E-03  -9.5651881E-04  -6.0046790E-04   0.0000000E+00   0.0000000E+00   0.0000000E+00   0.0000000E+00   0.0000000E+00   0.0000000E+00   0.0000000E+00   0.0000000E+00   0.0000000E+00   0.0000000E+00   0.0000000E+00   0.0000000E+00   0.0000000E+00   0.0000000E+00   0.0000000E+00   0.0000000E+00   0.0000000E+00   0.0000000E+00   0.0000000E+00   0.0000000E+00   0.0000000E+00   0.0000000E+00   0.0000000E+00   0.0000000E+00   0.0000000E+00   0.0000000E+00   0.0000000E+00   0.0000000E+00   0.0000000E+00   0.0000000E+00   0.0000000E+00   0.0000000E+00   0.0000000E+00   0.0000000E+00   0.0000000E+00   0.0000000E+00   0.0000000E+00   0.0000000E+00   0.0000000E+00   0.0000000E+00   0.0000000E+00   0.0000000E+00   0.0000000E+00   0.0000000E+00   0.0000000E+00   0.0000000E+00   0.0000000E+00   0.0000000E+00   0.0000000E+00   0.0000000E+00   0.0000000E+00   0.0000000E+00   0.0000000E+00   0.0000000E+00   0.0000000E+00   0.0000000E+00   0.0000000E+00   0.0000000E+00   0.0000000E+00   0.0000000E+00   0.0000000E+00   0.0000000E+00   0.0000000E+00   0.0000000E+00   0.0000000E+00   0.0000000E+00   0.0000000E+00   0.0000000E+00   0.0000000E+00   0.0000000E+00   0.0000000E+00   0.0000000E+00   0.0000000E+00   0.0000000E+00   0.0000000E+00   0.0000000E+00   0.0000000E+00   0.0000000E+00   0.0000000E+00   0.0000000E+00   0.0000000E+00   0.0000000E+00   0.0000000E+00   0.0000000E+00   0.0000000E+00   0.0000000E+00   0.0000000E+00   0.0000000E+00   0.0000000E+00   0.0000000E+00   0.0000000E+00   0.0000000E+00   0.0000000E+00   0.0000000E+00   0.0000000E+00   0.0000000E+00   0.0000000E+00   0.0000000E+00   0.0000000E+00   0.0000000E+00   0.0000000E+00   0.0000000E+00   0.0000000E+00   0.0000000E+00   0.0000000E+00   0.0000000E+00   0.0000000E+00   0.0000000E+00   0.0000000E+00   0.0000000E+00   0.0000000E+00   0.0000000E+00   0.0000000E+00   0.0000000E+00   0.0000000E+00   0.0000000E+00   0.0000000E+00   0.0000000E+00   0.0000000E+00   0.0000000E+00   0.0000000E+00   0.0000000E+00   0.0000000E+00   0.0000000E+00   0.0000000E+00   0.0000000E+00   0.0000000E+00   0.0000000E+00   0.0000000E+00   0.0000000E+00   0.0000000E+00   0.0000000E+00   0.0000000E+00   0.0000000E+00   0.0000000E+00   0.0000000E+00   0.0000000E+00   0.0000000E+00   0.0000000E+00   0.0000000E+00   0.0000000E+00   0.0000000E+00   0.0000000E+00   0.0000000E+00   0.0000000E+00   0.0000000E+00   0.0000000E+00   0.0000000E+00   0.0000000E+00   0.0000000E+00   0.0000000E+00   0.0000000E+00   0.0000000E+00   0.0000000E+00   0.0000000E+00   0.0000000E+00   0.0000000E+00   0.0000000E+00   0.0000000E+00   0.0000000E+00   0.0000000E+00   0.0000000E+00   0.0000000E+00   0.0000000E+00   0.0000000E+00   0.0000000E+00   0.0000000E+00   0.0000000E+00   0.0000000E+00   0.0000000E+00   0.0000000E+00   0.0000000E+00   0.0000000E+00   0.0000000E+00   0.0000000E+00   0.0000000E+00   0.0000000E+00   0.0000000E+00   0.0000000E+00   0.0000000E+00   0.0000000E+00   0.0000000E+00   0.0000000E+00   0.0000000E+00   0.0000000E+00   0.0000000E+00   0.0000000E+00   0.0000000E+00   0.0000000E+00   0.0000000E+00   0.0000000E+00   0.0000000E+00   0.0000000E+00   0.0000000E+00   0.0000000E+00   0.0000000E+00   0.0000000E+00   0.0000000E+00   0.0000000E+00   0.0000000E+00   0.0000000E+00   0.0000000E+00   0.0000000E+00   0.0000000E+00   0.0000000E+00   0.0000000E+00   0.0000000E+00   0.0000000E+00   0.0000000E+00   0.0000000E+00   0.0000000E+00   0.0000000E+00   0.0000000E+00   0.0000000E+00   0.0000000E+00   0.0000000E+00   0.0000000E+00   0.0000000E+00   0.0000000E+00   0.0000000E+00   0.0000000E+00   0.0000000E+00   0.0000000E+00   0.0000000E+00   0.0000000E+00   0.0000000E+00   0.0000000E+00   0.0000000E+00   0.0000000E+00   0.0000000E+00   0.0000000E+00   0.0000000E+00   0.0000000E+00   0.0000000E+00   0.0000000E+00   0.0000000E+00   0.0000000E+00   0.0000000E+00   0.0000000E+00   0.0000000E+00   0.0000000E+00   0.0000000E+00   0.0000000E+00   0.0000000E+00   0.0000000E+00   0.0000000E+00   0.0000000E+00   0.0000000E+00   0.0000000E+00   0.0000000E+00   0.0000000E+00   0.0000000E+00   0.0000000E+00   0.0000000E+00   0.0000000E+00   0.0000000E+00   0.0000000E+00   0.0000000E+00   0.0000000E+00   0.0000000E+00   0.0000000E+00   0.0000000E+00   0.0000000E+00   0.0000000E+00   0.0000000E+00   0.0000000E+00   0.0000000E+00   0.0000000E+00   0.0000000E+00   0.0000000E+00   0.0000000E+00   0.0000000E+00   0.0000000E+00   0.0000000E+00   0.0000000E+00   0.0000000E+00   0.0000000E+00   0.0000000E+00   0.0000000E+00   0.0000000E+00   0.0000000E+00   0.0000000E+00   0.0000000E+00   0.0000000E+00   0.0000000E+00   0.0000000E+00   0.0000000E+00   0.0000000E+00   0.0000000E+00   0.0000000E+00   0.0000000E+00   0.0000000E+00   0.0000000E+00   0.0000000E+00   0.0000000E+00   0.0000000E+00   0.0000000E+00   0.0000000E+00   0.0000000E+00   0.0000000E+00   0.0000000E+00   0.0000000E+00   0.0000000E+00   0.0000000E+00   0.0000000E+00   0.0000000E+00   0.0000000E+00   0.0000000E+00   0.0000000E+00   0.0000000E+00   0.0000000E+00   0.0000000E+00   0.0000000E+00   0.0000000E+00   0.0000000E+00   0.0000000E+00   0.0000000E+00   0.0000000E+00   0.0000000E+00   0.0000000E+00   0.0000000E+00   0.0000000E+00   0.0000000E+00   0.0000000E+00   0.0000000E+00   0.0000000E+00   0.0000000E+00   0.0000000E+00   0.0000000E+00   0.0000000E+00   0.0000000E+00   0.0000000E+00   0.0000000E+00   0.0000000E+00   0.0000000E+00   0.0000000E+00   0.0000000E+00   0.0000000E+00   0.0000000E+00   0.0000000E+00   0.0000000E+00   0.0000000E+00   0.0000000E+00   0.0000000E+00   0.0000000E+00   0.0000000E+00   0.0000000E+00   0.0000000E+00   0.0000000E+00   0.0000000E+00   0.0000000E+00   0.0000000E+00   0.0000000E+00   0.0000000E+00   0.0000000E+00   0.0000000E+00   0.0000000E+00   0.0000000E+00   0.0000000E+00   0.0000000E+00   0.0000000E+00   0.0000000E+00   0.0000000E+00   0.0000000E+00   0.0000000E+00   0.0000000E+00   0.0000000E+00   0.0000000E+00   0.0000000E+00   0.0000000E+00   0.0000000E+00   0.0000000E+00   0.0000000E+00   0.0000000E+00   0.0000000E+00   0.0000000E+00   0.0000000E+00   0.0000000E+00   0.0000000E+00   0.0000000E+00   0.0000000E+00   0.0000000E+00   0.0000000E+00   0.0000000E+00   0.0000000E+00   0.0000000E+00   0.0000000E+00   0.0000000E+00   0.0000000E+00   0.0000000E+00   0.0000000E+00   0.0000000E+00   0.0000000E+00   0.0000000E+00   0.0000000E+00   0.0000000E+00   0.0000000E+00   0.0000000E+00   0.0000000E+00   0.0000000E+00   0.0000000E+00   0.0000000E+00   0.0000000E+00   0.0000000E+00   0.0000000E+00   0.0000000E+00   0.0000000E+00   0.0000000E+00   0.0000000E+00   0.0000000E+00   0.0000000E+00   0.0000000E+00   0.0000000E+00   0.0000000E+00   0.0000000E+00   0.0000000E+00   0.0000000E+00   0.0000000E+00   0.0000000E+00   0.0000000E+00   0.0000000E+00   0.0000000E+00   0.0000000E+00   0.0000000E+00   0.0000000E+00   0.0000000E+00   0.0000000E+00   0.0000000E+00   0.0000000E+00   0.0000000E+00   0.0000000E+00   0.0000000E+00   0.0000000E+00   0.0000000E+00   0.0000000E+00   0.0000000E+00   0.0000000E+00   0.0000000E+00   0.0000000E+00   0.0000000E+00   0.0000000E+00   0.0000000E+00   0.0000000E+00   0.0000000E+00   0.0000000E+00   0.0000000E+00   0.0000000E+00   0.0000000E+00   0.0000000E+00   0.0000000E+00   0.0000000E+00   0.0000000E+00   0.0000000E+00   0.0000000E+00   0.0000000E+00   0.0000000E+00   0.0000000E+00   0.0000000E+00   0.0000000E+00   0.0000000E+00   0.0000000E+00   0.0000000E+00   0.0000000E+00   0.0000000E+00   0.0000000E+00   0.0000000E+00   0.0000000E+00   0.0000000E+00   0.0000000E+00   0.0000000E+00   0.0000000E+00   0.0000000E+00  -6.8557943E-05  -8.1977902E-05  -9.3308699E-05  -1.0265318E-04  -1.1034824E-04  -7.7219665E-05  -9.7682925E-05  -1.1579686E-04  -1.3094019E-04  -1.4333293E-04  -1.5349446E-04  -1.0858349E-04  -1.3638732E-04  -1.6073784E-04  -1.8081850E-04  -1.9705007E-04  -2.1024249E-04  -1.5180648E-04  -1.8975261E-04  -2.2260936E-04  -2.4931668E-04  -2.7059109E-04  -2.8767908E-04  -2.1329135E-04  -2.6496398E-04  -3.0911807E-04  -3.4457407E-04  -3.7248083E-04  -3.9460475E-04  -3.0505002E-04  -3.7411440E-04  -4.3173652E-04  -4.7740046E-04  -5.1328423E-04  -5.4173107E-04  -4.4870589E-04  -5.3779525E-04  -6.0831936E-04  -6.6314498E-04  -7.0674735E-04  -7.4221217E-04  -6.7962019E-04  -7.8732340E-04  -8.6432311E-04  -9.2247693E-04  -9.7073050E-04  -1.0126483E-03  -1.0471857E-03  -1.1623143E-03  -1.2299535E-03  -1.2796854E-03  -1.3268341E-03  -1.3737422E-03  -1.5974268E-03  -1.6973716E-03  -1.7312338E-03  -1.7582544E-03  -1.7989539E-03  -1.8505157E-03  -2.3348550E-03  -2.3987892E-03  -2.3798100E-03  -2.3772756E-03  -2.4126987E-03  -2.4728603E-03  -3.1574601E-03  -3.2285035E-03  -3.1733408E-03  -3.1557756E-03  -3.1991540E-03  -3.2780278E-03  -3.9873775E-03  -4.1510491E-03  -4.1249823E-03  -4.1292585E-03  -4.2033852E-03  -4.3149963E-03  -4.9386886E-03  -5.2365288E-03  -5.3027812E-03  -5.3657512E-03  -5.4916260E-03  -5.6482530E-03  -6.2516090E-03  -6.6658738E-03  -6.8325093E-03  -6.9663664E-03  -7.1513578E-03  -7.3590497E-03  -8.1846928E-03  -8.6244568E-03  -8.8623073E-03  -9.0480307E-03  -9.2865210E-03  -9.5456420E-03  -1.0825852E-02  -1.1258502E-02  -1.1519922E-02  -1.1732456E-02  -1.2016737E-02  -1.2326508E-02  -1.4205489E-02  -1.4645432E-02  -1.4927227E-02  -1.5163222E-02  -1.5488926E-02  -1.5845843E-02  -1.8404689E-02  -1.8937740E-02  -1.9277111E-02  -1.9532202E-02  -1.9886814E-02  -2.0274904E-02  -2.3663480E-02  -2.4409009E-02  -2.4838880E-02  -2.5083361E-02  -2.5427345E-02  -2.5809929E-02  -3.0366305E-02  -3.1412628E-02  -3.1935528E-02  -3.2096710E-02  -3.2353748E-02  -3.2665502E-02  -3.8875010E-02  -4.0374059E-02  -4.0942866E-02  -4.0874604E-02  -4.0915057E-02  -4.1053291E-02  -4.9672097E-02  -5.1779047E-02  -5.2237310E-02  -5.1681116E-02  -5.1308788E-02  -5.1128253E-02  -6.3161582E-02  -6.6044509E-02  -6.6040620E-02  -6.4598083E-02  -6.3548177E-02  -6.2876329E-02  -7.9610482E-02  -8.3324775E-02  -8.2184710E-02  -7.9267398E-02  -7.7241793E-02  -7.5919509E-02  -9.8695643E-02  -1.0309057E-01  -9.9625923E-02  -9.4490290E-02  -9.1241546E-02  -8.9226797E-02  -1.1894771E-01  -1.2331156E-01  -1.1583748E-01  -1.0769276E-01  -1.0320557E-01  -1.0075854E-01  -1.3716401E-01  -1.4001490E-01  -1.2633689E-01  -1.1452632E-01  -1.0926315E-01  -1.0716985E-01  -1.4738557E-01  -1.4632757E-01  -1.2426658E-01  -1.0907815E-01  -1.0414149E-01  -1.0370897E-01  -1.3961449E-01  -1.3133505E-01  -1.0174429E-01  -8.4595501E-02  -8.1138887E-02  -8.4377900E-02  -9.9152565E-02  -8.2194000E-02  -5.1463291E-02  -3.3166528E-02  -3.3332601E-02  -4.2691372E-02  -2.0882785E-03   2.0111121E-02   4.1324437E-02   5.1384315E-02   4.4676021E-02   2.6313633E-02   1.7033982E-01   1.9950248E-01   1.9074090E-01   1.7457594E-01   1.5364993E-01   1.2331637E-01   3.9856777E-01   4.3894854E-01   3.8666677E-01   3.2832760E-01   2.8701463E-01   2.4234334E-01   6.0692227E-01   6.6857010E-01   5.8231896E-01   4.8732090E-01   4.2738086E-01   3.6944732E-01   7.4382174E-01   8.3118457E-01   7.3703450E-01   6.2474322E-01   5.5358958E-01   4.8560190E-01   8.1246543E-01   9.1682267E-01   8.3307260E-01   7.2063649E-01   6.4637017E-01   5.7249057E-01   8.3152264E-01   9.4755375E-01   8.7664557E-01   7.7099466E-01   6.9762254E-01   6.2088764E-01   8.1947881E-01   9.4273758E-01   8.8213146E-01   7.8319842E-01   7.1169972E-01   6.3395822E-01   7.9332089E-01   9.1968238E-01   8.6490822E-01   7.7040958E-01   7.0058525E-01   6.2291586E-01   7.6589954E-01   8.9194399E-01   8.3848780E-01   7.4578953E-01   6.7706001E-01   6.0006368E-01   7.4352318E-01   8.6695075E-01   8.1104112E-01   7.1772474E-01   6.4948308E-01   5.7353574E-01   7.1764255E-01   8.3721495E-01   7.8002369E-01   6.8728006E-01   6.2002337E-01   5.4560834E-01   6.8489099E-01   7.9959249E-01   7.4288148E-01   6.5236658E-01   5.8674902E-01   5.1435077E-01   6.4303881E-01   7.5167489E-01   6.9692451E-01   6.1014044E-01   5.4675639E-01   4.7682196E-01   5.9226143E-01   6.9349855E-01   6.4163023E-01   5.5968058E-01   4.9897856E-01   4.3189746E-01   5.3571510E-01   6.2751758E-01   5.7947087E-01   5.0299537E-01   4.4524843E-01   3.8136211E-01   4.7845274E-01   5.5947590E-01   5.1501209E-01   4.4424868E-01   3.8964421E-01   3.2924849E-01   4.2552873E-01   4.9539477E-01   4.5325589E-01   3.8815981E-01   3.3680063E-01   2.8006065E-01   3.7919089E-01   4.3790495E-01   3.9787978E-01   3.3829010E-01   2.9017109E-01   2.3710276E-01   3.3818868E-01   3.8674650E-01   3.5015535E-01   2.9597196E-01   2.5110960E-01   2.0179109E-01   3.0100635E-01   3.4121972E-01   3.0935222E-01   2.6054883E-01   2.1913771E-01   1.7389508E-01   2.6909494E-01   3.0016184E-01   2.7396423E-01   2.3036671E-01   1.9281831E-01   1.5226293E-01   2.4345857E-01   2.6393551E-01   2.4327989E-01   2.0410773E-01   1.7057505E-01   1.3556015E-01   2.2575057E-01   2.3412183E-01   2.1750739E-01   1.8170686E-01   1.5174678E-01   1.2275603E-01   2.0774560E-01   1.9593248E-01   1.6431548E-01   1.3660191E-01   1.1324205E-01   1.8289188E-01   1.7757565E-01   1.5310949E-01   1.2627099E-01   1.0663156E-01   1.6306992E-01   1.4810327E-01   1.2263227E-01   1.0322416E-01   1.5436155E-01   1.4846888E-01   1.2700811E-01   1.0505085E-01   1.5257020E-01   1.3813029E-01   1.1472272E-01   1.5143400E-01   1.3233128E-01   1.5973897E-01   1.5029734E-01  -1.1670747E-04  -1.2193236E-04  -1.2614716E-04  -1.2947885E-04  -1.3206415E-04  -1.3402663E-04  -1.3546443E-04  -1.3644823E-04  -1.3702281E-04  -1.6188140E-04  -1.6876811E-04  -1.7430935E-04  -1.7867287E-04  -1.8204932E-04  -1.8460734E-04  -1.8647902E-04  -1.8775873E-04  -1.8850592E-04  -2.2107444E-04  -2.2993384E-04  -2.3702589E-04  -2.4258139E-04  -2.4686701E-04  -2.5010749E-04  -2.5247550E-04  -2.5409329E-04  -2.5503751E-04  -3.0159627E-04  -3.1290590E-04  -3.2189538E-04  -3.2889491E-04  -3.3427723E-04  -3.3833925E-04  -3.4130417E-04  -3.4332805E-04  -3.4450853E-04  -4.1244601E-04  -4.2683337E-04  -4.3818081E-04  -4.4696472E-04  -4.5369638E-04  -4.5876668E-04  -4.6246310E-04  -4.6498448E-04  -4.6645442E-04  -5.6450022E-04  -5.8271212E-04  -5.9697329E-04  -6.0795341E-04  -6.1633863E-04  -6.2264060E-04  -6.2722899E-04  -6.3035567E-04  -6.3217682E-04  -7.7098480E-04  -7.9389202E-04  -8.1170769E-04  -8.2534709E-04  -8.3572534E-04  -8.4350532E-04  -8.4915850E-04  -8.5300457E-04  -8.5524225E-04  -1.0482395E-03  -1.0768983E-03  -1.0990149E-03  -1.1158233E-03  -1.1285496E-03  -1.1380545E-03  -1.1449406E-03  -1.1496127E-03  -1.1523255E-03  -1.4168588E-03  -1.4525375E-03  -1.4798871E-03  -1.5004370E-03  -1.5158667E-03  -1.5273186E-03  -1.5355708E-03  -1.5411448E-03  -1.5443709E-03  -1.9027186E-03  -1.9471957E-03  -1.9810128E-03  -2.0059661E-03  -2.0244338E-03  -2.0379876E-03  -2.0476682E-03  -2.0541612E-03  -2.0579002E-03  -2.5379348E-03  -2.5939764E-03  -2.6358792E-03  -2.6659884E-03  -2.6877569E-03  -2.7034350E-03  -2.7144686E-03  -2.7217888E-03  -2.7259709E-03  -3.3625809E-03  -3.4340722E-03  -3.4860275E-03  -3.5220410E-03  -3.5471939E-03  -3.5647813E-03  -3.5768682E-03  -3.5847484E-03  -3.5891999E-03  -4.4272193E-03  -4.5186216E-03  -4.5826635E-03  -4.6250755E-03  -4.6532885E-03  -4.6721543E-03  -4.6846368E-03  -4.6925503E-03  -4.6969354E-03  -5.7954169E-03  -5.9107430E-03  -5.9884093E-03  -6.0369875E-03  -6.0671708E-03  -6.0859951E-03  -6.0976869E-03  -6.1047189E-03  -6.1084819E-03  -7.5457487E-03  -7.6876925E-03  -7.7792108E-03  -7.8322757E-03  -7.8620426E-03  -7.8784619E-03  -7.8873821E-03  -7.8921085E-03  -7.8943875E-03  -9.7740134E-03  -9.9431528E-03  -1.0046209E-02  -1.0099711E-02  -1.0124705E-02  -1.0134880E-02  -1.0138029E-02  -1.0138356E-02  -1.0137949E-02  -1.2596102E-02  -1.2789156E-02  -1.2897435E-02  -1.2943808E-02  -1.2957001E-02  -1.2955200E-02  -1.2948360E-02  -1.2941493E-02  -1.2936806E-02  -1.6150052E-02  -1.6357288E-02  -1.6458699E-02  -1.6485712E-02  -1.6476700E-02  -1.6455045E-02  -1.6432738E-02  -1.6415196E-02  -1.6404372E-02  -2.0595990E-02  -2.0798381E-02  -2.0873139E-02  -2.0862726E-02  -2.0817325E-02  -2.0765835E-02  -2.0721633E-02  -2.0689661E-02  -2.0670766E-02  -2.6114212E-02  -2.6280148E-02  -2.6298866E-02  -2.6226517E-02  -2.6126916E-02  -2.6034115E-02  -2.5961490E-02  -2.5911694E-02  -2.5883278E-02  -3.2897875E-02  -3.2980170E-02  -3.2903071E-02  -3.2738335E-02  -3.2564431E-02  -3.2419037E-02  -3.2312725E-02  -3.2243446E-02  -3.2205299E-02  -4.1133083E-02  -4.1068040E-02  -4.0846363E-02  -4.0555891E-02  -4.0288769E-02  -4.0082760E-02  -3.9941613E-02  -3.9854746E-02  -3.9809071E-02  -5.0950509E-02  -5.0661467E-02  -5.0242573E-02  -4.9796198E-02  -4.9424309E-02  -4.9158398E-02  -4.8989438E-02  -4.8893385E-02  -4.8846550E-02  -6.2324475E-02  -6.1733115E-02  -6.1070994E-02  -6.0451057E-02  -5.9978280E-02  -5.9668973E-02  -5.9492894E-02  -5.9406575E-02  -5.9371464E-02  -7.4899137E-02  -7.3950417E-02  -7.3023163E-02  -7.2237022E-02  -7.1692146E-02  -7.1378671E-02  -7.1235761E-02  -7.1192943E-02  -7.1191706E-02  -8.7748453E-02  -8.6464308E-02  -8.5304990E-02  -8.4402092E-02  -8.3848335E-02  -8.3599739E-02  -8.3554618E-02  -8.3607011E-02  -8.3672978E-02  -9.9096186E-02  -9.7693473E-02  -9.6458919E-02  -9.5562138E-02  -9.5111817E-02  -9.5033675E-02  -9.5179498E-02  -9.5400020E-02  -9.5579006E-02  -1.0607024E-01  -1.0514956E-01  -1.0425447E-01  -1.0363432E-01  -1.0348129E-01  -1.0373110E-01  -1.0419844E-01  -1.0468629E-01  -1.0504041E-01  -1.0457542E-01  -1.0533404E-01  -1.0563371E-01  -1.0583165E-01  -1.0631990E-01  -1.0714269E-01  -1.0812011E-01  -1.0901479E-01  -1.0963035E-01  -8.9343108E-02  -9.3701750E-02  -9.6637741E-02  -9.8592691E-02  -1.0030385E-01  -1.0208359E-01  -1.0384887E-01  -1.0535006E-01  -1.0634975E-01  -5.4529913E-02  -6.5040246E-02  -7.2616607E-02  -7.7692389E-02  -8.1490517E-02  -8.4787689E-02  -8.7731063E-02  -9.0113066E-02  -9.1664180E-02   4.6180934E-03  -1.4851488E-02  -2.9354375E-02  -3.9178424E-02  -4.6140298E-02  -5.1667619E-02  -5.6283385E-02  -5.9889436E-02  -6.2199946E-02   8.9265980E-02   5.8421198E-02   3.4937087E-02   1.8827148E-02   7.6256692E-03  -8.7723508E-04  -7.6950286E-03  -1.2895465E-02  -1.6189812E-02   1.9458199E-01   1.5106344E-01   1.1737470E-01   9.3969472E-02   7.7755749E-02   6.5700337E-02   5.6250833E-02   4.9148805E-02   4.4682093E-02   3.0861601E-01   2.5272241E-01   2.0886701E-01   1.7803976E-01   1.5661997E-01   1.4081398E-01   1.2856066E-01   1.1942483E-01   1.1370186E-01   4.1397256E-01   3.4752563E-01   2.9481781E-01   2.5739932E-01   2.3125950E-01   2.1198441E-01   1.9710071E-01   1.8604144E-01   1.7912543E-01   4.9322724E-01   4.1896522E-01   3.5957330E-01   3.1708521E-01   2.8723347E-01   2.6515973E-01   2.4810904E-01   2.3544443E-01   2.2752592E-01   5.3699994E-01   4.5780784E-01   3.9413893E-01   3.4834912E-01   3.1600866E-01   2.9198363E-01   2.7337015E-01   2.5952259E-01   2.5085723E-01   5.4783481E-01   4.6618056E-01   4.0036330E-01   3.5288543E-01   3.1920683E-01   2.9405701E-01   2.7448687E-01   2.5988820E-01   2.5074017E-01   5.3624952E-01   4.5394719E-01   3.8757384E-01   3.3963960E-01   3.0553156E-01   2.7993760E-01   2.5993127E-01   2.4496154E-01   2.3556575E-01   5.1396596E-01   4.3221974E-01   3.6634767E-01   3.1878239E-01   2.8487444E-01   2.5933349E-01   2.3928899E-01   2.2424841E-01   2.1479300E-01   4.8875326E-01   4.0835777E-01   3.4366691E-01   2.9699713E-01   2.6370141E-01   2.3855627E-01   2.1876232E-01   2.0387557E-01   1.9450423E-01   4.6274298E-01   3.8430119E-01   3.2129064E-01   2.7589297E-01   2.4350411E-01   2.1900681E-01   1.9968294E-01   1.8512571E-01   1.7595288E-01   4.3395633E-01   3.5802665E-01   2.9716352E-01   2.5338575E-01   2.2217041E-01   1.9854484E-01   1.7988592E-01   1.6581590E-01   1.5694532E-01   3.9943963E-01   3.2660326E-01   2.6839408E-01   2.2662322E-01   1.9687560E-01   1.7436150E-01   1.5657143E-01   1.4315204E-01   1.3469097E-01   3.5806525E-01   2.8893584E-01   2.3394126E-01   1.9462143E-01   1.6668466E-01   1.4555997E-01   1.2887061E-01   1.1628406E-01   1.0835121E-01   3.1160682E-01   2.4680310E-01   1.9559991E-01   1.5920170E-01   1.3345094E-01   1.1402355E-01   9.8689146E-02   8.7132141E-02   7.9853475E-02   2.6401132E-01   2.0404096E-01   1.5709798E-01   1.2400842E-01   1.0075888E-01   8.3290868E-02   6.9527559E-02   5.9165262E-02   5.2644778E-02   2.1954863E-01   1.6462587E-01   1.2212862E-01   9.2498563E-02   7.1878359E-02   5.6483228E-02   4.4388272E-02   3.5294913E-02   2.9578462E-02   1.8122463E-01   1.3117339E-01   9.2925318E-02   6.6584684E-02   4.8471425E-02   3.5070993E-02   2.4594482E-02   1.6735043E-02   1.1800142E-02   1.5033510E-01   1.0467105E-01   7.0123509E-02   4.6596646E-02   3.0634252E-02   1.8980572E-02   9.9503789E-03   3.2050069E-03  -1.0222495E-03   1.2679374E-01   8.4975325E-02   5.3353637E-02   3.1938933E-02   1.7593060E-02   7.3151924E-03  -5.1873922E-04  -6.3152947E-03  -9.9324323E-03   1.0978259E-01   7.1454495E-02   4.1961808E-02   2.1830145E-02   8.4480643E-03  -9.0751424E-04  -7.8399219E-03  -1.2870945E-02  -1.5979763E-02   9.8304741E-02   6.3450590E-02   3.5489351E-02   1.5788317E-02   2.6455894E-03  -6.3094310E-03  -1.2676913E-02  -1.7142484E-02  -1.9848045E-02   9.1409370E-02   6.0374461E-02   3.3767816E-02   1.3807729E-02   1.4588237E-04  -9.0159662E-03  -1.5237225E-02  -1.9390650E-02  -2.1823511E-02   8.8209577E-02   6.1577443E-02   3.6651142E-02   1.6235970E-02   1.3827160E-03  -8.6762775E-03  -1.5306199E-02  -1.9523224E-02  -2.1890230E-02   8.7597519E-02   6.5972246E-02   4.3547451E-02   2.3232443E-02   7.0614386E-03  -4.5010559E-03  -1.2183530E-02  -1.6975369E-02  -1.9592106E-02   8.8439576E-02   7.1968228E-02   5.3088687E-02   3.4105022E-02   1.7446868E-02   4.4782702E-03  -4.6645924E-03  -1.0522028E-02  -1.3738551E-02   9.0368927E-02   7.7886589E-02   6.3341863E-02   4.7188371E-02   3.1588044E-02   1.8323503E-02   8.2193967E-03   1.3050195E-03  -2.6668990E-03   9.6085340E-02   8.3442032E-02   7.2417371E-02   6.0265284E-02   4.7461979E-02   3.5558477E-02   2.5729550E-02   1.8517951E-02   1.4140490E-02   1.1029480E-01   9.2818454E-02   8.0858618E-02   7.1427740E-02   6.2414467E-02   5.3486057E-02   4.5423917E-02   3.9033718E-02   3.4934774E-02   1.3290566E-01   1.1288643E-01   9.5623150E-02   8.3342955E-02   7.5248905E-02   6.9098637E-02   6.3782252E-02   5.9314758E-02   5.6241240E-02   1.4693819E-01   1.3595428E-01   1.2128188E-01   1.0622939E-01   9.3944758E-02   8.5404687E-02   7.9876550E-02   7.6291524E-02   7.4111640E-02   1.4072628E-01   1.3907322E-01   1.3282308E-01   1.2341128E-01   1.1398927E-01   1.0687060E-01   1.0234405E-01   9.9803559E-02   1.3552660E-01   1.3857722E-01   1.3774382E-01   1.3622853E-01   1.3535847E-01   1.3491030E-01   1.2329879E-01   1.2754257E-01   1.3194796E-01   1.3500592E-01  -1.3721191E-04  -1.3702281E-04  -1.3644825E-04  -1.3546445E-04  -1.3402662E-04  -1.3206417E-04  -1.2947884E-04  -1.2614719E-04  -1.8875182E-04  -1.8850589E-04  -1.8775876E-04  -1.8647905E-04  -1.8460731E-04  -1.8204935E-04  -1.7867281E-04  -1.7430935E-04  -2.5534813E-04  -2.5503742E-04  -2.5409332E-04  -2.5247561E-04  -2.5010749E-04  -2.4686701E-04  -2.4258127E-04  -2.3702586E-04  -3.4489686E-04  -3.4450841E-04  -3.4332793E-04  -3.4130423E-04  -3.3833925E-04  -3.3427743E-04  -3.2889482E-04  -3.2189535E-04  -4.6693764E-04  -4.6645422E-04  -4.6498436E-04  -4.6246310E-04  -4.5876653E-04  -4.5369656E-04  -4.4696493E-04  -4.3818078E-04  -6.3277519E-04  -6.3217652E-04  -6.3035556E-04  -6.2722922E-04  -6.2264054E-04  -6.1633869E-04  -6.0795323E-04  -5.9697323E-04  -8.5597689E-04  -8.5524196E-04  -8.5300469E-04  -8.4915850E-04  -8.4350549E-04  -8.3572522E-04  -8.2534755E-04  -8.1170799E-04  -1.1532150E-03  -1.1523253E-03  -1.1496125E-03  -1.1449405E-03  -1.1380545E-03  -1.1285493E-03  -1.1158236E-03  -1.0990149E-03  -1.5454275E-03  -1.5443709E-03  -1.5411451E-03  -1.5355707E-03  -1.5273184E-03  -1.5158668E-03  -1.5004369E-03  -1.4798868E-03  -2.0591214E-03  -2.0578997E-03  -2.0541602E-03  -2.0476677E-03  -2.0379894E-03  -2.0244350E-03  -2.0059657E-03  -1.9810139E-03  -2.7273346E-03  -2.7259735E-03  -2.7217879E-03  -2.7144698E-03  -2.7034355E-03  -2.6877574E-03  -2.6659872E-03  -2.6358778E-03  -3.5906427E-03  -3.5892013E-03  -3.5847477E-03  -3.5768677E-03  -3.5647815E-03  -3.5471928E-03  -3.5220436E-03  -3.4860286E-03  -4.6983436E-03  -4.6969354E-03  -4.6925503E-03  -4.6846387E-03  -4.6721525E-03  -4.6532885E-03  -4.6250750E-03  -4.5826631E-03  -6.1096624E-03  -6.1084777E-03  -6.1047161E-03  -6.0976851E-03  -6.0859947E-03  -6.0671750E-03  -6.0369880E-03  -5.9884144E-03  -7.8950627E-03  -7.8943884E-03  -7.8921020E-03  -7.8873783E-03  -7.8784600E-03  -7.8620426E-03  -7.8322757E-03  -7.7792117E-03  -1.0137729E-02  -1.0137953E-02  -1.0138357E-02  -1.0138026E-02  -1.0134877E-02  -1.0124706E-02  -1.0099700E-02  -1.0046209E-02  -1.2935173E-02  -1.2936805E-02  -1.2941489E-02  -1.2948359E-02  -1.2955202E-02  -1.2956999E-02  -1.2943809E-02  -1.2897437E-02  -1.6400730E-02  -1.6404368E-02  -1.6415199E-02  -1.6432738E-02  -1.6455043E-02  -1.6476691E-02  -1.6485704E-02  -1.6458696E-02  -2.0664560E-02  -2.0670770E-02  -2.0689663E-02  -2.0721650E-02  -2.0765839E-02  -2.0817326E-02  -2.0862725E-02  -2.0873118E-02  -2.5874093E-02  -2.5883282E-02  -2.5911694E-02  -2.5961474E-02  -2.6034120E-02  -2.6126906E-02  -2.6226509E-02  -2.6298877E-02  -3.2193203E-02  -3.2205299E-02  -3.2243453E-02  -3.2312728E-02  -3.2419045E-02  -3.2564446E-02  -3.2738343E-02  -3.2903079E-02  -3.9794974E-02  -3.9809089E-02  -3.9854754E-02  -3.9941616E-02  -4.0082768E-02  -4.0288776E-02  -4.0555868E-02  -4.0846344E-02  -4.8832782E-02  -4.8846528E-02  -4.8893403E-02  -4.8989445E-02  -4.9158409E-02  -4.9424306E-02  -4.9796198E-02  -5.0242580E-02  -5.9362587E-02  -5.9371460E-02  -5.9406552E-02  -5.9492879E-02  -5.9668958E-02  -5.9978306E-02  -6.0451057E-02  -6.1070994E-02  -7.1195401E-02  -7.1191728E-02  -7.1192943E-02  -7.1235768E-02  -7.1378663E-02  -7.1692124E-02  -7.2237022E-02  -7.3023207E-02  -8.3700664E-02  -8.3672971E-02  -8.3607078E-02  -8.3554655E-02  -8.3599746E-02  -8.3848342E-02  -8.4402084E-02  -8.5304968E-02  -9.5646247E-02  -9.5578946E-02  -9.5400006E-02  -9.5179483E-02  -9.5033705E-02  -9.5111810E-02  -9.5562175E-02  -9.6458912E-02  -1.0516839E-01  -1.0504039E-01  -1.0468628E-01  -1.0419849E-01  -1.0373114E-01  -1.0348128E-01  -1.0363430E-01  -1.0425447E-01  -1.0984834E-01  -1.0963032E-01  -1.0901481E-01  -1.0812012E-01  -1.0714269E-01  -1.0631990E-01  -1.0583165E-01  -1.0563372E-01  -1.0669913E-01  -1.0634977E-01  -1.0535008E-01  -1.0384885E-01  -1.0208357E-01  -1.0030393E-01  -9.8592721E-02  -9.6637815E-02  -9.2201494E-02  -9.1664225E-02  -9.0113074E-02  -8.7731026E-02  -8.4787689E-02  -8.1490524E-02  -7.7692360E-02  -7.2616652E-02  -6.2995188E-02  -6.2199920E-02  -5.9889514E-02  -5.6283392E-02  -5.1667612E-02  -4.6140302E-02  -3.9178416E-02  -2.9354390E-02  -1.7318945E-02  -1.6189776E-02  -1.2895444E-02  -7.6950211E-03  -8.7724999E-04   7.6257363E-03   1.8827155E-02   3.4937128E-02   4.3155190E-02   4.4682086E-02   4.9148828E-02   5.6250848E-02   6.5700367E-02   7.7755772E-02   9.3969502E-02   1.1737473E-01   1.1174822E-01   1.1370185E-01   1.1942485E-01   1.2856072E-01   1.4081404E-01   1.5661997E-01   1.7803973E-01   2.0886695E-01   1.7676568E-01   1.7912537E-01   1.8604152E-01   1.9710080E-01   2.1198440E-01   2.3125967E-01   2.5739941E-01   2.9481792E-01   2.2482421E-01   2.2752586E-01   2.3544440E-01   2.4810919E-01   2.6515961E-01   2.8723344E-01   3.1708515E-01   3.5957360E-01   2.4789974E-01   2.5085729E-01   2.5952253E-01   2.7337006E-01   2.9198366E-01   3.1600869E-01   3.4834924E-01   3.9413893E-01   2.4761595E-01   2.5074005E-01   2.5988820E-01   2.7448693E-01   2.9405695E-01   3.1920671E-01   3.5288543E-01   4.0036345E-01   2.3235470E-01   2.3556577E-01   2.4496150E-01   2.5993121E-01   2.7993765E-01   3.0553162E-01   3.3963960E-01   3.8757390E-01   2.1155949E-01   2.1479298E-01   2.2424850E-01   2.3928893E-01   2.5933352E-01   2.8487444E-01   3.1878245E-01   3.6634776E-01   1.9129753E-01   1.9450422E-01   2.0387560E-01   2.1876225E-01   2.3855624E-01   2.6370129E-01   2.9699713E-01   3.4366679E-01   1.7281270E-01   1.7595287E-01   1.8512565E-01   1.9968292E-01   2.1900685E-01   2.4350409E-01   2.7589312E-01   3.2129076E-01   1.5390798E-01   1.5694529E-01   1.6581592E-01   1.7988589E-01   1.9854484E-01   2.2217047E-01   2.5338575E-01   2.9716343E-01   1.3179402E-01   1.3469101E-01   1.4315203E-01   1.5657145E-01   1.7436144E-01   1.9687560E-01   2.2662324E-01   2.6839411E-01   1.0563600E-01   1.0835122E-01   1.1628406E-01   1.2887062E-01   1.4555998E-01   1.6668470E-01   1.9462144E-01   2.3394138E-01   7.7363506E-02   7.9853490E-02   8.7132126E-02   9.8689109E-02   1.1402349E-01   1.3345091E-01   1.5920170E-01   1.9559985E-01   5.0415426E-02   5.2644782E-02   5.9165265E-02   6.9527566E-02   8.3290860E-02   1.0075890E-01   1.2400848E-01   1.5709800E-01   2.7625097E-02   2.9578494E-02   3.5294920E-02   4.4388268E-02   5.6483231E-02   7.1878389E-02   9.2498600E-02   1.2212858E-01   1.0114782E-02   1.1800124E-02   1.6735040E-02   2.4594471E-02   3.5071008E-02   4.8471399E-02   6.6584691E-02   9.2925310E-02  -2.4647769E-03  -1.0222588E-03   3.2049902E-03   9.9503696E-03   1.8980561E-02   3.0634217E-02   4.6596684E-02   7.0123553E-02  -1.1164771E-02  -9.9324379E-03  -6.3152872E-03  -5.1873922E-04   7.3151886E-03   1.7593011E-02   3.1938910E-02   5.3353705E-02  -1.7034888E-02  -1.5979791E-02  -1.2870945E-02  -7.8399461E-03  -9.0749562E-04   8.4480532E-03   2.1830097E-02   4.1961819E-02  -2.0758733E-02  -1.9848045E-02  -1.7142506E-02  -1.2676932E-02  -6.3094534E-03   2.6455559E-03   1.5788313E-02   3.5489395E-02  -2.2629660E-02  -2.1823512E-02  -1.9390658E-02  -1.5237248E-02  -9.0159755E-03   1.4586002E-04   1.3807755E-02   3.3767823E-02  -2.2656638E-02  -2.1890244E-02  -1.9523194E-02  -1.5306210E-02  -8.6762756E-03   1.3827048E-03   1.6235974E-02   3.6651172E-02  -2.0423928E-02  -1.9592110E-02  -1.6975369E-02  -1.2183525E-02  -4.5010410E-03   7.0614610E-03   2.3232415E-02   4.3547474E-02  -1.4760435E-02  -1.3738556E-02  -1.0522002E-02  -4.6645999E-03   4.4782646E-03   1.7446881E-02   3.4105003E-02   5.3088684E-02  -3.9598066E-03  -2.6669102E-03   1.3050269E-03   8.2194069E-03   1.8323511E-02   3.1588055E-02   4.7188383E-02   6.3341834E-02   1.2674909E-02   1.4140501E-02   1.8517943E-02   2.5729548E-02   3.5558477E-02   4.7461987E-02   6.0265303E-02   7.2417378E-02   3.3533722E-02   3.4934781E-02   3.9033733E-02   4.5423925E-02   5.3486042E-02   6.2414471E-02   7.1427740E-02   8.0858678E-02   5.5156436E-02   5.6241229E-02   5.9314761E-02   6.3782245E-02   6.9098637E-02   7.5248897E-02   8.3342940E-02   9.5623143E-02   7.3364466E-02   7.4111633E-02   7.6291546E-02   7.9876527E-02   8.5404694E-02   9.3944788E-02   1.0622942E-01   1.2128186E-01   9.8979250E-02   9.9803589E-02   1.0234411E-01   1.0687062E-01   1.1398936E-01   1.2341130E-01   1.3282309E-01   1.3907322E-01   1.3474648E-01   1.3491023E-01   1.3535848E-01   1.3622850E-01   1.3774386E-01   1.3857722E-01   1.3552654E-01   1.3604864E-01   1.3500585E-01   1.3194792E-01   1.2754259E-01   1.2329881E-01  -1.2193239E-04  -1.1670750E-04  -1.1034824E-04  -1.0265321E-04  -9.3308736E-05  -8.1977931E-05  -6.8557951E-05  -1.6876805E-04  -1.6188135E-04  -1.5349450E-04  -1.4333299E-04  -1.3094023E-04  -1.1579686E-04  -9.7682918E-05  -7.7219665E-05  -2.2993384E-04  -2.2107438E-04  -2.1024249E-04  -1.9705023E-04  -1.8081858E-04  -1.6073791E-04  -1.3638733E-04  -1.0858348E-04  -3.1290605E-04  -3.0159624E-04  -2.8767917E-04  -2.7059123E-04  -2.4931680E-04  -2.2260944E-04  -1.8975267E-04  -1.5180648E-04  -4.2683366E-04  -4.1244589E-04  -3.9460487E-04  -3.7248083E-04  -3.4457416E-04  -3.0911833E-04  -2.6496404E-04  -2.1329132E-04  -5.8271224E-04  -5.6449999E-04  -5.4173102E-04  -5.1328441E-04  -4.7740067E-04  -4.3173661E-04  -3.7411443E-04  -3.0505011E-04  -7.9389202E-04  -7.7098462E-04  -7.4221217E-04  -7.0674758E-04  -6.6314515E-04  -6.0831942E-04  -5.3779519E-04  -4.4870598E-04  -1.0768983E-03  -1.0482398E-03  -1.0126489E-03  -9.7073108E-04  -9.2247711E-04  -8.6432317E-04  -7.8732375E-04  -6.7962037E-04  -1.4525376E-03  -1.4168593E-03  -1.3737426E-03  -1.3268343E-03  -1.2796861E-03  -1.2299537E-03  -1.1623146E-03  -1.0471861E-03  -1.9471961E-03  -1.9027200E-03  -1.8505161E-03  -1.7989547E-03  -1.7582548E-03  -1.7312343E-03  -1.6973724E-03  -1.5974267E-03  -2.5939764E-03  -2.5379355E-03  -2.4728614E-03  -2.4126982E-03  -2.3772751E-03  -2.3798107E-03  -2.3987899E-03  -2.3348555E-03  -3.4340720E-03  -3.3625825E-03  -3.2780275E-03  -3.1991547E-03  -3.1557754E-03  -3.1733410E-03  -3.2285042E-03  -3.1574606E-03  -4.5186225E-03  -4.4272216E-03  -4.3149949E-03  -4.2033866E-03  -4.1292580E-03  -4.1249841E-03  -4.1510491E-03  -3.9873789E-03  -5.9107412E-03  -5.7954169E-03  -5.6482544E-03  -5.4916269E-03  -5.3657526E-03  -5.3027822E-03  -5.2365316E-03  -4.9386905E-03  -7.6876953E-03  -7.5457511E-03  -7.3590497E-03  -7.1513560E-03  -6.9663692E-03  -6.8325084E-03  -6.6658766E-03  -6.2516113E-03  -9.9431509E-03  -9.7740162E-03  -9.5456429E-03  -9.2865191E-03  -9.0480354E-03  -8.8623045E-03  -8.6244550E-03  -8.1846938E-03  -1.2789160E-02  -1.2596113E-02  -1.2326505E-02  -1.2016740E-02  -1.1732453E-02  -1.1519929E-02  -1.1258507E-02  -1.0825857E-02  -1.6357288E-02  -1.6150046E-02  -1.5845841E-02  -1.5488937E-02  -1.5163237E-02  -1.4927235E-02  -1.4645437E-02  -1.4205495E-02  -2.0798400E-02  -2.0596001E-02  -2.0274917E-02  -1.9886823E-02  -1.9532204E-02  -1.9277113E-02  -1.8937748E-02  -1.8404698E-02  -2.6280144E-02  -2.6114224E-02  -2.5809936E-02  -2.5427345E-02  -2.5083359E-02  -2.4838883E-02  -2.4409024E-02  -2.3663484E-02  -3.2980174E-02  -3.2897878E-02  -3.2665513E-02  -3.2353770E-02  -3.2096703E-02  -3.1935528E-02  -3.1412650E-02  -3.0366328E-02  -4.1068066E-02  -4.1133080E-02  -4.1053317E-02  -4.0915083E-02  -4.0874623E-02  -4.0942896E-02  -4.0374078E-02  -3.8875021E-02  -5.0661467E-02  -5.0950520E-02  -5.1128276E-02  -5.1308800E-02  -5.1681139E-02  -5.2237317E-02  -5.1779032E-02  -4.9672104E-02  -6.1733101E-02  -6.2324472E-02  -6.2876321E-02  -6.3548192E-02  -6.4598098E-02  -6.6040628E-02  -6.6044532E-02  -6.3161582E-02  -7.3950380E-02  -7.4899204E-02  -7.5919554E-02  -7.7241808E-02  -7.9267405E-02  -8.2184732E-02  -8.3324790E-02  -7.9610489E-02  -8.6464331E-02  -8.7748468E-02  -8.9226738E-02  -9.1241576E-02  -9.4490334E-02  -9.9625930E-02  -1.0309057E-01  -9.8695628E-02  -9.7693518E-02  -9.9096261E-02  -1.0075848E-01  -1.0320558E-01  -1.0769276E-01  -1.1583752E-01  -1.2331156E-01  -1.1894776E-01  -1.0514956E-01  -1.0607024E-01  -1.0716981E-01  -1.0926312E-01  -1.1452627E-01  -1.2633686E-01  -1.4001489E-01  -1.3716406E-01  -1.0533404E-01  -1.0457538E-01  -1.0370892E-01  -1.0414146E-01  -1.0907815E-01  -1.2426656E-01  -1.4632753E-01  -1.4738561E-01  -9.3701825E-02  -8.9343131E-02  -8.4377989E-02  -8.1138887E-02  -8.4595494E-02  -1.0174435E-01  -1.3133509E-01  -1.3961451E-01  -6.5040261E-02  -5.4529957E-02  -4.2691298E-02  -3.3332646E-02  -3.3166587E-02  -5.1463202E-02  -8.2193904E-02  -9.9152535E-02  -1.4851518E-02   4.6181381E-03   2.6313573E-02   4.4676028E-02   5.1384352E-02   4.1324422E-02   2.0111158E-02  -2.0882934E-03   5.8421161E-02   8.9265898E-02   1.2331635E-01   1.5364984E-01   1.7457598E-01   1.9074090E-01   1.9950250E-01   1.7033993E-01   1.5106344E-01   1.9458194E-01   2.4234344E-01   2.8701451E-01   3.2832778E-01   3.8666674E-01   4.3894854E-01   3.9856786E-01   2.5272250E-01   3.0861622E-01   3.6944744E-01   4.2738083E-01   4.8732084E-01   5.8231902E-01   6.6857028E-01   6.0692251E-01   3.4752557E-01   4.1397268E-01   4.8560178E-01   5.5358958E-01   6.2474316E-01   7.3703444E-01   8.3118474E-01   7.4382168E-01   4.1896504E-01   4.9322712E-01   5.7249045E-01   6.4636999E-01   7.2063661E-01   8.3307278E-01   9.1682279E-01   8.1246555E-01   4.5780778E-01   5.3699958E-01   6.2088770E-01   6.9762242E-01   7.7099466E-01   8.7664568E-01   9.4755405E-01   8.3152258E-01   4.6618068E-01   5.4783487E-01   6.3395828E-01   7.1169960E-01   7.8319865E-01   8.8213140E-01   9.4273758E-01   8.1947827E-01   4.5394728E-01   5.3624946E-01   6.2291586E-01   7.0058513E-01   7.7040988E-01   8.6490810E-01   9.1968191E-01   7.9332042E-01   4.3221968E-01   5.1396573E-01   6.0006368E-01   6.7705989E-01   7.4578983E-01   8.3848822E-01   8.9194381E-01   7.6589936E-01   4.0835795E-01   4.8875341E-01   5.7353556E-01   6.4948308E-01   7.1772462E-01   8.1104082E-01   8.6695099E-01   7.4352288E-01   3.8430110E-01   4.6274292E-01   5.4560840E-01   6.2002343E-01   6.8728036E-01   7.8002363E-01   8.3721507E-01   7.1764266E-01   3.5802686E-01   4.3395621E-01   5.1435077E-01   5.8674878E-01   6.5236676E-01   7.4288160E-01   7.9959232E-01   6.8489099E-01   3.2660332E-01   3.9943957E-01   4.7682214E-01   5.4675663E-01   6.1014062E-01   6.9692457E-01   7.5167549E-01   6.4303875E-01   2.8893587E-01   3.5806510E-01   4.3189734E-01   4.9897879E-01   5.5968076E-01   6.4163023E-01   6.9349861E-01   5.9226161E-01   2.4680319E-01   3.1160694E-01   3.8136217E-01   4.4524860E-01   5.0299537E-01   5.7947105E-01   6.2751746E-01   5.3571492E-01   2.0404103E-01   2.6401135E-01   3.2924843E-01   3.8964418E-01   4.4424874E-01   5.1501232E-01   5.5947602E-01   4.7845283E-01   1.6462593E-01   2.1954878E-01   2.8006062E-01   3.3680061E-01   3.8815990E-01   4.5325574E-01   4.9539500E-01   4.2552873E-01   1.3117336E-01   1.8122455E-01   2.3710270E-01   2.9017103E-01   3.3829001E-01   3.9787972E-01   4.3790492E-01   3.7919074E-01   1.0467110E-01   1.5033509E-01   2.0179109E-01   2.5110966E-01   2.9597202E-01   3.5015553E-01   3.8674647E-01   3.3818880E-01   8.4975339E-02   1.2679371E-01   1.7389520E-01   2.1913768E-01   2.6054883E-01   3.0935222E-01   3.4121978E-01   3.0100632E-01   7.1454525E-02   1.0978262E-01   1.5226290E-01   1.9281821E-01   2.3036668E-01   2.7396405E-01   3.0016166E-01   2.6909477E-01   6.3450575E-02   9.8304823E-02   1.3556018E-01   1.7057504E-01   2.0410766E-01   2.4327978E-01   2.6393548E-01   2.4345845E-01   6.0374431E-02   9.1409370E-02   1.2275603E-01   1.5174684E-01   1.8170689E-01   2.1750741E-01   2.3412172E-01   2.2575045E-01   6.1577410E-02   8.8209584E-02   1.1324204E-01   1.3660198E-01   1.6431548E-01   1.9593248E-01   2.0774564E-01   6.5972276E-02   8.7597512E-02   1.0663155E-01   1.2627101E-01   1.5310960E-01   1.7757575E-01   1.8289191E-01   7.1968235E-02   8.8439606E-02   1.0322416E-01   1.2263227E-01   1.4810321E-01   1.6307001E-01   7.7886626E-02   9.0368919E-02   1.0505091E-01   1.2700821E-01   1.4846900E-01   1.5436150E-01   8.3441988E-02   9.6085340E-02   1.1472274E-01   1.3813038E-01   1.5257020E-01   9.2818424E-02   1.1029479E-01   1.3233128E-01   1.5143408E-01   1.1288647E-01   1.3290574E-01   1.5029736E-01   1.5973899E-01   1.3595425E-01   1.4693823E-01   1.4072622E-01 
VonMises3D 1 2975 float
  0.0000000E+00   0.0000000E+00   0.0000000E+00   0.0000000E+00   0.0000000E+00   0.0000000E+00   0.0000000E+00   0.0000000E+00   0.0000000E+00   0.0000000E+00   0.0000000E+00   0.0000000E+00   0.0000000E+00   5.7448148E-07   0.0000000E+00   4.3950231E-06   2.4790872E-05   9.8404898E-06   6.9528556E-05   1.8195111E-04   9.6104959E-05   3.5387647E-04   7.0917699E-04   3.9707389E-04   1.1269214E-03   1.9877600E-03   1.1044167E-03   2.7502356E-03   4.5296950E-03   2.4341105E-03   5.6428546E-03   8.9444527E-03   4.6052835E-03   1.0256873E-02   1.5908511E-02   7.8564351E-03   1.7113781E-02   2.6205892E-02   1.2517893E-02   2.6943715E-02   4.0929150E-02   1.9126287E-02   4.0913079E-02   6.1831683E-02   2.8573472E-02   6.0907107E-02   9.1861241E-02   4.3200232E-02   9.0158209E-02   1.3662228E-01   7.9591133E-02   1.3854600E-01   2.0781045E-01   2.2027741E-01   2.6074028E-01   3.2786334E-01   6.9110221E-01   6.5841907E-01   5.2716058E-01   1.9605676E+00   1.7160730E+00   8.2815385E-01   3.8126771E+00   1.3218188E+00   0.0000000E+00   0.0000000E+00   0.0000000E+00   0.0000000E+00   0.0000000E+00   0.0000000E+00   0.0000000E+00   0.0000000E+00   0.0000000E+00   0.0000000E+00   0.0000000E+00   0.0000000E+00   0.0000000E+00   0.0000000E+00   0.0000000E+00   0.0000000E+00   0.0000000E+00   0.0000000E+00   0.0000000E+00   0.0000000E+00   0.0000000E+00   0.0000000E+00   0.0000000E+00   0.0000000E+00   0.0000000E+00   3.6292914E-08   1.1187350E-07   5.9933342E-08   8.8132452E-08   1.4946885E-07   1.6751902E-07   1.8053137E-07   3.5849396E-06   7.5986254E-06   9.2022092E-06   6.7620290E-06   1.2405015E-06   4.6885225E-06   8.2628649E-06   9.3159724E-06   5.3967538E-05   7.4695723E-05   7.5694959E-05   5.4856049E-05   1.8256469E-05   2.1231179E-05   5.0834442E-05   6.6189707E-05   2.8996138E-04   3.4427183E-04   3.2427392E-04   2.3045618E-04   8.5317341E-05   6.7919296E-05   1.8659676E-04   2.5501451E-04   9.8771381E-04   1.0900162E-03   9.8718447E-04   6.9090334E-04   2.6371927E-04   1.7949157E-04   5.2516256E-04   7.2965404E-04   2.5824506E-03   2.7391161E-03   2.4245162E-03   1.6759547E-03   6.4196455E-04   4.1235104E-04   1.2314682E-03   1.7182784E-03   5.6646783E-03   5.8771325E-03   5.1283538E-03   3.5012397E-03   1.3212918E-03   8.5531175E-04   2.5262798E-03   3.5130016E-03   1.0952701E-02   1.1221477E-02   9.6884910E-03   6.5142005E-03   2.3793171E-03   1.6426129E-03   4.6798359E-03   6.4504854E-03   1.9252665E-02   1.9570479E-02   1.6693292E-02   3.1473193E-02   3.1794116E-02   4.8855036E-02   4.9030233E-02   7.3438406E-02   7.3277034E-02   1.0875984E-01   1.0793457E-01   1.6413973E-01   1.6427407E-01   2.7941605E-01   3.1135258E-01   5.9093422E-01   7.8725457E-01   1.3751028E+00   2.0472667E+00   2.9376242E+00   4.6857605E+00   5.2339201E+00   8.8930311E+00   0.0000000E+00   0.0000000E+00   0.0000000E+00   0.0000000E+00   0.0000000E+00   0.0000000E+00   0.0000000E+00   0.0000000E+00   0.0000000E+00   0.0000000E+00   0.0000000E+00   0.0000000E+00   0.0000000E+00   0.0000000E+00   0.0000000E+00   0.0000000E+00   0.0000000E+00   0.0000000E+00   0.0000000E+00   0.0000000E+00   0.0000000E+00   0.0000000E+00   0.0000000E+00   0.0000000E+00   0.0000000E+00   0.0000000E+00   0.0000000E+00   1.8917430E-07   1.9469073E-07   1.9814657E-07   2.0015189E-07   2.0125070E-07   2.0186266E-07   2.0215123E-07   2.0226793E-07   2.0231168E-07   9.6520725E-06   9.7467500E-06   9.6894400E-06   9.5536871E-06   9.3889284E-06   9.2273849E-06   9.0889525E-06   8.9845316E-06   8.9197274E-06   7.0384631E-05   7.0537404E-05   6.9335125E-05   6.7450535E-05   6.5370397E-05   6.3408312E-05   6.1754094E-05   6.0516562E-05   5.9754202E-05   2.8165829E-04   2.8370309E-04   2.7723968E-04   2.6759345E-04   2.5706395E-04   2.4717028E-04   2.3883287E-04   2.3258905E-04   2.2874022E-04   8.1568683E-04   8.2904164E-04   8.0814766E-04   7.7626569E-04   7.4144150E-04   7.0865743E-04   6.8097311E-04   6.6019362E-04   6.4736389E-04   1.9249419E-03   1.9598610E-03   1.9095496E-03   1.8275983E-03   1.7380699E-03   1.6536611E-03   1.5822611E-03   1.5285671E-03   1.4953614E-03   3.9257440E-03   3.9871344E-03   3.8777292E-03   3.6991234E-03   3.5046304E-03   3.3213890E-03   3.1663156E-03   3.0495732E-03   2.9772848E-03   7.1701845E-03   7.2496170E-03   7.0267268E-03   6.6811121E-03   6.3072089E-03   5.9559424E-03   5.6588831E-03   5.4351641E-03   5.2965116E-03   0.0000000E+00   0.0000000E+00   0.0000000E+00   0.0000000E+00   0.0000000E+00   0.0000000E+00   0.0000000E+00   0.0000000E+00   0.0000000E+00   0.0000000E+00   0.0000000E+00   0.0000000E+00   0.0000000E+00   0.0000000E+00   0.0000000E+00   0.0000000E+00   0.0000000E+00   0.0000000E+00   0.0000000E+00   0.0000000E+00   0.0000000E+00   0.0000000E+00   0.0000000E+00   0.0000000E+00   2.0231857E-07   2.0231168E-07   2.0226793E-07   2.0215124E-07   2.0186269E-07   2.0125074E-07   2.0015186E-07   1.9814657E-07   8.8978004E-06   8.9197256E-06   8.9845280E-06   9.0889525E-06   9.2273858E-06   9.3889284E-06   9.5536889E-06   9.6894428E-06   5.9496710E-05   5.9754198E-05   6.0516562E-05   6.1754094E-05   6.3408319E-05   6.5370412E-05   6.7450543E-05   6.9335132E-05   2.2744146E-04   2.2874016E-04   2.3258899E-04   2.3883287E-04   2.4717028E-04   2.5706401E-04   2.6759351E-04   2.7723971E-04   6.4303051E-04   6.4736378E-04   6.6019350E-04   6.8097317E-04   7.0865755E-04   7.4144162E-04   7.7626592E-04   8.0814777E-04   1.4841354E-03   1.4953616E-03   1.5285669E-03   1.5822611E-03   1.6536609E-03   1.7380703E-03   1.8275987E-03   1.9095499E-03   2.9528257E-03   2.9772848E-03   3.0495729E-03   3.1663158E-03   3.3213894E-03   3.5046309E-03   3.6991234E-03   3.8777303E-03   5.2495641E-03   5.2965116E-03   5.4351636E-03   5.6588831E-03   5.9559420E-03   6.3072094E-03   6.6811140E-03   7.0267282E-03   0.0000000E+00   0.0000000E+00   0.0000000E+00   0.0000000E+00   0.0000000E+00   0.0000000E+00   0.0000000E+00   0.0000000E+00   0.0000000E+00   0.0000000E+00   0.0000000E+00   0.0000000E+00   0.0000000E+00   0.0000000E+00   0.0000000E+00   0.0000000E+00   0.0000000E+00   0.0000000E+00   0.0000000E+00   0.0000000E+00   0.0000000E+00   0.0000000E+00   0.0000000E+00   0.0000000E+00   0.0000000E+00   0.0000000E+00   0.0000000E+00   1.9469076E-07   1.8917437E-07   1.8053143E-07   1.6751900E-07   1.4946883E-07   8.8132524E-08   5.9933328E-08   1.1187348E-07   3.6292892E-08   9.7467509E-06   9.6520762E-06   9.3159724E-06   8.2628630E-06   4.6885229E-06   1.2405005E-06   6.7620299E-06   9.2022074E-06   7.5986213E-06   7.0537419E-05   7.0384645E-05   6.6189707E-05   5.0834442E-05   2.1231173E-05   1.8256475E-05   5.4856049E-05   7.5694945E-05   7.4695694E-05   2.8370312E-04   2.8165831E-04   2.5501451E-04   1.8659678E-04   6.7919311E-05   8.5317348E-05   2.3045621E-04   3.2427389E-04   3.4427180E-04   8.2904182E-04   8.1568694E-04   7.2965404E-04   5.2516273E-04   1.7949153E-04   2.6371930E-04   6.9090351E-04   9.8718423E-04   1.0900161E-03   1.9598615E-03   1.9249421E-03   1.7182784E-03   1.2314684E-03   4.1235122E-04   6.4196473E-04   1.6759553E-03   2.4245165E-03   2.7391159E-03   3.9871354E-03   3.9257454E-03   3.5130035E-03   2.5262812E-03   8.5531233E-04   1.3212909E-03   3.5012404E-03   5.1283538E-03   5.8771325E-03   7.2496198E-03   7.1701836E-03   6.4504873E-03   4.6798368E-03   1.6426136E-03   2.3793164E-03   6.5142005E-03   9.6884910E-03   1.1221474E-02   1.6693294E-02   1.9570479E-02   3.1794120E-02   4.9030248E-02   7.3277041E-02   1.0793459E-01   1.6427414E-01   3.1135267E-01   7.8725481E-01   2.0472677E+00   4.6857605E+00   8.8930340E+00   0.0000000E+00   0.0000000E+00   0.0000000E+00   0.0000000E+00   0.0000000E+00   0.0000000E+00   0.0000000E+00   0.0000000E+00   0.0000000E+00   0.0000000E+00   0.0000000E+00   0.0000000E+00   0.0000000E+00   0.0000000E+00   0.0000000E+00   3.5849382E-06   5.7448136E-07   0.0000000E+00   0.0000000E+00   5.3967527E-05   2.4790863E-05   4.3950226E-06   0.0000000E+00   2.8996138E-04   1.8195111E-04   6.9528556E-05   9.8404898E-06   9.8771381E-04   7.0917699E-04   3.5387641E-04   9.6104966E-05   2.5824504E-03   1.9877602E-03   1.1269210E-03   3.9707383E-04   5.6646778E-03   4.5296964E-03   2.7502361E-03   1.1044167E-03   1.0952702E-02   8.9444546E-03   5.6428546E-03   2.4341105E-03   1.9252663E-02   1.5908511E-02   1.0256873E-02   4.6052830E-03   3.1473193E-02   2.6205895E-02   1.7113779E-02   7.8564351E-03   4.8855055E-02   4.0929157E-02   2.6943715E-02   1.2517891E-02   7.3438413E-02   6.1831683E-02   4.0913083E-02   1.9126287E-02   1.0875984E-01   9.1861241E-02   6.0907103E-02   2.8573478E-02   1.6413975E-01   1.3662231E-01   9.0158202E-02   4.3200236E-02   2.7941608E-01   2.0781046E-01   1.3854600E-01   7.9591140E-02   5.9093404E-01   3.2786334E-01   2.6074028E-01   2.2027743E-01   1.3751029E+00   5.2716053E-01   6.5841919E-01   6.9110233E-01   2.9376245E+00   8.2815367E-01   1.7160730E+00   1.9605682E+00   5.2339196E+00   1.3218188E+00   3.8126767E+00   0.0000000E+00   0.0000000E+00   0.0000000E+00   0.0000000E+00   0.0000000E+00   0.0000000E+00   0.0000000E+00   0.0000000E+00   0.0000000E+00   0.0000000E+00   0.0000000E+00   0.0000000E+00   0.0000000E+00   0.0000000E+00   0.0000000E+00   0.0000000E+00   0.0000000E+00   0.0000000E+00   0.0000000E+00   0.0000000E+00   0.0000000E+00   0.0000000E+00   0.0000000E+00   0.0000000E+00   0.0000000E+00   0.0000000E+00   0.0000000E+00   0.0000000E+00   0.0000000E+00   0.0000000E+00   0.0000000E+00   0.0000000E+00   0.0000000E+00   0.0000000E+00   0.0000000E+00   0.0000000E+00   0.0000000E+00   0.0000000E+00   0.0000000E+00   0.0000000E+00   0.0000000E+00   0.0000000E+00   0.0000000E+00   0.0000000E+00   0.0000000E+00   0.0000000E+00   0.0000000E+00   0.0000000E+00   0.0000000E+00   0.0000000E+00   0.0000000E+00   0.0000000E+00   0.0000000E+00   0.0000000E+00   0.0000000E+00   0.0000000E+00   0.0000000E+00   0.0000000E+00   0.0000000E+00   0.0000000E+00   0.0000000E+00   0.0000000E+00   0.0000000E+00   0.0000000E+00   0.0000000E+00   0.0000000E+00   0.0000000E+00   0.0000000E+00   0.0000000E+00   0.0000000E+00   0.0000000E+00   0.0000000E+00   0.0000000E+00   0.0000000E+00   0.0000000E+00   0.0000000E+00   0.0000000E+00   0.0000000E+00   0.0000000E+00   0.0000000E+00   0.0000000E+00   0.0000000E+00   0.0000000E+00   0.0000000E+00   0.0000000E+00   0.0000000E+00   0.0000000E+00   0.0000000E+00   0.0000000E+00   0.0000000E+00   0.0000000E+00   0.0000000E+00   0.0000000E+00   0.0000000E+00   0.0000000E+00   0.0000000E+00   0.0000000E+00   0.0000000E+00   0.0000000E+00   0.0000000E+00   0.0000000E+00   0.0000000E+00   0.0000000E+00   0.0000000E+00   0.0000000E+00   0.0000000E+00   0.0000000E+00   0.0000000E+00   0.0000000E+00   0.0000000E+00   0.0000000E+00   0.0000000E+00   0.0000000E+00   0.0000000E+00   0.0000000E+00   0.0000000E+00   0.0000000E+00   0.0000000E+00   0.0000000E+00   0.0000000E+00   0.0000000E+00   0.0000000E+00   0.0000000E+00   0.0000000E+00   0.0000000E+00   0.0000000E+00   0.0000000E+00   0.0000000E+00   0.0000000E+00   0.0000000E+00   0.0000000E+00   0.0000000E+00   0.0000000E+00   0.0000000E+00   0.0000000E+00   0.0000000E+00   0.0000000E+00   0.0000000E+00   0.0000000E+00   0.0000000E+00   0.0000000E+00   0.0000000E+00   0.0000000E+00   0.0000000E+00   0.0000000E+00   0.0000000E+00   0.0000000E+00   0.0000000E+00   0.0000000E+00   0.0000000E+00   0.0000000E+00   0.0000000E+00   0.0000000E+00   0.0000000E+00   0.0000000E+00   0.0000000E+00   0.0000000E+00   0.0000000E+00   0.0000000E+00   0.0000000E+00   0.0000000E+00   0.0000000E+00   0.0000000E+00   0.0000000E+00   0.0000000E+00   0.0000000E+00   0.0000000E+00   0.0000000E+00   0.0000000E+00   0.0000000E+00   0.0000000E+00   0.0000000E+00   0.0000000E+00   0.0000000E+00   0.0000000E+00   0.0000000E+00   0.0000000E+00   0.0000000E+00   0.0000000E+00   0.0000000E+00   0.0000000E+00   0.0000000E+00   0.0000000E+00   0.0000000E+00   0.0000000E+00   0.0000000E+00   0.0000000E+00   0.0000000E+00   0.0000000E+00   0.0000000E+00   0.0000000E+00   0.0000000E+00   0.0000000E+00   0.0000000E+00   0.0000000E+00   0.0000000E+00   0.0000000E+00   0.0000000E+00   0.0000000E+00   0.0000000E+00   0.0000000E+00   0.0000000E+00   0.0000000E+00   0.0000000E+00   0.0000000E+00   0.0000000E+00   0.0000000E+00   0.0000000E+00   0.0000000E+00   0.0000000E+00   0.0000000E+00   0.0000000E+00   0.0000000E+00   0.0000000E+00   0.0000000E+00   0.0000000E+00   0.0000000E+00   0.0000000E+00   0.0000000E+00   0.0000000E+00   0.0000000E+00   0.0000000E+00   0.0000000E+00   0.0000000E+00   0.0000000E+00   0.0000000E+00   0.0000000E+00   0.0000000E+00   0.0000000E+00   0.0000000E+00   0.0000000E+00   0.0000000E+00   0.0000000E+00   0.0000000E+00   0.0000000E+00   0.0000000E+00   0.0000000E+00   0.0000000E+00   0.0000000E+00   0.0000000E+00   0.0000000E+00   0.0000000E+00   0.0000000E+00   0.0000000E+00   0.0000000E+00   0.0000000E+00   0.0000000E+00   0.0000000E+00   0.0000000E+00   0.0000000E+00   0.0000000E+00   0.0000000E+00   0.0000000E+00   0.0000000E+00   0.0000000E+00   0.0000000E+00   0.0000000E+00   0.0000000E+00   0.0000000E+00   0.0000000E+00   0.0000000E+00   0.0000000E+00   0.0000000E+00   0.0000000E+00   0.0000000E+00   0.0000000E+00   0.0000000E+00   0.0000000E+00   0.0000000E+00   0.0000000E+00   0.0000000E+00   0.0000000E+00   0.0000000E+00   0.0000000E+00   0.0000000E+00   0.0000000E+00   0.0000000E+00   0.0000000E+00   0.0000000E+00   0.0000000E+00   0.0000000E+00   0.0000000E+00   0.0000000E+00   0.0000000E+00   0.0000000E+00   0.0000000E+00   0.0000000E+00   0.0000000E+00   0.0000000E+00   0.0000000E+00   0.0000000E+00   0.0000000E+00   0.0000000E+00   0.0000000E+00   0.0000000E+00   0.0000000E+00   0.0000000E+00   0.0000000E+00   0.0000000E+00   0.0000000E+00   0.0000000E+00   0.0000000E+00   0.0000000E+00   0.0000000E+00   0.0000000E+00   0.0000000E+00   0.0000000E+00   0.0000000E+00   0.0000000E+00   0.0000000E+00   0.0000000E+00   0.0000000E+00   0.0000000E+00   0.0000000E+00   0.0000000E+00   0.0000000E+00   0.0000000E+00   0.0000000E+00   0.0000000E+00   0.0000000E+00   0.0000000E+00   0.0000000E+00   0.0000000E+00   0.0000000E+00   0.0000000E+00   0.0000000E+00   0.0000000E+00   0.0000000E+00   0.0000000E+00   0.0000000E+00   0.0000000E+00   0.0000000E+00   0.0000000E+00   0.0000000E+00   0.0000000E+00   0.0000000E+00   0.0000000E+00   0.0000000E+00   0.0000000E+00   0.0000000E+00   0.0000000E+00   0.0000000E+00   0.0000000E+00   0.0000000E+00   0.0000000E+00   0.0000000E+00   0.0000000E+00   0.0000000E+00   0.0000000E+00   0.0000000E+00   0.0000000E+00   0.0000000E+00   0.0000000E+00   0.0000000E+00   0.0000000E+00   0.0000000E+00   0.0000000E+00   0.0000000E+00   0.0000000E+00   0.0000000E+00   0.0000000E+00   0.0000000E+00   0.0000000E+00   0.0000000E+00   0.0000000E+00   0.0000000E+00   0.0000000E+00   0.0000000E+00   0.0000000E+00   0.0000000E+00   0.0000000E+00   0.0000000E+00   0.0000000E+00   0.0000000E+00   0.0000000E+00   0.0000000E+00   0.0000000E+00   0.0000000E+00   0.0000000E+00   0.0000000E+00   0.0000000E+00   0.0000000E+00   0.0000000E+00   0.0000000E+00   0.0000000E+00   0.0000000E+00   0.0000000E+00   0.0000000E+00   0.0000000E+00   0.0000000E+00   0.0000000E+00   0.0000000E+00   0.0000000E+00   0.0000000E+00   0.0000000E+00   0.0000000E+00   0.0000000E+00   0.0000000E+00   0.0000000E+00   0.0000000E+00   0.0000000E+00   0.0000000E+00   0.0000000E+00   0.0000000E+00   0.0000000E+00   0.0000000E+00   0.0000000E+00   0.0000000E+00   0.0000000E+00   0.0000000E+00   0.0000000E+00   0.0000000E+00   0.0000000E+00   0.0000000E+00   0.0000000E+00   0.0000000E+00   0.0000000E+00   0.0000000E+00   0.0000000E+00   0.0000000E+00   0.0000000E+00   0.0000000E+00   0.0000000E+00   0.0000000E+00   0.0000000E+00   0.0000000E+00   0.0000000E+00   0.0000000E+00   0.0000000E+00   0.0000000E+00   0.0000000E+00   0.0000000E+00   0.0000000E+00   0.0000000E+00   0.0000000E+00   0.0000000E+00   0.0000000E+00   0.0000000E+00   0.0000000E+00   0.0000000E+00   0.0000000E+00   0.0000000E+00   0.0000000E+00   0.0000000E+00   0.0000000E+00   0.0000000E+00   0.0000000E+00   0.0000000E+00   0.0000000E+00   0.0000000E+00   0.0000000E+00   0.0000000E+00   0.0000000E+00   0.0000000E+00   0.0000000E+00   0.0000000E+00   0.0000000E+00   0.0000000E+00   0.0000000E+00   0.0000000E+00   0.0000000E+00   0.0000000E+00   0.0000000E+00   0.0000000E+00   0.0000000E+00   0.0000000E+00   0.0000000E+00   0.0000000E+00   0.0000000E+00   0.0000000E+00   0.0000000E+00   0.0000000E+00   1.0879130E-02   3.8400511E-03   2.9445966E-03   7.9917172E-03   1.0887956E-02   2.5613662E-02   1.7029725E-02   5.7231700E-03   4.9894867E-03   1.2856908E-02   1.7291818E-02   3.9120592E-02   2.5516132E-02   8.1129996E-03   8.1434902E-03   1.9929040E-02   2.6439194E-02   5.7991479E-02   3.7256207E-02   1.1137228E-02   1.2979562E-02   3.0236755E-02   3.9560985E-02   8.4591031E-02   5.3528629E-02   1.4870120E-02   2.0441322E-02   4.5362331E-02   5.8521807E-02   1.2773883E-01   7.9701900E-02   2.2447230E-02   3.2621086E-02   6.7944705E-02   8.6197853E-02   2.6083758E-01   1.7359783E-01   7.6766692E-02   6.0036622E-02   1.0316579E-01   1.2739789E-01   7.3003739E-01   5.2384400E-01   2.8002739E-01   1.4714506E-01   1.6324626E-01   1.9066991E-01   1.9519989E+00   1.4165066E+00   7.8158480E-01   3.6991686E-01   2.7566546E-01   2.9090127E-01   4.4087634E+00   3.1464615E+00   1.7199008E+00   7.8798687E-01   4.7896308E-01   4.5149150E-01   8.0974522E+00   5.6721268E+00   3.0413396E+00   1.3799181E+00   8.0023807E-01   7.0379215E-01   1.1965743E+01   8.2621651E+00   4.3583813E+00   2.0185006E+00   1.2553909E+00   1.0857545E+00   1.4193467E+01   9.7456188E+00   5.1250916E+00   2.6027253E+00   1.8905574E+00   1.6432333E+00   1.3723864E+01   9.4242325E+00   5.1899781E+00   3.3088429E+00   2.8047156E+00   2.4295859E+00   1.1144679E+01   7.8958988E+00   5.3205152E+00   4.5346351E+00   4.1009569E+00   3.5029998E+00   8.6851034E+00   7.3238478E+00   6.6994429E+00   6.4793625E+00   5.8574471E+00   4.9313812E+00   9.6380301E+00   9.4418859E+00   9.4378710E+00   9.1518383E+00   8.1669884E+00   6.8023906E+00   1.3703245E+01   1.3438528E+01   1.3232476E+01   1.2640506E+01   1.1168341E+01   9.2274828E+00   1.9581757E+01   1.8769039E+01   1.8139179E+01   1.7147968E+01   1.5036613E+01   1.2343886E+01   2.7753336E+01   2.5801584E+01   2.4450798E+01   2.2910795E+01   1.9978247E+01   1.6332460E+01   3.8792759E+01   3.4807732E+01   3.2379829E+01   3.0204109E+01   2.6275530E+01   2.1462334E+01   5.3283611E+01   4.5968704E+01   4.2191948E+01   3.9444714E+01   3.4388317E+01   2.8183331E+01   7.1121765E+01   5.9070568E+01   5.4294197E+01   5.1432896E+01   4.5179394E+01   3.7295380E+01   9.2554779E+01   7.4228264E+01   6.9831245E+01   6.7878731E+01   6.0329433E+01   5.0227314E+01   1.1657831E+02   9.1906715E+01   9.1493607E+01   9.2314804E+01   8.3049583E+01   6.9500374E+01   1.4214063E+02   1.1415210E+02   1.2528210E+02   1.3168538E+02   1.1932365E+02   9.9534332E+01   1.7118550E+02   1.4845831E+02   1.8324634E+02   1.9845662E+02   1.7954097E+02   1.4788649E+02   2.1022194E+02   2.1043481E+02   2.8568204E+02   3.1136200E+02   2.7933905E+02   2.2642778E+02   2.8348108E+02   3.3025284E+02   4.5867307E+02   4.9234253E+02   4.3872107E+02   3.5122098E+02   4.4402853E+02   5.6167004E+02   7.2531964E+02   7.6439301E+02   6.7962573E+02   5.3971606E+02   8.1169958E+02   9.7431500E+02   1.1219124E+03   1.1508052E+03   1.0183219E+03   8.0526691E+02   1.5957767E+03   1.7389386E+03   1.7395654E+03   1.6687043E+03   1.4588256E+03   1.1498451E+03   3.0063032E+03   3.0391628E+03   2.6542300E+03   2.3349917E+03   1.9875142E+03   1.5585265E+03   4.8208506E+03   4.7068828E+03   3.7750547E+03   3.0900774E+03   2.5640100E+03   1.9985055E+03   6.3348042E+03   6.1678965E+03   4.7995034E+03   3.8072051E+03   3.1181819E+03   2.4238428E+03   7.1690479E+03   7.0830020E+03   5.5438545E+03   4.3922168E+03   3.5935696E+03   2.7937034E+03   7.5206553E+03   7.5392266E+03   6.0020698E+03   4.8123325E+03   3.9577839E+03   3.0824180E+03   7.6345151E+03   7.7458911E+03   6.2654019E+03   5.0894121E+03   4.2090439E+03   3.2838376E+03   7.6522441E+03   7.8297881E+03   6.4054590E+03   5.2523125E+03   4.3606689E+03   3.4059312E+03   7.6413853E+03   7.8514229E+03   6.4622632E+03   5.3261289E+03   4.4310029E+03   3.4626782E+03   7.6216069E+03   7.8344819E+03   6.4574150E+03   5.3298604E+03   4.4364580E+03   3.4672278E+03   7.6037661E+03   7.7930947E+03   6.4040186E+03   5.2753228E+03   4.3875786E+03   3.4280945E+03   7.4734722E+03   7.6449712E+03   6.2701548E+03   5.1582583E+03   4.2875537E+03   3.3489487E+03   7.2241641E+03   7.3853613E+03   6.0545156E+03   4.9796797E+03   4.1379941E+03   3.2312317E+03   6.8650806E+03   7.0212158E+03   5.7611621E+03   4.7422954E+03   3.9410681E+03   3.0766462E+03   6.4126309E+03   6.5664434E+03   5.3988994E+03   4.4519043E+03   3.7012673E+03   2.8886975E+03   5.8889253E+03   6.0387441E+03   4.9807593E+03   4.1177256E+03   3.4259019E+03   2.6731956E+03   5.3168540E+03   5.4613867E+03   4.5220894E+03   3.7513481E+03   3.1247266E+03   2.4380742E+03   4.7190669E+03   4.8608521E+03   4.0409199E+03   3.3663242E+03   2.8090759E+03   2.1926064E+03   4.1169741E+03   4.2570801E+03   3.5579114E+03   2.9783511E+03   2.4913367E+03   1.9466671E+03   3.5233240E+03   3.6691399E+03   3.0927056E+03   2.6026370E+03   2.1833750E+03   1.7097048E+03   2.9461829E+03   3.1155227E+03   2.6617551E+03   2.2514480E+03   1.8945964E+03   1.4892712E+03   2.4007258E+03   2.6060247E+03   2.2746226E+03   1.9319733E+03   1.6304242E+03   1.2893654E+03   1.8936733E+03   2.1452808E+03   1.9333531E+03   1.6471265E+03   1.3922930E+03   1.1107635E+03   1.4478370E+03   1.7362587E+03   1.6369077E+03   1.3991750E+03   1.1816378E+03   9.5265527E+02   1.3682560E+03   1.3780162E+03   1.1915118E+03   1.0013899E+03   8.1509125E+02   1.0287191E+03   1.1324358E+03   1.0207114E+03   8.5413812E+02   6.9881061E+02   8.7521960E+02   8.6292865E+02   7.3677856E+02   6.0343140E+02   6.4652106E+02   6.8358459E+02   6.3101276E+02   5.2463849E+02   5.0166125E+02   5.0478168E+02   4.4891525E+02   3.6504678E+02   3.5139932E+02   3.4356314E+02   2.4298322E+02   1.2019603E-02   1.2085873E-02   1.1664560E-02   1.1052620E-02   1.0397699E-02   9.7850477E-03   9.2676962E-03   8.8780895E-03   8.6364737E-03   1.8942153E-02   1.8933551E-02   1.8191988E-02   1.7178457E-02   1.6107580E-02   1.5110713E-02   1.4270501E-02   1.3637992E-02   1.3245606E-02   2.8723598E-02   2.8533738E-02   2.7292671E-02   2.5683183E-02   2.4005266E-02   2.2451917E-02   2.1145860E-02   2.0163670E-02   1.9554561E-02   4.2615753E-02   4.2068586E-02   4.0052280E-02   3.7549350E-02   3.4975316E-02   3.2607336E-02   3.0622985E-02   2.9133841E-02   2.8211672E-02   6.2505633E-02   6.1312910E-02   5.8086593E-02   5.4223336E-02   5.0304323E-02   4.6724834E-02   4.3739028E-02   4.1506231E-02   4.0127262E-02   9.1195509E-02   8.8843055E-02   8.3700813E-02   7.7742934E-02   7.1783185E-02   6.6384248E-02   6.1908435E-02   5.8578506E-02   5.6530092E-02   1.3297904E-01   1.2839580E-01   1.2012754E-01   1.1090601E-01   1.0183532E-01   9.3701616E-02   8.7012611E-02   8.2069613E-02   7.9044499E-02   1.9473743E-01   1.8550514E-01   1.7190894E-01   1.5751393E-01   1.4368935E-01   1.3146694E-01   1.2152092E-01   1.1423282E-01   1.0979997E-01   2.8753504E-01   2.6846719E-01   2.4546094E-01   2.2271568E-01   2.0161329E-01   1.8332754E-01   1.6865277E-01   1.5801002E-01   1.5158299E-01   4.2813000E-01   3.8938487E-01   3.4973723E-01   3.1343088E-01   2.8120792E-01   2.5402302E-01   2.3258974E-01   2.1723819E-01   2.0804410E-01   6.3976473E-01   5.6487566E-01   4.9678102E-01   4.3876094E-01   3.8973054E-01   3.4966570E-01   3.1874603E-01   2.9692322E-01   2.8397772E-01   9.5184427E-01   8.1614941E-01   7.0198524E-01   6.1031008E-01   5.3643674E-01   4.7809887E-01   4.3414503E-01   4.0363544E-01   3.8573161E-01   1.3989837E+00   1.1686434E+00   9.8410755E-01   8.4245068E-01   7.3299795E-01   6.4941239E-01   5.8799464E-01   5.4612285E-01   5.2183998E-01   2.0204020E+00   1.6518371E+00   1.3653798E+00   1.1527572E+00   9.9418485E-01   8.7677675E-01   7.9260790E-01   7.3627168E-01   7.0400214E-01   2.8609996E+00   2.2999108E+00   1.8722538E+00   1.5630666E+00   1.3391739E+00   1.1778923E+00   1.0649004E+00   9.9060059E-01   9.4855762E-01   3.9746120E+00   3.1536326E+00   2.5374951E+00   2.1018372E+00   1.7940693E+00   1.5775079E+00   1.4287978E+00   1.3325239E+00   1.2786344E+00   5.4282246E+00   4.2643552E+00   3.4045317E+00   2.8087645E+00   2.3964612E+00   2.1116319E+00   1.9189727E+00   1.7956505E+00   1.7271457E+00   7.3062716E+00   5.7011714E+00   4.5354896E+00   3.7429621E+00   3.2030318E+00   2.8341179E+00   2.5863211E+00   2.4283302E+00   2.3407412E+00   9.7215090E+00   7.5639596E+00   6.0252409E+00   4.9963870E+00   4.3012686E+00   3.8262491E+00   3.5054688E+00   3.2995415E+00   3.1847022E+00   1.2836857E+01   1.0007038E+01   8.0244598E+00   6.7140985E+00   5.8259048E+00   5.2093668E+00   4.7842073E+00   4.5059223E+00   4.3485403E+00   1.6908472E+01   1.3279422E+01   1.0774390E+01   9.1218863E+00   7.9794555E+00   7.1595063E+00   6.5737672E+00   6.1791186E+00   5.9515395E+00   2.2361988E+01   1.7784916E+01   1.4652300E+01   1.2558861E+01   1.1054168E+01   9.9214468E+00   9.0775776E+00   8.4912882E+00   8.1465750E+00   2.9910156E+01   2.4157785E+01   2.0217955E+01   1.7505281E+01   1.5447972E+01   1.3816951E+01   1.2554482E+01   1.1655243E+01   1.1118746E+01   4.0717220E+01   3.3343338E+01   2.8243603E+01   2.4588335E+01   2.1661398E+01   1.9238047E+01   1.7310196E+01   1.5914441E+01   1.5074190E+01   5.6637890E+01   4.6681019E+01   3.9714191E+01   3.4550686E+01   3.0260601E+01   2.6614674E+01   2.3668404E+01   2.1516266E+01   2.0213898E+01   8.0640953E+01   6.6048302E+01   5.5822796E+01   4.8192703E+01   4.1810230E+01   3.6352345E+01   3.1917294E+01   2.8662951E+01   2.6687464E+01   1.1759951E+02   9.4235863E+01   7.8066513E+01   6.6345016E+01   5.6809978E+01   4.8764267E+01   4.2243118E+01   3.7448685E+01   3.4530792E+01   1.7528766E+02   1.3559093E+02   1.0855762E+02   8.9954369E+01   7.5685036E+01   6.4032692E+01   5.4683617E+01   4.7809448E+01   4.3614414E+01   2.6466376E+02   1.9642975E+02   1.5034753E+02   1.2026410E+02   9.8848984E+01   8.2216049E+01   6.9116676E+01   5.9505047E+01   5.3623466E+01   3.9823007E+02   2.8433316E+02   2.0725385E+02   1.5883978E+02   1.2675522E+02   1.0327893E+02   8.5276375E+01   7.2133781E+01   6.4073204E+01   5.8591229E+02   4.0575397E+02   2.8273282E+02   2.0715504E+02   1.5979004E+02   1.2708952E+02   1.0278890E+02   8.5190575E+01   7.4382904E+01   8.2967865E+02   5.6243427E+02   3.7791098E+02   2.6568872E+02   1.9794388E+02   1.5335291E+02   1.2121784E+02   9.8172043E+01   8.4014648E+01   1.1190323E+03   7.4826160E+02   4.8967474E+02   3.3290036E+02   2.4035367E+02   1.8147420E+02   1.4009528E+02   1.1068948E+02   9.2627693E+01   1.4305074E+03   9.4873071E+02   6.1012640E+02   4.0479941E+02   2.8503864E+02   2.1044731E+02   1.5891693E+02   1.2252924E+02   1.0017416E+02   1.7329043E+03   1.1442544E+03   7.2829047E+02   4.7570288E+02   3.2919006E+02   2.3894632E+02   1.7716489E+02   1.3365881E+02   1.0690286E+02   1.9971589E+03   1.3162227E+03   8.3347565E+02   5.3990967E+02   3.6992123E+02   2.6562454E+02   1.9439731E+02   1.4421156E+02   1.1328877E+02   2.2046572E+03   1.4524086E+03   9.1836664E+02   5.9327869E+02   4.0496729E+02   2.8934250E+02   2.1021503E+02   1.5430315E+02   1.1976693E+02   2.3500728E+03   1.5489604E+03   9.8022614E+02   6.3385614E+02   4.3293512E+02   3.0915735E+02   2.2406110E+02   1.6369002E+02   1.2630324E+02   2.4385598E+03   1.6087317E+03   1.0200523E+03   6.6151086E+02   4.5316708E+02   3.2426654E+02   2.3517252E+02   1.7170410E+02   1.3230855E+02   2.4799995E+03   1.6376616E+03   1.0406683E+03   6.7711206E+02   4.6551559E+02   3.3407700E+02   2.4278949E+02   1.7753242E+02   1.3695366E+02   2.4837346E+03   1.6414301E+03   1.0449436E+03   6.8177716E+02   4.7015903E+02   3.3831018E+02   2.4641106E+02   1.8055415E+02   1.3955261E+02   2.4557837E+03   1.6237394E+03   1.0348950E+03   6.7648682E+02   4.6750870E+02   3.3706589E+02   2.4594887E+02   1.8055634E+02   1.3981616E+02   2.3988508E+03   1.5863735E+03   1.0117044E+03   6.6206818E+02   4.5817819E+02   3.3080310E+02   2.4173378E+02   1.7776756E+02   1.3790573E+02   2.3140352E+03   1.5302236E+03   9.7620587E+02   6.3934125E+02   4.4295099E+02   3.2023544E+02   2.3439255E+02   1.7273579E+02   1.3431699E+02   2.2026433E+03   1.4563636E+03   9.2938025E+02   6.0924353E+02   4.2271472E+02   3.0617767E+02   2.2465961E+02   1.6612590E+02   1.2966927E+02   2.0673015E+03   1.3667085E+03   8.7264807E+02   5.7289209E+02   3.9839404E+02   2.8941599E+02   2.1321007E+02   1.5852740E+02   1.2449766E+02   1.9123256E+03   1.2642354E+03   8.0797644E+02   5.3160608E+02   3.7092227E+02   2.7064304E+02   2.0056668E+02   1.5033751E+02   1.1911842E+02   1.7436041E+03   1.1529191E+03   7.3785889E+02   4.8691275E+02   3.4125174E+02   2.5046330E+02   1.8709618E+02   1.4174628E+02   1.1360464E+02   1.5681200E+03   1.0374956E+03   6.6522668E+02   4.4054031E+02   3.1038821E+02   2.2944998E+02   1.7308510E+02   1.3283446E+02   1.0790390E+02   1.3933613E+03   9.2312036E+02   5.9330865E+02   3.9438754E+02   2.7941040E+02   2.0819464E+02   1.5882237E+02   1.2369214E+02   1.0198918E+02   1.2265742E+03   8.1490381E+02   5.2539063E+02   3.5042365E+02   2.4943668E+02   1.8730476E+02   1.4461276E+02   1.1444305E+02   9.5881866E+01   1.0735948E+03   7.1724323E+02   4.6444089E+02   3.1050467E+02   2.2154860E+02   1.6736243E+02   1.3073839E+02   1.0519944E+02   8.9604401E+01   9.3772839E+02   6.3286865E+02   4.1264609E+02   2.7615268E+02   1.9670872E+02   1.4890146E+02   1.1744422E+02   9.6034805E+01   8.3145149E+01   8.1922748E+02   5.6215186E+02   3.7094196E+02   2.4834282E+02   1.7571916E+02   1.3244371E+02   1.0498269E+02   8.7009178E+01   7.6460052E+01   7.1590588E+02   5.0301129E+02   3.3845404E+02   2.2727431E+02   1.5914548E+02   1.1853853E+02   9.3699875E+01   7.8254311E+01   6.9540749E+01   6.2505432E+02   4.5169601E+02   3.1232474E+02   2.1204195E+02   1.4709489E+02   1.0766371E+02   8.4066650E+01   7.0082359E+01   6.2551399E+01   5.4553540E+02   4.0476736E+02   2.8854172E+02   2.0012044E+02   1.3885573E+02   9.9933388E+01   7.6505295E+01   6.2951977E+01   5.5893612E+01   4.7788458E+02   3.6177954E+02   2.6420633E+02   1.8801164E+02   1.3230675E+02   9.4660461E+01   7.1038597E+01   5.7186413E+01   4.9999645E+01   4.2066684E+02   3.2458398E+02   2.4054987E+02   1.7404929E+02   1.2468196E+02   8.9890854E+01   6.6828232E+01   5.2604786E+01   4.4986370E+01   3.6973026E+02   2.9212741E+02   2.2068402E+02   1.6093994E+02   1.1579141E+02   8.3868217E+01   6.2252079E+01   4.8345802E+01   4.0536407E+01   3.1482846E+02   2.5975217E+02   2.0261948E+02   1.5050757E+02   1.0827196E+02   7.7373116E+01   5.6610996E+01   4.3432571E+01   3.5961479E+01   2.3729750E+02   2.1728569E+02   1.7933487E+02   1.3816937E+02   1.0079732E+02   7.1140869E+01   5.0533634E+01   3.7782745E+01   3.0856739E+01   1.6001260E+02   1.5052873E+02   1.4070642E+02   1.1658028E+02   8.7749802E+01   6.2211315E+01   4.3415062E+01   3.1617327E+01   2.5403788E+01   1.1068620E+02   8.6244522E+01   7.9654678E+01   6.4756920E+01   4.5966049E+01   3.0340172E+01   2.0348679E+01   1.5230686E+01   5.6884884E+01   3.7693256E+01   2.5016071E+01   1.3362859E+01   4.8059726E+00   1.2169099E+00   3.2760960E+01   1.3046011E+01   2.0596595E+00   3.8314450E+00   8.5546132E-03   8.6364718E-03   8.8780895E-03   9.2676962E-03   9.7850468E-03   1.0397702E-02   1.1052621E-02   1.1664563E-02   1.3112610E-02   1.3245606E-02   1.3637993E-02   1.4270501E-02   1.5110713E-02   1.6107580E-02   1.7178457E-02   1.8191991E-02   1.9348135E-02   1.9554563E-02   2.0163674E-02   2.1145860E-02   2.2451917E-02   2.4005271E-02   2.5683185E-02   2.7292676E-02   2.7899388E-02   2.8211672E-02   2.9133847E-02   3.0622989E-02   3.2607339E-02   3.4975316E-02   3.7549347E-02   4.0052295E-02   3.9661024E-02   4.0127262E-02   4.1506235E-02   4.3739025E-02   4.6724834E-02   5.0304316E-02   5.4223347E-02   5.8086589E-02   5.5839080E-02   5.6530092E-02   5.8578506E-02   6.1908443E-02   6.6384263E-02   7.1783178E-02   7.7742949E-02   8.3700843E-02   7.8026898E-02   7.9044499E-02   8.2069606E-02   8.7012589E-02   9.3701594E-02   1.0183530E-01   1.1090601E-01   1.2012757E-01   1.0831372E-01   1.0979997E-01   1.1423281E-01   1.2152088E-01   1.3146691E-01   1.4368936E-01   1.5751390E-01   1.7190900E-01   1.4943610E-01   1.5158296E-01   1.5800996E-01   1.6865274E-01   1.8332753E-01   2.0161329E-01   2.2271568E-01   2.4546108E-01   2.0498590E-01   2.0804405E-01   2.1723808E-01   2.3258966E-01   2.5402296E-01   2.8120789E-01   3.1343091E-01   3.4973732E-01   2.7969232E-01   2.8397772E-01   2.9692307E-01   3.1874597E-01   3.4966564E-01   3.8973057E-01   4.3876100E-01   4.9678111E-01   3.7983677E-01   3.8573152E-01   4.0363541E-01   4.3414491E-01   4.7809881E-01   5.3643668E-01   6.1031008E-01   7.0198524E-01   5.1389265E-01   5.2184004E-01   5.4612285E-01   5.8799452E-01   6.4941239E-01   7.3299783E-01   8.4245032E-01   9.8410767E-01   6.9350761E-01   7.0400202E-01   7.3627180E-01   7.9260778E-01   8.7677664E-01   9.9418485E-01   1.1527567E+00   1.3653796E+00   9.3497092E-01   9.4855738E-01   9.9060059E-01   1.0649003E+00   1.1778922E+00   1.3391739E+00   1.5630662E+00   1.8722538E+00   1.2613190E+00   1.2786342E+00   1.3325242E+00   1.4287978E+00   1.5775079E+00   1.7940692E+00   2.1018369E+00   2.5374951E+00   1.7052231E+00   1.7271456E+00   1.7956502E+00   1.9189727E+00   2.1116316E+00   2.3964615E+00   2.8087645E+00   3.4045320E+00   2.3127332E+00   2.3407412E+00   2.4283304E+00   2.5863211E+00   2.8341181E+00   3.2030311E+00   3.7429616E+00   4.5354896E+00   3.1478565E+00   3.1847026E+00   3.2995417E+00   3.5054684E+00   3.8262484E+00   4.3012686E+00   4.9963875E+00   6.0252395E+00   4.2976742E+00   4.3485398E+00   4.5059233E+00   4.7842064E+00   5.2093668E+00   5.8259039E+00   6.7140980E+00   8.0244608E+00   5.8772817E+00   5.9515400E+00   6.1791182E+00   6.5737658E+00   7.1595073E+00   7.9794569E+00   9.1218834E+00   1.0774394E+01   8.0330133E+00   8.1465750E+00   8.4912872E+00   9.0775757E+00   9.9214458E+00   1.1054168E+01   1.2558859E+01   1.4652303E+01   1.0940769E+01   1.1118748E+01   1.1655239E+01   1.2554482E+01   1.3816951E+01   1.5447969E+01   1.7505280E+01   2.0217951E+01   1.4794324E+01   1.5074186E+01   1.5914442E+01   1.7310194E+01   1.9238047E+01   2.1661396E+01   2.4588341E+01   2.8243599E+01   1.9779095E+01   2.0213898E+01   2.1516264E+01   2.3668404E+01   2.6614664E+01   3.0260597E+01   3.4550694E+01   3.9714199E+01   2.6026779E+01   2.6687458E+01   2.8662945E+01   3.1917282E+01   3.6352345E+01   4.1810219E+01   4.8192696E+01   5.5822784E+01   3.3553429E+01   3.4530792E+01   3.7448692E+01   4.2243126E+01   4.8764267E+01   5.6809982E+01   6.6345032E+01   7.8066505E+01   4.2206745E+01   4.3614426E+01   4.7809460E+01   5.4683613E+01   6.4032700E+01   7.5685028E+01   8.9954369E+01   1.0855766E+02   5.1645393E+01   5.3623451E+01   5.9505058E+01   6.9116669E+01   8.2216042E+01   9.8849007E+01   1.2026414E+02   1.5034755E+02   6.1355877E+01   6.4073204E+01   7.2133797E+01   8.5276421E+01   1.0327893E+02   1.2675523E+02   1.5883974E+02   2.0725386E+02   7.0731567E+01   7.4382904E+01   8.5190575E+01   1.0278891E+02   1.2708956E+02   1.5979002E+02   2.0715503E+02   2.8273285E+02   7.9222511E+01   8.4014656E+01   9.8172050E+01   1.2121786E+02   1.5335294E+02   1.9794392E+02   2.6568872E+02   3.7791092E+02   8.6504143E+01   9.2627670E+01   1.1068948E+02   1.4009526E+02   1.8147421E+02   2.4035374E+02   3.3290045E+02   4.8967468E+02   9.2584282E+01   1.0017413E+02   1.2252924E+02   1.5891695E+02   2.1044739E+02   2.8503873E+02   4.0479950E+02   6.1012640E+02   9.7806320E+01   1.0690287E+02   1.3365884E+02   1.7716493E+02   2.3894635E+02   3.2919012E+02   4.7570285E+02   7.2829053E+02   1.0276069E+02   1.1328872E+02   1.4421153E+02   1.9439729E+02   2.6562454E+02   3.6992120E+02   5.3990967E+02   8.3347540E+02   1.0799269E+02   1.1976695E+02   1.5430315E+02   2.1021507E+02   2.8934253E+02   4.0496704E+02   5.9327863E+02   9.1836633E+02   1.1354193E+02   1.2630318E+02   1.6368996E+02   2.2406102E+02   3.0915720E+02   4.3293503E+02   6.3385583E+02   9.8022626E+02   1.1884875E+02   1.3230847E+02   1.7170406E+02   2.3517233E+02   3.2426642E+02   4.5316699E+02   6.6151068E+02   1.0200522E+03   1.2307997E+02   1.3695363E+02   1.7753239E+02   2.4278947E+02   3.3407690E+02   4.6551538E+02   6.7711206E+02   1.0406683E+03   1.2552826E+02   1.3955266E+02   1.8055408E+02   2.4641112E+02   3.3831012E+02   4.7015909E+02   6.8177716E+02   1.0449432E+03   1.2587798E+02   1.3981621E+02   1.8055640E+02   2.4594890E+02   3.3706580E+02   4.6750858E+02   6.7648676E+02   1.0348951E+03   1.2426723E+02   1.3790581E+02   1.7776761E+02   2.4173389E+02   3.3080319E+02   4.5817813E+02   6.6206805E+02   1.0117041E+03   1.2117367E+02   1.3431700E+02   1.7273592E+02   2.3439267E+02   3.2023547E+02   4.4295105E+02   6.3934113E+02   9.7620587E+02   1.1720111E+02   1.2966933E+02   1.6612602E+02   2.2465968E+02   3.0617758E+02   4.2271445E+02   6.0924347E+02   9.2938037E+02   1.1286604E+02   1.2449775E+02   1.5852750E+02   2.1321008E+02   2.8941589E+02   3.9839380E+02   5.7289209E+02   8.7264844E+02   1.0845640E+02   1.1911849E+02   1.5033759E+02   2.0056668E+02   2.7064291E+02   3.7092209E+02   5.3160590E+02   8.0797632E+02   1.0400341E+02   1.1360466E+02   1.4174634E+02   1.8709615E+02   2.5046317E+02   3.4125162E+02   4.8691263E+02   7.3785901E+02   9.9407845E+01   1.0790395E+02   1.3283446E+02   1.7308505E+02   2.2944983E+02   3.1038821E+02   4.4054016E+02   6.6522662E+02   9.4603233E+01   1.0198917E+02   1.2369209E+02   1.5882227E+02   2.0819450E+02   2.7941022E+02   3.9438745E+02   5.9330841E+02   8.9577415E+01   9.5881805E+01   1.1444299E+02   1.4461269E+02   1.8730461E+02   2.4943658E+02   3.5042355E+02   5.2539063E+02   8.4324219E+01   8.9604370E+01   1.0519942E+02   1.3073830E+02   1.6736229E+02   2.2154849E+02   3.1050455E+02   4.6444073E+02   7.8806633E+01   8.3145096E+01   9.6034729E+01   1.1744408E+02   1.4890134E+02   1.9670859E+02   2.7615268E+02   4.1264603E+02   7.2949265E+01   7.6460014E+01   8.7009117E+01   1.0498262E+02   1.3244366E+02   1.7571904E+02   2.4834277E+02   3.7094189E+02   6.6696732E+01   6.9540726E+01   7.8254295E+01   9.3699821E+01   1.1853848E+02   1.5914543E+02   2.2727429E+02   3.3845401E+02   6.0156612E+01   6.2551399E+01   7.0082321E+01   8.4066582E+01   1.0766368E+02   1.4709486E+02   2.1204199E+02   3.1232474E+02   5.3697830E+01   5.5893604E+01   6.2951942E+01   7.6505241E+01   9.9933334E+01   1.3885573E+02   2.0012048E+02   2.8854166E+02   4.7777065E+01   4.9999645E+01   5.7186398E+01   7.1038574E+01   9.4660423E+01   1.3230672E+02   1.8801160E+02   2.6420630E+02   4.2592548E+01   4.4986374E+01   5.2604767E+01   6.6828224E+01   8.9890839E+01   1.2468195E+02   1.7404924E+02   2.4054991E+02   3.8016922E+01   4.0536407E+01   4.8345787E+01   6.2252056E+01   8.3868210E+01   1.1579143E+02   1.6093993E+02   2.2068402E+02   3.3530758E+01   3.5961479E+01   4.3432552E+01   5.6610981E+01   7.7373116E+01   1.0827196E+02   1.5050755E+02   2.0261954E+02   2.8656773E+01   3.0856728E+01   3.7782742E+01   5.0533623E+01   7.1140854E+01   1.0079729E+02   1.3816937E+02   1.7933488E+02   2.3496408E+01   2.5403772E+01   3.1617331E+01   4.3415058E+01   6.2211315E+01   8.7749809E+01   1.1658031E+02   1.4070642E+02   1.3716856E+01   1.5230672E+01   2.0348650E+01   3.0340172E+01   4.5966064E+01   6.4756927E+01   7.9654671E+01   8.6244522E+01   2.3214328E+00   1.2169209E+00   4.8059688E+00   1.3362843E+01   2.5016071E+01   3.7693233E+01   5.6884907E+01   5.6106043E+00   3.8314490E+00   2.0596716E+00   1.3046027E+01   3.2760956E+01   1.2085875E-02   1.2019604E-02   1.0887963E-02   7.9917200E-03   2.9445987E-03   3.8400509E-03   1.0879132E-02   1.8933557E-02   1.8942159E-02   1.7291825E-02   1.2856914E-02   4.9894927E-03   5.7231672E-03   1.7029725E-02   2.5613660E-02   2.8533749E-02   2.8723612E-02   2.6439199E-02   1.9929055E-02   8.1435023E-03   8.1129894E-03   2.5516132E-02   3.9120596E-02   4.2068586E-02   4.2615775E-02   3.9561000E-02   3.0236769E-02   1.2979576E-02   1.1137217E-02   3.7256204E-02   5.7991486E-02   6.1312914E-02   6.2505670E-02   5.8521833E-02   4.5362361E-02   2.0441331E-02   1.4870100E-02   5.3528633E-02   8.4591039E-02   8.8843063E-02   9.1195554E-02   8.6197868E-02   6.7944720E-02   3.2621093E-02   2.2447225E-02   7.9701893E-02   1.2773889E-01   1.2839584E-01   1.3297911E-01   1.2739789E-01   1.0316582E-01   6.0036611E-02   7.6766722E-02   1.7359784E-01   2.6083764E-01   1.8550514E-01   1.9473752E-01   1.9066994E-01   1.6324630E-01   1.4714505E-01   2.8002745E-01   5.2384406E-01   7.3003763E-01   2.6846719E-01   2.8753513E-01   2.9090136E-01   2.7566549E-01   3.6991686E-01   7.8158504E-01   1.4165070E+00   1.9520004E+00   3.8938487E-01   4.2813003E-01   4.5149159E-01   4.7896296E-01   7.8798687E-01   1.7199016E+00   3.1464612E+00   4.4087639E+00   5.6487566E-01   6.3976490E-01   7.0379215E-01   8.0023813E-01   1.3799180E+00   3.0413399E+00   5.6721282E+00   8.0974569E+00   8.1614941E-01   9.5184439E-01   1.0857546E+00   1.2553906E+00   2.0184999E+00   4.3583798E+00   8.2621651E+00   1.1965743E+01   1.1686436E+00   1.3989840E+00   1.6432338E+00   1.8905576E+00   2.6027248E+00   5.1250906E+00   9.7456179E+00   1.4193469E+01   1.6518372E+00   2.0204022E+00   2.4295859E+00   2.8047156E+00   3.3088429E+00   5.1899791E+00   9.4242344E+00   1.3723871E+01   2.2999105E+00   2.8609996E+00   3.5030003E+00   4.1009560E+00   4.5346365E+00   5.3205161E+00   7.8958998E+00   1.1144682E+01   3.1536334E+00   3.9746130E+00   4.9313822E+00   5.8574471E+00   6.4793630E+00   6.6994433E+00   7.3238468E+00   8.6851034E+00   4.2643542E+00   5.4282246E+00   6.8023920E+00   8.1669893E+00   9.1518402E+00   9.4378729E+00   9.4418888E+00   9.6380281E+00   5.7011704E+00   7.3062739E+00   9.2274828E+00   1.1168343E+01   1.2640509E+01   1.3232479E+01   1.3438532E+01   1.3703243E+01   7.5639582E+00   9.7215099E+00   1.2343888E+01   1.5036617E+01   1.7147966E+01   1.8139185E+01   1.8769047E+01   1.9581764E+01   1.0007040E+01   1.2836861E+01   1.6332466E+01   1.9978254E+01   2.2910803E+01   2.4450804E+01   2.5801596E+01   2.7753342E+01   1.3279426E+01   1.6908478E+01   2.1462334E+01   2.6275532E+01   3.0204117E+01   3.2379822E+01   3.4807728E+01   3.8792767E+01   1.7784918E+01   2.2361992E+01   2.8183342E+01   3.4388325E+01   3.9444729E+01   4.2191963E+01   4.5968712E+01   5.3283619E+01   2.4157784E+01   2.9910170E+01   3.7295383E+01   4.5179394E+01   5.1432907E+01   5.4294201E+01   5.9070568E+01   7.1121765E+01   3.3343342E+01   4.0717243E+01   5.0227333E+01   6.0329449E+01   6.7878746E+01   6.9831245E+01   7.4228271E+01   9.2554817E+01   4.6681026E+01   5.6637917E+01   6.9500389E+01   8.3049614E+01   9.2314819E+01   9.1493637E+01   9.1906700E+01   1.1657833E+02   6.6048294E+01   8.0640961E+01   9.9534348E+01   1.1932370E+02   1.3168538E+02   1.2528210E+02   1.1415210E+02   1.4214066E+02   9.4235901E+01   1.1759955E+02   1.4788651E+02   1.7954100E+02   1.9845667E+02   1.8324640E+02   1.4845827E+02   1.7118549E+02   1.3559093E+02   1.7528766E+02   2.2642780E+02   2.7933905E+02   3.1136203E+02   2.8568216E+02   2.1043486E+02   2.1022198E+02   1.9642972E+02   2.6466373E+02   3.5122098E+02   4.3872110E+02   4.9234259E+02   4.5867313E+02   3.3025284E+02   2.8348114E+02   2.8433316E+02   3.9823007E+02   5.3971625E+02   6.7962561E+02   7.6439282E+02   7.2531964E+02   5.6167029E+02   4.4402863E+02   4.0575378E+02   5.8591229E+02   8.0526666E+02   1.0183217E+03   1.1508053E+03   1.1219121E+03   9.7431506E+02   8.1169934E+02   5.6243427E+02   8.2967871E+02   1.1498450E+03   1.4588256E+03   1.6687043E+03   1.7395659E+03   1.7389385E+03   1.5957771E+03   7.4826178E+02   1.1190326E+03   1.5585267E+03   1.9875143E+03   2.3349922E+03   2.6542297E+03   3.0391626E+03   3.0063030E+03   9.4873083E+02   1.4305073E+03   1.9985057E+03   2.5640095E+03   3.0900767E+03   3.7750547E+03   4.7068823E+03   4.8208511E+03   1.1442545E+03   1.7329042E+03   2.4238425E+03   3.1181821E+03   3.8072041E+03   4.7995029E+03   6.1678940E+03   6.3348047E+03   1.3162227E+03   1.9971588E+03   2.7937031E+03   3.5935698E+03   4.3922163E+03   5.5438545E+03   7.0830000E+03   7.1690488E+03   1.4524083E+03   2.2046572E+03   3.0824172E+03   3.9577832E+03   4.8123325E+03   6.0020688E+03   7.5392246E+03   7.5206553E+03   1.5489606E+03   2.3500728E+03   3.2838379E+03   4.2090430E+03   5.0894111E+03   6.2654014E+03   7.7458901E+03   7.6345161E+03   1.6087317E+03   2.4385598E+03   3.4059307E+03   4.3606685E+03   5.2523125E+03   6.4054585E+03   7.8297871E+03   7.6522441E+03   1.6376615E+03   2.4799988E+03   3.4626772E+03   4.4310029E+03   5.3261284E+03   6.4622622E+03   7.8514209E+03   7.6413853E+03   1.6414296E+03   2.4837349E+03   3.4672271E+03   4.4364575E+03   5.3298594E+03   6.4574136E+03   7.8344839E+03   7.6216099E+03   1.6237394E+03   2.4557837E+03   3.4280942E+03   4.3875786E+03   5.2753208E+03   6.4040171E+03   7.7930918E+03   7.6037646E+03   1.5863735E+03   2.3988506E+03   3.3489482E+03   4.2875537E+03   5.1582568E+03   6.2701543E+03   7.6449722E+03   7.4734712E+03   1.5302239E+03   2.3140352E+03   3.2312322E+03   4.1379932E+03   4.9796797E+03   6.0545156E+03   7.3853608E+03   7.2241641E+03   1.4563636E+03   2.2026438E+03   3.0766458E+03   3.9410671E+03   4.7422949E+03   5.7611616E+03   7.0212173E+03   6.8650825E+03   1.3667084E+03   2.0673013E+03   2.8886975E+03   3.7012678E+03   4.4519033E+03   5.3988979E+03   6.5664419E+03   6.4126309E+03   1.2642350E+03   1.9123259E+03   2.6731956E+03   3.4259021E+03   4.1177241E+03   4.9807588E+03   6.0387441E+03   5.8889243E+03   1.1529191E+03   1.7436049E+03   2.4380745E+03   3.1247268E+03   3.7513474E+03   4.5220908E+03   5.4613848E+03   5.3168545E+03   1.0374956E+03   1.5681196E+03   2.1926064E+03   2.8090757E+03   3.3663245E+03   4.0409194E+03   4.8608525E+03   4.7190674E+03   9.2312048E+02   1.3933608E+03   1.9466677E+03   2.4913364E+03   2.9783506E+03   3.5579109E+03   4.2570801E+03   4.1169746E+03   8.1490399E+02   1.2265743E+03   1.7097048E+03   2.1833752E+03   2.6026365E+03   3.0927061E+03   3.6691389E+03   3.5233250E+03   7.1724316E+02   1.0735947E+03   1.4892710E+03   1.8945962E+03   2.2514478E+03   2.6617554E+03   3.1155229E+03   2.9461831E+03   6.3286865E+02   9.3772858E+02   1.2893654E+03   1.6304238E+03   1.9319733E+03   2.2746226E+03   2.6060234E+03   2.4007258E+03   5.6215179E+02   8.1922754E+02   1.1107635E+03   1.3922926E+03   1.6471262E+03   1.9333531E+03   2.1452815E+03   1.8936733E+03   5.0301129E+02   7.1590576E+02   9.5265527E+02   1.1816378E+03   1.3991749E+03   1.6369075E+03   1.7362583E+03   1.4478367E+03   4.5169601E+02   6.2505420E+02   8.1509100E+02   1.0013899E+03   1.1915118E+03   1.3780162E+03   1.3682566E+03   4.0476724E+02   5.4553510E+02   6.9881049E+02   8.5413806E+02   1.0207115E+03   1.1324359E+03   1.0287190E+03   3.6177951E+02   4.7788452E+02   6.0343127E+02   7.3677844E+02   8.6292871E+02   8.7521985E+02   3.2458405E+02   4.2066684E+02   5.2463837E+02   6.3101263E+02   6.8358453E+02   6.4652106E+02   2.9212747E+02   3.6973016E+02   4.4891516E+02   5.0478165E+02   5.0166116E+02   2.5975226E+02   3.1482846E+02   3.5139935E+02   3.6504697E+02   2.1728568E+02   2.3729755E+02   2.4298322E+02   3.4356305E+02   1.5052867E+02   1.6001260E+02   1.1068621E+02 
Vel 3 2975 float
  0.0000000E+00   0.0000000E+00   0.0000000E+00   0.0000000E+00   0.0000000E+00   0.0000000E+00   0.0000000E+00   0.0000000E+00   0.0000000E+00   0.0000000E+00   0.0000000E+00   0.0000000E+00   0.0000000E+00   0.0000000E+00   0.0000000E+00   0.0000000E+00   0.0000000E+00   0.0000000E+00   0.0000000E+00   0.0000000E+00   0.0000000E+00   0.0000000E+00   0.0000000E+00   0.0000000E+00   0.0000000E+00   0.0000000E+00   0.0000000E+00   0.0000000E+00   0.0000000E+00   0.0000000E+00   0.0000000E+00   0.0000000E+00   0.0000000E+00   0.0000000E+00   0.0000000E+00   0.0000000E+00   0.0000000E+00   0.0000000E+00   0.0000000E+00   0.0000000E+00   0.0000000E+00   0.0000000E+00   0.0000000E+00   0.0000000E+00   0.0000000E+00   0.0000000E+00   0.0000000E+00   0.0000000E+00   0.0000000E+00   0.0000000E+00   0.0000000E+00   0.0000000E+00   0.0000000E+00   0.0000000E+00   0.0000000E+00   0.0000000E+00   0.0000000E+00   0.0000000E+00   0.0000000E+00   0.0000000E+00   0.0000000E+00   0.0000000E+00   0.0000000E+00   0.0000000E+00   0.0000000E+00   0.0000000E+00   0.0000000E+00   0.0000000E+00   0.0000000E+00   0.0000000E+00   0.0000000E+00   0.0000000E+00   0.0000000E+00   0.0000000E+00   0.0000000E+00   0.0000000E+00   0.0000000E+00   0.0000000E+00   0.0000000E+00   0.0000000E+00   0.0000000E+00   0.0000000E+00   0.0000000E+00   0.0000000E+00   0.0000000E+00   0.0000000E+00   0.0000000E+00   0.0000000E+00   0.0000000E+00   0.0000000E+00   0.0000000E+00   0.0000000E+00   0.0000000E+00   0.0000000E+00   0.0000000E+00   0.0000000E+00   0.0000000E+00   0.0000000E+00   0.0000000E+00   0.0000000E+00   0.0000000E+00   0.0000000E+00   0.0000000E+00   0.0000000E+00   0.0000000E+00   0.0000000E+00   0.0000000E+00   0.0000000E+00   0.0000000E+00   0.0000000E+00   0.0000000E+00   0.0000000E+00   0.0000000E+00   0.0000000E+00   0.0000000E+00   0.0000000E+00   0.0000000E+00   0.0000000E+00   0.0000000E+00   0.0000000E+00   0.0000000E+00   0.0000000E+00   0.0000000E+00   0.0000000E+00   0.0000000E+00   0.0000000E+00   0.0000000E+00   0.0000000E+00   0.0000000E+00   0.0000000E+00   0.0000000E+00   0.0000000E+00   0.0000000E+00   0.0000000E+00   0.0000000E+00   0.0000000E+00   0.0000000E+00   0.0000000E+00   0.0000000E+00   0.0000000E+00   0.0000000E+00   0.0000000E+00   0.0000000E+00   0.0000000E+00   0.0000000E+00   0.0000000E+00   0.0000000E+00   0.0000000E+00   0.0000000E+00   0.0000000E+00   0.0000000E+00   0.0000000E+00   0.0000000E+00   0.0000000E+00   0.0000000E+00   0.0000000E+00   0.0000000E+00   0.0000000E+00   0.0000000E+00   0.0000000E+00   0.0000000E+00   0.0000000E+00   0.0000000E+00   0.0000000E+00   0.0000000E+00   0.0000000E+00   0.0000000E+00   0.0000000E+00   0.0000000E+00   0.0000000E+00   0.0000000E+00   0.0000000E+00   0.0000000E+00   0.0000000E+00   0.0000000E+00   0.0000000E+00   0.0000000E+00   0.0000000E+00   0.0000000E+00   0.0000000E+00   0.0000000E+00   0.0000000E+00   0.0000000E+00   0.0000000E+00   0.0000000E+00   0.0000000E+00   0.0000000E+00   0.0000000E+00   0.0000000E+00   0.0000000E+00   0.0000000E+00   0.0000000E+00   0.0000000E+00   0.0000000E+00   0.0000000E+00   0.0000000E+00   0.0000000E+00   0.0000000E+00   0.0000000E+00   0.0000000E+00   0.0000000E+00   0.0000000E+00   0.0000000E+00   0.0000000E+00   0.0000000E+00   0.0000000E+00   0.0000000E+00   0.0000000E+00   0.0000000E+00   0.0000000E+00   0.0000000E+00   0.0000000E+00   0.0000000E+00   0.0000000E+00   0.0000000E+00   0.0000000E+00   0.0000000E+00   0.0000000E+00   0.0000000E+00   0.0000000E+00   0.0000000E+00   0.0000000E+00   0.0000000E+00   0.0000000E+00   0.0000000E+00   0.0000000E+00   0.0000000E+00   0.0000000E+00   0.0000000E+00   0.0000000E+00   0.0000000E+00   0.0000000E+00   0.0000000E+00   0.0000000E+00   0.0000000E+00   0.0000000E+00   0.0000000E+00   0.0000000E+00   0.0000000E+00   0.0000000E+00   0.0000000E+00   0.0000000E+00   0.0000000E+00   0.0000000E+00   0.0000000E+00   0.0000000E+00   0.0000000E+00   0.0000000E+00   0.0000000E+00   0.0000000E+00   0.0000000E+00   0.0000000E+00   0.0000000E+00   0.0000000E+00   0.0000000E+00   0.0000000E+00   0.0000000E+00   0.0000000E+00   0.0000000E+00   0.0000000E+00   0.0000000E+00   0.0000000E+00   0.0000000E+00   0.0000000E+00   0.0000000E+00   0.0000000E+00   0.0000000E+00   0.0000000E+00   0.0000000E+00   0.0000000E+00   0.0000000E+00   0.0000000E+00   0.0000000E+00   0.0000000E+00   0.0000000E+00   0.0000000E+00   0.0000000E+00   0.0000000E+00   0.0000000E+00   0.0000000E+00   0.0000000E+00   0.0000000E+00   0.0000000E+00   0.0000000E+00   0.0000000E+00   0.0000000E+00   0.0000000E+00   0.0000000E+00   0.0000000E+00   0.0000000E+00   0.0000000E+00   0.0000000E+00   0.0000000E+00   0.0000000E+00   0.0000000E+00   0.0000000E+00   0.0000000E+00   0.0000000E+00   0.0000000E+00   0.0000000E+00   0.0000000E+00   0.0000000E+00   0.0000000E+00   0.0000000E+00   0.0000000E+00   0.0000000E+00   0.0000000E+00   0.0000000E+00   0.0000000E+00   0.0000000E+00   0.0000000E+00   0.0000000E+00   0.0000000E+00   0.0000000E+00   0.0000000E+00   0.0000000E+00   0.0000000E+00   0.0000000E+00   0.0000000E+00   0.0000000E+00   0.0000000E+00   0.0000000E+00   0.0000000E+00   0.0000000E+00   0.0000000E+00   0.0000000E+00   0.0000000E+00   0.0000000E+00   0.0000000E+00   0.0000000E+00   0.0000000E+00   0.0000000E+00   0.0000000E+00   0.0000000E+00   0.0000000E+00   0.0000000E+00   0.0000000E+00   0.0000000E+00   0.0000000E+00   0.0000000E+00   0.0000000E+00   0.0000000E+00   0.0000000E+00   0.0000000E+00   0.0000000E+00   0.0000000E+00   0.0000000E+00   0.0000000E+00   0.0000000E+00   0.0000000E+00   0.0000000E+00   0.0000000E+00   0.0000000E+00   0.0000000E+00   0.0000000E+00   0.0000000E+00   0.0000000E+00   0.0000000E+00   0.0000000E+00   0.0000000E+00   0.0000000E+00   0.0000000E+00   0.0000000E+00   0.0000000E+00   0.0000000E+00   0.0000000E+00   0.0000000E+00   0.0000000E+00   0.0000000E+00   0.0000000E+00   0.0000000E+00   0.0000000E+00   0.0000000E+00   0.0000000E+00   0.0000000E+00   0.0000000E+00   0.0000000E+00   0.0000000E+00   0.0000000E+00   0.0000000E+00   0.0000000E+00   0.0000000E+00   0.0000000E+00   0.0000000E+00   0.0000000E+00   0.0000000E+00   0.0000000E+00   0.0000000E+00   0.0000000E+00   0.0000000E+00   0.0000000E+00   0.0000000E+00   0.0000000E+00   0.0000000E+00   0.0000000E+00   0.0000000E+00   0.0000000E+00   0.0000000E+00   0.0000000E+00   0.0000000E+00   0.0000000E+00   0.0000000E+00   0.0000000E+00   0.0000000E+00   0.0000000E+00   0.0000000E+00   0.0000000E+00   0.0000000E+00   0.0000000E+00   0.0000000E+00   0.0000000E+00   0.0000000E+00   0.0000000E+00   0.0000000E+00   0.0000000E+00   0.0000000E+00   0.0000000E+00   0.0000000E+00   0.0000000E+00   0.0000000E+00   0.0000000E+00   0.0000000E+00   0.0000000E+00   0.0000000E+00   0.0000000E+00   0.0000000E+00   0.0000000E+00   0.0000000E+00   0.0000000E+00   0.0000000E+00   0.0000000E+00   0.0000000E+00   0.0000000E+00   0.0000000E+00   0.0000000E+00   0.0000000E+00   0.0000000E+00   0.0000000E+00   0.0000000E+00   0.0000000E+00   0.0000000E+00   0.0000000E+00   0.0000000E+00   0.0000000E+00   0.0000000E+00   0.0000000E+00   0.0000000E+00   0.0000000E+00   0.0000000E+00   0.0000000E+00   0.0000000E+00   0.0000000E+00   0.0000000E+00   0.0000000E+00   0.0000000E+00   0.0000000E+00   0.0000000E+00   0.0000000E+00   0.0000000E+00   0.0000000E+00   0.0000000E+00   0.0000000E+00   0.0000000E+00   0.0000000E+00   0.0000000E+00   0.0000000E+00   0.0000000E+00   0.0000000E+00   0.0000000E+00   0.0000000E+00   0.0000000E+00   0.0000000E+00   0.0000000E+00   0.0000000E+00   0.0000000E+00   0.0000000E+00   0.0000000E+00   0.0000000E+00   0.0000000E+00   0.0000000E+00   0.0000000E+00   0.0000000E+00   0.0000000E+00   0.0000000E+00   0.0000000E+00   0.0000000E+00   0.0000000E+00   0.0000000E+00   0.0000000E+00   0.0000000E+00   0.0000000E+00   0.0000000E+00   0.0000000E+00   0.0000000E+00   0.0000000E+00   0.0000000E+00   0.0000000E+00   0.0000000E+00   0.0000000E+00   0.0000000E+00   0.0000000E+00   0.0000000E+00   0.0000000E+00   0.0000000E+00   0.0000000E+00   0.0000000E+00   0.0000000E+00   0.0000000E+00   0.0000000E+00   0.0000000E+00   0.0000000E+00   0.0000000E+00   0.0000000E+00   0.0000000E+00   0.0000000E+00   0.0000000E+00   0.0000000E+00   0.0000000E+00   0.0000000E+00   0.0000000E+00   0.0000000E+00   0.0000000E+00   0.0000000E+00   0.0000000E+00   0.0000000E+00   0.0000000E+00   0.0000000E+00   0.0000000E+00   0.0000000E+00   0.0000000E+00   0.0000000E+00   0.0000000E+00   0.0000000E+00   0.0000000E+00   0.0000000E+00   0.0000000E+00   0.0000000E+00   0.0000000E+00   0.0000000E+00   0.0000000E+00   0.0000000E+00   0.0000000E+00   0.0000000E+00   0.0000000E+00   0.0000000E+00   0.0000000E+00   0.0000000E+00   0.0000000E+00   0.0000000E+00   0.0000000E+00   0.0000000E+00   0.0000000E+00   0.0000000E+00   0.0000000E+00   0.0000000E+00   0.0000000E+00   0.0000000E+00   0.0000000E+00   0.0000000E+00   0.0000000E+00   0.0000000E+00   0.0000000E+00   0.0000000E+00   0.0000000E+00   0.0000000E+00   0.0000000E+00   0.0000000E+00   0.0000000E+00   0.0000000E+00   0.0000000E+00   0.0000000E+00   0.0000000E+00   0.0000000E+00   0.0000000E+00   0.0000000E+00   0.0000000E+00   0.0000000E+00   0.0000000E+00   0.0000000E+00   0.0000000E+00   0.0000000E+00   0.0000000E+00   0.0000000E+00   0.0000000E+00   0.0000000E+00   0.0000000E+00   0.0000000E+00   0.0000000E+00   0.0000000E+00   0.0000000E+00   0.0000000E+00   0.0000000E+00   0.0000000E+00   0.0000000E+00   0.0000000E+00   0.0000000E+00   0.0000000E+00   0.0000000E+00   0.0000000E+00   0.0000000E+00   0.0000000E+00   0.0000000E+00   0.0000000E+00   0.0000000E+00   0.0000000E+00   0.0000000E+00   0.0000000E+00   0.0000000E+00   0.0000000E+00   0.0000000E+00   0.0000000E+00   0.0000000E+00   0.0000000E+00   0.0000000E+00   0.0000000E+00   0.0000000E+00   0.0000000E+00   0.0000000E+00   0.0000000E+00   0.0000000E+00   0.0000000E+00   0.0000000E+00   0.0000000E+00   0.0000000E+00   0.0000000E+00   0.0000000E+00   0.0000000E+00   0.0000000E+00   0.0000000E+00   0.0000000E+00   0.0000000E+00   0.0000000E+00   0.0000000E+00   0.0000000E+00   0.0000000E+00   0.0000000E+00   0.0000000E+00   0.0000000E+00   0.0000000E+00   0.0000000E+00   0.0000000E+00   0.0000000E+00   0.0000000E+00   0.0000000E+00   0.0000000E+00   0.0000000E+00   0.0000000E+00   0.0000000E+00   0.0000000E+00   0.0000000E+00   0.0000000E+00   0.0000000E+00   0.0000000E+00   0.0000000E+00   0.0000000E+00   0.0000000E+00   0.0000000E+00   0.0000000E+00   0.0000000E+00   0.0000000E+00   0.0000000E+00   0.0000000E+00   0.0000000E+00   0.0000000E+00   0.0000000E+00   0.0000000E+00   0.0000000E+00   0.0000000E+00   0.0000000E+00   0.0000000E+00   0.0000000E+00   0.0000000E+00   0.0000000E+00   0.0000000E+00   0.0000000E+00   0.0000000E+00   0.0000000E+00   0.0000000E+00   0.0000000E+00   0.0000000E+00   0.0000000E+00   0.0000000E+00   0.0000000E+00   0.0000000E+00   0.0000000E+00   0.0000000E+00   0.0000000E+00   0.0000000E+00   0.0000000E+00   0.0000000E+00   0.0000000E+00   0.0000000E+00   0.0000000E+00   0.0000000E+00   0.0000000E+00   0.0000000E+00   0.0000000E+00   0.0000000E+00   0.0000000E+00   0.0000000E+00   0.0000000E+00   0.0000000E+00   0.0000000E+00   0.0000000E+00   0.0000000E+00   0.0000000E+00   0.0000000E+00   0.0000000E+00   0.0000000E+00   0.0000000E+00   0.0000000E+00   0.0000000E+00   0.0000000E+00   0.0000000E+00   0.0000000E+00   0.0000000E+00   0.0000000E+00   0.0000000E+00   0.0000000E+00   0.0000000E+00   0.0000000E+00   0.0000000E+00   0.0000000E+00   0.0000000E+00   0.0000000E+00   0.0000000E+00   0.0000000E+00   0.0000000E+00   0.0000000E+00   0.0000000E+00   0.0000000E+00   0.0000000E+00   0.0000000E+00   0.0000000E+00   0.0000000E+00   0.0000000E+00   0.0000000E+00   0.0000000E+00   0.0000000E+00   0.0000000E+00   0.0000000E+00   0.0000000E+00   0.0000000E+00   0.0000000E+00   0.0000000E+00   0.0000000E+00   0.0000000E+00   0.0000000E+00   0.0000000E+00   0.0000000E+00   0.0000000E+00   0.0000000E+00   0.0000000E+00   0.0000000E+00   0.0000000E+00   0.0000000E+00   0.0000000E+00   0.0000000E+00   0.0000000E+00   0.0000000E+00   0.0000000E+00   0.0000000E+00   0.0000000E+00   0.0000000E+00   0.0000000E+00   0.0000000E+00   0.0000000E+00   0.0000000E+00   0.0000000E+00   0.0000000E+00   0.0000000E+00   0.0000000E+00   0.0000000E+00   0.0000000E+00   0.0000000E+00   0.0000000E+00   0.0000000E+00   0.0000000E+00   0.0000000E+00   0.0000000E+00   0.0000000E+00   0.0000000E+00   0.0000000E+00   0.0000000E+00   0.0000000E+00   0.0000000E+00   0.0000000E+00   0.0000000E+00   0.0000000E+00   0.0000000E+00   0.0000000E+00   0.0000000E+00   0.0000000E+00   0.0000000E+00   0.0000000E+00   0.0000000E+00   0.0000000E+00   0.0000000E+00   0.0000000E+00   0.0000000E+00   0.0000000E+00   0.0000000E+00   0.0000000E+00   0.0000000E+00   0.0000000E+00   0.0000000E+00   0.0000000E+00   0.0000000E+00   0.0000000E+00   0.0000000E+00   0.0000000E+00   0.0000000E+00   0.0000000E+00   0.0000000E+00   0.0000000E+00   0.0000000E+00   0.0000000E+00   0.0000000E+00   0.0000000E+00   0.0000000E+00   0.0000000E+00   0.0000000E+00   0.0000000E+00   0.0000000E+00   0.0000000E+00   0.0000000E+00   0.0000000E+00   0.0000000E+00   0.0000000E+00   0.0000000E+00   0.0000000E+00   0.0000000E+00   0.0000000E+00   0.0000000E+00   0.0000000E+00   0.0000000E+00   0.0000000E+00   0.0000000E+00   0.0000000E+00   0.0000000E+00   0.0000000E+00   0.0000000E+00   0.0000000E+00   0.0000000E+00   0.0000000E+00   0.0000000E+00   0.0000000E+00   0.0000000E+00   0.0000000E+00   0.0000000E+00   0.0000000E+00   0.0000000E+00   0.0000000E+00   0.0000000E+00   0.0000000E+00   0.0000000E+00   0.0000000E+00   0.0000000E+00   0.0000000E+00   0.0000000E+00   0.0000000E+00   0.0000000E+00   0.0000000E+00   0.0000000E+00   0.0000000E+00   0.0000000E+00   0.0000000E+00   0.0000000E+00   0.0000000E+00   0.0000000E+00   0.0000000E+00   0.0000000E+00   0.0000000E+00   0.0000000E+00   0.0000000E+00   0.0000000E+00   0.0000000E+00   0.0000000E+00   0.0000000E+00   0.0000000E+00   0.0000000E+00   0.0000000E+00   0.0000000E+00   0.0000000E+00   0.0000000E+00   0.0000000E+00   0.0000000E+00   0.0000000E+00   0.0000000E+00   0.0000000E+00   0.0000000E+00   0.0000000E+00   0.0000000E+00   0.0000000E+00   0.0000000E+00   0.0000000E+00   0.0000000E+00   0.0000000E+00   0.0000000E+00   0.0000000E+00   0.0000000E+00   0.0000000E+00   0.0000000E+00   0.0000000E+00   0.0000000E+00   0.0000000E+00   0.0000000E+00   0.0000000E+00   0.0000000E+00   0.0000000E+00   0.0000000E+00   0.0000000E+00   0.0000000E+00   0.0000000E+00   0.0000000E+00   0.0000000E+00   0.0000000E+00   0.0000000E+00   0.0000000E+00   0.0000000E+00   0.0000000E+00   0.0000000E+00   0.0000000E+00   0.0000000E+00   0.0000000E+00   0.0000000E+00   0.0000000E+00   0.0000000E+00   0.0000000E+00   0.0000000E+00   0.0000000E+00   0.0000000E+00   0.0000000E+00   0.0000000E+00   0.0000000E+00   0.0000000E+00   0.0000000E+00   0.0000000E+00   0.0000000E+00   0.0000000E+00   0.0000000E+00   0.0000000E+00   0.0000000E+00   0.0000000E+00   0.0000000E+00   0.0000000E+00   0.0000000E+00   0.0000000E+00   0.0000000E+00   0.0000000E+00   0.0000000E+00   0.0000000E+00   0.0000000E+00   0.0000000E+00   0.0000000E+00   0.0000000E+00   0.0000000E+00   0.0000000E+00   0.0000000E+00   0.0000000E+00   0.0000000E+00   0.0000000E+00   0.0000000E+00   0.0000000E+00   0.0000000E+00   0.0000000E+00   0.0000000E+00   0.0000000E+00   0.0000000E+00   0.0000000E+00   0.0000000E+00   0.0000000E+00   0.0000000E+00   0.0000000E+00   0.0000000E+00   0.0000000E+00   0.0000000E+00   0.0000000E+00   0.0000000E+00   0.0000000E+00   0.0000000E+00   0.0000000E+00   0.0000000E+00   0.0000000E+00   0.0000000E+00   0.0000000E+00   0.0000000E+00   0.0000000E+00   0.0000000E+00   0.0000000E+00   0.0000000E+00   0.0000000E+00   0.0000000E+00   0.0000000E+00   0.0000000E+00   0.0000000E+00   0.0000000E+00   0.0000000E+00   0.0000000E+00   0.0000000E+00   0.0000000E+00   0.0000000E+00   0.0000000E+00   0.0000000E+00   0.0000000E+00   0.0000000E+00   0.0000000E+00   0.0000000E+00   0.0000000E+00   0.0000000E+00   0.0000000E+00   0.0000000E+00   0.0000000E+00   0.0000000E+00   0.0000000E+00   0.0000000E+00   0.0000000E+00   0.0000000E+00   0.0000000E+00   0.0000000E+00   0.0000000E+00   0.0000000E+00   0.0000000E+00   0.0000000E+00   0.0000000E+00   0.0000000E+00   0.0000000E+00   0.0000000E+00   0.0000000E+00   0.0000000E+00   0.0000000E+00   0.0000000E+00   0.0000000E+00   0.0000000E+00   0.0000000E+00   0.0000000E+00   0.0000000E+00   0.0000000E+00   0.0000000E+00   0.0000000E+00   0.0000000E+00   0.0000000E+00   0.0000000E+00   0.0000000E+00   0.0000000E+00   0.0000000E+00   0.0000000E+00   0.0000000E+00   0.0000000E+00   0.0000000E+00   0.0000000E+00   0.0000000E+00   0.0000000E+00   0.0000000E+00   0.0000000E+00   0.0000000E+00   0.0000000E+00   0.0000000E+00   0.0000000E+00   0.0000000E+00   0.0000000E+00   0.0000000E+00   0.0000000E+00   0.0000000E+00   0.0000000E+00   0.0000000E+00   0.0000000E+00   0.0000000E+00   0.0000000E+00   0.0000000E+00   0.0000000E+00   0.0000000E+00   0.0000000E+00   0.0000000E+00   0.0000000E+00   0.0000000E+00   0.0000000E+00   0.0000000E+00   0.0000000E+00   0.0000000E+00   0.0000000E+00   0.0000000E+00   0.0000000E+00   0.0000000E+00   0.0000000E+00   0.0000000E+00   0.0000000E+00   0.0000000E+00   0.0000000E+00   0.0000000E+00   0.0000000E+00   0.0000000E+00   0.0000000E+00   0.0000000E+00   0.0000000E+00   0.0000000E+00   0.0000000E+00   0.0000000E+00   0.0000000E+00   0.0000000E+00   0.0000000E+00   0.0000000E+00   0.0000000E+00   0.0000000E+00   0.0000000E+00   0.0000000E+00   0.0000000E+00   0.0000000E+00   0.0000000E+00   0.0000000E+00   0.0000000E+00   0.0000000E+00   0.0000000E+00   0.0000000E+00   0.0000000E+00   0.0000000E+00   0.0000000E+00   0.0000000E+00   0.0000000E+00   0.0000000E+00   0.0000000E+00   0.0000000E+00   0.0000000E+00   0.0000000E+00   0.0000000E+00   0.0000000E+00   0.0000000E+00   0.0000000E+00   0.0000000E+00   0.0000000E+00   0.0000000E+00   0.0000000E+00   0.0000000E+00   0.0000000E+00   0.0000000E+00   0.0000000E+00   0.0000000E+00   0.0000000E+00   0.0000000E+00   0.0000000E+00   0.0000000E+00   0.0000000E+00   0.0000000E+00   0.0000000E+00   0.0000000E+00   0.0000000E+00   0.0000000E+00   0.0000000E+00   0.0000000E+00   0.0000000E+00   0.0000000E+00   0.0000000E+00   0.0000000E+00   0.0000000E+00   0.0000000E+00   0.0000000E+00   0.0000000E+00   0.0000000E+00   0.0000000E+00   0.0000000E+00   0.0000000E+00   0.0000000E+00   0.0000000E+00   0.0000000E+00   0.0000000E+00   0.0000000E+00   0.0000000E+00   0.0000000E+00   0.0000000E+00   0.0000000E+00   0.0000000E+00   0.0000000E+00   0.0000000E+00   0.0000000E+00   0.0000000E+00   0.0000000E+00   0.0000000E+00   0.0000000E+00   0.0000000E+00   0.0000000E+00   0.0000000E+00   0.0000000E+00   0.0000000E+00   0.0000000E+00   0.0000000E+00   0.0000000E+00   0.0000000E+00   0.0000000E+00   0.0000000E+00   0.0000000E+00   0.0000000E+00   0.0000000E+00   0.0000000E+00   0.0000000E+00   0.0000000E+00   0.0000000E+00   0.0000000E+00   0.0000000E+00   0.0000000E+00   0.0000000E+00   0.0000000E+00   0.0000000E+00   0.0000000E+00   0.0000000E+00   0.0000000E+00   0.0000000E+00   0.0000000E+00   0.0000000E+00   0.0000000E+00   0.0000000E+00   0.0000000E+00   0.0000000E+00   0.0000000E+00   0.0000000E+00   0.0000000E+00   0.0000000E+00   0.0000000E+00   0.0000000E+00   0.0000000E+00   0.0000000E+00   0.0000000E+00   0.0000000E+00   0.0000000E+00   0.0000000E+00   0.0000000E+00   0.0000000E+00   0.0000000E+00   0.0000000E+00   0.0000000E+00   0.0000000E+00   0.0000000E+00   0.0000000E+00   0.0000000E+00   0.0000000E+00   0.0000000E+00   0.0000000E+00   0.0000000E+00   0.0000000E+00   0.0000000E+00   0.0000000E+00   0.0000000E+00   0.0000000E+00   0.0000000E+00   0.0000000E+00   0.0000000E+00   0.0000000E+00   0.0000000E+00   0.0000000E+00   0.0000000E+00   0.0000000E+00   0.0000000E+00   0.0000000E+00   0.0000000E+00   0.0000000E+00   0.0000000E+00   0.0000000E+00   0.0000000E+00   0.0000000E+00   0.0000000E+00   0.0000000E+00   0.0000000E+00   0.0000000E+00   0.0000000E+00   0.0000000E+00   0.0000000E+00   0.0000000E+00   0.0000000E+00   0.0000000E+00   0.0000000E+00   0.0000000E+00   0.0000000E+00   0.0000000E+00   0.0000000E+00   0.0000000E+00   0.0000000E+00   0.0000000E+00   0.0000000E+00   0.0000000E+00   0.0000000E+00   0.0000000E+00   0.0000000E+00   0.0000000E+00   0.0000000E+00   0.0000000E+00   0.0000000E+00   0.0000000E+00   0.0000000E+00   0.0000000E+00   0.0000000E+00   0.0000000E+00   0.0000000E+00   0.0000000E+00   0.0000000E+00   0.0000000E+00   0.0000000E+00   0.0000000E+00   0.0000000E+00   0.0000000E+00   0.0000000E+00   0.0000000E+00   0.0000000E+00   0.0000000E+00   0.0000000E+00   0.0000000E+00   0.0000000E+00   0.0000000E+00   0.0000000E+00   0.0000000E+00   0.0000000E+00   0.0000000E+00   0.0000000E+00   0.0000000E+00   0.0000000E+00   0.0000000E+00   0.0000000E+00   0.0000000E+00   0.0000000E+00   0.0000000E+00   0.0000000E+00   0.0000000E+00   0.0000000E+00   0.0000000E+00   0.0000000E+00   0.0000000E+00   0.0000000E+00   0.0000000E+00   0.0000000E+00   0.0000000E+00   0.0000000E+00   0.0000000E+00   0.0000000E+00   0.0000000E+00   0.0000000E+00   0.0000000E+00   0.0000000E+00   0.0000000E+00   0.0000000E+00   0.0000000E+00   0.0000000E+00   0.0000000E+00   0.0000000E+00   0.0000000E+00   0.0000000E+00   0.0000000E+00   0.0000000E+00   0.0000000E+00   0.0000000E+00   0.0000000E+00   0.0000000E+00   0.0000000E+00   0.0000000E+00   0.0000000E+00   0.0000000E+00   0.0000000E+00   0.0000000E+00   0.0000000E+00   0.0000000E+00   0.0000000E+00   0.0000000E+00   0.0000000E+00   0.0000000E+00   0.0000000E+00   0.0000000E+00   0.0000000E+00   0.0000000E+00   0.0000000E+00   0.0000000E+00   0.0000000E+00   0.0000000E+00   0.0000000E+00   0.0000000E+00   0.0000000E+00   0.0000000E+00   0.0000000E+00   0.0000000E+00   0.0000000E+00   0.0000000E+00   0.0000000E+00   0.0000000E+00   0.0000000E+00   0.0000000E+00   0.0000000E+00   0.0000000E+00   0.0000000E+00   0.0000000E+00   0.0000000E+00   0.0000000E+00   0.0000000E+00   0.0000000E+00   0.0000000E+00   0.0000000E+00   0.0000000E+00   0.0000000E+00   0.0000000E+00   0.0000000E+00   0.0000000E+00   0.0000000E+00   0.0000000E+00   0.0000000E+00   0.0000000E+00   0.0000000E+00   0.0000000E+00   0.0000000E+00   0.0000000E+00   0.0000000E+00   0.0000000E+00   0.0000000E+00   0.0000000E+00   0.0000000E+00   0.0000000E+00   0.0000000E+00   0.0000000E+00   0.0000000E+00   0.0000000E+00   0.0000000E+00   0.0000000E+00   0.0000000E+00   0.0000000E+00   0.0000000E+00   0.0000000E+00   0.0000000E+00   0.0000000E+00   0.0000000E+00   0.0000000E+00   0.0000000E+00   0.0000000E+00   0.0000000E+00   0.0000000E+00   0.0000000E+00   0.0000000E+00   0.0000000E+00   0.0000000E+00   0.0000000E+00   0.0000000E+00   0.0000000E+00   0.0000000E+00   0.0000000E+00   0.0000000E+00   0.0000000E+00   0.0000000E+00   0.0000000E+00   0.0000000E+00   0.0000000E+00   0.0000000E+00   0.0000000E+00   0.0000000E+00   0.0000000E+00   0.0000000E+00   0.0000000E+00   0.0000000E+00   0.0000000E+00   0.0000000E+00   0.0000000E+00   0.0000000E+00   0.0000000E+00   0.0000000E+00   0.0000000E+00   0.0000000E+00   0.0000000E+00   0.0000000E+00   0.0000000E+00   0.0000000E+00   0.0000000E+00   0.0000000E+00   0.0000000E+00   0.0000000E+00   0.0000000E+00   0.0000000E+00   0.0000000E+00   0.0000000E+00   0.0000000E+00   0.0000000E+00   0.0000000E+00   0.0000000E+00   0.0000000E+00   0.0000000E+00   0.0000000E+00   0.0000000E+00   0.0000000E+00   0.0000000E+00   0.0000000E+00   0.0000000E+00   0.0000000E+00   0.0000000E+00   0.0000000E+00   0.0000000E+00   0.0000000E+00   0.0000000E+00   0.0000000E+00   0.0000000E+00   0.0000000E+00   0.0000000E+00   0.0000000E+00   0.0000000E+00   0.0000000E+00   0.0000000E+00   0.0000000E+00   0.0000000E+00   0.0000000E+00   0.0000000E+00   0.0000000E+00   0.0000000E+00   0.0000000E+00   0.0000000E+00   0.0000000E+00   0.0000000E+00   0.0000000E+00   0.0000000E+00   0.0000000E+00   0.0000000E+00   0.0000000E+00   0.0000000E+00   0.0000000E+00   0.0000000E+00   0.0000000E+00   0.0000000E+00   0.0000000E+00   0.0000000E+00   0.0000000E+00   0.0000000E+00   0.0000000E+00   0.0000000E+00   0.0000000E+00   0.0000000E+00   0.0000000E+00   0.0000000E+00   0.0000000E+00   0.0000000E+00   0.0000000E+00   0.0000000E+00   0.0000000E+00   0.0000000E+00   0.0000000E+00   0.0000000E+00   0.0000000E+00   0.0000000E+00   0.0000000E+00   0.0000000E+00   0.0000000E+00   0.0000000E+00   0.0000000E+00   0.0000000E+00   0.0000000E+00   0.0000000E+00   0.0000000E+00   0.0000000E+00   0.0000000E+00   0.0000000E+00   0.0000000E+00   0.0000000E+00   0.0000000E+00   0.0000000E+00   0.0000000E+00   0.0000000E+00   0.0000000E+00   0.0000000E+00   0.0000000E+00   0.0000000E+00   0.0000000E+00   0.0000000E+00   0.0000000E+00   0.0000000E+00   0.0000000E+00   0.0000000E+00   0.0000000E+00   0.0000000E+00   0.0000000E+00   0.0000000E+00   0.0000000E+00   0.0000000E+00   0.0000000E+00   0.0000000E+00   0.0000000E+00   0.0000000E+00   0.0000000E+00   0.0000000E+00   0.0000000E+00   0.0000000E+00   0.0000000E+00   0.0000000E+00   0.0000000E+00   0.0000000E+00   0.0000000E+00   0.0000000E+00   0.0000000E+00   0.0000000E+00   0.0000000E+00   0.0000000E+00   0.0000000E+00   0.0000000E+00   0.0000000E+00   0.0000000E+00   0.0000000E+00   0.0000000E+00   0.0000000E+00   0.0000000E+00   0.0000000E+00   0.0000000E+00   0.0000000E+00   0.0000000E+00   0.0000000E+00   0.0000000E+00   0.0000000E+00   0.0000000E+00   0.0000000E+00   0.0000000E+00   0.0000000E+00   0.0000000E+00   0.0000000E+00   0.0000000E+00   0.0000000E+00   0.0000000E+00   0.0000000E+00   0.0000000E+00   0.0000000E+00   0.0000000E+00   0.0000000E+00   0.0000000E+00   0.0000000E+00   0.0000000E+00   0.0000000E+00   0.0000000E+00   0.0000000E+00   0.0000000E+00   0.0000000E+00   0.0000000E+00   0.0000000E+00   0.0000000E+00   0.0000000E+00   0.0000000E+00   0.0000000E+00   0.0000000E+00   0.0000000E+00   0.0000000E+00   0.0000000E+00   0.0000000E+00   0.0000000E+00   0.0000000E+00   0.0000000E+00   0.0000000E+00   0.0000000E+00   0.0000000E+00   0.0000000E+00   0.0000000E+00   0.0000000E+00   0.0000000E+00   0.0000000E+00   0.0000000E+00   0.0000000E+00   0.0000000E+00   0.0000000E+00   0.0000000E+00   0.0000000E+00   0.0000000E+00   0.0000000E+00   0.0000000E+00   0.0000000E+00   0.0000000E+00   0.0000000E+00   0.0000000E+00   0.0000000E+00   0.0000000E+00   0.0000000E+00   0.0000000E+00   0.0000000E+00   0.0000000E+00   0.0000000E+00   0.0000000E+00   0.0000000E+00   0.0000000E+00   0.0000000E+00   0.0000000E+00   0.0000000E+00   0.0000000E+00   0.0000000E+00   0.0000000E+00   0.0000000E+00   0.0000000E+00   0.0000000E+00   0.0000000E+00   0.0000000E+00   0.0000000E+00   0.0000000E+00   0.0000000E+00   0.0000000E+00   0.0000000E+00   0.0000000E+00   0.0000000E+00   0.0000000E+00   0.0000000E+00   0.0000000E+00   0.0000000E+00   0.0000000E+00   0.0000000E+00   0.0000000E+00   0.0000000E+00   0.0000000E+00   0.0000000E+00   0.0000000E+00   0.0000000E+00   0.0000000E+00   0.0000000E+00   0.0000000E+00   0.0000000E+00   0.0000000E+00   0.0000000E+00   0.0000000E+00   0.0000000E+00   0.0000000E+00   0.0000000E+00   0.0000000E+00   0.0000000E+00   0.0000000E+00   0.0000000E+00   0.0000000E+00   0.0000000E+00   0.0000000E+00   0.0000000E+00   0.0000000E+00   0.0000000E+00   0.0000000E+00   0.0000000E+00   0.0000000E+00   0.0000000E+00   0.0000000E+00   0.0000000E+00   0.0000000E+00   0.0000000E+00   0.0000000E+00   0.0000000E+00   0.0000000E+00   0.0000000E+00   0.0000000E+00   0.0000000E+00   0.0000000E+00   0.0000000E+00   0.0000000E+00   0.0000000E+00   0.0000000E+00   0.0000000E+00   0.0000000E+00   0.0000000E+00   0.0000000E+00   0.0000000E+00   0.0000000E+00   0.0000000E+00   0.0000000E+00   0.0000000E+00   0.0000000E+00   0.0000000E+00   0.0000000E+00   0.0000000E+00   0.0000000E+00   0.0000000E+00   0.0000000E+00   0.0000000E+00   0.0000000E+00   0.0000000E+00   0.0000000E+00   0.0000000E+00   0.0000000E+00   0.0000000E+00   0.0000000E+00   0.0000000E+00   0.0000000E+00   0.0000000E+00   0.0000000E+00   0.0000000E+00   0.0000000E+00   0.0000000E+00   0.0000000E+00   0.0000000E+00   0.0000000E+00   0.0000000E+00   0.0000000E+00   0.0000000E+00   0.0000000E+00   0.0000000E+00   0.0000000E+00   0.0000000E+00   0.0000000E+00   0.0000000E+00   0.0000000E+00   0.0000000E+00   0.0000000E+00   0.0000000E+00   0.0000000E+00   0.0000000E+00   0.0000000E+00   0.0000000E+00   0.0000000E+00   0.0000000E+00   0.0000000E+00   0.0000000E+00   0.0000000E+00   0.0000000E+00   0.0000000E+00   0.0000000E+00   0.0000000E+00   0.0000000E+00   0.0000000E+00   0.0000000E+00   0.0000000E+00   0.0000000E+00   0.0000000E+00   0.0000000E+00   0.0000000E+00   0.0000000E+00   0.0000000E+00   0.0000000E+00   0.0000000E+00   0.0000000E+00   0.0000000E+00   0.0000000E+00   0.0000000E+00   0.0000000E+00   0.0000000E+00   0.0000000E+00   0.0000000E+00   0.0000000E+00   0.0000000E+00   0.0000000E+00   0.0000000E+00   0.0000000E+00   0.0000000E+00   0.0000000E+00   0.0000000E+00   0.0000000E+00   0.0000000E+00   0.0000000E+00   0.0000000E+00   0.0000000E+00   0.0000000E+00   0.0000000E+00   0.0000000E+00   0.0000000E+00   0.0000000E+00   0.0000000E+00   0.0000000E+00   0.0000000E+00   0.0000000E+00   0.0000000E+00   0.0000000E+00   0.0000000E+00   0.0000000E+00   0.0000000E+00   0.0000000E+00   0.0000000E+00   0.0000000E+00   0.0000000E+00   0.0000000E+00   0.0000000E+00   0.0000000E+00   0.0000000E+00   0.0000000E+00   0.0000000E+00   0.0000000E+00   0.0000000E+00   0.0000000E+00   0.0000000E+00   0.0000000E+00   0.0000000E+00   0.0000000E+00   0.0000000E+00   0.0000000E+00   0.0000000E+00   0.0000000E+00   0.0000000E+00   0.0000000E+00   0.0000000E+00   0.0000000E+00   0.0000000E+00   0.0000000E+00   0.0000000E+00   0.0000000E+00   0.0000000E+00   0.0000000E+00   0.0000000E+00   0.0000000E+00   0.0000000E+00   0.0000000E+00   0.0000000E+00   0.0000000E+00   0.0000000E+00   0.0000000E+00   0.0000000E+00   0.0000000E+00   0.0000000E+00   0.0000000E+00   0.0000000E+00   0.0000000E+00   0.0000000E+00   0.0000000E+00   0.0000000E+00   0.0000000E+00   0.0000000E+00   0.0000000E+00   0.0000000E+00   0.0000000E+00   0.0000000E+00   0.0000000E+00   0.0000000E+00   0.0000000E+00   0.0000000E+00   0.0000000E+00   0.0000000E+00   0.0000000E+00   0.0000000E+00   0.0000000E+00   0.0000000E+00   0.0000000E+00   0.0000000E+00   0.0000000E+00   0.0000000E+00   0.0000000E+00   0.0000000E+00   0.0000000E+00   0.0000000E+00   0.0000000E+00   0.0000000E+00   0.0000000E+00   0.0000000E+00   0.0000000E+00   0.0000000E+00   0.0000000E+00   0.0000000E+00   0.0000000E+00   0.0000000E+00   0.0000000E+00   0.0000000E+00   0.0000000E+00   0.0000000E+00   0.0000000E+00   0.0000000E+00   0.0000000E+00   0.0000000E+00   0.0000000E+00   0.0000000E+00   0.0000000E+00   0.0000000E+00   0.0000000E+00   0.0000000E+00   0.0000000E+00   0.0000000E+00   0.0000000E+00   0.0000000E+00   0.0000000E+00   0.0000000E+00   0.0000000E+00   0.0000000E+00   0.0000000E+00   0.0000000E+00   0.0000000E+00   0.0000000E+00   0.0000000E+00   0.0000000E+00   0.0000000E+00   0.0000000E+00   0.0000000E+00   0.0000000E+00   0.0000000E+00   0.0000000E+00   0.0000000E+00   0.0000000E+00   0.0000000E+00   0.0000000E+00   0.0000000E+00   0.0000000E+00   0.0000000E+00   0.0000000E+00   0.0000000E+00   0.0000000E+00   0.0000000E+00   0.0000000E+00   0.0000000E+00   0.0000000E+00   0.0000000E+00   0.0000000E+00   0.0000000E+00   0.0000000E+00   0.0000000E+00   0.0000000E+00   0.0000000E+00   0.0000000E+00   0.0000000E+00   0.0000000E+00   0.0000000E+00   0.0000000E+00   0.0000000E+00   0.0000000E+00   0.0000000E+00   0.0000000E+00   0.0000000E+00   0.0000000E+00   0.0000000E+00   0.0000000E+00   0.0000000E+00   0.0000000E+00   0.0000000E+00   0.0000000E+00   0.0000000E+00   0.0000000E+00   0.0000000E+00   0.0000000E+00   0.0000000E+00   0.0000000E+00   0.0000000E+00   0.0000000E+00   0.0000000E+00   0.0000000E+00   0.0000000E+00   0.0000000E+00   0.0000000E+00   0.0000000E+00   0.0000000E+00   0.0000000E+00   0.0000000E+00   0.0000000E+00   0.0000000E+00   0.0000000E+00   0.0000000E+00   0.0000000E+00   0.0000000E+00   0.0000000E+00   0.0000000E+00   0.0000000E+00   0.0000000E+00   0.0000000E+00   0.0000000E+00   0.0000000E+00   0.0000000E+00   0.0000000E+00   0.0000000E+00   0.0000000E+00   0.0000000E+00   0.0000000E+00   0.0000000E+00   0.0000000E+00   0.0000000E+00   0.0000000E+00   0.0000000E+00   0.0000000E+00   0.0000000E+00   0.0000000E+00   0.0000000E+00   0.0000000E+00   0.0000000E+00   0.0000000E+00   0.0000000E+00   0.0000000E+00   0.0000000E+00   0.0000000E+00   0.0000000E+00   0.0000000E+00   0.0000000E+00   0.0000000E+00   0.0000000E+00   0.0000000E+00   0.0000000E+00   0.0000000E+00   0.0000000E+00   0.0000000E+00   0.0000000E+00   0.0000000E+00   0.0000000E+00   0.0000000E+00   0.0000000E+00   0.0000000E+00   0.0000000E+00   0.0000000E+00   0.0000000E+00   0.0000000E+00   0.0000000E+00   0.0000000E+00   0.0000000E+00   0.0000000E+00   0.0000000E+00   0.0000000E+00   0.0000000E+00   0.0000000E+00   0.0000000E+00   0.0000000E+00   0.0000000E+00   0.0000000E+00   0.0000000E+00   0.0000000E+00   0.0000000E+00   0.0000000E+00   0.0000000E+00   0.0000000E+00   0.0000000E+00   0.0000000E+00   0.0000000E+00   0.0000000E+00   0.0000000E+00   0.0000000E+00   0.0000000E+00   0.0000000E+00   0.0000000E+00   0.0000000E+00   0.0000000E+00   0.0000000E+00   0.0000000E+00   0.0000000E+00   0.0000000E+00   0.0000000E+00   0.0000000E+00   0.0000000E+00   0.0000000E+00   0.0000000E+00   0.0000000E+00   0.0000000E+00   0.0000000E+00   0.0000000E+00   0.0000000E+00   0.0000000E+00   0.0000000E+00   0.0000000E+00   0.0000000E+00   0.0000000E+00   0.0000000E+00   0.0000000E+00   0.0000000E+00   0.0000000E+00   0.0000000E+00   0.0000000E+00   0.0000000E+00   0.0000000E+00   0.0000000E+00   0.0000000E+00   0.0000000E+00   0.0000000E+00   0.0000000E+00   0.0000000E+00   0.0000000E+00   0.0000000E+00   0.0000000E+00   0.0000000E+00   0.0000000E+00   0.0000000E+00   0.0000000E+00   0.0000000E+00   0.0000000E+00   0.0000000E+00   0.0000000E+00   0.0000000E+00   0.0000000E+00   0.0000000E+00   0.0000000E+00   0.0000000E+00   0.0000000E+00   0.0000000E+00   0.0000000E+00   0.0000000E+00   0.0000000E+00   0.0000000E+00   0.0000000E+00   0.0000000E+00   0.0000000E+00   0.0000000E+00   0.0000000E+00   0.0000000E+00   0.0000000E+00   0.0000000E+00   0.0000000E+00   0.0000000E+00   0.0000000E+00   0.0000000E+00   0.0000000E+00   0.0000000E+00   0.0000000E+00   0.0000000E+00   0.0000000E+00   0.0000000E+00   0.0000000E+00   0.0000000E+00   0.0000000E+00   0.0000000E+00   0.0000000E+00   0.0000000E+00   0.0000000E+00   0.0000000E+00   0.0000000E+00   0.0000000E+00   0.0000000E+00   0.0000000E+00   0.0000000E+00   0.0000000E+00   0.0000000E+00   0.0000000E+00   0.0000000E+00   0.0000000E+00   0.0000000E+00   0.0000000E+00   0.0000000E+00   0.0000000E+00   0.0000000E+00   0.0000000E+00   0.0000000E+00   0.0000000E+00   0.0000000E+00   0.0000000E+00   0.0000000E+00   0.0000000E+00   0.0000000E+00   0.0000000E+00   0.0000000E+00   0.0000000E+00   0.0000000E+00   0.0000000E+00   0.0000000E+00   0.0000000E+00   0.0000000E+00   0.0000000E+00   0.0000000E+00   0.0000000E+00   0.0000000E+00   0.0000000E+00   0.0000000E+00   0.0000000E+00   0.0000000E+00   0.0000000E+00   0.0000000E+00   0.0000000E+00   0.0000000E+00   0.0000000E+00   0.0000000E+00   0.0000000E+00   0.0000000E+00   0.0000000E+00   0.0000000E+00   0.0000000E+00   0.0000000E+00   0.0000000E+00   0.0000000E+00   0.0000000E+00   0.0000000E+00   0.0000000E+00   0.0000000E+00   0.0000000E+00   0.0000000E+00   0.0000000E+00   0.0000000E+00   0.0000000E+00   0.0000000E+00   0.0000000E+00   0.0000000E+00   0.0000000E+00   0.0000000E+00   0.0000000E+00   0.0000000E+00   0.0000000E+00   0.0000000E+00   0.0000000E+00   0.0000000E+00   0.0000000E+00   0.0000000E+00   0.0000000E+00   0.0000000E+00   0.0000000E+00   0.0000000E+00   0.0000000E+00   0.0000000E+00   0.0000000E+00   0.0000000E+00   0.0000000E+00   0.0000000E+00   0.0000000E+00   0.0000000E+00   0.0000000E+00   0.0000000E+00   0.0000000E+00   0.0000000E+00   0.0000000E+00   0.0000000E+00   0.0000000E+00   0.0000000E+00   0.0000000E+00   0.0000000E+00   0.0000000E+00   0.0000000E+00   0.0000000E+00   0.0000000E+00   0.0000000E+00   0.0000000E+00   0.0000000E+00   0.0000000E+00   0.0000000E+00   0.0000000E+00   0.0000000E+00   0.0000000E+00   0.0000000E+00   0.0000000E+00   0.0000000E+00   0.0000000E+00   0.0000000E+00   0.0000000E+00   0.0000000E+00   0.0000000E+00   0.0000000E+00   0.0000000E+00   0.0000000E+00   0.0000000E+00   0.0000000E+00   0.0000000E+00   0.0000000E+00   0.0000000E+00   0.0000000E+00   0.0000000E+00   0.0000000E+00   0.0000000E+00   0.0000000E+00   0.0000000E+00   0.0000000E+00   0.0000000E+00   0.0000000E+00   0.0000000E+00   0.0000000E+00   0.0000000E+00   0.0000000E+00   0.0000000E+00   0.0000000E+00   0.0000000E+00   0.0000000E+00   0.0000000E+00   0.0000000E+00   0.0000000E+00   0.0000000E+00   0.0000000E+00   0.0000000E+00   0.0000000E+00   0.0000000E+00   0.0000000E+00   0.0000000E+00   0.0000000E+00   0.0000000E+00   0.0000000E+00   0.0000000E+00   0.0000000E+00   0.0000000E+00   0.0000000E+00   0.0000000E+00   0.0000000E+00   0.0000000E+00   0.0000000E+00   0.0000000E+00   0.0000000E+00   0.0000000E+00   0.0000000E+00   0.0000000E+00   0.0000000E+00   0.0000000E+00   0.0000000E+00   0.0000000E+00   0.0000000E+00   0.0000000E+00   0.0000000E+00   0.0000000E+00   0.0000000E+00   0.0000000E+00   0.0000000E+00   0.0000000E+00   0.0000000E+00   0.0000000E+00   0.0000000E+00   0.0000000E+00   0.0000000E+00   0.0000000E+00   0.0000000E+00   0.0000000E+00   0.0000000E+00   0.0000000E+00   0.0000000E+00   0.0000000E+00   0.0000000E+00   0.0000000E+00   0.0000000E+00   0.0000000E+00   0.0000000E+00   0.0000000E+00   0.0000000E+00   0.0000000E+00   0.0000000E+00   0.0000000E+00   0.0000000E+00   0.0000000E+00   0.0000000E+00   0.0000000E+00   0.0000000E+00   0.0000000E+00   0.0000000E+00   0.0000000E+00   0.0000000E+00   0.0000000E+00   0.0000000E+00   0.0000000E+00   0.0000000E+00   0.0000000E+00   0.0000000E+00   0.0000000E+00   0.0000000E+00   0.0000000E+00   0.0000000E+00   0.0000000E+00   0.0000000E+00   0.0000000E+00   0.0000000E+00   0.0000000E+00   0.0000000E+00   0.0000000E+00   0.0000000E+00   0.0000000E+00   0.0000000E+00   0.0000000E+00   0.0000000E+00   0.0000000E+00   0.0000000E+00   0.0000000E+00   0.0000000E+00   0.0000000E+00   0.0000000E+00   0.0000000E+00   0.0000000E+00   0.0000000E+00   0.0000000E+00   0.0000000E+00   0.0000000E+00   0.0000000E+00   0.0000000E+00   0.0000000E+00   0.0000000E+00   0.0000000E+00   0.0000000E+00   0.0000000E+00   0.0000000E+00   0.0000000E+00   0.0000000E+00   0.0000000E+00   0.0000000E+00   0.0000000E+00   0.0000000E+00   0.0000000E+00   0.0000000E+00   0.0000000E+00   0.0000000E+00   0.0000000E+00   0.0000000E+00   0.0000000E+00   0.0000000E+00   0.0000000E+00   0.0000000E+00   0.0000000E+00   0.0000000E+00   0.0000000E+00   0.0000000E+00   0.0000000E+00   0.0000000E+00   0.0000000E+00   0.0000000E+00   0.0000000E+00   0.0000000E+00   0.0000000E+00   0.0000000E+00   0.0000000E+00   0.0000000E+00   0.0000000E+00   0.0000000E+00   0.0000000E+00   0.0000000E+00   0.0000000E+00   0.0000000E+00   0.0000000E+00   0.0000000E+00   0.0000000E+00   0.0000000E+00   0.0000000E+00   0.0000000E+00   0.0000000E+00   0.0000000E+00   0.0000000E+00   0.0000000E+00   0.0000000E+00   0.0000000E+00   0.0000000E+00   0.0000000E+00   0.0000000E+00   0.0000000E+00   0.0000000E+00   0.0000000E+00   0.0000000E+00   0.0000000E+00   0.0000000E+00   0.0000000E+00   0.0000000E+00   0.0000000E+00   0.0000000E+00   0.0000000E+00   0.0000000E+00   0.0000000E+00   0.0000000E+00   0.0000000E+00   0.0000000E+00   0.0000000E+00   0.0000000E+00   0.0000000E+00   0.0000000E+00   0.0000000E+00   0.0000000E+00   0.0000000E+00   0.0000000E+00   0.0000000E+00   0.0000000E+00   0.0000000E+00   0.0000000E+00   0.0000000E+00   0.0000000E+00   0.0000000E+00   0.0000000E+00   0.0000000E+00   0.0000000E+00   0.0000000E+00   0.0000000E+00   0.0000000E+00   0.0000000E+00   0.0000000E+00   0.0000000E+00   0.0000000E+00   0.0000000E+00   0.0000000E+00   0.0000000E+00   0.0000000E+00   0.0000000E+00   0.0000000E+00   0.0000000E+00   0.0000000E+00   0.0000000E+00   0.0000000E+00   0.0000000E+00   0.0000000E+00   0.0000000E+00   0.0000000E+00   0.0000000E+00   0.0000000E+00   0.0000000E+00   0.0000000E+00   0.0000000E+00   0.0000000E+00   0.0000000E+00   0.0000000E+00   0.0000000E+00   0.0000000E+00   0.0000000E+00   0.0000000E+00   0.0000000E+00   0.0000000E+00   0.0000000E+00   0.0000000E+00   0.0000000E+00   0.0000000E+00   0.0000000E+00   0.0000000E+00   0.0000000E+00   0.0000000E+00   0.0000000E+00   0.0000000E+00   0.0000000E+00   0.0000000E+00   0.0000000E+00   0.0000000E+00   0.0000000E+00   0.0000000E+00   0.0000000E+00   0.0000000E+00   0.0000000E+00   0.0000000E+00   0.0000000E+00   0.0000000E+00   0.0000000E+00   0.0000000E+00   0.0000000E+00   0.0000000E+00   0.0000000E+00   0.0000000E+00   0.0000000E+00   0.0000000E+00   0.0000000E+00   0.0000000E+00   0.0000000E+00   0.0000000E+00   0.0000000E+00   0.0000000E+00   0.0000000E+00   0.0000000E+00   0.0000000E+00   0.0000000E+00   0.0000000E+00   0.0000000E+00   0.0000000E+00   0.0000000E+00   0.0000000E+00   0.0000000E+00   0.0000000E+00   0.0000000E+00   0.0000000E+00   0.0000000E+00   0.0000000E+00   0.0000000E+00   0.0000000E+00   0.0000000E+00   0.0000000E+00   0.0000000E+00   0.0000000E+00   0.0000000E+00   0.0000000E+00   0.0000000E+00   0.0000000E+00   0.0000000E+00   0.0000000E+00   0.0000000E+00   0.0000000E+00   0.0000000E+00   0.0000000E+00   0.0000000E+00   0.0000000E+00   0.0000000E+00   0.0000000E+00   0.0000000E+00   0.0000000E+00   0.0000000E+00   0.0000000E+00   0.0000000E+00   0.0000000E+00   0.0000000E+00   0.0000000E+00   0.0000000E+00   0.0000000E+00   0.0000000E+00   0.0000000E+00   0.0000000E+00   0.0000000E+00   0.0000000E+00   0.0000000E+00   0.0000000E+00   0.0000000E+00   0.0000000E+00   0.0000000E+00   0.0000000E+00   0.0000000E+00   0.0000000E+00   0.0000000E+00   0.0000000E+00   0.0000000E+00   0.0000000E+00   0.0000000E+00   0.0000000E+00   0.0000000E+00   0.0000000E+00   0.0000000E+00   0.0000000E+00   0.0000000E+00   0.0000000E+00   0.0000000E+00   0.0000000E+00   0.0000000E+00   0.0000000E+00   0.0000000E+00   0.0000000E+00   0.0000000E+00   0.0000000E+00   0.0000000E+00   0.0000000E+00   0.0000000E+00   0.0000000E+00   0.0000000E+00   0.0000000E+00   0.0000000E+00   0.0000000E+00   0.0000000E+00   0.0000000E+00   0.0000000E+00   0.0000000E+00   0.0000000E+00   0.0000000E+00   0.0000000E+00   0.0000000E+00   0.0000000E+00   0.0000000E+00   0.0000000E+00   0.0000000E+00   0.0000000E+00   0.0000000E+00   0.0000000E+00   0.0000000E+00   0.0000000E+00   0.0000000E+00   0.0000000E+00   0.0000000E+00   0.0000000E+00   0.0000000E+00   0.0000000E+00   0.0000000E+00   0.0000000E+00   0.0000000E+00   0.0000000E+00   0.0000000E+00   0.0000000E+00   0.0000000E+00   0.0000000E+00   0.0000000E+00   0.0000000E+00   0.0000000E+00   0.0000000E+00   0.0000000E+00   0.0000000E+00   0.0000000E+00   0.0000000E+00   0.0000000E+00   0.0000000E+00   0.0000000E+00   0.0000000E+00   0.0000000E+00   0.0000000E+00   0.0000000E+00   0.0000000E+00   0.0000000E+00   0.0000000E+00   0.0000000E+00   0.0000000E+00   0.0000000E+00   0.0000000E+00   0.0000000E+00   0.0000000E+00   0.0000000E+00   0.0000000E+00   0.0000000E+00   0.0000000E+00   0.0000000E+00   0.0000000E+00   0.0000000E+00   0.0000000E+00   0.0000000E+00   0.0000000E+00   0.0000000E+00   0.0000000E+00   0.0000000E+00   0.0000000E+00   0.0000000E+00   0.0000000E+00   0.0000000E+00   0.0000000E+00   0.0000000E+00   0.0000000E+00   0.0000000E+00   0.0000000E+00   0.0000000E+00   0.0000000E+00   0.0000000E+00   0.0000000E+00   0.0000000E+00   0.0000000E+00   0.0000000E+00   0.0000000E+00   0.0000000E+00   0.0000000E+00   0.0000000E+00   0.0000000E+00   0.0000000E+00   0.0000000E+00   0.0000000E+00   0.0000000E+00   0.0000000E+00   0.0000000E+00   0.0000000E+00   0.0000000E+00   0.0000000E+00   0.0000000E+00   0.0000000E+00   0.0000000E+00   0.0000000E+00   0.0000000E+00   0.0000000E+00   0.0000000E+00   0.0000000E+00   0.0000000E+00   0.0000000E+00   0.0000000E+00   0.0000000E+00   0.0000000E+00   0.0000000E+00   0.0000000E+00   0.0000000E+00   0.0000000E+00   0.0000000E+00   0.0000000E+00   0.0000000E+00   0.0000000E+00   0.0000000E+00   0.0000000E+00   0.0000000E+00   0.0000000E+00   0.0000000E+00   0.0000000E+00   0.0000000E+00   0.0000000E+00   0.0000000E+00   0.0000000E+00   0.0000000E+00   0.0000000E+00   0.0000000E+00   0.0000000E+00   0.0000000E+00   0.0000000E+00   0.0000000E+00   0.0000000E+00   0.0000000E+00   0.0000000E+00   0.0000000E+00   0.0000000E+00   0.0000000E+00   0.0000000E+00   0.0000000E+00   0.0000000E+00   0.0000000E+00   0.0000000E+00   0.0000000E+00   0.0000000E+00   0.0000000E+00   0.0000000E+00   0.0000000E+00   0.0000000E+00   0.0000000E+00   0.0000000E+00   0.0000000E+00   0.0000000E+00   0.0000000E+00   0.0000000E+00   0.0000000E+00   0.0000000E+00   0.0000000E+00   0.0000000E+00   0.0000000E+00   0.0000000E+00   0.0000000E+00   0.0000000E+00   0.0000000E+00   0.0000000E+00   0.0000000E+00   0.0000000E+00   0.0000000E+00   0.0000000E+00   0.0000000E+00   0.0000000E+00   0.0000000E+00   0.0000000E+00   0.0000000E+00   0.0000000E+00   0.0000000E+00   0.0000000E+00   0.0000000E+00   0.0000000E+00   0.0000000E+00   0.0000000E+00   0.0000000E+00   0.0000000E+00   0.0000000E+00   0.0000000E+00   0.0000000E+00   0.0000000E+00   0.0000000E+00   0.0000000E+00   0.0000000E+00   0.0000000E+00   0.0000000E+00   0.0000000E+00   0.0000000E+00   0.0000000E+00   0.0000000E+00   0.0000000E+00   0.0000000E+00   0.0000000E+00   0.0000000E+00   0.0000000E+00   0.0000000E+00   0.0000000E+00   0.0000000E+00   0.0000000E+00   0.0000000E+00   0.0000000E+00   0.0000000E+00   0.0000000E+00   0.0000000E+00   0.0000000E+00   0.0000000E+00   0.0000000E+00   0.0000000E+00   0.0000000E+00   0.0000000E+00   0.0000000E+00   0.0000000E+00   0.0000000E+00   0.0000000E+00   0.0000000E+00   0.0000000E+00   0.0000000E+00   0.0000000E+00   0.0000000E+00   0.0000000E+00   0.0000000E+00   0.0000000E+00   0.0000000E+00   0.0000000E+00   0.0000000E+00   0.0000000E+00   0.0000000E+00   0.0000000E+00   0.0000000E+00   0.0000000E+00   0.0000000E+00   0.0000000E+00   0.0000000E+00   0.0000000E+00   0.0000000E+00   0.0000000E+00   0.0000000E+00   0.0000000E+00   0.0000000E+00   0.0000000E+00   0.0000000E+00   0.0000000E+00   0.0000000E+00   0.0000000E+00   0.0000000E+00   0.0000000E+00   0.0000000E+00   0.0000000E+00   0.0000000E+00   0.0000000E+00   0.0000000E+00   0.0000000E+00   0.0000000E+00   0.0000000E+00   0.0000000E+00   0.0000000E+00   0.0000000E+00   0.0000000E+00   0.0000000E+00   0.0000000E+00   0.0000000E+00   0.0000000E+00   0.0000000E+00   0.0000000E+00   0.0000000E+00   0.0000000E+00   0.0000000E+00   0.0000000E+00   0.0000000E+00   0.0000000E+00   0.0000000E+00   0.0000000E+00   0.0000000E+00   0.0000000E+00   0.0000000E+00   0.0000000E+00   0.0000000E+00   0.0000000E+00   0.0000000E+00   0.0000000E+00   0.0000000E+00   0.0000000E+00   0.0000000E+00   0.0000000E+00   0.0000000E+00   0.0000000E+00   0.0000000E+00   0.0000000E+00   0.0000000E+00   0.0000000E+00   0.0000000E+00   0.0000000E+00   0.0000000E+00   0.0000000E+00   0.0000000E+00   0.0000000E+00   0.0000000E+00   0.0000000E+00   0.0000000E+00   0.0000000E+00   0.0000000E+00   0.0000000E+00   0.0000000E+00   0.0000000E+00   0.0000000E+00   0.0000000E+00   0.0000000E+00   0.0000000E+00   0.0000000E+00   0.0000000E+00   0.0000000E+00   0.0000000E+00   0.0000000E+00   0.0000000E+00   0.0000000E+00   0.0000000E+00   0.0000000E+00   0.0000000E+00   0.0000000E+00   0.0000000E+00   0.0000000E+00   0.0000000E+00   0.0000000E+00   0.0000000E+00   0.0000000E+00   0.0000000E+00   0.0000000E+00   0.0000000E+00   0.0000000E+00   0.0000000E+00   0.0000000E+00   0.0000000E+00   0.0000000E+00   0.0000000E+00   0.0000000E+00   0.0000000E+00   0.0000000E+00   0.0000000E+00   0.0000000E+00   0.0000000E+00   0.0000000E+00   0.0000000E+00   0.0000000E+00   0.0000000E+00   0.0000000E+00   0.0000000E+00   0.0000000E+00   0.0000000E+00   0.0000000E+00   0.0000000E+00   0.0000000E+00   0.0000000E+00   0.0000000E+00   0.0000000E+00   0.0000000E+00   0.0000000E+00   0.0000000E+00   0.0000000E+00   0.0000000E+00   0.0000000E+00   0.0000000E+00   0.0000000E+00   0.0000000E+00   0.0000000E+00   0.0000000E+00   0.0000000E+00   0.0000000E+00   0.0000000E+00   0.0000000E+00   0.0000000E+00   0.0000000E+00   0.0000000E+00   0.0000000E+00   0.0000000E+00   0.0000000E+00   0.0000000E+00   0.0000000E+00   0.0000000E+00   0.0000000E+00   0.0000000E+00   0.0000000E+00   0.0000000E+00   0.0000000E+00   0.0000000E+00   0.0000000E+00   0.0000000E+00   0.0000000E+00   0.0000000E+00   0.0000000E+00   0.0000000E+00   0.0000000E+00   0.0000000E+00   0.0000000E+00   0.0000000E+00   0.0000000E+00   0.0000000E+00   0.0000000E+00   0.0000000E+00   0.0000000E+00   0.0000000E+00   0.0000000E+00   0.0000000E+00   0.0000000E+00   0.0000000E+00   0.0000000E+00   0.0000000E+00  -3.2944913E-06   0.0000000E+00  -1.2054463E-06  -3.9914253E-06   0.0000000E+00  -1.1609983E-06  -4.5828147E-06   0.0000000E+00  -1.0730472E-06  -5.0666272E-06   0.0000000E+00  -9.6567442E-07  -5.4601887E-06   0.0000000E+00  -8.4449061E-07  -3.7249231E-06   0.0000000E+00  -1.7889686E-06  -5.0452886E-06   0.0000000E+00  -1.7486561E-06  -6.1827541E-06   0.0000000E+00  -1.7056462E-06  -7.1154618E-06   0.0000000E+00  -1.5958893E-06  -7.8617313E-06   0.0000000E+00  -1.4474890E-06  -8.4587982E-06   0.0000000E+00  -1.2678496E-06  -5.6977551E-06   0.0000000E+00  -2.4691690E-06  -7.6859496E-06   0.0000000E+00  -2.4714493E-06  -9.3916688E-06   0.0000000E+00  -2.3946254E-06  -1.0792550E-05   0.0000000E+00  -2.2351687E-06  -1.1901211E-05   0.0000000E+00  -2.0285459E-06  -1.2775588E-05   0.0000000E+00  -1.7785584E-06  -8.4931107E-06   0.0000000E+00  -3.4042810E-06  -1.1422679E-05   0.0000000E+00  -3.4137367E-06  -1.3896683E-05   0.0000000E+00  -3.3070996E-06  -1.5914340E-05   0.0000000E+00  -3.0757467E-06  -1.7494451E-05   0.0000000E+00  -2.7853978E-06  -1.8726163E-05   0.0000000E+00  -2.4375884E-06  -1.2409296E-05   0.0000000E+00  -4.7074186E-06  -1.6631795E-05   0.0000000E+00  -4.6856389E-06  -2.0146059E-05   0.0000000E+00  -4.5172510E-06  -2.2974536E-05   0.0000000E+00  -4.1853305E-06  -2.5160061E-05   0.0000000E+00  -3.7826567E-06  -2.6842645E-05   0.0000000E+00  -3.3035135E-06  -1.7914079E-05   0.0000000E+00  -6.5241129E-06  -2.3897559E-05   0.0000000E+00  -6.4074425E-06  -2.8799470E-05   0.0000000E+00  -6.1273208E-06  -3.2685537E-05   0.0000000E+00  -5.6502199E-06  -3.5643832E-05   0.0000000E+00  -5.0957979E-06  -3.7890091E-05   0.0000000E+00  -4.4446524E-06  -2.5713063E-05   0.0000000E+00  -9.0513613E-06  -3.4052355E-05   0.0000000E+00  -8.7666076E-06  -4.0783045E-05   0.0000000E+00  -8.2882898E-06  -4.6032146E-05   0.0000000E+00  -7.6023507E-06  -4.9975180E-05   0.0000000E+00  -6.8357417E-06  -5.2928855E-05   0.0000000E+00  -5.9556351E-06  -3.6818983E-05   0.0000000E+00  -1.2623524E-05  -4.8303064E-05   0.0000000E+00  -1.2011331E-05  -5.7389829E-05   0.0000000E+00  -1.1218118E-05  -6.4354892E-05   0.0000000E+00  -1.0243364E-05  -6.9536698E-05   0.0000000E+00  -9.1806905E-06  -7.3373129E-05   0.0000000E+00  -7.9872789E-06  -5.2731481E-05   0.0000000E+00  -1.7569291E-05  -6.8205314E-05   0.0000000E+00  -1.6523256E-05  -8.0289356E-05   0.0000000E+00  -1.5251664E-05  -8.9411224E-05   0.0000000E+00  -1.3887240E-05  -9.6142714E-05   0.0000000E+00  -1.2405310E-05  -1.0107489E-04   0.0000000E+00  -1.0742475E-05  -7.5599812E-05   0.0000000E+00  -2.4274976E-05  -9.6123986E-05   0.0000000E+00  -2.2522203E-05  -1.1176691E-04   0.0000000E+00  -2.0777141E-05  -1.2356443E-04   0.0000000E+00  -1.8863380E-05  -1.3219428E-04   0.0000000E+00  -1.6804599E-05  -1.3844225E-04   0.0000000E+00  -1.4476330E-05  -1.0826695E-04   0.0000000E+00  -3.3383963E-05  -1.3489934E-04   0.0000000E+00  -3.0670315E-05  -1.5483967E-04   0.0000000E+00  -2.8248727E-05  -1.6992106E-04   0.0000000E+00  -2.5541480E-05  -1.8080023E-04   0.0000000E+00  -2.2746783E-05  -1.8859583E-04   0.0000000E+00  -1.9477398E-05  -1.5273207E-04   0.0000000E+00  -5.4049808E-05  -1.8805655E-04   0.0000000E+00  -4.5698260E-05  -2.1340065E-04   0.0000000E+00  -4.0156607E-05  -2.3247353E-04   0.0000000E+00  -3.5205423E-05  -2.4598537E-04   0.0000000E+00  -3.0861440E-05  -2.5550736E-04   0.0000000E+00  -2.6145002E-05  -2.2047966E-04   0.0000000E+00  -9.6623764E-05  -2.6266318E-04   0.0000000E+00  -7.5109281E-05  -2.9344624E-04   0.0000000E+00  -6.0380837E-05  -3.1671586E-04   0.0000000E+00  -4.9878534E-05  -3.3296397E-04   0.0000000E+00  -4.2225038E-05  -3.4424514E-04   0.0000000E+00  -3.5095101E-05  -3.2014184E-04   0.0000000E+00  -1.5526349E-04  -3.6769576E-04   0.0000000E+00  -1.1913131E-04  -4.0293165E-04   0.0000000E+00  -9.0666173E-05  -4.2971576E-04   0.0000000E+00  -7.1304072E-05  -4.4836564E-04   0.0000000E+00  -5.8144295E-05  -4.6124848E-04   0.0000000E+00  -4.7033678E-05  -4.5771012E-04   0.0000000E+00  -2.2778740E-04  -5.1101402E-04   0.0000000E+00  -1.7498824E-04  -5.5021199E-04   0.0000000E+00  -1.3081801E-04  -5.7995220E-04   0.0000000E+00  -9.9992307E-05  -6.0051348E-04   0.0000000E+00  -7.9197576E-05  -6.1464676E-04   0.0000000E+00  -6.2311301E-05  -6.4031768E-04   0.0000000E+00  -3.1361621E-04  -7.0078677E-04   0.0000000E+00  -2.4350939E-04  -7.4474135E-04   0.0000000E+00  -1.8076526E-04  -7.7762309E-04   0.0000000E+00  -1.3619542E-04  -7.9983060E-04   0.0000000E+00  -1.0551811E-04  -8.1475964E-04   0.0000000E+00  -8.1257262E-05  -8.7665743E-04   0.0000000E+00  -4.2099855E-04  -9.4786217E-04   0.0000000E+00  -3.2654157E-04  -9.9862309E-04   0.0000000E+00  -2.4161073E-04  -1.0357496E-03   0.0000000E+00  -1.8057447E-04  -1.0596208E-03   0.0000000E+00  -1.3777682E-04  -1.0747069E-03   0.0000000E+00  -1.0421270E-04  -1.1798886E-03   0.0000000E+00  -5.5568223E-04  -1.2675431E-03   0.0000000E+00  -4.2971774E-04  -1.3284201E-03   0.0000000E+00  -3.1647924E-04  -1.3712076E-03   0.0000000E+00  -2.3389079E-04  -1.3967307E-03   0.0000000E+00  -1.7657873E-04  -1.4107773E-03   0.0000000E+00  -1.3179782E-04  -1.5709839E-03   0.0000000E+00  -7.2589202E-04  -1.6817363E-03   0.0000000E+00  -5.5872463E-04  -1.7562809E-03   0.0000000E+00  -4.0806289E-04  -1.8056000E-03   0.0000000E+00  -2.9861202E-04  -1.8315024E-03   0.0000000E+00  -2.2285499E-04  -1.8423740E-03   0.0000000E+00  -1.6479335E-04  -2.0790547E-03   0.0000000E+00  -9.4379496E-04  -2.2191801E-03   0.0000000E+00  -7.2037504E-04  -2.3097999E-03   0.0000000E+00  -5.2014465E-04  -2.3647526E-03   0.0000000E+00  -3.7628182E-04  -2.3880876E-03   0.0000000E+00  -2.7806932E-04  -2.3917079E-03   0.0000000E+00  -2.0473759E-04  -2.7401741E-03   0.0000000E+00  -1.2198222E-03  -2.9152136E-03   0.0000000E+00  -9.2169194E-04  -3.0226395E-03   0.0000000E+00  -6.5572193E-04  -3.0793995E-03   0.0000000E+00  -4.6914318E-04  -3.0941130E-03   0.0000000E+00  -3.4475783E-04  -3.0839907E-03   0.0000000E+00  -2.5463477E-04  -3.5999904E-03   0.0000000E+00  -1.5682111E-03  -3.8147368E-03   0.0000000E+00  -1.1678685E-03  -3.9366018E-03   0.0000000E+00  -8.1761228E-04  -3.9870287E-03   0.0000000E+00  -5.7982095E-04  -3.9831041E-03   0.0000000E+00  -4.2694053E-04  -3.9489102E-03   0.0000000E+00  -3.1984426E-04  -4.7193617E-03   0.0000000E+00  -2.0027277E-03  -4.9756006E-03   0.0000000E+00  -1.4650653E-03  -5.1040957E-03   0.0000000E+00  -1.0074705E-03  -5.1337541E-03   0.0000000E+00  -7.1405747E-04  -5.0964630E-03   0.0000000E+00  -5.3130061E-04  -5.0235041E-03   0.0000000E+00  -4.1105555E-04  -6.1798608E-03   0.0000000E+00  -2.5417123E-03  -6.4711669E-03   0.0000000E+00  -1.8196295E-03  -6.5888315E-03   0.0000000E+00  -1.2351756E-03  -6.5749884E-03   0.0000000E+00  -8.8493002E-04  -6.4842426E-03   0.0000000E+00  -6.7553204E-04  -6.3548354E-03   0.0000000E+00  -5.4668001E-04  -8.0914879E-03   0.0000000E+00  -3.2067103E-03  -8.3913235E-03   0.0000000E+00  -2.2407877E-03  -8.4642423E-03   0.0000000E+00  -1.5155936E-03  -8.3721615E-03   0.0000000E+00  -1.1198529E-03  -8.2032634E-03   0.0000000E+00  -8.9125521E-04  -7.9988455E-03   0.0000000E+00  -7.5591292E-04  -1.0600622E-02   0.0000000E+00  -4.0317150E-03  -1.0838847E-02   0.0000000E+00  -2.7475068E-03  -1.0803243E-02   0.0000000E+00  -1.8828209E-03  -1.0586548E-02   0.0000000E+00  -1.4656099E-03  -1.0308726E-02   0.0000000E+00  -1.2324576E-03  -1.0011639E-02   0.0000000E+00  -1.0880705E-03  -1.3880069E-02   0.0000000E+00  -5.0726668E-03  -1.3913943E-02   0.0000000E+00  -3.4037335E-03  -1.3659730E-02   0.0000000E+00  -2.4126631E-03  -1.3254456E-02   0.0000000E+00  -2.0108372E-03  -1.2837481E-02   0.0000000E+00  -1.7845420E-03  -1.2436885E-02   0.0000000E+00  -1.6099312E-03  -1.8092992E-02   0.0000000E+00  -6.4500207E-03  -1.7678043E-02   0.0000000E+00  -4.3325177E-03  -1.7038919E-02   0.0000000E+00  -3.2497232E-03  -1.6362155E-02   0.0000000E+00  -2.8991676E-03  -1.5784651E-02   0.0000000E+00  -2.6632973E-03  -1.5282977E-02   0.0000000E+00  -2.3917847E-03  -2.3299670E-02   0.0000000E+00  -8.3777001E-03  -2.2077182E-02   0.0000000E+00  -5.7827616E-03  -2.0845341E-02   0.0000000E+00  -4.6394821E-03  -1.9840663E-02   0.0000000E+00  -4.2704339E-03  -1.9111203E-02   0.0000000E+00  -3.9052812E-03  -1.8522816E-02   0.0000000E+00  -3.4519997E-03  -2.9319268E-02   0.0000000E+00  -1.1254147E-02  -2.6877401E-02   0.0000000E+00  -8.2164006E-03  -2.4893282E-02   0.0000000E+00  -6.8619875E-03  -2.3659492E-02   0.0000000E+00  -6.1181961E-03  -2.2784885E-02   0.0000000E+00  -5.4743104E-03  -2.2079436E-02   0.0000000E+00  -4.7465567E-03  -3.5582688E-02   0.0000000E+00  -1.5681284E-02  -3.1795248E-02   0.0000000E+00  -1.2280310E-02  -2.9275954E-02   0.0000000E+00  -9.9643040E-03  -2.7703626E-02   0.0000000E+00  -8.5820565E-03  -2.6643317E-02   0.0000000E+00  -7.3833931E-03  -2.5710681E-02   0.0000000E+00  -6.3344394E-03  -4.1250940E-02   0.0000000E+00  -2.2721017E-02  -3.6603034E-02   0.0000000E+00  -1.8968608E-02  -3.3738490E-02   0.0000000E+00  -1.5146814E-02  -3.1897172E-02   0.0000000E+00  -1.2014731E-02  -3.0402262E-02   0.0000000E+00  -9.9102361E-03  -2.9194659E-02   0.0000000E+00  -8.2812821E-03  -4.5346927E-02   0.0000000E+00  -3.3349205E-02  -4.0135730E-02   0.0000000E+00  -3.0073548E-02  -3.7079934E-02   0.0000000E+00  -2.4555711E-02  -3.5278749E-02   0.0000000E+00  -1.8165851E-02  -3.3752743E-02   0.0000000E+00  -1.3556258E-02  -3.2314613E-02   0.0000000E+00  -1.0705035E-02  -4.6981052E-02   0.0000000E+00  -4.6486363E-02  -4.1649248E-02   0.0000000E+00  -4.4769958E-02  -3.8878500E-02   0.0000000E+00  -3.7907276E-02  -3.7587348E-02   0.0000000E+00  -2.7190248E-02  -3.6185324E-02   0.0000000E+00  -1.9060753E-02  -3.4662955E-02   0.0000000E+00  -1.4087388E-02  -4.4435754E-02   0.0000000E+00  -5.8261096E-02  -4.0691197E-02   0.0000000E+00  -5.8493339E-02  -3.8603872E-02   0.0000000E+00  -5.0790317E-02  -3.7917603E-02   0.0000000E+00  -3.6258958E-02  -3.6811698E-02   0.0000000E+00  -2.4721742E-02  -3.5373073E-02   0.0000000E+00  -1.7679784E-02  -3.6089003E-02   0.0000000E+00  -6.6245109E-02  -3.5567496E-02   0.0000000E+00  -6.7736596E-02  -3.4701854E-02   0.0000000E+00  -5.9835047E-02  -3.4451600E-02   0.0000000E+00  -4.3113612E-02  -3.3711102E-02   0.0000000E+00  -2.9413221E-02  -3.2552604E-02   0.0000000E+00  -2.0897044E-02  -2.5449334E-02   0.0000000E+00  -7.0968576E-02  -2.5966270E-02   0.0000000E+00  -7.2406113E-02  -2.6053719E-02   0.0000000E+00  -6.4475022E-02  -2.5750773E-02   0.0000000E+00  -4.6853691E-02  -2.5037497E-02   0.0000000E+00  -3.2256089E-02  -2.4070114E-02   0.0000000E+00  -2.3084266E-02  -1.5788190E-02   0.0000000E+00  -7.3655680E-02  -1.6219316E-02   0.0000000E+00  -7.4694254E-02  -1.6376808E-02   0.0000000E+00  -6.6515550E-02  -1.6190475E-02   0.0000000E+00  -4.8651069E-02  -1.5706487E-02   0.0000000E+00  -3.3818539E-02  -1.5047730E-02   0.0000000E+00  -2.4430756E-02  -8.1831804E-03   0.0000000E+00  -7.5130492E-02  -8.4794369E-03   0.0000000E+00  -7.5773902E-02  -8.6145699E-03   0.0000000E+00  -6.7398086E-02  -8.5447412E-03   0.0000000E+00  -4.9509920E-02  -8.2921972E-03   0.0000000E+00  -3.4668975E-02  -7.9258624E-03   0.0000000E+00  -2.5236353E-02  -2.5200229E-03   0.0000000E+00  -7.5864576E-02  -2.6809559E-03   0.0000000E+00  -7.6207198E-02  -2.7780819E-03   0.0000000E+00  -6.7676529E-02  -2.7925167E-03   0.0000000E+00  -4.9809948E-02  -2.7275335E-03   0.0000000E+00  -3.5023760E-02  -2.6051668E-03   0.0000000E+00  -2.5616590E-02   1.9474337E-03   0.0000000E+00  -7.6095082E-02   1.9123349E-03   0.0000000E+00  -7.6254465E-02   1.8567794E-03   0.0000000E+00  -6.7597710E-02   1.7805502E-03   0.0000000E+00  -4.9742568E-02   1.6958921E-03   0.0000000E+00  -3.5015136E-02   1.6181539E-03   0.0000000E+00  -2.5659023E-02   6.0245767E-03   0.0000000E+00  -7.5868987E-02   6.1005382E-03   0.0000000E+00  -7.5995132E-02   6.0793716E-03   0.0000000E+00  -6.7264400E-02   5.9496677E-03   0.0000000E+00  -4.9399219E-02   5.7370733E-03   0.0000000E+00  -3.4713898E-02   5.4864530E-03   0.0000000E+00  -2.5417108E-02   1.0152884E-02   0.0000000E+00  -7.4700169E-02   1.0324263E-02   0.0000000E+00  -7.4777074E-02   1.0325191E-02   0.0000000E+00  -6.6088848E-02   1.0139429E-02   0.0000000E+00  -4.8456382E-02   9.8058609E-03   0.0000000E+00  -3.4002770E-02   9.3945973E-03   0.0000000E+00  -2.4874715E-02   1.4330037E-02   0.0000000E+00  -7.2554238E-02   1.4581673E-02   0.0000000E+00  -7.2547048E-02   1.4593952E-02   0.0000000E+00  -6.4020358E-02   1.4347453E-02   0.0000000E+00  -4.6887562E-02   1.3894686E-02   0.0000000E+00  -3.2876104E-02   1.3329413E-02   0.0000000E+00  -2.4040407E-02   1.8296350E-02   0.0000000E+00  -6.9509923E-02   1.8613435E-02   0.0000000E+00  -6.9376901E-02   1.8629046E-02   0.0000000E+00  -6.1110321E-02   1.8320311E-02   0.0000000E+00  -4.4722706E-02   1.7752774E-02   0.0000000E+00  -3.1353489E-02   1.7042862E-02   0.0000000E+00  -2.2930797E-02   2.1732941E-02   0.0000000E+00  -6.5703429E-02   2.2100171E-02   0.0000000E+00  -6.5404221E-02   2.2113906E-02   0.0000000E+00  -5.7472330E-02   2.1746121E-02   0.0000000E+00  -4.2032067E-02   2.1074655E-02   0.0000000E+00  -2.9478014E-02   2.0236358E-02   0.0000000E+00  -2.1575930E-02   2.4384864E-02   0.0000000E+00  -6.1314538E-02   2.4619419E-02   0.0000000E+00  -6.0747385E-02   2.4794359E-02   0.0000000E+00  -5.3267919E-02   2.4375258E-02   0.0000000E+00  -3.8926162E-02   2.3594508E-02   0.0000000E+00  -2.7318221E-02   2.2549270E-02   0.0000000E+00  -2.0027544E-02   2.6142897E-02   0.0000000E+00  -5.6564994E-02   2.6257917E-02   0.0000000E+00  -5.5700507E-02   2.6529213E-02   0.0000000E+00  -4.8683826E-02   2.6049783E-02   0.0000000E+00  -3.5530910E-02   2.4890454E-02   0.0000000E+00  -2.4968127E-02   2.3426875E-02   0.0000000E+00  -1.8371962E-02   2.7286397E-02   0.0000000E+00  -5.1673412E-02   2.7353974E-02   0.0000000E+00  -5.0558768E-02   2.7394565E-02   0.0000000E+00  -4.3920930E-02   2.6604554E-02   0.0000000E+00  -3.1991363E-02   2.5044980E-02   0.0000000E+00  -2.2525815E-02   2.3355693E-02   0.0000000E+00  -1.6665032E-02   2.8317317E-02   0.0000000E+00  -4.6803642E-02   2.8114522E-02   0.0000000E+00  -4.5475565E-02   2.7707659E-02   0.0000000E+00  -3.9191976E-02   2.6543317E-02   0.0000000E+00  -2.8482297E-02   2.4681242E-02   0.0000000E+00  -2.0101180E-02   2.2881960E-02   0.0000000E+00  -1.4963892E-02   2.9670613E-02   0.0000000E+00  -4.2065285E-02   2.8896177E-02   0.0000000E+00  -4.0528484E-02   2.7880717E-02   0.0000000E+00  -3.4706034E-02   2.6297329E-02   0.0000000E+00  -2.5196288E-02   2.4093492E-02   0.0000000E+00  -1.7815787E-02   2.2169081E-02   0.0000000E+00  -1.3354926E-02   3.1734519E-02   0.0000000E+00  -3.7639879E-02   3.0207822E-02   0.0000000E+00  -3.5938710E-02   2.8251233E-02   0.0000000E+00  -3.0668847E-02   2.6002707E-02   0.0000000E+00  -2.2336686E-02   2.3389859E-02   0.0000000E+00  -1.5834400E-02   2.1346971E-02   0.0000000E+00  -1.1922159E-02   3.4949344E-02   0.0000000E+00  -3.3733379E-02   3.2168131E-02   0.0000000E+00  -3.1858698E-02   2.8957419E-02   0.0000000E+00  -2.7256960E-02   2.5741974E-02   0.0000000E+00  -2.0061335E-02   2.2689493E-02   0.0000000E+00  -1.4289198E-02   2.0499686E-02   0.0000000E+00  -1.0675271E-02   3.8662214E-02   0.0000000E+00  -3.0293474E-02   3.4488667E-02   0.0000000E+00  -2.8411053E-02   2.9867066E-02   0.0000000E+00  -2.4611291E-02   2.5541455E-02   0.0000000E+00  -1.8478762E-02   2.2067517E-02   0.0000000E+00  -1.3180295E-02   1.9677499E-02   0.0000000E+00  -9.6774641E-03   4.1266643E-02   0.0000000E+00  -2.7498987E-02   3.6105514E-02   0.0000000E+00  -2.5775537E-02   3.0612117E-02   0.0000000E+00  -2.2741821E-02   2.5452923E-02   0.0000000E+00  -1.7557014E-02   2.1623334E-02   0.0000000E+00  -1.2533895E-02   1.8937467E-02   0.0000000E+00  -8.9910980E-03   3.6443230E-02   0.0000000E+00  -2.3755617E-02   3.1007806E-02   0.0000000E+00  -2.1356042E-02   2.5544947E-02   0.0000000E+00  -1.7124064E-02   2.1369930E-02   0.0000000E+00  -1.2316692E-02   1.8363783E-02   0.0000000E+00  -8.6447131E-03   3.6035046E-02   0.0000000E+00  -2.1941544E-02   3.1138033E-02   0.0000000E+00  -2.0134995E-02   2.5913935E-02   0.0000000E+00  -1.6896430E-02   2.1389371E-02   0.0000000E+00  -1.2493343E-02   1.8038312E-02   0.0000000E+00  -8.6408546E-03   3.1077133E-02   0.0000000E+00  -1.8987142E-02   2.6497481E-02   0.0000000E+00  -1.6605541E-02   2.1859959E-02   0.0000000E+00  -1.2953511E-02   1.8083349E-02   0.0000000E+00  -9.0417638E-03   3.0690916E-02   0.0000000E+00  -1.7982701E-02   2.7030358E-02   0.0000000E+00  -1.6276268E-02   2.2776162E-02   0.0000000E+00  -1.3461761E-02   1.8708494E-02   0.0000000E+00  -9.8828031E-03   2.7175093E-02   0.0000000E+00  -1.5931815E-02   2.3748832E-02   0.0000000E+00  -1.3863648E-02   1.9933973E-02   0.0000000E+00  -1.0895889E-02   2.4344880E-02   0.0000000E+00  -1.4051051E-02   2.1433363E-02   0.0000000E+00  -1.1722026E-02   2.4245778E-02   0.0000000E+00  -1.3925909E-02   2.2438752E-02   0.0000000E+00  -1.2212663E-02  -5.7737830E-06   0.0000000E+00  -7.2445204E-07  -6.0209236E-06   0.0000000E+00  -6.1147807E-07  -6.2124682E-06   0.0000000E+00  -5.1078416E-07  -6.3605576E-06   0.0000000E+00  -4.1745594E-07  -6.4727819E-06   0.0000000E+00  -3.3376827E-07  -6.5564004E-06   0.0000000E+00  -2.5715872E-07  -6.6168909E-06   0.0000000E+00  -1.8612074E-07  -6.6577459E-06   0.0000000E+00  -1.2069056E-07  -6.6814023E-06   0.0000000E+00  -5.9309212E-08  -8.9261412E-06   0.0000000E+00  -1.0895761E-06  -9.2897599E-06   0.0000000E+00  -9.1987050E-07  -9.5693858E-06   0.0000000E+00  -7.6698177E-07  -9.7841148E-06   0.0000000E+00  -6.2629516E-07  -9.9461258E-06   0.0000000E+00  -5.0004525E-07  -1.0066156E-05   0.0000000E+00  -3.8442525E-07  -1.0152315E-05   0.0000000E+00  -2.7808341E-07  -1.0210115E-05   0.0000000E+00  -1.8033455E-07  -1.0243340E-05   0.0000000E+00  -8.8559766E-08  -1.3451043E-05   0.0000000E+00  -1.5284448E-06  -1.3970732E-05   0.0000000E+00  -1.2898895E-06  -1.4367302E-05   0.0000000E+00  -1.0744250E-06  -1.4670004E-05   0.0000000E+00  -8.7660123E-07  -1.4897528E-05   0.0000000E+00  -6.9896038E-07  -1.5065943E-05   0.0000000E+00  -5.3658374E-07  -1.5186729E-05   0.0000000E+00  -3.8792808E-07  -1.5267662E-05   0.0000000E+00  -2.5152264E-07  -1.5314195E-05   0.0000000E+00  -1.2343077E-07  -1.9666300E-05   0.0000000E+00  -2.0912141E-06  -2.0382082E-05   0.0000000E+00  -1.7621635E-06  -2.0924286E-05   0.0000000E+00  -1.4650634E-06  -2.1335645E-05   0.0000000E+00  -1.1932430E-06  -2.1643778E-05   0.0000000E+00  -9.5022818E-07  -2.1871792E-05   0.0000000E+00  -7.2935626E-07  -2.2035596E-05   0.0000000E+00  -5.2742087E-07  -2.2145599E-05   0.0000000E+00  -3.4217604E-07  -2.2209018E-05   0.0000000E+00  -1.6791803E-07  -2.8111421E-05   0.0000000E+00  -2.8284326E-06  -2.9067302E-05   0.0000000E+00  -2.3796672E-06  -2.9786266E-05   0.0000000E+00  -1.9738636E-06  -3.0328092E-05   0.0000000E+00  -1.6050152E-06  -3.0732412E-05   0.0000000E+00  -1.2765423E-06  -3.1030908E-05   0.0000000E+00  -9.7947145E-07  -3.1245188E-05   0.0000000E+00  -7.0857629E-07  -3.1389194E-05   0.0000000E+00  -4.6014969E-07  -3.1472387E-05   0.0000000E+00  -2.2593450E-07  -3.9563489E-05   0.0000000E+00  -3.8000526E-06  -4.0810632E-05   0.0000000E+00  -3.1933419E-06  -4.1740714E-05   0.0000000E+00  -2.6420671E-06  -4.2435269E-05   0.0000000E+00  -2.1446469E-06  -4.2950160E-05   0.0000000E+00  -1.7029607E-06  -4.3328353E-05   0.0000000E+00  -1.3049812E-06  -4.3598797E-05   0.0000000E+00  -9.4378123E-07  -4.3780186E-05   0.0000000E+00  -6.1320941E-07  -4.3884975E-05   0.0000000E+00  -3.0120125E-07  -5.5102682E-05   0.0000000E+00  -5.0863378E-06  -5.6701992E-05   0.0000000E+00  -4.2690017E-06  -5.7881472E-05   0.0000000E+00  -3.5208068E-06  -5.8751193E-05   0.0000000E+00  -2.8504073E-06  -5.9389011E-05   0.0000000E+00  -2.2574086E-06  -5.9853064E-05   0.0000000E+00  -1.7253850E-06  -6.0182469E-05   0.0000000E+00  -1.2462897E-06  -6.0402450E-05   0.0000000E+00  -8.0975724E-07  -6.0529368E-05   0.0000000E+00  -3.9759800E-07  -7.6164150E-05   0.0000000E+00  -6.8021786E-06  -7.8186225E-05   0.0000000E+00  -5.6931699E-06  -7.9655998E-05   0.0000000E+00  -4.6742275E-06  -8.0721569E-05   0.0000000E+00  -3.7679167E-06  -8.1489874E-05   0.0000000E+00  -2.9714470E-06  -8.2041413E-05   0.0000000E+00  -2.2623694E-06  -8.2428967E-05   0.0000000E+00  -1.6305746E-06  -8.2685954E-05   0.0000000E+00  -1.0580077E-06  -8.2833387E-05   0.0000000E+00  -5.1925235E-07  -1.0460974E-04   0.0000000E+00  -9.1043812E-06  -1.0712806E-04   0.0000000E+00  -7.5845883E-06  -1.0892987E-04   0.0000000E+00  -6.1869041E-06  -1.1021067E-04   0.0000000E+00  -4.9546206E-06  -1.1111520E-04   0.0000000E+00  -3.8833182E-06  -1.1175236E-04   0.0000000E+00  -2.9416142E-06  -1.1219237E-04   0.0000000E+00  -2.1131175E-06  -1.1248027E-04   0.0000000E+00  -1.3677296E-06  -1.1264355E-04   0.0000000E+00  -6.7025445E-07  -1.4284540E-04   0.0000000E+00  -1.2202017E-05  -1.4593457E-04   0.0000000E+00  -1.0088027E-05  -1.4810170E-04   0.0000000E+00  -8.1659127E-06  -1.4960799E-04   0.0000000E+00  -6.4860328E-06  -1.5064578E-04   0.0000000E+00  -5.0448698E-06  -1.5135828E-04   0.0000000E+00  -3.7949342E-06  -1.5183669E-04   0.0000000E+00  -2.7120138E-06  -1.5214153E-04   0.0000000E+00  -1.7481632E-06  -1.5231145E-04   0.0000000E+00  -8.5453928E-07  -1.9397684E-04   0.0000000E+00  -1.6322323E-05  -1.9769084E-04   0.0000000E+00  -1.3367847E-05  -2.0022647E-04   0.0000000E+00  -1.0733050E-05  -2.0194083E-04   0.0000000E+00  -8.4473813E-06  -2.0308275E-04   0.0000000E+00  -6.5154222E-06  -2.0384132E-04   0.0000000E+00  -4.8606930E-06  -2.0433258E-04   0.0000000E+00  -3.4500567E-06  -2.0463538E-04   0.0000000E+00  -2.2111708E-06  -2.0480026E-04   0.0000000E+00  -1.0779436E-06  -2.6195237E-04   0.0000000E+00  -2.1711674E-05  -2.6630261E-04   0.0000000E+00  -1.7599576E-05  -2.6916494E-04   0.0000000E+00  -1.4013268E-05  -2.7102520E-04   0.0000000E+00  -1.0925352E-05  -2.7220341E-04   0.0000000E+00  -8.3568239E-06  -2.7294888E-04   0.0000000E+00  -6.1827836E-06  -2.7340726E-04   0.0000000E+00  -4.3591640E-06  -2.7367828E-04   0.0000000E+00  -2.7776080E-06  -2.7382083E-04   0.0000000E+00  -1.3502666E-06  -3.5174764E-04   0.0000000E+00  -2.8704048E-05  -3.5665397E-04   0.0000000E+00  -2.2991881E-05  -3.5971944E-04   0.0000000E+00  -1.8138706E-05  -3.6158983E-04   0.0000000E+00  -1.4008436E-05  -3.6267453E-04   0.0000000E+00  -1.0632853E-05  -3.6329986E-04   0.0000000E+00  -7.8094290E-06  -3.6364456E-04   0.0000000E+00  -5.4767356E-06  -3.6382949E-04   0.0000000E+00  -3.4734633E-06  -3.6391901E-04   0.0000000E+00  -1.6851479E-06  -4.6961111E-04   0.0000000E+00  -3.7693284E-05  -4.7483059E-04   0.0000000E+00  -2.9761302E-05  -4.7782715E-04   0.0000000E+00  -2.3235008E-05  -4.7944664E-04   0.0000000E+00  -1.7785129E-05  -4.8021422E-04   0.0000000E+00  -1.3404339E-05  -4.8054237E-04   0.0000000E+00  -9.7970278E-06  -4.8064435E-04   0.0000000E+00  -6.8504187E-06  -4.8065762E-04   0.0000000E+00  -4.3326477E-06  -4.8064531E-04   0.0000000E+00  -2.1005710E-06  -6.2343711E-04   0.0000000E+00  -4.8962924E-05  -6.2848965E-04   0.0000000E+00  -3.8119353E-05  -6.3093746E-04   0.0000000E+00  -2.9445535E-05  -6.3186901E-04   0.0000000E+00  -2.2364322E-05  -6.3196028E-04   0.0000000E+00  -1.6767246E-05  -6.3171465E-04   0.0000000E+00  -1.2226570E-05  -6.3137652E-04   0.0000000E+00  -8.5503134E-06  -6.3108956E-04   0.0000000E+00  -5.4062079E-06  -6.3090387E-04   0.0000000E+00  -2.6238658E-06  -8.2328479E-04   0.0000000E+00  -6.2878404E-05  -8.2736596E-04   0.0000000E+00  -4.8263286E-05  -8.2849083E-04   0.0000000E+00  -3.6895231E-05  -8.2806207E-04   0.0000000E+00  -2.7894823E-05  -8.2693546E-04   0.0000000E+00  -2.0861116E-05  -8.2570658E-04   0.0000000E+00  -1.5232419E-05  -8.2464237E-04   0.0000000E+00  -1.0678951E-05  -8.2387018E-04   0.0000000E+00  -6.7780948E-06  -8.2340837E-04   0.0000000E+00  -3.2997825E-06  -1.0818585E-03   0.0000000E+00  -7.9537407E-05  -1.0837388E-03   0.0000000E+00  -6.0494433E-05  -1.0824008E-03   0.0000000E+00  -4.5837009E-05  -1.0796294E-03   0.0000000E+00  -3.4605600E-05  -1.0765279E-03   0.0000000E+00  -2.5931236E-05  -1.0737516E-03   0.0000000E+00  -1.9045896E-05  -1.0715738E-03   0.0000000E+00  -1.3438736E-05  -1.0700685E-03   0.0000000E+00  -8.5922047E-06  -1.0691958E-03   0.0000000E+00  -4.2007164E-06  -1.4148109E-03   0.0000000E+00  -9.9447243E-05  -1.4126730E-03   0.0000000E+00  -7.5258875E-05  -1.4072920E-03   0.0000000E+00  -5.6767960E-05  -1.4008464E-03   0.0000000E+00  -4.3036300E-05  -1.3947713E-03   0.0000000E+00  -3.2461307E-05  -1.3897283E-03   0.0000000E+00  -2.4107319E-05  -1.3859551E-03   0.0000000E+00  -1.7187722E-05  -1.3834148E-03   0.0000000E+00  -1.1099689E-05  -1.3819678E-03   0.0000000E+00  -5.4587485E-06  -1.8405875E-03   0.0000000E+00  -1.2348223E-04  -1.8317903E-03   0.0000000E+00  -9.3403331E-05  -1.8202338E-03   0.0000000E+00  -7.0698494E-05  -1.8083866E-03   0.0000000E+00  -5.4171585E-05  -1.7980952E-03   0.0000000E+00  -4.1358457E-05  -1.7899305E-03   0.0000000E+00  -3.1212436E-05  -1.7840123E-03   0.0000000E+00  -2.2549995E-05  -1.7801048E-03   0.0000000E+00  -1.4730154E-05  -1.7779117E-03   0.0000000E+00  -7.2926837E-06  -2.3799401E-03   0.0000000E+00  -1.5346109E-04  -2.3608450E-03   0.0000000E+00  -1.1682246E-04  -2.3401007E-03   0.0000000E+00  -8.9593646E-05  -2.3206878E-03   0.0000000E+00  -6.9757072E-05  -2.3046564E-03   0.0000000E+00  -5.4273689E-05  -2.2923977E-03   0.0000000E+00  -4.1712283E-05  -2.2837496E-03   0.0000000E+00  -3.0560055E-05  -2.2781468E-03   0.0000000E+00  -2.0178728E-05  -2.2750427E-03   0.0000000E+00  -1.0053564E-05  -3.0559800E-03   0.0000000E+00  -1.9268900E-04  -3.0213969E-03   0.0000000E+00  -1.4913596E-04  -2.9874824E-03   0.0000000E+00  -1.1689692E-04  -2.9577289E-03   0.0000000E+00  -9.2911810E-05  -2.9341222E-03   0.0000000E+00  -7.3851021E-05  -2.9166760E-03   0.0000000E+00  -5.7685604E-05  -2.9046834E-03   0.0000000E+00  -4.2800370E-05  -2.8970724E-03   0.0000000E+00  -2.8486784E-05  -2.8929173E-03   0.0000000E+00  -1.4264168E-05  -3.8958201E-03   0.0000000E+00  -2.4739373E-04  -3.8387321E-03   0.0000000E+00  -1.9627120E-04  -3.7863236E-03   0.0000000E+00  -1.5826465E-04  -3.7426418E-03   0.0000000E+00  -1.2856143E-04  -3.7092015E-03   0.0000000E+00  -1.0402138E-04  -3.6852548E-03   0.0000000E+00  -8.2235070E-05  -3.6692489E-03   0.0000000E+00  -6.1499821E-05  -3.6593294E-03   0.0000000E+00  -4.1097028E-05  -3.6540111E-03   0.0000000E+00  -2.0603893E-05  -4.9338588E-03   0.0000000E+00  -3.2840698E-04  -4.8452741E-03   0.0000000E+00  -2.6846473E-04  -4.7677271E-03   0.0000000E+00  -2.2236793E-04  -4.7055976E-03   0.0000000E+00  -1.8380229E-04  -4.6594767E-03   0.0000000E+00  -1.5026116E-04  -4.6274113E-03   0.0000000E+00  -1.1934378E-04  -4.6065408E-03   0.0000000E+00  -8.9580448E-05  -4.5939754E-03   0.0000000E+00  -5.9910766E-05  -4.5873830E-03   0.0000000E+00  -3.0039037E-05  -6.2149391E-03   0.0000000E+00  -4.5305945E-04  -6.0845469E-03   0.0000000E+00  -3.8143038E-04  -5.9742234E-03   0.0000000E+00  -3.2180152E-04  -5.8882497E-03   0.0000000E+00  -2.6842393E-04  -5.8259047E-03   0.0000000E+00  -2.1989235E-04  -5.7836594E-03   0.0000000E+00  -1.7424028E-04  -5.7568979E-03   0.0000000E+00  -1.3026356E-04  -5.7412153E-03   0.0000000E+00  -8.6869899E-05  -5.7331864E-03   0.0000000E+00  -4.3487202E-05  -7.7945557E-03   0.0000000E+00  -6.4921589E-04  -7.6118419E-03   0.0000000E+00  -5.5825448E-04  -7.4606575E-03   0.0000000E+00  -4.7378679E-04  -7.3447959E-03   0.0000000E+00  -3.9445798E-04  -7.2620925E-03   0.0000000E+00  -3.2101606E-04  -7.2071101E-03   0.0000000E+00  -2.5279567E-04  -7.1730725E-03   0.0000000E+00  -1.8791558E-04  -7.1537616E-03   0.0000000E+00  -1.2456141E-04  -7.1441731E-03   0.0000000E+00  -6.2176456E-05  -9.7320424E-03   0.0000000E+00  -9.5595937E-04  -9.4881691E-03   0.0000000E+00  -8.2765275E-04  -9.2881573E-03   0.0000000E+00  -6.9979578E-04  -9.1357334E-03   0.0000000E+00  -5.7738385E-04  -9.0279002E-03   0.0000000E+00  -4.6440240E-04  -8.9573096E-03   0.0000000E+00  -3.6153221E-04  -8.9147165E-03   0.0000000E+00  -2.6619120E-04  -8.8911196E-03   0.0000000E+00  -1.7573840E-04  -8.8796681E-03   0.0000000E+00  -8.7497341E-05  -1.2077308E-02   0.0000000E+00  -1.4190240E-03  -1.1765315E-02   0.0000000E+00  -1.2198327E-03  -1.1508808E-02   0.0000000E+00  -1.0203369E-03  -1.1312794E-02   0.0000000E+00  -8.3263358E-04  -1.1174336E-02   0.0000000E+00  -6.6220132E-04  -1.1085099E-02   0.0000000E+00  -5.0872751E-04  -1.1032307E-02   0.0000000E+00  -3.7041347E-04  -1.1003958E-02   0.0000000E+00  -2.4223952E-04  -1.0990745E-02   0.0000000E+00  -1.1973330E-04  -1.4845170E-02   0.0000000E+00  -2.0824634E-03  -1.4461830E-02   0.0000000E+00  -1.7658824E-03  -1.4141787E-02   0.0000000E+00  -1.4583373E-03  -1.3894024E-02   0.0000000E+00  -1.1740553E-03  -1.3719559E-02   0.0000000E+00  -9.2139863E-04  -1.3608188E-02   0.0000000E+00  -7.0052571E-04  -1.3543623E-02   0.0000000E+00  -5.0484820E-04  -1.3510004E-02   0.0000000E+00  -3.2646104E-04  -1.3494599E-02   0.0000000E+00  -1.6015943E-04  -1.7999483E-02   0.0000000E+00  -2.9670405E-03  -1.7530190E-02   0.0000000E+00  -2.4913060E-03  -1.7135074E-02   0.0000000E+00  -2.0353689E-03  -1.6829025E-02   0.0000000E+00  -1.6192454E-03  -1.6614057E-02   0.0000000E+00  -1.2516226E-03  -1.6477551E-02   0.0000000E+00  -9.3717506E-04  -1.6399549E-02   0.0000000E+00  -6.6684367E-04  -1.6359411E-02   0.0000000E+00  -4.2902835E-04  -1.6342038E-02   0.0000000E+00  -2.0936191E-04  -2.1407917E-02   0.0000000E+00  -4.0755956E-03  -2.0829966E-02   0.0000000E+00  -3.3975777E-03  -2.0339284E-02   0.0000000E+00  -2.7590734E-03  -1.9965811E-02   0.0000000E+00  -2.1649313E-03  -1.9703139E-02   0.0000000E+00  -1.6518893E-03  -1.9538410E-02   0.0000000E+00  -1.2185285E-03  -1.9444909E-02   0.0000000E+00  -8.5371017E-04  -1.9397471E-02   0.0000000E+00  -5.4145063E-04  -1.9376284E-02   0.0000000E+00  -2.6421531E-04  -2.4870403E-02   0.0000000E+00  -5.3636464E-03  -2.4143966E-02   0.0000000E+00  -4.4355947E-03  -2.3534402E-02   0.0000000E+00  -3.5727553E-03  -2.3074849E-02   0.0000000E+00  -2.7808202E-03  -2.2753246E-02   0.0000000E+00  -2.0960667E-03  -2.2553334E-02   0.0000000E+00  -1.5224456E-03  -2.2441065E-02   0.0000000E+00  -1.0489819E-03  -2.2382701E-02   0.0000000E+00  -6.5831339E-04  -2.2355774E-02   0.0000000E+00  -3.1570494E-04  -2.8159289E-02   0.0000000E+00  -6.9021070E-03  -2.7245408E-02   0.0000000E+00  -5.6829574E-03  -2.6516693E-02   0.0000000E+00  -4.5058401E-03  -2.5964392E-02   0.0000000E+00  -3.4373002E-03  -2.5572170E-02   0.0000000E+00  -2.5283394E-03  -2.5322363E-02   0.0000000E+00  -1.7948381E-03  -2.5175791E-02   0.0000000E+00  -1.2197332E-03  -2.5094537E-02   0.0000000E+00  -7.5438939E-04  -2.5056830E-02   0.0000000E+00  -3.5862913E-04  -3.1034658E-02   0.0000000E+00  -8.7533854E-03  -2.9994471E-02   0.0000000E+00  -7.1182866E-03  -2.9153612E-02   0.0000000E+00  -5.6011509E-03  -2.8509999E-02   0.0000000E+00  -4.1977400E-03  -2.8052256E-02   0.0000000E+00  -3.0007558E-03  -2.7738351E-02   0.0000000E+00  -2.0611095E-03  -2.7535791E-02   0.0000000E+00  -1.3580435E-03  -2.7420055E-02   0.0000000E+00  -8.1851339E-04  -2.7357839E-02   0.0000000E+00  -3.8741605E-04  -3.3264022E-02   0.0000000E+00  -1.1041082E-02  -3.2102734E-02   0.0000000E+00  -8.8457568E-03  -3.1185791E-02   0.0000000E+00  -6.8865130E-03  -3.0474035E-02   0.0000000E+00  -5.0956076E-03  -2.9936468E-02   0.0000000E+00  -3.5886604E-03  -2.9553343E-02   0.0000000E+00  -2.4112468E-03  -2.9293843E-02   0.0000000E+00  -1.5445466E-03  -2.9132575E-02   0.0000000E+00  -9.1448391E-04  -2.9044477E-02   0.0000000E+00  -4.2809182E-04  -3.3912882E-02   0.0000000E+00  -1.3589510E-02  -3.2705434E-02   0.0000000E+00  -1.0778184E-02  -3.1760976E-02   0.0000000E+00  -8.3230883E-03  -3.1034751E-02   0.0000000E+00  -6.0804337E-03  -3.0491112E-02   0.0000000E+00  -4.2073322E-03  -3.0096335E-02   0.0000000E+00  -2.7709368E-03  -2.9829143E-02   0.0000000E+00  -1.7346804E-03  -2.9662816E-02   0.0000000E+00  -1.0045455E-03  -2.9573744E-02   0.0000000E+00  -4.6325420E-04  -3.1307939E-02   0.0000000E+00  -1.5905790E-02  -3.0208427E-02   0.0000000E+00  -1.2576878E-02  -2.9332070E-02   0.0000000E+00  -9.6738404E-03  -2.8666316E-02   0.0000000E+00  -6.9972840E-03  -2.8190065E-02   0.0000000E+00  -4.7507649E-03  -2.7863912E-02   0.0000000E+00  -3.0396516E-03  -2.7655382E-02   0.0000000E+00  -1.8371204E-03  -2.7530788E-02   0.0000000E+00  -1.0252607E-03  -2.7466562E-02   0.0000000E+00  -4.5734289E-04  -2.3056041E-02   0.0000000E+00  -1.7636597E-02  -2.2148862E-02   0.0000000E+00  -1.3965803E-02  -2.1414621E-02   0.0000000E+00  -1.0743328E-02  -2.0861510E-02   0.0000000E+00  -7.7598239E-03  -2.0472355E-02   0.0000000E+00  -5.2557020E-03  -2.0216387E-02   0.0000000E+00  -3.3460557E-03  -2.0058285E-02   0.0000000E+00  -2.0080972E-03  -1.9966941E-02   0.0000000E+00  -1.1124912E-03  -1.9920224E-02   0.0000000E+00  -4.9319922E-04  -1.4351004E-02   0.0000000E+00  -1.8788379E-02  -1.3716321E-02   0.0000000E+00  -1.4926453E-02  -1.3191637E-02   0.0000000E+00  -1.1499943E-02  -1.2790570E-02   0.0000000E+00  -8.3145881E-03  -1.2506265E-02   0.0000000E+00  -5.6348895E-03  -1.2318394E-02   0.0000000E+00  -3.5889831E-03  -1.2201746E-02   0.0000000E+00  -2.1546665E-03  -1.2133810E-02   0.0000000E+00  -1.1941039E-03  -1.2098763E-02   0.0000000E+00  -5.2956451E-04  -7.5234207E-03   0.0000000E+00  -1.9521156E-02  -7.1438998E-03   0.0000000E+00  -1.5560391E-02  -6.8212533E-03   0.0000000E+00  -1.2009612E-02  -6.5707248E-03   0.0000000E+00  -8.6922916E-03  -6.3917427E-03   0.0000000E+00  -5.8944840E-03  -6.2728627E-03   0.0000000E+00  -3.7561043E-03  -6.1984370E-03   0.0000000E+00  -2.2562630E-03  -6.1545847E-03   0.0000000E+00  -1.2512646E-03  -6.1316793E-03   0.0000000E+00  -5.5520487E-04  -2.4529409E-03   0.0000000E+00  -1.9895565E-02  -2.2962929E-03   0.0000000E+00  -1.5900031E-02  -2.1557517E-03   0.0000000E+00  -1.2289643E-02  -2.0438754E-03   0.0000000E+00  -8.9021539E-03  -1.9630902E-03   0.0000000E+00  -6.0395179E-03  -1.9089538E-03   0.0000000E+00  -3.8500903E-03  -1.8745280E-03   0.0000000E+00  -2.3140686E-03  -1.8537170E-03   0.0000000E+00  -1.2842932E-03  -1.8425588E-03   0.0000000E+00  -5.7026604E-04   1.5595298E-03   0.0000000E+00  -1.9968910E-02   1.5228682E-03   0.0000000E+00  -1.5983235E-02   1.5021659E-03   0.0000000E+00  -1.2365159E-02   1.4899763E-03   0.0000000E+00  -8.9608254E-03   1.4823914E-03   0.0000000E+00  -6.0807369E-03   1.4779795E-03   0.0000000E+00  -3.8774631E-03   1.4760103E-03   0.0000000E+00  -2.3316734E-03   1.4756063E-03   0.0000000E+00  -1.2949775E-03   1.4758556E-03   0.0000000E+00  -5.7537650E-04   5.2423114E-03   0.0000000E+00  -1.9782528E-02   5.0333850E-03   0.0000000E+00  -1.5842324E-02   4.8686848E-03   0.0000000E+00  -1.2260799E-02   4.7459062E-03   0.0000000E+00  -8.8862181E-03   4.6596280E-03   0.0000000E+00  -6.0302997E-03   4.6029878E-03   0.0000000E+00  -3.8458204E-03   4.5683482E-03   0.0000000E+00  -2.3134283E-03   4.5487396E-03   0.0000000E+00  -1.2855105E-03   4.5390120E-03   0.0000000E+00  -5.7148183E-04   8.9788213E-03   0.0000000E+00  -1.9355791E-02   8.6116465E-03   0.0000000E+00  -1.5502119E-02   8.3163735E-03   0.0000000E+00  -1.1998048E-02   8.0943704E-03   0.0000000E+00  -8.6948751E-03   7.9378709E-03   0.0000000E+00  -5.8997083E-03   7.8345882E-03   0.0000000E+00  -3.7624321E-03   7.7706883E-03   0.0000000E+00  -2.2636163E-03   7.7337944E-03   0.0000000E+00  -1.2582071E-03   7.7150064E-03   0.0000000E+00  -5.5950758E-04   1.2751917E-02   0.0000000E+00  -1.8704642E-02   1.2238237E-02   0.0000000E+00  -1.4980872E-02   1.1824236E-02   0.0000000E+00  -1.1593728E-02   1.1513227E-02   0.0000000E+00  -8.4001133E-03   1.1294086E-02   0.0000000E+00  -5.6982948E-03   1.1149313E-02   0.0000000E+00  -3.6332731E-03   1.1059364E-02   0.0000000E+00  -2.1857503E-03   1.1007050E-02   0.0000000E+00  -1.2149889E-03   1.0980167E-02   0.0000000E+00  -5.4034666E-04   1.6316317E-02   0.0000000E+00  -1.7846391E-02   1.5670044E-02   0.0000000E+00  -1.4296135E-02   1.5150391E-02   0.0000000E+00  -1.1063444E-02   1.4761037E-02   0.0000000E+00  -8.0141053E-03   1.4487161E-02   0.0000000E+00  -5.4345899E-03   1.4306244E-02   0.0000000E+00  -3.4638566E-03   1.4193626E-02   0.0000000E+00  -2.0831560E-03   1.4127929E-02   0.0000000E+00  -1.1577168E-03   1.4094029E-02   0.0000000E+00  -5.1482470E-04   1.9378021E-02   0.0000000E+00  -1.6805379E-02   1.8615814E-02   0.0000000E+00  -1.3469085E-02   1.8003987E-02   0.0000000E+00  -1.0424836E-02   1.7545203E-02   0.0000000E+00  -7.5503895E-03   1.7221585E-02   0.0000000E+00  -5.1182867E-03   1.7006710E-02   0.0000000E+00  -3.2609170E-03   1.6872304E-02   0.0000000E+00  -1.9605434E-03   1.6793532E-02   0.0000000E+00  -1.0894564E-03   1.6752385E-02   0.0000000E+00  -4.8437744E-04   2.1464175E-02   0.0000000E+00  -1.5630331E-02   2.0511828E-02   0.0000000E+00  -1.2542712E-02   1.9760363E-02   0.0000000E+00  -9.7142719E-03   1.9189980E-02   0.0000000E+00  -7.0441309E-03   1.8764080E-02   0.0000000E+00  -4.7918139E-03   1.8459970E-02   0.0000000E+00  -3.0712716E-03   1.8253528E-02   0.0000000E+00  -1.8648196E-03   1.8122556E-02   0.0000000E+00  -1.0492888E-03   1.8054942E-02   0.0000000E+00  -4.7300872E-04   2.2061121E-02   0.0000000E+00  -1.4401700E-02   2.0955496E-02   0.0000000E+00  -1.1577344E-02   2.0108148E-02   0.0000000E+00  -8.9783007E-03   1.9462258E-02   0.0000000E+00  -6.5306467E-03   1.8974844E-02   0.0000000E+00  -4.4723651E-03   1.8621799E-02   0.0000000E+00  -2.8996675E-03   1.8380485E-02   0.0000000E+00  -1.7893096E-03   1.8226087E-02   0.0000000E+00  -1.0256886E-03   1.8142315E-02   0.0000000E+00  -4.6780144E-04   2.1892801E-02   0.0000000E+00  -1.3133613E-02   2.0740420E-02   0.0000000E+00  -1.0578191E-02   1.9856067E-02   0.0000000E+00  -8.2138255E-03   1.9180221E-02   0.0000000E+00  -5.9958980E-03   1.8684495E-02   0.0000000E+00  -4.1253408E-03   1.8331936E-02   0.0000000E+00  -2.6962203E-03   1.8088941E-02   0.0000000E+00  -1.6835076E-03   1.7935487E-02   0.0000000E+00  -9.7928138E-04   1.7854083E-02   0.0000000E+00  -4.5360945E-04   2.1371355E-02   0.0000000E+00  -1.1860784E-02   2.0197010E-02   0.0000000E+00  -9.5748268E-03   1.9305054E-02   0.0000000E+00  -7.4512917E-03   1.8632591E-02   0.0000000E+00  -5.4567903E-03   1.8146759E-02   0.0000000E+00  -3.7790667E-03   1.7819250E-02   0.0000000E+00  -2.4939240E-03   1.7600870E-02   0.0000000E+00  -1.5788483E-03   1.7467149E-02   0.0000000E+00  -9.3137845E-04   1.7391581E-02   0.0000000E+00  -4.2908304E-04   2.0649338E-02   0.0000000E+00  -1.0640033E-02   1.9508498E-02   0.0000000E+00  -8.6130975E-03   1.8622123E-02   0.0000000E+00  -6.7198048E-03   1.7963631E-02   0.0000000E+00  -4.9492260E-03   1.7496485E-02   0.0000000E+00  -3.4613947E-03   1.7181419E-02   0.0000000E+00  -2.3258277E-03   1.6981503E-02   0.0000000E+00  -1.4999243E-03   1.6866958E-02   0.0000000E+00  -8.8908238E-04   1.6805571E-02   0.0000000E+00  -4.1465988E-04   1.9864116E-02   0.0000000E+00  -9.4959242E-03   1.8715099E-02   0.0000000E+00  -7.7175577E-03   1.7820174E-02   0.0000000E+00  -6.0425685E-03   1.7169835E-02   0.0000000E+00  -4.4946545E-03   1.6717581E-02   0.0000000E+00  -3.1917014E-03   1.6426044E-02   0.0000000E+00  -2.1791735E-03   1.6249949E-02   0.0000000E+00  -1.4257224E-03   1.6144857E-02   0.0000000E+00  -8.5516786E-04   1.6093504E-02   0.0000000E+00  -4.0199750E-04   1.8995706E-02   0.0000000E+00  -8.5034482E-03   1.7807465E-02   0.0000000E+00  -6.8829022E-03   1.6932538E-02   0.0000000E+00  -5.4289163E-03   1.6281325E-02   0.0000000E+00  -4.0853852E-03   1.5840998E-02   0.0000000E+00  -2.9430478E-03   1.5565914E-02   0.0000000E+00  -2.0461355E-03   1.5395818E-02   0.0000000E+00  -1.3510280E-03   1.5299827E-02   0.0000000E+00  -8.1896962E-04   1.5252335E-02   0.0000000E+00  -3.8759306E-04   1.8058183E-02   0.0000000E+00  -7.6414915E-03   1.6858714E-02   0.0000000E+00  -6.1314628E-03   1.5974922E-02   0.0000000E+00  -4.8697619E-03   1.5325462E-02   0.0000000E+00  -3.7030743E-03   1.4896305E-02   0.0000000E+00  -2.7181185E-03   1.4622113E-02   0.0000000E+00  -1.9122858E-03   1.4455004E-02   0.0000000E+00  -1.2798612E-03   1.4362641E-02   0.0000000E+00  -7.8479509E-04   1.4315072E-02   0.0000000E+00  -3.7474942E-04   1.7143233E-02   0.0000000E+00  -6.8998104E-03   1.5928196E-02   0.0000000E+00  -5.4892511E-03   1.5006306E-02   0.0000000E+00  -4.3235556E-03   1.4371336E-02   0.0000000E+00  -3.3513424E-03   1.3934733E-02   0.0000000E+00  -2.4988363E-03   1.3654456E-02   0.0000000E+00  -1.7884180E-03   1.3481498E-02   0.0000000E+00  -1.2148663E-03   1.3382746E-02   0.0000000E+00  -7.5272319E-04   1.3331654E-02   0.0000000E+00  -3.6253556E-04   1.6356489E-02   0.0000000E+00  -6.3482663E-03   1.5024677E-02   0.0000000E+00  -4.8924214E-03   1.4109645E-02   0.0000000E+00  -3.8451373E-03   1.3452082E-02   0.0000000E+00  -3.0020154E-03   1.3010211E-02   0.0000000E+00  -2.2867243E-03   1.2711680E-02   0.0000000E+00  -1.6677903E-03   1.2525255E-02   0.0000000E+00  -1.1515653E-03   1.2415749E-02   0.0000000E+00  -7.2174595E-04   1.2357956E-02   0.0000000E+00  -3.4787523E-04   1.5761210E-02   0.0000000E+00  -6.0537225E-03   1.4273126E-02   0.0000000E+00  -4.4432031E-03   1.3281509E-02   0.0000000E+00  -3.4043193E-03   1.2618313E-02   0.0000000E+00  -2.6697232E-03   1.2151326E-02   0.0000000E+00  -2.0628977E-03   1.1842768E-02   0.0000000E+00  -1.5417133E-03   1.1637334E-02   0.0000000E+00  -1.0854319E-03   1.1511371E-02   0.0000000E+00  -6.8899448E-04   1.1446281E-02   0.0000000E+00  -3.3388764E-04   1.5442997E-02   0.0000000E+00  -6.1061932E-03   1.3724325E-02   0.0000000E+00  -4.2272937E-03   1.2610382E-02   0.0000000E+00  -3.0704520E-03   1.1875723E-02   0.0000000E+00  -2.3499436E-03   1.1400327E-02   0.0000000E+00  -1.8331017E-03   1.1064190E-02   0.0000000E+00  -1.3848027E-03   1.0847921E-02   0.0000000E+00  -9.9615438E-04   1.0711277E-02   0.0000000E+00  -6.4063136E-04   1.0638695E-02   0.0000000E+00  -3.1395588E-04   1.5571789E-02   0.0000000E+00  -6.6114366E-03   1.3475353E-02   0.0000000E+00  -4.3596732E-03   1.2160819E-02   0.0000000E+00  -2.9623797E-03   1.1303760E-02   0.0000000E+00  -2.1217419E-03   1.0752144E-02   0.0000000E+00  -1.5958479E-03   1.0400553E-02   0.0000000E+00  -1.2117570E-03   1.0162332E-02   0.0000000E+00  -8.6930860E-04   1.0018313E-02   0.0000000E+00  -5.6618225E-04   9.9384710E-03   0.0000000E+00  -2.7709536E-04   1.6491471E-02   0.0000000E+00  -7.6839570E-03   1.3799215E-02   0.0000000E+00  -5.0420403E-03   1.2046958E-02   0.0000000E+00  -3.2369124E-03   1.0967135E-02   0.0000000E+00  -2.1370591E-03   1.0281743E-02   0.0000000E+00  -1.4754976E-03   9.8528164E-03   0.0000000E+00  -1.0492742E-03   9.5801959E-03   0.0000000E+00  -7.3450780E-04   9.4253868E-03   0.0000000E+00  -4.7487818E-04   9.3358615E-03   0.0000000E+00  -2.2861513E-04   1.8278727E-02   0.0000000E+00  -8.9222323E-03   1.5180209E-02   0.0000000E+00  -6.3158595E-03   1.2726673E-02   0.0000000E+00  -4.1799643E-03   1.1081806E-02   0.0000000E+00  -2.6337195E-03   1.0099342E-02   0.0000000E+00  -1.6682715E-03   9.5145600E-03   0.0000000E+00  -1.0760742E-03   9.1596069E-03   0.0000000E+00  -6.8509445E-04   8.9506013E-03   0.0000000E+00  -4.1068232E-04   8.8446354E-03   0.0000000E+00  -1.9306340E-04   2.0217195E-02   0.0000000E+00  -9.9637210E-03   1.7598735E-02   0.0000000E+00  -7.6001738E-03   1.4822626E-02   0.0000000E+00  -5.5291434E-03   1.2391232E-02   0.0000000E+00  -3.8455613E-03   1.0712327E-02   0.0000000E+00  -2.4790149E-03   9.6752038E-03   0.0000000E+00  -1.5134751E-03   9.0875681E-03   0.0000000E+00  -8.8023522E-04   8.7730493E-03   0.0000000E+00  -4.8134246E-04   8.6141881E-03   0.0000000E+00  -2.1117907E-04   2.0853091E-02   0.0000000E+00  -1.0769951E-02   1.9401761E-02   0.0000000E+00  -8.7481113E-03   1.7524892E-02   0.0000000E+00  -6.7685586E-03   1.5355171E-02   0.0000000E+00  -5.0639594E-03   1.3233907E-02   0.0000000E+00  -3.6481435E-03   1.1486311E-02   0.0000000E+00  -2.4862478E-03   1.0276396E-02   0.0000000E+00  -1.5533260E-03   9.5658470E-03   0.0000000E+00  -8.6315389E-04   9.2138946E-03   0.0000000E+00  -3.7759496E-04   1.9489052E-02   0.0000000E+00  -9.6586524E-03   1.8798223E-02   0.0000000E+00  -7.9334620E-03   1.7730832E-02   0.0000000E+00  -6.2824246E-03   1.6385227E-02   0.0000000E+00  -4.7425223E-03   1.5012991E-02   0.0000000E+00  -3.3529876E-03   1.3873893E-02   0.0000000E+00  -2.1601475E-03   1.3090902E-02   0.0000000E+00  -1.2336716E-03   1.2650336E-02   0.0000000E+00  -5.4919225E-04   1.8016076E-02   0.0000000E+00  -7.4448660E-03   1.7758844E-02   0.0000000E+00  -5.8894381E-03   1.7308813E-02   0.0000000E+00  -4.3052249E-03   1.6858382E-02   0.0000000E+00  -2.8014083E-03   1.6517878E-02   0.0000000E+00  -1.5989813E-03   1.6313227E-02   0.0000000E+00  -7.0939469E-04   1.7064873E-02   0.0000000E+00  -5.2841888E-03   1.7234186E-02   0.0000000E+00  -3.4584089E-03   1.7330039E-02   0.0000000E+00  -1.9676548E-03   1.7373048E-02   0.0000000E+00  -8.6787133E-04  -6.6891885E-06   0.0000000E+00  -3.0890937E-13  -6.6814046E-06   0.0000000E+00   5.9308967E-08  -6.6577509E-06   0.0000000E+00   1.2069053E-07  -6.6168914E-06   0.0000000E+00   1.8612049E-07  -6.5564004E-06   0.0000000E+00   2.5715877E-07  -6.4727815E-06   0.0000000E+00   3.3376833E-07  -6.3605557E-06   0.0000000E+00   4.1745517E-07  -6.2124723E-06   0.0000000E+00   5.1078439E-07  -1.0254194E-05   0.0000000E+00   4.1961112E-13  -1.0243337E-05   0.0000000E+00   8.8558998E-08  -1.0210115E-05   0.0000000E+00   1.8033332E-07  -1.0152308E-05   0.0000000E+00   2.7808272E-07  -1.0066161E-05   0.0000000E+00   3.8442508E-07  -9.9461313E-06   0.0000000E+00   5.0004519E-07  -9.7841157E-06   0.0000000E+00   6.2629476E-07  -9.5693804E-06   0.0000000E+00   7.6698103E-07  -1.5329393E-05   0.0000000E+00  -4.2386128E-13  -1.5314190E-05   0.0000000E+00   1.2343091E-07  -1.5267662E-05   0.0000000E+00   2.5152144E-07  -1.5186725E-05   0.0000000E+00   3.8792774E-07  -1.5065945E-05   0.0000000E+00   5.3658317E-07  -1.4897532E-05   0.0000000E+00   6.9895970E-07  -1.4670008E-05   0.0000000E+00   8.7660197E-07  -1.4367301E-05   0.0000000E+00   1.0744236E-06  -2.2229768E-05   0.0000000E+00  -2.4343700E-14  -2.2209018E-05   0.0000000E+00   1.6791553E-07  -2.2145601E-05   0.0000000E+00   3.4217493E-07  -2.2035591E-05   0.0000000E+00   5.2742041E-07  -2.1871800E-05   0.0000000E+00   7.2935546E-07  -2.1643777E-05   0.0000000E+00   9.5022705E-07  -2.1335660E-05   0.0000000E+00   1.1932418E-06  -2.0924283E-05   0.0000000E+00   1.4650649E-06  -3.1499629E-05   0.0000000E+00   3.0080790E-12  -3.1472384E-05   0.0000000E+00   2.2593164E-07  -3.1389194E-05   0.0000000E+00   4.6014668E-07  -3.1245174E-05   0.0000000E+00   7.0857521E-07  -3.1030908E-05   0.0000000E+00   9.7946997E-07  -3.0732415E-05   0.0000000E+00   1.2765422E-06  -3.0328094E-05   0.0000000E+00   1.6050170E-06  -2.9786268E-05   0.0000000E+00   1.9738623E-06  -4.3919259E-05   0.0000000E+00   2.8235267E-14  -4.3884993E-05   0.0000000E+00   3.0120609E-07  -4.3780194E-05   0.0000000E+00   6.1320844E-07  -4.3598800E-05   0.0000000E+00   9.4378174E-07  -4.3328379E-05   0.0000000E+00   1.3049802E-06  -4.2950163E-05   0.0000000E+00   1.7029614E-06  -4.2435258E-05   0.0000000E+00   2.1446454E-06  -4.1740725E-05   0.0000000E+00   2.6420623E-06  -6.0570812E-05   0.0000000E+00  -2.1632422E-12  -6.0529364E-05   0.0000000E+00   3.9759377E-07  -6.0402454E-05   0.0000000E+00   8.0975286E-07  -6.0182476E-05   0.0000000E+00   1.2462885E-06  -5.9853046E-05   0.0000000E+00   1.7253828E-06  -5.9389029E-05   0.0000000E+00   2.2574113E-06  -5.8751204E-05   0.0000000E+00   2.8504076E-06  -5.7881472E-05   0.0000000E+00   3.5208113E-06  -8.2881335E-05   0.0000000E+00   1.0956427E-12  -8.2833394E-05   0.0000000E+00   5.1925400E-07  -8.2685932E-05   0.0000000E+00   1.0580050E-06  -8.2428953E-05   0.0000000E+00   1.6305744E-06  -8.2041428E-05   0.0000000E+00   2.2623688E-06  -8.1489925E-05   0.0000000E+00   2.9714481E-06  -8.0721584E-05   0.0000000E+00   3.7679206E-06  -7.9655991E-05   0.0000000E+00   4.6742275E-06  -1.1269615E-04   0.0000000E+00  -8.6659472E-13  -1.1264355E-04   0.0000000E+00   6.7024217E-07  -1.1248027E-04   0.0000000E+00   1.3677147E-06  -1.1219236E-04   0.0000000E+00   2.1131123E-06  -1.1175234E-04   0.0000000E+00   2.9416115E-06  -1.1111516E-04   0.0000000E+00   3.8833200E-06  -1.1021070E-04   0.0000000E+00   4.9546175E-06  -1.0892990E-04   0.0000000E+00   6.1868850E-06  -1.5236567E-04   0.0000000E+00   1.1341844E-11  -1.5231145E-04   0.0000000E+00   8.5456935E-07  -1.5214157E-04   0.0000000E+00   1.7481520E-06  -1.5183665E-04   0.0000000E+00   2.7120054E-06  -1.5135827E-04   0.0000000E+00   3.7949276E-06  -1.5064579E-04   0.0000000E+00   5.0448689E-06  -1.4960801E-04   0.0000000E+00   6.4860369E-06  -1.4810171E-04   0.0000000E+00   8.1659118E-06  -2.0485213E-04   0.0000000E+00   3.6504836E-12  -2.0480026E-04   0.0000000E+00   1.0779394E-06  -2.0463542E-04   0.0000000E+00   2.2111840E-06  -2.0433259E-04   0.0000000E+00   3.4500456E-06  -2.0384135E-04   0.0000000E+00   4.8606794E-06  -2.0308269E-04   0.0000000E+00   6.5154127E-06  -2.0194080E-04   0.0000000E+00   8.4473768E-06  -2.0022650E-04   0.0000000E+00   1.0733057E-05  -2.7386475E-04   0.0000000E+00   2.7844272E-12  -2.7382077E-04   0.0000000E+00   1.3502876E-06  -2.7367822E-04   0.0000000E+00   2.7776209E-06  -2.7340729E-04   0.0000000E+00   4.3591467E-06  -2.7294891E-04   0.0000000E+00   6.1827873E-06  -2.7220330E-04   0.0000000E+00   8.3568202E-06  -2.7102526E-04   0.0000000E+00   1.0925345E-05  -2.6916494E-04   0.0000000E+00   1.4013226E-05  -3.6394529E-04   0.0000000E+00  -4.8395371E-11  -3.6391907E-04   0.0000000E+00   1.6851665E-06  -3.6382963E-04   0.0000000E+00   3.4734492E-06  -3.6364459E-04   0.0000000E+00   5.4767452E-06  -3.6329977E-04   0.0000000E+00   7.8094135E-06  -3.6267456E-04   0.0000000E+00   1.0632834E-05  -3.6158986E-04   0.0000000E+00   1.4008411E-05  -3.5971947E-04   0.0000000E+00   1.8138689E-05  -4.8063858E-04   0.0000000E+00   1.5141126E-11  -4.8064522E-04   0.0000000E+00   2.1005874E-06  -4.8065753E-04   0.0000000E+00   4.3326063E-06  -4.8064432E-04   0.0000000E+00   6.8504141E-06  -4.8054248E-04   0.0000000E+00   9.7970278E-06  -4.8021422E-04   0.0000000E+00   1.3404321E-05  -4.7944669E-04   0.0000000E+00   1.7785156E-05  -4.7782715E-04   0.0000000E+00   2.3235005E-05  -6.3084101E-04   0.0000000E+00   1.8921052E-11  -6.3090399E-04   0.0000000E+00   2.6238513E-06  -6.3108961E-04   0.0000000E+00   5.4061593E-06  -6.3137669E-04   0.0000000E+00   8.5502934E-06  -6.3171465E-04   0.0000000E+00   1.2226586E-05  -6.3196028E-04   0.0000000E+00   1.6767233E-05  -6.3186896E-04   0.0000000E+00   2.2364307E-05  -6.3093723E-04   0.0000000E+00   2.9445662E-05  -8.2325708E-04   0.0000000E+00  -1.3875226E-11  -8.2340842E-04   0.0000000E+00   3.2996884E-06  -8.2386984E-04   0.0000000E+00   6.7780984E-06  -8.2464219E-04   0.0000000E+00   1.0678873E-05  -8.2570658E-04   0.0000000E+00   1.5232397E-05  -8.2693557E-04   0.0000000E+00   2.0861060E-05  -8.2806230E-04   0.0000000E+00   2.7894808E-05  -8.2849100E-04   0.0000000E+00   3.6895126E-05  -1.0689124E-03   0.0000000E+00   3.5178083E-11  -1.0691955E-03   0.0000000E+00   4.2006868E-06  -1.0700681E-03   0.0000000E+00   8.5922511E-06  -1.0715738E-03   0.0000000E+00   1.3438691E-05  -1.0737511E-03   0.0000000E+00   1.9045838E-05  -1.0765279E-03   0.0000000E+00   2.5931246E-05  -1.0796294E-03   0.0000000E+00   3.4605546E-05  -1.0824004E-03   0.0000000E+00   4.5836889E-05  -1.3815012E-03   0.0000000E+00   1.1443031E-10  -1.3819677E-03   0.0000000E+00   5.4587649E-06  -1.3834148E-03   0.0000000E+00   1.1099643E-05  -1.3859551E-03   0.0000000E+00   1.7187655E-05  -1.3897280E-03   0.0000000E+00   2.4107278E-05  -1.3947715E-03   0.0000000E+00   3.2461277E-05  -1.4008464E-03   0.0000000E+00   4.3036220E-05  -1.4072920E-03   0.0000000E+00   5.6768007E-05  -1.7772081E-03   0.0000000E+00   1.3292009E-10  -1.7779114E-03   0.0000000E+00   7.2928292E-06  -1.7801054E-03   0.0000000E+00   1.4730083E-05  -1.7840123E-03   0.0000000E+00   2.2549930E-05  -1.7899306E-03   0.0000000E+00   3.1212410E-05  -1.7980952E-03   0.0000000E+00   4.1358388E-05  -1.8083873E-03   0.0000000E+00   5.4171396E-05  -1.8202334E-03   0.0000000E+00   7.0698414E-05  -2.2740541E-03   0.0000000E+00   1.9907379E-10  -2.2750427E-03   0.0000000E+00   1.0053795E-05  -2.2781470E-03   0.0000000E+00   2.0178812E-05  -2.2837501E-03   0.0000000E+00   3.0559986E-05  -2.2923984E-03   0.0000000E+00   4.1712272E-05  -2.3046564E-03   0.0000000E+00   5.4273522E-05  -2.3206882E-03   0.0000000E+00   6.9757087E-05  -2.3401007E-03   0.0000000E+00   8.9593683E-05  -2.8916064E-03   0.0000000E+00   1.1402884E-10  -2.8929173E-03   0.0000000E+00   1.4264016E-05  -2.8970724E-03   0.0000000E+00   2.8486598E-05  -2.9046843E-03   0.0000000E+00   4.2800417E-05  -2.9166765E-03   0.0000000E+00   5.7685633E-05  -2.9341229E-03   0.0000000E+00   7.3850861E-05  -2.9577294E-03   0.0000000E+00   9.2912080E-05  -2.9874817E-03   0.0000000E+00   1.1689693E-04  -3.6523461E-03   0.0000000E+00   4.8089262E-11  -3.6540106E-03   0.0000000E+00   2.0603424E-05  -3.6593294E-03   0.0000000E+00   4.1096471E-05  -3.6692491E-03   0.0000000E+00   6.1499595E-05  -3.6852551E-03   0.0000000E+00   8.2235114E-05  -3.7092015E-03   0.0000000E+00   1.0402131E-04  -3.7426425E-03   0.0000000E+00   1.2856111E-04  -3.7863238E-03   0.0000000E+00   1.5826429E-04  -4.5853439E-03   0.0000000E+00   1.5663179E-10  -4.5873830E-03   0.0000000E+00   3.0038964E-05  -4.5939763E-03   0.0000000E+00   5.9910406E-05  -4.6065408E-03   0.0000000E+00   8.9580659E-05  -4.6274113E-03   0.0000000E+00   1.1934367E-04  -4.6594790E-03   0.0000000E+00   1.5026111E-04  -4.7055967E-03   0.0000000E+00   1.8380236E-04  -4.7677290E-03   0.0000000E+00   2.2236789E-04  -5.7307379E-03   0.0000000E+00   1.7471949E-10  -5.7331882E-03   0.0000000E+00   4.3487071E-05  -5.7412144E-03   0.0000000E+00   8.6869979E-05  -5.7568983E-03   0.0000000E+00   1.3026345E-04  -5.7836589E-03   0.0000000E+00   1.7424017E-04  -5.8259061E-03   0.0000000E+00   2.1989232E-04  -5.8882497E-03   0.0000000E+00   2.6842358E-04  -5.9742243E-03   0.0000000E+00   3.2180169E-04  -7.1412884E-03   0.0000000E+00  -2.9024855E-10  -7.1441727E-03   0.0000000E+00   6.2176296E-05  -7.1537625E-03   0.0000000E+00   1.2456122E-04  -7.1730735E-03   0.0000000E+00   1.8791534E-04  -7.2071096E-03   0.0000000E+00   2.5279549E-04  -7.2620939E-03   0.0000000E+00   3.2101569E-04  -7.3447963E-03   0.0000000E+00   3.9445786E-04  -7.4606570E-03   0.0000000E+00   4.7378649E-04  -8.8763637E-03   0.0000000E+00   3.7169492E-10  -8.8796681E-03   0.0000000E+00   8.7497225E-05  -8.8911187E-03   0.0000000E+00   1.7573862E-04  -8.9147184E-03   0.0000000E+00   2.6619143E-04  -8.9573087E-03   0.0000000E+00   3.6153203E-04  -9.0278992E-03   0.0000000E+00   4.6440208E-04  -9.1357324E-03   0.0000000E+00   5.7738367E-04  -9.2881545E-03   0.0000000E+00   6.9979596E-04  -1.0986766E-02   0.0000000E+00   4.4790605E-10  -1.0990746E-02   0.0000000E+00   1.1973247E-04  -1.1003956E-02   0.0000000E+00   2.4223911E-04  -1.1032307E-02   0.0000000E+00   3.7041339E-04  -1.1085096E-02   0.0000000E+00   5.0872751E-04  -1.1174336E-02   0.0000000E+00   6.6220073E-04  -1.1312797E-02   0.0000000E+00   8.3263364E-04  -1.1508808E-02   0.0000000E+00   1.0203359E-03  -1.3490534E-02   0.0000000E+00   3.0411429E-10  -1.3494599E-02   0.0000000E+00   1.6015950E-04  -1.3510003E-02   0.0000000E+00   3.2646194E-04  -1.3543626E-02   0.0000000E+00   5.0484785E-04  -1.3608188E-02   0.0000000E+00   7.0052501E-04  -1.3719559E-02   0.0000000E+00   9.2139910E-04  -1.3894024E-02   0.0000000E+00   1.1740536E-03  -1.4141791E-02   0.0000000E+00   1.4583382E-03  -1.6337045E-02   0.0000000E+00  -9.2706781E-10  -1.6342036E-02   0.0000000E+00   2.0936049E-04  -1.6359411E-02   0.0000000E+00   4.2902646E-04  -1.6399549E-02   0.0000000E+00   6.6684297E-04  -1.6477551E-02   0.0000000E+00   9.3717501E-04  -1.6614059E-02   0.0000000E+00   1.2516223E-03  -1.6829025E-02   0.0000000E+00   1.6192447E-03  -1.7135078E-02   0.0000000E+00   2.0353689E-03  -1.9370604E-02   0.0000000E+00   1.3669035E-10  -1.9376282E-02   0.0000000E+00   2.6421275E-04  -1.9397467E-02   0.0000000E+00   5.4145028E-04  -1.9444911E-02   0.0000000E+00   8.5371017E-04  -1.9538410E-02   0.0000000E+00   1.2185284E-03  -1.9703140E-02   0.0000000E+00   1.6518893E-03  -1.9965813E-02   0.0000000E+00   2.1649313E-03  -2.0339282E-02   0.0000000E+00   2.7590718E-03  -2.2349253E-02   0.0000000E+00   3.1615974E-10  -2.2355778E-02   0.0000000E+00   3.1570299E-04  -2.2382705E-02   0.0000000E+00   6.5831229E-04  -2.2441065E-02   0.0000000E+00   1.0489823E-03  -2.2553334E-02   0.0000000E+00   1.5224448E-03  -2.2753246E-02   0.0000000E+00   2.0960667E-03  -2.3074837E-02   0.0000000E+00   2.7808179E-03  -2.3534410E-02   0.0000000E+00   3.5727578E-03  -2.5045607E-02   0.0000000E+00  -4.1600398E-10  -2.5056833E-02   0.0000000E+00   3.5862802E-04  -2.5094533E-02   0.0000000E+00   7.5438968E-04  -2.5175797E-02   0.0000000E+00   1.2197301E-03  -2.5322363E-02   0.0000000E+00   1.7948367E-03  -2.5572170E-02   0.0000000E+00   2.5283399E-03  -2.5964390E-02   0.0000000E+00   3.4372997E-03  -2.6516693E-02   0.0000000E+00   4.5058387E-03  -2.7336808E-02   0.0000000E+00   7.9842338E-10  -2.7357841E-02   0.0000000E+00   3.8741340E-04  -2.7420059E-02   0.0000000E+00   8.1851304E-04  -2.7535794E-02   0.0000000E+00   1.3580414E-03  -2.7738351E-02   0.0000000E+00   2.0611095E-03  -2.8052257E-02   0.0000000E+00   3.0007511E-03  -2.8510004E-02   0.0000000E+00   4.1977419E-03  -2.9153612E-02   0.0000000E+00   5.6011509E-03  -2.9019397E-02   0.0000000E+00   4.3077226E-09  -2.9044479E-02   0.0000000E+00   4.2809598E-04  -2.9132582E-02   0.0000000E+00   9.1448578E-04  -2.9293850E-02   0.0000000E+00   1.5445424E-03  -2.9553344E-02   0.0000000E+00   2.4112449E-03  -2.9936470E-02   0.0000000E+00   3.5886602E-03  -3.0474043E-02   0.0000000E+00   5.0956039E-03  -3.1185791E-02   0.0000000E+00   6.8865153E-03  -2.9548831E-02   0.0000000E+00   2.8909581E-09  -2.9573748E-02   0.0000000E+00   4.6325781E-04  -2.9662812E-02   0.0000000E+00   1.0045397E-03  -2.9829144E-02   0.0000000E+00   1.7346769E-03  -3.0096339E-02   0.0000000E+00   2.7709347E-03  -3.0491110E-02   0.0000000E+00   4.2073335E-03  -3.1034756E-02   0.0000000E+00   6.0804440E-03  -3.1760972E-02   0.0000000E+00   8.3230929E-03  -2.7447440E-02   0.0000000E+00   8.9490761E-09  -2.7466564E-02   0.0000000E+00   4.5733512E-04  -2.7530788E-02   0.0000000E+00   1.0252531E-03  -2.7655382E-02   0.0000000E+00   1.8371319E-03  -2.7863910E-02   0.0000000E+00   3.0396469E-03  -2.8190052E-02   0.0000000E+00   4.7507719E-03  -2.8666325E-02   0.0000000E+00   6.9973082E-03  -2.9332073E-02   0.0000000E+00   9.6738311E-03  -1.9905925E-02   0.0000000E+00   4.0848516E-09  -1.9920222E-02   0.0000000E+00   4.9319898E-04  -1.9966932E-02   0.0000000E+00   1.1124858E-03  -2.0058287E-02   0.0000000E+00   2.0080972E-03  -2.0216377E-02   0.0000000E+00   3.3460578E-03  -2.0472342E-02   0.0000000E+00   5.2557024E-03  -2.0861505E-02   0.0000000E+00   7.7598258E-03  -2.1414621E-02   0.0000000E+00   1.0743339E-02  -1.2087965E-02   0.0000000E+00  -4.2169033E-09  -1.2098762E-02   0.0000000E+00   5.2954408E-04  -1.2133800E-02   0.0000000E+00   1.1941151E-03  -1.2201737E-02   0.0000000E+00   2.1546639E-03  -1.2318399E-02   0.0000000E+00   3.5889808E-03  -1.2506258E-02   0.0000000E+00   5.6348941E-03  -1.2790568E-02   0.0000000E+00   8.3146039E-03  -1.3191642E-02   0.0000000E+00   1.1499955E-02  -6.1245607E-03   0.0000000E+00   1.7299568E-09  -6.1316779E-03   0.0000000E+00   5.5520277E-04  -6.1545828E-03   0.0000000E+00   1.2512547E-03  -6.1984388E-03   0.0000000E+00   2.2562563E-03  -6.2728473E-03   0.0000000E+00   3.7561024E-03  -6.3917520E-03   0.0000000E+00   5.8944854E-03  -6.5707224E-03   0.0000000E+00   8.6922934E-03  -6.8212552E-03   0.0000000E+00   1.2009599E-02  -1.8390161E-03   0.0000000E+00  -5.5145688E-09  -1.8425507E-03   0.0000000E+00   5.7026563E-04  -1.8537197E-03   0.0000000E+00   1.2842910E-03  -1.8745241E-03   0.0000000E+00   2.3140628E-03  -1.9089461E-03   0.0000000E+00   3.8500847E-03  -1.9630899E-03   0.0000000E+00   6.0395151E-03  -2.0438787E-03   0.0000000E+00   8.9021670E-03  -2.1557622E-03   0.0000000E+00   1.2289621E-02   1.4760173E-03   0.0000000E+00  -1.9501571E-09   1.4758584E-03   0.0000000E+00   5.7539059E-04   1.4756096E-03   0.0000000E+00   1.2949656E-03   1.4760124E-03   0.0000000E+00   2.3316697E-03   1.4779741E-03   0.0000000E+00   3.8774584E-03   1.4823924E-03   0.0000000E+00   6.0807341E-03   1.4899756E-03   0.0000000E+00   8.9608096E-03   1.5021735E-03   0.0000000E+00   1.2365167E-02   4.5360830E-03   0.0000000E+00   4.4399213E-09   4.5390120E-03   0.0000000E+00   5.7147286E-04   4.5487406E-03   0.0000000E+00   1.2855064E-03   4.5683403E-03   0.0000000E+00   2.3134369E-03   4.6029892E-03   0.0000000E+00   3.8458190E-03   4.6596350E-03   0.0000000E+00   6.0303053E-03   4.7459030E-03   0.0000000E+00   8.8862199E-03   4.8686815E-03   0.0000000E+00   1.2260803E-02   7.7092792E-03   0.0000000E+00  -2.0092381E-10   7.7150036E-03   0.0000000E+00   5.5949332E-04   7.7338004E-03   0.0000000E+00   1.2582012E-03   7.7706990E-03   0.0000000E+00   2.2636168E-03   7.8345807E-03   0.0000000E+00   3.7624328E-03   7.9378663E-03   0.0000000E+00   5.8997050E-03   8.0943648E-03   0.0000000E+00   8.6948657E-03   8.3163725E-03   0.0000000E+00   1.1998058E-02   1.0971911E-02   0.0000000E+00   3.5231110E-10   1.0980172E-02   0.0000000E+00   5.4033368E-04   1.1007040E-02   0.0000000E+00   1.2149921E-03   1.1059368E-02   0.0000000E+00   2.1857428E-03   1.1149320E-02   0.0000000E+00   3.6332756E-03   1.1294086E-02   0.0000000E+00   5.6983004E-03   1.1513213E-02   0.0000000E+00   8.4001077E-03   1.1824246E-02   0.0000000E+00   1.1593728E-02   1.4083585E-02   0.0000000E+00   6.2745964E-10   1.4094029E-02   0.0000000E+00   5.1480584E-04   1.4127925E-02   0.0000000E+00   1.1577146E-03   1.4193641E-02   0.0000000E+00   2.0831602E-03   1.4306242E-02   0.0000000E+00   3.4638552E-03   1.4487155E-02   0.0000000E+00   5.4345923E-03   1.4761034E-02   0.0000000E+00   8.0140959E-03   1.5150388E-02   0.0000000E+00   1.1063444E-02   1.6739815E-02   0.0000000E+00  -1.6968281E-08   1.6752396E-02   0.0000000E+00   4.8439615E-04   1.6793525E-02   0.0000000E+00   1.0894646E-03   1.6872309E-02   0.0000000E+00   1.9605416E-03   1.7006708E-02   0.0000000E+00   3.2609198E-03   1.7221589E-02   0.0000000E+00   5.1182844E-03   1.7545201E-02   0.0000000E+00   7.5503839E-03   1.8003972E-02   0.0000000E+00   1.0424828E-02   1.8035254E-02   0.0000000E+00  -7.6482989E-09   1.8054932E-02   0.0000000E+00   4.7299982E-04   1.8122545E-02   0.0000000E+00   1.0492782E-03   1.8253520E-02   0.0000000E+00   1.8648139E-03   1.8459974E-02   0.0000000E+00   3.0712704E-03   1.8764084E-02   0.0000000E+00   4.7918181E-03   1.9189985E-02   0.0000000E+00   7.0441272E-03   1.9760365E-02   0.0000000E+00   9.7142700E-03   1.8116513E-02   0.0000000E+00   2.8072247E-09   1.8142315E-02   0.0000000E+00   4.6781191E-04   1.8226082E-02   0.0000000E+00   1.0256907E-03   1.8380487E-02   0.0000000E+00   1.7893167E-03   1.8621806E-02   0.0000000E+00   2.8996661E-03   1.8974846E-02   0.0000000E+00   4.4723623E-03   1.9462258E-02   0.0000000E+00   6.5306318E-03   2.0108145E-02   0.0000000E+00   8.9782998E-03   1.7825231E-02   0.0000000E+00  -1.4758335E-09   1.7854080E-02   0.0000000E+00   4.5361079E-04   1.7935483E-02   0.0000000E+00   9.7928918E-04   1.8088941E-02   0.0000000E+00   1.6835141E-03   1.8331941E-02   0.0000000E+00   2.6962205E-03   1.8684493E-02   0.0000000E+00   4.1253390E-03   1.9180221E-02   0.0000000E+00   5.9959022E-03   1.9856071E-02   0.0000000E+00   8.2138125E-03   1.7368747E-02   0.0000000E+00  -1.2188583E-10   1.7391572E-02   0.0000000E+00   4.2908185E-04   1.7467145E-02   0.0000000E+00   9.3138043E-04   1.7600866E-02   0.0000000E+00   1.5788460E-03   1.7819254E-02   0.0000000E+00   2.4939263E-03   1.8146759E-02   0.0000000E+00   3.7790607E-03   1.8632591E-02   0.0000000E+00   5.4567885E-03   1.9305054E-02   0.0000000E+00   7.4512856E-03   1.6786765E-02   0.0000000E+00   1.0067285E-09   1.6805569E-02   0.0000000E+00   4.1465680E-04   1.6866954E-02   0.0000000E+00   8.8907883E-04   1.6981503E-02   0.0000000E+00   1.4999172E-03   1.7181423E-02   0.0000000E+00   2.3258249E-03   1.7496493E-02   0.0000000E+00   3.4613924E-03   1.7963635E-02   0.0000000E+00   4.9492326E-03   1.8622123E-02   0.0000000E+00   6.7197974E-03   1.6078483E-02   0.0000000E+00   4.2116741E-09   1.6093507E-02   0.0000000E+00   4.0200373E-04   1.6144851E-02   0.0000000E+00   8.5517223E-04   1.6249949E-02   0.0000000E+00   1.4257259E-03   1.6426044E-02   0.0000000E+00   2.1791728E-03   1.6717583E-02   0.0000000E+00   3.1917037E-03   1.7169831E-02   0.0000000E+00   4.4946526E-03   1.7820181E-02   0.0000000E+00   6.0425662E-03   1.5238840E-02   0.0000000E+00  -3.7786636E-09   1.5252328E-02   0.0000000E+00   3.8759594E-04   1.5299828E-02   0.0000000E+00   8.1897009E-04   1.5395820E-02   0.0000000E+00   1.3510267E-03   1.5565914E-02   0.0000000E+00   2.0461355E-03   1.5840992E-02   0.0000000E+00   2.9430466E-03   1.6281333E-02   0.0000000E+00   4.0853843E-03   1.6932532E-02   0.0000000E+00   5.4289154E-03   1.4298756E-02   0.0000000E+00   1.3650341E-09   1.4315070E-02   0.0000000E+00   3.7475085E-04   1.4362648E-02   0.0000000E+00   7.8479387E-04   1.4455001E-02   0.0000000E+00   1.2798589E-03   1.4622112E-02   0.0000000E+00   1.9122864E-03   1.4896300E-02   0.0000000E+00   2.7181183E-03   1.5325467E-02   0.0000000E+00   3.7030750E-03   1.5974930E-02   0.0000000E+00   4.8697661E-03   1.3316091E-02   0.0000000E+00  -2.5246054E-09   1.3331655E-02   0.0000000E+00   3.6253818E-04   1.3382745E-02   0.0000000E+00   7.5272727E-04   1.3481499E-02   0.0000000E+00   1.2148677E-03   1.3654453E-02   0.0000000E+00   1.7884208E-03   1.3934738E-02   0.0000000E+00   2.4988365E-03   1.4371340E-02   0.0000000E+00   3.3513459E-03   1.5006305E-02   0.0000000E+00   4.3235561E-03   1.2340109E-02   0.0000000E+00  -9.0737307E-10   1.2357957E-02   0.0000000E+00   3.4787462E-04   1.2415749E-02   0.0000000E+00   7.2174659E-04   1.2525253E-02   0.0000000E+00   1.1515648E-03   1.2711678E-02   0.0000000E+00   1.6677905E-03   1.3010215E-02   0.0000000E+00   2.2867247E-03   1.3452085E-02   0.0000000E+00   3.0020110E-03   1.4109647E-02   0.0000000E+00   3.8451375E-03   1.1425904E-02   0.0000000E+00   1.5533240E-10   1.1446279E-02   0.0000000E+00   3.3388892E-04   1.1511371E-02   0.0000000E+00   6.8899634E-04   1.1637333E-02   0.0000000E+00   1.0854321E-03   1.1842769E-02   0.0000000E+00   1.5417140E-03   1.2151327E-02   0.0000000E+00   2.0628986E-03   1.2618314E-02   0.0000000E+00   2.6697207E-03   1.3281512E-02   0.0000000E+00   3.4043172E-03   1.0614730E-02   0.0000000E+00  -2.4759410E-09   1.0638700E-02   0.0000000E+00   3.1395469E-04   1.0711282E-02   0.0000000E+00   6.4063031E-04   1.0847921E-02   0.0000000E+00   9.9615555E-04   1.1064192E-02   0.0000000E+00   1.3848025E-03   1.1400333E-02   0.0000000E+00   1.8331014E-03   1.1875727E-02   0.0000000E+00   2.3499439E-03   1.2610388E-02   0.0000000E+00   3.0704527E-03   9.9144112E-03   0.0000000E+00  -4.6318910E-10   9.9384673E-03   0.0000000E+00   2.7709469E-04   1.0018314E-02   0.0000000E+00   5.6618248E-04   1.0162335E-02   0.0000000E+00   8.6930871E-04   1.0400556E-02   0.0000000E+00   1.2117574E-03   1.0752145E-02   0.0000000E+00   1.5958470E-03   1.1303759E-02   0.0000000E+00   2.1217417E-03   1.2160822E-02   0.0000000E+00   2.9623797E-03   9.3118027E-03   0.0000000E+00  -5.6036226E-10   9.3358625E-03   0.0000000E+00   2.2861456E-04   9.4253831E-03   0.0000000E+00   4.7487850E-04   9.5801977E-03   0.0000000E+00   7.3450833E-04   9.8528173E-03   0.0000000E+00   1.0492740E-03   1.0281743E-02   0.0000000E+00   1.4754963E-03   1.0967136E-02   0.0000000E+00   2.1370577E-03   1.2046964E-02   0.0000000E+00   3.2369124E-03   8.8142017E-03   0.0000000E+00  -3.5125020E-10   8.8446382E-03   0.0000000E+00   1.9306371E-04   8.9506041E-03   0.0000000E+00   4.1068217E-04   9.1596097E-03   0.0000000E+00   6.8509340E-04   9.5145609E-03   0.0000000E+00   1.0760737E-03   1.0099341E-02   0.0000000E+00   1.6682714E-03   1.1081806E-02   0.0000000E+00   2.6337195E-03   1.2726678E-02   0.0000000E+00   4.1799676E-03   8.5661476E-03   0.0000000E+00   3.6033971E-11   8.6141899E-03   0.0000000E+00   2.1117677E-04   8.7730493E-03   0.0000000E+00   4.8134144E-04   9.0875691E-03   0.0000000E+00   8.8023499E-04   9.6752048E-03   0.0000000E+00   1.5134747E-03   1.0712328E-02   0.0000000E+00   2.4790147E-03   1.2391234E-02   0.0000000E+00   3.8455601E-03   1.4822629E-02   0.0000000E+00   5.5291434E-03   9.1094123E-03   0.0000000E+00  -8.5072466E-10   9.2138974E-03   0.0000000E+00   3.7759435E-04   9.5658479E-03   0.0000000E+00   8.6315424E-04   1.0276393E-02   0.0000000E+00   1.5533254E-03   1.1486313E-02   0.0000000E+00   2.4862476E-03   1.3233908E-02   0.0000000E+00   3.6481430E-03   1.5355175E-02   0.0000000E+00   5.0639585E-03   1.7524896E-02   0.0000000E+00   6.7685586E-03   1.2510590E-02   0.0000000E+00  -3.2793207E-10   1.2650337E-02   0.0000000E+00   5.4919207E-04   1.3090908E-02   0.0000000E+00   1.2336711E-03   1.3873896E-02   0.0000000E+00   2.1601478E-03   1.5012995E-02   0.0000000E+00   3.3529873E-03   1.6385229E-02   0.0000000E+00   4.7425223E-03   1.7730834E-02   0.0000000E+00   6.2824250E-03   1.8798223E-02   0.0000000E+00   7.9334620E-03   1.6244875E-02   0.0000000E+00   8.6468249E-10   1.6313227E-02   0.0000000E+00   7.0939440E-04   1.6517878E-02   0.0000000E+00   1.5989823E-03   1.6858384E-02   0.0000000E+00   2.8014074E-03   1.7308813E-02   0.0000000E+00   4.3052244E-03   1.7758846E-02   0.0000000E+00   5.8894381E-03   1.8016078E-02   0.0000000E+00   7.4448655E-03   1.7384220E-02   0.0000000E+00   1.6311177E-10   1.7373046E-02   0.0000000E+00   8.6787052E-04   1.7330037E-02   0.0000000E+00   1.9676562E-03   1.7234189E-02   0.0000000E+00   3.4584093E-03   1.7064875E-02   0.0000000E+00   5.2841874E-03  -6.0209227E-06   0.0000000E+00   6.1147745E-07  -5.7737816E-06   0.0000000E+00   7.2445164E-07  -5.4601910E-06   0.0000000E+00   8.4449039E-07  -5.0666272E-06   0.0000000E+00   9.6567430E-07  -4.5828160E-06   0.0000000E+00   1.0730475E-06  -3.9914235E-06   0.0000000E+00   1.1609983E-06  -3.2944918E-06   0.0000000E+00   1.2054467E-06  -9.2897553E-06   0.0000000E+00   9.1986954E-07  -8.9261412E-06   0.0000000E+00   1.0895765E-06  -8.4587982E-06   0.0000000E+00   1.2678496E-06  -7.8617295E-06   0.0000000E+00   1.4474892E-06  -7.1154623E-06   0.0000000E+00   1.5958897E-06  -6.1827554E-06   0.0000000E+00   1.7056459E-06  -5.0452895E-06   0.0000000E+00   1.7486562E-06  -3.7249245E-06   0.0000000E+00   1.7889688E-06  -1.3970728E-05   0.0000000E+00   1.2898892E-06  -1.3451046E-05   0.0000000E+00   1.5284453E-06  -1.2775590E-05   0.0000000E+00   1.7785574E-06  -1.1901216E-05   0.0000000E+00   2.0285456E-06  -1.0792547E-05   0.0000000E+00   2.2351696E-06  -9.3916697E-06   0.0000000E+00   2.3946261E-06  -7.6859487E-06   0.0000000E+00   2.4714482E-06  -5.6977547E-06   0.0000000E+00   2.4691701E-06  -2.0382082E-05   0.0000000E+00   1.7621600E-06  -1.9666299E-05   0.0000000E+00   2.0912164E-06  -1.8726165E-05   0.0000000E+00   2.4375886E-06  -1.7494449E-05   0.0000000E+00   2.7853982E-06  -1.5914338E-05   0.0000000E+00   3.0757467E-06  -1.3896683E-05   0.0000000E+00   3.3071005E-06  -1.1422685E-05   0.0000000E+00   3.4137381E-06  -8.4931116E-06   0.0000000E+00   3.4042812E-06  -2.9067303E-05   0.0000000E+00   2.3796647E-06  -2.8111426E-05   0.0000000E+00   2.8284305E-06  -2.6842650E-05   0.0000000E+00   3.3035130E-06  -2.5160069E-05   0.0000000E+00   3.7826571E-06  -2.2974540E-05   0.0000000E+00   4.1853327E-06  -2.0146063E-05   0.0000000E+00   4.5172542E-06  -1.6631793E-05   0.0000000E+00   4.6856385E-06  -1.2409297E-05   0.0000000E+00   4.7074177E-06  -4.0810624E-05   0.0000000E+00   3.1933382E-06  -3.9563496E-05   0.0000000E+00   3.8000537E-06  -3.7890080E-05   0.0000000E+00   4.4446506E-06  -3.5643825E-05   0.0000000E+00   5.0957956E-06  -3.2685530E-05   0.0000000E+00   5.6502172E-06  -2.8799477E-05   0.0000000E+00   6.1273190E-06  -2.3897566E-05   0.0000000E+00   6.4074429E-06  -1.7914084E-05   0.0000000E+00   6.5241156E-06  -5.6701985E-05   0.0000000E+00   4.2689971E-06  -5.5102682E-05   0.0000000E+00   5.0863432E-06  -5.2928870E-05   0.0000000E+00   5.9556432E-06  -4.9975191E-05   0.0000000E+00   6.8357422E-06  -4.6032157E-05   0.0000000E+00   7.6023507E-06  -4.0783070E-05   0.0000000E+00   8.2882943E-06  -3.4052358E-05   0.0000000E+00   8.7666085E-06  -2.5713078E-05   0.0000000E+00   9.0513613E-06  -7.8186225E-05   0.0000000E+00   5.6931717E-06  -7.6164135E-05   0.0000000E+00   6.8021741E-06  -7.3373143E-05   0.0000000E+00   7.9872834E-06  -6.9536713E-05   0.0000000E+00   9.1806914E-06  -6.4354892E-05   0.0000000E+00   1.0243362E-05  -5.7389832E-05   0.0000000E+00   1.1218115E-05  -4.8303067E-05   0.0000000E+00   1.2011335E-05  -3.6818987E-05   0.0000000E+00   1.2623526E-05  -1.0712807E-04   0.0000000E+00   7.5845851E-06  -1.0460974E-04   0.0000000E+00   9.1043730E-06  -1.0107490E-04   0.0000000E+00   1.0742472E-05  -9.6142729E-05   0.0000000E+00   1.2405307E-05  -8.9411245E-05   0.0000000E+00   1.3887242E-05  -8.0289356E-05   0.0000000E+00   1.5251664E-05  -6.8205321E-05   0.0000000E+00   1.6523254E-05  -5.2731470E-05   0.0000000E+00   1.7569295E-05  -1.4593455E-04   0.0000000E+00   1.0088017E-05  -1.4284538E-04   0.0000000E+00   1.2202016E-05  -1.3844225E-04   0.0000000E+00   1.4476332E-05  -1.3219430E-04   0.0000000E+00   1.6804595E-05  -1.2356442E-04   0.0000000E+00   1.8863382E-05  -1.1176693E-04   0.0000000E+00   2.0777139E-05  -9.6123986E-05   0.0000000E+00   2.2522196E-05  -7.5599812E-05   0.0000000E+00   2.4274965E-05  -1.9769094E-04   0.0000000E+00   1.3367830E-05  -1.9397687E-04   0.0000000E+00   1.6322338E-05  -1.8859589E-04   0.0000000E+00   1.9477393E-05  -1.8080026E-04   0.0000000E+00   2.2746786E-05  -1.6992108E-04   0.0000000E+00   2.5541482E-05  -1.5483968E-04   0.0000000E+00   2.8248718E-05  -1.3489943E-04   0.0000000E+00   3.0670311E-05  -1.0826699E-04   0.0000000E+00   3.3383960E-05  -2.6630261E-04   0.0000000E+00   1.7599545E-05  -2.6195237E-04   0.0000000E+00   2.1711698E-05  -2.5550742E-04   0.0000000E+00   2.6144979E-05  -2.4598534E-04   0.0000000E+00   3.0861440E-05  -2.3247358E-04   0.0000000E+00   3.5205427E-05  -2.1340062E-04   0.0000000E+00   4.0156603E-05  -1.8805661E-04   0.0000000E+00   4.5698274E-05  -1.5273209E-04   0.0000000E+00   5.4049804E-05  -3.5665391E-04   0.0000000E+00   2.2991824E-05  -3.5174770E-04   0.0000000E+00   2.8704057E-05  -3.4424520E-04   0.0000000E+00   3.5095076E-05  -3.3296391E-04   0.0000000E+00   4.2225045E-05  -3.1671586E-04   0.0000000E+00   4.9878519E-05  -2.9344633E-04   0.0000000E+00   6.0380851E-05  -2.6266320E-04   0.0000000E+00   7.5109288E-05  -2.2047963E-04   0.0000000E+00   9.6623742E-05  -4.7483059E-04   0.0000000E+00   2.9761233E-05  -4.6961114E-04   0.0000000E+00   3.7693233E-05  -4.6124854E-04   0.0000000E+00   4.7033682E-05  -4.4836567E-04   0.0000000E+00   5.8144302E-05  -4.2971602E-04   0.0000000E+00   7.1304079E-05  -4.0293179E-04   0.0000000E+00   9.0666159E-05  -3.6769579E-04   0.0000000E+00   1.1913131E-04  -3.2014181E-04   0.0000000E+00   1.5526351E-04  -6.2848965E-04   0.0000000E+00   3.8119364E-05  -6.2343717E-04   0.0000000E+00   4.8962916E-05  -6.1464700E-04   0.0000000E+00   6.2311330E-05  -6.0051354E-04   0.0000000E+00   7.9197576E-05  -5.7995209E-04   0.0000000E+00   9.9992278E-05  -5.5021199E-04   0.0000000E+00   1.3081802E-04  -5.1101414E-04   0.0000000E+00   1.7498821E-04  -4.5771021E-04   0.0000000E+00   2.2778739E-04  -8.2736602E-04   0.0000000E+00   4.8263242E-05  -8.2328462E-04   0.0000000E+00   6.2878426E-05  -8.1475993E-04   0.0000000E+00   8.1257225E-05  -7.9983077E-04   0.0000000E+00   1.0551811E-04  -7.7762303E-04   0.0000000E+00   1.3619541E-04  -7.4474176E-04   0.0000000E+00   1.8076533E-04  -7.0078706E-04   0.0000000E+00   2.4350942E-04  -6.4031774E-04   0.0000000E+00   3.1361621E-04  -1.0837390E-03   0.0000000E+00   6.0494225E-05  -1.0818586E-03   0.0000000E+00   7.9537560E-05  -1.0747071E-03   0.0000000E+00   1.0421272E-04  -1.0596206E-03   0.0000000E+00   1.3777688E-04  -1.0357497E-03   0.0000000E+00   1.8057447E-04  -9.9862332E-04   0.0000000E+00   2.4161070E-04  -9.4786234E-04   0.0000000E+00   3.2654157E-04  -8.7665755E-04   0.0000000E+00   4.2099849E-04  -1.4126729E-03   0.0000000E+00   7.5258780E-05  -1.4148111E-03   0.0000000E+00   9.9447301E-05  -1.4107774E-03   0.0000000E+00   1.3179764E-04  -1.3967309E-03   0.0000000E+00   1.7657875E-04  -1.3712079E-03   0.0000000E+00   2.3389079E-04  -1.3284205E-03   0.0000000E+00   3.1647927E-04  -1.2675434E-03   0.0000000E+00   4.2971774E-04  -1.1798890E-03   0.0000000E+00   5.5568229E-04  -1.8317907E-03   0.0000000E+00   9.3403185E-05  -1.8405877E-03   0.0000000E+00   1.2348218E-04  -1.8423739E-03   0.0000000E+00   1.6479331E-04  -1.8315028E-03   0.0000000E+00   2.2285503E-04  -1.8056002E-03   0.0000000E+00   2.9861205E-04  -1.7562812E-03   0.0000000E+00   4.0806292E-04  -1.6817364E-03   0.0000000E+00   5.5872469E-04  -1.5709840E-03   0.0000000E+00   7.2589214E-04  -2.3608450E-03   0.0000000E+00   1.1682239E-04  -2.3799399E-03   0.0000000E+00   1.5346102E-04  -2.3917079E-03   0.0000000E+00   2.0473747E-04  -2.3880876E-03   0.0000000E+00   2.7806932E-04  -2.3647530E-03   0.0000000E+00   3.7628182E-04  -2.3097997E-03   0.0000000E+00   5.2014453E-04  -2.2191803E-03   0.0000000E+00   7.2037522E-04  -2.0790547E-03   0.0000000E+00   9.4379508E-04  -3.0213967E-03   0.0000000E+00   1.4913586E-04  -3.0559800E-03   0.0000000E+00   1.9268888E-04  -3.0839911E-03   0.0000000E+00   2.5463494E-04  -3.0941139E-03   0.0000000E+00   3.4475783E-04  -3.0793995E-03   0.0000000E+00   4.6914312E-04  -3.0226402E-03   0.0000000E+00   6.5572199E-04  -2.9152143E-03   0.0000000E+00   9.2169194E-04  -2.7401741E-03   0.0000000E+00   1.2198222E-03  -3.8387314E-03   0.0000000E+00   1.9627059E-04  -3.8958210E-03   0.0000000E+00   2.4739312E-04  -3.9489106E-03   0.0000000E+00   3.1984437E-04  -3.9831046E-03   0.0000000E+00   4.2694071E-04  -3.9870297E-03   0.0000000E+00   5.7982095E-04  -3.9366027E-03   0.0000000E+00   8.1761234E-04  -3.8147359E-03   0.0000000E+00   1.1678687E-03  -3.5999913E-03   0.0000000E+00   1.5682112E-03  -4.8452727E-03   0.0000000E+00   2.6846497E-04  -4.9338592E-03   0.0000000E+00   3.2840710E-04  -5.0235041E-03   0.0000000E+00   4.1105569E-04  -5.0964644E-03   0.0000000E+00   5.3130044E-04  -5.1337550E-03   0.0000000E+00   7.1405742E-04  -5.1040966E-03   0.0000000E+00   1.0074705E-03  -4.9756011E-03   0.0000000E+00   1.4650654E-03  -4.7193617E-03   0.0000000E+00   2.0027279E-03  -6.0845483E-03   0.0000000E+00   3.8143035E-04  -6.2149386E-03   0.0000000E+00   4.5305979E-04  -6.3548372E-03   0.0000000E+00   5.4667983E-04  -6.4842440E-03   0.0000000E+00   6.7553215E-04  -6.5749898E-03   0.0000000E+00   8.8492990E-04  -6.5888320E-03   0.0000000E+00   1.2351758E-03  -6.4711692E-03   0.0000000E+00   1.8196296E-03  -6.1798608E-03   0.0000000E+00   2.5417127E-03  -7.6118433E-03   0.0000000E+00   5.5825408E-04  -7.7945571E-03   0.0000000E+00   6.4921548E-04  -7.9988455E-03   0.0000000E+00   7.5591326E-04  -8.2032643E-03   0.0000000E+00   8.9125521E-04  -8.3721643E-03   0.0000000E+00   1.1198530E-03  -8.4642423E-03   0.0000000E+00   1.5155937E-03  -8.3913235E-03   0.0000000E+00   2.2407882E-03  -8.0914898E-03   0.0000000E+00   3.2067108E-03  -9.4881691E-03   0.0000000E+00   8.2765258E-04  -9.7320415E-03   0.0000000E+00   9.5595873E-04  -1.0011639E-02   0.0000000E+00   1.0880706E-03  -1.0308729E-02   0.0000000E+00   1.2324583E-03  -1.0586550E-02   0.0000000E+00   1.4656101E-03  -1.0803245E-02   0.0000000E+00   1.8828214E-03  -1.0838847E-02   0.0000000E+00   2.7475075E-03  -1.0600622E-02   0.0000000E+00   4.0317150E-03  -1.1765315E-02   0.0000000E+00   1.2198305E-03  -1.2077309E-02   0.0000000E+00   1.4190242E-03  -1.2436885E-02   0.0000000E+00   1.6099310E-03  -1.2837482E-02   0.0000000E+00   1.7845422E-03  -1.3254458E-02   0.0000000E+00   2.0108374E-03  -1.3659732E-02   0.0000000E+00   2.4126631E-03  -1.3913946E-02   0.0000000E+00   3.4037337E-03  -1.3880072E-02   0.0000000E+00   5.0726668E-03  -1.4461829E-02   0.0000000E+00   1.7658815E-03  -1.4845173E-02   0.0000000E+00   2.0824629E-03  -1.5282977E-02   0.0000000E+00   2.3917849E-03  -1.5784653E-02   0.0000000E+00   2.6632973E-03  -1.6362155E-02   0.0000000E+00   2.8991681E-03  -1.7038921E-02   0.0000000E+00   3.2497237E-03  -1.7678043E-02   0.0000000E+00   4.3325177E-03  -1.8092996E-02   0.0000000E+00   6.4500207E-03  -1.7530190E-02   0.0000000E+00   2.4913058E-03  -1.7999478E-02   0.0000000E+00   2.9670401E-03  -1.8522818E-02   0.0000000E+00   3.4519990E-03  -1.9111210E-02   0.0000000E+00   3.9052807E-03  -1.9840663E-02   0.0000000E+00   4.2704334E-03  -2.0845342E-02   0.0000000E+00   4.6394826E-03  -2.2077186E-02   0.0000000E+00   5.7827621E-03  -2.3299674E-02   0.0000000E+00   8.3777020E-03  -2.0829970E-02   0.0000000E+00   3.3975793E-03  -2.1407925E-02   0.0000000E+00   4.0755970E-03  -2.2079440E-02   0.0000000E+00   4.7465567E-03  -2.2784885E-02   0.0000000E+00   5.4743104E-03  -2.3659497E-02   0.0000000E+00   6.1181956E-03  -2.4893286E-02   0.0000000E+00   6.8619871E-03  -2.6877403E-02   0.0000000E+00   8.2164016E-03  -2.9319270E-02   0.0000000E+00   1.1254149E-02  -2.4143966E-02   0.0000000E+00   4.4355923E-03  -2.4870407E-02   0.0000000E+00   5.3636450E-03  -2.5710685E-02   0.0000000E+00   6.3344399E-03  -2.6643325E-02   0.0000000E+00   7.3833927E-03  -2.7703628E-02   0.0000000E+00   8.5820565E-03  -2.9275956E-02   0.0000000E+00   9.9643050E-03  -3.1795248E-02   0.0000000E+00   1.2280310E-02  -3.5582691E-02   0.0000000E+00   1.5681285E-02  -2.7245410E-02   0.0000000E+00   5.6829592E-03  -2.8159289E-02   0.0000000E+00   6.9021080E-03  -2.9194668E-02   0.0000000E+00   8.2812784E-03  -3.0402267E-02   0.0000000E+00   9.9102370E-03  -3.1897180E-02   0.0000000E+00   1.2014731E-02  -3.3738490E-02   0.0000000E+00   1.5146815E-02  -3.6603037E-02   0.0000000E+00   1.8968610E-02  -4.1250948E-02   0.0000000E+00   2.2721017E-02  -2.9994473E-02   0.0000000E+00   7.1182824E-03  -3.1034663E-02   0.0000000E+00   8.7533854E-03  -3.2314621E-02   0.0000000E+00   1.0705032E-02  -3.3752747E-02   0.0000000E+00   1.3556257E-02  -3.5278756E-02   0.0000000E+00   1.8165851E-02  -3.7079930E-02   0.0000000E+00   2.4555715E-02  -4.0135734E-02   0.0000000E+00   3.0073550E-02  -4.5346931E-02   0.0000000E+00   3.3349209E-02  -3.2102741E-02   0.0000000E+00   8.8457549E-03  -3.3264022E-02   0.0000000E+00   1.1041082E-02  -3.4662958E-02   0.0000000E+00   1.4087389E-02  -3.6185324E-02   0.0000000E+00   1.9060748E-02  -3.7587345E-02   0.0000000E+00   2.7190249E-02  -3.8878515E-02   0.0000000E+00   3.7907273E-02  -4.1649245E-02   0.0000000E+00   4.4769958E-02  -4.6981063E-02   0.0000000E+00   4.6486367E-02  -3.2705434E-02   0.0000000E+00   1.0778191E-02  -3.3912890E-02   0.0000000E+00   1.3589517E-02  -3.5373081E-02   0.0000000E+00   1.7679775E-02  -3.6811702E-02   0.0000000E+00   2.4721738E-02  -3.7917603E-02   0.0000000E+00   3.6258962E-02  -3.8603868E-02   0.0000000E+00   5.0790321E-02  -4.0691193E-02   0.0000000E+00   5.8493346E-02  -4.4435758E-02   0.0000000E+00   5.8261096E-02  -3.0208427E-02   0.0000000E+00   1.2576874E-02  -3.1307939E-02   0.0000000E+00   1.5905790E-02  -3.2552604E-02   0.0000000E+00   2.0897035E-02  -3.3711106E-02   0.0000000E+00   2.9413220E-02  -3.4451608E-02   0.0000000E+00   4.3113604E-02  -3.4701850E-02   0.0000000E+00   5.9835054E-02  -3.5567489E-02   0.0000000E+00   6.7736603E-02  -3.6088999E-02   0.0000000E+00   6.6245101E-02  -2.2148859E-02   0.0000000E+00   1.3965798E-02  -2.3056045E-02   0.0000000E+00   1.7636584E-02  -2.4070108E-02   0.0000000E+00   2.3084264E-02  -2.5037492E-02   0.0000000E+00   3.2256071E-02  -2.5750764E-02   0.0000000E+00   4.6853691E-02  -2.6053710E-02   0.0000000E+00   6.4475015E-02  -2.5966268E-02   0.0000000E+00   7.2406121E-02  -2.5449345E-02   0.0000000E+00   7.0968576E-02  -1.3716334E-02   0.0000000E+00   1.4926444E-02  -1.4351002E-02   0.0000000E+00   1.8788381E-02  -1.5047736E-02   0.0000000E+00   2.4430741E-02  -1.5706470E-02   0.0000000E+00   3.3818528E-02  -1.6190471E-02   0.0000000E+00   4.8651058E-02  -1.6376808E-02   0.0000000E+00   6.6515550E-02  -1.6219312E-02   0.0000000E+00   7.4694261E-02  -1.5788190E-02   0.0000000E+00   7.3655680E-02  -7.1438900E-03   0.0000000E+00   1.5560393E-02  -7.5234305E-03   0.0000000E+00   1.9521158E-02  -7.9258662E-03   0.0000000E+00   2.5236337E-02  -8.2921972E-03   0.0000000E+00   3.4668960E-02  -8.5447449E-03   0.0000000E+00   4.9509924E-02  -8.6145680E-03   0.0000000E+00   6.7398094E-02  -8.4794192E-03   0.0000000E+00   7.5773902E-02  -8.1831822E-03   0.0000000E+00   7.5130478E-02  -2.2962929E-03   0.0000000E+00   1.5900034E-02  -2.4529446E-03   0.0000000E+00   1.9895563E-02  -2.6051737E-03   0.0000000E+00   2.5616594E-02  -2.7275325E-03   0.0000000E+00   3.5023756E-02  -2.7925142E-03   0.0000000E+00   4.9809951E-02  -2.7781050E-03   0.0000000E+00   6.7676529E-02  -2.6809464E-03   0.0000000E+00   7.6207198E-02  -2.5200092E-03   0.0000000E+00   7.5864583E-02   1.5228802E-03   0.0000000E+00   1.5983230E-02   1.5595233E-03   0.0000000E+00   1.9968893E-02   1.6181588E-03   0.0000000E+00   2.5659025E-02   1.6959099E-03   0.0000000E+00   3.5015132E-02   1.7805538E-03   0.0000000E+00   4.9742565E-02   1.8567774E-03   0.0000000E+00   6.7597710E-02   1.9123427E-03   0.0000000E+00   7.6254457E-02   1.9474272E-03   0.0000000E+00   7.6095074E-02   5.0333864E-03   0.0000000E+00   1.5842319E-02   5.2423333E-03   0.0000000E+00   1.9782528E-02   5.4864506E-03   0.0000000E+00   2.5417093E-02   5.7370816E-03   0.0000000E+00   3.4713890E-02   5.9496704E-03   0.0000000E+00   4.9399205E-02   6.0793767E-03   0.0000000E+00   6.7264393E-02   6.1005251E-03   0.0000000E+00   7.5995140E-02   6.0245749E-03   0.0000000E+00   7.5868994E-02   8.6116446E-03   0.0000000E+00   1.5502117E-02   8.9788241E-03   0.0000000E+00   1.9355785E-02   9.3946047E-03   0.0000000E+00   2.4874711E-02   9.8058609E-03   0.0000000E+00   3.4002766E-02   1.0139427E-02   0.0000000E+00   4.8456371E-02   1.0325196E-02   0.0000000E+00   6.6088855E-02   1.0324254E-02   0.0000000E+00   7.4777082E-02   1.0152870E-02   0.0000000E+00   7.4700177E-02   1.2238254E-02   0.0000000E+00   1.4980895E-02   1.2751927E-02   0.0000000E+00   1.8704630E-02   1.3329403E-02   0.0000000E+00   2.4040410E-02   1.3894689E-02   0.0000000E+00   3.2876097E-02   1.4347454E-02   0.0000000E+00   4.6887558E-02   1.4593941E-02   0.0000000E+00   6.4020373E-02   1.4581669E-02   0.0000000E+00   7.2547033E-02   1.4330024E-02   0.0000000E+00   7.2554238E-02   1.5670048E-02   0.0000000E+00   1.4296127E-02   1.6316323E-02   0.0000000E+00   1.7846383E-02   1.7042849E-02   0.0000000E+00   2.2930805E-02   1.7752767E-02   0.0000000E+00   3.1353492E-02   1.8320307E-02   0.0000000E+00   4.4722710E-02   1.8629042E-02   0.0000000E+00   6.1110314E-02   1.8613437E-02   0.0000000E+00   6.9376908E-02   1.8296337E-02   0.0000000E+00   6.9509916E-02   1.8615818E-02   0.0000000E+00   1.3469070E-02   1.9378033E-02   0.0000000E+00   1.6805362E-02   2.0236351E-02   0.0000000E+00   2.1575937E-02   2.1074649E-02   0.0000000E+00   2.9478017E-02   2.1746125E-02   0.0000000E+00   4.2032078E-02   2.2113895E-02   0.0000000E+00   5.7472330E-02   2.2100177E-02   0.0000000E+00   6.5404236E-02   2.1732939E-02   0.0000000E+00   6.5703437E-02   2.0511830E-02   0.0000000E+00   1.2542713E-02   2.1464180E-02   0.0000000E+00   1.5630331E-02   2.2549279E-02   0.0000000E+00   2.0027550E-02   2.3594510E-02   0.0000000E+00   2.7318217E-02   2.4375249E-02   0.0000000E+00   3.8926166E-02   2.4794361E-02   0.0000000E+00   5.3267911E-02   2.4619428E-02   0.0000000E+00   6.0747385E-02   2.4384854E-02   0.0000000E+00   6.1314531E-02   2.0955499E-02   0.0000000E+00   1.1577344E-02   2.2061121E-02   0.0000000E+00   1.4401700E-02   2.3426879E-02   0.0000000E+00   1.8371964E-02   2.4890460E-02   0.0000000E+00   2.4968125E-02   2.6049780E-02   0.0000000E+00   3.5530917E-02   2.6529210E-02   0.0000000E+00   4.8683841E-02   2.6257914E-02   0.0000000E+00   5.5700511E-02   2.6142903E-02   0.0000000E+00   5.6564994E-02   2.0740418E-02   0.0000000E+00   1.0578200E-02   2.1892805E-02   0.0000000E+00   1.3133607E-02   2.3355698E-02   0.0000000E+00   1.6665038E-02   2.5044983E-02   0.0000000E+00   2.2525821E-02   2.6604563E-02   0.0000000E+00   3.1991363E-02   2.7394557E-02   0.0000000E+00   4.3920923E-02   2.7353980E-02   0.0000000E+00   5.0558776E-02   2.7286382E-02   0.0000000E+00   5.1673405E-02   2.0197010E-02   0.0000000E+00   9.5748268E-03   2.1371359E-02   0.0000000E+00   1.1860779E-02   2.2881974E-02   0.0000000E+00   1.4963892E-02   2.4681253E-02   0.0000000E+00   2.0101184E-02   2.6543316E-02   0.0000000E+00   2.8482296E-02   2.7707677E-02   0.0000000E+00   3.9191980E-02   2.8114516E-02   0.0000000E+00   4.5475561E-02   2.8317319E-02   0.0000000E+00   4.6803638E-02   1.9508496E-02   0.0000000E+00   8.6130938E-03   2.0649336E-02   0.0000000E+00   1.0640031E-02   2.2169085E-02   0.0000000E+00   1.3354921E-02   2.4093488E-02   0.0000000E+00   1.7815782E-02   2.6297320E-02   0.0000000E+00   2.5196288E-02   2.7880721E-02   0.0000000E+00   3.4706034E-02   2.8896187E-02   0.0000000E+00   4.0528491E-02   2.9670615E-02   0.0000000E+00   4.2065285E-02   1.8715100E-02   0.0000000E+00   7.7175437E-03   1.9864108E-02   0.0000000E+00   9.4959224E-03   2.1346975E-02   0.0000000E+00   1.1922157E-02   2.3389861E-02   0.0000000E+00   1.5834397E-02   2.6002711E-02   0.0000000E+00   2.2336690E-02   2.8251234E-02   0.0000000E+00   3.0668855E-02   3.0207826E-02   0.0000000E+00   3.5938710E-02   3.1734519E-02   0.0000000E+00   3.7639879E-02   1.7807461E-02   0.0000000E+00   6.8829074E-03   1.8995700E-02   0.0000000E+00   8.5034491E-03   2.0499684E-02   0.0000000E+00   1.0675265E-02   2.2689492E-02   0.0000000E+00   1.4289202E-02   2.5741970E-02   0.0000000E+00   2.0061336E-02   2.8957419E-02   0.0000000E+00   2.7256960E-02   3.2168128E-02   0.0000000E+00   3.1858694E-02   3.4949351E-02   0.0000000E+00   3.3733375E-02   1.6858714E-02   0.0000000E+00   6.1314618E-03   1.8058179E-02   0.0000000E+00   7.6414854E-03   1.9677490E-02   0.0000000E+00   9.6774623E-03   2.2067513E-02   0.0000000E+00   1.3180291E-02   2.5541460E-02   0.0000000E+00   1.8478762E-02   2.9867070E-02   0.0000000E+00   2.4611291E-02   3.4488671E-02   0.0000000E+00   2.8411051E-02   3.8662218E-02   0.0000000E+00   3.0293467E-02   1.5928200E-02   0.0000000E+00   5.4892530E-03   1.7143238E-02   0.0000000E+00   6.8998085E-03   1.8937465E-02   0.0000000E+00   8.9910980E-03   2.1623336E-02   0.0000000E+00   1.2533897E-02   2.5452927E-02   0.0000000E+00   1.7557018E-02   3.0612117E-02   0.0000000E+00   2.2741819E-02   3.6105506E-02   0.0000000E+00   2.5775539E-02   4.1266635E-02   0.0000000E+00   2.7498985E-02   1.5024681E-02   0.0000000E+00   4.8924214E-03   1.6356485E-02   0.0000000E+00   6.3482649E-03   1.8363789E-02   0.0000000E+00   8.6447103E-03   2.1369934E-02   0.0000000E+00   1.2316692E-02   2.5544951E-02   0.0000000E+00   1.7124068E-02   3.1007802E-02   0.0000000E+00   2.1356044E-02   3.6443233E-02   0.0000000E+00   2.3755621E-02   1.4273126E-02   0.0000000E+00   4.4432096E-03   1.5761210E-02   0.0000000E+00   6.0537201E-03   1.8038316E-02   0.0000000E+00   8.6408528E-03   2.1389373E-02   0.0000000E+00   1.2493343E-02   2.5913943E-02   0.0000000E+00   1.6896434E-02   3.1138036E-02   0.0000000E+00   2.0134998E-02   3.6035046E-02   0.0000000E+00   2.1941546E-02   1.3724327E-02   0.0000000E+00   4.2272946E-03   1.5442996E-02   0.0000000E+00   6.1061936E-03   1.8083349E-02   0.0000000E+00   9.0417610E-03   2.1859955E-02   0.0000000E+00   1.2953511E-02   2.6497481E-02   0.0000000E+00   1.6605537E-02   3.1077133E-02   0.0000000E+00   1.8987140E-02   1.3475350E-02   0.0000000E+00   4.3596756E-03   1.5571791E-02   0.0000000E+00   6.6114352E-03   1.8708501E-02   0.0000000E+00   9.8828012E-03   2.2776166E-02   0.0000000E+00   1.3461762E-02   2.7030360E-02   0.0000000E+00   1.6276270E-02   3.0690910E-02   0.0000000E+00   1.7982699E-02   1.3799216E-02   0.0000000E+00   5.0420384E-03   1.6491469E-02   0.0000000E+00   7.6839533E-03   1.9933978E-02   0.0000000E+00   1.0895887E-02   2.3748836E-02   0.0000000E+00   1.3863651E-02   2.7175095E-02   0.0000000E+00   1.5931813E-02   1.5180209E-02   0.0000000E+00   6.3158576E-03   1.8278725E-02   0.0000000E+00   8.9222332E-03   2.1433365E-02   0.0000000E+00   1.1722025E-02   2.4344886E-02   0.0000000E+00   1.4051053E-02   1.7598739E-02   0.0000000E+00   7.6001743E-03   2.0217197E-02   0.0000000E+00   9.9637229E-03   2.2438753E-02   0.0000000E+00   1.2212665E-02   2.4245778E-02   0.0000000E+00   1.3925910E-02   1.9401761E-02   0.0000000E+00   8.7481095E-03   2.0853091E-02   0.0000000E+00   1.0769952E-02   1.9489054E-02   0.0000000E+00   9.6586524E-03 
Acec 3 2975 float
  0.0000000E+00   0.0000000E+00   0.0000000E+00   0.0000000E+00   0.0000000E+00   0.0000000E+00   0.0000000E+00   0.0000000E+00   0.0000000E+00   0.0000000E+00   0.0000000E+00   0.0000000E+00   0.0000000E+00   0.0000000E+00   0.0000000E+00   0.0000000E+00   0.0000000E+00   0.0000000E+00   0.0000000E+00   0.0000000E+00   0.0000000E+00   0.0000000E+00   0.0000000E+00   0.0000000E+00   0.0000000E+00   0.0000000E+00   0.0000000E+00   0.0000000E+00   0.0000000E+00   0.0000000E+00   0.0000000E+00   0.0000000E+00   0.0000000E+00   0.0000000E+00   0.0000000E+00   0.0000000E+00   0.0000000E+00   0.0000000E+00   0.0000000E+00   0.0000000E+00   0.0000000E+00   0.0000000E+00   0.0000000E+00   0.0000000E+00   0.0000000E+00   0.0000000E+00   0.0000000E+00   0.0000000E+00   0.0000000E+00   0.0000000E+00   0.0000000E+00   0.0000000E+00   0.0000000E+00   0.0000000E+00   0.0000000E+00   0.0000000E+00   0.0000000E+00   0.0000000E+00   0.0000000E+00   0.0000000E+00   0.0000000E+00   0.0000000E+00   0.0000000E+00   0.0000000E+00   0.0000000E+00   0.0000000E+00   0.0000000E+00   0.0000000E+00   0.0000000E+00   0.0000000E+00   0.0000000E+00   0.0000000E+00   0.0000000E+00   0.0000000E+00   0.0000000E+00   0.0000000E+00   0.0000000E+00   0.0000000E+00   0.0000000E+00   0.0000000E+00   0.0000000E+00   0.0000000E+00   0.0000000E+00   0.0000000E+00   0.0000000E+00   0.0000000E+00   0.0000000E+00   0.0000000E+00   0.0000000E+00   0.0000000E+00   0.0000000E+00   0.0000000E+00   0.0000000E+00   0.0000000E+00   0.0000000E+00   0.0000000E+00   0.0000000E+00   0.0000000E+00   0.0000000E+00   0.0000000E+00   0.0000000E+00   0.0000000E+00   0.0000000E+00   0.0000000E+00   0.0000000E+00   0.0000000E+00   0.0000000E+00   0.0000000E+00   0.0000000E+00   0.0000000E+00   0.0000000E+00   0.0000000E+00   0.0000000E+00   0.0000000E+00   0.0000000E+00   0.0000000E+00   0.0000000E+00   0.0000000E+00   0.0000000E+00   0.0000000E+00   0.0000000E+00   0.0000000E+00   0.0000000E+00   0.0000000E+00   0.0000000E+00   0.0000000E+00   0.0000000E+00   0.0000000E+00   0.0000000E+00   0.0000000E+00   0.0000000E+00   0.0000000E+00   0.0000000E+00   0.0000000E+00   0.0000000E+00   0.0000000E+00   0.0000000E+00   0.0000000E+00   0.0000000E+00   0.0000000E+00   0.0000000E+00   0.0000000E+00   0.0000000E+00   0.0000000E+00   0.0000000E+00   0.0000000E+00   0.0000000E+00   0.0000000E+00   0.0000000E+00   0.0000000E+00   0.0000000E+00   0.0000000E+00   0.0000000E+00   0.0000000E+00   0.0000000E+00   0.0000000E+00   0.0000000E+00   0.0000000E+00   0.0000000E+00   0.0000000E+00   0.0000000E+00   0.0000000E+00   0.0000000E+00   0.0000000E+00   0.0000000E+00   0.0000000E+00   0.0000000E+00   0.0000000E+00   0.0000000E+00   0.0000000E+00   0.0000000E+00   0.0000000E+00   0.0000000E+00   0.0000000E+00   0.0000000E+00   0.0000000E+00   0.0000000E+00   0.0000000E+00   0.0000000E+00   0.0000000E+00   0.0000000E+00   0.0000000E+00   0.0000000E+00   0.0000000E+00   0.0000000E+00   0.0000000E+00   0.0000000E+00   0.0000000E+00   0.0000000E+00   0.0000000E+00   0.0000000E+00   0.0000000E+00   0.0000000E+00   0.0000000E+00   0.0000000E+00   0.0000000E+00   0.0000000E+00   0.0000000E+00   0.0000000E+00   0.0000000E+00   0.0000000E+00   0.0000000E+00   0.0000000E+00   0.0000000E+00   0.0000000E+00   0.0000000E+00   0.0000000E+00   0.0000000E+00   0.0000000E+00   0.0000000E+00   0.0000000E+00   0.0000000E+00   0.0000000E+00   0.0000000E+00   0.0000000E+00   0.0000000E+00   0.0000000E+00   0.0000000E+00   0.0000000E+00   0.0000000E+00   0.0000000E+00   0.0000000E+00   0.0000000E+00   0.0000000E+00   0.0000000E+00   0.0000000E+00   0.0000000E+00   0.0000000E+00   0.0000000E+00   0.0000000E+00   0.0000000E+00   0.0000000E+00   0.0000000E+00   0.0000000E+00   0.0000000E+00   0.0000000E+00   0.0000000E+00   0.0000000E+00   0.0000000E+00   0.0000000E+00   0.0000000E+00   0.0000000E+00   0.0000000E+00   0.0000000E+00   0.0000000E+00   0.0000000E+00   0.0000000E+00   0.0000000E+00   0.0000000E+00   0.0000000E+00   0.0000000E+00   0.0000000E+00   0.0000000E+00   0.0000000E+00   0.0000000E+00   0.0000000E+00   0.0000000E+00   0.0000000E+00   0.0000000E+00   0.0000000E+00   0.0000000E+00   0.0000000E+00   0.0000000E+00   0.0000000E+00   0.0000000E+00   0.0000000E+00   0.0000000E+00   0.0000000E+00   0.0000000E+00   0.0000000E+00   0.0000000E+00   0.0000000E+00   0.0000000E+00   0.0000000E+00   0.0000000E+00   0.0000000E+00   0.0000000E+00   0.0000000E+00   0.0000000E+00   0.0000000E+00   0.0000000E+00   0.0000000E+00   0.0000000E+00   0.0000000E+00   0.0000000E+00   0.0000000E+00   0.0000000E+00   0.0000000E+00   0.0000000E+00   0.0000000E+00   0.0000000E+00   0.0000000E+00   0.0000000E+00   0.0000000E+00   0.0000000E+00   0.0000000E+00   0.0000000E+00   0.0000000E+00   0.0000000E+00   0.0000000E+00   0.0000000E+00   0.0000000E+00   0.0000000E+00   0.0000000E+00   0.0000000E+00   0.0000000E+00   0.0000000E+00   0.0000000E+00   0.0000000E+00   0.0000000E+00   0.0000000E+00   0.0000000E+00   0.0000000E+00   0.0000000E+00   0.0000000E+00   0.0000000E+00   0.0000000E+00   0.0000000E+00   0.0000000E+00   0.0000000E+00   0.0000000E+00   0.0000000E+00   0.0000000E+00   0.0000000E+00   0.0000000E+00   0.0000000E+00   0.0000000E+00   0.0000000E+00   0.0000000E+00   0.0000000E+00   0.0000000E+00   0.0000000E+00   0.0000000E+00   0.0000000E+00   0.0000000E+00   0.0000000E+00   0.0000000E+00   0.0000000E+00   0.0000000E+00   0.0000000E+00   0.0000000E+00   0.0000000E+00   0.0000000E+00   0.0000000E+00   0.0000000E+00   0.0000000E+00   0.0000000E+00   0.0000000E+00   0.0000000E+00   0.0000000E+00   0.0000000E+00   0.0000000E+00   0.0000000E+00   0.0000000E+00   0.0000000E+00   0.0000000E+00   0.0000000E+00   0.0000000E+00   0.0000000E+00   0.0000000E+00   0.0000000E+00   0.0000000E+00   0.0000000E+00   0.0000000E+00   0.0000000E+00   0.0000000E+00   0.0000000E+00   0.0000000E+00   0.0000000E+00   0.0000000E+00   0.0000000E+00   0.0000000E+00   0.0000000E+00   0.0000000E+00   0.0000000E+00   0.0000000E+00   0.0000000E+00   0.0000000E+00   0.0000000E+00   0.0000000E+00   0.0000000E+00   0.0000000E+00   0.0000000E+00   0.0000000E+00   0.0000000E+00   0.0000000E+00   0.0000000E+00   0.0000000E+00   0.0000000E+00   0.0000000E+00   0.0000000E+00   0.0000000E+00   0.0000000E+00   0.0000000E+00   0.0000000E+00   0.0000000E+00   0.0000000E+00   0.0000000E+00   0.0000000E+00   0.0000000E+00   0.0000000E+00   0.0000000E+00   0.0000000E+00   0.0000000E+00   0.0000000E+00   0.0000000E+00   0.0000000E+00   0.0000000E+00   0.0000000E+00   0.0000000E+00   0.0000000E+00   0.0000000E+00   0.0000000E+00   0.0000000E+00   0.0000000E+00   0.0000000E+00   0.0000000E+00   0.0000000E+00   0.0000000E+00   0.0000000E+00   0.0000000E+00   0.0000000E+00   0.0000000E+00   0.0000000E+00   0.0000000E+00   0.0000000E+00   0.0000000E+00   0.0000000E+00   0.0000000E+00   0.0000000E+00   0.0000000E+00   0.0000000E+00   0.0000000E+00   0.0000000E+00   0.0000000E+00   0.0000000E+00   0.0000000E+00   0.0000000E+00   0.0000000E+00   0.0000000E+00   0.0000000E+00   0.0000000E+00   0.0000000E+00   0.0000000E+00   0.0000000E+00   0.0000000E+00   0.0000000E+00   0.0000000E+00   0.0000000E+00   0.0000000E+00   0.0000000E+00   0.0000000E+00   0.0000000E+00   0.0000000E+00   0.0000000E+00   0.0000000E+00   0.0000000E+00   0.0000000E+00   0.0000000E+00   0.0000000E+00   0.0000000E+00   0.0000000E+00   0.0000000E+00   0.0000000E+00   0.0000000E+00   0.0000000E+00   0.0000000E+00   0.0000000E+00   0.0000000E+00   0.0000000E+00   0.0000000E+00   0.0000000E+00   0.0000000E+00   0.0000000E+00   0.0000000E+00   0.0000000E+00   0.0000000E+00   0.0000000E+00   0.0000000E+00   0.0000000E+00   0.0000000E+00   0.0000000E+00   0.0000000E+00   0.0000000E+00   0.0000000E+00   0.0000000E+00   0.0000000E+00   0.0000000E+00   0.0000000E+00   0.0000000E+00   0.0000000E+00   0.0000000E+00   0.0000000E+00   0.0000000E+00   0.0000000E+00   0.0000000E+00   0.0000000E+00   0.0000000E+00   0.0000000E+00   0.0000000E+00   0.0000000E+00   0.0000000E+00   0.0000000E+00   0.0000000E+00   0.0000000E+00   0.0000000E+00   0.0000000E+00   0.0000000E+00   0.0000000E+00   0.0000000E+00   0.0000000E+00   0.0000000E+00   0.0000000E+00   0.0000000E+00   0.0000000E+00   0.0000000E+00   0.0000000E+00   0.0000000E+00   0.0000000E+00   0.0000000E+00   0.0000000E+00   0.0000000E+00   0.0000000E+00   0.0000000E+00   0.0000000E+00   0.0000000E+00   0.0000000E+00   0.0000000E+00   0.0000000E+00   0.0000000E+00   0.0000000E+00   0.0000000E+00   0.0000000E+00   0.0000000E+00   0.0000000E+00   0.0000000E+00   0.0000000E+00   0.0000000E+00   0.0000000E+00   0.0000000E+00   0.0000000E+00   0.0000000E+00   0.0000000E+00   0.0000000E+00   0.0000000E+00   0.0000000E+00   0.0000000E+00   0.0000000E+00   0.0000000E+00   0.0000000E+00   0.0000000E+00   0.0000000E+00   0.0000000E+00   0.0000000E+00   0.0000000E+00   0.0000000E+00   0.0000000E+00   0.0000000E+00   0.0000000E+00   0.0000000E+00   0.0000000E+00   0.0000000E+00   0.0000000E+00   0.0000000E+00   0.0000000E+00   0.0000000E+00   0.0000000E+00   0.0000000E+00   0.0000000E+00   0.0000000E+00   0.0000000E+00   0.0000000E+00   0.0000000E+00   0.0000000E+00   0.0000000E+00   0.0000000E+00   0.0000000E+00   0.0000000E+00   0.0000000E+00   0.0000000E+00   0.0000000E+00   0.0000000E+00   0.0000000E+00   0.0000000E+00   0.0000000E+00   0.0000000E+00   0.0000000E+00   0.0000000E+00   0.0000000E+00   0.0000000E+00   0.0000000E+00   0.0000000E+00   0.0000000E+00   0.0000000E+00   0.0000000E+00   0.0000000E+00   0.0000000E+00   0.0000000E+00   0.0000000E+00   0.0000000E+00   0.0000000E+00   0.0000000E+00   0.0000000E+00   0.0000000E+00   0.0000000E+00   0.0000000E+00   0.0000000E+00   0.0000000E+00   0.0000000E+00   0.0000000E+00   0.0000000E+00   0.0000000E+00   0.0000000E+00   0.0000000E+00   0.0000000E+00   0.0000000E+00   0.0000000E+00   0.0000000E+00   0.0000000E+00   0.0000000E+00   0.0000000E+00   0.0000000E+00   0.0000000E+00   0.0000000E+00   0.0000000E+00   0.0000000E+00   0.0000000E+00   0.0000000E+00   0.0000000E+00   0.0000000E+00   0.0000000E+00   0.0000000E+00   0.0000000E+00   0.0000000E+00   0.0000000E+00   0.0000000E+00   0.0000000E+00   0.0000000E+00   0.0000000E+00   0.0000000E+00   0.0000000E+00   0.0000000E+00   0.0000000E+00   0.0000000E+00   0.0000000E+00   0.0000000E+00   0.0000000E+00   0.0000000E+00   0.0000000E+00   0.0000000E+00   0.0000000E+00   0.0000000E+00   0.0000000E+00   0.0000000E+00   0.0000000E+00   0.0000000E+00   0.0000000E+00   0.0000000E+00   0.0000000E+00   0.0000000E+00   0.0000000E+00   0.0000000E+00   0.0000000E+00   0.0000000E+00   0.0000000E+00   0.0000000E+00   0.0000000E+00   0.0000000E+00   0.0000000E+00   0.0000000E+00   0.0000000E+00   0.0000000E+00   0.0000000E+00   0.0000000E+00   0.0000000E+00   0.0000000E+00   0.0000000E+00   0.0000000E+00   0.0000000E+00   0.0000000E+00   0.0000000E+00   0.0000000E+00   0.0000000E+00   0.0000000E+00   0.0000000E+00   0.0000000E+00   0.0000000E+00   0.0000000E+00   0.0000000E+00   0.0000000E+00   0.0000000E+00   0.0000000E+00   0.0000000E+00   0.0000000E+00   0.0000000E+00   0.0000000E+00   0.0000000E+00   0.0000000E+00   0.0000000E+00   0.0000000E+00   0.0000000E+00   0.0000000E+00   0.0000000E+00   0.0000000E+00   0.0000000E+00   0.0000000E+00   0.0000000E+00   0.0000000E+00   0.0000000E+00   0.0000000E+00   0.0000000E+00   0.0000000E+00   0.0000000E+00   0.0000000E+00   0.0000000E+00   0.0000000E+00   0.0000000E+00   0.0000000E+00   0.0000000E+00   0.0000000E+00   0.0000000E+00   0.0000000E+00   0.0000000E+00   0.0000000E+00   0.0000000E+00   0.0000000E+00   0.0000000E+00   0.0000000E+00   0.0000000E+00   0.0000000E+00   0.0000000E+00   0.0000000E+00   0.0000000E+00   0.0000000E+00   0.0000000E+00   0.0000000E+00   0.0000000E+00   0.0000000E+00   0.0000000E+00   0.0000000E+00   0.0000000E+00   0.0000000E+00   0.0000000E+00   0.0000000E+00   0.0000000E+00   0.0000000E+00   0.0000000E+00   0.0000000E+00   0.0000000E+00   0.0000000E+00   0.0000000E+00   0.0000000E+00   0.0000000E+00   0.0000000E+00   0.0000000E+00   0.0000000E+00   0.0000000E+00   0.0000000E+00   0.0000000E+00   0.0000000E+00   0.0000000E+00   0.0000000E+00   0.0000000E+00   0.0000000E+00   0.0000000E+00   0.0000000E+00   0.0000000E+00   0.0000000E+00   0.0000000E+00   0.0000000E+00   0.0000000E+00   0.0000000E+00   0.0000000E+00   0.0000000E+00   0.0000000E+00   0.0000000E+00   0.0000000E+00   0.0000000E+00   0.0000000E+00   0.0000000E+00   0.0000000E+00   0.0000000E+00   0.0000000E+00   0.0000000E+00   0.0000000E+00   0.0000000E+00   0.0000000E+00   0.0000000E+00   0.0000000E+00   0.0000000E+00   0.0000000E+00   0.0000000E+00   0.0000000E+00   0.0000000E+00   0.0000000E+00   0.0000000E+00   0.0000000E+00   0.0000000E+00   0.0000000E+00   0.0000000E+00   0.0000000E+00   0.0000000E+00   0.0000000E+00   0.0000000E+00   0.0000000E+00   0.0000000E+00   0.0000000E+00   0.0000000E+00   0.0000000E+00   0.0000000E+00   0.0000000E+00   0.0000000E+00   0.0000000E+00   0.0000000E+00   0.0000000E+00   0.0000000E+00   0.0000000E+00   0.0000000E+00   0.0000000E+00   0.0000000E+00   0.0000000E+00   0.0000000E+00   0.0000000E+00   0.0000000E+00   0.0000000E+00   0.0000000E+00   0.0000000E+00   0.0000000E+00   0.0000000E+00   0.0000000E+00   0.0000000E+00   0.0000000E+00   0.0000000E+00   0.0000000E+00   0.0000000E+00   0.0000000E+00   0.0000000E+00   0.0000000E+00   0.0000000E+00   0.0000000E+00   0.0000000E+00   0.0000000E+00   0.0000000E+00   0.0000000E+00   0.0000000E+00   0.0000000E+00   0.0000000E+00   0.0000000E+00   0.0000000E+00   0.0000000E+00   0.0000000E+00   0.0000000E+00   0.0000000E+00   0.0000000E+00   0.0000000E+00   0.0000000E+00   0.0000000E+00   0.0000000E+00   0.0000000E+00   0.0000000E+00   0.0000000E+00   0.0000000E+00   0.0000000E+00   0.0000000E+00   0.0000000E+00   0.0000000E+00   0.0000000E+00   0.0000000E+00   0.0000000E+00   0.0000000E+00   0.0000000E+00   0.0000000E+00   0.0000000E+00   0.0000000E+00   0.0000000E+00   0.0000000E+00   0.0000000E+00   0.0000000E+00   0.0000000E+00   0.0000000E+00   0.0000000E+00   0.0000000E+00   0.0000000E+00   0.0000000E+00   0.0000000E+00   0.0000000E+00   0.0000000E+00   0.0000000E+00   0.0000000E+00   0.0000000E+00   0.0000000E+00   0.0000000E+00   0.0000000E+00   0.0000000E+00   0.0000000E+00   0.0000000E+00   0.0000000E+00   0.0000000E+00   0.0000000E+00   0.0000000E+00   0.0000000E+00   0.0000000E+00   0.0000000E+00   0.0000000E+00   0.0000000E+00   0.0000000E+00   0.0000000E+00   0.0000000E+00   0.0000000E+00   0.0000000E+00   0.0000000E+00   0.0000000E+00   0.0000000E+00   0.0000000E+00   0.0000000E+00   0.0000000E+00   0.0000000E+00   0.0000000E+00   0.0000000E+00   0.0000000E+00   0.0000000E+00   0.0000000E+00   0.0000000E+00   0.0000000E+00   0.0000000E+00   0.0000000E+00   0.0000000E+00   0.0000000E+00   0.0000000E+00   0.0000000E+00   0.0000000E+00   0.0000000E+00   0.0000000E+00   0.0000000E+00   0.0000000E+00   0.0000000E+00   0.0000000E+00   0.0000000E+00   0.0000000E+00   0.0000000E+00   0.0000000E+00   0.0000000E+00   0.0000000E+00   0.0000000E+00   0.0000000E+00   0.0000000E+00   0.0000000E+00   0.0000000E+00   0.0000000E+00   0.0000000E+00   0.0000000E+00   0.0000000E+00   0.0000000E+00   0.0000000E+00   0.0000000E+00   0.0000000E+00   0.0000000E+00   0.0000000E+00   0.0000000E+00   0.0000000E+00   0.0000000E+00   0.0000000E+00   0.0000000E+00   0.0000000E+00   0.0000000E+00   0.0000000E+00   0.0000000E+00   0.0000000E+00   0.0000000E+00   0.0000000E+00   0.0000000E+00   0.0000000E+00   0.0000000E+00   0.0000000E+00   0.0000000E+00   0.0000000E+00   0.0000000E+00   0.0000000E+00   0.0000000E+00   0.0000000E+00   0.0000000E+00   0.0000000E+00   0.0000000E+00   0.0000000E+00   0.0000000E+00   0.0000000E+00   0.0000000E+00   0.0000000E+00   0.0000000E+00   0.0000000E+00   0.0000000E+00   0.0000000E+00   0.0000000E+00   0.0000000E+00   0.0000000E+00   0.0000000E+00   0.0000000E+00   0.0000000E+00   0.0000000E+00   0.0000000E+00   0.0000000E+00   0.0000000E+00   0.0000000E+00   0.0000000E+00   0.0000000E+00   0.0000000E+00   0.0000000E+00   0.0000000E+00   0.0000000E+00   0.0000000E+00   0.0000000E+00   0.0000000E+00   0.0000000E+00   0.0000000E+00   0.0000000E+00   0.0000000E+00   0.0000000E+00   0.0000000E+00   0.0000000E+00   0.0000000E+00   0.0000000E+00   0.0000000E+00   0.0000000E+00   0.0000000E+00   0.0000000E+00   0.0000000E+00   0.0000000E+00   0.0000000E+00   0.0000000E+00   0.0000000E+00   0.0000000E+00   0.0000000E+00   0.0000000E+00   0.0000000E+00   0.0000000E+00   0.0000000E+00   0.0000000E+00   0.0000000E+00   0.0000000E+00   0.0000000E+00   0.0000000E+00   0.0000000E+00   0.0000000E+00   0.0000000E+00   0.0000000E+00   0.0000000E+00   0.0000000E+00   0.0000000E+00   0.0000000E+00   0.0000000E+00   0.0000000E+00   0.0000000E+00   0.0000000E+00   0.0000000E+00   0.0000000E+00   0.0000000E+00   0.0000000E+00   0.0000000E+00   0.0000000E+00   0.0000000E+00   0.0000000E+00   0.0000000E+00   0.0000000E+00   0.0000000E+00   0.0000000E+00   0.0000000E+00   0.0000000E+00   0.0000000E+00   0.0000000E+00   0.0000000E+00   0.0000000E+00   0.0000000E+00   0.0000000E+00   0.0000000E+00   0.0000000E+00   0.0000000E+00   0.0000000E+00   0.0000000E+00   0.0000000E+00   0.0000000E+00   0.0000000E+00   0.0000000E+00   0.0000000E+00   0.0000000E+00   0.0000000E+00   0.0000000E+00   0.0000000E+00   0.0000000E+00   0.0000000E+00   0.0000000E+00   0.0000000E+00   0.0000000E+00   0.0000000E+00   0.0000000E+00   0.0000000E+00   0.0000000E+00   0.0000000E+00   0.0000000E+00   0.0000000E+00   0.0000000E+00   0.0000000E+00   0.0000000E+00   0.0000000E+00   0.0000000E+00   0.0000000E+00   0.0000000E+00   0.0000000E+00   0.0000000E+00   0.0000000E+00   0.0000000E+00   0.0000000E+00   0.0000000E+00   0.0000000E+00   0.0000000E+00   0.0000000E+00   0.0000000E+00   0.0000000E+00   0.0000000E+00   0.0000000E+00   0.0000000E+00   0.0000000E+00   0.0000000E+00   0.0000000E+00   0.0000000E+00   0.0000000E+00   0.0000000E+00   0.0000000E+00   0.0000000E+00   0.0000000E+00   0.0000000E+00   0.0000000E+00   0.0000000E+00   0.0000000E+00   0.0000000E+00   0.0000000E+00   0.0000000E+00   0.0000000E+00   0.0000000E+00   0.0000000E+00   0.0000000E+00   0.0000000E+00   0.0000000E+00   0.0000000E+00   0.0000000E+00   0.0000000E+00   0.0000000E+00   0.0000000E+00   0.0000000E+00   0.0000000E+00   0.0000000E+00   0.0000000E+00   0.0000000E+00   0.0000000E+00   0.0000000E+00   0.0000000E+00   0.0000000E+00   0.0000000E+00   0.0000000E+00   0.0000000E+00   0.0000000E+00   0.0000000E+00   0.0000000E+00   0.0000000E+00   0.0000000E+00   0.0000000E+00   0.0000000E+00   0.0000000E+00   0.0000000E+00   0.0000000E+00   0.0000000E+00   0.0000000E+00   0.0000000E+00   0.0000000E+00   0.0000000E+00   0.0000000E+00   0.0000000E+00   0.0000000E+00   0.0000000E+00   0.0000000E+00   0.0000000E+00   0.0000000E+00   0.0000000E+00   0.0000000E+00   0.0000000E+00   0.0000000E+00   0.0000000E+00   0.0000000E+00   0.0000000E+00   0.0000000E+00   0.0000000E+00   0.0000000E+00   0.0000000E+00   0.0000000E+00   0.0000000E+00   0.0000000E+00   0.0000000E+00   0.0000000E+00   0.0000000E+00   0.0000000E+00   0.0000000E+00   0.0000000E+00   0.0000000E+00   0.0000000E+00   0.0000000E+00   0.0000000E+00   0.0000000E+00   0.0000000E+00   0.0000000E+00   0.0000000E+00   0.0000000E+00   0.0000000E+00   0.0000000E+00   0.0000000E+00   0.0000000E+00   0.0000000E+00   0.0000000E+00   0.0000000E+00   0.0000000E+00   0.0000000E+00   0.0000000E+00   0.0000000E+00   0.0000000E+00   0.0000000E+00   0.0000000E+00   0.0000000E+00   0.0000000E+00   0.0000000E+00   0.0000000E+00   0.0000000E+00   0.0000000E+00   0.0000000E+00   0.0000000E+00   0.0000000E+00   0.0000000E+00   0.0000000E+00   0.0000000E+00   0.0000000E+00   0.0000000E+00   0.0000000E+00   0.0000000E+00   0.0000000E+00   0.0000000E+00   0.0000000E+00   0.0000000E+00   0.0000000E+00   0.0000000E+00   0.0000000E+00   0.0000000E+00   0.0000000E+00   0.0000000E+00   0.0000000E+00   0.0000000E+00   0.0000000E+00   0.0000000E+00   0.0000000E+00   0.0000000E+00   0.0000000E+00   0.0000000E+00   0.0000000E+00   0.0000000E+00   0.0000000E+00   0.0000000E+00   0.0000000E+00   0.0000000E+00   0.0000000E+00   0.0000000E+00   0.0000000E+00   0.0000000E+00   0.0000000E+00   0.0000000E+00   0.0000000E+00   0.0000000E+00   0.0000000E+00   0.0000000E+00   0.0000000E+00   0.0000000E+00   0.0000000E+00   0.0000000E+00   0.0000000E+00   0.0000000E+00   0.0000000E+00   0.0000000E+00   0.0000000E+00   0.0000000E+00   0.0000000E+00   0.0000000E+00   0.0000000E+00   0.0000000E+00   0.0000000E+00   0.0000000E+00   0.0000000E+00   0.0000000E+00   0.0000000E+00   0.0000000E+00   0.0000000E+00   0.0000000E+00   0.0000000E+00   0.0000000E+00   0.0000000E+00   0.0000000E+00   0.0000000E+00   0.0000000E+00   0.0000000E+00   0.0000000E+00   0.0000000E+00   0.0000000E+00   0.0000000E+00   0.0000000E+00   0.0000000E+00   0.0000000E+00   0.0000000E+00   0.0000000E+00   0.0000000E+00   0.0000000E+00   0.0000000E+00   0.0000000E+00   0.0000000E+00   0.0000000E+00   0.0000000E+00   0.0000000E+00   0.0000000E+00   0.0000000E+00   0.0000000E+00   0.0000000E+00   0.0000000E+00   0.0000000E+00   0.0000000E+00   0.0000000E+00   0.0000000E+00   0.0000000E+00   0.0000000E+00   0.0000000E+00   0.0000000E+00   0.0000000E+00   0.0000000E+00   0.0000000E+00   0.0000000E+00   0.0000000E+00   0.0000000E+00   0.0000000E+00   0.0000000E+00   0.0000000E+00   0.0000000E+00   0.0000000E+00   0.0000000E+00   0.0000000E+00   0.0000000E+00   0.0000000E+00   0.0000000E+00   0.0000000E+00   0.0000000E+00   0.0000000E+00   0.0000000E+00   0.0000000E+00   0.0000000E+00   0.0000000E+00   0.0000000E+00   0.0000000E+00   0.0000000E+00   0.0000000E+00   0.0000000E+00   0.0000000E+00   0.0000000E+00   0.0000000E+00   0.0000000E+00   0.0000000E+00   0.0000000E+00   0.0000000E+00   0.0000000E+00   0.0000000E+00   0.0000000E+00   0.0000000E+00   0.0000000E+00   0.0000000E+00   0.0000000E+00   0.0000000E+00   0.0000000E+00   0.0000000E+00   0.0000000E+00   0.0000000E+00   0.0000000E+00   0.0000000E+00   0.0000000E+00   0.0000000E+00   0.0000000E+00   0.0000000E+00   0.0000000E+00   0.0000000E+00   0.0000000E+00   0.0000000E+00   0.0000000E+00   0.0000000E+00   0.0000000E+00   0.0000000E+00   0.0000000E+00   0.0000000E+00   0.0000000E+00   0.0000000E+00   0.0000000E+00   0.0000000E+00   0.0000000E+00   0.0000000E+00   0.0000000E+00   0.0000000E+00   0.0000000E+00   0.0000000E+00   0.0000000E+00   0.0000000E+00   0.0000000E+00   0.0000000E+00   0.0000000E+00   0.0000000E+00   0.0000000E+00   0.0000000E+00   0.0000000E+00   0.0000000E+00   0.0000000E+00   0.0000000E+00   0.0000000E+00   0.0000000E+00   0.0000000E+00   0.0000000E+00   0.0000000E+00   0.0000000E+00   0.0000000E+00   0.0000000E+00   0.0000000E+00   0.0000000E+00   0.0000000E+00   0.0000000E+00   0.0000000E+00   0.0000000E+00   0.0000000E+00   0.0000000E+00   0.0000000E+00   0.0000000E+00   0.0000000E+00   0.0000000E+00   0.0000000E+00   0.0000000E+00   0.0000000E+00   0.0000000E+00   0.0000000E+00   0.0000000E+00   0.0000000E+00   0.0000000E+00   0.0000000E+00   0.0000000E+00   0.0000000E+00   0.0000000E+00   0.0000000E+00   0.0000000E+00   0.0000000E+00   0.0000000E+00   0.0000000E+00   0.0000000E+00   0.0000000E+00   0.0000000E+00   0.0000000E+00   0.0000000E+00   0.0000000E+00   0.0000000E+00   0.0000000E+00   0.0000000E+00   0.0000000E+00   0.0000000E+00   0.0000000E+00   0.0000000E+00   0.0000000E+00   0.0000000E+00   0.0000000E+00   0.0000000E+00   0.0000000E+00   0.0000000E+00   0.0000000E+00   0.0000000E+00   0.0000000E+00   0.0000000E+00   0.0000000E+00   0.0000000E+00   0.0000000E+00   0.0000000E+00   0.0000000E+00   0.0000000E+00   0.0000000E+00   0.0000000E+00   0.0000000E+00   0.0000000E+00   0.0000000E+00   0.0000000E+00   0.0000000E+00   0.0000000E+00   0.0000000E+00   0.0000000E+00   0.0000000E+00   0.0000000E+00   0.0000000E+00   0.0000000E+00   0.0000000E+00   0.0000000E+00   0.0000000E+00   0.0000000E+00   0.0000000E+00   0.0000000E+00   0.0000000E+00   0.0000000E+00   0.0000000E+00   0.0000000E+00   0.0000000E+00   0.0000000E+00   0.0000000E+00   0.0000000E+00   0.0000000E+00   0.0000000E+00   0.0000000E+00   0.0000000E+00   0.0000000E+00   0.0000000E+00   0.0000000E+00   0.0000000E+00   0.0000000E+00   0.0000000E+00   0.0000000E+00   0.0000000E+00   0.0000000E+00   0.0000000E+00   0.0000000E+00   0.0000000E+00   0.0000000E+00   0.0000000E+00   0.0000000E+00   0.0000000E+00   0.0000000E+00   0.0000000E+00   0.0000000E+00   0.0000000E+00   0.0000000E+00   0.0000000E+00   0.0000000E+00   0.0000000E+00   0.0000000E+00   0.0000000E+00   0.0000000E+00   0.0000000E+00   0.0000000E+00   0.0000000E+00   0.0000000E+00   0.0000000E+00   0.0000000E+00   0.0000000E+00   0.0000000E+00   0.0000000E+00   0.0000000E+00   0.0000000E+00   0.0000000E+00   0.0000000E+00   0.0000000E+00   0.0000000E+00   0.0000000E+00   0.0000000E+00   0.0000000E+00   0.0000000E+00   0.0000000E+00   0.0000000E+00   0.0000000E+00   0.0000000E+00   0.0000000E+00   0.0000000E+00   0.0000000E+00   0.0000000E+00   0.0000000E+00   0.0000000E+00   0.0000000E+00   0.0000000E+00   0.0000000E+00   0.0000000E+00   0.0000000E+00   0.0000000E+00   0.0000000E+00   0.0000000E+00   0.0000000E+00   0.0000000E+00   0.0000000E+00   0.0000000E+00   0.0000000E+00   0.0000000E+00   0.0000000E+00   0.0000000E+00   0.0000000E+00   0.0000000E+00   0.0000000E+00   0.0000000E+00   0.0000000E+00   0.0000000E+00   0.0000000E+00   0.0000000E+00   0.0000000E+00   0.0000000E+00   0.0000000E+00   0.0000000E+00   0.0000000E+00   0.0000000E+00   0.0000000E+00   0.0000000E+00   0.0000000E+00   0.0000000E+00   0.0000000E+00   0.0000000E+00   0.0000000E+00   0.0000000E+00   0.0000000E+00   0.0000000E+00   0.0000000E+00   0.0000000E+00   0.0000000E+00   0.0000000E+00   0.0000000E+00   0.0000000E+00   0.0000000E+00   0.0000000E+00   0.0000000E+00   0.0000000E+00   0.0000000E+00   0.0000000E+00   0.0000000E+00   0.0000000E+00   0.0000000E+00   0.0000000E+00   0.0000000E+00   0.0000000E+00   0.0000000E+00   0.0000000E+00   0.0000000E+00   0.0000000E+00   0.0000000E+00   0.0000000E+00   0.0000000E+00   0.0000000E+00   0.0000000E+00   0.0000000E+00   0.0000000E+00   0.0000000E+00   0.0000000E+00   0.0000000E+00   0.0000000E+00   0.0000000E+00   0.0000000E+00   0.0000000E+00   0.0000000E+00   0.0000000E+00   0.0000000E+00   0.0000000E+00   0.0000000E+00   0.0000000E+00   0.0000000E+00   0.0000000E+00   0.0000000E+00   0.0000000E+00   0.0000000E+00   0.0000000E+00   0.0000000E+00   0.0000000E+00   0.0000000E+00   0.0000000E+00   0.0000000E+00   0.0000000E+00   0.0000000E+00   0.0000000E+00   0.0000000E+00   0.0000000E+00   0.0000000E+00   0.0000000E+00   0.0000000E+00   0.0000000E+00   0.0000000E+00   0.0000000E+00   0.0000000E+00   0.0000000E+00   0.0000000E+00   0.0000000E+00   0.0000000E+00   0.0000000E+00   0.0000000E+00   0.0000000E+00   0.0000000E+00   0.0000000E+00   0.0000000E+00   0.0000000E+00   0.0000000E+00   0.0000000E+00   0.0000000E+00   0.0000000E+00   0.0000000E+00   0.0000000E+00   0.0000000E+00   0.0000000E+00   0.0000000E+00   0.0000000E+00   0.0000000E+00   0.0000000E+00   0.0000000E+00   0.0000000E+00   0.0000000E+00   0.0000000E+00   0.0000000E+00   0.0000000E+00   0.0000000E+00   0.0000000E+00   0.0000000E+00   0.0000000E+00   0.0000000E+00   0.0000000E+00   0.0000000E+00   0.0000000E+00   0.0000000E+00   0.0000000E+00   0.0000000E+00   0.0000000E+00   0.0000000E+00   0.0000000E+00   0.0000000E+00   0.0000000E+00   0.0000000E+00   0.0000000E+00   0.0000000E+00   0.0000000E+00   0.0000000E+00   0.0000000E+00   0.0000000E+00   0.0000000E+00   0.0000000E+00   0.0000000E+00   0.0000000E+00   0.0000000E+00   0.0000000E+00   0.0000000E+00   0.0000000E+00   0.0000000E+00   0.0000000E+00   0.0000000E+00   0.0000000E+00   0.0000000E+00   0.0000000E+00   0.0000000E+00   0.0000000E+00   0.0000000E+00   0.0000000E+00   0.0000000E+00   0.0000000E+00   0.0000000E+00   0.0000000E+00   0.0000000E+00   0.0000000E+00   0.0000000E+00   0.0000000E+00   0.0000000E+00   0.0000000E+00   0.0000000E+00   0.0000000E+00   0.0000000E+00   0.0000000E+00   0.0000000E+00   0.0000000E+00   0.0000000E+00   0.0000000E+00   0.0000000E+00   0.0000000E+00   0.0000000E+00   0.0000000E+00   0.0000000E+00   0.0000000E+00   0.0000000E+00   0.0000000E+00   0.0000000E+00   0.0000000E+00   0.0000000E+00   0.0000000E+00   0.0000000E+00   0.0000000E+00   0.0000000E+00   0.0000000E+00   0.0000000E+00   0.0000000E+00   0.0000000E+00   0.0000000E+00   0.0000000E+00   0.0000000E+00   0.0000000E+00   0.0000000E+00   0.0000000E+00   0.0000000E+00   0.0000000E+00   0.0000000E+00   0.0000000E+00   0.0000000E+00   0.0000000E+00   0.0000000E+00   0.0000000E+00   0.0000000E+00   0.0000000E+00   0.0000000E+00   0.0000000E+00   0.0000000E+00   0.0000000E+00   0.0000000E+00   0.0000000E+00   0.0000000E+00   0.0000000E+00   0.0000000E+00   0.0000000E+00   0.0000000E+00   0.0000000E+00   0.0000000E+00   0.0000000E+00   0.0000000E+00   0.0000000E+00   0.0000000E+00   0.0000000E+00   0.0000000E+00   0.0000000E+00   0.0000000E+00   0.0000000E+00   0.0000000E+00   0.0000000E+00   0.0000000E+00   0.0000000E+00   0.0000000E+00   0.0000000E+00   0.0000000E+00   0.0000000E+00   0.0000000E+00   0.0000000E+00   0.0000000E+00   0.0000000E+00   0.0000000E+00   0.0000000E+00   0.0000000E+00   0.0000000E+00   0.0000000E+00   0.0000000E+00   0.0000000E+00   0.0000000E+00   0.0000000E+00   0.0000000E+00   0.0000000E+00   0.0000000E+00   0.0000000E+00   0.0000000E+00   0.0000000E+00   0.0000000E+00   0.0000000E+00   0.0000000E+00   0.0000000E+00   0.0000000E+00   0.0000000E+00   0.0000000E+00   0.0000000E+00   0.0000000E+00   0.0000000E+00   0.0000000E+00   0.0000000E+00   0.0000000E+00   0.0000000E+00   0.0000000E+00   0.0000000E+00   0.0000000E+00   0.0000000E+00   0.0000000E+00   0.0000000E+00   0.0000000E+00   0.0000000E+00   0.0000000E+00   0.0000000E+00   0.0000000E+00   0.0000000E+00   0.0000000E+00   0.0000000E+00   0.0000000E+00   0.0000000E+00   0.0000000E+00   0.0000000E+00   0.0000000E+00   0.0000000E+00   0.0000000E+00   0.0000000E+00   0.0000000E+00   0.0000000E+00   0.0000000E+00   0.0000000E+00   0.0000000E+00   0.0000000E+00   0.0000000E+00   0.0000000E+00   0.0000000E+00   0.0000000E+00   0.0000000E+00   0.0000000E+00   0.0000000E+00   0.0000000E+00   0.0000000E+00   0.0000000E+00   0.0000000E+00   0.0000000E+00   0.0000000E+00   0.0000000E+00   0.0000000E+00   0.0000000E+00   0.0000000E+00   0.0000000E+00   0.0000000E+00   0.0000000E+00   0.0000000E+00   0.0000000E+00   0.0000000E+00   0.0000000E+00   0.0000000E+00   0.0000000E+00   0.0000000E+00   0.0000000E+00   0.0000000E+00   0.0000000E+00   0.0000000E+00   0.0000000E+00   0.0000000E+00   0.0000000E+00   0.0000000E+00   0.0000000E+00   0.0000000E+00   0.0000000E+00   0.0000000E+00   0.0000000E+00   0.0000000E+00   0.0000000E+00   0.0000000E+00   0.0000000E+00   0.0000000E+00   0.0000000E+00   0.0000000E+00   0.0000000E+00   0.0000000E+00   0.0000000E+00   0.0000000E+00   0.0000000E+00   0.0000000E+00   0.0000000E+00   0.0000000E+00   0.0000000E+00   0.0000000E+00   0.0000000E+00   0.0000000E+00   0.0000000E+00   0.0000000E+00   0.0000000E+00   0.0000000E+00   0.0000000E+00   0.0000000E+00   0.0000000E+00   0.0000000E+00   0.0000000E+00   0.0000000E+00   0.0000000E+00   0.0000000E+00   0.0000000E+00   0.0000000E+00   0.0000000E+00   0.0000000E+00   0.0000000E+00   0.0000000E+00   0.0000000E+00   0.0000000E+00   0.0000000E+00   0.0000000E+00   0.0000000E+00   0.0000000E+00   0.0000000E+00   0.0000000E+00   0.0000000E+00   0.0000000E+00   0.0000000E+00   0.0000000E+00   0.0000000E+00   0.0000000E+00   0.0000000E+00   0.0000000E+00   0.0000000E+00   0.0000000E+00   0.0000000E+00   0.0000000E+00   0.0000000E+00   0.0000000E+00   0.0000000E+00   0.0000000E+00   0.0000000E+00   0.0000000E+00   0.0000000E+00   0.0000000E+00   0.0000000E+00   0.0000000E+00   0.0000000E+00   0.0000000E+00   0.0000000E+00   0.0000000E+00   0.0000000E+00   0.0000000E+00   0.0000000E+00   0.0000000E+00   0.0000000E+00   0.0000000E+00   0.0000000E+00   0.0000000E+00   0.0000000E+00   0.0000000E+00   0.0000000E+00   0.0000000E+00   0.0000000E+00   0.0000000E+00   0.0000000E+00   0.0000000E+00   0.0000000E+00   0.0000000E+00   0.0000000E+00   0.0000000E+00   0.0000000E+00   0.0000000E+00   0.0000000E+00   0.0000000E+00   0.0000000E+00   0.0000000E+00   0.0000000E+00   0.0000000E+00   0.0000000E+00   0.0000000E+00   0.0000000E+00   0.0000000E+00   0.0000000E+00   0.0000000E+00   0.0000000E+00   0.0000000E+00   0.0000000E+00   0.0000000E+00   0.0000000E+00   0.0000000E+00   0.0000000E+00   0.0000000E+00   0.0000000E+00   0.0000000E+00   0.0000000E+00   0.0000000E+00   0.0000000E+00   0.0000000E+00   0.0000000E+00   0.0000000E+00   0.0000000E+00   0.0000000E+00   0.0000000E+00   0.0000000E+00   0.0000000E+00   0.0000000E+00   0.0000000E+00   0.0000000E+00   0.0000000E+00   0.0000000E+00   0.0000000E+00   0.0000000E+00   0.0000000E+00   0.0000000E+00   0.0000000E+00   0.0000000E+00   0.0000000E+00   0.0000000E+00   0.0000000E+00   0.0000000E+00   0.0000000E+00   0.0000000E+00   0.0000000E+00   0.0000000E+00   0.0000000E+00   0.0000000E+00   0.0000000E+00   0.0000000E+00   0.0000000E+00   0.0000000E+00   0.0000000E+00   0.0000000E+00   0.0000000E+00   0.0000000E+00   0.0000000E+00   0.0000000E+00   0.0000000E+00   0.0000000E+00   0.0000000E+00   0.0000000E+00   0.0000000E+00   0.0000000E+00   0.0000000E+00   0.0000000E+00   0.0000000E+00   0.0000000E+00   0.0000000E+00   0.0000000E+00   0.0000000E+00   0.0000000E+00   0.0000000E+00   0.0000000E+00   0.0000000E+00   0.0000000E+00   0.0000000E+00   0.0000000E+00   0.0000000E+00   0.0000000E+00   0.0000000E+00   0.0000000E+00   0.0000000E+00   0.0000000E+00   0.0000000E+00   0.0000000E+00   0.0000000E+00   0.0000000E+00   0.0000000E+00   0.0000000E+00   0.0000000E+00   0.0000000E+00   0.0000000E+00   0.0000000E+00   0.0000000E+00   0.0000000E+00   0.0000000E+00   0.0000000E+00   0.0000000E+00   0.0000000E+00   0.0000000E+00   0.0000000E+00   0.0000000E+00   0.0000000E+00   0.0000000E+00   0.0000000E+00   0.0000000E+00   0.0000000E+00   0.0000000E+00   0.0000000E+00   0.0000000E+00   0.0000000E+00   0.0000000E+00   0.0000000E+00   0.0000000E+00   0.0000000E+00   0.0000000E+00   0.0000000E+00   0.0000000E+00   0.0000000E+00   0.0000000E+00   0.0000000E+00   0.0000000E+00   0.0000000E+00   0.0000000E+00   0.0000000E+00   0.0000000E+00   0.0000000E+00   0.0000000E+00   0.0000000E+00   0.0000000E+00   0.0000000E+00   0.0000000E+00   0.0000000E+00   0.0000000E+00   0.0000000E+00   0.0000000E+00   0.0000000E+00   0.0000000E+00   0.0000000E+00   0.0000000E+00   0.0000000E+00   0.0000000E+00   0.0000000E+00   0.0000000E+00   0.0000000E+00   0.0000000E+00   0.0000000E+00   0.0000000E+00   0.0000000E+00   0.0000000E+00   0.0000000E+00   0.0000000E+00   0.0000000E+00   0.0000000E+00   0.0000000E+00   0.0000000E+00   0.0000000E+00   0.0000000E+00   0.0000000E+00   0.0000000E+00   0.0000000E+00   0.0000000E+00   0.0000000E+00   0.0000000E+00   0.0000000E+00   0.0000000E+00   0.0000000E+00   0.0000000E+00   0.0000000E+00   0.0000000E+00   0.0000000E+00   0.0000000E+00   0.0000000E+00   0.0000000E+00   0.0000000E+00   0.0000000E+00   0.0000000E+00   0.0000000E+00   0.0000000E+00   0.0000000E+00   0.0000000E+00   0.0000000E+00   0.0000000E+00   0.0000000E+00   0.0000000E+00   0.0000000E+00   0.0000000E+00   0.0000000E+00   0.0000000E+00   0.0000000E+00   0.0000000E+00   0.0000000E+00   0.0000000E+00   0.0000000E+00   0.0000000E+00   0.0000000E+00   0.0000000E+00   0.0000000E+00   0.0000000E+00   0.0000000E+00   0.0000000E+00   0.0000000E+00   0.0000000E+00   0.0000000E+00   0.0000000E+00   0.0000000E+00   0.0000000E+00   0.0000000E+00   0.0000000E+00   0.0000000E+00   0.0000000E+00   0.0000000E+00   0.0000000E+00   0.0000000E+00   0.0000000E+00   0.0000000E+00   0.0000000E+00   0.0000000E+00   0.0000000E+00   0.0000000E+00   0.0000000E+00   0.0000000E+00   0.0000000E+00   0.0000000E+00   0.0000000E+00   0.0000000E+00   0.0000000E+00   0.0000000E+00   0.0000000E+00   0.0000000E+00   0.0000000E+00   0.0000000E+00   0.0000000E+00   0.0000000E+00   0.0000000E+00   0.0000000E+00   0.0000000E+00   0.0000000E+00   0.0000000E+00   0.0000000E+00   0.0000000E+00   0.0000000E+00   0.0000000E+00   0.0000000E+00   0.0000000E+00   0.0000000E+00   0.0000000E+00   0.0000000E+00   0.0000000E+00   0.0000000E+00   0.0000000E+00   0.0000000E+00   0.0000000E+00   0.0000000E+00   0.0000000E+00   0.0000000E+00   0.0000000E+00   0.0000000E+00   0.0000000E+00   0.0000000E+00   0.0000000E+00   0.0000000E+00   0.0000000E+00   0.0000000E+00   0.0000000E+00   0.0000000E+00   0.0000000E+00   0.0000000E+00   0.0000000E+00   0.0000000E+00   0.0000000E+00   0.0000000E+00   0.0000000E+00   0.0000000E+00   0.0000000E+00   0.0000000E+00   0.0000000E+00   0.0000000E+00   0.0000000E+00   0.0000000E+00   0.0000000E+00   0.0000000E+00   0.0000000E+00   0.0000000E+00   0.0000000E+00   0.0000000E+00   0.0000000E+00   0.0000000E+00   0.0000000E+00   0.0000000E+00   0.0000000E+00   0.0000000E+00   0.0000000E+00   0.0000000E+00   0.0000000E+00   0.0000000E+00   0.0000000E+00   0.0000000E+00   0.0000000E+00   0.0000000E+00   0.0000000E+00   0.0000000E+00   0.0000000E+00   0.0000000E+00   0.0000000E+00   0.0000000E+00   0.0000000E+00   0.0000000E+00   0.0000000E+00   0.0000000E+00   0.0000000E+00   0.0000000E+00   0.0000000E+00   0.0000000E+00   0.0000000E+00   0.0000000E+00   0.0000000E+00   0.0000000E+00   0.0000000E+00   0.0000000E+00   0.0000000E+00   0.0000000E+00   0.0000000E+00   0.0000000E+00   0.0000000E+00   0.0000000E+00   0.0000000E+00   0.0000000E+00   0.0000000E+00   0.0000000E+00   0.0000000E+00   0.0000000E+00   0.0000000E+00   0.0000000E+00   0.0000000E+00   0.0000000E+00   0.0000000E+00   0.0000000E+00   0.0000000E+00   0.0000000E+00   0.0000000E+00   0.0000000E+00   0.0000000E+00   0.0000000E+00   0.0000000E+00   0.0000000E+00   0.0000000E+00   0.0000000E+00   0.0000000E+00   0.0000000E+00   0.0000000E+00   0.0000000E+00   0.0000000E+00   0.0000000E+00   0.0000000E+00   0.0000000E+00   0.0000000E+00   0.0000000E+00   0.0000000E+00   0.0000000E+00   0.0000000E+00   0.0000000E+00   0.0000000E+00   0.0000000E+00   0.0000000E+00   0.0000000E+00   0.0000000E+00   0.0000000E+00   0.0000000E+00   0.0000000E+00   0.0000000E+00   0.0000000E+00   0.0000000E+00   0.0000000E+00   0.0000000E+00   0.0000000E+00   0.0000000E+00   0.0000000E+00   0.0000000E+00   0.0000000E+00   0.0000000E+00   0.0000000E+00   0.0000000E+00   0.0000000E+00   0.0000000E+00   0.0000000E+00   0.0000000E+00   0.0000000E+00   0.0000000E+00   0.0000000E+00   0.0000000E+00   0.0000000E+00   0.0000000E+00   0.0000000E+00   0.0000000E+00   0.0000000E+00   0.0000000E+00   0.0000000E+00   0.0000000E+00   0.0000000E+00   0.0000000E+00   0.0000000E+00   0.0000000E+00   0.0000000E+00   0.0000000E+00   0.0000000E+00   0.0000000E+00   0.0000000E+00   0.0000000E+00   0.0000000E+00   0.0000000E+00   0.0000000E+00   0.0000000E+00   0.0000000E+00   0.0000000E+00   0.0000000E+00   0.0000000E+00   0.0000000E+00   0.0000000E+00   0.0000000E+00   0.0000000E+00   0.0000000E+00   0.0000000E+00   0.0000000E+00   0.0000000E+00   0.0000000E+00   0.0000000E+00   0.0000000E+00   0.0000000E+00   0.0000000E+00   0.0000000E+00   0.0000000E+00   0.0000000E+00   0.0000000E+00   0.0000000E+00   0.0000000E+00   0.0000000E+00   0.0000000E+00   0.0000000E+00   0.0000000E+00   0.0000000E+00   0.0000000E+00   0.0000000E+00   0.0000000E+00   0.0000000E+00   0.0000000E+00   0.0000000E+00   0.0000000E+00   0.0000000E+00   0.0000000E+00   0.0000000E+00   0.0000000E+00   0.0000000E+00   0.0000000E+00   0.0000000E+00   0.0000000E+00   0.0000000E+00   0.0000000E+00   0.0000000E+00   0.0000000E+00   0.0000000E+00   0.0000000E+00   0.0000000E+00   0.0000000E+00   0.0000000E+00   0.0000000E+00   0.0000000E+00   0.0000000E+00   0.0000000E+00   0.0000000E+00   0.0000000E+00   0.0000000E+00   0.0000000E+00   0.0000000E+00   0.0000000E+00   0.0000000E+00   0.0000000E+00   0.0000000E+00   0.0000000E+00   0.0000000E+00   0.0000000E+00   0.0000000E+00   0.0000000E+00   0.0000000E+00   0.0000000E+00   0.0000000E+00   0.0000000E+00   0.0000000E+00   0.0000000E+00   0.0000000E+00   0.0000000E+00   0.0000000E+00   0.0000000E+00   0.0000000E+00   0.0000000E+00   0.0000000E+00   0.0000000E+00   0.0000000E+00   0.0000000E+00   0.0000000E+00   0.0000000E+00   0.0000000E+00   0.0000000E+00   0.0000000E+00   0.0000000E+00   0.0000000E+00   0.0000000E+00   0.0000000E+00   0.0000000E+00   0.0000000E+00   0.0000000E+00   0.0000000E+00   0.0000000E+00   0.0000000E+00   0.0000000E+00   0.0000000E+00   0.0000000E+00   0.0000000E+00   0.0000000E+00   0.0000000E+00   0.0000000E+00   0.0000000E+00   0.0000000E+00   0.0000000E+00   0.0000000E+00   0.0000000E+00   0.0000000E+00   0.0000000E+00   0.0000000E+00   0.0000000E+00   0.0000000E+00   0.0000000E+00   0.0000000E+00   0.0000000E+00   0.0000000E+00   0.0000000E+00   0.0000000E+00   0.0000000E+00   0.0000000E+00   0.0000000E+00   0.0000000E+00   0.0000000E+00   0.0000000E+00   0.0000000E+00   0.0000000E+00   0.0000000E+00   0.0000000E+00   0.0000000E+00   0.0000000E+00   0.0000000E+00   0.0000000E+00   0.0000000E+00   0.0000000E+00   0.0000000E+00   0.0000000E+00   0.0000000E+00   0.0000000E+00   0.0000000E+00   0.0000000E+00   0.0000000E+00   0.0000000E+00   0.0000000E+00   0.0000000E+00   0.0000000E+00   0.0000000E+00   0.0000000E+00   0.0000000E+00   0.0000000E+00   0.0000000E+00   0.0000000E+00   0.0000000E+00   0.0000000E+00   0.0000000E+00   0.0000000E+00   0.0000000E+00   0.0000000E+00   0.0000000E+00   0.0000000E+00   0.0000000E+00   0.0000000E+00   0.0000000E+00   0.0000000E+00   0.0000000E+00   0.0000000E+00   0.0000000E+00   0.0000000E+00   0.0000000E+00   0.0000000E+00   0.0000000E+00   0.0000000E+00   0.0000000E+00   0.0000000E+00   0.0000000E+00   0.0000000E+00   0.0000000E+00   0.0000000E+00   0.0000000E+00   0.0000000E+00   0.0000000E+00   0.0000000E+00   0.0000000E+00   0.0000000E+00   0.0000000E+00   0.0000000E+00   0.0000000E+00   0.0000000E+00   0.0000000E+00   0.0000000E+00   0.0000000E+00   0.0000000E+00   0.0000000E+00   0.0000000E+00   0.0000000E+00   0.0000000E+00   0.0000000E+00   0.0000000E+00   0.0000000E+00   0.0000000E+00   0.0000000E+00   0.0000000E+00   0.0000000E+00   0.0000000E+00   0.0000000E+00   0.0000000E+00   0.0000000E+00   0.0000000E+00   0.0000000E+00   0.0000000E+00   0.0000000E+00   0.0000000E+00   0.0000000E+00   0.0000000E+00   0.0000000E+00   0.0000000E+00   0.0000000E+00   0.0000000E+00   0.0000000E+00   0.0000000E+00   0.0000000E+00   0.0000000E+00   0.0000000E+00   0.0000000E+00   0.0000000E+00   0.0000000E+00   0.0000000E+00   0.0000000E+00   0.0000000E+00   0.0000000E+00   0.0000000E+00   0.0000000E+00   0.0000000E+00   0.0000000E+00   0.0000000E+00   0.0000000E+00   0.0000000E+00   0.0000000E+00   0.0000000E+00   0.0000000E+00   0.0000000E+00   0.0000000E+00   0.0000000E+00   0.0000000E+00   0.0000000E+00   0.0000000E+00   0.0000000E+00   0.0000000E+00   0.0000000E+00   0.0000000E+00   0.0000000E+00   0.0000000E+00   0.0000000E+00   0.0000000E+00   0.0000000E+00   0.0000000E+00   0.0000000E+00   0.0000000E+00   0.0000000E+00   0.0000000E+00   0.0000000E+00   0.0000000E+00   0.0000000E+00   0.0000000E+00   0.0000000E+00   0.0000000E+00   0.0000000E+00   0.0000000E+00   0.0000000E+00   0.0000000E+00   0.0000000E+00   0.0000000E+00   0.0000000E+00   0.0000000E+00   0.0000000E+00   0.0000000E+00   0.0000000E+00   0.0000000E+00   0.0000000E+00   0.0000000E+00   0.0000000E+00   0.0000000E+00   0.0000000E+00   0.0000000E+00   0.0000000E+00   0.0000000E+00   0.0000000E+00   0.0000000E+00   0.0000000E+00   0.0000000E+00   0.0000000E+00   0.0000000E+00   0.0000000E+00   0.0000000E+00   0.0000000E+00   0.0000000E+00   0.0000000E+00   0.0000000E+00   0.0000000E+00   0.0000000E+00   0.0000000E+00   0.0000000E+00   0.0000000E+00   0.0000000E+00   0.0000000E+00   0.0000000E+00   0.0000000E+00   0.0000000E+00   0.0000000E+00   0.0000000E+00   0.0000000E+00   0.0000000E+00   0.0000000E+00   0.0000000E+00   0.0000000E+00   0.0000000E+00   0.0000000E+00   0.0000000E+00   0.0000000E+00   0.0000000E+00   0.0000000E+00   0.0000000E+00   0.0000000E+00   0.0000000E+00   0.0000000E+00   0.0000000E+00   0.0000000E+00   0.0000000E+00   0.0000000E+00   0.0000000E+00   0.0000000E+00   0.0000000E+00   0.0000000E+00   0.0000000E+00   0.0000000E+00   0.0000000E+00   0.0000000E+00   0.0000000E+00   0.0000000E+00   0.0000000E+00   0.0000000E+00   0.0000000E+00   0.0000000E+00   0.0000000E+00   0.0000000E+00   0.0000000E+00   0.0000000E+00   0.0000000E+00   0.0000000E+00   0.0000000E+00   0.0000000E+00   0.0000000E+00   0.0000000E+00   0.0000000E+00   0.0000000E+00   0.0000000E+00   0.0000000E+00   0.0000000E+00   0.0000000E+00   0.0000000E+00   0.0000000E+00   0.0000000E+00   0.0000000E+00   0.0000000E+00   0.0000000E+00   0.0000000E+00   0.0000000E+00   0.0000000E+00   0.0000000E+00   0.0000000E+00   0.0000000E+00   0.0000000E+00   0.0000000E+00   0.0000000E+00   0.0000000E+00   0.0000000E+00   0.0000000E+00   0.0000000E+00   0.0000000E+00   0.0000000E+00   0.0000000E+00   0.0000000E+00   0.0000000E+00   0.0000000E+00   0.0000000E+00   0.0000000E+00   0.0000000E+00   0.0000000E+00   0.0000000E+00   0.0000000E+00   0.0000000E+00   0.0000000E+00   0.0000000E+00   0.0000000E+00   0.0000000E+00   0.0000000E+00   0.0000000E+00   0.0000000E+00   0.0000000E+00   0.0000000E+00   0.0000000E+00   0.0000000E+00   0.0000000E+00   0.0000000E+00   0.0000000E+00   0.0000000E+00   0.0000000E+00   0.0000000E+00   0.0000000E+00   0.0000000E+00   0.0000000E+00   0.0000000E+00   0.0000000E+00   0.0000000E+00   0.0000000E+00   0.0000000E+00   0.0000000E+00   0.0000000E+00   0.0000000E+00   0.0000000E+00   0.0000000E+00   0.0000000E+00   0.0000000E+00   0.0000000E+00   0.0000000E+00   0.0000000E+00   0.0000000E+00   0.0000000E+00   0.0000000E+00   0.0000000E+00   0.0000000E+00   0.0000000E+00   0.0000000E+00   0.0000000E+00   0.0000000E+00   0.0000000E+00   0.0000000E+00   0.0000000E+00   0.0000000E+00   0.0000000E+00   0.0000000E+00   0.0000000E+00   0.0000000E+00   0.0000000E+00   0.0000000E+00   0.0000000E+00   0.0000000E+00   0.0000000E+00   0.0000000E+00   0.0000000E+00   0.0000000E+00   0.0000000E+00   0.0000000E+00   0.0000000E+00   0.0000000E+00   0.0000000E+00   0.0000000E+00   0.0000000E+00   0.0000000E+00   0.0000000E+00   0.0000000E+00   0.0000000E+00   0.0000000E+00   0.0000000E+00   0.0000000E+00   0.0000000E+00   0.0000000E+00   0.0000000E+00   0.0000000E+00   0.0000000E+00   0.0000000E+00   0.0000000E+00   0.0000000E+00   0.0000000E+00   0.0000000E+00   0.0000000E+00   0.0000000E+00   0.0000000E+00   0.0000000E+00   0.0000000E+00   0.0000000E+00   0.0000000E+00   0.0000000E+00   0.0000000E+00   0.0000000E+00   0.0000000E+00   0.0000000E+00   0.0000000E+00   0.0000000E+00   0.0000000E+00   0.0000000E+00   0.0000000E+00   0.0000000E+00   0.0000000E+00   0.0000000E+00   0.0000000E+00   0.0000000E+00   0.0000000E+00   0.0000000E+00   0.0000000E+00   0.0000000E+00   0.0000000E+00   0.0000000E+00   0.0000000E+00   0.0000000E+00   0.0000000E+00   0.0000000E+00   0.0000000E+00   0.0000000E+00   0.0000000E+00   0.0000000E+00   0.0000000E+00   0.0000000E+00   0.0000000E+00   0.0000000E+00   0.0000000E+00   0.0000000E+00   0.0000000E+00   0.0000000E+00   0.0000000E+00   0.0000000E+00   0.0000000E+00   0.0000000E+00   0.0000000E+00   0.0000000E+00   0.0000000E+00   0.0000000E+00   0.0000000E+00   0.0000000E+00   0.0000000E+00   0.0000000E+00   0.0000000E+00   0.0000000E+00   0.0000000E+00   0.0000000E+00   0.0000000E+00   0.0000000E+00   0.0000000E+00   0.0000000E+00   0.0000000E+00   0.0000000E+00   0.0000000E+00   0.0000000E+00   0.0000000E+00   0.0000000E+00   0.0000000E+00   0.0000000E+00   0.0000000E+00   0.0000000E+00   0.0000000E+00   0.0000000E+00   0.0000000E+00   0.0000000E+00   0.0000000E+00   0.0000000E+00   0.0000000E+00   0.0000000E+00   0.0000000E+00   0.0000000E+00   0.0000000E+00   0.0000000E+00   0.0000000E+00   0.0000000E+00   0.0000000E+00   0.0000000E+00   0.0000000E+00   0.0000000E+00   0.0000000E+00   0.0000000E+00   0.0000000E+00   0.0000000E+00   0.0000000E+00   0.0000000E+00   0.0000000E+00   0.0000000E+00   0.0000000E+00   0.0000000E+00   0.0000000E+00   0.0000000E+00   0.0000000E+00   0.0000000E+00   0.0000000E+00   0.0000000E+00   0.0000000E+00   0.0000000E+00   0.0000000E+00   0.0000000E+00   0.0000000E+00   0.0000000E+00   0.0000000E+00   0.0000000E+00   0.0000000E+00   0.0000000E+00   0.0000000E+00   0.0000000E+00   0.0000000E+00   0.0000000E+00   0.0000000E+00   0.0000000E+00   0.0000000E+00   0.0000000E+00   0.0000000E+00   0.0000000E+00   0.0000000E+00   0.0000000E+00   0.0000000E+00   0.0000000E+00   0.0000000E+00   0.0000000E+00   0.0000000E+00   0.0000000E+00   0.0000000E+00   0.0000000E+00   0.0000000E+00   0.0000000E+00   0.0000000E+00   0.0000000E+00   0.0000000E+00   0.0000000E+00   0.0000000E+00   0.0000000E+00   0.0000000E+00   0.0000000E+00   0.0000000E+00   0.0000000E+00   0.0000000E+00   0.0000000E+00   0.0000000E+00   0.0000000E+00   0.0000000E+00   0.0000000E+00   0.0000000E+00   0.0000000E+00   0.0000000E+00   0.0000000E+00   0.0000000E+00   0.0000000E+00   0.0000000E+00   0.0000000E+00   0.0000000E+00   0.0000000E+00   0.0000000E+00   0.0000000E+00   0.0000000E+00  -7.5845961E-03   0.0000000E+00  -2.8034835E-03  -9.1088936E-03   0.0000000E+00  -2.6877956E-03  -1.0396493E-02   0.0000000E+00  -2.4727527E-03  -1.1447879E-02   0.0000000E+00  -2.2183135E-03  -1.2304686E-02   0.0000000E+00  -1.9367934E-03  -8.4373243E-03   0.0000000E+00  -4.0858304E-03  -1.1301750E-02   0.0000000E+00  -3.9413152E-03  -1.3718193E-02   0.0000000E+00  -3.8278447E-03  -1.5681688E-02   0.0000000E+00  -3.5665086E-03  -1.7247546E-02   0.0000000E+00  -3.2269815E-03  -1.8503154E-02   0.0000000E+00  -2.8217591E-03  -1.2608686E-02   0.0000000E+00  -5.4492638E-03  -1.6782392E-02   0.0000000E+00  -5.3836629E-03  -2.0281568E-02   0.0000000E+00  -5.1868353E-03  -2.3130827E-02   0.0000000E+00  -4.8201783E-03  -2.5379673E-02   0.0000000E+00  -4.3654339E-03  -2.7158154E-02   0.0000000E+00  -3.8221385E-03  -1.8364504E-02   0.0000000E+00  -7.2625279E-03  -2.4331141E-02   0.0000000E+00  -7.1757333E-03  -2.9234555E-02   0.0000000E+00  -6.9105653E-03  -3.3198562E-02   0.0000000E+00  -6.3969838E-03  -3.6296014E-02   0.0000000E+00  -5.7823448E-03  -3.8718756E-02   0.0000000E+00  -5.0535868E-03  -2.6227606E-02   0.0000000E+00  -9.7254794E-03  -3.4584150E-02   0.0000000E+00  -9.5153013E-03  -4.1327011E-02   0.0000000E+00  -9.1081196E-03  -4.6696968E-02   0.0000000E+00  -8.3968192E-03  -5.0835185E-02   0.0000000E+00  -7.5777834E-03  -5.4032411E-02   0.0000000E+00  -6.6102864E-03  -3.7021305E-02   0.0000000E+00  -1.3087071E-02  -4.8542641E-02   0.0000000E+00  -1.2579849E-02  -5.7652585E-02   0.0000000E+00  -1.1926107E-02  -6.4780608E-02   0.0000000E+00  -1.0938995E-02  -7.0185468E-02   0.0000000E+00  -9.8546073E-03  -7.4300319E-02   0.0000000E+00  -8.5878028E-03  -5.1985297E-02   0.0000000E+00  -1.7636146E-02  -6.7586109E-02   0.0000000E+00  -1.6654922E-02  -7.9691179E-02   0.0000000E+00  -1.5578945E-02  -8.8982217E-02   0.0000000E+00  -1.4206592E-02  -9.5924065E-02   0.0000000E+00  -1.2762620E-02  -1.0112932E-01   0.0000000E+00  -1.1115510E-02  -7.2866097E-02   0.0000000E+00  -2.3904260E-02  -9.3715951E-02   0.0000000E+00  -2.2096422E-02  -1.0947573E-01   0.0000000E+00  -2.0368725E-02  -1.2130647E-01   0.0000000E+00  -1.8492872E-02  -1.3006255E-01   0.0000000E+00  -1.6561126E-02  -1.3654384E-01   0.0000000E+00  -1.4411578E-02  -1.0205879E-01   0.0000000E+00  -3.2445937E-02  -1.2932828E-01   0.0000000E+00  -2.9478420E-02  -1.4948103E-01   0.0000000E+00  -2.6773214E-02  -1.6430013E-01   0.0000000E+00  -2.4235994E-02  -1.7514451E-01   0.0000000E+00  -2.1651242E-02  -1.8308660E-01   0.0000000E+00  -1.8761477E-02  -1.4335486E-01   0.0000000E+00  -4.3497466E-02  -1.7796516E-01   0.0000000E+00  -3.9048299E-02  -2.0297042E-01   0.0000000E+00  -3.5321340E-02  -2.2121170E-01   0.0000000E+00  -3.1903610E-02  -2.3443963E-01   0.0000000E+00  -2.8407851E-02  -2.4395807E-01   0.0000000E+00  -2.4513606E-02  -2.0122662E-01   0.0000000E+00  -5.7937123E-02  -2.4399486E-01   0.0000000E+00  -5.1545203E-02  -2.7401105E-01   0.0000000E+00  -4.6807654E-02  -2.9615492E-01   0.0000000E+00  -4.2043589E-02  -3.1192952E-01   0.0000000E+00  -3.7403449E-02  -3.2313281E-01   0.0000000E+00  -3.2024451E-02  -2.7795371E-01   0.0000000E+00  -9.2539057E-02  -3.3223486E-01   0.0000000E+00  -7.5141430E-02  -3.6815262E-01   0.0000000E+00  -6.4757064E-02  -3.9439803E-01   0.0000000E+00  -5.6380145E-02  -4.1271999E-01   0.0000000E+00  -4.9367584E-02  -4.2544222E-01   0.0000000E+00  -4.1834634E-02  -3.9228797E-01   0.0000000E+00  -1.6715777E-01  -4.5293438E-01   0.0000000E+00  -1.2344205E-01  -4.9314195E-01   0.0000000E+00  -9.6531421E-02  -5.2280992E-01   0.0000000E+00  -7.8481451E-02  -5.4306614E-01   0.0000000E+00  -6.6006154E-02  -5.5680597E-01   0.0000000E+00  -5.4822307E-02  -5.5761045E-01   0.0000000E+00  -2.6584452E-01  -6.1886215E-01   0.0000000E+00  -1.9431329E-01  -6.5970147E-01   0.0000000E+00  -1.4332166E-01  -6.8998462E-01   0.0000000E+00  -1.1051116E-01  -7.1056509E-01   0.0000000E+00  -8.9281134E-02  -7.2443092E-01   0.0000000E+00  -7.1866736E-02  -7.8005743E-01   0.0000000E+00  -3.8131887E-01  -8.3890069E-01   0.0000000E+00  -2.8147835E-01  -8.7699264E-01   0.0000000E+00  -2.0370279E-01  -9.0518653E-01   0.0000000E+00  -1.5274709E-01  -9.2408025E-01   0.0000000E+00  -1.1939941E-01  -9.3679547E-01   0.0000000E+00  -9.3088925E-02  -1.0658109E+00   0.0000000E+00  -5.1107389E-01  -1.1206427E+00   0.0000000E+00  -3.8149795E-01  -1.1543012E+00   0.0000000E+00  -2.7604854E-01  -1.1785102E+00   0.0000000E+00  -2.0432298E-01  -1.1939732E+00   0.0000000E+00  -1.5570216E-01  -1.2038702E+00   0.0000000E+00  -1.1833649E-01  -1.4227991E+00   0.0000000E+00  -6.6371560E-01  -1.4741899E+00   0.0000000E+00  -4.9744037E-01  -1.5028336E+00   0.0000000E+00  -3.5988271E-01  -1.5223018E+00   0.0000000E+00  -2.6441482E-01  -1.5327071E+00   0.0000000E+00  -1.9883497E-01  -1.5378194E+00   0.0000000E+00  -1.4764097E-01  -1.8627852E+00   0.0000000E+00  -8.4852523E-01  -1.9145499E+00   0.0000000E+00  -6.3420349E-01  -1.9384594E+00   0.0000000E+00  -4.5753035E-01  -1.9519136E+00   0.0000000E+00  -3.3261815E-01  -1.9556811E+00   0.0000000E+00  -2.4773622E-01  -1.9530196E+00   0.0000000E+00  -1.8089871E-01  -2.4090438E+00   0.0000000E+00  -1.0723319E+00  -2.4636586E+00   0.0000000E+00  -7.9915541E-01  -2.4824035E+00   0.0000000E+00  -5.7215285E-01  -2.4878500E+00   0.0000000E+00  -4.1160294E-01  -2.4804168E+00   0.0000000E+00  -3.0147460E-01  -2.4660118E+00   0.0000000E+00  -2.1766034E-01  -3.0927942E+00   0.0000000E+00  -1.3478953E+00  -3.1496925E+00   0.0000000E+00  -9.9780267E-01  -3.1604269E+00   0.0000000E+00  -7.0753646E-01  -3.1527514E+00   0.0000000E+00  -5.0168985E-01  -3.1283147E+00   0.0000000E+00  -3.6112005E-01  -3.0949707E+00   0.0000000E+00  -2.5847477E-01  -3.9498134E+00   0.0000000E+00  -1.6841110E+00  -4.0056791E+00   0.0000000E+00  -1.2371054E+00  -4.0023470E+00   0.0000000E+00  -8.6425197E-01  -3.9726241E+00   0.0000000E+00  -6.0395682E-01  -3.9211688E+00   0.0000000E+00  -4.2898491E-01  -3.8590481E+00   0.0000000E+00  -3.0518433E-01  -5.0220585E+00   0.0000000E+00  -2.0915606E+00  -5.0706177E+00   0.0000000E+00  -1.5180116E+00  -5.0428805E+00   0.0000000E+00  -1.0435600E+00  -4.9769573E+00   0.0000000E+00  -7.1751928E-01  -4.8834047E+00   0.0000000E+00  -5.0732416E-01  -4.7780766E+00   0.0000000E+00  -3.6156404E-01  -6.3625097E+00   0.0000000E+00  -2.5817297E+00  -6.3925753E+00   0.0000000E+00  -1.8466467E+00  -6.3230109E+00   0.0000000E+00  -1.2400224E+00  -6.1990490E+00   0.0000000E+00  -8.4548354E-01  -6.0425625E+00   0.0000000E+00  -5.9846812E-01  -5.8733630E+00   0.0000000E+00  -4.3778792E-01  -8.0394154E+00   0.0000000E+00  -3.1634128E+00  -8.0293722E+00   0.0000000E+00  -2.2205665E+00  -7.8892627E+00   0.0000000E+00  -1.4622974E+00  -7.6750412E+00   0.0000000E+00  -9.9489200E-01  -7.4269080E+00   0.0000000E+00  -7.1653247E-01  -7.1677084E+00   0.0000000E+00  -5.5314970E-01  -1.0142911E+01   0.0000000E+00  -3.8485088E+00  -1.0048854E+01   0.0000000E+00  -2.6357267E+00  -9.7928600E+00   0.0000000E+00  -1.7118642E+00  -9.4412012E+00   0.0000000E+00  -1.1855658E+00  -9.0638409E+00   0.0000000E+00  -8.8803077E-01  -8.6843605E+00   0.0000000E+00  -7.3216575E-01  -1.2789640E+01   0.0000000E+00  -4.6465650E+00  -1.2527551E+01   0.0000000E+00  -3.0886979E+00  -1.2081521E+01   0.0000000E+00  -1.9990659E+00  -1.1534612E+01   0.0000000E+00  -1.4479560E+00  -1.0976404E+01   0.0000000E+00  -1.1591496E+00  -1.0441179E+01   0.0000000E+00  -1.0269209E+00  -1.6102758E+01   0.0000000E+00  -5.5425467E+00  -1.5538767E+01   0.0000000E+00  -3.5948505E+00  -1.4789497E+01   0.0000000E+00  -2.3586726E+00  -1.3971310E+01   0.0000000E+00  -1.8446293E+00  -1.3175654E+01   0.0000000E+00  -1.6059332E+00  -1.2449490E+01   0.0000000E+00  -1.5187697E+00  -2.0204521E+01   0.0000000E+00  -6.5621614E+00  -1.9129501E+01   0.0000000E+00  -4.1838951E+00  -1.7933542E+01   0.0000000E+00  -2.8837013E+00  -1.6726601E+01   0.0000000E+00  -2.5093267E+00  -1.5641954E+01   0.0000000E+00  -2.3761194E+00  -1.4683917E+01   0.0000000E+00  -2.3291707E+00  -2.5119591E+01   0.0000000E+00  -7.7128820E+00  -2.3264967E+01   0.0000000E+00  -4.9549432E+00  -2.1422808E+01   0.0000000E+00  -3.7341220E+00  -1.9627251E+01   0.0000000E+00  -3.7305653E+00  -1.8163462E+01   0.0000000E+00  -3.7654765E+00  -1.7120964E+01   0.0000000E+00  -3.4990461E+00  -3.0696117E+01   0.0000000E+00  -9.0951777E+00  -2.7724564E+01   0.0000000E+00  -6.0435691E+00  -2.4734825E+01   0.0000000E+00  -5.4841347E+00  -2.2445589E+01   0.0000000E+00  -5.5831051E+00  -2.0938515E+01   0.0000000E+00  -5.4319749E+00  -1.9721848E+01   0.0000000E+00  -4.9928212E+00  -3.6415020E+01   0.0000000E+00  -1.0688551E+01  -3.1846302E+01   0.0000000E+00  -8.0563107E+00  -2.7869736E+01   0.0000000E+00  -7.7348347E+00  -2.5526972E+01   0.0000000E+00  -7.8137765E+00  -2.3781986E+01   0.0000000E+00  -7.4555516E+00  -2.2355377E+01   0.0000000E+00  -6.8841453E+00  -4.1877934E+01   0.0000000E+00  -1.2390962E+01  -3.5935555E+01   0.0000000E+00  -1.0452291E+01  -3.1582394E+01   0.0000000E+00  -1.0362722E+01  -2.8597336E+01   0.0000000E+00  -1.0452475E+01  -2.6490322E+01   0.0000000E+00  -1.0087969E+01  -2.4871786E+01   0.0000000E+00  -9.2079124E+00  -4.6107857E+01   0.0000000E+00  -1.4641658E+01  -3.9420349E+01   0.0000000E+00  -1.4245946E+01  -3.4178146E+01   0.0000000E+00  -1.5571994E+01  -3.0995707E+01   0.0000000E+00  -1.4825069E+01  -2.8759497E+01   0.0000000E+00  -1.3414106E+01  -2.7003086E+01   0.0000000E+00  -1.1943486E+01  -4.8534985E+01   0.0000000E+00  -1.7303234E+01  -4.0881840E+01   0.0000000E+00  -1.9985840E+01  -3.5400204E+01   0.0000000E+00  -2.3933262E+01  -3.2509380E+01   0.0000000E+00  -2.1916475E+01  -3.0455494E+01   0.0000000E+00  -1.8597300E+01  -2.8693760E+01   0.0000000E+00  -1.5717247E+01  -4.6925793E+01   0.0000000E+00  -2.0058199E+01  -4.0530262E+01   0.0000000E+00  -2.6236555E+01  -3.5650894E+01   0.0000000E+00  -3.3208084E+01  -3.3306900E+01   0.0000000E+00  -2.9977396E+01  -3.1428267E+01   0.0000000E+00  -2.4527060E+01  -2.9703154E+01   0.0000000E+00  -2.0097147E+01  -3.8674484E+01   0.0000000E+00  -2.2475803E+01  -3.6433758E+01   0.0000000E+00  -3.0930923E+01  -3.3300499E+01   0.0000000E+00  -4.0213261E+01  -3.1792158E+01   0.0000000E+00  -3.6514336E+01  -3.0398746E+01   0.0000000E+00  -2.9740065E+01  -2.8851374E+01   0.0000000E+00  -2.4181995E+01  -2.7360254E+01   0.0000000E+00  -2.4079884E+01  -2.6711535E+01   0.0000000E+00  -3.2717167E+01  -2.5771112E+01   0.0000000E+00  -4.3490917E+01  -2.4717655E+01   0.0000000E+00  -4.0031025E+01  -2.3507832E+01   0.0000000E+00  -3.2926048E+01  -2.2190741E+01   0.0000000E+00  -2.6912037E+01  -1.7044151E+01   0.0000000E+00  -2.5144194E+01  -1.6778997E+01   0.0000000E+00  -3.3419559E+01  -1.6360792E+01   0.0000000E+00  -4.4535202E+01  -1.5753837E+01   0.0000000E+00  -4.1491234E+01  -1.4976484E+01   0.0000000E+00  -3.4561398E+01  -1.4097611E+01   0.0000000E+00  -2.8513536E+01  -8.9060898E+00   0.0000000E+00  -2.5883099E+01  -8.8764668E+00   0.0000000E+00  -3.3701397E+01  -8.7444782E+00   0.0000000E+00  -4.4852951E+01  -8.4831314E+00   0.0000000E+00  -4.2129234E+01  -8.0974531E+00   0.0000000E+00  -3.5434917E+01  -7.6259689E+00   0.0000000E+00  -2.9462450E+01  -2.8254738E+00   0.0000000E+00  -2.6402742E+01  -2.9186976E+00   0.0000000E+00  -3.3843826E+01  -2.9627688E+00   0.0000000E+00  -4.4880920E+01  -2.9433918E+00   0.0000000E+00  -4.2310459E+01  -2.8559592E+00   0.0000000E+00  -3.5782757E+01  -2.7109027E+00   0.0000000E+00  -2.9899025E+01   1.9917837E+00   0.0000000E+00  -2.6770567E+01   1.8319080E+00   0.0000000E+00  -3.3969421E+01   1.6705053E+00   0.0000000E+00  -4.4803715E+01   1.5123481E+00   0.0000000E+00  -4.2217327E+01   1.3693056E+00   0.0000000E+00  -3.5753807E+01   1.2525631E+00   0.0000000E+00  -2.9934446E+01   6.4024301E+00   0.0000000E+00  -2.6879644E+01   6.1775842E+00   0.0000000E+00  -3.4013615E+01   5.9052243E+00   0.0000000E+00  -4.4635899E+01   5.5886102E+00   0.0000000E+00  -4.1909004E+01   5.2450914E+00   0.0000000E+00  -3.5417995E+01   4.9007707E+00   0.0000000E+00  -2.9634415E+01   1.0875518E+01   0.0000000E+00  -2.6696451E+01   1.0559381E+01   0.0000000E+00  -3.3660725E+01   1.0154647E+01   0.0000000E+00  -4.3940643E+01   9.6700325E+00   0.0000000E+00  -4.1123730E+01   9.1287670E+00   0.0000000E+00  -3.4686649E+01   8.5676966E+00   0.0000000E+00  -2.8997227E+01   1.5407136E+01   0.0000000E+00  -2.6189545E+01   1.4974050E+01   0.0000000E+00  -3.2846188E+01   1.4416988E+01   0.0000000E+00  -4.2648453E+01   1.3752070E+01   0.0000000E+00  -3.9820366E+01   1.3009417E+01   0.0000000E+00  -3.3548409E+01   1.2235425E+01   0.0000000E+00  -2.8031126E+01   1.9718857E+01   0.0000000E+00  -2.5391996E+01   1.9158934E+01   0.0000000E+00  -3.1604698E+01   1.8445179E+01   0.0000000E+00  -4.0783535E+01   1.7600147E+01   0.0000000E+00  -3.8015068E+01   1.6661123E+01   0.0000000E+00  -3.2016487E+01   1.5684449E+01   0.0000000E+00  -2.6751999E+01   2.3469278E+01   0.0000000E+00  -2.4359175E+01   2.2791185E+01   0.0000000E+00  -3.0004305E+01   2.1934244E+01   0.0000000E+00  -3.8422859E+01   2.0925713E+01   0.0000000E+00  -3.5761753E+01   1.9809839E+01   0.0000000E+00  -3.0129110E+01   1.8652971E+01   0.0000000E+00  -2.5191010E+01   2.6384632E+01   0.0000000E+00  -2.3147465E+01   2.5283894E+01   0.0000000E+00  -2.7957634E+01   2.4637806E+01   0.0000000E+00  -3.5673088E+01   2.3496180E+01   0.0000000E+00  -3.3148880E+01   2.2208946E+01   0.0000000E+00  -2.7950943E+01   2.0783184E+01   0.0000000E+00  -2.3403727E+01   2.8399048E+01   0.0000000E+00  -2.1895355E+01   2.6955225E+01   0.0000000E+00  -2.5786636E+01   2.6415522E+01   0.0000000E+00  -3.2660454E+01   2.5156641E+01   0.0000000E+00  -3.0280491E+01   2.3362551E+01   0.0000000E+00  -2.5577904E+01   2.1468292E+01   0.0000000E+00  -2.1476128E+01   2.9866810E+01   0.0000000E+00  -2.0678345E+01   2.8187878E+01   0.0000000E+00  -2.3690821E+01   2.7338371E+01   0.0000000E+00  -2.9509733E+01   2.5682623E+01   0.0000000E+00  -2.7276510E+01   2.3443392E+01   0.0000000E+00  -2.3104164E+01   2.1364759E+01   0.0000000E+00  -1.9477331E+01   3.1084755E+01   0.0000000E+00  -1.9385309E+01   2.9209526E+01   0.0000000E+00  -2.1727789E+01   2.7717484E+01   0.0000000E+00  -2.6344440E+01   2.5624121E+01   0.0000000E+00  -2.4271910E+01   2.3133051E+01   0.0000000E+00  -2.0630432E+01   2.0988708E+01   0.0000000E+00  -1.7466413E+01   3.2476456E+01   0.0000000E+00  -1.8047379E+01   3.0141380E+01   0.0000000E+00  -1.9694530E+01   2.7964247E+01   0.0000000E+00  -2.3290522E+01   2.5423752E+01   0.0000000E+00  -2.1410879E+01   2.2655964E+01   0.0000000E+00  -1.8257080E+01   2.0441826E+01   0.0000000E+00  -1.5568288E+01   3.4657455E+01   0.0000000E+00  -1.6958021E+01   3.1609741E+01   0.0000000E+00  -1.7788883E+01   2.8425131E+01   0.0000000E+00  -2.0484671E+01   2.5167284E+01   0.0000000E+00  -1.8865629E+01   2.2095137E+01   0.0000000E+00  -1.6148615E+01   1.9822309E+01   0.0000000E+00  -1.3829340E+01   3.8290623E+01   0.0000000E+00  -1.6353682E+01   3.3796654E+01   0.0000000E+00  -1.6165051E+01   2.9235044E+01   0.0000000E+00  -1.8067167E+01   2.4993910E+01   0.0000000E+00  -1.6743250E+01   2.1563168E+01   0.0000000E+00  -1.4386066E+01   1.9173483E+01   0.0000000E+00  -1.2231393E+01   4.2424847E+01   0.0000000E+00  -1.6096033E+01   3.6312080E+01   0.0000000E+00  -1.4987043E+01   3.0122313E+01   0.0000000E+00  -1.6231356E+01   2.4878376E+01   0.0000000E+00  -1.5166078E+01   2.1137243E+01   0.0000000E+00  -1.2945391E+01   1.8569193E+01   0.0000000E+00  -1.0843032E+01   4.4839737E+01   0.0000000E+00  -1.6722534E+01   3.7728333E+01   0.0000000E+00  -1.4665017E+01   3.0837530E+01   0.0000000E+00  -1.5043223E+01   2.4947374E+01   0.0000000E+00  -1.4053821E+01   2.0921740E+01   0.0000000E+00  -1.1847118E+01   1.8034678E+01   0.0000000E+00  -9.7489758E+00   3.8296265E+01   0.0000000E+00  -1.4802325E+01   3.1550974E+01   0.0000000E+00  -1.4164447E+01   2.5258387E+01   0.0000000E+00  -1.3283156E+01   2.0897070E+01   0.0000000E+00  -1.1078563E+01   1.7682049E+01   0.0000000E+00  -8.9283762E+00   3.8801170E+01   0.0000000E+00  -1.4851133E+01   3.2426235E+01   0.0000000E+00  -1.3414064E+01   2.6141420E+01   0.0000000E+00  -1.2631544E+01   2.1129103E+01   0.0000000E+00  -1.0659182E+01   1.7568005E+01   0.0000000E+00  -8.3796320E+00   3.3249104E+01   0.0000000E+00  -1.3113083E+01   2.7544069E+01   0.0000000E+00  -1.1898113E+01   2.1989180E+01   0.0000000E+00  -1.0447004E+01   1.7792313E+01   0.0000000E+00  -8.1677675E+00   3.3611710E+01   0.0000000E+00  -1.3323805E+01   2.8704041E+01   0.0000000E+00  -1.1762289E+01   2.3473116E+01   0.0000000E+00  -1.0318225E+01   1.8635212E+01   0.0000000E+00  -8.3689356E+00   2.9429987E+01   0.0000000E+00  -1.2076695E+01   2.4950653E+01   0.0000000E+00  -1.0522395E+01   2.0069885E+01   0.0000000E+00  -8.8962078E+00   2.5980927E+01   0.0000000E+00  -1.1037932E+01   2.1720995E+01   0.0000000E+00  -9.6025629E+00   2.6155130E+01   0.0000000E+00  -1.1550966E+01   2.3085888E+01   0.0000000E+00  -1.0316930E+01  -1.2987067E-02   0.0000000E+00  -1.6621226E-03  -1.3522479E-02   0.0000000E+00  -1.4062484E-03  -1.3932610E-02   0.0000000E+00  -1.1818964E-03  -1.4246081E-02   0.0000000E+00  -9.7232184E-04  -1.4480684E-02   0.0000000E+00  -7.8236603E-04  -1.4653842E-02   0.0000000E+00  -6.0583174E-04  -1.4778794E-02   0.0000000E+00  -4.3935352E-04  -1.4863340E-02   0.0000000E+00  -2.8478404E-04  -1.4912392E-02   0.0000000E+00  -1.4005021E-04  -1.9483786E-02   0.0000000E+00  -2.4261721E-03  -2.0240959E-02   0.0000000E+00  -2.0517332E-03  -2.0813745E-02   0.0000000E+00  -1.7191932E-03  -2.1246377E-02   0.0000000E+00  -1.4112010E-03  -2.1566886E-02   0.0000000E+00  -1.1325043E-03  -2.1800434E-02   0.0000000E+00  -8.7408413E-04  -2.1966476E-02   0.0000000E+00  -6.3356734E-04  -2.2077588E-02   0.0000000E+00  -4.1116902E-04  -2.2141520E-02   0.0000000E+00  -2.0220934E-04  -2.8527908E-02   0.0000000E+00  -3.2847563E-03  -2.9569793E-02   0.0000000E+00  -2.7735233E-03  -3.0347243E-02   0.0000000E+00  -2.3173804E-03  -3.0926757E-02   0.0000000E+00  -1.8972759E-03  -3.1351656E-02   0.0000000E+00  -1.5180235E-03  -3.1659633E-02   0.0000000E+00  -1.1686586E-03  -3.1877704E-02   0.0000000E+00  -8.4670610E-04  -3.2023106E-02   0.0000000E+00  -5.4998219E-04  -3.2106731E-02   0.0000000E+00  -2.7060055E-04  -4.0561434E-02   0.0000000E+00  -4.3328810E-03  -4.1944444E-02   0.0000000E+00  -3.6470857E-03  -4.2963665E-02   0.0000000E+00  -3.0337751E-03  -4.3713983E-02   0.0000000E+00  -2.4724479E-03  -4.4258885E-02   0.0000000E+00  -1.9717857E-03  -4.4652618E-02   0.0000000E+00  -1.5170837E-03  -4.4931810E-02   0.0000000E+00  -1.1001348E-03  -4.5118585E-02   0.0000000E+00  -7.1606884E-04  -4.5226339E-02   0.0000000E+00  -3.5261959E-04  -5.6432746E-02   0.0000000E+00  -5.6535681E-03  -5.8211148E-02   0.0000000E+00  -4.7451262E-03  -5.9509065E-02   0.0000000E+00  -3.9281687E-03  -6.0454607E-02   0.0000000E+00  -3.1876550E-03  -6.1136529E-02   0.0000000E+00  -2.5342817E-03  -6.1627060E-02   0.0000000E+00  -1.9488053E-03  -6.1974786E-02   0.0000000E+00  -1.4151599E-03  -6.2207688E-02   0.0000000E+00  -9.2350243E-04  -6.2342539E-02   0.0000000E+00  -4.5542329E-04  -7.7348091E-02   0.0000000E+00  -7.3341681E-03  -7.9577506E-02   0.0000000E+00  -6.1449637E-03  -8.1187800E-02   0.0000000E+00  -5.0663189E-03  -8.2347289E-02   0.0000000E+00  -4.0971613E-03  -8.3176322E-02   0.0000000E+00  -3.2482638E-03  -8.3769269E-02   0.0000000E+00  -2.4949906E-03  -8.4188238E-02   0.0000000E+00  -1.8132334E-03  -8.4468290E-02   0.0000000E+00  -1.1855997E-03  -8.4630482E-02   0.0000000E+00  -5.8532774E-04  -1.0493149E-01   0.0000000E+00  -9.4868978E-03  -1.0766972E-01   0.0000000E+00  -7.9414211E-03  -1.0962074E-01   0.0000000E+00  -6.5235635E-03  -1.1100352E-01   0.0000000E+00  -5.2581755E-03  -1.1197843E-01   0.0000000E+00  -4.1563576E-03  -1.1266790E-01   0.0000000E+00  -3.1860289E-03  -1.1315072E-01   0.0000000E+00  -2.3149366E-03  -1.1347137E-01   0.0000000E+00  -1.5157638E-03  -1.1365673E-01   0.0000000E+00  -7.4804638E-04  -1.4121382E-01   0.0000000E+00  -1.2272792E-02  -1.4451189E-01   0.0000000E+00  -1.0253484E-02  -1.4681721E-01   0.0000000E+00  -8.3879698E-03  -1.4841484E-01   0.0000000E+00  -6.7342054E-03  -1.4951639E-01   0.0000000E+00  -5.3014639E-03  -1.5027760E-01   0.0000000E+00  -4.0494585E-03  -1.5079962E-01   0.0000000E+00  -2.9368433E-03  -1.5114096E-01   0.0000000E+00  -1.9209369E-03  -1.5133597E-01   0.0000000E+00  -9.4742462E-04  -1.8870726E-01   0.0000000E+00  -1.5906708E-02  -1.9258483E-01   0.0000000E+00  -1.3238480E-02  -1.9522817E-01   0.0000000E+00  -1.0768475E-02  -1.9700088E-01   0.0000000E+00  -8.5948976E-03  -1.9817664E-01   0.0000000E+00  -6.7241117E-03  -1.9895361E-01   0.0000000E+00  -5.1053888E-03  -1.9946250E-01   0.0000000E+00  -3.6873480E-03  -1.9978301E-01   0.0000000E+00  -2.4042057E-03  -1.9996038E-01   0.0000000E+00  -1.1830863E-03  -2.5055599E-01   0.0000000E+00  -2.0671252E-02  -2.5499499E-01   0.0000000E+00  -1.7075144E-02  -2.5791159E-01   0.0000000E+00  -1.3786779E-02  -2.5976881E-01   0.0000000E+00  -1.0909686E-02  -2.6091757E-01   0.0000000E+00  -8.4588910E-03  -2.6161364E-01   0.0000000E+00  -6.3631032E-03  -2.6202253E-01   0.0000000E+00  -4.5605628E-03  -2.6224992E-01   0.0000000E+00  -2.9551650E-03  -2.6236439E-01   0.0000000E+00  -1.4482393E-03  -3.3065242E-01   0.0000000E+00  -2.6851470E-02  -3.3555663E-01   0.0000000E+00  -2.1949168E-02  -3.3858225E-01   0.0000000E+00  -1.7562864E-02  -3.4035349E-01   0.0000000E+00  -1.3741192E-02  -3.4131077E-01   0.0000000E+00  -1.0534730E-02  -3.4178492E-01   0.0000000E+00  -7.8290636E-03  -3.4198108E-01   0.0000000E+00  -5.5478844E-03  -3.4203467E-01   0.0000000E+00  -3.5603037E-03  -3.4203762E-01   0.0000000E+00  -1.7362605E-03  -4.3374154E-01   0.0000000E+00  -3.4715299E-02  -4.3889791E-01   0.0000000E+00  -2.8025901E-02  -4.4176859E-01   0.0000000E+00  -2.2187827E-02  -4.4318864E-01   0.0000000E+00  -1.7135287E-02  -4.4370857E-01   0.0000000E+00  -1.2977860E-02  -4.4375852E-01   0.0000000E+00  -9.5139286E-03  -4.4359040E-01   0.0000000E+00  -6.6593839E-03  -4.4337177E-01   0.0000000E+00  -4.2277095E-03  -4.4320619E-01   0.0000000E+00  -2.0493290E-03  -5.6552553E-01   0.0000000E+00  -4.4632468E-02  -5.7052737E-01   0.0000000E+00  -3.5501979E-02  -5.7283026E-01   0.0000000E+00  -2.7751740E-02  -5.7349992E-01   0.0000000E+00  -2.1125367E-02  -5.7321680E-01   0.0000000E+00  -1.5803082E-02  -5.7254606E-01   0.0000000E+00  -1.1422344E-02  -5.7178575E-01   0.0000000E+00  -7.9041384E-03  -5.7113761E-01   0.0000000E+00  -4.9665049E-03  -5.7071340E-01   0.0000000E+00  -2.3938704E-03  -7.3280311E-01   0.0000000E+00  -5.7063803E-02  -7.3693466E-01   0.0000000E+00  -4.4546623E-02  -7.3796201E-01   0.0000000E+00  -3.4292392E-02  -7.3723900E-01   0.0000000E+00  -2.5707578E-02  -7.3560905E-01   0.0000000E+00  -1.8972121E-02  -7.3377919E-01   0.0000000E+00  -1.3552005E-02  -7.3209840E-01   0.0000000E+00  -9.2900982E-03  -7.3079729E-01   0.0000000E+00  -5.7850191E-03  -7.2998267E-01   0.0000000E+00  -2.7754537E-03  -9.4361377E-01   0.0000000E+00  -7.2138503E-02  -9.4572312E-01   0.0000000E+00  -5.5208176E-02  -9.4439524E-01   0.0000000E+00  -4.1845679E-02  -9.4130898E-01   0.0000000E+00  -3.0896332E-02  -9.3753076E-01   0.0000000E+00  -2.2507165E-02  -9.3391031E-01   0.0000000E+00  -1.5909171E-02  -9.3084711E-01   0.0000000E+00  -1.0843635E-02  -9.2857873E-01   0.0000000E+00  -6.7054196E-03  -9.2719436E-01   0.0000000E+00  -3.2090647E-03  -1.2074964E+00   0.0000000E+00  -9.0157613E-02  -1.2058883E+00   0.0000000E+00  -6.7489162E-02  -1.2005752E+00   0.0000000E+00  -5.0201718E-02  -1.1937524E+00   0.0000000E+00  -3.6663570E-02  -1.1866947E+00   0.0000000E+00  -2.6436109E-02  -1.1804070E+00   0.0000000E+00  -1.8564418E-02  -1.1753261E+00   0.0000000E+00  -1.2603213E-02  -1.1716670E+00   0.0000000E+00  -7.7890405E-03  -1.1694710E+00   0.0000000E+00  -3.7299921E-03  -1.5357615E+00   0.0000000E+00  -1.1017174E-01  -1.5280619E+00   0.0000000E+00  -8.1346348E-02  -1.5165322E+00   0.0000000E+00  -5.9492420E-02  -1.5040137E+00   0.0000000E+00  -4.2972811E-02  -1.4921544E+00   0.0000000E+00  -3.0885011E-02  -1.4820248E+00   0.0000000E+00  -2.1697221E-02  -1.4740918E+00   0.0000000E+00  -1.4758897E-02  -1.4684968E+00   0.0000000E+00  -9.1823479E-03  -1.4651879E+00   0.0000000E+00  -4.4131582E-03  -1.9418714E+00   0.0000000E+00  -1.3251351E-01  -1.9246291E+00   0.0000000E+00  -9.6638985E-02  -1.9039174E+00   0.0000000E+00  -6.9806628E-02  -1.8831496E+00   0.0000000E+00  -5.0266176E-02  -1.8645004E+00   0.0000000E+00  -3.6257129E-02  -1.8490438E+00   0.0000000E+00  -2.5743457E-02  -1.8372313E+00   0.0000000E+00  -1.7722581E-02  -1.8290421E+00   0.0000000E+00  -1.1193860E-02  -1.8242552E+00   0.0000000E+00  -5.4289121E-03  -2.4409533E+00   0.0000000E+00  -1.5711629E-01  -2.4093390E+00   0.0000000E+00  -1.1361551E-01  -2.3757091E+00   0.0000000E+00  -8.1857584E-02  -2.3434196E+00   0.0000000E+00  -5.9486054E-02  -2.3155313E+00   0.0000000E+00  -4.3452889E-02  -2.2930052E+00   0.0000000E+00  -3.1637937E-02  -2.2761471E+00   0.0000000E+00  -2.2291323E-02  -2.2646296E+00   0.0000000E+00  -1.4399500E-02  -2.2579725E+00   0.0000000E+00  -7.0772478E-03  -3.0492094E+00   0.0000000E+00  -1.8498343E-01  -2.9972453E+00   0.0000000E+00  -1.3349910E-01  -2.9453428E+00   0.0000000E+00  -9.7442567E-02  -2.8975375E+00   0.0000000E+00  -7.2371110E-02  -2.8574440E+00   0.0000000E+00  -5.4498620E-02  -2.8258467E+00   0.0000000E+00  -4.1146979E-02  -2.8026652E+00   0.0000000E+00  -2.9891409E-02  -2.7870555E+00   0.0000000E+00  -1.9789506E-02  -2.7781241E+00   0.0000000E+00  -9.8709930E-03  -3.7830915E+00   0.0000000E+00  -2.1866676E-01  -3.7025881E+00   0.0000000E+00  -1.6003175E-01  -3.6258249E+00   0.0000000E+00  -1.2020697E-01  -3.5576477E+00   0.0000000E+00  -9.2514224E-02  -3.5019188E+00   0.0000000E+00  -7.2789200E-02  -3.4590514E+00   0.0000000E+00  -5.7038061E-02  -3.4281828E+00   0.0000000E+00  -4.2770725E-02  -3.4077134E+00   0.0000000E+00  -2.8894875E-02  -3.3961241E+00   0.0000000E+00  -1.4614008E-02  -4.6591821E+00   0.0000000E+00  -2.6404887E-01  -4.5396271E+00   0.0000000E+00  -1.9928390E-01  -4.4296303E+00   0.0000000E+00  -1.5683550E-01  -4.3352399E+00   0.0000000E+00  -1.2626085E-01  -4.2600255E+00   0.0000000E+00  -1.0368233E-01  -4.2034860E+00   0.0000000E+00  -8.3942436E-02  -4.1636300E+00   0.0000000E+00  -6.4224251E-02  -4.1375966E+00   0.0000000E+00  -4.3906298E-02  -4.1230278E+00   0.0000000E+00  -2.2323392E-02  -5.6948996E+00   0.0000000E+00  -3.3233410E-01  -5.5231075E+00   0.0000000E+00  -2.6324147E-01  -5.3699126E+00   0.0000000E+00  -2.1837762E-01  -5.2426119E+00   0.0000000E+00  -1.8323661E-01  -5.1436834E+00   0.0000000E+00  -1.5501657E-01  -5.0710416E+00   0.0000000E+00  -1.2767819E-01  -5.0207977E+00   0.0000000E+00  -9.9008389E-02  -4.9886446E+00   0.0000000E+00  -6.7859873E-02  -4.9708476E+00   0.0000000E+00  -3.4561038E-02  -6.9089766E+00   0.0000000E+00  -4.4186720E-01  -6.6696763E+00   0.0000000E+00  -3.7072381E-01  -6.4624081E+00   0.0000000E+00  -3.2149932E-01  -6.2949715E+00   0.0000000E+00  -2.7825832E-01  -6.1680012E+00   0.0000000E+00  -2.3787051E-01  -6.0768027E+00   0.0000000E+00  -1.9651549E-01  -6.0150018E+00   0.0000000E+00  -1.5197311E-01  -5.9761128E+00   0.0000000E+00  -1.0375755E-01  -5.9549446E+00   0.0000000E+00  -5.2514996E-02  -8.3215151E+00   0.0000000E+00  -6.2539458E-01  -7.9990811E+00   0.0000000E+00  -5.5230838E-01  -7.7268519E+00   0.0000000E+00  -4.8980215E-01  -7.5121489E+00   0.0000000E+00  -4.2838973E-01  -7.3526316E+00   0.0000000E+00  -3.6527002E-01  -7.2406225E+00   0.0000000E+00  -2.9948887E-01  -7.1660714E+00   0.0000000E+00  -2.3000340E-01  -7.1201262E+00   0.0000000E+00  -1.5605837E-01  -7.0955567E+00   0.0000000E+00  -7.9088487E-02  -9.9524937E+00   0.0000000E+00  -9.2997682E-01  -9.5327950E+00   0.0000000E+00  -8.4689063E-01  -9.1861629E+00   0.0000000E+00  -7.5486606E-01  -8.9176388E+00   0.0000000E+00  -6.5647143E-01  -8.7212543E+00   0.0000000E+00  -5.5267495E-01  -8.5857439E+00   0.0000000E+00  -4.4650632E-01  -8.4977598E+00   0.0000000E+00  -3.3812466E-01  -8.4444904E+00   0.0000000E+00  -2.2835214E-01  -8.4159222E+00   0.0000000E+00  -1.1604500E-01  -1.1817736E+01   0.0000000E+00  -1.4223447E+00  -1.1288937E+01   0.0000000E+00  -1.3026395E+00  -1.0860920E+01   0.0000000E+00  -1.1471781E+00  -1.0532862E+01   0.0000000E+00  -9.8022288E-01  -1.0294782E+01   0.0000000E+00  -8.1502700E-01  -1.0133080E+01   0.0000000E+00  -6.4930892E-01  -1.0029935E+01   0.0000000E+00  -4.8552790E-01  -9.9688597E+00   0.0000000E+00  -3.2328320E-01  -9.9372835E+00   0.0000000E+00  -1.6074586E-01  -1.3910261E+01   0.0000000E+00  -2.1730235E+00  -1.3283658E+01   0.0000000E+00  -1.9356531E+00  -1.2764316E+01   0.0000000E+00  -1.6857665E+00  -1.2367182E+01   0.0000000E+00  -1.4173436E+00  -1.2081037E+01   0.0000000E+00  -1.1552051E+00  -1.1890503E+01   0.0000000E+00  -9.0998065E-01  -1.1770418E+01   0.0000000E+00  -6.7761534E-01  -1.1701559E+01   0.0000000E+00  -4.4446388E-01  -1.1666461E+01   0.0000000E+00  -2.1842894E-01  -1.6219006E+01   0.0000000E+00  -3.1924212E+00  -1.5478364E+01   0.0000000E+00  -2.8093457E+00  -1.4864926E+01   0.0000000E+00  -2.4035747E+00  -1.4392929E+01   0.0000000E+00  -1.9984989E+00  -1.4057601E+01   0.0000000E+00  -1.6026759E+00  -1.3834985E+01   0.0000000E+00  -1.2341080E+00  -1.3697884E+01   0.0000000E+00  -8.9871144E-01  -1.3618326E+01   0.0000000E+00  -5.9512544E-01  -1.3580706E+01   0.0000000E+00  -2.9360119E-01  -1.8681288E+01   0.0000000E+00  -4.5051336E+00  -1.7812120E+01   0.0000000E+00  -3.9291279E+00  -1.7090429E+01   0.0000000E+00  -3.3253427E+00  -1.6535946E+01   0.0000000E+00  -2.7133765E+00  -1.6145044E+01   0.0000000E+00  -2.1367128E+00  -1.5886776E+01   0.0000000E+00  -1.6313394E+00  -1.5729822E+01   0.0000000E+00  -1.1679920E+00  -1.5642192E+01   0.0000000E+00  -7.4917537E-01  -1.5595426E+01   0.0000000E+00  -3.7508857E-01  -2.1167419E+01   0.0000000E+00  -6.1228480E+00  -2.0167522E+01   0.0000000E+00  -5.2316971E+00  -1.9315327E+01   0.0000000E+00  -4.3659177E+00  -1.8680193E+01   0.0000000E+00  -3.5136261E+00  -1.8214962E+01   0.0000000E+00  -2.7387240E+00  -1.7912441E+01   0.0000000E+00  -2.0479121E+00  -1.7732929E+01   0.0000000E+00  -1.4366093E+00  -1.7626785E+01   0.0000000E+00  -9.2343831E-01  -1.7572130E+01   0.0000000E+00  -4.4108668E-01  -2.3530270E+01   0.0000000E+00  -8.1076660E+00  -2.2373409E+01   0.0000000E+00  -6.9420238E+00  -2.1404873E+01   0.0000000E+00  -5.6870775E+00  -2.0697096E+01   0.0000000E+00  -4.4416199E+00  -2.0165663E+01   0.0000000E+00  -3.3381610E+00  -1.9801220E+01   0.0000000E+00  -2.4317269E+00  -1.9573570E+01   0.0000000E+00  -1.7010740E+00  -1.9437637E+01   0.0000000E+00  -1.0738524E+00  -1.9368853E+01   0.0000000E+00  -5.1219821E-01  -2.5518909E+01   0.0000000E+00  -1.0423738E+01  -2.4263721E+01   0.0000000E+00  -8.8102388E+00  -2.3218479E+01   0.0000000E+00  -7.1462741E+00  -2.2389826E+01   0.0000000E+00  -5.5118814E+00  -2.1794777E+01   0.0000000E+00  -4.0535383E+00  -2.1381145E+01   0.0000000E+00  -2.8657546E+00  -2.1075449E+01   0.0000000E+00  -1.9561449E+00  -2.0903791E+01   0.0000000E+00  -1.1973479E+00  -2.0802568E+01   0.0000000E+00  -5.7178640E-01  -2.7177954E+01   0.0000000E+00  -1.3300056E+01  -2.5863752E+01   0.0000000E+00  -1.1079442E+01  -2.4775665E+01   0.0000000E+00  -8.8633862E+00  -2.3899759E+01   0.0000000E+00  -6.7484837E+00  -2.3202494E+01   0.0000000E+00  -4.9214268E+00  -2.2692526E+01   0.0000000E+00  -3.4292610E+00  -2.2333761E+01   0.0000000E+00  -2.2648661E+00  -2.2102648E+01   0.0000000E+00  -1.3748418E+00  -2.1978872E+01   0.0000000E+00  -6.6365427E-01  -2.8061729E+01   0.0000000E+00  -1.6723297E+01  -2.6653507E+01   0.0000000E+00  -1.3771567E+01  -2.5513874E+01   0.0000000E+00  -1.0894881E+01  -2.4595974E+01   0.0000000E+00  -8.1873369E+00  -2.3900558E+01   0.0000000E+00  -5.8523207E+00  -2.3364550E+01   0.0000000E+00  -4.0183606E+00  -2.2994110E+01   0.0000000E+00  -2.6198709E+00  -2.2748102E+01   0.0000000E+00  -1.5728226E+00  -2.2612143E+01   0.0000000E+00  -7.4234110E-01  -2.7307146E+01   0.0000000E+00  -1.9938667E+01  -2.5929756E+01   0.0000000E+00  -1.6343039E+01  -2.4808191E+01   0.0000000E+00  -1.2854121E+01  -2.3926609E+01   0.0000000E+00  -9.5553837E+00  -2.3271694E+01   0.0000000E+00  -6.7200470E+00  -2.2801497E+01   0.0000000E+00  -4.4952021E+00  -2.2484770E+01   0.0000000E+00  -2.8572626E+00  -2.2286310E+01   0.0000000E+00  -1.6740745E+00  -2.2179989E+01   0.0000000E+00  -7.7374202E-01  -2.0880880E+01   0.0000000E+00  -2.2234661E+01  -1.9710707E+01   0.0000000E+00  -1.8238297E+01  -1.8745827E+01   0.0000000E+00  -1.4341165E+01  -1.8000599E+01   0.0000000E+00  -1.0637187E+01  -1.7459316E+01   0.0000000E+00  -7.4584827E+00  -1.7088152E+01   0.0000000E+00  -4.9622345E+00  -1.6846664E+01   0.0000000E+00  -3.1336913E+00  -1.6699024E+01   0.0000000E+00  -1.8246583E+00  -1.6619671E+01   0.0000000E+00  -8.3907324E-01  -1.3210764E+01   0.0000000E+00  -2.3693155E+01  -1.2398666E+01   0.0000000E+00  -1.9493776E+01  -1.1712329E+01   0.0000000E+00  -1.5355488E+01  -1.1173232E+01   0.0000000E+00  -1.1403841E+01  -1.0777863E+01   0.0000000E+00  -8.0033064E+00  -1.0504854E+01   0.0000000E+00  -5.3287654E+00  -1.0325895E+01   0.0000000E+00  -3.3676322E+00  -1.0215440E+01   0.0000000E+00  -1.9622068E+00  -1.0155482E+01   0.0000000E+00  -9.0283322E-01  -7.1238136E+00   0.0000000E+00  -2.4610813E+01  -6.6435232E+00   0.0000000E+00  -2.0314262E+01  -6.2243333E+00   0.0000000E+00  -1.6034195E+01  -5.8889294E+00   0.0000000E+00  -1.1923794E+01  -5.6402969E+00   0.0000000E+00  -8.3758984E+00  -5.4671440E+00   0.0000000E+00  -5.5814915E+00  -5.3523068E+00   0.0000000E+00  -3.5306170E+00  -5.2803617E+00   0.0000000E+00  -2.0592000E+00  -5.2407875E+00   0.0000000E+00  -9.4815987E-01  -2.5285428E+00   0.0000000E+00  -2.5070147E+01  -2.3344896E+00   0.0000000E+00  -2.0747187E+01  -2.1542549E+00   0.0000000E+00  -1.6403210E+01  -2.0055671E+00   0.0000000E+00  -1.2210851E+01  -1.8934883E+00   0.0000000E+00  -8.5836983E+00  -1.8141749E+00   0.0000000E+00  -5.7240915E+00  -1.7603354E+00   0.0000000E+00  -3.6241267E+00  -1.7254883E+00   0.0000000E+00  -2.1158831E+00  -1.7057469E+00   0.0000000E+00  -9.7507674E-01   1.1691202E+00   0.0000000E+00  -2.5149803E+01   1.1171848E+00   0.0000000E+00  -2.0846319E+01   1.0871801E+00   0.0000000E+00  -1.6498610E+01   1.0694734E+00   0.0000000E+00  -1.2289173E+01   1.0588362E+00   0.0000000E+00  -8.6424561E+00   1.0532750E+00   0.0000000E+00  -5.7663417E+00   1.0515304E+00   0.0000000E+00  -3.6536601E+00   1.0520251E+00   0.0000000E+00  -2.1350384E+00   1.0531667E+00   0.0000000E+00  -9.8458028E-01   4.5833955E+00   0.0000000E+00  -2.4905441E+01   4.3127146E+00   0.0000000E+00  -2.0656326E+01   4.0954881E+00   0.0000000E+00  -1.6355129E+01   3.9297369E+00   0.0000000E+00  -1.2184458E+01   3.8099952E+00   0.0000000E+00  -8.5700178E+00   3.7286987E+00   0.0000000E+00  -5.7197471E+00   3.6769209E+00   0.0000000E+00  -3.6260567E+00   3.6462791E+00   0.0000000E+00  -2.1203468E+00   3.6304333E+00   0.0000000E+00  -9.7838736E-01   8.0313530E+00   0.0000000E+00  -2.4365938E+01   7.5589080E+00   0.0000000E+00  -2.0210707E+01   7.1716943E+00   0.0000000E+00  -1.6002352E+01   6.8731008E+00   0.0000000E+00  -1.1920237E+01   6.6560345E+00   0.0000000E+00  -8.3833551E+00   6.5070548E+00   0.0000000E+00  -5.5954399E+00   6.4104605E+00   0.0000000E+00  -3.5481701E+00   6.3517871E+00   0.0000000E+00  -2.0756195E+00   6.3204980E+00   0.0000000E+00  -9.5809221E-01   1.1489947E+01   0.0000000E+00  -2.3550249E+01   1.0829495E+01   0.0000000E+00  -1.9532534E+01   1.0287194E+01   0.0000000E+00  -1.5462616E+01   9.8692904E+00   0.0000000E+00  -1.1514864E+01   9.5653124E+00   0.0000000E+00  -8.0958929E+00   9.3561888E+00   0.0000000E+00  -5.4024673E+00   9.2196646E+00   0.0000000E+00  -3.4256349E+00   9.1359787E+00   0.0000000E+00  -2.0041225E+00   9.0909576E+00   0.0000000E+00  -9.2523271E-01   1.4744509E+01   0.0000000E+00  -2.2478014E+01   1.3912897E+01   0.0000000E+00  -1.8643457E+01   1.3232154E+01   0.0000000E+00  -1.4756099E+01   1.2708967E+01   0.0000000E+00  -1.0984748E+01   1.2328980E+01   0.0000000E+00  -7.7196193E+00   1.2067391E+01   0.0000000E+00  -5.1490016E+00   1.1896152E+01   0.0000000E+00  -3.2636857E+00   1.1790750E+01   0.0000000E+00  -1.9089285E+00   1.1733775E+01   0.0000000E+00  -8.8116014E-01   1.7541168E+01   0.0000000E+00  -2.1177767E+01   1.6559698E+01   0.0000000E+00  -1.7569729E+01   1.5757301E+01   0.0000000E+00  -1.3905380E+01   1.5140585E+01   0.0000000E+00  -1.0347893E+01   1.4690664E+01   0.0000000E+00  -7.2679071E+00   1.4379827E+01   0.0000000E+00  -4.8446569E+00   1.4175276E+01   0.0000000E+00  -3.0692959E+00   1.4049127E+01   0.0000000E+00  -1.7947249E+00   1.3979950E+01   0.0000000E+00  -8.2818478E-01   1.9400480E+01   0.0000000E+00  -1.9699610E+01   1.8182238E+01   0.0000000E+00  -1.6353725E+01   1.7208218E+01   0.0000000E+00  -1.2947622E+01   1.6458597E+01   0.0000000E+00  -9.6369610E+00   1.5872731E+01   0.0000000E+00  -6.7838998E+00   1.5442609E+01   0.0000000E+00  -4.5406299E+00   1.5148129E+01   0.0000000E+00  -2.8944719E+00   1.4947909E+01   0.0000000E+00  -1.7051172E+00   1.4841076E+01   0.0000000E+00  -7.9256696E-01   1.9824301E+01   0.0000000E+00  -1.8117287E+01   1.8474211E+01   0.0000000E+00  -1.5045958E+01   1.7413136E+01   0.0000000E+00  -1.1921548E+01   1.6597614E+01   0.0000000E+00  -8.8844872E+00   1.5963662E+01   0.0000000E+00  -6.2815094E+00   1.5486903E+01   0.0000000E+00  -4.2361951E+00   1.5157022E+01   0.0000000E+00  -2.7226572E+00   1.4944252E+01   0.0000000E+00  -1.6139008E+00   1.4820802E+01   0.0000000E+00  -7.4683851E-01   1.9668034E+01   0.0000000E+00  -1.6470551E+01   1.8299938E+01   0.0000000E+00  -1.3695555E+01   1.7216476E+01   0.0000000E+00  -1.0852658E+01   1.6353235E+01   0.0000000E+00  -8.1226664E+00   1.5710797E+01   0.0000000E+00  -5.7563944E+00   1.5252666E+01   0.0000000E+00  -3.8894460E+00   1.4927979E+01   0.0000000E+00  -2.5106034E+00   1.4712219E+01   0.0000000E+00  -1.5054172E+00   1.4608657E+01   0.0000000E+00  -7.2632575E-01   1.9264324E+01   0.0000000E+00  -1.4834615E+01   1.7868292E+01   0.0000000E+00  -1.2349103E+01   1.6768818E+01   0.0000000E+00  -9.8161850E+00   1.5929870E+01   0.0000000E+00  -7.3548970E+00   1.5282008E+01   0.0000000E+00  -5.2285981E+00   1.4854679E+01   0.0000000E+00  -3.5487292E+00   1.4557075E+01   0.0000000E+00  -2.3160715E+00   1.4370758E+01   0.0000000E+00  -1.4158705E+00   1.4246388E+01   0.0000000E+00  -6.6212648E-01   1.8682714E+01   0.0000000E+00  -1.3258389E+01   1.7293905E+01   0.0000000E+00  -1.1059905E+01   1.6214760E+01   0.0000000E+00  -8.8030853E+00   1.5397151E+01   0.0000000E+00  -6.6121244E+00   1.4799626E+01   0.0000000E+00  -4.7188277E+00   1.4381928E+01   0.0000000E+00  -3.2507482E+00   1.4085296E+01   0.0000000E+00  -2.1623960E+00   1.3919424E+01   0.0000000E+00  -1.3100911E+00   1.3816891E+01   0.0000000E+00  -6.1421812E-01   1.8073656E+01   0.0000000E+00  -1.1750626E+01   1.6694429E+01   0.0000000E+00  -9.8152037E+00   1.5600660E+01   0.0000000E+00  -7.8437657E+00   1.4784877E+01   0.0000000E+00  -5.9388051E+00   1.4198433E+01   0.0000000E+00  -4.2990937E+00   1.3801566E+01   0.0000000E+00  -2.9985192E+00   1.3563950E+01   0.0000000E+00  -2.0177932E+00   1.3396569E+01   0.0000000E+00  -1.2274923E+00   1.3314748E+01   0.0000000E+00  -5.8110726E-01   1.7426052E+01   0.0000000E+00  -1.0391098E+01   1.6001854E+01   0.0000000E+00  -8.6659384E+00   1.4928845E+01   0.0000000E+00  -6.9749551E+00   1.4109096E+01   0.0000000E+00  -5.3381071E+00   1.3538352E+01   0.0000000E+00  -3.9154677E+00   1.3183714E+01   0.0000000E+00  -2.7936897E+00   1.2943585E+01   0.0000000E+00  -1.8726993E+00   1.2796158E+01   0.0000000E+00  -1.1431777E+00   1.2726661E+01   0.0000000E+00  -5.4246032E-01   1.6716677E+01   0.0000000E+00  -9.1916008E+00   1.5288047E+01   0.0000000E+00  -7.6488857E+00   1.4195898E+01   0.0000000E+00  -6.1990628E+00   1.3386576E+01   0.0000000E+00  -4.7947583E+00   1.2850762E+01   0.0000000E+00  -3.5911131E+00   1.2505591E+01   0.0000000E+00  -2.5742192E+00   1.2279437E+01   0.0000000E+00  -1.7409663E+00   1.2149727E+01   0.0000000E+00  -1.0749226E+00   1.2088240E+01   0.0000000E+00  -5.2038735E-01   1.6035936E+01   0.0000000E+00  -8.1213341E+00   1.4588345E+01   0.0000000E+00  -6.7586546E+00   1.3471045E+01   0.0000000E+00  -5.4527564E+00   1.2678176E+01   0.0000000E+00  -4.2899790E+00   1.2161312E+01   0.0000000E+00  -3.2588158E+00   1.1825777E+01   0.0000000E+00  -2.3716271E+00   1.1606884E+01   0.0000000E+00  -1.6228379E+00   1.1484502E+01   0.0000000E+00  -1.0100567E+00   1.1415928E+01   0.0000000E+00  -5.0188440E-01   1.5467536E+01   0.0000000E+00  -7.2267022E+00   1.3931738E+01   0.0000000E+00  -5.9131155E+00   1.2821099E+01   0.0000000E+00  -4.7808375E+00   1.2024837E+01   0.0000000E+00  -3.7926900E+00   1.1512256E+01   0.0000000E+00  -2.9410329E+00   1.1165390E+01   0.0000000E+00  -2.1656485E+00   1.0952946E+01   0.0000000E+00  -1.5100459E+00   1.0822032E+01   0.0000000E+00  -9.5598775E-01   1.0754760E+01   0.0000000E+00  -4.6963066E-01   1.5081791E+01   0.0000000E+00  -6.5697665E+00   1.3403284E+01   0.0000000E+00  -5.2120252E+00   1.2231248E+01   0.0000000E+00  -4.1629386E+00   1.1451630E+01   0.0000000E+00  -3.3357637E+00   1.0917059E+01   0.0000000E+00  -2.6178019E+00   1.0570036E+01   0.0000000E+00  -1.9788580E+00   1.0338824E+01   0.0000000E+00  -1.4002017E+00   1.0196943E+01   0.0000000E+00  -9.0037525E-01   1.0130055E+01   0.0000000E+00  -4.3869302E-01   1.4940972E+01   0.0000000E+00  -6.1833258E+00   1.3047302E+01   0.0000000E+00  -4.7052732E+00   1.1787841E+01   0.0000000E+00  -3.6634021E+00   1.0939939E+01   0.0000000E+00  -2.8951433E+00   1.0402103E+01   0.0000000E+00  -2.3041275E+00   1.0031487E+01   0.0000000E+00  -1.7623922E+00   9.7928286E+00   0.0000000E+00  -1.2821708E+00   9.6435070E+00   0.0000000E+00  -8.2515287E-01   9.5703859E+00   0.0000000E+00  -4.0370777E-01   1.5194837E+01   0.0000000E+00  -6.1749573E+00   1.2960469E+01   0.0000000E+00  -4.4965949E+00   1.1521502E+01   0.0000000E+00  -3.3417344E+00   1.0570072E+01   0.0000000E+00  -2.5483658E+00   9.9668760E+00   0.0000000E+00  -1.9899266E+00   9.5768795E+00   0.0000000E+00  -1.5423641E+00   9.3201761E+00   0.0000000E+00  -1.1245848E+00   9.1684370E+00   0.0000000E+00  -7.3764348E-01   9.0856628E+00   0.0000000E+00  -3.5916588E-01   1.6158628E+01   0.0000000E+00  -6.7273831E+00   1.3328782E+01   0.0000000E+00  -4.7400150E+00   1.1524064E+01   0.0000000E+00  -3.3132949E+00   1.0387140E+01   0.0000000E+00  -2.3858078E+00   9.6719141E+00   0.0000000E+00  -1.7625656E+00   9.2171049E+00   0.0000000E+00  -1.3199821E+00   8.9341459E+00   0.0000000E+00  -9.5408708E-01   8.7733641E+00   0.0000000E+00  -6.3003653E-01   8.6855211E+00   0.0000000E+00  -3.0669305E-01   1.7849834E+01   0.0000000E+00  -7.6566467E+00   1.4563212E+01   0.0000000E+00  -5.6370726E+00   1.2129230E+01   0.0000000E+00  -3.8683834E+00   1.0517233E+01   0.0000000E+00  -2.5903168E+00   9.5767393E+00   0.0000000E+00  -1.7691871E+00   9.0059109E+00   0.0000000E+00  -1.2358421E+00   8.6581326E+00   0.0000000E+00  -8.4519958E-01   8.4508162E+00   0.0000000E+00  -5.3334653E-01   8.3492966E+00   0.0000000E+00  -2.5976393E-01   1.9875944E+01   0.0000000E+00  -8.6215515E+00   1.6825666E+01   0.0000000E+00  -6.6953797E+00   1.3898183E+01   0.0000000E+00  -4.9873719E+00   1.1531656E+01   0.0000000E+00  -3.5295143E+00   1.0013414E+01   0.0000000E+00  -2.2965467E+00   9.1020498E+00   0.0000000E+00  -1.4583071E+00   8.5903769E+00   0.0000000E+00  -9.0834373E-01   8.3183317E+00   0.0000000E+00  -5.3264719E-01   8.1774921E+00   0.0000000E+00  -2.4798046E-01   2.0987103E+01   0.0000000E+00  -9.5526457E+00   1.8841406E+01   0.0000000E+00  -7.7743912E+00   1.6561766E+01   0.0000000E+00  -6.0367250E+00   1.4217780E+01   0.0000000E+00  -4.5617361E+00   1.2070415E+01   0.0000000E+00  -3.3337052E+00   1.0384003E+01   0.0000000E+00  -2.3050921E+00   9.2810001E+00   0.0000000E+00  -1.4588239E+00   8.6793222E+00   0.0000000E+00  -8.2267368E-01   8.3941011E+00   0.0000000E+00  -3.6630222E-01   1.9489607E+01   0.0000000E+00  -8.8269815E+00   1.8143154E+01   0.0000000E+00  -7.2340603E+00   1.6673727E+01   0.0000000E+00  -5.6788540E+00   1.5091344E+01   0.0000000E+00  -4.2839775E+00   1.3616966E+01   0.0000000E+00  -3.0451746E+00   1.2447610E+01   0.0000000E+00  -1.9830537E+00   1.1663107E+01   0.0000000E+00  -1.1480786E+00   1.1227746E+01   0.0000000E+00  -5.1706356E-01   1.7506798E+01   0.0000000E+00  -6.9165974E+00   1.6782793E+01   0.0000000E+00  -5.4357471E+00   1.6012547E+01   0.0000000E+00  -3.9569173E+00   1.5356798E+01   0.0000000E+00  -2.5801930E+00   1.4894478E+01   0.0000000E+00  -1.4818811E+00   1.4626953E+01   0.0000000E+00  -6.6167402E-01   1.6472332E+01   0.0000000E+00  -5.0259466E+00   1.6326229E+01   0.0000000E+00  -3.2870090E+00   1.6208988E+01   0.0000000E+00  -1.8738480E+00   1.6132326E+01   0.0000000E+00  -8.2900321E-01  -1.4928641E-02   0.0000000E+00  -1.3101258E-09  -1.4912409E-02   0.0000000E+00   1.4004996E-04  -1.4863351E-02   0.0000000E+00   2.8478436E-04  -1.4778795E-02   0.0000000E+00   4.3935294E-04  -1.4653843E-02   0.0000000E+00   6.0583197E-04  -1.4480681E-02   0.0000000E+00   7.8236591E-04  -1.4246074E-02   0.0000000E+00   9.7231910E-04  -1.3932625E-02   0.0000000E+00   1.1818979E-03  -2.2162559E-02   0.0000000E+00   2.3401325E-10  -2.2141509E-02   0.0000000E+00   2.0220639E-04  -2.2077590E-02   0.0000000E+00   4.1116530E-04  -2.1966452E-02   0.0000000E+00   6.3356501E-04  -2.1800444E-02   0.0000000E+00   8.7408413E-04  -2.1566905E-02   0.0000000E+00   1.1325048E-03  -2.1246377E-02   0.0000000E+00   1.4111983E-03  -2.0813726E-02   0.0000000E+00   1.7191916E-03  -3.2134183E-02   0.0000000E+00  -1.9528290E-10  -3.2106712E-02   0.0000000E+00   2.7060320E-04  -3.2023102E-02   0.0000000E+00   5.4997945E-04  -3.1877685E-02   0.0000000E+00   8.4670517E-04  -3.1659640E-02   0.0000000E+00   1.1686580E-03  -3.1351674E-02   0.0000000E+00   1.5180218E-03  -3.0926768E-02   0.0000000E+00   1.8972791E-03  -3.0347239E-02   0.0000000E+00   2.3173771E-03  -4.5261785E-02   0.0000000E+00  -7.3256157E-09  -4.5226358E-02   0.0000000E+00   3.5261779E-04  -4.5118585E-02   0.0000000E+00   7.1606564E-04  -4.4931792E-02   0.0000000E+00   1.1001350E-03  -4.4652637E-02   0.0000000E+00   1.5170828E-03  -4.4258870E-02   0.0000000E+00   1.9717806E-03  -4.3714024E-02   0.0000000E+00   2.4724402E-03  -4.2963650E-02   0.0000000E+00   3.0337833E-03  -6.2386941E-02   0.0000000E+00   1.0741552E-08  -6.2342539E-02   0.0000000E+00   4.5541022E-04  -6.2207673E-02   0.0000000E+00   9.2349539E-04  -6.1974738E-02   0.0000000E+00   1.4151578E-03  -6.1627038E-02   0.0000000E+00   1.9488027E-03  -6.1136536E-02   0.0000000E+00   2.5342826E-03  -6.0454622E-02   0.0000000E+00   3.1876592E-03  -5.9509084E-02   0.0000000E+00   3.9281612E-03  -8.4683873E-02   0.0000000E+00   5.3520992E-09  -8.4630534E-02   0.0000000E+00   5.8534619E-04  -8.4468320E-02   0.0000000E+00   1.1856020E-03  -8.4188208E-02   0.0000000E+00   1.8132346E-03  -8.3769374E-02   0.0000000E+00   2.4949885E-03  -8.3176352E-02   0.0000000E+00   3.2482676E-03  -8.2347244E-02   0.0000000E+00   4.0971609E-03  -8.1187822E-02   0.0000000E+00   5.0662942E-03  -1.1371735E-01   0.0000000E+00  -9.8684652E-09  -1.1365669E-01   0.0000000E+00   7.4803445E-04  -1.1347134E-01   0.0000000E+00   1.5157508E-03  -1.1315066E-01   0.0000000E+00   2.3149343E-03  -1.1266783E-01   0.0000000E+00   3.1860236E-03  -1.1197846E-01   0.0000000E+00   4.1563669E-03  -1.1100355E-01   0.0000000E+00   5.2581849E-03  -1.0962074E-01   0.0000000E+00   6.5235700E-03  -1.5139937E-01   0.0000000E+00   1.5237166E-08  -1.5133601E-01   0.0000000E+00   9.4746548E-04  -1.5114091E-01   0.0000000E+00   1.9209338E-03  -1.5079951E-01   0.0000000E+00   2.9368359E-03  -1.5027764E-01   0.0000000E+00   4.0494618E-03  -1.4951658E-01   0.0000000E+00   5.3014685E-03  -1.4841484E-01   0.0000000E+00   6.7342403E-03  -1.4681715E-01   0.0000000E+00   8.3879661E-03  -2.0001660E-01   0.0000000E+00  -3.9818033E-09  -1.9996037E-01   0.0000000E+00   1.1830515E-03  -1.9978297E-01   0.0000000E+00   2.4041862E-03  -1.9946241E-01   0.0000000E+00   3.6873515E-03  -1.9895354E-01   0.0000000E+00   5.1053781E-03  -1.9817650E-01   0.0000000E+00   6.7241210E-03  -1.9700101E-01   0.0000000E+00   8.5948892E-03  -1.9522831E-01   0.0000000E+00   1.0768423E-02  -2.6239860E-01   0.0000000E+00   3.6712528E-08  -2.6236448E-01   0.0000000E+00   1.4482826E-03  -2.6225004E-01   0.0000000E+00   2.9551438E-03  -2.6202229E-01   0.0000000E+00   4.5605307E-03  -2.6161352E-01   0.0000000E+00   6.3630813E-03  -2.6091754E-01   0.0000000E+00   8.4589049E-03  -2.5976884E-01   0.0000000E+00   1.0909702E-02  -2.5791168E-01   0.0000000E+00   1.3786782E-02  -3.4203306E-01   0.0000000E+00   1.8806546E-08  -3.4203762E-01   0.0000000E+00   1.7362438E-03  -3.4203464E-01   0.0000000E+00   3.5603107E-03  -3.4198117E-01   0.0000000E+00   5.5478471E-03  -3.4178495E-01   0.0000000E+00   7.8290096E-03  -3.4131038E-01   0.0000000E+00   1.0534743E-02  -3.4035337E-01   0.0000000E+00   1.3741211E-02  -3.3858228E-01   0.0000000E+00   1.7562905E-02  -4.4314429E-01   0.0000000E+00   3.7174161E-08  -4.4320607E-01   0.0000000E+00   2.0494352E-03  -4.4337147E-01   0.0000000E+00   4.2277467E-03  -4.4359019E-01   0.0000000E+00   6.6593620E-03  -4.4375873E-01   0.0000000E+00   9.5139295E-03  -4.4370827E-01   0.0000000E+00   1.2977874E-02  -4.4318876E-01   0.0000000E+00   1.7135272E-02  -4.4176844E-01   0.0000000E+00   2.2187732E-02  -5.7056600E-01   0.0000000E+00  -1.9356355E-07  -5.7071382E-01   0.0000000E+00   2.3939009E-03  -5.7113791E-01   0.0000000E+00   4.9664234E-03  -5.7178569E-01   0.0000000E+00   7.9041785E-03  -5.7254571E-01   0.0000000E+00   1.1422278E-02  -5.7321680E-01   0.0000000E+00   1.5803024E-02  -5.7350004E-01   0.0000000E+00   2.1125328E-02  -5.7283032E-01   0.0000000E+00   2.7751705E-02  -7.2970676E-01   0.0000000E+00   2.8834904E-08  -7.2998250E-01   0.0000000E+00   2.7756549E-03  -7.3079717E-01   0.0000000E+00   5.7849544E-03  -7.3209858E-01   0.0000000E+00   9.2900973E-03  -7.3377955E-01   0.0000000E+00   1.3552025E-02  -7.3560888E-01   0.0000000E+00   1.8972130E-02  -7.3723912E-01   0.0000000E+00   2.5707664E-02  -7.3796195E-01   0.0000000E+00   3.4292433E-02  -9.2673111E-01   0.0000000E+00   1.0319525E-08  -9.2719436E-01   0.0000000E+00   3.2089707E-03  -9.2857885E-01   0.0000000E+00   6.7053572E-03  -9.3084747E-01   0.0000000E+00   1.0843561E-02  -9.3391031E-01   0.0000000E+00   1.5909277E-02  -9.3753070E-01   0.0000000E+00   2.2507112E-02  -9.4130921E-01   0.0000000E+00   3.0896343E-02  -9.4439465E-01   0.0000000E+00   4.1846115E-02  -1.1687435E+00   0.0000000E+00   1.4981458E-07  -1.1694713E+00   0.0000000E+00   3.7297669E-03  -1.1716659E+00   0.0000000E+00   7.7890162E-03  -1.1753256E+00   0.0000000E+00   1.2602977E-02  -1.1804070E+00   0.0000000E+00   1.8564399E-02  -1.1866949E+00   0.0000000E+00   2.6435994E-02  -1.1937528E+00   0.0000000E+00   3.6663435E-02  -1.2005758E+00   0.0000000E+00   5.0201174E-02  -1.4640974E+00   0.0000000E+00   1.6605384E-07  -1.4651864E+00   0.0000000E+00   4.4130944E-03  -1.4684972E+00   0.0000000E+00   9.1826366E-03  -1.4740919E+00   0.0000000E+00   1.4758789E-02  -1.4820240E+00   0.0000000E+00   2.1697165E-02  -1.4921551E+00   0.0000000E+00   3.0885139E-02  -1.5040134E+00   0.0000000E+00   4.2972662E-02  -1.5165316E+00   0.0000000E+00   5.9492294E-02  -1.8226856E+00   0.0000000E+00   9.7103225E-08  -1.8242548E+00   0.0000000E+00   5.4286406E-03  -1.8290418E+00   0.0000000E+00   1.1193350E-02  -1.8372306E+00   0.0000000E+00   1.7722484E-02  -1.8490428E+00   0.0000000E+00   2.5743315E-02  -1.8645017E+00   0.0000000E+00   3.6257043E-02  -1.8831489E+00   0.0000000E+00   5.0266128E-02  -1.9039166E+00   0.0000000E+00   6.9807418E-02  -2.2557983E+00   0.0000000E+00   3.4538652E-07  -2.2579708E+00   0.0000000E+00   7.0780455E-03  -2.2646303E+00   0.0000000E+00   1.4399695E-02  -2.2761462E+00   0.0000000E+00   2.2291206E-02  -2.2930043E+00   0.0000000E+00   3.1637982E-02  -2.3155315E+00   0.0000000E+00   4.3452796E-02  -2.3434210E+00   0.0000000E+00   5.9486277E-02  -2.3757076E+00   0.0000000E+00   8.1857271E-02  -2.7752225E+00   0.0000000E+00   7.2271280E-07  -2.7781229E+00   0.0000000E+00   9.8707536E-03  -2.7870564E+00   0.0000000E+00   1.9789580E-02  -2.8026655E+00   0.0000000E+00   2.9891144E-02  -2.8258491E+00   0.0000000E+00   4.1146945E-02  -2.8574448E+00   0.0000000E+00   5.4497968E-02  -2.8975389E+00   0.0000000E+00   7.2371356E-02  -2.9453418E+00   0.0000000E+00   9.7442009E-02  -3.3923862E+00   0.0000000E+00   6.8452960E-07  -3.3961225E+00   0.0000000E+00   1.4614024E-02  -3.4077156E+00   0.0000000E+00   2.8894912E-02  -3.4281857E+00   0.0000000E+00   4.2770989E-02  -3.4590526E+00   0.0000000E+00   5.7038035E-02  -3.5019195E+00   0.0000000E+00   7.2788768E-02  -3.5576503E+00   0.0000000E+00   9.2514493E-02  -3.6258240E+00   0.0000000E+00   1.2020647E-01  -4.1183543E+00   0.0000000E+00   1.1074803E-07  -4.1230259E+00   0.0000000E+00   2.2322321E-02  -4.1375961E+00   0.0000000E+00   4.3905713E-02  -4.1636281E+00   0.0000000E+00   6.4223751E-02  -4.2034874E+00   0.0000000E+00   8.3942547E-02  -4.2600241E+00   0.0000000E+00   1.0368270E-01  -4.3352413E+00   0.0000000E+00   1.2626043E-01  -4.4296317E+00   0.0000000E+00   1.5683471E-01  -4.9651761E+00   0.0000000E+00   1.7781200E-06  -4.9708490E+00   0.0000000E+00   3.4560706E-02  -4.9886456E+00   0.0000000E+00   6.7859471E-02  -5.0207977E+00   0.0000000E+00   9.9009089E-02  -5.0710382E+00   0.0000000E+00   1.2767829E-01  -5.1436882E+00   0.0000000E+00   1.5501615E-01  -5.2426090E+00   0.0000000E+00   1.8323712E-01  -5.3699145E+00   0.0000000E+00   2.1837839E-01  -5.9482098E+00   0.0000000E+00   2.3892035E-06  -5.9549475E+00   0.0000000E+00   5.2515220E-02  -5.9761128E+00   0.0000000E+00   1.0375814E-01  -6.0150032E+00   0.0000000E+00   1.5197325E-01  -6.0767994E+00   0.0000000E+00   1.9651586E-01  -6.1680045E+00   0.0000000E+00   2.3787132E-01  -6.2949705E+00   0.0000000E+00   2.7825767E-01  -6.4624095E+00   0.0000000E+00   3.2150227E-01  -7.0878334E+00   0.0000000E+00  -1.5171295E-06  -7.0955586E+00   0.0000000E+00   7.9088889E-02  -7.1201267E+00   0.0000000E+00   1.5605761E-01  -7.1660728E+00   0.0000000E+00   2.3000284E-01  -7.2406297E+00   0.0000000E+00   2.9948774E-01  -7.3526368E+00   0.0000000E+00   3.6526966E-01  -7.5121508E+00   0.0000000E+00   4.2838806E-01  -7.7268515E+00   0.0000000E+00   4.8980179E-01  -8.4071226E+00   0.0000000E+00  -3.9322003E-07  -8.4159193E+00   0.0000000E+00   1.1604199E-01  -8.4444914E+00   0.0000000E+00   2.2835240E-01  -8.4977636E+00   0.0000000E+00   3.3812490E-01  -8.5857430E+00   0.0000000E+00   4.4650650E-01  -8.7212543E+00   0.0000000E+00   5.5267537E-01  -8.9176331E+00   0.0000000E+00   6.5647095E-01  -9.1861591E+00   0.0000000E+00   7.5486630E-01  -9.9269333E+00   0.0000000E+00  -1.7443290E-06  -9.9372883E+00   0.0000000E+00   1.6074176E-01  -9.9688501E+00   0.0000000E+00   3.2327983E-01  -1.0029933E+01   0.0000000E+00   4.8552829E-01  -1.0133068E+01   0.0000000E+00   6.4930910E-01  -1.0294773E+01   0.0000000E+00   8.1502640E-01  -1.0532871E+01   0.0000000E+00   9.8022068E-01  -1.0860924E+01   0.0000000E+00   1.1471775E+00  -1.1656310E+01   0.0000000E+00   6.7158771E-06  -1.1666456E+01   0.0000000E+00   2.1842644E-01  -1.1701566E+01   0.0000000E+00   4.4446939E-01  -1.1770430E+01   0.0000000E+00   6.7761421E-01  -1.1890501E+01   0.0000000E+00   9.0997922E-01  -1.2081043E+01   0.0000000E+00   1.1552079E+00  -1.2367177E+01   0.0000000E+00   1.4173430E+00  -1.2764325E+01   0.0000000E+00   1.6857698E+00  -1.3569352E+01   0.0000000E+00   2.5298559E-06  -1.3580706E+01   0.0000000E+00   2.9359484E-01  -1.3618321E+01   0.0000000E+00   5.9512174E-01  -1.3697874E+01   0.0000000E+00   8.9871174E-01  -1.3834980E+01   0.0000000E+00   1.2341080E+00  -1.4057604E+01   0.0000000E+00   1.6026751E+00  -1.4392926E+01   0.0000000E+00   1.9984978E+00  -1.4864936E+01   0.0000000E+00   2.4035747E+00  -1.5582088E+01   0.0000000E+00   5.7381403E-06  -1.5595413E+01   0.0000000E+00   3.7508017E-01  -1.5642171E+01   0.0000000E+00   7.4917644E-01  -1.5729811E+01   0.0000000E+00   1.1679893E+00  -1.5886779E+01   0.0000000E+00   1.6313417E+00  -1.6145035E+01   0.0000000E+00   2.1367133E+00  -1.6535955E+01   0.0000000E+00   2.7133708E+00  -1.7090418E+01   0.0000000E+00   3.3253415E+00  -1.7559027E+01   0.0000000E+00   3.1945092E-06  -1.7572140E+01   0.0000000E+00   4.4109431E-01  -1.7626791E+01   0.0000000E+00   9.2342699E-01  -1.7732937E+01   0.0000000E+00   1.4366090E+00  -1.7912449E+01   0.0000000E+00   2.0479152E+00  -1.8214960E+01   0.0000000E+00   2.7387245E+00  -1.8680182E+01   0.0000000E+00   3.5136247E+00  -1.9315325E+01   0.0000000E+00   4.3659320E+00  -1.9348978E+01   0.0000000E+00  -3.5132107E-06  -1.9368843E+01   0.0000000E+00   5.1220107E-01  -1.9437620E+01   0.0000000E+00   1.0738491E+00  -1.9573572E+01   0.0000000E+00   1.7010651E+00  -1.9801222E+01   0.0000000E+00   2.4317248E+00  -2.0165653E+01   0.0000000E+00   3.3381548E+00  -2.0697096E+01   0.0000000E+00   4.4416289E+00  -2.1404871E+01   0.0000000E+00   5.6870685E+00  -2.0757151E+01   0.0000000E+00   1.5195226E-05  -2.0802567E+01   0.0000000E+00   5.7179302E-01  -2.0903812E+01   0.0000000E+00   1.1973454E+00  -2.1075439E+01   0.0000000E+00   1.9561452E+00  -2.1381132E+01   0.0000000E+00   2.8657539E+00  -2.1794750E+01   0.0000000E+00   4.0535359E+00  -2.2389828E+01   0.0000000E+00   5.5118799E+00  -2.3218472E+01   0.0000000E+00   7.1462760E+00  -2.1947094E+01   0.0000000E+00   3.3494551E-05  -2.1978880E+01   0.0000000E+00   6.6366702E-01  -2.2102654E+01   0.0000000E+00   1.3748609E+00  -2.2333784E+01   0.0000000E+00   2.2648590E+00  -2.2692545E+01   0.0000000E+00   3.4292562E+00  -2.3202480E+01   0.0000000E+00   4.9214244E+00  -2.3899782E+01   0.0000000E+00   6.7484913E+00  -2.4775658E+01   0.0000000E+00   8.8634081E+00  -2.2582235E+01   0.0000000E+00  -2.9631890E-05  -2.2612158E+01   0.0000000E+00   7.4233711E-01  -2.2748104E+01   0.0000000E+00   1.5728177E+00  -2.2994110E+01   0.0000000E+00   2.6198609E+00  -2.3364574E+01   0.0000000E+00   4.0183558E+00  -2.3900555E+01   0.0000000E+00   5.8523374E+00  -2.4595978E+01   0.0000000E+00   8.1873560E+00  -2.5513863E+01   0.0000000E+00   1.0894863E+01  -2.2147272E+01   0.0000000E+00   7.0238020E-06  -2.2179976E+01   0.0000000E+00   7.7374136E-01  -2.2286301E+01   0.0000000E+00   1.6740761E+00  -2.2484774E+01   0.0000000E+00   2.8572650E+00  -2.2801483E+01   0.0000000E+00   4.4951944E+00  -2.3271683E+01   0.0000000E+00   6.7200599E+00  -2.3926634E+01   0.0000000E+00   9.5554056E+00  -2.4808189E+01   0.0000000E+00   1.2854119E+01  -1.6594662E+01   0.0000000E+00   2.0378036E-05  -1.6619675E+01   0.0000000E+00   8.3907866E-01  -1.6699013E+01   0.0000000E+00   1.8246404E+00  -1.6846664E+01   0.0000000E+00   3.1336911E+00  -1.7088129E+01   0.0000000E+00   4.9622335E+00  -1.7459282E+01   0.0000000E+00   7.4584961E+00  -1.8000582E+01   0.0000000E+00   1.0637179E+01  -1.8745819E+01   0.0000000E+00   1.4341171E+01  -1.0136483E+01   0.0000000E+00  -1.2775534E-05  -1.0155493E+01   0.0000000E+00   9.0277672E-01  -1.0215429E+01   0.0000000E+00   1.9622416E+00  -1.0325891E+01   0.0000000E+00   3.3676205E+00  -1.0504848E+01   0.0000000E+00   5.3287606E+00  -1.0777864E+01   0.0000000E+00   8.0032930E+00  -1.1173232E+01   0.0000000E+00   1.1403865E+01  -1.1712324E+01   0.0000000E+00   1.5355499E+01  -5.2281098E+00   0.0000000E+00  -1.9083673E-05  -5.2407742E+00   0.0000000E+00   9.4812256E-01  -5.2803617E+00   0.0000000E+00   2.0591908E+00  -5.3522992E+00   0.0000000E+00   3.5306103E+00  -5.4671144E+00   0.0000000E+00   5.5814762E+00  -5.6402860E+00   0.0000000E+00   8.3758783E+00  -5.8889155E+00   0.0000000E+00   1.1923809E+01  -6.2243357E+00   0.0000000E+00   1.6034203E+01  -1.6993200E+00   0.0000000E+00   1.3043347E-05  -1.7057458E+00   0.0000000E+00   9.7504479E-01  -1.7254959E+00   0.0000000E+00   2.1158938E+00  -1.7603002E+00   0.0000000E+00   3.6241446E+00  -1.8141667E+00   0.0000000E+00   5.7240934E+00  -1.8934886E+00   0.0000000E+00   8.5837030E+00  -2.0055649E+00   0.0000000E+00   1.2210859E+01  -2.1542706E+00   0.0000000E+00   1.6403212E+01   1.0537084E+00   0.0000000E+00   2.6405905E-06   1.0531780E+00   0.0000000E+00   9.8464352E-01   1.0520391E+00   0.0000000E+00   2.1350517E+00   1.0515380E+00   0.0000000E+00   3.6536653E+00   1.0532711E+00   0.0000000E+00   5.7663403E+00   1.0588473E+00   0.0000000E+00   8.6424294E+00   1.0694536E+00   0.0000000E+00   1.2289159E+01   1.0871967E+00   0.0000000E+00   1.6498642E+01   3.6255326E+00   0.0000000E+00   2.1415937E-05   3.6304266E+00   0.0000000E+00   9.7840613E-01   3.6462743E+00   0.0000000E+00   2.1203384E+00   3.6769264E+00   0.0000000E+00   3.6260684E+00   3.7286875E+00   0.0000000E+00   5.7197351E+00   3.8100042E+00   0.0000000E+00   8.5700359E+00   3.9297261E+00   0.0000000E+00   1.2184464E+01   4.0954905E+00   0.0000000E+00   1.6355145E+01   6.3107214E+00   0.0000000E+00   4.9399678E-06   6.3205099E+00   0.0000000E+00   9.5807433E-01   6.3517890E+00   0.0000000E+00   2.0756135E+00   6.4104819E+00   0.0000000E+00   3.5481725E+00   6.5070624E+00   0.0000000E+00   5.5954366E+00   6.6560097E+00   0.0000000E+00   8.3833790E+00   6.8730946E+00   0.0000000E+00   1.1920204E+01   7.1716909E+00   0.0000000E+00   1.6002377E+01   9.0767593E+00   0.0000000E+00  -2.1875661E-05   9.0909586E+00   0.0000000E+00   9.2519546E-01   9.1359472E+00   0.0000000E+00   2.0041227E+00   9.2196789E+00   0.0000000E+00   3.4256244E+00   9.3561907E+00   0.0000000E+00   5.4024744E+00   9.5653076E+00   0.0000000E+00   8.0958986E+00   9.8692818E+00   0.0000000E+00   1.1514867E+01   1.0287218E+01   0.0000000E+00   1.5462619E+01   1.1715756E+01   0.0000000E+00  -7.9104211E-07   1.1733791E+01   0.0000000E+00   8.8115656E-01   1.1790733E+01   0.0000000E+00   1.9089257E+00   1.1896160E+01   0.0000000E+00   3.2636886E+00   1.2067401E+01   0.0000000E+00   5.1489997E+00   1.2328960E+01   0.0000000E+00   7.7196283E+00   1.2708974E+01   0.0000000E+00   1.0984753E+01   1.3232132E+01   0.0000000E+00   1.4756110E+01   1.3958023E+01   0.0000000E+00  -8.9935493E-06   1.3979968E+01   0.0000000E+00   8.2819170E-01   1.4049146E+01   0.0000000E+00   1.7947397E+00   1.4175297E+01   0.0000000E+00   3.0693071E+00   1.4379810E+01   0.0000000E+00   4.8446593E+00   1.4690683E+01   0.0000000E+00   7.2679038E+00   1.5140577E+01   0.0000000E+00   1.0347875E+01   1.5757277E+01   0.0000000E+00   1.3905366E+01   1.4817571E+01   0.0000000E+00  -7.1804971E-07   1.4841045E+01   0.0000000E+00   7.9255223E-01   1.4947888E+01   0.0000000E+00   1.7051345E+00   1.5148129E+01   0.0000000E+00   2.8944640E+00   1.5442614E+01   0.0000000E+00   4.5406270E+00   1.5872771E+01   0.0000000E+00   6.7839017E+00   1.6458609E+01   0.0000000E+00   9.6369562E+00   1.7208225E+01   0.0000000E+00   1.2947657E+01   1.4780761E+01   0.0000000E+00   1.3553450E-05   1.4820817E+01   0.0000000E+00   7.4686950E-01   1.4944234E+01   0.0000000E+00   1.6139047E+00   1.5157032E+01   0.0000000E+00   2.7226460E+00   1.5486917E+01   0.0000000E+00   4.2361937E+00   1.5963657E+01   0.0000000E+00   6.2815061E+00   1.6597595E+01   0.0000000E+00   8.8844614E+00   1.7413137E+01   0.0000000E+00   1.1921554E+01   1.4566480E+01   0.0000000E+00   3.0051655E-05   1.4608641E+01   0.0000000E+00   7.2633111E-01   1.4712214E+01   0.0000000E+00   1.5054059E+00   1.4927986E+01   0.0000000E+00   2.5106153E+00   1.5252654E+01   0.0000000E+00   3.8894365E+00   1.5710778E+01   0.0000000E+00   5.7563882E+00   1.6353252E+01   0.0000000E+00   8.1226635E+00   1.7216467E+01   0.0000000E+00   1.0852665E+01   1.4202798E+01   0.0000000E+00   4.4138578E-06   1.4246401E+01   0.0000000E+00   6.6211200E-01   1.4370741E+01   0.0000000E+00   1.4158750E+00   1.4557073E+01   0.0000000E+00   2.3160651E+00   1.4854676E+01   0.0000000E+00   3.5487285E+00   1.5282009E+01   0.0000000E+00   5.2285929E+00   1.5929853E+01   0.0000000E+00   7.3549013E+00   1.6768799E+01   0.0000000E+00   9.8161812E+00   1.3782648E+01   0.0000000E+00  -6.1618921E-06   1.3816891E+01   0.0000000E+00   6.1419189E-01   1.3919395E+01   0.0000000E+00   1.3100765E+00   1.4085279E+01   0.0000000E+00   2.1623826E+00   1.4381932E+01   0.0000000E+00   3.2507465E+00   1.4799635E+01   0.0000000E+00   4.7188177E+00   1.5397141E+01   0.0000000E+00   6.6121507E+00   1.6214745E+01   0.0000000E+00   8.8030758E+00   1.3296254E+01   0.0000000E+00   9.3437557E-06   1.3314749E+01   0.0000000E+00   5.8110607E-01   1.3396565E+01   0.0000000E+00   1.2274905E+00   1.3563922E+01   0.0000000E+00   2.0178196E+00   1.3801573E+01   0.0000000E+00   2.9985194E+00   1.4198421E+01   0.0000000E+00   4.2991028E+00   1.4784873E+01   0.0000000E+00   5.9388113E+00   1.5600674E+01   0.0000000E+00   7.8437591E+00   1.2711794E+01   0.0000000E+00  -1.6990962E-05   1.2726624E+01   0.0000000E+00   5.4247266E-01   1.2796165E+01   0.0000000E+00   1.1431733E+00   1.2943601E+01   0.0000000E+00   1.8727007E+00   1.3183709E+01   0.0000000E+00   2.7936969E+00   1.3538342E+01   0.0000000E+00   3.9154682E+00   1.4109105E+01   0.0000000E+00   5.3381004E+00   1.4928831E+01   0.0000000E+00   6.9749665E+00   1.2059375E+01   0.0000000E+00   6.2068284E-07   1.2088225E+01   0.0000000E+00   5.2038598E-01   1.2149748E+01   0.0000000E+00   1.0749161E+00   1.2279427E+01   0.0000000E+00   1.7409687E+00   1.2505590E+01   0.0000000E+00   2.5742209E+00   1.2850748E+01   0.0000000E+00   3.5911169E+00   1.3386586E+01   0.0000000E+00   4.7947612E+00   1.4195910E+01   0.0000000E+00   6.1990719E+00   1.1395553E+01   0.0000000E+00  -6.8707595E-06   1.1415927E+01   0.0000000E+00   5.0189674E-01   1.1484510E+01   0.0000000E+00   1.0100628E+00   1.1606870E+01   0.0000000E+00   1.6228369E+00   1.1825747E+01   0.0000000E+00   2.3716342E+00   1.2161321E+01   0.0000000E+00   3.2588224E+00   1.2678168E+01   0.0000000E+00   4.2899899E+00   1.3471041E+01   0.0000000E+00   5.4527683E+00   1.0736560E+01   0.0000000E+00  -4.0512532E-07   1.0754771E+01   0.0000000E+00   4.6963435E-01   1.0822052E+01   0.0000000E+00   9.5599192E-01   1.0952936E+01   0.0000000E+00   1.5100479E+00   1.1165391E+01   0.0000000E+00   2.1656480E+00   1.1512255E+01   0.0000000E+00   2.9410286E+00   1.2024848E+01   0.0000000E+00   3.7926824E+00   1.2821096E+01   0.0000000E+00   4.7808452E+00   1.0111563E+01   0.0000000E+00   4.1408202E-06   1.0130051E+01   0.0000000E+00   4.3869513E-01   1.0196943E+01   0.0000000E+00   9.0038455E-01   1.0338827E+01   0.0000000E+00   1.4002037E+00   1.0570028E+01   0.0000000E+00   1.9788585E+00   1.0917062E+01   0.0000000E+00   2.6178052E+00   1.1451629E+01   0.0000000E+00   3.3357592E+00   1.2231235E+01   0.0000000E+00   4.1629395E+00   9.5462570E+00   0.0000000E+00  -1.1462107E-05   9.5703983E+00   0.0000000E+00   4.0370646E-01   9.6435213E+00   0.0000000E+00   8.2514501E-01   9.7928133E+00   0.0000000E+00   1.2821720E+00   1.0031498E+01   0.0000000E+00   1.7623941E+00   1.0402113E+01   0.0000000E+00   2.3041260E+00   1.0939954E+01   0.0000000E+00   2.8951416E+00   1.1787848E+01   0.0000000E+00   3.6634052E+00   9.0545282E+00   0.0000000E+00   4.2798492E-06   9.0856514E+00   0.0000000E+00   3.5916990E-01   9.1684361E+00   0.0000000E+00   7.3765147E-01   9.3201780E+00   0.0000000E+00   1.1245856E+00   9.5768805E+00   0.0000000E+00   1.5423671E+00   9.9668703E+00   0.0000000E+00   1.9899237E+00   1.0570077E+01   0.0000000E+00   2.5483680E+00   1.1521505E+01   0.0000000E+00   3.3417342E+00   8.6596451E+00   0.0000000E+00   3.4958139E-06   8.6855211E+00   0.0000000E+00   3.0670038E-01   8.7733517E+00   0.0000000E+00   6.3002980E-01   8.9341440E+00   0.0000000E+00   9.5408839E-01   9.2171049E+00   0.0000000E+00   1.3199819E+00   9.6719055E+00   0.0000000E+00   1.7625655E+00   1.0387142E+01   0.0000000E+00   2.3858006E+00   1.1524077E+01   0.0000000E+00   3.3132980E+00   8.3200827E+00   0.0000000E+00  -4.2031752E-07   8.3492994E+00   0.0000000E+00   2.5976354E-01   8.4508200E+00   0.0000000E+00   5.3334492E-01   8.6581411E+00   0.0000000E+00   8.4519893E-01   9.0059099E+00   0.0000000E+00   1.2358398E+00   9.5767336E+00   0.0000000E+00   1.7691898E+00   1.0517229E+01   0.0000000E+00   2.5903163E+00   1.2129228E+01   0.0000000E+00   3.8683875E+00   8.1335297E+00   0.0000000E+00  -1.5557307E-06   8.1774988E+00   0.0000000E+00   2.4797241E-01   8.3183317E+00   0.0000000E+00   5.3264821E-01   8.5903740E+00   0.0000000E+00   9.0834457E-01   9.1020584E+00   0.0000000E+00   1.4583043E+00   1.0013418E+01   0.0000000E+00   2.2965486E+00   1.1531655E+01   0.0000000E+00   3.5295131E+00   1.3898186E+01   0.0000000E+00   4.9873691E+00   8.3119402E+00   0.0000000E+00  -4.2241300E-07   8.3941031E+00   0.0000000E+00   3.6630279E-01   8.6793232E+00   0.0000000E+00   8.2267118E-01   9.2810001E+00   0.0000000E+00   1.4588255E+00   1.0384007E+01   0.0000000E+00   2.3050921E+00   1.2070415E+01   0.0000000E+00   3.3337045E+00   1.4217779E+01   0.0000000E+00   4.5617332E+00   1.6561768E+01   0.0000000E+00   6.0367298E+00   1.1090777E+01   0.0000000E+00   1.5253318E-06   1.1227737E+01   0.0000000E+00   5.1706362E-01   1.1663108E+01   0.0000000E+00   1.1480803E+00   1.2447620E+01   0.0000000E+00   1.9830527E+00   1.3616974E+01   0.0000000E+00   3.0451753E+00   1.5091344E+01   0.0000000E+00   4.2839770E+00   1.6673735E+01   0.0000000E+00   5.6788549E+00   1.8143154E+01   0.0000000E+00   7.2340603E+00   1.4539860E+01   0.0000000E+00   8.3935447E-07   1.4626952E+01   0.0000000E+00   6.6167611E-01   1.4894476E+01   0.0000000E+00   1.4818811E+00   1.5356798E+01   0.0000000E+00   2.5801911E+00   1.6012545E+01   0.0000000E+00   3.9569173E+00   1.6782793E+01   0.0000000E+00   5.4357462E+00   1.7506805E+01   0.0000000E+00   6.9165959E+00   1.6105886E+01   0.0000000E+00   2.4100154E-07   1.6132324E+01   0.0000000E+00   8.2900321E-01   1.6208986E+01   0.0000000E+00   1.8738495E+00   1.6326237E+01   0.0000000E+00   3.2870097E+00   1.6472334E+01   0.0000000E+00   5.0259471E+00  -1.3522475E-02   0.0000000E+00   1.4062463E-03  -1.2987060E-02   0.0000000E+00   1.6621207E-03  -1.2304690E-02   0.0000000E+00   1.9367917E-03  -1.1447880E-02   0.0000000E+00   2.2183121E-03  -1.0396502E-02   0.0000000E+00   2.4727546E-03  -9.1088861E-03   0.0000000E+00   2.6877958E-03  -7.5845970E-03   0.0000000E+00   2.8034854E-03  -2.0240944E-02   0.0000000E+00   2.0517292E-03  -1.9483786E-02   0.0000000E+00   2.4261731E-03  -1.8503156E-02   0.0000000E+00   2.8217586E-03  -1.7247535E-02   0.0000000E+00   3.2269824E-03  -1.5681688E-02   0.0000000E+00   3.5665096E-03  -1.3718198E-02   0.0000000E+00   3.8278433E-03  -1.1301756E-02   0.0000000E+00   3.9413143E-03  -8.4373262E-03   0.0000000E+00   4.0858313E-03  -2.9569782E-02   0.0000000E+00   2.7735247E-03  -2.8527930E-02   0.0000000E+00   3.2847582E-03  -2.7158171E-02   0.0000000E+00   3.8221353E-03  -2.5379691E-02   0.0000000E+00   4.3654339E-03  -2.3130819E-02   0.0000000E+00   4.8201811E-03  -2.0281568E-02   0.0000000E+00   5.1868367E-03  -1.6782392E-02   0.0000000E+00   5.3836573E-03  -1.2608683E-02   0.0000000E+00   5.4492685E-03  -4.1944444E-02   0.0000000E+00   3.6470729E-03  -4.0561438E-02   0.0000000E+00   4.3328889E-03  -3.8718753E-02   0.0000000E+00   5.0535901E-03  -3.6296003E-02   0.0000000E+00   5.7823434E-03  -3.3198554E-02   0.0000000E+00   6.3969865E-03  -2.9234551E-02   0.0000000E+00   6.9105667E-03  -2.4331164E-02   0.0000000E+00   7.1757385E-03  -1.8364506E-02   0.0000000E+00   7.2625279E-03  -5.8211148E-02   0.0000000E+00   4.7451220E-03  -5.6432761E-02   0.0000000E+00   5.6535648E-03  -5.4032419E-02   0.0000000E+00   6.6102929E-03  -5.0835200E-02   0.0000000E+00   7.5777872E-03  -4.6696965E-02   0.0000000E+00   8.3968276E-03  -4.1327026E-02   0.0000000E+00   9.1081299E-03  -3.4584139E-02   0.0000000E+00   9.5152976E-03  -2.6227605E-02   0.0000000E+00   9.7254766E-03  -7.9577498E-02   0.0000000E+00   6.1449669E-03  -7.7348091E-02   0.0000000E+00   7.3341583E-03  -7.4300274E-02   0.0000000E+00   8.5877925E-03  -7.0185453E-02   0.0000000E+00   9.8546026E-03  -6.4780571E-02   0.0000000E+00   1.0938986E-02  -5.7652589E-02   0.0000000E+00   1.1926098E-02  -4.8542667E-02   0.0000000E+00   1.2579847E-02  -3.7021317E-02   0.0000000E+00   1.3087085E-02  -1.0766969E-01   0.0000000E+00   7.9414127E-03  -1.0493147E-01   0.0000000E+00   9.4869127E-03  -1.0112936E-01   0.0000000E+00   1.1115536E-02  -9.5924109E-02   0.0000000E+00   1.2762626E-02  -8.8982254E-02   0.0000000E+00   1.4206594E-02  -7.9691261E-02   0.0000000E+00   1.5578961E-02  -6.7586116E-02   0.0000000E+00   1.6654927E-02  -5.1985338E-02   0.0000000E+00   1.7636145E-02  -1.4451186E-01   0.0000000E+00   1.0253500E-02  -1.4121377E-01   0.0000000E+00   1.2272787E-02  -1.3654388E-01   0.0000000E+00   1.4411607E-02  -1.3006254E-01   0.0000000E+00   1.6561138E-02  -1.2130646E-01   0.0000000E+00   1.8492850E-02  -1.0947576E-01   0.0000000E+00   2.0368712E-02  -9.3715951E-02   0.0000000E+00   2.2096429E-02  -7.2866097E-02   0.0000000E+00   2.3904275E-02  -1.9258481E-01   0.0000000E+00   1.3238453E-02  -1.8870719E-01   0.0000000E+00   1.5906647E-02  -1.8308662E-01   0.0000000E+00   1.8761484E-02  -1.7514446E-01   0.0000000E+00   2.1651238E-02  -1.6430013E-01   0.0000000E+00   2.4236001E-02  -1.4948103E-01   0.0000000E+00   2.6773207E-02  -1.2932827E-01   0.0000000E+00   2.9478423E-02  -1.0205878E-01   0.0000000E+00   3.2445941E-02  -2.5499505E-01   0.0000000E+00   1.7075140E-02  -2.5055593E-01   0.0000000E+00   2.0671226E-02  -2.4395801E-01   0.0000000E+00   2.4513606E-02  -2.3443979E-01   0.0000000E+00   2.8407842E-02  -2.2121161E-01   0.0000000E+00   3.1903617E-02  -2.0297045E-01   0.0000000E+00   3.5321340E-02  -1.7796507E-01   0.0000000E+00   3.9048262E-02  -1.4335486E-01   0.0000000E+00   4.3497458E-02  -3.3555683E-01   0.0000000E+00   2.1949043E-02  -3.3065248E-01   0.0000000E+00   2.6851537E-02  -3.2313287E-01   0.0000000E+00   3.2024421E-02  -3.1192958E-01   0.0000000E+00   3.7403468E-02  -2.9615507E-01   0.0000000E+00   4.2043597E-02  -2.7401096E-01   0.0000000E+00   4.6807624E-02  -2.4399514E-01   0.0000000E+00   5.1545233E-02  -2.0122674E-01   0.0000000E+00   5.7937093E-02  -4.3889803E-01   0.0000000E+00   2.8025776E-02  -4.3374139E-01   0.0000000E+00   3.4715440E-02  -4.2544222E-01   0.0000000E+00   4.1834500E-02  -4.1271985E-01   0.0000000E+00   4.9367562E-02  -3.9439821E-01   0.0000000E+00   5.6380145E-02  -3.6815247E-01   0.0000000E+00   6.4757049E-02  -3.3223504E-01   0.0000000E+00   7.5141460E-02  -2.7795374E-01   0.0000000E+00   9.2539042E-02  -5.7052732E-01   0.0000000E+00   3.5501879E-02  -5.6552577E-01   0.0000000E+00   4.4632640E-02  -5.5680615E-01   0.0000000E+00   5.4822255E-02  -5.4306591E-01   0.0000000E+00   6.6006154E-02  -5.2280980E-01   0.0000000E+00   7.8481421E-02  -4.9314201E-01   0.0000000E+00   9.6531436E-02  -4.5293435E-01   0.0000000E+00   1.2344210E-01  -3.9228782E-01   0.0000000E+00   1.6715769E-01  -7.3693424E-01   0.0000000E+00   4.4546310E-02  -7.3280340E-01   0.0000000E+00   5.7063702E-02  -7.2443086E-01   0.0000000E+00   7.1866818E-02  -7.1056509E-01   0.0000000E+00   8.9281186E-02  -6.8998522E-01   0.0000000E+00   1.1051119E-01  -6.5970194E-01   0.0000000E+00   1.4332165E-01  -6.1886197E-01   0.0000000E+00   1.9431329E-01  -5.5761033E-01   0.0000000E+00   2.6584452E-01  -9.4572276E-01   0.0000000E+00   5.5208053E-02  -9.4361401E-01   0.0000000E+00   7.2138570E-02  -9.3679583E-01   0.0000000E+00   9.3088940E-02  -9.2408043E-01   0.0000000E+00   1.1939942E-01  -9.0518653E-01   0.0000000E+00   1.5274698E-01  -8.7699258E-01   0.0000000E+00   2.0370284E-01  -8.3890092E-01   0.0000000E+00   2.8147829E-01  -7.8005749E-01   0.0000000E+00   3.8131878E-01  -1.2058879E+00   0.0000000E+00   6.7489140E-02  -1.2074958E+00   0.0000000E+00   9.0157486E-02  -1.2038709E+00   0.0000000E+00   1.1833639E-01  -1.1939732E+00   0.0000000E+00   1.5570217E-01  -1.1785097E+00   0.0000000E+00   2.0432293E-01  -1.1543019E+00   0.0000000E+00   2.7604875E-01  -1.1206436E+00   0.0000000E+00   3.8149795E-01  -1.0658109E+00   0.0000000E+00   5.1107383E-01  -1.5280622E+00   0.0000000E+00   8.1346221E-02  -1.5357618E+00   0.0000000E+00   1.1017206E-01  -1.5378195E+00   0.0000000E+00   1.4764114E-01  -1.5327070E+00   0.0000000E+00   1.9883513E-01  -1.5223012E+00   0.0000000E+00   2.6441479E-01  -1.5028343E+00   0.0000000E+00   3.5988259E-01  -1.4741901E+00   0.0000000E+00   4.9744037E-01  -1.4227993E+00   0.0000000E+00   6.6371554E-01  -1.9246286E+00   0.0000000E+00   9.6638873E-02  -1.9418718E+00   0.0000000E+00   1.3251385E-01  -1.9530199E+00   0.0000000E+00   1.8089804E-01  -1.9556816E+00   0.0000000E+00   2.4773644E-01  -1.9519136E+00   0.0000000E+00   3.3261803E-01  -1.9384604E+00   0.0000000E+00   4.5753029E-01  -1.9145507E+00   0.0000000E+00   6.3420326E-01  -1.8627863E+00   0.0000000E+00   8.4852540E-01  -2.4093394E+00   0.0000000E+00   1.1361530E-01  -2.4409537E+00   0.0000000E+00   1.5711586E-01  -2.4660125E+00   0.0000000E+00   2.1766064E-01  -2.4804173E+00   0.0000000E+00   3.0147496E-01  -2.4878502E+00   0.0000000E+00   4.1160294E-01  -2.4824045E+00   0.0000000E+00   5.7215273E-01  -2.4636586E+00   0.0000000E+00   7.9915529E-01  -2.4090443E+00   0.0000000E+00   1.0723321E+00  -2.9972444E+00   0.0000000E+00   1.3349845E-01  -3.0492089E+00   0.0000000E+00   1.8498367E-01  -3.0949702E+00   0.0000000E+00   2.5847393E-01  -3.1283162E+00   0.0000000E+00   3.6112040E-01  -3.1527529E+00   0.0000000E+00   5.0168985E-01  -3.1604266E+00   0.0000000E+00   7.0753604E-01  -3.1496918E+00   0.0000000E+00   9.9780291E-01  -3.0927949E+00   0.0000000E+00   1.3478953E+00  -3.7025888E+00   0.0000000E+00   1.6003133E-01  -3.7830904E+00   0.0000000E+00   2.1866685E-01  -3.8590477E+00   0.0000000E+00   3.0518466E-01  -3.9211698E+00   0.0000000E+00   4.2898491E-01  -3.9726248E+00   0.0000000E+00   6.0395694E-01  -4.0023494E+00   0.0000000E+00   8.6425185E-01  -4.0056801E+00   0.0000000E+00   1.2371057E+00  -3.9498131E+00   0.0000000E+00   1.6841111E+00  -4.5396242E+00   0.0000000E+00   1.9928324E-01  -4.6591825E+00   0.0000000E+00   2.6404732E-01  -4.7780766E+00   0.0000000E+00   3.6156493E-01  -4.8834038E+00   0.0000000E+00   5.0732458E-01  -4.9769568E+00   0.0000000E+00   7.1751893E-01  -5.0428820E+00   0.0000000E+00   1.0435599E+00  -5.0706134E+00   0.0000000E+00   1.5180118E+00  -5.0220613E+00   0.0000000E+00   2.0915606E+00  -5.5231056E+00   0.0000000E+00   2.6324344E-01  -5.6948981E+00   0.0000000E+00   3.3233446E-01  -5.8733606E+00   0.0000000E+00   4.3778801E-01  -6.0425658E+00   0.0000000E+00   5.9846771E-01  -6.1990485E+00   0.0000000E+00   8.4548336E-01  -6.3230095E+00   0.0000000E+00   1.2400224E+00  -6.3925748E+00   0.0000000E+00   1.8466473E+00  -6.3625102E+00   0.0000000E+00   2.5817308E+00  -6.6696773E+00   0.0000000E+00   3.7072468E-01  -6.9089746E+00   0.0000000E+00   4.4186807E-01  -7.1677113E+00   0.0000000E+00   5.5314916E-01  -7.4269085E+00   0.0000000E+00   7.1653342E-01  -7.6750441E+00   0.0000000E+00   9.9489158E-01  -7.8892641E+00   0.0000000E+00   1.4622979E+00  -8.0293751E+00   0.0000000E+00   2.2205665E+00  -8.0394144E+00   0.0000000E+00   3.1634128E+00  -7.9990830E+00   0.0000000E+00   5.5230677E-01  -8.3215237E+00   0.0000000E+00   6.2539256E-01  -8.6843529E+00   0.0000000E+00   7.3216575E-01  -9.0638371E+00   0.0000000E+00   8.8803136E-01  -9.4412050E+00   0.0000000E+00   1.1855655E+00  -9.7928562E+00   0.0000000E+00   1.7118640E+00  -1.0048851E+01   0.0000000E+00   2.6357276E+00  -1.0142915E+01   0.0000000E+00   3.8485093E+00  -9.5327950E+00   0.0000000E+00   8.4689432E-01  -9.9524889E+00   0.0000000E+00   9.2997307E-01  -1.0441176E+01   0.0000000E+00   1.0269228E+00  -1.0976412E+01   0.0000000E+00   1.1591518E+00  -1.1534617E+01   0.0000000E+00   1.4479568E+00  -1.2081520E+01   0.0000000E+00   1.9990666E+00  -1.2527547E+01   0.0000000E+00   3.0886979E+00  -1.2789639E+01   0.0000000E+00   4.6465650E+00  -1.1288945E+01   0.0000000E+00   1.3026381E+00  -1.1817739E+01   0.0000000E+00   1.4223486E+00  -1.2449483E+01   0.0000000E+00   1.5187693E+00  -1.3175649E+01   0.0000000E+00   1.6059344E+00  -1.3971315E+01   0.0000000E+00   1.8446279E+00  -1.4789505E+01   0.0000000E+00   2.3586717E+00  -1.5538774E+01   0.0000000E+00   3.5948508E+00  -1.6102758E+01   0.0000000E+00   5.5425463E+00  -1.3283655E+01   0.0000000E+00   1.9356507E+00  -1.3910261E+01   0.0000000E+00   2.1730254E+00  -1.4683923E+01   0.0000000E+00   2.3291740E+00  -1.5641949E+01   0.0000000E+00   2.3761175E+00  -1.6726593E+01   0.0000000E+00   2.5093250E+00  -1.7933550E+01   0.0000000E+00   2.8837016E+00  -1.9129492E+01   0.0000000E+00   4.1838946E+00  -2.0204523E+01   0.0000000E+00   6.5621605E+00  -1.5478364E+01   0.0000000E+00   2.8093481E+00  -1.6219006E+01   0.0000000E+00   3.1924231E+00  -1.7120962E+01   0.0000000E+00   3.4990451E+00  -1.8163488E+01   0.0000000E+00   3.7654729E+00  -1.9627243E+01   0.0000000E+00   3.7305651E+00  -2.1422792E+01   0.0000000E+00   3.7341218E+00  -2.3264971E+01   0.0000000E+00   4.9549437E+00  -2.5119598E+01   0.0000000E+00   7.7128835E+00  -1.7812138E+01   0.0000000E+00   3.9291313E+00  -1.8681290E+01   0.0000000E+00   4.5051351E+00  -1.9721851E+01   0.0000000E+00   4.9928212E+00  -2.0938503E+01   0.0000000E+00   5.4319749E+00  -2.2445585E+01   0.0000000E+00   5.5831032E+00  -2.4734831E+01   0.0000000E+00   5.4841337E+00  -2.7724569E+01   0.0000000E+00   6.0435658E+00  -3.0696121E+01   0.0000000E+00   9.0951805E+00  -2.0167507E+01   0.0000000E+00   5.2316966E+00  -2.1167419E+01   0.0000000E+00   6.1228423E+00  -2.2355358E+01   0.0000000E+00   6.8841500E+00  -2.3781986E+01   0.0000000E+00   7.4555545E+00  -2.5526978E+01   0.0000000E+00   7.8137751E+00  -2.7869736E+01   0.0000000E+00   7.7348356E+00  -3.1846298E+01   0.0000000E+00   8.0563116E+00  -3.6415012E+01   0.0000000E+00   1.0688556E+01  -2.2373413E+01   0.0000000E+00   6.9420071E+00  -2.3530273E+01   0.0000000E+00   8.1076670E+00  -2.4871790E+01   0.0000000E+00   9.2079086E+00  -2.6490345E+01   0.0000000E+00   1.0087976E+01  -2.8597343E+01   0.0000000E+00   1.0452468E+01  -3.1582378E+01   0.0000000E+00   1.0362720E+01  -3.5935543E+01   0.0000000E+00   1.0452287E+01  -4.1877949E+01   0.0000000E+00   1.2390961E+01  -2.4263710E+01   0.0000000E+00   8.8102322E+00  -2.5518921E+01   0.0000000E+00   1.0423747E+01  -2.7003098E+01   0.0000000E+00   1.1943480E+01  -2.8759480E+01   0.0000000E+00   1.3414106E+01  -3.0995716E+01   0.0000000E+00   1.4825067E+01  -3.4178123E+01   0.0000000E+00   1.5571979E+01  -3.9420372E+01   0.0000000E+00   1.4245954E+01  -4.6107872E+01   0.0000000E+00   1.4641665E+01  -2.5863764E+01   0.0000000E+00   1.1079426E+01  -2.7177944E+01   0.0000000E+00   1.3300052E+01  -2.8693727E+01   0.0000000E+00   1.5717254E+01  -3.0455494E+01   0.0000000E+00   1.8597282E+01  -3.2509384E+01   0.0000000E+00   2.1916475E+01  -3.5400219E+01   0.0000000E+00   2.3933262E+01  -4.0881821E+01   0.0000000E+00   1.9985834E+01  -4.8535011E+01   0.0000000E+00   1.7303242E+01  -2.6653509E+01   0.0000000E+00   1.3771576E+01  -2.8061722E+01   0.0000000E+00   1.6723297E+01  -2.9703176E+01   0.0000000E+00   2.0097149E+01  -3.1428272E+01   0.0000000E+00   2.4527050E+01  -3.3306866E+01   0.0000000E+00   2.9977398E+01  -3.5650890E+01   0.0000000E+00   3.3208073E+01  -4.0530254E+01   0.0000000E+00   2.6236563E+01  -4.6925804E+01   0.0000000E+00   2.0058199E+01  -2.5929735E+01   0.0000000E+00   1.6343021E+01  -2.7307138E+01   0.0000000E+00   1.9938679E+01  -2.8851370E+01   0.0000000E+00   2.4181959E+01  -3.0398756E+01   0.0000000E+00   2.9740065E+01  -3.1792191E+01   0.0000000E+00   3.6514317E+01  -3.3300484E+01   0.0000000E+00   4.0213245E+01  -3.6433750E+01   0.0000000E+00   3.0930941E+01  -3.8674473E+01   0.0000000E+00   2.2475796E+01  -1.9710699E+01   0.0000000E+00   1.8238295E+01  -2.0880886E+01   0.0000000E+00   2.2234631E+01  -2.2190720E+01   0.0000000E+00   2.6912016E+01  -2.3507832E+01   0.0000000E+00   3.2926018E+01  -2.4717651E+01   0.0000000E+00   4.0031021E+01  -2.5771097E+01   0.0000000E+00   4.3490940E+01  -2.6711542E+01   0.0000000E+00   3.2717171E+01  -2.7360271E+01   0.0000000E+00   2.4079891E+01  -1.2398684E+01   0.0000000E+00   1.9493740E+01  -1.3210754E+01   0.0000000E+00   2.3693150E+01  -1.4097653E+01   0.0000000E+00   2.8513527E+01  -1.4976482E+01   0.0000000E+00   3.4561378E+01  -1.5753827E+01   0.0000000E+00   4.1491215E+01  -1.6360781E+01   0.0000000E+00   4.4535202E+01  -1.6778997E+01   0.0000000E+00   3.3419582E+01  -1.7044167E+01   0.0000000E+00   2.5144196E+01  -6.6434994E+00   0.0000000E+00   2.0314247E+01  -7.1238222E+00   0.0000000E+00   2.4610811E+01  -7.6259737E+00   0.0000000E+00   2.9462408E+01  -8.0974674E+00   0.0000000E+00   3.5434887E+01  -8.4831333E+00   0.0000000E+00   4.2129234E+01  -8.7444992E+00   0.0000000E+00   4.4852924E+01  -8.8764296E+00   0.0000000E+00   3.3701424E+01  -8.9060993E+00   0.0000000E+00   2.5883095E+01  -2.3344841E+00   0.0000000E+00   2.0747200E+01  -2.5285399E+00   0.0000000E+00   2.5070135E+01  -2.7108839E+00   0.0000000E+00   2.9899044E+01  -2.8559582E+00   0.0000000E+00   3.5782768E+01  -2.9433908E+00   0.0000000E+00   4.2310486E+01  -2.9627948E+00   0.0000000E+00   4.4880924E+01  -2.9186606E+00   0.0000000E+00   3.3843826E+01  -2.8254535E+00   0.0000000E+00   2.6402756E+01   1.1172050E+00   0.0000000E+00   2.0846283E+01   1.1690961E+00   0.0000000E+00   2.5149778E+01   1.2525618E+00   0.0000000E+00   2.9934429E+01   1.3693370E+00   0.0000000E+00   3.5753819E+01   1.5123805E+00   0.0000000E+00   4.2217339E+01   1.6704895E+00   0.0000000E+00   4.4803753E+01   1.8319556E+00   0.0000000E+00   3.3969402E+01   1.9917750E+00   0.0000000E+00   2.6770540E+01   4.3127460E+00   0.0000000E+00   2.0656340E+01   4.5834494E+00   0.0000000E+00   2.4905434E+01   4.9007607E+00   0.0000000E+00   2.9634418E+01   5.2451048E+00   0.0000000E+00   3.5418003E+01   5.5886278E+00   0.0000000E+00   4.1908989E+01   5.9052253E+00   0.0000000E+00   4.4635899E+01   6.1775551E+00   0.0000000E+00   3.4013634E+01   6.4023943E+00   0.0000000E+00   2.6879656E+01   7.5588951E+00   0.0000000E+00   2.0210649E+01   8.0313444E+00   0.0000000E+00   2.4365936E+01   8.5676899E+00   0.0000000E+00   2.8997219E+01   9.1287775E+00   0.0000000E+00   3.4686638E+01   9.6700668E+00   0.0000000E+00   4.1123726E+01   1.0154649E+01   0.0000000E+00   4.3940651E+01   1.0559389E+01   0.0000000E+00   3.3660744E+01   1.0875487E+01   0.0000000E+00   2.6696457E+01   1.0829508E+01   0.0000000E+00   1.9532587E+01   1.1489973E+01   0.0000000E+00   2.3550268E+01   1.2235406E+01   0.0000000E+00   2.8031132E+01   1.3009431E+01   0.0000000E+00   3.3548389E+01   1.3752094E+01   0.0000000E+00   3.9820362E+01   1.4417007E+01   0.0000000E+00   4.2648472E+01   1.4974059E+01   0.0000000E+00   3.2846184E+01   1.5407132E+01   0.0000000E+00   2.6189554E+01   1.3912906E+01   0.0000000E+00   1.8643480E+01   1.4744486E+01   0.0000000E+00   2.2478018E+01   1.5684430E+01   0.0000000E+00   2.6752033E+01   1.6661112E+01   0.0000000E+00   3.2016499E+01   1.7600143E+01   0.0000000E+00   3.8015068E+01   1.8445196E+01   0.0000000E+00   4.0783539E+01   1.9158968E+01   0.0000000E+00   3.1604691E+01   1.9718819E+01   0.0000000E+00   2.5391987E+01   1.6559696E+01   0.0000000E+00   1.7569717E+01   1.7541155E+01   0.0000000E+00   2.1177753E+01   1.8652943E+01   0.0000000E+00   2.5191013E+01   1.9809855E+01   0.0000000E+00   3.0129110E+01   2.0925703E+01   0.0000000E+00   3.5761776E+01   2.1934231E+01   0.0000000E+00   3.8422855E+01   2.2791218E+01   0.0000000E+00   3.0004313E+01   2.3469271E+01   0.0000000E+00   2.4359184E+01   1.8182209E+01   0.0000000E+00   1.6353729E+01   1.9400496E+01   0.0000000E+00   1.9699600E+01   2.0783199E+01   0.0000000E+00   2.3403719E+01   2.2208931E+01   0.0000000E+00   2.7950947E+01   2.3496155E+01   0.0000000E+00   3.3148880E+01   2.4637798E+01   0.0000000E+00   3.5673084E+01   2.5283907E+01   0.0000000E+00   2.7957626E+01   2.6384626E+01   0.0000000E+00   2.3147463E+01   1.8474218E+01   0.0000000E+00   1.5045957E+01   1.9824291E+01   0.0000000E+00   1.8117287E+01   2.1468285E+01   0.0000000E+00   2.1476130E+01   2.3362551E+01   0.0000000E+00   2.5577894E+01   2.5156658E+01   0.0000000E+00   3.0280491E+01   2.6415497E+01   0.0000000E+00   3.2660480E+01   2.6955204E+01   0.0000000E+00   2.5786655E+01   2.8399057E+01   0.0000000E+00   2.1895344E+01   1.8299934E+01   0.0000000E+00   1.3695571E+01   1.9668036E+01   0.0000000E+00   1.6470551E+01   2.1364777E+01   0.0000000E+00   1.9477341E+01   2.3443377E+01   0.0000000E+00   2.3104168E+01   2.5682665E+01   0.0000000E+00   2.7276506E+01   2.7338354E+01   0.0000000E+00   2.9509729E+01   2.8187872E+01   0.0000000E+00   2.3690807E+01   2.9866802E+01   0.0000000E+00   2.0678341E+01   1.7868277E+01   0.0000000E+00   1.2349079E+01   1.9264328E+01   0.0000000E+00   1.4834593E+01   2.0988735E+01   0.0000000E+00   1.7466419E+01   2.3133078E+01   0.0000000E+00   2.0630440E+01   2.5624098E+01   0.0000000E+00   2.4271906E+01   2.7717497E+01   0.0000000E+00   2.6344448E+01   2.9209505E+01   0.0000000E+00   2.1727787E+01   3.1084759E+01   0.0000000E+00   1.9385303E+01   1.7293877E+01   0.0000000E+00   1.1059893E+01   1.8682709E+01   0.0000000E+00   1.3258375E+01   2.0441858E+01   0.0000000E+00   1.5568286E+01   2.2655949E+01   0.0000000E+00   1.8257065E+01   2.5423702E+01   0.0000000E+00   2.1410881E+01   2.7964249E+01   0.0000000E+00   2.3290527E+01   3.0141380E+01   0.0000000E+00   1.9694540E+01   3.2476456E+01   0.0000000E+00   1.8047373E+01   1.6694443E+01   0.0000000E+00   9.8151855E+00   1.8073660E+01   0.0000000E+00   1.1750630E+01   1.9822315E+01   0.0000000E+00   1.3829344E+01   2.2095146E+01   0.0000000E+00   1.6148609E+01   2.5167274E+01   0.0000000E+00   1.8865631E+01   2.8425154E+01   0.0000000E+00   2.0484673E+01   3.1609749E+01   0.0000000E+00   1.7788881E+01   3.4657448E+01   0.0000000E+00   1.6958017E+01   1.6001854E+01   0.0000000E+00   8.6659431E+00   1.7426056E+01   0.0000000E+00   1.0391105E+01   1.9173462E+01   0.0000000E+00   1.2231382E+01   2.1563154E+01   0.0000000E+00   1.4386065E+01   2.4993910E+01   0.0000000E+00   1.6743244E+01   2.9235044E+01   0.0000000E+00   1.8067160E+01   3.3796642E+01   0.0000000E+00   1.6165062E+01   3.8290611E+01   0.0000000E+00   1.6353676E+01   1.5288041E+01   0.0000000E+00   7.6488762E+00   1.6716663E+01   0.0000000E+00   9.1915817E+00   1.8569162E+01   0.0000000E+00   1.0843033E+01   2.1137234E+01   0.0000000E+00   1.2945391E+01   2.4878374E+01   0.0000000E+00   1.5166077E+01   3.0122322E+01   0.0000000E+00   1.6231358E+01   3.6312084E+01   0.0000000E+00   1.4987036E+01   4.2424847E+01   0.0000000E+00   1.6096029E+01   1.4588340E+01   0.0000000E+00   6.7586570E+00   1.6035952E+01   0.0000000E+00   8.1213284E+00   1.8034678E+01   0.0000000E+00   9.7489758E+00   2.0921741E+01   0.0000000E+00   1.1847122E+01   2.4947371E+01   0.0000000E+00   1.4053835E+01   3.0837536E+01   0.0000000E+00   1.5043219E+01   3.7728340E+01   0.0000000E+00   1.4665017E+01   4.4839722E+01   0.0000000E+00   1.6722538E+01   1.3931750E+01   0.0000000E+00   5.9131131E+00   1.5467534E+01   0.0000000E+00   7.2266984E+00   1.7682072E+01   0.0000000E+00   8.9283762E+00   2.0897091E+01   0.0000000E+00   1.1078566E+01   2.5258398E+01   0.0000000E+00   1.3283155E+01   3.1550980E+01   0.0000000E+00   1.4164442E+01   3.8296265E+01   0.0000000E+00   1.4802325E+01   1.3403288E+01   0.0000000E+00   5.2120452E+00   1.5081800E+01   0.0000000E+00   6.5697718E+00   1.7567999E+01   0.0000000E+00   8.3796291E+00   2.1129105E+01   0.0000000E+00   1.0659179E+01   2.6141441E+01   0.0000000E+00   1.2631545E+01   3.2426243E+01   0.0000000E+00   1.3414065E+01   3.8801167E+01   0.0000000E+00   1.4851141E+01   1.3047297E+01   0.0000000E+00   4.7052708E+00   1.4940966E+01   0.0000000E+00   6.1833239E+00   1.7792311E+01   0.0000000E+00   8.1677618E+00   2.1989182E+01   0.0000000E+00   1.0447008E+01   2.7544075E+01   0.0000000E+00   1.1898108E+01   3.3249107E+01   0.0000000E+00   1.3113077E+01   1.2960456E+01   0.0000000E+00   4.4965978E+00   1.5194842E+01   0.0000000E+00   6.1749535E+00   1.8635214E+01   0.0000000E+00   8.3689337E+00   2.3473108E+01   0.0000000E+00   1.0318230E+01   2.8704033E+01   0.0000000E+00   1.1762298E+01   3.3611710E+01   0.0000000E+00   1.3323803E+01   1.3328785E+01   0.0000000E+00   4.7400107E+00   1.6158615E+01   0.0000000E+00   6.7273788E+00   2.0069885E+01   0.0000000E+00   8.8962135E+00   2.4950644E+01   0.0000000E+00   1.0522402E+01   2.9429981E+01   0.0000000E+00   1.2076697E+01   1.4563208E+01   0.0000000E+00   5.6370707E+00   1.7849825E+01   0.0000000E+00   7.6566467E+00   2.1721004E+01   0.0000000E+00   9.6025591E+00   2.5980934E+01   0.0000000E+00   1.1037931E+01   1.6825659E+01   0.0000000E+00   6.6953788E+00   1.9875942E+01   0.0000000E+00   8.6215563E+00   2.3085884E+01   0.0000000E+00   1.0316931E+01   2.6155121E+01   0.0000000E+00   1.1550968E+01   1.8841394E+01   0.0000000E+00   7.7743921E+00   2.0987097E+01   0.0000000E+00   9.5526466E+00   1.9489611E+01   0.0000000E+00   8.8269787E+00 
StrainDot 3 2975 float
  0.0000000E+00   0.0000000E+00   0.0000000E+00   0.0000000E+00   0.0000000E+00   0.0000000E+00   0.0000000E+00   0.0000000E+00   0.0000000E+00   0.0000000E+00   0.0000000E+00   0.0000000E+00   0.0000000E+00   0.0000000E+00   0.0000000E+00   0.0000000E+00   0.0000000E+00   0.0000000E+00   0.0000000E+00   0.0000000E+00   0.0000000E+00   0.0000000E+00   0.0000000E+00   0.0000000E+00   0.0000000E+00   0.0000000E+00   0.0000000E+00   0.0000000E+00   0.0000000E+00   0.0000000E+00   0.0000000E+00   0.0000000E+00   0.0000000E+00   0.0000000E+00   0.0000000E+00   0.0000000E+00   0.0000000E+00   0.0000000E+00   0.0000000E+00  -1.0944154E-09   0.0000000E+00  -2.7611463E-10   0.0000000E+00   0.0000000E+00   0.0000000E+00  -5.3460374E-09   0.0000000E+00  -2.0760833E-09  -3.8717278E-08   0.0000000E+00  -1.1779576E-08  -9.6241841E-09   0.0000000E+00  -4.5800377E-09  -7.0355057E-08   0.0000000E+00  -3.2432968E-08  -2.3992092E-07   0.0000000E+00  -8.5275950E-08  -7.8776331E-08   0.0000000E+00  -4.4239364E-08  -3.0649750E-07   0.0000000E+00  -1.6280021E-07  -8.0801016E-07   0.0000000E+00  -3.2763651E-07  -2.7682376E-07   0.0000000E+00  -1.8012665E-07  -8.4054784E-07   0.0000000E+00  -5.1008141E-07  -1.9632366E-06   0.0000000E+00  -9.0241303E-07  -6.5196315E-07   0.0000000E+00  -4.9198388E-07  -1.7572756E-06   0.0000000E+00  -1.2207535E-06  -3.8558323E-06   0.0000000E+00  -2.0143016E-06  -1.2092398E-06   0.0000000E+00  -1.0604047E-06  -3.0756189E-06   0.0000000E+00  -2.4465273E-06  -6.5408462E-06   0.0000000E+00  -3.8812668E-06  -1.9277395E-06   0.0000000E+00  -1.9526599E-06  -4.7857698E-06   0.0000000E+00  -4.3237919E-06  -1.0040038E-05   0.0000000E+00  -6.7065098E-06  -2.8095494E-06   0.0000000E+00  -3.2253481E-06  -6.9390153E-06   0.0000000E+00  -6.9798275E-06  -1.4500404E-05   0.0000000E+00  -1.0681676E-05  -3.9324195E-06   0.0000000E+00  -4.9511623E-06  -9.7473321E-06   0.0000000E+00  -1.0582559E-05  -2.0380432E-05   0.0000000E+00  -1.6058351E-05  -5.4926986E-06   0.0000000E+00  -7.2606217E-06  -1.3666089E-05   0.0000000E+00  -1.5420534E-05  -2.8580551E-05   0.0000000E+00  -2.3273076E-05  -7.8770117E-06   0.0000000E+00  -1.0385680E-05  -1.9591731E-05   0.0000000E+00  -2.1989059E-05  -4.0841722E-05   0.0000000E+00  -3.3087155E-05  -1.1845568E-05   0.0000000E+00  -1.4739117E-05  -2.9279488E-05   0.0000000E+00  -3.1171814E-05  -6.0528164E-05   0.0000000E+00  -4.6857989E-05  -1.8856404E-05   0.0000000E+00  -2.1171731E-05  -4.6021098E-05   0.0000000E+00  -4.4710298E-05  -9.3797658E-05   0.0000000E+00  -6.7151101E-05  -3.1716063E-05   0.0000000E+00  -3.1688960E-05  -7.5728094E-05   0.0000000E+00  -6.6175213E-05  -1.5116973E-04   0.0000000E+00  -9.8820004E-05  -5.5310713E-05   0.0000000E+00  -5.1208528E-05  -1.2706153E-04   0.0000000E+00  -1.0276583E-04  -2.4678634E-04   0.0000000E+00  -1.5068312E-04  -9.5521769E-05   0.0000000E+00  -9.1631569E-05  -2.0646799E-04   0.0000000E+00  -1.6857646E-04  -3.8905905E-04   0.0000000E+00  -2.3798597E-04  -3.1180072E-04   0.0000000E+00  -2.8866719E-04  -5.7134713E-04   0.0000000E+00  -3.8517153E-04   0.0000000E+00   0.0000000E+00   0.0000000E+00   0.0000000E+00   0.0000000E+00   0.0000000E+00   0.0000000E+00   0.0000000E+00   0.0000000E+00   0.0000000E+00   0.0000000E+00   0.0000000E+00   0.0000000E+00   0.0000000E+00   0.0000000E+00   0.0000000E+00   0.0000000E+00   0.0000000E+00   0.0000000E+00   0.0000000E+00   0.0000000E+00   0.0000000E+00   0.0000000E+00   0.0000000E+00   0.0000000E+00   0.0000000E+00   0.0000000E+00   0.0000000E+00   0.0000000E+00   0.0000000E+00   0.0000000E+00   0.0000000E+00   0.0000000E+00   0.0000000E+00   0.0000000E+00   0.0000000E+00   0.0000000E+00   0.0000000E+00   0.0000000E+00   0.0000000E+00   0.0000000E+00   0.0000000E+00   0.0000000E+00   0.0000000E+00   0.0000000E+00   0.0000000E+00   0.0000000E+00   0.0000000E+00   0.0000000E+00   0.0000000E+00   0.0000000E+00   0.0000000E+00   0.0000000E+00   0.0000000E+00   0.0000000E+00   0.0000000E+00   0.0000000E+00   0.0000000E+00   0.0000000E+00   0.0000000E+00   0.0000000E+00   0.0000000E+00   0.0000000E+00   0.0000000E+00   0.0000000E+00   0.0000000E+00   0.0000000E+00   0.0000000E+00   0.0000000E+00   0.0000000E+00   0.0000000E+00   0.0000000E+00   0.0000000E+00   0.0000000E+00   0.0000000E+00  -2.2856725E-10   0.0000000E+00  -1.8715987E-11  -1.5112620E-09   0.0000000E+00  -6.3209785E-11  -3.6611310E-09   0.0000000E+00  -5.7258462E-11  -5.5341718E-09   0.0000000E+00  -7.5278768E-12  -6.5606658E-09   0.0000000E+00   1.2254794E-11  -7.2757862E-09   0.0000000E+00   1.4304629E-11  -7.8605593E-09   0.0000000E+00   1.4873632E-11  -1.0113130E-08   0.0000000E+00  -1.7516973E-09  -3.4895457E-08   0.0000000E+00  -3.7966581E-09  -7.7526508E-08   0.0000000E+00  -4.9303122E-09  -1.3190524E-07   0.0000000E+00  -4.3139852E-09  -1.8684567E-07   0.0000000E+00  -2.2276567E-09  -2.3254783E-07   0.0000000E+00   1.4195765E-10  -2.6521681E-07   0.0000000E+00   1.5183101E-09  -2.8803530E-07   0.0000000E+00   1.7878174E-09  -1.2564792E-07   0.0000000E+00  -2.5924038E-08  -2.8410292E-07   0.0000000E+00  -3.6931009E-08  -5.1249714E-07   0.0000000E+00  -3.9606149E-08  -7.8453292E-07   0.0000000E+00  -3.2483108E-08  -1.0586771E-06   0.0000000E+00  -1.7959975E-08  -1.2985507E-06   0.0000000E+00  -1.7309038E-09  -1.4877636E-06   0.0000000E+00   1.0334610E-08  -1.6292340E-06   0.0000000E+00   1.6096219E-08  -5.7571634E-07   0.0000000E+00  -1.3768560E-07  -1.1145800E-06   0.0000000E+00  -1.6765750E-07  -1.8437565E-06   0.0000000E+00  -1.6545872E-07  -2.6874982E-06   0.0000000E+00  -1.3037956E-07  -3.5322869E-06   0.0000000E+00  -7.1478723E-08  -4.2815382E-06   0.0000000E+00  -7.6695423E-09  -4.8903071E-06   0.0000000E+00   4.1574452E-08  -5.3615368E-06   0.0000000E+00   6.8631429E-08  -1.7016423E-06   0.0000000E+00  -4.6158479E-07  -3.0600645E-06   0.0000000E+00  -5.2079190E-07  -4.8441675E-06   0.0000000E+00  -4.9170370E-07  -6.8744639E-06   0.0000000E+00  -3.7727213E-07  -8.8946672E-06   0.0000000E+00  -2.0261197E-07  -1.0691306E-05   0.0000000E+00  -1.7521559E-08  -1.2166220E-05   0.0000000E+00   1.2673554E-07  -1.3323686E-05   0.0000000E+00   2.0923869E-07  -3.8679846E-06   0.0000000E+00  -1.1841566E-06  -6.6868024E-06   0.0000000E+00  -1.2813659E-06  -1.0330151E-05   0.0000000E+00  -1.1779948E-06  -1.4433280E-05   0.0000000E+00  -8.8540793E-07  -1.8486282E-05   0.0000000E+00  -4.6294949E-07  -2.2078915E-05   0.0000000E+00  -2.4231920E-08  -2.5033014E-05   0.0000000E+00   3.1701498E-07  -2.7361788E-05   0.0000000E+00   5.1485802E-07  -7.3319056E-06   0.0000000E+00  -2.5410259E-06  -1.2408754E-05   0.0000000E+00  -2.6847094E-06  -1.8913397E-05   0.0000000E+00  -2.4254934E-06  -2.6176742E-05   0.0000000E+00  -1.7887002E-06  -3.3282562E-05   0.0000000E+00  -9.0369895E-07  -3.9535611E-05   0.0000000E+00  -5.9837038E-09  -4.4661425E-05   0.0000000E+00   6.8470689E-07  -4.8699945E-05   0.0000000E+00   1.0851437E-06  -1.2216095E-05   0.0000000E+00  -4.7891481E-06  -2.0446549E-05   0.0000000E+00  -4.9892437E-06  -3.0914922E-05   0.0000000E+00  -4.4483863E-06  -4.2493702E-05   0.0000000E+00  -3.2138005E-06  -5.3684198E-05   0.0000000E+00  -1.5550582E-06  -6.3446925E-05   0.0000000E+00   7.9408153E-08  -7.1407208E-05   0.0000000E+00   1.3170214E-06  -7.7652992E-05   0.0000000E+00   2.0289976E-06  -1.8594372E-05   0.0000000E+00  -8.1716626E-06  -3.0937063E-05   0.0000000E+00  -8.4359135E-06  -4.6481338E-05   0.0000000E+00  -7.4142076E-06  -2.6756094E-05   0.0000000E+00  -1.2907229E-05  -4.4336048E-05   0.0000000E+00  -1.3227997E-05  -3.7558373E-05   0.0000000E+00  -1.9273499E-05  -6.2079474E-05   0.0000000E+00  -1.9604937E-05  -5.2592779E-05   0.0000000E+00  -2.7781758E-05  -8.6746557E-05   0.0000000E+00  -2.8079094E-05  -7.4772885E-05   0.0000000E+00  -3.9343347E-05  -1.2259296E-04   0.0000000E+00  -3.9547729E-05  -1.0961894E-04   0.0000000E+00  -5.5575016E-05  -1.7744643E-04   0.0000000E+00  -5.5568024E-05  -1.6695753E-04   0.0000000E+00  -7.9466234E-05  -2.6477076E-04   0.0000000E+00  -7.8975012E-05  -2.6298437E-04   0.0000000E+00  -1.1657362E-04  -4.0581674E-04   0.0000000E+00  -1.1504604E-04  -4.1911798E-04   0.0000000E+00  -1.7694943E-04  -6.2832318E-04   0.0000000E+00  -1.7357514E-04  -6.4962293E-04   0.0000000E+00  -2.7769685E-04  -9.5421332E-04   0.0000000E+00  -2.7186077E-04  -9.4670465E-04   0.0000000E+00  -4.4460516E-04  -1.3822587E-03   0.0000000E+00  -4.3635172E-04   0.0000000E+00   0.0000000E+00   0.0000000E+00   0.0000000E+00   0.0000000E+00   0.0000000E+00   0.0000000E+00   0.0000000E+00   0.0000000E+00   0.0000000E+00   0.0000000E+00   0.0000000E+00   0.0000000E+00   0.0000000E+00   0.0000000E+00   0.0000000E+00   0.0000000E+00   0.0000000E+00   0.0000000E+00   0.0000000E+00   0.0000000E+00   0.0000000E+00   0.0000000E+00   0.0000000E+00   0.0000000E+00   0.0000000E+00   0.0000000E+00   0.0000000E+00   0.0000000E+00   0.0000000E+00   0.0000000E+00   0.0000000E+00   0.0000000E+00   0.0000000E+00   0.0000000E+00   0.0000000E+00   0.0000000E+00   0.0000000E+00   0.0000000E+00   0.0000000E+00   0.0000000E+00   0.0000000E+00   0.0000000E+00   0.0000000E+00   0.0000000E+00   0.0000000E+00   0.0000000E+00   0.0000000E+00   0.0000000E+00   0.0000000E+00   0.0000000E+00   0.0000000E+00   0.0000000E+00   0.0000000E+00   0.0000000E+00   0.0000000E+00   0.0000000E+00   0.0000000E+00   0.0000000E+00   0.0000000E+00   0.0000000E+00   0.0000000E+00   0.0000000E+00   0.0000000E+00   0.0000000E+00   0.0000000E+00   0.0000000E+00   0.0000000E+00   0.0000000E+00   0.0000000E+00   0.0000000E+00   0.0000000E+00   0.0000000E+00   0.0000000E+00   0.0000000E+00   0.0000000E+00   0.0000000E+00   0.0000000E+00   0.0000000E+00   0.0000000E+00   0.0000000E+00  -8.3328562E-09   0.0000000E+00   1.4254182E-11  -8.7106518E-09   0.0000000E+00   1.3056722E-11  -9.0113312E-09   0.0000000E+00   1.1872869E-11  -9.2496100E-09   0.0000000E+00   1.0910271E-11  -9.4363752E-09   0.0000000E+00   1.0123662E-11  -9.5792068E-09   0.0000000E+00   9.4450142E-12  -9.6838395E-09   0.0000000E+00   8.7689604E-12  -9.7549044E-09   0.0000000E+00   8.1384292E-12  -9.7960076E-09   0.0000000E+00   7.6905019E-12  -3.0600063E-07   0.0000000E+00   1.7545675E-09  -3.2044036E-07   0.0000000E+00   1.6466064E-09  -3.3195428E-07   0.0000000E+00   1.5151111E-09  -3.4106009E-07   0.0000000E+00   1.3924848E-09  -3.4817293E-07   0.0000000E+00   1.2872995E-09  -3.5360728E-07   0.0000000E+00   1.1953551E-09  -3.5759726E-07   0.0000000E+00   1.1126584E-09  -3.6031813E-07   0.0000000E+00   1.0424950E-09  -3.6189741E-07   0.0000000E+00   9.9382325E-10  -1.7349792E-06   0.0000000E+00   1.6914200E-08  -1.8182030E-06   0.0000000E+00   1.6097765E-08  -1.8844914E-06   0.0000000E+00   1.4951071E-08  -1.9367924E-06   0.0000000E+00   1.3781862E-08  -1.9775221E-06   0.0000000E+00   1.2725851E-08  -2.0085613E-06   0.0000000E+00   1.1801943E-08  -2.0313273E-06   0.0000000E+00   1.1002106E-08  -2.0468588E-06   0.0000000E+00   1.0352433E-08  -2.0558839E-06   0.0000000E+00   9.9171578E-09  -5.7213074E-06   0.0000000E+00   7.7163165E-08  -5.9992094E-06   0.0000000E+00   7.5190130E-08  -6.2186282E-06   0.0000000E+00   7.0329008E-08  -6.3912403E-06   0.0000000E+00   6.5033788E-08  -6.5252279E-06   0.0000000E+00   6.0066000E-08  -6.6270395E-06   0.0000000E+00   5.5684367E-08  -6.7015626E-06   0.0000000E+00   5.1957183E-08  -6.7523583E-06   0.0000000E+00   4.9009561E-08  -6.7818733E-06   0.0000000E+00   4.7076995E-08  -1.4218442E-05   0.0000000E+00   2.3952194E-07  -1.4912222E-05   0.0000000E+00   2.3862415E-07  -1.5454634E-05   0.0000000E+00   2.2465163E-07  -1.5879552E-05   0.0000000E+00   2.0828836E-07  -1.6208189E-05   0.0000000E+00   1.9249282E-07  -1.6457079E-05   0.0000000E+00   1.7843097E-07  -1.6638784E-05   0.0000000E+00   1.6656186E-07  -1.6762420E-05   0.0000000E+00   1.5732461E-07  -1.6834198E-05   0.0000000E+00   1.5135718E-07  -2.9170549E-05   0.0000000E+00   5.9058050E-07  -3.0577219E-05   0.0000000E+00   5.9286117E-07  -3.1674062E-05   0.0000000E+00   5.6180932E-07  -3.2528402E-05   0.0000000E+00   5.2187045E-07  -3.3186432E-05   0.0000000E+00   4.8251002E-07  -3.3682914E-05   0.0000000E+00   4.4717495E-07  -3.4044224E-05   0.0000000E+00   4.1743641E-07  -3.4289489E-05   0.0000000E+00   3.9450680E-07  -3.4431650E-05   0.0000000E+00   3.7983887E-07  -5.1836618E-05   0.0000000E+00   1.2393360E-06  -5.4275060E-05   0.0000000E+00   1.2446924E-06  -5.6173008E-05   0.0000000E+00   1.1830050E-06  -5.7643658E-05   0.0000000E+00   1.1000105E-06  -5.8770853E-05   0.0000000E+00   1.0170452E-06  -5.9617563E-05   0.0000000E+00   9.4207928E-07  -6.0231388E-05   0.0000000E+00   8.7901861E-07  -6.0646846E-05   0.0000000E+00   8.3065135E-07  -6.0887203E-05   0.0000000E+00   7.9990451E-07  -8.2485036E-05   0.0000000E+00   2.2996305E-06  -8.6227483E-05   0.0000000E+00   2.3033544E-06  -8.9129448E-05   0.0000000E+00   2.1890035E-06  -9.1365822E-05   0.0000000E+00   2.0358016E-06  -9.3069517E-05   0.0000000E+00   1.8811913E-06  -9.4342366E-05   0.0000000E+00   1.7408203E-06  -9.5260817E-05   0.0000000E+00   1.6226749E-06  -9.5880299E-05   0.0000000E+00   1.5323213E-06  -9.6237753E-05   0.0000000E+00   1.4751149E-06   0.0000000E+00   0.0000000E+00   0.0000000E+00   0.0000000E+00   0.0000000E+00   0.0000000E+00   0.0000000E+00   0.0000000E+00   0.0000000E+00   0.0000000E+00   0.0000000E+00   0.0000000E+00   0.0000000E+00   0.0000000E+00   0.0000000E+00   0.0000000E+00   0.0000000E+00   0.0000000E+00   0.0000000E+00   0.0000000E+00   0.0000000E+00   0.0000000E+00   0.0000000E+00   0.0000000E+00   0.0000000E+00   0.0000000E+00   0.0000000E+00   0.0000000E+00   0.0000000E+00   0.0000000E+00   0.0000000E+00   0.0000000E+00   0.0000000E+00   0.0000000E+00   0.0000000E+00   0.0000000E+00   0.0000000E+00   0.0000000E+00   0.0000000E+00   0.0000000E+00   0.0000000E+00   0.0000000E+00   0.0000000E+00   0.0000000E+00   0.0000000E+00   0.0000000E+00   0.0000000E+00   0.0000000E+00   0.0000000E+00   0.0000000E+00   0.0000000E+00   0.0000000E+00   0.0000000E+00   0.0000000E+00   0.0000000E+00   0.0000000E+00   0.0000000E+00   0.0000000E+00   0.0000000E+00   0.0000000E+00   0.0000000E+00   0.0000000E+00   0.0000000E+00   0.0000000E+00   0.0000000E+00   0.0000000E+00   0.0000000E+00   0.0000000E+00   0.0000000E+00   0.0000000E+00   0.0000000E+00   0.0000000E+00  -9.8094510E-09   0.0000000E+00   7.5264257E-12  -9.7960102E-09   0.0000000E+00   7.6904819E-12  -9.7549053E-09   0.0000000E+00   8.1384361E-12  -9.6838404E-09   0.0000000E+00   8.7689847E-12  -9.5792068E-09   0.0000000E+00   9.4450316E-12  -9.4363770E-09   0.0000000E+00   1.0123666E-11  -9.2496109E-09   0.0000000E+00   1.0910254E-11  -9.0113286E-09   0.0000000E+00   1.1872866E-11  -3.6241480E-07   0.0000000E+00   9.7624464E-10  -3.6189743E-07   0.0000000E+00   9.9382336E-10  -3.6031804E-07   0.0000000E+00   1.0424958E-09  -3.5759729E-07   0.0000000E+00   1.1126597E-09  -3.5360728E-07   0.0000000E+00   1.1953565E-09  -3.4817288E-07   0.0000000E+00   1.2872998E-09  -3.4106014E-07   0.0000000E+00   1.3924846E-09  -3.3195431E-07   0.0000000E+00   1.5151118E-09  -2.0588425E-06   0.0000000E+00   9.7626431E-09  -2.0558839E-06   0.0000000E+00   9.9171586E-09  -2.0468588E-06   0.0000000E+00   1.0352439E-08  -2.0313269E-06   0.0000000E+00   1.1002115E-08  -2.0085618E-06   0.0000000E+00   1.1801949E-08  -1.9775225E-06   0.0000000E+00   1.2725855E-08  -1.9367926E-06   0.0000000E+00   1.3781864E-08  -1.8844916E-06   0.0000000E+00   1.4951075E-08  -6.7915526E-06   0.0000000E+00   4.6399581E-08  -6.7818733E-06   0.0000000E+00   4.7076998E-08  -6.7523588E-06   0.0000000E+00   4.9009564E-08  -6.7015640E-06   0.0000000E+00   5.1957198E-08  -6.6270413E-06   0.0000000E+00   5.5684389E-08  -6.5252289E-06   0.0000000E+00   6.0066043E-08  -6.3912403E-06   0.0000000E+00   6.5033781E-08  -6.2186286E-06   0.0000000E+00   7.0329030E-08  -1.6857721E-05   0.0000000E+00   1.4928143E-07  -1.6834196E-05   0.0000000E+00   1.5135721E-07  -1.6762420E-05   0.0000000E+00   1.5732468E-07  -1.6638787E-05   0.0000000E+00   1.6656190E-07  -1.6457079E-05   0.0000000E+00   1.7843105E-07  -1.6208189E-05   0.0000000E+00   1.9249292E-07  -1.5879556E-05   0.0000000E+00   2.0828847E-07  -1.5454640E-05   0.0000000E+00   2.2465164E-07  -3.4478235E-05   0.0000000E+00   3.7476548E-07  -3.4431658E-05   0.0000000E+00   3.7983881E-07  -3.4289500E-05   0.0000000E+00   3.9450691E-07  -3.4044213E-05   0.0000000E+00   4.1743644E-07  -3.3682922E-05   0.0000000E+00   4.4717521E-07  -3.3186436E-05   0.0000000E+00   4.8251013E-07  -3.2528380E-05   0.0000000E+00   5.2187062E-07  -3.1674055E-05   0.0000000E+00   5.6180943E-07  -6.0965878E-05   0.0000000E+00   7.8931328E-07  -6.0887221E-05   0.0000000E+00   7.9990457E-07  -6.0646860E-05   0.0000000E+00   8.3065140E-07  -6.0231414E-05   0.0000000E+00   8.7901884E-07  -5.9617567E-05   0.0000000E+00   9.4207996E-07  -5.8770842E-05   0.0000000E+00   1.0170459E-06  -5.7643643E-05   0.0000000E+00   1.1000111E-06  -5.6173005E-05   0.0000000E+00   1.1830047E-06  -9.6354568E-05   0.0000000E+00   1.4554624E-06  -9.6237738E-05   0.0000000E+00   1.4751145E-06  -9.5880278E-05   0.0000000E+00   1.5323213E-06  -9.5260839E-05   0.0000000E+00   1.6226752E-06  -9.4342351E-05   0.0000000E+00   1.7408207E-06  -9.3069531E-05   0.0000000E+00   1.8811917E-06  -9.1365815E-05   0.0000000E+00   2.0358023E-06  -8.9129469E-05   0.0000000E+00   2.1890035E-06   0.0000000E+00   0.0000000E+00   0.0000000E+00   0.0000000E+00   0.0000000E+00   0.0000000E+00   0.0000000E+00   0.0000000E+00   0.0000000E+00   0.0000000E+00   0.0000000E+00   0.0000000E+00   0.0000000E+00   0.0000000E+00   0.0000000E+00   0.0000000E+00   0.0000000E+00   0.0000000E+00   0.0000000E+00   0.0000000E+00   0.0000000E+00   0.0000000E+00   0.0000000E+00   0.0000000E+00   0.0000000E+00   0.0000000E+00   0.0000000E+00   0.0000000E+00   0.0000000E+00   0.0000000E+00   0.0000000E+00   0.0000000E+00   0.0000000E+00   0.0000000E+00   0.0000000E+00   0.0000000E+00   0.0000000E+00   0.0000000E+00   0.0000000E+00   0.0000000E+00   0.0000000E+00   0.0000000E+00   0.0000000E+00   0.0000000E+00   0.0000000E+00   0.0000000E+00   0.0000000E+00   0.0000000E+00   0.0000000E+00   0.0000000E+00   0.0000000E+00   0.0000000E+00   0.0000000E+00   0.0000000E+00   0.0000000E+00   0.0000000E+00   0.0000000E+00   0.0000000E+00   0.0000000E+00   0.0000000E+00   0.0000000E+00   0.0000000E+00   0.0000000E+00   0.0000000E+00   0.0000000E+00   0.0000000E+00   0.0000000E+00   0.0000000E+00   0.0000000E+00   0.0000000E+00   0.0000000E+00   0.0000000E+00   0.0000000E+00   0.0000000E+00   0.0000000E+00   0.0000000E+00   0.0000000E+00   0.0000000E+00   0.0000000E+00   0.0000000E+00   0.0000000E+00  -8.7106509E-09   0.0000000E+00   1.3056759E-11  -8.3328580E-09   0.0000000E+00   1.4254206E-11  -7.8605629E-09   0.0000000E+00   1.4873620E-11  -7.2757862E-09   0.0000000E+00   1.4304604E-11  -6.5606658E-09   0.0000000E+00   1.2254777E-11  -5.5341745E-09   0.0000000E+00  -7.5278776E-12  -3.6611318E-09   0.0000000E+00  -5.7258472E-11  -1.5112624E-09   0.0000000E+00  -6.3209778E-11  -2.2856733E-10   0.0000000E+00  -1.8715982E-11  -3.2044036E-07   0.0000000E+00   1.6466077E-09  -3.0600074E-07   0.0000000E+00   1.7545686E-09  -2.8803532E-07   0.0000000E+00   1.7878173E-09  -2.6521681E-07   0.0000000E+00   1.5183088E-09  -2.3254788E-07   0.0000000E+00   1.4195640E-10  -1.8684571E-07   0.0000000E+00  -2.2276569E-09  -1.3190527E-07   0.0000000E+00  -4.3139856E-09  -7.7526543E-08   0.0000000E+00  -4.9303113E-09  -3.4895464E-08   0.0000000E+00  -3.7966577E-09  -1.8182030E-06   0.0000000E+00   1.6097768E-08  -1.7349793E-06   0.0000000E+00   1.6914198E-08  -1.6292342E-06   0.0000000E+00   1.6096221E-08  -1.4877635E-06   0.0000000E+00   1.0334608E-08  -1.2985506E-06   0.0000000E+00  -1.7309112E-09  -1.0586773E-06   0.0000000E+00  -1.7959977E-08  -7.8453314E-07   0.0000000E+00  -3.2483108E-08  -5.1249719E-07   0.0000000E+00  -3.9606142E-08  -2.8410304E-07   0.0000000E+00  -3.6930999E-08  -5.9992085E-06   0.0000000E+00   7.5190123E-08  -5.7213069E-06   0.0000000E+00   7.7163165E-08  -5.3615349E-06   0.0000000E+00   6.8631408E-08  -4.8903080E-06   0.0000000E+00   4.1574438E-08  -4.2815386E-06   0.0000000E+00  -7.6695414E-09  -3.5322878E-06   0.0000000E+00  -7.1478716E-08  -2.6874989E-06   0.0000000E+00  -1.3037953E-07  -1.8437570E-06   0.0000000E+00  -1.6545869E-07  -1.1145808E-06   0.0000000E+00  -1.6765749E-07  -1.4912223E-05   0.0000000E+00   2.3862421E-07  -1.4218442E-05   0.0000000E+00   2.3952191E-07  -1.3323689E-05   0.0000000E+00   2.0923868E-07  -1.2166217E-05   0.0000000E+00   1.2673551E-07  -1.0691305E-05   0.0000000E+00  -1.7521502E-08  -8.8946672E-06   0.0000000E+00  -2.0261193E-07  -6.8744657E-06   0.0000000E+00  -3.7727219E-07  -4.8441689E-06   0.0000000E+00  -4.9170370E-07  -3.0600654E-06   0.0000000E+00  -5.2079173E-07  -3.0577230E-05   0.0000000E+00   5.9286100E-07  -2.9170556E-05   0.0000000E+00   5.9058061E-07  -2.7361799E-05   0.0000000E+00   5.1485790E-07  -2.5033019E-05   0.0000000E+00   3.1701512E-07  -2.2078919E-05   0.0000000E+00  -2.4231738E-08  -1.8486284E-05   0.0000000E+00  -4.6294952E-07  -1.4433283E-05   0.0000000E+00  -8.8540816E-07  -1.0330153E-05   0.0000000E+00  -1.1779950E-06  -6.6868024E-06   0.0000000E+00  -1.2813657E-06  -5.4275071E-05   0.0000000E+00   1.2446922E-06  -5.1836636E-05   0.0000000E+00   1.2393359E-06  -4.8699956E-05   0.0000000E+00   1.0851450E-06  -4.4661439E-05   0.0000000E+00   6.8470706E-07  -3.9535615E-05   0.0000000E+00  -5.9833951E-09  -3.3282569E-05   0.0000000E+00  -9.0369866E-07  -2.6176740E-05   0.0000000E+00  -1.7887004E-06  -1.8913397E-05   0.0000000E+00  -2.4254939E-06  -1.2408756E-05   0.0000000E+00  -2.6847099E-06  -8.6227497E-05   0.0000000E+00   2.3033549E-06  -8.2485043E-05   0.0000000E+00   2.2996298E-06  -7.7652985E-05   0.0000000E+00   2.0289976E-06  -7.1407223E-05   0.0000000E+00   1.3170214E-06  -6.3446940E-05   0.0000000E+00   7.9408863E-08  -5.3684205E-05   0.0000000E+00  -1.5550584E-06  -4.2493706E-05   0.0000000E+00  -3.2138012E-06  -3.0914940E-05   0.0000000E+00  -4.4483863E-06  -2.0446552E-05   0.0000000E+00  -4.9892437E-06  -4.6481342E-05   0.0000000E+00  -7.4142085E-06  -3.0937063E-05   0.0000000E+00  -8.4359153E-06  -4.4336055E-05   0.0000000E+00  -1.3227999E-05  -6.2079482E-05   0.0000000E+00  -1.9604940E-05  -8.6746586E-05   0.0000000E+00  -2.8079108E-05  -1.2259302E-04   0.0000000E+00  -3.9547729E-05  -1.7744653E-04   0.0000000E+00  -5.5568020E-05  -2.6477073E-04   0.0000000E+00  -7.8975027E-05  -4.0581671E-04   0.0000000E+00  -1.1504602E-04  -6.2832306E-04   0.0000000E+00  -1.7357519E-04  -9.5421361E-04   0.0000000E+00  -2.7186083E-04  -1.3822593E-03   0.0000000E+00  -4.3635175E-04   0.0000000E+00   0.0000000E+00   0.0000000E+00   0.0000000E+00   0.0000000E+00   0.0000000E+00   0.0000000E+00   0.0000000E+00   0.0000000E+00   0.0000000E+00   0.0000000E+00   0.0000000E+00   0.0000000E+00   0.0000000E+00   0.0000000E+00   0.0000000E+00   0.0000000E+00   0.0000000E+00   0.0000000E+00   0.0000000E+00   0.0000000E+00   0.0000000E+00   0.0000000E+00   0.0000000E+00   0.0000000E+00   0.0000000E+00   0.0000000E+00   0.0000000E+00   0.0000000E+00   0.0000000E+00   0.0000000E+00   0.0000000E+00   0.0000000E+00   0.0000000E+00   0.0000000E+00   0.0000000E+00   0.0000000E+00   0.0000000E+00   0.0000000E+00   0.0000000E+00   0.0000000E+00   0.0000000E+00   0.0000000E+00   0.0000000E+00   0.0000000E+00  -1.0113133E-08   0.0000000E+00  -1.7516965E-09  -1.0944160E-09   0.0000000E+00  -2.7611452E-10   0.0000000E+00   0.0000000E+00   0.0000000E+00   0.0000000E+00   0.0000000E+00   0.0000000E+00  -1.2564794E-07   0.0000000E+00  -2.5924034E-08  -3.8717300E-08   0.0000000E+00  -1.1779571E-08  -5.3460396E-09   0.0000000E+00  -2.0760831E-09   0.0000000E+00   0.0000000E+00   0.0000000E+00  -5.7571663E-07   0.0000000E+00  -1.3768557E-07  -2.3992101E-07   0.0000000E+00  -8.5275957E-08  -7.0355071E-08   0.0000000E+00  -3.2432965E-08  -9.6241859E-09   0.0000000E+00  -4.5800381E-09  -1.7016433E-06   0.0000000E+00  -4.6158473E-07  -8.0801027E-07   0.0000000E+00  -3.2763657E-07  -3.0649753E-07   0.0000000E+00  -1.6280019E-07  -7.8776381E-08   0.0000000E+00  -4.4239371E-08  -3.8679850E-06   0.0000000E+00  -1.1841569E-06  -1.9632378E-06   0.0000000E+00  -9.0241321E-07  -8.4054784E-07   0.0000000E+00  -5.1008129E-07  -2.7682390E-07   0.0000000E+00  -1.8012665E-07  -7.3319084E-06   0.0000000E+00  -2.5410259E-06  -3.8558342E-06   0.0000000E+00  -2.0143023E-06  -1.7572761E-06   0.0000000E+00  -1.2207536E-06  -6.5196360E-07   0.0000000E+00  -4.9198400E-07  -1.2216100E-05   0.0000000E+00  -4.7891481E-06  -6.5408481E-06   0.0000000E+00  -3.8812673E-06  -3.0756194E-06   0.0000000E+00  -2.4465273E-06  -1.2092403E-06   0.0000000E+00  -1.0604048E-06  -1.8594377E-05   0.0000000E+00  -8.1716635E-06  -1.0040041E-05   0.0000000E+00  -6.7065102E-06  -4.7857698E-06   0.0000000E+00  -4.3237915E-06  -1.9277402E-06   0.0000000E+00  -1.9526597E-06  -2.6756103E-05   0.0000000E+00  -1.2907230E-05  -1.4500406E-05   0.0000000E+00  -1.0681678E-05  -6.9390157E-06   0.0000000E+00  -6.9798275E-06  -2.8095503E-06   0.0000000E+00  -3.2253481E-06  -3.7558380E-05   0.0000000E+00  -1.9273504E-05  -2.0380434E-05   0.0000000E+00  -1.6058353E-05  -9.7473321E-06   0.0000000E+00  -1.0582558E-05  -3.9324214E-06   0.0000000E+00  -4.9511609E-06  -5.2592775E-05   0.0000000E+00  -2.7781765E-05  -2.8580558E-05   0.0000000E+00  -2.3273089E-05  -1.3666090E-05   0.0000000E+00  -1.5420532E-05  -5.4927009E-06   0.0000000E+00  -7.2606217E-06  -7.4772899E-05   0.0000000E+00  -3.9343355E-05  -4.0841729E-05   0.0000000E+00  -3.3087155E-05  -1.9591733E-05   0.0000000E+00  -2.1989059E-05  -7.8770136E-06   0.0000000E+00  -1.0385681E-05  -1.0961899E-04   0.0000000E+00  -5.5575034E-05  -6.0528193E-05   0.0000000E+00  -4.6857996E-05  -2.9279487E-05   0.0000000E+00  -3.1171799E-05  -1.1845570E-05   0.0000000E+00  -1.4739117E-05  -1.6695754E-04   0.0000000E+00  -7.9466226E-05  -9.3797680E-05   0.0000000E+00  -6.7151122E-05  -4.6021098E-05   0.0000000E+00  -4.4710301E-05  -1.8856414E-05   0.0000000E+00  -2.1171734E-05  -2.6298442E-04   0.0000000E+00  -1.1657361E-04  -1.5116975E-04   0.0000000E+00  -9.8820012E-05  -7.5728109E-05   0.0000000E+00  -6.6175206E-05  -3.1716067E-05   0.0000000E+00  -3.1688967E-05  -4.1911803E-04   0.0000000E+00  -1.7694947E-04  -2.4678640E-04   0.0000000E+00  -1.5068310E-04  -1.2706155E-04   0.0000000E+00  -1.0276578E-04  -5.5310713E-05   0.0000000E+00  -5.1208524E-05  -6.4962299E-04   0.0000000E+00  -2.7769688E-04  -3.8905902E-04   0.0000000E+00  -2.3798594E-04  -2.0646800E-04   0.0000000E+00  -1.6857644E-04  -9.5521806E-05   0.0000000E+00  -9.1631577E-05  -9.4670465E-04   0.0000000E+00  -4.4460519E-04  -5.7134725E-04   0.0000000E+00  -3.8517159E-04  -3.1180069E-04   0.0000000E+00  -2.8866719E-04   0.0000000E+00   0.0000000E+00   0.0000000E+00   0.0000000E+00   0.0000000E+00   0.0000000E+00   0.0000000E+00   0.0000000E+00   0.0000000E+00   0.0000000E+00   0.0000000E+00   0.0000000E+00   0.0000000E+00   0.0000000E+00   0.0000000E+00   0.0000000E+00   0.0000000E+00   0.0000000E+00   0.0000000E+00   0.0000000E+00   0.0000000E+00   0.0000000E+00   0.0000000E+00   0.0000000E+00   0.0000000E+00   0.0000000E+00   0.0000000E+00   0.0000000E+00   0.0000000E+00   0.0000000E+00   0.0000000E+00   0.0000000E+00   0.0000000E+00   0.0000000E+00   0.0000000E+00   0.0000000E+00   0.0000000E+00   0.0000000E+00   0.0000000E+00   0.0000000E+00   0.0000000E+00   0.0000000E+00   0.0000000E+00   0.0000000E+00   0.0000000E+00   0.0000000E+00   0.0000000E+00   0.0000000E+00   0.0000000E+00   0.0000000E+00   0.0000000E+00   0.0000000E+00   0.0000000E+00   0.0000000E+00   0.0000000E+00   0.0000000E+00   0.0000000E+00   0.0000000E+00   0.0000000E+00   0.0000000E+00   0.0000000E+00   0.0000000E+00   0.0000000E+00   0.0000000E+00   0.0000000E+00   0.0000000E+00   0.0000000E+00   0.0000000E+00   0.0000000E+00   0.0000000E+00   0.0000000E+00   0.0000000E+00   0.0000000E+00   0.0000000E+00   0.0000000E+00   0.0000000E+00   0.0000000E+00   0.0000000E+00   0.0000000E+00   0.0000000E+00   0.0000000E+00   0.0000000E+00   0.0000000E+00   0.0000000E+00   0.0000000E+00   0.0000000E+00   0.0000000E+00   0.0000000E+00   0.0000000E+00   0.0000000E+00   0.0000000E+00   0.0000000E+00   0.0000000E+00   0.0000000E+00   0.0000000E+00   0.0000000E+00   0.0000000E+00   0.0000000E+00   0.0000000E+00   0.0000000E+00   0.0000000E+00   0.0000000E+00   0.0000000E+00   0.0000000E+00   0.0000000E+00   0.0000000E+00   0.0000000E+00   0.0000000E+00   0.0000000E+00   0.0000000E+00   0.0000000E+00   0.0000000E+00   0.0000000E+00   0.0000000E+00   0.0000000E+00   0.0000000E+00   0.0000000E+00   0.0000000E+00   0.0000000E+00   0.0000000E+00   0.0000000E+00   0.0000000E+00   0.0000000E+00   0.0000000E+00   0.0000000E+00   0.0000000E+00   0.0000000E+00   0.0000000E+00   0.0000000E+00   0.0000000E+00   0.0000000E+00   0.0000000E+00   0.0000000E+00   0.0000000E+00   0.0000000E+00   0.0000000E+00   0.0000000E+00   0.0000000E+00   0.0000000E+00   0.0000000E+00   0.0000000E+00   0.0000000E+00   0.0000000E+00   0.0000000E+00   0.0000000E+00   0.0000000E+00   0.0000000E+00   0.0000000E+00   0.0000000E+00   0.0000000E+00   0.0000000E+00   0.0000000E+00   0.0000000E+00   0.0000000E+00   0.0000000E+00   0.0000000E+00   0.0000000E+00   0.0000000E+00   0.0000000E+00   0.0000000E+00   0.0000000E+00   0.0000000E+00   0.0000000E+00   0.0000000E+00   0.0000000E+00   0.0000000E+00   0.0000000E+00   0.0000000E+00   0.0000000E+00   0.0000000E+00   0.0000000E+00   0.0000000E+00   0.0000000E+00   0.0000000E+00   0.0000000E+00   0.0000000E+00   0.0000000E+00   0.0000000E+00   0.0000000E+00   0.0000000E+00   0.0000000E+00   0.0000000E+00   0.0000000E+00   0.0000000E+00   0.0000000E+00   0.0000000E+00   0.0000000E+00   0.0000000E+00   0.0000000E+00   0.0000000E+00   0.0000000E+00   0.0000000E+00   0.0000000E+00   0.0000000E+00   0.0000000E+00   0.0000000E+00   0.0000000E+00   0.0000000E+00   0.0000000E+00   0.0000000E+00   0.0000000E+00   0.0000000E+00   0.0000000E+00   0.0000000E+00   0.0000000E+00   0.0000000E+00   0.0000000E+00   0.0000000E+00   0.0000000E+00   0.0000000E+00   0.0000000E+00   0.0000000E+00   0.0000000E+00   0.0000000E+00   0.0000000E+00   0.0000000E+00   0.0000000E+00   0.0000000E+00   0.0000000E+00   0.0000000E+00   0.0000000E+00   0.0000000E+00   0.0000000E+00   0.0000000E+00   0.0000000E+00   0.0000000E+00   0.0000000E+00   0.0000000E+00   0.0000000E+00   0.0000000E+00   0.0000000E+00   0.0000000E+00   0.0000000E+00   0.0000000E+00   0.0000000E+00   0.0000000E+00   0.0000000E+00   0.0000000E+00   0.0000000E+00   0.0000000E+00   0.0000000E+00   0.0000000E+00   0.0000000E+00   0.0000000E+00   0.0000000E+00   0.0000000E+00   0.0000000E+00   0.0000000E+00   0.0000000E+00   0.0000000E+00   0.0000000E+00   0.0000000E+00   0.0000000E+00   0.0000000E+00   0.0000000E+00   0.0000000E+00   0.0000000E+00   0.0000000E+00   0.0000000E+00   0.0000000E+00   0.0000000E+00   0.0000000E+00   0.0000000E+00   0.0000000E+00   0.0000000E+00   0.0000000E+00   0.0000000E+00   0.0000000E+00   0.0000000E+00   0.0000000E+00   0.0000000E+00   0.0000000E+00   0.0000000E+00   0.0000000E+00   0.0000000E+00   0.0000000E+00   0.0000000E+00   0.0000000E+00   0.0000000E+00   0.0000000E+00   0.0000000E+00   0.0000000E+00   0.0000000E+00   0.0000000E+00   0.0000000E+00   0.0000000E+00   0.0000000E+00   0.0000000E+00   0.0000000E+00   0.0000000E+00   0.0000000E+00   0.0000000E+00   0.0000000E+00   0.0000000E+00   0.0000000E+00   0.0000000E+00   0.0000000E+00   0.0000000E+00   0.0000000E+00   0.0000000E+00   0.0000000E+00   0.0000000E+00   0.0000000E+00   0.0000000E+00   0.0000000E+00   0.0000000E+00   0.0000000E+00   0.0000000E+00   0.0000000E+00   0.0000000E+00   0.0000000E+00   0.0000000E+00   0.0000000E+00   0.0000000E+00   0.0000000E+00   0.0000000E+00   0.0000000E+00   0.0000000E+00   0.0000000E+00   0.0000000E+00   0.0000000E+00   0.0000000E+00   0.0000000E+00   0.0000000E+00   0.0000000E+00   0.0000000E+00   0.0000000E+00   0.0000000E+00   0.0000000E+00   0.0000000E+00   0.0000000E+00   0.0000000E+00   0.0000000E+00   0.0000000E+00   0.0000000E+00   0.0000000E+00   0.0000000E+00   0.0000000E+00   0.0000000E+00   0.0000000E+00   0.0000000E+00   0.0000000E+00   0.0000000E+00   0.0000000E+00   0.0000000E+00   0.0000000E+00   0.0000000E+00   0.0000000E+00   0.0000000E+00   0.0000000E+00   0.0000000E+00   0.0000000E+00   0.0000000E+00   0.0000000E+00   0.0000000E+00   0.0000000E+00   0.0000000E+00   0.0000000E+00   0.0000000E+00   0.0000000E+00   0.0000000E+00   0.0000000E+00   0.0000000E+00   0.0000000E+00   0.0000000E+00   0.0000000E+00   0.0000000E+00   0.0000000E+00   0.0000000E+00   0.0000000E+00   0.0000000E+00   0.0000000E+00   0.0000000E+00   0.0000000E+00   0.0000000E+00   0.0000000E+00   0.0000000E+00   0.0000000E+00   0.0000000E+00   0.0000000E+00   0.0000000E+00   0.0000000E+00   0.0000000E+00   0.0000000E+00   0.0000000E+00   0.0000000E+00   0.0000000E+00   0.0000000E+00   0.0000000E+00   0.0000000E+00   0.0000000E+00   0.0000000E+00   0.0000000E+00   0.0000000E+00   0.0000000E+00   0.0000000E+00   0.0000000E+00   0.0000000E+00   0.0000000E+00   0.0000000E+00   0.0000000E+00   0.0000000E+00   0.0000000E+00   0.0000000E+00   0.0000000E+00   0.0000000E+00   0.0000000E+00   0.0000000E+00   0.0000000E+00   0.0000000E+00   0.0000000E+00   0.0000000E+00   0.0000000E+00   0.0000000E+00   0.0000000E+00   0.0000000E+00   0.0000000E+00   0.0000000E+00   0.0000000E+00   0.0000000E+00   0.0000000E+00   0.0000000E+00   0.0000000E+00   0.0000000E+00   0.0000000E+00   0.0000000E+00   0.0000000E+00   0.0000000E+00   0.0000000E+00   0.0000000E+00   0.0000000E+00   0.0000000E+00   0.0000000E+00   0.0000000E+00   0.0000000E+00   0.0000000E+00   0.0000000E+00   0.0000000E+00   0.0000000E+00   0.0000000E+00   0.0000000E+00   0.0000000E+00   0.0000000E+00   0.0000000E+00   0.0000000E+00   0.0000000E+00   0.0000000E+00   0.0000000E+00   0.0000000E+00   0.0000000E+00   0.0000000E+00   0.0000000E+00   0.0000000E+00   0.0000000E+00   0.0000000E+00   0.0000000E+00   0.0000000E+00   0.0000000E+00   0.0000000E+00   0.0000000E+00   0.0000000E+00   0.0000000E+00   0.0000000E+00   0.0000000E+00   0.0000000E+00   0.0000000E+00   0.0000000E+00   0.0000000E+00   0.0000000E+00   0.0000000E+00   0.0000000E+00   0.0000000E+00   0.0000000E+00   0.0000000E+00   0.0000000E+00   0.0000000E+00   0.0000000E+00   0.0000000E+00   0.0000000E+00   0.0000000E+00   0.0000000E+00   0.0000000E+00   0.0000000E+00   0.0000000E+00   0.0000000E+00   0.0000000E+00   0.0000000E+00   0.0000000E+00   0.0000000E+00   0.0000000E+00   0.0000000E+00   0.0000000E+00   0.0000000E+00   0.0000000E+00   0.0000000E+00   0.0000000E+00   0.0000000E+00   0.0000000E+00   0.0000000E+00   0.0000000E+00   0.0000000E+00   0.0000000E+00   0.0000000E+00   0.0000000E+00   0.0000000E+00   0.0000000E+00   0.0000000E+00   0.0000000E+00   0.0000000E+00   0.0000000E+00   0.0000000E+00   0.0000000E+00   0.0000000E+00   0.0000000E+00   0.0000000E+00   0.0000000E+00   0.0000000E+00   0.0000000E+00   0.0000000E+00   0.0000000E+00   0.0000000E+00   0.0000000E+00   0.0000000E+00   0.0000000E+00   0.0000000E+00   0.0000000E+00   0.0000000E+00   0.0000000E+00   0.0000000E+00   0.0000000E+00   0.0000000E+00   0.0000000E+00   0.0000000E+00   0.0000000E+00   0.0000000E+00   0.0000000E+00   0.0000000E+00   0.0000000E+00   0.0000000E+00   0.0000000E+00   0.0000000E+00   0.0000000E+00   0.0000000E+00   0.0000000E+00   0.0000000E+00   0.0000000E+00   0.0000000E+00   0.0000000E+00   0.0000000E+00   0.0000000E+00   0.0000000E+00   0.0000000E+00   0.0000000E+00   0.0000000E+00   0.0000000E+00   0.0000000E+00   0.0000000E+00   0.0000000E+00   0.0000000E+00   0.0000000E+00   0.0000000E+00   0.0000000E+00   0.0000000E+00   0.0000000E+00   0.0000000E+00   0.0000000E+00   0.0000000E+00   0.0000000E+00   0.0000000E+00   0.0000000E+00   0.0000000E+00   0.0000000E+00   0.0000000E+00   0.0000000E+00   0.0000000E+00   0.0000000E+00   0.0000000E+00   0.0000000E+00   0.0000000E+00   0.0000000E+00   0.0000000E+00   0.0000000E+00   0.0000000E+00   0.0000000E+00   0.0000000E+00   0.0000000E+00   0.0000000E+00   0.0000000E+00   0.0000000E+00   0.0000000E+00   0.0000000E+00   0.0000000E+00   0.0000000E+00   0.0000000E+00   0.0000000E+00   0.0000000E+00   0.0000000E+00   0.0000000E+00   0.0000000E+00   0.0000000E+00   0.0000000E+00   0.0000000E+00   0.0000000E+00   0.0000000E+00   0.0000000E+00   0.0000000E+00   0.0000000E+00   0.0000000E+00   0.0000000E+00   0.0000000E+00   0.0000000E+00   0.0000000E+00   0.0000000E+00   0.0000000E+00   0.0000000E+00   0.0000000E+00   0.0000000E+00   0.0000000E+00   0.0000000E+00   0.0000000E+00   0.0000000E+00   0.0000000E+00   0.0000000E+00   0.0000000E+00   0.0000000E+00   0.0000000E+00   0.0000000E+00   0.0000000E+00   0.0000000E+00   0.0000000E+00   0.0000000E+00   0.0000000E+00   0.0000000E+00   0.0000000E+00   0.0000000E+00   0.0000000E+00   0.0000000E+00   0.0000000E+00   0.0000000E+00   0.0000000E+00   0.0000000E+00   0.0000000E+00   0.0000000E+00   0.0000000E+00   0.0000000E+00   0.0000000E+00   0.0000000E+00   0.0000000E+00   0.0000000E+00   0.0000000E+00   0.0000000E+00   0.0000000E+00   0.0000000E+00   0.0000000E+00   0.0000000E+00   0.0000000E+00   0.0000000E+00   0.0000000E+00   0.0000000E+00   0.0000000E+00   0.0000000E+00   0.0000000E+00   0.0000000E+00   0.0000000E+00   0.0000000E+00   0.0000000E+00   0.0000000E+00   0.0000000E+00   0.0000000E+00   0.0000000E+00   0.0000000E+00   0.0000000E+00   0.0000000E+00   0.0000000E+00   0.0000000E+00   0.0000000E+00   0.0000000E+00   0.0000000E+00   0.0000000E+00   0.0000000E+00   0.0000000E+00   0.0000000E+00   0.0000000E+00   0.0000000E+00   0.0000000E+00   0.0000000E+00   0.0000000E+00   0.0000000E+00   0.0000000E+00   0.0000000E+00   0.0000000E+00   0.0000000E+00   0.0000000E+00   0.0000000E+00   0.0000000E+00   0.0000000E+00   0.0000000E+00   0.0000000E+00   0.0000000E+00   0.0000000E+00   0.0000000E+00   0.0000000E+00   0.0000000E+00   0.0000000E+00   0.0000000E+00   0.0000000E+00   0.0000000E+00   0.0000000E+00   0.0000000E+00   0.0000000E+00   0.0000000E+00   0.0000000E+00   0.0000000E+00   0.0000000E+00   0.0000000E+00   0.0000000E+00   0.0000000E+00   0.0000000E+00   0.0000000E+00   0.0000000E+00   0.0000000E+00   0.0000000E+00   0.0000000E+00   0.0000000E+00   0.0000000E+00   0.0000000E+00   0.0000000E+00   0.0000000E+00   0.0000000E+00   0.0000000E+00   0.0000000E+00   0.0000000E+00   0.0000000E+00   0.0000000E+00   0.0000000E+00   0.0000000E+00   0.0000000E+00   0.0000000E+00   0.0000000E+00   0.0000000E+00   0.0000000E+00   0.0000000E+00   0.0000000E+00   0.0000000E+00   0.0000000E+00   0.0000000E+00   0.0000000E+00   0.0000000E+00   0.0000000E+00   0.0000000E+00   0.0000000E+00   0.0000000E+00   0.0000000E+00   0.0000000E+00   0.0000000E+00   0.0000000E+00   0.0000000E+00   0.0000000E+00   0.0000000E+00   0.0000000E+00   0.0000000E+00   0.0000000E+00   0.0000000E+00   0.0000000E+00   0.0000000E+00   0.0000000E+00   0.0000000E+00   0.0000000E+00   0.0000000E+00   0.0000000E+00   0.0000000E+00   0.0000000E+00   0.0000000E+00   0.0000000E+00   0.0000000E+00   0.0000000E+00   0.0000000E+00   0.0000000E+00   0.0000000E+00   0.0000000E+00   0.0000000E+00   0.0000000E+00   0.0000000E+00   0.0000000E+00   0.0000000E+00   0.0000000E+00   0.0000000E+00   0.0000000E+00   0.0000000E+00   0.0000000E+00   0.0000000E+00   0.0000000E+00   0.0000000E+00   0.0000000E+00   0.0000000E+00   0.0000000E+00   0.0000000E+00   0.0000000E+00   0.0000000E+00   0.0000000E+00   0.0000000E+00   0.0000000E+00   0.0000000E+00   0.0000000E+00   0.0000000E+00   0.0000000E+00   0.0000000E+00   0.0000000E+00   0.0000000E+00   0.0000000E+00   0.0000000E+00   0.0000000E+00   0.0000000E+00   0.0000000E+00   0.0000000E+00   0.0000000E+00   0.0000000E+00   0.0000000E+00   0.0000000E+00   0.0000000E+00   0.0000000E+00   0.0000000E+00   0.0000000E+00   0.0000000E+00   0.0000000E+00   0.0000000E+00   0.0000000E+00   0.0000000E+00   0.0000000E+00   0.0000000E+00   0.0000000E+00   0.0000000E+00   0.0000000E+00   0.0000000E+00   0.0000000E+00   0.0000000E+00   0.0000000E+00   0.0000000E+00   0.0000000E+00   0.0000000E+00   0.0000000E+00   0.0000000E+00   0.0000000E+00   0.0000000E+00   0.0000000E+00   0.0000000E+00   0.0000000E+00   0.0000000E+00   0.0000000E+00   0.0000000E+00   0.0000000E+00   0.0000000E+00   0.0000000E+00   0.0000000E+00   0.0000000E+00   0.0000000E+00   0.0000000E+00   0.0000000E+00   0.0000000E+00   0.0000000E+00   0.0000000E+00   0.0000000E+00   0.0000000E+00   0.0000000E+00   0.0000000E+00   0.0000000E+00   0.0000000E+00   0.0000000E+00   0.0000000E+00   0.0000000E+00   0.0000000E+00   0.0000000E+00   0.0000000E+00   0.0000000E+00   0.0000000E+00   0.0000000E+00   0.0000000E+00   0.0000000E+00   0.0000000E+00   0.0000000E+00   0.0000000E+00   0.0000000E+00   0.0000000E+00   0.0000000E+00   0.0000000E+00   0.0000000E+00   0.0000000E+00   0.0000000E+00   0.0000000E+00   0.0000000E+00   0.0000000E+00   0.0000000E+00   0.0000000E+00   0.0000000E+00   0.0000000E+00   0.0000000E+00   0.0000000E+00   0.0000000E+00   0.0000000E+00   0.0000000E+00   0.0000000E+00   0.0000000E+00   0.0000000E+00   0.0000000E+00   0.0000000E+00   0.0000000E+00   0.0000000E+00   0.0000000E+00   0.0000000E+00   0.0000000E+00   0.0000000E+00   0.0000000E+00   0.0000000E+00   0.0000000E+00   0.0000000E+00   0.0000000E+00   0.0000000E+00   0.0000000E+00   0.0000000E+00   0.0000000E+00   0.0000000E+00   0.0000000E+00   0.0000000E+00   0.0000000E+00   0.0000000E+00   0.0000000E+00   0.0000000E+00   0.0000000E+00   0.0000000E+00   0.0000000E+00   0.0000000E+00   0.0000000E+00   0.0000000E+00   0.0000000E+00   0.0000000E+00   0.0000000E+00   0.0000000E+00   0.0000000E+00   0.0000000E+00   0.0000000E+00   0.0000000E+00   0.0000000E+00   0.0000000E+00   0.0000000E+00   0.0000000E+00   0.0000000E+00   0.0000000E+00   0.0000000E+00   0.0000000E+00   0.0000000E+00   0.0000000E+00   0.0000000E+00   0.0000000E+00   0.0000000E+00   0.0000000E+00   0.0000000E+00   0.0000000E+00   0.0000000E+00   0.0000000E+00   0.0000000E+00   0.0000000E+00   0.0000000E+00   0.0000000E+00   0.0000000E+00   0.0000000E+00   0.0000000E+00   0.0000000E+00   0.0000000E+00   0.0000000E+00   0.0000000E+00   0.0000000E+00   0.0000000E+00   0.0000000E+00   0.0000000E+00   0.0000000E+00   0.0000000E+00   0.0000000E+00   0.0000000E+00   0.0000000E+00   0.0000000E+00   0.0000000E+00   0.0000000E+00   0.0000000E+00   0.0000000E+00   0.0000000E+00   0.0000000E+00   0.0000000E+00   0.0000000E+00   0.0000000E+00   0.0000000E+00   0.0000000E+00   0.0000000E+00   0.0000000E+00   0.0000000E+00   0.0000000E+00   0.0000000E+00   0.0000000E+00   0.0000000E+00   0.0000000E+00   0.0000000E+00   0.0000000E+00   0.0000000E+00   0.0000000E+00   0.0000000E+00   0.0000000E+00   0.0000000E+00   0.0000000E+00   0.0000000E+00   0.0000000E+00   0.0000000E+00   0.0000000E+00   0.0000000E+00   0.0000000E+00   0.0000000E+00   0.0000000E+00   0.0000000E+00   0.0000000E+00   0.0000000E+00   0.0000000E+00   0.0000000E+00   0.0000000E+00   0.0000000E+00   0.0000000E+00   0.0000000E+00   0.0000000E+00   0.0000000E+00   0.0000000E+00   0.0000000E+00   0.0000000E+00   0.0000000E+00   0.0000000E+00   0.0000000E+00   0.0000000E+00   0.0000000E+00   0.0000000E+00   0.0000000E+00   0.0000000E+00   0.0000000E+00   0.0000000E+00   0.0000000E+00   0.0000000E+00   0.0000000E+00   0.0000000E+00   0.0000000E+00   0.0000000E+00   0.0000000E+00   0.0000000E+00   0.0000000E+00   0.0000000E+00   0.0000000E+00   0.0000000E+00   0.0000000E+00   0.0000000E+00   0.0000000E+00   0.0000000E+00   0.0000000E+00   0.0000000E+00   0.0000000E+00   0.0000000E+00   0.0000000E+00   0.0000000E+00   0.0000000E+00   0.0000000E+00   0.0000000E+00   0.0000000E+00   0.0000000E+00   0.0000000E+00   0.0000000E+00   0.0000000E+00   0.0000000E+00   0.0000000E+00   0.0000000E+00   0.0000000E+00   0.0000000E+00   0.0000000E+00   0.0000000E+00   0.0000000E+00   0.0000000E+00   0.0000000E+00   0.0000000E+00   0.0000000E+00   0.0000000E+00   0.0000000E+00   0.0000000E+00   0.0000000E+00   0.0000000E+00   0.0000000E+00   0.0000000E+00   0.0000000E+00   0.0000000E+00   0.0000000E+00   0.0000000E+00   0.0000000E+00   0.0000000E+00   0.0000000E+00   0.0000000E+00   0.0000000E+00   0.0000000E+00   0.0000000E+00   0.0000000E+00   0.0000000E+00   0.0000000E+00   0.0000000E+00   0.0000000E+00   0.0000000E+00   0.0000000E+00   0.0000000E+00   0.0000000E+00   0.0000000E+00   0.0000000E+00   0.0000000E+00   0.0000000E+00   0.0000000E+00   0.0000000E+00   0.0000000E+00   0.0000000E+00   0.0000000E+00   0.0000000E+00   0.0000000E+00   0.0000000E+00   0.0000000E+00   0.0000000E+00   0.0000000E+00   0.0000000E+00   0.0000000E+00   0.0000000E+00   0.0000000E+00   0.0000000E+00   0.0000000E+00   0.0000000E+00   0.0000000E+00   0.0000000E+00   0.0000000E+00   0.0000000E+00   0.0000000E+00   0.0000000E+00   0.0000000E+00   0.0000000E+00   0.0000000E+00   0.0000000E+00   0.0000000E+00   0.0000000E+00   0.0000000E+00   0.0000000E+00   0.0000000E+00   0.0000000E+00   0.0000000E+00   0.0000000E+00   0.0000000E+00   0.0000000E+00   0.0000000E+00   0.0000000E+00   0.0000000E+00   0.0000000E+00   0.0000000E+00   0.0000000E+00   0.0000000E+00   0.0000000E+00   0.0000000E+00   0.0000000E+00   0.0000000E+00   0.0000000E+00   0.0000000E+00   0.0000000E+00   0.0000000E+00   0.0000000E+00   0.0000000E+00   0.0000000E+00   0.0000000E+00   0.0000000E+00   0.0000000E+00   0.0000000E+00   0.0000000E+00   0.0000000E+00   0.0000000E+00   0.0000000E+00   0.0000000E+00   0.0000000E+00   0.0000000E+00   0.0000000E+00   0.0000000E+00   0.0000000E+00   0.0000000E+00   0.0000000E+00   0.0000000E+00   0.0000000E+00   0.0000000E+00   0.0000000E+00   0.0000000E+00   0.0000000E+00   0.0000000E+00   0.0000000E+00   0.0000000E+00   0.0000000E+00   0.0000000E+00   0.0000000E+00   0.0000000E+00   0.0000000E+00   0.0000000E+00   0.0000000E+00   0.0000000E+00   0.0000000E+00   0.0000000E+00   0.0000000E+00   0.0000000E+00   0.0000000E+00   0.0000000E+00   0.0000000E+00   0.0000000E+00   0.0000000E+00   0.0000000E+00   0.0000000E+00   0.0000000E+00   0.0000000E+00   0.0000000E+00   0.0000000E+00   0.0000000E+00   0.0000000E+00   0.0000000E+00   0.0000000E+00   0.0000000E+00   0.0000000E+00   0.0000000E+00   0.0000000E+00   0.0000000E+00   0.0000000E+00   0.0000000E+00   0.0000000E+00   0.0000000E+00   0.0000000E+00   0.0000000E+00   0.0000000E+00   0.0000000E+00   0.0000000E+00   0.0000000E+00   0.0000000E+00   0.0000000E+00   0.0000000E+00   0.0000000E+00   0.0000000E+00   0.0000000E+00   0.0000000E+00   0.0000000E+00   0.0000000E+00   0.0000000E+00   0.0000000E+00   0.0000000E+00   0.0000000E+00   0.0000000E+00   0.0000000E+00   0.0000000E+00   0.0000000E+00   0.0000000E+00   0.0000000E+00   0.0000000E+00   0.0000000E+00   0.0000000E+00   0.0000000E+00   0.0000000E+00   0.0000000E+00   0.0000000E+00   0.0000000E+00   0.0000000E+00   0.0000000E+00   0.0000000E+00   0.0000000E+00   0.0000000E+00   0.0000000E+00   0.0000000E+00   0.0000000E+00   0.0000000E+00   0.0000000E+00   0.0000000E+00   0.0000000E+00   0.0000000E+00   0.0000000E+00   0.0000000E+00   0.0000000E+00   0.0000000E+00   0.0000000E+00   0.0000000E+00   0.0000000E+00   0.0000000E+00   0.0000000E+00   0.0000000E+00   0.0000000E+00   0.0000000E+00   0.0000000E+00   0.0000000E+00   0.0000000E+00   0.0000000E+00   0.0000000E+00   0.0000000E+00   0.0000000E+00   0.0000000E+00   0.0000000E+00   0.0000000E+00   0.0000000E+00   0.0000000E+00   0.0000000E+00   0.0000000E+00   0.0000000E+00   0.0000000E+00   0.0000000E+00   0.0000000E+00   0.0000000E+00   0.0000000E+00   0.0000000E+00   0.0000000E+00   0.0000000E+00   0.0000000E+00   0.0000000E+00   0.0000000E+00   0.0000000E+00   0.0000000E+00   0.0000000E+00   0.0000000E+00   0.0000000E+00   0.0000000E+00   0.0000000E+00   0.0000000E+00   0.0000000E+00   0.0000000E+00   0.0000000E+00   0.0000000E+00   0.0000000E+00   0.0000000E+00   0.0000000E+00   0.0000000E+00   0.0000000E+00   0.0000000E+00   0.0000000E+00   0.0000000E+00   0.0000000E+00   0.0000000E+00   0.0000000E+00   0.0000000E+00   0.0000000E+00   0.0000000E+00   0.0000000E+00   0.0000000E+00   0.0000000E+00   0.0000000E+00   0.0000000E+00   0.0000000E+00   0.0000000E+00   0.0000000E+00   0.0000000E+00   0.0000000E+00   0.0000000E+00   0.0000000E+00   0.0000000E+00   0.0000000E+00   0.0000000E+00   0.0000000E+00   0.0000000E+00   0.0000000E+00   0.0000000E+00   0.0000000E+00   0.0000000E+00   0.0000000E+00   0.0000000E+00   0.0000000E+00   0.0000000E+00   0.0000000E+00   0.0000000E+00   0.0000000E+00   0.0000000E+00   0.0000000E+00   0.0000000E+00   0.0000000E+00   0.0000000E+00   0.0000000E+00   0.0000000E+00   0.0000000E+00   0.0000000E+00   0.0000000E+00   0.0000000E+00   0.0000000E+00   0.0000000E+00   0.0000000E+00   0.0000000E+00   0.0000000E+00   0.0000000E+00   0.0000000E+00   0.0000000E+00   0.0000000E+00   0.0000000E+00   0.0000000E+00   0.0000000E+00   0.0000000E+00   0.0000000E+00   0.0000000E+00   0.0000000E+00   0.0000000E+00   0.0000000E+00   0.0000000E+00   0.0000000E+00   0.0000000E+00   0.0000000E+00   0.0000000E+00   0.0000000E+00   0.0000000E+00   0.0000000E+00   0.0000000E+00   0.0000000E+00   0.0000000E+00   0.0000000E+00   0.0000000E+00   0.0000000E+00   0.0000000E+00   0.0000000E+00   0.0000000E+00   0.0000000E+00   0.0000000E+00   0.0000000E+00  -6.3385931E-05   0.0000000E+00  -5.1720158E-06  -7.9566686E-05   0.0000000E+00  -2.4112194E-06  -9.3593830E-05   0.0000000E+00   2.8512727E-07  -1.0495102E-04   0.0000000E+00   2.2978311E-06  -1.1379120E-04   0.0000000E+00   3.4429636E-06  -6.6286950E-05   0.0000000E+00  -1.0932713E-05  -8.9904846E-05   0.0000000E+00  -7.7780805E-06  -1.1232615E-04   0.0000000E+00  -3.4707095E-06  -1.3159830E-04   0.0000000E+00   6.5811014E-07  -1.4703721E-04   0.0000000E+00   3.7042732E-06  -1.5890917E-04   0.0000000E+00   5.4147131E-06  -9.2551192E-05   0.0000000E+00  -1.6032294E-05  -1.2521350E-04   0.0000000E+00  -1.1173815E-05  -1.5595855E-04   0.0000000E+00  -4.7792882E-06  -1.8207506E-04   0.0000000E+00   1.2565574E-06  -2.0270697E-04   0.0000000E+00   5.6568997E-06  -2.1833045E-04   0.0000000E+00   8.0879581E-06  -1.2903713E-04   0.0000000E+00  -2.2769356E-05  -1.7412067E-04   0.0000000E+00  -1.5631942E-05  -2.1619335E-04   0.0000000E+00  -6.4160085E-06  -2.5149167E-04   0.0000000E+00   2.1749929E-06  -2.7895207E-04   0.0000000E+00   8.3609866E-06  -2.9939416E-04   0.0000000E+00   1.1715078E-05  -1.8151397E-04   0.0000000E+00  -3.1777374E-05  -2.4344449E-04   0.0000000E+00  -2.1519489E-05  -3.0066460E-04   0.0000000E+00  -8.4534822E-06  -3.4816228E-04   0.0000000E+00   3.5882158E-06  -3.8463049E-04   0.0000000E+00   1.2149661E-05  -4.1130476E-04   0.0000000E+00   1.6700018E-05  -2.6110446E-04   0.0000000E+00  -4.3945554E-05  -3.4485507E-04   0.0000000E+00  -2.9259323E-05  -4.2091022E-04   0.0000000E+00  -1.0826310E-05  -4.8331544E-04   0.0000000E+00   5.9149879E-06  -5.3090398E-04   0.0000000E+00   1.7619721E-05  -5.6542293E-04   0.0000000E+00   2.3691829E-05  -3.8824827E-04   0.0000000E+00  -6.0457627E-05  -4.9863412E-04   0.0000000E+00  -3.9161136E-05  -5.9532409E-04   0.0000000E+00  -1.2995284E-05  -6.7338051E-04   0.0000000E+00   1.0235509E-05  -7.3275645E-04   0.0000000E+00   2.6009100E-05  -7.7605166E-04   0.0000000E+00   3.3839500E-05  -5.9687998E-04   0.0000000E+00  -8.2740225E-05  -7.3623785E-04   0.0000000E+00  -5.1085539E-05  -8.5097720E-04   0.0000000E+00  -1.3345902E-05  -9.4145321E-04   0.0000000E+00   1.8976263E-05  -1.0105612E-03   0.0000000E+00   3.9830735E-05  -1.0619290E-03   0.0000000E+00   4.9280701E-05  -9.3480333E-04   0.0000000E+00  -1.1238236E-04  -1.0986163E-03   0.0000000E+00  -6.3698026E-05  -1.2218013E-03   0.0000000E+00  -8.1522121E-06  -1.3165977E-03   0.0000000E+00   3.6912279E-05  -1.3904929E-03   0.0000000E+00   6.3658750E-05  -1.4474641E-03   0.0000000E+00   7.3721880E-05  -1.4475422E-03   0.0000000E+00  -1.4988467E-04  -1.6242692E-03   0.0000000E+00  -7.3102456E-05  -1.7413846E-03   0.0000000E+00   1.0150783E-05  -1.8307039E-03   0.0000000E+00   7.2449606E-05  -1.9038455E-03   0.0000000E+00   1.0489163E-04  -1.9633973E-03   0.0000000E+00   1.1288150E-04  -2.1425369E-03   0.0000000E+00  -1.9231814E-04  -2.3287125E-03   0.0000000E+00  -7.0076640E-05  -2.4345955E-03   0.0000000E+00   5.4785458E-05  -2.5158823E-03   0.0000000E+00   1.3860666E-04  -2.5868043E-03   0.0000000E+00   1.7410573E-04  -2.6474097E-03   0.0000000E+00   1.7454935E-04  -2.9769288E-03   0.0000000E+00  -1.8053140E-04  -3.2074782E-03   0.0000000E+00  -2.1025204E-05  -3.3236223E-03   0.0000000E+00   1.5028156E-04  -3.4093463E-03   0.0000000E+00   2.5357073E-04  -3.4835390E-03   0.0000000E+00   2.8438502E-04  -3.5460037E-03   0.0000000E+00   2.6797605E-04  -4.0015774E-03   0.0000000E+00   1.4199904E-05  -4.2999582E-03   0.0000000E+00   1.4890938E-04  -4.4579543E-03   0.0000000E+00   3.3297221E-04  -4.5674122E-03   0.0000000E+00   4.3815360E-04  -4.6526776E-03   0.0000000E+00   4.4929239E-04  -4.7176732E-03   0.0000000E+00   4.0267673E-04  -5.3613679E-03   0.0000000E+00   4.2267915E-04  -5.7245847E-03   0.0000000E+00   4.8805610E-04  -5.9354194E-03   0.0000000E+00   6.3263834E-04  -6.0755219E-03   0.0000000E+00   7.0977060E-04  -6.1720568E-03   0.0000000E+00   6.8043085E-04  -6.2356163E-03   0.0000000E+00   5.8736338E-04  -7.2518340E-03   0.0000000E+00   1.0002252E-03  -7.6464475E-03   0.0000000E+00   9.8057371E-04  -7.8884065E-03   0.0000000E+00   1.0558972E-03  -8.0431569E-03   0.0000000E+00   1.0767906E-03  -8.1379646E-03   0.0000000E+00   9.8660681E-04  -8.1890170E-03   0.0000000E+00   8.2996703E-04  -9.8656565E-03   0.0000000E+00   1.6809640E-03  -1.0227645E-02   0.0000000E+00   1.6031880E-03  -1.0454370E-02   0.0000000E+00   1.5920624E-03  -1.0591650E-02   0.0000000E+00   1.5436197E-03  -1.0662899E-02   0.0000000E+00   1.3763787E-03  -1.0684762E-02   0.0000000E+00   1.1391203E-03  -1.3328052E-02   0.0000000E+00   2.5022002E-03  -1.3595823E-02   0.0000000E+00   2.3373214E-03  -1.3764224E-02   0.0000000E+00   2.2443018E-03  -1.3854871E-02   0.0000000E+00   2.1224143E-03  -1.3880054E-02   0.0000000E+00   1.8633163E-03  -1.3852037E-02   0.0000000E+00   1.5255286E-03  -1.7715408E-02   0.0000000E+00   3.5099182E-03  -1.7876673E-02   0.0000000E+00   3.2312411E-03  -1.7973460E-02   0.0000000E+00   3.0462334E-03  -1.7999582E-02   0.0000000E+00   2.8363594E-03  -1.7954681E-02   0.0000000E+00   2.4657550E-03  -1.7847385E-02   0.0000000E+00   2.0015431E-03  -2.3199124E-02   0.0000000E+00   4.7944346E-03  -2.3287416E-02   0.0000000E+00   4.3496741E-03  -2.3310458E-02   0.0000000E+00   4.0333471E-03  -2.3246048E-02   0.0000000E+00   3.7138469E-03  -2.3089318E-02   0.0000000E+00   3.2025035E-03  -2.2854220E-02   0.0000000E+00   2.5793163E-03  -3.0168146E-02   0.0000000E+00   6.5046661E-03  -3.0173698E-02   0.0000000E+00   5.7646888E-03  -3.0078160E-02   0.0000000E+00   5.2392790E-03  -2.9857311E-02   0.0000000E+00   4.7739502E-03  -2.9514810E-02   0.0000000E+00   4.0874649E-03  -2.9080978E-02   0.0000000E+00   3.2710480E-03  -3.9084051E-02   0.0000000E+00   8.7177455E-03  -3.8920671E-02   0.0000000E+00   7.5080423E-03  -3.8605776E-02   0.0000000E+00   6.6702496E-03  -3.8120348E-02   0.0000000E+00   6.0236370E-03  -3.7485648E-02   0.0000000E+00   5.1318998E-03  -3.6757573E-02   0.0000000E+00   4.0920726E-03  -5.0395567E-02   0.0000000E+00   1.1520556E-02  -4.9924266E-02   0.0000000E+00   9.5502073E-03  -4.9239039E-02   0.0000000E+00   8.2961740E-03  -4.8336048E-02   0.0000000E+00   7.4614431E-03  -4.7266677E-02   0.0000000E+00   6.3516209E-03  -4.6123404E-02   0.0000000E+00   5.0701136E-03  -6.4541064E-02   0.0000000E+00   1.4868967E-02  -6.3561253E-02   0.0000000E+00   1.1782207E-02  -6.2297784E-02   0.0000000E+00   1.0060475E-02  -6.0776748E-02   0.0000000E+00   9.0956334E-03  -5.9095148E-02   0.0000000E+00   7.7863606E-03  -5.7393532E-02   0.0000000E+00   6.2652775E-03  -8.1822939E-02   0.0000000E+00   1.8661361E-02  -8.0075040E-02   0.0000000E+00   1.4030532E-02  -7.7974141E-02   0.0000000E+00   1.1933522E-02  -7.5595543E-02   0.0000000E+00   1.0997456E-02  -7.3098294E-02   0.0000000E+00   9.5501179E-03  -7.0680834E-02   0.0000000E+00   7.8045093E-03  -1.0218343E-01   0.0000000E+00   2.2572948E-02  -9.9376872E-02   0.0000000E+00   1.6052095E-02  -9.6155547E-02   0.0000000E+00   1.3970839E-02  -9.2667900E-02   0.0000000E+00   1.3400506E-02  -8.9148171E-02   0.0000000E+00   1.1906375E-02  -8.5856162E-02   0.0000000E+00   9.9366531E-03  -1.2486279E-01   0.0000000E+00   2.6167147E-02  -1.2073668E-01   0.0000000E+00   1.7646115E-02  -1.1615115E-01   0.0000000E+00   1.6525222E-02  -1.1135153E-01   0.0000000E+00   1.6861234E-02  -1.0664757E-01   0.0000000E+00   1.5406017E-02  -1.0235127E-01   0.0000000E+00   1.3124474E-02  -1.4798854E-01   0.0000000E+00   2.9040830E-02  -1.4242257E-01   0.0000000E+00   1.9111006E-02  -1.3637900E-01   0.0000000E+00   2.0541517E-02  -1.3021317E-01   0.0000000E+00   2.2520414E-02  -1.2428898E-01   0.0000000E+00   2.1083407E-02  -1.1894430E-01   0.0000000E+00   1.8185765E-02  -1.6826482E-01   0.0000000E+00   3.1100811E-02  -1.6143207E-01   0.0000000E+00   2.1417167E-02  -1.5413670E-01   0.0000000E+00   2.7799809E-02  -1.4682733E-01   0.0000000E+00   3.2301005E-02  -1.3987419E-01   0.0000000E+00   3.0611036E-02  -1.3360050E-01   0.0000000E+00   2.6430655E-02  -1.8088937E-01   0.0000000E+00   3.3503797E-02  -1.7339863E-01   0.0000000E+00   2.7071061E-02  -1.6549389E-01   0.0000000E+00   4.1227311E-02  -1.5765569E-01   0.0000000E+00   4.8577540E-02  -1.5018892E-01   0.0000000E+00   4.6047438E-02  -1.4336117E-01   0.0000000E+00   3.9652195E-02  -1.7985971E-01   0.0000000E+00   4.0245216E-02  -1.7277780E-01   0.0000000E+00   4.1442759E-02  -1.6535282E-01   0.0000000E+00   6.3608535E-02  -1.5800115E-01   0.0000000E+00   7.3405653E-02  -1.5090311E-01   0.0000000E+00   6.9764219E-02  -1.4422481E-01   0.0000000E+00   5.9846908E-02  -1.5899190E-01   0.0000000E+00   5.9839334E-02  -1.5365413E-01   0.0000000E+00   7.1460128E-02  -1.4805736E-01   0.0000000E+00   9.6594065E-02  -1.4247213E-01   0.0000000E+00   1.0930561E-01  -1.3689980E-01   0.0000000E+00   1.0356720E-01  -1.3136414E-01   0.0000000E+00   8.8672765E-02  -1.1393337E-01   0.0000000E+00   1.1184509E-01  -1.1157998E-01   0.0000000E+00   1.3169110E-01  -1.0908510E-01   0.0000000E+00   1.5040953E-01  -1.0650437E-01   0.0000000E+00   1.5788868E-01  -1.0362306E-01   0.0000000E+00   1.4829908E-01  -1.0029550E-01   0.0000000E+00   1.2660913E-01  -4.4742830E-02   0.0000000E+00   2.1508266E-01  -4.6153102E-02   0.0000000E+00   2.4565558E-01  -4.7545452E-02   0.0000000E+00   2.3828635E-01  -4.8713923E-02   0.0000000E+00   2.2328986E-01  -4.9264096E-02   0.0000000E+00   2.0291401E-01  -4.8915960E-02   0.0000000E+00   1.7223233E-01   4.2191278E-02   0.0000000E+00   3.5637650E-01   3.7045896E-02   0.0000000E+00   4.0190265E-01   3.1833585E-02   0.0000000E+00   3.5483319E-01   2.7023507E-02   0.0000000E+00   3.0130410E-01   2.3065297E-02   0.0000000E+00   2.6394933E-01   2.0267388E-02   0.0000000E+00   2.2207595E-01   1.3396089E-01   0.0000000E+00   4.7296137E-01   1.2615049E-01   0.0000000E+00   5.4241961E-01   1.1816522E-01   0.0000000E+00   4.6415374E-01   1.1069380E-01   0.0000000E+00   3.7662709E-01   1.0410865E-01   0.0000000E+00   3.2327220E-01   9.8654807E-02   0.0000000E+00   2.7079251E-01   2.1366502E-01   0.0000000E+00   5.3015673E-01   2.0504613E-01   0.0000000E+00   6.2613845E-01   1.9604094E-01   0.0000000E+00   5.4099357E-01   1.8740860E-01   0.0000000E+00   4.3733463E-01   1.7941999E-01   0.0000000E+00   3.7416959E-01   1.7224292E-01   0.0000000E+00   3.1335896E-01   2.6667222E-01   0.0000000E+00   5.4579318E-01   2.5891724E-01   0.0000000E+00   6.5790540E-01   2.5056446E-01   0.0000000E+00   5.8250815E-01   2.4217424E-01   0.0000000E+00   4.7846228E-01   2.3394540E-01   0.0000000E+00   4.1242480E-01   2.2603449E-01   0.0000000E+00   3.4645608E-01   2.8733194E-01   0.0000000E+00   5.4419070E-01   2.8123668E-01   0.0000000E+00   6.6631711E-01   2.7444032E-01   0.0000000E+00   6.0220528E-01   2.6714221E-01   0.0000000E+00   5.0385249E-01   2.5945643E-01   0.0000000E+00   4.3816611E-01   2.5157550E-01   0.0000000E+00   3.6931217E-01   2.8054118E-01   0.0000000E+00   5.3893763E-01   2.7619451E-01   0.0000000E+00   6.6654307E-01   2.7109835E-01   0.0000000E+00   6.1103314E-01   2.6514792E-01   0.0000000E+00   5.1805049E-01   2.5836623E-01   0.0000000E+00   4.5333347E-01   2.5098065E-01   0.0000000E+00   3.8297755E-01   2.5757989E-01   0.0000000E+00   5.3574097E-01   2.5468513E-01   0.0000000E+00   6.6499722E-01   2.5098553E-01   0.0000000E+00   6.1392272E-01   2.4622132E-01   0.0000000E+00   5.2418828E-01   2.4036190E-01   0.0000000E+00   4.6022338E-01   2.3365507E-01   0.0000000E+00   3.8926083E-01   2.2994360E-01   0.0000000E+00   5.3595591E-01   2.2802646E-01   0.0000000E+00   6.6391754E-01   2.2525030E-01   0.0000000E+00   6.1323750E-01   2.2133109E-01   0.0000000E+00   5.2445847E-01   2.1622632E-01   0.0000000E+00   4.6083367E-01   2.1018514E-01   0.0000000E+00   3.8987854E-01   2.0482557E-01   0.0000000E+00   5.3869760E-01   2.0340060E-01   0.0000000E+00   6.6355014E-01   2.0109519E-01   0.0000000E+00   6.0994595E-01   1.9767080E-01   0.0000000E+00   5.2005392E-01   1.9309208E-01   0.0000000E+00   4.5639098E-01   1.8759097E-01   0.0000000E+00   3.8594475E-01   1.8385914E-01   0.0000000E+00   5.3378344E-01   1.8254310E-01   0.0000000E+00   6.5467185E-01   1.8036304E-01   0.0000000E+00   5.9966063E-01   1.7713885E-01   0.0000000E+00   5.1014119E-01   1.7284518E-01   0.0000000E+00   4.4717821E-01   1.6769236E-01   0.0000000E+00   3.7791598E-01   1.6480300E-01   0.0000000E+00   5.2008802E-01   1.6333684E-01   0.0000000E+00   6.3625562E-01   1.6102912E-01   0.0000000E+00   5.8185238E-01   1.5774523E-01   0.0000000E+00   4.9462137E-01   1.5347701E-01   0.0000000E+00   4.3327200E-01   1.4843041E-01   0.0000000E+00   3.6592039E-01   1.4461879E-01   0.0000000E+00   4.9842000E-01   1.4279407E-01   0.0000000E+00   6.0888082E-01   1.4012088E-01   0.0000000E+00   5.5680364E-01   1.3649645E-01   0.0000000E+00   4.7364402E-01   1.3195205E-01   0.0000000E+00   4.1480431E-01   1.2673484E-01   0.0000000E+00   3.5008714E-01   1.2203225E-01   0.0000000E+00   4.7022921E-01   1.1959247E-01   0.0000000E+00   5.7390606E-01   1.1625598E-01   0.0000000E+00   5.2537423E-01   1.1195268E-01   0.0000000E+00   4.4772792E-01   1.0679582E-01   0.0000000E+00   3.9218274E-01   1.0113637E-01   0.0000000E+00   3.3076108E-01   9.8398887E-02   0.0000000E+00   4.3731621E-01   9.4986580E-02   0.0000000E+00   5.3253102E-01   9.0587355E-02   0.0000000E+00   4.8888353E-01   8.5205123E-02   0.0000000E+00   4.1779026E-01   7.9099551E-02   0.0000000E+00   3.6614889E-01   7.2787493E-02   0.0000000E+00   3.0857462E-01   7.6895572E-02   0.0000000E+00   4.0155718E-01   7.2061479E-02   0.0000000E+00   4.8741442E-01   6.6124216E-02   0.0000000E+00   4.4888785E-01   5.9247065E-02   0.0000000E+00   3.8500160E-01   5.1909253E-02   0.0000000E+00   3.3773494E-01   4.4823255E-02   0.0000000E+00   2.8442523E-01   6.0635172E-02   0.0000000E+00   3.6489356E-01   5.3953364E-02   0.0000000E+00   4.4144142E-01   4.6085887E-02   0.0000000E+00   4.0717000E-01   3.7412845E-02   0.0000000E+00   3.5074696E-01   2.8652325E-02   0.0000000E+00   3.0814832E-01   2.0689849E-02   0.0000000E+00   2.5937080E-01   5.0796062E-02   0.0000000E+00   3.2839483E-01   4.2056654E-02   0.0000000E+00   3.9584830E-01   3.2123350E-02   0.0000000E+00   3.6575642E-01   2.1607412E-02   0.0000000E+00   3.1668270E-01   1.1423537E-02   0.0000000E+00   2.7874756E-01   2.5488867E-03   0.0000000E+00   2.3455387E-01   4.6301026E-02   0.0000000E+00   2.9188764E-01   3.5463762E-02   0.0000000E+00   3.5128275E-01   2.3598390E-02   0.0000000E+00   3.2655695E-01   1.1524312E-02   0.0000000E+00   2.8444764E-01   2.3580750E-04   0.0000000E+00   2.5087380E-01  -9.3375631E-03   0.0000000E+00   2.1112865E-01   4.4986654E-02   0.0000000E+00   2.5601968E-01   3.1793449E-02   0.0000000E+00   3.0942628E-01   1.8161533E-02   0.0000000E+00   2.9119068E-01   5.1429374E-03   0.0000000E+00   2.5540590E-01  -6.5136733E-03   0.0000000E+00   2.2565138E-01  -1.6170898E-02   0.0000000E+00   1.9006598E-01   4.6362180E-02   0.0000000E+00   2.2273275E-01   2.8982891E-02   0.0000000E+00   2.7117896E-01   1.3237571E-02   0.0000000E+00   2.6072666E-01  -3.1938143E-05   0.0000000E+00   2.3039864E-01  -1.0929082E-02   0.0000000E+00   2.0374739E-01  -1.9663326E-02   0.0000000E+00   1.7192626E-01   5.2723698E-02   0.0000000E+00   1.9073488E-01   2.7009938E-02   0.0000000E+00   2.3692556E-01   7.5707142E-03   0.0000000E+00   2.3570918E-01  -5.7182806E-03   0.0000000E+00   2.0982601E-01  -1.4643190E-02   0.0000000E+00   1.8521824E-01  -2.1265436E-02   0.0000000E+00   1.5682559E-01   6.4191923E-02   0.0000000E+00   1.6155864E-01   2.6360758E-02   0.0000000E+00   2.0776108E-01   1.7248110E-03   0.0000000E+00   2.1578258E-01  -1.1949450E-02   0.0000000E+00   1.9365631E-01  -1.8135034E-02   0.0000000E+00   1.6988182E-01  -2.1722343E-02   0.0000000E+00   1.4447838E-01   2.6003161E-02   0.0000000E+00   1.8174243E-01  -2.3062350E-03   0.0000000E+00   1.9823872E-01  -1.6905766E-02   0.0000000E+00   1.8122125E-01  -2.0809025E-02   0.0000000E+00   1.5741093E-01  -2.1129811E-02   0.0000000E+00   1.3437186E-01   2.7921399E-02   0.0000000E+00   1.5497048E-01  -1.7724568E-03   0.0000000E+00   1.7934811E-01  -1.7727649E-02   0.0000000E+00   1.7083713E-01  -2.1424694E-02   0.0000000E+00   1.4769569E-01  -1.9346414E-02   0.0000000E+00   1.2597798E-01   5.6588189E-03   0.0000000E+00   1.5741110E-01  -1.1817882E-02   0.0000000E+00   1.5992115E-01  -1.8089661E-02   0.0000000E+00   1.4072193E-01  -1.6013555E-02   0.0000000E+00   1.1923771E-01   1.9079812E-02   0.0000000E+00   1.3528173E-01   1.9334126E-03   0.0000000E+00   1.4653547E-01  -8.4471852E-03   0.0000000E+00   1.3545530E-01  -9.8348549E-03   0.0000000E+00   1.1488571E-01   2.0238560E-02   0.0000000E+00   1.3233164E-01   8.4468024E-03   0.0000000E+00   1.2968349E-01   2.0852867E-03   0.0000000E+00   1.1263744E-01   2.9040556E-02   0.0000000E+00   1.2239344E-01   2.2048188E-02   0.0000000E+00   1.1028310E-01   4.5485865E-02   0.0000000E+00   1.1425311E-01   4.3683711E-02   0.0000000E+00   1.0661364E-01  -1.2057493E-04   0.0000000E+00   3.8674607E-06  -1.2579036E-04   0.0000000E+00   3.8580015E-06  -1.2980754E-04   0.0000000E+00   3.6603763E-06  -1.3288073E-04   0.0000000E+00   3.4018678E-06  -1.3520390E-04   0.0000000E+00   3.1397492E-06  -1.3692753E-04   0.0000000E+00   2.9008886E-06  -1.3816412E-04   0.0000000E+00   2.6996918E-06  -1.3899438E-04   0.0000000E+00   2.5461459E-06  -1.3947205E-04   0.0000000E+00   2.4492347E-06  -1.6790869E-04   0.0000000E+00   6.0272855E-06  -1.7475283E-04   0.0000000E+00   5.9847293E-06  -1.7997395E-04   0.0000000E+00   5.6646036E-06  -1.8392988E-04   0.0000000E+00   5.2570117E-06  -1.8689205E-04   0.0000000E+00   4.8427328E-06  -1.8907133E-04   0.0000000E+00   4.4639942E-06  -1.9062386E-04   0.0000000E+00   4.1448320E-06  -1.9166054E-04   0.0000000E+00   3.9018028E-06  -1.9225481E-04   0.0000000E+00   3.7488953E-06  -2.2999496E-04   0.0000000E+00   8.9205096E-06  -2.3874640E-04   0.0000000E+00   8.8125662E-06  -2.4534290E-04   0.0000000E+00   8.3170135E-06  -2.5028331E-04   0.0000000E+00   7.7019222E-06  -2.5394291E-04   0.0000000E+00   7.0758979E-06  -2.5660952E-04   0.0000000E+00   6.5020286E-06  -2.5849382E-04   0.0000000E+00   6.0183233E-06  -2.5974418E-04   0.0000000E+00   5.6508743E-06  -2.6045792E-04   0.0000000E+00   5.4204083E-06  -3.1439849E-04   0.0000000E+00   1.2802216E-05  -3.2548414E-04   0.0000000E+00   1.2578248E-05  -3.3372562E-04   0.0000000E+00   1.1830252E-05  -3.3981737E-04   0.0000000E+00   1.0922458E-05  -3.4427590E-04   0.0000000E+00   9.9986837E-06  -3.4748967E-04   0.0000000E+00   9.1504298E-06  -3.4973980E-04   0.0000000E+00   8.4356370E-06  -3.5122200E-04   0.0000000E+00   7.8939629E-06  -3.5206383E-04   0.0000000E+00   7.5552962E-06  -4.3052863E-04   0.0000000E+00   1.8082619E-05  -4.4449727E-04   0.0000000E+00   1.7663901E-05  -4.5472596E-04   0.0000000E+00   1.6545162E-05  -4.6217881E-04   0.0000000E+00   1.5214081E-05  -4.6755935E-04   0.0000000E+00   1.3862958E-05  -4.7138907E-04   0.0000000E+00   1.2622390E-05  -4.7404144E-04   0.0000000E+00   1.1578339E-05  -4.7577400E-04   0.0000000E+00   1.0789509E-05  -4.7675241E-04   0.0000000E+00   1.0297998E-05  -5.8989029E-04   0.0000000E+00   2.5390089E-05  -6.0735177E-04   0.0000000E+00   2.4639679E-05  -6.1993272E-04   0.0000000E+00   2.2959410E-05  -6.2895508E-04   0.0000000E+00   2.1001701E-05  -6.3536409E-04   0.0000000E+00   1.9025467E-05  -6.3985615E-04   0.0000000E+00   1.7215581E-05  -6.4292620E-04   0.0000000E+00   1.5697207E-05  -6.4491044E-04   0.0000000E+00   1.4554770E-05  -6.4602261E-04   0.0000000E+00   1.3845818E-05  -8.0670102E-04   0.0000000E+00   3.5716206E-05  -8.2823320E-04   0.0000000E+00   3.4341185E-05  -8.4347732E-04   0.0000000E+00   3.1769643E-05  -8.5420924E-04   0.0000000E+00   2.8862172E-05  -8.6168421E-04   0.0000000E+00   2.5958869E-05  -8.6682168E-04   0.0000000E+00   2.3316366E-05  -8.7027089E-04   0.0000000E+00   2.1112404E-05  -8.7246852E-04   0.0000000E+00   1.9463947E-05  -8.7368838E-04   0.0000000E+00   1.8446121E-05  -1.0989460E-03   0.0000000E+00   5.0706414E-05  -1.1249187E-03   0.0000000E+00   4.8020378E-05  -1.1429625E-03   0.0000000E+00   4.3947628E-05  -1.1553832E-03   0.0000000E+00   3.9559880E-05  -1.1638169E-03   0.0000000E+00   3.5267309E-05  -1.1694606E-03   0.0000000E+00   3.1406078E-05  -1.1731562E-03   0.0000000E+00   2.8215574E-05  -1.1754611E-03   0.0000000E+00   2.5848347E-05  -1.1767213E-03   0.0000000E+00   2.4395757E-05  -1.4899260E-03   0.0000000E+00   7.3067284E-05  -1.5201156E-03   0.0000000E+00   6.7578170E-05  -1.5407443E-03   0.0000000E+00   6.0857321E-05  -1.5545384E-03   0.0000000E+00   5.4101369E-05  -1.5635774E-03   0.0000000E+00   4.7710753E-05  -1.5693909E-03   0.0000000E+00   4.2072210E-05  -1.5730470E-03   0.0000000E+00   3.7476144E-05  -1.5752463E-03   0.0000000E+00   3.4101544E-05  -1.5764171E-03   0.0000000E+00   3.2046242E-05  -2.0095978E-03   0.0000000E+00   1.0687927E-04  -2.0429783E-03   0.0000000E+00   9.5782583E-05  -2.0653913E-03   0.0000000E+00   8.4378567E-05  -2.0797634E-03   0.0000000E+00   7.3797251E-05  -2.0886681E-03   0.0000000E+00   6.4234155E-05  -2.0940118E-03   0.0000000E+00   5.6024270E-05  -2.0971219E-03   0.0000000E+00   4.9453680E-05  -2.0988535E-03   0.0000000E+00   4.4692420E-05  -2.0997184E-03   0.0000000E+00   4.1818290E-05  -2.6955507E-03   0.0000000E+00   1.5761581E-04  -2.7303046E-03   0.0000000E+00   1.3632816E-04  -2.7528391E-03   0.0000000E+00   1.1695996E-04  -2.7662837E-03   0.0000000E+00   1.0029526E-04  -2.7737448E-03   0.0000000E+00   8.5987784E-05  -2.7775443E-03   0.0000000E+00   7.4109281E-05  -2.7792850E-03   0.0000000E+00   6.4816290E-05  -2.7799776E-03   0.0000000E+00   5.8188856E-05  -2.7802009E-03   0.0000000E+00   5.4230000E-05  -3.5943326E-03   0.0000000E+00   2.3175175E-04  -3.6277096E-03   0.0000000E+00   1.9363743E-04  -3.6475621E-03   0.0000000E+00   1.6153470E-04  -3.6575892E-03   0.0000000E+00   1.3554824E-04  -3.6615150E-03   0.0000000E+00   1.1432103E-04  -3.6621066E-03   0.0000000E+00   9.7325341E-05  -3.6612381E-03   0.0000000E+00   8.4370018E-05  -3.6600488E-03   0.0000000E+00   7.5300486E-05  -3.6591487E-03   0.0000000E+00   6.9948845E-05  -4.7633187E-03   0.0000000E+00   3.3609924E-04  -4.7910954E-03   0.0000000E+00   2.7247387E-04  -4.8039733E-03   0.0000000E+00   2.2130951E-04  -4.8067919E-03   0.0000000E+00   1.8171633E-04  -4.8040464E-03   0.0000000E+00   1.5075800E-04  -4.7990009E-03   0.0000000E+00   1.2684654E-04  -4.7937562E-03   0.0000000E+00   1.0911919E-04  -4.7895131E-03   0.0000000E+00   9.6962889E-05  -4.7868248E-03   0.0000000E+00   8.9889458E-05  -6.2726713E-03   0.0000000E+00   4.7725445E-04  -6.2883105E-03   0.0000000E+00   3.7756731E-04  -6.2879315E-03   0.0000000E+00   2.9952236E-04  -6.2780464E-03   0.0000000E+00   2.4105869E-04  -6.2641655E-03   0.0000000E+00   1.9699452E-04  -6.2500909E-03   0.0000000E+00   1.6409556E-04  -6.2380782E-03   0.0000000E+00   1.4039122E-04  -6.2292148E-03   0.0000000E+00   1.2449578E-04  -6.2238728E-03   0.0000000E+00   1.1539071E-04  -8.2073091E-03   0.0000000E+00   6.6156057E-04  -8.2011297E-03   0.0000000E+00   5.1343726E-04  -8.1785228E-03   0.0000000E+00   3.9931209E-04  -8.1481999E-03   0.0000000E+00   3.1592409E-04  -8.1170434E-03   0.0000000E+00   2.5500075E-04  -8.0893934E-03   0.0000000E+00   2.1093115E-04  -8.0674626E-03   0.0000000E+00   1.8008011E-04  -8.0519887E-03   0.0000000E+00   1.5988052E-04  -8.0428971E-03   0.0000000E+00   1.4850996E-04  -1.0669570E-02   0.0000000E+00   8.9555728E-04  -1.0627626E-02   0.0000000E+00   6.8447256E-04  -1.0570057E-02   0.0000000E+00   5.2384764E-04  -1.0508689E-02   0.0000000E+00   4.0897791E-04  -1.0452056E-02   0.0000000E+00   3.2735112E-04  -1.0404931E-02   0.0000000E+00   2.7005075E-04  -1.0369117E-02   0.0000000E+00   2.3108772E-04  -1.0344573E-02   0.0000000E+00   2.0621701E-04  -1.0330434E-02   0.0000000E+00   1.9248527E-04  -1.3782508E-02   0.0000000E+00   1.1864051E-03  -1.3684500E-02   0.0000000E+00   8.9534407E-04  -1.3574286E-02   0.0000000E+00   6.7685178E-04  -1.3467665E-02   0.0000000E+00   5.2385678E-04  -1.3374964E-02   0.0000000E+00   4.1796238E-04  -1.3300951E-02   0.0000000E+00   3.4575103E-04  -1.3246427E-02   0.0000000E+00   2.9806670E-04  -1.3209926E-02   0.0000000E+00   2.6843345E-04  -1.3189222E-02   0.0000000E+00   2.5241505E-04  -1.7691918E-02   0.0000000E+00   1.5418667E-03  -1.7509073E-02   0.0000000E+00   1.1517856E-03  -1.7322415E-02   0.0000000E+00   8.6371659E-04  -1.7152198E-02   0.0000000E+00   6.6648645E-04  -1.7010158E-02   0.0000000E+00   5.3345790E-04  -1.6900264E-02   0.0000000E+00   4.4521797E-04  -1.6821317E-02   0.0000000E+00   3.8858020E-04  -1.6769512E-02   0.0000000E+00   3.5431521E-04  -1.6740566E-02   0.0000000E+00   3.3619508E-04  -2.2567015E-02   0.0000000E+00   1.9710253E-03  -2.2260504E-02   0.0000000E+00   1.4621225E-03  -2.1966765E-02   0.0000000E+00   1.0936268E-03  -2.1710141E-02   0.0000000E+00   8.4741489E-04  -2.1502733E-02   0.0000000E+00   6.8540790E-04  -2.1346340E-02   0.0000000E+00   5.8050448E-04  -2.1236390E-02   0.0000000E+00   5.1475607E-04  -2.1165542E-02   0.0000000E+00   4.7588229E-04  -2.1126486E-02   0.0000000E+00   4.5571986E-04  -2.8600300E-02   0.0000000E+00   2.4860878E-03  -2.8120529E-02   0.0000000E+00   1.8403807E-03  -2.7682181E-02   0.0000000E+00   1.3833150E-03  -2.7312066E-02   0.0000000E+00   1.0855497E-03  -2.7020568E-02   0.0000000E+00   8.9365215E-04  -2.6805386E-02   0.0000000E+00   7.7127165E-04  -2.6656944E-02   0.0000000E+00   6.9545442E-04  -2.6562784E-02   0.0000000E+00   6.5108872E-04  -2.6511561E-02   0.0000000E+00   6.2828348E-04  -3.6005065E-02   0.0000000E+00   3.1071885E-03  -3.5292391E-02   0.0000000E+00   2.3122213E-03  -3.4666196E-02   0.0000000E+00   1.7631234E-03  -3.4151919E-02   0.0000000E+00   1.4135819E-03  -3.3755135E-02   0.0000000E+00   1.1907051E-03  -3.3467192E-02   0.0000000E+00   1.0481562E-03  -3.3271495E-02   0.0000000E+00   9.5876976E-04  -3.3149112E-02   0.0000000E+00   9.0566679E-04  -3.3083305E-02   0.0000000E+00   8.7800482E-04  -4.5005575E-02   0.0000000E+00   3.8724928E-03  -4.3992929E-02   0.0000000E+00   2.9248884E-03  -4.3132175E-02   0.0000000E+00   2.2858107E-03  -4.2440902E-02   0.0000000E+00   1.8850105E-03  -4.1915711E-02   0.0000000E+00   1.6269431E-03  -4.1539144E-02   0.0000000E+00   1.4563825E-03  -4.1286029E-02   0.0000000E+00   1.3444169E-03  -4.1129448E-02   0.0000000E+00   1.2747012E-03  -4.1046020E-02   0.0000000E+00   1.2369499E-03  -5.5805739E-02   0.0000000E+00   4.8552291E-03  -5.4422386E-02   0.0000000E+00   3.7609206E-03  -5.3279653E-02   0.0000000E+00   3.0370816E-03  -5.2377962E-02   0.0000000E+00   2.5817640E-03  -5.1699974E-02   0.0000000E+00   2.2756634E-03  -5.1217236E-02   0.0000000E+00   2.0588380E-03  -5.0894871E-02   0.0000000E+00   1.9054344E-03  -5.0696790E-02   0.0000000E+00   1.8034073E-03  -5.0591968E-02   0.0000000E+00   1.7454163E-03  -6.8512686E-02   0.0000000E+00   6.1882106E-03  -6.6687159E-02   0.0000000E+00   4.9540424E-03  -6.5216027E-02   0.0000000E+00   4.1450332E-03  -6.4070530E-02   0.0000000E+00   3.6194730E-03  -6.3214242E-02   0.0000000E+00   3.2359606E-03  -6.2606275E-02   0.0000000E+00   2.9373027E-03  -6.2201187E-02   0.0000000E+00   2.7082919E-03  -6.1953075E-02   0.0000000E+00   2.5465006E-03  -6.1822236E-02   0.0000000E+00   2.4507702E-03  -8.2995892E-02   0.0000000E+00   8.0967527E-03  -8.0655679E-02   0.0000000E+00   6.7052613E-03  -7.8808740E-02   0.0000000E+00   5.7855751E-03  -7.7384651E-02   0.0000000E+00   5.1476257E-03  -7.6322764E-02   0.0000000E+00   4.6306206E-03  -7.5568482E-02   0.0000000E+00   4.1898112E-03  -7.5065680E-02   0.0000000E+00   3.8299181E-03  -7.4757896E-02   0.0000000E+00   3.5649550E-03  -7.4595742E-02   0.0000000E+00   3.4040364E-03  -9.8696359E-02   0.0000000E+00   1.0947902E-02  -9.5765457E-02   0.0000000E+00   9.3011502E-03  -9.3489267E-02   0.0000000E+00   8.1842802E-03  -9.1746569E-02   0.0000000E+00   7.3444741E-03  -9.0447679E-02   0.0000000E+00   6.5993462E-03  -8.9523152E-02   0.0000000E+00   5.9234109E-03  -8.8905185E-02   0.0000000E+00   5.3505660E-03  -8.8525891E-02   0.0000000E+00   4.9188808E-03  -8.8325836E-02   0.0000000E+00   4.6528582E-03  -1.1443390E-01   0.0000000E+00   1.5337712E-02  -1.1084598E-01   0.0000000E+00   1.3152513E-02  -1.0808200E-01   0.0000000E+00   1.1623083E-02  -1.0597368E-01   0.0000000E+00   1.0411545E-02  -1.0440143E-01   0.0000000E+00   9.2896167E-03  -1.0327844E-01   0.0000000E+00   8.2447622E-03  -1.0252378E-01   0.0000000E+00   7.3442832E-03  -1.0205763E-01   0.0000000E+00   6.6576055E-03  -1.0181009E-01   0.0000000E+00   6.2310826E-03  -1.2827599E-01   0.0000000E+00   2.2205759E-02  -1.2401619E-01   0.0000000E+00   1.8866630E-02  -1.2072618E-01   0.0000000E+00   1.6471708E-02  -1.1821207E-01   0.0000000E+00   1.4577751E-02  -1.1633240E-01   0.0000000E+00   1.2851101E-02  -1.1498319E-01   0.0000000E+00   1.1252082E-02  -1.1406882E-01   0.0000000E+00   9.8703820E-03  -1.1349740E-01   0.0000000E+00   8.8111097E-03  -1.1319026E-01   0.0000000E+00   8.1498548E-03  -1.3745248E-01   0.0000000E+00   3.2877065E-02  -1.3263461E-01   0.0000000E+00   2.7300576E-02  -1.2886031E-01   0.0000000E+00   2.3226606E-02  -1.2594888E-01   0.0000000E+00   2.0117231E-02  -1.2375799E-01   0.0000000E+00   1.7438080E-02  -1.2217440E-01   0.0000000E+00   1.5031716E-02  -1.2108912E-01   0.0000000E+00   1.2969006E-02  -1.2040039E-01   0.0000000E+00   1.1385608E-02  -1.2002420E-01   0.0000000E+00   1.0393853E-02  -1.3823663E-01   0.0000000E+00   4.8893519E-02  -1.3318811E-01   0.0000000E+00   3.9486360E-02  -1.2912911E-01   0.0000000E+00   3.2491371E-02  -1.2594117E-01   0.0000000E+00   2.7348481E-02  -1.2351315E-01   0.0000000E+00   2.3209302E-02  -1.2173999E-01   0.0000000E+00   1.9656399E-02  -1.2050883E-01   0.0000000E+00   1.6659958E-02  -1.1971429E-01   0.0000000E+00   1.4364227E-02  -1.1927302E-01   0.0000000E+00   1.2923270E-02  -1.2608504E-01   0.0000000E+00   7.1555130E-02  -1.2138031E-01   0.0000000E+00   5.6340065E-02  -1.1743963E-01   0.0000000E+00   4.4823021E-02  -1.1425842E-01   0.0000000E+00   3.6566030E-02  -1.1178999E-01   0.0000000E+00   3.0299470E-02  -1.0996041E-01   0.0000000E+00   2.5172727E-02  -1.0867051E-01   0.0000000E+00   2.0939451E-02  -1.0782404E-01   0.0000000E+00   1.7710978E-02  -1.0734665E-01   0.0000000E+00   1.5682468E-02  -9.6653171E-02   0.0000000E+00   1.0127126E-01  -9.3043976E-02   0.0000000E+00   7.8192487E-02  -8.9798264E-02   0.0000000E+00   6.0443889E-02  -8.7064169E-02   0.0000000E+00   4.7885746E-02  -8.4884547E-02   0.0000000E+00   3.8744248E-02  -8.3235949E-02   0.0000000E+00   3.1568330E-02  -8.2052492E-02   0.0000000E+00   2.5769107E-02  -8.1262499E-02   0.0000000E+00   2.1373065E-02  -8.0810651E-02   0.0000000E+00   1.8610705E-02  -4.7696553E-02   0.0000000E+00   1.3696253E-01  -4.5919690E-02   0.0000000E+00   1.0434089E-01  -4.3998566E-02   0.0000000E+00   7.8935653E-02  -4.2229056E-02   0.0000000E+00   6.1056204E-02  -4.0749978E-02   0.0000000E+00   4.8375648E-02  -3.9596401E-02   0.0000000E+00   3.8719166E-02  -3.8748417E-02   0.0000000E+00   3.1053388E-02  -3.8171034E-02   0.0000000E+00   2.5275569E-02  -3.7835598E-02   0.0000000E+00   2.1645786E-02   1.8700689E-02   0.0000000E+00   1.7588130E-01   1.8162416E-02   0.0000000E+00   1.3290103E-01   1.8258432E-02   0.0000000E+00   9.9116266E-02   1.8609913E-02   0.0000000E+00   7.5359561E-02   1.9005513E-02   0.0000000E+00   5.8750238E-02   1.9358071E-02   0.0000000E+00   4.6342269E-02   1.9639999E-02   0.0000000E+00   3.6610834E-02   1.9844502E-02   0.0000000E+00   2.9304301E-02   1.9968944E-02   0.0000000E+00   2.4713151E-02   9.4483964E-02   0.0000000E+00   2.1413206E-01   9.1566078E-02   0.0000000E+00   1.6115633E-01   8.9638419E-02   0.0000000E+00   1.1922859E-01   8.8340312E-02   0.0000000E+00   8.9699447E-02   8.7438308E-02   0.0000000E+00   6.9181651E-02   8.6812869E-02   0.0000000E+00   5.4001100E-02   8.6393729E-02   0.0000000E+00   4.2166933E-02   8.6131677E-02   0.0000000E+00   3.3293150E-02   8.5990280E-02   0.0000000E+00   2.7711580E-02   1.6610533E-01   0.0000000E+00   2.4786724E-01   1.6117716E-01   0.0000000E+00   1.8634847E-01   1.5740138E-01   0.0000000E+00   1.3741641E-01   1.5453272E-01   0.0000000E+00   1.0286660E-01   1.5237571E-01   0.0000000E+00   7.8883789E-02   1.5080257E-01   0.0000000E+00   6.1181847E-02   1.4970714E-01   0.0000000E+00   4.7393579E-02   1.4899811E-01   0.0000000E+00   3.7043326E-02   1.4860360E-01   0.0000000E+00   3.0521821E-02   2.1875487E-01   0.0000000E+00   2.7447239E-01   2.1245840E-01   0.0000000E+00   2.0650680E-01   2.0730223E-01   0.0000000E+00   1.5227109E-01   2.0320806E-01   0.0000000E+00   1.1387716E-01   2.0006214E-01   0.0000000E+00   8.7171324E-02   1.9774780E-01   0.0000000E+00   6.7411944E-02   1.9613214E-01   0.0000000E+00   5.1976908E-02   1.9508576E-01   0.0000000E+00   4.0358666E-02   1.9450313E-01   0.0000000E+00   3.3022799E-02   2.4390453E-01   0.0000000E+00   2.9309538E-01   2.3693264E-01   0.0000000E+00   2.2087519E-01   2.3098440E-01   0.0000000E+00   1.6315451E-01   2.2614276E-01   0.0000000E+00   1.2220635E-01   2.2238645E-01   0.0000000E+00   9.3622208E-02   2.1961881E-01   0.0000000E+00   7.2364829E-02   2.1769221E-01   0.0000000E+00   5.5677921E-02   2.1644987E-01   0.0000000E+00   4.3072719E-02   2.1576084E-01   0.0000000E+00   3.5096377E-02   2.4346833E-01   0.0000000E+00   3.0436650E-01   2.3640031E-01   0.0000000E+00   2.2978024E-01   2.3020551E-01   0.0000000E+00   1.7015779E-01   2.2508863E-01   0.0000000E+00   1.2779680E-01   2.2109839E-01   0.0000000E+00   9.8108448E-02   2.1815997E-01   0.0000000E+00   7.5897045E-02   2.1612139E-01   0.0000000E+00   5.8365487E-02   2.1481355E-01   0.0000000E+00   4.5074660E-02   2.1409209E-01   0.0000000E+00   3.6648080E-02   2.2660986E-01   0.0000000E+00   3.0963969E-01   2.1982734E-01   0.0000000E+00   2.3411985E-01   2.1378410E-01   0.0000000E+00   1.7378974E-01   2.0875224E-01   0.0000000E+00   1.3088736E-01   2.0481886E-01   0.0000000E+00   1.0071272E-01   2.0192419E-01   0.0000000E+00   7.8013405E-02   1.9992192E-01   0.0000000E+00   6.0009334E-02   1.9864282E-01   0.0000000E+00   4.6318721E-02   1.9794051E-01   0.0000000E+00   3.7625231E-02   2.0370893E-01   0.0000000E+00   3.1025705E-01   1.9738989E-01   0.0000000E+00   2.3482987E-01   1.9171427E-01   0.0000000E+00   1.7463341E-01   1.8697104E-01   0.0000000E+00   1.3181134E-01   1.8325855E-01   0.0000000E+00   1.0161589E-01   1.8052594E-01   0.0000000E+00   7.8807563E-02   1.7863733E-01   0.0000000E+00   6.0651660E-02   1.7743319E-01   0.0000000E+00   4.6815220E-02   1.7677329E-01   0.0000000E+00   3.8019709E-02   1.8163635E-01   0.0000000E+00   3.0711690E-01   1.7579331E-01   0.0000000E+00   2.3256446E-01   1.7053375E-01   0.0000000E+00   1.7313315E-01   1.6613543E-01   0.0000000E+00   1.3086171E-01   1.6268922E-01   0.0000000E+00   1.0101218E-01   1.6014753E-01   0.0000000E+00   7.8408726E-02   1.5838686E-01   0.0000000E+00   6.0375463E-02   1.5726139E-01   0.0000000E+00   4.6614181E-02   1.5664309E-01   0.0000000E+00   3.7861131E-02   1.6211425E-01   0.0000000E+00   3.0062875E-01   1.5664643E-01   0.0000000E+00   2.2765474E-01   1.5173781E-01   0.0000000E+00   1.6955283E-01   1.4764145E-01   0.0000000E+00   1.2825154E-01   1.4443061E-01   0.0000000E+00   9.9073492E-02   1.4205514E-01   0.0000000E+00   7.6951675E-02   1.4040019E-01   0.0000000E+00   5.9282754E-02   1.3933450E-01   0.0000000E+00   4.5791201E-02   1.3874508E-01   0.0000000E+00   3.7207793E-02   1.4302629E-01   0.0000000E+00   2.9093003E-01   1.3778067E-01   0.0000000E+00   2.2024599E-01   1.3311484E-01   0.0000000E+00   1.6404867E-01   1.2924576E-01   0.0000000E+00   1.2413999E-01   1.2621978E-01   0.0000000E+00   9.5950641E-02   1.2397540E-01   0.0000000E+00   7.4569441E-02   1.2240081E-01   0.0000000E+00   5.7485107E-02   1.2137703E-01   0.0000000E+00   4.4438876E-02   1.2080550E-01   0.0000000E+00   3.6139823E-02   1.2129094E-01   0.0000000E+00   2.7814871E-01   1.1612812E-01   0.0000000E+00   2.1047515E-01   1.1162452E-01   0.0000000E+00   1.5676956E-01   1.0794158E-01   0.0000000E+00   1.1868164E-01   1.0508259E-01   0.0000000E+00   9.1793008E-02   1.0296381E-01   0.0000000E+00   7.1397685E-02   1.0146992E-01   0.0000000E+00   5.5101518E-02   1.0049058E-01   0.0000000E+00   4.2661466E-02   9.9939227E-02   0.0000000E+00   3.4751747E-02   9.5487311E-02   0.0000000E+00   2.6257795E-01   9.0345137E-02   0.0000000E+00   1.9859070E-01   8.6010374E-02   0.0000000E+00   1.4793089E-01   8.2554743E-02   0.0000000E+00   1.1206669E-01   7.9916634E-02   0.0000000E+00   8.6768024E-02   7.7977687E-02   0.0000000E+00   6.7582287E-02   7.6612666E-02   0.0000000E+00   5.2257940E-02   7.5715519E-02   0.0000000E+00   4.0568545E-02   7.5208671E-02   0.0000000E+00   3.3142537E-02   6.6870600E-02   0.0000000E+00   2.4473624E-01   6.1803222E-02   0.0000000E+00   1.8499988E-01   5.7753999E-02   0.0000000E+00   1.3784592E-01   5.4662533E-02   0.0000000E+00   1.0453916E-01   5.2379388E-02   0.0000000E+00   8.1071556E-02   5.0740685E-02   0.0000000E+00   6.3282862E-02   4.9604833E-02   0.0000000E+00   4.9084313E-02   4.8865456E-02   0.0000000E+00   3.8266685E-02   4.8450168E-02   0.0000000E+00   3.1403311E-02   3.8660098E-02   0.0000000E+00   2.2535123E-01   3.3783436E-02   0.0000000E+00   1.7025752E-01   3.0177578E-02   0.0000000E+00   1.2692040E-01   2.7612571E-02   0.0000000E+00   9.6395850E-02   2.5832895E-02   0.0000000E+00   7.4925981E-02   2.4622107E-02   0.0000000E+00   5.8668762E-02   2.3819266E-02   0.0000000E+00   4.5708295E-02   2.3315158E-02   0.0000000E+00   3.5850104E-02   2.3039298E-02   0.0000000E+00   2.9605480E-02   1.4255765E-02   0.0000000E+00   2.0529287E-01   9.6016796E-03   0.0000000E+00   1.5502419E-01   6.5014614E-03   0.0000000E+00   1.1562716E-01   4.5297961E-03   0.0000000E+00   8.7968767E-02   3.3111856E-03   0.0000000E+00   6.8567172E-02   2.5739816E-03   0.0000000E+00   5.3909246E-02   2.1393704E-03   0.0000000E+00   4.2248901E-02   1.8962637E-03   0.0000000E+00   3.3398651E-02   1.7760937E-03   0.0000000E+00   2.7802369E-02  -4.2778165E-03   0.0000000E+00   1.8550244E-01  -8.8428762E-03   0.0000000E+00   1.4001626E-01  -1.1547876E-02   0.0000000E+00   1.0447320E-01  -1.3018566E-02   0.0000000E+00   7.9603247E-02  -1.3757829E-02   0.0000000E+00   6.2229253E-02  -1.4093237E-02   0.0000000E+00   4.9164228E-02  -1.4218986E-02   0.0000000E+00   3.8813468E-02  -1.4245746E-02   0.0000000E+00   3.0980790E-02  -1.4237817E-02   0.0000000E+00   2.6037959E-02  -1.6579553E-02   0.0000000E+00   1.6691466E-01  -2.1280397E-02   0.0000000E+00   1.2595144E-01  -2.3845991E-02   0.0000000E+00   9.3969502E-02  -2.5045579E-02   0.0000000E+00   7.1642227E-02  -2.5500873E-02   0.0000000E+00   5.6135125E-02  -2.5595753E-02   0.0000000E+00   4.4576325E-02  -2.5540864E-02   0.0000000E+00   3.5491243E-02  -2.5445493E-02   0.0000000E+00   2.8650500E-02  -2.5367886E-02   0.0000000E+00   2.4345636E-02  -2.3559980E-02   0.0000000E+00   1.5035373E-01  -2.8512159E-02   0.0000000E+00   1.1348748E-01  -3.1243853E-02   0.0000000E+00   8.4597491E-02  -3.2472417E-02   0.0000000E+00   6.4411350E-02  -3.2896567E-02   0.0000000E+00   5.0489627E-02  -3.2950725E-02   0.0000000E+00   4.0265918E-02  -3.2866448E-02   0.0000000E+00   3.2347709E-02  -3.2756444E-02   0.0000000E+00   2.6441149E-02  -3.2674301E-02   0.0000000E+00   2.2741869E-02  -2.6606645E-02   0.0000000E+00   1.3638924E-01  -3.1680997E-02   0.0000000E+00   1.0313549E-01  -3.4809705E-02   0.0000000E+00   7.6771513E-02  -3.6374446E-02   0.0000000E+00   5.8204591E-02  -3.7029482E-02   0.0000000E+00   4.5477547E-02  -3.7240867E-02   0.0000000E+00   3.6333352E-02  -3.7267543E-02   0.0000000E+00   2.9427622E-02  -3.7236679E-02   0.0000000E+00   2.4365734E-02  -3.7204232E-02   0.0000000E+00   2.1224469E-02  -2.6913201E-02   0.0000000E+00   1.2521794E-01  -3.1719185E-02   0.0000000E+00   9.5169775E-02  -3.5309628E-02   0.0000000E+00   7.0798978E-02  -3.7489798E-02   0.0000000E+00   5.3278115E-02  -3.8631640E-02   0.0000000E+00   4.1277230E-02  -3.9187778E-02   0.0000000E+00   3.2878347E-02  -3.9447717E-02   0.0000000E+00   2.6770804E-02  -3.9569534E-02   0.0000000E+00   2.2427050E-02  -3.9625518E-02   0.0000000E+00   1.9777473E-02  -2.5227081E-02   0.0000000E+00   1.1663645E-01  -2.9191775E-02   0.0000000E+00   8.9566238E-02  -3.3053797E-02   0.0000000E+00   6.6821612E-02  -3.6038343E-02   0.0000000E+00   4.9846072E-02  -3.7935376E-02   0.0000000E+00   3.8081259E-02  -3.9048608E-02   0.0000000E+00   3.0032642E-02  -3.9679576E-02   0.0000000E+00   2.4442350E-02  -4.0030036E-02   0.0000000E+00   2.0639386E-02  -4.0209871E-02   0.0000000E+00   1.8386360E-02  -2.1899194E-02   0.0000000E+00   1.1010877E-01  -2.4394941E-02   0.0000000E+00   8.5972384E-02  -2.8091742E-02   0.0000000E+00   6.4742886E-02  -3.1814888E-02   0.0000000E+00   4.8050858E-02  -3.4716859E-02   0.0000000E+00   3.6099575E-02  -3.6661219E-02   0.0000000E+00   2.7984941E-02  -3.7876274E-02   0.0000000E+00   2.2570075E-02  -3.8590603E-02   0.0000000E+00   1.9067379E-02  -3.8963009E-02   0.0000000E+00   1.7072778E-02  -1.7300662E-02   0.0000000E+00   1.0489818E-01  -1.7767278E-02   0.0000000E+00   8.3739527E-02  -2.0624684E-02   0.0000000E+00   6.4172134E-02  -2.4604218E-02   0.0000000E+00   4.7836661E-02  -2.8457677E-02   0.0000000E+00   3.5519116E-02  -3.1476591E-02   0.0000000E+00   2.6975535E-02  -3.3550054E-02   0.0000000E+00   2.1366524E-02  -3.4844805E-02   0.0000000E+00   1.7869435E-02  -3.5541300E-02   0.0000000E+00   1.5949193E-02  -1.1931579E-02   0.0000000E+00   1.0037115E-01  -1.0084186E-02   0.0000000E+00   8.2052417E-02  -1.1334515E-02   0.0000000E+00   6.4423203E-02  -1.4719110E-02   0.0000000E+00   4.8824131E-02  -1.8882893E-02   0.0000000E+00   3.6329761E-02  -2.2753527E-02   0.0000000E+00   2.7231798E-02  -2.5784289E-02   0.0000000E+00   2.1119697E-02  -2.7840767E-02   0.0000000E+00   1.7318739E-02  -2.8999146E-02   0.0000000E+00   1.5260595E-02  -6.0585323E-03   0.0000000E+00   9.6427456E-02  -2.3444623E-03   0.0000000E+00   8.0231048E-02  -1.3501581E-03   0.0000000E+00   6.4692020E-02  -3.1476768E-03   0.0000000E+00   5.0336048E-02  -6.5663829E-03   0.0000000E+00   3.8154427E-02  -1.0414661E-02   0.0000000E+00   2.8738163E-02  -1.3857350E-02   0.0000000E+00   2.2076746E-02  -1.6462378E-02   0.0000000E+00   1.7767398E-02  -1.8048471E-02   0.0000000E+00   1.5381572E-02   1.9488025E-03   0.0000000E+00   9.4136536E-02   5.0139320E-03   0.0000000E+00   7.8428097E-02   7.9661887E-03   0.0000000E+00   6.4451180E-02   8.6237518E-03   0.0000000E+00   5.1641531E-02   7.1086157E-03   0.0000000E+00   4.0353362E-02   4.4304812E-03   0.0000000E+00   3.1127997E-02   1.5336896E-03   0.0000000E+00   2.4195861E-02  -9.3079428E-04   0.0000000E+00   1.9448744E-02  -2.5548835E-03   0.0000000E+00   1.6695373E-02   1.6963776E-02   0.0000000E+00   9.3331032E-02   1.4976543E-02   0.0000000E+00   7.7841908E-02   1.6527666E-02   0.0000000E+00   6.4330950E-02   1.8878212E-02   0.0000000E+00   5.2549526E-02   2.0002225E-02   0.0000000E+00   4.2412240E-02   1.9591067E-02   0.0000000E+00   3.3894990E-02   1.8263256E-02   0.0000000E+00   2.7160661E-02   1.6744118E-02   0.0000000E+00   2.2289602E-02   1.5606588E-02   0.0000000E+00   1.9328188E-02   4.0141456E-02   0.0000000E+00   9.2764214E-02   3.4738965E-02   0.0000000E+00   7.8147464E-02   3.0364409E-02   0.0000000E+00   6.5258741E-02   2.9165234E-02   0.0000000E+00   5.4177724E-02   3.0589975E-02   0.0000000E+00   4.4658929E-02   3.2260217E-02   0.0000000E+00   3.6838423E-02   3.3166729E-02   0.0000000E+00   3.0615522E-02   3.3340503E-02   0.0000000E+00   2.5974257E-02   3.3192646E-02   0.0000000E+00   2.3048595E-02   5.3822663E-02   0.0000000E+00   9.3115523E-02   5.6354251E-02   0.0000000E+00   7.9600021E-02   5.4229032E-02   0.0000000E+00   6.7052849E-02   4.9711134E-02   0.0000000E+00   5.6518264E-02   4.6228450E-02   0.0000000E+00   4.7716308E-02   4.4981264E-02   0.0000000E+00   4.0423423E-02   4.5304425E-02   0.0000000E+00   3.4572124E-02   4.6099186E-02   0.0000000E+00   3.0192338E-02   4.6698295E-02   0.0000000E+00   2.7413344E-02   5.7660785E-02   0.0000000E+00   8.3065502E-02   6.8184912E-02   0.0000000E+00   7.0888318E-02   7.2327621E-02   0.0000000E+00   6.0495462E-02   7.1786560E-02   0.0000000E+00   5.1624715E-02   6.9659948E-02   0.0000000E+00   4.4329323E-02   6.8228744E-02   0.0000000E+00   3.8641855E-02   6.7840122E-02   0.0000000E+00   3.4503929E-02   6.7895979E-02   0.0000000E+00   3.1907581E-02   6.7793176E-02   0.0000000E+00   6.7733414E-02   8.0705985E-02   0.0000000E+00   5.7871237E-02   8.8352591E-02   0.0000000E+00   4.9391221E-02   9.3317755E-02   0.0000000E+00   4.2910773E-02   9.6732050E-02   0.0000000E+00   3.8626421E-02   9.8786965E-02   0.0000000E+00   3.6123335E-02   6.6382162E-02   0.0000000E+00   5.6916635E-02   7.9773359E-02   0.0000000E+00   4.7769211E-02   8.9458637E-02   0.0000000E+00   4.2489331E-02   9.5176205E-02   0.0000000E+00   3.9829720E-02  -1.3962793E-04   0.0000000E+00   2.4160120E-06  -1.3947205E-04   0.0000000E+00   2.4492349E-06  -1.3899439E-04   0.0000000E+00   2.5461466E-06  -1.3816415E-04   0.0000000E+00   2.6996938E-06  -1.3692751E-04   0.0000000E+00   2.9008893E-06  -1.3520393E-04   0.0000000E+00   3.1397506E-06  -1.3288071E-04   0.0000000E+00   3.4018688E-06  -1.2980757E-04   0.0000000E+00   3.6603758E-06  -1.9244839E-04   0.0000000E+00   3.6965848E-06  -1.9225478E-04   0.0000000E+00   3.7488956E-06  -1.9166057E-04   0.0000000E+00   3.9018041E-06  -1.9062389E-04   0.0000000E+00   4.1448302E-06  -1.8907130E-04   0.0000000E+00   4.4639955E-06  -1.8689208E-04   0.0000000E+00   4.8427360E-06  -1.8392982E-04   0.0000000E+00   5.2570122E-06  -1.7997395E-04   0.0000000E+00   5.6646068E-06  -2.6068988E-04   0.0000000E+00   5.3417334E-06  -2.6045783E-04   0.0000000E+00   5.4204079E-06  -2.5974421E-04   0.0000000E+00   5.6508766E-06  -2.5849394E-04   0.0000000E+00   6.0183265E-06  -2.5660952E-04   0.0000000E+00   6.5020286E-06  -2.5394291E-04   0.0000000E+00   7.0759029E-06  -2.5028319E-04   0.0000000E+00   7.7019185E-06  -2.4534288E-04   0.0000000E+00   8.3170198E-06  -3.5233679E-04   0.0000000E+00   7.4399377E-06  -3.5206371E-04   0.0000000E+00   7.5552975E-06  -3.5122191E-04   0.0000000E+00   7.8939665E-06  -3.4973989E-04   0.0000000E+00   8.4356452E-06  -3.4748969E-04   0.0000000E+00   9.1504371E-06  -3.4427611E-04   0.0000000E+00   9.9986828E-06  -3.3981728E-04   0.0000000E+00   1.0922465E-05  -3.3372559E-04   0.0000000E+00   1.1830252E-05  -4.7706859E-04   0.0000000E+00   1.0130960E-05  -4.7675220E-04   0.0000000E+00   1.0297996E-05  -4.7577388E-04   0.0000000E+00   1.0789514E-05  -4.7404144E-04   0.0000000E+00   1.1578353E-05  -4.7138892E-04   0.0000000E+00   1.2622391E-05  -4.6755953E-04   0.0000000E+00   1.3862963E-05  -4.6217901E-04   0.0000000E+00   1.5214089E-05  -4.5472596E-04   0.0000000E+00   1.6545166E-05  -6.4638071E-04   0.0000000E+00   1.3605499E-05  -6.4602232E-04   0.0000000E+00   1.3845819E-05  -6.4491032E-04   0.0000000E+00   1.4554771E-05  -6.4292643E-04   0.0000000E+00   1.5697213E-05  -6.3985615E-04   0.0000000E+00   1.7215591E-05  -6.3536415E-04   0.0000000E+00   1.9025483E-05  -6.2895496E-04   0.0000000E+00   2.1001710E-05  -6.1993266E-04   0.0000000E+00   2.2959413E-05  -8.7407901E-04   0.0000000E+00   1.8102102E-05  -8.7368808E-04   0.0000000E+00   1.8446117E-05  -8.7246863E-04   0.0000000E+00   1.9463951E-05  -8.7027089E-04   0.0000000E+00   2.1112412E-05  -8.6682185E-04   0.0000000E+00   2.3316370E-05  -8.6168409E-04   0.0000000E+00   2.5958883E-05  -8.5420971E-04   0.0000000E+00   2.8862176E-05  -8.4347761E-04   0.0000000E+00   3.1769647E-05  -1.1771214E-03   0.0000000E+00   2.3906445E-05  -1.1767211E-03   0.0000000E+00   2.4395755E-05  -1.1754608E-03   0.0000000E+00   2.5848334E-05  -1.1731561E-03   0.0000000E+00   2.8215578E-05  -1.1694606E-03   0.0000000E+00   3.1406074E-05  -1.1638167E-03   0.0000000E+00   3.5267316E-05  -1.1553835E-03   0.0000000E+00   3.9559891E-05  -1.1429625E-03   0.0000000E+00   4.3947646E-05  -1.5767841E-03   0.0000000E+00   3.1356634E-05  -1.5764171E-03   0.0000000E+00   3.2046224E-05  -1.5752467E-03   0.0000000E+00   3.4101515E-05  -1.5730468E-03   0.0000000E+00   3.7476108E-05  -1.5693906E-03   0.0000000E+00   4.2072210E-05  -1.5635776E-03   0.0000000E+00   4.7710731E-05  -1.5545383E-03   0.0000000E+00   5.4101376E-05  -1.5407442E-03   0.0000000E+00   6.0857357E-05  -2.0999797E-03   0.0000000E+00   4.0858366E-05  -2.0997180E-03   0.0000000E+00   4.1818261E-05  -2.0988525E-03   0.0000000E+00   4.4692380E-05  -2.0971214E-03   0.0000000E+00   4.9453654E-05  -2.0940136E-03   0.0000000E+00   5.6024259E-05  -2.0886692E-03   0.0000000E+00   6.4234140E-05  -2.0797630E-03   0.0000000E+00   7.3797222E-05  -2.0653924E-03   0.0000000E+00   8.4378582E-05  -2.7802493E-03   0.0000000E+00   5.2914806E-05  -2.7802035E-03   0.0000000E+00   5.4229997E-05  -2.7799767E-03   0.0000000E+00   5.8188820E-05  -2.7792861E-03   0.0000000E+00   6.4816268E-05  -2.7775448E-03   0.0000000E+00   7.4109266E-05  -2.7737452E-03   0.0000000E+00   8.5987776E-05  -2.7662825E-03   0.0000000E+00   1.0029520E-04  -2.7528377E-03   0.0000000E+00   1.1695996E-04  -3.6588246E-03   0.0000000E+00   6.8181813E-05  -3.6591501E-03   0.0000000E+00   6.9948816E-05  -3.6600481E-03   0.0000000E+00   7.5300501E-05  -3.6612377E-03   0.0000000E+00   8.4369967E-05  -3.6621068E-03   0.0000000E+00   9.7325297E-05  -3.6615138E-03   0.0000000E+00   1.1432102E-04  -3.6575918E-03   0.0000000E+00   1.3554825E-04  -3.6475633E-03   0.0000000E+00   1.6153461E-04  -4.7859144E-03   0.0000000E+00   8.7570661E-05  -4.7868248E-03   0.0000000E+00   8.9889472E-05  -4.7895131E-03   0.0000000E+00   9.6962875E-05  -4.7937580E-03   0.0000000E+00   1.0911920E-04  -4.7989991E-03   0.0000000E+00   1.2684651E-04  -4.8040464E-03   0.0000000E+00   1.5075794E-04  -4.8067914E-03   0.0000000E+00   1.8171626E-04  -4.8039728E-03   0.0000000E+00   2.2130950E-04  -6.2220925E-03   0.0000000E+00   1.1243036E-04  -6.2238686E-03   0.0000000E+00   1.1539075E-04  -6.2292120E-03   0.0000000E+00   1.2449580E-04  -6.2380764E-03   0.0000000E+00   1.4039128E-04  -6.2500904E-03   0.0000000E+00   1.6409566E-04  -6.2641697E-03   0.0000000E+00   1.9699453E-04  -6.2780469E-03   0.0000000E+00   2.4105870E-04  -6.2879366E-03   0.0000000E+00   2.9952236E-04  -8.0399103E-03   0.0000000E+00   1.4484800E-04  -8.0428980E-03   0.0000000E+00   1.4851004E-04  -8.0519821E-03   0.0000000E+00   1.5988061E-04  -8.0674589E-03   0.0000000E+00   1.8008020E-04  -8.0893915E-03   0.0000000E+00   2.1093120E-04  -8.1170434E-03   0.0000000E+00   2.5500057E-04  -8.1481999E-03   0.0000000E+00   3.1592403E-04  -8.1785237E-03   0.0000000E+00   3.9931203E-04  -1.0325840E-02   0.0000000E+00   1.8811066E-04  -1.0330439E-02   0.0000000E+00   1.9248540E-04  -1.0344574E-02   0.0000000E+00   2.0621718E-04  -1.0369115E-02   0.0000000E+00   2.3108772E-04  -1.0404928E-02   0.0000000E+00   2.7005083E-04  -1.0452057E-02   0.0000000E+00   3.2735118E-04  -1.0508678E-02   0.0000000E+00   4.0897785E-04  -1.0570057E-02   0.0000000E+00   5.2384729E-04  -1.3182546E-02   0.0000000E+00   2.4737348E-04  -1.3189221E-02   0.0000000E+00   2.5241528E-04  -1.3209923E-02   0.0000000E+00   2.6843374E-04  -1.3246426E-02   0.0000000E+00   2.9806700E-04  -1.3300953E-02   0.0000000E+00   3.4575094E-04  -1.3374962E-02   0.0000000E+00   4.1796250E-04  -1.3467666E-02   0.0000000E+00   5.2385655E-04  -1.3574289E-02   0.0000000E+00   6.7685166E-04  -1.6731294E-02   0.0000000E+00   3.3056454E-04  -1.6740562E-02   0.0000000E+00   3.3619508E-04  -1.6769515E-02   0.0000000E+00   3.5431536E-04  -1.6821317E-02   0.0000000E+00   3.8858014E-04  -1.6900262E-02   0.0000000E+00   4.4521832E-04  -1.7010149E-02   0.0000000E+00   5.3345796E-04  -1.7152190E-02   0.0000000E+00   6.6648645E-04  -1.7322412E-02   0.0000000E+00   8.6371659E-04  -2.1114087E-02   0.0000000E+00   4.4952729E-04  -2.1126490E-02   0.0000000E+00   4.5571991E-04  -2.1165544E-02   0.0000000E+00   4.7588249E-04  -2.1236407E-02   0.0000000E+00   5.1475619E-04  -2.1346344E-02   0.0000000E+00   5.8050494E-04  -2.1502735E-02   0.0000000E+00   6.8540813E-04  -2.1710139E-02   0.0000000E+00   8.4741507E-04  -2.1966746E-02   0.0000000E+00   1.0936270E-03  -2.6495412E-02   0.0000000E+00   6.2131911E-04  -2.6511565E-02   0.0000000E+00   6.2828395E-04  -2.6562784E-02   0.0000000E+00   6.5108866E-04  -2.6656928E-02   0.0000000E+00   6.9545466E-04  -2.6805392E-02   0.0000000E+00   7.7127159E-04  -2.7020559E-02   0.0000000E+00   8.9365221E-04  -2.7312061E-02   0.0000000E+00   1.0855508E-03  -2.7682191E-02   0.0000000E+00   1.3833146E-03  -3.3062693E-02   0.0000000E+00   8.6948846E-04  -3.3083305E-02   0.0000000E+00   8.7800453E-04  -3.3149119E-02   0.0000000E+00   9.0566702E-04  -3.3271499E-02   0.0000000E+00   9.5877005E-04  -3.3467200E-02   0.0000000E+00   1.0481562E-03  -3.3755150E-02   0.0000000E+00   1.1907042E-03  -3.4151927E-02   0.0000000E+00   1.4135820E-03  -3.4666203E-02   0.0000000E+00   1.7631226E-03  -4.1020036E-02   0.0000000E+00   1.2250617E-03  -4.1046038E-02   0.0000000E+00   1.2369497E-03  -4.1129455E-02   0.0000000E+00   1.2747009E-03  -4.1286033E-02   0.0000000E+00   1.3444179E-03  -4.1539151E-02   0.0000000E+00   1.4563821E-03  -4.1915718E-02   0.0000000E+00   1.6269439E-03  -4.2440880E-02   0.0000000E+00   1.8850107E-03  -4.3132156E-02   0.0000000E+00   2.2858104E-03  -5.0559450E-02   0.0000000E+00   1.7266698E-03  -5.0591942E-02   0.0000000E+00   1.7454157E-03  -5.0696809E-02   0.0000000E+00   1.8034072E-03  -5.0894879E-02   0.0000000E+00   1.9054343E-03  -5.1217247E-02   0.0000000E+00   2.0588380E-03  -5.1699970E-02   0.0000000E+00   2.2756639E-03  -5.2377962E-02   0.0000000E+00   2.5817640E-03  -5.3279664E-02   0.0000000E+00   3.0370830E-03  -6.1781771E-02   0.0000000E+00   2.4191837E-03  -6.1822232E-02   0.0000000E+00   2.4507702E-03  -6.1953053E-02   0.0000000E+00   2.5464999E-03  -6.2201168E-02   0.0000000E+00   2.7082907E-03  -6.2606260E-02   0.0000000E+00   2.9373020E-03  -6.3214265E-02   0.0000000E+00   3.2359594E-03  -6.4070530E-02   0.0000000E+00   3.6194718E-03  -6.5216027E-02   0.0000000E+00   4.1450327E-03  -7.4545667E-02   0.0000000E+00   3.3502630E-03  -7.4595764E-02   0.0000000E+00   3.4040371E-03  -7.4757896E-02   0.0000000E+00   3.5649571E-03  -7.5065687E-02   0.0000000E+00   3.8299181E-03  -7.5568475E-02   0.0000000E+00   4.1898098E-03  -7.6322749E-02   0.0000000E+00   4.6306248E-03  -7.7384651E-02   0.0000000E+00   5.1476266E-03  -7.8808784E-02   0.0000000E+00   5.7855770E-03  -8.8263966E-02   0.0000000E+00   4.5633046E-03  -8.8325828E-02   0.0000000E+00   4.6528601E-03  -8.8525958E-02   0.0000000E+00   4.9188780E-03  -8.8905223E-02   0.0000000E+00   5.3505683E-03  -8.9523159E-02   0.0000000E+00   5.9234099E-03  -9.0447687E-02   0.0000000E+00   6.5993471E-03  -9.1746554E-02   0.0000000E+00   7.3444708E-03  -9.3489252E-02   0.0000000E+00   8.1842812E-03  -1.0173316E-01   0.0000000E+00   6.0869115E-03  -1.0181003E-01   0.0000000E+00   6.2310826E-03  -1.0205761E-01   0.0000000E+00   6.6576065E-03  -1.0252377E-01   0.0000000E+00   7.3442860E-03  -1.0327847E-01   0.0000000E+00   8.2447650E-03  -1.0440142E-01   0.0000000E+00   9.2896149E-03  -1.0597372E-01   0.0000000E+00   1.0411543E-02  -1.0808200E-01   0.0000000E+00   1.1623084E-02  -1.1309410E-01   0.0000000E+00   7.9257125E-03  -1.1319024E-01   0.0000000E+00   8.1498586E-03  -1.1349739E-01   0.0000000E+00   8.8111116E-03  -1.1406887E-01   0.0000000E+00   9.8703839E-03  -1.1498322E-01   0.0000000E+00   1.1252083E-02  -1.1633238E-01   0.0000000E+00   1.2851103E-02  -1.1821205E-01   0.0000000E+00   1.4577756E-02  -1.2072616E-01   0.0000000E+00   1.6471695E-02  -1.1990527E-01   0.0000000E+00   1.0056932E-02  -1.2002417E-01   0.0000000E+00   1.0393861E-02  -1.2040041E-01   0.0000000E+00   1.1385608E-02  -1.2108912E-01   0.0000000E+00   1.2968999E-02  -1.2217441E-01   0.0000000E+00   1.5031721E-02  -1.2375798E-01   0.0000000E+00   1.7438084E-02  -1.2594886E-01   0.0000000E+00   2.0117214E-02  -1.2886034E-01   0.0000000E+00   2.3226617E-02  -1.1913203E-01   0.0000000E+00   1.2432901E-02  -1.1927303E-01   0.0000000E+00   1.2923267E-02  -1.1971430E-01   0.0000000E+00   1.4364222E-02  -1.2050881E-01   0.0000000E+00   1.6659958E-02  -1.2173998E-01   0.0000000E+00   1.9656403E-02  -1.2351322E-01   0.0000000E+00   2.3209296E-02  -1.2594119E-01   0.0000000E+00   2.7348464E-02  -1.2912919E-01   0.0000000E+00   3.2491367E-02  -1.0719267E-01   0.0000000E+00   1.4991174E-02  -1.0734670E-01   0.0000000E+00   1.5682474E-02  -1.0782406E-01   0.0000000E+00   1.7710991E-02  -1.0867048E-01   0.0000000E+00   2.0939456E-02  -1.0996042E-01   0.0000000E+00   2.5172733E-02  -1.1179000E-01   0.0000000E+00   3.0299475E-02  -1.1425840E-01   0.0000000E+00   3.6566038E-02  -1.1743969E-01   0.0000000E+00   4.4823039E-02  -8.0663592E-02   0.0000000E+00   1.7668406E-02  -8.0810621E-02   0.0000000E+00   1.8610699E-02  -8.1262589E-02   0.0000000E+00   2.1373075E-02  -8.2052499E-02   0.0000000E+00   2.5769105E-02  -8.3235942E-02   0.0000000E+00   3.1568330E-02  -8.4884532E-02   0.0000000E+00   3.8744230E-02  -8.7064177E-02   0.0000000E+00   4.7885761E-02  -8.9798249E-02   0.0000000E+00   6.0443860E-02  -3.7725560E-02   0.0000000E+00   2.0406615E-02  -3.7835572E-02   0.0000000E+00   2.1645796E-02  -3.8171008E-02   0.0000000E+00   2.5275564E-02  -3.8748413E-02   0.0000000E+00   3.1053392E-02  -3.9596416E-02   0.0000000E+00   3.8719166E-02  -4.0749934E-02   0.0000000E+00   4.8375670E-02  -4.2229053E-02   0.0000000E+00   6.1056208E-02  -4.3998547E-02   0.0000000E+00   7.8935675E-02   2.0010849E-02   0.0000000E+00   2.3144340E-02   1.9968957E-02   0.0000000E+00   2.4713131E-02   1.9844526E-02   0.0000000E+00   2.9304300E-02   1.9640017E-02   0.0000000E+00   3.6610831E-02   1.9358084E-02   0.0000000E+00   4.6342280E-02   1.9005533E-02   0.0000000E+00   5.8750238E-02   1.8609941E-02   0.0000000E+00   7.5359561E-02   1.8258445E-02   0.0000000E+00   9.9116281E-02   8.5945860E-02   0.0000000E+00   2.5802363E-02   8.5990295E-02   0.0000000E+00   2.7711557E-02   8.6131699E-02   0.0000000E+00   3.3293147E-02   8.6393766E-02   0.0000000E+00   4.2166948E-02   8.6812936E-02   0.0000000E+00   5.4001100E-02   8.7438263E-02   0.0000000E+00   6.9181703E-02   8.8340290E-02   0.0000000E+00   8.9699440E-02   8.9638405E-02   0.0000000E+00   1.1922854E-01   1.4847727E-01   0.0000000E+00   2.8288405E-02   1.4860354E-01   0.0000000E+00   3.0521832E-02   1.4899817E-01   0.0000000E+00   3.7043344E-02   1.4970721E-01   0.0000000E+00   4.7393594E-02   1.5080252E-01   0.0000000E+00   6.1181873E-02   1.5237583E-01   0.0000000E+00   7.8883842E-02   1.5453279E-01   0.0000000E+00   1.0286661E-01   1.5740146E-01   0.0000000E+00   1.3741648E-01   1.9431667E-01   0.0000000E+00   3.0507538E-02   1.9450305E-01   0.0000000E+00   3.3022810E-02   1.9508572E-01   0.0000000E+00   4.0358674E-02   1.9613227E-01   0.0000000E+00   5.1976923E-02   1.9774769E-01   0.0000000E+00   6.7411929E-02   2.0006211E-01   0.0000000E+00   8.7171338E-02   2.0320798E-01   0.0000000E+00   1.1387717E-01   2.0730244E-01   0.0000000E+00   1.5227115E-01   2.1554102E-01   0.0000000E+00   3.2358728E-02   2.1576093E-01   0.0000000E+00   3.5096362E-02   2.1644981E-01   0.0000000E+00   4.3072708E-02   2.1769214E-01   0.0000000E+00   5.5677932E-02   2.1961878E-01   0.0000000E+00   7.2364867E-02   2.2238648E-01   0.0000000E+00   9.3622223E-02   2.2614287E-01   0.0000000E+00   1.2220637E-01   2.3098440E-01   0.0000000E+00   1.6315454E-01   2.1386243E-01   0.0000000E+00   3.3753518E-02   2.1409200E-01   0.0000000E+00   3.6648065E-02   2.1481356E-01   0.0000000E+00   4.5074653E-02   2.1612144E-01   0.0000000E+00   5.8365490E-02   2.1815993E-01   0.0000000E+00   7.5897031E-02   2.2109830E-01   0.0000000E+00   9.8108403E-02   2.2508858E-01   0.0000000E+00   1.2779686E-01   2.3020564E-01   0.0000000E+00   1.7015779E-01   1.9771755E-01   0.0000000E+00   3.4637149E-02   1.9794053E-01   0.0000000E+00   3.7625238E-02   1.9864276E-01   0.0000000E+00   4.6318736E-02   1.9992186E-01   0.0000000E+00   6.0009349E-02   2.0192423E-01   0.0000000E+00   7.8013420E-02   2.0481887E-01   0.0000000E+00   1.0071273E-01   2.0875221E-01   0.0000000E+00   1.3088740E-01   2.1378426E-01   0.0000000E+00   1.7378965E-01   1.7656416E-01   0.0000000E+00   3.4995332E-02   1.7677325E-01   0.0000000E+00   3.8019728E-02   1.7743331E-01   0.0000000E+00   4.6815194E-02   1.7863727E-01   0.0000000E+00   6.0651656E-02   1.8052593E-01   0.0000000E+00   7.8807592E-02   1.8325861E-01   0.0000000E+00   1.0161582E-01   1.8697110E-01   0.0000000E+00   1.3181134E-01   1.9171430E-01   0.0000000E+00   1.7463346E-01   1.5644690E-01   0.0000000E+00   3.4850631E-02   1.5664311E-01   0.0000000E+00   3.7861113E-02   1.5726142E-01   0.0000000E+00   4.6614185E-02   1.5838680E-01   0.0000000E+00   6.0375452E-02   1.6014758E-01   0.0000000E+00   7.8408659E-02   1.6268913E-01   0.0000000E+00   1.0101216E-01   1.6613546E-01   0.0000000E+00   1.3086167E-01   1.7053375E-01   0.0000000E+00   1.7313305E-01   1.3855718E-01   0.0000000E+00   3.4255512E-02   1.3874508E-01   0.0000000E+00   3.7207779E-02   1.3933444E-01   0.0000000E+00   4.5791201E-02   1.4040019E-01   0.0000000E+00   5.9282739E-02   1.4205518E-01   0.0000000E+00   7.6951668E-02   1.4443061E-01   0.0000000E+00   9.9073485E-02   1.4764154E-01   0.0000000E+00   1.2825158E-01   1.5173788E-01   0.0000000E+00   1.6955288E-01   1.2062229E-01   0.0000000E+00   3.3285700E-02   1.2080545E-01   0.0000000E+00   3.6139842E-02   1.2137704E-01   0.0000000E+00   4.4438891E-02   1.2240075E-01   0.0000000E+00   5.7485145E-02   1.2397540E-01   0.0000000E+00   7.4569441E-02   1.2621981E-01   0.0000000E+00   9.5950671E-02   1.2924579E-01   0.0000000E+00   1.2413996E-01   1.3311486E-01   0.0000000E+00   1.6404858E-01   9.9761628E-02   0.0000000E+00   3.2032389E-02   9.9939264E-02   0.0000000E+00   3.4751747E-02   1.0049052E-01   0.0000000E+00   4.2661514E-02   1.0146993E-01   0.0000000E+00   5.5101529E-02   1.0296380E-01   0.0000000E+00   7.1397640E-02   1.0508258E-01   0.0000000E+00   9.1793031E-02   1.0794157E-01   0.0000000E+00   1.1868167E-01   1.1162453E-01   0.0000000E+00   1.5676959E-01   7.5045034E-02   0.0000000E+00   3.0590966E-02   7.5208656E-02   0.0000000E+00   3.3142559E-02   7.5715497E-02   0.0000000E+00   4.0568560E-02   7.6612681E-02   0.0000000E+00   5.2257936E-02   7.7977702E-02   0.0000000E+00   6.7582279E-02   7.9916656E-02   0.0000000E+00   8.6768046E-02   8.2554713E-02   0.0000000E+00   1.1206674E-01   8.6010434E-02   0.0000000E+00   1.4793094E-01   4.8316482E-02   0.0000000E+00   2.9047025E-02   4.8450164E-02   0.0000000E+00   3.1403325E-02   4.8865460E-02   0.0000000E+00   3.8266670E-02   4.9604796E-02   0.0000000E+00   4.9084313E-02   5.0740656E-02   0.0000000E+00   6.3282840E-02   5.2379396E-02   0.0000000E+00   8.1071518E-02   5.4662537E-02   0.0000000E+00   1.0453916E-01   5.7754017E-02   0.0000000E+00   1.3784583E-01   2.2951715E-02   0.0000000E+00   2.7463714E-02   2.3039302E-02   0.0000000E+00   2.9605480E-02   2.3315147E-02   0.0000000E+00   3.5850119E-02   2.3819285E-02   0.0000000E+00   4.5708284E-02   2.4622139E-02   0.0000000E+00   5.8668721E-02   2.5832923E-02   0.0000000E+00   7.4925974E-02   2.7612582E-02   0.0000000E+00   9.6395895E-02   3.0177571E-02   0.0000000E+00   1.2692042E-01   1.7402635E-03   0.0000000E+00   2.5884833E-02   1.7760959E-03   0.0000000E+00   2.7802398E-02   1.8962671E-03   0.0000000E+00   3.3398654E-02   2.1393844E-03   0.0000000E+00   4.2248882E-02   2.5739952E-03   0.0000000E+00   5.3909235E-02   3.3111894E-03   0.0000000E+00   6.8567201E-02   4.5298012E-03   0.0000000E+00   8.7968796E-02   6.5014693E-03   0.0000000E+00   1.1562712E-01  -1.4231212E-02   0.0000000E+00   2.4345994E-02  -1.4237815E-02   0.0000000E+00   2.6037939E-02  -1.4245741E-02   0.0000000E+00   3.0980781E-02  -1.4218983E-02   0.0000000E+00   3.8813453E-02  -1.4093229E-02   0.0000000E+00   4.9164236E-02  -1.3757825E-02   0.0000000E+00   6.2229224E-02  -1.3018553E-02   0.0000000E+00   7.9603247E-02  -1.1547869E-02   0.0000000E+00   1.0447318E-01  -2.5338760E-02   0.0000000E+00   2.2873983E-02  -2.5367897E-02   0.0000000E+00   2.4345638E-02  -2.5445493E-02   0.0000000E+00   2.8650483E-02  -2.5540847E-02   0.0000000E+00   3.5491217E-02  -2.5595749E-02   0.0000000E+00   4.4576310E-02  -2.5500871E-02   0.0000000E+00   5.6135088E-02  -2.5045583E-02   0.0000000E+00   7.1642265E-02  -2.3845989E-02   0.0000000E+00   9.3969546E-02  -3.2644589E-02   0.0000000E+00   2.1479817E-02  -3.2674301E-02   0.0000000E+00   2.2741864E-02  -3.2756411E-02   0.0000000E+00   2.6441123E-02  -3.2866444E-02   0.0000000E+00   3.2347705E-02  -3.2950718E-02   0.0000000E+00   4.0265907E-02  -3.2896582E-02   0.0000000E+00   5.0489593E-02  -3.2472417E-02   0.0000000E+00   6.4411327E-02  -3.1243859E-02   0.0000000E+00   8.4597565E-02  -3.7191648E-02   0.0000000E+00   2.0156760E-02  -3.7204243E-02   0.0000000E+00   2.1224452E-02  -3.7236664E-02   0.0000000E+00   2.4365719E-02  -3.7267555E-02   0.0000000E+00   2.9427608E-02  -3.7240852E-02   0.0000000E+00   3.6333356E-02  -3.7029482E-02   0.0000000E+00   4.5477536E-02  -3.6374476E-02   0.0000000E+00   5.8204573E-02  -3.4809723E-02   0.0000000E+00   7.6771542E-02  -3.9642189E-02   0.0000000E+00   1.8883456E-02  -3.9625518E-02   0.0000000E+00   1.9777473E-02  -3.9569549E-02   0.0000000E+00   2.2427043E-02  -3.9447725E-02   0.0000000E+00   2.6770793E-02  -3.9187789E-02   0.0000000E+00   3.2878336E-02  -3.8631644E-02   0.0000000E+00   4.1277200E-02  -3.7489798E-02   0.0000000E+00   5.3278111E-02  -3.5309628E-02   0.0000000E+00   7.0799023E-02  -4.0265862E-02   0.0000000E+00   1.7636202E-02  -4.0209871E-02   0.0000000E+00   1.8386358E-02  -4.0030047E-02   0.0000000E+00   2.0639390E-02  -3.9679583E-02   0.0000000E+00   2.4442336E-02  -3.9048608E-02   0.0000000E+00   3.0032633E-02  -3.7935376E-02   0.0000000E+00   3.8081236E-02  -3.6038343E-02   0.0000000E+00   4.9846098E-02  -3.3053812E-02   0.0000000E+00   6.6821635E-02  -3.9078623E-02   0.0000000E+00   1.6421985E-02  -3.8963027E-02   0.0000000E+00   1.7072784E-02  -3.8590580E-02   0.0000000E+00   1.9067386E-02  -3.7876278E-02   0.0000000E+00   2.2570068E-02  -3.6661219E-02   0.0000000E+00   2.7984943E-02  -3.4716856E-02   0.0000000E+00   3.6099561E-02  -3.1814896E-02   0.0000000E+00   4.8050869E-02  -2.8091738E-02   0.0000000E+00   6.4742908E-02  -3.5759684E-02   0.0000000E+00   1.5335755E-02  -3.5541311E-02   0.0000000E+00   1.5949201E-02  -3.4844805E-02   0.0000000E+00   1.7869435E-02  -3.3550031E-02   0.0000000E+00   2.1366507E-02  -3.1476580E-02   0.0000000E+00   2.6975539E-02  -2.8457666E-02   0.0000000E+00   3.5519127E-02  -2.4604231E-02   0.0000000E+00   4.7836646E-02  -2.0624669E-02   0.0000000E+00   6.4172141E-02  -2.9370368E-02   0.0000000E+00   1.4609933E-02  -2.8999154E-02   0.0000000E+00   1.5260598E-02  -2.7840754E-02   0.0000000E+00   1.7318752E-02  -2.5784304E-02   0.0000000E+00   2.1119704E-02  -2.2753527E-02   0.0000000E+00   2.7231792E-02  -1.8882887E-02   0.0000000E+00   3.6329769E-02  -1.4719120E-02   0.0000000E+00   4.8824124E-02  -1.1334512E-02   0.0000000E+00   6.4423196E-02  -1.8578982E-02   0.0000000E+00   1.4619175E-02  -1.8048476E-02   0.0000000E+00   1.5381566E-02  -1.6462384E-02   0.0000000E+00   1.7767411E-02  -1.3857341E-02   0.0000000E+00   2.2076748E-02  -1.0414666E-02   0.0000000E+00   2.8738178E-02  -6.5663783E-03   0.0000000E+00   3.8154434E-02  -3.1476812E-03   0.0000000E+00   5.0336063E-02  -1.3501581E-03   0.0000000E+00   6.4691991E-02  -3.1195616E-03   0.0000000E+00   1.5794471E-02  -2.5548816E-03   0.0000000E+00   1.6695382E-02  -9.3080191E-04   0.0000000E+00   1.9448744E-02   1.5336878E-03   0.0000000E+00   2.4195861E-02   4.4304766E-03   0.0000000E+00   3.1128000E-02   7.1086208E-03   0.0000000E+00   4.0353365E-02   8.6237621E-03   0.0000000E+00   5.1641539E-02   7.9662018E-03   0.0000000E+00   6.4451180E-02   1.5193606E-02   0.0000000E+00   1.8340116E-02   1.5606591E-02   0.0000000E+00   1.9328190E-02   1.6744127E-02   0.0000000E+00   2.2289608E-02   1.8263264E-02   0.0000000E+00   2.7160663E-02   1.9591069E-02   0.0000000E+00   3.3894975E-02   2.0002224E-02   0.0000000E+00   4.2412248E-02   1.8878212E-02   0.0000000E+00   5.2549526E-02   1.6527677E-02   0.0000000E+00   6.4331003E-02   3.3102978E-02   0.0000000E+00   2.2053458E-02   3.3192649E-02   0.0000000E+00   2.3048580E-02   3.3340506E-02   0.0000000E+00   2.5974255E-02   3.3166729E-02   0.0000000E+00   3.0615518E-02   3.2260217E-02   0.0000000E+00   3.6838416E-02   3.0589968E-02   0.0000000E+00   4.4658929E-02   2.9165236E-02   0.0000000E+00   5.4177705E-02   3.0364389E-02   0.0000000E+00   6.5258756E-02   4.6905078E-02   0.0000000E+00   2.6459390E-02   4.6698309E-02   0.0000000E+00   2.7413325E-02   4.6099212E-02   0.0000000E+00   3.0192338E-02   4.5304414E-02   0.0000000E+00   3.4572117E-02   4.4981282E-02   0.0000000E+00   4.0423416E-02   4.6228483E-02   0.0000000E+00   4.7716301E-02   4.9711164E-02   0.0000000E+00   5.6518253E-02   5.4228999E-02   0.0000000E+00   6.7052864E-02   6.7964047E-02   0.0000000E+00   3.1015201E-02   6.7896001E-02   0.0000000E+00   3.1907588E-02   6.7840174E-02   0.0000000E+00   3.4503940E-02   6.8228759E-02   0.0000000E+00   3.8641866E-02   6.9660015E-02   0.0000000E+00   4.4329345E-02   7.1786582E-02   0.0000000E+00   5.1624715E-02   7.2327621E-02   0.0000000E+00   6.0495477E-02   6.8184890E-02   0.0000000E+00   7.0888340E-02   9.9461854E-02   0.0000000E+00   3.5284620E-02   9.8786905E-02   0.0000000E+00   3.6123328E-02   9.6732058E-02   0.0000000E+00   3.8626418E-02   9.3317740E-02   0.0000000E+00   4.2910758E-02   8.8352636E-02   0.0000000E+00   4.9391229E-02   8.0705985E-02   0.0000000E+00   5.7871241E-02   6.7793131E-02   0.0000000E+00   6.7733407E-02   9.7044319E-02   0.0000000E+00   3.9004322E-02   9.5176131E-02   0.0000000E+00   3.9829712E-02   8.9458585E-02   0.0000000E+00   4.2489335E-02   7.9773366E-02   0.0000000E+00   4.7769226E-02   6.6382170E-02   0.0000000E+00   5.6916643E-02  -1.2579039E-04   0.0000000E+00   3.8580019E-06  -1.2057496E-04   0.0000000E+00   3.8674593E-06  -1.1379120E-04   0.0000000E+00   3.4429650E-06  -1.0495105E-04   0.0000000E+00   2.2978311E-06  -9.3593866E-05   0.0000000E+00   2.8512829E-07  -7.9566715E-05   0.0000000E+00  -2.4112192E-06  -6.3385931E-05   0.0000000E+00  -5.1720167E-06  -1.7475279E-04   0.0000000E+00   5.9847298E-06  -1.6790864E-04   0.0000000E+00   6.0272882E-06  -1.5890921E-04   0.0000000E+00   5.4147140E-06  -1.4703727E-04   0.0000000E+00   3.7042755E-06  -1.3159834E-04   0.0000000E+00   6.5811150E-07  -1.1232615E-04   0.0000000E+00  -3.4707095E-06  -8.9904839E-05   0.0000000E+00  -7.7780778E-06  -6.6286950E-05   0.0000000E+00  -1.0932714E-05  -2.3874640E-04   0.0000000E+00   8.8125635E-06  -2.2999490E-04   0.0000000E+00   8.9205123E-06  -2.1833046E-04   0.0000000E+00   8.0879618E-06  -2.0270713E-04   0.0000000E+00   5.6568997E-06  -1.8207513E-04   0.0000000E+00   1.2565606E-06  -1.5595862E-04   0.0000000E+00  -4.7792846E-06  -1.2521351E-04   0.0000000E+00  -1.1173816E-05  -9.2551185E-05   0.0000000E+00  -1.6032292E-05  -3.2548429E-04   0.0000000E+00   1.2578252E-05  -3.1439846E-04   0.0000000E+00   1.2802220E-05  -2.9939425E-04   0.0000000E+00   1.1715075E-05  -2.7895221E-04   0.0000000E+00   8.3609830E-06  -2.5149179E-04   0.0000000E+00   2.1749952E-06  -2.1619344E-04   0.0000000E+00  -6.4160049E-06  -1.7412074E-04   0.0000000E+00  -1.5631935E-05  -1.2903713E-04   0.0000000E+00  -2.2769354E-05  -4.4449756E-04   0.0000000E+00   1.7663895E-05  -4.3052851E-04   0.0000000E+00   1.8082617E-05  -4.1130488E-04   0.0000000E+00   1.6700014E-05  -3.8463049E-04   0.0000000E+00   1.2149653E-05  -3.4816237E-04   0.0000000E+00   3.5882231E-06  -3.0066486E-04   0.0000000E+00  -8.4534822E-06  -2.4344455E-04   0.0000000E+00  -2.1519496E-05  -1.8151395E-04   0.0000000E+00  -3.1777367E-05  -6.0735189E-04   0.0000000E+00   2.4639679E-05  -5.8989011E-04   0.0000000E+00   2.5390100E-05  -5.6542287E-04   0.0000000E+00   2.3691831E-05  -5.3090416E-04   0.0000000E+00   1.7619728E-05  -4.8331567E-04   0.0000000E+00   5.9149897E-06  -4.2091031E-04   0.0000000E+00  -1.0826308E-05  -3.4485510E-04   0.0000000E+00  -2.9259332E-05  -2.6110455E-04   0.0000000E+00  -4.3945558E-05  -8.2823320E-04   0.0000000E+00   3.4341185E-05  -8.0670085E-04   0.0000000E+00   3.5716203E-05  -7.7605166E-04   0.0000000E+00   3.3839508E-05  -7.3275669E-04   0.0000000E+00   2.6009115E-05  -6.7338068E-04   0.0000000E+00   1.0235515E-05  -5.9532415E-04   0.0000000E+00  -1.2995271E-05  -4.9863406E-04   0.0000000E+00  -3.9161125E-05  -3.8824836E-04   0.0000000E+00  -6.0457623E-05  -1.1249187E-03   0.0000000E+00   4.8020363E-05  -1.0989462E-03   0.0000000E+00   5.0706411E-05  -1.0619296E-03   0.0000000E+00   4.9280683E-05  -1.0105618E-03   0.0000000E+00   3.9830742E-05  -9.4145339E-04   0.0000000E+00   1.8976274E-05  -8.5097726E-04   0.0000000E+00  -1.3345883E-05  -7.3623820E-04   0.0000000E+00  -5.1085524E-05  -5.9688016E-04   0.0000000E+00  -8.2740233E-05  -1.5201158E-03   0.0000000E+00   6.7578185E-05  -1.4899267E-03   0.0000000E+00   7.3067335E-05  -1.4474645E-03   0.0000000E+00   7.3721851E-05  -1.3904930E-03   0.0000000E+00   6.3658736E-05  -1.3165984E-03   0.0000000E+00   3.6912272E-05  -1.2218015E-03   0.0000000E+00  -8.1522157E-06  -1.0986165E-03   0.0000000E+00  -6.3698011E-05  -9.3480368E-04   0.0000000E+00  -1.1238235E-04  -2.0429788E-03   0.0000000E+00   9.5782634E-05  -2.0095992E-03   0.0000000E+00   1.0687928E-04  -1.9633975E-03   0.0000000E+00   1.1288143E-04  -1.9038463E-03   0.0000000E+00   1.0489161E-04  -1.8307044E-03   0.0000000E+00   7.2449606E-05  -1.7413851E-03   0.0000000E+00   1.0150812E-05  -1.6242700E-03   0.0000000E+00  -7.3102376E-05  -1.4475421E-03   0.0000000E+00  -1.4988465E-04  -2.7303046E-03   0.0000000E+00   1.3632828E-04  -2.6955514E-03   0.0000000E+00   1.5761582E-04  -2.6474108E-03   0.0000000E+00   1.7454936E-04  -2.5868039E-03   0.0000000E+00   1.7410573E-04  -2.5158818E-03   0.0000000E+00   1.3860659E-04  -2.4345962E-03   0.0000000E+00   5.4785531E-05  -2.3287132E-03   0.0000000E+00  -7.0076589E-05  -2.1425374E-03   0.0000000E+00  -1.9231818E-04  -3.6277093E-03   0.0000000E+00   1.9363743E-04  -3.5943342E-03   0.0000000E+00   2.3175176E-04  -3.5460037E-03   0.0000000E+00   2.6797617E-04  -3.4835397E-03   0.0000000E+00   2.8438497E-04  -3.4093461E-03   0.0000000E+00   2.5357067E-04  -3.3236225E-03   0.0000000E+00   1.5028159E-04  -3.2074789E-03   0.0000000E+00  -2.1025218E-05  -2.9769293E-03   0.0000000E+00  -1.8053118E-04  -4.7910963E-03   0.0000000E+00   2.7247390E-04  -4.7633210E-03   0.0000000E+00   3.3609930E-04  -4.7176718E-03   0.0000000E+00   4.0267681E-04  -4.6526790E-03   0.0000000E+00   4.4929239E-04  -4.5674117E-03   0.0000000E+00   4.3815371E-04  -4.4579562E-03   0.0000000E+00   3.3297224E-04  -4.2999582E-03   0.0000000E+00   1.4890921E-04  -4.0015788E-03   0.0000000E+00   1.4199992E-05  -6.2883082E-03   0.0000000E+00   3.7756714E-04  -6.2726713E-03   0.0000000E+00   4.7725451E-04  -6.2356181E-03   0.0000000E+00   5.8736349E-04  -6.1720582E-03   0.0000000E+00   6.8043132E-04  -6.0755233E-03   0.0000000E+00   7.0977077E-04  -5.9354203E-03   0.0000000E+00   6.3263834E-04  -5.7245879E-03   0.0000000E+00   4.8805610E-04  -5.3613698E-03   0.0000000E+00   4.2267924E-04  -8.2011325E-03   0.0000000E+00   5.1343709E-04  -8.2073119E-03   0.0000000E+00   6.6156086E-04  -8.1890170E-03   0.0000000E+00   8.2996732E-04  -8.1379628E-03   0.0000000E+00   9.8660693E-04  -8.0431588E-03   0.0000000E+00   1.0767898E-03  -7.8884056E-03   0.0000000E+00   1.0558974E-03  -7.6464508E-03   0.0000000E+00   9.8057406E-04  -7.2518368E-03   0.0000000E+00   1.0002257E-03  -1.0627623E-02   0.0000000E+00   6.8447221E-04  -1.0669574E-02   0.0000000E+00   8.9555775E-04  -1.0684763E-02   0.0000000E+00   1.1391204E-03  -1.0662897E-02   0.0000000E+00   1.3763787E-03  -1.0591655E-02   0.0000000E+00   1.5436201E-03  -1.0454368E-02   0.0000000E+00   1.5920632E-03  -1.0227645E-02   0.0000000E+00   1.6031894E-03  -9.8656584E-03   0.0000000E+00   1.6809646E-03  -1.3684504E-02   0.0000000E+00   8.9534407E-04  -1.3782518E-02   0.0000000E+00   1.1864055E-03  -1.3852036E-02   0.0000000E+00   1.5255304E-03  -1.3880056E-02   0.0000000E+00   1.8633165E-03  -1.3854870E-02   0.0000000E+00   2.1224164E-03  -1.3764231E-02   0.0000000E+00   2.2443016E-03  -1.3595828E-02   0.0000000E+00   2.3373212E-03  -1.3328056E-02   0.0000000E+00   2.5021995E-03  -1.7509073E-02   0.0000000E+00   1.1517851E-03  -1.7691914E-02   0.0000000E+00   1.5418675E-03  -1.7847383E-02   0.0000000E+00   2.0015433E-03  -1.7954692E-02   0.0000000E+00   2.4657554E-03  -1.7999597E-02   0.0000000E+00   2.8363592E-03  -1.7973470E-02   0.0000000E+00   3.0462346E-03  -1.7876681E-02   0.0000000E+00   3.2312439E-03  -1.7715413E-02   0.0000000E+00   3.5099187E-03  -2.2260522E-02   0.0000000E+00   1.4621221E-03  -2.2567026E-02   0.0000000E+00   1.9710260E-03  -2.2854235E-02   0.0000000E+00   2.5793179E-03  -2.3089327E-02   0.0000000E+00   3.2025038E-03  -2.3246052E-02   0.0000000E+00   3.7138481E-03  -2.3310460E-02   0.0000000E+00   4.0333476E-03  -2.3287421E-02   0.0000000E+00   4.3496727E-03  -2.3199134E-02   0.0000000E+00   4.7944356E-03  -2.8120525E-02   0.0000000E+00   1.8403805E-03  -2.8600313E-02   0.0000000E+00   2.4860890E-03  -2.9080985E-02   0.0000000E+00   3.2710491E-03  -2.9514810E-02   0.0000000E+00   4.0874658E-03  -2.9857310E-02   0.0000000E+00   4.7739511E-03  -3.0078163E-02   0.0000000E+00   5.2392804E-03  -3.0173713E-02   0.0000000E+00   5.7646893E-03  -3.0168151E-02   0.0000000E+00   6.5046684E-03  -3.5292394E-02   0.0000000E+00   2.3122225E-03  -3.6005065E-02   0.0000000E+00   3.1071871E-03  -3.6757592E-02   0.0000000E+00   4.0920773E-03  -3.7485674E-02   0.0000000E+00   5.1319036E-03  -3.8120344E-02   0.0000000E+00   6.0236403E-03  -3.8605783E-02   0.0000000E+00   6.6702543E-03  -3.8920693E-02   0.0000000E+00   7.5080437E-03  -3.9084073E-02   0.0000000E+00   8.7177465E-03  -4.3992955E-02   0.0000000E+00   2.9248884E-03  -4.5005571E-02   0.0000000E+00   3.8724921E-03  -4.6123434E-02   0.0000000E+00   5.0701145E-03  -4.7266703E-02   0.0000000E+00   6.3516209E-03  -4.8336066E-02   0.0000000E+00   7.4614445E-03  -4.9239069E-02   0.0000000E+00   8.2961721E-03  -4.9924284E-02   0.0000000E+00   9.5502082E-03  -5.0395582E-02   0.0000000E+00   1.1520559E-02  -5.4422390E-02   0.0000000E+00   3.7609218E-03  -5.5805750E-02   0.0000000E+00   4.8552323E-03  -5.7393555E-02   0.0000000E+00   6.2652794E-03  -5.9095159E-02   0.0000000E+00   7.7863587E-03  -6.0776770E-02   0.0000000E+00   9.0956325E-03  -6.2297799E-02   0.0000000E+00   1.0060480E-02  -6.3561238E-02   0.0000000E+00   1.1782207E-02  -6.4541072E-02   0.0000000E+00   1.4868965E-02  -6.6687144E-02   0.0000000E+00   4.9540433E-03  -6.8512686E-02   0.0000000E+00   6.1882120E-03  -7.0680834E-02   0.0000000E+00   7.8045125E-03  -7.3098309E-02   0.0000000E+00   9.5501151E-03  -7.5595558E-02   0.0000000E+00   1.0997456E-02  -7.7974163E-02   0.0000000E+00   1.1933533E-02  -8.0075063E-02   0.0000000E+00   1.4030533E-02  -8.1822954E-02   0.0000000E+00   1.8661374E-02  -8.0655642E-02   0.0000000E+00   6.7052604E-03  -8.2995951E-02   0.0000000E+00   8.0967499E-03  -8.5856207E-02   0.0000000E+00   9.9366521E-03  -8.9148179E-02   0.0000000E+00   1.1906374E-02  -9.2667922E-02   0.0000000E+00   1.3400517E-02  -9.6155576E-02   0.0000000E+00   1.3970842E-02  -9.9376887E-02   0.0000000E+00   1.6052093E-02  -1.0218345E-01   0.0000000E+00   2.2572959E-02  -9.5765479E-02   0.0000000E+00   9.3011521E-03  -9.8696366E-02   0.0000000E+00   1.0947901E-02  -1.0235122E-01   0.0000000E+00   1.3124479E-02  -1.0664760E-01   0.0000000E+00   1.5406020E-02  -1.1135158E-01   0.0000000E+00   1.6861243E-02  -1.1615116E-01   0.0000000E+00   1.6525233E-02  -1.2073669E-01   0.0000000E+00   1.7646121E-02  -1.2486278E-01   0.0000000E+00   2.6167149E-02  -1.1084604E-01   0.0000000E+00   1.3152514E-02  -1.1443398E-01   0.0000000E+00   1.5337718E-02  -1.1894423E-01   0.0000000E+00   1.8185753E-02  -1.2428900E-01   0.0000000E+00   2.1083413E-02  -1.3021319E-01   0.0000000E+00   2.2520419E-02  -1.3637903E-01   0.0000000E+00   2.0541513E-02  -1.4242259E-01   0.0000000E+00   1.9111022E-02  -1.4798859E-01   0.0000000E+00   2.9040826E-02  -1.2401619E-01   0.0000000E+00   1.8866628E-02  -1.2827599E-01   0.0000000E+00   2.2205757E-02  -1.3360047E-01   0.0000000E+00   2.6430657E-02  -1.3987416E-01   0.0000000E+00   3.0611038E-02  -1.4682730E-01   0.0000000E+00   3.2301024E-02  -1.5413667E-01   0.0000000E+00   2.7799815E-02  -1.6143207E-01   0.0000000E+00   2.1417184E-02  -1.6826487E-01   0.0000000E+00   3.1100817E-02  -1.3263461E-01   0.0000000E+00   2.7300570E-02  -1.3745245E-01   0.0000000E+00   3.2877073E-02  -1.4336114E-01   0.0000000E+00   3.9652210E-02  -1.5018889E-01   0.0000000E+00   4.6047430E-02  -1.5765570E-01   0.0000000E+00   4.8577551E-02  -1.6549389E-01   0.0000000E+00   4.1227322E-02  -1.7339860E-01   0.0000000E+00   2.7071068E-02  -1.8088944E-01   0.0000000E+00   3.3503827E-02  -1.3318819E-01   0.0000000E+00   3.9486364E-02  -1.3823667E-01   0.0000000E+00   4.8893537E-02  -1.4422487E-01   0.0000000E+00   5.9846882E-02  -1.5090311E-01   0.0000000E+00   6.9764219E-02  -1.5800115E-01   0.0000000E+00   7.3405661E-02  -1.6535291E-01   0.0000000E+00   6.3608564E-02  -1.7277789E-01   0.0000000E+00   4.1442800E-02  -1.7985971E-01   0.0000000E+00   4.0245205E-02  -1.2138030E-01   0.0000000E+00   5.6340039E-02  -1.2608507E-01   0.0000000E+00   7.1555115E-02  -1.3136412E-01   0.0000000E+00   8.8672824E-02  -1.3689984E-01   0.0000000E+00   1.0356720E-01  -1.4247216E-01   0.0000000E+00   1.0930558E-01  -1.4805733E-01   0.0000000E+00   9.6594125E-02  -1.5365405E-01   0.0000000E+00   7.1460150E-02  -1.5899190E-01   0.0000000E+00   5.9839368E-02  -9.3044013E-02   0.0000000E+00   7.8192495E-02  -9.6653201E-02   0.0000000E+00   1.0127134E-01  -1.0029554E-01   0.0000000E+00   1.2660912E-01  -1.0362308E-01   0.0000000E+00   1.4829911E-01  -1.0650439E-01   0.0000000E+00   1.5788874E-01  -1.0908508E-01   0.0000000E+00   1.5040950E-01  -1.1158001E-01   0.0000000E+00   1.3169117E-01  -1.1393338E-01   0.0000000E+00   1.1184508E-01  -4.5919698E-02   0.0000000E+00   1.0434086E-01  -4.7696587E-02   0.0000000E+00   1.3696249E-01  -4.8915964E-02   0.0000000E+00   1.7223231E-01  -4.9264081E-02   0.0000000E+00   2.0291393E-01  -4.8713915E-02   0.0000000E+00   2.2328991E-01  -4.7545429E-02   0.0000000E+00   2.3828633E-01  -4.6153091E-02   0.0000000E+00   2.4565558E-01  -4.4742808E-02   0.0000000E+00   2.1508273E-01   1.8162441E-02   0.0000000E+00   1.3290100E-01   1.8700693E-02   0.0000000E+00   1.7588125E-01   2.0267412E-02   0.0000000E+00   2.2207603E-01   2.3065327E-02   0.0000000E+00   2.6394919E-01   2.7023578E-02   0.0000000E+00   3.0130419E-01   3.1833645E-02   0.0000000E+00   3.5483310E-01   3.7045915E-02   0.0000000E+00   4.0190262E-01   4.2191342E-02   0.0000000E+00   3.5637653E-01   9.1566123E-02   0.0000000E+00   1.6115639E-01   9.4484039E-02   0.0000000E+00   2.1413217E-01   9.8654859E-02   0.0000000E+00   2.7079257E-01   1.0410873E-01   0.0000000E+00   3.2327211E-01   1.1069383E-01   0.0000000E+00   3.7662700E-01   1.1816525E-01   0.0000000E+00   4.6415374E-01   1.2615055E-01   0.0000000E+00   5.4241973E-01   1.3396090E-01   0.0000000E+00   4.7296157E-01   1.6117711E-01   0.0000000E+00   1.8634845E-01   1.6610539E-01   0.0000000E+00   2.4786730E-01   1.7224298E-01   0.0000000E+00   3.1335878E-01   1.7942001E-01   0.0000000E+00   3.7416959E-01   1.8740870E-01   0.0000000E+00   4.3733448E-01   1.9604094E-01   0.0000000E+00   5.4099351E-01   2.0504625E-01   0.0000000E+00   6.2613851E-01   2.1366499E-01   0.0000000E+00   5.3015667E-01   2.1245828E-01   0.0000000E+00   2.0650674E-01   2.1875490E-01   0.0000000E+00   2.7447224E-01   2.2603449E-01   0.0000000E+00   3.4645596E-01   2.3394547E-01   0.0000000E+00   4.1242450E-01   2.4217428E-01   0.0000000E+00   4.7846231E-01   2.5056449E-01   0.0000000E+00   5.8250833E-01   2.5891721E-01   0.0000000E+00   6.5790558E-01   2.6667225E-01   0.0000000E+00   5.4579329E-01   2.3693259E-01   0.0000000E+00   2.2087520E-01   2.4390444E-01   0.0000000E+00   2.9309514E-01   2.5157547E-01   0.0000000E+00   3.6931223E-01   2.5945655E-01   0.0000000E+00   4.3816590E-01   2.6714221E-01   0.0000000E+00   5.0385243E-01   2.7444038E-01   0.0000000E+00   6.0220534E-01   2.8123671E-01   0.0000000E+00   6.6631734E-01   2.8733191E-01   0.0000000E+00   5.4419070E-01   2.3640046E-01   0.0000000E+00   2.2978023E-01   2.4346831E-01   0.0000000E+00   3.0436653E-01   2.5098073E-01   0.0000000E+00   3.8297755E-01   2.5836629E-01   0.0000000E+00   4.5333335E-01   2.6514804E-01   0.0000000E+00   5.1805061E-01   2.7109838E-01   0.0000000E+00   6.1103302E-01   2.7619451E-01   0.0000000E+00   6.6654307E-01   2.8054097E-01   0.0000000E+00   5.3893727E-01   2.1982734E-01   0.0000000E+00   2.3411994E-01   2.2660992E-01   0.0000000E+00   3.0963954E-01   2.3365512E-01   0.0000000E+00   3.8926071E-01   2.4036193E-01   0.0000000E+00   4.6022323E-01   2.4622135E-01   0.0000000E+00   5.2418852E-01   2.5098544E-01   0.0000000E+00   6.1392266E-01   2.5468513E-01   0.0000000E+00   6.6499680E-01   2.5757965E-01   0.0000000E+00   5.3574073E-01   1.9738989E-01   0.0000000E+00   2.3482981E-01   2.0370883E-01   0.0000000E+00   3.1025693E-01   2.1018510E-01   0.0000000E+00   3.8987860E-01   2.1622638E-01   0.0000000E+00   4.6083349E-01   2.2133106E-01   0.0000000E+00   5.2445877E-01   2.2525033E-01   0.0000000E+00   6.1323786E-01   2.2802645E-01   0.0000000E+00   6.6391736E-01   2.2994339E-01   0.0000000E+00   5.3595597E-01   1.7579331E-01   0.0000000E+00   2.3256464E-01   1.8163633E-01   0.0000000E+00   3.0711707E-01   1.8759094E-01   0.0000000E+00   3.8594460E-01   1.9309215E-01   0.0000000E+00   4.5639092E-01   1.9767083E-01   0.0000000E+00   5.2005380E-01   2.0109518E-01   0.0000000E+00   6.0994565E-01   2.0340052E-01   0.0000000E+00   6.6355044E-01   2.0482549E-01   0.0000000E+00   5.3869736E-01   1.5664643E-01   0.0000000E+00   2.2765467E-01   1.6211422E-01   0.0000000E+00   3.0062869E-01   1.6769236E-01   0.0000000E+00   3.7791604E-01   1.7284526E-01   0.0000000E+00   4.4717816E-01   1.7713886E-01   0.0000000E+00   5.1014149E-01   1.8036307E-01   0.0000000E+00   5.9966058E-01   1.8254301E-01   0.0000000E+00   6.5467209E-01   1.8385908E-01   0.0000000E+00   5.3378361E-01   1.3778074E-01   0.0000000E+00   2.2024611E-01   1.4302634E-01   0.0000000E+00   2.9092985E-01   1.4843036E-01   0.0000000E+00   3.6592042E-01   1.5347703E-01   0.0000000E+00   4.3327177E-01   1.5774529E-01   0.0000000E+00   4.9462149E-01   1.6102917E-01   0.0000000E+00   5.8185244E-01   1.6333687E-01   0.0000000E+00   6.3625544E-01   1.6480292E-01   0.0000000E+00   5.2008808E-01   1.1612816E-01   0.0000000E+00   2.1047516E-01   1.2129095E-01   0.0000000E+00   2.7814862E-01   1.2673484E-01   0.0000000E+00   3.5008729E-01   1.3195209E-01   0.0000000E+00   4.1480452E-01   1.3649653E-01   0.0000000E+00   4.7364408E-01   1.4012089E-01   0.0000000E+00   5.5680364E-01   1.4279413E-01   0.0000000E+00   6.0888135E-01   1.4461881E-01   0.0000000E+00   4.9841991E-01   9.0345137E-02   0.0000000E+00   1.9859073E-01   9.5487304E-02   0.0000000E+00   2.6257780E-01   1.0113637E-01   0.0000000E+00   3.3076096E-01   1.0679592E-01   0.0000000E+00   3.9218286E-01   1.1195272E-01   0.0000000E+00   4.4772804E-01   1.1625601E-01   0.0000000E+00   5.2537423E-01   1.1959256E-01   0.0000000E+00   5.7390606E-01   1.2203228E-01   0.0000000E+00   4.7022933E-01   6.1803244E-02   0.0000000E+00   1.8499994E-01   6.6870652E-02   0.0000000E+00   2.4473630E-01   7.2787561E-02   0.0000000E+00   3.0857462E-01   7.9099610E-02   0.0000000E+00   3.6614898E-01   8.5205190E-02   0.0000000E+00   4.1779020E-01   9.0587430E-02   0.0000000E+00   4.8888364E-01   9.4986625E-02   0.0000000E+00   5.3253084E-01   9.8398946E-02   0.0000000E+00   4.3731600E-01   3.3783443E-02   0.0000000E+00   1.7025760E-01   3.8660098E-02   0.0000000E+00   2.2535126E-01   4.4823233E-02   0.0000000E+00   2.8442520E-01   5.1909287E-02   0.0000000E+00   3.3773488E-01   5.9247095E-02   0.0000000E+00   3.8500163E-01   6.6124298E-02   0.0000000E+00   4.4888803E-01   7.2061568E-02   0.0000000E+00   4.8741445E-01   7.6895587E-02   0.0000000E+00   4.0155724E-01   9.6016796E-03   0.0000000E+00   1.5502425E-01   1.4255780E-02   0.0000000E+00   2.0529300E-01   2.0689854E-02   0.0000000E+00   2.5937077E-01   2.8652361E-02   0.0000000E+00   3.0814824E-01   3.7412871E-02   0.0000000E+00   3.5074702E-01   4.6085905E-02   0.0000000E+00   4.0716985E-01   5.3953428E-02   0.0000000E+00   4.4144157E-01   6.0635213E-02   0.0000000E+00   3.6489353E-01  -8.8428818E-03   0.0000000E+00   1.4001624E-01  -4.2778226E-03   0.0000000E+00   1.8550238E-01   2.5488804E-03   0.0000000E+00   2.3455383E-01   1.1423529E-02   0.0000000E+00   2.7874750E-01   2.1607418E-02   0.0000000E+00   3.1668258E-01   3.2123357E-02   0.0000000E+00   3.6575636E-01   4.2056676E-02   0.0000000E+00   3.9584824E-01   5.0796095E-02   0.0000000E+00   3.2839465E-01  -2.1280399E-02   0.0000000E+00   1.2595150E-01  -1.6579567E-02   0.0000000E+00   1.6691466E-01  -9.3375780E-03   0.0000000E+00   2.1112867E-01   2.3579290E-04   0.0000000E+00   2.5087386E-01   1.1524303E-02   0.0000000E+00   2.8444773E-01   2.3598379E-02   0.0000000E+00   3.2655716E-01   3.5463758E-02   0.0000000E+00   3.5128272E-01   4.6301030E-02   0.0000000E+00   2.9188776E-01  -2.8512150E-02   0.0000000E+00   1.1348749E-01  -2.3559997E-02   0.0000000E+00   1.5035371E-01  -1.6170928E-02   0.0000000E+00   1.9006613E-01  -6.5136952E-03   0.0000000E+00   2.2565138E-01   5.1429118E-03   0.0000000E+00   2.5540593E-01   1.8161507E-02   0.0000000E+00   2.9119071E-01   3.1793442E-02   0.0000000E+00   3.0942634E-01   4.4986621E-02   0.0000000E+00   2.5601971E-01  -3.1680990E-02   0.0000000E+00   1.0313552E-01  -2.6606664E-02   0.0000000E+00   1.3638929E-01  -1.9663341E-02   0.0000000E+00   1.7192625E-01  -1.0929109E-02   0.0000000E+00   2.0374732E-01  -3.1965392E-05   0.0000000E+00   2.3039864E-01   1.3237527E-02   0.0000000E+00   2.6072651E-01   2.8982842E-02   0.0000000E+00   2.7117881E-01   4.6362165E-02   0.0000000E+00   2.2273259E-01  -3.1719163E-02   0.0000000E+00   9.5169738E-02  -2.6913207E-02   0.0000000E+00   1.2521803E-01  -2.1265443E-02   0.0000000E+00   1.5682563E-01  -1.4643214E-02   0.0000000E+00   1.8521824E-01  -5.7183001E-03   0.0000000E+00   2.0982596E-01   7.5706854E-03   0.0000000E+00   2.3570910E-01   2.7009876E-02   0.0000000E+00   2.3692559E-01   5.2723683E-02   0.0000000E+00   1.9073476E-01  -2.9191790E-02   0.0000000E+00   8.9566223E-02  -2.5227085E-02   0.0000000E+00   1.1663646E-01  -2.1722334E-02   0.0000000E+00   1.4447837E-01  -1.8135048E-02   0.0000000E+00   1.6988190E-01  -1.1949461E-02   0.0000000E+00   1.9365636E-01   1.7247997E-03   0.0000000E+00   2.1578261E-01   2.6360679E-02   0.0000000E+00   2.0776105E-01   6.4191855E-02   0.0000000E+00   1.6155858E-01  -2.4394944E-02   0.0000000E+00   8.5972354E-02  -2.1899186E-02   0.0000000E+00   1.1010877E-01  -2.1129807E-02   0.0000000E+00   1.3437185E-01  -2.0809047E-02   0.0000000E+00   1.5741102E-01  -1.6905781E-02   0.0000000E+00   1.8122126E-01  -2.3062371E-03   0.0000000E+00   1.9823872E-01   2.6003182E-02   0.0000000E+00   1.8174246E-01  -1.7767282E-02   0.0000000E+00   8.3739556E-02  -1.7300660E-02   0.0000000E+00   1.0489817E-01  -1.9346416E-02   0.0000000E+00   1.2597796E-01  -2.1424673E-02   0.0000000E+00   1.4769568E-01  -1.7727634E-02   0.0000000E+00   1.7083722E-01  -1.7724431E-03   0.0000000E+00   1.7934820E-01   2.7921412E-02   0.0000000E+00   1.5497050E-01  -1.0084170E-02   0.0000000E+00   8.2052402E-02  -1.1931566E-02   0.0000000E+00   1.0037117E-01  -1.6013533E-02   0.0000000E+00   1.1923769E-01  -1.8089652E-02   0.0000000E+00   1.4072192E-01  -1.1817875E-02   0.0000000E+00   1.5992108E-01   5.6588356E-03   0.0000000E+00   1.5741117E-01  -2.3444495E-03   0.0000000E+00   8.0231078E-02  -6.0585225E-03   0.0000000E+00   9.6427441E-02  -9.8348269E-03   0.0000000E+00   1.1488573E-01  -8.4471498E-03   0.0000000E+00   1.3545537E-01   1.9334650E-03   0.0000000E+00   1.4653553E-01   1.9079803E-02   0.0000000E+00   1.3528170E-01   5.0139297E-03   0.0000000E+00   7.8428060E-02   1.9488275E-03   0.0000000E+00   9.4136514E-02   2.0853234E-03   0.0000000E+00   1.1263742E-01   8.4468564E-03   0.0000000E+00   1.2968352E-01   2.0238589E-02   0.0000000E+00   1.3233161E-01   1.4976556E-02   0.0000000E+00   7.7841870E-02   1.6963784E-02   0.0000000E+00   9.3331002E-02   2.2048187E-02   0.0000000E+00   1.1028309E-01   2.9040601E-02   0.0000000E+00   1.2239347E-01   3.4738977E-02   0.0000000E+00   7.8147493E-02   4.0141504E-02   0.0000000E+00   9.2764229E-02   4.3683723E-02   0.0000000E+00   1.0661364E-01   4.5485854E-02   0.0000000E+00   1.1425313E-01   5.6354247E-02   0.0000000E+00   7.9599999E-02   5.3822670E-02   0.0000000E+00   9.3115561E-02   5.7660751E-02   0.0000000E+00   8.3065473E-02 
Force 3 2975 float
0.0 0.0 0.0 0.0 0.0 0.0 0.0 0.0 0.0 0.0 0.0 0.0 0.0 0.0 0.0 0.0 0.0 0.0 0.0 0.0 0.0 0.0 0.0 0.0 0.0 0.0 0.0 0.0 0.0 0.0 0.0 0.0 0.0 0.0 0.0 0.0 0.0 0.0 0.0 0.0 0.0 0.0 0.0 0.0 0.0 0.0 0.0 0.0 0.0 0.0 0.0 0.0 0.0 0.0 0.0 0.0 0.0 0.0 0.0 0.0 0.0 0.0 0.0 0.0 0.0 0.0 0.0 0.0 0.0 0.0 0.0 0.0 0.0 0.0 0.0 0.0 0.0 0.0 0.0 0.0 0.0 0.0 0.0 0.0 0.0 0.0 0.0 0.0 0.0 0.0 0.0 0.0 0.0 0.0 0.0 0.0 0.0 0.0 0.0 0.0 0.0 0.0 0.0 0.0 0.0 0.0 0.0 0.0 0.0 0.0 0.0 0.0 0.0 0.0 0.0 0.0 0.0 0.0 0.0 0.0 0.0 0.0 0.0 0.0 0.0 0.0 0.0 0.0 0.0 0.0 0.0 0.0 0.0 0.0 0.0 0.0 0.0 0.0 0.0 0.0 0.0 0.0 0.0 0.0 0.0 0.0 0.0 0.0 0.0 0.0 0.0 0.0 0.0 0.0 0.0 0.0 0.0 0.0 0.0 0.0 0.0 0.0 0.0 0.0 0.0 0.0 0.0 0.0 0.0 0.0 0.0 0.0 0.0 0.0 0.0 0.0 0.0 0.0 0.0 0.0 0.0 0.0 0.0 0.0 0.0 0.0 0.0 0.0 0.0 0.0 0.0 0.0 0.0 0.0 0.0 0.0 0.0 0.0 0.0 0.0 0.0 0.0 0.0 0.0 0.0 0.0 0.0 0.0 0.0 0.0 0.0 0.0 0.0 0.0 0.0 0.0 0.0 0.0 0.0 0.0 0.0 0.0 0.0 0.0 0.0 0.0 0.0 0.0 0.0 0.0 0.0 0.0 0.0 0.0 0.0 0.0 0.0 0.0 0.0 0.0 0.0 0.0 0.0 0.0 0.0 0.0 0.0 0.0 0.0 0.0 0.0 0.0 0.0 0.0 0.0 0.0 0.0 0.0 0.0 0.0 0.0 0.0 0.0 0.0 0.0 0.0 0.0 0.0 0.0 0.0 0.0 0.0 0.0 0.0 0.0 0.0 0.0 0.0 0.0 0.0 0.0 0.0 0.0 0.0 0.0 0.0 0.0 0.0 0.0 0.0 0.0 0.0 0.0 0.0 0.0 0.0 0.0 0.0 0.0 0.0 0.0 0.0 0.0 0.0 0.0 0.0 0.0 0.0 0.0 0.0 0.0 0.0 0.0 0.0 0.0 0.0 0.0 0.0 0.0 0.0 0.0 0.0 0.0 0.0 0.0 0.0 0.0 0.0 0.0 0.0 0.0 0.0 0.0 0.0 0.0 0.0 0.0 0.0 0.0 0.0 0.0 0.0 0.0 0.0 0.0 0.0 0.0 0.0 0.0 0.0 0.0 0.0 0.0 0.0 0.0 0.0 0.0 0.0 0.0 0.0 0.0 0.0 0.0 0.0 0.0 0.0 0.0 0.0 0.0 0.0 0.0 0.0 0.0 0.0 0.0 0.0 0.0 0.0 0.0 0.0 0.0 0.0 0.0 0.0 0.0 0.0 0.0 0.0 0.0 0.0 0.0 0.0 0.0 0.0 0.0 0.0 0.0 0.0 0.0 0.0 0.0 0.0 0.0 0.0 0.0 0.0 0.0 0.0 0.0 0.0 0.0 0.0 0.0 0.0 0.0 0.0 0.0 0.0 0.0 0.0 0.0 0.0 0.0 0.0 0.0 0.0 0.0 0.0 0.0 0.0 0.0 0.0 0.0 0.0 0.0 0.0 0.0 0.0 0.0 0.0 0.0 0.0 0.0 0.0 0.0 0.0 0.0 0.0 0.0 0.0 0.0 0.0 0.0 0.0 0.0 0.0 0.0 0.0 0.0 0.0 0.0 0.0 0.0 0.0 0.0 0.0 0.0 0.0 0.0 0.0 0.0 0.0 0.0 0.0 0.0 0.0 0.0 0.0 0.0 0.0 0.0 0.0 0.0 0.0 0.0 0.0 0.0 0.0 0.0 0.0 0.0 0.0 0.0 0.0 0.0 0.0 0.0 0.0 0.0 0.0 0.0 0.0 0.0 0.0 0.0 0.0 0.0 0.0 0.0 0.0 0.0 0.0 0.0 0.0 0.0 0.0 0.0 0.0 0.0 0.0 0.0 0.0 0.0 0.0 0.0 0.0 0.0 0.0 0.0 0.0 0.0 0.0 0.0 0.0 0.0 0.0 0.0 0.0 0.0 0.0 0.0 0.0 0.0 0.0 0.0 0.0 0.0 0.0 0.0 0.0 0.0 0.0 0.0 0.0 0.0 0.0 0.0 0.0 0.0 0.0 0.0 0.0 0.0 0.0 0.0 0.0 0.0 0.0 0.0 0.0 0.0 0.0 0.0 0.0 0.0 0.0 0.0 0.0 0.0 0.0 0.0 0.0 0.0 0.0 0.0 0.0 0.0 0.0 0.0 0.0 0.0 0.0 0.0 0.0 0.0 0.0 0.0 0.0 0.0 0.0 0.0 0.0 0.0 0.0 0.0 0.0 0.0 0.0 0.0 0.0 0.0 0.0 0.0 0.0 0.0 0.0 0.0 0.0 0.0 0.0 0.0 0.0 0.0 0.0 0.0 0.0 0.0 0.0 0.0 0.0 0.0 0.0 0.0 0.0 0.0 0.0 0.0 0.0 0.0 0.0 0.0 0.0 0.0 0.0 0.0 0.0 0.0 0.0 0.0 0.0 0.0 0.0 0.0 0.0 0.0 0.0 0.0 0.0 0.0 0.0 0.0 0.0 0.0 0.0 0.0 0.0 0.0 0.0 0.0 0.0 0.0 0.0 0.0 0.0 0.0 0.0 0.0 0.0 0.0 0.0 0.0 0.0 0.0 0.0 0.0 0.0 0.0 0.0 0.0 0.0 0.0 0.0 0.0 0.0 0.0 0.0 0.0 0.0 0.0 0.0 0.0 0.0 0.0 0.0 0.0 0.0 0.0 0.0 0.0 0.0 0.0 0.0 0.0 0.0 0.0 0.0 0.0 0.0 0.0 0.0 0.0 0.0 0.0 0.0 0.0 0.0 0.0 0.0 0.0 0.0 0.0 0.0 0.0 0.0 0.0 0.0 0.0 0.0 0.0 0.0 0.0 0.0 0.0 0.0 0.0 0.0 0.0 0.0 0.0 0.0 0.0 0.0 0.0 0.0 0.0 0.0 0.0 0.0 0.0 0.0 0.0 0.0 0.0 0.0 0.0 0.0 0.0 0.0 0.0 0.0 0.0 0.0 0.0 0.0 0.0 0.0 0.0 0.0 0.0 0.0 0.0 0.0 0.0 0.0 0.0 0.0 0.0 0.0 0.0 0.0 0.0 0.0 0.0 0.0 0.0 0.0 0.0 0.0 0.0 0.0 0.0 0.0 0.0 0.0 0.0 0.0 0.0 0.0 0.0 0.0 0.0 0.0 0.0 0.0 0.0 0.0 0.0 0.0 0.0 0.0 0.0 0.0 0.0 0.0 0.0 0.0 0.0 0.0 0.0 0.0 0.0 0.0 0.0 0.0 0.0 0.0 0.0 0.0 0.0 0.0 0.0 0.0 0.0 0.0 0.0 0.0 0.0 0.0 0.0 0.0 0.0 0.0 0.0 0.0 0.0 0.0 0.0 0.0 0.0 0.0 0.0 0.0 0.0 0.0 0.0 0.0 0.0 0.0 0.0 0.0 0.0 0.0 0.0 0.0 0.0 0.0 0.0 0.0 0.0 0.0 0.0 0.0 0.0 0.0 0.0 0.0 0.0 0.0 0.0 0.0 0.0 0.0 0.0 0.0 0.0 0.0 0.0 0.0 0.0 0.0 0.0 0.0 0.0 0.0 0.0 0.0 0.0 0.0 0.0 0.0 0.0 0.0 0.0 0.0 0.0 0.0 0.0 0.0 0.0 0.0 0.0 0.0 0.0 0.0 0.0 0.0 0.0 0.0 0.0 0.0 0.0 0.0 0.0 0.0 0.0 0.0 0.0 0.0 0.0 0.0 0.0 0.0 0.0 0.0 0.0 0.0 0.0 0.0 0.0 0.0 0.0 0.0 0.0 0.0 0.0 0.0 0.0 0.0 0.0 0.0 0.0 0.0 0.0 0.0 0.0 0.0 0.0 0.0 0.0 0.0 0.0 0.0 0.0 0.0 0.0 0.0 0.0 0.0 0.0 0.0 0.0 0.0 0.0 0.0 0.0 0.0 0.0 0.0 0.0 0.0 0.0 0.0 0.0 0.0 0.0 0.0 0.0 0.0 0.0 0.0 0.0 0.0 0.0 0.0 0.0 0.0 0.0 0.0 0.0 0.0 0.0 0.0 0.0 0.0 0.0 0.0 0.0 0.0 0.0 0.0 0.0 0.0 0.0 0.0 0.0 0.0 0.0 0.0 0.0 0.0 0.0 0.0 0.0 0.0 0.0 0.0 0.0 0.0 0.0 0.0 0.0 0.0 0.0 0.0 0.0 0.0 0.0 0.0 0.0 0.0 0.0 0.0 0.0 0.0 0.0 0.0 0.0 0.0 0.0 0.0 0.0 0.0 0.0 0.0 0.0 0.0 0.0 0.0 0.0 0.0 0.0 0.0 0.0 0.0 0.0 0.0 0.0 0.0 0.0 0.0 0.0 0.0 0.0 0.0 0.0 0.0 0.0 0.0 0.0 0.0 0.0 0.0 0.0 0.0 0.0 0.0 0.0 0.0 0.0 0.0 0.0 0.0 0.0 0.0 0.0 0.0 0.0 0.0 0.0 0.0 0.0 0.0 0.0 0.0 0.0 0.0 0.0 0.0 0.0 0.0 0.0 0.0 0.0 0.0 0.0 0.0 0.0 0.0 0.0 0.0 0.0 0.0 0.0 0.0 0.0 0.0 0.0 0.0 0.0 0.0 0.0 0.0 0.0 0.0 0.0 0.0 0.0 0.0 0.0 0.0 0.0 0.0 0.0 0.0 0.0 0.0 0.0 0.0 0.0 0.0 0.0 0.0 0.0 0.0 0.0 0.0 0.0 0.0 0.0 0.0 0.0 0.0 0.0 0.0 0.0 0.0 0.0 0.0 0.0 0.0 0.0 0.0 0.0 0.0 0.0 0.0 0.0 0.0 0.0 0.0 0.0 0.0 0.0 0.0 0.0 0.0 0.0 0.0 0.0 0.0 0.0 0.0 0.0 0.0 0.0 0.0 0.0 0.0 0.0 0.0 0.0 0.0 0.0 0.0 0.0 0.0 0.0 0.0 0.0 0.0 0.0 0.0 0.0 0.0 0.0 0.0 0.0 0.0 0.0 0.0 0.0 0.0 0.0 0.0 0.0 0.0 0.0 0.0 0.0 0.0 0.0 0.0 0.0 0.0 0.0 0.0 0.0 0.0 0.0 0.0 0.0 0.0 0.0 0.0 0.0 0.0 0.0 0.0 0.0 0.0 0.0 0.0 0.0 0.0 0.0 0.0 0.0 0.0 0.0 0.0 0.0 0.0 0.0 0.0 0.0 0.0 0.0 0.0 0.0 0.0 0.0 0.0 0.0 0.0 0.0 0.0 0.0 0.0 0.0 0.0 0.0 0.0 0.0 0.0 0.0 0.0 0.0 0.0 0.0 0.0 0.0 0.0 0.0 0.0 0.0 0.0 0.0 0.0 0.0 0.0 0.0 0.0 0.0 0.0 0.0 0.0 0.0 0.0 0.0 0.0 0.0 0.0 0.0 0.0 0.0 0.0 0.0 0.0 0.0 0.0 0.0 0.0 0.0 0.0 0.0 0.0 0.0 0.0 0.0 0.0 0.0 0.0 0.0 0.0 0.0 0.0 0.0 0.0 0.0 0.0 0.0 0.0 0.0 0.0 0.0 0.0 0.0 0.0 0.0 0.0 0.0 0.0 0.0 0.0 0.0 0.0 0.0 0.0 0.0 0.0 0.0 0.0 0.0 0.0 0.0 0.0 0.0 0.0 0.0 0.0 0.0 0.0 0.0 0.0 0.0 0.0 0.0 0.0 0.0 0.0 0.0 0.0 0.0 0.0 0.0 0.0 0.0 0.0 0.0 0.0 0.0 0.0 0.0 0.0 0.0 0.0 0.0 0.0 0.0 0.0 0.0 0.0 0.0 0.0 0.0 0.0 0.0 0.0 0.0 0.0 0.0 0.0 0.0 0.0 0.0 0.0 0.0 0.0 0.0 0.0 0.0 0.0 0.0 0.0 0.0 0.0 0.0 0.0 0.0 0.0 0.0 0.0 0.0 0.0 0.0 0.0 0.0 0.0 0.0 0.0 0.0 0.0 0.0 0.0 0.0 0.0 0.0 0.0 0.0 0.0 0.0 0.0 0.0 0.0 0.0 0.0 0.0 0.0 0.0 0.0 0.0 0.0 0.0 0.0 0.0 0.0 0.0 0.0 0.0 0.0 0.0 0.0 0.0 0.0 0.0 0.0 0.0 0.0 0.0 0.0 0.0 0.0 0.0 0.0 0.0 0.0 0.0 0.0 0.0 0.0 0.0 0.0 0.0 0.0 0.0 0.0 0.0 0.0 0.0 0.0 0.0 0.0 0.0 0.0 0.0 0.0 0.0 0.0 0.0 0.0 0.0 0.0 0.0 0.0 0.0 0.0 0.0 0.0 0.0 0.0 0.0 0.0 0.0 0.0 0.0 0.0 0.0 0.0 0.0 0.0 0.0 0.0 0.0 0.0 0.0 0.0 0.0 0.0 0.0 0.0 0.0 0.0 0.0 0.0 0.0 0.0 0.0 0.0 0.0 0.0 0.0 0.0 0.0 0.0 0.0 0.0 0.0 0.0 0.0 0.0 0.0 0.0 0.0 0.0 0.0 0.0 0.0 0.0 0.0 0.0 0.0 0.0 0.0 0.0 0.0 0.0 0.0 0.0 0.0 0.0 0.0 0.0 0.0 0.0 0.0 0.0 0.0 0.0 0.0 0.0 0.0 0.0 0.0 0.0 0.0 0.0 0.0 0.0 0.0 0.0 0.0 0.0 0.0 0.0 0.0 0.0 0.0 0.0 0.0 0.0 0.0 0.0 0.0 0.0 0.0 0.0 0.0 0.0 0.0 0.0 0.0 0.0 0.0 0.0 0.0 0.0 0.0 0.0 0.0 0.0 0.0 0.0 0.0 0.0 0.0 0.0 0.0 0.0 0.0 0.0 0.0 0.0 0.0 0.0 0.0 0.0 0.0 0.0 0.0 0.0 0.0 0.0 0.0 0.0 0.0 0.0 0.0 0.0 0.0 0.0 0.0 0.0 0.0 0.0 0.0 0.0 0.0 0.0 0.0 0.0 0.0 0.0 0.0 0.0 0.0 0.0 0.0 0.0 0.0 0.0 0.0 0.0 0.0 0.0 0.0 0.0 0.0 0.0 0.0 0.0 0.0 0.0 0.0 0.0 0.0 0.0 0.0 0.0 0.0 0.0 0.0 0.0 0.0 0.0 0.0 0.0 0.0 0.0 0.0 0.0 0.0 0.0 0.0 0.0 0.0 0.0 0.0 0.0 0.0 0.0 0.0 0.0 0.0 0.0 0.0 0.0 0.0 0.0 0.0 0.0 0.0 0.0 0.0 0.0 0.0 0.0 0.0 0.0 0.0 0.0 0.0 0.0 0.0 0.0 0.0 0.0 0.0 0.0 0.0 0.0 0.0 0.0 0.0 0.0 0.0 0.0 0.0 0.0 0.0 0.0 0.0 0.0 0.0 0.0 0.0 0.0 0.0 0.0 0.0 0.0 0.0 0.0 0.0 0.0 0.0 0.0 0.0 0.0 0.0 0.0 0.0 0.0 0.0 0.0 0.0 0.0 0.0 0.0 0.0 0.0 0.0 0.0 0.0 0.0 0.0 0.0 0.0 0.0 0.0 0.0 0.0 0.0 0.0 0.0 0.0 0.0 0.0 0.0 0.0 0.0 0.0 0.0 0.0 0.0 0.0 0.0 0.0 0.0 0.0 0.0 0.0 0.0 0.0 0.0 0.0 0.0 0.0 0.0 0.0 0.0 0.0 0.0 0.0 0.0 0.0 0.0 0.0 0.0 0.0 0.0 0.0 0.0 0.0 0.0 0.0 0.0 0.0 0.0 0.0 0.0 0.0 0.0 0.0 0.0 0.0 0.0 0.0 0.0 0.0 0.0 0.0 0.0 0.0 0.0 0.0 0.0 0.0 0.0 0.0 0.0 0.0 0.0 0.0 0.0 0.0 0.0 0.0 0.0 0.0 0.0 0.0 0.0 0.0 0.0 0.0 0.0 0.0 0.0 0.0 0.0 0.0 0.0 0.0 0.0 0.0 0.0 0.0 0.0 0.0 0.0 0.0 0.0 0.0 0.0 0.0 0.0 0.0 0.0 0.0 0.0 0.0 0.0 0.0 0.0 0.0 0.0 0.0 0.0 0.0 0.0 0.0 0.0 0.0 0.0 0.0 0.0 0.0 0.0 0.0 0.0 0.0 0.0 0.0 0.0 0.0 0.0 0.0 0.0 0.0 0.0 0.0 0.0 0.0 0.0 0.0 0.0 0.0 0.0 0.0 0.0 0.0 0.0 0.0 0.0 0.0 0.0 0.0 0.0 0.0 0.0 0.0 0.0 0.0 0.0 0.0 0.0 0.0 0.0 0.0 0.0 0.0 0.0 0.0 0.0 0.0 0.0 0.0 0.0 0.0 0.0 0.0 0.0 0.0 0.0 0.0 0.0 0.0 0.0 0.0 0.0 0.0 0.0 0.0 0.0 0.0 0.0 0.0 0.0 0.0 0.0 0.0 0.0 0.0 0.0 0.0 0.0 0.0 0.0 0.0 0.0 0.0 0.0 0.0 0.0 0.0 0.0 0.0 0.0 0.0 0.0 0.0 0.0 0.0 0.0 0.0 0.0 0.0 0.0 0.0 0.0 0.0 0.0 0.0 0.0 0.0 0.0 0.0 0.0 0.0 0.0 0.0 0.0 0.0 0.0 0.0 0.0 0.0 0.0 0.0 0.0 0.0 0.0 0.0 0.0 0.0 0.0 0.0 0.0 0.0 0.0 0.0 0.0 0.0 0.0 0.0 0.0 0.0 0.0 0.0 0.0 0.0 0.0 0.0 0.0 0.0 0.0 0.0 0.0 0.0 0.0 0.0 0.0 0.0 0.0 0.0 0.0 0.0 0.0 0.0 0.0 0.0 0.0 0.0 0.0 0.0 0.0 0.0 0.0 0.0 0.0 0.0 0.0 0.0 0.0 0.0 0.0 0.0 0.0 0.0 0.0 0.0 0.0 0.0 0.0 0.0 0.0 0.0 0.0 0.0 0.0 0.0 0.0 0.0 0.0 0.0 0.0 0.0 0.0 0.0 0.0 0.0 0.0 0.0 0.0 0.0 0.0 0.0 0.0 0.0 0.0 0.0 0.0 0.0 0.0 0.0 0.0 0.0 0.0 0.0 0.0 0.0 0.0 0.0 0.0 0.0 0.0 0.0 0.0 0.0 0.0 0.0 0.0 0.0 0.0 0.0 0.0 0.0 0.0 0.0 0.0 0.0 0.0 0.0 0.0 0.0 0.0 0.0 0.0 0.0 0.0 0.0 0.0 0.0 0.0 0.0 0.0 0.0 0.0 0.0 0.0 0.0 0.0 0.0 0.0 0.0 0.0 0.0 0.0 0.0 0.0 0.0 0.0 0.0 0.0 0.0 0.0 0.0 0.0 0.0 0.0 0.0 0.0 0.0 0.0 0.0 0.0 0.0 0.0 0.0 0.0 0.0 0.0 0.0 0.0 0.0 0.0 0.0 0.0 0.0 0.0 0.0 0.0 0.0 0.0 0.0 0.0 0.0 0.0 0.0 0.0 0.0 0.0 0.0 0.0 0.0 0.0 0.0 0.0 0.0 0.0 0.0 0.0 0.0 0.0 0.0 0.0 0.0 0.0 0.0 0.0 0.0 0.0 0.0 0.0 0.0 0.0 0.0 0.0 0.0 0.0 0.0 0.0 0.0 0.0 0.0 0.0 0.0 0.0 0.0 0.0 0.0 0.0 0.0 0.0 0.0 0.0 0.0 0.0 0.0 0.0 0.0 0.0 0.0 0.0 0.0 0.0 0.0 0.0 0.0 0.0 0.0 0.0 0.0 0.0 0.0 0.0 0.0 0.0 0.0 0.0 0.0 0.0 0.0 0.0 0.0 0.0 0.0 0.0 0.0 0.0 0.0 0.0 0.0 0.0 0.0 0.0 0.0 0.0 0.0 0.0 0.0 0.0 0.0 0.0 0.0 0.0 0.0 0.0 0.0 0.0 0.0 0.0 0.0 0.0 0.0 0.0 0.0 0.0 0.0 0.0 0.0 0.0 0.0 0.0 0.0 0.0 0.0 0.0 0.0 0.0 0.0 0.0 0.0 0.0 0.0 0.0 0.0 0.0 0.0 0.0 0.0 0.0 0.0 0.0 0.0 0.0 0.0 0.0 0.0 0.0 0.0 0.0 0.0 0.0 0.0 0.0 0.0 0.0 0.0 0.0 0.0 0.0 0.0 0.0 0.0 0.0 0.0 0.0 0.0 0.0 0.0 0.0 0.0 0.0 0.0 0.0 0.0 0.0 0.0 0.0 0.0 0.0 0.0 0.0 0.0 0.0 0.0 0.0 0.0 0.0 0.0 0.0 0.0 0.0 0.0 0.0 0.0 0.0 0.0 0.0 0.0 0.0 0.0 0.0 0.0 0.0 0.0 0.0 0.0 0.0 0.0 0.0 0.0 0.0 0.0 0.0 0.0 0.0 0.0 0.0 0.0 0.0 0.0 0.0 0.0 0.0 0.0 0.0 0.0 0.0 0.0 0.0 0.0 0.0 0.0 0.0 0.0 0.0 0.0 0.0 0.0 0.0 0.0 0.0 0.0 0.0 0.0 0.0 0.0 0.0 0.0 0.0 0.0 0.0 0.0 0.0 0.0 0.0 0.0 0.0 0.0 0.0 0.0 0.0 0.0 0.0 0.0 0.0 0.0 0.0 0.0 0.0 0.0 0.0 0.0 0.0 0.0 0.0 0.0 0.0 0.0 0.0 0.0 0.0 0.0 0.0 0.0 0.0 0.0 0.0 0.0 0.0 0.0 0.0 0.0 0.0 0.0 0.0 0.0 0.0 0.0 0.0 0.0 0.0 0.0 0.0 0.0 0.0 0.0 0.0 0.0 0.0 0.0 0.0 0.0 0.0 0.0 0.0 0.0 0.0 0.0 0.0 0.0 0.0 0.0 0.0 0.0 0.0 0.0 0.0 0.0 0.0 0.0 0.0 0.0 0.0 0.0 0.0 0.0 0.0 0.0 0.0 0.0 0.0 0.0 0.0 0.0 0.0 0.0 0.0 0.0 0.0 0.0 0.0 0.0 0.0 0.0 0.0 0.0 0.0 0.0 0.0 0.0 0.0 0.0 0.0 0.0 0.0 0.0 0.0 0.0 0.0 0.0 0.0 0.0 0.0 0.0 0.0 0.0 0.0 0.0 0.0 0.0 0.0 0.0 0.0 0.0 0.0 0.0 0.0 0.0 0.0 0.0 0.0 0.0 0.0 0.0 0.0 0.0 0.0 0.0 0.0 0.0 0.0 0.0 0.0 0.0 0.0 0.0 0.0 0.0 0.0 0.0 0.0 0.0 0.0 0.0 0.0 0.0 0.0 0.0 0.0 0.0 0.0 0.0 0.0 0.0 0.0 0.0 0.0 0.0 0.0 0.0 0.0 0.0 0.0 0.0 0.0 0.0 0.0 0.0 0.0 0.0 0.0 0.0 0.0 0.0 0.0 0.0 0.0 0.0 0.0 0.0 0.0 0.0 0.0 0.0 0.0 0.0 0.0 0.0 0.0 0.0 0.0 0.0 0.0 0.0 0.0 0.0 0.0 0.0 0.0 0.0 0.0 0.0 0.0 0.0 0.0 0.0 0.0 0.0 0.0 0.0 0.0 0.0 0.0 0.0 0.0 0.0 0.0 0.0 0.0 0.0 0.0 0.0 0.0 0.0 0.0 0.0 0.0 0.0 0.0 0.0 0.0 0.0 0.0 0.0 0.0 0.0 0.0 0.0 0.0 0.0 0.0 0.0 0.0 0.0 0.0 0.0 0.0 0.0 0.0 0.0 0.0 0.0 0.0 0.0 0.0 0.0 0.0 0.0 0.0 0.0 0.0 0.0 0.0 0.0 0.0 0.0 0.0 0.0 0.0 0.0 0.0 0.0 0.0 0.0 0.0 0.0 0.0 0.0 0.0 0.0 0.0 0.0 0.0 0.0 0.0 0.0 0.0 0.0 0.0 0.0 0.0 0.0 0.0 0.0 0.0 0.0 0.0 0.0 0.0 0.0 0.0 0.0 0.0 0.0 0.0 0.0 0.0 0.0 0.0 0.0 0.0 0.0 0.0 0.0 0.0 0.0 0.0 0.0 0.0 0.0 0.0 0.0 0.0 0.0 0.0 0.0 0.0 0.0 0.0 0.0 0.0 0.0 0.0 0.0 0.0 0.0 0.0 0.0 0.0 0.0 0.0 0.0 0.0 0.0 0.0 0.0 0.0 0.0 0.0 0.0 0.0 0.0 0.0 0.0 0.0 0.0 0.0 0.0 0.0 0.0 0.0 0.0 0.0 0.0 0.0 0.0 0.0 0.0 0.0 0.0 0.0 0.0 0.0 0.0 0.0 0.0 0.0 0.0 0.0 0.0 0.0 0.0 0.0 0.0 0.0 0.0 0.0 0.0 0.0 0.0 0.0 0.0 0.0 0.0 0.0 0.0 0.0 0.0 0.0 0.0 0.0 0.0 0.0 0.0 0.0 0.0 0.0 0.0 0.0 0.0 0.0 0.0 0.0 0.0 0.0 0.0 0.0 0.0 0.0 0.0 0.0 0.0 0.0 0.0 0.0 0.0 0.0 0.0 0.0 0.0 0.0 0.0 0.0 0.0 0.0 0.0 0.0 0.0 0.0 0.0 0.0 0.0 0.0 0.0 0.0 0.0 0.0 0.0 0.0 0.0 0.0 0.0 0.0 0.0 0.0 0.0 0.0 0.0 0.0 0.0 0.0 0.0 0.0 0.0 0.0 0.0 0.0 0.0 0.0 0.0 0.0 0.0 0.0 0.0 0.0 0.0 0.0 0.0 0.0 0.0 0.0 0.0 0.0 0.0 0.0 0.0 0.0 0.0 0.0 0.0 0.0 0.0 0.0 0.0 0.0 0.0 0.0 0.0 0.0 0.0 0.0 0.0 0.0 0.0 0.0 0.0 0.0 0.0 0.0 0.0 0.0 0.0 0.0 0.0 0.0 0.0 0.0 0.0 0.0 0.0 0.0 0.0 0.0 0.0 0.0 0.0 0.0 0.0 0.0 0.0 0.0 0.0 0.0 0.0 0.0 0.0 0.0 0.0 0.0 0.0 0.0 0.0 0.0 0.0 0.0 0.0 0.0 0.0 0.0 0.0 0.0 0.0 0.0 0.0 0.0 0.0 0.0 0.0 0.0 0.0 0.0 0.0 0.0 0.0 0.0 0.0 0.0 0.0 0.0 0.0 0.0 0.0 0.0 0.0 0.0 0.0 0.0 0.0 0.0 0.0 -0.003033838515845961 0.0 -0.001121393428034835 -0.003643557531088936 0.0 -0.001075118266877956 -0.0041585973039649305 0.0 -0.000989101104727527 -0.0045791517144787896 0.0 -0.0008873254221831351 -0.004921874523046861 0.0 -0.0007747173793679341 -0.003374929804373243 0.0 -0.001634332200858304 -0.0045207001130175 0.0 -0.001576526119413152 -0.00548727733718193 0.0 -0.0015311379182784471 -0.00627267535681688 0.0 -0.0014266034756650861 -0.00689901857247546 0.0 -0.001290792632269815 -0.007401261785031541 0.0 -0.001128703668217591 -0.00504347452608686 0.0 -0.002179705574492638 -0.00671295696782392 0.0 -0.002153465213836629 -0.00811262740281568 0.0 -0.0020747341718683533 -0.009252331031308271 0.0 -0.0019280713682017833 -0.01015186945379673 0.0 -0.0017461736036543391 -0.01086326187158154 0.0 -0.001528855438221385 -0.00734580178364504 0.0 -0.002905011232625279 -0.00973245664331141 0.0 -0.002870293391757333 -0.01169382229234555 0.0 -0.0027642261891056533 -0.013279425131985621 0.0 -0.002558793583969838 -0.014518405962960142 0.0 -0.0023129379778234482 -0.01548750278718756 0.0 -0.002021434770535868 -0.010491042662276061 0.0 -0.0038901918572547944 -0.0138336603458415 0.0 -0.0038061206151530137 -0.01653080481327011 0.0 -0.0036432479310811966 -0.01867878766696968 0.0 -0.0033587277639681922 -0.02033407450835185 0.0 -0.003031113435777834 -0.021612964940324112 0.0 -0.0026441146261028644 -0.014808522370213049 0.0 -0.005234828530870711 -0.01941705688542641 0.0 -0.005031939725798491 -0.02306103457652585 0.0 -0.00477044291926107 -0.025912243847806084 0.0 -0.00437559810938995 -0.02807418790185468 0.0 -0.003941843018546073 -0.029720128343003194 0.0 -0.0034351212058780283 -0.02079411931985297 0.0 -0.00705445857636146 -0.027034444275861092 0.0 -0.00666196896654922 -0.03187647239691179 0.0 -0.0062315781557894506 -0.035592887689822175 0.0 -0.0056826369420659205 -0.038369626959240656 0.0 -0.0051050481276262005 -0.0404517290112932 0.0 -0.0044462041111551 -0.029146439528660972 0.0 -0.0095617042390426 -0.037486381337159515 0.0 -0.008838569020964221 -0.0437902930947573 0.0 -0.008147490203687251 -0.0485225892130647 0.0 -0.00739714898492872 -0.0520250213006255 0.0 -0.00662445056561126 -0.0546175373654384 0.0 -0.00576463134411578 -0.0408235170205879 0.0 -0.01297837512445937 -0.051731313293282795 0.0 -0.0117913682947842 -0.0597924134948103 0.0 -0.01070928586773214 -0.06572005364300129 0.0 -0.009694397842359941 -0.0700578057514451 0.0 -0.008660497016512421 -0.073234641830866 0.0 -0.00750459098761477 -0.057341945433548605 0.0 -0.01739898683497466 -0.07118606577965161 0.0 -0.015619319990482992 -0.08118817002970422 0.0 -0.0141285363532134 -0.08848468221211701 0.0 -0.0127614443190361 -0.09377585434439631 0.0 -0.011363140684078512 -0.0975832304395807 0.0 -0.00980544264513606 -0.0804906500122662 0.0 -0.02317484977937123 -0.09759794643994861 0.0 -0.02061808171545203 -0.1096044227401105 0.0 -0.01872306206807654 -0.1184619709615492 0.0 -0.01681743602043589 -0.12477181111929521 0.0 -0.01496137997403449 -0.1292531272313281 0.0 -0.012809780720244511 -0.11118148677953711 0.0 -0.03701562372539057 -0.1328939473223486 0.0 -0.0300565727514143 -0.1472610516815262 0.0 -0.02590282624757064 -0.15775921594398032 0.0 -0.02255205856380145 -0.1650880001271999 0.0 -0.01974703409367584 -0.1701768922544222 0.0 -0.01673385401834634 -0.1569151919228797 0.0 -0.06686310967157771 -0.1811737565293438 0.0 -0.0493768212344205 -0.19725678493141952 0.0 -0.038612569365314216 -0.20912397322809922 0.0 -0.03139258118481451 -0.2172264614306614 0.0 -0.02640246226006154 -0.2227223935680597 0.0 -0.02192892334822307 -0.2230441855761045 0.0 -0.10633781065844519 -0.2475448661886215 0.0 -0.07772531794313291 -0.26388059459701474 0.0 -0.057328665433216595 -0.27599385489984624 0.0 -0.0442044651051116 -0.2842260431056509 0.0 -0.03571245449281134 -0.2897723752443092 0.0 -0.02874669511866736 -0.3120229798005743 0.0 -0.1525275518131887 -0.3355602843890069 0.0 -0.1125913428147835 -0.3507970647699264 0.0 -0.0814811180370279 -0.36207462105186533 0.0 -0.0610988375274709 -0.36963210924080253 0.0 -0.0477597651939941 -0.3747181973679547 0.0 -0.03723557093088925 -0.426324370658109 0.0 -0.20442956111073893 -0.44825709120642704 0.0 -0.1525991838149795 -0.461720491543012 0.0 -0.1104194187604854 -0.47140409178510206 0.0 -0.0817291940432298 -0.47758929193973204 0.0 -0.06228086555702161 -0.48154809203870197 0.0 -0.047334597183364906 -0.569119654227991 0.0 -0.265486246637156 -0.589675974741899 0.0 -0.1989761529744037 -0.601133455028336 0.0 -0.1439530875988271 -0.608920735223018 0.0 -0.1057659306441482 -0.6130828553270711 0.0 -0.07953398998834971 -0.6151277753781941 0.0 -0.059056389476409704 -0.745114098627852 0.0 -0.33941010048525233 -0.765819979145499 0.0 -0.2536814023420349 -0.775383779384594 0.0 -0.1830121445753035 -0.780765459519136 0.0 -0.1330472633261815 -0.782272459556811 0.0 -0.09909449047736221 -0.781207859530196 0.0 -0.0723594858089871 -0.9636175440904381 0.0 -0.42893277072331903 -0.9854634646365861 0.0 -0.3196621719915541 -0.9929614248240352 0.0 -0.22886114572152852 -0.9951400248785 0.0 -0.1646411801160294 -0.992166744804168 0.0 -0.120589843014746 -0.9864047446601181 0.0 -0.08706413817660341 -1.237117710927942 0.0 -0.539158133478953 -1.259877031496925 0.0 -0.3991210779780267 -1.264170791604269 0.0 -0.28301459107536464 -1.2611005915275142 0.0 -0.2006759450168985 -1.251325911283147 0.0 -0.14444802361120052 -1.2379883109497072 0.0 -0.10338991058474771 -1.5799253994981342 0.0 -0.67364441684111 -1.602271680056791 0.0 -0.494842172371054 -1.60093884002347 0.0 -0.3457007966425197 -1.589049679726241 0.0 -0.2415827340395682 -1.568467559211688 0.0 -0.1715939682898491 -1.543619278590481 0.0 -0.12207373505184331 -2.0088234502205853 0.0 -0.8366242609156062 -2.028247130706177 0.0 -0.607204655180116 -2.017152250428805 0.0 -0.4174240104356 -1.990782969769573 0.0 -0.2870077191751928 -1.953361928834047 0.0 -0.20292966907324161 -1.9112306877807663 0.0 -0.14462561961564038 -2.545003943625097 0.0 -1.032691905817297 -2.557030183925753 0.0 -0.738658698466467 -2.529204423230109 0.0 -0.496008972400224 -2.47961966199049 0.0 -0.3381934244548354 -2.417025060425625 0.0 -0.23938725398468122 -2.34934525873363 0.0 -0.1751151723778792 -3.215767848277234 0.0 -1.2653657843166881 -3.2117508070493277 0.0 -0.88822713293596 -3.155706973423048 0.0 -0.584919310951376 -3.070018091758652 0.0 -0.39795700892732 -2.97076498245792 0.0 -0.2866131599677928 -2.8670850802500163 0.0 -0.221260012755928 -4.0571717028959196 0.0 -1.5394062909263357 -4.01954853370926 0.0 -1.054292498651423 -3.9171513446449997 0.0 -0.68474696389815 -3.776486994428828 0.0 -0.474227138040402 -3.625542885965448 0.0 -0.35521294738215436 -3.4737494106163 0.0 -0.29286673929944995 -5.1158763355276005 0.0 -1.85863338803835 -5.01104069463262 0.0 -1.235484163690598 -4.83262760961839 0.0 -0.799629538514781 -4.61386314003308 0.0 -0.57918470225004 -4.39057938177448 0.0 -0.46366171782235194 -4.17648820147461 0.0 -0.410769992804231 -6.441173408024881 0.0 -2.217042845503612 -6.21557594751315 0.0 -1.4379561970847252 -5.91586372589183 0.0 -0.9434793945727139 -5.588585753190201 0.0 -0.737859873261506 -5.27031983639068 0.0 -0.642380378224744 -4.9798517737152 0.0 -0.607514684088256 -8.08204459085049 0.0 -2.6249412716667657 -7.652023449981661 0.0 -1.673606824216866 -7.173625905099719 0.0 -1.153514143957158 -6.690836937561749 0.0 -1.0037601645887249 -6.2569653929595 0.0 -0.95047567940295 -5.873738454989729 0.0 -0.931695508005483 -10.04862641113695 0.0 -3.0853953701389 -9.30671848321215 0.0 -1.98213311296364 -8.56979630462736 0.0 -1.4937661261132402 -7.851517677043951 0.0 -1.492343446278685 -7.265957130687619 0.0 -1.506309250164515 -6.84892354068888 0.0 -1.3997283800284621 -12.28102404598332 0.0 -3.6388347111196926 -11.09215252265652 0.0 -2.417934876754563 -9.896006735907001 0.0 -2.194114327949412 -8.98012013165244 0.0 -2.2337107975041963 -8.377163369563949 0.0 -2.173245865653357 -7.890395046358081 0.0 -1.9975476772679521 -14.5739195272452 0.0 -4.2777425945902605 -12.74543909064648 0.0 -3.2242744329364674 -11.15395021493544 0.0 -3.0956145822319634 -10.21633478993672 0.0 -3.12720822108239 -9.51796270119752 0.0 -2.983840880473712 -8.947007729207021 0.0 -2.7551537694078783 -16.773054820515 0.0 -4.962859077645 -14.3929961713542 0.0 -4.18637709491004 -12.649458453393182 0.0 -4.15050301136334 -11.453877365980079 0.0 -4.18645173176175 -10.609970787954659 0.0 -4.040458866441569 -9.961709908185 0.0 -3.687976094229 -18.49300706410979 0.0 -5.87249771387726 -15.810770342222561 0.0 -5.71378453584224 -13.708220014210239 0.0 -6.2456377771913605 -12.43180279737808 0.0 -5.94606002261936 -11.53490047043568 0.0 -5.38014895079264 -10.83043337695352 0.0 -4.79030913028152 -19.50055177759885 0.0 -6.95215236054794 -16.4256450822744 0.0 -8.0299789469144 -14.2232125538034 0.0 -9.6159861827877 -13.0617266275416 0.0 -8.805674088197 -12.236508577895261 0.0 -7.472084379117001 -11.5286715736448 0.0 -6.31492626636781 -18.88025917116177 0.0 -8.07027375385511 -16.30706396144504 0.0 -10.5560921494406 -14.34387837540956 0.0 -13.361031506710159 -13.400785410077999 0.0 -12.06118404741752 -12.64493034399153 0.0 -9.8682808454854 -11.95084212933962 0.0 -8.08593696976191 -15.572229158791439 0.0 -9.04985196037398 -14.66999946541332 0.0 -12.45429098680242 -13.40839031051667 0.0 -16.191802385504133 -12.80105932579614 0.0 -14.70243641145888 -12.239998839219899 0.0 -11.97478215312975 -11.61694976943444 0.0 -9.7368333736797 -11.02022247787118 0.0 -9.69894793086828 -10.75893003133095 0.0 -13.177891520512391 -10.380139002739519 0.0 -17.51735679145732 -9.95582033679625 0.0 -16.12376630379375 -9.46852500643104 0.0 -13.26201024624256 -8.93802305279524 0.0 -10.83967439860068 -6.86597664793027 0.0 -10.12895560682538 -6.75916239058587 0.0 -13.46255835809289 -6.59069293739528 0.0 -17.94031983823718 -6.346187790669541 0.0 -16.71409718347428 -6.03304099930668 0.0 -13.922515533509458 -5.67899956714398 0.0 -11.48622689346048 -3.587858887699488 0.0 -10.42712445908144 -3.5759251270686074 0.0 -13.57676145982032 -3.5227516060188617 0.0 -18.06920911186391 -3.417465368135822 0.0 -16.97194012355982 -3.262092504790834 0.0 -14.27510301400638 -3.072152685318112 0.0 -11.869068189296 -1.138275630449268 0.0 -10.63665775122012 -1.175832119035392 0.0 -13.63438872250592 -1.193586105102648 0.0 -18.0808041775732 -1.185779353371372 0.0 -17.04525667084686 -1.15055586445284 0.0 -14.415493370017648 -1.0921179485496721 0.0 -12.045161874174001 0.8024168331179281 0.0 -10.78488271237048 0.7380087586435201 0.0 -13.685037798868239 0.6729852110052781 0.0 -18.0497706850109 0.6092692740920721 0.0 -17.00780407328024 0.551642644091136 0.0 -14.403888094669421 0.504611253001514 0.0 -12.059478922831241 2.57928747178707 0.0 -10.8287521975908 2.48870589512094 0.0 -13.702748748430501 2.378981555057907 0.0 -17.98204014273051 2.25142974061608 0.0 -16.8834781150416 2.1130386753241077 0.0 -14.2685012576589 1.974325268325312 0.0 -11.9385251684064 4.3808158016351 0.0 -10.75371622651695 4.25347093307402 0.0 -13.5590254176545 4.0904370230521 0.0 -17.6999193515949 3.895225341757925 0.0 -16.5652178773557 3.6771956980640197 0.0 -13.97226991148494 3.4511876241706037 0.0 -11.68048725694438 6.20481465639648 0.0 -10.547143392539349 6.030401226213 0.0 -13.227930479170478 5.80605669508064 0.0 -17.17552487908584 5.5382774995033 0.0 -16.03658482248754 5.23919196286768 0.0 -13.510717259643359 4.92748645050375 0.0 -11.288777754541702 7.9386718243153 0.0 -10.2226373064284 7.71325137473662 0.0 -12.72382796958514 7.42589533785225 0.0 -16.41915551037125 7.08568946911661 0.0 -15.30458620574884 6.7076438278224195 0.0 -12.88959882320698 6.314440279276581 0.0 -10.77015201724758 9.444738025148299 0.0 -9.80285914137375 9.17185316087225 0.0 -12.074627960504248 8.826991890674119 0.0 -15.462500773198071 8.42112589379054 0.0 -14.39158723985374 7.97206459434245 0.0 -12.124844179200501 7.5065050469256605 0.0 -10.1376045511546 10.61302614187904 0.0 -9.310899282704801 10.170261536234861 0.0 -11.24575390619546 9.910375882869781 0.0 -14.349236737341439 9.4511631234972 0.0 -13.333889689355198 8.9333808509577 0.0 -11.243055792130349 8.35987698047424 0.0 -9.413970381275721 11.417564333548722 0.0 -8.80281706338845 10.837090788851249 0.0 -10.3672707414262 10.620105974467918 0.0 -13.13082068392344 10.11398123053461 0.0 -12.173974960543111 9.39268491017571 0.0 -10.28334589551984 8.6311153359238 0.0 -8.6342657225392 12.0014352172304 0.0 -8.3092174195048 11.326785191162841 0.0 -9.519724772091381 10.98542464092812 0.0 -11.85794676813076 10.320091033244179 0.0 -10.9605652923066 9.4202957167872 0.0 -9.2839831867824 8.585036574469939 0.0 -7.826608248099459 12.484414105179901 0.0 -7.7856243394188205 11.73127354298792 0.0 -8.72642151890188 11.13202979952772 0.0 -10.5805812364452 10.29128170307717 0.0 -9.748200271210699 9.290806981264799 0.0 -8.2856931259136 8.42958502309716 0.0 -7.01494410385001 13.03691071401312 0.0 -7.24469654709108 12.099551994121802 0.0 -7.9059084134433 11.225590357630441 0.0 -9.34943319544344 10.20576676527792 0.0 -8.59489336245834 9.09470342640744 0.0 -7.3288749943367995 8.20588800735162 0.0 -6.24952133895456 13.9060314111537 0.0 -6.8042726362049395 12.68316107197797 0.0 -7.137650016796109 11.405360392220341 0.0 -8.21931322923594 10.09817489014776 0.0 -7.56968535240606 8.86549939061907 0.0 -6.4795043561776495 7.95354389889345 0.0 -5.548912731747 15.357426553067969 0.0 -6.55905938608598 13.555006183745057 0.0 -6.483404134194889 11.725456673967159 0.0 -7.24629605072013 10.024442950692201 0.0 -6.715306025915 8.64845536834048 0.0 -5.76989659993376 7.69001159667888 0.0 -4.90571035077648 17.00933408867573 0.0 -6.453359815283469 14.5585510343672 0.0 -6.00873401825937 12.076895574959279 0.0 -6.50761418792736 9.974451464818559 0.0 -6.08051381338768 8.47452439836008 0.0 -5.19017697226696 7.444919809852079 0.0 -4.347281205793919 17.97187555016091 0.0 -6.702432262957619 15.12161094179916 0.0 -5.87777576944284 12.3597569591979 0.0 -6.02936033343189 9.99896961816126 0.0 -5.632806450814289 8.3854848594804 0.0 -4.74835403831028 7.22834384874822 0.0 -3.9074137755897422 15.3451877737508 0.0 -5.931243075874 12.64237084807606 0.0 -5.67564702858043 10.120952065639031 0.0 -5.322516641953641 8.373388033522499 0.0 -4.43914418877025 7.085139567640749 0.0 -3.5775713261173503 15.5441343856298 0.0 -5.9495115000620205 12.990272057775899 0.0 -5.37380737419616 10.472514266200001 0.0 -5.060322841840001 8.46452931895691 0.0 -4.2701745812445395 7.03791848305 0.0 -3.3569643755200005 13.31761074576576 0.0 -5.2523200345765195 11.032511864006219 0.0 -4.76567470230294 8.807553853413 0.0 -4.1844466386114 7.126539810098939 0.0 -3.2715206982016496 13.4610139131864 0.0 -5.3359952374212 11.49556283240067 0.0 -4.71063054335643 9.40064987448396 0.0 -4.13230269688725 7.4631396495108 0.0 -3.35164070580804 11.785058182629559 0.0 -4.8360386033766 9.991336295853639 0.0 -4.213628680692599 8.0368626205538 0.0 -3.562431968718264 10.40308325582064 0.0 -4.41972396012224 8.697354000658398 0.0 -3.8449844887349283 10.4722276533265 0.0 -4.624880303322301 9.24333814987968 0.0 -4.130786420632299 -0.0051948269298706705 0.0 -0.0006648490566212261 -0.00540899173522479 0.0 -0.0005624993740624841 -0.0055730441393261 0.0 -0.00047275857181896397 -0.0056984325424608104 0.0 -0.0003889287457232184 -0.005792273744806841 0.0 -0.00031294641982366036 -0.00586153694653842 0.0 -0.0002423327020583174 -0.00591151774778794 0.0 -0.0001757414123935352 -0.0059453361486334 0.0 -0.00011391361884784041 -0.0059649569491239205 0.0 -5.6020085400502095e-05 -0.00779351459483786 0.0 -0.000970468864261721 -0.00809638380240959 0.0 -0.0008206933005173321 -0.00832549820813745 0.0 -0.000687677297191932 -0.00849855101246377 0.0 -0.00056448041411201 -0.00862675461566886 0.0 -0.000453001731325043 -0.00872017381800434 0.0 -0.00034963366074084135 -0.008786590619664759 0.0 -0.0002534269423356734 -0.00883103542077588 0.0 -0.0001644676121116902 -0.0088566082214152 0.0 -8.088373802209341e-05 -0.011411163485279081 0.0 -0.001313902552847563 -0.011827917495697931 0.0 -0.001109409347735233 -0.01213889750347243 0.0 -0.0009269521831738041 -0.012370703109267571 0.0 -0.000758910378972759 -0.01254066271351656 0.0 -0.0006072094151802351 -0.012663853516596331 0.0 -0.00046746345168658597 -0.01275108191877704 0.0 -0.000338682448467061 -0.01280924272023106 0.0 -0.00021999288149982188 -0.012842692721067311 0.0 -0.0001082402227060055 -0.01622457400561434 0.0 -0.0017331524433288103 -0.01677777801944444 0.0 -0.001458834316470857 -0.01718546642963665 0.0 -0.001213510070337751 -0.01748559363713983 0.0 -0.000988979184724479 -0.01770355444258885 0.0 -0.000788714299717857 -0.01786104764652618 0.0 -0.000606833495170837 -0.017972724449318103 0.0 -0.00044005393100134805 -0.01804743445118585 0.0 -0.0002864275431606884 -0.01809053605226339 0.0 -0.0001410478395261959 -0.02257309896432746 0.0 -0.002261427296535681 -0.02328445978211148 0.0 -0.001898050527451262 -0.02380362659509065 0.0 -0.001571267519281687 -0.02418184340454607 0.0 -0.0012750620318765502 -0.02445461221136529 0.0 -0.001013712705342817 -0.0246508246162706 0.0 -0.000779522139488053 -0.02478991501974786 0.0 -0.000566063974151599 -0.02488307582207688 0.0 -0.0003694009812350243 -0.024937016223425392 0.0 -0.0001821693205542329 -0.030939237173480908 0.0 -0.002933667313341681 -0.031831003195775066 0.0 -0.002457985541449637 -0.032475120811878005 0.0 -0.002026527610663189 -0.032938916423472894 0.0 -0.001638864560971613 -0.03327052963176322 0.0 -0.0012993055524826381 -0.03350770843769269 0.0 -0.000997996264949906 -0.03367529604188238 0.0 -0.000725293378132334 -0.033787316844682905 0.0 -0.00047423989185599704 -0.033852193646304825 0.0 -0.00023413110185327744 -0.0419725970493149 0.0 -0.003794759214868978 -0.0430678890766972 0.0 -0.003176568519414211 -0.0438482970962074 0.0 -0.002609425465235635 -0.0444014091100352 0.0 -0.002103270252581755 -0.0447913731197843 0.0 -0.0016625430815635758 -0.045067161126679 0.0 -0.0012744115918602891 -0.0452602891315072 0.0 -0.000925974663149366 -0.045388549134713706 0.0 -0.0006063055351576381 -0.0454626931365673 0.0 -0.0002992185594804638 -0.0564855294121382 0.0 -0.00490911692272792 -0.057804757445118905 0.0 -0.00410139370253484 -0.058726885468172105 0.0 -0.0033551880038796985 -0.0593659374841484 0.0 -0.0026936822273420542 -0.0598065574951639 0.0 -0.002120585613014639 -0.060111041502776005 0.0 -0.0016197834404945851 -0.0603198495079962 0.0 -0.001174737349368433 -0.0604563855114096 0.0 -0.000768374779209369 -0.060534389513359696 0.0 -0.0003789698574742462 -0.0754829058870726 0.0 -0.00636268335906708 -0.07703393392584831 0.0 -0.0052953921323848005 -0.0780912699522817 0.0 -0.00430739010768475 -0.0788003539700088 0.0 -0.003437959125948976 -0.0792706579817664 0.0 -0.0026896447472411172 -0.0795814459895361 0.0 -0.002042155571053888 -0.079785001994625 0.0 -0.00147493923687348 -0.07991320599783011 0.0 -0.0009616823040420571 -0.0799841539996038 0.0 -0.000473234531830863 -0.1002223985055599 0.0 -0.00826850100671252 -0.1019979985499499 0.0 -0.006830057770751441 -0.10316463857911591 0.0 -0.005514711737867791 -0.10390752659768811 0.0 -0.00436387450909686 -0.1043670306091757 0.0 -0.00338355648458891 -0.1046454586161364 0.0 -0.0025452413436310322 -0.1048090146202253 0.0 -0.001824225165605628 -0.10489997062249921 0.0 -0.00118206602955165 -0.1049457586236439 0.0 -0.0005792957344823929 -0.1322609713065242 0.0 -0.0107405882685147 -0.13422265535556632 0.0 -0.00877966741949168 -0.1354329033858225 0.0 -0.00702514577562864 -0.1361413994035349 0.0 -0.00549647693741192 -0.1365243114131077 0.0 -0.004213892105347301 -0.1367139714178492 0.0 -0.003131625518290636 -0.13679243541981082 0.0 -0.002219153815478844 -0.1368138714203467 0.0 -0.001424121515603037 -0.1368150514203762 0.0 -0.0006945042173626051 -0.1734966203374154 0.0 -0.01388611994715299 -0.17555916838897911 0.0 -0.01121036068025901 -0.1767074404176859 0.0 -0.00887513102187827 -0.1772754604318864 0.0 -0.00685411497135287 -0.17748343243708573 0.0 -0.0051911441297786 -0.1775034124375852 0.0 -0.0038055715351392864 -0.17743616443590401 0.0 -0.0026637536265938394 -0.17734871243371772 0.0 -0.0016910838422770952 -0.1772824804320619 0.0 -0.00081973162049329 -0.22621021765525534 0.0 -0.017852987646324682 -0.2282109537052737 0.0 -0.014200791955019791 -0.2291321097283026 0.0 -0.0111006962775174 -0.22939997373499924 0.0 -0.00845014701125367 -0.229286725732168 0.0 -0.00632123295803082 -0.2290184297254606 0.0 -0.00456893771422344 -0.2287143057178575 0.0 -0.003161655439041384 -0.2284550497113761 0.0 -0.001986602009665049 -0.22828536570713404 0.0 -0.000957548183938704 -0.29312125132803113 0.0 -0.022825521770638034 -0.2947738713693466 0.0 -0.01781864964546623 -0.2951848113796201 0.0 -0.01371695714292392 -0.29489560737239 0.0 -0.01028303145707578 -0.2942436273560905 0.0 -0.007588848589721211 -0.29351168333779193 0.0 -0.005420802135520051 -0.29283936732098403 0.0 -0.0037160393729009818 -0.29231892330797293 0.0 -0.002314007697850191 -0.2919930752998267 0.0 -0.001110181507754537 -0.37744551743613775 0.0 -0.028855401921385034 -0.37828925745723124 0.0 -0.02208327095208176 -0.3777581054439524 0.0 -0.01673827201845679 -0.3765236014130898 0.0 -0.01235853310896332 -0.3750123133753076 0.0 -0.00900286622507165 -0.3735641333391031 0.0 -0.00636366855909171 -0.3723388533084711 0.0 -0.00433745410843635 -0.37143150128578734 0.0 -0.002682167907054196 -0.3708777532719436 0.0 -0.001283625912090647 -0.482998572074964 0.0 -0.03606304610157613 -0.48235533205888304 0.0 -0.026995665474891625 -0.48023009200575206 0.0 -0.02008068770201718 -0.477500971937524 0.0 -0.0146654283666357 -0.4746778918669471 0.0 -0.01057444386436109 -0.47216281180407 0.0 -0.00742576738564418 -0.470130451753261 0.0 -0.0050412853260321305 -0.46866681171667 0.0 -0.0031156162778904054 -0.46778841169470997 0.0 -0.001491996877299921 -0.614304615357615 0.0 -0.0440686971017174 -0.611224775280619 0.0 -0.03253854001346348 -0.606612895165322 0.0 -0.0237969685949242 -0.601605495040137 0.0 -0.01718912482972811 -0.596861774921544 0.0 -0.01235400470885011 -0.592809934820248 0.0 -0.00867888861697221 -0.589636734740918 0.0 -0.0059035589475889706 -0.5873987346849681 0.0 -0.0036729392518234792 -0.5860751746518791 0.0 -0.0017652633241315822 -0.776748579418714 0.0 -0.053005405325135105 -0.7698516592462911 0.0 -0.03865559496638985 -0.761566979039174 0.0 -0.02792265189806628 -0.753259858831496 0.0 -0.020106470902661763 -0.745800178645004 0.0 -0.01450285196257129 -0.739617538490438 0.0 -0.010297383057434571 -0.734892538372313 0.0 -0.007089032577225811 -0.731616858290421 0.0 -0.0044775441119386 -0.729702098242552 0.0 -0.002171564894289121 -0.976381344409533 0.0 -0.0628465175711629 -0.9637356240933901 0.0 -0.045446205136155104 -0.9502836637570911 0.0 -0.03274303441857584 -0.937367863434196 0.0 -0.02379442219486054 -0.926212543155313 0.0 -0.017381156034528892 -0.9172021029300521 0.0 -0.012655175116379369 -0.9104588627614711 0.0 -0.00891652942291323 -0.9058518626462961 0.0 -0.005759800143995001 -0.9031890225797251 0.0 -0.002830899190772478 -1.219683790492094 0.0 -0.0739933738498343 -1.198898149972453 0.0 -0.053399641334991005 -1.178137149453428 0.0 -0.03897702777442567 -1.159015028975375 0.0 -0.0289484447237111 -1.1429776285744402 0.0 -0.0217994485449862 -1.130338708258467 0.0 -0.01645879201146979 -1.121066108026652 0.0 -0.01195656389891409 -1.114822227870555 0.0 -0.00791580259789506 -1.111249667781241 0.0 -0.00394839729870993 -1.513236637830915 0.0 -0.0874667061866676 -1.481035277025881 0.0 -0.06401270160031751 -1.450329996258249 0.0 -0.0480827892020697 -1.4230591155764771 0.0 -0.03700569052514224 -1.400767555019188 0.0 -0.029115680727892 -1.383620594590514 0.0 -0.02281522497038061 -1.3712731542818282 0.0 -0.017108290427707253 -1.3630853940771341 0.0 -0.011557950288948751 -1.358449673961241 0.0 -0.00584560334614008 -1.863672886591821 0.0 -0.1056195506404887 -1.815850885396271 0.0 -0.07971356199283901 -1.7718521642963032 0.0 -0.06273420156835499 -1.7340960033523993 0.0 -0.050504341262608506 -1.7040102426002552 0.0 -0.041472933036823305 -1.68139444203486 0.0 -0.03357697523942436 -1.6654520416363001 0.0 -0.02568970104224251 -1.655038681375966 0.0 -0.017562519639062982 -1.649211161230278 0.0 -0.00892935702323392 -2.277959896948996 0.0 -0.132933643323341 -2.209243055231075 0.0 -0.1052965906324147 -2.1479650936991264 0.0 -0.0873510501837762 -2.097044812426119 0.0 -0.0732946458323661 -2.057473411436834 0.0 -0.0620066295501657 -2.028416690710416 0.0 -0.0510712772767819 -2.008319130207977 0.0 -0.03960335659008389 -1.995457889886446 0.0 -0.027143949878598733 -1.988339089708476 0.0 -0.013824415545610381 -2.763592505423682 0.0 -0.176746999304144 -2.667872120722312 0.0 -0.1482896129737144 -2.584964984850187 0.0 -0.1285998148048164 -2.517990299642305 0.0 -0.1113034031297464 -2.467201590240216 0.0 -0.0951482468166918 -2.4307223561285674 0.0 -0.0786062372682529 -2.406001802700324 0.0 -0.060789271355159796 -2.390446554267072 0.0 -0.041503044901812 -2.381979269186704 0.0 -0.02100601100359904 -3.328612281136325 0.0 -0.250158301045935 -3.199638439310825 0.0 -0.220923766231285 -3.090746555138925 0.0 -0.1959212273516125 -3.004864518018274 0.0 -0.1713561747372218 -2.9410579338947516 0.0 -0.14610827099441437 -2.8962542132482 0.0 -0.1197957636319864 -2.8664337195714076 0.0 -0.092001525602448 -2.8480556064908638 0.0 -0.062423460362026395 -2.838227788800824 0.0 -0.03163545174371064 -3.981013005890172 0.0 -0.3719921787638392 -3.8131334431279003 0.0 -0.3387576239628206 -3.674479214829237 0.0 -0.3019475789450718 -3.567069431516528 0.0 -0.26258959609543076 -3.488515586794337 0.0 -0.2210708587531705 -3.434310696188167 0.0 -0.1786032111546696 -3.399117176505288 0.0 -0.1352503914744696 -3.377809586739736 0.0 -0.09134121907990261 -3.3663825137939645 0.0 -0.0464181879929 -4.7271466343931206 0.0 -0.5689441667635741 -4.51562537443776 0.0 -0.52106163582496 -4.3444160052664005 0.0 -0.45887631052720207 -4.21319198722176 0.0 -0.3920935433985024 -4.1179586117799 0.0 -0.32601442687015 -4.053277092206 0.0 -0.25972645742469397 -4.01201923500685 0.0 -0.194213349730829 -3.9875885404914557 0.0 -0.129314728308736 -3.974957620911575 0.0 -0.06429905931907699 -5.56426701095109 0.0 -0.8692348026447151 -5.31361848596202 0.0 -0.7742838677847389 -5.105875231924561 0.0 -0.6743262560373899 -4.94701700134212 0.0 -0.566953966226376 -4.83255530246031 0.0 -0.46209547503531306 -4.75633984326498 0.0 -0.36400287037437895 -4.70830514929896 0.0 -0.2710540776517848 -4.68076039122471 0.0 -0.1777907477827572 -4.66672078092909 0.0 -0.08737412943430858 -6.4881120011685205 0.0 -1.277068785874104 -6.19183193019688 0.0 -1.1238265496418942 -5.9464374559749205 0.0 -0.9615054003170741 -5.75762425761705 0.0 -0.799462412790405 -5.62348293327948 0.0 -0.641120812237332 -5.5344286952287005 0.0 -0.49368197567336003 -5.479585220324839 0.0 -0.3595128943974744 -5.44775951345226 0.0 -0.2380689284026144 -5.4327099206248795 0.0 -0.1174497185654612 -7.474083680940479 0.0 -1.802431691017056 -7.126342971231599 0.0 -1.571980931704647 -6.8376059997059695 0.0 -1.330416176012811 -6.61576675802616 0.0 -1.08557841509094 -6.4593726535429195 0.0 -0.854864454305304 -6.3560433005064 0.0 -0.6526726293756601 -6.29324900396046 0.0 -0.46729482956855994 -6.25819011844032 0.0 -0.2997330487640652 -6.239479324104179 0.0 -0.1500669091836801 -8.471565375080989 0.0 -2.45046914381408 -8.071390395829722 0.0 -2.0938154785119463 -7.73032724794402 0.0 -1.747315619279502 -7.476135285127319 0.0 -1.406213740133964 -7.28994181834488 0.0 -1.09608456040176 -7.16886913167812 0.0 -0.819609892257572 -7.09702585211815 0.0 -0.574955967031355 -7.054543595309101 0.0 -0.3695759502072306 -7.032669720963801 0.0 -0.1765305024920968 -9.424400448350701 0.0 -3.24730192579506 -8.96105236379796 0.0 -2.780436310914072 -8.57313453043488 0.0 -2.2778028392184 -8.289651390834239 0.0 -1.7789684399005559 -8.0768017589175 0.0 -1.3370085891225 -7.9308335434134 0.0 -0.9739612643534431 -7.839655190325 0.0 -0.681318411165 -7.78521038220339 0.0 -0.43010201566342804 -7.75766026356132 0.0 -0.2051468768328324 -10.23515770667988 0.0 -4.18076659637416 -9.73172815843824 0.0 -3.5336232646478725 -9.312498902266649 0.0 -2.8662372634980353 -8.98014029495554 0.0 -2.210712502239006 -8.74147858210895 0.0 -1.6257986136407048 -8.57557850114575 0.0 -1.1494007237367099 -8.452968272249208 0.0 -0.784573119918921 -8.384119460170389 0.0 -0.48023384031079097 -8.34352143282976 0.0 -0.22933284407004803 -10.9196453275728 0.0 -5.3437390598592 -10.3916210425664 0.0 -4.4515336609744 -9.9544444792881 0.0 -3.561159138468668 -9.60252021626326 0.0 -2.7114269712248182 -9.32237019907634 0.0 -1.977346165341348 -9.11747367003586 0.0 -1.37781914958171 -8.97332728256388 0.0 -0.909984877445588 -8.88047065267528 0.0 -0.552388214161998 -8.83073954645192 0.0 -0.26664507656537967 -11.29042367462689 0.0 -6.728491618125769 -10.723837040937081 0.0 -5.54088586940348 -10.26531278818012 0.0 -4.3834723513567795 -9.896001241819679 0.0 -3.294112122967608 -9.616205955014559 0.0 -2.3546362878220237 -9.400545850883 0.0 -1.616756285298956 -9.2515028739119 0.0 -1.054084857410361 -9.15252276939052 0.0 -0.632812999463076 -9.09782139642747 0.0 -0.298675218135119 -10.995167722608 0.0 -8.028264390216 -10.44056206020996 0.0 -6.5804904963984905 -9.98896551278508 0.0 -5.1756845699134795 -9.633999107237189 0.0 -3.847455276053067 -9.37029615865626 0.0 -2.70581207324613 -9.180974427876361 0.0 -1.8099835957365482 -9.053445647330701 0.0 -1.150470814211166 -8.9735354745228 0.0 -0.67406254838706 -8.93072421847398 0.0 -0.3115455375953964 -8.4104319589112 0.0 -8.95570988722489 -7.93910675177101 0.0 -7.34604734642471 -7.55046988084299 0.0 -5.776354086096051 -7.25030538602266 0.0 -4.2844604336905805 -7.032285646404481 0.0 -3.004137208763856 -6.8827882480391205 0.0 -1.9986953124371951 -6.78552038425 0.0 -1.262192098928125 -6.726054261470721 0.0 -0.734938205636624 -6.694092358558881 0.0 -0.3379629936209472 -5.321745697821839 0.0 -9.5444098228593 -4.99460384748402 0.0 -7.85275517637072 -4.71812328627639 0.0 -6.18571127099808 -4.50095673389712 0.0 -4.59385385904831 -4.3416883703984395 0.0 -3.2240029699408317 -4.23171015021666 0.0 -2.146606762102866 -4.15961941799205 0.0 -1.356596042452038 -4.115125024644 0.0 -0.79044331974018 -4.090972217330159 0.0 -0.3636918090054936 -2.869855949156768 0.0 -9.91456150700444 -2.6763686993786235 0.0 -8.18367804718084 -2.507495886668209 0.0 -6.45943526329735 -2.37237699782878 0.0 -4.803544530937799 -2.272214306054623 0.0 -3.374261409987128 -2.20245902481848 0.0 -2.248524334848805 -2.156196437345956 0.0 -1.4223220158143899 -2.127213089772439 0.0 -0.829556277264 -2.111270478065125 0.0 -0.3819696833762229 -1.018651736088504 0.0 -10.09978900319346 -0.9404751649190399 0.0 -8.35823561408505 -0.867865477151841 0.0 -6.6082150600989005 -0.8079648878071259 0.0 -4.91927637736206 -0.7628126468309491 0.0 -3.458037538347249 -0.730860259963653 0.0 -2.306013054058755 -0.709170373959276 0.0 -1.460019089041098 -0.695131890261651 0.0 -0.8524067180726069 -0.687178850708493 0.0 -0.3928203613008378 0.470994990543752 0.0 -10.131919050036279 0.450072118442504 0.0 -8.39820498279087 0.437984277856867 0.0 -6.6466740758887 0.4308507810811699 0.0 -4.95084757217115 0.426565419799224 0.0 -3.4817216434353724 0.424325020753 0.0 -2.323042948443084 0.4236222814383441 0.0 -1.471923043938861 0.42382154601075805 0.0 -0.8601270782230721 0.424281327552082 0.0 -0.3966504336682888 1.846466665296045 0.0 -10.03340571220559 1.7374199018659777 0.0 -8.32160604641718 1.649907803552547 0.0 -6.5888251427732305 1.5831330608839889 0.0 -4.90862843483298 1.534893828073056 0.0 -3.452515485504084 1.502142737968286 0.0 -2.3042560583616383 1.481283544851402 0.0 -1.460792404429526 1.468939196044598 0.0 -0.8542024453717041 1.462555451629675 0.0 -0.39415288725276004 3.2351402226390493 0.0 -9.814937294641298 3.04483192620684 0.0 -8.14115027260711 2.8888560707994233 0.0 -6.445965177610719 2.768578545141888 0.0 -4.80163369802557 2.681140885867475 0.0 -3.3769290287416047 2.621130039244184 0.0 -2.253919177793842 2.582220351139775 0.0 -1.4292509939848552 2.558585720041592 0.0 -0.8360875969756401 2.5459820475329598 0.0 -0.3859324955946792 4.62726443198789 0.0 -9.48422386649463 4.361283682626399 0.0 -7.866195220972479 4.14288613161604 0.0 -6.22714584607856 3.974587178279176 0.0 -4.63729700506416 3.8521677664996123 0.0 -3.2603992808863276 3.7679492409982083 0.0 -2.175696001619018 3.71296729883996 0.0 -1.37958059357874 3.67926509560862 0.0 -0.8071054239184999 3.6611338084330316 0.0 -0.37261209481926466 5.93602667535124 0.0 -9.04947670437304 5.601224368119279 0.0 -7.50571111497368 5.327162518884959 0.0 -5.94069095007176 5.1165311113470695 0.0 -4.42237397361308 4.9635501956376 0.0 -3.107857899579916 4.85823761162411 0.0 -2.0729479334375362 4.789298124175921 0.0 -1.3139344387083969 4.746863746335 0.0 -0.76851968627913 4.723925704866249 0.0 -0.35474815525690095 7.059081713539199 0.0 -8.5225560671498 6.664107343157441 0.0 -7.070573391265119 6.341199768892309 0.0 -5.595932478687799 6.0930147203288 0.0 -4.16429512950704 5.91195201408216 0.0 -2.924817967248249 5.78686256334494 0.0 -1.949631497434618 5.70454526396472 0.0 -1.235174354986198 5.653779220290939 0.0 -0.722249741621578 5.6259407935375005 0.0 -0.333285779876815 7.803693114289601 0.0 -7.9240158445147 7.3136641413331205 0.0 -6.578158976344 6.921871638481779 0.0 -5.20808008752462 6.62034094950564 0.0 -3.8763916229973194 6.38468096762972 0.0 -2.728770237419576 6.211667782491079 0.0 -1.826432597111388 6.09321597743735 0.0 -1.1642786001705852 6.01267905416435 0.0 -0.68587000852998 5.969705428088839 0.0 -0.3188037904553464 7.9701637582270894 0.0 -7.283875696035831 7.42737234466633 0.0 -6.04907740569874 7.000777197440001 0.0 -4.79293915792 6.672904234631581 0.0 -3.5719189673533847 6.418029872296899 0.0 -2.52541772510053 6.22635401751291 0.0 -1.703119750918147 6.093728367028899 0.0 -1.09461696455514 6.00818587853984 0.0 -0.648852548519936 5.9585552360800005 0.0 -0.3002589545604 7.90323698103338 0.0 -6.618387367095071 7.3534906214501 0.0 -5.50330472420475 6.91812203146448 0.0 -4.36093962607384 6.571243151046651 0.0 -3.263942330018296 6.3130923391656495 0.0 -2.3131003085238797 6.12899997998574 0.0 -1.56290149250994 5.99853055146081 0.0 -1.008839253960726 5.911832293487549 0.0 -0.60492397633094 5.87021694834323 0.0 -0.2918604857152925 7.737028539846039 0.0 -5.95794794733665 7.17634705664656 0.0 -4.95970454066204 6.7347716662927795 0.0 -3.9424224539313504 6.3978289411916 0.0 -2.9539081540579604 6.13763019737672 0.0 -2.099933568187279 5.96600480859698 0.0 -1.425257016432904 5.846478841762 0.0 -0.93019119711604 5.77164978973922 0.0 -0.568648409055595 5.72170016687256 0.0 -0.26592629592193756 7.49973406276818 0.0 -5.32226696831793 6.942230026092 0.0 -4.439737848492 6.509030950040399 0.0 -3.533789872532537 6.18082166441432 0.0 -2.654280765274208 5.9409601425376195 0.0 -1.894261874266449 5.773285150641359 0.0 -1.304936049710034 5.6542089619496 0.0 -0.8680427335346 5.587623848810879 0.0 -0.5259051146423069 5.5464648133224 0.0 -0.246563368726368 7.2519107844348 0.0 -4.714845265023301 6.698506414706579 0.0 -3.9382721592994736 6.259639863713399 0.0 -3.1472481585617427 5.93231346938523 0.0 -2.3828979765461487 5.69700708584868 0.0 -1.7249767824116522 5.5377682210033194 0.0 -1.203131900816784 5.4424262902605 0.0 -0.809623358976468 5.3752660047323095 0.0 -0.492521453161677 5.34243598386852 0.0 -0.2331646334058474 6.989160602060279 0.0 -4.16761368287822 6.417948873661821 0.0 -3.4756941035396722 5.9875900912978 0.0 -2.797481790721724 5.6588099109288 0.0 -2.14098290656463 5.429898183755039 0.0 -1.570397264953779 5.28766165215278 0.0 -1.1204798507237188 5.1913522369505 0.0 -0.7510934335572901 5.13222252481266 0.0 -0.45850030468547903 5.10434899677347 0.0 -0.21756741930828638 6.70219273609481 0.0 -3.685174997090824 6.129414210280911 0.0 -3.066656499839021 5.69154051716994 0.0 -2.485381135781684 5.367059835816 0.0 -1.92235525308155 5.15223711803986 0.0 -1.4397796962467428 5.01384859157896 0.0 -1.032077996980352 4.92317662563761 0.0 -0.698003059438539 4.87117218601131 0.0 -0.43096713788177804 4.8465195681928 0.0 -0.2086381040428545 6.42724259720256 0.0 -3.255050685761886 5.8470445633287005 0.0 -2.708885389970316 5.39922837890205 0.0 -2.185478342483436 5.08144450945824 0.0 -1.71943426524771 4.874283036748801 0.0 -1.30614119379792 4.739800513011421 0.0 -0.9505539758826661 4.65206731192812 0.0 -0.650437373816097 4.603016998009981 0.0 -0.404833240401183 4.57553202558288 0.0 -0.20115650215562403 6.197789704279041 0.0 -2.895715289820608 5.58240130254722 0.0 -2.369365808437695 5.13737231609528 0.0 -1.9156659051029998 4.8183117824476795 0.0 -1.5197181395616 4.612921952652161 0.0 -1.178461912928469 4.4739345922513 0.0 -0.8677681423404949 4.38880898888982 0.0 -0.605070363677153 4.33635272613504 0.0 -0.38306115578518 4.3093965186492 0.0 -0.18817944159190217 6.04191584005627 0.0 -2.631913960472005 5.3694904074370395 0.0 -2.087989728093512 4.899960628217441 0.0 -1.667714957434158 4.5876371507511 0.0 -1.336340195784089 4.37348267847823 0.0 -1.048717540624943 4.23446212196 0.0 -0.7927503033800001 4.1418365928047205 0.0 -0.560934845043051 4.08499702932171 0.0 -0.36069930189124244 4.0582013335500005 0.0 -0.1757448107422 5.98446394713684 0.0 -2.476672222095126 5.22597169247382 0.0 -1.884652056690012 4.72150666715481 0.0 -1.467340579128861 4.38188830883133 0.0 -1.159622058099351 4.16646228841914 0.0 -0.9228961044184499 4.018015614945059 0.0 -0.7059092414970359 3.922424170073442 0.0 -0.513561294852276 3.86261453692308 0.0 -0.3305070936170628 3.833326292244219 0.0 -0.16170127571598572 6.085317059608079 0.0 -2.472982961254632 5.190484703073031 0.0 -1.800822720564063 4.6141990978218 0.0 -1.33831750874496 4.23316448088264 0.0 -1.020584494491246 3.99159210902328 0.0 -0.7969373065437481 3.83540463113628 0.0 -0.6176949821743439 3.732597995145858 0.0 -0.450380220804144 3.6718291934320804 0.0 -0.2954157687083232 3.638679298414752 0.0 -0.14384084915113918 6.470623691796639 0.0 -2.693939390810428 5.3374287798907 0.0 -1.8981098556577498 4.614740901528319 0.0 -1.326788665340212 4.1594666437032 0.0 -0.9553821323662639 3.873058228915862 0.0 -0.705808501864592 3.690933248523012 0.0 -0.528578753654548 3.5776237806577154 0.0 -0.382058303550458 3.513239697655785 0.0 -0.2522942537138405 3.4780632479746023 0.0 -0.122813336509451 7.147294514544921 0.0 -3.065816127966146 5.83128906667548 0.0 -2.257153148662254 4.8566934879904995 0.0 -1.54894848789499 4.21122966551056 0.0 -1.037194759422976 3.834644688450355 0.0 -0.7084043643006849 3.606077677182288 0.0 -0.494846402414672 3.466823480721588 0.0 -0.3384283754028004 3.3838106670110983 0.0 -0.2135585054408537 3.34316147245301 0.0 -0.10401268565653549 7.95810973973488 0.0 -3.4519745559645303 6.736813434897259 0.0 -2.680757119195067 5.56468070504164 0.0 -1.9968892466588521 4.61714913671648 0.0 -1.4131789834238442 4.0092613187167 0.0 -0.9195121514936351 3.64436107247469 0.0 -0.5838901943772551 3.4394931038442524 0.0 -0.3636909103784684 3.330569176497836 0.0 -0.21326611836868523 3.274178047976742 0.0 -0.0992886533585492 8.40265280960763 0.0 -3.824613870255997 7.543575924969439 0.0 -3.112650419380288 6.630871848628819 0.0 -2.4169372916157497 5.6924048529606 0.0 -1.826392637497947 4.83265872916715 0.0 -1.334722918412492 4.15746654127672 0.0 -0.922894887483304 3.715854242617218 0.0 -0.584072505079102 3.474959670895728 0.0 -0.3293757040506432 3.360765312016497 0.0 -0.1466572513274394 7.80286763394708 0.0 -3.53397419721186 7.26380002983852 0.0 -2.8962311306509143 6.67550017794807 0.0 -2.27358831577014 6.04197667129104 0.0 -1.715134988330775 5.451693273698099 0.0 -1.21916716866711 4.9835298696918 0.0 -0.7939361328924059 4.66944665028708 0.0 -0.459645253450584 4.4951443182711 0.0 -0.207011747853846 7.00888526932358 0.0 -2.7690750547702536 6.71902776403874 0.0 -2.1762132014136784 6.410656657673231 0.0 -1.584160111012157 6.148126175007819 0.0 -1.03298566015337 5.963035843593359 0.0 -0.5932742399729319 5.85593164269036 0.0 -0.26490259665592236 6.594640792484641 0.0 -2.012120231015832 6.53614896487308 0.0 -1.3159426143586799 6.489212424791401 0.0 -0.7501885820244 6.45852057360552 0.0 -0.33188855019232916 -0.00597145654928641 0.0 -5.24050333101258e-10 -0.00596496374912409 0.0 5.601998540049961e-05 -0.0059453405486335105 0.0 0.0001139137468478436 -0.0059115181477879504 0.0 0.00017574118039352942 -0.00586153734653843 0.0 0.0002423327940583197 -0.00579227254480681 0.0 0.0003129463718236591 -0.00569842974246074 0.0 0.000388927649723191 -0.005573050139326251 0.0 0.000472759171818979 -0.00886502382162559 0.0 9.360530234013251e-11 -0.00885660382141509 0.0 8.08825580220639e-05 -0.008831036220775901 0.0 0.000164466124111653 -0.00878658101966452 0.0 0.0002534260103356501 -0.00872017781800444 0.0 0.00034963366074084135 -0.00862676221566905 0.0 0.000453001931325048 -0.00849855101246377 0.0 0.000564479334111983 -0.00832549060813726 0.0 0.000687676657191916 -0.012853673521341829 0.0 -7.8113161952829e-11 -0.012842685121067121 0.0 0.00010824128270603201 -0.01280924112023102 0.0 0.0002199917854997945 -0.012751074318776852 0.0 0.0003386820764670517 -0.012663856316596401 0.0 0.00046746321168658 -0.012540669913516742 0.0 0.0006072087351802181 -0.01237070750926768 0.0 0.0007589116589727911 -0.012138895903472391 0.0 0.000926950863173771 -0.01810471445261785 0.0 -2.930246353256157e-09 -0.01809054365226358 0.0 0.0001410471195261779 -0.01804743445118585 0.0 0.0002864262631606564 -0.01797271724931792 0.0 0.00044005401100135 -0.017861055246526373 0.0 0.000606833135170828 -0.0177035484425887 0.0 0.0007887122597178061 -0.01748561003714024 0.0 0.000988976104724402 -0.0171854604296365 0.0 0.001213513350337833 -0.02495477702386941 0.0 4.296620907415521e-09 -0.024937016223425392 0.0 0.0001821640925541022 -0.02488306982207673 0.0 0.0003693981652349539 -0.02478989581974738 0.0 0.0005660631341515781 -0.02465081581627038 0.0 0.000779521099488027 -0.02445461501136536 0.0 0.001013713065342826 -0.02418184940454622 0.0 0.001275063711876592 -0.02380363419509084 0.0 0.0015712645192816122 -0.03387355004683874 0.0 2.140839733520992e-09 -0.03385221444630534 0.0 0.00023413848185346192 -0.033787328844683204 0.0 0.00047424081185602003 -0.03367528404188208 0.0 0.000725293858132346 -0.03350775043769374 0.0 0.000997995424949885 -0.03327054163176352 0.0 0.001299307072482676 -0.03293889842347244 0.0 0.0016388644009716089 -0.03247512961187823 0.0 0.002026517730662942 -0.0454869411371735 0.0 -3.947386178684652e-09 -0.045462677136566904 0.0 0.0002992137874803445 -0.04538853713471341 0.0 0.000606300335157508 -0.045260265131506605 0.0 0.000925973743149343 -0.0450671331266783 0.0 0.001274409471860236 -0.0447913851197846 0.0 0.001662546801563669 -0.044401421110035505 0.0 0.0021032740125818492 -0.0438482970962074 0.0 0.0026094280652357 -0.060559749513993705 0.0 6.09486655237166e-09 -0.0605344055133601 0.0 0.0003789862014746548 -0.0604563655114091 0.0 0.000768373539209338 -0.0603198055079951 0.0 0.001174734389368359 -0.0601110575027764 0.0 0.0016197847604946182 -0.05980663349516581 0.0 0.002120587453014685 -0.0593659374841484 0.0 0.002693696187342403 -0.05872686146817151 0.0 0.003355186523879661 -0.080006642000166 0.0 -1.592721359818033e-09 -0.0799841499996037 0.0 0.000473220611830515 -0.0799131899978297 0.0 0.0009616745040418621 -0.0797849659946241 0.0 0.001474940636873515 -0.07958141798953541 0.0 0.002042151291053781 -0.079270601981765 0.0 0.00268964846724121 -0.0788004059700101 0.0 0.0034379557659488923 -0.0780913259522831 0.0 0.00430736930768423 -0.104959442623986 0.0 1.468501156712528e-08 -0.10494579462364481 0.0 0.000579313054482826 -0.10490001862250041 0.0 0.001182057549551438 -0.1048089186202229 0.0 0.001824212325605307 -0.1046454106161352 0.0 0.002545232583630813 -0.10436701860917541 0.0 0.003383562044589049 -0.1039075385976884 0.0 0.00436388090909702 -0.1031646745791168 0.0 0.00551471293786782 -0.1368132274203306 0.0 7.52261858806546e-09 -0.1368150514203762 0.0 0.000694497537362438 -0.1368138594203464 0.0 0.001424124315603107 -0.1367924714198117 0.0 0.002219138895478471 -0.1367139834178495 0.0 0.0031316039182900965 -0.1365241554131038 0.0 0.00421389730534743 -0.1361413514035337 0.0 0.00549648453741211 -0.1354329153858228 0.0 0.00702516217562905 -0.17725772043144292 0.0 1.486966477174161e-08 -0.1772824324320607 0.0 0.0008197741004943521 -0.1773485924337147 0.0 0.001691098722277467 -0.1774360804359019 0.0 0.0026637448665936202 -0.1775034964375873 0.0 0.0038055718951392954 -0.1774833124370827 0.0 0.00519114972977874 -0.1772755084318876 0.0 0.00685410897135272 -0.1767073804176844 0.0 0.008875093021877322 -0.22822640570566002 0.0 -7.74254219356355e-08 -0.22828553370713822 0.0 0.000957560383939009 -0.2284551697113791 0.0 0.001986569409664234 -0.2287142817178569 0.0 0.003161671479041785 -0.2290182897254571 0.0 0.00456891131422278 -0.229286725732168 0.0 0.00632120975803024 -0.2294000217350004 0.0 0.00845013141125328 -0.2291321337283032 0.0 0.011100682277517052 -0.2918827112970676 0.0 1.153396188834904e-08 -0.291993007299825 0.0 0.001110261987756549 -0.29231887530797174 0.0 0.0023139818178495443 -0.29283943932098583 0.0 0.003716039012900973 -0.2935118273377955 0.0 0.00542081013552025 -0.2942435593560888 0.0 0.0075888521897213 -0.2948956553723912 0.0 0.010283065857076642 -0.2951847873796195 0.0 0.013716973542924329 -0.3706924532673111 0.0 4.12781010319525e-09 -0.3708777532719436 0.0 0.0012835883120897072 -0.3714315492857885 0.0 0.0026821429470535725 -0.3723389973084747 0.0 0.00433742450843561 -0.3735641333391031 0.0 0.00636371095909277 -0.37501228937530706 0.0 0.00900284502507112 -0.3765236934130921 0.0 0.01235853750896343 -0.3777578694439465 0.0 0.01673844641846115 -0.46749741168743497 0.0 5.99258334981458e-08 -0.4677885316947131 0.0 0.0014919067972976692 -0.46866637171665904 0.0 0.0031156065578901624 -0.47013025175325607 0.0 0.00504119092602977 -0.47216281180407 0.0 0.00742575978564399 -0.47467797186694904 0.0 0.01057439786435994 -0.477501131937528 0.0 0.014665374366634351 -0.480230332005758 0.0 0.020080470102011742 -0.585638974640974 0.0 6.642153766053839e-08 -0.5860745746518641 0.0 0.0017652378041309441 -0.5873988946849721 0.0 0.0036730547318263662 -0.589636774740919 0.0 0.00590351574758789 -0.5928096148202401 0.0 0.008678866216971651 -0.596862054921551 0.0 0.012354055908851391 -0.601605375040134 0.0 0.017189065229726623 -0.606612655165316 0.0 0.023796918194922943 -0.729074258226856 0.0 3.8841290971032254e-08 -0.729701938242548 0.0 0.0021714562942864064 -0.731616738290418 0.0 0.0044773401119335 -0.7348922583723061 0.0 0.00708899377722484 -0.7396171384904281 0.0 0.01029732625743315 -0.745800698645017 0.0 0.014502817562570432 -0.753259578831489 0.0 0.02010645170266128 -0.7615666590391661 0.0 0.02792296789807418 -0.902319342557983 0.0 1.381546114538652e-07 -0.9031883425797079 0.0 0.0028312182707804553 -0.905852142646303 0.0 0.00575987814399695 -0.910458502761462 0.0 0.00891648262291206 -0.9172017429300431 0.0 0.012655193116379821 -0.926212623155315 0.0 0.01738111883452796 -0.9373684234342101 0.0 0.02379451139486277 -0.950283063757076 0.0 0.03274290921857271 -1.110089027752225 0.0 2.8908512722712803e-07 -1.1112491877812292 0.0 0.0039483015387075365 -1.114822587870564 0.0 0.007915832197895802 -1.121066228026655 0.0 0.01195645789891144 -1.1303396682584912 0.0 0.01645877841146945 -1.142977948574448 0.0 0.02179918774497968 -1.159015588975389 0.0 0.02894854312371356 -1.178136749453418 0.0 0.03897680457442009 -1.356954513923862 0.0 2.73811846845296e-07 -1.3584490339612252 0.0 0.00584560974614024 -1.363086274077156 0.0 0.01155796508894912 -1.3712743142818569 0.0 0.01710839602770989 -1.3836210745905262 0.0 0.02281521457038035 -1.400767835019195 0.0 0.029115507927887682 -1.4230601555765032 0.0 0.037005798125144936 -1.45032963625824 0.0 0.0480825892020647 -1.647341761183543 0.0 4.42992131074803e-08 -1.649210401230259 0.0 0.00892892862322321 -1.6550384813759609 0.0 0.01756228563905713 -1.6654512816362812 0.0 0.02568950104223751 -1.6813950020348742 0.0 0.03357701963942547 -1.704009682600241 0.0 0.041473081036827 -1.734096563352413 0.0 0.050504173262604306 -1.771852724296317 0.0 0.0627338855683471 -1.9860704896517611 0.0 7.112480177812e-07 -1.9883396497084902 0.0 0.013824282745607059 -1.9954582898864561 0.0 0.027143789078594712 -2.008319130207977 0.0 0.03960363659009089 -2.028415330710382 0.0 0.0510713172767829 -2.057475331436882 0.0 0.0620064615501615 -2.09704365242609 0.0 0.07329484983237121 -2.1479658536991453 0.0 0.08735135818378391 -2.379285347570352 0.0 9.556819734088399e-07 -2.3819804291874003 0.0 0.0210061006036528 -2.390446554267072 0.0 0.0415032809019536 -2.4060023627005758 0.0 0.060789327355185 -2.430721036127874 0.0 0.0786063852683306 -2.46720291024081 0.0 0.0951485708168376 -2.5179898996420347 0.0 0.1113031431295709 -2.5849655448505646 0.0 0.12860099480561288 -2.835138463240048 0.0 -6.068528923332399e-07 -2.838228548802192 0.0 0.031635612544000075 -2.848055806491224 0.0 0.0624231563614792 -2.866434279572416 0.0 0.09200130160204478 -2.896257093253384 0.0 0.1197953116311728 -2.941060013898496 0.0 0.14610812699415518 -3.004865278019528 0.0 0.1713555067361196 -3.090746395138625 0.0 0.1959210833513425 -3.3628626595386115 0.0 -1.572886490164486e-07 -3.3663813537892664 0.0 0.0464169839880238 -3.3778099867413265 0.0 0.091341323080316 -3.399118696511216 0.0 0.135250487474844 -3.4343103361867904 0.0 0.17860328315494498 -3.488515586794337 0.0 0.2210710267538383 -3.5670671515076355 0.0 0.262589404094682 -3.674477694823423 0.0 0.301947674945439 -3.970817494853185 0.0 -6.9773936226405e-07 -3.9749595409329355 0.0 0.064297419300832 -3.9875847004484477 0.0 0.1293133802936384 -4.01201843499783 0.0 0.1942135057325879 -4.0532722921526 0.0 0.259726529425495 -4.11795501173985 0.0 0.32601418686748 -4.21319558726208 0.0 0.3920926633886464 -4.344417605284081 0.0 0.45887607052455004 -4.6626606119532 0.0 2.686429550079612e-06 -4.66671878087064 0.0 0.0873731294050836 -4.680763191306539 0.0 0.1777929518471691 -4.7083099494396 0.0 0.2710536256385412 -4.75633904324166 0.0 0.3640022983577052 -4.83255770253009 0.0 0.462096595067877 -4.94701500128382 0.0 0.56695372621938 -5.1058788320295 0.0 0.674327576075868 -5.428167556120401 0.0 1.012021923968055e-06 -5.4327099206248795 0.0 0.1174471783655632 -5.44775751329471 0.0 0.23806744828602736 -5.47958122000974 0.0 0.3595130144069274 -5.5344266950716 0.0 0.49368197567336003 -5.623484133373919 0.0 0.641120492212148 -5.7576230575227 0.0 0.79946197275581 -5.94644145628912 0.0 0.9615054003170741 -6.234143472108481 0.0 2.295737894259588e-06 -6.23947412301309 0.0 0.1500635484786681 -6.25818171667716 0.0 0.29973347685390245 -6.2932446030372295 0.0 0.46729374934194895 -6.356044500758101 0.0 0.65267354956863 -6.45936905278755 0.0 0.8548646543472689 -6.615770358781801 0.0 1.085576134612368 -6.837601598782739 0.0 1.330415695912095 -7.02742620097683 0.0 1.278497814904068e-06 -7.0326737231364005 0.0 0.1765335561497906 -7.054545996612661 0.0 0.3695714197478474 -7.09702905385695 0.0 0.5749558469661501 -7.1688723334166795 0.0 0.8196111329312639 -7.2899410179104 0.0 1.0960847605103798 -7.476130882737679 0.0 1.4062131798298279 -7.730326447509501 0.0 1.74732134238632 -7.749699880066319 0.0 -1.4071197217981078e-06 -7.757656258336919 0.0 0.2051480223270108 -7.7852035733214 0.0 0.43010069393927697 -7.83965599137 0.0 0.68131484651475 -7.93083434445834 0.0 0.9739604232562561 -8.0767977536925 0.0 1.337006105883 -8.289651390834239 0.0 1.7789720446025161 -8.573133729389761 0.0 2.27779923451536 -8.32530676794838 0.0 6.0945222134918795e-06 -8.343521031748441 0.0 0.2293354992283864 -8.384127882877479 0.0 0.4802328376075659 -8.452964261436309 0.0 0.7845732402433079 -8.5755732870882 0.0 1.149400442979765 -8.7414677529125 0.0 1.625797651045465 -8.98014109711812 0.0 2.210711900617071 -9.312496094697199 0.0 2.8662380255526 -8.81797234119516 0.0 1.345754587367014e-05 -8.8307427607168 0.0 0.2666501993000322 -8.880473063373941 0.0 0.552395888219399 -8.973336523574721 0.0 0.90998202478572 -9.11748130391495 0.0 1.3778172210227821 -9.3223645741128 0.0 1.9773452010618842 -9.602529457275478 0.0 2.711430024776682 -9.954441666806119 0.0 3.5611679375194334 -9.085788820685199 0.0 -1.19221633685848e-05 -9.09782743156182 0.0 0.2986736127893819 -9.15252357407504 0.0 0.6328110279860021 -9.2515028739119 0.0 1.054080833987461 -9.400555507097241 0.0 1.616754354056108 -9.6162047479876 0.0 2.3546430069387676 -9.896002851188959 0.0 3.2941198077059197 -10.26530836241394 0.0 4.38346510919394 -8.91755078974704 0.0 2.82811856341164e-06 -8.93071898405232 0.0 0.3115452718478352 -8.97353185069188 0.0 0.674063192623668 -9.05344725792234 0.0 1.15047178056615 -9.180968790806041 0.0 1.809980495347872 -9.37029172953057 0.0 2.705817267402621 -9.63400917343494 0.0 3.847464094042296 -9.98896470748932 0.0 5.1756837646177205 -6.68401920152736 0.0 8.20789142396608e-06 -6.694093969684 0.0 0.3379651766954848 -6.726049830876641 0.0 0.7349309958517121 -6.78552038425 0.0 1.262192018371875 -6.88277898406899 0.0 1.998694909655885 -7.032271951840961 0.0 3.004142606033008 -7.25029853873988 0.0 4.28445721143986 -7.550466658592031 0.0 5.77635650278427 -4.083317864160571 0.0 -5.14641678049386e-06 -4.090976648502839 0.0 0.36366904889127355 -4.11512059347165 0.0 0.79045733835816 -4.1596178066568905 0.0 1.3565913292966951 -4.231707733213921 0.0 2.1466048285006742 -4.3416887732323195 0.0 3.2239975719668394 -4.50095673389712 0.0 4.59386352706215 -4.71812127210684 0.0 6.18571570217109 -2.106162906406378 0.0 -7.68792656010953e-06 -2.1112651201113137 0.0 0.38195465290579517 -2.127213089772439 0.0 0.829552571010236 -2.156193375658064 0.0 1.4223193166948012 -2.202447100349848 0.0 2.248518171187654 -2.2722099149496198 0.0 3.374253312628361 -2.37237139816235 0.0 4.8035505737432995 -2.507496853517161 0.0 6.4594384861271905 -0.6845896525608 0.0 5.25465503316618e-06 -0.687178407561426 0.0 0.3928074898928463 -0.695134952005023 0.0 0.8524110286849859 -0.709156193254188 0.0 1.460026300251924 -0.730856956503699 0.0 2.306013819494598 -0.762812767689258 0.0 3.45803943179409 -0.807964001512794 0.0 4.9192796002505395 -0.8678718020709538 0.0 6.608215865821079 0.424499621369168 0.0 1.06379494311806e-06 0.42428587989787997 0.0 0.3966759106902592 0.423827186086878 0.0 0.860132436295386 0.42362534319418005 0.0 1.471925138824433 0.42432344958917195 0.0 2.3230423844355563 0.426569891573196 0.0 3.4817108870060878 0.43084280440267997 0.0 4.950841932095449 0.43799096537718896 0.0 6.64668696749414 1.4605811568528502 0.0 8.62761902583575e-06 1.46255275246935 0.0 0.3941604489302675 1.468937262317654 0.0 0.854199061349552 1.4812857605801921 0.0 1.4607971178889518 1.50213822593875 0.0 2.304251224044278 1.534897453811076 0.0 3.4525227772661022 1.583128709998041 0.0 4.90863085199184 1.6499087704162352 0.0 6.58883158853115 2.542043711551686 0.0 1.989885670005622e-06 2.545986841013848 0.0 0.3859252932889416 2.5585864853872797 0.0 0.8360851800945198 2.582228971349745 0.0 1.429251960737375 2.6211331006273917 0.0 2.2539178485090283 2.6811308960914353 0.0 3.37693865598545 2.768576047697506 0.0 4.80162040517644 2.8888547012331487 0.0 6.44597524795097 3.6554163771729598 0.0 -8.809823730908431e-06 3.661134211155602 0.0 0.3725970934035322 3.67925240984672 0.0 0.80710550446302 3.71297305777314 0.0 1.3795763649914399 3.7679500061712625 0.0 2.175698860949904 3.8521658334309885 0.0 3.260401576405318 3.9745837148640417 0.0 4.6372982132322305 4.14289579695988 0.0 6.22714705424654 4.7166710454427205 0.0 -3.184673200741732e-07 4.723932146340649 0.0 0.35474671397700397 4.74685690226794 0.0 0.7685185590210261 4.7893013449136 0.0 1.313935606225806 4.85824163754621 0.0 2.072947168512337 4.9635421437952 0.0 3.107861522908996 5.11653392949254 0.0 4.42237598657413 5.32715366185568 0.0 5.940695378586399 5.617116727372751 0.0 -3.619267299637025e-06 5.625948037264 0.0 0.333288564687225 5.6537868664461195 0.0 0.722255697574034 5.70455371497834 0.0 1.2351788621934618 5.7868557220482 0.0 1.949632463264746 5.91195966023677 0.0 2.924816639231922 6.09301150089456 0.0 4.16428788578 6.34119011058887 0.0 5.59592684467746 5.96025206134478 0.0 -2.888298806987678e-07 5.96969295858405 0.0 0.31879786542936067 6.0126706070792 0.0 0.685876967319175 6.09321597743735 0.0 1.1642754224576002 6.21166979370168 0.0 1.8264314306092397 6.384697057314519 0.0 2.728771001679604 6.620345776411079 0.0 3.876389692235144 6.9218744541772494 0.0 5.2080941660019695 5.94245596997912 0.0 5.449027953724e-06 5.95856126668 0.0 0.30027141378 6.00817864182128 0.0 0.648854116475624 6.0937323874284 0.0 1.0946124617077 6.22635964607249 0.0 1.7031191880621892 6.41802786209715 0.0 2.525416398368695 6.67289659587215 0.0 3.571908594722158 7.00077759948 0.0 4.79294157016 5.853268468812801 0.0 1.20756973989008e-05 5.87021051904099 0.0 0.2918626395315429 5.9118302843303 0.0 0.604919435635555 5.99853336428054 0.0 1.008844035754267 6.12899515800906 0.0 1.562897675111735 6.3130847043681 0.0 2.31309781716889 6.571249982180281 0.0 3.263941164707265 6.918118414981161 0.0 4.360942438894201 5.70419420185464 0.0 1.7727142264905038e-06 5.72170538799262 0.0 0.26592048039744 5.771642962121191 0.0 0.56865021636625 5.84647803851288 0.0 0.930188626718856 5.966003603723119 0.0 1.42525673529567 6.1376305990013105 0.0 2.099931479739411 6.39782211357204 0.0 2.9539098810440843 6.73476403542329 0.0 3.9424209277574525 5.53271918258664 0.0 -2.473546347748203e-06 5.5464648133224 0.0 0.246552839311896 5.587612207446149 0.0 0.525899253817305 5.65420213770165 0.0 0.86803735442151 5.77328675634684 0.0 1.3049353672852049 5.94096375537495 0.0 1.8942578600027489 6.18081765015112 0.0 2.654291322786424 6.509024928646051 0.0 3.5337860589827823 5.33501541450546 0.0 3.749107131141843e-06 5.34243638511051 0.0 0.2331641559278793 5.37526439976435 0.0 0.492520730926095 5.44241505548478 0.0 0.8096339517650041 5.53777102969746 0.0 1.203131981065188 5.69700227094516 0.0 1.724980433713488 5.93231186441727 0.0 2.3829004642464873 6.25964548110126 0.0 3.1472455103646086 5.09838582938056 0.0 -6.81465416198088e-06 5.10433415698848 0.0 0.2175723685771182 5.13222533233955 0.0 0.45849853995429096 5.1913586541553 0.0 0.75109399506271 5.28765964677643 0.0 1.120482738465663 5.42989417300234 0.0 1.570397465491414 5.6588135206065004 0.0 2.14098021936012 5.98758447624444 0.0 2.79748636297946 4.834946406125 0.0 2.488494027759696e-07 4.84651355426575 0.0 0.2086375547708506 4.871180605510441 0.0 0.43096453184633304 4.92317261635231 0.0 0.698004021667011 5.0138481906504 0.0 1.032078678558904 5.15223150504044 0.0 1.439781219775157 5.367063845101 0.0 1.9223564157742001 5.6915453283123 0.0 2.485384784231307 4.56736601732697 0.0 -2.7538175157911554e-06 4.57553162478042 0.0 0.2011614480579804 4.6030202044299005 0.0 0.40483568529637204 4.6520617006941 0.0 0.650436973013667 4.73978848893762 0.0 0.950556821580132 4.874286643970399 0.0 1.30614383909376 5.08144130303832 0.0 1.719438633994851 5.39922677569209 0.0 2.185483112033067 4.3021038392552 0.0 -1.623323666566844e-07 4.30940092631257 0.0 0.18818092016261448 4.3363607400694395 0.0 0.3830628266905024 4.388804981923119 0.0 0.605071165070493 4.47393499294797 0.0 0.86776794199216 4.61292155195555 0.0 1.178460189933046 4.81831619011072 0.0 1.519715094267136 5.137371114005121 0.0 1.915668990467744 4.05079295008311 0.0 1.6588538560973938e-06 4.05819973111 0.0 0.1757456560293 4.08499702932171 0.0 0.36070302756396344 4.14183779463481 0.0 0.560935646263111 4.23445891708 0.0 0.7927505036850001 4.3734838803081395 0.0 1.0487188626378439 4.58763675014113 0.0 1.3363383930392239 4.89995542028705 0.0 1.6677153179831852 3.82366140635766 0.0 -4.59103669338066e-06 3.8333312589453032 0.0 0.1617007510080486 3.862620264651372 0.0 0.33050394536920435 3.922418041804251 0.0 0.51356177550084 4.01802002088924 0.0 0.705910002523758 4.16646629382294 0.0 0.92289550360788 4.3818943169383795 0.0 1.159621377180552 4.72150947093768 0.0 1.467341820804132 3.626210603616534 0.0 1.714019130330804e-06 3.6386747328761757 0.0 0.14384245910421598 3.6718288329948234 0.0 0.2954189685901848 3.7325987560688403 0.0 0.45038054119276805 3.8354050316221198 0.0 0.617696183631864 3.991589826254334 0.0 0.796936145134986 4.23316648331199 0.0 1.02058537556016 4.6142002992795 0.0 1.33831742864778 3.467701363688282 0.0 1.399877072125098e-06 3.4780632479746023 0.0 0.1228162717626516 3.5132347321520445 0.0 0.25229155872673 3.5776230198144 0.0 0.3820588281319015 3.690933248523012 0.0 0.5285786735657719 3.87305478509901 0.0 0.7058084618202101 4.15946744459096 0.0 0.9553792491703279 4.6147461072987594 0.0 1.3267899067162399 3.3314631172939024 0.0 -1.683002881007952e-07 3.3431625936075897 0.0 0.104012529495719 3.3838121885778003 0.0 0.21355786077706682 3.466826884226818 0.0 0.3384281151347534 3.6060772767699683 0.0 0.49484548146633595 3.83464240609996 0.0 0.7084054454140299 4.21122806386128 0.0 1.037194559216816 4.8566926871658 0.0 1.548950129585625 3.2565764737356764 0.0 -6.22897583700756e-07 3.274180730583176 0.0 0.0992854302269382 3.330569176497836 0.0 0.21326652676554678 3.4394919427159203 0.0 0.3636912467052956 3.6443645158205205 0.0 0.5838890732879151 4.0092629202729 0.0 0.91951291223283 4.6171487363274 0.0 1.413178502956948 5.564681906208881 0.0 1.9968881255694282 3.327870365978254 0.0 -1.6912245168751e-07 3.360766112761037 0.0 0.1466574795396333 3.4749600712679682 0.0 0.3293747031200432 3.715854242617218 0.0 0.5840731456745901 4.15746814276568 0.0 0.922894887483304 4.83265872916715 0.0 1.334722638151945 5.692404452588329 0.0 1.8263914764183637 6.63087264937336 0.0 2.416939213402646 4.44030769421526 0.0 6.10682419074084e-07 4.49514071502795 0.0 0.20701177187546696 4.66944705064752 0.0 0.459645934063332 4.983533873295601 0.0 0.793935732532026 5.4516964765809 0.0 1.219167448919355 6.04197667129104 0.0 1.71513478815057 6.67550338083135 0.0 2.273588676094509 7.26380002983852 0.0 2.8962311306509143 5.821064211699 0.0 3.360373666766105e-07 5.855931242338239 0.0 0.2649034333918532 5.9630350428891195 0.0 0.5932742399729319 6.148126175007819 0.0 1.0329848994843989 6.41065585696905 0.0 1.584160111012157 6.71902776403874 0.0 2.176212841096716 7.00888807178905 0.0 2.769074454241939 6.447935894793301 0.0 9.648413508368699e-08 6.45851977291248 0.0 0.33188855019232916 6.4892116240983 0.0 0.7501891825442251 6.536152167645239 0.0 1.315942894601244 6.59464159317768 0.0 2.012120431189092 -0.0054089901352247505 0.0 0.000562498534062463 -0.0051948241298706 0.0 0.0006648482966212071 -0.0049218761230469 0.0 0.000774716699367917 -0.0045791521144788 0.0 0.0008873248621831211 -0.00415860090396502 0.0 0.0009891018647275461 -0.003643554531088861 0.0 0.0010751183468779581 -0.00303383887584597 0.0 0.001121394188034854 -0.008096377802409441 0.0 0.0008206917005172921 -0.00779351459483786 0.0 0.0009704692642617309 -0.00740126258503156 0.0 0.001128703468217586 -0.006899014172475351 0.0 0.001290792992269824 -0.00627267535681688 0.0 0.001426603875665096 -0.00548727933718198 0.0 0.001531137358278433 -0.00452070251301756 0.0 0.0015765257594131431 -0.003374930564373262 0.0 0.0016343325608583132 -0.01182791309569782 0.0 0.001109409907735247 -0.0114111722852793 0.0 0.0013139033128475822 -0.01086326867158171 0.0 0.0015288541582213532 -0.01015187665379691 0.0 0.0017461736036543391 -0.00925232783130819 0.0 0.001928072488201811 -0.00811262740281568 0.0 0.002074734731868367 -0.00671295696782392 0.0 0.002153462973836573 -0.005043473326086831 0.0 0.002179707454492685 -0.01677777801944444 0.0 0.001458829196470729 -0.01622457560561438 0.0 0.0017331556033288891 -0.015487501587187532 0.0 0.002021436090535901 -0.014518401562960031 0.0 0.002312937417823434 -0.01327942193198554 0.0 0.0025587946639698653 -0.011693820692345511 0.0 0.002764226749105667 -0.00973246584331164 0.0 0.002870295471757385 -0.00734580258364506 0.0 0.002905011232625279 -0.02328445978211148 0.0 0.0018980488474512201 -0.02257310496432761 0.0 0.002261425976535648 -0.02161296814032419 0.0 0.002644117226102929 -0.020334080508352 0.0 0.0030311149557778723 -0.01867878646696965 0.0 0.0033587311239682764 -0.01653081081327026 0.0 0.003643252051081299 -0.01383365594584139 0.0 0.0038061191351529762 -0.01049104226227605 0.0 0.003890190737254766 -0.03183099999577498 0.0 0.0024579868214496692 -0.030939237173480908 0.0 0.0029336633933415832 -0.029720110343002742 0.0 0.003435117085877925 -0.02807418190185453 0.0 0.003941841138546026 -0.02591222904780571 0.0 0.00437559450938986 -0.02306103617652589 0.0 0.00477043931926098 -0.01941706728542667 0.0 0.0050319389257984706 -0.01480852717021317 0.0 0.0052348341308708505 -0.0430678770766969 0.0 0.0031765651594141274 -0.0419725890493147 0.0 0.0037947651748691273 -0.0404517450112936 0.0 0.004446214511155361 -0.03836964455924109 0.0 0.00510505052762626 -0.03559290248982254 0.0 0.00568263774206594 -0.03187650519691261 0.0 0.006231584555789611 -0.02703444707586116 0.0 0.00666197096654927 -0.02079413571985338 0.0 0.00705445817636145 -0.0578047454451186 0.0 0.004101400102535 -0.056485509412137695 0.0 0.004909114922727871 -0.0546175533654388 0.0 0.00576464294411607 -0.052025017300625406 0.0 0.00662445536561138 -0.0485225852130646 0.0 0.007397140184928501 -0.043790305094757606 0.0 0.008147485003687121 -0.037486381337159515 0.0 0.008838571820964291 -0.029146439528660972 0.0 0.00956171023904275 -0.0770339259258481 0.0 0.0052953813323845305 -0.0754828778870719 0.0 0.00636265895906647 -0.07323464983086621 0.0 0.00750459378761484 -0.0700577857514446 0.0 0.00866049541651238 -0.06572005364300129 0.0 0.009694400642360011 -0.0597924134948103 0.0 0.01070928306773207 -0.0517313092932827 0.0 0.01179136949478423 -0.0408235130205878 0.0 0.01297837672445941 -0.10199802254995051 0.0 0.0068300561707514 -0.10022237450555929 0.0 0.00826849060671226 -0.0975832064395801 0.0 0.00980544264513606 -0.09377591834439791 0.0 0.01136313708407842 -0.0884846462121161 0.0 0.012761447119036172 -0.0811881820297045 0.0 0.0141285363532134 -0.0711860297796507 0.0 0.015619305190482621 -0.057341945433548605 0.0 0.017398983634974583 -0.1342227353555683 0.0 0.00877961741949043 -0.13226099530652483 0.0 0.01074061506851537 -0.12925315123132872 0.0 0.012809768720244209 -0.1247718351192958 0.0 0.014961387574034682 -0.11846203096155071 0.0 0.01681743922043597 -0.10960438674010961 0.0 0.01872305006807624 -0.09759805843995141 0.0 0.020618093715452333 -0.0804906980122674 0.0 0.023174837779370933 -0.1755592163889803 0.0 0.01121031068025776 -0.1734965603374139 0.0 0.0138861763471544 -0.1701768922544222 0.0 0.016733800418345 -0.16508794412719852 0.0 0.01974702529367562 -0.1577592879439821 0.0 0.02255205856380145 -0.1472609916815247 0.0 0.02590282024757049 -0.1328940193223504 0.0 0.030056584751414598 -0.11118149877953741 0.0 0.03701561772539042 -0.22821093370527318 0.0 0.01420075195501879 -0.22621031365525773 0.0 0.017853056446326402 -0.22272246556806152 0.0 0.02192890254822255 -0.21722636943065912 0.0 0.02640246226006154 -0.209123925228098 0.0 0.03139256918481421 -0.1972568089314201 0.0 0.03861257536531436 -0.1811737445293435 0.0 0.049376841234421 -0.1569151319228782 0.0 0.0668630776715769 -0.2947737033693424 0.0 0.0178185244454631 -0.293121367328034 0.0 0.022825481370637023 -0.2897723512443086 0.0 0.02874672791866818 -0.2842260431056509 0.0 0.03571247529281186 -0.2759940948998522 0.0 0.0442044771051119 -0.2638807825970194 0.0 0.0573286614332165 -0.24754479418861972 0.0 0.07772531794313291 -0.22304413757610334 0.0 0.10633781065844519 -0.3782891134572276 0.0 0.02208322175208053 -0.37744561343614014 0.0 0.0288554287213857 -0.37471834136795834 0.0 0.0372355769308894 -0.36963218124080427 0.0 0.0477597691939942 -0.36207462105186533 0.0 0.0610987935274698 -0.35079704076992585 0.0 0.0814811380370284 -0.3355603763890092 0.0 0.11259131881478292 -0.3120230038005749 0.0 0.15252751581318783 -0.482355172058879 0.0 0.026995656674891403 -0.482998332074958 0.0 0.03606299530157486 -0.48154837203870904 0.0 0.0473345571833639 -0.47758929193973204 0.0 0.0622808695570217 -0.471403891785097 0.0 0.08172917404322931 -0.46172077154301905 0.0 0.11041950276048751 -0.448257451206436 0.0 0.1525991838149795 -0.426324370658109 0.0 0.2044295371107383 -0.611224895280622 0.0 0.03253848921346221 -0.614304735357618 0.0 0.0440688251017206 -0.6151278153781949 0.0 0.0590564574764114 -0.6130828153270701 0.0 0.0795340539883513 -0.6089204952230121 0.0 0.1057659186441479 -0.601133735028343 0.0 0.1439530395988259 -0.589676054741901 0.0 0.1989761529744037 -0.5691197342279931 0.0 0.26548622263715543 -0.769851459246286 0.0 0.03865555016638873 -0.776748739418718 0.0 0.053005541325138496 -0.781207979530199 0.0 0.07235921780898041 -0.782272659556816 0.0 0.0990945784773644 -0.780765459519136 0.0 0.1330472153261803 -0.775384179384604 0.0 0.18301212057530292 -0.765820299145507 0.0 0.2536813103420326 -0.745114538627863 0.0 0.339410168485254 -0.963735784093394 0.0 0.045446121136153005 -0.9763815044095371 0.0 0.0628463455711586 -0.9864050246601251 0.0 0.0870642581766064 -0.9921669448041731 0.0 0.12058998701474961 -0.995140104878502 0.0 0.1646411801160294 -0.992961824824045 0.0 0.2288610977215273 -0.9854634646365861 0.0 0.3196621239915529 -0.9636177440904431 0.0 0.428932850723321 -1.198897789972444 0.0 0.0533993813349845 -1.219683590492089 0.0 0.0739934698498367 -1.2379881109497022 0.0 0.10338957458473931 -1.251326511283162 0.0 0.14444816361120402 -1.261101191527529 0.0 0.2006759450168985 -1.264170671604266 0.0 0.2830144230753604 -1.259876751496918 0.0 0.3991211739780291 -1.237117990927949 0.0 0.539158133478953 -1.481035557025888 0.0 0.06401253360031331 -1.513236197830904 0.0 0.0874667421866685 -1.543619118590477 0.0 0.1220738670518466 -1.5684679592116981 0.0 0.1715939682898491 -1.5890499597262482 0.0 0.2415827820395694 -1.600939800023494 0.0 0.34570074864251854 -1.602272080056801 0.0 0.49484229237105704 -1.579925279498131 0.0 0.6736444568411111 -1.8158497253962422 0.0 0.0797132979928324 -1.863673046591825 0.0 0.10561893064047319 -1.9112306877807663 0.0 0.1446259756156493 -1.953361568834038 0.0 0.20292983707324583 -1.9907827697695681 0.0 0.2870075791751893 -2.01715285042882 0.0 0.41742397043559903 -2.028245410706134 0.0 0.6072047351801181 -2.008824570220613 0.0 0.8366242609156062 -2.209242295231056 0.0 0.10529737863243441 -2.277959296948981 0.0 0.1329337873233446 -2.349344298733606 0.0 0.1751152083778801 -2.417026380425658 0.0 0.23938708998467711 -2.479619461990485 0.0 0.3381933524548336 -2.5292038632300953 0.0 0.496008972400224 -2.557029983925748 0.0 0.7386589384664731 -2.545004143625102 0.0 1.032692345817308 -2.667872520722552 0.0 0.1482899609739232 -2.7635917054231416 0.0 0.1767473473043789 -2.867086240250712 0.0 0.2212597967557984 -2.97076518245804 0.0 0.2866135399680208 -3.0700192517592613 0.0 0.3979568409272318 -3.155707533423384 0.0 0.5849195109514961 -3.2117519670500236 0.0 0.88822713293596 -3.2157674482770244 0.0 1.2653657843166881 -3.19963919931225 0.0 0.22092312223007748 -3.3286157211427754 0.0 0.25015749304442003 -3.47374637061174 0.0 0.29286673929944995 -3.6255413659627123 0.0 0.3552131833825792 -3.77648851443145 0.0 0.474227018040195 -3.91714982464215 0.0 0.6847468838980001 -4.01954733370719 0.0 1.054292858652044 -4.0571733028988 0.0 1.5394064909266958 -3.8131334431279003 0.0 0.3387590999687984 -3.981011085882684 0.0 0.37199067875798913 -4.17648700146984 0.0 0.410770752807252 -4.39058258178744 0.0 0.463662597825916 -4.613865140041031 0.0 0.5791850222513121 -4.8326272096168 0.0 0.799629818515894 -5.01103909462614 0.0 1.235484163690598 -5.11587593552601 0.0 1.85863338803835 -4.5156285744736 0.0 0.521061075818688 -4.72714783440638 0.0 0.5689457267808121 -4.97984897368384 0.0 0.607514524086464 -5.27031783636858 0.0 0.6423808582300481 -5.588587753212301 0.0 0.7378593132553181 -5.91586692592695 0.0 0.9434790345687629 -6.2155787475443 0.0 1.43795631708606 -6.441173408024881 0.0 2.217042685501868 -5.3136172859269495 0.0 0.774282907756683 -5.56426701095109 0.0 0.869235562666926 -5.87374085505987 0.0 0.93169682804406 -6.25696339290075 0.0 0.950474919380625 -6.6908337374677505 0.0 1.00375948456875 -7.173629105193 0.0 1.1535142639606561 -7.652019849876719 0.0 1.6736066242110361 -8.08204539087387 0.0 2.6249409116562448 -6.19183193019688 0.0 1.123827509717302 -6.4881120011685205 0.0 1.2770695459338022 -6.84892274062604 0.0 1.3997279799970421 -7.26596753150688 0.0 1.506307810051079 -7.85151447679235 0.0 1.492343366272395 -8.56978990412464 0.0 1.4937660461069562 -9.30672008333795 0.0 1.9821333129793652 -10.0486292113571 0.0 3.085395970186075 -7.12635017274234 0.0 1.5719822919900088 -7.474084481108401 0.0 1.8024322911429962 -7.890396246609961 0.0 1.9975476772679521 -8.37715856855679 0.0 2.173245865653357 -8.9801185313166 0.0 2.233710037344672 -9.896009136410761 0.0 2.1941139278654522 -11.09215452307617 0.0 2.417933556477594 -12.281025646319161 0.0 3.63883583135478 -8.07138439257082 0.0 2.093815278403316 -8.471565375080989 0.0 2.450466862575983 -8.94700012507908 0.0 2.7551556504290002 -9.51796270119752 0.0 2.98384204110394 -10.21633719124028 0.0 3.127207660778226 -11.15395021493544 0.0 3.0956149424275243 -12.745437489777519 0.0 3.224274793131984 -14.57391632550712 0.0 4.27774459567656 -8.96105396588772 0.0 2.780429622189324 -9.42440164991793 0.0 3.24730232631747 -9.961711510275 0.0 3.6879745722435 -10.60997999997285 0.0 4.04046167009928 -11.45388016963779 0.0 4.186448928104039 -12.64945204503366 0.0 4.1505022103184 -14.39299136508492 0.0 4.18637549282028 -16.773060828352502 0.0 4.9628586771225 -9.7317237465424 0.0 3.533620617510368 -10.23516251965572 0.0 4.1807702061060406 -10.83043818992936 0.0 4.7903067237936 -11.5348936520512 0.0 5.38014895079264 -12.431806407111042 0.0 5.946059220456481 -13.70821078933712 0.0 6.2456317609697605 -15.81077956709568 0.0 5.71378774449376 -18.49301308033184 0.0 5.87250052144755 -10.3916258639648 0.0 4.4515272324432 -10.9196413097408 0.0 5.3437374527264 -11.528658314798209 0.0 6.31492907885042 -12.236508577895261 0.0 7.47207714701778 -13.061728234674879 0.0 8.805674088197 -14.223218580553649 0.0 9.6159861827877 -16.42563744838961 0.0 8.02997653621394 -19.50056222396751 0.0 6.952155574815221 -10.72383784562196 0.0 5.54088949048544 -11.29042085823002 0.0 6.728491618125769 -11.950850980875279 0.0 8.08593777444697 -12.64493235570448 0.0 9.8682768220595 -13.40077173042892 0.0 12.06118485210276 -14.343876766038598 0.0 13.36102708094002 -16.30706074270168 0.0 10.55609536818396 -18.88026359693356 0.0 8.07027375385511 -10.440553604603851 0.0 6.58048324873611 -10.995164501424 0.0 8.028269221992 -11.616948158842199 0.0 9.736818878349538 -12.240002865701399 0.0 11.97478215312975 -12.80107261319103 0.0 14.70242876114061 -13.40838427079172 0.0 16.19179594313085 -14.669996244225 0.0 12.45429823447614 -15.57222472965618 0.0 9.04984914183336 -7.939103529519571 0.0 7.34604654086185 -8.41043437560014 0.0 8.95569780378019 -8.9380145943808 0.0 10.83966594018624 -9.46852500643104 0.0 13.26199816279096 -9.95581872566925 0.0 16.12376469266675 -10.380132961010121 0.0 17.5173660554424 -10.75893285080614 0.0 13.17789313164107 -11.02022932516807 0.0 9.698950750343469 -4.994611098495479 0.0 7.8527406743478 -5.32174166948124 0.0 9.544407808689 -5.679016486179539 0.0 11.486223267952859 -6.03304019363814 0.0 13.922507476824059 -6.3461837623253405 0.0 16.7140895296203 -6.590688506214789 0.0 17.94031983823718 -6.75916239058587 0.0 13.46256762329122 -6.865983093286591 0.0 10.12895641249492 -2.6763591114577077 0.0 8.18367200437354 -2.869859413700136 0.0 9.914560701296681 -3.072154619017696 0.0 11.86905126942464 -3.262098265605036 0.0 14.275090928382182 -3.417466133558859 0.0 16.97194012355982 -3.5227600659614717 0.0 18.06919823479484 -3.5759101408789755 0.0 13.57677233689344 -3.5878627148178075 0.0 10.427122847663199 -0.9404729491827151 0.0 8.35824085128 -1.018650567791082 0.0 10.0997841688593 -1.0921103747561038 0.0 12.04516952853984 -1.15055546159139 0.0 14.415497801493599 -1.185778950509832 0.0 17.04526754810844 -1.193596579507108 0.0 18.08080578902004 -1.1758172131443518 0.0 13.63438872250592 -1.1382674523535101 0.0 10.636663391286161 0.45008025626965 0.0 8.39819047973259 0.470985281551236 0.0 10.13190897846728 0.504610729279692 0.0 12.059472074161262 0.55165529399122 0.0 14.40389292902614 0.60928232685716 0.0 17.00780890763768 0.6729788457657699 0.0 18.04978599381478 0.738027934943264 0.0 13.685030144462882 0.8024133282060001 0.0 10.7848718350576 1.7374325516677798 0.0 8.3216116864562 1.846488379449506 0.0 10.03340289218566 1.9743212397237122 0.0 11.93852637698688 2.113044073651056 0.0 14.26850448054066 2.25143683095912 0.0 16.8834720721356 2.378981957918397 0.0 17.98204014273051 2.4886941718745703 0.0 13.702756402783802 2.57927304937401 0.0 10.828757031919201 3.044826729909723 0.0 8.141126909410769 3.23513675843994 0.0 9.8149364890136 3.4511849253172056 0.0 11.68048403443286 3.6771999276116496 0.0 13.97226548053028 3.8952391582812123 0.0 16.56521626609934 4.0904378286807 0.0 17.6999225741093 4.25347415558938 0.0 13.55903307112848 4.380803314387149 0.0 10.75371864340365 4.36128891802176 0.0 7.866216565276639 4.627274902782511 0.0 9.48423151822916 4.9274787987677 0.0 11.2887801708794 5.23919760099024 0.0 13.51070920518256 5.53828716485986 0.0 16.03658321159478 5.80606434682296 0.0 17.17553253082816 6.03040485072414 0.0 13.22792886827664 6.20481304550276 0.0 10.54714701705022 5.60122799144944 0.0 7.5057203745952 5.93601741572696 0.0 9.04947831474248 6.3144326300206 0.0 10.77016570538986 6.70763939930448 0.0 12.889603654317462 7.085687858746089 0.0 15.30458620574884 7.425902181929 0.0 16.41915712074225 7.713265062896241 0.0 12.72382515143463 7.9386565257851 0.0 10.2226336830923 6.66410653829888 0.0 7.070568562113761 7.059076481957 0.0 8.5225504331382 7.50649377890078 0.0 10.137605758442982 7.97207103321525 0.0 12.124844179200501 8.42112186949474 0.0 14.39159649573408 8.82698665908763 0.0 15.46249916347915 9.1718664410573 0.0 12.074631179943049 9.444735208139349 0.0 9.802862763242398 7.313652476308159 0.0 6.57816058531296 7.803699550165921 0.0 7.924011822092 8.35988301410964 0.0 9.41396716333684 8.93337481732095 0.0 11.243057401100149 9.451153067433701 0.0 13.333889689355198 9.91037266492874 0.0 14.349235128370921 10.17026676538983 0.0 11.24575068825394 10.61302372842272 0.0 9.31089847821936 7.42737515894654 0.0 6.049077003658709 7.97015973782619 0.0 7.283875696035831 8.63111252164275 0.0 8.6342665266195 9.39268491017571 0.0 10.28334187511774 10.11398806521818 0.0 12.173974960543111 10.62009592345892 0.0 13.1308311369728 10.837082346001798 0.0 10.36727838019475 11.41756795191223 0.0 8.802812640944161 7.3534890141243 0.0 5.5033111535079495 7.903237784696521 0.0 6.618387367095071 8.585043807439819 0.0 7.826612266416059 9.4202896893132 0.0 9.2839847941088 10.320107910173899 0.0 10.96056368497996 10.98541780978888 0.0 11.85794516080388 11.32678278017216 0.0 9.51971914644646 12.00143200257568 0.0 8.30921581217744 7.17634103227636 0.0 4.95969490166972 7.737030146344879 0.0 5.95793911159303 8.42959586696595 0.0 7.0149465135986295 9.2908178251344 0.0 8.285696338912 10.291272465707461 0.0 9.748198664711621 11.13203502065051 0.0 10.58058444944384 11.7312651088646 0.0 8.72642071565204 12.48441571167982 0.0 7.785621929668941 6.942218786152799 0.0 4.439733031375201 7.499732055636329 0.0 5.322261348348749 8.205900852995459 0.0 6.24952053610182 9.094697405010539 0.0 7.3288689729399 10.20574669395492 0.0 8.59489416531126 11.22559116048348 0.0 9.349435202576041 12.099551994121802 0.0 7.9059124277094 13.03691071401312 0.0 7.24469413853196 6.698512032094859 0.0 3.9382648566947096 7.251912389403 0.0 4.7148468699915 7.95354630634575 0.0 5.5489143367152005 8.865503001798059 0.0 6.47950194872499 10.09817087772636 0.0 7.5696861548903405 11.40536962078956 0.0 8.21931403172022 12.68316428191533 0.0 7.13764921431177 13.906028602458722 0.0 6.804271031236381 6.417948873661821 0.0 3.475695988593723 6.989162206361839 0.0 4.167616490405949 7.69000317409632 0.0 4.90570593894752 8.64844975328544 0.0 5.7698961988584 10.024442950692201 0.0 6.715303619462481 11.725456673967159 0.0 7.2462932431924 13.555001370840378 0.0 6.4834085460241795 15.35742174016329 0.0 6.55905697963364 6.12941180470973 0.0 3.066652691017986 6.70218712309539 0.0 3.685167339355901 7.444907381066719 0.0 4.34728160672248 8.474520790003039 0.0 5.19017697226696 9.97445066296144 0.0 6.08051341245912 12.07689918331632 0.0 6.5076149897844795 14.558552638081558 0.0 6.0087312117592395 17.00933408867573 0.0 6.45335821156911 5.8470425593164 0.0 2.7088863518962203 6.427249010041921 0.0 3.255048401187864 7.22834384874822 0.0 3.9074137755897422 8.385485260282861 0.0 4.748355641520121 9.99896841575379 0.0 5.63281206204915 12.35975936401248 0.0 6.02935873022217 15.1216137474168 0.0 5.87777576944284 17.97186953812446 0.0 6.70243386616734 5.5824061109075 0.0 2.3693648467656394 6.19778890288576 0.0 2.895713767173376 7.085148783666001 0.0 3.5775713261173503 8.37339644815425 0.0 4.4391453908605 10.12095647330262 0.0 5.322516241256951 12.642373252256201 0.0 5.67564502509698 15.3451877737508 0.0 5.931243075874 5.36949200987728 0.0 2.0879977402947123 6.041919445545999 0.0 2.6319160837048456 7.03791607939 0.0 3.3569632137510004 8.46453012017685 0.0 4.27017337941463 10.47252267901 0.0 5.06032324245 12.99027526265542 0.0 5.3738077748061 15.54413318379998 0.0 5.94951470494154 5.2259696897717705 0.0 1.884651095393028 5.984461543894019 0.0 2.476671461068233 7.12653900901818 0.0 3.2715184151214833 8.8075546544937 0.0 4.1844482407728 11.0325142672485 0.0 4.76567269960104 13.31761194738708 0.0 5.25231763133388 5.190479496756721 0.0 1.8008238819730862 6.0853190620372795 0.0 2.4729814394084397 7.463140450482601 0.0 3.35163994488483 9.40064667059748 0.0 4.1323046993162995 11.49555962851371 0.0 4.71063414772926 13.4610139131864 0.0 5.3359944364495195 5.337429981222249 0.0 1.898108133749195 6.4706184860262 0.0 2.693937668901744 8.0368626205538 0.0 3.56243425124838 9.99133269185872 0.0 4.21363148379976 11.78505577996628 0.0 4.836039404264359 5.83128746502632 0.0 2.257152387878903 7.1472909108335 0.0 3.065816127966146 8.69735760436928 0.0 3.844982967168112 10.40308605870688 0.0 4.41972355970992 6.736810632173491 0.0 2.680756758844868 7.958108938956839 0.0 3.451976477831826 9.24333654832324 0.0 4.1307868210214105 10.472224049825051 0.0 4.6248811041004 7.54357112050256 0.0 3.112650779715304 8.40265040737437 0.0 3.824614230590986 7.802869235388839 0.0 3.533973076202628 
TENSORS Ellispoids float
0.01 0.0 0.0 0.0 0.01 0.0 0.0 0.0 0.01 0.01 0.0 0.0 0.0 0.01 0.0 0.0 0.0 0.01 0.01 0.0 0.0 0.0 0.01 0.0 0.0 0.0 0.01 0.01 0.0 0.0 0.0 0.01 0.0 0.0 0.0 0.01 0.01 0.0 0.0 0.0 0.01 0.0 0.0 0.0 0.01 0.01 0.0 0.0 0.0 0.01 0.0 0.0 0.0 0.01 0.01 0.0 0.0 0.0 0.01 0.0 0.0 0.0 0.01 0.01 0.0 0.0 0.0 0.01 0.0 0.0 0.0 0.01 0.01 0.0 0.0 0.0 0.01 0.0 0.0 0.0 0.01 0.01 0.0 0.0 0.0 0.01 0.0 0.0 0.0 0.01 0.01 0.0 0.0 0.0 0.01 0.0 0.0 0.0 0.01 0.01 0.0 0.0 0.0 0.01 0.0 0.0 0.0 0.01 0.01 0.0 0.0 0.0 0.01 0.0 0.0 0.0 0.01 0.01 0.0 0.0 0.0 0.01 0.0 0.0 0.0 0.01 0.01 0.0 0.0 0.0 0.01 0.0 0.0 0.0 0.01 0.01 0.0 0.0 0.0 0.01 0.0 0.0 0.0 0.01 0.01 0.0 0.0 0.0 0.01 0.0 0.0 0.0 0.01 0.01 0.0 0.0 0.0 0.01 0.0 0.0 0.0 0.01 0.01 0.0 0.0 0.0 0.01 0.0 0.0 0.0 0.01 0.01 0.0 0.0 0.0 0.01 0.0 0.0 0.0 0.01 0.01 0.0 0.0 0.0 0.01 0.0 0.0 0.0 0.01 0.01 0.0 0.0 0.0 0.01 0.0 0.0 0.0 0.01 0.01 0.0 0.0 0.0 0.01 0.0 0.0 0.0 0.01 0.01 0.0 0.0 0.0 0.01 0.0 0.0 0.0 0.01 0.01 0.0 0.0 0.0 0.01 0.0 0.0 0.0 0.01 0.01 0.0 0.0 0.0 0.01 0.0 0.0 0.0 0.01 0.01 0.0 0.0 0.0 0.01 0.0 0.0 0.0 0.01 0.01 0.0 0.0 0.0 0.01 0.0 0.0 0.0 0.01 0.01 0.0 0.0 0.0 0.01 0.0 0.0 0.0 0.01 0.01 0.0 0.0 0.0 0.01 0.0 0.0 0.0 0.01 0.01 0.0 0.0 0.0 0.01 0.0 0.0 0.0 0.01 0.01 0.0 0.0 0.0 0.01 0.0 0.0 0.0 0.01 0.01 0.0 0.0 0.0 0.01 0.0 0.0 0.0 0.01 0.01 0.0 0.0 0.0 0.01 0.0 0.0 0.0 0.01 0.01 0.0 0.0 0.0 0.01 0.0 0.0 0.0 0.01 0.01 0.0 0.0 0.0 0.01 0.0 0.0 0.0 0.01 0.01 0.0 0.0 0.0 0.01 0.0 0.0 0.0 0.01 0.01 0.0 0.0 0.0 0.01 0.0 0.0 0.0 0.01 0.01 0.0 0.0 0.0 0.01 0.0 0.0 0.0 0.01 0.01 0.0 0.0 0.0 0.01 0.0 0.0 0.0 0.01 0.01 0.0 0.0 0.0 0.01 0.0 0.0 0.0 0.01 0.01 0.0 0.0 0.0 0.01 0.0 0.0 0.0 0.01 0.01 0.0 0.0 0.0 0.01 0.0 0.0 0.0 0.01 0.01 0.0 0.0 0.0 0.01 0.0 0.0 0.0 0.01 0.01 0.0 0.0 0.0 0.01 0.0 0.0 0.0 0.01 0.01 0.0 0.0 0.0 0.01 0.0 0.0 0.0 0.01 0.01 0.0 0.0 0.0 0.01 0.0 0.0 0.0 0.01 0.01 0.0 0.0 0.0 0.01 0.0 0.0 0.0 0.01 0.01 0.0 0.0 0.0 0.01 0.0 0.0 0.0 0.01 0.01 0.0 0.0 0.0 0.01 0.0 0.0 0.0 0.01 0.01 0.0 0.0 0.0 0.01 0.0 0.0 0.0 0.01 0.01 0.0 0.0 0.0 0.01 0.0 0.0 0.0 0.01 0.01 0.0 0.0 0.0 0.01 0.0 0.0 0.0 0.01 0.01 0.0 0.0 0.0 0.01 0.0 0.0 0.0 0.01 0.01 0.0 0.0 0.0 0.01 0.0 0.0 0.0 0.01 0.01 0.0 0.0 0.0 0.01 0.0 0.0 0.0 0.01 0.01 0.0 0.0 0.0 0.01 0.0 0.0 0.0 0.01 0.01 0.0 0.0 0.0 0.01 0.0 0.0 0.0 0.01 0.01 0.0 0.0 0.0 0.01 0.0 0.0 0.0 0.01 0.01 0.0 0.0 0.0 0.01 0.0 0.0 0.0 0.01 0.01 0.0 0.0 0.0 0.01 0.0 0.0 0.0 0.01 0.01 0.0 0.0 0.0 0.01 0.0 0.0 0.0 0.01 0.01 0.0 0.0 0.0 0.01 0.0 0.0 0.0 0.01 0.01 0.0 0.0 0.0 0.01 0.0 0.0 0.0 0.01 0.01 0.0 0.0 0.0 0.01 0.0 0.0 0.0 0.01 0.01 0.0 0.0 0.0 0.01 0.0 0.0 0.0 0.01 0.01 0.0 0.0 0.0 0.01 0.0 0.0 0.0 0.01 0.01 0.0 0.0 0.0 0.01 0.0 0.0 0.0 0.01 0.01 0.0 0.0 0.0 0.01 0.0 0.0 0.0 0.01 0.01 0.0 0.0 0.0 0.01 0.0 0.0 0.0 0.01 0.01 0.0 0.0 0.0 0.01 0.0 0.0 0.0 0.01 0.01 0.0 0.0 0.0 0.01 0.0 0.0 0.0 0.01 0.01 0.0 0.0 0.0 0.01 0.0 0.0 0.0 0.01 0.01 0.0 0.0 0.0 0.01 0.0 0.0 0.0 0.01 0.01 0.0 0.0 0.0 0.01 0.0 0.0 0.0 0.01 0.01 0.0 0.0 0.0 0.01 0.0 0.0 0.0 0.01 0.01 0.0 0.0 0.0 0.01 0.0 0.0 0.0 0.01 0.01 0.0 0.0 0.0 0.01 0.0 0.0 0.0 0.01 0.01 0.0 0.0 0.0 0.01 0.0 0.0 0.0 0.01 0.01 0.0 0.0 0.0 0.01 0.0 0.0 0.0 0.01 0.01 0.0 0.0 0.0 0.01 0.0 0.0 0.0 0.01 0.01 0.0 0.0 0.0 0.01 0.0 0.0 0.0 0.01 0.01 0.0 0.0 0.0 0.01 0.0 0.0 0.0 0.01 0.01 0.0 0.0 0.0 0.01 0.0 0.0 0.0 0.01 0.01 0.0 0.0 0.0 0.01 0.0 0.0 0.0 0.01 0.01 0.0 0.0 0.0 0.01 0.0 0.0 0.0 0.01 0.01 0.0 0.0 0.0 0.01 0.0 0.0 0.0 0.01 0.01 0.0 0.0 0.0 0.01 0.0 0.0 0.0 0.01 0.01 0.0 0.0 0.0 0.01 0.0 0.0 0.0 0.01 0.01 0.0 0.0 0.0 0.01 0.0 0.0 0.0 0.01 0.01 0.0 0.0 0.0 0.01 0.0 0.0 0.0 0.01 0.01 0.0 0.0 0.0 0.01 0.0 0.0 0.0 0.01 0.01 0.0 0.0 0.0 0.01 0.0 0.0 0.0 0.01 0.01 0.0 0.0 0.0 0.01 0.0 0.0 0.0 0.01 0.01 0.0 0.0 0.0 0.01 0.0 0.0 0.0 0.01 0.01 0.0 0.0 0.0 0.01 0.0 0.0 0.0 0.01 0.01 0.0 0.0 0.0 0.01 0.0 0.0 0.0 0.01 0.01 0.0 0.0 0.0 0.01 0.0 0.0 0.0 0.01 0.01 0.0 0.0 0.0 0.01 0.0 0.0 0.0 0.01 0.01 0.0 0.0 0.0 0.01 0.0 0.0 0.0 0.01 0.01 0.0 0.0 0.0 0.01 0.0 0.0 0.0 0.01 0.01 0.0 0.0 0.0 0.01 0.0 0.0 0.0 0.01 0.01 0.0 0.0 0.0 0.01 0.0 0.0 0.0 0.01 0.01 0.0 0.0 0.0 0.01 0.0 0.0 0.0 0.01 0.01 0.0 0.0 0.0 0.01 0.0 0.0 0.0 0.01 0.01 0.0 0.0 0.0 0.01 0.0 0.0 0.0 0.01 0.01 0.0 0.0 0.0 0.01 0.0 0.0 0.0 0.01 0.01 0.0 0.0 0.0 0.01 0.0 0.0 0.0 0.01 0.01 0.0 0.0 0.0 0.01 0.0 0.0 0.0 0.01 0.01 0.0 0.0 0.0 0.01 0.0 0.0 0.0 0.01 0.01 0.0 0.0 0.0 0.01 0.0 0.0 0.0 0.01 0.01 0.0 0.0 0.0 0.01 0.0 0.0 0.0 0.01 0.01 0.0 0.0 0.0 0.01 0.0 0.0 0.0 0.01 0.01 0.0 0.0 0.0 0.01 0.0 0.0 0.0 0.01 0.01 0.0 0.0 0.0 0.01 0.0 0.0 0.0 0.01 0.01 0.0 0.0 0.0 0.01 0.0 0.0 0.0 0.01 0.01 0.0 0.0 0.0 0.01 0.0 0.0 0.0 0.01 0.01 0.0 0.0 0.0 0.01 0.0 0.0 0.0 0.01 0.01 0.0 0.0 0.0 0.01 0.0 0.0 0.0 0.01 0.01 0.0 0.0 0.0 0.01 0.0 0.0 0.0 0.01 0.01 0.0 0.0 0.0 0.01 0.0 0.0 0.0 0.01 0.01 0.0 0.0 0.0 0.01 0.0 0.0 0.0 0.01 0.01 0.0 0.0 0.0 0.01 0.0 0.0 0.0 0.01 0.01 0.0 0.0 0.0 0.01 0.0 0.0 0.0 0.01 0.01 0.0 0.0 0.0 0.01 0.0 0.0 0.0 0.01 0.01 0.0 0.0 0.0 0.01 0.0 0.0 0.0 0.01 0.01 0.0 0.0 0.0 0.01 0.0 0.0 0.0 0.01 0.01 0.0 0.0 0.0 0.01 0.0 0.0 0.0 0.01 0.01 0.0 0.0 0.0 0.01 0.0 0.0 0.0 0.01 0.01 0.0 0.0 0.0 0.01 0.0 0.0 0.0 0.01 0.01 0.0 0.0 0.0 0.01 0.0 0.0 0.0 0.01 0.01 0.0 0.0 0.0 0.01 0.0 0.0 0.0 0.01 0.01 0.0 0.0 0.0 0.01 0.0 0.0 0.0 0.01 0.01 0.0 0.0 0.0 0.01 0.0 0.0 0.0 0.01 0.01 0.0 0.0 0.0 0.01 0.0 0.0 0.0 0.01 0.01 0.0 0.0 0.0 0.01 0.0 0.0 0.0 0.01 0.01 0.0 0.0 0.0 0.01 0.0 0.0 0.0 0.01 0.01 0.0 0.0 0.0 0.01 0.0 0.0 0.0 0.01 0.01 0.0 0.0 0.0 0.01 0.0 0.0 0.0 0.01 0.01 0.0 0.0 0.0 0.01 0.0 0.0 0.0 0.01 0.01 0.0 0.0 0.0 0.01 0.0 0.0 0.0 0.01 0.01 0.0 0.0 0.0 0.01 0.0 0.0 0.0 0.01 0.01 0.0 0.0 0.0 0.01 0.0 0.0 0.0 0.01 0.01 0.0 0.0 0.0 0.01 0.0 0.0 0.0 0.01 0.01 0.0 0.0 0.0 0.01 0.0 0.0 0.0 0.01 0.01 0.0 0.0 0.0 0.01 0.0 0.0 0.0 0.01 0.01 0.0 0.0 0.0 0.01 0.0 0.0 0.0 0.01 0.01 0.0 0.0 0.0 0.01 0.0 0.0 0.0 0.01 0.01 0.0 0.0 0.0 0.01 0.0 0.0 0.0 0.01 0.01 0.0 0.0 0.0 0.01 0.0 0.0 0.0 0.01 0.01 0.0 0.0 0.0 0.01 0.0 0.0 0.0 0.01 0.01 0.0 0.0 0.0 0.01 0.0 0.0 0.0 0.01 0.01 0.0 0.0 0.0 0.01 0.0 0.0 0.0 0.01 0.01 0.0 0.0 0.0 0.01 0.0 0.0 0.0 0.01 0.01 0.0 0.0 0.0 0.01 0.0 0.0 0.0 0.01 0.01 0.0 0.0 0.0 0.01 0.0 0.0 0.0 0.01 0.01 0.0 0.0 0.0 0.01 0.0 0.0 0.0 0.01 0.01 0.0 0.0 0.0 0.01 0.0 0.0 0.0 0.01 0.01 0.0 0.0 0.0 0.01 0.0 0.0 0.0 0.01 0.01 0.0 0.0 0.0 0.01 0.0 0.0 0.0 0.01 0.01 0.0 0.0 0.0 0.01 0.0 0.0 0.0 0.01 0.01 0.0 0.0 0.0 0.01 0.0 0.0 0.0 0.01 0.01 0.0 0.0 0.0 0.01 0.0 0.0 0.0 0.01 0.01 0.0 0.0 0.0 0.01 0.0 0.0 0.0 0.01 0.01 0.0 0.0 0.0 0.01 0.0 0.0 0.0 0.01 0.01 0.0 0.0 0.0 0.01 0.0 0.0 0.0 0.01 0.01 0.0 0.0 0.0 0.01 0.0 0.0 0.0 0.01 0.01 0.0 0.0 0.0 0.01 0.0 0.0 0.0 0.01 0.01 0.0 0.0 0.0 0.01 0.0 0.0 0.0 0.01 0.01 0.0 0.0 0.0 0.01 0.0 0.0 0.0 0.01 0.01 0.0 0.0 0.0 0.01 0.0 0.0 0.0 0.01 0.01 0.0 0.0 0.0 0.01 0.0 0.0 0.0 0.01 0.01 0.0 0.0 0.0 0.01 0.0 0.0 0.0 0.01 0.01 0.0 0.0 0.0 0.01 0.0 0.0 0.0 0.01 0.01 0.0 0.0 0.0 0.01 0.0 0.0 0.0 0.01 0.01 0.0 0.0 0.0 0.01 0.0 0.0 0.0 0.01 0.01 0.0 0.0 0.0 0.01 0.0 0.0 0.0 0.01 0.01 0.0 0.0 0.0 0.01 0.0 0.0 0.0 0.01 0.01 0.0 0.0 0.0 0.01 0.0 0.0 0.0 0.01 0.01 0.0 0.0 0.0 0.01 0.0 0.0 0.0 0.01 0.01 0.0 0.0 0.0 0.01 0.0 0.0 0.0 0.01 0.01 0.0 0.0 0.0 0.01 0.0 0.0 0.0 0.01 0.01 0.0 0.0 0.0 0.01 0.0 0.0 0.0 0.01 0.01 0.0 0.0 0.0 0.01 0.0 0.0 0.0 0.01 0.01 0.0 0.0 0.0 0.01 0.0 0.0 0.0 0.01 0.01 0.0 0.0 0.0 0.01 0.0 0.0 0.0 0.01 0.01 0.0 0.0 0.0 0.01 0.0 0.0 0.0 0.01 0.01 0.0 0.0 0.0 0.01 0.0 0.0 0.0 0.01 0.01 0.0 0.0 0.0 0.01 0.0 0.0 0.0 0.01 0.01 0.0 0.0 0.0 0.01 0.0 0.0 0.0 0.01 0.01 0.0 0.0 0.0 0.01 0.0 0.0 0.0 0.01 0.01 0.0 0.0 0.0 0.01 0.0 0.0 0.0 0.01 0.01 0.0 0.0 0.0 0.01 0.0 0.0 0.0 0.01 0.01 0.0 0.0 0.0 0.01 0.0 0.0 0.0 0.01 0.01 0.0 0.0 0.0 0.01 0.0 0.0 0.0 0.01 0.01 0.0 0.0 0.0 0.01 0.0 0.0 0.0 0.01 0.01 0.0 0.0 0.0 0.01 0.0 0.0 0.0 0.01 0.01 0.0 0.0 0.0 0.01 0.0 0.0 0.0 0.01 0.01 0.0 0.0 0.0 0.01 0.0 0.0 0.0 0.01 0.01 0.0 0.0 0.0 0.01 0.0 0.0 0.0 0.01 0.01 0.0 0.0 0.0 0.01 0.0 0.0 0.0 0.01 0.01 0.0 0.0 0.0 0.01 0.0 0.0 0.0 0.01 0.01 0.0 0.0 0.0 0.01 0.0 0.0 0.0 0.01 0.01 0.0 0.0 0.0 0.01 0.0 0.0 0.0 0.01 0.01 0.0 0.0 0.0 0.01 0.0 0.0 0.0 0.01 0.01 0.0 0.0 0.0 0.01 0.0 0.0 0.0 0.01 0.01 0.0 0.0 0.0 0.01 0.0 0.0 0.0 0.01 0.01 0.0 0.0 0.0 0.01 0.0 0.0 0.0 0.01 0.01 0.0 0.0 0.0 0.01 0.0 0.0 0.0 0.01 0.01 0.0 0.0 0.0 0.01 0.0 0.0 0.0 0.01 0.01 0.0 0.0 0.0 0.01 0.0 0.0 0.0 0.01 0.01 0.0 0.0 0.0 0.01 0.0 0.0 0.0 0.01 0.01 0.0 0.0 0.0 0.01 0.0 0.0 0.0 0.01 0.01 0.0 0.0 0.0 0.01 0.0 0.0 0.0 0.01 0.01 0.0 0.0 0.0 0.01 0.0 0.0 0.0 0.01 0.01 0.0 0.0 0.0 0.01 0.0 0.0 0.0 0.01 0.01 0.0 0.0 0.0 0.01 0.0 0.0 0.0 0.01 0.01 0.0 0.0 0.0 0.01 0.0 0.0 0.0 0.01 0.01 0.0 0.0 0.0 0.01 0.0 0.0 0.0 0.01 0.01 0.0 0.0 0.0 0.01 0.0 0.0 0.0 0.01 0.01 0.0 0.0 0.0 0.01 0.0 0.0 0.0 0.01 0.01 0.0 0.0 0.0 0.01 0.0 0.0 0.0 0.01 0.01 0.0 0.0 0.0 0.01 0.0 0.0 0.0 0.01 0.01 0.0 0.0 0.0 0.01 0.0 0.0 0.0 0.01 0.01 0.0 0.0 0.0 0.01 0.0 0.0 0.0 0.01 0.01 0.0 0.0 0.0 0.01 0.0 0.0 0.0 0.01 0.01 0.0 0.0 0.0 0.01 0.0 0.0 0.0 0.01 0.01 0.0 0.0 0.0 0.01 0.0 0.0 0.0 0.01 0.01 0.0 0.0 0.0 0.01 0.0 0.0 0.0 0.01 0.01 0.0 0.0 0.0 0.01 0.0 0.0 0.0 0.01 0.01 0.0 0.0 0.0 0.01 0.0 0.0 0.0 0.01 0.01 0.0 0.0 0.0 0.01 0.0 0.0 0.0 0.01 0.01 0.0 0.0 0.0 0.01 0.0 0.0 0.0 0.01 0.01 0.0 0.0 0.0 0.01 0.0 0.0 0.0 0.01 0.01 0.0 0.0 0.0 0.01 0.0 0.0 0.0 0.01 0.01 0.0 0.0 0.0 0.01 0.0 0.0 0.0 0.01 0.01 0.0 0.0 0.0 0.01 0.0 0.0 0.0 0.01 0.01 0.0 0.0 0.0 0.01 0.0 0.0 0.0 0.01 0.01 0.0 0.0 0.0 0.01 0.0 0.0 0.0 0.01 0.01 0.0 0.0 0.0 0.01 0.0 0.0 0.0 0.01 0.01 0.0 0.0 0.0 0.01 0.0 0.0 0.0 0.01 0.01 0.0 0.0 0.0 0.01 0.0 0.0 0.0 0.01 0.01 0.0 0.0 0.0 0.01 0.0 0.0 0.0 0.01 0.01 0.0 0.0 0.0 0.01 0.0 0.0 0.0 0.01 0.01 0.0 0.0 0.0 0.01 0.0 0.0 0.0 0.01 0.01 0.0 0.0 0.0 0.01 0.0 0.0 0.0 0.01 0.01 0.0 0.0 0.0 0.01 0.0 0.0 0.0 0.01 0.01 0.0 0.0 0.0 0.01 0.0 0.0 0.0 0.01 0.01 0.0 0.0 0.0 0.01 0.0 0.0 0.0 0.01 0.01 0.0 0.0 0.0 0.01 0.0 0.0 0.0 0.01 0.01 0.0 0.0 0.0 0.01 0.0 0.0 0.0 0.01 0.01 0.0 0.0 0.0 0.01 0.0 0.0 0.0 0.01 0.01 0.0 0.0 0.0 0.01 0.0 0.0 0.0 0.01 0.01 0.0 0.0 0.0 0.01 0.0 0.0 0.0 0.01 0.01 0.0 0.0 0.0 0.01 0.0 0.0 0.0 0.01 0.01 0.0 0.0 0.0 0.01 0.0 0.0 0.0 0.01 0.01 0.0 0.0 0.0 0.01 0.0 0.0 0.0 0.01 0.01 0.0 0.0 0.0 0.01 0.0 0.0 0.0 0.01 0.01 0.0 0.0 0.0 0.01 0.0 0.0 0.0 0.01 0.01 0.0 0.0 0.0 0.01 0.0 0.0 0.0 0.01 0.01 0.0 0.0 0.0 0.01 0.0 0.0 0.0 0.01 0.01 0.0 0.0 0.0 0.01 0.0 0.0 0.0 0.01 0.01 0.0 0.0 0.0 0.01 0.0 0.0 0.0 0.01 0.01 0.0 0.0 0.0 0.01 0.0 0.0 0.0 0.01 0.01 0.0 0.0 0.0 0.01 0.0 0.0 0.0 0.01 0.01 0.0 0.0 0.0 0.01 0.0 0.0 0.0 0.01 0.01 0.0 0.0 0.0 0.01 0.0 0.0 0.0 0.01 0.01 0.0 0.0 0.0 0.01 0.0 0.0 0.0 0.01 0.01 0.0 0.0 0.0 0.01 0.0 0.0 0.0 0.01 0.01 0.0 0.0 0.0 0.01 0.0 0.0 0.0 0.01 0.01 0.0 0.0 0.0 0.01 0.0 0.0 0.0 0.01 0.01 0.0 0.0 0.0 0.01 0.0 0.0 0.0 0.01 0.01 0.0 0.0 0.0 0.01 0.0 0.0 0.0 0.01 0.01 0.0 0.0 0.0 0.01 0.0 0.0 0.0 0.01 0.01 0.0 0.0 0.0 0.01 0.0 0.0 0.0 0.01 0.01 0.0 0.0 0.0 0.01 0.0 0.0 0.0 0.01 0.01 0.0 0.0 0.0 0.01 0.0 0.0 0.0 0.01 0.01 0.0 0.0 0.0 0.01 0.0 0.0 0.0 0.01 0.01 0.0 0.0 0.0 0.01 0.0 0.0 0.0 0.01 0.01 0.0 0.0 0.0 0.01 0.0 0.0 0.0 0.01 0.01 0.0 0.0 0.0 0.01 0.0 0.0 0.0 0.01 0.01 0.0 0.0 0.0 0.01 0.0 0.0 0.0 0.01 0.01 0.0 0.0 0.0 0.01 0.0 0.0 0.0 0.01 0.01 0.0 0.0 0.0 0.01 0.0 0.0 0.0 0.01 0.01 0.0 0.0 0.0 0.01 0.0 0.0 0.0 0.01 0.01 0.0 0.0 0.0 0.01 0.0 0.0 0.0 0.01 0.01 0.0 0.0 0.0 0.01 0.0 0.0 0.0 0.01 0.01 0.0 0.0 0.0 0.01 0.0 0.0 0.0 0.01 0.01 0.0 0.0 0.0 0.01 0.0 0.0 0.0 0.01 0.01 0.0 0.0 0.0 0.01 0.0 0.0 0.0 0.01 0.01 0.0 0.0 0.0 0.01 0.0 0.0 0.0 0.01 0.01 0.0 0.0 0.0 0.01 0.0 0.0 0.0 0.01 0.01 0.0 0.0 0.0 0.01 0.0 0.0 0.0 0.01 0.01 0.0 0.0 0.0 0.01 0.0 0.0 0.0 0.01 0.01 0.0 0.0 0.0 0.01 0.0 0.0 0.0 0.01 0.01 0.0 0.0 0.0 0.01 0.0 0.0 0.0 0.01 0.01 0.0 0.0 0.0 0.01 0.0 0.0 0.0 0.01 0.01 0.0 0.0 0.0 0.01 0.0 0.0 0.0 0.01 0.01 0.0 0.0 0.0 0.01 0.0 0.0 0.0 0.01 0.01 0.0 0.0 0.0 0.01 0.0 0.0 0.0 0.01 0.01 0.0 0.0 0.0 0.01 0.0 0.0 0.0 0.01 0.01 0.0 0.0 0.0 0.01 0.0 0.0 0.0 0.01 0.01 0.0 0.0 0.0 0.01 0.0 0.0 0.0 0.01 0.01 0.0 0.0 0.0 0.01 0.0 0.0 0.0 0.01 0.01 0.0 0.0 0.0 0.01 0.0 0.0 0.0 0.01 0.01 0.0 0.0 0.0 0.01 0.0 0.0 0.0 0.01 0.01 0.0 0.0 0.0 0.01 0.0 0.0 0.0 0.01 0.01 0.0 0.0 0.0 0.01 0.0 0.0 0.0 0.01 0.01 0.0 0.0 0.0 0.01 0.0 0.0 0.0 0.01 0.01 0.0 0.0 0.0 0.01 0.0 0.0 0.0 0.01 0.01 0.0 0.0 0.0 0.01 0.0 0.0 0.0 0.01 0.01 0.0 0.0 0.0 0.01 0.0 0.0 0.0 0.01 0.01 0.0 0.0 0.0 0.01 0.0 0.0 0.0 0.01 0.01 0.0 0.0 0.0 0.01 0.0 0.0 0.0 0.01 0.01 0.0 0.0 0.0 0.01 0.0 0.0 0.0 0.01 0.01 0.0 0.0 0.0 0.01 0.0 0.0 0.0 0.01 0.01 0.0 0.0 0.0 0.01 0.0 0.0 0.0 0.01 0.01 0.0 0.0 0.0 0.01 0.0 0.0 0.0 0.01 0.01 0.0 0.0 0.0 0.01 0.0 0.0 0.0 0.01 0.01 0.0 0.0 0.0 0.01 0.0 0.0 0.0 0.01 0.01 0.0 0.0 0.0 0.01 0.0 0.0 0.0 0.01 0.01 0.0 0.0 0.0 0.01 0.0 0.0 0.0 0.01 0.01 0.0 0.0 0.0 0.01 0.0 0.0 0.0 0.01 0.01 0.0 0.0 0.0 0.01 0.0 0.0 0.0 0.01 0.01 0.0 0.0 0.0 0.01 0.0 0.0 0.0 0.01 0.01 0.0 0.0 0.0 0.01 0.0 0.0 0.0 0.01 0.01 0.0 0.0 0.0 0.01 0.0 0.0 0.0 0.01 0.01 0.0 0.0 0.0 0.01 0.0 0.0 0.0 0.01 0.01 0.0 0.0 0.0 0.01 0.0 0.0 0.0 0.01 0.01 0.0 0.0 0.0 0.01 0.0 0.0 0.0 0.01 0.01 0.0 0.0 0.0 0.01 0.0 0.0 0.0 0.01 0.01 0.0 0.0 0.0 0.01 0.0 0.0 0.0 0.01 0.01 0.0 0.0 0.0 0.01 0.0 0.0 0.0 0.01 0.01 0.0 0.0 0.0 0.01 0.0 0.0 0.0 0.01 0.01 0.0 0.0 0.0 0.01 0.0 0.0 0.0 0.01 0.01 0.0 0.0 0.0 0.01 0.0 0.0 0.0 0.01 0.01 0.0 0.0 0.0 0.01 0.0 0.0 0.0 0.01 0.01 0.0 0.0 0.0 0.01 0.0 0.0 0.0 0.01 0.01 0.0 0.0 0.0 0.01 0.0 0.0 0.0 0.01 0.01 0.0 0.0 0.0 0.01 0.0 0.0 0.0 0.01 0.01 0.0 0.0 0.0 0.01 0.0 0.0 0.0 0.01 0.01 0.0 0.0 0.0 0.01 0.0 0.0 0.0 0.01 0.01 0.0 0.0 0.0 0.01 0.0 0.0 0.0 0.01 0.01 0.0 0.0 0.0 0.01 0.0 0.0 0.0 0.01 0.01 0.0 0.0 0.0 0.01 0.0 0.0 0.0 0.01 0.01 0.0 0.0 0.0 0.01 0.0 0.0 0.0 0.01 0.01 0.0 0.0 0.0 0.01 0.0 0.0 0.0 0.01 0.01 0.0 0.0 0.0 0.01 0.0 0.0 0.0 0.01 0.01 0.0 0.0 0.0 0.01 0.0 0.0 0.0 0.01 0.01 0.0 0.0 0.0 0.01 0.0 0.0 0.0 0.01 0.01 0.0 0.0 0.0 0.01 0.0 0.0 0.0 0.01 0.01 0.0 0.0 0.0 0.01 0.0 0.0 0.0 0.01 0.01 0.0 0.0 0.0 0.01 0.0 0.0 0.0 0.01 0.01 0.0 0.0 0.0 0.01 0.0 0.0 0.0 0.01 0.01 0.0 0.0 0.0 0.01 0.0 0.0 0.0 0.01 0.01 0.0 0.0 0.0 0.01 0.0 0.0 0.0 0.01 0.01 0.0 0.0 0.0 0.01 0.0 0.0 0.0 0.01 0.01 0.0 0.0 0.0 0.01 0.0 0.0 0.0 0.01 0.01 0.0 0.0 0.0 0.01 0.0 0.0 0.0 0.01 0.01 0.0 0.0 0.0 0.01 0.0 0.0 0.0 0.01 0.01 0.0 0.0 0.0 0.01 0.0 0.0 0.0 0.01 0.01 0.0 0.0 0.0 0.01 0.0 0.0 0.0 0.01 0.01 0.0 0.0 0.0 0.01 0.0 0.0 0.0 0.01 0.01 0.0 0.0 0.0 0.01 0.0 0.0 0.0 0.01 0.01 0.0 0.0 0.0 0.01 0.0 0.0 0.0 0.01 0.01 0.0 0.0 0.0 0.01 0.0 0.0 0.0 0.01 0.01 0.0 0.0 0.0 0.01 0.0 0.0 0.0 0.01 0.01 0.0 0.0 0.0 0.01 0.0 0.0 0.0 0.01 0.01 0.0 0.0 0.0 0.01 0.0 0.0 0.0 0.01 0.01 0.0 0.0 0.0 0.01 0.0 0.0 0.0 0.01 0.01 0.0 0.0 0.0 0.01 0.0 0.0 0.0 0.01 0.01 0.0 0.0 0.0 0.01 0.0 0.0 0.0 0.01 0.01 0.0 0.0 0.0 0.01 0.0 0.0 0.0 0.01 0.01 0.0 0.0 0.0 0.01 0.0 0.0 0.0 0.01 0.01 0.0 0.0 0.0 0.01 0.0 0.0 0.0 0.01 0.01 0.0 0.0 0.0 0.01 0.0 0.0 0.0 0.01 0.01 0.0 0.0 0.0 0.01 0.0 0.0 0.0 0.01 0.01 0.0 0.0 0.0 0.01 0.0 0.0 0.0 0.01 0.01 0.0 0.0 0.0 0.01 0.0 0.0 0.0 0.01 0.01 0.0 0.0 0.0 0.01 0.0 0.0 0.0 0.01 0.01 0.0 0.0 0.0 0.01 0.0 0.0 0.0 0.01 0.01 0.0 0.0 0.0 0.01 0.0 0.0 0.0 0.01 0.01 0.0 0.0 0.0 0.01 0.0 0.0 0.0 0.01 0.01 0.0 0.0 0.0 0.01 0.0 0.0 0.0 0.01 0.01 0.0 0.0 0.0 0.01 0.0 0.0 0.0 0.01 0.01 0.0 0.0 0.0 0.01 0.0 0.0 0.0 0.01 0.01 0.0 0.0 0.0 0.01 0.0 0.0 0.0 0.01 0.01 0.0 0.0 0.0 0.01 0.0 0.0 0.0 0.01 0.01 0.0 0.0 0.0 0.01 0.0 0.0 0.0 0.01 0.01 0.0 0.0 0.0 0.01 0.0 0.0 0.0 0.01 0.01 0.0 0.0 0.0 0.01 0.0 0.0 0.0 0.01 0.01 0.0 0.0 0.0 0.01 0.0 0.0 0.0 0.01 0.01 0.0 0.0 0.0 0.01 0.0 0.0 0.0 0.01 0.01 0.0 0.0 0.0 0.01 0.0 0.0 0.0 0.01 0.01 0.0 0.0 0.0 0.01 0.0 0.0 0.0 0.01 0.01 0.0 0.0 0.0 0.01 0.0 0.0 0.0 0.01 0.01 0.0 0.0 0.0 0.01 0.0 0.0 0.0 0.01 0.01 0.0 0.0 0.0 0.01 0.0 0.0 0.0 0.01 0.01 0.0 0.0 0.0 0.01 0.0 0.0 0.0 0.01 0.01 0.0 0.0 0.0 0.01 0.0 0.0 0.0 0.01 0.01 0.0 0.0 0.0 0.01 0.0 0.0 0.0 0.01 0.01 0.0 0.0 0.0 0.01 0.0 0.0 0.0 0.01 0.01 0.0 0.0 0.0 0.01 0.0 0.0 0.0 0.01 0.01 0.0 0.0 0.0 0.01 0.0 0.0 0.0 0.01 0.01 0.0 0.0 0.0 0.01 0.0 0.0 0.0 0.01 0.01 0.0 0.0 0.0 0.01 0.0 0.0 0.0 0.01 0.01 0.0 0.0 0.0 0.01 0.0 0.0 0.0 0.01 0.01 0.0 0.0 0.0 0.01 0.0 0.0 0.0 0.01 0.01 0.0 0.0 0.0 0.01 0.0 0.0 0.0 0.01 0.01 0.0 0.0 0.0 0.01 0.0 0.0 0.0 0.01 0.01 0.0 0.0 0.0 0.01 0.0 0.0 0.0 0.01 0.01 0.0 0.0 0.0 0.01 0.0 0.0 0.0 0.01 0.01 0.0 0.0 0.0 0.01 0.0 0.0 0.0 0.01 0.01 0.0 0.0 0.0 0.01 0.0 0.0 0.0 0.01 0.01 0.0 0.0 0.0 0.01 0.0 0.0 0.0 0.01 0.01 0.0 0.0 0.0 0.01 0.0 0.0 0.0 0.01 0.01 0.0 0.0 0.0 0.01 0.0 0.0 0.0 0.01 0.01 0.0 0.0 0.0 0.01 0.0 0.0 0.0 0.01 0.01 0.0 0.0 0.0 0.01 0.0 0.0 0.0 0.01 0.01 0.0 0.0 0.0 0.01 0.0 0.0 0.0 0.01 0.01 0.0 0.0 0.0 0.01 0.0 0.0 0.0 0.01 0.01 0.0 0.0 0.0 0.01 0.0 0.0 0.0 0.01 0.01 0.0 0.0 0.0 0.01 0.0 0.0 0.0 0.01 0.01 0.0 0.0 0.0 0.01 0.0 0.0 0.0 0.01 0.01 0.0 0.0 0.0 0.01 0.0 0.0 0.0 0.01 0.01 0.0 0.0 0.0 0.01 0.0 0.0 0.0 0.01 0.01 0.0 0.0 0.0 0.01 0.0 0.0 0.0 0.01 0.01 0.0 0.0 0.0 0.01 0.0 0.0 0.0 0.01 0.01 0.0 0.0 0.0 0.01 0.0 0.0 0.0 0.01 0.01 0.0 0.0 0.0 0.01 0.0 0.0 0.0 0.01 0.01 0.0 0.0 0.0 0.01 0.0 0.0 0.0 0.01 0.01 0.0 0.0 0.0 0.01 0.0 0.0 0.0 0.01 0.01 0.0 0.0 0.0 0.01 0.0 0.0 0.0 0.01 0.01 0.0 0.0 0.0 0.01 0.0 0.0 0.0 0.01 0.01 0.0 0.0 0.0 0.01 0.0 0.0 0.0 0.01 0.01 0.0 0.0 0.0 0.01 0.0 0.0 0.0 0.01 0.01 0.0 0.0 0.0 0.01 0.0 0.0 0.0 0.01 0.01 0.0 0.0 0.0 0.01 0.0 0.0 0.0 0.01 0.01 0.0 0.0 0.0 0.01 0.0 0.0 0.0 0.01 0.01 0.0 0.0 0.0 0.01 0.0 0.0 0.0 0.01 0.01 0.0 0.0 0.0 0.01 0.0 0.0 0.0 0.01 0.01 0.0 0.0 0.0 0.01 0.0 0.0 0.0 0.01 0.01 0.0 0.0 0.0 0.01 0.0 0.0 0.0 0.01 0.01 0.0 0.0 0.0 0.01 0.0 0.0 0.0 0.01 0.01 0.0 0.0 0.0 0.01 0.0 0.0 0.0 0.01 0.01 0.0 0.0 0.0 0.01 0.0 0.0 0.0 0.01 0.01 0.0 0.0 0.0 0.01 0.0 0.0 0.0 0.01 0.01 0.0 0.0 0.0 0.01 0.0 0.0 0.0 0.01 0.01 0.0 0.0 0.0 0.01 0.0 0.0 0.0 0.01 0.01 0.0 0.0 0.0 0.01 0.0 0.0 0.0 0.01 0.01 0.0 0.0 0.0 0.01 0.0 0.0 0.0 0.01 0.01 0.0 0.0 0.0 0.01 0.0 0.0 0.0 0.01 0.01 0.0 0.0 0.0 0.01 0.0 0.0 0.0 0.01 0.01 0.0 0.0 0.0 0.01 0.0 0.0 0.0 0.01 0.01 0.0 0.0 0.0 0.01 0.0 0.0 0.0 0.01 0.01 0.0 0.0 0.0 0.01 0.0 0.0 0.0 0.01 0.01 0.0 0.0 0.0 0.01 0.0 0.0 0.0 0.01 0.01 0.0 0.0 0.0 0.01 0.0 0.0 0.0 0.01 0.01 0.0 0.0 0.0 0.01 0.0 0.0 0.0 0.01 0.01 0.0 0.0 0.0 0.01 0.0 0.0 0.0 0.01 0.01 0.0 0.0 0.0 0.01 0.0 0.0 0.0 0.01 0.01 0.0 0.0 0.0 0.01 0.0 0.0 0.0 0.01 0.01 0.0 0.0 0.0 0.01 0.0 0.0 0.0 0.01 0.01 0.0 0.0 0.0 0.01 0.0 0.0 0.0 0.01 0.01 0.0 0.0 0.0 0.01 0.0 0.0 0.0 0.01 0.01 0.0 0.0 0.0 0.01 0.0 0.0 0.0 0.01 0.01 0.0 0.0 0.0 0.01 0.0 0.0 0.0 0.01 0.01 0.0 0.0 0.0 0.01 0.0 0.0 0.0 0.01 0.01 0.0 0.0 0.0 0.01 0.0 0.0 0.0 0.01 0.01 0.0 0.0 0.0 0.01 0.0 0.0 0.0 0.01 0.01 0.0 0.0 0.0 0.01 0.0 0.0 0.0 0.01 0.01 0.0 0.0 0.0 0.01 0.0 0.0 0.0 0.01 0.01 0.0 0.0 0.0 0.01 0.0 0.0 0.0 0.01 0.01 0.0 0.0 0.0 0.01 0.0 0.0 0.0 0.01 0.01 0.0 0.0 0.0 0.01 0.0 0.0 0.0 0.01 0.01 0.0 0.0 0.0 0.01 0.0 0.0 0.0 0.01 0.01 0.0 0.0 0.0 0.01 0.0 0.0 0.0 0.01 0.01 0.0 0.0 0.0 0.01 0.0 0.0 0.0 0.01 0.01 0.0 0.0 0.0 0.01 0.0 0.0 0.0 0.01 0.01 0.0 0.0 0.0 0.01 0.0 0.0 0.0 0.01 0.01 0.0 0.0 0.0 0.01 0.0 0.0 0.0 0.01 0.01 0.0 0.0 0.0 0.01 0.0 0.0 0.0 0.01 0.01 0.0 0.0 0.0 0.01 0.0 0.0 0.0 0.01 0.01 0.0 0.0 0.0 0.01 0.0 0.0 0.0 0.01 0.01 0.0 0.0 0.0 0.01 0.0 0.0 0.0 0.01 0.01 0.0 0.0 0.0 0.01 0.0 0.0 0.0 0.01 0.01 0.0 0.0 0.0 0.01 0.0 0.0 0.0 0.01 0.01 0.0 0.0 0.0 0.01 0.0 0.0 0.0 0.01 0.01 0.0 0.0 0.0 0.01 0.0 0.0 0.0 0.01 0.01 0.0 0.0 0.0 0.01 0.0 0.0 0.0 0.01 0.01 0.0 0.0 0.0 0.01 0.0 0.0 0.0 0.01 0.01 0.0 0.0 0.0 0.01 0.0 0.0 0.0 0.01 0.01 0.0 0.0 0.0 0.01 0.0 0.0 0.0 0.01 0.01 0.0 0.0 0.0 0.01 0.0 0.0 0.0 0.01 0.01 0.0 0.0 0.0 0.01 0.0 0.0 0.0 0.01 0.01 0.0 0.0 0.0 0.01 0.0 0.0 0.0 0.01 0.01 0.0 0.0 0.0 0.01 0.0 0.0 0.0 0.01 0.01 0.0 0.0 0.0 0.01 0.0 0.0 0.0 0.01 0.01 0.0 0.0 0.0 0.01 0.0 0.0 0.0 0.01 0.01 0.0 0.0 0.0 0.01 0.0 0.0 0.0 0.01 0.01 0.0 0.0 0.0 0.01 0.0 0.0 0.0 0.01 0.01 0.0 0.0 0.0 0.01 0.0 0.0 0.0 0.01 0.01 0.0 0.0 0.0 0.01 0.0 0.0 0.0 0.01 0.01 0.0 0.0 0.0 0.01 0.0 0.0 0.0 0.01 0.01 0.0 0.0 0.0 0.01 0.0 0.0 0.0 0.01 0.01 0.0 0.0 0.0 0.01 0.0 0.0 0.0 0.01 0.01 0.0 0.0 0.0 0.01 0.0 0.0 0.0 0.01 0.01 0.0 0.0 0.0 0.01 0.0 0.0 0.0 0.01 0.01 0.0 0.0 0.0 0.01 0.0 0.0 0.0 0.01 0.01 0.0 0.0 0.0 0.01 0.0 0.0 0.0 0.01 0.01 0.0 0.0 0.0 0.01 0.0 0.0 0.0 0.01 0.01 0.0 0.0 0.0 0.01 0.0 0.0 0.0 0.01 0.01 0.0 0.0 0.0 0.01 0.0 0.0 0.0 0.01 0.01 0.0 0.0 0.0 0.01 0.0 0.0 0.0 0.01 0.01 0.0 0.0 0.0 0.01 0.0 0.0 0.0 0.01 0.01 0.0 0.0 0.0 0.01 0.0 0.0 0.0 0.01 0.01 0.0 0.0 0.0 0.01 0.0 0.0 0.0 0.01 0.01 0.0 0.0 0.0 0.01 0.0 0.0 0.0 0.01 0.01 0.0 0.0 0.0 0.01 0.0 0.0 0.0 0.01 0.01 0.0 0.0 0.0 0.01 0.0 0.0 0.0 0.01 0.01 0.0 0.0 0.0 0.01 0.0 0.0 0.0 0.01 0.01 0.0 0.0 0.0 0.01 0.0 0.0 0.0 0.01 0.01 0.0 0.0 0.0 0.01 0.0 0.0 0.0 0.01 0.01 0.0 0.0 0.0 0.01 0.0 0.0 0.0 0.01 0.01 0.0 0.0 0.0 0.01 0.0 0.0 0.0 0.01 0.01 0.0 0.0 0.0 0.01 0.0 0.0 0.0 0.01 0.01 0.0 0.0 0.0 0.01 0.0 0.0 0.0 0.01 0.01 0.0 0.0 0.0 0.01 0.0 0.0 0.0 0.01 0.01 0.0 0.0 0.0 0.01 0.0 0.0 0.0 0.01 0.01 0.0 0.0 0.0 0.01 0.0 0.0 0.0 0.01 0.01 0.0 0.0 0.0 0.01 0.0 0.0 0.0 0.01 0.01 0.0 0.0 0.0 0.01 0.0 0.0 0.0 0.01 0.01 0.0 0.0 0.0 0.01 0.0 0.0 0.0 0.01 0.01 0.0 0.0 0.0 0.01 0.0 0.0 0.0 0.01 0.01 0.0 0.0 0.0 0.01 0.0 0.0 0.0 0.01 0.01 0.0 0.0 0.0 0.01 0.0 0.0 0.0 0.01 0.01 0.0 0.0 0.0 0.01 0.0 0.0 0.0 0.01 0.01 0.0 0.0 0.0 0.01 0.0 0.0 0.0 0.01 0.01 0.0 0.0 0.0 0.01 0.0 0.0 0.0 0.01 0.01 0.0 0.0 0.0 0.01 0.0 0.0 0.0 0.01 0.01 0.0 0.0 0.0 0.01 0.0 0.0 0.0 0.01 0.01 0.0 0.0 0.0 0.01 0.0 0.0 0.0 0.01 0.01 0.0 0.0 0.0 0.01 0.0 0.0 0.0 0.01 0.01 0.0 0.0 0.0 0.01 0.0 0.0 0.0 0.01 0.01 0.0 0.0 0.0 0.01 0.0 0.0 0.0 0.01 0.01 0.0 0.0 0.0 0.01 0.0 0.0 0.0 0.01 0.01 0.0 0.0 0.0 0.01 0.0 0.0 0.0 0.01 0.01 0.0 0.0 0.0 0.01 0.0 0.0 0.0 0.01 0.01 0.0 0.0 0.0 0.01 0.0 0.0 0.0 0.01 0.01 0.0 0.0 0.0 0.01 0.0 0.0 0.0 0.01 0.01 0.0 0.0 0.0 0.01 0.0 0.0 0.0 0.01 0.01 0.0 0.0 0.0 0.01 0.0 0.0 0.0 0.01 0.01 0.0 0.0 0.0 0.01 0.0 0.0 0.0 0.01 0.01 0.0 0.0 0.0 0.01 0.0 0.0 0.0 0.01 0.01 0.0 0.0 0.0 0.01 0.0 0.0 0.0 0.01 0.01 0.0 0.0 0.0 0.01 0.0 0.0 0.0 0.01 0.01 0.0 0.0 0.0 0.01 0.0 0.0 0.0 0.01 0.01 0.0 0.0 0.0 0.01 0.0 0.0 0.0 0.01 0.01 0.0 0.0 0.0 0.01 0.0 0.0 0.0 0.01 0.01 0.0 0.0 0.0 0.01 0.0 0.0 0.0 0.01 0.01 0.0 0.0 0.0 0.01 0.0 0.0 0.0 0.01 0.01 0.0 0.0 0.0 0.01 0.0 0.0 0.0 0.01 0.01 0.0 0.0 0.0 0.01 0.0 0.0 0.0 0.01 0.01 0.0 0.0 0.0 0.01 0.0 0.0 0.0 0.01 0.01 0.0 0.0 0.0 0.01 0.0 0.0 0.0 0.01 0.01 0.0 0.0 0.0 0.01 0.0 0.0 0.0 0.01 0.01 0.0 0.0 0.0 0.01 0.0 0.0 0.0 0.01 0.01 0.0 0.0 0.0 0.01 0.0 0.0 0.0 0.01 0.01 0.0 0.0 0.0 0.01 0.0 0.0 0.0 0.01 0.01 0.0 0.0 0.0 0.01 0.0 0.0 0.0 0.01 0.01 0.0 0.0 0.0 0.01 0.0 0.0 0.0 0.01 0.01 0.0 0.0 0.0 0.01 0.0 0.0 0.0 0.01 0.01 0.0 0.0 0.0 0.01 0.0 0.0 0.0 0.01 0.01 0.0 0.0 0.0 0.01 0.0 0.0 0.0 0.01 0.01 0.0 0.0 0.0 0.01 0.0 0.0 0.0 0.01 0.01 0.0 0.0 0.0 0.01 0.0 0.0 0.0 0.01 0.01 0.0 0.0 0.0 0.01 0.0 0.0 0.0 0.01 0.01 0.0 0.0 0.0 0.01 0.0 0.0 0.0 0.01 0.01 0.0 0.0 0.0 0.01 0.0 0.0 0.0 0.01 0.01 0.0 0.0 0.0 0.01 0.0 0.0 0.0 0.01 0.01 0.0 0.0 0.0 0.01 0.0 0.0 0.0 0.01 0.01 0.0 0.0 0.0 0.01 0.0 0.0 0.0 0.01 0.01 0.0 0.0 0.0 0.01 0.0 0.0 0.0 0.01 0.01 0.0 0.0 0.0 0.01 0.0 0.0 0.0 0.01 0.01 0.0 0.0 0.0 0.01 0.0 0.0 0.0 0.01 0.01 0.0 0.0 0.0 0.01 0.0 0.0 0.0 0.01 0.01 0.0 0.0 0.0 0.01 0.0 0.0 0.0 0.01 0.01 0.0 0.0 0.0 0.01 0.0 0.0 0.0 0.01 0.01 0.0 0.0 0.0 0.01 0.0 0.0 0.0 0.01 0.01 0.0 0.0 0.0 0.01 0.0 0.0 0.0 0.01 0.01 0.0 0.0 0.0 0.01 0.0 0.0 0.0 0.01 0.01 0.0 0.0 0.0 0.01 0.0 0.0 0.0 0.01 0.01 0.0 0.0 0.0 0.01 0.0 0.0 0.0 0.01 0.01 0.0 0.0 0.0 0.01 0.0 0.0 0.0 0.01 0.01 0.0 0.0 0.0 0.01 0.0 0.0 0.0 0.01 0.01 0.0 0.0 0.0 0.01 0.0 0.0 0.0 0.01 0.01 0.0 0.0 0.0 0.01 0.0 0.0 0.0 0.01 0.01 0.0 0.0 0.0 0.01 0.0 0.0 0.0 0.01 0.01 0.0 0.0 0.0 0.01 0.0 0.0 0.0 0.01 0.01 0.0 0.0 0.0 0.01 0.0 0.0 0.0 0.01 0.01 0.0 0.0 0.0 0.01 0.0 0.0 0.0 0.01 0.01 0.0 0.0 0.0 0.01 0.0 0.0 0.0 0.01 0.01 0.0 0.0 0.0 0.01 0.0 0.0 0.0 0.01 0.01 0.0 0.0 0.0 0.01 0.0 0.0 0.0 0.01 0.01 0.0 0.0 0.0 0.01 0.0 0.0 0.0 0.01 0.01 0.0 0.0 0.0 0.01 0.0 0.0 0.0 0.01 0.01 0.0 0.0 0.0 0.01 0.0 0.0 0.0 0.01 0.01 0.0 0.0 0.0 0.01 0.0 0.0 0.0 0.01 0.01 0.0 0.0 0.0 0.01 0.0 0.0 0.0 0.01 0.01 0.0 0.0 0.0 0.01 0.0 0.0 0.0 0.01 0.01 0.0 0.0 0.0 0.01 0.0 0.0 0.0 0.01 0.01 0.0 0.0 0.0 0.01 0.0 0.0 0.0 0.01 0.01 0.0 0.0 0.0 0.01 0.0 0.0 0.0 0.01 0.01 0.0 0.0 0.0 0.01 0.0 0.0 0.0 0.01 0.01 0.0 0.0 0.0 0.01 0.0 0.0 0.0 0.01 0.01 0.0 0.0 0.0 0.01 0.0 0.0 0.0 0.01 0.01 0.0 0.0 0.0 0.01 0.0 0.0 0.0 0.01 0.01 0.0 0.0 0.0 0.01 0.0 0.0 0.0 0.01 0.01 0.0 0.0 0.0 0.01 0.0 0.0 0.0 0.01 0.01 0.0 0.0 0.0 0.01 0.0 0.0 0.0 0.01 0.01 0.0 0.0 0.0 0.01 0.0 0.0 0.0 0.01 0.01 0.0 0.0 0.0 0.01 0.0 0.0 0.0 0.01 0.01 0.0 0.0 0.0 0.01 0.0 0.0 0.0 0.01 0.01 0.0 0.0 0.0 0.01 0.0 0.0 0.0 0.01 0.01 0.0 0.0 0.0 0.01 0.0 0.0 0.0 0.01 0.01 0.0 0.0 0.0 0.01 0.0 0.0 0.0 0.01 0.01 0.0 0.0 0.0 0.01 0.0 0.0 0.0 0.01 0.01 0.0 0.0 0.0 0.01 0.0 0.0 0.0 0.01 0.01 0.0 0.0 0.0 0.01 0.0 0.0 0.0 0.01 0.01 0.0 0.0 0.0 0.01 0.0 0.0 0.0 0.01 0.01 0.0 0.0 0.0 0.01 0.0 0.0 0.0 0.01 0.01 0.0 0.0 0.0 0.01 0.0 0.0 0.0 0.01 0.01 0.0 0.0 0.0 0.01 0.0 0.0 0.0 0.01 0.01 0.0 0.0 0.0 0.01 0.0 0.0 0.0 0.01 0.01 0.0 0.0 0.0 0.01 0.0 0.0 0.0 0.01 0.01 0.0 0.0 0.0 0.01 0.0 0.0 0.0 0.01 0.01 0.0 0.0 0.0 0.01 0.0 0.0 0.0 0.01 0.01 0.0 0.0 0.0 0.01 0.0 0.0 0.0 0.01 0.01 0.0 0.0 0.0 0.01 0.0 0.0 0.0 0.01 0.01 0.0 0.0 0.0 0.01 0.0 0.0 0.0 0.01 0.01 0.0 0.0 0.0 0.01 0.0 0.0 0.0 0.01 0.01 0.0 0.0 0.0 0.01 0.0 0.0 0.0 0.01 0.01 0.0 0.0 0.0 0.01 0.0 0.0 0.0 0.01 0.01 0.0 0.0 0.0 0.01 0.0 0.0 0.0 0.01 0.01 0.0 0.0 0.0 0.01 0.0 0.0 0.0 0.01 0.01 0.0 0.0 0.0 0.01 0.0 0.0 0.0 0.01 0.01 0.0 0.0 0.0 0.01 0.0 0.0 0.0 0.01 0.01 0.0 0.0 0.0 0.01 0.0 0.0 0.0 0.01 0.01 0.0 0.0 0.0 0.01 0.0 0.0 0.0 0.01 0.01 0.0 0.0 0.0 0.01 0.0 0.0 0.0 0.01 0.01 0.0 0.0 0.0 0.01 0.0 0.0 0.0 0.01 0.01 0.0 0.0 0.0 0.01 0.0 0.0 0.0 0.01 0.01 0.0 0.0 0.0 0.01 0.0 0.0 0.0 0.01 0.01 0.0 0.0 0.0 0.01 0.0 0.0 0.0 0.01 0.01 0.0 0.0 0.0 0.01 0.0 0.0 0.0 0.01 0.01 0.0 0.0 0.0 0.01 0.0 0.0 0.0 0.01 0.01 0.0 0.0 0.0 0.01 0.0 0.0 0.0 0.01 0.01 0.0 0.0 0.0 0.01 0.0 0.0 0.0 0.01 0.01 0.0 0.0 0.0 0.01 0.0 0.0 0.0 0.01 0.01 0.0 0.0 0.0 0.01 0.0 0.0 0.0 0.01 0.01 0.0 0.0 0.0 0.01 0.0 0.0 0.0 0.01 0.01 0.0 0.0 0.0 0.01 0.0 0.0 0.0 0.01 0.01 0.0 0.0 0.0 0.01 0.0 0.0 0.0 0.01 0.01 0.0 0.0 0.0 0.01 0.0 0.0 0.0 0.01 0.01 0.0 0.0 0.0 0.01 0.0 0.0 0.0 0.01 0.01 0.0 0.0 0.0 0.01 0.0 0.0 0.0 0.01 0.01 0.0 0.0 0.0 0.01 0.0 0.0 0.0 0.01 0.01 0.0 0.0 0.0 0.01 0.0 0.0 0.0 0.01 0.01 0.0 0.0 0.0 0.01 0.0 0.0 0.0 0.01 0.01 0.0 0.0 0.0 0.01 0.0 0.0 0.0 0.01 0.01 0.0 0.0 0.0 0.01 0.0 0.0 0.0 0.01 0.01 0.0 0.0 0.0 0.01 0.0 0.0 0.0 0.01 0.01 0.0 0.0 0.0 0.01 0.0 0.0 0.0 0.01 0.01 0.0 0.0 0.0 0.01 0.0 0.0 0.0 0.01 0.01 0.0 0.0 0.0 0.01 0.0 0.0 0.0 0.01 0.01 0.0 0.0 0.0 0.01 0.0 0.0 0.0 0.01 0.01 0.0 0.0 0.0 0.01 0.0 0.0 0.0 0.01 0.01 0.0 0.0 0.0 0.01 0.0 0.0 0.0 0.01 0.01 0.0 0.0 0.0 0.01 0.0 0.0 0.0 0.01 0.01 0.0 0.0 0.0 0.01 0.0 0.0 0.0 0.01 0.01 0.0 0.0 0.0 0.01 0.0 0.0 0.0 0.01 0.01 0.0 0.0 0.0 0.01 0.0 0.0 0.0 0.01 0.01 0.0 0.0 0.0 0.01 0.0 0.0 0.0 0.01 0.01 0.0 0.0 0.0 0.01 0.0 0.0 0.0 0.01 0.01 0.0 0.0 0.0 0.01 0.0 0.0 0.0 0.01 0.01 0.0 0.0 0.0 0.01 0.0 0.0 0.0 0.01 0.01 0.0 0.0 0.0 0.01 0.0 0.0 0.0 0.01 0.01 0.0 0.0 0.0 0.01 0.0 0.0 0.0 0.01 0.01 0.0 0.0 0.0 0.01 0.0 0.0 0.0 0.01 0.01 0.0 0.0 0.0 0.01 0.0 0.0 0.0 0.01 0.01 0.0 0.0 0.0 0.01 0.0 0.0 0.0 0.01 0.01 0.0 0.0 0.0 0.01 0.0 0.0 0.0 0.01 0.01 0.0 0.0 0.0 0.01 0.0 0.0 0.0 0.01 0.01 0.0 0.0 0.0 0.01 0.0 0.0 0.0 0.01 0.01 0.0 0.0 0.0 0.01 0.0 0.0 0.0 0.01 0.01 0.0 0.0 0.0 0.01 0.0 0.0 0.0 0.01 0.01 0.0 0.0 0.0 0.01 0.0 0.0 0.0 0.01 0.01 0.0 0.0 0.0 0.01 0.0 0.0 0.0 0.01 0.01 0.0 0.0 0.0 0.01 0.0 0.0 0.0 0.01 0.01 0.0 0.0 0.0 0.01 0.0 0.0 0.0 0.01 0.01 0.0 0.0 0.0 0.01 0.0 0.0 0.0 0.01 0.01 0.0 0.0 0.0 0.01 0.0 0.0 0.0 0.01 0.01 0.0 0.0 0.0 0.01 0.0 0.0 0.0 0.01 0.01 0.0 0.0 0.0 0.01 0.0 0.0 0.0 0.01 0.01 0.0 0.0 0.0 0.01 0.0 0.0 0.0 0.01 0.01 0.0 0.0 0.0 0.01 0.0 0.0 0.0 0.01 0.01 0.0 0.0 0.0 0.01 0.0 0.0 0.0 0.01 0.01 0.0 0.0 0.0 0.01 0.0 0.0 0.0 0.01 0.01 0.0 0.0 0.0 0.01 0.0 0.0 0.0 0.01 0.01 0.0 0.0 0.0 0.01 0.0 0.0 0.0 0.01 0.01 0.0 0.0 0.0 0.01 0.0 0.0 0.0 0.01 0.01 0.0 0.0 0.0 0.01 0.0 0.0 0.0 0.01 0.01 0.0 0.0 0.0 0.01 0.0 0.0 0.0 0.01 0.01 0.0 0.0 0.0 0.01 0.0 0.0 0.0 0.01 0.01 0.0 0.0 0.0 0.01 0.0 0.0 0.0 0.01 0.01 0.0 0.0 0.0 0.01 0.0 0.0 0.0 0.01 0.01 0.0 0.0 0.0 0.01 0.0 0.0 0.0 0.01 0.01 0.0 0.0 0.0 0.01 0.0 0.0 0.0 0.01 0.01 0.0 0.0 0.0 0.01 0.0 0.0 0.0 0.01 0.01 0.0 0.0 0.0 0.01 0.0 0.0 0.0 0.01 0.01 0.0 0.0 0.0 0.01 0.0 0.0 0.0 0.01 0.01 0.0 0.0 0.0 0.01 0.0 0.0 0.0 0.01 0.01 0.0 0.0 0.0 0.01 0.0 0.0 0.0 0.01 0.01 0.0 0.0 0.0 0.01 0.0 0.0 0.0 0.01 0.01 0.0 0.0 0.0 0.01 0.0 0.0 0.0 0.01 0.01 0.0 0.0 0.0 0.01 0.0 0.0 0.0 0.01 0.01 0.0 0.0 0.0 0.01 0.0 0.0 0.0 0.01 0.01 0.0 0.0 0.0 0.01 0.0 0.0 0.0 0.01 0.01 0.0 0.0 0.0 0.01 0.0 0.0 0.0 0.01 0.01 0.0 0.0 0.0 0.01 0.0 0.0 0.0 0.01 0.01 0.0 0.0 0.0 0.01 0.0 0.0 0.0 0.01 0.01 0.0 0.0 0.0 0.01 0.0 0.0 0.0 0.01 0.01 0.0 0.0 0.0 0.01 0.0 0.0 0.0 0.01 0.01 0.0 0.0 0.0 0.01 0.0 0.0 0.0 0.01 0.01 0.0 0.0 0.0 0.01 0.0 0.0 0.0 0.01 0.01 0.0 0.0 0.0 0.01 0.0 0.0 0.0 0.01 0.01 0.0 0.0 0.0 0.01 0.0 0.0 0.0 0.01 0.01 0.0 0.0 0.0 0.01 0.0 0.0 0.0 0.01 0.01 0.0 0.0 0.0 0.01 0.0 0.0 0.0 0.01 0.01 0.0 0.0 0.0 0.01 0.0 0.0 0.0 0.01 0.01 0.0 0.0 0.0 0.01 0.0 0.0 0.0 0.01 0.01 0.0 0.0 0.0 0.01 0.0 0.0 0.0 0.01 0.01 0.0 0.0 0.0 0.01 0.0 0.0 0.0 0.01 0.01 0.0 0.0 0.0 0.01 0.0 0.0 0.0 0.01 0.01 0.0 0.0 0.0 0.01 0.0 0.0 0.0 0.01 0.01 0.0 0.0 0.0 0.01 0.0 0.0 0.0 0.01 0.01 0.0 0.0 0.0 0.01 0.0 0.0 0.0 0.01 0.01 0.0 0.0 0.0 0.01 0.0 0.0 0.0 0.01 0.01 0.0 0.0 0.0 0.01 0.0 0.0 0.0 0.01 0.01 0.0 0.0 0.0 0.01 0.0 0.0 0.0 0.01 0.01 0.0 0.0 0.0 0.01 0.0 0.0 0.0 0.01 0.01 0.0 0.0 0.0 0.01 0.0 0.0 0.0 0.01 0.01 0.0 0.0 0.0 0.01 0.0 0.0 0.0 0.01 0.01 0.0 0.0 0.0 0.01 0.0 0.0 0.0 0.01 0.01 0.0 0.0 0.0 0.01 0.0 0.0 0.0 0.01 0.01 0.0 0.0 0.0 0.01 0.0 0.0 0.0 0.01 0.01 0.0 0.0 0.0 0.01 0.0 0.0 0.0 0.01 0.01 0.0 0.0 0.0 0.01 0.0 0.0 0.0 0.01 0.01 0.0 0.0 0.0 0.01 0.0 0.0 0.0 0.01 0.01 0.0 0.0 0.0 0.01 0.0 0.0 0.0 0.01 0.01 0.0 0.0 0.0 0.01 0.0 0.0 0.0 0.01 0.01 0.0 0.0 0.0 0.01 0.0 0.0 0.0 0.01 0.01 0.0 0.0 0.0 0.01 0.0 0.0 0.0 0.01 0.01 0.0 0.0 0.0 0.01 0.0 0.0 0.0 0.01 0.01 0.0 0.0 0.0 0.01 0.0 0.0 0.0 0.01 0.01 0.0 0.0 0.0 0.01 0.0 0.0 0.0 0.01 0.01 0.0 0.0 0.0 0.01 0.0 0.0 0.0 0.01 0.01 0.0 0.0 0.0 0.01 0.0 0.0 0.0 0.01 0.01 0.0 0.0 0.0 0.01 0.0 0.0 0.0 0.01 0.01 0.0 0.0 0.0 0.01 0.0 0.0 0.0 0.01 0.01 0.0 0.0 0.0 0.01 0.0 0.0 0.0 0.01 0.01 0.0 0.0 0.0 0.01 0.0 0.0 0.0 0.01 0.01 0.0 0.0 0.0 0.01 0.0 0.0 0.0 0.01 0.01 0.0 0.0 0.0 0.01 0.0 0.0 0.0 0.01 0.01 0.0 0.0 0.0 0.01 0.0 0.0 0.0 0.01 0.01 0.0 0.0 0.0 0.01 0.0 0.0 0.0 0.01 0.01 0.0 0.0 0.0 0.01 0.0 0.0 0.0 0.01 0.01 0.0 0.0 0.0 0.01 0.0 0.0 0.0 0.01 0.01 0.0 0.0 0.0 0.01 0.0 0.0 0.0 0.01 0.01 0.0 0.0 0.0 0.01 0.0 0.0 0.0 0.01 0.01 0.0 0.0 0.0 0.01 0.0 0.0 0.0 0.01 0.01 0.0 0.0 0.0 0.01 0.0 0.0 0.0 0.01 0.01 0.0 0.0 0.0 0.01 0.0 0.0 0.0 0.01 0.01 0.0 0.0 0.0 0.01 0.0 0.0 0.0 0.01 0.01 0.0 0.0 0.0 0.01 0.0 0.0 0.0 0.01 0.01 0.0 0.0 0.0 0.01 0.0 0.0 0.0 0.01 0.01 0.0 0.0 0.0 0.01 0.0 0.0 0.0 0.01 0.01 0.0 0.0 0.0 0.01 0.0 0.0 0.0 0.01 0.01 0.0 0.0 0.0 0.01 0.0 0.0 0.0 0.01 0.01 0.0 0.0 0.0 0.01 0.0 0.0 0.0 0.01 0.01 0.0 0.0 0.0 0.01 0.0 0.0 0.0 0.01 0.01 0.0 0.0 0.0 0.01 0.0 0.0 0.0 0.01 0.01 0.0 0.0 0.0 0.01 0.0 0.0 0.0 0.01 0.01 0.0 0.0 0.0 0.01 0.0 0.0 0.0 0.01 0.01 0.0 0.0 0.0 0.01 0.0 0.0 0.0 0.01 0.01 0.0 0.0 0.0 0.01 0.0 0.0 0.0 0.01 0.01 0.0 0.0 0.0 0.01 0.0 0.0 0.0 0.01 0.01 0.0 0.0 0.0 0.01 0.0 0.0 0.0 0.01 0.01 0.0 0.0 0.0 0.01 0.0 0.0 0.0 0.01 0.01 0.0 0.0 0.0 0.01 0.0 0.0 0.0 0.01 0.01 0.0 0.0 0.0 0.01 0.0 0.0 0.0 0.01 0.01 0.0 0.0 0.0 0.01 0.0 0.0 0.0 0.01 0.01 0.0 0.0 0.0 0.01 0.0 0.0 0.0 0.01 0.01 0.0 0.0 0.0 0.01 0.0 0.0 0.0 0.01 0.01 0.0 0.0 0.0 0.01 0.0 0.0 0.0 0.01 0.01 0.0 0.0 0.0 0.01 0.0 0.0 0.0 0.01 0.01 0.0 0.0 0.0 0.01 0.0 0.0 0.0 0.01 0.01 0.0 0.0 0.0 0.01 0.0 0.0 0.0 0.01 0.01 0.0 0.0 0.0 0.01 0.0 0.0 0.0 0.01 0.01 0.0 0.0 0.0 0.01 0.0 0.0 0.0 0.01 0.01 0.0 0.0 0.0 0.01 0.0 0.0 0.0 0.01 0.01 0.0 0.0 0.0 0.01 0.0 0.0 0.0 0.01 0.01 0.0 0.0 0.0 0.01 0.0 0.0 0.0 0.01 0.01 0.0 0.0 0.0 0.01 0.0 0.0 0.0 0.01 0.01 0.0 0.0 0.0 0.01 0.0 0.0 0.0 0.01 0.01 0.0 0.0 0.0 0.01 0.0 0.0 0.0 0.01 0.01 0.0 0.0 0.0 0.01 0.0 0.0 0.0 0.01 0.01 0.0 0.0 0.0 0.01 0.0 0.0 0.0 0.01 0.01 0.0 0.0 0.0 0.01 0.0 0.0 0.0 0.01 0.01 0.0 0.0 0.0 0.01 0.0 0.0 0.0 0.01 0.01 0.0 0.0 0.0 0.01 0.0 0.0 0.0 0.01 0.01 0.0 0.0 0.0 0.01 0.0 0.0 0.0 0.01 0.01 0.0 0.0 0.0 0.01 0.0 0.0 0.0 0.01 0.01 0.0 0.0 0.0 0.01 0.0 0.0 0.0 0.01 0.01 0.0 0.0 0.0 0.01 0.0 0.0 0.0 0.01 0.01 0.0 0.0 0.0 0.01 0.0 0.0 0.0 0.01 0.01 0.0 0.0 0.0 0.01 0.0 0.0 0.0 0.01 0.01 0.0 0.0 0.0 0.01 0.0 0.0 0.0 0.01 0.01 0.0 0.0 0.0 0.01 0.0 0.0 0.0 0.01 0.01 0.0 0.0 0.0 0.01 0.0 0.0 0.0 0.01 0.01 0.0 0.0 0.0 0.01 0.0 0.0 0.0 0.01 0.01 0.0 0.0 0.0 0.01 0.0 0.0 0.0 0.01 0.01 0.0 0.0 0.0 0.01 0.0 0.0 0.0 0.01 0.01 0.0 0.0 0.0 0.01 0.0 0.0 0.0 0.01 0.01 0.0 0.0 0.0 0.01 0.0 0.0 0.0 0.01 0.01 0.0 0.0 0.0 0.01 0.0 0.0 0.0 0.01 0.01 0.0 0.0 0.0 0.01 0.0 0.0 0.0 0.01 0.01 0.0 0.0 0.0 0.01 0.0 0.0 0.0 0.01 0.01 0.0 0.0 0.0 0.01 0.0 0.0 0.0 0.01 0.01 0.0 0.0 0.0 0.01 0.0 0.0 0.0 0.01 0.01 0.0 0.0 0.0 0.01 0.0 0.0 0.0 0.01 0.01 0.0 0.0 0.0 0.01 0.0 0.0 0.0 0.01 0.01 0.0 0.0 0.0 0.01 0.0 0.0 0.0 0.01 0.01 0.0 0.0 0.0 0.01 0.0 0.0 0.0 0.01 0.01 0.0 0.0 0.0 0.01 0.0 0.0 0.0 0.01 0.01 0.0 0.0 0.0 0.01 0.0 0.0 0.0 0.01 0.01 0.0 0.0 0.0 0.01 0.0 0.0 0.0 0.01 0.01 0.0 0.0 0.0 0.01 0.0 0.0 0.0 0.01 0.01 0.0 0.0 0.0 0.01 0.0 0.0 0.0 0.01 0.01 0.0 0.0 0.0 0.01 0.0 0.0 0.0 0.01 0.01 0.0 0.0 0.0 0.01 0.0 0.0 0.0 0.01 0.01 0.0 0.0 0.0 0.01 0.0 0.0 0.0 0.01 0.01 0.0 0.0 0.0 0.01 0.0 0.0 0.0 0.01 0.01 0.0 0.0 0.0 0.01 0.0 0.0 0.0 0.01 0.01 0.0 0.0 0.0 0.01 0.0 0.0 0.0 0.01 0.01 0.0 0.0 0.0 0.01 0.0 0.0 0.0 0.01 0.01 0.0 0.0 0.0 0.01 0.0 0.0 0.0 0.01 0.01 0.0 0.0 0.0 0.01 0.0 0.0 0.0 0.01 0.01 0.0 0.0 0.0 0.01 0.0 0.0 0.0 0.01 0.01 0.0 0.0 0.0 0.01 0.0 0.0 0.0 0.01 0.01 0.0 0.0 0.0 0.01 0.0 0.0 0.0 0.01 0.01 0.0 0.0 0.0 0.01 0.0 0.0 0.0 0.01 0.01 0.0 0.0 0.0 0.01 0.0 0.0 0.0 0.01 0.01 0.0 0.0 0.0 0.01 0.0 0.0 0.0 0.01 0.01 0.0 0.0 0.0 0.01 0.0 0.0 0.0 0.01 0.01 0.0 0.0 0.0 0.01 0.0 0.0 0.0 0.01 0.01 0.0 0.0 0.0 0.01 0.0 0.0 0.0 0.01 0.01 0.0 0.0 0.0 0.01 0.0 0.0 0.0 0.01 0.01 0.0 0.0 0.0 0.01 0.0 0.0 0.0 0.01 0.01 0.0 0.0 0.0 0.01 0.0 0.0 0.0 0.01 0.01 0.0 0.0 0.0 0.01 0.0 0.0 0.0 0.01 0.01 0.0 0.0 0.0 0.01 0.0 0.0 0.0 0.01 0.01 0.0 0.0 0.0 0.01 0.0 0.0 0.0 0.01 0.01 0.0 0.0 0.0 0.01 0.0 0.0 0.0 0.01 0.01 0.0 0.0 0.0 0.01 0.0 0.0 0.0 0.01 0.01 0.0 0.0 0.0 0.01 0.0 0.0 0.0 0.01 0.01 0.0 0.0 0.0 0.01 0.0 0.0 0.0 0.01 0.01 0.0 0.0 0.0 0.01 0.0 0.0 0.0 0.01 0.01 0.0 0.0 0.0 0.01 0.0 0.0 0.0 0.01 0.01 0.0 0.0 0.0 0.01 0.0 0.0 0.0 0.01 0.01 0.0 0.0 0.0 0.01 0.0 0.0 0.0 0.01 0.01 0.0 0.0 0.0 0.01 0.0 0.0 0.0 0.01 0.01 0.0 0.0 0.0 0.01 0.0 0.0 0.0 0.01 0.01 0.0 0.0 0.0 0.01 0.0 0.0 0.0 0.01 0.01 0.0 0.0 0.0 0.01 0.0 0.0 0.0 0.01 0.01 0.0 0.0 0.0 0.01 0.0 0.0 0.0 0.01 0.01 0.0 0.0 0.0 0.01 0.0 0.0 0.0 0.01 0.01 0.0 0.0 0.0 0.01 0.0 0.0 0.0 0.01 0.01 0.0 0.0 0.0 0.01 0.0 0.0 0.0 0.01 0.01 0.0 0.0 0.0 0.01 0.0 0.0 0.0 0.01 0.01 0.0 0.0 0.0 0.01 0.0 0.0 0.0 0.01 0.01 0.0 0.0 0.0 0.01 0.0 0.0 0.0 0.01 0.01 0.0 0.0 0.0 0.01 0.0 0.0 0.0 0.01 0.01 0.0 0.0 0.0 0.01 0.0 0.0 0.0 0.01 0.01 0.0 0.0 0.0 0.01 0.0 0.0 0.0 0.01 0.01 0.0 0.0 0.0 0.01 0.0 0.0 0.0 0.01 0.01 0.0 0.0 0.0 0.01 0.0 0.0 0.0 0.01 0.01 0.0 0.0 0.0 0.01 0.0 0.0 0.0 0.01 0.01 0.0 0.0 0.0 0.01 0.0 0.0 0.0 0.01 0.01 0.0 0.0 0.0 0.01 0.0 0.0 0.0 0.01 0.01 0.0 0.0 0.0 0.01 0.0 0.0 0.0 0.01 0.01 0.0 0.0 0.0 0.01 0.0 0.0 0.0 0.01 0.01 0.0 0.0 0.0 0.01 0.0 0.0 0.0 0.01 0.01 0.0 0.0 0.0 0.01 0.0 0.0 0.0 0.01 0.01 0.0 0.0 0.0 0.01 0.0 0.0 0.0 0.01 0.01 0.0 0.0 0.0 0.01 0.0 0.0 0.0 0.01 0.01 0.0 0.0 0.0 0.01 0.0 0.0 0.0 0.01 0.01 0.0 0.0 0.0 0.01 0.0 0.0 0.0 0.01 0.01 0.0 0.0 0.0 0.01 0.0 0.0 0.0 0.01 0.01 0.0 0.0 0.0 0.01 0.0 0.0 0.0 0.01 0.01 0.0 0.0 0.0 0.01 0.0 0.0 0.0 0.01 0.01 0.0 0.0 0.0 0.01 0.0 0.0 0.0 0.01 0.01 0.0 0.0 0.0 0.01 0.0 0.0 0.0 0.01 0.01 0.0 0.0 0.0 0.01 0.0 0.0 0.0 0.01 0.01 0.0 0.0 0.0 0.01 0.0 0.0 0.0 0.01 0.01 0.0 0.0 0.0 0.01 0.0 0.0 0.0 0.01 0.01 0.0 0.0 0.0 0.01 0.0 0.0 0.0 0.01 0.01 0.0 0.0 0.0 0.01 0.0 0.0 0.0 0.01 0.01 0.0 0.0 0.0 0.01 0.0 0.0 0.0 0.01 0.01 0.0 0.0 0.0 0.01 0.0 0.0 0.0 0.01 0.01 0.0 0.0 0.0 0.01 0.0 0.0 0.0 0.01 0.01 0.0 0.0 0.0 0.01 0.0 0.0 0.0 0.01 0.01 0.0 0.0 0.0 0.01 0.0 0.0 0.0 0.01 0.01 0.0 0.0 0.0 0.01 0.0 0.0 0.0 0.01 0.01 0.0 0.0 0.0 0.01 0.0 0.0 0.0 0.01 0.01 0.0 0.0 0.0 0.01 0.0 0.0 0.0 0.01 0.01 0.0 0.0 0.0 0.01 0.0 0.0 0.0 0.01 0.01 0.0 0.0 0.0 0.01 0.0 0.0 0.0 0.01 0.01 0.0 0.0 0.0 0.01 0.0 0.0 0.0 0.01 0.01 0.0 0.0 0.0 0.01 0.0 0.0 0.0 0.01 0.01 0.0 0.0 0.0 0.01 0.0 0.0 0.0 0.01 0.01 0.0 0.0 0.0 0.01 0.0 0.0 0.0 0.01 0.01 0.0 0.0 0.0 0.01 0.0 0.0 0.0 0.01 0.01 0.0 0.0 0.0 0.01 0.0 0.0 0.0 0.01 0.01 0.0 0.0 0.0 0.01 0.0 0.0 0.0 0.01 0.01 0.0 0.0 0.0 0.01 0.0 0.0 0.0 0.01 0.01 0.0 0.0 0.0 0.01 0.0 0.0 0.0 0.01 0.01 0.0 0.0 0.0 0.01 0.0 0.0 0.0 0.01 0.01 0.0 0.0 0.0 0.01 0.0 0.0 0.0 0.01 0.01 0.0 0.0 0.0 0.01 0.0 0.0 0.0 0.01 0.01 0.0 0.0 0.0 0.01 0.0 0.0 0.0 0.01 0.01 0.0 0.0 0.0 0.01 0.0 0.0 0.0 0.01 0.01 0.0 0.0 0.0 0.01 0.0 0.0 0.0 0.01 0.01 0.0 0.0 0.0 0.01 0.0 0.0 0.0 0.01 0.01 0.0 0.0 0.0 0.01 0.0 0.0 0.0 0.01 0.01 0.0 0.0 0.0 0.01 0.0 0.0 0.0 0.01 0.01 0.0 0.0 0.0 0.01 0.0 0.0 0.0 0.01 0.01 0.0 0.0 0.0 0.01 0.0 0.0 0.0 0.01 0.01 0.0 0.0 0.0 0.01 0.0 0.0 0.0 0.01 0.01 0.0 0.0 0.0 0.01 0.0 0.0 0.0 0.01 0.01 0.0 0.0 0.0 0.01 0.0 0.0 0.0 0.01 0.01 0.0 0.0 0.0 0.01 0.0 0.0 0.0 0.01 0.01 0.0 0.0 0.0 0.01 0.0 0.0 0.0 0.01 0.01 0.0 0.0 0.0 0.01 0.0 0.0 0.0 0.01 0.01 0.0 0.0 0.0 0.01 0.0 0.0 0.0 0.01 0.01 0.0 0.0 0.0 0.01 0.0 0.0 0.0 0.01 0.01 0.0 0.0 0.0 0.01 0.0 0.0 0.0 0.01 0.01 0.0 0.0 0.0 0.01 0.0 0.0 0.0 0.01 0.01 0.0 0.0 0.0 0.01 0.0 0.0 0.0 0.01 0.01 0.0 0.0 0.0 0.01 0.0 0.0 0.0 0.01 0.01 0.0 0.0 0.0 0.01 0.0 0.0 0.0 0.01 0.01 0.0 0.0 0.0 0.01 0.0 0.0 0.0 0.01 0.01 0.0 0.0 0.0 0.01 0.0 0.0 0.0 0.01 0.01 0.0 0.0 0.0 0.01 0.0 0.0 0.0 0.01 0.01 0.0 0.0 0.0 0.01 0.0 0.0 0.0 0.01 0.01 0.0 0.0 0.0 0.01 0.0 0.0 0.0 0.01 0.01 0.0 0.0 0.0 0.01 0.0 0.0 0.0 0.01 0.01 0.0 0.0 0.0 0.01 0.0 0.0 0.0 0.01 0.01 0.0 0.0 0.0 0.01 0.0 0.0 0.0 0.01 0.01 0.0 0.0 0.0 0.01 0.0 0.0 0.0 0.01 0.01 0.0 0.0 0.0 0.01 0.0 0.0 0.0 0.01 0.01 0.0 0.0 0.0 0.01 0.0 0.0 0.0 0.01 0.01 0.0 0.0 0.0 0.01 0.0 0.0 0.0 0.01 0.01 0.0 0.0 0.0 0.01 0.0 0.0 0.0 0.01 0.01 0.0 0.0 0.0 0.01 0.0 0.0 0.0 0.01 0.01 0.0 0.0 0.0 0.01 0.0 0.0 0.0 0.01 0.01 0.0 0.0 0.0 0.01 0.0 0.0 0.0 0.01 0.01 0.0 0.0 0.0 0.01 0.0 0.0 0.0 0.01 0.01 0.0 0.0 0.0 0.01 0.0 0.0 0.0 0.01 0.01 0.0 0.0 0.0 0.01 0.0 0.0 0.0 0.01 0.01 0.0 0.0 0.0 0.01 0.0 0.0 0.0 0.01 0.01 0.0 0.0 0.0 0.01 0.0 0.0 0.0 0.01 0.01 0.0 0.0 0.0 0.01 0.0 0.0 0.0 0.01 0.01 0.0 0.0 0.0 0.01 0.0 0.0 0.0 0.01 0.01 0.0 0.0 0.0 0.01 0.0 0.0 0.0 0.01 0.01 0.0 0.0 0.0 0.01 0.0 0.0 0.0 0.01 0.01 0.0 0.0 0.0 0.01 0.0 0.0 0.0 0.01 0.01 0.0 0.0 0.0 0.01 0.0 0.0 0.0 0.01 0.01 0.0 0.0 0.0 0.01 0.0 0.0 0.0 0.01 0.01 0.0 0.0 0.0 0.01 0.0 0.0 0.0 0.01 0.01 0.0 0.0 0.0 0.01 0.0 0.0 0.0 0.01 0.01 0.0 0.0 0.0 0.01 0.0 0.0 0.0 0.01 0.01 0.0 0.0 0.0 0.01 0.0 0.0 0.0 0.01 0.01 0.0 0.0 0.0 0.01 0.0 0.0 0.0 0.01 0.01 0.0 0.0 0.0 0.01 0.0 0.0 0.0 0.01 0.01 0.0 0.0 0.0 0.01 0.0 0.0 0.0 0.01 0.01 0.0 0.0 0.0 0.01 0.0 0.0 0.0 0.01 0.01 0.0 0.0 0.0 0.01 0.0 0.0 0.0 0.01 0.01 0.0 0.0 0.0 0.01 0.0 0.0 0.0 0.01 0.01 0.0 0.0 0.0 0.01 0.0 0.0 0.0 0.01 0.01 0.0 0.0 0.0 0.01 0.0 0.0 0.0 0.01 0.01 0.0 0.0 0.0 0.01 0.0 0.0 0.0 0.01 0.01 0.0 0.0 0.0 0.01 0.0 0.0 0.0 0.01 0.01 0.0 0.0 0.0 0.01 0.0 0.0 0.0 0.01 0.01 0.0 0.0 0.0 0.01 0.0 0.0 0.0 0.01 0.01 0.0 0.0 0.0 0.01 0.0 0.0 0.0 0.01 0.01 0.0 0.0 0.0 0.01 0.0 0.0 0.0 0.01 0.01 0.0 0.0 0.0 0.01 0.0 0.0 0.0 0.01 0.01 0.0 0.0 0.0 0.01 0.0 0.0 0.0 0.01 0.01 0.0 0.0 0.0 0.01 0.0 0.0 0.0 0.01 0.01 0.0 0.0 0.0 0.01 0.0 0.0 0.0 0.01 0.01 0.0 0.0 0.0 0.01 0.0 0.0 0.0 0.01 0.01 0.0 0.0 0.0 0.01 0.0 0.0 0.0 0.01 0.01 0.0 0.0 0.0 0.01 0.0 0.0 0.0 0.01 0.01 0.0 0.0 0.0 0.01 0.0 0.0 0.0 0.01 0.01 0.0 0.0 0.0 0.01 0.0 0.0 0.0 0.01 0.01 0.0 0.0 0.0 0.01 0.0 0.0 0.0 0.01 0.01 0.0 0.0 0.0 0.01 0.0 0.0 0.0 0.01 0.01 0.0 0.0 0.0 0.01 0.0 0.0 0.0 0.01 0.01 0.0 0.0 0.0 0.01 0.0 0.0 0.0 0.01 0.01 0.0 0.0 0.0 0.01 0.0 0.0 0.0 0.01 0.01 0.0 0.0 0.0 0.01 0.0 0.0 0.0 0.01 0.01 0.0 0.0 0.0 0.01 0.0 0.0 0.0 0.01 0.01 0.0 0.0 0.0 0.01 0.0 0.0 0.0 0.01 0.01 0.0 0.0 0.0 0.01 0.0 0.0 0.0 0.01 0.01 0.0 0.0 0.0 0.01 0.0 0.0 0.0 0.01 0.01 0.0 0.0 0.0 0.01 0.0 0.0 0.0 0.01 0.01 0.0 0.0 0.0 0.01 0.0 0.0 0.0 0.01 0.01 0.0 0.0 0.0 0.01 0.0 0.0 0.0 0.01 0.01 0.0 0.0 0.0 0.01 0.0 0.0 0.0 0.01 0.01 0.0 0.0 0.0 0.01 0.0 0.0 0.0 0.01 0.009999999999999998 0.0 0.0 0.0 0.01 0.0 0.0 0.0 0.009999999999999998 0.01 0.0 -1.734723475976807e-18 0.0 0.01 0.0 -1.734723475976807e-18 0.0 0.01 0.009999999500000037 0.0 3.878566299209832e-12 0.0 0.01 0.0 3.878566299209832e-12 0.0 0.01 0.009999999500000037 0.0 -3.843897113746256e-18 0.0 0.01 0.0 -3.843897113746256e-18 0.0 0.01 0.009999999500000037 0.0 4.003729199184333e-11 0.0 0.01 0.0 4.003729199184333e-11 0.0 0.01 0.009999999999999998 0.0 -1.734723475976807e-18 0.0 0.01 0.0 -1.734723475976807e-18 0.0 0.009999999999999998 0.009999999999999998 0.0 -1.734723475976807e-18 0.0 0.01 0.0 -1.734723475976807e-18 0.0 0.009999999999999998 0.009999999500000037 0.0 2.69110389945175e-11 0.0 0.01 0.0 2.69110389945175e-11 0.0 0.01 0.009999999500000037 0.0 8.662149198235288e-12 0.0 0.01 0.0 8.662149198235288e-12 0.0 0.01 0.009999999500000039 0.0 -4.861706590792775e-18 0.0 0.01 0.0 -4.861706590792775e-18 0.0 0.010000000000000002 0.009999999500000037 0.0 -2.749756399439801e-11 0.0 0.01 0.0 -2.749756399439801e-11 0.0 0.01 0.009999999500000039 0.0 -7.121278466030557e-18 0.0 0.01 0.0 -7.121278466030557e-18 0.0 0.010000000000000002 0.009999999500000037 0.0 -4.009098999183239e-11 0.0 0.01 0.0 -4.009098999183239e-11 0.0 0.01 0.009999999500000037 0.0 1.3741380997200512e-11 0.0 0.01 0.0 1.3741380997200512e-11 0.0 0.01 0.009999999500000039 0.0 -5.5165975921921626e-18 0.0 0.01 0.0 -5.5165975921921626e-18 0.0 0.010000000000000002 0.00999999900000015 0.0 -6.8014399832001905e-18 0.0 0.01 0.0 -6.8014399832001905e-18 0.0 0.01 0.00999999900000015 0.0 -4.810319378180505e-18 0.0 0.01 0.0 -4.810319378180505e-18 0.0 0.01 0.009999999500000037 0.0 4.045874445430541e-15 0.0 0.01 0.0 4.045874445430541e-15 0.0 0.01 0.009999999500000035 0.0 1.0823513690998068e-15 0.0 0.01 0.0 1.0823513690998068e-15 0.0 0.009999999999999998 0.00999999900000015 0.0 -4.108726149162942e-12 0.0 0.01 0.0 -4.108726149162942e-12 0.0 0.01 0.00999999900000015 0.0 -3.7070085386761554e-18 0.0 0.01 0.0 -3.7070085386761554e-18 0.0 0.01 0.009999998500000338 0.0 -3.4976430122572695e-18 0.0 0.01 0.0 -3.4976430122572695e-18 0.0 0.01 0.009999998500000338 0.0 -1.021053599791984e-11 0.0 0.01 0.0 -1.021053599791984e-11 0.0 0.01 0.009999999500000037 0.0 5.065025598238867e-13 0.0 0.01 0.0 5.065025615179526e-13 0.0 0.009999999999999998 0.009999999000000152 0.0 2.931266603346783e-13 0.0 0.01 0.0 2.931266607581948e-13 0.0 0.009999999999999998 0.009999998500000336 0.0 1.0666143602516836e-13 0.0 0.01 0.0 1.0666143613104748e-13 0.0 0.01 0.00999999850000034 0.0 1.2318742234115972e-14 0.0 0.01 0.0 1.2318742207646193e-14 0.0 0.01 0.009999998500000338 0.0 -2.967512731974194e-18 0.0 0.01 0.0 -2.967512731974194e-18 0.0 0.01 0.009999998500000338 0.0 -3.81948554045435e-18 0.0 0.01 0.0 -3.81948554045435e-18 0.0 0.01 0.00999999900000015 0.0 5.297661703036142e-12 0.0 0.01 0.0 5.297661696259878e-12 0.0 0.009999999999999998 0.009999998500000336 0.0 3.4773310160420446e-12 0.0 0.01 0.0 3.477331012653913e-12 0.0 0.009999999999999997 0.0099999980000006 0.0 1.6913545945604824e-12 0.0 0.01 0.0 1.6913545945604824e-12 0.0 0.01 0.00999999750000094 0.0 5.025183612090078e-13 0.0 0.01 0.0 5.025183612090078e-13 0.0 0.009999999999999998 0.009999997500000937 0.0 6.20803517819844e-14 0.0 0.01 0.0 6.20803517819844e-14 0.0 0.010000000000000002 0.009999997000001351 0.0 4.194617000417105e-12 0.0 0.01 0.0 4.194617000417105e-12 0.0 0.01 0.00999999850000034 0.0 2.6485334514740264e-11 0.0 0.01 0.0 2.6485334541845318e-11 0.0 0.010000000000000002 0.009999997500000938 0.0 1.883744542459636e-11 0.0 0.01 0.0 1.8837445438148887e-11 0.0 0.009999999999999998 0.009999997000001348 0.0 1.0006648999271329e-11 0.0 0.01 0.0 1.0006648999271329e-11 0.0 0.009999999999999998 0.009999996500001836 0.0 3.7598143253826134e-12 0.0 0.01 0.0 3.7598143253826134e-12 0.0 0.009999999999999998 0.009999996500001836 0.0 8.383695095163764e-13 0.0 0.01 0.0 8.383695095163764e-13 0.0 0.009999999999999998 0.009999996500001836 0.0 6.831084415942494e-14 0.0 0.01 0.0 6.831084418589472e-14 0.0 0.010000000000000002 0.009999997000001351 0.0 9.240392338013409e-11 0.0 0.01 0.0 9.240392338013409e-11 0.0 0.009999999999999998 0.009999996500001837 0.0 6.763040453182378e-11 0.0 0.01 0.0 6.763040450471873e-11 0.0 0.01 0.009999996000002403 0.0 3.7289864121894944e-11 0.0 0.01 0.0 3.728986409478989e-11 0.0 0.01 0.009999995500003037 0.0 1.5259437207467818e-11 0.0 0.01 0.0 1.5259437207467818e-11 0.0 0.010000000000000002 0.00999999500000375 0.0 4.2207425332834326e-12 0.0 0.01 0.0 4.2207425332834326e-12 0.0 0.009999999999999998 0.009999994500004536 0.0 6.207838878312914e-13 0.0 0.01 0.0 6.207838876195332e-13 0.0 0.009999999999999998 0.00999999500000376 0.0 2.5467576994769175e-10 0.0 0.01 0.0 2.5467576994769175e-10 0.0 0.009999999500000047 0.009999994000005404 0.0 1.8551003295357374e-10 0.0 0.01 0.0 1.8551003300778385e-10 0.0 0.010000000000000002 0.00999999300000735 0.0 1.0265563721886632e-10 0.0 0.01 0.0 1.0265563724597138e-10 0.0 0.010000000000000002 0.00999999300000735 0.0 4.319706764055291e-11 0.0 0.01 0.0 4.319706764055291e-11 0.0 0.01 0.009999992500008437 0.0 1.3100705260470514e-11 0.0 0.01 0.0 1.3100705257082382e-11 0.0 0.009999999999999997 0.009999992500008437 0.0 2.44747409628755e-12 0.0 0.01 0.0 2.4474740967110663e-12 0.0 0.009999999999999998 0.009999992500008489 0.0 5.725764128236208e-10 0.0 0.01 0.0 5.725764128236208e-10 0.0 0.009999999500000089 0.00999999150001086 0.0 4.0828244946130784e-10 0.0 0.01 0.0 4.0828244940709774e-10 0.0 0.010000000000000024 0.009999991000012157 0.0 2.2223739493641703e-10 0.0 0.01 0.0 2.2223739504483725e-10 0.0 0.010000000000000009 0.009999990000014997 0.0 9.339159492678748e-11 0.0 0.01 0.0 9.339159491323495e-11 0.0 0.009999999999999998 0.009999990000015002 0.0 2.927637428342647e-11 0.0 0.01 0.0 2.927637428342647e-11 0.0 0.01000000050000004 0.009999989500016538 0.0 6.069734895835957e-12 0.0 0.01 0.0 6.06973489668299e-12 0.0 0.01000000050000004 0.009999989500016697 0.0 1.0384686088479866e-09 0.0 0.01 0.0 1.0384686086311462e-09 0.0 0.009999999000000311 0.009999987500023516 0.0 7.257416890756388e-10 0.0 0.01 0.0 7.25741689184059e-10 0.0 0.010000000000000077 0.009999986500027362 0.0 3.8601961834276374e-10 0.0 0.01 0.0 3.8601961834276374e-10 0.0 0.010000000000000026 0.009999986000029402 0.0 1.5953037194483145e-10 0.0 0.01 0.0 1.5953037194483145e-10 0.0 0.010000000500000038 0.0099999860000294 0.0 5.0044742418294767e-11 0.0 0.01 0.0 5.004474240474224e-11 0.0 0.01000000100000015 0.0099999860000294 0.0 1.0737622560201391e-11 0.0 0.01 0.0 1.0737622561895457e-11 0.0 0.01000000100000015 0.009999984000038747 0.0 1.513518240424394e-09 0.0 0.01 0.0 1.513518240424394e-09 0.0 0.009999999000000493 0.00999998300004351 0.0 1.0407331961287056e-09 0.0 0.01 0.0 1.0407331961287056e-09 0.0 0.01000000000000016 0.009999982500045983 0.0 5.406989211833441e-10 0.0 0.01 0.0 5.40698921129134e-10 0.0 0.010000000500000083 0.009999980500057045 0.0 2.176862109217999e-10 0.0 0.01 0.0 2.1768621089469486e-10 0.0 0.010000001000000156 0.009999980500057036 0.0 6.681795909076844e-11 0.0 0.01 0.0 6.681795909076844e-11 0.0 0.010000001450000316 0.009999980500057036 0.0 1.4129583788561261e-11 0.0 0.01 0.0 1.4129583790255327e-11 0.0 0.010000001000000149 0.00999997750007641 0.0 1.7690870293208052e-09 0.0 0.01 0.0 1.7690870293208052e-09 0.0 0.01000000000000047 0.009999976500083056 0.0 1.2051708921188148e-09 0.0 0.01 0.0 1.2051708921188148e-09 0.0 0.010000000500000253 0.009999975000093808 0.0 6.105613931648747e-10 0.0 0.01 0.0 6.105613931377697e-10 0.0 0.01000000145000037 0.009999974000101408 0.0 2.3707094477082823e-10 0.0 0.01 0.0 2.3707094477082823e-10 0.0 0.010000001950000578 0.009999973500105336 0.0 6.961985362394316e-11 0.0 0.01 0.0 6.961985362394316e-11 0.0 0.010000001950000571 0.0099999720001176 0.0 1.3816347514043845e-11 0.0 0.01 0.0 1.3816347514043845e-11 0.0 0.010000001950000571 0.009999970000135423 0.0 1.6725646872269712e-09 0.0 0.01 0.0 1.672564687118551e-09 0.0 0.010000001450000734 0.009999967000163538 0.0 1.1257483412802603e-09 0.0 0.01 0.0 1.1257483412802603e-09 0.0 0.010000002450001091 0.009999965500178584 0.0 5.52067487346675e-10 0.0 0.01 0.0 5.5206748731957e-10 0.0 0.010000002950001353 0.00999996450018904 0.0 2.0326570128134137e-10 0.0 0.01 0.0 2.0326570128134137e-10 0.0 0.01000000340000174 0.00999996300020535 0.0 5.532691115688916e-11 0.0 0.01 0.0 5.532691115350103e-11 0.0 0.010000003400001737 0.009999963000205352 0.0 9.607556428875406e-12 0.0 0.01 0.0 9.607556428875406e-12 0.0 0.010000002950001306 0.009999957000277592 0.0 1.2771701051340206e-09 0.0 0.01 0.0 1.2771701051882307e-09 0.0 0.010000004400003147 0.009999954000317501 0.0 8.361252952753927e-10 0.0 0.01 0.0 8.361252953024978e-10 0.0 0.010000004900003705 0.009999952500338456 0.0 3.896043759420327e-10 0.0 0.01 0.0 3.896043759420327e-10 0.0 0.010000005850005154 0.009999951500352839 0.0 1.3203629530190606e-10 0.0 0.01 0.0 1.3203629529851793e-10 0.0 0.010000005850005137 0.009999951000360146 0.0 3.149232130447195e-11 0.0 0.01 0.0 3.149232130447195e-11 0.0 0.010000005350004292 0.009999950500367534 0.0 4.182272020637069e-12 0.0 0.01 0.0 4.182272020742948e-12 0.0 0.010000004900003604 0.009999940000540082 0.0 7.546532476883101e-10 0.0 0.01 0.0 7.546532476747575e-10 0.0 0.010000008300010422 0.00999993700059538 0.0 4.689787370297863e-10 0.0 0.01 0.0 4.689787370433388e-10 0.0 0.01000000830001037 0.009999935500624032 0.0 2.0005297857059135e-10 0.0 0.01 0.0 2.0005297856720322e-10 0.0 0.010000008800011619 0.009999934000653393 0.0 5.915655800230093e-11 0.0 0.01 0.0 5.915655800060686e-11 0.0 0.010000008300010335 0.00999993350066333 0.0 1.0977380779964119e-11 0.0 0.01 0.0 1.0977380779964119e-11 0.0 0.010000006850007034 0.009999933000673342 0.0 7.857148519756089e-13 0.0 0.01 0.0 7.857148519756089e-13 0.0 0.010000006350006049 0.009999916501045838 0.0 3.0614144674038146e-10 0.0 0.01 0.0 3.061414467471577e-10 0.0 0.010000013200026149 0.009999914001109387 0.0 1.7208947578718293e-10 0.0 0.01 0.0 1.7208947579057106e-10 0.0 0.010000013200026138 0.009999912501148421 0.0 6.322150565632863e-11 0.0 0.01 0.0 6.322150565717566e-11 0.0 0.010000012700024192 0.00999991150117482 0.0 1.4211941910788925e-11 0.0 0.01 0.0 1.4211941910577167e-11 0.0 0.010000012700024194 0.009999910001214985 0.0 1.4170194552665588e-12 0.0 0.01 0.0 1.4170194552136193e-12 0.0 0.010000010750017338 0.009999910001214982 0.0 2.7120054144609884e-16 0.0 0.01 0.0 2.7120054144609884e-16 0.0 0.010000008300010334 0.009999885001983712 0.0 5.946713412410771e-11 0.0 0.01 0.0 5.946713412326068e-11 0.0 0.010000019050054433 0.009999883502035801 0.0 2.8225851271289267e-11 0.0 0.01 0.0 2.8225851271289267e-11 0.0 0.010000017600046464 0.009999882502070899 0.0 7.301900081682381e-12 0.0 0.01 0.0 7.301900081576502e-12 0.0 0.010000017600046467 0.009999881502106298 0.0 6.154878461518764e-13 0.0 0.01 0.0 6.154878461518764e-13 0.0 0.010000016100038884 0.009999881502106296 0.0 -8.960192251123189e-16 0.0 0.01 0.0 -8.960192251123189e-16 0.0 0.010000014150030033 0.009999882002088558 0.0 3.4111996644665525e-16 0.0 0.01 0.0 3.4111996644665525e-16 0.0 0.010000012200022326 0.009999844503626946 0.0 9.861859952565554e-13 0.0 0.01 0.0 9.861859952565554e-13 0.0 0.01000002635010415 0.009999843003697257 0.0 1.4039881301576106e-13 0.0 0.01 0.0 1.4039881301576106e-13 0.0 0.010000024900093005 0.009999843003697254 0.0 -2.9918767156267553e-14 0.0 0.01 0.0 -2.9918767156267553e-14 0.0 0.010000023450082485 0.009999842503720843 0.0 -1.046495972259728e-14 0.0 0.01 0.0 -1.0464959722493883e-14 0.0 0.010000021950072274 0.00999984250372084 0.0 -1.3550948566009526e-15 0.0 0.01 0.0 -1.3550948566009526e-15 0.0 0.010000018550051615 0.009999843503673741 0.0 8.049904866145715e-16 0.0 0.01 0.0 8.049904866145715e-16 0.0 0.010000015600036504 0.00999979150652061 0.0 -9.56838849937656e-14 0.0 0.01 0.0 -9.568388499293842e-14 0.0 0.010000037100206461 0.009999791006551923 0.0 -8.923651854907785e-14 0.0 0.01 0.0 -8.923651854907785e-14 0.0 0.010000033700170358 0.009999790506583308 0.0 -4.76662345356882e-14 0.0 0.01 0.0 -4.76662345356882e-14 0.0 0.010000031250146485 0.009999791506520611 0.0 -1.6636692309757513e-14 0.0 0.01 0.0 -1.6636692309550718e-14 0.0 0.010000029300128775 0.009999792506458216 0.0 -2.4156678853672783e-15 0.0 0.01 0.0 -2.4156678853672783e-15 0.0 0.010000024900093003 0.00999979400636518 0.0 7.114598071328424e-16 0.0 0.01 0.0 7.114598071328424e-16 0.0 0.01000002100006615 0.009999722011592063 0.0 -1.389110507735969e-13 0.0 0.01 0.0 -1.3891105077525126e-13 0.0 0.010000051750401714 0.009999722511550402 0.0 -1.360452386461792e-13 0.0 0.01 0.0 -1.360452386461792e-13 0.0 0.010000045400309176 0.009999723011508818 0.0 -7.376181386333998e-14 0.0 0.01 0.0 -7.376181386333998e-14 0.0 0.010000041000252152 0.009999725011343233 0.0 -2.5769714283570266e-14 0.0 0.01 0.0 -2.5769714283466868e-14 0.0 0.010000038100217745 0.0099997280110971 0.0 -4.80156664950533e-15 0.0 0.01 0.0 -4.80156664950533e-15 0.0 0.010000032700160396 0.009999731510813353 0.0 7.435414927651499e-16 0.0 0.01 0.0 7.435414927651499e-16 0.0 0.010000025900100622 0.009999630020533735 0.0 -1.9044145173306877e-13 0.0 0.01 0.0 -1.9044145173224159e-13 0.0 0.010000069350721424 0.009999632020312356 0.0 -2.036775572065219e-13 0.0 0.01 0.0 -2.036775572065219e-13 0.0 0.010000058100506349 0.00999963551992783 0.0 -1.1686913288032673e-13 0.0 0.01 0.0 -1.1686913288032673e-13 0.0 0.010000053200424542 0.009999640519384878 0.0 -4.268875342322575e-14 0.0 0.01 0.0 -4.268875342343255e-14 0.0 0.01000004980037201 0.009999646518743235 0.0 -8.814134664960635e-15 0.0 0.01 0.0 -8.814134664934785e-15 0.0 0.010000042000264603 0.009999651518216779 0.0 5.625386372331904e-16 0.0 0.01 0.0 5.625386372331904e-16 0.0 0.010000033700170356 0.009999510535938604 0.0 -2.2540635063354427e-13 0.0 0.01 0.0 -2.2540635063354427e-13 0.0 0.010000092301277913 0.009999517034990532 0.0 -3.070780484102316e-13 0.0 0.01 0.0 -3.070780484094044e-13 0.0 0.010000074700837023 0.009999525533769869 0.0 -1.897193550180873e-13 0.0 0.01 0.0 -1.8971935501726012e-13 0.0 0.010000067400681423 0.00999953403257087 0.0 -7.417829600689325e-14 0.0 0.01 0.0 -7.417829600689325e-14 0.0 0.010000063000595359 0.00999954403118803 0.0 -1.8474493561147144e-14 0.0 0.01 0.0 -1.8474493561147144e-14 0.0 0.01000005420044065 0.009999552030103352 0.0 -2.5856714912426387e-15 0.0 0.01 0.0 -2.5856714912426387e-15 0.0 0.010000043950289743 0.009999361561145831 0.0 -2.440367064755426e-13 0.0 0.01 0.0 -2.4403670647678335e-13 0.0 0.010000117702078034 0.00999937355886919 0.0 -4.875309031110612e-13 0.0 0.01 0.0 -4.875309031118884e-13 0.0 0.010000092751290402 0.009999387056359593 0.0 -3.3216813545516623e-13 0.0 0.01 0.0 -3.3216813545516623e-13 0.0 0.01000008495108249 0.009999402553545606 0.0 -1.4242018301369772e-13 0.0 0.01 0.0 -1.424201830141113e-13 0.0 0.010000081550997573 0.009999417550890996 0.0 -4.531328895356658e-14 0.0 0.01 0.0 -4.531328895366998e-14 0.0 0.010000071300762562 0.009999431548474245 0.0 -1.236421641387067e-14 0.0 0.01 0.0 -1.236421641384482e-14 0.0 0.010000058100506347 0.009999178101338718 0.0 -2.6269495096294243e-13 0.0 0.01 0.0 -2.6269495096294243e-13 0.0 0.010000147453261308 0.009999199096227304 0.0 -8.543982034160377e-13 0.0 0.01 0.0 -8.543982034160377e-13 0.0 0.010000112801908613 0.009999222090780828 0.0 -6.325690668049208e-13 0.0 0.01 0.0 -6.325690668049208e-13 0.0 0.010000108401762615 0.009999245585379802 0.0 -2.934370744617582e-13 0.0 0.01 0.0 -2.934370744621718e-13 0.0 0.010000108901778914 0.009999268080363798 0.0 -1.0514081799557247e-13 0.0 0.01 0.0 -1.0514081799557247e-13 0.0 0.010000097151415742 0.0099992875761394 0.0 -3.9538553503110724e-14 0.0 0.01 0.0 -3.9538553503110724e-14 0.0 0.01000007960095044 0.009998970159107686 0.0 -3.781879374494976e-13 0.0 0.01 0.0 -3.78187937449084e-13 0.0 0.010000177254712774 0.009999001149675231 0.0 -1.7148305385195972e-12 0.0 0.01 0.0 -1.714830538522906e-12 0.0 0.010000136252784673 0.009999034139950866 0.0 -1.3472987451332702e-12 0.0 0.01 0.0 -1.3472987451349245e-12 0.0 0.010000144053112637 0.009999067130553051 0.0 -6.428329809100521e-13 0.0 0.01 0.0 -6.428329809083977e-13 0.0 0.010000151853458851 0.009999098621887022 0.0 -2.3658198538903884e-13 0.0 0.01 0.0 -2.3658198538945243e-13 0.0 0.010000136702803095 0.009999126114564714 0.0 -9.689818535399611e-14 0.0 0.01 0.0 -9.689818535399611e-14 0.0 0.010000113751940898 0.009998750734138778 0.0 -1.0554477519933678e-12 0.0 0.01 0.0 -1.0554477519925406e-12 0.0 0.010000209456580623 0.00999879371830244 0.0 -3.944647519362397e-12 0.0 0.01 0.0 -3.944647519362397e-12 0.0 0.010000170904381147 0.009998838702323173 0.0 -3.142638066675655e-12 0.0 0.01 0.0 -3.142638066675655e-12 0.0 0.010000206556399657 0.009998881187789127 0.0 -1.4859162732421653e-12 0.0 0.01 0.0 -1.4859162732421653e-12 0.0 0.010000225107600786 0.009998922674119674 0.0 -5.170782614058709e-13 0.0 0.01 0.0 -5.170782614058709e-13 0.0 0.01000020410624874 0.009998957163148992 0.0 -1.8682519798112756e-13 0.0 0.01 0.0 -1.8682519798112756e-13 0.0 0.010000168454256431 0.00999855481334505 0.0 -3.399225821685207e-12 0.0 0.01 0.0 -3.3992258216885156e-12 0.0 0.010000249509337927 0.009998606791208705 0.0 -9.707405105690398e-12 0.0 0.01 0.0 -9.707405105677163e-12 0.0 0.010000233908206703 0.009998660269279865 0.0 -7.724230883447169e-12 0.0 0.01 0.0 -7.724230883447169e-12 0.0 0.010000318365202815 0.009998712748595094 0.0 -3.5360176173941574e-12 0.0 0.01 0.0 -3.536017617397466e-12 0.0 0.010000351568539198 0.009998761230220612 0.0 -1.0809668489788506e-12 0.0 0.01 0.0 -1.0809668489780234e-12 0.0 0.01000031691506464 0.009998804214519638 0.0 -2.823957836063317e-13 0.0 0.01 0.0 -2.823957836059181e-13 0.0 0.010000258810047048 0.009998425871759984 0.0 -9.68069232213657e-12 0.0 0.01 0.0 -9.680692322129952e-12 0.0 0.01000032471581537 0.0099984828453336 0.0 -2.348351754512933e-11 0.0 0.01 0.0 -2.348351754512933e-11 0.0 0.01000035986942497 0.009998540819443335 0.0 -1.8606066221295724e-11 0.0 0.01 0.0 -1.8606066221295724e-11 0.0 0.010000509788980073 0.009998596295613229 0.0 -8.304400360525242e-12 0.0 0.01 0.0 -8.30440036053186e-12 0.0 0.010000555246241334 0.009998650773111111 0.0 -2.2388002897537322e-12 0.0 0.01 0.0 -2.2388002897553866e-12 0.0 0.010000497587136479 0.009998698254225438 0.0 -2.815938927417135e-13 0.0 0.01 0.0 -2.815938927419203e-13 0.0 0.010000401874224137 0.009998424372468567 0.0 -2.3332236051789814e-11 0.0 0.01 0.0 -2.333223605180305e-11 0.0 0.010000496136920336 0.009998475848526483 0.0 -5.2126518853300726e-11 0.0 0.01 0.0 -5.2126518853247786e-11 0.0 0.010000612356242436 0.009998530823835228 0.0 -4.100720085884755e-11 0.0 0.01 0.0 -4.100720085884755e-11 0.0 0.010000809648318947 0.009998583800899805 0.0 -1.8102422508378674e-11 0.0 0.01 0.0 -1.810242250839191e-11 0.0 0.010000864362055351 0.00999863427982969 0.0 -4.487194665546339e-12 0.0 0.01 0.0 -4.487194665546339e-12 0.0 0.010000774990082137 0.009998681260906795 0.0 -6.608422840640415e-14 0.0 0.01 0.0 -6.608422840645585e-14 0.0 0.010000621157870773 0.009998606791208705 0.0 -4.694268092928509e-11 0.0 0.01 0.0 -4.694268092933803e-11 0.0 0.010000892219394111 0.009998644775544793 0.0 -9.98800682809098e-11 0.0 0.01 0.0 -9.988006828085686e-11 0.0 0.010001069971701424 0.00999868375991881 0.0 -7.829729476751973e-11 0.0 0.01 0.0 -7.829729476757266e-11 0.0 0.010001255136265517 0.009998722744748832 0.0 -3.4855942164716495e-11 0.0 0.01 0.0 -3.4855942164663555e-11 0.0 0.01000130495539185 0.009998761230220612 0.0 -8.355760742193484e-12 0.0 0.01 0.0 -8.355760742186867e-12 0.0 0.010001165753815613 0.009998801715417305 0.0 4.786639869110936e-13 0.0 0.01 0.0 4.786639869110936e-13 0.0 0.010000930779936567 0.009999008647436473 0.0 -7.812191753255622e-11 0.0 0.01 0.0 -7.812191753255622e-11 0.0 0.010001754361559706 0.009999022643302597 0.0 -1.6022708752767217e-10 0.0 0.01 0.0 -1.6022708752767217e-10 0.0 0.0100019244053579 0.009999036639227483 0.0 -1.263118649355714e-10 0.0 0.01 0.0 -1.2631186493567728e-10 0.0 0.01000195467296263 0.009999052634642175 0.0 -5.696037099606233e-11 0.0 0.01 0.0 -5.696037099606233e-11 0.0 0.010001897039677424 0.009999072629018495 0.0 -1.3814657140849027e-11 0.0 0.01 0.0 -1.381465714084241e-11 0.0 0.010001674270383353 0.009999096122563935 0.0 1.1247833588941451e-12 0.0 0.01 0.0 1.1247833588941451e-12 0.0 0.010001334717172945 0.00999961902177277 0.0 -1.0470646235243682e-10 0.0 0.01 0.0 -1.0470646235243682e-10 0.0 0.010003320503129237 0.009999605023402216 0.0 -2.1210373856813365e-10 0.0 0.01 0.0 -2.1210373856823952e-10 0.0 0.01000339672988261 0.009999590525151824 0.0 -1.6803679964378665e-10 0.0 0.01 0.0 -1.6803679964378665e-10 0.0 0.010003003802882915 0.009999578526647469 0.0 -7.708876866398615e-11 0.0 0.01 0.0 -7.708876866398615e-11 0.0 0.01000266461464743 0.009999573027347409 0.0 -1.9270559357829177e-11 0.0 0.01 0.0 -1.9270559357842412e-11 0.0 0.010002288385266466 0.00999957502709183 0.0 1.41303674164023e-12 0.0 0.01 0.0 1.41303674164023e-12 0.0 0.010001815444256039 0.010000372570820319 0.0 -1.1059450894684332e-10 0.0 0.01 0.0 -1.1059450894681685e-10 0.0 0.010005347536365445 0.01000033156648973 0.0 -2.2356977068209964e-10 0.0 0.01 0.0 -2.2356977068215258e-10 0.0 0.010005301563007354 0.010000291012702773 0.0 -1.7897993535486705e-10 0.0 0.01 0.0 -1.7897993535481412e-10 0.0 0.01000430452774957 0.010000253909670192 0.0 -8.381231309233086e-11 0.0 0.01 0.0 -8.381231309233086e-11 0.0 0.010003541930902886 0.010000224607567061 0.0 -2.1981826025705328e-11 0.0 0.01 0.0 -2.1981826025705328e-11 0.0 0.010002961264844266 0.010000204106248732 0.0 1.014267545667003e-12 0.0 0.01 0.0 1.0142675456661759e-12 0.0 0.010002335768117107 0.010001149598206027 0.0 -9.48009746405429e-11 0.0 0.01 0.0 -9.48009746405429e-11 0.0 0.010007038173416045 0.010001090978509155 0.0 -1.857174690869305e-10 0.0 0.01 0.0 -1.8571746908698343e-10 0.0 0.010006977997076899 0.01000103140954891 0.0 -1.51008672659848e-10 0.0 0.01 0.0 -1.5100867265990095e-10 0.0 0.010005500635221815 0.010000978193510665 0.0 -7.231125073002961e-11 0.0 0.01 0.0 -7.231125073000314e-11 0.0 0.010004378373845867 0.010000931780215981 0.0 -1.9907346905364062e-11 0.0 0.01 0.0 -1.9907346905377297e-11 0.0 0.010003610354257914 0.010000893669782577 0.0 2.9527624998905297e-13 0.0 0.01 0.0 2.9527624998946656e-13 0.0 0.010002839609049156 0.01000180223709173 0.0 -7.171363048732663e-11 0.0 0.01 0.0 -7.171363048732663e-11 0.0 0.010007963602754497 0.010001740704402308 0.0 -1.2659530720185473e-10 0.0 0.01 0.0 -1.2659530720190767e-10 0.0 0.010008025751574409 0.010001676671589896 0.0 -1.025358251406313e-10 0.0 0.01 0.0 -1.025358251406313e-10 0.0 0.010006366424547539 0.010001617092163505 0.0 -4.986537648744789e-11 0.0 0.01 0.0 -4.986537648747436e-11 0.0 0.010005059987932257 0.010001562866306334 0.0 -1.4171339477670533e-11 0.0 0.01 0.0 -1.417133947767715e-11 0.0 0.010004168154579334 0.01000151449398434 0.0 -2.1971857906523423e-13 0.0 0.01 0.0 -2.1971857906523423e-13 0.0 0.010003279462526053 0.010002218037735534 0.0 -4.1059405467573765e-11 0.0 0.01 0.0 -4.1059405467573765e-11 0.0 0.010008342477940609 0.010002163301778765 0.0 -7.299696316041203e-11 0.0 0.01 0.0 -7.299696316041203e-11 0.0 0.010008532859040258 0.010002106615487399 0.0 -5.7774055114223994e-11 0.0 0.01 0.0 -5.7774055114223994e-11 0.0 0.010006891868135623 0.01000204993015981 0.0 -2.7839373749863728e-11 0.0 0.01 0.0 -2.7839373749850493e-11 0.0 0.010005547112156614 0.010001996697861183 0.0 -7.884876265177793e-12 0.0 0.01 0.0 -7.88487626518441e-12 0.0 0.010004594965116442 0.010001945367521017 0.0 -3.0347079328651347e-13 0.0 0.01 0.0 -3.034707932860999e-13 0.0 0.01000362306804257 0.010002359234635659 0.0 -1.3748856966825647e-11 0.0 0.01 0.0 -1.3748856966828956e-11 0.0 0.01000845796849625 0.010002317705514898 0.0 -3.161709790405528e-11 0.0 0.01 0.0 -3.161709790405528e-11 0.0 0.010008755635763977 0.010002273224897842 0.0 -2.5061448131950686e-11 0.0 0.01 0.0 -2.5061448131950686e-11 0.0 0.010007188393527983 0.010002224842268273 0.0 -1.1737190402589938e-11 0.0 0.01 0.0 -1.1737190402596555e-11 0.0 0.010005865506592137 0.010002176510373457 0.0 -3.2099559553083442e-12 0.0 0.01 0.0 -3.20995595530669e-12 0.0 0.010004888332033729 0.010002126678221724 0.0 -1.8104733382484987e-13 0.0 0.01 0.0 -1.8104733382505666e-13 0.0 0.01000386158562542 0.010002278628585685 0.0 9.737504483116818e-14 0.0 0.01 0.0 9.737504483116818e-14 0.0 0.010008471703316186 0.010002249308680893 0.0 -8.020867425246165e-12 0.0 0.01 0.0 -8.020867425246165e-12 0.0 0.010008844219211367 0.010002216086438264 0.0 -6.894861988095414e-12 0.0 0.01 0.0 -6.894861988095414e-12 0.0 0.01000734498440159 0.010002178911941752 0.0 -3.1450094970955248e-12 0.0 0.01 0.0 -3.1450094970955248e-12 0.0 0.010006053342009536 0.010002134983528624 0.0 -8.133154649326855e-13 0.0 0.01 0.0 -8.133154649322719e-13 0.0 0.010005065846822172 0.01000208950472209 0.0 -6.98898355486948e-14 0.0 0.01 0.0 -6.98898355486431e-14 0.0 0.010004007307490615 0.01000207244407569 0.0 2.451609229896983e-12 0.0 0.01 0.0 2.451609229896983e-12 0.0 0.01000846187840274 0.01000205338228371 0.0 1.4739295375991386e-13 0.0 0.01 0.0 1.4739295375986216e-13 0.0 0.010008869185429545 0.010002029917917765 0.0 -3.560016296050056e-13 0.0 0.01 0.0 -3.5600162960510897e-13 0.0 0.010007411080483683 0.010001999149329952 0.0 -1.814304472398629e-13 0.0 0.01 0.0 -1.814304472398629e-13 0.0 0.01000614090197356 0.010001962977841061 0.0 -4.417193588394971e-14 0.0 0.01 0.0 -4.417193588394971e-14 0.0 0.010005149474834437 0.01000192145365578 0.0 -2.0722054419262817e-14 0.0 0.01 0.0 -2.0722054419262817e-14 0.0 0.010004075239783989 0.010001836956037178 0.0 4.61693965432613e-13 0.0 0.01 0.0 4.61693965432613e-13 0.0 0.010008451151234362 0.010001824699307658 0.0 1.9605489906267891e-13 0.0 0.01 0.0 1.9605489906267891e-13 0.0 0.010008858456951453 0.010001807640016258 0.0 -1.823661361695696e-14 0.0 0.01 0.0 -1.823661361695696e-14 0.0 0.010007412533710212 0.01000178172606907 0.0 -6.018715268465097e-14 0.0 0.01 0.0 -6.018715268465097e-14 0.0 0.010006150219130214 0.010001750459509025 0.0 -2.4551732290589092e-14 0.0 0.01 0.0 -2.4551732290589092e-14 0.0 0.010005160742241897 0.010001713340229642 0.0 3.591392014287283e-15 0.0 0.01 0.0 3.591392014287283e-15 0.0 0.010004084551171539 0.010001629798349837 0.0 -1.8109635204084668e-12 0.0 0.01 0.0 -1.8109635204084668e-12 0.0 0.01000845064996566 0.010001620493814943 0.0 -3.1894827684267126e-12 0.0 0.01 0.0 -3.1894827684258854e-12 0.0 0.010008830031664608 0.010001605386507144 0.0 -2.5865721775144065e-12 0.0 0.01 0.0 -2.5865721775152337e-12 0.0 0.010007364076463647 0.01000158337598255 0.0 -1.2506849023503175e-12 0.0 0.01 0.0 -1.2506849023503175e-12 0.0 0.010006096871246662 0.010001555062657787 0.0 -3.2728070741356524e-13 0.0 0.01 0.0 -3.2728070741335844e-13 0.0 0.010005111816931055 0.010001520346647818 0.0 1.901391836216213e-14 0.0 0.01 0.0 1.901391836216213e-14 0.0 0.0100040444523167 0.010001460770015028 0.0 -4.6740215131373665e-12 0.0 0.01 0.0 -4.6740215131373665e-12 0.0 0.01000833019727902 0.010001451465951869 0.0 -9.192419261000224e-12 0.0 0.01 0.0 -9.19241926099857e-12 0.0 0.010008686104168007 0.010001436809603963 0.0 -7.361712347454858e-12 0.0 0.01 0.0 -7.361712347454858e-12 0.0 0.010007229532370371 0.010001416300829395 0.0 -3.4771069521287713e-12 0.0 0.01 0.0 -3.4771069521304256e-12 0.0 0.010005976553612596 0.010001388939319284 0.0 -9.176499532420736e-13 0.0 0.01 0.0 -9.176499532420736e-13 0.0 0.010005006206808236 0.010001357226259475 0.0 1.6620994036581683e-14 0.0 0.01 0.0 1.6620994036581683e-14 0.0 0.01000395940028679 0.010001307856528573 0.0 -9.57325278527284e-12 0.0 0.01 0.0 -9.573252785276149e-12 0.0 0.010008081586259631 0.01000129760252216 0.0 -1.8301636036554266e-11 0.0 0.01 0.0 -1.8301636036554266e-11 0.0 0.010008421777015265 0.010001282946850668 0.0 -1.4524736839583267e-11 0.0 0.01 0.0 -1.4524736839586576e-11 0.0 0.01000700345038345 0.010001260488284562 0.0 -6.863605605472992e-12 0.0 0.01 0.0 -6.863605605472992e-12 0.0 0.010005787720782073 0.010001233628238255 0.0 -1.8486261627230417e-12 0.0 0.01 0.0 -1.8486261627230417e-12 0.0 0.010004846771403206 0.010001202366818137 0.0 -3.120135394186063e-14 0.0 0.01 0.0 -3.120135394186063e-14 0.0 0.010003832752373092 0.010001147647534004 0.0 -1.6681704806149845e-11 0.0 0.01 0.0 -1.6681704806153154e-11 0.0 0.010007715971253118 0.01000113544335547 0.0 -3.003975591348065e-11 0.0 0.01 0.0 -3.003975591348065e-11 0.0 0.010008042391616238 0.010001116386920143 0.0 -2.3599192072180608e-11 0.0 0.01 0.0 -2.3599192072180608e-11 0.0 0.010006693714879503 0.01000109197883663 0.0 -1.1169120422985302e-11 0.0 0.01 0.0 -1.116912042299192e-11 0.0 0.010005536344274637 0.010001062669365932 0.0 -3.0560979686212104e-12 0.0 0.01 0.0 -3.0560979686228647e-12 0.0 0.010004637524000735 0.010001028008498496 0.0 -9.731651263081877e-14 0.0 0.01 0.0 -9.731651263081877e-14 0.0 0.010003664112875057 0.010000967440373027 0.0 -2.4712138211348102e-11 0.0 0.01 0.0 -2.4712138211348102e-11 0.0 0.010007252031172361 0.010000949335168478 0.0 -4.2605153185239094e-11 0.0 0.01 0.0 -4.260515318522586e-11 0.0 0.010007567681811397 0.010000925428446822 0.0 -3.3148072597240334e-11 0.0 0.01 0.0 -3.31480725972271e-11 0.0 0.01000631016771125 0.010000896120440389 0.0 -1.5642275978584093e-11 0.0 0.01 0.0 -1.5642275978597328e-11 0.0 0.010005228197250688 0.010000860961175358 0.0 -4.297022053602881e-12 0.0 0.01 0.0 -4.297022053602881e-12 0.0 0.010004380326408907 0.010000822351428162 0.0 -1.6208379978069074e-13 0.0 0.01 0.0 -1.6208379978048394e-13 0.0 0.010003459794698978 0.0100007774406527 0.0 -3.1634288740421585e-11 0.0 0.01 0.0 -3.163428874043482e-11 0.0 0.010006715258152438 0.010000752534937804 0.0 -5.3704832794660863e-11 0.0 0.01 0.0 -5.37048327946741e-11 0.0 0.010007014223002797 0.010000720277812548 0.0 -4.114004039990987e-11 0.0 0.01 0.0 -4.114004039992311e-11 0.0 0.010005866508352973 0.010000680719500547 0.0 -1.9228433664479163e-11 0.0 0.01 0.0 -1.9228433664479163e-11 0.0 0.01000487416130272 0.01000063776100568 0.0 -5.219126923879663e-12 0.0 0.01 0.0 -5.219126923876354e-12 0.0 0.01000408650356255 0.01000059235262809 0.0 -1.79385550929837e-13 0.0 0.01 0.0 -1.793855509297336e-13 0.0 0.010003226661029605 0.010000606005081875 0.0 -3.59515314319076e-11 0.0 0.01 0.0 -3.59515314319076e-11 0.0 0.010006130633094495 0.010000568898543151 0.0 -7.361022652055792e-11 0.0 0.01 0.0 -7.361022652058439e-11 0.0 0.010006410458832963 0.010000523991182139 0.0 -4.895801961635247e-11 0.0 0.01 0.0 -4.895801961637894e-11 0.0 0.010005382292244168 0.010000471733377756 0.0 -2.1002766800608042e-11 0.0 0.01 0.0 -2.1002766800608042e-11 0.0 0.010004486417386112 0.010000416526022649 0.0 -5.592274129394556e-12 0.0 0.01 0.0 -5.592274129391247e-12 0.0 0.010003765325584345 0.010000363769848314 0.0 -1.8150501805371047e-13 0.0 0.01 0.0 -1.8150501805371047e-13 0.0 0.010002972024414528 0.010000477084139222 0.0 -3.609053444480509e-11 0.0 0.01 0.0 -3.609053444480509e-11 0.0 0.010005524124022785 0.010000425327133973 0.0 -4.95648552411198e-10 0.0 0.01 0.0 -4.956485524110921e-10 0.0 0.01000578822165081 0.010000362819744793 0.0 -4.097474021067866e-10 0.0 0.01 0.0 -4.097474021066807e-10 0.0 0.010004877115619789 0.010000294463005762 0.0 -1.4692743781130057e-10 0.0 0.01 0.0 -1.4692743781140645e-10 0.0 0.010004082098169073 0.010000226557699029 0.0 -1.646701862600793e-11 0.0 0.01 0.0 -1.646701862600793e-11 0.0 0.010003430964920639 0.010000164554061618 0.0 -1.7514774162249412e-13 0.0 0.01 0.0 -1.7514774162249412e-13 0.0 0.010002708600079862 0.010000401874224138 0.0 -1.5889836199123846e-11 0.0 0.01 0.0 -1.588983619911723e-11 0.0 0.010004916223012339 0.010000332066540184 0.0 -2.1440484393704534e-09 0.0 0.01 0.0 -2.1440484393704534e-09 0.0 0.010005166601309508 0.010000251959522847 0.0 -2.045688696176244e-09 0.0 0.01 0.0 -2.045688696175397e-09 0.0 0.010004375419971245 0.010000166004133655 0.0 -9.639298644132048e-10 0.0 0.01 0.0 -9.639298644127813e-10 0.0 0.010003679279569185 0.0100000849510825 0.0 -2.361508782088066e-10 0.0 0.01 0.0 -2.3615087820870073e-10 0.0 0.010003099590523869 0.010000012700024194 0.0 -1.992245801217277e-11 0.0 0.01 0.0 -1.992245801217277e-11 0.0 0.010002449149456232 0.010000372570820346 0.0 4.2242431001284595e-10 0.0 0.01 0.0 4.224243100126342e-10 0.0 0.010004318245477031 0.010000282711992667 0.0 -5.297193431770872e-09 0.0 0.01 0.0 -5.297193431770872e-09 0.0 0.010004566125526611 0.010000186055196921 0.0 -5.520691991128476e-09 0.0 0.01 0.0 -5.520691991125088e-09 0.0 0.010003898278306398 0.010000085951109338 0.0 -2.845153811448242e-09 0.0 0.01 0.0 -2.845153811448242e-09 0.0 0.010003295578411214 0.0099999920000097 0.0 -8.142397067669811e-10 0.0 0.01 0.0 -8.142397067669811e-10 0.0 0.010002783862051945 0.009999912001161583 0.0 -1.0178737569784214e-10 0.0 0.01 0.0 -1.0178737569789508e-10 0.0 0.010002202877686779 0.010000369170442412 0.0 1.627288289211781e-09 0.0 0.01 0.0 1.627288289211781e-09 0.0 0.01000373599260408 0.010000259310096866 0.0 -8.548290267894126e-09 0.0 0.01 0.0 -8.548290267890738e-09 0.0 0.010004004854555928 0.010000146953253635 0.0 -9.803655918525617e-09 0.0 0.01 0.0 -9.803655918529005e-09 0.0 0.010003464199284811 0.010000037100210373 0.0 -5.104587811888679e-09 0.0 0.01 0.0 -5.104587811888679e-09 0.0 0.01000294414969631 0.009999937500586187 0.0 -1.3102710960289526e-09 0.0 0.01 0.0 -1.3102710960289526e-09 0.0 0.010002494082757388 0.00999985300324127 0.0 -4.111832104292867e-11 0.0 0.01 0.0 -4.111832104295514e-11 0.0 0.010001980087957017 0.010000389172717793 0.0 2.1067720892399506e-09 0.0 0.01 0.0 2.1067720892416447e-09 0.0 0.010003183669718472 0.01000024270884637 0.0 -8.376571463238535e-09 0.0 0.01 0.0 -8.376571463238535e-09 0.0 0.010003494030395027 0.010000112301911897 0.0 -1.1596949078022608e-08 0.0 0.01 0.0 -1.1596949078022608e-08 0.0 0.010003085877828968 0.009999999000004913 0.0 -5.634987192907058e-09 0.0 0.01 0.0 -5.634987192907058e-09 0.0 0.010002636292143876 0.009999904001382402 0.0 -3.893041783101584e-10 0.0 0.01 0.0 -3.8930417831037017e-10 0.0 0.010002238551442617 0.009999824504620013 0.0 8.607037562036239e-10 0.0 0.01 0.0 8.607037562044709e-10 0.0 0.010001786628692388 0.010000450230407023 0.0 -4.27052327845278e-09 0.0 0.01 0.0 -4.27052327845278e-09 0.0 0.010002660711534014 0.010000233408171903 0.0 -1.2926347147743173e-09 0.0 0.01 0.0 -1.2926347147734703e-09 0.0 0.010003037032975613 0.01000007180077953 0.0 -6.448432985375435e-09 0.0 0.01 0.0 -6.448432985372047e-09 0.0 0.010002769199851842 0.009999958000265085 0.0 -1.8033638534307455e-09 0.0 0.01 0.0 -1.8033638534298985e-09 0.0 0.010002373394683529 0.009999877502252844 0.0 3.611057639492127e-09 0.0 0.01 0.0 3.611057639488739e-09 0.0 0.010002016709905779 0.009999813505219205 0.0 3.6779864626358867e-09 0.0 0.01 0.0 3.6779864626324986e-09 0.0 0.010001621494303347 0.010000563997832843 0.0 -2.8571920148047622e-08 0.0 0.01 0.0 -2.8571920148074727e-08 0.0 0.010002176510495907 0.010000238308532174 0.0 9.593591390883707e-09 0.0 0.01 0.0 9.593591390883707e-09 0.0 0.010002634340610852 0.010000031750159875 0.0 7.602370738021987e-09 0.0 0.01 0.0 7.60237073801521e-09 0.0 0.010002509744515222 0.009999913501132081 0.0 8.065733441758253e-09 0.0 0.01 0.0 8.065733441758253e-09 0.0 0.010002157948319976 0.009999853003261915 0.0 1.17333373988055e-08 0.0 0.01 0.0 1.17333373988055e-08 0.0 0.010001828601465876 0.009999815505119225 0.0 9.432325058882887e-09 0.0 0.01 0.0 9.432325058876111e-09 0.0 0.010001484230388939 0.010000250509429839 0.0 1.0619893911824622e-08 0.0 0.01 0.0 1.0619893911824622e-08 0.0 0.010002262467599294 0.010000006350105846 0.0 2.5798205206386334e-08 0.0 0.01 0.0 2.5798205206386334e-08 0.0 0.010002284482690565 0.009999880002243257 0.0 2.356896873433284e-08 0.0 0.01 0.0 2.356896873433284e-08 0.0 0.010001985441223315 0.009999839003971847 0.0 2.3639095552747567e-08 0.0 0.01 0.0 2.3639095552747567e-08 0.0 0.01000166986825968 0.00999982600459257 0.0 1.849497804289979e-08 0.0 0.01 0.0 1.849497804288624e-08 0.0 0.010001368430890518 0.010000279311720874 0.0 -1.1272384715176162e-08 0.0 0.01 0.0 -1.1272384715176162e-08 0.0 0.010001890686087995 0.010000018050247212 0.0 3.6368181680507825e-08 0.0 0.01 0.0 3.636818168048072e-08 0.0 0.010002055333684165 0.009999880502397107 0.0 4.1245149830416604e-08 0.0 0.01 0.0 4.1245149830416604e-08 0.0 0.010001847211957824 0.009999842503934857 0.0 3.7776759083824876e-08 0.0 0.01 0.0 3.7776759083770666e-08 0.0 0.010001543307410142 0.009999851503444877 0.0 3.0237820763744745e-08 0.0 0.01 0.0 3.0237820763744745e-08 0.0 0.010001270742313974 0.010000083001120222 0.0 2.4066271069901873e-08 0.0 0.01 0.0 2.4066271069874768e-08 0.0 0.010001803237719532 0.009999934001073513 0.0 5.2928541132172754e-08 0.0 0.01 0.0 5.2928541132172754e-08 0.0 0.010001719693920413 0.009999880002565253 0.0 5.198550553605404e-08 0.0 0.01 0.0 5.198550553610825e-08 0.0 0.010001451466357269 0.009999892002027829 0.0 4.3074299540721804e-08 0.0 0.01 0.0 4.3074299540776014e-08 0.0 0.010001191113056978 0.010000208006562442 0.0 -2.200435546205709e-08 0.0 0.01 0.0 -2.2004355462084194e-08 0.0 0.010001537454564911 0.010000056150774001 0.0 4.480594293390606e-08 0.0 0.01 0.0 4.480594293390606e-08 0.0 0.01000157752350957 0.009999970500698426 0.0 6.1535419732786e-08 0.0 0.01 0.0 6.1535419732786e-08 0.0 0.010001385038264303 0.009999956500737817 0.0 5.5018213409240794e-08 0.0 0.01 0.0 5.5018213409349214e-08 0.0 0.01000113644415036 0.010000223157469689 0.0 4.0157734874266164e-10 0.0 0.01 0.0 4.015773487418146e-10 0.0 0.010001422153320515 0.01000012450275452 0.0 5.3510725586789105e-08 0.0 0.01 0.0 5.3510725586734895e-08 0.0 0.010001323513136044 0.010000072251368234 0.0 6.246596939392998e-08 0.0 0.01 0.0 6.246596939392998e-08 0.0 0.010001106634253928 0.010000315464936517 0.0 7.929003433874656e-09 0.0 0.01 0.0 7.929003433874656e-09 0.0 0.010001250734620867 0.01000025976055225 0.0 5.362595777180269e-08 0.0 0.01 0.0 5.362595777180269e-08 0.0 0.010001077824662084 0.01000048588641219 0.0 -8.172850503610982e-08 0.0 0.01 0.0 -8.172850503610982e-08 0.0 0.010001176008418398 0.010000464382354487 0.0 7.68040295134908e-09 0.0 0.01 0.0 7.680402951321975e-09 0.0 0.010001043113198917 0.009999999500000037 0.0 2.474977267694377e-18 0.0 0.01 0.0 2.474977267694377e-18 0.0 0.01 0.009999999500000037 0.0 -1.8385964996254285e-11 0.0 0.01 0.0 -1.8385964996254285e-11 0.0 0.01 0.009999999500000037 0.0 -1.704210699652807e-11 0.0 0.01 0.0 -1.704210699652807e-11 0.0 0.01 0.009999999500000037 0.0 -2.889173299411398e-12 0.0 0.01 0.0 -2.889173299411398e-12 0.0 0.01 0.009999999500000037 0.0 1.0618693997836687e-12 0.0 0.01 0.0 1.0618693997836687e-12 0.0 0.01 0.009999999500000037 0.0 1.7637704996406726e-12 0.0 0.01 0.0 1.7637704996406726e-12 0.0 0.01 0.009999999500000037 0.0 -9.384925598088037e-12 0.0 0.01 0.0 -9.384925598088037e-12 0.0 0.01 0.009999999500000037 0.0 -2.8201266994254646e-12 0.0 0.01 0.0 -2.8201266994254646e-12 0.0 0.01 0.009999999500000037 0.0 2.3324416995248193e-12 0.0 0.01 0.0 2.3324416995248193e-12 0.0 0.01 0.009999999500000037 0.0 -2.7457469994406176e-11 0.0 0.01 0.0 -2.7457469994406176e-11 0.0 0.01 0.009999999500000037 0.0 -2.7731250456861625e-18 0.0 0.01 0.0 -2.7731250456861625e-18 0.0 0.01 0.009999999500000037 0.0 -7.682994298434769e-12 0.0 0.01 0.0 -7.682994298434769e-12 0.0 0.01 0.009999999500000037 0.0 -2.2013220995515315e-13 0.0 0.01 0.0 -2.2013220995515315e-13 0.0 0.01 0.009999999500000037 0.0 1.905767999611744e-12 0.0 0.01 0.0 1.905767999611744e-12 0.0 0.01 0.009999999500000037 0.0 2.6318256994638267e-12 0.0 0.01 0.0 2.6318256994638267e-12 0.0 0.01 0.009999999500000037 0.0 -6.750835798624673e-12 0.0 0.01 0.0 -6.750835798624673e-12 0.0 0.01 0.009999999500000037 0.0 -7.53995009846391e-12 0.0 0.01 0.0 -7.53995009846391e-12 0.0 0.01 0.009999999500000037 0.0 -1.6037363996732761e-12 0.0 0.01 0.0 -1.6037363996732761e-12 0.0 0.01 0.00999999900000015 0.0 -3.3442980989530813e-18 0.0 0.01 0.0 -3.3442980989530813e-18 0.0 0.01 0.00999999900000015 0.0 -1.0646201997831084e-11 0.0 0.01 0.0 -1.0646201997831084e-11 0.0 0.01 0.00999999900000015 0.0 2.5870651994729452e-12 0.0 0.01 0.0 2.5870651994729452e-12 0.0 0.01 0.00999999900000015 0.0 -7.1275059985479364e-12 0.0 0.01 0.0 -7.1275059985479364e-12 0.0 0.01 0.00999999900000015 0.0 -3.740854199237887e-12 0.0 0.01 0.0 -3.740854199237887e-12 0.0 0.01 0.00999999900000015 0.0 -4.014238899182192e-13 0.0 0.01 0.0 -4.014238899182192e-13 0.0 0.01 0.00999999900000015 0.0 2.9600592493969564e-12 0.0 0.01 0.0 2.9600592493969564e-12 0.0 0.01 0.00999999900000015 0.0 -2.030823949586267e-12 0.0 0.01 0.0 -2.030823949586267e-12 0.0 0.01 0.00999999900000015 0.0 -2.1651033495589104e-12 0.0 0.01 0.0 -2.1651033495589104e-12 0.0 0.01 0.009999998500000338 0.0 -8.000779665036694e-12 0.0 0.01 0.0 -8.000779665036694e-12 0.0 0.01 0.009999998500000338 0.0 -3.192341866016301e-12 0.0 0.01 0.0 -3.192341866016301e-12 0.0 0.01 0.009999998500000338 0.0 2.2318448662119803e-13 0.0 0.01 0.0 2.2318448662119803e-13 0.0 0.01 0.009999998500000338 0.0 -1.9569679329346467e-12 0.0 0.01 0.0 -1.9569679329346467e-12 0.0 0.01 0.009999998500000338 0.0 -4.411794332434532e-12 0.0 0.01 0.0 -4.411794332434532e-12 0.0 0.01 0.009999998500000338 0.0 3.3331250326542865e-13 0.0 0.01 0.0 3.3331250326542865e-13 0.0 0.01 0.009999998500000338 0.0 -1.9183314996091846e-12 0.0 0.01 0.0 -1.9183314996091846e-12 0.0 0.01 0.009999998500000338 0.0 -1.8842980329494513e-12 0.0 0.01 0.0 -1.8842980329494513e-12 0.0 0.01 0.009999998500000338 0.0 -2.936753566068371e-13 0.0 0.01 0.0 -2.936753566068371e-13 0.0 0.01 0.009999998500000338 0.0 -5.919111665723256e-18 0.0 0.01 0.0 -5.919111665723256e-18 0.0 0.01 0.0099999980000006 0.0 5.967799498784199e-12 0.0 0.01 0.0 5.967799498784199e-12 0.0 0.01 0.0099999980000006 0.0 -3.1220182493639614e-12 0.0 0.01 0.0 -3.1220182493639614e-12 0.0 0.01 0.009999997500000938 0.0 -3.11786380049908e-12 0.0 0.01 0.0 -3.11786380049908e-12 0.0 0.01 0.009999997500000938 0.0 -2.548925000408009e-12 0.0 0.01 0.0 -2.548925000408009e-12 0.0 0.01 0.009999997500000938 0.0 -1.6042150202567884e-12 0.0 0.01 0.0 -1.6042150202567884e-12 0.0 0.01 0.009999997500000938 0.0 6.041967000967145e-13 0.0 0.01 0.0 6.041967000967145e-13 0.0 0.01 0.009999997500000938 0.0 5.5848342008939705e-14 0.0 0.01 0.0 5.5848342008939705e-14 0.0 0.01 0.009999997500000938 0.0 -3.6475044005838596e-13 0.0 0.01 0.0 -3.6475044005838596e-13 0.0 0.01 0.009999997000001351 0.0 9.010722000896008e-13 0.0 0.01 0.0 9.010722000896008e-13 0.0 0.01 0.009999997000001351 0.0 6.1162851672748585e-12 0.0 0.01 0.0 6.1162851672748585e-12 0.0 0.01 0.009999997000001351 0.0 3.3321418494398277e-18 0.0 0.01 0.0 3.3321418494398277e-18 0.0 0.01 0.009999997000001351 0.0 4.261558667090428e-13 0.0 0.01 0.0 4.261558667090428e-13 0.0 0.01 0.009999997000001351 0.0 -9.073486500902249e-13 0.0 0.01 0.0 -9.073486500902249e-13 0.0 0.01 0.009999997000001351 0.0 2.1415916668796226e-12 0.0 0.01 0.0 2.1415916668796226e-12 0.0 0.01 0.009999997000001351 0.0 2.6352093335953735e-12 0.0 0.01 0.0 2.6352093335953735e-12 0.0 0.01 0.009999996500001837 0.0 9.687526143400891e-13 0.0 0.01 0.0 9.687526143400891e-13 0.0 0.01 0.009999996500001837 0.0 -8.274780000464455e-14 0.0 0.01 0.0 -8.274780000464455e-14 0.0 0.01 0.009999996500001837 0.0 -2.5440610652015393e-18 0.0 0.01 0.0 -2.5440610652015393e-18 0.0 0.01 0.009999996500001837 0.0 3.4137314586250234e-18 0.0 0.01 0.0 3.4137314586250234e-18 0.0 0.01 0.0099999960000024 0.0 4.003026399292038e-18 0.0 0.01 0.0 4.003026399292038e-18 0.0 0.01 0.0099999960000024 0.0 3.6617228750865885e-12 0.0 0.01 0.0 3.6617228750865885e-12 0.0 0.01 0.0099999960000024 0.0 2.371249375056073e-13 0.0 0.01 0.0 2.371249375056073e-13 0.0 0.01 0.009999995500003037 0.0 1.4468404444421052e-12 0.0 0.01 0.0 1.4468404444421052e-12 0.0 0.01 0.009999995500003037 0.0 6.575562666656036e-13 0.0 0.01 0.0 6.575562666656036e-13 0.0 0.01 0.009999995500003037 0.0 5.556265666657683e-13 0.0 0.01 0.0 5.556265666657683e-13 0.0 0.01 0.009999995500003037 0.0 -5.739112777768498e-13 0.0 0.01 0.0 -5.739112777768498e-13 0.0 0.01 0.009999994000005404 0.0 1.6721567451048406e-14 0.0 0.01 0.0 1.6721567451048406e-14 0.0 0.010000000000000004 0.0099999940000054 0.0 -9.169922499521839e-13 0.0 0.01 0.0 -9.169922499521839e-13 0.0 0.01 0.0099999940000054 0.0 4.718826552675497e-18 0.0 0.01 0.0 4.718826552675497e-18 0.0 0.01 0.0099999940000054 0.0 8.225052249571111e-13 0.0 0.01 0.0 8.225052249571111e-13 0.0 0.01 0.0099999940000054 0.0 5.999910666353805e-13 0.0 0.01 0.0 5.999910666353805e-13 0.0 0.01 0.0099999940000054 0.0 1.234258916602307e-12 0.0 0.01 0.0 1.234258916602307e-12 0.0 0.01 0.0099999940000054 0.0 2.5935391665314285e-12 0.0 0.01 0.0 2.5935391665314285e-12 0.0 0.01 0.009999993500006337 0.0 2.5971541536804436e-13 0.0 0.01 0.0 2.5971541536804436e-13 0.0 0.01 0.009999993500006337 0.0 8.591726153297962e-13 0.0 0.01 0.0 8.591726153297962e-13 0.0 0.01 0.00999999250000844 0.0 1.6952333931070258e-13 0.0 0.01 0.0 1.6952333931070258e-13 0.0 0.010000000000000004 0.009999992000009601 0.0 1.4767946775962967e-17 0.0 0.01 0.0 1.4767946775962967e-17 0.0 0.01 0.009999992000009601 0.0 6.495790205349542e-18 0.0 0.01 0.0 6.495790205349542e-18 0.0 0.01 0.009999992000009601 0.0 2.217287125052432e-13 0.0 0.01 0.0 2.217287125052432e-13 0.0 0.01 0.009999992000009601 0.0 9.979453125235983e-14 0.0 0.01 0.0 9.979453125235983e-14 0.0 0.01 0.009999991500010838 0.0 7.688281176549562e-13 0.0 0.01 0.0 7.688281176549562e-13 0.0 0.01 0.009999991500010838 0.0 1.0144084705986552e-12 0.0 0.01 0.0 1.0144084705986552e-12 0.0 0.01 0.009999991500010838 0.0 8.556170000087889e-13 0.0 0.01 0.0 8.556170000087889e-13 0.0 0.01 0.009999991500010838 0.0 2.602545823556145e-13 0.0 0.01 0.0 2.602545823556145e-13 0.0 0.01 0.009999989500016538 0.0 5.788132317589658e-13 0.0 0.01 0.0 5.788132318648449e-13 0.0 0.010000000500000036 0.009999989500016538 0.0 2.363256055206704e-15 0.0 0.01 0.0 2.363256055206704e-15 0.0 0.010000000500000038 0.009999989500016538 0.0 2.904291575442914e-18 0.0 0.01 0.0 2.904291575442914e-18 0.0 0.01 0.009999989500016538 0.0 2.499612463287214e-18 0.0 0.01 0.0 2.499612463287214e-18 0.0 0.01 0.009999989500016538 0.0 -1.1265521428227947e-12 0.0 0.01 0.0 -1.1265521428227947e-12 0.0 0.01 0.009999989500016538 0.0 -7.836927618808674e-13 0.0 0.01 0.0 -7.836927618808674e-13 0.0 0.01 0.009999989500016538 0.0 1.4674179523362113e-12 0.0 0.01 0.0 1.4674179523362113e-12 0.0 0.01 0.009999989500016538 0.0 7.077097618831841e-13 0.0 0.01 0.0 7.077097618831841e-13 0.0 0.01 0.009999989500016538 0.0 8.412817618791114e-13 0.0 0.01 0.0 8.412817618791114e-13 0.0 0.01 0.009999985000033752 0.0 1.148996401101591e-12 0.0 0.01 0.0 1.148996401101591e-12 0.0 0.010000000500000038 0.00999998450003604 0.0 1.1687681203222288e-14 0.0 0.01 0.0 1.1687681203222288e-14 0.0 0.010000000500000042 0.009999984500036037 0.0 6.492219892685165e-18 0.0 0.01 0.0 6.492219892685165e-18 0.0 0.010000000500000038 0.009999984500036037 0.0 -9.825789240963292e-13 0.0 0.01 0.0 -9.825789240963292e-13 0.0 0.010000000500000038 0.009999984500036037 0.0 -3.854442538472591e-18 0.0 0.01 0.0 -3.854442538472591e-18 0.0 0.01 0.009999984500036037 0.0 -3.0452878199789246e-18 0.0 0.01 0.0 -3.0452878199789246e-18 0.0 0.01 0.009999984500036037 0.0 2.864261032178737e-13 0.0 0.01 0.0 2.864261032178737e-13 0.0 0.01 0.009999984500036037 0.0 3.5296980644183724e-13 0.0 0.01 0.0 3.5296980644183724e-13 0.0 0.01 0.009999984500036037 0.0 6.830745806262432e-13 0.0 0.01 0.0 6.830745806262432e-13 0.0 0.01 0.009999979500063037 0.0 1.4962889231769623e-12 0.0 0.01 0.0 1.4962889231769623e-12 0.0 0.010000001000000147 0.00999997950006304 0.0 1.5058759954190743e-14 0.0 0.01 0.0 1.5058759953363563e-14 0.0 0.010000001000000154 0.009999979500063037 0.0 8.324200028257134e-18 0.0 0.01 0.0 8.324200028257134e-18 0.0 0.010000000500000038 0.00999997900006615 0.0 9.248226562418132e-18 0.0 0.01 0.0 9.248226562418132e-18 0.0 0.010000000500000038 0.00999997900006615 0.0 -2.270669067802884e-18 0.0 0.01 0.0 -2.270669067802884e-18 0.0 0.010000000500000038 0.00999997900006615 0.0 8.164820873420885e-13 0.0 0.01 0.0 8.164820873420885e-13 0.0 0.010000000500000038 0.00999997900006615 0.0 5.471247142927282e-13 0.0 0.01 0.0 5.471247142927282e-13 0.0 0.01 0.00999997900006615 0.0 6.00488000007698e-13 0.0 0.01 0.0 6.00488000007698e-13 0.0 0.01 0.00999997900006615 0.0 6.274879523889965e-13 0.0 0.01 0.0 6.274879523889965e-13 0.0 0.01 0.009999972000117598 0.0 1.2765335619582836e-12 0.0 0.01 0.0 1.2765335619582836e-12 0.0 0.01000000195000057 0.009999972000117603 0.0 5.095791862120845e-15 0.0 0.01 0.0 5.095791862120845e-15 0.0 0.010000001000000154 0.0099999720001176 0.0 5.588199867897833e-18 0.0 0.01 0.0 5.588199867897833e-18 0.0 0.01000000100000015 0.0099999720001176 0.0 -2.3185628098206523e-18 0.0 0.01 0.0 -2.3185628098206523e-18 0.0 0.01000000100000015 0.0099999720001176 0.0 -7.565597395731029e-13 0.0 0.01 0.0 -7.565597395731029e-13 0.0 0.010000000500000038 0.0099999720001176 0.0 2.6261731669788426e-18 0.0 0.01 0.0 2.6261731669788426e-18 0.0 0.010000000500000038 0.0099999720001176 0.0 7.032815088396688e-13 0.0 0.01 0.0 7.032815088396688e-13 0.0 0.010000000500000038 0.009999971500121838 0.0 4.152894957632795e-18 0.0 0.01 0.0 4.152894957632795e-18 0.0 0.010000000500000038 0.009999971500121838 0.0 2.3130916614531516e-18 0.0 0.01 0.0 2.3130916614531516e-18 0.0 0.01 0.009999963000205348 0.0 6.307847309829862e-13 0.0 0.01 0.0 6.307847309829862e-13 0.0 0.010000002450000904 0.009999962500210936 0.0 7.455384743939428e-17 0.0 0.01 0.0 7.455384743939428e-17 0.0 0.01000000195000057 0.009999962000216599 0.0 1.4845340610041802e-17 0.0 0.01 0.0 1.4845340610041802e-17 0.0 0.010000001450000314 0.009999962000216599 0.0 -1.0478991841954231e-17 0.0 0.01 0.0 -1.0478991841954231e-17 0.0 0.01000000100000015 0.009999961500222337 0.0 -1.2802438986179715e-17 0.0 0.01 0.0 -1.2802438986179715e-17 0.0 0.01000000100000015 0.009999961500222337 0.0 -4.005274420328345e-18 0.0 0.01 0.0 -4.005274420328345e-18 0.0 0.01000000100000015 0.009999961500222337 0.0 5.0357247963710975e-18 0.0 0.01 0.0 5.0357247963710975e-18 0.0 0.010000000500000038 0.009999961500222337 0.0 6.181899263204789e-18 0.0 0.01 0.0 6.181899263204789e-18 0.0 0.010000000500000038 0.009999961500222337 0.0 4.3791125266749e-13 0.0 0.01 0.0 4.3791125266749e-13 0.0 0.010000000500000038 0.009999949000390147 0.0 1.0453622861350187e-13 0.0 0.01 0.0 1.0453622861350187e-13 0.0 0.010000003400001735 0.009999948500397834 0.0 6.726358015374305e-17 0.0 0.01 0.0 6.726358015374305e-17 0.0 0.010000002950001304 0.009999949000390146 0.0 -3.3052631316150064e-18 0.0 0.01 0.0 -3.3052631316150064e-18 0.0 0.01000000195000057 0.009999949000390146 0.0 -1.6403433311456843e-17 0.0 0.01 0.0 -1.6403433311456843e-17 0.0 0.01000000195000057 0.009999949000390146 0.0 -3.435639632800936e-18 0.0 0.01 0.0 -3.435639632800936e-18 0.0 0.01000000100000015 0.009999949000390146 0.0 -3.935103536849897e-18 0.0 0.01 0.0 -3.935103536849897e-18 0.0 0.01000000100000015 0.009999949000390146 0.0 2.9557217821609656e-18 0.0 0.01 0.0 2.9557217821609656e-18 0.0 0.01000000100000015 0.009999949000390146 0.0 8.668838983869464e-18 0.0 0.01 0.0 8.668838983869464e-18 0.0 0.01000000100000015 0.009999949000390146 0.0 3.1563332275815055e-18 0.0 0.01 0.0 3.1563332275815055e-18 0.0 0.01000000100000015 0.00999993250068343 0.0 2.0168656478073784e-16 0.0 0.01 0.0 2.0168656478073784e-16 0.0 0.010000005350004294 0.00999993200069359 0.0 1.652679159566595e-16 0.0 0.01 0.0 1.652679159566595e-16 0.0 0.010000003900002281 0.00999993250068343 0.0 1.7554897024370482e-17 0.0 0.01 0.0 1.7554897024370482e-17 0.0 0.010000002950001304 0.00999993200069359 0.0 -5.653788985139627e-18 0.0 0.01 0.0 -5.653788985139627e-18 0.0 0.01000000195000057 0.00999993200069359 0.0 -1.1456301997015057e-17 0.0 0.01 0.0 -1.1456301997015057e-17 0.0 0.01000000195000057 0.00999993200069359 0.0 -8.619002961087929e-18 0.0 0.01 0.0 -8.619002961087929e-18 0.0 0.010000001450000314 0.00999993250068343 0.0 2.9059416044495156e-13 0.0 0.01 0.0 2.9059416044495156e-13 0.0 0.01000000100000015 0.009999933000673342 0.0 1.0179941718764333e-17 0.0 0.01 0.0 1.0179941718764333e-17 0.0 0.01000000100000015 0.009999933000673342 0.0 3.718591436005559e-18 0.0 0.01 0.0 3.718591436005559e-18 0.0 0.01000000100000015 0.009999909501228518 0.0 2.9995868378112755e-16 0.0 0.01 0.0 2.9995868378112755e-16 0.0 0.010000006350006049 0.009999910001214982 0.0 2.0479976956101521e-16 0.0 0.01 0.0 2.0479976956101521e-16 0.0 0.010000005350004294 0.00999991050120152 0.0 1.3529740278389105e-17 0.0 0.01 0.0 1.3529740278389105e-17 0.0 0.010000003900002281 0.009999911001188133 0.0 1.1705231914838775e-17 0.0 0.01 0.0 1.1705231914838775e-17 0.0 0.010000002950001304 0.009999911001188133 0.0 -7.486811741080144e-18 0.0 0.01 0.0 -7.486811741080144e-18 0.0 0.01000000195000057 0.00999991150117482 0.0 6.305461139403009e-18 0.0 0.01 0.0 6.305461139403009e-18 0.0 0.01000000195000057 0.009999911001188133 0.0 7.805343581768187e-18 0.0 0.01 0.0 7.805343581768187e-18 0.0 0.01000000195000057 0.009999911001188133 0.0 6.134322441019605e-18 0.0 0.01 0.0 6.134322441019605e-18 0.0 0.010000001450000314 0.009999911001188133 0.0 2.5640953770627317e-18 0.0 0.01 0.0 2.5640953770627317e-18 0.0 0.010000001450000314 0.009999881502106296 0.0 3.8506300381008245e-16 0.0 0.01 0.0 3.8506300381008245e-16 0.0 0.010000008800011615 0.009999881502106296 0.0 1.219085542003458e-16 0.0 0.01 0.0 1.219085542003458e-16 0.0 0.010000006350006049 0.009999882502070897 0.0 1.9353326929574286e-17 0.0 0.01 0.0 1.9353326929574286e-17 0.0 0.010000005350004294 0.00999988300205331 0.0 -2.2894993587784118e-17 0.0 0.01 0.0 -2.2894993587784118e-17 0.0 0.010000003900002281 0.009999883502035798 0.0 -9.944549791144627e-18 0.0 0.01 0.0 -9.944549791144627e-18 0.0 0.010000003400001733 0.009999883502035798 0.0 7.958282354036425e-18 0.0 0.01 0.0 7.958282354036425e-18 0.0 0.0100000024500009 0.009999884502000999 0.0 9.182311602556987e-18 0.0 0.01 0.0 9.182311602556987e-18 0.0 0.01000000195000057 0.009999884502000999 0.0 1.3226152226000921e-17 0.0 0.01 0.0 1.3226152226000921e-17 0.0 0.01000000195000057 0.009999884502000999 0.0 1.1148095620581631e-17 0.0 0.01 0.0 1.1148095620581631e-17 0.0 0.01000000195000057 0.009999843503673741 0.0 4.563280078266965e-16 0.0 0.01 0.0 4.563280078266965e-16 0.0 0.010000012200022326 0.009999844003650305 0.0 1.4639672855449282e-16 0.0 0.01 0.0 1.4639672855449282e-16 0.0 0.010000009300012973 0.009999845503580447 0.0 -7.054843253346527e-17 0.0 0.01 0.0 -7.054843253346527e-17 0.0 0.010000006850007037 0.009999846503534247 0.0 -7.722420389131766e-17 0.0 0.01 0.0 -7.722420389131766e-17 0.0 0.010000005350004294 0.00999984750348835 0.0 -4.567311287519136e-17 0.0 0.01 0.0 -4.567311287519136e-17 0.0 0.010000004400002904 0.009999848003465511 0.0 1.7418088252034654e-17 0.0 0.01 0.0 1.7418088252034654e-17 0.0 0.010000003400001733 0.00999984850344275 0.0 2.372708140469052e-17 0.0 0.01 0.0 2.372708140469052e-17 0.0 0.010000003400001733 0.00999984850344275 0.0 2.6170820617210333e-17 0.0 0.01 0.0 2.6170820617210333e-17 0.0 0.010000003400001733 0.00999984850344275 0.0 5.62558514825779e-18 0.0 0.01 0.0 5.62558514825779e-18 0.0 0.010000002950001304 0.009999796506211626 0.0 6.553547789377016e-16 0.0 0.01 0.0 6.553547789377016e-16 0.0 0.010000015600036504 0.009999798006120393 0.0 1.4840764870894315e-16 0.0 0.01 0.0 1.4840764870894315e-16 0.0 0.010000011250018984 0.009999799506029836 0.0 -1.1833987102846112e-16 0.0 0.01 0.0 -1.1833987102846112e-16 0.0 0.010000009300012973 0.009999801005939953 0.0 -1.3937898776713206e-16 0.0 0.01 0.0 -1.3937898776713206e-16 0.0 0.010000006850007037 0.009999802005880406 0.0 -3.62153886864587e-17 0.0 0.01 0.0 -3.62153886864587e-17 0.0 0.010000005850005133 0.009999802505850744 0.0 5.353138348496231e-18 0.0 0.01 0.0 5.353138348496231e-18 0.0 0.010000004900003601 0.009999803005821158 0.0 3.646622972996292e-17 0.0 0.01 0.0 3.646622972996292e-17 0.0 0.010000004900003601 0.009999804005762211 0.0 3.0144191398633195e-17 0.0 0.01 0.0 3.0144191398633195e-17 0.0 0.010000003900002281 0.009999804005762211 0.0 1.6463299377076452e-17 0.0 0.01 0.0 1.6463299377076452e-17 0.0 0.010000003400001733 0.009999735010533285 0.0 4.568614747338508e-16 0.0 0.01 0.0 4.568614747338508e-16 0.0 0.010000020500063036 0.00999973851025689 0.0 9.798496923528056e-17 0.0 0.01 0.0 9.798496923528056e-17 0.0 0.010000015150034429 0.009999739510178594 0.0 -3.6364694923501245e-16 0.0 0.01 0.0 -3.6364694923501245e-16 0.0 0.010000011250018984 0.00999974200998417 0.0 -2.7467802319592986e-16 0.0 0.01 0.0 -2.7467802319592986e-16 0.0 0.010000009300012973 0.00999974400982998 0.0 -1.4162941278901616e-16 0.0 0.01 0.0 -1.4162941278901616e-16 0.0 0.010000008300010334 0.00999974450979162 0.0 -2.836523596794749e-17 0.0 0.01 0.0 -2.836523596794749e-17 0.0 0.010000007300007994 0.009999745509715125 0.0 -1.465084766178965e-17 0.0 0.01 0.0 -1.465084766178965e-17 0.0 0.010000006350006049 0.009999745509715125 0.0 3.910715397528199e-17 0.0 0.01 0.0 3.910715397528199e-17 0.0 0.010000005350004294 0.00999974600967699 0.0 2.9528648660642526e-17 0.0 0.01 0.0 2.9528648660642526e-17 0.0 0.010000005350004294 0.009999657017646341 0.0 3.0032516517570454e-16 0.0 0.01 0.0 3.0032516517570454e-16 0.0 0.010000025900100622 0.009999662017135634 0.0 -4.892174245366556e-16 0.0 0.01 0.0 -4.892174245366556e-16 0.0 0.01000002000006 0.009999665516782602 0.0 -5.895723922503711e-16 0.0 0.01 0.0 -5.895723922503711e-16 0.0 0.010000016100038882 0.009999668016532685 0.0 -6.238284687502313e-16 0.0 0.01 0.0 -6.238284687502313e-16 0.0 0.010000013200026137 0.009999670016334101 0.0 -2.079517317830728e-16 0.0 0.01 0.0 -2.079517317830728e-16 0.0 0.010000010750017335 0.009999671516185952 0.0 6.412810705977737e-14 0.0 0.01 0.0 6.412810705977737e-14 0.0 0.01000001025001576 0.009999673016038477 0.0 -3.84265199144543e-17 0.0 0.01 0.0 -3.84265199144543e-17 0.0 0.010000008800011615 0.009999674015940534 0.0 -1.313171419726773e-17 0.0 0.01 0.0 -1.313171419726773e-17 0.0 0.010000008800011615 0.009999674515891675 0.0 1.0667247455749574e-17 0.0 0.01 0.0 1.0667247455749574e-17 0.0 0.010000008300010334 0.00999956002903787 0.0 -7.073184960827858e-16 0.0 0.01 0.0 -7.073184960827858e-16 0.0 0.010000034200175447 0.00999956702812132 0.0 -1.791922782845398e-15 0.0 0.01 0.0 -1.791922782845398e-15 0.0 0.010000026850108139 0.009999573027347403 0.0 -1.9215685015416342e-15 0.0 0.01 0.0 -1.9215685015416342e-15 0.0 0.01000002195007227 0.009999575527028124 0.0 -1.2231083226212292e-15 0.0 0.01 0.0 -1.2231083226212292e-15 0.0 0.010000018550051615 0.009999579026584285 0.0 -5.958466615990576e-16 0.0 0.01 0.0 -5.958466615990576e-16 0.0 0.010000016100038882 0.009999581526269506 0.0 -2.775753686950467e-16 0.0 0.01 0.0 -2.775753686950467e-16 0.0 0.010000013650027948 0.009999582526144118 0.0 -5.644525420741451e-17 0.0 0.01 0.0 -5.644525420741451e-17 0.0 0.010000011700020532 0.0099995840259566 0.0 3.2470855322144127e-18 0.0 0.01 0.0 3.2470855322144127e-18 0.0 0.010000011700020532 0.0099995840259566 0.0 4.624222107521912e-17 0.0 0.01 0.0 4.624222107521912e-17 0.0 0.010000010750017335 0.009999443546449532 0.0 -6.829445914812204e-15 0.0 0.01 0.0 -6.829445914812204e-15 0.0 0.010000046850329241 0.009999452045041489 0.0 -7.256366005346707e-15 0.0 0.01 0.0 -7.256366005346707e-15 0.0 0.010000038100217745 0.009999460043736067 0.0 -5.522659057970692e-15 0.0 0.01 0.0 -5.522659057970692e-15 0.0 0.010000031250146486 0.00999946404309055 0.0 -3.0007392040024713e-15 0.0 0.01 0.0 -3.0007392040024713e-15 0.0 0.01000002635010415 0.009999468542370084 0.0 -1.3715974724172995e-15 0.0 0.01 0.0 -1.3715974724172995e-15 0.0 0.010000022950079004 0.00999947104197245 0.0 -4.8584662605403375e-16 0.0 0.01 0.0 -4.8584662605403375e-16 0.0 0.01000002000006 0.009999473041655691 0.0 -1.9471150540923588e-17 0.0 0.01 0.0 -1.9471150540923588e-17 0.0 0.01000001805004887 0.009999474041497763 0.0 -5.468985209379159e-17 0.0 0.01 0.0 -5.468985209379159e-17 0.0 0.010000016100038882 0.009999475041340133 0.0 2.2694482401965062e-17 0.0 0.01 0.0 2.2694482401965062e-17 0.0 0.010000015150034429 0.009999302572967456 0.0 -2.5615360105228717e-14 0.0 0.01 0.0 -2.5615360105280415e-14 0.0 0.010000064950632784 0.009999315570273018 0.0 -2.152039637183308e-14 0.0 0.01 0.0 -2.152039637183308e-14 0.0 0.010000051250393986 0.009999324568437334 0.0 -1.5943967919895275e-14 0.0 0.01 0.0 -1.5943967919869426e-14 0.0 0.01000004345028319 0.009999332066926152 0.0 -8.650341388907418e-15 0.0 0.01 0.0 -8.650341388907418e-15 0.0 0.010000037100206464 0.009999337065928066 0.0 -3.593753484092951e-15 0.0 0.01 0.0 -3.593753484092951e-15 0.0 0.010000032700160394 0.009999341065134996 0.0 -1.1790949418863651e-15 0.0 0.01 0.0 -1.1790949418863651e-15 0.0 0.010000028800124417 0.009999343564641765 0.0 -3.120566196000913e-16 0.0 0.01 0.0 -3.120566196000913e-16 0.0 0.010000025400096774 0.00999934556424853 0.0 -8.059792986689959e-17 0.0 0.01 0.0 -8.059792986689959e-17 0.0 0.010000022950079004 0.009999346064150408 0.0 1.240644102509673e-17 0.0 0.01 0.0 1.240644102509673e-17 0.0 0.01000002100006615 0.009999147109125837 0.0 -6.561146386356422e-14 0.0 0.01 0.0 -6.561146386356422e-14 0.0 0.010000090801236714 0.009999163105070695 0.0 -5.6436566930962734e-14 0.0 0.01 0.0 -5.6436566930859336e-14 0.0 0.010000074700837027 0.009999176101832414 0.0 -4.120358913285404e-14 0.0 0.01 0.0 -4.120358913280234e-14 0.0 0.010000062500585943 0.009999185099620223 0.0 -2.2279479022716928e-14 0.0 0.01 0.0 -2.2279479022716928e-14 0.0 0.010000054200440653 0.009999191598037629 0.0 -9.738233797054609e-15 0.0 0.01 0.0 -9.738233797054609e-15 0.0 0.010000046400322947 0.009999196596828871 0.0 -3.705304708218246e-15 0.0 0.01 0.0 -3.705304708218246e-15 0.0 0.010000039550234633 0.009999199596107214 0.0 -8.55065424069365e-16 0.0 0.01 0.0 -8.55065424069365e-16 0.0 0.010000034650180095 0.009999202095507899 0.0 -3.26442166781585e-16 0.0 0.01 0.0 -3.26442166781585e-16 0.0 0.01000003025013726 0.009999202595388258 0.0 -8.355186995606755e-18 0.0 0.01 0.0 -8.355186995606755e-18 0.0 0.010000028300120135 0.009998985154507613 0.0 -1.2877592908481886e-13 0.0 0.01 0.0 -1.2877592908461206e-13 0.0 0.010000133802685425 0.009999007147882875 0.0 -1.2153198125368427e-13 0.0 0.01 0.0 -1.2153198125389106e-13 0.0 0.010000107401730244 0.009999023143156044 0.0 -9.093364778962879e-14 0.0 0.01 0.0 -9.093364778962879e-14 0.0 0.010000089351197535 0.009999035139661293 0.0 -5.260380166720814e-14 0.0 0.01 0.0 -5.260380166720814e-14 0.0 0.01000007615086984 0.009999044137068562 0.0 -2.441638332214574e-14 0.0 0.01 0.0 -2.441638332214574e-14 0.0 0.010000064450623078 0.009999051135068786 0.0 -9.30110683369669e-15 0.0 0.01 0.0 -9.30110683369669e-15 0.0 0.010000054700448817 0.009999054134216239 0.0 -2.8312542005211093e-15 0.0 0.01 0.0 -2.8312542005211093e-15 0.0 0.01000004685032924 0.00999905713336639 0.0 -5.185646897531294e-16 0.0 0.01 0.0 -5.185646897531294e-16 0.0 0.010000041000252152 0.009999058632942478 0.0 8.832856423017575e-18 0.0 0.01 0.0 8.832856423017575e-18 0.0 0.010000037600212066 0.009998839701974974 0.0 -1.7966740534997307e-13 0.0 0.01 0.0 -1.7966740534997307e-13 0.0 0.010000201656099612 0.009998865693027038 0.0 -1.977091799980675e-13 0.0 0.01 0.0 -1.977091799982743e-13 0.0 0.010000156253662202 0.009998886186114848 0.0 -1.6550916252664072e-13 0.0 0.01 0.0 -1.6550916252664072e-13 0.0 0.010000126002381452 0.009998902180807514 0.0 -1.0093593794615352e-13 0.0 0.01 0.0 -1.0093593794594673e-13 0.0 0.010000105451667986 0.00999891267736629 0.0 -4.927908503134272e-14 0.0 0.01 0.0 -4.927908503134272e-14 0.0 0.010000088401172202 0.009998922174281291 0.0 -1.9263807035622094e-14 0.0 0.01 0.0 -1.9263807035622094e-14 0.0 0.01000007420082586 0.009998927172668471 0.0 -6.010606967664846e-15 0.0 0.01 0.0 -6.010606967664846e-15 0.0 0.010000062500585943 0.00999893017170438 0.0 -1.6425089875223434e-15 0.0 0.01 0.0 -1.6425089875223434e-15 0.0 0.01000005420044065 0.009998932670903031 0.0 -1.5872875726148312e-16 0.0 0.01 0.0 -1.5872875726148312e-16 0.0 0.010000048850357952 0.009998738238846363 0.0 -9.926544875340574e-14 0.0 0.01 0.0 -9.926544875361253e-14 0.0 0.01000030616405989 0.009998769727072967 0.0 -2.300471178820165e-13 0.0 0.01 0.0 -2.300471178820165e-13 0.0 0.0100002300079353 0.00999879571757936 0.0 -2.390013197903277e-13 0.0 0.01 0.0 -2.390013197905345e-13 0.0 0.010000177254712776 0.009998814710769896 0.0 -1.588928047075979e-13 0.0 0.01 0.0 -1.588928047075979e-13 0.0 0.010000142603050289 0.009998828205997361 0.0 -8.149333824512918e-14 0.0 0.01 0.0 -8.149333824512918e-14 0.0 0.010000118152093953 0.009998839202149038 0.0 -3.3405307958947747e-14 0.0 0.01 0.0 -3.3405307958947747e-14 0.0 0.010000097651430355 0.009998846199718988 0.0 -1.151712760085405e-14 0.0 0.01 0.0 -1.151712760085405e-14 0.0 0.01000008055097326 0.009998850198336986 0.0 -2.930863626598953e-15 0.0 0.01 0.0 -2.930863626598953e-15 0.0 0.010000069800730815 0.009998852197647784 0.0 -4.960747695538669e-16 0.0 0.01 0.0 -4.960747695538669e-16 0.0 0.010000061500567344 0.009998723244557304 0.0 2.98449797095916e-13 0.0 0.01 0.0 2.984497970955024e-13 0.0 0.010000463432213426 0.00999875923096438 0.0 -1.1430495509594195e-13 0.0 0.01 0.0 -1.1430495509594195e-13 0.0 0.010000335466879949 0.009998786720842673 0.0 -2.6688833556665286e-13 0.0 0.01 0.0 -2.6688833556665286e-13 0.0 0.010000249009300535 0.009998809712551366 0.0 -2.0543083561005178e-13 0.0 0.01 0.0 -2.0543083561046537e-13 0.0 0.010000192405552843 0.009998825706877046 0.0 -1.1013234619024581e-13 0.0 0.01 0.0 -1.1013234619014241e-13 0.0 0.010000155753638808 0.009998837702671667 0.0 -4.557491252528897e-14 0.0 0.01 0.0 -4.5574912525237274e-14 0.0 0.010000126952417495 0.009998844700238476 0.0 -1.4933884019067715e-14 0.0 0.01 0.0 -1.4933884019067715e-14 0.0 0.010000103501606867 0.009998850198336986 0.0 -4.0453075634671745e-15 0.0 0.01 0.0 -4.0453075634671745e-15 0.0 0.010000086451121057 0.009998853197303632 0.0 -4.893349485276269e-16 0.0 0.01 0.0 -4.893349485276269e-16 0.0 0.010000076650881295 0.009998840201800988 0.0 1.1947430371703196e-12 0.0 0.01 0.0 1.1947430371711468e-12 0.0 0.010000686120607767 0.009998873190483573 0.0 2.530483783998984e-13 0.0 0.01 0.0 2.530483783996916e-13 0.0 0.010000483935126718 0.0099989026806429 0.0 -2.0318585974514293e-13 0.0 0.01 0.0 -2.0318585974472934e-13 0.0 0.010000344267777234 0.009998925173312698 0.0 -2.1595596419594473e-13 0.0 0.01 0.0 -2.1595596419615153e-13 0.0 0.01000025685989621 0.009998941668033695 0.0 -1.2347893358612787e-13 0.0 0.01 0.0 -1.2347893358612787e-13 0.0 0.010000200206012208 0.009998953664245691 0.0 -5.124174644065181e-14 0.0 0.01 0.0 -5.124174644065181e-14 0.0 0.010000160653871366 0.009998962661433025 0.0 -1.600714397289793e-14 0.0 0.01 0.0 -1.600714397289793e-14 0.0 0.010000128902492337 0.009998968159726127 0.0 -3.679086189309417e-15 0.0 0.01 0.0 -3.679086189309417e-15 0.0 0.010000105451667985 0.009998970159107686 0.0 -3.223916812900627e-16 0.0 0.01 0.0 -3.223916812900627e-16 0.0 0.010000091801264105 0.009999123615221005 0.0 2.4698458396593817e-12 0.0 0.01 0.0 2.4698458396577273e-12 0.0 0.01000097769336396 0.009999149608487159 0.0 8.589554403296774e-13 0.0 0.01 0.0 8.589554403288503e-13 0.0 0.010000677318807901 0.009999173602451223 0.0 -3.9591569261830255e-14 0.0 0.01 0.0 -3.9591569261830255e-14 0.0 0.010000466332617886 0.009999193097674216 0.0 -1.873805134244804e-13 0.0 0.01 0.0 -1.873805134244804e-13 0.0 0.010000334966829666 0.00999920909383978 0.0 -1.1851110894374042e-13 0.0 0.01 0.0 -1.1851110894374042e-13 0.0 0.010000253409632141 0.009999219591365155 0.0 -4.816436305946062e-14 0.0 0.01 0.0 -4.816436305946062e-14 0.0 0.010000197755865957 0.009999227589501917 0.0 -1.3594380962686054e-14 0.0 0.01 0.0 -1.3594380962686054e-14 0.0 0.010000157253709233 0.009999232588347137 0.0 -2.8490881486473405e-15 0.0 0.01 0.0 -2.8490881486473405e-15 0.0 0.010000126452398492 0.009999236087543252 0.0 -1.0709845130850172e-16 0.0 0.01 0.0 -1.0709845130850172e-16 0.0 0.010000108901778914 0.009999585025831965 0.0 3.589147344646136e-12 0.0 0.01 0.0 3.589147344646136e-12 0.0 0.01000132446308391 0.009999598024238976 0.0 1.4403420079017468e-12 0.0 0.01 0.0 1.4403420079034012e-12 0.0 0.01000090637321197 0.009999613022463903 0.0 1.4432634977046744e-13 0.0 0.01 0.0 1.4432634977046744e-13 0.0 0.010000608955619527 0.009999625521036224 0.0 -1.3834729947393713e-13 0.0 0.01 0.0 -1.3834729947435072e-13 0.0 0.010000426277255297 0.00999963651981864 0.0 -1.0184422625037307e-13 0.0 0.01 0.0 -1.0184422625016628e-13 0.0 0.010000315464927094 0.009999644518955917 0.0 -3.900647589322888e-14 0.0 0.01 0.0 -3.900647589322888e-14 0.0 0.010000240708690824 0.009999650018373931 0.0 -9.425560975001416e-15 0.0 0.01 0.0 -9.425560975001416e-15 0.0 0.01000018800530177 0.009999654517904506 0.0 -9.271955152388416e-16 0.0 0.01 0.0 -9.271955152388416e-16 0.0 0.010000148953327997 0.009999656017749381 0.0 9.846248062536472e-17 0.0 0.01 0.0 9.846248062536472e-17 0.0 0.010000125002343799 0.010000193855636856 0.0 3.836732871856906e-12 0.0 0.01 0.0 3.836732871856906e-12 0.0 0.010001699633214785 0.0100001909054666 0.0 1.6404687352017916e-12 0.0 0.01 0.0 1.6404687351984829e-12 0.0 0.010001155000072969 0.010000192855578849 0.0 2.352772175357037e-13 0.0 0.01 0.0 2.352772175357037e-13 0.0 0.010000766188047626 0.010000196305780244 0.0 -1.0054842965985161e-13 0.0 0.01 0.0 -1.0054842965985161e-13 0.0 0.010000524441252911 0.010000199705982211 0.0 -8.254334180140995e-14 0.0 0.01 0.0 -8.254334180306431e-14 0.0 0.010000380371701293 0.010000201656099614 0.0 -3.03798363672202e-14 0.0 0.01 0.0 -3.037983636639302e-14 0.0 0.01000028616228286 0.010000204606279386 0.0 -5.842505385691515e-15 0.0 0.01 0.0 -5.842505385691515e-15 0.0 0.010000219757243772 0.010000205556337837 0.0 2.329426085535333e-16 0.0 0.01 0.0 2.329426085535333e-16 0.0 0.010000170904381147 0.01000020605636871 0.0 1.9254125546952482e-16 0.0 0.01 0.0 1.9254125546952482e-16 0.0 0.010000141603007655 0.010000865362314832 0.0 3.0629668311926517e-12 0.0 0.01 0.0 3.0629668311959604e-12 0.0 0.01000206654041193 0.010000847257664671 0.0 1.317029054430771e-12 0.0 0.01 0.0 1.317029054430771e-12 0.0 0.010001399243627628 0.01000083455446055 0.0 1.7164985098767172e-13 0.0 0.01 0.0 1.71649850984363e-13 0.0 0.010000920527089922 0.010000826252392674 0.0 -9.23355181160606e-14 0.0 0.01 0.0 -9.23355181160606e-14 0.0 0.010000623608328254 0.010000821401193908 0.0 -7.005115391281466e-14 0.0 0.01 0.0 -7.005115391281466e-14 0.0 0.010000445829812863 0.010000817950345476 0.0 -2.4032229313198323e-14 0.0 0.01 0.0 -2.4032229313198323e-14 0.0 0.010000331566489724 0.010000815049635058 0.0 -3.755515773726622e-15 0.0 0.01 0.0 -3.755515773726622e-15 0.0 0.010000251459484463 0.01000081259903685 0.0 3.679542805085676e-16 0.0 0.01 0.0 3.679542805085676e-16 0.0 0.010000193355607813 0.010000812098914987 0.0 1.2935732526063322e-16 0.0 0.01 0.0 1.2935732526063322e-16 0.0 0.010000158203754186 0.010001474426025725 0.0 1.8042478274633132e-12 0.0 0.01 0.0 1.8042478274600045e-12 0.0 0.010002386604110085 0.010001442211936306 0.0 7.131673070849243e-13 0.0 0.01 0.0 7.131673070981592e-13 0.0 0.01000161464097565 0.010001418751871428 0.0 2.5627948187198337e-14 0.0 0.01 0.0 2.5627948187405133e-14 0.0 0.01000105876812476 0.010001400194026608 0.0 -1.0097229874837298e-13 0.0 0.01 0.0 -1.0097229874878657e-13 0.0 0.010000712976243024 0.010001387488715329 0.0 -6.049104543894718e-14 0.0 0.01 0.0 -6.049104543894718e-14 0.0 0.010000506888537795 0.010001376734257402 0.0 -1.9900146528024925e-14 0.0 0.01 0.0 -1.9900146528076624e-14 0.0 0.010000374020982708 0.010001370381640414 0.0 -3.4195585171408495e-15 0.0 0.01 0.0 -3.4195585171408495e-15 0.0 0.010000280761823637 0.010001366480039131 0.0 3.7517318846071185e-17 0.0 0.01 0.0 3.7517318846071185e-17 0.0 0.010000213856860018 0.010001364029035533 0.0 1.675979572225637e-16 0.0 0.01 0.0 1.675979572225637e-16 0.0 0.010000173354507664 0.01000189849050311 0.0 7.440774205540136e-13 0.0 0.01 0.0 7.440774205556679e-13 0.0 0.010002638243682319 0.010001857917650469 0.0 2.1380429226202972e-13 0.0 0.01 0.0 2.1380429226202972e-13 0.0 0.010001785127888492 0.010001826200129255 0.0 -8.082234420958647e-14 0.0 0.01 0.0 -8.082234420937967e-14 0.0 0.010001170105339938 0.010001800286037804 0.0 -9.71305182256189e-14 0.0 0.01 0.0 -9.71305182256189e-14 0.0 0.010000787192941155 0.010001781225801804 0.0 -4.971820773112857e-14 0.0 0.01 0.0 -4.971820773107687e-14 0.0 0.010000557646642002 0.010001766568004142 0.0 -1.6348997323343153e-14 0.0 0.01 0.0 -1.6348997323343153e-14 0.0 0.01000041017523518 0.010001757313113894 0.0 -3.0051481353293477e-15 0.0 0.01 0.0 -3.0051481353293477e-15 0.0 0.010000307164151893 0.010001751460034406 0.0 -1.3841032841009872e-16 0.0 0.01 0.0 -1.3841032841009872e-16 0.0 0.010000232408101778 0.010001747057724981 0.0 9.409381402581202e-17 0.0 0.01 0.0 9.409381402581202e-17 0.0 0.0100001865052175 0.01000207874799938 0.0 1.6797243752245417e-13 0.0 0.01 0.0 1.6797243752286776e-13 0.0 0.010002815638726936 0.01000203482090596 0.0 -2.8214904657155227e-14 0.0 0.01 0.0 -2.8214904657155227e-14 0.0 0.010001906294955556 0.010001997198160787 0.0 -1.0071574648295039e-13 0.0 0.01 0.0 -1.0071574648295039e-13 0.0 0.010001250734611437 0.010001967380435605 0.0 -7.300854618824781e-14 0.0 0.01 0.0 -7.300854618824781e-14 0.0 0.010000841906309002 0.01000194491725837 0.0 -3.3957052840221874e-14 0.0 0.01 0.0 -3.3957052840221874e-14 0.0 0.010000597203493545 0.01000192875787257 0.0 -1.1088238212005707e-14 0.0 0.01 0.0 -1.1088238212005707e-14 0.0 0.01000043997903553 0.010001916550834303 0.0 -2.6711449391045247e-15 0.0 0.01 0.0 -2.6711449391045247e-15 0.0 0.010000328116148325 0.010001910197188626 0.0 -3.877727254270813e-16 0.0 0.01 0.0 -3.877727254270813e-16 0.0 0.01000024755919253 0.010001905794669592 0.0 1.9020878167175463e-17 0.0 0.01 0.0 1.9020878167175463e-17 0.0 0.010000197755865954 0.010002043125984038 0.0 -1.980358405376082e-14 0.0 0.01 0.0 -1.980358405376082e-14 0.0 0.010002923131205045 0.010002000099899959 0.0 -6.830068605724799e-14 0.0 0.01 0.0 -6.830068606386543e-14 0.0 0.010001981538818844 0.010001961026693065 0.0 -6.536246648341814e-14 0.0 0.01 0.0 -6.536246648341814e-14 0.0 0.010001301504042832 0.010001930258741017 0.0 -3.9633788419829354e-14 0.0 0.01 0.0 -3.9633788419829354e-14 0.0 0.010000879015886758 0.010001906795241591 0.0 -1.8074747506863556e-14 0.0 0.01 0.0 -1.8074747506863556e-14 0.0 0.010000625058599857 0.010001889685501768 0.0 -6.239906142946277e-15 0.0 0.01 0.0 -6.239906142946277e-15 0.0 0.010000460481804571 0.01000187747860656 0.0 -1.663365044168596e-15 0.0 0.01 0.0 -1.663365044168596e-15 0.0 0.010000343267674097 0.01000187062475466 0.0 -2.0190004845794612e-16 0.0 0.01 0.0 -2.0190004845794612e-16 0.0 0.010000258310008265 0.010001865772035925 0.0 -2.560094669519591e-17 0.0 0.01 0.0 -2.560094669519591e-17 0.0 0.010000205556337837 0.010001878479170057 0.0 -3.1625119561202604e-14 0.0 0.01 0.0 -3.1625119561306e-14 0.0 0.01000297302530655 0.01000183695603718 0.0 -3.320376451285966e-14 0.0 0.01 0.0 -3.320376451244607e-14 0.0 0.01000201771050911 0.010001800286037801 0.0 -2.3910544417720705e-14 0.0 0.01 0.0 -2.3910544417720705e-14 0.0 0.010001328864835336 0.010001770019834651 0.0 -1.3202665406892312e-14 0.0 0.01 0.0 -1.3202665406892312e-14 0.0 0.010000899071234831 0.010001745556939005 0.0 -5.852271623208947e-15 0.0 0.01 0.0 -5.852271623208947e-15 0.0 0.01000064116165797 0.010001728948285984 0.0 -2.0687615861155746e-15 0.0 0.01 0.0 -2.0687615861155746e-15 0.0 0.010000473183583287 0.010001717742494545 0.0 -5.432195457755736e-16 0.0 0.01 0.0 -5.432195457755736e-16 0.0 0.010000353068697745 0.01000171088897102 0.0 -1.2650270261102575e-16 0.0 0.01 0.0 -1.2650270261102575e-16 0.0 0.010000265160546144 0.01000170598645919 0.0 2.2593676621462932e-18 0.0 0.01 0.0 2.2593676621462932e-18 0.0 0.01000021095667522 0.010001673269881137 0.0 7.922043359254499e-15 0.0 0.01 0.0 7.922043359254499e-15 0.0 0.01000298083227464 0.010001634700749632 0.0 2.776121600797298e-15 0.0 0.01 0.0 2.776121600797298e-15 0.0 0.010002023063752485 0.010001599983910375 0.0 -2.624661272395418e-16 0.0 0.01 0.0 -2.624661272395418e-16 0.0 0.010001334266992762 0.010001572170680394 0.0 -7.514620954606248e-16 0.0 0.01 0.0 -7.514620954606248e-16 0.0 0.010000904922817976 0.01000155066060769 0.0 -4.1748852539444926e-16 0.0 0.01 0.0 -4.1748852539444926e-16 0.0 0.010000646562701094 0.010001534052925568 0.0 -1.4762891158706566e-16 0.0 0.01 0.0 -1.4762891158706566e-16 0.0 0.010000477584210823 0.010001523297994835 0.0 -4.550910984485905e-17 0.0 0.01 0.0 -4.550910984485905e-17 0.0 0.010000355969006188 0.010001516444871026 0.0 -1.3670443988310346e-17 0.0 0.01 0.0 -1.3670443988310346e-17 0.0 0.010000268060778101 0.0100015125430988 0.0 -3.2132399130159716e-18 0.0 0.01 0.0 -3.2132399130159716e-18 0.0 0.010000213406831177 0.010001483730152961 0.0 5.70943923320105e-14 0.0 0.01 0.0 5.70943923320622e-14 0.0 0.01000295100575146 0.010001448564690171 0.0 2.248511113116941e-14 0.0 0.01 0.0 2.2485111131221108e-14 0.0 0.010002003551972264 0.01000141680104191 0.0 3.626994646183285e-15 0.0 0.01 0.0 3.626994646183285e-15 0.0 0.010001321561932735 0.010001390890132498 0.0 -7.467468375816005e-16 0.0 0.01 0.0 -7.467468375816005e-16 0.0 0.010000898571099995 0.010001370381640414 0.0 -6.636726586711531e-16 0.0 0.01 0.0 -6.636726586711531e-16 0.0 0.010000641661754187 0.01000135527546596 0.0 -2.9444619262328493e-16 0.0 0.01 0.0 -2.9444619262328493e-16 0.0 0.010000475133860683 0.010001345471495325 0.0 -4.0034082703469746e-17 0.0 0.01 0.0 -4.0034082703469746e-17 0.0 0.010000355018904868 0.010001338668757135 0.0 -2.6450031262844293e-17 0.0 0.01 0.0 -2.6450031262844293e-17 0.0 0.010000267110701839 0.010001335217373215 0.0 -1.2749153596350815e-17 0.0 0.01 0.0 -1.2749153596350815e-17 0.0 0.010000212406767305 0.010001322062131036 0.0 1.1273785282578039e-13 0.0 0.01 0.0 1.12737852825677e-13 0.0 0.010002887950557217 0.010001289299301046 0.0 3.512822108114325e-14 0.0 0.01 0.0 3.512822108114325e-14 0.0 0.010001961026693063 0.010001259037736493 0.0 -3.918725185520616e-15 0.0 0.01 0.0 -3.918725185520616e-15 0.0 0.01000129565176353 0.010001234578590017 0.0 -7.745067650364373e-15 0.0 0.01 0.0 -7.745067650390223e-15 0.0 0.01000088046626948 0.010001215071423913 0.0 -4.097586145228985e-15 0.0 0.01 0.0 -4.097586145228985e-15 0.0 0.0100006289593335 0.01000120136645753 0.0 -1.4955823607747372e-15 0.0 0.01 0.0 -1.4955823607747372e-15 0.0 0.010000466332617888 0.010001192613315056 0.0 -3.1746771005312074e-16 0.0 0.01 0.0 -3.1746771005312074e-16 0.0 0.010000349118281685 0.010001185760870987 0.0 -4.949231246025711e-17 0.0 0.01 0.0 -4.949231246025711e-17 0.0 0.010000262710352148 0.01000118280982277 0.0 8.41472834811699e-18 0.0 0.01 0.0 8.41472834811699e-18 0.0 0.010000208506521065 0.010001168154655921 0.0 1.8304693930024669e-13 0.0 0.01 0.0 1.8304693930024669e-13 0.0 0.010002795121469009 0.010001134943185169 0.0 5.052442467662792e-14 0.0 0.01 0.0 5.052442467683471e-14 0.0 0.010001897489933602 0.010001106133502639 0.0 -1.3609907358807062e-14 0.0 0.01 0.0 -1.3609907358703664e-14 0.0 0.01000125268534378 0.01000108222565651 0.0 -1.5917997638088607e-14 0.0 0.01 0.0 -1.5917997638088607e-14 0.0 0.010000851658786052 0.010001065120147978 0.0 -7.723751368778366e-15 0.0 0.01 0.0 -7.723751368778366e-15 0.0 0.010000610405884756 0.010001050465498484 0.0 -2.492387350680659e-15 0.0 0.01 0.0 -2.492387350680659e-15 0.0 0.010000451680600462 0.010001041662736587 0.0 -5.453566652466646e-16 0.0 0.01 0.0 -5.453566652466646e-16 0.0 0.010000338867223872 0.010001035810913413 0.0 -5.629548768410453e-17 0.0 0.01 0.0 -5.629548768410453e-17 0.0 0.010000254909746516 0.010001032409858513 0.0 -9.028762405596518e-15 0.0 0.01 0.0 -9.028762405596518e-15 0.0 0.010000202656160261 0.010000993798125583 0.0 2.6838921480118555e-13 0.0 0.01 0.0 2.6838921480118555e-13 0.0 0.010002670969730927 0.010000960588391783 0.0 7.62564671717302e-14 0.0 0.01 0.0 7.625646717152341e-14 0.0 0.01000181349319438 0.010000931280076234 0.0 -1.767863511421886e-14 0.0 0.01 0.0 -1.7678635114425656e-14 0.0 0.010001197965233724 0.010000909324015487 0.0 -1.986611461458886e-14 0.0 0.01 0.0 -1.986611461376168e-14 0.0 0.010000814549512826 0.010000891219126578 0.0 -8.561711342263691e-15 0.0 0.01 0.0 -8.561711342263691e-15 0.0 0.010000584051163382 0.01000087851575493 0.0 -1.815046869514834e-15 0.0 0.01 0.0 -1.815046869514834e-15 0.0 0.010000432628073439 0.010000869763460112 0.0 3.056443479602368e-17 0.0 0.01 0.0 3.056443479602368e-17 0.0 0.010000324215766698 0.01000086341180912 0.0 -1.219003886610796e-16 0.0 0.01 0.0 -1.219003886610796e-16 0.0 0.010000244658978408 0.010000860461046241 0.0 -2.3847951018071696e-17 0.0 0.01 0.0 -2.3847951018071696e-17 0.0 0.010000195805750834 0.010000784742363425 0.0 3.7498678983960237e-13 0.0 0.01 0.0 3.749867898387752e-13 0.0 0.01000252145333853 0.010000751084610742 0.0 1.1080184479036092e-13 0.0 0.01 0.0 1.1080184479036092e-13 0.0 0.010001710388714384 0.01000072272834289 0.0 -1.2872776967116388e-14 0.0 0.01 0.0 -1.2872776967116388e-14 0.0 0.010001130091537172 0.010000700773655679 0.0 -1.7357808579346244e-14 0.0 0.01 0.0 -1.7357808578519063e-14 0.0 0.010000770088946419 0.010000683670104331 0.0 -4.908169900535308e-15 0.0 0.01 0.0 -4.908169900535308e-15 0.0 0.010000551295585672 0.010000670967523571 0.0 6.920977260955116e-16 0.0 0.01 0.0 6.920977260955116e-16 0.0 0.010000410175235178 0.010000662665863087 0.0 1.0167242110906851e-15 0.0 0.01 0.0 1.0167242110906851e-15 0.0 0.01000030761419339 0.010000656814705168 0.0 3.4870155000818053e-16 0.0 0.01 0.0 3.4870155000818053e-16 0.0 0.010000233908206702 0.010000653864125153 0.0 -2.969689233381367e-17 0.0 0.01 0.0 -2.969689233381367e-17 0.0 0.010000187005245513 0.010000551795668413 0.0 4.508778299687198e-13 0.0 0.01 0.0 4.508778299687198e-13 0.0 0.01000234897739508 0.010000517140112316 0.0 1.3940742344925146e-13 0.0 0.01 0.0 1.3940742344925146e-13 0.0 0.01000159363086797 0.010000489285907762 0.0 -2.5548619218502333e-15 0.0 0.01 0.0 -2.5548619218502333e-15 0.0 0.010001052916271558 0.010000468282891275 0.0 -9.202363934524802e-15 0.0 0.01 0.0 -9.202363934473103e-15 0.0 0.010000717377187121 0.010000453630865281 0.0 1.7151815471076471e-15 0.0 0.01 0.0 1.7151815471076471e-15 0.0 0.010000515639879935 0.010000442879419591 0.0 3.49768670626367e-15 0.0 0.01 0.0 3.497686706056875e-15 0.0 0.010000385272264066 0.010000435578457638 0.0 1.5611959176921537e-15 0.0 0.01 0.0 1.5611959176921537e-15 0.0 0.010000290062619962 0.010000430677820912 0.0 3.067855363198649e-16 0.0 0.01 0.0 3.067855363198649e-16 0.0 0.010000221207339687 0.010000428727569524 0.0 -7.386947463448115e-17 0.0 0.01 0.0 -7.386947463448115e-17 0.0 0.010000178204763429 0.010000318865250612 0.0 4.604303103042637e-13 0.0 0.01 0.0 4.604303103034365e-13 0.0 0.010002162301129786 0.010000282711988462 0.0 1.3559192700446515e-13 0.0 0.01 0.0 1.3559192700425835e-13 0.0 0.010001466122364204 0.010000257809969553 0.0 4.613069112536816e-15 0.0 0.01 0.0 4.613069112536816e-15 0.0 0.010000968890794217 0.010000239258586426 0.0 3.4481849965723227e-16 0.0 0.01 0.0 3.4481849965723227e-16 0.0 0.010000662165763717 0.010000227057733048 0.0 7.998368636067214e-15 0.0 0.01 0.0 7.998368636067214e-15 0.0 0.010000476584067691 0.010000218757177997 0.0 5.8107606739277e-15 0.0 0.01 0.0 5.8107606739277e-15 0.0 0.010000357419161356 0.010000213406831176 0.0 1.647168631754652e-15 0.0 0.01 0.0 1.6471686318580496e-15 0.0 0.010000271011016646 0.01000020995661208 0.0 -7.47977635044844e-16 0.0 0.01 0.0 -7.479776354584343e-16 0.0 0.010000207056430677 0.010000208006489824 0.0 -2.947995256528495e-16 0.0 0.01 0.0 -2.947995256528495e-16 0.0 0.010000169454307118 0.010000114251958 0.0 3.6589094912416024e-13 0.0 0.01 0.0 3.6589094912416024e-13 0.0 0.010001970782444468 0.010000078600926708 0.0 9.206171219823305e-14 0.0 0.01 0.0 9.206171219812966e-14 0.0 0.010001335717573561 0.01000005520045706 0.0 4.371471103878294e-16 0.0 0.01 0.0 4.371471103878294e-16 0.0 0.010000884417315264 0.010000040550246649 0.0 8.665315437991977e-15 0.0 0.01 0.0 8.665315437991977e-15 0.0 0.010000604554818564 0.010000031250146485 0.0 1.3172808703857377e-14 0.0 0.01 0.0 1.3172808703857377e-14 0.0 0.010000438028778702 0.010000026850108142 0.0 7.478202341548037e-15 0.0 0.01 0.0 7.478202341496338e-15 0.0 0.010000329616296324 0.0100000224500756 0.0 1.3610945227207167e-15 0.0 0.01 0.0 1.3610945227207167e-15 0.0 0.01000025195952222 0.01000002100006615 0.0 -7.386572550960215e-16 0.0 0.01 0.0 -7.386572550960215e-16 0.0 0.010000193855636856 0.010000020500063036 0.0 -3.337349608261266e-16 0.0 0.01 0.0 -3.337349608261266e-16 0.0 0.010000159203801796 0.009999958000264597 0.0 1.9280104674085785e-13 0.0 0.01 0.0 1.9280104674127144e-13 0.0 0.0100017812258018 0.009999919500972027 0.0 2.0722650780269467e-14 0.0 0.01 0.0 2.0722650780269467e-14 0.0 0.010001207718752464 0.00999989750157591 0.0 5.062900950390173e-15 0.0 0.01 0.0 5.062900950390173e-15 0.0 0.010000800396084829 0.0099998855019665 0.0 2.1266619021759362e-14 0.0 0.01 0.0 2.126661902181106e-14 0.0 0.01000054839510728 0.009999879502177995 0.0 1.9455193621906813e-14 0.0 0.01 0.0 1.9455193621906813e-14 0.0 0.010000398973875753 0.00999987550232499 0.0 8.70052333399408e-15 0.0 0.01 0.0 8.700523333942382e-15 0.0 0.010000301763658645 0.009999875002343702 0.0 1.8024561172575618e-15 0.0 0.01 0.0 1.8024561172575618e-15 0.0 0.010000231958070434 0.009999874502362489 0.0 -1.1444868400975809e-15 0.0 0.01 0.0 -1.1444868400975809e-15 0.0 0.010000181654949659 0.00999987400238135 0.0 -5.073964073143603e-16 0.0 0.01 0.0 -5.073964073143603e-16 0.0 0.01000015040339311 0.009999850003374914 0.0 -1.7055025673066119e-12 0.0 0.01 0.0 -1.7055025673082662e-12 0.0 0.010001604886266334 0.00999981000541483 0.0 -1.488868036079659e-14 0.0 0.01 0.0 -1.488868036079659e-14 0.0 0.010001090528361883 0.009999786506837093 0.0 3.5249060861491865e-14 0.0 0.01 0.0 3.5249060861543564e-14 0.0 0.010000723228451342 0.009999775007593466 0.0 4.713154124432806e-14 0.0 0.01 0.0 4.713154124432806e-14 0.0 0.010000496136920336 0.009999770507900237 0.0 2.833104837724283e-14 0.0 0.01 0.0 2.8331048377139434e-14 0.0 0.010000361369587254 0.009999769008003843 0.0 1.0398574271089112e-14 0.0 0.01 0.0 1.0398574271063263e-14 0.0 0.010000275411377296 0.009999768508038527 0.0 8.523677083432238e-16 0.0 0.01 0.0 8.523677083432238e-16 0.0 0.010000214356892134 0.009999768008073288 0.0 -1.3118296316140314e-15 0.0 0.01 0.0 -1.3118296316140314e-15 0.0 0.010000169904330024 0.009999767508108123 0.0 -5.67370556937034e-16 0.0 0.01 0.0 -5.67370556937034e-16 0.0 0.010000142103028933 0.009999788006741362 0.0 4.040056774486395e-11 0.0 0.01 0.0 4.040056774481101e-11 0.0 0.010001448564690171 0.009999743009906928 0.0 1.5890564353852381e-12 0.0 0.01 0.0 1.5890564353868925e-12 0.0 0.010000987446238261 0.009999718011928041 0.0 1.2885259876855474e-13 0.0 0.01 0.0 1.2885259876855474e-13 0.0 0.01000065681470517 0.0099997055130089 0.0 9.472063312288472e-14 0.0 0.01 0.0 9.472063312288472e-14 0.0 0.010000451680600464 0.00999969951354436 0.0 4.32803212872515e-14 0.0 0.01 0.0 4.32803212872515e-14 0.0 0.010000328116148326 0.009999697013770655 0.0 1.1253689898617472e-14 0.0 0.01 0.0 1.1253689898617472e-14 0.0 0.01000025050941293 0.009999696513816138 0.0 -6.867083566347328e-16 0.0 0.01 0.0 -6.867083566347328e-16 0.0 0.010000197255836327 0.009999697013770655 0.0 -2.1069112905223102e-15 0.0 0.01 0.0 -2.1069112905223102e-15 0.0 0.010000158203754186 0.009999697013770655 0.0 -7.53180592428562e-16 0.0 0.01 0.0 -7.53180592428562e-16 0.0 0.010000134752723697 0.009999760508603716 0.0 3.5953229895962455e-10 0.0 0.01 0.0 3.5953229895920104e-10 0.0 0.010001316159795923 0.009999713012354763 0.0 3.334745805725875e-11 0.0 0.01 0.0 3.334745805725875e-11 0.0 0.010000904922817981 0.009999682015167797 0.0 3.101532788657984e-13 0.0 0.01 0.0 3.1015327886497124e-13 0.0 0.010000603554637335 0.00999966601673247 0.0 1.807548360408562e-13 0.0 0.01 0.0 1.8075483604168338e-13 0.0 0.010000414075717386 0.009999657517594933 0.0 6.759092725395473e-14 0.0 0.01 0.0 6.759092725416153e-14 0.0 0.01000029981348268 0.009999654017956366 0.0 1.3405999751739343e-14 0.0 0.01 0.0 1.3405999751739343e-14 0.0 0.010000229007866452 0.00999965251811239 0.0 -2.7773494444470418e-15 0.0 0.01 0.0 -2.7773494444470418e-15 0.0 0.010000180654895312 0.009999651518216779 0.0 -3.747196915099233e-15 0.0 0.01 0.0 -3.747196915099233e-15 0.0 0.010000146503219415 0.009999651018269088 0.0 -1.0867916530243603e-15 0.0 0.01 0.0 -1.0867916530243603e-15 0.0 0.010000126952417497 0.009999759008712125 0.0 1.4769695699046257e-09 0.0 0.01 0.0 1.4769695699046257e-09 0.0 0.01000120966945996 0.009999711512484246 0.0 2.2028252024604988e-10 0.0 0.01 0.0 2.2028252024604988e-10 0.0 0.010000842856549107 0.009999675015842898 0.0 3.8249940449729505e-12 0.0 0.01 0.0 3.824994044966333e-12 0.0 0.010000567448295986 0.009999652518112388 0.0 3.2785134886799286e-13 0.0 0.01 0.0 3.2785134886799286e-13 0.0 0.010000386722431977 0.009999640519384878 0.0 1.140645197260384e-13 0.0 0.01 0.0 1.1406451972624519e-13 0.0 0.010000277361538988 0.009999632520257196 0.0 2.094064916184842e-14 0.0 0.01 0.0 2.094064916184842e-14 0.0 0.010000209956612082 0.009999629020644872 0.0 -4.295115954402262e-15 0.0 0.01 0.0 -4.295115954402262e-15 0.0 0.010000166504158452 0.009999626020980094 0.0 -5.484395290730928e-15 0.0 0.01 0.0 -5.484395290730928e-15 0.0 0.010000136702803098 0.009999626020980092 0.0 -1.5342511200206483e-15 0.0 0.01 0.0 -1.5342511200206483e-15 0.0 0.010000120102163645 0.009999776507495246 0.0 4.233719849330018e-09 0.0 0.01 0.0 4.233719849330018e-09 0.0 0.010001128591031595 0.009999734010613067 0.0 9.561964561056378e-10 0.0 0.01 0.0 9.561964561039438e-10 0.0 0.010000803296782627 0.009999695013953043 0.0 6.776449386686311e-11 0.0 0.01 0.0 6.776449386686311e-11 0.0 0.010000548395107283 0.009999665016832809 0.0 5.70493415086338e-13 0.0 0.01 0.0 5.704934150896467e-13 0.0 0.010000372570820319 0.009999644518955915 0.0 2.133740513398317e-13 0.0 0.01 0.0 2.133740513398317e-13 0.0 0.010000263210391592 0.009999633020202115 0.0 4.89919141538023e-14 0.0 0.01 0.0 4.89919141538023e-14 0.0 0.010000196305780243 0.009999625521036224 0.0 7.467255428329346e-17 0.0 0.01 0.0 7.467255428329346e-17 0.0 0.01000015480359455 0.009999621021544792 0.0 -5.864522664757579e-15 0.0 0.01 0.0 -5.864522664757579e-15 0.0 0.010000127952455735 0.009999619021772767 0.0 -1.990886409140403e-15 0.0 0.01 0.0 -1.990886409140403e-15 0.0 0.010000112801908613 0.009999810505400119 0.0 9.57490133612405e-09 0.0 0.01 0.0 9.574901336110498e-09 0.0 0.010001063669698667 0.009999781007195266 0.0 3.033850645312459e-09 0.0 0.01 0.0 3.033850645315847e-09 0.0 0.01000077939110949 0.009999742009984207 0.0 4.934159109896256e-10 0.0 0.01 0.0 4.934159109896256e-10 0.0 0.010000544944541482 0.009999704013141753 0.0 2.3423071777200166e-11 0.0 0.01 0.0 2.3423071777200166e-11 0.0 0.010000373070876247 0.009999675015842893 0.0 4.0763858358413754e-13 0.0 0.01 0.0 4.0763858358413754e-13 0.0 0.01000025931008591 0.009999655517801017 0.0 1.2702219646897e-13 0.0 0.01 0.0 1.2702219646938358e-13 0.0 0.010000188955355486 0.009999642019223454 0.0 2.397300119259054e-14 0.0 0.01 0.0 2.397300119259054e-14 0.0 0.010000146003197478 0.009999634520037317 0.0 4.5383846134107566e-14 0.0 0.01 0.0 4.5383846134107566e-14 0.0 0.010000120102163645 0.009999631020422894 0.0 -9.082970619135051e-16 0.0 0.01 0.0 -9.082970619135051e-16 0.0 0.01000010595168384 0.009999860502968697 0.0 1.8209053389493498e-08 0.0 0.01 0.0 1.8209053389466393e-08 0.0 0.010001011853606162 0.009999846503543167 0.0 7.711627729794991e-09 0.0 0.01 0.0 7.711627729794991e-09 0.0 0.01000076668817152 0.009999815005134284 0.0 2.1523265906697665e-09 0.0 0.01 0.0 2.1523265906731547e-09 0.0 0.010000553745992492 0.009999773507695065 0.0 3.3651397899519316e-10 0.0 0.01 0.0 3.3651397899519316e-10 0.0 0.010000385272264083 0.009999735510493572 0.0 2.03273434635928e-11 0.0 0.01 0.0 2.03273434635928e-11 0.0 0.010000267110701837 0.009999705013053108 0.0 2.938543639255243e-13 0.0 0.01 0.0 2.938543639255243e-13 0.0 0.010000191405495268 0.009999684514930253 0.0 9.30603815905452e-14 0.0 0.01 0.0 9.30603815905452e-14 0.0 0.010000142603050287 0.00999967201613672 0.0 2.1982799497136664e-14 0.0 0.01 0.0 2.1982799497136664e-14 0.0 0.010000115251992426 0.009999664516883094 0.0 3.1891455988571356e-15 0.0 0.01 0.0 3.1891455988571356e-15 0.0 0.010000101051531691 0.009999918501129593 0.0 2.9808986630691734e-08 0.0 0.01 0.0 2.9808986630637524e-08 0.0 0.010000965940071264 0.009999926000860334 0.0 1.6113282276172813e-08 0.0 0.01 0.0 1.6113282276145708e-08 0.0 0.010000756435859565 0.009999906001331871 0.0 6.579967768959309e-09 0.0 0.01 0.0 6.579967768959309e-09 0.0 0.01000056644813238 0.009999870002535514 0.0 1.9483842891195578e-09 0.0 0.01 0.0 1.9483842891195578e-09 0.0 0.010000406274758105 0.009999828504411733 0.0 3.932889195824125e-10 0.0 0.01 0.0 3.932889195824125e-10 0.0 0.010000285662239991 0.009999790006614771 0.0 4.6421460887928985e-11 0.0 0.01 0.0 4.6421460888140744e-11 0.0 0.010000202156129902 0.009999761008567807 0.0 2.103442989673763e-12 0.0 0.01 0.0 2.103442989673763e-12 0.0 0.010000148953327999 0.009999740010139561 0.0 7.627029063196975e-14 0.0 0.01 0.0 7.627029063196975e-14 0.0 0.010000116702042873 0.009999729011015653 0.0 1.53271814496808e-14 0.0 0.01 0.0 1.53271814496291e-14 0.0 0.010000099601488049 0.009999982000319253 0.0 4.248015799773698e-08 0.0 0.01 0.0 4.248015799762856e-08 0.0 0.010000926378981423 0.010000005850122277 0.0 2.7947024998560034e-08 0.0 0.01 0.0 2.7947024998505824e-08 0.0 0.010000742782867897 0.010000006350040069 0.0 1.5060268531992115e-08 0.0 0.01 0.0 1.5060268532046325e-08 0.0 0.010000576699917604 0.009999984500042532 0.0 6.579993812484827e-09 0.0 0.01 0.0 6.579993812457722e-09 0.0 0.010000430227769294 0.009999949000390954 0.0 2.3214373614599895e-09 0.0 0.01 0.0 2.321437361473542e-09 0.0 0.010000311514556397 0.009999910501201583 0.0 6.505453848683861e-10 0.0 0.01 0.0 6.505453848683861e-10 0.0 0.010000224107533469 0.009999878002232556 0.0 1.3337674633698824e-10 0.0 0.01 0.0 1.3337674633783527e-10 0.0 0.010000163554012403 0.009999852003285521 0.0 1.7960641450567668e-11 0.0 0.01 0.0 1.7960641450673547e-11 0.0 0.010000126452398493 0.009999837003985242 0.0 7.239894090830192e-13 0.0 0.01 0.0 7.239894090797104e-13 0.0 0.010000106451699773 0.01000006640109787 0.0 5.3948711957485e-08 0.0 0.01 0.0 5.3948711957485e-08 0.0 0.010000899071671409 0.010000084951332366 0.0 4.081658984433391e-08 0.0 0.01 0.0 4.081658984444233e-08 0.0 0.010000728579866407 0.01000010205167121 0.0 2.696403533959668e-08 0.0 0.01 0.0 2.696403533948826e-08 0.0 0.010000580600669698 0.010000101551581988 0.0 1.5297744073773135e-08 0.0 0.01 0.0 1.5297744073827346e-08 0.0 0.01000045023043939 0.01000008300104161 0.0 7.414973755175743e-09 0.0 0.01 0.0 7.414973755175743e-09 0.0 0.010000339367282987 0.010000055650465932 0.0 3.0403431810729128e-09 0.0 0.01 0.0 3.040343181100018e-09 0.0 0.010000251959523608 0.010000027850116498 0.0 1.0096981353769317e-09 0.0 0.01 0.0 1.0096981353769317e-09 0.0 0.010000188955355638 0.010000003900002292 0.0 2.4806487635583544e-10 0.0 0.01 0.0 2.480648763524473e-10 0.0 0.010000146503219426 0.009999989000018148 0.0 3.3100838861411776e-11 0.0 0.01 0.0 3.310083886183529e-11 0.0 0.01000012255225282 0.010000210957235472 0.0 6.111825787233783e-08 0.0 0.01 0.0 6.111825787222941e-08 0.0 0.01000088681851328 0.010000186505627067 0.0 5.225596729310257e-08 0.0 0.01 0.0 5.225596729299415e-08 0.0 0.010000722228644112 0.010000192405784664 0.0 3.93140376175969e-08 0.0 0.01 0.0 3.93140376175969e-08 0.0 0.010000582551132717 0.01000020605647292 0.0 2.6358851880044568e-08 0.0 0.01 0.0 2.6358851880261408e-08 0.0 0.010000462932248157 0.010000210956711485 0.0 1.554957793428735e-08 0.0 0.01 0.0 1.554957793450419e-08 0.0 0.01000036376988458 0.010000203106196962 0.0 7.879586269706959e-09 0.0 0.01 0.0 7.879586269706959e-09 0.0 0.010000283212040214 0.010000189455385496 0.0 3.299511287238252e-09 0.0 0.01 0.0 3.2995112874550925e-09 0.0 0.010000221707374543 0.010000175304609813 0.0 1.0537606247654208e-09 0.0 0.01 0.0 1.0537606247654208e-09 0.0 0.010000177254712939 0.01000016405403698 0.0 1.9664855033523117e-10 0.0 0.01 0.0 1.9664855038944128e-10 0.0 0.010000150403393119 0.010000425827584947 0.0 5.080744787649277e-08 0.0 0.01 0.0 5.080744787627593e-08 0.0 0.010000880966788795 0.01000037112116205 0.0 5.7938654695341776e-08 0.0 0.01 0.0 5.793865469555862e-08 0.0 0.010000723228954863 0.010000327666467175 0.0 4.920296943879479e-08 0.0 0.01 0.0 4.920296943901163e-08 0.0 0.010000590852724985 0.010000311514754069 0.0 3.637618318456243e-08 0.0 0.01 0.0 3.6376183184128746e-08 0.0 0.010000480034761247 0.01000031836528853 0.0 2.390553993170466e-08 0.0 0.01 0.0 2.390553993170466e-08 0.0 0.010000389172802847 0.010000328616225667 0.0 1.3683889367108182e-08 0.0 0.01 0.0 1.368388936624082e-08 0.0 0.010000313964813549 0.010000334966836097 0.0 6.547062183300152e-09 0.0 0.01 0.0 6.547062183300152e-09 0.0 0.01000025635986415 0.010000334466780328 0.0 2.413801357631449e-09 0.0 0.01 0.0 2.413801357658554e-09 0.0 0.01000021340683205 0.010000333016634316 0.0 5.13603060593921e-10 0.0 0.01 0.0 5.136030605871447e-10 0.0 0.010000187005245555 0.010000562047381055 0.0 3.5594052848066484e-10 0.0 0.01 0.0 3.5594052848066484e-10 0.0 0.010000887818219202 0.010000572799453392 0.0 4.0193771869406064e-08 0.0 0.01 0.0 4.01937718685387e-08 0.0 0.010000738832115132 0.010000545444988716 0.0 4.936313707185752e-08 0.0 0.01 0.0 4.93631370701228e-08 0.0 0.01000060940606726 0.010000501037922603 0.0 4.2373044764794365e-08 0.0 0.01 0.0 4.2373044764794365e-08 0.0 0.010000503438284233 0.010000467782956336 0.0 3.003012878644018e-08 0.0 0.01 0.0 3.00301287860065e-08 0.0 0.010000417026220431 0.01000045558118097 0.0 1.820987434301459e-08 0.0 0.01 0.0 1.820987434323143e-08 0.0 0.010000349118331423 0.010000457531411199 0.0 9.261186574463336e-09 0.0 0.01 0.0 9.261186574354915e-09 0.0 0.010000294463018623 0.010000463432215417 0.0 3.6490125568248207e-09 0.0 0.01 0.0 3.6490125568248207e-09 0.0 0.010000254909748508 0.010000467782821168 0.0 8.221871159632267e-10 0.0 0.01 0.0 8.22187115970003e-10 0.0 0.010000228507832238 0.010000599653982612 0.0 -1.811094119596665e-08 0.0 0.01 0.0 -1.811094119574981e-08 0.0 0.01000077694058531 0.01000068266996147 0.0 2.0348238518198142e-08 0.0 0.01 0.0 2.034823851733078e-08 0.0 0.010000648013044783 0.010000710025779347 0.0 3.327256414462597e-08 0.0 0.01 0.0 3.327256414440913e-08 0.0 0.010000542544315974 0.010000699273470815 0.0 2.9459407904428025e-08 0.0 0.01 0.0 2.9459407904211185e-08 0.0 0.01000045463113169 0.01000067731886502 0.0 1.9514395998318328e-08 0.0 0.01 0.0 1.9514395998318328e-08 0.0 0.010000385772379012 0.010000665116366778 0.0 1.0230594565680939e-08 0.0 0.01 0.0 1.0230594565626729e-08 0.0 0.010000333016649968 0.010000662165766224 0.0 4.087960140170444e-09 0.0 0.01 0.0 4.087960140156891e-09 0.0 0.010000294463008264 0.010000662165763848 0.0 9.318417730861805e-10 0.0 0.01 0.0 9.318417730861805e-10 0.0 0.010000271011016776 0.010000684170217093 0.0 -8.232918156676067e-09 0.0 0.01 0.0 -8.232918156676067e-09 0.0 0.010000613356436466 0.010000792594231492 0.0 8.411389323069712e-09 0.0 0.01 0.0 8.411389323178132e-09 0.0 0.010000515189820956 0.010000855109686624 0.0 1.072315912459135e-08 0.0 0.01 0.0 1.072315912448293e-08 0.0 0.010000433628220631 0.010000896120447274 0.0 6.77548924393279e-09 0.0 0.01 0.0 6.775489243987e-09 0.0 0.010000373570939133 0.010000923978045763 0.0 2.8512367396835245e-09 0.0 0.01 0.0 2.8512367396835245e-09 0.0 0.010000333516685486 0.010000942983365938 0.0 6.566960631999733e-10 0.0 0.01 0.0 6.566960631982792e-10 0.0 0.010000310564467008 0.010000670967563774 0.0 -1.6372161809217675e-08 0.0 0.01 0.0 -1.6372161809217675e-08 0.0 0.01000050588842607 0.010000788643287581 0.0 -4.936216849496782e-09 0.0 0.01 0.0 -4.936216849523887e-09 0.0 0.010000418976333357 0.010000875614991996 0.0 -1.0958522944164411e-09 0.0 0.01 0.0 -1.0958522944164411e-09 0.0 0.010000370120547549 0.010000926378710733 0.0 -1.497865212092065e-10 0.0 0.01 0.0 -1.497865212092065e-10 0.0 0.010000344767828913 0.009999999500000037 0.0 8.016116798366902e-18 0.0 0.01 0.0 8.016116798366902e-18 0.0 0.01 0.009999999500000037 0.0 2.7045205994490167e-12 0.0 0.01 0.0 2.7045205994490167e-12 0.0 0.01 0.009999999500000037 0.0 2.799112899429746e-12 0.0 0.01 0.0 2.799112899429746e-12 0.0 0.01 0.009999999500000037 0.0 -7.017256598570396e-13 0.0 0.01 0.0 -7.017256598570396e-13 0.0 0.01 0.009999999500000037 0.0 -9.794858598004526e-13 0.0 0.01 0.0 -9.794858598004526e-13 0.0 0.01 0.009999999500000037 0.0 2.092178599573767e-11 0.0 0.01 0.0 2.092178599573767e-11 0.0 0.01 0.009999999500000037 0.0 2.208542599550061e-11 0.0 0.01 0.0 2.208542599550061e-11 0.0 0.01 0.009999999500000037 0.0 -1.2188648997516845e-11 0.0 0.01 0.0 -1.2188648997516845e-11 0.0 0.01 0.009999999500000037 0.0 -7.725620098426084e-19 0.0 0.01 0.0 -7.725620098426084e-19 0.0 0.01 0.009999999500000037 0.0 5.4316490988934275e-12 0.0 0.01 0.0 5.4316490988934275e-12 0.0 0.01 0.009999999500000037 0.0 3.5058248992857696e-12 0.0 0.01 0.0 3.5058248992857696e-12 0.0 0.01 0.009999999500000037 0.0 -6.298135898716901e-14 0.0 0.01 0.0 -6.298135898716901e-14 0.0 0.01 0.009999999500000037 0.0 2.286824299534113e-13 0.0 0.01 0.0 2.286824299534113e-13 0.0 0.01 0.009999999500000037 0.0 1.164181599762825e-11 0.0 0.01 0.0 1.164181599762825e-11 0.0 0.01 0.009999999500000037 0.0 2.6751957994549908e-11 0.0 0.01 0.0 2.6751957994549908e-11 0.0 0.01 0.009999999500000037 0.0 1.7146080996506884e-11 0.0 0.01 0.0 1.7146080996506884e-11 0.0 0.01 0.00999999900000015 0.0 -1.3687660497211457e-17 0.0 0.01 0.0 -1.3687660497211457e-17 0.0 0.01 0.00999999900000015 0.0 1.4155000497116248e-12 0.0 0.01 0.0 1.4155000497116248e-12 0.0 0.01 0.00999999900000015 0.0 -4.597845949063295e-13 0.0 0.01 0.0 -4.597845949063295e-13 0.0 0.01 0.00999999900000015 0.0 -1.0844391497790706e-12 0.0 0.01 0.0 -1.0844391497790706e-12 0.0 0.01 0.00999999900000015 0.0 -1.5293555496884295e-12 0.0 0.01 0.0 -1.5293555496884295e-12 0.0 0.01 0.00999999900000015 0.0 -6.834630498607603e-12 0.0 0.01 0.0 -6.834630498607603e-12 0.0 0.01 0.00999999900000015 0.0 4.503371699082543e-12 0.0 0.01 0.0 4.503371699082543e-12 0.0 0.01 0.00999999900000015 0.0 1.6819408496573437e-11 0.0 0.01 0.0 1.6819408496573437e-11 0.0 0.01 0.009999998500000338 0.0 -2.3400548328566017e-18 0.0 0.01 0.0 -2.3400548328566017e-18 0.0 0.01 0.009999998500000338 0.0 1.7436702996447677e-12 0.0 0.01 0.0 1.7436702996447677e-12 0.0 0.01 0.009999998500000338 0.0 3.3546096659832427e-13 0.0 0.01 0.0 3.3546096659832427e-13 0.0 0.01 0.009999998500000338 0.0 6.070100998763358e-13 0.0 0.01 0.0 6.070100998763358e-13 0.0 0.01 0.009999998500000338 0.0 -2.8031029660955996e-12 0.0 0.01 0.0 -2.8031029660955996e-12 0.0 0.01 0.009999998500000338 0.0 -2.229401566212478e-12 0.0 0.01 0.0 -2.229401566212478e-12 0.0 0.01 0.009999998500000338 0.0 4.895901665669241e-12 0.0 0.01 0.0 4.895901665669241e-12 0.0 0.01 0.009999998500000338 0.0 -4.4863139990860175e-12 0.0 0.01 0.0 -4.4863139990860175e-12 0.0 0.01 0.009999997500000938 0.0 -4.426974600708631e-18 0.0 0.01 0.0 -4.426974600708631e-18 0.0 0.01 0.009999997500000938 0.0 8.054518401289296e-13 0.0 0.01 0.0 8.054518401289296e-13 0.0 0.01 0.009999997500000938 0.0 9.8568810015778e-13 0.0 0.01 0.0 9.8568810015778e-13 0.0 0.01 0.009999997500000938 0.0 7.33605500117429e-13 0.0 0.01 0.0 7.33605500117429e-13 0.0 0.01 0.009999997500000938 0.0 8.541808201367297e-13 0.0 0.01 0.0 8.541808201367297e-13 0.0 0.01 0.009999997500000938 0.0 -2.4434436003911244e-12 0.0 0.01 0.0 -2.4434436003911244e-12 0.0 0.01 0.009999997500000938 0.0 4.450035800712322e-12 0.0 0.01 0.0 4.450035800712322e-12 0.0 0.01 0.0099999980000006 0.0 2.7911389994313703e-12 0.0 0.01 0.0 2.7911389994313703e-12 0.0 0.01 0.009999996500001837 0.0 -1.0977041286330414e-18 0.0 0.01 0.0 -1.0977041286330414e-18 0.0 0.01 0.009999996500001837 0.0 1.1255188857774599e-13 0.0 0.01 0.0 1.1255188857774599e-13 0.0 0.01 0.009999996500001837 0.0 2.5827812858592544e-14 0.0 0.01 0.0 2.5827812858592544e-14 0.0 0.01 0.009999997000001351 0.0 2.395992833571586e-12 0.0 0.01 0.0 2.395992833571586e-12 0.0 0.01 0.009999997000001351 0.0 2.3484071669001877e-12 0.0 0.01 0.0 2.3484071669001877e-12 0.0 0.01 0.009999997000001351 0.0 8.848361834213198e-13 0.0 0.01 0.0 8.848361834213198e-13 0.0 0.01 0.009999997000001351 0.0 3.567423833688071e-12 0.0 0.01 0.0 3.567423833688071e-12 0.0 0.01 0.009999997000001351 0.0 6.257979500622282e-12 0.0 0.01 0.0 6.257979500622282e-12 0.0 0.01 0.009999995500003037 0.0 -4.44139611110393e-19 0.0 0.01 0.0 -4.44139611110393e-19 0.0 0.01 0.009999995500003037 0.0 1.1997324444425045e-13 0.0 0.01 0.0 1.1997324444425045e-13 0.0 0.01 0.009999995500003037 0.0 -5.824267777768361e-13 0.0 0.01 0.0 -5.824267777768361e-13 0.0 0.01 0.009999995500003037 0.0 6.638482555544821e-13 0.0 0.01 0.0 6.638482555544821e-13 0.0 0.01 0.009999995500003037 0.0 2.292595888885182e-12 0.0 0.01 0.0 2.292595888885182e-12 0.0 0.01 0.0099999960000024 0.0 -2.9592922500699775e-13 0.0 0.01 0.0 -2.9592922500699775e-13 0.0 0.01 0.0099999960000024 0.0 4.981710625117802e-12 0.0 0.01 0.0 4.981710625117802e-12 0.0 0.01 0.0099999960000024 0.0 3.5536536250840323e-12 0.0 0.01 0.0 3.5536536250840323e-12 0.0 0.01 0.009999993500006337 0.0 -1.760467307579982e-18 0.0 0.01 0.0 -1.760467307579982e-18 0.0 0.01 0.009999993500006337 0.0 8.58593769175987e-13 0.0 0.01 0.0 8.58593769175987e-13 0.0 0.01 0.009999993500006337 0.0 -4.067251461278952e-13 0.0 0.01 0.0 -4.067251461278952e-13 0.0 0.01 0.0099999940000054 0.0 1.692273666578424e-12 0.0 0.01 0.0 1.692273666578424e-12 0.0 0.01 0.0099999940000054 0.0 3.053803583174095e-12 0.0 0.01 0.0 3.053803583174095e-12 0.0 0.01 0.0099999940000054 0.0 1.6803716665790447e-13 0.0 0.01 0.0 1.6803716665790447e-13 0.0 0.01 0.0099999940000054 0.0 -1.2499332499348231e-12 0.0 0.01 0.0 -1.2499332499348231e-12 0.0 0.01 0.0099999940000054 0.0 2.8600954259819245e-18 0.0 0.01 0.0 2.8600954259819245e-18 0.0 0.01 0.009999991500010838 0.0 -3.0926913529729446e-18 0.0 0.01 0.0 -3.0926913529729446e-18 0.0 0.01 0.009999991500010838 0.0 4.1493456471014454e-13 0.0 0.01 0.0 4.1493456471014454e-13 0.0 0.01 0.009999991500010838 0.0 -4.69044194122465e-13 0.0 0.01 0.0 -4.69044194122465e-13 0.0 0.01 0.009999991500010838 0.0 -3.5325379412127566e-13 0.0 0.01 0.0 -3.5325379412127566e-13 0.0 0.01 0.009999991500010838 0.0 7.822269411845055e-13 0.0 0.01 0.0 7.822269411845055e-13 0.0 0.01 0.009999992000009601 0.0 -2.9076164105475093e-18 0.0 0.01 0.0 -2.9076164105475093e-18 0.0 0.01 0.009999992000009601 0.0 6.367510625150573e-13 0.0 0.01 0.0 6.367510625150573e-13 0.0 0.01 0.009999992000009601 0.0 5.4994774376300453e-14 0.0 0.01 0.0 5.4994774376300453e-14 0.0 0.01 0.009999989500016538 0.0 2.4643262380201017e-18 0.0 0.01 0.0 2.4643262380201017e-18 0.0 0.01 0.009999989500016538 0.0 4.149271380825871e-13 0.0 0.01 0.0 4.149271380825871e-13 0.0 0.01 0.009999989500016538 0.0 2.1564045713628231e-13 0.0 0.01 0.0 2.1564045713628231e-13 0.0 0.01 0.009999989500016538 0.0 1.3427406190066792e-12 0.0 0.01 0.0 1.3427406190066792e-12 0.0 0.01 0.009999989500016538 0.0 -1.720146761852315e-13 0.0 0.01 0.0 -1.720146761852315e-13 0.0 0.01 0.009999989500016538 0.0 -3.792361926681115e-18 0.0 0.01 0.0 -3.792361926681115e-18 0.0 0.01 0.009999989500016538 0.0 3.563119952272314e-13 0.0 0.01 0.0 3.563119952272314e-13 0.0 0.01 0.009999989500016538 0.0 -3.835513109133245e-18 0.0 0.01 0.0 -3.835513109133245e-18 0.0 0.01 0.009999984500036037 0.0 2.9879175160462798e-18 0.0 0.01 0.0 2.9879175160462798e-18 0.0 0.01 0.009999984500036037 0.0 2.1369738386504928e-13 0.0 0.01 0.0 2.1369738386504928e-13 0.0 0.01 0.009999984500036037 0.0 -5.306939354691731e-13 0.0 0.01 0.0 -5.306939354691731e-13 0.0 0.01 0.009999984500036037 0.0 -2.6352630321850794e-13 0.0 0.01 0.0 -2.6352630321850794e-13 0.0 0.01 0.009999984500036037 0.0 -6.078717419186486e-13 0.0 0.01 0.0 -6.078717419186486e-13 0.0 0.01 0.009999984500036037 0.0 -3.738715057775948e-18 0.0 0.01 0.0 -3.738715057775948e-18 0.0 0.01 0.009999984500036037 0.0 -4.219907085855273e-13 0.0 0.01 0.0 -4.219907085855273e-13 0.0 0.010000000500000038 0.009999984500036037 0.0 7.444293250519499e-18 0.0 0.01 0.0 7.444293250519499e-18 0.0 0.010000000500000038 0.00999997900006615 0.0 -2.1019945476459943e-18 0.0 0.01 0.0 -2.1019945476459943e-18 0.0 0.01 0.00999997900006615 0.0 -2.307496523839105e-14 0.0 0.01 0.0 -2.307496523839105e-14 0.0 0.01 0.00999997900006615 0.0 -4.77995214291842e-13 0.0 0.01 0.0 -4.77995214291842e-13 0.0 0.01 0.00999997900006615 0.0 7.465169285809986e-13 0.0 0.01 0.0 7.465169285809986e-13 0.0 0.01 0.00999997900006615 0.0 5.244302355279201e-13 0.0 0.01 0.0 5.244302355279201e-13 0.0 0.010000000500000038 0.00999997900006615 0.0 -2.609868474821336e-18 0.0 0.01 0.0 -2.609868474821336e-18 0.0 0.010000000500000038 0.00999997900006615 0.0 3.519047729294531e-18 0.0 0.01 0.0 3.519047729294531e-18 0.0 0.010000000500000038 0.009999979500063037 0.0 -2.7468056097958682e-18 0.0 0.01 0.0 -2.7468056097958682e-18 0.0 0.010000000500000038 0.009999971500121838 0.0 7.57918017534572e-19 0.0 0.01 0.0 7.57918017534572e-19 0.0 0.01 0.009999971500121838 0.0 4.725547543801742e-15 0.0 0.01 0.0 4.725547543801742e-15 0.0 0.01 0.009999971500121838 0.0 4.118551930001467e-13 0.0 0.01 0.0 4.118551930001467e-13 0.0 0.010000000500000038 0.0099999720001176 0.0 2.9665765628438467e-18 0.0 0.01 0.0 2.9665765628438467e-18 0.0 0.010000000500000038 0.0099999720001176 0.0 2.596760188486751e-18 0.0 0.01 0.0 2.596760188486751e-18 0.0 0.010000000500000038 0.0099999720001176 0.0 -5.061667270565203e-13 0.0 0.01 0.0 -5.061667270565203e-13 0.0 0.010000000500000038 0.0099999720001176 0.0 -1.4713658409913513e-17 0.0 0.01 0.0 -1.4713658409913513e-17 0.0 0.01000000100000015 0.0099999720001176 0.0 -6.357871250406813e-18 0.0 0.01 0.0 -6.357871250406813e-18 0.0 0.01000000100000015 0.009999961500222337 0.0 3.513023765416411e-19 0.0 0.01 0.0 3.513023765416411e-19 0.0 0.010000000500000038 0.009999961500222337 0.0 -2.5434566656500337e-13 0.0 0.01 0.0 -2.5434566656500337e-13 0.0 0.010000000500000038 0.009999961500222337 0.0 -2.995275790807875e-14 0.0 0.01 0.0 -2.995275790807875e-14 0.0 0.010000000500000038 0.009999961500222337 0.0 -2.990747329042963e-13 0.0 0.01 0.0 -2.990747329042963e-13 0.0 0.010000000500000038 0.009999961500222337 0.0 -2.7287841969386164e-13 0.0 0.01 0.0 -2.7287841969386164e-13 0.0 0.01000000100000015 0.009999961500222337 0.0 -6.801180743261409e-18 0.0 0.01 0.0 -6.801180743261409e-18 0.0 0.01000000100000015 0.009999962000216599 0.0 -1.3072658947069827e-17 0.0 0.01 0.0 -1.3072658947069827e-17 0.0 0.01000000100000015 0.009999962000216599 0.0 1.1678231858314747e-13 0.0 0.01 0.0 1.1678231858314747e-13 0.0 0.010000001450000314 0.009999949000390146 0.0 -2.968673643551216e-18 0.0 0.01 0.0 -2.968673643551216e-18 0.0 0.010000000500000038 0.009999949000390146 0.0 -2.5975680183034336e-18 0.0 0.01 0.0 -2.5975680183034336e-18 0.0 0.01000000100000015 0.009999949000390146 0.0 -2.939319855184986e-18 0.0 0.01 0.0 -2.939319855184986e-18 0.0 0.01000000100000015 0.009999949000390146 0.0 2.4831660262798507e-18 0.0 0.01 0.0 2.4831660262798507e-18 0.0 0.01000000100000015 0.009999949000390146 0.0 6.912688671959787e-14 0.0 0.01 0.0 6.912688671959787e-14 0.0 0.01000000100000015 0.009999949000390146 0.0 3.5536180476292393e-13 0.0 0.01 0.0 3.5536180476292393e-13 0.0 0.01000000100000015 0.009999949000390146 0.0 -1.3911100649463723e-17 0.0 0.01 0.0 -1.3911100649463723e-17 0.0 0.01000000195000057 0.009999949000390146 0.0 -1.4514734707888207e-17 0.0 0.01 0.0 -1.4514734707888207e-17 0.0 0.01000000195000057 0.009999933000673342 0.0 1.4718456618858887e-18 0.0 0.01 0.0 1.4718456618858887e-18 0.0 0.01000000100000015 0.009999933000673342 0.0 -1.208477988491114e-13 0.0 0.01 0.0 -1.208477988491114e-13 0.0 0.01000000100000015 0.009999933000673342 0.0 1.0895999618977971e-13 0.0 0.01 0.0 1.0895999618977971e-13 0.0 0.01000000100000015 0.00999993250068343 0.0 6.9446471907834e-14 0.0 0.01 0.0 6.9446471907834e-14 0.0 0.01000000100000015 0.00999993200069359 0.0 -4.7566154672355304e-18 0.0 0.01 0.0 -4.7566154672355304e-18 0.0 0.010000001450000314 0.00999993200069359 0.0 -8.445976321709136e-18 0.0 0.01 0.0 -8.445976321709136e-18 0.0 0.01000000195000057 0.00999993200069359 0.0 -3.3495218146984198e-18 0.0 0.01 0.0 -3.3495218146984198e-18 0.0 0.01000000195000057 0.00999993250068343 0.0 5.193988709228378e-18 0.0 0.01 0.0 5.193988709228378e-18 0.0 0.010000002950001304 0.009999911001188133 0.0 3.424747262769223e-19 0.0 0.01 0.0 3.424747262769223e-19 0.0 0.010000001450000314 0.009999911001188133 0.0 -1.5488803240954337e-13 0.0 0.01 0.0 -1.5488803240954337e-13 0.0 0.010000001450000314 0.009999911001188133 0.0 6.640345904829756e-14 0.0 0.01 0.0 6.640345904829756e-14 0.0 0.010000001450000314 0.009999911001188133 0.0 7.013522920917884e-18 0.0 0.01 0.0 7.013522920917884e-18 0.0 0.01000000195000057 0.00999991150117482 0.0 7.016881903375063e-18 0.0 0.01 0.0 7.016881903375063e-18 0.0 0.01000000195000057 0.009999911001188133 0.0 -1.6134831623514395e-13 0.0 0.01 0.0 -1.6134831623514395e-13 0.0 0.01000000195000057 0.009999911001188133 0.0 2.9789827488162026e-17 0.0 0.01 0.0 2.9789827488162026e-17 0.0 0.010000002950001304 0.00999991050120152 0.0 1.6327337357282536e-17 0.0 0.01 0.0 1.6327337357282536e-17 0.0 0.010000003900002281 0.009999884502000999 0.0 -6.316620644271354e-19 0.0 0.01 0.0 -6.316620644271354e-19 0.0 0.01000000195000057 0.009999884502000999 0.0 3.1336972754265238e-18 0.0 0.01 0.0 3.1336972754265238e-18 0.0 0.01000000195000057 0.009999884502000999 0.0 3.868847553959281e-18 0.0 0.01 0.0 3.868847553959281e-18 0.0 0.01000000195000057 0.009999884502000999 0.0 -5.146547841578276e-18 0.0 0.01 0.0 -5.146547841578276e-18 0.0 0.01000000195000057 0.009999883502035798 0.0 1.1999371221222465e-17 0.0 0.01 0.0 1.1999371221222465e-17 0.0 0.0100000024500009 0.009999883502035798 0.0 1.3693366692691796e-17 0.0 0.01 0.0 1.3693366692691796e-17 0.0 0.010000003400001733 0.00999988300205331 0.0 -5.079541325820143e-18 0.0 0.01 0.0 -5.079541325820143e-18 0.0 0.010000003900002281 0.009999882502070897 0.0 -2.3702290269194398e-17 0.0 0.01 0.0 -2.3702290269194398e-17 0.0 0.010000005350004294 0.00999984850344275 0.0 1.334103769532565e-18 0.0 0.01 0.0 1.334103769532565e-18 0.0 0.0100000024500009 0.00999984850344275 0.0 5.6836815083471303e-14 0.0 0.01 0.0 5.6836815083471303e-14 0.0 0.010000002950001304 0.00999984850344275 0.0 -8.182091548882151e-14 0.0 0.01 0.0 -8.182091548882151e-14 0.0 0.010000003400001733 0.00999984850344275 0.0 1.2675361917817977e-17 0.0 0.01 0.0 1.2675361917817977e-17 0.0 0.010000003400001733 0.009999848003465511 0.0 6.237968456166322e-18 0.0 0.01 0.0 6.237968456166322e-18 0.0 0.010000003400001733 0.00999984750348835 0.0 -3.2934159370138315e-17 0.0 0.01 0.0 -3.2934159370138315e-17 0.0 0.010000004400002904 0.009999846503534247 0.0 -6.399671283815435e-17 0.0 0.01 0.0 -6.399671283815435e-17 0.0 0.010000005350004294 0.009999845503580447 0.0 -4.5915673585703106e-17 0.0 0.01 0.0 -4.5915673585703106e-17 0.0 0.010000006850007037 0.009999804005762211 0.0 1.734357736125276e-19 0.0 0.01 0.0 1.734357736125276e-19 0.0 0.010000003400001733 0.009999804005762211 0.0 1.2423220594555515e-17 0.0 0.01 0.0 1.2423220594555515e-17 0.0 0.010000003400001733 0.009999804005762211 0.0 1.9273485136665595e-17 0.0 0.01 0.0 1.9273485136665595e-17 0.0 0.010000003900002281 0.009999803005821158 0.0 2.0083714790097765e-17 0.0 0.01 0.0 2.0083714790097765e-17 0.0 0.010000004900003601 0.009999802505850744 0.0 2.1850342746297055e-17 0.0 0.01 0.0 2.1850342746297055e-17 0.0 0.010000004900003601 0.009999802005880406 0.0 -6.372694823776807e-18 0.0 0.01 0.0 -6.372694823776807e-18 0.0 0.010000005850005133 0.009999801005939953 0.0 -1.4114666181882782e-16 0.0 0.01 0.0 -1.4114666181882782e-16 0.0 0.010000006850007037 0.009999799506029836 0.0 -6.207715963558426e-17 0.0 0.01 0.0 -6.207715963558426e-17 0.0 0.010000009300012973 0.00999974600967699 0.0 5.419029504149938e-19 0.0 0.01 0.0 5.419029504149938e-19 0.0 0.010000005350004294 0.00999974600967699 0.0 1.1308544221692521e-17 0.0 0.01 0.0 1.1308544221692521e-17 0.0 0.010000005350004294 0.009999745509715125 0.0 8.221820731570307e-18 0.0 0.01 0.0 8.221820731570307e-18 0.0 0.010000005350004294 0.009999745509715125 0.0 -2.6528775538036548e-17 0.0 0.01 0.0 -2.6528775538036548e-17 0.0 0.010000006350006049 0.00999974450979162 0.0 -2.7710455845302845e-17 0.0 0.01 0.0 -2.7710455845302845e-17 0.0 0.010000007300007994 0.00999974400982998 0.0 -1.23407124833921e-16 0.0 0.01 0.0 -1.23407124833921e-16 0.0 0.010000008300010334 0.00999974200998417 0.0 -3.345160909498103e-16 0.0 0.01 0.0 -3.345160909498103e-16 0.0 0.010000009300012973 0.009999739510178594 0.0 -2.81787964718688e-16 0.0 0.01 0.0 -2.81787964718688e-16 0.0 0.010000011250018984 0.009999674515891675 0.0 -2.7396249991926238e-19 0.0 0.01 0.0 -2.7396249991926238e-19 0.0 0.010000007800009127 0.009999674515891675 0.0 -6.524392323569618e-14 0.0 0.01 0.0 -6.524392323569618e-14 0.0 0.010000008300010334 0.009999674015940534 0.0 2.0839620457520224e-17 0.0 0.01 0.0 2.0839620457520224e-17 0.0 0.010000008800011615 0.009999673016038477 0.0 -3.355230805906168e-17 0.0 0.01 0.0 -3.355230805906168e-17 0.0 0.010000008800011615 0.009999671516185952 0.0 -4.745304522637533e-17 0.0 0.01 0.0 -4.745304522637533e-17 0.0 0.01000001025001576 0.009999670016334101 0.0 -2.0970370288682027e-16 0.0 0.01 0.0 -2.0970370288682027e-16 0.0 0.010000010750017335 0.009999668016532685 0.0 -5.510304499253269e-16 0.0 0.01 0.0 -5.510304499253269e-16 0.0 0.010000013200026137 0.009999665516782602 0.0 -9.036052441649227e-16 0.0 0.01 0.0 -9.036052441649227e-16 0.0 0.010000016100038882 0.0099995840259566 0.0 2.0365859034467897e-18 0.0 0.01 0.0 2.0365859034467897e-18 0.0 0.010000010750017335 0.0099995840259566 0.0 1.6243459609154735e-17 0.0 0.01 0.0 1.6243459609154735e-17 0.0 0.010000010750017335 0.0099995840259566 0.0 -1.5931422847232495e-17 0.0 0.01 0.0 -1.5931422847232495e-17 0.0 0.010000011700020532 0.009999582526144118 0.0 -5.149405058467021e-17 0.0 0.01 0.0 -5.149405058467021e-17 0.0 0.010000011700020532 0.009999581526269506 0.0 -2.557653931484234e-16 0.0 0.01 0.0 -2.557653931484234e-16 0.0 0.010000013650027948 0.009999579026584285 0.0 -5.358791536890186e-16 0.0 0.01 0.0 -5.358791536890186e-16 0.0 0.010000016100038882 0.009999575527028124 0.0 -1.0477446008489547e-15 0.0 0.01 0.0 -1.0477446008489547e-15 0.0 0.010000018550051615 0.009999573027347403 0.0 -1.8971768335046017e-15 0.0 0.01 0.0 -1.8971768335046017e-15 0.0 0.01000002195007227 0.009999475041340133 0.0 2.9419250346381546e-18 0.0 0.01 0.0 2.9419250346381546e-18 0.0 0.010000015150034429 0.009999475041340133 0.0 2.8932226860143335e-18 0.0 0.01 0.0 2.8932226860143335e-18 0.0 0.010000015150034429 0.009999474041497763 0.0 -2.035988079205522e-17 0.0 0.01 0.0 -2.035988079205522e-17 0.0 0.010000016100038882 0.009999473041655691 0.0 -1.330165053055043e-16 0.0 0.01 0.0 -1.330165053055043e-16 0.0 0.01000001805004887 0.00999947104197245 0.0 -4.1923905148071347e-16 0.0 0.01 0.0 -4.1923905148071347e-16 0.0 0.01000002000006 0.009999468542370084 0.0 -1.3882407528429763e-15 0.0 0.01 0.0 -1.3882407528429763e-15 0.0 0.010000022950079004 0.00999946404309055 0.0 -2.870911628866621e-15 0.0 0.01 0.0 -2.870911628866621e-15 0.0 0.01000002635010415 0.009999460043736067 0.0 -5.928444091929188e-15 0.0 0.01 0.0 -5.928444091929188e-15 0.0 0.010000031250146486 0.009999346064150408 0.0 -2.668730263278373e-19 0.0 0.01 0.0 -2.668730263278373e-19 0.0 0.01000002000006 0.009999346064150408 0.0 -4.246369012968442e-18 0.0 0.01 0.0 -4.246369012968442e-18 0.0 0.01000002100006615 0.00999934556424853 0.0 -9.367992059530243e-17 0.0 0.01 0.0 -9.367992059530243e-17 0.0 0.010000022950079004 0.009999343564641765 0.0 -3.4683561729601667e-16 0.0 0.01 0.0 -3.4683561729601667e-16 0.0 0.010000025400096774 0.009999341065134996 0.0 -1.166137416743823e-15 0.0 0.01 0.0 -1.166137416743823e-15 0.0 0.010000028800124417 0.009999337065928066 0.0 -3.472407606553748e-15 0.0 0.01 0.0 -3.472407606553748e-15 0.0 0.010000032700160394 0.009999332066926152 0.0 -8.530650715638999e-15 0.0 0.01 0.0 -8.530650715638999e-15 0.0 0.010000037100206464 0.009999324568437334 0.0 -1.6140686269863646e-14 0.0 0.01 0.0 -1.6140686269837797e-14 0.0 0.01000004345028319 0.009999202595388258 0.0 8.586089326522936e-19 0.0 0.01 0.0 8.586089326522936e-19 0.0 0.010000028300120135 0.009999202595388258 0.0 -7.530687124722598e-17 0.0 0.01 0.0 -7.530687124722598e-17 0.0 0.010000028300120135 0.009999202095507899 0.0 -2.561734189602322e-16 0.0 0.01 0.0 -2.561734189602322e-16 0.0 0.01000003025013726 0.009999199596107214 0.0 -8.997808373731907e-16 0.0 0.01 0.0 -8.997808373731907e-16 0.0 0.010000034650180095 0.009999196596828871 0.0 -3.677354011094035e-15 0.0 0.01 0.0 -3.677354011094035e-15 0.0 0.010000039550234633 0.009999191598037629 0.0 -9.849954026011608e-15 0.0 0.01 0.0 -9.849954026011608e-15 0.0 0.010000046400322947 0.009999185099620223 0.0 -2.2276162901136137e-14 0.0 0.01 0.0 -2.2276162901136137e-14 0.0 0.010000054200440653 0.009999176101832418 0.0 -4.062449177865437e-14 0.0 0.01 0.0 -4.062449177860267e-14 0.0 0.010000062500585946 0.009999058632942478 0.0 -2.2576134668466666e-18 0.0 0.01 0.0 -2.2576134668466666e-18 0.0 0.010000036600200936 0.009999058632942478 0.0 3.134450024768518e-17 0.0 0.01 0.0 3.134450024768518e-17 0.0 0.010000037600212066 0.00999905713336639 0.0 -6.8353057036386385e-16 0.0 0.01 0.0 -6.8353057036386385e-16 0.0 0.010000041000252152 0.009999054134216239 0.0 -2.665969842320598e-15 0.0 0.01 0.0 -2.665969842320598e-15 0.0 0.01000004685032924 0.009999051135068786 0.0 -9.152429777491087e-15 0.0 0.01 0.0 -9.152429777491087e-15 0.0 0.010000054700448817 0.009999044137068562 0.0 -2.4996856196123397e-14 0.0 0.01 0.0 -2.4996856196123397e-14 0.0 0.010000064450623078 0.009999035139661293 0.0 -5.256699657418417e-14 0.0 0.01 0.0 -5.256699657418417e-14 0.0 0.01000007615086984 0.009999023143156044 0.0 -9.067009288031966e-14 0.0 0.01 0.0 -9.067009288021626e-14 0.0 0.010000089351197535 0.009998933670583016 0.0 -2.5020209147459347e-19 0.0 0.01 0.0 -2.5020209147459347e-19 0.0 0.010000047350336307 0.009998932670903031 0.0 -2.0831914516705427e-16 0.0 0.01 0.0 -2.0831914516705427e-16 0.0 0.010000048850357952 0.00999893017170438 0.0 -1.5305298493340169e-15 0.0 0.01 0.0 -1.5305298493340169e-15 0.0 0.01000005420044065 0.009998927172668471 0.0 -6.20853146809658e-15 0.0 0.01 0.0 -6.20853146809658e-15 0.0 0.010000062500585943 0.009998922174281291 0.0 -1.9037400124681727e-14 0.0 0.01 0.0 -1.9037400124681727e-14 0.0 0.01000007420082586 0.00999891267736629 0.0 -4.941548858993953e-14 0.0 0.01 0.0 -4.941548858993953e-14 0.0 0.010000088401172202 0.009998902180807515 0.0 -1.003491553046006e-13 0.0 0.01 0.0 -1.0034915530449721e-13 0.0 0.010000105451667988 0.009998886186114846 0.0 -1.6518775015815986e-13 0.0 0.01 0.0 -1.6518775015815986e-13 0.0 0.01000012600238145 0.009998853697131669 0.0 5.793543890815618e-18 0.0 0.01 0.0 5.793543890815618e-18 0.0 0.010000059550531935 0.009998852197647784 0.0 -5.553778899072398e-16 0.0 0.01 0.0 -5.553778899072398e-16 0.0 0.010000061500567344 0.009998850198336986 0.0 -2.987665673241367e-15 0.0 0.01 0.0 -2.987665673241367e-15 0.0 0.010000069800730815 0.009998846199718987 0.0 -1.1344704363105623e-14 0.0 0.01 0.0 -1.1344704363105623e-14 0.0 0.010000080550973258 0.009998839202149038 0.0 -3.32156587073931e-14 0.0 0.01 0.0 -3.32156587073931e-14 0.0 0.010000097651430355 0.009998828205997361 0.0 -8.174859789588126e-14 0.0 0.01 0.0 -8.174859789598466e-14 0.0 0.010000118152093953 0.009998814710769896 0.0 -1.5922764232950347e-13 0.0 0.01 0.0 -1.5922764232971026e-13 0.0 0.010000142603050289 0.00999879571757936 0.0 -2.423621519551955e-13 0.0 0.01 0.0 -2.423621519549887e-13 0.0 0.010000177254712776 0.009998853697131669 0.0 -1.1872179605966961e-18 0.0 0.01 0.0 -1.1872179605966961e-18 0.0 0.010000073250804846 0.009998853197303632 0.0 -6.037661168972798e-16 0.0 0.01 0.0 -6.037661168972798e-16 0.0 0.010000076650881295 0.009998850198336986 0.0 -3.924819634570309e-15 0.0 0.01 0.0 -3.924819634570309e-15 0.0 0.010000086451121057 0.009998844700238476 0.0 -1.507019451007454e-14 0.0 0.01 0.0 -1.507019451007454e-14 0.0 0.010000103501606867 0.009998837702671667 0.0 -4.59642470514347e-14 0.0 0.01 0.0 -4.59642470514347e-14 0.0 0.010000126952417495 0.009998825706877044 0.0 -1.1003353128960279e-13 0.0 0.01 0.0 -1.1003353128960279e-13 0.0 0.010000155753638806 0.009998809712551364 0.0 -2.047477378745652e-13 0.0 0.01 0.0 -2.047477378745652e-13 0.0 0.010000192405552841 0.009998786720842673 0.0 -2.666204993131818e-13 0.0 0.01 0.0 -2.66620499312975e-13 0.0 0.010000249009300535 0.009998971658644643 0.0 1.210358011140137e-18 0.0 0.01 0.0 1.210358011140137e-18 0.0 0.010000087401145831 0.009998970159107686 0.0 -3.7825102046001003e-16 0.0 0.01 0.0 -3.7825102046001003e-16 0.0 0.010000091801264105 0.009998968159726127 0.0 -3.823502618653768e-15 0.0 0.01 0.0 -3.823502618653768e-15 0.0 0.010000105451667985 0.009998962661433025 0.0 -1.6149590059684002e-14 0.0 0.01 0.0 -1.6149590059684002e-14 0.0 0.010000128902492337 0.009998953664245691 0.0 -5.116574153948526e-14 0.0 0.01 0.0 -5.116574153948526e-14 0.0 0.010000160653871366 0.009998941668033695 0.0 -1.2343121972886375e-13 0.0 0.01 0.0 -1.2343121972886375e-13 0.0 0.010000200206012208 0.009998925173312696 0.0 -2.1708321586650994e-13 0.0 0.01 0.0 -2.1708321586671673e-13 0.0 0.010000256859896209 0.009998902680642893 0.0 -2.0358742437725141e-13 0.0 0.01 0.0 -2.03587424377665e-13 0.0 0.010000344267777227 0.009999236587428713 0.0 -3.996028393604585e-18 0.0 0.01 0.0 -3.996028393604585e-18 0.0 0.010000102551577501 0.009999236087543252 0.0 -1.9696883547870203e-16 0.0 0.01 0.0 -1.9696883547870203e-16 0.0 0.010000108901778914 0.009999232588347137 0.0 -2.5267920887167487e-15 0.0 0.01 0.0 -2.5267920887167487e-15 0.0 0.010000126452398492 0.009999227589501917 0.0 -1.3574076836435715e-14 0.0 0.01 0.0 -1.3574076836435715e-14 0.0 0.010000157253709233 0.009999219591365155 0.0 -4.8275471847688685e-14 0.0 0.01 0.0 -4.8275471847688685e-14 0.0 0.010000197755865957 0.009999209093839782 0.0 -1.1785880154182607e-13 0.0 0.01 0.0 -1.1785880154203286e-13 0.0 0.010000253409632143 0.009999193097674214 0.0 -1.8910600125975962e-13 0.0 0.01 0.0 -1.8910600125955283e-13 0.0 0.010000334966829665 0.009999173602451223 0.0 -3.8203453247888275e-14 0.0 0.01 0.0 -3.8203453247888275e-14 0.0 0.010000466332617886 0.009999656517697823 0.0 -5.5610119955033806e-18 0.0 0.01 0.0 -5.5610119955033806e-18 0.0 0.010000117202060416 0.009999656017749381 0.0 1.5268288955021618e-16 0.0 0.01 0.0 1.5268288955021618e-16 0.0 0.010000125002343799 0.009999654517904506 0.0 -9.14546988131633e-16 0.0 0.01 0.0 -9.14546988131633e-16 0.0 0.010000148953327997 0.009999650018373931 0.0 -9.162765860475676e-15 0.0 0.01 0.0 -9.162765860475676e-15 0.0 0.01000018800530177 0.009999644518955913 0.0 -3.944055341921164e-14 0.0 0.01 0.0 -3.944055341931504e-14 0.0 0.01000024070869082 0.009999636519818639 0.0 -1.0170696723906095e-13 0.0 0.01 0.0 -1.0170696723926775e-13 0.0 0.010000315464927093 0.009999625521036223 0.0 -1.3806340726923643e-13 0.0 0.01 0.0 -1.3806340726923643e-13 0.0 0.010000426277255295 0.009999613022463903 0.0 1.4878208810660217e-13 0.0 0.01 0.0 1.4878208810660217e-13 0.0 0.010000608955619527 0.010000207056430678 0.0 8.062779180760895e-18 0.0 0.01 0.0 8.062779180760895e-18 0.0 0.01000013185260772 0.01000020605636871 0.0 9.352023180769838e-17 0.0 0.01 0.0 9.352023180769838e-17 0.0 0.010000141603007655 0.010000205556337837 0.0 -4.7000711987300803e-17 0.0 0.01 0.0 -4.7000711987300803e-17 0.0 0.010000170904381147 0.01000020460627939 0.0 -5.793652276557965e-15 0.0 0.01 0.0 -5.793652276557965e-15 0.0 0.010000219757243776 0.010000201656099616 0.0 -3.040112542489638e-14 0.0 0.01 0.0 -3.04011254240692e-14 0.0 0.010000286162282861 0.010000199705982215 0.0 -8.279698387110926e-14 0.0 0.01 0.0 -8.279698387028208e-14 0.0 0.010000380371701296 0.010000196305780243 0.0 -1.0191790270496182e-13 0.0 0.01 0.0 -1.0191790270496182e-13 0.0 0.01000052444125291 0.010000192855578847 0.0 2.351994913547624e-13 0.0 0.01 0.0 2.3519949135558956e-13 0.0 0.010000766188047624 0.010000812098914987 0.0 1.3156873354374803e-17 0.0 0.01 0.0 1.3156873354374803e-17 0.0 0.010000145503175614 0.010000812098914987 0.0 1.906297371819622e-16 0.0 0.01 0.0 1.906297371819622e-16 0.0 0.010000158203754186 0.01000081259903685 0.0 1.4283232498487632e-16 0.0 0.01 0.0 1.4283232498487632e-16 0.0 0.010000193355607813 0.010000815049635058 0.0 -3.829301426315037e-15 0.0 0.01 0.0 -3.829301426315037e-15 0.0 0.010000251459484463 0.010000817950345476 0.0 -2.3836464562036468e-14 0.0 0.01 0.0 -2.3836464562036468e-14 0.0 0.010000331566489724 0.010000821401193908 0.0 -7.010888488552417e-14 0.0 0.01 0.0 -7.010888488511058e-14 0.0 0.010000445829812863 0.010000826252392672 0.0 -9.29793781216713e-14 0.0 0.01 0.0 -9.29793781216713e-14 0.0 0.010000623608328253 0.010000834554460552 0.0 1.6976842076664704e-13 0.0 0.01 0.0 1.6976842076333831e-13 0.0 0.010000920527089924 0.010001363078646868 0.0 2.0781302727729294e-18 0.0 0.01 0.0 2.0781302727729294e-18 0.0 0.010000158703777955 0.010001364029035533 0.0 9.450688998084389e-17 0.0 0.01 0.0 9.450688998084389e-17 0.0 0.010000173354507664 0.010001366480039131 0.0 1.1393991949434297e-16 0.0 0.01 0.0 1.1393991949434297e-16 0.0 0.010000213856860018 0.010001370381640414 0.0 -3.296804320167204e-15 0.0 0.01 0.0 -3.296804320167204e-15 0.0 0.010000280761823637 0.010001376734257402 0.0 -1.9989285932689226e-14 0.0 0.01 0.0 -1.9989285932715076e-14 0.0 0.010000374020982708 0.010001387488715329 0.0 -6.051681776084608e-14 0.0 0.01 0.0 -6.051681776084608e-14 0.0 0.010000506888537795 0.01000140019402661 0.0 -1.0102947686850944e-13 0.0 0.01 0.0 -1.0102947686892304e-13 0.0 0.010000712976243026 0.01000141875187143 0.0 2.5980751766276465e-14 0.0 0.01 0.0 2.5980751766276465e-14 0.0 0.010001058768124762 0.010001746557462913 0.0 5.441008499034965e-18 0.0 0.01 0.0 5.441008499034965e-18 0.0 0.010000170404355548 0.010001747057724981 0.0 4.8896024694483235e-17 0.0 0.01 0.0 4.8896024694483235e-17 0.0 0.0100001865052175 0.010001751460034406 0.0 -2.638254306149875e-16 0.0 0.01 0.0 -2.638254306149875e-16 0.0 0.010000232408101778 0.010001757313113894 0.0 -3.0354135554167602e-15 0.0 0.01 0.0 -3.0354135554167602e-15 0.0 0.010000307164151893 0.010001766568004142 0.0 -1.6280646011322544e-14 0.0 0.01 0.0 -1.6280646011322544e-14 0.0 0.01000041017523518 0.010001781225801802 0.0 -4.9525199535214714e-14 0.0 0.01 0.0 -4.9525199535111316e-14 0.0 0.010000557646642 0.010001800286037803 0.0 -9.793379490996464e-14 0.0 0.01 0.0 -9.793379491017143e-14 0.0 0.010000787192941153 0.010001826200129257 0.0 -8.177487719119412e-14 0.0 0.01 0.0 -8.177487719119412e-14 0.0 0.01000117010533994 0.010001904844126473 0.0 5.630064043843964e-20 0.0 0.01 0.0 5.630064043843964e-20 0.0 0.010000180204870953 0.010001905794669592 0.0 -3.648590253774411e-17 0.0 0.01 0.0 -3.648590253774411e-17 0.0 0.010000197755865954 0.010001910197188626 0.0 -2.880307059228268e-16 0.0 0.01 0.0 -2.880307059228268e-16 0.0 0.01000024755919253 0.010001916550834303 0.0 -2.5579027204289537e-15 0.0 0.01 0.0 -2.5579027204289537e-15 0.0 0.010000328116148325 0.01000192875787257 0.0 -1.1555931843951099e-14 0.0 0.01 0.0 -1.1555931843951099e-14 0.0 0.01000043997903553 0.01000194491725837 0.0 -3.432200946604747e-14 0.0 0.01 0.0 -3.432200946609917e-14 0.0 0.010000597203493545 0.010001967380435605 0.0 -7.281369910526047e-14 0.0 0.01 0.0 -7.281369910526047e-14 0.0 0.010000841906309002 0.010001997198160788 0.0 -1.002030968075571e-13 0.0 0.01 0.0 -1.002030968077639e-13 0.0 0.010001250734611439 0.010001864771476238 0.0 3.487063916852125e-18 0.0 0.01 0.0 3.487063916852125e-18 0.0 0.010000188005301766 0.010001865772035925 0.0 -1.1961956636573145e-17 0.0 0.01 0.0 -1.1961956636573145e-17 0.0 0.010000205556337837 0.01000187062475466 0.0 -2.3530218239822955e-16 0.0 0.01 0.0 -2.3530218239822955e-16 0.0 0.010000258310008265 0.01000187747860656 0.0 -1.4787151008967437e-15 0.0 0.01 0.0 -1.4787151008967437e-15 0.0 0.010000343267674097 0.010001889685501768 0.0 -6.225015394968983e-15 0.0 0.01 0.0 -6.225015394968983e-15 0.0 0.010000460481804571 0.010001906795241591 0.0 -1.8013308179941143e-14 0.0 0.01 0.0 -1.8013308179941143e-14 0.0 0.010000625058599857 0.010001930258741017 0.0 -4.008023599357052e-14 0.0 0.01 0.0 -4.008023599357052e-14 0.0 0.010000879015886758 0.010001961026693065 0.0 -6.539931951238579e-14 0.0 0.01 0.0 -6.539931951238579e-14 0.0 0.010001301504042832 0.010001705536228873 0.0 -5.368728433604169e-19 0.0 0.01 0.0 -5.368728433604169e-19 0.0 0.010000192855578847 0.01000170598645919 0.0 -2.0543009105442368e-17 0.0 0.01 0.0 -2.0543009105442368e-17 0.0 0.01000021095667522 0.01000171088897102 0.0 -1.2420470662648906e-16 0.0 0.01 0.0 -1.2420470662648906e-16 0.0 0.010000265160546144 0.010001717742494545 0.0 -5.651623600743023e-16 0.0 0.01 0.0 -5.651623600743023e-16 0.0 0.010000353068697745 0.010001728948285984 0.0 -2.149520555890647e-15 0.0 0.01 0.0 -2.149520555890647e-15 0.0 0.010000473183583287 0.010001745556939005 0.0 -5.84466890207115e-15 0.0 0.01 0.0 -5.84466890207115e-15 0.0 0.01000064116165797 0.010001770019834651 0.0 -1.3727263879037125e-14 0.0 0.01 0.0 -1.3727263879037125e-14 0.0 0.010000899071234831 0.010001800286037808 0.0 -2.3798423307764423e-14 0.0 0.01 0.0 -2.3798423307661026e-14 0.0 0.010001328864835343 0.010001512042871922 0.0 2.5252827302363402e-18 0.0 0.01 0.0 2.5252827302363402e-18 0.0 0.010000194355665971 0.0100015125430988 0.0 -6.196161810664432e-18 0.0 0.01 0.0 -6.196161810664432e-18 0.0 0.010000213406831177 0.010001516444871026 0.0 -1.8780140946953222e-17 0.0 0.01 0.0 -1.8780140946953222e-17 0.0 0.010000268060778101 0.010001523297994835 0.0 -5.510094911553731e-17 0.0 0.01 0.0 -5.510094911553731e-17 0.0 0.010000355969006188 0.010001534052925568 0.0 -1.544680498135321e-16 0.0 0.01 0.0 -1.544680498135321e-16 0.0 0.010000477584210823 0.01000155066060769 0.0 -4.0119110527978324e-16 0.0 0.01 0.0 -4.0119110527978324e-16 0.0 0.010000646562701094 0.010001572170680394 0.0 -7.194455022636879e-16 0.0 0.01 0.0 -7.194455022636879e-16 0.0 0.010000904922817976 0.010001599983910375 0.0 -2.619402908667432e-16 0.0 0.01 0.0 -2.619402908667432e-16 0.0 0.010001334266992762 0.010001334717172943 0.0 -5.1634934847326784e-18 0.0 0.01 0.0 -5.1634934847326784e-18 0.0 0.010000193855636856 0.010001335217373215 0.0 1.4981129302293406e-14 0.0 0.01 0.0 1.4981129302293406e-14 0.0 0.010000212406767305 0.010001338668757135 0.0 -3.044541794190565e-17 0.0 0.01 0.0 -3.044541794190565e-17 0.0 0.010000267110701839 0.010001345471495325 0.0 -7.606260288723744e-17 0.0 0.01 0.0 -7.606260288723744e-17 0.0 0.010000355018904868 0.01000135527546596 0.0 -2.829546731178555e-16 0.0 0.01 0.0 -2.829546731178555e-16 0.0 0.010000475133860683 0.010001370381640414 0.0 -7.576350111669552e-16 0.0 0.01 0.0 -7.576350111669552e-16 0.0 0.010000641661754187 0.010001390890132498 0.0 -8.8882992029822e-16 0.0 0.01 0.0 -8.8882992029822e-16 0.0 0.010000898571099995 0.01000141680104191 0.0 3.5146205506880747e-15 0.0 0.01 0.0 3.5146205506880747e-15 0.0 0.010001321561932735 0.010001181359308503 0.0 9.283846944775813e-19 0.0 0.01 0.0 9.283846944775813e-19 0.0 0.010000190455440853 0.01000118280982277 0.0 1.3488348528360703e-17 0.0 0.01 0.0 1.3488348528360703e-17 0.0 0.010000208506521065 0.010001185760870987 0.0 -4.122995208684642e-17 0.0 0.01 0.0 -4.122995208684642e-17 0.0 0.010000262710352148 0.010001192613315056 0.0 -3.7782095496321317e-16 0.0 0.01 0.0 -3.7782095496321317e-16 0.0 0.010000349118281685 0.01000120136645753 0.0 -1.5044399261430323e-15 0.0 0.01 0.0 -1.5044399261430323e-15 0.0 0.010000466332617888 0.010001215071423913 0.0 -4.033374387342968e-15 0.0 0.01 0.0 -4.033374387342968e-15 0.0 0.0100006289593335 0.010001234578590017 0.0 -8.038393690176137e-15 0.0 0.01 0.0 -8.038393690176137e-15 0.0 0.01000088046626948 0.010001259037736496 0.0 -4.253198723879567e-15 0.0 0.01 0.0 -4.253198723879567e-15 0.0 0.010001295651763534 0.010001031409548906 0.0 1.5217625986341787e-18 0.0 0.01 0.0 1.5217625986341787e-18 0.0 0.01000018555516448 0.010001032409858513 0.0 -2.464093570849088e-14 0.0 0.01 0.0 -2.464093570849088e-14 0.0 0.010000202656160261 0.010001035810913413 0.0 -4.65526486646457e-17 0.0 0.01 0.0 -4.65526486646457e-17 0.0 0.010000254909746516 0.010001041662736587 0.0 -4.818630639956915e-16 0.0 0.01 0.0 -4.818630639956915e-16 0.0 0.010000338867223872 0.010001050465498484 0.0 -2.7083641572878202e-15 0.0 0.01 0.0 -2.7083641572878202e-15 0.0 0.010000451680600462 0.010001065120147978 0.0 -7.731830899045255e-15 0.0 0.01 0.0 -7.731830899045255e-15 0.0 0.010000610405884756 0.010001082225656512 0.0 -1.660059510942316e-14 0.0 0.01 0.0 -1.660059510942316e-14 0.0 0.010000851658786053 0.010001106133502635 0.0 -1.4501885886462913e-14 0.0 0.01 0.0 -1.4501885886669708e-14 0.0 0.010001252685343777 0.010000858510543399 0.0 -6.6328316647429696e-18 0.0 0.01 0.0 -6.6328316647429696e-18 0.0 0.010000178204763429 0.010000860461046241 0.0 -2.4903055668933057e-18 0.0 0.01 0.0 -2.4903055668933057e-18 0.0 0.010000195805750834 0.01000086341180912 0.0 2.0055049954545241e-16 0.0 0.01 0.0 2.0055049954545241e-16 0.0 0.010000244658978408 0.010000869763460112 0.0 -1.8669285683894221e-16 0.0 0.01 0.0 -1.8669285683894221e-16 0.0 0.010000324215766698 0.01000087851575493 0.0 -1.9482161065573367e-15 0.0 0.01 0.0 -1.9482161065573367e-15 0.0 0.010000432628073439 0.010000891219126578 0.0 -8.552894891523234e-15 0.0 0.01 0.0 -8.552894891574932e-15 0.0 0.010000584051163382 0.01000090932401549 0.0 -1.9702034693570023e-14 0.0 0.01 0.0 -1.9702034693570023e-14 0.0 0.01000081454951283 0.010000931280076236 0.0 -1.7048498900097935e-14 0.0 0.01 0.0 -1.704849890030473e-14 0.0 0.010001197965233726 0.010000653364027105 0.0 9.235523185383309e-18 0.0 0.01 0.0 9.235523185383309e-18 0.0 0.010000170404355548 0.010000653864125153 0.0 5.400435095929006e-18 0.0 0.01 0.0 5.400435095929006e-18 0.0 0.010000187005245513 0.010000656814705168 0.0 2.483309459329405e-16 0.0 0.01 0.0 2.483309459329405e-16 0.0 0.010000233908206702 0.010000662665863087 0.0 8.303211843679956e-16 0.0 0.01 0.0 8.303211843679956e-16 0.0 0.01000030761419339 0.010000670967523571 0.0 8.083520271447592e-16 0.0 0.01 0.0 8.083520271447592e-16 0.0 0.010000410175235178 0.01000068367010433 0.0 -4.720932520031965e-15 0.0 0.01 0.0 -4.720932520083664e-15 0.0 0.01000055129558567 0.010000700773655676 0.0 -1.648955954580786e-14 0.0 0.01 0.0 -1.648955954663504e-14 0.0 0.010000770088946415 0.01000072272834289 0.0 -1.3155923145118953e-14 0.0 0.01 0.0 -1.3155923145170652e-14 0.0 0.010001130091537172 0.010000427277383334 0.0 1.7221429654306845e-17 0.0 0.01 0.0 1.7221429654306845e-17 0.0 0.01000016260396592 0.010000428727569524 0.0 -1.8496327294832341e-16 0.0 0.01 0.0 -1.8496327294832341e-16 0.0 0.010000178204763429 0.010000430677820912 0.0 2.0476314596006426e-16 0.0 0.01 0.0 2.0476314596006426e-16 0.0 0.010000221207339687 0.010000435578457638 0.0 1.477645724243603e-15 0.0 0.01 0.0 1.477645724243603e-15 0.0 0.010000290062619962 0.010000442879419591 0.0 3.474252795418726e-15 0.0 0.01 0.0 3.4742527953153285e-15 0.0 0.010000385272264066 0.010000453630865281 0.0 1.6197111179548547e-15 0.0 0.01 0.0 1.6197111179548547e-15 0.0 0.010000515639879935 0.010000468282891273 0.0 -8.71025892467015e-15 0.0 0.01 0.0 -8.710258924566753e-15 0.0 0.01000071737718712 0.010000489285907762 0.0 -1.860152740432648e-15 0.0 0.01 0.0 -1.860152740432648e-15 0.0 0.010001052916271558 0.010000207506458662 0.0 -6.899699502647771e-17 0.0 0.01 0.0 -6.899699502647771e-17 0.0 0.01000015480359455 0.010000208006489824 0.0 -2.6847814541959543e-16 0.0 0.01 0.0 -2.6847814541959543e-16 0.0 0.010000169454307118 0.010000209956612086 0.0 -4.639427890445669e-16 0.0 0.01 0.0 -4.639427890445669e-16 0.0 0.010000207056430682 0.01000021340683118 0.0 1.567999879516397e-15 0.0 0.01 0.0 1.567999879516397e-15 0.0 0.010000271011016651 0.010000218757177997 0.0 5.898305739685943e-15 0.0 0.01 0.0 5.898305739685943e-15 0.0 0.010000357419161356 0.010000227057733046 0.0 7.289777852434128e-15 0.0 0.01 0.0 7.289777852434128e-15 0.0 0.01000047658406769 0.010000239258586426 0.0 1.142710195072617e-15 0.0 0.01 0.0 1.142710195072617e-15 0.0 0.010000662165763717 0.010000257809969553 0.0 2.35404019635898e-15 0.0 0.01 0.0 2.35404019635898e-15 0.0 0.010000968890794217 0.010000019050054435 0.0 -7.494094098350988e-17 0.0 0.01 0.0 -7.494094098350988e-17 0.0 0.010000146953239225 0.010000020500063036 0.0 -3.820219424011848e-16 0.0 0.01 0.0 -3.820219424011848e-16 0.0 0.010000159203801796 0.01000002100006615 0.0 -8.470312477147966e-16 0.0 0.01 0.0 -8.470312477147966e-16 0.0 0.010000193855636856 0.0100000224500756 0.0 1.3162676276410211e-15 0.0 0.01 0.0 1.3162676276410211e-15 0.0 0.01000025195952222 0.010000026850108142 0.0 7.713021396732492e-15 0.0 0.01 0.0 7.713021396732492e-15 0.0 0.010000329616296324 0.010000031250146485 0.0 1.3386520246520398e-14 0.0 0.01 0.0 1.3386520246572097e-14 0.0 0.010000438028778702 0.010000040550246649 0.0 8.350303958139436e-15 0.0 0.01 0.0 8.350303958139436e-15 0.0 0.010000604554818564 0.01000005520045706 0.0 1.1316795830618101e-15 0.0 0.01 0.0 1.1316795830618101e-15 0.0 0.010000884417315264 0.00999987400238135 0.0 -1.4706353046879e-17 0.0 0.01 0.0 -1.4706353046879e-17 0.0 0.010000139152904475 0.00999987400238135 0.0 -5.007167828627807e-16 0.0 0.01 0.0 -5.007167828627807e-16 0.0 0.01000015040339311 0.009999874502362489 0.0 -1.0627375015218453e-15 0.0 0.01 0.0 -1.0627375015218453e-15 0.0 0.010000181654949659 0.009999875002343702 0.0 1.3762333292648677e-15 0.0 0.01 0.0 1.3762333292648677e-15 0.0 0.010000231958070434 0.00999987550232499 0.0 8.612182985155271e-15 0.0 0.01 0.0 8.612182985103572e-15 0.0 0.010000301763658645 0.009999879502177997 0.0 1.995483649143792e-14 0.0 0.01 0.0 1.995483649143792e-14 0.0 0.010000398973875755 0.0099998855019665 0.0 2.1358628009672663e-14 0.0 0.01 0.0 2.1358628009672663e-14 0.0 0.01000054839510728 0.00999989750157591 0.0 4.2915038057277744e-15 0.0 0.01 0.0 4.2915038057277744e-15 0.0 0.010000800396084829 0.009999767508108123 0.0 1.6936622099295109e-18 0.0 0.01 0.0 1.6936622099295109e-18 0.0 0.010000132302625551 0.009999767508108123 0.0 -5.265177608652677e-16 0.0 0.01 0.0 -5.265177608652677e-16 0.0 0.010000142103028933 0.009999768008073288 0.0 -1.112804585332931e-15 0.0 0.01 0.0 -1.112804585332931e-15 0.0 0.010000169904330024 0.009999768508038527 0.0 9.291854608208765e-16 0.0 0.01 0.0 9.291854608208765e-16 0.0 0.010000214356892134 0.009999769008003843 0.0 1.0254712312741916e-14 0.0 0.01 0.0 1.0254712312690217e-14 0.0 0.010000275411377296 0.009999770507900239 0.0 2.890673276412428e-14 0.0 0.01 0.0 2.890673276402088e-14 0.0 0.010000361369587256 0.009999775007593465 0.0 4.866745620670507e-14 0.0 0.01 0.0 4.8667456206911866e-14 0.0 0.010000496136920334 0.009999786506837095 0.0 3.740174343842374e-14 0.0 0.01 0.0 3.740174343847544e-14 0.0 0.010000723228451344 0.009999696513816138 0.0 9.842502479637669e-19 0.0 0.01 0.0 9.842502479637669e-19 0.0 0.01000012600238145 0.009999697013770655 0.0 -7.161900759359909e-16 0.0 0.01 0.0 -7.161900759359909e-16 0.0 0.010000134752723697 0.009999697013770655 0.0 -1.956626754522169e-15 0.0 0.01 0.0 -1.956626754522169e-15 0.0 0.010000158203754186 0.009999696513816138 0.0 -3.4807396310223597e-16 0.0 0.01 0.0 -3.4807396310223597e-16 0.0 0.010000197255836327 0.009999697013770655 0.0 1.1248154442224967e-14 0.0 0.01 0.0 1.1248154442173268e-14 0.0 0.01000025050941293 0.00999969951354436 0.0 4.2736008032605516e-14 0.0 0.01 0.0 4.273600803250212e-14 0.0 0.010000328116148326 0.0099997055130089 0.0 9.592905661260363e-14 0.0 0.01 0.0 9.592905661260363e-14 0.0 0.010000451680600464 0.009999718011928043 0.0 1.2585563528703613e-13 0.0 0.01 0.0 1.2585563528662254e-13 0.0 0.010000656814705172 0.009999650518321471 0.0 -3.208296095416122e-18 0.0 0.01 0.0 -3.208296095416122e-18 0.0 0.010000119152129552 0.009999651018269088 0.0 -1.0519633630266566e-15 0.0 0.01 0.0 -1.0519633630266566e-15 0.0 0.010000126952417497 0.009999651518216779 0.0 -3.560599418744445e-15 0.0 0.01 0.0 -3.560599418744445e-15 0.0 0.010000146503219415 0.00999965251811239 0.0 -2.7893393443848192e-15 0.0 0.01 0.0 -2.7893393443848192e-15 0.0 0.010000180654895312 0.009999654017956366 0.0 1.3322884710222957e-14 0.0 0.01 0.0 1.3322884710222957e-14 0.0 0.010000229007866452 0.009999657517594933 0.0 6.744019321920801e-14 0.0 0.01 0.0 6.744019321920801e-14 0.0 0.01000029981348268 0.009999666016732467 0.0 1.8299460794295946e-13 0.0 0.01 0.0 1.8299460794337305e-13 0.0 0.010000414075717383 0.009999682015167793 0.0 3.081912148300943e-13 0.0 0.01 0.0 3.0819121483092147e-13 0.0 0.010000603554637331 0.009999626020980092 0.0 -2.6204185713287905e-18 0.0 0.01 0.0 -2.6204185713287905e-18 0.0 0.010000114251957997 0.009999626020980092 0.0 -1.6386568438605609e-15 0.0 0.01 0.0 -1.6386568438605609e-15 0.0 0.010000120102163645 0.009999626020980094 0.0 -5.35717981878698e-15 0.0 0.01 0.0 -5.35717981878698e-15 0.0 0.010000136702803098 0.009999629020644872 0.0 -4.492473350792022e-15 0.0 0.01 0.0 -4.492473350792022e-15 0.0 0.010000166504158452 0.009999632520257195 0.0 2.075334558787092e-14 0.0 0.01 0.0 2.075334558787092e-14 0.0 0.01000020995661208 0.009999640519384878 0.0 1.1403134513492677e-13 0.0 0.01 0.0 1.1403134513492677e-13 0.0 0.010000277361538988 0.009999652518112391 0.0 3.2804003997732223e-13 0.0 0.01 0.0 3.280400399781494e-13 0.0 0.01000038672243198 0.009999675015842893 0.0 3.8261618874469e-12 0.0 0.01 0.0 3.8261618874469e-12 0.0 0.010000567448295982 0.009999618021887207 0.0 -5.545406844861223e-18 0.0 0.01 0.0 -5.545406844861223e-18 0.0 0.010000107901746392 0.009999619021772767 0.0 -2.0664060710765075e-15 0.0 0.01 0.0 -2.0664060710765075e-15 0.0 0.010000112801908613 0.009999621021544792 0.0 -5.8362887279441475e-15 0.0 0.01 0.0 -5.8362887279441475e-15 0.0 0.010000127952455735 0.009999625521036224 0.0 -9.683150906985584e-17 0.0 0.01 0.0 -9.683150906985584e-17 0.0 0.01000015480359455 0.009999633020202113 0.0 4.892225093728514e-14 0.0 0.01 0.0 4.892225093738854e-14 0.0 0.01000019630578024 0.009999644518955915 0.0 2.1313120470132282e-13 0.0 0.01 0.0 2.1313120470132282e-13 0.0 0.010000263210391592 0.00999966501683281 0.0 5.701294130368654e-13 0.0 0.01 0.0 5.701294130368654e-13 0.0 0.010000372570820322 0.009999695013953041 0.0 6.77678339887188e-11 0.0 0.01 0.0 6.77678339887188e-11 0.0 0.010000548395107282 0.009999630020533733 0.0 1.2797201813986577e-18 0.0 0.01 0.0 1.2797201813986577e-18 0.0 0.010000101051531691 0.009999631020422894 0.0 -1.063535036789038e-15 0.0 0.01 0.0 -1.063535036789038e-15 0.0 0.01000010595168384 0.009999634520037317 0.0 7.832048212077126e-18 0.0 0.01 0.0 7.832048212077126e-18 0.0 0.010000120102163645 0.009999642019223454 0.0 2.385598541351644e-14 0.0 0.01 0.0 2.3855985413413042e-14 0.0 0.010000146003197478 0.009999655517801014 0.0 1.2659976132471706e-13 0.0 0.01 0.0 1.2659976132471706e-13 0.0 0.010000188955355482 0.009999675015842893 0.0 4.0768218315504984e-13 0.0 0.01 0.0 4.0768218315504984e-13 0.0 0.01000025931008591 0.00999970401314175 0.0 2.342435579206263e-11 0.0 0.01 0.0 2.342435579206263e-11 0.0 0.010000373070876246 0.009999742009984205 0.0 4.934162060035778e-10 0.0 0.01 0.0 4.934162060018837e-10 0.0 0.010000544944541482 0.009999663017034392 0.0 -1.178868335226687e-18 0.0 0.01 0.0 -1.178868335226687e-18 0.0 0.010000096201388189 0.009999664516883094 0.0 3.193566993382156e-15 0.0 0.01 0.0 3.193566993382156e-15 0.0 0.010000101051531691 0.00999967201613672 0.0 2.2045428498661452e-14 0.0 0.01 0.0 2.2045428498661452e-14 0.0 0.010000115251992426 0.009999684514930255 0.0 9.333116956792858e-14 0.0 0.01 0.0 9.333116956792858e-14 0.0 0.010000142603050289 0.00999970501305311 0.0 2.937521605132096e-13 0.0 0.01 0.0 2.937521605132096e-13 0.0 0.01000019140549527 0.009999735510493579 0.0 2.0328167463967212e-11 0.0 0.01 0.0 2.0328167463914273e-11 0.0 0.010000267110701844 0.009999773507695065 0.0 3.365120039472942e-10 0.0 0.01 0.0 3.3651200394814126e-10 0.0 0.010000385272264083 0.009999815005134286 0.0 2.152335891183007e-09 0.0 0.01 0.0 2.152335891183007e-09 0.0 0.010000553745992496 0.009999725511302019 0.0 6.414183459851575e-18 0.0 0.01 0.0 6.414183459851575e-18 0.0 0.010000095201359476 0.009999729011015654 0.0 1.4876098046628133e-14 0.0 0.01 0.0 1.487609804673153e-14 0.0 0.01000009960148805 0.009999740010139563 0.0 7.635425382710802e-14 0.0 0.01 0.0 7.635425382710802e-14 0.0 0.010000116702042875 0.009999761008567809 0.0 2.1043942768192114e-12 0.0 0.01 0.0 2.1043942768192114e-12 0.0 0.010000148953327999 0.00999979000661477 0.0 4.64212023880848e-11 0.0 0.01 0.0 4.64212023880848e-11 0.0 0.0100002021561299 0.009999828504411735 0.0 3.9328819457133755e-10 0.0 0.01 0.0 3.9328819457133755e-10 0.0 0.010000285662239993 0.009999870002535516 0.0 1.9483822890376e-09 0.0 0.01 0.0 1.9483822890443763e-09 0.0 0.010000406274758107 0.009999906001331873 0.0 6.579975269497044e-09 0.0 0.01 0.0 6.579975269469939e-09 0.0 0.01000056644813238 0.009999832504208321 0.0 -1.3692825261833072e-18 0.0 0.01 0.0 -1.3692825261833072e-18 0.0 0.010000099601488049 0.009999837003985244 0.0 7.240004589851581e-13 0.0 0.01 0.0 7.240004589884668e-13 0.0 0.010000106451699775 0.00999985200328552 0.0 1.7960634450687392e-11 0.0 0.01 0.0 1.796063445079327e-11 0.0 0.01000012645239849 0.009999878002232556 0.0 1.3337708133936591e-10 0.0 0.01 0.0 1.3337708133851888e-10 0.0 0.010000163554012401 0.009999910501201584 0.0 6.505457348759524e-10 0.0 0.01 0.0 6.505457348759524e-10 0.0 0.010000224107533469 0.009999949000390952 0.0 2.321441561645653e-09 0.0 0.01 0.0 2.3214415616592057e-09 0.0 0.010000311514556399 0.009999984500042532 0.0 6.579999312777973e-09 0.0 0.01 0.0 6.579999312777973e-09 0.0 0.01000043022776929 0.01000000635004007 0.0 1.5060278032855753e-08 0.0 0.01 0.0 1.5060278032855753e-08 0.0 0.010000576699917605 0.009999983500040837 0.0 5.5141967583335535e-18 0.0 0.01 0.0 5.5141967583335535e-18 0.0 0.010000115251992422 0.009999989000018148 0.0 3.3100296352902686e-11 0.0 0.01 0.0 3.3100296352902686e-11 0.0 0.010000122552252818 0.010000003900002288 0.0 2.480665063928154e-10 0.0 0.01 0.0 2.480665063928154e-10 0.0 0.010000146503219424 0.010000027850116494 0.0 1.009699535407197e-09 0.0 0.01 0.0 1.009699535407197e-09 0.0 0.010000188955355635 0.010000055650465932 0.0 3.0403454812078217e-09 0.0 0.01 0.0 3.0403454811807167e-09 0.0 0.010000251959523608 0.010000083001041611 0.0 7.414976755434205e-09 0.0 0.01 0.0 7.414976755434205e-09 0.0 0.01000033936728299 0.01000010155158199 0.0 1.5297746573997555e-08 0.0 0.01 0.0 1.5297746573943345e-08 0.0 0.01000045023043939 0.010000102051671208 0.0 2.6964048340915453e-08 0.0 0.01 0.0 2.6964048340807033e-08 0.0 0.010000580600669695 0.010000160153847306 0.0 3.397077787486523e-16 0.0 0.01 0.0 3.397077787486523e-16 0.0 0.010000142603050287 0.010000164054036975 0.0 1.9664875535786198e-10 0.0 0.01 0.0 1.9664875535786198e-10 0.0 0.010000150403393113 0.010000175304609813 0.0 1.0537606247654208e-09 0.0 0.01 0.0 1.0537606247654208e-09 0.0 0.010000177254712939 0.0100001894553855 0.0 3.2995131368871583e-09 0.0 0.01 0.0 3.2995131371039987e-09 0.0 0.01000022170737454 0.010000203106196962 0.0 7.879588769985589e-09 0.0 0.01 0.0 7.87958877009401e-09 0.0 0.010000283212040216 0.010000210956711485 0.0 1.5549578934355435e-08 0.0 0.01 0.0 1.5549578934355435e-08 0.0 0.010000363769884576 0.010000206056472921 0.0 2.6358859380772037e-08 0.0 0.01 0.0 2.6358859380988878e-08 0.0 0.010000462932248157 0.010000192405784664 0.0 3.931406012021299e-08 0.0 0.01 0.0 3.931406012021299e-08 0.0 0.010000582551132715 0.010000333016634272 0.0 4.1221520822011686e-17 0.0 0.01 0.0 4.1221520822011686e-17 0.0 0.010000178704790197 0.010000333016634317 0.0 5.136026105483755e-10 0.0 0.01 0.0 5.136026105551517e-10 0.0 0.010000187005245555 0.010000334466780326 0.0 2.4138032078495613e-09 0.0 0.01 0.0 2.413803207795351e-09 0.0 0.010000213406832046 0.010000334966836093 0.0 6.547065183504404e-09 0.0 0.01 0.0 6.547065183504404e-09 0.0 0.01000025635986415 0.01000032861622567 0.0 1.3683900367857105e-08 0.0 0.01 0.0 1.3683900367857105e-08 0.0 0.01000031396481355 0.010000318365288535 0.0 2.3905541931407148e-08 0.0 0.01 0.0 2.3905541931407148e-08 0.0 0.010000389172802854 0.010000311514754067 0.0 3.63761866852344e-08 0.0 0.01 0.0 3.637618668480072e-08 0.0 0.010000480034761245 0.01000032766646717 0.0 4.92029619374168e-08 0.0 0.01 0.0 4.920296193785048e-08 0.0 0.01000059085272498 0.010000469283031919 0.0 -1.9887852744152385e-17 0.0 0.01 0.0 -1.9887852744152385e-17 0.0 0.010000221207339687 0.01000046778282117 0.0 8.221865159047581e-10 0.0 0.01 0.0 8.221865159047581e-10 0.0 0.010000228507832238 0.01000046343221542 0.0 3.6490195575453535e-09 0.0 0.01 0.0 3.6490195575724586e-09 0.0 0.010000254909748514 0.010000457531411197 0.0 9.261187574314579e-09 0.0 0.01 0.0 9.261187574423e-09 0.0 0.010000294463018622 0.010000455581180972 0.0 1.8209880344290455e-08 0.0 0.01 0.0 1.8209880344290455e-08 0.0 0.010000349118331423 0.010000467782956336 0.0 3.00301377879203e-08 0.0 0.01 0.0 3.0030137787486616e-08 0.0 0.010000417026220428 0.010000501037922604 0.0 4.237307076829927e-08 0.0 0.01 0.0 4.237307076829927e-08 0.0 0.010000503438284234 0.010000545444988716 0.0 4.936314407146675e-08 0.0 0.01 0.0 4.936314407146675e-08 0.0 0.01000060940606726 0.010000662665863087 0.0 -1.5901261040495718e-17 0.0 0.01 0.0 -1.5901261040495718e-17 0.0 0.010000263210391592 0.01000066216576385 0.0 9.318460236770808e-10 0.0 0.01 0.0 9.31846023683857e-10 0.0 0.010000271011016778 0.010000662165766224 0.0 4.087966691123258e-09 0.0 0.01 0.0 4.087966691123258e-09 0.0 0.010000294463008264 0.01000066511636678 0.0 1.0230605067154761e-08 0.0 0.01 0.0 1.0230605067154761e-08 0.0 0.010000333016649971 0.010000677318865022 0.0 1.951440900039604e-08 0.0 0.01 0.0 1.951440900039604e-08 0.0 0.010000385772379014 0.010000699273470817 0.0 2.945942090639732e-08 0.0 0.01 0.0 2.945942090661416e-08 0.0 0.010000454631131693 0.01000071002577935 0.0 3.3272575147109615e-08 0.0 0.01 0.0 3.3272575147109615e-08 0.0 0.010000542544315974 0.01000068266996147 0.0 2.0348238518198142e-08 0.0 0.01 0.0 2.034823851733078e-08 0.0 0.010000648013044783 0.010000947884755794 0.0 -1.8426270429860576e-17 0.0 0.01 0.0 -1.8426270429860576e-17 0.0 0.010000303213790234 0.010000942983365938 0.0 6.56694462900626e-10 0.0 0.01 0.0 6.56694462898932e-10 0.0 0.010000310564467006 0.01000092397804576 0.0 2.8512385900439385e-09 0.0 0.01 0.0 2.8512385900371622e-09 0.0 0.010000333516685483 0.010000896120447272 0.0 6.775494745011983e-09 0.0 0.01 0.0 6.7754947449848776e-09 0.0 0.01000037357093913 0.010000855109686626 0.0 1.0723162625317535e-08 0.0 0.01 0.0 1.0723162625317535e-08 0.0 0.010000433628220624 0.010000792594231494 0.0 8.411390323354636e-09 0.0 0.01 0.0 8.411390323300426e-09 0.0 0.010000515189820954 0.010000684170217093 0.0 -8.232909654796311e-09 0.0 0.01 0.0 -8.232909654796311e-09 0.0 0.010000613356436467 0.010000942983365877 0.0 -1.2069571404946925e-17 0.0 0.01 0.0 -1.2069571404946925e-17 0.0 0.010000337917127428 0.010000926378710733 0.0 -1.4978602611463718e-10 0.0 0.01 0.0 -1.497860261150607e-10 0.0 0.010000344767828913 0.010000875614991996 0.0 -1.0958546448515546e-09 0.0 0.01 0.0 -1.0958546448515546e-09 0.0 0.010000370120547549 0.01000078864328758 0.0 -4.936224300865948e-09 0.0 0.01 0.0 -4.936224300865948e-09 0.0 0.010000418976333358 0.01000067096756378 0.0 -1.6372159808756247e-08 0.0 0.01 0.0 -1.6372159808864667e-08 0.0 0.010000505888426076 0.009999999500000037 0.0 -2.1960883995525978e-11 0.0 0.01 0.0 -2.1960883995525978e-11 0.0 0.01 0.009999999500000037 0.0 2.913715899406398e-11 0.0 0.01 0.0 2.913715899406398e-11 0.0 0.01 0.009999999500000037 0.0 1.2600089997433025e-11 0.0 0.01 0.0 1.2600089997433025e-11 0.0 0.01 0.009999999500000037 0.0 -3.0039967993880058e-12 0.0 0.01 0.0 -3.0039967993880058e-12 0.0 0.01 0.009999999500000037 0.0 -9.79680679800413e-14 0.0 0.01 0.0 -9.79680679800413e-14 0.0 0.01 0.009999999999999998 0.0 0.0 0.0 0.01 0.0 0.0 0.0 0.009999999999999998 0.009999999999999998 0.0 1.734723475976807e-18 0.0 0.01 0.0 1.734723475976807e-18 0.0 0.009999999999999998 0.009999999500000037 0.0 3.4403705992991046e-11 0.0 0.01 0.0 3.4403705992991046e-11 0.0 0.01 0.009999999500000037 0.0 2.622588158529999e-18 0.0 0.01 0.0 2.622588158529999e-18 0.0 0.01 0.009999999500000037 0.0 2.2654380995384694e-11 0.0 0.01 0.0 2.2654380995384694e-11 0.0 0.01 0.009999999500000037 0.0 2.8926656994106865e-11 0.0 0.01 0.0 2.8926656994106865e-11 0.0 0.01 0.009999999500000037 0.0 -1.8859845996157744e-12 0.0 0.01 0.0 -1.8859845996157744e-12 0.0 0.01 0.009999999500000037 0.0 -3.888988499207709e-11 0.0 0.01 0.0 -3.888988499207709e-11 0.0 0.01 0.009999999999999998 0.0 -1.734723475976807e-18 0.0 0.01 0.0 -1.734723475976807e-18 0.0 0.009999999999999998 0.009999999999999998 0.0 1.734723475976807e-18 0.0 0.01 0.0 1.734723475976807e-18 0.0 0.009999999999999998 0.00999999900000015 0.0 1.859375299621195e-11 0.0 0.01 0.0 1.859375299621195e-11 0.0 0.01 0.00999999900000015 0.0 9.29990799810536e-12 0.0 0.01 0.0 9.29990799810536e-12 0.0 0.01 0.00999999900000015 0.0 -9.383562498088317e-12 0.0 0.01 0.0 -9.383562498088317e-12 0.0 0.01 0.00999999900000015 0.0 -1.2063500997542343e-11 0.0 0.01 0.0 -1.2063500997542343e-11 0.0 0.01 0.009999999500000037 0.0 -2.65088670521908e-18 0.0 0.01 0.0 -2.65088670521908e-18 0.0 0.01 0.009999999500000037 0.0 -2.61588300663525e-18 0.0 0.01 0.0 -2.61588300663525e-18 0.0 0.01 0.009999999500000037 0.0 -8.808646098205443e-12 0.0 0.01 0.0 -8.808646098205443e-12 0.0 0.01 0.009999999500000037 0.0 2.99101169939065e-11 0.0 0.01 0.0 2.99101169939065e-11 0.0 0.01 0.009999998500000338 0.0 4.1119443324956195e-12 0.0 0.01 0.0 4.1119443324956195e-12 0.0 0.01 0.009999998500000338 0.0 5.891719998799699e-12 0.0 0.01 0.0 5.891719998799699e-12 0.0 0.01 0.009999998500000338 0.0 -4.1326113324914094e-13 0.0 0.01 0.0 -4.1326113324914094e-13 0.0 0.01 0.009999998500000338 0.0 -2.5693681689430784e-18 0.0 0.01 0.0 -2.5693681689430784e-18 0.0 0.01 0.00999999900000015 0.0 -1.6603737496617373e-11 0.0 0.01 0.0 -1.6603737496617373e-11 0.0 0.01 0.00999999900000015 0.0 -5.756357998827275e-12 0.0 0.01 0.0 -5.756357998827275e-12 0.0 0.01 0.00999999950000004 0.0 1.0859805677891016e-15 0.0 0.01 0.0 1.085980571097824e-15 0.0 0.010000000000000004 0.009999999500000039 0.0 4.0537637103012675e-15 0.0 0.01 0.0 4.053763697066378e-15 0.0 0.010000000000000002 0.0099999980000006 0.0 7.102645748553001e-12 0.0 0.01 0.0 7.102645748553001e-12 0.0 0.01 0.009999998500000338 0.0 2.7027724912520436e-18 0.0 0.01 0.0 2.7027724912520436e-18 0.0 0.01 0.009999998500000338 0.0 5.845232998809169e-12 0.0 0.01 0.0 5.845232998809169e-12 0.0 0.01 0.009999998500000338 0.0 -1.4357286997075035e-11 0.0 0.01 0.0 -1.4357286997075035e-11 0.0 0.01 0.009999998500000341 0.0 1.2318157225516995e-14 0.0 0.01 0.0 1.2318157225516995e-14 0.0 0.010000000000000004 0.009999998500000336 0.0 1.0666422117537805e-13 0.0 0.01 0.0 1.0666422096361982e-13 0.0 0.01 0.009999999000000152 0.0 2.9312458510395755e-13 0.0 0.01 0.0 2.93124585527474e-13 0.0 0.009999999999999998 0.009999999500000042 0.0 5.065277133142884e-13 0.0 0.01 0.0 5.065277116202225e-13 0.0 0.010000000000000004 0.009999997000001351 0.0 5.670529945902931e-18 0.0 0.01 0.0 5.670529945902931e-18 0.0 0.01 0.009999997000001351 0.0 2.934794528576087e-18 0.0 0.01 0.0 2.934794528576087e-18 0.0 0.01 0.009999997000001351 0.0 4.0829955616572424e-18 0.0 0.01 0.0 4.0829955616572424e-18 0.0 0.01 0.009999997500000937 0.0 6.207829179785668e-14 0.0 0.01 0.0 6.207829179785668e-14 0.0 0.010000000000000002 0.00999999750000094 0.0 5.025142111710827e-13 0.0 0.01 0.0 5.025142115945992e-13 0.0 0.01 0.0099999980000006 0.0 1.6913535950616046e-12 0.0 0.01 0.0 1.6913535933675387e-12 0.0 0.010000000000000002 0.009999998500000341 0.0 3.4773219121319275e-12 0.0 0.01 0.0 3.4773219121319275e-12 0.0 0.01 0.009999999000000152 0.0 5.297680703679215e-12 0.0 0.01 0.0 5.2976806901266875e-12 0.0 0.01 0.009999996500001837 0.0 -5.807297857468814e-12 0.0 0.01 0.0 -5.807297857468814e-12 0.0 0.01 0.009999996500001837 0.0 7.05075679839761e-18 0.0 0.01 0.0 7.05075679839761e-18 0.0 0.01 0.009999996500001837 0.0 6.830932418527087e-14 0.0 0.01 0.0 6.830932415880109e-14 0.0 0.010000000000000002 0.009999996500001834 0.0 8.383684096440944e-13 0.0 0.01 0.0 8.383684096440944e-13 0.0 0.009999999999999998 0.00999999650000184 0.0 3.759813175111871e-12 0.0 0.01 0.0 3.759813175111871e-12 0.0 0.010000000000000004 0.009999997000001346 0.0 1.000665650059511e-11 0.0 0.01 0.0 1.000665650059511e-11 0.0 0.009999999999999997 0.00999999750000094 0.0 1.883743441994431e-11 0.0 0.01 0.0 1.883743440639178e-11 0.0 0.009999999999999998 0.00999999850000034 0.0 2.6485353054597413e-11 0.0 0.01 0.0 2.6485353054597413e-11 0.0 0.010000000000000002 0.0099999940000054 0.0 -3.093334865564699e-18 0.0 0.01 0.0 -3.093334865564699e-18 0.0 0.01 0.009999994000005402 0.0 1.6732305443230704e-14 0.0 0.01 0.0 1.6732305439921982e-14 0.0 0.010000000000000002 0.009999994500004536 0.0 6.207938879022667e-13 0.0 0.01 0.0 6.207938879022667e-13 0.0 0.01 0.009999995000003752 0.0 4.2207279846455305e-12 0.0 0.01 0.0 4.2207279846455305e-12 0.0 0.01 0.009999995500003037 0.0 1.5259433704139548e-11 0.0 0.01 0.0 1.5259433697363285e-11 0.0 0.01 0.009999996000002403 0.0 3.7289864121894944e-11 0.0 0.01 0.0 3.728986409478989e-11 0.0 0.01 0.00999999650000184 0.0 6.763043451001385e-11 0.0 0.01 0.0 6.76304344829088e-11 0.0 0.010000000000000004 0.009999997000001353 0.0 9.240393839633418e-11 0.0 0.01 0.0 9.240393839633418e-11 0.0 0.010000000000000004 0.009999992000009601 0.0 -1.0668098125252267e-12 0.0 0.01 0.0 -1.0668098125252267e-12 0.0 0.01 0.009999992500008437 0.0 1.6954023925912664e-13 0.0 0.01 0.0 1.695402393120662e-13 0.0 0.009999999999999998 0.00999999250000844 0.0 2.447487946546787e-12 0.0 0.01 0.0 2.447487946546787e-12 0.0 0.01 0.009999992500008437 0.0 1.3100682763275435e-11 0.0 0.01 0.0 1.3100682756499171e-11 0.0 0.009999999999999998 0.009999993000007349 0.0 4.319707463365692e-11 0.0 0.01 0.0 4.319707464720945e-11 0.0 0.009999999999999998 0.009999993000007352 0.0 1.0265561220090119e-10 0.0 0.01 0.0 1.0265561220090119e-10 0.0 0.010000000000000002 0.009999994000005407 0.0 1.8551006304018403e-10 0.0 0.01 0.0 1.8551006304018403e-10 0.0 0.010000000000000007 0.00999999500000376 0.0 2.5467585484072186e-10 0.0 0.01 0.0 2.5467585484072186e-10 0.0 0.009999999500000046 0.009999989500016538 0.0 2.364614753129562e-15 0.0 0.01 0.0 2.364614753129562e-15 0.0 0.010000000500000038 0.00999998950001654 0.0 5.787924318061548e-13 0.0 0.01 0.0 5.787924317002756e-13 0.0 0.010000000500000038 0.00999998950001654 0.0 6.069737395430184e-12 0.0 0.01 0.0 6.069737395430184e-12 0.0 0.01000000050000004 0.009999990000015002 0.0 2.927633278558832e-11 0.0 0.01 0.0 2.927633278558832e-11 0.0 0.010000000500000042 0.009999990000015 0.0 9.339158492502244e-11 0.0 0.01 0.0 9.339158491146991e-11 0.0 0.010000000000000002 0.009999991000012155 0.0 2.222374199272771e-10 0.0 0.01 0.0 2.2223741998148722e-10 0.0 0.010000000000000007 0.00999999150001086 0.0 4.0828244946130784e-10 0.0 0.01 0.0 4.0828244940709774e-10 0.0 0.010000000000000024 0.009999992500008489 0.0 5.725764128236208e-10 0.0 0.01 0.0 5.725764128236208e-10 0.0 0.009999999500000089 0.009999984500036039 0.0 1.1682185215054778e-14 0.0 0.01 0.0 1.1682185215054778e-14 0.0 0.01000000050000004 0.00999998500003375 0.0 1.148999901041729e-12 0.0 0.01 0.0 1.148999901041729e-12 0.0 0.010000000500000036 0.0099999860000294 0.0 1.0737601561407596e-11 0.0 0.01 0.0 1.0737601561407596e-11 0.0 0.010000001000000149 0.0099999860000294 0.0 5.004470741211712e-11 0.0 0.01 0.0 5.0044707418893386e-11 0.0 0.01000000100000015 0.009999986000029402 0.0 1.5953037194483145e-10 0.0 0.01 0.0 1.5953037194483145e-10 0.0 0.010000000500000038 0.009999986500027359 0.0 3.860196782991439e-10 0.0 0.01 0.0 3.86019678353354e-10 0.0 0.010000000000000021 0.009999987500023514 0.0 7.257416393107591e-10 0.0 0.01 0.0 7.257416393107591e-10 0.0 0.010000000000000077 0.009999989500016699 0.0 1.0384693088089092e-09 0.0 0.01 0.0 1.0384693088089092e-09 0.0 0.009999999000000313 0.009999979500063037 0.0 1.504247950200694e-14 0.0 0.01 0.0 1.504247950200694e-14 0.0 0.01000000100000015 0.009999979500063039 0.0 1.4962691232524246e-12 0.0 0.01 0.0 1.4962691232524246e-12 0.0 0.010000001000000149 0.009999980500057041 0.0 1.4129551290448174e-11 0.0 0.01 0.0 1.4129551289601141e-11 0.0 0.010000001000000154 0.009999980500057036 0.0 6.681781909316292e-11 0.0 0.01 0.0 6.681781908638666e-11 0.0 0.010000001450000314 0.009999980500057043 0.0 2.17686095928607e-10 0.0 0.01 0.0 2.1768609591505447e-10 0.0 0.010000001000000154 0.009999982500045981 0.0 5.406986712205332e-10 0.0 0.01 0.0 5.406986712205332e-10 0.0 0.010000000500000081 0.009999983000043513 0.0 1.0407329960934047e-09 0.0 0.01 0.0 1.0407329960934047e-09 0.0 0.01000000000000016 0.009999984000038745 0.0 1.5135180404975135e-09 0.0 0.01 0.0 1.5135180404975135e-09 0.0 0.009999999000000493 0.009999972000117601 0.0 5.077892434671361e-15 0.0 0.01 0.0 5.077892434464566e-15 0.0 0.010000001000000152 0.0099999720001176 0.0 1.2765237120238982e-12 0.0 0.01 0.0 1.2765237120238982e-12 0.0 0.01000000195000057 0.009999972000117596 0.0 1.3816356512921877e-11 0.0 0.01 0.0 1.3816356512921877e-11 0.0 0.01000000195000057 0.00999997350010534 0.0 6.961978862602292e-11 0.0 0.01 0.0 6.961978862941105e-11 0.0 0.010000001950000571 0.00999997400010141 0.0 2.3707089976288554e-10 0.0 0.01 0.0 2.3707089977643807e-10 0.0 0.01000000195000058 0.009999975000093805 0.0 6.105615932272806e-10 0.0 0.01 0.0 6.105615932001755e-10 0.0 0.010000001450000373 0.009999976500083057 0.0 1.2051710421723955e-09 0.0 0.01 0.0 1.2051710420639752e-09 0.0 0.010000000500000257 0.009999977500076406 0.0 1.7690875793365674e-09 0.0 0.01 0.0 1.7690875792281471e-09 0.0 0.010000000000000469 0.009999962500210936 0.0 1.4210685220792467e-17 0.0 0.01 0.0 1.4210685220792467e-17 0.0 0.01000000195000057 0.009999963000205347 0.0 6.30724181282738e-13 0.0 0.01 0.0 6.307241813092078e-13 0.0 0.010000002450000899 0.00999996300020535 0.0 9.607418429844123e-12 0.0 0.01 0.0 9.607418429420606e-12 0.0 0.010000002950001304 0.00999996300020535 0.0 5.5326791152649326e-11 0.0 0.01 0.0 5.5326791152649326e-11 0.0 0.010000003400001737 0.009999964500189045 0.0 2.0326567627692877e-10 0.0 0.01 0.0 2.032656762904813e-10 0.0 0.010000003400001744 0.009999965500178584 0.0 5.520675873101153e-10 0.0 0.01 0.0 5.520675872830103e-10 0.0 0.01000000295000135 0.009999967000163536 0.0 1.1257485912430712e-09 0.0 0.01 0.0 1.1257485912972813e-09 0.0 0.010000002450001088 0.009999970000135418 0.0 1.672565387296314e-09 0.0 0.01 0.0 1.6725653871878937e-09 0.0 0.01000000145000073 0.009999948500397834 0.0 -1.5604957356942433e-17 0.0 0.01 0.0 -1.5604957356942433e-17 0.0 0.010000002950001304 0.009999949000390147 0.0 1.0451279377941997e-13 0.0 0.01 0.0 1.0451279378272869e-13 0.0 0.010000003400001735 0.009999950500367533 0.0 4.182231571002189e-12 0.0 0.01 0.0 4.182231571002189e-12 0.0 0.010000004900003603 0.009999951000360148 0.0 3.149236130390882e-11 0.0 0.01 0.0 3.149236130390882e-11 0.0 0.010000005350004294 0.009999951500352836 0.0 1.3203628029587037e-10 0.0 0.01 0.0 1.3203628030264663e-10 0.0 0.010000005850005133 0.00999995250033846 0.0 3.8960449094877815e-10 0.0 0.01 0.0 3.8960449094877815e-10 0.0 0.010000005850005158 0.009999954000317507 0.0 8.361257952823296e-10 0.0 0.01 0.0 8.361257952823296e-10 0.0 0.01000000490000371 0.00999995700027759 0.0 1.2771705551863424e-09 0.0 0.01 0.0 1.2771705551321323e-09 0.0 0.010000004400003145 0.00999993200069359 0.0 8.954500902805489e-17 0.0 0.01 0.0 8.954500902805489e-17 0.0 0.010000003900002281 0.00999993250068343 0.0 2.0283492407673464e-16 0.0 0.01 0.0 2.0283492407673464e-16 0.0 0.010000005350004294 0.009999933000673342 0.0 7.855959030594166e-13 0.0 0.01 0.0 7.855959030594166e-13 0.0 0.010000006350006049 0.00999993350066333 0.0 1.0977055282778423e-11 0.0 0.01 0.0 1.0977055282566665e-11 0.0 0.010000006850007036 0.009999934000653398 0.0 5.915658299993727e-11 0.0 0.01 0.0 5.915658299993727e-11 0.0 0.010000008300010335 0.009999935500624033 0.0 2.0005284856458648e-10 0.0 0.01 0.0 2.0005284856458648e-10 0.0 0.01000000880001162 0.009999937000595375 0.0 4.689787120389262e-10 0.0 0.01 0.0 4.689787120389262e-10 0.0 0.010000008300010365 0.009999940000540082 0.0 7.546528476719185e-10 0.0 0.01 0.0 7.546528476719185e-10 0.0 0.01000000830001042 0.009999910001214982 0.0 1.2314726134070553e-16 0.0 0.01 0.0 1.2314726134070553e-16 0.0 0.010000005350004294 0.009999909501228518 0.0 2.1631345459557303e-16 0.0 0.01 0.0 2.1631345459557303e-16 0.0 0.010000006350006049 0.009999910001214982 0.0 2.3663780501122336e-16 0.0 0.01 0.0 2.3663780501122336e-16 0.0 0.010000008300010334 0.009999910001214984 0.0 1.416808657750396e-12 0.0 0.01 0.0 1.4168086577239261e-12 0.0 0.010000010750017335 0.00999991150117482 0.0 1.4211903910985087e-11 0.0 0.01 0.0 1.4211903910773329e-11 0.0 0.010000012700024192 0.009999912501148425 0.0 6.322159065523785e-11 0.0 0.01 0.0 6.322159065439082e-11 0.0 0.010000012700024194 0.00999991400110939 0.0 1.7208930079017602e-10 0.0 0.01 0.0 1.7208930079017602e-10 0.0 0.01000001320002614 0.009999916501045838 0.0 3.0614031175011346e-10 0.0 0.01 0.0 3.061403117568897e-10 0.0 0.010000013200026149 0.009999881502106296 0.0 5.105129119216651e-17 0.0 0.01 0.0 5.105129119216651e-17 0.0 0.010000006350006049 0.009999881502106296 0.0 4.0684072045584405e-16 0.0 0.01 0.0 4.0684072045584405e-16 0.0 0.010000008800011615 0.009999882002088558 0.0 4.706753004098275e-16 0.0 0.01 0.0 4.706753004098275e-16 0.0 0.010000012200022326 0.009999881502106296 0.0 -1.1133627231603487e-15 0.0 0.01 0.0 -1.1133627231603487e-15 0.0 0.010000014150030033 0.0099998815021063 0.0 6.155092958252801e-13 0.0 0.01 0.0 6.155092958186627e-13 0.0 0.010000016100038884 0.009999882502070897 0.0 7.301395089215436e-12 0.0 0.01 0.0 7.301395089215436e-12 0.0 0.010000017600046469 0.0099998835020358 0.0 2.8226182266777582e-11 0.0 0.01 0.0 2.8226182266354066e-11 0.0 0.010000017600046464 0.00999988500198371 0.0 5.94686941004515e-11 0.0 0.01 0.0 5.94686941004515e-11 0.0 0.010000019050054432 0.009999844003650305 0.0 -2.975822817296209e-17 0.0 0.01 0.0 -2.975822817296209e-17 0.0 0.010000009300012973 0.009999843503673741 0.0 2.944783110484414e-16 0.0 0.01 0.0 2.944783110484414e-16 0.0 0.010000012200022326 0.009999843503673741 0.0 3.5107990496445096e-16 0.0 0.01 0.0 3.5107990496445096e-16 0.0 0.010000015600036504 0.009999842503720841 0.0 -1.9069337049593553e-15 0.0 0.01 0.0 -1.9069337049593553e-15 0.0 0.010000018550051617 0.009999842503720841 0.0 -1.074430404289863e-14 0.0 0.01 0.0 -1.074430404289863e-14 0.0 0.010000021950072272 0.009999843003697257 0.0 -2.985485493643042e-14 0.0 0.01 0.0 -2.985485493663721e-14 0.0 0.010000023450082489 0.009999843003697254 0.0 1.402348962619083e-13 0.0 0.01 0.0 1.4023489626356267e-13 0.0 0.010000024900093002 0.009999844503626943 0.0 9.880290595602943e-13 0.0 0.01 0.0 9.880290595536768e-13 0.0 0.010000026350104151 0.009999798006120393 0.0 8.573687186680646e-17 0.0 0.01 0.0 8.573687186680646e-17 0.0 0.010000011250018984 0.009999796506211626 0.0 6.243811019265481e-16 0.0 0.01 0.0 6.243811019265481e-16 0.0 0.010000015600036504 0.00999979400636518 0.0 5.781786556553885e-16 0.0 0.01 0.0 5.781786556553885e-16 0.0 0.01000002100006615 0.009999792506458216 0.0 -2.938236222313095e-15 0.0 0.01 0.0 -2.938236222313095e-15 0.0 0.010000024900093003 0.009999791506520611 0.0 -1.6499784989689058e-14 0.0 0.01 0.0 -1.6499784989689058e-14 0.0 0.010000029300128775 0.009999790506583313 0.0 -4.751857698333573e-14 0.0 0.01 0.0 -4.751857698333573e-14 0.0 0.01000003125014649 0.009999791006551923 0.0 -8.908379256498161e-14 0.0 0.01 0.0 -8.908379256498161e-14 0.0 0.010000033700170358 0.00999979150652061 0.0 -9.526253082568077e-14 0.0 0.01 0.0 -9.526253082568077e-14 0.0 0.010000037100206461 0.00999973851025689 0.0 -3.1555466454700147e-16 0.0 0.01 0.0 -3.1555466454700147e-16 0.0 0.010000015150034429 0.009999735010533285 0.0 6.489979481815506e-16 0.0 0.01 0.0 6.489979481815506e-16 0.0 0.010000020500063036 0.009999731510813353 0.0 7.992292663052929e-16 0.0 0.01 0.0 7.992292663052929e-16 0.0 0.010000025900100622 0.009999728011097102 0.0 -5.082199076317008e-15 0.0 0.01 0.0 -5.082199076317008e-15 0.0 0.010000032700160397 0.009999725011343233 0.0 -2.6425301987663346e-14 0.0 0.01 0.0 -2.642530198745655e-14 0.0 0.010000038100217745 0.009999723011508818 0.0 -7.401894476041941e-14 0.0 0.01 0.0 -7.4018944760833e-14 0.0 0.010000041000252152 0.009999722511550402 0.0 -1.3348844266014812e-13 0.0 0.01 0.0 -1.3348844266014812e-13 0.0 0.010000045400309176 0.009999722011592061 0.0 -1.3881328409256292e-13 0.0 0.01 0.0 -1.3881328409256292e-13 0.0 0.010000051750401712 0.009999662017135634 0.0 -8.48438079865573e-16 0.0 0.01 0.0 -8.48438079865573e-16 0.0 0.01000002000006 0.009999657017646341 0.0 3.7447401332103816e-16 0.0 0.01 0.0 3.7447401332103816e-16 0.0 0.010000025900100622 0.009999651518216779 0.0 3.426737491331821e-16 0.0 0.01 0.0 3.426737491331821e-16 0.0 0.010000033700170356 0.009999646518743235 0.0 -9.21480844368608e-15 0.0 0.01 0.0 -9.21480844368608e-15 0.0 0.010000042000264603 0.009999640519384876 0.0 -4.242153783666232e-14 0.0 0.01 0.0 -4.242153783666232e-14 0.0 0.010000049800372009 0.009999635519927826 0.0 -1.1604619130702396e-13 0.0 0.01 0.0 -1.1604619130702396e-13 0.0 0.010000053200424538 0.009999632020312356 0.0 -2.013245865826446e-13 0.0 0.01 0.0 -2.013245865826446e-13 0.0 0.010000058100506349 0.009999630020533733 0.0 -1.90153094736019e-13 0.0 0.01 0.0 -1.9015309473684618e-13 0.0 0.010000069350721423 0.00999956702812132 0.0 -2.1434753656306082e-15 0.0 0.01 0.0 -2.1434753656306082e-15 0.0 0.010000026850108139 0.00999956002903787 0.0 -1.4379900206827594e-15 0.0 0.01 0.0 -1.4379900206827594e-15 0.0 0.010000034200175447 0.009999552030103352 0.0 -2.9432138218190912e-15 0.0 0.01 0.0 -2.9432138218190912e-15 0.0 0.010000043950289743 0.00999954403118803 0.0 -1.8892610361656153e-14 0.0 0.01 0.0 -1.8892610361656153e-14 0.0 0.01000005420044065 0.00999953403257087 0.0 -7.397813810632237e-14 0.0 0.01 0.0 -7.397813810590878e-14 0.0 0.010000063000595359 0.009999525533769867 0.0 -1.8963838496234707e-13 0.0 0.01 0.0 -1.896383849615199e-13 0.0 0.010000067400681422 0.009999517034990534 0.0 -3.068011803662463e-13 0.0 0.01 0.0 -3.068011803662463e-13 0.0 0.010000074700837025 0.009999510535938606 0.0 -2.2672467209061105e-13 0.0 0.01 0.0 -2.2672467209061105e-13 0.0 0.010000092301277913 0.009999452045041489 0.0 -7.202272142636961e-15 0.0 0.01 0.0 -7.202272142636961e-15 0.0 0.010000038100217745 0.009999443546449532 0.0 -7.42291104665179e-15 0.0 0.01 0.0 -7.42291104665179e-15 0.0 0.010000046850329241 0.009999431548474245 0.0 -1.258527498995968e-14 0.0 0.01 0.0 -1.2585274989907981e-14 0.0 0.010000058100506347 0.009999417550890998 0.0 -4.504236572750015e-14 0.0 0.01 0.0 -4.5042365727603546e-14 0.0 0.010000071300762563 0.009999402553545606 0.0 -1.424573701361585e-13 0.0 0.01 0.0 -1.424573701361585e-13 0.0 0.010000081550997573 0.009999387056359594 0.0 -3.3153896028936287e-13 0.0 0.01 0.0 -3.3153896028936287e-13 0.0 0.010000084951082492 0.009999373558869191 0.0 -4.850635856457507e-13 0.0 0.01 0.0 -4.850635856457507e-13 0.0 0.010000092751290404 0.009999361561145831 0.0 -2.4595027699324187e-13 0.0 0.01 0.0 -2.4595027699324187e-13 0.0 0.010000117702078034 0.009999315570273018 0.0 -2.2537122297439763e-14 0.0 0.01 0.0 -2.2537122297439763e-14 0.0 0.010000051250393986 0.009999302572967455 0.0 -2.5302459793294703e-14 0.0 0.01 0.0 -2.5302459793346402e-14 0.0 0.010000064950632782 0.009999287576139394 0.0 -4.043738317497296e-14 0.0 0.01 0.0 -4.043738317486956e-14 0.0 0.010000079600950436 0.009999268080363798 0.0 -1.0546652198035089e-13 0.0 0.01 0.0 -1.0546652198035089e-13 0.0 0.010000097151415742 0.009999245585379804 0.0 -2.9454677700200806e-13 0.0 0.01 0.0 -2.9454677700159447e-13 0.0 0.010000108901778916 0.009999222090780828 0.0 -6.333833350222328e-13 0.0 0.01 0.0 -6.333833350230599e-13 0.0 0.010000108401762615 0.009999199096227304 0.0 -8.487820331532797e-13 0.0 0.01 0.0 -8.487820331516253e-13 0.0 0.010000112801908613 0.009999178101338718 0.0 -2.6193912243676266e-13 0.0 0.01 0.0 -2.6193912243676266e-13 0.0 0.010000147453261308 0.00999916310507069 0.0 -5.758943011020998e-14 0.0 0.01 0.0 -5.758943011031337e-14 0.0 0.010000074700837022 0.009999147109125837 0.0 -6.599746973282736e-14 0.0 0.01 0.0 -6.599746973272396e-14 0.0 0.010000090801236714 0.009999126114564714 0.0 -9.778186958417538e-14 0.0 0.01 0.0 -9.778186958438217e-14 0.0 0.010000113751940898 0.009999098621887026 0.0 -2.3801090646961487e-13 0.0 0.01 0.0 -2.3801090647002846e-13 0.0 0.010000136702803098 0.009999067130553051 0.0 -6.448080494951214e-13 0.0 0.01 0.0 -6.448080494959486e-13 0.0 0.010000151853458853 0.00999903413995087 0.0 -1.3456017043581348e-12 0.0 0.01 0.0 -1.3456017043581348e-12 0.0 0.010000144053112638 0.009999001149675227 0.0 -1.7138021715976331e-12 0.0 0.01 0.0 -1.7138021715976331e-12 0.0 0.010000136252784673 0.009998970159107685 0.0 -3.833559064341385e-13 0.0 0.01 0.0 -3.833559064349657e-13 0.0 0.010000177254712772 0.009999007147882877 0.0 -1.21731874700891e-13 0.0 0.01 0.0 -1.21731874700891e-13 0.0 0.010000107401730246 0.009998985154507613 0.0 -1.287911320751114e-13 0.0 0.01 0.0 -1.287911320751114e-13 0.0 0.010000133802685425 0.00999895716314899 0.0 -1.8716761806392632e-13 0.0 0.01 0.0 -1.8716761806351273e-13 0.0 0.01000016845425643 0.00999892267411967 0.0 -5.139113262822416e-13 0.0 0.01 0.0 -5.139113262822416e-13 0.0 0.010000204106248736 0.00999888118778913 0.0 -1.4858488322853447e-12 0.0 0.01 0.0 -1.4858488322853447e-12 0.0 0.010000225107600789 0.009998838702323173 0.0 -3.1417279970302316e-12 0.0 0.01 0.0 -3.141727997026923e-12 0.0 0.010000206556399657 0.00999879371830244 0.0 -3.946488933325009e-12 0.0 0.01 0.0 -3.946488933331626e-12 0.0 0.010000170904381147 0.009998750734138782 0.0 -1.049565619595644e-12 0.0 0.01 0.0 -1.049565619595644e-12 0.0 0.010000209456580629 0.009998865693027041 0.0 -1.992653366620882e-13 0.0 0.01 0.0 -1.992653366620882e-13 0.0 0.010000156253662205 0.009998839701974972 0.0 -1.7876199056625299e-13 0.0 0.01 0.0 -1.7876199056625299e-13 0.0 0.01000020165609961 0.009998804214519638 0.0 -2.823273832213301e-13 0.0 0.01 0.0 -2.823273832209165e-13 0.0 0.010000258810047048 0.009998761230220614 0.0 -1.0814207362042677e-12 0.0 0.01 0.0 -1.0814207362042677e-12 0.0 0.010000316915064637 0.009998712748595097 0.0 -3.5353444618946253e-12 0.0 0.01 0.0 -3.5353444618946253e-12 0.0 0.010000351568539196 0.009998660269279862 0.0 -7.725835137624335e-12 0.0 0.01 0.0 -7.725835137624335e-12 0.0 0.010000318365202812 0.009998606791208703 0.0 -9.699460987409376e-12 0.0 0.01 0.0 -9.699460987409376e-12 0.0 0.010000233908206703 0.00999855481334505 0.0 -3.408182464979873e-12 0.0 0.01 0.0 -3.408182464979873e-12 0.0 0.010000249509337929 0.009998769727072967 0.0 -2.2978147274602926e-13 0.0 0.01 0.0 -2.2978147274602926e-13 0.0 0.0100002300079353 0.009998738238846363 0.0 -9.936680922183718e-14 0.0 0.01 0.0 -9.936680922204397e-14 0.0 0.01000030616405989 0.009998698254225438 0.0 -2.9070551760510783e-13 0.0 0.01 0.0 -2.9070551760510783e-13 0.0 0.010000401874224138 0.009998650773111111 0.0 -2.2417496629031423e-12 0.0 0.01 0.0 -2.241749662901488e-12 0.0 0.01000049758713648 0.009998596295613229 0.0 -8.30976467765933e-12 0.0 0.01 0.0 -8.30976467765933e-12 0.0 0.010000555246241336 0.009998540819443335 0.0 -1.8603834539182375e-11 0.0 0.01 0.0 -1.8603834539182375e-11 0.0 0.010000509788980072 0.009998482845333598 0.0 -2.349006140888643e-11 0.0 0.01 0.0 -2.34900614089129e-11 0.0 0.010000359869424965 0.009998425871759982 0.0 -9.689718130204329e-12 0.0 0.01 0.0 -9.689718130210946e-12 0.0 0.01000032471581537 0.009998759230964384 0.0 -1.1307538209660453e-13 0.0 0.01 0.0 -1.1307538209660453e-13 0.0 0.010000335466879952 0.009998723244557303 0.0 2.945618665149079e-13 0.0 0.01 0.0 2.945618665149079e-13 0.0 0.010000463432213424 0.009998681260906793 0.0 -6.0199974271901e-14 0.0 0.01 0.0 -6.0199974271901e-14 0.0 0.010000621157870771 0.00999863427982969 0.0 -4.491284303050794e-12 0.0 0.01 0.0 -4.491284303050794e-12 0.0 0.010000774990082137 0.009998583800899801 0.0 -1.8106158199054418e-11 0.0 0.01 0.0 -1.8106158199041183e-11 0.0 0.010000864362055351 0.009998530823835226 0.0 -4.1006269450989656e-11 0.0 0.01 0.0 -4.1006269451042596e-11 0.0 0.010000809648318945 0.009998475848526488 0.0 -5.2121064599412673e-11 0.0 0.01 0.0 -5.2121064599412673e-11 0.0 0.010000612356242436 0.009998424372468569 0.0 -2.3315071331838167e-11 0.0 0.01 0.0 -2.3315071331838167e-11 0.0 0.010000496136920337 0.009998873190483572 0.0 2.5025709262040725e-13 0.0 0.01 0.0 2.5025709262040725e-13 0.0 0.010000483935126717 0.00999884020180099 0.0 1.1890724401909406e-12 0.0 0.01 0.0 1.1890724401917678e-12 0.0 0.010000686120607765 0.009998801715417312 0.0 4.762841074616522e-13 0.0 0.01 0.0 4.762841074612386e-13 0.0 0.010000930779936572 0.009998761230220608 0.0 -8.35649573411572e-12 0.0 0.01 0.0 -8.356495734122338e-12 0.0 0.010001165753815615 0.009998722744748828 0.0 -3.484991063984897e-11 0.0 0.01 0.0 -3.484991063987544e-11 0.0 0.010001304955391851 0.009998683759918811 0.0 -7.83015197287383e-11 0.0 0.01 0.0 -7.83015197287383e-11 0.0 0.01000125513626552 0.00999864477554479 0.0 -9.986942373671096e-11 0.0 0.01 0.0 -9.986942373665802e-11 0.0 0.010001069971701426 0.009998606791208705 0.0 -4.696015311583061e-11 0.0 0.01 0.0 -4.696015311583061e-11 0.0 0.010000892219394115 0.00999914960848716 0.0 8.567654472109566e-13 0.0 0.01 0.0 8.567654472093022e-13 0.0 0.010000677318807903 0.009999123615221003 0.0 2.473254691404573e-12 0.0 0.01 0.0 2.4732546914029185e-12 0.0 0.01000097769336396 0.009999096122563934 0.0 1.1208788566704233e-12 0.0 0.01 0.0 1.1208788566704233e-12 0.0 0.010001334717172945 0.009999072629018496 0.0 -1.379962595746195e-11 0.0 0.01 0.0 -1.379962595746195e-11 0.0 0.010001674270383355 0.009999052634642172 0.0 -5.696276633718336e-11 0.0 0.01 0.0 -5.696276633720983e-11 0.0 0.010001897039677425 0.009999036639227485 0.0 -1.2632263653672403e-10 0.0 0.01 0.0 -1.263226365366711e-10 0.0 0.010001954672962632 0.0099990226433026 0.0 -1.6022018654770413e-10 0.0 0.01 0.0 -1.6022018654770413e-10 0.0 0.010001924405357906 0.009999008647436474 0.0 -7.812863830144723e-11 0.0 0.01 0.0 -7.812863830144723e-11 0.0 0.010001754361559707 0.009999598024238976 0.0 1.4432486277794827e-12 0.0 0.01 0.0 1.443248627781137e-12 0.0 0.010000906373211967 0.009999585025831963 0.0 3.5843879954895153e-12 0.0 0.01 0.0 3.5843879954895153e-12 0.0 0.010001324463083909 0.009999575027091829 0.0 1.4021229159265845e-12 0.0 0.01 0.0 1.4021229159265845e-12 0.0 0.010001815444256037 0.009999573027347407 0.0 -1.928781017296244e-11 0.0 0.01 0.0 -1.928781017296244e-11 0.0 0.010002288385266468 0.009999578526647467 0.0 -7.709252492735841e-11 0.0 0.01 0.0 -7.709252492735841e-11 0.0 0.010002664614647428 0.00999959052515183 0.0 -1.680425068637997e-10 0.0 0.01 0.0 -1.680425068637997e-10 0.0 0.010003003802882916 0.009999605023402212 0.0 -2.1207140401573203e-10 0.0 0.01 0.0 -2.120714040158379e-10 0.0 0.01000339672988261 0.009999619021772769 0.0 -1.0475033168707053e-10 0.0 0.01 0.0 -1.0475033168707053e-10 0.0 0.010003320503129241 0.0100001909054666 0.0 1.6408509123449246e-12 0.0 0.01 0.0 1.6408509123449246e-12 0.0 0.010001155000072967 0.010000193855636857 0.0 3.836039174878652e-12 0.0 0.01 0.0 3.836039174872034e-12 0.0 0.010001699633214785 0.010000204106248736 0.0 1.0272708981456614e-12 0.0 0.01 0.0 1.0272708981448343e-12 0.0 0.010002335768117107 0.010000224607567056 0.0 -2.1973296451201503e-11 0.0 0.01 0.0 -2.1973296451201503e-11 0.0 0.010002961264844262 0.010000253909670192 0.0 -8.380572434257735e-11 0.0 0.01 0.0 -8.380572434263029e-11 0.0 0.010003541930902884 0.010000291012702774 0.0 -1.78954818050507e-10 0.0 0.01 0.0 -1.78954818050507e-10 0.0 0.010004304527749567 0.010000331566489733 0.0 -2.2355398235102232e-10 0.0 0.01 0.0 -2.2355398235096938e-10 0.0 0.010005301563007355 0.010000372570820322 0.0 -1.1056494359742974e-10 0.0 0.01 0.0 -1.1056494359740327e-10 0.0 0.010005347536365446 0.010000847257664673 0.0 1.3218566808486273e-12 0.0 0.01 0.0 1.3218566808486273e-12 0.0 0.01000139924362763 0.010000865362314834 0.0 3.066990850355011e-12 0.0 0.01 0.0 3.066990850355011e-12 0.0 0.010002066540411933 0.010000893669782579 0.0 2.8717653105892755e-13 0.0 0.01 0.0 2.8717653105892755e-13 0.0 0.010002839609049158 0.01000093178021598 0.0 -1.991624246303147e-11 0.0 0.01 0.0 -1.9916242463018234e-11 0.0 0.01000361035425791 0.010000978193510666 0.0 -7.232554220602895e-11 0.0 0.01 0.0 -7.232554220600248e-11 0.0 0.010004378373845869 0.01000103140954891 0.0 -1.5101237128104002e-10 0.0 0.01 0.0 -1.5101237128104002e-10 0.0 0.010005500635221813 0.010001090978509155 0.0 -1.8573824420812362e-10 0.0 0.01 0.0 -1.8573824420801774e-10 0.0 0.010006977997076894 0.010001149598206025 0.0 -9.485420495351985e-11 0.0 0.01 0.0 -9.485420495346691e-11 0.0 0.010007038173416045 0.010001442211936308 0.0 7.173362180687318e-13 0.0 0.01 0.0 7.173362180621144e-13 0.0 0.01000161464097565 0.010001474426025721 0.0 1.8063190265322505e-12 0.0 0.01 0.0 1.8063190265322505e-12 0.0 0.010002386604110082 0.01000151449398434 0.0 -2.1638304170340883e-13 0.0 0.01 0.0 -2.1638304170340883e-13 0.0 0.010003279462526053 0.010001562866306333 0.0 -1.4175846349651923e-11 0.0 0.01 0.0 -1.4175846349651923e-11 0.0 0.010004168154579331 0.010001617092163505 0.0 -4.985993954598684e-11 0.0 0.01 0.0 -4.985993954601331e-11 0.0 0.010005059987932257 0.010001676671589894 0.0 -1.0254156706186367e-10 0.0 0.01 0.0 -1.025415670618372e-10 0.0 0.010006366424547537 0.010001740704402308 0.0 -1.2658319948412837e-10 0.0 0.01 0.0 -1.2658319948415484e-10 0.0 0.010008025751574409 0.010001802237091732 0.0 -7.170074663493859e-11 0.0 0.01 0.0 -7.170074663493859e-11 0.0 0.0100079636027545 0.010001857917650467 0.0 2.1249511211687862e-13 0.0 0.01 0.0 2.1249511211026117e-13 0.0 0.01000178512788849 0.010001898490503109 0.0 7.436357701439246e-13 0.0 0.01 0.0 7.436357701455789e-13 0.0 0.01000263824368232 0.01000194536752101 0.0 -3.036220395445827e-13 0.0 0.01 0.0 -3.036220395445827e-13 0.0 0.010003623068042563 0.010001996697861185 0.0 -7.87916161874382e-12 0.0 0.01 0.0 -7.879161618737202e-12 0.0 0.010004594965116444 0.01000204993015981 0.0 -2.7846219044138804e-11 0.0 0.01 0.0 -2.7846219044138804e-11 0.0 0.010005547112156616 0.010002106615487399 0.0 -5.777712925952861e-11 0.0 0.01 0.0 -5.777712925952861e-11 0.0 0.010006891868135623 0.010002163301778765 0.0 -7.299896136253891e-11 0.0 0.01 0.0 -7.299896136256538e-11 0.0 0.010008532859040256 0.01000221803773553 0.0 -4.108876291750176e-11 0.0 0.01 0.0 -4.1088762917515e-11 0.0 0.010008342477940612 0.010002034820905956 0.0 -2.8318739016934237e-14 0.0 0.01 0.0 -2.8318739016520646e-14 0.0 0.010001906294955553 0.010002078747999382 0.0 1.712053498211971e-13 0.0 0.01 0.0 1.712053498211971e-13 0.0 0.010002815638726938 0.01000212667822172 0.0 -1.7890047661914693e-13 0.0 0.01 0.0 -1.7890047661914693e-13 0.0 0.010003861585625417 0.010002176510373457 0.0 -3.2040131622358212e-12 0.0 0.01 0.0 -3.2040131622374756e-12 0.0 0.010004888332033729 0.010002224842268275 0.0 -1.1732748016179734e-11 0.0 0.01 0.0 -1.1732748016179734e-11 0.0 0.010005865506592139 0.010002273224897844 0.0 -2.507320079464138e-11 0.0 0.01 0.0 -2.5073200794647996e-11 0.0 0.01000718839352798 0.0100023177055149 0.0 -3.161834046540985e-11 0.0 0.01 0.0 -3.161834046540985e-11 0.0 0.010008755635763979 0.01000235923463566 0.0 -1.374351981721786e-11 0.0 0.01 0.0 -1.374351981721786e-11 0.0 0.010008457968496252 0.010002000099899957 0.0 -6.796253418608495e-14 0.0 0.01 0.0 -6.796253417285006e-14 0.0 0.010001981538818842 0.010002043125984038 0.0 -2.1570816873301013e-14 0.0 0.01 0.0 -2.1570816873301013e-14 0.0 0.010002923131205045 0.01000208950472209 0.0 -7.162852461688141e-14 0.0 0.01 0.0 -7.162852461688141e-14 0.0 0.010004007307490615 0.010002134983528626 0.0 -8.139350836895574e-13 0.0 0.01 0.0 -8.13935083689971e-13 0.0 0.010005065846822174 0.010002178911941748 0.0 -3.1444155643327777e-12 0.0 0.01 0.0 -3.1444155643327777e-12 0.0 0.010006053342009534 0.010002216086438264 0.0 -6.896776731270258e-12 0.0 0.01 0.0 -6.896776731270258e-12 0.0 0.01000734498440159 0.010002249308680895 0.0 -8.036692726390034e-12 0.0 0.01 0.0 -8.036692726390034e-12 0.0 0.010008844219211367 0.010002278628585685 0.0 9.664005603872453e-14 0.0 0.01 0.0 9.664005603872453e-14 0.0 0.010008471703316186 0.010001836956037177 0.0 -3.360044078258551e-14 0.0 0.01 0.0 -3.3600440782378715e-14 0.0 0.010002017710509107 0.010001878479170057 0.0 -3.1155958809217176e-14 0.0 0.01 0.0 -3.1155958809320573e-14 0.0 0.01000297302530655 0.01000192145365578 0.0 -2.1387434557224502e-14 0.0 0.01 0.0 -2.1387434557224502e-14 0.0 0.010004075239783989 0.010001962977841061 0.0 -4.2920671962948996e-14 0.0 0.01 0.0 -4.2920671962948996e-14 0.0 0.010005149474834437 0.010001999149329952 0.0 -1.8186122275539744e-13 0.0 0.01 0.0 -1.8186122275529404e-13 0.0 0.01000614090197356 0.010002029917917769 0.0 -3.5179799284888934e-13 0.0 0.01 0.0 -3.5179799284888934e-13 0.0 0.010007411080483686 0.01000205338228371 0.0 1.4528288591746497e-13 0.0 0.01 0.0 1.4528288591741327e-13 0.0 0.010008869185429545 0.01000207244407569 0.0 2.4513336950257812e-12 0.0 0.01 0.0 2.4513336950257812e-12 0.0 0.01000846187840274 0.010001634700749632 0.0 2.779144158563634e-15 0.0 0.01 0.0 2.779144158563634e-15 0.0 0.010002023063752485 0.010001673269881137 0.0 7.906905296190622e-15 0.0 0.01 0.0 7.906905296190622e-15 0.0 0.01000298083227464 0.010001713340229642 0.0 3.9810943747331806e-15 0.0 0.01 0.0 3.9810943747331806e-15 0.0 0.010004084551171539 0.010001750459509025 0.0 -2.4413269355984482e-14 0.0 0.01 0.0 -2.4413269355984482e-14 0.0 0.010005160742241897 0.01000178172606907 0.0 -6.027904692426024e-14 0.0 0.01 0.0 -6.027904692426024e-14 0.0 0.010006150219130214 0.010001807640016258 0.0 -1.781637051111775e-14 0.0 0.01 0.0 -1.781637051111775e-14 0.0 0.010007412533710212 0.010001824699307658 0.0 1.9485275501149282e-13 0.0 0.01 0.0 1.9485275501149282e-13 0.0 0.010008858456951453 0.010001836956037178 0.0 4.608804514728082e-13 0.0 0.01 0.0 4.608804514729116e-13 0.0 0.010008451151234362 0.010001448564690171 0.0 2.244836410953316e-14 0.0 0.01 0.0 2.2448364109636557e-14 0.0 0.010002003551972264 0.010001483730152961 0.0 5.66308241033237e-14 0.0 0.01 0.0 5.66308241033237e-14 0.0 0.01000295100575146 0.010001520346647818 0.0 1.9286069897438818e-14 0.0 0.01 0.0 1.9286069897438818e-14 0.0 0.0100040444523167 0.010001555062657787 0.0 -3.280031994015587e-13 0.0 0.01 0.0 -3.280031994013519e-13 0.0 0.010005111816931055 0.01000158337598255 0.0 -1.2508611051690048e-12 0.0 0.01 0.0 -1.2508611051690048e-12 0.0 0.010006096871246662 0.010001605386507144 0.0 -2.5884339298001816e-12 0.0 0.01 0.0 -2.5884339298001816e-12 0.0 0.010007364076463647 0.01000162049381494 0.0 -3.194420899974687e-12 0.0 0.01 0.0 -3.194420899974687e-12 0.0 0.010008830031664608 0.010001629798349836 0.0 -1.8090500805166483e-12 0.0 0.01 0.0 -1.8090500805166483e-12 0.0 0.01000845064996566 0.010001289299301044 0.0 3.46435258463382e-14 0.0 0.01 0.0 3.46435258463382e-14 0.0 0.010001961026693061 0.010001322062131036 0.0 1.1214748016846341e-13 0.0 0.01 0.0 1.1214748016836001e-13 0.0 0.010002887950557217 0.010001357226259475 0.0 1.504027214376237e-14 0.0 0.01 0.0 1.504027214376237e-14 0.0 0.01000395940028679 0.010001388939319287 0.0 -9.127956499388563e-13 0.0 0.01 0.0 -9.127956499384427e-13 0.0 0.01000500620680824 0.010001416300829399 0.0 -3.4790527080385506e-12 0.0 0.01 0.0 -3.4790527080368963e-12 0.0 0.0100059765536126 0.010001436809603961 0.0 -7.36367039028395e-12 0.0 0.01 0.0 -7.36367039028395e-12 0.0 0.010007229532370373 0.010001451465951865 0.0 -9.19074822296859e-12 0.0 0.01 0.0 -9.190748222970245e-12 0.0 0.010008686104168005 0.010001460770015024 0.0 -4.677699408511805e-12 0.0 0.01 0.0 -4.677699408510978e-12 0.0 0.01000833019727902 0.01000113494318517 0.0 5.09141318860001e-14 0.0 0.01 0.0 5.09141318861035e-14 0.0 0.010001897489933603 0.010001168154655921 0.0 1.8267422281616693e-13 0.0 0.01 0.0 1.8267422281616693e-13 0.0 0.010002795121469009 0.010001202366818137 0.0 -2.8582337969294137e-14 0.0 0.01 0.0 -2.8582337969294137e-14 0.0 0.010003832752373092 0.010001233628238253 0.0 -1.847202164833288e-12 0.0 0.01 0.0 -1.847202164834115e-12 0.0 0.010004846771403206 0.010001260488284563 0.0 -6.862276701642886e-12 0.0 0.01 0.0 -6.862276701639577e-12 0.0 0.010005787720782075 0.010001282946850668 0.0 -1.4529448690609673e-11 0.0 0.01 0.0 -1.4529448690606365e-11 0.0 0.010007003450383453 0.010001297602522156 0.0 -1.8305193717379853e-11 0.0 0.01 0.0 -1.8305193717383162e-11 0.0 0.010008421777015263 0.01000130785652857 0.0 -9.594744020563259e-12 0.0 0.01 0.0 -9.594744020566567e-12 0.0 0.010008081586259626 0.010000960588391785 0.0 7.52102819656328e-14 0.0 0.01 0.0 7.52102819657362e-14 0.0 0.010001813493194381 0.01000099379812558 0.0 2.725797124783837e-13 0.0 0.01 0.0 2.725797124787973e-13 0.0 0.010002670969730924 0.010001028008498496 0.0 -1.0118523409602695e-13 0.0 0.01 0.0 -1.0118523409602695e-13 0.0 0.010003664112875057 0.01000106266936593 0.0 -3.061420516623412e-12 0.0 0.01 0.0 -3.0614205166217578e-12 0.0 0.010004637524000737 0.01000109197883663 0.0 -1.1164724055233231e-11 0.0 0.01 0.0 -1.1164724055239848e-11 0.0 0.010005536344274637 0.010001116386920143 0.0 -2.3602623088003665e-11 0.0 0.01 0.0 -2.3602623088003665e-11 0.0 0.010006693714879503 0.010001135443355473 0.0 -3.005925823256878e-11 0.0 0.01 0.0 -3.0059258232575396e-11 0.0 0.010008042391616238 0.010001147647534002 0.0 -1.671060519019751e-11 0.0 0.01 0.0 -1.67106051901942e-11 0.0 0.010007715971253116 0.010000751084610744 0.0 1.1140670806082452e-13 0.0 0.01 0.0 1.1140670806082452e-13 0.0 0.010001710388714386 0.010000784742363423 0.0 3.716553382702382e-13 0.0 0.01 0.0 3.716553382710654e-13 0.0 0.010002521453338529 0.010000822351428162 0.0 -1.6133319788506387e-13 0.0 0.01 0.0 -1.6133319788485708e-13 0.0 0.010003459794698978 0.01000086096117536 0.0 -4.292272121488907e-12 0.0 0.01 0.0 -4.292272121488907e-12 0.0 0.010004380326408909 0.010000896120440389 0.0 -1.563713626036881e-11 0.0 0.01 0.0 -1.563713626036881e-11 0.0 0.010005228197250686 0.010000925428446822 0.0 -3.3150468695569116e-11 0.0 0.01 0.0 -3.315046869558235e-11 0.0 0.010006310167711249 0.01000094933516848 0.0 -4.259450960139033e-11 0.0 0.01 0.0 -4.259450960139033e-11 0.0 0.0100075676818114 0.01000096744037303 0.0 -2.469093509523948e-11 0.0 0.01 0.0 -2.469093509523948e-11 0.0 0.010007252031172363 0.010000517140112321 0.0 1.3908455124636938e-13 0.0 0.01 0.0 1.3908455124636938e-13 0.0 0.010001593630867976 0.010000551795668413 0.0 4.5088894980525724e-13 0.0 0.01 0.0 4.5088894980567083e-13 0.0 0.01000234897739508 0.01000059235262809 0.0 -1.8015504153900567e-13 0.0 0.01 0.0 -1.8015504153900567e-13 0.0 0.010003226661029605 0.01000063776100568 0.0 -5.218838219403063e-12 0.0 0.01 0.0 -5.218838219406372e-12 0.0 0.010004086503562555 0.010000680719500549 0.0 -1.922564284061118e-11 0.0 0.01 0.0 -1.922564284061118e-11 0.0 0.010004874161302722 0.010000720277812548 0.0 -4.113513856066064e-11 0.0 0.01 0.0 -4.1135138560647404e-11 0.0 0.010005866508352975 0.010000752534937806 0.0 -5.373044260227823e-11 0.0 0.01 0.0 -5.3730442602264997e-11 0.0 0.010007014223002797 0.010000777440652702 0.0 -3.1640516733760664e-11 0.0 0.01 0.0 -3.1640516733754046e-11 0.0 0.01000671525815244 0.010000282711988459 0.0 1.36083821014711e-13 0.0 0.01 0.0 1.360838210145042e-13 0.0 0.010001466122364201 0.010000318865250608 0.0 4.593619978213591e-13 0.0 0.01 0.0 4.593619978213591e-13 0.0 0.010002162301129783 0.010000363769848314 0.0 -1.746670028953361e-13 0.0 0.01 0.0 -1.746670028954395e-13 0.0 0.010002972024414528 0.010000416526022645 0.0 -5.598276392569242e-12 0.0 0.01 0.0 -5.598276392562624e-12 0.0 0.010003765325584344 0.010000471733377756 0.0 -2.1004211874689227e-11 0.0 0.01 0.0 -2.1004211874689227e-11 0.0 0.010004486417386108 0.010000523991182139 0.0 -4.8960426246953614e-11 0.0 0.01 0.0 -4.896042624696685e-11 0.0 0.010005382292244168 0.010000568898543154 0.0 -7.361126760954749e-11 0.0 0.01 0.0 -7.361126760954749e-11 0.0 0.010006410458832963 0.010000606005081875 0.0 -3.596656811387523e-11 0.0 0.01 0.0 -3.596656811387523e-11 0.0 0.010006130633094492 0.010000078600926708 0.0 9.245214001178613e-14 0.0 0.01 0.0 9.245214001168273e-14 0.0 0.010001335717573561 0.010000114251957997 0.0 3.678239985359471e-13 0.0 0.01 0.0 3.678239985359471e-13 0.0 0.010001970782444464 0.010000164554061617 0.0 -1.7196477534661325e-13 0.0 0.01 0.0 -1.7196477534650985e-13 0.0 0.01000270860007986 0.010000226557699029 0.0 -1.6472458609170913e-11 0.0 0.01 0.0 -1.6472458609164295e-11 0.0 0.010003430964920639 0.010000294463005762 0.0 -1.4692874867144293e-10 0.0 0.01 0.0 -1.4692874867144293e-10 0.0 0.010004082098169078 0.010000362819744793 0.0 -4.0974125728022446e-10 0.0 0.01 0.0 -4.097412572801186e-10 0.0 0.010004877115619787 0.010000425327133971 0.0 -4.956216923960001e-10 0.0 0.01 0.0 -4.956216923958942e-10 0.0 0.010005788221650805 0.010000477084139217 0.0 -3.6091729019327836e-11 0.0 0.01 0.0 -3.609172901934107e-11 0.0 0.010005524124022783 0.009999919500972027 0.0 2.033904342929459e-14 0.0 0.01 0.0 2.033904342929459e-14 0.0 0.010001207718752464 0.009999958000264597 0.0 1.9208501998557195e-13 0.0 0.01 0.0 1.9208501998557195e-13 0.0 0.0100017812258018 0.010000012700024196 0.0 -1.9920605828441004e-11 0.0 0.01 0.0 -1.992060582842777e-11 0.0 0.010002449149456234 0.010000084951082502 0.0 -2.3615007782651656e-10 0.0 0.01 0.0 -2.3615007782651656e-10 0.0 0.010003099590523869 0.010000166004133655 0.0 -9.639258120767186e-10 0.0 0.01 0.0 -9.63925812077142e-10 0.0 0.010003679279569183 0.01000025195952285 0.0 -2.0457005544003364e-09 0.0 0.01 0.0 -2.0457005544011834e-09 0.0 0.010004375419971246 0.010000332066540182 0.0 -2.144048939783119e-09 0.0 0.01 0.0 -2.144048939783119e-09 0.0 0.010005166601309507 0.010000401874224142 0.0 -1.589760239025292e-11 0.0 0.01 0.0 -1.5897602390246303e-11 0.0 0.010004916223012339 0.00999981000541483 0.0 -1.3930121398101591e-14 0.0 0.01 0.0 -1.3930121398101591e-14 0.0 0.010001090528361883 0.009999850003374918 0.0 -1.704951046972459e-12 0.0 0.01 0.0 -1.704951046972459e-12 0.0 0.010001604886266337 0.009999912001161586 0.0 -1.0178743071533198e-10 0.0 0.01 0.0 -1.0178743071533198e-10 0.0 0.010002202877686783 0.009999992000009698 0.0 -8.142381561211288e-10 0.0 0.01 0.0 -8.142381561215523e-10 0.0 0.010002783862051943 0.01000008595110934 0.0 -2.8451472581254297e-09 0.0 0.01 0.0 -2.8451472581254297e-09 0.0 0.010003295578411212 0.010000186055196921 0.0 -5.520694492659021e-09 0.0 0.01 0.0 -5.520694492660715e-09 0.0 0.0100038982783064 0.010000282711992665 0.0 -5.297214947412314e-09 0.0 0.01 0.0 -5.297214947412314e-09 0.0 0.010004566125526611 0.010000372570820345 0.0 4.2243488244748886e-10 0.0 0.01 0.0 4.224348824477006e-10 0.0 0.01000431824547703 0.009999743009906928 0.0 1.587011211326091e-12 0.0 0.01 0.0 1.5870112113244366e-12 0.0 0.010000987446238258 0.009999788006741363 0.0 4.040005064893146e-11 0.0 0.01 0.0 4.040005064893146e-11 0.0 0.01000144856469017 0.00999985300324127 0.0 -4.112029308505179e-11 0.0 0.01 0.0 -4.112029308499885e-11 0.0 0.010001980087957019 0.009999937500586184 0.0 -1.310276648052942e-09 0.0 0.01 0.0 -1.310276648052942e-09 0.0 0.010002494082757385 0.01000003710021037 0.0 -5.104591813685674e-09 0.0 0.01 0.0 -5.104591813685674e-09 0.0 0.010002944149696312 0.010000146953253634 0.0 -9.803669926112754e-09 0.0 0.01 0.0 -9.803669926116142e-09 0.0 0.01000346419928481 0.010000259310096862 0.0 -8.54827826021954e-09 0.0 0.01 0.0 -8.54827826021954e-09 0.0 0.010004004854555926 0.010000369170442412 0.0 1.6272837864413845e-09 0.0 0.01 0.0 1.6272837864413845e-09 0.0 0.01000373599260408 0.009999713012354762 0.0 3.3346781494615506e-11 0.0 0.01 0.0 3.334678149456257e-11 0.0 0.01000090492281798 0.009999760508603711 0.0 3.595291234466578e-10 0.0 0.01 0.0 3.595291234466578e-10 0.0 0.010001316159795917 0.009999824504620013 0.0 8.60701805733233e-10 0.0 0.01 0.0 8.60701805733233e-10 0.0 0.01000178662869239 0.0099999040013824 0.0 -3.8930988514339504e-10 0.0 0.01 0.0 -3.893098851436068e-10 0.0 0.010002238551442614 0.009999999000004908 0.0 -5.634992695084006e-09 0.0 0.01 0.0 -5.634992695084006e-09 0.0 0.010002636292143874 0.01000011230191189 0.0 -1.1596939573452355e-08 0.0 0.01 0.0 -1.1596939573465907e-08 0.0 0.010003085877828962 0.01000024270884637 0.0 -8.376567460997695e-09 0.0 0.01 0.0 -8.376567460994307e-09 0.0 0.010003494030395028 0.010000389172717797 0.0 2.106778842859797e-09 0.0 0.01 0.0 2.10677884285895e-09 0.0 0.010003183669718476 0.009999711512484246 0.0 2.202805150793534e-10 0.0 0.01 0.0 2.202805150789299e-10 0.0 0.010000842856549105 0.009999759008712125 0.0 1.4769709701076858e-09 0.0 0.01 0.0 1.4769709701076858e-09 0.0 0.010001209669459962 0.009999813505219203 0.0 3.6779855124309383e-09 0.0 0.01 0.0 3.6779855124309383e-09 0.0 0.010001621494303345 0.009999877502252848 0.0 3.611054138494892e-09 0.0 0.01 0.0 3.611054138491504e-09 0.0 0.01000201670990578 0.009999958000265083 0.0 -1.803359651961827e-09 0.0 0.01 0.0 -1.803359651961827e-09 0.0 0.010002373394683527 0.010000071800779527 0.0 -6.448441989213692e-09 0.0 0.01 0.0 -6.4484419892103036e-09 0.0 0.01000276919985184 0.010000233408171902 0.0 -1.2926198074628549e-09 0.0 0.01 0.0 -1.2926198074628549e-09 0.0 0.010003037032975611 0.010000450230407023 0.0 -4.270512573460657e-09 0.0 0.01 0.0 -4.270512573460657e-09 0.0 0.010002660711534016 0.009999734010613067 0.0 9.562010564770996e-10 0.0 0.01 0.0 9.562010564787937e-10 0.0 0.010000803296782629 0.009999776507495246 0.0 4.233717048951003e-09 0.0 0.01 0.0 4.233717048957779e-09 0.0 0.0100011285910316 0.009999815505119218 0.0 9.432324558781083e-09 0.0 0.01 0.0 9.432324558787859e-09 0.0 0.010001484230388932 0.009999853003261915 0.0 1.17333373988055e-08 0.0 0.01 0.0 1.17333373988055e-08 0.0 0.010001828601465876 0.00999991350113208 0.0 8.065737943148833e-09 0.0 0.01 0.0 8.065737943155609e-09 0.0 0.01000215794831997 0.010000031750159878 0.0 7.602374739541155e-09 0.0 0.01 0.0 7.602374739547931e-09 0.0 0.010002509744515225 0.010000238308532174 0.0 9.593573383132655e-09 0.0 0.01 0.0 9.593573383125879e-09 0.0 0.010002634340610854 0.010000563997832845 0.0 -2.8571936654863067e-08 0.0 0.01 0.0 -2.8571936654863067e-08 0.0 0.01000217651049591 0.009999781007195266 0.0 3.033850845324043e-09 0.0 0.01 0.0 3.0338508453206547e-09 0.0 0.010000779391109486 0.009999810505400117 0.0 9.574891834880942e-09 0.0 0.01 0.0 9.57489183486739e-09 0.0 0.010001063669698667 0.009999826004592567 0.0 1.849498354384346e-08 0.0 0.01 0.0 1.849498354385701e-08 0.0 0.010001368430890513 0.009999839003971847 0.0 2.363910305445082e-08 0.0 0.01 0.0 2.3639103054423714e-08 0.0 0.010001669868259679 0.00999988000224326 0.0 2.3568955730696585e-08 0.0 0.01 0.0 2.3568955730683032e-08 0.0 0.010001985441223316 0.01000000635010585 0.0 2.5798219711385098e-08 0.0 0.01 0.0 2.5798219711385098e-08 0.0 0.010002284482690568 0.01000025050942984 0.0 1.0619899413899926e-08 0.0 0.01 0.0 1.061989941389315e-08 0.0 0.010002262467599296 0.009999846503543163 0.0 7.71162722976095e-09 0.0 0.01 0.0 7.711627229747397e-09 0.0 0.01000076668817152 0.009999860502968696 0.0 1.82090513891947e-08 0.0 0.01 0.0 1.8209051389167594e-08 0.0 0.010001011853606159 0.009999851503444884 0.0 3.0237811262067956e-08 0.0 0.01 0.0 3.023781126209506e-08 0.0 0.010001270742313977 0.009999842503934854 0.0 3.77767665853655e-08 0.0 0.01 0.0 3.77767665853655e-08 0.0 0.01000154330741014 0.009999880502397106 0.0 4.124515733230959e-08 0.0 0.01 0.0 4.1245157332336696e-08 0.0 0.010001847211957822 0.010000018050247212 0.0 3.636818918278028e-08 0.0 0.01 0.0 3.636818918278028e-08 0.0 0.010002055333684163 0.010000279311720872 0.0 -1.1272370710618015e-08 0.0 0.01 0.0 -1.1272370710618015e-08 0.0 0.010001890686087993 0.009999926000860334 0.0 1.61132987778383e-08 0.0 0.01 0.0 1.6113298777811194e-08 0.0 0.010000756435859565 0.009999918501129593 0.0 2.9808979129693214e-08 0.0 0.01 0.0 2.9808979129693214e-08 0.0 0.010000965940071266 0.009999892002027833 0.0 4.307430354126519e-08 0.0 0.01 0.0 4.30743035413194e-08 0.0 0.010001191113056978 0.00999988000256525 0.0 5.198547052906325e-08 0.0 0.01 0.0 5.198547052900904e-08 0.0 0.010001451466357263 0.009999934001073511 0.0 5.292853613096497e-08 0.0 0.01 0.0 5.292853613096497e-08 0.0 0.01000171969392041 0.010000083001120222 0.0 2.4066274570899108e-08 0.0 0.01 0.0 2.4066274570899108e-08 0.0 0.010001803237719533 0.010000005850122277 0.0 2.7947024998560034e-08 0.0 0.01 0.0 2.7947024998505824e-08 0.0 0.010000742782867897 0.00999998200031925 0.0 4.248016899924484e-08 0.0 0.01 0.0 4.248016899919063e-08 0.0 0.010000926378981425 0.00999995650073782 0.0 5.5018218410231735e-08 0.0 0.01 0.0 5.5018218410123314e-08 0.0 0.010001136444150365 0.009999970500698422 0.0 6.153543473602988e-08 0.0 0.01 0.0 6.153543473597567e-08 0.0 0.010001385038264305 0.010000056150774001 0.0 4.4805950435771943e-08 0.0 0.01 0.0 4.4805950435826154e-08 0.0 0.010001577523509572 0.010000208006562438 0.0 -2.2004347960082786e-08 0.0 0.01 0.0 -2.200434796010989e-08 0.0 0.01000153745456491 0.01000008495133237 0.0 4.0816586343878775e-08 0.0 0.01 0.0 4.0816586343987195e-08 0.0 0.01000072857986641 0.010000066401097867 0.0 5.394869695537954e-08 0.0 0.01 0.0 5.394869695537954e-08 0.0 0.010000899071671406 0.010000072251368234 0.0 6.246598939756848e-08 0.0 0.01 0.0 6.246598939756848e-08 0.0 0.010001106634253928 0.010000124502754521 0.0 5.351074058997877e-08 0.0 0.01 0.0 5.351074058997877e-08 0.0 0.010001323513136044 0.01000022315746969 0.0 4.015686165881053e-10 0.0 0.01 0.0 4.015686165876818e-10 0.0 0.010001422153320519 0.010000186505627064 0.0 5.225598729587371e-08 0.0 0.01 0.0 5.225598729587371e-08 0.0 0.01000072222864411 0.010000210957235474 0.0 6.111827287476855e-08 0.0 0.01 0.0 6.111827287476855e-08 0.0 0.010000886818513284 0.01000025976055225 0.0 5.362594276882987e-08 0.0 0.01 0.0 5.362594276882987e-08 0.0 0.010001077824662086 0.01000031546493652 0.0 7.928997932578623e-09 0.0 0.01 0.0 7.928997932578623e-09 0.0 0.010001250734620867 0.01000037112116205 0.0 5.79386646975405e-08 0.0 0.01 0.0 5.793866469732366e-08 0.0 0.010000723228954865 0.010000425827584942 0.0 5.080748288342936e-08 0.0 0.01 0.0 5.080748288342936e-08 0.0 0.010000880966788793 0.01000046438235449 0.0 7.680407952475547e-09 0.0 0.01 0.0 7.680407952502652e-09 0.0 0.01000104311319892 0.01000048588641219 0.0 -8.172848002985407e-08 0.0 0.01 0.0 -8.172848003007091e-08 0.0 0.010001176008418398 0.01000057279945339 0.0 4.0193786872162046e-08 0.0 0.01 0.0 4.0193786872162046e-08 0.0 0.01000073883211513 0.010000562047381053 0.0 3.559356974282502e-10 0.0 0.01 0.0 3.559356974282502e-10 0.0 0.010000887818219202 0.010000599653982612 0.0 -1.811094319610282e-08 0.0 0.01 0.0 -1.811094319631966e-08 0.0 0.01000077694058531 
