# vtk DataFile Version 3.0
Test VTK file for Force data
ASCII
DATASET POLYDATA
POINTS 2975 float
 -2.2000000E-01   9.9999998E-03  -3.8000000E-01
 -2.2000000E-01   9.9999998E-03  -3.6000001E-01
 -2.0000000E-01   9.9999998E-03  -4.0000001E-01
 -2.0000000E-01   9.9999998E-03  -3.8000000E-01
 -2.0000000E-01   9.9999998E-03  -3.6000001E-01
 -1.8000001E-01   9.9999998E-03  -4.0000001E-01
 -1.8000001E-01   9.9999998E-03  -3.8000000E-01
 -1.8000001E-01   9.9999998E-03  -3.6000001E-01
 -1.6000000E-01   9.9999998E-03  -4.0000001E-01
 -1.6000000E-01   9.9999998E-03  -3.8000000E-01
 -1.6000000E-01   9.9999998E-03  -3.6000001E-01
 -1.4000000E-01   9.9999998E-03  -4.0000001E-01
 -1.4000000E-01   9.9999998E-03  -3.8000000E-01
 -1.4000000E-01   9.9999998E-03  -3.6000001E-01
 -1.2000000E-01   9.9999998E-03  -4.0000001E-01
 -1.2000000E-01   9.9999998E-03  -3.8000000E-01
 -1.2000000E-01   9.9999998E-03  -3.6000001E-01
 -1.0000000E-01   9.9999998E-03  -4.0000001E-01
 -1.0000000E-01   9.9999998E-03  -3.8000000E-01
 -1.0000000E-01   9.9999998E-03  -3.6000001E-01
 -7.9999998E-02   9.9999998E-03  -4.0000001E-01
 -7.9999998E-02   9.9999998E-03  -3.8000000E-01
 -7.9999998E-02   9.9999998E-03  -3.6000001E-01
 -5.9999999E-02   9.9999998E-03  -4.0000001E-01
 -5.9999999E-02   9.9999998E-03  -3.8000000E-01
 -5.9999999E-02   9.9999998E-03  -3.6000001E-01
 -3.9999999E-02   9.9999998E-03  -4.0000001E-01
 -3.9999999E-02   9.9999998E-03  -3.8000000E-01
 -3.9999999E-02   9.9999998E-03  -3.6000001E-01
 -2.0000000E-02   9.9999998E-03  -4.0000001E-01
 -2.0000000E-02   9.9999998E-03  -3.8000000E-01
 -2.0000000E-02   9.9999998E-03  -3.6000001E-01
  0.0000000E+00   9.9999998E-03  -4.0000001E-01
  0.0000000E+00   9.9999998E-03  -3.8000000E-01
  0.0000000E+00   9.9999998E-03  -3.6000001E-01
  2.0000000E-02   9.9999998E-03  -4.0000001E-01
  2.0000000E-02   9.9999998E-03  -3.8000000E-01
  2.0000000E-02   9.9999998E-03  -3.6000001E-01
  3.9999999E-02   9.9999998E-03  -4.0000001E-01
  3.9999999E-02   9.9999998E-03  -3.8000000E-01
  3.9999999E-02   9.9999998E-03  -3.6000001E-01
  5.9999999E-02   9.9999998E-03  -4.0000001E-01
  5.9999999E-02   9.9999998E-03  -3.8000000E-01
  5.9999999E-02   9.9999998E-03  -3.6000001E-01
  7.9999998E-02   9.9999998E-03  -4.0000001E-01
  7.9999998E-02   9.9999998E-03  -3.8000000E-01
  7.9999998E-02   9.9999998E-03  -3.6000001E-01
  1.0000000E-01   9.9999998E-03  -4.0000001E-01
  1.0000000E-01   9.9999998E-03  -3.8000000E-01
  1.0000000E-01   9.9999998E-03  -3.6000001E-01
  1.2000000E-01   9.9999998E-03  -4.0000001E-01
  1.2000000E-01   9.9999998E-03  -3.8000000E-01
  1.2000000E-01   9.9999998E-03  -3.6000001E-01
  1.4000000E-01   9.9999998E-03  -4.0000001E-01
  1.4000000E-01   9.9999998E-03  -3.8000000E-01
  1.4000000E-01   9.9999998E-03  -3.6000001E-01
  1.6000000E-01   9.9999998E-03  -4.0000001E-01
  1.6000000E-01   9.9999998E-03  -3.8000000E-01
  1.6000000E-01   9.9999998E-03  -3.6000001E-01
  1.8000001E-01   9.9999998E-03  -4.0000001E-01
  1.8000001E-01   9.9999998E-03  -3.8000000E-01
  1.8000001E-01   9.9999998E-03  -3.6000001E-01
  2.0000000E-01   9.9999998E-03  -3.8000000E-01
  2.0000000E-01   9.9999998E-03  -3.6000001E-01
 -2.2000000E-01   9.9999998E-03  -3.4000000E-01
 -2.2000000E-01   9.9999998E-03  -3.1999999E-01
 -2.2000000E-01   9.9999998E-03  -3.0000001E-01
 -2.2000000E-01   9.9999998E-03  -2.8000000E-01
 -2.2000000E-01   9.9999998E-03  -2.5999999E-01
 -2.2000000E-01   9.9999998E-03  -2.3999999E-01
 -2.2000000E-01   9.9999998E-03  -2.2000000E-01
 -2.2000000E-01   9.9999998E-03  -2.0000000E-01
 -2.0000000E-01   9.9999998E-03  -3.4000000E-01
 -2.0000000E-01   9.9999998E-03  -3.1999999E-01
 -2.0000000E-01   9.9999998E-03  -3.0000001E-01
 -2.0000000E-01   9.9999998E-03  -2.8000000E-01
 -2.0000000E-01   9.9999998E-03  -2.5999999E-01
 -2.0000000E-01   9.9999998E-03  -2.3999999E-01
 -2.0000000E-01   9.9999998E-03  -2.2000000E-01
 -2.0000000E-01   9.9999998E-03  -2.0000000E-01
 -1.8000001E-01   9.9999998E-03  -3.4000000E-01
 -1.8000001E-01   9.9999998E-03  -3.1999999E-01
 -1.8000001E-01   9.9999998E-03  -3.0000001E-01
 -1.8000001E-01   9.9999998E-03  -2.8000000E-01
 -1.8000001E-01   9.9999998E-03  -2.5999999E-01
 -1.8000001E-01   9.9999998E-03  -2.3999999E-01
 -1.8000001E-01   9.9999998E-03  -2.2000000E-01
 -1.8000001E-01   9.9999998E-03  -2.0000000E-01
 -1.6000000E-01   9.9999998E-03  -3.4000000E-01
 -1.6000000E-01   9.9999998E-03  -3.1999999E-01
 -1.6000000E-01   9.9999998E-03  -3.0000001E-01
 -1.6000000E-01   9.9999998E-03  -2.8000000E-01
 -1.6000000E-01   9.9999998E-03  -2.5999999E-01
 -1.6000000E-01   9.9999998E-03  -2.3999999E-01
 -1.6000000E-01   9.9999998E-03  -2.2000000E-01
 -1.6000000E-01   9.9999998E-03  -2.0000000E-01
 -1.4000000E-01   9.9999998E-03  -3.4000000E-01
 -1.4000000E-01   9.9999998E-03  -3.1999999E-01
 -1.4000000E-01   9.9999998E-03  -3.0000001E-01
 -1.4000000E-01   9.9999998E-03  -2.8000000E-01
 -1.4000000E-01   9.9999998E-03  -2.5999999E-01
 -1.4000000E-01   9.9999998E-03  -2.3999999E-01
 -1.4000000E-01   9.9999998E-03  -2.2000000E-01
 -1.4000000E-01   9.9999998E-03  -2.0000000E-01
 -1.2000000E-01   9.9999998E-03  -3.4000000E-01
 -1.2000000E-01   9.9999998E-03  -3.1999999E-01
 -1.2000000E-01   9.9999998E-03  -3.0000001E-01
 -1.2000000E-01   9.9999998E-03  -2.8000000E-01
 -1.2000000E-01   9.9999998E-03  -2.5999999E-01
 -1.2000000E-01   9.9999998E-03  -2.3999999E-01
 -1.2000000E-01   9.9999998E-03  -2.2000000E-01
 -1.2000000E-01   9.9999998E-03  -2.0000000E-01
 -1.0000000E-01   9.9999998E-03  -3.4000000E-01
 -1.0000000E-01   9.9999998E-03  -3.1999999E-01
 -1.0000000E-01   9.9999998E-03  -3.0000001E-01
 -1.0000000E-01   9.9999998E-03  -2.8000000E-01
 -1.0000000E-01   9.9999998E-03  -2.5999999E-01
 -1.0000000E-01   9.9999998E-03  -2.3999999E-01
 -1.0000000E-01   9.9999998E-03  -2.2000000E-01
 -1.0000000E-01   9.9999998E-03  -2.0000000E-01
 -7.9999998E-02   9.9999998E-03  -3.4000000E-01
 -7.9999998E-02   9.9999998E-03  -3.1999999E-01
 -7.9999998E-02   9.9999998E-03  -3.0000001E-01
 -7.9999998E-02   9.9999998E-03  -2.8000000E-01
 -7.9999998E-02   9.9999998E-03  -2.5999999E-01
 -7.9999998E-02   9.9999998E-03  -2.3999999E-01
 -7.9999998E-02   9.9999998E-03  -2.2000000E-01
 -7.9999998E-02   9.9999998E-03  -2.0000000E-01
 -5.9999999E-02   9.9999998E-03  -3.4000000E-01
 -5.9999999E-02   9.9999998E-03  -3.1999999E-01
 -5.9999999E-02   9.9999998E-03  -3.0000001E-01
 -5.9999999E-02   9.9999998E-03  -2.8000000E-01
 -5.9999999E-02   9.9999998E-03  -2.5999999E-01
 -5.9999999E-02   9.9999998E-03  -2.3999999E-01
 -5.9999999E-02   9.9999998E-03  -2.2000000E-01
 -5.9999999E-02   9.9999998E-03  -2.0000000E-01
 -3.9999999E-02   9.9999998E-03  -3.4000000E-01
 -3.9999999E-02   9.9999998E-03  -3.1999999E-01
 -3.9999999E-02   9.9999998E-03  -3.0000001E-01
 -3.9999999E-02   9.9999998E-03  -2.8000000E-01
 -3.9999999E-02   9.9999998E-03  -2.5999999E-01
 -3.9999999E-02   9.9999998E-03  -2.3999999E-01
 -3.9999999E-02   9.9999998E-03  -2.2000000E-01
 -3.9999999E-02   9.9999998E-03  -2.0000000E-01
 -2.0000000E-02   9.9999998E-03  -3.4000000E-01
 -2.0000000E-02   9.9999998E-03  -3.1999999E-01
 -2.0000000E-02   9.9999998E-03  -3.0000001E-01
 -2.0000000E-02   9.9999998E-03  -2.8000000E-01
 -2.0000000E-02   9.9999998E-03  -2.5999999E-01
 -2.0000000E-02   9.9999998E-03  -2.3999999E-01
 -2.0000000E-02   9.9999998E-03  -2.2000000E-01
 -2.0000000E-02   9.9999998E-03  -2.0000000E-01
  0.0000000E+00   9.9999998E-03  -3.4000000E-01
  0.0000000E+00   9.9999998E-03  -3.1999999E-01
  0.0000000E+00   9.9999998E-03  -3.0000001E-01
  2.0000000E-02   9.9999998E-03  -3.4000000E-01
  2.0000000E-02   9.9999998E-03  -3.1999999E-01
  3.9999999E-02   9.9999998E-03  -3.4000000E-01
  3.9999999E-02   9.9999998E-03  -3.1999999E-01
  5.9999999E-02   9.9999998E-03  -3.4000000E-01
  5.9999999E-02   9.9999998E-03  -3.1999999E-01
  7.9999998E-02   9.9999998E-03  -3.4000000E-01
  7.9999998E-02   9.9999998E-03  -3.1999999E-01
  1.0000000E-01   9.9999998E-03  -3.4000000E-01
  1.0000000E-01   9.9999998E-03  -3.1999999E-01
  1.2000000E-01   9.9999998E-03  -3.4000000E-01
  1.2000000E-01   9.9999998E-03  -3.1999999E-01
  1.4000000E-01   9.9999998E-03  -3.4000000E-01
  1.4000000E-01   9.9999998E-03  -3.1999999E-01
  1.6000000E-01   9.9999998E-03  -3.4000000E-01
  1.6000000E-01   9.9999998E-03  -3.1999999E-01
  1.8000001E-01   9.9999998E-03  -3.4000000E-01
  1.8000001E-01   9.9999998E-03  -3.1999999E-01
  2.0000000E-01   9.9999998E-03  -3.4000000E-01
  2.0000000E-01   9.9999998E-03  -3.1999999E-01
 -2.2000000E-01   9.9999998E-03  -1.8000001E-01
 -2.2000000E-01   9.9999998E-03  -1.6000000E-01
 -2.2000000E-01   9.9999998E-03  -1.4000000E-01
 -2.2000000E-01   9.9999998E-03  -1.2000000E-01
 -2.2000000E-01   9.9999998E-03  -1.0000000E-01
 -2.2000000E-01   9.9999998E-03  -7.9999998E-02
 -2.2000000E-01   9.9999998E-03  -5.9999999E-02
 -2.2000000E-01   9.9999998E-03  -3.9999999E-02
 -2.2000000E-01   9.9999998E-03  -2.0000000E-02
 -2.0000000E-01   9.9999998E-03  -1.8000001E-01
 -2.0000000E-01   9.9999998E-03  -1.6000000E-01
 -2.0000000E-01   9.9999998E-03  -1.4000000E-01
 -2.0000000E-01   9.9999998E-03  -1.2000000E-01
 -2.0000000E-01   9.9999998E-03  -1.0000000E-01
 -2.0000000E-01   9.9999998E-03  -7.9999998E-02
 -2.0000000E-01   9.9999998E-03  -5.9999999E-02
 -2.0000000E-01   9.9999998E-03  -3.9999999E-02
 -2.0000000E-01   9.9999998E-03  -2.0000000E-02
 -1.8000001E-01   9.9999998E-03  -1.8000001E-01
 -1.8000001E-01   9.9999998E-03  -1.6000000E-01
 -1.8000001E-01   9.9999998E-03  -1.4000000E-01
 -1.8000001E-01   9.9999998E-03  -1.2000000E-01
 -1.8000001E-01   9.9999998E-03  -1.0000000E-01
 -1.8000001E-01   9.9999998E-03  -7.9999998E-02
 -1.8000001E-01   9.9999998E-03  -5.9999999E-02
 -1.8000001E-01   9.9999998E-03  -3.9999999E-02
 -1.8000001E-01   9.9999998E-03  -2.0000000E-02
 -1.6000000E-01   9.9999998E-03  -1.8000001E-01
 -1.6000000E-01   9.9999998E-03  -1.6000000E-01
 -1.6000000E-01   9.9999998E-03  -1.4000000E-01
 -1.6000000E-01   9.9999998E-03  -1.2000000E-01
 -1.6000000E-01   9.9999998E-03  -1.0000000E-01
 -1.6000000E-01   9.9999998E-03  -7.9999998E-02
 -1.6000000E-01   9.9999998E-03  -5.9999999E-02
 -1.6000000E-01   9.9999998E-03  -3.9999999E-02
 -1.6000000E-01   9.9999998E-03  -2.0000000E-02
 -1.4000000E-01   9.9999998E-03  -1.8000001E-01
 -1.4000000E-01   9.9999998E-03  -1.6000000E-01
 -1.4000000E-01   9.9999998E-03  -1.4000000E-01
 -1.4000000E-01   9.9999998E-03  -1.2000000E-01
 -1.4000000E-01   9.9999998E-03  -1.0000000E-01
 -1.4000000E-01   9.9999998E-03  -7.9999998E-02
 -1.4000000E-01   9.9999998E-03  -5.9999999E-02
 -1.4000000E-01   9.9999998E-03  -3.9999999E-02
 -1.4000000E-01   9.9999998E-03  -2.0000000E-02
 -1.2000000E-01   9.9999998E-03  -1.8000001E-01
 -1.2000000E-01   9.9999998E-03  -1.6000000E-01
 -1.2000000E-01   9.9999998E-03  -1.4000000E-01
 -1.2000000E-01   9.9999998E-03  -1.2000000E-01
 -1.2000000E-01   9.9999998E-03  -1.0000000E-01
 -1.2000000E-01   9.9999998E-03  -7.9999998E-02
 -1.2000000E-01   9.9999998E-03  -5.9999999E-02
 -1.2000000E-01   9.9999998E-03  -3.9999999E-02
 -1.2000000E-01   9.9999998E-03  -2.0000000E-02
 -1.0000000E-01   9.9999998E-03  -1.8000001E-01
 -1.0000000E-01   9.9999998E-03  -1.6000000E-01
 -1.0000000E-01   9.9999998E-03  -1.4000000E-01
 -1.0000000E-01   9.9999998E-03  -1.2000000E-01
 -1.0000000E-01   9.9999998E-03  -1.0000000E-01
 -1.0000000E-01   9.9999998E-03  -7.9999998E-02
 -1.0000000E-01   9.9999998E-03  -5.9999999E-02
 -1.0000000E-01   9.9999998E-03  -3.9999999E-02
 -1.0000000E-01   9.9999998E-03  -2.0000000E-02
 -7.9999998E-02   9.9999998E-03  -1.8000001E-01
 -7.9999998E-02   9.9999998E-03  -1.6000000E-01
 -7.9999998E-02   9.9999998E-03  -1.4000000E-01
 -7.9999998E-02   9.9999998E-03  -1.2000000E-01
 -7.9999998E-02   9.9999998E-03  -1.0000000E-01
 -7.9999998E-02   9.9999998E-03  -7.9999998E-02
 -7.9999998E-02   9.9999998E-03  -5.9999999E-02
 -7.9999998E-02   9.9999998E-03  -3.9999999E-02
 -7.9999998E-02   9.9999998E-03  -2.0000000E-02
 -5.9999999E-02   9.9999998E-03  -1.8000001E-01
 -5.9999999E-02   9.9999998E-03  -1.6000000E-01
 -5.9999999E-02   9.9999998E-03  -1.4000000E-01
 -5.9999999E-02   9.9999998E-03  -1.2000000E-01
 -5.9999999E-02   9.9999998E-03  -1.0000000E-01
 -5.9999999E-02   9.9999998E-03  -7.9999998E-02
 -5.9999999E-02   9.9999998E-03  -5.9999999E-02
 -5.9999999E-02   9.9999998E-03  -3.9999999E-02
 -5.9999999E-02   9.9999998E-03  -2.0000000E-02
 -3.9999999E-02   9.9999998E-03  -1.8000001E-01
 -3.9999999E-02   9.9999998E-03  -1.6000000E-01
 -3.9999999E-02   9.9999998E-03  -1.4000000E-01
 -3.9999999E-02   9.9999998E-03  -1.2000000E-01
 -3.9999999E-02   9.9999998E-03  -1.0000000E-01
 -3.9999999E-02   9.9999998E-03  -7.9999998E-02
 -3.9999999E-02   9.9999998E-03  -5.9999999E-02
 -3.9999999E-02   9.9999998E-03  -3.9999999E-02
 -3.9999999E-02   9.9999998E-03  -2.0000000E-02
 -2.0000000E-02   9.9999998E-03  -1.8000001E-01
 -2.0000000E-02   9.9999998E-03  -1.6000000E-01
 -2.0000000E-02   9.9999998E-03  -1.4000000E-01
 -2.0000000E-02   9.9999998E-03  -1.2000000E-01
 -2.0000000E-02   9.9999998E-03  -1.0000000E-01
 -2.0000000E-02   9.9999998E-03  -7.9999998E-02
 -2.0000000E-02   9.9999998E-03  -5.9999999E-02
 -2.0000000E-02   9.9999998E-03  -3.9999999E-02
 -2.0000000E-02   9.9999998E-03  -2.0000000E-02
 -2.2000000E-01   9.9999998E-03   0.0000000E+00
 -2.2000000E-01   9.9999998E-03   2.0000000E-02
 -2.2000000E-01   9.9999998E-03   3.9999999E-02
 -2.2000000E-01   9.9999998E-03   5.9999999E-02
 -2.2000000E-01   9.9999998E-03   7.9999998E-02
 -2.2000000E-01   9.9999998E-03   1.0000000E-01
 -2.2000000E-01   9.9999998E-03   1.2000000E-01
 -2.2000000E-01   9.9999998E-03   1.4000000E-01
 -2.0000000E-01   9.9999998E-03   0.0000000E+00
 -2.0000000E-01   9.9999998E-03   2.0000000E-02
 -2.0000000E-01   9.9999998E-03   3.9999999E-02
 -2.0000000E-01   9.9999998E-03   5.9999999E-02
 -2.0000000E-01   9.9999998E-03   7.9999998E-02
 -2.0000000E-01   9.9999998E-03   1.0000000E-01
 -2.0000000E-01   9.9999998E-03   1.2000000E-01
 -2.0000000E-01   9.9999998E-03   1.4000000E-01
 -1.8000001E-01   9.9999998E-03   0.0000000E+00
 -1.8000001E-01   9.9999998E-03   2.0000000E-02
 -1.8000001E-01   9.9999998E-03   3.9999999E-02
 -1.8000001E-01   9.9999998E-03   5.9999999E-02
 -1.8000001E-01   9.9999998E-03   7.9999998E-02
 -1.8000001E-01   9.9999998E-03   1.0000000E-01
 -1.8000001E-01   9.9999998E-03   1.2000000E-01
 -1.8000001E-01   9.9999998E-03   1.4000000E-01
 -1.6000000E-01   9.9999998E-03   0.0000000E+00
 -1.6000000E-01   9.9999998E-03   2.0000000E-02
 -1.6000000E-01   9.9999998E-03   3.9999999E-02
 -1.6000000E-01   9.9999998E-03   5.9999999E-02
 -1.6000000E-01   9.9999998E-03   7.9999998E-02
 -1.6000000E-01   9.9999998E-03   1.0000000E-01
 -1.6000000E-01   9.9999998E-03   1.2000000E-01
 -1.6000000E-01   9.9999998E-03   1.4000000E-01
 -1.4000000E-01   9.9999998E-03   0.0000000E+00
 -1.4000000E-01   9.9999998E-03   2.0000000E-02
 -1.4000000E-01   9.9999998E-03   3.9999999E-02
 -1.4000000E-01   9.9999998E-03   5.9999999E-02
 -1.4000000E-01   9.9999998E-03   7.9999998E-02
 -1.4000000E-01   9.9999998E-03   1.0000000E-01
 -1.4000000E-01   9.9999998E-03   1.2000000E-01
 -1.4000000E-01   9.9999998E-03   1.4000000E-01
 -1.2000000E-01   9.9999998E-03   0.0000000E+00
 -1.2000000E-01   9.9999998E-03   2.0000000E-02
 -1.2000000E-01   9.9999998E-03   3.9999999E-02
 -1.2000000E-01   9.9999998E-03   5.9999999E-02
 -1.2000000E-01   9.9999998E-03   7.9999998E-02
 -1.2000000E-01   9.9999998E-03   1.0000000E-01
 -1.2000000E-01   9.9999998E-03   1.2000000E-01
 -1.2000000E-01   9.9999998E-03   1.4000000E-01
 -1.0000000E-01   9.9999998E-03   0.0000000E+00
 -1.0000000E-01   9.9999998E-03   2.0000000E-02
 -1.0000000E-01   9.9999998E-03   3.9999999E-02
 -1.0000000E-01   9.9999998E-03   5.9999999E-02
 -1.0000000E-01   9.9999998E-03   7.9999998E-02
 -1.0000000E-01   9.9999998E-03   1.0000000E-01
 -1.0000000E-01   9.9999998E-03   1.2000000E-01
 -1.0000000E-01   9.9999998E-03   1.4000000E-01
 -7.9999998E-02   9.9999998E-03   0.0000000E+00
 -7.9999998E-02   9.9999998E-03   2.0000000E-02
 -7.9999998E-02   9.9999998E-03   3.9999999E-02
 -7.9999998E-02   9.9999998E-03   5.9999999E-02
 -7.9999998E-02   9.9999998E-03   7.9999998E-02
 -7.9999998E-02   9.9999998E-03   1.0000000E-01
 -7.9999998E-02   9.9999998E-03   1.2000000E-01
 -7.9999998E-02   9.9999998E-03   1.4000000E-01
 -5.9999999E-02   9.9999998E-03   0.0000000E+00
 -5.9999999E-02   9.9999998E-03   2.0000000E-02
 -5.9999999E-02   9.9999998E-03   3.9999999E-02
 -5.9999999E-02   9.9999998E-03   5.9999999E-02
 -5.9999999E-02   9.9999998E-03   7.9999998E-02
 -5.9999999E-02   9.9999998E-03   1.0000000E-01
 -5.9999999E-02   9.9999998E-03   1.2000000E-01
 -5.9999999E-02   9.9999998E-03   1.4000000E-01
 -3.9999999E-02   9.9999998E-03   0.0000000E+00
 -3.9999999E-02   9.9999998E-03   2.0000000E-02
 -3.9999999E-02   9.9999998E-03   3.9999999E-02
 -3.9999999E-02   9.9999998E-03   5.9999999E-02
 -3.9999999E-02   9.9999998E-03   7.9999998E-02
 -3.9999999E-02   9.9999998E-03   1.0000000E-01
 -3.9999999E-02   9.9999998E-03   1.2000000E-01
 -3.9999999E-02   9.9999998E-03   1.4000000E-01
 -2.0000000E-02   9.9999998E-03   0.0000000E+00
 -2.0000000E-02   9.9999998E-03   2.0000000E-02
 -2.0000000E-02   9.9999998E-03   3.9999999E-02
 -2.0000000E-02   9.9999998E-03   5.9999999E-02
 -2.0000000E-02   9.9999998E-03   7.9999998E-02
 -2.0000000E-02   9.9999998E-03   1.0000000E-01
 -2.0000000E-02   9.9999998E-03   1.2000000E-01
 -2.0000000E-02   9.9999998E-03   1.4000000E-01
 -2.2000000E-01   9.9999998E-03   1.6000000E-01
 -2.2000000E-01   9.9999998E-03   1.8000001E-01
 -2.2000000E-01   9.9999998E-03   2.0000000E-01
 -2.2000000E-01   9.9999998E-03   2.2000000E-01
 -2.2000000E-01   9.9999998E-03   2.3999999E-01
 -2.2000000E-01   9.9999998E-03   2.5999999E-01
 -2.2000000E-01   9.9999998E-03   2.8000000E-01
 -2.2000000E-01   9.9999998E-03   3.0000001E-01
 -2.2000000E-01   9.9999998E-03   3.1999999E-01
 -2.0000000E-01   9.9999998E-03   1.6000000E-01
 -2.0000000E-01   9.9999998E-03   1.8000001E-01
 -2.0000000E-01   9.9999998E-03   2.0000000E-01
 -2.0000000E-01   9.9999998E-03   2.2000000E-01
 -2.0000000E-01   9.9999998E-03   2.3999999E-01
 -2.0000000E-01   9.9999998E-03   2.5999999E-01
 -2.0000000E-01   9.9999998E-03   2.8000000E-01
 -2.0000000E-01   9.9999998E-03   3.0000001E-01
 -2.0000000E-01   9.9999998E-03   3.1999999E-01
 -1.8000001E-01   9.9999998E-03   1.6000000E-01
 -1.8000001E-01   9.9999998E-03   1.8000001E-01
 -1.8000001E-01   9.9999998E-03   2.0000000E-01
 -1.8000001E-01   9.9999998E-03   2.2000000E-01
 -1.8000001E-01   9.9999998E-03   2.3999999E-01
 -1.8000001E-01   9.9999998E-03   2.5999999E-01
 -1.8000001E-01   9.9999998E-03   2.8000000E-01
 -1.8000001E-01   9.9999998E-03   3.0000001E-01
 -1.8000001E-01   9.9999998E-03   3.1999999E-01
 -1.6000000E-01   9.9999998E-03   1.6000000E-01
 -1.6000000E-01   9.9999998E-03   1.8000001E-01
 -1.6000000E-01   9.9999998E-03   2.0000000E-01
 -1.6000000E-01   9.9999998E-03   2.2000000E-01
 -1.6000000E-01   9.9999998E-03   2.3999999E-01
 -1.6000000E-01   9.9999998E-03   2.5999999E-01
 -1.6000000E-01   9.9999998E-03   2.8000000E-01
 -1.6000000E-01   9.9999998E-03   3.0000001E-01
 -1.6000000E-01   9.9999998E-03   3.1999999E-01
 -1.4000000E-01   9.9999998E-03   1.6000000E-01
 -1.4000000E-01   9.9999998E-03   1.8000001E-01
 -1.4000000E-01   9.9999998E-03   2.0000000E-01
 -1.4000000E-01   9.9999998E-03   2.2000000E-01
 -1.4000000E-01   9.9999998E-03   2.3999999E-01
 -1.4000000E-01   9.9999998E-03   2.5999999E-01
 -1.4000000E-01   9.9999998E-03   2.8000000E-01
 -1.4000000E-01   9.9999998E-03   3.0000001E-01
 -1.4000000E-01   9.9999998E-03   3.1999999E-01
 -1.2000000E-01   9.9999998E-03   1.6000000E-01
 -1.2000000E-01   9.9999998E-03   1.8000001E-01
 -1.2000000E-01   9.9999998E-03   2.0000000E-01
 -1.2000000E-01   9.9999998E-03   2.2000000E-01
 -1.2000000E-01   9.9999998E-03   2.3999999E-01
 -1.2000000E-01   9.9999998E-03   2.5999999E-01
 -1.2000000E-01   9.9999998E-03   2.8000000E-01
 -1.2000000E-01   9.9999998E-03   3.0000001E-01
 -1.2000000E-01   9.9999998E-03   3.1999999E-01
 -1.0000000E-01   9.9999998E-03   1.6000000E-01
 -1.0000000E-01   9.9999998E-03   1.8000001E-01
 -1.0000000E-01   9.9999998E-03   2.0000000E-01
 -1.0000000E-01   9.9999998E-03   2.2000000E-01
 -1.0000000E-01   9.9999998E-03   2.3999999E-01
 -1.0000000E-01   9.9999998E-03   2.5999999E-01
 -1.0000000E-01   9.9999998E-03   2.8000000E-01
 -1.0000000E-01   9.9999998E-03   3.0000001E-01
 -1.0000000E-01   9.9999998E-03   3.1999999E-01
 -7.9999998E-02   9.9999998E-03   1.6000000E-01
 -7.9999998E-02   9.9999998E-03   1.8000001E-01
 -7.9999998E-02   9.9999998E-03   2.0000000E-01
 -7.9999998E-02   9.9999998E-03   2.2000000E-01
 -7.9999998E-02   9.9999998E-03   2.3999999E-01
 -7.9999998E-02   9.9999998E-03   2.5999999E-01
 -7.9999998E-02   9.9999998E-03   2.8000000E-01
 -7.9999998E-02   9.9999998E-03   3.0000001E-01
 -7.9999998E-02   9.9999998E-03   3.1999999E-01
 -5.9999999E-02   9.9999998E-03   1.6000000E-01
 -5.9999999E-02   9.9999998E-03   1.8000001E-01
 -5.9999999E-02   9.9999998E-03   2.0000000E-01
 -5.9999999E-02   9.9999998E-03   2.2000000E-01
 -5.9999999E-02   9.9999998E-03   2.3999999E-01
 -5.9999999E-02   9.9999998E-03   2.5999999E-01
 -5.9999999E-02   9.9999998E-03   2.8000000E-01
 -5.9999999E-02   9.9999998E-03   3.0000001E-01
 -5.9999999E-02   9.9999998E-03   3.1999999E-01
 -3.9999999E-02   9.9999998E-03   1.6000000E-01
 -3.9999999E-02   9.9999998E-03   1.8000001E-01
 -3.9999999E-02   9.9999998E-03   2.0000000E-01
 -3.9999999E-02   9.9999998E-03   2.2000000E-01
 -3.9999999E-02   9.9999998E-03   2.3999999E-01
 -3.9999999E-02   9.9999998E-03   2.5999999E-01
 -3.9999999E-02   9.9999998E-03   2.8000000E-01
 -3.9999999E-02   9.9999998E-03   3.0000001E-01
 -3.9999999E-02   9.9999998E-03   3.1999999E-01
 -2.0000000E-02   9.9999998E-03   1.6000000E-01
 -2.0000000E-02   9.9999998E-03   1.8000001E-01
 -2.0000000E-02   9.9999998E-03   2.0000000E-01
 -2.0000000E-02   9.9999998E-03   2.2000000E-01
 -2.0000000E-02   9.9999998E-03   2.3999999E-01
 -2.0000000E-02   9.9999998E-03   2.5999999E-01
 -2.0000000E-02   9.9999998E-03   2.8000000E-01
 -2.0000000E-02   9.9999998E-03   3.0000001E-01
 -2.0000000E-02   9.9999998E-03   3.1999999E-01
  0.0000000E+00   9.9999998E-03   3.0000001E-01
  0.0000000E+00   9.9999998E-03   3.1999999E-01
  2.0000000E-02   9.9999998E-03   3.1999999E-01
  3.9999999E-02   9.9999998E-03   3.1999999E-01
  5.9999999E-02   9.9999998E-03   3.1999999E-01
  7.9999998E-02   9.9999998E-03   3.1999999E-01
  1.0000000E-01   9.9999998E-03   3.1999999E-01
  1.2000000E-01   9.9999998E-03   3.1999999E-01
  1.4000000E-01   9.9999998E-03   3.1999999E-01
  1.6000000E-01   9.9999998E-03   3.1999999E-01
  1.8000001E-01   9.9999998E-03   3.1999999E-01
  2.0000000E-01   9.9999998E-03   3.1999999E-01
 -2.2000000E-01   9.9999998E-03   3.4000000E-01
 -2.2000000E-01   9.9999998E-03   3.6000001E-01
 -2.2000000E-01   9.9999998E-03   3.8000000E-01
 -2.0000000E-01   9.9999998E-03   3.4000000E-01
 -2.0000000E-01   9.9999998E-03   3.6000001E-01
 -2.0000000E-01   9.9999998E-03   3.8000000E-01
 -2.0000000E-01   9.9999998E-03   4.0000001E-01
 -1.8000001E-01   9.9999998E-03   3.4000000E-01
 -1.8000001E-01   9.9999998E-03   3.6000001E-01
 -1.8000001E-01   9.9999998E-03   3.8000000E-01
 -1.8000001E-01   9.9999998E-03   4.0000001E-01
 -1.6000000E-01   9.9999998E-03   3.4000000E-01
 -1.6000000E-01   9.9999998E-03   3.6000001E-01
 -1.6000000E-01   9.9999998E-03   3.8000000E-01
 -1.6000000E-01   9.9999998E-03   4.0000001E-01
 -1.4000000E-01   9.9999998E-03   3.4000000E-01
 -1.4000000E-01   9.9999998E-03   3.6000001E-01
 -1.4000000E-01   9.9999998E-03   3.8000000E-01
 -1.4000000E-01   9.9999998E-03   4.0000001E-01
 -1.2000000E-01   9.9999998E-03   3.4000000E-01
 -1.2000000E-01   9.9999998E-03   3.6000001E-01
 -1.2000000E-01   9.9999998E-03   3.8000000E-01
 -1.2000000E-01   9.9999998E-03   4.0000001E-01
 -1.0000000E-01   9.9999998E-03   3.4000000E-01
 -1.0000000E-01   9.9999998E-03   3.6000001E-01
 -1.0000000E-01   9.9999998E-03   3.8000000E-01
 -1.0000000E-01   9.9999998E-03   4.0000001E-01
 -7.9999998E-02   9.9999998E-03   3.4000000E-01
 -7.9999998E-02   9.9999998E-03   3.6000001E-01
 -7.9999998E-02   9.9999998E-03   3.8000000E-01
 -7.9999998E-02   9.9999998E-03   4.0000001E-01
 -5.9999999E-02   9.9999998E-03   3.4000000E-01
 -5.9999999E-02   9.9999998E-03   3.6000001E-01
 -5.9999999E-02   9.9999998E-03   3.8000000E-01
 -5.9999999E-02   9.9999998E-03   4.0000001E-01
 -3.9999999E-02   9.9999998E-03   3.4000000E-01
 -3.9999999E-02   9.9999998E-03   3.6000001E-01
 -3.9999999E-02   9.9999998E-03   3.8000000E-01
 -3.9999999E-02   9.9999998E-03   4.0000001E-01
 -2.0000000E-02   9.9999998E-03   3.4000000E-01
 -2.0000000E-02   9.9999998E-03   3.6000001E-01
 -2.0000000E-02   9.9999998E-03   3.8000000E-01
 -2.0000000E-02   9.9999998E-03   4.0000001E-01
  0.0000000E+00   9.9999998E-03   3.4000000E-01
  0.0000000E+00   9.9999998E-03   3.6000001E-01
  0.0000000E+00   9.9999998E-03   3.8000000E-01
  0.0000000E+00   9.9999998E-03   4.0000001E-01
  2.0000000E-02   9.9999998E-03   3.4000000E-01
  2.0000000E-02   9.9999998E-03   3.6000001E-01
  2.0000000E-02   9.9999998E-03   3.8000000E-01
  2.0000000E-02   9.9999998E-03   4.0000001E-01
  3.9999999E-02   9.9999998E-03   3.4000000E-01
  3.9999999E-02   9.9999998E-03   3.6000001E-01
  3.9999999E-02   9.9999998E-03   3.8000000E-01
  3.9999999E-02   9.9999998E-03   4.0000001E-01
  5.9999999E-02   9.9999998E-03   3.4000000E-01
  5.9999999E-02   9.9999998E-03   3.6000001E-01
  5.9999999E-02   9.9999998E-03   3.8000000E-01
  5.9999999E-02   9.9999998E-03   4.0000001E-01
  7.9999998E-02   9.9999998E-03   3.4000000E-01
  7.9999998E-02   9.9999998E-03   3.6000001E-01
  7.9999998E-02   9.9999998E-03   3.8000000E-01
  7.9999998E-02   9.9999998E-03   4.0000001E-01
  1.0000000E-01   9.9999998E-03   3.4000000E-01
  1.0000000E-01   9.9999998E-03   3.6000001E-01
  1.0000000E-01   9.9999998E-03   3.8000000E-01
  1.0000000E-01   9.9999998E-03   4.0000001E-01
  1.2000000E-01   9.9999998E-03   3.4000000E-01
  1.2000000E-01   9.9999998E-03   3.6000001E-01
  1.2000000E-01   9.9999998E-03   3.8000000E-01
  1.2000000E-01   9.9999998E-03   4.0000001E-01
  1.4000000E-01   9.9999998E-03   3.4000000E-01
  1.4000000E-01   9.9999998E-03   3.6000001E-01
  1.4000000E-01   9.9999998E-03   3.8000000E-01
  1.4000000E-01   9.9999998E-03   4.0000001E-01
  1.6000000E-01   9.9999998E-03   3.4000000E-01
  1.6000000E-01   9.9999998E-03   3.6000001E-01
  1.6000000E-01   9.9999998E-03   3.8000000E-01
  1.6000000E-01   9.9999998E-03   4.0000001E-01
  1.8000001E-01   9.9999998E-03   3.4000000E-01
  1.8000001E-01   9.9999998E-03   3.6000001E-01
  1.8000001E-01   9.9999998E-03   3.8000000E-01
  1.8000001E-01   9.9999998E-03   4.0000001E-01
  2.0000000E-01   9.9999998E-03   3.4000000E-01
  2.0000000E-01   9.9999998E-03   3.6000001E-01
  2.0000000E-01   9.9999998E-03   3.8000000E-01
  1.9200000E+00   9.9999998E-03  -3.6000001E-01
  1.9200000E+00   9.9999998E-03  -3.4000000E-01
  1.9200000E+00   9.9999998E-03  -3.1999999E-01
  1.9400001E+00   9.9999998E-03  -3.8000000E-01
  1.9400001E+00   9.9999998E-03  -3.6000001E-01
  1.9400001E+00   9.9999998E-03  -3.4000000E-01
  1.9400001E+00   9.9999998E-03  -3.1999999E-01
  1.9400001E+00   9.9999998E-03  -3.0000001E-01
  1.9400001E+00   9.9999998E-03  -2.8000000E-01
  1.9400001E+00   9.9999998E-03  -2.5999999E-01
  1.9400001E+00   9.9999998E-03  -2.3999999E-01
  1.9400001E+00   9.9999998E-03  -2.2000000E-01
  1.9600000E+00   9.9999998E-03  -3.8000000E-01
  1.9600000E+00   9.9999998E-03  -3.6000001E-01
  1.9600000E+00   9.9999998E-03  -3.4000000E-01
  1.9600000E+00   9.9999998E-03  -3.1999999E-01
  1.9600000E+00   9.9999998E-03  -3.0000001E-01
  1.9600000E+00   9.9999998E-03  -2.8000000E-01
  1.9600000E+00   9.9999998E-03  -2.5999999E-01
  1.9600000E+00   9.9999998E-03  -2.3999999E-01
  1.9600000E+00   9.9999998E-03  -2.2000000E-01
  1.9600000E+00   9.9999998E-03  -2.0000000E-01
  1.9600000E+00   9.9999998E-03  -1.8000001E-01
  1.9600000E+00   9.9999998E-03  -1.6000000E-01
  1.9600000E+00   9.9999998E-03  -1.4000000E-01
  1.9600000E+00   9.9999998E-03  -1.2000000E-01
  1.9800000E+00   9.9999998E-03  -3.8000000E-01
  1.9800000E+00   9.9999998E-03  -3.6000001E-01
  1.9800000E+00   9.9999998E-03  -3.4000000E-01
  1.9800000E+00   9.9999998E-03  -3.1999999E-01
  1.9800000E+00   9.9999998E-03  -3.0000001E-01
  1.9800000E+00   9.9999998E-03  -2.8000000E-01
  1.9800000E+00   9.9999998E-03  -2.5999999E-01
  1.9800000E+00   9.9999998E-03  -2.3999999E-01
  1.9800000E+00   9.9999998E-03  -2.2000000E-01
  1.9800000E+00   9.9999998E-03  -2.0000000E-01
  1.9800000E+00   9.9999998E-03  -1.8000001E-01
  1.9800000E+00   9.9999998E-03  -1.6000000E-01
  1.9800000E+00   9.9999998E-03  -1.4000000E-01
  1.9800000E+00   9.9999998E-03  -1.2000000E-01
  1.9800000E+00   9.9999998E-03  -1.0000000E-01
  1.9800000E+00   9.9999998E-03  -7.9999998E-02
  1.9800000E+00   9.9999998E-03  -5.9999999E-02
  1.9800000E+00   9.9999998E-03  -3.9999999E-02
  1.9800000E+00   9.9999998E-03  -2.0000000E-02
  2.0000000E+00   9.9999998E-03  -3.8000000E-01
  2.0000000E+00   9.9999998E-03  -3.6000001E-01
  2.0000000E+00   9.9999998E-03  -3.4000000E-01
  2.0000000E+00   9.9999998E-03  -3.1999999E-01
  2.0000000E+00   9.9999998E-03  -3.0000001E-01
  2.0000000E+00   9.9999998E-03  -2.8000000E-01
  2.0000000E+00   9.9999998E-03  -2.5999999E-01
  2.0000000E+00   9.9999998E-03  -2.3999999E-01
  2.0000000E+00   9.9999998E-03  -2.2000000E-01
  2.0000000E+00   9.9999998E-03  -2.0000000E-01
  2.0000000E+00   9.9999998E-03  -1.8000001E-01
  2.0000000E+00   9.9999998E-03  -1.6000000E-01
  2.0000000E+00   9.9999998E-03  -1.4000000E-01
  2.0000000E+00   9.9999998E-03  -1.2000000E-01
  2.0000000E+00   9.9999998E-03  -1.0000000E-01
  2.0000000E+00   9.9999998E-03  -7.9999998E-02
  2.0000000E+00   9.9999998E-03  -5.9999999E-02
  2.0000000E+00   9.9999998E-03  -3.9999999E-02
  2.0000000E+00   9.9999998E-03  -2.0000000E-02
  2.0000000E+00   9.9999998E-03   0.0000000E+00
  2.0000000E+00   9.9999998E-03   2.0000000E-02
  2.0000000E+00   9.9999998E-03   3.9999999E-02
  2.0000000E+00   9.9999998E-03   5.9999999E-02
  2.0000000E+00   9.9999998E-03   7.9999998E-02
  2.0200000E+00   9.9999998E-03  -4.0000001E-01
  2.0200000E+00   9.9999998E-03  -3.8000000E-01
  2.0200000E+00   9.9999998E-03  -3.6000001E-01
  2.0200000E+00   9.9999998E-03  -3.4000000E-01
  2.0200000E+00   9.9999998E-03  -3.1999999E-01
  2.0200000E+00   9.9999998E-03  -3.0000001E-01
  2.0200000E+00   9.9999998E-03  -2.8000000E-01
  2.0200000E+00   9.9999998E-03  -2.5999999E-01
  2.0200000E+00   9.9999998E-03  -2.3999999E-01
  2.0200000E+00   9.9999998E-03  -2.2000000E-01
  2.0200000E+00   9.9999998E-03  -2.0000000E-01
  2.0200000E+00   9.9999998E-03  -1.8000001E-01
  2.0200000E+00   9.9999998E-03  -1.6000000E-01
  2.0200000E+00   9.9999998E-03  -1.4000000E-01
  2.0200000E+00   9.9999998E-03  -1.2000000E-01
  2.0200000E+00   9.9999998E-03  -1.0000000E-01
  2.0200000E+00   9.9999998E-03  -7.9999998E-02
  2.0200000E+00   9.9999998E-03  -5.9999999E-02
  2.0200000E+00   9.9999998E-03  -3.9999999E-02
  2.0200000E+00   9.9999998E-03  -2.0000000E-02
  2.0200000E+00   9.9999998E-03   0.0000000E+00
  2.0200000E+00   9.9999998E-03   2.0000000E-02
  2.0200000E+00   9.9999998E-03   3.9999999E-02
  2.0200000E+00   9.9999998E-03   5.9999999E-02
  2.0200000E+00   9.9999998E-03   7.9999998E-02
  2.0200000E+00   9.9999998E-03   1.0000000E-01
  2.0200000E+00   9.9999998E-03   1.2000000E-01
  2.0200000E+00   9.9999998E-03   1.4000000E-01
  2.0200000E+00   9.9999998E-03   1.6000000E-01
  2.0200000E+00   9.9999998E-03   1.8000001E-01
  2.0400000E+00   9.9999998E-03  -4.0000001E-01
  2.0400000E+00   9.9999998E-03  -3.8000000E-01
  2.0400000E+00   9.9999998E-03  -3.6000001E-01
  2.0400000E+00   9.9999998E-03  -3.4000000E-01
  2.0400000E+00   9.9999998E-03  -3.1999999E-01
  2.0400000E+00   9.9999998E-03  -3.0000001E-01
  2.0400000E+00   9.9999998E-03  -2.8000000E-01
  2.0400000E+00   9.9999998E-03  -2.5999999E-01
  2.0400000E+00   9.9999998E-03  -2.3999999E-01
  2.0400000E+00   9.9999998E-03  -2.2000000E-01
  2.0400000E+00   9.9999998E-03  -2.0000000E-01
  2.0400000E+00   9.9999998E-03  -1.8000001E-01
  2.0400000E+00   9.9999998E-03  -1.6000000E-01
  2.0400000E+00   9.9999998E-03  -1.4000000E-01
  2.0400000E+00   9.9999998E-03  -1.2000000E-01
  2.0400000E+00   9.9999998E-03  -1.0000000E-01
  2.0400000E+00   9.9999998E-03  -7.9999998E-02
  2.0400000E+00   9.9999998E-03  -5.9999999E-02
  2.0400000E+00   9.9999998E-03  -3.9999999E-02
  2.0400000E+00   9.9999998E-03  -2.0000000E-02
  2.0400000E+00   9.9999998E-03   0.0000000E+00
  2.0400000E+00   9.9999998E-03   2.0000000E-02
  2.0400000E+00   9.9999998E-03   3.9999999E-02
  2.0400000E+00   9.9999998E-03   5.9999999E-02
  2.0400000E+00   9.9999998E-03   7.9999998E-02
  2.0400000E+00   9.9999998E-03   1.0000000E-01
  2.0400000E+00   9.9999998E-03   1.2000000E-01
  2.0400000E+00   9.9999998E-03   1.4000000E-01
  2.0400000E+00   9.9999998E-03   1.6000000E-01
  2.0400000E+00   9.9999998E-03   1.8000001E-01
  2.0400000E+00   9.9999998E-03   2.0000000E-01
  2.0400000E+00   9.9999998E-03   2.2000000E-01
  2.0400000E+00   9.9999998E-03   2.3999999E-01
  2.0400000E+00   9.9999998E-03   2.5999999E-01
  2.0400000E+00   9.9999998E-03   2.8000000E-01
  2.0599999E+00   9.9999998E-03  -4.0000001E-01
  2.0599999E+00   9.9999998E-03  -3.8000000E-01
  2.0599999E+00   9.9999998E-03  -3.6000001E-01
  2.0599999E+00   9.9999998E-03  -3.4000000E-01
  2.0599999E+00   9.9999998E-03  -3.1999999E-01
  2.0599999E+00   9.9999998E-03  -3.0000001E-01
  2.0599999E+00   9.9999998E-03  -2.8000000E-01
  2.0599999E+00   9.9999998E-03  -2.5999999E-01
  2.0599999E+00   9.9999998E-03  -2.3999999E-01
  2.0599999E+00   9.9999998E-03  -2.2000000E-01
  2.0599999E+00   9.9999998E-03  -2.0000000E-01
  2.0599999E+00   9.9999998E-03  -1.8000001E-01
  2.0599999E+00   9.9999998E-03  -1.6000000E-01
  2.0599999E+00   9.9999998E-03  -1.4000000E-01
  2.0599999E+00   9.9999998E-03  -1.2000000E-01
  2.0599999E+00   9.9999998E-03  -1.0000000E-01
  2.0599999E+00   9.9999998E-03  -7.9999998E-02
  2.0599999E+00   9.9999998E-03  -5.9999999E-02
  2.0599999E+00   9.9999998E-03  -3.9999999E-02
  2.0599999E+00   9.9999998E-03  -2.0000000E-02
  2.0599999E+00   9.9999998E-03   0.0000000E+00
  2.0599999E+00   9.9999998E-03   2.0000000E-02
  2.0599999E+00   9.9999998E-03   3.9999999E-02
  2.0599999E+00   9.9999998E-03   5.9999999E-02
  2.0599999E+00   9.9999998E-03   7.9999998E-02
  2.0599999E+00   9.9999998E-03   1.0000000E-01
  2.0599999E+00   9.9999998E-03   1.2000000E-01
  2.0599999E+00   9.9999998E-03   1.4000000E-01
  2.0599999E+00   9.9999998E-03   1.6000000E-01
  2.0599999E+00   9.9999998E-03   1.8000001E-01
  2.0599999E+00   9.9999998E-03   2.0000000E-01
  2.0599999E+00   9.9999998E-03   2.2000000E-01
  2.0599999E+00   9.9999998E-03   2.3999999E-01
  2.0599999E+00   9.9999998E-03   2.5999999E-01
  2.0599999E+00   9.9999998E-03   2.8000000E-01
  2.0599999E+00   9.9999998E-03   3.0000001E-01
  2.0599999E+00   9.9999998E-03   3.1999999E-01
  2.0599999E+00   9.9999998E-03   3.4000000E-01
  2.0599999E+00   9.9999998E-03   3.6000001E-01
  2.0599999E+00   9.9999998E-03   3.8000000E-01
  2.0799999E+00   9.9999998E-03  -4.0000001E-01
  2.0799999E+00   9.9999998E-03  -3.8000000E-01
  2.0799999E+00   9.9999998E-03  -3.6000001E-01
  2.0799999E+00   9.9999998E-03  -3.4000000E-01
  2.0799999E+00   9.9999998E-03  -3.1999999E-01
  2.0799999E+00   9.9999998E-03  -3.0000001E-01
  2.0799999E+00   9.9999998E-03  -2.8000000E-01
  2.0799999E+00   9.9999998E-03  -2.5999999E-01
  2.0799999E+00   9.9999998E-03  -2.3999999E-01
  2.0799999E+00   9.9999998E-03  -2.2000000E-01
  2.0799999E+00   9.9999998E-03  -2.0000000E-01
  2.0799999E+00   9.9999998E-03  -1.8000001E-01
  2.0799999E+00   9.9999998E-03  -1.6000000E-01
  2.0799999E+00   9.9999998E-03  -1.4000000E-01
  2.0799999E+00   9.9999998E-03  -1.2000000E-01
  2.0799999E+00   9.9999998E-03  -1.0000000E-01
  2.0799999E+00   9.9999998E-03  -7.9999998E-02
  2.0799999E+00   9.9999998E-03  -5.9999999E-02
  2.0799999E+00   9.9999998E-03  -3.9999999E-02
  2.0799999E+00   9.9999998E-03  -2.0000000E-02
  2.0799999E+00   9.9999998E-03   0.0000000E+00
  2.0799999E+00   9.9999998E-03   2.0000000E-02
  2.0799999E+00   9.9999998E-03   3.9999999E-02
  2.0799999E+00   9.9999998E-03   5.9999999E-02
  2.0799999E+00   9.9999998E-03   7.9999998E-02
  2.0799999E+00   9.9999998E-03   1.0000000E-01
  2.0799999E+00   9.9999998E-03   1.2000000E-01
  2.0799999E+00   9.9999998E-03   1.4000000E-01
  2.0799999E+00   9.9999998E-03   1.6000000E-01
  2.0799999E+00   9.9999998E-03   1.8000001E-01
  2.0799999E+00   9.9999998E-03   2.0000000E-01
  2.0799999E+00   9.9999998E-03   2.2000000E-01
  2.0799999E+00   9.9999998E-03   2.3999999E-01
  2.0799999E+00   9.9999998E-03   2.5999999E-01
  2.0799999E+00   9.9999998E-03   2.8000000E-01
  2.0799999E+00   9.9999998E-03   3.0000001E-01
  2.0799999E+00   9.9999998E-03   3.1999999E-01
  2.0799999E+00   9.9999998E-03   3.4000000E-01
  2.0799999E+00   9.9999998E-03   3.6000001E-01
  2.0799999E+00   9.9999998E-03   3.8000000E-01
  2.0799999E+00   9.9999998E-03   4.0000001E-01
  2.0999999E+00   9.9999998E-03  -4.0000001E-01
  2.0999999E+00   9.9999998E-03  -3.8000000E-01
  2.0999999E+00   9.9999998E-03  -3.6000001E-01
  2.0999999E+00   9.9999998E-03  -3.4000000E-01
  2.0999999E+00   9.9999998E-03  -3.1999999E-01
  2.0999999E+00   9.9999998E-03  -3.0000001E-01
  2.0999999E+00   9.9999998E-03  -2.8000000E-01
  2.0999999E+00   9.9999998E-03  -2.5999999E-01
  2.0999999E+00   9.9999998E-03  -2.3999999E-01
  2.0999999E+00   9.9999998E-03  -2.2000000E-01
  2.0999999E+00   9.9999998E-03  -2.0000000E-01
  2.0999999E+00   9.9999998E-03  -1.8000001E-01
  2.0999999E+00   9.9999998E-03  -1.6000000E-01
  2.0999999E+00   9.9999998E-03  -1.4000000E-01
  2.0999999E+00   9.9999998E-03  -1.2000000E-01
  2.0999999E+00   9.9999998E-03  -1.0000000E-01
  2.0999999E+00   9.9999998E-03  -7.9999998E-02
  2.0999999E+00   9.9999998E-03  -5.9999999E-02
  2.0999999E+00   9.9999998E-03  -3.9999999E-02
  2.0999999E+00   9.9999998E-03  -2.0000000E-02
  2.0999999E+00   9.9999998E-03   0.0000000E+00
  2.0999999E+00   9.9999998E-03   2.0000000E-02
  2.0999999E+00   9.9999998E-03   3.9999999E-02
  2.0999999E+00   9.9999998E-03   5.9999999E-02
  2.0999999E+00   9.9999998E-03   7.9999998E-02
  2.0999999E+00   9.9999998E-03   1.0000000E-01
  2.0999999E+00   9.9999998E-03   1.2000000E-01
  2.0999999E+00   9.9999998E-03   1.4000000E-01
  2.0999999E+00   9.9999998E-03   1.6000000E-01
  2.0999999E+00   9.9999998E-03   1.8000001E-01
  2.0999999E+00   9.9999998E-03   2.0000000E-01
  2.0999999E+00   9.9999998E-03   2.2000000E-01
  2.0999999E+00   9.9999998E-03   2.3999999E-01
  2.0999999E+00   9.9999998E-03   2.5999999E-01
  2.0999999E+00   9.9999998E-03   2.8000000E-01
  2.0999999E+00   9.9999998E-03   3.0000001E-01
  2.0999999E+00   9.9999998E-03   3.1999999E-01
  2.0999999E+00   9.9999998E-03   3.4000000E-01
  2.0999999E+00   9.9999998E-03   3.6000001E-01
  2.0999999E+00   9.9999998E-03   3.8000000E-01
  2.0999999E+00   9.9999998E-03   4.0000001E-01
  2.1199999E+00   9.9999998E-03  -4.1999999E-01
  2.1199999E+00   9.9999998E-03  -4.0000001E-01
  2.1199999E+00   9.9999998E-03  -3.8000000E-01
  2.1199999E+00   9.9999998E-03  -3.6000001E-01
  2.1199999E+00   9.9999998E-03  -3.4000000E-01
  2.1199999E+00   9.9999998E-03  -3.1999999E-01
  2.1199999E+00   9.9999998E-03  -3.0000001E-01
  2.1199999E+00   9.9999998E-03  -2.8000000E-01
  2.1199999E+00   9.9999998E-03  -2.5999999E-01
  2.1199999E+00   9.9999998E-03  -2.3999999E-01
  2.1199999E+00   9.9999998E-03  -2.2000000E-01
  2.1199999E+00   9.9999998E-03  -2.0000000E-01
  2.1199999E+00   9.9999998E-03  -1.8000001E-01
  2.1199999E+00   9.9999998E-03  -1.6000000E-01
  2.1199999E+00   9.9999998E-03  -1.4000000E-01
  2.1199999E+00   9.9999998E-03  -1.2000000E-01
  2.1199999E+00   9.9999998E-03  -1.0000000E-01
  2.1199999E+00   9.9999998E-03  -7.9999998E-02
  2.1199999E+00   9.9999998E-03  -5.9999999E-02
  2.1199999E+00   9.9999998E-03  -3.9999999E-02
  2.1199999E+00   9.9999998E-03  -2.0000000E-02
  2.1199999E+00   9.9999998E-03   0.0000000E+00
  2.1199999E+00   9.9999998E-03   2.0000000E-02
  2.1199999E+00   9.9999998E-03   3.9999999E-02
  2.1199999E+00   9.9999998E-03   5.9999999E-02
  2.1199999E+00   9.9999998E-03   7.9999998E-02
  2.1199999E+00   9.9999998E-03   1.0000000E-01
  2.1199999E+00   9.9999998E-03   1.2000000E-01
  2.1199999E+00   9.9999998E-03   1.4000000E-01
  2.1199999E+00   9.9999998E-03   1.6000000E-01
  2.1199999E+00   9.9999998E-03   1.8000001E-01
  2.1199999E+00   9.9999998E-03   2.0000000E-01
  2.1199999E+00   9.9999998E-03   2.2000000E-01
  2.1199999E+00   9.9999998E-03   2.3999999E-01
  2.1199999E+00   9.9999998E-03   2.5999999E-01
  2.1199999E+00   9.9999998E-03   2.8000000E-01
  2.1199999E+00   9.9999998E-03   3.0000001E-01
  2.1199999E+00   9.9999998E-03   3.1999999E-01
  2.1199999E+00   9.9999998E-03   3.4000000E-01
  2.1199999E+00   9.9999998E-03   3.6000001E-01
  2.1199999E+00   9.9999998E-03   3.8000000E-01
  2.1199999E+00   9.9999998E-03   4.0000001E-01
  2.1400001E+00   9.9999998E-03  -3.8000000E-01
  2.1400001E+00   9.9999998E-03  -3.6000001E-01
  2.1400001E+00   9.9999998E-03  -3.4000000E-01
  2.1400001E+00   9.9999998E-03  -3.1999999E-01
  2.1400001E+00   9.9999998E-03  -3.0000001E-01
  2.1400001E+00   9.9999998E-03  -2.8000000E-01
  2.1400001E+00   9.9999998E-03  -2.5999999E-01
  2.1400001E+00   9.9999998E-03  -2.3999999E-01
  2.1400001E+00   9.9999998E-03  -2.2000000E-01
  2.1400001E+00   9.9999998E-03  -2.0000000E-01
  2.1400001E+00   9.9999998E-03  -1.8000001E-01
  2.1400001E+00   9.9999998E-03  -1.6000000E-01
  2.1400001E+00   9.9999998E-03  -1.4000000E-01
  2.1400001E+00   9.9999998E-03  -1.2000000E-01
  2.1400001E+00   9.9999998E-03  -1.0000000E-01
  2.1400001E+00   9.9999998E-03  -7.9999998E-02
  2.1400001E+00   9.9999998E-03  -5.9999999E-02
  2.1400001E+00   9.9999998E-03  -3.9999999E-02
  2.1400001E+00   9.9999998E-03  -2.0000000E-02
  2.1400001E+00   9.9999998E-03   0.0000000E+00
  2.1400001E+00   9.9999998E-03   2.0000000E-02
  2.1400001E+00   9.9999998E-03   3.9999999E-02
  2.1400001E+00   9.9999998E-03   5.9999999E-02
  2.1400001E+00   9.9999998E-03   7.9999998E-02
  2.1400001E+00   9.9999998E-03   1.0000000E-01
  2.1400001E+00   9.9999998E-03   1.2000000E-01
  2.1400001E+00   9.9999998E-03   1.4000000E-01
  2.1400001E+00   9.9999998E-03   1.6000000E-01
  2.1400001E+00   9.9999998E-03   1.8000001E-01
  2.1400001E+00   9.9999998E-03   2.0000000E-01
  2.1400001E+00   9.9999998E-03   2.2000000E-01
  2.1400001E+00   9.9999998E-03   2.3999999E-01
  2.1400001E+00   9.9999998E-03   2.5999999E-01
  2.1400001E+00   9.9999998E-03   2.8000000E-01
  2.1400001E+00   9.9999998E-03   3.0000001E-01
  2.1400001E+00   9.9999998E-03   3.1999999E-01
  2.1400001E+00   9.9999998E-03   3.4000000E-01
  2.1400001E+00   9.9999998E-03   3.6000001E-01
  2.1400001E+00   9.9999998E-03   3.8000000E-01
  2.1400001E+00   9.9999998E-03   4.0000001E-01
  2.1600001E+00   9.9999998E-03  -2.8000000E-01
  2.1600001E+00   9.9999998E-03  -2.5999999E-01
  2.1600001E+00   9.9999998E-03  -2.3999999E-01
  2.1600001E+00   9.9999998E-03  -2.2000000E-01
  2.1600001E+00   9.9999998E-03  -2.0000000E-01
  2.1600001E+00   9.9999998E-03  -1.8000001E-01
  2.1600001E+00   9.9999998E-03  -1.6000000E-01
  2.1600001E+00   9.9999998E-03  -1.4000000E-01
  2.1600001E+00   9.9999998E-03  -1.2000000E-01
  2.1600001E+00   9.9999998E-03  -1.0000000E-01
  2.1600001E+00   9.9999998E-03  -7.9999998E-02
  2.1600001E+00   9.9999998E-03  -5.9999999E-02
  2.1600001E+00   9.9999998E-03  -3.9999999E-02
  2.1600001E+00   9.9999998E-03  -2.0000000E-02
  2.1600001E+00   9.9999998E-03   0.0000000E+00
  2.1600001E+00   9.9999998E-03   2.0000000E-02
  2.1600001E+00   9.9999998E-03   3.9999999E-02
  2.1600001E+00   9.9999998E-03   5.9999999E-02
  2.1600001E+00   9.9999998E-03   7.9999998E-02
  2.1600001E+00   9.9999998E-03   1.0000000E-01
  2.1600001E+00   9.9999998E-03   1.2000000E-01
  2.1600001E+00   9.9999998E-03   1.4000000E-01
  2.1600001E+00   9.9999998E-03   1.6000000E-01
  2.1600001E+00   9.9999998E-03   1.8000001E-01
  2.1600001E+00   9.9999998E-03   2.0000000E-01
  2.1600001E+00   9.9999998E-03   2.2000000E-01
  2.1600001E+00   9.9999998E-03   2.3999999E-01
  2.1600001E+00   9.9999998E-03   2.5999999E-01
  2.1600001E+00   9.9999998E-03   2.8000000E-01
  2.1600001E+00   9.9999998E-03   3.0000001E-01
  2.1600001E+00   9.9999998E-03   3.1999999E-01
  2.1600001E+00   9.9999998E-03   3.4000000E-01
  2.1600001E+00   9.9999998E-03   3.6000001E-01
  2.1600001E+00   9.9999998E-03   3.8000000E-01
  2.1600001E+00   9.9999998E-03   4.0000001E-01
  2.1800001E+00   9.9999998E-03  -1.8000001E-01
  2.1800001E+00   9.9999998E-03  -1.6000000E-01
  2.1800001E+00   9.9999998E-03  -1.4000000E-01
  2.1800001E+00   9.9999998E-03  -1.2000000E-01
  2.1800001E+00   9.9999998E-03  -1.0000000E-01
  2.1800001E+00   9.9999998E-03  -7.9999998E-02
  2.1800001E+00   9.9999998E-03  -5.9999999E-02
  2.1800001E+00   9.9999998E-03  -3.9999999E-02
  2.1800001E+00   9.9999998E-03  -2.0000000E-02
  2.1800001E+00   9.9999998E-03   0.0000000E+00
  2.1800001E+00   9.9999998E-03   2.0000000E-02
  2.1800001E+00   9.9999998E-03   3.9999999E-02
  2.1800001E+00   9.9999998E-03   5.9999999E-02
  2.1800001E+00   9.9999998E-03   7.9999998E-02
  2.1800001E+00   9.9999998E-03   1.0000000E-01
  2.1800001E+00   9.9999998E-03   1.2000000E-01
  2.1800001E+00   9.9999998E-03   1.4000000E-01
  2.1800001E+00   9.9999998E-03   1.6000000E-01
  2.1800001E+00   9.9999998E-03   1.8000001E-01
  2.1800001E+00   9.9999998E-03   2.0000000E-01
  2.1800001E+00   9.9999998E-03   2.2000000E-01
  2.1800001E+00   9.9999998E-03   2.3999999E-01
  2.1800001E+00   9.9999998E-03   2.5999999E-01
  2.1800001E+00   9.9999998E-03   2.8000000E-01
  2.1800001E+00   9.9999998E-03   3.0000001E-01
  2.1800001E+00   9.9999998E-03   3.1999999E-01
  2.1800001E+00   9.9999998E-03   3.4000000E-01
  2.1800001E+00   9.9999998E-03   3.6000001E-01
  2.1800001E+00   9.9999998E-03   3.8000000E-01
  2.1800001E+00   9.9999998E-03   4.0000001E-01
  2.2000000E+00   9.9999998E-03  -7.9999998E-02
  2.2000000E+00   9.9999998E-03  -5.9999999E-02
  2.2000000E+00   9.9999998E-03  -3.9999999E-02
  2.2000000E+00   9.9999998E-03  -2.0000000E-02
  2.2000000E+00   9.9999998E-03   0.0000000E+00
  2.2000000E+00   9.9999998E-03   2.0000000E-02
  2.2000000E+00   9.9999998E-03   3.9999999E-02
  2.2000000E+00   9.9999998E-03   5.9999999E-02
  2.2000000E+00   9.9999998E-03   7.9999998E-02
  2.2000000E+00   9.9999998E-03   1.0000000E-01
  2.2000000E+00   9.9999998E-03   1.2000000E-01
  2.2000000E+00   9.9999998E-03   1.4000000E-01
  2.2000000E+00   9.9999998E-03   1.6000000E-01
  2.2000000E+00   9.9999998E-03   1.8000001E-01
  2.2000000E+00   9.9999998E-03   2.0000000E-01
  2.2000000E+00   9.9999998E-03   2.2000000E-01
  2.2000000E+00   9.9999998E-03   2.3999999E-01
  2.2000000E+00   9.9999998E-03   2.5999999E-01
  2.2000000E+00   9.9999998E-03   2.8000000E-01
  2.2000000E+00   9.9999998E-03   3.0000001E-01
  2.2000000E+00   9.9999998E-03   3.1999999E-01
  2.2000000E+00   9.9999998E-03   3.4000000E-01
  2.2000000E+00   9.9999998E-03   3.6000001E-01
  2.2000000E+00   9.9999998E-03   3.8000000E-01
  2.2200000E+00   9.9999998E-03   2.0000000E-02
  2.2200000E+00   9.9999998E-03   3.9999999E-02
  2.2200000E+00   9.9999998E-03   5.9999999E-02
  2.2200000E+00   9.9999998E-03   7.9999998E-02
  2.2200000E+00   9.9999998E-03   1.0000000E-01
  2.2200000E+00   9.9999998E-03   1.2000000E-01
  2.2200000E+00   9.9999998E-03   1.4000000E-01
  2.2200000E+00   9.9999998E-03   1.6000000E-01
  2.2200000E+00   9.9999998E-03   1.8000001E-01
  2.2200000E+00   9.9999998E-03   2.0000000E-01
  2.2200000E+00   9.9999998E-03   2.2000000E-01
  2.2200000E+00   9.9999998E-03   2.3999999E-01
  2.2200000E+00   9.9999998E-03   2.5999999E-01
  2.2200000E+00   9.9999998E-03   2.8000000E-01
  2.2200000E+00   9.9999998E-03   3.0000001E-01
  2.2200000E+00   9.9999998E-03   3.1999999E-01
  2.2200000E+00   9.9999998E-03   3.4000000E-01
  2.2200000E+00   9.9999998E-03   3.6000001E-01
  2.2200000E+00   9.9999998E-03   3.8000000E-01
  2.2400000E+00   9.9999998E-03   1.2000000E-01
  2.2400000E+00   9.9999998E-03   1.4000000E-01
  2.2400000E+00   9.9999998E-03   1.6000000E-01
  2.2400000E+00   9.9999998E-03   1.8000001E-01
  2.2400000E+00   9.9999998E-03   2.0000000E-01
  2.2400000E+00   9.9999998E-03   2.2000000E-01
  2.2400000E+00   9.9999998E-03   2.3999999E-01
  2.2400000E+00   9.9999998E-03   2.5999999E-01
  2.2400000E+00   9.9999998E-03   2.8000000E-01
  2.2400000E+00   9.9999998E-03   3.0000001E-01
  2.2400000E+00   9.9999998E-03   3.1999999E-01
  2.2400000E+00   9.9999998E-03   3.4000000E-01
  2.2400000E+00   9.9999998E-03   3.6000001E-01
  2.2400000E+00   9.9999998E-03   3.8000000E-01
  2.2600000E+00   9.9999998E-03   2.2000000E-01
  2.2600000E+00   9.9999998E-03   2.3999999E-01
  2.2600000E+00   9.9999998E-03   2.5999999E-01
  2.2600000E+00   9.9999998E-03   2.8000000E-01
  2.2600000E+00   9.9999998E-03   3.0000001E-01
  2.2600000E+00   9.9999998E-03   3.1999999E-01
  2.2600000E+00   9.9999998E-03   3.4000000E-01
  2.2600000E+00   9.9999998E-03   3.6000001E-01
  2.2600000E+00   9.9999998E-03   3.8000000E-01
  2.2800000E+00   9.9999998E-03   3.1999999E-01
  2.2800000E+00   9.9999998E-03   3.4000000E-01
  2.2800000E+00   9.9999998E-03   3.6000001E-01
 -3.2911705E-06   9.9999998E-03  -2.8000128E-01
 -4.0104364E-06   9.9999998E-03  -2.6000121E-01
 -4.6192649E-06   9.9999998E-03  -2.4000111E-01
 -5.0951871E-06   9.9999998E-03  -2.2000097E-01
 -5.4465490E-06   9.9999998E-03  -2.0000079E-01
  1.9996747E-02   9.9999998E-03  -3.0000168E-01
  1.9995432E-02   9.9999998E-03  -2.8000155E-01
  1.9994307E-02   9.9999998E-03  -2.6000154E-01
  1.9993396E-02   9.9999998E-03  -2.4000144E-01
  1.9992709E-02   9.9999998E-03  -2.2000127E-01
  1.9992217E-02   9.9999998E-03  -2.0000106E-01
  3.9995454E-02   9.9999998E-03  -3.0000186E-01
  3.9993636E-02   9.9999998E-03  -2.8000179E-01
  3.9992075E-02   9.9999998E-03  -2.6000175E-01
  3.9990809E-02   9.9999998E-03  -2.4000162E-01
  3.9989866E-02   9.9999998E-03  -2.2000144E-01
  3.9989207E-02   9.9999998E-03  -2.0000122E-01
  5.9993852E-02   9.9999998E-03  -3.0000198E-01
  5.9991438E-02   9.9999998E-03  -2.8000188E-01
  5.9989400E-02   9.9999998E-03  -2.6000184E-01
  5.9987761E-02   9.9999998E-03  -2.4000172E-01
  5.9986554E-02   9.9999998E-03  -2.2000155E-01
  5.9985723E-02   9.9999998E-03  -2.0000131E-01
  7.9991944E-02   9.9999998E-03  -3.0000213E-01
  7.9988852E-02   9.9999998E-03  -2.8000194E-01
  7.9986297E-02   9.9999998E-03  -2.6000190E-01
  7.9984285E-02   9.9999998E-03  -2.4000177E-01
  7.9982817E-02   9.9999998E-03  -2.2000158E-01
  7.9981834E-02   9.9999998E-03  -2.0000134E-01
  9.9989668E-02   9.9999998E-03  -3.0000231E-01
  9.9985816E-02   9.9999998E-03  -2.8000200E-01
  9.9982716E-02   9.9999998E-03  -2.6000190E-01
  9.9980310E-02   9.9999998E-03  -2.4000175E-01
  9.9978603E-02   9.9999998E-03  -2.2000156E-01
  9.9977478E-02   9.9999998E-03  -2.0000133E-01
  1.1998691E-01   9.9999998E-03  -3.0000257E-01
  1.1998221E-01   9.9999998E-03  -2.8000206E-01
  1.1997852E-01   9.9999998E-03  -2.6000187E-01
  1.1997573E-01   9.9999998E-03  -2.4000172E-01
  1.1997379E-01   9.9999998E-03  -2.2000155E-01
  1.1997255E-01   9.9999998E-03  -2.0000131E-01
  1.3998353E-01   9.9999998E-03  -3.0000299E-01
  1.3997789E-01   9.9999998E-03  -2.8000221E-01
  1.3997360E-01   9.9999998E-03  -2.6000193E-01
  1.3997039E-01   9.9999998E-03  -2.4000171E-01
  1.3996823E-01   9.9999998E-03  -2.2000155E-01
  1.3996689E-01   9.9999998E-03  -2.0000133E-01
  1.5997925E-01   9.9999998E-03  -3.0000350E-01
  1.5997267E-01   9.9999998E-03  -2.8000247E-01
  1.5996777E-01   9.9999998E-03  -2.6000211E-01
  1.5996417E-01   9.9999998E-03  -2.4000184E-01
  1.5996179E-01   9.9999998E-03  -2.2000167E-01
  1.5996037E-01   9.9999998E-03  -2.0000146E-01
  1.7997365E-01   9.9999998E-03  -3.0000377E-01
  1.7996638E-01   9.9999998E-03  -2.8000280E-01
  1.7996091E-01   9.9999998E-03  -2.6000240E-01
  1.7995693E-01   9.9999998E-03  -2.4000217E-01
  1.7995432E-01   9.9999998E-03  -2.2000200E-01
  1.7995286E-01   9.9999998E-03  -2.0000179E-01
  1.9996630E-01   9.9999998E-03  -3.0000371E-01
  1.9995867E-01   9.9999998E-03  -2.8000313E-01
  1.9995278E-01   9.9999998E-03  -2.6000285E-01
  1.9994847E-01   9.9999998E-03  -2.4000272E-01
  1.9994572E-01   9.9999998E-03  -2.2000261E-01
  1.9994424E-01   9.9999998E-03  -2.0000240E-01
  2.1995784E-01   9.9999998E-03  -3.0000561E-01
  2.1994941E-01   9.9999998E-03  -2.8000429E-01
  2.1994321E-01   9.9999998E-03  -2.6000383E-01
  2.1993864E-01   9.9999998E-03  -2.4000368E-01
  2.1993580E-01   9.9999998E-03  -2.2000359E-01
  2.1993437E-01   9.9999998E-03  -2.0000336E-01
  2.3994730E-01   9.9999998E-03  -3.0001307E-01
  2.3993830E-01   9.9999998E-03  -2.8000891E-01
  2.3993185E-01   9.9999998E-03  -2.6000664E-01
  2.3992717E-01   9.9999998E-03  -2.4000563E-01
  2.3992442E-01   9.9999998E-03  -2.2000520E-01
  2.3992310E-01   9.9999998E-03  -2.0000479E-01
  2.5993326E-01   9.9999998E-03  -3.0002037E-01
  2.5992453E-01   9.9999998E-03  -2.8001514E-01
  2.5991818E-01   9.9999998E-03  -2.6001111E-01
  2.5991377E-01   9.9999998E-03  -2.4000885E-01
  2.5991130E-01   9.9999998E-03  -2.2000772E-01
  2.5991023E-01   9.9999998E-03  -2.0000683E-01
  2.7991617E-01   9.9999998E-03  -3.0002588E-01
  2.7990809E-01   9.9999998E-03  -2.8002077E-01
  2.7990225E-01   9.9999998E-03  -2.6001608E-01
  2.7989835E-01   9.9999998E-03  -2.4001294E-01
  2.7989626E-01   9.9999998E-03  -2.2001095E-01
  2.7989548E-01   9.9999998E-03  -2.0000939E-01
  2.9989704E-01   9.9999998E-03  -3.0003071E-01
  2.9988962E-01   9.9999998E-03  -2.8002578E-01
  2.9988432E-01   9.9999998E-03  -2.6002097E-01
  2.9988089E-01   9.9999998E-03  -2.4001729E-01
  2.9987916E-01   9.9999998E-03  -2.2001459E-01
  2.9987872E-01   9.9999998E-03  -2.0001239E-01
  3.1987667E-01   9.9999998E-03  -3.0003551E-01
  3.1986955E-01   9.9999998E-03  -2.8003052E-01
  3.1986448E-01   9.9999998E-03  -2.6002565E-01
  3.1986129E-01   9.9999998E-03  -2.4002165E-01
  3.1985980E-01   9.9999998E-03  -2.2001839E-01
  3.1985968E-01   9.9999998E-03  -2.0001565E-01
  3.3985510E-01   9.9999998E-03  -3.0004063E-01
  3.3984774E-01   9.9999998E-03  -2.8003535E-01
  3.3984247E-01   9.9999998E-03  -2.6003027E-01
  3.3983931E-01   9.9999998E-03  -2.4002600E-01
  3.3983797E-01   9.9999998E-03  -2.2002229E-01
  3.3983812E-01   9.9999998E-03  -2.0001908E-01
  3.5983172E-01   9.9999998E-03  -3.0004624E-01
  3.5982358E-01   9.9999998E-03  -2.8004053E-01
  3.5981789E-01   9.9999998E-03  -2.6003504E-01
  3.5981458E-01   9.9999998E-03  -2.4003045E-01
  3.5981336E-01   9.9999998E-03  -2.2002633E-01
  3.5981378E-01   9.9999998E-03  -2.0002261E-01
  3.7980562E-01   9.9999998E-03  -3.0005243E-01
  3.7979650E-01   9.9999998E-03  -2.8004614E-01
  3.7979022E-01   9.9999998E-03  -2.6004013E-01
  3.7978673E-01   9.9999998E-03  -2.4003513E-01
  3.7978563E-01   9.9999998E-03  -2.2003055E-01
  3.7978637E-01   9.9999998E-03  -2.0002630E-01
  3.9977622E-01   9.9999998E-03  -3.0005935E-01
  3.9976600E-01   9.9999998E-03  -2.8005233E-01
  3.9975911E-01   9.9999998E-03  -2.6004571E-01
  3.9975542E-01   9.9999998E-03  -2.4004015E-01
  3.9975443E-01   9.9999998E-03  -2.2003502E-01
  3.9975551E-01   9.9999998E-03  -2.0003018E-01
  4.1974309E-01   9.9999998E-03  -3.0006716E-01
  4.1973168E-01   9.9999998E-03  -2.8005925E-01
  4.1972417E-01   9.9999998E-03  -2.6005182E-01
  4.1972026E-01   9.9999998E-03  -2.4004559E-01
  4.1971943E-01   9.9999998E-03  -2.2003978E-01
  4.1972089E-01   9.9999998E-03  -2.0003429E-01
  4.3970567E-01   9.9999998E-03  -3.0007598E-01
  4.3969300E-01   9.9999998E-03  -2.8006706E-01
  4.3968484E-01   9.9999998E-03  -2.6005861E-01
  4.3968076E-01   9.9999998E-03  -2.4005149E-01
  4.3968013E-01   9.9999998E-03  -2.2004494E-01
  4.3968213E-01   9.9999998E-03  -2.0003876E-01
  4.5966327E-01   9.9999998E-03  -3.0008614E-01
  4.5964932E-01   9.9999998E-03  -2.8007591E-01
  4.5964053E-01   9.9999998E-03  -2.6006615E-01
  4.5963633E-01   9.9999998E-03  -2.4005792E-01
  4.5963606E-01   9.9999998E-03  -2.2005059E-01
  4.5963868E-01   9.9999998E-03  -2.0004375E-01
  4.7961491E-01   9.9999998E-03  -3.0009797E-01
  4.7959977E-01   9.9999998E-03  -2.8008607E-01
  4.7959051E-01   9.9999998E-03  -2.6007444E-01
  4.7958639E-01   9.9999998E-03  -2.4006496E-01
  4.7958663E-01   9.9999998E-03  -2.2005694E-01
  4.7959009E-01   9.9999998E-03  -2.0004964E-01
  4.9955916E-01   9.9999998E-03  -3.0011192E-01
  4.9954334E-01   9.9999998E-03  -2.8009781E-01
  4.9953398E-01   9.9999998E-03  -2.6008371E-01
  4.9953032E-01   9.9999998E-03  -2.4007297E-01
  4.9953139E-01   9.9999998E-03  -2.2006455E-01
  4.9953592E-01   9.9999998E-03  -2.0005707E-01
  5.1949424E-01   9.9999998E-03  -3.0012861E-01
  5.1947886E-01   9.9999998E-03  -2.8011158E-01
  5.1947033E-01   9.9999998E-03  -2.6009437E-01
  5.1946771E-01   9.9999998E-03  -2.4008273E-01
  5.1947004E-01   9.9999998E-03  -2.2007440E-01
  5.1947588E-01   9.9999998E-03  -2.0006707E-01
  5.3941840E-01   9.9999998E-03  -3.0014887E-01
  5.3940582E-01   9.9999998E-03  -2.8012821E-01
  5.3939956E-01   9.9999998E-03  -2.6010764E-01
  5.3939885E-01   9.9999998E-03  -2.4009563E-01
  5.3940290E-01   9.9999998E-03  -2.2008801E-01
  5.3941035E-01   9.9999998E-03  -2.0008102E-01
  5.5933172E-01   9.9999998E-03  -3.0017403E-01
  5.5932510E-01   9.9999998E-03  -2.8014931E-01
  5.5932295E-01   9.9999998E-03  -2.6012534E-01
  5.5932528E-01   9.9999998E-03  -2.4011368E-01
  5.5933154E-01   9.9999998E-03  -2.2010717E-01
  5.5934066E-01   9.9999998E-03  -2.0010027E-01
  5.7923764E-01   9.9999998E-03  -3.0020621E-01
  5.7924038E-01   9.9999998E-03  -2.8017762E-01
  5.7924420E-01   9.9999998E-03  -2.6015061E-01
  5.7925034E-01   9.9999998E-03  -2.4013907E-01
  5.7925916E-01   9.9999998E-03  -2.2013320E-01
  5.7926989E-01   9.9999998E-03  -2.0012577E-01
  5.9914422E-01   9.9999998E-03  -3.0024883E-01
  5.9915799E-01   9.9999998E-03  -2.8021762E-01
  5.9916866E-01   9.9999998E-03  -2.6018786E-01
  5.9917849E-01   9.9999998E-03  -2.4017353E-01
  5.9918940E-01   9.9999998E-03  -2.2016592E-01
  5.9920150E-01   9.9999998E-03  -2.0015652E-01
  6.1906195E-01   9.9999998E-03  -3.0030704E-01
  6.1908489E-01   9.9999998E-03  -2.8027594E-01
  6.1909926E-01   9.9999998E-03  -2.6024047E-01
  6.1911207E-01   9.9999998E-03  -2.4021834E-01
  6.1912549E-01   9.9999998E-03  -2.2020529E-01
  6.1913902E-01   9.9999998E-03  -2.0019154E-01
  6.3900131E-01   9.9999998E-03  -3.0038425E-01
  6.3902658E-01   9.9999998E-03  -2.8035635E-01
  6.3904250E-01   9.9999998E-03  -2.6031896E-01
  6.3905579E-01   9.9999998E-03  -2.4028119E-01
  6.3907015E-01   9.9999998E-03  -2.2025259E-01
  6.3908589E-01   9.9999998E-03  -2.0023149E-01
  6.5896952E-01   9.9999998E-03  -3.0047408E-01
  6.5899283E-01   9.9999998E-03  -2.8045186E-01
  6.5900940E-01   9.9999998E-03  -2.6042259E-01
  6.5902221E-01   9.9999998E-03  -2.4037459E-01
  6.5903413E-01   9.9999998E-03  -2.2032166E-01
  6.5904921E-01   9.9999998E-03  -2.0028339E-01
  6.7898405E-01   9.9999998E-03  -3.0055633E-01
  6.7899173E-01   9.9999998E-03  -2.8054067E-01
  6.7900610E-01   9.9999998E-03  -2.6052436E-01
  6.7901814E-01   9.9999998E-03  -2.4048457E-01
  6.7902535E-01   9.9999998E-03  -2.2041444E-01
  6.7903721E-01   9.9999998E-03  -2.0035663E-01
  6.9913310E-01   9.9999998E-03  -3.0062199E-01
  6.9906294E-01   9.9999998E-03  -2.8061011E-01
  6.9905281E-01   9.9999998E-03  -2.6060766E-01
  6.9906300E-01   9.9999998E-03  -2.4058825E-01
  6.9906437E-01   9.9999998E-03  -2.2052513E-01
  6.9907027E-01   9.9999998E-03  -2.0045732E-01
  7.1940958E-01   9.9999998E-03  -3.0067042E-01
  7.1932745E-01   9.9999998E-03  -2.8065851E-01
  7.1925980E-01   9.9999998E-03  -2.6066265E-01
  7.1921831E-01   9.9999998E-03  -2.4066080E-01
  7.1920186E-01   9.9999998E-03  -2.2062223E-01
  7.1920300E-01   9.9999998E-03  -2.0056818E-01
  7.3964399E-01   9.9999998E-03  -3.0070481E-01
  7.3959059E-01   9.9999998E-03  -2.8069130E-01
  7.3954487E-01   9.9999998E-03  -2.6068091E-01
  7.3951072E-01   9.9999998E-03  -2.4067366E-01
  7.3949122E-01   9.9999998E-03  -2.2063878E-01
  7.3948610E-01   9.9999998E-03  -2.0058934E-01
  7.5980955E-01   9.9999998E-03  -3.0072954E-01
  7.5977981E-01   9.9999998E-03  -2.8071544E-01
  7.5975478E-01   9.9999998E-03  -2.6068825E-01
  7.5973392E-01   9.9999998E-03  -2.4067220E-01
  7.5972015E-01   9.9999998E-03  -2.2063628E-01
  7.5971389E-01   9.9999998E-03  -2.0058803E-01
  7.7992171E-01   9.9999998E-03  -3.0074614E-01
  7.7991056E-01   9.9999998E-03  -2.8073126E-01
  7.7990174E-01   9.9999998E-03  -2.6069471E-01
  7.7989280E-01   9.9999998E-03  -2.4066976E-01
  7.7988535E-01   9.9999998E-03  -2.2063039E-01
  7.7988034E-01   9.9999998E-03  -2.0058176E-01
  8.0001116E-01   9.9999998E-03  -3.0075470E-01
  8.0001521E-01   9.9999998E-03  -2.8073928E-01
  8.0001885E-01   9.9999998E-03  -2.6070023E-01
  8.0002010E-01   9.9999998E-03  -2.4067035E-01
  8.0001855E-01   9.9999998E-03  -2.2062719E-01
  8.0001557E-01   9.9999998E-03  -2.0057522E-01
  8.2010484E-01   9.9999998E-03  -3.0075541E-01
  8.2012272E-01   9.9999998E-03  -2.8073984E-01
  8.2013607E-01   9.9999998E-03  -2.6070318E-01
  8.2014567E-01   9.9999998E-03  -2.4067342E-01
  8.2014906E-01   9.9999998E-03  -2.2062655E-01
  8.2014722E-01   9.9999998E-03  -2.0056911E-01
  8.4021354E-01   9.9999998E-03  -3.0074671E-01
  8.4024453E-01   9.9999998E-03  -2.8073090E-01
  8.4026659E-01   9.9999998E-03  -2.6069731E-01
  8.4028298E-01   9.9999998E-03  -2.4067017E-01
  8.4029007E-01   9.9999998E-03  -2.2062190E-01
  8.4028769E-01   9.9999998E-03  -2.0056133E-01
  8.6033261E-01   9.9999998E-03  -3.0072978E-01
  8.6037666E-01   9.9999998E-03  -2.8071353E-01
  8.6040670E-01   9.9999998E-03  -2.6068220E-01
  8.6042893E-01   9.9999998E-03  -2.4065788E-01
  8.6043853E-01   9.9999998E-03  -2.2061040E-01
  8.6043388E-01   9.9999998E-03  -2.0054950E-01
  8.8045096E-01   9.9999998E-03  -3.0070603E-01
  8.8050687E-01   9.9999998E-03  -2.8068915E-01
  8.8054401E-01   9.9999998E-03  -2.6065907E-01
  8.8057166E-01   9.9999998E-03  -2.4063648E-01
  8.8058305E-01   9.9999998E-03  -2.2059104E-01
  8.8057548E-01   9.9999998E-03  -2.0053186E-01
  9.0055817E-01   9.9999998E-03  -3.0067667E-01
  9.0062290E-01   9.9999998E-03  -2.8065893E-01
  9.0066582E-01   9.9999998E-03  -2.6062936E-01
  9.0069735E-01   9.9999998E-03  -2.4060613E-01
  9.0071076E-01   9.9999998E-03  -2.2056243E-01
  9.0070158E-01   9.9999998E-03  -2.0050772E-01
  9.2064679E-01   9.9999998E-03  -3.0064300E-01
  9.2071575E-01   9.9999998E-03  -2.8062436E-01
  9.2076319E-01   9.9999998E-03  -2.6059404E-01
  9.2079628E-01   9.9999998E-03  -2.4056813E-01
  9.2081201E-01   9.9999998E-03  -2.2052537E-01
  9.2079937E-01   9.9999998E-03  -2.0047770E-01
  9.4071287E-01   9.9999998E-03  -3.0060613E-01
  9.4078332E-01   9.9999998E-03  -2.8058633E-01
  9.4083375E-01   9.9999998E-03  -2.6055479E-01
  9.4086611E-01   9.9999998E-03  -2.4052522E-01
  9.4086593E-01   9.9999998E-03  -2.2048773E-01
  9.4083542E-01   9.9999998E-03  -2.0044544E-01
  9.6076268E-01   9.9999998E-03  -3.0056646E-01
  9.6083230E-01   9.9999998E-03  -2.8054586E-01
  9.6088254E-01   9.9999998E-03  -2.6051310E-01
  9.6090037E-01   9.9999998E-03  -2.4048559E-01
  9.6087760E-01   9.9999998E-03  -2.2045393E-01
  9.6084076E-01   9.9999998E-03  -2.0041253E-01
  9.8080701E-01   9.9999998E-03  -3.0052426E-01
  9.8087245E-01   9.9999998E-03  -2.8050345E-01
  9.8091394E-01   9.9999998E-03  -2.6047122E-01
  9.8090875E-01   9.9999998E-03  -2.4044932E-01
  9.8087656E-01   9.9999998E-03  -2.2041918E-01
  9.8083669E-01   9.9999998E-03  -2.0038007E-01
  1.0008546E+00   9.9999998E-03  -3.0048054E-01
  1.0009084E+00   9.9999998E-03  -2.8045964E-01
  1.0009298E+00   9.9999998E-03  -2.6042986E-01
  1.0009086E+00   9.9999998E-03  -2.4041210E-01
  1.0008701E+00   9.9999998E-03  -2.2038336E-01
  1.0008283E+00   9.9999998E-03  -2.0034975E-01
  1.0209123E+00   9.9999998E-03  -3.0043647E-01
  1.0209441E+00   9.9999998E-03  -2.8041592E-01
  1.0209383E+00   9.9999998E-03  -2.6038936E-01
  1.0209059E+00   9.9999998E-03  -2.4037468E-01
  1.0208620E+00   9.9999998E-03  -2.2034980E-01
  1.0208182E+00   9.9999998E-03  -2.0032194E-01
  1.0409889E+00   9.9999998E-03  -3.0039299E-01
  1.0409832E+00   9.9999998E-03  -2.8037429E-01
  1.0409460E+00   9.9999998E-03  -2.6035240E-01
  1.0409027E+00   9.9999998E-03  -2.4033928E-01
  1.0408540E+00   9.9999998E-03  -2.2031820E-01
  1.0408067E+00   9.9999998E-03  -2.0029370E-01
  1.0610628E+00   9.9999998E-03  -3.0035540E-01
  1.0610151E+00   9.9999998E-03  -2.8033903E-01
  1.0609571E+00   9.9999998E-03  -2.6032016E-01
  1.0609007E+00   9.9999998E-03  -2.4030735E-01
  1.0608470E+00   9.9999998E-03  -2.2028807E-01
  1.0607951E+00   9.9999998E-03  -2.0026612E-01
  1.0810958E+00   9.9999998E-03  -3.0032235E-01
  1.0810349E+00   9.9999998E-03  -2.8030813E-01
  1.0809652E+00   9.9999998E-03  -2.6028976E-01
  1.0808996E+00   9.9999998E-03  -2.4027669E-01
  1.0808412E+00   9.9999998E-03  -2.2026002E-01
  1.0807844E+00   9.9999998E-03  -2.0023897E-01
  1.1010406E+00   9.9999998E-03  -2.8027973E-01
  1.1009672E+00   9.9999998E-03  -2.6025975E-01
  1.1008991E+00   9.9999998E-03  -2.4024630E-01
  1.1008365E+00   9.9999998E-03  -2.2023205E-01
  1.1007758E+00   9.9999998E-03  -2.0021315E-01
  1.1210326E+00   9.9999998E-03  -2.8025535E-01
  1.1209664E+00   9.9999998E-03  -2.6023543E-01
  1.1208985E+00   9.9999998E-03  -2.4021840E-01
  1.1208339E+00   9.9999998E-03  -2.2020540E-01
  1.1207695E+00   9.9999998E-03  -2.0018828E-01
  1.1409627E+00   9.9999998E-03  -2.6021892E-01
  1.1408976E+00   9.9999998E-03  -2.4019842E-01
  1.1408342E+00   9.9999998E-03  -2.2018419E-01
  1.1407669E+00   9.9999998E-03  -2.0016734E-01
  1.1609508E+00   9.9999998E-03  -2.6020634E-01
  1.1608986E+00   9.9999998E-03  -2.4018875E-01
  1.1608369E+00   9.9999998E-03  -2.2017008E-01
  1.1607703E+00   9.9999998E-03  -2.0015326E-01
  1.1808923E+00   9.9999998E-03  -2.4018353E-01
  1.1808401E+00   9.9999998E-03  -2.2016485E-01
  1.1807787E+00   9.9999998E-03  -2.0014735E-01
  1.2008362E+00   9.9999998E-03  -2.2016348E-01
  1.2007880E+00   9.9999998E-03  -2.0014799E-01
  1.2208092E+00   9.9999998E-03  -2.2015373E-01
  1.2207845E+00   9.9999998E-03  -2.0014894E-01
 -5.6893728E-06   9.9999998E-03  -1.8000065E-01
 -5.8478154E-06   9.9999998E-03  -1.6000050E-01
 -5.9394270E-06   9.9999998E-03  -1.4000039E-01
 -5.9841141E-06   9.9999998E-03  -1.2000028E-01
 -5.9981298E-06   9.9999998E-03  -1.0000020E-01
 -5.9937920E-06   9.9999998E-03  -8.0000140E-02
 -5.9814629E-06   9.9999998E-03  -6.0000088E-02
 -5.9678687E-06   9.9999998E-03  -4.0000055E-02
 -5.9579443E-06   9.9999998E-03  -2.0000024E-02
  1.9991888E-02   9.9999998E-03  -1.8000087E-01
  1.9991683E-02   9.9999998E-03  -1.6000068E-01
  1.9991575E-02   9.9999998E-03  -1.4000052E-01
  1.9991526E-02   9.9999998E-03  -1.2000038E-01
  1.9991521E-02   9.9999998E-03  -1.0000028E-01
  1.9991538E-02   9.9999998E-03  -8.0000192E-02
  1.9991564E-02   9.9999998E-03  -6.0000129E-02
  1.9991588E-02   9.9999998E-03  -4.0000077E-02
  1.9991605E-02   9.9999998E-03  -2.0000035E-02
  3.9988779E-02   9.9999998E-03  -1.8000101E-01
  3.9988525E-02   9.9999998E-03  -1.6000080E-01
  3.9988399E-02   9.9999998E-03  -1.4000061E-01
  3.9988350E-02   9.9999998E-03  -1.2000046E-01
  3.9988358E-02   9.9999998E-03  -1.0000034E-01
  3.9988395E-02   9.9999998E-03  -8.0000229E-02
  3.9988436E-02   9.9999998E-03  -6.0000155E-02
  3.9988477E-02   9.9999998E-03  -4.0000092E-02
  3.9988503E-02   9.9999998E-03  -2.0000044E-02
  5.9985202E-02   9.9999998E-03  -1.8000108E-01
  5.9984904E-02   9.9999998E-03  -1.6000086E-01
  5.9984762E-02   9.9999998E-03  -1.4000066E-01
  5.9984729E-02   9.9999998E-03  -1.2000050E-01
  5.9984755E-02   9.9999998E-03  -1.0000036E-01
  5.9984811E-02   9.9999998E-03  -8.0000252E-02
  5.9984878E-02   9.9999998E-03  -6.0000166E-02
  5.9984937E-02   9.9999998E-03  -4.0000100E-02
  5.9984978E-02   9.9999998E-03  -2.0000048E-02
  7.9981230E-02   9.9999998E-03  -1.8000109E-01
  7.9980902E-02   9.9999998E-03  -1.6000088E-01
  7.9980761E-02   9.9999998E-03  -1.4000067E-01
  7.9980746E-02   9.9999998E-03  -1.2000050E-01
  7.9980798E-02   9.9999998E-03  -1.0000037E-01
  7.9980887E-02   9.9999998E-03  -8.0000259E-02
  7.9980984E-02   9.9999998E-03  -6.0000170E-02
  7.9981066E-02   9.9999998E-03  -4.0000103E-02
  7.9981118E-02   9.9999998E-03  -2.0000048E-02
  9.9976815E-02   9.9999998E-03  -1.8000109E-01
  9.9976480E-02   9.9999998E-03  -1.6000086E-01
  9.9976353E-02   9.9999998E-03  -1.4000067E-01
  9.9976368E-02   9.9999998E-03  -1.2000050E-01
  9.9976465E-02   9.9999998E-03  -1.0000036E-01
  9.9976592E-02   9.9999998E-03  -8.0000252E-02
  9.9976726E-02   9.9999998E-03  -6.0000170E-02
  9.9976830E-02   9.9999998E-03  -4.0000103E-02
  9.9976905E-02   9.9999998E-03  -2.0000048E-02
  1.1997185E-01   9.9999998E-03  -1.8000108E-01
  1.1997151E-01   9.9999998E-03  -1.6000086E-01
  1.1997143E-01   9.9999998E-03  -1.4000067E-01
  1.1997149E-01   9.9999998E-03  -1.2000050E-01
  1.1997164E-01   9.9999998E-03  -1.0000037E-01
  1.1997183E-01   9.9999998E-03  -8.0000259E-02
  1.1997200E-01   9.9999998E-03  -6.0000174E-02
  1.1997214E-01   9.9999998E-03  -4.0000107E-02
  1.1997223E-01   9.9999998E-03  -2.0000050E-02
  1.3996617E-01   9.9999998E-03  -1.8000112E-01
  1.3996588E-01   9.9999998E-03  -1.6000091E-01
  1.3996585E-01   9.9999998E-03  -1.4000072E-01
  1.3996598E-01   9.9999998E-03  -1.2000055E-01
  1.3996619E-01   9.9999998E-03  -1.0000041E-01
  1.3996644E-01   9.9999998E-03  -8.0000289E-02
  1.3996667E-01   9.9999998E-03  -6.0000200E-02
  1.3996685E-01   9.9999998E-03  -4.0000122E-02
  1.3996696E-01   9.9999998E-03  -2.0000059E-02
  1.5995966E-01   9.9999998E-03  -1.8000126E-01
  1.5995941E-01   9.9999998E-03  -1.6000105E-01
  1.5995947E-01   9.9999998E-03  -1.4000085E-01
  1.5995967E-01   9.9999998E-03  -1.2000067E-01
  1.5995999E-01   9.9999998E-03  -1.0000051E-01
  1.5996030E-01   9.9999998E-03  -8.0000371E-02
  1.5996060E-01   9.9999998E-03  -6.0000259E-02
  1.5996082E-01   9.9999998E-03  -4.0000163E-02
  1.5996097E-01   9.9999998E-03  -2.0000080E-02
  1.7995219E-01   9.9999998E-03  -1.8000157E-01
  1.7995203E-01   9.9999998E-03  -1.6000135E-01
  1.7995217E-01   9.9999998E-03  -1.4000112E-01
  1.7995250E-01   9.9999998E-03  -1.2000090E-01
  1.7995290E-01   9.9999998E-03  -1.0000070E-01
  1.7995332E-01   9.9999998E-03  -8.0000527E-02
  1.7995368E-01   9.9999998E-03  -6.0000371E-02
  1.7995396E-01   9.9999998E-03  -4.0000238E-02
  1.7995414E-01   9.9999998E-03  -2.0000115E-02
  1.9994365E-01   9.9999998E-03  -1.8000215E-01
  1.9994359E-01   9.9999998E-03  -1.6000187E-01
  1.9994387E-01   9.9999998E-03  -1.4000158E-01
  1.9994432E-01   9.9999998E-03  -1.2000129E-01
  1.9994485E-01   9.9999998E-03  -1.0000101E-01
  1.9994538E-01   9.9999998E-03  -8.0000773E-02
  1.9994582E-01   9.9999998E-03  -6.0000550E-02
  1.9994618E-01   9.9999998E-03  -4.0000357E-02
  1.9994639E-01   9.9999998E-03  -2.0000175E-02
  2.1993390E-01   9.9999998E-03  -1.8000305E-01
  2.1993397E-01   9.9999998E-03  -1.6000265E-01
  2.1993440E-01   9.9999998E-03  -1.4000225E-01
  2.1993500E-01   9.9999998E-03  -1.2000185E-01
  2.1993567E-01   9.9999998E-03  -1.0000147E-01
  2.1993631E-01   9.9999998E-03  -8.0001123E-02
  2.1993688E-01   9.9999998E-03  -6.0000811E-02
  2.1993729E-01   9.9999998E-03  -4.0000524E-02
  2.1993756E-01   9.9999998E-03  -2.0000257E-02
  2.3992278E-01   9.9999998E-03  -1.8000428E-01
  2.3992303E-01   9.9999998E-03  -1.6000375E-01
  2.3992363E-01   9.9999998E-03  -1.4000317E-01
  2.3992440E-01   9.9999998E-03  -1.2000261E-01
  2.3992522E-01   9.9999998E-03  -1.0000209E-01
  2.3992601E-01   9.9999998E-03  -8.0001600E-02
  2.3992668E-01   9.9999998E-03  -6.0001157E-02
  2.3992719E-01   9.9999998E-03  -4.0000752E-02
  2.3992752E-01   9.9999998E-03  -2.0000368E-02
  2.5991008E-01   9.9999998E-03  -1.8000597E-01
  2.5991055E-01   9.9999998E-03  -1.6000515E-01
  2.5991133E-01   9.9999998E-03  -1.4000435E-01
  2.5991231E-01   9.9999998E-03  -1.2000358E-01
  2.5991333E-01   9.9999998E-03  -1.0000286E-01
  2.5991428E-01   9.9999998E-03  -8.0002196E-02
  2.5991508E-01   9.9999998E-03  -6.0001589E-02
  2.5991568E-01   9.9999998E-03  -4.0001031E-02
  2.5991607E-01   9.9999998E-03  -2.0000508E-02
  2.7989563E-01   9.9999998E-03  -1.8000807E-01
  2.7989632E-01   9.9999998E-03  -1.6000688E-01
  2.7989736E-01   9.9999998E-03  -1.4000578E-01
  2.7989858E-01   9.9999998E-03  -1.2000474E-01
  2.7989981E-01   9.9999998E-03  -1.0000379E-01
  2.7990094E-01   9.9999998E-03  -8.0002911E-02
  2.7990189E-01   9.9999998E-03  -6.0002111E-02
  2.7990261E-01   9.9999998E-03  -4.0001370E-02
  2.7990305E-01   9.9999998E-03  -2.0000676E-02
  2.9987916E-01   9.9999998E-03  -1.8001054E-01
  2.9988015E-01   9.9999998E-03  -1.6000891E-01
  2.9988149E-01   9.9999998E-03  -1.4000744E-01
  2.9988295E-01   9.9999998E-03  -1.2000608E-01
  2.9988444E-01   9.9999998E-03  -1.0000485E-01
  2.9988578E-01   9.9999998E-03  -8.0003724E-02
  2.9988688E-01   9.9999998E-03  -6.0002703E-02
  2.9988775E-01   9.9999998E-03  -4.0001757E-02
  2.9988825E-01   9.9999998E-03  -2.0000866E-02
  3.1986046E-01   9.9999998E-03  -1.8001327E-01
  3.1986180E-01   9.9999998E-03  -1.6001116E-01
  3.1986347E-01   9.9999998E-03  -1.4000928E-01
  3.1986526E-01   9.9999998E-03  -1.2000757E-01
  3.1986701E-01   9.9999998E-03  -1.0000603E-01
  3.1986856E-01   9.9999998E-03  -8.0004632E-02
  3.1986988E-01   9.9999998E-03  -6.0003363E-02
  3.1987086E-01   9.9999998E-03  -4.0002186E-02
  3.1987146E-01   9.9999998E-03  -2.0001078E-02
  3.3983925E-01   9.9999998E-03  -1.8001617E-01
  3.3984101E-01   9.9999998E-03  -1.6001357E-01
  3.3984306E-01   9.9999998E-03  -1.4001127E-01
  3.3984521E-01   9.9999998E-03  -1.2000918E-01
  3.3984727E-01   9.9999998E-03  -1.0000730E-01
  3.3984908E-01   9.9999998E-03  -8.0005601E-02
  3.3985060E-01   9.9999998E-03  -6.0004063E-02
  3.3985174E-01   9.9999998E-03  -4.0002644E-02
  3.3985242E-01   9.9999998E-03  -2.0001302E-02
  3.5981533E-01   9.9999998E-03  -1.8001920E-01
  3.5981750E-01   9.9999998E-03  -1.6001612E-01
  3.5981998E-01   9.9999998E-03  -1.4001335E-01
  3.5982251E-01   9.9999998E-03  -1.2001087E-01
  3.5982493E-01   9.9999998E-03  -1.0000863E-01
  3.5982707E-01   9.9999998E-03  -8.0006622E-02
  3.5982880E-01   9.9999998E-03  -6.0004801E-02
  3.5983011E-01   9.9999998E-03  -4.0003121E-02
  3.5983089E-01   9.9999998E-03  -2.0001536E-02
  3.7978831E-01   9.9999998E-03  -1.8002236E-01
  3.7979096E-01   9.9999998E-03  -1.6001877E-01
  3.7979394E-01   9.9999998E-03  -1.4001553E-01
  3.7979692E-01   9.9999998E-03  -1.2001262E-01
  3.7979972E-01   9.9999998E-03  -1.0001001E-01
  3.7980217E-01   9.9999998E-03  -8.0007672E-02
  3.7980419E-01   9.9999998E-03  -6.0005561E-02
  3.7980565E-01   9.9999998E-03  -4.0003613E-02
  3.7980658E-01   9.9999998E-03  -2.0001778E-02
  3.9975795E-01   9.9999998E-03  -1.8002565E-01
  3.9976117E-01   9.9999998E-03  -1.6002153E-01
  3.9976466E-01   9.9999998E-03  -1.4001781E-01
  3.9976814E-01   9.9999998E-03  -1.2001445E-01
  3.9977139E-01   9.9999998E-03  -1.0001145E-01
  3.9977419E-01   9.9999998E-03  -8.0008768E-02
  3.9977649E-01   9.9999998E-03  -6.0006350E-02
  3.9977819E-01   9.9999998E-03  -4.0004127E-02
  3.9977920E-01   9.9999998E-03  -2.0002032E-02
  4.1972390E-01   9.9999998E-03  -1.8002917E-01
  4.1972771E-01   9.9999998E-03  -1.6002448E-01
  4.1973186E-01   9.9999998E-03  -1.4002024E-01
  4.1973591E-01   9.9999998E-03  -1.2001642E-01
  4.1973963E-01   9.9999998E-03  -1.0001301E-01
  4.1974285E-01   9.9999998E-03  -8.0009967E-02
  4.1974548E-01   9.9999998E-03  -6.0007226E-02
  4.1974738E-01   9.9999998E-03  -4.0004700E-02
  4.1974854E-01   9.9999998E-03  -2.0002315E-02
  4.3968579E-01   9.9999998E-03  -1.8003301E-01
  4.3969035E-01   9.9999998E-03  -1.6002774E-01
  4.3969518E-01   9.9999998E-03  -1.4002298E-01
  4.3969989E-01   9.9999998E-03  -1.2001868E-01
  4.3970418E-01   9.9999998E-03  -1.0001484E-01
  4.3970788E-01   9.9999998E-03  -8.0011398E-02
  4.3971083E-01   9.9999998E-03  -6.0008280E-02
  4.3971300E-01   9.9999998E-03  -4.0005393E-02
  4.3971434E-01   9.9999998E-03  -2.0002661E-02
  4.5964316E-01   9.9999998E-03  -1.8003744E-01
  4.5964858E-01   9.9999998E-03  -1.6003162E-01
  4.5965427E-01   9.9999998E-03  -1.4002632E-01
  4.5965973E-01   9.9999998E-03  -1.2002151E-01
  4.5966464E-01   9.9999998E-03  -1.0001717E-01
  4.5966887E-01   9.9999998E-03  -8.0013253E-02
  4.5967224E-01   9.9999998E-03  -6.0009666E-02
  4.5967472E-01   9.9999998E-03  -4.0006321E-02
  4.5967624E-01   9.9999998E-03  -2.0003125E-02
  4.7959557E-01   9.9999998E-03  -1.8004289E-01
  4.7960201E-01   9.9999998E-03  -1.6003658E-01
  4.7960865E-01   9.9999998E-03  -1.4003073E-01
  4.7961497E-01   9.9999998E-03  -1.2002531E-01
  4.7962064E-01   9.9999998E-03  -1.0002036E-01
  4.7962546E-01   9.9999998E-03  -8.0015816E-02
  4.7962928E-01   9.9999998E-03  -6.0011607E-02
  4.7963208E-01   9.9999998E-03  -4.0007621E-02
  4.7963381E-01   9.9999998E-03  -2.0003779E-02
  4.9954256E-01   9.9999998E-03  -1.8005008E-01
  4.9955016E-01   9.9999998E-03  -1.6004333E-01
  4.9955788E-01   9.9999998E-03  -1.4003685E-01
  4.9956518E-01   9.9999998E-03  -1.2003067E-01
  4.9957165E-01   9.9999998E-03  -1.0002487E-01
  4.9957713E-01   9.9999998E-03  -8.0019452E-02
  4.9958149E-01   9.9999998E-03  -6.0014356E-02
  4.9958465E-01   9.9999998E-03  -4.0009473E-02
  4.9958658E-01   9.9999998E-03  -2.0004708E-02
  5.1948386E-01   9.9999998E-03  -1.8005995E-01
  5.1949275E-01   9.9999998E-03  -1.6005275E-01
  5.1950163E-01   9.9999998E-03  -1.4004545E-01
  5.1950991E-01   9.9999998E-03  -1.2003823E-01
  5.1951730E-01   9.9999998E-03  -1.0003124E-01
  5.1952350E-01   9.9999998E-03  -8.0024585E-02
  5.1952839E-01   9.9999998E-03  -6.0018223E-02
  5.1953202E-01   9.9999998E-03  -4.0012065E-02
  5.1953417E-01   9.9999998E-03  -2.0006012E-02
  5.3941971E-01   9.9999998E-03  -1.8007365E-01
  5.3942984E-01   9.9999998E-03  -1.6006570E-01
  5.3943992E-01   9.9999998E-03  -1.4005728E-01
  5.3944927E-01   9.9999998E-03  -1.2004860E-01
  5.3945756E-01   9.9999998E-03  -1.0003997E-01
  5.3946453E-01   9.9999998E-03  -8.0031596E-02
  5.3947008E-01   9.9999998E-03  -6.0023498E-02
  5.3947413E-01   9.9999998E-03  -4.0015586E-02
  5.3947657E-01   9.9999998E-03  -2.0007774E-02
  5.5935144E-01   9.9999998E-03  -1.8009226E-01
  5.5936271E-01   9.9999998E-03  -1.6008312E-01
  5.5937386E-01   9.9999998E-03  -1.4007302E-01
  5.5938423E-01   9.9999998E-03  -1.2006235E-01
  5.5939341E-01   9.9999998E-03  -1.0005154E-01
  5.5940115E-01   9.9999998E-03  -8.0040909E-02
  5.5940735E-01   9.9999998E-03  -6.0030494E-02
  5.5941182E-01   9.9999998E-03  -4.0020254E-02
  5.5941457E-01   9.9999998E-03  -2.0010106E-02
  5.7928175E-01   9.9999998E-03  -1.8011642E-01
  5.7929397E-01   9.9999998E-03  -1.6010520E-01
  5.7930601E-01   9.9999998E-03  -1.4009272E-01
  5.7931727E-01   9.9999998E-03  -1.2007946E-01
  5.7932729E-01   9.9999998E-03  -1.0006586E-01
  5.7933581E-01   9.9999998E-03  -8.0052353E-02
  5.7934260E-01   9.9999998E-03  -6.0039077E-02
  5.7934755E-01   9.9999998E-03  -4.0025994E-02
  5.7935065E-01   9.9999998E-03  -2.0012990E-02
  5.9921443E-01   9.9999998E-03  -1.8014491E-01
  5.9922779E-01   9.9999998E-03  -1.6013147E-01
  5.9924072E-01   9.9999998E-03  -1.4011639E-01
  5.9925276E-01   9.9999998E-03  -1.2010004E-01
  5.9926349E-01   9.9999998E-03  -1.0008308E-01
  5.9927261E-01   9.9999998E-03  -8.0066137E-02
  5.9928000E-01   9.9999998E-03  -6.0049448E-02
  5.9928542E-01   9.9999998E-03  -4.0032960E-02
  5.9928882E-01   9.9999998E-03  -2.0016501E-02
  6.1915356E-01   9.9999998E-03  -1.8017709E-01
  6.1916822E-01   9.9999998E-03  -1.6016130E-01
  6.1918199E-01   9.9999998E-03  -1.4014329E-01
  6.1919469E-01   9.9999998E-03  -1.2012349E-01
  6.1920589E-01   9.9999998E-03  -1.0010293E-01
  6.1921555E-01   9.9999998E-03  -8.0082297E-02
  6.1922348E-01   9.9999998E-03  -6.0061723E-02
  6.1922932E-01   9.9999998E-03  -4.0041234E-02
  6.1923295E-01   9.9999998E-03  -2.0020695E-02
  6.3910246E-01   9.9999998E-03  -1.8021283E-01
  6.3911813E-01   9.9999998E-03  -1.6019365E-01
  6.3913238E-01   9.9999998E-03  -1.4017205E-01
  6.3914531E-01   9.9999998E-03  -1.2014844E-01
  6.3915706E-01   9.9999998E-03  -1.0012377E-01
  6.3916737E-01   9.9999998E-03  -8.0098994E-02
  6.3917571E-01   9.9999998E-03  -6.0074329E-02
  6.3918191E-01   9.9999998E-03  -4.0049747E-02
  6.3918579E-01   9.9999998E-03  -2.0024970E-02
  6.5906578E-01   9.9999998E-03  -1.8025556E-01
  6.5908158E-01   9.9999998E-03  -1.6023108E-01
  6.5909582E-01   9.9999998E-03  -1.4020509E-01
  6.5910870E-01   9.9999998E-03  -1.2017660E-01
  6.5912038E-01   9.9999998E-03  -1.0014711E-01
  6.5913075E-01   9.9999998E-03  -8.0117829E-02
  6.5913934E-01   9.9999998E-03  -6.0088888E-02
  6.5914571E-01   9.9999998E-03  -4.0059716E-02
  6.5914959E-01   9.9999998E-03  -2.0029996E-02
  6.7905265E-01   9.9999998E-03  -1.8031666E-01
  6.7906779E-01   9.9999998E-03  -1.6028440E-01
  6.7908114E-01   9.9999998E-03  -1.4025232E-01
  6.7909312E-01   9.9999998E-03  -1.2021800E-01
  6.7910409E-01   9.9999998E-03  -1.0018267E-01
  6.7911386E-01   9.9999998E-03  -8.0147602E-02
  6.7912191E-01   9.9999998E-03  -6.0112491E-02
  6.7912787E-01   9.9999998E-03  -4.0076520E-02
  6.7913151E-01   9.9999998E-03  -2.0038893E-02
  6.9908202E-01   9.9999998E-03  -1.8040514E-01
  6.9909441E-01   9.9999998E-03  -1.6036268E-01
  6.9910425E-01   9.9999998E-03  -1.4032003E-01
  6.9911236E-01   9.9999998E-03  -1.2027534E-01
  6.9912064E-01   9.9999998E-03  -1.0023060E-01
  6.9912869E-01   9.9999998E-03  -8.0186665E-02
  6.9913554E-01   9.9999998E-03  -6.0142476E-02
  6.9914067E-01   9.9999998E-03  -4.0096924E-02
  6.9914365E-01   9.9999998E-03  -2.0049240E-02
  7.1921158E-01   9.9999998E-03  -1.8051231E-01
  7.1922266E-01   9.9999998E-03  -1.6046308E-01
  7.1923274E-01   9.9999998E-03  -1.4040892E-01
  7.1924233E-01   9.9999998E-03  -1.2034938E-01
  7.1925229E-01   9.9999998E-03  -1.0028988E-01
  7.1926188E-01   9.9999998E-03  -8.0232501E-02
  7.1927035E-01   9.9999998E-03  -6.0176447E-02
  7.1927708E-01   9.9999998E-03  -4.0119652E-02
  7.1928138E-01   9.9999998E-03  -2.0060726E-02
  7.3948920E-01   9.9999998E-03  -1.8053648E-01
  7.3949492E-01   9.9999998E-03  -1.6048826E-01
  7.3950136E-01   9.9999998E-03  -1.4043275E-01
  7.3950797E-01   9.9999998E-03  -1.2037080E-01
  7.3951453E-01   9.9999998E-03  -1.0030904E-01
  7.3952079E-01   9.9999998E-03  -8.0249175E-02
  7.3952639E-01   9.9999998E-03  -6.0189988E-02
  7.3953092E-01   9.9999998E-03  -4.0129293E-02
  7.3953384E-01   9.9999998E-03  -2.0065755E-02
  7.5971258E-01   9.9999998E-03  -1.8053962E-01
  7.5971311E-01   9.9999998E-03  -1.6049489E-01
  7.5971466E-01   9.9999998E-03  -1.4044154E-01
  7.5971675E-01   9.9999998E-03  -1.2038067E-01
  7.5971913E-01   9.9999998E-03  -1.0031907E-01
  7.5972170E-01   9.9999998E-03  -8.0258600E-02
  7.5972426E-01   9.9999998E-03  -6.0198043E-02
  7.5972652E-01   9.9999998E-03  -4.0135220E-02
  7.5972801E-01   9.9999998E-03  -2.0068904E-02
  7.7987736E-01   9.9999998E-03  -1.8053609E-01
  7.7987540E-01   9.9999998E-03  -1.6049421E-01
  7.7987403E-01   9.9999998E-03  -1.4044291E-01
  7.7987313E-01   9.9999998E-03  -1.2038336E-01
  7.7987260E-01   9.9999998E-03  -1.0032251E-01
  7.7987242E-01   9.9999998E-03  -8.0262288E-02
  7.7987266E-01   9.9999998E-03  -6.0201492E-02
  7.7987301E-01   9.9999998E-03  -4.0137909E-02
  7.7987337E-01   9.9999998E-03  -2.0070383E-02
  8.0001217E-01   9.9999998E-03  -1.8053009E-01
  8.0000883E-01   9.9999998E-03  -1.6048960E-01
  8.0000561E-01   9.9999998E-03  -1.4043956E-01
  8.0000269E-01   9.9999998E-03  -1.2038103E-01
  8.0000013E-01   9.9999998E-03  -1.0032102E-01
  7.9999804E-01   9.9999998E-03  -8.0261514E-02
  7.9999650E-01   9.9999998E-03  -6.0201243E-02
  7.9999554E-01   9.9999998E-03  -4.0137947E-02
  7.9999501E-01   9.9999998E-03  -2.0070475E-02
  8.2014287E-01   9.9999998E-03  -1.8052310E-01
  8.2013786E-01   9.9999998E-03  -1.6048273E-01
  8.2013291E-01   9.9999998E-03  -1.4043312E-01
  8.2012820E-01   9.9999998E-03  -1.2037519E-01
  8.2012403E-01   9.9999998E-03  -1.0031599E-01
  8.2012045E-01   9.9999998E-03  -8.0257446E-02
  8.2011765E-01   9.9999998E-03  -6.0198218E-02
  8.2011563E-01   9.9999998E-03  -4.0135965E-02
  8.2011443E-01   9.9999998E-03  -2.0069495E-02
  8.4028095E-01   9.9999998E-03  -1.8051438E-01
  8.4027326E-01   9.9999998E-03  -1.6047359E-01
  8.4026587E-01   9.9999998E-03  -1.4042401E-01
  8.4025919E-01   9.9999998E-03  -1.2036659E-01
  8.4025335E-01   9.9999998E-03  -1.0030828E-01
  8.4024847E-01   9.9999998E-03  -8.0250941E-02
  8.4024459E-01   9.9999998E-03  -6.0193148E-02
  8.4024179E-01   9.9999998E-03  -4.0132485E-02
  8.4024000E-01   9.9999998E-03  -2.0067723E-02
  8.6042339E-01   9.9999998E-03  -1.8050228E-01
  8.6041200E-01   9.9999998E-03  -1.6046125E-01
  8.6040151E-01   9.9999998E-03  -1.4041190E-01
  8.6039251E-01   9.9999998E-03  -1.2035526E-01
  8.6038488E-01   9.9999998E-03  -1.0029816E-01
  8.6037868E-01   9.9999998E-03  -8.0242373E-02
  8.6037374E-01   9.9999998E-03  -6.0186412E-02
  8.6037016E-01   9.9999998E-03  -4.0127821E-02
  8.6036795E-01   9.9999998E-03  -2.0065330E-02
  8.8056058E-01   9.9999998E-03  -1.8048534E-01
  8.8054490E-01   9.9999998E-03  -1.6044471E-01
  8.8053107E-01   9.9999998E-03  -1.4039618E-01
  8.8051945E-01   9.9999998E-03  -1.2034091E-01
  8.8050997E-01   9.9999998E-03  -1.0028557E-01
  8.8050228E-01   9.9999998E-03  -8.0231830E-02
  8.8049632E-01   9.9999998E-03  -6.0178149E-02
  8.8049203E-01   9.9999998E-03  -4.0122099E-02
  8.8048935E-01   9.9999998E-03  -2.0062393E-02
  9.0068245E-01   9.9999998E-03  -1.8046288E-01
  9.0066278E-01   9.9999998E-03  -1.6042344E-01
  9.0064567E-01   9.9999998E-03  -1.4037652E-01
  9.0063149E-01   9.9999998E-03  -1.2032338E-01
  9.0061998E-01   9.9999998E-03  -1.0027044E-01
  9.0061080E-01   9.9999998E-03  -8.0219284E-02
  9.0060365E-01   9.9999998E-03  -6.0168389E-02
  9.0059847E-01   9.9999998E-03  -4.0115368E-02
  9.0059531E-01   9.9999998E-03  -2.0058943E-02
  9.2077219E-01   9.9999998E-03  -1.8043552E-01
  9.2074537E-01   9.9999998E-03  -1.6039783E-01
  9.2072260E-01   9.9999998E-03  -1.4035311E-01
  9.2070377E-01   9.9999998E-03  -1.2030283E-01
  9.2068815E-01   9.9999998E-03  -1.0025302E-01
  9.2067552E-01   9.9999998E-03  -8.0205098E-02
  9.2066574E-01   9.9999998E-03  -6.0157530E-02
  9.2065871E-01   9.9999998E-03  -4.0107962E-02
  9.2065448E-01   9.9999998E-03  -2.0055175E-02
  9.4080091E-01   9.9999998E-03  -1.8040593E-01
  9.4077033E-01   9.9999998E-03  -1.6036968E-01
  9.4074446E-01   9.9999998E-03  -1.4032736E-01
  9.4072288E-01   9.9999998E-03  -1.2028033E-01
  9.4070506E-01   9.9999998E-03  -1.0023403E-01
  9.4069070E-01   9.9999998E-03  -8.0189645E-02
  9.4067961E-01   9.9999998E-03  -6.0145624E-02
  9.4067180E-01   9.9999998E-03  -4.0099785E-02
  9.4066709E-01   9.9999998E-03  -2.0050976E-02
  9.6080458E-01   9.9999998E-03  -1.8037596E-01
  9.6077275E-01   9.9999998E-03  -1.6034119E-01
  9.6074575E-01   9.9999998E-03  -1.4030129E-01
  9.6072322E-01   9.9999998E-03  -1.2025756E-01
  9.6070457E-01   9.9999998E-03  -1.0021467E-01
  9.6068954E-01   9.9999998E-03  -8.0173612E-02
  9.6067798E-01   9.9999998E-03  -6.0133077E-02
  9.6066982E-01   9.9999998E-03  -4.0091075E-02
  9.6066499E-01   9.9999998E-03  -2.0046530E-02
  9.8079932E-01   9.9999998E-03  -1.8034714E-01
  9.8076659E-01   9.9999998E-03  -1.6031432E-01
  9.8073888E-01   9.9999998E-03  -1.4027676E-01
  9.8071581E-01   9.9999998E-03  -1.2023603E-01
  9.8069674E-01   9.9999998E-03  -1.0019623E-01
  9.8068142E-01   9.9999998E-03  -8.0158338E-02
  9.8066968E-01   9.9999998E-03  -6.0121104E-02
  9.8066127E-01   9.9999998E-03  -4.0082686E-02
  9.8065627E-01   9.9999998E-03  -2.0042131E-02
  1.0007900E+00   9.9999998E-03  -1.8031952E-01
  1.0007564E+00   9.9999998E-03  -1.6028963E-01
  1.0007277E+00   9.9999998E-03  -1.4025494E-01
  1.0007039E+00   9.9999998E-03  -1.2021748E-01
  1.0006846E+00   9.9999998E-03  -1.0018057E-01
  1.0006692E+00   9.9999998E-03  -8.0145359E-02
  1.0006572E+00   9.9999998E-03  -6.0110707E-02
  1.0006485E+00   9.9999998E-03  -4.0075261E-02
  1.0006434E+00   9.9999998E-03  -2.0038240E-02
  1.0207783E+00   9.9999998E-03  -1.8029405E-01
  1.0207437E+00   9.9999998E-03  -1.6026612E-01
  1.0207140E+00   9.9999998E-03  -1.4023434E-01
  1.0206897E+00   9.9999998E-03  -1.2019999E-01
  1.0206701E+00   9.9999998E-03  -1.0016572E-01
  1.0206543E+00   9.9999998E-03  -8.0132969E-02
  1.0206422E+00   9.9999998E-03  -6.0101006E-02
  1.0206332E+00   9.9999998E-03  -4.0068492E-02
  1.0206279E+00   9.9999998E-03  -2.0034719E-02
  1.0407649E+00   9.9999998E-03  -1.8026984E-01
  1.0407284E+00   9.9999998E-03  -1.6024382E-01
  1.0406978E+00   9.9999998E-03  -1.4021537E-01
  1.0406727E+00   9.9999998E-03  -1.2018391E-01
  1.0406524E+00   9.9999998E-03  -1.0015232E-01
  1.0406364E+00   9.9999998E-03  -8.0121771E-02
  1.0406240E+00   9.9999998E-03  -6.0092065E-02
  1.0406150E+00   9.9999998E-03  -4.0062103E-02
  1.0406094E+00   9.9999998E-03  -2.0031380E-02
  1.0607504E+00   9.9999998E-03  -1.8024538E-01
  1.0607117E+00   9.9999998E-03  -1.6022217E-01
  1.0606796E+00   9.9999998E-03  -1.4019684E-01
  1.0606532E+00   9.9999998E-03  -1.2016909E-01
  1.0606323E+00   9.9999998E-03  -1.0014015E-01
  1.0606159E+00   9.9999998E-03  -8.0111705E-02
  1.0606033E+00   9.9999998E-03  -6.0083821E-02
  1.0605941E+00   9.9999998E-03  -4.0056158E-02
  1.0605884E+00   9.9999998E-03  -2.0028219E-02
  1.0807352E+00   9.9999998E-03  -1.8021992E-01
  1.0806946E+00   9.9999998E-03  -1.6020107E-01
  1.0806602E+00   9.9999998E-03  -1.4017867E-01
  1.0806328E+00   9.9999998E-03  -1.2015477E-01
  1.0806109E+00   9.9999998E-03  -1.0012892E-01
  1.0805938E+00   9.9999998E-03  -8.0102727E-02
  1.0805808E+00   9.9999998E-03  -6.0076747E-02
  1.0805715E+00   9.9999998E-03  -4.0051062E-02
  1.0805658E+00   9.9999998E-03  -2.0025533E-02
  1.1007218E+00   9.9999998E-03  -1.8019488E-01
  1.1006774E+00   9.9999998E-03  -1.6017808E-01
  1.1006416E+00   9.9999998E-03  -1.4016069E-01
  1.1006122E+00   9.9999998E-03  -1.2014013E-01
  1.1005894E+00   9.9999998E-03  -1.0011805E-01
  1.1005714E+00   9.9999998E-03  -8.0094248E-02
  1.1005580E+00   9.9999998E-03  -6.0070347E-02
  1.1005484E+00   9.9999998E-03  -4.0046599E-02
  1.1005427E+00   9.9999998E-03  -2.0023184E-02
  1.1207113E+00   9.9999998E-03  -1.8017091E-01
  1.1206628E+00   9.9999998E-03  -1.6015519E-01
  1.1206239E+00   9.9999998E-03  -1.4014073E-01
  1.1205931E+00   9.9999998E-03  -1.2012497E-01
  1.1205685E+00   9.9999998E-03  -1.0010627E-01
  1.1205498E+00   9.9999998E-03  -8.0085941E-02
  1.1205357E+00   9.9999998E-03  -6.0064193E-02
  1.1205260E+00   9.9999998E-03  -4.0042546E-02
  1.1205201E+00   9.9999998E-03  -2.0021122E-02
  1.1407044E+00   9.9999998E-03  -1.8014942E-01
  1.1406516E+00   9.9999998E-03  -1.6013385E-01
  1.1406091E+00   9.9999998E-03  -1.4012049E-01
  1.1405758E+00   9.9999998E-03  -1.2010793E-01
  1.1405499E+00   9.9999998E-03  -1.0009372E-01
  1.1405298E+00   9.9999998E-03  -8.0076516E-02
  1.1405151E+00   9.9999998E-03  -6.0057931E-02
  1.1405050E+00   9.9999998E-03  -4.0038440E-02
  1.1404990E+00   9.9999998E-03  -2.0019162E-02
  1.1607029E+00   9.9999998E-03  -1.8013339E-01
  1.1606450E+00   9.9999998E-03  -1.6011599E-01
  1.1605983E+00   9.9999998E-03  -1.4010212E-01
  1.1605618E+00   9.9999998E-03  -1.2009050E-01
  1.1605337E+00   9.9999998E-03  -1.0007924E-01
  1.1605124E+00   9.9999998E-03  -8.0066256E-02
  1.1604967E+00   9.9999998E-03  -6.0050569E-02
  1.1604861E+00   9.9999998E-03  -4.0033951E-02
  1.1604800E+00   9.9999998E-03  -2.0017033E-02
  1.1807114E+00   9.9999998E-03  -1.8012701E-01
  1.1806458E+00   9.9999998E-03  -1.6010539E-01
  1.1805927E+00   9.9999998E-03  -1.4008826E-01
  1.1805520E+00   9.9999998E-03  -1.2007541E-01
  1.1805211E+00   9.9999998E-03  -1.0006487E-01
  1.1804978E+00   9.9999998E-03  -8.0054395E-02
  1.1804811E+00   9.9999998E-03  -6.0042452E-02
  1.1804699E+00   9.9999998E-03  -4.0028807E-02
  1.1804634E+00   9.9999998E-03  -2.0014478E-02
  1.2007262E+00   9.9999998E-03  -1.8012774E-01
  1.2006601E+00   9.9999998E-03  -1.6010648E-01
  1.2005972E+00   9.9999998E-03  -1.4008412E-01
  1.2005484E+00   9.9999998E-03  -1.2006638E-01
  1.2005130E+00   9.9999998E-03  -1.0005362E-01
  1.2004874E+00   9.9999998E-03  -8.0043688E-02
  1.2004689E+00   9.9999998E-03  -6.0033955E-02
  1.2004567E+00   9.9999998E-03  -4.0023256E-02
  1.2004498E+00   9.9999998E-03  -2.0011781E-02
  1.2207351E+00   9.9999998E-03  -1.8013087E-01
  1.2206786E+00   9.9999998E-03  -1.6011195E-01
  1.2206173E+00   9.9999998E-03  -1.4009175E-01
  1.2205595E+00   9.9999998E-03  -1.2007020E-01
  1.2205141E+00   9.9999998E-03  -1.0005143E-01
  1.2204827E+00   9.9999998E-03  -8.0037802E-02
  1.2204615E+00   9.9999998E-03  -6.0027752E-02
  1.2204477E+00   9.9999998E-03  -4.0018957E-02
  1.2204399E+00   9.9999998E-03  -2.0009682E-02
  1.2407235E+00   9.9999998E-03  -1.8012850E-01
  1.2406819E+00   9.9999998E-03  -1.6011360E-01
  1.2406350E+00   9.9999998E-03  -1.4009884E-01
  1.2405849E+00   9.9999998E-03  -1.2008196E-01
  1.2405355E+00   9.9999998E-03  -1.0006336E-01
  1.2404941E+00   9.9999998E-03  -8.0044970E-02
  1.2404648E+00   9.9999998E-03  -6.0029712E-02
  1.2404467E+00   9.9999998E-03  -4.0018559E-02
  1.2404368E+00   9.9999998E-03  -2.0009348E-02
  1.2606624E+00   9.9999998E-03  -1.6010900E-01
  1.2606301E+00   9.9999998E-03  -1.4009804E-01
  1.2605933E+00   9.9999998E-03  -1.2008535E-01
  1.2605569E+00   9.9999998E-03  -1.0007282E-01
  1.2605227E+00   9.9999998E-03  -8.0057591E-02
  1.2604939E+00   9.9999998E-03  -6.0041651E-02
  1.2604723E+00   9.9999998E-03  -4.0026110E-02
  1.2604595E+00   9.9999998E-03  -2.0012589E-02
  1.2805771E+00   9.9999998E-03  -1.2008207E-01
  1.2805511E+00   9.9999998E-03  -1.0007250E-01
  1.2805250E+00   9.9999998E-03  -8.0059119E-02
  1.2805049E+00   9.9999998E-03  -6.0044538E-02
  1.2804900E+00   9.9999998E-03  -4.0028803E-02
  1.2804811E+00   9.9999998E-03  -2.0013742E-02
  1.3005062E+00   9.9999998E-03  -8.0057010E-02
  1.3004893E+00   9.9999998E-03  -6.0042065E-02
  1.3004764E+00   9.9999998E-03  -4.0026587E-02
  1.3004688E+00   9.9999998E-03  -2.0012466E-02
 -5.9543231E-06   9.9999998E-03  -1.2438245E-13
 -5.9579452E-06   9.9999998E-03   2.0000024E-02
 -5.9678678E-06   9.9999998E-03   4.0000055E-02
 -5.9814629E-06   9.9999998E-03   6.0000088E-02
 -5.9937911E-06   9.9999998E-03   8.0000140E-02
 -5.9981335E-06   9.9999998E-03   1.0000020E-01
 -5.9841118E-06   9.9999998E-03   1.2000028E-01
 -5.9394270E-06   9.9999998E-03   1.4000039E-01
  1.9991612E-02   9.9999998E-03  -8.3516053E-14
  1.9991605E-02   9.9999998E-03   2.0000035E-02
  1.9991588E-02   9.9999998E-03   4.0000077E-02
  1.9991564E-02   9.9999998E-03   6.0000129E-02
  1.9991538E-02   9.9999998E-03   8.0000192E-02
  1.9991521E-02   9.9999998E-03   1.0000028E-01
  1.9991526E-02   9.9999998E-03   1.2000038E-01
  1.9991575E-02   9.9999998E-03   1.4000052E-01
  3.9988514E-02   9.9999998E-03   8.1875973E-14
  3.9988503E-02   9.9999998E-03   2.0000044E-02
  3.9988477E-02   9.9999998E-03   4.0000092E-02
  3.9988436E-02   9.9999998E-03   6.0000155E-02
  3.9988395E-02   9.9999998E-03   8.0000229E-02
  3.9988358E-02   9.9999998E-03   1.0000034E-01
  3.9988350E-02   9.9999998E-03   1.2000046E-01
  3.9988399E-02   9.9999998E-03   1.4000061E-01
  5.9984989E-02   9.9999998E-03  -6.6102310E-13
  5.9984978E-02   9.9999998E-03   2.0000048E-02
  5.9984937E-02   9.9999998E-03   4.0000100E-02
  5.9984878E-02   9.9999998E-03   6.0000166E-02
  5.9984811E-02   9.9999998E-03   8.0000252E-02
  5.9984755E-02   9.9999998E-03   1.0000036E-01
  5.9984729E-02   9.9999998E-03   1.2000050E-01
  5.9984762E-02   9.9999998E-03   1.4000066E-01
  7.9981133E-02   9.9999998E-03  -3.6748588E-13
  7.9981118E-02   9.9999998E-03   2.0000048E-02
  7.9981066E-02   9.9999998E-03   4.0000103E-02
  7.9980984E-02   9.9999998E-03   6.0000170E-02
  7.9980887E-02   9.9999998E-03   8.0000259E-02
  7.9980798E-02   9.9999998E-03   1.0000037E-01
  7.9980746E-02   9.9999998E-03   1.2000050E-01
  7.9980761E-02   9.9999998E-03   1.4000067E-01
  9.9976927E-02   9.9999998E-03  -2.3055163E-13
  9.9976905E-02   9.9999998E-03   2.0000048E-02
  9.9976830E-02   9.9999998E-03   4.0000103E-02
  9.9976726E-02   9.9999998E-03   6.0000170E-02
  9.9976592E-02   9.9999998E-03   8.0000252E-02
  9.9976465E-02   9.9999998E-03   1.0000036E-01
  9.9976368E-02   9.9999998E-03   1.2000050E-01
  9.9976353E-02   9.9999998E-03   1.4000067E-01
  1.1997226E-01   9.9999998E-03  -4.3842748E-13
  1.1997223E-01   9.9999998E-03   2.0000050E-02
  1.1997214E-01   9.9999998E-03   4.0000107E-02
  1.1997200E-01   9.9999998E-03   6.0000174E-02
  1.1997183E-01   9.9999998E-03   8.0000259E-02
  1.1997164E-01   9.9999998E-03   1.0000037E-01
  1.1997149E-01   9.9999998E-03   1.2000050E-01
  1.1997143E-01   9.9999998E-03   1.4000067E-01
  1.3996699E-01   9.9999998E-03   9.1783558E-13
  1.3996696E-01   9.9999998E-03   2.0000059E-02
  1.3996685E-01   9.9999998E-03   4.0000122E-02
  1.3996667E-01   9.9999998E-03   6.0000200E-02
  1.3996644E-01   9.9999998E-03   8.0000289E-02
  1.3996619E-01   9.9999998E-03   1.0000041E-01
  1.3996598E-01   9.9999998E-03   1.2000055E-01
  1.3996585E-01   9.9999998E-03   1.4000072E-01
  1.5996101E-01   9.9999998E-03  -1.5774723E-12
  1.5996097E-01   9.9999998E-03   2.0000080E-02
  1.5996082E-01   9.9999998E-03   4.0000163E-02
  1.5996060E-01   9.9999998E-03   6.0000259E-02
  1.5996030E-01   9.9999998E-03   8.0000371E-02
  1.5995999E-01   9.9999998E-03   1.0000051E-01
  1.5995967E-01   9.9999998E-03   1.2000067E-01
  1.5995947E-01   9.9999998E-03   1.4000085E-01
  1.7995422E-01   9.9999998E-03   5.1825639E-13
  1.7995414E-01   9.9999998E-03   2.0000115E-02
  1.7995396E-01   9.9999998E-03   4.0000238E-02
  1.7995368E-01   9.9999998E-03   6.0000371E-02
  1.7995332E-01   9.9999998E-03   8.0000527E-02
  1.7995290E-01   9.9999998E-03   1.0000070E-01
  1.7995250E-01   9.9999998E-03   1.2000090E-01
  1.7995217E-01   9.9999998E-03   1.4000112E-01
  1.9994646E-01   9.9999998E-03  -1.0948224E-12
  1.9994639E-01   9.9999998E-03   2.0000175E-02
  1.9994618E-01   9.9999998E-03   4.0000357E-02
  1.9994582E-01   9.9999998E-03   6.0000550E-02
  1.9994538E-01   9.9999998E-03   8.0000773E-02
  1.9994485E-01   9.9999998E-03   1.0000101E-01
  1.9994432E-01   9.9999998E-03   1.2000129E-01
  1.9994387E-01   9.9999998E-03   1.4000158E-01
  2.1993765E-01   9.9999998E-03  -1.1217496E-12
  2.1993756E-01   9.9999998E-03   2.0000257E-02
  2.1993729E-01   9.9999998E-03   4.0000524E-02
  2.1993688E-01   9.9999998E-03   6.0000811E-02
  2.1993631E-01   9.9999998E-03   8.0001123E-02
  2.1993567E-01   9.9999998E-03   1.0000147E-01
  2.1993500E-01   9.9999998E-03   1.2000185E-01
  2.1993440E-01   9.9999998E-03   1.4000225E-01
  2.3992762E-01   9.9999998E-03  -2.8256426E-13
  2.3992752E-01   9.9999998E-03   2.0000368E-02
  2.3992719E-01   9.9999998E-03   4.0000752E-02
  2.3992668E-01   9.9999998E-03   6.0001157E-02
  2.3992601E-01   9.9999998E-03   8.0001600E-02
  2.3992522E-01   9.9999998E-03   1.0000209E-01
  2.3992440E-01   9.9999998E-03   1.2000261E-01
  2.3992363E-01   9.9999998E-03   1.4000317E-01
  2.5991619E-01   9.9999998E-03  -1.7605207E-12
  2.5991607E-01   9.9999998E-03   2.0000508E-02
  2.5991568E-01   9.9999998E-03   4.0001031E-02
  2.5991508E-01   9.9999998E-03   6.0001589E-02
  2.5991428E-01   9.9999998E-03   8.0002196E-02
  2.5991333E-01   9.9999998E-03   1.0000286E-01
  2.5991231E-01   9.9999998E-03   1.2000358E-01
  2.5991133E-01   9.9999998E-03   1.4000435E-01
  2.7990320E-01   9.9999998E-03  -1.3865633E-12
  2.7990305E-01   9.9999998E-03   2.0000676E-02
  2.7990261E-01   9.9999998E-03   4.0001370E-02
  2.7990189E-01   9.9999998E-03   6.0002111E-02
  2.7990094E-01   9.9999998E-03   8.0002911E-02
  2.7989981E-01   9.9999998E-03   1.0000379E-01
  2.7989858E-01   9.9999998E-03   1.2000474E-01
  2.7989736E-01   9.9999998E-03   1.4000578E-01
  2.9988843E-01   9.9999998E-03  -1.2890097E-12
  2.9988825E-01   9.9999998E-03   2.0000866E-02
  2.9988775E-01   9.9999998E-03   4.0001757E-02
  2.9988688E-01   9.9999998E-03   6.0002703E-02
  2.9988578E-01   9.9999998E-03   8.0003724E-02
  2.9988444E-01   9.9999998E-03   1.0000485E-01
  2.9988295E-01   9.9999998E-03   1.2000608E-01
  2.9988149E-01   9.9999998E-03   1.4000744E-01
  3.1987166E-01   9.9999998E-03  -5.9988325E-12
  3.1987146E-01   9.9999998E-03   2.0001078E-02
  3.1987086E-01   9.9999998E-03   4.0002186E-02
  3.1986988E-01   9.9999998E-03   6.0003363E-02
  3.1986856E-01   9.9999998E-03   8.0004632E-02
  3.1986701E-01   9.9999998E-03   1.0000603E-01
  3.1986526E-01   9.9999998E-03   1.2000757E-01
  3.1986347E-01   9.9999998E-03   1.4000928E-01
  3.3985266E-01   9.9999998E-03   3.6250148E-13
  3.3985242E-01   9.9999998E-03   2.0001302E-02
  3.3985174E-01   9.9999998E-03   4.0002644E-02
  3.3985060E-01   9.9999998E-03   6.0004063E-02
  3.3984908E-01   9.9999998E-03   8.0005601E-02
  3.3984727E-01   9.9999998E-03   1.0000730E-01
  3.3984521E-01   9.9999998E-03   1.2000918E-01
  3.3984306E-01   9.9999998E-03   1.4001127E-01
  3.5983115E-01   9.9999998E-03  -2.3650381E-12
  3.5983089E-01   9.9999998E-03   2.0001536E-02
  3.5983011E-01   9.9999998E-03   4.0003121E-02
  3.5982880E-01   9.9999998E-03   6.0004801E-02
  3.5982707E-01   9.9999998E-03   8.0006622E-02
  3.5982493E-01   9.9999998E-03   1.0000863E-01
  3.5982251E-01   9.9999998E-03   1.2001087E-01
  3.5981998E-01   9.9999998E-03   1.4001335E-01
  3.7980688E-01   9.9999998E-03  -3.7703356E-12
  3.7980658E-01   9.9999998E-03   2.0001778E-02
  3.7980565E-01   9.9999998E-03   4.0003613E-02
  3.7980419E-01   9.9999998E-03   6.0005561E-02
  3.7980217E-01   9.9999998E-03   8.0007672E-02
  3.7979972E-01   9.9999998E-03   1.0001001E-01
  3.7979692E-01   9.9999998E-03   1.2001262E-01
  3.7979394E-01   9.9999998E-03   1.4001553E-01
  3.9977956E-01   9.9999998E-03  -2.5677520E-12
  3.9977920E-01   9.9999998E-03   2.0002032E-02
  3.9977819E-01   9.9999998E-03   4.0004127E-02
  3.9977649E-01   9.9999998E-03   6.0006350E-02
  3.9977419E-01   9.9999998E-03   8.0008768E-02
  3.9977139E-01   9.9999998E-03   1.0001145E-01
  3.9976814E-01   9.9999998E-03   1.2001445E-01
  3.9976466E-01   9.9999998E-03   1.4001781E-01
  4.1974896E-01   9.9999998E-03  -4.1243723E-12
  4.1974854E-01   9.9999998E-03   2.0002315E-02
  4.1974738E-01   9.9999998E-03   4.0004700E-02
  4.1974548E-01   9.9999998E-03   6.0007226E-02
  4.1974285E-01   9.9999998E-03   8.0009967E-02
  4.1973963E-01   9.9999998E-03   1.0001301E-01
  4.1973591E-01   9.9999998E-03   1.2001642E-01
  4.1973186E-01   9.9999998E-03   1.4002024E-01
  4.3971479E-01   9.9999998E-03   2.9922694E-12
  4.3971434E-01   9.9999998E-03   2.0002661E-02
  4.3971300E-01   9.9999998E-03   4.0005393E-02
  4.3971083E-01   9.9999998E-03   6.0008280E-02
  4.3970788E-01   9.9999998E-03   8.0011398E-02
  4.3970418E-01   9.9999998E-03   1.0001484E-01
  4.3969989E-01   9.9999998E-03   1.2001868E-01
  4.3969518E-01   9.9999998E-03   1.4002298E-01
  4.5967674E-01   9.9999998E-03   9.4577462E-12
  4.5967624E-01   9.9999998E-03   2.0003125E-02
  4.5967472E-01   9.9999998E-03   4.0006321E-02
  4.5967224E-01   9.9999998E-03   6.0009666E-02
  4.5966887E-01   9.9999998E-03   8.0013253E-02
  4.5966464E-01   9.9999998E-03   1.0001717E-01
  4.5965973E-01   9.9999998E-03   1.2002151E-01
  4.5965427E-01   9.9999998E-03   1.4002632E-01
  4.7963437E-01   9.9999998E-03  -1.2585952E-12
  4.7963381E-01   9.9999998E-03   2.0003779E-02
  4.7963208E-01   9.9999998E-03   4.0007621E-02
  4.7962928E-01   9.9999998E-03   6.0011607E-02
  4.7962546E-01   9.9999998E-03   8.0015816E-02
  4.7962064E-01   9.9999998E-03   1.0002036E-01
  4.7961497E-01   9.9999998E-03   1.2002531E-01
  4.7960865E-01   9.9999998E-03   1.4003073E-01
  4.9958724E-01   9.9999998E-03  -5.6951856E-12
  4.9958658E-01   9.9999998E-03   2.0004708E-02
  4.9958465E-01   9.9999998E-03   4.0009473E-02
  4.9958149E-01   9.9999998E-03   6.0014356E-02
  4.9957713E-01   9.9999998E-03   8.0019452E-02
  4.9957165E-01   9.9999998E-03   1.0002487E-01
  4.9956518E-01   9.9999998E-03   1.2003067E-01
  4.9955788E-01   9.9999998E-03   1.4003685E-01
  5.1953489E-01   9.9999998E-03  -6.7676511E-12
  5.1953417E-01   9.9999998E-03   2.0006012E-02
  5.1953202E-01   9.9999998E-03   4.0012065E-02
  5.1952839E-01   9.9999998E-03   6.0018223E-02
  5.1952350E-01   9.9999998E-03   8.0024585E-02
  5.1951730E-01   9.9999998E-03   1.0003124E-01
  5.1950991E-01   9.9999998E-03   1.2003823E-01
  5.1950163E-01   9.9999998E-03   1.4004545E-01
  5.3947741E-01   9.9999998E-03   3.5826472E-12
  5.3947657E-01   9.9999998E-03   2.0007774E-02
  5.3947413E-01   9.9999998E-03   4.0015586E-02
  5.3947008E-01   9.9999998E-03   6.0023498E-02
  5.3946453E-01   9.9999998E-03   8.0031596E-02
  5.3945756E-01   9.9999998E-03   1.0003997E-01
  5.3944927E-01   9.9999998E-03   1.2004860E-01
  5.3943992E-01   9.9999998E-03   1.4005728E-01
  5.5941552E-01   9.9999998E-03  -8.5343364E-12
  5.5941457E-01   9.9999998E-03   2.0010106E-02
  5.5941182E-01   9.9999998E-03   4.0020254E-02
  5.5940735E-01   9.9999998E-03   6.0030494E-02
  5.5940115E-01   9.9999998E-03   8.0040909E-02
  5.5939341E-01   9.9999998E-03   1.0005154E-01
  5.5938423E-01   9.9999998E-03   1.2006235E-01
  5.5937386E-01   9.9999998E-03   1.4007302E-01
  5.7935166E-01   9.9999998E-03  -4.4248511E-12
  5.7935065E-01   9.9999998E-03   2.0012990E-02
  5.7934755E-01   9.9999998E-03   4.0025994E-02
  5.7934260E-01   9.9999998E-03   6.0039077E-02
  5.7933581E-01   9.9999998E-03   8.0052353E-02
  5.7932729E-01   9.9999998E-03   1.0006586E-01
  5.7931727E-01   9.9999998E-03   1.2007946E-01
  5.7930601E-01   9.9999998E-03   1.4009272E-01
  5.9928995E-01   9.9999998E-03   8.0929412E-12
  5.9928882E-01   9.9999998E-03   2.0016501E-02
  5.9928542E-01   9.9999998E-03   4.0032960E-02
  5.9928000E-01   9.9999998E-03   6.0049448E-02
  5.9927261E-01   9.9999998E-03   8.0066137E-02
  5.9926349E-01   9.9999998E-03   1.0008308E-01
  5.9925276E-01   9.9999998E-03   1.2010004E-01
  5.9924072E-01   9.9999998E-03   1.4011639E-01
  6.1923420E-01   9.9999998E-03  -3.4058245E-12
  6.1923295E-01   9.9999998E-03   2.0020695E-02
  6.1922932E-01   9.9999998E-03   4.0041234E-02
  6.1922348E-01   9.9999998E-03   6.0061723E-02
  6.1921555E-01   9.9999998E-03   8.0082297E-02
  6.1920589E-01   9.9999998E-03   1.0010293E-01
  6.1919469E-01   9.9999998E-03   1.2012349E-01
  6.1918199E-01   9.9999998E-03   1.4014329E-01
  6.3918704E-01   9.9999998E-03   2.8189930E-11
  6.3918579E-01   9.9999998E-03   2.0024970E-02
  6.3918191E-01   9.9999998E-03   4.0049747E-02
  6.3917571E-01   9.9999998E-03   6.0074329E-02
  6.3916737E-01   9.9999998E-03   8.0098994E-02
  6.3915706E-01   9.9999998E-03   1.0012377E-01
  6.3914531E-01   9.9999998E-03   1.2014844E-01
  6.3913238E-01   9.9999998E-03   1.4017205E-01
  6.5915084E-01   9.9999998E-03  -1.1010354E-11
  6.5914959E-01   9.9999998E-03   2.0029996E-02
  6.5914571E-01   9.9999998E-03   4.0059716E-02
  6.5913934E-01   9.9999998E-03   6.0088888E-02
  6.5913075E-01   9.9999998E-03   8.0117829E-02
  6.5912038E-01   9.9999998E-03   1.0014711E-01
  6.5910870E-01   9.9999998E-03   1.2017660E-01
  6.5909582E-01   9.9999998E-03   1.4020509E-01
  6.7913270E-01   9.9999998E-03   4.5160264E-12
  6.7913151E-01   9.9999998E-03   2.0038893E-02
  6.7912787E-01   9.9999998E-03   4.0076520E-02
  6.7912191E-01   9.9999998E-03   6.0112491E-02
  6.7911386E-01   9.9999998E-03   8.0147602E-02
  6.7910409E-01   9.9999998E-03   1.0018267E-01
  6.7909312E-01   9.9999998E-03   1.2021800E-01
  6.7908114E-01   9.9999998E-03   1.4025232E-01
  6.9914460E-01   9.9999998E-03   2.6045614E-11
  6.9914365E-01   9.9999998E-03   2.0049240E-02
  6.9914067E-01   9.9999998E-03   4.0096924E-02
  6.9913554E-01   9.9999998E-03   6.0142476E-02
  6.9912869E-01   9.9999998E-03   8.0186665E-02
  6.9912064E-01   9.9999998E-03   1.0023060E-01
  6.9911236E-01   9.9999998E-03   1.2027534E-01
  6.9910425E-01   9.9999998E-03   1.4032003E-01
  7.1928281E-01   9.9999998E-03  -2.3756707E-11
  7.1928138E-01   9.9999998E-03   2.0060726E-02
  7.1927708E-01   9.9999998E-03   4.0119652E-02
  7.1927035E-01   9.9999998E-03   6.0176447E-02
  7.1926188E-01   9.9999998E-03   8.0232501E-02
  7.1925229E-01   9.9999998E-03   1.0028988E-01
  7.1924233E-01   9.9999998E-03   1.2034938E-01
  7.1923274E-01   9.9999998E-03   1.4040892E-01
  7.3953491E-01   9.9999998E-03   5.2999372E-11
  7.3953384E-01   9.9999998E-03   2.0065755E-02
  7.3953092E-01   9.9999998E-03   4.0129293E-02
  7.3952639E-01   9.9999998E-03   6.0189988E-02
  7.3952079E-01   9.9999998E-03   8.0249175E-02
  7.3951453E-01   9.9999998E-03   1.0030904E-01
  7.3950797E-01   9.9999998E-03   1.2037080E-01
  7.3950136E-01   9.9999998E-03   1.4043275E-01
  7.5972861E-01   9.9999998E-03   1.4380667E-10
  7.5972801E-01   9.9999998E-03   2.0068904E-02
  7.5972652E-01   9.9999998E-03   4.0135220E-02
  7.5972426E-01   9.9999998E-03   6.0198043E-02
  7.5972170E-01   9.9999998E-03   8.0258600E-02
  7.5971913E-01   9.9999998E-03   1.0031907E-01
  7.5971675E-01   9.9999998E-03   1.2038067E-01
  7.5971466E-01   9.9999998E-03   1.4044154E-01
  7.7987355E-01   9.9999998E-03  -4.2329494E-11
  7.7987337E-01   9.9999998E-03   2.0070383E-02
  7.7987301E-01   9.9999998E-03   4.0137909E-02
  7.7987266E-01   9.9999998E-03   6.0201492E-02
  7.7987242E-01   9.9999998E-03   8.0262288E-02
  7.7987260E-01   9.9999998E-03   1.0032251E-01
  7.7987313E-01   9.9999998E-03   1.2038336E-01
  7.7987403E-01   9.9999998E-03   1.4044291E-01
  7.9999483E-01   9.9999998E-03  -1.8063691E-10
  7.9999501E-01   9.9999998E-03   2.0070475E-02
  7.9999554E-01   9.9999998E-03   4.0137947E-02
  7.9999650E-01   9.9999998E-03   6.0201243E-02
  7.9999804E-01   9.9999998E-03   8.0261514E-02
  8.0000013E-01   9.9999998E-03   1.0032102E-01
  8.0000269E-01   9.9999998E-03   1.2038103E-01
  8.0000561E-01   9.9999998E-03   1.4043956E-01
  8.2011402E-01   9.9999998E-03   2.9776976E-11
  8.2011443E-01   9.9999998E-03   2.0069495E-02
  8.2011563E-01   9.9999998E-03   4.0135961E-02
  8.2011765E-01   9.9999998E-03   6.0198218E-02
  8.2012045E-01   9.9999998E-03   8.0257446E-02
  8.2012403E-01   9.9999998E-03   1.0031599E-01
  8.2012820E-01   9.9999998E-03   1.2037519E-01
  8.2013291E-01   9.9999998E-03   1.4043312E-01
  8.4023941E-01   9.9999998E-03   1.6823090E-10
  8.4024000E-01   9.9999998E-03   2.0067723E-02
  8.4024179E-01   9.9999998E-03   4.0132485E-02
  8.4024459E-01   9.9999998E-03   6.0193148E-02
  8.4024847E-01   9.9999998E-03   8.0250941E-02
  8.4025335E-01   9.9999998E-03   1.0030828E-01
  8.4025919E-01   9.9999998E-03   1.2036659E-01
  8.4026587E-01   9.9999998E-03   1.4042401E-01
  8.6036718E-01   9.9999998E-03   1.1317817E-10
  8.6036795E-01   9.9999998E-03   2.0065330E-02
  8.6037016E-01   9.9999998E-03   4.0127821E-02
  8.6037374E-01   9.9999998E-03   6.0186412E-02
  8.6037868E-01   9.9999998E-03   8.0242373E-02
  8.6038488E-01   9.9999998E-03   1.0029816E-01
  8.6039251E-01   9.9999998E-03   1.2035526E-01
  8.6040151E-01   9.9999998E-03   1.4041190E-01
  8.8048846E-01   9.9999998E-03  -1.2095711E-10
  8.8048935E-01   9.9999998E-03   2.0062393E-02
  8.8049203E-01   9.9999998E-03   4.0122095E-02
  8.8049632E-01   9.9999998E-03   6.0178149E-02
  8.8050228E-01   9.9999998E-03   8.0231830E-02
  8.8050997E-01   9.9999998E-03   1.0028557E-01
  8.8051945E-01   9.9999998E-03   1.2034091E-01
  8.8053107E-01   9.9999998E-03   1.4039618E-01
  9.0059423E-01   9.9999998E-03  -1.3209069E-10
  9.0059531E-01   9.9999998E-03   2.0058943E-02
  9.0059847E-01   9.9999998E-03   4.0115368E-02
  9.0060365E-01   9.9999998E-03   6.0168389E-02
  9.0061080E-01   9.9999998E-03   8.0219284E-02
  9.0061998E-01   9.9999998E-03   1.0027044E-01
  9.0063149E-01   9.9999998E-03   1.2032338E-01
  9.0064567E-01   9.9999998E-03   1.4037652E-01
  9.2065305E-01   9.9999998E-03  -1.0266961E-11
  9.2065448E-01   9.9999998E-03   2.0055175E-02
  9.2065871E-01   9.9999998E-03   4.0107962E-02
  9.2066574E-01   9.9999998E-03   6.0157530E-02
  9.2067552E-01   9.9999998E-03   8.0205098E-02
  9.2068815E-01   9.9999998E-03   1.0025302E-01
  9.2070377E-01   9.9999998E-03   1.2030283E-01
  9.2072260E-01   9.9999998E-03   1.4035311E-01
  9.4066554E-01   9.9999998E-03   1.0793251E-10
  9.4066709E-01   9.9999998E-03   2.0050976E-02
  9.4067180E-01   9.9999998E-03   4.0099785E-02
  9.4067961E-01   9.9999998E-03   6.0145624E-02
  9.4069070E-01   9.9999998E-03   8.0189645E-02
  9.4070506E-01   9.9999998E-03   1.0023403E-01
  9.4072288E-01   9.9999998E-03   1.2028033E-01
  9.4074446E-01   9.9999998E-03   1.4032736E-01
  9.6066338E-01   9.9999998E-03   3.3048366E-11
  9.6066499E-01   9.9999998E-03   2.0046530E-02
  9.6066982E-01   9.9999998E-03   4.0091075E-02
  9.6067798E-01   9.9999998E-03   6.0133077E-02
  9.6068954E-01   9.9999998E-03   8.0173612E-02
  9.6070457E-01   9.9999998E-03   1.0021467E-01
  9.6072322E-01   9.9999998E-03   1.2025756E-01
  9.6074575E-01   9.9999998E-03   1.4030129E-01
  9.8065460E-01   9.9999998E-03  -3.3914586E-11
  9.8065627E-01   9.9999998E-03   2.0042131E-02
  9.8066127E-01   9.9999998E-03   4.0082686E-02
  9.8066968E-01   9.9999998E-03   6.0121104E-02
  9.8068142E-01   9.9999998E-03   8.0158338E-02
  9.8069674E-01   9.9999998E-03   1.0019623E-01
  9.8071581E-01   9.9999998E-03   1.2023603E-01
  9.8073888E-01   9.9999998E-03   1.4027676E-01
  1.0006416E+00   9.9999998E-03   9.7416528E-12
  1.0006434E+00   9.9999998E-03   2.0038240E-02
  1.0006485E+00   9.9999998E-03   4.0075261E-02
  1.0006572E+00   9.9999998E-03   6.0110707E-02
  1.0006692E+00   9.9999998E-03   8.0145359E-02
  1.0006846E+00   9.9999998E-03   1.0018057E-01
  1.0007039E+00   9.9999998E-03   1.2021748E-01
  1.0007277E+00   9.9999998E-03   1.4025494E-01
  1.0206261E+00   9.9999998E-03   2.5876877E-11
  1.0206279E+00   9.9999998E-03   2.0034719E-02
  1.0206332E+00   9.9999998E-03   4.0068492E-02
  1.0206422E+00   9.9999998E-03   6.0101006E-02
  1.0206543E+00   9.9999998E-03   8.0132969E-02
  1.0206701E+00   9.9999998E-03   1.0016572E-01
  1.0206897E+00   9.9999998E-03   1.2019999E-01
  1.0207140E+00   9.9999998E-03   1.4023434E-01
  1.0406075E+00   9.9999998E-03   1.8573074E-11
  1.0406094E+00   9.9999998E-03   2.0031380E-02
  1.0406150E+00   9.9999998E-03   4.0062103E-02
  1.0406240E+00   9.9999998E-03   6.0092065E-02
  1.0406364E+00   9.9999998E-03   8.0121771E-02
  1.0406524E+00   9.9999998E-03   1.0015232E-01
  1.0406727E+00   9.9999998E-03   1.2018391E-01
  1.0406978E+00   9.9999998E-03   1.4021537E-01
  1.0605865E+00   9.9999998E-03   4.4887837E-11
  1.0605884E+00   9.9999998E-03   2.0028219E-02
  1.0605941E+00   9.9999998E-03   4.0056158E-02
  1.0606033E+00   9.9999998E-03   6.0083821E-02
  1.0606159E+00   9.9999998E-03   8.0111705E-02
  1.0606323E+00   9.9999998E-03   1.0014015E-01
  1.0606532E+00   9.9999998E-03   1.2016909E-01
  1.0606796E+00   9.9999998E-03   1.4019684E-01
  1.0805639E+00   9.9999998E-03   1.5767552E-11
  1.0805658E+00   9.9999998E-03   2.0025533E-02
  1.0805715E+00   9.9999998E-03   4.0051062E-02
  1.0805808E+00   9.9999998E-03   6.0076747E-02
  1.0805938E+00   9.9999998E-03   8.0102727E-02
  1.0806109E+00   9.9999998E-03   1.0012892E-01
  1.0806328E+00   9.9999998E-03   1.2015477E-01
  1.0806602E+00   9.9999998E-03   1.4017867E-01
  1.1005408E+00   9.9999998E-03  -5.8960345E-12
  1.1005427E+00   9.9999998E-03   2.0023184E-02
  1.1005484E+00   9.9999998E-03   4.0046599E-02
  1.1005580E+00   9.9999998E-03   6.0070347E-02
  1.1005714E+00   9.9999998E-03   8.0094248E-02
  1.1005894E+00   9.9999998E-03   1.0011805E-01
  1.1006122E+00   9.9999998E-03   1.2014013E-01
  1.1006416E+00   9.9999998E-03   1.4016069E-01
  1.1205181E+00   9.9999998E-03  -1.7923706E-11
  1.1205201E+00   9.9999998E-03   2.0021122E-02
  1.1205260E+00   9.9999998E-03   4.0042546E-02
  1.1205357E+00   9.9999998E-03   6.0064193E-02
  1.1205498E+00   9.9999998E-03   8.0085941E-02
  1.1205685E+00   9.9999998E-03   1.0010627E-01
  1.1205931E+00   9.9999998E-03   1.2012497E-01
  1.1206239E+00   9.9999998E-03   1.4014073E-01
  1.1404970E+00   9.9999998E-03   9.8916682E-12
  1.1404990E+00   9.9999998E-03   2.0019162E-02
  1.1405050E+00   9.9999998E-03   4.0038440E-02
  1.1405151E+00   9.9999998E-03   6.0057931E-02
  1.1405298E+00   9.9999998E-03   8.0076516E-02
  1.1405499E+00   9.9999998E-03   1.0009372E-01
  1.1405758E+00   9.9999998E-03   1.2010793E-01
  1.1406091E+00   9.9999998E-03   1.4012049E-01
  1.1604780E+00   9.9999998E-03   1.3148429E-11
  1.1604800E+00   9.9999998E-03   2.0017033E-02
  1.1604861E+00   9.9999998E-03   4.0033951E-02
  1.1604967E+00   9.9999998E-03   6.0050569E-02
  1.1605124E+00   9.9999998E-03   8.0066256E-02
  1.1605337E+00   9.9999998E-03   1.0007924E-01
  1.1605618E+00   9.9999998E-03   1.2009050E-01
  1.1605983E+00   9.9999998E-03   1.4010212E-01
  1.1804614E+00   9.9999998E-03   8.0746599E-12
  1.1804634E+00   9.9999998E-03   2.0014478E-02
  1.1804699E+00   9.9999998E-03   4.0028807E-02
  1.1804811E+00   9.9999998E-03   6.0042452E-02
  1.1804978E+00   9.9999998E-03   8.0054395E-02
  1.1805211E+00   9.9999998E-03   1.0006487E-01
  1.1805520E+00   9.9999998E-03   1.2007541E-01
  1.1805927E+00   9.9999998E-03   1.4008826E-01
  1.2004477E+00   9.9999998E-03   1.3532199E-11
  1.2004498E+00   9.9999998E-03   2.0011781E-02
  1.2004567E+00   9.9999998E-03   4.0023256E-02
  1.2004689E+00   9.9999998E-03   6.0033955E-02
  1.2004874E+00   9.9999998E-03   8.0043688E-02
  1.2005130E+00   9.9999998E-03   1.0005362E-01
  1.2005484E+00   9.9999998E-03   1.2006638E-01
  1.2005972E+00   9.9999998E-03   1.4008412E-01
  1.2204373E+00   9.9999998E-03   1.2352572E-11
  1.2204399E+00   9.9999998E-03   2.0009682E-02
  1.2204477E+00   9.9999998E-03   4.0018957E-02
  1.2204615E+00   9.9999998E-03   6.0027752E-02
  1.2204827E+00   9.9999998E-03   8.0037802E-02
  1.2205141E+00   9.9999998E-03   1.0005143E-01
  1.2205595E+00   9.9999998E-03   1.2007020E-01
  1.2206173E+00   9.9999998E-03   1.4009175E-01
  1.2404337E+00   9.9999998E-03   1.7465397E-11
  1.2404368E+00   9.9999998E-03   2.0009348E-02
  1.2404467E+00   9.9999998E-03   4.0018559E-02
  1.2404648E+00   9.9999998E-03   6.0029712E-02
  1.2404941E+00   9.9999998E-03   8.0044970E-02
  1.2405355E+00   9.9999998E-03   1.0006336E-01
  1.2405849E+00   9.9999998E-03   1.2008196E-01
  1.2406350E+00   9.9999998E-03   1.4009884E-01
  1.2604553E+00   9.9999998E-03   1.2915274E-11
  1.2604595E+00   9.9999998E-03   2.0012589E-02
  1.2604723E+00   9.9999998E-03   4.0026110E-02
  1.2604939E+00   9.9999998E-03   6.0041651E-02
  1.2605227E+00   9.9999998E-03   8.0057591E-02
  1.2605569E+00   9.9999998E-03   1.0007282E-01
  1.2605933E+00   9.9999998E-03   1.2008535E-01
  1.2606301E+00   9.9999998E-03   1.4009804E-01
  1.2804781E+00   9.9999998E-03   1.8235524E-11
  1.2804811E+00   9.9999998E-03   2.0013742E-02
  1.2804900E+00   9.9999998E-03   4.0028803E-02
  1.2805049E+00   9.9999998E-03   6.0044538E-02
  1.2805250E+00   9.9999998E-03   8.0059111E-02
  1.2805511E+00   9.9999998E-03   1.0007250E-01
  1.2805771E+00   9.9999998E-03   1.2008207E-01
  1.3004663E+00   9.9999998E-03   1.4532263E-11
  1.3004688E+00   9.9999998E-03   2.0012466E-02
  1.3004764E+00   9.9999998E-03   4.0026587E-02
  1.3004893E+00   9.9999998E-03   6.0042065E-02
  1.3005062E+00   9.9999998E-03   8.0057010E-02
 -5.8478149E-06   9.9999998E-03   1.6000050E-01
 -5.6893750E-06   9.9999998E-03   1.8000065E-01
 -5.4465472E-06   9.9999998E-03   2.0000079E-01
 -5.0951885E-06   9.9999998E-03   2.2000097E-01
 -4.6192645E-06   9.9999998E-03   2.4000111E-01
 -4.0104360E-06   9.9999998E-03   2.6000121E-01
 -3.2911705E-06   9.9999998E-03   2.8000128E-01
  1.9991683E-02   9.9999998E-03   1.6000068E-01
  1.9991888E-02   9.9999998E-03   1.8000087E-01
  1.9992217E-02   9.9999998E-03   2.0000106E-01
  1.9992709E-02   9.9999998E-03   2.2000127E-01
  1.9993396E-02   9.9999998E-03   2.4000144E-01
  1.9994307E-02   9.9999998E-03   2.6000154E-01
  1.9995432E-02   9.9999998E-03   2.8000155E-01
  1.9996747E-02   9.9999998E-03   3.0000168E-01
  3.9988525E-02   9.9999998E-03   1.6000080E-01
  3.9988779E-02   9.9999998E-03   1.8000101E-01
  3.9989207E-02   9.9999998E-03   2.0000122E-01
  3.9989866E-02   9.9999998E-03   2.2000144E-01
  3.9990809E-02   9.9999998E-03   2.4000162E-01
  3.9992075E-02   9.9999998E-03   2.6000175E-01
  3.9993636E-02   9.9999998E-03   2.8000179E-01
  3.9995454E-02   9.9999998E-03   3.0000186E-01
  5.9984904E-02   9.9999998E-03   1.6000086E-01
  5.9985202E-02   9.9999998E-03   1.8000108E-01
  5.9985723E-02   9.9999998E-03   2.0000131E-01
  5.9986554E-02   9.9999998E-03   2.2000155E-01
  5.9987761E-02   9.9999998E-03   2.4000172E-01
  5.9989400E-02   9.9999998E-03   2.6000184E-01
  5.9991438E-02   9.9999998E-03   2.8000188E-01
  5.9993852E-02   9.9999998E-03   3.0000198E-01
  7.9980902E-02   9.9999998E-03   1.6000088E-01
  7.9981230E-02   9.9999998E-03   1.8000109E-01
  7.9981834E-02   9.9999998E-03   2.0000134E-01
  7.9982817E-02   9.9999998E-03   2.2000158E-01
  7.9984285E-02   9.9999998E-03   2.4000177E-01
  7.9986297E-02   9.9999998E-03   2.6000190E-01
  7.9988852E-02   9.9999998E-03   2.8000194E-01
  7.9991944E-02   9.9999998E-03   3.0000213E-01
  9.9976480E-02   9.9999998E-03   1.6000086E-01
  9.9976815E-02   9.9999998E-03   1.8000109E-01
  9.9977478E-02   9.9999998E-03   2.0000133E-01
  9.9978603E-02   9.9999998E-03   2.2000156E-01
  9.9980310E-02   9.9999998E-03   2.4000175E-01
  9.9982716E-02   9.9999998E-03   2.6000190E-01
  9.9985816E-02   9.9999998E-03   2.8000200E-01
  9.9989668E-02   9.9999998E-03   3.0000231E-01
  1.1997151E-01   9.9999998E-03   1.6000086E-01
  1.1997185E-01   9.9999998E-03   1.8000108E-01
  1.1997255E-01   9.9999998E-03   2.0000131E-01
  1.1997379E-01   9.9999998E-03   2.2000155E-01
  1.1997573E-01   9.9999998E-03   2.4000172E-01
  1.1997852E-01   9.9999998E-03   2.6000187E-01
  1.1998221E-01   9.9999998E-03   2.8000206E-01
  1.1998691E-01   9.9999998E-03   3.0000257E-01
  1.3996588E-01   9.9999998E-03   1.6000091E-01
  1.3996617E-01   9.9999998E-03   1.8000112E-01
  1.3996689E-01   9.9999998E-03   2.0000133E-01
  1.3996823E-01   9.9999998E-03   2.2000155E-01
  1.3997039E-01   9.9999998E-03   2.4000171E-01
  1.3997360E-01   9.9999998E-03   2.6000193E-01
  1.3997789E-01   9.9999998E-03   2.8000221E-01
  1.3998353E-01   9.9999998E-03   3.0000299E-01
  1.5995941E-01   9.9999998E-03   1.6000105E-01
  1.5995966E-01   9.9999998E-03   1.8000126E-01
  1.5996037E-01   9.9999998E-03   2.0000146E-01
  1.5996179E-01   9.9999998E-03   2.2000167E-01
  1.5996417E-01   9.9999998E-03   2.4000184E-01
  1.5996777E-01   9.9999998E-03   2.6000211E-01
  1.5997267E-01   9.9999998E-03   2.8000247E-01
  1.5997925E-01   9.9999998E-03   3.0000350E-01
  1.7995203E-01   9.9999998E-03   1.6000135E-01
  1.7995219E-01   9.9999998E-03   1.8000157E-01
  1.7995286E-01   9.9999998E-03   2.0000179E-01
  1.7995432E-01   9.9999998E-03   2.2000200E-01
  1.7995693E-01   9.9999998E-03   2.4000217E-01
  1.7996091E-01   9.9999998E-03   2.6000240E-01
  1.7996638E-01   9.9999998E-03   2.8000280E-01
  1.7997365E-01   9.9999998E-03   3.0000377E-01
  1.9994359E-01   9.9999998E-03   1.6000187E-01
  1.9994365E-01   9.9999998E-03   1.8000215E-01
  1.9994424E-01   9.9999998E-03   2.0000240E-01
  1.9994572E-01   9.9999998E-03   2.2000261E-01
  1.9994847E-01   9.9999998E-03   2.4000272E-01
  1.9995278E-01   9.9999998E-03   2.6000285E-01
  1.9995867E-01   9.9999998E-03   2.8000313E-01
  1.9996630E-01   9.9999998E-03   3.0000371E-01
  2.1993397E-01   9.9999998E-03   1.6000265E-01
  2.1993390E-01   9.9999998E-03   1.8000305E-01
  2.1993437E-01   9.9999998E-03   2.0000336E-01
  2.1993580E-01   9.9999998E-03   2.2000359E-01
  2.1993864E-01   9.9999998E-03   2.4000368E-01
  2.1994321E-01   9.9999998E-03   2.6000383E-01
  2.1994941E-01   9.9999998E-03   2.8000429E-01
  2.1995784E-01   9.9999998E-03   3.0000561E-01
  2.3992303E-01   9.9999998E-03   1.6000375E-01
  2.3992278E-01   9.9999998E-03   1.8000428E-01
  2.3992310E-01   9.9999998E-03   2.0000479E-01
  2.3992442E-01   9.9999998E-03   2.2000520E-01
  2.3992717E-01   9.9999998E-03   2.4000563E-01
  2.3993185E-01   9.9999998E-03   2.6000664E-01
  2.3993830E-01   9.9999998E-03   2.8000891E-01
  2.3994730E-01   9.9999998E-03   3.0001307E-01
  2.5991055E-01   9.9999998E-03   1.6000515E-01
  2.5991008E-01   9.9999998E-03   1.8000597E-01
  2.5991023E-01   9.9999998E-03   2.0000683E-01
  2.5991130E-01   9.9999998E-03   2.2000772E-01
  2.5991377E-01   9.9999998E-03   2.4000885E-01
  2.5991818E-01   9.9999998E-03   2.6001111E-01
  2.5992453E-01   9.9999998E-03   2.8001514E-01
  2.5993326E-01   9.9999998E-03   3.0002037E-01
  2.7989632E-01   9.9999998E-03   1.6000688E-01
  2.7989563E-01   9.9999998E-03   1.8000807E-01
  2.7989548E-01   9.9999998E-03   2.0000939E-01
  2.7989626E-01   9.9999998E-03   2.2001095E-01
  2.7989835E-01   9.9999998E-03   2.4001294E-01
  2.7990225E-01   9.9999998E-03   2.6001608E-01
  2.7990809E-01   9.9999998E-03   2.8002077E-01
  2.7991617E-01   9.9999998E-03   3.0002588E-01
  2.9988015E-01   9.9999998E-03   1.6000891E-01
  2.9987916E-01   9.9999998E-03   1.8001054E-01
  2.9987872E-01   9.9999998E-03   2.0001239E-01
  2.9987916E-01   9.9999998E-03   2.2001459E-01
  2.9988089E-01   9.9999998E-03   2.4001729E-01
  2.9988432E-01   9.9999998E-03   2.6002097E-01
  2.9988962E-01   9.9999998E-03   2.8002578E-01
  2.9989704E-01   9.9999998E-03   3.0003071E-01
  3.1986180E-01   9.9999998E-03   1.6001116E-01
  3.1986046E-01   9.9999998E-03   1.8001327E-01
  3.1985968E-01   9.9999998E-03   2.0001565E-01
  3.1985980E-01   9.9999998E-03   2.2001839E-01
  3.1986129E-01   9.9999998E-03   2.4002165E-01
  3.1986448E-01   9.9999998E-03   2.6002565E-01
  3.1986955E-01   9.9999998E-03   2.8003052E-01
  3.1987667E-01   9.9999998E-03   3.0003551E-01
  3.3984101E-01   9.9999998E-03   1.6001357E-01
  3.3983925E-01   9.9999998E-03   1.8001617E-01
  3.3983812E-01   9.9999998E-03   2.0001908E-01
  3.3983797E-01   9.9999998E-03   2.2002229E-01
  3.3983931E-01   9.9999998E-03   2.4002600E-01
  3.3984247E-01   9.9999998E-03   2.6003027E-01
  3.3984774E-01   9.9999998E-03   2.8003535E-01
  3.3985510E-01   9.9999998E-03   3.0004063E-01
  3.5981750E-01   9.9999998E-03   1.6001612E-01
  3.5981533E-01   9.9999998E-03   1.8001920E-01
  3.5981378E-01   9.9999998E-03   2.0002261E-01
  3.5981336E-01   9.9999998E-03   2.2002633E-01
  3.5981458E-01   9.9999998E-03   2.4003045E-01
  3.5981789E-01   9.9999998E-03   2.6003504E-01
  3.5982358E-01   9.9999998E-03   2.8004053E-01
  3.5983172E-01   9.9999998E-03   3.0004624E-01
  3.7979096E-01   9.9999998E-03   1.6001877E-01
  3.7978831E-01   9.9999998E-03   1.8002236E-01
  3.7978637E-01   9.9999998E-03   2.0002630E-01
  3.7978563E-01   9.9999998E-03   2.2003055E-01
  3.7978673E-01   9.9999998E-03   2.4003513E-01
  3.7979022E-01   9.9999998E-03   2.6004013E-01
  3.7979648E-01   9.9999998E-03   2.8004614E-01
  3.7980562E-01   9.9999998E-03   3.0005243E-01
  3.9976117E-01   9.9999998E-03   1.6002153E-01
  3.9975795E-01   9.9999998E-03   1.8002565E-01
  3.9975551E-01   9.9999998E-03   2.0003018E-01
  3.9975443E-01   9.9999998E-03   2.2003502E-01
  3.9975542E-01   9.9999998E-03   2.4004015E-01
  3.9975911E-01   9.9999998E-03   2.6004571E-01
  3.9976600E-01   9.9999998E-03   2.8005233E-01
  3.9977622E-01   9.9999998E-03   3.0005935E-01
  4.1972771E-01   9.9999998E-03   1.6002448E-01
  4.1972390E-01   9.9999998E-03   1.8002917E-01
  4.1972089E-01   9.9999998E-03   2.0003429E-01
  4.1971943E-01   9.9999998E-03   2.2003978E-01
  4.1972026E-01   9.9999998E-03   2.4004559E-01
  4.1972417E-01   9.9999998E-03   2.6005182E-01
  4.1973168E-01   9.9999998E-03   2.8005925E-01
  4.1974309E-01   9.9999998E-03   3.0006716E-01
  4.3969035E-01   9.9999998E-03   1.6002774E-01
  4.3968579E-01   9.9999998E-03   1.8003301E-01
  4.3968213E-01   9.9999998E-03   2.0003876E-01
  4.3968013E-01   9.9999998E-03   2.2004494E-01
  4.3968076E-01   9.9999998E-03   2.4005149E-01
  4.3968484E-01   9.9999998E-03   2.6005861E-01
  4.3969300E-01   9.9999998E-03   2.8006706E-01
  4.3970567E-01   9.9999998E-03   3.0007598E-01
  4.5964858E-01   9.9999998E-03   1.6003162E-01
  4.5964316E-01   9.9999998E-03   1.8003744E-01
  4.5963868E-01   9.9999998E-03   2.0004375E-01
  4.5963606E-01   9.9999998E-03   2.2005059E-01
  4.5963633E-01   9.9999998E-03   2.4005792E-01
  4.5964053E-01   9.9999998E-03   2.6006615E-01
  4.5964932E-01   9.9999998E-03   2.8007591E-01
  4.5966327E-01   9.9999998E-03   3.0008614E-01
  4.7960201E-01   9.9999998E-03   1.6003658E-01
  4.7959557E-01   9.9999998E-03   1.8004289E-01
  4.7959009E-01   9.9999998E-03   2.0004964E-01
  4.7958663E-01   9.9999998E-03   2.2005694E-01
  4.7958639E-01   9.9999998E-03   2.4006496E-01
  4.7959051E-01   9.9999998E-03   2.6007444E-01
  4.7959977E-01   9.9999998E-03   2.8008607E-01
  4.7961491E-01   9.9999998E-03   3.0009797E-01
  4.9955016E-01   9.9999998E-03   1.6004333E-01
  4.9954256E-01   9.9999998E-03   1.8005008E-01
  4.9953592E-01   9.9999998E-03   2.0005707E-01
  4.9953139E-01   9.9999998E-03   2.2006455E-01
  4.9953032E-01   9.9999998E-03   2.4007297E-01
  4.9953398E-01   9.9999998E-03   2.6008371E-01
  4.9954334E-01   9.9999998E-03   2.8009781E-01
  4.9955916E-01   9.9999998E-03   3.0011192E-01
  5.1949275E-01   9.9999998E-03   1.6005275E-01
  5.1948386E-01   9.9999998E-03   1.8005995E-01
  5.1947588E-01   9.9999998E-03   2.0006707E-01
  5.1947004E-01   9.9999998E-03   2.2007440E-01
  5.1946771E-01   9.9999998E-03   2.4008273E-01
  5.1947033E-01   9.9999998E-03   2.6009437E-01
  5.1947886E-01   9.9999998E-03   2.8011158E-01
  5.1949424E-01   9.9999998E-03   3.0012861E-01
  5.3942984E-01   9.9999998E-03   1.6006570E-01
  5.3941971E-01   9.9999998E-03   1.8007365E-01
  5.3941035E-01   9.9999998E-03   2.0008102E-01
  5.3940290E-01   9.9999998E-03   2.2008801E-01
  5.3939885E-01   9.9999998E-03   2.4009563E-01
  5.3939956E-01   9.9999998E-03   2.6010764E-01
  5.3940582E-01   9.9999998E-03   2.8012821E-01
  5.3941840E-01   9.9999998E-03   3.0014887E-01
  5.5936271E-01   9.9999998E-03   1.6008312E-01
  5.5935144E-01   9.9999998E-03   1.8009226E-01
  5.5934066E-01   9.9999998E-03   2.0010027E-01
  5.5933154E-01   9.9999998E-03   2.2010717E-01
  5.5932528E-01   9.9999998E-03   2.4011368E-01
  5.5932295E-01   9.9999998E-03   2.6012534E-01
  5.5932510E-01   9.9999998E-03   2.8014931E-01
  5.5933172E-01   9.9999998E-03   3.0017403E-01
  5.7929397E-01   9.9999998E-03   1.6010520E-01
  5.7928175E-01   9.9999998E-03   1.8011642E-01
  5.7926989E-01   9.9999998E-03   2.0012577E-01
  5.7925916E-01   9.9999998E-03   2.2013320E-01
  5.7925034E-01   9.9999998E-03   2.4013907E-01
  5.7924420E-01   9.9999998E-03   2.6015061E-01
  5.7924038E-01   9.9999998E-03   2.8017762E-01
  5.7923764E-01   9.9999998E-03   3.0020621E-01
  5.9922779E-01   9.9999998E-03   1.6013147E-01
  5.9921443E-01   9.9999998E-03   1.8014491E-01
  5.9920150E-01   9.9999998E-03   2.0015652E-01
  5.9918940E-01   9.9999998E-03   2.2016592E-01
  5.9917849E-01   9.9999998E-03   2.4017353E-01
  5.9916866E-01   9.9999998E-03   2.6018786E-01
  5.9915799E-01   9.9999998E-03   2.8021762E-01
  5.9914422E-01   9.9999998E-03   3.0024883E-01
  6.1916822E-01   9.9999998E-03   1.6016130E-01
  6.1915356E-01   9.9999998E-03   1.8017709E-01
  6.1913902E-01   9.9999998E-03   2.0019154E-01
  6.1912549E-01   9.9999998E-03   2.2020529E-01
  6.1911207E-01   9.9999998E-03   2.4021834E-01
  6.1909926E-01   9.9999998E-03   2.6024047E-01
  6.1908489E-01   9.9999998E-03   2.8027594E-01
  6.1906195E-01   9.9999998E-03   3.0030704E-01
  6.3911813E-01   9.9999998E-03   1.6019365E-01
  6.3910246E-01   9.9999998E-03   1.8021283E-01
  6.3908589E-01   9.9999998E-03   2.0023149E-01
  6.3907015E-01   9.9999998E-03   2.2025259E-01
  6.3905579E-01   9.9999998E-03   2.4028119E-01
  6.3904250E-01   9.9999998E-03   2.6031896E-01
  6.3902658E-01   9.9999998E-03   2.8035635E-01
  6.3900131E-01   9.9999998E-03   3.0038425E-01
  6.5908158E-01   9.9999998E-03   1.6023108E-01
  6.5906578E-01   9.9999998E-03   1.8025556E-01
  6.5904921E-01   9.9999998E-03   2.0028339E-01
  6.5903413E-01   9.9999998E-03   2.2032166E-01
  6.5902221E-01   9.9999998E-03   2.4037459E-01
  6.5900940E-01   9.9999998E-03   2.6042259E-01
  6.5899283E-01   9.9999998E-03   2.8045186E-01
  6.5896952E-01   9.9999998E-03   3.0047408E-01
  6.7906779E-01   9.9999998E-03   1.6028440E-01
  6.7905265E-01   9.9999998E-03   1.8031666E-01
  6.7903721E-01   9.9999998E-03   2.0035663E-01
  6.7902535E-01   9.9999998E-03   2.2041444E-01
  6.7901814E-01   9.9999998E-03   2.4048457E-01
  6.7900610E-01   9.9999998E-03   2.6052436E-01
  6.7899173E-01   9.9999998E-03   2.8054067E-01
  6.7898405E-01   9.9999998E-03   3.0055633E-01
  6.9909441E-01   9.9999998E-03   1.6036268E-01
  6.9908202E-01   9.9999998E-03   1.8040514E-01
  6.9907027E-01   9.9999998E-03   2.0045732E-01
  6.9906437E-01   9.9999998E-03   2.2052513E-01
  6.9906300E-01   9.9999998E-03   2.4058825E-01
  6.9905281E-01   9.9999998E-03   2.6060766E-01
  6.9906294E-01   9.9999998E-03   2.8061011E-01
  6.9913310E-01   9.9999998E-03   3.0062199E-01
  7.1922266E-01   9.9999998E-03   1.6046308E-01
  7.1921152E-01   9.9999998E-03   1.8051231E-01
  7.1920300E-01   9.9999998E-03   2.0056818E-01
  7.1920186E-01   9.9999998E-03   2.2062223E-01
  7.1921831E-01   9.9999998E-03   2.4066080E-01
  7.1925980E-01   9.9999998E-03   2.6066265E-01
  7.1932745E-01   9.9999998E-03   2.8065851E-01
  7.1940958E-01   9.9999998E-03   3.0067042E-01
  7.3949492E-01   9.9999998E-03   1.6048826E-01
  7.3948920E-01   9.9999998E-03   1.8053648E-01
  7.3948610E-01   9.9999998E-03   2.0058934E-01
  7.3949122E-01   9.9999998E-03   2.2063878E-01
  7.3951072E-01   9.9999998E-03   2.4067366E-01
  7.3954487E-01   9.9999998E-03   2.6068091E-01
  7.3959059E-01   9.9999998E-03   2.8069130E-01
  7.3964399E-01   9.9999998E-03   3.0070481E-01
  7.5971311E-01   9.9999998E-03   1.6049489E-01
  7.5971258E-01   9.9999998E-03   1.8053962E-01
  7.5971389E-01   9.9999998E-03   2.0058803E-01
  7.5972015E-01   9.9999998E-03   2.2063628E-01
  7.5973392E-01   9.9999998E-03   2.4067220E-01
  7.5975478E-01   9.9999998E-03   2.6068825E-01
  7.5977981E-01   9.9999998E-03   2.8071544E-01
  7.5980955E-01   9.9999998E-03   3.0072954E-01
  7.7987540E-01   9.9999998E-03   1.6049421E-01
  7.7987736E-01   9.9999998E-03   1.8053609E-01
  7.7988034E-01   9.9999998E-03   2.0058176E-01
  7.7988535E-01   9.9999998E-03   2.2063039E-01
  7.7989280E-01   9.9999998E-03   2.4066976E-01
  7.7990174E-01   9.9999998E-03   2.6069471E-01
  7.7991056E-01   9.9999998E-03   2.8073126E-01
  7.7992171E-01   9.9999998E-03   3.0074614E-01
  8.0000883E-01   9.9999998E-03   1.6048960E-01
  8.0001217E-01   9.9999998E-03   1.8053009E-01
  8.0001557E-01   9.9999998E-03   2.0057522E-01
  8.0001855E-01   9.9999998E-03   2.2062719E-01
  8.0002010E-01   9.9999998E-03   2.4067035E-01
  8.0001885E-01   9.9999998E-03   2.6070023E-01
  8.0001521E-01   9.9999998E-03   2.8073928E-01
  8.0001116E-01   9.9999998E-03   3.0075470E-01
  8.2013786E-01   9.9999998E-03   1.6048273E-01
  8.2014287E-01   9.9999998E-03   1.8052310E-01
  8.2014722E-01   9.9999998E-03   2.0056911E-01
  8.2014906E-01   9.9999998E-03   2.2062655E-01
  8.2014567E-01   9.9999998E-03   2.4067342E-01
  8.2013607E-01   9.9999998E-03   2.6070318E-01
  8.2012272E-01   9.9999998E-03   2.8073984E-01
  8.2010484E-01   9.9999998E-03   3.0075541E-01
  8.4027326E-01   9.9999998E-03   1.6047359E-01
  8.4028095E-01   9.9999998E-03   1.8051438E-01
  8.4028769E-01   9.9999998E-03   2.0056133E-01
  8.4029007E-01   9.9999998E-03   2.2062190E-01
  8.4028298E-01   9.9999998E-03   2.4067017E-01
  8.4026659E-01   9.9999998E-03   2.6069731E-01
  8.4024453E-01   9.9999998E-03   2.8073090E-01
  8.4021354E-01   9.9999998E-03   3.0074671E-01
  8.6041200E-01   9.9999998E-03   1.6046125E-01
  8.6042339E-01   9.9999998E-03   1.8050228E-01
  8.6043388E-01   9.9999998E-03   2.0054950E-01
  8.6043853E-01   9.9999998E-03   2.2061040E-01
  8.6042893E-01   9.9999998E-03   2.4065788E-01
  8.6040670E-01   9.9999998E-03   2.6068220E-01
  8.6037666E-01   9.9999998E-03   2.8071353E-01
  8.6033261E-01   9.9999998E-03   3.0072978E-01
  8.8054490E-01   9.9999998E-03   1.6044471E-01
  8.8056058E-01   9.9999998E-03   1.8048534E-01
  8.8057548E-01   9.9999998E-03   2.0053186E-01
  8.8058305E-01   9.9999998E-03   2.2059104E-01
  8.8057166E-01   9.9999998E-03   2.4063648E-01
  8.8054401E-01   9.9999998E-03   2.6065907E-01
  8.8050687E-01   9.9999998E-03   2.8068915E-01
  8.8045096E-01   9.9999998E-03   3.0070603E-01
  9.0066278E-01   9.9999998E-03   1.6042344E-01
  9.0068245E-01   9.9999998E-03   1.8046288E-01
  9.0070158E-01   9.9999998E-03   2.0050772E-01
  9.0071076E-01   9.9999998E-03   2.2056243E-01
  9.0069735E-01   9.9999998E-03   2.4060613E-01
  9.0066582E-01   9.9999998E-03   2.6062936E-01
  9.0062290E-01   9.9999998E-03   2.8065893E-01
  9.0055817E-01   9.9999998E-03   3.0067667E-01
  9.2074537E-01   9.9999998E-03   1.6039783E-01
  9.2077219E-01   9.9999998E-03   1.8043552E-01
  9.2079937E-01   9.9999998E-03   2.0047770E-01
  9.2081201E-01   9.9999998E-03   2.2052537E-01
  9.2079628E-01   9.9999998E-03   2.4056813E-01
  9.2076319E-01   9.9999998E-03   2.6059404E-01
  9.2071575E-01   9.9999998E-03   2.8062436E-01
  9.2064679E-01   9.9999998E-03   3.0064300E-01
  9.4077033E-01   9.9999998E-03   1.6036968E-01
  9.4080091E-01   9.9999998E-03   1.8040593E-01
  9.4083542E-01   9.9999998E-03   2.0044544E-01
  9.4086593E-01   9.9999998E-03   2.2048773E-01
  9.4086611E-01   9.9999998E-03   2.4052522E-01
  9.4083375E-01   9.9999998E-03   2.6055479E-01
  9.4078332E-01   9.9999998E-03   2.8058633E-01
  9.4071287E-01   9.9999998E-03   3.0060613E-01
  9.6077275E-01   9.9999998E-03   1.6034119E-01
  9.6080458E-01   9.9999998E-03   1.8037596E-01
  9.6084076E-01   9.9999998E-03   2.0041253E-01
  9.6087760E-01   9.9999998E-03   2.2045393E-01
  9.6090037E-01   9.9999998E-03   2.4048559E-01
  9.6088254E-01   9.9999998E-03   2.6051310E-01
  9.6083230E-01   9.9999998E-03   2.8054586E-01
  9.6076268E-01   9.9999998E-03   3.0056646E-01
  9.8076659E-01   9.9999998E-03   1.6031432E-01
  9.8079932E-01   9.9999998E-03   1.8034714E-01
  9.8083669E-01   9.9999998E-03   2.0038007E-01
  9.8087656E-01   9.9999998E-03   2.2041918E-01
  9.8090875E-01   9.9999998E-03   2.4044932E-01
  9.8091394E-01   9.9999998E-03   2.6047122E-01
  9.8087245E-01   9.9999998E-03   2.8050345E-01
  9.8080701E-01   9.9999998E-03   3.0052426E-01
  1.0007564E+00   9.9999998E-03   1.6028963E-01
  1.0007900E+00   9.9999998E-03   1.8031952E-01
  1.0008283E+00   9.9999998E-03   2.0034975E-01
  1.0008701E+00   9.9999998E-03   2.2038336E-01
  1.0009086E+00   9.9999998E-03   2.4041210E-01
  1.0009298E+00   9.9999998E-03   2.6042986E-01
  1.0009084E+00   9.9999998E-03   2.8045964E-01
  1.0008546E+00   9.9999998E-03   3.0048054E-01
  1.0207437E+00   9.9999998E-03   1.6026612E-01
  1.0207783E+00   9.9999998E-03   1.8029405E-01
  1.0208182E+00   9.9999998E-03   2.0032194E-01
  1.0208620E+00   9.9999998E-03   2.2034980E-01
  1.0209059E+00   9.9999998E-03   2.4037468E-01
  1.0209383E+00   9.9999998E-03   2.6038936E-01
  1.0209441E+00   9.9999998E-03   2.8041592E-01
  1.0209123E+00   9.9999998E-03   3.0043647E-01
  1.0407284E+00   9.9999998E-03   1.6024382E-01
  1.0407649E+00   9.9999998E-03   1.8026984E-01
  1.0408067E+00   9.9999998E-03   2.0029370E-01
  1.0408540E+00   9.9999998E-03   2.2031820E-01
  1.0409027E+00   9.9999998E-03   2.4033928E-01
  1.0409460E+00   9.9999998E-03   2.6035240E-01
  1.0409832E+00   9.9999998E-03   2.8037429E-01
  1.0409889E+00   9.9999998E-03   3.0039299E-01
  1.0607117E+00   9.9999998E-03   1.6022217E-01
  1.0607504E+00   9.9999998E-03   1.8024538E-01
  1.0607951E+00   9.9999998E-03   2.0026612E-01
  1.0608470E+00   9.9999998E-03   2.2028807E-01
  1.0609007E+00   9.9999998E-03   2.4030735E-01
  1.0609571E+00   9.9999998E-03   2.6032016E-01
  1.0610151E+00   9.9999998E-03   2.8033903E-01
  1.0610628E+00   9.9999998E-03   3.0035540E-01
  1.0806946E+00   9.9999998E-03   1.6020107E-01
  1.0807352E+00   9.9999998E-03   1.8021992E-01
  1.0807844E+00   9.9999998E-03   2.0023897E-01
  1.0808412E+00   9.9999998E-03   2.2026002E-01
  1.0808996E+00   9.9999998E-03   2.4027669E-01
  1.0809652E+00   9.9999998E-03   2.6028976E-01
  1.0810349E+00   9.9999998E-03   2.8030813E-01
  1.0810958E+00   9.9999998E-03   3.0032235E-01
  1.1006774E+00   9.9999998E-03   1.6017808E-01
  1.1007218E+00   9.9999998E-03   1.8019488E-01
  1.1007758E+00   9.9999998E-03   2.0021315E-01
  1.1008365E+00   9.9999998E-03   2.2023205E-01
  1.1008991E+00   9.9999998E-03   2.4024630E-01
  1.1009672E+00   9.9999998E-03   2.6025975E-01
  1.1010406E+00   9.9999998E-03   2.8027973E-01
  1.1206628E+00   9.9999998E-03   1.6015519E-01
  1.1207113E+00   9.9999998E-03   1.8017091E-01
  1.1207695E+00   9.9999998E-03   2.0018828E-01
  1.1208339E+00   9.9999998E-03   2.2020540E-01
  1.1208985E+00   9.9999998E-03   2.4021840E-01
  1.1209664E+00   9.9999998E-03   2.6023543E-01
  1.1210326E+00   9.9999998E-03   2.8025535E-01
  1.1406516E+00   9.9999998E-03   1.6013385E-01
  1.1407044E+00   9.9999998E-03   1.8014942E-01
  1.1407669E+00   9.9999998E-03   2.0016734E-01
  1.1408342E+00   9.9999998E-03   2.2018419E-01
  1.1408976E+00   9.9999998E-03   2.4019842E-01
  1.1409627E+00   9.9999998E-03   2.6021892E-01
  1.1606450E+00   9.9999998E-03   1.6011599E-01
  1.1607029E+00   9.9999998E-03   1.8013339E-01
  1.1607703E+00   9.9999998E-03   2.0015326E-01
  1.1608369E+00   9.9999998E-03   2.2017008E-01
  1.1608986E+00   9.9999998E-03   2.4018875E-01
  1.1609508E+00   9.9999998E-03   2.6020634E-01
  1.1806458E+00   9.9999998E-03   1.6010539E-01
  1.1807114E+00   9.9999998E-03   1.8012701E-01
  1.1807787E+00   9.9999998E-03   2.0014735E-01
  1.1808401E+00   9.9999998E-03   2.2016485E-01
  1.1808923E+00   9.9999998E-03   2.4018353E-01
  1.2006601E+00   9.9999998E-03   1.6010648E-01
  1.2007262E+00   9.9999998E-03   1.8012774E-01
  1.2007880E+00   9.9999998E-03   2.0014799E-01
  1.2008362E+00   9.9999998E-03   2.2016348E-01
  1.2206786E+00   9.9999998E-03   1.6011195E-01
  1.2207351E+00   9.9999998E-03   1.8013087E-01
  1.2207845E+00   9.9999998E-03   2.0014894E-01
  1.2208092E+00   9.9999998E-03   2.2015373E-01
  1.2406819E+00   9.9999998E-03   1.6011360E-01
  1.2407235E+00   9.9999998E-03   1.8012850E-01
  1.2606624E+00   9.9999998E-03   1.6010900E-01
VERTICES 2975 5950
1 0
1 1
1 2
1 3
1 4
1 5
1 6
1 7
1 8
1 9
1 10
1 11
1 12
1 13
1 14
1 15
1 16
1 17
1 18
1 19
1 20
1 21
1 22
1 23
1 24
1 25
1 26
1 27
1 28
1 29
1 30
1 31
1 32
1 33
1 34
1 35
1 36
1 37
1 38
1 39
1 40
1 41
1 42
1 43
1 44
1 45
1 46
1 47
1 48
1 49
1 50
1 51
1 52
1 53
1 54
1 55
1 56
1 57
1 58
1 59
1 60
1 61
1 62
1 63
1 64
1 65
1 66
1 67
1 68
1 69
1 70
1 71
1 72
1 73
1 74
1 75
1 76
1 77
1 78
1 79
1 80
1 81
1 82
1 83
1 84
1 85
1 86
1 87
1 88
1 89
1 90
1 91
1 92
1 93
1 94
1 95
1 96
1 97
1 98
1 99
1 100
1 101
1 102
1 103
1 104
1 105
1 106
1 107
1 108
1 109
1 110
1 111
1 112
1 113
1 114
1 115
1 116
1 117
1 118
1 119
1 120
1 121
1 122
1 123
1 124
1 125
1 126
1 127
1 128
1 129
1 130
1 131
1 132
1 133
1 134
1 135
1 136
1 137
1 138
1 139
1 140
1 141
1 142
1 143
1 144
1 145
1 146
1 147
1 148
1 149
1 150
1 151
1 152
1 153
1 154
1 155
1 156
1 157
1 158
1 159
1 160
1 161
1 162
1 163
1 164
1 165
1 166
1 167
1 168
1 169
1 170
1 171
1 172
1 173
1 174
1 175
1 176
1 177
1 178
1 179
1 180
1 181
1 182
1 183
1 184
1 185
1 186
1 187
1 188
1 189
1 190
1 191
1 192
1 193
1 194
1 195
1 196
1 197
1 198
1 199
1 200
1 201
1 202
1 203
1 204
1 205
1 206
1 207
1 208
1 209
1 210
1 211
1 212
1 213
1 214
1 215
1 216
1 217
1 218
1 219
1 220
1 221
1 222
1 223
1 224
1 225
1 226
1 227
1 228
1 229
1 230
1 231
1 232
1 233
1 234
1 235
1 236
1 237
1 238
1 239
1 240
1 241
1 242
1 243
1 244
1 245
1 246
1 247
1 248
1 249
1 250
1 251
1 252
1 253
1 254
1 255
1 256
1 257
1 258
1 259
1 260
1 261
1 262
1 263
1 264
1 265
1 266
1 267
1 268
1 269
1 270
1 271
1 272
1 273
1 274
1 275
1 276
1 277
1 278
1 279
1 280
1 281
1 282
1 283
1 284
1 285
1 286
1 287
1 288
1 289
1 290
1 291
1 292
1 293
1 294
1 295
1 296
1 297
1 298
1 299
1 300
1 301
1 302
1 303
1 304
1 305
1 306
1 307
1 308
1 309
1 310
1 311
1 312
1 313
1 314
1 315
1 316
1 317
1 318
1 319
1 320
1 321
1 322
1 323
1 324
1 325
1 326
1 327
1 328
1 329
1 330
1 331
1 332
1 333
1 334
1 335
1 336
1 337
1 338
1 339
1 340
1 341
1 342
1 343
1 344
1 345
1 346
1 347
1 348
1 349
1 350
1 351
1 352
1 353
1 354
1 355
1 356
1 357
1 358
1 359
1 360
1 361
1 362
1 363
1 364
1 365
1 366
1 367
1 368
1 369
1 370
1 371
1 372
1 373
1 374
1 375
1 376
1 377
1 378
1 379
1 380
1 381
1 382
1 383
1 384
1 385
1 386
1 387
1 388
1 389
1 390
1 391
1 392
1 393
1 394
1 395
1 396
1 397
1 398
1 399
1 400
1 401
1 402
1 403
1 404
1 405
1 406
1 407
1 408
1 409
1 410
1 411
1 412
1 413
1 414
1 415
1 416
1 417
1 418
1 419
1 420
1 421
1 422
1 423
1 424
1 425
1 426
1 427
1 428
1 429
1 430
1 431
1 432
1 433
1 434
1 435
1 436
1 437
1 438
1 439
1 440
1 441
1 442
1 443
1 444
1 445
1 446
1 447
1 448
1 449
1 450
1 451
1 452
1 453
1 454
1 455
1 456
1 457
1 458
1 459
1 460
1 461
1 462
1 463
1 464
1 465
1 466
1 467
1 468
1 469
1 470
1 471
1 472
1 473
1 474
1 475
1 476
1 477
1 478
1 479
1 480
1 481
1 482
1 483
1 484
1 485
1 486
1 487
1 488
1 489
1 490
1 491
1 492
1 493
1 494
1 495
1 496
1 497
1 498
1 499
1 500
1 501
1 502
1 503
1 504
1 505
1 506
1 507
1 508
1 509
1 510
1 511
1 512
1 513
1 514
1 515
1 516
1 517
1 518
1 519
1 520
1 521
1 522
1 523
1 524
1 525
1 526
1 527
1 528
1 529
1 530
1 531
1 532
1 533
1 534
1 535
1 536
1 537
1 538
1 539
1 540
1 541
1 542
1 543
1 544
1 545
1 546
1 547
1 548
1 549
1 550
1 551
1 552
1 553
1 554
1 555
1 556
1 557
1 558
1 559
1 560
1 561
1 562
1 563
1 564
1 565
1 566
1 567
1 568
1 569
1 570
1 571
1 572
1 573
1 574
1 575
1 576
1 577
1 578
1 579
1 580
1 581
1 582
1 583
1 584
1 585
1 586
1 587
1 588
1 589
1 590
1 591
1 592
1 593
1 594
1 595
1 596
1 597
1 598
1 599
1 600
1 601
1 602
1 603
1 604
1 605
1 606
1 607
1 608
1 609
1 610
1 611
1 612
1 613
1 614
1 615
1 616
1 617
1 618
1 619
1 620
1 621
1 622
1 623
1 624
1 625
1 626
1 627
1 628
1 629
1 630
1 631
1 632
1 633
1 634
1 635
1 636
1 637
1 638
1 639
1 640
1 641
1 642
1 643
1 644
1 645
1 646
1 647
1 648
1 649
1 650
1 651
1 652
1 653
1 654
1 655
1 656
1 657
1 658
1 659
1 660
1 661
1 662
1 663
1 664
1 665
1 666
1 667
1 668
1 669
1 670
1 671
1 672
1 673
1 674
1 675
1 676
1 677
1 678
1 679
1 680
1 681
1 682
1 683
1 684
1 685
1 686
1 687
1 688
1 689
1 690
1 691
1 692
1 693
1 694
1 695
1 696
1 697
1 698
1 699
1 700
1 701
1 702
1 703
1 704
1 705
1 706
1 707
1 708
1 709
1 710
1 711
1 712
1 713
1 714
1 715
1 716
1 717
1 718
1 719
1 720
1 721
1 722
1 723
1 724
1 725
1 726
1 727
1 728
1 729
1 730
1 731
1 732
1 733
1 734
1 735
1 736
1 737
1 738
1 739
1 740
1 741
1 742
1 743
1 744
1 745
1 746
1 747
1 748
1 749
1 750
1 751
1 752
1 753
1 754
1 755
1 756
1 757
1 758
1 759
1 760
1 761
1 762
1 763
1 764
1 765
1 766
1 767
1 768
1 769
1 770
1 771
1 772
1 773
1 774
1 775
1 776
1 777
1 778
1 779
1 780
1 781
1 782
1 783
1 784
1 785
1 786
1 787
1 788
1 789
1 790
1 791
1 792
1 793
1 794
1 795
1 796
1 797
1 798
1 799
1 800
1 801
1 802
1 803
1 804
1 805
1 806
1 807
1 808
1 809
1 810
1 811
1 812
1 813
1 814
1 815
1 816
1 817
1 818
1 819
1 820
1 821
1 822
1 823
1 824
1 825
1 826
1 827
1 828
1 829
1 830
1 831
1 832
1 833
1 834
1 835
1 836
1 837
1 838
1 839
1 840
1 841
1 842
1 843
1 844
1 845
1 846
1 847
1 848
1 849
1 850
1 851
1 852
1 853
1 854
1 855
1 856
1 857
1 858
1 859
1 860
1 861
1 862
1 863
1 864
1 865
1 866
1 867
1 868
1 869
1 870
1 871
1 872
1 873
1 874
1 875
1 876
1 877
1 878
1 879
1 880
1 881
1 882
1 883
1 884
1 885
1 886
1 887
1 888
1 889
1 890
1 891
1 892
1 893
1 894
1 895
1 896
1 897
1 898
1 899
1 900
1 901
1 902
1 903
1 904
1 905
1 906
1 907
1 908
1 909
1 910
1 911
1 912
1 913
1 914
1 915
1 916
1 917
1 918
1 919
1 920
1 921
1 922
1 923
1 924
1 925
1 926
1 927
1 928
1 929
1 930
1 931
1 932
1 933
1 934
1 935
1 936
1 937
1 938
1 939
1 940
1 941
1 942
1 943
1 944
1 945
1 946
1 947
1 948
1 949
1 950
1 951
1 952
1 953
1 954
1 955
1 956
1 957
1 958
1 959
1 960
1 961
1 962
1 963
1 964
1 965
1 966
1 967
1 968
1 969
1 970
1 971
1 972
1 973
1 974
1 975
1 976
1 977
1 978
1 979
1 980
1 981
1 982
1 983
1 984
1 985
1 986
1 987
1 988
1 989
1 990
1 991
1 992
1 993
1 994
1 995
1 996
1 997
1 998
1 999
1 1000
1 1001
1 1002
1 1003
1 1004
1 1005
1 1006
1 1007
1 1008
1 1009
1 1010
1 1011
1 1012
1 1013
1 1014
1 1015
1 1016
1 1017
1 1018
1 1019
1 1020
1 1021
1 1022
1 1023
1 1024
1 1025
1 1026
1 1027
1 1028
1 1029
1 1030
1 1031
1 1032
1 1033
1 1034
1 1035
1 1036
1 1037
1 1038
1 1039
1 1040
1 1041
1 1042
1 1043
1 1044
1 1045
1 1046
1 1047
1 1048
1 1049
1 1050
1 1051
1 1052
1 1053
1 1054
1 1055
1 1056
1 1057
1 1058
1 1059
1 1060
1 1061
1 1062
1 1063
1 1064
1 1065
1 1066
1 1067
1 1068
1 1069
1 1070
1 1071
1 1072
1 1073
1 1074
1 1075
1 1076
1 1077
1 1078
1 1079
1 1080
1 1081
1 1082
1 1083
1 1084
1 1085
1 1086
1 1087
1 1088
1 1089
1 1090
1 1091
1 1092
1 1093
1 1094
1 1095
1 1096
1 1097
1 1098
1 1099
1 1100
1 1101
1 1102
1 1103
1 1104
1 1105
1 1106
1 1107
1 1108
1 1109
1 1110
1 1111
1 1112
1 1113
1 1114
1 1115
1 1116
1 1117
1 1118
1 1119
1 1120
1 1121
1 1122
1 1123
1 1124
1 1125
1 1126
1 1127
1 1128
1 1129
1 1130
1 1131
1 1132
1 1133
1 1134
1 1135
1 1136
1 1137
1 1138
1 1139
1 1140
1 1141
1 1142
1 1143
1 1144
1 1145
1 1146
1 1147
1 1148
1 1149
1 1150
1 1151
1 1152
1 1153
1 1154
1 1155
1 1156
1 1157
1 1158
1 1159
1 1160
1 1161
1 1162
1 1163
1 1164
1 1165
1 1166
1 1167
1 1168
1 1169
1 1170
1 1171
1 1172
1 1173
1 1174
1 1175
1 1176
1 1177
1 1178
1 1179
1 1180
1 1181
1 1182
1 1183
1 1184
1 1185
1 1186
1 1187
1 1188
1 1189
1 1190
1 1191
1 1192
1 1193
1 1194
1 1195
1 1196
1 1197
1 1198
1 1199
1 1200
1 1201
1 1202
1 1203
1 1204
1 1205
1 1206
1 1207
1 1208
1 1209
1 1210
1 1211
1 1212
1 1213
1 1214
1 1215
1 1216
1 1217
1 1218
1 1219
1 1220
1 1221
1 1222
1 1223
1 1224
1 1225
1 1226
1 1227
1 1228
1 1229
1 1230
1 1231
1 1232
1 1233
1 1234
1 1235
1 1236
1 1237
1 1238
1 1239
1 1240
1 1241
1 1242
1 1243
1 1244
1 1245
1 1246
1 1247
1 1248
1 1249
1 1250
1 1251
1 1252
1 1253
1 1254
1 1255
1 1256
1 1257
1 1258
1 1259
1 1260
1 1261
1 1262
1 1263
1 1264
1 1265
1 1266
1 1267
1 1268
1 1269
1 1270
1 1271
1 1272
1 1273
1 1274
1 1275
1 1276
1 1277
1 1278
1 1279
1 1280
1 1281
1 1282
1 1283
1 1284
1 1285
1 1286
1 1287
1 1288
1 1289
1 1290
1 1291
1 1292
1 1293
1 1294
1 1295
1 1296
1 1297
1 1298
1 1299
1 1300
1 1301
1 1302
1 1303
1 1304
1 1305
1 1306
1 1307
1 1308
1 1309
1 1310
1 1311
1 1312
1 1313
1 1314
1 1315
1 1316
1 1317
1 1318
1 1319
1 1320
1 1321
1 1322
1 1323
1 1324
1 1325
1 1326
1 1327
1 1328
1 1329
1 1330
1 1331
1 1332
1 1333
1 1334
1 1335
1 1336
1 1337
1 1338
1 1339
1 1340
1 1341
1 1342
1 1343
1 1344
1 1345
1 1346
1 1347
1 1348
1 1349
1 1350
1 1351
1 1352
1 1353
1 1354
1 1355
1 1356
1 1357
1 1358
1 1359
1 1360
1 1361
1 1362
1 1363
1 1364
1 1365
1 1366
1 1367
1 1368
1 1369
1 1370
1 1371
1 1372
1 1373
1 1374
1 1375
1 1376
1 1377
1 1378
1 1379
1 1380
1 1381
1 1382
1 1383
1 1384
1 1385
1 1386
1 1387
1 1388
1 1389
1 1390
1 1391
1 1392
1 1393
1 1394
1 1395
1 1396
1 1397
1 1398
1 1399
1 1400
1 1401
1 1402
1 1403
1 1404
1 1405
1 1406
1 1407
1 1408
1 1409
1 1410
1 1411
1 1412
1 1413
1 1414
1 1415
1 1416
1 1417
1 1418
1 1419
1 1420
1 1421
1 1422
1 1423
1 1424
1 1425
1 1426
1 1427
1 1428
1 1429
1 1430
1 1431
1 1432
1 1433
1 1434
1 1435
1 1436
1 1437
1 1438
1 1439
1 1440
1 1441
1 1442
1 1443
1 1444
1 1445
1 1446
1 1447
1 1448
1 1449
1 1450
1 1451
1 1452
1 1453
1 1454
1 1455
1 1456
1 1457
1 1458
1 1459
1 1460
1 1461
1 1462
1 1463
1 1464
1 1465
1 1466
1 1467
1 1468
1 1469
1 1470
1 1471
1 1472
1 1473
1 1474
1 1475
1 1476
1 1477
1 1478
1 1479
1 1480
1 1481
1 1482
1 1483
1 1484
1 1485
1 1486
1 1487
1 1488
1 1489
1 1490
1 1491
1 1492
1 1493
1 1494
1 1495
1 1496
1 1497
1 1498
1 1499
1 1500
1 1501
1 1502
1 1503
1 1504
1 1505
1 1506
1 1507
1 1508
1 1509
1 1510
1 1511
1 1512
1 1513
1 1514
1 1515
1 1516
1 1517
1 1518
1 1519
1 1520
1 1521
1 1522
1 1523
1 1524
1 1525
1 1526
1 1527
1 1528
1 1529
1 1530
1 1531
1 1532
1 1533
1 1534
1 1535
1 1536
1 1537
1 1538
1 1539
1 1540
1 1541
1 1542
1 1543
1 1544
1 1545
1 1546
1 1547
1 1548
1 1549
1 1550
1 1551
1 1552
1 1553
1 1554
1 1555
1 1556
1 1557
1 1558
1 1559
1 1560
1 1561
1 1562
1 1563
1 1564
1 1565
1 1566
1 1567
1 1568
1 1569
1 1570
1 1571
1 1572
1 1573
1 1574
1 1575
1 1576
1 1577
1 1578
1 1579
1 1580
1 1581
1 1582
1 1583
1 1584
1 1585
1 1586
1 1587
1 1588
1 1589
1 1590
1 1591
1 1592
1 1593
1 1594
1 1595
1 1596
1 1597
1 1598
1 1599
1 1600
1 1601
1 1602
1 1603
1 1604
1 1605
1 1606
1 1607
1 1608
1 1609
1 1610
1 1611
1 1612
1 1613
1 1614
1 1615
1 1616
1 1617
1 1618
1 1619
1 1620
1 1621
1 1622
1 1623
1 1624
1 1625
1 1626
1 1627
1 1628
1 1629
1 1630
1 1631
1 1632
1 1633
1 1634
1 1635
1 1636
1 1637
1 1638
1 1639
1 1640
1 1641
1 1642
1 1643
1 1644
1 1645
1 1646
1 1647
1 1648
1 1649
1 1650
1 1651
1 1652
1 1653
1 1654
1 1655
1 1656
1 1657
1 1658
1 1659
1 1660
1 1661
1 1662
1 1663
1 1664
1 1665
1 1666
1 1667
1 1668
1 1669
1 1670
1 1671
1 1672
1 1673
1 1674
1 1675
1 1676
1 1677
1 1678
1 1679
1 1680
1 1681
1 1682
1 1683
1 1684
1 1685
1 1686
1 1687
1 1688
1 1689
1 1690
1 1691
1 1692
1 1693
1 1694
1 1695
1 1696
1 1697
1 1698
1 1699
1 1700
1 1701
1 1702
1 1703
1 1704
1 1705
1 1706
1 1707
1 1708
1 1709
1 1710
1 1711
1 1712
1 1713
1 1714
1 1715
1 1716
1 1717
1 1718
1 1719
1 1720
1 1721
1 1722
1 1723
1 1724
1 1725
1 1726
1 1727
1 1728
1 1729
1 1730
1 1731
1 1732
1 1733
1 1734
1 1735
1 1736
1 1737
1 1738
1 1739
1 1740
1 1741
1 1742
1 1743
1 1744
1 1745
1 1746
1 1747
1 1748
1 1749
1 1750
1 1751
1 1752
1 1753
1 1754
1 1755
1 1756
1 1757
1 1758
1 1759
1 1760
1 1761
1 1762
1 1763
1 1764
1 1765
1 1766
1 1767
1 1768
1 1769
1 1770
1 1771
1 1772
1 1773
1 1774
1 1775
1 1776
1 1777
1 1778
1 1779
1 1780
1 1781
1 1782
1 1783
1 1784
1 1785
1 1786
1 1787
1 1788
1 1789
1 1790
1 1791
1 1792
1 1793
1 1794
1 1795
1 1796
1 1797
1 1798
1 1799
1 1800
1 1801
1 1802
1 1803
1 1804
1 1805
1 1806
1 1807
1 1808
1 1809
1 1810
1 1811
1 1812
1 1813
1 1814
1 1815
1 1816
1 1817
1 1818
1 1819
1 1820
1 1821
1 1822
1 1823
1 1824
1 1825
1 1826
1 1827
1 1828
1 1829
1 1830
1 1831
1 1832
1 1833
1 1834
1 1835
1 1836
1 1837
1 1838
1 1839
1 1840
1 1841
1 1842
1 1843
1 1844
1 1845
1 1846
1 1847
1 1848
1 1849
1 1850
1 1851
1 1852
1 1853
1 1854
1 1855
1 1856
1 1857
1 1858
1 1859
1 1860
1 1861
1 1862
1 1863
1 1864
1 1865
1 1866
1 1867
1 1868
1 1869
1 1870
1 1871
1 1872
1 1873
1 1874
1 1875
1 1876
1 1877
1 1878
1 1879
1 1880
1 1881
1 1882
1 1883
1 1884
1 1885
1 1886
1 1887
1 1888
1 1889
1 1890
1 1891
1 1892
1 1893
1 1894
1 1895
1 1896
1 1897
1 1898
1 1899
1 1900
1 1901
1 1902
1 1903
1 1904
1 1905
1 1906
1 1907
1 1908
1 1909
1 1910
1 1911
1 1912
1 1913
1 1914
1 1915
1 1916
1 1917
1 1918
1 1919
1 1920
1 1921
1 1922
1 1923
1 1924
1 1925
1 1926
1 1927
1 1928
1 1929
1 1930
1 1931
1 1932
1 1933
1 1934
1 1935
1 1936
1 1937
1 1938
1 1939
1 1940
1 1941
1 1942
1 1943
1 1944
1 1945
1 1946
1 1947
1 1948
1 1949
1 1950
1 1951
1 1952
1 1953
1 1954
1 1955
1 1956
1 1957
1 1958
1 1959
1 1960
1 1961
1 1962
1 1963
1 1964
1 1965
1 1966
1 1967
1 1968
1 1969
1 1970
1 1971
1 1972
1 1973
1 1974
1 1975
1 1976
1 1977
1 1978
1 1979
1 1980
1 1981
1 1982
1 1983
1 1984
1 1985
1 1986
1 1987
1 1988
1 1989
1 1990
1 1991
1 1992
1 1993
1 1994
1 1995
1 1996
1 1997
1 1998
1 1999
1 2000
1 2001
1 2002
1 2003
1 2004
1 2005
1 2006
1 2007
1 2008
1 2009
1 2010
1 2011
1 2012
1 2013
1 2014
1 2015
1 2016
1 2017
1 2018
1 2019
1 2020
1 2021
1 2022
1 2023
1 2024
1 2025
1 2026
1 2027
1 2028
1 2029
1 2030
1 2031
1 2032
1 2033
1 2034
1 2035
1 2036
1 2037
1 2038
1 2039
1 2040
1 2041
1 2042
1 2043
1 2044
1 2045
1 2046
1 2047
1 2048
1 2049
1 2050
1 2051
1 2052
1 2053
1 2054
1 2055
1 2056
1 2057
1 2058
1 2059
1 2060
1 2061
1 2062
1 2063
1 2064
1 2065
1 2066
1 2067
1 2068
1 2069
1 2070
1 2071
1 2072
1 2073
1 2074
1 2075
1 2076
1 2077
1 2078
1 2079
1 2080
1 2081
1 2082
1 2083
1 2084
1 2085
1 2086
1 2087
1 2088
1 2089
1 2090
1 2091
1 2092
1 2093
1 2094
1 2095
1 2096
1 2097
1 2098
1 2099
1 2100
1 2101
1 2102
1 2103
1 2104
1 2105
1 2106
1 2107
1 2108
1 2109
1 2110
1 2111
1 2112
1 2113
1 2114
1 2115
1 2116
1 2117
1 2118
1 2119
1 2120
1 2121
1 2122
1 2123
1 2124
1 2125
1 2126
1 2127
1 2128
1 2129
1 2130
1 2131
1 2132
1 2133
1 2134
1 2135
1 2136
1 2137
1 2138
1 2139
1 2140
1 2141
1 2142
1 2143
1 2144
1 2145
1 2146
1 2147
1 2148
1 2149
1 2150
1 2151
1 2152
1 2153
1 2154
1 2155
1 2156
1 2157
1 2158
1 2159
1 2160
1 2161
1 2162
1 2163
1 2164
1 2165
1 2166
1 2167
1 2168
1 2169
1 2170
1 2171
1 2172
1 2173
1 2174
1 2175
1 2176
1 2177
1 2178
1 2179
1 2180
1 2181
1 2182
1 2183
1 2184
1 2185
1 2186
1 2187
1 2188
1 2189
1 2190
1 2191
1 2192
1 2193
1 2194
1 2195
1 2196
1 2197
1 2198
1 2199
1 2200
1 2201
1 2202
1 2203
1 2204
1 2205
1 2206
1 2207
1 2208
1 2209
1 2210
1 2211
1 2212
1 2213
1 2214
1 2215
1 2216
1 2217
1 2218
1 2219
1 2220
1 2221
1 2222
1 2223
1 2224
1 2225
1 2226
1 2227
1 2228
1 2229
1 2230
1 2231
1 2232
1 2233
1 2234
1 2235
1 2236
1 2237
1 2238
1 2239
1 2240
1 2241
1 2242
1 2243
1 2244
1 2245
1 2246
1 2247
1 2248
1 2249
1 2250
1 2251
1 2252
1 2253
1 2254
1 2255
1 2256
1 2257
1 2258
1 2259
1 2260
1 2261
1 2262
1 2263
1 2264
1 2265
1 2266
1 2267
1 2268
1 2269
1 2270
1 2271
1 2272
1 2273
1 2274
1 2275
1 2276
1 2277
1 2278
1 2279
1 2280
1 2281
1 2282
1 2283
1 2284
1 2285
1 2286
1 2287
1 2288
1 2289
1 2290
1 2291
1 2292
1 2293
1 2294
1 2295
1 2296
1 2297
1 2298
1 2299
1 2300
1 2301
1 2302
1 2303
1 2304
1 2305
1 2306
1 2307
1 2308
1 2309
1 2310
1 2311
1 2312
1 2313
1 2314
1 2315
1 2316
1 2317
1 2318
1 2319
1 2320
1 2321
1 2322
1 2323
1 2324
1 2325
1 2326
1 2327
1 2328
1 2329
1 2330
1 2331
1 2332
1 2333
1 2334
1 2335
1 2336
1 2337
1 2338
1 2339
1 2340
1 2341
1 2342
1 2343
1 2344
1 2345
1 2346
1 2347
1 2348
1 2349
1 2350
1 2351
1 2352
1 2353
1 2354
1 2355
1 2356
1 2357
1 2358
1 2359
1 2360
1 2361
1 2362
1 2363
1 2364
1 2365
1 2366
1 2367
1 2368
1 2369
1 2370
1 2371
1 2372
1 2373
1 2374
1 2375
1 2376
1 2377
1 2378
1 2379
1 2380
1 2381
1 2382
1 2383
1 2384
1 2385
1 2386
1 2387
1 2388
1 2389
1 2390
1 2391
1 2392
1 2393
1 2394
1 2395
1 2396
1 2397
1 2398
1 2399
1 2400
1 2401
1 2402
1 2403
1 2404
1 2405
1 2406
1 2407
1 2408
1 2409
1 2410
1 2411
1 2412
1 2413
1 2414
1 2415
1 2416
1 2417
1 2418
1 2419
1 2420
1 2421
1 2422
1 2423
1 2424
1 2425
1 2426
1 2427
1 2428
1 2429
1 2430
1 2431
1 2432
1 2433
1 2434
1 2435
1 2436
1 2437
1 2438
1 2439
1 2440
1 2441
1 2442
1 2443
1 2444
1 2445
1 2446
1 2447
1 2448
1 2449
1 2450
1 2451
1 2452
1 2453
1 2454
1 2455
1 2456
1 2457
1 2458
1 2459
1 2460
1 2461
1 2462
1 2463
1 2464
1 2465
1 2466
1 2467
1 2468
1 2469
1 2470
1 2471
1 2472
1 2473
1 2474
1 2475
1 2476
1 2477
1 2478
1 2479
1 2480
1 2481
1 2482
1 2483
1 2484
1 2485
1 2486
1 2487
1 2488
1 2489
1 2490
1 2491
1 2492
1 2493
1 2494
1 2495
1 2496
1 2497
1 2498
1 2499
1 2500
1 2501
1 2502
1 2503
1 2504
1 2505
1 2506
1 2507
1 2508
1 2509
1 2510
1 2511
1 2512
1 2513
1 2514
1 2515
1 2516
1 2517
1 2518
1 2519
1 2520
1 2521
1 2522
1 2523
1 2524
1 2525
1 2526
1 2527
1 2528
1 2529
1 2530
1 2531
1 2532
1 2533
1 2534
1 2535
1 2536
1 2537
1 2538
1 2539
1 2540
1 2541
1 2542
1 2543
1 2544
1 2545
1 2546
1 2547
1 2548
1 2549
1 2550
1 2551
1 2552
1 2553
1 2554
1 2555
1 2556
1 2557
1 2558
1 2559
1 2560
1 2561
1 2562
1 2563
1 2564
1 2565
1 2566
1 2567
1 2568
1 2569
1 2570
1 2571
1 2572
1 2573
1 2574
1 2575
1 2576
1 2577
1 2578
1 2579
1 2580
1 2581
1 2582
1 2583
1 2584
1 2585
1 2586
1 2587
1 2588
1 2589
1 2590
1 2591
1 2592
1 2593
1 2594
1 2595
1 2596
1 2597
1 2598
1 2599
1 2600
1 2601
1 2602
1 2603
1 2604
1 2605
1 2606
1 2607
1 2608
1 2609
1 2610
1 2611
1 2612
1 2613
1 2614
1 2615
1 2616
1 2617
1 2618
1 2619
1 2620
1 2621
1 2622
1 2623
1 2624
1 2625
1 2626
1 2627
1 2628
1 2629
1 2630
1 2631
1 2632
1 2633
1 2634
1 2635
1 2636
1 2637
1 2638
1 2639
1 2640
1 2641
1 2642
1 2643
1 2644
1 2645
1 2646
1 2647
1 2648
1 2649
1 2650
1 2651
1 2652
1 2653
1 2654
1 2655
1 2656
1 2657
1 2658
1 2659
1 2660
1 2661
1 2662
1 2663
1 2664
1 2665
1 2666
1 2667
1 2668
1 2669
1 2670
1 2671
1 2672
1 2673
1 2674
1 2675
1 2676
1 2677
1 2678
1 2679
1 2680
1 2681
1 2682
1 2683
1 2684
1 2685
1 2686
1 2687
1 2688
1 2689
1 2690
1 2691
1 2692
1 2693
1 2694
1 2695
1 2696
1 2697
1 2698
1 2699
1 2700
1 2701
1 2702
1 2703
1 2704
1 2705
1 2706
1 2707
1 2708
1 2709
1 2710
1 2711
1 2712
1 2713
1 2714
1 2715
1 2716
1 2717
1 2718
1 2719
1 2720
1 2721
1 2722
1 2723
1 2724
1 2725
1 2726
1 2727
1 2728
1 2729
1 2730
1 2731
1 2732
1 2733
1 2734
1 2735
1 2736
1 2737
1 2738
1 2739
1 2740
1 2741
1 2742
1 2743
1 2744
1 2745
1 2746
1 2747
1 2748
1 2749
1 2750
1 2751
1 2752
1 2753
1 2754
1 2755
1 2756
1 2757
1 2758
1 2759
1 2760
1 2761
1 2762
1 2763
1 2764
1 2765
1 2766
1 2767
1 2768
1 2769
1 2770
1 2771
1 2772
1 2773
1 2774
1 2775
1 2776
1 2777
1 2778
1 2779
1 2780
1 2781
1 2782
1 2783
1 2784
1 2785
1 2786
1 2787
1 2788
1 2789
1 2790
1 2791
1 2792
1 2793
1 2794
1 2795
1 2796
1 2797
1 2798
1 2799
1 2800
1 2801
1 2802
1 2803
1 2804
1 2805
1 2806
1 2807
1 2808
1 2809
1 2810
1 2811
1 2812
1 2813
1 2814
1 2815
1 2816
1 2817
1 2818
1 2819
1 2820
1 2821
1 2822
1 2823
1 2824
1 2825
1 2826
1 2827
1 2828
1 2829
1 2830
1 2831
1 2832
1 2833
1 2834
1 2835
1 2836
1 2837
1 2838
1 2839
1 2840
1 2841
1 2842
1 2843
1 2844
1 2845
1 2846
1 2847
1 2848
1 2849
1 2850
1 2851
1 2852
1 2853
1 2854
1 2855
1 2856
1 2857
1 2858
1 2859
1 2860
1 2861
1 2862
1 2863
1 2864
1 2865
1 2866
1 2867
1 2868
1 2869
1 2870
1 2871
1 2872
1 2873
1 2874
1 2875
1 2876
1 2877
1 2878
1 2879
1 2880
1 2881
1 2882
1 2883
1 2884
1 2885
1 2886
1 2887
1 2888
1 2889
1 2890
1 2891
1 2892
1 2893
1 2894
1 2895
1 2896
1 2897
1 2898
1 2899
1 2900
1 2901
1 2902
1 2903
1 2904
1 2905
1 2906
1 2907
1 2908
1 2909
1 2910
1 2911
1 2912
1 2913
1 2914
1 2915
1 2916
1 2917
1 2918
1 2919
1 2920
1 2921
1 2922
1 2923
1 2924
1 2925
1 2926
1 2927
1 2928
1 2929
1 2930
1 2931
1 2932
1 2933
1 2934
1 2935
1 2936
1 2937
1 2938
1 2939
1 2940
1 2941
1 2942
1 2943
1 2944
1 2945
1 2946
1 2947
1 2948
1 2949
1 2950
1 2951
1 2952
1 2953
1 2954
1 2955
1 2956
1 2957
1 2958
1 2959
1 2960
1 2961
1 2962
1 2963
1 2964
1 2965
1 2966
1 2967
1 2968
1 2969
1 2970
1 2971
1 2972
1 2973
1 2974
POINT_DATA 2975
SCALARS Idp unsigned_int
LOOKUP_TABLE default
0 1 39 40 41 80 81 82 121 122 123 162 163 164 203 204 205 244 245 246 285 286 287 326 327 328 367 368 369 408 409 410 449 450 451 461 462 463 471 472 473 481 482 483 491 492 493 501 502 503 511 512 513 521 522 523 531 532 533 541 542 543 551 552 2 3 4 5 6 7 8 9 42 43 44 45 46 47 48 49 83 84 85 86 87 88 89 90 124 125 126 127 128 129 130 131 165 166 167 168 169 170 171 172 206 207 208 209 210 211 212 213 247 248 249 250 251 252 253 254 288 289 290 291 292 293 294 295 329 330 331 332 333 334 335 336 370 371 372 373 374 375 376 377 411 412 413 414 415 416 417 418 452 453 454 464 465 474 475 484 485 494 495 504 505 514 515 524 525 534 535 544 545 553 554 10 11 12 13 14 15 16 17 18 50 51 52 53 54 55 56 57 58 91 92 93 94 95 96 97 98 99 132 133 134 135 136 137 138 139 140 173 174 175 176 177 178 179 180 181 214 215 216 217 218 219 220 221 222 255 256 257 258 259 260 261 262 263 296 297 298 299 300 301 302 303 304 337 338 339 340 341 342 343 344 345 378 379 380 381 382 383 384 385 386 419 420 421 422 423 424 425 426 427 19 20 21 22 23 24 25 26 59 60 61 62 63 64 65 66 100 101 102 103 104 105 106 107 141 142 143 144 145 146 147 148 182 183 184 185 186 187 188 189 223 224 225 226 227 228 229 230 264 265 266 267 268 269 270 271 305 306 307 308 309 310 311 312 346 347 348 349 350 351 352 353 387 388 389 390 391 392 393 394 428 429 430 431 432 433 434 435 27 28 29 30 31 32 33 34 35 67 68 69 70 71 72 73 74 75 108 109 110 111 112 113 114 115 116 149 150 151 152 153 154 155 156 157 190 191 192 193 194 195 196 197 198 231 232 233 234 235 236 237 238 239 272 273 274 275 276 277 278 279 280 313 314 315 316 317 318 319 320 321 354 355 356 357 358 359 360 361 362 395 396 397 398 399 400 401 402 403 436 437 438 439 440 441 442 443 444 455 456 466 476 486 496 506 516 526 536 546 555 36 37 38 76 77 78 79 117 118 119 120 158 159 160 161 199 200 201 202 240 241 242 243 281 282 283 284 322 323 324 325 363 364 365 366 404 405 406 407 445 446 447 448 457 458 459 460 467 468 469 470 477 478 479 480 487 488 489 490 497 498 499 500 507 508 509 510 517 518 519 520 527 528 529 530 537 538 539 540 547 548 549 550 556 557 558 559 560 561 562 563 564 565 566 567 568 569 570 571 572 573 574 575 576 577 578 579 580 581 582 583 584 585 586 587 588 589 590 591 592 593 594 595 596 597 598 599 600 601 602 603 604 605 606 607 608 609 610 611 612 613 614 615 616 617 618 619 620 621 622 623 624 625 626 627 628 629 630 631 632 633 634 635 636 637 638 639 640 641 642 643 644 645 646 647 648 649 650 651 652 653 654 655 656 657 658 659 660 661 662 663 664 665 666 667 668 669 670 671 672 673 674 675 676 677 678 679 680 681 682 683 684 685 686 687 688 689 690 691 692 693 694 695 696 697 698 699 700 701 702 703 704 705 706 707 708 709 710 711 712 713 714 715 716 717 718 719 720 721 722 723 724 725 726 727 728 729 730 731 732 733 734 735 736 737 738 739 740 741 742 743 744 745 746 747 748 749 750 751 752 753 754 755 756 757 758 759 760 761 762 763 764 765 766 767 768 769 770 771 772 773 774 775 776 777 778 779 780 781 782 783 784 785 786 787 788 789 790 791 792 793 794 795 796 797 798 799 800 801 802 803 804 805 806 807 808 809 810 811 812 813 814 815 816 817 818 819 820 821 822 823 824 825 826 827 828 829 830 831 832 833 834 835 836 837 838 839 840 841 842 843 844 845 846 847 848 849 850 851 852 853 854 855 856 857 858 859 860 861 862 863 864 865 866 867 868 869 870 871 872 873 874 875 876 877 878 879 880 881 882 883 884 885 886 887 888 889 890 891 892 893 894 895 896 897 898 899 900 901 902 903 904 905 906 907 908 909 910 911 912 913 914 915 916 917 918 919 920 921 922 923 924 925 926 927 928 929 930 931 932 933 934 935 936 937 938 939 940 941 942 943 944 945 946 947 948 949 950 951 952 953 954 955 956 957 958 959 960 961 962 963 964 965 966 967 968 969 970 971 972 973 974 975 976 977 978 979 980 981 982 983 984 985 986 987 988 989 990 991 992 993 994 995 996 997 998 999 1000 1001 1002 1003 1004 1005 1006 1007 1008 1009 1010 1011 1012 1013 1014 1015 1016 1017 1018 1019 1020 1021 1022 1023 1024 1025 1026 1027 1028 1029 1030 1031 1032 1033 1034 1035 1060 1061 1062 1063 1064 1065 1091 1092 1093 1094 1095 1096 1122 1123 1124 1125 1126 1127 1153 1154 1155 1156 1157 1158 1184 1185 1186 1187 1188 1189 1215 1216 1217 1218 1219 1220 1246 1247 1248 1249 1250 1251 1277 1278 1279 1280 1281 1282 1308 1309 1310 1311 1312 1313 1339 1340 1341 1342 1343 1344 1370 1371 1372 1373 1374 1375 1401 1402 1403 1404 1405 1406 1432 1433 1434 1435 1436 1437 1463 1464 1465 1466 1467 1468 1494 1495 1496 1497 1498 1499 1525 1526 1527 1528 1529 1530 1556 1557 1558 1559 1560 1561 1587 1588 1589 1590 1591 1592 1618 1619 1620 1621 1622 1623 1649 1650 1651 1652 1653 1654 1680 1681 1682 1683 1684 1685 1711 1712 1713 1714 1715 1716 1742 1743 1744 1745 1746 1747 1773 1774 1775 1776 1777 1778 1804 1805 1806 1807 1808 1809 1835 1836 1837 1838 1839 1840 1866 1867 1868 1869 1870 1871 1897 1898 1899 1900 1901 1902 1928 1929 1930 1931 1932 1933 1959 1960 1961 1962 1963 1964 1990 1991 1992 1993 1994 1995 2021 2022 2023 2024 2025 2026 2052 2053 2054 2055 2056 2057 2083 2084 2085 2086 2087 2088 2114 2115 2116 2117 2118 2119 2145 2146 2147 2148 2149 2150 2176 2177 2178 2179 2180 2181 2207 2208 2209 2210 2211 2212 2238 2239 2240 2241 2242 2243 2269 2270 2271 2272 2273 2274 2300 2301 2302 2303 2304 2305 2331 2332 2333 2334 2335 2336 2362 2363 2364 2365 2366 2367 2393 2394 2395 2396 2397 2398 2424 2425 2426 2427 2428 2429 2455 2456 2457 2458 2459 2460 2486 2487 2488 2489 2490 2491 2517 2518 2519 2520 2521 2522 2548 2549 2550 2551 2552 2553 2579 2580 2581 2582 2583 2584 2610 2611 2612 2613 2614 2615 2641 2642 2643 2644 2645 2646 2672 2673 2674 2675 2676 2677 2703 2704 2705 2706 2707 2708 2734 2735 2736 2737 2738 2763 2764 2765 2766 2767 2792 2793 2794 2795 2819 2820 2821 2822 2846 2847 2848 2871 2872 2894 2895 1036 1037 1038 1039 1040 1041 1042 1043 1044 1066 1067 1068 1069 1070 1071 1072 1073 1074 1097 1098 1099 1100 1101 1102 1103 1104 1105 1128 1129 1130 1131 1132 1133 1134 1135 1136 1159 1160 1161 1162 1163 1164 1165 1166 1167 1190 1191 1192 1193 1194 1195 1196 1197 1198 1221 1222 1223 1224 1225 1226 1227 1228 1229 1252 1253 1254 1255 1256 1257 1258 1259 1260 1283 1284 1285 1286 1287 1288 1289 1290 1291 1314 1315 1316 1317 1318 1319 1320 1321 1322 1345 1346 1347 1348 1349 1350 1351 1352 1353 1376 1377 1378 1379 1380 1381 1382 1383 1384 1407 1408 1409 1410 1411 1412 1413 1414 1415 1438 1439 1440 1441 1442 1443 1444 1445 1446 1469 1470 1471 1472 1473 1474 1475 1476 1477 1500 1501 1502 1503 1504 1505 1506 1507 1508 1531 1532 1533 1534 1535 1536 1537 1538 1539 1562 1563 1564 1565 1566 1567 1568 1569 1570 1593 1594 1595 1596 1597 1598 1599 1600 1601 1624 1625 1626 1627 1628 1629 1630 1631 1632 1655 1656 1657 1658 1659 1660 1661 1662 1663 1686 1687 1688 1689 1690 1691 1692 1693 1694 1717 1718 1719 1720 1721 1722 1723 1724 1725 1748 1749 1750 1751 1752 1753 1754 1755 1756 1779 1780 1781 1782 1783 1784 1785 1786 1787 1810 1811 1812 1813 1814 1815 1816 1817 1818 1841 1842 1843 1844 1845 1846 1847 1848 1849 1872 1873 1874 1875 1876 1877 1878 1879 1880 1903 1904 1905 1906 1907 1908 1909 1910 1911 1934 1935 1936 1937 1938 1939 1940 1941 1942 1965 1966 1967 1968 1969 1970 1971 1972 1973 1996 1997 1998 1999 2000 2001 2002 2003 2004 2027 2028 2029 2030 2031 2032 2033 2034 2035 2058 2059 2060 2061 2062 2063 2064 2065 2066 2089 2090 2091 2092 2093 2094 2095 2096 2097 2120 2121 2122 2123 2124 2125 2126 2127 2128 2151 2152 2153 2154 2155 2156 2157 2158 2159 2182 2183 2184 2185 2186 2187 2188 2189 2190 2213 2214 2215 2216 2217 2218 2219 2220 2221 2244 2245 2246 2247 2248 2249 2250 2251 2252 2275 2276 2277 2278 2279 2280 2281 2282 2283 2306 2307 2308 2309 2310 2311 2312 2313 2314 2337 2338 2339 2340 2341 2342 2343 2344 2345 2368 2369 2370 2371 2372 2373 2374 2375 2376 2399 2400 2401 2402 2403 2404 2405 2406 2407 2430 2431 2432 2433 2434 2435 2436 2437 2438 2461 2462 2463 2464 2465 2466 2467 2468 2469 2492 2493 2494 2495 2496 2497 2498 2499 2500 2523 2524 2525 2526 2527 2528 2529 2530 2531 2554 2555 2556 2557 2558 2559 2560 2561 2562 2585 2586 2587 2588 2589 2590 2591 2592 2593 2616 2617 2618 2619 2620 2621 2622 2623 2624 2647 2648 2649 2650 2651 2652 2653 2654 2655 2678 2679 2680 2681 2682 2683 2684 2685 2686 2709 2710 2711 2712 2713 2714 2715 2716 2717 2739 2740 2741 2742 2743 2744 2745 2746 2747 2768 2769 2770 2771 2772 2773 2774 2775 2776 2796 2797 2798 2799 2800 2801 2802 2803 2804 2823 2824 2825 2826 2827 2828 2829 2830 2831 2849 2850 2851 2852 2853 2854 2855 2856 2857 2873 2874 2875 2876 2877 2878 2879 2880 2881 2896 2897 2898 2899 2900 2901 2902 2903 2904 2917 2918 2919 2920 2921 2922 2923 2924 2925 2936 2937 2938 2939 2940 2941 2942 2943 2953 2954 2955 2956 2957 2958 2966 2967 2968 2969 1045 1046 1047 1048 1049 1050 1051 1052 1075 1076 1077 1078 1079 1080 1081 1082 1106 1107 1108 1109 1110 1111 1112 1113 1137 1138 1139 1140 1141 1142 1143 1144 1168 1169 1170 1171 1172 1173 1174 1175 1199 1200 1201 1202 1203 1204 1205 1206 1230 1231 1232 1233 1234 1235 1236 1237 1261 1262 1263 1264 1265 1266 1267 1268 1292 1293 1294 1295 1296 1297 1298 1299 1323 1324 1325 1326 1327 1328 1329 1330 1354 1355 1356 1357 1358 1359 1360 1361 1385 1386 1387 1388 1389 1390 1391 1392 1416 1417 1418 1419 1420 1421 1422 1423 1447 1448 1449 1450 1451 1452 1453 1454 1478 1479 1480 1481 1482 1483 1484 1485 1509 1510 1511 1512 1513 1514 1515 1516 1540 1541 1542 1543 1544 1545 1546 1547 1571 1572 1573 1574 1575 1576 1577 1578 1602 1603 1604 1605 1606 1607 1608 1609 1633 1634 1635 1636 1637 1638 1639 1640 1664 1665 1666 1667 1668 1669 1670 1671 1695 1696 1697 1698 1699 1700 1701 1702 1726 1727 1728 1729 1730 1731 1732 1733 1757 1758 1759 1760 1761 1762 1763 1764 1788 1789 1790 1791 1792 1793 1794 1795 1819 1820 1821 1822 1823 1824 1825 1826 1850 1851 1852 1853 1854 1855 1856 1857 1881 1882 1883 1884 1885 1886 1887 1888 1912 1913 1914 1915 1916 1917 1918 1919 1943 1944 1945 1946 1947 1948 1949 1950 1974 1975 1976 1977 1978 1979 1980 1981 2005 2006 2007 2008 2009 2010 2011 2012 2036 2037 2038 2039 2040 2041 2042 2043 2067 2068 2069 2070 2071 2072 2073 2074 2098 2099 2100 2101 2102 2103 2104 2105 2129 2130 2131 2132 2133 2134 2135 2136 2160 2161 2162 2163 2164 2165 2166 2167 2191 2192 2193 2194 2195 2196 2197 2198 2222 2223 2224 2225 2226 2227 2228 2229 2253 2254 2255 2256 2257 2258 2259 2260 2284 2285 2286 2287 2288 2289 2290 2291 2315 2316 2317 2318 2319 2320 2321 2322 2346 2347 2348 2349 2350 2351 2352 2353 2377 2378 2379 2380 2381 2382 2383 2384 2408 2409 2410 2411 2412 2413 2414 2415 2439 2440 2441 2442 2443 2444 2445 2446 2470 2471 2472 2473 2474 2475 2476 2477 2501 2502 2503 2504 2505 2506 2507 2508 2532 2533 2534 2535 2536 2537 2538 2539 2563 2564 2565 2566 2567 2568 2569 2570 2594 2595 2596 2597 2598 2599 2600 2601 2625 2626 2627 2628 2629 2630 2631 2632 2656 2657 2658 2659 2660 2661 2662 2663 2687 2688 2689 2690 2691 2692 2693 2694 2718 2719 2720 2721 2722 2723 2724 2725 2748 2749 2750 2751 2752 2753 2754 2755 2777 2778 2779 2780 2781 2782 2783 2784 2805 2806 2807 2808 2809 2810 2811 2812 2832 2833 2834 2835 2836 2837 2838 2839 2858 2859 2860 2861 2862 2863 2864 2865 2882 2883 2884 2885 2886 2887 2888 2889 2905 2906 2907 2908 2909 2910 2911 2912 2926 2927 2928 2929 2930 2931 2932 2933 2944 2945 2946 2947 2948 2949 2950 2951 2959 2960 2961 2962 2963 2964 2965 2970 2971 2972 2973 2974 1053 1054 1055 1056 1057 1058 1059 1083 1084 1085 1086 1087 1088 1089 1090 1114 1115 1116 1117 1118 1119 1120 1121 1145 1146 1147 1148 1149 1150 1151 1152 1176 1177 1178 1179 1180 1181 1182 1183 1207 1208 1209 1210 1211 1212 1213 1214 1238 1239 1240 1241 1242 1243 1244 1245 1269 1270 1271 1272 1273 1274 1275 1276 1300 1301 1302 1303 1304 1305 1306 1307 1331 1332 1333 1334 1335 1336 1337 1338 1362 1363 1364 1365 1366 1367 1368 1369 1393 1394 1395 1396 1397 1398 1399 1400 1424 1425 1426 1427 1428 1429 1430 1431 1455 1456 1457 1458 1459 1460 1461 1462 1486 1487 1488 1489 1490 1491 1492 1493 1517 1518 1519 1520 1521 1522 1523 1524 1548 1549 1550 1551 1552 1553 1554 1555 1579 1580 1581 1582 1583 1584 1585 1586 1610 1611 1612 1613 1614 1615 1616 1617 1641 1642 1643 1644 1645 1646 1647 1648 1672 1673 1674 1675 1676 1677 1678 1679 1703 1704 1705 1706 1707 1708 1709 1710 1734 1735 1736 1737 1738 1739 1740 1741 1765 1766 1767 1768 1769 1770 1771 1772 1796 1797 1798 1799 1800 1801 1802 1803 1827 1828 1829 1830 1831 1832 1833 1834 1858 1859 1860 1861 1862 1863 1864 1865 1889 1890 1891 1892 1893 1894 1895 1896 1920 1921 1922 1923 1924 1925 1926 1927 1951 1952 1953 1954 1955 1956 1957 1958 1982 1983 1984 1985 1986 1987 1988 1989 2013 2014 2015 2016 2017 2018 2019 2020 2044 2045 2046 2047 2048 2049 2050 2051 2075 2076 2077 2078 2079 2080 2081 2082 2106 2107 2108 2109 2110 2111 2112 2113 2137 2138 2139 2140 2141 2142 2143 2144 2168 2169 2170 2171 2172 2173 2174 2175 2199 2200 2201 2202 2203 2204 2205 2206 2230 2231 2232 2233 2234 2235 2236 2237 2261 2262 2263 2264 2265 2266 2267 2268 2292 2293 2294 2295 2296 2297 2298 2299 2323 2324 2325 2326 2327 2328 2329 2330 2354 2355 2356 2357 2358 2359 2360 2361 2385 2386 2387 2388 2389 2390 2391 2392 2416 2417 2418 2419 2420 2421 2422 2423 2447 2448 2449 2450 2451 2452 2453 2454 2478 2479 2480 2481 2482 2483 2484 2485 2509 2510 2511 2512 2513 2514 2515 2516 2540 2541 2542 2543 2544 2545 2546 2547 2571 2572 2573 2574 2575 2576 2577 2578 2602 2603 2604 2605 2606 2607 2608 2609 2633 2634 2635 2636 2637 2638 2639 2640 2664 2665 2666 2667 2668 2669 2670 2671 2695 2696 2697 2698 2699 2700 2701 2702 2726 2727 2728 2729 2730 2731 2732 2733 2756 2757 2758 2759 2760 2761 2762 2785 2786 2787 2788 2789 2790 2791 2813 2814 2815 2816 2817 2818 2840 2841 2842 2843 2844 2845 2866 2867 2868 2869 2870 2890 2891 2892 2893 2913 2914 2915 2916 2934 2935 2952 
FIELD FieldData 12
Idp 1 2975 float
0 1 39 40 41 80 81 82 121 122 123 162 163 164 203 204 205 244 245 246 285 286 287 326 327 328 367 368 369 408 409 410 449 450 451 461 462 463 471 472 473 481 482 483 491 492 493 501 502 503 511 512 513 521 522 523 531 532 533 541 542 543 551 552 2 3 4 5 6 7 8 9 42 43 44 45 46 47 48 49 83 84 85 86 87 88 89 90 124 125 126 127 128 129 130 131 165 166 167 168 169 170 171 172 206 207 208 209 210 211 212 213 247 248 249 250 251 252 253 254 288 289 290 291 292 293 294 295 329 330 331 332 333 334 335 336 370 371 372 373 374 375 376 377 411 412 413 414 415 416 417 418 452 453 454 464 465 474 475 484 485 494 495 504 505 514 515 524 525 534 535 544 545 553 554 10 11 12 13 14 15 16 17 18 50 51 52 53 54 55 56 57 58 91 92 93 94 95 96 97 98 99 132 133 134 135 136 137 138 139 140 173 174 175 176 177 178 179 180 181 214 215 216 217 218 219 220 221 222 255 256 257 258 259 260 261 262 263 296 297 298 299 300 301 302 303 304 337 338 339 340 341 342 343 344 345 378 379 380 381 382 383 384 385 386 419 420 421 422 423 424 425 426 427 19 20 21 22 23 24 25 26 59 60 61 62 63 64 65 66 100 101 102 103 104 105 106 107 141 142 143 144 145 146 147 148 182 183 184 185 186 187 188 189 223 224 225 226 227 228 229 230 264 265 266 267 268 269 270 271 305 306 307 308 309 310 311 312 346 347 348 349 350 351 352 353 387 388 389 390 391 392 393 394 428 429 430 431 432 433 434 435 27 28 29 30 31 32 33 34 35 67 68 69 70 71 72 73 74 75 108 109 110 111 112 113 114 115 116 149 150 151 152 153 154 155 156 157 190 191 192 193 194 195 196 197 198 231 232 233 234 235 236 237 238 239 272 273 274 275 276 277 278 279 280 313 314 315 316 317 318 319 320 321 354 355 356 357 358 359 360 361 362 395 396 397 398 399 400 401 402 403 436 437 438 439 440 441 442 443 444 455 456 466 476 486 496 506 516 526 536 546 555 36 37 38 76 77 78 79 117 118 119 120 158 159 160 161 199 200 201 202 240 241 242 243 281 282 283 284 322 323 324 325 363 364 365 366 404 405 406 407 445 446 447 448 457 458 459 460 467 468 469 470 477 478 479 480 487 488 489 490 497 498 499 500 507 508 509 510 517 518 519 520 527 528 529 530 537 538 539 540 547 548 549 550 556 557 558 559 560 561 562 563 564 565 566 567 568 569 570 571 572 573 574 575 576 577 578 579 580 581 582 583 584 585 586 587 588 589 590 591 592 593 594 595 596 597 598 599 600 601 602 603 604 605 606 607 608 609 610 611 612 613 614 615 616 617 618 619 620 621 622 623 624 625 626 627 628 629 630 631 632 633 634 635 636 637 638 639 640 641 642 643 644 645 646 647 648 649 650 651 652 653 654 655 656 657 658 659 660 661 662 663 664 665 666 667 668 669 670 671 672 673 674 675 676 677 678 679 680 681 682 683 684 685 686 687 688 689 690 691 692 693 694 695 696 697 698 699 700 701 702 703 704 705 706 707 708 709 710 711 712 713 714 715 716 717 718 719 720 721 722 723 724 725 726 727 728 729 730 731 732 733 734 735 736 737 738 739 740 741 742 743 744 745 746 747 748 749 750 751 752 753 754 755 756 757 758 759 760 761 762 763 764 765 766 767 768 769 770 771 772 773 774 775 776 777 778 779 780 781 782 783 784 785 786 787 788 789 790 791 792 793 794 795 796 797 798 799 800 801 802 803 804 805 806 807 808 809 810 811 812 813 814 815 816 817 818 819 820 821 822 823 824 825 826 827 828 829 830 831 832 833 834 835 836 837 838 839 840 841 842 843 844 845 846 847 848 849 850 851 852 853 854 855 856 857 858 859 860 861 862 863 864 865 866 867 868 869 870 871 872 873 874 875 876 877 878 879 880 881 882 883 884 885 886 887 888 889 890 891 892 893 894 895 896 897 898 899 900 901 902 903 904 905 906 907 908 909 910 911 912 913 914 915 916 917 918 919 920 921 922 923 924 925 926 927 928 929 930 931 932 933 934 935 936 937 938 939 940 941 942 943 944 945 946 947 948 949 950 951 952 953 954 955 956 957 958 959 960 961 962 963 964 965 966 967 968 969 970 971 972 973 974 975 976 977 978 979 980 981 982 983 984 985 986 987 988 989 990 991 992 993 994 995 996 997 998 999 1000 1001 1002 1003 1004 1005 1006 1007 1008 1009 1010 1011 1012 1013 1014 1015 1016 1017 1018 1019 1020 1021 1022 1023 1024 1025 1026 1027 1028 1029 1030 1031 1032 1033 1034 1035 1060 1061 1062 1063 1064 1065 1091 1092 1093 1094 1095 1096 1122 1123 1124 1125 1126 1127 1153 1154 1155 1156 1157 1158 1184 1185 1186 1187 1188 1189 1215 1216 1217 1218 1219 1220 1246 1247 1248 1249 1250 1251 1277 1278 1279 1280 1281 1282 1308 1309 1310 1311 1312 1313 1339 1340 1341 1342 1343 1344 1370 1371 1372 1373 1374 1375 1401 1402 1403 1404 1405 1406 1432 1433 1434 1435 1436 1437 1463 1464 1465 1466 1467 1468 1494 1495 1496 1497 1498 1499 1525 1526 1527 1528 1529 1530 1556 1557 1558 1559 1560 1561 1587 1588 1589 1590 1591 1592 1618 1619 1620 1621 1622 1623 1649 1650 1651 1652 1653 1654 1680 1681 1682 1683 1684 1685 1711 1712 1713 1714 1715 1716 1742 1743 1744 1745 1746 1747 1773 1774 1775 1776 1777 1778 1804 1805 1806 1807 1808 1809 1835 1836 1837 1838 1839 1840 1866 1867 1868 1869 1870 1871 1897 1898 1899 1900 1901 1902 1928 1929 1930 1931 1932 1933 1959 1960 1961 1962 1963 1964 1990 1991 1992 1993 1994 1995 2021 2022 2023 2024 2025 2026 2052 2053 2054 2055 2056 2057 2083 2084 2085 2086 2087 2088 2114 2115 2116 2117 2118 2119 2145 2146 2147 2148 2149 2150 2176 2177 2178 2179 2180 2181 2207 2208 2209 2210 2211 2212 2238 2239 2240 2241 2242 2243 2269 2270 2271 2272 2273 2274 2300 2301 2302 2303 2304 2305 2331 2332 2333 2334 2335 2336 2362 2363 2364 2365 2366 2367 2393 2394 2395 2396 2397 2398 2424 2425 2426 2427 2428 2429 2455 2456 2457 2458 2459 2460 2486 2487 2488 2489 2490 2491 2517 2518 2519 2520 2521 2522 2548 2549 2550 2551 2552 2553 2579 2580 2581 2582 2583 2584 2610 2611 2612 2613 2614 2615 2641 2642 2643 2644 2645 2646 2672 2673 2674 2675 2676 2677 2703 2704 2705 2706 2707 2708 2734 2735 2736 2737 2738 2763 2764 2765 2766 2767 2792 2793 2794 2795 2819 2820 2821 2822 2846 2847 2848 2871 2872 2894 2895 1036 1037 1038 1039 1040 1041 1042 1043 1044 1066 1067 1068 1069 1070 1071 1072 1073 1074 1097 1098 1099 1100 1101 1102 1103 1104 1105 1128 1129 1130 1131 1132 1133 1134 1135 1136 1159 1160 1161 1162 1163 1164 1165 1166 1167 1190 1191 1192 1193 1194 1195 1196 1197 1198 1221 1222 1223 1224 1225 1226 1227 1228 1229 1252 1253 1254 1255 1256 1257 1258 1259 1260 1283 1284 1285 1286 1287 1288 1289 1290 1291 1314 1315 1316 1317 1318 1319 1320 1321 1322 1345 1346 1347 1348 1349 1350 1351 1352 1353 1376 1377 1378 1379 1380 1381 1382 1383 1384 1407 1408 1409 1410 1411 1412 1413 1414 1415 1438 1439 1440 1441 1442 1443 1444 1445 1446 1469 1470 1471 1472 1473 1474 1475 1476 1477 1500 1501 1502 1503 1504 1505 1506 1507 1508 1531 1532 1533 1534 1535 1536 1537 1538 1539 1562 1563 1564 1565 1566 1567 1568 1569 1570 1593 1594 1595 1596 1597 1598 1599 1600 1601 1624 1625 1626 1627 1628 1629 1630 1631 1632 1655 1656 1657 1658 1659 1660 1661 1662 1663 1686 1687 1688 1689 1690 1691 1692 1693 1694 1717 1718 1719 1720 1721 1722 1723 1724 1725 1748 1749 1750 1751 1752 1753 1754 1755 1756 1779 1780 1781 1782 1783 1784 1785 1786 1787 1810 1811 1812 1813 1814 1815 1816 1817 1818 1841 1842 1843 1844 1845 1846 1847 1848 1849 1872 1873 1874 1875 1876 1877 1878 1879 1880 1903 1904 1905 1906 1907 1908 1909 1910 1911 1934 1935 1936 1937 1938 1939 1940 1941 1942 1965 1966 1967 1968 1969 1970 1971 1972 1973 1996 1997 1998 1999 2000 2001 2002 2003 2004 2027 2028 2029 2030 2031 2032 2033 2034 2035 2058 2059 2060 2061 2062 2063 2064 2065 2066 2089 2090 2091 2092 2093 2094 2095 2096 2097 2120 2121 2122 2123 2124 2125 2126 2127 2128 2151 2152 2153 2154 2155 2156 2157 2158 2159 2182 2183 2184 2185 2186 2187 2188 2189 2190 2213 2214 2215 2216 2217 2218 2219 2220 2221 2244 2245 2246 2247 2248 2249 2250 2251 2252 2275 2276 2277 2278 2279 2280 2281 2282 2283 2306 2307 2308 2309 2310 2311 2312 2313 2314 2337 2338 2339 2340 2341 2342 2343 2344 2345 2368 2369 2370 2371 2372 2373 2374 2375 2376 2399 2400 2401 2402 2403 2404 2405 2406 2407 2430 2431 2432 2433 2434 2435 2436 2437 2438 2461 2462 2463 2464 2465 2466 2467 2468 2469 2492 2493 2494 2495 2496 2497 2498 2499 2500 2523 2524 2525 2526 2527 2528 2529 2530 2531 2554 2555 2556 2557 2558 2559 2560 2561 2562 2585 2586 2587 2588 2589 2590 2591 2592 2593 2616 2617 2618 2619 2620 2621 2622 2623 2624 2647 2648 2649 2650 2651 2652 2653 2654 2655 2678 2679 2680 2681 2682 2683 2684 2685 2686 2709 2710 2711 2712 2713 2714 2715 2716 2717 2739 2740 2741 2742 2743 2744 2745 2746 2747 2768 2769 2770 2771 2772 2773 2774 2775 2776 2796 2797 2798 2799 2800 2801 2802 2803 2804 2823 2824 2825 2826 2827 2828 2829 2830 2831 2849 2850 2851 2852 2853 2854 2855 2856 2857 2873 2874 2875 2876 2877 2878 2879 2880 2881 2896 2897 2898 2899 2900 2901 2902 2903 2904 2917 2918 2919 2920 2921 2922 2923 2924 2925 2936 2937 2938 2939 2940 2941 2942 2943 2953 2954 2955 2956 2957 2958 2966 2967 2968 2969 1045 1046 1047 1048 1049 1050 1051 1052 1075 1076 1077 1078 1079 1080 1081 1082 1106 1107 1108 1109 1110 1111 1112 1113 1137 1138 1139 1140 1141 1142 1143 1144 1168 1169 1170 1171 1172 1173 1174 1175 1199 1200 1201 1202 1203 1204 1205 1206 1230 1231 1232 1233 1234 1235 1236 1237 1261 1262 1263 1264 1265 1266 1267 1268 1292 1293 1294 1295 1296 1297 1298 1299 1323 1324 1325 1326 1327 1328 1329 1330 1354 1355 1356 1357 1358 1359 1360 1361 1385 1386 1387 1388 1389 1390 1391 1392 1416 1417 1418 1419 1420 1421 1422 1423 1447 1448 1449 1450 1451 1452 1453 1454 1478 1479 1480 1481 1482 1483 1484 1485 1509 1510 1511 1512 1513 1514 1515 1516 1540 1541 1542 1543 1544 1545 1546 1547 1571 1572 1573 1574 1575 1576 1577 1578 1602 1603 1604 1605 1606 1607 1608 1609 1633 1634 1635 1636 1637 1638 1639 1640 1664 1665 1666 1667 1668 1669 1670 1671 1695 1696 1697 1698 1699 1700 1701 1702 1726 1727 1728 1729 1730 1731 1732 1733 1757 1758 1759 1760 1761 1762 1763 1764 1788 1789 1790 1791 1792 1793 1794 1795 1819 1820 1821 1822 1823 1824 1825 1826 1850 1851 1852 1853 1854 1855 1856 1857 1881 1882 1883 1884 1885 1886 1887 1888 1912 1913 1914 1915 1916 1917 1918 1919 1943 1944 1945 1946 1947 1948 1949 1950 1974 1975 1976 1977 1978 1979 1980 1981 2005 2006 2007 2008 2009 2010 2011 2012 2036 2037 2038 2039 2040 2041 2042 2043 2067 2068 2069 2070 2071 2072 2073 2074 2098 2099 2100 2101 2102 2103 2104 2105 2129 2130 2131 2132 2133 2134 2135 2136 2160 2161 2162 2163 2164 2165 2166 2167 2191 2192 2193 2194 2195 2196 2197 2198 2222 2223 2224 2225 2226 2227 2228 2229 2253 2254 2255 2256 2257 2258 2259 2260 2284 2285 2286 2287 2288 2289 2290 2291 2315 2316 2317 2318 2319 2320 2321 2322 2346 2347 2348 2349 2350 2351 2352 2353 2377 2378 2379 2380 2381 2382 2383 2384 2408 2409 2410 2411 2412 2413 2414 2415 2439 2440 2441 2442 2443 2444 2445 2446 2470 2471 2472 2473 2474 2475 2476 2477 2501 2502 2503 2504 2505 2506 2507 2508 2532 2533 2534 2535 2536 2537 2538 2539 2563 2564 2565 2566 2567 2568 2569 2570 2594 2595 2596 2597 2598 2599 2600 2601 2625 2626 2627 2628 2629 2630 2631 2632 2656 2657 2658 2659 2660 2661 2662 2663 2687 2688 2689 2690 2691 2692 2693 2694 2718 2719 2720 2721 2722 2723 2724 2725 2748 2749 2750 2751 2752 2753 2754 2755 2777 2778 2779 2780 2781 2782 2783 2784 2805 2806 2807 2808 2809 2810 2811 2812 2832 2833 2834 2835 2836 2837 2838 2839 2858 2859 2860 2861 2862 2863 2864 2865 2882 2883 2884 2885 2886 2887 2888 2889 2905 2906 2907 2908 2909 2910 2911 2912 2926 2927 2928 2929 2930 2931 2932 2933 2944 2945 2946 2947 2948 2949 2950 2951 2959 2960 2961 2962 2963 2964 2965 2970 2971 2972 2973 2974 1053 1054 1055 1056 1057 1058 1059 1083 1084 1085 1086 1087 1088 1089 1090 1114 1115 1116 1117 1118 1119 1120 1121 1145 1146 1147 1148 1149 1150 1151 1152 1176 1177 1178 1179 1180 1181 1182 1183 1207 1208 1209 1210 1211 1212 1213 1214 1238 1239 1240 1241 1242 1243 1244 1245 1269 1270 1271 1272 1273 1274 1275 1276 1300 1301 1302 1303 1304 1305 1306 1307 1331 1332 1333 1334 1335 1336 1337 1338 1362 1363 1364 1365 1366 1367 1368 1369 1393 1394 1395 1396 1397 1398 1399 1400 1424 1425 1426 1427 1428 1429 1430 1431 1455 1456 1457 1458 1459 1460 1461 1462 1486 1487 1488 1489 1490 1491 1492 1493 1517 1518 1519 1520 1521 1522 1523 1524 1548 1549 1550 1551 1552 1553 1554 1555 1579 1580 1581 1582 1583 1584 1585 1586 1610 1611 1612 1613 1614 1615 1616 1617 1641 1642 1643 1644 1645 1646 1647 1648 1672 1673 1674 1675 1676 1677 1678 1679 1703 1704 1705 1706 1707 1708 1709 1710 1734 1735 1736 1737 1738 1739 1740 1741 1765 1766 1767 1768 1769 1770 1771 1772 1796 1797 1798 1799 1800 1801 1802 1803 1827 1828 1829 1830 1831 1832 1833 1834 1858 1859 1860 1861 1862 1863 1864 1865 1889 1890 1891 1892 1893 1894 1895 1896 1920 1921 1922 1923 1924 1925 1926 1927 1951 1952 1953 1954 1955 1956 1957 1958 1982 1983 1984 1985 1986 1987 1988 1989 2013 2014 2015 2016 2017 2018 2019 2020 2044 2045 2046 2047 2048 2049 2050 2051 2075 2076 2077 2078 2079 2080 2081 2082 2106 2107 2108 2109 2110 2111 2112 2113 2137 2138 2139 2140 2141 2142 2143 2144 2168 2169 2170 2171 2172 2173 2174 2175 2199 2200 2201 2202 2203 2204 2205 2206 2230 2231 2232 2233 2234 2235 2236 2237 2261 2262 2263 2264 2265 2266 2267 2268 2292 2293 2294 2295 2296 2297 2298 2299 2323 2324 2325 2326 2327 2328 2329 2330 2354 2355 2356 2357 2358 2359 2360 2361 2385 2386 2387 2388 2389 2390 2391 2392 2416 2417 2418 2419 2420 2421 2422 2423 2447 2448 2449 2450 2451 2452 2453 2454 2478 2479 2480 2481 2482 2483 2484 2485 2509 2510 2511 2512 2513 2514 2515 2516 2540 2541 2542 2543 2544 2545 2546 2547 2571 2572 2573 2574 2575 2576 2577 2578 2602 2603 2604 2605 2606 2607 2608 2609 2633 2634 2635 2636 2637 2638 2639 2640 2664 2665 2666 2667 2668 2669 2670 2671 2695 2696 2697 2698 2699 2700 2701 2702 2726 2727 2728 2729 2730 2731 2732 2733 2756 2757 2758 2759 2760 2761 2762 2785 2786 2787 2788 2789 2790 2791 2813 2814 2815 2816 2817 2818 2840 2841 2842 2843 2844 2845 2866 2867 2868 2869 2870 2890 2891 2892 2893 2913 2914 2915 2916 2934 2935 2952 
Rhop 1 2975 float
  1.0000000E+03   1.0000000E+03   1.0000000E+03   1.0000000E+03   1.0000000E+03   1.0000000E+03   1.0000000E+03   1.0000000E+03   1.0000000E+03   1.0000000E+03   1.0000000E+03   1.0000000E+03   1.0000000E+03   1.0000000E+03   1.0000000E+03   1.0000000E+03   1.0000000E+03   1.0000000E+03   1.0000000E+03   1.0000004E+03   1.0000000E+03   1.0000007E+03   1.0000015E+03   1.0000005E+03   1.0000018E+03   1.0000040E+03   1.0000015E+03   1.0000038E+03   1.0000076E+03   1.0000026E+03   1.0000067E+03   1.0000122E+03   1.0000042E+03   1.0000096E+03   1.0000176E+03   1.0000057E+03   1.0000129E+03   1.0000229E+03   1.0000071E+03   1.0000159E+03   1.0000281E+03   1.0000085E+03   1.0000187E+03   1.0000328E+03   1.0000098E+03   1.0000218E+03   1.0000383E+03   1.0000119E+03   1.0000259E+03   1.0000455E+03   1.0000146E+03   1.0000321E+03   1.0000564E+03   1.0000193E+03   1.0000423E+03   1.0000742E+03   1.0000277E+03   1.0000587E+03   1.0001012E+03   1.0000420E+03   1.0000831E+03   1.0001385E+03   1.0001166E+03   1.0001852E+03   1.0000000E+03   1.0000000E+03   1.0000000E+03   1.0000000E+03   1.0000000E+03   1.0000000E+03   1.0000000E+03   1.0000000E+03   1.0000000E+03   1.0000000E+03   1.0000000E+03   1.0000000E+03   1.0000000E+03   1.0000000E+03   1.0000000E+03   1.0000000E+03   1.0000000E+03   1.0000000E+03   1.0000000E+03   1.0000000E+03   1.0000000E+03   1.0000000E+03   1.0000000E+03   1.0000000E+03   1.0000000E+03   1.0000000E+03   1.0000000E+03   1.0000000E+03   1.0000000E+03   1.0000000E+03   1.0000000E+03   1.0000000E+03   1.0000000E+03   1.0000000E+03   1.0000000E+03   1.0000001E+03   1.0000002E+03   1.0000003E+03   1.0000004E+03   1.0000004E+03   1.0000001E+03   1.0000004E+03   1.0000008E+03   1.0000012E+03   1.0000015E+03   1.0000020E+03   1.0000022E+03   1.0000024E+03   1.0000010E+03   1.0000018E+03   1.0000029E+03   1.0000042E+03   1.0000054E+03   1.0000065E+03   1.0000072E+03   1.0000079E+03   1.0000031E+03   1.0000051E+03   1.0000077E+03   1.0000104E+03   1.0000132E+03   1.0000154E+03   1.0000172E+03   1.0000186E+03   1.0000070E+03   1.0000109E+03   1.0000158E+03   1.0000210E+03   1.0000260E+03   1.0000303E+03   1.0000339E+03   1.0000363E+03   1.0000126E+03   1.0000192E+03   1.0000272E+03   1.0000357E+03   1.0000438E+03   1.0000505E+03   1.0000560E+03   1.0000603E+03   1.0000199E+03   1.0000298E+03   1.0000415E+03   1.0000536E+03   1.0000649E+03   1.0000742E+03   1.0000818E+03   1.0000876E+03   1.0000280E+03   1.0000411E+03   1.0000562E+03   1.0000358E+03   1.0000520E+03   1.0000434E+03   1.0000621E+03   1.0000505E+03   1.0000721E+03   1.0000588E+03   1.0000836E+03   1.0000701E+03   1.0000995E+03   1.0000872E+03   1.0001226E+03   1.0001135E+03   1.0001574E+03   1.0001528E+03   1.0002076E+03   1.0002062E+03   1.0002742E+03   1.0002701E+03   1.0003542E+03   1.0000000E+03   1.0000000E+03   1.0000000E+03   1.0000000E+03   1.0000000E+03   1.0000000E+03   1.0000000E+03   1.0000000E+03   1.0000000E+03   1.0000000E+03   1.0000000E+03   1.0000000E+03   1.0000000E+03   1.0000000E+03   1.0000000E+03   1.0000000E+03   1.0000000E+03   1.0000000E+03   1.0000000E+03   1.0000000E+03   1.0000000E+03   1.0000000E+03   1.0000000E+03   1.0000000E+03   1.0000000E+03   1.0000000E+03   1.0000000E+03   1.0000000E+03   1.0000000E+03   1.0000000E+03   1.0000000E+03   1.0000000E+03   1.0000000E+03   1.0000000E+03   1.0000000E+03   1.0000000E+03   1.0000004E+03   1.0000004E+03   1.0000004E+03   1.0000004E+03   1.0000004E+03   1.0000004E+03   1.0000004E+03   1.0000004E+03   1.0000004E+03   1.0000026E+03   1.0000026E+03   1.0000027E+03   1.0000027E+03   1.0000027E+03   1.0000027E+03   1.0000027E+03   1.0000027E+03   1.0000027E+03   1.0000082E+03   1.0000085E+03   1.0000087E+03   1.0000087E+03   1.0000089E+03   1.0000091E+03   1.0000091E+03   1.0000091E+03   1.0000091E+03   1.0000197E+03   1.0000206E+03   1.0000209E+03   1.0000212E+03   1.0000217E+03   1.0000217E+03   1.0000217E+03   1.0000217E+03   1.0000217E+03   1.0000383E+03   1.0000397E+03   1.0000407E+03   1.0000416E+03   1.0000417E+03   1.0000419E+03   1.0000421E+03   1.0000421E+03   1.0000421E+03   1.0000633E+03   1.0000657E+03   1.0000673E+03   1.0000683E+03   1.0000691E+03   1.0000693E+03   1.0000695E+03   1.0000696E+03   1.0000696E+03   1.0000920E+03   1.0000950E+03   1.0000971E+03   1.0000985E+03   1.0000995E+03   1.0001000E+03   1.0001002E+03   1.0001003E+03   1.0001003E+03   1.0000000E+03   1.0000000E+03   1.0000000E+03   1.0000000E+03   1.0000000E+03   1.0000000E+03   1.0000000E+03   1.0000000E+03   1.0000000E+03   1.0000000E+03   1.0000000E+03   1.0000000E+03   1.0000000E+03   1.0000000E+03   1.0000000E+03   1.0000000E+03   1.0000000E+03   1.0000000E+03   1.0000000E+03   1.0000000E+03   1.0000000E+03   1.0000000E+03   1.0000000E+03   1.0000000E+03   1.0000000E+03   1.0000000E+03   1.0000000E+03   1.0000000E+03   1.0000000E+03   1.0000000E+03   1.0000000E+03   1.0000000E+03   1.0000004E+03   1.0000004E+03   1.0000004E+03   1.0000004E+03   1.0000004E+03   1.0000004E+03   1.0000004E+03   1.0000004E+03   1.0000027E+03   1.0000027E+03   1.0000027E+03   1.0000027E+03   1.0000027E+03   1.0000027E+03   1.0000027E+03   1.0000027E+03   1.0000091E+03   1.0000091E+03   1.0000091E+03   1.0000091E+03   1.0000091E+03   1.0000089E+03   1.0000087E+03   1.0000087E+03   1.0000217E+03   1.0000217E+03   1.0000217E+03   1.0000217E+03   1.0000217E+03   1.0000217E+03   1.0000212E+03   1.0000209E+03   1.0000421E+03   1.0000421E+03   1.0000421E+03   1.0000421E+03   1.0000419E+03   1.0000417E+03   1.0000416E+03   1.0000407E+03   1.0000696E+03   1.0000696E+03   1.0000696E+03   1.0000695E+03   1.0000693E+03   1.0000691E+03   1.0000683E+03   1.0000673E+03   1.0001003E+03   1.0001003E+03   1.0001003E+03   1.0001002E+03   1.0001000E+03   1.0000995E+03   1.0000985E+03   1.0000971E+03   1.0000000E+03   1.0000000E+03   1.0000000E+03   1.0000000E+03   1.0000000E+03   1.0000000E+03   1.0000000E+03   1.0000000E+03   1.0000000E+03   1.0000000E+03   1.0000000E+03   1.0000000E+03   1.0000000E+03   1.0000000E+03   1.0000000E+03   1.0000000E+03   1.0000000E+03   1.0000000E+03   1.0000000E+03   1.0000000E+03   1.0000000E+03   1.0000000E+03   1.0000000E+03   1.0000000E+03   1.0000000E+03   1.0000000E+03   1.0000000E+03   1.0000000E+03   1.0000000E+03   1.0000000E+03   1.0000000E+03   1.0000000E+03   1.0000000E+03   1.0000000E+03   1.0000000E+03   1.0000000E+03   1.0000004E+03   1.0000004E+03   1.0000004E+03   1.0000004E+03   1.0000003E+03   1.0000002E+03   1.0000001E+03   1.0000000E+03   1.0000000E+03   1.0000026E+03   1.0000026E+03   1.0000024E+03   1.0000022E+03   1.0000020E+03   1.0000015E+03   1.0000012E+03   1.0000008E+03   1.0000004E+03   1.0000085E+03   1.0000082E+03   1.0000079E+03   1.0000072E+03   1.0000065E+03   1.0000054E+03   1.0000042E+03   1.0000029E+03   1.0000018E+03   1.0000206E+03   1.0000197E+03   1.0000186E+03   1.0000172E+03   1.0000154E+03   1.0000132E+03   1.0000104E+03   1.0000077E+03   1.0000051E+03   1.0000397E+03   1.0000383E+03   1.0000363E+03   1.0000339E+03   1.0000303E+03   1.0000260E+03   1.0000210E+03   1.0000158E+03   1.0000109E+03   1.0000657E+03   1.0000633E+03   1.0000603E+03   1.0000560E+03   1.0000505E+03   1.0000438E+03   1.0000357E+03   1.0000272E+03   1.0000192E+03   1.0000950E+03   1.0000920E+03   1.0000876E+03   1.0000818E+03   1.0000742E+03   1.0000649E+03   1.0000536E+03   1.0000415E+03   1.0000298E+03   1.0000562E+03   1.0000411E+03   1.0000520E+03   1.0000621E+03   1.0000721E+03   1.0000836E+03   1.0000995E+03   1.0001226E+03   1.0001574E+03   1.0002076E+03   1.0002742E+03   1.0003542E+03   1.0000000E+03   1.0000000E+03   1.0000000E+03   1.0000000E+03   1.0000000E+03   1.0000000E+03   1.0000000E+03   1.0000000E+03   1.0000000E+03   1.0000000E+03   1.0000000E+03   1.0000000E+03   1.0000000E+03   1.0000000E+03   1.0000000E+03   1.0000000E+03   1.0000000E+03   1.0000000E+03   1.0000000E+03   1.0000001E+03   1.0000000E+03   1.0000000E+03   1.0000000E+03   1.0000010E+03   1.0000004E+03   1.0000000E+03   1.0000000E+03   1.0000031E+03   1.0000015E+03   1.0000007E+03   1.0000000E+03   1.0000070E+03   1.0000040E+03   1.0000018E+03   1.0000005E+03   1.0000126E+03   1.0000076E+03   1.0000038E+03   1.0000015E+03   1.0000199E+03   1.0000122E+03   1.0000067E+03   1.0000026E+03   1.0000280E+03   1.0000176E+03   1.0000096E+03   1.0000042E+03   1.0000358E+03   1.0000229E+03   1.0000129E+03   1.0000057E+03   1.0000434E+03   1.0000281E+03   1.0000159E+03   1.0000071E+03   1.0000505E+03   1.0000328E+03   1.0000187E+03   1.0000085E+03   1.0000588E+03   1.0000383E+03   1.0000218E+03   1.0000098E+03   1.0000701E+03   1.0000455E+03   1.0000259E+03   1.0000119E+03   1.0000872E+03   1.0000564E+03   1.0000321E+03   1.0000146E+03   1.0001135E+03   1.0000742E+03   1.0000423E+03   1.0000193E+03   1.0001528E+03   1.0001012E+03   1.0000587E+03   1.0000277E+03   1.0002062E+03   1.0001385E+03   1.0000831E+03   1.0000420E+03   1.0002701E+03   1.0001852E+03   1.0001166E+03   1.0000000E+03   1.0000000E+03   1.0000000E+03   1.0000000E+03   1.0000000E+03   1.0000000E+03   1.0000000E+03   1.0000000E+03   1.0000000E+03   1.0000000E+03   1.0000000E+03   1.0000000E+03   1.0000000E+03   1.0000000E+03   1.0000000E+03   1.0000000E+03   1.0000000E+03   1.0000000E+03   1.0000000E+03   1.0000000E+03   1.0000000E+03   1.0000000E+03   1.0000000E+03   1.0000000E+03   1.0000000E+03   1.0000000E+03   1.0000000E+03   1.0000000E+03   1.0000000E+03   1.0000000E+03   1.0000000E+03   1.0000000E+03   1.0000000E+03   1.0000000E+03   1.0000000E+03   1.0000000E+03   1.0000000E+03   1.0000000E+03   1.0000000E+03   1.0000000E+03   1.0000000E+03   1.0000000E+03   1.0000000E+03   1.0000000E+03   1.0000000E+03   1.0000000E+03   1.0000000E+03   1.0000000E+03   1.0000000E+03   1.0000000E+03   1.0000000E+03   1.0000000E+03   1.0000000E+03   1.0000000E+03   1.0000000E+03   1.0000000E+03   1.0000000E+03   1.0000000E+03   1.0000000E+03   1.0000000E+03   1.0000000E+03   1.0000000E+03   1.0000000E+03   1.0000000E+03   1.0000000E+03   1.0000000E+03   1.0000000E+03   1.0000000E+03   1.0000000E+03   1.0000000E+03   1.0000000E+03   1.0000000E+03   1.0000000E+03   1.0000000E+03   1.0000000E+03   1.0000000E+03   1.0000000E+03   1.0000000E+03   1.0000000E+03   1.0000000E+03   1.0000000E+03   1.0000000E+03   1.0000000E+03   1.0000000E+03   1.0000000E+03   1.0000000E+03   1.0000000E+03   1.0000000E+03   1.0000000E+03   1.0000000E+03   1.0000000E+03   1.0000000E+03   1.0000000E+03   1.0000000E+03   1.0000000E+03   1.0000000E+03   1.0000000E+03   1.0000000E+03   1.0000000E+03   1.0000000E+03   1.0000000E+03   1.0000000E+03   1.0000000E+03   1.0000000E+03   1.0000000E+03   1.0000000E+03   1.0000000E+03   1.0000000E+03   1.0000000E+03   1.0000000E+03   1.0000000E+03   1.0000000E+03   1.0000000E+03   1.0000000E+03   1.0000000E+03   1.0000000E+03   1.0000000E+03   1.0000000E+03   1.0000000E+03   1.0000000E+03   1.0000000E+03   1.0000000E+03   1.0000000E+03   1.0000000E+03   1.0000000E+03   1.0000000E+03   1.0000000E+03   1.0000000E+03   1.0000000E+03   1.0000000E+03   1.0000000E+03   1.0000000E+03   1.0000000E+03   1.0000000E+03   1.0000000E+03   1.0000000E+03   1.0000000E+03   1.0000000E+03   1.0000000E+03   1.0000000E+03   1.0000000E+03   1.0000000E+03   1.0000000E+03   1.0000000E+03   1.0000000E+03   1.0000000E+03   1.0000000E+03   1.0000000E+03   1.0000000E+03   1.0000000E+03   1.0000000E+03   1.0000000E+03   1.0000000E+03   1.0000000E+03   1.0000000E+03   1.0000000E+03   1.0000000E+03   1.0000000E+03   1.0000000E+03   1.0000000E+03   1.0000000E+03   1.0000000E+03   1.0000000E+03   1.0000000E+03   1.0000000E+03   1.0000000E+03   1.0000000E+03   1.0000000E+03   1.0000000E+03   1.0000000E+03   1.0000000E+03   1.0000000E+03   1.0000000E+03   1.0000000E+03   1.0000000E+03   1.0000000E+03   1.0000000E+03   1.0000000E+03   1.0000000E+03   1.0000000E+03   1.0000000E+03   1.0000000E+03   1.0000000E+03   1.0000000E+03   1.0000000E+03   1.0000000E+03   1.0000000E+03   1.0000000E+03   1.0000000E+03   1.0000000E+03   1.0000000E+03   1.0000000E+03   1.0000000E+03   1.0000000E+03   1.0000000E+03   1.0000000E+03   1.0000000E+03   1.0000000E+03   1.0000000E+03   1.0000000E+03   1.0000000E+03   1.0000000E+03   1.0000000E+03   1.0000000E+03   1.0000000E+03   1.0000000E+03   1.0000000E+03   1.0000000E+03   1.0000000E+03   1.0000000E+03   1.0000000E+03   1.0000000E+03   1.0000000E+03   1.0000000E+03   1.0000000E+03   1.0000000E+03   1.0000000E+03   1.0000000E+03   1.0000000E+03   1.0000000E+03   1.0000000E+03   1.0000000E+03   1.0000000E+03   1.0000000E+03   1.0000000E+03   1.0000000E+03   1.0000000E+03   1.0000000E+03   1.0000000E+03   1.0000000E+03   1.0000000E+03   1.0000000E+03   1.0000000E+03   1.0000000E+03   1.0000000E+03   1.0000000E+03   1.0000000E+03   1.0000000E+03   1.0000000E+03   1.0000000E+03   1.0000000E+03   1.0000000E+03   1.0000000E+03   1.0000000E+03   1.0000000E+03   1.0000000E+03   1.0000000E+03   1.0000000E+03   1.0000000E+03   1.0000000E+03   1.0000000E+03   1.0000000E+03   1.0000000E+03   1.0000000E+03   1.0000000E+03   1.0000000E+03   1.0000000E+03   1.0000000E+03   1.0000000E+03   1.0000000E+03   1.0000000E+03   1.0000000E+03   1.0000000E+03   1.0000000E+03   1.0000000E+03   1.0000000E+03   1.0000000E+03   1.0000000E+03   1.0000000E+03   1.0000000E+03   1.0000000E+03   1.0000000E+03   1.0000000E+03   1.0000000E+03   1.0000000E+03   1.0000000E+03   1.0000000E+03   1.0000000E+03   1.0000000E+03   1.0000000E+03   1.0000000E+03   1.0000000E+03   1.0000000E+03   1.0000000E+03   1.0000000E+03   1.0000000E+03   1.0000000E+03   1.0000000E+03   1.0000000E+03   1.0000000E+03   1.0000000E+03   1.0000000E+03   1.0000000E+03   1.0000000E+03   1.0000000E+03   1.0000000E+03   1.0000000E+03   1.0000000E+03   1.0000000E+03   1.0000000E+03   1.0000000E+03   1.0000000E+03   1.0000000E+03   1.0000000E+03   1.0000000E+03   1.0000000E+03   1.0000000E+03   1.0000000E+03   1.0000000E+03   1.0000000E+03   1.0000000E+03   1.0000000E+03   1.0000000E+03   1.0000000E+03   1.0000000E+03   1.0000000E+03   1.0000000E+03   1.0000000E+03   1.0000000E+03   1.0000000E+03   1.0000000E+03   1.0000000E+03   1.0000000E+03   1.0000000E+03   1.0000000E+03   1.0000000E+03   1.0000000E+03   1.0000000E+03   1.0000000E+03   1.0000000E+03   1.0000000E+03   1.0000000E+03   1.0000000E+03   1.0000000E+03   1.0000000E+03   1.0000000E+03   1.0000000E+03   1.0000000E+03   1.0000000E+03   1.0000000E+03   1.0000000E+03   1.0000000E+03   1.0000000E+03   1.0000000E+03   1.0000000E+03   1.0000000E+03   1.0000000E+03   1.0000000E+03   1.0000000E+03   1.0000000E+03   1.0000000E+03   1.0000000E+03   1.0000000E+03   1.0000000E+03   1.0000000E+03   1.0000000E+03   1.0000000E+03   1.0000000E+03   1.0000000E+03   1.0000000E+03   1.0000000E+03   1.0000000E+03   1.0000000E+03   1.0000000E+03   1.0000000E+03   1.0000000E+03   1.0000000E+03   1.0000000E+03   1.0000000E+03   1.0000000E+03   1.0000000E+03   1.0000000E+03   1.0000000E+03   1.0000000E+03   1.0000000E+03   1.0000000E+03   1.0000000E+03   1.0000000E+03   1.0000000E+03   1.0000000E+03   1.0000000E+03   1.0000000E+03   1.0000000E+03   1.0000000E+03   1.0000000E+03   1.0000000E+03   1.0000000E+03   1.0000000E+03   1.0000000E+03   1.0000000E+03   1.0000000E+03   1.0000000E+03   1.0000000E+03   1.0000000E+03   1.0000000E+03   1.0000000E+03   1.0000000E+03   1.0000000E+03   1.0000000E+03   1.0000000E+03   1.0000000E+03   1.0000000E+03   1.0000000E+03   1.0000000E+03   1.0000000E+03   1.0000000E+03   1.0000000E+03   1.0000000E+03   1.0000000E+03   1.0000000E+03   1.0000000E+03   1.0000000E+03   1.0000000E+03   1.0000000E+03   1.0000000E+03   1.0000000E+03   1.0000000E+03   1.0000000E+03   1.0000000E+03   1.0000000E+03   1.0000000E+03   1.0000000E+03   1.0000000E+03   1.0000000E+03   1.0000000E+03   1.0000000E+03   1.0000000E+03   1.0000000E+03   1.0000000E+03   1.0000000E+03   1.0000000E+03   1.0000000E+03   1.0000000E+03   1.0000000E+03   1.0000000E+03   1.0000000E+03   1.0000000E+03   1.0000000E+03   1.0000000E+03   1.0000000E+03   1.0000000E+03   1.0000000E+03   1.0000000E+03   1.0000000E+03   1.0000000E+03   1.0000000E+03   1.0000000E+03   1.0000000E+03   1.0000000E+03   1.0000000E+03   1.0000000E+03   1.0000000E+03   1.0000000E+03   1.0000000E+03   1.0000000E+03   1.0000000E+03   1.0000000E+03   1.0000000E+03   1.0000000E+03   1.0000000E+03   1.0000000E+03   1.0000000E+03   1.0000000E+03   1.0000000E+03   1.0000000E+03   1.0000000E+03   1.0000000E+03   1.0000000E+03   1.0000000E+03   1.0000000E+03   1.0000000E+03   1.0000000E+03   1.0000716E+03   1.0000854E+03   1.0000970E+03   1.0001062E+03   1.0001132E+03   1.0000693E+03   1.0000879E+03   1.0001038E+03   1.0001168E+03   1.0001271E+03   1.0001348E+03   1.0000820E+03   1.0001028E+03   1.0001208E+03   1.0001352E+03   1.0001461E+03   1.0001542E+03   1.0000948E+03   1.0001187E+03   1.0001385E+03   1.0001542E+03   1.0001660E+03   1.0001741E+03   1.0001102E+03   1.0001369E+03   1.0001591E+03   1.0001763E+03   1.0001888E+03   1.0001969E+03   1.0001312E+03   1.0001613E+03   1.0001854E+03   1.0002035E+03   1.0002164E+03   1.0002247E+03   1.0001647E+03   1.0001967E+03   1.0002211E+03   1.0002382E+03   1.0002502E+03   1.0002584E+03   1.0002183E+03   1.0002500E+03   1.0002696E+03   1.0002828E+03   1.0002919E+03   1.0002979E+03   1.0003001E+03   1.0003258E+03   1.0003342E+03   1.0003381E+03   1.0003411E+03   1.0003441E+03   1.0004141E+03   1.0004230E+03   1.0004128E+03   1.0004025E+03   1.0003972E+03   1.0003956E+03   1.0005490E+03   1.0005313E+03   1.0004977E+03   1.0004719E+03   1.0004579E+03   1.0004523E+03   1.0006584E+03   1.0006291E+03   1.0005783E+03   1.0005411E+03   1.0005214E+03   1.0005130E+03   1.0006824E+03   1.0006848E+03   1.0006428E+03   1.0006062E+03   1.0005861E+03   1.0005775E+03   1.0006825E+03   1.0007089E+03   1.0006932E+03   1.0006680E+03   1.0006530E+03   1.0006470E+03   1.0007106E+03   1.0007402E+03   1.0007444E+03   1.0007335E+03   1.0007262E+03   1.0007232E+03   1.0007719E+03   1.0007979E+03   1.0008102E+03   1.0008097E+03   1.0008083E+03   1.0008082E+03   1.0008615E+03   1.0008832E+03   1.0008969E+03   1.0009006E+03   1.0009026E+03   1.0009041E+03   1.0009717E+03   1.0009902E+03   1.0010025E+03   1.0010070E+03   1.0010101E+03   1.0010126E+03   1.0010964E+03   1.0011138E+03   1.0011249E+03   1.0011288E+03   1.0011324E+03   1.0011350E+03   1.0012365E+03   1.0012546E+03   1.0012645E+03   1.0012672E+03   1.0012707E+03   1.0012731E+03   1.0013954E+03   1.0014143E+03   1.0014227E+03   1.0014239E+03   1.0014266E+03   1.0014281E+03   1.0015771E+03   1.0015956E+03   1.0016019E+03   1.0016006E+03   1.0016014E+03   1.0016010E+03   1.0017838E+03   1.0018007E+03   1.0018044E+03   1.0017992E+03   1.0017963E+03   1.0017921E+03   1.0020181E+03   1.0020321E+03   1.0020324E+03   1.0020212E+03   1.0020115E+03   1.0020018E+03   1.0022762E+03   1.0022877E+03   1.0022836E+03   1.0022614E+03   1.0022413E+03   1.0022232E+03   1.0025471E+03   1.0025573E+03   1.0025465E+03   1.0025065E+03   1.0024712E+03   1.0024417E+03   1.0028165E+03   1.0028278E+03   1.0028055E+03   1.0027374E+03   1.0026828E+03   1.0026412E+03   1.0030636E+03   1.0030768E+03   1.0030343E+03   1.0029284E+03   1.0028526E+03   1.0028006E+03   1.0032875E+03   1.0033016E+03   1.0032284E+03   1.0030793E+03   1.0029855E+03   1.0029301E+03   1.0035574E+03   1.0035692E+03   1.0034626E+03   1.0032778E+03   1.0031779E+03   1.0031305E+03   1.0041319E+03   1.0041394E+03   1.0040195E+03   1.0038319E+03   1.0037451E+03   1.0037224E+03   1.0055922E+03   1.0056040E+03   1.0055519E+03   1.0054143E+03   1.0053614E+03   1.0053777E+03   1.0085139E+03   1.0085569E+03   1.0086323E+03   1.0086473E+03   1.0086667E+03   1.0087284E+03   1.0121147E+03   1.0122004E+03   1.0123860E+03   1.0126048E+03   1.0127485E+03   1.0128614E+03   1.0144174E+03   1.0145094E+03   1.0147212E+03   1.0150444E+03   1.0153052E+03   1.0154600E+03   1.0148567E+03   1.0149095E+03   1.0150399E+03   1.0153397E+03   1.0156401E+03   1.0158131E+03   1.0144966E+03   1.0144779E+03   1.0144601E+03   1.0146304E+03   1.0148658E+03   1.0150081E+03   1.0142822E+03   1.0141743E+03   1.0141252E+03   1.0141220E+03   1.0141940E+03   1.0142291E+03   1.0144732E+03   1.0142642E+03   1.0142350E+03   1.0140944E+03   1.0140251E+03   1.0139620E+03   1.0149407E+03   1.0146585E+03   1.0146359E+03   1.0144352E+03   1.0142873E+03   1.0141663E+03   1.0154529E+03   1.0151309E+03   1.0151013E+03   1.0148978E+03   1.0147348E+03   1.0146016E+03   1.0158320E+03   1.0155002E+03   1.0154584E+03   1.0152839E+03   1.0151548E+03   1.0150463E+03   1.0157855E+03   1.0154692E+03   1.0154215E+03   1.0152786E+03   1.0151996E+03   1.0151348E+03   1.0153866E+03   1.0151061E+03   1.0150687E+03   1.0149617E+03   1.0149368E+03   1.0149242E+03   1.0147855E+03   1.0145574E+03   1.0145501E+03   1.0144910E+03   1.0145231E+03   1.0145667E+03   1.0140831E+03   1.0139253E+03   1.0139691E+03   1.0139756E+03   1.0140682E+03   1.0141683E+03   1.0133005E+03   1.0132274E+03   1.0133469E+03   1.0134338E+03   1.0135876E+03   1.0137368E+03   1.0124095E+03   1.0124343E+03   1.0126411E+03   1.0128115E+03   1.0130103E+03   1.0132028E+03   1.0113868E+03   1.0115063E+03   1.0117980E+03   1.0120225E+03   1.0122624E+03   1.0124876E+03   1.0102600E+03   1.0104523E+03   1.0107997E+03   1.0110499E+03   1.0113279E+03   1.0115697E+03   1.0090974E+03   1.0093329E+03   1.0096923E+03   1.0099551E+03   1.0102498E+03   1.0104931E+03   1.0079822E+03   1.0082264E+03   1.0085667E+03   1.0088201E+03   1.0091073E+03   1.0093403E+03   1.0069374E+03   1.0071889E+03   1.0074964E+03   1.0077288E+03   1.0079886E+03   1.0082008E+03   1.0058609E+03   1.0062165E+03   1.0065266E+03   1.0067410E+03   1.0069629E+03   1.0071422E+03   1.0048958E+03   1.0053557E+03   1.0057075E+03   1.0058990E+03   1.0060655E+03   1.0062038E+03   1.0046306E+03   1.0050515E+03   1.0052093E+03   1.0053112E+03   1.0053992E+03   1.0040087E+03   1.0044534E+03   1.0046426E+03   1.0046921E+03   1.0047315E+03   1.0038214E+03   1.0041082E+03   1.0041637E+03   1.0041869E+03   1.0032126E+03   1.0034863E+03   1.0036609E+03   1.0037168E+03   1.0028473E+03   1.0030874E+03   1.0032331E+03   1.0024883E+03   1.0026526E+03   1.0022764E+03   1.0021115E+03   1.0001183E+03   1.0001223E+03   1.0001248E+03   1.0001267E+03   1.0001275E+03   1.0001282E+03   1.0001285E+03   1.0001285E+03   1.0001285E+03   1.0001404E+03   1.0001447E+03   1.0001474E+03   1.0001493E+03   1.0001501E+03   1.0001509E+03   1.0001509E+03   1.0001511E+03   1.0001510E+03   1.0001600E+03   1.0001641E+03   1.0001670E+03   1.0001685E+03   1.0001695E+03   1.0001697E+03   1.0001699E+03   1.0001698E+03   1.0001697E+03   1.0001799E+03   1.0001837E+03   1.0001860E+03   1.0001872E+03   1.0001880E+03   1.0001880E+03   1.0001879E+03   1.0001876E+03   1.0001875E+03   1.0002025E+03   1.0002058E+03   1.0002078E+03   1.0002083E+03   1.0002085E+03   1.0002081E+03   1.0002077E+03   1.0002075E+03   1.0002071E+03   1.0002297E+03   1.0002325E+03   1.0002337E+03   1.0002337E+03   1.0002332E+03   1.0002326E+03   1.0002316E+03   1.0002310E+03   1.0002307E+03   1.0002627E+03   1.0002646E+03   1.0002649E+03   1.0002643E+03   1.0002628E+03   1.0002615E+03   1.0002603E+03   1.0002593E+03   1.0002587E+03   1.0003015E+03   1.0003022E+03   1.0003013E+03   1.0002997E+03   1.0002975E+03   1.0002956E+03   1.0002939E+03   1.0002925E+03   1.0002919E+03   1.0003453E+03   1.0003452E+03   1.0003432E+03   1.0003403E+03   1.0003375E+03   1.0003348E+03   1.0003323E+03   1.0003307E+03   1.0003298E+03   1.0003950E+03   1.0003933E+03   1.0003900E+03   1.0003860E+03   1.0003823E+03   1.0003788E+03   1.0003761E+03   1.0003740E+03   1.0003729E+03   1.0004496E+03   1.0004467E+03   1.0004423E+03   1.0004376E+03   1.0004327E+03   1.0004287E+03   1.0004255E+03   1.0004232E+03   1.0004218E+03   1.0005091E+03   1.0005053E+03   1.0005002E+03   1.0004945E+03   1.0004891E+03   1.0004844E+03   1.0004810E+03   1.0004783E+03   1.0004767E+03   1.0005736E+03   1.0005696E+03   1.0005641E+03   1.0005580E+03   1.0005521E+03   1.0005473E+03   1.0005433E+03   1.0005405E+03   1.0005387E+03   1.0006440E+03   1.0006401E+03   1.0006348E+03   1.0006287E+03   1.0006225E+03   1.0006173E+03   1.0006132E+03   1.0006103E+03   1.0006085E+03   1.0007213E+03   1.0007184E+03   1.0007133E+03   1.0007070E+03   1.0007010E+03   1.0006953E+03   1.0006914E+03   1.0006882E+03   1.0006865E+03   1.0008076E+03   1.0008049E+03   1.0008004E+03   1.0007945E+03   1.0007888E+03   1.0007834E+03   1.0007790E+03   1.0007759E+03   1.0007742E+03   1.0009041E+03   1.0009022E+03   1.0008980E+03   1.0008922E+03   1.0008864E+03   1.0008813E+03   1.0008769E+03   1.0008738E+03   1.0008722E+03   1.0010132E+03   1.0010114E+03   1.0010071E+03   1.0010016E+03   1.0009955E+03   1.0009907E+03   1.0009863E+03   1.0009832E+03   1.0009815E+03   1.0011357E+03   1.0011337E+03   1.0011293E+03   1.0011232E+03   1.0011171E+03   1.0011119E+03   1.0011077E+03   1.0011047E+03   1.0011028E+03   1.0012734E+03   1.0012705E+03   1.0012651E+03   1.0012584E+03   1.0012518E+03   1.0012462E+03   1.0012416E+03   1.0012385E+03   1.0012365E+03   1.0014271E+03   1.0014227E+03   1.0014158E+03   1.0014078E+03   1.0014000E+03   1.0013936E+03   1.0013884E+03   1.0013846E+03   1.0013826E+03   1.0015978E+03   1.0015909E+03   1.0015817E+03   1.0015711E+03   1.0015616E+03   1.0015536E+03   1.0015474E+03   1.0015430E+03   1.0015403E+03   1.0017851E+03   1.0017748E+03   1.0017616E+03   1.0017479E+03   1.0017354E+03   1.0017253E+03   1.0017175E+03   1.0017119E+03   1.0017084E+03   1.0019896E+03   1.0019736E+03   1.0019548E+03   1.0019362E+03   1.0019198E+03   1.0019064E+03   1.0018964E+03   1.0018891E+03   1.0018851E+03   1.0022029E+03   1.0021796E+03   1.0021538E+03   1.0021283E+03   1.0021064E+03   1.0020892E+03   1.0020763E+03   1.0020673E+03   1.0020620E+03   1.0024120E+03   1.0023788E+03   1.0023437E+03   1.0023107E+03   1.0022824E+03   1.0022604E+03   1.0022446E+03   1.0022332E+03   1.0022272E+03   1.0026011E+03   1.0025579E+03   1.0025126E+03   1.0024702E+03   1.0024351E+03   1.0024083E+03   1.0023887E+03   1.0023755E+03   1.0023682E+03   1.0027526E+03   1.0027010E+03   1.0026468E+03   1.0025959E+03   1.0025541E+03   1.0025224E+03   1.0025000E+03   1.0024848E+03   1.0024763E+03   1.0028811E+03   1.0028270E+03   1.0027680E+03   1.0027117E+03   1.0026650E+03   1.0026296E+03   1.0026047E+03   1.0025883E+03   1.0025788E+03   1.0030922E+03   1.0030455E+03   1.0029907E+03   1.0029354E+03   1.0028876E+03   1.0028511E+03   1.0028256E+03   1.0028088E+03   1.0027988E+03   1.0037090E+03   1.0036839E+03   1.0036444E+03   1.0035991E+03   1.0035570E+03   1.0035229E+03   1.0034984E+03   1.0034818E+03   1.0034719E+03   1.0054041E+03   1.0054138E+03   1.0054024E+03   1.0053771E+03   1.0053475E+03   1.0053208E+03   1.0052999E+03   1.0052847E+03   1.0052755E+03   1.0088016E+03   1.0088544E+03   1.0088786E+03   1.0088805E+03   1.0088701E+03   1.0088552E+03   1.0088401E+03   1.0088280E+03   1.0088197E+03   1.0129742E+03   1.0130657E+03   1.0131243E+03   1.0131539E+03   1.0131642E+03   1.0131634E+03   1.0131569E+03   1.0131484E+03   1.0131412E+03   1.0155917E+03   1.0157028E+03   1.0157828E+03   1.0158332E+03   1.0158618E+03   1.0158738E+03   1.0158754E+03   1.0158706E+03   1.0158647E+03   1.0159376E+03   1.0160419E+03   1.0161226E+03   1.0161810E+03   1.0162197E+03   1.0162417E+03   1.0162500E+03   1.0162491E+03   1.0162449E+03   1.0151005E+03   1.0151739E+03   1.0152366E+03   1.0152892E+03   1.0153297E+03   1.0153569E+03   1.0153701E+03   1.0153721E+03   1.0153692E+03   1.0142500E+03   1.0142757E+03   1.0143091E+03   1.0143456E+03   1.0143798E+03   1.0144053E+03   1.0144186E+03   1.0144208E+03   1.0144175E+03   1.0139175E+03   1.0138994E+03   1.0139024E+03   1.0139185E+03   1.0139392E+03   1.0139557E+03   1.0139628E+03   1.0139601E+03   1.0139536E+03   1.0140829E+03   1.0140380E+03   1.0140197E+03   1.0140184E+03   1.0140242E+03   1.0140281E+03   1.0140245E+03   1.0140138E+03   1.0140015E+03   1.0145110E+03   1.0144615E+03   1.0144376E+03   1.0144283E+03   1.0144244E+03   1.0144181E+03   1.0144043E+03   1.0143848E+03   1.0143671E+03   1.0149752E+03   1.0149420E+03   1.0149289E+03   1.0149240E+03   1.0149194E+03   1.0149091E+03   1.0148896E+03   1.0148649E+03   1.0148433E+03   1.0151000E+03   1.0150974E+03   1.0151066E+03   1.0151161E+03   1.0151204E+03   1.0151140E+03   1.0150956E+03   1.0150701E+03   1.0150474E+03   1.0149343E+03   1.0149678E+03   1.0150048E+03   1.0150352E+03   1.0150539E+03   1.0150577E+03   1.0150457E+03   1.0150243E+03   1.0150037E+03   1.0146241E+03   1.0146940E+03   1.0147581E+03   1.0148087E+03   1.0148431E+03   1.0148589E+03   1.0148564E+03   1.0148412E+03   1.0148249E+03   1.0142711E+03   1.0143720E+03   1.0144565E+03   1.0145211E+03   1.0145671E+03   1.0145923E+03   1.0145977E+03   1.0145895E+03   1.0145770E+03   1.0138779E+03   1.0139990E+03   1.0140921E+03   1.0141605E+03   1.0142094E+03   1.0142379E+03   1.0142474E+03   1.0142424E+03   1.0142326E+03   1.0133682E+03   1.0134954E+03   1.0135847E+03   1.0136465E+03   1.0136893E+03   1.0137150E+03   1.0137236E+03   1.0137200E+03   1.0137112E+03   1.0126635E+03   1.0127860E+03   1.0128632E+03   1.0129120E+03   1.0129445E+03   1.0129638E+03   1.0129695E+03   1.0129655E+03   1.0129575E+03   1.0117465E+03   1.0118592E+03   1.0119226E+03   1.0119580E+03   1.0119800E+03   1.0119933E+03   1.0119973E+03   1.0119929E+03   1.0119861E+03   1.0106656E+03   1.0107696E+03   1.0108227E+03   1.0108487E+03   1.0108644E+03   1.0108740E+03   1.0108773E+03   1.0108745E+03   1.0108694E+03   1.0095056E+03   1.0096053E+03   1.0096546E+03   1.0096788E+03   1.0096931E+03   1.0097023E+03   1.0097068E+03   1.0097065E+03   1.0097042E+03   1.0083539E+03   1.0084528E+03   1.0085074E+03   1.0085365E+03   1.0085545E+03   1.0085663E+03   1.0085732E+03   1.0085762E+03   1.0085762E+03   1.0072764E+03   1.0073748E+03   1.0074409E+03   1.0074826E+03   1.0075093E+03   1.0075263E+03   1.0075365E+03   1.0075421E+03   1.0075443E+03   1.0063104E+03   1.0064023E+03   1.0064811E+03   1.0065407E+03   1.0065814E+03   1.0066072E+03   1.0066224E+03   1.0066310E+03   1.0066350E+03   1.0054694E+03   1.0055452E+03   1.0056289E+03   1.0057070E+03   1.0057670E+03   1.0058070E+03   1.0058309E+03   1.0058442E+03   1.0058503E+03   1.0047601E+03   1.0048071E+03   1.0048814E+03   1.0049685E+03   1.0050480E+03   1.0051076E+03   1.0051461E+03   1.0051683E+03   1.0051793E+03   1.0041851E+03   1.0041951E+03   1.0042431E+03   1.0043213E+03   1.0044083E+03   1.0044849E+03   1.0045414E+03   1.0045775E+03   1.0045967E+03   1.0037323E+03   1.0037180E+03   1.0037272E+03   1.0037761E+03   1.0038505E+03   1.0039292E+03   1.0039965E+03   1.0040450E+03   1.0040736E+03   1.0033286E+03   1.0033585E+03   1.0033458E+03   1.0033520E+03   1.0033911E+03   1.0034498E+03   1.0035107E+03   1.0035609E+03   1.0035936E+03   1.0028722E+03   1.0030093E+03   1.0030664E+03   1.0030588E+03   1.0030518E+03   1.0030688E+03   1.0031025E+03   1.0031387E+03   1.0031655E+03   1.0023544E+03   1.0025681E+03   1.0027333E+03   1.0028195E+03   1.0028264E+03   1.0028060E+03   1.0027975E+03   1.0028035E+03   1.0028138E+03   1.0020500E+03   1.0021686E+03   1.0023018E+03   1.0024431E+03   1.0025491E+03   1.0025939E+03   1.0025916E+03   1.0025772E+03   1.0025697E+03   1.0020959E+03   1.0020635E+03   1.0021116E+03   1.0021592E+03   1.0022197E+03   1.0022620E+03   1.0022885E+03   1.0022993E+03   1.0021272E+03   1.0020491E+03   1.0020466E+03   1.0020183E+03   1.0019963E+03   1.0019785E+03   1.0022416E+03   1.0022081E+03   1.0021794E+03   1.0021533E+03   1.0001285E+03   1.0001285E+03   1.0001285E+03   1.0001285E+03   1.0001282E+03   1.0001275E+03   1.0001267E+03   1.0001248E+03   1.0001510E+03   1.0001510E+03   1.0001511E+03   1.0001509E+03   1.0001509E+03   1.0001501E+03   1.0001493E+03   1.0001474E+03   1.0001697E+03   1.0001697E+03   1.0001698E+03   1.0001699E+03   1.0001697E+03   1.0001695E+03   1.0001685E+03   1.0001670E+03   1.0001875E+03   1.0001875E+03   1.0001876E+03   1.0001879E+03   1.0001880E+03   1.0001880E+03   1.0001872E+03   1.0001860E+03   1.0002070E+03   1.0002071E+03   1.0002075E+03   1.0002077E+03   1.0002081E+03   1.0002085E+03   1.0002083E+03   1.0002078E+03   1.0002305E+03   1.0002307E+03   1.0002310E+03   1.0002316E+03   1.0002326E+03   1.0002332E+03   1.0002337E+03   1.0002337E+03   1.0002584E+03   1.0002587E+03   1.0002593E+03   1.0002603E+03   1.0002615E+03   1.0002628E+03   1.0002643E+03   1.0002649E+03   1.0002913E+03   1.0002919E+03   1.0002925E+03   1.0002939E+03   1.0002956E+03   1.0002975E+03   1.0002997E+03   1.0003013E+03   1.0003294E+03   1.0003298E+03   1.0003307E+03   1.0003323E+03   1.0003348E+03   1.0003375E+03   1.0003403E+03   1.0003432E+03   1.0003723E+03   1.0003729E+03   1.0003740E+03   1.0003761E+03   1.0003788E+03   1.0003823E+03   1.0003860E+03   1.0003900E+03   1.0004213E+03   1.0004218E+03   1.0004232E+03   1.0004255E+03   1.0004287E+03   1.0004327E+03   1.0004376E+03   1.0004423E+03   1.0004763E+03   1.0004767E+03   1.0004783E+03   1.0004810E+03   1.0004844E+03   1.0004891E+03   1.0004945E+03   1.0005002E+03   1.0005381E+03   1.0005387E+03   1.0005405E+03   1.0005433E+03   1.0005473E+03   1.0005521E+03   1.0005580E+03   1.0005641E+03   1.0006079E+03   1.0006085E+03   1.0006103E+03   1.0006132E+03   1.0006173E+03   1.0006225E+03   1.0006287E+03   1.0006348E+03   1.0006860E+03   1.0006865E+03   1.0006882E+03   1.0006914E+03   1.0006953E+03   1.0007010E+03   1.0007070E+03   1.0007133E+03   1.0007736E+03   1.0007742E+03   1.0007759E+03   1.0007790E+03   1.0007834E+03   1.0007888E+03   1.0007945E+03   1.0008004E+03   1.0008715E+03   1.0008722E+03   1.0008738E+03   1.0008769E+03   1.0008813E+03   1.0008864E+03   1.0008922E+03   1.0008980E+03   1.0009810E+03   1.0009815E+03   1.0009832E+03   1.0009863E+03   1.0009907E+03   1.0009955E+03   1.0010016E+03   1.0010071E+03   1.0011021E+03   1.0011028E+03   1.0011047E+03   1.0011077E+03   1.0011119E+03   1.0011171E+03   1.0011232E+03   1.0011293E+03   1.0012357E+03   1.0012365E+03   1.0012385E+03   1.0012416E+03   1.0012462E+03   1.0012518E+03   1.0012584E+03   1.0012651E+03   1.0013819E+03   1.0013826E+03   1.0013846E+03   1.0013884E+03   1.0013936E+03   1.0014000E+03   1.0014078E+03   1.0014158E+03   1.0015395E+03   1.0015403E+03   1.0015430E+03   1.0015474E+03   1.0015536E+03   1.0015616E+03   1.0015711E+03   1.0015816E+03   1.0017074E+03   1.0017084E+03   1.0017119E+03   1.0017175E+03   1.0017253E+03   1.0017354E+03   1.0017479E+03   1.0017616E+03   1.0018837E+03   1.0018851E+03   1.0018891E+03   1.0018964E+03   1.0019064E+03   1.0019198E+03   1.0019362E+03   1.0019548E+03   1.0020604E+03   1.0020620E+03   1.0020673E+03   1.0020763E+03   1.0020892E+03   1.0021064E+03   1.0021283E+03   1.0021538E+03   1.0022249E+03   1.0022272E+03   1.0022332E+03   1.0022446E+03   1.0022604E+03   1.0022824E+03   1.0023107E+03   1.0023437E+03   1.0023654E+03   1.0023682E+03   1.0023755E+03   1.0023887E+03   1.0024083E+03   1.0024351E+03   1.0024702E+03   1.0025126E+03   1.0024733E+03   1.0024763E+03   1.0024848E+03   1.0025000E+03   1.0025225E+03   1.0025541E+03   1.0025959E+03   1.0026468E+03   1.0025756E+03   1.0025788E+03   1.0025883E+03   1.0026047E+03   1.0026296E+03   1.0026650E+03   1.0027117E+03   1.0027680E+03   1.0027954E+03   1.0027988E+03   1.0028088E+03   1.0028256E+03   1.0028511E+03   1.0028876E+03   1.0029354E+03   1.0029907E+03   1.0034686E+03   1.0034719E+03   1.0034818E+03   1.0034984E+03   1.0035229E+03   1.0035570E+03   1.0035991E+03   1.0036444E+03   1.0052722E+03   1.0052755E+03   1.0052847E+03   1.0052999E+03   1.0053208E+03   1.0053475E+03   1.0053771E+03   1.0054024E+03   1.0088167E+03   1.0088197E+03   1.0088280E+03   1.0088401E+03   1.0088552E+03   1.0088701E+03   1.0088805E+03   1.0088786E+03   1.0131386E+03   1.0131412E+03   1.0131484E+03   1.0131569E+03   1.0131634E+03   1.0131642E+03   1.0131539E+03   1.0131243E+03   1.0158625E+03   1.0158647E+03   1.0158706E+03   1.0158754E+03   1.0158738E+03   1.0158618E+03   1.0158332E+03   1.0157828E+03   1.0162427E+03   1.0162449E+03   1.0162491E+03   1.0162500E+03   1.0162417E+03   1.0162197E+03   1.0161810E+03   1.0161226E+03   1.0153672E+03   1.0153692E+03   1.0153721E+03   1.0153701E+03   1.0153569E+03   1.0153297E+03   1.0152892E+03   1.0152366E+03   1.0144153E+03   1.0144175E+03   1.0144208E+03   1.0144186E+03   1.0144053E+03   1.0143798E+03   1.0143456E+03   1.0143091E+03   1.0139504E+03   1.0139536E+03   1.0139601E+03   1.0139628E+03   1.0139557E+03   1.0139392E+03   1.0139185E+03   1.0139024E+03   1.0139963E+03   1.0140015E+03   1.0140138E+03   1.0140245E+03   1.0140281E+03   1.0140242E+03   1.0140184E+03   1.0140197E+03   1.0143600E+03   1.0143671E+03   1.0143848E+03   1.0144043E+03   1.0144181E+03   1.0144244E+03   1.0144283E+03   1.0144376E+03   1.0148347E+03   1.0148433E+03   1.0148649E+03   1.0148896E+03   1.0149091E+03   1.0149194E+03   1.0149240E+03   1.0149289E+03   1.0150386E+03   1.0150474E+03   1.0150701E+03   1.0150956E+03   1.0151140E+03   1.0151204E+03   1.0151161E+03   1.0151066E+03   1.0149955E+03   1.0150037E+03   1.0150243E+03   1.0150457E+03   1.0150577E+03   1.0150539E+03   1.0150352E+03   1.0150048E+03   1.0148179E+03   1.0148248E+03   1.0148412E+03   1.0148564E+03   1.0148589E+03   1.0148431E+03   1.0148087E+03   1.0147581E+03   1.0145710E+03   1.0145770E+03   1.0145895E+03   1.0145977E+03   1.0145923E+03   1.0145671E+03   1.0145211E+03   1.0144565E+03   1.0142279E+03   1.0142326E+03   1.0142424E+03   1.0142474E+03   1.0142379E+03   1.0142094E+03   1.0141605E+03   1.0140921E+03   1.0137070E+03   1.0137112E+03   1.0137200E+03   1.0137236E+03   1.0137150E+03   1.0136893E+03   1.0136465E+03   1.0135847E+03   1.0129537E+03   1.0129575E+03   1.0129655E+03   1.0129695E+03   1.0129638E+03   1.0129445E+03   1.0129120E+03   1.0128632E+03   1.0119830E+03   1.0119861E+03   1.0119929E+03   1.0119973E+03   1.0119933E+03   1.0119800E+03   1.0119580E+03   1.0119226E+03   1.0108669E+03   1.0108694E+03   1.0108745E+03   1.0108773E+03   1.0108740E+03   1.0108644E+03   1.0108487E+03   1.0108227E+03   1.0097028E+03   1.0097042E+03   1.0097065E+03   1.0097068E+03   1.0097023E+03   1.0096931E+03   1.0096788E+03   1.0096546E+03   1.0085759E+03   1.0085762E+03   1.0085762E+03   1.0085732E+03   1.0085663E+03   1.0085545E+03   1.0085365E+03   1.0085074E+03   1.0075449E+03   1.0075443E+03   1.0075421E+03   1.0075365E+03   1.0075263E+03   1.0075093E+03   1.0074826E+03   1.0074409E+03   1.0066361E+03   1.0066350E+03   1.0066310E+03   1.0066224E+03   1.0066072E+03   1.0065814E+03   1.0065407E+03   1.0064811E+03   1.0058521E+03   1.0058503E+03   1.0058442E+03   1.0058309E+03   1.0058070E+03   1.0057670E+03   1.0057070E+03   1.0056289E+03   1.0051826E+03   1.0051793E+03   1.0051683E+03   1.0051461E+03   1.0051076E+03   1.0050480E+03   1.0049685E+03   1.0048814E+03   1.0046029E+03   1.0045967E+03   1.0045775E+03   1.0045414E+03   1.0044849E+03   1.0044083E+03   1.0043213E+03   1.0042431E+03   1.0040829E+03   1.0040736E+03   1.0040450E+03   1.0039965E+03   1.0039292E+03   1.0038505E+03   1.0037761E+03   1.0037272E+03   1.0036047E+03   1.0035936E+03   1.0035609E+03   1.0035107E+03   1.0034498E+03   1.0033911E+03   1.0033520E+03   1.0033458E+03   1.0031751E+03   1.0031655E+03   1.0031387E+03   1.0031025E+03   1.0030688E+03   1.0030518E+03   1.0030588E+03   1.0030664E+03   1.0028183E+03   1.0028138E+03   1.0028035E+03   1.0027975E+03   1.0028060E+03   1.0028264E+03   1.0028195E+03   1.0027333E+03   1.0025678E+03   1.0025697E+03   1.0025772E+03   1.0025915E+03   1.0025939E+03   1.0025491E+03   1.0024431E+03   1.0023018E+03   1.0023032E+03   1.0022993E+03   1.0022885E+03   1.0022620E+03   1.0022197E+03   1.0021592E+03   1.0021116E+03   1.0020635E+03   1.0019717E+03   1.0019785E+03   1.0019963E+03   1.0020183E+03   1.0020466E+03   1.0020491E+03   1.0021272E+03   1.0021422E+03   1.0021533E+03   1.0021794E+03   1.0022081E+03   1.0022416E+03   1.0001223E+03   1.0001183E+03   1.0001132E+03   1.0001062E+03   1.0000970E+03   1.0000854E+03   1.0000716E+03   1.0001447E+03   1.0001404E+03   1.0001348E+03   1.0001271E+03   1.0001168E+03   1.0001038E+03   1.0000879E+03   1.0000693E+03   1.0001641E+03   1.0001600E+03   1.0001542E+03   1.0001461E+03   1.0001352E+03   1.0001208E+03   1.0001028E+03   1.0000820E+03   1.0001837E+03   1.0001799E+03   1.0001741E+03   1.0001660E+03   1.0001542E+03   1.0001385E+03   1.0001187E+03   1.0000948E+03   1.0002058E+03   1.0002025E+03   1.0001969E+03   1.0001888E+03   1.0001763E+03   1.0001591E+03   1.0001369E+03   1.0001102E+03   1.0002325E+03   1.0002297E+03   1.0002247E+03   1.0002164E+03   1.0002035E+03   1.0001854E+03   1.0001613E+03   1.0001312E+03   1.0002646E+03   1.0002627E+03   1.0002584E+03   1.0002502E+03   1.0002382E+03   1.0002211E+03   1.0001967E+03   1.0001647E+03   1.0003022E+03   1.0003015E+03   1.0002979E+03   1.0002919E+03   1.0002828E+03   1.0002696E+03   1.0002500E+03   1.0002183E+03   1.0003452E+03   1.0003453E+03   1.0003441E+03   1.0003411E+03   1.0003381E+03   1.0003342E+03   1.0003258E+03   1.0003001E+03   1.0003933E+03   1.0003950E+03   1.0003956E+03   1.0003972E+03   1.0004025E+03   1.0004128E+03   1.0004230E+03   1.0004141E+03   1.0004467E+03   1.0004496E+03   1.0004523E+03   1.0004579E+03   1.0004719E+03   1.0004977E+03   1.0005313E+03   1.0005490E+03   1.0005053E+03   1.0005091E+03   1.0005130E+03   1.0005214E+03   1.0005411E+03   1.0005783E+03   1.0006291E+03   1.0006584E+03   1.0005696E+03   1.0005736E+03   1.0005775E+03   1.0005861E+03   1.0006062E+03   1.0006428E+03   1.0006848E+03   1.0006824E+03   1.0006401E+03   1.0006440E+03   1.0006470E+03   1.0006530E+03   1.0006680E+03   1.0006932E+03   1.0007089E+03   1.0006825E+03   1.0007184E+03   1.0007213E+03   1.0007232E+03   1.0007262E+03   1.0007335E+03   1.0007444E+03   1.0007402E+03   1.0007106E+03   1.0008049E+03   1.0008076E+03   1.0008082E+03   1.0008083E+03   1.0008097E+03   1.0008102E+03   1.0007979E+03   1.0007719E+03   1.0009022E+03   1.0009041E+03   1.0009041E+03   1.0009026E+03   1.0009006E+03   1.0008969E+03   1.0008832E+03   1.0008615E+03   1.0010114E+03   1.0010132E+03   1.0010126E+03   1.0010101E+03   1.0010070E+03   1.0010025E+03   1.0009902E+03   1.0009717E+03   1.0011337E+03   1.0011357E+03   1.0011350E+03   1.0011324E+03   1.0011288E+03   1.0011249E+03   1.0011138E+03   1.0010964E+03   1.0012705E+03   1.0012734E+03   1.0012731E+03   1.0012707E+03   1.0012672E+03   1.0012645E+03   1.0012546E+03   1.0012365E+03   1.0014227E+03   1.0014271E+03   1.0014281E+03   1.0014266E+03   1.0014239E+03   1.0014227E+03   1.0014143E+03   1.0013954E+03   1.0015909E+03   1.0015978E+03   1.0016010E+03   1.0016014E+03   1.0016006E+03   1.0016019E+03   1.0015956E+03   1.0015771E+03   1.0017748E+03   1.0017851E+03   1.0017921E+03   1.0017963E+03   1.0017992E+03   1.0018044E+03   1.0018007E+03   1.0017838E+03   1.0019736E+03   1.0019896E+03   1.0020018E+03   1.0020115E+03   1.0020212E+03   1.0020324E+03   1.0020321E+03   1.0020181E+03   1.0021796E+03   1.0022029E+03   1.0022232E+03   1.0022413E+03   1.0022614E+03   1.0022836E+03   1.0022877E+03   1.0022762E+03   1.0023788E+03   1.0024120E+03   1.0024417E+03   1.0024712E+03   1.0025065E+03   1.0025465E+03   1.0025573E+03   1.0025471E+03   1.0025579E+03   1.0026011E+03   1.0026412E+03   1.0026828E+03   1.0027374E+03   1.0028055E+03   1.0028278E+03   1.0028165E+03   1.0027010E+03   1.0027526E+03   1.0028006E+03   1.0028526E+03   1.0029284E+03   1.0030343E+03   1.0030768E+03   1.0030636E+03   1.0028270E+03   1.0028811E+03   1.0029301E+03   1.0029855E+03   1.0030793E+03   1.0032284E+03   1.0033016E+03   1.0032875E+03   1.0030455E+03   1.0030922E+03   1.0031305E+03   1.0031779E+03   1.0032778E+03   1.0034626E+03   1.0035692E+03   1.0035574E+03   1.0036839E+03   1.0037090E+03   1.0037224E+03   1.0037451E+03   1.0038319E+03   1.0040195E+03   1.0041394E+03   1.0041319E+03   1.0054138E+03   1.0054041E+03   1.0053777E+03   1.0053614E+03   1.0054143E+03   1.0055519E+03   1.0056040E+03   1.0055922E+03   1.0088544E+03   1.0088016E+03   1.0087284E+03   1.0086667E+03   1.0086473E+03   1.0086323E+03   1.0085569E+03   1.0085139E+03   1.0130657E+03   1.0129742E+03   1.0128614E+03   1.0127485E+03   1.0126048E+03   1.0123860E+03   1.0122004E+03   1.0121147E+03   1.0157028E+03   1.0155917E+03   1.0154600E+03   1.0153052E+03   1.0150444E+03   1.0147212E+03   1.0145094E+03   1.0144174E+03   1.0160419E+03   1.0159376E+03   1.0158130E+03   1.0156401E+03   1.0153397E+03   1.0150399E+03   1.0149095E+03   1.0148567E+03   1.0151739E+03   1.0151005E+03   1.0150081E+03   1.0148658E+03   1.0146304E+03   1.0144601E+03   1.0144779E+03   1.0144966E+03   1.0142757E+03   1.0142500E+03   1.0142291E+03   1.0141940E+03   1.0141220E+03   1.0141252E+03   1.0141743E+03   1.0142822E+03   1.0138994E+03   1.0139175E+03   1.0139620E+03   1.0140251E+03   1.0140944E+03   1.0142350E+03   1.0142642E+03   1.0144732E+03   1.0140380E+03   1.0140830E+03   1.0141663E+03   1.0142873E+03   1.0144352E+03   1.0146359E+03   1.0146585E+03   1.0149407E+03   1.0144615E+03   1.0145110E+03   1.0146016E+03   1.0147348E+03   1.0148978E+03   1.0151013E+03   1.0151309E+03   1.0154529E+03   1.0149420E+03   1.0149752E+03   1.0150463E+03   1.0151548E+03   1.0152839E+03   1.0154584E+03   1.0155002E+03   1.0158320E+03   1.0150974E+03   1.0151000E+03   1.0151348E+03   1.0151996E+03   1.0152786E+03   1.0154215E+03   1.0154692E+03   1.0157855E+03   1.0149678E+03   1.0149343E+03   1.0149241E+03   1.0149368E+03   1.0149617E+03   1.0150687E+03   1.0151061E+03   1.0153866E+03   1.0146940E+03   1.0146241E+03   1.0145667E+03   1.0145231E+03   1.0144910E+03   1.0145501E+03   1.0145574E+03   1.0147855E+03   1.0143720E+03   1.0142711E+03   1.0141683E+03   1.0140682E+03   1.0139756E+03   1.0139691E+03   1.0139253E+03   1.0140831E+03   1.0139990E+03   1.0138779E+03   1.0137368E+03   1.0135876E+03   1.0134338E+03   1.0133469E+03   1.0132274E+03   1.0133005E+03   1.0134954E+03   1.0133682E+03   1.0132028E+03   1.0130104E+03   1.0128115E+03   1.0126411E+03   1.0124343E+03   1.0124095E+03   1.0127860E+03   1.0126635E+03   1.0124876E+03   1.0122624E+03   1.0120225E+03   1.0117980E+03   1.0115063E+03   1.0113868E+03   1.0118592E+03   1.0117465E+03   1.0115697E+03   1.0113279E+03   1.0110499E+03   1.0107997E+03   1.0104523E+03   1.0102600E+03   1.0107696E+03   1.0106656E+03   1.0104931E+03   1.0102498E+03   1.0099551E+03   1.0096923E+03   1.0093329E+03   1.0090974E+03   1.0096053E+03   1.0095056E+03   1.0093403E+03   1.0091073E+03   1.0088201E+03   1.0085667E+03   1.0082264E+03   1.0079822E+03   1.0084528E+03   1.0083539E+03   1.0082009E+03   1.0079886E+03   1.0077288E+03   1.0074964E+03   1.0071889E+03   1.0069374E+03   1.0073748E+03   1.0072764E+03   1.0071422E+03   1.0069629E+03   1.0067410E+03   1.0065266E+03   1.0062165E+03   1.0058609E+03   1.0064023E+03   1.0063104E+03   1.0062038E+03   1.0060655E+03   1.0058990E+03   1.0057075E+03   1.0053557E+03   1.0048958E+03   1.0055452E+03   1.0054694E+03   1.0053992E+03   1.0053112E+03   1.0052093E+03   1.0050515E+03   1.0046306E+03   1.0048071E+03   1.0047601E+03   1.0047315E+03   1.0046921E+03   1.0046426E+03   1.0044534E+03   1.0040087E+03   1.0041951E+03   1.0041851E+03   1.0041869E+03   1.0041637E+03   1.0041082E+03   1.0038214E+03   1.0037180E+03   1.0037323E+03   1.0037168E+03   1.0036609E+03   1.0034863E+03   1.0032126E+03   1.0033585E+03   1.0033286E+03   1.0032331E+03   1.0030874E+03   1.0028473E+03   1.0030093E+03   1.0028722E+03   1.0026526E+03   1.0024883E+03   1.0025681E+03   1.0023544E+03   1.0021115E+03   1.0022764E+03   1.0021686E+03   1.0020500E+03   1.0020959E+03 
Mass 1 2975 float
  4.0000001E-01   4.0000001E-01   4.0000001E-01   4.0000001E-01   4.0000001E-01   4.0000001E-01   4.0000001E-01   4.0000001E-01   4.0000001E-01   4.0000001E-01   4.0000001E-01   4.0000001E-01   4.0000001E-01   4.0000001E-01   4.0000001E-01   4.0000001E-01   4.0000001E-01   4.0000001E-01   4.0000001E-01   4.0000001E-01   4.0000001E-01   4.0000001E-01   4.0000001E-01   4.0000001E-01   4.0000001E-01   4.0000001E-01   4.0000001E-01   4.0000001E-01   4.0000001E-01   4.0000001E-01   4.0000001E-01   4.0000001E-01   4.0000001E-01   4.0000001E-01   4.0000001E-01   4.0000001E-01   4.0000001E-01   4.0000001E-01   4.0000001E-01   4.0000001E-01   4.0000001E-01   4.0000001E-01   4.0000001E-01   4.0000001E-01   4.0000001E-01   4.0000001E-01   4.0000001E-01   4.0000001E-01   4.0000001E-01   4.0000001E-01   4.0000001E-01   4.0000001E-01   4.0000001E-01   4.0000001E-01   4.0000001E-01   4.0000001E-01   4.0000001E-01   4.0000001E-01   4.0000001E-01   4.0000001E-01   4.0000001E-01   4.0000001E-01   4.0000001E-01   4.0000001E-01   4.0000001E-01   4.0000001E-01   4.0000001E-01   4.0000001E-01   4.0000001E-01   4.0000001E-01   4.0000001E-01   4.0000001E-01   4.0000001E-01   4.0000001E-01   4.0000001E-01   4.0000001E-01   4.0000001E-01   4.0000001E-01   4.0000001E-01   4.0000001E-01   4.0000001E-01   4.0000001E-01   4.0000001E-01   4.0000001E-01   4.0000001E-01   4.0000001E-01   4.0000001E-01   4.0000001E-01   4.0000001E-01   4.0000001E-01   4.0000001E-01   4.0000001E-01   4.0000001E-01   4.0000001E-01   4.0000001E-01   4.0000001E-01   4.0000001E-01   4.0000001E-01   4.0000001E-01   4.0000001E-01   4.0000001E-01   4.0000001E-01   4.0000001E-01   4.0000001E-01   4.0000001E-01   4.0000001E-01   4.0000001E-01   4.0000001E-01   4.0000001E-01   4.0000001E-01   4.0000001E-01   4.0000001E-01   4.0000001E-01   4.0000001E-01   4.0000001E-01   4.0000001E-01   4.0000001E-01   4.0000001E-01   4.0000001E-01   4.0000001E-01   4.0000001E-01   4.0000001E-01   4.0000001E-01   4.0000001E-01   4.0000001E-01   4.0000001E-01   4.0000001E-01   4.0000001E-01   4.0000001E-01   4.0000001E-01   4.0000001E-01   4.0000001E-01   4.0000001E-01   4.0000001E-01   4.0000001E-01   4.0000001E-01   4.0000001E-01   4.0000001E-01   4.0000001E-01   4.0000001E-01   4.0000001E-01   4.0000001E-01   4.0000001E-01   4.0000001E-01   4.0000001E-01   4.0000001E-01   4.0000001E-01   4.0000001E-01   4.0000001E-01   4.0000001E-01   4.0000001E-01   4.0000001E-01   4.0000001E-01   4.0000001E-01   4.0000001E-01   4.0000001E-01   4.0000001E-01   4.0000001E-01   4.0000001E-01   4.0000001E-01   4.0000001E-01   4.0000001E-01   4.0000001E-01   4.0000001E-01   4.0000001E-01   4.0000001E-01   4.0000001E-01   4.0000001E-01   4.0000001E-01   4.0000001E-01   4.0000001E-01   4.0000001E-01   4.0000001E-01   4.0000001E-01   4.0000001E-01   4.0000001E-01   4.0000001E-01   4.0000001E-01   4.0000001E-01   4.0000001E-01   4.0000001E-01   4.0000001E-01   4.0000001E-01   4.0000001E-01   4.0000001E-01   4.0000001E-01   4.0000001E-01   4.0000001E-01   4.0000001E-01   4.0000001E-01   4.0000001E-01   4.0000001E-01   4.0000001E-01   4.0000001E-01   4.0000001E-01   4.0000001E-01   4.0000001E-01   4.0000001E-01   4.0000001E-01   4.0000001E-01   4.0000001E-01   4.0000001E-01   4.0000001E-01   4.0000001E-01   4.0000001E-01   4.0000001E-01   4.0000001E-01   4.0000001E-01   4.0000001E-01   4.0000001E-01   4.0000001E-01   4.0000001E-01   4.0000001E-01   4.0000001E-01   4.0000001E-01   4.0000001E-01   4.0000001E-01   4.0000001E-01   4.0000001E-01   4.0000001E-01   4.0000001E-01   4.0000001E-01   4.0000001E-01   4.0000001E-01   4.0000001E-01   4.0000001E-01   4.0000001E-01   4.0000001E-01   4.0000001E-01   4.0000001E-01   4.0000001E-01   4.0000001E-01   4.0000001E-01   4.0000001E-01   4.0000001E-01   4.0000001E-01   4.0000001E-01   4.0000001E-01   4.0000001E-01   4.0000001E-01   4.0000001E-01   4.0000001E-01   4.0000001E-01   4.0000001E-01   4.0000001E-01   4.0000001E-01   4.0000001E-01   4.0000001E-01   4.0000001E-01   4.0000001E-01   4.0000001E-01   4.0000001E-01   4.0000001E-01   4.0000001E-01   4.0000001E-01   4.0000001E-01   4.0000001E-01   4.0000001E-01   4.0000001E-01   4.0000001E-01   4.0000001E-01   4.0000001E-01   4.0000001E-01   4.0000001E-01   4.0000001E-01   4.0000001E-01   4.0000001E-01   4.0000001E-01   4.0000001E-01   4.0000001E-01   4.0000001E-01   4.0000001E-01   4.0000001E-01   4.0000001E-01   4.0000001E-01   4.0000001E-01   4.0000001E-01   4.0000001E-01   4.0000001E-01   4.0000001E-01   4.0000001E-01   4.0000001E-01   4.0000001E-01   4.0000001E-01   4.0000001E-01   4.0000001E-01   4.0000001E-01   4.0000001E-01   4.0000001E-01   4.0000001E-01   4.0000001E-01   4.0000001E-01   4.0000001E-01   4.0000001E-01   4.0000001E-01   4.0000001E-01   4.0000001E-01   4.0000001E-01   4.0000001E-01   4.0000001E-01   4.0000001E-01   4.0000001E-01   4.0000001E-01   4.0000001E-01   4.0000001E-01   4.0000001E-01   4.0000001E-01   4.0000001E-01   4.0000001E-01   4.0000001E-01   4.0000001E-01   4.0000001E-01   4.0000001E-01   4.0000001E-01   4.0000001E-01   4.0000001E-01   4.0000001E-01   4.0000001E-01   4.0000001E-01   4.0000001E-01   4.0000001E-01   4.0000001E-01   4.0000001E-01   4.0000001E-01   4.0000001E-01   4.0000001E-01   4.0000001E-01   4.0000001E-01   4.0000001E-01   4.0000001E-01   4.0000001E-01   4.0000001E-01   4.0000001E-01   4.0000001E-01   4.0000001E-01   4.0000001E-01   4.0000001E-01   4.0000001E-01   4.0000001E-01   4.0000001E-01   4.0000001E-01   4.0000001E-01   4.0000001E-01   4.0000001E-01   4.0000001E-01   4.0000001E-01   4.0000001E-01   4.0000001E-01   4.0000001E-01   4.0000001E-01   4.0000001E-01   4.0000001E-01   4.0000001E-01   4.0000001E-01   4.0000001E-01   4.0000001E-01   4.0000001E-01   4.0000001E-01   4.0000001E-01   4.0000001E-01   4.0000001E-01   4.0000001E-01   4.0000001E-01   4.0000001E-01   4.0000001E-01   4.0000001E-01   4.0000001E-01   4.0000001E-01   4.0000001E-01   4.0000001E-01   4.0000001E-01   4.0000001E-01   4.0000001E-01   4.0000001E-01   4.0000001E-01   4.0000001E-01   4.0000001E-01   4.0000001E-01   4.0000001E-01   4.0000001E-01   4.0000001E-01   4.0000001E-01   4.0000001E-01   4.0000001E-01   4.0000001E-01   4.0000001E-01   4.0000001E-01   4.0000001E-01   4.0000001E-01   4.0000001E-01   4.0000001E-01   4.0000001E-01   4.0000001E-01   4.0000001E-01   4.0000001E-01   4.0000001E-01   4.0000001E-01   4.0000001E-01   4.0000001E-01   4.0000001E-01   4.0000001E-01   4.0000001E-01   4.0000001E-01   4.0000001E-01   4.0000001E-01   4.0000001E-01   4.0000001E-01   4.0000001E-01   4.0000001E-01   4.0000001E-01   4.0000001E-01   4.0000001E-01   4.0000001E-01   4.0000001E-01   4.0000001E-01   4.0000001E-01   4.0000001E-01   4.0000001E-01   4.0000001E-01   4.0000001E-01   4.0000001E-01   4.0000001E-01   4.0000001E-01   4.0000001E-01   4.0000001E-01   4.0000001E-01   4.0000001E-01   4.0000001E-01   4.0000001E-01   4.0000001E-01   4.0000001E-01   4.0000001E-01   4.0000001E-01   4.0000001E-01   4.0000001E-01   4.0000001E-01   4.0000001E-01   4.0000001E-01   4.0000001E-01   4.0000001E-01   4.0000001E-01   4.0000001E-01   4.0000001E-01   4.0000001E-01   4.0000001E-01   4.0000001E-01   4.0000001E-01   4.0000001E-01   4.0000001E-01   4.0000001E-01   4.0000001E-01   4.0000001E-01   4.0000001E-01   4.0000001E-01   4.0000001E-01   4.0000001E-01   4.0000001E-01   4.0000001E-01   4.0000001E-01   4.0000001E-01   4.0000001E-01   4.0000001E-01   4.0000001E-01   4.0000001E-01   4.0000001E-01   4.0000001E-01   4.0000001E-01   4.0000001E-01   4.0000001E-01   4.0000001E-01   4.0000001E-01   4.0000001E-01   4.0000001E-01   4.0000001E-01   4.0000001E-01   4.0000001E-01   4.0000001E-01   4.0000001E-01   4.0000001E-01   4.0000001E-01   4.0000001E-01   4.0000001E-01   4.0000001E-01   4.0000001E-01   4.0000001E-01   4.0000001E-01   4.0000001E-01   4.0000001E-01   4.0000001E-01   4.0000001E-01   4.0000001E-01   4.0000001E-01   4.0000001E-01   4.0000001E-01   4.0000001E-01   4.0000001E-01   4.0000001E-01   4.0000001E-01   4.0000001E-01   4.0000001E-01   4.0000001E-01   4.0000001E-01   4.0000001E-01   4.0000001E-01   4.0000001E-01   4.0000001E-01   4.0000001E-01   4.0000001E-01   4.0000001E-01   4.0000001E-01   4.0000001E-01   4.0000001E-01   4.0000001E-01   4.0000001E-01   4.0000001E-01   4.0000001E-01   4.0000001E-01   4.0000001E-01   4.0000001E-01   4.0000001E-01   4.0000001E-01   4.0000001E-01   4.0000001E-01   4.0000001E-01   4.0000001E-01   4.0000001E-01   4.0000001E-01   4.0000001E-01   4.0000001E-01   4.0000001E-01   4.0000001E-01   4.0000001E-01   4.0000001E-01   4.0000001E-01   4.0000001E-01   4.0000001E-01   4.0000001E-01   4.0000001E-01   4.0000001E-01   4.0000001E-01   4.0000001E-01   4.0000001E-01   4.0000001E-01   4.0000001E-01   4.0000001E-01   4.0000001E-01   4.0000001E-01   4.0000001E-01   4.0000001E-01   4.0000001E-01   4.0000001E-01   4.0000001E-01   4.0000001E-01   4.0000001E-01   4.0000001E-01   4.0000001E-01   4.0000001E-01   4.0000001E-01   4.0000001E-01   4.0000001E-01   4.0000001E-01   4.0000001E-01   4.0000001E-01   4.0000001E-01   4.0000001E-01   4.0000001E-01   4.0000001E-01   4.0000001E-01   4.0000001E-01   4.0000001E-01   4.0000001E-01   4.0000001E-01   4.0000001E-01   4.0000001E-01   4.0000001E-01   4.0000001E-01   4.0000001E-01   4.0000001E-01   4.0000001E-01   4.0000001E-01   4.0000001E-01   4.0000001E-01   4.0000001E-01   4.0000001E-01   4.0000001E-01   4.0000001E-01   4.0000001E-01   4.0000001E-01   4.0000001E-01   4.0000001E-01   4.0000001E-01   4.0000001E-01   4.0000001E-01   4.0000001E-01   4.0000001E-01   4.0000001E-01   4.0000001E-01   4.0000001E-01   4.0000001E-01   4.0000001E-01   4.0000001E-01   4.0000001E-01   4.0000001E-01   4.0000001E-01   4.0000001E-01   4.0000001E-01   4.0000001E-01   4.0000001E-01   4.0000001E-01   4.0000001E-01   4.0000001E-01   4.0000001E-01   4.0000001E-01   4.0000001E-01   4.0000001E-01   4.0000001E-01   4.0000001E-01   4.0000001E-01   4.0000001E-01   4.0000001E-01   4.0000001E-01   4.0000001E-01   4.0000001E-01   4.0000001E-01   4.0000001E-01   4.0000001E-01   4.0000001E-01   4.0000001E-01   4.0000001E-01   4.0000001E-01   4.0000001E-01   4.0000001E-01   4.0000001E-01   4.0000001E-01   4.0000001E-01   4.0000001E-01   4.0000001E-01   4.0000001E-01   4.0000001E-01   4.0000001E-01   4.0000001E-01   4.0000001E-01   4.0000001E-01   4.0000001E-01   4.0000001E-01   4.0000001E-01   4.0000001E-01   4.0000001E-01   4.0000001E-01   4.0000001E-01   4.0000001E-01   4.0000001E-01   4.0000001E-01   4.0000001E-01   4.0000001E-01   4.0000001E-01   4.0000001E-01   4.0000001E-01   4.0000001E-01   4.0000001E-01   4.0000001E-01   4.0000001E-01   4.0000001E-01   4.0000001E-01   4.0000001E-01   4.0000001E-01   4.0000001E-01   4.0000001E-01   4.0000001E-01   4.0000001E-01   4.0000001E-01   4.0000001E-01   4.0000001E-01   4.0000001E-01   4.0000001E-01   4.0000001E-01   4.0000001E-01   4.0000001E-01   4.0000001E-01   4.0000001E-01   4.0000001E-01   4.0000001E-01   4.0000001E-01   4.0000001E-01   4.0000001E-01   4.0000001E-01   4.0000001E-01   4.0000001E-01   4.0000001E-01   4.0000001E-01   4.0000001E-01   4.0000001E-01   4.0000001E-01   4.0000001E-01   4.0000001E-01   4.0000001E-01   4.0000001E-01   4.0000001E-01   4.0000001E-01   4.0000001E-01   4.0000001E-01   4.0000001E-01   4.0000001E-01   4.0000001E-01   4.0000001E-01   4.0000001E-01   4.0000001E-01   4.0000001E-01   4.0000001E-01   4.0000001E-01   4.0000001E-01   4.0000001E-01   4.0000001E-01   4.0000001E-01   4.0000001E-01   4.0000001E-01   4.0000001E-01   4.0000001E-01   4.0000001E-01   4.0000001E-01   4.0000001E-01   4.0000001E-01   4.0000001E-01   4.0000001E-01   4.0000001E-01   4.0000001E-01   4.0000001E-01   4.0000001E-01   4.0000001E-01   4.0000001E-01   4.0000001E-01   4.0000001E-01   4.0000001E-01   4.0000001E-01   4.0000001E-01   4.0000001E-01   4.0000001E-01   4.0000001E-01   4.0000001E-01   4.0000001E-01   4.0000001E-01   4.0000001E-01   4.0000001E-01   4.0000001E-01   4.0000001E-01   4.0000001E-01   4.0000001E-01   4.0000001E-01   4.0000001E-01   4.0000001E-01   4.0000001E-01   4.0000001E-01   4.0000001E-01   4.0000001E-01   4.0000001E-01   4.0000001E-01   4.0000001E-01   4.0000001E-01   4.0000001E-01   4.0000001E-01   4.0000001E-01   4.0000001E-01   4.0000001E-01   4.0000001E-01   4.0000001E-01   4.0000001E-01   4.0000001E-01   4.0000001E-01   4.0000001E-01   4.0000001E-01   4.0000001E-01   4.0000001E-01   4.0000001E-01   4.0000001E-01   4.0000001E-01   4.0000001E-01   4.0000001E-01   4.0000001E-01   4.0000001E-01   4.0000001E-01   4.0000001E-01   4.0000001E-01   4.0000001E-01   4.0000001E-01   4.0000001E-01   4.0000001E-01   4.0000001E-01   4.0000001E-01   4.0000001E-01   4.0000001E-01   4.0000001E-01   4.0000001E-01   4.0000001E-01   4.0000001E-01   4.0000001E-01   4.0000001E-01   4.0000001E-01   4.0000001E-01   4.0000001E-01   4.0000001E-01   4.0000001E-01   4.0000001E-01   4.0000001E-01   4.0000001E-01   4.0000001E-01   4.0000001E-01   4.0000001E-01   4.0000001E-01   4.0000001E-01   4.0000001E-01   4.0000001E-01   4.0000001E-01   4.0000001E-01   4.0000001E-01   4.0000001E-01   4.0000001E-01   4.0000001E-01   4.0000001E-01   4.0000001E-01   4.0000001E-01   4.0000001E-01   4.0000001E-01   4.0000001E-01   4.0000001E-01   4.0000001E-01   4.0000001E-01   4.0000001E-01   4.0000001E-01   4.0000001E-01   4.0000001E-01   4.0000001E-01   4.0000001E-01   4.0000001E-01   4.0000001E-01   4.0000001E-01   4.0000001E-01   4.0000001E-01   4.0000001E-01   4.0000001E-01   4.0000001E-01   4.0000001E-01   4.0000001E-01   4.0000001E-01   4.0000001E-01   4.0000001E-01   4.0000001E-01   4.0000001E-01   4.0000001E-01   4.0000001E-01   4.0000001E-01   4.0000001E-01   4.0000001E-01   4.0000001E-01   4.0000001E-01   4.0000001E-01   4.0000001E-01   4.0000001E-01   4.0000001E-01   4.0000001E-01   4.0000001E-01   4.0000001E-01   4.0000001E-01   4.0000001E-01   4.0000001E-01   4.0000001E-01   4.0000001E-01   4.0000001E-01   4.0000001E-01   4.0000001E-01   4.0000001E-01   4.0000001E-01   4.0000001E-01   4.0000001E-01   4.0000001E-01   4.0000001E-01   4.0000001E-01   4.0000001E-01   4.0000001E-01   4.0000001E-01   4.0000001E-01   4.0000001E-01   4.0000001E-01   4.0000001E-01   4.0000001E-01   4.0000001E-01   4.0000001E-01   4.0000001E-01   4.0000001E-01   4.0000001E-01   4.0000001E-01   4.0000001E-01   4.0000001E-01   4.0000001E-01   4.0000001E-01   4.0000001E-01   4.0000001E-01   4.0000001E-01   4.0000001E-01   4.0000001E-01   4.0000001E-01   4.0000001E-01   4.0000001E-01   4.0000001E-01   4.0000001E-01   4.0000001E-01   4.0000001E-01   4.0000001E-01   4.0000001E-01   4.0000001E-01   4.0000001E-01   4.0000001E-01   4.0000001E-01   4.0000001E-01   4.0000001E-01   4.0000001E-01   4.0000001E-01   4.0000001E-01   4.0000001E-01   4.0000001E-01   4.0000001E-01   4.0000001E-01   4.0000001E-01   4.0000001E-01   4.0000001E-01   4.0000001E-01   4.0000001E-01   4.0000001E-01   4.0000001E-01   4.0000001E-01   4.0000001E-01   4.0000001E-01   4.0000001E-01   4.0000001E-01   4.0000001E-01   4.0000001E-01   4.0000001E-01   4.0000001E-01   4.0000001E-01   4.0000001E-01   4.0000001E-01   4.0000001E-01   4.0000001E-01   4.0000001E-01   4.0000001E-01   4.0000001E-01   4.0000001E-01   4.0000001E-01   4.0000001E-01   4.0000001E-01   4.0000001E-01   4.0000001E-01   4.0000001E-01   4.0000001E-01   4.0000001E-01   4.0000001E-01   4.0000001E-01   4.0000001E-01   4.0000001E-01   4.0000001E-01   4.0000001E-01   4.0000001E-01   4.0000001E-01   4.0000001E-01   4.0000001E-01   4.0000001E-01   4.0000001E-01   4.0000001E-01   4.0000001E-01   4.0000001E-01   4.0000001E-01   4.0000001E-01   4.0000001E-01   4.0000001E-01   4.0000001E-01   4.0000001E-01   4.0000001E-01   4.0000001E-01   4.0000001E-01   4.0000001E-01   4.0000001E-01   4.0000001E-01   4.0000001E-01   4.0000001E-01   4.0000001E-01   4.0000001E-01   4.0000001E-01   4.0000001E-01   4.0000001E-01   4.0000001E-01   4.0000001E-01   4.0000001E-01   4.0000001E-01   4.0000001E-01   4.0000001E-01   4.0000001E-01   4.0000001E-01   4.0000001E-01   4.0000001E-01   4.0000001E-01   4.0000001E-01   4.0000001E-01   4.0000001E-01   4.0000001E-01   4.0000001E-01   4.0000001E-01   4.0000001E-01   4.0000001E-01   4.0000001E-01   4.0000001E-01   4.0000001E-01   4.0000001E-01   4.0000001E-01   4.0000001E-01   4.0000001E-01   4.0000001E-01   4.0000001E-01   4.0000001E-01   4.0000001E-01   4.0000001E-01   4.0000001E-01   4.0000001E-01   4.0000001E-01   4.0000001E-01   4.0000001E-01   4.0000001E-01   4.0000001E-01   4.0000001E-01   4.0000001E-01   4.0000001E-01   4.0000001E-01   4.0000001E-01   4.0000001E-01   4.0000001E-01   4.0000001E-01   4.0000001E-01   4.0000001E-01   4.0000001E-01   4.0000001E-01   4.0000001E-01   4.0000001E-01   4.0000001E-01   4.0000001E-01   4.0000001E-01   4.0000001E-01   4.0000001E-01   4.0000001E-01   4.0000001E-01   4.0000001E-01   4.0000001E-01   4.0000001E-01   4.0000001E-01   4.0000001E-01   4.0000001E-01   4.0000001E-01   4.0000001E-01   4.0000001E-01   4.0000001E-01   4.0000001E-01   4.0000001E-01   4.0000001E-01   4.0000001E-01   4.0000001E-01   4.0000001E-01   4.0000001E-01   4.0000001E-01   4.0000001E-01   4.0000001E-01   4.0000001E-01   4.0000001E-01   4.0000001E-01   4.0000001E-01   4.0000001E-01   4.0000001E-01   4.0000001E-01   4.0000001E-01   4.0000001E-01   4.0000001E-01   4.0000001E-01   4.0000001E-01   4.0000001E-01   4.0000001E-01   4.0000001E-01   4.0000001E-01   4.0000001E-01   4.0000001E-01   4.0000001E-01   4.0000001E-01   4.0000001E-01   4.0000001E-01   4.0000001E-01   4.0000001E-01   4.0000001E-01   4.0000001E-01   4.0000001E-01   4.0000001E-01   4.0000001E-01   4.0000001E-01   4.0000001E-01   4.0000001E-01   4.0000001E-01   4.0000001E-01   4.0000001E-01   4.0000001E-01   4.0000001E-01   4.0000001E-01   4.0000001E-01   4.0000001E-01   4.0000001E-01   4.0000001E-01   4.0000001E-01   4.0000001E-01   4.0000001E-01   4.0000001E-01   4.0000001E-01   4.0000001E-01   4.0000001E-01   4.0000001E-01   4.0000001E-01   4.0000001E-01   4.0000001E-01   4.0000001E-01   4.0000001E-01   4.0000001E-01   4.0000001E-01   4.0000001E-01   4.0000001E-01   4.0000001E-01   4.0000001E-01   4.0000001E-01   4.0000001E-01   4.0000001E-01   4.0000001E-01   4.0000001E-01   4.0000001E-01   4.0000001E-01   4.0000001E-01   4.0000001E-01   4.0000001E-01   4.0000001E-01   4.0000001E-01   4.0000001E-01   4.0000001E-01   4.0000001E-01   4.0000001E-01   4.0000001E-01   4.0000001E-01   4.0000001E-01   4.0000001E-01   4.0000001E-01   4.0000001E-01   4.0000001E-01   4.0000001E-01   4.0000001E-01   4.0000001E-01   4.0000001E-01   4.0000001E-01   4.0000001E-01   4.0000001E-01   4.0000001E-01   4.0000001E-01   4.0000001E-01   4.0000001E-01   4.0000001E-01   4.0000001E-01   4.0000001E-01   4.0000001E-01   4.0000001E-01   4.0000001E-01   4.0000072E-01   4.0000084E-01   4.0000084E-01   4.0000072E-01   4.0000081E-01   4.0000084E-01   4.0000227E-01   4.0000224E-01   4.0000236E-01   4.0000218E-01   4.0000230E-01   4.0000227E-01   4.0000534E-01   4.0000543E-01   4.0000537E-01   4.0000540E-01   4.0000534E-01   4.0000546E-01   4.0001476E-01   4.0001476E-01   4.0001458E-01   4.0001473E-01   4.0001467E-01   4.0001470E-01   4.0003961E-01   4.0003958E-01   4.0003964E-01   4.0003964E-01   4.0003973E-01   4.0003970E-01   4.0010655E-01   4.0010661E-01   4.0010658E-01   4.0010661E-01   4.0010682E-01   4.0010673E-01   4.0028414E-01   4.0028432E-01   4.0028438E-01   4.0028441E-01   4.0028447E-01   4.0028465E-01   4.0073517E-01   4.0073544E-01   4.0073574E-01   4.0073606E-01   4.0073642E-01   4.0073636E-01   4.0177003E-01   4.0177086E-01   4.0177161E-01   4.0177220E-01   4.0177280E-01   4.0177307E-01   4.0367714E-01   4.0367869E-01   4.0367967E-01   4.0368047E-01   4.0368131E-01   4.0368184E-01   4.0609765E-01   4.0609914E-01   4.0609962E-01   4.0609980E-01   4.0610015E-01   4.0610066E-01   4.0805060E-01   4.0805104E-01   4.0805084E-01   4.0804994E-01   4.0804920E-01   4.0804899E-01   4.0912944E-01   4.0912896E-01   4.0912825E-01   4.0912682E-01   4.0912530E-01   4.0912449E-01   4.0960369E-01   4.0960366E-01   4.0960327E-01   4.0960154E-01   4.0960008E-01   4.0959930E-01   4.0979025E-01   4.0979049E-01   4.0979043E-01   4.0978935E-01   4.0978831E-01   4.0978751E-01   4.0985954E-01   4.0985993E-01   4.0986010E-01   4.0985948E-01   4.0985885E-01   4.0985817E-01   4.0988383E-01   4.0988445E-01   4.0988451E-01   4.0988412E-01   4.0988374E-01   4.0988326E-01   4.0989065E-01   4.0989128E-01   4.0989125E-01   4.0989095E-01   4.0989071E-01   4.0989020E-01   4.0987706E-01   4.0987775E-01   4.0987781E-01   4.0987751E-01   4.0987700E-01   4.0987647E-01   4.0971643E-01   4.0971705E-01   4.0971693E-01   4.0971649E-01   4.0971589E-01   4.0971532E-01   4.0940070E-01   4.0940109E-01   4.0940094E-01   4.0940037E-01   4.0939969E-01   4.0939921E-01   4.0894786E-01   4.0894794E-01   4.0894768E-01   4.0894699E-01   4.0894619E-01   4.0894559E-01   4.0838239E-01   4.0838221E-01   4.0838179E-01   4.0838096E-01   4.0838009E-01   4.0837967E-01   4.0773380E-01   4.0773341E-01   4.0773270E-01   4.0773186E-01   4.0773106E-01   4.0773043E-01   4.0703338E-01   4.0703270E-01   4.0703204E-01   4.0703106E-01   4.0703061E-01   4.0703022E-01   4.0631199E-01   4.0631118E-01   4.0631050E-01   4.0630978E-01   4.0630943E-01   4.0630919E-01   4.0559736E-01   4.0559646E-01   4.0559590E-01   4.0559542E-01   4.0559524E-01   4.0559492E-01   4.0491271E-01   4.0491208E-01   4.0491152E-01   4.0491131E-01   4.0491122E-01   4.0491107E-01   4.0427631E-01   4.0427604E-01   4.0427598E-01   4.0427592E-01   4.0427575E-01   4.0427583E-01   4.0370136E-01   4.0370134E-01   4.0370148E-01   4.0370163E-01   4.0370166E-01   4.0370172E-01   4.0319544E-01   4.0319553E-01   4.0319571E-01   4.0319598E-01   4.0319616E-01   4.0319636E-01   4.0276128E-01   4.0276152E-01   4.0276149E-01   4.0276188E-01   4.0276200E-01   4.0276235E-01   4.0239745E-01   4.0239742E-01   4.0239775E-01   4.0239802E-01   4.0239820E-01   4.0209904E-01   4.0209916E-01   4.0209928E-01   4.0209940E-01   4.0209967E-01   4.0185988E-01   4.0185988E-01   4.0186009E-01   4.0186030E-01   4.0167227E-01   4.0167230E-01   4.0167236E-01   4.0167254E-01   4.0152818E-01   4.0152824E-01   4.0152827E-01   4.0141991E-01   4.0141982E-01   4.0133983E-01   4.0134007E-01   4.0000001E-01   4.0000001E-01   4.0000001E-01   4.0000001E-01   4.0000001E-01   4.0000001E-01   4.0000001E-01   4.0000001E-01   4.0000001E-01   4.0000001E-01   4.0000001E-01   4.0000001E-01   4.0000001E-01   4.0000001E-01   4.0000001E-01   4.0000001E-01   4.0000001E-01   4.0000001E-01   4.0000001E-01   4.0000001E-01   4.0000001E-01   4.0000001E-01   4.0000001E-01   4.0000001E-01   4.0000001E-01   4.0000001E-01   4.0000001E-01   4.0000001E-01   4.0000001E-01   4.0000001E-01   4.0000001E-01   4.0000001E-01   4.0000001E-01   4.0000001E-01   4.0000001E-01   4.0000001E-01   4.0000001E-01   4.0000001E-01   4.0000001E-01   4.0000001E-01   4.0000001E-01   4.0000001E-01   4.0000001E-01   4.0000001E-01   4.0000001E-01   4.0000001E-01   4.0000001E-01   4.0000001E-01   4.0000001E-01   4.0000001E-01   4.0000001E-01   4.0000001E-01   4.0000001E-01   4.0000001E-01   4.0000001E-01   4.0000001E-01   4.0000001E-01   4.0000001E-01   4.0000001E-01   4.0000001E-01   4.0000001E-01   4.0000001E-01   4.0000001E-01   4.0000001E-01   4.0000001E-01   4.0000001E-01   4.0000001E-01   4.0000001E-01   4.0000001E-01   4.0000001E-01   4.0000001E-01   4.0000001E-01   4.0000001E-01   4.0000001E-01   4.0000001E-01   4.0000001E-01   4.0000001E-01   4.0000001E-01   4.0000001E-01   4.0000001E-01   4.0000001E-01   4.0000001E-01   4.0000001E-01   4.0000001E-01   4.0000001E-01   4.0000001E-01   4.0000001E-01   4.0000001E-01   4.0000001E-01   4.0000001E-01   4.0000001E-01   4.0000001E-01   4.0000001E-01   4.0000001E-01   4.0000001E-01   4.0000001E-01   4.0000001E-01   4.0000001E-01   4.0000001E-01   4.0000001E-01   4.0000001E-01   4.0000001E-01   4.0000001E-01   4.0000001E-01   4.0000001E-01   4.0000001E-01   4.0000001E-01   4.0000001E-01   4.0000001E-01   4.0000001E-01   4.0000001E-01   4.0000001E-01   4.0000001E-01   4.0000001E-01   4.0000001E-01   4.0000001E-01   4.0000001E-01   4.0000001E-01   4.0000001E-01   4.0000001E-01   4.0000001E-01   4.0000001E-01   4.0000001E-01   4.0000001E-01   4.0000001E-01   4.0000001E-01   4.0000001E-01   4.0000001E-01   4.0000001E-01   4.0000001E-01   4.0000001E-01   4.0000001E-01   4.0000001E-01   4.0000001E-01   4.0000001E-01   4.0000001E-01   4.0000001E-01   4.0000001E-01   4.0000001E-01   4.0000001E-01   4.0000001E-01   4.0000001E-01   4.0000001E-01   4.0000001E-01   4.0000001E-01   4.0000001E-01   4.0000001E-01   4.0000001E-01   4.0000001E-01   4.0000001E-01   4.0000001E-01   4.0000001E-01   4.0000001E-01   4.0000001E-01   4.0000001E-01   4.0000001E-01   4.0000001E-01   4.0000001E-01   4.0000001E-01   4.0000001E-01   4.0000001E-01   4.0000001E-01   4.0000001E-01   4.0000001E-01   4.0000001E-01   4.0000001E-01   4.0000001E-01   4.0000001E-01   4.0000001E-01   4.0000001E-01   4.0000001E-01   4.0000001E-01   4.0000001E-01   4.0000001E-01   4.0000001E-01   4.0000001E-01   4.0000001E-01   4.0000001E-01   4.0000001E-01   4.0000001E-01   4.0000001E-01   4.0000001E-01   4.0000001E-01   4.0000001E-01   4.0000001E-01   4.0000001E-01   4.0000001E-01   4.0000001E-01   4.0000001E-01   4.0000001E-01   4.0000001E-01   4.0000001E-01   4.0000001E-01   4.0000001E-01   4.0000001E-01   4.0000001E-01   4.0000001E-01   4.0000001E-01   4.0000001E-01   4.0000001E-01   4.0000001E-01   4.0000001E-01   4.0000001E-01   4.0000001E-01   4.0000001E-01   4.0000001E-01   4.0000001E-01   4.0000081E-01   4.0000078E-01   4.0000084E-01   4.0000084E-01   4.0000078E-01   4.0000075E-01   4.0000072E-01   4.0000072E-01   4.0000072E-01   4.0000230E-01   4.0000239E-01   4.0000236E-01   4.0000233E-01   4.0000242E-01   4.0000218E-01   4.0000242E-01   4.0000230E-01   4.0000224E-01   4.0000540E-01   4.0000522E-01   4.0000531E-01   4.0000525E-01   4.0000528E-01   4.0000531E-01   4.0000525E-01   4.0000540E-01   4.0000540E-01   4.0001476E-01   4.0001482E-01   4.0001482E-01   4.0001473E-01   4.0001476E-01   4.0001470E-01   4.0001485E-01   4.0001479E-01   4.0001476E-01   4.0003952E-01   4.0003976E-01   4.0003937E-01   4.0003958E-01   4.0003970E-01   4.0003973E-01   4.0003973E-01   4.0003976E-01   4.0003964E-01   4.0010667E-01   4.0010685E-01   4.0010676E-01   4.0010682E-01   4.0010682E-01   4.0010682E-01   4.0010694E-01   4.0010706E-01   4.0010694E-01   4.0028471E-01   4.0028462E-01   4.0028477E-01   4.0028480E-01   4.0028486E-01   4.0028489E-01   4.0028498E-01   4.0028507E-01   4.0028495E-01   4.0073651E-01   4.0073678E-01   4.0073693E-01   4.0073702E-01   4.0073714E-01   4.0073743E-01   4.0073755E-01   4.0073746E-01   4.0073758E-01   4.0177336E-01   4.0177396E-01   4.0177444E-01   4.0177456E-01   4.0177497E-01   4.0177521E-01   4.0177542E-01   4.0177548E-01   4.0177560E-01   4.0368259E-01   4.0368310E-01   4.0368366E-01   4.0368420E-01   4.0368474E-01   4.0368512E-01   4.0368539E-01   4.0368563E-01   4.0368572E-01   4.0610096E-01   4.0610158E-01   4.0610200E-01   4.0610224E-01   4.0610269E-01   4.0610313E-01   4.0610337E-01   4.0610364E-01   4.0610361E-01   4.0804884E-01   4.0804872E-01   4.0804866E-01   4.0804863E-01   4.0804869E-01   4.0804872E-01   4.0804881E-01   4.0804878E-01   4.0804875E-01   4.0912393E-01   4.0912318E-01   4.0912279E-01   4.0912244E-01   4.0912196E-01   4.0912190E-01   4.0912163E-01   4.0912154E-01   4.0912130E-01   4.0959844E-01   4.0959749E-01   4.0959689E-01   4.0959626E-01   4.0959564E-01   4.0959555E-01   4.0959498E-01   4.0959463E-01   4.0959448E-01   4.0978652E-01   4.0978587E-01   4.0978494E-01   4.0978432E-01   4.0978372E-01   4.0978324E-01   4.0978271E-01   4.0978241E-01   4.0978232E-01   4.0985727E-01   4.0985650E-01   4.0985587E-01   4.0985519E-01   4.0985453E-01   4.0985402E-01   4.0985349E-01   4.0985325E-01   4.0985301E-01   4.0988249E-01   4.0988180E-01   4.0988114E-01   4.0988040E-01   4.0987992E-01   4.0987933E-01   4.0987885E-01   4.0987867E-01   4.0987831E-01   4.0988958E-01   4.0988883E-01   4.0988818E-01   4.0988740E-01   4.0988687E-01   4.0988645E-01   4.0988603E-01   4.0988567E-01   4.0988538E-01   4.0987596E-01   4.0987512E-01   4.0987450E-01   4.0987393E-01   4.0987328E-01   4.0987289E-01   4.0987250E-01   4.0987214E-01   4.0987197E-01   4.0971482E-01   4.0971407E-01   4.0971336E-01   4.0971294E-01   4.0971234E-01   4.0971202E-01   4.0971145E-01   4.0971118E-01   4.0971103E-01   4.0939859E-01   4.0939781E-01   4.0939718E-01   4.0939671E-01   4.0939632E-01   4.0939593E-01   4.0939564E-01   4.0939528E-01   4.0939528E-01   4.0894505E-01   4.0894422E-01   4.0894398E-01   4.0894344E-01   4.0894306E-01   4.0894270E-01   4.0894243E-01   4.0894228E-01   4.0894213E-01   4.0837908E-01   4.0837839E-01   4.0837812E-01   4.0837783E-01   4.0837732E-01   4.0837705E-01   4.0837690E-01   4.0837678E-01   4.0837681E-01   4.0773004E-01   4.0772974E-01   4.0772936E-01   4.0772918E-01   4.0772900E-01   4.0772885E-01   4.0772855E-01   4.0772858E-01   4.0772846E-01   4.0702990E-01   4.0702969E-01   4.0702954E-01   4.0702936E-01   4.0702939E-01   4.0702927E-01   4.0702915E-01   4.0702921E-01   4.0702918E-01   4.0630901E-01   4.0630877E-01   4.0630877E-01   4.0630874E-01   4.0630874E-01   4.0630874E-01   4.0630871E-01   4.0630877E-01   4.0630865E-01   4.0559494E-01   4.0559489E-01   4.0559492E-01   4.0559494E-01   4.0559500E-01   4.0559512E-01   4.0559503E-01   4.0559503E-01   4.0559512E-01   4.0491107E-01   4.0491113E-01   4.0491119E-01   4.0491116E-01   4.0491140E-01   4.0491137E-01   4.0491143E-01   4.0491146E-01   4.0491161E-01   4.0427586E-01   4.0427589E-01   4.0427592E-01   4.0427607E-01   4.0427619E-01   4.0427634E-01   4.0427634E-01   4.0427634E-01   4.0427637E-01   4.0370193E-01   4.0370193E-01   4.0370193E-01   4.0370196E-01   4.0370208E-01   4.0370214E-01   4.0370229E-01   4.0370223E-01   4.0370223E-01   4.0319645E-01   4.0319651E-01   4.0319660E-01   4.0319669E-01   4.0319663E-01   4.0319684E-01   4.0319681E-01   4.0319684E-01   4.0319684E-01   4.0276250E-01   4.0276265E-01   4.0276274E-01   4.0276271E-01   4.0276262E-01   4.0276277E-01   4.0276271E-01   4.0276289E-01   4.0276280E-01   4.0239832E-01   4.0239859E-01   4.0239862E-01   4.0239850E-01   4.0239850E-01   4.0239862E-01   4.0239856E-01   4.0239865E-01   4.0239877E-01   4.0209985E-01   4.0210015E-01   4.0210003E-01   4.0210027E-01   4.0210012E-01   4.0210024E-01   4.0210029E-01   4.0210018E-01   4.0210012E-01   4.0186062E-01   4.0186056E-01   4.0186071E-01   4.0186077E-01   4.0186065E-01   4.0186074E-01   4.0186074E-01   4.0186074E-01   4.0186065E-01   4.0167266E-01   4.0167290E-01   4.0167305E-01   4.0167293E-01   4.0167287E-01   4.0167293E-01   4.0167281E-01   4.0167284E-01   4.0167281E-01   4.0152842E-01   4.0152836E-01   4.0152863E-01   4.0152863E-01   4.0152860E-01   4.0152860E-01   4.0152851E-01   4.0152863E-01   4.0152854E-01   4.0141976E-01   4.0141988E-01   4.0141988E-01   4.0141994E-01   4.0142000E-01   4.0141997E-01   4.0142003E-01   4.0141991E-01   4.0141991E-01   4.0133989E-01   4.0133989E-01   4.0133977E-01   4.0133989E-01   4.0133998E-01   4.0133992E-01   4.0133989E-01   4.0133995E-01   4.0133995E-01   4.0128234E-01   4.0128213E-01   4.0128225E-01   4.0128219E-01   4.0128219E-01   4.0128213E-01   4.0128210E-01   4.0128207E-01   4.0128222E-01   4.0124139E-01   4.0124130E-01   4.0124136E-01   4.0124139E-01   4.0124124E-01   4.0124139E-01   4.0124145E-01   4.0124136E-01   4.0121296E-01   4.0121296E-01   4.0121290E-01   4.0121302E-01   4.0121305E-01   4.0121299E-01   4.0119350E-01   4.0119359E-01   4.0119377E-01   4.0119365E-01   4.0000001E-01   4.0000001E-01   4.0000001E-01   4.0000001E-01   4.0000001E-01   4.0000001E-01   4.0000001E-01   4.0000001E-01   4.0000001E-01   4.0000001E-01   4.0000001E-01   4.0000001E-01   4.0000001E-01   4.0000001E-01   4.0000001E-01   4.0000001E-01   4.0000001E-01   4.0000001E-01   4.0000001E-01   4.0000001E-01   4.0000001E-01   4.0000001E-01   4.0000001E-01   4.0000001E-01   4.0000001E-01   4.0000001E-01   4.0000001E-01   4.0000001E-01   4.0000001E-01   4.0000001E-01   4.0000001E-01   4.0000001E-01   4.0000001E-01   4.0000001E-01   4.0000001E-01   4.0000001E-01   4.0000001E-01   4.0000001E-01   4.0000001E-01   4.0000001E-01   4.0000001E-01   4.0000001E-01   4.0000001E-01   4.0000001E-01   4.0000001E-01   4.0000001E-01   4.0000001E-01   4.0000001E-01   4.0000001E-01   4.0000001E-01   4.0000001E-01   4.0000001E-01   4.0000001E-01   4.0000001E-01   4.0000001E-01   4.0000001E-01   4.0000001E-01   4.0000001E-01   4.0000001E-01   4.0000001E-01   4.0000001E-01   4.0000001E-01   4.0000001E-01   4.0000001E-01   4.0000001E-01   4.0000001E-01   4.0000001E-01   4.0000001E-01   4.0000001E-01   4.0000001E-01   4.0000001E-01   4.0000001E-01   4.0000001E-01   4.0000001E-01   4.0000001E-01   4.0000001E-01   4.0000001E-01   4.0000001E-01   4.0000001E-01   4.0000001E-01   4.0000001E-01   4.0000001E-01   4.0000001E-01   4.0000001E-01   4.0000001E-01   4.0000001E-01   4.0000001E-01   4.0000001E-01   4.0000001E-01   4.0000001E-01   4.0000001E-01   4.0000001E-01   4.0000001E-01   4.0000001E-01   4.0000001E-01   4.0000001E-01   4.0000001E-01   4.0000001E-01   4.0000001E-01   4.0000001E-01   4.0000001E-01   4.0000001E-01   4.0000001E-01   4.0000001E-01   4.0000001E-01   4.0000001E-01   4.0000001E-01   4.0000001E-01   4.0000001E-01   4.0000001E-01   4.0000001E-01   4.0000001E-01   4.0000001E-01   4.0000001E-01   4.0000001E-01   4.0000001E-01   4.0000001E-01   4.0000001E-01   4.0000001E-01   4.0000001E-01   4.0000001E-01   4.0000001E-01   4.0000001E-01   4.0000001E-01   4.0000001E-01   4.0000001E-01   4.0000001E-01   4.0000001E-01   4.0000001E-01   4.0000001E-01   4.0000001E-01   4.0000001E-01   4.0000001E-01   4.0000001E-01   4.0000001E-01   4.0000001E-01   4.0000001E-01   4.0000001E-01   4.0000001E-01   4.0000001E-01   4.0000001E-01   4.0000001E-01   4.0000001E-01   4.0000001E-01   4.0000001E-01   4.0000001E-01   4.0000001E-01   4.0000001E-01   4.0000001E-01   4.0000001E-01   4.0000001E-01   4.0000001E-01   4.0000001E-01   4.0000001E-01   4.0000001E-01   4.0000001E-01   4.0000001E-01   4.0000001E-01   4.0000001E-01   4.0000001E-01   4.0000001E-01   4.0000001E-01   4.0000001E-01   4.0000001E-01   4.0000001E-01   4.0000001E-01   4.0000001E-01   4.0000001E-01   4.0000001E-01   4.0000001E-01   4.0000001E-01   4.0000001E-01   4.0000001E-01   4.0000001E-01   4.0000001E-01   4.0000001E-01   4.0000001E-01   4.0000001E-01   4.0000001E-01   4.0000001E-01   4.0000001E-01   4.0000001E-01   4.0000001E-01   4.0000001E-01   4.0000081E-01   4.0000072E-01   4.0000072E-01   4.0000072E-01   4.0000075E-01   4.0000078E-01   4.0000084E-01   4.0000084E-01   4.0000236E-01   4.0000224E-01   4.0000230E-01   4.0000242E-01   4.0000218E-01   4.0000242E-01   4.0000233E-01   4.0000236E-01   4.0000546E-01   4.0000540E-01   4.0000540E-01   4.0000525E-01   4.0000531E-01   4.0000528E-01   4.0000525E-01   4.0000531E-01   4.0001476E-01   4.0001476E-01   4.0001479E-01   4.0001485E-01   4.0001470E-01   4.0001476E-01   4.0001473E-01   4.0001482E-01   4.0003973E-01   4.0003964E-01   4.0003976E-01   4.0003973E-01   4.0003973E-01   4.0003970E-01   4.0003958E-01   4.0003937E-01   4.0010688E-01   4.0010694E-01   4.0010706E-01   4.0010694E-01   4.0010682E-01   4.0010682E-01   4.0010682E-01   4.0010676E-01   4.0028501E-01   4.0028495E-01   4.0028507E-01   4.0028498E-01   4.0028489E-01   4.0028486E-01   4.0028480E-01   4.0028477E-01   4.0073767E-01   4.0073758E-01   4.0073746E-01   4.0073755E-01   4.0073743E-01   4.0073714E-01   4.0073702E-01   4.0073693E-01   4.0177557E-01   4.0177560E-01   4.0177548E-01   4.0177542E-01   4.0177521E-01   4.0177497E-01   4.0177456E-01   4.0177444E-01   4.0368596E-01   4.0368572E-01   4.0368563E-01   4.0368539E-01   4.0368512E-01   4.0368474E-01   4.0368420E-01   4.0368366E-01   4.0610370E-01   4.0610361E-01   4.0610364E-01   4.0610337E-01   4.0610313E-01   4.0610269E-01   4.0610224E-01   4.0610200E-01   4.0804896E-01   4.0804875E-01   4.0804878E-01   4.0804881E-01   4.0804872E-01   4.0804869E-01   4.0804863E-01   4.0804866E-01   4.0912142E-01   4.0912130E-01   4.0912154E-01   4.0912163E-01   4.0912190E-01   4.0912196E-01   4.0912244E-01   4.0912279E-01   4.0959466E-01   4.0959448E-01   4.0959463E-01   4.0959498E-01   4.0959552E-01   4.0959564E-01   4.0959626E-01   4.0959689E-01   4.0978214E-01   4.0978232E-01   4.0978241E-01   4.0978271E-01   4.0978324E-01   4.0978372E-01   4.0978432E-01   4.0978494E-01   4.0985271E-01   4.0985301E-01   4.0985325E-01   4.0985349E-01   4.0985402E-01   4.0985453E-01   4.0985519E-01   4.0985587E-01   4.0987828E-01   4.0987831E-01   4.0987867E-01   4.0987885E-01   4.0987933E-01   4.0987992E-01   4.0988040E-01   4.0988114E-01   4.0988538E-01   4.0988538E-01   4.0988567E-01   4.0988603E-01   4.0988645E-01   4.0988687E-01   4.0988740E-01   4.0988818E-01   4.0987182E-01   4.0987197E-01   4.0987214E-01   4.0987250E-01   4.0987289E-01   4.0987328E-01   4.0987393E-01   4.0987450E-01   4.0971085E-01   4.0971103E-01   4.0971118E-01   4.0971145E-01   4.0971202E-01   4.0971234E-01   4.0971294E-01   4.0971336E-01   4.0939522E-01   4.0939528E-01   4.0939528E-01   4.0939564E-01   4.0939593E-01   4.0939632E-01   4.0939671E-01   4.0939718E-01   4.0894213E-01   4.0894210E-01   4.0894228E-01   4.0894243E-01   4.0894270E-01   4.0894306E-01   4.0894344E-01   4.0894398E-01   4.0837684E-01   4.0837681E-01   4.0837678E-01   4.0837690E-01   4.0837705E-01   4.0837732E-01   4.0837783E-01   4.0837812E-01   4.0772849E-01   4.0772846E-01   4.0772858E-01   4.0772855E-01   4.0772885E-01   4.0772900E-01   4.0772918E-01   4.0772936E-01   4.0702915E-01   4.0702918E-01   4.0702921E-01   4.0702915E-01   4.0702927E-01   4.0702939E-01   4.0702936E-01   4.0702954E-01   4.0630871E-01   4.0630865E-01   4.0630877E-01   4.0630871E-01   4.0630874E-01   4.0630874E-01   4.0630874E-01   4.0630877E-01   4.0559509E-01   4.0559512E-01   4.0559503E-01   4.0559503E-01   4.0559512E-01   4.0559500E-01   4.0559494E-01   4.0559492E-01   4.0491152E-01   4.0491161E-01   4.0491146E-01   4.0491143E-01   4.0491137E-01   4.0491140E-01   4.0491116E-01   4.0491119E-01   4.0427628E-01   4.0427637E-01   4.0427634E-01   4.0427634E-01   4.0427634E-01   4.0427619E-01   4.0427607E-01   4.0427592E-01   4.0370223E-01   4.0370223E-01   4.0370223E-01   4.0370229E-01   4.0370214E-01   4.0370208E-01   4.0370196E-01   4.0370193E-01   4.0319681E-01   4.0319684E-01   4.0319684E-01   4.0319681E-01   4.0319684E-01   4.0319663E-01   4.0319669E-01   4.0319660E-01   4.0276295E-01   4.0276280E-01   4.0276289E-01   4.0276271E-01   4.0276277E-01   4.0276262E-01   4.0276271E-01   4.0276274E-01   4.0239850E-01   4.0239877E-01   4.0239865E-01   4.0239856E-01   4.0239862E-01   4.0239850E-01   4.0239850E-01   4.0239862E-01   4.0210015E-01   4.0210012E-01   4.0210018E-01   4.0210029E-01   4.0210024E-01   4.0210012E-01   4.0210027E-01   4.0210003E-01   4.0186077E-01   4.0186065E-01   4.0186074E-01   4.0186074E-01   4.0186074E-01   4.0186065E-01   4.0186077E-01   4.0186071E-01   4.0167290E-01   4.0167281E-01   4.0167284E-01   4.0167281E-01   4.0167293E-01   4.0167287E-01   4.0167293E-01   4.0167305E-01   4.0152848E-01   4.0152854E-01   4.0152863E-01   4.0152851E-01   4.0152860E-01   4.0152860E-01   4.0152863E-01   4.0152863E-01   4.0141991E-01   4.0141991E-01   4.0141991E-01   4.0142003E-01   4.0141997E-01   4.0142000E-01   4.0141994E-01   4.0141988E-01   4.0133986E-01   4.0133995E-01   4.0133995E-01   4.0133989E-01   4.0133992E-01   4.0133998E-01   4.0133989E-01   4.0133977E-01   4.0128225E-01   4.0128222E-01   4.0128207E-01   4.0128210E-01   4.0128213E-01   4.0128219E-01   4.0128219E-01   4.0128225E-01   4.0124130E-01   4.0124136E-01   4.0124145E-01   4.0124139E-01   4.0124124E-01   4.0124139E-01   4.0124136E-01   4.0124130E-01   4.0121305E-01   4.0121299E-01   4.0121305E-01   4.0121302E-01   4.0121290E-01   4.0121296E-01   4.0121296E-01   4.0119371E-01   4.0119365E-01   4.0119377E-01   4.0119359E-01   4.0119350E-01   4.0000001E-01   4.0000001E-01   4.0000001E-01   4.0000001E-01   4.0000001E-01   4.0000001E-01   4.0000001E-01   4.0000001E-01   4.0000001E-01   4.0000001E-01   4.0000001E-01   4.0000001E-01   4.0000001E-01   4.0000001E-01   4.0000001E-01   4.0000001E-01   4.0000001E-01   4.0000001E-01   4.0000001E-01   4.0000001E-01   4.0000001E-01   4.0000001E-01   4.0000001E-01   4.0000001E-01   4.0000001E-01   4.0000001E-01   4.0000001E-01   4.0000001E-01   4.0000001E-01   4.0000001E-01   4.0000001E-01   4.0000001E-01   4.0000001E-01   4.0000001E-01   4.0000001E-01   4.0000001E-01   4.0000001E-01   4.0000001E-01   4.0000001E-01   4.0000001E-01   4.0000001E-01   4.0000001E-01   4.0000001E-01   4.0000001E-01   4.0000001E-01   4.0000001E-01   4.0000001E-01   4.0000001E-01   4.0000001E-01   4.0000001E-01   4.0000001E-01   4.0000001E-01   4.0000001E-01   4.0000001E-01   4.0000001E-01   4.0000001E-01   4.0000001E-01   4.0000001E-01   4.0000001E-01   4.0000001E-01   4.0000001E-01   4.0000001E-01   4.0000001E-01   4.0000001E-01   4.0000001E-01   4.0000001E-01   4.0000001E-01   4.0000001E-01   4.0000001E-01   4.0000001E-01   4.0000001E-01   4.0000001E-01   4.0000001E-01   4.0000001E-01   4.0000001E-01   4.0000001E-01   4.0000001E-01   4.0000001E-01   4.0000001E-01   4.0000001E-01   4.0000001E-01   4.0000001E-01   4.0000001E-01   4.0000001E-01   4.0000001E-01   4.0000001E-01   4.0000001E-01   4.0000001E-01   4.0000001E-01   4.0000001E-01   4.0000001E-01   4.0000001E-01   4.0000001E-01   4.0000001E-01   4.0000001E-01   4.0000001E-01   4.0000001E-01   4.0000001E-01   4.0000001E-01   4.0000001E-01   4.0000001E-01   4.0000001E-01   4.0000001E-01   4.0000001E-01   4.0000001E-01   4.0000001E-01   4.0000001E-01   4.0000001E-01   4.0000001E-01   4.0000001E-01   4.0000001E-01   4.0000001E-01   4.0000001E-01   4.0000001E-01   4.0000001E-01   4.0000001E-01   4.0000001E-01   4.0000001E-01   4.0000001E-01   4.0000001E-01   4.0000001E-01   4.0000001E-01   4.0000001E-01   4.0000001E-01   4.0000001E-01   4.0000001E-01   4.0000001E-01   4.0000001E-01   4.0000001E-01   4.0000001E-01   4.0000001E-01   4.0000001E-01   4.0000001E-01   4.0000001E-01   4.0000001E-01   4.0000001E-01   4.0000001E-01   4.0000001E-01   4.0000001E-01   4.0000001E-01   4.0000001E-01   4.0000001E-01   4.0000001E-01   4.0000001E-01   4.0000001E-01   4.0000001E-01   4.0000001E-01   4.0000001E-01   4.0000001E-01   4.0000001E-01   4.0000001E-01   4.0000001E-01   4.0000001E-01   4.0000001E-01   4.0000001E-01   4.0000001E-01   4.0000001E-01   4.0000001E-01   4.0000001E-01   4.0000001E-01   4.0000001E-01   4.0000001E-01   4.0000001E-01   4.0000001E-01   4.0000001E-01   4.0000001E-01   4.0000001E-01   4.0000001E-01   4.0000001E-01   4.0000001E-01   4.0000001E-01   4.0000001E-01   4.0000001E-01   4.0000001E-01   4.0000001E-01   4.0000001E-01   4.0000001E-01   4.0000001E-01   4.0000001E-01   4.0000001E-01   4.0000001E-01   4.0000001E-01   4.0000001E-01   4.0000078E-01   4.0000081E-01   4.0000084E-01   4.0000081E-01   4.0000072E-01   4.0000084E-01   4.0000084E-01   4.0000072E-01   4.0000239E-01   4.0000230E-01   4.0000227E-01   4.0000230E-01   4.0000218E-01   4.0000236E-01   4.0000224E-01   4.0000227E-01   4.0000522E-01   4.0000540E-01   4.0000546E-01   4.0000534E-01   4.0000540E-01   4.0000537E-01   4.0000543E-01   4.0000534E-01   4.0001482E-01   4.0001476E-01   4.0001470E-01   4.0001467E-01   4.0001473E-01   4.0001458E-01   4.0001476E-01   4.0001476E-01   4.0003976E-01   4.0003952E-01   4.0003970E-01   4.0003973E-01   4.0003964E-01   4.0003964E-01   4.0003958E-01   4.0003961E-01   4.0010685E-01   4.0010667E-01   4.0010673E-01   4.0010682E-01   4.0010661E-01   4.0010658E-01   4.0010661E-01   4.0010655E-01   4.0028462E-01   4.0028471E-01   4.0028465E-01   4.0028447E-01   4.0028441E-01   4.0028438E-01   4.0028432E-01   4.0028414E-01   4.0073678E-01   4.0073651E-01   4.0073636E-01   4.0073642E-01   4.0073606E-01   4.0073574E-01   4.0073544E-01   4.0073517E-01   4.0177396E-01   4.0177336E-01   4.0177307E-01   4.0177280E-01   4.0177220E-01   4.0177161E-01   4.0177086E-01   4.0177003E-01   4.0368310E-01   4.0368259E-01   4.0368184E-01   4.0368131E-01   4.0368047E-01   4.0367967E-01   4.0367869E-01   4.0367714E-01   4.0610158E-01   4.0610096E-01   4.0610066E-01   4.0610015E-01   4.0609980E-01   4.0609962E-01   4.0609914E-01   4.0609765E-01   4.0804872E-01   4.0804884E-01   4.0804899E-01   4.0804920E-01   4.0804994E-01   4.0805084E-01   4.0805104E-01   4.0805060E-01   4.0912318E-01   4.0912393E-01   4.0912452E-01   4.0912530E-01   4.0912682E-01   4.0912825E-01   4.0912896E-01   4.0912944E-01   4.0959749E-01   4.0959844E-01   4.0959930E-01   4.0960008E-01   4.0960154E-01   4.0960327E-01   4.0960366E-01   4.0960369E-01   4.0978587E-01   4.0978652E-01   4.0978751E-01   4.0978831E-01   4.0978935E-01   4.0979043E-01   4.0979049E-01   4.0979025E-01   4.0985650E-01   4.0985727E-01   4.0985817E-01   4.0985885E-01   4.0985948E-01   4.0986010E-01   4.0985993E-01   4.0985954E-01   4.0988180E-01   4.0988258E-01   4.0988326E-01   4.0988374E-01   4.0988412E-01   4.0988451E-01   4.0988445E-01   4.0988383E-01   4.0988883E-01   4.0988958E-01   4.0989020E-01   4.0989071E-01   4.0989095E-01   4.0989125E-01   4.0989128E-01   4.0989065E-01   4.0987512E-01   4.0987596E-01   4.0987647E-01   4.0987700E-01   4.0987751E-01   4.0987781E-01   4.0987775E-01   4.0987706E-01   4.0971407E-01   4.0971482E-01   4.0971532E-01   4.0971589E-01   4.0971649E-01   4.0971693E-01   4.0971705E-01   4.0971643E-01   4.0939781E-01   4.0939859E-01   4.0939921E-01   4.0939969E-01   4.0940037E-01   4.0940094E-01   4.0940109E-01   4.0940070E-01   4.0894422E-01   4.0894505E-01   4.0894559E-01   4.0894619E-01   4.0894699E-01   4.0894768E-01   4.0894794E-01   4.0894786E-01   4.0837839E-01   4.0837908E-01   4.0837967E-01   4.0838009E-01   4.0838096E-01   4.0838179E-01   4.0838221E-01   4.0838239E-01   4.0772974E-01   4.0773004E-01   4.0773043E-01   4.0773106E-01   4.0773186E-01   4.0773270E-01   4.0773341E-01   4.0773380E-01   4.0702969E-01   4.0702990E-01   4.0703022E-01   4.0703058E-01   4.0703106E-01   4.0703204E-01   4.0703270E-01   4.0703338E-01   4.0630877E-01   4.0630901E-01   4.0630919E-01   4.0630943E-01   4.0630978E-01   4.0631050E-01   4.0631118E-01   4.0631199E-01   4.0559489E-01   4.0559494E-01   4.0559492E-01   4.0559524E-01   4.0559542E-01   4.0559590E-01   4.0559646E-01   4.0559736E-01   4.0491113E-01   4.0491107E-01   4.0491107E-01   4.0491122E-01   4.0491131E-01   4.0491152E-01   4.0491208E-01   4.0491271E-01   4.0427589E-01   4.0427586E-01   4.0427583E-01   4.0427575E-01   4.0427592E-01   4.0427598E-01   4.0427604E-01   4.0427631E-01   4.0370193E-01   4.0370193E-01   4.0370172E-01   4.0370166E-01   4.0370163E-01   4.0370148E-01   4.0370134E-01   4.0370136E-01   4.0319651E-01   4.0319645E-01   4.0319636E-01   4.0319616E-01   4.0319598E-01   4.0319571E-01   4.0319553E-01   4.0319544E-01   4.0276265E-01   4.0276250E-01   4.0276235E-01   4.0276200E-01   4.0276188E-01   4.0276149E-01   4.0276152E-01   4.0276128E-01   4.0239859E-01   4.0239832E-01   4.0239820E-01   4.0239802E-01   4.0239775E-01   4.0239742E-01   4.0239745E-01   4.0210015E-01   4.0209985E-01   4.0209967E-01   4.0209940E-01   4.0209928E-01   4.0209916E-01   4.0209904E-01   4.0186056E-01   4.0186062E-01   4.0186030E-01   4.0186009E-01   4.0185988E-01   4.0185988E-01   4.0167290E-01   4.0167266E-01   4.0167254E-01   4.0167236E-01   4.0167230E-01   4.0167227E-01   4.0152836E-01   4.0152842E-01   4.0152827E-01   4.0152824E-01   4.0152818E-01   4.0141988E-01   4.0141976E-01   4.0141982E-01   4.0141991E-01   4.0133989E-01   4.0133989E-01   4.0134007E-01   4.0133983E-01   4.0128213E-01   4.0128234E-01   4.0124139E-01 
Press 1 2975 float
  0.0000000E+00   0.0000000E+00   0.0000000E+00   0.0000000E+00   0.0000000E+00   0.0000000E+00   0.0000000E+00   0.0000000E+00   0.0000000E+00   0.0000000E+00   0.0000000E+00   0.0000000E+00   0.0000000E+00   0.0000000E+00   0.0000000E+00   0.0000000E+00   0.0000000E+00   0.0000000E+00   0.0000000E+00   3.9505050E-01   0.0000000E+00   5.9257573E-01   1.2839141E+00   4.9381313E-01   1.4814394E+00   3.2591665E+00   1.1851515E+00   3.1604040E+00   6.2220454E+00   2.1727777E+00   5.5307069E+00   1.0073788E+01   3.4566917E+00   7.9010100E+00   1.4616868E+01   4.7406058E+00   1.0765126E+01   1.9061186E+01   5.9257574E+00   1.3135429E+01   2.3307980E+01   7.1109090E+00   1.5505732E+01   2.7159721E+01   8.0985355E+00   1.8073561E+01   3.1801565E+01   9.8762627E+00   2.1431490E+01   3.7628559E+01   1.2147802E+01   2.6567146E+01   4.6714722E+01   1.5999545E+01   3.5060730E+01   6.1529114E+01   2.2912930E+01   4.8591209E+01   8.3849464E+01   3.4764442E+01   6.8837547E+01   1.1476217E+02   9.6589844E+01   1.5337836E+02   0.0000000E+00   0.0000000E+00   0.0000000E+00   0.0000000E+00   0.0000000E+00   0.0000000E+00   0.0000000E+00   0.0000000E+00   0.0000000E+00   0.0000000E+00   0.0000000E+00   0.0000000E+00   0.0000000E+00   0.0000000E+00   0.0000000E+00   0.0000000E+00   0.0000000E+00   0.0000000E+00   0.0000000E+00   0.0000000E+00   0.0000000E+00   0.0000000E+00   0.0000000E+00   0.0000000E+00   0.0000000E+00   0.0000000E+00   0.0000000E+00   0.0000000E+00   0.0000000E+00   0.0000000E+00   0.0000000E+00   0.0000000E+00   0.0000000E+00   0.0000000E+00   0.0000000E+00   9.8762624E-02   1.9752525E-01   2.9628786E-01   2.9628786E-01   2.9628786E-01   9.8762624E-02   3.9505050E-01   6.9133836E-01   9.8762625E-01   1.2839141E+00   1.5802020E+00   1.7777272E+00   1.9752525E+00   8.8886362E-01   1.4814394E+00   2.4690657E+00   3.4566917E+00   4.5430808E+00   5.4319444E+00   5.9257574E+00   6.6170959E+00   2.5678282E+00   4.2467928E+00   6.4195704E+00   8.6911106E+00   1.0962651E+01   1.2740378E+01   1.4221818E+01   1.5406969E+01   5.7282324E+00   8.9873991E+00   1.3135429E+01   1.7382221E+01   2.1530252E+01   2.5085707E+01   2.8048586E+01   3.0122601E+01   1.0468838E+01   1.5900783E+01   2.2517878E+01   2.9628788E+01   3.6344646E+01   4.1875351E+01   4.6418434E+01   4.9973888E+01   1.6493359E+01   2.4690657E+01   3.4369392E+01   4.4443180E+01   5.3726868E+01   6.1529114E+01   6.7849922E+01   7.2590530E+01   2.3209217E+01   3.4073105E+01   4.6615959E+01   2.9727551E+01   4.3060505E+01   3.5949596E+01   5.1455326E+01   4.1875351E+01   5.9751389E+01   4.8788734E+01   6.9232597E+01   5.8072422E+01   8.2466789E+01   7.2195480E+01   1.0152798E+02   9.4022018E+01   1.3036667E+02   1.2661369E+02   1.7194572E+02   1.7085934E+02   2.2715404E+02   2.2379611E+02   2.9342377E+02   0.0000000E+00   0.0000000E+00   0.0000000E+00   0.0000000E+00   0.0000000E+00   0.0000000E+00   0.0000000E+00   0.0000000E+00   0.0000000E+00   0.0000000E+00   0.0000000E+00   0.0000000E+00   0.0000000E+00   0.0000000E+00   0.0000000E+00   0.0000000E+00   0.0000000E+00   0.0000000E+00   0.0000000E+00   0.0000000E+00   0.0000000E+00   0.0000000E+00   0.0000000E+00   0.0000000E+00   0.0000000E+00   0.0000000E+00   0.0000000E+00   0.0000000E+00   0.0000000E+00   0.0000000E+00   0.0000000E+00   0.0000000E+00   0.0000000E+00   0.0000000E+00   0.0000000E+00   0.0000000E+00   3.9505050E-01   3.9505050E-01   3.9505050E-01   3.9505050E-01   3.9505050E-01   3.9505050E-01   3.9505050E-01   3.9505050E-01   3.9505050E-01   2.1727777E+00   2.1727777E+00   2.2715404E+00   2.2715404E+00   2.2715404E+00   2.2715404E+00   2.2715404E+00   2.2715404E+00   2.2715404E+00   6.8146210E+00   7.1109090E+00   7.2096715E+00   7.2096715E+00   7.4071970E+00   7.5059595E+00   7.5059595E+00   7.5059595E+00   7.5059595E+00   1.6295834E+01   1.7085934E+01   1.7283459E+01   1.7579746E+01   1.7974798E+01   1.7974798E+01   1.7974798E+01   1.7974798E+01   1.7974798E+01   3.1801565E+01   3.2887955E+01   3.3776817E+01   3.4468155E+01   3.4566917E+01   3.4665680E+01   3.4863205E+01   3.4863205E+01   3.4863205E+01   5.2442955E+01   5.4418205E+01   5.5702122E+01   5.6590984E+01   5.7282322E+01   5.7381084E+01   5.7578609E+01   5.7677372E+01   5.7677372E+01   7.6244743E+01   7.8713814E+01   8.0491539E+01   8.1577927E+01   8.2466789E+01   8.2861839E+01   8.3059364E+01   8.3059364E+01   8.3158127E+01   0.0000000E+00   0.0000000E+00   0.0000000E+00   0.0000000E+00   0.0000000E+00   0.0000000E+00   0.0000000E+00   0.0000000E+00   0.0000000E+00   0.0000000E+00   0.0000000E+00   0.0000000E+00   0.0000000E+00   0.0000000E+00   0.0000000E+00   0.0000000E+00   0.0000000E+00   0.0000000E+00   0.0000000E+00   0.0000000E+00   0.0000000E+00   0.0000000E+00   0.0000000E+00   0.0000000E+00   0.0000000E+00   0.0000000E+00   0.0000000E+00   0.0000000E+00   0.0000000E+00   0.0000000E+00   0.0000000E+00   0.0000000E+00   3.9505050E-01   3.9505050E-01   3.9505050E-01   3.9505050E-01   3.9505050E-01   3.9505050E-01   3.9505050E-01   3.9505050E-01   2.2715404E+00   2.2715404E+00   2.2715404E+00   2.2715404E+00   2.2715404E+00   2.2715404E+00   2.2715404E+00   2.2715404E+00   7.5059595E+00   7.5059595E+00   7.5059595E+00   7.5059595E+00   7.5059595E+00   7.4071970E+00   7.2096715E+00   7.2096715E+00   1.7974798E+01   1.7974798E+01   1.7974798E+01   1.7974798E+01   1.7974798E+01   1.7974798E+01   1.7579746E+01   1.7283459E+01   3.4863205E+01   3.4863205E+01   3.4863205E+01   3.4863205E+01   3.4665680E+01   3.4566917E+01   3.4468155E+01   3.3776817E+01   5.7677372E+01   5.7677372E+01   5.7677372E+01   5.7578609E+01   5.7381084E+01   5.7282322E+01   5.6590984E+01   5.5702122E+01   8.3158127E+01   8.3158127E+01   8.3059364E+01   8.3059364E+01   8.2861839E+01   8.2466789E+01   8.1577927E+01   8.0491539E+01   0.0000000E+00   0.0000000E+00   0.0000000E+00   0.0000000E+00   0.0000000E+00   0.0000000E+00   0.0000000E+00   0.0000000E+00   0.0000000E+00   0.0000000E+00   0.0000000E+00   0.0000000E+00   0.0000000E+00   0.0000000E+00   0.0000000E+00   0.0000000E+00   0.0000000E+00   0.0000000E+00   0.0000000E+00   0.0000000E+00   0.0000000E+00   0.0000000E+00   0.0000000E+00   0.0000000E+00   0.0000000E+00   0.0000000E+00   0.0000000E+00   0.0000000E+00   0.0000000E+00   0.0000000E+00   0.0000000E+00   0.0000000E+00   0.0000000E+00   0.0000000E+00   0.0000000E+00   0.0000000E+00   3.9505050E-01   3.9505050E-01   2.9628786E-01   2.9628786E-01   2.9628786E-01   1.9752525E-01   9.8762624E-02   0.0000000E+00   0.0000000E+00   2.1727777E+00   2.1727777E+00   1.9752525E+00   1.7777272E+00   1.5802020E+00   1.2839141E+00   9.8762625E-01   6.9133836E-01   3.9505050E-01   7.1109090E+00   6.8146210E+00   6.6170959E+00   5.9257574E+00   5.4319444E+00   4.5430808E+00   3.4566917E+00   2.4690657E+00   1.4814394E+00   1.7085934E+01   1.6295834E+01   1.5406969E+01   1.4221818E+01   1.2740378E+01   1.0962651E+01   8.6911106E+00   6.4195704E+00   4.2467928E+00   3.2887955E+01   3.1801565E+01   3.0122601E+01   2.8048586E+01   2.5085707E+01   2.1530252E+01   1.7382221E+01   1.3135429E+01   8.9873991E+00   5.4418205E+01   5.2442955E+01   4.9973888E+01   4.6418434E+01   4.1875351E+01   3.6344646E+01   2.9628788E+01   2.2517878E+01   1.5900783E+01   7.8713814E+01   7.6244743E+01   7.2590530E+01   6.7849922E+01   6.1529114E+01   5.3726868E+01   4.4443180E+01   3.4369392E+01   2.4690657E+01   4.6615959E+01   3.4073105E+01   4.3060505E+01   5.1455326E+01   5.9751389E+01   6.9232597E+01   8.2466789E+01   1.0152798E+02   1.3036667E+02   1.7194572E+02   2.2715404E+02   2.9342377E+02   0.0000000E+00   0.0000000E+00   0.0000000E+00   0.0000000E+00   0.0000000E+00   0.0000000E+00   0.0000000E+00   0.0000000E+00   0.0000000E+00   0.0000000E+00   0.0000000E+00   0.0000000E+00   0.0000000E+00   0.0000000E+00   0.0000000E+00   0.0000000E+00   0.0000000E+00   0.0000000E+00   0.0000000E+00   9.8762624E-02   0.0000000E+00   0.0000000E+00   0.0000000E+00   8.8886362E-01   3.9505050E-01   0.0000000E+00   0.0000000E+00   2.5678282E+00   1.2839141E+00   5.9257573E-01   0.0000000E+00   5.7282324E+00   3.2591665E+00   1.4814394E+00   4.9381313E-01   1.0468838E+01   6.2220454E+00   3.1604040E+00   1.1851515E+00   1.6493359E+01   1.0073788E+01   5.5307069E+00   2.1727777E+00   2.3209217E+01   1.4616868E+01   7.9010100E+00   3.4566917E+00   2.9727551E+01   1.9061186E+01   1.0765126E+01   4.7406058E+00   3.5949596E+01   2.3307980E+01   1.3135429E+01   5.9257574E+00   4.1875351E+01   2.7159721E+01   1.5505732E+01   7.1109090E+00   4.8788734E+01   3.1801565E+01   1.8073561E+01   8.0985355E+00   5.8072422E+01   3.7628559E+01   2.1431490E+01   9.8762627E+00   7.2195480E+01   4.6714722E+01   2.6567146E+01   1.2147802E+01   9.4022018E+01   6.1529114E+01   3.5060730E+01   1.5999545E+01   1.2661369E+02   8.3849464E+01   4.8591209E+01   2.2912930E+01   1.7085934E+02   1.1476217E+02   6.8837547E+01   3.4764442E+01   2.2379611E+02   1.5337836E+02   9.6589844E+01   0.0000000E+00   0.0000000E+00   0.0000000E+00   0.0000000E+00   0.0000000E+00   0.0000000E+00   0.0000000E+00   0.0000000E+00   0.0000000E+00   0.0000000E+00   0.0000000E+00   0.0000000E+00   0.0000000E+00   0.0000000E+00   0.0000000E+00   0.0000000E+00   0.0000000E+00   0.0000000E+00   0.0000000E+00   0.0000000E+00   0.0000000E+00   0.0000000E+00   0.0000000E+00   0.0000000E+00   0.0000000E+00   0.0000000E+00   0.0000000E+00   0.0000000E+00   0.0000000E+00   0.0000000E+00   0.0000000E+00   0.0000000E+00   0.0000000E+00   0.0000000E+00   0.0000000E+00   0.0000000E+00   0.0000000E+00   0.0000000E+00   0.0000000E+00   0.0000000E+00   0.0000000E+00   0.0000000E+00   0.0000000E+00   0.0000000E+00   0.0000000E+00   0.0000000E+00   0.0000000E+00   0.0000000E+00   0.0000000E+00   0.0000000E+00   0.0000000E+00   0.0000000E+00   0.0000000E+00   0.0000000E+00   0.0000000E+00   0.0000000E+00   0.0000000E+00   0.0000000E+00   0.0000000E+00   0.0000000E+00   0.0000000E+00   0.0000000E+00   0.0000000E+00   0.0000000E+00   0.0000000E+00   0.0000000E+00   0.0000000E+00   0.0000000E+00   0.0000000E+00   0.0000000E+00   0.0000000E+00   0.0000000E+00   0.0000000E+00   0.0000000E+00   0.0000000E+00   0.0000000E+00   0.0000000E+00   0.0000000E+00   0.0000000E+00   0.0000000E+00   0.0000000E+00   0.0000000E+00   0.0000000E+00   0.0000000E+00   0.0000000E+00   0.0000000E+00   0.0000000E+00   0.0000000E+00   0.0000000E+00   0.0000000E+00   0.0000000E+00   0.0000000E+00   0.0000000E+00   0.0000000E+00   0.0000000E+00   0.0000000E+00   0.0000000E+00   0.0000000E+00   0.0000000E+00   0.0000000E+00   0.0000000E+00   0.0000000E+00   0.0000000E+00   0.0000000E+00   0.0000000E+00   0.0000000E+00   0.0000000E+00   0.0000000E+00   0.0000000E+00   0.0000000E+00   0.0000000E+00   0.0000000E+00   0.0000000E+00   0.0000000E+00   0.0000000E+00   0.0000000E+00   0.0000000E+00   0.0000000E+00   0.0000000E+00   0.0000000E+00   0.0000000E+00   0.0000000E+00   0.0000000E+00   0.0000000E+00   0.0000000E+00   0.0000000E+00   0.0000000E+00   0.0000000E+00   0.0000000E+00   0.0000000E+00   0.0000000E+00   0.0000000E+00   0.0000000E+00   0.0000000E+00   0.0000000E+00   0.0000000E+00   0.0000000E+00   0.0000000E+00   0.0000000E+00   0.0000000E+00   0.0000000E+00   0.0000000E+00   0.0000000E+00   0.0000000E+00   0.0000000E+00   0.0000000E+00   0.0000000E+00   0.0000000E+00   0.0000000E+00   0.0000000E+00   0.0000000E+00   0.0000000E+00   0.0000000E+00   0.0000000E+00   0.0000000E+00   0.0000000E+00   0.0000000E+00   0.0000000E+00   0.0000000E+00   0.0000000E+00   0.0000000E+00   0.0000000E+00   0.0000000E+00   0.0000000E+00   0.0000000E+00   0.0000000E+00   0.0000000E+00   0.0000000E+00   0.0000000E+00   0.0000000E+00   0.0000000E+00   0.0000000E+00   0.0000000E+00   0.0000000E+00   0.0000000E+00   0.0000000E+00   0.0000000E+00   0.0000000E+00   0.0000000E+00   0.0000000E+00   0.0000000E+00   0.0000000E+00   0.0000000E+00   0.0000000E+00   0.0000000E+00   0.0000000E+00   0.0000000E+00   0.0000000E+00   0.0000000E+00   0.0000000E+00   0.0000000E+00   0.0000000E+00   0.0000000E+00   0.0000000E+00   0.0000000E+00   0.0000000E+00   0.0000000E+00   0.0000000E+00   0.0000000E+00   0.0000000E+00   0.0000000E+00   0.0000000E+00   0.0000000E+00   0.0000000E+00   0.0000000E+00   0.0000000E+00   0.0000000E+00   0.0000000E+00   0.0000000E+00   0.0000000E+00   0.0000000E+00   0.0000000E+00   0.0000000E+00   0.0000000E+00   0.0000000E+00   0.0000000E+00   0.0000000E+00   0.0000000E+00   0.0000000E+00   0.0000000E+00   0.0000000E+00   0.0000000E+00   0.0000000E+00   0.0000000E+00   0.0000000E+00   0.0000000E+00   0.0000000E+00   0.0000000E+00   0.0000000E+00   0.0000000E+00   0.0000000E+00   0.0000000E+00   0.0000000E+00   0.0000000E+00   0.0000000E+00   0.0000000E+00   0.0000000E+00   0.0000000E+00   0.0000000E+00   0.0000000E+00   0.0000000E+00   0.0000000E+00   0.0000000E+00   0.0000000E+00   0.0000000E+00   0.0000000E+00   0.0000000E+00   0.0000000E+00   0.0000000E+00   0.0000000E+00   0.0000000E+00   0.0000000E+00   0.0000000E+00   0.0000000E+00   0.0000000E+00   0.0000000E+00   0.0000000E+00   0.0000000E+00   0.0000000E+00   0.0000000E+00   0.0000000E+00   0.0000000E+00   0.0000000E+00   0.0000000E+00   0.0000000E+00   0.0000000E+00   0.0000000E+00   0.0000000E+00   0.0000000E+00   0.0000000E+00   0.0000000E+00   0.0000000E+00   0.0000000E+00   0.0000000E+00   0.0000000E+00   0.0000000E+00   0.0000000E+00   0.0000000E+00   0.0000000E+00   0.0000000E+00   0.0000000E+00   0.0000000E+00   0.0000000E+00   0.0000000E+00   0.0000000E+00   0.0000000E+00   0.0000000E+00   0.0000000E+00   0.0000000E+00   0.0000000E+00   0.0000000E+00   0.0000000E+00   0.0000000E+00   0.0000000E+00   0.0000000E+00   0.0000000E+00   0.0000000E+00   0.0000000E+00   0.0000000E+00   0.0000000E+00   0.0000000E+00   0.0000000E+00   0.0000000E+00   0.0000000E+00   0.0000000E+00   0.0000000E+00   0.0000000E+00   0.0000000E+00   0.0000000E+00   0.0000000E+00   0.0000000E+00   0.0000000E+00   0.0000000E+00   0.0000000E+00   0.0000000E+00   0.0000000E+00   0.0000000E+00   0.0000000E+00   0.0000000E+00   0.0000000E+00   0.0000000E+00   0.0000000E+00   0.0000000E+00   0.0000000E+00   0.0000000E+00   0.0000000E+00   0.0000000E+00   0.0000000E+00   0.0000000E+00   0.0000000E+00   0.0000000E+00   0.0000000E+00   0.0000000E+00   0.0000000E+00   0.0000000E+00   0.0000000E+00   0.0000000E+00   0.0000000E+00   0.0000000E+00   0.0000000E+00   0.0000000E+00   0.0000000E+00   0.0000000E+00   0.0000000E+00   0.0000000E+00   0.0000000E+00   0.0000000E+00   0.0000000E+00   0.0000000E+00   0.0000000E+00   0.0000000E+00   0.0000000E+00   0.0000000E+00   0.0000000E+00   0.0000000E+00   0.0000000E+00   0.0000000E+00   0.0000000E+00   0.0000000E+00   0.0000000E+00   0.0000000E+00   0.0000000E+00   0.0000000E+00   0.0000000E+00   0.0000000E+00   0.0000000E+00   0.0000000E+00   0.0000000E+00   0.0000000E+00   0.0000000E+00   0.0000000E+00   0.0000000E+00   0.0000000E+00   0.0000000E+00   0.0000000E+00   0.0000000E+00   0.0000000E+00   0.0000000E+00   0.0000000E+00   0.0000000E+00   0.0000000E+00   0.0000000E+00   0.0000000E+00   0.0000000E+00   0.0000000E+00   0.0000000E+00   0.0000000E+00   0.0000000E+00   0.0000000E+00   0.0000000E+00   0.0000000E+00   0.0000000E+00   0.0000000E+00   0.0000000E+00   0.0000000E+00   0.0000000E+00   0.0000000E+00   0.0000000E+00   0.0000000E+00   0.0000000E+00   0.0000000E+00   0.0000000E+00   0.0000000E+00   0.0000000E+00   0.0000000E+00   0.0000000E+00   0.0000000E+00   0.0000000E+00   0.0000000E+00   0.0000000E+00   0.0000000E+00   0.0000000E+00   0.0000000E+00   0.0000000E+00   0.0000000E+00   0.0000000E+00   0.0000000E+00   0.0000000E+00   0.0000000E+00   0.0000000E+00   0.0000000E+00   0.0000000E+00   0.0000000E+00   0.0000000E+00   0.0000000E+00   0.0000000E+00   0.0000000E+00   0.0000000E+00   0.0000000E+00   0.0000000E+00   0.0000000E+00   0.0000000E+00   0.0000000E+00   0.0000000E+00   0.0000000E+00   0.0000000E+00   0.0000000E+00   0.0000000E+00   0.0000000E+00   0.0000000E+00   0.0000000E+00   0.0000000E+00   0.0000000E+00   0.0000000E+00   0.0000000E+00   0.0000000E+00   0.0000000E+00   0.0000000E+00   0.0000000E+00   0.0000000E+00   0.0000000E+00   0.0000000E+00   0.0000000E+00   0.0000000E+00   0.0000000E+00   0.0000000E+00   0.0000000E+00   0.0000000E+00   0.0000000E+00   0.0000000E+00   0.0000000E+00   0.0000000E+00   0.0000000E+00   0.0000000E+00   0.0000000E+00   0.0000000E+00   0.0000000E+00   0.0000000E+00   0.0000000E+00   0.0000000E+00   0.0000000E+00   0.0000000E+00   5.9356339E+01   7.0714035E+01   8.0392776E+01   8.7997498E+01   9.3725731E+01   5.7381084E+01   7.2788055E+01   8.5923485E+01   9.6688606E+01   1.0528096E+02   1.1160177E+02   6.7948685E+01   8.5232147E+01   1.0014530E+02   1.1199682E+02   1.2098421E+02   1.2779884E+02   7.8615051E+01   9.8268814E+01   1.1476217E+02   1.2779884E+02   1.3747757E+02   1.4429219E+02   9.1256668E+01   1.1337949E+02   1.3174934E+02   1.4606992E+02   1.5644000E+02   1.6315585E+02   1.0863889E+02   1.3362582E+02   1.5357588E+02   1.6858780E+02   1.7935292E+02   1.8616754E+02   1.3648994E+02   1.6295833E+02   1.8310591E+02   1.9732773E+02   2.0730275E+02   2.1401860E+02   1.8083437E+02   2.0710522E+02   2.2340106E+02   2.3426494E+02   2.4186966E+02   2.4680780E+02   2.4868428E+02   2.6991824E+02   2.7683163E+02   2.8009079E+02   2.8265863E+02   2.8502893E+02   3.4300259E+02   3.5040979E+02   3.4201495E+02   3.3342261E+02   3.2907706E+02   3.2779315E+02   4.5480188E+02   4.4008624E+02   4.1233395E+02   3.9100122E+02   3.7944601E+02   3.7470538E+02   5.4546594E+02   5.2117035E+02   4.7909750E+02   4.4828354E+02   4.3198773E+02   4.2497559E+02   5.6531726E+02   5.6729254E+02   5.3252808E+02   5.0220795E+02   4.8551706E+02   4.7840616E+02   5.6541595E+02   5.8734131E+02   5.7430463E+02   5.5346570E+02   5.4102161E+02   5.3598474E+02   5.8872394E+02   6.1321710E+02   6.1667377E+02   6.0768640E+02   6.0166187E+02   5.9919281E+02   6.3948785E+02   6.6101807E+02   6.7128943E+02   6.7079559E+02   6.6970923E+02   6.6951166E+02   7.1365857E+02   7.3173212E+02   7.4299103E+02   7.4615143E+02   7.4783044E+02   7.4901556E+02   8.0501392E+02   8.2032208E+02   8.3059344E+02   8.3424762E+02   8.3691425E+02   8.3898822E+02   9.0841827E+02   9.2273883E+02   9.3202252E+02   9.3518292E+02   9.3814581E+02   9.4031860E+02   1.0244641E+03   1.0393772E+03   1.0475745E+03   1.0498461E+03   1.0527102E+03   1.0547842E+03   1.1560155E+03   1.1717188E+03   1.1787310E+03   1.1796198E+03   1.1818914E+03   1.1831753E+03   1.3066281E+03   1.3219363E+03   1.3271707E+03   1.3260842E+03   1.3267756E+03   1.3263805E+03   1.4778817E+03   1.4918071E+03   1.4948688E+03   1.4906221E+03   1.4881530E+03   1.4846963E+03   1.6719490E+03   1.6836029E+03   1.6838004E+03   1.6745167E+03   1.6665170E+03   1.6584185E+03   1.8857682E+03   1.8952493E+03   1.8918914E+03   1.8735216E+03   1.8569296E+03   1.8419176E+03   2.1102529E+03   2.1186477E+03   2.1097593E+03   2.0765752E+03   2.0473414E+03   2.0228484E+03   2.3333538E+03   2.3427361E+03   2.3243665E+03   2.2678745E+03   2.2226414E+03   2.1881736E+03   2.5380828E+03   2.5490454E+03   2.5138862E+03   2.4260869E+03   2.3632742E+03   2.3202141E+03   2.7235515E+03   2.7353040E+03   2.6746643E+03   2.5511135E+03   2.4733879E+03   2.4275625E+03   2.9471384E+03   2.9570144E+03   2.8687217E+03   2.7155430E+03   2.6327808E+03   2.5934739E+03   3.4231528E+03   3.4293750E+03   3.3300215E+03   3.1745718E+03   3.1026736E+03   3.0838103E+03   4.6329468E+03   4.6427241E+03   4.5995654E+03   4.4854971E+03   4.4417466E+03   4.4551777E+03   7.0533086E+03   7.0889609E+03   7.1514756E+03   7.1639194E+03   7.1799185E+03   7.2310757E+03   1.0036430E+04   1.0107437E+04   1.0261203E+04   1.0442425E+04   1.0561429E+04   1.0654953E+04   1.1943873E+04   1.2020114E+04   1.2195507E+04   1.2463234E+04   1.2679315E+04   1.2807601E+04   1.2307546E+04   1.2351296E+04   1.2459234E+04   1.2707702E+04   1.2956565E+04   1.3099859E+04   1.2008979E+04   1.1993377E+04   1.1978665E+04   1.2119782E+04   1.2314721E+04   1.2432630E+04   1.1830888E+04   1.1741521E+04   1.1700837E+04   1.1698173E+04   1.1757817E+04   1.1786949E+04   1.1988487E+04   1.1815390E+04   1.1791198E+04   1.1674779E+04   1.1617313E+04   1.1565077E+04   1.2374930E+04   1.2141120E+04   1.2122461E+04   1.1956286E+04   1.1833655E+04   1.1733536E+04   1.2797947E+04   1.2531282E+04   1.2506797E+04   1.2338268E+04   1.2203207E+04   1.2092928E+04   1.3110298E+04   1.2835570E+04   1.2801019E+04   1.2656398E+04   1.2549587E+04   1.2459756E+04   1.3069637E+04   1.2807782E+04   1.2768301E+04   1.2649957E+04   1.2584518E+04   1.2530924E+04   1.2736538E+04   1.2504342E+04   1.2473451E+04   1.2384835E+04   1.2364210E+04   1.2353750E+04   1.2235208E+04   1.2046482E+04   1.2040458E+04   1.1991620E+04   1.2018155E+04   1.2054162E+04   1.1649221E+04   1.1518745E+04   1.1554922E+04   1.1560337E+04   1.1636853E+04   1.1719686E+04   1.0995907E+04   1.0935470E+04   1.1034204E+04   1.1106038E+04   1.1233166E+04   1.1356559E+04   1.0251716E+04   1.0272169E+04   1.0442911E+04   1.0583724E+04   1.0747890E+04   1.0906949E+04   9.3973711E+03   9.4960107E+03   9.7367217E+03   9.9219648E+03   1.0119921E+04   1.0305885E+04   8.4560986E+03   8.6146299E+03   8.9009014E+03   9.1071309E+03   9.3361729E+03   9.5355518E+03   7.4843379E+03   7.6780874E+03   7.9737573E+03   8.1899268E+03   8.4324932E+03   8.6326982E+03   6.5510601E+03   6.7513965E+03   7.0306235E+03   7.2387510E+03   7.4744829E+03   7.6657012E+03   5.6750527E+03   5.8808213E+03   6.1323633E+03   6.3225752E+03   6.5352275E+03   6.7087749E+03   4.7736963E+03   5.0633916E+03   5.3160166E+03   5.4907729E+03   5.6715503E+03   5.8176641E+03   3.9647014E+03   4.3372305E+03   4.6222246E+03   4.7773745E+03   4.9123398E+03   5.0244268E+03   3.7215820E+03   4.0600115E+03   4.1869893E+03   4.2690264E+03   4.3398535E+03   3.1897813E+03   3.5438284E+03   3.6945161E+03   3.7340217E+03   3.7655603E+03   3.0017068E+03   3.2271577E+03   3.2709478E+03   3.2892781E+03   2.4817966E+03   2.6933723E+03   2.8284580E+03   2.8718330E+03   2.1538188E+03   2.3355737E+03   2.4459507E+03   1.8337255E+03   1.9549155E+03   1.6250425E+03   1.5074156E+03   9.8071289E+01   1.0133045E+02   1.0340446E+02   1.0498467E+02   1.0567601E+02   1.0626859E+02   1.0646611E+02   1.0646611E+02   1.0646611E+02   1.1634237E+02   1.1979906E+02   1.2207060E+02   1.2365080E+02   1.2444090E+02   1.2503349E+02   1.2503349E+02   1.2513225E+02   1.2513225E+02   1.3253944E+02   1.3589737E+02   1.3836644E+02   1.3955159E+02   1.4044044E+02   1.4063797E+02   1.4073674E+02   1.4063797E+02   1.4053922E+02   1.4903281E+02   1.5219321E+02   1.5416846E+02   1.5505731E+02   1.5574866E+02   1.5574866E+02   1.5564990E+02   1.5545238E+02   1.5535361E+02   1.6769893E+02   1.7046429E+02   1.7214325E+02   1.7253830E+02   1.7273582E+02   1.7234077E+02   1.7204449E+02   1.7184697E+02   1.7155067E+02   1.9031558E+02   1.9258711E+02   1.9357474E+02   1.9357474E+02   1.9317969E+02   1.9268588E+02   1.9189578E+02   1.9140196E+02   1.9110568E+02   2.1767282E+02   2.1925302E+02   2.1945055E+02   2.1895674E+02   2.1777159E+02   2.1668520E+02   2.1559880E+02   2.1480870E+02   2.1431490E+02   2.4977068E+02   2.5036325E+02   2.4967192E+02   2.4828923E+02   2.4651151E+02   2.4493130E+02   2.4354863E+02   2.4236348E+02   2.4177090E+02   2.8611533E+02   2.8601657E+02   2.8433759E+02   2.8196729E+02   2.7959698E+02   2.7732544E+02   2.7535019E+02   2.7406628E+02   2.7327618E+02   3.2729935E+02   3.2581790E+02   3.2315131E+02   3.1979337E+02   3.1673172E+02   3.1376886E+02   3.1159607E+02   3.0981836E+02   3.0892947E+02   3.7253262E+02   3.7006354E+02   3.6640933E+02   3.6255759E+02   3.5850833E+02   3.5515039E+02   3.5258258E+02   3.5060733E+02   3.4942215E+02   4.2181516E+02   4.1865475E+02   4.1440796E+02   4.0966736E+02   4.0522305E+02   4.0137131E+02   3.9850720E+02   3.9623566E+02   3.9495172E+02   4.7524576E+02   4.7188782E+02   4.6734473E+02   4.6230783E+02   4.5746848E+02   4.5341922E+02   4.5016003E+02   4.4778973E+02   4.4630829E+02   5.3351563E+02   5.3035522E+02   5.2591095E+02   5.2087402E+02   5.1573840E+02   5.1139282E+02   5.0803491E+02   5.0556583E+02   5.0408438E+02   5.9761261E+02   5.9524231E+02   5.9089673E+02   5.8576111E+02   5.8072418E+02   5.7608234E+02   5.7282318E+02   5.7015656E+02   5.6877393E+02   6.6911664E+02   6.6684509E+02   6.6309210E+02   6.5825275E+02   6.5351215E+02   6.4906781E+02   6.4541357E+02   6.4284576E+02   6.4146307E+02   7.4901556E+02   7.4743536E+02   7.4397870E+02   7.3913928E+02   7.3429993E+02   7.3015192E+02   7.2649768E+02   7.2392987E+02   7.2254718E+02   8.3938330E+02   8.3790186E+02   8.3434637E+02   8.2980334E+02   8.2476642E+02   8.2071716E+02   8.1716168E+02   8.1459387E+02   8.1311243E+02   9.4091119E+02   9.3923218E+02   9.3557800E+02   9.3054108E+02   9.2550421E+02   9.2115863E+02   9.1770197E+02   9.1523291E+02   9.1365271E+02   1.0549817E+03   1.0526115E+03   1.0481671E+03   1.0425376E+03   1.0371057E+03   1.0324639E+03   1.0287108E+03   1.0260443E+03   1.0243654E+03   1.1822864E+03   1.1787310E+03   1.1730027E+03   1.1663856E+03   1.1598673E+03   1.1545341E+03   1.1501886E+03   1.1471270E+03   1.1454480E+03   1.3237140E+03   1.3180845E+03   1.3103810E+03   1.3015912E+03   1.2937889E+03   1.2871719E+03   1.2820361E+03   1.2783820E+03   1.2761105E+03   1.4788693E+03   1.4703757E+03   1.4594131E+03   1.4481542E+03   1.4376853E+03   1.4293893E+03   1.4229697E+03   1.4183279E+03   1.4153650E+03   1.6483447E+03   1.6351106E+03   1.6195061E+03   1.6040991E+03   1.5904700E+03   1.5794086E+03   1.5711125E+03   1.5650880E+03   1.5617301E+03   1.8250293E+03   1.8057706E+03   1.7843392E+03   1.7632041E+03   1.7451306E+03   1.7309088E+03   1.7201437E+03   1.7126377E+03   1.7082922E+03   1.9982566E+03   1.9708008E+03   1.9416659E+03   1.9144075E+03   1.8909021E+03   1.8726311E+03   1.8595945E+03   1.8502120E+03   1.8451752E+03   2.1549895E+03   2.1191387E+03   2.0816091E+03   2.0465486E+03   2.0174138E+03   1.9951923E+03   1.9789954E+03   1.9680326E+03   1.9620081E+03   2.2805117E+03   2.2377478E+03   2.1928110E+03   2.1506399E+03   2.1159744E+03   2.0897036E+03   2.0712351E+03   2.0585938E+03   2.0514829E+03   2.3868728E+03   2.3421338E+03   2.2932466E+03   2.2465322E+03   2.2078176E+03   2.1784854E+03   2.1579429E+03   2.1443140E+03   2.1365117E+03   2.5617715E+03   2.5231558E+03   2.4777256E+03   2.4319001E+03   2.3922969E+03   2.3620759E+03   2.3409409E+03   2.3270154E+03   2.3187192E+03   3.0727490E+03   3.0520093E+03   3.0193196E+03   2.9816914E+03   2.9468286E+03   2.9185830E+03   2.8983372E+03   2.8846094E+03   2.8764121E+03   4.4771025E+03   4.4851021E+03   4.4757202E+03   4.4547827E+03   4.4301914E+03   4.4080693E+03   4.3907861E+03   4.3781450E+03   4.3705400E+03   7.2917144E+03   7.3354648E+03   7.3555127E+03   7.3570923E+03   7.3484014E+03   7.3361553E+03   7.3236128E+03   7.3136382E+03   7.3067251E+03   1.0748379E+04   1.0824225E+04   1.0872814E+04   1.0897307E+04   1.0905898E+04   1.0905207E+04   1.0899775E+04   1.0892764E+04   1.0886838E+04   1.2916628E+04   1.3008769E+04   1.3075034E+04   1.3116710E+04   1.3140412E+04   1.3150386E+04   1.3151670E+04   1.3147720E+04   1.3142880E+04   1.3202959E+04   1.3289370E+04   1.3356228E+04   1.3404617E+04   1.3436613E+04   1.3454883E+04   1.3461795E+04   1.3461005E+04   1.3457549E+04   1.2509163E+04   1.2569995E+04   1.2621938E+04   1.2665488E+04   1.2699064E+04   1.2721580E+04   1.2732539E+04   1.2734218E+04   1.2731749E+04   1.1804229E+04   1.1825460E+04   1.1853208E+04   1.1883327E+04   1.1911767E+04   1.1932898E+04   1.1943859E+04   1.1945636E+04   1.1942970E+04   1.1528146E+04   1.1513138E+04   1.1515705E+04   1.1529035E+04   1.1546217E+04   1.1559844E+04   1.1565670E+04   1.1563497E+04   1.1558066E+04   1.1664420E+04   1.1627196E+04   1.1612089E+04   1.1611003E+04   1.1615742E+04   1.1619001E+04   1.1616039E+04   1.1607152E+04   1.1596982E+04   1.2017896E+04   1.1976923E+04   1.1957078E+04   1.1949378E+04   1.1946219E+04   1.1940986E+04   1.1929534E+04   1.1913441E+04   1.1898731E+04   1.2400823E+04   1.2373380E+04   1.2362521E+04   1.2358376E+04   1.2354625E+04   1.2346135E+04   1.2329945E+04   1.2309513E+04   1.2291645E+04   1.2502104E+04   1.2499935E+04   1.2507635E+04   1.2515432E+04   1.2518986E+04   1.2513656E+04   1.2498457E+04   1.2477336E+04   1.2458483E+04   1.2362141E+04   1.2389870E+04   1.2420463E+04   1.2445627E+04   1.2461120E+04   1.2464278E+04   1.2454313E+04   1.2436650E+04   1.2419579E+04   1.2101714E+04   1.2159525E+04   1.2212600E+04   1.2254431E+04   1.2282940E+04   1.2296063E+04   1.2293992E+04   1.2281366E+04   1.2267852E+04   1.1804690E+04   1.1888217E+04   1.1958134E+04   1.2011583E+04   1.2049648E+04   1.2070459E+04   1.2074896E+04   1.2068095E+04   1.2057741E+04   1.1473255E+04   1.1573296E+04   1.1650275E+04   1.1706851E+04   1.1747264E+04   1.1770823E+04   1.1778711E+04   1.1774574E+04   1.1766495E+04   1.1043556E+04   1.1148748E+04   1.1222424E+04   1.1273545E+04   1.1308908E+04   1.1330188E+04   1.1337282E+04   1.1334332E+04   1.1327047E+04   1.0451020E+04   1.0552175E+04   1.0615943E+04   1.0656196E+04   1.0682967E+04   1.0698914E+04   1.0703644E+04   1.0700303E+04   1.0693813E+04   9.6811855E+03   9.7741553E+03   9.8264453E+03   9.8556436E+03   9.8738350E+03   9.8847520E+03   9.8880029E+03   9.8844727E+03   9.8788760E+03   8.7745469E+03   8.8601953E+03   8.9038652E+03   8.9252676E+03   8.9383291E+03   8.9461895E+03   8.9488486E+03   8.9466006E+03   8.9424873E+03   7.8014443E+03   7.8832739E+03   7.9238120E+03   7.9436997E+03   7.9554624E+03   7.9630132E+03   7.9667446E+03   7.9664609E+03   7.9645103E+03   6.8341426E+03   6.9150352E+03   6.9597397E+03   6.9835688E+03   6.9983208E+03   7.0080942E+03   7.0137671E+03   7.0162168E+03   7.0161265E+03   5.9270669E+03   6.0072339E+03   6.0610776E+03   6.0952012E+03   6.1168872E+03   6.1307983E+03   6.1391689E+03   6.1437466E+03   6.1455034E+03   5.1109194E+03   5.1854277E+03   5.2492104E+03   5.2975332E+03   5.3305923E+03   5.3514780E+03   5.3638594E+03   5.3708276E+03   5.3740249E+03   4.3962979E+03   4.4574219E+03   4.5247603E+03   4.5875840E+03   4.6358301E+03   4.6680640E+03   4.6872568E+03   4.6980093E+03   4.7029082E+03   3.7884546E+03   3.8259402E+03   3.8851343E+03   3.9545601E+03   4.0178071E+03   4.0653857E+03   4.0959712E+03   4.1137373E+03   4.1224805E+03   3.2880239E+03   3.2960186E+03   3.3338677E+03   3.3953936E+03   3.4637415E+03   3.5240220E+03   3.5684595E+03   3.5968682E+03   3.6119651E+03   2.8839890E+03   2.8729990E+03   2.8803101E+03   2.9181797E+03   2.9758367E+03   3.0367014E+03   3.0887085E+03   3.1262368E+03   3.1483665E+03   2.5183896E+03   2.5412241E+03   2.5317305E+03   2.5366326E+03   2.5662246E+03   2.6107715E+03   2.6569238E+03   2.6949412E+03   2.7197717E+03   2.1169312E+03   2.2181831E+03   2.2604785E+03   2.2550132E+03   2.2500310E+03   2.2625947E+03   2.2875295E+03   2.3142017E+03   2.3340015E+03   1.6809135E+03   1.8336946E+03   1.9517903E+03   2.0136239E+03   2.0186354E+03   2.0042700E+03   1.9982126E+03   2.0025181E+03   2.0099535E+03   1.4096897E+03   1.4912957E+03   1.5830990E+03   1.6804246E+03   1.7534935E+03   1.7844758E+03   1.7830229E+03   1.7731638E+03   1.7680316E+03   1.3808484E+03   1.3595856E+03   1.3914333E+03   1.4228920E+03   1.4628337E+03   1.4908208E+03   1.5083364E+03   1.5155303E+03   1.3369569E+03   1.2879630E+03   1.2864714E+03   1.2687747E+03   1.2549568E+03   1.2438179E+03   1.3403674E+03   1.3203943E+03   1.3032572E+03   1.2876704E+03   1.0646611E+02   1.0646611E+02   1.0646611E+02   1.0646611E+02   1.0626859E+02   1.0567601E+02   1.0498467E+02   1.0340446E+02   1.2513225E+02   1.2513225E+02   1.2513225E+02   1.2503349E+02   1.2503349E+02   1.2444090E+02   1.2365080E+02   1.2207060E+02   1.4053922E+02   1.4053922E+02   1.4063797E+02   1.4073674E+02   1.4063797E+02   1.4044044E+02   1.3955159E+02   1.3836644E+02   1.5535361E+02   1.5535361E+02   1.5545238E+02   1.5564990E+02   1.5574866E+02   1.5574866E+02   1.5505731E+02   1.5416846E+02   1.7145192E+02   1.7155067E+02   1.7184697E+02   1.7204449E+02   1.7234077E+02   1.7273582E+02   1.7253830E+02   1.7214325E+02   1.9090816E+02   1.9110568E+02   1.9140196E+02   1.9189578E+02   1.9268588E+02   1.9317969E+02   1.9357474E+02   1.9357474E+02   2.1401860E+02   2.1431490E+02   2.1480870E+02   2.1559880E+02   2.1668520E+02   2.1777159E+02   2.1895674E+02   2.1945055E+02   2.4137585E+02   2.4177090E+02   2.4236348E+02   2.4354863E+02   2.4493130E+02   2.4651151E+02   2.4828923E+02   2.4967192E+02   2.7288113E+02   2.7327618E+02   2.7406628E+02   2.7535019E+02   2.7732544E+02   2.7959698E+02   2.8196729E+02   2.8433759E+02   3.0843567E+02   3.0892947E+02   3.0981836E+02   3.1159607E+02   3.1376886E+02   3.1673172E+02   3.1979337E+02   3.2315131E+02   3.4902710E+02   3.4942215E+02   3.5060733E+02   3.5258258E+02   3.5515039E+02   3.5850833E+02   3.6255759E+02   3.6640933E+02   3.9455667E+02   3.9495172E+02   3.9623566E+02   3.9850720E+02   4.0137131E+02   4.0522305E+02   4.0966736E+02   4.1440796E+02   4.4581448E+02   4.4630829E+02   4.4778973E+02   4.5016003E+02   4.5341922E+02   4.5746848E+02   4.6230783E+02   4.6734473E+02   5.0368933E+02   5.0408438E+02   5.0556583E+02   5.0803491E+02   5.1139282E+02   5.1573840E+02   5.2087402E+02   5.2591095E+02   5.6828009E+02   5.6877393E+02   5.7015656E+02   5.7282318E+02   5.7608234E+02   5.8072418E+02   5.8576111E+02   5.9089673E+02   6.4087054E+02   6.4146307E+02   6.4284576E+02   6.4541357E+02   6.4906781E+02   6.5351215E+02   6.5825275E+02   6.6309210E+02   7.2205341E+02   7.2254718E+02   7.2392987E+02   7.2649768E+02   7.3015192E+02   7.3429993E+02   7.3913928E+02   7.4397870E+02   8.1271741E+02   8.1311243E+02   8.1459387E+02   8.1716168E+02   8.2071716E+02   8.2476642E+02   8.2980334E+02   8.3434637E+02   9.1306012E+02   9.1365271E+02   9.1523291E+02   9.1770197E+02   9.2115863E+02   9.2550421E+02   9.3054108E+02   9.3557800E+02   1.0237728E+03   1.0243654E+03   1.0260443E+03   1.0287108E+03   1.0324639E+03   1.0371057E+03   1.0425376E+03   1.0481671E+03   1.1448553E+03   1.1454480E+03   1.1471270E+03   1.1501886E+03   1.1545341E+03   1.1598673E+03   1.1663856E+03   1.1730027E+03   1.2754191E+03   1.2761105E+03   1.2783820E+03   1.2820361E+03   1.2871719E+03   1.2937889E+03   1.3015912E+03   1.3102822E+03   1.4145750E+03   1.4153650E+03   1.4183279E+03   1.4229697E+03   1.4293893E+03   1.4376853E+03   1.4481542E+03   1.4594131E+03   1.5605449E+03   1.5617301E+03   1.5650880E+03   1.5711125E+03   1.5794086E+03   1.5904700E+03   1.6040991E+03   1.6195061E+03   1.7070083E+03   1.7082922E+03   1.7126377E+03   1.7201437E+03   1.7309088E+03   1.7451306E+03   1.7632041E+03   1.7843392E+03   1.8432000E+03   1.8451752E+03   1.8502120E+03   1.8595945E+03   1.8726311E+03   1.8909021E+03   1.9144075E+03   1.9416659E+03   1.9597366E+03   1.9620081E+03   1.9680326E+03   1.9789954E+03   1.9951923E+03   2.0174138E+03   2.0465486E+03   2.0816091E+03   2.0491125E+03   2.0514829E+03   2.0585938E+03   2.0712351E+03   2.0898025E+03   2.1159744E+03   2.1506399E+03   2.1928110E+03   2.1337463E+03   2.1365117E+03   2.1443140E+03   2.1579429E+03   2.1784854E+03   2.2078176E+03   2.2465322E+03   2.2932466E+03   2.3159541E+03   2.3187192E+03   2.3270154E+03   2.3409409E+03   2.3620759E+03   2.3922969E+03   2.4319001E+03   2.4777256E+03   2.8736470E+03   2.8764121E+03   2.8846094E+03   2.8983372E+03   2.9185830E+03   2.9468286E+03   2.9816914E+03   3.0193196E+03   4.3677749E+03   4.3705400E+03   4.3781450E+03   4.3907861E+03   4.4080693E+03   4.4301914E+03   4.4547827E+03   4.4757202E+03   7.3042559E+03   7.3067251E+03   7.3136382E+03   7.3236128E+03   7.3361553E+03   7.3484014E+03   7.3570923E+03   7.3555127E+03   1.0884665E+04   1.0886838E+04   1.0892764E+04   1.0899775E+04   1.0905207E+04   1.0905898E+04   1.0897307E+04   1.0872814E+04   1.3141102E+04   1.3142880E+04   1.3147720E+04   1.3151670E+04   1.3150386E+04   1.3140412E+04   1.3116710E+04   1.3075034E+04   1.3455771E+04   1.3457549E+04   1.3461005E+04   1.3461795E+04   1.3454883E+04   1.3436613E+04   1.3404617E+04   1.3356228E+04   1.2730070E+04   1.2731749E+04   1.2734218E+04   1.2732539E+04   1.2721580E+04   1.2699064E+04   1.2665488E+04   1.2621938E+04   1.1941191E+04   1.1942970E+04   1.1945636E+04   1.1943859E+04   1.1932898E+04   1.1911767E+04   1.1883327E+04   1.1853208E+04   1.1555499E+04   1.1558066E+04   1.1563497E+04   1.1565670E+04   1.1559844E+04   1.1546217E+04   1.1529035E+04   1.1515705E+04   1.1592736E+04   1.1596982E+04   1.1607152E+04   1.1616039E+04   1.1619001E+04   1.1615742E+04   1.1611003E+04   1.1612089E+04   1.1892808E+04   1.1898731E+04   1.1913441E+04   1.1929534E+04   1.1940986E+04   1.1946219E+04   1.1949378E+04   1.1957078E+04   1.2284438E+04   1.2291645E+04   1.2309513E+04   1.2329945E+04   1.2346135E+04   1.2354625E+04   1.2358376E+04   1.2362521E+04   1.2451278E+04   1.2458483E+04   1.2477336E+04   1.2498457E+04   1.2513656E+04   1.2518986E+04   1.2515432E+04   1.2507635E+04   1.2412771E+04   1.2419579E+04   1.2436650E+04   1.2454313E+04   1.2464278E+04   1.2461120E+04   1.2445627E+04   1.2420463E+04   1.2262031E+04   1.2267852E+04   1.2281366E+04   1.2293992E+04   1.2296063E+04   1.2282940E+04   1.2254431E+04   1.2212600E+04   1.2052812E+04   1.2057741E+04   1.2068095E+04   1.2074896E+04   1.2070459E+04   1.2049648E+04   1.2011583E+04   1.1958134E+04   1.1762553E+04   1.1766495E+04   1.1774574E+04   1.1778711E+04   1.1770823E+04   1.1747264E+04   1.1706851E+04   1.1650275E+04   1.1323601E+04   1.1327047E+04   1.1334332E+04   1.1337282E+04   1.1330188E+04   1.1308908E+04   1.1273545E+04   1.1222424E+04   1.0690567E+04   1.0693813E+04   1.0700303E+04   1.0703644E+04   1.0698914E+04   1.0682967E+04   1.0656196E+04   1.0615943E+04   9.8763223E+03   9.8788760E+03   9.8844727E+03   9.8880029E+03   9.8847520E+03   9.8738350E+03   9.8556436E+03   9.8264453E+03   8.9404287E+03   8.9424873E+03   8.9466006E+03   8.9488486E+03   8.9461895E+03   8.9383291E+03   8.9252676E+03   8.9038652E+03   7.9634355E+03   7.9645103E+03   7.9664609E+03   7.9667446E+03   7.9630132E+03   7.9554624E+03   7.9436997E+03   7.9238120E+03   7.0159341E+03   7.0161265E+03   7.0162168E+03   7.0137671E+03   7.0080942E+03   6.9983208E+03   6.9835688E+03   6.9597397E+03   6.1459917E+03   6.1455034E+03   6.1437466E+03   6.1391689E+03   6.1307983E+03   6.1168872E+03   6.0952012E+03   6.0610776E+03   5.3749937E+03   5.3740249E+03   5.3708276E+03   5.3638594E+03   5.3514780E+03   5.3305923E+03   5.2975332E+03   5.2492104E+03   4.7043491E+03   4.7029082E+03   4.6980093E+03   4.6872568E+03   4.6680640E+03   4.6358301E+03   4.5875840E+03   4.5247603E+03   4.1251416E+03   4.1224805E+03   4.1137373E+03   4.0959712E+03   4.0653857E+03   4.0178071E+03   3.9545601E+03   3.8851343E+03   3.6168411E+03   3.6119651E+03   3.5968682E+03   3.5684595E+03   3.5240220E+03   3.4637415E+03   3.3953936E+03   3.3338677E+03   3.1555586E+03   3.1483665E+03   3.1262368E+03   3.0887085E+03   3.0367014E+03   2.9758367E+03   2.9181797E+03   2.8803101E+03   2.7280791E+03   2.7197717E+03   2.6949412E+03   2.6569238E+03   2.6107715E+03   2.5662246E+03   2.5366326E+03   2.5317305E+03   2.3411284E+03   2.3340015E+03   2.3142017E+03   2.2875295E+03   2.2625947E+03   2.2500310E+03   2.2550132E+03   2.2604785E+03   2.0131982E+03   2.0099535E+03   2.0025181E+03   1.9982126E+03   2.0042700E+03   2.0186354E+03   2.0136239E+03   1.9517903E+03   1.7667303E+03   1.7680316E+03   1.7731638E+03   1.7829409E+03   1.7844758E+03   1.7534935E+03   1.6804246E+03   1.5830990E+03   1.5180594E+03   1.5155303E+03   1.5083364E+03   1.4908208E+03   1.4628337E+03   1.4228920E+03   1.3914333E+03   1.3595856E+03   1.2395552E+03   1.2438179E+03   1.2549568E+03   1.2687747E+03   1.2864714E+03   1.2879630E+03   1.3369569E+03   1.2810487E+03   1.2876704E+03   1.3032572E+03   1.3203943E+03   1.3403674E+03   1.0133045E+02   9.8071289E+01   9.3725731E+01   8.7997498E+01   8.0392776E+01   7.0714035E+01   5.9356339E+01   1.1979906E+02   1.1634237E+02   1.1160177E+02   1.0528096E+02   9.6688606E+01   8.5923485E+01   7.2788055E+01   5.7381084E+01   1.3589737E+02   1.3253944E+02   1.2779884E+02   1.2098421E+02   1.1199682E+02   1.0014530E+02   8.5232147E+01   6.7948685E+01   1.5219321E+02   1.4903281E+02   1.4429219E+02   1.3747757E+02   1.2779884E+02   1.1476217E+02   9.8268814E+01   7.8615051E+01   1.7046429E+02   1.6769893E+02   1.6315585E+02   1.5644000E+02   1.4606992E+02   1.3174934E+02   1.1337949E+02   9.1256668E+01   1.9258711E+02   1.9031558E+02   1.8616754E+02   1.7935292E+02   1.6858780E+02   1.5357588E+02   1.3362582E+02   1.0863889E+02   2.1925302E+02   2.1767282E+02   2.1401860E+02   2.0730275E+02   1.9732773E+02   1.8310591E+02   1.6295833E+02   1.3648994E+02   2.5036325E+02   2.4977068E+02   2.4680780E+02   2.4186966E+02   2.3426494E+02   2.2340106E+02   2.0710522E+02   1.8083437E+02   2.8601657E+02   2.8611533E+02   2.8502893E+02   2.8265863E+02   2.8009079E+02   2.7683163E+02   2.6991824E+02   2.4868428E+02   3.2581790E+02   3.2729935E+02   3.2779315E+02   3.2907706E+02   3.3342261E+02   3.4201495E+02   3.5040979E+02   3.4300259E+02   3.7006354E+02   3.7253262E+02   3.7470538E+02   3.7944601E+02   3.9100122E+02   4.1233395E+02   4.4008624E+02   4.5480188E+02   4.1865475E+02   4.2181516E+02   4.2497559E+02   4.3198773E+02   4.4828354E+02   4.7909750E+02   5.2117035E+02   5.4546594E+02   4.7188782E+02   4.7524576E+02   4.7840616E+02   4.8551706E+02   5.0220795E+02   5.3252808E+02   5.6729254E+02   5.6531726E+02   5.3035522E+02   5.3351563E+02   5.3598474E+02   5.4102161E+02   5.5346570E+02   5.7430463E+02   5.8734131E+02   5.6541595E+02   5.9524231E+02   5.9761261E+02   5.9919281E+02   6.0166187E+02   6.0768640E+02   6.1667377E+02   6.1321710E+02   5.8872394E+02   6.6684509E+02   6.6911664E+02   6.6951166E+02   6.6970923E+02   6.7079559E+02   6.7128943E+02   6.6101807E+02   6.3948785E+02   7.4743536E+02   7.4901556E+02   7.4901556E+02   7.4783044E+02   7.4615143E+02   7.4299103E+02   7.3173212E+02   7.1365857E+02   8.3790186E+02   8.3938330E+02   8.3898822E+02   8.3691425E+02   8.3424762E+02   8.3059344E+02   8.2032208E+02   8.0501392E+02   9.3923218E+02   9.4091119E+02   9.4031860E+02   9.3814581E+02   9.3518292E+02   9.3202252E+02   9.2273883E+02   9.0841827E+02   1.0526115E+03   1.0549817E+03   1.0547842E+03   1.0527102E+03   1.0498461E+03   1.0475745E+03   1.0393772E+03   1.0244641E+03   1.1787310E+03   1.1822864E+03   1.1831753E+03   1.1818914E+03   1.1796198E+03   1.1787310E+03   1.1717188E+03   1.1560155E+03   1.3180845E+03   1.3237140E+03   1.3263805E+03   1.3267756E+03   1.3260842E+03   1.3271707E+03   1.3219363E+03   1.3066281E+03   1.4703757E+03   1.4788693E+03   1.4846963E+03   1.4881530E+03   1.4906221E+03   1.4948688E+03   1.4918071E+03   1.4778817E+03   1.6351106E+03   1.6483447E+03   1.6584185E+03   1.6665170E+03   1.6745167E+03   1.6838004E+03   1.6836029E+03   1.6719490E+03   1.8057706E+03   1.8250293E+03   1.8419176E+03   1.8569296E+03   1.8735216E+03   1.8918914E+03   1.8952493E+03   1.8857682E+03   1.9708008E+03   1.9982566E+03   2.0228484E+03   2.0473414E+03   2.0765752E+03   2.1097593E+03   2.1186477E+03   2.1102529E+03   2.1191387E+03   2.1549895E+03   2.1881736E+03   2.2226414E+03   2.2678745E+03   2.3243665E+03   2.3427361E+03   2.3333538E+03   2.2377478E+03   2.2805117E+03   2.3202141E+03   2.3632742E+03   2.4260869E+03   2.5138862E+03   2.5490454E+03   2.5380828E+03   2.3421338E+03   2.3868728E+03   2.4275625E+03   2.4733879E+03   2.5511135E+03   2.6746643E+03   2.7353040E+03   2.7235515E+03   2.5231558E+03   2.5617715E+03   2.5934739E+03   2.6327808E+03   2.7155430E+03   2.8687217E+03   2.9570144E+03   2.9471384E+03   3.0520093E+03   3.0727490E+03   3.0838103E+03   3.1026736E+03   3.1745718E+03   3.3300215E+03   3.4293750E+03   3.4231528E+03   4.4851021E+03   4.4771025E+03   4.4551777E+03   4.4417466E+03   4.4854971E+03   4.5995654E+03   4.6427241E+03   4.6329468E+03   7.3354648E+03   7.2917144E+03   7.2310757E+03   7.1799185E+03   7.1639194E+03   7.1514756E+03   7.0889609E+03   7.0533086E+03   1.0824225E+04   1.0748379E+04   1.0654953E+04   1.0561429E+04   1.0442425E+04   1.0261203E+04   1.0107437E+04   1.0036430E+04   1.3008769E+04   1.2916628E+04   1.2807601E+04   1.2679315E+04   1.2463234E+04   1.2195507E+04   1.2020114E+04   1.1943873E+04   1.3289370E+04   1.3202959E+04   1.3099760E+04   1.2956565E+04   1.2707702E+04   1.2459234E+04   1.2351296E+04   1.2307546E+04   1.2569995E+04   1.2509163E+04   1.2432630E+04   1.2314721E+04   1.2119782E+04   1.1978665E+04   1.1993377E+04   1.2008979E+04   1.1825460E+04   1.1804229E+04   1.1786949E+04   1.1757817E+04   1.1698173E+04   1.1700837E+04   1.1741521E+04   1.1830888E+04   1.1513138E+04   1.1528146E+04   1.1565077E+04   1.1617313E+04   1.1674779E+04   1.1791198E+04   1.1815390E+04   1.1988487E+04   1.1627196E+04   1.1664519E+04   1.1733536E+04   1.1833655E+04   1.1956286E+04   1.2122461E+04   1.2141120E+04   1.2374831E+04   1.1976923E+04   1.2017896E+04   1.2092928E+04   1.2203207E+04   1.2338268E+04   1.2506797E+04   1.2531282E+04   1.2797947E+04   1.2373380E+04   1.2400823E+04   1.2459756E+04   1.2549587E+04   1.2656398E+04   1.2801019E+04   1.2835570E+04   1.3110298E+04   1.2499935E+04   1.2502104E+04   1.2530924E+04   1.2584518E+04   1.2649957E+04   1.2768301E+04   1.2807782E+04   1.3069637E+04   1.2389870E+04   1.2362141E+04   1.2353750E+04   1.2364210E+04   1.2384835E+04   1.2473451E+04   1.2504342E+04   1.2736538E+04   1.2159525E+04   1.2101714E+04   1.2054162E+04   1.2018155E+04   1.1991620E+04   1.2040458E+04   1.2046482E+04   1.2235208E+04   1.1888217E+04   1.1804690E+04   1.1719686E+04   1.1636853E+04   1.1560337E+04   1.1554922E+04   1.1518745E+04   1.1649221E+04   1.1573296E+04   1.1473255E+04   1.1356559E+04   1.1233166E+04   1.1106038E+04   1.1034204E+04   1.0935470E+04   1.0995907E+04   1.1148748E+04   1.1043556E+04   1.0906949E+04   1.0747987E+04   1.0583724E+04   1.0442911E+04   1.0272169E+04   1.0251716E+04   1.0552175E+04   1.0451020E+04   1.0305885E+04   1.0119921E+04   9.9219648E+03   9.7367217E+03   9.4960107E+03   9.3973711E+03   9.7741553E+03   9.6811855E+03   9.5355518E+03   9.3361729E+03   9.1071309E+03   8.9009014E+03   8.6146299E+03   8.4560986E+03   8.8601953E+03   8.7745469E+03   8.6326982E+03   8.4324932E+03   8.1899268E+03   7.9737573E+03   7.6780874E+03   7.4843379E+03   7.8832739E+03   7.8014443E+03   7.6657012E+03   7.4744829E+03   7.2387510E+03   7.0306235E+03   6.7513965E+03   6.5510601E+03   6.9150352E+03   6.8341426E+03   6.7088726E+03   6.5352275E+03   6.3225752E+03   6.1323633E+03   5.8808213E+03   5.6750527E+03   6.0072339E+03   5.9270669E+03   5.8176641E+03   5.6715503E+03   5.4907729E+03   5.3160166E+03   5.0633916E+03   4.7736963E+03   5.1854277E+03   5.1109194E+03   5.0244268E+03   4.9123398E+03   4.7773745E+03   4.6222246E+03   4.3372305E+03   3.9647014E+03   4.4574219E+03   4.3962979E+03   4.3398535E+03   4.2690264E+03   4.1869893E+03   4.0600115E+03   3.7215820E+03   3.8259402E+03   3.7884546E+03   3.7655603E+03   3.7340217E+03   3.6945161E+03   3.5438284E+03   3.1897813E+03   3.2960186E+03   3.2880239E+03   3.2892781E+03   3.2709478E+03   3.2271577E+03   3.0017068E+03   2.8729990E+03   2.8839890E+03   2.8718330E+03   2.8284580E+03   2.6933723E+03   2.4817966E+03   2.5412241E+03   2.5183896E+03   2.4459507E+03   2.3355737E+03   2.1538188E+03   2.2181831E+03   2.1169312E+03   1.9549155E+03   1.8337255E+03   1.8336946E+03   1.6809135E+03   1.5074156E+03   1.6250425E+03   1.4912957E+03   1.4096897E+03   1.3808484E+03 
Type 1 2975 float
0 0 0 0 0 0 0 0 0 0 0 0 0 0 0 0 0 0 0 0 0 0 0 0 0 0 0 0 0 0 0 0 0 0 0 0 0 0 0 0 0 0 0 0 0 0 0 0 0 0 0 0 0 0 0 0 0 0 0 0 0 0 0 0 0 0 0 0 0 0 0 0 0 0 0 0 0 0 0 0 0 0 0 0 0 0 0 0 0 0 0 0 0 0 0 0 0 0 0 0 0 0 0 0 0 0 0 0 0 0 0 0 0 0 0 0 0 0 0 0 0 0 0 0 0 0 0 0 0 0 0 0 0 0 0 0 0 0 0 0 0 0 0 0 0 0 0 0 0 0 0 0 0 0 0 0 0 0 0 0 0 0 0 0 0 0 0 0 0 0 0 0 0 0 0 0 0 0 0 0 0 0 0 0 0 0 0 0 0 0 0 0 0 0 0 0 0 0 0 0 0 0 0 0 0 0 0 0 0 0 0 0 0 0 0 0 0 0 0 0 0 0 0 0 0 0 0 0 0 0 0 0 0 0 0 0 0 0 0 0 0 0 0 0 0 0 0 0 0 0 0 0 0 0 0 0 0 0 0 0 0 0 0 0 0 0 0 0 0 0 0 0 0 0 0 0 0 0 0 0 0 0 0 0 0 0 0 0 0 0 0 0 0 0 0 0 0 0 0 0 0 0 0 0 0 0 0 0 0 0 0 0 0 0 0 0 0 0 0 0 0 0 0 0 0 0 0 0 0 0 0 0 0 0 0 0 0 0 0 0 0 0 0 0 0 0 0 0 0 0 0 0 0 0 0 0 0 0 0 0 0 0 0 0 0 0 0 0 0 0 0 0 0 0 0 0 0 0 0 0 0 0 0 0 0 0 0 0 0 0 0 0 0 0 0 0 0 0 0 0 0 0 0 0 0 0 0 0 0 0 0 0 0 0 0 0 0 0 0 0 0 0 0 0 0 0 0 0 0 0 0 0 0 0 0 0 0 0 0 0 0 0 0 0 0 0 0 0 0 0 0 0 0 0 0 0 0 0 0 0 0 0 0 0 0 0 0 0 0 0 0 0 0 0 0 0 0 0 0 0 0 0 0 0 0 0 0 0 0 0 0 0 0 0 0 0 0 0 0 0 0 0 0 0 0 0 0 0 0 0 0 0 0 0 0 0 0 0 0 0 0 0 0 0 0 0 0 0 0 0 0 0 0 0 0 0 0 0 0 0 0 0 0 0 0 0 0 0 0 0 0 0 0 0 0 0 0 0 0 0 0 0 0 0 0 0 0 0 0 0 0 0 0 0 0 0 0 0 0 0 0 0 0 0 0 0 0 0 0 0 0 0 0 0 0 0 0 0 0 0 0 0 0 0 0 0 0 0 0 0 0 0 0 0 0 0 0 0 0 0 0 0 0 0 0 0 0 0 0 0 0 0 0 0 0 0 0 0 0 0 0 0 0 0 0 0 0 0 0 0 0 0 0 0 0 0 0 0 0 0 0 0 0 0 0 0 0 0 0 0 0 0 0 0 0 0 0 0 0 0 0 0 0 0 0 0 0 0 0 0 0 0 0 0 0 0 0 0 0 0 0 0 0 0 0 0 0 0 0 0 0 0 0 0 0 0 0 0 0 0 0 0 0 0 0 0 0 0 0 0 0 0 0 0 0 0 0 0 0 0 0 0 0 0 0 0 0 0 0 0 0 0 0 0 0 0 0 0 0 0 0 0 0 0 0 0 0 0 0 0 0 0 0 0 0 0 0 0 0 0 0 0 0 0 0 0 0 0 0 0 0 0 0 0 0 0 0 0 0 0 0 0 0 0 0 0 0 0 0 0 0 0 0 0 0 0 0 0 0 0 0 0 0 0 0 0 0 0 0 0 0 0 0 0 0 0 0 0 0 0 0 0 0 0 0 0 0 0 0 0 0 0 0 0 0 0 0 0 0 0 0 0 0 0 0 0 0 0 0 0 0 0 0 0 0 0 0 0 0 0 0 0 0 0 0 0 0 0 0 0 0 0 0 0 0 0 0 0 0 0 0 0 0 0 0 0 0 0 0 0 0 0 0 0 0 0 0 0 0 0 0 0 0 0 0 0 0 0 0 0 0 0 0 0 0 0 0 0 0 0 0 0 0 0 0 0 0 0 0 0 0 0 0 0 0 0 0 0 0 0 0 0 0 0 0 0 0 0 0 0 0 0 0 0 0 0 0 0 0 0 0 0 0 0 0 0 0 0 0 0 0 0 0 0 0 0 0 0 0 0 0 0 0 0 0 0 0 0 0 0 0 0 0 0 0 0 0 0 0 0 0 0 0 0 0 0 0 0 0 0 0 3 3 3 3 3 3 3 3 3 3 3 3 3 3 3 3 3 3 3 3 3 3 3 3 3 3 3 3 3 3 3 3 3 3 3 3 3 3 3 3 3 3 3 3 3 3 3 3 3 3 3 3 3 3 3 3 3 3 3 3 3 3 3 3 3 3 3 3 3 3 3 3 3 3 3 3 3 3 3 3 3 3 3 3 3 3 3 3 3 3 3 3 3 3 3 3 3 3 3 3 3 3 3 3 3 3 3 3 3 3 3 3 3 3 3 3 3 3 3 3 3 3 3 3 3 3 3 3 3 3 3 3 3 3 3 3 3 3 3 3 3 3 3 3 3 3 3 3 3 3 3 3 3 3 3 3 3 3 3 3 3 3 3 3 3 3 3 3 3 3 3 3 3 3 3 3 3 3 3 3 3 3 3 3 3 3 3 3 3 3 3 3 3 3 3 3 3 3 3 3 3 3 3 3 3 3 3 3 3 3 3 3 3 3 3 3 3 3 3 3 3 3 3 3 3 3 3 3 3 3 3 3 3 3 3 3 3 3 3 3 3 3 3 3 3 3 3 3 3 3 3 3 3 3 3 3 3 3 3 3 3 3 3 3 3 3 3 3 3 3 3 3 3 3 3 3 3 3 3 3 3 3 3 3 3 3 3 3 3 3 3 3 3 3 3 3 3 3 3 3 3 3 3 3 3 3 3 3 3 3 3 3 3 3 3 3 3 3 3 3 3 3 3 3 3 3 3 3 3 3 3 3 3 3 3 3 3 3 3 3 3 3 3 3 3 3 3 3 3 3 3 3 3 3 3 3 3 3 3 3 3 3 3 3 3 3 3 3 3 3 3 3 3 3 3 3 3 3 3 3 3 3 3 3 3 3 3 3 3 3 3 3 3 3 3 3 3 3 3 3 3 3 3 3 3 3 3 3 3 3 3 3 3 3 3 3 3 3 3 3 3 3 3 3 3 3 3 3 3 3 3 3 3 3 3 3 3 3 3 3 3 3 3 3 3 3 3 3 3 3 3 3 3 3 3 3 3 3 3 3 3 3 3 3 3 3 3 3 3 3 3 3 3 3 3 3 3 3 3 3 3 3 3 3 3 3 3 3 3 3 3 3 3 3 3 3 3 3 3 3 3 3 3 3 3 3 3 3 3 3 3 3 3 3 3 3 3 3 3 3 3 3 3 3 3 3 3 3 3 3 3 3 3 3 3 3 3 3 3 3 3 3 3 3 3 3 3 3 3 3 3 3 3 3 3 3 3 3 3 3 3 3 3 3 3 3 3 3 3 3 3 3 3 3 3 3 3 3 3 3 3 3 3 3 3 3 3 3 3 3 3 3 3 3 3 3 3 3 3 3 3 3 3 3 3 3 3 3 3 3 3 3 3 3 3 3 3 3 3 3 3 3 3 3 3 3 3 3 3 3 3 3 3 3 3 3 3 3 3 3 3 3 3 3 3 3 3 3 3 3 3 3 3 3 3 3 3 3 3 3 3 3 3 3 3 3 3 3 3 3 3 3 3 3 3 3 3 3 3 3 3 3 3 3 3 3 3 3 3 3 3 3 3 3 3 3 3 3 3 3 3 3 3 3 3 3 3 3 3 3 3 3 3 3 3 3 3 3 3 3 3 3 3 3 3 3 3 3 3 3 3 3 3 3 3 3 3 3 3 3 3 3 3 3 3 3 3 3 3 3 3 3 3 3 3 3 3 3 3 3 3 3 3 3 3 3 3 3 3 3 3 3 3 3 3 3 3 3 3 3 3 3 3 3 3 3 3 3 3 3 3 3 3 3 3 3 3 3 3 3 3 3 3 3 3 3 3 3 3 3 3 3 3 3 3 3 3 3 3 3 3 3 3 3 3 3 3 3 3 3 3 3 3 3 3 3 3 3 3 3 3 3 3 3 3 3 3 3 3 3 3 3 3 3 3 3 3 3 3 3 3 3 3 3 3 3 3 3 3 3 3 3 3 3 3 3 3 3 3 3 3 3 3 3 3 3 3 3 3 3 3 3 3 3 3 3 3 3 3 3 3 3 3 3 3 3 3 3 3 3 3 3 3 3 3 3 3 3 3 3 3 3 3 3 3 3 3 3 3 3 3 3 3 3 3 3 3 3 3 3 3 3 3 3 3 3 3 3 3 3 3 3 3 3 3 3 3 3 3 3 3 3 3 3 3 3 3 3 3 3 3 3 3 3 3 3 3 3 3 3 3 3 3 3 3 3 3 3 3 3 3 3 3 3 3 3 3 3 3 3 3 3 3 3 3 3 3 3 3 3 3 3 3 3 3 3 3 3 3 3 3 3 3 3 3 3 3 3 3 3 3 3 3 3 3 3 3 3 3 3 3 3 3 3 3 3 3 3 3 3 3 3 3 3 3 3 3 3 3 3 3 3 3 3 3 3 3 3 3 3 3 3 3 3 3 3 3 3 3 3 3 3 3 3 3 3 3 3 3 3 3 3 3 3 3 3 3 3 3 3 3 3 3 3 3 3 3 3 3 3 3 3 3 3 3 3 3 3 3 3 3 3 3 3 3 3 3 3 3 3 3 3 3 3 3 3 3 3 3 3 3 3 3 3 3 3 3 3 3 3 3 3 3 3 3 3 3 3 3 3 3 3 3 3 3 3 3 3 3 3 3 3 3 3 3 3 3 3 3 3 3 3 3 3 3 3 3 3 3 3 3 3 3 3 3 3 3 3 3 3 3 3 3 3 3 3 3 3 3 3 3 3 3 3 3 3 3 3 3 3 3 3 3 3 3 3 3 3 3 3 3 3 3 3 3 3 3 3 3 3 3 3 3 3 3 3 3 3 3 3 3 3 3 3 3 3 3 3 3 3 3 3 3 3 3 3 3 3 3 3 3 3 3 3 3 3 3 3 3 3 3 3 3 3 3 3 3 3 3 3 3 3 3 3 3 3 3 3 3 3 3 3 3 3 3 3 3 3 3 3 3 3 3 3 3 3 3 3 3 3 3 3 3 3 3 3 3 3 3 3 3 3 3 3 3 3 3 3 3 3 3 3 3 3 3 3 3 3 3 3 3 3 3 3 3 3 3 3 3 3 3 3 3 3 3 3 3 3 3 3 3 3 3 3 3 3 3 3 3 3 3 3 3 3 3 3 3 3 3 3 3 3 3 3 3 3 3 3 3 3 3 3 3 3 3 3 3 3 3 3 3 3 3 3 3 3 3 3 3 3 3 3 3 3 3 3 3 3 3 3 3 3 3 3 3 3 3 3 3 3 3 3 3 3 3 3 3 3 3 3 3 3 3 3 3 3 3 3 3 3 3 3 3 3 3 3 3 3 3 3 3 3 3 3 3 3 3 3 3 3 3 3 3 3 3 3 3 3 3 3 3 3 3 3 3 3 3 3 3 3 3 3 3 3 3 3 3 3 3 3 3 3 3 3 3 3 3 3 3 3 3 3 3 3 3 3 3 3 3 3 3 3 3 3 3 3 3 3 3 3 3 3 3 3 3 3 3 3 3 3 3 3 3 3 3 3 3 3 3 3 3 3 3 3 3 3 3 3 3 3 3 3 3 3 3 3 3 3 3 3 3 3 3 3 3 3 3 3 3 3 3 3 3 3 3 3 3 3 3 3 3 3 3 3 3 3 3 3 3 3 3 3 3 3 3 3 3 3 3 3 3 3 3 3 3 3 3 3 3 3 3 3 3 3 3 3 3 3 3 3 3 3 3 3 3 3 3 3 3 3 3 3 3 3 3 3 3 3 3 3 3 3 3 3 3 3 3 3 3 3 3 3 3 3 3 3 3 3 3 3 3 3 3 3 3 3 3 3 3 3 3 3 3 3 3 3 3 3 3 3 3 3 3 3 3 3 3 3 3 3 3 3 3 3 3 3 3 3 3 3 3 3 3 3 3 3 3 3 3 3 3 3 3 3 3 3 3 3 3 3 3 3 3 3 3 3 3 3 3 3 3 3 3 3 3 3 3 3 3 3 3 3 3 3 3 3 3 3 3 3 3 3 3 3 3 3 3 3 3 3 3 3 3 3 3 3 3 3 3 3 3 3 3 3 3 3 3 3 3 3 3 3 3 3 3 3 3 3 3 3 3 3 3 3 3 3 3 3 3 3 3 3 3 3 3 3 3 3 3 3 3 3 3 3 3 3 3 3 3 3 3 3 3 3 3 3 3 3 3 3 3 3 3 3 3 3 3 3 3 3 3 3 3 3 3 3 3 3 3 3 3 3 3 3 3 3 3 3 3 3 3 3 3 3 3 3 3 3 3 3 3 3 3 3 3 3 3 3 3 3 3 3 3 3 3 3 3 3 3 3 3 3 3 3 3 3 3 3 3 3 3 3 3 3 3 3 3 3 3 3 3 3 3 3 3 3 3 3 3 3 3 3 3 3 
CellOffSpring 1 2975 float
0 0 0 0 0 0 0 0 0 0 0 0 0 0 0 0 0 0 0 0 0 0 0 0 0 0 0 0 0 0 0 0 0 0 0 0 0 0 0 0 0 0 0 0 0 0 0 0 0 0 0 0 0 0 0 0 0 0 0 0 0 0 0 0 0 0 0 0 0 0 0 0 0 0 0 0 0 0 0 0 0 0 0 0 0 0 0 0 0 0 0 0 0 0 0 0 0 0 0 0 0 0 0 0 0 0 0 0 0 0 0 0 0 0 0 0 0 0 0 0 0 0 0 0 0 0 0 0 0 0 0 0 0 0 0 0 0 0 0 0 0 0 0 0 0 0 0 0 0 0 0 0 0 0 0 0 0 0 0 0 0 0 0 0 0 0 0 0 0 0 0 0 0 0 0 0 0 0 0 0 0 0 0 0 0 0 0 0 0 0 0 0 0 0 0 0 0 0 0 0 0 0 0 0 0 0 0 0 0 0 0 0 0 0 0 0 0 0 0 0 0 0 0 0 0 0 0 0 0 0 0 0 0 0 0 0 0 0 0 0 0 0 0 0 0 0 0 0 0 0 0 0 0 0 0 0 0 0 0 0 0 0 0 0 0 0 0 0 0 0 0 0 0 0 0 0 0 0 0 0 0 0 0 0 0 0 0 0 0 0 0 0 0 0 0 0 0 0 0 0 0 0 0 0 0 0 0 0 0 0 0 0 0 0 0 0 0 0 0 0 0 0 0 0 0 0 0 0 0 0 0 0 0 0 0 0 0 0 0 0 0 0 0 0 0 0 0 0 0 0 0 0 0 0 0 0 0 0 0 0 0 0 0 0 0 0 0 0 0 0 0 0 0 0 0 0 0 0 0 0 0 0 0 0 0 0 0 0 0 0 0 0 0 0 0 0 0 0 0 0 0 0 0 0 0 0 0 0 0 0 0 0 0 0 0 0 0 0 0 0 0 0 0 0 0 0 0 0 0 0 0 0 0 0 0 0 0 0 0 0 0 0 0 0 0 0 0 0 0 0 0 0 0 0 0 0 0 0 0 0 0 0 0 0 0 0 0 0 0 0 0 0 0 0 0 0 0 0 0 0 0 0 0 0 0 0 0 0 0 0 0 0 0 0 0 0 0 0 0 0 0 0 0 0 0 0 0 0 0 0 0 0 0 0 0 0 0 0 0 0 0 0 0 0 0 0 0 0 0 0 0 0 0 0 0 0 0 0 0 0 0 0 0 0 0 0 0 0 0 0 0 0 0 0 0 0 0 0 0 0 0 0 0 0 0 0 0 0 0 0 0 0 0 0 0 0 0 0 0 0 0 0 0 0 0 0 0 0 0 0 0 0 0 0 0 0 0 0 0 0 0 0 0 0 0 0 0 0 0 0 0 0 0 0 0 0 0 0 0 0 0 0 0 0 0 0 0 0 0 0 0 0 0 0 0 0 0 0 0 0 0 0 0 0 0 0 0 0 0 0 0 0 0 0 0 0 0 0 0 0 0 0 0 0 0 0 0 0 0 0 0 0 0 0 0 0 0 0 0 0 0 0 0 0 0 0 0 0 0 0 0 0 0 0 0 0 0 0 0 0 0 0 0 0 0 0 0 0 0 0 0 0 0 0 0 0 0 0 0 0 0 0 0 0 0 0 0 0 0 0 0 0 0 0 0 0 0 0 0 0 0 0 0 0 0 0 0 0 0 0 0 0 0 0 0 0 0 0 0 0 0 0 0 0 0 0 0 0 0 0 0 0 0 0 0 0 0 0 0 0 0 0 0 0 0 0 0 0 0 0 0 0 0 0 0 0 0 0 0 0 0 0 0 0 0 0 0 0 0 0 0 0 0 0 0 0 0 0 0 0 0 0 0 0 0 0 0 0 0 0 0 0 0 0 0 0 0 0 0 0 0 0 0 0 0 0 0 0 0 0 0 0 0 0 0 0 0 0 0 0 0 0 0 0 0 0 0 0 0 0 0 0 0 0 0 0 0 0 0 0 0 0 0 0 0 0 0 0 0 0 0 0 0 0 0 0 0 0 0 0 0 0 0 0 0 0 0 0 0 0 0 0 0 0 0 0 0 0 0 0 0 0 0 0 0 0 0 0 0 0 0 0 0 0 0 0 0 0 0 0 0 0 0 0 0 0 0 0 0 0 0 0 0 0 0 0 0 0 0 0 0 0 0 0 0 0 0 0 0 0 0 0 0 0 0 0 0 0 0 0 0 0 0 0 0 0 0 0 0 0 0 0 0 0 0 0 0 0 0 0 0 0 0 0 0 0 0 0 0 0 0 0 0 0 0 0 0 0 0 0 0 0 0 0 0 0 0 0 0 0 0 0 0 0 0 0 0 0 0 0 0 0 0 0 0 0 0 0 0 0 0 0 0 0 0 0 0 0 0 0 0 0 0 0 0 0 0 0 0 0 0 0 0 0 0 0 0 0 0 0 0 0 0 0 0 0 0 0 0 0 0 0 0 0 0 0 0 0 0 0 0 0 0 0 0 0 0 0 0 0 0 0 0 0 0 0 0 0 0 0 0 0 0 0 0 0 0 0 0 0 0 0 0 0 0 0 0 0 0 0 0 0 0 0 0 0 0 0 0 0 0 0 0 0 0 0 0 0 0 0 0 0 0 0 0 0 0 0 0 0 0 0 0 0 0 0 0 0 0 0 0 0 0 0 0 0 0 0 0 0 0 0 0 0 0 0 0 0 0 0 0 0 0 0 0 0 0 0 0 0 0 0 0 0 0 0 0 0 0 0 0 0 0 0 0 0 0 0 0 0 0 0 0 0 0 0 0 0 0 0 0 0 0 0 0 0 0 0 0 0 0 0 0 0 0 0 0 0 0 0 0 0 0 0 0 0 0 0 0 0 0 0 0 0 0 0 0 0 0 0 0 0 0 0 0 0 0 0 0 0 0 0 0 0 0 0 0 0 0 0 0 0 0 0 0 0 0 0 0 0 0 0 0 0 0 0 0 0 0 0 0 0 0 0 0 0 0 0 0 0 0 0 0 0 0 0 0 0 0 0 0 0 0 0 0 0 0 0 0 0 0 0 0 0 0 0 0 0 0 0 0 0 0 0 0 0 0 0 0 0 0 0 0 0 0 0 0 0 0 0 0 0 0 0 0 0 0 0 0 0 0 0 0 0 0 0 0 0 0 0 0 0 0 0 0 0 0 0 0 0 0 0 0 0 0 0 0 0 0 0 0 0 0 0 0 0 0 0 0 0 0 0 0 0 0 0 0 0 0 0 0 0 0 0 0 0 0 0 0 0 0 0 0 0 0 0 0 0 0 0 0 0 0 0 0 0 0 0 0 0 0 0 0 0 0 0 0 0 0 0 0 0 0 0 0 0 0 0 0 0 0 0 0 0 0 0 0 0 0 0 0 0 0 0 0 0 0 0 0 0 0 0 0 0 0 0 0 0 0 0 0 0 0 0 0 0 0 0 0 0 0 0 0 0 0 0 0 0 0 0 0 0 0 0 0 0 0 0 0 0 0 0 0 0 0 0 0 0 0 0 0 0 0 0 0 0 0 0 0 0 0 0 0 0 0 0 0 0 0 0 0 0 0 0 0 0 0 0 0 0 0 0 0 0 0 0 0 0 0 0 0 0 0 0 0 0 0 0 0 0 0 0 0 0 0 0 0 0 0 0 0 0 0 0 0 0 0 0 0 0 0 0 0 0 0 0 0 0 0 0 0 0 0 0 0 0 0 0 0 0 0 0 0 0 0 0 0 0 0 0 0 0 0 0 0 0 0 0 0 0 0 0 0 0 0 0 0 0 0 0 0 0 0 0 0 0 0 0 0 0 0 0 0 0 0 0 0 0 0 0 0 0 0 0 0 0 0 0 0 0 0 0 0 0 0 0 0 0 0 0 0 0 0 0 0 0 0 0 0 0 0 0 0 0 0 0 0 0 0 0 0 0 0 0 0 0 0 0 0 0 0 0 0 0 0 0 0 0 0 0 0 0 0 0 0 0 0 0 0 0 0 0 0 0 0 0 0 0 0 0 0 0 0 0 0 0 0 0 0 0 0 0 0 0 0 0 0 0 0 0 0 0 0 0 0 0 0 0 0 0 0 0 0 0 0 0 0 0 0 0 0 0 0 0 0 0 0 0 0 0 0 0 0 0 0 0 0 0 0 0 0 0 0 0 0 0 0 0 0 0 0 0 0 0 0 0 0 0 0 0 0 0 0 0 0 0 0 0 0 0 0 0 0 0 0 0 0 0 0 0 0 0 0 0 0 0 0 0 0 0 0 0 0 0 0 0 0 0 0 0 0 0 0 0 0 0 0 0 0 0 0 0 0 0 0 0 0 0 0 0 0 0 0 0 0 0 0 0 0 0 0 0 0 0 0 0 0 0 0 0 0 0 0 0 0 0 0 0 0 0 0 0 0 0 0 0 0 0 0 0 0 0 0 0 0 0 0 0 0 0 0 0 0 0 0 0 0 0 0 0 0 0 0 0 0 0 0 0 0 0 0 0 0 0 0 0 0 0 0 0 0 0 0 0 0 0 0 0 0 0 0 0 0 0 0 0 0 0 0 0 0 0 0 0 0 0 0 0 0 0 0 0 0 0 0 0 0 0 0 0 0 0 0 0 0 0 0 0 0 0 0 0 0 0 0 0 0 0 0 0 0 0 0 0 0 0 0 0 0 0 0 0 0 0 0 0 0 0 0 0 0 0 0 0 0 0 0 0 0 0 0 0 0 0 0 0 0 0 0 0 0 0 0 0 0 0 0 0 0 0 0 0 0 0 0 0 0 0 0 0 0 0 0 0 0 0 0 0 0 0 0 0 0 0 0 0 0 0 0 0 0 0 0 0 0 0 0 0 0 0 0 0 0 0 0 0 0 0 0 0 0 0 0 0 0 0 0 0 0 0 0 0 0 0 0 0 0 0 0 0 0 0 0 0 0 0 0 0 0 0 0 0 0 0 0 0 0 0 0 0 0 0 0 0 0 0 0 0 0 0 0 0 0 0 0 0 0 0 0 0 0 0 0 0 0 0 0 0 0 0 0 0 0 0 0 0 0 0 0 0 0 0 0 0 0 0 0 0 0 0 0 0 0 0 0 0 0 0 0 0 0 0 0 0 0 0 0 0 0 0 0 0 0 0 0 0 0 0 0 0 0 0 0 0 0 0 0 0 0 0 0 0 0 0 0 0 0 0 0 0 0 0 0 0 0 0 0 0 0 0 0 0 0 0 0 0 0 0 0 0 0 0 0 0 0 0 0 0 0 0 0 0 0 0 0 0 0 0 0 0 0 0 0 0 0 0 0 0 0 0 0 0 0 0 0 0 0 0 0 0 0 0 0 0 0 0 0 0 0 0 0 0 0 0 0 0 0 0 0 0 0 0 0 0 0 0 0 0 0 0 0 0 0 0 0 0 0 0 0 0 0 0 0 0 0 0 0 0 0 0 0 0 0 0 0 0 0 0 0 0 0 0 0 0 0 0 0 0 0 0 0 0 0 0 0 0 0 0 0 0 0 0 0 0 0 0 0 0 0 0 0 0 0 0 0 0 0 0 0 0 0 0 0 0 0 0 0 0 0 0 0 0 0 0 0 0 0 0 0 0 0 0 0 0 0 0 0 0 0 0 0 0 0 0 0 0 0 0 0 0 0 0 0 0 0 0 0 0 0 0 0 0 0 0 0 0 0 0 0 0 0 0 0 0 0 0 0 0 0 0 0 0 0 0 0 0 0 0 0 0 0 0 0 0 0 0 0 0 0 0 0 0 0 0 0 0 0 0 0 0 0 0 0 0 0 0 0 0 0 0 0 0 0 0 0 0 0 0 0 0 0 0 0 0 0 0 0 0 0 0 0 0 0 0 0 0 0 0 0 0 0 0 0 0 0 0 0 0 0 0 0 0 0 0 0 0 0 0 0 0 0 0 0 0 0 0 0 0 0 0 0 0 0 0 0 0 0 0 0 0 0 0 0 0 0 0 0 0 0 0 0 0 0 0 0 0 0 0 0 0 0 0 0 0 0 0 0 0 0 0 0 0 0 0 0 0 0 0 0 0 0 0 0 0 0 0 0 0 0 0 0 0 0 0 0 0 0 0 0 0 0 0 0 0 0 0 0 0 0 0 0 0 0 0 0 0 0 0 0 0 0 0 0 0 0 0 0 0 0 0 0 0 0 0 0 0 0 0 0 0 0 0 0 0 0 0 0 0 0 0 0 0 0 0 0 0 0 0 0 0 0 0 0 0 0 0 0 0 0 0 0 0 0 0 0 0 0 0 0 0 0 0 0 0 0 0 0 0 0 0 0 0 0 0 0 0 0 0 0 0 0 0 0 0 0 0 0 0 0 0 0 0 0 0 0 0 0 0 0 0 0 0 0 0 0 0 0 0 0 0 0 0 0 0 0 0 0 0 0 0 0 0 0 0 0 0 0 0 0 0 0 0 0 0 0 0 0 0 0 0 0 0 0 0 0 0 0 0 0 0 0 0 0 0 0 0 0 0 0 0 0 0 0 0 0 0 0 0 0 0 0 0 0 0 0 0 0 0 0 0 0 0 0 0 0 0 0 0 0 0 0 0 0 0 0 0 0 0 0 0 0 0 0 0 0 0 0 0 0 0 0 0 0 0 0 0 0 0 0 0 0 0 0 0 0 0 0 0 0 0 0 0 0 0 0 0 0 0 0 0 0 0 0 0 0 0 0 0 0 0 0 0 0 0 0 
GradVel 1 2975 float
  0.0000000E+00   0.0000000E+00   0.0000000E+00   0.0000000E+00   0.0000000E+00   0.0000000E+00   0.0000000E+00   0.0000000E+00   0.0000000E+00   0.0000000E+00   0.0000000E+00   0.0000000E+00   0.0000000E+00  -1.3300646E-06  -7.4052544E-17  -6.9801126E-06  -4.7039244E-05  -1.2718640E-05  -9.2574497E-05  -2.9134861E-04  -1.0668341E-04  -4.0490343E-04  -9.7235298E-04  -3.7817273E-04  -1.1037886E-03  -2.3178363E-03  -8.8786078E-04  -2.2676969E-03  -4.4127484E-03  -1.6152970E-03  -3.8326145E-03  -7.1239220E-03  -2.4600425E-03  -5.6018066E-03  -1.0120122E-02  -3.2914686E-03  -7.3337713E-03  -1.3014617E-02  -4.0186830E-03  -8.8670105E-03  -1.5573338E-02  -4.6398435E-03  -1.0206927E-02  -1.7844044E-02  -5.2509541E-03  -1.1555178E-02  -2.0206282E-02  -6.0352432E-03  -1.3293453E-02  -2.3331437E-02  -7.2648455E-03  -1.5979901E-02  -2.8150203E-02  -9.3827369E-03  -2.0424850E-02  -3.5879742E-02  -1.3100090E-02  -2.7601141E-02  -4.7700621E-02  -1.9363917E-02  -3.8110167E-02  -6.3737035E-02  -5.2141041E-02  -8.3109058E-02   0.0000000E+00   0.0000000E+00   0.0000000E+00   0.0000000E+00   0.0000000E+00   0.0000000E+00   0.0000000E+00   0.0000000E+00   0.0000000E+00   0.0000000E+00   0.0000000E+00   0.0000000E+00   0.0000000E+00   0.0000000E+00   0.0000000E+00   0.0000000E+00   0.0000000E+00   0.0000000E+00   0.0000000E+00   0.0000000E+00   0.0000000E+00   0.0000000E+00   0.0000000E+00   0.0000000E+00   0.0000000E+00  -2.3785526E-07  -1.5113152E-06  -3.5720193E-06  -5.3369881E-06  -6.3220341E-06  -7.0003025E-06  -7.5139055E-06  -1.1431498E-05  -3.7084006E-05  -7.8912868E-05  -1.3042586E-04  -1.8112255E-04  -2.2241588E-04  -2.5153172E-04  -2.7126761E-04  -1.4064077E-04  -2.9746362E-04  -5.1201001E-04  -7.5913983E-04  -1.0018001E-03  -1.2093685E-03  -1.3697017E-03  -1.4858722E-03  -6.3673162E-04  -1.1432878E-03  -1.7938400E-03  -2.5215654E-03  -3.2303196E-03  -3.8439562E-03  -4.3324283E-03  -4.7002193E-03  -1.8435961E-03  -3.0485697E-03  -4.5497920E-03  -6.1992039E-03  -7.7917064E-03  -9.1713844E-03  -1.0281556E-02  -1.1132888E-02  -4.0642554E-03  -6.4042164E-03  -9.2679309E-03  -1.2373360E-02  -1.5338814E-02  -1.7892489E-02  -1.9951172E-02  -2.1543477E-02  -7.3774923E-03  -1.1272058E-02  -1.5978467E-02  -2.1012899E-02  -2.5746362E-02  -2.9779492E-02  -3.3022705E-02  -3.5540033E-02  -1.1548986E-02  -1.7269099E-02  -2.4081446E-02  -3.1234186E-02  -3.7818398E-02  -4.3364413E-02  -4.7806848E-02  -5.1255260E-02  -1.6061354E-02  -2.3611549E-02  -3.2378964E-02  -2.0336116E-02  -2.9461721E-02  -2.4081293E-02  -3.4515373E-02  -2.7455550E-02  -3.9161541E-02  -3.1078296E-02  -4.4252556E-02  -3.5963222E-02  -5.1096223E-02  -4.3428350E-02  -6.1289910E-02  -5.5070136E-02  -7.6604798E-02  -7.2303593E-02  -9.8493367E-02  -9.5058285E-02  -1.2688938E-01  -1.2154973E-01  -1.5982714E-01   0.0000000E+00   0.0000000E+00   0.0000000E+00   0.0000000E+00   0.0000000E+00   0.0000000E+00   0.0000000E+00   0.0000000E+00   0.0000000E+00   0.0000000E+00   0.0000000E+00   0.0000000E+00   0.0000000E+00   0.0000000E+00   0.0000000E+00   0.0000000E+00   0.0000000E+00   0.0000000E+00   0.0000000E+00   0.0000000E+00   0.0000000E+00   0.0000000E+00   0.0000000E+00   0.0000000E+00   0.0000000E+00   0.0000000E+00   0.0000000E+00  -7.8798694E-06  -8.1233693E-06  -8.2715860E-06  -8.3502791E-06  -8.3822506E-06  -8.3858567E-06  -8.3752193E-06  -8.3607420E-06  -8.3493615E-06  -2.8544990E-04  -2.9527140E-04  -3.0159327E-04  -3.0528463E-04  -3.0713415E-04  -3.0780636E-04  -3.0782635E-04  -3.0758025E-04  -3.0733118E-04  -1.5675339E-03  -1.6245279E-03  -1.6623577E-03  -1.6854943E-03  -1.6981150E-03  -1.7038051E-03  -1.7054344E-03  -1.7051478E-03  -1.7044098E-03  -4.9665673E-03  -5.1534572E-03  -5.2795759E-03  -5.3589973E-03  -5.4044607E-03  -5.4270644E-03  -5.4357974E-03  -5.4374281E-03  -5.4366095E-03  -1.1762379E-02  -1.2211185E-02  -1.2517350E-02  -1.2713642E-02  -1.2829250E-02  -1.2889788E-02  -1.2916154E-02  -1.2924160E-02  -1.2924741E-02  -2.2735763E-02  -2.3596890E-02  -2.4190281E-02  -2.4574915E-02  -2.4805227E-02  -2.4929333E-02  -2.4986634E-02  -2.5007056E-02  -2.5011286E-02  -3.7438508E-02  -3.8821761E-02  -3.9781749E-02  -4.0408120E-02  -4.0786333E-02  -4.0993202E-02  -4.1091464E-02  -4.1128945E-02  -4.1138623E-02  -5.3863261E-02  -5.5772204E-02  -5.7101864E-02  -5.7970971E-02  -5.8496911E-02  -5.8785938E-02  -5.8924574E-02  -5.8978636E-02  -5.8993518E-02   0.0000000E+00   0.0000000E+00   0.0000000E+00   0.0000000E+00   0.0000000E+00   0.0000000E+00   0.0000000E+00   0.0000000E+00   0.0000000E+00   0.0000000E+00   0.0000000E+00   0.0000000E+00   0.0000000E+00   0.0000000E+00   0.0000000E+00   0.0000000E+00   0.0000000E+00   0.0000000E+00   0.0000000E+00   0.0000000E+00   0.0000000E+00   0.0000000E+00   0.0000000E+00   0.0000000E+00  -8.3451323E-06  -8.3493605E-06  -8.3607401E-06  -8.3752184E-06  -8.3858586E-06  -8.3822488E-06  -8.3502819E-06  -8.2715878E-06  -3.0723197E-04  -3.0733127E-04  -3.0758025E-04  -3.0782633E-04  -3.0780633E-04  -3.0713415E-04  -3.0528472E-04  -3.0159322E-04  -1.7040708E-03  -1.7044098E-03  -1.7051477E-03  -1.7054344E-03  -1.7038046E-03  -1.6981151E-03  -1.6854943E-03  -1.6623570E-03  -5.4360419E-03  -5.4366086E-03  -5.4374267E-03  -5.4357974E-03  -5.4270639E-03  -5.4044602E-03  -5.3589968E-03  -5.2795759E-03  -1.2924237E-02  -1.2924739E-02  -1.2924157E-02  -1.2916150E-02  -1.2889790E-02  -1.2829253E-02  -1.2713647E-02  -1.2517351E-02  -2.5011385E-02  -2.5011290E-02  -2.5007049E-02  -2.4986636E-02  -2.4929333E-02  -2.4805224E-02  -2.4574911E-02  -2.4190284E-02  -4.1139759E-02  -4.1138630E-02  -4.1128952E-02  -4.1091457E-02  -4.0993188E-02  -4.0786333E-02  -4.0408131E-02  -3.9781764E-02  -5.8995582E-02  -5.8993522E-02  -5.8978621E-02  -5.8924593E-02  -5.8785919E-02  -5.8496922E-02  -5.7970963E-02  -5.7101846E-02   0.0000000E+00   0.0000000E+00   0.0000000E+00   0.0000000E+00   0.0000000E+00   0.0000000E+00   0.0000000E+00   0.0000000E+00   0.0000000E+00   0.0000000E+00   0.0000000E+00   0.0000000E+00   0.0000000E+00   0.0000000E+00   0.0000000E+00   0.0000000E+00   0.0000000E+00   0.0000000E+00   0.0000000E+00   0.0000000E+00   0.0000000E+00   0.0000000E+00   0.0000000E+00   0.0000000E+00   0.0000000E+00   0.0000000E+00   0.0000000E+00  -8.1233675E-06  -7.8798694E-06  -7.5139055E-06  -7.0003025E-06  -6.3220355E-06  -5.3369890E-06  -3.5720209E-06  -1.5113158E-06  -2.3785530E-07  -2.9527140E-04  -2.8544996E-04  -2.7126761E-04  -2.5153166E-04  -2.2241588E-04  -1.8112257E-04  -1.3042591E-04  -7.8912883E-05  -3.7084017E-05  -1.6245279E-03  -1.5675341E-03  -1.4858727E-03  -1.3697013E-03  -1.2093685E-03  -1.0018003E-03  -7.5913995E-04  -5.1201030E-04  -2.9746367E-04  -5.1534567E-03  -4.9665659E-03  -4.7002197E-03  -4.3324279E-03  -3.8439559E-03  -3.2303201E-03  -2.5215663E-03  -1.7938404E-03  -1.1432881E-03  -1.2211185E-02  -1.1762382E-02  -1.1132891E-02  -1.0281553E-02  -9.1713835E-03  -7.7917068E-03  -6.1992072E-03  -4.5497916E-03  -3.0485711E-03  -2.3596888E-02  -2.2735761E-02  -2.1543475E-02  -1.9951176E-02  -1.7892489E-02  -1.5338813E-02  -1.2373364E-02  -9.2679299E-03  -6.4042164E-03  -3.8821746E-02  -3.7438519E-02  -3.5540022E-02  -3.3022698E-02  -2.9779481E-02  -2.5746362E-02  -2.1012904E-02  -1.5978470E-02  -1.1272060E-02  -5.5772182E-02  -5.3863250E-02  -5.1255256E-02  -4.7806844E-02  -4.3364417E-02  -3.7818395E-02  -3.1234186E-02  -2.4081443E-02  -1.7269097E-02  -3.2378949E-02  -2.3611553E-02  -2.9461715E-02  -3.4515373E-02  -3.9161537E-02  -4.4252560E-02  -5.1096208E-02  -6.1289892E-02  -7.6604798E-02  -9.8493375E-02  -1.2688938E-01  -1.5982716E-01   0.0000000E+00   0.0000000E+00   0.0000000E+00   0.0000000E+00   0.0000000E+00   0.0000000E+00   0.0000000E+00   0.0000000E+00   0.0000000E+00   0.0000000E+00   0.0000000E+00   0.0000000E+00   0.0000000E+00   0.0000000E+00   0.0000000E+00  -1.1431497E-05  -1.3300645E-06   0.0000000E+00   0.0000000E+00  -1.4064077E-04  -4.7039226E-05  -6.9801117E-06  -7.4052524E-17  -6.3673174E-04  -2.9134861E-04  -9.2574483E-05  -1.2718640E-05  -1.8435963E-03  -9.7235304E-04  -4.0490349E-04  -1.0668344E-04  -4.0642554E-03  -2.3178363E-03  -1.1037885E-03  -3.7817279E-04  -7.3774927E-03  -4.4127489E-03  -2.2676960E-03  -8.8786078E-04  -1.1548989E-02  -7.1239220E-03  -3.8326150E-03  -1.6152972E-03  -1.6061354E-02  -1.0120123E-02  -5.6018066E-03  -2.4600425E-03  -2.0336114E-02  -1.3014616E-02  -7.3337727E-03  -3.2914691E-03  -2.4081297E-02  -1.5573338E-02  -8.8670105E-03  -4.0186844E-03  -2.7455552E-02  -1.7844044E-02  -1.0206926E-02  -4.6398444E-03  -3.1078301E-02  -2.0206276E-02  -1.1555180E-02  -5.2509550E-03  -3.5963222E-02  -2.3331441E-02  -1.3293448E-02  -6.0352422E-03  -4.3428365E-02  -2.8150197E-02  -1.5979899E-02  -7.2648441E-03  -5.5070132E-02  -3.5879742E-02  -2.0424847E-02  -9.3827378E-03  -7.2303616E-02  -4.7700614E-02  -2.7601136E-02  -1.3100090E-02  -9.5058292E-02  -6.3737035E-02  -3.8110171E-02  -1.9363917E-02  -1.2154973E-01  -8.3109066E-02  -5.2141037E-02   0.0000000E+00   0.0000000E+00   0.0000000E+00   0.0000000E+00   0.0000000E+00   0.0000000E+00   0.0000000E+00   0.0000000E+00   0.0000000E+00   0.0000000E+00   0.0000000E+00   0.0000000E+00   0.0000000E+00   0.0000000E+00   0.0000000E+00   0.0000000E+00   0.0000000E+00   0.0000000E+00   0.0000000E+00   0.0000000E+00   0.0000000E+00   0.0000000E+00   0.0000000E+00   0.0000000E+00   0.0000000E+00   0.0000000E+00   0.0000000E+00   0.0000000E+00   0.0000000E+00   0.0000000E+00   0.0000000E+00   0.0000000E+00   0.0000000E+00   0.0000000E+00   0.0000000E+00   0.0000000E+00   0.0000000E+00   0.0000000E+00   0.0000000E+00   0.0000000E+00   0.0000000E+00   0.0000000E+00   0.0000000E+00   0.0000000E+00   0.0000000E+00   0.0000000E+00   0.0000000E+00   0.0000000E+00   0.0000000E+00   0.0000000E+00   0.0000000E+00   0.0000000E+00   0.0000000E+00   0.0000000E+00   0.0000000E+00   0.0000000E+00   0.0000000E+00   0.0000000E+00   0.0000000E+00   0.0000000E+00   0.0000000E+00   0.0000000E+00   0.0000000E+00   0.0000000E+00   0.0000000E+00   0.0000000E+00   0.0000000E+00   0.0000000E+00   0.0000000E+00   0.0000000E+00   0.0000000E+00   0.0000000E+00   0.0000000E+00   0.0000000E+00   0.0000000E+00   0.0000000E+00   0.0000000E+00   0.0000000E+00   0.0000000E+00   0.0000000E+00   0.0000000E+00   0.0000000E+00   0.0000000E+00   0.0000000E+00   0.0000000E+00   0.0000000E+00   0.0000000E+00   0.0000000E+00   0.0000000E+00   0.0000000E+00   0.0000000E+00   0.0000000E+00   0.0000000E+00   0.0000000E+00   0.0000000E+00   0.0000000E+00   0.0000000E+00   0.0000000E+00   0.0000000E+00   0.0000000E+00   0.0000000E+00   0.0000000E+00   0.0000000E+00   0.0000000E+00   0.0000000E+00   0.0000000E+00   0.0000000E+00   0.0000000E+00   0.0000000E+00   0.0000000E+00   0.0000000E+00   0.0000000E+00   0.0000000E+00   0.0000000E+00   0.0000000E+00   0.0000000E+00   0.0000000E+00   0.0000000E+00   0.0000000E+00   0.0000000E+00   0.0000000E+00   0.0000000E+00   0.0000000E+00   0.0000000E+00   0.0000000E+00   0.0000000E+00   0.0000000E+00   0.0000000E+00   0.0000000E+00   0.0000000E+00   0.0000000E+00   0.0000000E+00   0.0000000E+00   0.0000000E+00   0.0000000E+00   0.0000000E+00   0.0000000E+00   0.0000000E+00   0.0000000E+00   0.0000000E+00   0.0000000E+00   0.0000000E+00   0.0000000E+00   0.0000000E+00   0.0000000E+00   0.0000000E+00   0.0000000E+00   0.0000000E+00   0.0000000E+00   0.0000000E+00   0.0000000E+00   0.0000000E+00   0.0000000E+00   0.0000000E+00   0.0000000E+00   0.0000000E+00   0.0000000E+00   0.0000000E+00   0.0000000E+00   0.0000000E+00   0.0000000E+00   0.0000000E+00   0.0000000E+00   0.0000000E+00   0.0000000E+00   0.0000000E+00   0.0000000E+00   0.0000000E+00   0.0000000E+00   0.0000000E+00   0.0000000E+00   0.0000000E+00   0.0000000E+00   0.0000000E+00   0.0000000E+00   0.0000000E+00   0.0000000E+00   0.0000000E+00   0.0000000E+00   0.0000000E+00   0.0000000E+00   0.0000000E+00   0.0000000E+00   0.0000000E+00   0.0000000E+00   0.0000000E+00   0.0000000E+00   0.0000000E+00   0.0000000E+00   0.0000000E+00   0.0000000E+00   0.0000000E+00   0.0000000E+00   0.0000000E+00   0.0000000E+00   0.0000000E+00   0.0000000E+00   0.0000000E+00   0.0000000E+00   0.0000000E+00   0.0000000E+00   0.0000000E+00   0.0000000E+00   0.0000000E+00   0.0000000E+00   0.0000000E+00   0.0000000E+00   0.0000000E+00   0.0000000E+00   0.0000000E+00   0.0000000E+00   0.0000000E+00   0.0000000E+00   0.0000000E+00   0.0000000E+00   0.0000000E+00   0.0000000E+00   0.0000000E+00   0.0000000E+00   0.0000000E+00   0.0000000E+00   0.0000000E+00   0.0000000E+00   0.0000000E+00   0.0000000E+00   0.0000000E+00   0.0000000E+00   0.0000000E+00   0.0000000E+00   0.0000000E+00   0.0000000E+00   0.0000000E+00   0.0000000E+00   0.0000000E+00   0.0000000E+00   0.0000000E+00   0.0000000E+00   0.0000000E+00   0.0000000E+00   0.0000000E+00   0.0000000E+00   0.0000000E+00   0.0000000E+00   0.0000000E+00   0.0000000E+00   0.0000000E+00   0.0000000E+00   0.0000000E+00   0.0000000E+00   0.0000000E+00   0.0000000E+00   0.0000000E+00   0.0000000E+00   0.0000000E+00   0.0000000E+00   0.0000000E+00   0.0000000E+00   0.0000000E+00   0.0000000E+00   0.0000000E+00   0.0000000E+00   0.0000000E+00   0.0000000E+00   0.0000000E+00   0.0000000E+00   0.0000000E+00   0.0000000E+00   0.0000000E+00   0.0000000E+00   0.0000000E+00   0.0000000E+00   0.0000000E+00   0.0000000E+00   0.0000000E+00   0.0000000E+00   0.0000000E+00   0.0000000E+00   0.0000000E+00   0.0000000E+00   0.0000000E+00   0.0000000E+00   0.0000000E+00   0.0000000E+00   0.0000000E+00   0.0000000E+00   0.0000000E+00   0.0000000E+00   0.0000000E+00   0.0000000E+00   0.0000000E+00   0.0000000E+00   0.0000000E+00   0.0000000E+00   0.0000000E+00   0.0000000E+00   0.0000000E+00   0.0000000E+00   0.0000000E+00   0.0000000E+00   0.0000000E+00   0.0000000E+00   0.0000000E+00   0.0000000E+00   0.0000000E+00   0.0000000E+00   0.0000000E+00   0.0000000E+00   0.0000000E+00   0.0000000E+00   0.0000000E+00   0.0000000E+00   0.0000000E+00   0.0000000E+00   0.0000000E+00   0.0000000E+00   0.0000000E+00   0.0000000E+00   0.0000000E+00   0.0000000E+00   0.0000000E+00   0.0000000E+00   0.0000000E+00   0.0000000E+00   0.0000000E+00   0.0000000E+00   0.0000000E+00   0.0000000E+00   0.0000000E+00   0.0000000E+00   0.0000000E+00   0.0000000E+00   0.0000000E+00   0.0000000E+00   0.0000000E+00   0.0000000E+00   0.0000000E+00   0.0000000E+00   0.0000000E+00   0.0000000E+00   0.0000000E+00   0.0000000E+00   0.0000000E+00   0.0000000E+00   0.0000000E+00   0.0000000E+00   0.0000000E+00   0.0000000E+00   0.0000000E+00   0.0000000E+00   0.0000000E+00   0.0000000E+00   0.0000000E+00   0.0000000E+00   0.0000000E+00   0.0000000E+00   0.0000000E+00   0.0000000E+00   0.0000000E+00   0.0000000E+00   0.0000000E+00   0.0000000E+00   0.0000000E+00   0.0000000E+00   0.0000000E+00   0.0000000E+00   0.0000000E+00   0.0000000E+00   0.0000000E+00   0.0000000E+00   0.0000000E+00   0.0000000E+00   0.0000000E+00   0.0000000E+00   0.0000000E+00   0.0000000E+00   0.0000000E+00   0.0000000E+00   0.0000000E+00   0.0000000E+00   0.0000000E+00   0.0000000E+00   0.0000000E+00   0.0000000E+00   0.0000000E+00   0.0000000E+00   0.0000000E+00   0.0000000E+00   0.0000000E+00   0.0000000E+00   0.0000000E+00   0.0000000E+00   0.0000000E+00   0.0000000E+00   0.0000000E+00   0.0000000E+00   0.0000000E+00   0.0000000E+00   0.0000000E+00   0.0000000E+00   0.0000000E+00   0.0000000E+00   0.0000000E+00   0.0000000E+00   0.0000000E+00   0.0000000E+00   0.0000000E+00   0.0000000E+00   0.0000000E+00   0.0000000E+00   0.0000000E+00   0.0000000E+00   0.0000000E+00   0.0000000E+00   0.0000000E+00   0.0000000E+00   0.0000000E+00   0.0000000E+00   0.0000000E+00   0.0000000E+00   0.0000000E+00   0.0000000E+00   0.0000000E+00   0.0000000E+00   0.0000000E+00   0.0000000E+00   0.0000000E+00   0.0000000E+00   0.0000000E+00   0.0000000E+00   0.0000000E+00   0.0000000E+00   0.0000000E+00   0.0000000E+00   0.0000000E+00   0.0000000E+00   0.0000000E+00   0.0000000E+00   0.0000000E+00   0.0000000E+00   0.0000000E+00   0.0000000E+00   0.0000000E+00   0.0000000E+00   0.0000000E+00   0.0000000E+00   0.0000000E+00   0.0000000E+00   0.0000000E+00   0.0000000E+00   0.0000000E+00   0.0000000E+00   0.0000000E+00   0.0000000E+00   0.0000000E+00   0.0000000E+00   0.0000000E+00   0.0000000E+00   0.0000000E+00   0.0000000E+00   0.0000000E+00   0.0000000E+00   0.0000000E+00   0.0000000E+00   0.0000000E+00   0.0000000E+00   0.0000000E+00   0.0000000E+00   0.0000000E+00   0.0000000E+00   0.0000000E+00   0.0000000E+00   0.0000000E+00  -4.1214831E-02  -4.9318932E-02  -5.6053039E-02  -6.1414380E-02  -6.5556556E-02  -3.9294131E-02  -4.9835242E-02  -5.9011675E-02  -6.6541865E-02  -7.2454281E-02  -7.6960541E-02  -4.5589741E-02  -5.7327084E-02  -6.7441091E-02  -7.5582817E-02  -8.1827946E-02  -8.6470269E-02  -5.1561952E-02  -6.4553976E-02  -7.5634122E-02  -8.4373660E-02  -9.0884797E-02  -9.5556743E-02  -5.8290143E-02  -7.2637491E-02  -8.4724583E-02  -9.4096370E-02  -1.0089073E-01  -1.0556065E-01  -6.7788251E-02  -8.3379157E-02  -9.6153639E-02  -1.0587211E-01  -1.1280217E-01  -1.1741810E-01  -8.3053768E-02  -9.9378958E-02  -1.1174776E-01  -1.2085135E-01  -1.2729430E-01  -1.3156134E-01  -1.0786860E-01  -1.2357808E-01  -1.3333131E-01  -1.3996305E-01  -1.4471866E-01  -1.4800857E-01  -1.4587641E-01  -1.5803884E-01  -1.6177022E-01  -1.6342108E-01  -1.6496204E-01  -1.6648751E-01  -1.9841610E-01  -2.0173430E-01  -1.9573115E-01  -1.9018964E-01  -1.8735620E-01  -1.8657325E-01  -2.5990871E-01  -2.4882236E-01  -2.3114932E-01  -2.1782044E-01  -2.1060336E-01  -2.0761229E-01  -3.0686662E-01  -2.8866935E-01  -2.6237470E-01  -2.4336953E-01  -2.3324491E-01  -2.2889361E-01  -3.0781963E-01  -3.0445668E-01  -2.8352255E-01  -2.6477408E-01  -2.5444144E-01  -2.5006539E-01  -2.9745173E-01  -3.0299425E-01  -2.9469842E-01  -2.8225213E-01  -2.7452511E-01  -2.7137837E-01  -2.9826435E-01  -3.0406183E-01  -3.0393246E-01  -2.9870176E-01  -2.9489270E-01  -2.9354030E-01  -3.1023824E-01  -3.1418407E-01  -3.1768012E-01  -3.1763166E-01  -3.1713730E-01  -3.1734595E-01  -3.3044237E-01  -3.3357826E-01  -3.3812708E-01  -3.4061414E-01  -3.4209383E-01  -3.4336373E-01  -3.5657796E-01  -3.5963637E-01  -3.6419329E-01  -3.6750525E-01  -3.6995283E-01  -3.7193626E-01  -3.8599074E-01  -3.8942790E-01  -3.9414170E-01  -3.9767405E-01  -4.0070200E-01  -4.0327322E-01  -4.1764256E-01  -4.2194495E-01  -4.2711872E-01  -4.3084720E-01  -4.3433979E-01  -4.3739876E-01  -4.5224178E-01  -4.5733571E-01  -4.6296999E-01  -4.6686727E-01  -4.7075930E-01  -4.7420925E-01  -4.9010417E-01  -4.9576259E-01  -5.0160837E-01  -5.0563663E-01  -5.0984091E-01  -5.1355922E-01  -5.3152448E-01  -5.3731406E-01  -5.4303038E-01  -5.4711145E-01  -5.5143446E-01  -5.5521685E-01  -5.7644886E-01  -5.8178252E-01  -5.8709955E-01  -5.9099722E-01  -5.9504205E-01  -5.9854025E-01  -6.2383860E-01  -6.2818658E-01  -6.3290983E-01  -6.3606828E-01  -6.3913316E-01  -6.4182329E-01  -6.7081267E-01  -6.7382169E-01  -6.7778790E-01  -6.7911541E-01  -6.8019587E-01  -6.8145591E-01  -7.1158230E-01  -7.1314156E-01  -7.1605051E-01  -7.1386790E-01  -7.1184391E-01  -7.1115607E-01  -7.3686910E-01  -7.3700130E-01  -7.3818958E-01  -7.3034537E-01  -7.2435272E-01  -7.2166491E-01  -7.3276341E-01  -7.3190987E-01  -7.3024678E-01  -7.1491277E-01  -7.0500845E-01  -7.0108604E-01  -6.7812574E-01  -6.7750186E-01  -6.7240542E-01  -6.4998984E-01  -6.3819921E-01  -6.3498282E-01  -5.4148841E-01  -5.4414648E-01  -5.3556573E-01  -5.1274854E-01  -5.0301611E-01  -5.0332975E-01  -2.8536880E-01  -2.9114121E-01  -2.9016423E-01  -2.7685097E-01  -2.7194795E-01  -2.7811995E-01   1.1964016E-01   1.0892576E-01   9.2640154E-02   8.4107600E-02   7.9239771E-02   6.8039849E-02   6.5109736E-01   6.4995474E-01   6.1408252E-01   5.8096838E-01   5.5886036E-01   5.4491270E-01   1.2088253E+00   1.2411758E+00   1.2064840E+00   1.1698067E+00   1.1372449E+00   1.1266360E+00   1.7514992E+00   1.7945621E+00   1.7698023E+00   1.7650532E+00   1.7434814E+00   1.7434762E+00   2.1161799E+00   2.1815782E+00   2.2094636E+00   2.2480190E+00   2.2636092E+00   2.2891304E+00   2.2267919E+00   2.3481603E+00   2.4157803E+00   2.5010438E+00   2.5732646E+00   2.6432500E+00   2.1668158E+00   2.3408785E+00   2.4346323E+00   2.5559244E+00   2.6731312E+00   2.7798212E+00   2.0456667E+00   2.2520123E+00   2.3738253E+00   2.5003052E+00   2.6394913E+00   2.7663412E+00   1.9427625E+00   2.1554017E+00   2.3011084E+00   2.4237289E+00   2.5641921E+00   2.6925449E+00   1.8904095E+00   2.0943887E+00   2.2509065E+00   2.3721142E+00   2.4992425E+00   2.6150291E+00   1.8721308E+00   2.0579946E+00   2.2120616E+00   2.3310900E+00   2.4414976E+00   2.5384619E+00   1.8497559E+00   2.0094419E+00   2.1502702E+00   2.2622371E+00   2.3540549E+00   2.4299664E+00   1.7817760E+00   1.9119036E+00   2.0307958E+00   2.1259928E+00   2.1964023E+00   2.2500272E+00   1.6481415E+00   1.7489060E+00   1.8403968E+00   1.9059013E+00   1.9511317E+00   1.9814694E+00   1.4657809E+00   1.5387790E+00   1.5895047E+00   1.6194543E+00   1.6358325E+00   1.6431472E+00   1.2714260E+00   1.3171334E+00   1.3151356E+00   1.3060138E+00   1.2974980E+00   1.2830114E+00   1.0901927E+00   1.1099167E+00   1.0555670E+00   1.0166396E+00   9.8550153E-01   9.5144993E-01   9.2486596E-01   9.2497689E-01   8.3503598E-01   7.8082496E-01   7.2660983E-01   6.8036097E-01   7.7513784E-01   7.6341861E-01   6.5992159E-01   5.9489834E-01   5.2806568E-01   4.7778380E-01   6.3388896E-01   6.2072265E-01   5.1887757E-01   4.5002145E-01   3.8266522E-01   3.3412522E-01   4.9728861E-01   4.9458888E-01   4.0317088E-01   3.3521929E-01   2.7505955E-01   2.3238385E-01   4.6168965E-01   3.9952987E-01   3.0085969E-01   2.4073970E-01   1.9206695E-01   1.5785807E-01   3.9770889E-01   3.0563426E-01   2.0412616E-01   1.5763670E-01   1.2562019E-01   1.0056036E-01   2.2628406E-01   1.1458854E-01   7.9274878E-02   6.8999775E-02   5.5769265E-02   1.6962053E-01   5.7874754E-02   1.1986412E-02   1.9719094E-02   1.9924611E-02   4.8828173E-02  -2.6246078E-02  -2.1501824E-02  -8.3096474E-03   6.7558870E-02  -1.2908831E-02  -4.5622252E-02  -2.9041022E-02   4.6202749E-02  -2.1801710E-02  -2.8920457E-02   4.8733525E-02   2.2303365E-02   4.2119313E-02   9.5000252E-02  -6.8682179E-02  -7.0970006E-02  -7.2562285E-02  -7.3599219E-02  -7.4224152E-02  -7.4565955E-02  -7.4728765E-02  -7.4791297E-02  -7.4807875E-02  -8.0323540E-02  -8.2764447E-02  -8.4446050E-02  -8.5524559E-02  -8.6162746E-02  -8.6502478E-02  -8.6656369E-02  -8.6708918E-02  -8.6718060E-02  -8.9852035E-02  -9.2249289E-02  -9.3853854E-02  -9.4843097E-02  -9.5399201E-02  -9.5670491E-02  -9.5771447E-02  -9.5786586E-02  -9.5773548E-02  -9.8827526E-02  -1.0104232E-01  -1.0243580E-01  -1.0322239E-01  -1.0360786E-01  -1.0374497E-01  -1.0374635E-01  -1.0369327E-01  -1.0364046E-01  -1.0865083E-01  -1.1059006E-01  -1.1167199E-01  -1.1216649E-01  -1.1230670E-01  -1.1225074E-01  -1.1210878E-01  -1.1195746E-01  -1.1184742E-01  -1.2026560E-01  -1.2184989E-01  -1.2254224E-01  -1.2267457E-01  -1.2250881E-01  -1.2221062E-01  -1.2188784E-01  -1.2161206E-01  -1.2142917E-01  -1.3404772E-01  -1.3518719E-01  -1.3542117E-01  -1.3513270E-01  -1.3461243E-01  -1.3403367E-01  -1.3350134E-01  -1.3308109E-01  -1.3281363E-01  -1.4987886E-01  -1.5048048E-01  -1.5018998E-01  -1.4943184E-01  -1.4852202E-01  -1.4763798E-01  -1.4687911E-01  -1.4630353E-01  -1.4594528E-01  -1.6742139E-01  -1.6739161E-01  -1.6653517E-01  -1.6528206E-01  -1.6396856E-01  -1.6277334E-01  -1.6178650E-01  -1.6105554E-01  -1.6060728E-01  -1.8636246E-01  -1.8566872E-01  -1.8426773E-01  -1.8254015E-01  -1.8084385E-01  -1.7935637E-01  -1.7815785E-01  -1.7728390E-01  -1.7675318E-01  -2.0635319E-01  -2.0509757E-01  -2.0325792E-01  -2.0114128E-01  -1.9912572E-01  -1.9739455E-01  -1.9601993E-01  -1.9502765E-01  -1.9442891E-01  -2.2703245E-01  -2.2546491E-01  -2.2337386E-01  -2.2101651E-01  -2.1879035E-01  -2.1689235E-01  -2.1539508E-01  -2.1431985E-01  -2.1367338E-01  -2.4823427E-01  -2.4667667E-01  -2.4456647E-01  -2.4215671E-01  -2.3986015E-01  -2.3789367E-01  -2.3634113E-01  -2.3522700E-01  -2.3455758E-01  -2.7010262E-01  -2.6883125E-01  -2.6692390E-01  -2.6465157E-01  -2.6243106E-01  -2.6050270E-01  -2.5896892E-01  -2.5786442E-01  -2.5720021E-01  -2.9304743E-01  -2.9221776E-01  -2.9067785E-01  -2.8869396E-01  -2.8667668E-01  -2.8488544E-01  -2.8344274E-01  -2.8239769E-01  -2.8176707E-01  -3.1758925E-01  -3.1725320E-01  -3.1615856E-01  -3.1455007E-01  -3.1282583E-01  -3.1125221E-01  -3.0996624E-01  -3.0902722E-01  -3.0845845E-01  -3.4421703E-01  -3.4436953E-01  -3.4371710E-01  -3.4250936E-01  -3.4112623E-01  -3.3982879E-01  -3.3875421E-01  -3.3796516E-01  -3.3748573E-01  -3.7332460E-01  -3.7390333E-01  -3.7364393E-01  -3.7282056E-01  -3.7179735E-01  -3.7081593E-01  -3.7000018E-01  -3.6940107E-01  -3.6903849E-01  -4.0511376E-01  -4.0603867E-01  -4.0610981E-01  -4.0564299E-01  -4.0498737E-01  -4.0435436E-01  -4.0383813E-01  -4.0346804E-01  -4.0324706E-01  -4.3960238E-01  -4.4080240E-01  -4.4115353E-01  -4.4102204E-01  -4.4074243E-01  -4.4048810E-01  -4.4030991E-01  -4.4020256E-01  -4.4014701E-01  -4.7669148E-01  -4.7810537E-01  -4.7869617E-01  -4.7888210E-01  -4.7898495E-01  -4.7913232E-01  -4.7932261E-01  -4.7950575E-01  -4.7963542E-01  -5.1621801E-01  -5.1776731E-01  -5.1853740E-01  -5.1900107E-01  -5.1947153E-01  -5.2002627E-01  -5.2060062E-01  -5.2109379E-01  -5.2142155E-01  -5.5788112E-01  -5.5942285E-01  -5.6025219E-01  -5.6090039E-01  -5.6168103E-01  -5.6261754E-01  -5.6357360E-01  -5.6438339E-01  -5.6491661E-01  -6.0091883E-01  -6.0220528E-01  -6.0287809E-01  -6.0354370E-01  -6.0452449E-01  -6.0578668E-01  -6.0710508E-01  -6.0822999E-01  -6.0897434E-01  -6.4349401E-01  -6.4415723E-01  -6.4435810E-01  -6.4479882E-01  -6.4582688E-01  -6.4733875E-01  -6.4899492E-01  -6.5043575E-01  -6.5139914E-01  -6.8192911E-01  -6.8153125E-01  -6.8087995E-01  -6.8081117E-01  -6.8171293E-01  -6.8339700E-01  -6.8537277E-01  -6.8714219E-01  -6.8833888E-01  -7.1008217E-01  -7.0827734E-01  -7.0645082E-01  -7.0561868E-01  -7.0623964E-01  -7.0803273E-01  -7.1032655E-01  -7.1244520E-01  -7.1389842E-01  -7.1914113E-01  -7.1597564E-01  -7.1295458E-01  -7.1130252E-01  -7.1159524E-01  -7.1348768E-01  -7.1611810E-01  -7.1861881E-01  -7.2035527E-01  -6.9793469E-01  -6.9418460E-01  -6.9061321E-01  -6.8858874E-01  -6.8881178E-01  -6.9094855E-01  -6.9400311E-01  -6.9693577E-01  -6.9898325E-01  -6.3291478E-01  -6.3020205E-01  -6.2761974E-01  -6.2646163E-01  -6.2742352E-01  -6.3023692E-01  -6.3390005E-01  -6.3731360E-01  -6.3966453E-01  -5.0489223E-01  -5.0551593E-01  -5.0605655E-01  -5.0761354E-01  -5.1062632E-01  -5.1481593E-01  -5.1933253E-01  -5.2321643E-01  -5.2577955E-01  -2.8564787E-01  -2.9187083E-01  -2.9755837E-01  -3.0358714E-01  -3.0996060E-01  -3.1621766E-01  -3.2172558E-01  -3.2591075E-01  -3.2845771E-01   5.4735884E-02   4.2453915E-02   3.0957431E-02   1.9794077E-02   9.5679462E-03   1.1132360E-03  -5.1010847E-03  -9.0740323E-03  -1.1153638E-02   5.3032249E-01   5.1536560E-01   5.0032568E-01   4.8559874E-01   4.7270569E-01   4.6313655E-01   4.5734799E-01   4.5468429E-01   4.5388412E-01   1.1194625E+00   1.1096439E+00   1.0970119E+00   1.0831485E+00   1.0709727E+00   1.0629662E+00   1.0598125E+00   1.0602357E+00   1.0619195E+00   1.7530202E+00   1.7584391E+00   1.7566009E+00   1.7500898E+00   1.7436485E+00   1.7410432E+00   1.7434142E+00   1.7490177E+00   1.7544839E+00   2.3222394E+00   2.3506894E+00   2.3671243E+00   2.3742449E+00   2.3785365E+00   2.3850689E+00   2.3955762E+00   2.4080477E+00   2.4182472E+00   2.7106807E+00   2.7655070E+00   2.8020518E+00   2.8248739E+00   2.8419878E+00   2.8594341E+00   2.8792901E+00   2.8992660E+00   2.9144332E+00   2.8751674E+00   2.9500940E+00   3.0021906E+00   3.0379748E+00   3.0665855E+00   3.0944560E+00   3.1234913E+00   3.1508222E+00   3.1708078E+00   2.8752670E+00   2.9590120E+00   3.0180550E+00   3.0605249E+00   3.0961845E+00   3.1313751E+00   3.1673841E+00   3.2005293E+00   3.2243772E+00   2.8003685E+00   2.8810554E+00   2.9373038E+00   2.9785247E+00   3.0148163E+00   3.0521996E+00   3.0912035E+00   3.1272597E+00   3.1531830E+00   2.7108881E+00   2.7794511E+00   2.8249373E+00   2.8577397E+00   2.8881943E+00   2.9220760E+00   2.9593425E+00   2.9947228E+00   3.0204797E+00   2.6165462E+00   2.6681497E+00   2.6983235E+00   2.7180176E+00   2.7377896E+00   2.7634177E+00   2.7946784E+00   2.8260264E+00   2.8494699E+00   2.4882646E+00   2.5217209E+00   2.5354216E+00   2.5402908E+00   2.5469985E+00   2.5615485E+00   2.5839496E+00   2.6088517E+00   2.6283815E+00   2.2882113E+00   2.3043461E+00   2.3027635E+00   2.2936413E+00   2.2874036E+00   2.2902963E+00   2.3028407E+00   2.3202343E+00   2.3350661E+00   1.9996643E+00   2.0002637E+00   1.9860981E+00   1.9657674E+00   1.9488866E+00   1.9417161E+00   1.9453130E+00   1.9556178E+00   1.9658947E+00   1.6428064E+00   1.6309608E+00   1.6083111E+00   1.5811447E+00   1.5576885E+00   1.5438447E+00   1.5410467E+00   1.5459812E+00   1.5526725E+00   1.2675185E+00   1.2475024E+00   1.2211570E+00   1.1920559E+00   1.1666254E+00   1.1500803E+00   1.1440237E+00   1.1458019E+00   1.1502039E+00   9.2573422E-01   9.0215629E-01   8.7640989E-01   8.4941018E-01   8.2569134E-01   8.0962229E-01   8.0283970E-01   8.0326521E-01   8.0643684E-01   6.4980918E-01   6.2650967E-01   6.0423148E-01   5.8162498E-01   5.6155658E-01   5.4760975E-01   5.4141706E-01   5.4141486E-01   5.4388762E-01   4.4676465E-01   4.2618442E-01   4.0853938E-01   3.9086625E-01   3.7477261E-01   3.6324111E-01   3.5790277E-01   3.5765094E-01   3.5951227E-01   3.0567798E-01   2.8876284E-01   2.7545559E-01   2.6198953E-01   2.4917713E-01   2.3957510E-01   2.3477599E-01   2.3406148E-01   2.3517960E-01   2.0863250E-01   1.9529343E-01   1.8509281E-01   1.7446890E-01   1.6388066E-01   1.5552017E-01   1.5083173E-01   1.4940135E-01   1.4964031E-01   1.3968565E-01   1.2937266E-01   1.2075162E-01   1.1146905E-01   1.0211346E-01   9.4438225E-02   8.9599371E-02   8.7385446E-02   8.6762577E-02   8.8489592E-02   8.1068307E-02   7.3101759E-02   6.3918412E-02   5.4887623E-02   4.7408193E-02   4.2286694E-02   3.9406270E-02   3.8102984E-02   4.9864054E-02   4.5946404E-02   3.8977891E-02   2.9499158E-02   1.9919723E-02   1.1990905E-02   6.3189566E-03   2.8049052E-03   9.7966194E-04   2.0474762E-02   2.1087632E-02   1.6874671E-02   8.1462115E-03  -2.0720065E-03  -1.1163831E-02  -1.7942071E-02  -2.2376955E-02  -2.4816990E-02  -2.8350800E-03   2.6578903E-03   3.2005459E-03  -2.3879260E-03  -1.1719227E-02  -2.1574423E-02  -2.9854745E-02  -3.5687834E-02  -3.9048940E-02  -2.1704733E-02  -1.3804972E-02  -7.7298284E-03  -7.8647882E-03  -1.3608828E-02  -2.2237822E-02  -3.0919582E-02  -3.7917718E-02  -4.2321816E-02  -3.0403852E-02  -2.9087245E-02  -2.1512866E-02  -1.5563190E-02  -1.5347347E-02  -1.9905075E-02  -2.6815370E-02  -3.3566922E-02  -3.8326308E-02  -1.2363285E-02  -2.9677764E-02  -3.6448598E-02  -3.0613020E-02  -2.4310946E-02  -2.2714943E-02  -2.5289282E-02  -2.9874071E-02  -3.3861741E-02   4.0412091E-02  -6.0458481E-04  -2.7192324E-02  -4.3158293E-02  -4.1718796E-02  -3.5922185E-02  -3.2985315E-02  -3.3660546E-02  -3.5588980E-02   7.4762478E-02   3.8538590E-02   1.0428160E-02  -2.2963062E-02  -4.3188632E-02  -5.0872132E-02  -4.9393110E-02  -4.7303535E-02  -4.7221385E-02   3.1143032E-02   2.7429529E-02  -3.5754293E-03  -2.2163466E-02  -4.3935865E-02  -5.2892938E-02  -5.9335686E-02  -6.2978625E-02  -2.8585367E-02  -3.2707237E-02  -5.4900028E-02  -6.5025456E-02  -7.7070296E-02  -8.6128399E-02  -1.0591274E-01  -1.1313226E-01  -1.2167308E-01  -1.2573943E-01  -7.4810021E-02  -7.4807882E-02  -7.4791312E-02  -7.4728757E-02  -7.4565940E-02  -7.4224144E-02  -7.3599227E-02  -7.2562277E-02  -8.6717486E-02  -8.6718082E-02  -8.6708881E-02  -8.6656354E-02  -8.6502455E-02  -8.6162746E-02  -8.5524537E-02  -8.4446065E-02  -9.5765620E-02  -9.5773548E-02  -9.5786609E-02  -9.5771499E-02  -9.5670477E-02  -9.5399171E-02  -9.4843104E-02  -9.3853876E-02  -1.0361948E-01  -1.0364053E-01  -1.0369327E-01  -1.0374632E-01  -1.0374498E-01  -1.0360793E-01  -1.0322236E-01  -1.0243580E-01  -1.1180758E-01  -1.1184741E-01  -1.1195746E-01  -1.1210882E-01  -1.1225073E-01  -1.1230669E-01  -1.1216648E-01  -1.1167199E-01  -1.2136544E-01  -1.2142915E-01  -1.2161206E-01  -1.2188783E-01  -1.2221065E-01  -1.2250888E-01  -1.2267458E-01  -1.2254230E-01  -1.3272199E-01  -1.3281371E-01  -1.3308112E-01  -1.3350140E-01  -1.3403365E-01  -1.3461243E-01  -1.3513270E-01  -1.3542116E-01  -1.4582382E-01  -1.4594537E-01  -1.4630340E-01  -1.4687908E-01  -1.4763793E-01  -1.4852206E-01  -1.4943193E-01  -1.5018986E-01  -1.6045631E-01  -1.6060731E-01  -1.6105555E-01  -1.6178659E-01  -1.6277334E-01  -1.6396864E-01  -1.6528206E-01  -1.6653524E-01  -1.7657536E-01  -1.7675324E-01  -1.7728402E-01  -1.7815781E-01  -1.7935638E-01  -1.8084379E-01  -1.8254024E-01  -1.8426766E-01  -1.9422883E-01  -1.9442903E-01  -1.9502762E-01  -1.9601984E-01  -1.9739455E-01  -1.9912580E-01  -2.0114131E-01  -2.0325790E-01  -2.1345782E-01  -2.1367353E-01  -2.1431988E-01  -2.1539508E-01  -2.1689221E-01  -2.1879031E-01  -2.2101653E-01  -2.2337390E-01  -2.3433459E-01  -2.3455770E-01  -2.3522688E-01  -2.3634107E-01  -2.3789373E-01  -2.3986003E-01  -2.4215694E-01  -2.4456644E-01  -2.5697872E-01  -2.5720018E-01  -2.5786448E-01  -2.5896892E-01  -2.6050273E-01  -2.6243103E-01  -2.6465172E-01  -2.6692411E-01  -2.8155628E-01  -2.8176695E-01  -2.8239778E-01  -2.8344285E-01  -2.8488535E-01  -2.8667650E-01  -2.8869382E-01  -2.9067802E-01  -3.0826819E-01  -3.0845848E-01  -3.0902731E-01  -3.0996644E-01  -3.1125218E-01  -3.1282589E-01  -3.1454995E-01  -3.1615844E-01  -3.3732507E-01  -3.3748573E-01  -3.3796507E-01  -3.3875418E-01  -3.3982870E-01  -3.4112623E-01  -3.4250933E-01  -3.4371728E-01  -3.6891690E-01  -3.6903813E-01  -3.6940107E-01  -3.7000018E-01  -3.7081581E-01  -3.7179753E-01  -3.7282059E-01  -3.7364388E-01  -4.0317386E-01  -4.0324682E-01  -4.0346798E-01  -4.0383813E-01  -4.0435430E-01  -4.0498739E-01  -4.0564299E-01  -4.0610999E-01  -4.4012988E-01  -4.4014707E-01  -4.4020233E-01  -4.4030982E-01  -4.4048807E-01  -4.4074279E-01  -4.4102228E-01  -4.4115359E-01  -4.7968125E-01  -4.7963530E-01  -4.7950613E-01  -4.7932258E-01  -4.7913241E-01  -4.7898507E-01  -4.7888196E-01  -4.7869599E-01  -5.2153516E-01  -5.2142102E-01  -5.2109373E-01  -5.2060074E-01  -5.2002645E-01  -5.1947159E-01  -5.1900113E-01  -5.1853734E-01  -5.6510204E-01  -5.6491685E-01  -5.6438333E-01  -5.6357390E-01  -5.6261736E-01  -5.6168091E-01  -5.6090075E-01  -5.6025231E-01  -6.0923326E-01  -6.0897404E-01  -6.0822994E-01  -6.0710448E-01  -6.0578626E-01  -6.0452461E-01  -6.0354412E-01  -6.0287803E-01  -6.5173483E-01  -6.5139884E-01  -6.5043628E-01  -6.4899451E-01  -6.4733851E-01  -6.4582682E-01  -6.4479899E-01  -6.4435852E-01  -6.8875873E-01  -6.8833876E-01  -6.8714255E-01  -6.8537313E-01  -6.8339670E-01  -6.8171299E-01  -6.8081129E-01  -6.8087995E-01  -7.1441084E-01  -7.1389771E-01  -7.1244502E-01  -7.1032619E-01  -7.0803279E-01  -7.0623988E-01  -7.0561874E-01  -7.0645058E-01  -7.2097141E-01  -7.2035539E-01  -7.1861851E-01  -7.1611810E-01  -7.1348786E-01  -7.1159542E-01  -7.1130264E-01  -7.1295446E-01  -6.9971073E-01  -6.9898236E-01  -6.9693571E-01  -6.9400311E-01  -6.9094861E-01  -6.8881196E-01  -6.8858856E-01  -6.9061393E-01  -6.4049506E-01  -6.3966405E-01  -6.3731396E-01  -6.3390017E-01  -6.3023704E-01  -6.2742341E-01  -6.2646163E-01  -6.2761980E-01  -5.2666616E-01  -5.2577883E-01  -5.2321684E-01  -5.1933247E-01  -5.1481616E-01  -5.1062632E-01  -5.0761378E-01  -5.0605679E-01  -3.2930225E-01  -3.2845718E-01  -3.2591021E-01  -3.2172543E-01  -3.1621778E-01  -3.0996028E-01  -3.0358675E-01  -2.9755813E-01  -1.1780143E-02  -1.1153281E-02  -9.0739429E-03  -5.1012337E-03   1.1135638E-03   9.5678866E-03   1.9794166E-02   3.0957267E-02   4.5377505E-01   4.5388398E-01   4.5468447E-01   4.5734814E-01   4.6313658E-01   4.7270584E-01   4.8559850E-01   5.0032556E-01   1.0627615E+00   1.0619196E+00   1.0602357E+00   1.0598122E+00   1.0629665E+00   1.0709722E+00   1.0831485E+00   1.0970117E+00   1.7567178E+00   1.7544837E+00   1.7490175E+00   1.7434151E+00   1.7410433E+00   1.7436494E+00   1.7500898E+00   1.7566010E+00   2.4221838E+00   2.4182487E+00   2.4080479E+00   2.3955765E+00   2.3850689E+00   2.3785362E+00   2.3742447E+00   2.3671236E+00   2.9201176E+00   2.9144320E+00   2.8992672E+00   2.8792901E+00   2.8594334E+00   2.8419895E+00   2.8248744E+00   2.8020530E+00   3.1781757E+00   3.1708081E+00   3.1508222E+00   3.1234903E+00   3.0944562E+00   3.0665851E+00   3.0379753E+00   3.0021904E+00   3.2331028E+00   3.2243795E+00   3.2005291E+00   3.1673832E+00   3.1313758E+00   3.0961828E+00   3.0605264E+00   3.0180545E+00   3.1626554E+00   3.1531808E+00   3.1272600E+00   3.0912035E+00   3.0521989E+00   3.0148175E+00   2.9785249E+00   2.9373045E+00   3.0299428E+00   3.0204802E+00   2.9947224E+00   2.9593418E+00   2.9220753E+00   2.8881946E+00   2.8577402E+00   2.8249373E+00   2.8581831E+00   2.8494697E+00   2.8260257E+00   2.7946799E+00   2.7634180E+00   2.7377908E+00   2.7180171E+00   2.6983237E+00   2.6357789E+00   2.6283817E+00   2.6088519E+00   2.5839491E+00   2.5615468E+00   2.5469990E+00   2.5402915E+00   2.5354218E+00   2.3408628E+00   2.3350654E+00   2.3202336E+00   2.3028398E+00   2.2902963E+00   2.2874031E+00   2.2936404E+00   2.3027627E+00   1.9701201E+00   1.9658945E+00   1.9556179E+00   1.9453127E+00   1.9417164E+00   1.9488859E+00   1.9657679E+00   1.9860985E+00   1.5556383E+00   1.5526724E+00   1.5459814E+00   1.5410465E+00   1.5438440E+00   1.5576878E+00   1.5811445E+00   1.6083107E+00   1.1523337E+00   1.1502042E+00   1.1458018E+00   1.1440233E+00   1.1500804E+00   1.1666255E+00   1.1920558E+00   1.2211565E+00   8.0807757E-01   8.0643696E-01   8.0326521E-01   8.0283964E-01   8.0962217E-01   8.2569087E-01   8.4941018E-01   8.7640971E-01   5.4520893E-01   5.4388762E-01   5.4141468E-01   5.4141724E-01   5.4760969E-01   5.6155664E-01   5.8162504E-01   6.0423136E-01   3.6053893E-01   3.5951224E-01   3.5765073E-01   3.5790297E-01   3.6324099E-01   3.7477252E-01   3.9086613E-01   4.0853918E-01   2.3586565E-01   2.3517947E-01   2.3406154E-01   2.3477614E-01   2.3957521E-01   2.4917698E-01   2.6198947E-01   2.7545571E-01   1.4994219E-01   1.4964058E-01   1.4940113E-01   1.5083177E-01   1.5552035E-01   1.6388080E-01   1.7446919E-01   1.8509300E-01   8.6696565E-02   8.6762488E-02   8.7385386E-02   8.9599192E-02   9.4438255E-02   1.0211365E-01   1.1146931E-01   1.2075195E-01   3.7750155E-02   3.8103402E-02   3.9406300E-02   4.2286754E-02   4.7408372E-02   5.4887816E-02   6.3918278E-02   7.3101729E-02   4.2274594E-04   9.7984076E-04   2.8048158E-03   6.3188970E-03   1.1991382E-02   1.9919783E-02   2.9499173E-02   3.8977921E-02  -2.5588065E-02  -2.4817348E-02  -2.2376925E-02  -1.7942101E-02  -1.1163861E-02  -2.0718724E-03   8.1464052E-03   1.6874790E-02  -4.0137231E-02  -3.9049059E-02  -3.5687655E-02  -2.9854789E-02  -2.1574616E-02  -1.1719257E-02  -2.3878515E-03   3.2004118E-03  -4.3815911E-02  -4.2321712E-02  -3.7918031E-02  -3.0919388E-02  -2.2238016E-02  -1.3608709E-02  -7.8648180E-03  -7.7298284E-03  -4.0041924E-02  -3.8326472E-02  -3.3567101E-02  -2.6815608E-02  -1.9905165E-02  -1.5347183E-02  -1.5563130E-02  -2.1512911E-02  -3.5387680E-02  -3.3861950E-02  -2.9874265E-02  -2.5289401E-02  -2.2715151E-02  -2.4311066E-02  -3.0613109E-02  -3.6448464E-02  -3.6543459E-02  -3.5589203E-02  -3.3660591E-02  -3.2985568E-02  -3.5922259E-02  -4.1718885E-02  -4.3158263E-02  -2.7192503E-02  -4.7444694E-02  -4.7221467E-02  -4.7303498E-02  -4.9393483E-02  -5.0872266E-02  -4.3188602E-02  -2.2963151E-02   1.0427862E-02  -6.4566843E-02  -6.2978856E-02  -5.9335604E-02  -5.2893154E-02  -4.3936305E-02  -2.2163972E-02  -3.5756528E-03   2.7429603E-02  -8.8654287E-02  -8.6128496E-02  -7.7070259E-02  -6.5026067E-02  -5.4900371E-02  -3.2707244E-02  -2.8585598E-02  -1.2659004E-01  -1.2573969E-01  -1.2167342E-01  -1.1313230E-01  -1.0591285E-01  -7.0969991E-02  -6.8682171E-02  -6.5556549E-02  -6.1414372E-02  -5.6053031E-02  -4.9318913E-02  -4.1214835E-02  -8.2764454E-02  -8.0323547E-02  -7.6960534E-02  -7.2454274E-02  -6.6541865E-02  -5.9011687E-02  -4.9835235E-02  -3.9294124E-02  -9.2249319E-02  -8.9852035E-02  -8.6470269E-02  -8.1827946E-02  -7.5582802E-02  -6.7441106E-02  -5.7327088E-02  -4.5589764E-02  -1.0104233E-01  -9.8827526E-02  -9.5556699E-02  -9.0884805E-02  -8.4373675E-02  -7.5634129E-02  -6.4553976E-02  -5.1561952E-02  -1.1059010E-01  -1.0865081E-01  -1.0556069E-01  -1.0089074E-01  -9.4096363E-02  -8.4724568E-02  -7.2637498E-02  -5.8290139E-02  -1.2184998E-01  -1.2026564E-01  -1.1741805E-01  -1.1280219E-01  -1.0587213E-01  -9.6153677E-02  -8.3379164E-02  -6.7788251E-02  -1.3518725E-01  -1.3404764E-01  -1.3156141E-01  -1.2729427E-01  -1.2085135E-01  -1.1174771E-01  -9.9378951E-02  -8.3053797E-02  -1.5048048E-01  -1.4987880E-01  -1.4800853E-01  -1.4471859E-01  -1.3996300E-01  -1.3333127E-01  -1.2357805E-01  -1.0786855E-01  -1.6739164E-01  -1.6742145E-01  -1.6648757E-01  -1.6496204E-01  -1.6342111E-01  -1.6177031E-01  -1.5803888E-01  -1.4587642E-01  -1.8566874E-01  -1.8636255E-01  -1.8657325E-01  -1.8735623E-01  -1.9018967E-01  -1.9573121E-01  -2.0173430E-01  -1.9841617E-01  -2.0509759E-01  -2.0635320E-01  -2.0761244E-01  -2.1060343E-01  -2.1782048E-01  -2.3114932E-01  -2.4882239E-01  -2.5990874E-01  -2.2546490E-01  -2.2703256E-01  -2.2889350E-01  -2.3324494E-01  -2.4336953E-01  -2.6237461E-01  -2.8866938E-01  -3.0686662E-01  -2.4667673E-01  -2.4823433E-01  -2.5006530E-01  -2.5444129E-01  -2.6477402E-01  -2.8352255E-01  -3.0445677E-01  -3.0781958E-01  -2.6883128E-01  -2.7010259E-01  -2.7137825E-01  -2.7452531E-01  -2.8225213E-01  -2.9469851E-01  -3.0299437E-01  -2.9745170E-01  -2.9221785E-01  -2.9304767E-01  -2.9354042E-01  -2.9489264E-01  -2.9870173E-01  -3.0393249E-01  -3.0406165E-01  -2.9826429E-01  -3.1725356E-01  -3.1758922E-01  -3.1734589E-01  -3.1713733E-01  -3.1763181E-01  -3.1768006E-01  -3.1418404E-01  -3.1023827E-01  -3.4436956E-01  -3.4421709E-01  -3.4336388E-01  -3.4209386E-01  -3.4061408E-01  -3.3812714E-01  -3.3357829E-01  -3.3044261E-01  -3.7390345E-01  -3.7332478E-01  -3.7193659E-01  -3.6995289E-01  -3.6750522E-01  -3.6419344E-01  -3.5963649E-01  -3.5657790E-01  -4.0603852E-01  -4.0511349E-01  -4.0327317E-01  -4.0070218E-01  -3.9767411E-01  -3.9414191E-01  -3.8942799E-01  -3.8599098E-01  -4.4080254E-01  -4.3960229E-01  -4.3739873E-01  -4.3433964E-01  -4.3084735E-01  -4.2711872E-01  -4.2194515E-01  -4.1764259E-01  -4.7810543E-01  -4.7669154E-01  -4.7420913E-01  -4.7075957E-01  -4.6686733E-01  -4.6297011E-01  -4.5733559E-01  -4.5224190E-01  -5.1776731E-01  -5.1621819E-01  -5.1355940E-01  -5.0984061E-01  -5.0563705E-01  -5.0160825E-01  -4.9576303E-01  -4.9010462E-01  -5.5942327E-01  -5.5788094E-01  -5.5521697E-01  -5.5143452E-01  -5.4711145E-01  -5.4303044E-01  -5.3731388E-01  -5.3152448E-01  -6.0220510E-01  -6.0091877E-01  -5.9854037E-01  -5.9504223E-01  -5.9099716E-01  -5.8709967E-01  -5.8178240E-01  -5.7644892E-01  -6.4415741E-01  -6.4349419E-01  -6.4182365E-01  -6.3913286E-01  -6.3606834E-01  -6.3290942E-01  -6.2818682E-01  -6.2383866E-01  -6.8153095E-01  -6.8192911E-01  -6.8145597E-01  -6.8019605E-01  -6.7911506E-01  -6.7778796E-01  -6.7382157E-01  -6.7081237E-01  -7.0827723E-01  -7.1008217E-01  -7.1115595E-01  -7.1184397E-01  -7.1386790E-01  -7.1605068E-01  -7.1314174E-01  -7.1158230E-01  -7.1597642E-01  -7.1914101E-01  -7.2166467E-01  -7.2435284E-01  -7.3034555E-01  -7.3818970E-01  -7.3700100E-01  -7.3686910E-01  -6.9418418E-01  -6.9793475E-01  -7.0108569E-01  -7.0500821E-01  -7.1491253E-01  -7.3024714E-01  -7.3190999E-01  -7.3276353E-01  -6.3020241E-01  -6.3291436E-01  -6.3498276E-01  -6.3819951E-01  -6.4998996E-01  -6.7240572E-01  -6.7750221E-01  -6.7812604E-01  -5.0551611E-01  -5.0489235E-01  -5.0332958E-01  -5.0301647E-01  -5.1274854E-01  -5.3556573E-01  -5.4414648E-01  -5.4148847E-01  -2.9187095E-01  -2.8564826E-01  -2.7812031E-01  -2.7194813E-01  -2.7685106E-01  -2.9016444E-01  -2.9114109E-01  -2.8536877E-01   4.2453587E-02   5.4736137E-02   6.8039685E-02   7.9239815E-02   8.4107392E-02   9.2640221E-02   1.0892558E-01   1.1963982E-01   5.1536542E-01   5.3032213E-01   5.4491246E-01   5.5886042E-01   5.8096814E-01   6.1408269E-01   6.4995474E-01   6.5109742E-01   1.1096433E+00   1.1194620E+00   1.1266360E+00   1.1372445E+00   1.1698064E+00   1.2064838E+00   1.2411761E+00   1.2088261E+00   1.7584393E+00   1.7530200E+00   1.7434762E+00   1.7434816E+00   1.7650532E+00   1.7698021E+00   1.7945619E+00   1.7514992E+00   2.3506899E+00   2.3222389E+00   2.2891304E+00   2.2636096E+00   2.2480190E+00   2.2094646E+00   2.1815789E+00   2.1161807E+00   2.7655067E+00   2.7106814E+00   2.6432502E+00   2.5732644E+00   2.5010448E+00   2.4157805E+00   2.3481593E+00   2.2267926E+00   2.9500957E+00   2.8751683E+00   2.7798212E+00   2.6731312E+00   2.5559249E+00   2.4346325E+00   2.3408792E+00   2.1668169E+00   2.9590127E+00   2.8752694E+00   2.7663431E+00   2.6394911E+00   2.5003052E+00   2.3738256E+00   2.2520139E+00   2.0456626E+00   2.8810568E+00   2.8003676E+00   2.6925454E+00   2.5641932E+00   2.4237304E+00   2.3011091E+00   2.1554031E+00   1.9427630E+00   2.7794514E+00   2.7108874E+00   2.6150289E+00   2.4992421E+00   2.3721132E+00   2.2509069E+00   2.0943890E+00   1.8904096E+00   2.6681488E+00   2.6165469E+00   2.5384614E+00   2.4414980E+00   2.3310893E+00   2.2120614E+00   2.0579948E+00   1.8721306E+00   2.5217221E+00   2.4882636E+00   2.4299650E+00   2.3540530E+00   2.2622356E+00   2.1502695E+00   2.0094416E+00   1.8497558E+00   2.3043454E+00   2.2882106E+00   2.2500265E+00   2.1964016E+00   2.1259921E+00   2.0307946E+00   1.9119028E+00   1.7817756E+00   2.0002632E+00   1.9996643E+00   1.9814694E+00   1.9511306E+00   1.9059011E+00   1.8403958E+00   1.7489053E+00   1.6481414E+00   1.6309594E+00   1.6428049E+00   1.6431473E+00   1.6358320E+00   1.6194541E+00   1.5895033E+00   1.5387789E+00   1.4657815E+00   1.2475020E+00   1.2675188E+00   1.2830113E+00   1.2974979E+00   1.3060132E+00   1.3151363E+00   1.3171335E+00   1.2714258E+00   9.0215641E-01   9.2573369E-01   9.5145011E-01   9.8550159E-01   1.0166401E+00   1.0555673E+00   1.1099170E+00   1.0901928E+00   6.2650979E-01   6.4980924E-01   6.8036091E-01   7.2661000E-01   7.8082466E-01   8.3503604E-01   9.2497754E-01   9.2486608E-01   4.2618468E-01   4.4676474E-01   4.7778407E-01   5.2806562E-01   5.9489840E-01   6.5992182E-01   7.6341867E-01   7.7513790E-01   2.8876308E-01   3.0567813E-01   3.3412537E-01   3.8266522E-01   4.5002156E-01   5.1887774E-01   6.2072265E-01   6.3388872E-01   1.9529369E-01   2.0863232E-01   2.3238382E-01   2.7505961E-01   3.3521959E-01   4.0317076E-01   4.9458885E-01   4.9728870E-01   1.2937275E-01   1.3968569E-01   1.5785815E-01   1.9206713E-01   2.4073991E-01   3.0085972E-01   3.9952993E-01   4.6168971E-01   8.1068486E-02   8.8489950E-02   1.0056052E-01   1.2562022E-01   1.5763690E-01   2.0412603E-01   3.0563438E-01   3.9770845E-01   4.5946345E-02   4.9864218E-02   5.5769295E-02   6.8999961E-02   7.9274759E-02   1.1458859E-01   2.2628443E-01   2.1087900E-02   2.0474747E-02   1.9924730E-02   1.9719079E-02   1.1986360E-02   5.7875097E-02   1.6962023E-01   2.6578903E-03  -2.8350800E-03  -8.3094239E-03  -2.1501884E-02  -2.6246093E-02   4.8828300E-02  -1.3804838E-02  -2.1704629E-02  -2.9041052E-02  -4.5622475E-02  -1.2908950E-02   6.7558721E-02  -2.9087275E-02  -3.0403972E-02  -2.8920844E-02  -2.1801554E-02   4.6202544E-02  -2.9677749E-02  -1.2363300E-02   2.2303574E-02   4.8733301E-02  -6.0452521E-04   4.0411621E-02   9.5000096E-02   4.2118844E-02   3.8539186E-02   7.4761994E-02   3.1143025E-02 
VonMises3D 1 2975 float
  0.0000000E+00   0.0000000E+00   0.0000000E+00   0.0000000E+00   0.0000000E+00   0.0000000E+00   0.0000000E+00   0.0000000E+00   0.0000000E+00   0.0000000E+00   0.0000000E+00   0.0000000E+00   0.0000000E+00   4.1717300E-03   7.9495296E-14   3.0701423E-02   1.7217290E-01   6.4991154E-02   4.6045610E-01   1.1975291E+00   6.0621995E-01   2.2041390E+00   4.3725605E+00   2.3415296E+00   6.5054617E+00   1.1316801E+01   5.9674711E+00   1.4449554E+01   2.3398256E+01   1.1773270E+01   2.6384937E+01   4.1016052E+01   1.9384329E+01   4.1522984E+01   6.3020802E+01   2.7838287E+01   5.8063728E+01   8.6784348E+01   3.6028385E+01   7.3978729E+01   1.0931994E+02   4.3254032E+01   8.8002411E+01   1.2884892E+02   4.9547802E+01   1.0014760E+02   1.4584898E+02   5.8617184E+01   1.1178472E+02   1.6480923E+02   1.0899885E+02   1.3813147E+02   1.9809317E+02   3.1666385E+02   2.7922934E+02   2.6461295E+02   8.8856628E+02   7.3902429E+02   3.6488055E+02   2.1523345E+03   1.7371246E+03   4.5226431E+02   3.3142285E+03   5.7612463E+02   0.0000000E+00   0.0000000E+00   0.0000000E+00   0.0000000E+00   0.0000000E+00   0.0000000E+00   0.0000000E+00   0.0000000E+00   0.0000000E+00   0.0000000E+00   0.0000000E+00   0.0000000E+00   0.0000000E+00   0.0000000E+00   0.0000000E+00   0.0000000E+00   0.0000000E+00   0.0000000E+00   0.0000000E+00   0.0000000E+00   0.0000000E+00   0.0000000E+00   0.0000000E+00   0.0000000E+00   0.0000000E+00   2.6536523E-04   8.2621607E-04   4.6909862E-04   5.9810840E-04   1.0584603E-03   1.1870513E-03   1.2572724E-03   2.6003093E-02   5.5121146E-02   6.6932343E-02   4.9086306E-02   7.9960497E-03   3.6379181E-02   6.2929086E-02   6.9760732E-02   3.7449640E-01   5.1937151E-01   5.2783149E-01   3.8085753E-01   1.1662836E-01   1.7328131E-01   3.9140591E-01   4.9835247E-01   1.9042674E+00   2.2642930E+00   2.1389701E+00   1.5150046E+00   5.2255851E-01   5.5131346E-01   1.3956490E+00   1.8684170E+00   6.0647011E+00   6.6993618E+00   6.0890174E+00   4.2554512E+00   1.5295072E+00   1.3831178E+00   3.7091699E+00   5.0723124E+00   1.4620016E+01   1.5525203E+01   1.3809732E+01   9.5555124E+00   3.4790108E+00   2.9212894E+00   8.0427418E+00   1.1102736E+01   2.9075605E+01   3.0233646E+01   2.6568165E+01   1.8201042E+01   6.5719790E+00   5.4320536E+00   1.4953476E+01   2.0667538E+01   4.9900616E+01   5.1321262E+01   4.4734196E+01   3.0220932E+01   1.0570810E+01   9.1287308E+00   2.4508532E+01   3.3695469E+01   7.5770042E+01   7.7397377E+01   6.6639786E+01   1.0341821E+02   1.0487620E+02   1.2900946E+02   1.2932339E+02   1.5047427E+02   1.4886279E+02   1.6886389E+02   1.6473662E+02   1.9859096E+02   1.9817026E+02   3.1865411E+02   3.8621375E+02   6.9521649E+02   9.8136731E+02   1.5015590E+03   2.2658638E+03   2.7920122E+03   4.4357412E+03   4.2322197E+03   7.1404346E+03   0.0000000E+00   0.0000000E+00   0.0000000E+00   0.0000000E+00   0.0000000E+00   0.0000000E+00   0.0000000E+00   0.0000000E+00   0.0000000E+00   0.0000000E+00   0.0000000E+00   0.0000000E+00   0.0000000E+00   0.0000000E+00   0.0000000E+00   0.0000000E+00   0.0000000E+00   0.0000000E+00   0.0000000E+00   0.0000000E+00   0.0000000E+00   0.0000000E+00   0.0000000E+00   0.0000000E+00   0.0000000E+00   0.0000000E+00   0.0000000E+00   1.2844808E-03   1.2819526E-03   1.2621037E-03   1.2350309E-03   1.2046030E-03   1.1749119E-03   1.1490331E-03   1.1289028E-03   1.1162863E-03   7.0044428E-02   6.7851938E-02   6.4338394E-02   6.0339887E-02   5.6384537E-02   5.2797500E-02   4.9786218E-02   4.7520854E-02   4.6116143E-02   5.1431847E-01   4.9385732E-01   4.6069738E-01   4.2273223E-01   3.8516772E-01   3.5123432E-01   3.2299939E-01   3.0185625E-01   2.8878379E-01   2.0095398E+00   1.9439805E+00   1.8017303E+00   1.6344968E+00   1.4671406E+00   1.3154334E+00   1.1892068E+00   1.0948584E+00   1.0365961E+00   5.5501513E+00   5.4392614E+00   5.0365562E+00   4.5432720E+00   4.0425987E+00   3.5858324E+00   3.2049801E+00   2.9202423E+00   2.7444789E+00   1.2238246E+01   1.2065975E+01   1.1195982E+01   1.0067772E+01   8.9074621E+00   7.8417182E+00   6.9504366E+00   6.2834110E+00   5.8716083E+00   2.2829462E+01   2.2542639E+01   2.0936060E+01   1.8783318E+01   1.6545803E+01   1.4478642E+01   1.2744857E+01   1.1445686E+01   1.0643304E+01   3.7164028E+01   3.6662186E+01   3.4019753E+01   3.0459757E+01   2.6729641E+01   2.3267954E+01   2.0357325E+01   1.8173754E+01   1.6824558E+01   0.0000000E+00   0.0000000E+00   0.0000000E+00   0.0000000E+00   0.0000000E+00   0.0000000E+00   0.0000000E+00   0.0000000E+00   0.0000000E+00   0.0000000E+00   0.0000000E+00   0.0000000E+00   0.0000000E+00   0.0000000E+00   0.0000000E+00   0.0000000E+00   0.0000000E+00   0.0000000E+00   0.0000000E+00   0.0000000E+00   0.0000000E+00   0.0000000E+00   0.0000000E+00   0.0000000E+00   1.1119709E-03   1.1162864E-03   1.1289027E-03   1.1490332E-03   1.1749119E-03   1.2046034E-03   1.2350311E-03   1.2621034E-03   4.5639072E-02   4.6116143E-02   4.7520857E-02   4.9786221E-02   5.2797515E-02   5.6384549E-02   6.0339894E-02   6.4338379E-02   2.8436536E-01   2.8878379E-01   3.0185634E-01   3.2299948E-01   3.5123441E-01   3.8516769E-01   4.2273223E-01   4.6069738E-01   1.0169053E+00   1.0365961E+00   1.0948586E+00   1.1892072E+00   1.3154337E+00   1.4671409E+00   1.6344969E+00   1.8017303E+00   2.6850750E+00   2.7444794E+00   2.9202430E+00   3.2049809E+00   3.5858335E+00   4.0426002E+00   4.5432730E+00   5.0365562E+00   5.7324162E+00   5.8716083E+00   6.2834120E+00   6.9504371E+00   7.8417187E+00   8.9074640E+00   1.0067774E+01   1.1195982E+01   1.0372094E+01   1.0643306E+01   1.1445687E+01   1.2744859E+01   1.4478645E+01   1.6545801E+01   1.8783318E+01   2.0936062E+01   1.6368502E+01   1.6824562E+01   1.8173756E+01   2.0357330E+01   2.3267956E+01   2.6729645E+01   3.0459757E+01   3.4019749E+01   0.0000000E+00   0.0000000E+00   0.0000000E+00   0.0000000E+00   0.0000000E+00   0.0000000E+00   0.0000000E+00   0.0000000E+00   0.0000000E+00   0.0000000E+00   0.0000000E+00   0.0000000E+00   0.0000000E+00   0.0000000E+00   0.0000000E+00   0.0000000E+00   0.0000000E+00   0.0000000E+00   0.0000000E+00   0.0000000E+00   0.0000000E+00   0.0000000E+00   0.0000000E+00   0.0000000E+00   0.0000000E+00   0.0000000E+00   0.0000000E+00   1.2819526E-03   1.2844810E-03   1.2572724E-03   1.1870512E-03   1.0584603E-03   5.9810857E-04   4.6909813E-04   8.2621595E-04   2.6536515E-04   6.7851916E-02   7.0044436E-02   6.9760755E-02   6.2929086E-02   3.6379181E-02   7.9960497E-03   4.9086310E-02   6.6932335E-02   5.5121135E-02   4.9385720E-01   5.1431847E-01   4.9835247E-01   3.9140591E-01   1.7328134E-01   1.1662838E-01   3.8085765E-01   5.2783149E-01   5.1937151E-01   1.9439806E+00   2.0095396E+00   1.8684168E+00   1.3956493E+00   5.5131352E-01   5.2255833E-01   1.5150048E+00   2.1389701E+00   2.2642930E+00   5.4392614E+00   5.5501513E+00   5.0723119E+00   3.7091699E+00   1.3831183E+00   1.5295070E+00   4.2554517E+00   6.0890169E+00   6.6993604E+00   1.2065974E+01   1.2238244E+01   1.1102735E+01   8.0427427E+00   2.9212911E+00   3.4790108E+00   9.5555162E+00   1.3809735E+01   1.5525205E+01   2.2542637E+01   2.2829462E+01   2.0667538E+01   1.4953476E+01   5.4320555E+00   6.5719786E+00   1.8201042E+01   2.6568172E+01   3.0233646E+01   3.6662186E+01   3.7164032E+01   3.3695469E+01   2.4508539E+01   9.1287336E+00   1.0570807E+01   3.0220936E+01   4.4734200E+01   5.1321262E+01   6.6639786E+01   7.7397377E+01   1.0487620E+02   1.2932338E+02   1.4886278E+02   1.6473660E+02   1.9817024E+02   3.8621375E+02   9.8136731E+02   2.2658645E+03   4.4357417E+03   7.1404355E+03   0.0000000E+00   0.0000000E+00   0.0000000E+00   0.0000000E+00   0.0000000E+00   0.0000000E+00   0.0000000E+00   0.0000000E+00   0.0000000E+00   0.0000000E+00   0.0000000E+00   0.0000000E+00   0.0000000E+00   0.0000000E+00   0.0000000E+00   2.6003085E-02   4.1717282E-03   0.0000000E+00   0.0000000E+00   3.7449631E-01   1.7217284E-01   3.0701419E-02   7.9495255E-14   1.9042672E+00   1.1975287E+00   4.6045610E-01   6.4991154E-02   6.0647006E+00   4.3725591E+00   2.2041383E+00   6.0621995E-01   1.4620016E+01   1.1316796E+01   6.5054593E+00   2.3415294E+00   2.9075605E+01   2.3398252E+01   1.4449551E+01   5.9674702E+00   4.9900616E+01   4.1016048E+01   2.6384937E+01   1.1773269E+01   7.5770050E+01   6.3020798E+01   4.1522980E+01   1.9384329E+01   1.0341821E+02   8.6784355E+01   5.8063728E+01   2.7838287E+01   1.2900949E+02   1.0931995E+02   7.3978737E+01   3.6028385E+01   1.5047427E+02   1.2884892E+02   8.8002426E+01   4.3254036E+01   1.6886394E+02   1.4584898E+02   1.0014761E+02   4.9547802E+01   1.9859096E+02   1.6480923E+02   1.1178472E+02   5.8617180E+01   3.1865424E+02   1.9809314E+02   1.3813147E+02   1.0899883E+02   6.9521686E+02   2.6461298E+02   2.7922934E+02   3.1666382E+02   1.5015591E+03   3.6488058E+02   7.3902441E+02   8.8856628E+02   2.7920127E+03   4.5226431E+02   1.7371245E+03   2.1523345E+03   4.2322197E+03   5.7612457E+02   3.3142288E+03   0.0000000E+00   0.0000000E+00   0.0000000E+00   0.0000000E+00   0.0000000E+00   0.0000000E+00   0.0000000E+00   0.0000000E+00   0.0000000E+00   0.0000000E+00   0.0000000E+00   0.0000000E+00   0.0000000E+00   0.0000000E+00   0.0000000E+00   0.0000000E+00   0.0000000E+00   0.0000000E+00   0.0000000E+00   0.0000000E+00   0.0000000E+00   0.0000000E+00   0.0000000E+00   0.0000000E+00   0.0000000E+00   0.0000000E+00   0.0000000E+00   0.0000000E+00   0.0000000E+00   0.0000000E+00   0.0000000E+00   0.0000000E+00   0.0000000E+00   0.0000000E+00   0.0000000E+00   0.0000000E+00   0.0000000E+00   0.0000000E+00   0.0000000E+00   0.0000000E+00   0.0000000E+00   0.0000000E+00   0.0000000E+00   0.0000000E+00   0.0000000E+00   0.0000000E+00   0.0000000E+00   0.0000000E+00   0.0000000E+00   0.0000000E+00   0.0000000E+00   0.0000000E+00   0.0000000E+00   0.0000000E+00   0.0000000E+00   0.0000000E+00   0.0000000E+00   0.0000000E+00   0.0000000E+00   0.0000000E+00   0.0000000E+00   0.0000000E+00   0.0000000E+00   0.0000000E+00   0.0000000E+00   0.0000000E+00   0.0000000E+00   0.0000000E+00   0.0000000E+00   0.0000000E+00   0.0000000E+00   0.0000000E+00   0.0000000E+00   0.0000000E+00   0.0000000E+00   0.0000000E+00   0.0000000E+00   0.0000000E+00   0.0000000E+00   0.0000000E+00   0.0000000E+00   0.0000000E+00   0.0000000E+00   0.0000000E+00   0.0000000E+00   0.0000000E+00   0.0000000E+00   0.0000000E+00   0.0000000E+00   0.0000000E+00   0.0000000E+00   0.0000000E+00   0.0000000E+00   0.0000000E+00   0.0000000E+00   0.0000000E+00   0.0000000E+00   0.0000000E+00   0.0000000E+00   0.0000000E+00   0.0000000E+00   0.0000000E+00   0.0000000E+00   0.0000000E+00   0.0000000E+00   0.0000000E+00   0.0000000E+00   0.0000000E+00   0.0000000E+00   0.0000000E+00   0.0000000E+00   0.0000000E+00   0.0000000E+00   0.0000000E+00   0.0000000E+00   0.0000000E+00   0.0000000E+00   0.0000000E+00   0.0000000E+00   0.0000000E+00   0.0000000E+00   0.0000000E+00   0.0000000E+00   0.0000000E+00   0.0000000E+00   0.0000000E+00   0.0000000E+00   0.0000000E+00   0.0000000E+00   0.0000000E+00   0.0000000E+00   0.0000000E+00   0.0000000E+00   0.0000000E+00   0.0000000E+00   0.0000000E+00   0.0000000E+00   0.0000000E+00   0.0000000E+00   0.0000000E+00   0.0000000E+00   0.0000000E+00   0.0000000E+00   0.0000000E+00   0.0000000E+00   0.0000000E+00   0.0000000E+00   0.0000000E+00   0.0000000E+00   0.0000000E+00   0.0000000E+00   0.0000000E+00   0.0000000E+00   0.0000000E+00   0.0000000E+00   0.0000000E+00   0.0000000E+00   0.0000000E+00   0.0000000E+00   0.0000000E+00   0.0000000E+00   0.0000000E+00   0.0000000E+00   0.0000000E+00   0.0000000E+00   0.0000000E+00   0.0000000E+00   0.0000000E+00   0.0000000E+00   0.0000000E+00   0.0000000E+00   0.0000000E+00   0.0000000E+00   0.0000000E+00   0.0000000E+00   0.0000000E+00   0.0000000E+00   0.0000000E+00   0.0000000E+00   0.0000000E+00   0.0000000E+00   0.0000000E+00   0.0000000E+00   0.0000000E+00   0.0000000E+00   0.0000000E+00   0.0000000E+00   0.0000000E+00   0.0000000E+00   0.0000000E+00   0.0000000E+00   0.0000000E+00   0.0000000E+00   0.0000000E+00   0.0000000E+00   0.0000000E+00   0.0000000E+00   0.0000000E+00   0.0000000E+00   0.0000000E+00   0.0000000E+00   0.0000000E+00   0.0000000E+00   0.0000000E+00   0.0000000E+00   0.0000000E+00   0.0000000E+00   0.0000000E+00   0.0000000E+00   0.0000000E+00   0.0000000E+00   0.0000000E+00   0.0000000E+00   0.0000000E+00   0.0000000E+00   0.0000000E+00   0.0000000E+00   0.0000000E+00   0.0000000E+00   0.0000000E+00   0.0000000E+00   0.0000000E+00   0.0000000E+00   0.0000000E+00   0.0000000E+00   0.0000000E+00   0.0000000E+00   0.0000000E+00   0.0000000E+00   0.0000000E+00   0.0000000E+00   0.0000000E+00   0.0000000E+00   0.0000000E+00   0.0000000E+00   0.0000000E+00   0.0000000E+00   0.0000000E+00   0.0000000E+00   0.0000000E+00   0.0000000E+00   0.0000000E+00   0.0000000E+00   0.0000000E+00   0.0000000E+00   0.0000000E+00   0.0000000E+00   0.0000000E+00   0.0000000E+00   0.0000000E+00   0.0000000E+00   0.0000000E+00   0.0000000E+00   0.0000000E+00   0.0000000E+00   0.0000000E+00   0.0000000E+00   0.0000000E+00   0.0000000E+00   0.0000000E+00   0.0000000E+00   0.0000000E+00   0.0000000E+00   0.0000000E+00   0.0000000E+00   0.0000000E+00   0.0000000E+00   0.0000000E+00   0.0000000E+00   0.0000000E+00   0.0000000E+00   0.0000000E+00   0.0000000E+00   0.0000000E+00   0.0000000E+00   0.0000000E+00   0.0000000E+00   0.0000000E+00   0.0000000E+00   0.0000000E+00   0.0000000E+00   0.0000000E+00   0.0000000E+00   0.0000000E+00   0.0000000E+00   0.0000000E+00   0.0000000E+00   0.0000000E+00   0.0000000E+00   0.0000000E+00   0.0000000E+00   0.0000000E+00   0.0000000E+00   0.0000000E+00   0.0000000E+00   0.0000000E+00   0.0000000E+00   0.0000000E+00   0.0000000E+00   0.0000000E+00   0.0000000E+00   0.0000000E+00   0.0000000E+00   0.0000000E+00   0.0000000E+00   0.0000000E+00   0.0000000E+00   0.0000000E+00   0.0000000E+00   0.0000000E+00   0.0000000E+00   0.0000000E+00   0.0000000E+00   0.0000000E+00   0.0000000E+00   0.0000000E+00   0.0000000E+00   0.0000000E+00   0.0000000E+00   0.0000000E+00   0.0000000E+00   0.0000000E+00   0.0000000E+00   0.0000000E+00   0.0000000E+00   0.0000000E+00   0.0000000E+00   0.0000000E+00   0.0000000E+00   0.0000000E+00   0.0000000E+00   0.0000000E+00   0.0000000E+00   0.0000000E+00   0.0000000E+00   0.0000000E+00   0.0000000E+00   0.0000000E+00   0.0000000E+00   0.0000000E+00   0.0000000E+00   0.0000000E+00   0.0000000E+00   0.0000000E+00   0.0000000E+00   0.0000000E+00   0.0000000E+00   0.0000000E+00   0.0000000E+00   0.0000000E+00   0.0000000E+00   0.0000000E+00   0.0000000E+00   0.0000000E+00   0.0000000E+00   0.0000000E+00   0.0000000E+00   0.0000000E+00   0.0000000E+00   0.0000000E+00   0.0000000E+00   0.0000000E+00   0.0000000E+00   0.0000000E+00   0.0000000E+00   0.0000000E+00   0.0000000E+00   0.0000000E+00   0.0000000E+00   0.0000000E+00   0.0000000E+00   0.0000000E+00   0.0000000E+00   0.0000000E+00   0.0000000E+00   0.0000000E+00   0.0000000E+00   0.0000000E+00   0.0000000E+00   0.0000000E+00   0.0000000E+00   0.0000000E+00   0.0000000E+00   0.0000000E+00   0.0000000E+00   0.0000000E+00   0.0000000E+00   0.0000000E+00   0.0000000E+00   0.0000000E+00   0.0000000E+00   0.0000000E+00   0.0000000E+00   0.0000000E+00   0.0000000E+00   0.0000000E+00   0.0000000E+00   0.0000000E+00   0.0000000E+00   0.0000000E+00   0.0000000E+00   0.0000000E+00   0.0000000E+00   0.0000000E+00   0.0000000E+00   0.0000000E+00   0.0000000E+00   0.0000000E+00   0.0000000E+00   0.0000000E+00   0.0000000E+00   0.0000000E+00   0.0000000E+00   0.0000000E+00   0.0000000E+00   0.0000000E+00   0.0000000E+00   0.0000000E+00   0.0000000E+00   0.0000000E+00   0.0000000E+00   0.0000000E+00   0.0000000E+00   0.0000000E+00   0.0000000E+00   0.0000000E+00   0.0000000E+00   0.0000000E+00   0.0000000E+00   0.0000000E+00   0.0000000E+00   0.0000000E+00   0.0000000E+00   0.0000000E+00   0.0000000E+00   0.0000000E+00   0.0000000E+00   0.0000000E+00   0.0000000E+00   0.0000000E+00   0.0000000E+00   0.0000000E+00   0.0000000E+00   0.0000000E+00   0.0000000E+00   0.0000000E+00   0.0000000E+00   0.0000000E+00   0.0000000E+00   0.0000000E+00   0.0000000E+00   0.0000000E+00   0.0000000E+00   0.0000000E+00   0.0000000E+00   0.0000000E+00   0.0000000E+00   0.0000000E+00   0.0000000E+00   0.0000000E+00   0.0000000E+00   0.0000000E+00   0.0000000E+00   0.0000000E+00   0.0000000E+00   0.0000000E+00   0.0000000E+00   0.0000000E+00   0.0000000E+00   0.0000000E+00   0.0000000E+00   0.0000000E+00   4.3134254E+01   1.4611714E+01   1.3903382E+01   3.5840061E+01   4.8832642E+01   8.1625885E+01   5.5466171E+01   1.7625301E+01   1.9350220E+01   4.7449142E+01   6.3907349E+01   9.9417892E+01   6.5149147E+01   1.8873610E+01   2.5280449E+01   5.8313358E+01   7.7312637E+01   1.1282319E+02   7.1493965E+01   1.8053997E+01   3.1682201E+01   6.8086113E+01   8.8425049E+01   1.2226993E+02   7.4680077E+01   1.5295712E+01   3.8555588E+01   7.6862724E+01   9.7448814E+01   1.4620660E+02   8.7254211E+01   2.3030159E+01   4.6379616E+01   8.5091003E+01   1.0518227E+02   3.2603461E+02   2.1672586E+02   1.0233417E+02   6.5596909E+01   9.4549942E+01   1.1331613E+02   8.8499176E+02   6.1854712E+02   3.2065594E+02   1.3949857E+02   1.1217308E+02   1.2548395E+02   2.0164873E+03   1.4041316E+03   7.3701996E+02   3.0287811E+02   1.5454570E+02   1.4820573E+02   3.7242832E+03   2.5415081E+03   1.3193776E+03   5.3742291E+02   2.3225023E+02   1.9056064E+02   5.4427642E+03   3.6664702E+03   1.8748003E+03   7.6440515E+02   3.3368808E+02   2.6168683E+02   6.3348330E+03   4.2026372E+03   2.1256946E+03   8.8574463E+02   4.4649286E+02   3.6892648E+02   6.0282534E+03   3.8792048E+03   1.9461133E+03   8.9022797E+02   5.8664227E+02   5.1680695E+02   4.5353594E+03   2.9024917E+03   1.5301735E+03   9.2146796E+02   7.8053986E+02   7.0315167E+02   2.9507300E+03   2.0170393E+03   1.3349001E+03   1.1093375E+03   1.0202800E+03   9.1747577E+02   2.2310317E+03   1.8042162E+03   1.5084573E+03   1.3836022E+03   1.2760204E+03   1.1474016E+03   2.2199761E+03   1.9742229E+03   1.7783195E+03   1.6570443E+03   1.5307645E+03   1.3855637E+03   2.3802014E+03   2.1865664E+03   2.0276985E+03   1.9167963E+03   1.7854998E+03   1.6308944E+03   2.5764358E+03   2.4032429E+03   2.2729729E+03   2.1797759E+03   2.0486067E+03   1.8862842E+03   2.8211187E+03   2.6527463E+03   2.5416765E+03   2.4618755E+03   2.3283450E+03   2.1562288E+03   3.1247622E+03   2.9503660E+03   2.8481565E+03   2.7728262E+03   2.6306326E+03   2.4439570E+03   3.4919287E+03   3.3031270E+03   3.1976726E+03   3.1151565E+03   2.9564167E+03   2.7493662E+03   3.9244521E+03   3.7108999E+03   3.5835623E+03   3.4823833E+03   3.3007993E+03   3.0689019E+03   4.4233618E+03   4.1616743E+03   3.9860449E+03   3.8604182E+03   3.6552876E+03   3.3980410E+03   4.9730688E+03   4.6250210E+03   4.3729507E+03   4.2329238E+03   4.0142053E+03   3.7370178E+03   5.5360396E+03   5.0512188E+03   4.7100605E+03   4.5960801E+03   4.3870059E+03   4.1003032E+03   6.0566338E+03   5.3926904E+03   4.9900264E+03   4.9815083E+03   4.8156519E+03   4.5297495E+03   6.4680122E+03   5.6211792E+03   5.2589409E+03   5.4709688E+03   5.3874658E+03   5.1062246E+03   6.7394917E+03   5.7858374E+03   5.6324849E+03   6.1924185E+03   6.2288110E+03   5.9460767E+03   6.9567881E+03   6.0683252E+03   6.2986851E+03   7.2813047E+03   7.4599897E+03   7.1711816E+03   7.4595044E+03   6.8630786E+03   7.4966094E+03   8.7913594E+03   9.1289639E+03   8.8515820E+03   9.0316309E+03   8.8753428E+03   9.3418760E+03   1.0669542E+04   1.1172482E+04   1.0959133E+04   1.2382791E+04   1.2572154E+04   1.2465199E+04   1.2972620E+04   1.3415572E+04   1.3345342E+04   1.6739803E+04   1.7167398E+04   1.6684131E+04   1.5881904E+04   1.5755471E+04   1.5772122E+04   1.9533916E+04   2.0327629E+04   2.0092643E+04   1.8749479E+04   1.7934059E+04   1.7964545E+04   2.0197133E+04   2.1328129E+04   2.1953123E+04   2.0886455E+04   1.9758408E+04   1.9722445E+04   1.9579643E+04   2.0788514E+04   2.2228850E+04   2.1887451E+04   2.0970418E+04   2.0954951E+04   1.8857068E+04   2.0005482E+04   2.0729322E+04   2.1128809E+04   2.0996063E+04   2.1447287E+04   1.8808951E+04   2.0090537E+04   1.9665289E+04   2.0477557E+04   2.0905070E+04   2.1677455E+04   1.9341787E+04   2.0732705E+04   1.9586043E+04   2.0365543E+04   2.0985492E+04   2.1848689E+04   2.0057547E+04   2.1553748E+04   2.0173801E+04   2.0717773E+04   2.1239006E+04   2.2008742E+04   2.0630156E+04   2.2223492E+04   2.0979125E+04   2.1282912E+04   2.1526473E+04   2.2109137E+04   2.0604641E+04   2.2272348E+04   2.1341318E+04   2.1596645E+04   2.1631850E+04   2.2057008E+04   2.0099912E+04   2.1790818E+04   2.1169736E+04   2.1498666E+04   2.1445580E+04   2.1774811E+04   1.9344475E+04   2.0974668E+04   2.0581580E+04   2.0996205E+04   2.0943049E+04   2.1227836E+04   1.8505832E+04   1.9971969E+04   1.9698541E+04   2.0129533E+04   2.0128734E+04   2.0421010E+04   1.7653936E+04   1.8883875E+04   1.8571156E+04   1.8947938E+04   1.9037537E+04   1.9383057E+04   1.6746336E+04   1.7648395E+04   1.7231037E+04   1.7521324E+04   1.7788936E+04   1.8159979E+04   1.5662173E+04   1.6258330E+04   1.5720920E+04   1.6108861E+04   1.6451891E+04   1.6785744E+04   1.4273098E+04   1.4670041E+04   1.4152112E+04   1.4718403E+04   1.4991498E+04   1.5293828E+04   1.2554348E+04   1.2862069E+04   1.2583868E+04   1.3256767E+04   1.3464864E+04   1.3742402E+04   1.0542636E+04   1.0958492E+04   1.1055274E+04   1.1819077E+04   1.1994043E+04   1.2208208E+04   8.3576533E+03   9.1481797E+03   9.7377979E+03   1.0526937E+04   1.0659132E+04   1.0760014E+04   6.8892725E+03   7.9871987E+03   8.8118115E+03   9.5273193E+03   9.5538379E+03   9.4808213E+03   7.6040537E+03   7.2706963E+03   8.3517236E+03   8.9517100E+03   8.8469746E+03   8.4682646E+03   6.0354448E+03   8.0621602E+03   8.8296113E+03   8.6276953E+03   7.8586582E+03   4.9215869E+03   7.3089028E+03   8.7564355E+03   8.7589502E+03   7.7241753E+03   5.2759883E+03   8.0781367E+03   8.8669893E+03   7.9506108E+03   4.2475015E+03   6.1540200E+03   8.2509648E+03   8.1341851E+03   3.4649360E+03   6.1843345E+03   7.6027705E+03   3.0672637E+03   5.5718838E+03   4.7958447E+03   2.6034287E+03   5.3660671E+01   5.2814812E+01   4.8922398E+01   4.3718407E+01   3.8237438E+01   3.3132385E+01   2.8830681E+01   2.5600109E+01   2.3603113E+01   6.9861603E+01   6.8562523E+01   6.3410980E+01   5.6602894E+01   4.9404514E+01   4.2675941E+01   3.6993355E+01   3.2720936E+01   3.0078478E+01   8.3885231E+01   8.2027832E+01   7.5791695E+01   6.7669899E+01   5.9052265E+01   5.0965885E+01   4.4118481E+01   3.8962421E+01   3.5770973E+01   9.4956993E+01   9.2430412E+01   8.5386353E+01   7.6376183E+01   6.6784431E+01   5.7743511E+01   5.0061394E+01   4.4263386E+01   4.0670048E+01   1.0337462E+02   1.0013992E+02   9.2615364E+01   8.3172729E+01   7.3085228E+01   6.3517921E+01   5.5345974E+01   4.9155102E+01   4.5309704E+01   1.1026413E+02   1.0647517E+02   9.8832764E+01   8.9399300E+01   7.9246300E+01   6.9516342E+01   6.1132088E+01   5.4740364E+01   5.0754589E+01   1.1751954E+02   1.1348528E+02   1.0610783E+02   9.7083710E+01   8.7194710E+01   7.7537186E+01   6.9090828E+01   6.2585346E+01   5.8502617E+01   1.2827713E+02   1.2400719E+02   1.1714594E+02   1.0878784E+02   9.9320427E+01   8.9784416E+01   8.1252899E+01   7.4581436E+01   7.0356003E+01   1.4765816E+02   1.4213657E+02   1.3542366E+02   1.2757248E+02   1.1836201E+02   1.0872626E+02   9.9864403E+01   9.2808189E+01   8.8290695E+01   1.8292378E+02   1.7354613E+02   1.6535414E+02   1.5701329E+02   1.4732907E+02   1.3697351E+02   1.2725060E+02   1.1939551E+02   1.1432156E+02   2.4245082E+02   2.2491417E+02   2.1200757E+02   2.0099739E+02   1.8930475E+02   1.7707623E+02   1.6561157E+02   1.5632208E+02   1.5030415E+02   3.3357050E+02   3.0237671E+02   2.8021121E+02   2.6318539E+02   2.4708301E+02   2.3124309E+02   2.1678159E+02   2.0519594E+02   1.9772594E+02   4.5998807E+02   4.0968710E+02   3.7334558E+02   3.4628946E+02   3.2273376E+02   3.0105804E+02   2.8202026E+02   2.6708032E+02   2.5754749E+02   6.2012805E+02   5.4699451E+02   4.9240082E+02   4.5145062E+02   4.1722815E+02   3.8725510E+02   3.6186658E+02   3.4238516E+02   3.3010867E+02   8.0777954E+02   7.1098981E+02   6.3583435E+02   5.7803503E+02   5.3028772E+02   4.8963928E+02   4.5610938E+02   4.3086115E+02   4.1513214E+02   1.0151739E+03   8.9644031E+02   8.0034790E+02   7.2399884E+02   6.6057751E+02   6.0722784E+02   5.6391760E+02   5.3173364E+02   5.1186102E+02   1.2362866E+03   1.0983568E+03   9.8221191E+02   8.8669641E+02   8.0622430E+02   7.3862750E+02   6.8416846E+02   6.4402008E+02   6.1937872E+02   1.4682675E+03   1.3135513E+03   1.1784901E+03   1.0637916E+03   9.6551355E+02   8.8261786E+02   8.1598706E+02   7.6707074E+02   7.3716113E+02   1.7114633E+03   1.5409456E+03   1.3876466E+03   1.2539707E+03   1.1376281E+03   1.0389066E+03   9.5953119E+02   9.0138031E+02   8.6591077E+02   1.9677856E+03   1.7808884E+03   1.6095648E+03   1.4574292E+03   1.3234293E+03   1.2090854E+03   1.1170452E+03   1.0496959E+03   1.0086865E+03   2.2386934E+03   2.0341808E+03   1.8454213E+03   1.6763734E+03   1.5263794E+03   1.3978132E+03   1.2941675E+03   1.2183627E+03   1.1722612E+03   2.5239875E+03   2.3016633E+03   2.0979988E+03   1.9158868E+03   1.7537535E+03   1.6141869E+03   1.5013540E+03   1.4187491E+03   1.3685231E+03   2.8221812E+03   2.5850442E+03   2.3728855E+03   2.1853384E+03   2.0180842E+03   1.8731149E+03   1.7551470E+03   1.6684220E+03   1.6155903E+03   3.1329753E+03   2.8892410E+03   2.6805557E+03   2.5001030E+03   2.3384768E+03   2.1962583E+03   2.0788247E+03   1.9916000E+03   1.9381543E+03   3.4619529E+03   3.2258630E+03   3.0386196E+03   2.8827529E+03   2.7410142E+03   2.6118887E+03   2.5018955E+03   2.4184238E+03   2.3666345E+03   3.8272346E+03   3.6170779E+03   3.4732595E+03   3.3627410E+03   3.2573823E+03   3.1529648E+03   3.0579280E+03   2.9826953E+03   2.9349016E+03   4.2682056E+03   4.0996826E+03   4.0195173E+03   3.9742998E+03   3.9215181E+03   3.8532688E+03   3.7805730E+03   3.7179702E+03   3.6764546E+03   4.8545249E+03   4.7300156E+03   4.7216973E+03   4.7536987E+03   4.7654492E+03   4.7428579E+03   4.6991250E+03   4.6533770E+03   4.6204980E+03   5.6866245E+03   5.5862666E+03   5.6351313E+03   5.7391001E+03   5.8178062E+03   5.8463799E+03   5.8371938E+03   5.8128257E+03   5.7915361E+03   6.8767832E+03   6.7605474E+03   6.8269233E+03   6.9754023E+03   7.1092813E+03   7.1881777E+03   7.2176172E+03   7.2198384E+03   7.2142212E+03   8.5075996E+03   8.3340488E+03   8.3670576E+03   8.5171895E+03   8.6809434E+03   8.8017041E+03   8.8713135E+03   8.9054805E+03   8.9205527E+03   1.0586152E+04   1.0338720E+04   1.0301580E+04   1.0414102E+04   1.0578976E+04   1.0728441E+04   1.0837285E+04   1.0908264E+04   1.0949363E+04   1.3009897E+04   1.2720081E+04   1.2616269E+04   1.2678999E+04   1.2829402E+04   1.2997978E+04   1.3145324E+04   1.3258055E+04   1.3330763E+04   1.5564198E+04   1.5319515E+04   1.5208195E+04   1.5252602E+04   1.5400436E+04   1.5591959E+04   1.5782110E+04   1.5943208E+04   1.6053724E+04   1.7967541E+04   1.7892301E+04   1.7881480E+04   1.7981707E+04   1.8169676E+04   1.8405850E+04   1.8650793E+04   1.8868852E+04   1.9023430E+04   1.9958412E+04   2.0165115E+04   2.0375559E+04   2.0625459E+04   2.0915271E+04   2.1231297E+04   2.1549775E+04   2.1835092E+04   2.2039270E+04   2.1389252E+04   2.1920686E+04   2.2430121E+04   2.2905082E+04   2.3356012E+04   2.3791703E+04   2.4207773E+04   2.4574063E+04   2.4834830E+04   2.2228842E+04   2.3077129E+04   2.3878102E+04   2.4597645E+04   2.5240092E+04   2.5824340E+04   2.6359527E+04   2.6820078E+04   2.7144113E+04   2.2665588E+04   2.3705428E+04   2.4714875E+04   2.5637896E+04   2.6458994E+04   2.7192682E+04   2.7851305E+04   2.8408936E+04   2.8797043E+04   2.2868967E+04   2.3956689E+04   2.5060990E+04   2.6107414E+04   2.7055830E+04   2.7907602E+04   2.8669715E+04   2.9310570E+04   2.9753850E+04   2.2941949E+04   2.3969365E+04   2.5065615E+04   2.6146365E+04   2.7151137E+04   2.8067568E+04   2.8893486E+04   2.9588787E+04   3.0069158E+04   2.2906805E+04   2.3820096E+04   2.4840547E+04   2.5882502E+04   2.6874951E+04   2.7796957E+04   2.8638615E+04   2.9351994E+04   2.9846369E+04   2.2727867E+04   2.3521279E+04   2.4437566E+04   2.5395582E+04   2.6324090E+04   2.7201002E+04   2.8013398E+04   2.8709330E+04   2.9194666E+04   2.2353109E+04   2.3047676E+04   2.3860053E+04   2.4715701E+04   2.5550414E+04   2.6347428E+04   2.7096459E+04   2.7746545E+04   2.8203982E+04   2.1747146E+04   2.2369193E+04   2.3091113E+04   2.3844012E+04   2.4573803E+04   2.5272943E+04   2.5938195E+04   2.6524033E+04   2.6940961E+04   2.0904361E+04   2.1474305E+04   2.2121281E+04   2.2779914E+04   2.3406061E+04   2.4002561E+04   2.4575480E+04   2.5087893E+04   2.5457461E+04   1.9845139E+04   2.0376490E+04   2.0962029E+04   2.1538053E+04   2.2068408E+04   2.2565541E+04   2.3045381E+04   2.3481328E+04   2.3800338E+04   1.8603932E+04   1.9105377E+04   1.9641326E+04   2.0147639E+04   2.0593514E+04   2.0998961E+04   2.1389158E+04   2.1748652E+04   2.2015570E+04   1.7214623E+04   1.7694189E+04   1.8192861E+04   1.8644207E+04   1.9020119E+04   1.9345354E+04   1.9652811E+04   1.9938314E+04   2.0152973E+04   1.5710092E+04   1.6175672E+04   1.6649666E+04   1.7062344E+04   1.7386029E+04   1.7646963E+04   1.7883076E+04   1.8100574E+04   1.8265100E+04   1.4130245E+04   1.4583012E+04   1.5040909E+04   1.5429663E+04   1.5720286E+04   1.5936639E+04   1.6117677E+04   1.6277741E+04   1.6397555E+04   1.2532392E+04   1.2953747E+04   1.3393980E+04   1.3767254E+04   1.4041521E+04   1.4234089E+04   1.4379762E+04   1.4497551E+04   1.4581827E+04   1.0982832E+04   1.1334494E+04   1.1738891E+04   1.2094877E+04   1.2362804E+04   1.2549457E+04   1.2679979E+04   1.2773458E+04   1.2834338E+04   9.5461973E+03   9.7812842E+03   1.0115680E+04   1.0440312E+04   1.0701015E+04   1.0891292E+04   1.1022710E+04   1.1109313E+04   1.1160051E+04   8.2852363E+03   8.3561338E+03   8.5799121E+03   8.8467148E+03   9.0863359E+03   9.2769512E+03   9.4156768E+03   9.5073164E+03   9.5588936E+03   7.2824624E+03   7.1150981E+03   7.1948052E+03   7.3706665E+03   7.5653628E+03   7.7404009E+03   7.8798867E+03   7.9778291E+03   8.0346372E+03   6.6718062E+03   6.1316802E+03   6.0133452E+03   6.0707656E+03   6.1923218E+03   6.3288604E+03   6.4522437E+03   6.5466064E+03   6.6044829E+03   6.5726826E+03   5.5493794E+03   5.0969961E+03   4.9894917E+03   5.0144863E+03   5.0889424E+03   5.1760186E+03   5.2515542E+03   5.3010972E+03   6.8566880E+03   5.5074141E+03   4.5869917E+03   4.1787163E+03   4.0603608E+03   4.0538921E+03   4.0875801E+03   4.1300957E+03   4.1621626E+03   7.0973486E+03   5.8216694E+03   4.5964561E+03   3.7717234E+03   3.3784543E+03   3.2405383E+03   3.2067295E+03   3.2083926E+03   3.2174993E+03   6.5784790E+03   6.0198423E+03   4.8540791E+03   3.7830129E+03   3.0520867E+03   2.6801304E+03   2.5370369E+03   2.4913486E+03   2.4778821E+03   4.5069082E+03   5.3085850E+03   4.8315522E+03   3.8602603E+03   2.9643137E+03   2.3660818E+03   2.0729092E+03   1.9653234E+03   1.9306687E+03   1.9584792E+03   3.0582156E+03   3.7575503E+03   3.5112339E+03   2.8100056E+03   2.1532751E+03   1.7634167E+03   1.6034319E+03   1.5520505E+03   1.6462581E+03   1.7396190E+03   2.1812771E+03   2.1324561E+03   1.7723051E+03   1.4440664E+03   1.2826691E+03   1.2320087E+03   1.2188401E+03   1.1955771E+03   1.1716066E+03   1.0611656E+03   9.6434247E+02   9.1455670E+02   1.1108185E+03   9.9611310E+02   9.3496826E+02   9.0077197E+02   2.2928020E+01   2.3603113E+01   2.5600111E+01   2.8830683E+01   3.3132393E+01   3.8237446E+01   4.3718418E+01   4.8922413E+01   2.9185093E+01   3.0078478E+01   3.2720947E+01   3.6993366E+01   4.2675953E+01   4.9404526E+01   5.6602894E+01   6.3410988E+01   3.4691666E+01   3.5770977E+01   3.8962429E+01   4.4118484E+01   5.0965897E+01   5.9052273E+01   6.7669914E+01   7.5791687E+01   3.9454128E+01   4.0670048E+01   4.4263390E+01   5.0061401E+01   5.7743523E+01   6.6784447E+01   7.6376190E+01   8.5386360E+01   4.4007187E+01   4.5309715E+01   4.9155106E+01   5.5345982E+01   6.3517941E+01   7.3085236E+01   8.3172745E+01   9.2615372E+01   4.9402191E+01   5.0754593E+01   5.4740356E+01   6.1132088E+01   6.9516357E+01   7.9246323E+01   8.9399323E+01   9.8832764E+01   5.7113144E+01   5.8502609E+01   6.2585358E+01   6.9090858E+01   7.7537209E+01   8.7194717E+01   9.7083717E+01   1.0610785E+02   6.8911674E+01   7.0356003E+01   7.4581429E+01   8.1252907E+01   8.9784424E+01   9.9320427E+01   1.0878788E+02   1.1714598E+02   8.6738808E+01   8.8290710E+01   9.2808205E+01   9.9864441E+01   1.0872630E+02   1.1836205E+02   1.2757253E+02   1.3542369E+02   1.1257113E+02   1.1432156E+02   1.1939557E+02   1.2725066E+02   1.3697357E+02   1.4732910E+02   1.5701332E+02   1.6535414E+02   1.4822453E+02   1.5030421E+02   1.5632211E+02   1.6561160E+02   1.7707628E+02   1.8930481E+02   2.0099744E+02   2.1200760E+02   1.9514868E+02   1.9772598E+02   2.0519597E+02   2.1678168E+02   2.3124315E+02   2.4708305E+02   2.6318539E+02   2.8021118E+02   2.5427242E+02   2.5754752E+02   2.6708044E+02   2.8202032E+02   3.0105811E+02   3.2273376E+02   3.4628940E+02   3.7334561E+02   3.2591418E+02   3.3010867E+02   3.4238522E+02   3.6186667E+02   3.8725513E+02   4.1722806E+02   4.5145059E+02   4.9240073E+02   4.0978696E+02   4.1513220E+02   4.3086121E+02   4.5610950E+02   4.8963937E+02   5.3028760E+02   5.7803485E+02   6.3583435E+02   5.0513742E+02   5.1186111E+02   5.3173376E+02   5.6391766E+02   6.0722791E+02   6.6057739E+02   7.2399860E+02   8.0034766E+02   6.1106830E+02   6.1937885E+02   6.4402026E+02   6.8416852E+02   7.3862750E+02   8.0622412E+02   8.8669604E+02   9.8221143E+02   7.2709570E+02   7.3716119E+02   7.6707086E+02   8.1598718E+02   8.8261774E+02   9.6551337E+02   1.0637911E+03   1.1784893E+03   8.5399194E+02   8.6591071E+02   9.0138086E+02   9.5953125E+02   1.0389064E+03   1.1376277E+03   1.2539698E+03   1.3876458E+03   9.9492194E+02   1.0086863E+03   1.0496960E+03   1.1170452E+03   1.2090852E+03   1.3234286E+03   1.4574285E+03   1.6095638E+03   1.1568019E+03   1.1722612E+03   1.2183633E+03   1.2941677E+03   1.3978132E+03   1.5263789E+03   1.6763726E+03   1.8454204E+03   1.3516884E+03   1.3685233E+03   1.4187493E+03   1.5013544E+03   1.6141869E+03   1.7537531E+03   1.9158859E+03   2.0979978E+03   1.5978730E+03   1.6155907E+03   1.6684225E+03   1.7551473E+03   1.8731151E+03   2.0180840E+03   2.1853379E+03   2.3728843E+03   1.9201873E+03   1.9381542E+03   1.9916007E+03   2.0788250E+03   2.1962581E+03   2.3384766E+03   2.5001025E+03   2.6805549E+03   2.3491272E+03   2.3666350E+03   2.4184241E+03   2.5018962E+03   2.6118884E+03   2.7410137E+03   2.8827522E+03   3.0386184E+03   2.9185776E+03   2.9349026E+03   2.9826958E+03   3.0579275E+03   3.1529648E+03   3.2573818E+03   3.3627402E+03   3.4732581E+03   3.6620188E+03   3.6764546E+03   3.7179702E+03   3.7805735E+03   3.8532681E+03   3.9215181E+03   3.9742998E+03   4.0195168E+03   4.6087129E+03   4.6204990E+03   4.6533774E+03   4.6991255E+03   4.7428584E+03   4.7654478E+03   4.7536982E+03   4.7216963E+03   5.7834370E+03   5.7915361E+03   5.8128257E+03   5.8371943E+03   5.8463799E+03   5.8178062E+03   5.7391011E+03   5.6351313E+03   7.2113442E+03   7.2142202E+03   7.2198369E+03   7.2176162E+03   7.1881777E+03   7.1092813E+03   6.9754023E+03   6.8269233E+03   8.9248955E+03   8.9205547E+03   8.9054805E+03   8.8713135E+03   8.8017061E+03   8.6809424E+03   8.5171885E+03   8.3670566E+03   1.0963144E+04   1.0949362E+04   1.0908264E+04   1.0837286E+04   1.0728440E+04   1.0578976E+04   1.0414102E+04   1.0301581E+04   1.3356324E+04   1.3330764E+04   1.3258055E+04   1.3145324E+04   1.2997979E+04   1.2829404E+04   1.2678999E+04   1.2616269E+04   1.6093588E+04   1.6053724E+04   1.5943208E+04   1.5782110E+04   1.5591959E+04   1.5400437E+04   1.5252604E+04   1.5208195E+04   1.9079982E+04   1.9023430E+04   1.8868855E+04   1.8650793E+04   1.8405848E+04   1.8169678E+04   1.7981709E+04   1.7881482E+04   2.2114307E+04   2.2039270E+04   2.1835096E+04   2.1549771E+04   2.1231297E+04   2.0915270E+04   2.0625457E+04   2.0375563E+04   2.4930480E+04   2.4834828E+04   2.4574063E+04   2.4207775E+04   2.3791701E+04   2.3356006E+04   2.2905082E+04   2.2430129E+04   2.7262344E+04   2.7144109E+04   2.6820078E+04   2.6359523E+04   2.5824340E+04   2.5240092E+04   2.4597650E+04   2.3878107E+04   2.8937932E+04   2.8797047E+04   2.8408928E+04   2.7851303E+04   2.7192684E+04   2.6458996E+04   2.5637896E+04   2.4714883E+04   2.9914236E+04   2.9753842E+04   2.9310566E+04   2.8669709E+04   2.7907598E+04   2.7055830E+04   2.6107418E+04   2.5060992E+04   3.0242818E+04   3.0069148E+04   2.9588783E+04   2.8893484E+04   2.8067561E+04   2.7151139E+04   2.6146367E+04   2.5065623E+04   3.0025316E+04   2.9846361E+04   2.9351986E+04   2.8638607E+04   2.7796957E+04   2.6874949E+04   2.5882504E+04   2.4840547E+04   2.9370875E+04   2.9194664E+04   2.8709334E+04   2.8013396E+04   2.7200998E+04   2.6324098E+04   2.5395578E+04   2.4437568E+04   2.8370803E+04   2.8203982E+04   2.7746541E+04   2.7096459E+04   2.6347428E+04   2.5550416E+04   2.4715703E+04   2.3860055E+04   2.7093887E+04   2.6940965E+04   2.6524025E+04   2.5938191E+04   2.5272947E+04   2.4573803E+04   2.3844018E+04   2.3091113E+04   2.5593959E+04   2.5457459E+04   2.5087891E+04   2.4575482E+04   2.4002559E+04   2.3406057E+04   2.2779918E+04   2.2121281E+04   2.3919076E+04   2.3800332E+04   2.3481328E+04   2.3045385E+04   2.2565539E+04   2.2068408E+04   2.1538053E+04   2.0962029E+04   2.2115721E+04   2.2015561E+04   2.1748652E+04   2.1389158E+04   2.0998957E+04   2.0593510E+04   2.0147637E+04   1.9641324E+04   2.0234137E+04   2.0152969E+04   1.9938311E+04   1.9652813E+04   1.9345354E+04   1.9020119E+04   1.8644203E+04   1.8192861E+04   1.8327629E+04   1.8265098E+04   1.8100576E+04   1.7883078E+04   1.7646963E+04   1.7386031E+04   1.7062344E+04   1.6649666E+04   1.6443082E+04   1.6397557E+04   1.6277742E+04   1.6117677E+04   1.5936637E+04   1.5720282E+04   1.5429663E+04   1.5040909E+04   1.4613377E+04   1.4581826E+04   1.4497553E+04   1.4379762E+04   1.4234086E+04   1.4041522E+04   1.3767252E+04   1.3393983E+04   1.2856159E+04   1.2834335E+04   1.2773456E+04   1.2679978E+04   1.2549457E+04   1.2362804E+04   1.2094878E+04   1.1738893E+04   1.1177078E+04   1.1160050E+04   1.1109314E+04   1.1022709E+04   1.0891292E+04   1.0701016E+04   1.0440313E+04   1.0115680E+04   9.5755303E+03   9.5588945E+03   9.5073174E+03   9.4156768E+03   9.2769512E+03   9.0863340E+03   8.8467148E+03   8.5799121E+03   8.0531016E+03   8.0346372E+03   7.9778291E+03   7.8798848E+03   7.7404009E+03   7.5653628E+03   7.3706665E+03   7.1948057E+03   6.6238198E+03   6.6044814E+03   6.5466045E+03   6.4522432E+03   6.3288608E+03   6.1923218E+03   6.0707656E+03   6.0133438E+03   5.3181929E+03   5.3010957E+03   5.2515532E+03   5.1760186E+03   5.0889419E+03   5.0144863E+03   4.9894907E+03   5.0969961E+03   4.1738481E+03   4.1621626E+03   4.1300947E+03   4.0875791E+03   4.0538914E+03   4.0603604E+03   4.1787158E+03   4.5869912E+03   3.2217441E+03   3.2174988E+03   3.2083921E+03   3.2067280E+03   3.2405383E+03   3.3784543E+03   3.7717231E+03   4.5964565E+03   2.4749270E+03   2.4778809E+03   2.4913477E+03   2.5370364E+03   2.6801301E+03   3.0520864E+03   3.7830129E+03   4.8540806E+03   1.9223486E+03   1.9306687E+03   1.9653225E+03   2.0729087E+03   2.3660815E+03   2.9643130E+03   3.8602612E+03   4.8315532E+03   1.5403888E+03   1.5520498E+03   1.6034310E+03   1.7634161E+03   2.1532749E+03   2.8100056E+03   3.5112339E+03   3.7575505E+03   1.2221122E+03   1.2320082E+03   1.2826686E+03   1.4440657E+03   1.7723044E+03   2.1324556E+03   2.1812771E+03   1.7396193E+03   9.0074371E+02   9.1455652E+02   9.6434180E+02   1.0611654E+03   1.1716061E+03   1.1955765E+03   1.2188397E+03   8.8922644E+02   9.0077209E+02   9.3496777E+02   9.9611243E+02   1.1108180E+03   5.2814808E+01   5.3660683E+01   4.8832634E+01   3.5840065E+01   1.3903392E+01   1.4611712E+01   4.3134258E+01   6.8562531E+01   6.9861610E+01   6.3907349E+01   4.7449154E+01   1.9350233E+01   1.7625278E+01   5.5466167E+01   8.1625885E+01   8.2027840E+01   8.3885239E+01   7.7312637E+01   5.8313370E+01   2.5280458E+01   1.8873587E+01   6.5149139E+01   9.9417900E+01   9.2430420E+01   9.4957001E+01   8.8425079E+01   6.8086136E+01   3.1682224E+01   1.8053976E+01   7.1493950E+01   1.1282317E+02   1.0013994E+02   1.0337464E+02   9.7448837E+01   7.6862740E+01   3.8555622E+01   1.5295685E+01   7.4680077E+01   1.2226990E+02   1.0647518E+02   1.1026416E+02   1.0518229E+02   8.5091057E+01   4.6379650E+01   2.3030149E+01   8.7254181E+01   1.4620662E+02   1.1348533E+02   1.1751957E+02   1.1331614E+02   9.4549988E+01   6.5596939E+01   1.0233421E+02   2.1672594E+02   3.2603476E+02   1.2400719E+02   1.2827715E+02   1.2548400E+02   1.1217310E+02   1.3949858E+02   3.2065601E+02   6.1854724E+02   8.8499182E+02   1.4213658E+02   1.4765819E+02   1.4820580E+02   1.5454570E+02   3.0287817E+02   7.3701996E+02   1.4041315E+03   2.0164877E+03   1.7354613E+02   1.8292383E+02   1.9056064E+02   2.3225026E+02   5.3742310E+02   1.3193776E+03   2.5415085E+03   3.7242847E+03   2.2491417E+02   2.4245082E+02   2.6168692E+02   3.3368808E+02   7.6440509E+02   1.8747998E+03   3.6664717E+03   5.4427642E+03   3.0237671E+02   3.3357050E+02   3.6892642E+02   4.4649289E+02   8.8574445E+02   2.1256941E+03   4.2026367E+03   6.3348335E+03   4.0968713E+02   4.5998792E+02   5.1680676E+02   5.8664221E+02   8.9022784E+02   1.9461133E+03   3.8792043E+03   6.0282539E+03   5.4699445E+02   6.2012799E+02   7.0315155E+02   7.8053979E+02   9.2146790E+02   1.5301735E+03   2.9024919E+03   4.5353599E+03   7.1098962E+02   8.0777930E+02   9.1747565E+02   1.0202799E+03   1.1093376E+03   1.3349003E+03   2.0170391E+03   2.9507300E+03   8.9644000E+02   1.0151736E+03   1.1474014E+03   1.2760204E+03   1.3836023E+03   1.5084570E+03   1.8042163E+03   2.2310315E+03   1.0983562E+03   1.2362861E+03   1.3855631E+03   1.5307642E+03   1.6570442E+03   1.7783198E+03   1.9742230E+03   2.2199766E+03   1.3135505E+03   1.4682670E+03   1.6308938E+03   1.7854995E+03   1.9167964E+03   2.0276987E+03   2.1865667E+03   2.3802014E+03   1.5409445E+03   1.7114625E+03   1.8862838E+03   2.0486064E+03   2.1797761E+03   2.2729731E+03   2.4032424E+03   2.5764358E+03   1.7808875E+03   1.9677845E+03   2.1562280E+03   2.3283450E+03   2.4618755E+03   2.5416770E+03   2.6527458E+03   2.8211189E+03   2.0341802E+03   2.2386926E+03   2.4439563E+03   2.6306321E+03   2.7728267E+03   2.8481565E+03   2.9503662E+03   3.1247622E+03   2.3016626E+03   2.5239863E+03   2.7493652E+03   2.9564167E+03   3.1151572E+03   3.1976724E+03   3.3031272E+03   3.4919294E+03   2.5850430E+03   2.8221802E+03   3.0689011E+03   3.3007991E+03   3.4823833E+03   3.5835630E+03   3.7108999E+03   3.9244521E+03   2.8892397E+03   3.1329736E+03   3.3980403E+03   3.6552876E+03   3.8604177E+03   3.9860452E+03   4.1616743E+03   4.4233623E+03   3.2258621E+03   3.4619526E+03   3.7370168E+03   4.0142051E+03   4.2329229E+03   4.3729512E+03   4.6250220E+03   4.9730684E+03   3.6170774E+03   3.8272346E+03   4.1003027E+03   4.3870059E+03   4.5960801E+03   4.7100605E+03   5.0512192E+03   5.5360396E+03   4.0996816E+03   4.2682051E+03   4.5297500E+03   4.8156514E+03   4.9815088E+03   4.9900264E+03   5.3926899E+03   6.0566343E+03   4.7300166E+03   4.8545239E+03   5.1062251E+03   5.3874668E+03   5.4709688E+03   5.2589409E+03   5.6211782E+03   6.4680127E+03   5.5862671E+03   5.6866230E+03   5.9460767E+03   6.2288115E+03   6.1924185E+03   5.6324858E+03   5.7858369E+03   6.7394907E+03   6.7605483E+03   6.8767837E+03   7.1711816E+03   7.4599907E+03   7.2813047E+03   6.2986860E+03   6.0683247E+03   6.9567881E+03   8.3340488E+03   8.5075996E+03   8.8515811E+03   9.1289629E+03   8.7913613E+03   7.4966084E+03   6.8630781E+03   7.4595044E+03   1.0338720E+04   1.0586150E+04   1.0959134E+04   1.1172482E+04   1.0669543E+04   9.3418770E+03   8.8753428E+03   9.0316328E+03   1.2720080E+04   1.3009896E+04   1.3345344E+04   1.3415573E+04   1.2972620E+04   1.2465199E+04   1.2572154E+04   1.2382791E+04   1.5319513E+04   1.5564200E+04   1.5772119E+04   1.5755469E+04   1.5881906E+04   1.6684127E+04   1.7167398E+04   1.6739803E+04   1.7892301E+04   1.7967541E+04   1.7964543E+04   1.7934061E+04   1.8749477E+04   2.0092639E+04   2.0327625E+04   1.9533914E+04   2.0165117E+04   1.9958414E+04   1.9722451E+04   1.9758416E+04   2.0886453E+04   2.1953119E+04   2.1328127E+04   2.0197131E+04   2.1920686E+04   2.1389252E+04   2.0954955E+04   2.0970420E+04   2.1887451E+04   2.2228854E+04   2.0788510E+04   1.9579639E+04   2.3077133E+04   2.2228848E+04   2.1447293E+04   2.0996063E+04   2.1128816E+04   2.0729326E+04   2.0005480E+04   1.8857068E+04   2.3705428E+04   2.2665594E+04   2.1677459E+04   2.0905078E+04   2.0477563E+04   1.9665289E+04   2.0090535E+04   1.8808949E+04   2.3956693E+04   2.2868973E+04   2.1848693E+04   2.0985498E+04   2.0365545E+04   1.9586045E+04   2.0732703E+04   1.9341787E+04   2.3969367E+04   2.2941961E+04   2.2008748E+04   2.1239012E+04   2.0717779E+04   2.0173803E+04   2.1553748E+04   2.0057547E+04   2.3820100E+04   2.2906807E+04   2.2109139E+04   2.1526477E+04   2.1282908E+04   2.0979119E+04   2.2223492E+04   2.0630162E+04   2.3521285E+04   2.2727871E+04   2.2057008E+04   2.1631844E+04   2.1596639E+04   2.1341313E+04   2.2272344E+04   2.0604637E+04   2.3047684E+04   2.2353109E+04   2.1774814E+04   2.1445576E+04   2.1498666E+04   2.1169732E+04   2.1790820E+04   2.0099912E+04   2.2369195E+04   2.1747141E+04   2.1227836E+04   2.0943049E+04   2.0996203E+04   2.0581576E+04   2.0974670E+04   1.9344475E+04   2.1474299E+04   2.0904357E+04   2.0421010E+04   2.0128732E+04   2.0129529E+04   1.9698541E+04   1.9971965E+04   1.8505830E+04   2.0376488E+04   1.9845135E+04   1.9383051E+04   1.9037537E+04   1.8947939E+04   1.8571154E+04   1.8883873E+04   1.7653939E+04   1.9105379E+04   1.8603932E+04   1.8159973E+04   1.7788934E+04   1.7521322E+04   1.7231031E+04   1.7648398E+04   1.6746338E+04   1.7694193E+04   1.7214623E+04   1.6785738E+04   1.6451887E+04   1.6108860E+04   1.5720920E+04   1.6258328E+04   1.5662174E+04   1.6175672E+04   1.5710090E+04   1.5293827E+04   1.4991496E+04   1.4718404E+04   1.4152115E+04   1.4670043E+04   1.4273101E+04   1.4583014E+04   1.4130248E+04   1.3742399E+04   1.3464864E+04   1.3256773E+04   1.2583868E+04   1.2862072E+04   1.2554349E+04   1.2953745E+04   1.2532392E+04   1.2208208E+04   1.1994043E+04   1.1819076E+04   1.1055278E+04   1.0958489E+04   1.0542636E+04   1.1334496E+04   1.0982833E+04   1.0760015E+04   1.0659134E+04   1.0526938E+04   9.7377998E+03   9.1481836E+03   8.3576533E+03   9.7812842E+03   9.5461982E+03   9.4808232E+03   9.5538379E+03   9.5273203E+03   8.8118096E+03   7.9872007E+03   6.8892725E+03   8.3561348E+03   8.2852363E+03   8.4682637E+03   8.8469746E+03   8.9517129E+03   8.3517217E+03   7.2706953E+03   7.6040542E+03   7.1150981E+03   7.2824634E+03   7.8586572E+03   8.6276973E+03   8.8296123E+03   8.0621606E+03   6.0354453E+03   6.1316802E+03   6.6718076E+03   7.7241743E+03   8.7589482E+03   8.7564355E+03   7.3089019E+03   4.9215845E+03   5.5493794E+03   6.5726821E+03   7.9506104E+03   8.8669873E+03   8.0781387E+03   5.2759873E+03   5.5074136E+03   6.8566895E+03   8.1341846E+03   8.2509629E+03   6.1540176E+03   4.2474990E+03   5.8216704E+03   7.0973477E+03   7.6027681E+03   6.1843359E+03   3.4649370E+03   6.0198428E+03   6.5784780E+03   5.5718848E+03   3.0672642E+03   5.3085864E+03   4.5069082E+03   2.6034292E+03   4.7958442E+03   3.0582166E+03   1.9584790E+03   1.6462577E+03 
Vel 3 2975 float
  0.0000000E+00   0.0000000E+00   0.0000000E+00   0.0000000E+00   0.0000000E+00   0.0000000E+00   0.0000000E+00   0.0000000E+00   0.0000000E+00   0.0000000E+00   0.0000000E+00   0.0000000E+00   0.0000000E+00   0.0000000E+00   0.0000000E+00   0.0000000E+00   0.0000000E+00   0.0000000E+00   0.0000000E+00   0.0000000E+00   0.0000000E+00   0.0000000E+00   0.0000000E+00   0.0000000E+00   0.0000000E+00   0.0000000E+00   0.0000000E+00   0.0000000E+00   0.0000000E+00   0.0000000E+00   0.0000000E+00   0.0000000E+00   0.0000000E+00   0.0000000E+00   0.0000000E+00   0.0000000E+00   0.0000000E+00   0.0000000E+00   0.0000000E+00   0.0000000E+00   0.0000000E+00   0.0000000E+00   0.0000000E+00   0.0000000E+00   0.0000000E+00   0.0000000E+00   0.0000000E+00   0.0000000E+00   0.0000000E+00   0.0000000E+00   0.0000000E+00   0.0000000E+00   0.0000000E+00   0.0000000E+00   0.0000000E+00   0.0000000E+00   0.0000000E+00   0.0000000E+00   0.0000000E+00   0.0000000E+00   0.0000000E+00   0.0000000E+00   0.0000000E+00   0.0000000E+00   0.0000000E+00   0.0000000E+00   0.0000000E+00   0.0000000E+00   0.0000000E+00   0.0000000E+00   0.0000000E+00   0.0000000E+00   0.0000000E+00   0.0000000E+00   0.0000000E+00   0.0000000E+00   0.0000000E+00   0.0000000E+00   0.0000000E+00   0.0000000E+00   0.0000000E+00   0.0000000E+00   0.0000000E+00   0.0000000E+00   0.0000000E+00   0.0000000E+00   0.0000000E+00   0.0000000E+00   0.0000000E+00   0.0000000E+00   0.0000000E+00   0.0000000E+00   0.0000000E+00   0.0000000E+00   0.0000000E+00   0.0000000E+00   0.0000000E+00   0.0000000E+00   0.0000000E+00   0.0000000E+00   0.0000000E+00   0.0000000E+00   0.0000000E+00   0.0000000E+00   0.0000000E+00   0.0000000E+00   0.0000000E+00   0.0000000E+00   0.0000000E+00   0.0000000E+00   0.0000000E+00   0.0000000E+00   0.0000000E+00   0.0000000E+00   0.0000000E+00   0.0000000E+00   0.0000000E+00   0.0000000E+00   0.0000000E+00   0.0000000E+00   0.0000000E+00   0.0000000E+00   0.0000000E+00   0.0000000E+00   0.0000000E+00   0.0000000E+00   0.0000000E+00   0.0000000E+00   0.0000000E+00   0.0000000E+00   0.0000000E+00   0.0000000E+00   0.0000000E+00   0.0000000E+00   0.0000000E+00   0.0000000E+00   0.0000000E+00   0.0000000E+00   0.0000000E+00   0.0000000E+00   0.0000000E+00   0.0000000E+00   0.0000000E+00   0.0000000E+00   0.0000000E+00   0.0000000E+00   0.0000000E+00   0.0000000E+00   0.0000000E+00   0.0000000E+00   0.0000000E+00   0.0000000E+00   0.0000000E+00   0.0000000E+00   0.0000000E+00   0.0000000E+00   0.0000000E+00   0.0000000E+00   0.0000000E+00   0.0000000E+00   0.0000000E+00   0.0000000E+00   0.0000000E+00   0.0000000E+00   0.0000000E+00   0.0000000E+00   0.0000000E+00   0.0000000E+00   0.0000000E+00   0.0000000E+00   0.0000000E+00   0.0000000E+00   0.0000000E+00   0.0000000E+00   0.0000000E+00   0.0000000E+00   0.0000000E+00   0.0000000E+00   0.0000000E+00   0.0000000E+00   0.0000000E+00   0.0000000E+00   0.0000000E+00   0.0000000E+00   0.0000000E+00   0.0000000E+00   0.0000000E+00   0.0000000E+00   0.0000000E+00   0.0000000E+00   0.0000000E+00   0.0000000E+00   0.0000000E+00   0.0000000E+00   0.0000000E+00   0.0000000E+00   0.0000000E+00   0.0000000E+00   0.0000000E+00   0.0000000E+00   0.0000000E+00   0.0000000E+00   0.0000000E+00   0.0000000E+00   0.0000000E+00   0.0000000E+00   0.0000000E+00   0.0000000E+00   0.0000000E+00   0.0000000E+00   0.0000000E+00   0.0000000E+00   0.0000000E+00   0.0000000E+00   0.0000000E+00   0.0000000E+00   0.0000000E+00   0.0000000E+00   0.0000000E+00   0.0000000E+00   0.0000000E+00   0.0000000E+00   0.0000000E+00   0.0000000E+00   0.0000000E+00   0.0000000E+00   0.0000000E+00   0.0000000E+00   0.0000000E+00   0.0000000E+00   0.0000000E+00   0.0000000E+00   0.0000000E+00   0.0000000E+00   0.0000000E+00   0.0000000E+00   0.0000000E+00   0.0000000E+00   0.0000000E+00   0.0000000E+00   0.0000000E+00   0.0000000E+00   0.0000000E+00   0.0000000E+00   0.0000000E+00   0.0000000E+00   0.0000000E+00   0.0000000E+00   0.0000000E+00   0.0000000E+00   0.0000000E+00   0.0000000E+00   0.0000000E+00   0.0000000E+00   0.0000000E+00   0.0000000E+00   0.0000000E+00   0.0000000E+00   0.0000000E+00   0.0000000E+00   0.0000000E+00   0.0000000E+00   0.0000000E+00   0.0000000E+00   0.0000000E+00   0.0000000E+00   0.0000000E+00   0.0000000E+00   0.0000000E+00   0.0000000E+00   0.0000000E+00   0.0000000E+00   0.0000000E+00   0.0000000E+00   0.0000000E+00   0.0000000E+00   0.0000000E+00   0.0000000E+00   0.0000000E+00   0.0000000E+00   0.0000000E+00   0.0000000E+00   0.0000000E+00   0.0000000E+00   0.0000000E+00   0.0000000E+00   0.0000000E+00   0.0000000E+00   0.0000000E+00   0.0000000E+00   0.0000000E+00   0.0000000E+00   0.0000000E+00   0.0000000E+00   0.0000000E+00   0.0000000E+00   0.0000000E+00   0.0000000E+00   0.0000000E+00   0.0000000E+00   0.0000000E+00   0.0000000E+00   0.0000000E+00   0.0000000E+00   0.0000000E+00   0.0000000E+00   0.0000000E+00   0.0000000E+00   0.0000000E+00   0.0000000E+00   0.0000000E+00   0.0000000E+00   0.0000000E+00   0.0000000E+00   0.0000000E+00   0.0000000E+00   0.0000000E+00   0.0000000E+00   0.0000000E+00   0.0000000E+00   0.0000000E+00   0.0000000E+00   0.0000000E+00   0.0000000E+00   0.0000000E+00   0.0000000E+00   0.0000000E+00   0.0000000E+00   0.0000000E+00   0.0000000E+00   0.0000000E+00   0.0000000E+00   0.0000000E+00   0.0000000E+00   0.0000000E+00   0.0000000E+00   0.0000000E+00   0.0000000E+00   0.0000000E+00   0.0000000E+00   0.0000000E+00   0.0000000E+00   0.0000000E+00   0.0000000E+00   0.0000000E+00   0.0000000E+00   0.0000000E+00   0.0000000E+00   0.0000000E+00   0.0000000E+00   0.0000000E+00   0.0000000E+00   0.0000000E+00   0.0000000E+00   0.0000000E+00   0.0000000E+00   0.0000000E+00   0.0000000E+00   0.0000000E+00   0.0000000E+00   0.0000000E+00   0.0000000E+00   0.0000000E+00   0.0000000E+00   0.0000000E+00   0.0000000E+00   0.0000000E+00   0.0000000E+00   0.0000000E+00   0.0000000E+00   0.0000000E+00   0.0000000E+00   0.0000000E+00   0.0000000E+00   0.0000000E+00   0.0000000E+00   0.0000000E+00   0.0000000E+00   0.0000000E+00   0.0000000E+00   0.0000000E+00   0.0000000E+00   0.0000000E+00   0.0000000E+00   0.0000000E+00   0.0000000E+00   0.0000000E+00   0.0000000E+00   0.0000000E+00   0.0000000E+00   0.0000000E+00   0.0000000E+00   0.0000000E+00   0.0000000E+00   0.0000000E+00   0.0000000E+00   0.0000000E+00   0.0000000E+00   0.0000000E+00   0.0000000E+00   0.0000000E+00   0.0000000E+00   0.0000000E+00   0.0000000E+00   0.0000000E+00   0.0000000E+00   0.0000000E+00   0.0000000E+00   0.0000000E+00   0.0000000E+00   0.0000000E+00   0.0000000E+00   0.0000000E+00   0.0000000E+00   0.0000000E+00   0.0000000E+00   0.0000000E+00   0.0000000E+00   0.0000000E+00   0.0000000E+00   0.0000000E+00   0.0000000E+00   0.0000000E+00   0.0000000E+00   0.0000000E+00   0.0000000E+00   0.0000000E+00   0.0000000E+00   0.0000000E+00   0.0000000E+00   0.0000000E+00   0.0000000E+00   0.0000000E+00   0.0000000E+00   0.0000000E+00   0.0000000E+00   0.0000000E+00   0.0000000E+00   0.0000000E+00   0.0000000E+00   0.0000000E+00   0.0000000E+00   0.0000000E+00   0.0000000E+00   0.0000000E+00   0.0000000E+00   0.0000000E+00   0.0000000E+00   0.0000000E+00   0.0000000E+00   0.0000000E+00   0.0000000E+00   0.0000000E+00   0.0000000E+00   0.0000000E+00   0.0000000E+00   0.0000000E+00   0.0000000E+00   0.0000000E+00   0.0000000E+00   0.0000000E+00   0.0000000E+00   0.0000000E+00   0.0000000E+00   0.0000000E+00   0.0000000E+00   0.0000000E+00   0.0000000E+00   0.0000000E+00   0.0000000E+00   0.0000000E+00   0.0000000E+00   0.0000000E+00   0.0000000E+00   0.0000000E+00   0.0000000E+00   0.0000000E+00   0.0000000E+00   0.0000000E+00   0.0000000E+00   0.0000000E+00   0.0000000E+00   0.0000000E+00   0.0000000E+00   0.0000000E+00   0.0000000E+00   0.0000000E+00   0.0000000E+00   0.0000000E+00   0.0000000E+00   0.0000000E+00   0.0000000E+00   0.0000000E+00   0.0000000E+00   0.0000000E+00   0.0000000E+00   0.0000000E+00   0.0000000E+00   0.0000000E+00   0.0000000E+00   0.0000000E+00   0.0000000E+00   0.0000000E+00   0.0000000E+00   0.0000000E+00   0.0000000E+00   0.0000000E+00   0.0000000E+00   0.0000000E+00   0.0000000E+00   0.0000000E+00   0.0000000E+00   0.0000000E+00   0.0000000E+00   0.0000000E+00   0.0000000E+00   0.0000000E+00   0.0000000E+00   0.0000000E+00   0.0000000E+00   0.0000000E+00   0.0000000E+00   0.0000000E+00   0.0000000E+00   0.0000000E+00   0.0000000E+00   0.0000000E+00   0.0000000E+00   0.0000000E+00   0.0000000E+00   0.0000000E+00   0.0000000E+00   0.0000000E+00   0.0000000E+00   0.0000000E+00   0.0000000E+00   0.0000000E+00   0.0000000E+00   0.0000000E+00   0.0000000E+00   0.0000000E+00   0.0000000E+00   0.0000000E+00   0.0000000E+00   0.0000000E+00   0.0000000E+00   0.0000000E+00   0.0000000E+00   0.0000000E+00   0.0000000E+00   0.0000000E+00   0.0000000E+00   0.0000000E+00   0.0000000E+00   0.0000000E+00   0.0000000E+00   0.0000000E+00   0.0000000E+00   0.0000000E+00   0.0000000E+00   0.0000000E+00   0.0000000E+00   0.0000000E+00   0.0000000E+00   0.0000000E+00   0.0000000E+00   0.0000000E+00   0.0000000E+00   0.0000000E+00   0.0000000E+00   0.0000000E+00   0.0000000E+00   0.0000000E+00   0.0000000E+00   0.0000000E+00   0.0000000E+00   0.0000000E+00   0.0000000E+00   0.0000000E+00   0.0000000E+00   0.0000000E+00   0.0000000E+00   0.0000000E+00   0.0000000E+00   0.0000000E+00   0.0000000E+00   0.0000000E+00   0.0000000E+00   0.0000000E+00   0.0000000E+00   0.0000000E+00   0.0000000E+00   0.0000000E+00   0.0000000E+00   0.0000000E+00   0.0000000E+00   0.0000000E+00   0.0000000E+00   0.0000000E+00   0.0000000E+00   0.0000000E+00   0.0000000E+00   0.0000000E+00   0.0000000E+00   0.0000000E+00   0.0000000E+00   0.0000000E+00   0.0000000E+00   0.0000000E+00   0.0000000E+00   0.0000000E+00   0.0000000E+00   0.0000000E+00   0.0000000E+00   0.0000000E+00   0.0000000E+00   0.0000000E+00   0.0000000E+00   0.0000000E+00   0.0000000E+00   0.0000000E+00   0.0000000E+00   0.0000000E+00   0.0000000E+00   0.0000000E+00   0.0000000E+00   0.0000000E+00   0.0000000E+00   0.0000000E+00   0.0000000E+00   0.0000000E+00   0.0000000E+00   0.0000000E+00   0.0000000E+00   0.0000000E+00   0.0000000E+00   0.0000000E+00   0.0000000E+00   0.0000000E+00   0.0000000E+00   0.0000000E+00   0.0000000E+00   0.0000000E+00   0.0000000E+00   0.0000000E+00   0.0000000E+00   0.0000000E+00   0.0000000E+00   0.0000000E+00   0.0000000E+00   0.0000000E+00   0.0000000E+00   0.0000000E+00   0.0000000E+00   0.0000000E+00   0.0000000E+00   0.0000000E+00   0.0000000E+00   0.0000000E+00   0.0000000E+00   0.0000000E+00   0.0000000E+00   0.0000000E+00   0.0000000E+00   0.0000000E+00   0.0000000E+00   0.0000000E+00   0.0000000E+00   0.0000000E+00   0.0000000E+00   0.0000000E+00   0.0000000E+00   0.0000000E+00   0.0000000E+00   0.0000000E+00   0.0000000E+00   0.0000000E+00   0.0000000E+00   0.0000000E+00   0.0000000E+00   0.0000000E+00   0.0000000E+00   0.0000000E+00   0.0000000E+00   0.0000000E+00   0.0000000E+00   0.0000000E+00   0.0000000E+00   0.0000000E+00   0.0000000E+00   0.0000000E+00   0.0000000E+00   0.0000000E+00   0.0000000E+00   0.0000000E+00   0.0000000E+00   0.0000000E+00   0.0000000E+00   0.0000000E+00   0.0000000E+00   0.0000000E+00   0.0000000E+00   0.0000000E+00   0.0000000E+00   0.0000000E+00   0.0000000E+00   0.0000000E+00   0.0000000E+00   0.0000000E+00   0.0000000E+00   0.0000000E+00   0.0000000E+00   0.0000000E+00   0.0000000E+00   0.0000000E+00   0.0000000E+00   0.0000000E+00   0.0000000E+00   0.0000000E+00   0.0000000E+00   0.0000000E+00   0.0000000E+00   0.0000000E+00   0.0000000E+00   0.0000000E+00   0.0000000E+00   0.0000000E+00   0.0000000E+00   0.0000000E+00   0.0000000E+00   0.0000000E+00   0.0000000E+00   0.0000000E+00   0.0000000E+00   0.0000000E+00   0.0000000E+00   0.0000000E+00   0.0000000E+00   0.0000000E+00   0.0000000E+00   0.0000000E+00   0.0000000E+00   0.0000000E+00   0.0000000E+00   0.0000000E+00   0.0000000E+00   0.0000000E+00   0.0000000E+00   0.0000000E+00   0.0000000E+00   0.0000000E+00   0.0000000E+00   0.0000000E+00   0.0000000E+00   0.0000000E+00   0.0000000E+00   0.0000000E+00   0.0000000E+00   0.0000000E+00   0.0000000E+00   0.0000000E+00   0.0000000E+00   0.0000000E+00   0.0000000E+00   0.0000000E+00   0.0000000E+00   0.0000000E+00   0.0000000E+00   0.0000000E+00   0.0000000E+00   0.0000000E+00   0.0000000E+00   0.0000000E+00   0.0000000E+00   0.0000000E+00   0.0000000E+00   0.0000000E+00   0.0000000E+00   0.0000000E+00   0.0000000E+00   0.0000000E+00   0.0000000E+00   0.0000000E+00   0.0000000E+00   0.0000000E+00   0.0000000E+00   0.0000000E+00   0.0000000E+00   0.0000000E+00   0.0000000E+00   0.0000000E+00   0.0000000E+00   0.0000000E+00   0.0000000E+00   0.0000000E+00   0.0000000E+00   0.0000000E+00   0.0000000E+00   0.0000000E+00   0.0000000E+00   0.0000000E+00   0.0000000E+00   0.0000000E+00   0.0000000E+00   0.0000000E+00   0.0000000E+00   0.0000000E+00   0.0000000E+00   0.0000000E+00   0.0000000E+00   0.0000000E+00   0.0000000E+00   0.0000000E+00   0.0000000E+00   0.0000000E+00   0.0000000E+00   0.0000000E+00   0.0000000E+00   0.0000000E+00   0.0000000E+00   0.0000000E+00   0.0000000E+00   0.0000000E+00   0.0000000E+00   0.0000000E+00   0.0000000E+00   0.0000000E+00   0.0000000E+00   0.0000000E+00   0.0000000E+00   0.0000000E+00   0.0000000E+00   0.0000000E+00   0.0000000E+00   0.0000000E+00   0.0000000E+00   0.0000000E+00   0.0000000E+00   0.0000000E+00   0.0000000E+00   0.0000000E+00   0.0000000E+00   0.0000000E+00   0.0000000E+00   0.0000000E+00   0.0000000E+00   0.0000000E+00   0.0000000E+00   0.0000000E+00   0.0000000E+00   0.0000000E+00   0.0000000E+00   0.0000000E+00   0.0000000E+00   0.0000000E+00   0.0000000E+00   0.0000000E+00   0.0000000E+00   0.0000000E+00   0.0000000E+00   0.0000000E+00   0.0000000E+00   0.0000000E+00   0.0000000E+00   0.0000000E+00   0.0000000E+00   0.0000000E+00   0.0000000E+00   0.0000000E+00   0.0000000E+00   0.0000000E+00   0.0000000E+00   0.0000000E+00   0.0000000E+00   0.0000000E+00   0.0000000E+00   0.0000000E+00   0.0000000E+00   0.0000000E+00   0.0000000E+00   0.0000000E+00   0.0000000E+00   0.0000000E+00   0.0000000E+00   0.0000000E+00   0.0000000E+00   0.0000000E+00   0.0000000E+00   0.0000000E+00   0.0000000E+00   0.0000000E+00   0.0000000E+00   0.0000000E+00   0.0000000E+00   0.0000000E+00   0.0000000E+00   0.0000000E+00   0.0000000E+00   0.0000000E+00   0.0000000E+00   0.0000000E+00   0.0000000E+00   0.0000000E+00   0.0000000E+00   0.0000000E+00   0.0000000E+00   0.0000000E+00   0.0000000E+00   0.0000000E+00   0.0000000E+00   0.0000000E+00   0.0000000E+00   0.0000000E+00   0.0000000E+00   0.0000000E+00   0.0000000E+00   0.0000000E+00   0.0000000E+00   0.0000000E+00   0.0000000E+00   0.0000000E+00   0.0000000E+00   0.0000000E+00   0.0000000E+00   0.0000000E+00   0.0000000E+00   0.0000000E+00   0.0000000E+00   0.0000000E+00   0.0000000E+00   0.0000000E+00   0.0000000E+00   0.0000000E+00   0.0000000E+00   0.0000000E+00   0.0000000E+00   0.0000000E+00   0.0000000E+00   0.0000000E+00   0.0000000E+00   0.0000000E+00   0.0000000E+00   0.0000000E+00   0.0000000E+00   0.0000000E+00   0.0000000E+00   0.0000000E+00   0.0000000E+00   0.0000000E+00   0.0000000E+00   0.0000000E+00   0.0000000E+00   0.0000000E+00   0.0000000E+00   0.0000000E+00   0.0000000E+00   0.0000000E+00   0.0000000E+00   0.0000000E+00   0.0000000E+00   0.0000000E+00   0.0000000E+00   0.0000000E+00   0.0000000E+00   0.0000000E+00   0.0000000E+00   0.0000000E+00   0.0000000E+00   0.0000000E+00   0.0000000E+00   0.0000000E+00   0.0000000E+00   0.0000000E+00   0.0000000E+00   0.0000000E+00   0.0000000E+00   0.0000000E+00   0.0000000E+00   0.0000000E+00   0.0000000E+00   0.0000000E+00   0.0000000E+00   0.0000000E+00   0.0000000E+00   0.0000000E+00   0.0000000E+00   0.0000000E+00   0.0000000E+00   0.0000000E+00   0.0000000E+00   0.0000000E+00   0.0000000E+00   0.0000000E+00   0.0000000E+00   0.0000000E+00   0.0000000E+00   0.0000000E+00   0.0000000E+00   0.0000000E+00   0.0000000E+00   0.0000000E+00   0.0000000E+00   0.0000000E+00   0.0000000E+00   0.0000000E+00   0.0000000E+00   0.0000000E+00   0.0000000E+00   0.0000000E+00   0.0000000E+00   0.0000000E+00   0.0000000E+00   0.0000000E+00   0.0000000E+00   0.0000000E+00   0.0000000E+00   0.0000000E+00   0.0000000E+00   0.0000000E+00   0.0000000E+00   0.0000000E+00   0.0000000E+00   0.0000000E+00   0.0000000E+00   0.0000000E+00   0.0000000E+00   0.0000000E+00   0.0000000E+00   0.0000000E+00   0.0000000E+00   0.0000000E+00   0.0000000E+00   0.0000000E+00   0.0000000E+00   0.0000000E+00   0.0000000E+00   0.0000000E+00   0.0000000E+00   0.0000000E+00   0.0000000E+00   0.0000000E+00   0.0000000E+00   0.0000000E+00   0.0000000E+00   0.0000000E+00   0.0000000E+00   0.0000000E+00   0.0000000E+00   0.0000000E+00   0.0000000E+00   0.0000000E+00   0.0000000E+00   0.0000000E+00   0.0000000E+00   0.0000000E+00   0.0000000E+00   0.0000000E+00   0.0000000E+00   0.0000000E+00   0.0000000E+00   0.0000000E+00   0.0000000E+00   0.0000000E+00   0.0000000E+00   0.0000000E+00   0.0000000E+00   0.0000000E+00   0.0000000E+00   0.0000000E+00   0.0000000E+00   0.0000000E+00   0.0000000E+00   0.0000000E+00   0.0000000E+00   0.0000000E+00   0.0000000E+00   0.0000000E+00   0.0000000E+00   0.0000000E+00   0.0000000E+00   0.0000000E+00   0.0000000E+00   0.0000000E+00   0.0000000E+00   0.0000000E+00   0.0000000E+00   0.0000000E+00   0.0000000E+00   0.0000000E+00   0.0000000E+00   0.0000000E+00   0.0000000E+00   0.0000000E+00   0.0000000E+00   0.0000000E+00   0.0000000E+00   0.0000000E+00   0.0000000E+00   0.0000000E+00   0.0000000E+00   0.0000000E+00   0.0000000E+00   0.0000000E+00   0.0000000E+00   0.0000000E+00   0.0000000E+00   0.0000000E+00   0.0000000E+00   0.0000000E+00   0.0000000E+00   0.0000000E+00   0.0000000E+00   0.0000000E+00   0.0000000E+00   0.0000000E+00   0.0000000E+00   0.0000000E+00   0.0000000E+00   0.0000000E+00   0.0000000E+00   0.0000000E+00   0.0000000E+00   0.0000000E+00   0.0000000E+00   0.0000000E+00   0.0000000E+00   0.0000000E+00   0.0000000E+00   0.0000000E+00   0.0000000E+00   0.0000000E+00   0.0000000E+00   0.0000000E+00   0.0000000E+00   0.0000000E+00   0.0000000E+00   0.0000000E+00   0.0000000E+00   0.0000000E+00   0.0000000E+00   0.0000000E+00   0.0000000E+00   0.0000000E+00   0.0000000E+00   0.0000000E+00   0.0000000E+00   0.0000000E+00   0.0000000E+00   0.0000000E+00   0.0000000E+00   0.0000000E+00   0.0000000E+00   0.0000000E+00   0.0000000E+00   0.0000000E+00   0.0000000E+00   0.0000000E+00   0.0000000E+00   0.0000000E+00   0.0000000E+00   0.0000000E+00   0.0000000E+00   0.0000000E+00   0.0000000E+00   0.0000000E+00   0.0000000E+00   0.0000000E+00   0.0000000E+00   0.0000000E+00   0.0000000E+00   0.0000000E+00   0.0000000E+00   0.0000000E+00   0.0000000E+00   0.0000000E+00   0.0000000E+00   0.0000000E+00   0.0000000E+00   0.0000000E+00   0.0000000E+00   0.0000000E+00   0.0000000E+00   0.0000000E+00   0.0000000E+00   0.0000000E+00   0.0000000E+00   0.0000000E+00   0.0000000E+00   0.0000000E+00   0.0000000E+00   0.0000000E+00   0.0000000E+00   0.0000000E+00   0.0000000E+00   0.0000000E+00   0.0000000E+00   0.0000000E+00   0.0000000E+00   0.0000000E+00   0.0000000E+00   0.0000000E+00   0.0000000E+00   0.0000000E+00   0.0000000E+00   0.0000000E+00   0.0000000E+00   0.0000000E+00   0.0000000E+00   0.0000000E+00   0.0000000E+00   0.0000000E+00   0.0000000E+00   0.0000000E+00   0.0000000E+00   0.0000000E+00   0.0000000E+00   0.0000000E+00   0.0000000E+00   0.0000000E+00   0.0000000E+00   0.0000000E+00   0.0000000E+00   0.0000000E+00   0.0000000E+00   0.0000000E+00   0.0000000E+00   0.0000000E+00   0.0000000E+00   0.0000000E+00   0.0000000E+00   0.0000000E+00   0.0000000E+00   0.0000000E+00   0.0000000E+00   0.0000000E+00   0.0000000E+00   0.0000000E+00   0.0000000E+00   0.0000000E+00   0.0000000E+00   0.0000000E+00   0.0000000E+00   0.0000000E+00   0.0000000E+00   0.0000000E+00   0.0000000E+00   0.0000000E+00   0.0000000E+00   0.0000000E+00   0.0000000E+00   0.0000000E+00   0.0000000E+00   0.0000000E+00   0.0000000E+00   0.0000000E+00   0.0000000E+00   0.0000000E+00   0.0000000E+00   0.0000000E+00   0.0000000E+00   0.0000000E+00   0.0000000E+00   0.0000000E+00   0.0000000E+00   0.0000000E+00   0.0000000E+00   0.0000000E+00   0.0000000E+00   0.0000000E+00   0.0000000E+00   0.0000000E+00   0.0000000E+00   0.0000000E+00   0.0000000E+00   0.0000000E+00   0.0000000E+00   0.0000000E+00   0.0000000E+00   0.0000000E+00   0.0000000E+00   0.0000000E+00   0.0000000E+00   0.0000000E+00   0.0000000E+00   0.0000000E+00   0.0000000E+00   0.0000000E+00   0.0000000E+00   0.0000000E+00   0.0000000E+00   0.0000000E+00   0.0000000E+00   0.0000000E+00   0.0000000E+00   0.0000000E+00   0.0000000E+00   0.0000000E+00   0.0000000E+00   0.0000000E+00   0.0000000E+00   0.0000000E+00   0.0000000E+00   0.0000000E+00   0.0000000E+00   0.0000000E+00   0.0000000E+00   0.0000000E+00   0.0000000E+00   0.0000000E+00   0.0000000E+00   0.0000000E+00   0.0000000E+00   0.0000000E+00   0.0000000E+00   0.0000000E+00   0.0000000E+00   0.0000000E+00   0.0000000E+00   0.0000000E+00   0.0000000E+00   0.0000000E+00   0.0000000E+00   0.0000000E+00   0.0000000E+00   0.0000000E+00   0.0000000E+00   0.0000000E+00   0.0000000E+00   0.0000000E+00   0.0000000E+00   0.0000000E+00   0.0000000E+00   0.0000000E+00   0.0000000E+00   0.0000000E+00   0.0000000E+00   0.0000000E+00   0.0000000E+00   0.0000000E+00   0.0000000E+00   0.0000000E+00   0.0000000E+00   0.0000000E+00   0.0000000E+00   0.0000000E+00   0.0000000E+00   0.0000000E+00   0.0000000E+00   0.0000000E+00   0.0000000E+00   0.0000000E+00   0.0000000E+00   0.0000000E+00   0.0000000E+00   0.0000000E+00   0.0000000E+00   0.0000000E+00   0.0000000E+00   0.0000000E+00   0.0000000E+00   0.0000000E+00   0.0000000E+00   0.0000000E+00   0.0000000E+00   0.0000000E+00   0.0000000E+00   0.0000000E+00   0.0000000E+00   0.0000000E+00   0.0000000E+00   0.0000000E+00   0.0000000E+00   0.0000000E+00   0.0000000E+00   0.0000000E+00   0.0000000E+00   0.0000000E+00   0.0000000E+00   0.0000000E+00   0.0000000E+00   0.0000000E+00   0.0000000E+00   0.0000000E+00   0.0000000E+00   0.0000000E+00   0.0000000E+00   0.0000000E+00   0.0000000E+00   0.0000000E+00   0.0000000E+00   0.0000000E+00   0.0000000E+00   0.0000000E+00   0.0000000E+00   0.0000000E+00   0.0000000E+00   0.0000000E+00   0.0000000E+00   0.0000000E+00   0.0000000E+00   0.0000000E+00   0.0000000E+00   0.0000000E+00   0.0000000E+00   0.0000000E+00   0.0000000E+00   0.0000000E+00   0.0000000E+00   0.0000000E+00   0.0000000E+00   0.0000000E+00   0.0000000E+00   0.0000000E+00   0.0000000E+00   0.0000000E+00   0.0000000E+00   0.0000000E+00   0.0000000E+00   0.0000000E+00   0.0000000E+00   0.0000000E+00   0.0000000E+00   0.0000000E+00   0.0000000E+00   0.0000000E+00   0.0000000E+00   0.0000000E+00   0.0000000E+00   0.0000000E+00   0.0000000E+00   0.0000000E+00   0.0000000E+00   0.0000000E+00   0.0000000E+00   0.0000000E+00   0.0000000E+00   0.0000000E+00   0.0000000E+00   0.0000000E+00   0.0000000E+00   0.0000000E+00   0.0000000E+00   0.0000000E+00   0.0000000E+00   0.0000000E+00   0.0000000E+00   0.0000000E+00   0.0000000E+00   0.0000000E+00   0.0000000E+00   0.0000000E+00   0.0000000E+00   0.0000000E+00   0.0000000E+00   0.0000000E+00   0.0000000E+00   0.0000000E+00   0.0000000E+00   0.0000000E+00   0.0000000E+00   0.0000000E+00   0.0000000E+00   0.0000000E+00   0.0000000E+00   0.0000000E+00   0.0000000E+00   0.0000000E+00   0.0000000E+00   0.0000000E+00   0.0000000E+00   0.0000000E+00   0.0000000E+00   0.0000000E+00   0.0000000E+00   0.0000000E+00   0.0000000E+00   0.0000000E+00   0.0000000E+00   0.0000000E+00   0.0000000E+00   0.0000000E+00   0.0000000E+00   0.0000000E+00   0.0000000E+00   0.0000000E+00   0.0000000E+00   0.0000000E+00   0.0000000E+00   0.0000000E+00   0.0000000E+00   0.0000000E+00   0.0000000E+00   0.0000000E+00   0.0000000E+00   0.0000000E+00   0.0000000E+00   0.0000000E+00   0.0000000E+00   0.0000000E+00   0.0000000E+00   0.0000000E+00   0.0000000E+00   0.0000000E+00   0.0000000E+00   0.0000000E+00   0.0000000E+00   0.0000000E+00   0.0000000E+00   0.0000000E+00   0.0000000E+00   0.0000000E+00   0.0000000E+00   0.0000000E+00   0.0000000E+00   0.0000000E+00   0.0000000E+00   0.0000000E+00   0.0000000E+00   0.0000000E+00   0.0000000E+00   0.0000000E+00   0.0000000E+00   0.0000000E+00   0.0000000E+00   0.0000000E+00   0.0000000E+00   0.0000000E+00   0.0000000E+00   0.0000000E+00   0.0000000E+00   0.0000000E+00   0.0000000E+00   0.0000000E+00   0.0000000E+00   0.0000000E+00   0.0000000E+00   0.0000000E+00   0.0000000E+00   0.0000000E+00   0.0000000E+00   0.0000000E+00   0.0000000E+00   0.0000000E+00   0.0000000E+00   0.0000000E+00   0.0000000E+00   0.0000000E+00   0.0000000E+00   0.0000000E+00   0.0000000E+00   0.0000000E+00   0.0000000E+00   0.0000000E+00   0.0000000E+00   0.0000000E+00   0.0000000E+00   0.0000000E+00   0.0000000E+00   0.0000000E+00   0.0000000E+00   0.0000000E+00   0.0000000E+00   0.0000000E+00   0.0000000E+00   0.0000000E+00   0.0000000E+00   0.0000000E+00   0.0000000E+00   0.0000000E+00   0.0000000E+00   0.0000000E+00   0.0000000E+00   0.0000000E+00   0.0000000E+00   0.0000000E+00   0.0000000E+00   0.0000000E+00   0.0000000E+00   0.0000000E+00   0.0000000E+00   0.0000000E+00   0.0000000E+00   0.0000000E+00   0.0000000E+00   0.0000000E+00   0.0000000E+00   0.0000000E+00   0.0000000E+00   0.0000000E+00   0.0000000E+00   0.0000000E+00   0.0000000E+00   0.0000000E+00   0.0000000E+00   0.0000000E+00   0.0000000E+00   0.0000000E+00   0.0000000E+00   0.0000000E+00   0.0000000E+00   0.0000000E+00   0.0000000E+00   0.0000000E+00   0.0000000E+00   0.0000000E+00   0.0000000E+00   0.0000000E+00   0.0000000E+00   0.0000000E+00   0.0000000E+00   0.0000000E+00   0.0000000E+00   0.0000000E+00   0.0000000E+00   0.0000000E+00   0.0000000E+00   0.0000000E+00   0.0000000E+00   0.0000000E+00   0.0000000E+00   0.0000000E+00   0.0000000E+00   0.0000000E+00   0.0000000E+00   0.0000000E+00   0.0000000E+00   0.0000000E+00   0.0000000E+00   0.0000000E+00   0.0000000E+00   0.0000000E+00   0.0000000E+00   0.0000000E+00   0.0000000E+00   0.0000000E+00   0.0000000E+00   0.0000000E+00   0.0000000E+00   0.0000000E+00   0.0000000E+00   0.0000000E+00   0.0000000E+00   0.0000000E+00   0.0000000E+00   0.0000000E+00   0.0000000E+00   0.0000000E+00   0.0000000E+00   0.0000000E+00   0.0000000E+00   0.0000000E+00   0.0000000E+00   0.0000000E+00   0.0000000E+00   0.0000000E+00   0.0000000E+00   0.0000000E+00   0.0000000E+00   0.0000000E+00   0.0000000E+00   0.0000000E+00   0.0000000E+00   0.0000000E+00   0.0000000E+00   0.0000000E+00   0.0000000E+00   0.0000000E+00   0.0000000E+00   0.0000000E+00   0.0000000E+00   0.0000000E+00   0.0000000E+00   0.0000000E+00   0.0000000E+00   0.0000000E+00   0.0000000E+00   0.0000000E+00   0.0000000E+00   0.0000000E+00   0.0000000E+00   0.0000000E+00   0.0000000E+00   0.0000000E+00   0.0000000E+00   0.0000000E+00   0.0000000E+00   0.0000000E+00   0.0000000E+00   0.0000000E+00   0.0000000E+00   0.0000000E+00   0.0000000E+00   0.0000000E+00   0.0000000E+00   0.0000000E+00   0.0000000E+00   0.0000000E+00   0.0000000E+00   0.0000000E+00   0.0000000E+00   0.0000000E+00   0.0000000E+00   0.0000000E+00   0.0000000E+00   0.0000000E+00   0.0000000E+00   0.0000000E+00   0.0000000E+00   0.0000000E+00   0.0000000E+00   0.0000000E+00   0.0000000E+00   0.0000000E+00   0.0000000E+00   0.0000000E+00   0.0000000E+00   0.0000000E+00   0.0000000E+00   0.0000000E+00   0.0000000E+00   0.0000000E+00   0.0000000E+00   0.0000000E+00   0.0000000E+00   0.0000000E+00   0.0000000E+00   0.0000000E+00   0.0000000E+00   0.0000000E+00   0.0000000E+00   0.0000000E+00   0.0000000E+00   0.0000000E+00   0.0000000E+00   0.0000000E+00   0.0000000E+00   0.0000000E+00   0.0000000E+00   0.0000000E+00   0.0000000E+00   0.0000000E+00   0.0000000E+00   0.0000000E+00   0.0000000E+00   0.0000000E+00   0.0000000E+00   0.0000000E+00   0.0000000E+00   0.0000000E+00   0.0000000E+00   0.0000000E+00   0.0000000E+00   0.0000000E+00   0.0000000E+00   0.0000000E+00   0.0000000E+00   0.0000000E+00   0.0000000E+00   0.0000000E+00   0.0000000E+00   0.0000000E+00   0.0000000E+00   0.0000000E+00   0.0000000E+00   0.0000000E+00   0.0000000E+00   0.0000000E+00   0.0000000E+00   0.0000000E+00   0.0000000E+00   0.0000000E+00   0.0000000E+00   0.0000000E+00   0.0000000E+00   0.0000000E+00   0.0000000E+00   0.0000000E+00   0.0000000E+00   0.0000000E+00   0.0000000E+00   0.0000000E+00   0.0000000E+00   0.0000000E+00   0.0000000E+00   0.0000000E+00   0.0000000E+00   0.0000000E+00   0.0000000E+00   0.0000000E+00   0.0000000E+00   0.0000000E+00   0.0000000E+00   0.0000000E+00   0.0000000E+00   0.0000000E+00   0.0000000E+00   0.0000000E+00   0.0000000E+00   0.0000000E+00   0.0000000E+00   0.0000000E+00   0.0000000E+00   0.0000000E+00   0.0000000E+00   0.0000000E+00   0.0000000E+00   0.0000000E+00   0.0000000E+00   0.0000000E+00   0.0000000E+00   0.0000000E+00   0.0000000E+00   0.0000000E+00   0.0000000E+00   0.0000000E+00   0.0000000E+00   0.0000000E+00   0.0000000E+00   0.0000000E+00   0.0000000E+00   0.0000000E+00   0.0000000E+00   0.0000000E+00   0.0000000E+00   0.0000000E+00   0.0000000E+00   0.0000000E+00   0.0000000E+00   0.0000000E+00   0.0000000E+00   0.0000000E+00   0.0000000E+00   0.0000000E+00   0.0000000E+00   0.0000000E+00   0.0000000E+00   0.0000000E+00   0.0000000E+00   0.0000000E+00   0.0000000E+00   0.0000000E+00   0.0000000E+00   0.0000000E+00   0.0000000E+00   0.0000000E+00   0.0000000E+00   0.0000000E+00   0.0000000E+00   0.0000000E+00   0.0000000E+00   0.0000000E+00   0.0000000E+00   0.0000000E+00   0.0000000E+00   0.0000000E+00   0.0000000E+00   0.0000000E+00   0.0000000E+00   0.0000000E+00   0.0000000E+00   0.0000000E+00   0.0000000E+00   0.0000000E+00   0.0000000E+00   0.0000000E+00   0.0000000E+00   0.0000000E+00   0.0000000E+00   0.0000000E+00   0.0000000E+00   0.0000000E+00   0.0000000E+00   0.0000000E+00   0.0000000E+00   0.0000000E+00   0.0000000E+00   0.0000000E+00   0.0000000E+00   0.0000000E+00   0.0000000E+00   0.0000000E+00   0.0000000E+00   0.0000000E+00   0.0000000E+00   0.0000000E+00   0.0000000E+00   0.0000000E+00   0.0000000E+00   0.0000000E+00   0.0000000E+00   0.0000000E+00   0.0000000E+00   0.0000000E+00   0.0000000E+00   0.0000000E+00   0.0000000E+00   0.0000000E+00   0.0000000E+00   0.0000000E+00   0.0000000E+00   0.0000000E+00   0.0000000E+00   0.0000000E+00   0.0000000E+00   0.0000000E+00   0.0000000E+00   0.0000000E+00   0.0000000E+00   0.0000000E+00   0.0000000E+00   0.0000000E+00   0.0000000E+00   0.0000000E+00   0.0000000E+00   0.0000000E+00   0.0000000E+00   0.0000000E+00   0.0000000E+00   0.0000000E+00   0.0000000E+00   0.0000000E+00   0.0000000E+00   0.0000000E+00   0.0000000E+00   0.0000000E+00   0.0000000E+00   0.0000000E+00   0.0000000E+00   0.0000000E+00   0.0000000E+00   0.0000000E+00   0.0000000E+00   0.0000000E+00   0.0000000E+00   0.0000000E+00   0.0000000E+00   0.0000000E+00   0.0000000E+00   0.0000000E+00   0.0000000E+00   0.0000000E+00   0.0000000E+00   0.0000000E+00   0.0000000E+00   0.0000000E+00   0.0000000E+00   0.0000000E+00   0.0000000E+00   0.0000000E+00   0.0000000E+00   0.0000000E+00   0.0000000E+00   0.0000000E+00   0.0000000E+00   0.0000000E+00   0.0000000E+00   0.0000000E+00   0.0000000E+00   0.0000000E+00   0.0000000E+00   0.0000000E+00   0.0000000E+00   0.0000000E+00   0.0000000E+00   0.0000000E+00   0.0000000E+00   0.0000000E+00   0.0000000E+00   0.0000000E+00   0.0000000E+00   0.0000000E+00   0.0000000E+00   0.0000000E+00   0.0000000E+00   0.0000000E+00   0.0000000E+00   0.0000000E+00   0.0000000E+00   0.0000000E+00   0.0000000E+00   0.0000000E+00   0.0000000E+00   0.0000000E+00   0.0000000E+00   0.0000000E+00   0.0000000E+00   0.0000000E+00   0.0000000E+00   0.0000000E+00   0.0000000E+00   0.0000000E+00   0.0000000E+00   0.0000000E+00   0.0000000E+00   0.0000000E+00   0.0000000E+00   0.0000000E+00   0.0000000E+00   0.0000000E+00   0.0000000E+00   0.0000000E+00   0.0000000E+00   0.0000000E+00   0.0000000E+00   0.0000000E+00   0.0000000E+00   0.0000000E+00   0.0000000E+00   0.0000000E+00   0.0000000E+00   0.0000000E+00   0.0000000E+00   0.0000000E+00   0.0000000E+00   0.0000000E+00   0.0000000E+00   0.0000000E+00   0.0000000E+00   0.0000000E+00   0.0000000E+00   0.0000000E+00   0.0000000E+00   0.0000000E+00   0.0000000E+00   0.0000000E+00   0.0000000E+00   0.0000000E+00   0.0000000E+00   0.0000000E+00   0.0000000E+00   0.0000000E+00   0.0000000E+00   0.0000000E+00   0.0000000E+00   0.0000000E+00   0.0000000E+00   0.0000000E+00   0.0000000E+00   0.0000000E+00   0.0000000E+00   0.0000000E+00   0.0000000E+00   0.0000000E+00   0.0000000E+00   0.0000000E+00   0.0000000E+00   0.0000000E+00   0.0000000E+00   0.0000000E+00   0.0000000E+00   0.0000000E+00   0.0000000E+00   0.0000000E+00   0.0000000E+00   0.0000000E+00   0.0000000E+00   0.0000000E+00   0.0000000E+00   0.0000000E+00   0.0000000E+00   0.0000000E+00   0.0000000E+00   0.0000000E+00   0.0000000E+00   0.0000000E+00   0.0000000E+00   0.0000000E+00   0.0000000E+00   0.0000000E+00   0.0000000E+00   0.0000000E+00   0.0000000E+00   0.0000000E+00   0.0000000E+00   0.0000000E+00   0.0000000E+00   0.0000000E+00   0.0000000E+00   0.0000000E+00   0.0000000E+00   0.0000000E+00   0.0000000E+00   0.0000000E+00   0.0000000E+00   0.0000000E+00   0.0000000E+00   0.0000000E+00   0.0000000E+00   0.0000000E+00   0.0000000E+00   0.0000000E+00   0.0000000E+00   0.0000000E+00   0.0000000E+00   0.0000000E+00   0.0000000E+00   0.0000000E+00   0.0000000E+00   0.0000000E+00   0.0000000E+00   0.0000000E+00   0.0000000E+00   0.0000000E+00   0.0000000E+00   0.0000000E+00   0.0000000E+00   0.0000000E+00   0.0000000E+00   0.0000000E+00   0.0000000E+00   0.0000000E+00   0.0000000E+00   0.0000000E+00   0.0000000E+00   0.0000000E+00   0.0000000E+00   0.0000000E+00   0.0000000E+00   0.0000000E+00   0.0000000E+00   0.0000000E+00   0.0000000E+00   0.0000000E+00   0.0000000E+00   0.0000000E+00   0.0000000E+00   0.0000000E+00   0.0000000E+00   0.0000000E+00   0.0000000E+00   0.0000000E+00   0.0000000E+00   0.0000000E+00   0.0000000E+00   0.0000000E+00   0.0000000E+00   0.0000000E+00   0.0000000E+00   0.0000000E+00   0.0000000E+00   0.0000000E+00   0.0000000E+00   0.0000000E+00   0.0000000E+00   0.0000000E+00   0.0000000E+00   0.0000000E+00   0.0000000E+00   0.0000000E+00   0.0000000E+00   0.0000000E+00   0.0000000E+00   0.0000000E+00   0.0000000E+00   0.0000000E+00   0.0000000E+00   0.0000000E+00   0.0000000E+00   0.0000000E+00   0.0000000E+00   0.0000000E+00   0.0000000E+00   0.0000000E+00   0.0000000E+00   0.0000000E+00   0.0000000E+00   0.0000000E+00   0.0000000E+00   0.0000000E+00   0.0000000E+00   0.0000000E+00   0.0000000E+00   0.0000000E+00   0.0000000E+00   0.0000000E+00   0.0000000E+00   0.0000000E+00   0.0000000E+00   0.0000000E+00   0.0000000E+00   0.0000000E+00   0.0000000E+00   0.0000000E+00   0.0000000E+00   0.0000000E+00   0.0000000E+00   0.0000000E+00   0.0000000E+00   0.0000000E+00   0.0000000E+00   0.0000000E+00   0.0000000E+00   0.0000000E+00   0.0000000E+00   0.0000000E+00   0.0000000E+00   0.0000000E+00   0.0000000E+00   0.0000000E+00   0.0000000E+00   0.0000000E+00   0.0000000E+00   0.0000000E+00   0.0000000E+00   0.0000000E+00   0.0000000E+00   0.0000000E+00   0.0000000E+00   0.0000000E+00   0.0000000E+00   0.0000000E+00   0.0000000E+00   0.0000000E+00   0.0000000E+00   0.0000000E+00   0.0000000E+00   0.0000000E+00   0.0000000E+00   0.0000000E+00   0.0000000E+00   0.0000000E+00   0.0000000E+00   0.0000000E+00   0.0000000E+00   0.0000000E+00   0.0000000E+00   0.0000000E+00   0.0000000E+00   0.0000000E+00   0.0000000E+00   0.0000000E+00   0.0000000E+00   0.0000000E+00   0.0000000E+00   0.0000000E+00   0.0000000E+00   0.0000000E+00   0.0000000E+00   0.0000000E+00   0.0000000E+00   0.0000000E+00   0.0000000E+00   0.0000000E+00   0.0000000E+00   0.0000000E+00   0.0000000E+00   0.0000000E+00   0.0000000E+00   0.0000000E+00   0.0000000E+00   0.0000000E+00   0.0000000E+00   0.0000000E+00   0.0000000E+00   0.0000000E+00   0.0000000E+00   0.0000000E+00   0.0000000E+00   0.0000000E+00   0.0000000E+00   0.0000000E+00   0.0000000E+00   0.0000000E+00   0.0000000E+00   0.0000000E+00   0.0000000E+00   0.0000000E+00   0.0000000E+00   0.0000000E+00   0.0000000E+00   0.0000000E+00   0.0000000E+00   0.0000000E+00   0.0000000E+00   0.0000000E+00   0.0000000E+00   0.0000000E+00   0.0000000E+00   0.0000000E+00   0.0000000E+00   0.0000000E+00   0.0000000E+00   0.0000000E+00   0.0000000E+00   0.0000000E+00   0.0000000E+00   0.0000000E+00   0.0000000E+00   0.0000000E+00   0.0000000E+00   0.0000000E+00   0.0000000E+00   0.0000000E+00   0.0000000E+00   0.0000000E+00   0.0000000E+00   0.0000000E+00   0.0000000E+00   0.0000000E+00   0.0000000E+00   0.0000000E+00   0.0000000E+00   0.0000000E+00   0.0000000E+00   0.0000000E+00   0.0000000E+00   0.0000000E+00   0.0000000E+00   0.0000000E+00   0.0000000E+00   0.0000000E+00   0.0000000E+00   0.0000000E+00   0.0000000E+00   0.0000000E+00   0.0000000E+00   0.0000000E+00   0.0000000E+00   0.0000000E+00   0.0000000E+00   0.0000000E+00   0.0000000E+00   0.0000000E+00   0.0000000E+00   0.0000000E+00   0.0000000E+00   0.0000000E+00   0.0000000E+00   0.0000000E+00   0.0000000E+00   0.0000000E+00   0.0000000E+00   0.0000000E+00   0.0000000E+00   0.0000000E+00   0.0000000E+00   0.0000000E+00   0.0000000E+00   0.0000000E+00   0.0000000E+00   0.0000000E+00   0.0000000E+00   0.0000000E+00   0.0000000E+00   0.0000000E+00   0.0000000E+00   0.0000000E+00   0.0000000E+00   0.0000000E+00   0.0000000E+00   0.0000000E+00   0.0000000E+00   0.0000000E+00   0.0000000E+00   0.0000000E+00   0.0000000E+00   0.0000000E+00   0.0000000E+00   0.0000000E+00   0.0000000E+00   0.0000000E+00   0.0000000E+00   0.0000000E+00   0.0000000E+00   0.0000000E+00   0.0000000E+00   0.0000000E+00   0.0000000E+00   0.0000000E+00   0.0000000E+00   0.0000000E+00   0.0000000E+00   0.0000000E+00   0.0000000E+00   0.0000000E+00   0.0000000E+00   0.0000000E+00   0.0000000E+00   0.0000000E+00   0.0000000E+00   0.0000000E+00   0.0000000E+00   0.0000000E+00   0.0000000E+00   0.0000000E+00   0.0000000E+00   0.0000000E+00   0.0000000E+00   0.0000000E+00   0.0000000E+00   0.0000000E+00   0.0000000E+00   0.0000000E+00   0.0000000E+00   0.0000000E+00   0.0000000E+00   0.0000000E+00   0.0000000E+00   0.0000000E+00   0.0000000E+00   0.0000000E+00   0.0000000E+00   0.0000000E+00   0.0000000E+00   0.0000000E+00   0.0000000E+00   0.0000000E+00   0.0000000E+00   0.0000000E+00   0.0000000E+00   0.0000000E+00   0.0000000E+00   0.0000000E+00   0.0000000E+00   0.0000000E+00   0.0000000E+00   0.0000000E+00   0.0000000E+00   0.0000000E+00   0.0000000E+00   0.0000000E+00   0.0000000E+00   0.0000000E+00   0.0000000E+00   0.0000000E+00   0.0000000E+00   0.0000000E+00   0.0000000E+00   0.0000000E+00   0.0000000E+00   0.0000000E+00   0.0000000E+00   0.0000000E+00   0.0000000E+00   0.0000000E+00   0.0000000E+00   0.0000000E+00   0.0000000E+00   0.0000000E+00   0.0000000E+00   0.0000000E+00   0.0000000E+00   0.0000000E+00   0.0000000E+00   0.0000000E+00   0.0000000E+00   0.0000000E+00   0.0000000E+00   0.0000000E+00   0.0000000E+00   0.0000000E+00   0.0000000E+00   0.0000000E+00   0.0000000E+00   0.0000000E+00   0.0000000E+00   0.0000000E+00   0.0000000E+00   0.0000000E+00   0.0000000E+00   0.0000000E+00   0.0000000E+00   0.0000000E+00   0.0000000E+00   0.0000000E+00   0.0000000E+00   0.0000000E+00   0.0000000E+00   0.0000000E+00   0.0000000E+00   0.0000000E+00   0.0000000E+00   0.0000000E+00   0.0000000E+00   0.0000000E+00   0.0000000E+00   0.0000000E+00   0.0000000E+00   0.0000000E+00   0.0000000E+00   0.0000000E+00   0.0000000E+00   0.0000000E+00   0.0000000E+00   0.0000000E+00   0.0000000E+00   0.0000000E+00   0.0000000E+00   0.0000000E+00   0.0000000E+00   0.0000000E+00   0.0000000E+00   0.0000000E+00   0.0000000E+00   0.0000000E+00   0.0000000E+00   0.0000000E+00   0.0000000E+00   0.0000000E+00   0.0000000E+00   0.0000000E+00   0.0000000E+00   0.0000000E+00   0.0000000E+00   0.0000000E+00   0.0000000E+00   0.0000000E+00   0.0000000E+00   0.0000000E+00   0.0000000E+00   0.0000000E+00   0.0000000E+00   0.0000000E+00   0.0000000E+00   0.0000000E+00   0.0000000E+00   0.0000000E+00   0.0000000E+00   0.0000000E+00   0.0000000E+00   0.0000000E+00   0.0000000E+00   0.0000000E+00   0.0000000E+00   0.0000000E+00   0.0000000E+00   0.0000000E+00   0.0000000E+00   0.0000000E+00   0.0000000E+00   0.0000000E+00   0.0000000E+00   0.0000000E+00   0.0000000E+00   0.0000000E+00   0.0000000E+00   0.0000000E+00   0.0000000E+00   0.0000000E+00   0.0000000E+00   0.0000000E+00   0.0000000E+00   0.0000000E+00   0.0000000E+00   0.0000000E+00   0.0000000E+00   0.0000000E+00   0.0000000E+00   0.0000000E+00   0.0000000E+00   0.0000000E+00   0.0000000E+00   0.0000000E+00   0.0000000E+00   0.0000000E+00   0.0000000E+00   0.0000000E+00   0.0000000E+00   0.0000000E+00   0.0000000E+00   0.0000000E+00   0.0000000E+00   0.0000000E+00   0.0000000E+00   0.0000000E+00   0.0000000E+00   0.0000000E+00   0.0000000E+00   0.0000000E+00   0.0000000E+00   0.0000000E+00   0.0000000E+00   0.0000000E+00   0.0000000E+00   0.0000000E+00   0.0000000E+00   0.0000000E+00   0.0000000E+00   0.0000000E+00   0.0000000E+00   0.0000000E+00   0.0000000E+00   0.0000000E+00   0.0000000E+00   0.0000000E+00   0.0000000E+00   0.0000000E+00   0.0000000E+00   0.0000000E+00   0.0000000E+00   0.0000000E+00   0.0000000E+00   0.0000000E+00   0.0000000E+00   0.0000000E+00   0.0000000E+00   0.0000000E+00   0.0000000E+00   0.0000000E+00   0.0000000E+00   0.0000000E+00   0.0000000E+00   0.0000000E+00   0.0000000E+00   0.0000000E+00   0.0000000E+00   0.0000000E+00   0.0000000E+00   0.0000000E+00   0.0000000E+00   0.0000000E+00   0.0000000E+00   0.0000000E+00   0.0000000E+00   0.0000000E+00   0.0000000E+00   0.0000000E+00   0.0000000E+00   0.0000000E+00   0.0000000E+00   0.0000000E+00   0.0000000E+00   0.0000000E+00   0.0000000E+00   0.0000000E+00   0.0000000E+00   0.0000000E+00   0.0000000E+00   0.0000000E+00   0.0000000E+00   0.0000000E+00   0.0000000E+00   0.0000000E+00   0.0000000E+00   0.0000000E+00   0.0000000E+00   0.0000000E+00   0.0000000E+00   0.0000000E+00   0.0000000E+00   0.0000000E+00   0.0000000E+00   0.0000000E+00   0.0000000E+00   0.0000000E+00   0.0000000E+00   0.0000000E+00   0.0000000E+00   0.0000000E+00   0.0000000E+00   0.0000000E+00   0.0000000E+00   0.0000000E+00   0.0000000E+00   0.0000000E+00   0.0000000E+00   0.0000000E+00   0.0000000E+00   0.0000000E+00   0.0000000E+00   0.0000000E+00   0.0000000E+00   0.0000000E+00   0.0000000E+00   0.0000000E+00   0.0000000E+00   0.0000000E+00   0.0000000E+00   0.0000000E+00   0.0000000E+00   0.0000000E+00   0.0000000E+00   0.0000000E+00   0.0000000E+00   0.0000000E+00   0.0000000E+00   0.0000000E+00   0.0000000E+00   0.0000000E+00   0.0000000E+00   0.0000000E+00   0.0000000E+00   0.0000000E+00   0.0000000E+00   0.0000000E+00   0.0000000E+00   0.0000000E+00   0.0000000E+00   0.0000000E+00   0.0000000E+00   0.0000000E+00   0.0000000E+00   0.0000000E+00   0.0000000E+00   0.0000000E+00   0.0000000E+00   0.0000000E+00   0.0000000E+00   0.0000000E+00   0.0000000E+00   0.0000000E+00   0.0000000E+00   0.0000000E+00   0.0000000E+00   0.0000000E+00   0.0000000E+00   0.0000000E+00   0.0000000E+00   0.0000000E+00   0.0000000E+00   0.0000000E+00   0.0000000E+00   0.0000000E+00   0.0000000E+00   0.0000000E+00   0.0000000E+00   0.0000000E+00   0.0000000E+00   0.0000000E+00   0.0000000E+00   0.0000000E+00   0.0000000E+00   0.0000000E+00   0.0000000E+00   0.0000000E+00   0.0000000E+00   0.0000000E+00   0.0000000E+00   0.0000000E+00   0.0000000E+00   0.0000000E+00   0.0000000E+00   0.0000000E+00   0.0000000E+00   0.0000000E+00   0.0000000E+00   0.0000000E+00   0.0000000E+00   0.0000000E+00   0.0000000E+00   0.0000000E+00   0.0000000E+00   0.0000000E+00   0.0000000E+00   0.0000000E+00   0.0000000E+00   0.0000000E+00   0.0000000E+00   0.0000000E+00   0.0000000E+00   0.0000000E+00   0.0000000E+00   0.0000000E+00   0.0000000E+00   0.0000000E+00   0.0000000E+00   0.0000000E+00   0.0000000E+00   0.0000000E+00   0.0000000E+00   0.0000000E+00   0.0000000E+00   0.0000000E+00   0.0000000E+00   0.0000000E+00   0.0000000E+00   0.0000000E+00   0.0000000E+00   0.0000000E+00   0.0000000E+00   0.0000000E+00   0.0000000E+00   0.0000000E+00   0.0000000E+00   0.0000000E+00   0.0000000E+00   0.0000000E+00   0.0000000E+00   0.0000000E+00   0.0000000E+00   0.0000000E+00   0.0000000E+00   0.0000000E+00   0.0000000E+00   0.0000000E+00   0.0000000E+00   0.0000000E+00   0.0000000E+00   0.0000000E+00   0.0000000E+00   0.0000000E+00   0.0000000E+00   0.0000000E+00   0.0000000E+00   0.0000000E+00   0.0000000E+00   0.0000000E+00   0.0000000E+00   0.0000000E+00   0.0000000E+00   0.0000000E+00   0.0000000E+00   0.0000000E+00   0.0000000E+00   0.0000000E+00   0.0000000E+00   0.0000000E+00   0.0000000E+00   0.0000000E+00   0.0000000E+00   0.0000000E+00   0.0000000E+00   0.0000000E+00   0.0000000E+00   0.0000000E+00   0.0000000E+00   0.0000000E+00   0.0000000E+00   0.0000000E+00   0.0000000E+00   0.0000000E+00   0.0000000E+00   0.0000000E+00   0.0000000E+00   0.0000000E+00   0.0000000E+00   0.0000000E+00   0.0000000E+00   0.0000000E+00   0.0000000E+00   0.0000000E+00   0.0000000E+00   0.0000000E+00   0.0000000E+00   0.0000000E+00   0.0000000E+00   0.0000000E+00   0.0000000E+00   0.0000000E+00   0.0000000E+00   0.0000000E+00   0.0000000E+00   0.0000000E+00   0.0000000E+00   0.0000000E+00   0.0000000E+00   0.0000000E+00   0.0000000E+00   0.0000000E+00   0.0000000E+00   0.0000000E+00   0.0000000E+00   0.0000000E+00   0.0000000E+00   0.0000000E+00   0.0000000E+00   0.0000000E+00   0.0000000E+00   0.0000000E+00   0.0000000E+00   0.0000000E+00   0.0000000E+00   0.0000000E+00   0.0000000E+00   0.0000000E+00   0.0000000E+00   0.0000000E+00   0.0000000E+00   0.0000000E+00   0.0000000E+00   0.0000000E+00   0.0000000E+00   0.0000000E+00   0.0000000E+00   0.0000000E+00   0.0000000E+00   0.0000000E+00   0.0000000E+00   0.0000000E+00   0.0000000E+00   0.0000000E+00   0.0000000E+00   0.0000000E+00   0.0000000E+00   0.0000000E+00   0.0000000E+00   0.0000000E+00   0.0000000E+00   0.0000000E+00   0.0000000E+00   0.0000000E+00   0.0000000E+00   0.0000000E+00   0.0000000E+00   0.0000000E+00   0.0000000E+00   0.0000000E+00   0.0000000E+00   0.0000000E+00   0.0000000E+00   0.0000000E+00   0.0000000E+00   0.0000000E+00   0.0000000E+00   0.0000000E+00   0.0000000E+00   0.0000000E+00   0.0000000E+00   0.0000000E+00   0.0000000E+00   0.0000000E+00   0.0000000E+00   0.0000000E+00   0.0000000E+00   0.0000000E+00   0.0000000E+00   0.0000000E+00   0.0000000E+00   0.0000000E+00   0.0000000E+00   0.0000000E+00   0.0000000E+00   0.0000000E+00   0.0000000E+00   0.0000000E+00   0.0000000E+00   0.0000000E+00   0.0000000E+00   0.0000000E+00   0.0000000E+00   0.0000000E+00   0.0000000E+00   0.0000000E+00   0.0000000E+00   0.0000000E+00   0.0000000E+00   0.0000000E+00   0.0000000E+00   0.0000000E+00   0.0000000E+00   0.0000000E+00   0.0000000E+00   0.0000000E+00   0.0000000E+00   0.0000000E+00   0.0000000E+00   0.0000000E+00   0.0000000E+00   0.0000000E+00   0.0000000E+00   0.0000000E+00   0.0000000E+00   0.0000000E+00   0.0000000E+00   0.0000000E+00   0.0000000E+00   0.0000000E+00   0.0000000E+00   0.0000000E+00   0.0000000E+00   0.0000000E+00   0.0000000E+00   0.0000000E+00   0.0000000E+00   0.0000000E+00   0.0000000E+00   0.0000000E+00   0.0000000E+00   0.0000000E+00   0.0000000E+00   0.0000000E+00   0.0000000E+00   0.0000000E+00   0.0000000E+00   0.0000000E+00   0.0000000E+00   0.0000000E+00   0.0000000E+00   0.0000000E+00   0.0000000E+00   0.0000000E+00   0.0000000E+00   0.0000000E+00   0.0000000E+00   0.0000000E+00   0.0000000E+00   0.0000000E+00   0.0000000E+00   0.0000000E+00   0.0000000E+00   0.0000000E+00   0.0000000E+00   0.0000000E+00   0.0000000E+00   0.0000000E+00   0.0000000E+00   0.0000000E+00   0.0000000E+00   0.0000000E+00   0.0000000E+00   0.0000000E+00   0.0000000E+00   0.0000000E+00   0.0000000E+00   0.0000000E+00   0.0000000E+00   0.0000000E+00   0.0000000E+00   0.0000000E+00   0.0000000E+00   0.0000000E+00   0.0000000E+00   0.0000000E+00   0.0000000E+00   0.0000000E+00   0.0000000E+00   0.0000000E+00   0.0000000E+00   0.0000000E+00   0.0000000E+00   0.0000000E+00   0.0000000E+00   0.0000000E+00   0.0000000E+00   0.0000000E+00   0.0000000E+00   0.0000000E+00   0.0000000E+00   0.0000000E+00   0.0000000E+00   0.0000000E+00   0.0000000E+00   0.0000000E+00   0.0000000E+00   0.0000000E+00   0.0000000E+00   0.0000000E+00   0.0000000E+00   0.0000000E+00   0.0000000E+00   0.0000000E+00   0.0000000E+00   0.0000000E+00   0.0000000E+00   0.0000000E+00   0.0000000E+00   0.0000000E+00   0.0000000E+00   0.0000000E+00   0.0000000E+00   0.0000000E+00   0.0000000E+00   0.0000000E+00   0.0000000E+00   0.0000000E+00   0.0000000E+00   0.0000000E+00   0.0000000E+00   0.0000000E+00   0.0000000E+00   0.0000000E+00   0.0000000E+00   0.0000000E+00   0.0000000E+00   0.0000000E+00   0.0000000E+00   0.0000000E+00   0.0000000E+00   0.0000000E+00   0.0000000E+00   0.0000000E+00   0.0000000E+00   0.0000000E+00   0.0000000E+00   0.0000000E+00   0.0000000E+00   0.0000000E+00   0.0000000E+00   0.0000000E+00   0.0000000E+00   0.0000000E+00   0.0000000E+00   0.0000000E+00   0.0000000E+00   0.0000000E+00   0.0000000E+00   0.0000000E+00   0.0000000E+00   0.0000000E+00   0.0000000E+00   0.0000000E+00   0.0000000E+00   0.0000000E+00  -2.0615652E-03   0.0000000E+00  -8.0606778E-04  -2.5211794E-03   0.0000000E+00  -7.7955000E-04  -2.9123486E-03   0.0000000E+00  -7.1031536E-04  -3.2208695E-03   0.0000000E+00  -6.1888935E-04  -3.4489918E-03   0.0000000E+00  -5.2041135E-04  -2.0023466E-03   0.0000000E+00  -1.0482732E-03  -2.8324078E-03   0.0000000E+00  -9.7275776E-04  -3.5467977E-03   0.0000000E+00  -9.6946408E-04  -4.1272151E-03   0.0000000E+00  -9.0870808E-04  -4.5690634E-03   0.0000000E+00  -8.0893410E-04  -4.8864502E-03   0.0000000E+00  -6.8965391E-04  -2.7717527E-03   0.0000000E+00  -1.1323452E-03  -3.9108908E-03   0.0000000E+00  -1.0796710E-03  -4.8944480E-03   0.0000000E+00  -1.0622385E-03  -5.6968299E-03   0.0000000E+00  -9.9970750E-04  -6.2969523E-03   0.0000000E+00  -9.0509246E-04  -6.7211557E-03   0.0000000E+00  -7.7931670E-04  -3.7150665E-03   0.0000000E+00  -1.1727081E-03  -5.2106031E-03   0.0000000E+00  -1.1031682E-03  -6.4787478E-03   0.0000000E+00  -1.0906579E-03  -7.5039454E-03   0.0000000E+00  -1.0341948E-03  -8.2671652E-03   0.0000000E+00  -9.4163208E-04  -8.7966900E-03   0.0000000E+00  -8.1621238E-04  -4.8126457E-03   0.0000000E+00  -1.2036153E-03  -6.6992305E-03   0.0000000E+00  -1.0848070E-03  -8.2660066E-03   0.0000000E+00  -1.0686959E-03  -9.5135318E-03   0.0000000E+00  -1.0157347E-03  -1.0427276E-02   0.0000000E+00  -9.3123887E-04  -1.1052370E-02   0.0000000E+00  -8.0966076E-04  -6.0883909E-03   0.0000000E+00  -1.2471379E-03  -8.4016416E-03   0.0000000E+00  -1.0425942E-03  -1.0274928E-02   0.0000000E+00  -1.0078507E-03  -1.1738077E-02   0.0000000E+00  -9.5659227E-04  -1.2790530E-02   0.0000000E+00  -8.8440953E-04  -1.3496731E-02   0.0000000E+00  -7.7365915E-04  -7.5895386E-03   0.0000000E+00  -1.3421330E-03  -1.0370231E-02   0.0000000E+00  -1.0075374E-03  -1.2555968E-02   0.0000000E+00  -9.3239016E-04  -1.4227701E-02   0.0000000E+00  -8.7930879E-04  -1.5410469E-02   0.0000000E+00  -8.2046096E-04  -1.6185816E-02   0.0000000E+00  -7.2807400E-04  -9.3829334E-03   0.0000000E+00  -1.5328454E-03  -1.2665206E-02   0.0000000E+00  -1.0244547E-03  -1.5164148E-02   0.0000000E+00  -8.8977267E-04  -1.7052146E-02   0.0000000E+00  -8.1503415E-04  -1.8353049E-02   0.0000000E+00  -7.7643874E-04  -1.9188998E-02   0.0000000E+00  -7.0369599E-04  -1.1597216E-02   0.0000000E+00  -1.7586433E-03  -1.5348159E-02   0.0000000E+00  -1.1086097E-03  -1.8145029E-02   0.0000000E+00  -9.2679082E-04  -2.0252457E-02   0.0000000E+00  -8.2539045E-04  -2.1674693E-02   0.0000000E+00  -7.9975568E-04  -2.2559594E-02   0.0000000E+00  -7.4605306E-04  -1.4483288E-02   0.0000000E+00  -1.7599373E-03  -1.8505597E-02   0.0000000E+00  -1.2053113E-03  -2.1567244E-02   0.0000000E+00  -1.0319586E-03  -2.3867069E-02   0.0000000E+00  -9.5033157E-04  -2.5408698E-02   0.0000000E+00  -9.4096328E-04  -2.6329547E-02   0.0000000E+00  -9.0693909E-04  -1.8257713E-02   0.0000000E+00  -1.5053485E-03  -2.2288457E-02   0.0000000E+00  -1.2770856E-03  -2.5515825E-02   0.0000000E+00  -1.1891633E-03  -2.7959688E-02   0.0000000E+00  -1.2002630E-03  -2.9585458E-02   0.0000000E+00  -1.2430892E-03  -3.0523602E-02   0.0000000E+00  -1.2328337E-03  -2.2451010E-02   0.0000000E+00  -2.2481310E-03  -2.6726458E-02   0.0000000E+00  -1.7584573E-03  -3.0032493E-02   0.0000000E+00  -1.6265868E-03  -3.2573823E-02   0.0000000E+00  -1.6779380E-03  -3.4252439E-02   0.0000000E+00  -1.7396049E-03  -3.5173025E-02   0.0000000E+00  -1.7602372E-03  -2.7327038E-02   0.0000000E+00  -5.9141354E-03  -3.1834241E-02   0.0000000E+00  -4.1114516E-03  -3.5236720E-02   0.0000000E+00  -3.0442278E-03  -3.7804641E-02   0.0000000E+00  -2.6852728E-03  -3.9445184E-02   0.0000000E+00  -2.6017202E-03  -4.0317394E-02   0.0000000E+00  -2.5589566E-03  -3.3639610E-02   0.0000000E+00  -9.1387499E-03  -3.7972264E-02   0.0000000E+00  -7.1325055E-03  -4.1288737E-02   0.0000000E+00  -5.3451797E-03  -4.3722596E-02   0.0000000E+00  -4.3689273E-03  -4.5225807E-02   0.0000000E+00  -3.9517656E-03  -4.6021663E-02   0.0000000E+00  -3.6698135E-03  -4.1136932E-02   0.0000000E+00  -1.1339365E-02  -4.5116693E-02   0.0000000E+00  -9.5797777E-03  -4.8139755E-02   0.0000000E+00  -7.7535575E-03  -5.0302915E-02   0.0000000E+00  -6.4581828E-03  -5.1636085E-02   0.0000000E+00  -5.6729051E-03  -5.2330095E-02   0.0000000E+00  -5.0736046E-03  -4.9178932E-02   0.0000000E+00  -1.3149153E-02  -5.2760098E-02   0.0000000E+00  -1.1630452E-02  -5.5516683E-02   0.0000000E+00  -9.9691451E-03  -5.7469856E-02   0.0000000E+00  -8.5740695E-03  -5.8671515E-02   0.0000000E+00  -7.5207874E-03  -5.9280593E-02   0.0000000E+00  -6.6674044E-03  -5.7336815E-02   0.0000000E+00  -1.4873963E-02  -6.0690537E-02   0.0000000E+00  -1.3472904E-02  -6.3319050E-02   0.0000000E+00  -1.1962405E-02  -6.5194681E-02   0.0000000E+00  -1.0565240E-02  -6.6352509E-02   0.0000000E+00  -9.3621071E-03  -6.6902995E-02   0.0000000E+00  -8.3271991E-03  -6.5494694E-02   0.0000000E+00  -1.6628671E-02  -6.8910785E-02   0.0000000E+00  -1.5255489E-02  -7.1603239E-02   0.0000000E+00  -1.3807433E-02  -7.3526837E-02   0.0000000E+00  -1.2425304E-02  -7.4706100E-02   0.0000000E+00  -1.1148794E-02  -7.5236194E-02   0.0000000E+00  -9.9905711E-03  -7.3895372E-02   0.0000000E+00  -1.8458847E-02  -7.7601619E-02   0.0000000E+00  -1.7061604E-02  -8.0504708E-02   0.0000000E+00  -1.5585802E-02  -8.2551777E-02   0.0000000E+00  -1.4202614E-02  -8.3788380E-02   0.0000000E+00  -1.2878446E-02  -8.4318601E-02   0.0000000E+00  -1.1620266E-02  -8.2873218E-02   0.0000000E+00  -2.0357383E-02  -8.6963296E-02   0.0000000E+00  -1.8893985E-02  -9.0133026E-02   0.0000000E+00  -1.7349282E-02  -9.2336603E-02   0.0000000E+00  -1.5939843E-02  -9.3645111E-02   0.0000000E+00  -1.4568303E-02  -9.4192930E-02   0.0000000E+00  -1.3212188E-02  -9.2572741E-02   0.0000000E+00  -2.2305582E-02  -9.7073346E-02   0.0000000E+00  -2.0759789E-02  -1.0053834E-01   0.0000000E+00  -1.9129772E-02  -1.0292313E-01   0.0000000E+00  -1.7675404E-02  -1.0431970E-01   0.0000000E+00  -1.6242759E-02  -1.0490271E-01   0.0000000E+00  -1.4777608E-02  -1.0302766E-01   0.0000000E+00  -2.4310116E-02  -1.0797287E-01   0.0000000E+00  -2.2667432E-02  -1.1175994E-01   0.0000000E+00  -2.0950804E-02  -1.1434844E-01   0.0000000E+00  -1.9435968E-02  -1.1585648E-01   0.0000000E+00  -1.7914932E-02  -1.1649124E-01   0.0000000E+00  -1.6325286E-02  -1.1427629E-01   0.0000000E+00  -2.6381349E-02  -1.1970924E-01   0.0000000E+00  -2.4623618E-02  -1.2384515E-01   0.0000000E+00  -2.2818787E-02  -1.2666450E-01   0.0000000E+00  -2.1210153E-02  -1.2830622E-01   0.0000000E+00  -1.9576173E-02  -1.2901019E-01   0.0000000E+00  -1.7847586E-02  -1.2639052E-01   0.0000000E+00  -2.8523741E-02  -1.3235120E-01   0.0000000E+00  -2.6637521E-02  -1.3686195E-01   0.0000000E+00  -2.4716837E-02  -1.3993849E-01   0.0000000E+00  -2.2967227E-02  -1.4173290E-01   0.0000000E+00  -2.1204181E-02  -1.4251962E-01   0.0000000E+00  -1.9334620E-02  -1.3950039E-01   0.0000000E+00  -3.0757248E-02  -1.4600866E-01   0.0000000E+00  -2.8711552E-02  -1.5090613E-01   0.0000000E+00  -2.6609622E-02  -1.5425722E-01   0.0000000E+00  -2.4661748E-02  -1.5621057E-01   0.0000000E+00  -2.2781996E-02  -1.5708478E-01   0.0000000E+00  -2.0795131E-02  -1.5384179E-01   0.0000000E+00  -3.3112291E-02  -1.6084842E-01   0.0000000E+00  -3.0850742E-02  -1.6610189E-01   0.0000000E+00  -2.8454073E-02  -1.6971448E-01   0.0000000E+00  -2.6269283E-02  -1.7181027E-01   0.0000000E+00  -2.4336426E-02  -1.7276545E-01   0.0000000E+00  -2.2296691E-02  -1.6976318E-01   0.0000000E+00  -3.5642430E-02  -1.7707093E-01   0.0000000E+00  -3.3080090E-02  -1.8256582E-01   0.0000000E+00  -3.0242300E-02  -1.8636625E-01   0.0000000E+00  -2.7838726E-02  -1.8856733E-01   0.0000000E+00  -2.5961474E-02  -1.8957528E-01   0.0000000E+00  -2.3979871E-02  -1.8759583E-01   0.0000000E+00  -3.8431734E-02  -1.9478957E-01   0.0000000E+00  -3.5470769E-02  -2.0028298E-01   0.0000000E+00  -3.2049965E-02  -2.0413458E-01   0.0000000E+00  -2.9537385E-02  -2.0636585E-01   0.0000000E+00  -2.7877139E-02  -2.0739684E-01   0.0000000E+00  -2.6064834E-02  -2.0731395E-01   0.0000000E+00  -4.1633721E-02  -2.1377632E-01   0.0000000E+00  -3.8194239E-02  -2.1892259E-01   0.0000000E+00  -3.4155127E-02  -2.2258539E-01   0.0000000E+00  -3.1746898E-02  -2.2476937E-01   0.0000000E+00  -3.0454308E-02  -2.2583057E-01   0.0000000E+00  -2.8819475E-02  -2.2807506E-01   0.0000000E+00  -4.5535963E-02  -2.3316231E-01   0.0000000E+00  -4.1608933E-02  -2.3760648E-01   0.0000000E+00  -3.7019927E-02  -2.4086845E-01   0.0000000E+00  -3.4896210E-02  -2.4284451E-01   0.0000000E+00  -3.4026209E-02  -2.4400683E-01   0.0000000E+00  -3.2464281E-02  -2.4825791E-01   0.0000000E+00  -5.0658587E-02  -2.5151363E-01   0.0000000E+00  -4.6336900E-02  -2.5490010E-01   0.0000000E+00  -4.1621998E-02  -2.5773284E-01   0.0000000E+00  -3.9358746E-02  -2.5976777E-01   0.0000000E+00  -3.8289491E-02  -2.6103866E-01   0.0000000E+00  -3.6609087E-02  -2.6557535E-01   0.0000000E+00  -5.7617016E-02  -2.6721725E-01   0.0000000E+00  -5.3544689E-02  -2.7015251E-01   0.0000000E+00  -4.8637513E-02  -2.7286923E-01   0.0000000E+00  -4.5029294E-02  -2.7473551E-01   0.0000000E+00  -4.3331224E-02  -2.7610028E-01   0.0000000E+00  -4.0955655E-02  -2.7811098E-01   0.0000000E+00  -6.7004584E-02  -2.7970824E-01   0.0000000E+00  -6.3840009E-02  -2.8268337E-01   0.0000000E+00  -5.9244744E-02  -2.8543696E-01   0.0000000E+00  -5.3505156E-02  -2.8724945E-01   0.0000000E+00  -4.9207233E-02  -2.8834701E-01   0.0000000E+00  -4.5596734E-02  -2.8386164E-01   0.0000000E+00  -7.7833131E-02  -2.8609321E-01   0.0000000E+00  -7.7054732E-02  -2.8937179E-01   0.0000000E+00  -7.4013919E-02  -2.9237738E-01   0.0000000E+00  -6.7966700E-02  -2.9499418E-01   0.0000000E+00  -5.9003968E-02  -2.9661894E-01   0.0000000E+00  -5.1966518E-02  -2.7727318E-01   0.0000000E+00  -8.6593501E-02  -2.8425992E-01   0.0000000E+00  -8.9279406E-02  -2.8904054E-01   0.0000000E+00  -8.9084290E-02  -2.9219455E-01   0.0000000E+00  -8.5967034E-02  -2.9618263E-01   0.0000000E+00  -7.4658819E-02  -2.9887325E-01   0.0000000E+00  -6.3458510E-02  -2.3144338E-01   0.0000000E+00  -9.5682047E-02  -2.6416349E-01   0.0000000E+00  -9.9342920E-02  -2.7718425E-01   0.0000000E+00  -1.0094645E-01  -2.7983013E-01   0.0000000E+00  -1.0457192E-01  -2.8468290E-01   0.0000000E+00  -9.8095924E-02  -2.8942025E-01   0.0000000E+00  -8.5518457E-02  -1.5103686E-01   0.0000000E+00  -1.0240074E-01  -1.8369173E-01   0.0000000E+00  -1.0599884E-01  -2.1539558E-01   0.0000000E+00  -1.0975327E-01  -2.3749737E-01   0.0000000E+00  -1.1762393E-01  -2.4835896E-01   0.0000000E+00  -1.2030537E-01  -2.5418311E-01   0.0000000E+00  -1.1683174E-01  -8.9600086E-02   0.0000000E+00  -1.0558280E-01  -1.0953705E-01   0.0000000E+00  -1.0997684E-01  -1.2941422E-01   0.0000000E+00  -1.1264270E-01  -1.4549690E-01   0.0000000E+00  -1.1777023E-01  -1.5694165E-01   0.0000000E+00  -1.2084734E-01  -1.6381726E-01   0.0000000E+00  -1.1836632E-01  -5.1532548E-02   0.0000000E+00  -1.0748612E-01  -6.1928652E-02   0.0000000E+00  -1.1244935E-01  -7.2065800E-02   0.0000000E+00  -1.1385923E-01  -8.0977522E-02   0.0000000E+00  -1.1567818E-01  -8.7927066E-02   0.0000000E+00  -1.1668536E-01  -9.2863984E-02   0.0000000E+00  -1.1162458E-01  -2.8625011E-02   0.0000000E+00  -1.0934850E-01  -3.2177474E-02   0.0000000E+00  -1.1445816E-01  -3.5348136E-02   0.0000000E+00  -1.1674856E-01  -3.8491551E-02   0.0000000E+00  -1.1431400E-01  -4.1340817E-02   0.0000000E+00  -1.1220519E-01  -4.3789878E-02   0.0000000E+00  -1.0552235E-01  -8.9902906E-03   0.0000000E+00  -1.1055651E-01  -7.3513719E-03   0.0000000E+00  -1.1516591E-01  -5.4175714E-03   0.0000000E+00  -1.1888439E-01  -3.9926455E-03   0.0000000E+00  -1.1496121E-01  -3.4902561E-03   0.0000000E+00  -1.1080039E-01  -3.7276116E-03   0.0000000E+00  -1.0242601E-01   1.5932964E-02   0.0000000E+00  -1.1094733E-01   2.2440748E-02   0.0000000E+00  -1.1488731E-01   2.8669534E-02   0.0000000E+00  -1.1968423E-01   3.3749167E-02   0.0000000E+00  -1.1748993E-01   3.6768194E-02   0.0000000E+00  -1.1261259E-01   3.7939839E-02   0.0000000E+00  -1.0214857E-01   4.8366606E-02   0.0000000E+00  -1.1030415E-01   6.0103051E-02   0.0000000E+00  -1.1367593E-01   7.0551366E-02   0.0000000E+00  -1.1873220E-01   7.8727901E-02   0.0000000E+00  -1.1870253E-01   8.3654672E-02   0.0000000E+00  -1.1473909E-01   8.5235715E-02   0.0000000E+00  -1.0324097E-01   8.5612625E-02   0.0000000E+00  -1.0920963E-01   1.0282682E-01   0.0000000E+00  -1.1192109E-01   1.1750633E-01   0.0000000E+00  -1.1656756E-01   1.2874189E-01   0.0000000E+00  -1.1828224E-01   1.3506646E-01   0.0000000E+00  -1.1558629E-01   1.3631809E-01   0.0000000E+00  -1.0422788E-01   1.2328631E-01   0.0000000E+00  -1.0791146E-01   1.4557260E-01   0.0000000E+00  -1.0991556E-01   1.6450377E-01   0.0000000E+00  -1.1397231E-01   1.7880286E-01   0.0000000E+00  -1.1644199E-01   1.8628936E-01   0.0000000E+00  -1.1466405E-01   1.8697140E-01   0.0000000E+00  -1.0400994E-01   1.5793869E-01   0.0000000E+00  -1.0609634E-01   1.8395723E-01   0.0000000E+00  -1.0775898E-01   2.0716383E-01   0.0000000E+00  -1.1131629E-01   2.2357242E-01   0.0000000E+00  -1.1286134E-01   2.3267798E-01   0.0000000E+00  -1.1128616E-01   2.3334245E-01   0.0000000E+00  -1.0198120E-01   1.8790871E-01   0.0000000E+00  -1.0368565E-01   2.1575914E-01   0.0000000E+00  -1.0564432E-01   2.4173468E-01   0.0000000E+00  -1.0796616E-01   2.6019526E-01   0.0000000E+00  -1.0800877E-01   2.7112344E-01   0.0000000E+00  -1.0552618E-01   2.7173847E-01   0.0000000E+00  -9.8011710E-02   2.1263732E-01   0.0000000E+00  -1.0138942E-01   2.4048139E-01   0.0000000E+00  -1.0367845E-01   2.6794803E-01   0.0000000E+00  -1.0400237E-01   2.8800943E-01   0.0000000E+00  -1.0196903E-01   2.9604468E-01   0.0000000E+00  -1.0009626E-01   2.9164231E-01   0.0000000E+00  -9.3572721E-02   2.3334378E-01   0.0000000E+00  -9.8721616E-02   2.6054356E-01   0.0000000E+00  -1.0126066E-01   2.8836000E-01   0.0000000E+00  -9.9639960E-02   3.0542096E-01   0.0000000E+00  -9.7371407E-02   3.0586633E-01   0.0000000E+00  -9.6976094E-02   2.9843163E-01   0.0000000E+00  -8.9419208E-02   2.5253999E-01   0.0000000E+00  -9.4939373E-02   2.7863878E-01   0.0000000E+00  -9.7687036E-02   3.0436331E-01   0.0000000E+00  -9.4919145E-02   3.1353933E-01   0.0000000E+00  -9.4687909E-02   3.0892271E-01   0.0000000E+00  -9.3324579E-02   2.9991874E-01   0.0000000E+00  -8.5198626E-02   2.7208632E-01   0.0000000E+00  -8.9876227E-02   2.9540968E-01   0.0000000E+00  -9.2617616E-02   3.1574699E-01   0.0000000E+00  -9.0003937E-02   3.1671575E-01   0.0000000E+00  -9.0709276E-02   3.0934009E-01   0.0000000E+00  -8.8290945E-02   2.9956445E-01   0.0000000E+00  -8.0987625E-02   2.9319775E-01   0.0000000E+00  -8.3770759E-02   3.1246471E-01   0.0000000E+00  -8.6284809E-02   3.2187369E-01   0.0000000E+00  -8.4265538E-02   3.1760177E-01   0.0000000E+00  -8.4954746E-02   3.0865872E-01   0.0000000E+00  -8.2909636E-02   2.9831395E-01   0.0000000E+00  -7.6973855E-02   3.1743282E-01   0.0000000E+00  -7.6252744E-02   3.2894856E-01   0.0000000E+00  -7.9246953E-02   3.2518476E-01   0.0000000E+00  -7.8352518E-02   3.1757522E-01   0.0000000E+00  -7.8376085E-02   3.0770069E-01   0.0000000E+00  -7.6934911E-02   2.9656392E-01   0.0000000E+00  -7.2005212E-02   3.4031612E-01   0.0000000E+00  -7.2552301E-02   3.3710229E-01   0.0000000E+00  -7.3441021E-02   3.2777360E-01   0.0000000E+00  -7.1607806E-02   3.1723917E-01   0.0000000E+00  -7.1448043E-02   3.0655426E-01   0.0000000E+00  -7.0433334E-02   2.9450050E-01   0.0000000E+00  -6.6557027E-02   3.4702808E-01   0.0000000E+00  -6.7061953E-02   3.4053054E-01   0.0000000E+00  -6.6501997E-02   3.2812718E-01   0.0000000E+00  -6.4153723E-02   3.1641939E-01   0.0000000E+00  -6.3769549E-02   3.0524686E-01   0.0000000E+00  -6.3515611E-02   2.9235002E-01   0.0000000E+00  -6.0303491E-02   3.3992541E-01   0.0000000E+00  -5.9765324E-02   3.2653186E-01   0.0000000E+00  -5.6430224E-02   3.1473684E-01   0.0000000E+00  -5.5116639E-02   3.0349880E-01   0.0000000E+00  -5.5549923E-02   2.9026303E-01   0.0000000E+00  -5.3611964E-02   3.3627233E-01   0.0000000E+00  -5.3636342E-02   3.2423049E-01   0.0000000E+00  -5.0004233E-02   3.1218171E-01   0.0000000E+00  -4.6952829E-02   3.0125210E-01   0.0000000E+00  -4.7264487E-02   2.8827569E-01   0.0000000E+00  -4.6425391E-02   3.2152447E-01   0.0000000E+00  -4.5057591E-02   3.0927727E-01   0.0000000E+00  -4.0737968E-02   2.9856133E-01   0.0000000E+00  -3.9640523E-02   2.8638539E-01   0.0000000E+00  -3.9556675E-02   3.1691054E-01   0.0000000E+00  -4.0963650E-02   3.0681843E-01   0.0000000E+00  -3.6818426E-02   2.9562801E-01   0.0000000E+00  -3.3518516E-02   2.8428870E-01   0.0000000E+00  -3.3306945E-02   3.0343017E-01   0.0000000E+00  -3.4651674E-02   2.9304144E-01   0.0000000E+00  -3.0346673E-02   2.8222063E-01   0.0000000E+00  -2.8707884E-02   2.8960618E-01   0.0000000E+00  -2.9205943E-02   2.8065515E-01   0.0000000E+00  -2.6698126E-02   2.7974325E-01   0.0000000E+00  -2.6636727E-02   2.7649891E-01   0.0000000E+00  -2.5915476E-02  -3.6078054E-03   0.0000000E+00  -4.2641273E-04  -3.7124984E-03   0.0000000E+00  -3.3769090E-04  -3.7742537E-03   0.0000000E+00  -2.6221183E-04  -3.8053726E-03   0.0000000E+00  -1.9862296E-04  -3.8165832E-03   0.0000000E+00  -1.4523401E-04  -3.8155671E-03   0.0000000E+00  -1.0295189E-04  -3.8089794E-03   0.0000000E+00  -6.8775742E-05  -3.8012010E-03   0.0000000E+00  -4.1902917E-05  -3.7953528E-03   0.0000000E+00  -1.9722454E-05  -5.1016142E-03   0.0000000E+00  -5.6684582E-04  -5.2364809E-03   0.0000000E+00  -4.5368329E-04  -5.3111874E-03   0.0000000E+00  -3.5705988E-04  -5.3460989E-03   0.0000000E+00  -2.7131542E-04  -5.3540608E-03   0.0000000E+00  -2.0128192E-04  -5.3467806E-03   0.0000000E+00  -1.4432857E-04  -5.3332201E-03   0.0000000E+00  -9.7833959E-05  -5.3193141E-03   0.0000000E+00  -6.0444007E-05  -5.3094295E-03   0.0000000E+00  -2.8681734E-05  -6.9990740E-03   0.0000000E+00  -6.4981333E-04  -7.1675237E-03   0.0000000E+00  -5.2665273E-04  -7.2573549E-03   0.0000000E+00  -4.1676307E-04  -7.2941729E-03   0.0000000E+00  -3.2053390E-04  -7.2968523E-03   0.0000000E+00  -2.4068942E-04  -7.2812513E-03   0.0000000E+00  -1.7363932E-04  -7.2583673E-03   0.0000000E+00  -1.1907721E-04  -7.2365357E-03   0.0000000E+00  -7.3968979E-05  -7.2213411E-03   0.0000000E+00  -3.5343139E-05  -9.1363005E-03   0.0000000E+00  -6.8396929E-04  -9.3353326E-03   0.0000000E+00  -5.5957737E-04  -9.4374809E-03   0.0000000E+00  -4.4416662E-04  -9.4734086E-03   0.0000000E+00  -3.4459052E-04  -9.4683096E-03   0.0000000E+00  -2.5986927E-04  -9.4416346E-03   0.0000000E+00  -1.8902488E-04  -9.4074737E-03   0.0000000E+00  -1.3061419E-04  -9.3762772E-03   0.0000000E+00  -8.1456448E-05  -9.3548745E-03   0.0000000E+00  -3.9108687E-05  -1.1443641E-02   0.0000000E+00  -6.8183983E-04  -1.1666442E-02   0.0000000E+00  -5.5923680E-04  -1.1774280E-02   0.0000000E+00  -4.4568026E-04  -1.1804474E-02   0.0000000E+00  -3.4831624E-04  -1.1787836E-02   0.0000000E+00  -2.6353545E-04  -1.1747142E-02   0.0000000E+00  -1.9304788E-04  -1.1699676E-02   0.0000000E+00  -1.3382606E-04  -1.1657595E-02   0.0000000E+00  -8.3980951E-05  -1.1629183E-02   0.0000000E+00  -4.0387065E-05  -1.3927510E-02   0.0000000E+00  -6.5697799E-04  -1.4164611E-02   0.0000000E+00  -5.4070086E-04  -1.4269754E-02   0.0000000E+00  -4.3436684E-04  -1.4288160E-02   0.0000000E+00  -3.4095670E-04  -1.4254957E-02   0.0000000E+00  -2.6029372E-04  -1.4196861E-02   0.0000000E+00  -1.9184820E-04  -1.4133530E-02   0.0000000E+00  -1.3406911E-04  -1.4078945E-02   0.0000000E+00  -8.4659870E-05  -1.4042552E-02   0.0000000E+00  -4.0931503E-05  -1.6644605E-02   0.0000000E+00  -6.2960858E-04  -1.6885437E-02   0.0000000E+00  -5.2474783E-04  -1.6979111E-02   0.0000000E+00  -4.2804235E-04  -1.6978571E-02   0.0000000E+00  -3.3954595E-04  -1.6923361E-02   0.0000000E+00  -2.6291239E-04  -1.6843777E-02   0.0000000E+00  -1.9621415E-04  -1.6761620E-02   0.0000000E+00  -1.3884512E-04  -1.6692532E-02   0.0000000E+00  -8.8551249E-05  -1.6646998E-02   0.0000000E+00  -4.3097258E-05  -1.9665156E-02   0.0000000E+00  -6.2625454E-04  -1.9898957E-02   0.0000000E+00  -5.3627742E-04  -1.9972391E-02   0.0000000E+00  -4.4841916E-04  -1.9945344E-02   0.0000000E+00  -3.6432547E-04  -1.9862298E-02   0.0000000E+00  -2.8776404E-04  -1.9756623E-02   0.0000000E+00  -2.1908105E-04  -1.9652300E-02   0.0000000E+00  -1.5763065E-04  -1.9566361E-02   0.0000000E+00  -1.0187425E-04  -1.9510316E-02   0.0000000E+00  -4.9985447E-05  -2.3042077E-02   0.0000000E+00  -6.8486080E-04  -2.3258245E-02   0.0000000E+00  -6.0782291E-04  -2.3303017E-02   0.0000000E+00  -5.2473455E-04  -2.3242556E-02   0.0000000E+00  -4.3856897E-04  -2.3125917E-02   0.0000000E+00  -3.5449103E-04  -2.2989500E-02   0.0000000E+00  -2.7520064E-04  -2.2859383E-02   0.0000000E+00  -2.0129107E-04  -2.2754030E-02   0.0000000E+00  -1.3168099E-04  -2.2685943E-02   0.0000000E+00  -6.5103981E-05  -2.6804486E-02   0.0000000E+00  -8.5564400E-04  -2.6993614E-02   0.0000000E+00  -7.7927124E-04  -2.7002661E-02   0.0000000E+00  -6.8874628E-04  -2.6902996E-02   0.0000000E+00  -5.8735104E-04  -2.6747635E-02   0.0000000E+00  -4.8296346E-04  -2.6576078E-02   0.0000000E+00  -3.7995027E-04  -2.6416576E-02   0.0000000E+00  -2.8077324E-04  -2.6289174E-02   0.0000000E+00  -1.8518053E-04  -2.6207443E-02   0.0000000E+00  -9.1991729E-05  -3.0978903E-02   0.0000000E+00  -1.1806337E-03  -3.1132603E-02   0.0000000E+00  -1.0888873E-03  -3.1100579E-02   0.0000000E+00  -9.7154215E-04  -3.0957524E-02   0.0000000E+00  -8.3520915E-04  -3.0759463E-02   0.0000000E+00  -6.9122034E-04  -3.0548880E-02   0.0000000E+00  -5.4733257E-04  -3.0356627E-02   0.0000000E+00  -4.0669827E-04  -3.0204615E-02   0.0000000E+00  -2.6940412E-04  -3.0107671E-02   0.0000000E+00  -1.3412307E-04  -3.5597589E-02   0.0000000E+00  -1.6907129E-03  -3.5711147E-02   0.0000000E+00  -1.5602158E-03  -3.5634585E-02   0.0000000E+00  -1.3939345E-03  -3.5445500E-02   0.0000000E+00  -1.2000286E-03  -3.5201576E-02   0.0000000E+00  -9.9552900E-04  -3.4948900E-02   0.0000000E+00  -7.8961736E-04  -3.4721084E-02   0.0000000E+00  -5.8753672E-04  -3.4542222E-02   0.0000000E+00  -3.8918489E-04  -3.4428623E-02   0.0000000E+00  -1.9388260E-04  -4.0703423E-02   0.0000000E+00  -2.4019682E-03  -4.0771835E-02   0.0000000E+00  -2.2090869E-03  -4.0649932E-02   0.0000000E+00  -1.9653398E-03  -4.0413152E-02   0.0000000E+00  -1.6879826E-03  -4.0121429E-02   0.0000000E+00  -1.4000596E-03  -3.9824188E-02   0.0000000E+00  -1.1122526E-03  -3.9558459E-02   0.0000000E+00  -8.2856353E-04  -3.9350756E-02   0.0000000E+00  -5.4928486E-04  -3.9219145E-02   0.0000000E+00  -2.7408340E-04  -4.6346489E-02   0.0000000E+00  -3.3666866E-03  -4.6367142E-02   0.0000000E+00  -3.0408858E-03  -4.6197399E-02   0.0000000E+00  -2.6846554E-03  -4.5909699E-02   0.0000000E+00  -2.3068648E-03  -4.5569547E-02   0.0000000E+00  -1.9114851E-03  -4.5226626E-02   0.0000000E+00  -1.5193485E-03  -4.4921625E-02   0.0000000E+00  -1.1311941E-03  -4.4684358E-02   0.0000000E+00  -7.4998284E-04  -4.4534463E-02   0.0000000E+00  -3.7377659E-04  -5.2583486E-02   0.0000000E+00  -4.5579355E-03  -5.2550137E-02   0.0000000E+00  -4.0594647E-03  -5.2328542E-02   0.0000000E+00  -3.5554194E-03  -5.1989093E-02   0.0000000E+00  -3.0449287E-03  -5.1597167E-02   0.0000000E+00  -2.5275869E-03  -5.1208060E-02   0.0000000E+00  -2.0083978E-03  -5.0864249E-02   0.0000000E+00  -1.4977505E-03  -5.0597124E-02   0.0000000E+00  -9.9368952E-04  -5.0428715E-02   0.0000000E+00  -4.9540232E-04  -5.9465155E-02   0.0000000E+00  -5.9284768E-03  -5.9372753E-02   0.0000000E+00  -5.2303551E-03  -5.9094410E-02   0.0000000E+00  -4.5537506E-03  -5.8700800E-02   0.0000000E+00  -3.8871001E-03  -5.8258206E-02   0.0000000E+00  -3.2260437E-03  -5.7823457E-02   0.0000000E+00  -2.5673991E-03  -5.7441294E-02   0.0000000E+00  -1.9173241E-03  -5.7146110E-02   0.0000000E+00  -1.2738730E-03  -5.6960199E-02   0.0000000E+00  -6.3582970E-04  -6.7032881E-02   0.0000000E+00  -7.3980917E-03  -6.6881202E-02   0.0000000E+00  -6.5063061E-03  -6.6545092E-02   0.0000000E+00  -5.6485017E-03  -6.6097617E-02   0.0000000E+00  -4.8135421E-03  -6.5605432E-02   0.0000000E+00  -3.9937077E-03  -6.5128893E-02   0.0000000E+00  -3.1824952E-03  -6.4712875E-02   0.0000000E+00  -2.3809064E-03  -6.4392202E-02   0.0000000E+00  -1.5853583E-03  -6.4190723E-02   0.0000000E+00  -7.9241127E-04  -7.5323991E-02   0.0000000E+00  -8.8920044E-03  -7.5119659E-02   0.0000000E+00  -7.8295292E-03  -7.4729525E-02   0.0000000E+00  -6.8023028E-03  -7.4231923E-02   0.0000000E+00  -5.8017019E-03  -7.3696963E-02   0.0000000E+00  -4.8182704E-03  -7.3185220E-02   0.0000000E+00  -3.8454470E-03  -7.2741650E-02   0.0000000E+00  -2.8806203E-03  -7.2400935E-02   0.0000000E+00  -1.9198272E-03  -7.2187431E-02   0.0000000E+00  -9.5982605E-04  -8.4379330E-02   0.0000000E+00  -1.0382187E-02  -8.4132962E-02   0.0000000E+00  -9.1700600E-03  -8.3698794E-02   0.0000000E+00  -7.9893135E-03  -8.3161175E-02   0.0000000E+00  -6.8305475E-03  -8.2592860E-02   0.0000000E+00  -5.6832382E-03  -8.2054392E-02   0.0000000E+00  -4.5420821E-03  -8.1591018E-02   0.0000000E+00  -3.4062145E-03  -8.1236884E-02   0.0000000E+00  -2.2714627E-03  -8.1014745E-02   0.0000000E+00  -1.1356099E-03  -9.4240293E-02   0.0000000E+00  -1.1852085E-02  -9.3966648E-02   0.0000000E+00  -1.0506503E-02  -9.3503073E-02   0.0000000E+00  -9.1794506E-03  -9.2939459E-02   0.0000000E+00  -7.8629320E-03  -9.2350967E-02   0.0000000E+00  -6.5520527E-03  -9.1797784E-02   0.0000000E+00  -5.2405735E-03  -9.1324180E-02   0.0000000E+00  -3.9303470E-03  -9.0962730E-02   0.0000000E+00  -2.6212158E-03  -9.0737127E-02   0.0000000E+00  -1.3111210E-03  -1.0495121E-01   0.0000000E+00  -1.3296354E-02  -1.0466595E-01   0.0000000E+00  -1.1816014E-02  -1.0418937E-01   0.0000000E+00  -1.0340269E-02  -1.0361673E-01   0.0000000E+00  -8.8675702E-03  -1.0302390E-01   0.0000000E+00  -7.3910109E-03  -1.0247006E-01   0.0000000E+00  -5.9137433E-03  -1.0199788E-01   0.0000000E+00  -4.4374298E-03  -1.0163837E-01   0.0000000E+00  -2.9598728E-03  -1.0141388E-01   0.0000000E+00  -1.4803723E-03  -1.1655738E-01   0.0000000E+00  -1.4709979E-02  -1.1627576E-01   0.0000000E+00  -1.3081015E-02  -1.1580267E-01   0.0000000E+00  -1.1451068E-02  -1.1523740E-01   0.0000000E+00  -9.8190820E-03  -1.1465624E-01   0.0000000E+00  -8.1834784E-03  -1.1411703E-01   0.0000000E+00  -6.5493314E-03  -1.1365854E-01   0.0000000E+00  -4.9154880E-03  -1.1331014E-01   0.0000000E+00  -3.2796243E-03  -1.1309200E-01   0.0000000E+00  -1.6409658E-03  -1.2910779E-01   0.0000000E+00  -1.6083119E-02  -1.2884276E-01   0.0000000E+00  -1.4295066E-02  -1.2838663E-01   0.0000000E+00  -1.2505135E-02  -1.2784208E-01   0.0000000E+00  -1.0712327E-02  -1.2728775E-01   0.0000000E+00  -8.9247711E-03  -1.2677705E-01   0.0000000E+00  -7.1418099E-03  -1.2634447E-01   0.0000000E+00  -5.3613167E-03  -1.2601607E-01   0.0000000E+00  -3.5780149E-03  -1.2581007E-01   0.0000000E+00  -1.7906838E-03  -1.4265803E-01   0.0000000E+00  -1.7421130E-02  -1.4241824E-01   0.0000000E+00  -1.5475017E-02  -1.4198716E-01   0.0000000E+00  -1.3522252E-02  -1.4147381E-01   0.0000000E+00  -1.1569249E-02  -1.4095776E-01   0.0000000E+00  -9.6306792E-03  -1.4048727E-01   0.0000000E+00  -7.7029862E-03  -1.4009109E-01   0.0000000E+00  -5.7818415E-03  -1.3979033E-01   0.0000000E+00  -3.8595733E-03  -1.3960171E-01   0.0000000E+00  -1.9317637E-03  -1.5726726E-01   0.0000000E+00  -1.8761804E-02  -1.5705591E-01   0.0000000E+00  -1.6674303E-02  -1.5665446E-01   0.0000000E+00  -1.4562234E-02  -1.5617926E-01   0.0000000E+00  -1.2443641E-02  -1.5570891E-01   0.0000000E+00  -1.0343599E-02  -1.5528609E-01   0.0000000E+00  -8.2645016E-03  -1.5493353E-01   0.0000000E+00  -6.1993604E-03  -1.5466635E-01   0.0000000E+00  -4.1368250E-03  -1.5449859E-01   0.0000000E+00  -2.0708635E-03  -1.7298704E-01   0.0000000E+00  -2.0193342E-02  -1.7280623E-01   0.0000000E+00  -1.7995119E-02  -1.7243941E-01   0.0000000E+00  -1.5728779E-02  -1.7200616E-01   0.0000000E+00  -1.3423365E-02  -1.7158489E-01   0.0000000E+00  -1.1132714E-02  -1.7121285E-01   0.0000000E+00  -8.8754594E-03  -1.7090553E-01   0.0000000E+00  -6.6480311E-03  -1.7067374E-01   0.0000000E+00  -4.4326298E-03  -1.7052847E-01   0.0000000E+00  -2.2171286E-03  -1.8983108E-01   0.0000000E+00  -2.1861592E-02  -1.8968782E-01   0.0000000E+00  -1.9577086E-02  -1.8936498E-01   0.0000000E+00  -1.7143643E-02  -1.8898092E-01   0.0000000E+00  -1.4618302E-02  -1.8860909E-01   0.0000000E+00  -1.2087930E-02  -1.8828538E-01   0.0000000E+00  -9.6024787E-03  -1.8802102E-01   0.0000000E+00  -7.1687135E-03  -1.8782169E-01   0.0000000E+00  -4.7693639E-03  -1.8769595E-01   0.0000000E+00  -2.3847220E-03  -2.0769604E-01   0.0000000E+00  -2.3965081E-02  -2.0761564E-01   0.0000000E+00  -2.1572702E-02  -2.0735960E-01   0.0000000E+00  -1.8928688E-02  -2.0703879E-01   0.0000000E+00  -1.6133146E-02  -2.0671859E-01   0.0000000E+00  -1.3295727E-02  -2.0643851E-01   0.0000000E+00  -1.0517357E-02  -2.0620891E-01   0.0000000E+00  -7.8186272E-03  -2.0603506E-01   0.0000000E+00  -5.1824721E-03  -2.0592511E-01   0.0000000E+00  -2.5826355E-03  -2.2620545E-01   0.0000000E+00  -2.6723970E-02  -2.2625068E-01   0.0000000E+00  -2.4136374E-02  -2.2610815E-01   0.0000000E+00  -2.1194099E-02  -2.2588640E-01   0.0000000E+00  -1.8038532E-02  -2.2563277E-01   0.0000000E+00  -1.4814749E-02  -2.2539549E-01   0.0000000E+00  -1.1674710E-02  -2.2519243E-01   0.0000000E+00  -8.6518256E-03  -2.2503842E-01   0.0000000E+00  -5.7168179E-03  -2.2493917E-01   0.0000000E+00  -2.8446007E-03  -2.4458292E-01   0.0000000E+00  -3.0157704E-02  -2.4485272E-01   0.0000000E+00  -2.7251281E-02  -2.4491760E-01   0.0000000E+00  -2.3899524E-02  -2.4483944E-01   0.0000000E+00  -2.0305537E-02  -2.4467947E-01   0.0000000E+00  -1.6626962E-02  -2.4448992E-01   0.0000000E+00  -1.3060894E-02  -2.4430113E-01   0.0000000E+00  -9.6621951E-03  -2.4415562E-01   0.0000000E+00  -6.3702082E-03  -2.4405749E-01   0.0000000E+00  -3.1653964E-03  -2.6182389E-01   0.0000000E+00  -3.4068935E-02  -2.6229531E-01   0.0000000E+00  -3.0845977E-02  -2.6259509E-01   0.0000000E+00  -2.7045187E-02  -2.6269001E-01   0.0000000E+00  -2.2928419E-02  -2.6264489E-01   0.0000000E+00  -1.8730810E-02  -2.6250020E-01   0.0000000E+00  -1.4687238E-02  -2.6233581E-01   0.0000000E+00  -1.0815997E-02  -2.6217905E-01   0.0000000E+00  -7.1057072E-03  -2.6206499E-01   0.0000000E+00  -3.5199153E-03  -2.7691150E-01   0.0000000E+00  -3.8054641E-02  -2.7751732E-01   0.0000000E+00  -3.4476135E-02  -2.7800968E-01   0.0000000E+00  -3.0273035E-02  -2.7827018E-01   0.0000000E+00  -2.5700791E-02  -2.7832681E-01   0.0000000E+00  -2.1043394E-02  -2.7825549E-01   0.0000000E+00  -1.6478147E-02  -2.7810436E-01   0.0000000E+00  -1.2116710E-02  -2.7793431E-01   0.0000000E+00  -7.9544988E-03  -2.7781308E-01   0.0000000E+00  -3.9472342E-03  -2.8910643E-01   0.0000000E+00  -4.1912474E-02  -2.8984407E-01   0.0000000E+00  -3.7821952E-02  -2.9051372E-01   0.0000000E+00  -3.3179432E-02  -2.9094687E-01   0.0000000E+00  -2.8309716E-02  -2.9111850E-01   0.0000000E+00  -2.3303786E-02  -2.9111442E-01   0.0000000E+00  -1.8313359E-02  -2.9097521E-01   0.0000000E+00  -1.3522560E-02  -2.9080331E-01   0.0000000E+00  -8.9199059E-03  -2.9064780E-01   0.0000000E+00  -4.4333870E-03  -2.9766491E-01   0.0000000E+00  -4.6384729E-02  -2.9864877E-01   0.0000000E+00  -4.1239016E-02  -2.9951912E-01   0.0000000E+00  -3.5994612E-02  -3.0011645E-01   0.0000000E+00  -3.0580534E-02  -3.0048025E-01   0.0000000E+00  -2.5114361E-02  -3.0055907E-01   0.0000000E+00  -1.9743545E-02  -3.0047521E-01   0.0000000E+00  -1.4605605E-02  -3.0032155E-01   0.0000000E+00  -9.6300412E-03  -3.0014834E-01   0.0000000E+00  -4.7427192E-03  -3.0044833E-01   0.0000000E+00  -5.5180512E-02  -3.0183852E-01   0.0000000E+00  -4.8249114E-02  -3.0316377E-01   0.0000000E+00  -4.1886862E-02  -3.0422515E-01   0.0000000E+00  -3.5666283E-02  -3.0492976E-01   0.0000000E+00  -2.9602366E-02  -3.0528599E-01   0.0000000E+00  -2.3732631E-02  -3.0546352E-01   0.0000000E+00  -1.7969498E-02  -3.0555415E-01   0.0000000E+00  -1.2156957E-02  -3.0562040E-01   0.0000000E+00  -6.1798343E-03  -2.9245993E-01   0.0000000E+00  -7.3931806E-02  -2.9512107E-01   0.0000000E+00  -6.4116985E-02  -2.9783377E-01   0.0000000E+00  -5.5292696E-02  -3.0025575E-01   0.0000000E+00  -4.7300197E-02  -3.0188948E-01   0.0000000E+00  -4.0032893E-02  -3.0304939E-01   0.0000000E+00  -3.3065084E-02  -3.0395904E-01   0.0000000E+00  -2.5731798E-02  -3.0467695E-01   0.0000000E+00  -1.7743416E-02  -3.0515069E-01   0.0000000E+00  -9.0397988E-03  -2.5882632E-01   0.0000000E+00  -1.0720184E-01  -2.6239875E-01   0.0000000E+00  -9.6136153E-02  -2.6623541E-01   0.0000000E+00  -8.4689356E-02  -2.6981837E-01   0.0000000E+00  -7.3021628E-02  -2.7227128E-01   0.0000000E+00  -6.1544228E-02  -2.7363753E-01   0.0000000E+00  -5.0284613E-02  -2.7434474E-01   0.0000000E+00  -3.8875509E-02  -2.7457950E-01   0.0000000E+00  -2.6736932E-02  -2.7461037E-01   0.0000000E+00  -1.3682744E-02  -1.6815859E-01   0.0000000E+00  -1.0845314E-01  -1.7183718E-01   0.0000000E+00  -9.7995296E-02  -1.7526427E-01   0.0000000E+00  -8.6630933E-02  -1.7824650E-01   0.0000000E+00  -7.4737303E-02  -1.8061970E-01   0.0000000E+00  -6.3343935E-02  -1.8233818E-01   0.0000000E+00  -5.2248187E-02  -1.8345512E-01   0.0000000E+00  -4.0736586E-02  -1.8409333E-01   0.0000000E+00  -2.8208656E-02  -1.8439898E-01   0.0000000E+00  -1.4498625E-02  -9.6598856E-02   0.0000000E+00  -1.0240670E-01  -1.0008870E-01   0.0000000E+00  -9.3415663E-02  -1.0345890E-01   0.0000000E+00  -8.3394036E-02  -1.0654103E-01   0.0000000E+00  -7.2716877E-02  -1.0917480E-01   0.0000000E+00  -6.2319301E-02  -1.1127018E-01   0.0000000E+00  -5.1944811E-02  -1.1280357E-01   0.0000000E+00  -4.0863883E-02  -1.1381388E-01   0.0000000E+00  -2.8485460E-02  -1.1437487E-01   0.0000000E+00  -1.4699377E-02  -4.6026871E-02   0.0000000E+00  -9.6903034E-02  -4.8366472E-02   0.0000000E+00  -8.8857986E-02  -5.0820429E-02   0.0000000E+00  -7.9754330E-02  -5.3248320E-02   0.0000000E+00  -6.9934733E-02  -5.5489209E-02   0.0000000E+00  -6.0295764E-02  -5.7411849E-02   0.0000000E+00  -5.0565310E-02  -5.8926087E-02   0.0000000E+00  -4.0004119E-02  -5.9995949E-02   0.0000000E+00  -2.8011851E-02  -6.0625512E-02   0.0000000E+00  -1.4496058E-02  -4.4188951E-03   0.0000000E+00  -9.3554012E-02  -5.4542739E-03   0.0000000E+00  -8.5719138E-02  -6.7617553E-03   0.0000000E+00  -7.6903179E-02  -8.2375426E-03   0.0000000E+00  -6.7400746E-02  -9.7472146E-03   0.0000000E+00  -5.8118004E-02  -1.1153541E-02   0.0000000E+00  -4.8793573E-02  -1.2337891E-02   0.0000000E+00  -3.8674705E-02  -1.3223005E-02   0.0000000E+00  -2.7133545E-02  -1.3765899E-02   0.0000000E+00  -1.4061172E-02   3.8105294E-02   0.0000000E+00  -9.2537157E-02   3.7845489E-02   0.0000000E+00  -8.4331855E-02   3.7352227E-02   0.0000000E+00  -7.5270697E-02   3.6681119E-02   0.0000000E+00  -6.5612085E-02   3.5899084E-02   0.0000000E+00  -5.6309246E-02   3.5098702E-02   0.0000000E+00  -4.7127437E-02   3.4373939E-02   0.0000000E+00  -3.7297409E-02   3.3800259E-02   0.0000000E+00  -2.6155040E-02   3.3432916E-02   0.0000000E+00  -1.3553827E-02   8.5285738E-02   0.0000000E+00  -9.2948705E-02   8.4978886E-02   0.0000000E+00  -8.4172301E-02   8.4683418E-02   0.0000000E+00  -7.4606724E-02   8.4403068E-02   0.0000000E+00  -6.4545169E-02   8.4107980E-02   0.0000000E+00  -5.5006582E-02   8.3799601E-02   0.0000000E+00  -4.5787711E-02   8.3501033E-02   0.0000000E+00  -3.6106896E-02   8.3245851E-02   0.0000000E+00  -2.5266951E-02   8.3071597E-02   0.0000000E+00  -1.3079790E-02   1.3545273E-01   0.0000000E+00  -9.3548223E-02   1.3438012E-01   0.0000000E+00  -8.4290698E-02   1.3369243E-01   0.0000000E+00  -7.4253500E-02   1.3335279E-01   0.0000000E+00  -6.3804425E-02   1.3322282E-01   0.0000000E+00  -5.4019380E-02   1.3319020E-01   0.0000000E+00  -4.4721648E-02   1.3318287E-01   0.0000000E+00  -3.5126142E-02   1.3316979E-01   0.0000000E+00  -2.4516605E-02   1.3315171E-01   0.0000000E+00  -1.2672894E-02   1.8481328E-01   0.0000000E+00  -9.3253404E-02   1.8260026E-01   0.0000000E+00  -8.3763056E-02   1.8116474E-01   0.0000000E+00  -7.3487058E-02   1.8044403E-01   0.0000000E+00  -6.2861085E-02   1.8020156E-01   0.0000000E+00  -5.2986037E-02   1.8021846E-01   0.0000000E+00  -4.3699484E-02   1.8033116E-01   0.0000000E+00  -3.4222528E-02   1.8044299E-01   0.0000000E+00  -2.3836922E-02   1.8051413E-01   0.0000000E+00  -1.2306642E-02   2.2996986E-01   0.0000000E+00  -9.1417901E-02   2.2662275E-01   0.0000000E+00  -8.1978969E-02   2.2435541E-01   0.0000000E+00  -7.1770288E-02   2.2309344E-01   0.0000000E+00  -6.1262015E-02   2.2253510E-01   0.0000000E+00  -5.1539928E-02   2.2238952E-01   0.0000000E+00  -4.2441607E-02   2.2243401E-01   0.0000000E+00  -3.3199344E-02   2.2252768E-01   0.0000000E+00  -2.3105433E-02   2.2259985E-01   0.0000000E+00  -1.1922790E-02   2.6644322E-01   0.0000000E+00  -8.7958470E-02   2.6126474E-01   0.0000000E+00  -7.8762881E-02   2.5748286E-01   0.0000000E+00  -6.8864547E-02   2.5494328E-01   0.0000000E+00  -5.8747914E-02   2.5328648E-01   0.0000000E+00  -4.9437229E-02   2.5221792E-01   0.0000000E+00  -4.0743653E-02   2.5153908E-01   0.0000000E+00  -3.1901229E-02   2.5112268E-01   0.0000000E+00  -2.2216586E-02   2.5090107E-01   0.0000000E+00  -1.1467569E-02   2.8418219E-01   0.0000000E+00  -8.3835438E-02   2.7764112E-01   0.0000000E+00  -7.4756004E-02   2.7243283E-01   0.0000000E+00  -6.5215930E-02   2.6842758E-01   0.0000000E+00  -5.5626269E-02   2.6539674E-01   0.0000000E+00  -4.6841264E-02   2.6311746E-01   0.0000000E+00  -3.8624376E-02   2.6146567E-01   0.0000000E+00  -3.0234585E-02   2.6035240E-01   0.0000000E+00  -2.1040985E-02   2.5971043E-01   0.0000000E+00  -1.0850323E-02   2.9003569E-01   0.0000000E+00  -7.9963058E-02   2.8277144E-01   0.0000000E+00  -7.0927866E-02   2.7678171E-01   0.0000000E+00  -6.1657880E-02   2.7197197E-01   0.0000000E+00  -5.2547008E-02   2.6819021E-01   0.0000000E+00  -4.4215519E-02   2.6530603E-01   0.0000000E+00  -3.6397822E-02   2.6318371E-01   0.0000000E+00  -2.8434040E-02   2.6173371E-01   0.0000000E+00  -1.9770328E-02   2.6089796E-01   0.0000000E+00  -1.0207407E-02   2.9106787E-01   0.0000000E+00  -7.6483048E-02   2.8340739E-01   0.0000000E+00  -6.7731909E-02   2.7702790E-01   0.0000000E+00  -5.8719270E-02   2.7185357E-01   0.0000000E+00  -4.9953364E-02   2.6776639E-01   0.0000000E+00  -4.1943479E-02   2.6456958E-01   0.0000000E+00  -3.4413442E-02   2.6215088E-01   0.0000000E+00  -2.6783640E-02   2.6047617E-01   0.0000000E+00  -1.8549271E-02   2.5950253E-01   0.0000000E+00  -9.5355716E-03   2.9027739E-01   0.0000000E+00  -7.2769001E-02   2.8230143E-01   0.0000000E+00  -6.4706460E-02   2.7557096E-01   0.0000000E+00  -5.6266475E-02   2.7009681E-01   0.0000000E+00  -4.7990974E-02   2.6568469E-01   0.0000000E+00  -4.0238507E-02   2.6220173E-01   0.0000000E+00  -3.2950375E-02   2.5953129E-01   0.0000000E+00  -2.5556017E-02   2.5761694E-01   0.0000000E+00  -1.7605774E-02   2.5647506E-01   0.0000000E+00  -9.0206917E-03   2.8852877E-01   0.0000000E+00  -6.9462664E-02   2.8009194E-01   0.0000000E+00  -6.1638437E-02   2.7304941E-01   0.0000000E+00  -5.3662218E-02   2.6730099E-01   0.0000000E+00  -4.5774996E-02   2.6268905E-01   0.0000000E+00  -3.8323607E-02   2.5902447E-01   0.0000000E+00  -3.1287827E-02   2.5612628E-01   0.0000000E+00  -2.4185058E-02   2.5400683E-01   0.0000000E+00  -1.6641818E-02   2.5270408E-01   0.0000000E+00  -8.5112751E-03   2.8609386E-01   0.0000000E+00  -6.5704703E-02   2.7709553E-01   0.0000000E+00  -5.8693510E-02   2.6968393E-01   0.0000000E+00  -5.1438667E-02   2.6356056E-01   0.0000000E+00  -4.3926708E-02   2.5869119E-01   0.0000000E+00  -3.6700111E-02   2.5477353E-01   0.0000000E+00  -2.9669421E-02   2.5167236E-01   0.0000000E+00  -2.2721952E-02   2.4935000E-01   0.0000000E+00  -1.5520832E-02   2.4789993E-01   0.0000000E+00  -7.9099098E-03   2.8325111E-01   0.0000000E+00  -6.1314844E-02   2.7354607E-01   0.0000000E+00  -5.5251811E-02   2.6558033E-01   0.0000000E+00  -4.8803035E-02   2.5905165E-01   0.0000000E+00  -4.2082425E-02   2.5377023E-01   0.0000000E+00  -3.5190880E-02   2.4952309E-01   0.0000000E+00  -2.8316569E-02   2.4617499E-01   0.0000000E+00  -2.1418782E-02   2.4370585E-01   0.0000000E+00  -1.4414242E-02   2.4217266E-01   0.0000000E+00  -7.2629456E-03   2.8007177E-01   0.0000000E+00  -5.6108817E-02   2.6961794E-01   0.0000000E+00  -5.1436707E-02   2.6088735E-01   0.0000000E+00  -4.5854542E-02   2.5385466E-01   0.0000000E+00  -3.9855566E-02   2.4811262E-01   0.0000000E+00  -3.3466283E-02   2.4351124E-01   0.0000000E+00  -2.6902465E-02   2.3988213E-01   0.0000000E+00  -2.0228717E-02   2.3721614E-01   0.0000000E+00  -1.3530693E-02   2.3557052E-01   0.0000000E+00  -6.7770411E-03   2.7694163E-01   0.0000000E+00  -5.0296798E-02   2.6551199E-01   0.0000000E+00  -4.6714686E-02   2.5604838E-01   0.0000000E+00  -4.2447820E-02   2.4825779E-01   0.0000000E+00  -3.7347190E-02   2.4201736E-01   0.0000000E+00  -3.1620197E-02   2.3697585E-01   0.0000000E+00  -2.5383299E-02   2.3307072E-01   0.0000000E+00  -1.9006671E-02   2.3022950E-01   0.0000000E+00  -1.2600850E-02   2.2850120E-01   0.0000000E+00  -6.2650568E-03   2.7425310E-01   0.0000000E+00  -4.3993808E-02   2.6169091E-01   0.0000000E+00  -4.1165058E-02   2.5134122E-01   0.0000000E+00  -3.8173672E-02   2.4276644E-01   0.0000000E+00  -3.4202650E-02   2.3583448E-01   0.0000000E+00  -2.9405991E-02   2.3032044E-01   0.0000000E+00  -2.3804940E-02   2.2607137E-01   0.0000000E+00  -1.7788718E-02   2.2303686E-01   0.0000000E+00  -1.1707225E-02   2.2126918E-01   0.0000000E+00  -5.8109160E-03   2.7208492E-01   0.0000000E+00  -3.7662838E-02   2.5859466E-01   0.0000000E+00  -3.5332967E-02   2.4706647E-01   0.0000000E+00  -3.2913480E-02   2.3771134E-01   0.0000000E+00  -3.0240627E-02   2.2999124E-01   0.0000000E+00  -2.6473461E-02   2.2389387E-01   0.0000000E+00  -2.1831019E-02   2.1925902E-01   0.0000000E+00  -1.6456110E-02   2.1602555E-01   0.0000000E+00  -1.0862375E-02   2.1417516E-01   0.0000000E+00  -5.4186094E-03   2.7027801E-01   0.0000000E+00  -3.1917144E-02   2.5623104E-01   0.0000000E+00  -2.9704519E-02   2.4373722E-01   0.0000000E+00  -2.7546702E-02   2.3322430E-01   0.0000000E+00  -2.5273975E-02   2.2485115E-01   0.0000000E+00  -2.2739962E-02   2.1810231E-01   0.0000000E+00  -1.9165108E-02   2.1296108E-01   0.0000000E+00  -1.4729358E-02   2.0951803E-01   0.0000000E+00  -9.8642418E-03   2.0754001E-01   0.0000000E+00  -4.9541993E-03   2.6904505E-01   0.0000000E+00  -2.7296087E-02   2.5458282E-01   0.0000000E+00  -2.4984026E-02   2.4116555E-01   0.0000000E+00  -2.2595089E-02   2.2984669E-01   0.0000000E+00  -2.0443747E-02   2.2049241E-01   0.0000000E+00  -1.8175459E-02   2.1313158E-01   0.0000000E+00  -1.5708225E-02   2.0764510E-01   0.0000000E+00  -1.2454326E-02   2.0384400E-01   0.0000000E+00  -8.5062385E-03   2.0175545E-01   0.0000000E+00  -4.3316577E-03   2.6833454E-01   0.0000000E+00  -2.4137821E-02   2.5440526E-01   0.0000000E+00  -2.1952638E-02   2.3973624E-01   0.0000000E+00  -1.8971752E-02   2.2728400E-01   0.0000000E+00  -1.6283134E-02   2.1722217E-01   0.0000000E+00  -1.4009031E-02   2.0918030E-01   0.0000000E+00  -1.1762644E-02   2.0323522E-01   0.0000000E+00  -9.5030563E-03   1.9930139E-01   0.0000000E+00  -6.7675347E-03   1.9695456E-01   0.0000000E+00  -3.4647328E-03   2.6602158E-01   0.0000000E+00  -2.2568431E-02   2.5389054E-01   0.0000000E+00  -1.9843703E-02   2.4024221E-01   0.0000000E+00  -1.7463613E-02   2.2639063E-01   0.0000000E+00  -1.4056575E-02   2.1493176E-01   0.0000000E+00  -1.1014887E-02   2.0630735E-01   0.0000000E+00  -8.5090501E-03   1.9994545E-01   0.0000000E+00  -6.4598587E-03   1.9553600E-01   0.0000000E+00  -4.6041198E-03   1.9303139E-01   0.0000000E+00  -2.4533169E-03   2.5969940E-01   0.0000000E+00  -2.1063004E-02   2.4989624E-01   0.0000000E+00  -1.7932886E-02   2.3909567E-01   0.0000000E+00  -1.5877912E-02   2.2673406E-01   0.0000000E+00  -1.3350565E-02   2.1483226E-01   0.0000000E+00  -1.0436161E-02   2.0479763E-01   0.0000000E+00  -7.2077434E-03   1.9763930E-01   0.0000000E+00  -4.6646995E-03   1.9282736E-01   0.0000000E+00  -2.8816229E-03   1.9002594E-01   0.0000000E+00  -1.4629384E-03   2.4157079E-01   0.0000000E+00  -1.5840147E-02   2.3328474E-01   0.0000000E+00  -1.3503562E-02   2.2307459E-01   0.0000000E+00  -1.0942172E-02   2.1330534E-01   0.0000000E+00  -9.3096616E-03   2.0384163E-01   0.0000000E+00  -6.9984323E-03   1.9651964E-01   0.0000000E+00  -4.9396460E-03   1.9098300E-01   0.0000000E+00  -2.8162913E-03   1.8766062E-01   0.0000000E+00  -1.1576926E-03   2.1530618E-01   0.0000000E+00  -8.2754456E-03   2.0731917E-01   0.0000000E+00  -6.5609282E-03   1.9909635E-01   0.0000000E+00  -4.4895015E-03   1.9251549E-01   0.0000000E+00  -3.2088412E-03   1.8726476E-01   0.0000000E+00  -1.9006985E-03   1.8383697E-01   0.0000000E+00  -6.0192531E-04   1.9114222E-01   0.0000000E+00  -2.0136815E-03   1.8552390E-01   0.0000000E+00  -2.4302876E-04   1.8107860E-01   0.0000000E+00   6.3948345E-04   1.7851175E-01   0.0000000E+00   4.8328826E-04  -3.7932144E-03   0.0000000E+00   6.4939623E-11  -3.7953542E-03   0.0000000E+00   1.9722853E-05  -3.8011996E-03   0.0000000E+00   4.1902971E-05  -3.8089785E-03   0.0000000E+00   6.8775844E-05  -3.8155648E-03   0.0000000E+00   1.0295172E-04  -3.8165872E-03   0.0000000E+00   1.4523392E-04  -3.8053696E-03   0.0000000E+00   1.9862287E-04  -3.7742548E-03   0.0000000E+00   2.6221186E-04  -5.3058346E-03   0.0000000E+00  -6.2354375E-13  -5.3094290E-03   0.0000000E+00   2.8681468E-05  -5.3193145E-03   0.0000000E+00   6.0443948E-05  -5.3332192E-03   0.0000000E+00   9.7833843E-05  -5.3467811E-03   0.0000000E+00   1.4432833E-04  -5.3540599E-03   0.0000000E+00   2.0128190E-04  -5.3460994E-03   0.0000000E+00   2.7131508E-04  -5.3111883E-03   0.0000000E+00   3.5706026E-04  -7.2159190E-03   0.0000000E+00   1.6960332E-10  -7.2213402E-03   0.0000000E+00   3.5343455E-05  -7.2365352E-03   0.0000000E+00   7.3968913E-05  -7.2583691E-03   0.0000000E+00   1.1907674E-04  -7.2812540E-03   0.0000000E+00   1.7363942E-04  -7.2968528E-03   0.0000000E+00   2.4068856E-04  -7.2941771E-03   0.0000000E+00   3.2053306E-04  -7.2573540E-03   0.0000000E+00   4.1676327E-04  -9.3473308E-03   0.0000000E+00   2.2624816E-10  -9.3548754E-03   0.0000000E+00   3.9109073E-05  -9.3762772E-03   0.0000000E+00   8.1455328E-05  -9.4074747E-03   0.0000000E+00   1.3061400E-04  -9.4416337E-03   0.0000000E+00   1.8902493E-04  -9.4683077E-03   0.0000000E+00   2.5986912E-04  -9.4734104E-03   0.0000000E+00   3.4458976E-04  -9.4374791E-03   0.0000000E+00   4.4416590E-04  -1.1619201E-02   0.0000000E+00  -1.2921065E-09  -1.1629181E-02   0.0000000E+00   4.0387666E-05  -1.1657597E-02   0.0000000E+00   8.3981518E-05  -1.1699676E-02   0.0000000E+00   1.3382583E-04  -1.1747140E-02   0.0000000E+00   1.9304758E-04  -1.1787836E-02   0.0000000E+00   2.6353533E-04  -1.1804473E-02   0.0000000E+00   3.4831587E-04  -1.1774279E-02   0.0000000E+00   4.4568113E-04  -1.4029820E-02   0.0000000E+00   6.3816558E-10  -1.4042553E-02   0.0000000E+00   4.0931860E-05  -1.4078945E-02   0.0000000E+00   8.4660227E-05  -1.4133528E-02   0.0000000E+00   1.3406851E-04  -1.4196862E-02   0.0000000E+00   1.9184788E-04  -1.4254957E-02   0.0000000E+00   2.6029331E-04  -1.4288163E-02   0.0000000E+00   3.4095618E-04  -1.4269756E-02   0.0000000E+00   4.3436501E-04  -1.6631145E-02   0.0000000E+00   6.3535149E-10  -1.6646998E-02   0.0000000E+00   4.3094802E-05  -1.6692532E-02   0.0000000E+00   8.8550747E-05  -1.6761621E-02   0.0000000E+00   1.3884564E-04  -1.6843777E-02   0.0000000E+00   1.9621392E-04  -1.6923359E-02   0.0000000E+00   2.6291184E-04  -1.6978567E-02   0.0000000E+00   3.3954653E-04  -1.6979111E-02   0.0000000E+00   4.2804147E-04  -1.9490898E-02   0.0000000E+00   9.7057484E-10  -1.9510316E-02   0.0000000E+00   4.9982875E-05  -1.9566361E-02   0.0000000E+00   1.0187308E-04  -1.9652300E-02   0.0000000E+00   1.5763106E-04  -1.9756624E-02   0.0000000E+00   2.1908063E-04  -1.9862296E-02   0.0000000E+00   2.8776430E-04  -1.9945342E-02   0.0000000E+00   3.6432652E-04  -1.9972391E-02   0.0000000E+00   4.4841866E-04  -2.2662438E-02   0.0000000E+00  -8.4477708E-10  -2.2685943E-02   0.0000000E+00   6.5101478E-05  -2.2754032E-02   0.0000000E+00   1.3167999E-04  -2.2859378E-02   0.0000000E+00   2.0128972E-04  -2.2989500E-02   0.0000000E+00   2.7520047E-04  -2.3125919E-02   0.0000000E+00   3.5448984E-04  -2.3242561E-02   0.0000000E+00   4.3856853E-04  -2.3303019E-02   0.0000000E+00   5.2473316E-04  -2.6179323E-02   0.0000000E+00   2.0526625E-09  -2.6207441E-02   0.0000000E+00   9.1989816E-05  -2.6289176E-02   0.0000000E+00   1.8517901E-04  -2.6416577E-02   0.0000000E+00   2.8077318E-04  -2.6576074E-02   0.0000000E+00   3.7995077E-04  -2.6747629E-02   0.0000000E+00   4.8296331E-04  -2.6903003E-02   0.0000000E+00   5.8735040E-04  -2.7002657E-02   0.0000000E+00   6.8874651E-04  -3.0074408E-02   0.0000000E+00   1.2457811E-09  -3.0107675E-02   0.0000000E+00   1.3412091E-04  -3.0204611E-02   0.0000000E+00   2.6940304E-04  -3.0356623E-02   0.0000000E+00   4.0669722E-04  -3.0548876E-02   0.0000000E+00   5.4733211E-04  -3.0759459E-02   0.0000000E+00   6.9122028E-04  -3.0957527E-02   0.0000000E+00   8.3520875E-04  -3.1100586E-02   0.0000000E+00   9.7154186E-04  -3.4389731E-02   0.0000000E+00   3.1797940E-09  -3.4428623E-02   0.0000000E+00   1.9388163E-04  -3.4542225E-02   0.0000000E+00   3.8918472E-04  -3.4721084E-02   0.0000000E+00   5.8753684E-04  -3.4948897E-02   0.0000000E+00   7.8961649E-04  -3.5201576E-02   0.0000000E+00   9.9552830E-04  -3.5445500E-02   0.0000000E+00   1.2000281E-03  -3.5634588E-02   0.0000000E+00   1.3939338E-03  -3.9174221E-02   0.0000000E+00   1.5942543E-09  -3.9219145E-02   0.0000000E+00   2.7407901E-04  -3.9350759E-02   0.0000000E+00   5.4928602E-04  -3.9558452E-02   0.0000000E+00   8.2856353E-04  -3.9824191E-02   0.0000000E+00   1.1122522E-03  -4.0121421E-02   0.0000000E+00   1.4000590E-03  -4.0413145E-02   0.0000000E+00   1.6879810E-03  -4.0649936E-02   0.0000000E+00   1.9653332E-03  -4.4483233E-02   0.0000000E+00  -1.3631722E-09  -4.4534460E-02   0.0000000E+00   3.7377511E-04  -4.4684358E-02   0.0000000E+00   7.4997946E-04  -4.4921622E-02   0.0000000E+00   1.1311929E-03  -4.5226619E-02   0.0000000E+00   1.5193477E-03  -4.5569547E-02   0.0000000E+00   1.9114831E-03  -4.5909695E-02   0.0000000E+00   2.3068641E-03  -4.6197403E-02   0.0000000E+00   2.6846568E-03  -5.0371241E-02   0.0000000E+00   1.7152775E-09  -5.0428715E-02   0.0000000E+00   4.9540139E-04  -5.0597124E-02   0.0000000E+00   9.9368964E-04  -5.0864242E-02   0.0000000E+00   1.4977489E-03  -5.1208064E-02   0.0000000E+00   2.0083962E-03  -5.1597163E-02   0.0000000E+00   2.5275876E-03  -5.1989086E-02   0.0000000E+00   3.0449263E-03  -5.2328542E-02   0.0000000E+00   3.5554185E-03  -5.6896787E-02   0.0000000E+00  -8.1352414E-10  -5.6960192E-02   0.0000000E+00   6.3582498E-04  -5.7146117E-02   0.0000000E+00   1.2738726E-03  -5.7441287E-02   0.0000000E+00   1.9173214E-03  -5.7823457E-02   0.0000000E+00   2.5673979E-03  -5.8258202E-02   0.0000000E+00   3.2260439E-03  -5.8700807E-02   0.0000000E+00   3.8870980E-03  -5.9094407E-02   0.0000000E+00   4.5537460E-03  -6.4122170E-02   0.0000000E+00  -1.7007857E-09  -6.4190716E-02   0.0000000E+00   7.9241180E-04  -6.4392194E-02   0.0000000E+00   1.5853602E-03  -6.4712889E-02   0.0000000E+00   2.3809061E-03  -6.5128878E-02   0.0000000E+00   3.1824955E-03  -6.5605424E-02   0.0000000E+00   3.9937068E-03  -6.6097610E-02   0.0000000E+00   4.8135421E-03  -6.6545092E-02   0.0000000E+00   5.6484998E-03  -7.2114803E-02   0.0000000E+00  -2.7099398E-09  -7.2187439E-02   0.0000000E+00   9.5982529E-04  -7.2400950E-02   0.0000000E+00   1.9198259E-03  -7.2741635E-02   0.0000000E+00   2.8806212E-03  -7.3185220E-02   0.0000000E+00   3.8454491E-03  -7.3696956E-02   0.0000000E+00   4.8182728E-03  -7.4231923E-02   0.0000000E+00   5.8017047E-03  -7.4729510E-02   0.0000000E+00   6.8023056E-03  -8.0939129E-02   0.0000000E+00   5.7561322E-10  -8.1014745E-02   0.0000000E+00   1.1356059E-03  -8.1236884E-02   0.0000000E+00   2.2714634E-03  -8.1591025E-02   0.0000000E+00   3.4062159E-03  -8.2054377E-02   0.0000000E+00   4.5420849E-03  -8.2592845E-02   0.0000000E+00   5.6832419E-03  -8.3161153E-02   0.0000000E+00   6.8305489E-03  -8.3698787E-02   0.0000000E+00   7.9893125E-03  -9.0660453E-02   0.0000000E+00  -8.3635143E-09  -9.0737127E-02   0.0000000E+00   1.3111302E-03  -9.0962715E-02   0.0000000E+00   2.6212181E-03  -9.1324165E-02   0.0000000E+00   3.9303526E-03  -9.1797791E-02   0.0000000E+00   5.2405810E-03  -9.2350967E-02   0.0000000E+00   6.5520587E-03  -9.2939459E-02   0.0000000E+00   7.8629339E-03  -9.3503065E-02   0.0000000E+00   9.1794524E-03  -1.0133746E-01   0.0000000E+00  -4.8876303E-09  -1.0141390E-01   0.0000000E+00   1.4803737E-03  -1.0163837E-01   0.0000000E+00   2.9598773E-03  -1.0199787E-01   0.0000000E+00   4.4374401E-03  -1.0247007E-01   0.0000000E+00   5.9137545E-03  -1.0302390E-01   0.0000000E+00   7.3910211E-03  -1.0361670E-01   0.0000000E+00   8.8675823E-03  -1.0418936E-01   0.0000000E+00   1.0340269E-02  -1.1301791E-01   0.0000000E+00   1.7337284E-10  -1.1309199E-01   0.0000000E+00   1.6409652E-03  -1.1331012E-01   0.0000000E+00   3.2796343E-03  -1.1365855E-01   0.0000000E+00   4.9154949E-03  -1.1411704E-01   0.0000000E+00   6.5493444E-03  -1.1465624E-01   0.0000000E+00   8.1834905E-03  -1.1523741E-01   0.0000000E+00   9.8190932E-03  -1.1580268E-01   0.0000000E+00   1.1451072E-02  -1.2573998E-01   0.0000000E+00   4.0936223E-09  -1.2581009E-01   0.0000000E+00   1.7906775E-03  -1.2601608E-01   0.0000000E+00   3.5780203E-03  -1.2634446E-01   0.0000000E+00   5.3613246E-03  -1.2677705E-01   0.0000000E+00   7.1418220E-03  -1.2728775E-01   0.0000000E+00   8.9247841E-03  -1.2784208E-01   0.0000000E+00   1.0712340E-02  -1.2838665E-01   0.0000000E+00   1.2505137E-02  -1.3953745E-01   0.0000000E+00  -4.6145061E-09  -1.3960172E-01   0.0000000E+00   1.9317586E-03  -1.3979033E-01   0.0000000E+00   3.8595719E-03  -1.4009111E-01   0.0000000E+00   5.7818475E-03  -1.4048727E-01   0.0000000E+00   7.7029956E-03  -1.4095779E-01   0.0000000E+00   9.6306875E-03  -1.4147386E-01   0.0000000E+00   1.1569257E-02  -1.4198720E-01   0.0000000E+00   1.3522256E-02  -1.5444158E-01   0.0000000E+00  -1.3520457E-09  -1.5449859E-01   0.0000000E+00   2.0708479E-03  -1.5466635E-01   0.0000000E+00   4.1368208E-03  -1.5493356E-01   0.0000000E+00   6.1993599E-03  -1.5528615E-01   0.0000000E+00   8.2645062E-03  -1.5570894E-01   0.0000000E+00   1.0343606E-02  -1.5617928E-01   0.0000000E+00   1.2443652E-02  -1.5665454E-01   0.0000000E+00   1.4562251E-02  -1.7047855E-01   0.0000000E+00  -6.6276664E-09  -1.7052853E-01   0.0000000E+00   2.2171133E-03  -1.7067377E-01   0.0000000E+00   4.4326205E-03  -1.7090556E-01   0.0000000E+00   6.6480297E-03  -1.7121288E-01   0.0000000E+00   8.8754613E-03  -1.7158493E-01   0.0000000E+00   1.1132721E-02  -1.7200620E-01   0.0000000E+00   1.3423375E-02  -1.7243946E-01   0.0000000E+00   1.5728785E-02  -1.8765272E-01   0.0000000E+00  -1.8110395E-08  -1.8769594E-01   0.0000000E+00   2.3846969E-03  -1.8782173E-01   0.0000000E+00   4.7693523E-03  -1.8802103E-01   0.0000000E+00   7.1687074E-03  -1.8828541E-01   0.0000000E+00   9.6024815E-03  -1.8860911E-01   0.0000000E+00   1.2087939E-02  -1.8898094E-01   0.0000000E+00   1.4618311E-02  -1.8936498E-01   0.0000000E+00   1.7143650E-02  -2.0588772E-01   0.0000000E+00  -6.8816499E-09  -2.0592511E-01   0.0000000E+00   2.5826166E-03  -2.0603503E-01   0.0000000E+00   5.1824544E-03  -2.0620891E-01   0.0000000E+00   7.8186179E-03  -2.0643848E-01   0.0000000E+00   1.0517360E-02  -2.0671862E-01   0.0000000E+00   1.3295740E-02  -2.0703879E-01   0.0000000E+00   1.6133158E-02  -2.0735958E-01   0.0000000E+00   1.8928695E-02  -2.2490476E-01   0.0000000E+00  -1.2266913E-08  -2.2493915E-01   0.0000000E+00   2.8445828E-03  -2.2503841E-01   0.0000000E+00   5.7168044E-03  -2.2519241E-01   0.0000000E+00   8.6518172E-03  -2.2539552E-01   0.0000000E+00   1.1674713E-02  -2.2563277E-01   0.0000000E+00   1.4814761E-02  -2.2588642E-01   0.0000000E+00   1.8038549E-02  -2.2610821E-01   0.0000000E+00   2.1194113E-02  -2.4402095E-01   0.0000000E+00  -6.9497812E-09  -2.4405746E-01   0.0000000E+00   3.1653822E-03  -2.4415562E-01   0.0000000E+00   6.3701952E-03  -2.4430113E-01   0.0000000E+00   9.6621886E-03  -2.4448992E-01   0.0000000E+00   1.3060899E-02  -2.4467947E-01   0.0000000E+00   1.6626971E-02  -2.4483947E-01   0.0000000E+00   2.0305548E-02  -2.4491760E-01   0.0000000E+00   2.3899535E-02  -2.6202282E-01   0.0000000E+00  -2.5001863E-09  -2.6206502E-01   0.0000000E+00   3.5199074E-03  -2.6217908E-01   0.0000000E+00   7.1056997E-03  -2.6233575E-01   0.0000000E+00   1.0815995E-02  -2.6250017E-01   0.0000000E+00   1.4687243E-02  -2.6264489E-01   0.0000000E+00   1.8730817E-02  -2.6269004E-01   0.0000000E+00   2.2928430E-02  -2.6259515E-01   0.0000000E+00   2.7045192E-02  -2.7776447E-01   0.0000000E+00  -2.2462934E-09  -2.7781314E-01   0.0000000E+00   3.9472310E-03  -2.7793428E-01   0.0000000E+00   7.9544978E-03  -2.7810436E-01   0.0000000E+00   1.2116712E-02  -2.7825549E-01   0.0000000E+00   1.6478151E-02  -2.7832681E-01   0.0000000E+00   2.1043403E-02  -2.7827013E-01   0.0000000E+00   2.5700800E-02  -2.7800968E-01   0.0000000E+00   3.0273044E-02  -2.9058170E-01   0.0000000E+00  -5.2378063E-10  -2.9064780E-01   0.0000000E+00   4.4333865E-03  -2.9080337E-01   0.0000000E+00   8.9199152E-03  -2.9097524E-01   0.0000000E+00   1.3522561E-02  -2.9111442E-01   0.0000000E+00   1.8313365E-02  -2.9111850E-01   0.0000000E+00   2.3303796E-02  -2.9094690E-01   0.0000000E+00   2.8309735E-02  -2.9051378E-01   0.0000000E+00   3.3179451E-02  -3.0003136E-01   0.0000000E+00  -1.2328184E-09  -3.0014834E-01   0.0000000E+00   4.7427244E-03  -3.0032155E-01   0.0000000E+00   9.6300449E-03  -3.0047527E-01   0.0000000E+00   1.4605612E-02  -3.0055910E-01   0.0000000E+00   1.9743549E-02  -3.0048028E-01   0.0000000E+00   2.5114374E-02  -3.0011636E-01   0.0000000E+00   3.0580558E-02  -2.9951912E-01   0.0000000E+00   3.5994630E-02  -3.0565992E-01   0.0000000E+00   4.5183737E-09  -3.0562037E-01   0.0000000E+00   6.1798422E-03  -3.0555421E-01   0.0000000E+00   1.2156967E-02  -3.0546355E-01   0.0000000E+00   1.7969506E-02  -3.0528602E-01   0.0000000E+00   2.3732632E-02  -3.0492979E-01   0.0000000E+00   2.9602388E-02  -3.0422512E-01   0.0000000E+00   3.5666302E-02  -3.0316374E-01   0.0000000E+00   4.1886888E-02  -3.0529875E-01   0.0000000E+00   5.1607190E-09  -3.0515066E-01   0.0000000E+00   9.0397941E-03  -3.0467692E-01   0.0000000E+00   1.7743405E-02  -3.0395898E-01   0.0000000E+00   2.5731817E-02  -3.0304939E-01   0.0000000E+00   3.3065092E-02  -3.0188951E-01   0.0000000E+00   4.0032897E-02  -3.0025578E-01   0.0000000E+00   4.7300238E-02  -2.9783383E-01   0.0000000E+00   5.5292722E-02  -2.7460805E-01   0.0000000E+00  -9.4094466E-09  -2.7461022E-01   0.0000000E+00   1.3682733E-02  -2.7457955E-01   0.0000000E+00   2.6736945E-02  -2.7434483E-01   0.0000000E+00   3.8875483E-02  -2.7363759E-01   0.0000000E+00   5.0284632E-02  -2.7227122E-01   0.0000000E+00   6.1544262E-02  -2.6981843E-01   0.0000000E+00   7.3021673E-02  -2.6623547E-01   0.0000000E+00   8.4689341E-02  -1.8448655E-01   0.0000000E+00   2.5271776E-09  -1.8439895E-01   0.0000000E+00   1.4498571E-02  -1.8409328E-01   0.0000000E+00   2.8208664E-02  -1.8345508E-01   0.0000000E+00   4.0736601E-02  -1.8233824E-01   0.0000000E+00   5.2248199E-02  -1.8061964E-01   0.0000000E+00   6.3343942E-02  -1.7824650E-01   0.0000000E+00   7.4737348E-02  -1.7526433E-01   0.0000000E+00   8.6630955E-02  -1.1455322E-01   0.0000000E+00   1.6525160E-08  -1.1437489E-01   0.0000000E+00   1.4699421E-02  -1.1381388E-01   0.0000000E+00   2.8485449E-02  -1.1280350E-01   0.0000000E+00   4.0863879E-02  -1.1127010E-01   0.0000000E+00   5.1944815E-02  -1.0917484E-01   0.0000000E+00   6.2319320E-02  -1.0654106E-01   0.0000000E+00   7.2716847E-02  -1.0345890E-01   0.0000000E+00   8.3394058E-02  -6.0832419E-02   0.0000000E+00  -3.7062815E-08  -6.0625512E-02   0.0000000E+00   1.4496033E-02  -5.9995927E-02   0.0000000E+00   2.8011823E-02  -5.8926098E-02   0.0000000E+00   4.0004101E-02  -5.7411768E-02   0.0000000E+00   5.0565310E-02  -5.5489209E-02   0.0000000E+00   6.0295735E-02  -5.3248350E-02   0.0000000E+00   6.9934770E-02  -5.0820515E-02   0.0000000E+00   7.9754338E-02  -1.3948550E-02   0.0000000E+00  -4.8813742E-08  -1.3765804E-02   0.0000000E+00   1.4061173E-02  -1.3222926E-02   0.0000000E+00   2.7133528E-02  -1.2337949E-02   0.0000000E+00   3.8674701E-02  -1.1153474E-02   0.0000000E+00   4.8793599E-02  -9.7472183E-03   0.0000000E+00   5.8118004E-02  -8.2375063E-03   0.0000000E+00   6.7400768E-02  -6.7617879E-03   0.0000000E+00   7.6903209E-02   3.3306573E-02   0.0000000E+00  -2.3076416E-09   3.3432886E-02   0.0000000E+00   1.3553773E-02   3.3800308E-02   0.0000000E+00   2.6155023E-02   3.4373928E-02   0.0000000E+00   3.7297439E-02   3.5098769E-02   0.0000000E+00   4.7127381E-02   3.5899062E-02   0.0000000E+00   5.6309283E-02   3.6681097E-02   0.0000000E+00   6.5612040E-02   3.7352279E-02   0.0000000E+00   7.5270697E-02   8.3009541E-02   0.0000000E+00   5.1090563E-08   8.3071657E-02   0.0000000E+00   1.3079808E-02   8.3245799E-02   0.0000000E+00   2.5266936E-02   8.3501004E-02   0.0000000E+00   3.6106881E-02   8.3799548E-02   0.0000000E+00   4.5787714E-02   8.4107943E-02   0.0000000E+00   5.5006564E-02   8.4403202E-02   0.0000000E+00   6.4545169E-02   8.4683441E-02   0.0000000E+00   7.4606828E-02   1.3314304E-01   0.0000000E+00   4.2080316E-08   1.3315167E-01   0.0000000E+00   1.2672882E-02   1.3316980E-01   0.0000000E+00   2.4516623E-02   1.3318293E-01   0.0000000E+00   3.5126146E-02   1.3319029E-01   0.0000000E+00   4.4721641E-02   1.3322285E-01   0.0000000E+00   5.4019388E-02   1.3335289E-01   0.0000000E+00   6.3804425E-02   1.3369249E-01   0.0000000E+00   7.4253529E-02   1.8053742E-01   0.0000000E+00  -3.1543816E-09   1.8051414E-01   0.0000000E+00   1.2306649E-02   1.8044297E-01   0.0000000E+00   2.3836892E-02   1.8033113E-01   0.0000000E+00   3.4222510E-02   1.8021847E-01   0.0000000E+00   4.3699473E-02   1.8020162E-01   0.0000000E+00   5.2986056E-02   1.8044402E-01   0.0000000E+00   6.2861107E-02   1.8116485E-01   0.0000000E+00   7.3487110E-02   2.2262548E-01   0.0000000E+00   4.1801158E-09   2.2259979E-01   0.0000000E+00   1.1922829E-02   2.2252762E-01   0.0000000E+00   2.3105476E-02   2.2243410E-01   0.0000000E+00   3.3199362E-02   2.2238953E-01   0.0000000E+00   4.2441595E-02   2.2253504E-01   0.0000000E+00   5.1539931E-02   2.2309339E-01   0.0000000E+00   6.1262030E-02   2.2435541E-01   0.0000000E+00   7.1770318E-02   2.5083068E-01   0.0000000E+00   8.4417691E-09   2.5090101E-01   0.0000000E+00   1.1467606E-02   2.5112262E-01   0.0000000E+00   2.2216575E-02   2.5153905E-01   0.0000000E+00   3.1901240E-02   2.5221795E-01   0.0000000E+00   4.0743615E-02   2.5328642E-01   0.0000000E+00   4.9437225E-02   2.5494331E-01   0.0000000E+00   5.8747958E-02   2.5748277E-01   0.0000000E+00   6.8864599E-02   2.5950277E-01   0.0000000E+00   2.9875139E-08   2.5971046E-01   0.0000000E+00   1.0850353E-02   2.6035243E-01   0.0000000E+00   2.1040989E-02   2.6146561E-01   0.0000000E+00   3.0234590E-02   2.6311746E-01   0.0000000E+00   3.8624398E-02   2.6539677E-01   0.0000000E+00   4.6841256E-02   2.6842761E-01   0.0000000E+00   5.5626217E-02   2.7243283E-01   0.0000000E+00   6.5215938E-02   2.6062223E-01   0.0000000E+00   1.3820131E-08   2.6089793E-01   0.0000000E+00   1.0207437E-02   2.6173365E-01   0.0000000E+00   1.9770343E-02   2.6318368E-01   0.0000000E+00   2.8434029E-02   2.6530600E-01   0.0000000E+00   3.6397818E-02   2.6819023E-01   0.0000000E+00   4.4215534E-02   2.7197191E-01   0.0000000E+00   5.2546985E-02   2.7678168E-01   0.0000000E+00   6.1657891E-02   2.5917938E-01   0.0000000E+00  -7.2778934E-09   2.5950253E-01   0.0000000E+00   9.5355529E-03   2.6047623E-01   0.0000000E+00   1.8549288E-02   2.6215088E-01   0.0000000E+00   2.6783641E-02   2.6456958E-01   0.0000000E+00   3.4413449E-02   2.6776636E-01   0.0000000E+00   4.1943476E-02   2.7185354E-01   0.0000000E+00   4.9953360E-02   2.7702788E-01   0.0000000E+00   5.8719262E-02   2.5609696E-01   0.0000000E+00   4.0897628E-09   2.5647503E-01   0.0000000E+00   9.0207001E-03   2.5761697E-01   0.0000000E+00   1.7605782E-02   2.5953129E-01   0.0000000E+00   2.5556019E-02   2.6220170E-01   0.0000000E+00   3.2950379E-02   2.6568469E-01   0.0000000E+00   4.0238518E-02   2.7009675E-01   0.0000000E+00   4.7990967E-02   2.7557093E-01   0.0000000E+00   5.6266464E-02   2.5226250E-01   0.0000000E+00   4.4638346E-09   2.5270408E-01   0.0000000E+00   8.5112778E-03   2.5400686E-01   0.0000000E+00   1.6641809E-02   2.5612625E-01   0.0000000E+00   2.4185065E-02   2.5902447E-01   0.0000000E+00   3.1287827E-02   2.6268905E-01   0.0000000E+00   3.8323600E-02   2.6730099E-01   0.0000000E+00   4.5775000E-02   2.7304938E-01   0.0000000E+00   5.3662218E-02   2.4740554E-01   0.0000000E+00   3.2775689E-09   2.4789992E-01   0.0000000E+00   7.9099219E-03   2.4935001E-01   0.0000000E+00   1.5520823E-02   2.5167236E-01   0.0000000E+00   2.2721952E-02   2.5477356E-01   0.0000000E+00   2.9669432E-02   2.5869116E-01   0.0000000E+00   3.6700103E-02   2.6356056E-01   0.0000000E+00   4.3926720E-02   2.6968393E-01   0.0000000E+00   5.1438648E-02   2.4163176E-01   0.0000000E+00   9.7369348E-09   2.4217264E-01   0.0000000E+00   7.2629494E-03   2.4370582E-01   0.0000000E+00   1.4414239E-02   2.4617498E-01   0.0000000E+00   2.1418782E-02   2.4952309E-01   0.0000000E+00   2.8316576E-02   2.5377023E-01   0.0000000E+00   3.5190884E-02   2.5905165E-01   0.0000000E+00   4.2082429E-02   2.6558033E-01   0.0000000E+00   4.8803028E-02   2.3504061E-01   0.0000000E+00   6.7363857E-09   2.3557052E-01   0.0000000E+00   6.7770435E-03   2.3721613E-01   0.0000000E+00   1.3530696E-02   2.3988213E-01   0.0000000E+00   2.0228716E-02   2.4351121E-01   0.0000000E+00   2.6902474E-02   2.4811263E-01   0.0000000E+00   3.3466287E-02   2.5385463E-01   0.0000000E+00   3.9855562E-02   2.6088741E-01   0.0000000E+00   4.5854546E-02   2.2793587E-01   0.0000000E+00   1.2801795E-09   2.2850120E-01   0.0000000E+00   6.2650680E-03   2.3022951E-01   0.0000000E+00   1.2600849E-02   2.3307073E-01   0.0000000E+00   1.9006670E-02   2.3697582E-01   0.0000000E+00   2.5383297E-02   2.4201734E-01   0.0000000E+00   3.1620197E-02   2.4825780E-01   0.0000000E+00   3.7347201E-02   2.5604844E-01   0.0000000E+00   4.2447831E-02   2.2068247E-01   0.0000000E+00   9.6442321E-10   2.2126921E-01   0.0000000E+00   5.8109192E-03   2.2303684E-01   0.0000000E+00   1.1707222E-02   2.2607137E-01   0.0000000E+00   1.7788718E-02   2.3032047E-01   0.0000000E+00   2.3804935E-02   2.3583448E-01   0.0000000E+00   2.9405987E-02   2.4276647E-01   0.0000000E+00   3.4202658E-02   2.5134116E-01   0.0000000E+00   3.8173676E-02   2.1355166E-01   0.0000000E+00   2.9996874E-10   2.1417513E-01   0.0000000E+00   5.4186150E-03   2.1602552E-01   0.0000000E+00   1.0862381E-02   2.1925899E-01   0.0000000E+00   1.6456114E-02   2.2389388E-01   0.0000000E+00   2.1831017E-02   2.2999121E-01   0.0000000E+00   2.6473457E-02   2.3771134E-01   0.0000000E+00   3.0240634E-02   2.4706648E-01   0.0000000E+00   3.2913491E-02   2.0689394E-01   0.0000000E+00   7.1820100E-10   2.0754005E-01   0.0000000E+00   4.9542016E-03   2.0951806E-01   0.0000000E+00   9.8642474E-03   2.1296106E-01   0.0000000E+00   1.4729361E-02   2.1810228E-01   0.0000000E+00   1.9165110E-02   2.2485113E-01   0.0000000E+00   2.2739954E-02   2.3322433E-01   0.0000000E+00   2.5273977E-02   2.4373725E-01   0.0000000E+00   2.7546708E-02   2.0104411E-01   0.0000000E+00   3.0944183E-09   2.0175548E-01   0.0000000E+00   4.3316572E-03   2.0384398E-01   0.0000000E+00   8.5062440E-03   2.0764509E-01   0.0000000E+00   1.2454337E-02   2.1313156E-01   0.0000000E+00   1.5708223E-02   2.2049242E-01   0.0000000E+00   1.8175459E-02   2.2984669E-01   0.0000000E+00   2.0443747E-02   2.4116556E-01   0.0000000E+00   2.2595102E-02   1.9621447E-01   0.0000000E+00   2.4174396E-09   1.9695458E-01   0.0000000E+00   3.4647388E-03   1.9930139E-01   0.0000000E+00   6.7675365E-03   2.0323518E-01   0.0000000E+00   9.5030544E-03   2.0918025E-01   0.0000000E+00   1.1762652E-02   2.1722217E-01   0.0000000E+00   1.4009040E-02   2.2728400E-01   0.0000000E+00   1.6283143E-02   2.3973621E-01   0.0000000E+00   1.8971762E-02   1.9222973E-01   0.0000000E+00   1.7455219E-10   1.9303142E-01   0.0000000E+00   2.4533246E-03   1.9553603E-01   0.0000000E+00   4.6041277E-03   1.9994545E-01   0.0000000E+00   6.4598615E-03   2.0630735E-01   0.0000000E+00   8.5090566E-03   2.1493174E-01   0.0000000E+00   1.1014889E-02   2.2639060E-01   0.0000000E+00   1.4056577E-02   2.4024220E-01   0.0000000E+00   1.7463615E-02   1.8907370E-01   0.0000000E+00   5.2008748E-09   1.9002594E-01   0.0000000E+00   1.4629415E-03   1.9282733E-01   0.0000000E+00   2.8816282E-03   1.9763938E-01   0.0000000E+00   4.6646660E-03   2.0479761E-01   0.0000000E+00   7.2077415E-03   2.1483226E-01   0.0000000E+00   1.0436162E-02   2.2673406E-01   0.0000000E+00   1.3350572E-02   2.3909569E-01   0.0000000E+00   1.5877908E-02   1.8649994E-01   0.0000000E+00   5.9075705E-10   1.8766063E-01   0.0000000E+00   1.1576825E-03   1.9098300E-01   0.0000000E+00   2.8162925E-03   1.9651963E-01   0.0000000E+00   4.9396399E-03   2.0384161E-01   0.0000000E+00   6.9984207E-03   2.1330532E-01   0.0000000E+00   9.3096485E-03   2.2307459E-01   0.0000000E+00   1.0942163E-02   2.3328476E-01   0.0000000E+00   1.3503562E-02   1.8276636E-01   0.0000000E+00  -3.9205023E-10   1.8383697E-01   0.0000000E+00   6.0192309E-04   1.8726476E-01   0.0000000E+00   1.9006977E-03   1.9251546E-01   0.0000000E+00   3.2088244E-03   1.9909635E-01   0.0000000E+00   4.4894926E-03   2.0731916E-01   0.0000000E+00   6.5609212E-03   2.1530615E-01   0.0000000E+00   8.2754381E-03   1.7767601E-01   0.0000000E+00  -2.0981301E-09   1.7851172E-01   0.0000000E+00  -4.8328986E-04   1.8107863E-01   0.0000000E+00  -6.3948828E-04   1.8552388E-01   0.0000000E+00   2.4302234E-04   1.9114223E-01   0.0000000E+00   2.0136698E-03  -3.7124979E-03   0.0000000E+00   3.3769096E-04  -3.6078054E-03   0.0000000E+00   4.2641303E-04  -3.4489899E-03   0.0000000E+00   5.2041118E-04  -3.2208718E-03   0.0000000E+00   6.1888940E-04  -2.9123479E-03   0.0000000E+00   7.1031554E-04  -2.5211794E-03   0.0000000E+00   7.7954982E-04  -2.0615663E-03   0.0000000E+00   8.0606737E-04  -5.2364813E-03   0.0000000E+00   4.5368355E-04  -5.1016156E-03   0.0000000E+00   5.6684599E-04  -4.8864479E-03   0.0000000E+00   6.8965420E-04  -4.5690616E-03   0.0000000E+00   8.0893410E-04  -4.1272142E-03   0.0000000E+00   9.0870820E-04  -3.5467981E-03   0.0000000E+00   9.6946408E-04  -2.8324062E-03   0.0000000E+00   9.7275892E-04  -2.0023461E-03   0.0000000E+00   1.0482728E-03  -7.1675265E-03   0.0000000E+00   5.2665221E-04  -6.9990726E-03   0.0000000E+00   6.4981420E-04  -6.7211557E-03   0.0000000E+00   7.7931676E-04  -6.2969509E-03   0.0000000E+00   9.0509228E-04  -5.6968303E-03   0.0000000E+00   9.9970750E-04  -4.8944480E-03   0.0000000E+00   1.0622385E-03  -3.9108912E-03   0.0000000E+00   1.0796705E-03  -2.7717522E-03   0.0000000E+00   1.1323449E-03  -9.3353316E-03   0.0000000E+00   5.5957754E-04  -9.1362996E-03   0.0000000E+00   6.8396993E-04  -8.7966919E-03   0.0000000E+00   8.1621204E-04  -8.2671642E-03   0.0000000E+00   9.4163208E-04  -7.5039449E-03   0.0000000E+00   1.0341948E-03  -6.4787492E-03   0.0000000E+00   1.0906578E-03  -5.2106022E-03   0.0000000E+00   1.1031691E-03  -3.7150672E-03   0.0000000E+00   1.1727076E-03  -1.1666442E-02   0.0000000E+00   5.5923470E-04  -1.1443642E-02   0.0000000E+00   6.8184041E-04  -1.1052370E-02   0.0000000E+00   8.0966047E-04  -1.0427277E-02   0.0000000E+00   9.3123864E-04  -9.5135327E-03   0.0000000E+00   1.0157347E-03  -8.2660057E-03   0.0000000E+00   1.0686963E-03  -6.6992305E-03   0.0000000E+00   1.0848072E-03  -4.8126462E-03   0.0000000E+00   1.2036158E-03  -1.4164612E-02   0.0000000E+00   5.4070092E-04  -1.3927510E-02   0.0000000E+00   6.5697776E-04  -1.3496730E-02   0.0000000E+00   7.7365787E-04  -1.2790532E-02   0.0000000E+00   8.8440982E-04  -1.1738076E-02   0.0000000E+00   9.5659256E-04  -1.0274932E-02   0.0000000E+00   1.0078514E-03  -8.4016416E-03   0.0000000E+00   1.0425950E-03  -6.0883914E-03   0.0000000E+00   1.2471364E-03  -1.6885437E-02   0.0000000E+00   5.2474911E-04  -1.6644603E-02   0.0000000E+00   6.2960561E-04  -1.6185815E-02   0.0000000E+00   7.2807324E-04  -1.5410469E-02   0.0000000E+00   8.2046085E-04  -1.4227702E-02   0.0000000E+00   8.7930879E-04  -1.2555970E-02   0.0000000E+00   9.3239127E-04  -1.0370233E-02   0.0000000E+00   1.0075374E-03  -7.5895386E-03   0.0000000E+00   1.3421336E-03  -1.9898957E-02   0.0000000E+00   5.3627661E-04  -1.9665159E-02   0.0000000E+00   6.2625285E-04  -1.9188998E-02   0.0000000E+00   7.0369581E-04  -1.8353049E-02   0.0000000E+00   7.7643874E-04  -1.7052149E-02   0.0000000E+00   8.1503397E-04  -1.5164144E-02   0.0000000E+00   8.8977139E-04  -1.2665207E-02   0.0000000E+00   1.0244563E-03  -9.3829334E-03   0.0000000E+00   1.5328468E-03  -2.3258248E-02   0.0000000E+00   6.0782302E-04  -2.3042079E-02   0.0000000E+00   6.8486010E-04  -2.2559594E-02   0.0000000E+00   7.4605265E-04  -2.1674694E-02   0.0000000E+00   7.9975417E-04  -2.0252457E-02   0.0000000E+00   8.2538975E-04  -1.8145027E-02   0.0000000E+00   9.2678948E-04  -1.5348161E-02   0.0000000E+00   1.1086101E-03  -1.1597214E-02   0.0000000E+00   1.7586442E-03  -2.6993614E-02   0.0000000E+00   7.7927025E-04  -2.6804484E-02   0.0000000E+00   8.5564522E-04  -2.6329543E-02   0.0000000E+00   9.0694003E-04  -2.5408702E-02   0.0000000E+00   9.4096246E-04  -2.3867067E-02   0.0000000E+00   9.5033005E-04  -2.1567244E-02   0.0000000E+00   1.0319577E-03  -1.8505597E-02   0.0000000E+00   1.2053108E-03  -1.4483289E-02   0.0000000E+00   1.7599359E-03  -3.1132609E-02   0.0000000E+00   1.0888883E-03  -3.0978907E-02   0.0000000E+00   1.1806287E-03  -3.0523604E-02   0.0000000E+00   1.2328316E-03  -2.9585460E-02   0.0000000E+00   1.2430898E-03  -2.7959689E-02   0.0000000E+00   1.2002628E-03  -2.5515825E-02   0.0000000E+00   1.1891618E-03  -2.2288451E-02   0.0000000E+00   1.2770819E-03  -1.8257719E-02   0.0000000E+00   1.5053485E-03  -3.5711151E-02   0.0000000E+00   1.5602144E-03  -3.5597593E-02   0.0000000E+00   1.6907116E-03  -3.5173021E-02   0.0000000E+00   1.7602361E-03  -3.4252442E-02   0.0000000E+00   1.7396047E-03  -3.2573827E-02   0.0000000E+00   1.6779390E-03  -3.0032489E-02   0.0000000E+00   1.6265861E-03  -2.6726460E-02   0.0000000E+00   1.7584608E-03  -2.2451013E-02   0.0000000E+00   2.2481338E-03  -4.0771823E-02   0.0000000E+00   2.2090853E-03  -4.0703423E-02   0.0000000E+00   2.4019671E-03  -4.0317394E-02   0.0000000E+00   2.5589550E-03  -3.9445169E-02   0.0000000E+00   2.6017174E-03  -3.7804641E-02   0.0000000E+00   2.6852731E-03  -3.5236720E-02   0.0000000E+00   3.0442271E-03  -3.1834241E-02   0.0000000E+00   4.1114511E-03  -2.7327038E-02   0.0000000E+00   5.9141340E-03  -4.6367150E-02   0.0000000E+00   3.0408860E-03  -4.6346493E-02   0.0000000E+00   3.3666864E-03  -4.6021666E-02   0.0000000E+00   3.6698116E-03  -4.5225799E-02   0.0000000E+00   3.9517633E-03  -4.3722592E-02   0.0000000E+00   4.3689269E-03  -4.1288737E-02   0.0000000E+00   5.3451802E-03  -3.7972268E-02   0.0000000E+00   7.1325032E-03  -3.3639610E-02   0.0000000E+00   9.1387499E-03  -5.2550141E-02   0.0000000E+00   4.0594642E-03  -5.2583490E-02   0.0000000E+00   4.5579351E-03  -5.2330110E-02   0.0000000E+00   5.0736088E-03  -5.1636077E-02   0.0000000E+00   5.6729033E-03  -5.0302915E-02   0.0000000E+00   6.4581819E-03  -4.8139755E-02   0.0000000E+00   7.7535557E-03  -4.5116693E-02   0.0000000E+00   9.5797768E-03  -4.1136928E-02   0.0000000E+00   1.1339361E-02  -5.9372764E-02   0.0000000E+00   5.2303537E-03  -5.9465159E-02   0.0000000E+00   5.9284791E-03  -5.9280585E-02   0.0000000E+00   6.6674026E-03  -5.8671523E-02   0.0000000E+00   7.5207851E-03  -5.7469860E-02   0.0000000E+00   8.5740667E-03  -5.5516686E-02   0.0000000E+00   9.9691441E-03  -5.2760098E-02   0.0000000E+00   1.1630449E-02  -4.9178936E-02   0.0000000E+00   1.3149150E-02  -6.6881187E-02   0.0000000E+00   6.5062996E-03  -6.7032866E-02   0.0000000E+00   7.3980903E-03  -6.6902988E-02   0.0000000E+00   8.3271973E-03  -6.6352516E-02   0.0000000E+00   9.3621025E-03  -6.5194681E-02   0.0000000E+00   1.0565239E-02  -6.3319057E-02   0.0000000E+00   1.1962404E-02  -6.0690533E-02   0.0000000E+00   1.3472903E-02  -5.7336818E-02   0.0000000E+00   1.4873960E-02  -7.5119652E-02   0.0000000E+00   7.8295292E-03  -7.5323991E-02   0.0000000E+00   8.8919988E-03  -7.5236209E-02   0.0000000E+00   9.9905664E-03  -7.4706100E-02   0.0000000E+00   1.1148789E-02  -7.3526822E-02   0.0000000E+00   1.2425302E-02  -7.1603239E-02   0.0000000E+00   1.3807428E-02  -6.8910800E-02   0.0000000E+00   1.5255488E-02  -6.5494701E-02   0.0000000E+00   1.6628668E-02  -8.4132940E-02   0.0000000E+00   9.1700498E-03  -8.4379330E-02   0.0000000E+00   1.0382180E-02  -8.4318593E-02   0.0000000E+00   1.1620264E-02  -8.3788373E-02   0.0000000E+00   1.2878440E-02  -8.2551770E-02   0.0000000E+00   1.4202608E-02  -8.0504715E-02   0.0000000E+00   1.5585798E-02  -7.7601619E-02   0.0000000E+00   1.7061604E-02  -7.3895380E-02   0.0000000E+00   1.8458841E-02  -9.3966633E-02   0.0000000E+00   1.0506494E-02  -9.4240293E-02   0.0000000E+00   1.1852072E-02  -9.4192937E-02   0.0000000E+00   1.3212177E-02  -9.3645103E-02   0.0000000E+00   1.4568293E-02  -9.2336595E-02   0.0000000E+00   1.5939834E-02  -9.0133019E-02   0.0000000E+00   1.7349275E-02  -8.6963296E-02   0.0000000E+00   1.8893983E-02  -8.2873225E-02   0.0000000E+00   2.0357380E-02  -1.0466593E-01   0.0000000E+00   1.1815996E-02  -1.0495121E-01   0.0000000E+00   1.3296337E-02  -1.0490272E-01   0.0000000E+00   1.4777591E-02  -1.0431969E-01   0.0000000E+00   1.6242748E-02  -1.0292311E-01   0.0000000E+00   1.7675392E-02  -1.0053833E-01   0.0000000E+00   1.9129766E-02  -9.7073331E-02   0.0000000E+00   2.0759786E-02  -9.2572749E-02   0.0000000E+00   2.2305578E-02  -1.1627576E-01   0.0000000E+00   1.3080995E-02  -1.1655737E-01   0.0000000E+00   1.4709956E-02  -1.1649124E-01   0.0000000E+00   1.6325273E-02  -1.1585647E-01   0.0000000E+00   1.7914917E-02  -1.1434845E-01   0.0000000E+00   1.9435959E-02  -1.1175996E-01   0.0000000E+00   2.0950800E-02  -1.0797285E-01   0.0000000E+00   2.2667427E-02  -1.0302768E-01   0.0000000E+00   2.4310108E-02  -1.2884276E-01   0.0000000E+00   1.4295056E-02  -1.2910780E-01   0.0000000E+00   1.6083099E-02  -1.2901019E-01   0.0000000E+00   1.7847573E-02  -1.2830622E-01   0.0000000E+00   1.9576158E-02  -1.2666452E-01   0.0000000E+00   2.1210143E-02  -1.2384515E-01   0.0000000E+00   2.2818781E-02  -1.1970922E-01   0.0000000E+00   2.4623614E-02  -1.1427630E-01   0.0000000E+00   2.6381345E-02  -1.4241825E-01   0.0000000E+00   1.5475014E-02  -1.4265804E-01   0.0000000E+00   1.7421123E-02  -1.4251967E-01   0.0000000E+00   1.9334614E-02  -1.4173289E-01   0.0000000E+00   2.1204172E-02  -1.3993853E-01   0.0000000E+00   2.2967219E-02  -1.3686195E-01   0.0000000E+00   2.4716832E-02  -1.3235119E-01   0.0000000E+00   2.6637521E-02  -1.2639053E-01   0.0000000E+00   2.8523736E-02  -1.5705593E-01   0.0000000E+00   1.6674297E-02  -1.5726726E-01   0.0000000E+00   1.8761801E-02  -1.5708479E-01   0.0000000E+00   2.0795129E-02  -1.5621056E-01   0.0000000E+00   2.2781989E-02  -1.5425722E-01   0.0000000E+00   2.4661744E-02  -1.5090610E-01   0.0000000E+00   2.6609618E-02  -1.4600867E-01   0.0000000E+00   2.8711544E-02  -1.3950039E-01   0.0000000E+00   3.0757245E-02  -1.7280626E-01   0.0000000E+00   1.7995121E-02  -1.7298704E-01   0.0000000E+00   2.0193344E-02  -1.7276546E-01   0.0000000E+00   2.2296688E-02  -1.7181027E-01   0.0000000E+00   2.4336426E-02  -1.6971451E-01   0.0000000E+00   2.6269283E-02  -1.6610189E-01   0.0000000E+00   2.8454073E-02  -1.6084842E-01   0.0000000E+00   3.0850738E-02  -1.5384182E-01   0.0000000E+00   3.3112295E-02  -1.8968783E-01   0.0000000E+00   1.9577088E-02  -1.8983111E-01   0.0000000E+00   2.1861592E-02  -1.8957530E-01   0.0000000E+00   2.3979869E-02  -1.8856734E-01   0.0000000E+00   2.5961472E-02  -1.8636630E-01   0.0000000E+00   2.7838724E-02  -1.8256582E-01   0.0000000E+00   3.0242302E-02  -1.7707093E-01   0.0000000E+00   3.3080086E-02  -1.6976318E-01   0.0000000E+00   3.5642426E-02  -2.0761566E-01   0.0000000E+00   2.1572700E-02  -2.0769599E-01   0.0000000E+00   2.3965087E-02  -2.0739681E-01   0.0000000E+00   2.6064830E-02  -2.0636585E-01   0.0000000E+00   2.7877139E-02  -2.0413458E-01   0.0000000E+00   2.9537391E-02  -2.0028301E-01   0.0000000E+00   3.2049969E-02  -1.9478956E-01   0.0000000E+00   3.5470765E-02  -1.8759581E-01   0.0000000E+00   3.8431726E-02  -2.2625066E-01   0.0000000E+00   2.4136374E-02  -2.2620548E-01   0.0000000E+00   2.6723972E-02  -2.2583063E-01   0.0000000E+00   2.8819477E-02  -2.2476937E-01   0.0000000E+00   3.0454308E-02  -2.2258539E-01   0.0000000E+00   3.1746898E-02  -2.1892262E-01   0.0000000E+00   3.4155130E-02  -2.1377632E-01   0.0000000E+00   3.8194243E-02  -2.0731395E-01   0.0000000E+00   4.1633721E-02  -2.4485278E-01   0.0000000E+00   2.7251294E-02  -2.4458288E-01   0.0000000E+00   3.0157717E-02  -2.4400680E-01   0.0000000E+00   3.2464288E-02  -2.4284449E-01   0.0000000E+00   3.4026209E-02  -2.4086843E-01   0.0000000E+00   3.4896206E-02  -2.3760647E-01   0.0000000E+00   3.7019923E-02  -2.3316231E-01   0.0000000E+00   4.1608937E-02  -2.2807510E-01   0.0000000E+00   4.5535970E-02  -2.6229528E-01   0.0000000E+00   3.0845981E-02  -2.6182395E-01   0.0000000E+00   3.4068946E-02  -2.6103872E-01   0.0000000E+00   3.6609098E-02  -2.5976777E-01   0.0000000E+00   3.8289495E-02  -2.5773284E-01   0.0000000E+00   3.9358746E-02  -2.5490010E-01   0.0000000E+00   4.1622002E-02  -2.5151360E-01   0.0000000E+00   4.6336904E-02  -2.4825791E-01   0.0000000E+00   5.0658587E-02  -2.7751729E-01   0.0000000E+00   3.4476139E-02  -2.7691153E-01   0.0000000E+00   3.8054645E-02  -2.7610031E-01   0.0000000E+00   4.0955663E-02  -2.7473560E-01   0.0000000E+00   4.3331228E-02  -2.7286923E-01   0.0000000E+00   4.5029301E-02  -2.7015254E-01   0.0000000E+00   4.8637521E-02  -2.6721722E-01   0.0000000E+00   5.3544689E-02  -2.6557538E-01   0.0000000E+00   5.7617016E-02  -2.8984410E-01   0.0000000E+00   3.7821960E-02  -2.8910643E-01   0.0000000E+00   4.1912485E-02  -2.8834701E-01   0.0000000E+00   4.5596734E-02  -2.8724939E-01   0.0000000E+00   4.9207229E-02  -2.8543696E-01   0.0000000E+00   5.3505156E-02  -2.8268331E-01   0.0000000E+00   5.9244748E-02  -2.7970824E-01   0.0000000E+00   6.3840002E-02  -2.7811098E-01   0.0000000E+00   6.7004569E-02  -2.9864877E-01   0.0000000E+00   4.1239019E-02  -2.9766494E-01   0.0000000E+00   4.6384744E-02  -2.9661891E-01   0.0000000E+00   5.1966518E-02  -2.9499418E-01   0.0000000E+00   5.9003968E-02  -2.9237741E-01   0.0000000E+00   6.7966677E-02  -2.8937176E-01   0.0000000E+00   7.4013919E-02  -2.8609321E-01   0.0000000E+00   7.7054724E-02  -2.8386167E-01   0.0000000E+00   7.7833124E-02  -3.0183852E-01   0.0000000E+00   4.8249166E-02  -3.0044836E-01   0.0000000E+00   5.5180516E-02  -2.9887322E-01   0.0000000E+00   6.3458502E-02  -2.9618269E-01   0.0000000E+00   7.4658781E-02  -2.9219455E-01   0.0000000E+00   8.5966997E-02  -2.8904057E-01   0.0000000E+00   8.9084275E-02  -2.8425995E-01   0.0000000E+00   8.9279398E-02  -2.7727318E-01   0.0000000E+00   8.6593501E-02  -2.9512113E-01   0.0000000E+00   6.4116985E-02  -2.9246002E-01   0.0000000E+00   7.3931798E-02  -2.8942034E-01   0.0000000E+00   8.5518420E-02  -2.8468287E-01   0.0000000E+00   9.8095901E-02  -2.7983019E-01   0.0000000E+00   1.0457188E-01  -2.7718428E-01   0.0000000E+00   1.0094642E-01  -2.6416349E-01   0.0000000E+00   9.9342898E-02  -2.3144345E-01   0.0000000E+00   9.5682047E-02  -2.6239881E-01   0.0000000E+00   9.6136153E-02  -2.5882638E-01   0.0000000E+00   1.0720185E-01  -2.5418305E-01   0.0000000E+00   1.1683176E-01  -2.4835904E-01   0.0000000E+00   1.2030534E-01  -2.3749742E-01   0.0000000E+00   1.1762390E-01  -2.1539560E-01   0.0000000E+00   1.0975323E-01  -1.8369184E-01   0.0000000E+00   1.0599884E-01  -1.5103689E-01   0.0000000E+00   1.0240075E-01  -1.7183727E-01   0.0000000E+00   9.7995318E-02  -1.6815865E-01   0.0000000E+00   1.0845315E-01  -1.6381726E-01   0.0000000E+00   1.1836634E-01  -1.5694170E-01   0.0000000E+00   1.2084731E-01  -1.4549693E-01   0.0000000E+00   1.1777022E-01  -1.2941431E-01   0.0000000E+00   1.1264267E-01  -1.0953693E-01   0.0000000E+00   1.0997685E-01  -8.9600079E-02   0.0000000E+00   1.0558280E-01  -1.0008871E-01   0.0000000E+00   9.3415618E-02  -9.6598946E-02   0.0000000E+00   1.0240674E-01  -9.2863999E-02   0.0000000E+00   1.1162462E-01  -8.7927051E-02   0.0000000E+00   1.1668538E-01  -8.0977559E-02   0.0000000E+00   1.1567817E-01  -7.2065838E-02   0.0000000E+00   1.1385922E-01  -6.1928686E-02   0.0000000E+00   1.1244934E-01  -5.1532596E-02   0.0000000E+00   1.0748614E-01  -4.8366528E-02   0.0000000E+00   8.8857934E-02  -4.6026886E-02   0.0000000E+00   9.6903078E-02  -4.3789759E-02   0.0000000E+00   1.0552241E-01  -4.1340772E-02   0.0000000E+00   1.1220523E-01  -3.8491502E-02   0.0000000E+00   1.1431398E-01  -3.5348110E-02   0.0000000E+00   1.1674853E-01  -3.2177441E-02   0.0000000E+00   1.1445814E-01  -2.8625015E-02   0.0000000E+00   1.0934856E-01  -5.4542515E-03   0.0000000E+00   8.5719138E-02  -4.4187866E-03   0.0000000E+00   9.3553983E-02  -3.7276172E-03   0.0000000E+00   1.0242604E-01  -3.4901674E-03   0.0000000E+00   1.1080042E-01  -3.9925301E-03   0.0000000E+00   1.1496119E-01  -5.4174513E-03   0.0000000E+00   1.1888437E-01  -7.3513673E-03   0.0000000E+00   1.1516592E-01  -8.9902552E-03   0.0000000E+00   1.1055651E-01   3.7845515E-02   0.0000000E+00   8.4331885E-02   3.8105492E-02   0.0000000E+00   9.2537150E-02   3.7940092E-02   0.0000000E+00   1.0214853E-01   3.6768321E-02   0.0000000E+00   1.1261252E-01   3.3749316E-02   0.0000000E+00   1.1748990E-01   2.8669646E-02   0.0000000E+00   1.1968420E-01   2.2440735E-02   0.0000000E+00   1.1488733E-01   1.5932934E-02   0.0000000E+00   1.1094733E-01   8.4978931E-02   0.0000000E+00   8.4172323E-02   8.5285902E-02   0.0000000E+00   9.2948698E-02   8.5235797E-02   0.0000000E+00   1.0324098E-01   8.3654821E-02   0.0000000E+00   1.1473902E-01   7.8727901E-02   0.0000000E+00   1.1870247E-01   7.0551388E-02   0.0000000E+00   1.1873217E-01   6.0103055E-02   0.0000000E+00   1.1367592E-01   4.8366558E-02   0.0000000E+00   1.1030414E-01   1.3438031E-01   0.0000000E+00   8.4290735E-02   1.3545290E-01   0.0000000E+00   9.3548216E-02   1.3631819E-01   0.0000000E+00   1.0422781E-01   1.3506643E-01   0.0000000E+00   1.1558621E-01   1.2874189E-01   0.0000000E+00   1.1828218E-01   1.1750628E-01   0.0000000E+00   1.1656751E-01   1.0282683E-01   0.0000000E+00   1.1192105E-01   8.5612595E-02   0.0000000E+00   1.0920961E-01   1.8260022E-01   0.0000000E+00   8.3763078E-02   1.8481335E-01   0.0000000E+00   9.3253404E-02   1.8697129E-01   0.0000000E+00   1.0400995E-01   1.8628940E-01   0.0000000E+00   1.1466397E-01   1.7880297E-01   0.0000000E+00   1.1644196E-01   1.6450374E-01   0.0000000E+00   1.1397228E-01   1.4557263E-01   0.0000000E+00   1.0991554E-01   1.2328629E-01   0.0000000E+00   1.0791143E-01   2.2662278E-01   0.0000000E+00   8.1978962E-02   2.2996986E-01   0.0000000E+00   9.1417842E-02   2.3334233E-01   0.0000000E+00   1.0198122E-01   2.3267798E-01   0.0000000E+00   1.1128614E-01   2.2357245E-01   0.0000000E+00   1.1286133E-01   2.0716380E-01   0.0000000E+00   1.1131629E-01   1.8395722E-01   0.0000000E+00   1.0775900E-01   1.5793861E-01   0.0000000E+00   1.0609638E-01   2.6126477E-01   0.0000000E+00   7.8762852E-02   2.6644322E-01   0.0000000E+00   8.7958530E-02   2.7173844E-01   0.0000000E+00   9.8011710E-02   2.7112347E-01   0.0000000E+00   1.0552616E-01   2.6019517E-01   0.0000000E+00   1.0800879E-01   2.4173474E-01   0.0000000E+00   1.0796618E-01   2.1575907E-01   0.0000000E+00   1.0564435E-01   1.8790866E-01   0.0000000E+00   1.0368566E-01   2.7764109E-01   0.0000000E+00   7.4755989E-02   2.8418216E-01   0.0000000E+00   8.3835438E-02   2.9164234E-01   0.0000000E+00   9.3572743E-02   2.9604465E-01   0.0000000E+00   1.0009633E-01   2.8800946E-01   0.0000000E+00   1.0196904E-01   2.6794803E-01   0.0000000E+00   1.0400242E-01   2.4048132E-01   0.0000000E+00   1.0367848E-01   2.1263728E-01   0.0000000E+00   1.0138945E-01   2.8277141E-01   0.0000000E+00   7.0927888E-02   2.9003578E-01   0.0000000E+00   7.9963088E-02   2.9843166E-01   0.0000000E+00   8.9419208E-02   3.0586639E-01   0.0000000E+00   9.6976124E-02   3.0542096E-01   0.0000000E+00   9.7371437E-02   2.8836000E-01   0.0000000E+00   9.9639997E-02   2.6054358E-01   0.0000000E+00   1.0126068E-01   2.3334385E-01   0.0000000E+00   9.8721616E-02   2.8340730E-01   0.0000000E+00   6.7731909E-02   2.9106790E-01   0.0000000E+00   7.6483063E-02   2.9991877E-01   0.0000000E+00   8.5198633E-02   3.0892271E-01   0.0000000E+00   9.3324587E-02   3.1353936E-01   0.0000000E+00   9.4687916E-02   3.0436328E-01   0.0000000E+00   9.4919167E-02   2.7863878E-01   0.0000000E+00   9.7687073E-02   2.5254002E-01   0.0000000E+00   9.4939388E-02   2.8230140E-01   0.0000000E+00   6.4706430E-02   2.9027742E-01   0.0000000E+00   7.2769016E-02   2.9956442E-01   0.0000000E+00   8.0987595E-02   3.0934006E-01   0.0000000E+00   8.8290915E-02   3.1671578E-01   0.0000000E+00   9.0709299E-02   3.1574699E-01   0.0000000E+00   9.0003967E-02   2.9540965E-01   0.0000000E+00   9.2617638E-02   2.7208635E-01   0.0000000E+00   8.9876242E-02   2.8009200E-01   0.0000000E+00   6.1638441E-02   2.8852874E-01   0.0000000E+00   6.9462650E-02   2.9831401E-01   0.0000000E+00   7.6973863E-02   3.0865872E-01   0.0000000E+00   8.2909659E-02   3.1760183E-01   0.0000000E+00   8.4954768E-02   3.2187369E-01   0.0000000E+00   8.4265545E-02   3.1246474E-01   0.0000000E+00   8.6284809E-02   2.9319778E-01   0.0000000E+00   8.3770745E-02   2.7709553E-01   0.0000000E+00   5.8693498E-02   2.8609389E-01   0.0000000E+00   6.5704696E-02   2.9656392E-01   0.0000000E+00   7.2005227E-02   3.0770069E-01   0.0000000E+00   7.6934911E-02   3.1757525E-01   0.0000000E+00   7.8376114E-02   3.2518473E-01   0.0000000E+00   7.8352511E-02   3.2894859E-01   0.0000000E+00   7.9246961E-02   3.1743285E-01   0.0000000E+00   7.6252759E-02   2.7354607E-01   0.0000000E+00   5.5251803E-02   2.8325114E-01   0.0000000E+00   6.1314858E-02   2.9450053E-01   0.0000000E+00   6.6557035E-02   3.0655426E-01   0.0000000E+00   7.0433334E-02   3.1723920E-01   0.0000000E+00   7.1448073E-02   3.2777363E-01   0.0000000E+00   7.1607798E-02   3.3710235E-01   0.0000000E+00   7.3441029E-02   3.4031612E-01   0.0000000E+00   7.2552294E-02   2.6961794E-01   0.0000000E+00   5.1436700E-02   2.8007174E-01   0.0000000E+00   5.6108847E-02   2.9235005E-01   0.0000000E+00   6.0303491E-02   3.0524686E-01   0.0000000E+00   6.3515611E-02   3.1641939E-01   0.0000000E+00   6.3769557E-02   3.2812715E-01   0.0000000E+00   6.4153716E-02   3.4053057E-01   0.0000000E+00   6.6502012E-02   3.4702805E-01   0.0000000E+00   6.7061953E-02   2.6551199E-01   0.0000000E+00   4.6714682E-02   2.7694160E-01   0.0000000E+00   5.0296810E-02   2.9026303E-01   0.0000000E+00   5.3611975E-02   3.0349886E-01   0.0000000E+00   5.5549935E-02   3.1473684E-01   0.0000000E+00   5.5116627E-02   3.2653189E-01   0.0000000E+00   5.6430224E-02   3.3992541E-01   0.0000000E+00   5.9765343E-02   2.6169091E-01   0.0000000E+00   4.1165069E-02   2.7425310E-01   0.0000000E+00   4.3993816E-02   2.8827575E-01   0.0000000E+00   4.6425391E-02   3.0125204E-01   0.0000000E+00   4.7264498E-02   3.1218171E-01   0.0000000E+00   4.6952825E-02   3.2423052E-01   0.0000000E+00   5.0004240E-02   3.3627233E-01   0.0000000E+00   5.3636339E-02   2.5859466E-01   0.0000000E+00   3.5332959E-02   2.7208489E-01   0.0000000E+00   3.7662845E-02   2.8638545E-01   0.0000000E+00   3.9556690E-02   2.9856136E-01   0.0000000E+00   3.9640520E-02   3.0927730E-01   0.0000000E+00   4.0737960E-02   3.2152450E-01   0.0000000E+00   4.5057591E-02   2.5623107E-01   0.0000000E+00   2.9704522E-02   2.7027801E-01   0.0000000E+00   3.1917151E-02   2.8428870E-01   0.0000000E+00   3.3306945E-02   2.9562804E-01   0.0000000E+00   3.3518504E-02   3.0681843E-01   0.0000000E+00   3.6818422E-02   3.1691051E-01   0.0000000E+00   4.0963650E-02   2.5458285E-01   0.0000000E+00   2.4984032E-02   2.6904508E-01   0.0000000E+00   2.7296090E-02   2.8222060E-01   0.0000000E+00   2.8707873E-02   2.9304141E-01   0.0000000E+00   3.0346675E-02   3.0343020E-01   0.0000000E+00   3.4651667E-02   2.5440529E-01   0.0000000E+00   2.1952640E-02   2.6833454E-01   0.0000000E+00   2.4137823E-02   2.8065521E-01   0.0000000E+00   2.6698127E-02   2.8960615E-01   0.0000000E+00   2.9205937E-02   2.5389054E-01   0.0000000E+00   1.9843709E-02   2.6602155E-01   0.0000000E+00   2.2568416E-02   2.7649891E-01   0.0000000E+00   2.5915466E-02   2.7974325E-01   0.0000000E+00   2.6636725E-02   2.4989624E-01   0.0000000E+00   1.7932897E-02   2.5969937E-01   0.0000000E+00   2.1062996E-02   2.4157079E-01   0.0000000E+00   1.5840145E-02 
Acec 3 2975 float
  0.0000000E+00   0.0000000E+00   0.0000000E+00   0.0000000E+00   0.0000000E+00   0.0000000E+00   0.0000000E+00   0.0000000E+00   0.0000000E+00   0.0000000E+00   0.0000000E+00   0.0000000E+00   0.0000000E+00   0.0000000E+00   0.0000000E+00   0.0000000E+00   0.0000000E+00   0.0000000E+00   0.0000000E+00   0.0000000E+00   0.0000000E+00   0.0000000E+00   0.0000000E+00   0.0000000E+00   0.0000000E+00   0.0000000E+00   0.0000000E+00   0.0000000E+00   0.0000000E+00   0.0000000E+00   0.0000000E+00   0.0000000E+00   0.0000000E+00   0.0000000E+00   0.0000000E+00   0.0000000E+00   0.0000000E+00   0.0000000E+00   0.0000000E+00   0.0000000E+00   0.0000000E+00   0.0000000E+00   0.0000000E+00   0.0000000E+00   0.0000000E+00   0.0000000E+00   0.0000000E+00   0.0000000E+00   0.0000000E+00   0.0000000E+00   0.0000000E+00   0.0000000E+00   0.0000000E+00   0.0000000E+00   0.0000000E+00   0.0000000E+00   0.0000000E+00   0.0000000E+00   0.0000000E+00   0.0000000E+00   0.0000000E+00   0.0000000E+00   0.0000000E+00   0.0000000E+00   0.0000000E+00   0.0000000E+00   0.0000000E+00   0.0000000E+00   0.0000000E+00   0.0000000E+00   0.0000000E+00   0.0000000E+00   0.0000000E+00   0.0000000E+00   0.0000000E+00   0.0000000E+00   0.0000000E+00   0.0000000E+00   0.0000000E+00   0.0000000E+00   0.0000000E+00   0.0000000E+00   0.0000000E+00   0.0000000E+00   0.0000000E+00   0.0000000E+00   0.0000000E+00   0.0000000E+00   0.0000000E+00   0.0000000E+00   0.0000000E+00   0.0000000E+00   0.0000000E+00   0.0000000E+00   0.0000000E+00   0.0000000E+00   0.0000000E+00   0.0000000E+00   0.0000000E+00   0.0000000E+00   0.0000000E+00   0.0000000E+00   0.0000000E+00   0.0000000E+00   0.0000000E+00   0.0000000E+00   0.0000000E+00   0.0000000E+00   0.0000000E+00   0.0000000E+00   0.0000000E+00   0.0000000E+00   0.0000000E+00   0.0000000E+00   0.0000000E+00   0.0000000E+00   0.0000000E+00   0.0000000E+00   0.0000000E+00   0.0000000E+00   0.0000000E+00   0.0000000E+00   0.0000000E+00   0.0000000E+00   0.0000000E+00   0.0000000E+00   0.0000000E+00   0.0000000E+00   0.0000000E+00   0.0000000E+00   0.0000000E+00   0.0000000E+00   0.0000000E+00   0.0000000E+00   0.0000000E+00   0.0000000E+00   0.0000000E+00   0.0000000E+00   0.0000000E+00   0.0000000E+00   0.0000000E+00   0.0000000E+00   0.0000000E+00   0.0000000E+00   0.0000000E+00   0.0000000E+00   0.0000000E+00   0.0000000E+00   0.0000000E+00   0.0000000E+00   0.0000000E+00   0.0000000E+00   0.0000000E+00   0.0000000E+00   0.0000000E+00   0.0000000E+00   0.0000000E+00   0.0000000E+00   0.0000000E+00   0.0000000E+00   0.0000000E+00   0.0000000E+00   0.0000000E+00   0.0000000E+00   0.0000000E+00   0.0000000E+00   0.0000000E+00   0.0000000E+00   0.0000000E+00   0.0000000E+00   0.0000000E+00   0.0000000E+00   0.0000000E+00   0.0000000E+00   0.0000000E+00   0.0000000E+00   0.0000000E+00   0.0000000E+00   0.0000000E+00   0.0000000E+00   0.0000000E+00   0.0000000E+00   0.0000000E+00   0.0000000E+00   0.0000000E+00   0.0000000E+00   0.0000000E+00   0.0000000E+00   0.0000000E+00   0.0000000E+00   0.0000000E+00   0.0000000E+00   0.0000000E+00   0.0000000E+00   0.0000000E+00   0.0000000E+00   0.0000000E+00   0.0000000E+00   0.0000000E+00   0.0000000E+00   0.0000000E+00   0.0000000E+00   0.0000000E+00   0.0000000E+00   0.0000000E+00   0.0000000E+00   0.0000000E+00   0.0000000E+00   0.0000000E+00   0.0000000E+00   0.0000000E+00   0.0000000E+00   0.0000000E+00   0.0000000E+00   0.0000000E+00   0.0000000E+00   0.0000000E+00   0.0000000E+00   0.0000000E+00   0.0000000E+00   0.0000000E+00   0.0000000E+00   0.0000000E+00   0.0000000E+00   0.0000000E+00   0.0000000E+00   0.0000000E+00   0.0000000E+00   0.0000000E+00   0.0000000E+00   0.0000000E+00   0.0000000E+00   0.0000000E+00   0.0000000E+00   0.0000000E+00   0.0000000E+00   0.0000000E+00   0.0000000E+00   0.0000000E+00   0.0000000E+00   0.0000000E+00   0.0000000E+00   0.0000000E+00   0.0000000E+00   0.0000000E+00   0.0000000E+00   0.0000000E+00   0.0000000E+00   0.0000000E+00   0.0000000E+00   0.0000000E+00   0.0000000E+00   0.0000000E+00   0.0000000E+00   0.0000000E+00   0.0000000E+00   0.0000000E+00   0.0000000E+00   0.0000000E+00   0.0000000E+00   0.0000000E+00   0.0000000E+00   0.0000000E+00   0.0000000E+00   0.0000000E+00   0.0000000E+00   0.0000000E+00   0.0000000E+00   0.0000000E+00   0.0000000E+00   0.0000000E+00   0.0000000E+00   0.0000000E+00   0.0000000E+00   0.0000000E+00   0.0000000E+00   0.0000000E+00   0.0000000E+00   0.0000000E+00   0.0000000E+00   0.0000000E+00   0.0000000E+00   0.0000000E+00   0.0000000E+00   0.0000000E+00   0.0000000E+00   0.0000000E+00   0.0000000E+00   0.0000000E+00   0.0000000E+00   0.0000000E+00   0.0000000E+00   0.0000000E+00   0.0000000E+00   0.0000000E+00   0.0000000E+00   0.0000000E+00   0.0000000E+00   0.0000000E+00   0.0000000E+00   0.0000000E+00   0.0000000E+00   0.0000000E+00   0.0000000E+00   0.0000000E+00   0.0000000E+00   0.0000000E+00   0.0000000E+00   0.0000000E+00   0.0000000E+00   0.0000000E+00   0.0000000E+00   0.0000000E+00   0.0000000E+00   0.0000000E+00   0.0000000E+00   0.0000000E+00   0.0000000E+00   0.0000000E+00   0.0000000E+00   0.0000000E+00   0.0000000E+00   0.0000000E+00   0.0000000E+00   0.0000000E+00   0.0000000E+00   0.0000000E+00   0.0000000E+00   0.0000000E+00   0.0000000E+00   0.0000000E+00   0.0000000E+00   0.0000000E+00   0.0000000E+00   0.0000000E+00   0.0000000E+00   0.0000000E+00   0.0000000E+00   0.0000000E+00   0.0000000E+00   0.0000000E+00   0.0000000E+00   0.0000000E+00   0.0000000E+00   0.0000000E+00   0.0000000E+00   0.0000000E+00   0.0000000E+00   0.0000000E+00   0.0000000E+00   0.0000000E+00   0.0000000E+00   0.0000000E+00   0.0000000E+00   0.0000000E+00   0.0000000E+00   0.0000000E+00   0.0000000E+00   0.0000000E+00   0.0000000E+00   0.0000000E+00   0.0000000E+00   0.0000000E+00   0.0000000E+00   0.0000000E+00   0.0000000E+00   0.0000000E+00   0.0000000E+00   0.0000000E+00   0.0000000E+00   0.0000000E+00   0.0000000E+00   0.0000000E+00   0.0000000E+00   0.0000000E+00   0.0000000E+00   0.0000000E+00   0.0000000E+00   0.0000000E+00   0.0000000E+00   0.0000000E+00   0.0000000E+00   0.0000000E+00   0.0000000E+00   0.0000000E+00   0.0000000E+00   0.0000000E+00   0.0000000E+00   0.0000000E+00   0.0000000E+00   0.0000000E+00   0.0000000E+00   0.0000000E+00   0.0000000E+00   0.0000000E+00   0.0000000E+00   0.0000000E+00   0.0000000E+00   0.0000000E+00   0.0000000E+00   0.0000000E+00   0.0000000E+00   0.0000000E+00   0.0000000E+00   0.0000000E+00   0.0000000E+00   0.0000000E+00   0.0000000E+00   0.0000000E+00   0.0000000E+00   0.0000000E+00   0.0000000E+00   0.0000000E+00   0.0000000E+00   0.0000000E+00   0.0000000E+00   0.0000000E+00   0.0000000E+00   0.0000000E+00   0.0000000E+00   0.0000000E+00   0.0000000E+00   0.0000000E+00   0.0000000E+00   0.0000000E+00   0.0000000E+00   0.0000000E+00   0.0000000E+00   0.0000000E+00   0.0000000E+00   0.0000000E+00   0.0000000E+00   0.0000000E+00   0.0000000E+00   0.0000000E+00   0.0000000E+00   0.0000000E+00   0.0000000E+00   0.0000000E+00   0.0000000E+00   0.0000000E+00   0.0000000E+00   0.0000000E+00   0.0000000E+00   0.0000000E+00   0.0000000E+00   0.0000000E+00   0.0000000E+00   0.0000000E+00   0.0000000E+00   0.0000000E+00   0.0000000E+00   0.0000000E+00   0.0000000E+00   0.0000000E+00   0.0000000E+00   0.0000000E+00   0.0000000E+00   0.0000000E+00   0.0000000E+00   0.0000000E+00   0.0000000E+00   0.0000000E+00   0.0000000E+00   0.0000000E+00   0.0000000E+00   0.0000000E+00   0.0000000E+00   0.0000000E+00   0.0000000E+00   0.0000000E+00   0.0000000E+00   0.0000000E+00   0.0000000E+00   0.0000000E+00   0.0000000E+00   0.0000000E+00   0.0000000E+00   0.0000000E+00   0.0000000E+00   0.0000000E+00   0.0000000E+00   0.0000000E+00   0.0000000E+00   0.0000000E+00   0.0000000E+00   0.0000000E+00   0.0000000E+00   0.0000000E+00   0.0000000E+00   0.0000000E+00   0.0000000E+00   0.0000000E+00   0.0000000E+00   0.0000000E+00   0.0000000E+00   0.0000000E+00   0.0000000E+00   0.0000000E+00   0.0000000E+00   0.0000000E+00   0.0000000E+00   0.0000000E+00   0.0000000E+00   0.0000000E+00   0.0000000E+00   0.0000000E+00   0.0000000E+00   0.0000000E+00   0.0000000E+00   0.0000000E+00   0.0000000E+00   0.0000000E+00   0.0000000E+00   0.0000000E+00   0.0000000E+00   0.0000000E+00   0.0000000E+00   0.0000000E+00   0.0000000E+00   0.0000000E+00   0.0000000E+00   0.0000000E+00   0.0000000E+00   0.0000000E+00   0.0000000E+00   0.0000000E+00   0.0000000E+00   0.0000000E+00   0.0000000E+00   0.0000000E+00   0.0000000E+00   0.0000000E+00   0.0000000E+00   0.0000000E+00   0.0000000E+00   0.0000000E+00   0.0000000E+00   0.0000000E+00   0.0000000E+00   0.0000000E+00   0.0000000E+00   0.0000000E+00   0.0000000E+00   0.0000000E+00   0.0000000E+00   0.0000000E+00   0.0000000E+00   0.0000000E+00   0.0000000E+00   0.0000000E+00   0.0000000E+00   0.0000000E+00   0.0000000E+00   0.0000000E+00   0.0000000E+00   0.0000000E+00   0.0000000E+00   0.0000000E+00   0.0000000E+00   0.0000000E+00   0.0000000E+00   0.0000000E+00   0.0000000E+00   0.0000000E+00   0.0000000E+00   0.0000000E+00   0.0000000E+00   0.0000000E+00   0.0000000E+00   0.0000000E+00   0.0000000E+00   0.0000000E+00   0.0000000E+00   0.0000000E+00   0.0000000E+00   0.0000000E+00   0.0000000E+00   0.0000000E+00   0.0000000E+00   0.0000000E+00   0.0000000E+00   0.0000000E+00   0.0000000E+00   0.0000000E+00   0.0000000E+00   0.0000000E+00   0.0000000E+00   0.0000000E+00   0.0000000E+00   0.0000000E+00   0.0000000E+00   0.0000000E+00   0.0000000E+00   0.0000000E+00   0.0000000E+00   0.0000000E+00   0.0000000E+00   0.0000000E+00   0.0000000E+00   0.0000000E+00   0.0000000E+00   0.0000000E+00   0.0000000E+00   0.0000000E+00   0.0000000E+00   0.0000000E+00   0.0000000E+00   0.0000000E+00   0.0000000E+00   0.0000000E+00   0.0000000E+00   0.0000000E+00   0.0000000E+00   0.0000000E+00   0.0000000E+00   0.0000000E+00   0.0000000E+00   0.0000000E+00   0.0000000E+00   0.0000000E+00   0.0000000E+00   0.0000000E+00   0.0000000E+00   0.0000000E+00   0.0000000E+00   0.0000000E+00   0.0000000E+00   0.0000000E+00   0.0000000E+00   0.0000000E+00   0.0000000E+00   0.0000000E+00   0.0000000E+00   0.0000000E+00   0.0000000E+00   0.0000000E+00   0.0000000E+00   0.0000000E+00   0.0000000E+00   0.0000000E+00   0.0000000E+00   0.0000000E+00   0.0000000E+00   0.0000000E+00   0.0000000E+00   0.0000000E+00   0.0000000E+00   0.0000000E+00   0.0000000E+00   0.0000000E+00   0.0000000E+00   0.0000000E+00   0.0000000E+00   0.0000000E+00   0.0000000E+00   0.0000000E+00   0.0000000E+00   0.0000000E+00   0.0000000E+00   0.0000000E+00   0.0000000E+00   0.0000000E+00   0.0000000E+00   0.0000000E+00   0.0000000E+00   0.0000000E+00   0.0000000E+00   0.0000000E+00   0.0000000E+00   0.0000000E+00   0.0000000E+00   0.0000000E+00   0.0000000E+00   0.0000000E+00   0.0000000E+00   0.0000000E+00   0.0000000E+00   0.0000000E+00   0.0000000E+00   0.0000000E+00   0.0000000E+00   0.0000000E+00   0.0000000E+00   0.0000000E+00   0.0000000E+00   0.0000000E+00   0.0000000E+00   0.0000000E+00   0.0000000E+00   0.0000000E+00   0.0000000E+00   0.0000000E+00   0.0000000E+00   0.0000000E+00   0.0000000E+00   0.0000000E+00   0.0000000E+00   0.0000000E+00   0.0000000E+00   0.0000000E+00   0.0000000E+00   0.0000000E+00   0.0000000E+00   0.0000000E+00   0.0000000E+00   0.0000000E+00   0.0000000E+00   0.0000000E+00   0.0000000E+00   0.0000000E+00   0.0000000E+00   0.0000000E+00   0.0000000E+00   0.0000000E+00   0.0000000E+00   0.0000000E+00   0.0000000E+00   0.0000000E+00   0.0000000E+00   0.0000000E+00   0.0000000E+00   0.0000000E+00   0.0000000E+00   0.0000000E+00   0.0000000E+00   0.0000000E+00   0.0000000E+00   0.0000000E+00   0.0000000E+00   0.0000000E+00   0.0000000E+00   0.0000000E+00   0.0000000E+00   0.0000000E+00   0.0000000E+00   0.0000000E+00   0.0000000E+00   0.0000000E+00   0.0000000E+00   0.0000000E+00   0.0000000E+00   0.0000000E+00   0.0000000E+00   0.0000000E+00   0.0000000E+00   0.0000000E+00   0.0000000E+00   0.0000000E+00   0.0000000E+00   0.0000000E+00   0.0000000E+00   0.0000000E+00   0.0000000E+00   0.0000000E+00   0.0000000E+00   0.0000000E+00   0.0000000E+00   0.0000000E+00   0.0000000E+00   0.0000000E+00   0.0000000E+00   0.0000000E+00   0.0000000E+00   0.0000000E+00   0.0000000E+00   0.0000000E+00   0.0000000E+00   0.0000000E+00   0.0000000E+00   0.0000000E+00   0.0000000E+00   0.0000000E+00   0.0000000E+00   0.0000000E+00   0.0000000E+00   0.0000000E+00   0.0000000E+00   0.0000000E+00   0.0000000E+00   0.0000000E+00   0.0000000E+00   0.0000000E+00   0.0000000E+00   0.0000000E+00   0.0000000E+00   0.0000000E+00   0.0000000E+00   0.0000000E+00   0.0000000E+00   0.0000000E+00   0.0000000E+00   0.0000000E+00   0.0000000E+00   0.0000000E+00   0.0000000E+00   0.0000000E+00   0.0000000E+00   0.0000000E+00   0.0000000E+00   0.0000000E+00   0.0000000E+00   0.0000000E+00   0.0000000E+00   0.0000000E+00   0.0000000E+00   0.0000000E+00   0.0000000E+00   0.0000000E+00   0.0000000E+00   0.0000000E+00   0.0000000E+00   0.0000000E+00   0.0000000E+00   0.0000000E+00   0.0000000E+00   0.0000000E+00   0.0000000E+00   0.0000000E+00   0.0000000E+00   0.0000000E+00   0.0000000E+00   0.0000000E+00   0.0000000E+00   0.0000000E+00   0.0000000E+00   0.0000000E+00   0.0000000E+00   0.0000000E+00   0.0000000E+00   0.0000000E+00   0.0000000E+00   0.0000000E+00   0.0000000E+00   0.0000000E+00   0.0000000E+00   0.0000000E+00   0.0000000E+00   0.0000000E+00   0.0000000E+00   0.0000000E+00   0.0000000E+00   0.0000000E+00   0.0000000E+00   0.0000000E+00   0.0000000E+00   0.0000000E+00   0.0000000E+00   0.0000000E+00   0.0000000E+00   0.0000000E+00   0.0000000E+00   0.0000000E+00   0.0000000E+00   0.0000000E+00   0.0000000E+00   0.0000000E+00   0.0000000E+00   0.0000000E+00   0.0000000E+00   0.0000000E+00   0.0000000E+00   0.0000000E+00   0.0000000E+00   0.0000000E+00   0.0000000E+00   0.0000000E+00   0.0000000E+00   0.0000000E+00   0.0000000E+00   0.0000000E+00   0.0000000E+00   0.0000000E+00   0.0000000E+00   0.0000000E+00   0.0000000E+00   0.0000000E+00   0.0000000E+00   0.0000000E+00   0.0000000E+00   0.0000000E+00   0.0000000E+00   0.0000000E+00   0.0000000E+00   0.0000000E+00   0.0000000E+00   0.0000000E+00   0.0000000E+00   0.0000000E+00   0.0000000E+00   0.0000000E+00   0.0000000E+00   0.0000000E+00   0.0000000E+00   0.0000000E+00   0.0000000E+00   0.0000000E+00   0.0000000E+00   0.0000000E+00   0.0000000E+00   0.0000000E+00   0.0000000E+00   0.0000000E+00   0.0000000E+00   0.0000000E+00   0.0000000E+00   0.0000000E+00   0.0000000E+00   0.0000000E+00   0.0000000E+00   0.0000000E+00   0.0000000E+00   0.0000000E+00   0.0000000E+00   0.0000000E+00   0.0000000E+00   0.0000000E+00   0.0000000E+00   0.0000000E+00   0.0000000E+00   0.0000000E+00   0.0000000E+00   0.0000000E+00   0.0000000E+00   0.0000000E+00   0.0000000E+00   0.0000000E+00   0.0000000E+00   0.0000000E+00   0.0000000E+00   0.0000000E+00   0.0000000E+00   0.0000000E+00   0.0000000E+00   0.0000000E+00   0.0000000E+00   0.0000000E+00   0.0000000E+00   0.0000000E+00   0.0000000E+00   0.0000000E+00   0.0000000E+00   0.0000000E+00   0.0000000E+00   0.0000000E+00   0.0000000E+00   0.0000000E+00   0.0000000E+00   0.0000000E+00   0.0000000E+00   0.0000000E+00   0.0000000E+00   0.0000000E+00   0.0000000E+00   0.0000000E+00   0.0000000E+00   0.0000000E+00   0.0000000E+00   0.0000000E+00   0.0000000E+00   0.0000000E+00   0.0000000E+00   0.0000000E+00   0.0000000E+00   0.0000000E+00   0.0000000E+00   0.0000000E+00   0.0000000E+00   0.0000000E+00   0.0000000E+00   0.0000000E+00   0.0000000E+00   0.0000000E+00   0.0000000E+00   0.0000000E+00   0.0000000E+00   0.0000000E+00   0.0000000E+00   0.0000000E+00   0.0000000E+00   0.0000000E+00   0.0000000E+00   0.0000000E+00   0.0000000E+00   0.0000000E+00   0.0000000E+00   0.0000000E+00   0.0000000E+00   0.0000000E+00   0.0000000E+00   0.0000000E+00   0.0000000E+00   0.0000000E+00   0.0000000E+00   0.0000000E+00   0.0000000E+00   0.0000000E+00   0.0000000E+00   0.0000000E+00   0.0000000E+00   0.0000000E+00   0.0000000E+00   0.0000000E+00   0.0000000E+00   0.0000000E+00   0.0000000E+00   0.0000000E+00   0.0000000E+00   0.0000000E+00   0.0000000E+00   0.0000000E+00   0.0000000E+00   0.0000000E+00   0.0000000E+00   0.0000000E+00   0.0000000E+00   0.0000000E+00   0.0000000E+00   0.0000000E+00   0.0000000E+00   0.0000000E+00   0.0000000E+00   0.0000000E+00   0.0000000E+00   0.0000000E+00   0.0000000E+00   0.0000000E+00   0.0000000E+00   0.0000000E+00   0.0000000E+00   0.0000000E+00   0.0000000E+00   0.0000000E+00   0.0000000E+00   0.0000000E+00   0.0000000E+00   0.0000000E+00   0.0000000E+00   0.0000000E+00   0.0000000E+00   0.0000000E+00   0.0000000E+00   0.0000000E+00   0.0000000E+00   0.0000000E+00   0.0000000E+00   0.0000000E+00   0.0000000E+00   0.0000000E+00   0.0000000E+00   0.0000000E+00   0.0000000E+00   0.0000000E+00   0.0000000E+00   0.0000000E+00   0.0000000E+00   0.0000000E+00   0.0000000E+00   0.0000000E+00   0.0000000E+00   0.0000000E+00   0.0000000E+00   0.0000000E+00   0.0000000E+00   0.0000000E+00   0.0000000E+00   0.0000000E+00   0.0000000E+00   0.0000000E+00   0.0000000E+00   0.0000000E+00   0.0000000E+00   0.0000000E+00   0.0000000E+00   0.0000000E+00   0.0000000E+00   0.0000000E+00   0.0000000E+00   0.0000000E+00   0.0000000E+00   0.0000000E+00   0.0000000E+00   0.0000000E+00   0.0000000E+00   0.0000000E+00   0.0000000E+00   0.0000000E+00   0.0000000E+00   0.0000000E+00   0.0000000E+00   0.0000000E+00   0.0000000E+00   0.0000000E+00   0.0000000E+00   0.0000000E+00   0.0000000E+00   0.0000000E+00   0.0000000E+00   0.0000000E+00   0.0000000E+00   0.0000000E+00   0.0000000E+00   0.0000000E+00   0.0000000E+00   0.0000000E+00   0.0000000E+00   0.0000000E+00   0.0000000E+00   0.0000000E+00   0.0000000E+00   0.0000000E+00   0.0000000E+00   0.0000000E+00   0.0000000E+00   0.0000000E+00   0.0000000E+00   0.0000000E+00   0.0000000E+00   0.0000000E+00   0.0000000E+00   0.0000000E+00   0.0000000E+00   0.0000000E+00   0.0000000E+00   0.0000000E+00   0.0000000E+00   0.0000000E+00   0.0000000E+00   0.0000000E+00   0.0000000E+00   0.0000000E+00   0.0000000E+00   0.0000000E+00   0.0000000E+00   0.0000000E+00   0.0000000E+00   0.0000000E+00   0.0000000E+00   0.0000000E+00   0.0000000E+00   0.0000000E+00   0.0000000E+00   0.0000000E+00   0.0000000E+00   0.0000000E+00   0.0000000E+00   0.0000000E+00   0.0000000E+00   0.0000000E+00   0.0000000E+00   0.0000000E+00   0.0000000E+00   0.0000000E+00   0.0000000E+00   0.0000000E+00   0.0000000E+00   0.0000000E+00   0.0000000E+00   0.0000000E+00   0.0000000E+00   0.0000000E+00   0.0000000E+00   0.0000000E+00   0.0000000E+00   0.0000000E+00   0.0000000E+00   0.0000000E+00   0.0000000E+00   0.0000000E+00   0.0000000E+00   0.0000000E+00   0.0000000E+00   0.0000000E+00   0.0000000E+00   0.0000000E+00   0.0000000E+00   0.0000000E+00   0.0000000E+00   0.0000000E+00   0.0000000E+00   0.0000000E+00   0.0000000E+00   0.0000000E+00   0.0000000E+00   0.0000000E+00   0.0000000E+00   0.0000000E+00   0.0000000E+00   0.0000000E+00   0.0000000E+00   0.0000000E+00   0.0000000E+00   0.0000000E+00   0.0000000E+00   0.0000000E+00   0.0000000E+00   0.0000000E+00   0.0000000E+00   0.0000000E+00   0.0000000E+00   0.0000000E+00   0.0000000E+00   0.0000000E+00   0.0000000E+00   0.0000000E+00   0.0000000E+00   0.0000000E+00   0.0000000E+00   0.0000000E+00   0.0000000E+00   0.0000000E+00   0.0000000E+00   0.0000000E+00   0.0000000E+00   0.0000000E+00   0.0000000E+00   0.0000000E+00   0.0000000E+00   0.0000000E+00   0.0000000E+00   0.0000000E+00   0.0000000E+00   0.0000000E+00   0.0000000E+00   0.0000000E+00   0.0000000E+00   0.0000000E+00   0.0000000E+00   0.0000000E+00   0.0000000E+00   0.0000000E+00   0.0000000E+00   0.0000000E+00   0.0000000E+00   0.0000000E+00   0.0000000E+00   0.0000000E+00   0.0000000E+00   0.0000000E+00   0.0000000E+00   0.0000000E+00   0.0000000E+00   0.0000000E+00   0.0000000E+00   0.0000000E+00   0.0000000E+00   0.0000000E+00   0.0000000E+00   0.0000000E+00   0.0000000E+00   0.0000000E+00   0.0000000E+00   0.0000000E+00   0.0000000E+00   0.0000000E+00   0.0000000E+00   0.0000000E+00   0.0000000E+00   0.0000000E+00   0.0000000E+00   0.0000000E+00   0.0000000E+00   0.0000000E+00   0.0000000E+00   0.0000000E+00   0.0000000E+00   0.0000000E+00   0.0000000E+00   0.0000000E+00   0.0000000E+00   0.0000000E+00   0.0000000E+00   0.0000000E+00   0.0000000E+00   0.0000000E+00   0.0000000E+00   0.0000000E+00   0.0000000E+00   0.0000000E+00   0.0000000E+00   0.0000000E+00   0.0000000E+00   0.0000000E+00   0.0000000E+00   0.0000000E+00   0.0000000E+00   0.0000000E+00   0.0000000E+00   0.0000000E+00   0.0000000E+00   0.0000000E+00   0.0000000E+00   0.0000000E+00   0.0000000E+00   0.0000000E+00   0.0000000E+00   0.0000000E+00   0.0000000E+00   0.0000000E+00   0.0000000E+00   0.0000000E+00   0.0000000E+00   0.0000000E+00   0.0000000E+00   0.0000000E+00   0.0000000E+00   0.0000000E+00   0.0000000E+00   0.0000000E+00   0.0000000E+00   0.0000000E+00   0.0000000E+00   0.0000000E+00   0.0000000E+00   0.0000000E+00   0.0000000E+00   0.0000000E+00   0.0000000E+00   0.0000000E+00   0.0000000E+00   0.0000000E+00   0.0000000E+00   0.0000000E+00   0.0000000E+00   0.0000000E+00   0.0000000E+00   0.0000000E+00   0.0000000E+00   0.0000000E+00   0.0000000E+00   0.0000000E+00   0.0000000E+00   0.0000000E+00   0.0000000E+00   0.0000000E+00   0.0000000E+00   0.0000000E+00   0.0000000E+00   0.0000000E+00   0.0000000E+00   0.0000000E+00   0.0000000E+00   0.0000000E+00   0.0000000E+00   0.0000000E+00   0.0000000E+00   0.0000000E+00   0.0000000E+00   0.0000000E+00   0.0000000E+00   0.0000000E+00   0.0000000E+00   0.0000000E+00   0.0000000E+00   0.0000000E+00   0.0000000E+00   0.0000000E+00   0.0000000E+00   0.0000000E+00   0.0000000E+00   0.0000000E+00   0.0000000E+00   0.0000000E+00   0.0000000E+00   0.0000000E+00   0.0000000E+00   0.0000000E+00   0.0000000E+00   0.0000000E+00   0.0000000E+00   0.0000000E+00   0.0000000E+00   0.0000000E+00   0.0000000E+00   0.0000000E+00   0.0000000E+00   0.0000000E+00   0.0000000E+00   0.0000000E+00   0.0000000E+00   0.0000000E+00   0.0000000E+00   0.0000000E+00   0.0000000E+00   0.0000000E+00   0.0000000E+00   0.0000000E+00   0.0000000E+00   0.0000000E+00   0.0000000E+00   0.0000000E+00   0.0000000E+00   0.0000000E+00   0.0000000E+00   0.0000000E+00   0.0000000E+00   0.0000000E+00   0.0000000E+00   0.0000000E+00   0.0000000E+00   0.0000000E+00   0.0000000E+00   0.0000000E+00   0.0000000E+00   0.0000000E+00   0.0000000E+00   0.0000000E+00   0.0000000E+00   0.0000000E+00   0.0000000E+00   0.0000000E+00   0.0000000E+00   0.0000000E+00   0.0000000E+00   0.0000000E+00   0.0000000E+00   0.0000000E+00   0.0000000E+00   0.0000000E+00   0.0000000E+00   0.0000000E+00   0.0000000E+00   0.0000000E+00   0.0000000E+00   0.0000000E+00   0.0000000E+00   0.0000000E+00   0.0000000E+00   0.0000000E+00   0.0000000E+00   0.0000000E+00   0.0000000E+00   0.0000000E+00   0.0000000E+00   0.0000000E+00   0.0000000E+00   0.0000000E+00   0.0000000E+00   0.0000000E+00   0.0000000E+00   0.0000000E+00   0.0000000E+00   0.0000000E+00   0.0000000E+00   0.0000000E+00   0.0000000E+00   0.0000000E+00   0.0000000E+00   0.0000000E+00   0.0000000E+00   0.0000000E+00   0.0000000E+00   0.0000000E+00   0.0000000E+00   0.0000000E+00   0.0000000E+00   0.0000000E+00   0.0000000E+00   0.0000000E+00   0.0000000E+00   0.0000000E+00   0.0000000E+00   0.0000000E+00   0.0000000E+00   0.0000000E+00   0.0000000E+00   0.0000000E+00   0.0000000E+00   0.0000000E+00   0.0000000E+00   0.0000000E+00   0.0000000E+00   0.0000000E+00   0.0000000E+00   0.0000000E+00   0.0000000E+00   0.0000000E+00   0.0000000E+00   0.0000000E+00   0.0000000E+00   0.0000000E+00   0.0000000E+00   0.0000000E+00   0.0000000E+00   0.0000000E+00   0.0000000E+00   0.0000000E+00   0.0000000E+00   0.0000000E+00   0.0000000E+00   0.0000000E+00   0.0000000E+00   0.0000000E+00   0.0000000E+00   0.0000000E+00   0.0000000E+00   0.0000000E+00   0.0000000E+00   0.0000000E+00   0.0000000E+00   0.0000000E+00   0.0000000E+00   0.0000000E+00   0.0000000E+00   0.0000000E+00   0.0000000E+00   0.0000000E+00   0.0000000E+00   0.0000000E+00   0.0000000E+00   0.0000000E+00   0.0000000E+00   0.0000000E+00   0.0000000E+00   0.0000000E+00   0.0000000E+00   0.0000000E+00   0.0000000E+00   0.0000000E+00   0.0000000E+00   0.0000000E+00   0.0000000E+00   0.0000000E+00   0.0000000E+00   0.0000000E+00   0.0000000E+00   0.0000000E+00   0.0000000E+00   0.0000000E+00   0.0000000E+00   0.0000000E+00   0.0000000E+00   0.0000000E+00   0.0000000E+00   0.0000000E+00   0.0000000E+00   0.0000000E+00   0.0000000E+00   0.0000000E+00   0.0000000E+00   0.0000000E+00   0.0000000E+00   0.0000000E+00   0.0000000E+00   0.0000000E+00   0.0000000E+00   0.0000000E+00   0.0000000E+00   0.0000000E+00   0.0000000E+00   0.0000000E+00   0.0000000E+00   0.0000000E+00   0.0000000E+00   0.0000000E+00   0.0000000E+00   0.0000000E+00   0.0000000E+00   0.0000000E+00   0.0000000E+00   0.0000000E+00   0.0000000E+00   0.0000000E+00   0.0000000E+00   0.0000000E+00   0.0000000E+00   0.0000000E+00   0.0000000E+00   0.0000000E+00   0.0000000E+00   0.0000000E+00   0.0000000E+00   0.0000000E+00   0.0000000E+00   0.0000000E+00   0.0000000E+00   0.0000000E+00   0.0000000E+00   0.0000000E+00   0.0000000E+00   0.0000000E+00   0.0000000E+00   0.0000000E+00   0.0000000E+00   0.0000000E+00   0.0000000E+00   0.0000000E+00   0.0000000E+00   0.0000000E+00   0.0000000E+00   0.0000000E+00   0.0000000E+00   0.0000000E+00   0.0000000E+00   0.0000000E+00   0.0000000E+00   0.0000000E+00   0.0000000E+00   0.0000000E+00   0.0000000E+00   0.0000000E+00   0.0000000E+00   0.0000000E+00   0.0000000E+00   0.0000000E+00   0.0000000E+00   0.0000000E+00   0.0000000E+00   0.0000000E+00   0.0000000E+00   0.0000000E+00   0.0000000E+00   0.0000000E+00   0.0000000E+00   0.0000000E+00   0.0000000E+00   0.0000000E+00   0.0000000E+00   0.0000000E+00   0.0000000E+00   0.0000000E+00   0.0000000E+00   0.0000000E+00   0.0000000E+00   0.0000000E+00   0.0000000E+00   0.0000000E+00   0.0000000E+00   0.0000000E+00   0.0000000E+00   0.0000000E+00   0.0000000E+00   0.0000000E+00   0.0000000E+00   0.0000000E+00   0.0000000E+00   0.0000000E+00   0.0000000E+00   0.0000000E+00   0.0000000E+00   0.0000000E+00   0.0000000E+00   0.0000000E+00   0.0000000E+00   0.0000000E+00   0.0000000E+00   0.0000000E+00   0.0000000E+00   0.0000000E+00   0.0000000E+00   0.0000000E+00   0.0000000E+00   0.0000000E+00   0.0000000E+00   0.0000000E+00   0.0000000E+00   0.0000000E+00   0.0000000E+00   0.0000000E+00   0.0000000E+00   0.0000000E+00   0.0000000E+00   0.0000000E+00   0.0000000E+00   0.0000000E+00   0.0000000E+00   0.0000000E+00   0.0000000E+00   0.0000000E+00   0.0000000E+00   0.0000000E+00   0.0000000E+00   0.0000000E+00   0.0000000E+00   0.0000000E+00   0.0000000E+00   0.0000000E+00   0.0000000E+00   0.0000000E+00   0.0000000E+00   0.0000000E+00   0.0000000E+00   0.0000000E+00   0.0000000E+00   0.0000000E+00   0.0000000E+00   0.0000000E+00   0.0000000E+00   0.0000000E+00   0.0000000E+00   0.0000000E+00   0.0000000E+00   0.0000000E+00   0.0000000E+00   0.0000000E+00   0.0000000E+00   0.0000000E+00   0.0000000E+00   0.0000000E+00   0.0000000E+00   0.0000000E+00   0.0000000E+00   0.0000000E+00   0.0000000E+00   0.0000000E+00   0.0000000E+00   0.0000000E+00   0.0000000E+00   0.0000000E+00   0.0000000E+00   0.0000000E+00   0.0000000E+00   0.0000000E+00   0.0000000E+00   0.0000000E+00   0.0000000E+00   0.0000000E+00   0.0000000E+00   0.0000000E+00   0.0000000E+00   0.0000000E+00   0.0000000E+00   0.0000000E+00   0.0000000E+00   0.0000000E+00   0.0000000E+00   0.0000000E+00   0.0000000E+00   0.0000000E+00   0.0000000E+00   0.0000000E+00   0.0000000E+00   0.0000000E+00   0.0000000E+00   0.0000000E+00   0.0000000E+00   0.0000000E+00   0.0000000E+00   0.0000000E+00   0.0000000E+00   0.0000000E+00   0.0000000E+00   0.0000000E+00   0.0000000E+00   0.0000000E+00   0.0000000E+00   0.0000000E+00   0.0000000E+00   0.0000000E+00   0.0000000E+00   0.0000000E+00   0.0000000E+00   0.0000000E+00   0.0000000E+00   0.0000000E+00   0.0000000E+00   0.0000000E+00   0.0000000E+00   0.0000000E+00   0.0000000E+00   0.0000000E+00   0.0000000E+00   0.0000000E+00   0.0000000E+00   0.0000000E+00   0.0000000E+00   0.0000000E+00   0.0000000E+00   0.0000000E+00   0.0000000E+00   0.0000000E+00   0.0000000E+00   0.0000000E+00   0.0000000E+00   0.0000000E+00   0.0000000E+00   0.0000000E+00   0.0000000E+00   0.0000000E+00   0.0000000E+00   0.0000000E+00   0.0000000E+00   0.0000000E+00   0.0000000E+00   0.0000000E+00   0.0000000E+00   0.0000000E+00   0.0000000E+00   0.0000000E+00   0.0000000E+00   0.0000000E+00   0.0000000E+00   0.0000000E+00   0.0000000E+00   0.0000000E+00   0.0000000E+00   0.0000000E+00   0.0000000E+00   0.0000000E+00   0.0000000E+00   0.0000000E+00   0.0000000E+00   0.0000000E+00   0.0000000E+00   0.0000000E+00   0.0000000E+00   0.0000000E+00   0.0000000E+00   0.0000000E+00   0.0000000E+00   0.0000000E+00   0.0000000E+00   0.0000000E+00   0.0000000E+00   0.0000000E+00   0.0000000E+00   0.0000000E+00   0.0000000E+00   0.0000000E+00   0.0000000E+00   0.0000000E+00   0.0000000E+00   0.0000000E+00   0.0000000E+00   0.0000000E+00   0.0000000E+00   0.0000000E+00   0.0000000E+00   0.0000000E+00   0.0000000E+00   0.0000000E+00   0.0000000E+00   0.0000000E+00   0.0000000E+00   0.0000000E+00   0.0000000E+00   0.0000000E+00   0.0000000E+00   0.0000000E+00   0.0000000E+00   0.0000000E+00   0.0000000E+00   0.0000000E+00   0.0000000E+00   0.0000000E+00   0.0000000E+00   0.0000000E+00   0.0000000E+00   0.0000000E+00   0.0000000E+00   0.0000000E+00   0.0000000E+00   0.0000000E+00   0.0000000E+00   0.0000000E+00   0.0000000E+00   0.0000000E+00   0.0000000E+00   0.0000000E+00   0.0000000E+00   0.0000000E+00   0.0000000E+00   0.0000000E+00   0.0000000E+00   0.0000000E+00   0.0000000E+00   0.0000000E+00   0.0000000E+00   0.0000000E+00   0.0000000E+00   0.0000000E+00   0.0000000E+00   0.0000000E+00   0.0000000E+00   0.0000000E+00   0.0000000E+00   0.0000000E+00   0.0000000E+00   0.0000000E+00   0.0000000E+00   0.0000000E+00   0.0000000E+00   0.0000000E+00   0.0000000E+00   0.0000000E+00   0.0000000E+00   0.0000000E+00   0.0000000E+00   0.0000000E+00   0.0000000E+00   0.0000000E+00   0.0000000E+00   0.0000000E+00   0.0000000E+00   0.0000000E+00   0.0000000E+00   0.0000000E+00   0.0000000E+00   0.0000000E+00   0.0000000E+00   0.0000000E+00   0.0000000E+00   0.0000000E+00   0.0000000E+00   0.0000000E+00   0.0000000E+00   0.0000000E+00   0.0000000E+00   0.0000000E+00   0.0000000E+00   0.0000000E+00   0.0000000E+00   0.0000000E+00   0.0000000E+00   0.0000000E+00   0.0000000E+00   0.0000000E+00   0.0000000E+00   0.0000000E+00   0.0000000E+00   0.0000000E+00   0.0000000E+00   0.0000000E+00   0.0000000E+00   0.0000000E+00   0.0000000E+00   0.0000000E+00   0.0000000E+00   0.0000000E+00   0.0000000E+00   0.0000000E+00   0.0000000E+00   0.0000000E+00   0.0000000E+00   0.0000000E+00   0.0000000E+00   0.0000000E+00   0.0000000E+00   0.0000000E+00   0.0000000E+00   0.0000000E+00   0.0000000E+00   0.0000000E+00   0.0000000E+00   0.0000000E+00   0.0000000E+00   0.0000000E+00   0.0000000E+00   0.0000000E+00   0.0000000E+00   0.0000000E+00   0.0000000E+00   0.0000000E+00   0.0000000E+00   0.0000000E+00   0.0000000E+00   0.0000000E+00   0.0000000E+00   0.0000000E+00   0.0000000E+00   0.0000000E+00   0.0000000E+00   0.0000000E+00   0.0000000E+00   0.0000000E+00   0.0000000E+00   0.0000000E+00   0.0000000E+00   0.0000000E+00   0.0000000E+00   0.0000000E+00   0.0000000E+00   0.0000000E+00   0.0000000E+00   0.0000000E+00   0.0000000E+00   0.0000000E+00   0.0000000E+00   0.0000000E+00   0.0000000E+00   0.0000000E+00   0.0000000E+00   0.0000000E+00   0.0000000E+00   0.0000000E+00   0.0000000E+00   0.0000000E+00   0.0000000E+00   0.0000000E+00   0.0000000E+00   0.0000000E+00   0.0000000E+00   0.0000000E+00   0.0000000E+00   0.0000000E+00   0.0000000E+00   0.0000000E+00   0.0000000E+00   0.0000000E+00   0.0000000E+00   0.0000000E+00   0.0000000E+00   0.0000000E+00   0.0000000E+00   0.0000000E+00   0.0000000E+00   0.0000000E+00   0.0000000E+00   0.0000000E+00   0.0000000E+00   0.0000000E+00   0.0000000E+00   0.0000000E+00   0.0000000E+00   0.0000000E+00   0.0000000E+00   0.0000000E+00   0.0000000E+00   0.0000000E+00   0.0000000E+00   0.0000000E+00   0.0000000E+00   0.0000000E+00   0.0000000E+00   0.0000000E+00   0.0000000E+00   0.0000000E+00   0.0000000E+00   0.0000000E+00   0.0000000E+00   0.0000000E+00   0.0000000E+00   0.0000000E+00   0.0000000E+00   0.0000000E+00   0.0000000E+00   0.0000000E+00   0.0000000E+00   0.0000000E+00   0.0000000E+00   0.0000000E+00   0.0000000E+00   0.0000000E+00   0.0000000E+00   0.0000000E+00   0.0000000E+00   0.0000000E+00   0.0000000E+00   0.0000000E+00   0.0000000E+00   0.0000000E+00   0.0000000E+00   0.0000000E+00   0.0000000E+00   0.0000000E+00   0.0000000E+00   0.0000000E+00   0.0000000E+00   0.0000000E+00   0.0000000E+00   0.0000000E+00   0.0000000E+00   0.0000000E+00   0.0000000E+00   0.0000000E+00   0.0000000E+00   0.0000000E+00   0.0000000E+00   0.0000000E+00   0.0000000E+00   0.0000000E+00   0.0000000E+00   0.0000000E+00   0.0000000E+00   0.0000000E+00   0.0000000E+00   0.0000000E+00   0.0000000E+00   0.0000000E+00   0.0000000E+00   0.0000000E+00   0.0000000E+00   0.0000000E+00   0.0000000E+00   0.0000000E+00   0.0000000E+00   0.0000000E+00   0.0000000E+00   0.0000000E+00   0.0000000E+00   0.0000000E+00   0.0000000E+00   0.0000000E+00   0.0000000E+00   0.0000000E+00   0.0000000E+00   0.0000000E+00   0.0000000E+00   0.0000000E+00   0.0000000E+00   0.0000000E+00   0.0000000E+00   0.0000000E+00   0.0000000E+00   0.0000000E+00   0.0000000E+00   0.0000000E+00   0.0000000E+00   0.0000000E+00   0.0000000E+00   0.0000000E+00   0.0000000E+00   0.0000000E+00   0.0000000E+00   0.0000000E+00   0.0000000E+00   0.0000000E+00   0.0000000E+00   0.0000000E+00   0.0000000E+00   0.0000000E+00   0.0000000E+00   0.0000000E+00   0.0000000E+00   0.0000000E+00   0.0000000E+00   0.0000000E+00   0.0000000E+00   0.0000000E+00   0.0000000E+00   0.0000000E+00   0.0000000E+00   0.0000000E+00   0.0000000E+00   0.0000000E+00   0.0000000E+00   0.0000000E+00   0.0000000E+00   0.0000000E+00   0.0000000E+00   0.0000000E+00   0.0000000E+00   0.0000000E+00   0.0000000E+00   0.0000000E+00   0.0000000E+00   0.0000000E+00   0.0000000E+00   0.0000000E+00   0.0000000E+00   0.0000000E+00   0.0000000E+00   0.0000000E+00   0.0000000E+00   0.0000000E+00   0.0000000E+00   0.0000000E+00   0.0000000E+00   0.0000000E+00   0.0000000E+00   0.0000000E+00   0.0000000E+00   0.0000000E+00   0.0000000E+00   0.0000000E+00   0.0000000E+00   0.0000000E+00   0.0000000E+00   0.0000000E+00   0.0000000E+00   0.0000000E+00   0.0000000E+00   0.0000000E+00   0.0000000E+00   0.0000000E+00   0.0000000E+00   0.0000000E+00   0.0000000E+00   0.0000000E+00   0.0000000E+00   0.0000000E+00   0.0000000E+00   0.0000000E+00   0.0000000E+00   0.0000000E+00   0.0000000E+00   0.0000000E+00   0.0000000E+00   0.0000000E+00   0.0000000E+00   0.0000000E+00   0.0000000E+00   0.0000000E+00   0.0000000E+00   0.0000000E+00   0.0000000E+00   0.0000000E+00   0.0000000E+00   0.0000000E+00   0.0000000E+00   0.0000000E+00   0.0000000E+00   0.0000000E+00   0.0000000E+00   0.0000000E+00   0.0000000E+00   0.0000000E+00   0.0000000E+00   0.0000000E+00   0.0000000E+00   0.0000000E+00   0.0000000E+00   0.0000000E+00   0.0000000E+00   0.0000000E+00   0.0000000E+00   0.0000000E+00   0.0000000E+00   0.0000000E+00   0.0000000E+00   0.0000000E+00   0.0000000E+00   0.0000000E+00   0.0000000E+00   0.0000000E+00   0.0000000E+00   0.0000000E+00   0.0000000E+00   0.0000000E+00   0.0000000E+00   0.0000000E+00   0.0000000E+00   0.0000000E+00   0.0000000E+00   0.0000000E+00   0.0000000E+00   0.0000000E+00   0.0000000E+00   0.0000000E+00   0.0000000E+00   0.0000000E+00   0.0000000E+00   0.0000000E+00   0.0000000E+00   0.0000000E+00   0.0000000E+00   0.0000000E+00   0.0000000E+00   0.0000000E+00   0.0000000E+00   0.0000000E+00   0.0000000E+00   0.0000000E+00   0.0000000E+00   0.0000000E+00   0.0000000E+00   0.0000000E+00   0.0000000E+00   0.0000000E+00   0.0000000E+00   0.0000000E+00   0.0000000E+00   0.0000000E+00   0.0000000E+00   0.0000000E+00   0.0000000E+00   0.0000000E+00   0.0000000E+00   0.0000000E+00   0.0000000E+00   0.0000000E+00   0.0000000E+00   0.0000000E+00   0.0000000E+00   0.0000000E+00   0.0000000E+00   0.0000000E+00   0.0000000E+00   0.0000000E+00   0.0000000E+00   0.0000000E+00   0.0000000E+00   0.0000000E+00   0.0000000E+00   0.0000000E+00   0.0000000E+00   0.0000000E+00   0.0000000E+00   0.0000000E+00   0.0000000E+00   0.0000000E+00   0.0000000E+00   0.0000000E+00   0.0000000E+00   0.0000000E+00   0.0000000E+00   0.0000000E+00   0.0000000E+00   0.0000000E+00   0.0000000E+00   0.0000000E+00   0.0000000E+00   0.0000000E+00   0.0000000E+00   0.0000000E+00   0.0000000E+00   0.0000000E+00   0.0000000E+00   0.0000000E+00   0.0000000E+00   0.0000000E+00   0.0000000E+00   0.0000000E+00   0.0000000E+00   0.0000000E+00   0.0000000E+00   0.0000000E+00   0.0000000E+00   0.0000000E+00   0.0000000E+00   0.0000000E+00   0.0000000E+00   0.0000000E+00   0.0000000E+00   0.0000000E+00   0.0000000E+00   0.0000000E+00   0.0000000E+00   0.0000000E+00   0.0000000E+00   0.0000000E+00   0.0000000E+00   0.0000000E+00   0.0000000E+00   0.0000000E+00   0.0000000E+00   0.0000000E+00   0.0000000E+00   0.0000000E+00   0.0000000E+00   0.0000000E+00   0.0000000E+00   0.0000000E+00   0.0000000E+00   0.0000000E+00   0.0000000E+00   0.0000000E+00   0.0000000E+00   0.0000000E+00   0.0000000E+00   0.0000000E+00   0.0000000E+00   0.0000000E+00   0.0000000E+00   0.0000000E+00   0.0000000E+00   0.0000000E+00   0.0000000E+00   0.0000000E+00   0.0000000E+00   0.0000000E+00   0.0000000E+00   0.0000000E+00   0.0000000E+00   0.0000000E+00   0.0000000E+00   0.0000000E+00   0.0000000E+00   0.0000000E+00   0.0000000E+00   0.0000000E+00   0.0000000E+00   0.0000000E+00   0.0000000E+00   0.0000000E+00   0.0000000E+00   0.0000000E+00   0.0000000E+00   0.0000000E+00   0.0000000E+00   0.0000000E+00   0.0000000E+00   0.0000000E+00   0.0000000E+00   0.0000000E+00   0.0000000E+00   0.0000000E+00   0.0000000E+00   0.0000000E+00   0.0000000E+00   0.0000000E+00   0.0000000E+00   0.0000000E+00   0.0000000E+00   0.0000000E+00   0.0000000E+00   0.0000000E+00   0.0000000E+00   0.0000000E+00   0.0000000E+00   0.0000000E+00   0.0000000E+00   0.0000000E+00   0.0000000E+00   0.0000000E+00   0.0000000E+00   0.0000000E+00   0.0000000E+00   0.0000000E+00   0.0000000E+00   0.0000000E+00   0.0000000E+00   0.0000000E+00   0.0000000E+00   0.0000000E+00   0.0000000E+00   0.0000000E+00   0.0000000E+00   0.0000000E+00   0.0000000E+00   0.0000000E+00   0.0000000E+00   0.0000000E+00   0.0000000E+00   0.0000000E+00   0.0000000E+00   0.0000000E+00   0.0000000E+00   0.0000000E+00   0.0000000E+00   0.0000000E+00   0.0000000E+00   0.0000000E+00   0.0000000E+00   0.0000000E+00   0.0000000E+00   0.0000000E+00   0.0000000E+00   0.0000000E+00   0.0000000E+00   0.0000000E+00   0.0000000E+00   0.0000000E+00   0.0000000E+00   0.0000000E+00   0.0000000E+00   0.0000000E+00   0.0000000E+00   0.0000000E+00   0.0000000E+00   0.0000000E+00   0.0000000E+00   0.0000000E+00   0.0000000E+00   0.0000000E+00   0.0000000E+00   0.0000000E+00   0.0000000E+00   0.0000000E+00   0.0000000E+00   0.0000000E+00   0.0000000E+00   0.0000000E+00   0.0000000E+00   0.0000000E+00   0.0000000E+00   0.0000000E+00   0.0000000E+00   0.0000000E+00   0.0000000E+00   0.0000000E+00   0.0000000E+00   0.0000000E+00   0.0000000E+00   0.0000000E+00   0.0000000E+00   0.0000000E+00   0.0000000E+00   0.0000000E+00   0.0000000E+00   0.0000000E+00   0.0000000E+00   0.0000000E+00   0.0000000E+00   0.0000000E+00   0.0000000E+00   0.0000000E+00   0.0000000E+00   0.0000000E+00   0.0000000E+00   0.0000000E+00   0.0000000E+00   0.0000000E+00   0.0000000E+00   0.0000000E+00   0.0000000E+00   0.0000000E+00   0.0000000E+00   0.0000000E+00   0.0000000E+00   0.0000000E+00   0.0000000E+00   0.0000000E+00   0.0000000E+00   0.0000000E+00   0.0000000E+00   0.0000000E+00   0.0000000E+00   0.0000000E+00   0.0000000E+00   0.0000000E+00   0.0000000E+00   0.0000000E+00   0.0000000E+00   0.0000000E+00   0.0000000E+00   0.0000000E+00   0.0000000E+00   0.0000000E+00   0.0000000E+00   0.0000000E+00   0.0000000E+00   0.0000000E+00   0.0000000E+00   0.0000000E+00   0.0000000E+00   0.0000000E+00   0.0000000E+00   0.0000000E+00   0.0000000E+00   0.0000000E+00   0.0000000E+00   0.0000000E+00   0.0000000E+00   0.0000000E+00   0.0000000E+00   0.0000000E+00   0.0000000E+00   0.0000000E+00   0.0000000E+00   0.0000000E+00   0.0000000E+00   0.0000000E+00   0.0000000E+00   0.0000000E+00   0.0000000E+00   0.0000000E+00   0.0000000E+00   0.0000000E+00   0.0000000E+00   0.0000000E+00   0.0000000E+00   0.0000000E+00   0.0000000E+00   0.0000000E+00   0.0000000E+00   0.0000000E+00   0.0000000E+00   0.0000000E+00   0.0000000E+00   0.0000000E+00   0.0000000E+00   0.0000000E+00   0.0000000E+00   0.0000000E+00   0.0000000E+00   0.0000000E+00   0.0000000E+00   0.0000000E+00   0.0000000E+00   0.0000000E+00   0.0000000E+00   0.0000000E+00   0.0000000E+00   0.0000000E+00   0.0000000E+00   0.0000000E+00   0.0000000E+00   0.0000000E+00   0.0000000E+00   0.0000000E+00   0.0000000E+00   0.0000000E+00   0.0000000E+00   0.0000000E+00   0.0000000E+00   0.0000000E+00   0.0000000E+00   0.0000000E+00   0.0000000E+00   0.0000000E+00   0.0000000E+00   0.0000000E+00   0.0000000E+00   0.0000000E+00   0.0000000E+00   0.0000000E+00   0.0000000E+00   0.0000000E+00   0.0000000E+00   0.0000000E+00   0.0000000E+00   0.0000000E+00   0.0000000E+00   0.0000000E+00   0.0000000E+00   0.0000000E+00   0.0000000E+00   0.0000000E+00   0.0000000E+00   0.0000000E+00   0.0000000E+00   0.0000000E+00   0.0000000E+00   0.0000000E+00   0.0000000E+00   0.0000000E+00   0.0000000E+00   0.0000000E+00   0.0000000E+00   0.0000000E+00   0.0000000E+00   0.0000000E+00   0.0000000E+00   0.0000000E+00   0.0000000E+00   0.0000000E+00   0.0000000E+00   0.0000000E+00   0.0000000E+00   0.0000000E+00   0.0000000E+00   0.0000000E+00   0.0000000E+00   0.0000000E+00   0.0000000E+00   0.0000000E+00   0.0000000E+00   0.0000000E+00   0.0000000E+00   0.0000000E+00   0.0000000E+00   0.0000000E+00   0.0000000E+00   0.0000000E+00   0.0000000E+00   0.0000000E+00   0.0000000E+00   0.0000000E+00   0.0000000E+00   0.0000000E+00   0.0000000E+00   0.0000000E+00   0.0000000E+00   0.0000000E+00   0.0000000E+00   0.0000000E+00   0.0000000E+00   0.0000000E+00   0.0000000E+00   0.0000000E+00   0.0000000E+00   0.0000000E+00   0.0000000E+00   0.0000000E+00   0.0000000E+00   0.0000000E+00   0.0000000E+00   0.0000000E+00   0.0000000E+00   0.0000000E+00   0.0000000E+00   0.0000000E+00   0.0000000E+00   0.0000000E+00   0.0000000E+00   0.0000000E+00   0.0000000E+00   0.0000000E+00   0.0000000E+00   0.0000000E+00   0.0000000E+00   0.0000000E+00   0.0000000E+00   0.0000000E+00   0.0000000E+00   0.0000000E+00   0.0000000E+00   0.0000000E+00   0.0000000E+00   0.0000000E+00   0.0000000E+00   0.0000000E+00   0.0000000E+00   0.0000000E+00   0.0000000E+00   0.0000000E+00   0.0000000E+00   0.0000000E+00   0.0000000E+00   0.0000000E+00   0.0000000E+00   0.0000000E+00   0.0000000E+00   0.0000000E+00   0.0000000E+00   0.0000000E+00   0.0000000E+00   0.0000000E+00   0.0000000E+00   0.0000000E+00   0.0000000E+00   0.0000000E+00   0.0000000E+00   0.0000000E+00   0.0000000E+00   0.0000000E+00   0.0000000E+00   0.0000000E+00   0.0000000E+00   0.0000000E+00   0.0000000E+00   0.0000000E+00   0.0000000E+00   0.0000000E+00   0.0000000E+00   0.0000000E+00   0.0000000E+00   0.0000000E+00   0.0000000E+00   0.0000000E+00   0.0000000E+00   0.0000000E+00   0.0000000E+00   0.0000000E+00   0.0000000E+00   0.0000000E+00   0.0000000E+00   0.0000000E+00   0.0000000E+00   0.0000000E+00   0.0000000E+00   0.0000000E+00   0.0000000E+00   0.0000000E+00   0.0000000E+00   0.0000000E+00   0.0000000E+00   0.0000000E+00   0.0000000E+00   0.0000000E+00   0.0000000E+00   0.0000000E+00   0.0000000E+00   0.0000000E+00   0.0000000E+00   0.0000000E+00   0.0000000E+00   0.0000000E+00   0.0000000E+00   0.0000000E+00   0.0000000E+00   0.0000000E+00   0.0000000E+00   0.0000000E+00   0.0000000E+00   0.0000000E+00   0.0000000E+00   0.0000000E+00   0.0000000E+00   0.0000000E+00   0.0000000E+00   0.0000000E+00   0.0000000E+00   0.0000000E+00   0.0000000E+00   0.0000000E+00   0.0000000E+00   0.0000000E+00   0.0000000E+00   0.0000000E+00   0.0000000E+00   0.0000000E+00   0.0000000E+00   0.0000000E+00   0.0000000E+00   0.0000000E+00   0.0000000E+00   0.0000000E+00   0.0000000E+00   0.0000000E+00   0.0000000E+00   0.0000000E+00   0.0000000E+00   0.0000000E+00   0.0000000E+00   0.0000000E+00   0.0000000E+00   0.0000000E+00   0.0000000E+00   0.0000000E+00   0.0000000E+00   0.0000000E+00   0.0000000E+00   0.0000000E+00   0.0000000E+00   0.0000000E+00   0.0000000E+00   0.0000000E+00   0.0000000E+00   0.0000000E+00   0.0000000E+00   0.0000000E+00   0.0000000E+00   0.0000000E+00   0.0000000E+00   0.0000000E+00   0.0000000E+00   0.0000000E+00   0.0000000E+00   0.0000000E+00   0.0000000E+00   0.0000000E+00   0.0000000E+00   0.0000000E+00   0.0000000E+00   0.0000000E+00   0.0000000E+00   0.0000000E+00   0.0000000E+00   0.0000000E+00   0.0000000E+00   0.0000000E+00   0.0000000E+00   0.0000000E+00   0.0000000E+00   0.0000000E+00   0.0000000E+00   0.0000000E+00   0.0000000E+00   0.0000000E+00   0.0000000E+00   0.0000000E+00   0.0000000E+00   0.0000000E+00   0.0000000E+00   0.0000000E+00   0.0000000E+00   0.0000000E+00   0.0000000E+00   0.0000000E+00   0.0000000E+00   0.0000000E+00   0.0000000E+00   0.0000000E+00   0.0000000E+00   0.0000000E+00   0.0000000E+00   0.0000000E+00   0.0000000E+00   0.0000000E+00   0.0000000E+00   0.0000000E+00   0.0000000E+00   0.0000000E+00   0.0000000E+00   0.0000000E+00   0.0000000E+00   0.0000000E+00   0.0000000E+00   0.0000000E+00   0.0000000E+00   0.0000000E+00   0.0000000E+00   0.0000000E+00   0.0000000E+00   0.0000000E+00   0.0000000E+00   0.0000000E+00   0.0000000E+00   0.0000000E+00   0.0000000E+00   0.0000000E+00   0.0000000E+00   0.0000000E+00   0.0000000E+00   0.0000000E+00   0.0000000E+00   0.0000000E+00   0.0000000E+00   0.0000000E+00   0.0000000E+00   0.0000000E+00   0.0000000E+00   0.0000000E+00   0.0000000E+00   0.0000000E+00   0.0000000E+00   0.0000000E+00   0.0000000E+00   0.0000000E+00   0.0000000E+00   0.0000000E+00   0.0000000E+00   0.0000000E+00   0.0000000E+00   0.0000000E+00   0.0000000E+00   0.0000000E+00   0.0000000E+00   0.0000000E+00   0.0000000E+00   0.0000000E+00   0.0000000E+00   0.0000000E+00   0.0000000E+00   0.0000000E+00   0.0000000E+00   0.0000000E+00   0.0000000E+00   0.0000000E+00   0.0000000E+00   0.0000000E+00   0.0000000E+00   0.0000000E+00   0.0000000E+00   0.0000000E+00   0.0000000E+00   0.0000000E+00   0.0000000E+00   0.0000000E+00   0.0000000E+00   0.0000000E+00   0.0000000E+00   0.0000000E+00   0.0000000E+00   0.0000000E+00   0.0000000E+00   0.0000000E+00   0.0000000E+00   0.0000000E+00   0.0000000E+00   0.0000000E+00   0.0000000E+00   0.0000000E+00   0.0000000E+00   0.0000000E+00   0.0000000E+00   0.0000000E+00   0.0000000E+00   0.0000000E+00   0.0000000E+00   0.0000000E+00   0.0000000E+00   0.0000000E+00   0.0000000E+00   0.0000000E+00   0.0000000E+00   0.0000000E+00   0.0000000E+00   0.0000000E+00   0.0000000E+00   0.0000000E+00   0.0000000E+00   0.0000000E+00   0.0000000E+00   0.0000000E+00   0.0000000E+00   0.0000000E+00   0.0000000E+00   0.0000000E+00   0.0000000E+00   0.0000000E+00   0.0000000E+00   0.0000000E+00   0.0000000E+00   0.0000000E+00   0.0000000E+00   0.0000000E+00   0.0000000E+00   0.0000000E+00   0.0000000E+00   0.0000000E+00   0.0000000E+00   0.0000000E+00   0.0000000E+00   0.0000000E+00   0.0000000E+00   0.0000000E+00   0.0000000E+00   0.0000000E+00   0.0000000E+00   0.0000000E+00   0.0000000E+00   0.0000000E+00   0.0000000E+00   0.0000000E+00   0.0000000E+00   0.0000000E+00   0.0000000E+00   0.0000000E+00   0.0000000E+00   0.0000000E+00   0.0000000E+00   0.0000000E+00   0.0000000E+00   0.0000000E+00   0.0000000E+00   0.0000000E+00   0.0000000E+00   0.0000000E+00   0.0000000E+00   0.0000000E+00   0.0000000E+00   0.0000000E+00   0.0000000E+00   0.0000000E+00   0.0000000E+00   0.0000000E+00   0.0000000E+00   0.0000000E+00   0.0000000E+00   0.0000000E+00   0.0000000E+00   0.0000000E+00   0.0000000E+00   0.0000000E+00   0.0000000E+00   0.0000000E+00   0.0000000E+00   0.0000000E+00   0.0000000E+00   0.0000000E+00   0.0000000E+00   0.0000000E+00   0.0000000E+00   0.0000000E+00   0.0000000E+00   0.0000000E+00   0.0000000E+00   0.0000000E+00   0.0000000E+00   0.0000000E+00   0.0000000E+00   0.0000000E+00   0.0000000E+00   0.0000000E+00   0.0000000E+00   0.0000000E+00   0.0000000E+00   0.0000000E+00   0.0000000E+00   0.0000000E+00   0.0000000E+00   0.0000000E+00   0.0000000E+00   0.0000000E+00   0.0000000E+00   0.0000000E+00   0.0000000E+00   0.0000000E+00   0.0000000E+00   0.0000000E+00   0.0000000E+00   0.0000000E+00   0.0000000E+00   0.0000000E+00   0.0000000E+00   0.0000000E+00   0.0000000E+00   0.0000000E+00   0.0000000E+00   0.0000000E+00   0.0000000E+00   0.0000000E+00   0.0000000E+00   0.0000000E+00   0.0000000E+00   0.0000000E+00   0.0000000E+00   0.0000000E+00   0.0000000E+00   0.0000000E+00   0.0000000E+00   0.0000000E+00   0.0000000E+00   0.0000000E+00   0.0000000E+00   0.0000000E+00   0.0000000E+00   0.0000000E+00   0.0000000E+00   0.0000000E+00  -1.4732599E+00   0.0000000E+00  -5.8551621E-01  -1.7220774E+00   0.0000000E+00  -5.4231882E-01  -1.9289942E+00   0.0000000E+00  -4.8246706E-01  -2.0989532E+00   0.0000000E+00  -4.1733992E-01  -2.2333984E+00   0.0000000E+00  -3.5459220E-01  -1.4119759E+00   0.0000000E+00  -7.5520182E-01  -1.8580012E+00   0.0000000E+00  -6.4739227E-01  -2.1882076E+00   0.0000000E+00  -6.0922933E-01  -2.4409389E+00   0.0000000E+00  -5.5349672E-01  -2.6415730E+00   0.0000000E+00  -4.8836827E-01  -2.8005085E+00   0.0000000E+00  -4.2168868E-01  -1.8473387E+00   0.0000000E+00  -7.6568842E-01  -2.3835430E+00   0.0000000E+00  -6.6122866E-01  -2.7648196E+00   0.0000000E+00  -6.0591435E-01  -3.0542755E+00   0.0000000E+00  -5.4936874E-01  -3.2825975E+00   0.0000000E+00  -4.9382424E-01  -3.4675732E+00   0.0000000E+00  -4.3239161E-01  -2.3748279E+00   0.0000000E+00  -7.4771309E-01  -3.0047555E+00   0.0000000E+00  -6.2532949E-01  -3.4229355E+00   0.0000000E+00  -5.7145286E-01  -3.7342939E+00   0.0000000E+00  -5.2144432E-01  -3.9860039E+00   0.0000000E+00  -4.7447670E-01  -4.1947885E+00   0.0000000E+00  -4.2175376E-01  -2.9888391E+00   0.0000000E+00  -7.2897243E-01  -3.7185745E+00   0.0000000E+00  -5.7388783E-01  -4.1722021E+00   0.0000000E+00  -5.2071047E-01  -4.5025930E+00   0.0000000E+00  -4.7805786E-01  -4.7718925E+00   0.0000000E+00  -4.4232208E-01  -5.0030270E+00   0.0000000E+00  -3.9892927E-01  -3.7063498E+00   0.0000000E+00  -7.2302437E-01  -4.5459318E+00   0.0000000E+00  -5.1585102E-01  -5.0328636E+00   0.0000000E+00  -4.5809317E-01  -5.3778253E+00   0.0000000E+00  -4.2341614E-01  -5.6629634E+00   0.0000000E+00  -4.0051651E-01  -5.9122467E+00   0.0000000E+00  -3.6971608E-01  -4.5471544E+00   0.0000000E+00  -7.5635624E-01  -5.5054317E+00   0.0000000E+00  -4.6760654E-01  -6.0178475E+00   0.0000000E+00  -3.9293528E-01  -6.3678246E+00   0.0000000E+00  -3.6510015E-01  -6.6650877E+00   0.0000000E+00  -3.5427308E-01  -6.9292035E+00   0.0000000E+00  -3.3884957E-01  -5.5369949E+00   0.0000000E+00  -8.5631466E-01  -6.6082673E+00   0.0000000E+00  -4.5366192E-01  -7.1276426E+00   0.0000000E+00  -3.4832907E-01  -7.4754715E+00   0.0000000E+00  -3.1732893E-01  -7.7743988E+00   0.0000000E+00  -3.1817842E-01  -8.0489817E+00   0.0000000E+00  -3.1786305E-01  -6.7425499E+00   0.0000000E+00  -9.7417831E-01  -7.8657036E+00   0.0000000E+00  -4.7877312E-01  -8.3551550E+00   0.0000000E+00  -3.4833002E-01  -8.6915960E+00   0.0000000E+00  -3.0317116E-01  -8.9864092E+00   0.0000000E+00  -3.1585014E-01  -9.2668657E+00   0.0000000E+00  -3.2600188E-01  -8.3180885E+00   0.0000000E+00  -9.2143631E-01  -9.3083506E+00   0.0000000E+00  -5.0518036E-01  -9.7166224E+00   0.0000000E+00  -3.8344860E-01  -1.0015871E+01   0.0000000E+00  -3.3857059E-01  -1.0298070E+01   0.0000000E+00  -3.6401141E-01  -1.0578073E+01   0.0000000E+00  -3.8706559E-01  -1.0387772E+01   0.0000000E+00  -6.8090057E-01  -1.1006852E+01   0.0000000E+00  -5.0721931E-01  -1.1247753E+01   0.0000000E+00  -4.3181515E-01  -1.1458037E+01   0.0000000E+00  -4.3559790E-01  -1.1708467E+01   0.0000000E+00  -4.7681093E-01  -1.1976004E+01   0.0000000E+00  -5.1933432E-01  -1.2615589E+01   0.0000000E+00  -1.0158367E+00  -1.2952110E+01   0.0000000E+00  -7.1936417E-01  -1.2946554E+01   0.0000000E+00  -6.0881519E-01  -1.3017340E+01   0.0000000E+00  -6.3491106E-01  -1.3218524E+01   0.0000000E+00  -6.7090380E-01  -1.3457782E+01   0.0000000E+00  -7.2989988E-01  -1.5019106E+01   0.0000000E+00  -2.9872456E+00  -1.5079013E+01   0.0000000E+00  -1.8961887E+00  -1.4834869E+01   0.0000000E+00  -1.2277889E+00  -1.4722853E+01   0.0000000E+00  -1.0523391E+00  -1.4821531E+01   0.0000000E+00  -1.0231613E+00  -1.5025118E+01   0.0000000E+00  -1.0680654E+00  -1.8046207E+01   0.0000000E+00  -4.5824051E+00  -1.7563992E+01   0.0000000E+00  -3.2740545E+00  -1.6924379E+01   0.0000000E+00  -2.2566895E+00  -1.6569180E+01   0.0000000E+00  -1.7496564E+00  -1.6522285E+01   0.0000000E+00  -1.5704613E+00  -1.6686140E+01   0.0000000E+00  -1.5031160E+00  -2.1547703E+01   0.0000000E+00  -5.6054034E+00  -2.0379631E+01   0.0000000E+00  -4.2802315E+00  -1.9219208E+01   0.0000000E+00  -3.2364986E+00  -1.8520014E+01   0.0000000E+00  -2.5891819E+00  -1.8314251E+01   0.0000000E+00  -2.2488818E+00  -1.8430815E+01   0.0000000E+00  -2.0678489E+00  -2.5197124E+01   0.0000000E+00  -6.4051733E+00  -2.3232399E+01   0.0000000E+00  -5.0908909E+00  -2.1543844E+01   0.0000000E+00  -4.0675554E+00  -2.0528986E+01   0.0000000E+00  -3.3725443E+00  -2.0180189E+01   0.0000000E+00  -2.9467030E+00  -2.0260435E+01   0.0000000E+00  -2.6713669E+00  -2.8723970E+01   0.0000000E+00  -7.1555195E+00  -2.6036730E+01   0.0000000E+00  -5.7963824E+00  -2.3858763E+01   0.0000000E+00  -4.7787623E+00  -2.2564007E+01   0.0000000E+00  -4.0532899E+00  -2.2099167E+01   0.0000000E+00  -3.5907457E+00  -2.2159952E+01   0.0000000E+00  -3.2565281E+00  -3.2072414E+01   0.0000000E+00  -7.8705754E+00  -2.8788300E+01   0.0000000E+00  -6.4376602E+00  -2.6174025E+01   0.0000000E+00  -5.3878932E+00  -2.4631538E+01   0.0000000E+00  -4.6388574E+00  -2.4070786E+01   0.0000000E+00  -4.1525993E+00  -2.4125301E+01   0.0000000E+00  -3.7912529E+00  -3.5349316E+01   0.0000000E+00  -8.5766964E+00  -3.1549831E+01   0.0000000E+00  -7.0335870E+00  -2.8529158E+01   0.0000000E+00  -5.9208655E+00  -2.6745367E+01   0.0000000E+00  -5.1358380E+00  -2.6094959E+01   0.0000000E+00  -4.6342421E+00  -2.6146090E+01   0.0000000E+00  -4.2668152E+00  -3.8715324E+01   0.0000000E+00  -9.2468290E+00  -3.4387402E+01   0.0000000E+00  -7.5925136E+00  -3.0947899E+01   0.0000000E+00  -6.3847327E+00  -2.8904991E+01   0.0000000E+00  -5.5569687E+00  -2.8164759E+01   0.0000000E+00  -5.0357885E+00  -2.8214870E+01   0.0000000E+00  -4.6760406E+00  -4.2214382E+01   0.0000000E+00  -9.8558750E+00  -3.7311962E+01   0.0000000E+00  -8.0872211E+00  -3.3426903E+01   0.0000000E+00  -6.7711515E+00  -3.1119490E+01   0.0000000E+00  -5.8783636E+00  -3.0270590E+01   0.0000000E+00  -5.3566394E+00  -3.0332125E+01   0.0000000E+00  -4.9896984E+00  -4.5839073E+01   0.0000000E+00  -1.0371402E+01  -4.0311501E+01   0.0000000E+00  -8.4988222E+00  -3.5952599E+01   0.0000000E+00  -7.0695472E+00  -3.3357204E+01   0.0000000E+00  -6.1336570E+00  -3.2401649E+01   0.0000000E+00  -5.5893493E+00  -3.2476074E+01   0.0000000E+00  -5.2089128E+00  -4.9556881E+01   0.0000000E+00  -1.0805905E+01  -4.3372742E+01   0.0000000E+00  -8.8038673E+00  -3.8504921E+01   0.0000000E+00  -7.2748270E+00  -3.5609615E+01   0.0000000E+00  -6.2856960E+00  -3.4545925E+01   0.0000000E+00  -5.7193170E+00  -3.4637150E+01   0.0000000E+00  -5.3249493E+00  -5.3366814E+01   0.0000000E+00  -1.1124740E+01  -4.6485390E+01   0.0000000E+00  -8.9784031E+00  -4.1075470E+01   0.0000000E+00  -7.3498979E+00  -3.7864792E+01   0.0000000E+00  -6.3038311E+00  -3.6689087E+01   0.0000000E+00  -5.7138543E+00  -3.6806145E+01   0.0000000E+00  -5.3154678E+00  -5.7283047E+01   0.0000000E+00  -1.1304623E+01  -4.9649891E+01   0.0000000E+00  -8.9861851E+00  -4.3659565E+01   0.0000000E+00  -7.2537355E+00  -4.0116821E+01   0.0000000E+00  -6.1448250E+00  -3.8823715E+01   0.0000000E+00  -5.5371175E+00  -3.8971935E+01   0.0000000E+00  -5.1352425E+00  -6.1356972E+01   0.0000000E+00  -1.1324205E+01  -5.2887688E+01   0.0000000E+00  -8.7892866E+00  -4.6263569E+01   0.0000000E+00  -6.9368844E+00  -4.2370567E+01   0.0000000E+00  -5.7515373E+00  -4.0946438E+01   0.0000000E+00  -5.1444235E+00  -4.1135487E+01   0.0000000E+00  -4.7734923E+00  -6.5686684E+01   0.0000000E+00  -1.1173019E+01  -5.6237545E+01   0.0000000E+00  -8.3505163E+00  -4.8903332E+01   0.0000000E+00  -6.3424544E+00  -4.4615448E+01   0.0000000E+00  -5.0805006E+00  -4.3049198E+01   0.0000000E+00  -4.4939213E+00  -4.3274456E+01   0.0000000E+00  -4.1595640E+00  -7.0371346E+01   0.0000000E+00  -1.0841108E+01  -5.9728569E+01   0.0000000E+00  -7.6370397E+00  -5.1585030E+01   0.0000000E+00  -5.4205465E+00  -4.6853024E+01   0.0000000E+00  -4.0903454E+00  -4.5135483E+01   0.0000000E+00  -3.5245967E+00  -4.5379066E+01   0.0000000E+00  -3.2836549E+00  -7.5417419E+01   0.0000000E+00  -1.0319348E+01  -6.3321957E+01   0.0000000E+00  -6.6361375E+00  -5.4253437E+01   0.0000000E+00  -4.2026529E+00  -4.9026489E+01   0.0000000E+00  -2.8007567E+00  -4.7140251E+01   0.0000000E+00  -2.2585623E+00  -4.7391178E+01   0.0000000E+00  -2.1512728E+00  -8.0572891E+01   0.0000000E+00  -9.6177750E+00  -6.6863213E+01   0.0000000E+00  -5.3709221E+00  -5.6784481E+01   0.0000000E+00  -2.6129117E+00  -5.1014759E+01   0.0000000E+00  -1.1792638E+00  -4.8867561E+01   0.0000000E+00  -8.3828902E-01  -4.9167850E+01   0.0000000E+00  -8.0587333E-01  -8.5519180E+01   0.0000000E+00  -8.9522896E+00  -7.0068649E+01   0.0000000E+00  -3.9389997E+00  -5.8982452E+01   0.0000000E+00  -6.7432308E-01  -5.2590984E+01   0.0000000E+00   5.9274805E-01  -5.0262981E+01   0.0000000E+00   9.4742543E-01  -5.0576912E+01   0.0000000E+00   8.3579820E-01  -8.9494774E+01   0.0000000E+00  -8.3066635E+00  -7.2804710E+01   0.0000000E+00  -2.2437425E+00  -6.0708752E+01   0.0000000E+00   1.1085576E+00  -5.3819485E+01   0.0000000E+00   2.6345720E+00  -5.1319527E+01   0.0000000E+00   3.0540760E+00  -5.1668503E+01   0.0000000E+00   2.9071946E+00  -9.2592331E+01   0.0000000E+00  -8.2512255E+00  -7.4934959E+01   0.0000000E+00  -5.7667035E-01  -6.2098629E+01   0.0000000E+00   2.7778339E+00  -5.4747456E+01   0.0000000E+00   4.7639704E+00  -5.2101318E+01   0.0000000E+00   5.2888346E+00  -5.2349945E+01   0.0000000E+00   5.3016071E+00  -9.3246605E+01   0.0000000E+00  -8.5624905E+00  -7.5729424E+01   0.0000000E+00   8.3981007E-01  -6.2396038E+01   0.0000000E+00   4.0097270E+00  -5.4971771E+01   0.0000000E+00   6.2711954E+00  -5.2237385E+01   0.0000000E+00   7.3620224E+00  -5.2685719E+01   0.0000000E+00   7.6604433E+00  -8.9331718E+01   0.0000000E+00  -9.4492378E+00  -7.4148682E+01   0.0000000E+00   2.1793823E+00  -6.1075905E+01   0.0000000E+00   5.2168012E+00  -5.3847603E+01   0.0000000E+00   7.8215466E+00  -5.1566124E+01   0.0000000E+00   8.8330441E+00  -5.2367771E+01   0.0000000E+00   9.7185230E+00  -6.9188942E+01   0.0000000E+00  -9.5782137E+00  -6.5393898E+01   0.0000000E+00   3.8119371E+00  -5.6994659E+01   0.0000000E+00   6.6081767E+00  -5.0422951E+01   0.0000000E+00   9.9062996E+00  -4.8314857E+01   0.0000000E+00   9.7555418E+00  -5.0182537E+01   0.0000000E+00   1.0357767E+01  -4.1273254E+01   0.0000000E+00  -1.0178121E+01  -4.0635963E+01   0.0000000E+00   4.3824868E+00  -4.0822357E+01   0.0000000E+00   9.2765474E+00  -4.0927429E+01   0.0000000E+00   1.2647372E+01  -4.0797939E+01   0.0000000E+00   1.2731619E+01  -4.2533772E+01   0.0000000E+00   1.0678098E+01  -2.3359564E+01   0.0000000E+00  -1.0950513E+01  -2.2758163E+01   0.0000000E+00   7.5183082E+00  -2.2706903E+01   0.0000000E+00   1.0186531E+01  -2.2876823E+01   0.0000000E+00   1.4442786E+01  -2.4107756E+01   0.0000000E+00   1.4592364E+01  -2.6169018E+01   0.0000000E+00   1.2304597E+01  -1.4994208E+01   0.0000000E+00  -1.0963023E+01  -1.4351976E+01   0.0000000E+00   1.2786432E+01  -1.3820992E+01   0.0000000E+00   1.0942196E+01  -1.3646124E+01   0.0000000E+00   1.5147982E+01  -1.4216221E+01   0.0000000E+00   1.5604880E+01  -1.5456841E+01   0.0000000E+00   1.5661365E+01  -1.1580149E+01   0.0000000E+00  -1.1298409E+01  -1.0841553E+01   0.0000000E+00   1.4998965E+01  -1.0086111E+01   0.0000000E+00   1.1024816E+01  -9.6187181E+00   0.0000000E+00   1.5879683E+01  -9.5338459E+00   0.0000000E+00   1.7362680E+01  -9.8490448E+00   0.0000000E+00   1.8691847E+01  -7.6566033E+00   0.0000000E+00  -1.1479433E+01  -7.1037803E+00   0.0000000E+00   1.5998330E+01  -6.4856911E+00   0.0000000E+00   1.1848611E+01  -5.9314647E+00   0.0000000E+00   1.6041208E+01  -5.4923701E+00   0.0000000E+00   1.8073738E+01  -5.1958599E+00   0.0000000E+00   1.9661713E+01  -1.0370353E-01   0.0000000E+00  -1.1580386E+01   2.3177147E-02   0.0000000E+00   1.6062548E+01   1.9959703E-01   0.0000000E+00   1.2994267E+01   4.7789499E-01   0.0000000E+00   1.5589123E+01   8.7276089E-01   0.0000000E+00   1.7046564E+01   1.3717266E+00   0.0000000E+00   1.8801199E+01   1.1213652E+01   0.0000000E+00  -1.1529349E+01   1.0820969E+01   0.0000000E+00   1.5237803E+01   1.0425508E+01   0.0000000E+00   1.3470435E+01   1.0055228E+01   0.0000000E+00   1.5459809E+01   1.0206407E+01   0.0000000E+00   1.5283441E+01   1.0531203E+01   0.0000000E+00   1.6818150E+01   2.4630133E+01   0.0000000E+00  -1.1600336E+01   2.3632927E+01   0.0000000E+00   1.3772275E+01   2.2477552E+01   0.0000000E+00   1.3230167E+01   2.1643621E+01   0.0000000E+00   1.5118382E+01   2.1381243E+01   0.0000000E+00   1.3505641E+01   2.1385225E+01   0.0000000E+00   1.4325963E+01   3.8356098E+01   0.0000000E+00  -1.2202828E+01   3.6561069E+01   0.0000000E+00   1.1816790E+01   3.4669773E+01   0.0000000E+00   1.2052409E+01   3.3486832E+01   0.0000000E+00   1.4195568E+01   3.2863815E+01   0.0000000E+00   1.1920766E+01   3.2696590E+01   0.0000000E+00   1.1761909E+01   5.1022724E+01   0.0000000E+00  -1.2723445E+01   4.8706928E+01   0.0000000E+00   8.7600250E+00   4.6001507E+01   0.0000000E+00   1.0344049E+01   4.3973434E+01   0.0000000E+00   1.2815516E+01   4.3672119E+01   0.0000000E+00   1.0413421E+01   4.3633717E+01   0.0000000E+00   9.4689207E+00   6.2236259E+01   0.0000000E+00  -1.2530465E+01   5.9145065E+01   0.0000000E+00   5.8485136E+00   5.5128735E+01   0.0000000E+00   7.9458251E+00   5.3364597E+01   0.0000000E+00   1.0422544E+01   5.3361229E+01   0.0000000E+00   9.0600748E+00   5.3824322E+01   0.0000000E+00   7.6164775E+00   7.2964157E+01   0.0000000E+00  -1.2850265E+01   6.8128181E+01   0.0000000E+00   2.5615211E+00   6.3076885E+01   0.0000000E+00   4.9384317E+00   6.1670631E+01   0.0000000E+00   8.1077595E+00   6.2332546E+01   0.0000000E+00   7.2639365E+00   6.2992474E+01   0.0000000E+00   5.7910304E+00   8.3281296E+01   0.0000000E+00  -1.3235249E+01   7.6647774E+01   0.0000000E+00  -4.9879438E-01   7.0599701E+01   0.0000000E+00   1.8753049E+00   6.9335159E+01   0.0000000E+00   5.6052909E+00   6.9326561E+01   0.0000000E+00   4.0085149E+00   6.8504951E+01   0.0000000E+00   3.6151628E+00   9.3472290E+01   0.0000000E+00  -1.3954949E+01   8.5038338E+01   0.0000000E+00  -2.9741066E+00   7.7894073E+01   0.0000000E+00  -4.4223413E-01   7.5507797E+01   0.0000000E+00   2.0625966E+00   7.2876060E+01   0.0000000E+00   4.5577452E-01   7.0610847E+01   0.0000000E+00   1.4169112E+00   1.0378968E+02   0.0000000E+00  -1.4673412E+01   9.3414024E+01   0.0000000E+00  -4.8175049E+00   8.5641777E+01   0.0000000E+00  -3.0675023E+00   7.9135765E+01   0.0000000E+00  -1.8542209E+00   7.4462036E+01   0.0000000E+00  -1.7428414E+00   7.1702484E+01   0.0000000E+00  -2.2245461E-01   1.1494949E+02   0.0000000E+00  -1.5756674E+01   1.0222975E+02   0.0000000E+00  -5.9854107E+00   9.1346123E+01   0.0000000E+00  -5.9465880E+00   8.1554581E+01   0.0000000E+00  -4.2081413E+00   7.5443146E+01   0.0000000E+00  -3.2292380E+00   7.2325111E+01   0.0000000E+00  -1.6952971E+00   1.2669585E+02   0.0000000E+00  -1.6619938E+01   1.1133039E+02   0.0000000E+00  -8.1593838E+00   9.5322388E+01   0.0000000E+00  -8.0296469E+00   8.3348984E+01   0.0000000E+00  -5.3465991E+00   7.6488800E+01   0.0000000E+00  -4.1276956E+00   7.3044777E+01   0.0000000E+00  -2.6796622E+00   1.4024324E+02   0.0000000E+00  -1.7480268E+01   1.1809264E+02   0.0000000E+00  -1.1498112E+01   9.9422729E+01   0.0000000E+00  -8.7154312E+00   8.5717033E+01   0.0000000E+00  -5.9263988E+00   7.7985954E+01   0.0000000E+00  -4.6583395E+00   7.3762131E+01   0.0000000E+00  -3.3732817E+00   1.5010664E+02   0.0000000E+00  -1.8614046E+01   1.2575412E+02   0.0000000E+00  -1.2802025E+01   1.0418198E+02   0.0000000E+00  -8.9901409E+00   8.9095238E+01   0.0000000E+00  -6.1170311E+00   8.0126686E+01   0.0000000E+00  -4.7438502E+00   7.4791260E+01   0.0000000E+00  -3.7379465E+00   1.3435373E+02   0.0000000E+00  -1.4096262E+01   1.1077687E+02   0.0000000E+00  -9.7768955E+00   9.3863892E+01   0.0000000E+00  -6.3560171E+00   8.2916214E+01   0.0000000E+00  -4.7525120E+00   7.6301804E+01   0.0000000E+00  -3.8084970E+00   1.4415422E+02   0.0000000E+00  -1.5124062E+01   1.1952061E+02   0.0000000E+00  -1.0612405E+01   1.0014758E+02   0.0000000E+00  -6.8999224E+00   8.6927048E+01   0.0000000E+00  -4.8430481E+00   7.8713867E+01   0.0000000E+00  -3.9017904E+00   1.2995634E+02   0.0000000E+00  -1.1289911E+01   1.0850169E+02   0.0000000E+00  -7.4468460E+00   9.2701988E+01   0.0000000E+00  -4.7875304E+00   8.2674271E+01   0.0000000E+00  -3.9234321E+00   1.4117055E+02   0.0000000E+00  -1.1861084E+01   1.1875565E+02   0.0000000E+00  -7.6929522E+00   1.0059620E+02   0.0000000E+00  -4.5677133E+00   8.8397507E+01   0.0000000E+00  -3.5848155E+00   1.3088104E+02   0.0000000E+00  -8.4457521E+00   1.1080059E+02   0.0000000E+00  -4.7640638E+00   9.5791313E+01   0.0000000E+00  -3.0568790E+00   1.2330425E+02   0.0000000E+00  -5.7453151E+00   1.0590119E+02   0.0000000E+00  -3.1210020E+00   1.3452126E+02   0.0000000E+00  -6.9539318E+00   1.1927810E+02   0.0000000E+00  -4.2711616E+00  -2.3350067E+00   0.0000000E+00  -2.9679489E-01  -2.4070091E+00   0.0000000E+00  -2.4190682E-01  -2.4528522E+00   0.0000000E+00  -1.9393486E-01  -2.4785995E+00   0.0000000E+00  -1.5280867E-01  -2.4911299E+00   0.0000000E+00  -1.1631586E-01  -2.4950867E+00   0.0000000E+00  -8.5723668E-02  -2.4944344E+00   0.0000000E+00  -5.9941739E-02  -2.4921894E+00   0.0000000E+00  -3.7651725E-02  -2.4900227E+00   0.0000000E+00  -1.8264107E-02  -2.9217224E+00   0.0000000E+00  -3.5559818E-01  -3.0059347E+00   0.0000000E+00  -2.9471654E-01  -3.0580759E+00   0.0000000E+00  -2.4136680E-01  -3.0874472E+00   0.0000000E+00  -1.9137998E-01  -3.1006346E+00   0.0000000E+00  -1.4845425E-01  -3.1038589E+00   0.0000000E+00  -1.1160717E-01  -3.1021652E+00   0.0000000E+00  -7.8993298E-02  -3.0986338E+00   0.0000000E+00  -5.0727256E-02  -3.0957088E+00   0.0000000E+00  -2.4646284E-02  -3.6087856E+00   0.0000000E+00  -3.7290666E-01  -3.7071953E+00   0.0000000E+00  -3.1501710E-01  -3.7680607E+00   0.0000000E+00  -2.6142296E-01  -3.8014154E+00   0.0000000E+00  -2.1145564E-01  -3.8160648E+00   0.0000000E+00  -1.6747063E-01  -3.8194790E+00   0.0000000E+00  -1.2711999E-01  -3.8170776E+00   0.0000000E+00  -9.1244139E-02  -3.8126125E+00   0.0000000E+00  -5.9148960E-02  -3.8089628E+00   0.0000000E+00  -2.8836329E-02  -4.3567634E+00   0.0000000E+00  -3.6880484E-01  -4.4694376E+00   0.0000000E+00  -3.1741184E-01  -4.5394402E+00   0.0000000E+00  -2.6642126E-01  -4.5774174E+00   0.0000000E+00  -2.1913256E-01  -4.5941982E+00   0.0000000E+00  -1.7591390E-01  -4.5981359E+00   0.0000000E+00  -1.3539618E-01  -4.5952816E+00   0.0000000E+00  -9.8610900E-02  -4.5902786E+00   0.0000000E+00  -6.4147562E-02  -4.5860691E+00   0.0000000E+00  -3.1686198E-02  -5.1842875E+00   0.0000000E+00  -3.5441831E-01  -5.3109617E+00   0.0000000E+00  -3.0860007E-01  -5.3891397E+00   0.0000000E+00  -2.6276413E-01  -5.4314594E+00   0.0000000E+00  -2.1984020E-01  -5.4502559E+00   0.0000000E+00  -1.7802164E-01  -5.4546585E+00   0.0000000E+00  -1.3894892E-01  -5.4515886E+00   0.0000000E+00  -1.0216776E-01  -5.4460201E+00   0.0000000E+00  -6.7064159E-02  -5.4413371E+00   0.0000000E+00  -3.3201545E-02  -6.1108508E+00   0.0000000E+00  -3.3509687E-01  -6.2498379E+00   0.0000000E+00  -2.9610839E-01  -6.3349271E+00   0.0000000E+00  -2.5634798E-01  -6.3808403E+00   0.0000000E+00  -2.1707466E-01  -6.4010496E+00   0.0000000E+00  -1.7867720E-01  -6.4056311E+00   0.0000000E+00  -1.4131887E-01  -6.4021163E+00   0.0000000E+00  -1.0487636E-01  -6.3958893E+00   0.0000000E+00  -6.9487795E-02  -6.3906832E+00   0.0000000E+00  -3.4556974E-02  -7.1417465E+00   0.0000000E+00  -3.1692913E-01  -7.2909093E+00   0.0000000E+00  -2.8667283E-01  -7.3815150E+00   0.0000000E+00  -2.5365156E-01  -7.4299483E+00   0.0000000E+00  -2.1844870E-01  -7.4508009E+00   0.0000000E+00  -1.8276228E-01  -7.4551902E+00   0.0000000E+00  -1.4658752E-01  -7.4509654E+00   0.0000000E+00  -1.1015324E-01  -7.4439816E+00   0.0000000E+00  -7.3473066E-02  -7.4382138E+00   0.0000000E+00  -3.6821023E-02  -8.2727671E+00   0.0000000E+00  -3.1008255E-01  -8.4301348E+00   0.0000000E+00  -2.9043469E-01  -8.5251131E+00   0.0000000E+00  -2.6398179E-01  -8.5752048E+00   0.0000000E+00  -2.3238391E-01  -8.5962696E+00   0.0000000E+00  -1.9755988E-01  -8.6001081E+00   0.0000000E+00  -1.6050281E-01  -8.5950928E+00   0.0000000E+00  -1.2190683E-01  -8.5873289E+00   0.0000000E+00  -8.1966288E-02  -8.5809526E+00   0.0000000E+00  -4.1239411E-02  -9.4988012E+00   0.0000000E+00  -3.3107775E-01  -9.6627932E+00   0.0000000E+00  -3.2133713E-01  -9.7615604E+00   0.0000000E+00  -3.0005142E-01  -9.8132000E+00   0.0000000E+00  -2.6920709E-01  -9.8345327E+00   0.0000000E+00  -2.3197456E-01  -9.8379374E+00   0.0000000E+00  -1.9016075E-01  -9.8322420E+00   0.0000000E+00  -1.4542960E-01  -9.8237143E+00   0.0000000E+00  -9.8218672E-02  -9.8168106E+00   0.0000000E+00  -4.9535893E-02  -1.0814583E+01   0.0000000E+00  -4.0236190E-01  -1.0985158E+01   0.0000000E+00  -3.9653191E-01  -1.1088151E+01   0.0000000E+00  -3.7579522E-01  -1.1142276E+01   0.0000000E+00  -3.4036630E-01  -1.1164681E+01   0.0000000E+00  -2.9507539E-01  -1.1168307E+01   0.0000000E+00  -2.4253736E-01  -1.1162254E+01   0.0000000E+00  -1.8533958E-01  -1.1153255E+01   0.0000000E+00  -1.2522925E-01  -1.1145960E+01   0.0000000E+00  -6.3028350E-02  -1.2217259E+01   0.0000000E+00  -5.3897899E-01  -1.2393763E+01   0.0000000E+00  -5.3215617E-01  -1.2502793E+01   0.0000000E+00  -5.0439894E-01  -1.2561640E+01   0.0000000E+00  -4.5589969E-01  -1.2587041E+01   0.0000000E+00  -3.9333147E-01  -1.2592131E+01   0.0000000E+00  -3.2234019E-01  -1.2586623E+01   0.0000000E+00  -2.4599227E-01  -1.2577419E+01   0.0000000E+00  -1.6697671E-01  -1.2569941E+01   0.0000000E+00  -8.4294438E-02  -1.3703835E+01   0.0000000E+00  -7.4928761E-01  -1.3887832E+01   0.0000000E+00  -7.3908097E-01  -1.4006878E+01   0.0000000E+00  -6.9268274E-01  -1.4074249E+01   0.0000000E+00  -6.1994994E-01  -1.4104674E+01   0.0000000E+00  -5.3539759E-01  -1.4113230E+01   0.0000000E+00  -4.3726397E-01  -1.4109554E+01   0.0000000E+00  -3.3294985E-01  -1.4101398E+01   0.0000000E+00  -2.2413355E-01  -1.4094241E+01   0.0000000E+00  -1.1269487E-01  -1.5273406E+01   0.0000000E+00  -1.0446323E+00  -1.5470604E+01   0.0000000E+00  -1.0116907E+00  -1.5604401E+01   0.0000000E+00  -9.4089520E-01  -1.5683372E+01   0.0000000E+00  -8.3894920E-01  -1.5723645E+01   0.0000000E+00  -7.1548313E-01  -1.5737993E+01   0.0000000E+00  -5.8233553E-01  -1.5737914E+01   0.0000000E+00  -4.4216469E-01  -1.5731678E+01   0.0000000E+00  -2.9697517E-01  -1.5724655E+01   0.0000000E+00  -1.5113366E-01  -1.6929842E+01   0.0000000E+00  -1.4464194E+00  -1.7144575E+01   0.0000000E+00  -1.3647426E+00  -1.7299889E+01   0.0000000E+00  -1.2429805E+00  -1.7393766E+01   0.0000000E+00  -1.1123520E+00  -1.7448801E+01   0.0000000E+00  -9.4283050E-01  -1.7473066E+01   0.0000000E+00  -7.6736832E-01  -1.7478750E+01   0.0000000E+00  -5.8170545E-01  -1.7476376E+01   0.0000000E+00  -3.9016965E-01  -1.7472336E+01   0.0000000E+00  -1.9595414E-01  -1.8678530E+01   0.0000000E+00  -1.9281496E+00  -1.8915537E+01   0.0000000E+00  -1.7784183E+00  -1.9095474E+01   0.0000000E+00  -1.6054957E+00  -1.9214533E+01   0.0000000E+00  -1.4128466E+00  -1.9284096E+01   0.0000000E+00  -1.2135186E+00  -1.9320620E+01   0.0000000E+00  -9.8641646E-01  -1.9336321E+01   0.0000000E+00  -7.4797899E-01  -1.9339375E+01   0.0000000E+00  -5.0281852E-01  -1.9338484E+01   0.0000000E+00  -2.5222039E-01  -2.0514742E+01   0.0000000E+00  -2.4633255E+00  -2.0783945E+01   0.0000000E+00  -2.2445362E+00  -2.0994457E+01   0.0000000E+00  -2.0087457E+00  -2.1140724E+01   0.0000000E+00  -1.7573351E+00  -2.1233675E+01   0.0000000E+00  -1.4963913E+00  -2.1289320E+01   0.0000000E+00  -1.2194827E+00  -2.1315596E+01   0.0000000E+00  -9.3045646E-01  -2.1328241E+01   0.0000000E+00  -6.2488395E-01  -2.1332159E+01   0.0000000E+00  -3.1444830E-01  -2.2442614E+01   0.0000000E+00  -3.0107429E+00  -2.2746367E+01   0.0000000E+00  -2.7339725E+00  -2.2993504E+01   0.0000000E+00  -2.4405687E+00  -2.3176134E+01   0.0000000E+00  -2.1273632E+00  -2.3296804E+01   0.0000000E+00  -1.8084660E+00  -2.3375654E+01   0.0000000E+00  -1.4687428E+00  -2.3422937E+01   0.0000000E+00  -1.1162084E+00  -2.3446276E+01   0.0000000E+00  -7.5683099E-01  -2.3457253E+01   0.0000000E+00  -3.8273200E-01  -2.4444004E+01   0.0000000E+00  -3.5098562E+00  -2.4798540E+01   0.0000000E+00  -3.2072194E+00  -2.5092999E+01   0.0000000E+00  -2.8726883E+00  -2.5314543E+01   0.0000000E+00  -2.5150795E+00  -2.5473814E+01   0.0000000E+00  -2.1390555E+00  -2.5585766E+01   0.0000000E+00  -1.7435776E+00  -2.5657778E+01   0.0000000E+00  -1.3309207E+00  -2.5702103E+01   0.0000000E+00  -8.9801341E-01  -2.5725176E+01   0.0000000E+00  -4.5280573E-01  -2.6515049E+01   0.0000000E+00  -3.9635713E+00  -2.6931292E+01   0.0000000E+00  -3.6384919E+00  -2.7283106E+01   0.0000000E+00  -3.2809951E+00  -2.7558489E+01   0.0000000E+00  -2.8981206E+00  -2.7762403E+01   0.0000000E+00  -2.4907238E+00  -2.7912601E+01   0.0000000E+00  -2.0421810E+00  -2.8017391E+01   0.0000000E+00  -1.5641316E+00  -2.8084717E+01   0.0000000E+00  -1.0608950E+00  -2.8121527E+01   0.0000000E+00  -5.3512472E-01  -2.8645727E+01   0.0000000E+00  -4.3571119E+00  -2.9133924E+01   0.0000000E+00  -4.0186300E+00  -2.9557528E+01   0.0000000E+00  -3.6574810E+00  -2.9898209E+01   0.0000000E+00  -3.2559824E+00  -3.0162489E+01   0.0000000E+00  -2.8178873E+00  -3.0364941E+01   0.0000000E+00  -2.3271611E+00  -3.0510050E+01   0.0000000E+00  -1.7883457E+00  -3.0608797E+01   0.0000000E+00  -1.2137439E+00  -3.0664621E+01   0.0000000E+00  -6.1334229E-01  -3.0825680E+01   0.0000000E+00  -4.6669631E+00  -3.1399502E+01   0.0000000E+00  -4.3445296E+00  -3.1907106E+01   0.0000000E+00  -3.9835036E+00  -3.2328526E+01   0.0000000E+00  -3.5761788E+00  -3.2668888E+01   0.0000000E+00  -3.1188526E+00  -3.2935776E+01   0.0000000E+00  -2.5851369E+00  -3.3135326E+01   0.0000000E+00  -1.9968878E+00  -3.3273113E+01   0.0000000E+00  -1.3598894E+00  -3.3353664E+01   0.0000000E+00  -6.8951774E-01  -3.3046848E+01   0.0000000E+00  -4.9040093E+00  -3.3716633E+01   0.0000000E+00  -4.5935183E+00  -3.4322922E+01   0.0000000E+00  -4.2407503E+00  -3.4844334E+01   0.0000000E+00  -3.8409269E+00  -3.5273193E+01   0.0000000E+00  -3.3629313E+00  -3.5621117E+01   0.0000000E+00  -2.8065655E+00  -3.5887459E+01   0.0000000E+00  -2.1779528E+00  -3.6074837E+01   0.0000000E+00  -1.4893966E+00  -3.6187099E+01   0.0000000E+00  -7.5599653E-01  -3.5295727E+01   0.0000000E+00  -5.0381122E+00  -3.6074955E+01   0.0000000E+00  -4.7422619E+00  -3.6796898E+01   0.0000000E+00  -4.4138951E+00  -3.7429153E+01   0.0000000E+00  -4.0133934E+00  -3.7966007E+01   0.0000000E+00  -3.5363011E+00  -3.8410805E+01   0.0000000E+00  -2.9693263E+00  -3.8758739E+01   0.0000000E+00  -2.3165004E+00  -3.9007172E+01   0.0000000E+00  -1.5906768E+00  -3.9157631E+01   0.0000000E+00  -8.0926508E-01  -3.7561535E+01   0.0000000E+00  -5.0410476E+00  -3.8461674E+01   0.0000000E+00  -4.7639103E+00  -3.9314217E+01   0.0000000E+00  -4.4660492E+00  -4.0071678E+01   0.0000000E+00  -4.0785980E+00  -4.0733410E+01   0.0000000E+00  -3.6170557E+00  -4.1291183E+01   0.0000000E+00  -3.0548568E+00  -4.1735542E+01   0.0000000E+00  -2.3972721E+00  -4.2058067E+01   0.0000000E+00  -1.6516632E+00  -4.2254093E+01   0.0000000E+00  -8.4283394E-01  -3.9833328E+01   0.0000000E+00  -4.8800926E+00  -4.0865055E+01   0.0000000E+00  -4.6320004E+00  -4.1856644E+01   0.0000000E+00  -4.3651052E+00  -4.2755905E+01   0.0000000E+00  -4.0107346E+00  -4.3557095E+01   0.0000000E+00  -3.5782688E+00  -4.4244617E+01   0.0000000E+00  -3.0415168E+00  -4.4800480E+01   0.0000000E+00  -2.3993373E+00  -4.5209717E+01   0.0000000E+00  -1.6615223E+00  -4.5460125E+01   0.0000000E+00  -8.4905952E-01  -4.2101112E+01   0.0000000E+00  -4.5252161E+00  -4.3271969E+01   0.0000000E+00  -4.3164043E+00  -4.4412022E+01   0.0000000E+00  -4.0963621E+00  -4.5464439E+01   0.0000000E+00  -3.7871053E+00  -4.6418827E+01   0.0000000E+00  -3.3959560E+00  -4.7250660E+01   0.0000000E+00  -2.9015870E+00  -4.7933441E+01   0.0000000E+00  -2.3000846E+00  -4.8439625E+01   0.0000000E+00  -1.6023875E+00  -4.8752140E+01   0.0000000E+00  -8.2264954E-01  -4.4355278E+01   0.0000000E+00  -3.9526918E+00  -4.5670383E+01   0.0000000E+00  -3.7972293E+00  -4.6959831E+01   0.0000000E+00  -3.6123221E+00  -4.8181896E+01   0.0000000E+00  -3.3797691E+00  -4.9299713E+01   0.0000000E+00  -3.0457702E+00  -5.0286469E+01   0.0000000E+00  -2.6136167E+00  -5.1106236E+01   0.0000000E+00  -2.0801685E+00  -5.1722374E+01   0.0000000E+00  -1.4509189E+00  -5.2105408E+01   0.0000000E+00  -7.4587989E-01  -4.6574059E+01   0.0000000E+00  -3.1527271E+00  -4.8038021E+01   0.0000000E+00  -3.0695558E+00  -4.9493710E+01   0.0000000E+00  -2.9291198E+00  -5.0886314E+01   0.0000000E+00  -2.7590635E+00  -5.2174892E+01   0.0000000E+00  -2.4874053E+00  -5.3325459E+01   0.0000000E+00  -2.1383159E+00  -5.4289635E+01   0.0000000E+00  -1.7053362E+00  -5.5021290E+01   0.0000000E+00  -1.1932834E+00  -5.5478680E+01   0.0000000E+00  -6.1309171E-01  -4.8696163E+01   0.0000000E+00  -2.1324725E+00  -5.0337818E+01   0.0000000E+00  -2.0856185E+00  -5.1953320E+01   0.0000000E+00  -2.0100977E+00  -5.3524353E+01   0.0000000E+00  -1.8843251E+00  -5.4990250E+01   0.0000000E+00  -1.6793158E+00  -5.6307678E+01   0.0000000E+00  -1.4360921E+00  -5.7423054E+01   0.0000000E+00  -1.1377168E+00  -5.8275177E+01   0.0000000E+00  -7.9200304E-01  -5.8812492E+01   0.0000000E+00  -4.1092435E-01  -5.0603691E+01   0.0000000E+00  -8.3330894E-01  -5.2418983E+01   0.0000000E+00  -8.4983033E-01  -5.4247005E+01   0.0000000E+00  -8.1865400E-01  -5.6011124E+01   0.0000000E+00  -7.4003428E-01  -5.7654903E+01   0.0000000E+00  -6.1475837E-01  -5.9134808E+01   0.0000000E+00  -5.0065267E-01  -6.0388409E+01   0.0000000E+00  -4.0663147E-01  -6.1379658E+01   0.0000000E+00  -2.5529668E-01  -6.1995152E+01   0.0000000E+00  -1.3783452E-01  -5.2184414E+01   0.0000000E+00   7.4634737E-01  -5.4202843E+01   0.0000000E+00   6.9652200E-01  -5.6239826E+01   0.0000000E+00   7.1426612E-01  -5.8181877E+01   0.0000000E+00   7.7554715E-01  -6.0004612E+01   0.0000000E+00   8.2903302E-01  -6.1619141E+01   0.0000000E+00   7.3898447E-01  -6.3036037E+01   0.0000000E+00   6.7881918E-01  -6.4112396E+01   0.0000000E+00   5.0827473E-01  -6.4766777E+01   0.0000000E+00   2.8061482E-01  -5.3399628E+01   0.0000000E+00   2.7150183E+00  -5.5627056E+01   0.0000000E+00   2.6490178E+00  -5.7821793E+01   0.0000000E+00   2.6614459E+00  -5.9917534E+01   0.0000000E+00   2.7019708E+00  -6.1863308E+01   0.0000000E+00   2.6807163E+00  -6.3580719E+01   0.0000000E+00   2.5028403E+00  -6.5055626E+01   0.0000000E+00   2.1653607E+00  -6.6157173E+01   0.0000000E+00   1.6345403E+00  -6.6863022E+01   0.0000000E+00   8.9233392E-01  -5.4248444E+01   0.0000000E+00   5.0948100E+00  -5.6595852E+01   0.0000000E+00   4.9998651E+00  -5.8922005E+01   0.0000000E+00   5.0143199E+00  -6.1098995E+01   0.0000000E+00   4.9679999E+00  -6.3125118E+01   0.0000000E+00   4.8035350E+00  -6.4925186E+01   0.0000000E+00   4.4132395E+00  -6.6383995E+01   0.0000000E+00   3.7196863E+00  -6.7537735E+01   0.0000000E+00   2.6099777E+00  -6.8258759E+01   0.0000000E+00   1.2819752E+00  -5.4710770E+01   0.0000000E+00   7.6983099E+00  -5.7188637E+01   0.0000000E+00   7.7976103E+00  -5.9580490E+01   0.0000000E+00   7.8103991E+00  -6.1810806E+01   0.0000000E+00   7.7275934E+00  -6.3878685E+01   0.0000000E+00   7.4041629E+00  -6.5679947E+01   0.0000000E+00   6.7541385E+00  -6.7118469E+01   0.0000000E+00   5.7357302E+00  -6.8209976E+01   0.0000000E+00   4.1177907E+00  -6.8836876E+01   0.0000000E+00   2.1493275E+00  -5.4582985E+01   0.0000000E+00   1.0269560E+01  -5.7263210E+01   0.0000000E+00   1.0729371E+01  -5.9896542E+01   0.0000000E+00   1.1159533E+01  -6.2288506E+01   0.0000000E+00   1.1305048E+01  -6.4429482E+01   0.0000000E+00   1.0976787E+01  -6.6278778E+01   0.0000000E+00   1.0212848E+01  -6.7697121E+01   0.0000000E+00   8.8367558E+00  -6.8677971E+01   0.0000000E+00   6.5581393E+00  -6.9254395E+01   0.0000000E+00   3.5559270E+00  -5.3088123E+01   0.0000000E+00   1.1639856E+01  -5.6390255E+01   0.0000000E+00   1.2988235E+01  -5.9496807E+01   0.0000000E+00   1.3967067E+01  -6.2133198E+01   0.0000000E+00   1.4334859E+01  -6.4320396E+01   0.0000000E+00   1.3937672E+01  -6.6194687E+01   0.0000000E+00   1.2858425E+01  -6.7761803E+01   0.0000000E+00   1.0896857E+01  -6.8963104E+01   0.0000000E+00   7.9761438E+00  -6.9662720E+01   0.0000000E+00   4.2511692E+00  -4.6205975E+01   0.0000000E+00   9.1066904E+00  -5.0048653E+01   0.0000000E+00   1.0668859E+01  -5.3985264E+01   0.0000000E+00   1.1979612E+01  -5.7891228E+01   0.0000000E+00   1.2430282E+01  -6.1449329E+01   0.0000000E+00   1.2126744E+01  -6.4490440E+01   0.0000000E+00   1.1128963E+01  -6.7033539E+01   0.0000000E+00   9.3474741E+00  -6.8936386E+01   0.0000000E+00   6.7845106E+00  -7.0059441E+01   0.0000000E+00   3.5952809E+00  -2.8834303E+01   0.0000000E+00   1.2522227E+01  -3.1875580E+01   0.0000000E+00   1.4285089E+01  -3.5137264E+01   0.0000000E+00   1.5470464E+01  -3.8386269E+01   0.0000000E+00   1.5731347E+01  -4.1433006E+01   0.0000000E+00   1.5099936E+01  -4.4136650E+01   0.0000000E+00   1.3630159E+01  -4.6383591E+01   0.0000000E+00   1.1323022E+01  -4.8074875E+01   0.0000000E+00   8.1765375E+00  -4.9128166E+01   0.0000000E+00   4.3033381E+00  -1.7162031E+01   0.0000000E+00   1.7117867E+01  -1.9272102E+01   0.0000000E+00   1.8647722E+01  -2.1637976E+01   0.0000000E+00   1.9495838E+01  -2.4089621E+01   0.0000000E+00   1.9330320E+01  -2.6469353E+01   0.0000000E+00   1.8224005E+01  -2.8642775E+01   0.0000000E+00   1.6243628E+01  -3.0489197E+01   0.0000000E+00   1.3373814E+01  -3.1900320E+01   0.0000000E+00   9.5989332E+00  -3.2787182E+01   0.0000000E+00   5.0342398E+00  -1.0531816E+01   0.0000000E+00   2.0166536E+01  -1.1536165E+01   0.0000000E+00   2.1594633E+01  -1.2799141E+01   0.0000000E+00   2.2299431E+01  -1.4225116E+01   0.0000000E+00   2.1936237E+01  -1.5703218E+01   0.0000000E+00   2.0580780E+01  -1.7122559E+01   0.0000000E+00   1.8288902E+01  -1.8372889E+01   0.0000000E+00   1.5024707E+01  -1.9352348E+01   0.0000000E+00   1.0765778E+01  -1.9977451E+01   0.0000000E+00   5.6400814E+00  -5.0537267E+00   0.0000000E+00   2.1258707E+01  -5.0892868E+00   0.0000000E+00   2.2760765E+01  -5.3197932E+00   0.0000000E+00   2.3532349E+01  -5.7242565E+00   0.0000000E+00   2.3217487E+01  -6.2528443E+00   0.0000000E+00   2.1863651E+01  -6.8378611E+00   0.0000000E+00   1.9495680E+01  -7.4012256E+00   0.0000000E+00   1.6056646E+01  -7.8682432E+00   0.0000000E+00   1.1523087E+01  -8.1764517E+00   0.0000000E+00   6.0415154E+00   1.9434646E+00   0.0000000E+00   2.0580599E+01   2.5288184E+00   0.0000000E+00   2.2253752E+01   3.0585127E+00   0.0000000E+00   2.3231947E+01   3.4855125E+00   0.0000000E+00   2.3146017E+01   3.7910271E+00   0.0000000E+00   2.1993902E+01   3.9837184E+00   0.0000000E+00   1.9757952E+01   4.0894718E+00   0.0000000E+00   1.6362236E+01   4.1372476E+00   0.0000000E+00   1.1785197E+01   4.1535635E+00   0.0000000E+00   6.1915455E+00   1.1124628E+01   0.0000000E+00   1.8681980E+01   1.1944076E+01   0.0000000E+00   2.0514383E+01   1.2896747E+01   0.0000000E+00   2.1734905E+01   1.3881450E+01   0.0000000E+00   2.1951769E+01   1.4814665E+01   0.0000000E+00   2.1106106E+01   1.5639489E+01   0.0000000E+00   1.9139175E+01   1.6316456E+01   0.0000000E+00   1.5960566E+01   1.6818439E+01   0.0000000E+00   1.1550545E+01   1.7126509E+01   0.0000000E+00   6.0848918E+00   2.1731972E+01   0.0000000E+00   1.6175386E+01   2.2499506E+01   0.0000000E+00   1.8098097E+01   2.3595066E+01   0.0000000E+00   1.9509701E+01   2.4883696E+01   0.0000000E+00   2.0000792E+01   2.6228559E+01   0.0000000E+00   1.9467152E+01   2.7509752E+01   0.0000000E+00   1.7822580E+01   2.8623451E+01   0.0000000E+00   1.4969253E+01   2.9484365E+01   0.0000000E+00   1.0887231E+01   3.0027727E+01   0.0000000E+00   5.7523298E+00   3.2719723E+01   0.0000000E+00   1.3565804E+01   3.3311535E+01   0.0000000E+00   1.5505219E+01   3.4392281E+01   0.0000000E+00   1.7012829E+01   3.5810104E+01   0.0000000E+00   1.7684319E+01   3.7391853E+01   0.0000000E+00   1.7396198E+01   3.8967869E+01   0.0000000E+00   1.6056097E+01   4.0381042E+01   0.0000000E+00   1.3568538E+01   4.1496864E+01   0.0000000E+00   9.9120703E+00   4.2210850E+01   0.0000000E+00   5.2511911E+00   4.3443493E+01   0.0000000E+00   1.1176858E+01   4.3883728E+01   0.0000000E+00   1.3084751E+01   4.4910103E+01   0.0000000E+00   1.4593325E+01   4.6366570E+01   0.0000000E+00   1.5333025E+01   4.8062065E+01   0.0000000E+00   1.5191211E+01   4.9798664E+01   0.0000000E+00   1.4092344E+01   5.1386288E+01   0.0000000E+00   1.1955654E+01   5.2657547E+01   0.0000000E+00   8.7598581E+00   5.3478466E+01   0.0000000E+00   4.6496696E+00   5.3662701E+01   0.0000000E+00   9.1612053E+00   5.4055599E+01   0.0000000E+00   1.1018998E+01   5.5054020E+01   0.0000000E+00   1.2461348E+01   5.6505848E+01   0.0000000E+00   1.3174946E+01   5.8212410E+01   0.0000000E+00   1.3081100E+01   5.9973896E+01   0.0000000E+00   1.2141496E+01   6.1574951E+01   0.0000000E+00   1.0303259E+01   6.2842140E+01   0.0000000E+00   7.5521159E+00   6.3656574E+01   0.0000000E+00   4.0111337E+00   6.2749187E+01   0.0000000E+00   7.4543371E+00   6.3012680E+01   0.0000000E+00   9.2414637E+00   6.3703453E+01   0.0000000E+00   1.0555713E+01   6.4649643E+01   0.0000000E+00   1.1156651E+01   6.5765068E+01   0.0000000E+00   1.1030547E+01   6.6799774E+01   0.0000000E+00   1.0202695E+01   6.7773941E+01   0.0000000E+00   8.6434069E+00   6.8525826E+01   0.0000000E+00   6.3332877E+00   6.8946785E+01   0.0000000E+00   3.3660195E+00   6.7748810E+01   0.0000000E+00   5.4606967E+00   6.7595688E+01   0.0000000E+00   7.2352419E+00   6.7794922E+01   0.0000000E+00   8.4973288E+00   6.8135925E+01   0.0000000E+00   9.0441971E+00   6.8627289E+01   0.0000000E+00   8.9453630E+00   6.9148567E+01   0.0000000E+00   8.2675533E+00   6.9711586E+01   0.0000000E+00   7.0109773E+00   7.0157021E+01   0.0000000E+00   5.1495862E+00   7.0446014E+01   0.0000000E+00   2.7393610E+00   6.9648972E+01   0.0000000E+00   3.3265655E+00   6.9314102E+01   0.0000000E+00   5.0981436E+00   6.9280983E+01   0.0000000E+00   6.3422093E+00   6.9418518E+01   0.0000000E+00   6.9251957E+00   6.9737770E+01   0.0000000E+00   6.8823962E+00   7.0177231E+01   0.0000000E+00   6.3737926E+00   7.0529350E+01   0.0000000E+00   5.4627075E+00   7.0829262E+01   0.0000000E+00   4.0351272E+00   7.1088394E+01   0.0000000E+00   2.1570592E+00   7.0467888E+01   0.0000000E+00   1.5346042E+00   7.0171135E+01   0.0000000E+00   3.2392807E+00   7.0102432E+01   0.0000000E+00   4.4871325E+00   7.0200188E+01   0.0000000E+00   5.0862312E+00   7.0397438E+01   0.0000000E+00   5.1768355E+00   7.0685204E+01   0.0000000E+00   4.8650532E+00   7.0969055E+01   0.0000000E+00   4.1161680E+00   7.1224586E+01   0.0000000E+00   3.0010710E+00   7.1400215E+01   0.0000000E+00   1.5882730E+00   7.1128456E+01   0.0000000E+00  -7.7519584E-03   7.0591629E+01   0.0000000E+00   1.6583973E+00   7.0362762E+01   0.0000000E+00   2.9288867E+00   7.0434082E+01   0.0000000E+00   3.6973834E+00   7.0557533E+01   0.0000000E+00   3.9388232E+00   7.0866173E+01   0.0000000E+00   3.6561654E+00   7.1158531E+01   0.0000000E+00   3.0951817E+00   7.1403458E+01   0.0000000E+00   2.2570379E+00   7.1554382E+01   0.0000000E+00   1.1949822E+00   7.1416649E+01   0.0000000E+00  -1.1301229E+00   7.0684845E+01   0.0000000E+00   3.2334238E-01   7.0548409E+01   0.0000000E+00   1.4420099E+00   7.0508209E+01   0.0000000E+00   2.2346153E+00   7.0612129E+01   0.0000000E+00   2.5166278E+00   7.0829529E+01   0.0000000E+00   2.5343850E+00   7.1105942E+01   0.0000000E+00   2.3152277E+00   7.1323387E+01   0.0000000E+00   1.7272284E+00   7.1468674E+01   0.0000000E+00   9.2980003E-01   7.1581154E+01   0.0000000E+00  -1.9240795E+00   7.0798096E+01   0.0000000E+00  -6.8942213E-01   7.0485313E+01   0.0000000E+00   3.8195625E-01   7.0462418E+01   0.0000000E+00   1.1020076E+00   7.0561417E+01   0.0000000E+00   1.4335450E+00   7.0665154E+01   0.0000000E+00   1.4847734E+00   7.0820274E+01   0.0000000E+00   1.3323478E+00   7.0953773E+01   0.0000000E+00   1.0792278E+00   7.1161476E+01   0.0000000E+00   6.7502916E-01   7.2055435E+01   0.0000000E+00  -2.5722361E+00   7.0693542E+01   0.0000000E+00  -1.4713230E+00   7.0274742E+01   0.0000000E+00  -6.1973715E-01   7.0138161E+01   0.0000000E+00   1.4087483E-01   7.0153336E+01   0.0000000E+00   5.9249324E-01   7.0220230E+01   0.0000000E+00   8.0787605E-01   7.0304871E+01   0.0000000E+00   8.1003118E-01   7.0389046E+01   0.0000000E+00   6.1001253E-01   7.0438110E+01   0.0000000E+00   2.9640278E-01   7.2522148E+01   0.0000000E+00  -2.9144785E+00   7.0711548E+01   0.0000000E+00  -2.1648946E+00   6.9876701E+01   0.0000000E+00  -1.4097960E+00   6.9587685E+01   0.0000000E+00  -7.7751553E-01   6.9476654E+01   0.0000000E+00  -2.2253859E-01   6.9446945E+01   0.0000000E+00   1.2656684E-01   6.9437645E+01   0.0000000E+00   3.2651973E-01   6.9471733E+01   0.0000000E+00   3.5190722E-01   6.9540611E+01   0.0000000E+00   2.2566813E-01   7.3549622E+01   0.0000000E+00  -3.0330410E+00   7.0793243E+01   0.0000000E+00  -2.4486859E+00   6.9578262E+01   0.0000000E+00  -2.0165293E+00   6.8889893E+01   0.0000000E+00  -1.4063203E+00   6.8653809E+01   0.0000000E+00  -9.5642191E-01   6.8448174E+01   0.0000000E+00  -4.5796451E-01   6.8357872E+01   0.0000000E+00  -1.6624013E-01   6.8295471E+01   0.0000000E+00   6.8301968E-02   6.8407516E+01   0.0000000E+00  -5.2639261E-02   7.5793404E+01   0.0000000E+00  -3.1153152E+00   7.1584305E+01   0.0000000E+00  -2.5101619E+00   6.9410492E+01   0.0000000E+00  -2.2070904E+00   6.8413620E+01   0.0000000E+00  -1.9199518E+00   6.7685410E+01   0.0000000E+00  -1.3710225E+00   6.7398216E+01   0.0000000E+00  -9.8469466E-01   6.7105400E+01   0.0000000E+00  -5.1088029E-01   6.7072617E+01   0.0000000E+00  -3.5376403E-01   6.7031616E+01   0.0000000E+00  -2.4489556E-01   7.9527802E+01   0.0000000E+00  -3.0343678E+00   7.3775040E+01   0.0000000E+00  -2.5052979E+00   7.0224281E+01   0.0000000E+00  -2.1842024E+00   6.8088799E+01   0.0000000E+00  -1.9636749E+00   6.7137703E+01   0.0000000E+00  -1.7181541E+00   6.6309662E+01   0.0000000E+00  -1.1853731E+00   6.5902946E+01   0.0000000E+00  -8.5175449E-01   6.5754646E+01   0.0000000E+00  -6.0051084E-01   6.5650505E+01   0.0000000E+00  -3.8781220E-01   8.4749352E+01   0.0000000E+00  -2.4502776E+00   7.7286621E+01   0.0000000E+00  -2.2696004E+00   7.2250549E+01   0.0000000E+00  -2.0210660E+00   6.9075569E+01   0.0000000E+00  -1.8388476E+00   6.6953476E+01   0.0000000E+00  -1.5744843E+00   6.5749985E+01   0.0000000E+00  -1.3217777E+00   6.4953201E+01   0.0000000E+00  -9.1381043E-01   6.4653732E+01   0.0000000E+00  -7.8827238E-01   6.4471039E+01   0.0000000E+00  -4.4746840E-01   9.2610016E+01   0.0000000E+00  -1.7060256E+00   8.3071701E+01   0.0000000E+00  -1.4189303E+00   7.6350105E+01   0.0000000E+00  -1.5214686E+00   7.1579025E+01   0.0000000E+00  -1.3872584E+00   6.8476349E+01   0.0000000E+00  -1.3678337E+00   6.6032166E+01   0.0000000E+00  -1.0727328E+00   6.4836594E+01   0.0000000E+00  -8.8289392E-01   6.4302521E+01   0.0000000E+00  -7.2671473E-01   6.3878361E+01   0.0000000E+00  -4.1893470E-01   1.0364326E+02   0.0000000E+00  -2.0234487E+00   9.1687103E+01   0.0000000E+00  -6.5595824E-01   8.2856445E+01   0.0000000E+00  -5.3985745E-01   7.6193161E+01   0.0000000E+00  -4.9045810E-01   7.1560661E+01   0.0000000E+00  -7.1710414E-01   6.8378830E+01   0.0000000E+00  -6.7696398E-01   6.6133743E+01   0.0000000E+00  -5.0903702E-01   6.4995468E+01   0.0000000E+00  -4.2501259E-01   6.4495621E+01   0.0000000E+00  -3.2716975E-01   1.1731812E+02   0.0000000E+00  -3.3729215E+00   1.0337994E+02   0.0000000E+00  -1.2338554E+00   9.2424690E+01   0.0000000E+00  -9.0607502E-02   8.3460365E+01   0.0000000E+00   6.2259740E-01   7.7168579E+01   0.0000000E+00   6.0261589E-01   7.2612968E+01   0.0000000E+00   3.9278230E-01   6.9927681E+01   0.0000000E+00   6.4177901E-02   6.7928314E+01   0.0000000E+00   7.7513486E-02   6.7031174E+01   0.0000000E+00   1.4017655E-01   1.1625466E+02   0.0000000E+00  -2.2674065E+00   1.0459092E+02   0.0000000E+00  -5.7552862E-01   9.3946152E+01   0.0000000E+00   8.0425078E-01   8.5655579E+01   0.0000000E+00   1.4419796E+00   7.9349045E+01   0.0000000E+00   1.9602232E+00   7.5304726E+01   0.0000000E+00   1.8228564E+00   7.3046158E+01   0.0000000E+00   1.4094646E+00   7.2041496E+01   0.0000000E+00   8.6702359E-01   1.0581969E+02   0.0000000E+00   5.8040535E-01   9.7040726E+01   0.0000000E+00   1.6088207E+00   8.9730179E+01   0.0000000E+00   2.4798656E+00   8.4830086E+01   0.0000000E+00   2.5951838E+00   8.1856018E+01   0.0000000E+00   2.3226988E+00   8.0417435E+01   0.0000000E+00   1.5870699E+00   1.0022284E+02   0.0000000E+00   2.8124924E+00   9.5426796E+01   0.0000000E+00   3.3814352E+00   9.2808884E+01   0.0000000E+00   2.7460501E+00   9.1834267E+01   0.0000000E+00   9.9759662E-01  -2.4892426E+00   0.0000000E+00  -5.9706872E-07  -2.4900265E+00   0.0000000E+00   1.8266780E-02  -2.4921856E+00   0.0000000E+00   3.7650779E-02  -2.4944382E+00   0.0000000E+00   5.9941337E-02  -2.4950848E+00   0.0000000E+00   8.5723281E-02  -2.4911356E+00   0.0000000E+00   1.1631522E-01  -2.4785919E+00   0.0000000E+00   1.5280852E-01  -2.4528542E+00   0.0000000E+00   1.9393507E-01  -3.0945539E+00   0.0000000E+00   8.6206001E-07  -3.0957060E+00   0.0000000E+00   2.4648301E-02  -3.0986357E+00   0.0000000E+00   5.0728172E-02  -3.1021633E+00   0.0000000E+00   7.8992240E-02  -3.1038628E+00   0.0000000E+00   1.1160714E-01  -3.1006327E+00   0.0000000E+00   1.4845417E-01  -3.0874386E+00   0.0000000E+00   1.9138005E-01  -3.0580769E+00   0.0000000E+00   2.4136716E-01  -3.8075695E+00   0.0000000E+00  -9.6472513E-07  -3.8089714E+00   0.0000000E+00   2.8839130E-02  -3.8126192E+00   0.0000000E+00   5.9147030E-02  -3.8170757E+00   0.0000000E+00   9.1242149E-02  -3.8194818E+00   0.0000000E+00   1.2712017E-01  -3.8160696E+00   0.0000000E+00   1.6746986E-01  -3.8014278E+00   0.0000000E+00   2.1145451E-01  -3.7680616E+00   0.0000000E+00   2.6142374E-01  -4.5844979E+00   0.0000000E+00   1.8068536E-06  -4.5860715E+00   0.0000000E+00   3.1688292E-02  -4.5902829E+00   0.0000000E+00   6.4146183E-02  -4.5952854E+00   0.0000000E+00   9.8610297E-02  -4.5981336E+00   0.0000000E+00   1.3539487E-01  -4.5941944E+00   0.0000000E+00   1.7591326E-01  -4.5774288E+00   0.0000000E+00   2.1912807E-01  -4.5394320E+00   0.0000000E+00   2.6641893E-01  -5.4395757E+00   0.0000000E+00  -3.6330466E-06  -5.4413261E+00   0.0000000E+00   3.3202630E-02  -5.4460235E+00   0.0000000E+00   6.7062296E-02  -5.4515977E+00   0.0000000E+00   1.0216761E-01  -5.4546614E+00   0.0000000E+00   1.3894755E-01  -5.4502511E+00   0.0000000E+00   1.7802112E-01  -5.4314547E+00   0.0000000E+00   2.1983749E-01  -5.3891335E+00   0.0000000E+00   2.6276726E-01  -6.3887181E+00   0.0000000E+00   4.1544117E-06  -6.3906903E+00   0.0000000E+00   3.4554895E-02  -6.3958917E+00   0.0000000E+00   6.9488682E-02  -6.4021101E+00   0.0000000E+00   1.0487657E-01  -6.4056282E+00   0.0000000E+00   1.4131854E-01  -6.4010544E+00   0.0000000E+00   1.7867617E-01  -6.3808470E+00   0.0000000E+00   2.1707191E-01  -6.3349280E+00   0.0000000E+00   2.5634381E-01  -7.4360147E+00   0.0000000E+00   6.1530318E-07  -7.4382157E+00   0.0000000E+00   3.6818400E-02  -7.4439917E+00   0.0000000E+00   7.3471174E-02  -7.4509630E+00   0.0000000E+00   1.1015321E-01  -7.4551916E+00   0.0000000E+00   1.4658676E-01  -7.4507923E+00   0.0000000E+00   1.8276274E-01  -7.4299273E+00   0.0000000E+00   2.1845295E-01  -7.3815136E+00   0.0000000E+00   2.5365439E-01  -8.5785675E+00   0.0000000E+00   1.0679059E-06  -8.5809574E+00   0.0000000E+00   4.1235331E-02  -8.5873241E+00   0.0000000E+00   8.1970856E-02  -8.5951185E+00   0.0000000E+00   1.2190755E-01  -8.6001158E+00   0.0000000E+00   1.6050300E-01  -8.5962839E+00   0.0000000E+00   1.9755957E-01  -8.5752029E+00   0.0000000E+00   2.3238872E-01  -8.5251083E+00   0.0000000E+00   2.6397923E-01  -9.8142271E+00   0.0000000E+00   2.4322435E-07  -9.8168173E+00   0.0000000E+00   4.9527042E-02  -9.8237247E+00   0.0000000E+00   9.8218247E-02  -9.8322210E+00   0.0000000E+00   1.4542826E-01  -9.8379498E+00   0.0000000E+00   1.9016097E-01  -9.8345165E+00   0.0000000E+00   2.3196995E-01  -9.8132057E+00   0.0000000E+00   2.6920554E-01  -9.7615566E+00   0.0000000E+00   3.0004650E-01  -1.1143191E+01   0.0000000E+00   9.7105612E-06  -1.1145960E+01   0.0000000E+00   6.3024901E-02  -1.1153251E+01   0.0000000E+00   1.2522538E-01  -1.1162248E+01   0.0000000E+00   1.8534049E-01  -1.1168303E+01   0.0000000E+00   2.4253726E-01  -1.1164674E+01   0.0000000E+00   2.9507476E-01  -1.1142276E+01   0.0000000E+00   3.4036732E-01  -1.1088144E+01   0.0000000E+00   3.7579158E-01  -1.2567115E+01   0.0000000E+00   4.5087527E-06  -1.2569952E+01   0.0000000E+00   8.4285073E-02  -1.2577424E+01   0.0000000E+00   1.6698259E-01  -1.2586617E+01   0.0000000E+00   2.4599092E-01  -1.2592123E+01   0.0000000E+00   3.2234156E-01  -1.2587022E+01   0.0000000E+00   3.9333144E-01  -1.2561644E+01   0.0000000E+00   4.5589432E-01  -1.2502809E+01   0.0000000E+00   5.0439799E-01  -1.4091491E+01   0.0000000E+00   5.0371204E-06  -1.4094245E+01   0.0000000E+00   1.1269917E-01  -1.4101375E+01   0.0000000E+00   2.2412387E-01  -1.4109553E+01   0.0000000E+00   3.3295015E-01  -1.4113228E+01   0.0000000E+00   4.3726233E-01  -1.4104675E+01   0.0000000E+00   5.3539562E-01  -1.4074249E+01   0.0000000E+00   6.1995345E-01  -1.4006878E+01   0.0000000E+00   6.9268733E-01  -1.5722232E+01   0.0000000E+00  -1.8180435E-07  -1.5724674E+01   0.0000000E+00   1.5111862E-01  -1.5731678E+01   0.0000000E+00   2.9698357E-01  -1.5737904E+01   0.0000000E+00   4.4216433E-01  -1.5738001E+01   0.0000000E+00   5.8233523E-01  -1.5723625E+01   0.0000000E+00   7.1548182E-01  -1.5683346E+01   0.0000000E+00   8.3894676E-01  -1.5604367E+01   0.0000000E+00   9.4087833E-01  -1.7470592E+01   0.0000000E+00  -9.7790689E-07  -1.7472322E+01   0.0000000E+00   1.9595338E-01  -1.7476372E+01   0.0000000E+00   3.9015606E-01  -1.7478746E+01   0.0000000E+00   5.8170277E-01  -1.7473045E+01   0.0000000E+00   7.6736367E-01  -1.7448809E+01   0.0000000E+00   9.4282746E-01  -1.7393780E+01   0.0000000E+00   1.1123493E+00  -1.7299896E+01   0.0000000E+00   1.2429813E+00  -1.9337687E+01   0.0000000E+00   1.3073275E-05  -1.9338488E+01   0.0000000E+00   2.5223181E-01  -1.9339378E+01   0.0000000E+00   5.0282776E-01  -1.9336311E+01   0.0000000E+00   7.4797809E-01  -1.9320625E+01   0.0000000E+00   9.8641402E-01  -1.9284082E+01   0.0000000E+00   1.2135139E+00  -1.9214571E+01   0.0000000E+00   1.4128399E+00  -1.9095465E+01   0.0000000E+00   1.6054988E+00  -2.1332867E+01   0.0000000E+00   5.0552153E-06  -2.1332159E+01   0.0000000E+00   3.1444219E-01  -2.1328239E+01   0.0000000E+00   6.2487942E-01  -2.1315578E+01   0.0000000E+00   9.3044913E-01  -2.1289351E+01   0.0000000E+00   1.2194802E+00  -2.1233665E+01   0.0000000E+00   1.4963895E+00  -2.1140715E+01   0.0000000E+00   1.7573414E+00  -2.0994455E+01   0.0000000E+00   2.0087495E+00  -2.3460760E+01   0.0000000E+00   8.0653172E-06  -2.3457273E+01   0.0000000E+00   3.8275325E-01  -2.3446249E+01   0.0000000E+00   7.5684607E-01  -2.3422949E+01   0.0000000E+00   1.1162070E+00  -2.3375641E+01   0.0000000E+00   1.4687418E+00  -2.3296799E+01   0.0000000E+00   1.8084607E+00  -2.3176092E+01   0.0000000E+00   2.1273596E+00  -2.2993502E+01   0.0000000E+00   2.4405606E+00  -2.5732119E+01   0.0000000E+00  -1.4259836E-05  -2.5725212E+01   0.0000000E+00   4.5280862E-01  -2.5702160E+01   0.0000000E+00   8.9801383E-01  -2.5657768E+01   0.0000000E+00   1.3309221E+00  -2.5585804E+01   0.0000000E+00   1.7435784E+00  -2.5473808E+01   0.0000000E+00   2.1390619E+00  -2.5314512E+01   0.0000000E+00   2.5150871E+00  -2.5092968E+01   0.0000000E+00   2.8726945E+00  -2.8133640E+01   0.0000000E+00  -6.7576511E-06  -2.8121506E+01   0.0000000E+00   5.3510046E-01  -2.8084707E+01   0.0000000E+00   1.0608972E+00  -2.8017393E+01   0.0000000E+00   1.5641298E+00  -2.7912575E+01   0.0000000E+00   2.0421870E+00  -2.7762323E+01   0.0000000E+00   2.4907322E+00  -2.7558451E+01   0.0000000E+00   2.8981304E+00  -2.7283104E+01   0.0000000E+00   3.2809854E+00  -3.0682659E+01   0.0000000E+00  -1.5503092E-05  -3.0664581E+01   0.0000000E+00   6.1337292E-01  -3.0608824E+01   0.0000000E+00   1.2137525E+00  -3.0510000E+01   0.0000000E+00   1.7883495E+00  -3.0364929E+01   0.0000000E+00   2.3271680E+00  -3.0162468E+01   0.0000000E+00   2.8178973E+00  -2.9898203E+01   0.0000000E+00   3.2559762E+00  -2.9557512E+01   0.0000000E+00   3.6574814E+00  -3.3380383E+01   0.0000000E+00  -2.2215037E-05  -3.3353706E+01   0.0000000E+00   6.8952322E-01  -3.3273129E+01   0.0000000E+00   1.3599006E+00  -3.3135315E+01   0.0000000E+00   1.9968953E+00  -3.2935791E+01   0.0000000E+00   2.5851483E+00  -3.2668911E+01   0.0000000E+00   3.1188641E+00  -3.2328445E+01   0.0000000E+00   3.5761900E+00  -3.1907082E+01   0.0000000E+00   3.9835091E+00  -3.6224045E+01   0.0000000E+00   3.6112870E-06  -3.6187126E+01   0.0000000E+00   7.5600785E-01  -3.6074852E+01   0.0000000E+00   1.4894025E+00  -3.5887512E+01   0.0000000E+00   2.1779683E+00  -3.5621105E+01   0.0000000E+00   2.8065748E+00  -3.5273140E+01   0.0000000E+00   3.3629451E+00  -3.4844330E+01   0.0000000E+00   3.8409424E+00  -3.4322884E+01   0.0000000E+00   4.2407498E+00  -3.9207676E+01   0.0000000E+00  -1.0148879E-05  -3.9157646E+01   0.0000000E+00   8.0927932E-01  -3.9007210E+01   0.0000000E+00   1.5906768E+00  -3.8758739E+01   0.0000000E+00   2.3165119E+00  -3.8410782E+01   0.0000000E+00   2.9693389E+00  -3.7966042E+01   0.0000000E+00   3.5363069E+00  -3.7429173E+01   0.0000000E+00   4.0134010E+00  -3.6796932E+01   0.0000000E+00   4.4138918E+00  -4.2319588E+01   0.0000000E+00  -2.1492489E-05  -4.2254101E+01   0.0000000E+00   8.4284192E-01  -4.2058105E+01   0.0000000E+00   1.6516509E+00  -4.1735508E+01   0.0000000E+00   2.3972800E+00  -4.1291241E+01   0.0000000E+00   3.0548658E+00  -4.0733418E+01   0.0000000E+00   3.6170728E+00  -4.0071774E+01   0.0000000E+00   4.0786185E+00  -3.9314312E+01   0.0000000E+00   4.4660568E+00  -4.5543579E+01   0.0000000E+00  -1.1108414E-06  -4.5460136E+01   0.0000000E+00   8.4903449E-01  -4.5209763E+01   0.0000000E+00   1.6615136E+00  -4.4800575E+01   0.0000000E+00   2.3993347E+00  -4.4244698E+01   0.0000000E+00   3.0415187E+00  -4.3557194E+01   0.0000000E+00   3.5782769E+00  -4.2755947E+01   0.0000000E+00   4.0107498E+00  -4.1856541E+01   0.0000000E+00   4.3651242E+00  -4.8858425E+01   0.0000000E+00  -1.7999701E-06  -4.8752186E+01   0.0000000E+00   8.2263070E-01  -4.8439598E+01   0.0000000E+00   1.6023631E+00  -4.7933533E+01   0.0000000E+00   2.3000767E+00  -4.7250648E+01   0.0000000E+00   2.9015872E+00  -4.6418983E+01   0.0000000E+00   3.3959632E+00  -4.5464439E+01   0.0000000E+00   3.7871180E+00  -4.4411995E+01   0.0000000E+00   4.0963883E+00  -5.2234440E+01   0.0000000E+00  -2.7688591E-05  -5.2105305E+01   0.0000000E+00   7.4583256E-01  -5.1722385E+01   0.0000000E+00   1.4508924E+00  -5.1106224E+01   0.0000000E+00   2.0801435E+00  -5.0286560E+01   0.0000000E+00   2.6136212E+00  -4.9299728E+01   0.0000000E+00   3.0457873E+00  -4.8181946E+01   0.0000000E+00   3.3798068E+00  -4.6959736E+01   0.0000000E+00   3.6123471E+00  -5.5634895E+01   0.0000000E+00  -1.9743020E-05  -5.5478668E+01   0.0000000E+00   6.1306018E-01  -5.5021210E+01   0.0000000E+00   1.1932524E+00  -5.4289677E+01   0.0000000E+00   1.7053063E+00  -5.3325550E+01   0.0000000E+00   2.1383083E+00  -5.2174877E+01   0.0000000E+00   2.4874270E+00  -5.0886356E+01   0.0000000E+00   2.7590914E+00  -4.9493858E+01   0.0000000E+00   2.9291430E+00  -5.8997311E+01   0.0000000E+00  -2.3252331E-05  -5.8812462E+01   0.0000000E+00   4.1088995E-01  -5.8275227E+01   0.0000000E+00   7.9196680E-01  -5.7423046E+01   0.0000000E+00   1.1376820E+00  -5.6307747E+01   0.0000000E+00   1.4360858E+00  -5.4990273E+01   0.0000000E+00   1.6793435E+00  -5.3524406E+01   0.0000000E+00   1.8843681E+00  -5.1953342E+01   0.0000000E+00   2.0101197E+00  -6.2204735E+01   0.0000000E+00  -7.4527343E-06  -6.1995190E+01   0.0000000E+00   1.3779932E-01  -6.1379761E+01   0.0000000E+00   2.5525215E-01  -6.0388504E+01   0.0000000E+00   4.0660429E-01  -5.9134850E+01   0.0000000E+00   5.0065899E-01  -5.7654835E+01   0.0000000E+00   6.1477762E-01  -5.6011150E+01   0.0000000E+00   7.4005669E-01  -5.4247101E+01   0.0000000E+00   8.1867820E-01  -6.4996422E+01   0.0000000E+00  -3.0505034E-06  -6.4766731E+01   0.0000000E+00  -2.8063604E-01  -6.4112495E+01   0.0000000E+00  -5.0830144E-01  -6.3035812E+01   0.0000000E+00  -6.7883188E-01  -6.1618950E+01   0.0000000E+00  -7.3898268E-01  -6.0004658E+01   0.0000000E+00  -8.2901555E-01  -5.8181870E+01   0.0000000E+00  -7.7551830E-01  -5.6239849E+01   0.0000000E+00  -7.1425343E-01  -6.7056381E+01   0.0000000E+00  -9.1557376E-07  -6.6863052E+01   0.0000000E+00  -8.9233392E-01  -6.6157028E+01   0.0000000E+00  -1.6345434E+00  -6.5055534E+01   0.0000000E+00  -2.1653695E+00  -6.3580681E+01   0.0000000E+00  -2.5028496E+00  -6.1863415E+01   0.0000000E+00  -2.6806922E+00  -5.9917542E+01   0.0000000E+00  -2.7019408E+00  -5.7821701E+01   0.0000000E+00  -2.6614306E+00  -6.8609375E+01   0.0000000E+00  -2.6093039E-07  -6.8258743E+01   0.0000000E+00  -1.2819674E+00  -6.7537819E+01   0.0000000E+00  -2.6099865E+00  -6.6383957E+01   0.0000000E+00  -3.7196975E+00  -6.4925293E+01   0.0000000E+00  -4.4132552E+00  -6.3124969E+01   0.0000000E+00  -4.8035216E+00  -6.1099022E+01   0.0000000E+00  -4.9679723E+00  -5.8922104E+01   0.0000000E+00  -5.0142961E+00  -6.8940956E+01   0.0000000E+00   5.6991703E-06  -6.8836655E+01   0.0000000E+00  -2.1493380E+00  -6.8209877E+01   0.0000000E+00  -4.1177950E+00  -6.7118515E+01   0.0000000E+00  -5.7357402E+00  -6.5679855E+01   0.0000000E+00  -6.7541494E+00  -6.3878689E+01   0.0000000E+00  -7.4041624E+00  -6.1810921E+01   0.0000000E+00  -7.7275743E+00  -5.9580338E+01   0.0000000E+00  -7.8103781E+00  -6.9436745E+01   0.0000000E+00   6.4690321E-06  -6.9254524E+01   0.0000000E+00  -3.5559189E+00  -6.8678162E+01   0.0000000E+00  -6.5581388E+00  -6.7697189E+01   0.0000000E+00  -8.8367538E+00  -6.6278732E+01   0.0000000E+00  -1.0212852E+01  -6.4429558E+01   0.0000000E+00  -1.0976774E+01  -6.2288433E+01   0.0000000E+00  -1.1305022E+01  -5.9896580E+01   0.0000000E+00  -1.1159462E+01  -6.9798424E+01   0.0000000E+00   2.0023435E-06  -6.9662674E+01   0.0000000E+00  -4.2511630E+00  -6.8962975E+01   0.0000000E+00  -7.9761329E+00  -6.7761703E+01   0.0000000E+00  -1.0896846E+01  -6.6194565E+01   0.0000000E+00  -1.2858421E+01  -6.4320473E+01   0.0000000E+00  -1.3937635E+01  -6.2133327E+01   0.0000000E+00  -1.4334811E+01  -5.9496674E+01   0.0000000E+00  -1.3967064E+01  -7.0440620E+01   0.0000000E+00  -4.2440370E-06  -7.0059441E+01   0.0000000E+00  -3.5952671E+00  -6.8936333E+01   0.0000000E+00  -6.7845125E+00  -6.7033546E+01   0.0000000E+00  -9.3474779E+00  -6.4490501E+01   0.0000000E+00  -1.1128939E+01  -6.1449360E+01   0.0000000E+00  -1.2126700E+01  -5.7891247E+01   0.0000000E+00  -1.2430243E+01  -5.3985256E+01   0.0000000E+00  -1.1979566E+01  -4.9486118E+01   0.0000000E+00   2.3116881E-06  -4.9128059E+01   0.0000000E+00  -4.3033543E+00  -4.8074871E+01   0.0000000E+00  -8.1765432E+00  -4.6383553E+01   0.0000000E+00  -1.1323011E+01  -4.4136730E+01   0.0000000E+00  -1.3630132E+01  -4.1433064E+01   0.0000000E+00  -1.5099890E+01  -3.8386314E+01   0.0000000E+00  -1.5731302E+01  -3.5137230E+01   0.0000000E+00  -1.5470435E+01  -3.3089897E+01   0.0000000E+00  -7.1200775E-06  -3.2787121E+01   0.0000000E+00  -5.0342441E+00  -3.1900297E+01   0.0000000E+00  -9.5989399E+00  -3.0489082E+01   0.0000000E+00  -1.3373806E+01  -2.8642670E+01   0.0000000E+00  -1.6243601E+01  -2.6469437E+01   0.0000000E+00  -1.8223969E+01  -2.4089602E+01   0.0000000E+00  -1.9330284E+01  -2.1638025E+01   0.0000000E+00  -1.9495808E+01  -2.0192404E+01   0.0000000E+00  -2.9831892E-05  -1.9977419E+01   0.0000000E+00  -5.6401129E+00  -1.9352396E+01   0.0000000E+00  -1.0765803E+01  -1.8372837E+01   0.0000000E+00  -1.5024712E+01  -1.7122370E+01   0.0000000E+00  -1.8288879E+01  -1.5703175E+01   0.0000000E+00  -2.0580763E+01  -1.4225083E+01   0.0000000E+00  -2.1936234E+01  -1.2799042E+01   0.0000000E+00  -2.2299429E+01  -8.2840137E+00   0.0000000E+00  -3.0906958E-05  -8.1764154E+00   0.0000000E+00  -6.0414915E+00  -7.8683038E+00   0.0000000E+00  -1.1523088E+01  -7.4012313E+00   0.0000000E+00  -1.6056635E+01  -6.8378425E+00   0.0000000E+00  -1.9495651E+01  -6.2529030E+00   0.0000000E+00  -2.1863609E+01  -5.7242665E+00   0.0000000E+00  -2.3217422E+01  -5.3197641E+00   0.0000000E+00  -2.3532326E+01   4.1568632E+00   0.0000000E+00  -3.1309639E-05   4.1535778E+00   0.0000000E+00  -6.1915250E+00   4.1372151E+00   0.0000000E+00  -1.1785216E+01   4.0895309E+00   0.0000000E+00  -1.6362211E+01   3.9838414E+00   0.0000000E+00  -1.9757948E+01   3.7909675E+00   0.0000000E+00  -2.1993877E+01   3.4855461E+00   0.0000000E+00  -2.3145966E+01   3.0585029E+00   0.0000000E+00  -2.3231937E+01   1.7230455E+01   0.0000000E+00   4.6649773E-05   1.7126509E+01   0.0000000E+00  -6.0848484E+00   1.6818466E+01   0.0000000E+00  -1.1550568E+01   1.6316540E+01   0.0000000E+00  -1.5960580E+01   1.5639406E+01   0.0000000E+00  -1.9139170E+01   1.4814741E+01   0.0000000E+00  -2.1106112E+01   1.3881483E+01   0.0000000E+00  -2.1951759E+01   1.2896654E+01   0.0000000E+00  -2.1734890E+01   3.0213440E+01   0.0000000E+00   1.7791433E-05   3.0027763E+01   0.0000000E+00  -5.7523193E+00   2.9484358E+01   0.0000000E+00  -1.0887209E+01   2.8623495E+01   0.0000000E+00  -1.4969254E+01   2.7509724E+01   0.0000000E+00  -1.7822584E+01   2.6228611E+01   0.0000000E+00  -1.9467148E+01   2.4883623E+01   0.0000000E+00  -2.0000793E+01   2.3595037E+01   0.0000000E+00  -1.9509727E+01   4.2456474E+01   0.0000000E+00   1.7260580E-05   4.2210911E+01   0.0000000E+00  -5.2511573E+00   4.1496689E+01   0.0000000E+00  -9.9120760E+00   4.0380970E+01   0.0000000E+00  -1.3568563E+01   3.8967781E+01   0.0000000E+00  -1.6056118E+01   3.7391930E+01   0.0000000E+00  -1.7396217E+01   3.5810047E+01   0.0000000E+00  -1.7684305E+01   3.4392258E+01   0.0000000E+00  -1.7012852E+01   5.3762249E+01   0.0000000E+00   3.3953067E-05   5.3478569E+01   0.0000000E+00  -4.6496682E+00   5.2657532E+01   0.0000000E+00  -8.7598553E+00   5.1386242E+01   0.0000000E+00  -1.1955655E+01   4.9798672E+01   0.0000000E+00  -1.4092358E+01   4.8062031E+01   0.0000000E+00  -1.5191231E+01   4.6366497E+01   0.0000000E+00  -1.5333039E+01   4.4910080E+01   0.0000000E+00  -1.4593347E+01   6.3939426E+01   0.0000000E+00   1.2387172E-06   6.3656456E+01   0.0000000E+00  -4.0111227E+00   6.2842136E+01   0.0000000E+00  -7.5521207E+00   6.1574955E+01   0.0000000E+00  -1.0303263E+01   5.9974007E+01   0.0000000E+00  -1.2141514E+01   5.8212276E+01   0.0000000E+00  -1.3081103E+01   5.6505795E+01   0.0000000E+00  -1.3174959E+01   5.5054031E+01   0.0000000E+00  -1.2461370E+01   6.9087791E+01   0.0000000E+00   6.8684603E-06   6.8946594E+01   0.0000000E+00  -3.3659995E+00   6.8525940E+01   0.0000000E+00  -6.3333087E+00   6.7773895E+01   0.0000000E+00  -8.6434126E+00   6.6799660E+01   0.0000000E+00  -1.0202698E+01   6.5764992E+01   0.0000000E+00  -1.1030554E+01   6.4649673E+01   0.0000000E+00  -1.1156675E+01   6.3703487E+01   0.0000000E+00  -1.0555740E+01   7.0549515E+01   0.0000000E+00  -2.8913200E-06   7.0446053E+01   0.0000000E+00  -2.7393777E+00   7.0157066E+01   0.0000000E+00  -5.1495771E+00   6.9711594E+01   0.0000000E+00  -7.0109782E+00   6.9148605E+01   0.0000000E+00  -8.2675619E+00   6.8627235E+01   0.0000000E+00  -8.9453783E+00   6.8135811E+01   0.0000000E+00  -9.0442104E+00   6.7794930E+01   0.0000000E+00  -8.4973526E+00   7.1171196E+01   0.0000000E+00  -2.3275352E-06   7.1088455E+01   0.0000000E+00  -2.1570535E+00   7.0829453E+01   0.0000000E+00  -4.0351300E+00   7.0529373E+01   0.0000000E+00  -5.4627180E+00   7.0177322E+01   0.0000000E+00  -6.3738074E+00   6.9737595E+01   0.0000000E+00  -6.8823905E+00   6.9418434E+01   0.0000000E+00  -6.9251957E+00   6.9281013E+01   0.0000000E+00  -6.3422351E+00   7.1467773E+01   0.0000000E+00  -2.4834153E-06   7.1400322E+01   0.0000000E+00  -1.5882720E+00   7.1224686E+01   0.0000000E+00  -3.0010629E+00   7.0969078E+01   0.0000000E+00  -4.1161776E+00   7.0685127E+01   0.0000000E+00  -4.8650556E+00   7.0397423E+01   0.0000000E+00  -5.1768351E+00   7.0200211E+01   0.0000000E+00  -5.0862355E+00   7.0102478E+01   0.0000000E+00  -4.4871435E+00   7.1601685E+01   0.0000000E+00  -6.5111053E-06   7.1554321E+01   0.0000000E+00  -1.1949821E+00   7.1403427E+01   0.0000000E+00  -2.2570300E+00   7.1158371E+01   0.0000000E+00  -3.0951777E+00   7.0866249E+01   0.0000000E+00  -3.6561756E+00   7.0557640E+01   0.0000000E+00  -3.9388187E+00   7.0434303E+01   0.0000000E+00  -3.6973817E+00   7.0362778E+01   0.0000000E+00  -2.9288948E+00   7.1536057E+01   0.0000000E+00  -4.6647074E-06   7.1468742E+01   0.0000000E+00  -9.2980319E-01   7.1323387E+01   0.0000000E+00  -1.7272210E+00   7.1105904E+01   0.0000000E+00  -2.3152287E+00   7.0829643E+01   0.0000000E+00  -2.5344021E+00   7.0612160E+01   0.0000000E+00  -2.5166240E+00   7.0508156E+01   0.0000000E+00  -2.2345979E+00   7.0548409E+01   0.0000000E+00  -1.4419941E+00   7.1186035E+01   0.0000000E+00  -3.1968775E-06   7.1161484E+01   0.0000000E+00  -6.7502791E-01   7.0953751E+01   0.0000000E+00  -1.0792234E+00   7.0820213E+01   0.0000000E+00  -1.3323367E+00   7.0665077E+01   0.0000000E+00  -1.4847707E+00   7.0561478E+01   0.0000000E+00  -1.4335349E+00   7.0462410E+01   0.0000000E+00  -1.1020050E+00   7.0485329E+01   0.0000000E+00  -3.8195565E-01   7.0521629E+01   0.0000000E+00   2.3432322E-06   7.0438171E+01   0.0000000E+00  -2.9640970E-01   7.0389084E+01   0.0000000E+00  -6.1001927E-01   7.0304764E+01   0.0000000E+00  -8.1001365E-01   7.0220207E+01   0.0000000E+00  -8.0787122E-01   7.0153313E+01   0.0000000E+00  -5.9248990E-01   7.0138062E+01   0.0000000E+00  -1.4085521E-01   7.0274696E+01   0.0000000E+00   6.1976105E-01   6.9594009E+01   0.0000000E+00   7.1199493E-06   6.9540581E+01   0.0000000E+00  -2.2565293E-01   6.9471931E+01   0.0000000E+00  -3.5192186E-01   6.9437614E+01   0.0000000E+00  -3.2651082E-01   6.9446922E+01   0.0000000E+00  -1.2657042E-01   6.9476776E+01   0.0000000E+00   2.2252677E-01   6.9587753E+01   0.0000000E+00   7.7749234E-01   6.9876701E+01   0.0000000E+00   1.4098125E+00   6.8370354E+01   0.0000000E+00   8.6916152E-06   6.8407600E+01   0.0000000E+00   5.2640550E-02   6.8295517E+01   0.0000000E+00  -6.8322003E-02   6.8357933E+01   0.0000000E+00   1.6624069E-01   6.8448341E+01   0.0000000E+00   4.5795327E-01   6.8653732E+01   0.0000000E+00   9.5642710E-01   6.8889946E+01   0.0000000E+00   1.4063122E+00   6.9578217E+01   0.0000000E+00   2.0165541E+00   6.6991493E+01   0.0000000E+00  -3.3782089E-06   6.7031555E+01   0.0000000E+00   2.4490398E-01   6.7072510E+01   0.0000000E+00   3.5376623E-01   6.7105438E+01   0.0000000E+00   5.1087248E-01   6.7398140E+01   0.0000000E+00   9.8471022E-01   6.7685379E+01   0.0000000E+00   1.3710235E+00   6.8413498E+01   0.0000000E+00   1.9199523E+00   6.9410591E+01   0.0000000E+00   2.2070856E+00   6.5589973E+01   0.0000000E+00  -6.3042535E-06   6.5650536E+01   0.0000000E+00   3.8781437E-01   6.5754547E+01   0.0000000E+00   6.0052562E-01   6.5902863E+01   0.0000000E+00   8.5175318E-01   6.6309677E+01   0.0000000E+00   1.1853750E+00   6.7137741E+01   0.0000000E+00   1.7181482E+00   6.8088943E+01   0.0000000E+00   1.9636678E+00   7.0224220E+01   0.0000000E+00   2.1842120E+00   6.4391586E+01   0.0000000E+00  -7.7746954E-06   6.4471008E+01   0.0000000E+00   4.4744864E-01   6.4653748E+01   0.0000000E+00   7.8827137E-01   6.4953125E+01   0.0000000E+00   9.1381484E-01   6.5749947E+01   0.0000000E+00   1.3217658E+00   6.6953514E+01   0.0000000E+00   1.5744984E+00   6.9075592E+01   0.0000000E+00   1.8388501E+00   7.2250572E+01   0.0000000E+00   2.0210583E+00   6.3808685E+01   0.0000000E+00  -1.3412588E-05   6.3878468E+01   0.0000000E+00   4.1892108E-01   6.4302551E+01   0.0000000E+00   7.2670162E-01   6.4836494E+01   0.0000000E+00   8.8290668E-01   6.6032166E+01   0.0000000E+00   1.0727175E+00   6.8476334E+01   0.0000000E+00   1.3678367E+00   7.1578957E+01   0.0000000E+00   1.3872569E+00   7.6350021E+01   0.0000000E+00   1.5214814E+00   6.4341072E+01   0.0000000E+00  -1.1971562E-05   6.4495667E+01   0.0000000E+00   3.2715851E-01   6.4995522E+01   0.0000000E+00   4.2500606E-01   6.6133751E+01   0.0000000E+00   5.0903177E-01   6.8378853E+01   0.0000000E+00   6.7695320E-01   7.1560722E+01   0.0000000E+00   7.1710533E-01   7.6193130E+01   0.0000000E+00   4.9046713E-01   8.2856445E+01   0.0000000E+00   5.3985631E-01   6.6644257E+01   0.0000000E+00  -9.3187555E-06   6.7031128E+01   0.0000000E+00  -1.4019583E-01   6.7928238E+01   0.0000000E+00  -7.7511951E-02   6.9927795E+01   0.0000000E+00  -6.4163387E-02   7.2612968E+01   0.0000000E+00  -3.9278877E-01   7.7168495E+01   0.0000000E+00  -6.0258293E-01   8.3460350E+01   0.0000000E+00  -6.2259960E-01   9.2424728E+01   0.0000000E+00   9.0582579E-02   7.1972427E+01   0.0000000E+00  -9.8467572E-06   7.2041542E+01   0.0000000E+00  -8.6705118E-01   7.3046082E+01   0.0000000E+00  -1.4094570E+00   7.5304741E+01   0.0000000E+00  -1.8228639E+00   7.9349083E+01   0.0000000E+00  -1.9602375E+00   8.5655624E+01   0.0000000E+00  -1.4419854E+00   9.3946121E+01   0.0000000E+00  -8.0425096E-01   1.0459091E+02   0.0000000E+00   5.7552505E-01   8.0326881E+01   0.0000000E+00  -7.2928960E-06   8.0417450E+01   0.0000000E+00  -1.5870878E+00   8.1855957E+01   0.0000000E+00  -2.3226910E+00   8.4830101E+01   0.0000000E+00  -2.5951939E+00   8.9730209E+01   0.0000000E+00  -2.4798651E+00   9.7040649E+01   0.0000000E+00  -1.6088020E+00   1.0581967E+02   0.0000000E+00  -5.8040148E-01   9.1465004E+01   0.0000000E+00  -1.3371828E-05   9.1834229E+01   0.0000000E+00  -9.9759847E-01   9.2808960E+01   0.0000000E+00  -2.7460477E+00   9.5426773E+01   0.0000000E+00  -3.3814232E+00   1.0022282E+02   0.0000000E+00  -2.8124838E+00  -2.4070091E+00   0.0000000E+00   2.4190861E-01  -2.3349991E+00   0.0000000E+00   2.9679710E-01  -2.2333937E+00   0.0000000E+00   3.5459101E-01  -2.0989561E+00   0.0000000E+00   4.1734064E-01  -1.9289932E+00   0.0000000E+00   4.8246706E-01  -1.7220774E+00   0.0000000E+00   5.4231787E-01  -1.4732637E+00   0.0000000E+00   5.8551598E-01  -3.0059319E+00   0.0000000E+00   2.9471630E-01  -2.9217176E+00   0.0000000E+00   3.5559738E-01  -2.8005066E+00   0.0000000E+00   4.2168707E-01  -2.6415634E+00   0.0000000E+00   4.8836911E-01  -2.4409399E+00   0.0000000E+00   5.5349660E-01  -2.1882048E+00   0.0000000E+00   6.0922837E-01  -1.8579955E+00   0.0000000E+00   6.4739633E-01  -1.4119778E+00   0.0000000E+00   7.5519943E-01  -3.7072029E+00   0.0000000E+00   3.1501535E-01  -3.6087790E+00   0.0000000E+00   3.7290785E-01  -3.4675760E+00   0.0000000E+00   4.3239179E-01  -3.2825918E+00   0.0000000E+00   4.9382371E-01  -3.0542784E+00   0.0000000E+00   5.4936945E-01  -2.7648206E+00   0.0000000E+00   6.0591602E-01  -2.3835473E+00   0.0000000E+00   6.6122818E-01  -1.8473368E+00   0.0000000E+00   7.6568794E-01  -4.4694471E+00   0.0000000E+00   3.1741312E-01  -4.3567591E+00   0.0000000E+00   3.6880633E-01  -4.1947966E+00   0.0000000E+00   4.2175353E-01  -3.9860063E+00   0.0000000E+00   4.7447759E-01  -3.7342916E+00   0.0000000E+00   5.2144229E-01  -3.4229398E+00   0.0000000E+00   5.7145143E-01  -3.0047569E+00   0.0000000E+00   6.2532854E-01  -2.3748255E+00   0.0000000E+00   7.4771309E-01  -5.3109646E+00   0.0000000E+00   3.0859387E-01  -5.1842871E+00   0.0000000E+00   3.5442096E-01  -5.0030227E+00   0.0000000E+00   3.9893192E-01  -4.7718916E+00   0.0000000E+00   4.4232237E-01  -4.5025930E+00   0.0000000E+00   4.7805858E-01  -4.1721950E+00   0.0000000E+00   5.2070904E-01  -3.7185798E+00   0.0000000E+00   5.7388973E-01  -2.9888391E+00   0.0000000E+00   7.2897577E-01  -6.2498326E+00   0.0000000E+00   2.9610625E-01  -6.1108441E+00   0.0000000E+00   3.3509544E-01  -5.9122410E+00   0.0000000E+00   3.6971214E-01  -5.6629667E+00   0.0000000E+00   4.0051794E-01  -5.3778291E+00   0.0000000E+00   4.2341757E-01  -5.0328755E+00   0.0000000E+00   4.5809174E-01  -4.5459304E+00   0.0000000E+00   5.1584911E-01  -3.7063475E+00   0.0000000E+00   7.2302437E-01  -7.2909036E+00   0.0000000E+00   2.8667799E-01  -7.1417418E+00   0.0000000E+00   3.1692433E-01  -6.9291964E+00   0.0000000E+00   3.3884871E-01  -6.6650772E+00   0.0000000E+00   3.5426962E-01  -6.3678226E+00   0.0000000E+00   3.6509800E-01  -6.0178471E+00   0.0000000E+00   3.9293575E-01  -5.5054336E+00   0.0000000E+00   4.6760845E-01  -4.5471525E+00   0.0000000E+00   7.5635529E-01  -8.4301424E+00   0.0000000E+00   2.9043365E-01  -8.2727709E+00   0.0000000E+00   3.1008077E-01  -8.0489874E+00   0.0000000E+00   3.1786281E-01  -7.7743893E+00   0.0000000E+00   3.1817687E-01  -7.4754753E+00   0.0000000E+00   3.1732702E-01  -7.1276264E+00   0.0000000E+00   3.4832478E-01  -6.6082735E+00   0.0000000E+00   4.5366573E-01  -5.5369978E+00   0.0000000E+00   8.5631657E-01  -9.6627913E+00   0.0000000E+00   3.2134524E-01  -9.4987993E+00   0.0000000E+00   3.3107275E-01  -9.2668457E+00   0.0000000E+00   3.2600662E-01  -8.9864140E+00   0.0000000E+00   3.1585133E-01  -8.6916008E+00   0.0000000E+00   3.0317020E-01  -8.3551559E+00   0.0000000E+00   3.4832764E-01  -7.8657026E+00   0.0000000E+00   4.7877979E-01  -6.7425575E+00   0.0000000E+00   9.7418213E-01  -1.0985146E+01   0.0000000E+00   3.9653257E-01  -1.0814599E+01   0.0000000E+00   4.0236682E-01  -1.0578058E+01   0.0000000E+00   3.8706744E-01  -1.0298074E+01   0.0000000E+00   3.6401236E-01  -1.0015863E+01   0.0000000E+00   3.3856630E-01  -9.7166185E+00   0.0000000E+00   3.8344955E-01  -9.3083506E+00   0.0000000E+00   5.0518322E-01  -8.3180809E+00   0.0000000E+00   9.2143059E-01  -1.2393782E+01   0.0000000E+00   5.3216976E-01  -1.2217252E+01   0.0000000E+00   5.3896844E-01  -1.1975992E+01   0.0000000E+00   5.1932442E-01  -1.1708472E+01   0.0000000E+00   4.7681034E-01  -1.1458046E+01   0.0000000E+00   4.3559742E-01  -1.1247741E+01   0.0000000E+00   4.3181515E-01  -1.1006843E+01   0.0000000E+00   5.0721169E-01  -1.0387777E+01   0.0000000E+00   6.8089867E-01  -1.3887811E+01   0.0000000E+00   7.3907387E-01  -1.3703849E+01   0.0000000E+00   7.4927884E-01  -1.3457785E+01   0.0000000E+00   7.2989333E-01  -1.3218534E+01   0.0000000E+00   6.7090142E-01  -1.3017323E+01   0.0000000E+00   6.3491249E-01  -1.2946523E+01   0.0000000E+00   6.0880947E-01  -1.2952107E+01   0.0000000E+00   7.1938515E-01  -1.2615604E+01   0.0000000E+00   1.0158367E+00  -1.5470584E+01   0.0000000E+00   1.0116923E+00  -1.5273416E+01   0.0000000E+00   1.0446440E+00  -1.5025107E+01   0.0000000E+00   1.0680658E+00  -1.4821503E+01   0.0000000E+00   1.0231556E+00  -1.4722855E+01   0.0000000E+00   1.0523422E+00  -1.4834849E+01   0.0000000E+00   1.2277889E+00  -1.5079025E+01   0.0000000E+00   1.8961897E+00  -1.5019096E+01   0.0000000E+00   2.9872379E+00  -1.7144583E+01   0.0000000E+00   1.3647481E+00  -1.6929810E+01   0.0000000E+00   1.4464126E+00  -1.6686138E+01   0.0000000E+00   1.5031213E+00  -1.6522301E+01   0.0000000E+00   1.5704613E+00  -1.6569172E+01   0.0000000E+00   1.7496550E+00  -1.6924377E+01   0.0000000E+00   2.2566905E+00  -1.7563993E+01   0.0000000E+00   3.2740507E+00  -1.8046209E+01   0.0000000E+00   4.5824099E+00  -1.8915546E+01   0.0000000E+00   1.7784326E+00  -1.8678556E+01   0.0000000E+00   1.9281474E+00  -1.8430851E+01   0.0000000E+00   2.0678658E+00  -1.8314241E+01   0.0000000E+00   2.2488756E+00  -1.8520002E+01   0.0000000E+00   2.5891852E+00  -1.9219208E+01   0.0000000E+00   3.2364938E+00  -2.0379660E+01   0.0000000E+00   4.2802310E+00  -2.1547707E+01   0.0000000E+00   5.6053920E+00  -2.0783943E+01   0.0000000E+00   2.2445390E+00  -2.0514734E+01   0.0000000E+00   2.4633148E+00  -2.0260387E+01   0.0000000E+00   2.6713543E+00  -2.0180225E+01   0.0000000E+00   2.9467056E+00  -2.0528992E+01   0.0000000E+00   3.3725455E+00  -2.1543871E+01   0.0000000E+00   4.0675573E+00  -2.3232410E+01   0.0000000E+00   5.0908847E+00  -2.5197121E+01   0.0000000E+00   6.4051690E+00  -2.2746351E+01   0.0000000E+00   2.7339606E+00  -2.2442589E+01   0.0000000E+00   3.0107353E+00  -2.2159920E+01   0.0000000E+00   3.2565312E+00  -2.2099144E+01   0.0000000E+00   3.5907431E+00  -2.2563993E+01   0.0000000E+00   4.0532918E+00  -2.3858765E+01   0.0000000E+00   4.7787633E+00  -2.6036730E+01   0.0000000E+00   5.7963901E+00  -2.8723961E+01   0.0000000E+00   7.1555161E+00  -2.4798542E+01   0.0000000E+00   3.2072275E+00  -2.4444010E+01   0.0000000E+00   3.5098748E+00  -2.4125301E+01   0.0000000E+00   3.7912450E+00  -2.4070839E+01   0.0000000E+00   4.1525927E+00  -2.4631536E+01   0.0000000E+00   4.6388545E+00  -2.6174023E+01   0.0000000E+00   5.3878951E+00  -2.8788311E+01   0.0000000E+00   6.4376655E+00  -3.2072407E+01   0.0000000E+00   7.8705678E+00  -2.6931309E+01   0.0000000E+00   3.6384630E+00  -2.6515074E+01   0.0000000E+00   3.9635527E+00  -2.6146053E+01   0.0000000E+00   4.2668219E+00  -2.6094919E+01   0.0000000E+00   4.6342373E+00  -2.6745300E+01   0.0000000E+00   5.1358309E+00  -2.8529150E+01   0.0000000E+00   5.9208655E+00  -3.1549862E+01   0.0000000E+00   7.0335917E+00  -3.5349373E+01   0.0000000E+00   8.5766973E+00  -2.9133926E+01   0.0000000E+00   4.0186257E+00  -2.8645729E+01   0.0000000E+00   4.3570967E+00  -2.8214918E+01   0.0000000E+00   4.6760330E+00  -2.8164700E+01   0.0000000E+00   5.0357857E+00  -2.8905025E+01   0.0000000E+00   5.5569634E+00  -3.0947912E+01   0.0000000E+00   6.3847270E+00  -3.4387383E+01   0.0000000E+00   7.5925193E+00  -3.8715332E+01   0.0000000E+00   9.2468281E+00  -3.1399502E+01   0.0000000E+00   4.3445077E+00  -3.0825668E+01   0.0000000E+00   4.6669497E+00  -3.0332102E+01   0.0000000E+00   4.9896803E+00  -3.0270618E+01   0.0000000E+00   5.3566351E+00  -3.1119514E+01   0.0000000E+00   5.8783531E+00  -3.3426876E+01   0.0000000E+00   6.7711468E+00  -3.7311962E+01   0.0000000E+00   8.0872231E+00  -4.2214378E+01   0.0000000E+00   9.8558884E+00  -3.3716564E+01   0.0000000E+00   4.5934772E+00  -3.3046783E+01   0.0000000E+00   4.9039612E+00  -3.2476051E+01   0.0000000E+00   5.2088985E+00  -3.2401672E+01   0.0000000E+00   5.5893292E+00  -3.3357231E+01   0.0000000E+00   6.1336522E+00  -3.5952599E+01   0.0000000E+00   7.0695400E+00  -4.0311436E+01   0.0000000E+00   8.4988260E+00  -4.5839111E+01   0.0000000E+00   1.0371401E+01  -3.6074951E+01   0.0000000E+00   4.7422419E+00  -3.5295731E+01   0.0000000E+00   5.0380917E+00  -3.4637180E+01   0.0000000E+00   5.3249278E+00  -3.4545929E+01   0.0000000E+00   5.7193007E+00  -3.5609642E+01   0.0000000E+00   6.2856874E+00  -3.8504868E+01   0.0000000E+00   7.2748256E+00  -4.3372677E+01   0.0000000E+00   8.8038740E+00  -4.9556911E+01   0.0000000E+00   1.0805910E+01  -3.8461674E+01   0.0000000E+00   4.7639346E+00  -3.7561535E+01   0.0000000E+00   5.0410523E+00  -3.6806194E+01   0.0000000E+00   5.3154716E+00  -3.6688992E+01   0.0000000E+00   5.7138352E+00  -3.7864830E+01   0.0000000E+00   6.3038187E+00  -4.1075516E+01   0.0000000E+00   7.3498969E+00  -4.6485382E+01   0.0000000E+00   8.9784098E+00  -5.3366886E+01   0.0000000E+00   1.1124748E+01  -4.0865032E+01   0.0000000E+00   4.6320009E+00  -3.9833275E+01   0.0000000E+00   4.8801093E+00  -3.8971977E+01   0.0000000E+00   5.1352372E+00  -3.8823723E+01   0.0000000E+00   5.5371275E+00  -4.0116791E+01   0.0000000E+00   6.1448140E+00  -4.3659531E+01   0.0000000E+00   7.2537355E+00  -4.9649902E+01   0.0000000E+00   8.9861670E+00  -5.7282997E+01   0.0000000E+00   1.1304631E+01  -4.3272072E+01   0.0000000E+00   4.3164444E+00  -4.2101112E+01   0.0000000E+00   4.5252247E+00  -4.1135590E+01   0.0000000E+00   4.7734814E+00  -4.0946232E+01   0.0000000E+00   5.1444287E+00  -4.2370621E+01   0.0000000E+00   5.7515421E+00  -4.6263573E+01   0.0000000E+00   6.9368901E+00  -5.2887665E+01   0.0000000E+00   8.7892942E+00  -6.1356991E+01   0.0000000E+00   1.1324204E+01  -4.5670403E+01   0.0000000E+00   3.7972579E+00  -4.4355339E+01   0.0000000E+00   3.9527075E+00  -4.3274551E+01   0.0000000E+00   4.1595788E+00  -4.3049366E+01   0.0000000E+00   4.4939332E+00  -4.4615536E+01   0.0000000E+00   5.0805130E+00  -4.8903347E+01   0.0000000E+00   6.3424549E+00  -5.6237549E+01   0.0000000E+00   8.3505220E+00  -6.5686790E+01   0.0000000E+00   1.1173020E+01  -4.8038094E+01   0.0000000E+00   3.0695410E+00  -4.6573944E+01   0.0000000E+00   3.1527328E+00  -4.5378994E+01   0.0000000E+00   3.2836432E+00  -4.5135468E+01   0.0000000E+00   3.5246103E+00  -4.6853054E+01   0.0000000E+00   4.0903487E+00  -5.1585045E+01   0.0000000E+00   5.4205470E+00  -5.9728523E+01   0.0000000E+00   7.6370306E+00  -7.0371262E+01   0.0000000E+00   1.0841103E+01  -5.0337635E+01   0.0000000E+00   2.0856295E+00  -4.8696159E+01   0.0000000E+00   2.1324797E+00  -4.7391205E+01   0.0000000E+00   2.1512847E+00  -4.7140388E+01   0.0000000E+00   2.2585571E+00  -4.9026474E+01   0.0000000E+00   2.8007541E+00  -5.4253456E+01   0.0000000E+00   4.2026443E+00  -6.3322113E+01   0.0000000E+00   6.6361399E+00  -7.5417465E+01   0.0000000E+00   1.0319358E+01  -5.2418957E+01   0.0000000E+00   8.4986436E-01  -5.0603638E+01   0.0000000E+00   8.3335757E-01  -4.9167835E+01   0.0000000E+00   8.0589628E-01  -4.8867580E+01   0.0000000E+00   8.3828634E-01  -5.1014713E+01   0.0000000E+00   1.1792533E+00  -5.6784451E+01   0.0000000E+00   2.6129115E+00  -6.6863304E+01   0.0000000E+00   5.3709288E+00  -8.0572952E+01   0.0000000E+00   9.6177874E+00  -5.4202705E+01   0.0000000E+00  -6.9651216E-01  -5.2184353E+01   0.0000000E+00  -7.4634975E-01  -5.0577000E+01   0.0000000E+00  -8.3579010E-01  -5.0263023E+01   0.0000000E+00  -9.4744259E-01  -5.2590977E+01   0.0000000E+00  -5.9276038E-01  -5.8982269E+01   0.0000000E+00   6.7430699E-01  -7.0068489E+01   0.0000000E+00   3.9389689E+00  -8.5519089E+01   0.0000000E+00   8.9523029E+00  -5.5627026E+01   0.0000000E+00  -2.6489997E+00  -5.3399487E+01   0.0000000E+00  -2.7150304E+00  -5.1668446E+01   0.0000000E+00  -2.9072044E+00  -5.1319508E+01   0.0000000E+00  -3.0540860E+00  -5.3819527E+01   0.0000000E+00  -2.6345766E+00  -6.0708809E+01   0.0000000E+00  -1.1085767E+00  -7.2804665E+01   0.0000000E+00   2.2437210E+00  -8.9494728E+01   0.0000000E+00   8.3066301E+00  -5.6595863E+01   0.0000000E+00  -4.9998441E+00  -5.4248531E+01   0.0000000E+00  -5.0947886E+00  -5.2349861E+01   0.0000000E+00  -5.3016191E+00  -5.2101261E+01   0.0000000E+00  -5.2888436E+00  -5.4747364E+01   0.0000000E+00  -4.7640128E+00  -6.2098579E+01   0.0000000E+00  -2.7778656E+00  -7.4935020E+01   0.0000000E+00   5.7665640E-01  -9.2592255E+01   0.0000000E+00   8.2512121E+00  -5.7188530E+01   0.0000000E+00  -7.7976022E+00  -5.4710678E+01   0.0000000E+00  -7.6983042E+00  -5.2685646E+01   0.0000000E+00  -7.6604443E+00  -5.2237362E+01   0.0000000E+00  -7.3620591E+00  -5.4971901E+01   0.0000000E+00  -6.2712088E+00  -6.2396057E+01   0.0000000E+00  -4.0097466E+00  -7.5729347E+01   0.0000000E+00  -8.3986104E-01  -9.3246506E+01   0.0000000E+00   8.5624695E+00  -5.7263187E+01   0.0000000E+00  -1.0729314E+01  -5.4582882E+01   0.0000000E+00  -1.0269551E+01  -5.2367809E+01   0.0000000E+00  -9.7185125E+00  -5.1565968E+01   0.0000000E+00  -8.8331223E+00  -5.3847561E+01   0.0000000E+00  -7.8215895E+00  -6.1075901E+01   0.0000000E+00  -5.2168136E+00  -7.4148628E+01   0.0000000E+00  -2.1794217E+00  -8.9331779E+01   0.0000000E+00   9.4492159E+00  -5.6390247E+01   0.0000000E+00  -1.2988205E+01  -5.3088242E+01   0.0000000E+00  -1.1639812E+01  -5.0182537E+01   0.0000000E+00  -1.0357846E+01  -4.8314751E+01   0.0000000E+00  -9.7555971E+00  -5.0423065E+01   0.0000000E+00  -9.9063616E+00  -5.6994724E+01   0.0000000E+00  -6.6082087E+00  -6.5393929E+01   0.0000000E+00  -3.8119779E+00  -6.9188995E+01   0.0000000E+00   9.5781775E+00  -5.0048656E+01   0.0000000E+00  -1.0668822E+01  -4.6205944E+01   0.0000000E+00  -9.1066761E+00  -4.2533779E+01   0.0000000E+00  -1.0678100E+01  -4.0797935E+01   0.0000000E+00  -1.2731651E+01  -4.0927452E+01   0.0000000E+00  -1.2647456E+01  -4.0822430E+01   0.0000000E+00  -9.2766047E+00  -4.0636047E+01   0.0000000E+00  -4.3825226E+00  -4.1273396E+01   0.0000000E+00   1.0178116E+01  -3.1875574E+01   0.0000000E+00  -1.4285056E+01  -2.8834261E+01   0.0000000E+00  -1.2522215E+01  -2.6168993E+01   0.0000000E+00  -1.2304610E+01  -2.4107883E+01   0.0000000E+00  -1.4592400E+01  -2.2876926E+01   0.0000000E+00  -1.4442852E+01  -2.2706942E+01   0.0000000E+00  -1.0186580E+01  -2.2758160E+01   0.0000000E+00  -7.5183754E+00  -2.3359539E+01   0.0000000E+00   1.0950486E+01  -1.9272087E+01   0.0000000E+00  -1.8647718E+01  -1.7162115E+01   0.0000000E+00  -1.7117851E+01  -1.5456961E+01   0.0000000E+00  -1.5661370E+01  -1.4216176E+01   0.0000000E+00  -1.5604925E+01  -1.3646106E+01   0.0000000E+00  -1.5148030E+01  -1.3820929E+01   0.0000000E+00  -1.0942247E+01  -1.4351918E+01   0.0000000E+00  -1.2786463E+01  -1.4994255E+01   0.0000000E+00   1.0963011E+01  -1.1536294E+01   0.0000000E+00  -2.1594608E+01  -1.0531933E+01   0.0000000E+00  -2.0166513E+01  -9.8490410E+00   0.0000000E+00  -1.8691853E+01  -9.5338192E+00   0.0000000E+00  -1.7362703E+01  -9.6187019E+00   0.0000000E+00  -1.5879756E+01  -1.0086061E+01   0.0000000E+00  -1.1024910E+01  -1.0841537E+01   0.0000000E+00  -1.4999053E+01  -1.1580254E+01   0.0000000E+00   1.1298522E+01  -5.0893688E+00   0.0000000E+00  -2.2760767E+01  -5.0537286E+00   0.0000000E+00  -2.1258707E+01  -5.1958289E+00   0.0000000E+00  -1.9661726E+01  -5.4923859E+00   0.0000000E+00  -1.8073769E+01  -5.9314060E+00   0.0000000E+00  -1.6041246E+01  -6.4856572E+00   0.0000000E+00  -1.1848642E+01  -7.1037765E+00   0.0000000E+00  -1.5998384E+01  -7.6566048E+00   0.0000000E+00   1.1479425E+01   2.5287378E+00   0.0000000E+00  -2.2253736E+01   1.9433879E+00   0.0000000E+00  -2.0580605E+01   1.3716686E+00   0.0000000E+00  -1.8801210E+01   8.7282991E-01   0.0000000E+00  -1.7046583E+01   4.7794333E-01   0.0000000E+00  -1.5589134E+01   1.9956224E-01   0.0000000E+00  -1.2994232E+01   2.3123879E-02   0.0000000E+00  -1.6062592E+01  -1.0378578E-01   0.0000000E+00   1.1580334E+01   1.1943998E+01   0.0000000E+00  -2.0514372E+01   1.1124729E+01   0.0000000E+00  -1.8681992E+01   1.0531205E+01   0.0000000E+00  -1.6818182E+01   1.0206431E+01   0.0000000E+00  -1.5283453E+01   1.0055232E+01   0.0000000E+00  -1.5459802E+01   1.0425634E+01   0.0000000E+00  -1.3470399E+01   1.0820891E+01   0.0000000E+00  -1.5237781E+01   1.1213543E+01   0.0000000E+00   1.1529379E+01   2.2499718E+01   0.0000000E+00  -1.8098114E+01   2.1731987E+01   0.0000000E+00  -1.6175407E+01   2.1385227E+01   0.0000000E+00  -1.4325986E+01   2.1381264E+01   0.0000000E+00  -1.3505639E+01   2.1643536E+01   0.0000000E+00  -1.5118372E+01   2.2477501E+01   0.0000000E+00  -1.3230121E+01   2.3632837E+01   0.0000000E+00  -1.3772264E+01   2.4630157E+01   0.0000000E+00   1.1600327E+01   3.3311653E+01   0.0000000E+00  -1.5505239E+01   3.2719639E+01   0.0000000E+00  -1.3565825E+01   3.2696636E+01   0.0000000E+00  -1.1761928E+01   3.2863838E+01   0.0000000E+00  -1.1920761E+01   3.3486710E+01   0.0000000E+00  -1.4195559E+01   3.4669712E+01   0.0000000E+00  -1.2052347E+01   3.6560951E+01   0.0000000E+00  -1.1816779E+01   3.8356140E+01   0.0000000E+00   1.2202845E+01   4.3883675E+01   0.0000000E+00  -1.3084787E+01   4.3443466E+01   0.0000000E+00  -1.1176898E+01   4.3633583E+01   0.0000000E+00  -9.4689493E+00   4.3672066E+01   0.0000000E+00  -1.0413410E+01   4.3973392E+01   0.0000000E+00  -1.2815486E+01   4.6001465E+01   0.0000000E+00  -1.0343973E+01   4.8706898E+01   0.0000000E+00  -8.7599411E+00   5.1022739E+01   0.0000000E+00   1.2723466E+01   5.4055508E+01   0.0000000E+00  -1.1019032E+01   5.3662537E+01   0.0000000E+00  -9.1612463E+00   5.3824211E+01   0.0000000E+00  -7.6165051E+00   5.3361298E+01   0.0000000E+00  -9.0600615E+00   5.3364563E+01   0.0000000E+00  -1.0422490E+01   5.5128674E+01   0.0000000E+00  -7.9457603E+00   5.9144974E+01   0.0000000E+00  -5.8484397E+00   6.2236225E+01   0.0000000E+00   1.2530496E+01   6.3012661E+01   0.0000000E+00  -9.2415018E+00   6.2749130E+01   0.0000000E+00  -7.4543800E+00   6.2992565E+01   0.0000000E+00  -5.7910633E+00   6.2332508E+01   0.0000000E+00  -7.2637968E+00   6.1670570E+01   0.0000000E+00  -8.1076994E+00   6.3076958E+01   0.0000000E+00  -4.9383378E+00   6.8128151E+01   0.0000000E+00  -2.5614533E+00   7.2964134E+01   0.0000000E+00   1.2850307E+01   6.7595764E+01   0.0000000E+00  -7.2352796E+00   6.7748810E+01   0.0000000E+00  -5.4607301E+00   6.8504913E+01   0.0000000E+00  -3.6151755E+00   6.9326660E+01   0.0000000E+00  -4.0085139E+00   6.9335258E+01   0.0000000E+00  -5.6052446E+00   7.0599632E+01   0.0000000E+00  -1.8752633E+00   7.6647789E+01   0.0000000E+00   4.9882594E-01   8.3281372E+01   0.0000000E+00   1.3235275E+01   6.9314041E+01   0.0000000E+00  -5.0981760E+00   6.9648933E+01   0.0000000E+00  -3.3265998E+00   7.0610832E+01   0.0000000E+00  -1.4169234E+00   7.2876053E+01   0.0000000E+00  -4.5576909E-01   7.5507828E+01   0.0000000E+00  -2.0625713E+00   7.7894119E+01   0.0000000E+00   4.4227129E-01   8.5038467E+01   0.0000000E+00   2.9741583E+00   9.3472275E+01   0.0000000E+00   1.3955009E+01   7.0171196E+01   0.0000000E+00  -3.2393005E+00   7.0467819E+01   0.0000000E+00  -1.5346208E+00   7.1702454E+01   0.0000000E+00   2.2246000E-01   7.4462112E+01   0.0000000E+00   1.7428257E+00   7.9135651E+01   0.0000000E+00   1.8542312E+00   8.5641785E+01   0.0000000E+00   3.0675294E+00   9.3414032E+01   0.0000000E+00   4.8175216E+00   1.0378982E+02   0.0000000E+00   1.4673427E+01   7.0591583E+01   0.0000000E+00  -1.6583956E+00   7.1128380E+01   0.0000000E+00   7.7586975E-03   7.2325325E+01   0.0000000E+00   1.6952872E+00   7.5443199E+01   0.0000000E+00   3.2292223E+00   8.1554726E+01   0.0000000E+00   4.2081571E+00   9.1346100E+01   0.0000000E+00   5.9465861E+00   1.0222974E+02   0.0000000E+00   5.9854240E+00   1.1494940E+02   0.0000000E+00   1.5756685E+01   7.0684914E+01   0.0000000E+00  -3.2335877E-01   7.1416710E+01   0.0000000E+00   1.1301178E+00   7.3044624E+01   0.0000000E+00   2.6796968E+00   7.6488846E+01   0.0000000E+00   4.1276684E+00   8.3349106E+01   0.0000000E+00   5.3465919E+00   9.5322319E+01   0.0000000E+00   8.0296497E+00   1.1133051E+02   0.0000000E+00   8.1593609E+00   1.2669595E+02   0.0000000E+00   1.6619961E+01   7.0798042E+01   0.0000000E+00   6.8941486E-01   7.1581230E+01   0.0000000E+00   1.9240950E+00   7.3762146E+01   0.0000000E+00   3.3732719E+00   7.7986000E+01   0.0000000E+00   4.6583176E+00   8.5717049E+01   0.0000000E+00   5.9264059E+00   9.9422829E+01   0.0000000E+00   8.7154369E+00   1.1809256E+02   0.0000000E+00   1.1498108E+01   1.4024323E+02   0.0000000E+00   1.7480255E+01   7.0693512E+01   0.0000000E+00   1.4713082E+00   7.2055214E+01   0.0000000E+00   2.5722942E+00   7.4791374E+01   0.0000000E+00   3.7379177E+00   8.0126785E+01   0.0000000E+00   4.7437925E+00   8.9095230E+01   0.0000000E+00   6.1170425E+00   1.0418205E+02   0.0000000E+00   8.9901266E+00   1.2575410E+02   0.0000000E+00   1.2802032E+01   1.5010660E+02   0.0000000E+00   1.8614035E+01   7.0711708E+01   0.0000000E+00   2.1648631E+00   7.2522194E+01   0.0000000E+00   2.9144866E+00   7.6301804E+01   0.0000000E+00   3.8084917E+00   8.2916168E+01   0.0000000E+00   4.7525101E+00   9.3863991E+01   0.0000000E+00   6.3559809E+00   1.1077680E+02   0.0000000E+00   9.7769318E+00   1.3435367E+02   0.0000000E+00   1.4096256E+01   7.0793144E+01   0.0000000E+00   2.4487228E+00   7.3549675E+01   0.0000000E+00   3.0330496E+00   7.8713936E+01   0.0000000E+00   3.9017804E+00   8.6927055E+01   0.0000000E+00   4.8430462E+00   1.0014758E+02   0.0000000E+00   6.8999200E+00   1.1952052E+02   0.0000000E+00   1.0612411E+01   1.4415428E+02   0.0000000E+00   1.5124053E+01   7.1584305E+01   0.0000000E+00   2.5101814E+00   7.5793365E+01   0.0000000E+00   3.1153343E+00   8.2674271E+01   0.0000000E+00   3.9234343E+00   9.2702065E+01   0.0000000E+00   4.7875385E+00   1.0850172E+02   0.0000000E+00   7.4468360E+00   1.2995636E+02   0.0000000E+00   1.1289945E+01   7.3775093E+01   0.0000000E+00   2.5053000E+00   7.9527725E+01   0.0000000E+00   3.0343990E+00   8.8397469E+01   0.0000000E+00   3.5847988E+00   1.0059628E+02   0.0000000E+00   4.5677304E+00   1.1875568E+02   0.0000000E+00   7.6929493E+00   1.4117056E+02   0.0000000E+00   1.1861096E+01   7.7286659E+01   0.0000000E+00   2.2696373E+00   8.4749466E+01   0.0000000E+00   2.4502640E+00   9.5791412E+01   0.0000000E+00   3.0568678E+00   1.1080042E+02   0.0000000E+00   4.7640915E+00   1.3088110E+02   0.0000000E+00   8.4457455E+00   8.3071678E+01   0.0000000E+00   1.4189626E+00   9.2610001E+01   0.0000000E+00   1.7060180E+00   1.0590123E+02   0.0000000E+00   3.1210122E+00   1.2330426E+02   0.0000000E+00   5.7453232E+00   9.1687103E+01   0.0000000E+00   6.5595502E-01   1.0364328E+02   0.0000000E+00   2.0234146E+00   1.1927818E+02   0.0000000E+00   4.2711649E+00   1.3452132E+02   0.0000000E+00   6.9539218E+00   1.0337988E+02   0.0000000E+00   1.2338926E+00   1.1731815E+02   0.0000000E+00   3.3728895E+00   1.1625464E+02   0.0000000E+00   2.2674088E+00 
StrainDot 3 2975 float
  0.0000000E+00   0.0000000E+00   0.0000000E+00   0.0000000E+00   0.0000000E+00   0.0000000E+00   0.0000000E+00   0.0000000E+00   0.0000000E+00   0.0000000E+00   0.0000000E+00   0.0000000E+00   0.0000000E+00   0.0000000E+00   0.0000000E+00   0.0000000E+00   0.0000000E+00   0.0000000E+00   0.0000000E+00   0.0000000E+00   0.0000000E+00   0.0000000E+00   0.0000000E+00   0.0000000E+00   0.0000000E+00   0.0000000E+00   0.0000000E+00   0.0000000E+00   0.0000000E+00   0.0000000E+00   0.0000000E+00   0.0000000E+00   0.0000000E+00   0.0000000E+00   0.0000000E+00   0.0000000E+00   0.0000000E+00   0.0000000E+00   0.0000000E+00  -1.0455643E-06   0.0000000E+00  -2.8450023E-07  -5.1875371E-17   0.0000000E+00  -2.2177169E-17  -4.9093710E-06   0.0000000E+00  -2.0707414E-06  -3.5360670E-05   0.0000000E+00  -1.1678573E-05  -8.3644645E-06   0.0000000E+00  -4.3541759E-06  -6.1693085E-05   0.0000000E+00  -3.0881412E-05  -2.1067372E-04   0.0000000E+00  -8.0674894E-05  -6.6291563E-05   0.0000000E+00  -4.0391842E-05  -2.5802615E-04   0.0000000E+00  -1.4687730E-04  -6.7965215E-04   0.0000000E+00  -2.9270083E-04  -2.2321820E-04   0.0000000E+00  -1.5495454E-04  -6.7346235E-04   0.0000000E+00  -4.3032624E-04  -1.5662989E-03   0.0000000E+00  -7.5153733E-04  -4.9624447E-04   0.0000000E+00  -3.9161631E-04  -1.3203463E-03   0.0000000E+00  -9.4735052E-04  -2.8735492E-03   0.0000000E+00  -1.5391991E-03  -8.5070677E-04   0.0000000E+00  -7.6459034E-04  -2.1215798E-03   0.0000000E+00  -1.7110347E-03  -4.4564735E-03   0.0000000E+00  -2.6674485E-03  -1.2177166E-03   0.0000000E+00  -1.2423259E-03  -2.9457009E-03   0.0000000E+00  -2.6561057E-03  -6.0789799E-03   0.0000000E+00  -4.0411414E-03  -1.5372693E-03   0.0000000E+00  -1.7541993E-03  -3.6834730E-03   0.0000000E+00  -3.6502986E-03  -7.5473189E-03   0.0000000E+00  -5.4672984E-03  -1.7968691E-03   0.0000000E+00  -2.2218141E-03  -4.3174257E-03   0.0000000E+00  -4.5495844E-03  -8.8390084E-03   0.0000000E+00  -6.7343288E-03  -2.0434044E-03   0.0000000E+00  -2.5964393E-03  -4.9419967E-03   0.0000000E+00  -5.2649300E-03  -1.0126997E-02   0.0000000E+00  -7.7170469E-03  -2.3742623E-03   0.0000000E+00  -2.8766918E-03  -5.7616970E-03   0.0000000E+00  -5.7934816E-03  -1.1783474E-02   0.0000000E+00  -8.4228078E-03  -2.9314107E-03   0.0000000E+00  -3.1038322E-03  -7.0781223E-03   0.0000000E+00  -6.2153297E-03  -1.4348073E-02   0.0000000E+00  -8.9833643E-03  -3.9048239E-03   0.0000000E+00  -3.3600216E-03  -9.2765549E-03   0.0000000E+00  -6.7033451E-03  -1.8484093E-02   0.0000000E+00  -9.6661095E-03  -5.5593220E-03   0.0000000E+00  -3.8234151E-03  -1.2840077E-02   0.0000000E+00  -7.5847730E-03  -2.4956534E-02   0.0000000E+00  -1.0923209E-02  -8.2066599E-03   0.0000000E+00  -4.8934305E-03  -1.8152952E-02   0.0000000E+00  -9.4481893E-03  -3.4226805E-02   0.0000000E+00  -1.3473814E-02  -1.1940050E-02   0.0000000E+00  -7.4238679E-03  -2.4806852E-02   0.0000000E+00  -1.3303317E-02  -4.5321941E-02   0.0000000E+00  -1.8415092E-02  -3.1442158E-02   0.0000000E+00  -2.0698885E-02  -5.5848122E-02   0.0000000E+00  -2.7260937E-02   0.0000000E+00   0.0000000E+00   0.0000000E+00   0.0000000E+00   0.0000000E+00   0.0000000E+00   0.0000000E+00   0.0000000E+00   0.0000000E+00   0.0000000E+00   0.0000000E+00   0.0000000E+00   0.0000000E+00   0.0000000E+00   0.0000000E+00   0.0000000E+00   0.0000000E+00   0.0000000E+00   0.0000000E+00   0.0000000E+00   0.0000000E+00   0.0000000E+00   0.0000000E+00   0.0000000E+00   0.0000000E+00   0.0000000E+00   0.0000000E+00   0.0000000E+00   0.0000000E+00   0.0000000E+00   0.0000000E+00   0.0000000E+00   0.0000000E+00   0.0000000E+00   0.0000000E+00   0.0000000E+00   0.0000000E+00   0.0000000E+00   0.0000000E+00   0.0000000E+00   0.0000000E+00   0.0000000E+00   0.0000000E+00   0.0000000E+00   0.0000000E+00   0.0000000E+00   0.0000000E+00   0.0000000E+00   0.0000000E+00   0.0000000E+00   0.0000000E+00   0.0000000E+00   0.0000000E+00   0.0000000E+00   0.0000000E+00   0.0000000E+00   0.0000000E+00   0.0000000E+00   0.0000000E+00   0.0000000E+00   0.0000000E+00   0.0000000E+00   0.0000000E+00   0.0000000E+00   0.0000000E+00   0.0000000E+00   0.0000000E+00   0.0000000E+00   0.0000000E+00   0.0000000E+00   0.0000000E+00   0.0000000E+00   0.0000000E+00   0.0000000E+00   0.0000000E+00  -2.1855448E-07   0.0000000E+00  -1.9300792E-08  -1.4461308E-06   0.0000000E+00  -6.5184381E-08  -3.5131291E-06   0.0000000E+00  -5.8890183E-08  -5.3304648E-06   0.0000000E+00  -6.5232362E-09  -6.3375146E-06   0.0000000E+00   1.5480653E-08  -7.0185947E-06   0.0000000E+00   1.8292162E-08  -7.5325806E-06   0.0000000E+00   1.8675065E-08  -9.6313806E-06   0.0000000E+00  -1.8001177E-06  -3.3189914E-05   0.0000000E+00  -3.8940921E-06  -7.3871808E-05   0.0000000E+00  -5.0410581E-06  -1.2606879E-04   0.0000000E+00  -4.3570699E-06  -1.7901197E-04   0.0000000E+00  -2.1105770E-06  -2.2286134E-04   0.0000000E+00   4.4546692E-07  -2.5347326E-04   0.0000000E+00   1.9415354E-06  -2.7349786E-04   0.0000000E+00   2.2302536E-06  -1.1499188E-04   0.0000000E+00  -2.5648887E-05  -2.6095269E-04   0.0000000E+00  -3.6510941E-05  -4.7291597E-04   0.0000000E+00  -3.9094040E-05  -7.2739326E-04   0.0000000E+00  -3.1746560E-05  -9.8516955E-04   0.0000000E+00  -1.6630476E-05  -1.2098900E-03   0.0000000E+00   5.2152262E-07  -1.3831524E-03   0.0000000E+00   1.3450780E-05  -1.5054169E-03   0.0000000E+00   1.9544785E-05  -5.0690526E-04   0.0000000E+00  -1.2982634E-04  -9.8530261E-04   0.0000000E+00  -1.5798512E-04  -1.6379656E-03   0.0000000E+00  -1.5587444E-04  -2.3995857E-03   0.0000000E+00  -1.2197984E-04  -3.1664774E-03   0.0000000E+00  -6.3842141E-05  -3.8446290E-03   0.0000000E+00   6.7292609E-07  -4.3840795E-03   0.0000000E+00   5.1651339E-05  -4.7799810E-03   0.0000000E+00   7.9761514E-05  -1.4331747E-03   0.0000000E+00  -4.1042143E-04  -2.5857342E-03   0.0000000E+00  -4.6283533E-04  -4.1122464E-03   0.0000000E+00  -4.3754553E-04  -5.8646989E-03   0.0000000E+00  -3.3450514E-04  -7.6187914E-03   0.0000000E+00  -1.7291489E-04  -9.1747995E-03   0.0000000E+00   3.4147779E-06  -1.0426716E-02   0.0000000E+00   1.4515949E-04  -1.1360619E-02   0.0000000E+00   2.2773114E-04  -3.0836631E-03   0.0000000E+00  -9.8059257E-04  -5.3428742E-03   0.0000000E+00  -1.0613423E-03  -8.2889609E-03   0.0000000E+00  -9.7896974E-04  -1.1637603E-02   0.0000000E+00  -7.3575741E-04  -1.4965424E-02   0.0000000E+00  -3.7338972E-04  -1.7907858E-02   0.0000000E+00   1.5368114E-05  -2.0279977E-02   0.0000000E+00   3.2880480E-04  -2.2059556E-02   0.0000000E+00   5.1607919E-04  -5.4473327E-03   0.0000000E+00  -1.9301595E-03  -9.2292586E-03   0.0000000E+00  -2.0427990E-03  -1.4121832E-02   0.0000000E+00  -1.8566346E-03  -1.9639101E-02   0.0000000E+00  -1.3737979E-03  -2.5067829E-02   0.0000000E+00  -6.7853439E-04  -2.9830238E-02   0.0000000E+00   5.0745766E-05  -3.3656605E-02   0.0000000E+00   6.3390011E-04  -3.6525559E-02   0.0000000E+00   9.8552497E-04  -8.2763005E-03   0.0000000E+00  -3.2726855E-03  -1.3847264E-02   0.0000000E+00  -3.4218351E-03  -2.1003319E-02   0.0000000E+00  -3.0781266E-03  -2.8997473E-02   0.0000000E+00  -2.2367132E-03  -3.6755838E-02   0.0000000E+00  -1.0625622E-03  -4.3494768E-02   0.0000000E+00   1.3035571E-04  -4.8876461E-02   0.0000000E+00   1.0696144E-03  -5.2891150E-02   0.0000000E+00   1.6358903E-03  -1.1164152E-02   0.0000000E+00  -4.8972028E-03  -1.8530535E-02   0.0000000E+00  -5.0810156E-03  -2.7871108E-02   0.0000000E+00  -4.5078569E-03  -1.3771831E-02   0.0000000E+00  -6.5642847E-03  -2.2704380E-02   0.0000000E+00  -6.7573413E-03  -1.6077327E-02   0.0000000E+00  -8.0039669E-03  -2.6373776E-02   0.0000000E+00  -8.1415987E-03  -1.8382968E-02   0.0000000E+00  -9.0725813E-03  -3.0055268E-02   0.0000000E+00  -9.1062728E-03  -2.1277633E-02   0.0000000E+00  -9.8006632E-03  -3.4546278E-02   0.0000000E+00  -9.7062774E-03  -2.5594577E-02   0.0000000E+00  -1.0368644E-02  -4.0953692E-02   0.0000000E+00  -1.0142529E-02  -3.2318968E-02   0.0000000E+00  -1.1109381E-02  -5.0527588E-02   0.0000000E+00  -1.0762324E-02  -4.2519808E-02   0.0000000E+00  -1.2550327E-02  -6.4510375E-02   0.0000000E+00  -1.2094424E-02  -5.6799993E-02   0.0000000E+00  -1.5503597E-02  -8.3547667E-02   0.0000000E+00  -1.4945703E-02  -7.3860981E-02   0.0000000E+00  -2.1197306E-02  -1.0631058E-01   0.0000000E+00  -2.0578805E-02  -9.0263791E-02   0.0000000E+00  -3.1285942E-02  -1.2902920E-01   0.0000000E+00  -3.0797945E-02   0.0000000E+00   0.0000000E+00   0.0000000E+00   0.0000000E+00   0.0000000E+00   0.0000000E+00   0.0000000E+00   0.0000000E+00   0.0000000E+00   0.0000000E+00   0.0000000E+00   0.0000000E+00   0.0000000E+00   0.0000000E+00   0.0000000E+00   0.0000000E+00   0.0000000E+00   0.0000000E+00   0.0000000E+00   0.0000000E+00   0.0000000E+00   0.0000000E+00   0.0000000E+00   0.0000000E+00   0.0000000E+00   0.0000000E+00   0.0000000E+00   0.0000000E+00   0.0000000E+00   0.0000000E+00   0.0000000E+00   0.0000000E+00   0.0000000E+00   0.0000000E+00   0.0000000E+00   0.0000000E+00   0.0000000E+00   0.0000000E+00   0.0000000E+00   0.0000000E+00   0.0000000E+00   0.0000000E+00   0.0000000E+00   0.0000000E+00   0.0000000E+00   0.0000000E+00   0.0000000E+00   0.0000000E+00   0.0000000E+00   0.0000000E+00   0.0000000E+00   0.0000000E+00   0.0000000E+00   0.0000000E+00   0.0000000E+00   0.0000000E+00   0.0000000E+00   0.0000000E+00   0.0000000E+00   0.0000000E+00   0.0000000E+00   0.0000000E+00   0.0000000E+00   0.0000000E+00   0.0000000E+00   0.0000000E+00   0.0000000E+00   0.0000000E+00   0.0000000E+00   0.0000000E+00   0.0000000E+00   0.0000000E+00   0.0000000E+00   0.0000000E+00   0.0000000E+00   0.0000000E+00   0.0000000E+00   0.0000000E+00   0.0000000E+00   0.0000000E+00   0.0000000E+00  -7.8974426E-06   0.0000000E+00   1.7572912E-08  -8.1389917E-06   0.0000000E+00   1.5622097E-08  -8.2849083E-06   0.0000000E+00   1.3321841E-08  -8.3613941E-06   0.0000000E+00   1.1114611E-08  -8.3913028E-06   0.0000000E+00   9.0519574E-09  -8.3930845E-06   0.0000000E+00   7.2273028E-09  -8.3809473E-06   0.0000000E+00   5.7281175E-09  -8.3653385E-06   0.0000000E+00   4.5966675E-09  -8.3532641E-06   0.0000000E+00   3.9023647E-09  -2.8759407E-04   0.0000000E+00   2.1441683E-06  -2.9721059E-04   0.0000000E+00   1.9391975E-06  -3.0327393E-04   0.0000000E+00   1.6806647E-06  -3.0669675E-04   0.0000000E+00   1.4121223E-06  -3.0829315E-04   0.0000000E+00   1.1589995E-06  -3.0874225E-04   0.0000000E+00   9.3588369E-07  -3.0857773E-04   0.0000000E+00   7.5138638E-07  -3.0819382E-04   0.0000000E+00   6.1357105E-07  -3.0785962E-04   0.0000000E+00   5.2842915E-07  -1.5875696E-03   0.0000000E+00   2.0035644E-05  -1.6429323E-03   0.0000000E+00   1.8404467E-05  -1.6784943E-03   0.0000000E+00   1.6136521E-05  -1.6991763E-03   0.0000000E+00   1.3681925E-05  -1.7094362E-03   0.0000000E+00   1.1321190E-05  -1.7130258E-03   0.0000000E+00   9.2207620E-06  -1.7129211E-03   0.0000000E+00   7.4866962E-06  -1.7113402E-03   0.0000000E+00   6.1923806E-06  -1.7098025E-03   0.0000000E+00   5.3926892E-06  -5.0539365E-03   0.0000000E+00   8.7369423E-05  -5.2358247E-03   0.0000000E+00   8.2367536E-05  -5.3525800E-03   0.0000000E+00   7.3004136E-05  -5.4214224E-03   0.0000000E+00   6.2425286E-05  -5.4565044E-03   0.0000000E+00   5.2043524E-05  -5.4697902E-03   0.0000000E+00   4.2725598E-05  -5.4708049E-03   0.0000000E+00   3.5007335E-05  -5.4666749E-03   0.0000000E+00   2.9246801E-05  -5.4622991E-03   0.0000000E+00   2.5689569E-05  -1.2017953E-02   0.0000000E+00   2.5557450E-04  -1.2458485E-02   0.0000000E+00   2.4729944E-04  -1.2738944E-02   0.0000000E+00   2.2159441E-04  -1.2904617E-02   0.0000000E+00   1.9097487E-04  -1.2989562E-02   0.0000000E+00   1.6031202E-04  -1.3022309E-02   0.0000000E+00   1.3252083E-04  -1.3025560E-02   0.0000000E+00   1.0940647E-04  -1.3016290E-02   0.0000000E+00   9.2130475E-05  -1.3006201E-02   0.0000000E+00   8.1460246E-05  -2.3320498E-02   0.0000000E+00   5.8473519E-04  -2.4170037E-02   0.0000000E+00   5.7314709E-04  -2.4709700E-02   0.0000000E+00   5.1941851E-04  -2.5025690E-02   0.0000000E+00   4.5077439E-04  -2.5185969E-02   0.0000000E+00   3.8074143E-04  -2.5245978E-02   0.0000000E+00   3.1664319E-04  -2.5249712E-02   0.0000000E+00   2.6307750E-04  -2.5230017E-02   0.0000000E+00   2.2296075E-04  -2.5209451E-02   0.0000000E+00   1.9816567E-04  -3.8558051E-02   0.0000000E+00   1.1195433E-03  -3.9925564E-02   0.0000000E+00   1.1038033E-03  -4.0789951E-02   0.0000000E+00   1.0082001E-03  -4.1288298E-02   0.0000000E+00   8.8017667E-04  -4.1533772E-02   0.0000000E+00   7.4744003E-04  -4.1618064E-02   0.0000000E+00   6.2486326E-04  -4.1613407E-02   0.0000000E+00   5.2194396E-04  -4.1573629E-02   0.0000000E+00   4.4468298E-04  -4.1535504E-02   0.0000000E+00   3.9688280E-04  -5.5718549E-02   0.0000000E+00   1.8552882E-03  -5.7605833E-02   0.0000000E+00   1.8336287E-03  -5.8784597E-02   0.0000000E+00   1.6827324E-03  -5.9447657E-02   0.0000000E+00   1.4766870E-03  -5.9756927E-02   0.0000000E+00   1.2600159E-03  -5.9844282E-02   0.0000000E+00   1.0583421E-03  -5.9812825E-02   0.0000000E+00   8.8825065E-04  -5.9738893E-02   0.0000000E+00   7.6025666E-04  -5.9674498E-02   0.0000000E+00   6.8097882E-04   0.0000000E+00   0.0000000E+00   0.0000000E+00   0.0000000E+00   0.0000000E+00   0.0000000E+00   0.0000000E+00   0.0000000E+00   0.0000000E+00   0.0000000E+00   0.0000000E+00   0.0000000E+00   0.0000000E+00   0.0000000E+00   0.0000000E+00   0.0000000E+00   0.0000000E+00   0.0000000E+00   0.0000000E+00   0.0000000E+00   0.0000000E+00   0.0000000E+00   0.0000000E+00   0.0000000E+00   0.0000000E+00   0.0000000E+00   0.0000000E+00   0.0000000E+00   0.0000000E+00   0.0000000E+00   0.0000000E+00   0.0000000E+00   0.0000000E+00   0.0000000E+00   0.0000000E+00   0.0000000E+00   0.0000000E+00   0.0000000E+00   0.0000000E+00   0.0000000E+00   0.0000000E+00   0.0000000E+00   0.0000000E+00   0.0000000E+00   0.0000000E+00   0.0000000E+00   0.0000000E+00   0.0000000E+00   0.0000000E+00   0.0000000E+00   0.0000000E+00   0.0000000E+00   0.0000000E+00   0.0000000E+00   0.0000000E+00   0.0000000E+00   0.0000000E+00   0.0000000E+00   0.0000000E+00   0.0000000E+00   0.0000000E+00   0.0000000E+00   0.0000000E+00   0.0000000E+00   0.0000000E+00   0.0000000E+00   0.0000000E+00   0.0000000E+00   0.0000000E+00   0.0000000E+00   0.0000000E+00   0.0000000E+00  -8.3487994E-06   0.0000000E+00   3.6667114E-09  -8.3532632E-06   0.0000000E+00   3.9023798E-09  -8.3653367E-06   0.0000000E+00   4.5966839E-09  -8.3809464E-06   0.0000000E+00   5.7281113E-09  -8.3930854E-06   0.0000000E+00   7.2272930E-09  -8.3913010E-06   0.0000000E+00   9.0519627E-09  -8.3613968E-06   0.0000000E+00   1.1114615E-08  -8.2849101E-06   0.0000000E+00   1.3321837E-08  -3.0773148E-04   0.0000000E+00   4.9951848E-07  -3.0785971E-04   0.0000000E+00   5.2842989E-07  -3.0819382E-04   0.0000000E+00   6.1357173E-07  -3.0857770E-04   0.0000000E+00   7.5138655E-07  -3.0874222E-04   0.0000000E+00   9.3588335E-07  -3.0829315E-04   0.0000000E+00   1.1589992E-06  -3.0669683E-04   0.0000000E+00   1.4121224E-06  -3.0327388E-04   0.0000000E+00   1.6806656E-06  -1.7091933E-03   0.0000000E+00   5.1224642E-06  -1.7098025E-03   0.0000000E+00   5.3926933E-06  -1.7113400E-03   0.0000000E+00   6.1923865E-06  -1.7129211E-03   0.0000000E+00   7.4867007E-06  -1.7130254E-03   0.0000000E+00   9.2207629E-06  -1.7094363E-03   0.0000000E+00   1.1321189E-05  -1.6991763E-03   0.0000000E+00   1.3681926E-05  -1.6784936E-03   0.0000000E+00   1.6136528E-05  -5.4605287E-03   0.0000000E+00   2.4486899E-05  -5.4622982E-03   0.0000000E+00   2.5689591E-05  -5.4666735E-03   0.0000000E+00   2.9246816E-05  -5.4708049E-03   0.0000000E+00   3.5007357E-05  -5.4697897E-03   0.0000000E+00   4.2725602E-05  -5.4565039E-03   0.0000000E+00   5.2043535E-05  -5.4214220E-03   0.0000000E+00   6.2425279E-05  -5.3525800E-03   0.0000000E+00   7.3004165E-05  -1.3002089E-02   0.0000000E+00   7.7851990E-05  -1.3006199E-02   0.0000000E+00   8.1460290E-05  -1.3016287E-02   0.0000000E+00   9.2130562E-05  -1.3025556E-02   0.0000000E+00   1.0940653E-04  -1.3022311E-02   0.0000000E+00   1.3252087E-04  -1.2989566E-02   0.0000000E+00   1.6031209E-04  -1.2904623E-02   0.0000000E+00   1.9097500E-04  -1.2738945E-02   0.0000000E+00   2.2159457E-04  -2.5201162E-02   0.0000000E+00   1.8977823E-04  -2.5209455E-02   0.0000000E+00   1.9816574E-04  -2.5230009E-02   0.0000000E+00   2.2296088E-04  -2.5249714E-02   0.0000000E+00   2.6307767E-04  -2.5245978E-02   0.0000000E+00   3.1664319E-04  -2.5185965E-02   0.0000000E+00   3.8074146E-04  -2.5025686E-02   0.0000000E+00   4.5077439E-04  -2.4709703E-02   0.0000000E+00   5.1941845E-04  -4.1520469E-02   0.0000000E+00   3.8070919E-04  -4.1535512E-02   0.0000000E+00   3.9688303E-04  -4.1573636E-02   0.0000000E+00   4.4468333E-04  -4.1613400E-02   0.0000000E+00   5.2194420E-04  -4.1618053E-02   0.0000000E+00   6.2486361E-04  -4.1533772E-02   0.0000000E+00   7.4744009E-04  -4.1288309E-02   0.0000000E+00   8.8017719E-04  -4.0789966E-02   0.0000000E+00   1.0082008E-03  -5.9649728E-02   0.0000000E+00   6.5414514E-04  -5.9674501E-02   0.0000000E+00   6.8097911E-04  -5.9738878E-02   0.0000000E+00   7.6025707E-04  -5.9812844E-02   0.0000000E+00   8.8825141E-04  -5.9844263E-02   0.0000000E+00   1.0583425E-03  -5.9756938E-02   0.0000000E+00   1.2600160E-03  -5.9447650E-02   0.0000000E+00   1.4766874E-03  -5.8784578E-02   0.0000000E+00   1.6827324E-03   0.0000000E+00   0.0000000E+00   0.0000000E+00   0.0000000E+00   0.0000000E+00   0.0000000E+00   0.0000000E+00   0.0000000E+00   0.0000000E+00   0.0000000E+00   0.0000000E+00   0.0000000E+00   0.0000000E+00   0.0000000E+00   0.0000000E+00   0.0000000E+00   0.0000000E+00   0.0000000E+00   0.0000000E+00   0.0000000E+00   0.0000000E+00   0.0000000E+00   0.0000000E+00   0.0000000E+00   0.0000000E+00   0.0000000E+00   0.0000000E+00   0.0000000E+00   0.0000000E+00   0.0000000E+00   0.0000000E+00   0.0000000E+00   0.0000000E+00   0.0000000E+00   0.0000000E+00   0.0000000E+00   0.0000000E+00   0.0000000E+00   0.0000000E+00   0.0000000E+00   0.0000000E+00   0.0000000E+00   0.0000000E+00   0.0000000E+00   0.0000000E+00   0.0000000E+00   0.0000000E+00   0.0000000E+00   0.0000000E+00   0.0000000E+00   0.0000000E+00   0.0000000E+00   0.0000000E+00   0.0000000E+00   0.0000000E+00   0.0000000E+00   0.0000000E+00   0.0000000E+00   0.0000000E+00   0.0000000E+00   0.0000000E+00   0.0000000E+00   0.0000000E+00   0.0000000E+00   0.0000000E+00   0.0000000E+00   0.0000000E+00   0.0000000E+00   0.0000000E+00   0.0000000E+00   0.0000000E+00   0.0000000E+00   0.0000000E+00   0.0000000E+00   0.0000000E+00   0.0000000E+00   0.0000000E+00   0.0000000E+00   0.0000000E+00   0.0000000E+00   0.0000000E+00  -8.1389899E-06   0.0000000E+00   1.5622110E-08  -7.8974426E-06   0.0000000E+00   1.7572946E-08  -7.5325806E-06   0.0000000E+00   1.8675070E-08  -7.0185947E-06   0.0000000E+00   1.8292159E-08  -6.3375160E-06   0.0000000E+00   1.5480662E-08  -5.3304657E-06   0.0000000E+00  -6.5232619E-09  -3.5131307E-06   0.0000000E+00  -5.8890212E-08  -1.4461314E-06   0.0000000E+00  -6.5184395E-08  -2.1855452E-07   0.0000000E+00  -1.9300789E-08  -2.9721059E-04   0.0000000E+00   1.9391987E-06  -2.8759413E-04   0.0000000E+00   2.1441690E-06  -2.7349786E-04   0.0000000E+00   2.2302538E-06  -2.5347320E-04   0.0000000E+00   1.9415356E-06  -2.2286134E-04   0.0000000E+00   4.4546590E-07  -1.7901199E-04   0.0000000E+00  -2.1105784E-06  -1.2606883E-04   0.0000000E+00  -4.3570708E-06  -7.3871823E-05   0.0000000E+00  -5.0410590E-06  -3.3189925E-05   0.0000000E+00  -3.8940921E-06  -1.6429323E-03   0.0000000E+00   1.8404478E-05  -1.5875697E-03   0.0000000E+00   2.0035652E-05  -1.5054174E-03   0.0000000E+00   1.9544777E-05  -1.3831521E-03   0.0000000E+00   1.3450780E-05  -1.2098900E-03   0.0000000E+00   5.2151574E-07  -9.8516978E-04   0.0000000E+00  -1.6630496E-05  -7.2739337E-04   0.0000000E+00  -3.1746564E-05  -4.7291626E-04   0.0000000E+00  -3.9094048E-05  -2.6095274E-04   0.0000000E+00  -3.6510944E-05  -5.2358243E-03   0.0000000E+00   8.2367580E-05  -5.0539351E-03   0.0000000E+00   8.7369430E-05  -4.7799814E-03   0.0000000E+00   7.9761536E-05  -4.3840790E-03   0.0000000E+00   5.1651339E-05  -3.8446288E-03   0.0000000E+00   6.7290460E-07  -3.1664779E-03   0.0000000E+00  -6.3842170E-05  -2.3995864E-03   0.0000000E+00  -1.2197988E-04  -1.6379660E-03   0.0000000E+00  -1.5587446E-04  -9.8530296E-04   0.0000000E+00  -1.5798515E-04  -1.2458485E-02   0.0000000E+00   2.4729953E-04  -1.2017956E-02   0.0000000E+00   2.5557465E-04  -1.1360622E-02   0.0000000E+00   2.2773109E-04  -1.0426712E-02   0.0000000E+00   1.4515937E-04  -9.1747986E-03   0.0000000E+00   3.4147076E-06  -7.6187919E-03   0.0000000E+00  -1.7291494E-04  -5.8647017E-03   0.0000000E+00  -3.3450531E-04  -4.1122460E-03   0.0000000E+00  -4.3754547E-04  -2.5857356E-03   0.0000000E+00  -4.6283533E-04  -2.4170035E-02   0.0000000E+00   5.7314715E-04  -2.3320496E-02   0.0000000E+00   5.8473542E-04  -2.2059554E-02   0.0000000E+00   5.1607913E-04  -2.0279981E-02   0.0000000E+00   3.2880480E-04  -1.7907858E-02   0.0000000E+00   1.5368074E-05  -1.4965423E-02   0.0000000E+00  -3.7338972E-04  -1.1637606E-02   0.0000000E+00  -7.3575799E-04  -8.2889600E-03   0.0000000E+00  -9.7896985E-04  -5.3428742E-03   0.0000000E+00  -1.0613424E-03  -3.9925549E-02   0.0000000E+00   1.1038033E-03  -3.8558062E-02   0.0000000E+00   1.1195436E-03  -3.6525548E-02   0.0000000E+00   9.8552543E-04  -3.3656597E-02   0.0000000E+00   6.3389976E-04  -2.9830227E-02   0.0000000E+00   5.0745821E-05  -2.5067829E-02   0.0000000E+00  -6.7853450E-04  -1.9639106E-02   0.0000000E+00  -1.3737980E-03  -1.4121835E-02   0.0000000E+00  -1.8566352E-03  -9.2292605E-03   0.0000000E+00  -2.0427988E-03  -5.7605810E-02   0.0000000E+00   1.8336292E-03  -5.5718537E-02   0.0000000E+00   1.8552883E-03  -5.2891146E-02   0.0000000E+00   1.6358903E-03  -4.8876457E-02   0.0000000E+00   1.0696137E-03  -4.3494772E-02   0.0000000E+00   1.3035543E-04  -3.6755830E-02   0.0000000E+00  -1.0625628E-03  -2.8997473E-02   0.0000000E+00  -2.2367137E-03  -2.1003315E-02   0.0000000E+00  -3.0781280E-03  -1.3847263E-02   0.0000000E+00  -3.4218344E-03  -2.7871091E-02   0.0000000E+00  -4.5078569E-03  -1.8530538E-02   0.0000000E+00  -5.0810156E-03  -2.2704374E-02   0.0000000E+00  -6.7573404E-03  -2.6373774E-02   0.0000000E+00  -8.1415977E-03  -3.0055264E-02   0.0000000E+00  -9.1062738E-03  -3.4546278E-02   0.0000000E+00  -9.7062802E-03  -4.0953677E-02   0.0000000E+00  -1.0142530E-02  -5.0527573E-02   0.0000000E+00  -1.0762321E-02  -6.4510368E-02   0.0000000E+00  -1.2094427E-02  -8.3547674E-02   0.0000000E+00  -1.4945704E-02  -1.0631058E-01   0.0000000E+00  -2.0578802E-02  -1.2902921E-01   0.0000000E+00  -3.0797940E-02   0.0000000E+00   0.0000000E+00   0.0000000E+00   0.0000000E+00   0.0000000E+00   0.0000000E+00   0.0000000E+00   0.0000000E+00   0.0000000E+00   0.0000000E+00   0.0000000E+00   0.0000000E+00   0.0000000E+00   0.0000000E+00   0.0000000E+00   0.0000000E+00   0.0000000E+00   0.0000000E+00   0.0000000E+00   0.0000000E+00   0.0000000E+00   0.0000000E+00   0.0000000E+00   0.0000000E+00   0.0000000E+00   0.0000000E+00   0.0000000E+00   0.0000000E+00   0.0000000E+00   0.0000000E+00   0.0000000E+00   0.0000000E+00   0.0000000E+00   0.0000000E+00   0.0000000E+00   0.0000000E+00   0.0000000E+00   0.0000000E+00   0.0000000E+00   0.0000000E+00   0.0000000E+00   0.0000000E+00   0.0000000E+00   0.0000000E+00   0.0000000E+00  -9.6313797E-06   0.0000000E+00  -1.8001177E-06  -1.0455643E-06   0.0000000E+00  -2.8450015E-07   0.0000000E+00   0.0000000E+00   0.0000000E+00   0.0000000E+00   0.0000000E+00   0.0000000E+00  -1.1499190E-04   0.0000000E+00  -2.5648878E-05  -3.5360663E-05   0.0000000E+00  -1.1678565E-05  -4.9093710E-06   0.0000000E+00  -2.0707407E-06  -5.1875368E-17   0.0000000E+00  -2.2177156E-17  -5.0690543E-04   0.0000000E+00  -1.2982631E-04  -2.1067374E-04   0.0000000E+00  -8.0674879E-05  -6.1693077E-05   0.0000000E+00  -3.0881405E-05  -8.3644645E-06   0.0000000E+00  -4.3541759E-06  -1.4331751E-03   0.0000000E+00  -4.1042129E-04  -6.7965215E-04   0.0000000E+00  -2.9270086E-04  -2.5802618E-04   0.0000000E+00  -1.4687730E-04  -6.6291585E-05   0.0000000E+00  -4.0391849E-05  -3.0836628E-03   0.0000000E+00  -9.8059245E-04  -1.5662992E-03   0.0000000E+00  -7.5153710E-04  -6.7346235E-04   0.0000000E+00  -4.3032615E-04  -2.2321827E-04   0.0000000E+00  -1.5495453E-04  -5.4473332E-03   0.0000000E+00  -1.9301596E-03  -2.8735497E-03   0.0000000E+00  -1.5391994E-03  -1.3203454E-03   0.0000000E+00  -9.4735064E-04  -4.9624447E-04   0.0000000E+00  -3.9161634E-04  -8.2763024E-03   0.0000000E+00  -3.2726859E-03  -4.4564740E-03   0.0000000E+00  -2.6674483E-03  -2.1215801E-03   0.0000000E+00  -1.7110349E-03  -8.5070689E-04   0.0000000E+00  -7.6459028E-04  -1.1164150E-02   0.0000000E+00  -4.8972033E-03  -6.0789813E-03   0.0000000E+00  -4.0411414E-03  -2.9457011E-03   0.0000000E+00  -2.6561057E-03  -1.2177164E-03   0.0000000E+00  -1.2423260E-03  -1.3771828E-02   0.0000000E+00  -6.5642865E-03  -7.5473175E-03   0.0000000E+00  -5.4672984E-03  -3.6834746E-03   0.0000000E+00  -3.6502981E-03  -1.5372694E-03   0.0000000E+00  -1.7541996E-03  -1.6077328E-02   0.0000000E+00  -8.0039687E-03  -8.8390093E-03   0.0000000E+00  -6.7343288E-03  -4.3174266E-03   0.0000000E+00  -4.5495839E-03  -1.7968699E-03   0.0000000E+00  -2.2218144E-03  -1.8382970E-02   0.0000000E+00  -9.0725813E-03  -1.0126999E-02   0.0000000E+00  -7.7170460E-03  -4.9419957E-03   0.0000000E+00  -5.2649300E-03  -2.0434046E-03   0.0000000E+00  -2.5964396E-03  -2.1277636E-02   0.0000000E+00  -9.8006660E-03  -1.1783470E-02   0.0000000E+00  -8.4228059E-03  -5.7616979E-03   0.0000000E+00  -5.7934821E-03  -2.3742625E-03   0.0000000E+00  -2.8766922E-03  -2.5594579E-02   0.0000000E+00  -1.0368644E-02  -1.4348078E-02   0.0000000E+00  -8.9833634E-03  -7.0781196E-03   0.0000000E+00  -6.2153284E-03  -2.9314104E-03   0.0000000E+00  -3.1038320E-03  -3.2318980E-02   0.0000000E+00  -1.1109385E-02  -1.8484090E-02   0.0000000E+00  -9.6661085E-03  -9.2765540E-03   0.0000000E+00  -6.7033456E-03  -3.9048234E-03   0.0000000E+00  -3.3600209E-03  -4.2519812E-02   0.0000000E+00  -1.2550319E-02  -2.4956532E-02   0.0000000E+00  -1.0923210E-02  -1.2840075E-02   0.0000000E+00  -7.5847711E-03  -5.5593229E-03   0.0000000E+00  -3.8234149E-03  -5.6800015E-02   0.0000000E+00  -1.5503597E-02  -3.4226801E-02   0.0000000E+00  -1.3473812E-02  -1.8152950E-02   0.0000000E+00  -9.4481856E-03  -8.2066599E-03   0.0000000E+00  -4.8934300E-03  -7.3860988E-02   0.0000000E+00  -2.1197302E-02  -4.5321941E-02   0.0000000E+00  -1.8415092E-02  -2.4806855E-02   0.0000000E+00  -1.3303316E-02  -1.1940052E-02   0.0000000E+00  -7.4238665E-03  -9.0263791E-02   0.0000000E+00  -3.1285934E-02  -5.5848133E-02   0.0000000E+00  -2.7260933E-02  -3.1442154E-02   0.0000000E+00  -2.0698883E-02   0.0000000E+00   0.0000000E+00   0.0000000E+00   0.0000000E+00   0.0000000E+00   0.0000000E+00   0.0000000E+00   0.0000000E+00   0.0000000E+00   0.0000000E+00   0.0000000E+00   0.0000000E+00   0.0000000E+00   0.0000000E+00   0.0000000E+00   0.0000000E+00   0.0000000E+00   0.0000000E+00   0.0000000E+00   0.0000000E+00   0.0000000E+00   0.0000000E+00   0.0000000E+00   0.0000000E+00   0.0000000E+00   0.0000000E+00   0.0000000E+00   0.0000000E+00   0.0000000E+00   0.0000000E+00   0.0000000E+00   0.0000000E+00   0.0000000E+00   0.0000000E+00   0.0000000E+00   0.0000000E+00   0.0000000E+00   0.0000000E+00   0.0000000E+00   0.0000000E+00   0.0000000E+00   0.0000000E+00   0.0000000E+00   0.0000000E+00   0.0000000E+00   0.0000000E+00   0.0000000E+00   0.0000000E+00   0.0000000E+00   0.0000000E+00   0.0000000E+00   0.0000000E+00   0.0000000E+00   0.0000000E+00   0.0000000E+00   0.0000000E+00   0.0000000E+00   0.0000000E+00   0.0000000E+00   0.0000000E+00   0.0000000E+00   0.0000000E+00   0.0000000E+00   0.0000000E+00   0.0000000E+00   0.0000000E+00   0.0000000E+00   0.0000000E+00   0.0000000E+00   0.0000000E+00   0.0000000E+00   0.0000000E+00   0.0000000E+00   0.0000000E+00   0.0000000E+00   0.0000000E+00   0.0000000E+00   0.0000000E+00   0.0000000E+00   0.0000000E+00   0.0000000E+00   0.0000000E+00   0.0000000E+00   0.0000000E+00   0.0000000E+00   0.0000000E+00   0.0000000E+00   0.0000000E+00   0.0000000E+00   0.0000000E+00   0.0000000E+00   0.0000000E+00   0.0000000E+00   0.0000000E+00   0.0000000E+00   0.0000000E+00   0.0000000E+00   0.0000000E+00   0.0000000E+00   0.0000000E+00   0.0000000E+00   0.0000000E+00   0.0000000E+00   0.0000000E+00   0.0000000E+00   0.0000000E+00   0.0000000E+00   0.0000000E+00   0.0000000E+00   0.0000000E+00   0.0000000E+00   0.0000000E+00   0.0000000E+00   0.0000000E+00   0.0000000E+00   0.0000000E+00   0.0000000E+00   0.0000000E+00   0.0000000E+00   0.0000000E+00   0.0000000E+00   0.0000000E+00   0.0000000E+00   0.0000000E+00   0.0000000E+00   0.0000000E+00   0.0000000E+00   0.0000000E+00   0.0000000E+00   0.0000000E+00   0.0000000E+00   0.0000000E+00   0.0000000E+00   0.0000000E+00   0.0000000E+00   0.0000000E+00   0.0000000E+00   0.0000000E+00   0.0000000E+00   0.0000000E+00   0.0000000E+00   0.0000000E+00   0.0000000E+00   0.0000000E+00   0.0000000E+00   0.0000000E+00   0.0000000E+00   0.0000000E+00   0.0000000E+00   0.0000000E+00   0.0000000E+00   0.0000000E+00   0.0000000E+00   0.0000000E+00   0.0000000E+00   0.0000000E+00   0.0000000E+00   0.0000000E+00   0.0000000E+00   0.0000000E+00   0.0000000E+00   0.0000000E+00   0.0000000E+00   0.0000000E+00   0.0000000E+00   0.0000000E+00   0.0000000E+00   0.0000000E+00   0.0000000E+00   0.0000000E+00   0.0000000E+00   0.0000000E+00   0.0000000E+00   0.0000000E+00   0.0000000E+00   0.0000000E+00   0.0000000E+00   0.0000000E+00   0.0000000E+00   0.0000000E+00   0.0000000E+00   0.0000000E+00   0.0000000E+00   0.0000000E+00   0.0000000E+00   0.0000000E+00   0.0000000E+00   0.0000000E+00   0.0000000E+00   0.0000000E+00   0.0000000E+00   0.0000000E+00   0.0000000E+00   0.0000000E+00   0.0000000E+00   0.0000000E+00   0.0000000E+00   0.0000000E+00   0.0000000E+00   0.0000000E+00   0.0000000E+00   0.0000000E+00   0.0000000E+00   0.0000000E+00   0.0000000E+00   0.0000000E+00   0.0000000E+00   0.0000000E+00   0.0000000E+00   0.0000000E+00   0.0000000E+00   0.0000000E+00   0.0000000E+00   0.0000000E+00   0.0000000E+00   0.0000000E+00   0.0000000E+00   0.0000000E+00   0.0000000E+00   0.0000000E+00   0.0000000E+00   0.0000000E+00   0.0000000E+00   0.0000000E+00   0.0000000E+00   0.0000000E+00   0.0000000E+00   0.0000000E+00   0.0000000E+00   0.0000000E+00   0.0000000E+00   0.0000000E+00   0.0000000E+00   0.0000000E+00   0.0000000E+00   0.0000000E+00   0.0000000E+00   0.0000000E+00   0.0000000E+00   0.0000000E+00   0.0000000E+00   0.0000000E+00   0.0000000E+00   0.0000000E+00   0.0000000E+00   0.0000000E+00   0.0000000E+00   0.0000000E+00   0.0000000E+00   0.0000000E+00   0.0000000E+00   0.0000000E+00   0.0000000E+00   0.0000000E+00   0.0000000E+00   0.0000000E+00   0.0000000E+00   0.0000000E+00   0.0000000E+00   0.0000000E+00   0.0000000E+00   0.0000000E+00   0.0000000E+00   0.0000000E+00   0.0000000E+00   0.0000000E+00   0.0000000E+00   0.0000000E+00   0.0000000E+00   0.0000000E+00   0.0000000E+00   0.0000000E+00   0.0000000E+00   0.0000000E+00   0.0000000E+00   0.0000000E+00   0.0000000E+00   0.0000000E+00   0.0000000E+00   0.0000000E+00   0.0000000E+00   0.0000000E+00   0.0000000E+00   0.0000000E+00   0.0000000E+00   0.0000000E+00   0.0000000E+00   0.0000000E+00   0.0000000E+00   0.0000000E+00   0.0000000E+00   0.0000000E+00   0.0000000E+00   0.0000000E+00   0.0000000E+00   0.0000000E+00   0.0000000E+00   0.0000000E+00   0.0000000E+00   0.0000000E+00   0.0000000E+00   0.0000000E+00   0.0000000E+00   0.0000000E+00   0.0000000E+00   0.0000000E+00   0.0000000E+00   0.0000000E+00   0.0000000E+00   0.0000000E+00   0.0000000E+00   0.0000000E+00   0.0000000E+00   0.0000000E+00   0.0000000E+00   0.0000000E+00   0.0000000E+00   0.0000000E+00   0.0000000E+00   0.0000000E+00   0.0000000E+00   0.0000000E+00   0.0000000E+00   0.0000000E+00   0.0000000E+00   0.0000000E+00   0.0000000E+00   0.0000000E+00   0.0000000E+00   0.0000000E+00   0.0000000E+00   0.0000000E+00   0.0000000E+00   0.0000000E+00   0.0000000E+00   0.0000000E+00   0.0000000E+00   0.0000000E+00   0.0000000E+00   0.0000000E+00   0.0000000E+00   0.0000000E+00   0.0000000E+00   0.0000000E+00   0.0000000E+00   0.0000000E+00   0.0000000E+00   0.0000000E+00   0.0000000E+00   0.0000000E+00   0.0000000E+00   0.0000000E+00   0.0000000E+00   0.0000000E+00   0.0000000E+00   0.0000000E+00   0.0000000E+00   0.0000000E+00   0.0000000E+00   0.0000000E+00   0.0000000E+00   0.0000000E+00   0.0000000E+00   0.0000000E+00   0.0000000E+00   0.0000000E+00   0.0000000E+00   0.0000000E+00   0.0000000E+00   0.0000000E+00   0.0000000E+00   0.0000000E+00   0.0000000E+00   0.0000000E+00   0.0000000E+00   0.0000000E+00   0.0000000E+00   0.0000000E+00   0.0000000E+00   0.0000000E+00   0.0000000E+00   0.0000000E+00   0.0000000E+00   0.0000000E+00   0.0000000E+00   0.0000000E+00   0.0000000E+00   0.0000000E+00   0.0000000E+00   0.0000000E+00   0.0000000E+00   0.0000000E+00   0.0000000E+00   0.0000000E+00   0.0000000E+00   0.0000000E+00   0.0000000E+00   0.0000000E+00   0.0000000E+00   0.0000000E+00   0.0000000E+00   0.0000000E+00   0.0000000E+00   0.0000000E+00   0.0000000E+00   0.0000000E+00   0.0000000E+00   0.0000000E+00   0.0000000E+00   0.0000000E+00   0.0000000E+00   0.0000000E+00   0.0000000E+00   0.0000000E+00   0.0000000E+00   0.0000000E+00   0.0000000E+00   0.0000000E+00   0.0000000E+00   0.0000000E+00   0.0000000E+00   0.0000000E+00   0.0000000E+00   0.0000000E+00   0.0000000E+00   0.0000000E+00   0.0000000E+00   0.0000000E+00   0.0000000E+00   0.0000000E+00   0.0000000E+00   0.0000000E+00   0.0000000E+00   0.0000000E+00   0.0000000E+00   0.0000000E+00   0.0000000E+00   0.0000000E+00   0.0000000E+00   0.0000000E+00   0.0000000E+00   0.0000000E+00   0.0000000E+00   0.0000000E+00   0.0000000E+00   0.0000000E+00   0.0000000E+00   0.0000000E+00   0.0000000E+00   0.0000000E+00   0.0000000E+00   0.0000000E+00   0.0000000E+00   0.0000000E+00   0.0000000E+00   0.0000000E+00   0.0000000E+00   0.0000000E+00   0.0000000E+00   0.0000000E+00   0.0000000E+00   0.0000000E+00   0.0000000E+00   0.0000000E+00   0.0000000E+00   0.0000000E+00   0.0000000E+00   0.0000000E+00   0.0000000E+00   0.0000000E+00   0.0000000E+00   0.0000000E+00   0.0000000E+00   0.0000000E+00   0.0000000E+00   0.0000000E+00   0.0000000E+00   0.0000000E+00   0.0000000E+00   0.0000000E+00   0.0000000E+00   0.0000000E+00   0.0000000E+00   0.0000000E+00   0.0000000E+00   0.0000000E+00   0.0000000E+00   0.0000000E+00   0.0000000E+00   0.0000000E+00   0.0000000E+00   0.0000000E+00   0.0000000E+00   0.0000000E+00   0.0000000E+00   0.0000000E+00   0.0000000E+00   0.0000000E+00   0.0000000E+00   0.0000000E+00   0.0000000E+00   0.0000000E+00   0.0000000E+00   0.0000000E+00   0.0000000E+00   0.0000000E+00   0.0000000E+00   0.0000000E+00   0.0000000E+00   0.0000000E+00   0.0000000E+00   0.0000000E+00   0.0000000E+00   0.0000000E+00   0.0000000E+00   0.0000000E+00   0.0000000E+00   0.0000000E+00   0.0000000E+00   0.0000000E+00   0.0000000E+00   0.0000000E+00   0.0000000E+00   0.0000000E+00   0.0000000E+00   0.0000000E+00   0.0000000E+00   0.0000000E+00   0.0000000E+00   0.0000000E+00   0.0000000E+00   0.0000000E+00   0.0000000E+00   0.0000000E+00   0.0000000E+00   0.0000000E+00   0.0000000E+00   0.0000000E+00   0.0000000E+00   0.0000000E+00   0.0000000E+00   0.0000000E+00   0.0000000E+00   0.0000000E+00   0.0000000E+00   0.0000000E+00   0.0000000E+00   0.0000000E+00   0.0000000E+00   0.0000000E+00   0.0000000E+00   0.0000000E+00   0.0000000E+00   0.0000000E+00   0.0000000E+00   0.0000000E+00   0.0000000E+00   0.0000000E+00   0.0000000E+00   0.0000000E+00   0.0000000E+00   0.0000000E+00   0.0000000E+00   0.0000000E+00   0.0000000E+00   0.0000000E+00   0.0000000E+00   0.0000000E+00   0.0000000E+00   0.0000000E+00   0.0000000E+00   0.0000000E+00   0.0000000E+00   0.0000000E+00   0.0000000E+00   0.0000000E+00   0.0000000E+00   0.0000000E+00   0.0000000E+00   0.0000000E+00   0.0000000E+00   0.0000000E+00   0.0000000E+00   0.0000000E+00   0.0000000E+00   0.0000000E+00   0.0000000E+00   0.0000000E+00   0.0000000E+00   0.0000000E+00   0.0000000E+00   0.0000000E+00   0.0000000E+00   0.0000000E+00   0.0000000E+00   0.0000000E+00   0.0000000E+00   0.0000000E+00   0.0000000E+00   0.0000000E+00   0.0000000E+00   0.0000000E+00   0.0000000E+00   0.0000000E+00   0.0000000E+00   0.0000000E+00   0.0000000E+00   0.0000000E+00   0.0000000E+00   0.0000000E+00   0.0000000E+00   0.0000000E+00   0.0000000E+00   0.0000000E+00   0.0000000E+00   0.0000000E+00   0.0000000E+00   0.0000000E+00   0.0000000E+00   0.0000000E+00   0.0000000E+00   0.0000000E+00   0.0000000E+00   0.0000000E+00   0.0000000E+00   0.0000000E+00   0.0000000E+00   0.0000000E+00   0.0000000E+00   0.0000000E+00   0.0000000E+00   0.0000000E+00   0.0000000E+00   0.0000000E+00   0.0000000E+00   0.0000000E+00   0.0000000E+00   0.0000000E+00   0.0000000E+00   0.0000000E+00   0.0000000E+00   0.0000000E+00   0.0000000E+00   0.0000000E+00   0.0000000E+00   0.0000000E+00   0.0000000E+00   0.0000000E+00   0.0000000E+00   0.0000000E+00   0.0000000E+00   0.0000000E+00   0.0000000E+00   0.0000000E+00   0.0000000E+00   0.0000000E+00   0.0000000E+00   0.0000000E+00   0.0000000E+00   0.0000000E+00   0.0000000E+00   0.0000000E+00   0.0000000E+00   0.0000000E+00   0.0000000E+00   0.0000000E+00   0.0000000E+00   0.0000000E+00   0.0000000E+00   0.0000000E+00   0.0000000E+00   0.0000000E+00   0.0000000E+00   0.0000000E+00   0.0000000E+00   0.0000000E+00   0.0000000E+00   0.0000000E+00   0.0000000E+00   0.0000000E+00   0.0000000E+00   0.0000000E+00   0.0000000E+00   0.0000000E+00   0.0000000E+00   0.0000000E+00   0.0000000E+00   0.0000000E+00   0.0000000E+00   0.0000000E+00   0.0000000E+00   0.0000000E+00   0.0000000E+00   0.0000000E+00   0.0000000E+00   0.0000000E+00   0.0000000E+00   0.0000000E+00   0.0000000E+00   0.0000000E+00   0.0000000E+00   0.0000000E+00   0.0000000E+00   0.0000000E+00   0.0000000E+00   0.0000000E+00   0.0000000E+00   0.0000000E+00   0.0000000E+00   0.0000000E+00   0.0000000E+00   0.0000000E+00   0.0000000E+00   0.0000000E+00   0.0000000E+00   0.0000000E+00   0.0000000E+00   0.0000000E+00   0.0000000E+00   0.0000000E+00   0.0000000E+00   0.0000000E+00   0.0000000E+00   0.0000000E+00   0.0000000E+00   0.0000000E+00   0.0000000E+00   0.0000000E+00   0.0000000E+00   0.0000000E+00   0.0000000E+00   0.0000000E+00   0.0000000E+00   0.0000000E+00   0.0000000E+00   0.0000000E+00   0.0000000E+00   0.0000000E+00   0.0000000E+00   0.0000000E+00   0.0000000E+00   0.0000000E+00   0.0000000E+00   0.0000000E+00   0.0000000E+00   0.0000000E+00   0.0000000E+00   0.0000000E+00   0.0000000E+00   0.0000000E+00   0.0000000E+00   0.0000000E+00   0.0000000E+00   0.0000000E+00   0.0000000E+00   0.0000000E+00   0.0000000E+00   0.0000000E+00   0.0000000E+00   0.0000000E+00   0.0000000E+00   0.0000000E+00   0.0000000E+00   0.0000000E+00   0.0000000E+00   0.0000000E+00   0.0000000E+00   0.0000000E+00   0.0000000E+00   0.0000000E+00   0.0000000E+00   0.0000000E+00   0.0000000E+00   0.0000000E+00   0.0000000E+00   0.0000000E+00   0.0000000E+00   0.0000000E+00   0.0000000E+00   0.0000000E+00   0.0000000E+00   0.0000000E+00   0.0000000E+00   0.0000000E+00   0.0000000E+00   0.0000000E+00   0.0000000E+00   0.0000000E+00   0.0000000E+00   0.0000000E+00   0.0000000E+00   0.0000000E+00   0.0000000E+00   0.0000000E+00   0.0000000E+00   0.0000000E+00   0.0000000E+00   0.0000000E+00   0.0000000E+00   0.0000000E+00   0.0000000E+00   0.0000000E+00   0.0000000E+00   0.0000000E+00   0.0000000E+00   0.0000000E+00   0.0000000E+00   0.0000000E+00   0.0000000E+00   0.0000000E+00   0.0000000E+00   0.0000000E+00   0.0000000E+00   0.0000000E+00   0.0000000E+00   0.0000000E+00   0.0000000E+00   0.0000000E+00   0.0000000E+00   0.0000000E+00   0.0000000E+00   0.0000000E+00   0.0000000E+00   0.0000000E+00   0.0000000E+00   0.0000000E+00   0.0000000E+00   0.0000000E+00   0.0000000E+00   0.0000000E+00   0.0000000E+00   0.0000000E+00   0.0000000E+00   0.0000000E+00   0.0000000E+00   0.0000000E+00   0.0000000E+00   0.0000000E+00   0.0000000E+00   0.0000000E+00   0.0000000E+00   0.0000000E+00   0.0000000E+00   0.0000000E+00   0.0000000E+00   0.0000000E+00   0.0000000E+00   0.0000000E+00   0.0000000E+00   0.0000000E+00   0.0000000E+00   0.0000000E+00   0.0000000E+00   0.0000000E+00   0.0000000E+00   0.0000000E+00   0.0000000E+00   0.0000000E+00   0.0000000E+00   0.0000000E+00   0.0000000E+00   0.0000000E+00   0.0000000E+00   0.0000000E+00   0.0000000E+00   0.0000000E+00   0.0000000E+00   0.0000000E+00   0.0000000E+00   0.0000000E+00   0.0000000E+00   0.0000000E+00   0.0000000E+00   0.0000000E+00   0.0000000E+00   0.0000000E+00   0.0000000E+00   0.0000000E+00   0.0000000E+00   0.0000000E+00   0.0000000E+00   0.0000000E+00   0.0000000E+00   0.0000000E+00   0.0000000E+00   0.0000000E+00   0.0000000E+00   0.0000000E+00   0.0000000E+00   0.0000000E+00   0.0000000E+00   0.0000000E+00   0.0000000E+00   0.0000000E+00   0.0000000E+00   0.0000000E+00   0.0000000E+00   0.0000000E+00   0.0000000E+00   0.0000000E+00   0.0000000E+00   0.0000000E+00   0.0000000E+00   0.0000000E+00   0.0000000E+00   0.0000000E+00   0.0000000E+00   0.0000000E+00   0.0000000E+00   0.0000000E+00   0.0000000E+00   0.0000000E+00   0.0000000E+00   0.0000000E+00   0.0000000E+00   0.0000000E+00   0.0000000E+00   0.0000000E+00   0.0000000E+00   0.0000000E+00   0.0000000E+00   0.0000000E+00   0.0000000E+00   0.0000000E+00   0.0000000E+00   0.0000000E+00   0.0000000E+00   0.0000000E+00   0.0000000E+00   0.0000000E+00   0.0000000E+00   0.0000000E+00   0.0000000E+00   0.0000000E+00   0.0000000E+00   0.0000000E+00   0.0000000E+00   0.0000000E+00   0.0000000E+00   0.0000000E+00   0.0000000E+00   0.0000000E+00   0.0000000E+00   0.0000000E+00   0.0000000E+00   0.0000000E+00   0.0000000E+00   0.0000000E+00   0.0000000E+00   0.0000000E+00   0.0000000E+00   0.0000000E+00   0.0000000E+00   0.0000000E+00   0.0000000E+00   0.0000000E+00   0.0000000E+00   0.0000000E+00   0.0000000E+00   0.0000000E+00   0.0000000E+00   0.0000000E+00   0.0000000E+00   0.0000000E+00   0.0000000E+00   0.0000000E+00   0.0000000E+00   0.0000000E+00   0.0000000E+00   0.0000000E+00   0.0000000E+00   0.0000000E+00   0.0000000E+00   0.0000000E+00   0.0000000E+00   0.0000000E+00   0.0000000E+00   0.0000000E+00   0.0000000E+00   0.0000000E+00   0.0000000E+00   0.0000000E+00   0.0000000E+00   0.0000000E+00   0.0000000E+00   0.0000000E+00   0.0000000E+00   0.0000000E+00   0.0000000E+00   0.0000000E+00   0.0000000E+00   0.0000000E+00   0.0000000E+00   0.0000000E+00   0.0000000E+00   0.0000000E+00   0.0000000E+00   0.0000000E+00   0.0000000E+00   0.0000000E+00   0.0000000E+00   0.0000000E+00   0.0000000E+00   0.0000000E+00   0.0000000E+00   0.0000000E+00   0.0000000E+00   0.0000000E+00   0.0000000E+00   0.0000000E+00   0.0000000E+00   0.0000000E+00   0.0000000E+00   0.0000000E+00   0.0000000E+00   0.0000000E+00   0.0000000E+00   0.0000000E+00   0.0000000E+00   0.0000000E+00   0.0000000E+00   0.0000000E+00   0.0000000E+00   0.0000000E+00   0.0000000E+00   0.0000000E+00   0.0000000E+00   0.0000000E+00   0.0000000E+00   0.0000000E+00   0.0000000E+00   0.0000000E+00   0.0000000E+00   0.0000000E+00   0.0000000E+00   0.0000000E+00   0.0000000E+00   0.0000000E+00   0.0000000E+00   0.0000000E+00   0.0000000E+00   0.0000000E+00   0.0000000E+00   0.0000000E+00   0.0000000E+00   0.0000000E+00   0.0000000E+00   0.0000000E+00   0.0000000E+00   0.0000000E+00   0.0000000E+00   0.0000000E+00   0.0000000E+00   0.0000000E+00   0.0000000E+00   0.0000000E+00   0.0000000E+00   0.0000000E+00   0.0000000E+00   0.0000000E+00   0.0000000E+00   0.0000000E+00   0.0000000E+00   0.0000000E+00   0.0000000E+00   0.0000000E+00   0.0000000E+00   0.0000000E+00   0.0000000E+00   0.0000000E+00   0.0000000E+00   0.0000000E+00   0.0000000E+00   0.0000000E+00   0.0000000E+00   0.0000000E+00   0.0000000E+00   0.0000000E+00   0.0000000E+00   0.0000000E+00   0.0000000E+00   0.0000000E+00   0.0000000E+00   0.0000000E+00   0.0000000E+00   0.0000000E+00   0.0000000E+00   0.0000000E+00   0.0000000E+00   0.0000000E+00   0.0000000E+00   0.0000000E+00   0.0000000E+00   0.0000000E+00   0.0000000E+00   0.0000000E+00   0.0000000E+00   0.0000000E+00   0.0000000E+00   0.0000000E+00   0.0000000E+00   0.0000000E+00   0.0000000E+00   0.0000000E+00   0.0000000E+00   0.0000000E+00   0.0000000E+00   0.0000000E+00   0.0000000E+00   0.0000000E+00   0.0000000E+00   0.0000000E+00   0.0000000E+00   0.0000000E+00   0.0000000E+00   0.0000000E+00   0.0000000E+00   0.0000000E+00   0.0000000E+00   0.0000000E+00   0.0000000E+00   0.0000000E+00   0.0000000E+00   0.0000000E+00   0.0000000E+00   0.0000000E+00   0.0000000E+00   0.0000000E+00   0.0000000E+00   0.0000000E+00   0.0000000E+00   0.0000000E+00   0.0000000E+00   0.0000000E+00   0.0000000E+00   0.0000000E+00   0.0000000E+00   0.0000000E+00   0.0000000E+00   0.0000000E+00   0.0000000E+00   0.0000000E+00   0.0000000E+00   0.0000000E+00   0.0000000E+00   0.0000000E+00   0.0000000E+00   0.0000000E+00   0.0000000E+00   0.0000000E+00   0.0000000E+00   0.0000000E+00   0.0000000E+00   0.0000000E+00   0.0000000E+00   0.0000000E+00   0.0000000E+00   0.0000000E+00   0.0000000E+00   0.0000000E+00   0.0000000E+00   0.0000000E+00   0.0000000E+00   0.0000000E+00   0.0000000E+00   0.0000000E+00   0.0000000E+00   0.0000000E+00   0.0000000E+00   0.0000000E+00   0.0000000E+00   0.0000000E+00   0.0000000E+00   0.0000000E+00   0.0000000E+00   0.0000000E+00   0.0000000E+00   0.0000000E+00   0.0000000E+00   0.0000000E+00   0.0000000E+00   0.0000000E+00   0.0000000E+00   0.0000000E+00   0.0000000E+00   0.0000000E+00   0.0000000E+00   0.0000000E+00   0.0000000E+00   0.0000000E+00   0.0000000E+00   0.0000000E+00   0.0000000E+00   0.0000000E+00   0.0000000E+00   0.0000000E+00   0.0000000E+00   0.0000000E+00   0.0000000E+00   0.0000000E+00   0.0000000E+00   0.0000000E+00   0.0000000E+00   0.0000000E+00   0.0000000E+00   0.0000000E+00   0.0000000E+00   0.0000000E+00   0.0000000E+00   0.0000000E+00   0.0000000E+00   0.0000000E+00   0.0000000E+00   0.0000000E+00   0.0000000E+00   0.0000000E+00   0.0000000E+00   0.0000000E+00   0.0000000E+00   0.0000000E+00   0.0000000E+00   0.0000000E+00   0.0000000E+00   0.0000000E+00   0.0000000E+00   0.0000000E+00   0.0000000E+00   0.0000000E+00   0.0000000E+00   0.0000000E+00   0.0000000E+00   0.0000000E+00   0.0000000E+00   0.0000000E+00   0.0000000E+00   0.0000000E+00   0.0000000E+00   0.0000000E+00   0.0000000E+00   0.0000000E+00   0.0000000E+00   0.0000000E+00   0.0000000E+00   0.0000000E+00   0.0000000E+00   0.0000000E+00   0.0000000E+00   0.0000000E+00   0.0000000E+00   0.0000000E+00   0.0000000E+00   0.0000000E+00   0.0000000E+00   0.0000000E+00   0.0000000E+00   0.0000000E+00   0.0000000E+00   0.0000000E+00   0.0000000E+00   0.0000000E+00   0.0000000E+00   0.0000000E+00   0.0000000E+00   0.0000000E+00   0.0000000E+00   0.0000000E+00   0.0000000E+00   0.0000000E+00   0.0000000E+00   0.0000000E+00   0.0000000E+00   0.0000000E+00   0.0000000E+00   0.0000000E+00   0.0000000E+00   0.0000000E+00   0.0000000E+00   0.0000000E+00   0.0000000E+00   0.0000000E+00   0.0000000E+00   0.0000000E+00   0.0000000E+00   0.0000000E+00   0.0000000E+00   0.0000000E+00   0.0000000E+00   0.0000000E+00   0.0000000E+00   0.0000000E+00   0.0000000E+00   0.0000000E+00   0.0000000E+00   0.0000000E+00   0.0000000E+00   0.0000000E+00   0.0000000E+00   0.0000000E+00   0.0000000E+00   0.0000000E+00   0.0000000E+00   0.0000000E+00   0.0000000E+00   0.0000000E+00   0.0000000E+00   0.0000000E+00   0.0000000E+00   0.0000000E+00   0.0000000E+00   0.0000000E+00   0.0000000E+00   0.0000000E+00   0.0000000E+00   0.0000000E+00   0.0000000E+00   0.0000000E+00   0.0000000E+00   0.0000000E+00   0.0000000E+00   0.0000000E+00   0.0000000E+00   0.0000000E+00   0.0000000E+00   0.0000000E+00   0.0000000E+00   0.0000000E+00   0.0000000E+00   0.0000000E+00   0.0000000E+00   0.0000000E+00   0.0000000E+00   0.0000000E+00   0.0000000E+00   0.0000000E+00   0.0000000E+00   0.0000000E+00   0.0000000E+00   0.0000000E+00   0.0000000E+00   0.0000000E+00   0.0000000E+00   0.0000000E+00   0.0000000E+00   0.0000000E+00   0.0000000E+00   0.0000000E+00   0.0000000E+00   0.0000000E+00   0.0000000E+00   0.0000000E+00   0.0000000E+00   0.0000000E+00   0.0000000E+00   0.0000000E+00   0.0000000E+00   0.0000000E+00   0.0000000E+00   0.0000000E+00   0.0000000E+00   0.0000000E+00   0.0000000E+00   0.0000000E+00   0.0000000E+00   0.0000000E+00   0.0000000E+00   0.0000000E+00   0.0000000E+00   0.0000000E+00   0.0000000E+00   0.0000000E+00   0.0000000E+00   0.0000000E+00   0.0000000E+00   0.0000000E+00   0.0000000E+00   0.0000000E+00   0.0000000E+00   0.0000000E+00   0.0000000E+00   0.0000000E+00   0.0000000E+00   0.0000000E+00   0.0000000E+00   0.0000000E+00   0.0000000E+00   0.0000000E+00   0.0000000E+00   0.0000000E+00   0.0000000E+00   0.0000000E+00   0.0000000E+00   0.0000000E+00   0.0000000E+00   0.0000000E+00   0.0000000E+00   0.0000000E+00   0.0000000E+00   0.0000000E+00   0.0000000E+00   0.0000000E+00   0.0000000E+00   0.0000000E+00   0.0000000E+00   0.0000000E+00   0.0000000E+00   0.0000000E+00   0.0000000E+00   0.0000000E+00   0.0000000E+00   0.0000000E+00   0.0000000E+00   0.0000000E+00   0.0000000E+00   0.0000000E+00   0.0000000E+00   0.0000000E+00  -3.8078204E-02   0.0000000E+00  -3.1366269E-03  -4.7870964E-02   0.0000000E+00  -1.4479669E-03  -5.6317292E-02   0.0000000E+00   2.6425475E-04  -6.3008428E-02   0.0000000E+00   1.5940490E-03  -6.7949787E-02   0.0000000E+00   2.3932306E-03  -3.3873774E-02   0.0000000E+00  -5.4203579E-03  -4.5876730E-02   0.0000000E+00  -3.9585121E-03  -5.7260655E-02   0.0000000E+00  -1.7510192E-03  -6.6975884E-02   0.0000000E+00   4.3402100E-04  -7.4568070E-02   0.0000000E+00   2.1137914E-03  -8.0079287E-02   0.0000000E+00   3.1187495E-03  -3.9138101E-02   0.0000000E+00  -6.4516403E-03  -5.2765775E-02   0.0000000E+00  -4.5613078E-03  -6.5515324E-02   0.0000000E+00  -1.9257665E-03  -7.6201886E-02   0.0000000E+00   6.1906595E-04  -8.4377624E-02   0.0000000E+00   2.5496786E-03  -9.0162933E-02   0.0000000E+00   3.6926630E-03  -4.4435911E-02   0.0000000E+00  -7.1260408E-03  -5.9648573E-02   0.0000000E+00  -4.9054055E-03  -7.3672302E-02   0.0000000E+00  -1.9618229E-03  -8.5179865E-02   0.0000000E+00   8.0620544E-04  -9.3749374E-02   0.0000000E+00   2.8645755E-03  -9.9615164E-02   0.0000000E+00   4.0584202E-03  -5.0826475E-02   0.0000000E+00  -7.4636680E-03  -6.7630634E-02   0.0000000E+00  -5.0068581E-03  -8.2847528E-02   0.0000000E+00  -1.8770564E-03  -9.5077008E-02   0.0000000E+00   9.8064146E-04  -1.0394080E-01   0.0000000E+00   3.0500661E-03  -1.0977568E-01   0.0000000E+00   4.2150244E-03  -6.0215052E-02   0.0000000E+00  -7.5731985E-03  -7.8432411E-02   0.0000000E+00  -4.9467492E-03  -9.4438344E-02   0.0000000E+00  -1.7152920E-03  -1.0699980E-01   0.0000000E+00   1.1276910E-03  -1.1591867E-01   0.0000000E+00   3.1164954E-03  -1.2161723E-01   0.0000000E+00   4.1991258E-03  -7.5443022E-02   0.0000000E+00  -7.6107495E-03  -9.4523609E-02   0.0000000E+00  -4.8553478E-03  -1.1021999E-01   0.0000000E+00  -1.5277697E-03  -1.2211750E-01   0.0000000E+00   1.2661449E-03  -1.3041942E-01   0.0000000E+00   3.1251118E-03  -1.3565639E-01   0.0000000E+00   4.0950538E-03  -1.0013759E-01   0.0000000E+00  -7.7310028E-03  -1.1868235E-01   0.0000000E+00  -4.8957234E-03  -1.3197775E-01   0.0000000E+00  -1.3535663E-03  -1.4144036E-01   0.0000000E+00   1.4773225E-03  -1.4795151E-01   0.0000000E+00   3.2328572E-03  -1.5208997E-01   0.0000000E+00   4.0814043E-03  -1.3772143E-01   0.0000000E+00  -8.1549771E-03  -1.5280716E-01   0.0000000E+00  -5.2316748E-03  -1.6060083E-01   0.0000000E+00  -1.1694045E-03  -1.6536495E-01   0.0000000E+00   1.9438674E-03  -1.6868012E-01   0.0000000E+00   3.7180719E-03  -1.7094401E-01   0.0000000E+00   4.4564893E-03  -1.8847342E-01   0.0000000E+00  -9.9426862E-03  -1.9561860E-01   0.0000000E+00  -6.1157108E-03  -1.9488832E-01   0.0000000E+00  -8.4283110E-04  -1.9320303E-01   0.0000000E+00   3.0133941E-03  -1.9235131E-01   0.0000000E+00   4.9951137E-03  -1.9220145E-01   0.0000000E+00   5.6282002E-03  -2.4460958E-01   0.0000000E+00  -1.5299139E-02  -2.4077003E-01   0.0000000E+00  -8.0523379E-03  -2.3100954E-01   0.0000000E+00  -1.3977801E-04  -2.2304167E-01   0.0000000E+00   5.2212314E-03  -2.1820287E-01   0.0000000E+00   7.5995242E-03  -2.1567939E-01   0.0000000E+00   8.0671012E-03  -2.8875011E-01   0.0000000E+00  -1.8116517E-02  -2.7928486E-01   0.0000000E+00  -9.3844915E-03  -2.6431990E-01   0.0000000E+00   1.9451929E-03  -2.5266367E-01   0.0000000E+00   9.2941420E-03  -2.4528836E-01   0.0000000E+00   1.2043443E-02  -2.4106133E-01   0.0000000E+00   1.2167722E-02  -3.1687546E-01   0.0000000E+00   9.0558156E-03  -3.0775201E-01   0.0000000E+00   3.2953378E-03  -2.9299349E-01   0.0000000E+00   9.4709266E-03  -2.8105399E-01   0.0000000E+00   1.6279908E-02  -2.7307296E-01   0.0000000E+00   1.8631527E-02  -2.6811260E-01   0.0000000E+00   1.8047217E-02  -3.3883029E-01   0.0000000E+00   4.1378543E-02  -3.3065742E-01   0.0000000E+00   2.7663186E-02  -3.1872267E-01   0.0000000E+00   2.4024241E-02  -3.0873123E-01   0.0000000E+00   2.6479091E-02  -3.0161405E-01   0.0000000E+00   2.7088929E-02  -2.9676017E-01   0.0000000E+00   2.5381807E-02  -3.5934994E-01   0.0000000E+00   6.1085582E-02  -3.5255474E-01   0.0000000E+00   4.8492905E-02  -3.4406868E-01   0.0000000E+00   4.0136229E-02  -3.3681324E-01   0.0000000E+00   3.8111471E-02  -3.3125463E-01   0.0000000E+00   3.6361944E-02  -3.2701674E-01   0.0000000E+00   3.3476450E-02  -3.8057384E-01   0.0000000E+00   7.0335612E-02  -3.7593269E-01   0.0000000E+00   6.1748613E-02  -3.7077260E-01   0.0000000E+00   5.3092480E-02  -3.6618707E-01   0.0000000E+00   4.8555419E-02  -3.6229730E-01   0.0000000E+00   4.5159988E-02  -3.5891733E-01   0.0000000E+00   4.1571382E-02  -4.0438312E-01   0.0000000E+00   7.3940769E-02  -4.0214798E-01   0.0000000E+00   6.8569727E-02  -3.9970368E-01   0.0000000E+00   6.1576597E-02  -3.9730424E-01   0.0000000E+00   5.6690093E-02  -3.9494166E-01   0.0000000E+00   5.2847836E-02  -3.9254206E-01   0.0000000E+00   4.9178325E-02  -4.3189359E-01   0.0000000E+00   7.5315632E-02  -4.3156642E-01   0.0000000E+00   7.1930058E-02  -4.3108714E-01   0.0000000E+00   6.6893853E-02  -4.3039852E-01   0.0000000E+00   6.2893286E-02  -4.2942020E-01   0.0000000E+00   5.9467364E-02  -4.2810676E-01   0.0000000E+00   5.6170508E-02  -4.6302402E-01   0.0000000E+00   7.7033274E-02  -4.6407071E-01   0.0000000E+00   7.4642822E-02  -4.6505851E-01   0.0000000E+00   7.0916794E-02  -4.6578982E-01   0.0000000E+00   6.8115771E-02  -4.6611369E-01   0.0000000E+00   6.5411672E-02  -4.6593907E-01   0.0000000E+00   6.2665857E-02  -4.9771461E-01   0.0000000E+00   8.0072038E-02  -4.9984932E-01   0.0000000E+00   7.7904373E-02  -5.0201505E-01   0.0000000E+00   7.4896336E-02  -5.0395077E-01   0.0000000E+00   7.3103577E-02  -5.0543791E-01   0.0000000E+00   7.1098112E-02  -5.0631350E-01   0.0000000E+00   6.8914741E-02  -5.3645337E-01   0.0000000E+00   8.4211603E-02  -5.3936678E-01   0.0000000E+00   8.2031079E-02  -5.4239315E-01   0.0000000E+00   7.9423167E-02  -5.4523951E-01   0.0000000E+00   7.8372240E-02  -5.4763812E-01   0.0000000E+00   7.6878823E-02  -5.4937297E-01   0.0000000E+00   7.5163715E-02  -5.7958966E-01   0.0000000E+00   8.9485496E-02  -5.8290690E-01   0.0000000E+00   8.7144315E-02  -5.8641016E-01   0.0000000E+00   8.4801808E-02  -5.8979446E-01   0.0000000E+00   8.4157817E-02  -5.9277397E-01   0.0000000E+00   8.2933076E-02  -5.9510469E-01   0.0000000E+00   8.1545457E-02  -6.2731016E-01   0.0000000E+00   9.5785655E-02  -6.3056123E-01   0.0000000E+00   9.3247168E-02  -6.3405782E-01   0.0000000E+00   9.1027461E-02  -6.3751078E-01   0.0000000E+00   9.0399347E-02  -6.4065200E-01   0.0000000E+00   8.9217566E-02  -6.4324927E-01   0.0000000E+00   8.8032424E-02  -6.7942154E-01   0.0000000E+00   1.0297268E-01  -6.8198144E-01   0.0000000E+00   1.0019893E-01  -6.8484062E-01   0.0000000E+00   9.7741067E-02  -6.8776250E-01   0.0000000E+00   9.6765265E-02  -6.9054496E-01   0.0000000E+00   9.5502935E-02  -6.9300675E-01   0.0000000E+00   9.4466485E-02  -7.3459554E-01   0.0000000E+00   1.1075693E-01  -7.3568267E-01   0.0000000E+00   1.0749608E-01  -7.3712766E-01   0.0000000E+00   1.0421785E-01  -7.3880196E-01   0.0000000E+00   1.0273369E-01  -7.4062413E-01   0.0000000E+00   1.0149095E-01  -7.4249649E-01   0.0000000E+00   1.0067320E-01  -7.8925061E-01   0.0000000E+00   1.1843797E-01  -7.8805357E-01   0.0000000E+00   1.1423190E-01  -7.8727752E-01   0.0000000E+00   1.0948963E-01  -7.8698796E-01   0.0000000E+00   1.0787255E-01  -7.8726453E-01   0.0000000E+00   1.0706867E-01  -7.8812343E-01   0.0000000E+00   1.0666753E-01  -8.3648670E-01   0.0000000E+00   1.2490442E-01  -8.3242905E-01   0.0000000E+00   1.1928749E-01  -8.2886237E-01   0.0000000E+00   1.1281189E-01  -8.2613134E-01   0.0000000E+00   1.1226347E-01  -8.2450891E-01   0.0000000E+00   1.1266500E-01  -8.2411718E-01   0.0000000E+00   1.1296109E-01  -8.6551207E-01   0.0000000E+00   1.2864301E-01  -8.5864794E-01   0.0000000E+00   1.2164663E-01  -8.5236615E-01   0.0000000E+00   1.1417654E-01  -8.4733009E-01   0.0000000E+00   1.1698470E-01  -8.4398514E-01   0.0000000E+00   1.1963239E-01  -8.4251690E-01   0.0000000E+00   1.2085199E-01  -8.6126012E-01   0.0000000E+00   1.2849668E-01  -8.5283935E-01   0.0000000E+00   1.2092946E-01  -8.4518850E-01   0.0000000E+00   1.1494173E-01  -8.3916551E-01   0.0000000E+00   1.2425273E-01  -8.3522528E-01   0.0000000E+00   1.3021682E-01  -8.3353049E-01   0.0000000E+00   1.3244446E-01  -8.0281347E-01   0.0000000E+00   1.2468772E-01  -7.9583186E-01   0.0000000E+00   1.1833002E-01  -7.9012758E-01   0.0000000E+00   1.1772214E-01  -7.8641379E-01   0.0000000E+00   1.3642392E-01  -7.8475410E-01   0.0000000E+00   1.4655489E-01  -7.8498644E-01   0.0000000E+00   1.5000360E-01  -6.6249895E-01   0.0000000E+00   1.2101056E-01  -6.6166800E-01   0.0000000E+00   1.1752155E-01  -6.6292179E-01   0.0000000E+00   1.2735605E-01  -6.6653156E-01   0.0000000E+00   1.5378301E-01  -6.7182744E-01   0.0000000E+00   1.6881134E-01  -6.7789084E-01   0.0000000E+00   1.7456105E-01  -4.0998074E-01   0.0000000E+00   1.2461193E-01  -4.2055255E-01   0.0000000E+00   1.2941135E-01  -4.3392015E-01   0.0000000E+00   1.4375590E-01  -4.4986579E-01   0.0000000E+00   1.7301482E-01  -4.6693444E-01   0.0000000E+00   1.9498649E-01  -4.8323694E-01   0.0000000E+00   2.0511699E-01  -2.4362296E-02   0.0000000E+00   1.4400245E-01  -5.0130773E-02   0.0000000E+00   1.5905653E-01  -7.8862064E-02   0.0000000E+00   1.7150222E-01  -1.0991240E-01   0.0000000E+00   1.9402000E-01  -1.4126755E-01   0.0000000E+00   2.2050732E-01  -1.7025530E-01   0.0000000E+00   2.3829515E-01   4.8742366E-01   0.0000000E+00   1.6367368E-01   4.4666693E-01   0.0000000E+00   2.0328780E-01   4.0337783E-01   0.0000000E+00   2.1070470E-01   3.5893312E-01   0.0000000E+00   2.2203529E-01   3.1542557E-01   0.0000000E+00   2.4343479E-01   2.7568999E-01   0.0000000E+00   2.6922268E-01   1.0728012E+00   0.0000000E+00   1.3602412E-01   1.0242232E+00   0.0000000E+00   2.1695258E-01   9.7348613E-01   0.0000000E+00   2.3299788E-01   9.2351955E-01   0.0000000E+00   2.4628715E-01   8.7602681E-01   0.0000000E+00   2.6121807E-01   8.3315474E-01   0.0000000E+00   2.9348129E-01   1.6283448E+00   0.0000000E+00   1.2315445E-01   1.5882311E+00   0.0000000E+00   2.0633097E-01   1.5453113E+00   0.0000000E+00   2.2449094E-01   1.5043824E+00   0.0000000E+00   2.6067081E-01   1.4667358E+00   0.0000000E+00   2.7674556E-01   1.4331092E+00   0.0000000E+00   3.1036705E-01   2.0252442E+00   0.0000000E+00   9.0935610E-02   2.0154116E+00   0.0000000E+00   1.6616666E-01   2.0021644E+00   0.0000000E+00   2.0729919E-01   1.9890852E+00   0.0000000E+00   2.5893372E-01   1.9776175E+00   0.0000000E+00   2.8599176E-01   1.9669058E+00   0.0000000E+00   3.2222459E-01   2.1934648E+00   0.0000000E+00   3.3327091E-02   2.2201242E+00   0.0000000E+00   1.2803605E-01   2.2486835E+00   0.0000000E+00   1.6709691E-01   2.2768242E+00   0.0000000E+00   2.2421952E-01   2.3022850E+00   0.0000000E+00   2.7097973E-01   2.3225641E+00   0.0000000E+00   3.2068598E-01   2.1717782E+00   0.0000000E+00  -4.9623968E-03   2.2274485E+00   0.0000000E+00   1.1342999E-01   2.2900407E+00   0.0000000E+00   1.4459158E-01   2.3531148E+00   0.0000000E+00   2.0280957E-01   2.4111090E+00   0.0000000E+00   2.6202217E-01   2.4593458E+00   0.0000000E+00   3.2047540E-01   2.0595446E+00   0.0000000E+00  -1.3877944E-02   2.1326237E+00   0.0000000E+00   1.1938860E-01   2.2147408E+00   0.0000000E+00   1.5908466E-01   2.2979481E+00   0.0000000E+00   2.0235699E-01   2.3750021E+00   0.0000000E+00   2.6448923E-01   2.4398842E+00   0.0000000E+00   3.2645714E-01   1.9506723E+00   0.0000000E+00  -7.9097711E-03   2.0298762E+00   0.0000000E+00   1.2552537E-01   2.1175010E+00   0.0000000E+00   1.8360722E-01   2.2058105E+00   0.0000000E+00   2.1791850E-01   2.2872040E+00   0.0000000E+00   2.7698794E-01   2.3552384E+00   0.0000000E+00   3.3730662E-01   1.8908730E+00   0.0000000E+00  -4.6349547E-04   1.9670827E+00   0.0000000E+00   1.2730590E-01   2.0497215E+00   0.0000000E+00   2.0118500E-01   2.1317825E+00   0.0000000E+00   2.4033159E-01   2.2058921E+00   0.0000000E+00   2.9335049E-01   2.2657440E+00   0.0000000E+00   3.4928510E-01   1.8700171E+00   0.0000000E+00   2.1136957E-03   1.9368411E+00   0.0000000E+00   1.2115343E-01   2.0078139E+00   0.0000000E+00   2.0424762E-01   2.0764730E+00   0.0000000E+00   2.5461689E-01   2.1357965E+00   0.0000000E+00   3.0570108E-01   2.1799843E+00   0.0000000E+00   3.5847756E-01   1.8433937E+00   0.0000000E+00   6.3621686E-03   1.8967590E+00   0.0000000E+00   1.1268294E-01   1.9519207E+00   0.0000000E+00   1.9834957E-01   2.0027802E+00   0.0000000E+00   2.5945696E-01   2.0428650E+00   0.0000000E+00   3.1118986E-01   2.0673225E+00   0.0000000E+00   3.6264396E-01   1.7658904E+00   0.0000000E+00   1.5885551E-02   1.8027580E+00   0.0000000E+00   1.0914568E-01   1.8387282E+00   0.0000000E+00   1.9206767E-01   1.8682121E+00   0.0000000E+00   2.5778070E-01   1.8858763E+00   0.0000000E+00   3.1052598E-01   1.8884480E+00   0.0000000E+00   3.6157909E-01   1.6197218E+00   0.0000000E+00   2.8419692E-02   1.6367334E+00   0.0000000E+00   1.1217257E-01   1.6496891E+00   0.0000000E+00   1.9070771E-01   1.6539482E+00   0.0000000E+00   2.5195313E-01   1.6460556E+00   0.0000000E+00   3.0507612E-01   1.6251700E+00   0.0000000E+00   3.5629946E-01   1.4199511E+00   0.0000000E+00   4.5829765E-02   1.4138271E+00   0.0000000E+00   1.2495194E-01   1.4000939E+00   0.0000000E+00   1.8941075E-01   1.3757149E+00   0.0000000E+00   2.4373940E-01   1.3398811E+00   0.0000000E+00   2.9595143E-01   1.2952130E+00   0.0000000E+00   3.4793425E-01   1.2001175E+00   0.0000000E+00   7.1308464E-02   1.1690838E+00   0.0000000E+00   1.4804953E-01   1.1270264E+00   0.0000000E+00   1.8810917E-01   1.0732483E+00   0.0000000E+00   2.3276560E-01   1.0107177E+00   0.0000000E+00   2.8678030E-01   9.4543576E-01   0.0000000E+00   3.3757567E-01   9.9340522E-01   0.0000000E+00   9.6787475E-02   9.3844473E-01   0.0000000E+00   1.7147200E-01   8.6984116E-01   0.0000000E+00   1.8572581E-01   7.9015857E-01   0.0000000E+00   2.2648105E-01   7.0632827E-01   0.0000000E+00   2.7917325E-01   6.2631518E-01   0.0000000E+00   3.2513475E-01   8.1711841E-01   0.0000000E+00   1.0774755E-01   7.4309736E-01   0.0000000E+00   1.8187951E-01   6.5402514E-01   0.0000000E+00   1.8101083E-01   5.5567455E-01   0.0000000E+00   2.2515039E-01   4.5835298E-01   0.0000000E+00   2.6825681E-01   3.7082586E-01   0.0000000E+00   3.0953512E-01   6.7109764E-01   0.0000000E+00   1.0404021E-01   5.8626938E-01   0.0000000E+00   1.7714925E-01   4.8540992E-01   0.0000000E+00   1.7451167E-01   3.7696487E-01   0.0000000E+00   2.1793351E-01   2.7508333E-01   0.0000000E+00   2.5298235E-01   1.8737215E-01   0.0000000E+00   2.9041165E-01   5.4719543E-01   0.0000000E+00   8.6693510E-02   4.6035367E-01   0.0000000E+00   1.6036896E-01   3.5395175E-01   0.0000000E+00   1.6492583E-01   2.4430193E-01   0.0000000E+00   2.0571950E-01   1.4665027E-01   0.0000000E+00   2.3601493E-01   6.5507688E-02   0.0000000E+00   2.6861754E-01   4.4769907E-01   0.0000000E+00   4.9589533E-02   3.5768917E-01   0.0000000E+00   1.3689971E-01   2.4414253E-01   0.0000000E+00   1.5902834E-01   1.4159639E-01   0.0000000E+00   1.9362290E-01   5.5868108E-02   0.0000000E+00   2.1919143E-01  -1.3084468E-02   0.0000000E+00   2.4546832E-01   3.8653359E-01   0.0000000E+00   7.5156055E-02   2.6355574E-01   0.0000000E+00   1.3597415E-01   1.4692079E-01   0.0000000E+00   1.5393889E-01   5.6071755E-02   0.0000000E+00   1.8466794E-01  -1.2535405E-02   0.0000000E+00   2.0460236E-01  -6.5511055E-02   0.0000000E+00   2.2336912E-01   3.1807196E-01   0.0000000E+00   7.9636931E-02   1.7936239E-01   0.0000000E+00   1.2627187E-01   5.9420045E-02   0.0000000E+00   1.4470612E-01  -1.7689459E-02   0.0000000E+00   1.7532617E-01  -6.7542188E-02   0.0000000E+00   1.9316237E-01  -1.0327610E-01   0.0000000E+00   2.0383646E-01   1.1147157E-01   0.0000000E+00   1.1481249E-01  -1.2683259E-02   0.0000000E+00   1.2727180E-01  -7.8457668E-02   0.0000000E+00   1.5773255E-01  -1.1183431E-01   0.0000000E+00   1.8083408E-01  -1.3192989E-01   0.0000000E+00   1.8769915E-01   6.6732131E-02   0.0000000E+00   1.0288840E-01  -5.5004254E-02   0.0000000E+00   1.1287901E-01  -1.2053741E-01   0.0000000E+00   1.3252382E-01  -1.4443861E-01   0.0000000E+00   1.6415770E-01  -1.5357023E-01   0.0000000E+00   1.7349485E-01  -5.6865845E-02   0.0000000E+00   1.0569402E-01  -1.3595945E-01   0.0000000E+00   1.0971337E-01  -1.6294903E-01   0.0000000E+00   1.4144720E-01  -1.6825014E-01   0.0000000E+00   1.5994050E-01  -3.2954309E-02   0.0000000E+00   1.0051318E-01  -1.1387219E-01   0.0000000E+00   1.0096336E-01  -1.6151005E-01   0.0000000E+00   1.1588780E-01  -1.7329115E-01   0.0000000E+00   1.4425012E-01  -6.1827078E-02   0.0000000E+00   1.0802983E-01  -1.2742947E-01   0.0000000E+00   1.0562776E-01  -1.5862262E-01   0.0000000E+00   1.2970217E-01  -6.4651377E-02   0.0000000E+00   1.1338490E-01  -1.0622851E-01   0.0000000E+00   1.2853187E-01  -5.9852723E-02   0.0000000E+00   1.0197204E-01  -4.1156475E-02   0.0000000E+00   1.3615672E-01  -7.1386635E-02   0.0000000E+00   2.7044588E-03  -7.3645368E-02   0.0000000E+00   2.6753652E-03  -7.5025842E-02   0.0000000E+00   2.4635533E-03  -7.5771593E-02   0.0000000E+00   2.1723746E-03  -7.6086596E-02   0.0000000E+00   1.8624414E-03  -7.6137722E-02   0.0000000E+00   1.5717706E-03  -7.6054275E-02   0.0000000E+00   1.3255137E-03  -7.5931050E-02   0.0000000E+00   1.1397506E-03  -7.5832427E-02   0.0000000E+00   1.0245505E-03  -8.3833203E-02   0.0000000E+00   3.5096656E-03  -8.6238265E-02   0.0000000E+00   3.4738178E-03  -8.7655991E-02   0.0000000E+00   3.2099385E-03  -8.8370062E-02   0.0000000E+00   2.8455020E-03  -8.8615522E-02   0.0000000E+00   2.4527784E-03  -8.8583827E-02   0.0000000E+00   2.0813476E-03  -8.8421419E-02   0.0000000E+00   1.7650522E-03  -8.8234708E-02   0.0000000E+00   1.5257931E-03  -8.8095263E-02   0.0000000E+00   1.3772008E-03  -9.3984082E-02   0.0000000E+00   4.1320454E-03  -9.6339375E-02   0.0000000E+00   4.0900819E-03  -9.7648814E-02   0.0000000E+00   3.7949604E-03  -9.8228648E-02   0.0000000E+00   3.3855506E-03  -9.8337114E-02   0.0000000E+00   2.9379148E-03  -9.8180667E-02   0.0000000E+00   2.5101756E-03  -9.7915031E-02   0.0000000E+00   2.1435826E-03  -9.7651847E-02   0.0000000E+00   1.8652596E-03  -9.7465619E-02   0.0000000E+00   1.6920685E-03  -1.0333183E-01   0.0000000E+00   4.5043011E-03  -1.0549815E-01   0.0000000E+00   4.4558304E-03  -1.0659236E-01   0.0000000E+00   4.1565490E-03  -1.0696142E-01   0.0000000E+00   3.7390348E-03  -1.0688177E-01   0.0000000E+00   3.2739083E-03  -1.0656835E-01   0.0000000E+00   2.8233833E-03  -1.0618019E-01   0.0000000E+00   2.4338430E-03  -1.0582976E-01   0.0000000E+00   2.1364924E-03  -1.0559138E-01   0.0000000E+00   1.9509165E-03  -1.1328246E-01   0.0000000E+00   4.6316339E-03  -1.1517081E-01   0.0000000E+00   4.5807604E-03  -1.1597953E-01   0.0000000E+00   4.3075378E-03  -1.1608738E-01   0.0000000E+00   3.9208955E-03  -1.1578494E-01   0.0000000E+00   3.4782426E-03  -1.1529135E-01   0.0000000E+00   3.0406106E-03  -1.1476575E-01   0.0000000E+00   2.6569683E-03  -1.1431900E-01   0.0000000E+00   2.3615442E-03  -1.1402368E-01   0.0000000E+00   2.1762599E-03  -1.2483972E-01   0.0000000E+00   4.5741126E-03  -1.2638858E-01   0.0000000E+00   4.5386925E-03  -1.2686712E-01   0.0000000E+00   4.3248758E-03  -1.2668286E-01   0.0000000E+00   4.0082964E-03  -1.2613523E-01   0.0000000E+00   3.6264234E-03  -1.2544528E-01   0.0000000E+00   3.2346551E-03  -1.2477055E-01   0.0000000E+00   2.8827128E-03  -1.2421954E-01   0.0000000E+00   2.6074778E-03  -1.2386248E-01   0.0000000E+00   2.4333161E-03  -1.3848455E-01   0.0000000E+00   4.4368398E-03  -1.3963649E-01   0.0000000E+00   4.4492949E-03  -1.3975377E-01   0.0000000E+00   4.3325964E-03  -1.3925822E-01   0.0000000E+00   4.1255248E-03  -1.3845171E-01   0.0000000E+00   3.8392812E-03  -1.3755463E-01   0.0000000E+00   3.5209700E-03  -1.3672213E-01   0.0000000E+00   3.2207896E-03  -1.3606019E-01   0.0000000E+00   2.9791009E-03  -1.3563725E-01   0.0000000E+00   2.8236189E-03  -1.5426822E-01   0.0000000E+00   4.3893652E-03  -1.5495472E-01   0.0000000E+00   4.4742301E-03  -1.5468134E-01   0.0000000E+00   4.4913646E-03  -1.5386164E-01   0.0000000E+00   4.4298009E-03  -1.5279022E-01   0.0000000E+00   4.2682006E-03  -1.5168168E-01   0.0000000E+00   4.0437002E-03  -1.5068725E-01   0.0000000E+00   3.8081396E-03  -1.4991088E-01   0.0000000E+00   3.6073492E-03  -1.4941946E-01   0.0000000E+00   3.4741771E-03  -1.7211908E-01   0.0000000E+00   4.6976982E-03  -1.7222911E-01   0.0000000E+00   4.8374925E-03  -1.7153491E-01   0.0000000E+00   4.9997470E-03  -1.7038514E-01   0.0000000E+00   5.1030819E-03  -1.6905111E-01   0.0000000E+00   5.0825528E-03  -1.6773513E-01   0.0000000E+00   4.9617919E-03  -1.6658165E-01   0.0000000E+00   4.7951546E-03  -1.6569175E-01   0.0000000E+00   4.6362095E-03  -1.6513224E-01   0.0000000E+00   4.5249546E-03  -1.9208770E-01   0.0000000E+00   5.7252329E-03  -1.9150513E-01   0.0000000E+00   5.8364104E-03  -1.9036558E-01   0.0000000E+00   6.0978481E-03  -1.8888748E-01   0.0000000E+00   6.3473224E-03  -1.8730363E-01   0.0000000E+00   6.4597917E-03  -1.8579306E-01   0.0000000E+00   6.4366935E-03  -1.8449064E-01   0.0000000E+00   6.3327872E-03  -1.8349384E-01   0.0000000E+00   6.2099327E-03  -1.8286966E-01   0.0000000E+00   6.1164857E-03  -2.1422896E-01   0.0000000E+00   7.8757778E-03  -2.1290213E-01   0.0000000E+00   7.8045554E-03  -2.1130528E-01   0.0000000E+00   8.0473553E-03  -2.0951129E-01   0.0000000E+00   8.3700139E-03  -2.0769760E-01   0.0000000E+00   8.5718734E-03  -2.0601334E-01   0.0000000E+00   8.6187907E-03  -2.0457901E-01   0.0000000E+00   8.5590733E-03  -2.0348753E-01   0.0000000E+00   8.4598828E-03  -2.0280589E-01   0.0000000E+00   8.3769821E-03  -2.3850819E-01   0.0000000E+00   1.1475736E-02  -2.3648714E-01   0.0000000E+00   1.1022232E-02  -2.3444992E-01   0.0000000E+00   1.1076056E-02  -2.3236634E-01   0.0000000E+00   1.1349827E-02  -2.3035216E-01   0.0000000E+00   1.1561816E-02  -2.2852176E-01   0.0000000E+00   1.1629422E-02  -2.2697884E-01   0.0000000E+00   1.1583763E-02  -2.2581032E-01   0.0000000E+00   1.1490463E-02  -2.2508217E-01   0.0000000E+00   1.1408796E-02  -2.6486421E-01   0.0000000E+00   1.6629932E-02  -2.6228946E-01   0.0000000E+00   1.5612796E-02  -2.5987321E-01   0.0000000E+00   1.5306742E-02  -2.5754866E-01   0.0000000E+00   1.5391940E-02  -2.5537607E-01   0.0000000E+00   1.5515922E-02  -2.5343582E-01   0.0000000E+00   1.5542146E-02  -2.5181517E-01   0.0000000E+00   1.5474035E-02  -2.5059372E-01   0.0000000E+00   1.5366714E-02  -2.4983430E-01   0.0000000E+00   1.5276711E-02  -2.9323703E-01   0.0000000E+00   2.3134395E-02  -2.9030856E-01   0.0000000E+00   2.1477303E-02  -2.8762943E-01   0.0000000E+00   2.0705514E-02  -2.8514397E-01   0.0000000E+00   2.0492399E-02  -2.8287235E-01   0.0000000E+00   2.0441290E-02  -2.8087094E-01   0.0000000E+00   2.0368254E-02  -2.7921301E-01   0.0000000E+00   2.0244088E-02  -2.7796996E-01   0.0000000E+00   2.0105530E-02  -2.7719992E-01   0.0000000E+00   1.9999702E-02  -3.2356909E-01   0.0000000E+00   3.0521652E-02  -3.2052881E-01   0.0000000E+00   2.8311035E-02  -3.1775868E-01   0.0000000E+00   2.7080832E-02  -3.1522512E-01   0.0000000E+00   2.6531160E-02  -3.1293523E-01   0.0000000E+00   2.6258551E-02  -3.1093660E-01   0.0000000E+00   2.6051160E-02  -3.0929327E-01   0.0000000E+00   2.5850527E-02  -3.0806920E-01   0.0000000E+00   2.5671504E-02  -3.0731374E-01   0.0000000E+00   2.5546663E-02  -3.5583347E-01   0.0000000E+00   3.8244214E-02  -3.5295653E-01   0.0000000E+00   3.5703331E-02  -3.5029683E-01   0.0000000E+00   3.4138262E-02  -3.4785029E-01   0.0000000E+00   3.3300214E-02  -3.4564248E-01   0.0000000E+00   3.2816648E-02  -3.4372637E-01   0.0000000E+00   3.2474153E-02  -3.4216270E-01   0.0000000E+00   3.2196466E-02  -3.4100553E-01   0.0000000E+00   3.1978313E-02  -3.4029499E-01   0.0000000E+00   3.1836543E-02  -3.9008567E-01   0.0000000E+00   4.5868646E-02  -3.8764316E-01   0.0000000E+00   4.3273635E-02  -3.8528559E-01   0.0000000E+00   4.1568495E-02  -3.8306710E-01   0.0000000E+00   4.0557750E-02  -3.8105166E-01   0.0000000E+00   3.9925434E-02  -3.7930903E-01   0.0000000E+00   3.9480232E-02  -3.7789741E-01   0.0000000E+00   3.9143201E-02  -3.7686151E-01   0.0000000E+00   3.8896360E-02  -3.7622917E-01   0.0000000E+00   3.8743444E-02  -4.2649439E-01   0.0000000E+00   5.3169787E-02  -4.2467618E-01   0.0000000E+00   5.0772831E-02  -4.2277244E-01   0.0000000E+00   4.9128495E-02  -4.2090669E-01   0.0000000E+00   4.8086148E-02  -4.1919124E-01   0.0000000E+00   4.7393881E-02  -4.1771269E-01   0.0000000E+00   4.6896763E-02  -4.1652754E-01   0.0000000E+00   4.6527367E-02  -4.1566637E-01   0.0000000E+00   4.6265304E-02  -4.1514608E-01   0.0000000E+00   4.6107594E-02  -4.6525520E-01   0.0000000E+00   6.0141459E-02  -4.6415025E-01   0.0000000E+00   5.8111571E-02  -4.6279275E-01   0.0000000E+00   5.6682959E-02  -4.6137431E-01   0.0000000E+00   5.5731338E-02  -4.6004859E-01   0.0000000E+00   5.5061221E-02  -4.5891339E-01   0.0000000E+00   5.4559011E-02  -4.5801800E-01   0.0000000E+00   5.4179877E-02  -4.5737988E-01   0.0000000E+00   5.3911842E-02  -4.5699924E-01   0.0000000E+00   5.3752191E-02  -5.0651646E-01   0.0000000E+00   6.6914074E-02  -5.0612622E-01   0.0000000E+00   6.5323822E-02  -5.0535101E-01   0.0000000E+00   6.4197466E-02  -5.0443494E-01   0.0000000E+00   6.3412912E-02  -5.0355792E-01   0.0000000E+00   6.2815502E-02  -5.0282067E-01   0.0000000E+00   6.2332556E-02  -5.0226009E-01   0.0000000E+00   6.1950188E-02  -5.0187677E-01   0.0000000E+00   6.1674207E-02  -5.0165594E-01   0.0000000E+00   6.1508916E-02  -5.5033767E-01   0.0000000E+00   7.3646188E-02  -5.5060184E-01   0.0000000E+00   7.2496466E-02  -5.5039722E-01   0.0000000E+00   7.1701042E-02  -5.4999650E-01   0.0000000E+00   7.1114399E-02  -5.4958922E-01   0.0000000E+00   7.0604250E-02  -5.4926944E-01   0.0000000E+00   7.0137106E-02  -5.4905981E-01   0.0000000E+00   6.9737211E-02  -5.4894221E-01   0.0000000E+00   6.9436453E-02  -5.4888827E-01   0.0000000E+00   6.9252849E-02  -5.9665269E-01   0.0000000E+00   8.0434702E-02  -5.9746999E-01   0.0000000E+00   7.9702646E-02  -5.9778517E-01   0.0000000E+00   7.9247780E-02  -5.9787327E-01   0.0000000E+00   7.8872226E-02  -5.9791833E-01   0.0000000E+00   7.8446776E-02  -5.9800082E-01   0.0000000E+00   7.7974536E-02  -5.9812599E-01   0.0000000E+00   7.7525385E-02  -5.9826177E-01   0.0000000E+00   7.7167995E-02  -5.9836489E-01   0.0000000E+00   7.6943308E-02  -6.4515692E-01   0.0000000E+00   8.7275781E-02  -6.4639509E-01   0.0000000E+00   8.6972222E-02  -6.4715660E-01   0.0000000E+00   8.6904384E-02  -6.4768332E-01   0.0000000E+00   8.6782947E-02  -6.4813620E-01   0.0000000E+00   8.6455166E-02  -6.4857560E-01   0.0000000E+00   8.5958071E-02  -6.4899260E-01   0.0000000E+00   8.5419029E-02  -6.4934427E-01   0.0000000E+00   8.4960908E-02  -6.4957905E-01   0.0000000E+00   8.4662415E-02  -6.9500798E-01   0.0000000E+00   9.4089143E-02  -6.9652128E-01   0.0000000E+00   9.4316006E-02  -6.9765335E-01   0.0000000E+00   9.4775282E-02  -6.9857067E-01   0.0000000E+00   9.5026970E-02  -6.9938219E-01   0.0000000E+00   9.4857708E-02  -7.0012236E-01   0.0000000E+00   9.4335690E-02  -7.0077145E-01   0.0000000E+00   9.3666390E-02  -7.0128441E-01   0.0000000E+00   9.3054436E-02  -7.0161456E-01   0.0000000E+00   9.2640199E-02  -7.4430567E-01   0.0000000E+00   1.0081168E-01  -7.4595344E-01   0.0000000E+00   1.0179623E-01  -7.4740767E-01   0.0000000E+00   1.0304960E-01  -7.4869525E-01   0.0000000E+00   1.0389644E-01  -7.4983865E-01   0.0000000E+00   1.0401179E-01  -7.5083327E-01   0.0000000E+00   1.0349450E-01  -7.5165492E-01   0.0000000E+00   1.0265999E-01  -7.5227016E-01   0.0000000E+00   1.0183440E-01  -7.5265306E-01   0.0000000E+00   1.0125390E-01  -7.8948265E-01   0.0000000E+00   1.0755356E-01  -7.9115820E-01   0.0000000E+00   1.0962697E-01  -7.9292512E-01   0.0000000E+00   1.1204520E-01  -7.9460597E-01   0.0000000E+00   1.1379478E-01  -7.9609108E-01   0.0000000E+00   1.1437818E-01  -7.9732174E-01   0.0000000E+00   1.1392473E-01  -7.9827166E-01   0.0000000E+00   1.1289888E-01  -7.9894018E-01   0.0000000E+00   1.1179797E-01  -7.9933482E-01   0.0000000E+00   1.1099597E-01  -8.2489622E-01   0.0000000E+00   1.1481407E-01  -8.2656568E-01   0.0000000E+00   1.1828831E-01  -8.2868212E-01   0.0000000E+00   1.2223133E-01  -8.3081406E-01   0.0000000E+00   1.2519538E-01  -8.3268398E-01   0.0000000E+00   1.2644434E-01  -8.3416331E-01   0.0000000E+00   1.2613057E-01  -8.3522862E-01   0.0000000E+00   1.2490206E-01  -8.3591980E-01   0.0000000E+00   1.2347461E-01  -8.3630008E-01   0.0000000E+00   1.2240166E-01  -8.4286207E-01   0.0000000E+00   1.2372091E-01  -8.4464407E-01   0.0000000E+00   1.2866840E-01  -8.4721494E-01   0.0000000E+00   1.3426037E-01  -8.4989035E-01   0.0000000E+00   1.3858786E-01  -8.5222185E-01   0.0000000E+00   1.4062662E-01  -8.5400409E-01   0.0000000E+00   1.4051642E-01  -8.5521454E-01   0.0000000E+00   1.3909641E-01  -8.5594332E-01   0.0000000E+00   1.3732451E-01  -8.5631323E-01   0.0000000E+00   1.3595799E-01  -8.3404756E-01   0.0000000E+00   1.3611287E-01  -8.3635384E-01   0.0000000E+00   1.4216922E-01  -8.3965743E-01   0.0000000E+00   1.4904420E-01  -8.4308672E-01   0.0000000E+00   1.5449801E-01  -8.4605610E-01   0.0000000E+00   1.5724432E-01  -8.4829944E-01   0.0000000E+00   1.5735088E-01  -8.4979421E-01   0.0000000E+00   1.5579113E-01  -8.5066736E-01   0.0000000E+00   1.5373157E-01  -8.5109609E-01   0.0000000E+00   1.5211283E-01  -7.8707319E-01   0.0000000E+00   1.5415843E-01  -7.9080439E-01   0.0000000E+00   1.6060232E-01  -7.9547906E-01   0.0000000E+00   1.6785929E-01  -8.0015469E-01   0.0000000E+00   1.7369308E-01  -8.0417627E-01   0.0000000E+00   1.7675273E-01  -8.0724496E-01   0.0000000E+00   1.7700805E-01  -8.0933177E-01   0.0000000E+00   1.7543171E-01  -8.1058604E-01   0.0000000E+00   1.7327245E-01  -8.1122166E-01   0.0000000E+00   1.7155711E-01  -6.8431622E-01   0.0000000E+00   1.7942400E-01  -6.9118416E-01   0.0000000E+00   1.8566820E-01  -6.9833529E-01   0.0000000E+00   1.9227874E-01  -7.0509720E-01   0.0000000E+00   1.9748364E-01  -7.1086526E-01   0.0000000E+00   2.0023897E-01  -7.1534312E-01   0.0000000E+00   2.0052721E-01  -7.1850348E-01   0.0000000E+00   1.9917095E-01  -7.2049850E-01   0.0000000E+00   1.9728206E-01  -7.2156239E-01   0.0000000E+00   1.9578286E-01  -4.9758950E-01   0.0000000E+00   2.1194163E-01  -5.1005948E-01   0.0000000E+00   2.1818864E-01  -5.2122647E-01   0.0000000E+00   2.2366810E-01  -5.3113765E-01   0.0000000E+00   2.2755049E-01  -5.3949648E-01   0.0000000E+00   2.2953588E-01  -5.4608363E-01   0.0000000E+00   2.2986597E-01  -5.5088609E-01   0.0000000E+00   2.2916052E-01  -5.5405509E-01   0.0000000E+00   2.2814435E-01  -5.5581731E-01   0.0000000E+00   2.2735961E-01  -1.9489767E-01   0.0000000E+00   2.4963355E-01  -2.1493518E-01   0.0000000E+00   2.5738910E-01  -2.3145577E-01   0.0000000E+00   2.6241320E-01  -2.4540332E-01   0.0000000E+00   2.6519740E-01  -2.5701365E-01   0.0000000E+00   2.6658159E-01  -2.6625854E-01   0.0000000E+00   2.6737177E-01  -2.7316502E-01   0.0000000E+00   2.6806393E-01  -2.7787077E-01   0.0000000E+00   2.6879674E-01  -2.8057361E-01   0.0000000E+00   2.6941997E-01   2.4197900E-01   0.0000000E+00   2.8834349E-01   2.1486916E-01   0.0000000E+00   3.0049646E-01   1.9316286E-01   0.0000000E+00   3.0716279E-01   1.7528883E-01   0.0000000E+00   3.1030992E-01   1.6050977E-01   0.0000000E+00   3.1219593E-01   1.4864428E-01   0.0000000E+00   3.1449226E-01   1.3961920E-01   0.0000000E+00   3.1772879E-01   1.3332927E-01   0.0000000E+00   3.2135502E-01   1.2963448E-01   0.0000000E+00   3.2424963E-01   7.9653263E-01   0.0000000E+00   3.2292992E-01   7.6665527E-01   0.0000000E+00   3.4298864E-01   7.4259079E-01   0.0000000E+00   3.5442111E-01   7.2275376E-01   0.0000000E+00   3.6039472E-01   7.0626050E-01   0.0000000E+00   3.6471212E-01   6.9285029E-01   0.0000000E+00   3.7011591E-01   6.8247867E-01   0.0000000E+00   3.7733388E-01   6.7512685E-01   0.0000000E+00   3.8510895E-01   6.7074674E-01   0.0000000E+00   3.9117268E-01   1.4037519E+00   0.0000000E+00   3.4926829E-01   1.3787620E+00   0.0000000E+00   3.7967703E-01   1.3577619E+00   0.0000000E+00   3.9883900E-01   1.3398479E+00   0.0000000E+00   4.1024187E-01   1.3245261E+00   0.0000000E+00   4.1912246E-01   1.3117279E+00   0.0000000E+00   4.2931530E-01   1.3015796E+00   0.0000000E+00   4.4183454E-01   1.2942448E+00   0.0000000E+00   4.5477289E-01   1.2898142E+00   0.0000000E+00   4.6466967E-01   1.9557559E+00   0.0000000E+00   3.6648339E-01   1.9441251E+00   0.0000000E+00   4.0656447E-01   1.9325700E+00   0.0000000E+00   4.3455431E-01   1.9213945E+00   0.0000000E+00   4.5285040E-01   1.9108301E+00   0.0000000E+00   4.6770638E-01   1.9012665E+00   0.0000000E+00   4.8380250E-01   1.8931946E+00   0.0000000E+00   5.0238168E-01   1.8870898E+00   0.0000000E+00   5.2095777E-01   1.8832958E+00   0.0000000E+00   5.3495157E-01   2.3359780E+00   0.0000000E+00   3.7470266E-01   2.3426635E+00   0.0000000E+00   4.2284340E-01   2.3443477E+00   0.0000000E+00   4.5770407E-01   2.3428059E+00   0.0000000E+00   4.8206794E-01   2.3392739E+00   0.0000000E+00   5.0271386E-01   2.3347232E+00   0.0000000E+00   5.2471083E-01   2.3300436E+00   0.0000000E+00   5.4924649E-01   2.3260436E+00   0.0000000E+00   5.7322240E-01   2.3233633E+00   0.0000000E+00   5.9106988E-01   2.4952278E+00   0.0000000E+00   3.7993959E-01   2.5190308E+00   0.0000000E+00   4.3106312E-01   2.5333693E+00   0.0000000E+00   4.6882132E-01   2.5413849E+00   0.0000000E+00   4.9658993E-01   2.5453124E+00   0.0000000E+00   5.2127326E-01   2.5465748E+00   0.0000000E+00   5.4788107E-01   2.5462430E+00   0.0000000E+00   5.7724845E-01   2.5452096E+00   0.0000000E+00   6.0561264E-01   2.5442390E+00   0.0000000E+00   6.2656873E-01   2.4892795E+00   0.0000000E+00   3.8598764E-01   2.5234687E+00   0.0000000E+00   4.3554321E-01   2.5457158E+00   0.0000000E+00   4.7233915E-01   2.5601685E+00   0.0000000E+00   5.0035650E-01   2.5696893E+00   0.0000000E+00   5.2649516E-01   2.5758598E+00   0.0000000E+00   5.5551529E-01   2.5796053E+00   0.0000000E+00   5.8777875E-01   2.5816259E+00   0.0000000E+00   6.1890346E-01   2.5825338E+00   0.0000000E+00   6.4184338E-01   2.4064474E+00   0.0000000E+00   3.9392117E-01   2.4414556E+00   0.0000000E+00   4.3959975E-01   2.4642761E+00   0.0000000E+00   4.7302765E-01   2.4797275E+00   0.0000000E+00   4.9879727E-01   2.4909322E+00   0.0000000E+00   5.2388412E-01   2.4993198E+00   0.0000000E+00   5.5287987E-01   2.5054154E+00   0.0000000E+00   5.8578801E-01   2.5094812E+00   0.0000000E+00   6.1777860E-01   2.5117662E+00   0.0000000E+00   6.4141679E-01   2.3083296E+00   0.0000000E+00   4.0255857E-01   2.3351727E+00   0.0000000E+00   4.4427851E-01   2.3512111E+00   0.0000000E+00   4.7372639E-01   2.3617401E+00   0.0000000E+00   4.9599966E-01   2.3699028E+00   0.0000000E+00   5.1829141E-01   2.3768256E+00   0.0000000E+00   5.4525048E-01   2.3825521E+00   0.0000000E+00   5.7679039E-01   2.3868091E+00   0.0000000E+00   6.0791361E-01   2.3894048E+00   0.0000000E+00   6.3107485E-01   2.2069790E+00   0.0000000E+00   4.0956721E-01   2.2195385E+00   0.0000000E+00   4.4861120E-01   2.2235179E+00   0.0000000E+00   4.7480565E-01   2.2244954E+00   0.0000000E+00   4.9352220E-01   2.2255259E+00   0.0000000E+00   5.1226372E-01   2.2274556E+00   0.0000000E+00   5.3596210E-01   2.2299397E+00   0.0000000E+00   5.6473875E-01   2.2322807E+00   0.0000000E+00   5.9374565E-01   2.2338994E+00   0.0000000E+00   6.1557055E-01   2.0753832E+00   0.0000000E+00   4.1288146E-01   2.0709760E+00   0.0000000E+00   4.5074490E-01   2.0605340E+00   0.0000000E+00   4.7488755E-01   2.0496092E+00   0.0000000E+00   4.9068171E-01   2.0410852E+00   0.0000000E+00   5.0591320E-01   2.0356212E+00   0.0000000E+00   5.2592725E-01   2.0326688E+00   0.0000000E+00   5.5128062E-01   2.0313346E+00   0.0000000E+00   5.7751697E-01   2.0308444E+00   0.0000000E+00   5.9753698E-01   1.8766425E+00   0.0000000E+00   4.1156897E-01   1.8552443E+00   0.0000000E+00   4.4910187E-01   1.8306540E+00   0.0000000E+00   4.7210938E-01   1.8079109E+00   0.0000000E+00   4.8573038E-01   1.7894957E+00   0.0000000E+00   4.9790797E-01   1.7758937E+00   0.0000000E+00   5.1440257E-01   1.7665496E+00   0.0000000E+00   5.3629100E-01   1.7606134E+00   0.0000000E+00   5.5962074E-01   1.7573565E+00   0.0000000E+00   5.7770950E-01   1.5938303E+00   0.0000000E+00   4.0583390E-01   1.5572221E+00   0.0000000E+00   4.4304168E-01   1.5208582E+00   0.0000000E+00   4.6523985E-01   1.4885530E+00   0.0000000E+00   4.7721428E-01   1.4619868E+00   0.0000000E+00   4.8689991E-01   1.4413656E+00   0.0000000E+00   5.0035048E-01   1.4262117E+00   0.0000000E+00   5.1910120E-01   1.4159057E+00   0.0000000E+00   5.3971207E-01   1.4099351E+00   0.0000000E+00   5.5595958E-01   1.2463374E+00   0.0000000E+00   3.9646903E-01   1.1980935E+00   0.0000000E+00   4.3286726E-01   1.1541389E+00   0.0000000E+00   4.5417210E-01   1.1163360E+00   0.0000000E+00   4.6480873E-01   1.0851618E+00   0.0000000E+00   4.7252670E-01   1.0603657E+00   0.0000000E+00   4.8347905E-01   1.0415195E+00   0.0000000E+00   4.9952722E-01   1.0282767E+00   0.0000000E+00   5.1770443E-01   1.0204134E+00   0.0000000E+00   5.3225911E-01   8.8325810E-01   0.0000000E+00   3.8426039E-01   8.2818532E-01   0.0000000E+00   4.1931716E-01   7.8155226E-01   0.0000000E+00   4.3960473E-01   7.4288338E-01   0.0000000E+00   4.4917262E-01   7.1121901E-01   0.0000000E+00   4.5540634E-01   6.8572634E-01   0.0000000E+00   4.6435401E-01   6.6594768E-01   0.0000000E+00   4.7807601E-01   6.5176117E-01   0.0000000E+00   4.9404070E-01   6.4320731E-01   0.0000000E+00   5.0699657E-01   5.5638885E-01   0.0000000E+00   3.6934537E-01   4.9929965E-01   0.0000000E+00   4.0285665E-01   4.5411441E-01   0.0000000E+00   4.2229548E-01   4.1817206E-01   0.0000000E+00   4.3123809E-01   3.8915455E-01   0.0000000E+00   4.3653679E-01   3.6566484E-01   0.0000000E+00   4.4395745E-01   3.4717423E-01   0.0000000E+00   4.5566547E-01   3.3370981E-01   0.0000000E+00   4.6955541E-01   3.2549757E-01   0.0000000E+00   4.8093927E-01   2.9858980E-01   0.0000000E+00   3.5121939E-01   2.4307224E-01   0.0000000E+00   3.8343742E-01   2.0162803E-01   0.0000000E+00   4.0260342E-01   1.6997024E-01   0.0000000E+00   4.1165474E-01   1.4481688E-01   0.0000000E+00   4.1673967E-01   1.2440992E-01   0.0000000E+00   4.2319983E-01   1.0818182E-01   0.0000000E+00   4.3323523E-01   9.6237302E-02   0.0000000E+00   4.4517756E-01   8.8892668E-02   0.0000000E+00   4.5499492E-01   1.1742442E-01   0.0000000E+00   3.2934022E-01   6.5453887E-02   0.0000000E+00   3.6073053E-01   2.8102027E-02   0.0000000E+00   3.8043734E-01   3.2099863E-04   0.0000000E+00   3.9054525E-01  -2.1541731E-02   0.0000000E+00   3.9631435E-01  -3.9286103E-02   0.0000000E+00   4.0252721E-01  -5.3436074E-02   0.0000000E+00   4.1133884E-01  -6.3879825E-02   0.0000000E+00   4.2153075E-01  -7.0317805E-02   0.0000000E+00   4.2983007E-01   1.7389950E-03   0.0000000E+00   3.0393898E-01  -4.5755561E-02   0.0000000E+00   3.3451840E-01  -8.0028683E-02   0.0000000E+00   3.5548428E-01  -1.0560527E-01   0.0000000E+00   3.6759481E-01  -1.2584466E-01   0.0000000E+00   3.7502179E-01  -1.4224540E-01   0.0000000E+00   3.8182050E-01  -1.5520865E-01   0.0000000E+00   3.8998464E-01  -1.6468444E-01   0.0000000E+00   3.9874592E-01  -1.7048764E-01   0.0000000E+00   4.0566725E-01  -6.7434698E-02   0.0000000E+00   2.7606720E-01  -1.0979136E-01   0.0000000E+00   3.0508479E-01  -1.4239392E-01   0.0000000E+00   3.2748672E-01  -1.6782582E-01   0.0000000E+00   3.4229472E-01  -1.8838067E-01   0.0000000E+00   3.5226133E-01  -2.0498762E-01   0.0000000E+00   3.6050779E-01  -2.1788105E-01   0.0000000E+00   3.6871278E-01  -2.2711666E-01   0.0000000E+00   3.7651801E-01  -2.3268537E-01   0.0000000E+00   3.8232568E-01  -1.0792257E-01   0.0000000E+00   2.4760821E-01  -1.4420211E-01   0.0000000E+00   2.7357477E-01  -1.7592990E-01   0.0000000E+00   2.9668152E-01  -2.0286261E-01   0.0000000E+00   3.1433165E-01  -2.2525766E-01   0.0000000E+00   3.2737112E-01  -2.4333441E-01   0.0000000E+00   3.3777264E-01  -2.5714308E-01   0.0000000E+00   3.4674245E-01  -2.6682636E-01   0.0000000E+00   3.5421181E-01  -2.7255613E-01   0.0000000E+00   3.5931870E-01  -1.3230357E-01   0.0000000E+00   2.2079316E-01  -1.6104174E-01   0.0000000E+00   2.4211004E-01  -1.9116542E-01   0.0000000E+00   2.6426718E-01  -2.2010961E-01   0.0000000E+00   2.8402802E-01  -2.4516812E-01   0.0000000E+00   3.0005574E-01  -2.6551238E-01   0.0000000E+00   3.1292057E-01  -2.8093773E-01   0.0000000E+00   3.2322443E-01  -2.9159793E-01   0.0000000E+00   3.3100420E-01  -2.9781064E-01   0.0000000E+00   3.3591363E-01  -1.4771979E-01   0.0000000E+00   1.9758384E-01  -1.6731727E-01   0.0000000E+00   2.1326368E-01  -1.9356637E-01   0.0000000E+00   2.3254426E-01  -2.2310390E-01   0.0000000E+00   2.5260305E-01  -2.5080594E-01   0.0000000E+00   2.7072567E-01  -2.7377987E-01   0.0000000E+00   2.8577077E-01  -2.9127324E-01   0.0000000E+00   2.9759219E-01  -3.0330843E-01   0.0000000E+00   3.0611333E-01  -3.1026208E-01   0.0000000E+00   3.1124175E-01  -1.5851964E-01   0.0000000E+00   1.7899440E-01  -1.6822684E-01   0.0000000E+00   1.8931447E-01  -1.8751504E-01   0.0000000E+00   2.0438971E-01  -2.1421768E-01   0.0000000E+00   2.2236389E-01  -2.4271493E-01   0.0000000E+00   2.4064292E-01  -2.6801950E-01   0.0000000E+00   2.5685567E-01  -2.8775319E-01   0.0000000E+00   2.6981112E-01  -3.0145648E-01   0.0000000E+00   2.7907953E-01  -3.0939478E-01   0.0000000E+00   2.8457779E-01  -1.6755149E-01   0.0000000E+00   1.6471641E-01  -1.6872488E-01   0.0000000E+00   1.7138277E-01  -1.7885491E-01   0.0000000E+00   1.8205546E-01  -1.9857857E-01   0.0000000E+00   1.9619064E-01  -2.2381011E-01   0.0000000E+00   2.1209088E-01  -2.4907464E-01   0.0000000E+00   2.2750022E-01  -2.7034312E-01   0.0000000E+00   2.4048838E-01  -2.8568119E-01   0.0000000E+00   2.4999335E-01  -2.9472351E-01   0.0000000E+00   2.5567457E-01  -1.7526314E-01   0.0000000E+00   1.5355840E-01  -1.7263550E-01   0.0000000E+00   1.5883052E-01  -1.7388590E-01   0.0000000E+00   1.6615607E-01  -1.8381724E-01   0.0000000E+00   1.7595245E-01  -2.0132400E-01   0.0000000E+00   1.8771517E-01  -2.2221313E-01   0.0000000E+00   1.9997531E-01  -2.4198154E-01   0.0000000E+00   2.1106195E-01  -2.5756130E-01   0.0000000E+00   2.1964358E-01  -2.6726994E-01   0.0000000E+00   2.2494812E-01  -1.7520243E-01   0.0000000E+00   1.4479858E-01  -1.7941196E-01   0.0000000E+00   1.5032472E-01  -1.7690828E-01   0.0000000E+00   1.5539542E-01  -1.7716411E-01   0.0000000E+00   1.6160092E-01  -1.8407549E-01   0.0000000E+00   1.6872814E-01  -1.9632448E-01   0.0000000E+00   1.7641941E-01  -2.1051916E-01   0.0000000E+00   1.8370380E-01  -2.2327074E-01   0.0000000E+00   1.8970382E-01  -2.3195127E-01   0.0000000E+00   1.9362496E-01  -1.5173474E-01   0.0000000E+00   1.3937145E-01  -1.7644198E-01   0.0000000E+00   1.4676422E-01  -1.8504062E-01   0.0000000E+00   1.4859203E-01  -1.8191877E-01   0.0000000E+00   1.5130575E-01  -1.7864788E-01   0.0000000E+00   1.5433693E-01  -1.7995884E-01   0.0000000E+00   1.5724389E-01  -1.8523762E-01   0.0000000E+00   1.5994833E-01  -1.9207668E-01   0.0000000E+00   1.6220261E-01  -1.9761221E-01   0.0000000E+00   1.6375047E-01  -9.8351024E-02   0.0000000E+00   1.3876311E-01  -1.4552827E-01   0.0000000E+00   1.4492369E-01  -1.7516567E-01   0.0000000E+00   1.4797334E-01  -1.8836118E-01   0.0000000E+00   1.4520289E-01  -1.8485217E-01   0.0000000E+00   1.4313337E-01  -1.7744467E-01   0.0000000E+00   1.4152248E-01  -1.7287332E-01   0.0000000E+00   1.3988800E-01  -1.7204008E-01   0.0000000E+00   1.3837953E-01  -1.7286944E-01   0.0000000E+00   1.3728046E-01  -5.9895143E-02   0.0000000E+00   1.3465762E-01  -9.9118516E-02   0.0000000E+00   1.3765711E-01  -1.3472979E-01   0.0000000E+00   1.4515795E-01  -1.6687228E-01   0.0000000E+00   1.4390922E-01  -1.8081065E-01   0.0000000E+00   1.3762201E-01  -1.8058543E-01   0.0000000E+00   1.2971330E-01  -1.7272145E-01   0.0000000E+00   1.2332834E-01  -1.6577080E-01   0.0000000E+00   1.1846726E-01  -1.6238539E-01   0.0000000E+00   1.1516400E-01  -9.2727639E-02   0.0000000E+00   1.2387067E-01  -1.0338833E-01   0.0000000E+00   1.3081786E-01  -1.3481686E-01   0.0000000E+00   1.3124143E-01  -1.5280217E-01   0.0000000E+00   1.3063870E-01  -1.6578157E-01   0.0000000E+00   1.2184571E-01  -1.6481757E-01   0.0000000E+00   1.1192463E-01  -1.6233931E-01   0.0000000E+00   1.0300363E-01  -1.6030924E-01   0.0000000E+00   9.7330615E-02  -1.3817728E-01   0.0000000E+00   1.0959191E-01  -1.4418338E-01   0.0000000E+00   1.1147615E-01  -1.6001667E-01   0.0000000E+00   1.0511664E-01  -1.6270439E-01   0.0000000E+00   9.7678937E-02  -1.6606003E-01   0.0000000E+00   8.8989735E-02  -1.6873179E-01   0.0000000E+00   8.2603395E-02  -1.9057885E-01   0.0000000E+00   8.4666111E-02  -1.9161718E-01   0.0000000E+00   7.8484915E-02  -1.9500101E-01   0.0000000E+00   7.3327929E-02  -1.9544362E-01   0.0000000E+00   6.9704182E-02  -7.5795561E-02   0.0000000E+00   9.8553987E-04  -7.5832434E-02   0.0000000E+00   1.0245505E-03  -7.5931065E-02   0.0000000E+00   1.1397511E-03  -7.6054268E-02   0.0000000E+00   1.3255142E-03  -7.6137714E-02   0.0000000E+00   1.5717709E-03  -7.6086588E-02   0.0000000E+00   1.8624415E-03  -7.5771600E-02   0.0000000E+00   2.1723756E-03  -7.5025834E-02   0.0000000E+00   2.4635531E-03  -8.8044345E-02   0.0000000E+00   1.3268566E-03  -8.8095285E-02   0.0000000E+00   1.3772018E-03  -8.8234678E-02   0.0000000E+00   1.5257939E-03  -8.8421404E-02   0.0000000E+00   1.7650522E-03  -8.8583805E-02   0.0000000E+00   2.0813479E-03  -8.8615522E-02   0.0000000E+00   2.4527789E-03  -8.8370040E-02   0.0000000E+00   2.8455015E-03  -8.7656006E-02   0.0000000E+00   3.2099397E-03  -9.7398967E-02   0.0000000E+00   1.6333436E-03  -9.7465619E-02   0.0000000E+00   1.6920690E-03  -9.7651869E-02   0.0000000E+00   1.8652603E-03  -9.7915083E-02   0.0000000E+00   2.1435821E-03  -9.8180652E-02   0.0000000E+00   2.5101765E-03  -9.8337084E-02   0.0000000E+00   2.9379157E-03  -9.8228656E-02   0.0000000E+00   3.3855506E-03  -9.7648837E-02   0.0000000E+00   3.7949618E-03  -1.0550739E-01   0.0000000E+00   1.8879107E-03  -1.0559145E-01   0.0000000E+00   1.9509163E-03  -1.0582976E-01   0.0000000E+00   2.1364922E-03  -1.0618017E-01   0.0000000E+00   2.4338411E-03  -1.0656837E-01   0.0000000E+00   2.8233840E-03  -1.0688183E-01   0.0000000E+00   3.2739076E-03  -1.0696139E-01   0.0000000E+00   3.7390341E-03  -1.0659236E-01   0.0000000E+00   4.1565490E-03  -1.1392079E-01   0.0000000E+00   2.1132159E-03  -1.1402367E-01   0.0000000E+00   2.1762599E-03  -1.1431900E-01   0.0000000E+00   2.3615425E-03  -1.1476579E-01   0.0000000E+00   2.6569660E-03  -1.1529134E-01   0.0000000E+00   3.0406101E-03  -1.1578494E-01   0.0000000E+00   3.4782423E-03  -1.1608737E-01   0.0000000E+00   3.9208941E-03  -1.1597953E-01   0.0000000E+00   4.3075392E-03  -1.2373926E-01   0.0000000E+00   2.3738279E-03  -1.2386246E-01   0.0000000E+00   2.4333163E-03  -1.2421954E-01   0.0000000E+00   2.6074790E-03  -1.2477054E-01   0.0000000E+00   2.8827137E-03  -1.2544531E-01   0.0000000E+00   3.2346549E-03  -1.2613530E-01   0.0000000E+00   3.6264241E-03  -1.2668288E-01   0.0000000E+00   4.0082973E-03  -1.2686718E-01   0.0000000E+00   4.3248767E-03  -1.3549212E-01   0.0000000E+00   2.7701254E-03  -1.3563733E-01   0.0000000E+00   2.8236194E-03  -1.3606022E-01   0.0000000E+00   2.9790991E-03  -1.3672219E-01   0.0000000E+00   3.2207901E-03  -1.3755462E-01   0.0000000E+00   3.5209714E-03  -1.3845171E-01   0.0000000E+00   3.8392791E-03  -1.3925822E-01   0.0000000E+00   4.1255238E-03  -1.3975376E-01   0.0000000E+00   4.3326016E-03  -1.4925157E-01   0.0000000E+00   3.4277388E-03  -1.4941955E-01   0.0000000E+00   3.4741757E-03  -1.4991075E-01   0.0000000E+00   3.6073490E-03  -1.5068722E-01   0.0000000E+00   3.8081396E-03  -1.5168163E-01   0.0000000E+00   4.0437011E-03  -1.5279026E-01   0.0000000E+00   4.2682006E-03  -1.5386173E-01   0.0000000E+00   4.4298009E-03  -1.5468122E-01   0.0000000E+00   4.4913632E-03  -1.6494158E-01   0.0000000E+00   4.4852695E-03  -1.6513227E-01   0.0000000E+00   4.5249537E-03  -1.6569176E-01   0.0000000E+00   4.6362109E-03  -1.6658174E-01   0.0000000E+00   4.7951546E-03  -1.6773513E-01   0.0000000E+00   4.9617924E-03  -1.6905119E-01   0.0000000E+00   5.0825533E-03  -1.7038514E-01   0.0000000E+00   5.1030829E-03  -1.7153499E-01   0.0000000E+00   4.9997461E-03  -1.8265742E-01   0.0000000E+00   6.0820505E-03  -1.8286972E-01   0.0000000E+00   6.1164852E-03  -1.8349396E-01   0.0000000E+00   6.2099341E-03  -1.8449059E-01   0.0000000E+00   6.3327872E-03  -1.8579307E-01   0.0000000E+00   6.4366953E-03  -1.8730359E-01   0.0000000E+00   6.4597954E-03  -1.8888757E-01   0.0000000E+00   6.3473214E-03  -1.9036551E-01   0.0000000E+00   6.0978513E-03  -2.0257421E-01   0.0000000E+00   8.3453869E-03  -2.0280601E-01   0.0000000E+00   8.3769793E-03  -2.0348750E-01   0.0000000E+00   8.4598865E-03  -2.0457892E-01   0.0000000E+00   8.5590770E-03  -2.0601334E-01   0.0000000E+00   8.6187907E-03  -2.0769766E-01   0.0000000E+00   8.5718688E-03  -2.0951132E-01   0.0000000E+00   8.3700093E-03  -2.1130526E-01   0.0000000E+00   8.0473535E-03  -2.2483499E-01   0.0000000E+00   1.1377167E-02  -2.2508232E-01   0.0000000E+00   1.1408796E-02  -2.2581035E-01   0.0000000E+00   1.1490465E-02  -2.2697884E-01   0.0000000E+00   1.1583760E-02  -2.2852163E-01   0.0000000E+00   1.1629421E-02  -2.3035212E-01   0.0000000E+00   1.1561809E-02  -2.3236635E-01   0.0000000E+00   1.1349822E-02  -2.3444997E-01   0.0000000E+00   1.1076059E-02  -2.4957684E-01   0.0000000E+00   1.5242243E-02  -2.4983442E-01   0.0000000E+00   1.5276714E-02  -2.5059360E-01   0.0000000E+00   1.5366714E-02  -2.5181511E-01   0.0000000E+00   1.5474040E-02  -2.5343588E-01   0.0000000E+00   1.5542148E-02  -2.5537595E-01   0.0000000E+00   1.5515924E-02  -2.5754887E-01   0.0000000E+00   1.5391937E-02  -2.5987318E-01   0.0000000E+00   1.5306739E-02  -2.7693909E-01   0.0000000E+00   1.9960368E-02  -2.7719986E-01   0.0000000E+00   1.9999685E-02  -2.7797002E-01   0.0000000E+00   2.0105539E-02  -2.7921301E-01   0.0000000E+00   2.0244082E-02  -2.8087097E-01   0.0000000E+00   2.0368256E-02  -2.8287232E-01   0.0000000E+00   2.0441283E-02  -2.8514412E-01   0.0000000E+00   2.0492395E-02  -2.8762960E-01   0.0000000E+00   2.0705504E-02  -3.0705816E-01   0.0000000E+00   2.5501877E-02  -3.0731362E-01   0.0000000E+00   2.5546666E-02  -3.0806926E-01   0.0000000E+00   2.5671488E-02  -3.0929339E-01   0.0000000E+00   2.5850521E-02  -3.1093651E-01   0.0000000E+00   2.6051158E-02  -3.1293505E-01   0.0000000E+00   2.6258562E-02  -3.1522498E-01   0.0000000E+00   2.6531147E-02  -3.1775886E-01   0.0000000E+00   2.7080821E-02  -3.4005544E-01   0.0000000E+00   3.1787258E-02  -3.4029502E-01   0.0000000E+00   3.1836532E-02  -3.4100562E-01   0.0000000E+00   3.1978298E-02  -3.4216288E-01   0.0000000E+00   3.2196447E-02  -3.4372634E-01   0.0000000E+00   3.2474164E-02  -3.4564251E-01   0.0000000E+00   3.2816611E-02  -3.4785017E-01   0.0000000E+00   3.3300221E-02  -3.5029671E-01   0.0000000E+00   3.4138270E-02  -3.7601662E-01   0.0000000E+00   3.8691550E-02  -3.7622917E-01   0.0000000E+00   3.8743448E-02  -3.7686142E-01   0.0000000E+00   3.8896345E-02  -3.7789741E-01   0.0000000E+00   3.9143227E-02  -3.7930891E-01   0.0000000E+00   3.9480217E-02  -3.8105166E-01   0.0000000E+00   3.9925419E-02  -3.8306707E-01   0.0000000E+00   4.0557735E-02  -3.8528574E-01   0.0000000E+00   4.1568454E-02  -4.1497177E-01   0.0000000E+00   4.6054862E-02  -4.1514575E-01   0.0000000E+00   4.6107616E-02  -4.1566640E-01   0.0000000E+00   4.6265326E-02  -4.1652757E-01   0.0000000E+00   4.6527382E-02  -4.1771257E-01   0.0000000E+00   4.6896756E-02  -4.1919139E-01   0.0000000E+00   4.7393851E-02  -4.2090672E-01   0.0000000E+00   4.8086125E-02  -4.2277235E-01   0.0000000E+00   4.9128458E-02  -4.5687309E-01   0.0000000E+00   5.3699225E-02  -4.5699900E-01   0.0000000E+00   5.3752180E-02  -4.5737982E-01   0.0000000E+00   5.3911828E-02  -4.5801800E-01   0.0000000E+00   5.4179873E-02  -4.5891333E-01   0.0000000E+00   5.4559026E-02  -4.6004862E-01   0.0000000E+00   5.5061221E-02  -4.6137428E-01   0.0000000E+00   5.5731311E-02  -4.6279287E-01   0.0000000E+00   5.6682881E-02  -5.0158393E-01   0.0000000E+00   6.1454073E-02  -5.0165600E-01   0.0000000E+00   6.1508935E-02  -5.0187653E-01   0.0000000E+00   6.1674207E-02  -5.0226003E-01   0.0000000E+00   6.1950210E-02  -5.0282061E-01   0.0000000E+00   6.2332548E-02  -5.0355828E-01   0.0000000E+00   6.2815495E-02  -5.0443518E-01   0.0000000E+00   6.3412920E-02  -5.0535101E-01   0.0000000E+00   6.4197406E-02  -5.4887277E-01   0.0000000E+00   6.9191530E-02  -5.4888815E-01   0.0000000E+00   6.9252864E-02  -5.4894263E-01   0.0000000E+00   6.9436476E-02  -5.4905981E-01   0.0000000E+00   6.9737226E-02  -5.4926956E-01   0.0000000E+00   7.0137136E-02  -5.4958928E-01   0.0000000E+00   7.0604213E-02  -5.4999626E-01   0.0000000E+00   7.1114287E-02  -5.5039698E-01   0.0000000E+00   7.1700975E-02  -5.9840256E-01   0.0000000E+00   7.6867409E-02  -5.9836435E-01   0.0000000E+00   7.6943338E-02  -5.9826183E-01   0.0000000E+00   7.7168077E-02  -5.9812617E-01   0.0000000E+00   7.7525437E-02  -5.9800100E-01   0.0000000E+00   7.7974565E-02  -5.9791833E-01   0.0000000E+00   7.8446738E-02  -5.9787333E-01   0.0000000E+00   7.8872219E-02  -5.9778500E-01   0.0000000E+00   7.9247661E-02  -6.4966190E-01   0.0000000E+00   8.4559843E-02  -6.4957935E-01   0.0000000E+00   8.4662475E-02  -6.4934421E-01   0.0000000E+00   8.4960893E-02  -6.4899302E-01   0.0000000E+00   8.5419096E-02  -6.4857548E-01   0.0000000E+00   8.5958101E-02  -6.4813608E-01   0.0000000E+00   8.6455159E-02  -6.4768368E-01   0.0000000E+00   8.6782932E-02  -6.4715672E-01   0.0000000E+00   8.6904377E-02  -7.0172846E-01   0.0000000E+00   9.2495225E-02  -7.0161420E-01   0.0000000E+00   9.2640184E-02  -7.0128435E-01   0.0000000E+00   9.3054414E-02  -7.0077091E-01   0.0000000E+00   9.3666457E-02  -7.0012200E-01   0.0000000E+00   9.4335720E-02  -6.9938231E-01   0.0000000E+00   9.4857693E-02  -6.9857103E-01   0.0000000E+00   9.5026933E-02  -6.9765329E-01   0.0000000E+00   9.4775245E-02  -7.5278223E-01   0.0000000E+00   1.0104741E-01  -7.5265276E-01   0.0000000E+00   1.0125393E-01  -7.5227070E-01   0.0000000E+00   1.0183442E-01  -7.5165457E-01   0.0000000E+00   1.0266007E-01  -7.5083303E-01   0.0000000E+00   1.0349452E-01  -7.4983859E-01   0.0000000E+00   1.0401177E-01  -7.4869543E-01   0.0000000E+00   1.0389645E-01  -7.4740809E-01   0.0000000E+00   1.0304960E-01  -7.9946512E-01   0.0000000E+00   1.1070637E-01  -7.9933476E-01   0.0000000E+00   1.1099600E-01  -7.9894054E-01   0.0000000E+00   1.1179801E-01  -7.9827207E-01   0.0000000E+00   1.1289892E-01  -7.9732150E-01   0.0000000E+00   1.1392481E-01  -7.9609114E-01   0.0000000E+00   1.1437815E-01  -7.9460609E-01   0.0000000E+00   1.1379477E-01  -7.9292506E-01   0.0000000E+00   1.1204514E-01  -8.3642006E-01   0.0000000E+00   1.2200920E-01  -8.3629948E-01   0.0000000E+00   1.2240175E-01  -8.3591974E-01   0.0000000E+00   1.2347471E-01  -8.3522838E-01   0.0000000E+00   1.2490216E-01  -8.3416337E-01   0.0000000E+00   1.2613060E-01  -8.3268422E-01   0.0000000E+00   1.2644432E-01  -8.3081406E-01   0.0000000E+00   1.2519535E-01  -8.2868189E-01   0.0000000E+00   1.2223129E-01  -8.5642427E-01   0.0000000E+00   1.3545287E-01  -8.5631347E-01   0.0000000E+00   1.3595806E-01  -8.5594308E-01   0.0000000E+00   1.3732456E-01  -8.5521448E-01   0.0000000E+00   1.3909635E-01  -8.5400420E-01   0.0000000E+00   1.4051637E-01  -8.5222203E-01   0.0000000E+00   1.4062662E-01  -8.4989047E-01   0.0000000E+00   1.3858782E-01  -8.4721476E-01   0.0000000E+00   1.3426030E-01  -8.5122079E-01   0.0000000E+00   1.5151006E-01  -8.5109520E-01   0.0000000E+00   1.5211284E-01  -8.5066736E-01   0.0000000E+00   1.5373166E-01  -8.4979427E-01   0.0000000E+00   1.5579119E-01  -8.4829950E-01   0.0000000E+00   1.5735091E-01  -8.4605622E-01   0.0000000E+00   1.5724425E-01  -8.4308654E-01   0.0000000E+00   1.5449798E-01  -8.3965808E-01   0.0000000E+00   1.4904414E-01  -8.1141132E-01   0.0000000E+00   1.7091623E-01  -8.1122136E-01   0.0000000E+00   1.7155728E-01  -8.1058639E-01   0.0000000E+00   1.7327246E-01  -8.0933189E-01   0.0000000E+00   1.7543171E-01  -8.0724508E-01   0.0000000E+00   1.7700802E-01  -8.0417615E-01   0.0000000E+00   1.7675272E-01  -8.0015475E-01   0.0000000E+00   1.7369314E-01  -7.9547906E-01   0.0000000E+00   1.6785927E-01  -7.2189075E-01   0.0000000E+00   1.9522461E-01  -7.2156173E-01   0.0000000E+00   1.9578288E-01  -7.2049892E-01   0.0000000E+00   1.9728211E-01  -7.1850353E-01   0.0000000E+00   1.9917105E-01  -7.1534342E-01   0.0000000E+00   2.0052727E-01  -7.1086526E-01   0.0000000E+00   2.0023897E-01  -7.0509750E-01   0.0000000E+00   1.9748369E-01  -6.9833547E-01   0.0000000E+00   1.9227865E-01  -5.5637693E-01   0.0000000E+00   2.2707467E-01  -5.5581689E-01   0.0000000E+00   2.2735970E-01  -5.5405456E-01   0.0000000E+00   2.2814435E-01  -5.5088603E-01   0.0000000E+00   2.2916062E-01  -5.4608387E-01   0.0000000E+00   2.2986610E-01  -5.3949612E-01   0.0000000E+00   2.2953585E-01  -5.3113729E-01   0.0000000E+00   2.2755054E-01  -5.2122629E-01   0.0000000E+00   2.2366816E-01  -2.8145066E-01   0.0000000E+00   2.6967052E-01  -2.8057349E-01   0.0000000E+00   2.6942021E-01  -2.7787080E-01   0.0000000E+00   2.6879686E-01  -2.7316526E-01   0.0000000E+00   2.6806402E-01  -2.6625842E-01   0.0000000E+00   2.6737198E-01  -2.5701374E-01   0.0000000E+00   2.6658162E-01  -2.4540323E-01   0.0000000E+00   2.6519740E-01  -2.3145582E-01   0.0000000E+00   2.6241308E-01   1.2841745E-01   0.0000000E+00   3.2535762E-01   1.2963459E-01   0.0000000E+00   3.2424939E-01   1.3332948E-01   0.0000000E+00   3.2135499E-01   1.3961923E-01   0.0000000E+00   3.1772891E-01   1.4864433E-01   0.0000000E+00   3.1449226E-01   1.6050968E-01   0.0000000E+00   3.1219617E-01   1.7528868E-01   0.0000000E+00   3.1030983E-01   1.9316269E-01   0.0000000E+00   3.0716288E-01   6.6929287E-01   0.0000000E+00   3.9346862E-01   6.7074680E-01   0.0000000E+00   3.9117274E-01   6.7512685E-01   0.0000000E+00   3.8510895E-01   6.8247813E-01   0.0000000E+00   3.7733403E-01   6.9285047E-01   0.0000000E+00   3.7011603E-01   7.0626026E-01   0.0000000E+00   3.6471197E-01   7.2275364E-01   0.0000000E+00   3.6039481E-01   7.4259079E-01   0.0000000E+00   3.5442087E-01   1.2883327E+00   0.0000000E+00   4.6838513E-01   1.2898139E+00   0.0000000E+00   4.6466982E-01   1.2942444E+00   0.0000000E+00   4.5477301E-01   1.3015803E+00   0.0000000E+00   4.4183478E-01   1.3117276E+00   0.0000000E+00   4.2931572E-01   1.3245268E+00   0.0000000E+00   4.1912255E-01   1.3398479E+00   0.0000000E+00   4.1024187E-01   1.3577620E+00   0.0000000E+00   3.9883900E-01   1.8820097E+00   0.0000000E+00   5.4017395E-01   1.8832968E+00   0.0000000E+00   5.3495175E-01   1.8870902E+00   0.0000000E+00   5.2095777E-01   1.8931948E+00   0.0000000E+00   5.0238174E-01   1.9012665E+00   0.0000000E+00   4.8380247E-01   1.9108298E+00   0.0000000E+00   4.6770641E-01   1.9213943E+00   0.0000000E+00   4.5285031E-01   1.9325696E+00   0.0000000E+00   4.3455389E-01   2.3224211E+00   0.0000000E+00   5.9769648E-01   2.3233621E+00   0.0000000E+00   5.9107006E-01   2.3260446E+00   0.0000000E+00   5.7322258E-01   2.3300436E+00   0.0000000E+00   5.4924661E-01   2.3347223E+00   0.0000000E+00   5.2471107E-01   2.3392754E+00   0.0000000E+00   5.0271404E-01   2.3428066E+00   0.0000000E+00   4.8206776E-01   2.3443489E+00   0.0000000E+00   4.5770401E-01   2.5438519E+00   0.0000000E+00   6.3432378E-01   2.5442393E+00   0.0000000E+00   6.2656873E-01   2.5452096E+00   0.0000000E+00   6.0561264E-01   2.5462420E+00   0.0000000E+00   5.7724833E-01   2.5465748E+00   0.0000000E+00   5.4788136E-01   2.5453117E+00   0.0000000E+00   5.2127326E-01   2.5413852E+00   0.0000000E+00   4.9659014E-01   2.5333688E+00   0.0000000E+00   4.6882156E-01   2.5827811E+00   0.0000000E+00   6.5032172E-01   2.5825360E+00   0.0000000E+00   6.4184350E-01   2.5816255E+00   0.0000000E+00   6.1890358E-01   2.5796044E+00   0.0000000E+00   5.8777887E-01   2.5758605E+00   0.0000000E+00   5.5551541E-01   2.5696876E+00   0.0000000E+00   5.2649522E-01   2.5601697E+00   0.0000000E+00   5.0035661E-01   2.5457153E+00   0.0000000E+00   4.7233924E-01   2.5124936E+00   0.0000000E+00   6.5016186E-01   2.5117640E+00   0.0000000E+00   6.4141685E-01   2.5094812E+00   0.0000000E+00   6.1777884E-01   2.5054152E+00   0.0000000E+00   5.8578831E-01   2.4993191E+00   0.0000000E+00   5.5287975E-01   2.4909332E+00   0.0000000E+00   5.2388430E-01   2.4797277E+00   0.0000000E+00   4.9879727E-01   2.4642770E+00   0.0000000E+00   4.7302741E-01   2.3902731E+00   0.0000000E+00   6.3966972E-01   2.3894050E+00   0.0000000E+00   6.3107502E-01   2.3868086E+00   0.0000000E+00   6.0791367E-01   2.3825517E+00   0.0000000E+00   5.7679003E-01   2.3768246E+00   0.0000000E+00   5.4525054E-01   2.3699031E+00   0.0000000E+00   5.1829135E-01   2.3617406E+00   0.0000000E+00   4.9599957E-01   2.3512108E+00   0.0000000E+00   4.7372642E-01   2.2344742E+00   0.0000000E+00   6.2370896E-01   2.2338989E+00   0.0000000E+00   6.1557090E-01   2.2322798E+00   0.0000000E+00   5.9374595E-01   2.2299409E+00   0.0000000E+00   5.6473893E-01   2.2274561E+00   0.0000000E+00   5.3596193E-01   2.2255270E+00   0.0000000E+00   5.1226383E-01   2.2244949E+00   0.0000000E+00   4.9352214E-01   2.2235181E+00   0.0000000E+00   4.7480550E-01   2.0307314E+00   0.0000000E+00   6.0504735E-01   2.0308449E+00   0.0000000E+00   5.9753686E-01   2.0313346E+00   0.0000000E+00   5.7751733E-01   2.0326684E+00   0.0000000E+00   5.5128068E-01   2.0356197E+00   0.0000000E+00   5.2592701E-01   2.0410855E+00   0.0000000E+00   5.0591338E-01   2.0496101E+00   0.0000000E+00   4.9068150E-01   2.0605342E+00   0.0000000E+00   4.7488758E-01   1.7563205E+00   0.0000000E+00   5.8454216E-01   1.7573557E+00   0.0000000E+00   5.7770956E-01   1.7606128E+00   0.0000000E+00   5.5962080E-01   1.7665488E+00   0.0000000E+00   5.3629100E-01   1.7758936E+00   0.0000000E+00   5.1440275E-01   1.7894950E+00   0.0000000E+00   4.9790823E-01   1.8079102E+00   0.0000000E+00   4.8573023E-01   1.8306534E+00   0.0000000E+00   4.7210926E-01   1.4079795E+00   0.0000000E+00   5.6214058E-01   1.4099351E+00   0.0000000E+00   5.5595940E-01   1.4159061E+00   0.0000000E+00   5.3971189E-01   1.4262120E+00   0.0000000E+00   5.1910079E-01   1.4413658E+00   0.0000000E+00   5.0035065E-01   1.4619862E+00   0.0000000E+00   4.8689979E-01   1.4885534E+00   0.0000000E+00   4.7721446E-01   1.5208589E+00   0.0000000E+00   4.6523961E-01   1.0178057E+00   0.0000000E+00   5.3783268E-01   1.0204133E+00   0.0000000E+00   5.3225917E-01   1.0282769E+00   0.0000000E+00   5.1770455E-01   1.0415195E+00   0.0000000E+00   4.9952698E-01   1.0603650E+00   0.0000000E+00   4.8347905E-01   1.0851611E+00   0.0000000E+00   4.7252670E-01   1.1163357E+00   0.0000000E+00   4.6480867E-01   1.1541390E+00   0.0000000E+00   4.5417172E-01   6.4034784E-01   0.0000000E+00   5.1198584E-01   6.4320743E-01   0.0000000E+00   5.0699681E-01   6.5176123E-01   0.0000000E+00   4.9404058E-01   6.6594732E-01   0.0000000E+00   4.7807598E-01   6.8572634E-01   0.0000000E+00   4.6435413E-01   7.1121943E-01   0.0000000E+00   4.5540610E-01   7.4288315E-01   0.0000000E+00   4.4917271E-01   7.8155184E-01   0.0000000E+00   4.3960467E-01   3.2273582E-01   0.0000000E+00   4.8534173E-01   3.2549772E-01   0.0000000E+00   4.8093924E-01   3.3371004E-01   0.0000000E+00   4.6955520E-01   3.4717429E-01   0.0000000E+00   4.5566532E-01   3.6566466E-01   0.0000000E+00   4.4395748E-01   3.8915423E-01   0.0000000E+00   4.3653664E-01   4.1817215E-01   0.0000000E+00   4.3123800E-01   4.5411438E-01   0.0000000E+00   4.2229533E-01   8.6411655E-02   0.0000000E+00   4.5879731E-01   8.8892646E-02   0.0000000E+00   4.5499498E-01   9.6237294E-02   0.0000000E+00   4.4517741E-01   1.0818174E-01   0.0000000E+00   4.3323547E-01   1.2440981E-01   0.0000000E+00   4.2319986E-01   1.4481689E-01   0.0000000E+00   4.1673973E-01   1.6997027E-01   0.0000000E+00   4.1165477E-01   2.0162791E-01   0.0000000E+00   4.0260342E-01  -7.2496109E-02   0.0000000E+00   4.3303505E-01  -7.0317805E-02   0.0000000E+00   4.2983004E-01  -6.3879855E-02   0.0000000E+00   4.2153057E-01  -5.3436052E-02   0.0000000E+00   4.1133901E-01  -3.9286111E-02   0.0000000E+00   4.0252709E-01  -2.1541743E-02   0.0000000E+00   3.9631426E-01   3.2102969E-04   0.0000000E+00   3.9054510E-01   2.8102033E-02   0.0000000E+00   3.8043714E-01  -1.7244500E-01   0.0000000E+00   4.0831065E-01  -1.7048763E-01   0.0000000E+00   4.0566710E-01  -1.6468436E-01   0.0000000E+00   3.9874589E-01  -1.5520856E-01   0.0000000E+00   3.8998470E-01  -1.4224535E-01   0.0000000E+00   3.8182056E-01  -1.2584460E-01   0.0000000E+00   3.7502158E-01  -1.0560523E-01   0.0000000E+00   3.6759472E-01  -8.0028549E-02   0.0000000E+00   3.5548425E-01  -2.3454836E-01   0.0000000E+00   3.8449055E-01  -2.3268519E-01   0.0000000E+00   3.8232577E-01  -2.2711664E-01   0.0000000E+00   3.7651777E-01  -2.1788098E-01   0.0000000E+00   3.6871275E-01  -2.0498741E-01   0.0000000E+00   3.6050776E-01  -1.8838060E-01   0.0000000E+00   3.5226139E-01  -1.6782562E-01   0.0000000E+00   3.4229481E-01  -1.4239378E-01   0.0000000E+00   3.2748678E-01  -2.7445212E-01   0.0000000E+00   3.6114869E-01  -2.7255607E-01   0.0000000E+00   3.5931855E-01  -2.6682636E-01   0.0000000E+00   3.5421175E-01  -2.5714314E-01   0.0000000E+00   3.4674233E-01  -2.4333432E-01   0.0000000E+00   3.3777258E-01  -2.2525765E-01   0.0000000E+00   3.2737130E-01  -2.0286240E-01   0.0000000E+00   3.1433171E-01  -1.7592961E-01   0.0000000E+00   2.9668155E-01  -2.9984659E-01   0.0000000E+00   3.3759674E-01  -2.9781035E-01   0.0000000E+00   3.3591375E-01  -2.9159781E-01   0.0000000E+00   3.3100411E-01  -2.8093767E-01   0.0000000E+00   3.2322443E-01  -2.6551220E-01   0.0000000E+00   3.1292057E-01  -2.4516793E-01   0.0000000E+00   3.0005574E-01  -2.2010948E-01   0.0000000E+00   2.8402776E-01  -1.9116542E-01   0.0000000E+00   2.6426715E-01  -3.1252682E-01   0.0000000E+00   3.1294957E-01  -3.1026188E-01   0.0000000E+00   3.1124172E-01  -3.0330834E-01   0.0000000E+00   3.0611315E-01  -2.9127321E-01   0.0000000E+00   2.9759210E-01  -2.7377960E-01   0.0000000E+00   2.8577098E-01  -2.5080588E-01   0.0000000E+00   2.7072567E-01  -2.2310394E-01   0.0000000E+00   2.5260311E-01  -1.9356632E-01   0.0000000E+00   2.3254424E-01  -3.1197947E-01   0.0000000E+00   2.8639141E-01  -3.0939490E-01   0.0000000E+00   2.8457755E-01  -3.0145639E-01   0.0000000E+00   2.7907947E-01  -2.8775319E-01   0.0000000E+00   2.6981109E-01  -2.6801950E-01   0.0000000E+00   2.5685564E-01  -2.4271485E-01   0.0000000E+00   2.4064298E-01  -2.1421759E-01   0.0000000E+00   2.2236399E-01  -1.8751499E-01   0.0000000E+00   2.0438978E-01  -2.9769167E-01   0.0000000E+00   2.5755444E-01  -2.9472369E-01   0.0000000E+00   2.5567463E-01  -2.8568107E-01   0.0000000E+00   2.4999341E-01  -2.7034310E-01   0.0000000E+00   2.4048831E-01  -2.4907474E-01   0.0000000E+00   2.2750013E-01  -2.2381009E-01   0.0000000E+00   2.1209083E-01  -1.9857848E-01   0.0000000E+00   1.9619063E-01  -1.7885497E-01   0.0000000E+00   1.8205538E-01  -2.7054888E-01   0.0000000E+00   2.2673297E-01  -2.6726985E-01   0.0000000E+00   2.2494814E-01  -2.5756156E-01   0.0000000E+00   2.1964353E-01  -2.4198137E-01   0.0000000E+00   2.1106198E-01  -2.2221316E-01   0.0000000E+00   1.9997515E-01  -2.0132396E-01   0.0000000E+00   1.8771525E-01  -1.8381725E-01   0.0000000E+00   1.7595243E-01  -1.7388588E-01   0.0000000E+00   1.6615605E-01  -2.3502237E-01   0.0000000E+00   1.9498044E-01  -2.3195137E-01   0.0000000E+00   1.9362490E-01  -2.2327082E-01   0.0000000E+00   1.8970372E-01  -2.1051930E-01   0.0000000E+00   1.8370369E-01  -1.9632447E-01   0.0000000E+00   1.7641930E-01  -1.8407540E-01   0.0000000E+00   1.6872822E-01  -1.7716411E-01   0.0000000E+00   1.6160098E-01  -1.7690830E-01   0.0000000E+00   1.5539539E-01  -1.9968766E-01   0.0000000E+00   1.6429998E-01  -1.9761235E-01   0.0000000E+00   1.6375040E-01  -1.9207679E-01   0.0000000E+00   1.6220252E-01  -1.8523762E-01   0.0000000E+00   1.5994821E-01  -1.7995892E-01   0.0000000E+00   1.5724377E-01  -1.7864794E-01   0.0000000E+00   1.5433687E-01  -1.8191886E-01   0.0000000E+00   1.5130575E-01  -1.8504056E-01   0.0000000E+00   1.4859210E-01  -1.7342183E-01   0.0000000E+00   1.3687837E-01  -1.7286952E-01   0.0000000E+00   1.3728032E-01  -1.7204010E-01   0.0000000E+00   1.3837951E-01  -1.7287342E-01   0.0000000E+00   1.3988785E-01  -1.7744470E-01   0.0000000E+00   1.4152244E-01  -1.8485221E-01   0.0000000E+00   1.4313333E-01  -1.8836117E-01   0.0000000E+00   1.4520290E-01  -1.7516579E-01   0.0000000E+00   1.4797328E-01  -1.6138831E-01   0.0000000E+00   1.1394361E-01  -1.6238542E-01   0.0000000E+00   1.1516395E-01  -1.6577066E-01   0.0000000E+00   1.1846717E-01  -1.7272165E-01   0.0000000E+00   1.2332817E-01  -1.8058547E-01   0.0000000E+00   1.2971321E-01  -1.8081054E-01   0.0000000E+00   1.3762194E-01  -1.6687240E-01   0.0000000E+00   1.4390925E-01  -1.3473010E-01   0.0000000E+00   1.4515796E-01  -1.5998881E-01   0.0000000E+00   9.5421962E-02  -1.6030942E-01   0.0000000E+00   9.7330563E-02  -1.6233912E-01   0.0000000E+00   1.0300352E-01  -1.6481774E-01   0.0000000E+00   1.1192458E-01  -1.6578184E-01   0.0000000E+00   1.2184554E-01  -1.5280259E-01   0.0000000E+00   1.3063861E-01  -1.3481705E-01   0.0000000E+00   1.3124140E-01  -1.0338833E-01   0.0000000E+00   1.3081793E-01  -1.6910467E-01   0.0000000E+00   8.0450378E-02  -1.6873179E-01   0.0000000E+00   8.2603298E-02  -1.6605981E-01   0.0000000E+00   8.8989548E-02  -1.6270480E-01   0.0000000E+00   9.7678728E-02  -1.6001686E-01   0.0000000E+00   1.0511649E-01  -1.4418325E-01   0.0000000E+00   1.1147600E-01  -1.3817745E-01   0.0000000E+00   1.0959186E-01  -1.9489685E-01   0.0000000E+00   6.8306811E-02  -1.9544381E-01   0.0000000E+00   6.9704108E-02  -1.9500118E-01   0.0000000E+00   7.3327765E-02  -1.9161706E-01   0.0000000E+00   7.8484759E-02  -1.9057876E-01   0.0000000E+00   8.4665909E-02  -7.3645353E-02   0.0000000E+00   2.6753650E-03  -7.1386628E-02   0.0000000E+00   2.7044588E-03  -6.7949779E-02   0.0000000E+00   2.3932308E-03  -6.3008420E-02   0.0000000E+00   1.5940490E-03  -5.6317285E-02   0.0000000E+00   2.6425463E-04  -4.7870945E-02   0.0000000E+00  -1.4479674E-03  -3.8078208E-02   0.0000000E+00  -3.1366269E-03  -8.6238272E-02   0.0000000E+00   3.4738183E-03  -8.3833210E-02   0.0000000E+00   3.5096661E-03  -8.0079287E-02   0.0000000E+00   3.1187504E-03  -7.4568063E-02   0.0000000E+00   2.1137930E-03  -6.6975884E-02   0.0000000E+00   4.3402077E-04  -5.7260666E-02   0.0000000E+00  -1.7510201E-03  -4.5876723E-02   0.0000000E+00  -3.9585130E-03  -3.3873767E-02   0.0000000E+00  -5.4203584E-03  -9.6339405E-02   0.0000000E+00   4.0900828E-03  -9.3984082E-02   0.0000000E+00   4.1320468E-03  -9.0162933E-02   0.0000000E+00   3.6926635E-03  -8.4377624E-02   0.0000000E+00   2.5496809E-03  -7.6201871E-02   0.0000000E+00   6.1906665E-04  -6.5515339E-02   0.0000000E+00  -1.9257679E-03  -5.2765779E-02   0.0000000E+00  -4.5613097E-03  -3.9138120E-02   0.0000000E+00  -6.4516435E-03  -1.0549816E-01   0.0000000E+00   4.4558309E-03  -1.0333183E-01   0.0000000E+00   4.5043044E-03  -9.9615119E-02   0.0000000E+00   4.0584235E-03  -9.3749382E-02   0.0000000E+00   2.8645755E-03  -8.5179880E-02   0.0000000E+00   8.0620777E-04  -7.3672310E-02   0.0000000E+00  -1.9618191E-03  -5.9648570E-02   0.0000000E+00  -4.9054027E-03  -4.4435911E-02   0.0000000E+00  -7.1260422E-03  -1.1517086E-01   0.0000000E+00   4.5807622E-03  -1.1328245E-01   0.0000000E+00   4.6316353E-03  -1.0977571E-01   0.0000000E+00   4.2150272E-03  -1.0394081E-01   0.0000000E+00   3.0500679E-03  -9.5077008E-02   0.0000000E+00   9.8064356E-04  -8.2847513E-02   0.0000000E+00  -1.8770557E-03  -6.7630641E-02   0.0000000E+00  -5.0068577E-03  -5.0826471E-02   0.0000000E+00  -7.4636675E-03  -1.2638867E-01   0.0000000E+00   4.5386911E-03  -1.2483975E-01   0.0000000E+00   4.5741131E-03  -1.2161718E-01   0.0000000E+00   4.1991286E-03  -1.1591868E-01   0.0000000E+00   3.1164966E-03  -1.0699982E-01   0.0000000E+00   1.1276929E-03  -9.4438389E-02   0.0000000E+00  -1.7152878E-03  -7.8432418E-02   0.0000000E+00  -4.9467478E-03  -6.0215052E-02   0.0000000E+00  -7.5731967E-03  -1.3963655E-01   0.0000000E+00   4.4492995E-03  -1.3848448E-01   0.0000000E+00   4.4368394E-03  -1.3565648E-01   0.0000000E+00   4.0950561E-03  -1.3041939E-01   0.0000000E+00   3.1251139E-03  -1.2211749E-01   0.0000000E+00   1.2661465E-03  -1.1021994E-01   0.0000000E+00  -1.5277676E-03  -9.4523601E-02   0.0000000E+00  -4.8553473E-03  -7.5443052E-02   0.0000000E+00  -7.6107471E-03  -1.5495470E-01   0.0000000E+00   4.4742292E-03  -1.5426816E-01   0.0000000E+00   4.3893680E-03  -1.5208994E-01   0.0000000E+00   4.0814057E-03  -1.4795145E-01   0.0000000E+00   3.2328591E-03  -1.4144033E-01   0.0000000E+00   1.4773256E-03  -1.3197771E-01   0.0000000E+00  -1.3535640E-03  -1.1868232E-01   0.0000000E+00  -4.8957211E-03  -1.0013755E-01   0.0000000E+00  -7.7310009E-03  -1.7222914E-01   0.0000000E+00   4.8374929E-03  -1.7211914E-01   0.0000000E+00   4.6976972E-03  -1.7094406E-01   0.0000000E+00   4.4564903E-03  -1.6868010E-01   0.0000000E+00   3.7180693E-03  -1.6536498E-01   0.0000000E+00   1.9438697E-03  -1.6060092E-01   0.0000000E+00  -1.1694029E-03  -1.5280721E-01   0.0000000E+00  -5.2316757E-03  -1.3772145E-01   0.0000000E+00  -8.1549780E-03  -1.9150515E-01   0.0000000E+00   5.8364114E-03  -1.9208778E-01   0.0000000E+00   5.7252343E-03  -1.9220145E-01   0.0000000E+00   5.6282040E-03  -1.9235134E-01   0.0000000E+00   4.9951151E-03  -1.9320308E-01   0.0000000E+00   3.0133952E-03  -1.9488838E-01   0.0000000E+00  -8.4282923E-04  -1.9561860E-01   0.0000000E+00  -6.1157099E-03  -1.8847349E-01   0.0000000E+00  -9.9426769E-03  -2.1290214E-01   0.0000000E+00   7.8045530E-03  -2.1422897E-01   0.0000000E+00   7.8757768E-03  -2.1567954E-01   0.0000000E+00   8.0671003E-03  -2.1820295E-01   0.0000000E+00   7.5995247E-03  -2.2304171E-01   0.0000000E+00   5.2212309E-03  -2.3100954E-01   0.0000000E+00  -1.3977685E-04  -2.4077006E-01   0.0000000E+00  -8.0523351E-03  -2.4460959E-01   0.0000000E+00  -1.5299136E-02  -2.3648714E-01   0.0000000E+00   1.1022236E-02  -2.3850830E-01   0.0000000E+00   1.1475745E-02  -2.4106124E-01   0.0000000E+00   1.2167734E-02  -2.4528839E-01   0.0000000E+00   1.2043440E-02  -2.5266367E-01   0.0000000E+00   9.2941374E-03  -2.6431981E-01   0.0000000E+00   1.9452018E-03  -2.7928489E-01   0.0000000E+00  -9.3844915E-03  -2.8875011E-01   0.0000000E+00  -1.8116502E-02  -2.6228952E-01   0.0000000E+00   1.5612796E-02  -2.6486427E-01   0.0000000E+00   1.6629936E-02  -2.6811254E-01   0.0000000E+00   1.8047232E-02  -2.7307281E-01   0.0000000E+00   1.8631531E-02  -2.8105393E-01   0.0000000E+00   1.6279913E-02  -2.9299346E-01   0.0000000E+00   9.4709229E-03  -3.0775213E-01   0.0000000E+00   3.2953490E-03  -3.1687540E-01   0.0000000E+00   9.0558138E-03  -2.9030859E-01   0.0000000E+00   2.1477301E-02  -2.9323697E-01   0.0000000E+00   2.3134394E-02  -2.9676005E-01   0.0000000E+00   2.5381804E-02  -3.0161422E-01   0.0000000E+00   2.7088922E-02  -3.0873123E-01   0.0000000E+00   2.6479099E-02  -3.1872275E-01   0.0000000E+00   2.4024254E-02  -3.3065754E-01   0.0000000E+00   2.7663166E-02  -3.3883029E-01   0.0000000E+00   4.1378587E-02  -3.2052889E-01   0.0000000E+00   2.8311037E-02  -3.2356930E-01   0.0000000E+00   3.0521635E-02  -3.2701686E-01   0.0000000E+00   3.3476453E-02  -3.3125460E-01   0.0000000E+00   3.6361970E-02  -3.3681321E-01   0.0000000E+00   3.8111471E-02  -3.4406874E-01   0.0000000E+00   4.0136237E-02  -3.5255456E-01   0.0000000E+00   4.8492905E-02  -3.5934991E-01   0.0000000E+00   6.1085623E-02  -3.5295689E-01   0.0000000E+00   3.5703324E-02  -3.5583344E-01   0.0000000E+00   3.8244214E-02  -3.5891727E-01   0.0000000E+00   4.1571379E-02  -3.6229730E-01   0.0000000E+00   4.5159962E-02  -3.6618721E-01   0.0000000E+00   4.8555415E-02  -3.7077254E-01   0.0000000E+00   5.3092480E-02  -3.7593269E-01   0.0000000E+00   6.1748650E-02  -3.8057387E-01   0.0000000E+00   7.0335597E-02  -3.8764316E-01   0.0000000E+00   4.3273594E-02  -3.9008573E-01   0.0000000E+00   4.5868635E-02  -3.9254218E-01   0.0000000E+00   4.9178317E-02  -3.9494172E-01   0.0000000E+00   5.2847851E-02  -3.9730418E-01   0.0000000E+00   5.6690082E-02  -3.9970371E-01   0.0000000E+00   6.1576586E-02  -4.0214798E-01   0.0000000E+00   6.8569705E-02  -4.0438333E-01   0.0000000E+00   7.3940739E-02  -4.2467627E-01   0.0000000E+00   5.0772820E-02  -4.2649454E-01   0.0000000E+00   5.3169768E-02  -4.2810705E-01   0.0000000E+00   5.6170464E-02  -4.2942023E-01   0.0000000E+00   5.9467349E-02  -4.3039855E-01   0.0000000E+00   6.2893324E-02  -4.3108726E-01   0.0000000E+00   6.6893816E-02  -4.3156648E-01   0.0000000E+00   7.1929991E-02  -4.3189356E-01   0.0000000E+00   7.5315647E-02  -4.6415004E-01   0.0000000E+00   5.8111522E-02  -4.6525487E-01   0.0000000E+00   6.0141396E-02  -4.6593899E-01   0.0000000E+00   6.2665828E-02  -4.6611384E-01   0.0000000E+00   6.5411650E-02  -4.6578988E-01   0.0000000E+00   6.8115778E-02  -4.6505868E-01   0.0000000E+00   7.0916787E-02  -4.6407080E-01   0.0000000E+00   7.4642815E-02  -4.6302423E-01   0.0000000E+00   7.7033252E-02  -5.0612634E-01   0.0000000E+00   6.5323792E-02  -5.0651634E-01   0.0000000E+00   6.6914044E-02  -5.0631344E-01   0.0000000E+00   6.8914704E-02  -5.0543779E-01   0.0000000E+00   7.1098134E-02  -5.0395095E-01   0.0000000E+00   7.3103599E-02  -5.0201505E-01   0.0000000E+00   7.4896351E-02  -4.9984953E-01   0.0000000E+00   7.7904359E-02  -4.9771461E-01   0.0000000E+00   8.0072023E-02  -5.5060184E-01   0.0000000E+00   7.2496407E-02  -5.5033767E-01   0.0000000E+00   7.3646113E-02  -5.4937285E-01   0.0000000E+00   7.5163707E-02  -5.4763836E-01   0.0000000E+00   7.6878771E-02  -5.4523957E-01   0.0000000E+00   7.8372225E-02  -5.4239321E-01   0.0000000E+00   7.9423107E-02  -5.3936666E-01   0.0000000E+00   8.2031071E-02  -5.3645343E-01   0.0000000E+00   8.4211528E-02  -5.9746987E-01   0.0000000E+00   7.9702526E-02  -5.9665281E-01   0.0000000E+00   8.0434598E-02  -5.9510481E-01   0.0000000E+00   8.1545413E-02  -5.9277368E-01   0.0000000E+00   8.2933038E-02  -5.8979487E-01   0.0000000E+00   8.4157817E-02  -5.8641011E-01   0.0000000E+00   8.4801853E-02  -5.8290732E-01   0.0000000E+00   8.7144293E-02  -5.7959008E-01   0.0000000E+00   8.9485466E-02  -6.4639539E-01   0.0000000E+00   8.6972140E-02  -6.4515668E-01   0.0000000E+00   8.7275736E-02  -6.4324939E-01   0.0000000E+00   8.8032410E-02  -6.4065212E-01   0.0000000E+00   8.9217618E-02  -6.3751078E-01   0.0000000E+00   9.0399310E-02  -6.3405788E-01   0.0000000E+00   9.1027446E-02  -6.3056099E-01   0.0000000E+00   9.3247093E-02  -6.2731010E-01   0.0000000E+00   9.5785625E-02  -6.9652110E-01   0.0000000E+00   9.4315998E-02  -6.9500786E-01   0.0000000E+00   9.4089106E-02  -6.9300675E-01   0.0000000E+00   9.4466411E-02  -6.9054514E-01   0.0000000E+00   9.5502928E-02  -6.8776244E-01   0.0000000E+00   9.6765280E-02  -6.8484080E-01   0.0000000E+00   9.7741105E-02  -6.8198133E-01   0.0000000E+00   1.0019891E-01  -6.7942154E-01   0.0000000E+00   1.0297260E-01  -7.4595368E-01   0.0000000E+00   1.0179626E-01  -7.4430579E-01   0.0000000E+00   1.0081162E-01  -7.4249679E-01   0.0000000E+00   1.0067314E-01  -7.4062377E-01   0.0000000E+00   1.0149094E-01  -7.3880208E-01   0.0000000E+00   1.0273372E-01  -7.3712730E-01   0.0000000E+00   1.0421789E-01  -7.3568290E-01   0.0000000E+00   1.0749611E-01  -7.3459560E-01   0.0000000E+00   1.1075692E-01  -7.9115790E-01   0.0000000E+00   1.0962694E-01  -7.8948265E-01   0.0000000E+00   1.0755357E-01  -7.8812349E-01   0.0000000E+00   1.0666749E-01  -7.8726470E-01   0.0000000E+00   1.0706869E-01  -7.8698760E-01   0.0000000E+00   1.0787252E-01  -7.8727758E-01   0.0000000E+00   1.0948961E-01  -7.8805339E-01   0.0000000E+00   1.1423180E-01  -7.8925037E-01   0.0000000E+00   1.1843799E-01  -8.2656544E-01   0.0000000E+00   1.1828819E-01  -8.2489628E-01   0.0000000E+00   1.1481411E-01  -8.2411700E-01   0.0000000E+00   1.1296104E-01  -8.2450897E-01   0.0000000E+00   1.1266499E-01  -8.2613134E-01   0.0000000E+00   1.1226343E-01  -8.2886255E-01   0.0000000E+00   1.1281189E-01  -8.3242923E-01   0.0000000E+00   1.1928749E-01  -8.3648670E-01   0.0000000E+00   1.2490438E-01  -8.4464484E-01   0.0000000E+00   1.2866841E-01  -8.4286195E-01   0.0000000E+00   1.2372093E-01  -8.4251666E-01   0.0000000E+00   1.2085202E-01  -8.4398520E-01   0.0000000E+00   1.1963237E-01  -8.4733027E-01   0.0000000E+00   1.1698472E-01  -8.5236621E-01   0.0000000E+00   1.1417654E-01  -8.5864770E-01   0.0000000E+00   1.2164672E-01  -8.6551207E-01   0.0000000E+00   1.2864295E-01  -8.3635342E-01   0.0000000E+00   1.4216922E-01  -8.3404762E-01   0.0000000E+00   1.3611290E-01  -8.3353007E-01   0.0000000E+00   1.3244441E-01  -8.3522511E-01   0.0000000E+00   1.3021690E-01  -8.3916527E-01   0.0000000E+00   1.2425276E-01  -8.4518886E-01   0.0000000E+00   1.1494174E-01  -8.5283941E-01   0.0000000E+00   1.2092944E-01  -8.6126024E-01   0.0000000E+00   1.2849668E-01  -7.9080468E-01   0.0000000E+00   1.6060226E-01  -7.8707278E-01   0.0000000E+00   1.5415843E-01  -7.8498638E-01   0.0000000E+00   1.5000363E-01  -7.8475440E-01   0.0000000E+00   1.4655489E-01  -7.8641385E-01   0.0000000E+00   1.3642389E-01  -7.9012787E-01   0.0000000E+00   1.1772215E-01  -7.9583216E-01   0.0000000E+00   1.1832996E-01  -8.0281377E-01   0.0000000E+00   1.2468772E-01  -6.9118428E-01   0.0000000E+00   1.8566816E-01  -6.8431634E-01   0.0000000E+00   1.7942402E-01  -6.7789066E-01   0.0000000E+00   1.7456107E-01  -6.7182791E-01   0.0000000E+00   1.6881144E-01  -6.6653150E-01   0.0000000E+00   1.5378298E-01  -6.6292191E-01   0.0000000E+00   1.2735616E-01  -6.6166818E-01   0.0000000E+00   1.1752172E-01  -6.6249901E-01   0.0000000E+00   1.2101052E-01  -5.1005965E-01   0.0000000E+00   2.1818870E-01  -4.9758974E-01   0.0000000E+00   2.1194148E-01  -4.8323724E-01   0.0000000E+00   2.0511693E-01  -4.6693462E-01   0.0000000E+00   1.9498649E-01  -4.4986597E-01   0.0000000E+00   1.7301489E-01  -4.3392038E-01   0.0000000E+00   1.4375594E-01  -4.2055249E-01   0.0000000E+00   1.2941138E-01  -4.0998080E-01   0.0000000E+00   1.2461203E-01  -2.1493536E-01   0.0000000E+00   2.5738895E-01  -1.9489761E-01   0.0000000E+00   2.4963374E-01  -1.7025544E-01   0.0000000E+00   2.3829512E-01  -1.4126752E-01   0.0000000E+00   2.2050734E-01  -1.0991257E-01   0.0000000E+00   1.9401996E-01  -7.8862071E-02   0.0000000E+00   1.7150229E-01  -5.0130770E-02   0.0000000E+00   1.5905635E-01  -2.4362469E-02   0.0000000E+00   1.4400229E-01   2.1486899E-01   0.0000000E+00   3.0049643E-01   2.4197885E-01   0.0000000E+00   2.8834328E-01   2.7568990E-01   0.0000000E+00   2.6922256E-01   3.1542549E-01   0.0000000E+00   2.4343497E-01   3.5893312E-01   0.0000000E+00   2.2203504E-01   4.0337777E-01   0.0000000E+00   2.1070491E-01   4.4666696E-01   0.0000000E+00   2.0328780E-01   4.8742375E-01   0.0000000E+00   1.6367364E-01   7.6665491E-01   0.0000000E+00   3.4298840E-01   7.9653215E-01   0.0000000E+00   3.2292980E-01   8.3315486E-01   0.0000000E+00   2.9348114E-01   8.7602663E-01   0.0000000E+00   2.6121783E-01   9.2351937E-01   0.0000000E+00   2.4628697E-01   9.7348583E-01   0.0000000E+00   2.3299795E-01   1.0242233E+00   0.0000000E+00   2.1695276E-01   1.0728018E+00   0.0000000E+00   1.3602421E-01   1.3787621E+00   0.0000000E+00   3.7967715E-01   1.4037519E+00   0.0000000E+00   3.4926820E-01   1.4331094E+00   0.0000000E+00   3.1036678E-01   1.4667361E+00   0.0000000E+00   2.7674559E-01   1.5043826E+00   0.0000000E+00   2.6067054E-01   1.5453112E+00   0.0000000E+00   2.2449087E-01   1.5882310E+00   0.0000000E+00   2.0633094E-01   1.6283445E+00   0.0000000E+00   1.2315460E-01   1.9441254E+00   0.0000000E+00   4.0656438E-01   1.9557559E+00   0.0000000E+00   3.6648306E-01   1.9669060E+00   0.0000000E+00   3.2222447E-01   1.9776180E+00   0.0000000E+00   2.8599161E-01   1.9890852E+00   0.0000000E+00   2.5893375E-01   2.0021656E+00   0.0000000E+00   2.0729907E-01   2.0154123E+00   0.0000000E+00   1.6616662E-01   2.0252447E+00   0.0000000E+00   9.0935893E-02   2.3426635E+00   0.0000000E+00   4.2284334E-01   2.3359790E+00   0.0000000E+00   3.7470251E-01   2.3225644E+00   0.0000000E+00   3.2068592E-01   2.3022847E+00   0.0000000E+00   2.7097967E-01   2.2768254E+00   0.0000000E+00   2.2421938E-01   2.2486839E+00   0.0000000E+00   1.6709656E-01   2.2201228E+00   0.0000000E+00   1.2803645E-01   2.1934655E+00   0.0000000E+00   3.3327106E-02   2.5190325E+00   0.0000000E+00   4.3106312E-01   2.4952288E+00   0.0000000E+00   3.7993962E-01   2.4593461E+00   0.0000000E+00   3.2047519E-01   2.4111092E+00   0.0000000E+00   2.6202199E-01   2.3531153E+00   0.0000000E+00   2.0280947E-01   2.2900410E+00   0.0000000E+00   1.4459148E-01   2.2274492E+00   0.0000000E+00   1.1343004E-01   2.1717792E+00   0.0000000E+00  -4.9621109E-03   2.5234697E+00   0.0000000E+00   4.3554315E-01   2.4892817E+00   0.0000000E+00   3.8598773E-01   2.4398861E+00   0.0000000E+00   3.2645708E-01   2.3750021E+00   0.0000000E+00   2.6448905E-01   2.2979481E+00   0.0000000E+00   2.0235695E-01   2.2147410E+00   0.0000000E+00   1.5908457E-01   2.1326251E+00   0.0000000E+00   1.1938891E-01   2.0595436E+00   0.0000000E+00  -1.3881069E-02   2.4414568E+00   0.0000000E+00   4.3959990E-01   2.4064467E+00   0.0000000E+00   3.9392099E-01   2.3552392E+00   0.0000000E+00   3.3730632E-01   2.2872057E+00   0.0000000E+00   2.7698767E-01   2.2058120E+00   0.0000000E+00   2.1791832E-01   2.1175020E+00   0.0000000E+00   1.8360712E-01   2.0298772E+00   0.0000000E+00   1.2552588E-01   1.9506724E+00   0.0000000E+00  -7.9094693E-03   2.3351731E+00   0.0000000E+00   4.4427824E-01   2.3083289E+00   0.0000000E+00   4.0255845E-01   2.2657442E+00   0.0000000E+00   3.4928459E-01   2.2058918E+00   0.0000000E+00   2.9335013E-01   2.1317818E+00   0.0000000E+00   2.4033141E-01   2.0497222E+00   0.0000000E+00   2.0118470E-01   1.9670826E+00   0.0000000E+00   1.2730646E-01   1.8908728E+00   0.0000000E+00  -4.6320865E-04   2.2195377E+00   0.0000000E+00   4.4861099E-01   2.2069800E+00   0.0000000E+00   4.0956697E-01   2.1799843E+00   0.0000000E+00   3.5847721E-01   2.1357973E+00   0.0000000E+00   3.0570072E-01   2.0764728E+00   0.0000000E+00   2.5461659E-01   2.0078139E+00   0.0000000E+00   2.0424753E-01   1.9368415E+00   0.0000000E+00   1.2115344E-01   1.8700169E+00   0.0000000E+00   2.1137143E-03   2.0709774E+00   0.0000000E+00   4.5074469E-01   2.0753825E+00   0.0000000E+00   4.1288102E-01   2.0673215E+00   0.0000000E+00   3.6264360E-01   2.0428638E+00   0.0000000E+00   3.1118926E-01   2.0027790E+00   0.0000000E+00   2.5945663E-01   1.9519202E+00   0.0000000E+00   1.9834931E-01   1.8967590E+00   0.0000000E+00   1.1268252E-01   1.8433936E+00   0.0000000E+00   6.3622380E-03   1.8552436E+00   0.0000000E+00   4.4910172E-01   1.8766419E+00   0.0000000E+00   4.1156885E-01   1.8884478E+00   0.0000000E+00   3.6157864E-01   1.8858761E+00   0.0000000E+00   3.1052557E-01   1.8682117E+00   0.0000000E+00   2.5778034E-01   1.8387272E+00   0.0000000E+00   1.9206746E-01   1.8027573E+00   0.0000000E+00   1.0914557E-01   1.7658901E+00   0.0000000E+00   1.5885441E-02   1.5572218E+00   0.0000000E+00   4.4304141E-01   1.5938307E+00   0.0000000E+00   4.0583363E-01   1.6251701E+00   0.0000000E+00   3.5629922E-01   1.6460547E+00   0.0000000E+00   3.0507588E-01   1.6539482E+00   0.0000000E+00   2.5195292E-01   1.6496882E+00   0.0000000E+00   1.9070752E-01   1.6367326E+00   0.0000000E+00   1.1217276E-01   1.6197209E+00   0.0000000E+00   2.8420495E-02   1.1980923E+00   0.0000000E+00   4.3286702E-01   1.2463362E+00   0.0000000E+00   3.9646867E-01   1.2952132E+00   0.0000000E+00   3.4793413E-01   1.3398807E+00   0.0000000E+00   2.9595125E-01   1.3757149E+00   0.0000000E+00   2.4373931E-01   1.4000926E+00   0.0000000E+00   1.8941066E-01   1.4138268E+00   0.0000000E+00   1.2495213E-01   1.4199517E+00   0.0000000E+00   4.5829792E-02   8.2818496E-01   0.0000000E+00   4.1931701E-01   8.8325840E-01   0.0000000E+00   3.8426036E-01   9.4543582E-01   0.0000000E+00   3.3757553E-01   1.0107176E+00   0.0000000E+00   2.8678021E-01   1.0732477E+00   0.0000000E+00   2.3276559E-01   1.1270269E+00   0.0000000E+00   1.8810938E-01   1.1690837E+00   0.0000000E+00   1.4804985E-01   1.2001171E+00   0.0000000E+00   7.1308710E-02   4.9929971E-01   0.0000000E+00   4.0285671E-01   5.5638832E-01   0.0000000E+00   3.6934537E-01   6.2631536E-01   0.0000000E+00   3.2513472E-01   7.0632839E-01   0.0000000E+00   2.7917320E-01   7.9015899E-01   0.0000000E+00   2.2648105E-01   8.6984122E-01   0.0000000E+00   1.8572599E-01   9.3844503E-01   0.0000000E+00   1.7147201E-01   9.9340564E-01   0.0000000E+00   9.6787103E-02   2.4307226E-01   0.0000000E+00   3.8343751E-01   2.9858974E-01   0.0000000E+00   3.5121951E-01   3.7082586E-01   0.0000000E+00   3.0953506E-01   4.5835328E-01   0.0000000E+00   2.6825672E-01   5.5567420E-01   0.0000000E+00   2.2515048E-01   6.5402508E-01   0.0000000E+00   1.8101093E-01   7.4309766E-01   0.0000000E+00   1.8187988E-01   8.1711876E-01   0.0000000E+00   1.0774735E-01   6.5453909E-02   0.0000000E+00   3.6073077E-01   1.1742438E-01   0.0000000E+00   3.2934037E-01   1.8737215E-01   0.0000000E+00   2.9041192E-01   2.7508321E-01   0.0000000E+00   2.5298241E-01   3.7696478E-01   0.0000000E+00   2.1793361E-01   4.8540998E-01   0.0000000E+00   1.7451185E-01   5.8626932E-01   0.0000000E+00   1.7714933E-01   6.7109782E-01   0.0000000E+00   1.0404011E-01  -4.5755476E-02   0.0000000E+00   3.3451855E-01   1.7390475E-03   0.0000000E+00   3.0393907E-01   6.5507732E-02   0.0000000E+00   2.6861763E-01   1.4665031E-01   0.0000000E+00   2.3601490E-01   2.4430189E-01   0.0000000E+00   2.0571966E-01   3.5395181E-01   0.0000000E+00   1.6492592E-01   4.6035376E-01   0.0000000E+00   1.6036887E-01   5.4719567E-01   0.0000000E+00   8.6693048E-02  -1.0979126E-01   0.0000000E+00   3.0508494E-01  -6.7434661E-02   0.0000000E+00   2.7606699E-01  -1.3084423E-02   0.0000000E+00   2.4546824E-01   5.5868134E-02   0.0000000E+00   2.1919148E-01   1.4159639E-01   0.0000000E+00   1.9362320E-01   2.4414256E-01   0.0000000E+00   1.5902822E-01   3.5768911E-01   0.0000000E+00   1.3689975E-01   4.4769913E-01   0.0000000E+00   4.9589589E-02  -1.4420196E-01   0.0000000E+00   2.7357471E-01  -1.0792258E-01   0.0000000E+00   2.4760826E-01  -6.5511033E-02   0.0000000E+00   2.2336918E-01  -1.2535395E-02   0.0000000E+00   2.0460252E-01   5.6071740E-02   0.0000000E+00   1.8466817E-01   1.4692083E-01   0.0000000E+00   1.5393889E-01   2.6355585E-01   0.0000000E+00   1.3597408E-01   3.8653371E-01   0.0000000E+00   7.5156003E-02  -1.6104169E-01   0.0000000E+00   2.4211018E-01  -1.3230346E-01   0.0000000E+00   2.2079341E-01  -1.0327609E-01   0.0000000E+00   2.0383660E-01  -6.7542210E-02   0.0000000E+00   1.9316243E-01  -1.7689398E-02   0.0000000E+00   1.7532629E-01   5.9419949E-02   0.0000000E+00   1.4470609E-01   1.7936242E-01   0.0000000E+00   1.2627195E-01   3.1807163E-01   0.0000000E+00   7.9636805E-02  -1.6731729E-01   0.0000000E+00   2.1326363E-01  -1.4771977E-01   0.0000000E+00   1.9758399E-01  -1.3192995E-01   0.0000000E+00   1.8769924E-01  -1.1183429E-01   0.0000000E+00   1.8083425E-01  -7.8457758E-02   0.0000000E+00   1.5773252E-01  -1.2683156E-02   0.0000000E+00   1.2727174E-01   1.1147167E-01   0.0000000E+00   1.1481276E-01  -1.6822672E-01   0.0000000E+00   1.8931462E-01  -1.5851970E-01   0.0000000E+00   1.7899445E-01  -1.5357028E-01   0.0000000E+00   1.7349501E-01  -1.4443862E-01   0.0000000E+00   1.6415770E-01  -1.2053742E-01   0.0000000E+00   1.3252378E-01  -5.5004105E-02   0.0000000E+00   1.1287920E-01   6.6731945E-02   0.0000000E+00   1.0288829E-01  -1.6872488E-01   0.0000000E+00   1.7138277E-01  -1.6755155E-01   0.0000000E+00   1.6471647E-01  -1.6825002E-01   0.0000000E+00   1.5994060E-01  -1.6294910E-01   0.0000000E+00   1.4144722E-01  -1.3595946E-01   0.0000000E+00   1.0971337E-01  -5.6865688E-02   0.0000000E+00   1.0569399E-01  -1.7263550E-01   0.0000000E+00   1.5883066E-01  -1.7526314E-01   0.0000000E+00   1.5355851E-01  -1.7329124E-01   0.0000000E+00   1.4425018E-01  -1.6151017E-01   0.0000000E+00   1.1588769E-01  -1.1387229E-01   0.0000000E+00   1.0096334E-01  -3.2954372E-02   0.0000000E+00   1.0051309E-01  -1.7941199E-01   0.0000000E+00   1.5032472E-01  -1.7520258E-01   0.0000000E+00   1.4479861E-01  -1.5862286E-01   0.0000000E+00   1.2970202E-01  -1.2742929E-01   0.0000000E+00   1.0562774E-01  -6.1827194E-02   0.0000000E+00   1.0802974E-01  -1.7644200E-01   0.0000000E+00   1.4676425E-01  -1.5173484E-01   0.0000000E+00   1.3937154E-01  -1.0622842E-01   0.0000000E+00   1.2853199E-01  -6.4651504E-02   0.0000000E+00   1.1338481E-01  -1.4552824E-01   0.0000000E+00   1.4492372E-01  -9.8351404E-02   0.0000000E+00   1.3876303E-01  -4.1156583E-02   0.0000000E+00   1.3615668E-01  -5.9853207E-02   0.0000000E+00   1.0197205E-01  -9.9117965E-02   0.0000000E+00   1.3765715E-01  -5.9895657E-02   0.0000000E+00   1.3465765E-01  -9.2727683E-02   0.0000000E+00   1.2387071E-01 
Force 3 2975 float
0.0 0.0 0.0 0.0 0.0 0.0 0.0 0.0 0.0 0.0 0.0 0.0 0.0 0.0 0.0 0.0 0.0 0.0 0.0 0.0 0.0 0.0 0.0 0.0 0.0 0.0 0.0 0.0 0.0 0.0 0.0 0.0 0.0 0.0 0.0 0.0 0.0 0.0 0.0 0.0 0.0 0.0 0.0 0.0 0.0 0.0 0.0 0.0 0.0 0.0 0.0 0.0 0.0 0.0 0.0 0.0 0.0 0.0 0.0 0.0 0.0 0.0 0.0 0.0 0.0 0.0 0.0 0.0 0.0 0.0 0.0 0.0 0.0 0.0 0.0 0.0 0.0 0.0 0.0 0.0 0.0 0.0 0.0 0.0 0.0 0.0 0.0 0.0 0.0 0.0 0.0 0.0 0.0 0.0 0.0 0.0 0.0 0.0 0.0 0.0 0.0 0.0 0.0 0.0 0.0 0.0 0.0 0.0 0.0 0.0 0.0 0.0 0.0 0.0 0.0 0.0 0.0 0.0 0.0 0.0 0.0 0.0 0.0 0.0 0.0 0.0 0.0 0.0 0.0 0.0 0.0 0.0 0.0 0.0 0.0 0.0 0.0 0.0 0.0 0.0 0.0 0.0 0.0 0.0 0.0 0.0 0.0 0.0 0.0 0.0 0.0 0.0 0.0 0.0 0.0 0.0 0.0 0.0 0.0 0.0 0.0 0.0 0.0 0.0 0.0 0.0 0.0 0.0 0.0 0.0 0.0 0.0 0.0 0.0 0.0 0.0 0.0 0.0 0.0 0.0 0.0 0.0 0.0 0.0 0.0 0.0 0.0 0.0 0.0 0.0 0.0 0.0 0.0 0.0 0.0 0.0 0.0 0.0 0.0 0.0 0.0 0.0 0.0 0.0 0.0 0.0 0.0 0.0 0.0 0.0 0.0 0.0 0.0 0.0 0.0 0.0 0.0 0.0 0.0 0.0 0.0 0.0 0.0 0.0 0.0 0.0 0.0 0.0 0.0 0.0 0.0 0.0 0.0 0.0 0.0 0.0 0.0 0.0 0.0 0.0 0.0 0.0 0.0 0.0 0.0 0.0 0.0 0.0 0.0 0.0 0.0 0.0 0.0 0.0 0.0 0.0 0.0 0.0 0.0 0.0 0.0 0.0 0.0 0.0 0.0 0.0 0.0 0.0 0.0 0.0 0.0 0.0 0.0 0.0 0.0 0.0 0.0 0.0 0.0 0.0 0.0 0.0 0.0 0.0 0.0 0.0 0.0 0.0 0.0 0.0 0.0 0.0 0.0 0.0 0.0 0.0 0.0 0.0 0.0 0.0 0.0 0.0 0.0 0.0 0.0 0.0 0.0 0.0 0.0 0.0 0.0 0.0 0.0 0.0 0.0 0.0 0.0 0.0 0.0 0.0 0.0 0.0 0.0 0.0 0.0 0.0 0.0 0.0 0.0 0.0 0.0 0.0 0.0 0.0 0.0 0.0 0.0 0.0 0.0 0.0 0.0 0.0 0.0 0.0 0.0 0.0 0.0 0.0 0.0 0.0 0.0 0.0 0.0 0.0 0.0 0.0 0.0 0.0 0.0 0.0 0.0 0.0 0.0 0.0 0.0 0.0 0.0 0.0 0.0 0.0 0.0 0.0 0.0 0.0 0.0 0.0 0.0 0.0 0.0 0.0 0.0 0.0 0.0 0.0 0.0 0.0 0.0 0.0 0.0 0.0 0.0 0.0 0.0 0.0 0.0 0.0 0.0 0.0 0.0 0.0 0.0 0.0 0.0 0.0 0.0 0.0 0.0 0.0 0.0 0.0 0.0 0.0 0.0 0.0 0.0 0.0 0.0 0.0 0.0 0.0 0.0 0.0 0.0 0.0 0.0 0.0 0.0 0.0 0.0 0.0 0.0 0.0 0.0 0.0 0.0 0.0 0.0 0.0 0.0 0.0 0.0 0.0 0.0 0.0 0.0 0.0 0.0 0.0 0.0 0.0 0.0 0.0 0.0 0.0 0.0 0.0 0.0 0.0 0.0 0.0 0.0 0.0 0.0 0.0 0.0 0.0 0.0 0.0 0.0 0.0 0.0 0.0 0.0 0.0 0.0 0.0 0.0 0.0 0.0 0.0 0.0 0.0 0.0 0.0 0.0 0.0 0.0 0.0 0.0 0.0 0.0 0.0 0.0 0.0 0.0 0.0 0.0 0.0 0.0 0.0 0.0 0.0 0.0 0.0 0.0 0.0 0.0 0.0 0.0 0.0 0.0 0.0 0.0 0.0 0.0 0.0 0.0 0.0 0.0 0.0 0.0 0.0 0.0 0.0 0.0 0.0 0.0 0.0 0.0 0.0 0.0 0.0 0.0 0.0 0.0 0.0 0.0 0.0 0.0 0.0 0.0 0.0 0.0 0.0 0.0 0.0 0.0 0.0 0.0 0.0 0.0 0.0 0.0 0.0 0.0 0.0 0.0 0.0 0.0 0.0 0.0 0.0 0.0 0.0 0.0 0.0 0.0 0.0 0.0 0.0 0.0 0.0 0.0 0.0 0.0 0.0 0.0 0.0 0.0 0.0 0.0 0.0 0.0 0.0 0.0 0.0 0.0 0.0 0.0 0.0 0.0 0.0 0.0 0.0 0.0 0.0 0.0 0.0 0.0 0.0 0.0 0.0 0.0 0.0 0.0 0.0 0.0 0.0 0.0 0.0 0.0 0.0 0.0 0.0 0.0 0.0 0.0 0.0 0.0 0.0 0.0 0.0 0.0 0.0 0.0 0.0 0.0 0.0 0.0 0.0 0.0 0.0 0.0 0.0 0.0 0.0 0.0 0.0 0.0 0.0 0.0 0.0 0.0 0.0 0.0 0.0 0.0 0.0 0.0 0.0 0.0 0.0 0.0 0.0 0.0 0.0 0.0 0.0 0.0 0.0 0.0 0.0 0.0 0.0 0.0 0.0 0.0 0.0 0.0 0.0 0.0 0.0 0.0 0.0 0.0 0.0 0.0 0.0 0.0 0.0 0.0 0.0 0.0 0.0 0.0 0.0 0.0 0.0 0.0 0.0 0.0 0.0 0.0 0.0 0.0 0.0 0.0 0.0 0.0 0.0 0.0 0.0 0.0 0.0 0.0 0.0 0.0 0.0 0.0 0.0 0.0 0.0 0.0 0.0 0.0 0.0 0.0 0.0 0.0 0.0 0.0 0.0 0.0 0.0 0.0 0.0 0.0 0.0 0.0 0.0 0.0 0.0 0.0 0.0 0.0 0.0 0.0 0.0 0.0 0.0 0.0 0.0 0.0 0.0 0.0 0.0 0.0 0.0 0.0 0.0 0.0 0.0 0.0 0.0 0.0 0.0 0.0 0.0 0.0 0.0 0.0 0.0 0.0 0.0 0.0 0.0 0.0 0.0 0.0 0.0 0.0 0.0 0.0 0.0 0.0 0.0 0.0 0.0 0.0 0.0 0.0 0.0 0.0 0.0 0.0 0.0 0.0 0.0 0.0 0.0 0.0 0.0 0.0 0.0 0.0 0.0 0.0 0.0 0.0 0.0 0.0 0.0 0.0 0.0 0.0 0.0 0.0 0.0 0.0 0.0 0.0 0.0 0.0 0.0 0.0 0.0 0.0 0.0 0.0 0.0 0.0 0.0 0.0 0.0 0.0 0.0 0.0 0.0 0.0 0.0 0.0 0.0 0.0 0.0 0.0 0.0 0.0 0.0 0.0 0.0 0.0 0.0 0.0 0.0 0.0 0.0 0.0 0.0 0.0 0.0 0.0 0.0 0.0 0.0 0.0 0.0 0.0 0.0 0.0 0.0 0.0 0.0 0.0 0.0 0.0 0.0 0.0 0.0 0.0 0.0 0.0 0.0 0.0 0.0 0.0 0.0 0.0 0.0 0.0 0.0 0.0 0.0 0.0 0.0 0.0 0.0 0.0 0.0 0.0 0.0 0.0 0.0 0.0 0.0 0.0 0.0 0.0 0.0 0.0 0.0 0.0 0.0 0.0 0.0 0.0 0.0 0.0 0.0 0.0 0.0 0.0 0.0 0.0 0.0 0.0 0.0 0.0 0.0 0.0 0.0 0.0 0.0 0.0 0.0 0.0 0.0 0.0 0.0 0.0 0.0 0.0 0.0 0.0 0.0 0.0 0.0 0.0 0.0 0.0 0.0 0.0 0.0 0.0 0.0 0.0 0.0 0.0 0.0 0.0 0.0 0.0 0.0 0.0 0.0 0.0 0.0 0.0 0.0 0.0 0.0 0.0 0.0 0.0 0.0 0.0 0.0 0.0 0.0 0.0 0.0 0.0 0.0 0.0 0.0 0.0 0.0 0.0 0.0 0.0 0.0 0.0 0.0 0.0 0.0 0.0 0.0 0.0 0.0 0.0 0.0 0.0 0.0 0.0 0.0 0.0 0.0 0.0 0.0 0.0 0.0 0.0 0.0 0.0 0.0 0.0 0.0 0.0 0.0 0.0 0.0 0.0 0.0 0.0 0.0 0.0 0.0 0.0 0.0 0.0 0.0 0.0 0.0 0.0 0.0 0.0 0.0 0.0 0.0 0.0 0.0 0.0 0.0 0.0 0.0 0.0 0.0 0.0 0.0 0.0 0.0 0.0 0.0 0.0 0.0 0.0 0.0 0.0 0.0 0.0 0.0 0.0 0.0 0.0 0.0 0.0 0.0 0.0 0.0 0.0 0.0 0.0 0.0 0.0 0.0 0.0 0.0 0.0 0.0 0.0 0.0 0.0 0.0 0.0 0.0 0.0 0.0 0.0 0.0 0.0 0.0 0.0 0.0 0.0 0.0 0.0 0.0 0.0 0.0 0.0 0.0 0.0 0.0 0.0 0.0 0.0 0.0 0.0 0.0 0.0 0.0 0.0 0.0 0.0 0.0 0.0 0.0 0.0 0.0 0.0 0.0 0.0 0.0 0.0 0.0 0.0 0.0 0.0 0.0 0.0 0.0 0.0 0.0 0.0 0.0 0.0 0.0 0.0 0.0 0.0 0.0 0.0 0.0 0.0 0.0 0.0 0.0 0.0 0.0 0.0 0.0 0.0 0.0 0.0 0.0 0.0 0.0 0.0 0.0 0.0 0.0 0.0 0.0 0.0 0.0 0.0 0.0 0.0 0.0 0.0 0.0 0.0 0.0 0.0 0.0 0.0 0.0 0.0 0.0 0.0 0.0 0.0 0.0 0.0 0.0 0.0 0.0 0.0 0.0 0.0 0.0 0.0 0.0 0.0 0.0 0.0 0.0 0.0 0.0 0.0 0.0 0.0 0.0 0.0 0.0 0.0 0.0 0.0 0.0 0.0 0.0 0.0 0.0 0.0 0.0 0.0 0.0 0.0 0.0 0.0 0.0 0.0 0.0 0.0 0.0 0.0 0.0 0.0 0.0 0.0 0.0 0.0 0.0 0.0 0.0 0.0 0.0 0.0 0.0 0.0 0.0 0.0 0.0 0.0 0.0 0.0 0.0 0.0 0.0 0.0 0.0 0.0 0.0 0.0 0.0 0.0 0.0 0.0 0.0 0.0 0.0 0.0 0.0 0.0 0.0 0.0 0.0 0.0 0.0 0.0 0.0 0.0 0.0 0.0 0.0 0.0 0.0 0.0 0.0 0.0 0.0 0.0 0.0 0.0 0.0 0.0 0.0 0.0 0.0 0.0 0.0 0.0 0.0 0.0 0.0 0.0 0.0 0.0 0.0 0.0 0.0 0.0 0.0 0.0 0.0 0.0 0.0 0.0 0.0 0.0 0.0 0.0 0.0 0.0 0.0 0.0 0.0 0.0 0.0 0.0 0.0 0.0 0.0 0.0 0.0 0.0 0.0 0.0 0.0 0.0 0.0 0.0 0.0 0.0 0.0 0.0 0.0 0.0 0.0 0.0 0.0 0.0 0.0 0.0 0.0 0.0 0.0 0.0 0.0 0.0 0.0 0.0 0.0 0.0 0.0 0.0 0.0 0.0 0.0 0.0 0.0 0.0 0.0 0.0 0.0 0.0 0.0 0.0 0.0 0.0 0.0 0.0 0.0 0.0 0.0 0.0 0.0 0.0 0.0 0.0 0.0 0.0 0.0 0.0 0.0 0.0 0.0 0.0 0.0 0.0 0.0 0.0 0.0 0.0 0.0 0.0 0.0 0.0 0.0 0.0 0.0 0.0 0.0 0.0 0.0 0.0 0.0 0.0 0.0 0.0 0.0 0.0 0.0 0.0 0.0 0.0 0.0 0.0 0.0 0.0 0.0 0.0 0.0 0.0 0.0 0.0 0.0 0.0 0.0 0.0 0.0 0.0 0.0 0.0 0.0 0.0 0.0 0.0 0.0 0.0 0.0 0.0 0.0 0.0 0.0 0.0 0.0 0.0 0.0 0.0 0.0 0.0 0.0 0.0 0.0 0.0 0.0 0.0 0.0 0.0 0.0 0.0 0.0 0.0 0.0 0.0 0.0 0.0 0.0 0.0 0.0 0.0 0.0 0.0 0.0 0.0 0.0 0.0 0.0 0.0 0.0 0.0 0.0 0.0 0.0 0.0 0.0 0.0 0.0 0.0 0.0 0.0 0.0 0.0 0.0 0.0 0.0 0.0 0.0 0.0 0.0 0.0 0.0 0.0 0.0 0.0 0.0 0.0 0.0 0.0 0.0 0.0 0.0 0.0 0.0 0.0 0.0 0.0 0.0 0.0 0.0 0.0 0.0 0.0 0.0 0.0 0.0 0.0 0.0 0.0 0.0 0.0 0.0 0.0 0.0 0.0 0.0 0.0 0.0 0.0 0.0 0.0 0.0 0.0 0.0 0.0 0.0 0.0 0.0 0.0 0.0 0.0 0.0 0.0 0.0 0.0 0.0 0.0 0.0 0.0 0.0 0.0 0.0 0.0 0.0 0.0 0.0 0.0 0.0 0.0 0.0 0.0 0.0 0.0 0.0 0.0 0.0 0.0 0.0 0.0 0.0 0.0 0.0 0.0 0.0 0.0 0.0 0.0 0.0 0.0 0.0 0.0 0.0 0.0 0.0 0.0 0.0 0.0 0.0 0.0 0.0 0.0 0.0 0.0 0.0 0.0 0.0 0.0 0.0 0.0 0.0 0.0 0.0 0.0 0.0 0.0 0.0 0.0 0.0 0.0 0.0 0.0 0.0 0.0 0.0 0.0 0.0 0.0 0.0 0.0 0.0 0.0 0.0 0.0 0.0 0.0 0.0 0.0 0.0 0.0 0.0 0.0 0.0 0.0 0.0 0.0 0.0 0.0 0.0 0.0 0.0 0.0 0.0 0.0 0.0 0.0 0.0 0.0 0.0 0.0 0.0 0.0 0.0 0.0 0.0 0.0 0.0 0.0 0.0 0.0 0.0 0.0 0.0 0.0 0.0 0.0 0.0 0.0 0.0 0.0 0.0 0.0 0.0 0.0 0.0 0.0 0.0 0.0 0.0 0.0 0.0 0.0 0.0 0.0 0.0 0.0 0.0 0.0 0.0 0.0 0.0 0.0 0.0 0.0 0.0 0.0 0.0 0.0 0.0 0.0 0.0 0.0 0.0 0.0 0.0 0.0 0.0 0.0 0.0 0.0 0.0 0.0 0.0 0.0 0.0 0.0 0.0 0.0 0.0 0.0 0.0 0.0 0.0 0.0 0.0 0.0 0.0 0.0 0.0 0.0 0.0 0.0 0.0 0.0 0.0 0.0 0.0 0.0 0.0 0.0 0.0 0.0 0.0 0.0 0.0 0.0 0.0 0.0 0.0 0.0 0.0 0.0 0.0 0.0 0.0 0.0 0.0 0.0 0.0 0.0 0.0 0.0 0.0 0.0 0.0 0.0 0.0 0.0 0.0 0.0 0.0 0.0 0.0 0.0 0.0 0.0 0.0 0.0 0.0 0.0 0.0 0.0 0.0 0.0 0.0 0.0 0.0 0.0 0.0 0.0 0.0 0.0 0.0 0.0 0.0 0.0 0.0 0.0 0.0 0.0 0.0 0.0 0.0 0.0 0.0 0.0 0.0 0.0 0.0 0.0 0.0 0.0 0.0 0.0 0.0 0.0 0.0 0.0 0.0 0.0 0.0 0.0 0.0 0.0 0.0 0.0 0.0 0.0 0.0 0.0 0.0 0.0 0.0 0.0 0.0 0.0 0.0 0.0 0.0 0.0 0.0 0.0 0.0 0.0 0.0 0.0 0.0 0.0 0.0 0.0 0.0 0.0 0.0 0.0 0.0 0.0 0.0 0.0 0.0 0.0 0.0 0.0 0.0 0.0 0.0 0.0 0.0 0.0 0.0 0.0 0.0 0.0 0.0 0.0 0.0 0.0 0.0 0.0 0.0 0.0 0.0 0.0 0.0 0.0 0.0 0.0 0.0 0.0 0.0 0.0 0.0 0.0 0.0 0.0 0.0 0.0 0.0 0.0 0.0 0.0 0.0 0.0 0.0 0.0 0.0 0.0 0.0 0.0 0.0 0.0 0.0 0.0 0.0 0.0 0.0 0.0 0.0 0.0 0.0 0.0 0.0 0.0 0.0 0.0 0.0 0.0 0.0 0.0 0.0 0.0 0.0 0.0 0.0 0.0 0.0 0.0 0.0 0.0 0.0 0.0 0.0 0.0 0.0 0.0 0.0 0.0 0.0 0.0 0.0 0.0 0.0 0.0 0.0 0.0 0.0 0.0 0.0 0.0 0.0 0.0 0.0 0.0 0.0 0.0 0.0 0.0 0.0 0.0 0.0 0.0 0.0 0.0 0.0 0.0 0.0 0.0 0.0 0.0 0.0 0.0 0.0 0.0 0.0 0.0 0.0 0.0 0.0 0.0 0.0 0.0 0.0 0.0 0.0 0.0 0.0 0.0 0.0 0.0 0.0 0.0 0.0 0.0 0.0 0.0 0.0 0.0 0.0 0.0 0.0 0.0 0.0 0.0 0.0 0.0 0.0 0.0 0.0 0.0 0.0 0.0 0.0 0.0 0.0 0.0 0.0 0.0 0.0 0.0 0.0 0.0 0.0 0.0 0.0 0.0 0.0 0.0 0.0 0.0 0.0 0.0 0.0 0.0 0.0 0.0 0.0 0.0 0.0 0.0 0.0 0.0 0.0 0.0 0.0 0.0 0.0 0.0 0.0 0.0 0.0 0.0 0.0 0.0 0.0 0.0 0.0 0.0 0.0 0.0 0.0 0.0 0.0 0.0 0.0 0.0 0.0 0.0 0.0 0.0 0.0 0.0 0.0 0.0 0.0 0.0 0.0 0.0 0.0 0.0 0.0 0.0 0.0 0.0 0.0 0.0 0.0 0.0 0.0 0.0 0.0 0.0 0.0 0.0 0.0 0.0 0.0 0.0 0.0 0.0 0.0 0.0 0.0 0.0 0.0 0.0 0.0 0.0 0.0 0.0 0.0 0.0 0.0 0.0 0.0 0.0 0.0 0.0 0.0 0.0 0.0 0.0 0.0 0.0 0.0 0.0 0.0 0.0 0.0 0.0 0.0 0.0 0.0 0.0 0.0 0.0 0.0 0.0 0.0 0.0 0.0 0.0 0.0 0.0 0.0 0.0 0.0 0.0 0.0 0.0 0.0 0.0 0.0 0.0 0.0 0.0 0.0 0.0 0.0 0.0 0.0 0.0 0.0 0.0 0.0 0.0 0.0 0.0 0.0 0.0 0.0 0.0 0.0 0.0 0.0 0.0 0.0 0.0 0.0 0.0 0.0 0.0 0.0 0.0 0.0 0.0 0.0 0.0 0.0 0.0 0.0 0.0 0.0 0.0 0.0 0.0 0.0 0.0 0.0 0.0 0.0 0.0 0.0 0.0 0.0 0.0 0.0 0.0 0.0 0.0 0.0 0.0 0.0 0.0 0.0 0.0 0.0 0.0 0.0 0.0 0.0 0.0 0.0 0.0 0.0 0.0 0.0 0.0 0.0 0.0 0.0 0.0 0.0 0.0 0.0 0.0 0.0 0.0 0.0 0.0 0.0 0.0 0.0 0.0 0.0 0.0 0.0 0.0 0.0 0.0 0.0 0.0 0.0 0.0 0.0 0.0 0.0 0.0 0.0 0.0 0.0 0.0 0.0 0.0 0.0 0.0 0.0 0.0 0.0 0.0 0.0 0.0 0.0 0.0 0.0 0.0 0.0 0.0 0.0 0.0 0.0 0.0 0.0 0.0 0.0 0.0 0.0 0.0 0.0 0.0 0.0 0.0 0.0 0.0 0.0 0.0 0.0 0.0 0.0 0.0 0.0 0.0 0.0 0.0 0.0 0.0 0.0 0.0 0.0 0.0 0.0 0.0 0.0 0.0 0.0 0.0 0.0 0.0 0.0 0.0 0.0 0.0 0.0 0.0 0.0 0.0 0.0 0.0 0.0 0.0 0.0 0.0 0.0 0.0 0.0 0.0 0.0 0.0 0.0 0.0 0.0 0.0 0.0 0.0 0.0 0.0 0.0 0.0 0.0 0.0 0.0 0.0 0.0 0.0 0.0 0.0 0.0 0.0 0.0 0.0 0.0 0.0 0.0 0.0 0.0 0.0 0.0 0.0 0.0 0.0 0.0 0.0 0.0 0.0 0.0 0.0 0.0 0.0 0.0 0.0 0.0 0.0 0.0 0.0 0.0 0.0 0.0 0.0 0.0 0.0 0.0 0.0 0.0 0.0 0.0 0.0 0.0 0.0 0.0 0.0 0.0 0.0 0.0 0.0 0.0 0.0 0.0 0.0 0.0 0.0 0.0 0.0 0.0 0.0 0.0 0.0 0.0 0.0 0.0 0.0 0.0 0.0 0.0 0.0 0.0 0.0 0.0 0.0 0.0 0.0 0.0 0.0 0.0 0.0 0.0 0.0 0.0 0.0 0.0 0.0 0.0 0.0 0.0 0.0 0.0 0.0 0.0 0.0 0.0 0.0 0.0 0.0 0.0 0.0 0.0 0.0 0.0 0.0 0.0 0.0 0.0 0.0 0.0 0.0 0.0 0.0 0.0 0.0 0.0 0.0 0.0 0.0 0.0 0.0 0.0 0.0 0.0 0.0 0.0 0.0 0.0 0.0 0.0 0.0 0.0 0.0 0.0 0.0 0.0 0.0 0.0 0.0 0.0 0.0 0.0 0.0 0.0 0.0 0.0 0.0 0.0 0.0 0.0 0.0 0.0 0.0 0.0 0.0 0.0 0.0 0.0 0.0 0.0 0.0 0.0 0.0 0.0 0.0 0.0 0.0 0.0 0.0 0.0 0.0 0.0 0.0 0.0 0.0 0.0 0.0 0.0 0.0 0.0 0.0 0.0 0.0 0.0 0.0 0.0 0.0 0.0 0.0 0.0 0.0 0.0 0.0 0.0 0.0 0.0 0.0 0.0 0.0 0.0 0.0 0.0 0.0 0.0 0.0 0.0 0.0 0.0 0.0 0.0 0.0 0.0 0.0 0.0 0.0 0.0 0.0 0.0 0.0 0.0 0.0 0.0 0.0 0.0 0.0 0.0 0.0 0.0 0.0 0.0 0.0 0.0 0.0 0.0 0.0 0.0 0.0 0.0 0.0 0.0 0.0 0.0 0.0 0.0 0.0 0.0 0.0 0.0 0.0 0.0 0.0 0.0 0.0 0.0 0.0 0.0 0.0 0.0 0.0 0.0 0.0 0.0 0.0 0.0 0.0 0.0 0.0 0.0 0.0 0.0 0.0 0.0 0.0 0.0 0.0 0.0 0.0 0.0 0.0 0.0 0.0 0.0 0.0 0.0 0.0 0.0 0.0 0.0 0.0 0.0 0.0 0.0 0.0 0.0 0.0 0.0 0.0 0.0 0.0 0.0 0.0 0.0 0.0 0.0 0.0 0.0 0.0 0.0 0.0 0.0 0.0 0.0 0.0 0.0 0.0 0.0 0.0 0.0 0.0 0.0 0.0 0.0 0.0 0.0 0.0 0.0 0.0 0.0 0.0 0.0 0.0 0.0 0.0 0.0 0.0 0.0 0.0 0.0 0.0 0.0 0.0 0.0 0.0 0.0 0.0 0.0 0.0 0.0 0.0 0.0 0.0 0.0 0.0 0.0 0.0 0.0 0.0 0.0 0.0 0.0 0.0 0.0 0.0 0.0 0.0 0.0 0.0 0.0 0.0 0.0 0.0 0.0 0.0 0.0 0.0 0.0 0.0 0.0 0.0 0.0 0.0 0.0 0.0 0.0 0.0 0.0 0.0 0.0 0.0 0.0 0.0 0.0 0.0 0.0 0.0 0.0 0.0 0.0 0.0 0.0 0.0 0.0 0.0 0.0 0.0 0.0 0.0 0.0 0.0 0.0 0.0 0.0 0.0 0.0 0.0 0.0 0.0 0.0 0.0 0.0 0.0 0.0 0.0 0.0 0.0 0.0 0.0 0.0 0.0 0.0 0.0 0.0 0.0 0.0 0.0 0.0 0.0 0.0 0.0 0.0 0.0 0.0 0.0 0.0 0.0 0.0 0.0 0.0 0.0 0.0 0.0 0.0 0.0 0.0 0.0 0.0 0.0 0.0 0.0 0.0 0.0 0.0 0.0 0.0 0.0 0.0 0.0 0.0 0.0 0.0 0.0 0.0 0.0 0.0 0.0 0.0 0.0 0.0 0.0 0.0 0.0 0.0 0.0 0.0 0.0 0.0 0.0 0.0 0.0 0.0 0.0 0.0 0.0 0.0 0.0 0.0 0.0 0.0 0.0 0.0 0.0 0.0 0.0 0.0 0.0 0.0 0.0 0.0 0.0 0.0 0.0 0.0 0.0 0.0 0.0 0.0 0.0 0.0 0.0 0.0 0.0 0.0 0.0 0.0 0.0 0.0 0.0 0.0 0.0 0.0 0.0 0.0 0.0 0.0 0.0 0.0 0.0 0.0 0.0 0.0 0.0 0.0 0.0 0.0 0.0 0.0 0.0 0.0 0.0 0.0 0.0 0.0 0.0 0.0 0.0 0.0 0.0 0.0 0.0 0.0 0.0 0.0 0.0 0.0 0.0 0.0 0.0 0.0 0.0 0.0 0.0 0.0 0.0 0.0 0.0 0.0 0.0 0.0 0.0 0.0 0.0 0.0 0.0 0.0 0.0 0.0 0.0 0.0 0.0 0.0 0.0 0.0 0.0 0.0 0.0 0.0 0.0 0.0 0.0 0.0 0.0 0.0 0.0 0.0 0.0 0.0 0.0 0.0 0.0 0.0 0.0 0.0 0.0 0.0 0.0 0.0 0.0 0.0 0.0 0.0 0.0 0.0 0.0 0.0 0.0 0.0 0.0 0.0 0.0 0.0 0.0 0.0 0.0 0.0 0.0 0.0 0.0 0.0 0.0 0.0 0.0 0.0 0.0 0.0 0.0 0.0 0.0 0.0 0.0 0.0 0.0 0.0 0.0 0.0 0.0 0.0 0.0 0.0 0.0 0.0 0.0 0.0 0.0 0.0 0.0 0.0 0.0 0.0 0.0 0.0 0.0 0.0 0.0 0.0 0.0 0.0 0.0 0.0 0.0 0.0 0.0 0.0 0.0 0.0 0.0 0.0 0.0 0.0 0.0 0.0 0.0 0.0 0.0 0.0 0.0 0.0 0.0 0.0 0.0 0.0 0.0 0.0 0.0 0.0 0.0 0.0 0.0 0.0 0.0 0.0 0.0 0.0 0.0 0.0 0.0 0.0 0.0 0.0 0.0 0.0 0.0 0.0 0.0 0.0 0.0 0.0 0.0 0.0 0.0 0.0 0.0 0.0 0.0 -0.589303974732599 0.0 -0.2342064898551621 -0.688830977220774 0.0 -0.2169275334231882 -0.771597699289942 0.0 -0.1929868288246706 -0.839581300989532 0.0 -0.1669359721733992 -0.893359382333984 0.0 -0.14183688354592203 -0.5647903741197591 0.0 -0.3020807355520182 -0.743200498580012 0.0 -0.2589569144739227 -0.875283061882076 0.0 -0.2436917380922933 -0.976375584409389 0.0 -0.22139869353496722 -1.0566292264157302 0.0 -0.1953473128836827 -1.120203428005085 0.0 -0.1686754762168868 -0.738935498473387 0.0 -0.30627537565688423 -0.95341722383543 0.0 -0.2644914706122866 -1.105927867648196 0.0 -0.24236574605914352 -1.2217102305427552 0.0 -0.2197475014936874 -1.3130390328259751 0.0 -0.19752970093824243 -1.387029314675732 0.0 -0.1729566483239161 -0.9499311837482791 0.0 -0.2990852434771309 -1.201902230047555 0.0 -0.25013180225329495 -1.369174234229355 0.0 -0.2285811497145286 -1.493717597342939 0.0 -0.2085777332144432 -1.5944015998600392 0.0 -0.18979068474476699 -1.677915441947885 0.0 -0.1687015082175376 -1.195535669888391 0.0 -0.2915889792897243 -1.487429837185745 0.0 -0.2295551377388783 -1.668880881722021 0.0 -0.20828419320710473 -1.8010372450259302 0.0 -0.1912231487805786 -1.908757047718925 0.0 -0.1769288364232208 -2.00121085003027 0.0 -0.1595717119892927 -1.482539957063498 0.0 -0.2892097552302437 -1.818372765459318 0.0 -0.20634041315851023 -2.013145490328636 0.0 -0.1832372725809317 -2.151130173778253 0.0 -0.1693664602341614 -2.265185416629634 0.0 -0.1602066080051651 -2.364898739122467 0.0 -0.1478864356971608 -1.8188618054715442 0.0 -0.30254250356356244 -2.202172735054317 0.0 -0.18704262067606542 -2.407139060178475 0.0 -0.1571741159293528 -2.547129903678246 0.0 -0.1460400636510015 -2.666035146650877 0.0 -0.14170923554273082 -2.771681469292035 0.0 -0.1355398313884957 -2.214798015369949 0.0 -0.3425258725631466 -2.643306986082673 0.0 -0.18146477253661922 -2.851057111276426 0.0 -0.13933163148329072 -2.990188674754715 0.0 -0.12693157517328932 -3.109759597743988 0.0 -0.12727137118178422 -3.2195927604898174 0.0 -0.1271452231786305 -2.6970200274254994 0.0 -0.3896713337417831 -3.146281518657036 0.0 -0.1915092527877312 -3.34206208355155 0.0 -0.1393320114833002 -3.4766384869159603 0.0 -0.1212684670317116 -3.5945637698640924 0.0 -0.1263400591585014 -3.706746372668657 0.0 -0.13040075526001882 -3.327235483180885 0.0 -0.3685745332143631 -3.7233403330835064 0.0 -0.2020721490518036 -3.8866490571662244 0.0 -0.15337944383448598 -4.00634850015871 0.0 -0.13542823938570592 -4.1192281029807 0.0 -0.1456045676401141 -4.23122930578073 0.0 -0.1548262398706559 -4.1551089038777205 0.0 -0.27236023480900573 -4.402740910068521 0.0 -0.2028877290721931 -4.49910131247753 0.0 -0.1727260643181515 -4.58321491458037 0.0 -0.174239164355979 -4.68338691708467 0.0 -0.19072437676810933 -4.79040171976004 0.0 -0.2077337331933432 -5.04623572615589 0.0 -0.406334690158367 -5.1808441295211 0.0 -0.2877456751936417 -5.17862172946554 0.0 -0.24352608208815188 -5.206936130173401 0.0 -0.2539644303491106 -5.287409732185241 0.0 -0.268361526709038 -5.38311293457782 0.0 -0.2919599592989988 -6.00764255019106 0.0 -1.1948982698724562 -6.03160535079013 0.0 -0.758475498961887 -5.93394774834869 0.0 -0.491115572277889 -5.889141347228531 0.0 -0.420935650523391 -5.928612548215311 0.0 -0.40926453023161297 -6.01004735025118 0.0 -0.42722617068065405 -7.21848298046207 0.0 -1.832962085824051 -7.02559697563992 0.0 -1.309621832740545 -6.76975176924379 0.0 -0.9026758225668949 -6.6276721656918 0.0 -0.699862577496564 -6.60891416522285 0.0 -0.6281845357046131 -6.674456166861401 0.0 -0.6012464150311599 -8.61908141547703 0.0 -2.242161416054034 -8.15185260379631 0.0 -1.712092642802315 -7.6876833921920795 0.0 -1.294599472364986 -7.408005785200141 0.0 -1.0356727858918189 -7.32570058314251 0.0 -0.899552742488818 -7.37232618430815 0.0 -0.827139580678489 -10.07884985197124 0.0 -2.5620693840517332 -9.29295983232399 0.0 -2.036356410908909 -8.61753781543844 0.0 -1.627022200675554 -8.21159460528986 0.0 -1.349017753725443 -8.07207580180189 0.0 -1.17868122946703 -8.104174202604352 0.0 -1.068546786713669 -11.489588287239702 0.0 -2.862207871555195 -10.4146922603673 0.0 -2.318553017963824 -9.54350543858763 0.0 -1.9115049677876232 -9.02560302564007 0.0 -1.6213160005328993 -8.839667020991671 0.0 -1.436298315907457 -8.863981021599521 0.0 -1.3026112725652812 -12.82896592072414 0.0 -3.148230238705754 -11.515320287883 0.0 -2.575064144376602 -10.46961026174025 0.0 -2.155157333878932 -9.85261544631538 0.0 -1.855543006388574 -9.62831464070786 0.0 -1.6610397615259933 -9.650120641253011 0.0 -1.5165011979125291 -14.13972675349316 0.0 -3.430678645766964 -12.619932715498312 0.0 -2.81343487033587 -11.41166348529158 0.0 -2.368346259208655 -10.698147067453672 0.0 -2.05433525135838 -10.43798386094959 0.0 -1.853696886342421 -10.458436261460902 0.0 -1.706726122668152 -15.486129987153241 0.0 -3.6987316924682903 -13.754961143874022 0.0 -3.037005515925136 -12.379159909478991 0.0 -2.553893143847327 -11.56199668904991 0.0 -2.222787535569687 -11.26590388164759 0.0 -2.014315450357885 -11.2859482821487 0.0 -1.8704162867604062 -16.885753222143823 0.0 -3.94235009855875 -14.924785173119622 0.0 -3.2348885208722113 -13.370761534269032 0.0 -2.708460667711515 -12.4477963111949 0.0 -2.351345498783636 -12.1082363027059 0.0 -2.142655813566394 -12.13285030332125 0.0 -1.995879409896984 -18.33562965839073 0.0 -4.14856090371402 -16.124600803115012 0.0 -3.399528964988222 -14.38103995952599 0.0 -2.827818950695472 -13.342881933572041 0.0 -2.45346286133657 -12.96065992401649 0.0 -2.235739775893493 -12.99042992476074 0.0 -2.0835651720891284 -19.822752895568808 0.0 -4.32236210805905 -17.34909723372742 0.0 -3.5215470080386733 -15.401968785049212 0.0 -2.9099308727482702 -14.24384635609615 0.0 -2.51427846285696 -13.818370345459249 0.0 -2.2877268571931704 -13.8548603463715 0.0 -2.129979773249493 -21.34676402410608 0.0 -4.4499040098127995 -18.594195047727602 0.0 -3.591368781858604 -16.430222503394802 0.0 -2.939965333914236 -15.145944062650239 0.0 -2.521536978758392 -14.67566451816047 0.0 -2.285546348221983 -14.722488917161801 0.0 -2.1261915849929522 -22.91334883251669 0.0 -4.52187486149421 -19.86006761575584 0.0 -3.594494169054624 -17.4639290365734 0.0 -2.90151131881578 -16.04681585466978 0.0 -2.4579433957185 -15.529575294544498 0.0 -2.2148597353702497 -15.58886246629245 0.0 -2.054108657000475 -24.543116446230478 0.0 -4.5297424712547 -21.15536238014584 0.0 -3.5157623658262382 -18.50567603536553 0.0 -2.774791011069228 -16.948455601061802 0.0 -2.30064597830142 -16.37879385397892 0.0 -2.0577968712214902 -16.45441939975902 0.0 -1.909422983267958 -26.27564313545584 0.0 -4.46937251376044 -22.4958480661642 0.0 -3.3403297736205886 -19.56204581058056 0.0 -2.537074232985152 -17.84683638554904 0.0 -2.0322750757738377 -17.22031073173466 0.0 -1.7976344458254712 -17.3104185345032 0.0 -1.6638867455907997 -28.15132580901506 0.0 -4.33687261628788 -23.89379165676102 0.0 -3.055118154031326 -20.6360568305892 0.0 -2.16843347046326 -18.74306685387136 0.0 -1.636300301291656 -18.05598643273959 0.0 -1.409978712226891 -18.1534279489202 0.0 -1.31359232109953 -30.17500332599445 0.0 -4.1288387265294 -25.335533553835766 0.0 -2.655162478618875 -21.70715713131546 0.0 -1.681509078746082 -19.61582231399229 0.0 -1.120601268671787 -18.86113592161182 0.0 -0.9036661796248859 -18.96152926042794 0.0 -0.8607387253459441 -32.25205038124874 0.0 -3.8498427945885 -26.764295748720162 0.0 -2.149895900571472 -22.72994077070678 0.0 -1.045907739829246 -20.420412707607188 0.0 -0.47204091441735796 -19.560925755077673 0.0 -0.3355540760775194 -19.681135628502503 0.0 -0.32257872384338454 -34.2705431355606 0.0 -3.5874972947452317 -28.078990887220556 0.0 -1.578496777939368 -23.63637654923448 0.0 -0.2702253584628792 -21.07510371968304 0.0 0.237535518129683 -20.14220706446802 0.0 0.3796678750351606 -20.26800761492032 0.0 0.334934728362552 -35.95631803482322 0.0 -3.3373684435949054 -29.2508109487506 0.0 -0.9014703538435501 -24.391053032130717 0.0 0.44538697172973596 -21.623172891317 0.0 1.0584977884984 -20.6187900574656 0.0 1.2270446659327998 -20.75901307261421 0.0 1.168032499529422 -37.37740736401334 0.0 -3.33083111133507 -30.249646084323714 0.0 -0.2327895314498415 -25.06795406217243 0.0 1.121355072066813 -22.10047876938432 0.0 1.923121810138088 -21.03232830296658 0.0 2.135003679701326 -21.1327221214988 0.0 2.140162509085064 -37.867227160978246 0.0 -3.4772072701973245 -30.75365395909536 0.0 0.3410461471903398 -25.33900732130556 0.0 1.62834861100374 -22.324025208745798 0.0 2.54673119770092 -21.21360988410775 0.0 2.9897184009433597 -21.39570525847454 0.0 3.110911080022578 -36.451861128930794 0.0 -3.85576715383268 -30.256446804729276 0.0 0.8892992140725919 -24.9220743390102 0.0 2.128720111773008 -21.97251117329382 0.0 3.1915816208372036 -21.0415156453008 0.0 3.60431657856972 -21.36861606510129 0.0 3.9656334944417697 -28.307233094652478 0.0 -3.9187292072813276 -26.754537479086075 0.0 1.559573861308416 -23.31812509601675 0.0 2.703591768961775 -20.629381597645818 0.0 4.052932853315272 -19.766830364582102 0.0 3.99123896558754 -20.530904857031132 0.0 4.23761614141383 -16.90567713670726 0.0 -4.16899591886649 -16.64463917242458 0.0 1.7950826331816878 -16.72097091630739 0.0 3.7997041493499983 -16.76393794664066 0.0 5.18038304815288 -16.710839078235118 0.0 5.21487216092952 -17.4218032375596 0.0 4.3737414661314 -9.572521571451 0.0 -4.48741345989825 -9.32607876726987 0.0 3.080931201249018 -9.30507154433829 0.0 4.17434291869833 -9.37467842723505 0.0 5.9184998871291 -9.879076589132358 0.0 5.9797801824648396 -10.723736725365182 0.0 5.04227016618347 -6.14551919354432 0.0 -4.49329956378942 -5.88229987872168 0.0 5.24064612446976 -5.6646731632192004 0.0 4.484769546779599 -5.5929932866555205 0.0 6.208544025569361 -5.8266439904058505 0.0 6.395798171188 -6.33511256624097 0.0 6.418938398602051 -4.74651582409067 0.0 -4.63103515382647 -4.44378398855085 0.0 6.14784251959425 -4.1341406650406105 0.0 4.51890130400016 -3.9425598039465726 0.0 6.50882989233396 -3.9077684140756657 0.0 7.116680214823201 -4.036958590510048 0.0 7.66147518378122 -3.138370103429145 0.0 -4.70531225400145 -2.9117776000057844 0.0 6.5575759615624 -2.6584280320928753 0.0 4.856641973553749 -2.431253700774465 0.0 6.5751459862676 -2.251271479871771 0.0 7.408257301173979 -2.12973205358298 0.0 8.059143473912599 -0.042505697988021805 0.0 -4.746534567345161 0.009499796863779249 0.0 6.583681033506999 0.0818103935389043 0.0 5.326061700515271 0.1958784085426749 0.0 6.38963091832373 0.35772461531053 0.0 6.986994512628 0.5622384566131019 0.0 7.70616907788753 4.59441746470236 0.0 -4.72376371250407 4.433535496821451 0.0 6.243187693641151 4.2715071314504405 0.0 5.51906527396455 4.11979272230972 0.0 6.33413867955041 4.18172712770723 0.0 6.2618686315774905 4.31479520712996 0.0 6.890653709057999 10.0835936912931 0.0 -4.7491856786352 9.67534607369043 0.0 5.638384396779751 9.20233091769888 0.0 5.416442806156979 8.86090644553977 0.0 6.189471184601341 8.75347425601467 0.0 5.52920523865129 8.75509422067225 0.0 5.86503793468923 15.685644195050282 0.0 -4.99032039654808 14.951573851747861 0.0 4.8324519279126 14.178123234476638 0.0 4.9288046989611205 13.69433915103568 0.0 5.80523480494032 13.43953193311485 0.0 4.87495183758154 13.3711262885381 0.0 4.80998081553131 20.83678197143036 0.0 -5.196030878133549 19.89104289895088 0.0 3.5774383691552503 18.78617777135753 0.0 4.22432124646771 17.95791319141664 0.0 5.233612726975361 17.83482388771071 0.0 4.252633805187889 17.819122949333387 0.0 3.8669147107221686 25.375826379854196 0.0 -5.109094110217 24.11541903712165 0.0 2.3846343935593763 22.4777879691345 0.0 3.23977272175077 21.758446392960423 0.0 4.24960325105184 21.757030463072738 0.0 3.694073901883288 21.94581395351846 0.0 3.105469646160325 29.69884744256066 0.0 -5.2304867968457005 27.730397458518702 0.0 1.04262284943997 25.674313178395398 0.0 2.010099929251668 25.10186230679886 0.0 3.30010994351007 25.371254221233063 0.0 2.956644504596265 25.63984055056428 0.0 2.357124377738688 33.83818910753904 0.0 -5.37764035933551 31.14284749831332 0.0 -0.2026657331151684 28.6853998131605 0.0 0.7619560715714501 28.17155319955502 0.0 2.277484512415002 28.168035483770232 0.0 1.6286974041655071 27.83419115179969 0.0 1.4688738689861318 37.912114057154405 0.0 -5.66009047333464 34.49124885708348 0.0 -1.2062871086226359 31.593516643100703 0.0 -0.179368349968067 30.62561663748974 0.0 0.8365797342675719 29.5581830459544 0.0 0.18485997582528482 28.639400840097245 0.0 0.574691984811104 42.025760598832804 0.0 -5.9414510178665205 37.82446675900992 0.0 -1.9506659294691922 34.677342100571046 0.0 -1.2420670188964962 32.042966274002154 0.0 -0.7507950136483791 30.15051384044392 0.0 -0.705696037540508 29.03312951809788 0.0 -0.0900743341615327 46.4713556535819 0.0 -6.370050022592941 41.32903850019 0.0 -2.4197581355696283 36.92904339502554 0.0 -2.40406269135624 32.97055326398952 0.0 -1.7012501955474961 30.4998344315095 0.0 -1.3055026143785 29.239294279367133 0.0 -0.685367642199093 51.147286951356 0.0 -6.709491573715681 44.9442276257226 0.0 -3.2939541736342925 38.48178911273424 0.0 -3.2415803374074117 33.64812069964392 0.0 -2.158430771626533 30.878655531408 0.0 -1.666357565694696 29.488302111916436 0.0 -1.081784239158984 56.545434858825594 0.0 -7.04796434757792 47.61442457389921 0.0 -4.63598736183936 40.08681780929259 0.0 -3.5140244706401518 34.560763123127344 0.0 -2.3895001720368243 31.443637186736645 0.0 -1.8782245983763202 29.740622725043156 0.0 -1.360094902694612 60.4571424628992 0.0 -7.497016992938879 50.6489205174624 0.0 -5.156163048078 41.9604894959502 0.0 -3.620882544193941 35.88416555592744 0.0 -2.4637069458544683 32.271984306732 0.0 -1.9106425942524 30.123103637060996 0.0 -1.505504116514275 54.0635983499885 0.0 -5.6722998833319 44.576326683675404 0.0 -3.93419752480961 37.770618947043005 0.0 -2.557646980001525 33.36532033949628 0.0 -1.9124014188262402 30.7037085863528 0.0 -1.5325323375053999 57.96427347394881 0.0 -6.081370811100481 48.0591368836876 0.0 -4.267239136079801 40.269269811742404 0.0 -2.7744538290958722 34.9533138445712 0.0 -1.94738673518114 31.65081994512389 0.0 -1.568908632249168 52.22423919763921 0.0 -4.53696227967068 43.6024761231972 0.0 -2.99258863993848 37.25322924085892 0.0 -1.9239173974217358 33.2235073463413 0.0 -1.57667160073563 56.7042952756485 0.0 -4.76426853494068 47.700855073495 0.0 -3.0900458039640597 40.406713061032 0.0 -1.8347241810143882 35.506851166357784 0.0 -1.43992194731637 52.55242578770721 0.0 -3.3912074694441783 44.4895658936616 0.0 -1.9129061528617117 38.46292018991851 0.0 -1.22742333646933 49.496780937617494 0.0 -2.306283870363641 42.510836627585796 0.0 -1.25283206105964 53.988739619785804 0.0 -2.790889806443594 47.871081003467 0.0 -1.714188295525312 -0.9340027033500671 0.0 -0.1187179589679489 -0.962803664070091 0.0 -0.0967627304190682 -0.9811409045285221 0.0 -0.0775739459393486 -0.991439824785995 0.0 -0.061123469528086706 -0.9964519849112989 0.0 -0.0465263451631586 -0.998034704950867 0.0 -0.034289468057236684 -0.997773784944344 0.0 -0.02397669619941739 -0.996875784921894 0.0 -0.01506069037651725 -0.996009104900227 0.0 -0.007305642982641071 -1.168688989217224 0.0 -0.1422392755559818 -1.2023739100593471 0.0 -0.11788661894716541 -1.223230390580759 0.0 -0.096546722413668 -1.2349789108744722 0.0 -0.0765519939137998 -1.240253871006346 0.0 -0.059381701484542505 -1.241543591038589 0.0 -0.0446428691160717 -1.2408661110216521 0.0 -0.03159731998993298 -1.239453550986338 0.0 -0.02029090290727256 -1.2382835509570882 0.0 -0.00985851384646284 -1.443514276087856 0.0 -0.1491626677290666 -1.4828781570719531 0.0 -0.126006843150171 -1.507224317680607 0.0 -0.10456918661422959 -1.520566198014154 0.0 -0.0845822581145564 -1.526425958160648 0.0 -0.0669882536747063 -1.52779163819479 0.0 -0.050847997271199895 -1.5268310781707761 0.0 -0.03649765651244139 -1.5250450381261251 0.0 -0.0236595845914896 -1.5235851580896282 0.0 -0.011534531888363292 -1.7427054035676341 0.0 -0.14752193968804841 -1.787775084694376 0.0 -0.1269647391741184 -1.8157761253944018 0.0 -0.1065685066642126 -1.830967005774174 0.0 -0.0876530261913256 -1.8376793259419821 0.0 -0.07036556175913901 -1.8392544059813591 0.0 -0.0541584733539618 -1.838112685952816 0.0 -0.039444360986109005 -1.8361114859027863 0.0 -0.025659025441475622 -1.834427685860691 0.0 -0.01267447951686198 -2.073715051842875 0.0 -0.1417673275441831 -2.124384733109617 0.0 -0.12344003108600071 -2.1556559338913974 0.0 -0.10510565462764129 -2.172583814314594 0.0 -0.08793608219840202 -2.180102414502559 0.0 -0.0712086577802164 -2.181863454546585 0.0 -0.05557956938948921 -2.180635494515886 0.0 -0.0408671050216776 -2.178408094460201 0.0 -0.02682566427064159 -2.176534894413371 0.0 -0.01328061833201545 -2.444340381108508 0.0 -0.1340387513509687 -2.499935222498379 0.0 -0.1184433589610839 -2.533970903349271 0.0 -0.10253919456347979 -2.552336183808403 0.0 -0.0868298661707466 -2.5604199040104962 0.0 -0.07147088178677201 -2.562252504056311 0.0 -0.05652754941318871 -2.560846584021163 0.0 -0.0419505450487636 -2.558355783958893 0.0 -0.027795118694877954 -2.556273343906832 0.0 -0.013822789945569739 -2.856698671417465 0.0 -0.12677165516929131 -2.916363792909093 0.0 -0.1146691348667283 -2.9526060738151503 0.0 -0.10146062653651561 -2.9719793942994834 0.0 -0.087379482184487 -2.980320434508009 0.0 -0.0731049138276228 -2.982076154551902 0.0 -0.0586350094658752 -2.980386234509654 0.0 -0.0440612971015324 -2.977592714439816 0.0 -0.02938922713473066 -2.975285594382138 0.0 -0.014728409568210232 -3.309106922727671 0.0 -0.1240330231008255 -3.372054004301348 0.0 -0.1161738789043469 -3.410045325251131 0.0 -0.1055927186398179 -3.4300820057520482 0.0 -0.09295356632383911 -3.438507925962696 0.0 -0.0790239539755988 -3.440043326001081 0.0 -0.0642011256050281 -3.438037205950928 0.0 -0.0487627332190683 -3.434931645873289 0.0 -0.032786516019662884 -3.4323811258095263 0.0 -0.01649576481239411 -3.7995205749880125 0.0 -0.1324311033107775 -3.865117376627932 0.0 -0.12853485521337132 -3.9046242576156045 0.0 -0.1200205710005142 -3.925280098132 0.0 -0.1076828386920709 -3.933813178345327 0.0 -0.0927898263197456 -3.935175058379374 0.0 -0.0760643019016075 -3.9328968983224204 0.0 -0.058171841454296 -3.9294858182371435 0.0 -0.039287469782186724 -3.926724338168106 0.0 -0.01981435769535893 -4.325833308145831 0.0 -0.160944764023619 -4.39406330985158 0.0 -0.1586127679653191 -4.43526051088151 0.0 -0.1503180917579522 -4.456910511422761 0.0 -0.136146523403663 -4.46587251164681 0.0 -0.1180301589507539 -4.467322911683071 0.0 -0.0970149464253736 -4.464901711622541 0.0 -0.07413583385339581 -4.46130211153255 0.0 -0.050091701252292495 -4.4583841114596 0.0 -0.0252113406302835 -4.88690372217259 0.0 -0.21559160138978992 -4.95750532393763 0.0 -0.21286247332156172 -5.001117325027931 0.0 -0.2017595810439894 -5.0246561256164 0.0 -0.1823598805589969 -5.03481652587041 0.0 -0.15733259193331472 -5.036852525921311 0.0 -0.12893607922340192 -5.03464932586623 0.0 -0.09839691045992272 -5.0309677257741905 0.0 -0.0667906856697671 -5.02797652569941 0.0 -0.03371777604294438 -5.48153413703835 0.0 -0.2997150514928761 -5.55513293887832 0.0 -0.2956323953908097 -5.602751340068781 0.0 -0.2770731029268274 -5.62969974074249 0.0 -0.24797998219949943 -5.64186974104674 0.0 -0.2141590413539759 -5.6452921411323 0.0 -0.1749055923726397 -5.64382174109554 0.0 -0.1331799433294985 -5.64055934101398 0.0 -0.0896534222413355 -5.63769654094241 0.0 -0.0450779491269487 -6.10936255273406 0.0 -0.417852930446323 -6.18824175470604 0.0 -0.404676290116907 -6.24176055604401 0.0 -0.37635808940895205 -6.27334895683372 0.0 -0.335579688389492 -6.28945815723645 0.0 -0.2861932591548313 -6.29519735737993 0.0 -0.23293421782335533 -6.295165757379141 0.0 -0.17686588042164691 -6.29267135731678 0.0 -0.11879007096975171 -6.28986215724655 0.0 -0.0604534655113366 -6.77193696929842 0.0 -0.5785677744641939 -6.85783017144575 0.0 -0.545897053647426 -6.9199557729988905 0.0 -0.49719221242980505 -6.9575065739376605 0.0 -0.44494081112352 -6.97952057448801 0.0 -0.377132209428305 -6.98922657473066 0.0 -0.3069473356736832 -6.991500174787501 0.0 -0.2326821858170545 -6.99055057476376 0.0 -0.1560678639016965 -6.98893457472336 0.0 -0.0783816579595414 -7.4714121867853 0.0 -0.771259859281496 -7.5662149891553705 0.0 -0.711367337784183 -7.6381897909547405 0.0 -0.642198296054957 -7.68581339214533 0.0 -0.565138654128466 -7.713638592840961 0.0 -0.48540745213518605 -7.728248193206201 0.0 -0.39456659386416465 -7.734528593363211 0.0 -0.2991916034797899 -7.73575019339375 0.0 -0.20112741302818524 -7.735393793384841 0.0 -0.10088815852220391 -8.20589700514742 0.0 -0.9853302246332549 -8.31357820783945 0.0 -0.8978145024453621 -8.39778300994457 0.0 -0.803498300087457 -8.45628981140724 0.0 -0.702934057573351 -8.493470212336751 0.0 -0.598556534963913 -8.515728212893201 0.0 -0.48779309219482697 -8.52623861315596 0.0 -0.37218259330456466 -8.531296613282409 0.0 -0.2499535862488395 -8.53286381332159 0.0 -0.125779323144483 -8.97704582442614 0.0 -1.204297190107429 -9.09854702746367 0.0 -1.093589027339725 -9.19740182993504 0.0 -0.9762275044056871 -9.27045383176134 0.0 -0.850945301273632 -9.318721832968041 0.0 -0.72338641808466 -9.35026183375654 0.0 -0.587497134687428 -9.369175034229372 0.0 -0.4464833711620841 -9.37851063446276 0.0 -0.3027324035683099 -9.382901434572531 0.0 -0.15309280382732002 -9.77760184444004 0.0 -1.403942515098562 -9.9194162479854 0.0 -1.2828877920721942 -10.03719985092999 0.0 -1.149075348726883 -10.12581745314543 0.0 -1.0060318251507951 -10.189525854738141 0.0 -0.855622221390555 -10.23430665585766 0.0 -0.697431057435776 -10.26311145657778 0.0 -0.5323682933092071 -10.280841457021031 0.0 -0.3592053729801341 -10.29007065725176 0.0 -0.1811222965280573 -10.606019865150492 0.0 -1.585428559635713 -10.77251706931292 0.0 -1.455396796384919 -10.91324267283106 0.0 -1.3123980728099511 -11.02339587558489 0.0 -1.159248268981206 -11.10496147762403 0.0 -0.9962895449072381 -11.16504067912601 0.0 -0.81687242042181 -11.20695668017391 0.0 -0.625652655641316 -11.233887080847172 0.0 -0.42435801060895 -11.248611081215271 0.0 -0.21404989335124722 -11.45829108645727 0.0 -1.7428448035711188 -11.65356989133924 0.0 -1.6074520401863 -11.823011495575281 0.0 -1.4629924365748102 -11.959283898982092 0.0 -1.302392992559824 -12.06499590162489 0.0 -1.1271549481788732 -12.145976703649412 0.0 -0.9308644632716111 -12.204020305100501 0.0 -0.715338297883457 -12.24351910608797 0.0 -0.48549757213743905 -12.26584870664621 0.0 -0.2453369221334229 -12.3302723082568 0.0 -1.8667852866696313 -12.55980111399502 0.0 -1.7378118834452962 -12.76284271907106 0.0 -1.5934014798350362 -12.931410723285259 0.0 -1.4304715557617882 -13.067555526688881 0.0 -1.247541071188526 -13.17431072935776 0.0 -1.0340547858513691 -13.25413073135326 0.0 -0.798755139968878 -13.309245532731131 0.0 -0.543955773598894 -13.341465933536641 0.0 -0.2758071028951774 -13.21873953046848 0.0 -1.9616037690400931 -13.486653537166331 0.0 -1.8374073659351833 -13.72916914322922 0.0 -1.6963001624075031 -13.937733948443341 0.0 -1.536370798409269 -14.10927755273193 0.0 -1.345172553629313 -14.248447156211169 0.0 -1.1226262280656552 -14.354983958874591 0.0 -0.871181141779528 -14.429935160748371 0.0 -0.5957586548939661 -14.474839961870993 0.0 -0.30239861955996533 -14.118291152957271 0.0 -2.015244930381122 -14.429982360749552 0.0 -1.8969048074226191 -14.71875956796898 0.0 -1.7655580841389513 -14.97166157429153 0.0 -1.6053574001339341 -15.18640317966007 0.0 -1.4145204753630112 -15.364322384108052 0.0 -1.187730549693263 -15.50349598758739 0.0 -0.9266001831650039 -15.60286919007172 0.0 -0.6362707359067681 -15.66305279157631 0.0 -0.3237060400926508 -15.024644424843348 0.0 -2.016423123248556 -15.384699600105721 0.0 -1.905567835850034 -15.725719823942281 0.0 -1.7864234314813279 -16.02870486020952 0.0 -1.6314426260223203 -16.2933957720598 0.0 -1.4468251013034459 -16.51650416838725 0.0 -1.2219450111426 -16.69424684959024 0.0 -0.958910566035912 -16.82325708180824 0.0 -0.6606664691975039 -16.90166762294696 0.0 -0.3371341828404368 -15.9334228166544 0.0 -1.95204826421298 -16.34611966748145 0.0 -1.8528112304809559 -16.74275638167984 0.0 -1.7460523816482723 -17.10246162125865 0.0 -1.604303185011618 -17.4229434081699 0.0 -1.431316179410496 -17.69794325326506 0.0 -1.2166133505066241 -17.920300417161602 0.0 -0.9597407263962661 -18.083990782349098 0.0 -0.6646127415012899 -18.18415183068 0.0 -0.3396257098933248 -16.8406721460048 0.0 -1.81011087616694 -17.30901347967818 0.0 -1.7265842516304462 -17.76504462783682 0.0 -1.6385665916827512 -18.186014288304747 0.0 -1.514862002302825 -18.567775891406562 0.0 -1.35840033064768 -18.900514901004602 0.0 -1.16065020742697 -19.17362805056525 0.0 -0.9200459154441499 -19.376111573975 0.0 -0.6409636528925 -19.501119261556 0.0 -0.329064258307516 -17.74276588390328 0.0 -1.581135061730968 -18.26883003507606 0.0 -1.518947994938226 -18.78462834469542 0.0 -1.444982374613522 -19.27346811932808 0.0 -1.351957423998843 -19.72061286376388 0.0 -1.2183530355681522 -20.1153268110943 0.0 -1.0454851001654901 -20.4432533276046 0.0 -0.832098290502225 -20.689714573911463 0.0 -0.580389019090531 -20.84293227582208 0.0 -0.2983629651871764 -18.63146420681168 0.0 -1.2612154357749918 -19.217118391714962 0.0 -1.227944365538608 -19.7994325673627 0.0 -1.171763239446526 -20.35653968030812 0.0 -1.10373460373333 -20.8720281432124 0.0 -0.9950608699904099 -21.33230222048607 0.0 -0.8554113152907069 -21.71801092719855 0.0 -0.682202233007226 -22.010703646490402 0.0 -0.47736080494798405 -22.1936711748752 0.0 -0.24526098695538437 -19.483659619707208 0.0 -0.853216470841575 -20.1405057958533 0.0 -0.834470248336725 -20.7868745364432 0.0 -0.8042536780304521 -21.41545867138746 0.0 -0.753931323607182 -22.001974058505 0.0 -0.671905704513756 -22.52908598616396 0.0 -0.5745902433581219 -22.975362421394763 0.0 -0.455208387434592 -23.316309740449622 0.0 -0.3168860078454624 -23.531286207894482 0.0 -0.164413684249989 -20.255883776864607 0.0 -0.3335608273883074 -20.98251269094146 0.0 -0.34017401070852454 -21.714249919613852 0.0 -0.32769472809958 -22.4204015681152 0.0 -0.29622447376294403 -23.07838477566858 0.0 -0.24607846806927822 -23.67077011545112 0.0 -0.2004036989391563 -24.17257308879682 0.0 -0.1627684698363206 -24.56936069910606 0.0 -0.10219144942456761 -24.815726318562398 0.0 -0.055173083946473994 -20.912199942755137 0.0 0.2990886403014787 -21.72107277066554 0.0 0.27912198347916 -22.53737521497418 0.0 0.2862328121318116 -23.31563200698654 0.0 0.31079045376049297 -24.04607659968968 0.0 0.3322243214003628 -24.69309620314763 0.0 0.2961387373177121 -25.26090702908935 0.0 0.272028335086209 -25.692238727554162 0.0 0.2036847242823858 -25.95448147937966 0.0 0.11245290387893558 -21.45454796431008 0.0 1.090822024852488 -22.34950257226176 0.0 1.064306371616488 -23.23131850237092 0.0 1.069300936062796 -24.07334085913504 0.0 1.085583129302848 -24.855128715800763 0.0 1.0770447110110108 -25.54515672817599 0.0 1.005579187128963 -26.13775145951292 0.0 0.8699887046939939 -26.58032993751804 0.0 0.656718213611844 -26.8639307818632 0.0 0.358517996108352 -21.89915237738996 0.0 2.0566860963579 -22.846788982501202 0.0 2.01836104314981 -23.7858506329383 0.0 2.024199009642834 -24.664698917379 0.0 2.0055030652315797 -25.482646847299318 0.0 1.9391137775559 -26.20933150143232 0.0 1.7815591171462402 -26.798248911333047 0.0 1.5015830146931568 -27.26401310224805 0.0 1.053610492110451 -27.55508627322148 0.0 0.5175150816341441 -22.2180962193392 0.0 3.126291040767504 -23.22439584374646 0.0 3.166621863054274 -24.19575614998 0.0 3.1718186953082 -25.10150677280544 0.0 3.138192989549216 -25.94130581216265 0.0 3.006850470888201 -26.67283205493411 0.0 2.7428767853035048 -27.257036450140532 0.0 2.329299363630774 -27.700319537912637 0.0 1.6722497920281478 -27.954903844722363 0.0 0.872849656822275 -22.2725237129874 0.0 4.1904820453104 -23.366179543591198 0.0 4.37810610295512 -24.440703701733717 0.0 4.55363248687578 -25.41673953804678 0.0 4.61300934848424 -26.290365727478576 0.0 4.47906355575903 -27.04497052606416 0.0 4.16733955395456 -27.623729664476006 0.0 3.605827688450598 -28.02396227942538 0.0 2.6760407404350537 -28.259169311756253 0.0 1.4509915674412501 -21.719621518083393 0.0 4.76214363135408 -23.0705604466109 0.0 5.313788005787299 -24.34149967593153 0.0 5.7142454191569305 -25.420085570763117 0.0 5.864712491135959 -26.31488647949616 0.0 5.70220768647712 -27.0816961153453 0.0 5.2606632670075 -27.72281929509889 0.0 4.458139897716911 -28.214291311660162 0.0 3.263212234717452 -28.500502567936 0.0 1.73924386962396 -18.925895278679 0.0 3.7300861814029758 -20.499802646680973 0.0 4.36993786756391 -22.11219624022896 0.0 4.90681181860668 -23.71203047560728 0.0 5.09139701794532 -25.16937723932556 0.0 4.96706146979616 -26.414997241542 0.0 4.55837372091465 -27.45660106603422 0.0 3.828678467040018 -28.23597351720718 0.0 2.778899108938078 -28.69596030548568 0.0 1.472607210689432 -11.815908682995559 0.0 5.13143982498004 -13.062162282054599 0.0 5.85382762389243 -14.39872162000416 0.0 6.339563162012159 -15.730091139502079 0.0 6.44645933307904 -16.97857132946232 0.0 6.18770794584192 -18.086459439746 0.0 5.5854107167351605 -19.00719361951161 0.0 4.63997864054962 -19.700238137948748 0.0 3.350601242205375 -20.13185384082512 0.0 1.7634318703623921 -7.033983173315369 0.0 7.01588223684309 -7.898796273363001 0.0 7.642890071893001 -8.86845147851912 0.0 7.99048364486906 -9.873256191982989 0.0 7.9226319763608 -10.848584233219091 0.0 7.469191003992649 -11.739356477705499 0.0 6.65751623518456 -12.49610379774753 0.0 5.481304342510859 -13.07444982804 0.0 3.9341539685529 -13.437925232117822 0.0 2.063298335091798 -4.316806966301839 0.0 8.26590999035464 -4.728464075297 0.0 8.8512470443794 -5.24612650410074 0.0 9.140116199631338 -5.830596236126399 0.0 8.9912335960548 -6.43643373758256 0.0 8.4356484599376 -7.018183010805469 0.0 7.49624289819566 -7.530658614497651 0.0 6.15830962674695 -7.9321146596171594 0.0 4.4126627681552595 -8.18832385398781 0.0 2.311747032494434 -2.071469914497786 0.0 8.71372248357306 -2.086041811986444 0.0 9.32938333575495 -2.180520352724376 0.0 9.64563170273482 -2.3463006137181 0.0 9.5165553809638 -2.562958778724341 0.0 8.961623475162371 -2.8027466118720947 0.0 7.991015065536001 -3.033658978318368 0.0 6.58139488405538 -3.225080135754944 0.0 4.72314823546329 -3.351408012106146 0.0 2.476328835504852 0.796579418651016 0.0 8.435492772500039 1.0364997451582079 0.0 9.121259271450239 1.2536063636561499 0.0 9.5221826606515 1.428620706439125 0.0 9.48694895163681 1.553840712045888 0.0 9.014712752738559 1.6328181735541758 0.0 8.09824888672128 1.6761620303454998 0.0 6.70643057491 1.695742527521864 0.0 4.83042391471158 1.7024292542650947 0.0 2.537740951429635 4.55792495858696 0.0 7.654284072943599 4.89365599034932 0.0 8.405031352468809 5.28396954643992 0.0 8.905080956830801 5.687409690963 0.0 8.99392381519086 6.0697510634661 0.0 8.647432077548041 6.40768662995778 0.0 7.841550050383501 6.685038846621199 0.0 6.5392266386807 6.890702488448021 0.0 4.7323874215931 7.016919642694269 0.0 2.493047286816554 8.89703869471948 0.0 6.62218022110574 9.21124848248186 0.0 7.409321276967569 9.65975348231388 0.0 7.98721657204318 10.18730327504016 0.0 8.18825844219432 10.73787553350288 0.0 7.969780389680639 11.26238050410936 0.0 7.2964917140994 11.71831604115364 0.0 6.12834691225692 12.0707598647972 0.0 4.45718098366968 12.293209702928559 0.0 2.354976669123344 13.38056875822115 0.0 5.5476683950701995 13.622559697577701 0.0 6.340769689884181 14.064516273418379 0.0 6.957294002319419 14.64430711651776 0.0 7.23188624591736 15.29113878489018 0.0 7.114054442485879 15.9356255621063 0.0 6.5660236586419005 16.51352144141206 0.0 5.548750901267341 16.96982217700992 0.0 4.053464628002284 17.261794908110502 0.0 2.147433273471043 17.74141370332644 0.0 4.5643949873306395 17.92116618783792 0.0 5.34352954693089 18.34030343214636 0.0 5.959594628049 18.9350792411431 0.0 6.26166747683575 19.627457298365798 0.0 6.203746035734519 20.3366314982612 0.0 5.7549898703052005 20.9849729959472 0.0 4.8824129179926 21.50411948655866 0.0 3.5773226441349184 21.83936534877346 0.0 1.898817238801976 21.87989522523804 0.0 3.7352986034172124 22.04007532581426 0.0 4.49277318960052 22.4471403400272 0.0 5.08085744477728 23.03908307024464 0.0 5.3718099291242805 23.73488771689 0.0 5.3335438219 24.4530876460996 0.0 4.950438201359599 25.10586548755105 0.0 4.200932852344451 25.6225365063612 0.0 3.079213491902422 25.95459688589604 0.0 1.635453366355102 25.5407953096913 0.0 3.0341380843792902 25.6480316064692 0.0 3.7615501049572533 25.929187171001622 0.0 4.29648700676202 26.31430281451848 0.0 4.54108451627336 26.76831551134852 0.0 4.48975681677633 27.189463247384978 0.0 4.15279549788265 27.58596959738015 0.0 3.5181185636111354 27.892012821377456 0.0 2.577833089233717 28.0633533621863 0.0 1.37006815694901 27.526951919778103 0.0 2.218730270087267 27.464720848583756 0.0 2.9397422370414628 27.54567137006594 0.0 3.452539213013576 27.6842218354845 0.0 3.674736328012654 27.883867323205862 0.0 3.6345791693726204 28.09566713057558 0.0 3.359179164205842 28.32442457971406 0.0 2.8486211426022834 28.50541290937417 0.0 2.092322034930974 28.6228248462211 0.0 1.11302606977265 28.24927061940168 0.0 1.34923813437857 28.11344557613878 0.0 2.067780992646204 28.100014757406363 0.0 2.572367873656756 28.155799643098923 0.0 2.808824334429758 28.28529082315 0.0 2.791465486739 28.46354242871272 0.0 2.585179174452112 28.606353829130498 0.0 2.215647012343725 28.727996645767863 0.0 1.636627537737816 28.833105695037275 0.0 0.874892685071104 28.53322793072016 0.0 0.621378228648494 28.413073566232555 0.0 1.3116208086241912 28.385259163014076 0.0 1.816890160262675 28.424839555298078 0.0 2.059471775220192 28.504725176993198 0.0 2.0961597098747 28.62124279036948 0.0 1.9699153563348841 28.73618154579865 0.0 1.66668347100024 28.83965110515556 0.0 1.21516804017366 28.910776009996148 0.0 0.64311017754953 28.75551771987216 0.0 -0.0031339296488442237 28.538493640524813 0.0 0.6704500444310971 28.44597034129104 0.0 1.184078365218264 28.47481386501774 0.0 1.494763630235238 28.52473061703927 0.0 1.592372436379608 28.64951705024682 0.0 1.478101166346636 28.76771047245654 0.0 1.251308729310978 28.86672866358372 0.0 0.912467021453286 28.92774581255334 0.0 0.48310306603061404 28.83103903543257 0.0 -0.45623279586719695 28.535608348250847 0.0 0.1305339428567934 28.480528871729373 0.0 0.582142179709107 28.46430216938964 0.0 0.9021185764559881 28.506263350528318 0.0 1.015967877445824 28.594032432492057 0.0 1.0231366480839 28.70563161800718 0.0 0.934662724361433 28.793410383053008 0.0 0.697285956799332 28.852063068943018 0.0 0.37536234556506687 28.861267179703297 0.0 -0.775782023917775 28.54554522184496 0.0 -0.2779725967327663 28.4194385515358 0.0 0.15400346134875 28.410213706996423 0.0 0.44432581667484405 28.45012554242471 0.0 0.57800051295335 28.49196679091336 0.0 0.598655942996056 28.55450856012594 0.0 0.537198382770518 28.608337059677318 0.0 0.43514123860015197 28.692082252935837 0.0 0.2721696242198544 29.021227139187502 0.0 -1.03600024222625 28.472718313806297 0.0 -0.59259395048595 28.304047640713083 0.0 -0.249607032613791 28.249035798776312 0.0 0.05673912830158931 28.255141409100318 0.0 0.23863412967468883 28.2820943448371 0.0 0.3253823957146585 28.316180370160414 0.0 0.3262503532412978 28.350095591302935 0.0 0.2456904095190117 28.369850410307997 0.0 0.11938001360058398 29.182790517991357 0.0 -1.1727812520761198 28.454227211917317 0.0 -0.8711505345386139 28.118288052552618 0.0 -0.56729996488152 28.001980062472498 0.0 -0.312871082998705 27.957301354619 0.0 -0.089549194808115 27.945354831215898 0.0 0.050930321753760804 27.941608357791203 0.0 0.1313910691635888 27.955331572360453 0.0 0.14160699025325302 27.98305633144847 0.0 0.0908085779402001 29.574291973756697 0.0 -1.2195853311438498 28.465973629286452 0.0 -0.984616967692885 27.97742123754786 0.0 -0.8108464920258791 27.700644575571108 0.0 -0.565481772336481 27.605704837357077 0.0 -0.3845773647816292 27.52302719296176 0.0 -0.1841476393824824 27.486720154982883 0.0 -0.06684520448263771 27.46162118228478 0.0 0.02746423362715424 27.50667039250192 0.0 -0.02116625316481132 30.45838432335048 0.0 -1.251922497767424 28.7669088945108 0.0 -1.008735066824664 27.893349596569323 0.0 -0.8869429151781839 27.492750011687395 0.0 -0.7715533087108859 27.2001028581165 0.0 -0.550959993014625 27.084696956439842 0.0 -0.3957101247416484 26.967025701996 0.0 -0.2053027313908146 26.953851501356578 0.0 -0.1421638748811822 26.9373687763104 0.0 -0.098413888923714 31.94414377329332 0.0 -1.218822585644348 29.633434264416003 0.0 -1.00631027285691 28.20720113332705 0.0 -0.87733523982532 27.349427394511068 0.0 -0.7887550506504569 26.96739384921761 0.0 -0.690135888449267 26.63479622284966 0.0 -0.476132286220183 26.47142150709826 0.0 -0.3421266194284169 26.411855402014638 0.0 -0.24120889455358557 26.370022821269046 0.0 -0.155773616126282 34.02927340458384 0.0 -0.983856093289392 31.032770180071555 0.0 -0.9113089264673438 29.010663956717874 0.0 -0.8115158621195799 27.73581858704047 0.0 -0.738349957606788 26.8837354834136 0.0 -0.63220047670098 26.400499427071 0.0 -0.53073154939222 26.08056201726051 0.0 -0.3669209403803593 25.96032443434716 0.0 -0.3165139288082394 25.88696216195306 0.0 -0.17967133334813598 37.175490396316164 0.0 -0.684832386905856 33.34663224681588 0.0 -0.569586830754364 30.6484499870874 0.0 -0.6107477428357679 28.733247920758497 0.0 -0.5568731836924959 27.48777601558 0.0 -0.549075803854 26.50663009475502 0.0 -0.430616368394016 26.02670750857782 0.0 -0.35441130385321756 25.812312192593108 0.0 -0.2917177615122743 25.64204592356751 0.0 -0.168168729569877 41.5961745676414 0.0 -0.8120906786786429 36.797691832438666 0.0 -0.2632622078861936 33.25358657931765 0.0 -0.21666626481578646 30.57935485449229 0.0 -0.196840399903609 28.720154254526776 0.0 -0.28780256120551717 27.4431541618936 0.0 -0.2716926695760816 26.542109140908266 0.0 -0.20429686161272778 26.085277877346602 0.0 -0.17057453161997052 25.88466930735895 0.0 -0.13130629110651248 47.0776897180008 0.0 -1.35349383215631 41.484522522472204 0.0 -0.495124123024002 37.0883875587525 0.0 -0.0363591822694395 33.491158045399345 0.0 0.24983724816030597 30.966376380308006 0.0 0.2418190240679991 29.13828646466184 0.0 0.157616517970299 28.060726679810102 0.0 0.025753442886872098 27.25841445352998 0.0 0.031104772114996022 26.898418311926278 0.0 0.056250357175941006 46.6461813723774 0.0 -0.9097773357550349 41.966196708996 0.0 -0.23092585167600604 37.69508179524672 0.0 0.3226986767482608 34.36856357921481 0.0 0.578581899055644 31.8381092086158 0.0 0.786522387444768 30.21537293380914 0.0 0.7314054357063959 29.3091463528491 0.0 0.56553561982767 28.906027831474557 0.0 0.3478857244036824 42.4562310511824 0.0 0.23286614847333603 38.93399691900896 0.0 0.645479715156272 36.0009053341091 0.0 0.9949540689862401 34.034934990919716 0.0 1.041221529853076 32.84170264263491 0.0 0.9318970697793401 32.26451954448065 0.0 0.6367530599180009 40.20875195954 0.0 1.1283536696793999 38.28461886943764 0.0 1.356610127240368 37.23434606145268 0.0 1.101698192227877 36.84332477280455 0.0 0.400229429205463 -0.9956970648924259 0.0 -2.388274939706872e-07 -0.996010624900265 0.0 0.0073067121826678 -0.996874264921856 0.0 0.015060311976507791 -0.9977753049443819 0.0 0.02397653539941337 -0.998033944950848 0.0 0.03428931325723281 -0.9964542649113559 0.0 0.0465260891631522 -0.9914367847859191 0.0 0.061123409528085204 -0.981141704528542 0.0 0.0775740299393507 -1.2378215909455392 0.0 3.448240126206001e-07 -1.23828243095706 0.0 0.00985932064648301 -1.239454310986357 0.0 0.02029126930728172 -1.240865351021633 0.0 0.031596896789922405 -1.241545151038628 0.0 0.0446428571160714 -1.240253111006327 0.0 0.0593816694845417 -1.234975470874386 0.0 0.0765520219138005 -1.2232307905807691 0.0 0.0965468664136716 -1.5230278380756952 0.0 -3.858900616472513e-07 -1.523588598089714 0.0 0.0115356522883913 -1.525047718126192 0.0 0.0236588125914703 -1.5268303181707572 0.0 0.036496860512421486 -1.527792758194818 0.0 0.0508480692712017 -1.5264278781606961 0.0 0.0669879456746986 -1.520571158014278 0.0 0.0845818061145451 -1.507224677680616 0.0 0.10456949861423741 -1.833799205844979 0.0 7.22741458068536e-07 -1.834428645860715 0.0 0.01267531711688292 -1.8361132059028291 0.0 0.02565847384146183 -1.8381142059528541 0.0 0.039444119786102974 -1.8392534859813359 0.0 0.0541579493539487 -1.837677805941944 0.0 0.0703653057591326 -1.830971565774288 0.0 0.08765123019128071 -1.81577284539432 0.0 0.1065675746641893 -2.175830334395757 0.0 -1.453218676330466e-06 -2.176530494413261 0.0 0.013281052332026299 -2.178409454460235 0.0 0.026824919070622958 -2.180639134515977 0.0 0.0408670450216761 -2.181864614546614 0.0 0.05557902138947551 -2.1801004945025113 0.0 0.07120844978021121 -2.172581934314547 0.0 0.0879349981983749 -2.1556534538913352 0.0 0.10510690662767261 -2.555487303887181 0.0 1.6617647215441172e-06 -2.556276183906903 0.0 0.013821958345548951 -2.558356743958917 0.0 0.02779547349488682 -2.560844104021101 0.0 0.0419506290487657 -2.562251344056282 0.0 0.0565274174131854 -2.560421824010544 0.0 0.0714704697867617 -2.5523388638084703 0.0 0.08682876617071911 -2.53397126334928 0.0 0.1025375265634381 -2.9744059543601473 0.0 2.461212781530318e-07 -2.975286354382157 0.0 0.014727360368184 -2.977596754439917 0.0 0.02938847033471174 -2.98038527450963 0.0 0.0440612851015321 -2.982076714551916 0.0 0.058634705465867604 -2.980316994507923 0.0 0.0731050978276274 -2.9719709942992734 0.0 0.0873811821845295 -2.952605513815136 0.0 0.1014617585365439 -3.4314270857856752 0.0 4.27162370679059e-07 -3.4323830458095745 0.0 0.01649413281235331 -3.434929725873241 0.0 0.03278834321970856 -3.438047485951185 0.0 0.048763021219075504 -3.4400464060011577 0.0 0.06420120160503001 -3.438513645962839 0.0 0.0790238299755957 -3.4300812457520293 0.0 0.0929554903238872 -3.410043405251083 0.0 0.1055916946397923 -3.9256909381422713 0.0 9.728974243224349e-08 -3.9267270181681733 0.0 0.01981081729527042 -3.929489978237247 0.0 0.03928729978218247 -3.9328884983222103 0.0 0.058171305454282604 -3.9351800183794983 0.0 0.07606438990160971 -3.933806698345165 0.0 0.09278798231969951 -3.925282378132057 0.0 0.10768221869205541 -3.904622737615566 0.0 0.120018603000465 -4.45727651143191 0.0 3.884224577105612e-06 -4.4583841114596 0.0 0.025209961030249008 -4.46130051153251 0.0 0.0500901532522538 -4.46489931162248 0.0 0.0741361978534049 -4.46732131168303 0.0 0.09701490642537261 -4.46586971164674 0.0 0.1180299069507476 -4.456910511422761 0.0 0.1361469314036732 -4.43525771088144 0.0 0.15031663575791582 -5.02684612567115 0.0 1.803501125087527e-06 -5.02798092569952 0.0 0.03371403004285073 -5.0309697257742405 0.0 0.0667930376698259 -5.034646925866171 0.0 0.0983963704599092 -5.036849325921231 0.0 0.12893662722341562 -5.0348089258702196 0.0 0.1573325799333144 -5.02465772561644 0.0 0.18235773255894322 -5.00112372502809 0.0 0.2017592010439799 -5.63659654091491 0.0 2.014848210371204e-06 -5.637698140942451 0.0 0.045079669126991705 -5.64055014101375 0.0 0.0896495502412387 -5.6438213410955305 0.0 0.1331800633295015 -5.64529134113228 0.0 0.1749049363726233 -5.64187014104675 0.0 0.2141582533539562 -5.62969974074249 0.0 0.24798138619953453 -5.602751340068781 0.0 0.27707493892687335 -6.288892957222321 0.0 -7.27217418180435e-08 -6.28986975724674 0.0 0.060447449511186205 -6.29267135731678 0.0 0.11879343096983569 -6.295161757379041 0.0 0.1768657364216433 -6.29520055738001 0.0 0.2329340978233523 -6.28945015723625 0.0 0.28619273515481825 -6.27333855683346 0.0 0.3355787123894676 -6.24174695604367 0.0 0.3763513414087833 -6.98823697470592 0.0 -3.911627657790689e-07 -6.98892897472322 0.0 0.07838135395953381 -6.990548974763721 0.0 0.1560624279015606 -6.99149857478746 0.0 0.23268111381702772 -6.98921817473045 0.0 0.3069454756736367 -6.979523774488091 0.0 0.3771309934282746 -6.9575121739378005 0.0 0.444939731123493 -6.9199585729989606 0.0 0.49719253242981304 -7.73507499337687 0.0 5.229310130732751e-06 -7.735395393384881 0.0 0.10089272652231811 -7.73575139339378 0.0 0.2011311090282776 -7.73452459336311 0.0 0.29919124347978093 -7.72825019320625 0.0 0.39456561786414024 -7.713632992840821 0.0 0.48540557213513896 -7.68582859214571 0.0 0.565135974128399 -7.6381861909546505 0.0 0.642199536054988 -8.533147013328671 0.0 2.0220861705521534e-06 -8.53286381332159 0.0 0.1257768791444219 -8.53129581328239 0.0 0.2499517742487942 -8.526231413155779 0.0 0.3721796613044913 -8.515740612893511 0.0 0.487792092194802 -8.49346621233665 0.0 0.5985558149638951 -8.45628621140715 0.0 0.7029365775734141 -8.39778220994455 0.0 0.803499820087495 -9.384304234607601 0.0 3.2261269606531724e-06 -9.382909434572731 0.0 0.1531013038275325 -9.378499834462492 0.0 0.30273843556846075 -9.36917983422949 0.0 0.44648281116207 -9.35025663375641 0.0 0.587496734687418 -9.318719832967991 0.0 0.723384298084607 -9.27043703176092 0.0 0.8509438612735961 -9.19740102993502 0.0 0.9762242644056061 -10.29284785732119 0.0 -5.70393454259836e-06 -10.29008505725212 0.0 0.1811234525280862 -10.2808642570216 0.0 0.3592055409801383 -10.26310745657768 0.0 0.532368853309221 -10.23432185585804 0.0 0.6974313774357841 -10.18952345473808 0.0 0.8556247813906191 -10.12580505314512 0.0 1.006034865150871 -10.03718745092968 0.0 1.1490778287269452 -11.253456281336401 0.0 -2.703060507576511e-06 -11.248602681215061 0.0 0.2140401893510046 -11.233883080847072 0.0 0.4243588906089721 -11.20695748017393 0.0 0.625651935641298 -11.16503027912575 0.0 0.8168748204218701 -11.10492947762323 0.0 0.996292904907322 -11.02338067558451 0.0 1.159252188981304 -10.91324187283104 0.0 1.3123941928098541 -12.273063906826591 0.0 -6.20123695503092e-06 -12.26583270664581 0.0 0.2453491741337292 -12.24352990608824 0.0 0.485501012137525 -12.204000305100001 0.0 0.7153398178834951 -12.14597190364929 0.0 0.93086722327168 -12.06498750162468 0.0 1.127158948178973 -11.95928149898203 0.0 1.3023905125597621 -11.82300509557512 0.0 1.462992596574814 -13.35215353380383 0.0 -8.886015022150371e-06 -13.341482733537061 0.0 0.2758092948952322 -13.30925193273129 0.0 0.543960253599006 -13.25412633135315 0.0 0.7987581399689531 -13.174316729357912 0.0 1.034059345851483 -13.067564726689112 0.0 1.247545671188641 -12.931378323284452 0.0 1.4304760357619 -12.76283311907082 0.0 1.593403679835091 -14.48961836224045 0.0 1.44451483611287e-06 -14.474850761871261 0.0 0.3024031475600785 -14.42994116074852 0.0 0.595761014894025 -14.355005158875121 0.0 0.8711873417796829 -14.24844235621105 0.0 1.122629948065748 -14.1092563527314 0.0 1.3451780736294512 -13.9377323484433 0.0 1.536376998409424 -13.729153943228841 0.0 1.696299962407498 -15.68307079207676 0.0 -4.05955170148879e-06 -15.66305879157646 0.0 0.32371173609279325 -15.6028843900721 0.0 0.6362707359067681 -15.50349598758739 0.0 0.9266047831651191 -15.36431318410782 0.0 1.187735589693389 -15.186417179660422 0.0 1.414522795363069 -14.971669574291731 0.0 1.60536044013401 -14.71877316796932 0.0 1.765556764138918 -16.92786947886628 0.0 -8.59701300891609e-06 -16.901670822952717 0.0 0.3371373748461824 -16.8232722818356 0.0 0.660661549188648 -16.69423324956576 0.0 0.9589137260415999 -16.51652736843075 0.0 1.22194861114935 -16.29339897206604 0.0 1.446831941316784 -16.02874326029016 0.0 1.6314508260395402 -15.72575782402208 0.0 1.786426471487712 -18.21753908284644 0.0 -4.4433918158570403e-07 -18.18415623070464 0.0 0.3396156978372576 -18.0840091824549 0.0 0.66460926148128 -17.920338417391502 0.0 0.959739686389974 -17.697975653441638 0.0 1.216614110510766 -17.42298300840948 0.0 1.4313194194300982 -17.102478421356512 0.0 1.604309265047034 -16.74271518143676 0.0 1.7460599816931122 -19.543636767000496 0.0 -7.19997867836746e-07 -19.5011376618044 0.0 0.32905672220578003 -19.3761007738292 0.0 0.64095389276074 -19.173664851048247 0.0 0.920042755402675 -18.90051010094088 0.0 1.160650287428032 -18.56783829223024 0.0 1.358403210685696 -18.186014288304747 0.0 1.5148670823694999 -17.76503382769345 0.0 1.638577071821873 -20.8945469803344 0.0 -1.1075845083603161e-05 -20.8428910743018 0.0 0.2983440324885856 -20.68971897407415 0.0 0.5803784186985961 -20.443248527426398 0.0 0.832088290130975 -20.115363212432 0.0 1.04548690023164 -19.720618863985283 0.0 1.218359875820548 -19.27348812006458 0.0 1.351972504554164 -18.78459034328752 0.0 1.4449923749840219 -22.256168374378348 0.0 -7.897992390184598e-06 -22.19366637439952 0.0 0.24524837370553518 -22.010671643309603 0.0 0.47734840371542403 -21.71802772886721 0.0 0.6821902718192989 -21.3323386241015 0.0 0.8554082749887589 -20.8720221426169 0.0 0.9950695508519 -20.35655648197048 0.0 1.103745764837612 -19.799491773189462 0.0 1.1717725203599099 -23.605230032599682 0.0 -9.303417609137279e-06 -23.53127420468628 0.0 0.16439992057125302 -23.316329745802623 0.0 0.316871507965608 -22.97535922053924 0.0 0.45519446371308003 -22.52911359353454 0.0 0.574587722685156 -22.00198326096186 0.0 0.67191678747267 -21.415479877048917 0.0 0.753948528200442 -20.78688333879192 0.0 0.804262480379172 -24.899622971522348 0.0 -2.983217823802843e-06 -24.8157415293905 0.0 0.055158993916233995 -24.56940192846827 0.0 0.10217362473040051 -24.17261111586992 0.0 0.1627575900905642 -23.6707869274165 0.0 0.2004062287396611 -23.0783575562981 0.0 0.24608617355283322 -22.42041197552 0.0 0.296233444145312 -21.714288346951772 0.0 0.327704414991014 -26.046514710616737 0.0 -1.222451624843078e-06 -25.954463045450975 0.0 -0.11246140753038318 -25.692278400562696 0.0 -0.2036954279799424 -25.2608168631406 0.0 -0.27203342445309403 -24.6930196622985 0.0 -0.2961380199977124 -24.046095033598117 0.0 -0.332217320522527 -23.315629201827402 0.0 -0.310778892497466 -22.53738443192357 0.0 -0.2862277267801699 -26.94161569841217 0.0 -3.678551693010432e-07 -26.863942835131198 0.0 -0.358517996108352 -26.58027168007344 0.0 -0.6567194591158321 -26.137714496174276 0.0 -0.8699922403176901 -25.54514146071801 0.0 -1.005582923638416 -24.85517170572255 0.0 -1.077035028234234 -24.07334407333152 0.0 -1.085571076066048 -23.23128153912244 0.0 -1.069294788913864 -27.696641411875 0.0 -1.0533393498032439e-07 -27.55507981424996 0.0 -0.5175119328855281 -27.264047011840972 0.0 -1.0536140445439952 -26.798233571288225 0.0 -1.501587535969525 -26.20937469574016 0.0 -1.781565455002624 -25.48258669827306 0.0 -1.9391083681803838 -24.664709816852397 0.0 -2.00549192354766 -23.78589059762064 0.0 -2.024189401971726 -27.9971773131372 0.0 2.31445414576011e-06 -27.95481409582455 0.0 -0.8728539209101801 -27.700279333652283 0.0 -1.6722515382738 -27.25705513089555 0.0 -2.329303424664474 -26.67279469344615 0.0 -2.742881211827622 -25.94130743657341 0.0 -3.006850267836856 -25.10155347456304 0.0 -3.138185232996432 -24.195694422476 0.0 -3.1718101671662002 -28.3335915830352 0.0 2.6396818206116163e-06 -28.259221950045003 0.0 -1.450988262246375 -28.02404021674236 0.0 -2.676040536410664 -27.623757411795086 0.0 -3.605826872352978 -27.04495175582304 0.0 -4.167341186149439 -26.29039673917902 0.0 -4.479058251126061 -25.41670975049679 0.0 -4.61299873921986 -24.440719207582802 0.0 -4.55360351542092 -28.55603034064208 0.0 8.192016160477701e-07 -28.5004837483562 0.0 -1.7392413330719 -28.2142385349815 0.0 -3.263207775292666 -27.72277838293589 0.0 -4.45813539737898 -27.081646202473497 0.0 -5.2606616305199 -26.314917981887085 0.0 -5.7021925489646 -25.42013834755788 0.0 -5.864692853258839 -24.34144526260046 0.0 -5.71424419178856 -28.852101799089198 0.0 -1.73833489204242e-06 -28.69596030548568 0.0 -1.472601558285608 -28.235951808691794 0.0 -2.778899887167875 -27.45660393319908 0.0 -3.828680023500942 -26.415020292155518 0.0 -4.55836355675328 -25.1693899367904 0.0 -4.967043447588 -23.712038257936218 0.0 -5.091381043691181 -22.11219296345384 0.0 -4.90679297714974 -20.27852733433252 0.0 9.47288496630534e-07 -20.131809994116878 0.0 -1.7634385088359759 -19.70023649881911 0.0 -3.3506035779651118 -19.00717804776863 0.0 -4.63997413293981 -18.086492222405198 0.0 -5.58539965258768 -16.97859509691808 0.0 -6.1876890957908 -15.730109579796478 0.0 -6.446440892784639 -14.3987076873162 0.0 -6.3395512782489 -13.56198395907087 0.0 -2.918183058785025e-06 -13.43790023108421 0.0 -2.063300097459741 -13.074440401415249 0.0 -3.9341567145696748 -12.49605666459618 0.0 -5.48130106368294 -11.7393134430334 0.0 -6.65750516912602 -10.848618660999609 0.0 -7.46917624922957 -9.87324840473438 0.0 -7.922617221573959 -8.868471561456749 0.0 -7.99047134919296 -8.27642782058512 0.0 -1.2227444582105759e-05 -8.18831073788189 0.0 -2.3117599436611993 -7.93213433379332 0.0 -4.41267301512201 -7.5306373007974505 0.0 -6.1583116761412 -7.0181055436121 0.0 -7.49623347097107 -6.4364161127460005 0.0 -8.435641491978961 -5.8305827100732 0.0 -8.991232366413598 -5.24608592586788 0.0 -9.140115379869059 -3.3954961033497058 0.0 -1.266831022447404e-05 -3.351393133266852 0.0 -2.47631903924427 -3.2251049748265457 0.0 -4.723148645348959 -3.033661314668739 0.0 -6.58139037530905 -2.802738987984125 0.0 -7.99100317882895 -2.56298283908361 0.0 -8.96160625991383 -2.3463047125921 0.0 -9.5165287382828 -2.180508424978338 0.0 -9.64562227530668 1.703781085275024 0.0 -1.2832938720472982e-05 1.7024351154342658 0.0 -2.53773254905425 1.695729206677314 0.0 -4.83043170228224 1.6761862538102499 0.0 -6.706420328097499 1.632868587919646 0.0 -8.09824724722972 1.5538162835984 0.0 -9.01470250590656 1.428634478203173 0.0 -9.48692804806638 1.25360234688605 0.0 -9.522178561906498 7.05950436393675 0.0 1.911291814813705e-05 7.016919642694269 0.0 -2.493029505357852 6.89071355064988 0.0 -4.73239684495024 6.685073262383 0.0 -6.539232374641 6.40765262386012 0.0 -7.8415480018234005 6.06978220160394 0.0 -8.64743453582208 5.68742321149002 0.0 -8.993919718061461 5.2839314430974405 0.0 -8.905074811130401 12.3692379157568 0.0 7.28372762715026e-06 12.293224441158639 0.0 -2.354972370472904 12.07075699903024 0.0 -4.45717197697352 11.718334054561799 0.0 -6.1283473216525595 11.26236904102332 0.0 -7.29649335168312 10.73789682211152 0.0 -7.96977875209536 10.18727338908033 0.0 -8.18825885159103 9.659741609795661 0.0 -7.987227216369861 17.36224090984962 0.0 7.058578350235401e-06 17.2618185872531 0.0 -2.1474192936923298 16.96975061211092 0.0 -4.053466958973281 16.5134919975571 0.0 -5.54876112482809 15.9355895751487 0.0 -6.5660322464386 15.291170273505802 0.0 -7.11406221240402 14.64428380674168 0.0 -7.2318805207092 14.06450686770684 0.0 -6.957303408030959 21.95525735791316 0.0 1.3865646209768281e-05 21.83940741158489 0.0 -1.8988166670744417 21.50411336090696 0.0 -3.577321500679934 20.9849542106098 0.0 -4.8824133263695 20.3366347652776 0.0 -5.754995587583901 19.62744341353692 0.0 -6.20375420328092 18.93504942956151 0.0 -6.26167319412537 18.3402940394496 0.0 -5.95960361236764 26.06992561444674 0.0 5.05060293493028e-07 25.95454877393776 0.0 -1.6354488813420418 25.62253487544688 0.0 -3.079215448999606 25.10586711846525 0.0 -4.20093448325865 24.453132904001947 0.0 -4.9504455404789 23.734833081204002 0.0 -5.333545045087001 23.039061460598102 0.0 -5.37181522960362 22.44714482505016 0.0 -5.0808664148232 28.120744846107648 0.0 2.795663557717745e-06 28.06327561961292 0.0 -1.37006001636541 27.8920592227074 0.0 -2.577841636847127 27.58595087403925 0.0 -3.5181208836772897 27.1894168460482 0.0 -4.1527967189704595 26.768284577114883 0.0 -4.48975966598206 26.314315025399285 0.0 -4.541094284978 25.929201010005983 0.0 -4.296497996559601 28.664882430775652 0.0 -1.1747684993972e-06 28.622840692258453 0.0 -1.113032855127105 28.50543119326882 0.0 -2.092318337521167 28.324427830183744 0.0 -2.848621508280122 28.0956825703077 0.0 -3.3591826584610063 27.8838453825339 0.0 -3.634585385896342 27.684175516288143 0.0 -3.674741731918896 27.545674620536097 0.0 -3.4525488831623017 28.866687647027636 0.0 -9.44036848922168e-07 28.833130436339598 0.0 -0.8748903731789199 28.728074114418593 0.0 -1.6366286734039 28.606363157816194 0.0 -2.21565127109154 28.46357933786864 0.0 -2.5851851772598877 28.285219844024997 0.0 -2.7914631748475 28.15576557312396 0.0 -2.808824334429758 28.100026925253964 0.0 -2.572378338005692 28.938124596444958 0.0 -1.0055634639142559e-06 28.91081933553842 0.0 -0.6431097726379199 28.839691596301563 0.0 -1.215164760390834 28.73619085876154 0.0 -1.6666873581499682 28.62121161219399 0.0 -1.9699163281221719 28.5047191033222 0.0 -2.09615954791014 28.42484886825476 0.0 -2.05947351633818 28.38527778892882 0.0 -1.816894614285765 28.9468628535318 0.0 -2.6322854293722843e-06 28.92772115169477 0.0 -0.483103025602977 28.866716131017178 0.0 -0.9124638276702 28.76764578824214 0.0 -1.2513071122056179 28.64954777524866 0.0 -1.478105289965304 28.524773874591602 0.0 -1.5923706171367529 28.474903210029208 0.0 -1.494762942965919 28.445976809705762 0.0 -1.1840816398532161 28.879265736307108 0.0 -1.883152779677502e-06 28.852090520694663 0.0 -0.3753636212641137 28.793410383053008 0.0 -0.69728296940283 28.70561627732016 0.0 -0.9346631280637231 28.59407845453602 0.0 -1.0231435513904938 28.506275865292803 0.0 -1.01596634337792 28.464280773185763 0.0 -0.902111552041884 28.480528871729373 0.0 -0.582135801218613 28.701982228548353 0.0 -1.288970809960775e-06 28.69208547851056 0.0 -0.2721691202238044 28.60832818934684 0.0 -0.435139464534056 28.55448396512053 0.0 -0.537193907285927 28.491935744756677 0.0 -0.5986548543645881 28.450150137419136 0.0 -0.577996440667387 28.410210481422904 0.0 -0.44432476836345 28.4194450026814 0.0 -0.15400321943079 28.403499334845552 0.0 9.437671134069901e-07 28.369874978838798 0.0 -0.11938280071915999 28.350110896292758 0.0 -0.24569312414089028 28.316137274550442 0.0 -0.3262432928109915 28.282085081293392 0.0 -0.3253804503704794 28.25513214556006 0.0 -0.23863278444753802 28.248995925268023 0.0 -0.056731226097219103 28.304029113627042 0.0 0.249616658643277 28.0045248305865 0.0 2.86505691839605e-06 27.98304425948537 0.0 -0.0908024614788961 27.95541124729315 0.0 -0.141612881369489 27.94159588343584 0.0 -0.13138748379241919 27.94534557604764 0.0 -0.05093176234082039 27.957350447236 0.0 0.089544438457845 28.0020074255705 0.0 0.31286175137749 28.118288052552618 0.0 0.5673066044587499 27.491729598953103 0.0 3.4948997756622797e-06 27.506704168912 0.0 0.021166771471866002 27.46163967889306 0.0 -0.02747228970426054 27.48674468310057 0.0 0.06684542965880011 27.52309434370184 0.0 0.18414311977578482 27.60567387564784 0.0 0.384579451681252 27.700665886885417 0.0 0.5654785153242939 27.97740314304651 0.0 0.810856464106623 26.921252960429612 0.0 -1.357569629774853e-06 26.937344262810747 0.0 0.09841727259038699 26.9538085022574 0.0 0.1421647589748102 26.967040972704122 0.0 0.2052995928584352 27.084666415023598 0.0 0.39571637769476276 27.20009040043635 0.0 0.5509603948752749 27.49270098467346 0.0 0.771553509641271 27.89338938077961 0.0 0.8869409862467761 26.3457146658317 0.0 -2.53224778568015e-06 26.37003527312616 0.0 0.1557744877562797 26.411815636403478 0.0 0.2412148312781608 26.47138816825503 0.0 0.3421260932370358 26.634802247943608 0.0 0.47613304939875 26.967409112786672 0.0 0.690133518579334 27.34948523541299 0.0 0.788752198772654 28.207176631271 0.0 0.8773390958866 25.855055651369284 0.0 -3.121761626424992e-06 25.886949714568317 0.0 0.1796633991441856 25.960330858805236 0.0 0.3165135232643231 26.080531501093752 0.0 0.36692271112108843 26.400484168984203 0.0 0.53072677120188 26.8837507415004 0.0 0.63220613825424 27.73582782219896 0.0 0.738350961428363 29.01067319187636 0.0 0.8115127703491289 25.614076589918348 0.0 -5.38407986782708e-06 25.64208887549788 0.0 0.1681632622307028 25.812324235190406 0.0 0.2917124988972542 26.02666736657482 0.0 0.35441642597280043 26.50663009475502 0.0 0.43061022666847504 27.487769994279997 0.0 0.549077008114 28.73322062420258 0.0 0.5568725815625859 30.64841626781748 0.0 0.6107528810102321 25.82263682872992 0.0 -4.80466501706132e-06 25.88468776899665 0.0 0.1313017800454745 26.085299549703898 0.0 0.17057191087009702 26.54211235162739 0.0 0.2042947545783053 27.443163392711764 0.0 0.271688343131744 28.72017873626556 0.0 0.2878030388000934 30.579342412955697 0.0 0.19684402400281567 33.25358657931765 0.0 0.2166658072884487 26.743157398538248 0.0 -3.7394511742398747e-06 26.89839985294416 0.0 -0.0562580938971426 27.258383956092658 0.0 -0.03110415614701857 28.0607724259695 0.0 -0.025747618678472698 29.13828646466184 0.0 -0.15761911426568012 30.966342672604046 0.0 -0.24180579780701666 33.4911520261665 0.0 -0.249838130981124 37.088402807478005 0.0 0.03634918111192275 28.8783101736351 0.0 -3.9509256597123595e-06 28.906046288577123 0.0 -0.3478967946528048 29.3091158584989 0.0 -0.56553257039265 30.21537895242999 0.0 -0.7314084450168209 31.838124455782918 0.0 -0.7865281251945 34.36858163507736 0.0 -0.578584226255706 37.69506935676456 0.0 -0.3226987489717056 41.966192696583 0.0 0.230924419244565 32.22819292299705 0.0 -2.9260050474928e-06 32.2645255626755 0.0 -0.6367602416305219 32.84167816863885 0.0 -0.93189394031755 34.034941009115016 0.0 -1.041225582104578 36.0009173704961 0.0 -0.9949538683797899 38.93396602561104 0.0 -0.6454722124739201 42.456223026923205 0.0 -0.2328645957791808 36.69518428992484 0.0 -5.36469328480188e-06 36.84330952744585 0.0 -0.40023017141371553 37.2343765521792 0.0 -1.101697229362829 38.28460964198507 0.0 -1.356605312917288 40.20874393567 0.0 -1.1283502194153 -0.962803664070091 0.0 0.0967634464190861 -0.9339996633499911 0.0 0.118718842967971 -0.8933575023339371 0.0 0.1418364075459101 -0.8395824609895611 0.0 0.1669362601734064 -0.771597299289932 0.0 0.1929868288246706 -0.688830977220774 0.0 0.2169271534231787 -0.589305494732637 0.0 0.23420639785515984 -1.202372790059319 0.0 0.117886522947163 -1.168687069217176 0.0 0.14223895555597382 -1.120202668005066 0.0 0.1686748322168707 -1.056625386415634 0.0 0.1953476488836911 -0.9763759844093991 0.0 0.22139864553496602 -0.875281941882048 0.0 0.2436913540922837 -0.743198218579955 0.0 0.2589585384739633 -0.564791134119778 0.0 0.30207977955199433 -1.482881197072029 0.0 0.12600614315015352 -1.4435116360877902 0.0 0.1491631437290785 -1.38703043467576 0.0 0.1729567203239179 -1.3130367528259181 0.0 0.19752948893823713 -1.2217113905427839 0.0 0.21974778549369453 -1.105928267648206 0.0 0.2423664140591602 -0.9534189438354731 0.0 0.26449127861228183 -0.738934738473368 0.0 0.3062751836568794 -1.787778884694471 0.0 0.1269652511741312 -1.7427036835675909 0.0 0.1475225356880633 -1.6779186819479661 0.0 0.16870141621753532 -1.594402559860063 0.0 0.1897910407447759 -1.493716677342916 0.0 0.2085769212144229 -1.369175954229398 0.0 0.22858057771451432 -1.201902790047569 0.0 0.25013142225328544 -0.9499302237482551 0.0 0.2990852434771309 -2.124385893109646 0.0 0.12343755108593871 -2.073714891842871 0.0 0.14176838754420962 -2.001209130030227 0.0 0.1595727719893192 -1.9087566877189162 0.0 0.1769289524232237 -1.8010372450259302 0.0 0.19122343678058581 -1.6688780417219502 0.0 0.2082836212070904 -1.4874319571857981 0.0 0.2295558977388973 -1.195535669888391 0.0 0.2915903152897577 -2.4999331024983262 0.0 0.11844250296106251 -2.444337701108441 0.0 0.1340381793509544 -2.36489645912241 0.0 0.14788485969712142 -2.265186736629667 0.0 0.16020718000517942 -2.1511316937782907 0.0 0.1693670322341757 -2.013150250328755 0.0 0.18323670058091743 -1.818372205459304 0.0 0.2063396491584911 -1.482539037063475 0.0 0.2892097552302437 -2.9163615129090363 0.0 0.1146711988667799 -2.856696791417418 0.0 0.1267697351692433 -2.7716786292919644 0.0 0.13553948738848712 -2.666030946650772 0.0 0.14170785154269622 -2.547129103678226 0.0 0.14603920365098 -2.407138900178471 0.0 0.1571743039293575 -2.202173495054336 0.0 0.1870433846760845 -1.818861045471525 0.0 0.3025421235635529 -3.3720570443014237 0.0 0.1161734629043365 -3.309108442727709 0.0 0.1240323111008077 -3.219595040489874 0.0 0.1271451271786281 -3.109755797743893 0.0 0.1272707511817687 -2.9901901947547533 0.0 0.1269308111732702 -2.851050631276264 0.0 0.1393299154832478 -2.643309466082735 0.0 0.1814662965366573 -2.2147991753699783 0.0 0.34252663656316573 -3.865116616627913 0.0 0.12853809921345238 -3.799519814987993 0.0 0.13242910331072752 -3.706738372668457 0.0 0.13040265126006623 -3.5945656898641403 0.0 0.1263405351585133 -3.476640406916008 0.0 0.121268083031702 -3.342062443551559 0.0 0.1393310594832764 -3.146281118657026 0.0 0.1915119207877979 -2.697023067425575 0.0 0.3896728617418213 -4.39405850985146 0.0 0.1586130319653257 -4.32583970814599 0.0 0.16094673202366822 -4.23122330578058 0.0 0.1548269798706744 -4.11922970298074 0.0 0.1456049476401236 -4.00634530015863 0.0 0.135426523385663 -3.8866474971661846 0.0 0.1533798238344955 -3.7233403330835064 0.0 0.20207329305183222 -3.3272324431808094 0.0 0.3685722452143059 -4.95751292393782 0.0 0.21286790932169763 -4.88690092217252 0.0 0.21558738138968442 -4.79039691975992 0.0 0.2077297731932442 -4.68338891708472 0.0 0.1907241407681034 -4.58321851458046 0.0 0.17423897235597421 -4.49909651247741 0.0 0.1727260643181515 -4.40273731006843 0.0 0.2028846810721169 -4.1551109038777705 0.0 0.2723594748089867 -5.55512453887811 0.0 0.2956295553907387 -5.48153973703849 0.0 0.2997115434927884 -5.38311413457785 0.0 0.2919573392989333 -5.28741373218534 0.0 0.2683605747090142 -5.20692933017323 0.0 0.25396500234912495 -5.17860932946523 0.0 0.24352379408809469 -5.18084292952107 0.0 0.28775406719385155 -5.04624172615604 0.0 0.406334690158367 -6.18823375470584 0.0 0.404676930116923 -6.10936655273416 0.0 0.41785761044644 -6.01004295025107 0.0 0.427226330680658 -5.928601348215031 0.0 0.409262250231556 -5.88914214722855 0.0 0.42093689052342204 -5.93393974834849 0.0 0.491115572277889 -6.03161015079025 0.0 0.758475898961897 -6.00763855019096 0.0 1.194895189872379 -6.857833371445831 0.0 0.545899253647481 -6.7719241692981 0.0 0.578565054464126 -6.67445536686138 0.0 0.6012485350312131 -6.60892056522301 0.0 0.6281845357046131 -6.627668965691719 0.0 0.69986201749655 -6.76975096924377 0.0 0.902676222566905 -7.02559737563993 0.0 1.309620312740507 -7.2184837804620905 0.0 1.832964005824099 -7.56621858915546 0.0 0.711373057784326 -7.47142258678556 0.0 0.771258979281474 -7.37234058430851 0.0 0.827146340678658 -7.32569658314241 0.0 0.899550262488756 -7.408000985200021 0.0 1.0356741058918522 -7.6876833921920795 0.0 1.294597552364938 -8.1518642037966 0.0 1.7120924428023099 -8.61908301547707 0.0 2.2421568560539202 -8.31357740783943 0.0 0.89781562244539 -8.20589380514734 0.0 0.985325944633148 -8.104155002603871 0.0 1.068541746713543 -8.07209020180225 0.0 1.178682269467056 -8.211597005289919 0.0 1.349018233725455 -8.61754861543871 0.0 1.627022960675573 -9.2929642323241 0.0 2.036353930908847 -10.07884865197121 0.0 2.56206766405169 -9.09854062746351 0.0 1.0935842673396061 -8.977035824425892 0.0 1.204294150107353 -8.863968221599201 0.0 1.302612512565312 -8.83965782099144 0.0 1.436297275907431 -9.02559742563993 0.0 1.6213167605329182 -9.54350623858765 0.0 1.911505367787633 -10.4146922603673 0.0 2.318556097963901 -11.48958468723961 0.0 2.862206511555161 -9.919417047985421 0.0 1.282891032072275 -9.7776042444401 0.0 1.403949955098748 -9.650120641253011 0.0 1.51649803791245 -9.62833584070839 0.0 1.661037121525927 -9.852614646315361 0.0 1.8555418463885451 -10.46960946174023 0.0 2.155158093878951 -11.51532468788311 0.0 2.575066264376655 -12.82896312072407 0.0 3.148227198705678 -10.77252386931309 0.0 1.45538523638463 -10.60602986515074 0.0 1.5854211196355272 -10.45842146146053 0.0 1.706728802668219 -10.437967860949191 0.0 1.853694966342373 -10.698120267453001 0.0 2.0543324113583092 -11.411660285291502 0.0 2.368346259208655 -12.619945115498622 0.0 2.813436750335917 -14.139749553493731 0.0 3.4306790057669727 -11.65357069133926 0.0 1.607450320186257 -11.45829188645729 0.0 1.7428387235709668 -11.28596748214918 0.0 1.8704132467603303 -11.265880281647 0.0 2.0143143303578572 -11.56201028905025 0.0 2.222785415569634 -12.37916510947912 0.0 2.55389086384727 -13.75495354387383 0.0 3.0370077959251933 -15.48613318715332 0.0 3.6987313324682813 -12.55980111399502 0.0 1.7378031234450773 -12.33026750825668 0.0 1.866779926669497 -12.13284110332102 0.0 1.995872169896803 -12.10824750270618 0.0 2.142654093566351 -12.44780591119514 0.0 2.351341298783531 -13.37075073426876 0.0 2.7084587877114683 -14.924785173119622 0.0 3.234889320872231 -16.885751622143783 0.0 3.942355458558884 -13.48662593716564 0.0 1.837390925934772 -13.218713530467829 0.0 1.9615845290396123 -12.99042072476051 0.0 2.083559452088985 -12.96066912401672 0.0 2.235731735893292 -13.34289273357231 0.0 2.4534609413365223 -14.38103995952599 0.0 2.8278160706954 -16.12457480311436 0.0 3.3995304849882597 -18.335644858391113 0.0 4.148560503714011 -14.42998076074951 0.0 1.896896807422419 -14.118292752957313 0.0 2.015236730380917 -13.8548723463718 0.0 2.1299711732492783 -13.81837194545929 0.0 2.287720337193007 -14.243857156096421 0.0 2.5142750228568738 -15.401947585048681 0.0 2.909930312748256 -17.34907123372677 0.0 3.5215496880387405 -19.82276489556911 0.0 4.322364108059101 -15.384699600105721 0.0 1.905577555868988 -15.024644424843348 0.0 2.0164250032523627 -14.72250851720296 0.0 2.1261931049961444 -14.675626518083519 0.0 2.285538708206512 -15.145959262677598 0.0 2.521532018749464 -16.43024090343344 0.0 2.939964933913396 -18.594191847720882 0.0 3.5913714618642323 -21.34679282415792 0.0 4.4499072098185595 -16.346110467426477 0.0 1.852811430482151 -15.9334016165325 0.0 1.95205494425139 -15.58887926638779 0.0 2.054106536988444 -15.5295784945629 0.0 2.21486373539325 -16.04680385460438 0.0 2.45793899569452 -17.46391543649316 0.0 2.90151131881578 -19.860072015780478 0.0 3.59448692901408 -22.91332883240319 0.0 4.52187806151237 -17.30905468021584 0.0 1.726600291839768 -16.8406721460048 0.0 1.81011431621338 -16.4544606003214 0.0 1.9094186232084438 -16.378711452878882 0.0 2.057798951249258 -16.948477201353402 0.0 2.30064789832734 -18.505677635387013 0.0 2.7747932910998374 -21.15535318002095 0.0 3.5157654058675063 -24.54312404633194 0.0 4.52974207124936 -18.26883803537246 0.0 1.518959435362078 -17.74279028480364 0.0 1.5811413419627 -17.3104565358997 0.0 1.6638926658083601 -17.22037793419922 0.0 1.7976392060000441 -17.84687158684528 0.0 2.03228003595649 -19.562051810799257 0.0 2.537074432992442 -22.495849666223243 0.0 3.3403320537047203 -26.2756855370204 0.0 4.4693729137752 -19.21714759461744 0.0 1.22793844495016 -18.63141820226688 0.0 1.261217716000256 -18.1533991460618 0.0 1.31358764063504 -18.05598043214364 0.0 1.409984152767219 -18.74307885506056 0.0 1.636301621422468 -20.6360628311838 0.0 2.16843367048308 -23.893773254940342 0.0 3.055114513671148 -28.15129220568782 0.0 4.33687061608983 -20.14043257629975 0.0 0.8344746495120751 -19.48365801928053 0.0 0.853219351609599 -18.961540063309652 0.0 0.8607434866160311 -18.861190736246158 0.0 0.9036640990694219 -19.61581631239314 0.0 1.1206002283946008 -21.70716473334048 0.0 1.6815056378294941 -25.33559597046693 0.0 2.6551634388747387 -30.175021730895754 0.0 4.1288427275949 -20.98250228354134 0.0 0.3401876323941432 -20.25586256177498 0.0 0.3335802932337547 -19.68112962423275 0.0 0.322587910376102 -19.5609333604826 0.0 0.3355530033151398 -20.42039429452433 0.0 0.472036711431053 -22.72992876217538 0.0 1.04590765977237 -26.76433217459328 0.0 2.149898582476416 -32.25207479858128 0.0 3.849847758111836 -21.721017468989903 0.0 -0.2791180402292448 -20.91217549782803 0.0 -0.2990895940543725 -20.26804287972 0.0 -0.334931482398036 -20.14222389539766 0.0 -0.3796747516721278 -21.075100914530623 0.0 -0.23754045920530278 -23.63630321459406 0.0 0.2702189106248226 -28.07892676955016 0.0 1.578484435287816 -34.270506668660126 0.0 3.5875026245229926 -22.34949051904296 0.0 -1.064299099507812 -21.45449131426632 0.0 -1.090826886310144 -20.75899017154922 0.0 -1.168036436905508 -20.6187824237824 0.0 -1.2270486836607999 -21.6231897657494 0.0 -1.05849963665052 -24.39107593311249 0.0 -0.445394645567487 -29.2507928690619 0.0 0.90146171577006 -35.95629955340184 0.0 3.3373550244759027 -22.846793423015303 0.0 -2.01835256580471 -21.89918749777529 0.0 -2.056677457550474 -21.132688212224238 0.0 -2.140167353267144 -21.032305293131913 0.0 -2.135007312833116 -22.10044163078108 0.0 -1.923138926190016 -25.06793387818893 0.0 -1.121367868712352 -30.249670708723798 0.0 0.232783900132116 -37.3773766845507 0.0 3.330825702061394 -23.2243523908774 0.0 -3.1666185736314763 -22.21805885805088 0.0 -3.126288725992032 -21.39567561312636 0.0 -3.110911486123238 -21.213600543804297 0.0 -2.989733304818865 -22.3240780017198 0.0 -2.5467366394382402 -25.33901503719834 0.0 -1.628356570556292 -30.753622689461583 0.0 -0.3410668460635056 -37.8671869573109 0.0 3.4771987421466752 -23.366170158470638 0.0 -4.37808284417808 -22.27248168395688 0.0 -4.190478372870841 -21.36863157096291 0.0 -3.965629209927375 -21.0414519896256 0.0 -3.60434848801716 -21.97249403519634 0.0 -3.19159912617963 -24.92207270680684 0.0 -2.128725171603424 -30.25642476997312 0.0 -0.8893152912835679 -36.4518860200174 0.0 3.85575821752454 -23.07055717362546 0.0 -5.3137757320919 -21.71967020383106 0.0 -4.76212562990116 -20.530906362507242 0.0 -4.23764877298392 -19.7667869973003 0.0 -3.99126159021663 -20.6294282381033 0.0 -4.052958219178112 -23.318151689353 0.0 -2.703604861065775 -26.754550162083838 0.0 -1.559590553769984 -28.307254778512803 0.0 3.9187143967956004 -20.49980387547344 0.0 -4.3699227124567805 -18.92588258112736 0.0 -3.730080324145284 -17.4218061047547 0.0 -4.3737422853300005 -16.7108374398348 0.0 -5.21488526813208 -16.76394736747608 0.0 -5.18041745468224 -16.7210008173461 0.0 -3.7997276196173693 -16.644673579132018 0.0 -1.7950972969927157 -16.90573530043124 0.0 4.16899387084804 -13.06215982333938 0.0 -5.85381410095872 -11.81589147196172 0.0 -5.1314349075417995 -10.723726480677431 0.0 -5.0422754934211005 -9.87912863224773 0.0 -5.979794934844 -9.3747206355381 0.0 -5.9185269332262 -9.30508752616506 0.0 -4.1743629984294 -9.326077537898401 0.0 -3.080958739169946 -9.572511326694752 0.0 4.4874023955615 -7.8987901255155 0.0 -7.642888432467001 -7.03401760132605 0.0 -7.01587567912677 -6.3351617492213705 0.0 -6.418940447892901 -5.8266255467576 0.0 -6.395816614836249 -5.59298590918488 0.0 -6.2085636988244 -5.6646473420329 0.0 -4.4847904496447 -5.882276106845739 0.0 -5.24065883012759 -6.145538456942701 0.0 4.49329464547494 -4.7285169500492 0.0 -8.851236797334401 -4.3168558704271405 0.0 -8.26590237804354 -4.03695703295366 0.0 -7.661477643080779 -3.907757470179808 0.0 -7.11668964214922 -3.942553163823828 0.0 -6.508859813874721 -4.13412017081511 0.0 -4.5189398331441 -4.44377743039965 0.0 -6.14787858942585 -4.7465588618928205 0.0 4.63108147069926 -2.086075422870504 0.0 -9.32938415553261 -2.071470693287988 0.0 -8.71372248357306 -2.12971934698678 0.0 -8.0591488024852 -2.251277956144989 0.0 -7.4082700077859895 -2.4312296401756996 0.0 -6.5751615621237 -2.6584141367795002 0.0 -4.8566546801824995 -2.9117760424189205 0.0 -6.55759809569152 -3.1383707182651204 0.0 4.70530897487625 1.036466709223536 0.0 -9.12125271344832 0.796547981164884 0.0 -8.4354952317558 0.562214683777842 0.0 -7.7061735865287 0.35775290502107 0.0 -6.987002300291 0.1958982220215083 0.0 -6.38963542697634 0.0817961338898944 0.0 -5.32604735479192 0.00947796349579225 0.0 -6.583699068127999 -0.0425394103762068 0.0 4.746513253738041 4.89362403265186 0.0 -8.40502684561404 4.55796633978378 0.0 -7.65428898952144 4.3147960265606 0.0 -6.89066681994824 4.181736960888591 0.0 -6.26187354816817 4.11979436117568 0.0 -6.3341358115349795 4.27155875578362 0.0 -5.51905052415507 4.43350353889155 0.0 -6.24317867986605 4.59437280561149 0.0 4.723776003996971 9.21133527481758 0.0 -7.409328236730339 8.89704483569833 0.0 -6.62218881847613 8.755095039470671 0.0 -5.86504735087106 8.75348285340816 0.0 -5.52920441985191 8.86087164650832 0.0 -6.18946709059764 9.202310038250939 0.0 -5.41642397371374 9.67530922759233 0.0 -5.638379893367761 10.0836035169099 0.0 4.7491819940289 13.622607952995661 0.0 -6.34077786876858 13.380534406836949 0.0 -5.54767698291625 13.37114510003524 0.0 -4.80998858549752 13.43954133887722 0.0 -4.8749497928505905 13.6942892595029 0.0 -5.80523112441741 14.178098288668158 0.0 -4.928779344204959 14.951525595890942 0.0 -4.83244742948526 15.685661370860402 0.0 4.9903273486617 17.92114454378325 0.0 -5.34354424855293 17.74140267709128 0.0 -4.56441132249384 17.81906822645761 0.0 -3.8669263903807307 17.83480224356594 0.0 -4.2526293130069 17.95789603941632 0.0 -5.23360047554656 18.786160619322352 0.0 -4.22429020945167 19.89103064748458 0.0 -3.5774041058878314 20.83678809716621 0.0 5.19603945416374 22.040038222407922 0.0 -4.49278705241168 21.87982835751148 0.0 -3.7353153203488523 21.945768695440727 0.0 -3.105480899520193 21.75705859651588 0.0 -3.69406847906019 21.75843253007718 0.0 -4.2495812335314 22.477763097439798 0.0 -3.23974630067181 24.11538193338134 0.0 -2.3846042620603773 25.375812516904997 0.0 5.109106749964799 25.64802387290509 0.0 -3.761565612788442 25.540772108987 0.0 -3.0341555459619998 25.6398775903143 0.0 -2.357137769032926 25.37123688409464 0.0 -2.956587424506144 25.101837477904198 0.0 -3.300085480943364 25.67434289173432 0.0 -2.010061708943112 27.730385247537704 0.0 -1.04259525262291 29.69883808079292 0.0 5.23050389224766 27.46475172805028 0.0 -2.939757554882092 27.526951919778103 0.0 -2.218743840808201 27.83417571205047 0.0 -1.4688790291128448 28.168075708403805 0.0 -1.628696997856077 28.17159342422324 0.0 -2.277465700272188 28.685371777736 0.0 -0.7619391690546501 31.14285359298102 0.0 0.2026785562960092 33.838219987250284 0.0 5.37765092344725 28.11342083485049 0.0 -2.0677941339206396 28.249254801199022 0.0 -1.349252046285012 28.63939475617344 0.0 -0.5746969330691281 29.55818020678772 0.0 -0.18485777344313162 30.62562921094776 0.0 -0.8365694727034461 31.5935353005121 0.0 0.179383421911711 34.49130117902682 0.0 1.206308077959618 37.912107973194 0.0 5.660114809176241 28.413098265811477 0.0 -1.311628825864565 28.533199991856332 0.0 -0.6213849501722559 29.03311737076578 0.0 0.0900765166322 30.150544613696642 0.0 0.7056896804343541 32.04292011411281 0.0 0.7507991842348721 34.6773453398632 0.0 1.2420779919986882 37.82446999830656 0.0 1.950672691500928 42.0258172866122 0.0 5.9414570915571705 28.538475043833873 0.0 -0.670449357162084 28.755486994906803 0.0 0.00313665410429235 29.23938079439475 0.0 0.685363639868376 30.499855858124253 0.0 1.305496267249225 32.97061188399792 0.0 1.701256583107032 36.929034096678 0.0 2.404061923231878 41.3290344574296 0.0 2.41976351244096 46.471319268714005 0.0 6.3700544696323504 28.53563620368402 0.0 -0.1305405595314261 28.831063661250298 0.0 0.456230736987354 29.48824034555328 0.0 1.081798207238496 30.87867410168436 0.0 1.666346585009544 33.64816995124278 0.0 2.1584278649747968 38.48176125733212 0.0 3.241581467771556 44.9442760698834 0.0 3.293944928873606 51.147327321492 0.0 6.70950085884696 28.545523449233418 0.0 0.2779696654941386 28.8612978226335 0.0 0.77578827346275 29.740628772988558 0.0 1.360090951370284 31.443655733760004 0.0 1.8782157683804162 34.56076957426302 0.0 2.389503034728282 40.08685812886358 0.0 3.514026768855699 47.614392318256805 0.0 4.63598574905724 56.545430826871204 0.0 7.0479591060372 28.4727062309268 0.0 0.5925879895987299 29.021138128675005 0.0 1.0360236427275 30.1231495519689 0.0 1.505492516958595 32.27202418017 0.0 1.910619354885 35.8841623338324 0.0 2.4637115373399 41.9605176892545 0.0 3.620876784704634 50.648912462232 0.0 5.15616586740864 60.45712635244799 0.0 7.497012562564801 28.45429159569172 0.0 0.871137858983029 29.18280902831408 0.0 1.172784511502512 30.7037085863528 0.0 1.5325302047949398 33.36530182918736 0.0 1.9124006542700023 37.77065878442025 0.0 2.557632413202975 44.576298515855996 0.0 3.934212131835956 54.063574206141496 0.0 5.6722974689472 28.4659338213716 0.0 0.98463180518842 29.574313285048746 0.0 1.2195887892025599 31.65084769000112 0.0 1.568904611252468 34.953316659266996 0.0 1.9473859711922799 40.269269811742404 0.0 2.7744528640576 48.0591006947632 0.0 4.26724154867476 57.964297599891204 0.0 6.08136719220912 28.7669088945108 0.0 1.008742903105584 30.458368650786298 0.0 1.251930173305266 33.2235073463413 0.0 1.57667248482829 37.25326018408585 0.0 1.923920652488465 43.6024881789936 0.0 2.99258462133968 52.224247234836795 0.0 4.5369759429066 29.6334555530797 0.0 1.00631111637 31.944112844498502 0.0 1.2188351178313401 35.506835902801264 0.0 1.4399152393849521 40.4067451948208 0.0 1.8347310496117442 47.700867123664 0.0 3.09004463911439 56.704299292371196 0.0 4.76427335500792 31.032785438149237 0.0 0.9113237428638279 34.02931917882372 0.0 0.9838506325028801 38.46295994121724 0.0 1.2274188393527061 44.4894976338608 0.0 1.91291727519396 52.552449879398004 0.0 3.39120481935819 33.346623014158645 0.0 0.569599796616488 37.17548437501976 0.0 0.6848293361156801 42.5108526843786 0.0 1.252836155541804 49.4967849518166 0.0 2.3062871218649117 36.797691832438666 0.0 0.2632609155717478 41.5961825944392 0.0 0.812076992988394 47.8711131106726 0.0 1.7141896199475428 53.9887637001756 0.0 2.790885793045294 41.4844984455444 0.0 0.49513905071923797 47.077701756471 0.0 1.35348099112143 46.64617334754959 0.0 0.909778258610232 
TENSORS Ellispoids float
0.01 0.0 0.0 0.0 0.01 0.0 0.0 0.0 0.01 0.01 0.0 0.0 0.0 0.01 0.0 0.0 0.0 0.01 0.01 0.0 0.0 0.0 0.01 0.0 0.0 0.0 0.01 0.01 0.0 0.0 0.0 0.01 0.0 0.0 0.0 0.01 0.01 0.0 0.0 0.0 0.01 0.0 0.0 0.0 0.01 0.01 0.0 0.0 0.0 0.01 0.0 0.0 0.0 0.01 0.01 0.0 0.0 0.0 0.01 0.0 0.0 0.0 0.01 0.01 0.0 0.0 0.0 0.01 0.0 0.0 0.0 0.01 0.01 0.0 0.0 0.0 0.01 0.0 0.0 0.0 0.01 0.01 0.0 0.0 0.0 0.01 0.0 0.0 0.0 0.01 0.01 0.0 0.0 0.0 0.01 0.0 0.0 0.0 0.01 0.01 0.0 0.0 0.0 0.01 0.0 0.0 0.0 0.01 0.01 0.0 0.0 0.0 0.01 0.0 0.0 0.0 0.01 0.01 0.0 0.0 0.0 0.01 0.0 0.0 0.0 0.01 0.01 0.0 0.0 0.0 0.01 0.0 0.0 0.0 0.01 0.01 0.0 0.0 0.0 0.01 0.0 0.0 0.0 0.01 0.01 0.0 0.0 0.0 0.01 0.0 0.0 0.0 0.01 0.01 0.0 0.0 0.0 0.01 0.0 0.0 0.0 0.01 0.01 0.0 0.0 0.0 0.01 0.0 0.0 0.0 0.01 0.01 0.0 0.0 0.0 0.01 0.0 0.0 0.0 0.01 0.01 0.0 0.0 0.0 0.01 0.0 0.0 0.0 0.01 0.01 0.0 0.0 0.0 0.01 0.0 0.0 0.0 0.01 0.01 0.0 0.0 0.0 0.01 0.0 0.0 0.0 0.01 0.01 0.0 0.0 0.0 0.01 0.0 0.0 0.0 0.01 0.01 0.0 0.0 0.0 0.01 0.0 0.0 0.0 0.01 0.01 0.0 0.0 0.0 0.01 0.0 0.0 0.0 0.01 0.01 0.0 0.0 0.0 0.01 0.0 0.0 0.0 0.01 0.01 0.0 0.0 0.0 0.01 0.0 0.0 0.0 0.01 0.01 0.0 0.0 0.0 0.01 0.0 0.0 0.0 0.01 0.01 0.0 0.0 0.0 0.01 0.0 0.0 0.0 0.01 0.01 0.0 0.0 0.0 0.01 0.0 0.0 0.0 0.01 0.01 0.0 0.0 0.0 0.01 0.0 0.0 0.0 0.01 0.01 0.0 0.0 0.0 0.01 0.0 0.0 0.0 0.01 0.01 0.0 0.0 0.0 0.01 0.0 0.0 0.0 0.01 0.01 0.0 0.0 0.0 0.01 0.0 0.0 0.0 0.01 0.01 0.0 0.0 0.0 0.01 0.0 0.0 0.0 0.01 0.01 0.0 0.0 0.0 0.01 0.0 0.0 0.0 0.01 0.01 0.0 0.0 0.0 0.01 0.0 0.0 0.0 0.01 0.01 0.0 0.0 0.0 0.01 0.0 0.0 0.0 0.01 0.01 0.0 0.0 0.0 0.01 0.0 0.0 0.0 0.01 0.01 0.0 0.0 0.0 0.01 0.0 0.0 0.0 0.01 0.01 0.0 0.0 0.0 0.01 0.0 0.0 0.0 0.01 0.01 0.0 0.0 0.0 0.01 0.0 0.0 0.0 0.01 0.01 0.0 0.0 0.0 0.01 0.0 0.0 0.0 0.01 0.01 0.0 0.0 0.0 0.01 0.0 0.0 0.0 0.01 0.01 0.0 0.0 0.0 0.01 0.0 0.0 0.0 0.01 0.01 0.0 0.0 0.0 0.01 0.0 0.0 0.0 0.01 0.01 0.0 0.0 0.0 0.01 0.0 0.0 0.0 0.01 0.01 0.0 0.0 0.0 0.01 0.0 0.0 0.0 0.01 0.01 0.0 0.0 0.0 0.01 0.0 0.0 0.0 0.01 0.01 0.0 0.0 0.0 0.01 0.0 0.0 0.0 0.01 0.01 0.0 0.0 0.0 0.01 0.0 0.0 0.0 0.01 0.01 0.0 0.0 0.0 0.01 0.0 0.0 0.0 0.01 0.01 0.0 0.0 0.0 0.01 0.0 0.0 0.0 0.01 0.01 0.0 0.0 0.0 0.01 0.0 0.0 0.0 0.01 0.01 0.0 0.0 0.0 0.01 0.0 0.0 0.0 0.01 0.01 0.0 0.0 0.0 0.01 0.0 0.0 0.0 0.01 0.01 0.0 0.0 0.0 0.01 0.0 0.0 0.0 0.01 0.01 0.0 0.0 0.0 0.01 0.0 0.0 0.0 0.01 0.01 0.0 0.0 0.0 0.01 0.0 0.0 0.0 0.01 0.01 0.0 0.0 0.0 0.01 0.0 0.0 0.0 0.01 0.01 0.0 0.0 0.0 0.01 0.0 0.0 0.0 0.01 0.01 0.0 0.0 0.0 0.01 0.0 0.0 0.0 0.01 0.01 0.0 0.0 0.0 0.01 0.0 0.0 0.0 0.01 0.01 0.0 0.0 0.0 0.01 0.0 0.0 0.0 0.01 0.01 0.0 0.0 0.0 0.01 0.0 0.0 0.0 0.01 0.01 0.0 0.0 0.0 0.01 0.0 0.0 0.0 0.01 0.01 0.0 0.0 0.0 0.01 0.0 0.0 0.0 0.01 0.01 0.0 0.0 0.0 0.01 0.0 0.0 0.0 0.01 0.01 0.0 0.0 0.0 0.01 0.0 0.0 0.0 0.01 0.01 0.0 0.0 0.0 0.01 0.0 0.0 0.0 0.01 0.01 0.0 0.0 0.0 0.01 0.0 0.0 0.0 0.01 0.01 0.0 0.0 0.0 0.01 0.0 0.0 0.0 0.01 0.01 0.0 0.0 0.0 0.01 0.0 0.0 0.0 0.01 0.01 0.0 0.0 0.0 0.01 0.0 0.0 0.0 0.01 0.01 0.0 0.0 0.0 0.01 0.0 0.0 0.0 0.01 0.01 0.0 0.0 0.0 0.01 0.0 0.0 0.0 0.01 0.01 0.0 0.0 0.0 0.01 0.0 0.0 0.0 0.01 0.01 0.0 0.0 0.0 0.01 0.0 0.0 0.0 0.01 0.01 0.0 0.0 0.0 0.01 0.0 0.0 0.0 0.01 0.01 0.0 0.0 0.0 0.01 0.0 0.0 0.0 0.01 0.01 0.0 0.0 0.0 0.01 0.0 0.0 0.0 0.01 0.01 0.0 0.0 0.0 0.01 0.0 0.0 0.0 0.01 0.01 0.0 0.0 0.0 0.01 0.0 0.0 0.0 0.01 0.01 0.0 0.0 0.0 0.01 0.0 0.0 0.0 0.01 0.01 0.0 0.0 0.0 0.01 0.0 0.0 0.0 0.01 0.01 0.0 0.0 0.0 0.01 0.0 0.0 0.0 0.01 0.01 0.0 0.0 0.0 0.01 0.0 0.0 0.0 0.01 0.01 0.0 0.0 0.0 0.01 0.0 0.0 0.0 0.01 0.01 0.0 0.0 0.0 0.01 0.0 0.0 0.0 0.01 0.01 0.0 0.0 0.0 0.01 0.0 0.0 0.0 0.01 0.01 0.0 0.0 0.0 0.01 0.0 0.0 0.0 0.01 0.01 0.0 0.0 0.0 0.01 0.0 0.0 0.0 0.01 0.01 0.0 0.0 0.0 0.01 0.0 0.0 0.0 0.01 0.01 0.0 0.0 0.0 0.01 0.0 0.0 0.0 0.01 0.01 0.0 0.0 0.0 0.01 0.0 0.0 0.0 0.01 0.01 0.0 0.0 0.0 0.01 0.0 0.0 0.0 0.01 0.01 0.0 0.0 0.0 0.01 0.0 0.0 0.0 0.01 0.01 0.0 0.0 0.0 0.01 0.0 0.0 0.0 0.01 0.01 0.0 0.0 0.0 0.01 0.0 0.0 0.0 0.01 0.01 0.0 0.0 0.0 0.01 0.0 0.0 0.0 0.01 0.01 0.0 0.0 0.0 0.01 0.0 0.0 0.0 0.01 0.01 0.0 0.0 0.0 0.01 0.0 0.0 0.0 0.01 0.01 0.0 0.0 0.0 0.01 0.0 0.0 0.0 0.01 0.01 0.0 0.0 0.0 0.01 0.0 0.0 0.0 0.01 0.01 0.0 0.0 0.0 0.01 0.0 0.0 0.0 0.01 0.01 0.0 0.0 0.0 0.01 0.0 0.0 0.0 0.01 0.01 0.0 0.0 0.0 0.01 0.0 0.0 0.0 0.01 0.01 0.0 0.0 0.0 0.01 0.0 0.0 0.0 0.01 0.01 0.0 0.0 0.0 0.01 0.0 0.0 0.0 0.01 0.01 0.0 0.0 0.0 0.01 0.0 0.0 0.0 0.01 0.01 0.0 0.0 0.0 0.01 0.0 0.0 0.0 0.01 0.01 0.0 0.0 0.0 0.01 0.0 0.0 0.0 0.01 0.01 0.0 0.0 0.0 0.01 0.0 0.0 0.0 0.01 0.01 0.0 0.0 0.0 0.01 0.0 0.0 0.0 0.01 0.01 0.0 0.0 0.0 0.01 0.0 0.0 0.0 0.01 0.01 0.0 0.0 0.0 0.01 0.0 0.0 0.0 0.01 0.01 0.0 0.0 0.0 0.01 0.0 0.0 0.0 0.01 0.01 0.0 0.0 0.0 0.01 0.0 0.0 0.0 0.01 0.01 0.0 0.0 0.0 0.01 0.0 0.0 0.0 0.01 0.01 0.0 0.0 0.0 0.01 0.0 0.0 0.0 0.01 0.01 0.0 0.0 0.0 0.01 0.0 0.0 0.0 0.01 0.01 0.0 0.0 0.0 0.01 0.0 0.0 0.0 0.01 0.01 0.0 0.0 0.0 0.01 0.0 0.0 0.0 0.01 0.01 0.0 0.0 0.0 0.01 0.0 0.0 0.0 0.01 0.01 0.0 0.0 0.0 0.01 0.0 0.0 0.0 0.01 0.01 0.0 0.0 0.0 0.01 0.0 0.0 0.0 0.01 0.01 0.0 0.0 0.0 0.01 0.0 0.0 0.0 0.01 0.01 0.0 0.0 0.0 0.01 0.0 0.0 0.0 0.01 0.01 0.0 0.0 0.0 0.01 0.0 0.0 0.0 0.01 0.01 0.0 0.0 0.0 0.01 0.0 0.0 0.0 0.01 0.01 0.0 0.0 0.0 0.01 0.0 0.0 0.0 0.01 0.01 0.0 0.0 0.0 0.01 0.0 0.0 0.0 0.01 0.01 0.0 0.0 0.0 0.01 0.0 0.0 0.0 0.01 0.01 0.0 0.0 0.0 0.01 0.0 0.0 0.0 0.01 0.01 0.0 0.0 0.0 0.01 0.0 0.0 0.0 0.01 0.01 0.0 0.0 0.0 0.01 0.0 0.0 0.0 0.01 0.01 0.0 0.0 0.0 0.01 0.0 0.0 0.0 0.01 0.01 0.0 0.0 0.0 0.01 0.0 0.0 0.0 0.01 0.01 0.0 0.0 0.0 0.01 0.0 0.0 0.0 0.01 0.01 0.0 0.0 0.0 0.01 0.0 0.0 0.0 0.01 0.01 0.0 0.0 0.0 0.01 0.0 0.0 0.0 0.01 0.01 0.0 0.0 0.0 0.01 0.0 0.0 0.0 0.01 0.01 0.0 0.0 0.0 0.01 0.0 0.0 0.0 0.01 0.01 0.0 0.0 0.0 0.01 0.0 0.0 0.0 0.01 0.01 0.0 0.0 0.0 0.01 0.0 0.0 0.0 0.01 0.01 0.0 0.0 0.0 0.01 0.0 0.0 0.0 0.01 0.01 0.0 0.0 0.0 0.01 0.0 0.0 0.0 0.01 0.01 0.0 0.0 0.0 0.01 0.0 0.0 0.0 0.01 0.01 0.0 0.0 0.0 0.01 0.0 0.0 0.0 0.01 0.01 0.0 0.0 0.0 0.01 0.0 0.0 0.0 0.01 0.01 0.0 0.0 0.0 0.01 0.0 0.0 0.0 0.01 0.01 0.0 0.0 0.0 0.01 0.0 0.0 0.0 0.01 0.01 0.0 0.0 0.0 0.01 0.0 0.0 0.0 0.01 0.01 0.0 0.0 0.0 0.01 0.0 0.0 0.0 0.01 0.01 0.0 0.0 0.0 0.01 0.0 0.0 0.0 0.01 0.01 0.0 0.0 0.0 0.01 0.0 0.0 0.0 0.01 0.01 0.0 0.0 0.0 0.01 0.0 0.0 0.0 0.01 0.01 0.0 0.0 0.0 0.01 0.0 0.0 0.0 0.01 0.01 0.0 0.0 0.0 0.01 0.0 0.0 0.0 0.01 0.01 0.0 0.0 0.0 0.01 0.0 0.0 0.0 0.01 0.01 0.0 0.0 0.0 0.01 0.0 0.0 0.0 0.01 0.01 0.0 0.0 0.0 0.01 0.0 0.0 0.0 0.01 0.01 0.0 0.0 0.0 0.01 0.0 0.0 0.0 0.01 0.01 0.0 0.0 0.0 0.01 0.0 0.0 0.0 0.01 0.01 0.0 0.0 0.0 0.01 0.0 0.0 0.0 0.01 0.01 0.0 0.0 0.0 0.01 0.0 0.0 0.0 0.01 0.01 0.0 0.0 0.0 0.01 0.0 0.0 0.0 0.01 0.01 0.0 0.0 0.0 0.01 0.0 0.0 0.0 0.01 0.01 0.0 0.0 0.0 0.01 0.0 0.0 0.0 0.01 0.01 0.0 0.0 0.0 0.01 0.0 0.0 0.0 0.01 0.01 0.0 0.0 0.0 0.01 0.0 0.0 0.0 0.01 0.01 0.0 0.0 0.0 0.01 0.0 0.0 0.0 0.01 0.01 0.0 0.0 0.0 0.01 0.0 0.0 0.0 0.01 0.01 0.0 0.0 0.0 0.01 0.0 0.0 0.0 0.01 0.01 0.0 0.0 0.0 0.01 0.0 0.0 0.0 0.01 0.01 0.0 0.0 0.0 0.01 0.0 0.0 0.0 0.01 0.01 0.0 0.0 0.0 0.01 0.0 0.0 0.0 0.01 0.01 0.0 0.0 0.0 0.01 0.0 0.0 0.0 0.01 0.01 0.0 0.0 0.0 0.01 0.0 0.0 0.0 0.01 0.01 0.0 0.0 0.0 0.01 0.0 0.0 0.0 0.01 0.01 0.0 0.0 0.0 0.01 0.0 0.0 0.0 0.01 0.01 0.0 0.0 0.0 0.01 0.0 0.0 0.0 0.01 0.01 0.0 0.0 0.0 0.01 0.0 0.0 0.0 0.01 0.01 0.0 0.0 0.0 0.01 0.0 0.0 0.0 0.01 0.01 0.0 0.0 0.0 0.01 0.0 0.0 0.0 0.01 0.01 0.0 0.0 0.0 0.01 0.0 0.0 0.0 0.01 0.01 0.0 0.0 0.0 0.01 0.0 0.0 0.0 0.01 0.01 0.0 0.0 0.0 0.01 0.0 0.0 0.0 0.01 0.01 0.0 0.0 0.0 0.01 0.0 0.0 0.0 0.01 0.01 0.0 0.0 0.0 0.01 0.0 0.0 0.0 0.01 0.01 0.0 0.0 0.0 0.01 0.0 0.0 0.0 0.01 0.01 0.0 0.0 0.0 0.01 0.0 0.0 0.0 0.01 0.01 0.0 0.0 0.0 0.01 0.0 0.0 0.0 0.01 0.01 0.0 0.0 0.0 0.01 0.0 0.0 0.0 0.01 0.01 0.0 0.0 0.0 0.01 0.0 0.0 0.0 0.01 0.01 0.0 0.0 0.0 0.01 0.0 0.0 0.0 0.01 0.01 0.0 0.0 0.0 0.01 0.0 0.0 0.0 0.01 0.01 0.0 0.0 0.0 0.01 0.0 0.0 0.0 0.01 0.01 0.0 0.0 0.0 0.01 0.0 0.0 0.0 0.01 0.01 0.0 0.0 0.0 0.01 0.0 0.0 0.0 0.01 0.01 0.0 0.0 0.0 0.01 0.0 0.0 0.0 0.01 0.01 0.0 0.0 0.0 0.01 0.0 0.0 0.0 0.01 0.01 0.0 0.0 0.0 0.01 0.0 0.0 0.0 0.01 0.01 0.0 0.0 0.0 0.01 0.0 0.0 0.0 0.01 0.01 0.0 0.0 0.0 0.01 0.0 0.0 0.0 0.01 0.01 0.0 0.0 0.0 0.01 0.0 0.0 0.0 0.01 0.01 0.0 0.0 0.0 0.01 0.0 0.0 0.0 0.01 0.01 0.0 0.0 0.0 0.01 0.0 0.0 0.0 0.01 0.01 0.0 0.0 0.0 0.01 0.0 0.0 0.0 0.01 0.01 0.0 0.0 0.0 0.01 0.0 0.0 0.0 0.01 0.01 0.0 0.0 0.0 0.01 0.0 0.0 0.0 0.01 0.01 0.0 0.0 0.0 0.01 0.0 0.0 0.0 0.01 0.01 0.0 0.0 0.0 0.01 0.0 0.0 0.0 0.01 0.01 0.0 0.0 0.0 0.01 0.0 0.0 0.0 0.01 0.01 0.0 0.0 0.0 0.01 0.0 0.0 0.0 0.01 0.01 0.0 0.0 0.0 0.01 0.0 0.0 0.0 0.01 0.01 0.0 0.0 0.0 0.01 0.0 0.0 0.0 0.01 0.01 0.0 0.0 0.0 0.01 0.0 0.0 0.0 0.01 0.01 0.0 0.0 0.0 0.01 0.0 0.0 0.0 0.01 0.01 0.0 0.0 0.0 0.01 0.0 0.0 0.0 0.01 0.01 0.0 0.0 0.0 0.01 0.0 0.0 0.0 0.01 0.01 0.0 0.0 0.0 0.01 0.0 0.0 0.0 0.01 0.01 0.0 0.0 0.0 0.01 0.0 0.0 0.0 0.01 0.01 0.0 0.0 0.0 0.01 0.0 0.0 0.0 0.01 0.01 0.0 0.0 0.0 0.01 0.0 0.0 0.0 0.01 0.01 0.0 0.0 0.0 0.01 0.0 0.0 0.0 0.01 0.01 0.0 0.0 0.0 0.01 0.0 0.0 0.0 0.01 0.01 0.0 0.0 0.0 0.01 0.0 0.0 0.0 0.01 0.01 0.0 0.0 0.0 0.01 0.0 0.0 0.0 0.01 0.01 0.0 0.0 0.0 0.01 0.0 0.0 0.0 0.01 0.01 0.0 0.0 0.0 0.01 0.0 0.0 0.0 0.01 0.01 0.0 0.0 0.0 0.01 0.0 0.0 0.0 0.01 0.01 0.0 0.0 0.0 0.01 0.0 0.0 0.0 0.01 0.01 0.0 0.0 0.0 0.01 0.0 0.0 0.0 0.01 0.01 0.0 0.0 0.0 0.01 0.0 0.0 0.0 0.01 0.01 0.0 0.0 0.0 0.01 0.0 0.0 0.0 0.01 0.01 0.0 0.0 0.0 0.01 0.0 0.0 0.0 0.01 0.01 0.0 0.0 0.0 0.01 0.0 0.0 0.0 0.01 0.01 0.0 0.0 0.0 0.01 0.0 0.0 0.0 0.01 0.01 0.0 0.0 0.0 0.01 0.0 0.0 0.0 0.01 0.01 0.0 0.0 0.0 0.01 0.0 0.0 0.0 0.01 0.01 0.0 0.0 0.0 0.01 0.0 0.0 0.0 0.01 0.01 0.0 0.0 0.0 0.01 0.0 0.0 0.0 0.01 0.01 0.0 0.0 0.0 0.01 0.0 0.0 0.0 0.01 0.01 0.0 0.0 0.0 0.01 0.0 0.0 0.0 0.01 0.01 0.0 0.0 0.0 0.01 0.0 0.0 0.0 0.01 0.01 0.0 0.0 0.0 0.01 0.0 0.0 0.0 0.01 0.01 0.0 0.0 0.0 0.01 0.0 0.0 0.0 0.01 0.01 0.0 0.0 0.0 0.01 0.0 0.0 0.0 0.01 0.01 0.0 0.0 0.0 0.01 0.0 0.0 0.0 0.01 0.01 0.0 0.0 0.0 0.01 0.0 0.0 0.0 0.01 0.01 0.0 0.0 0.0 0.01 0.0 0.0 0.0 0.01 0.01 0.0 0.0 0.0 0.01 0.0 0.0 0.0 0.01 0.01 0.0 0.0 0.0 0.01 0.0 0.0 0.0 0.01 0.01 0.0 0.0 0.0 0.01 0.0 0.0 0.0 0.01 0.01 0.0 0.0 0.0 0.01 0.0 0.0 0.0 0.01 0.01 0.0 0.0 0.0 0.01 0.0 0.0 0.0 0.01 0.01 0.0 0.0 0.0 0.01 0.0 0.0 0.0 0.01 0.01 0.0 0.0 0.0 0.01 0.0 0.0 0.0 0.01 0.01 0.0 0.0 0.0 0.01 0.0 0.0 0.0 0.01 0.01 0.0 0.0 0.0 0.01 0.0 0.0 0.0 0.01 0.01 0.0 0.0 0.0 0.01 0.0 0.0 0.0 0.01 0.01 0.0 0.0 0.0 0.01 0.0 0.0 0.0 0.01 0.01 0.0 0.0 0.0 0.01 0.0 0.0 0.0 0.01 0.01 0.0 0.0 0.0 0.01 0.0 0.0 0.0 0.01 0.01 0.0 0.0 0.0 0.01 0.0 0.0 0.0 0.01 0.01 0.0 0.0 0.0 0.01 0.0 0.0 0.0 0.01 0.01 0.0 0.0 0.0 0.01 0.0 0.0 0.0 0.01 0.01 0.0 0.0 0.0 0.01 0.0 0.0 0.0 0.01 0.01 0.0 0.0 0.0 0.01 0.0 0.0 0.0 0.01 0.01 0.0 0.0 0.0 0.01 0.0 0.0 0.0 0.01 0.01 0.0 0.0 0.0 0.01 0.0 0.0 0.0 0.01 0.01 0.0 0.0 0.0 0.01 0.0 0.0 0.0 0.01 0.01 0.0 0.0 0.0 0.01 0.0 0.0 0.0 0.01 0.01 0.0 0.0 0.0 0.01 0.0 0.0 0.0 0.01 0.01 0.0 0.0 0.0 0.01 0.0 0.0 0.0 0.01 0.01 0.0 0.0 0.0 0.01 0.0 0.0 0.0 0.01 0.01 0.0 0.0 0.0 0.01 0.0 0.0 0.0 0.01 0.01 0.0 0.0 0.0 0.01 0.0 0.0 0.0 0.01 0.01 0.0 0.0 0.0 0.01 0.0 0.0 0.0 0.01 0.01 0.0 0.0 0.0 0.01 0.0 0.0 0.0 0.01 0.01 0.0 0.0 0.0 0.01 0.0 0.0 0.0 0.01 0.01 0.0 0.0 0.0 0.01 0.0 0.0 0.0 0.01 0.01 0.0 0.0 0.0 0.01 0.0 0.0 0.0 0.01 0.01 0.0 0.0 0.0 0.01 0.0 0.0 0.0 0.01 0.01 0.0 0.0 0.0 0.01 0.0 0.0 0.0 0.01 0.01 0.0 0.0 0.0 0.01 0.0 0.0 0.0 0.01 0.01 0.0 0.0 0.0 0.01 0.0 0.0 0.0 0.01 0.01 0.0 0.0 0.0 0.01 0.0 0.0 0.0 0.01 0.01 0.0 0.0 0.0 0.01 0.0 0.0 0.0 0.01 0.01 0.0 0.0 0.0 0.01 0.0 0.0 0.0 0.01 0.01 0.0 0.0 0.0 0.01 0.0 0.0 0.0 0.01 0.01 0.0 0.0 0.0 0.01 0.0 0.0 0.0 0.01 0.01 0.0 0.0 0.0 0.01 0.0 0.0 0.0 0.01 0.01 0.0 0.0 0.0 0.01 0.0 0.0 0.0 0.01 0.01 0.0 0.0 0.0 0.01 0.0 0.0 0.0 0.01 0.01 0.0 0.0 0.0 0.01 0.0 0.0 0.0 0.01 0.01 0.0 0.0 0.0 0.01 0.0 0.0 0.0 0.01 0.01 0.0 0.0 0.0 0.01 0.0 0.0 0.0 0.01 0.01 0.0 0.0 0.0 0.01 0.0 0.0 0.0 0.01 0.01 0.0 0.0 0.0 0.01 0.0 0.0 0.0 0.01 0.01 0.0 0.0 0.0 0.01 0.0 0.0 0.0 0.01 0.01 0.0 0.0 0.0 0.01 0.0 0.0 0.0 0.01 0.01 0.0 0.0 0.0 0.01 0.0 0.0 0.0 0.01 0.01 0.0 0.0 0.0 0.01 0.0 0.0 0.0 0.01 0.01 0.0 0.0 0.0 0.01 0.0 0.0 0.0 0.01 0.01 0.0 0.0 0.0 0.01 0.0 0.0 0.0 0.01 0.01 0.0 0.0 0.0 0.01 0.0 0.0 0.0 0.01 0.01 0.0 0.0 0.0 0.01 0.0 0.0 0.0 0.01 0.01 0.0 0.0 0.0 0.01 0.0 0.0 0.0 0.01 0.01 0.0 0.0 0.0 0.01 0.0 0.0 0.0 0.01 0.01 0.0 0.0 0.0 0.01 0.0 0.0 0.0 0.01 0.01 0.0 0.0 0.0 0.01 0.0 0.0 0.0 0.01 0.01 0.0 0.0 0.0 0.01 0.0 0.0 0.0 0.01 0.01 0.0 0.0 0.0 0.01 0.0 0.0 0.0 0.01 0.01 0.0 0.0 0.0 0.01 0.0 0.0 0.0 0.01 0.01 0.0 0.0 0.0 0.01 0.0 0.0 0.0 0.01 0.01 0.0 0.0 0.0 0.01 0.0 0.0 0.0 0.01 0.01 0.0 0.0 0.0 0.01 0.0 0.0 0.0 0.01 0.01 0.0 0.0 0.0 0.01 0.0 0.0 0.0 0.01 0.01 0.0 0.0 0.0 0.01 0.0 0.0 0.0 0.01 0.01 0.0 0.0 0.0 0.01 0.0 0.0 0.0 0.01 0.01 0.0 0.0 0.0 0.01 0.0 0.0 0.0 0.01 0.01 0.0 0.0 0.0 0.01 0.0 0.0 0.0 0.01 0.01 0.0 0.0 0.0 0.01 0.0 0.0 0.0 0.01 0.01 0.0 0.0 0.0 0.01 0.0 0.0 0.0 0.01 0.01 0.0 0.0 0.0 0.01 0.0 0.0 0.0 0.01 0.01 0.0 0.0 0.0 0.01 0.0 0.0 0.0 0.01 0.01 0.0 0.0 0.0 0.01 0.0 0.0 0.0 0.01 0.01 0.0 0.0 0.0 0.01 0.0 0.0 0.0 0.01 0.01 0.0 0.0 0.0 0.01 0.0 0.0 0.0 0.01 0.01 0.0 0.0 0.0 0.01 0.0 0.0 0.0 0.01 0.01 0.0 0.0 0.0 0.01 0.0 0.0 0.0 0.01 0.01 0.0 0.0 0.0 0.01 0.0 0.0 0.0 0.01 0.01 0.0 0.0 0.0 0.01 0.0 0.0 0.0 0.01 0.01 0.0 0.0 0.0 0.01 0.0 0.0 0.0 0.01 0.01 0.0 0.0 0.0 0.01 0.0 0.0 0.0 0.01 0.01 0.0 0.0 0.0 0.01 0.0 0.0 0.0 0.01 0.01 0.0 0.0 0.0 0.01 0.0 0.0 0.0 0.01 0.01 0.0 0.0 0.0 0.01 0.0 0.0 0.0 0.01 0.01 0.0 0.0 0.0 0.01 0.0 0.0 0.0 0.01 0.01 0.0 0.0 0.0 0.01 0.0 0.0 0.0 0.01 0.01 0.0 0.0 0.0 0.01 0.0 0.0 0.0 0.01 0.01 0.0 0.0 0.0 0.01 0.0 0.0 0.0 0.01 0.01 0.0 0.0 0.0 0.01 0.0 0.0 0.0 0.01 0.01 0.0 0.0 0.0 0.01 0.0 0.0 0.0 0.01 0.01 0.0 0.0 0.0 0.01 0.0 0.0 0.0 0.01 0.01 0.0 0.0 0.0 0.01 0.0 0.0 0.0 0.01 0.01 0.0 0.0 0.0 0.01 0.0 0.0 0.0 0.01 0.01 0.0 0.0 0.0 0.01 0.0 0.0 0.0 0.01 0.01 0.0 0.0 0.0 0.01 0.0 0.0 0.0 0.01 0.01 0.0 0.0 0.0 0.01 0.0 0.0 0.0 0.01 0.01 0.0 0.0 0.0 0.01 0.0 0.0 0.0 0.01 0.01 0.0 0.0 0.0 0.01 0.0 0.0 0.0 0.01 0.01 0.0 0.0 0.0 0.01 0.0 0.0 0.0 0.01 0.01 0.0 0.0 0.0 0.01 0.0 0.0 0.0 0.01 0.01 0.0 0.0 0.0 0.01 0.0 0.0 0.0 0.01 0.01 0.0 0.0 0.0 0.01 0.0 0.0 0.0 0.01 0.01 0.0 0.0 0.0 0.01 0.0 0.0 0.0 0.01 0.01 0.0 0.0 0.0 0.01 0.0 0.0 0.0 0.01 0.01 0.0 0.0 0.0 0.01 0.0 0.0 0.0 0.01 0.01 0.0 0.0 0.0 0.01 0.0 0.0 0.0 0.01 0.01 0.0 0.0 0.0 0.01 0.0 0.0 0.0 0.01 0.01 0.0 0.0 0.0 0.01 0.0 0.0 0.0 0.01 0.01 0.0 0.0 0.0 0.01 0.0 0.0 0.0 0.01 0.01 0.0 0.0 0.0 0.01 0.0 0.0 0.0 0.01 0.01 0.0 0.0 0.0 0.01 0.0 0.0 0.0 0.01 0.01 0.0 0.0 0.0 0.01 0.0 0.0 0.0 0.01 0.01 0.0 0.0 0.0 0.01 0.0 0.0 0.0 0.01 0.01 0.0 0.0 0.0 0.01 0.0 0.0 0.0 0.01 0.01 0.0 0.0 0.0 0.01 0.0 0.0 0.0 0.01 0.01 0.0 0.0 0.0 0.01 0.0 0.0 0.0 0.01 0.01 0.0 0.0 0.0 0.01 0.0 0.0 0.0 0.01 0.01 0.0 0.0 0.0 0.01 0.0 0.0 0.0 0.01 0.01 0.0 0.0 0.0 0.01 0.0 0.0 0.0 0.01 0.01 0.0 0.0 0.0 0.01 0.0 0.0 0.0 0.01 0.01 0.0 0.0 0.0 0.01 0.0 0.0 0.0 0.01 0.01 0.0 0.0 0.0 0.01 0.0 0.0 0.0 0.01 0.01 0.0 0.0 0.0 0.01 0.0 0.0 0.0 0.01 0.01 0.0 0.0 0.0 0.01 0.0 0.0 0.0 0.01 0.01 0.0 0.0 0.0 0.01 0.0 0.0 0.0 0.01 0.01 0.0 0.0 0.0 0.01 0.0 0.0 0.0 0.01 0.01 0.0 0.0 0.0 0.01 0.0 0.0 0.0 0.01 0.01 0.0 0.0 0.0 0.01 0.0 0.0 0.0 0.01 0.01 0.0 0.0 0.0 0.01 0.0 0.0 0.0 0.01 0.01 0.0 0.0 0.0 0.01 0.0 0.0 0.0 0.01 0.01 0.0 0.0 0.0 0.01 0.0 0.0 0.0 0.01 0.01 0.0 0.0 0.0 0.01 0.0 0.0 0.0 0.01 0.01 0.0 0.0 0.0 0.01 0.0 0.0 0.0 0.01 0.01 0.0 0.0 0.0 0.01 0.0 0.0 0.0 0.01 0.01 0.0 0.0 0.0 0.01 0.0 0.0 0.0 0.01 0.01 0.0 0.0 0.0 0.01 0.0 0.0 0.0 0.01 0.01 0.0 0.0 0.0 0.01 0.0 0.0 0.0 0.01 0.01 0.0 0.0 0.0 0.01 0.0 0.0 0.0 0.01 0.01 0.0 0.0 0.0 0.01 0.0 0.0 0.0 0.01 0.01 0.0 0.0 0.0 0.01 0.0 0.0 0.0 0.01 0.01 0.0 0.0 0.0 0.01 0.0 0.0 0.0 0.01 0.01 0.0 0.0 0.0 0.01 0.0 0.0 0.0 0.01 0.01 0.0 0.0 0.0 0.01 0.0 0.0 0.0 0.01 0.01 0.0 0.0 0.0 0.01 0.0 0.0 0.0 0.01 0.01 0.0 0.0 0.0 0.01 0.0 0.0 0.0 0.01 0.01 0.0 0.0 0.0 0.01 0.0 0.0 0.0 0.01 0.01 0.0 0.0 0.0 0.01 0.0 0.0 0.0 0.01 0.01 0.0 0.0 0.0 0.01 0.0 0.0 0.0 0.01 0.01 0.0 0.0 0.0 0.01 0.0 0.0 0.0 0.01 0.01 0.0 0.0 0.0 0.01 0.0 0.0 0.0 0.01 0.01 0.0 0.0 0.0 0.01 0.0 0.0 0.0 0.01 0.01 0.0 0.0 0.0 0.01 0.0 0.0 0.0 0.01 0.01 0.0 0.0 0.0 0.01 0.0 0.0 0.0 0.01 0.01 0.0 0.0 0.0 0.01 0.0 0.0 0.0 0.01 0.01 0.0 0.0 0.0 0.01 0.0 0.0 0.0 0.01 0.01 0.0 0.0 0.0 0.01 0.0 0.0 0.0 0.01 0.01 0.0 0.0 0.0 0.01 0.0 0.0 0.0 0.01 0.01 0.0 0.0 0.0 0.01 0.0 0.0 0.0 0.01 0.01 0.0 0.0 0.0 0.01 0.0 0.0 0.0 0.01 0.01 0.0 0.0 0.0 0.01 0.0 0.0 0.0 0.01 0.01 0.0 0.0 0.0 0.01 0.0 0.0 0.0 0.01 0.01 0.0 0.0 0.0 0.01 0.0 0.0 0.0 0.01 0.01 0.0 0.0 0.0 0.01 0.0 0.0 0.0 0.01 0.01 0.0 0.0 0.0 0.01 0.0 0.0 0.0 0.01 0.01 0.0 0.0 0.0 0.01 0.0 0.0 0.0 0.01 0.01 0.0 0.0 0.0 0.01 0.0 0.0 0.0 0.01 0.01 0.0 0.0 0.0 0.01 0.0 0.0 0.0 0.01 0.01 0.0 0.0 0.0 0.01 0.0 0.0 0.0 0.01 0.01 0.0 0.0 0.0 0.01 0.0 0.0 0.0 0.01 0.01 0.0 0.0 0.0 0.01 0.0 0.0 0.0 0.01 0.01 0.0 0.0 0.0 0.01 0.0 0.0 0.0 0.01 0.01 0.0 0.0 0.0 0.01 0.0 0.0 0.0 0.01 0.01 0.0 0.0 0.0 0.01 0.0 0.0 0.0 0.01 0.01 0.0 0.0 0.0 0.01 0.0 0.0 0.0 0.01 0.01 0.0 0.0 0.0 0.01 0.0 0.0 0.0 0.01 0.01 0.0 0.0 0.0 0.01 0.0 0.0 0.0 0.01 0.01 0.0 0.0 0.0 0.01 0.0 0.0 0.0 0.01 0.01 0.0 0.0 0.0 0.01 0.0 0.0 0.0 0.01 0.01 0.0 0.0 0.0 0.01 0.0 0.0 0.0 0.01 0.01 0.0 0.0 0.0 0.01 0.0 0.0 0.0 0.01 0.01 0.0 0.0 0.0 0.01 0.0 0.0 0.0 0.01 0.01 0.0 0.0 0.0 0.01 0.0 0.0 0.0 0.01 0.01 0.0 0.0 0.0 0.01 0.0 0.0 0.0 0.01 0.01 0.0 0.0 0.0 0.01 0.0 0.0 0.0 0.01 0.01 0.0 0.0 0.0 0.01 0.0 0.0 0.0 0.01 0.01 0.0 0.0 0.0 0.01 0.0 0.0 0.0 0.01 0.01 0.0 0.0 0.0 0.01 0.0 0.0 0.0 0.01 0.01 0.0 0.0 0.0 0.01 0.0 0.0 0.0 0.01 0.01 0.0 0.0 0.0 0.01 0.0 0.0 0.0 0.01 0.01 0.0 0.0 0.0 0.01 0.0 0.0 0.0 0.01 0.01 0.0 0.0 0.0 0.01 0.0 0.0 0.0 0.01 0.01 0.0 0.0 0.0 0.01 0.0 0.0 0.0 0.01 0.01 0.0 0.0 0.0 0.01 0.0 0.0 0.0 0.01 0.01 0.0 0.0 0.0 0.01 0.0 0.0 0.0 0.01 0.01 0.0 0.0 0.0 0.01 0.0 0.0 0.0 0.01 0.01 0.0 0.0 0.0 0.01 0.0 0.0 0.0 0.01 0.01 0.0 0.0 0.0 0.01 0.0 0.0 0.0 0.01 0.01 0.0 0.0 0.0 0.01 0.0 0.0 0.0 0.01 0.01 0.0 0.0 0.0 0.01 0.0 0.0 0.0 0.01 0.01 0.0 0.0 0.0 0.01 0.0 0.0 0.0 0.01 0.01 0.0 0.0 0.0 0.01 0.0 0.0 0.0 0.01 0.01 0.0 0.0 0.0 0.01 0.0 0.0 0.0 0.01 0.01 0.0 0.0 0.0 0.01 0.0 0.0 0.0 0.01 0.01 0.0 0.0 0.0 0.01 0.0 0.0 0.0 0.01 0.01 0.0 0.0 0.0 0.01 0.0 0.0 0.0 0.01 0.01 0.0 0.0 0.0 0.01 0.0 0.0 0.0 0.01 0.01 0.0 0.0 0.0 0.01 0.0 0.0 0.0 0.01 0.01 0.0 0.0 0.0 0.01 0.0 0.0 0.0 0.01 0.01 0.0 0.0 0.0 0.01 0.0 0.0 0.0 0.01 0.01 0.0 0.0 0.0 0.01 0.0 0.0 0.0 0.01 0.01 0.0 0.0 0.0 0.01 0.0 0.0 0.0 0.01 0.01 0.0 0.0 0.0 0.01 0.0 0.0 0.0 0.01 0.01 0.0 0.0 0.0 0.01 0.0 0.0 0.0 0.01 0.01 0.0 0.0 0.0 0.01 0.0 0.0 0.0 0.01 0.01 0.0 0.0 0.0 0.01 0.0 0.0 0.0 0.01 0.01 0.0 0.0 0.0 0.01 0.0 0.0 0.0 0.01 0.01 0.0 0.0 0.0 0.01 0.0 0.0 0.0 0.01 0.01 0.0 0.0 0.0 0.01 0.0 0.0 0.0 0.01 0.01 0.0 0.0 0.0 0.01 0.0 0.0 0.0 0.01 0.01 0.0 0.0 0.0 0.01 0.0 0.0 0.0 0.01 0.01 0.0 0.0 0.0 0.01 0.0 0.0 0.0 0.01 0.01 0.0 0.0 0.0 0.01 0.0 0.0 0.0 0.01 0.01 0.0 0.0 0.0 0.01 0.0 0.0 0.0 0.01 0.01 0.0 0.0 0.0 0.01 0.0 0.0 0.0 0.01 0.01 0.0 0.0 0.0 0.01 0.0 0.0 0.0 0.01 0.01 0.0 0.0 0.0 0.01 0.0 0.0 0.0 0.01 0.01 0.0 0.0 0.0 0.01 0.0 0.0 0.0 0.01 0.01 0.0 0.0 0.0 0.01 0.0 0.0 0.0 0.01 0.01 0.0 0.0 0.0 0.01 0.0 0.0 0.0 0.01 0.01 0.0 0.0 0.0 0.01 0.0 0.0 0.0 0.01 0.01 0.0 0.0 0.0 0.01 0.0 0.0 0.0 0.01 0.01 0.0 0.0 0.0 0.01 0.0 0.0 0.0 0.01 0.01 0.0 0.0 0.0 0.01 0.0 0.0 0.0 0.01 0.01 0.0 0.0 0.0 0.01 0.0 0.0 0.0 0.01 0.01 0.0 0.0 0.0 0.01 0.0 0.0 0.0 0.01 0.01 0.0 0.0 0.0 0.01 0.0 0.0 0.0 0.01 0.01 0.0 0.0 0.0 0.01 0.0 0.0 0.0 0.01 0.01 0.0 0.0 0.0 0.01 0.0 0.0 0.0 0.01 0.01 0.0 0.0 0.0 0.01 0.0 0.0 0.0 0.01 0.01 0.0 0.0 0.0 0.01 0.0 0.0 0.0 0.01 0.01 0.0 0.0 0.0 0.01 0.0 0.0 0.0 0.01 0.01 0.0 0.0 0.0 0.01 0.0 0.0 0.0 0.01 0.01 0.0 0.0 0.0 0.01 0.0 0.0 0.0 0.01 0.01 0.0 0.0 0.0 0.01 0.0 0.0 0.0 0.01 0.01 0.0 0.0 0.0 0.01 0.0 0.0 0.0 0.01 0.01 0.0 0.0 0.0 0.01 0.0 0.0 0.0 0.01 0.01 0.0 0.0 0.0 0.01 0.0 0.0 0.0 0.01 0.01 0.0 0.0 0.0 0.01 0.0 0.0 0.0 0.01 0.01 0.0 0.0 0.0 0.01 0.0 0.0 0.0 0.01 0.01 0.0 0.0 0.0 0.01 0.0 0.0 0.0 0.01 0.01 0.0 0.0 0.0 0.01 0.0 0.0 0.0 0.01 0.01 0.0 0.0 0.0 0.01 0.0 0.0 0.0 0.01 0.01 0.0 0.0 0.0 0.01 0.0 0.0 0.0 0.01 0.01 0.0 0.0 0.0 0.01 0.0 0.0 0.0 0.01 0.01 0.0 0.0 0.0 0.01 0.0 0.0 0.0 0.01 0.01 0.0 0.0 0.0 0.01 0.0 0.0 0.0 0.01 0.01 0.0 0.0 0.0 0.01 0.0 0.0 0.0 0.01 0.01 0.0 0.0 0.0 0.01 0.0 0.0 0.0 0.01 0.01 0.0 0.0 0.0 0.01 0.0 0.0 0.0 0.01 0.01 0.0 0.0 0.0 0.01 0.0 0.0 0.0 0.01 0.01 0.0 0.0 0.0 0.01 0.0 0.0 0.0 0.01 0.01 0.0 0.0 0.0 0.01 0.0 0.0 0.0 0.01 0.01 0.0 0.0 0.0 0.01 0.0 0.0 0.0 0.01 0.01 0.0 0.0 0.0 0.01 0.0 0.0 0.0 0.01 0.01 0.0 0.0 0.0 0.01 0.0 0.0 0.0 0.01 0.01 0.0 0.0 0.0 0.01 0.0 0.0 0.0 0.01 0.01 0.0 0.0 0.0 0.01 0.0 0.0 0.0 0.01 0.01 0.0 0.0 0.0 0.01 0.0 0.0 0.0 0.01 0.01 0.0 0.0 0.0 0.01 0.0 0.0 0.0 0.01 0.01 0.0 0.0 0.0 0.01 0.0 0.0 0.0 0.01 0.01 0.0 0.0 0.0 0.01 0.0 0.0 0.0 0.01 0.01 0.0 0.0 0.0 0.01 0.0 0.0 0.0 0.01 0.01 0.0 0.0 0.0 0.01 0.0 0.0 0.0 0.01 0.01 0.0 0.0 0.0 0.01 0.0 0.0 0.0 0.01 0.01 0.0 0.0 0.0 0.01 0.0 0.0 0.0 0.01 0.01 0.0 0.0 0.0 0.01 0.0 0.0 0.0 0.01 0.01 0.0 0.0 0.0 0.01 0.0 0.0 0.0 0.01 0.01 0.0 0.0 0.0 0.01 0.0 0.0 0.0 0.01 0.01 0.0 0.0 0.0 0.01 0.0 0.0 0.0 0.01 0.01 0.0 0.0 0.0 0.01 0.0 0.0 0.0 0.01 0.01 0.0 0.0 0.0 0.01 0.0 0.0 0.0 0.01 0.01 0.0 0.0 0.0 0.01 0.0 0.0 0.0 0.01 0.01 0.0 0.0 0.0 0.01 0.0 0.0 0.0 0.01 0.01 0.0 0.0 0.0 0.01 0.0 0.0 0.0 0.01 0.01 0.0 0.0 0.0 0.01 0.0 0.0 0.0 0.01 0.01 0.0 0.0 0.0 0.01 0.0 0.0 0.0 0.01 0.01 0.0 0.0 0.0 0.01 0.0 0.0 0.0 0.01 0.01 0.0 0.0 0.0 0.01 0.0 0.0 0.0 0.01 0.01 0.0 0.0 0.0 0.01 0.0 0.0 0.0 0.01 0.01 0.0 0.0 0.0 0.01 0.0 0.0 0.0 0.01 0.01 0.0 0.0 0.0 0.01 0.0 0.0 0.0 0.01 0.01 0.0 0.0 0.0 0.01 0.0 0.0 0.0 0.01 0.01 0.0 0.0 0.0 0.01 0.0 0.0 0.0 0.01 0.01 0.0 0.0 0.0 0.01 0.0 0.0 0.0 0.01 0.01 0.0 0.0 0.0 0.01 0.0 0.0 0.0 0.01 0.01 0.0 0.0 0.0 0.01 0.0 0.0 0.0 0.01 0.01 0.0 0.0 0.0 0.01 0.0 0.0 0.0 0.01 0.01 0.0 0.0 0.0 0.01 0.0 0.0 0.0 0.01 0.01 0.0 0.0 0.0 0.01 0.0 0.0 0.0 0.01 0.01 0.0 0.0 0.0 0.01 0.0 0.0 0.0 0.01 0.01 0.0 0.0 0.0 0.01 0.0 0.0 0.0 0.01 0.01 0.0 0.0 0.0 0.01 0.0 0.0 0.0 0.01 0.01 0.0 0.0 0.0 0.01 0.0 0.0 0.0 0.01 0.01 0.0 0.0 0.0 0.01 0.0 0.0 0.0 0.01 0.01 0.0 0.0 0.0 0.01 0.0 0.0 0.0 0.01 0.01 0.0 0.0 0.0 0.01 0.0 0.0 0.0 0.01 0.01 0.0 0.0 0.0 0.01 0.0 0.0 0.0 0.01 0.01 0.0 0.0 0.0 0.01 0.0 0.0 0.0 0.01 0.01 0.0 0.0 0.0 0.01 0.0 0.0 0.0 0.01 0.01 0.0 0.0 0.0 0.01 0.0 0.0 0.0 0.01 0.01 0.0 0.0 0.0 0.01 0.0 0.0 0.0 0.01 0.01 0.0 0.0 0.0 0.01 0.0 0.0 0.0 0.01 0.01 0.0 0.0 0.0 0.01 0.0 0.0 0.0 0.01 0.01 0.0 0.0 0.0 0.01 0.0 0.0 0.0 0.01 0.01 0.0 0.0 0.0 0.01 0.0 0.0 0.0 0.01 0.01 0.0 0.0 0.0 0.01 0.0 0.0 0.0 0.01 0.01 0.0 0.0 0.0 0.01 0.0 0.0 0.0 0.01 0.01 0.0 0.0 0.0 0.01 0.0 0.0 0.0 0.01 0.01 0.0 0.0 0.0 0.01 0.0 0.0 0.0 0.01 0.01 0.0 0.0 0.0 0.01 0.0 0.0 0.0 0.01 0.01 0.0 0.0 0.0 0.01 0.0 0.0 0.0 0.01 0.01 0.0 0.0 0.0 0.01 0.0 0.0 0.0 0.01 0.01 0.0 0.0 0.0 0.01 0.0 0.0 0.0 0.01 0.01 0.0 0.0 0.0 0.01 0.0 0.0 0.0 0.01 0.01 0.0 0.0 0.0 0.01 0.0 0.0 0.0 0.01 0.01 0.0 0.0 0.0 0.01 0.0 0.0 0.0 0.01 0.01 0.0 0.0 0.0 0.01 0.0 0.0 0.0 0.01 0.01 0.0 0.0 0.0 0.01 0.0 0.0 0.0 0.01 0.01 0.0 0.0 0.0 0.01 0.0 0.0 0.0 0.01 0.01 0.0 0.0 0.0 0.01 0.0 0.0 0.0 0.01 0.01 0.0 0.0 0.0 0.01 0.0 0.0 0.0 0.01 0.01 0.0 0.0 0.0 0.01 0.0 0.0 0.0 0.01 0.01 0.0 0.0 0.0 0.01 0.0 0.0 0.0 0.01 0.01 0.0 0.0 0.0 0.01 0.0 0.0 0.0 0.01 0.01 0.0 0.0 0.0 0.01 0.0 0.0 0.0 0.01 0.01 0.0 0.0 0.0 0.01 0.0 0.0 0.0 0.01 0.01 0.0 0.0 0.0 0.01 0.0 0.0 0.0 0.01 0.01 0.0 0.0 0.0 0.01 0.0 0.0 0.0 0.01 0.01 0.0 0.0 0.0 0.01 0.0 0.0 0.0 0.01 0.01 0.0 0.0 0.0 0.01 0.0 0.0 0.0 0.01 0.01 0.0 0.0 0.0 0.01 0.0 0.0 0.0 0.01 0.01 0.0 0.0 0.0 0.01 0.0 0.0 0.0 0.01 0.01 0.0 0.0 0.0 0.01 0.0 0.0 0.0 0.01 0.01 0.0 0.0 0.0 0.01 0.0 0.0 0.0 0.01 0.01 0.0 0.0 0.0 0.01 0.0 0.0 0.0 0.01 0.01 0.0 0.0 0.0 0.01 0.0 0.0 0.0 0.01 0.01 0.0 0.0 0.0 0.01 0.0 0.0 0.0 0.01 0.01 0.0 0.0 0.0 0.01 0.0 0.0 0.0 0.01 0.01 0.0 0.0 0.0 0.01 0.0 0.0 0.0 0.01 0.01 0.0 0.0 0.0 0.01 0.0 0.0 0.0 0.01 0.01 0.0 0.0 0.0 0.01 0.0 0.0 0.0 0.01 0.01 0.0 0.0 0.0 0.01 0.0 0.0 0.0 0.01 0.01 0.0 0.0 0.0 0.01 0.0 0.0 0.0 0.01 0.01 0.0 0.0 0.0 0.01 0.0 0.0 0.0 0.01 0.01 0.0 0.0 0.0 0.01 0.0 0.0 0.0 0.01 0.01 0.0 0.0 0.0 0.01 0.0 0.0 0.0 0.01 0.01 0.0 0.0 0.0 0.01 0.0 0.0 0.0 0.01 0.01 0.0 0.0 0.0 0.01 0.0 0.0 0.0 0.01 0.01 0.0 0.0 0.0 0.01 0.0 0.0 0.0 0.01 0.01 0.0 0.0 0.0 0.01 0.0 0.0 0.0 0.01 0.01 0.0 0.0 0.0 0.01 0.0 0.0 0.0 0.01 0.01 0.0 0.0 0.0 0.01 0.0 0.0 0.0 0.01 0.01 0.0 0.0 0.0 0.01 0.0 0.0 0.0 0.01 0.01 0.0 0.0 0.0 0.01 0.0 0.0 0.0 0.01 0.01 0.0 0.0 0.0 0.01 0.0 0.0 0.0 0.01 0.01 0.0 0.0 0.0 0.01 0.0 0.0 0.0 0.01 0.01 0.0 0.0 0.0 0.01 0.0 0.0 0.0 0.01 0.01 0.0 0.0 0.0 0.01 0.0 0.0 0.0 0.01 0.01 0.0 0.0 0.0 0.01 0.0 0.0 0.0 0.01 0.01 0.0 0.0 0.0 0.01 0.0 0.0 0.0 0.01 0.01 0.0 0.0 0.0 0.01 0.0 0.0 0.0 0.01 0.01 0.0 0.0 0.0 0.01 0.0 0.0 0.0 0.01 0.01 0.0 0.0 0.0 0.01 0.0 0.0 0.0 0.01 0.01 0.0 0.0 0.0 0.01 0.0 0.0 0.0 0.01 0.01 0.0 0.0 0.0 0.01 0.0 0.0 0.0 0.01 0.01 0.0 0.0 0.0 0.01 0.0 0.0 0.0 0.01 0.01 0.0 0.0 0.0 0.01 0.0 0.0 0.0 0.01 0.01 0.0 0.0 0.0 0.01 0.0 0.0 0.0 0.01 0.01 0.0 0.0 0.0 0.01 0.0 0.0 0.0 0.01 0.01 0.0 0.0 0.0 0.01 0.0 0.0 0.0 0.01 0.01 0.0 0.0 0.0 0.01 0.0 0.0 0.0 0.01 0.01 0.0 0.0 0.0 0.01 0.0 0.0 0.0 0.01 0.01 0.0 0.0 0.0 0.01 0.0 0.0 0.0 0.01 0.01 0.0 0.0 0.0 0.01 0.0 0.0 0.0 0.01 0.01 0.0 0.0 0.0 0.01 0.0 0.0 0.0 0.01 0.01 0.0 0.0 0.0 0.01 0.0 0.0 0.0 0.01 0.01 0.0 0.0 0.0 0.01 0.0 0.0 0.0 0.01 0.01 0.0 0.0 0.0 0.01 0.0 0.0 0.0 0.01 0.01 0.0 0.0 0.0 0.01 0.0 0.0 0.0 0.01 0.01 0.0 0.0 0.0 0.01 0.0 0.0 0.0 0.01 0.01 0.0 0.0 0.0 0.01 0.0 0.0 0.0 0.01 0.01 0.0 0.0 0.0 0.01 0.0 0.0 0.0 0.01 0.01 0.0 0.0 0.0 0.01 0.0 0.0 0.0 0.01 0.01 0.0 0.0 0.0 0.01 0.0 0.0 0.0 0.01 0.01 0.0 0.0 0.0 0.01 0.0 0.0 0.0 0.01 0.01 0.0 0.0 0.0 0.01 0.0 0.0 0.0 0.01 0.01 0.0 0.0 0.0 0.01 0.0 0.0 0.0 0.01 0.01 0.0 0.0 0.0 0.01 0.0 0.0 0.0 0.01 0.01 0.0 0.0 0.0 0.01 0.0 0.0 0.0 0.01 0.01 0.0 0.0 0.0 0.01 0.0 0.0 0.0 0.01 0.01 0.0 0.0 0.0 0.01 0.0 0.0 0.0 0.01 0.01 0.0 0.0 0.0 0.01 0.0 0.0 0.0 0.01 0.01 0.0 0.0 0.0 0.01 0.0 0.0 0.0 0.01 0.01 0.0 0.0 0.0 0.01 0.0 0.0 0.0 0.01 0.01 0.0 0.0 0.0 0.01 0.0 0.0 0.0 0.01 0.01 0.0 0.0 0.0 0.01 0.0 0.0 0.0 0.01 0.01 0.0 0.0 0.0 0.01 0.0 0.0 0.0 0.01 0.01 0.0 0.0 0.0 0.01 0.0 0.0 0.0 0.01 0.01 0.0 0.0 0.0 0.01 0.0 0.0 0.0 0.01 0.01 0.0 0.0 0.0 0.01 0.0 0.0 0.0 0.01 0.01 0.0 0.0 0.0 0.01 0.0 0.0 0.0 0.01 0.01 0.0 0.0 0.0 0.01 0.0 0.0 0.0 0.01 0.01 0.0 0.0 0.0 0.01 0.0 0.0 0.0 0.01 0.01 0.0 0.0 0.0 0.01 0.0 0.0 0.0 0.01 0.01 0.0 0.0 0.0 0.01 0.0 0.0 0.0 0.01 0.01 0.0 0.0 0.0 0.01 0.0 0.0 0.0 0.01 0.01 0.0 0.0 0.0 0.01 0.0 0.0 0.0 0.01 0.01 0.0 0.0 0.0 0.01 0.0 0.0 0.0 0.01 0.01 0.0 0.0 0.0 0.01 0.0 0.0 0.0 0.01 0.01 0.0 0.0 0.0 0.01 0.0 0.0 0.0 0.01 0.01 0.0 0.0 0.0 0.01 0.0 0.0 0.0 0.01 0.01 0.0 0.0 0.0 0.01 0.0 0.0 0.0 0.01 0.01 0.0 0.0 0.0 0.01 0.0 0.0 0.0 0.01 0.01 0.0 0.0 0.0 0.01 0.0 0.0 0.0 0.01 0.01 0.0 0.0 0.0 0.01 0.0 0.0 0.0 0.01 0.01 0.0 0.0 0.0 0.01 0.0 0.0 0.0 0.01 0.01 0.0 0.0 0.0 0.01 0.0 0.0 0.0 0.01 0.01 0.0 0.0 0.0 0.01 0.0 0.0 0.0 0.01 0.01 0.0 0.0 0.0 0.01 0.0 0.0 0.0 0.01 0.01 0.0 0.0 0.0 0.01 0.0 0.0 0.0 0.01 0.01 0.0 0.0 0.0 0.01 0.0 0.0 0.0 0.01 0.01 0.0 0.0 0.0 0.01 0.0 0.0 0.0 0.01 0.01 0.0 0.0 0.0 0.01 0.0 0.0 0.0 0.01 0.01 0.0 0.0 0.0 0.01 0.0 0.0 0.0 0.01 0.01 0.0 0.0 0.0 0.01 0.0 0.0 0.0 0.01 0.01 0.0 0.0 0.0 0.01 0.0 0.0 0.0 0.01 0.01 0.0 0.0 0.0 0.01 0.0 0.0 0.0 0.01 0.01 0.0 0.0 0.0 0.01 0.0 0.0 0.0 0.01 0.01 0.0 0.0 0.0 0.01 0.0 0.0 0.0 0.01 0.01 0.0 0.0 0.0 0.01 0.0 0.0 0.0 0.01 0.01 0.0 0.0 0.0 0.01 0.0 0.0 0.0 0.01 0.01 0.0 0.0 0.0 0.01 0.0 0.0 0.0 0.01 0.01 0.0 0.0 0.0 0.01 0.0 0.0 0.0 0.01 0.01 0.0 0.0 0.0 0.01 0.0 0.0 0.0 0.01 0.01 0.0 0.0 0.0 0.01 0.0 0.0 0.0 0.01 0.01 0.0 0.0 0.0 0.01 0.0 0.0 0.0 0.01 0.01 0.0 0.0 0.0 0.01 0.0 0.0 0.0 0.01 0.01 0.0 0.0 0.0 0.01 0.0 0.0 0.0 0.01 0.01 0.0 0.0 0.0 0.01 0.0 0.0 0.0 0.01 0.01 0.0 0.0 0.0 0.01 0.0 0.0 0.0 0.01 0.01 0.0 0.0 0.0 0.01 0.0 0.0 0.0 0.01 0.01 0.0 0.0 0.0 0.01 0.0 0.0 0.0 0.01 0.01 0.0 0.0 0.0 0.01 0.0 0.0 0.0 0.01 0.01 0.0 0.0 0.0 0.01 0.0 0.0 0.0 0.01 0.01 0.0 0.0 0.0 0.01 0.0 0.0 0.0 0.01 0.01 0.0 0.0 0.0 0.01 0.0 0.0 0.0 0.01 0.01 0.0 0.0 0.0 0.01 0.0 0.0 0.0 0.01 0.01 0.0 0.0 0.0 0.01 0.0 0.0 0.0 0.01 0.01 0.0 0.0 0.0 0.01 0.0 0.0 0.0 0.01 0.01 0.0 0.0 0.0 0.01 0.0 0.0 0.0 0.01 0.01 0.0 0.0 0.0 0.01 0.0 0.0 0.0 0.01 0.01 0.0 0.0 0.0 0.01 0.0 0.0 0.0 0.01 0.01 0.0 0.0 0.0 0.01 0.0 0.0 0.0 0.01 0.01 0.0 0.0 0.0 0.01 0.0 0.0 0.0 0.01 0.01 0.0 0.0 0.0 0.01 0.0 0.0 0.0 0.01 0.01 0.0 0.0 0.0 0.01 0.0 0.0 0.0 0.01 0.01 0.0 0.0 0.0 0.01 0.0 0.0 0.0 0.01 0.01 0.0 0.0 0.0 0.01 0.0 0.0 0.0 0.01 0.01 0.0 0.0 0.0 0.01 0.0 0.0 0.0 0.01 0.01 0.0 0.0 0.0 0.01 0.0 0.0 0.0 0.01 0.01 0.0 0.0 0.0 0.01 0.0 0.0 0.0 0.01 0.01 0.0 0.0 0.0 0.01 0.0 0.0 0.0 0.01 0.01 0.0 0.0 0.0 0.01 0.0 0.0 0.0 0.01 0.01 0.0 0.0 0.0 0.01 0.0 0.0 0.0 0.01 0.01 0.0 0.0 0.0 0.01 0.0 0.0 0.0 0.01 0.01 0.0 0.0 0.0 0.01 0.0 0.0 0.0 0.01 0.01 0.0 0.0 0.0 0.01 0.0 0.0 0.0 0.01 0.01 0.0 0.0 0.0 0.01 0.0 0.0 0.0 0.01 0.01 0.0 0.0 0.0 0.01 0.0 0.0 0.0 0.01 0.01 0.0 0.0 0.0 0.01 0.0 0.0 0.0 0.01 0.01 0.0 0.0 0.0 0.01 0.0 0.0 0.0 0.01 0.01 0.0 0.0 0.0 0.01 0.0 0.0 0.0 0.01 0.01 0.0 0.0 0.0 0.01 0.0 0.0 0.0 0.01 0.01 0.0 0.0 0.0 0.01 0.0 0.0 0.0 0.01 0.01 0.0 0.0 0.0 0.01 0.0 0.0 0.0 0.01 0.01 0.0 0.0 0.0 0.01 0.0 0.0 0.0 0.01 0.01 0.0 0.0 0.0 0.01 0.0 0.0 0.0 0.01 0.01 0.0 0.0 0.0 0.01 0.0 0.0 0.0 0.01 0.01 0.0 0.0 0.0 0.01 0.0 0.0 0.0 0.01 0.01 0.0 0.0 0.0 0.01 0.0 0.0 0.0 0.01 0.01 0.0 0.0 0.0 0.01 0.0 0.0 0.0 0.01 0.01 0.0 0.0 0.0 0.01 0.0 0.0 0.0 0.01 0.01 0.0 0.0 0.0 0.01 0.0 0.0 0.0 0.01 0.01 0.0 0.0 0.0 0.01 0.0 0.0 0.0 0.01 0.01 0.0 0.0 0.0 0.01 0.0 0.0 0.0 0.01 0.01 0.0 0.0 0.0 0.01 0.0 0.0 0.0 0.01 0.01 0.0 0.0 0.0 0.01 0.0 0.0 0.0 0.01 0.01 0.0 0.0 0.0 0.01 0.0 0.0 0.0 0.01 0.01 0.0 0.0 0.0 0.01 0.0 0.0 0.0 0.01 0.01 0.0 0.0 0.0 0.01 0.0 0.0 0.0 0.01 0.01 0.0 0.0 0.0 0.01 0.0 0.0 0.0 0.01 0.01 0.0 0.0 0.0 0.01 0.0 0.0 0.0 0.01 0.01 0.0 0.0 0.0 0.01 0.0 0.0 0.0 0.01 0.01 0.0 0.0 0.0 0.01 0.0 0.0 0.0 0.01 0.01 0.0 0.0 0.0 0.01 0.0 0.0 0.0 0.01 0.01 0.0 0.0 0.0 0.01 0.0 0.0 0.0 0.01 0.01 0.0 0.0 0.0 0.01 0.0 0.0 0.0 0.01 0.01 0.0 0.0 0.0 0.01 0.0 0.0 0.0 0.01 0.01 0.0 0.0 0.0 0.01 0.0 0.0 0.0 0.01 0.01 0.0 0.0 0.0 0.01 0.0 0.0 0.0 0.01 0.01 0.0 0.0 0.0 0.01 0.0 0.0 0.0 0.01 0.01 0.0 0.0 0.0 0.01 0.0 0.0 0.0 0.01 0.01 0.0 0.0 0.0 0.01 0.0 0.0 0.0 0.01 0.01 0.0 0.0 0.0 0.01 0.0 0.0 0.0 0.01 0.01 0.0 0.0 0.0 0.01 0.0 0.0 0.0 0.01 0.01 0.0 0.0 0.0 0.01 0.0 0.0 0.0 0.01 0.01 0.0 0.0 0.0 0.01 0.0 0.0 0.0 0.01 0.01 0.0 0.0 0.0 0.01 0.0 0.0 0.0 0.01 0.01 0.0 0.0 0.0 0.01 0.0 0.0 0.0 0.01 0.01 0.0 0.0 0.0 0.01 0.0 0.0 0.0 0.01 0.01 0.0 0.0 0.0 0.01 0.0 0.0 0.0 0.01 0.01 0.0 0.0 0.0 0.01 0.0 0.0 0.0 0.01 0.01 0.0 0.0 0.0 0.01 0.0 0.0 0.0 0.01 0.01 0.0 0.0 0.0 0.01 0.0 0.0 0.0 0.01 0.01 0.0 0.0 0.0 0.01 0.0 0.0 0.0 0.01 0.01 0.0 0.0 0.0 0.01 0.0 0.0 0.0 0.01 0.01 0.0 0.0 0.0 0.01 0.0 0.0 0.0 0.01 0.01 0.0 0.0 0.0 0.01 0.0 0.0 0.0 0.01 0.01 0.0 0.0 0.0 0.01 0.0 0.0 0.0 0.01 0.01 0.0 0.0 0.0 0.01 0.0 0.0 0.0 0.01 0.01 0.0 0.0 0.0 0.01 0.0 0.0 0.0 0.01 0.01 0.0 0.0 0.0 0.01 0.0 0.0 0.0 0.01 0.01 0.0 0.0 0.0 0.01 0.0 0.0 0.0 0.01 0.01 0.0 0.0 0.0 0.01 0.0 0.0 0.0 0.01 0.01 0.0 0.0 0.0 0.01 0.0 0.0 0.0 0.01 0.01 0.0 0.0 0.0 0.01 0.0 0.0 0.0 0.01 0.01 0.0 0.0 0.0 0.01 0.0 0.0 0.0 0.01 0.01 0.0 0.0 0.0 0.01 0.0 0.0 0.0 0.01 0.01 0.0 0.0 0.0 0.01 0.0 0.0 0.0 0.01 0.01 0.0 0.0 0.0 0.01 0.0 0.0 0.0 0.01 0.01 0.0 0.0 0.0 0.01 0.0 0.0 0.0 0.01 0.01 0.0 0.0 0.0 0.01 0.0 0.0 0.0 0.01 0.01 0.0 0.0 0.0 0.01 0.0 0.0 0.0 0.01 0.01 0.0 0.0 0.0 0.01 0.0 0.0 0.0 0.01 0.01 0.0 0.0 0.0 0.01 0.0 0.0 0.0 0.01 0.01 0.0 0.0 0.0 0.01 0.0 0.0 0.0 0.01 0.01 0.0 0.0 0.0 0.01 0.0 0.0 0.0 0.01 0.01 0.0 0.0 0.0 0.01 0.0 0.0 0.0 0.01 0.01 0.0 0.0 0.0 0.01 0.0 0.0 0.0 0.01 0.01 0.0 0.0 0.0 0.01 0.0 0.0 0.0 0.01 0.01 0.0 0.0 0.0 0.01 0.0 0.0 0.0 0.01 0.01 0.0 0.0 0.0 0.01 0.0 0.0 0.0 0.01 0.01 0.0 0.0 0.0 0.01 0.0 0.0 0.0 0.01 0.01 0.0 0.0 0.0 0.01 0.0 0.0 0.0 0.01 0.01 0.0 0.0 0.0 0.01 0.0 0.0 0.0 0.01 0.01 0.0 0.0 0.0 0.01 0.0 0.0 0.0 0.01 0.01 0.0 0.0 0.0 0.01 0.0 0.0 0.0 0.01 0.01 0.0 0.0 0.0 0.01 0.0 0.0 0.0 0.01 0.01 0.0 0.0 0.0 0.01 0.0 0.0 0.0 0.01 0.01 0.0 0.0 0.0 0.01 0.0 0.0 0.0 0.01 0.01 0.0 0.0 0.0 0.01 0.0 0.0 0.0 0.01 0.01 0.0 0.0 0.0 0.01 0.0 0.0 0.0 0.01 0.01 0.0 0.0 0.0 0.01 0.0 0.0 0.0 0.01 0.01 0.0 0.0 0.0 0.01 0.0 0.0 0.0 0.01 0.01 0.0 0.0 0.0 0.01 0.0 0.0 0.0 0.01 0.01 0.0 0.0 0.0 0.01 0.0 0.0 0.0 0.01 0.01 0.0 0.0 0.0 0.01 0.0 0.0 0.0 0.01 0.01 0.0 0.0 0.0 0.01 0.0 0.0 0.0 0.01 0.01 0.0 0.0 0.0 0.01 0.0 0.0 0.0 0.01 0.01 0.0 0.0 0.0 0.01 0.0 0.0 0.0 0.01 0.01 0.0 0.0 0.0 0.01 0.0 0.0 0.0 0.01 0.01 0.0 0.0 0.0 0.01 0.0 0.0 0.0 0.01 0.01 0.0 0.0 0.0 0.01 0.0 0.0 0.0 0.01 0.01 0.0 0.0 0.0 0.01 0.0 0.0 0.0 0.01 0.01 0.0 0.0 0.0 0.01 0.0 0.0 0.0 0.01 0.01 0.0 0.0 0.0 0.01 0.0 0.0 0.0 0.01 0.01 0.0 0.0 0.0 0.01 0.0 0.0 0.0 0.01 0.01 0.0 0.0 0.0 0.01 0.0 0.0 0.0 0.01 0.01 0.0 0.0 0.0 0.01 0.0 0.0 0.0 0.01 0.01 0.0 0.0 0.0 0.01 0.0 0.0 0.0 0.01 0.01 0.0 0.0 0.0 0.01 0.0 0.0 0.0 0.01 0.01 0.0 0.0 0.0 0.01 0.0 0.0 0.0 0.01 0.01 0.0 0.0 0.0 0.01 0.0 0.0 0.0 0.01 0.01 0.0 0.0 0.0 0.01 0.0 0.0 0.0 0.01 0.01 0.0 0.0 0.0 0.01 0.0 0.0 0.0 0.01 0.01 0.0 0.0 0.0 0.01 0.0 0.0 0.0 0.01 0.01 0.0 0.0 0.0 0.01 0.0 0.0 0.0 0.01 0.01 0.0 0.0 0.0 0.01 0.0 0.0 0.0 0.01 0.01 0.0 0.0 0.0 0.01 0.0 0.0 0.0 0.01 0.01 0.0 0.0 0.0 0.01 0.0 0.0 0.0 0.01 0.01 0.0 0.0 0.0 0.01 0.0 0.0 0.0 0.01 0.01 0.0 0.0 0.0 0.01 0.0 0.0 0.0 0.01 0.01 0.0 0.0 0.0 0.01 0.0 0.0 0.0 0.01 0.01 0.0 0.0 0.0 0.01 0.0 0.0 0.0 0.01 0.01 0.0 0.0 0.0 0.01 0.0 0.0 0.0 0.01 0.01 0.0 0.0 0.0 0.01 0.0 0.0 0.0 0.01 0.01 0.0 0.0 0.0 0.01 0.0 0.0 0.0 0.01 0.01 0.0 0.0 0.0 0.01 0.0 0.0 0.0 0.01 0.01 0.0 0.0 0.0 0.01 0.0 0.0 0.0 0.01 0.01 0.0 0.0 0.0 0.01 0.0 0.0 0.0 0.01 0.01 0.0 0.0 0.0 0.01 0.0 0.0 0.0 0.01 0.01 0.0 0.0 0.0 0.01 0.0 0.0 0.0 0.01 0.01 0.0 0.0 0.0 0.01 0.0 0.0 0.0 0.01 0.01 0.0 0.0 0.0 0.01 0.0 0.0 0.0 0.01 0.01 0.0 0.0 0.0 0.01 0.0 0.0 0.0 0.01 0.01 0.0 0.0 0.0 0.01 0.0 0.0 0.0 0.01 0.01 0.0 0.0 0.0 0.01 0.0 0.0 0.0 0.01 0.01 0.0 0.0 0.0 0.01 0.0 0.0 0.0 0.01 0.01 0.0 0.0 0.0 0.01 0.0 0.0 0.0 0.01 0.01 0.0 0.0 0.0 0.01 0.0 0.0 0.0 0.01 0.01 0.0 0.0 0.0 0.01 0.0 0.0 0.0 0.01 0.01 0.0 0.0 0.0 0.01 0.0 0.0 0.0 0.01 0.01 0.0 0.0 0.0 0.01 0.0 0.0 0.0 0.01 0.01 0.0 0.0 0.0 0.01 0.0 0.0 0.0 0.01 0.01 0.0 0.0 0.0 0.01 0.0 0.0 0.0 0.01 0.01 0.0 0.0 0.0 0.01 0.0 0.0 0.0 0.01 0.01 0.0 0.0 0.0 0.01 0.0 0.0 0.0 0.01 0.01 0.0 0.0 0.0 0.01 0.0 0.0 0.0 0.01 0.01 0.0 0.0 0.0 0.01 0.0 0.0 0.0 0.01 0.01 0.0 0.0 0.0 0.01 0.0 0.0 0.0 0.01 0.01 0.0 0.0 0.0 0.01 0.0 0.0 0.0 0.01 0.01 0.0 0.0 0.0 0.01 0.0 0.0 0.0 0.01 0.01 0.0 0.0 0.0 0.01 0.0 0.0 0.0 0.01 0.01 0.0 0.0 0.0 0.01 0.0 0.0 0.0 0.01 0.01 0.0 0.0 0.0 0.01 0.0 0.0 0.0 0.01 0.01 0.0 0.0 0.0 0.01 0.0 0.0 0.0 0.01 0.01 0.0 0.0 0.0 0.01 0.0 0.0 0.0 0.01 0.01 0.0 0.0 0.0 0.01 0.0 0.0 0.0 0.01 0.01 0.0 0.0 0.0 0.01 0.0 0.0 0.0 0.01 0.01 0.0 0.0 0.0 0.01 0.0 0.0 0.0 0.01 0.01 0.0 0.0 0.0 0.01 0.0 0.0 0.0 0.01 0.01 0.0 0.0 0.0 0.01 0.0 0.0 0.0 0.01 0.01 0.0 0.0 0.0 0.01 0.0 0.0 0.0 0.01 0.01 0.0 0.0 0.0 0.01 0.0 0.0 0.0 0.01 0.01 0.0 0.0 0.0 0.01 0.0 0.0 0.0 0.01 0.01 0.0 0.0 0.0 0.01 0.0 0.0 0.0 0.01 0.01 0.0 0.0 0.0 0.01 0.0 0.0 0.0 0.01 0.01 0.0 0.0 0.0 0.01 0.0 0.0 0.0 0.01 0.01 0.0 0.0 0.0 0.01 0.0 0.0 0.0 0.01 0.01 0.0 0.0 0.0 0.01 0.0 0.0 0.0 0.01 0.01 0.0 0.0 0.0 0.01 0.0 0.0 0.0 0.01 0.01 0.0 0.0 0.0 0.01 0.0 0.0 0.0 0.01 0.01 0.0 0.0 0.0 0.01 0.0 0.0 0.0 0.01 0.01 0.0 0.0 0.0 0.01 0.0 0.0 0.0 0.01 0.01 0.0 0.0 0.0 0.01 0.0 0.0 0.0 0.01 0.01 0.0 0.0 0.0 0.01 0.0 0.0 0.0 0.01 0.01 0.0 0.0 0.0 0.01 0.0 0.0 0.0 0.01 0.01 0.0 0.0 0.0 0.01 0.0 0.0 0.0 0.01 0.01 0.0 0.0 0.0 0.01 0.0 0.0 0.0 0.01 0.01 0.0 0.0 0.0 0.01 0.0 0.0 0.0 0.01 0.01 0.0 0.0 0.0 0.01 0.0 0.0 0.0 0.01 0.01 0.0 0.0 0.0 0.01 0.0 0.0 0.0 0.01 0.01 0.0 0.0 0.0 0.01 0.0 0.0 0.0 0.01 0.01 0.0 0.0 0.0 0.01 0.0 0.0 0.0 0.01 0.01 0.0 0.0 0.0 0.01 0.0 0.0 0.0 0.01 0.01 0.0 0.0 0.0 0.01 0.0 0.0 0.0 0.01 0.01 0.0 0.0 0.0 0.01 0.0 0.0 0.0 0.01 0.01 0.0 0.0 0.0 0.01 0.0 0.0 0.0 0.01 0.01 0.0 0.0 0.0 0.01 0.0 0.0 0.0 0.01 0.01 0.0 0.0 0.0 0.01 0.0 0.0 0.0 0.01 0.01 0.0 0.0 0.0 0.01 0.0 0.0 0.0 0.01 0.01 0.0 0.0 0.0 0.01 0.0 0.0 0.0 0.01 0.01 0.0 0.0 0.0 0.01 0.0 0.0 0.0 0.01 0.01 0.0 0.0 0.0 0.01 0.0 0.0 0.0 0.01 0.01 0.0 0.0 0.0 0.01 0.0 0.0 0.0 0.01 0.01 0.0 0.0 0.0 0.01 0.0 0.0 0.0 0.01 0.01 0.0 0.0 0.0 0.01 0.0 0.0 0.0 0.01 0.01 0.0 0.0 0.0 0.01 0.0 0.0 0.0 0.01 0.01 0.0 0.0 0.0 0.01 0.0 0.0 0.0 0.01 0.01 0.0 0.0 0.0 0.01 0.0 0.0 0.0 0.01 0.01 0.0 0.0 0.0 0.01 0.0 0.0 0.0 0.01 0.01 0.0 0.0 0.0 0.01 0.0 0.0 0.0 0.01 0.01 0.0 0.0 0.0 0.01 0.0 0.0 0.0 0.01 0.01 0.0 0.0 0.0 0.01 0.0 0.0 0.0 0.01 0.01 0.0 0.0 0.0 0.01 0.0 0.0 0.0 0.01 0.01 0.0 0.0 0.0 0.01 0.0 0.0 0.0 0.01 0.01 0.0 0.0 0.0 0.01 0.0 0.0 0.0 0.01 0.01 0.0 0.0 0.0 0.01 0.0 0.0 0.0 0.01 0.01 0.0 0.0 0.0 0.01 0.0 0.0 0.0 0.01 0.01 0.0 0.0 0.0 0.01 0.0 0.0 0.0 0.01 0.01 0.0 0.0 0.0 0.01 0.0 0.0 0.0 0.01 0.01 0.0 0.0 0.0 0.01 0.0 0.0 0.0 0.01 0.01 0.0 0.0 0.0 0.01 0.0 0.0 0.0 0.01 0.01 0.0 0.0 0.0 0.01 0.0 0.0 0.0 0.01 0.01 0.0 0.0 0.0 0.01 0.0 0.0 0.0 0.01 0.01 0.0 0.0 0.0 0.01 0.0 0.0 0.0 0.01 0.01 0.0 0.0 0.0 0.01 0.0 0.0 0.0 0.01 0.01 0.0 0.0 0.0 0.01 0.0 0.0 0.0 0.01 0.01 0.0 0.0 0.0 0.01 0.0 0.0 0.0 0.01 0.01 0.0 0.0 0.0 0.01 0.0 0.0 0.0 0.01 0.01 0.0 0.0 0.0 0.01 0.0 0.0 0.0 0.01 0.01 0.0 0.0 0.0 0.01 0.0 0.0 0.0 0.01 0.01 0.0 0.0 0.0 0.01 0.0 0.0 0.0 0.01 0.01 0.0 0.0 0.0 0.01 0.0 0.0 0.0 0.01 0.01 0.0 0.0 0.0 0.01 0.0 0.0 0.0 0.01 0.01 0.0 0.0 0.0 0.01 0.0 0.0 0.0 0.01 0.01 0.0 0.0 0.0 0.01 0.0 0.0 0.0 0.01 0.01 0.0 0.0 0.0 0.01 0.0 0.0 0.0 0.01 0.01 0.0 0.0 0.0 0.01 0.0 0.0 0.0 0.01 0.01 0.0 0.0 0.0 0.01 0.0 0.0 0.0 0.01 0.01 0.0 0.0 0.0 0.01 0.0 0.0 0.0 0.01 0.01 0.0 0.0 0.0 0.01 0.0 0.0 0.0 0.01 0.01 0.0 0.0 0.0 0.01 0.0 0.0 0.0 0.01 0.01 0.0 0.0 0.0 0.01 0.0 0.0 0.0 0.01 0.01 0.0 0.0 0.0 0.01 0.0 0.0 0.0 0.01 0.01 0.0 0.0 0.0 0.01 0.0 0.0 0.0 0.01 0.01 0.0 0.0 0.0 0.01 0.0 0.0 0.0 0.01 0.01 0.0 0.0 0.0 0.01 0.0 0.0 0.0 0.01 0.01 0.0 0.0 0.0 0.01 0.0 0.0 0.0 0.01 0.01 0.0 0.0 0.0 0.01 0.0 0.0 0.0 0.01 0.01 0.0 0.0 0.0 0.01 0.0 0.0 0.0 0.01 0.01 0.0 0.0 0.0 0.01 0.0 0.0 0.0 0.01 0.01 0.0 0.0 0.0 0.01 0.0 0.0 0.0 0.01 0.01 0.0 0.0 0.0 0.01 0.0 0.0 0.0 0.01 0.01 0.0 0.0 0.0 0.01 0.0 0.0 0.0 0.01 0.01 0.0 0.0 0.0 0.01 0.0 0.0 0.0 0.01 0.01 0.0 0.0 0.0 0.01 0.0 0.0 0.0 0.01 0.01 0.0 0.0 0.0 0.01 0.0 0.0 0.0 0.01 0.01 0.0 0.0 0.0 0.01 0.0 0.0 0.0 0.01 0.01 0.0 0.0 0.0 0.01 0.0 0.0 0.0 0.01 0.01 0.0 0.0 0.0 0.01 0.0 0.0 0.0 0.01 0.01 0.0 0.0 0.0 0.01 0.0 0.0 0.0 0.01 0.01 0.0 0.0 0.0 0.01 0.0 0.0 0.0 0.01 0.01 0.0 0.0 0.0 0.01 0.0 0.0 0.0 0.01 0.01 0.0 0.0 0.0 0.01 0.0 0.0 0.0 0.01 0.01 0.0 0.0 0.0 0.01 0.0 0.0 0.0 0.01 0.01 0.0 0.0 0.0 0.01 0.0 0.0 0.0 0.01 0.01 0.0 0.0 0.0 0.01 0.0 0.0 0.0 0.01 0.01 0.0 0.0 0.0 0.01 0.0 0.0 0.0 0.01 0.01 0.0 0.0 0.0 0.01 0.0 0.0 0.0 0.01 0.01 0.0 0.0 0.0 0.01 0.0 0.0 0.0 0.01 0.01 0.0 0.0 0.0 0.01 0.0 0.0 0.0 0.01 0.01 0.0 0.0 0.0 0.01 0.0 0.0 0.0 0.01 0.01 0.0 0.0 0.0 0.01 0.0 0.0 0.0 0.01 0.01 0.0 0.0 0.0 0.01 0.0 0.0 0.0 0.01 0.01 0.0 0.0 0.0 0.01 0.0 0.0 0.0 0.01 0.01 0.0 0.0 0.0 0.01 0.0 0.0 0.0 0.01 0.01 0.0 0.0 0.0 0.01 0.0 0.0 0.0 0.01 0.01 0.0 0.0 0.0 0.01 0.0 0.0 0.0 0.01 0.01 0.0 0.0 0.0 0.01 0.0 0.0 0.0 0.01 0.01 0.0 0.0 0.0 0.01 0.0 0.0 0.0 0.01 0.01 0.0 0.0 0.0 0.01 0.0 0.0 0.0 0.01 0.01 0.0 0.0 0.0 0.01 0.0 0.0 0.0 0.01 0.01 0.0 0.0 0.0 0.01 0.0 0.0 0.0 0.01 0.01 0.0 0.0 0.0 0.01 0.0 0.0 0.0 0.01 0.01 0.0 0.0 0.0 0.01 0.0 0.0 0.0 0.01 0.01 0.0 0.0 0.0 0.01 0.0 0.0 0.0 0.01 0.01 0.0 0.0 0.0 0.01 0.0 0.0 0.0 0.01 0.01 0.0 0.0 0.0 0.01 0.0 0.0 0.0 0.01 0.01 0.0 0.0 0.0 0.01 0.0 0.0 0.0 0.01 0.01 0.0 0.0 0.0 0.01 0.0 0.0 0.0 0.01 0.01 0.0 0.0 0.0 0.01 0.0 0.0 0.0 0.01 0.01 0.0 0.0 0.0 0.01 0.0 0.0 0.0 0.01 0.01 0.0 0.0 0.0 0.01 0.0 0.0 0.0 0.01 0.01 0.0 0.0 0.0 0.01 0.0 0.0 0.0 0.01 0.01 0.0 0.0 0.0 0.01 0.0 0.0 0.0 0.01 0.01 0.0 0.0 0.0 0.01 0.0 0.0 0.0 0.01 0.01 0.0 0.0 0.0 0.01 0.0 0.0 0.0 0.01 0.01 0.0 0.0 0.0 0.01 0.0 0.0 0.0 0.01 0.01 0.0 0.0 0.0 0.01 0.0 0.0 0.0 0.01 0.01 0.0 0.0 0.0 0.01 0.0 0.0 0.0 0.01 0.01 0.0 0.0 0.0 0.01 0.0 0.0 0.0 0.01 0.01 0.0 0.0 0.0 0.01 0.0 0.0 0.0 0.01 0.01 0.0 0.0 0.0 0.01 0.0 0.0 0.0 0.01 0.01 0.0 0.0 0.0 0.01 0.0 0.0 0.0 0.01 0.01 0.0 0.0 0.0 0.01 0.0 0.0 0.0 0.01 0.01 0.0 0.0 0.0 0.01 0.0 0.0 0.0 0.01 0.01 0.0 0.0 0.0 0.01 0.0 0.0 0.0 0.01 0.01 0.0 0.0 0.0 0.01 0.0 0.0 0.0 0.01 0.01 0.0 0.0 0.0 0.01 0.0 0.0 0.0 0.01 0.01 0.0 0.0 0.0 0.01 0.0 0.0 0.0 0.01 0.01 0.0 0.0 0.0 0.01 0.0 0.0 0.0 0.01 0.01 0.0 0.0 0.0 0.01 0.0 0.0 0.0 0.01 0.01 0.0 0.0 0.0 0.01 0.0 0.0 0.0 0.01 0.009999337065928069 0.0 4.4627471527490517e-13 0.0 0.01 0.0 4.46274715274078e-13 0.0 0.009999947000421349 0.009999166604193864 0.0 1.7593200737353683e-13 0.0 0.01 0.0 1.7593200737353683e-13 0.0 0.00999997700007935 0.009999022643302593 0.0 2.2243362809662046e-14 0.0 0.01 0.0 2.2243362809636197e-14 0.0 0.01000000635000605 0.009998908178837055 0.0 -1.934143889884503e-14 0.0 0.01 0.0 -1.934143889884503e-14 0.0 0.01000002980013321 0.009998824707229438 0.0 -5.200355722724888e-15 0.0 0.01 0.0 -5.200355722724888e-15 0.0 0.010000042500270938 0.009999401553724979 0.0 5.418114379497646e-13 0.0 0.01 0.0 5.418114379464559e-13 0.0 0.00999990500135373 0.009999189098644818 0.0 1.9375659689952535e-13 0.0 0.01 0.0 1.9375659690035253e-13 0.0 0.009999933500663333 0.009998989653140744 0.0 -1.1142813750366516e-13 0.0 0.01 0.0 -1.1142813750366516e-13 0.0 0.0099999720001176 0.009998820708642024 0.0 -2.3815051726232157e-13 0.0 0.01 0.0 -2.38150517261908e-13 0.0 0.010000010250015762 0.009998688757948456 0.0 -2.1128577535007348e-13 0.0 0.01 0.0 -2.112857753498667e-13 0.0 0.010000041000252154 0.0099985937966668 0.0 -1.261756310831788e-13 0.0 0.01 0.0 -1.26175631082972e-13 0.0 0.010000057600497674 0.009999294574650763 0.0 4.913261598625983e-13 0.0 0.01 0.0 4.913261598625983e-13 0.0 0.009999885001983715 0.009999050635211143 0.0 1.866389114258683e-13 0.0 0.01 0.0 1.866389114254547e-13 0.0 0.00999992100093614 0.009998822208111742 0.0 -1.3647383108178882e-13 0.0 0.01 0.0 -1.3647383108178882e-13 0.0 0.009999969500139537 0.009998632280649615 0.0 -2.952314759178306e-13 0.0 0.01 0.0 -2.952314759182442e-13 0.0 0.01000001515003443 0.009998487843061964 0.0 -2.826521329558714e-13 0.0 0.01 0.0 -2.8265213295545783e-13 0.0 0.010000050300379522 0.00999838788991865 0.0 -1.890501794997268e-13 0.0 0.01 0.0 -1.890501794997268e-13 0.0 0.010000069800730817 0.00999918210035492 0.0 7.885512085443627e-12 0.0 0.01 0.0 7.885512085456861e-12 0.0 0.009999869502554482 0.009998902680642898 0.0 2.595686608999965e-12 0.0 0.01 0.0 2.595686608999965e-12 0.0 0.009999913501122325 0.009998646274935356 0.0 4.215038975260991e-13 0.0 0.01 0.0 4.215038975256855e-13 0.0 0.009999968500148837 0.009998436366818783 0.0 8.915699184171904e-14 0.0 0.01 0.0 8.915699184171904e-14 0.0 0.01000002000006 0.009998281443117199 0.0 -8.184352296196106e-14 0.0 0.01 0.0 -8.184352296185766e-14 0.0 0.010000059100523926 0.009998177498347941 0.0 -1.1756639328948377e-13 0.0 0.01 0.0 -1.1756639328938037e-13 0.0 0.010000080550973262 0.009999041137930188 0.0 7.523456062751477e-10 0.0 0.01 0.0 7.523456062734536e-10 0.0 0.00999985850300335 0.009998722744748853 0.0 4.216561720194991e-10 0.0 0.01 0.0 4.216561720194991e-10 0.0 0.009999908001269608 0.00999843936541309 0.0 1.4663518226971852e-10 0.0 0.01 0.0 1.4663518226950676e-10 0.0 0.009999970500130542 0.009998210980203322 0.0 1.6594031118391413e-11 0.0 0.01 0.0 1.6594031118391413e-11 0.0 0.01000002540009678 0.009998047571945187 0.0 4.715957838333201e-13 0.0 0.01 0.0 4.715957838333201e-13 0.0 0.010000066400661353 0.009997943634469836 0.0 1.2125382939281807e-13 0.0 0.01 0.0 1.2125382939281807e-13 0.0 0.010000086901132759 0.009998836703027203 0.0 6.69917009817327e-09 0.0 0.01 0.0 6.699170098186822e-09 0.0 0.009999850503359185 0.009998483844881367 0.0 4.238297027837109e-09 0.0 0.01 0.0 4.238297027833721e-09 0.0 0.009999905501342214 0.009998173000811477 0.0 1.951722344007331e-09 0.0 0.01 0.0 1.951722344005637e-09 0.0 0.009999973000109926 0.0099979321415827 0.0 5.36788470589349e-10 0.0 0.01 0.0 5.367884705897725e-10 0.0 0.010000031250146531 0.009997765749004756 0.0 6.025017097092248e-11 0.0 0.01 0.0 6.025017097092248e-11 0.0 0.010000071800773298 0.009997659322072533 0.0 5.266634093644891e-13 0.0 0.01 0.0 5.266634093644891e-13 0.0 0.010000092751290407 0.009998509833276542 0.0 2.8374935499673884e-08 0.0 0.01 0.0 2.837493549970099e-08 0.0 0.009999843503794533 0.009998128525550171 0.0 1.9412856338350934e-08 0.0 0.01 0.0 1.9412856338350934e-08 0.0 0.009999905001410268 0.009997815715887317 0.0 9.7501375924904e-09 0.0 0.01 0.0 9.7501375924904e-09 0.0 0.009999977500090206 0.009997580378470367 0.0 3.3811267263173878e-09 0.0 0.01 0.0 3.3811267263156937e-09 0.0 0.010000038100219457 0.00999741800035277 0.0 6.733409172423548e-10 0.0 0.01 0.0 6.733409172423548e-10 0.0 0.010000079100938601 0.009997320577280776 0.0 4.749621838857214e-11 0.0 0.01 0.0 4.7496218388545673e-11 0.0 0.0100000986514598 0.009997983611077572 0.0 8.324033952606443e-08 0.0 0.01 0.0 8.324033952601022e-08 0.0 0.009999832505247934 0.009997599864887246 0.0 5.848190108310308e-08 0.0 0.01 0.0 5.848190108315729e-08 0.0 0.009999900002013156 0.009997321077018794 0.0 3.052920364111174e-08 0.0 0.01 0.0 3.052920364113884e-08 0.0 0.00999998250018579 0.009997124740563162 0.0 1.1561401164851331e-08 0.0 0.01 0.0 1.1561401164851331e-08 0.0 0.010000048350370721 0.009996993356530773 0.0 2.864007175034267e-09 0.0 0.01 0.0 2.864007175034267e-09 0.0 0.01000008935119876 0.009996913429625857 0.0 3.607733334890833e-10 0.0 0.01 0.0 3.607733334890833e-10 0.0 0.010000106951715793 0.009997181197783608 0.0 1.912129338443565e-07 0.0 0.01 0.0 1.912129338443565e-07 0.0 0.009999818010454836 0.00999685049120341 0.0 1.3329697024839398e-07 0.0 0.01 0.0 1.3329697024844819e-07 0.0 0.009999895004320046 0.009996665669142667 0.0 7.004562229101074e-08 0.0 0.01 0.0 7.004562229101074e-08 0.0 0.009999992500744721 0.009996554281877712 0.0 2.745035955344728e-08 0.0 0.01 0.0 2.745035955344728e-08 0.0 0.010000067850803634 0.009996478860645369 0.0 7.524814995584682e-09 0.0 0.01 0.0 7.52481499558807e-09 0.0 0.010000111801883418 0.00999643590632067 0.0 1.2159288449224118e-09 0.0 0.01 0.0 1.2159288449228353e-09 0.0 0.0100001274524368 0.009996082821557324 0.0 3.530011768866333e-07 0.0 0.01 0.0 3.530011768866333e-07 0.0 0.009999778526060172 0.009995887546956914 0.0 2.4103908971128546e-07 0.0 0.01 0.0 2.4103908971117704e-07 0.0 0.009999883510755519 0.009995861572757342 0.0 1.251523283545366e-07 0.0 0.01 0.0 1.251523283544824e-07 0.0 0.01000001125236975 0.00999587055961783 0.0 4.9443116398567143e-08 0.0 0.01 0.0 4.9443116398567143e-08 0.0 0.010000106952082675 0.009995875553093586 0.0 1.4204128883830124e-08 0.0 0.01 0.0 1.4204128883830124e-08 0.0 0.010000152853534838 0.00999588154564878 0.0 2.5917310816348695e-09 0.0 0.01 0.0 2.5917310816348695e-09 0.0 0.010000165054087342 0.009994828554121347 0.0 5.145814792413463e-07 0.0 0.01 0.0 5.145814792415632e-07 0.0 0.009999687054440688 0.009994827034798618 0.0 3.470607201874927e-07 0.0 0.01 0.0 3.470607201876011e-07 0.0 0.009999862020936593 0.009994972298938039 0.0 1.7741962316734482e-07 0.0 0.01 0.0 1.7741962316739903e-07 0.0 0.010000051255118823 0.009995105097090139 0.0 6.980661856607786e-08 0.0 0.01 0.0 6.980661856610497e-08 0.0 0.010000174805314819 0.009995191969859998 0.0 2.042049604000925e-08 0.0 0.01 0.0 2.042049604000925e-08 0.0 0.010000230458028976 0.009995245393096312 0.0 3.9397863291012965e-09 0.0 0.01 0.0 3.9397863291012965e-09 0.0 0.010000234358240642 0.009993751415221309 0.0 5.973529934488915e-07 0.0 0.01 0.0 5.973529934486747e-07 0.0 0.009999670569853273 0.009993841717017116 0.0 3.969540024063162e-07 0.0 0.01 0.0 3.969540024063162e-07 0.0 0.009999873026074494 0.009994089749819747 0.0 2.0032808525270946e-07 0.0 0.01 0.0 2.0032808525276367e-07 0.0 0.010000132308650024 0.009994295386022294 0.0 7.798877401185176e-08 0.0 0.01 0.0 7.798877401187887e-08 0.0 0.010000295914047209 0.009994436646160027 0.0 2.277608711524835e-08 0.0 0.01 0.0 2.2776087115241575e-08 0.0 0.010000351568617068 0.009994531488967798 0.0 4.4332083970929475e-09 0.0 0.01 0.0 4.4332083970946416e-09 0.0 0.010000341817528033 0.009992911592250268 0.0 5.668777906659133e-07 0.0 0.01 0.0 5.668777906659133e-07 0.0 0.01000026910910727 0.009992991395004527 0.0 3.650989826642966e-07 0.0 0.01 0.0 3.650989826642966e-07 0.0 0.010000167524221957 0.009993236373071517 0.0 1.8022301722422354e-07 0.0 0.01 0.0 1.8022301722422354e-07 0.0 0.010000338422054654 0.00999345493200955 0.0 6.87495601479725e-08 0.0 0.01 0.0 6.87495601479725e-08 0.0 0.01000048733633169 0.009993615619314186 0.0 1.9635745768177733e-08 0.0 0.01 0.0 1.963574576818112e-08 0.0 0.01000052689169718 0.00999373289641699 0.0 3.6712174041174603e-09 0.0 0.01 0.0 3.6712174041174603e-09 0.0 0.010000494686706841 0.009992117355995136 0.0 4.141462072870133e-07 0.0 0.01 0.0 4.141462072870133e-07 0.0 0.010001063695440456 0.009992183185395917 0.0 2.636247410773055e-07 0.0 0.01 0.0 2.636247410773055e-07 0.0 0.010000734941446432 0.009992376728444972 0.0 1.2730548252265386e-07 0.0 0.01 0.0 1.2730548252262676e-07 0.0 0.010000697325365642 0.009992564800888493 0.0 4.702253386735161e-08 0.0 0.01 0.0 4.702253386735161e-08 0.0 0.01000075983692598 0.009992718959783336 0.0 1.2751078176096348e-08 0.0 0.01 0.0 1.2751078176096348e-08 0.0 0.010000753985289906 0.009992849177459719 0.0 2.131199126662066e-09 0.0 0.01 0.0 2.1311991266616425e-09 0.0 0.01000068707080414 0.009991257984840959 0.0 2.3127503158689258e-07 0.0 0.01 0.0 2.312750315869468e-07 0.0 0.01000164301286407 0.00999131183895633 0.0 1.4600201461337876e-07 0.0 0.01 0.0 1.4600201461337876e-07 0.0 0.010001292253644864 0.009991450976091231 0.0 6.87332155536747e-08 0.0 0.01 0.0 6.873321555366115e-08 0.0 0.010001113486659509 0.009991597103266723 0.0 2.4040149859679103e-08 0.0 0.01 0.0 2.4040149859675715e-08 0.0 0.010001073923058603 0.009991736254726248 0.0 5.851279098619408e-09 0.0 0.01 0.0 5.851279098619408e-09 0.0 0.010001010903273296 0.009991870424256956 0.0 7.592049542974799e-10 0.0 0.01 0.0 7.592049542975858e-10 0.0 0.010000905873076124 0.009990284677933864 0.0 9.817247867184586e-08 0.0 0.01 0.0 9.817247867184586e-08 0.0 0.010002005004291947 0.00999032456080564 0.0 6.048213937271334e-08 0.0 0.01 0.0 6.048213937270657e-08 0.0 0.010001707938007389 0.009990414799154105 0.0 2.6885412944340653e-08 0.0 0.01 0.0 2.688541294434404e-08 0.0 0.010001490083094504 0.009990527476335654 0.0 8.424451890546371e-09 0.0 0.01 0.0 8.424451890546371e-09 0.0 0.010001383086897157 0.009990651625175772 0.0 1.6185792002189656e-09 0.0 0.01 0.0 1.6185792002187539e-09 0.0 0.010001271742558633 0.009990786748260332 0.0 1.0940845935406924e-10 0.0 0.01 0.0 1.0940845935406924e-10 0.0 0.01000113984485733 0.00998916314124414 0.0 2.9444794413126507e-08 0.0 0.01 0.0 2.944479441312312e-08 0.0 0.010002232697648444 0.009989190551961936 0.0 1.6772281088184732e-08 0.0 0.01 0.0 1.677228108818812e-08 0.0 0.010001992295270183 0.009989250856492765 0.0 6.537004033300083e-09 0.0 0.01 0.0 6.537004033300083e-09 0.0 0.010001791481302239 0.009989339570974781 0.0 1.558394032153549e-09 0.0 0.01 0.0 1.558394032153549e-09 0.0 0.010001664465474958 0.009989451713456731 0.0 1.454585729952889e-10 0.0 0.01 0.0 1.454585729952889e-10 0.0 0.010001531601798772 0.00998958828317989 0.0 -7.384100852659113e-12 0.0 0.01 0.0 -7.384100852658286e-12 0.0 0.010001380185684307 0.009987887542342193 0.0 4.435728086954199e-09 0.0 0.01 0.0 4.435728086955046e-09 0.0 0.010002409570627827 0.009987906473436295 0.0 2.072262245326276e-09 0.0 0.01 0.0 2.0722622453260643e-09 0.0 0.010002206780267642 0.009987948321504464 0.0 5.083346117994976e-10 0.0 0.01 0.0 5.083346117996035e-10 0.0 0.010002039673870795 0.009988021556890525 0.0 -3.895160325229948e-12 0.0 0.01 0.0 -3.895160325230361e-12 0.0 0.010001921453655775 0.009988125683444255 0.0 -2.5033547984169284e-11 0.0 0.01 0.0 -2.5033547984165976e-11 0.0 0.010001785628156347 0.009988262198787857 0.0 -6.70688920902495e-12 0.0 0.01 0.0 -6.70688920902495e-12 0.0 0.010001628797860965 0.009986454571584874 0.0 -3.7282871374301304e-11 0.0 0.01 0.0 -3.728287137430461e-11 0.0 0.010002598162216374 0.009986459053326326 0.0 -1.4463316778269274e-10 0.0 0.01 0.0 -1.4463316778266627e-10 0.0 0.010002418376999308 0.009986488433780801 0.0 -1.225670106429936e-10 0.0 0.01 0.0 -1.225670106429936e-10 0.0 0.01000228103022754 0.009986547693452537 0.0 -6.611320405981411e-11 0.0 0.01 0.0 -6.611320405982073e-11 0.0 0.010002182864526666 0.009986647789915754 0.0 -2.558838984023769e-11 0.0 0.01 0.0 -2.5588389840241e-11 0.0 0.010002046528070187 0.009986786236750617 0.0 -6.317065090635927e-12 0.0 0.01 0.0 -6.3170650906351e-12 0.0 0.010001880430269748 0.009984822125245128 0.0 -1.299828310998367e-10 0.0 0.01 0.0 -1.299828310998367e-10 0.0 0.010002834704877358 0.009984815157077609 0.0 -1.8893095302282854e-10 0.0 0.01 0.0 -1.889309530228153e-10 0.0 0.010002661211930533 0.009984833075252136 0.0 -1.4273626983176718e-10 0.0 0.01 0.0 -1.4273626983175394e-10 0.0 0.010002543920400498 0.009984890314511486 0.0 -7.456724216302373e-11 0.0 0.01 0.0 -7.456724216301712e-11 0.0 0.010002460858075416 0.009984993347659036 0.0 -2.751656587939538e-11 0.0 0.01 0.0 -2.751656587939869e-11 0.0 0.010002322608926324 0.009985143174497156 0.0 -6.158802589524412e-12 0.0 0.01 0.0 -6.158802589524412e-12 0.0 0.010002148141978896 0.009982940752193466 0.0 -1.5995113962867341e-10 0.0 0.01 0.0 -1.5995113962867341e-10 0.0 0.010003134272934469 0.00998293478285312 0.0 -2.3083896652521377e-10 0.0 0.01 0.0 -2.30838966525227e-10 0.0 0.010002952957478889 0.009982955675591203 0.0 -1.710938680695947e-10 0.0 0.01 0.0 -1.710938680695947e-10 0.0 0.01000284396275875 0.009983023329166998 0.0 -8.688339476196672e-11 0.0 0.01 0.0 -8.688339476197334e-11 0.0 0.010002766297436998 0.009983141726234388 0.0 -3.0511691561904365e-11 0.0 0.01 0.0 -3.0511691561904365e-11 0.0 0.010002620679834562 0.009983315847221529 0.0 -6.0753326377297955e-12 0.0 0.01 0.0 -6.075332637730209e-12 0.0 0.010002429585145854 0.009980773590707247 0.0 -1.9009114781933567e-10 0.0 0.01 0.0 -1.9009114781932243e-10 0.0 0.010003491577816402 0.00998078303603068 0.0 -2.8258827096741906e-10 0.0 0.01 0.0 -2.825882709673926e-10 0.0 0.010003296529349698 0.009980831257310285 0.0 -2.0772321146123131e-10 0.0 0.01 0.0 -2.0772321146124455e-10 0.0 0.010003185121103469 0.009980925216244224 0.0 -1.0320702208420776e-10 0.0 0.01 0.0 -1.0320702208420776e-10 0.0 0.010003101542338251 0.009981082317532133 0.0 -3.479316871227407e-11 0.0 0.01 0.0 -3.479316871227738e-11 0.0 0.01000293879496995 0.00998129362051976 0.0 -6.243809779151447e-12 0.0 0.01 0.0 -6.243809779151447e-12 0.0 0.0100027296172149 0.009978291394697794 0.0 -2.128595055994402e-10 0.0 0.01 0.0 -2.1285950559942697e-10 0.0 0.010003918301760742 0.009978342063662589 0.0 -3.4406168338639614e-10 0.0 0.01 0.0 -3.440616833864226e-10 0.0 0.010003696848993883 0.00997843893294956 0.0 -2.545750880572985e-10 0.0 0.01 0.0 -2.5457508805731175e-10 0.0 0.01000356490537687 0.009978590948902586 0.0 -1.2537632432980576e-10 0.0 0.01 0.0 -1.2537632432980576e-10 0.0 0.010003461246204827 0.009978805571488095 0.0 -4.159242784544424e-11 0.0 0.01 0.0 -4.1592427845447546e-11 0.0 0.010003276509624086 0.009979076850402663 0.0 -7.412174218270841e-12 0.0 0.01 0.0 -7.412174218271255e-12 0.0 0.010003041937444765 0.009975490403421754 0.0 -2.2021026147533073e-10 0.0 0.01 0.0 -2.2021026147533073e-10 0.0 0.010004407712477691 0.00997561697063433 0.0 -4.185134839675795e-10 0.0 0.01 0.0 -4.185134839675795e-10 0.0 0.010004139268614053 0.009975792683692334 0.0 -3.1735252906374885e-10 0.0 0.01 0.0 -3.173525290637621e-10 0.0 0.010003957898504709 0.009976032939171178 0.0 -1.5817828970105486e-10 0.0 0.01 0.0 -1.5817828970106147e-10 0.0 0.010003829348463928 0.009976333779390448 0.0 -5.3975908326885384e-11 0.0 0.01 0.0 -5.3975908326885384e-11 0.0 0.010003621616466275 0.00997668826962537 0.0 -1.1190558355517227e-11 0.0 0.01 0.0 -1.1190558355518054e-11 0.0 0.010003362044742 0.009972422994576308 0.0 -2.0684505385437135e-10 0.0 0.01 0.0 -2.0684505385439782e-10 0.0 0.010004948020013973 0.00997266151893471 0.0 -5.158734140376906e-10 0.0 0.01 0.0 -5.158734140376906e-10 0.0 0.0100045915604292 0.009972958086599442 0.0 -4.0873294089485966e-10 0.0 0.01 0.0 -4.0873294089488613e-10 0.0 0.010004332413845997 0.009973320153226243 0.0 -2.1074074020861705e-10 0.0 0.01 0.0 -2.107407402086038e-10 0.0 0.010004191133368222 0.00997373930699238 0.0 -7.727427964166011e-11 0.0 0.01 0.0 -7.727427964166011e-11 0.0 0.010003970113018706 0.009974197212271385 0.0 -2.0502068580979517e-11 0.0 0.01 0.0 -2.0502068580979517e-11 0.0 0.01000369294466924 0.009969257845328247 0.0 -1.7516413337568648e-10 0.0 0.01 0.0 -1.7516413337569972e-10 0.0 0.010005500635221813 0.009969645768391908 0.0 -6.587641814703474e-10 0.0 0.01 0.0 -6.587641814703738e-10 0.0 0.010005007158235922 0.009970098154775014 0.0 -5.53322933158776e-10 0.0 0.01 0.0 -5.533229331588025e-10 0.0 0.010004655098474974 0.009970611561562856 0.0 -2.995038489605624e-10 0.0 0.01 0.0 -2.9950384896054916e-10 0.0 0.010004541191491093 0.009971172137724485 0.0 -1.199014135516425e-10 0.0 0.01 0.0 -1.199014135516425e-10 0.0 0.010004332914496155 0.009971750160509947 0.0 -3.9490874913692083e-11 0.0 0.01 0.0 -3.949087491369539e-11 0.0 0.010004045403469969 0.00996631496985564 0.0 -1.420034030329735e-10 0.0 0.01 0.0 -1.4200340303296026e-10 0.0 0.010006011265956648 0.009966873336446452 0.0 -8.907705263017949e-10 0.0 0.01 0.0 -8.907705263017684e-10 0.0 0.010005337269928895 0.009967503591617513 0.0 -7.987382384411596e-10 0.0 0.01 0.0 -7.987382384411596e-10 0.0 0.010004922081649794 0.009968182499781065 0.0 -4.551417589723002e-10 0.0 0.01 0.0 -4.551417589723002e-10 0.0 0.010004915221536929 0.009968889286055656 0.0 -1.9498712876385943e-10 0.0 0.01 0.0 -1.9498712876385943e-10 0.0 0.010004750432849093 0.009969586809094905 0.0 -7.197565748087779e-11 0.0 0.01 0.0 -7.197565748088441e-11 0.0 0.01000447029574596 0.009964100742976555 0.0 -1.3824030110172498e-10 0.0 0.01 0.0 -1.3824030110172498e-10 0.0 0.010006414366340302 0.00996481952455734 0.0 -1.2809355481686736e-09 0.0 0.01 0.0 -1.2809355481687265e-09 0.0 0.010005552971902592 0.009965609225811025 0.0 -1.2291112930788223e-09 0.0 0.01 0.0 -1.2291112930788753e-09 0.0 0.010005180272505238 0.009966436733291808 0.0 -7.349083015752515e-10 0.0 0.01 0.0 -7.34908301575278e-10 0.0 0.010005400872264586 0.009967264942052195 0.0 -3.2575598370086334e-10 0.0 0.01 0.0 -3.2575598370086334e-10 0.0 0.01000532505040634 0.00996805968189998 0.0 -1.1979652242572674e-10 0.0 0.01 0.0 -1.1979652242572674e-10 0.0 0.010005047769425708 0.0099633015099259 0.0 -2.0606685365765466e-10 0.0 0.01 0.0 -2.0606685365765466e-10 0.0 0.010006681991389437 0.009964117065953059 0.0 -1.9173430944901814e-09 0.0 0.01 0.0 -1.9173430944901285e-09 0.0 0.010005712891844149 0.009964998131030849 0.0 -1.9655465084044216e-09 0.0 0.01 0.0 -1.9655465084044216e-09 0.0 0.01000555297190293 0.009965895266688164 0.0 -1.2271173794168043e-09 0.0 0.01 0.0 -1.2271173794167513e-09 0.0 0.010006133588524967 0.009966778783730285 0.0 -5.509435740030944e-10 0.0 0.01 0.0 -5.509435740030679e-10 0.0 0.010006181977806021 0.009967606087460243 0.0 -1.84399899103492e-10 0.0 0.01 0.0 -1.8439989910349863e-10 0.0 0.010005905126462532 0.009964825461460094 0.0 -4.287188704794077e-10 0.0 0.01 0.0 -4.2871887047942093e-10 0.0 0.010006914414764024 0.009965600813217967 0.0 -2.9328149476383632e-09 0.0 0.01 0.0 -2.9328149476383632e-09 0.0 0.010006010765055747 0.009966420398914566 0.0 -3.1690077895998178e-09 0.0 0.01 0.0 -3.1690077895998178e-09 0.0 0.0100062426407242 0.009967238206447309 0.0 -2.039300503185096e-09 0.0 0.01 0.0 -2.039300503185202e-09 0.0 0.010007261301324852 0.00996803393033948 0.0 -9.133705937750675e-10 0.0 0.01 0.0 -9.133705937750675e-10 0.0 0.010007457082927234 0.00996878377862882 0.0 -2.6652526313003974e-10 0.0 0.01 0.0 -2.6652526313003974e-10 0.0 0.010007173711944598 0.009969777068063814 0.0 -9.250572590423274e-10 0.0 0.01 0.0 -9.250572590423803e-10 0.0 0.010007461943788928 0.00997030925646232 0.0 -4.535142214481361e-09 0.0 0.01 0.0 -4.535142214481361e-09 0.0 0.01000685128459168 0.00997084846904548 0.0 -5.061043366950758e-09 0.0 0.01 0.0 -5.061043366950758e-09 0.0 0.01000750012936489 0.009971369427514535 0.0 -3.315132324683375e-09 0.0 0.01 0.0 -3.315132324683375e-09 0.0 0.010008843266690323 0.009971876585407833 0.0 -1.4702431016451785e-09 0.0 0.01 0.0 -1.4702431016451785e-09 0.0 0.010009204091719355 0.00997237539093196 0.0 -3.673979728014482e-10 0.0 0.01 0.0 -3.6739797280143496e-10 0.0 0.010008931852462875 0.00997926616253227 0.0 -1.7362322166172985e-09 0.0 0.01 0.0 -1.7362322166172985e-09 0.0 0.010009138962848326 0.009979332250412223 0.0 -6.800453653618834e-09 0.0 0.01 0.0 -6.80045365361841e-09 0.0 0.010008975469419737 0.009979369021679195 0.0 -7.694197062665578e-09 0.0 0.01 0.0 -7.694197062665578e-09 0.0 0.010009456246206033 0.009979369518586108 0.0 -5.171951794837052e-09 0.0 0.01 0.0 -5.171951794837264e-09 0.0 0.010010830068189652 0.00997936802784782 0.0 -2.3174848728105576e-09 0.0 0.01 0.0 -2.3174848728104517e-09 0.0 0.010011362586959682 0.009979422191650784 0.0 -5.323638325847764e-10 0.0 0.01 0.0 -5.323638325847764e-10 0.0 0.010011157295045274 0.009993972454080534 0.0 -2.5668707299000207e-09 0.0 0.01 0.0 -2.5668707299002325e-09 0.0 0.010012680829799772 0.00999339604760544 0.0 -9.07048445472172e-09 0.0 0.01 0.0 -9.070484454723414e-09 0.0 0.010012867091782328 0.009992763362940627 0.0 -1.0606289698823991e-08 0.0 0.01 0.0 -1.0606289698823991e-08 0.0 0.01001276023205802 0.00999208989538005 0.0 -7.44777890259409e-09 0.0 0.01 0.0 -7.447778902593667e-09 0.0 0.010013290097140755 0.009991440003590486 0.0 -3.511447958597527e-09 0.0 0.01 0.0 -3.511447958597527e-09 0.0 0.010013762257921478 0.009990898440853293 0.0 -8.810803565368061e-10 0.0 0.01 0.0 -8.810803565368061e-10 0.0 0.010013706328104362 0.010013523985341055 0.0 -2.4311221887157605e-09 0.0 0.01 0.0 -2.4311221887157605e-09 0.0 0.010017278579449259 0.01001225835331458 0.0 -9.991491870663956e-09 0.0 0.01 0.0 -9.991491870667345e-09 0.0 0.010017728684756071 0.010010924626101073 0.0 -1.260699658444433e-08 0.0 0.01 0.0 -1.260699658444433e-08 0.0 0.010017227516081839 0.010009565457225702 0.0 -9.475060283965496e-09 0.0 0.01 0.0 -9.475060283963802e-09 0.0 0.01001641482872646 0.010008258268601081 0.0 -4.8638800071896135e-09 0.0 0.01 0.0 -4.8638800071887665e-09 0.0 0.010016297052700579 0.010007113032092856 0.0 -1.5070463122146996e-09 0.0 0.01 0.0 -1.5070463122144878e-09 0.0 0.010016334837041679 0.010035921126240958 0.0 -8.406346552142596e-10 0.0 0.01 0.0 -8.406346552142596e-10 0.0 0.010020264531674159 0.010034149737570778 0.0 -8.112829367145402e-09 0.0 0.01 0.0 -8.112829367145402e-09 0.0 0.010021126310070792 0.010032280131032401 0.0 -1.2143084495658553e-08 0.0 0.01 0.0 -1.2143084495655165e-08 0.0 0.010020883083831133 0.010030417523143112 0.0 -1.0106638263372887e-08 0.0 0.01 0.0 -1.0106638263372887e-08 0.0 0.010019519402698894 0.010028643095730533 0.0 -5.765738728410247e-09 0.0 0.01 0.0 -5.765738728410247e-09 0.0 0.01001869584983284 0.010027050262981438 0.0 -2.2309516369457968e-09 0.0 0.01 0.0 -2.2309516369462203e-09 0.0 0.01001874939948287 0.01005734695595065 0.0 -3.347434510714647e-09 0.0 0.01 0.0 -3.347434510714647e-09 0.0 0.010021111114192684 0.01005556567406934 0.0 -5.280981345522649e-09 0.0 0.01 0.0 -5.280981345522649e-09 0.0 0.010022314217048857 0.010053612178473 0.0 -9.148488931997307e-09 0.0 0.01 0.0 -9.148488931997307e-09 0.0 0.01002293757921946 0.010051662766120175 0.0 -8.722862827436993e-09 0.0 0.01 0.0 -8.722862827437416e-09 0.0 0.010021881662111506 0.01004979726064927 0.0 -5.525586155471044e-09 0.0 0.01 0.0 -5.525586155471044e-09 0.0 0.010020742560044444 0.01004807740627236 0.0 -2.5515961510756836e-09 0.0 0.01 0.0 -2.5515961510756836e-09 0.0 0.010020729328067824 0.010073145840991587 0.0 -6.417045088960643e-09 0.0 0.01 0.0 -6.417045088960431e-09 0.0 0.010020589766652014 0.010072014663924789 0.0 -8.494898342327861e-09 0.0 0.01 0.0 -8.494898342328073e-09 0.0 0.010021866412475763 0.010070659878735871 0.0 -7.780784756952812e-09 0.0 0.01 0.0 -7.780784756953024e-09 0.0 0.01002334710935258 0.010069218963736647 0.0 -6.257118340461008e-09 0.0 0.01 0.0 -6.2571183404612194e-09 0.0 0.010023048692152108 0.01006776667653943 0.0 -4.0985785171775855e-09 0.0 0.01 0.0 -4.0985785171774796e-09 0.0 0.010022138752239222 0.0100663174656193 0.0 -2.112619073554205e-09 0.0 0.01 0.0 -2.1126190735540993e-09 0.0 0.010022151989794491 0.010080559830755153 0.0 -1.2373554934452014e-09 0.0 0.01 0.0 -1.237355493445175e-09 0.0 0.010019863728795033 0.01008037324818926 0.0 -5.86133699979656e-09 0.0 0.01 0.0 -5.86133699979656e-09 0.0 0.010021100295986456 0.01008006469008705 0.0 -5.602188642202904e-09 0.0 0.01 0.0 -5.602188642202692e-09 0.0 0.010021872804222478 0.01007959711852566 0.0 -3.937067681434375e-09 0.0 0.01 0.0 -3.937067681434587e-09 0.0 0.010022337824461484 0.010078941112311302 0.0 -2.348662472135511e-09 0.0 0.01 0.0 -2.348662472135564e-09 0.0 0.010022252254668027 0.010078061365015595 0.0 -1.2160362978530485e-09 0.0 0.01 0.0 -1.216036297853075e-09 0.0 0.010022761578235326 0.010080412274481863 0.0 3.1551524803015356e-09 0.0 0.01 0.0 3.1551524803014297e-09 0.0 0.010019783151494092 0.010081082040456065 0.0 -1.1133695578084453e-09 0.0 0.01 0.0 -1.1133695578084718e-09 0.0 0.010021179898697295 0.010081742461244153 0.0 -1.938516191995469e-09 0.0 0.01 0.0 -1.9385161919955218e-09 0.0 0.01002080107315801 0.010082224833325285 0.0 -1.4175936644489066e-09 0.0 0.01 0.0 -1.417593664448933e-09 0.0 0.010021692933892934 0.010082383948288582 0.0 -8.069893201482272e-10 0.0 0.01 0.0 -8.069893201482272e-10 0.0 0.010022198699159731 0.010082138745277601 0.0 -4.108870991892686e-10 0.0 0.01 0.0 -4.1088709918928185e-10 0.0 0.010023049648730476 0.010075846969822265 0.0 2.4503999069866178e-09 0.0 0.01 0.0 2.450399906986565e-09 0.0 0.010020294513341795 0.01007711333655394 0.0 6.063600041510251e-10 0.0 0.01 0.0 6.063600041510119e-10 0.0 0.010021825143174594 0.010078426247653916 0.0 -6.81638811993629e-11 0.0 0.01 0.0 -6.81638811993629e-11 0.0 0.010020736673566332 0.010079551086905161 0.0 -1.3669388193208235e-10 0.0 0.01 0.0 -1.3669388193207904e-10 0.0 0.010021585288098296 0.010080294223883145 0.0 -7.133121193792599e-11 0.0 0.01 0.0 -7.133121193792599e-11 0.0 0.010022293076218103 0.010080522800230416 0.0 -2.7597652766779628e-11 0.0 0.01 0.0 -2.7597652766779628e-11 0.0 0.01002324585496679 0.010070221544741827 0.0 3.0490607802508007e-10 0.0 0.01 0.0 3.0490607802508007e-10 0.0 0.010021013298722597 0.010071774201225797 0.0 2.0677346749260468e-10 0.0 0.01 0.0 2.0677346749260468e-10 0.0 0.010022653898001659 0.010073371478168716 0.0 1.1040780688517344e-10 0.0 0.01 0.0 1.1040780688517675e-10 0.0 0.010021355816357193 0.010074773221457658 0.0 5.721520667256083e-11 0.0 0.01 0.0 5.721520667256083e-11 0.0 0.010021955898116905 0.010075772501553318 0.0 3.394376244112971e-11 0.0 0.01 0.0 3.394376244112971e-11 0.0 0.010022563940598368 0.010076217596761916 0.0 2.2058576472207974e-11 0.0 0.01 0.0 2.20585764722088e-11 0.0 0.010023421881452233 0.010065558039111334 0.0 -1.2248696754097195e-10 0.0 0.01 0.0 -1.2248696754096865e-10 0.0 0.010021610400107562 0.010067110987806884 0.0 -2.2828530810233377e-10 0.0 0.01 0.0 -2.282853081023404e-10 0.0 0.01002334272880729 0.010068672668334692 0.0 -2.1610049711415943e-10 0.0 0.01 0.0 -2.1610049711415943e-10 0.0 0.010022199705834196 0.01007002608993084 0.0 -1.6337603247511775e-10 0.0 0.01 0.0 -1.6337603247511775e-10 0.0 0.01002256394059837 0.010070976613714854 0.0 -1.0617631490902664e-10 0.0 0.01 0.0 -1.0617631490902995e-10 0.0 0.010022884969249314 0.010071370148263212 0.0 -5.54620869889101e-11 0.0 0.01 0.0 -5.546208698890844e-11 0.0 0.010023547260662511 0.010062072706627458 0.0 3.7895377910813893e-10 0.0 0.01 0.0 3.7895377910813893e-10 0.0 0.010021620716719202 0.010063405123515458 0.0 -5.677943648203488e-10 0.0 0.01 0.0 -5.677943648203488e-10 0.0 0.010023417953986754 0.010064696676488504 0.0 -7.236459041233481e-10 0.0 0.01 0.0 -7.236459041233217e-10 0.0 0.010022597366009979 0.010065766695989652 0.0 -5.527783923448476e-10 0.0 0.01 0.0 -5.527783923448212e-10 0.0 0.010022927711630316 0.010066434056784203 0.0 -3.298224922719311e-10 0.0 0.01 0.0 -3.298224922719311e-10 0.0 0.010023029510174253 0.010066565035418733 0.0 -1.5653696299299884e-10 0.0 0.01 0.0 -1.5653696299300546e-10 0.0 0.01002352857936543 0.01005872069805206 0.0 1.088287681681275e-10 0.0 0.01 0.0 1.088287681681275e-10 0.0 0.010021159721090949 0.010059683395680526 0.0 -1.4593777641914089e-09 0.0 0.01 0.0 -1.4593777641914089e-09 0.0 0.010022969044888906 0.010060555385504124 0.0 -1.626158973637673e-09 0.0 0.01 0.0 -1.626158973637726e-09 0.0 0.010022458733278467 0.010061177966840357 0.0 -1.1827578699597568e-09 0.0 0.01 0.0 -1.1827578699597568e-09 0.0 0.010022874648733011 0.010061397758983735 0.0 -6.528249656150149e-10 0.0 0.01 0.0 -6.528249656150149e-10 0.0 0.010022884465808807 0.010061115790073252 0.0 -2.729164476066646e-10 0.0 0.01 0.0 -2.729164476066646e-10 0.0 0.010023283718004598 0.01005423143888297 0.0 -1.2623109418302422e-09 0.0 0.01 0.0 -1.2623109418302951e-09 0.0 0.010020460071317348 0.010054736200187694 0.0 -2.981745418801433e-09 0.0 0.01 0.0 -2.981745418801433e-09 0.0 0.010022197239483393 0.010055076189503765 0.0 -2.9265889760084287e-09 0.0 0.01 0.0 -2.926588976008323e-09 0.0 0.010021905266459408 0.010055134797814093 0.0 -2.0408194477003132e-09 0.0 0.01 0.0 -2.0408194477002073e-09 0.0 0.01002241106387545 0.010054788805038727 0.0 -1.0660249848552386e-09 0.0 0.01 0.0 -1.0660249848552916e-09 0.0 0.010022421886330313 0.010053997227406658 0.0 -3.9686817960949615e-10 0.0 0.01 0.0 -3.968681796094697e-10 0.0 0.010022766964855025 0.010048037790568025 0.0 -3.0141601064329996e-09 0.0 0.01 0.0 -3.0141601064329996e-09 0.0 0.01001968492224377 0.010048002131763963 0.0 -4.669747617522578e-09 0.0 0.01 0.0 -4.669747617522578e-09 0.0 0.010021250647080376 0.010047729706957647 0.0 -4.260856981475917e-09 0.0 0.01 0.0 -4.260856981475917e-09 0.0 0.010021063916866265 0.010047121991905612 0.0 -2.8734856693568424e-09 0.0 0.01 0.0 -2.8734856693566306e-09 0.0 0.010021578443977431 0.010046124316594407 0.0 -1.4216047773409993e-09 0.0 0.01 0.0 -1.4216047773407875e-09 0.0 0.01002163395222397 0.01004477402176599 0.0 -4.659602179152791e-10 0.0 0.01 0.0 -4.659602179153056e-10 0.0 0.010021985844638103 0.010040579676815275 0.0 -4.315713085990191e-09 0.0 0.01 0.0 -4.315713085990614e-09 0.0 0.01001891684197204 0.010039942138043424 0.0 -5.9802453692939175e-09 0.0 0.01 0.0 -5.980245369293494e-09 0.0 0.010020239983132435 0.010038980138864364 0.0 -5.146949711055903e-09 0.0 0.01 0.0 -5.146949711055903e-09 0.0 0.010019981580376322 0.010037636717101426 0.0 -3.317509028031625e-09 0.0 0.01 0.0 -3.317509028031625e-09 0.0 0.010020430138472872 0.010035952259490964 0.0 -1.5207929359037937e-09 0.0 0.01 0.0 -1.5207929359037937e-09 0.0 0.01002057110188025 0.010034053509780235 0.0 -4.210979746294697e-10 0.0 0.01 0.0 -4.210979746294168e-10 0.0 0.010020975008570873 0.010032935954939355 0.0 -4.740334199903715e-09 0.0 0.01 0.0 -4.740334199903715e-09 0.0 0.01001812973418181 0.010031654569911607 0.0 -6.69110957779094e-09 0.0 0.01 0.0 -6.691109577789246e-09 0.0 0.01001911818634135 0.010029978015413535 0.0 -5.3104746439909555e-09 0.0 0.01 0.0 -5.3104746439909555e-09 0.0 0.010018705654634138 0.010027916264071898 0.0 -3.172618295410167e-09 0.0 0.01 0.0 -3.1726182954105906e-09 0.0 0.010019042555061159 0.01002560289162208 0.0 -1.3435375317483881e-09 0.0 0.01 0.0 -1.3435375317479646e-09 0.0 0.010019366162322671 0.010023271885759195 0.0 -2.9865116807611194e-10 0.0 0.01 0.0 -2.9865116807611194e-10 0.0 0.0100197949713872 0.010026208120990037 0.0 -4.134504631103395e-09 0.0 0.01 0.0 -4.134504631104242e-09 0.0 0.010017200024578324 0.010024300692432122 0.0 -1.0889535924047745e-08 0.0 0.01 0.0 -1.0889535924047745e-08 0.0 0.010017874460506561 0.010021958364301533 0.0 -8.444085533012777e-09 0.0 0.01 0.0 -8.444085533012777e-09 0.0 0.010017281997115412 0.010019278254717073 0.0 -4.107585934720739e-09 0.0 0.01 0.0 -4.107585934717351e-09 0.0 0.010017710991017007 0.010016495827258134 0.0 -1.1663082041496087e-09 0.0 0.01 0.0 -1.1663082041496087e-09 0.0 0.0100181105804342 0.010013887777074851 0.0 -1.768086051176977e-10 0.0 0.01 0.0 -1.768086051176977e-10 0.0 0.010018490609246386 0.010020960719061278 0.0 -2.520486630908641e-09 0.0 0.01 0.0 -2.520486630908641e-09 0.0 0.01001597570207465 0.010018541189273344 0.0 -2.6400313060643372e-08 0.0 0.01 0.0 -2.6400313060616267e-08 0.0 0.010016438897038342 0.01001566613750771 0.0 -2.256203155141974e-08 0.0 0.01 0.0 -2.256203155141974e-08 0.0 0.01001582654286682 0.01001254311005656 0.0 -1.1960719361341261e-08 0.0 0.01 0.0 -1.1960719361334485e-08 0.0 0.010016455578997467 0.010009480765716007 0.0 -3.276674300167637e-09 0.0 0.01 0.0 -3.276674300167637e-09 0.0 0.010016766171614419 0.010006744617348426 0.0 -2.8559472664507064e-10 0.0 0.01 0.0 -2.8559472664496476e-10 0.0 0.0100171102139435 0.010017125944453902 0.0 4.751248514685714e-09 0.0 0.01 0.0 4.751248514689102e-09 0.0 0.010014416867089907 0.010014385984438382 0.0 -5.144721440834485e-08 0.0 0.01 0.0 -5.144721440812801e-08 0.0 0.01001477387613288 0.010011162211812577 0.0 -4.793966946176997e-08 0.0 0.01 0.0 -4.793966946176997e-08 0.0 0.010014405066559007 0.010007794253201042 0.0 -2.6443079008259805e-08 0.0 0.01 0.0 -2.644307900825303e-08 0.0 0.010015164324001914 0.01000464433347965 0.0 -6.8492844984849595e-09 0.0 0.01 0.0 -6.8492844984858065e-09 0.0 0.010015394375200052 0.010001930258741019 0.0 -1.4472407320689737e-10 0.0 0.01 0.0 -1.4472407320692384e-10 0.0 0.010015708335400893 0.010014328085432454 0.0 1.8644595166914836e-08 0.0 0.01 0.0 1.8644595166901284e-08 0.0 0.010012521027271853 0.010011400817766311 0.0 -6.14941651240616e-08 0.0 0.01 0.0 -6.14941651240616e-08 0.0 0.010012996493055936 0.010007961648715981 0.0 -6.451085117115704e-08 0.0 0.01 0.0 -6.451085117112993e-08 0.0 0.010013049901234201 0.010004563672301839 0.0 -3.015545435201898e-08 0.0 0.01 0.0 -3.01554543520122e-08 0.0 0.010013934823006675 0.010001533552695462 0.0 -1.0630154396700164e-10 0.0 0.01 0.0 -1.0630154396700164e-10 0.0 0.010014125573503356 0.009998989653146403 0.0 6.148336941852182e-09 0.0 0.01 0.0 6.148336941852182e-09 0.0 0.010014365847452125 0.010012584766654078 0.0 -2.9478995351831682e-09 0.0 0.01 0.0 -2.947899535181474e-09 0.0 0.010010375475264776 0.010009120863367924 0.0 -4.959615190951394e-09 0.0 0.01 0.0 -4.959615190951394e-09 0.0 0.010011333187101396 0.010005422858030398 0.0 -2.703508688982624e-08 0.0 0.01 0.0 -2.703508688982624e-08 0.0 0.010011988825487718 0.010002198975134931 0.0 1.26073322856767e-08 0.0 0.01 0.0 1.2607332285678393e-08 0.0 0.01001291266758037 0.009999502537375915 0.0 4.110957899801417e-08 0.0 0.01 0.0 4.110957899802433e-08 0.0 0.01001304011265753 0.009997298095590558 0.0 3.193489238605433e-08 0.0 0.01 0.0 3.193489238605094e-08 0.0 0.010013149440923791 0.010012215200657303 0.0 -1.89903243557471e-07 0.0 0.01 0.0 -1.89903243557471e-07 0.0 0.010008869692163424 0.010007227581012183 0.0 1.3848808888029807e-07 0.0 0.01 0.0 1.3848808888029807e-07 0.0 0.01001034172346014 0.010003169007968611 0.0 1.2161021808619263e-07 0.0 0.01 0.0 1.2161021808619263e-07 0.0 0.010011338105998262 0.010000203609151433 0.0 1.399529183373436e-07 0.0 0.01 0.0 1.3995291833733005e-07 0.0 0.010012185339170872 0.009998015593939069 0.0 1.4389873291659433e-07 0.0 0.01 0.0 1.4389873291659433e-07 0.0 0.010012182378543993 0.009996302553044172 0.0 9.544629987866401e-08 0.0 0.01 0.0 9.544629987867079e-08 0.0 0.01001212702545957 0.010012123124566634 0.0 -6.577817068926205e-07 0.0 0.01 0.0 -6.577817068926205e-07 0.0 0.010007785998497467 0.010005703638258298 0.0 2.860957176412278e-07 0.0 0.01 0.0 2.8609571764101095e-07 0.0 0.010009650213277033 0.010001142816928642 0.0 3.749707169572623e-07 0.0 0.01 0.0 3.749707169573707e-07 0.0 0.010010729163601111 0.009998400903637848 0.0 3.6525804770039597e-07 0.0 0.01 0.0 3.652580477004502e-07 0.0 0.010011584569242725 0.009996791061125616 0.0 3.253924156845225e-07 0.0 0.01 0.0 3.253924156845496e-07 0.0 0.010011552704795038 0.009995664827611179 0.0 2.1486899077713135e-07 0.0 0.01 0.0 2.1486899077713135e-07 0.0 0.010011316035868573 0.010004708881960925 0.0 2.3140222647950476e-07 0.0 0.01 0.0 2.3140222647961319e-07 0.0 0.0100088138970463 0.009999579085311785 0.0 6.261250240826568e-07 0.0 0.01 0.0 6.261250240825484e-07 0.0 0.010009776075740176 0.00999695245841319 0.0 6.570711610775636e-07 0.0 0.01 0.0 6.570711610776178e-07 0.0 0.01001084678703049 0.00999579869983417 0.0 5.815456665724059e-07 0.0 0.01 0.0 5.815456665724059e-07 0.0 0.010011002080878151 0.009995237928129237 0.0 4.0309337667981775e-07 0.0 0.01 0.0 4.0309337667981775e-07 0.0 0.010010699772622231 0.010004365164018028 0.0 -2.2358837036375642e-07 0.0 0.01 0.0 -2.23588370363648e-07 0.0 0.010007939653192393 0.009999044217145437 0.0 7.31090006120521e-07 0.0 0.01 0.0 7.310900061206294e-07 0.0 0.010008846254598133 0.009996188311517037 0.0 9.348868884079438e-07 0.0 0.01 0.0 9.348868884078354e-07 0.0 0.010009832964914148 0.009995167622596127 0.0 8.853177392144449e-07 0.0 0.01 0.0 8.853177392144449e-07 0.0 0.010010374138430393 0.009994979849041857 0.0 6.644481994556774e-07 0.0 0.01 0.0 6.644481994557859e-07 0.0 0.010010178685870867 0.009999911533446117 0.0 4.640920294653617e-07 0.0 0.01 0.0 4.640920294652533e-07 0.0 0.010008324364969057 0.0099964890235408 0.0 1.0760261616370127e-06 0.0 0.01 0.0 1.0760261616369043e-06 0.0 0.010008901695279494 0.009995157231033966 0.0 1.1857467303549689e-06 0.0 0.01 0.0 1.1857467303548605e-06 0.0 0.010009690528263912 0.009994932001223717 0.0 9.863000474391722e-07 0.0 0.01 0.0 9.863000474391722e-07 0.0 0.010009694424720706 0.010001718719135678 0.0 -4.177515815564914e-07 0.0 0.01 0.0 -4.177515815564914e-07 0.0 0.010007914662492673 0.009998293055362262 0.0 8.88053094677088e-07 0.0 0.01 0.0 8.880530946769796e-07 0.0 0.010008617694965149 0.009996118537592276 0.0 1.3579569879721646e-06 0.0 0.01 0.0 1.3579569879721646e-06 0.0 0.010009057466894735 0.009995352003450593 0.0 1.3187350918782538e-06 0.0 0.01 0.0 1.3187350918783623e-06 0.0 0.010009275349251119 0.010001056317358186 0.0 8.492999494261213e-09 0.0 0.01 0.0 8.492999494262907e-09 0.0 0.01000863667596588 0.00999843406606552 0.0 1.1498341745987389e-06 0.0 0.01 0.0 1.149834174598522e-06 0.0 0.010008866977456777 0.009996782900555485 0.0 1.5221736276993525e-06 0.0 0.01 0.0 1.5221736276993525e-06 0.0 0.010009072227741807 0.01000163225368109 0.0 1.660715279787285e-07 0.0 0.01 0.0 1.660715279787285e-07 0.0 0.010008943136791152 0.009999734756299178 0.0 1.2807024705626096e-06 0.0 0.01 0.0 1.280702470562176e-06 0.0 0.01000920288382588 0.010002753913192443 0.0 -1.4755552161494455e-06 0.0 0.01 0.0 -1.4755552161494455e-06 0.0 0.010007946287275889 0.010003008211399224 0.0 1.7421062248210379e-07 0.0 0.01 0.0 1.74210622482158e-07 0.0 0.010009336814695598 0.00999876822762686 0.0 6.702912450918086e-15 0.0 0.01 0.0 6.702912450918086e-15 0.0 0.010000048850357952 0.009998728742455458 0.0 7.994587416418884e-15 0.0 0.01 0.0 7.994587416418884e-15 0.0 0.010000046400322945 0.009998709249948369 0.0 3.8689880056556335e-15 0.0 0.01 0.0 3.8689880056556335e-15 0.0 0.010000042500270938 0.009998697254616057 0.0 1.4968157726618602e-15 0.0 0.01 0.0 1.4968157726618602e-15 0.0 0.010000036600200936 0.009998693256181546 0.0 9.90418900299705e-16 0.0 0.01 0.0 9.90418900299705e-16 0.0 0.010000031750151211 0.009998693256181546 0.0 4.0593049547463215e-16 0.0 0.01 0.0 4.0593049547463215e-16 0.0 0.010000024900093002 0.009998694755593925 0.0 2.1422030506347145e-16 0.0 0.01 0.0 2.1422030506347145e-16 0.0 0.010000020500063036 0.009998697254616057 0.0 1.0183927456991484e-16 0.0 0.01 0.0 1.0183927456991484e-16 0.0 0.010000016600041335 0.00999869925383511 0.0 4.486908996961746e-17 0.0 0.01 0.0 4.486908996961746e-17 0.0 0.010000015150034429 0.009998531323614921 0.0 -6.181925776705087e-14 0.0 0.01 0.0 -6.181925776705087e-14 0.0 0.010000063000595359 0.009998490841702573 0.0 -2.878728777828364e-14 0.0 0.01 0.0 -2.8787287778257793e-14 0.0 0.010000062000576607 0.009998469351504459 0.0 -1.2772673972021783e-14 0.0 0.01 0.0 -1.2772673972021783e-14 0.0 0.010000055650464542 0.009998459855879665 0.0 -4.382736356323033e-15 0.0 0.01 0.0 -4.382736356323033e-15 0.0 0.010000048850357952 0.009998457856804211 0.0 -1.019364920891046e-15 0.0 0.01 0.0 -1.019364920891046e-15 0.0 0.010000041000252152 0.00999845885634179 0.0 7.239297195634648e-17 0.0 0.01 0.0 7.239297195634648e-17 0.0 0.010000033200165338 0.0099984628544951 0.0 7.461629883065441e-17 0.0 0.01 0.0 7.461629883065441e-17 0.0 0.010000027850116345 0.009998466852653206 0.0 5.3213713054179966e-17 0.0 0.01 0.0 5.3213713054179966e-17 0.0 0.010000022950079004 0.009998469851274934 0.0 1.157183040612529e-17 0.0 0.01 0.0 1.157183040612529e-17 0.0 0.01000001955005733 0.009998322422234517 0.0 -1.1203055265514414e-13 0.0 0.01 0.0 -1.1203055265535094e-13 0.0 0.010000076150869834 0.009998283442086841 0.0 -5.926028211528287e-14 0.0 0.01 0.0 -5.926028211533457e-14 0.0 0.010000074700837023 0.00999826345244437 0.0 -2.658658841785528e-14 0.0 0.01 0.0 -2.658658841785528e-14 0.0 0.010000067400681423 0.009998257455575007 0.0 -9.17967693999782e-15 0.0 0.01 0.0 -9.17967693999782e-15 0.0 0.010000059100523926 0.009998257455575007 0.0 -2.128964915077309e-15 0.0 0.01 0.0 -2.128964915077309e-15 0.0 0.010000050300379516 0.009998261453486717 0.0 -2.7164904343054916e-16 0.0 0.01 0.0 -2.7164904343054916e-16 0.0 0.010000041000252152 0.009998267950103472 0.0 4.4171327645455936e-18 0.0 0.01 0.0 4.4171327645455936e-18 0.0 0.010000033700170356 0.009998274946474142 0.0 -1.82244323470463e-17 0.0 0.01 0.0 -1.82244323470463e-17 0.0 0.010000027850116345 0.009998278944406832 0.0 -6.340440498071097e-17 0.0 0.01 0.0 -6.340440498071097e-17 0.0 0.010000024400089305 0.00999811453338174 0.0 -1.0183245834925857e-13 0.0 0.01 0.0 -1.0183245834925857e-13 0.0 0.010000086451121055 0.00999807705479998 0.0 -6.534578528083912e-14 0.0 0.01 0.0 -6.534578528089082e-14 0.0 0.010000084001058415 0.009998063062904171 0.0 -3.061243710556793e-14 0.0 0.01 0.0 -3.061243710556793e-14 0.0 0.010000076650881297 0.009998060064648425 0.0 -1.0029286737402182e-14 0.0 0.01 0.0 -1.0029286737402182e-14 0.0 0.010000066400661351 0.009998066560872614 0.0 -1.9654899383677564e-15 0.0 0.01 0.0 -1.9654899383677564e-15 0.0 0.010000056150472928 0.009998074056531648 0.0 8.966309465483332e-18 0.0 0.01 0.0 8.966309465483332e-18 0.0 0.010000046400322945 0.009998082551632264 0.0 7.319176174300354e-17 0.0 0.01 0.0 7.319176174300354e-17 0.0 0.010000038550222917 0.009998090047327261 0.0 2.4410242120354666e-17 0.0 0.01 0.0 2.4410242120354666e-17 0.0 0.010000032700160394 0.009998096543609896 0.0 -4.018331915878791e-18 0.0 0.01 0.0 -4.018331915878791e-18 0.0 0.010000029300128775 0.009997881673286375 0.0 -2.3821961622657947e-14 0.0 0.01 0.0 -2.3821961622657947e-14 0.0 0.010000094751346658 0.009997852192159993 0.0 -5.084864884837027e-14 0.0 0.01 0.0 -5.084864884834442e-14 0.0 0.010000089851210973 0.009997840699588156 0.0 -2.7777668707336157e-14 0.0 0.01 0.0 -2.7777668707336157e-14 0.0 0.010000082501020953 0.009997843697646551 0.0 -8.993369968227895e-15 0.0 0.01 0.0 -8.993369968227895e-15 0.0 0.010000072750793895 0.009997852691837927 0.0 -1.1420921927811315e-15 0.0 0.01 0.0 -1.1420921927811315e-15 0.0 0.010000061050559072 0.009997866682850536 0.0 5.410944626725837e-16 0.0 0.01 0.0 5.410944626725837e-16 0.0 0.010000051250393988 0.009997878175511978 0.0 3.868880009998124e-16 0.0 0.01 0.0 3.868880009998124e-16 0.0 0.010000042500270938 0.009997889168529575 0.0 1.3844742772421535e-16 0.0 0.01 0.0 1.3844742772421535e-16 0.0 0.010000036150196024 0.009997895664420654 0.0 3.415694953971416e-17 0.0 0.01 0.0 3.415694953971416e-17 0.0 0.010000031750151211 0.009997603361856563 0.0 1.09429169695547e-13 0.0 0.01 0.0 1.094291696954436e-13 0.0 0.010000098151445038 0.009997580878105837 0.0 -1.5161992203411612e-14 0.0 0.01 0.0 -1.5161992203411612e-14 0.0 0.01000009375131838 0.009997577380647138 0.0 -2.166982126517669e-14 0.0 0.01 0.0 -2.166982126517669e-14 0.0 0.010000085951108127 0.009997585874481778 0.0 -7.91266025938263e-15 0.0 0.01 0.0 -7.91266025938263e-15 0.0 0.010000076650881295 0.009997602862216008 0.0 -2.972727296828019e-16 0.0 0.01 0.0 -2.972727296828019e-16 0.0 0.010000065450642562 0.009997620849323109 0.0 1.3224087611133568e-15 0.0 0.01 0.0 1.3224087611133568e-15 0.0 0.010000055650464542 0.009997637837235625 0.0 1.1791812834316807e-15 0.0 0.01 0.0 1.1791812834316807e-15 0.0 0.010000047350336307 0.009997649828755423 0.0 3.835247488176603e-16 0.0 0.01 0.0 3.835247488176603e-16 0.0 0.010000040550246647 0.009997657823125927 0.0 1.0019056285470268e-16 0.0 0.01 0.0 1.0019056285470268e-16 0.0 0.010000036150196024 0.009997271117426584 0.0 2.951118484130627e-13 0.0 0.01 0.0 2.951118484130627e-13 0.0 0.010000102551577503 0.009997256129736908 0.0 3.1338665915027055e-14 0.0 0.01 0.0 3.1338665915027055e-14 0.0 0.010000099101473148 0.009997260126447563 0.0 -1.6683239308516244e-14 0.0 0.01 0.0 -1.6683239308516244e-14 0.0 0.010000090801236714 0.009997277112521326 0.0 -8.236810267610527e-15 0.0 0.01 0.0 -8.236810267610527e-15 0.0 0.010000081050985378 0.009997301093008159 0.0 6.056128035477452e-17 0.0 0.01 0.0 6.056128035477452e-17 0.0 0.010000072250783018 0.009997324074469969 0.0 2.094001222497347e-15 0.0 0.01 0.0 2.094001222497347e-15 0.0 0.010000062000576607 0.009997344558080384 0.0 1.5844978803055061e-15 0.0 0.01 0.0 1.5844978803055061e-15 0.0 0.010000051250393988 0.009997361044980219 0.0 7.572887926023247e-16 0.0 0.01 0.0 7.572887926023247e-16 0.0 0.010000045900316024 0.009997370037869054 0.0 3.0531153822214333e-16 0.0 0.01 0.0 3.0531153822214333e-16 0.0 0.010000042000264601 0.009996875964549654 0.0 8.292423824647618e-12 0.0 0.01 0.0 8.29242382464431e-12 0.0 0.010000110351826606 0.009996871968299719 0.0 7.036000719916665e-14 0.0 0.01 0.0 7.03600071991408e-14 0.0 0.010000106951715777 0.0099968879533282 0.0 -1.754184812704802e-14 0.0 0.01 0.0 -1.754184812704802e-14 0.0 0.010000098651459798 0.009996913429625838 0.0 -1.1442359439671194e-14 0.0 0.01 0.0 -1.1442359439671194e-14 0.0 0.010000091301250373 0.009996943901531758 0.0 -6.685300423272073e-16 0.0 0.01 0.0 -6.685300423272073e-16 0.0 0.010000082051009844 0.00999697337462389 0.0 2.587254423174569e-15 0.0 0.01 0.0 2.587254423174569e-15 0.0 0.010000072750793895 0.009996999351124605 0.0 1.802888893875167e-15 0.0 0.01 0.0 1.802888893875167e-15 0.0 0.010000063000595357 0.009997019832739094 0.0 1.0192455285785675e-15 0.0 0.01 0.0 1.0192455285785675e-15 0.0 0.010000056150472928 0.009997031822035258 0.0 1.914383081672159e-16 0.0 0.01 0.0 1.914383081672159e-16 0.0 0.010000052750417389 0.009996420922386841 0.0 6.928577549524479e-11 0.0 0.01 0.0 6.928577549521832e-11 0.0 0.010000126002381454 0.009996429413274279 0.0 9.822670341032894e-14 0.0 0.01 0.0 9.822670341032894e-14 0.0 0.010000121602218031 0.009996455385534862 0.0 -2.8213866177093832e-14 0.0 0.01 0.0 -2.8213866177093832e-14 0.0 0.01000011475197517 0.00999649134746065 0.0 -1.8624680966801562e-14 0.0 0.01 0.0 -1.8624680966801562e-14 0.0 0.010000107401730244 0.00999652980717188 0.0 -2.529727775568026e-15 0.0 0.01 0.0 -2.529727775568026e-15 0.0 0.01000009715141574 0.009996566269385946 0.0 2.4420228975961693e-15 0.0 0.01 0.0 2.4420228975961693e-15 0.0 0.010000088851184166 0.00999659623862775 0.0 2.1911702958132395e-15 0.0 0.01 0.0 2.1911702958132395e-15 0.0 0.010000080550973258 0.009996621712695209 0.0 1.2772962961984662e-15 0.0 0.01 0.0 1.2772962961984662e-15 0.0 0.010000072250783018 0.009996635698540547 0.0 2.1420895020465041e-16 0.0 0.01 0.0 2.1420895020465041e-16 0.0 0.010000068850711056 0.00999589303146476 0.0 2.063982311842325e-10 0.0 0.01 0.0 2.063982311842325e-10 0.0 0.010000159203801803 0.009995920497709383 0.0 7.554202892114728e-13 0.0 0.01 0.0 7.554202892114728e-13 0.0 0.01000015040339311 0.009995959949620563 0.0 -4.612041824280808e-14 0.0 0.01 0.0 -4.612041824280808e-14 0.0 0.010000141603007657 0.009996006893009545 0.0 -3.0294097165611316e-14 0.0 0.01 0.0 -3.0294097165611316e-14 0.0 0.010000136252784673 0.009996054336468255 0.0 -6.275534543163028e-15 0.0 0.01 0.0 -6.275534543163028e-15 0.0 0.01000012600238145 0.00999609728586608 0.0 1.2130468405471942e-15 0.0 0.01 0.0 1.2130468405471942e-15 0.0 0.010000117202060416 0.009996134742188207 0.0 1.722091218696376e-15 0.0 0.01 0.0 1.722091218696376e-15 0.0 0.01000010595168384 0.009996163209274628 0.0 6.797853849123323e-16 0.0 0.01 0.0 6.797853849123323e-16 0.0 0.010000098651459798 0.009996180689185053 0.0 7.129009536619121e-17 0.0 0.01 0.0 7.129009536619121e-17 0.0 0.01000009375131838 0.009995288332065425 0.0 3.6019218697176934e-10 0.0 0.01 0.0 3.601921869718752e-10 0.0 0.010000217307083168 0.009995335765293411 0.0 2.9866507548221346e-12 0.0 0.01 0.0 2.9866507548221346e-12 0.0 0.010000199705982211 0.009995391188131086 0.0 -7.200395285522831e-14 0.0 0.01 0.0 -7.200395285522831e-14 0.0 0.010000187505273605 0.009995450107113658 0.0 -4.312402017980877e-14 0.0 0.01 0.0 -4.312402017980877e-14 0.0 0.0100001777547394 0.009995508028484994 0.0 -1.1371868775055181e-14 0.0 0.01 0.0 -1.1371868775055181e-14 0.0 0.010000166504158452 0.009995557961509846 0.0 -7.221000013888208e-16 0.0 0.01 0.0 -7.221000013888208e-16 0.0 0.010000155253615478 0.00999560290187204 0.0 6.357893057258634e-16 0.0 0.01 0.0 6.357893057258634e-16 0.0 0.010000144053112635 0.009995636857214375 0.0 5.315392702669577e-16 0.0 0.01 0.0 5.315392702669577e-16 0.0 0.010000134752723697 0.009995657330455654 0.0 1.2565267536542511e-16 0.0 0.01 0.0 1.2565267536542511e-16 0.0 0.010000127952455733 0.009994603870876088 0.0 4.108312925290076e-10 0.0 0.01 0.0 4.108312925291135e-10 0.0 0.01000030716415192 0.00999467176154616 0.0 3.3848172101282524e-12 0.0 0.01 0.0 3.3848172101290796e-12 0.0 0.010000278311618174 0.009994743647293058 0.0 -8.301890283619144e-14 0.0 0.01 0.0 -8.301890283619144e-14 0.0 0.010000254409708318 0.009994817531482608 0.0 -4.89189637004636e-14 0.0 0.01 0.0 -4.89189637004636e-14 0.0 0.010000240258658356 0.009994886424973405 0.0 -1.457280820271555e-14 0.0 0.01 0.0 -1.457280820271555e-14 0.0 0.010000224107533404 0.009994947831242076 0.0 -2.364259211696995e-15 0.0 0.01 0.0 -2.364259211696995e-15 0.0 0.010000208006489824 0.00999499725662188 0.0 5.702811123296633e-17 0.0 0.01 0.0 5.702811123296633e-17 0.0 0.010000193855636856 0.009995036198346642 0.0 6.830623493369112e-16 0.0 0.01 0.0 6.830623493369112e-16 0.0 0.010000183605056499 0.00999505866493336 0.0 -2.6274094130874453e-16 0.0 0.01 0.0 -2.6274094130874453e-16 0.0 0.010000175304609648 0.009993831212788918 0.0 3.0320861023912927e-10 0.0 0.01 0.0 3.0320861023912927e-10 0.0 0.010000438978903695 0.009993921546634397 0.0 9.525654682256195e-13 0.0 0.01 0.0 9.525654682258262e-13 0.0 0.010000385272264063 0.009994011882929511 0.0 -6.564255729600399e-14 0.0 0.01 0.0 -6.564255729600399e-14 0.0 0.010000348668234585 0.009994100225211525 0.0 -4.027636414432987e-14 0.0 0.01 0.0 -4.027636414432987e-14 0.0 0.010000322765625975 0.009994181082912825 0.0 -1.3109927276714155e-14 0.0 0.01 0.0 -1.3109927276714155e-14 0.0 0.010000300313527692 0.00999425195979596 0.0 -2.900546957333885e-15 0.0 0.01 0.0 -2.900546957333885e-15 0.0 0.010000278811659958 0.009994310359487698 0.0 -6.125175318739324e-16 0.0 0.01 0.0 -6.125175318739324e-16 0.0 0.01000026026015995 0.009994351788949574 0.0 -6.942664962069864e-16 0.0 0.01 0.0 -6.942664962069864e-16 0.0 0.01000024510901147 0.009994381239121304 0.0 -2.1426033976602345e-16 0.0 0.01 0.0 -2.1426033976602345e-16 0.0 0.010000236358379528 0.009992966926582079 0.0 1.2675034308244147e-10 0.0 0.01 0.0 1.26750343082415e-10 0.0 0.010000600154023412 0.00999307819334951 0.0 -9.362297247145574e-14 0.0 0.01 0.0 -9.362297247145574e-14 0.0 0.010000524941331619 0.009993185970981757 0.0 -2.69043729061792e-14 0.0 0.01 0.0 -2.69043729061792e-14 0.0 0.010000469783102352 0.009993288762157661 0.0 -1.2588636648308175e-14 0.0 0.01 0.0 -1.2588636648308175e-14 0.0 0.01000042822750525 0.009993382075340713 0.0 -3.4245535745844795e-15 0.0 0.01 0.0 -3.4245535745844795e-15 0.0 0.010000395523464583 0.009993464412673028 0.0 -1.412895561233065e-15 0.0 0.01 0.0 -1.412895561233065e-15 0.0 0.010000366720171565 0.009993529285944039 0.0 -6.317688452881163e-16 0.0 0.01 0.0 -6.317688452881163e-16 0.0 0.010000340817422685 0.009993579189319913 0.0 -1.250491340613012e-15 0.0 0.01 0.0 -1.250491340613012e-15 0.0 0.010000322265577597 0.0099936096307463 0.0 -3.4803138199717257e-16 0.0 0.01 0.0 -3.4803138199717257e-16 0.0 0.010000309564373921 0.009992000109985862 0.0 1.6283346719644988e-11 0.0 0.01 0.0 1.6283346719644988e-11 0.0 0.010000791593983234 0.009992131796046804 0.0 -7.27745944670908e-14 0.0 0.01 0.0 -7.27745944670908e-14 0.0 0.010000691471713358 0.00999225849891394 0.0 1.9906742471984145e-14 0.0 0.01 0.0 1.9906742471984145e-14 0.0 0.010000614806693443 0.009992377723729726 0.0 1.9563867036006627e-14 0.0 0.01 0.0 1.9563867036006627e-14 0.0 0.010000558146725689 0.009992485977572846 0.0 9.377387563584474e-15 0.0 0.01 0.0 9.377387563584474e-15 0.0 0.010000510289056581 0.009992577771606476 0.0 2.2791606996290654e-15 0.0 0.01 0.0 2.2791606996290654e-15 0.0 0.01000047073323638 0.009992653603368441 0.0 -3.056298868739306e-15 0.0 0.01 0.0 -3.056298868739306e-15 0.0 0.010000437028647436 0.009992709979415561 0.0 -3.2469701881097157e-15 0.0 0.01 0.0 -3.2469701881097157e-15 0.0 0.010000411625413928 0.009992743905284315 0.0 -1.2966764599312747e-15 0.0 0.01 0.0 -1.2966764599312747e-15 0.0 0.010000396023523952 0.009990928857788593 0.0 -1.3517049930990866e-12 0.0 0.01 0.0 -1.351704993098673e-12 0.0 0.010001004051197583 0.009991075960003294 0.0 -2.930833667584766e-14 0.0 0.01 0.0 -2.930833667584766e-14 0.0 0.010000879516018659 0.009991220575293657 0.0 6.138465199216812e-14 0.0 0.01 0.0 6.138465199216812e-14 0.0 0.010000783292022346 0.009991356220169821 0.0 4.9731314949434044e-14 0.0 0.01 0.0 4.9731314949434044e-14 0.0 0.010000705624678903 0.00999147940247253 0.0 2.149934374764052e-14 0.0 0.01 0.0 2.149934374764052e-14 0.0 0.010000642161850481 0.009991583637210436 0.0 2.2171067628940964e-15 0.0 0.01 0.0 2.2171067628940964e-15 0.0 0.010000588902016754 0.009991670418858793 0.0 -6.480823419741173e-15 0.0 0.01 0.0 -6.480823419741173e-15 0.0 0.010000544944541447 0.009991733760914735 0.0 -4.769634589177255e-15 0.0 0.01 0.0 -4.769634589177255e-15 0.0 0.010000514189655932 0.009991770669439813 0.0 -1.9188219846865346e-15 0.0 0.01 0.0 -1.9188219846865346e-15 0.0 0.010000494686704818 0.00998974130773542 0.0 -1.1036071925385364e-12 0.0 0.01 0.0 -1.1036071925385364e-12 0.0 0.010001224824992693 0.009989901318130313 0.0 3.5540971301552924e-15 0.0 0.01 0.0 3.5540971301552924e-15 0.0 0.01000108512659941 0.009990063330257657 0.0 8.486039073970247e-14 0.0 0.01 0.0 8.486039073970247e-14 0.0 0.010000966940227932 0.009990216376645452 0.0 6.802567935919456e-14 0.0 0.01 0.0 6.802567935919456e-14 0.0 0.010000869263329677 0.009990355969060876 0.0 2.654880625408667e-14 0.0 0.01 0.0 2.654880625408667e-14 0.0 0.01000079014363918 0.009990475624360128 0.0 -1.898640647375624e-15 0.0 0.01 0.0 -1.898640647375624e-15 0.0 0.010000721778137031 0.009990570853108135 0.0 -1.2982887815786157e-14 0.0 0.01 0.0 -1.2982887815786157e-14 0.0 0.010000667566840872 0.00999064065601425 0.0 -9.60631096690019e-15 0.0 0.01 0.0 -9.60631096690019e-15 0.0 0.010000628459239188 0.009990682039856575 0.0 -2.9811757549904493e-15 0.0 0.01 0.0 -2.9811757549904493e-15 0.0 0.010000603554637333 0.009988422636382742 0.0 -8.620027964744692e-13 0.0 0.01 0.0 -8.620027964745725e-13 0.0 0.010001460269795915 0.009988597532133462 0.0 4.4733028262951334e-14 0.0 0.01 0.0 4.4733028262951334e-14 0.0 0.010001301053867134 0.00998877692193452 0.0 9.547091993276298e-14 0.0 0.01 0.0 9.547091993276298e-14 0.0 0.010001164753465998 0.00998894834788627 0.0 7.308762573643701e-14 0.0 0.01 0.0 7.308762573643701e-14 0.0 0.010001048514884469 0.009989105329973118 0.0 2.0800032058745037e-14 0.0 0.01 0.0 2.0800032058745037e-14 0.0 0.01000094983531093 0.009989239393550788 0.0 -1.5269925236026932e-14 0.0 0.01 0.0 -1.5269925236026932e-14 0.0 0.010000867312821682 0.009989348542234017 0.0 -2.3040715979033484e-14 0.0 0.01 0.0 -2.3040715979033484e-14 0.0 0.010000801846433345 0.009989426792578712 0.0 -1.5660452066212567e-14 0.0 0.01 0.0 -1.5660452066212567e-14 0.0 0.010000753485152426 0.009989475139252123 0.0 -5.165365297821106e-15 0.0 0.01 0.0 -5.165365297821106e-15 0.0 0.010000721778137031 0.009986956066091257 0.0 -6.397880079319554e-13 0.0 0.01 0.0 -6.397880079320071e-13 0.0 0.010001702584720523 0.009987149811607879 0.0 9.871400354143079e-14 0.0 0.01 0.0 9.871400354143079e-14 0.0 0.010001528650444399 0.009987351039968284 0.0 1.0732511899573476e-13 0.0 0.01 0.0 1.0732511899573476e-13 0.0 0.010001374783452473 0.009987544808473574 0.0 7.757847503726199e-14 0.0 0.01 0.0 7.757847503726199e-14 0.0 0.010001238980222767 0.00998772065443621 0.0 1.1762143647519035e-14 0.0 0.01 0.0 1.1762143647519035e-14 0.0 0.010001124189541908 0.0099878720986298 0.0 -3.0754206141726834e-14 0.0 0.01 0.0 -3.0754206141726834e-14 0.0 0.010001024107297885 0.009987992661103595 0.0 -3.903519041486316e-14 0.0 0.01 0.0 -3.903519041486316e-14 0.0 0.010000945434059936 0.009988081342073494 0.0 -2.1538026871785728e-14 0.0 0.01 0.0 -2.1538026871785728e-14 0.0 0.010000886367833264 0.009988135149656076 0.0 -7.426313842848956e-15 0.0 0.01 0.0 -7.426313842848956e-15 0.0 0.01000085165878605 0.009985332832093791 0.0 -3.6104824916000633e-13 0.0 0.01 0.0 -3.610482491599805e-13 0.0 0.010001955673549298 0.0099855488856729 0.0 1.6002322694000895e-13 0.0 0.01 0.0 1.6002322694000895e-13 0.0 0.010001766067739148 0.009985774910647442 0.0 1.2380998717324391e-13 0.0 0.01 0.0 1.2380998717324391e-13 0.0 0.010001594131107091 0.009985993980335218 0.0 9.262882200605643e-14 0.0 0.01 0.0 9.262882200605643e-14 0.0 0.010001441711719981 0.009986194142972605 0.0 1.9257344970870866e-14 0.0 0.01 0.0 1.9257344970870866e-14 0.0 0.010001308356724813 0.009986364440065556 0.0 -3.819052115745743e-14 0.0 0.01 0.0 -3.819052115745743e-14 0.0 0.010001193563655128 0.00998649889129327 0.0 -4.114729893015228e-14 0.0 0.01 0.0 -4.114729893015228e-14 0.0 0.010001103682690438 0.009986599484281612 0.0 -2.7737418997716325e-14 0.0 0.01 0.0 -2.7737418997716325e-14 0.0 0.010001035310758064 0.009986660737936814 0.0 -8.297223808906253e-15 0.0 0.01 0.0 -8.297223808906253e-15 0.0 0.01000099524855824 0.009983534257569263 0.0 -5.366972232254596e-14 0.0 0.01 0.0 -5.366972232254596e-14 0.0 0.010002222440666895 0.009983782536397968 0.0 2.1682340824124752e-13 0.0 0.01 0.0 2.1682340824124752e-13 0.0 0.010002016709903824 0.009984039293105174 0.0 1.5595173838774791e-13 0.0 0.01 0.0 1.5595173838774791e-13 0.0 0.010001827650924115 0.009984288604909484 0.0 1.6049010824565736e-13 0.0 0.01 0.0 1.6049010824565736e-13 0.0 0.010001659112806975 0.009984515041993557 0.0 7.869756163531057e-14 0.0 0.01 0.0 7.869756163531057e-14 0.0 0.010001509641783951 0.00998470765005614 0.0 2.6110025301781772e-15 0.0 0.01 0.0 2.6110025301781772e-15 0.0 0.010001382136492395 0.00998486244135788 0.0 -1.9157053365537808e-14 0.0 0.01 0.0 -1.9157053365537808e-14 0.0 0.01000127809498727 0.009984972939874085 0.0 -1.3163620370250713e-14 0.0 0.01 0.0 -1.3163620370250713e-14 0.0 0.010001202366818136 0.009985041629989946 0.0 -5.437456169381769e-15 0.0 0.01 0.0 -5.437456169381769e-15 0.0 0.010001156950749287 0.009981554163148153 0.0 1.2981383092048265e-13 0.0 0.01 0.0 1.2981383092048265e-13 0.0 0.010002503389730346 0.009981845060225949 0.0 2.0550966092780815e-13 0.0 0.01 0.0 2.0550966092780815e-13 0.0 0.010002278628585685 0.009982139464016562 0.0 2.0293781334155034e-13 0.0 0.01 0.0 2.0293781334155034e-13 0.0 0.010002077297095254 0.009982423449110569 0.0 2.873879870134947e-13 0.0 0.01 0.0 2.873879870134947e-13 0.0 0.010001895088568016 0.009982679106159995 0.0 2.1421047784285823e-13 0.0 0.01 0.0 2.1421047784285823e-13 0.0 0.010001734351091744 0.009982897972157552 0.0 1.0246712769472828e-13 0.0 0.01 0.0 1.0246712769472828e-13 0.0 0.01000159608204038 0.009983071085460399 0.0 4.3881636905547286e-14 0.0 0.01 0.0 4.3881636905547286e-14 0.0 0.01000148423037559 0.009983198438926878 0.0 1.5499884802083406e-14 0.0 0.01 0.0 1.5499884802083406e-14 0.0 0.01000140264505679 0.00998327306236325 0.0 3.877764668331293e-15 0.0 0.01 0.0 3.877764668331293e-15 0.0 0.010001351323862083 0.009979393370434382 0.0 -1.1902086931867771e-13 0.0 0.01 0.0 -1.1902086931867771e-13 0.0 0.010002793169833976 0.009979732780947383 0.0 -5.309650333666226e-14 0.0 0.01 0.0 -5.309650333666226e-14 0.0 0.010002557630886857 0.009980074711178814 0.0 1.5921086180281173e-13 0.0 0.01 0.0 1.5921086180281173e-13 0.0 0.010002347026021173 0.009980397788018878 0.0 4.2672473596863537e-13 0.0 0.01 0.0 4.267247359686095e-13 0.0 0.010002160850189293 0.009980688086894266 0.0 3.8856968039840085e-13 0.0 0.01 0.0 3.8856968039840085e-13 0.0 0.010001995697262208 0.009980933170561519 0.0 2.3504500655892817e-13 0.0 0.01 0.0 2.3504500655892817e-13 0.0 0.010001850113311265 0.009981128057276085 0.0 1.1907582097853296e-13 0.0 0.01 0.0 1.1907582097853296e-13 0.0 0.010001731899817673 0.009981268263452662 0.0 5.446389036239992e-14 0.0 0.01 0.0 5.446389036239992e-14 0.0 0.010001647356978359 0.00998135477659433 0.0 1.3743257111908427e-14 0.0 0.01 0.0 1.3743257111908427e-14 0.0 0.010001594631346287 0.009977077060765924 0.0 -1.6360288809821084e-12 0.0 0.01 0.0 -1.6360288809821084e-12 0.0 0.010003098139175434 0.009977476326557306 0.0 -1.044876957265337e-12 0.0 0.01 0.0 -1.044876957265337e-12 0.0 0.010002855722807302 0.009977867693276927 0.0 -3.239670367048999e-13 0.0 0.01 0.0 -3.239670367048999e-13 0.0 0.010002648001415497 0.00997823178513918 0.0 3.487635604995936e-13 0.0 0.01 0.0 3.487635604995936e-13 0.0 0.010002471115660192 0.009978555179817996 0.0 4.572766257774835e-13 0.0 0.01 0.0 4.572766257774318e-13 0.0 0.010002310850757956 0.009978828922465804 0.0 3.171045721831513e-13 0.0 0.01 0.0 3.171045721831513e-13 0.0 0.010002168204963111 0.009979045547860301 0.0 1.718637591876657e-13 0.0 0.01 0.0 1.718637591876657e-13 0.0 0.010002053382283708 0.009979201566631138 0.0 7.55554602656082e-14 0.0 0.01 0.0 7.55554602656082e-14 0.0 0.010001965429285034 0.009979296473348382 0.0 2.0309618270029988e-14 0.0 0.01 0.0 2.0309618270029988e-14 0.0 0.010001913148880782 0.00997467006689544 0.0 -6.195860262047512e-12 0.0 0.01 0.0 -6.195860262047512e-12 0.0 0.010003418752381362 0.009975136040854177 0.0 -4.08532902038387e-12 0.0 0.01 0.0 -4.085329020383663e-12 0.0 0.010003183669717811 0.009975577759100452 0.0 -2.1762073092267124e-12 0.0 0.01 0.0 -2.1762073092267124e-12 0.0 0.010003000850225053 0.009975980816156898 0.0 -5.062171990748573e-13 0.0 0.01 0.0 -5.062171990748056e-13 0.0 0.01000284836651675 0.009976335268766163 0.0 1.4828796520475863e-13 0.0 0.01 0.0 1.4828796520475863e-13 0.0 0.010002710101299397 0.009976634150324697 0.0 2.206639339433813e-13 0.0 0.01 0.0 2.206639339433813e-13 0.0 0.010002583050477888 0.009976871487373633 0.0 1.4156775000372967e-13 0.0 0.01 0.0 1.4156775000372967e-13 0.0 0.010002473567477813 0.009977043294215763 0.0 6.76034599585831e-14 0.0 0.01 0.0 6.76034599585831e-14 0.0 0.010002389506188186 0.009977148567533303 0.0 1.927196445212171e-14 0.0 0.01 0.0 1.927196445212171e-14 0.0 0.010002337269168788 0.009972315887335133 0.0 -1.673797690489093e-11 0.0 0.01 0.0 -1.6737976904891756e-11 0.0 0.01000377363497389 0.009972846994609133 0.0 -1.1785620870442518e-11 0.0 0.01 0.0 -1.1785620870443345e-11 0.0 0.010003568809551572 0.009973334041498586 0.0 -7.425319460441337e-12 0.0 0.01 0.0 -7.425319460440924e-12 0.0 0.010003432416413936 0.009973769567475208 0.0 -3.2949795251451317e-12 0.0 0.01 0.0 -3.2949795251453385e-12 0.0 0.010003327359962186 0.009974149583214787 0.0 -1.0585405721939214e-12 0.0 0.01 0.0 -1.0585405721939214e-12 0.0 0.010003224709141969 0.009974469107867638 0.0 -2.3065691713797704e-13 0.0 0.01 0.0 -2.3065691713797704e-13 0.0 0.010003124013309338 0.009974724650457331 0.0 -9.93686082837225e-15 0.0 0.01 0.0 -9.93686082837225e-15 0.0 0.010003028725421201 0.009974909248778878 0.0 1.709505669021697e-14 0.0 0.01 0.0 1.709505669021697e-14 0.0 0.01000295245703584 0.009975022891014282 0.0 3.259390527155479e-15 0.0 0.01 0.0 3.259390527155479e-15 0.0 0.010002906066292526 0.009970241861037208 0.0 -3.4955880508497185e-11 0.0 0.01 0.0 -3.4955880508497185e-11 0.0 0.01000421115858568 0.009970832112961719 0.0 -2.6700740846709426e-11 0.0 0.01 0.0 -2.6700740846709426e-11 0.0 0.010004049808814974 0.009971354556015218 0.0 -1.8804305151582113e-11 0.0 0.01 0.0 -1.8804305151582113e-11 0.0 0.010003979924709907 0.009971812132898114 0.0 -1.0002423913596818e-11 0.0 0.01 0.0 -1.0002423913596818e-11 0.0 0.010003943231135102 0.009972207791859351 0.0 -4.199203135024861e-12 0.0 0.01 0.0 -4.199203135024861e-12 0.0 0.01000389487432577 0.009972540518992316 0.0 -1.4503382084641517e-12 0.0 0.01 0.0 -1.4503382084641e-12 0.0 0.010003827396223467 0.009972806327933804 0.0 -4.290630284995006e-13 0.0 0.01 0.0 -4.290630284995006e-13 0.0 0.010003755514524553 0.009972999747052916 0.0 -1.0349479969663751e-13 0.0 0.01 0.0 -1.0349479969663751e-13 0.0 0.010003693445223422 0.009973118779796937 0.0 -1.9149205526567668e-14 0.0 0.01 0.0 -1.9149205526567668e-14 0.0 0.010003651398933909 0.009968779815973827 0.0 -5.598984774219882e-11 0.0 0.01 0.0 -5.5989847742202126e-11 0.0 0.010004801806388679 0.009969409442054615 0.0 -4.568108005444383e-11 0.0 0.01 0.0 -4.568108005444218e-11 0.0 0.01000468784432348 0.009969946031123344 0.0 -3.657210675958747e-11 0.0 0.01 0.0 -3.657210675958747e-11 0.0 0.010004690297771561 0.00997040936100573 0.0 -2.223925420622281e-11 0.0 0.01 0.0 -2.2239254206221983e-11 0.0 0.010004734309932572 0.00997080683554198 0.0 -1.0667032277404964e-11 0.0 0.01 0.0 -1.066703227740455e-11 0.0 0.01000475143427505 0.009971141900877278 0.0 -4.2003605241041145e-12 0.0 0.01 0.0 -4.2003605241041145e-12 0.0 0.010004730905103025 0.009971410572336489 0.0 -1.3934126145703924e-12 0.0 0.01 0.0 -1.393412614570444e-12 0.0 0.010004687393690351 0.00997160589326608 0.0 -4.1209242976000144e-13 0.0 0.01 0.0 -4.1209242976000144e-13 0.0 0.01000464338214851 0.009971726859190892 0.0 -8.424171134743876e-14 0.0 0.01 0.0 -8.424171134743876e-14 0.0 0.010004608183347063 0.00996834692437387 0.0 -6.452684422444279e-11 0.0 0.01 0.0 -6.452684422444279e-11 0.0 0.010005653240257914 0.009968973991625467 0.0 -5.298131962397449e-11 0.0 0.01 0.0 -5.298131962397284e-11 0.0 0.0100055651922599 0.009969499115268904 0.0 -5.152958727901105e-11 0.0 0.01 0.0 -5.152958727901105e-11 0.0 0.01000562584395937 0.009969946031123346 0.0 -3.7133172522866656e-11 0.0 0.01 0.0 -3.7133172522866656e-11 0.0 0.010005742242217754 0.009970325609966229 0.0 -2.0398709462199316e-11 0.0 0.01 0.0 -2.0398709462199316e-11 0.0 0.010005829293139997 0.00997064328041351 0.0 -8.925255935310434e-12 0.0 0.01 0.0 -8.925255935310434e-12 0.0 0.010005860597968399 0.00997090001600191 0.0 -3.2386586904476774e-12 0.0 0.01 0.0 -3.2386586904474706e-12 0.0 0.010005852283377317 0.0099710888631376 0.0 -1.0133530793852424e-12 0.0 0.01 0.0 -1.013353079385294e-12 0.0 0.010005827339728443 0.009971205349004787 0.0 -2.1557044092419443e-13 0.0 0.01 0.0 -2.1557044092419443e-13 0.0 0.010005801895395289 0.009969457003237078 0.0 -3.9570896414691076e-11 0.0 0.01 0.0 -3.957089641468942e-11 0.0 0.010006885054073475 0.0099700277905266 0.0 -2.230601742378212e-11 0.0 0.01 0.0 -2.230601742378212e-11 0.0 0.01000678033972204 0.00997049509650445 0.0 -4.362695114852337e-11 0.0 0.01 0.0 -4.362695114852337e-11 0.0 0.010006860102700023 0.009970889607416666 0.0 -4.404881890231704e-11 0.0 0.01 0.0 -4.404881890231539e-11 0.0 0.010007020586380335 0.009971224185400807 0.0 -2.956408872450184e-11 0.0 0.01 0.0 -2.956408872450184e-11 0.0 0.010007163940960734 0.009971503273986262 0.0 -1.4636330060029998e-11 0.0 0.01 0.0 -1.4636330060029998e-11 0.0 0.01000724566735329 0.00997173280844831 0.0 -5.797287726805153e-12 0.0 0.01 0.0 -5.797287726805153e-12 0.0 0.01000727453012609 0.009971900383573045 0.0 -1.9434304963998464e-12 0.0 0.01 0.0 -1.94343049639995e-12 0.0 0.01000727453012609 0.009972006981613706 0.0 -4.326128294988905e-13 0.0 0.01 0.0 -4.326128294988905e-13 0.0 0.010007266713100465 0.009972852449932696 0.0 3.873311110148066e-11 0.0 0.01 0.0 3.8733111101479006e-11 0.0 0.010008591158532419 0.009973273528736261 0.0 7.21165269345704e-11 0.0 0.01 0.0 7.211652693457371e-11 0.0 0.010008427140547914 0.009973625212566973 0.0 1.1637518120004882e-11 0.0 0.01 0.0 1.1637518120004882e-11 0.0 0.01000847070077267 0.009973920377922656 0.0 -2.54481029073719e-11 0.0 0.01 0.0 -2.54481029073719e-11 0.0 0.010008631763251797 0.009974173397657798 0.0 -2.9006676306281825e-11 0.0 0.01 0.0 -2.9006676306281825e-11 0.0 0.010008801155430715 0.009974389223825542 0.0 -1.7505531726504213e-11 0.0 0.01 0.0 -1.7505531726504213e-11 0.0 0.010008925485438547 0.009974567352985922 0.0 -7.616828023591889e-12 0.0 0.01 0.0 -7.616828023591889e-12 0.0 0.010008996024724796 0.009974703809355223 0.0 -2.7626148842340725e-12 0.0 0.01 0.0 -2.762614884234176e-12 0.0 0.010009026356575064 0.009974788167002849 0.0 -6.487139583506935e-13 0.0 0.01 0.0 -6.487139583506418e-13 0.0 0.010009039091020834 0.009979540957573458 0.0 1.6089592825911237e-10 0.0 0.01 0.0 1.6089592825911237e-10 0.0 0.01001078743022507 0.00997969749654324 0.0 2.3657083866933663e-10 0.0 0.01 0.0 2.3657083866933663e-10 0.0 0.010010545457577711 0.009979852054943481 0.0 1.2998383308175185e-10 0.0 0.01 0.0 1.2998383308174523e-10 0.0 0.010010516064914802 0.009979994195373596 0.0 3.777589489586361e-11 0.0 0.01 0.0 3.777589489586361e-11 0.0 0.010010635091750746 0.00998012838946494 0.0 -3.243262484011516e-12 0.0 0.01 0.0 -3.2432624840117227e-12 0.0 0.010010803130963641 0.009980247677646258 0.0 -8.301448398021341e-12 0.0 0.01 0.0 -8.301448398021341e-12 0.0 0.010010954473819608 0.009980353052431126 0.0 -4.2071880521354714e-12 0.0 0.01 0.0 -4.207188052135885e-12 0.0 0.010011064235544565 0.009980438050562196 0.0 -1.7477785641019876e-12 0.0 0.01 0.0 -1.7477785641019876e-12 0.0 0.010011132311700734 0.00998049173471128 0.0 -5.162652064711804e-13 0.0 0.01 0.0 -5.162652064711804e-13 0.0 0.01001117249584636 0.009990525980583956 0.0 2.2769321318401018e-10 0.0 0.01 0.0 2.2769321318401018e-10 0.0 0.010013375437571491 0.009990303621219396 0.0 4.106389393588767e-10 0.0 0.01 0.0 4.106389393588767e-10 0.0 0.010013090609817933 0.009990181977984597 0.0 2.8658681199983817e-10 0.0 0.01 0.0 2.865868119998117e-10 0.0 0.010012987156195035 0.009990111187655637 0.0 1.4702085951883594e-10 0.0 0.01 0.0 1.4702085951883594e-10 0.0 0.010013053815900962 0.009990077787107464 0.0 6.056518277899967e-11 0.0 0.01 0.0 6.056518277899636e-11 0.0 0.010013206766809233 0.0099900678168595 0.0 2.5242218314503047e-11 0.0 0.01 0.0 2.5242218314503047e-11 0.0 0.010013375437571484 0.009990075793055483 0.0 1.1813746624153228e-11 0.0 0.01 0.0 1.1813746624153228e-11 0.0 0.010013522479246485 0.009990089751444418 0.0 4.3849420971349e-12 0.0 0.01 0.0 4.3849420971349e-12 0.0 0.01001363428344848 0.009990102214341125 0.0 7.714930325926126e-13 0.0 0.01 0.0 7.714930325926643e-13 0.0 0.010013706830163054 0.010006207425038851 0.0 6.766633201250068e-11 0.0 0.01 0.0 6.766633201251391e-11 0.0 0.010016136624731315 0.010005554925153239 0.0 4.5131707165993397e-10 0.0 0.01 0.0 4.5131707165988103e-10 0.0 0.010015898685013593 0.010005098646780652 0.0 3.920680186811558e-10 0.0 0.01 0.0 3.920680186812087e-10 0.0 0.010015788764198256 0.01000477101221293 0.0 2.6047885903772405e-10 0.0 0.01 0.0 2.6047885903772405e-10 0.0 0.010015832922993996 0.010004530426856464 0.0 1.519042365847819e-10 0.0 0.01 0.0 1.519042365847819e-10 0.0 0.010015981077760017 0.010004356845662482 0.0 8.568754686553512e-11 0.0 0.01 0.0 8.568754686553512e-11 0.0 0.010016172950213167 0.01000423754199328 0.0 4.488758338253241e-11 0.0 0.01 0.0 4.488758338253241e-11 0.0 0.010016365788365381 0.010004162247203855 0.0 1.8123982936475337e-11 0.0 0.01 0.0 1.8123982936475337e-11 0.0 0.01001652964422941 0.010004121696858048 0.0 3.93899259365225e-12 0.0 0.01 0.0 3.938992593652663e-12 0.0 0.010016643508942772 0.010025720945826353 0.0 -3.6450990742410273e-10 0.0 0.01 0.0 -3.6450990742410273e-10 0.0 0.010018777356262526 0.010024684347666535 0.0 2.5118708826102844e-10 0.0 0.01 0.0 2.511870882610814e-10 0.0 0.010018715006929491 0.010023898397842616 0.0 3.469687164404112e-10 0.0 0.01 0.0 3.469687164404112e-10 0.0 0.010018709626839997 0.010023295499941657 0.0 3.049164240404311e-10 0.0 0.01 0.0 3.04916424040537e-10 0.0 0.010018810240976395 0.010022828936779611 0.0 2.2659366065681895e-10 0.0 0.01 0.0 2.2659366065681895e-10 0.0 0.010019000817788906 0.010022471015684362 0.0 1.5053421469827776e-10 0.0 0.01 0.0 1.5053421469827776e-10 0.0 0.010019238978665074 0.010022206551229219 0.0 8.518721771225026e-11 0.0 0.01 0.0 8.518721771225026e-11 0.0 0.010019489427973835 0.01002202470002028 0.0 3.6039856179047205e-11 0.0 0.01 0.0 3.6039856179047205e-11 0.0 0.010019716357300012 0.010021922479122834 0.0 8.280598215952655e-12 0.0 0.01 0.0 8.280598215952655e-12 0.0 0.010019876957339175 0.010046560981621655 0.0 -8.000916844861267e-10 0.0 0.01 0.0 -8.000916844861796e-10 0.0 0.01002100152483165 0.01004528176929878 0.0 -8.224694166376525e-11 0.0 0.01 0.0 -8.224694166377187e-11 0.0 0.01002123736277202 0.010044242588508986 0.0 1.6298470157996754e-10 0.0 0.01 0.0 1.6298470157998077e-10 0.0 0.01002146295153069 0.010043396107654083 0.0 2.4148613878842435e-10 0.0 0.01 0.0 2.4148613878842435e-10 0.0 0.01002171950617933 0.010042709566196292 0.0 2.3166928788524558e-10 0.0 0.01 0.0 2.3166928788524558e-10 0.0 0.010022015338449052 0.010042160130577422 0.0 1.7626984872805617e-10 0.0 0.01 0.0 1.7626984872804293e-10 0.0 0.010022339284198179 0.010041741354094648 0.0 1.0611208485131743e-10 0.0 0.01 0.0 1.0611208485132405e-10 0.0 0.010022670611115638 0.010041446707811473 0.0 4.6441754469955235e-11 0.0 0.01 0.0 4.6441754469955235e-11 0.0 0.01002296854143535 0.010041269679382656 0.0 1.096138192252292e-11 0.0 0.01 0.0 1.096138192252292e-11 0.0 0.010023185385765696 0.010064902322969109 0.0 -8.731121700828327e-10 0.0 0.01 0.0 -8.731121700828062e-10 0.0 0.010022632251622988 0.010063579758111021 0.0 -2.919284300758608e-10 0.0 0.01 0.0 -2.919284300758608e-10 0.0 0.010023206532239485 0.010062402029737141 0.0 -2.6008131041948277e-11 0.0 0.01 0.0 -2.600813104194993e-11 0.0 0.010023747423972097 0.010061375911529497 0.0 1.083522119937779e-10 0.0 0.01 0.0 1.083522119937779e-10 0.0 0.01002424070776509 0.010060500195352805 0.0 1.5189239067932795e-10 0.0 0.01 0.0 1.5189239067932795e-10 0.0 0.010024702078368905 0.0100597694188056 0.0 1.3260623297658956e-10 0.0 0.01 0.0 1.3260623297658294e-10 0.0 0.010025153185126298 0.010059195345300781 0.0 8.417058965284809e-11 0.0 0.01 0.0 8.41705896528514e-11 0.0 0.010025588582304646 0.010058779828097051 0.0 3.741787649058216e-11 0.0 0.01 0.0 3.741787649058381e-11 0.0 0.010025975862406946 0.010058528914230378 0.0 8.830973926273822e-12 0.0 0.01 0.0 8.830973926273408e-12 0.0 0.010026252921689785 0.010076985936519697 0.0 -5.771078841100114e-10 0.0 0.01 0.0 -5.771078841100247e-10 0.0 0.010023610203807029 0.010075796488747867 0.0 -2.738174386702546e-10 0.0 0.01 0.0 -2.738174386702612e-10 0.0 0.01002451465147029 0.010074601480159782 0.0 -1.1505683767895002e-10 0.0 0.01 0.0 -1.1505683767895333e-10 0.0 0.010025357827833899 0.010073472265972614 0.0 -1.4532820403740343e-11 0.0 0.01 0.0 -1.4532820403740756e-11 0.0 0.010026102849259835 0.010072455735742952 0.0 3.720161978397353e-11 0.0 0.01 0.0 3.720161978397187e-11 0.0 0.010026768248538988 0.01007158514333719 0.0 4.651715117710891e-11 0.0 0.01 0.0 4.651715117710891e-11 0.0 0.010027375201346302 0.01007087682007324 0.0 3.200827039843276e-11 0.0 0.01 0.0 3.200827039843111e-11 0.0 0.010027937440501358 0.010070358696683485 0.0 1.3853264390136976e-11 0.0 0.01 0.0 1.3853264390136976e-11 0.0 0.010028425443140827 0.010070041049889024 0.0 3.0358537466253963e-12 0.0 0.01 0.0 3.0358537466254997e-12 0.0 0.010028773613386357 0.010081488288132372 0.0 -2.1787752739531665e-10 0.0 0.01 0.0 -2.1787752739531665e-10 0.0 0.010024117216310904 0.010080532275498674 0.0 -1.4023722386672107e-10 0.0 0.01 0.0 -1.4023722386672107e-10 0.0 0.010025221549107568 0.010079421597559646 0.0 -9.840290054113461e-11 0.0 0.01 0.0 -9.840290054113792e-11 0.0 0.010026279983822285 0.010078283749843646 0.0 -6.011120427502252e-11 0.0 0.01 0.0 -6.011120427502252e-11 0.0 0.010027237832141843 0.010077211269021549 0.0 -3.0126653308560267e-11 0.0 0.01 0.0 -3.012665330855944e-11 0.0 0.010028086133076916 0.010076268033012375 0.0 -1.3658778705324281e-11 0.0 0.01 0.0 -1.3658778705323867e-11 0.0 0.010028849465249194 0.010075492851125113 0.0 -7.200711128173641e-12 0.0 0.01 0.0 -7.200711128173434e-12 0.0 0.010029543509013856 0.010074916541922036 0.0 -4.226981476839874e-12 0.0 0.01 0.0 -4.22698147683946e-12 0.0 0.010030135678562993 0.010074560527369268 0.0 -1.4292449860156964e-12 0.0 0.01 0.0 -1.4292449860156964e-12 0.0 0.010030550078007443 0.01008022170548597 0.0 -2.124539735398021e-11 0.0 0.01 0.0 -2.1245397353979383e-11 0.0 0.010024347935490617 0.010079486111200499 0.0 -3.3228036414759605e-11 0.0 0.01 0.0 -3.322803641475795e-11 0.0 0.010025504944563786 0.01007849023031801 0.0 -4.202141082586012e-11 0.0 0.01 0.0 -4.202141082586012e-11 0.0 0.010026659935107771 0.01007740115562435 0.0 -3.9915170344504795e-11 0.0 0.01 0.0 -3.991517034450314e-11 0.0 0.010027741009043663 0.010076343484192481 0.0 -3.1781393784964095e-11 0.0 0.01 0.0 -3.1781393784964095e-11 0.0 0.010028720911476384 0.01007540044067628 0.0 -2.2672262259576215e-11 0.0 0.01 0.0 -2.2672262259576215e-11 0.0 0.010029609037013675 0.010074621471029175 0.0 -1.4477124154164034e-11 0.0 0.01 0.0 -1.4477124154164034e-11 0.0 0.01003041010586119 0.010074039841610694 0.0 -7.426089655841785e-12 0.0 0.01 0.0 -7.426089655841992e-12 0.0 0.010031090695968787 0.010073678399740585 0.0 -2.0959341868883956e-12 0.0 0.01 0.0 -2.0959341868883956e-12 0.0 0.010031563865182423 0.010076077698956095 0.0 1.2260812388831648e-11 0.0 0.01 0.0 1.2260812388831235e-11 0.0 0.010024437940939554 0.010075451887463543 0.0 2.2656701778421034e-12 0.0 0.01 0.0 2.2656701778421034e-12 0.0 0.010025528574532634 0.010074520086339647 0.0 -5.216831433986508e-12 0.0 0.01 0.0 -5.216831433986508e-12 0.0 0.010026671275344377 0.010073478756974423 0.0 -8.520244818533575e-12 0.0 0.01 0.0 -8.520244818533162e-12 0.0 0.010027787242000492 0.010072461202883498 0.0 -8.660550867018891e-12 0.0 0.01 0.0 -8.660550867018891e-12 0.0 0.010028824349215723 0.010071554698911878 0.0 -7.05930648272464e-12 0.0 0.01 0.0 -7.059306482724433e-12 0.0 0.010029777478620786 0.010070810990579455 0.0 -4.74511494312933e-12 0.0 0.01 0.0 -4.745114943129537e-12 0.0 0.010030646659177347 0.010070255449242454 0.0 -2.424503485588622e-12 0.0 0.01 0.0 -2.424503485588415e-12 0.0 0.01003138443153545 0.010069911416151722 0.0 -6.688291051502934e-13 0.0 0.01 0.0 -6.688291051502934e-13 0.0 0.010031896107834379 0.010071182083558285 0.0 -2.1346575043903312e-11 0.0 0.01 0.0 -2.1346575043902485e-11 0.0 0.01002442167228775 0.010070515258950983 0.0 -4.710593009931391e-12 0.0 0.01 0.0 -4.710593009931391e-12 0.0 0.01002539279266175 0.010069561904837957 0.0 1.0929598383560828e-12 0.0 0.01 0.0 1.0929598383561345e-12 0.0 0.01002645470867486 0.010068519662356428 0.0 2.8156571544171107e-12 0.0 0.01 0.0 2.8156571544171107e-12 0.0 0.010027529767355197 0.010067524528197066 0.0 3.3955250579705017e-12 0.0 0.01 0.0 3.3955250579705017e-12 0.0 0.010028551010210211 0.010066653683517161 0.0 3.3091782696324873e-12 0.0 0.01 0.0 3.3091782696324873e-12 0.0 0.010029509509618574 0.010065948949930525 0.0 2.5539166202243327e-12 0.0 0.01 0.0 2.553916620224436e-12 0.0 0.010030393858572736 0.010065428068548337 0.0 1.4189591344390866e-12 0.0 0.01 0.0 1.4189591344390866e-12 0.0 0.010031150298985849 0.01006510991940992 0.0 4.0647736647495524e-13 0.0 0.01 0.0 4.0647736647495524e-13 0.0 0.010031677738617493 0.010066146156377912 0.0 -5.99557410112551e-11 0.0 0.01 0.0 -5.99557410112551e-11 0.0 0.010024270221488177 0.010065305597952824 0.0 -2.0175982266574665e-11 0.0 0.01 0.0 -2.0175982266574665e-11 0.0 0.010025118273183078 0.01006424123021363 0.0 -6.784513327375251e-12 0.0 0.01 0.0 -6.7845133273754576e-12 0.0 0.010026072311504559 0.010063141889362649 0.0 -1.9110574715491773e-12 0.0 0.01 0.0 -1.9110574715491773e-12 0.0 0.01002705621099458 0.010062130927988988 0.0 5.554752571977505e-13 0.0 0.01 0.0 5.554752571977505e-13 0.0 0.010028011306959513 0.010061269986496734 0.0 1.898322942064227e-12 0.0 0.01 0.0 1.898322942064227e-12 0.0 0.010028921384894867 0.010060587206806148 0.0 2.044094211093828e-12 0.0 0.01 0.0 2.0440942110937247e-12 0.0 0.01002977601562929 0.010060093526932582 0.0 1.289293044109072e-12 0.0 0.01 0.0 1.2892930441091753e-12 0.0 0.010030512637154883 0.010059795277075848 0.0 3.8484961550822536e-13 0.0 0.01 0.0 3.8484961550822536e-13 0.0 0.010031028570669497 0.010060350056263784 0.0 -8.90853031568495e-11 0.0 0.01 0.0 -8.908530315685281e-11 0.0 0.010023928865378182 0.010059251480966619 0.0 -2.802136314561353e-11 0.0 0.01 0.0 -2.802136314561353e-11 0.0 0.010024674525300868 0.010058020122015569 0.0 -1.1861030115705027e-11 0.0 0.01 0.0 -1.1861030115704614e-11 0.0 0.010025520714652379 0.010056827917308607 0.0 -7.132423351611952e-12 0.0 0.01 0.0 -7.132423351611952e-12 0.0 0.010026402043314267 0.010055772235731678 0.0 -4.939888235396394e-12 0.0 0.01 0.0 -4.939888235396394e-12 0.0 0.010027257542385364 0.010054895999510163 0.0 -2.975820212705478e-12 0.0 0.01 0.0 -2.975820212705271e-12 0.0 0.010028083208574567 0.01005421853116324 0.0 -1.3515531628050794e-12 0.0 0.01 0.0 -1.351553162804976e-12 0.0 0.01002887014324971 0.010053734222704006 0.0 -4.564631595620266e-13 0.0 0.01 0.0 -4.564631595620524e-13 0.0 0.010029558743276438 0.010053445429106272 0.0 -9.299611623436694e-14 0.0 0.01 0.0 -9.299611623436694e-14 0.0 0.01003004748718508 0.010052827787000873 0.0 -1.0030240760477233e-10 0.0 0.01 0.0 -1.0030240760476571e-10 0.0 0.010023350583566104 0.010051447521045514 0.0 -1.8872775641607206e-11 0.0 0.01 0.0 -1.887277564160638e-11 0.0 0.010024022787711324 0.010050044577860521 0.0 -4.492303873578821e-12 0.0 0.01 0.0 -4.492303873578821e-12 0.0 0.010024777837884316 0.010048757134606519 0.0 -2.9631584996655666e-12 0.0 0.01 0.0 -2.9631584996655666e-12 0.0 0.010025552204668567 0.010047657889099521 0.0 -3.3766327658273985e-12 0.0 0.01 0.0 -3.3766327658273985e-12 0.0 0.01002630114988869 0.010046764504315858 0.0 -3.0332625091514555e-12 0.0 0.01 0.0 -3.0332625091514555e-12 0.0 0.010027024202739541 0.010046084673291194 0.0 -1.961547918256203e-12 0.0 0.01 0.0 -1.96154791825641e-12 0.0 0.010027723262211548 0.010045603009168354 0.0 -9.378003232941545e-13 0.0 0.01 0.0 -9.378003232940511e-13 0.0 0.010028346625739348 0.010045317905978549 0.0 -2.6119644668993834e-13 0.0 0.01 0.0 -2.6119644668993834e-13 0.0 0.010028793332687802 0.010043195271478202 0.0 -7.621265540214712e-11 0.0 0.01 0.0 -7.621265540215374e-11 0.0 0.010022531975344445 0.010041564866968705 0.0 8.505291524410233e-12 0.0 0.01 0.0 8.505291524411888e-12 0.0 0.010023151450989887 0.010040039496794684 0.0 1.2940114132953784e-11 0.0 0.01 0.0 1.2940114132953784e-11 0.0 0.010023829053760149 0.010038710925759897 0.0 8.78668186022293e-12 0.0 0.01 0.0 8.786681860221275e-12 0.0 0.010024510219034485 0.010037607590819907 0.0 5.072104312931823e-12 0.0 0.01 0.0 5.072104312931823e-12 0.0 0.010025149759407213 0.010036728713347655 0.0 2.6688717370673788e-12 0.0 0.01 0.0 2.6688717370669652e-12 0.0 0.010025769670224272 0.01003606380583401 0.0 1.3428980521317377e-12 0.0 0.01 0.0 1.3428980521317377e-12 0.0 0.010026373014723882 0.010035596417651315 0.0 5.167290817187049e-13 0.0 0.01 0.0 5.167290817187049e-13 0.0 0.010026921324739051 0.010035320553825711 0.0 8.654175808141762e-14 0.0 0.01 0.0 8.654175808141762e-14 0.0 0.010027317581209111 0.010032131251798566 0.0 -2.1939603578104472e-11 0.0 0.01 0.0 -2.193960357810778e-11 0.0 0.010021497825299298 0.01003034905279503 0.0 3.5088855885382795e-11 0.0 0.01 0.0 3.5088855885382795e-11 0.0 0.010022078252738495 0.010028802662832603 0.0 2.3996249334424385e-11 0.0 0.01 0.0 2.3996249334424385e-11 0.0 0.010022695177531328 0.01002752240690698 0.0 1.597624258836723e-11 0.0 0.01 0.0 1.597624258836723e-11 0.0 0.010023292076126598 0.010026491600120282 0.0 1.1691839061041556e-11 0.0 0.01 0.0 1.1691839061041556e-11 0.0 0.01002383887364078 0.010025686531814083 0.0 8.248347254969434e-12 0.0 0.01 0.0 8.248347254969434e-12 0.0 0.0100243577568963 0.010025080842745799 0.0 5.053656585701455e-12 0.0 0.01 0.0 5.053656585754395e-12 0.0 0.01002486437911325 0.010024657298452375 0.0 2.292777832747066e-12 0.0 0.01 0.0 2.292777832747066e-12 0.0 0.01002533470288217 0.010024407418394771 0.0 5.45958925298987e-13 0.0 0.01 0.0 5.45958925298987e-13 0.0 0.010025681090099355 0.010021134209927946 0.0 1.9158777095646145e-11 0.0 0.01 0.0 1.9158777095646145e-11 0.0 0.010020295972187267 0.010019322962585227 0.0 3.255961326188527e-11 0.0 0.01 0.0 3.25596132618588e-11 0.0 0.010020846757370198 0.010017868076383177 0.0 1.3137874755649568e-11 0.0 0.01 0.0 1.3137874755656185e-11 0.0 0.010021418718226717 0.010016722502984701 0.0 8.890706717788705e-12 0.0 0.01 0.0 8.890706717785396e-12 0.0 0.010021949506205137 0.010015837343929478 0.0 9.111718681777671e-12 0.0 0.01 0.0 9.111718681779326e-12 0.0 0.010022410057136588 0.01001515694041719 0.0 8.044975903080885e-12 0.0 0.01 0.0 8.044975903080885e-12 0.0 0.010022837293763978 0.010014650281840643 0.0 5.517218053097894e-12 0.0 0.01 0.0 5.517218053097067e-12 0.0 0.010023254212994081 0.010014296701009555 0.0 2.5928305646228164e-12 0.0 0.01 0.0 2.5928305646228164e-12 0.0 0.010023645099997192 0.010014087814155269 0.0 6.19199668306672e-13 0.0 0.01 0.0 6.19199668306672e-13 0.0 0.010023938735912096 0.010011665380462675 0.0 1.6393447348706272e-11 0.0 0.01 0.0 1.6393447348706272e-11 0.0 0.010018979195070611 0.01000992295022413 0.0 -4.598029708801278e-13 0.0 0.01 0.0 -4.598029708801278e-13 0.0 0.010019511053995815 0.010008620484113507 0.0 -1.2786021213668312e-11 0.0 0.01 0.0 -1.2786021213668312e-11 0.0 0.010020051347649026 0.010007661144986846 0.0 -6.614072055932158e-12 0.0 0.01 0.0 -6.614072055931331e-12 0.0 0.010020527886555188 0.010006946180716814 0.0 5.870288811948973e-13 0.0 0.01 0.0 5.870288811948973e-13 0.0 0.010020924391777123 0.010006411911623615 0.0 3.555962418905375e-12 0.0 0.01 0.0 3.5559624189049616e-12 0.0 0.010021270322035154 0.01000601617480213 0.0 3.278938106823715e-12 0.0 0.01 0.0 3.278938106823715e-12 0.0 0.010021604965027424 0.010005741741355958 0.0 1.6778037801286076e-12 0.0 0.01 0.0 1.6778037801286076e-12 0.0 0.010021919509680193 0.01000558131919373 0.0 3.953178319405954e-13 0.0 0.01 0.0 3.953178319405954e-13 0.0 0.010022159892086754 0.010004530426856463 0.0 -5.015862290012109e-12 0.0 0.01 0.0 -5.0158622900129364e-12 0.0 0.010017584373019356 0.010002889451857505 0.0 -2.976679169662474e-11 0.0 0.01 0.0 -2.976679169662474e-11 0.0 0.010018109122541937 0.010001744606441572 0.0 -2.8642599163222457e-11 0.0 0.01 0.0 -2.8642599163222457e-11 0.0 0.01001863154109618 0.010000949335168482 0.0 -1.5339477095590023e-11 0.0 0.01 0.0 -1.5339477095591677e-11 0.0 0.010019076900698977 0.010000385772321898 0.0 -5.051227186901836e-12 0.0 0.01 0.0 -5.05122718690225e-12 0.0 0.010019426562426064 0.00999997500009375 0.0 3.199216922556139e-14 0.0 0.01 0.0 3.199216922556139e-14 0.0 0.010019708008119858 0.009999677015648507 0.0 1.4673937657547845e-12 0.0 0.01 0.0 1.4673937657545777e-12 0.0 0.010019970313119018 0.009999471541893151 0.0 1.0272810740071993e-12 0.0 0.01 0.0 1.0272810740071993e-12 0.0 0.010020215937799051 0.00999935056327069 0.0 2.7390748594896704e-13 0.0 0.01 0.0 2.7390748594896704e-13 0.0 0.010020405035333345 0.009999778007392332 0.0 1.1788413005979565e-10 0.0 0.01 0.0 1.1788413005982212e-10 0.0 0.010016155767155897 0.009998231469265801 0.0 -1.6877746317775057e-11 0.0 0.01 0.0 -1.6877746317773402e-11 0.0 0.010016676372649224 0.009997193681755487 0.0 -1.3658311932435619e-11 0.0 0.01 0.0 -1.3658311932436446e-11 0.0 0.010017194144342956 0.009996503334855496 0.0 -7.93182606244252e-12 0.0 0.01 0.0 -7.931826062443347e-12 0.0 0.01001762659523923 0.009996031863166764 0.0 -4.013612796051233e-12 0.0 0.01 0.0 -4.013612796051233e-12 0.0 0.010017947149670407 0.009995698776670675 0.0 -7.618087550347621e-13 0.0 0.01 0.0 -7.618087550347621e-13 0.0 0.010018187698804087 0.009995463089402438 0.0 1.1766405267394264e-12 0.0 0.01 0.0 1.1766405267394264e-12 0.0 0.010018395836801882 0.009995302811610767 0.0 1.2229625403962288e-12 0.0 0.01 0.0 1.2229625403962288e-12 0.0 0.010018581915110687 0.009995208446049895 0.0 4.164062989091234e-13 0.0 0.01 0.0 4.164062989091234e-13 0.0 0.010018722850813821 0.009996973874170676 0.0 2.00581411931969e-09 0.0 0.01 0.0 2.005814119319902e-09 0.0 0.010014747911097247 0.009995495545345715 0.0 1.0999359961663514e-10 0.0 0.01 0.0 1.0999359961662852e-10 0.0 0.01001524378523813 0.009994495049011598 0.0 3.4718820459425393e-11 0.0 0.01 0.0 3.4718820459425393e-11 0.0 0.010015759325325552 0.00999383071371369 0.0 1.3564563506194604e-11 0.0 0.01 0.0 1.3564563506194604e-11 0.0 0.010016189630926453 0.009993378083279363 0.0 2.8454275462624496e-13 0.0 0.01 0.0 2.8454275462624496e-13 0.0 0.010016502208740447 0.009993065220351137 0.0 -2.1066378399139178e-12 0.0 0.01 0.0 -2.1066378399139178e-12 0.0 0.010016724462784307 0.009992851173172206 0.0 -3.374122459612595e-15 0.0 0.01 0.0 -3.374122459612595e-15 0.0 0.010016897231177869 0.009992711975045336 0.0 1.0914694327174954e-12 0.0 0.01 0.0 1.0914694327174437e-12 0.0 0.01001703854809853 0.009992632150786981 0.0 5.084814767935504e-13 0.0 0.01 0.0 5.084814767935246e-13 0.0 0.010017143082243815 0.009995511024463255 0.0 1.0925913120430777e-08 0.0 0.01 0.0 1.0925913120431624e-08 0.0 0.010013421974148154 0.009994107212836844 0.0 1.178206135823022e-09 0.0 0.01 0.0 1.178206135823128e-09 0.0 0.010013851476450236 0.009993076696462504 0.0 1.0759348140755186e-10 0.0 0.01 0.0 1.0759348140754524e-10 0.0 0.010014341844381583 0.009992362758037453 0.0 4.516339181271573e-11 0.0 0.01 0.0 4.5163391812712424e-11 0.0 0.010014770962865426 0.00999186394010297 0.0 5.338616271478383e-12 0.0 0.01 0.0 5.338616271478383e-12 0.0 0.010015091695273915 0.009991523789115223 0.0 -6.767089324388273e-12 0.0 0.01 0.0 -6.767089324388273e-12 0.0 0.010015316366940101 0.009991295877465518 0.0 -4.777890922846085e-12 0.0 0.01 0.0 -4.777890922846912e-12 0.0 0.010015475801076763 0.00999115275492728 0.0 -1.126248410741993e-12 0.0 0.01 0.0 -1.1262484107418897e-12 0.0 0.010015591086646625 0.009991071970704977 0.0 3.6290812706054916e-14 0.0 0.01 0.0 3.6290812706054916e-14 0.0 0.010015670055791886 0.009994860465142114 0.0 3.6736934290972274e-08 0.0 0.01 0.0 3.6736934290968886e-08 0.0 0.010012242645915714 0.009993584179704236 0.0 6.1245003444812815e-09 0.0 0.01 0.0 6.124500344480858e-09 0.0 0.010012545067388277 0.009992508426966962 0.0 2.9526519842466645e-10 0.0 0.01 0.0 2.952651984246929e-10 0.0 0.01001296853387956 0.0099916853814405 0.0 9.338196285083123e-11 0.0 0.01 0.0 9.338196285083123e-11 0.0 0.010013379353243984 0.009991094410570169 0.0 1.9533495088022555e-11 0.0 0.01 0.0 1.9533495088022555e-11 0.0 0.010013707332221936 0.009990684532875549 0.0 -1.001265560773496e-11 0.0 0.01 0.0 -1.0012655607735788e-11 0.0 0.010013949534231638 0.009990412804791947 0.0 -1.1820988478969259e-11 0.0 0.01 0.0 -1.1820988478968432e-11 0.0 0.010014119698683106 0.009990244793198532 0.0 -5.5398488404544095e-12 0.0 0.01 0.0 -5.5398488404544095e-12 0.0 0.010014232979090808 0.009990156553115796 0.0 -1.1918898829214927e-12 0.0 0.01 0.0 -1.1918898829214927e-12 0.0 0.010014301119911122 0.009994676255713316 0.0 9.506813644963281e-08 0.0 0.01 0.0 9.506813644963281e-08 0.0 0.010011255776748744 0.009993628594480842 0.0 2.3457863727803746e-08 0.0 0.01 0.0 2.3457863727803746e-08 0.0 0.010011391485450981 0.009992552328442258 0.0 2.1496579594483832e-09 0.0 0.01 0.0 2.1496579594481715e-09 0.0 0.010011688410952707 0.009991604085556136 0.0 1.7274675076798637e-10 0.0 0.01 0.0 1.7274675076797314e-10 0.0 0.010012043672621354 0.00999088098863862 0.0 6.193740828773172e-11 0.0 0.01 0.0 6.193740828773172e-11 0.0 0.010012363239718424 0.009990369430067411 0.0 3.102740379256856e-12 0.0 0.01 0.0 3.102740379256649e-12 0.0 0.010012620551608157 0.009990031425707771 0.0 -1.2841025177671825e-11 0.0 0.01 0.0 -1.2841025177671825e-11 0.0 0.0100128092194489 0.009989822059683975 0.0 -8.990125376469775e-12 0.0 0.01 0.0 -8.990125376470603e-12 0.0 0.010012935706654607 0.009989709904728722 0.0 -2.509661246424243e-12 0.0 0.01 0.0 -2.5096612464240364e-12 0.0 0.010013008740140808 0.00999476262373888 0.0 2.0570601281892902e-07 0.0 0.01 0.0 2.0570601281890192e-07 0.0 0.010010483268158813 0.009994056803167997 0.0 6.966515307529409e-08 0.0 0.01 0.0 6.966515307530087e-08 0.0 0.010010441632139941 0.009993097652967188 0.0 1.3020094780378194e-08 0.0 0.01 0.0 1.3020094780378194e-08 0.0 0.010010571941316389 0.009992076926222148 0.0 9.515351295755284e-10 0.0 0.01 0.0 9.515351295754225e-10 0.0 0.010010815370568417 0.00999120661216415 0.0 1.4680865760599254e-10 0.0 0.01 0.0 1.4680865760600578e-10 0.0 0.01001109022171001 0.009990561878554927 0.0 5.0839969086718853e-11 0.0 0.01 0.0 5.083996908672216e-11 0.0 0.010011339057015164 0.009990119662474874 0.0 6.087769982665313e-12 0.0 0.01 0.0 6.087769982665313e-12 0.0 0.010011542905083763 0.009989848977435335 0.0 -4.4718758478695e-12 0.0 0.01 0.0 -4.4718758478695e-12 0.0 0.010011684999017645 0.009989701430952255 0.0 -2.117495306356159e-12 0.0 0.01 0.0 -2.117495306356159e-12 0.0 0.010011768793121009 0.009994978308207345 0.0 3.9212537610814214e-07 0.0 0.01 0.0 3.9212537610814214e-07 0.0 0.010009903866600304 0.00999469572778239 0.0 1.73196699962267e-07 0.0 0.01 0.0 1.7319669996228055e-07 0.0 0.010009726075594345 0.009994001901317785 0.0 5.293707639976501e-08 0.0 0.01 0.0 5.293707639976501e-08 0.0 0.010009681993439096 0.009993052247417018 0.0 9.57459937585113e-09 0.0 0.01 0.0 9.574599375850283e-09 0.0 0.010009766238318117 0.009992087401300687 0.0 8.724125194467088e-10 0.0 0.01 0.0 8.724125194466029e-10 0.0 0.010009941555552149 0.009991292386598728 0.0 1.3610943166156266e-10 0.0 0.01 0.0 1.3610943166156266e-10 0.0 0.010010142860800745 0.009990721429774559 0.0 5.414492707544444e-11 0.0 0.01 0.0 5.4144927075441134e-11 0.0 0.010010330937215952 0.00999035497195145 0.0 1.5006929527753186e-11 0.0 0.01 0.0 1.5006929527753186e-11 0.0 0.010010476891819439 0.009990153561967521 0.0 2.245476414194579e-12 0.0 0.01 0.0 2.245476414194786e-12 0.0 0.01001056702573736 0.009995204019656765 0.0 6.694956734202401e-07 0.0 0.01 0.0 6.694956734202401e-07 0.0 0.010009447989937066 0.009995342775811914 0.0 3.6814485016278256e-07 0.0 0.01 0.0 3.6814485016278256e-07 0.0 0.010009214390411974 0.009995044689466133 0.0 1.584349905699254e-07 0.0 0.01 0.0 1.584349905699254e-07 0.0 0.010009038593432653 0.009994344801197637 0.0 5.077546122698475e-08 0.0 0.01 0.0 5.077546122697797e-08 0.0 0.01000895977765915 0.009993452935245452 0.0 1.1439939094044102e-08 0.0 0.01 0.0 1.1439939094044102e-08 0.0 0.010008983791811797 0.009992587250482724 0.0 1.6575313611008591e-09 0.0 0.01 0.0 1.6575313611010709e-09 0.0 0.010009087071239726 0.009991891373148055 0.0 1.847080453189337e-10 0.0 0.01 0.0 1.8470804531892047e-10 0.0 0.01000921978500894 0.009991409581984526 0.0 4.773828050691228e-11 0.0 0.01 0.0 4.7738280506915586e-11 0.0 0.010009340219677794 0.009991139290754148 0.0 1.0720105958623844e-11 0.0 0.01 0.0 1.0720105958623844e-11 0.0 0.010009420043885515 0.009995421803041832 0.0 1.0235113692463795e-06 0.0 0.01 0.0 1.023511369246271e-06 0.0 0.010009062762031012 0.009995806207577668 0.0 6.729109362749348e-07 0.0 0.01 0.0 6.729109362749348e-07 0.0 0.010008826189306005 0.009995949482804863 0.0 3.6944081435063463e-07 0.0 0.01 0.0 3.6944081435068884e-07 0.0 0.010008594587794581 0.009995661828795976 0.0 1.6738489983661258e-07 0.0 0.01 0.0 1.6738489983658547e-07 0.0 0.010008394362175311 0.009995042689254685 0.0 6.202493843028854e-08 0.0 0.01 0.0 6.202493843028854e-08 0.0 0.010008272955532542 0.00999429239029386 0.0 1.847206326778089e-08 0.0 0.01 0.0 1.847206326778089e-08 0.0 0.010008240625055754 0.009993591665283212 0.0 4.101699733515722e-09 0.0 0.01 0.0 4.101699733516145e-09 0.0 0.010008271000114352 0.009993049253653326 0.0 6.316105011848322e-10 0.0 0.01 0.0 6.316105011848322e-10 0.0 0.01000832824240243 0.009992715467400317 0.0 4.1808675168502765e-11 0.0 0.01 0.0 4.1808675168506074e-11 0.0 0.010008377716171553 0.009996045639353891 0.0 1.3966824908252188e-06 0.0 0.01 0.0 1.3966824908252188e-06 0.0 0.010008862158845978 0.009996093958354524 0.0 1.0602003549962588e-06 0.0 0.01 0.0 1.0602003549963672e-06 0.0 0.01000852520780501 0.00999649241942385 0.0 6.981127573997027e-07 0.0 0.01 0.0 6.981127573997027e-07 0.0 0.01000825688816109 0.009996685172691134 0.0 3.979504332405899e-07 0.0 0.01 0.0 3.979504332406441e-07 0.0 0.010008003271325006 0.009996515827495951 0.0 1.9547503971785603e-07 0.0 0.01 0.0 1.9547503971782893e-07 0.0 0.01000778303264185 0.00999608629975834 0.0 8.17052014994514e-08 0.0 0.01 0.0 8.170520149943785e-08 0.0 0.010007626867501522 0.009995561956299713 0.0 2.7771468850538202e-08 0.0 0.01 0.0 2.7771468850538202e-08 0.0 0.010007544178731037 0.0099950916162086 0.0 6.999512397535458e-09 0.0 0.01 0.0 6.999512397534611e-09 0.0 0.010007513810132514 0.009994771603280328 0.0 9.568941585081201e-10 0.0 0.01 0.0 9.568941585081201e-10 0.0 0.010007509450315252 0.009997846088223888 0.0 1.6173304818710172e-06 0.0 0.01 0.0 1.6173304818708004e-06 0.0 0.010008904370613988 0.009996904755673464 0.0 1.4562430928374663e-06 0.0 0.01 0.0 1.4562430928376831e-06 0.0 0.010008485205109368 0.009996796219882783 0.0 1.0943261564749698e-06 0.0 0.01 0.0 1.0943261564749698e-06 0.0 0.010008028387236302 0.0099972052513723 0.0 7.273919126328347e-07 0.0 0.01 0.0 7.273919126328347e-07 0.0 0.010007698409942799 0.00999753793677832 0.0 4.2603246554407314e-07 0.0 0.01 0.0 4.2603246554401893e-07 0.0 0.010007437015341066 0.009997587380332223 0.0 2.1515012320550342e-07 0.0 0.01 0.0 2.151501232054763e-07 0.0 0.010007219267086642 0.009997416003117819 0.0 9.007256407214963e-08 0.0 0.01 0.0 9.007256407214963e-08 0.0 0.01000705430869104 0.009997161708966425 0.0 2.8819328920299034e-08 0.0 0.01 0.0 2.8819328920299034e-08 0.0 0.010006946180841476 0.00999695039558487 0.0 5.3897664220599166e-09 0.0 0.01 0.0 5.389766422060764e-09 0.0 0.010006887459039358 0.010000871458398081 0.0 1.2776210309586953e-06 0.0 0.01 0.0 1.2776210309584785e-06 0.0 0.010009051067690095 0.009999143999099461 0.0 1.6114920048419194e-06 0.0 0.01 0.0 1.6114920048419194e-06 0.0 0.010008645387182045 0.009998019400916082 0.0 1.4434173813606538e-06 0.0 0.01 0.0 1.4434173813606538e-06 0.0 0.010008126406975569 0.00999769197223389 0.0 1.0739576767173145e-06 0.0 0.01 0.0 1.0739576767173145e-06 0.0 0.010007597672642202 0.00999801016758858 0.0 7.002270703146624e-07 0.0 0.01 0.0 7.002270703147708e-07 0.0 0.010007214423107844 0.009998471874036217 0.0 3.9750727617599707e-07 0.0 0.01 0.0 3.9750727617599707e-07 0.0 0.010006957477907648 0.009998748240414508 0.0 1.8873261656334058e-07 0.0 0.01 0.0 1.8873261656328637e-07 0.0 0.010006767619240799 0.009998827207066354 0.0 6.918597334363359e-08 0.0 0.01 0.0 6.918597334363359e-08 0.0 0.010006626230943394 0.009998814210979931 0.0 1.4665224483151085e-08 0.0 0.01 0.0 1.4665224483154473e-08 0.0 0.010006538657552081 0.010002817089964837 0.0 9.111573750194207e-09 0.0 0.01 0.0 9.111573750194207e-09 0.0 0.010008703750129602 0.010001781378500841 0.0 1.0095022711527867e-06 0.0 0.01 0.0 1.0095022711527867e-06 0.0 0.010008557975800029 0.010000704962092107 0.0 1.3854624714764938e-06 0.0 0.01 0.0 1.3854624714764938e-06 0.0 0.010008305071950446 0.009999754753708677 0.0 1.2778276646601642e-06 0.0 0.01 0.0 1.277827664660381e-06 0.0 0.010007847371954185 0.009999198726534665 0.0 9.320879819096645e-07 0.0 0.01 0.0 9.320879819098814e-07 0.0 0.010007346116970893 0.009999159654026717 0.0 5.664001753486088e-07 0.0 0.01 0.0 5.664001753485004e-07 0.0 0.010006942821766434 0.00999944355879565 0.0 2.870233088485773e-07 0.0 0.01 0.0 2.870233088485773e-07 0.0 0.01000668395766261 0.009999742011901448 0.0 1.1310656346133312e-07 0.0 0.01 0.0 1.1310656346136022e-07 0.0 0.010006528840217483 0.009999915001181622 0.0 2.5556871131117475e-08 0.0 0.01 0.0 2.55568711311107e-08 0.0 0.010006433453174524 0.010002095880186893 0.0 -3.785822094936036e-07 0.0 0.01 0.0 -3.785822094936036e-07 0.0 0.010007946984604025 0.010002332401073703 0.0 4.85613165078112e-07 0.0 0.01 0.0 4.85613165078112e-07 0.0 0.010008037565280183 0.010002018326435621 0.0 8.783976620367097e-07 0.0 0.01 0.0 8.783976620369265e-07 0.0 0.010007873654876955 0.010001796495569731 0.0 8.631071670829691e-07 0.0 0.01 0.0 8.631071670827523e-07 0.0 0.010007619661536533 0.010001584433500186 0.0 6.169514219535321e-07 0.0 0.01 0.0 6.169514219535321e-07 0.0 0.010007227635234662 0.010001512560522998 0.0 3.4097217731070013e-07 0.0 0.01 0.0 3.4097217731070013e-07 0.0 0.010006879660356181 0.01000149303723497 0.0 1.3979160004248033e-07 0.0 0.01 0.0 1.3979160004248033e-07 0.0 0.01000663940934026 0.01000151399391367 0.0 3.231374674715864e-08 0.0 0.01 0.0 3.231374674714509e-08 0.0 0.010006507346483397 0.010001508145256067 0.0 -1.6643661441818848e-07 0.0 0.01 0.0 -1.6643661441818848e-07 0.0 0.01000751822420913 0.010002230251526968 0.0 1.941572730180868e-07 0.0 0.01 0.0 1.9415727301803258e-07 0.0 0.010007577459632239 0.010002507304000327 0.0 2.7505304406826286e-07 0.0 0.01 0.0 2.750530440683713e-07 0.0 0.01000732740709531 0.010003073222009677 0.0 1.9826408737618102e-07 0.0 0.01 0.0 1.9826408737618102e-07 0.0 0.010007041135545784 0.010003535575438089 0.0 9.237344535893135e-08 0.0 0.01 0.0 9.237344535882293e-08 0.0 0.01000679842779113 0.010003857681183937 0.0 2.2522679469117336e-08 0.0 0.01 0.0 2.2522679469130888e-08 0.0 0.010006657993509633 0.01000007666420001 0.0 -2.981241655273907e-07 0.0 0.01 0.0 -2.981241655273907e-07 0.0 0.010007332770856428 0.01000066071714914 0.0 -1.0566324476428521e-07 0.0 0.01 0.0 -1.0566324476428521e-07 0.0 0.010007081266225681 0.010001132492463715 0.0 -2.7327700341300745e-08 0.0 0.01 0.0 -2.7327700341293968e-08 0.0 0.01000689532538744 0.010001488132117254 0.0 -4.143682055663986e-09 0.0 0.01 0.0 -4.143682055663986e-09 0.0 0.01000680233447595 0.009998699753640062 0.0 -8.300736514090839e-19 0.0 0.01 0.0 -8.300736514090839e-19 0.0 0.010000013650027948 0.00999869925383511 0.0 2.7797520112384113e-18 0.0 0.01 0.0 2.7797520112384113e-18 0.0 0.010000015150034429 0.009998697254616057 0.0 6.782307317704798e-17 0.0 0.01 0.0 6.782307317704798e-17 0.0 0.010000016600041335 0.009998694755593925 0.0 1.9069291485516772e-16 0.0 0.01 0.0 1.9069291485516772e-16 0.0 0.010000020500063036 0.009998693256181546 0.0 4.276196944232335e-16 0.0 0.01 0.0 4.276196944232335e-16 0.0 0.010000024900093002 0.009998693256181546 0.0 1.0204670026274018e-15 0.0 0.01 0.0 1.0204670026274018e-15 0.0 0.010000031750151211 0.009998697254616057 0.0 1.5178660740569447e-15 0.0 0.01 0.0 1.5178660740569447e-15 0.0 0.010000036600200936 0.009998709249948369 0.0 2.554363295069928e-15 0.0 0.01 0.0 2.554363295069928e-15 0.0 0.010000042500270938 0.009998470351045485 0.0 9.474470777978344e-20 0.0 0.01 0.0 9.474470777978344e-20 0.0 0.010000019050054435 0.009998469851274934 0.0 -5.2681745417590996e-18 0.0 0.01 0.0 -5.2681745417590996e-18 0.0 0.01000001955005733 0.009998466852653206 0.0 6.595072215467898e-17 0.0 0.01 0.0 6.595072215467898e-17 0.0 0.010000022950079004 0.0099984628544951 0.0 1.0296734399921542e-16 0.0 0.01 0.0 1.0296734399921542e-16 0.0 0.010000027850116345 0.00999845885634179 0.0 4.0438878187679365e-17 0.0 0.01 0.0 4.0438878187679365e-17 0.0 0.010000033200165338 0.009998457856804211 0.0 -1.0831964948860315e-15 0.0 0.01 0.0 -1.0831964948860315e-15 0.0 0.010000041000252152 0.009998459855879665 0.0 -3.871616964200248e-15 0.0 0.01 0.0 -3.871616964200248e-15 0.0 0.010000048850357952 0.009998469351504459 0.0 -1.3524779534867516e-14 0.0 0.01 0.0 -1.3524779534867516e-14 0.0 0.010000055650464542 0.009998278944406832 0.0 -1.6284204402193897e-18 0.0 0.01 0.0 -1.6284204402193897e-18 0.0 0.01000002395008604 0.009998278944406832 0.0 3.1902388531633983e-18 0.0 0.01 0.0 3.1902388531633983e-18 0.0 0.010000024400089305 0.009998274946474142 0.0 -5.491848060780943e-17 0.0 0.01 0.0 -5.491848060780943e-17 0.0 0.010000027850116345 0.009998267950103472 0.0 7.576461431816329e-18 0.0 0.01 0.0 7.576461431816329e-18 0.0 0.010000033700170356 0.009998261453486717 0.0 -2.3690758176849893e-16 0.0 0.01 0.0 -2.3690758176849893e-16 0.0 0.010000041000252152 0.009998257455575007 0.0 -2.129835144130262e-15 0.0 0.01 0.0 -2.129835144130262e-15 0.0 0.010000050300379516 0.009998257455575007 0.0 -9.046375608628604e-15 0.0 0.01 0.0 -9.046375608628604e-15 0.0 0.010000059100523926 0.00999826345244437 0.0 -2.6694977773899904e-14 0.0 0.01 0.0 -2.6694977773899904e-14 0.0 0.010000067400681423 0.009998099042183514 0.0 -1.9629140006926506e-18 0.0 0.01 0.0 -1.9629140006926506e-18 0.0 0.010000026850108139 0.009998096543609896 0.0 2.403900735563695e-17 0.0 0.01 0.0 2.403900735563695e-17 0.0 0.010000029300128775 0.009998090047327261 0.0 7.003810809280037e-17 0.0 0.01 0.0 7.003810809280037e-17 0.0 0.010000032700160394 0.009998082551632264 0.0 1.102636159343865e-17 0.0 0.01 0.0 1.102636159343865e-17 0.0 0.010000038550222917 0.009998074056531648 0.0 1.1078086436076041e-17 0.0 0.01 0.0 1.1078086436076041e-17 0.0 0.010000046400322945 0.009998066560872614 0.0 -1.9531952513643487e-15 0.0 0.01 0.0 -1.9531952513643487e-15 0.0 0.010000056150472928 0.009998060064648425 0.0 -9.722067597629027e-15 0.0 0.01 0.0 -9.722067597629027e-15 0.0 0.010000066400661351 0.009998063062904171 0.0 -3.096396148979191e-14 0.0 0.01 0.0 -3.096396148979191e-14 0.0 0.010000076650881297 0.009997897663158917 0.0 4.409259487023429e-19 0.0 0.01 0.0 4.409259487023429e-19 0.0 0.010000030750141836 0.009997895664420654 0.0 8.752960547350127e-17 0.0 0.01 0.0 8.752960547350127e-17 0.0 0.010000031750151211 0.009997889168529575 0.0 2.294068729743879e-16 0.0 0.01 0.0 2.294068729743879e-16 0.0 0.010000036150196024 0.009997878175511978 0.0 4.589729664325997e-16 0.0 0.01 0.0 4.589729664325997e-16 0.0 0.010000042500270938 0.009997866682850536 0.0 5.957140995566385e-16 0.0 0.01 0.0 5.957140995566385e-16 0.0 0.010000051250393988 0.009997852691837927 0.0 -1.0193907518093338e-15 0.0 0.01 0.0 -1.0193907518093338e-15 0.0 0.010000061050559072 0.009997843697646551 0.0 -8.877503190807237e-15 0.0 0.01 0.0 -8.877503190807237e-15 0.0 0.010000072750793895 0.009997840699588156 0.0 -2.812341746865345e-14 0.0 0.01 0.0 -2.812341746865345e-14 0.0 0.010000082501020953 0.00999766132066905 0.0 -4.340740295076861e-19 0.0 0.01 0.0 -4.340740295076861e-19 0.0 0.010000034200175447 0.009997657823125927 0.0 1.3987788056324965e-16 0.0 0.01 0.0 1.3987788056324965e-16 0.0 0.010000036150196024 0.009997649828755423 0.0 3.2508129749952147e-16 0.0 0.01 0.0 3.2508129749952147e-16 0.0 0.010000040550246647 0.009997637837235625 0.0 1.1021274966238284e-15 0.0 0.01 0.0 1.1021274966238284e-15 0.0 0.010000047350336307 0.009997620849323109 0.0 1.3645746605765752e-15 0.0 0.01 0.0 1.3645746605765752e-15 0.0 0.010000055650464542 0.009997602862216008 0.0 -2.0177469610033954e-16 0.0 0.01 0.0 -2.0177469610033954e-16 0.0 0.010000065450642562 0.009997585874481778 0.0 -7.51134851314427e-15 0.0 0.01 0.0 -7.51134851314427e-15 0.0 0.010000076650881295 0.009997577380647138 0.0 -2.091182602864029e-14 0.0 0.01 0.0 -2.091182602864029e-14 0.0 0.010000085951108127 0.009997374034716325 0.0 -1.1789101430889091e-18 0.0 0.01 0.0 -1.1789101430889091e-18 0.0 0.010000040550246647 0.009997370037869054 0.0 1.3541453940624208e-16 0.0 0.01 0.0 1.3541453940624208e-16 0.0 0.010000042000264601 0.009997361044980219 0.0 7.440787825529364e-16 0.0 0.01 0.0 7.440787825529364e-16 0.0 0.010000045900316024 0.009997344558080384 0.0 1.5852484370130316e-15 0.0 0.01 0.0 1.5852484370130316e-15 0.0 0.010000051250393988 0.009997324074469969 0.0 2.0431440701345043e-15 0.0 0.01 0.0 2.0431440701345043e-15 0.0 0.010000062000576607 0.009997301093008159 0.0 -2.116806281197108e-17 0.0 0.01 0.0 -2.116806281197108e-17 0.0 0.010000072250783018 0.009997277112521326 0.0 -8.365135397014778e-15 0.0 0.01 0.0 -8.365135397014778e-15 0.0 0.010000081050985378 0.009997260126447563 0.0 -1.6746786048293247e-14 0.0 0.01 0.0 -1.6746786048293247e-14 0.0 0.010000090801236714 0.009997033820255477 0.0 1.7340970032118397e-18 0.0 0.01 0.0 1.7340970032118397e-18 0.0 0.010000051250393988 0.009997031822035258 0.0 1.4625333102182943e-17 0.0 0.01 0.0 1.4625333102182943e-17 0.0 0.010000052750417389 0.009997019832739094 0.0 9.371445026143608e-16 0.0 0.01 0.0 9.371445026143608e-16 0.0 0.010000056150472928 0.009996999351124605 0.0 1.971019327997121e-15 0.0 0.01 0.0 1.971019327997121e-15 0.0 0.010000063000595357 0.00999697337462389 0.0 2.619472592144226e-15 0.0 0.01 0.0 2.619472592144226e-15 0.0 0.010000072750793895 0.009996943901531758 0.0 -3.896778510215418e-16 0.0 0.01 0.0 -3.896778510215418e-16 0.0 0.010000082051009844 0.009996913429625838 0.0 -1.1638674200993795e-14 0.0 0.01 0.0 -1.1638674200993795e-14 0.0 0.010000091301250373 0.0099968879533282 0.0 -1.7244117759857728e-14 0.0 0.01 0.0 -1.7244117759857728e-14 0.0 0.010000098651459798 0.009996639694507137 0.0 -4.266823824287774e-18 0.0 0.01 0.0 -4.266823824287774e-18 0.0 0.010000065900651429 0.009996635698540547 0.0 1.0815271420660896e-16 0.0 0.01 0.0 1.0815271420660896e-16 0.0 0.010000068850711056 0.009996621712695209 0.0 8.97541603535096e-16 0.0 0.01 0.0 8.97541603535096e-16 0.0 0.010000072250783018 0.00999659623862775 0.0 2.0326238142136133e-15 0.0 0.01 0.0 2.0326238142136133e-15 0.0 0.010000080550973258 0.009996566269385946 0.0 2.3948954038011724e-15 0.0 0.01 0.0 2.3948954038011724e-15 0.0 0.010000088851184166 0.00999652980717188 0.0 -2.1520265643729244e-15 0.0 0.01 0.0 -2.1520265643729244e-15 0.0 0.01000009715141574 0.00999649134746065 0.0 -1.9250335616000166e-14 0.0 0.01 0.0 -1.9250335616000166e-14 0.0 0.010000107401730244 0.009996455385534862 0.0 -2.6712839289994628e-14 0.0 0.01 0.0 -2.6712839289994628e-14 0.0 0.01000011475197517 0.009996187181746568 0.0 -2.8258080532636695e-18 0.0 0.01 0.0 -2.8258080532636695e-18 0.0 0.010000092751290404 0.009996180689185053 0.0 -3.837293696885417e-17 0.0 0.01 0.0 -3.837293696885417e-17 0.0 0.01000009375131838 0.009996163209274628 0.0 4.50398922569274e-16 0.0 0.01 0.0 4.50398922569274e-16 0.0 0.010000098651459798 0.009996134742188207 0.0 1.819813784905507e-15 0.0 0.01 0.0 1.819813784905507e-15 0.0 0.01000010595168384 0.009996097785280938 0.0 1.4755801000947337e-15 0.0 0.01 0.0 1.4755801000947337e-15 0.0 0.010000117202060416 0.009996054336468255 0.0 -6.438767469714664e-15 0.0 0.01 0.0 -6.438767469714664e-15 0.0 0.01000012600238145 0.009996006893009545 0.0 -2.980970205125492e-14 0.0 0.01 0.0 -2.980970205125492e-14 0.0 0.010000136252784673 0.009995959949620563 0.0 -4.874314872867091e-14 0.0 0.01 0.0 -4.874314872867091e-14 0.0 0.010000141603007657 0.009995662823297887 0.0 2.0021167769102456e-19 0.0 0.01 0.0 2.0021167769102456e-19 0.0 0.010000126952417497 0.009995657330455654 0.0 1.9324656221978474e-16 0.0 0.01 0.0 1.9324656221978474e-16 0.0 0.010000127952455733 0.009995636857214375 0.0 4.1481460701273924e-16 0.0 0.01 0.0 4.1481460701273924e-16 0.0 0.010000134752723697 0.00999560290187204 0.0 9.659624458449505e-16 0.0 0.01 0.0 9.659624458449505e-16 0.0 0.010000144053112635 0.009995557961509846 0.0 -4.1397312499510446e-17 0.0 0.01 0.0 -4.1397312499510446e-17 0.0 0.010000155253615478 0.009995508028484994 0.0 -1.1627203509324271e-14 0.0 0.01 0.0 -1.1627203509324271e-14 0.0 0.010000166504158452 0.009995450107113658 0.0 -4.15024497858123e-14 0.0 0.01 0.0 -4.15024497858123e-14 0.0 0.0100001777547394 0.009995391188131086 0.0 -7.202659782793327e-14 0.0 0.01 0.0 -7.202659782793327e-14 0.0 0.010000187505273605 0.009995066153829264 0.0 -1.999899857329587e-18 0.0 0.01 0.0 -1.999899857329587e-18 0.0 0.010000173354507664 0.00999505866493336 0.0 1.8408137251459292e-17 0.0 0.01 0.0 1.8408137251459292e-17 0.0 0.010000175304609648 0.009995036198346642 0.0 -9.045763119572137e-17 0.0 0.01 0.0 -9.045763119572137e-17 0.0 0.010000183605056499 0.00999499725662188 0.0 2.2352314755722866e-16 0.0 0.01 0.0 2.2352314755722866e-16 0.0 0.010000193855636856 0.009994947831242076 0.0 -2.4979551993407436e-15 0.0 0.01 0.0 -2.4979551993407436e-15 0.0 0.010000208006489824 0.009994886424973405 0.0 -1.4633323289393937e-14 0.0 0.01 0.0 -1.4633323289393937e-14 0.0 0.010000224107533404 0.009994817531482608 0.0 -4.9399388799391106e-14 0.0 0.01 0.0 -4.9399388799391106e-14 0.0 0.010000240258658356 0.009994743647293058 0.0 -8.385669880312915e-14 0.0 0.01 0.0 -8.385669880312915e-14 0.0 0.010000254409708318 0.009994388227335865 0.0 1.5051137120023086e-18 0.0 0.01 0.0 1.5051137120023086e-18 0.0 0.010000232408101778 0.009994381239121304 0.0 -5.853634957490044e-16 0.0 0.01 0.0 -5.853634957490044e-16 0.0 0.010000236358379528 0.009994351788949574 0.0 -9.97639387342567e-16 0.0 0.01 0.0 -9.97639387342567e-16 0.0 0.01000024510901147 0.009994310359487698 0.0 -6.322555448669568e-16 0.0 0.01 0.0 -6.322555448669568e-16 0.0 0.01000026026015995 0.00999425195979596 0.0 -2.048851612018826e-15 0.0 0.01 0.0 -2.048851612018826e-15 0.0 0.010000278811659958 0.009994181082912825 0.0 -1.3358145144330249e-14 0.0 0.01 0.0 -1.3358145144330249e-14 0.0 0.010000300313527692 0.009994100225211525 0.0 -4.01796905806013e-14 0.0 0.01 0.0 -4.01796905806013e-14 0.0 0.010000322765625975 0.009994011882929511 0.0 -6.796178884464132e-14 0.0 0.01 0.0 -6.796178884464132e-14 0.0 0.010000348668234585 0.009993619611602392 0.0 6.256864564561354e-20 0.0 0.01 0.0 6.256864564561354e-20 0.0 0.01000030471392702 0.0099936096307463 0.0 4.5115657396376636e-17 0.0 0.01 0.0 4.5115657396376636e-17 0.0 0.010000309564373921 0.009993579189319913 0.0 -8.444266702787511e-16 0.0 0.01 0.0 -8.444266702787511e-16 0.0 0.010000322265577597 0.009993529285944039 0.0 -1.7880867082082603e-15 0.0 0.01 0.0 -1.7880867082082603e-15 0.0 0.010000340817422685 0.009993464412673028 0.0 -1.0396456428258846e-15 0.0 0.01 0.0 -1.0396456428258846e-15 0.0 0.010000366720171565 0.009993382075340713 0.0 -2.815024588991945e-15 0.0 0.01 0.0 -2.815024588991945e-15 0.0 0.010000395523464583 0.009993288762157661 0.0 -1.1361529677410849e-14 0.0 0.01 0.0 -1.1361529677410849e-14 0.0 0.01000042822750525 0.009993185970981757 0.0 -2.531117493781675e-14 0.0 0.01 0.0 -2.531117493781675e-14 0.0 0.010000469783102352 0.009992754881374657 0.0 9.345449163039103e-19 0.0 0.01 0.0 9.345449163039103e-19 0.0 0.010000390622886744 0.009992743905284315 0.0 -1.4878219281365412e-15 0.0 0.01 0.0 -1.4878219281365412e-15 0.0 0.010000396023523952 0.009992709979415561 0.0 -3.1658955193083595e-15 0.0 0.01 0.0 -3.1658955193083595e-15 0.0 0.010000411625413928 0.009992653603368441 0.0 -2.21446720606436e-15 0.0 0.01 0.0 -2.21446720606436e-15 0.0 0.010000437028647436 0.009992577771606476 0.0 1.2007924589666394e-15 0.0 0.01 0.0 1.2007924589666394e-15 0.0 0.01000047073323638 0.009992485977572846 0.0 1.0022827806534564e-14 0.0 0.01 0.0 1.0022827806534564e-14 0.0 0.010000510289056581 0.009992377723729726 0.0 2.1891390223804393e-14 0.0 0.01 0.0 2.1891390223804393e-14 0.0 0.010000558146725689 0.00999225849891394 0.0 2.2010828855017382e-14 0.0 0.01 0.0 2.2010828855017382e-14 0.0 0.010000614806693443 0.009991784136165669 0.0 9.582250746738136e-19 0.0 0.01 0.0 9.582250746738136e-19 0.0 0.01000048683554902 0.009991770669439813 0.0 -1.9800613566380734e-15 0.0 0.01 0.0 -1.9800613566380734e-15 0.0 0.010000494686704818 0.009991733760914735 0.0 -5.4651620287178954e-15 0.0 0.01 0.0 -5.4651620287178954e-15 0.0 0.010000514189655932 0.009991670418858793 0.0 -6.066445826999991e-15 0.0 0.01 0.0 -6.066445826999991e-15 0.0 0.010000544944541447 0.009991583637210436 0.0 2.443962007027015e-15 0.0 0.01 0.0 2.443962007027015e-15 0.0 0.010000588902016754 0.00999147940247253 0.0 2.0886969758094456e-14 0.0 0.01 0.0 2.0886969758094456e-14 0.0 0.010000642161850481 0.009991356220169821 0.0 5.019675509495564e-14 0.0 0.01 0.0 5.019675509495564e-14 0.0 0.010000705624678903 0.009991220575293657 0.0 6.216906004535344e-14 0.0 0.01 0.0 6.216906004535344e-14 0.0 0.010000783292022346 0.00999069749660429 0.0 1.892141541856337e-19 0.0 0.01 0.0 1.892141541856337e-19 0.0 0.010000595253144728 0.009990682039856575 0.0 -2.646538875738092e-15 0.0 0.01 0.0 -2.646538875738092e-15 0.0 0.010000603554637333 0.00999064065601425 0.0 -8.977447081549653e-15 0.0 0.01 0.0 -8.977447081549653e-15 0.0 0.010000628459239188 0.009990570853108135 0.0 -1.2897957076161083e-14 0.0 0.01 0.0 -1.2897957076161083e-14 0.0 0.010000667566840872 0.009990475624360128 0.0 -2.4319084752649973e-15 0.0 0.01 0.0 -2.4319084752649973e-15 0.0 0.010000721778137031 0.009990355969060876 0.0 2.7568076323241545e-14 0.0 0.01 0.0 2.7568076323241545e-14 0.0 0.01000079014363918 0.009990216376645452 0.0 6.623815270645183e-14 0.0 0.01 0.0 6.623815270645183e-14 0.0 0.010000869263329677 0.009990063330257657 0.0 8.584418031646989e-14 0.0 0.01 0.0 8.584418031646989e-14 0.0 0.010000966940227932 0.00998949059039886 0.0 1.3604736608426094e-19 0.0 0.01 0.0 1.3604736608426094e-19 0.0 0.010000711976029263 0.009989475139252123 0.0 -4.548152068411326e-15 0.0 0.01 0.0 -4.548152068411326e-15 0.0 0.010000721778137031 0.009989426792578712 0.0 -1.603528966239846e-14 0.0 0.01 0.0 -1.603528966239846e-14 0.0 0.010000753485152426 0.009989348542234017 0.0 -2.4378231051084804e-14 0.0 0.01 0.0 -2.4378231051084804e-14 0.0 0.010000801846433345 0.009989239393550788 0.0 -1.4949224342814706e-14 0.0 0.01 0.0 -1.4949224342814706e-14 0.0 0.010000867312821682 0.009989105329973118 0.0 1.9377762306219396e-14 0.0 0.01 0.0 1.9377762306219396e-14 0.0 0.01000094983531093 0.00998894834788627 0.0 7.229602527973824e-14 0.0 0.01 0.0 7.229602527973824e-14 0.0 0.010001048514884469 0.00998877692193452 0.0 1.0006370506571829e-13 0.0 0.01 0.0 1.0006370506571829e-13 0.0 0.010001164753465998 0.009988152587485154 0.0 -5.073052586738667e-19 0.0 0.01 0.0 -5.073052586738667e-19 0.0 0.01000083945569105 0.009988135149656076 0.0 -6.544424526206273e-15 0.0 0.01 0.0 -6.544424526206273e-15 0.0 0.01000085165878605 0.009988081342073494 0.0 -2.333532685968206e-14 0.0 0.01 0.0 -2.333532685968206e-14 0.0 0.010000886367833264 0.009987992661103595 0.0 -3.791612625931674e-14 0.0 0.01 0.0 -3.791612625931674e-14 0.0 0.010000945434059936 0.0099878720986298 0.0 -3.335081225615188e-14 0.0 0.01 0.0 -3.335081225615188e-14 0.0 0.010001024107297885 0.00998772065443621 0.0 1.4135709450389582e-14 0.0 0.01 0.0 1.4135709450389582e-14 0.0 0.010001124189541908 0.009987544808473574 0.0 7.6169804015316e-14 0.0 0.01 0.0 7.6169804015316e-14 0.0 0.010001238980222767 0.009987351039968284 0.0 1.0833286185818887e-13 0.0 0.01 0.0 1.0833286185818887e-13 0.0 0.010001374783452473 0.009986681156072352 0.0 -4.58346147844151e-19 0.0 0.01 0.0 -4.58346147844151e-19 0.0 0.010000981094363037 0.009986660737936814 0.0 -7.223775470306504e-15 0.0 0.01 0.0 -7.223775470306504e-15 0.0 0.01000099524855824 0.009986599484281612 0.0 -2.5246444032547495e-14 0.0 0.01 0.0 -2.5246444032547495e-14 0.0 0.010001035310758064 0.00998649889129327 0.0 -4.1903339433093184e-14 0.0 0.01 0.0 -4.1903339433093184e-14 0.0 0.010001103682690438 0.009986364440065556 0.0 -3.598587474403705e-14 0.0 0.01 0.0 -3.598587474403705e-14 0.0 0.010001193563655128 0.009986194142972605 0.0 1.8709754409506263e-14 0.0 0.01 0.0 1.8709754409506263e-14 0.0 0.010001308356724813 0.009985993980335218 0.0 9.394236675311437e-14 0.0 0.01 0.0 9.394236675311437e-14 0.0 0.010001441711719981 0.009985774910647442 0.0 1.218705887227972e-13 0.0 0.01 0.0 1.218705887227972e-13 0.0 0.010001594131107091 0.009985063531484364 0.0 -1.426443295966549e-19 0.0 0.01 0.0 -1.426443295966549e-19 0.0 0.010001141795524787 0.009985041629989946 0.0 -4.522840526464118e-15 0.0 0.01 0.0 -4.522840526464118e-15 0.0 0.010001156950749287 0.009984972939874085 0.0 -1.4169343582344822e-14 0.0 0.01 0.0 -1.4169343582344822e-14 0.0 0.010001202366818136 0.00998486244135788 0.0 -1.8827830687800307e-14 0.0 0.01 0.0 -1.8827830687800307e-14 0.0 0.01000127809498727 0.00998470765005614 0.0 3.964203163861149e-15 0.0 0.01 0.0 3.964203163861149e-15 0.0 0.010001382136492395 0.009984515041993557 0.0 7.667220126858444e-14 0.0 0.01 0.0 7.667220126858444e-14 0.0 0.010001509641783951 0.009984288604909484 0.0 1.5775014592780064e-13 0.0 0.01 0.0 1.5775014592780064e-13 0.0 0.010001659112806975 0.009984039293105174 0.0 1.6379215107184117e-13 0.0 0.01 0.0 1.6379215107184117e-13 0.0 0.010001827650924115 0.009983299429710867 0.0 1.1738602241230717e-18 0.0 0.01 0.0 1.1738602241230717e-18 0.0 0.010001334266992762 0.00998327306236325 0.0 4.7341566897647335e-15 0.0 0.01 0.0 4.7341566897647335e-15 0.0 0.010001351323862083 0.009983198438926878 0.0 1.47714940719536e-14 0.0 0.01 0.0 1.47714940719536e-14 0.0 0.01000140264505679 0.009983071085460399 0.0 3.8160270344846493e-14 0.0 0.01 0.0 3.8160270344846493e-14 0.0 0.01000148423037559 0.009982897972157552 0.0 1.0154118630295805e-13 0.0 0.01 0.0 1.0154118630295805e-13 0.0 0.01000159608204038 0.009982679106159995 0.0 2.1454501387344584e-13 0.0 0.01 0.0 2.1454501387344584e-13 0.0 0.010001734351091744 0.009982423449110569 0.0 2.8392216877508896e-13 0.0 0.01 0.0 2.8392216877508896e-13 0.0 0.010001895088568016 0.009982139464016562 0.0 2.0123998267210588e-13 0.0 0.01 0.0 2.0123998267210588e-13 0.0 0.010002077297095254 0.009981382123170249 0.0 -7.031755636246257e-20 0.0 0.01 0.0 -7.031755636246257e-20 0.0 0.01000157752320842 0.00998135477659433 0.0 1.3701700663177116e-14 0.0 0.01 0.0 1.3701700663177116e-14 0.0 0.010001594631346287 0.009981268263452662 0.0 5.328696902249314e-14 0.0 0.01 0.0 5.328696902249314e-14 0.0 0.010001647356978359 0.009981128057276085 0.0 1.2094289350356272e-13 0.0 0.01 0.0 1.2094289350356272e-13 0.0 0.010001731899817673 0.009980933170561519 0.0 2.3665829450303965e-13 0.0 0.01 0.0 2.3665829450303965e-13 0.0 0.010001850113311265 0.009980688086894266 0.0 3.845990507778794e-13 0.0 0.01 0.0 3.845990507778794e-13 0.0 0.010001995697262208 0.009980397788018878 0.0 4.298801937219519e-13 0.0 0.01 0.0 4.298801937219002e-13 0.0 0.010002160850189293 0.009980074711178814 0.0 1.5805670823752533e-13 0.0 0.01 0.0 1.5805670823752533e-13 0.0 0.010002347026021173 0.009979328772063433 0.0 -6.65007863491251e-19 0.0 0.01 0.0 -6.65007863491251e-19 0.0 0.010001896039108353 0.009979296473348382 0.0 2.011284244328266e-14 0.0 0.01 0.0 2.011284244328266e-14 0.0 0.010001913148880782 0.009979201566631138 0.0 7.624791362666019e-14 0.0 0.01 0.0 7.624791362666019e-14 0.0 0.010001965429285034 0.009979045547860301 0.0 1.7260026017760242e-13 0.0 0.01 0.0 1.7260026017760242e-13 0.0 0.010002053382283708 0.009978828922465804 0.0 3.16668438910532e-13 0.0 0.01 0.0 3.16668438910532e-13 0.0 0.010002168204963111 0.009978555179817996 0.0 4.5185246385338557e-13 0.0 0.01 0.0 4.518524638533597e-13 0.0 0.010002310850757956 0.00997823178513918 0.0 3.456672793490165e-13 0.0 0.01 0.0 3.456672793490165e-13 0.0 0.010002471115660192 0.009977867693276927 0.0 -3.1970842056110403e-13 0.0 0.01 0.0 -3.1970842056110403e-13 0.0 0.010002648001415497 0.009977183328322802 0.0 5.699740688275941e-20 0.0 0.01 0.0 5.699740688275941e-20 0.0 0.010002321107881242 0.009977148567533303 0.0 1.853080414453876e-14 0.0 0.01 0.0 1.853080414453876e-14 0.0 0.010002337269168788 0.009977043294215763 0.0 7.034705943810929e-14 0.0 0.01 0.0 7.034705943810929e-14 0.0 0.010002389506188186 0.009976871487373633 0.0 1.4123096172369579e-13 0.0 0.01 0.0 1.4123096172369579e-13 0.0 0.010002473567477813 0.009976634150324697 0.0 2.2137627125499216e-13 0.0 0.01 0.0 2.2137627125499216e-13 0.0 0.010002583050477888 0.009976335268766163 0.0 1.4740467547247142e-13 0.0 0.01 0.0 1.4740467547247142e-13 0.0 0.010002710101299397 0.009975980816156898 0.0 -5.048487090648872e-13 0.0 0.01 0.0 -5.048487090648614e-13 0.0 0.01000284836651675 0.009975577759100452 0.0 -2.17116905198551e-12 0.0 0.01 0.0 -2.17116905198551e-12 0.0 0.010003000850225053 0.009975057133322677 0.0 3.743667375981817e-19 0.0 0.01 0.0 3.743667375981817e-19 0.0 0.010002889902247722 0.009975022891014282 0.0 5.456418401634997e-15 0.0 0.01 0.0 5.456418401634997e-15 0.0 0.010002906066292526 0.009974909248778878 0.0 1.1755197438872319e-14 0.0 0.01 0.0 1.1755197438872319e-14 0.0 0.01000295245703584 0.009974724650457331 0.0 -1.3158427544129094e-14 0.0 0.01 0.0 -1.3158427544129094e-14 0.0 0.010003028725421201 0.00997446960404781 0.0 -2.305151176526277e-13 0.0 0.01 0.0 -2.305151176526277e-13 0.0 0.010003124013309338 0.009974149583214787 0.0 -1.0563400666763161e-12 0.0 0.01 0.0 -1.0563400666763161e-12 0.0 0.010003224709141969 0.009973769567475208 0.0 -3.295848728360458e-12 0.0 0.01 0.0 -3.2958487283606648e-12 0.0 0.010003327359962186 0.009973334041498586 0.0 -7.42438373333373e-12 0.0 0.01 0.0 -7.42438373333373e-12 0.0 0.010003432416413936 0.009973157962340901 0.0 9.116367683294938e-19 0.0 0.01 0.0 9.116367683294938e-19 0.0 0.01000363773400397 0.009973118779796937 0.0 -1.809708607409171e-14 0.0 0.01 0.0 -1.809708607409171e-14 0.0 0.010003651398933909 0.009972999747052916 0.0 -1.0881732336986128e-13 0.0 0.01 0.0 -1.0881732336986128e-13 0.0 0.010003693445223422 0.009972806327933804 0.0 -4.272716449292009e-13 0.0 0.01 0.0 -4.272716449292009e-13 0.0 0.010003755514524553 0.009972540518992316 0.0 -1.4471706789451812e-12 0.0 0.01 0.0 -1.4471706789451295e-12 0.0 0.010003827396223467 0.009972207791859351 0.0 -4.198618638181022e-12 0.0 0.01 0.0 -4.198618638181229e-12 0.0 0.01000389487432577 0.009971812132898113 0.0 -9.996042211428393e-12 0.0 0.01 0.0 -9.996042211428393e-12 0.0 0.0100039432311351 0.009971354060299776 0.0 -1.8805191949428272e-11 0.0 0.01 0.0 -1.8805191949428272e-11 0.0 0.010003979924709907 0.009971768008439274 0.0 3.485623800005322e-19 0.0 0.01 0.0 3.485623800005322e-19 0.0 0.010004595465806041 0.009971726859190892 0.0 -8.244180548960234e-14 0.0 0.01 0.0 -8.244180548960234e-14 0.0 0.010004608183347063 0.00997160589326608 0.0 -4.0843994814115815e-13 0.0 0.01 0.0 -4.0843994814115815e-13 0.0 0.01000464338214851 0.009971410572336489 0.0 -1.3998449117625736e-12 0.0 0.01 0.0 -1.3998449117625736e-12 0.0 0.010004687393690351 0.009971141900877278 0.0 -4.200136687415494e-12 0.0 0.01 0.0 -4.200136687415701e-12 0.0 0.010004730905103025 0.00997080683554198 0.0 -1.066846849065298e-11 0.0 0.01 0.0 -1.066846849065298e-11 0.0 0.01000475143427505 0.009970409361005732 0.0 -2.2250776570363763e-11 0.0 0.01 0.0 -2.2250776570362936e-11 0.0 0.010004734309932572 0.009969946031123346 0.0 -3.655084000486616e-11 0.0 0.01 0.0 -3.655084000486616e-11 0.0 0.010004690297771561 0.00997124450900044 0.0 1.189809123350629e-18 0.0 0.01 0.0 1.189809123350629e-18 0.0 0.010005794081820129 0.009971205349004787 0.0 -2.1427306358327642e-13 0.0 0.01 0.0 -2.1427306358327642e-13 0.0 0.010005801895395289 0.0099710888631376 0.0 -1.0120696912722566e-12 0.0 0.01 0.0 -1.0120696912723083e-12 0.0 0.010005827339728443 0.00997090001600191 0.0 -3.244383445665976e-12 0.0 0.01 0.0 -3.244383445665873e-12 0.0 0.010005852283377319 0.009970643280413511 0.0 -8.927266818887042e-12 0.0 0.01 0.0 -8.927266818887455e-12 0.0 0.010005860597968399 0.009970325609966229 0.0 -2.0398406550154542e-11 0.0 0.01 0.0 -2.0398406550153715e-11 0.0 0.010005829293139997 0.009969946031123342 0.0 -3.71169374770437e-11 0.0 0.01 0.0 -3.711693747704535e-11 0.0 0.010005742242217749 0.009969499115268905 0.0 -5.15545736519877e-11 0.0 0.01 0.0 -5.15545736519877e-11 0.0 0.010005625843959374 0.00997204218450823 0.0 9.398613678026348e-20 0.0 0.01 0.0 9.398613678026348e-20 0.0 0.010007263756666059 0.009972006981613706 0.0 -4.3076034231405734e-13 0.0 0.01 0.0 -4.3076034231405734e-13 0.0 0.010007266713100465 0.009971900383573045 0.0 -1.9457451862158783e-12 0.0 0.01 0.0 -1.9457451862159817e-12 0.0 0.01000727453012609 0.009971732808448312 0.0 -5.815059036225402e-12 0.0 0.01 0.0 -5.815059036225816e-12 0.0 0.010007274530126092 0.00997150327398626 0.0 -1.4640239047882128e-11 0.0 0.01 0.0 -1.46402390478813e-11 0.0 0.010007245667353287 0.009971224185400805 0.0 -2.9562828327464006e-11 0.0 0.01 0.0 -2.956282832746235e-11 0.0 0.010007163940960732 0.009970889607416671 0.0 -4.404022150900029e-11 0.0 0.01 0.0 -4.404022150900195e-11 0.0 0.010007020586380337 0.009970495096504448 0.0 -4.361934509335703e-11 0.0 0.01 0.0 -4.361934509335703e-11 0.0 0.010006860102700021 0.009974816452104998 0.0 1.778441656778985e-18 0.0 0.01 0.0 1.778441656778985e-18 0.0 0.010009043001608426 0.009974788167002849 0.0 -6.550912250548202e-13 0.0 0.01 0.0 -6.550912250547685e-13 0.0 0.010009039091020834 0.009974703809355223 0.0 -2.748524510796867e-12 0.0 0.01 0.0 -2.748524510796867e-12 0.0 0.010009026356575064 0.009974567352985924 0.0 -7.619963761066011e-12 0.0 0.01 0.0 -7.619963761066011e-12 0.0 0.010008996024724798 0.009974389223825542 0.0 -1.7502688371752227e-11 0.0 0.01 0.0 -1.7502688371753054e-11 0.0 0.010008925485438547 0.009974173397657795 0.0 -2.8987117458924642e-11 0.0 0.01 0.0 -2.8987117458924642e-11 0.0 0.010008801155430711 0.009973920377922654 0.0 -2.5411074211477828e-11 0.0 0.01 0.0 -2.5411074211477e-11 0.0 0.010008631763251796 0.00997362521256697 0.0 1.157735884111531e-11 0.0 0.01 0.0 1.157735884111531e-11 0.0 0.010008470700772673 0.009980511120866897 0.0 4.227843884682236e-19 0.0 0.01 0.0 4.227843884682236e-19 0.0 0.010011186241844947 0.00998049173471128 0.0 -5.180040722387426e-13 0.0 0.01 0.0 -5.180040722387426e-13 0.0 0.01001117249584636 0.009980438050562196 0.0 -1.7472754531701531e-12 0.0 0.01 0.0 -1.7472754531700497e-12 0.0 0.010011132311700734 0.009980353052431128 0.0 -4.216214928231334e-12 0.0 0.01 0.0 -4.216214928231334e-12 0.0 0.010011064235544565 0.009980247677646256 0.0 -8.312252576389922e-12 0.0 0.01 0.0 -8.312252576389922e-12 0.0 0.010010954473819608 0.009980128389464939 0.0 -3.2402865997294705e-12 0.0 0.01 0.0 -3.240286599729884e-12 0.0 0.010010803130963641 0.009979994195373595 0.0 3.776810239599211e-11 0.0 0.01 0.0 3.776810239599376e-11 0.0 0.010010635091750745 0.009979852054943483 0.0 1.300069545351235e-10 0.0 0.01 0.0 1.300069545351235e-10 0.0 0.010010516064914803 0.009990107199512868 0.0 2.6788110307252477e-19 0.0 0.01 0.0 2.6788110307252477e-19 0.0 0.010013733790831855 0.009990102214341125 0.0 7.676319381169293e-13 0.0 0.01 0.0 7.676319381169293e-13 0.0 0.010013706830163054 0.009990089751444423 0.0 4.366293935691929e-12 0.0 0.01 0.0 4.366293935691929e-12 0.0 0.01001363428344848 0.009990075793055482 0.0 1.1806572272957913e-11 0.0 0.01 0.0 1.1806572272957913e-11 0.0 0.010013522479246481 0.009990067816859504 0.0 2.5230033556455034e-11 0.0 0.01 0.0 2.5230033556455034e-11 0.0 0.010013375437571486 0.009990077787107466 0.0 6.059175079330698e-11 0.0 0.01 0.0 6.059175079330367e-11 0.0 0.01001320676680923 0.009990111187655642 0.0 1.4696083118723233e-10 0.0 0.01 0.0 1.4696083118723233e-10 0.0 0.010013053815900964 0.009990181977984597 0.0 2.8649395811509296e-10 0.0 0.01 0.0 2.8649395811509296e-10 0.0 0.010012987156195037 0.010004107979939104 0.0 -4.212769110198071e-18 0.0 0.01 0.0 -4.212769110198071e-18 0.0 0.01001668375949015 0.010004121696858053 0.0 3.953160170022618e-12 0.0 0.01 0.0 3.953160170022618e-12 0.0 0.010016643508942775 0.010004162247203859 0.0 1.8064809699943087e-11 0.0 0.01 0.0 1.8064809699943087e-11 0.0 0.010016529644229413 0.01000423754199328 0.0 4.485591172578493e-11 0.0 0.01 0.0 4.485591172578493e-11 0.0 0.010016365788365381 0.01000435684566248 0.0 8.570209155356371e-11 0.0 0.01 0.0 8.570209155355048e-11 0.0 0.010016172950213165 0.010004530426856463 0.0 1.51851660187143e-10 0.0 0.01 0.0 1.51851660187143e-10 0.0 0.010015981077760017 0.010004771012212928 0.0 2.605159935466903e-10 0.0 0.01 0.0 2.6051599354663735e-10 0.0 0.010015832922993996 0.010005098646780656 0.0 3.921435196982398e-10 0.0 0.01 0.0 3.921435196981339e-10 0.0 0.010015788764198261 0.010021889060463071 0.0 1.1637412963497316e-16 0.0 0.01 0.0 1.1637412963497316e-16 0.0 0.010019937416980752 0.010021922479122833 0.0 8.2881478542083e-12 0.0 0.01 0.0 8.288147854214918e-12 0.0 0.010019876957339174 0.01002202470002028 0.0 3.603604189669738e-11 0.0 0.01 0.0 3.6036041896670913e-11 0.0 0.010019716357300012 0.010022206551229214 0.0 8.517335134731701e-11 0.0 0.01 0.0 8.517335134726407e-11 0.0 0.010019489427973833 0.010022471015684365 0.0 1.505557991791455e-10 0.0 0.01 0.0 1.5055579917919845e-10 0.0 0.010019238978665078 0.010022828936779613 0.0 2.265702594405218e-10 0.0 0.01 0.0 2.2657025944062769e-10 0.0 0.010019000817788908 0.01002329549994166 0.0 3.0485105793614426e-10 0.0 0.01 0.0 3.0485105793614426e-10 0.0 0.010018810240976396 0.010023898397842615 0.0 3.4696607966019834e-10 0.0 0.01 0.0 3.4696607966019834e-10 0.0 0.010018709626839997 0.010041211870010707 0.0 7.290804936430586e-18 0.0 0.01 0.0 7.290804936430586e-18 0.0 0.01002326257104228 0.010041270185598729 0.0 1.0959754613333157e-11 0.0 0.01 0.0 1.0959754613333157e-11 0.0 0.010023185385765694 0.01004144670781147 0.0 4.6426469756577295e-11 0.0 0.01 0.0 4.6426469756573986e-11 0.0 0.01002296854143535 0.010041741354094644 0.0 1.0612395881890014e-10 0.0 0.01 0.0 1.0612395881889352e-10 0.0 0.010022670611115635 0.010042160130577424 0.0 1.7626149847451686e-10 0.0 0.01 0.0 1.7626149847451686e-10 0.0 0.010022339284198179 0.010042709566196295 0.0 2.3170621400543237e-10 0.0 0.01 0.0 2.3170621400541914e-10 0.0 0.010022015338449052 0.01004339610765408 0.0 2.4139889739212294e-10 0.0 0.01 0.0 2.4139889739212294e-10 0.0 0.010021719506179331 0.010044242588508985 0.0 1.6309123441638016e-10 0.0 0.01 0.0 1.630912344163934e-10 0.0 0.01002146295153069 0.010058446433768674 0.0 9.173198313610119e-18 0.0 0.01 0.0 9.173198313610119e-18 0.0 0.01002635482158656 0.010058528914230378 0.0 8.831653998663427e-12 0.0 0.01 0.0 8.831653998663013e-12 0.0 0.010026252921689785 0.01005877982809705 0.0 3.7426306214279555e-11 0.0 0.01 0.0 3.742630621428121e-11 0.0 0.01002597586240695 0.010059195345300781 0.0 8.417280761018881e-11 0.0 0.01 0.0 8.417280761018881e-11 0.0 0.010025588582304642 0.010059769418805596 0.0 1.3260900294777693e-10 0.0 0.01 0.0 1.3260900294777693e-10 0.0 0.010025153185126296 0.010060500195352809 0.0 1.5188468305498176e-10 0.0 0.01 0.0 1.5188468305498176e-10 0.0 0.010024702078368907 0.010061375911529495 0.0 1.083194601754731e-10 0.0 0.01 0.0 1.0831946017547641e-10 0.0 0.010024240707765086 0.010062402029737141 0.0 -2.6008425816411042e-11 0.0 0.01 0.0 -2.6008425816411042e-11 0.0 0.010023747423972097 0.01006993434038286 0.0 2.5292542734611487e-18 0.0 0.01 0.0 2.5292542734611487e-18 0.0 0.010028897730927602 0.010070041049889024 0.0 3.0406724300803555e-12 0.0 0.01 0.0 3.040672430080459e-12 0.0 0.010028773613386359 0.010070358696683488 0.0 1.387443533804564e-11 0.0 0.01 0.0 1.3874435338045226e-11 0.0 0.01002842544314083 0.01007087682007324 0.0 3.201990809879926e-11 0.0 0.01 0.0 3.201990809879761e-11 0.0 0.010027937440501358 0.010071585143337192 0.0 4.652771484495089e-11 0.0 0.01 0.0 4.652771484495254e-11 0.0 0.010027375201346304 0.010072455735742954 0.0 3.721650702761908e-11 0.0 0.01 0.0 3.721650702762073e-11 0.0 0.01002676824853899 0.010073472265972615 0.0 -1.452286325884593e-11 0.0 0.01 0.0 -1.4522863258845516e-11 0.0 0.010026102849259836 0.010074601480159782 0.0 -1.1500632845384019e-10 0.0 0.01 0.0 -1.1500632845384019e-10 0.0 0.010025357827833899 0.010074440228239988 0.0 -2.8810242247133422e-18 0.0 0.01 0.0 -2.8810242247133422e-18 0.0 0.010030702318245112 0.010074560527369268 0.0 -1.4328907336974834e-12 0.0 0.01 0.0 -1.4328907336974317e-12 0.0 0.010030550078007443 0.010074916541922036 0.0 -4.235505311979142e-12 0.0 0.01 0.0 -4.2355053119787285e-12 0.0 0.010030135678562993 0.010075492851125111 0.0 -7.1868496508628645e-12 0.0 0.01 0.0 -7.1868496508628645e-12 0.0 0.010029543509013854 0.010076268033012375 0.0 -1.365809047417064e-11 0.0 0.01 0.0 -1.365809047417064e-11 0.0 0.010028849465249194 0.010077211269021549 0.0 -3.012800999731353e-11 0.0 0.01 0.0 -3.01280099973127e-11 0.0 0.010028086133076916 0.010078283749843642 0.0 -6.012905869639875e-11 0.0 0.01 0.0 -6.012905869639875e-11 0.0 0.010027237832141841 0.010079421597559644 0.0 -9.839607860485516e-11 0.0 0.01 0.0 -9.839607860485516e-11 0.0 0.010026279983822283 0.010073557109978294 0.0 1.1268361194633625e-18 0.0 0.01 0.0 1.1268361194633625e-18 0.0 0.010031736393025804 0.010073678399740585 0.0 -2.0952853566975572e-12 0.0 0.01 0.0 -2.0952853566975572e-12 0.0 0.010031563865182423 0.010074039841610694 0.0 -7.426467549567015e-12 0.0 0.01 0.0 -7.426467549567222e-12 0.0 0.010031090695968787 0.010074621471029175 0.0 -1.4480249856286274e-11 0.0 0.01 0.0 -1.4480249856286687e-11 0.0 0.01003041010586119 0.01007540044067628 0.0 -2.267308609262109e-11 0.0 0.01 0.0 -2.267308609262109e-11 0.0 0.010029609037013675 0.010076343484192486 0.0 -3.177664121872241e-11 0.0 0.01 0.0 -3.177664121872241e-11 0.0 0.010028720911476389 0.01007740115562435 0.0 -3.9909597435367866e-11 0.0 0.01 0.0 -3.9909597435367866e-11 0.0 0.010027741009043668 0.010078490230318012 0.0 -4.202349127046408e-11 0.0 0.01 0.0 -4.202349127046573e-11 0.0 0.010026659935107771 0.010069796746290103 0.0 -1.8247558740157726e-18 0.0 0.01 0.0 -1.8247558740157726e-18 0.0 0.01003208293941982 0.010069911416151722 0.0 -6.684113935610354e-13 0.0 0.01 0.0 -6.684113935610354e-13 0.0 0.010031896107834379 0.010070255449242456 0.0 -2.425768366261563e-12 0.0 0.01 0.0 -2.425768366261563e-12 0.0 0.01003138443153545 0.010070810990579455 0.0 -4.743996248185805e-12 0.0 0.01 0.0 -4.743996248185805e-12 0.0 0.010030646659177347 0.010071554698911878 0.0 -7.061129396773206e-12 0.0 0.01 0.0 -7.061129396772999e-12 0.0 0.010029777478620786 0.010072460691935407 0.0 -8.660087757460458e-12 0.0 0.01 0.0 -8.660087757460458e-12 0.0 0.010028824349215723 0.010073478756974423 0.0 -8.520625539702345e-12 0.0 0.01 0.0 -8.520625539701932e-12 0.0 0.010027787242000492 0.01007452008633965 0.0 -5.210763827466954e-12 0.0 0.01 0.0 -5.210763827466954e-12 0.0 0.010026671275344384 0.010065002856772937 0.0 2.8828975696009172e-18 0.0 0.01 0.0 2.8828975696009172e-18 0.0 0.010031869454516815 0.01006510991940992 0.0 4.058422527949697e-13 0.0 0.01 0.0 4.058422527949697e-13 0.0 0.010031677738617493 0.010065428068548337 0.0 1.4177147370082503e-12 0.0 0.01 0.0 1.4177147370082503e-12 0.0 0.010031150298985849 0.010065948949930525 0.0 2.553646962191486e-12 0.0 0.01 0.0 2.553646962191486e-12 0.0 0.010030393858572736 0.010066653683517161 0.0 3.3113283226850216e-12 0.0 0.01 0.0 3.3113283226850216e-12 0.0 0.010029509509618574 0.010067524528197066 0.0 3.3954916310839266e-12 0.0 0.01 0.0 3.395491631083823e-12 0.0 0.010028551010210211 0.010068519662356428 0.0 2.819610689455988e-12 0.0 0.01 0.0 2.819610689455988e-12 0.0 0.010027529767355197 0.010069561904837957 0.0 1.086205344732063e-12 0.0 0.01 0.0 1.086205344732063e-12 0.0 0.01002645470867486 0.010059695357343652 0.0 4.070467049497975e-19 0.0 0.01 0.0 4.070467049497975e-19 0.0 0.010031218836198485 0.010059795277075848 0.0 3.8592770620492375e-13 0.0 0.01 0.0 3.8592770620492375e-13 0.0 0.010031028570669497 0.010060093526932582 0.0 1.2944088251778673e-12 0.0 0.01 0.0 1.2944088251779707e-12 0.0 0.010030512637154883 0.010060587206806148 0.0 2.0414698707272403e-12 0.0 0.01 0.0 2.041469870727137e-12 0.0 0.010029776015629288 0.010061269986496734 0.0 1.89825913691682e-12 0.0 0.01 0.0 1.89825913691682e-12 0.0 0.010028921384894867 0.010062130927988988 0.0 5.535944646035244e-13 0.0 0.01 0.0 5.535944646035244e-13 0.0 0.010028011306959513 0.010063141889362649 0.0 -1.9105822525574048e-12 0.0 0.01 0.0 -1.9105822525574048e-12 0.0 0.01002705621099458 0.01006424123021363 0.0 -6.789242789548598e-12 0.0 0.01 0.0 -6.789242789548805e-12 0.0 0.01002607231150456 0.010053348187883483 0.0 5.3898392003604115e-18 0.0 0.01 0.0 5.3898392003604115e-18 0.0 0.010030225840002306 0.010053445429106272 0.0 -9.59981892161063e-14 0.0 0.01 0.0 -9.59981892161063e-14 0.0 0.01003004748718508 0.010053734222704006 0.0 -4.553633149790386e-13 0.0 0.01 0.0 -4.553633149790386e-13 0.0 0.010029558743276438 0.010054218531163242 0.0 -1.3559811812057092e-12 0.0 0.01 0.0 -1.3559811812056058e-12 0.0 0.010028870143249711 0.010054895999510163 0.0 -2.972407497110103e-12 0.0 0.01 0.0 -2.9724074971096896e-12 0.0 0.010028083208574567 0.010055772235731678 0.0 -4.937650099370511e-12 0.0 0.01 0.0 -4.937650099370511e-12 0.0 0.010027257542385364 0.0100568279173086 0.0 -7.134935949453124e-12 0.0 0.01 0.0 -7.134935949453537e-12 0.0 0.010026402043314264 0.010058020122015567 0.0 -1.1858311343135055e-11 0.0 0.01 0.0 -1.1858311343135055e-11 0.0 0.010025520714652379 0.010045220900401514 0.0 3.513975162229991e-18 0.0 0.01 0.0 3.513975162229991e-18 0.0 0.0100289563365857 0.010045317905978549 0.0 -2.616350257362009e-13 0.0 0.01 0.0 -2.616350257362009e-13 0.0 0.010028793332687802 0.010045603009168354 0.0 -9.325647322744817e-13 0.0 0.01 0.0 -9.325647322744817e-13 0.0 0.010028346625739348 0.010046084673291194 0.0 -1.9632797481592715e-12 0.0 0.01 0.0 -1.9632797481594783e-12 0.0 0.010027723262211548 0.01004676450431586 0.0 -3.037137931522899e-12 0.0 0.01 0.0 -3.0371379315231057e-12 0.0 0.010027024202739541 0.010047657889099521 0.0 -3.374771017850614e-12 0.0 0.01 0.0 -3.3747710178504073e-12 0.0 0.01002630114988869 0.010048757134606514 0.0 -2.979319817107259e-12 0.0 0.01 0.0 -2.979319817107259e-12 0.0 0.010025552204668565 0.01005004457786052 0.0 -4.482684798107998e-12 0.0 0.01 0.0 -4.482684798107998e-12 0.0 0.010024777837884314 0.010035230709701977 0.0 1.4633170395171568e-17 0.0 0.01 0.0 1.4633170395171568e-17 0.0 0.01002746478423211 0.010035320553825711 0.0 8.839505707037705e-14 0.0 0.01 0.0 8.839505707037705e-14 0.0 0.010027317581209111 0.010035596417651315 0.0 5.175004197934821e-13 0.0 0.01 0.0 5.175004197934821e-13 0.0 0.010026921324739051 0.01003606380583401 0.0 1.3451592972878891e-12 0.0 0.01 0.0 1.3451592972878891e-12 0.0 0.010026373014723882 0.010036728713347653 0.0 2.6722409744762534e-12 0.0 0.01 0.0 2.672240974476667e-12 0.0 0.01002576967022427 0.010037607590819907 0.0 5.081624364145279e-12 0.0 0.01 0.0 5.081624364146106e-12 0.0 0.010025149759407216 0.010038710925759899 0.0 8.791563356313303e-12 0.0 0.01 0.0 8.79156335631413e-12 0.0 0.010024510219034485 0.010040039496794686 0.0 1.2913410968880168e-11 0.0 0.01 0.0 1.2913410968883477e-11 0.0 0.01002382905376015 0.010024324313868994 0.0 1.2736461348159902e-16 0.0 0.01 0.0 1.2736461348159902e-16 0.0 0.010025809527007684 0.010024407418394773 0.0 5.470290887813191e-13 0.0 0.01 0.0 5.470290887813191e-13 0.0 0.010025680636623523 0.010024657298452372 0.0 2.2910910972278842e-12 0.0 0.01 0.0 2.2910910972278842e-12 0.0 0.010025334702882171 0.010025080842745795 0.0 5.056005596502552e-12 0.0 0.01 0.0 5.056005596449613e-12 0.0 0.010024864379113249 0.010025686531814081 0.0 8.25162775778909e-12 0.0 0.01 0.0 8.251627757775855e-12 0.0 0.010024357756896302 0.010026491600120278 0.0 1.1687790650605952e-11 0.0 0.01 0.0 1.1687790650599334e-11 0.0 0.01002383887364078 0.01002752240690698 0.0 1.596753807757818e-11 0.0 0.01 0.0 1.596753807757156e-11 0.0 0.010023292076126598 0.010028802662832605 0.0 2.397566565126016e-11 0.0 0.01 0.0 2.3975665651266777e-11 0.0 0.01002269517753133 0.010014020631690409 0.0 7.772390865848495e-18 0.0 0.01 0.0 7.772390865848495e-18 0.0 0.010024049378535033 0.010014087814155269 0.0 6.175148956302151e-13 0.0 0.01 0.0 6.175148956303185e-13 0.0 0.010023938735912096 0.010014296701009555 0.0 2.5921376864801632e-12 0.0 0.01 0.0 2.592137686480577e-12 0.0 0.010023645099997192 0.010014650281840645 0.0 5.506523983768544e-12 0.0 0.01 0.0 5.506523983769371e-12 0.0 0.010023254212994083 0.01001515694041719 0.0 8.048233899568424e-12 0.0 0.01 0.0 8.048233899568424e-12 0.0 0.01002283729376398 0.010015837343929478 0.0 9.104186133090025e-12 0.0 0.01 0.0 9.104186133090025e-12 0.0 0.010022410057136588 0.0100167225029847 0.0 8.899871172808395e-12 0.0 0.01 0.0 8.899871172805086e-12 0.0 0.010021949506205134 0.010017868076383175 0.0 1.3169884649911183e-11 0.0 0.01 0.0 1.3169884649911183e-11 0.0 0.010021418718226715 0.01000552702883269 0.0 -7.104496487548267e-18 0.0 0.01 0.0 -7.104496487548267e-18 0.0 0.01002224983861078 0.01000558131919373 0.0 3.978985425020958e-13 0.0 0.01 0.0 3.978985425020958e-13 0.0 0.010022159892086754 0.010005741741355956 0.0 1.668884536235763e-12 0.0 0.01 0.0 1.6688845362353493e-12 0.0 0.010021919509680191 0.010006016174802129 0.0 3.277208161202513e-12 0.0 0.01 0.0 3.277208161202513e-12 0.0 0.010021604965027424 0.010006411911623617 0.0 3.552081452594311e-12 0.0 0.01 0.0 3.552081452594311e-12 0.0 0.010021270322035158 0.010006946180716814 0.0 5.867046799269072e-13 0.0 0.01 0.0 5.867046799269072e-13 0.0 0.010020924391777123 0.01000766114498685 0.0 -6.599452424810677e-12 0.0 0.01 0.0 -6.599452424809023e-12 0.0 0.010020527886555192 0.01000862048411351 0.0 -1.2775070257893193e-11 0.0 0.01 0.0 -1.2775070257893193e-11 0.0 0.010020051347649024 0.009999309071613904 0.0 -5.901303928848498e-18 0.0 0.01 0.0 -5.901303928848498e-18 0.0 0.010020475817610933 0.00999935056327069 0.0 2.7890210148438283e-13 0.0 0.01 0.0 2.7890210148438283e-13 0.0 0.010020405035333345 0.009999471541893151 0.0 1.026852010339099e-12 0.0 0.01 0.0 1.0268520103389957e-12 0.0 0.010020215937799051 0.009999677015648509 0.0 1.4759831623061668e-12 0.0 0.01 0.0 1.4759831623060635e-12 0.0 0.010019970313119018 0.00999997500009375 0.0 2.4442036258189663e-14 0.0 0.01 0.0 2.4442036258189663e-14 0.0 0.010019708008119858 0.010000385772321893 0.0 -5.056236535453868e-12 0.0 0.01 0.0 -5.056236535453868e-12 0.0 0.010019426562426062 0.010000949335168482 0.0 -1.5314208383076514e-11 0.0 0.01 0.0 -1.531420838307817e-11 0.0 0.010019076900698975 0.010001744606441569 0.0 -2.859779205592677e-11 0.0 0.01 0.0 -2.859779205592677e-11 0.0 0.010018631541096177 0.009995178489287894 0.0 -1.087451443880121e-18 0.0 0.01 0.0 -1.087451443880121e-18 0.0 0.010018775898079325 0.009995208446049895 0.0 4.182430718020016e-13 0.0 0.01 0.0 4.182430718020016e-13 0.0 0.010018722850813821 0.009995302811610767 0.0 1.219594945496322e-12 0.0 0.01 0.0 1.219594945496322e-12 0.0 0.010018581915110687 0.009995463089402438 0.0 1.1689088463314179e-12 0.0 0.01 0.0 1.1689088463314179e-12 0.0 0.010018395836801882 0.009995698776670675 0.0 -7.740036907716583e-13 0.0 0.01 0.0 -7.7400369077171e-13 0.0 0.010018187698804087 0.009996031863166764 0.0 -4.016872914691106e-12 0.0 0.01 0.0 -4.016872914691106e-12 0.0 0.010017947149670409 0.009996503834331217 0.0 -7.947719760705268e-12 0.0 0.01 0.0 -7.947719760705268e-12 0.0 0.010017626595239224 0.009997193681755487 0.0 -1.3664244706168821e-11 0.0 0.01 0.0 -1.3664244706169648e-11 0.0 0.010017194144342953 0.009992605210531547 0.0 -3.692017953492776e-18 0.0 0.01 0.0 -3.692017953492776e-18 0.0 0.010017180423839988 0.009992632150786983 0.0 5.126795137198041e-13 0.0 0.01 0.0 5.126795137197783e-13 0.0 0.010017143082243817 0.009992711975045334 0.0 1.0821710738336283e-12 0.0 0.01 0.0 1.0821710738335766e-12 0.0 0.010017038548098529 0.009992851173172206 0.0 -1.570294714796739e-14 0.0 0.01 0.0 -1.570294714796739e-14 0.0 0.010016897231177869 0.009993065220351137 0.0 -2.1075192805405558e-12 0.0 0.01 0.0 -2.1075192805405558e-12 0.0 0.010016724462784307 0.009993378083279363 0.0 2.8136986536986756e-13 0.0 0.01 0.0 2.8136986536986756e-13 0.0 0.010016502208740447 0.009993830713713688 0.0 1.3541548004727468e-11 0.0 0.01 0.0 1.3541548004727468e-11 0.0 0.010016189630926455 0.009994495049011601 0.0 3.475780327173312e-11 0.0 0.01 0.0 3.475780327172981e-11 0.0 0.010015759325325552 0.009991046539040543 0.0 1.7860810301678345e-18 0.0 0.01 0.0 1.7860810301678345e-18 0.0 0.01001569848916032 0.009991071970704977 0.0 3.6194945610148955e-14 0.0 0.01 0.0 3.6194945610148955e-14 0.0 0.010015670055791886 0.00999115275492728 0.0 -1.1294456833154311e-12 0.0 0.01 0.0 -1.1294456833153794e-12 0.0 0.010015591086646625 0.00999129587746552 0.0 -4.787650601064192e-12 0.0 0.01 0.0 -4.787650601064605e-12 0.0 0.010015475801076765 0.009991523789115223 0.0 -6.765251445163633e-12 0.0 0.01 0.0 -6.765251445163633e-12 0.0 0.010015316366940101 0.00999186394010297 0.0 5.357181578042565e-12 0.0 0.01 0.0 5.357181578042565e-12 0.0 0.010015091695273915 0.009992362758037455 0.0 4.5179040506570274e-11 0.0 0.01 0.0 4.5179040506566965e-11 0.0 0.010014770962865426 0.00999307669646251 0.0 1.0754318058875441e-10 0.0 0.01 0.0 1.0754318058875441e-10 0.0 0.010014341844381583 0.009990128635836404 0.0 -1.0562763197737835e-18 0.0 0.01 0.0 -1.0562763197737835e-18 0.0 0.010014323666443115 0.009990156553115796 0.0 -1.198819744338503e-12 0.0 0.01 0.0 -1.198819744338503e-12 0.0 0.010014301119911122 0.009990244793198532 0.0 -5.540454245162147e-12 0.0 0.01 0.0 -5.540454245162147e-12 0.0 0.010014232979090808 0.009990412804791949 0.0 -1.1816105674478507e-11 0.0 0.01 0.0 -1.1816105674480162e-11 0.0 0.010014119698683108 0.009990684532875547 0.0 -1.0025415438620959e-11 0.0 0.01 0.0 -1.0025415438621786e-11 0.0 0.010013949534231638 0.009991094410570167 0.0 1.9516717552455926e-11 0.0 0.01 0.0 1.951671755245758e-11 0.0 0.010013707332221932 0.009991685381440503 0.0 9.342321407699488e-11 0.0 0.01 0.0 9.342321407698826e-11 0.0 0.010013379353243984 0.009992508426966964 0.0 2.9527324001078386e-10 0.0 0.01 0.0 2.952732400107574e-10 0.0 0.010012968533879561 0.009989676009752235 0.0 1.0403615530784003e-18 0.0 0.01 0.0 1.0403615530784003e-18 0.0 0.01001303228185942 0.009989709904728722 0.0 -2.5146705250495276e-12 0.0 0.01 0.0 -2.5146705250495276e-12 0.0 0.010013008740140808 0.009989822059683974 0.0 -8.98159887308656e-12 0.0 0.01 0.0 -8.98159887308656e-12 0.0 0.010012935706654605 0.00999003142570777 0.0 -1.2830621773041912e-11 0.0 0.01 0.0 -1.2830621773041085e-11 0.0 0.010012809219448898 0.009990369430067411 0.0 3.105588149047518e-12 0.0 0.01 0.0 3.1055881490471045e-12 0.0 0.010012620551608157 0.009990880988638618 0.0 6.193180057263953e-11 0.0 0.01 0.0 6.193180057263622e-11 0.0 0.010012363239718424 0.009991604085556135 0.0 1.7268743344732657e-10 0.0 0.01 0.0 1.7268743344732657e-10 0.0 0.010012043672621356 0.009992552328442258 0.0 2.149663312842723e-09 0.0 0.01 0.0 2.149663312842723e-09 0.0 0.01001168841095271 0.009989655573241961 0.0 7.008909947848104e-20 0.0 0.01 0.0 7.008909947848104e-20 0.0 0.010011794784773403 0.009989701430952251 0.0 -2.1183856505110992e-12 0.0 0.01 0.0 -2.1183856505110992e-12 0.0 0.010011768793121005 0.009989848977435335 0.0 -4.473798485611856e-12 0.0 0.01 0.0 -4.4737984856114426e-12 0.0 0.010011684999017645 0.009990119662474874 0.0 6.087502416562619e-12 0.0 0.01 0.0 6.087502416563033e-12 0.0 0.010011542905083763 0.009990561878554929 0.0 5.083447753300374e-11 0.0 0.01 0.0 5.083447753300043e-11 0.0 0.010011339057015166 0.009991206612164152 0.0 1.4680044479335598e-10 0.0 0.01 0.0 1.4680044479335598e-10 0.0 0.010011090221710012 0.009992076926222145 0.0 9.515209234389984e-10 0.0 0.01 0.0 9.515209234391043e-10 0.0 0.010010815370568414 0.009993097652967192 0.0 1.302017732567014e-08 0.0 0.01 0.0 1.302017732567014e-08 0.0 0.010010571941316389 0.009990090748474439 0.0 -1.0183120501739209e-19 0.0 0.01 0.0 -1.0183120501739209e-19 0.0 0.010010597873463803 0.00999015356196752 0.0 2.2381369362307215e-12 0.0 0.01 0.0 2.2381369362307215e-12 0.0 0.010010567025737358 0.009990354971951446 0.0 1.500281252241072e-11 0.0 0.01 0.0 1.5002812522411546e-11 0.0 0.010010476891819437 0.009990721429774559 0.0 5.4148348541348214e-11 0.0 0.01 0.0 5.4148348541348214e-11 0.0 0.010010330435664745 0.009991292386598731 0.0 1.3611757840073243e-10 0.0 0.01 0.0 1.361175784007192e-10 0.0 0.010010142860800745 0.00999208740130068 0.0 8.72409318477755e-10 0.0 0.01 0.0 8.72409318477755e-10 0.0 0.010009941555552146 0.00999305224741702 0.0 9.57460487816699e-09 0.0 0.01 0.0 9.57460487816699e-09 0.0 0.010009766238318117 0.00999400190131778 0.0 5.29370663942527e-08 0.0 0.01 0.0 5.293706639424592e-08 0.0 0.01000968199343909 0.009991050528308397 0.0 2.0567602349752773e-18 0.0 0.01 0.0 2.0567602349752773e-18 0.0 0.010009449426895104 0.009991139290754146 0.0 1.0711420744485273e-11 0.0 0.01 0.0 1.0711420744485273e-11 0.0 0.010009420043885515 0.009991409581984528 0.0 4.7744185661531504e-11 0.0 0.01 0.0 4.7744185661528196e-11 0.0 0.010009340219677794 0.009991891373148053 0.0 1.8470351957148483e-10 0.0 0.01 0.0 1.8470351957149807e-10 0.0 0.010009219785008943 0.009992587250482722 0.0 1.657522058777721e-09 0.0 0.01 0.0 1.6575220587775093e-09 0.0 0.010009087071239726 0.009993452935245447 0.0 1.1439940594591767e-08 0.0 0.01 0.0 1.1439940594592614e-08 0.0 0.010008983791811796 0.009994344801197633 0.0 5.0775446219566696e-08 0.0 0.01 0.0 5.077544621955992e-08 0.0 0.010008959777659148 0.009995044689466133 0.0 1.584349905699254e-07 0.0 0.01 0.0 1.584349905699254e-07 0.0 0.010009038593432653 0.0099926062083149 0.0 2.565998178865874e-18 0.0 0.01 0.0 2.565998178865874e-18 0.0 0.010008394859229296 0.009992715467400317 0.0 4.181163364994304e-11 0.0 0.01 0.0 4.181163364994635e-11 0.0 0.010008377716171548 0.009993049253653328 0.0 6.316446582015706e-10 0.0 0.01 0.0 6.316446582015706e-10 0.0 0.010008328242402428 0.009993591665283212 0.0 4.101716988317164e-09 0.0 0.01 0.0 4.101716988318011e-09 0.0 0.010008271000114352 0.009994292390293856 0.0 1.84720782734693e-08 0.0 0.01 0.0 1.8472078273467605e-08 0.0 0.010008240625055752 0.00999504268925469 0.0 6.202495343772015e-08 0.0 0.01 0.0 6.202495343772692e-08 0.0 0.010008272955532542 0.009995661828795972 0.0 1.6738482479106555e-07 0.0 0.01 0.0 1.6738482479103844e-07 0.0 0.01000839436217531 0.009995949482804863 0.0 3.694407843301607e-07 0.0 0.01 0.0 3.694407843302149e-07 0.0 0.01000859458779458 0.009994658782340498 0.0 2.1479289654691115e-18 0.0 0.01 0.0 2.1479289654691115e-18 0.0 0.01000750990132968 0.009994771603280333 0.0 9.568744517827235e-10 0.0 0.01 0.0 9.568744517827235e-10 0.0 0.010007509450315253 0.009995091616208597 0.0 6.999518399875197e-09 0.0 0.01 0.0 6.999518399876044e-09 0.0 0.010007513810132509 0.009995561956299717 0.0 2.7771494862638798e-08 0.0 0.01 0.0 2.777149486263541e-08 0.0 0.01000754417873104 0.009996086299758337 0.0 8.170520650224483e-08 0.0 0.01 0.0 8.170520650224483e-08 0.0 0.01000762686750152 0.009996515827495953 0.0 1.9547508474683224e-07 0.0 0.01 0.0 1.9547508474683224e-07 0.0 0.010007783032641849 0.009996685172691151 0.0 3.979505833459412e-07 0.0 0.01 0.0 3.979505833459954e-07 0.0 0.010008003271325021 0.009996492419423922 0.0 6.981130576132243e-07 0.0 0.01 0.0 6.981130576132243e-07 0.0 0.01000825688816116 0.00999687346689288 0.0 8.184686290994923e-18 0.0 0.01 0.0 8.184686290994923e-18 0.0 0.010006872327847631 0.009996950395584866 0.0 5.389757917170653e-09 0.0 0.01 0.0 5.389757917170653e-09 0.0 0.010006887459039356 0.009997161708966418 0.0 2.881931040890558e-08 0.0 0.01 0.0 2.881931040890558e-08 0.0 0.01000694618084147 0.009997416003117815 0.0 9.007257407886134e-08 0.0 0.01 0.0 9.007257407884779e-08 0.0 0.010007054308691034 0.009997587380332226 0.0 2.151501382163096e-07 0.0 0.01 0.0 2.151501382163367e-07 0.0 0.010007219267086647 0.009997537936778315 0.0 4.260324355216476e-07 0.0 0.01 0.0 4.2603243552170184e-07 0.0 0.010007437015341061 0.009997205251372307 0.0 7.273919626697408e-07 0.0 0.01 0.0 7.273919626696324e-07 0.0 0.010007698409942808 0.009996796219882946 0.0 1.0943266568364408e-06 0.0 0.01 0.0 1.0943266568364408e-06 0.0 0.010008028387236464 0.009998798216677192 0.0 2.155312581499276e-18 0.0 0.01 0.0 2.155312581499276e-18 0.0 0.010006509751015974 0.009998814210979937 0.0 1.4665197461478696e-08 0.0 0.01 0.0 1.4665197461478696e-08 0.0 0.010006538657552085 0.009998827207066355 0.0 6.918597834770096e-08 0.0 0.01 0.0 6.918597834770096e-08 0.0 0.010006626230943394 0.00999874824041451 0.0 1.88732676612935e-07 0.0 0.01 0.0 1.88732676612935e-07 0.0 0.0100067676192408 0.009998471874036222 0.0 3.9750733622475123e-07 0.0 0.01 0.0 3.9750733622485965e-07 0.0 0.010006957477907653 0.009998010167588557 0.0 7.002269702364051e-07 0.0 0.01 0.0 7.002269702364051e-07 0.0 0.01000721442310782 0.009997691972233956 0.0 1.0739578768757807e-06 0.0 0.01 0.0 1.0739578768755639e-06 0.0 0.010007597672642265 0.009998019400916304 0.0 1.4434178818216545e-06 0.0 0.01 0.0 1.4434178818216545e-06 0.0 0.01000812640697579 0.009999967500158436 0.0 -3.126827500060795e-17 0.0 0.01 0.0 -3.126827500060795e-17 0.0 0.01000640018912397 0.009999915001181628 0.0 2.5556876636336965e-08 0.0 0.01 0.0 2.5556876636336965e-08 0.0 0.010006433453174524 0.009999742011901448 0.0 1.1310656346133312e-07 0.0 0.01 0.0 1.1310656346136022e-07 0.0 0.010006528840217483 0.009999443558795638 0.0 2.870231286829618e-07 0.0 0.01 0.0 2.8702312868301603e-07 0.0 0.010006683957662592 0.009999159654026717 0.0 5.664001753486088e-07 0.0 0.01 0.0 5.664001753485004e-07 0.0 0.010006942821766434 0.009999198726534651 0.0 9.320879318607238e-07 0.0 0.01 0.0 9.32087931860507e-07 0.0 0.01000734611697088 0.009999754753708751 0.0 1.277827864888453e-06 0.0 0.01 0.0 1.277827864888453e-06 0.0 0.01000784737195426 0.010000704962092152 0.0 1.3854625716121054e-06 0.0 0.01 0.0 1.3854625716118885e-06 0.0 0.010008305071950493 0.010001520346647818 0.0 -5.28131535043067e-18 0.0 0.01 0.0 -5.28131535043067e-18 0.0 0.010006464763575917 0.010001513993913668 0.0 3.231373172910186e-08 0.0 0.01 0.0 3.231373172910186e-08 0.0 0.010006507346483397 0.010001493037234969 0.0 1.3979158502427447e-07 0.0 0.01 0.0 1.3979158502427447e-07 0.0 0.010006639409340264 0.010001512560523 0.0 3.409722073483045e-07 0.0 0.01 0.0 3.409722073484129e-07 0.0 0.01000687966035618 0.010001584433500134 0.0 6.169511716229599e-07 0.0 0.01 0.0 6.169511716231767e-07 0.0 0.010007227635234614 0.010001796495569731 0.0 8.631071670829691e-07 0.0 0.01 0.0 8.631071670827523e-07 0.0 0.010007619661536533 0.010002018326435633 0.0 8.783977121110207e-07 0.0 0.01 0.0 8.783977121110207e-07 0.0 0.010007873654876967 0.010002332401073736 0.0 4.856134054514799e-07 0.0 0.01 0.0 4.856134054514799e-07 0.0 0.010008037565280216 0.010003966208374116 0.0 2.8805587890509554e-17 0.0 0.01 0.0 2.8805587890509554e-17 0.0 0.010006614456872953 0.010003857681183939 0.0 2.2522707513321122e-08 0.0 0.01 0.0 2.2522707513334675e-08 0.0 0.010006657993509634 0.010003535575438097 0.0 9.237350545197517e-08 0.0 0.01 0.0 9.237350545202938e-08 0.0 0.010006798427791137 0.010003073222009677 0.0 1.98264057330662e-07 0.0 0.01 0.0 1.98264057330662e-07 0.0 0.010007041135545786 0.010002507304000324 0.0 2.750530140242617e-07 0.0 0.01 0.0 2.750530140242617e-07 0.0 0.010007327407095309 0.010002230251526965 0.0 1.9415722795186824e-07 0.0 0.01 0.0 1.9415722795181403e-07 0.0 0.010007577459632239 0.010001508145256065 0.0 -1.6643659939792263e-07 0.0 0.01 0.0 -1.6643659939786842e-07 0.0 0.01000751822420913 0.01000162394549421 0.0 1.0134147969540853e-17 0.0 0.01 0.0 1.0134147969540853e-17 0.0 0.01000677688270142 0.010001488132117254 0.0 -4.143659677856507e-09 0.0 0.01 0.0 -4.143659677858201e-09 0.0 0.010006802334475947 0.010001132492463718 0.0 -2.7327703845503152e-08 0.0 0.01 0.0 -2.7327703845496376e-08 0.0 0.01000689532538744 0.010000660717149135 0.0 -1.0566316967715902e-07 0.0 0.01 0.0 -1.0566316967715902e-07 0.0 0.010007081266225676 0.010000076664200004 0.0 -2.981241054607472e-07 0.0 0.01 0.0 -2.981241054607472e-07 0.0 0.010007332770856423 0.009998728742455458 0.0 6.304464992932368e-15 0.0 0.01 0.0 6.304464992932368e-15 0.0 0.010000046400322945 0.00999876822762686 0.0 6.0477512207407415e-15 0.0 0.01 0.0 6.0477512207407415e-15 0.0 0.010000048850357952 0.009998824707229438 0.0 -7.482224929216237e-15 0.0 0.01 0.0 -7.482224929216237e-15 0.0 0.010000042500270938 0.009998908178837055 0.0 -1.831513291642813e-14 0.0 0.01 0.0 -1.831513291642813e-14 0.0 0.01000002980013321 0.009999022643302593 0.0 2.2181882765446064e-14 0.0 0.01 0.0 2.2181882765446064e-14 0.0 0.01000000635000605 0.009999166604193865 0.0 1.7685864832439112e-13 0.0 0.01 0.0 1.768586483248047e-13 0.0 0.009999977000079352 0.009999337065928066 0.0 4.530308246701066e-13 0.0 0.01 0.0 4.5303082467176097e-13 0.0 0.009999947000421346 0.009998490841702573 0.0 -2.974298228035578e-14 0.0 0.01 0.0 -2.974298228030408e-14 0.0 0.010000062000576607 0.00999853132361492 0.0 -6.395148809514635e-14 0.0 0.01 0.0 -6.395148809514635e-14 0.0 0.010000063000595357 0.009998593796666797 0.0 -1.2876992118434874e-13 0.0 0.01 0.0 -1.2876992118445214e-13 0.0 0.01000005760049767 0.009998688757948456 0.0 -2.098853322318682e-13 0.0 0.01 0.0 -2.098853322318682e-13 0.0 0.010000041000252154 0.009998820708642024 0.0 -2.390201547416792e-13 0.0 0.01 0.0 -2.390201547416792e-13 0.0 0.010000010250015762 0.009998989653140744 0.0 -1.0860395743458668e-13 0.0 0.01 0.0 -1.0860395743500027e-13 0.0 0.0099999720001176 0.009999189098644817 0.0 1.9472283471912321e-13 0.0 0.01 0.0 1.9472283471912321e-13 0.0 0.009999933500663331 0.00999940155372498 0.0 5.455701469460275e-13 0.0 0.01 0.0 5.455701469476819e-13 0.0 0.009999905001353731 0.009998283442086841 0.0 -5.878902820162744e-14 0.0 0.01 0.0 -5.878902820167914e-14 0.0 0.010000074700837023 0.009998322422234515 0.0 -1.11558850990019e-13 0.0 0.01 0.0 -1.1155885099012239e-13 0.0 0.010000076150869832 0.00999838788991865 0.0 -1.9177385425158183e-13 0.0 0.01 0.0 -1.9177385425158183e-13 0.0 0.010000069800730817 0.009998487843061959 0.0 -2.7897732892392e-13 0.0 0.01 0.0 -2.789773289237132e-13 0.0 0.010000050300379516 0.009998632280649612 0.0 -2.955321449056233e-13 0.0 0.01 0.0 -2.955321449056233e-13 0.0 0.010000015150034427 0.009998822208111744 0.0 -1.3917013731630954e-13 0.0 0.01 0.0 -1.3917013731630954e-13 0.0 0.009999969500139538 0.009999050635211141 0.0 1.9183608463538981e-13 0.0 0.01 0.0 1.918360846358034e-13 0.0 0.009999921000936138 0.00999929457465076 0.0 4.872856021552966e-13 0.0 0.01 0.0 4.872856021552966e-13 0.0 0.009999885001983712 0.00999807705479998 0.0 -6.48406996402705e-14 0.0 0.01 0.0 -6.48406996403222e-14 0.0 0.010000084001058415 0.00999811453338174 0.0 -1.0142217409343209e-13 0.0 0.01 0.0 -1.0142217409343209e-13 0.0 0.010000086451121055 0.009998177498347936 0.0 -1.2011650680119017e-13 0.0 0.01 0.0 -1.2011650680139696e-13 0.0 0.010000080550973256 0.0099982814431172 0.0 -7.921363773913285e-14 0.0 0.01 0.0 -7.921363773908115e-14 0.0 0.010000059100523928 0.009998436366818783 0.0 8.790922081699988e-14 0.0 0.01 0.0 8.790922081710328e-14 0.0 0.01000002000006 0.009998646274935357 0.0 4.2496155895013293e-13 0.0 0.01 0.0 4.249615589505465e-13 0.0 0.009999968500148839 0.009998902680642893 0.0 2.591689668852272e-12 0.0 0.01 0.0 2.591689668852272e-12 0.0 0.00999991350112232 0.009999182100354921 0.0 7.887149852459498e-12 0.0 0.01 0.0 7.887149852446263e-12 0.0 0.009999869502554486 0.009997852192159993 0.0 -4.883919083299499e-14 0.0 0.01 0.0 -4.883919083296914e-14 0.0 0.010000089851210973 0.009997881673286375 0.0 -2.6910429895030073e-14 0.0 0.01 0.0 -2.6910429895030073e-14 0.0 0.010000094751346658 0.009997943634469838 0.0 1.1698994937274937e-13 0.0 0.01 0.0 1.1698994937295616e-13 0.0 0.01000008690113276 0.009998047571945185 0.0 4.771743252298053e-13 0.0 0.01 0.0 4.771743252293917e-13 0.0 0.010000066400661351 0.009998210980203322 0.0 1.6593927645759783e-11 0.0 0.01 0.0 1.6593927645773018e-11 0.0 0.010000025400096776 0.009998439365413088 0.0 1.4663898136347058e-10 0.0 0.01 0.0 1.4663898136347058e-10 0.0 0.009999970500130542 0.009998722744748858 0.0 4.216635954929053e-10 0.0 0.01 0.0 4.216635954929053e-10 0.0 0.009999908001269608 0.009999041137930193 0.0 7.523463061547551e-10 0.0 0.01 0.0 7.523463061547551e-10 0.0 0.009999858503003351 0.009997580878105837 0.0 -1.3712885823154649e-14 0.0 0.01 0.0 -1.3712885823154649e-14 0.0 0.01000009375131838 0.009997603361856561 0.0 1.0575104821852582e-13 0.0 0.01 0.0 1.0575104821852582e-13 0.0 0.010000098151445036 0.009997659322072527 0.0 5.202060873829895e-13 0.0 0.01 0.0 5.202060873834031e-13 0.0 0.010000092751290402 0.009997765749004751 0.0 6.025304004007439e-11 0.0 0.01 0.0 6.025304004007439e-11 0.0 0.010000071800773298 0.009997932141582698 0.0 5.367880207263391e-10 0.0 0.01 0.0 5.367880207263391e-10 0.0 0.010000031250146526 0.009998173000811475 0.0 1.951726342893921e-09 0.0 0.01 0.0 1.951726342895615e-09 0.0 0.009999973000109923 0.009998483844881364 0.0 4.2382928788393406e-09 0.0 0.01 0.0 4.2382928788359524e-09 0.0 0.009999905501342209 0.009998836703027203 0.0 6.699166098971584e-09 0.0 0.01 0.0 6.699166098971584e-09 0.0 0.009999850503359187 0.009997256129736908 0.0 3.1594544366916256e-14 0.0 0.01 0.0 3.1594544366916256e-14 0.0 0.010000099101473148 0.009997271117426583 0.0 2.931541049466319e-13 0.0 0.01 0.0 2.931541049466319e-13 0.0 0.010000102551577501 0.009997320577280772 0.0 4.748769069096098e-11 0.0 0.01 0.0 4.748769069096098e-11 0.0 0.0100000986514598 0.009997418000352776 0.0 6.733489642188311e-10 0.0 0.01 0.0 6.733489642188311e-10 0.0 0.010000079100938598 0.009997580378470367 0.0 3.381125326815671e-09 0.0 0.01 0.0 3.381125326815671e-09 0.0 0.010000038100219455 0.009997815715887317 0.0 9.7501375924904e-09 0.0 0.01 0.0 9.7501375924904e-09 0.0 0.009999977500090206 0.009998128525550173 0.0 1.941286233657748e-08 0.0 0.01 0.0 1.9412862336604586e-08 0.0 0.009999905001410271 0.009998509833276542 0.0 2.837495249551872e-08 0.0 0.01 0.0 2.8374952495491615e-08 0.0 0.009999843503794533 0.009996871968299719 0.0 7.036604945991808e-14 0.0 0.01 0.0 7.036604945986638e-14 0.0 0.010000106951715777 0.009996875964549649 0.0 8.294595842365659e-12 0.0 0.01 0.0 8.294595842368968e-12 0.0 0.010000110351826602 0.009996913429625857 0.0 3.607656819103397e-10 0.0 0.01 0.0 3.607656819103397e-10 0.0 0.010000106951715795 0.009996993356530775 0.0 2.8640043762612265e-09 0.0 0.01 0.0 2.8640043762612265e-09 0.0 0.010000089351198765 0.009997124740563164 0.0 1.1561398166117529e-08 0.0 0.01 0.0 1.1561398166110752e-08 0.0 0.010000048350370718 0.009997321077018796 0.0 3.0529209138897666e-08 0.0 0.01 0.0 3.052920913888411e-08 0.0 0.00999998250018579 0.009997599864887251 0.0 5.848191607756492e-08 0.0 0.01 0.0 5.848191607751071e-08 0.0 0.00999990000201316 0.009997983611077574 0.0 8.324035452117679e-08 0.0 0.01 0.0 8.324035452117679e-08 0.0 0.009999832505247937 0.009996429413274279 0.0 1.0006259816152219e-13 0.0 0.01 0.0 1.0006259816152219e-13 0.0 0.010000121602218031 0.009996420922386843 0.0 6.928454613229805e-11 0.0 0.01 0.0 6.928454613229805e-11 0.0 0.010000126002381452 0.00999643590632067 0.0 1.2159361911337077e-09 0.0 0.01 0.0 1.2159361911341312e-09 0.0 0.010000127452436799 0.009996478860645369 0.0 7.524812496864593e-09 0.0 0.01 0.0 7.524812496861205e-09 0.0 0.010000111801883416 0.009996554281877712 0.0 2.74503630516798e-08 0.0 0.01 0.0 2.74503630516798e-08 0.0 0.010000067850803636 0.00999666566914267 0.0 7.004561229599486e-08 0.0 0.01 0.0 7.004561229599486e-08 0.0 0.009999992500744724 0.009996850491203413 0.0 1.3329698524095846e-07 0.0 0.01 0.0 1.3329698524090425e-07 0.0 0.009999895004320044 0.009997181197783608 0.0 1.912129338443565e-07 0.0 0.01 0.0 1.912129338443565e-07 0.0 0.009999818010454836 0.009995920497709383 0.0 7.603741679787483e-13 0.0 0.01 0.0 7.603741679783347e-13 0.0 0.01000015040339311 0.00999589303146476 0.0 2.0639540785687146e-10 0.0 0.01 0.0 2.0639540785687146e-10 0.0 0.010000159203801802 0.00999588154564878 0.0 2.591739226801099e-09 0.0 0.01 0.0 2.591739226801946e-09 0.0 0.010000165054087344 0.009995875553093588 0.0 1.4204125885618093e-08 0.0 0.01 0.0 1.4204125885618093e-08 0.0 0.010000152853534837 0.009995870559617828 0.0 4.9443130889823645e-08 0.0 0.01 0.0 4.94431308898372e-08 0.0 0.010000106952082673 0.009995861572757342 0.0 1.2515235833592507e-07 0.0 0.01 0.0 1.2515235833592507e-07 0.0 0.01000001125236975 0.009995887546956916 0.0 2.410391047020068e-07 0.0 0.01 0.0 2.410391047020068e-07 0.0 0.009999883510755524 0.00999608282155733 0.0 3.530012368493018e-07 0.0 0.01 0.0 3.530012368493018e-07 0.0 0.009999778526060175 0.009995335765293411 0.0 2.985508520230404e-12 0.0 0.01 0.0 2.985508520229577e-12 0.0 0.010000199705982217 0.009995288332065425 0.0 3.601942255969025e-10 0.0 0.01 0.0 3.601942255967966e-10 0.0 0.01000021730708317 0.009995245393096309 0.0 3.939790975946068e-09 0.0 0.01 0.0 3.939790975947762e-09 0.0 0.010000234358240637 0.00999519196986 0.0 2.04205035348617e-08 0.0 0.01 0.0 2.04205035348617e-08 0.0 0.01000023045802898 0.009995105097090142 0.0 6.980661356958636e-08 0.0 0.01 0.0 6.980661356958636e-08 0.0 0.010000174805314819 0.009994972298938035 0.0 1.7741960817852084e-07 0.0 0.01 0.0 1.7741960817852084e-07 0.0 0.01000005125511882 0.009994827034798627 0.0 3.470608101159914e-07 0.0 0.01 0.0 3.470608101160998e-07 0.0 0.009999862020936603 0.009994828554121359 0.0 5.145815292000814e-07 0.0 0.01 0.0 5.145815292005151e-07 0.0 0.009999687054440699 0.009994671761546154 0.0 3.3810199885340744e-12 0.0 0.01 0.0 3.381019988533247e-12 0.0 0.010000278311618172 0.009994603870876088 0.0 4.1082591663567275e-10 0.0 0.01 0.0 4.1082591663567275e-10 0.0 0.010000307164151918 0.0099945314889678 0.0 4.433204200324215e-09 0.0 0.01 0.0 4.433204200323368e-09 0.0 0.010000341817528034 0.009994436646160027 0.0 2.2776085116799473e-08 0.0 0.01 0.0 2.2776085116813026e-08 0.0 0.010000351568617068 0.0099942953860223 0.0 7.798875902403067e-08 0.0 0.01 0.0 7.798875902397646e-08 0.0 0.010000295914047212 0.00999408974981975 0.0 2.003281002397445e-07 0.0 0.01 0.0 2.003281002396903e-07 0.0 0.010000132308650028 0.009993841717017116 0.0 3.969540024063162e-07 0.0 0.01 0.0 3.969540024063162e-07 0.0 0.009999873026074494 0.00999375141522132 0.0 5.973530433996035e-07 0.0 0.01 0.0 5.973530433996035e-07 0.0 0.009999670569853283 0.0099939215466344 0.0 9.450416985869667e-13 0.0 0.01 0.0 9.450416985869667e-13 0.0 0.010000385272264066 0.009993831212788918 0.0 3.0320669188923355e-10 0.0 0.01 0.0 3.0320669188923355e-10 0.0 0.010000438978903696 0.00999373289641699 0.0 3.6712302429914062e-09 0.0 0.01 0.0 3.6712302429914062e-09 0.0 0.010000494686706843 0.009993615619314182 0.0 1.9635742271249644e-08 0.0 0.01 0.0 1.963574227125642e-08 0.0 0.010000526891697175 0.009993454932009553 0.0 6.874954516161507e-08 0.0 0.01 0.0 6.874954516161507e-08 0.0 0.010000487336331696 0.009993236373071514 0.0 1.8022300223865216e-07 0.0 0.01 0.0 1.8022300223870637e-07 0.0 0.010000338422054653 0.009992991395004527 0.0 3.650989826642966e-07 0.0 0.01 0.0 3.650989826642966e-07 0.0 0.010000167524221957 0.009992911592250268 0.0 5.668777906659133e-07 0.0 0.01 0.0 5.668777906659133e-07 0.0 0.01000026910910727 0.00999307819334951 0.0 -1.0101665641739199e-13 0.0 0.01 0.0 -1.0101665641739199e-13 0.0 0.010000524941331619 0.009992966926582074 0.0 1.26736271673331e-10 0.0 0.01 0.0 1.26736271673331e-10 0.0 0.010000600154023407 0.009992849177459717 0.0 2.1312028730265348e-09 0.0 0.01 0.0 2.1312028730261112e-09 0.0 0.010000687070804136 0.009992718959783336 0.0 1.2751078176096348e-08 0.0 0.01 0.0 1.2751078176096348e-08 0.0 0.010000753985289906 0.009992564800888493 0.0 4.702253386735161e-08 0.0 0.01 0.0 4.702253386735161e-08 0.0 0.01000075983692598 0.009992376728444972 0.0 1.2730548252265386e-07 0.0 0.01 0.0 1.2730548252262676e-07 0.0 0.010000697325365642 0.009992183185395923 0.0 2.636248010135737e-07 0.0 0.01 0.0 2.636248010136279e-07 0.0 0.010000734941446439 0.009992117355995141 0.0 4.141462372562587e-07 0.0 0.01 0.0 4.141462372562587e-07 0.0 0.010001063695440461 0.009992131796046804 0.0 -7.492335385678753e-14 0.0 0.01 0.0 -7.492335385678753e-14 0.0 0.010000691471713358 0.009992000109985863 0.0 1.628204912418086e-11 0.0 0.01 0.0 1.6282049124184168e-11 0.0 0.01000079159398324 0.009991870424256956 0.0 7.591896708763897e-10 0.0 0.01 0.0 7.591896708762838e-10 0.0 0.010000905873076128 0.009991736254726246 0.0 5.851285092092405e-09 0.0 0.01 0.0 5.851285092093252e-09 0.0 0.010001010903273298 0.009991597103266721 0.0 2.404014037012166e-08 0.0 0.01 0.0 2.404014037012505e-08 0.0 0.0100010739230586 0.009991450976091233 0.0 6.873318558712625e-08 0.0 0.01 0.0 6.873318558712625e-08 0.0 0.010001113486659509 0.00999131183895633 0.0 1.4600198464659992e-07 0.0 0.01 0.0 1.4600198464665413e-07 0.0 0.010001292253644862 0.009991257984840959 0.0 2.3127504657091897e-07 0.0 0.01 0.0 2.3127504657094607e-07 0.0 0.01000164301286407 0.009991075960003294 0.0 -4.2390420798193934e-14 0.0 0.01 0.0 -4.2390420798193934e-14 0.0 0.010000879516018659 0.009990928857788593 0.0 -1.352170678897889e-12 0.0 0.01 0.0 -1.3521706788974754e-12 0.0 0.010001004051197583 0.009990786748260332 0.0 1.09412404570375e-10 0.0 0.01 0.0 1.0941240457038824e-10 0.0 0.010001139844857333 0.009990651625175768 0.0 1.6185805985234013e-09 0.0 0.01 0.0 1.6185805985234013e-09 0.0 0.010001271742558633 0.009990527476335654 0.0 8.42445688447814e-09 0.0 0.01 0.0 8.424456884476445e-09 0.0 0.010001383086897154 0.00999041479915411 0.0 2.6885401957696522e-08 0.0 0.01 0.0 2.6885401957696522e-08 0.0 0.010001490083094505 0.009990324560805633 0.0 6.048212439065885e-08 0.0 0.01 0.0 6.048212439065207e-08 0.0 0.010001707938007386 0.009990284677933864 0.0 9.817246368918828e-08 0.0 0.01 0.0 9.817246368921538e-08 0.0 0.010002005004291945 0.009989901318130313 0.0 1.724631406602864e-15 0.0 0.01 0.0 1.724631406602864e-15 0.0 0.01000108512659941 0.009989741307735422 0.0 -1.1102521255899794e-12 0.0 0.01 0.0 -1.1102521255899794e-12 0.0 0.010001224824992695 0.00998958828317989 0.0 -7.384826368387017e-12 0.0 0.01 0.0 -7.38482636838619e-12 0.0 0.010001380185684309 0.00998945171345673 0.0 1.4544370812909742e-10 0.0 0.01 0.0 1.4544370812907095e-10 0.0 0.010001531601798772 0.009989339570974781 0.0 1.5583960294544858e-09 0.0 0.01 0.0 1.558396029454274e-09 0.0 0.010001664465474958 0.009989250856492765 0.0 6.53701052456418e-09 0.0 0.01 0.0 6.53701052456418e-09 0.0 0.010001791481302239 0.009989190551961935 0.0 1.6772273598111243e-08 0.0 0.01 0.0 1.6772273598112937e-08 0.0 0.010001992295270186 0.00998916314124414 0.0 2.9444805398923604e-08 0.0 0.01 0.0 2.9444805398923604e-08 0.0 0.010002232697648446 0.009988597532133462 0.0 3.6523519626640744e-14 0.0 0.01 0.0 3.6523519626640744e-14 0.0 0.010001301053867134 0.009988422636382742 0.0 -8.668195751983128e-13 0.0 0.01 0.0 -8.668195751985196e-13 0.0 0.010001460269795915 0.009988262198787855 0.0 -6.700068568080555e-12 0.0 0.01 0.0 -6.700068568080555e-12 0.0 0.010001628797860963 0.009988125683444253 0.0 -2.5037778072339318e-11 0.0 0.01 0.0 -2.5037778072339318e-11 0.0 0.010001785628156344 0.009988021556890526 0.0 -3.890855829475478e-12 0.0 0.01 0.0 -3.890855829475064e-12 0.0 0.01000192145365578 0.00998794832150447 0.0 5.083420506093883e-10 0.0 0.01 0.0 5.083420506093353e-10 0.0 0.0100020396738708 0.009987906473436297 0.0 2.072243423286453e-09 0.0 0.01 0.0 2.072243423286453e-09 0.0 0.010002206780267643 0.009987887542342193 0.0 4.435728086954199e-09 0.0 0.01 0.0 4.435728086955046e-09 0.0 0.010002409570627827 0.009987149811607879 0.0 9.693253915413052e-14 0.0 0.01 0.0 9.693253915413052e-14 0.0 0.010001528650444399 0.009986956066091257 0.0 -6.361730186833651e-13 0.0 0.01 0.0 -6.361730186833651e-13 0.0 0.010001702584720523 0.009986786236750617 0.0 -6.3295857670359276e-12 0.0 0.01 0.0 -6.3295857670359276e-12 0.0 0.010001880430269745 0.009986647789915752 0.0 -2.5596997216650014e-11 0.0 0.01 0.0 -2.5596997216650014e-11 0.0 0.010002046528070187 0.009986547693452533 0.0 -6.61273950267251e-11 0.0 0.01 0.0 -6.612739502671849e-11 0.0 0.010002182864526664 0.009986488433780798 0.0 -1.2255640354483757e-10 0.0 0.01 0.0 -1.225564035448508e-10 0.0 0.010002281030227534 0.009986459053326324 0.0 -1.4464394476872498e-10 0.0 0.01 0.0 -1.4464394476873821e-10 0.0 0.010002418376999304 0.009986454571584874 0.0 -3.7286510387415775e-11 0.0 0.01 0.0 -3.7286510387419084e-11 0.0 0.010002598162216377 0.0099855488856729 0.0 1.5896622211164314e-13 0.0 0.01 0.0 1.5896622211164314e-13 0.0 0.010001766067739148 0.009985332832093791 0.0 -3.605554207267066e-13 0.0 0.01 0.0 -3.605554207266549e-13 0.0 0.010001955673549298 0.009985143174497155 0.0 -6.154846147034396e-12 0.0 0.01 0.0 -6.1548461470352235e-12 0.0 0.010002148141978895 0.009984993347659036 0.0 -2.7522068887752106e-11 0.0 0.01 0.0 -2.7522068887752106e-11 0.0 0.010002322608926318 0.009984890314511488 0.0 -7.456117869134245e-11 0.0 0.01 0.0 -7.456117869133584e-11 0.0 0.010002460858075417 0.009984833075252133 0.0 -1.4272489641190558e-10 0.0 0.01 0.0 -1.4272489641189235e-10 0.0 0.010002543920400498 0.00998481515707761 0.0 -1.889323304298497e-10 0.0 0.01 0.0 -1.8893233042987618e-10 0.0 0.010002661211930535 0.009984822125245131 0.0 -1.2997202115650688e-10 0.0 0.01 0.0 -1.299720211564804e-10 0.0 0.010002834704877358 0.009983782536397968 0.0 2.2392552656871297e-13 0.0 0.01 0.0 2.2392552656871297e-13 0.0 0.010002016709903824 0.009983534257569263 0.0 -6.248125922765237e-14 0.0 0.01 0.0 -6.248125922765237e-14 0.0 0.010002222440666895 0.009983315847221527 0.0 -6.0739640706650045e-12 0.0 0.01 0.0 -6.0739640706650045e-12 0.0 0.010002429585145854 0.009983141726234388 0.0 -3.052953386888634e-11 0.0 0.01 0.0 -3.052953386888965e-11 0.0 0.010002620679834564 0.009983023329166998 0.0 -8.688672764112161e-11 0.0 0.01 0.0 -8.688672764113485e-11 0.0 0.010002766297437 0.009982955675591201 0.0 -1.7109652240242136e-10 0.0 0.01 0.0 -1.7109652240242136e-10 0.0 0.01000284396275875 0.009982934782853118 0.0 -2.308375744789354e-10 0.0 0.01 0.0 -2.3083757447892218e-10 0.0 0.010002952957478887 0.009982940752193468 0.0 -1.5990713675768092e-10 0.0 0.01 0.0 -1.5990713675765445e-10 0.0 0.01000313427293447 0.009981845060225949 0.0 2.0136529489100265e-13 0.0 0.01 0.0 2.0136529489100265e-13 0.0 0.010002278628585685 0.009981554163148153 0.0 1.2662931045064493e-13 0.0 0.01 0.0 1.2662931045064493e-13 0.0 0.010002503389730346 0.009981293620519763 0.0 -6.2520155634829144e-12 0.0 0.01 0.0 -6.252015563483328e-12 0.0 0.010002729617214903 0.009981082317532133 0.0 -3.478609870198119e-11 0.0 0.01 0.0 -3.478609870197788e-11 0.0 0.01000293879496995 0.009980925216244224 0.0 -1.0319872202333951e-10 0.0 0.01 0.0 -1.0319872202334613e-10 0.0 0.010003101542338255 0.009980831257310283 0.0 -2.07741258079171e-10 0.0 0.01 0.0 -2.07741258079171e-10 0.0 0.010003185121103469 0.009980783036030678 0.0 -2.8258905409225984e-10 0.0 0.01 0.0 -2.8258905409225984e-10 0.0 0.010003296529349696 0.009980773590707247 0.0 -1.9005430002091062e-10 0.0 0.01 0.0 -1.9005430002089738e-10 0.0 0.010003491577816399 0.009979732780947383 0.0 -4.804004805062317e-14 0.0 0.01 0.0 -4.804004805062317e-14 0.0 0.010002557630886857 0.009979393370434382 0.0 -1.195010027838681e-13 0.0 0.01 0.0 -1.195010027838681e-13 0.0 0.010002793169833976 0.009979076850402663 0.0 -7.415723172048144e-12 0.0 0.01 0.0 -7.415723172048144e-12 0.0 0.010003041937444767 0.009978805571488095 0.0 -4.1592297696261015e-11 0.0 0.01 0.0 -4.1592297696264323e-11 0.0 0.010003276509624086 0.009978590948902584 0.0 -1.253758157031572e-10 0.0 0.01 0.0 -1.253758157031572e-10 0.0 0.010003461246204826 0.009978438932949559 0.0 -2.5454559790074667e-10 0.0 0.01 0.0 -2.5454559790073344e-10 0.0 0.010003564905376868 0.009978342063662589 0.0 -3.440660116903459e-10 0.0 0.01 0.0 -3.440660116903459e-10 0.0 0.010003696848993885 0.00997829139469779 0.0 -2.128558055031006e-10 0.0 0.01 0.0 -2.128558055031006e-10 0.0 0.010003918301760738 0.009977476326557306 0.0 -1.0466797224487044e-12 0.0 0.01 0.0 -1.0466797224487044e-12 0.0 0.010002855722807302 0.009977077060765924 0.0 -1.6375195111881863e-12 0.0 0.01 0.0 -1.6375195111881863e-12 0.0 0.010003097638710606 0.009976688269625372 0.0 -1.1176500557138483e-11 0.0 0.01 0.0 -1.117650055713931e-11 0.0 0.010003362044742 0.009976333779390443 0.0 -5.396818661918046e-11 0.0 0.01 0.0 -5.396818661917715e-11 0.0 0.010003621616466275 0.009976032939171181 0.0 -1.58175647707963e-10 0.0 0.01 0.0 -1.581756477079696e-10 0.0 0.010003829348463927 0.00997579268369233 0.0 -3.173433021832149e-10 0.0 0.01 0.0 -3.173433021832149e-10 0.0 0.010003957898504707 0.009975616970634335 0.0 -4.1852801968002345e-10 0.0 0.01 0.0 -4.1852801968002345e-10 0.0 0.010004139268614057 0.009975490403421754 0.0 -2.202454749350396e-10 0.0 0.01 0.0 -2.202454749350396e-10 0.0 0.010004407712477691 0.009975136040854177 0.0 -4.085887448199536e-12 0.0 0.01 0.0 -4.085887448199536e-12 0.0 0.010003183669717811 0.00997467006689544 0.0 -6.1998919653004495e-12 0.0 0.01 0.0 -6.199891965301277e-12 0.0 0.010003418752381362 0.009974197212271387 0.0 -2.0506686212592993e-11 0.0 0.01 0.0 -2.0506686212592993e-11 0.0 0.010003692944669242 0.009973739306992383 0.0 -7.726756716637309e-11 0.0 0.01 0.0 -7.726756716636978e-11 0.0 0.01000397011301871 0.009973320153226242 0.0 -2.1074827968221924e-10 0.0 0.01 0.0 -2.10748279682206e-10 0.0 0.010004191133368218 0.009972958086599445 0.0 -4.087138561479797e-10 0.0 0.01 0.0 -4.087138561479797e-10 0.0 0.010004332413845999 0.009972661518934708 0.0 -5.158547280361498e-10 0.0 0.01 0.0 -5.158547280362027e-10 0.0 0.010004591560429201 0.009972422994576312 0.0 -2.0683444998560785e-10 0.0 0.01 0.0 -2.068344499856211e-10 0.0 0.010004948020013976 0.009972846994609135 0.0 -1.1791512450994805e-11 0.0 0.01 0.0 -1.1791512450994805e-11 0.0 0.010003568809551574 0.009972315887335131 0.0 -1.6724887528506326e-11 0.0 0.01 0.0 -1.6724887528507153e-11 0.0 0.010003773634973893 0.009971750160509949 0.0 -3.949194052982427e-11 0.0 0.01 0.0 -3.9491940529825926e-11 0.0 0.01000404540346997 0.009971172137724483 0.0 -1.1990615605752248e-10 0.0 0.01 0.0 -1.1990615605752248e-10 0.0 0.010004332914496155 0.00997061156156285 0.0 -2.9951292499658543e-10 0.0 0.01 0.0 -2.9951292499659867e-10 0.0 0.01000454119149109 0.009970098154775014 0.0 -5.533076911182099e-10 0.0 0.01 0.0 -5.533076911182099e-10 0.0 0.010004655098474976 0.009969645768391908 0.0 -6.587566103768861e-10 0.0 0.01 0.0 -6.587566103769126e-10 0.0 0.010005007158235922 0.009969257845328252 0.0 -1.7519696852286586e-10 0.0 0.01 0.0 -1.7519696852286586e-10 0.0 0.01000550063522182 0.00997083211296172 0.0 -2.669645705122423e-11 0.0 0.01 0.0 -2.669645705122423e-11 0.0 0.010004049808814976 0.009970241861037206 0.0 -3.495250300400042e-11 0.0 0.01 0.0 -3.495250300399877e-11 0.0 0.010004211158585678 0.009969586809094908 0.0 -7.1957244433097e-11 0.0 0.01 0.0 -7.1957244433097e-11 0.0 0.010004470295745962 0.009968889286055653 0.0 -1.9495872156772316e-10 0.0 0.01 0.0 -1.9495872156772316e-10 0.0 0.010004750432849093 0.009968182499781066 0.0 -4.5515897419872213e-10 0.0 0.01 0.0 -4.5515897419872213e-10 0.0 0.010004915221536927 0.009967503591617508 0.0 -7.987247445035372e-10 0.0 0.01 0.0 -7.987247445035372e-10 0.0 0.010004922081649794 0.00996687333644645 0.0 -8.907643023642613e-10 0.0 0.01 0.0 -8.907643023642878e-10 0.0 0.010005337269928895 0.00996631496985564 0.0 -1.4200544451892735e-10 0.0 0.01 0.0 -1.4200544451892074e-10 0.0 0.010006011265956646 0.009969409442054615 0.0 -4.5662580734284446e-11 0.0 0.01 0.0 -4.566258073428279e-11 0.0 0.01000468784432348 0.009968779815973827 0.0 -5.6006606047837833e-11 0.0 0.01 0.0 -5.6006606047834525e-11 0.0 0.010004801806388684 0.00996805968189998 0.0 -1.1980086981167443e-10 0.0 0.01 0.0 -1.1980086981168105e-10 0.0 0.010005047769425712 0.009967264942052195 0.0 -3.257486788704621e-10 0.0 0.01 0.0 -3.257486788704621e-10 0.0 0.010005325050406338 0.00996643673329181 0.0 -7.349156205142306e-10 0.0 0.01 0.0 -7.349156205142041e-10 0.0 0.010005400872264588 0.009965609225811021 0.0 -1.229109102721448e-09 0.0 0.01 0.0 -1.229109102721448e-09 0.0 0.010005180272505234 0.009964819524557342 0.0 -1.2809433134911836e-09 0.0 0.01 0.0 -1.2809433134911306e-09 0.0 0.010005552971902594 0.009964100742976554 0.0 -1.38297352518175e-10 0.0 0.01 0.0 -1.382973525181816e-10 0.0 0.0100064143663403 0.009968973991625467 0.0 -5.299926578958531e-11 0.0 0.01 0.0 -5.299926578958366e-11 0.0 0.0100055651922599 0.009968346924373867 0.0 -6.449387337591818e-11 0.0 0.01 0.0 -6.449387337591818e-11 0.0 0.010005653240257912 0.009967606087460243 0.0 -1.844131860718894e-10 0.0 0.01 0.0 -1.84413186071896e-10 0.0 0.010005905126462527 0.009966778783730288 0.0 -5.509196713988526e-10 0.0 0.01 0.0 -5.509196713988261e-10 0.0 0.010006181977806021 0.009965895266688164 0.0 -1.227093629536441e-09 0.0 0.01 0.0 -1.2270936295364939e-09 0.0 0.010006133588524967 0.009964998131030854 0.0 -1.96551196174501e-09 0.0 0.01 0.0 -1.9655119617449042e-09 0.0 0.010005552971902927 0.009964117065953059 0.0 -1.9173330899897532e-09 0.0 0.01 0.0 -1.917333089989806e-09 0.0 0.01000571289184415 0.009963301509925897 0.0 -2.0605843674841266e-10 0.0 0.01 0.0 -2.0605843674840604e-10 0.0 0.01000668199138944 0.0099700277905266 0.0 -2.231483412126518e-11 0.0 0.01 0.0 -2.2314834121263525e-11 0.0 0.01000678033972204 0.009969457003237082 0.0 -3.9559520958515954e-11 0.0 0.01 0.0 -3.95595209585143e-11 0.0 0.010006885054073478 0.009968783778628816 0.0 -2.6654437390168937e-10 0.0 0.01 0.0 -2.6654437390168937e-10 0.0 0.010007173711944593 0.009968033930339478 0.0 -9.133939076723263e-10 0.0 0.01 0.0 -9.133939076723263e-10 0.0 0.010007457082927235 0.009967238206447303 0.0 -2.0393157944222887e-09 0.0 0.01 0.0 -2.0393157944223946e-09 0.0 0.01000726130132485 0.00996642039891457 0.0 -3.1690518580481804e-09 0.0 0.01 0.0 -3.1690518580481804e-09 0.0 0.010006242640724203 0.009965600813217965 0.0 -2.932713183048778e-09 0.0 0.01 0.0 -2.932713183048778e-09 0.0 0.010006010765055745 0.009964825461460094 0.0 -4.2869014783635e-10 0.0 0.01 0.0 -4.2869014783636326e-10 0.0 0.010006914414764024 0.009973273528736263 0.0 7.207010488014038e-11 0.0 0.01 0.0 7.207010488014038e-11 0.0 0.010008427140547919 0.009972852449932693 0.0 3.8791656962996433e-11 0.0 0.01 0.0 3.879165696299809e-11 0.0 0.010008591158532419 0.009972375390931962 0.0 -3.673633502941538e-10 0.0 0.01 0.0 -3.6736335029414056e-10 0.0 0.010008931852462875 0.00997187658540783 0.0 -1.4702333294984344e-09 0.0 0.01 0.0 -1.4702333294985403e-09 0.0 0.010009204091719353 0.009971369427514535 0.0 -3.315120011389667e-09 0.0 0.01 0.0 -3.3151200113898788e-09 0.0 0.01000884326669032 0.00997084846904548 0.0 -5.06097807988481e-09 0.0 0.01 0.0 -5.060978079885022e-09 0.0 0.01000750012936489 0.009970309256462322 0.0 -4.535021529694175e-09 0.0 0.01 0.0 -4.535021529694175e-09 0.0 0.010006851284591682 0.00996977706806381 0.0 -9.251434136118586e-10 0.0 0.01 0.0 -9.251434136119115e-10 0.0 0.010007461943788928 0.009979697496543241 0.0 2.3656393381779276e-10 0.0 0.01 0.0 2.3656393381779276e-10 0.0 0.010010545457577711 0.009979540957573462 0.0 1.608725173697056e-10 0.0 0.01 0.0 1.608725173697122e-10 0.0 0.010010787430225071 0.009979422191650782 0.0 -5.321971691562856e-10 0.0 0.01 0.0 -5.321971691562856e-10 0.0 0.01001115729504527 0.00997936802784782 0.0 -2.3175197241292973e-09 0.0 0.01 0.0 -2.3175197241291914e-09 0.0 0.01001136258695968 0.009979369518586106 0.0 -5.171930825797407e-09 0.0 0.01 0.0 -5.171930825797195e-09 0.0 0.010010830068189652 0.009979369021679195 0.0 -7.694247477835782e-09 0.0 0.01 0.0 -7.694247477836205e-09 0.0 0.010009456246206035 0.009979332250412224 0.0 -6.800399748506868e-09 0.0 0.01 0.0 -6.800399748506868e-09 0.0 0.010008975469419736 0.00997926616253227 0.0 -1.7362316001370845e-09 0.0 0.01 0.0 -1.7362316001369786e-09 0.0 0.010009138511613466 0.009990303621219393 0.0 4.106517508462622e-10 0.0 0.01 0.0 4.106517508462622e-10 0.0 0.010013090609817933 0.009990525980583954 0.0 2.2768588891853058e-10 0.0 0.01 0.0 2.2768588891854382e-10 0.0 0.01001337543757149 0.0099908984408533 0.0 -8.810719507552146e-10 0.0 0.01 0.0 -8.810719507551617e-10 0.0 0.010013706328104364 0.009991440003590488 0.0 -3.511360340479471e-09 0.0 0.01 0.0 -3.5113603404792594e-09 0.0 0.01001376225792148 0.009992089895380054 0.0 -7.447686328134741e-09 0.0 0.01 0.0 -7.447686328134741e-09 0.0 0.010013290097140757 0.009992763362940627 0.0 -1.0606382775712791e-08 0.0 0.01 0.0 -1.0606382775712791e-08 0.0 0.010012760232058018 0.009993396047605444 0.0 -9.070395871719634e-09 0.0 0.01 0.0 -9.070395871719634e-09 0.0 0.010012867091782328 0.009993972454080534 0.0 -2.566967926667079e-09 0.0 0.01 0.0 -2.566967926667291e-09 0.0 0.010012680829799772 0.010005554925153242 0.0 4.5127768520492784e-10 0.0 0.01 0.0 4.512776852049808e-10 0.0 0.010015898685013595 0.010006207425038847 0.0 6.766821330287855e-11 0.0 0.01 0.0 6.766821330287855e-11 0.0 0.010016136624731314 0.010007113032092858 0.0 -1.5069349715726915e-09 0.0 0.01 0.0 -1.5069349715726915e-09 0.0 0.010016334837041679 0.010008258268601081 0.0 -4.863857574775614e-09 0.0 0.01 0.0 -4.863857574775614e-09 0.0 0.010016297052700582 0.0100095654572257 0.0 -9.475003061555295e-09 0.0 0.01 0.0 -9.475003061551907e-09 0.0 0.010016414828726459 0.01001092462610107 0.0 -1.2606866034732393e-08 0.0 0.01 0.0 -1.2606866034735781e-08 0.0 0.010017227516081837 0.01001225835331458 0.0 -9.991403474254759e-09 0.0 0.01 0.0 -9.991403474258147e-09 0.0 0.010017728684756071 0.010013523985341059 0.0 -2.4309701383531712e-09 0.0 0.01 0.0 -2.4309701383531712e-09 0.0 0.010017278579449257 0.010024684347666532 0.0 2.511169335479303e-10 0.0 0.01 0.0 2.511169335479303e-10 0.0 0.010018715006929491 0.010025720945826357 0.0 -3.645184340830662e-10 0.0 0.01 0.0 -3.645184340831721e-10 0.0 0.010018777356262526 0.01002705026298144 0.0 -2.230877328806589e-09 0.0 0.01 0.0 -2.2308773288070124e-09 0.0 0.010018749399482874 0.010028643095730537 0.0 -5.765850518417633e-09 0.0 0.01 0.0 -5.765850518417633e-09 0.0 0.010018695849832839 0.010030417523143112 0.0 -1.010668410501961e-08 0.0 0.01 0.0 -1.0106684105017915e-08 0.0 0.010019519402698891 0.0100322801310324 0.0 -1.2143134391409943e-08 0.0 0.01 0.0 -1.2143134391411637e-08 0.0 0.010020883083831133 0.010034149737570776 0.0 -8.11300531784957e-09 0.0 0.01 0.0 -8.113005317848723e-09 0.0 0.010021126310070794 0.01003592112624096 0.0 -8.40664959146307e-10 0.0 0.01 0.0 -8.406649591464129e-10 0.0 0.010020264531674162 0.010045281769298779 0.0 -8.230091145151352e-11 0.0 0.01 0.0 -8.230091145151352e-11 0.0 0.010021237362772018 0.010046560981621655 0.0 -8.002219958191167e-10 0.0 0.01 0.0 -8.002219958191167e-10 0.0 0.010021001524831655 0.010048077406272357 0.0 -2.551727901081588e-09 0.0 0.01 0.0 -2.551727901081482e-09 0.0 0.010020729328067818 0.01004979726064927 0.0 -5.5254845887536495e-09 0.0 0.01 0.0 -5.5254845887536495e-09 0.0 0.010020742560044444 0.010051662766120174 0.0 -8.722841089479896e-09 0.0 0.01 0.0 -8.722841089479049e-09 0.0 0.010021881662111504 0.010053612178472997 0.0 -9.148493483844792e-09 0.0 0.01 0.0 -9.14849348384564e-09 0.0 0.010022937579219456 0.010055565674069341 0.0 -5.280954029029008e-09 0.0 0.01 0.0 -5.280954029029432e-09 0.0 0.010022314217048859 0.010057346955950648 0.0 -3.3473885746157046e-09 0.0 0.01 0.0 -3.3473885746157046e-09 0.0 0.010021111114192682 0.010063579758111021 0.0 -2.9204592550868835e-10 0.0 0.01 0.0 -2.920459255087016e-10 0.0 0.010023206532239481 0.010064902322969103 0.0 -8.730324329140602e-10 0.0 0.01 0.0 -8.730324329140602e-10 0.0 0.010022632251622986 0.0100663174656193 0.0 -2.112511712362663e-09 0.0 0.01 0.0 -2.1125117123627688e-09 0.0 0.010022151989794488 0.01006776667653943 0.0 -4.098545019810625e-09 0.0 0.01 0.0 -4.098545019810519e-09 0.0 0.010022138752239222 0.010069218963736644 0.0 -6.257053958230805e-09 0.0 0.01 0.0 -6.257053958230805e-09 0.0 0.010023048692152106 0.01007065987873587 0.0 -7.78078577110896e-09 0.0 0.01 0.0 -7.78078577110896e-09 0.0 0.010023347109352577 0.010072014663924787 0.0 -8.4950377859912e-09 0.0 0.01 0.0 -8.4950377859912e-09 0.0 0.010021866412475764 0.010073145840991586 0.0 -6.417124696789125e-09 0.0 0.01 0.0 -6.417124696789125e-09 0.0 0.010020589766652014 0.010075796488747867 0.0 -2.7384769399546857e-10 0.0 0.01 0.0 -2.738476939954818e-10 0.0 0.01002451465147029 0.010076985936519694 0.0 -5.770028667257484e-10 0.0 0.01 0.0 -5.770028667257616e-10 0.0 0.010023610203807026 0.010078061365015599 0.0 -1.2159980253995486e-09 0.0 0.01 0.0 -1.2159980253995751e-09 0.0 0.010022761578235331 0.010078941112311304 0.0 -2.3485896794426956e-09 0.0 0.01 0.0 -2.3485896794427486e-09 0.0 0.010022252254668032 0.010079597118525662 0.0 -3.937017319983954e-09 0.0 0.01 0.0 -3.937017319983954e-09 0.0 0.010022337824461484 0.010080064690087051 0.0 -5.602233825352448e-09 0.0 0.01 0.0 -5.602233825352448e-09 0.0 0.010021872804222481 0.01008037324818926 0.0 -5.861238009925127e-09 0.0 0.01 0.0 -5.861238009924703e-09 0.0 0.010021100295986457 0.01008055983075515 0.0 -1.237759054713167e-09 0.0 0.01 0.0 -1.2377590547131934e-09 0.0 0.010019863728795032 0.010080532275498674 0.0 -1.4023769627497535e-10 0.0 0.01 0.0 -1.4023769627497866e-10 0.0 0.010025221549107568 0.01008148828813237 0.0 -2.1795459418171525e-10 0.0 0.01 0.0 -2.1795459418170864e-10 0.0 0.010024117216310907 0.010082138745277601 0.0 -4.108834319929725e-10 0.0 0.01 0.0 -4.108834319929857e-10 0.0 0.010023049648730476 0.010082383948288582 0.0 -8.069899295990472e-10 0.0 0.01 0.0 -8.069899295990472e-10 0.0 0.010022198699159731 0.010082224833325283 0.0 -1.4175952894895039e-09 0.0 0.01 0.0 -1.4175952894895039e-09 0.0 0.010021692933892932 0.010081742461244155 0.0 -1.938579555567808e-09 0.0 0.01 0.0 -1.938579555567861e-09 0.0 0.010020801073158012 0.010081082040456064 0.0 -1.1133677808587887e-09 0.0 0.01 0.0 -1.1133677808587623e-09 0.0 0.010021179898697297 0.010080412274481866 0.0 3.1551226875198846e-09 0.0 0.01 0.0 3.1551226875198846e-09 0.0 0.010019783151494092 0.010079486111200499 0.0 -3.323188686845368e-11 0.0 0.01 0.0 -3.3231886868452855e-11 0.0 0.010025504944563786 0.010080221705485967 0.0 -2.1263729644436266e-11 0.0 0.01 0.0 -2.1263729644437093e-11 0.0 0.010024347935490617 0.010080522800230422 0.0 -2.764540513663008e-11 0.0 0.01 0.0 -2.764540513663008e-11 0.0 0.010023245854966795 0.010080294223883145 0.0 -7.129005066187031e-11 0.0 0.01 0.0 -7.129005066187031e-11 0.0 0.010022293076218103 0.010079551086905163 0.0 -1.3670397332240428e-10 0.0 0.01 0.0 -1.3670397332240428e-10 0.0 0.010021585288098298 0.010078426247653914 0.0 -6.817623799143204e-11 0.0 0.01 0.0 -6.81762379914337e-11 0.0 0.010020736673566327 0.01007711333655394 0.0 6.064546942230334e-10 0.0 0.01 0.0 6.064546942230467e-10 0.0 0.010021825143174594 0.010075846969822265 0.0 2.4505243141751812e-09 0.0 0.01 0.0 2.4505243141751812e-09 0.0 0.010020295016392193 0.010075451887463543 0.0 2.2684117555563126e-12 0.0 0.01 0.0 2.2684117555563126e-12 0.0 0.010025528574532634 0.010076077698956095 0.0 1.225779234778342e-11 0.0 0.01 0.0 1.225779234778342e-11 0.0 0.010024437940939554 0.010076217596761918 0.0 2.207232016771139e-11 0.0 0.01 0.0 2.207232016771139e-11 0.0 0.010023421881452235 0.010075772501553318 0.0 3.3944589510370665e-11 0.0 0.01 0.0 3.394458951037149e-11 0.0 0.010022563940598368 0.010074773221457656 0.0 5.7209357701648574e-11 0.0 0.01 0.0 5.720935770165023e-11 0.0 0.010021955898116903 0.010073371478168716 0.0 1.1040368390645702e-10 0.0 0.01 0.0 1.1040368390645371e-10 0.0 0.010021355816357193 0.010071774201225797 0.0 2.067539995574691e-10 0.0 0.01 0.0 2.067539995574691e-10 0.0 0.01002265389800166 0.010070221544741827 0.0 3.049402713264467e-10 0.0 0.01 0.0 3.049402713264467e-10 0.0 0.0100210132987226 0.010070515258950983 0.0 -4.705595143372113e-12 0.0 0.01 0.0 -4.705595143371906e-12 0.0 0.01002539279266175 0.010071182083558287 0.0 -2.135497831890925e-11 0.0 0.01 0.0 -2.1354978318908422e-11 0.0 0.010024421672287752 0.010071370148263212 0.0 -5.547703767950397e-11 0.0 0.01 0.0 -5.547703767950397e-11 0.0 0.010023547260662508 0.010070976613714856 0.0 -1.0618127909397052e-10 0.0 0.01 0.0 -1.0618127909397052e-10 0.0 0.010022884969249312 0.01007002608993084 0.0 -1.633856547807607e-10 0.0 0.01 0.0 -1.633856547807607e-10 0.0 0.01002256394059837 0.01006867266833469 0.0 -2.1611336073918893e-10 0.0 0.01 0.0 -2.1611336073918893e-10 0.0 0.010022199705834197 0.010067110987806877 0.0 -2.2829863213582752e-10 0.0 0.01 0.0 -2.2829863213582752e-10 0.0 0.010023342728807285 0.010065558039111338 0.0 -1.2250300616934882e-10 0.0 0.01 0.0 -1.2250300616934551e-10 0.0 0.010021609896859029 0.010065305597952823 0.0 -2.0172060582845955e-11 0.0 0.01 0.0 -2.0172060582846782e-11 0.0 0.010025118273183078 0.010066146156377914 0.0 -5.994043035585202e-11 0.0 0.01 0.0 -5.994043035585036e-11 0.0 0.01002427022148818 0.010066565035418733 0.0 -1.5654687059778787e-10 0.0 0.01 0.0 -1.565468705977945e-10 0.0 0.010023528579365427 0.010066434056784205 0.0 -3.298207237664386e-10 0.0 0.01 0.0 -3.298207237664254e-10 0.0 0.010023029510174256 0.010065766695989652 0.0 -5.527925286336114e-10 0.0 0.01 0.0 -5.527925286336114e-10 0.0 0.010022927711630318 0.010064696676488506 0.0 -7.236309602723666e-10 0.0 0.01 0.0 -7.236309602723137e-10 0.0 0.01002259736600998 0.010063405123515456 0.0 -5.677348974909879e-10 0.0 0.01 0.0 -5.677348974909879e-10 0.0 0.010023417953986754 0.010062072706627458 0.0 3.788969925896031e-10 0.0 0.01 0.0 3.7889699258958986e-10 0.0 0.010021620716719198 0.01005925148096662 0.0 -2.801482607521452e-11 0.0 0.01 0.0 -2.8014826075212867e-11 0.0 0.01002467452530087 0.010060350056263786 0.0 -8.905116036324025e-11 0.0 0.01 0.0 -8.905116036324025e-11 0.0 0.010023928865378185 0.010061115790073252 0.0 -2.7290359636448917e-10 0.0 0.01 0.0 -2.7290359636448917e-10 0.0 0.010023283718004596 0.010061397758983735 0.0 -6.528329152176953e-10 0.0 0.01 0.0 -6.528329152176953e-10 0.0 0.010022884465808804 0.010061177966840354 0.0 -1.1827765027857074e-09 0.0 0.01 0.0 -1.1827765027857074e-09 0.0 0.010022874648733011 0.010060555385504127 0.0 -1.6261853997986249e-09 0.0 0.01 0.0 -1.6261853997986249e-09 0.0 0.010022458733278469 0.010059683395680526 0.0 -1.4594634674409276e-09 0.0 0.01 0.0 -1.4594634674409805e-09 0.0 0.010022969044888908 0.010058720698052062 0.0 1.0884261770152346e-10 0.0 0.01 0.0 1.0884261770152677e-10 0.0 0.01002115972109095 0.010051447064064334 0.0 -1.8865215454424742e-11 0.0 0.01 0.0 -1.886521545442557e-11 0.0 0.010024022787711327 0.010052827787000873 0.0 -1.0028770088951856e-10 0.0 0.01 0.0 -1.0028770088951856e-10 0.0 0.010023350583566104 0.010053997227406658 0.0 -3.968635310882347e-10 0.0 0.01 0.0 -3.9686353108826117e-10 0.0 0.010022767468277892 0.010054788805038725 0.0 -1.0660299417987192e-09 0.0 0.01 0.0 -1.0660299417987192e-09 0.0 0.01002242188633031 0.010055134797814091 0.0 -2.040779385502221e-09 0.0 0.01 0.0 -2.0407793855021153e-09 0.0 0.010022411063875455 0.010055076189503763 0.0 -2.9265298487948774e-09 0.0 0.01 0.0 -2.9265298487949833e-09 0.0 0.010021905266459406 0.010054736200187694 0.0 -2.9817053602672877e-09 0.0 0.01 0.0 -2.9817053602672877e-09 0.0 0.010022197239483393 0.010054231438882972 0.0 -1.262369340934325e-09 0.0 0.01 0.0 -1.262369340934325e-09 0.0 0.010020460071317345 0.010041564866968705 0.0 8.532086920284338e-12 0.0 0.01 0.0 8.53208692028351e-12 0.0 0.010023151450989887 0.0100431952714782 0.0 -7.618979655600815e-11 0.0 0.01 0.0 -7.618979655602138e-11 0.0 0.010022531975344444 0.01004477402176599 0.0 -4.659540768426347e-10 0.0 0.01 0.0 -4.659540768426611e-10 0.0 0.010021985844638107 0.010046124316594409 0.0 -1.421601039618596e-09 0.0 0.01 0.0 -1.4216010396187018e-09 0.0 0.010021633952223972 0.010047121991905612 0.0 -2.873489191069327e-09 0.0 0.01 0.0 -2.873489191069539e-09 0.0 0.010021577940733715 0.010047729706957645 0.0 -4.260889918918736e-09 0.0 0.01 0.0 -4.2608899189185244e-09 0.0 0.010021063916866265 0.01004800213176396 0.0 -4.669636572327144e-09 0.0 0.01 0.0 -4.669636572327144e-09 0.0 0.010021250647080376 0.010048037790568027 0.0 -3.0142198591015025e-09 0.0 0.01 0.0 -3.014219859101079e-09 0.0 0.010019684922243768 0.010030349052795028 0.0 3.5078284690008645e-11 0.0 0.01 0.0 3.5078284690008645e-11 0.0 0.010022078252738494 0.010032131251798568 0.0 -2.1892733578055948e-11 0.0 0.01 0.0 -2.189273357805264e-11 0.0 0.010021497825299297 0.010034053509780235 0.0 -4.210241738564856e-10 0.0 0.01 0.0 -4.210241738564856e-10 0.0 0.010020975008570871 0.010035952259490966 0.0 -1.5207704967495297e-09 0.0 0.01 0.0 -1.5207704967495297e-09 0.0 0.010020571101880251 0.010037636717101424 0.0 -3.317506657507431e-09 0.0 0.01 0.0 -3.317506657507431e-09 0.0 0.010020430138472869 0.010038980138864364 0.0 -5.14688363016677e-09 0.0 0.01 0.0 -5.146883630166346e-09 0.0 0.010019981580376322 0.010039942138043422 0.0 -5.980220142979858e-09 0.0 0.01 0.0 -5.980220142979435e-09 0.0 0.010020239983132435 0.010040579676815273 0.0 -4.315659510814499e-09 0.0 0.01 0.0 -4.315659510814499e-09 0.0 0.010018916841972035 0.010019322962585231 0.0 3.253354330764271e-11 0.0 0.01 0.0 3.253354330764271e-11 0.0 0.010020846757370198 0.010021134209927944 0.0 1.9173207402913104e-11 0.0 0.01 0.0 1.9173207402913104e-11 0.0 0.010020295972187261 0.010023271885759195 0.0 -2.9869211646633143e-10 0.0 0.01 0.0 -2.9869211646622555e-10 0.0 0.010019794971387202 0.01002560289162208 0.0 -1.343556156814511e-09 0.0 0.01 0.0 -1.343556156814511e-09 0.0 0.010019366162322671 0.010027916264071898 0.0 -3.1726195038830844e-09 0.0 0.01 0.0 -3.1726195038830844e-09 0.0 0.010019042555061157 0.010029978015413535 0.0 -5.310434854863051e-09 0.0 0.01 0.0 -5.310434854862204e-09 0.0 0.010018705654634138 0.010031654569911608 0.0 -6.691134264835545e-09 0.0 0.01 0.0 -6.6911342648346976e-09 0.0 0.01001911818634135 0.010032935954939355 0.0 -4.740011843605973e-09 0.0 0.01 0.0 -4.740011843605549e-09 0.0 0.010018129734181811 0.010009922950224131 0.0 -4.682123412437211e-13 0.0 0.01 0.0 -4.682123412437211e-13 0.0 0.010019511053995817 0.010011665380462676 0.0 1.6384360208061446e-11 0.0 0.01 0.0 1.6384360208061446e-11 0.0 0.010018979195070615 0.010013887777074851 0.0 -1.768300137562726e-10 0.0 0.01 0.0 -1.7683001375637848e-10 0.0 0.01001849060924639 0.010016495827258134 0.0 -1.1662714640929805e-09 0.0 0.01 0.0 -1.1662714640938275e-09 0.0 0.010018110580434201 0.01001927825471707 0.0 -4.1076153975861274e-09 0.0 0.01 0.0 -4.1076153975895156e-09 0.0 0.010017710991017005 0.010021958364301538 0.0 -8.444087544814282e-09 0.0 0.01 0.0 -8.444087544810894e-09 0.0 0.010017281997115416 0.01002430069243212 0.0 -1.0889403590420046e-08 0.0 0.01 0.0 -1.0889403590416658e-08 0.0 0.010017874460506558 0.01002620812099004 0.0 -4.134386515400596e-09 0.0 0.01 0.0 -4.134386515400596e-09 0.0 0.010017200024578326 0.010002889451857504 0.0 -2.973529473216737e-11 0.0 0.01 0.0 -2.9735294732170676e-11 0.0 0.010018109122541936 0.010004530426856457 0.0 -5.048688363135976e-12 0.0 0.01 0.0 -5.048688363135976e-12 0.0 0.010017584373019356 0.010006744617348422 0.0 -2.855785489038307e-10 0.0 0.01 0.0 -2.8557854890388365e-10 0.0 0.010017110213943494 0.010009480765716004 0.0 -3.2766607425091553e-09 0.0 0.01 0.0 -3.2766607425100024e-09 0.0 0.010016766674133594 0.01001254311005656 0.0 -1.1960714841736085e-08 0.0 0.01 0.0 -1.1960714841736085e-08 0.0 0.010016455578997467 0.010015666137507713 0.0 -2.2562065209825663e-08 0.0 0.01 0.0 -2.2562065209825663e-08 0.0 0.010015826542866823 0.010018541189273346 0.0 -2.6400266316242487e-08 0.0 0.01 0.0 -2.6400266316188277e-08 0.0 0.010016438897038345 0.010020960719061273 0.0 -2.5205025186090708e-09 0.0 0.01 0.0 -2.5205025186082237e-09 0.0 0.010015975702074647 0.009998231469265801 0.0 -1.684296220913934e-11 0.0 0.01 0.0 -1.6842962209140993e-11 0.0 0.010016676372649224 0.009999778007392332 0.0 1.1786481399238678e-10 0.0 0.01 0.0 1.1786481399238678e-10 0.0 0.010016155767155895 0.01000193025874102 0.0 -1.4469405896375749e-10 0.0 0.01 0.0 -1.4469405896375749e-10 0.0 0.010015708335400891 0.010004644333479647 0.0 -6.849304057147409e-09 0.0 0.01 0.0 -6.849304057147409e-09 0.0 0.010015394375200052 0.010007794253201039 0.0 -2.6443120149605506e-08 0.0 0.01 0.0 -2.6443120149605506e-08 0.0 0.010015164324001912 0.01001116221181258 0.0 -4.7939699576948986e-08 0.0 0.01 0.0 -4.793969957692188e-08 0.0 0.01001440506655901 0.01001438598443838 0.0 -5.1447229473767717e-08 0.0 0.01 0.0 -5.1447229473550876e-08 0.0 0.010014773876132876 0.0100171259444539 0.0 4.751309803767163e-09 0.0 0.01 0.0 4.751309803760386e-09 0.0 0.010014416867089902 0.009995495545345713 0.0 1.1004547298887893e-10 0.0 0.01 0.0 1.1004547298888555e-10 0.0 0.010015243785238128 0.009996973874170674 0.0 2.005820881184555e-09 0.0 0.01 0.0 2.005820881184555e-09 0.0 0.010014747911097245 0.009998989653146403 0.0 6.148335939849475e-09 0.0 0.01 0.0 6.148335939848628e-09 0.0 0.010014365847452125 0.010001533552695462 0.0 -1.0627432515506619e-10 0.0 0.01 0.0 -1.0627432515506619e-10 0.0 0.010014125573503356 0.01000456367230184 0.0 -3.0155465883938875e-08 0.0 0.01 0.0 -3.0155465883938875e-08 0.0 0.010013934823006675 0.010007961648715985 0.0 -6.451080602917986e-08 0.0 0.01 0.0 -6.451080602920697e-08 0.0 0.010013049901234205 0.01001140081776631 0.0 -6.1494129995857e-08 0.0 0.01 0.0 -6.14941299958028e-08 0.0 0.010012996493055936 0.010014328085432457 0.0 1.8644634324204443e-08 0.0 0.01 0.0 1.8644634324217996e-08 0.0 0.010012521027271855 0.009994107212836842 0.0 1.1782404266603781e-09 0.0 0.01 0.0 1.1782404266602722e-09 0.0 0.010013851476450236 0.009995511024463255 0.0 1.092593264653921e-08 0.0 0.01 0.0 1.0925932646540903e-08 0.0 0.010013421974148153 0.009997298095590556 0.0 3.193487736254604e-08 0.0 0.01 0.0 3.193487736254604e-08 0.0 0.01001314944092379 0.009999502537375915 0.0 4.110962007517171e-08 0.0 0.01 0.0 4.110962007517171e-08 0.0 0.010013040112657532 0.01000219897513493 0.0 1.2607339802689225e-08 0.0 0.01 0.0 1.2607339802689225e-08 0.0 0.01001291266758037 0.010005422858030409 0.0 -2.7035135516591832e-08 0.0 0.01 0.0 -2.7035135516585056e-08 0.0 0.010011988825487724 0.010009120863367926 0.0 -4.959479726188479e-09 0.0 0.01 0.0 -4.959479726185091e-09 0.0 0.010011333187101398 0.01001258476665408 0.0 -2.9478642639892437e-09 0.0 0.01 0.0 -2.9478642639875496e-09 0.0 0.010010375475264776 0.009993584179704234 0.0 6.1244452939978125e-09 0.0 0.01 0.0 6.1244452939986595e-09 0.0 0.010012545067388275 0.00999486046514211 0.0 3.6736953311188584e-08 0.0 0.01 0.0 3.6736953311188584e-08 0.0 0.01001224264591571 0.009996302553044172 0.0 9.544623980283867e-08 0.0 0.01 0.0 9.544623980283867e-08 0.0 0.01001212702545957 0.009998015593939069 0.0 1.4389873291659433e-07 0.0 0.01 0.0 1.4389873291659433e-07 0.0 0.010012182378543993 0.010000203609151426 0.0 1.3995284319791822e-07 0.0 0.01 0.0 1.3995284319794532e-07 0.0 0.010012185339170867 0.010003169007968596 0.0 1.2160989738943572e-07 0.0 0.01 0.0 1.2160989738943572e-07 0.0 0.010011338105998245 0.010007227581012182 0.0 1.3848804376160413e-07 0.0 0.01 0.0 1.3848804376165834e-07 0.0 0.010010341723460136 0.010012215200657298 0.0 -1.8990319841487042e-07 0.0 0.01 0.0 -1.8990319841487042e-07 0.0 0.010008869692163419 0.009993628594480842 0.0 2.3457940285299508e-08 0.0 0.01 0.0 2.3457940285301202e-08 0.0 0.010011391485450981 0.009994676255713318 0.0 9.506819149852089e-08 0.0 0.01 0.0 9.506819149852767e-08 0.0 0.010011255776748749 0.009995664827611182 0.0 2.1486903582424084e-07 0.0 0.01 0.0 2.1486903582424084e-07 0.0 0.01001131603586858 0.009996791061125632 0.0 3.253925057970645e-07 0.0 0.01 0.0 3.2539250579703737e-07 0.0 0.010011552704795049 0.009998400903637844 0.0 3.6525801765541904e-07 0.0 0.01 0.0 3.6525801765547325e-07 0.0 0.01001158456924272 0.010001142816928599 0.0 3.749703613249635e-07 0.0 0.01 0.0 3.749703613249093e-07 0.0 0.01001072916360107 0.010005703638258288 0.0 2.8609560237600855e-07 0.0 0.01 0.0 2.8609560237600855e-07 0.0 0.010009650213277023 0.010012123124566659 0.0 -6.577818573412844e-07 0.0 0.01 0.0 -6.577818573412844e-07 0.0 0.010007785998497491 0.009994056803168 0.0 6.966522312243872e-08 0.0 0.01 0.0 6.966522312243872e-08 0.0 0.010010441632139943 0.009994762623738884 0.0 2.0570605785430202e-07 0.0 0.01 0.0 2.0570605785430202e-07 0.0 0.010010483268158819 0.009995237928129223 0.0 4.0309328659985603e-07 0.0 0.01 0.0 4.0309328659985603e-07 0.0 0.010010699772622223 0.009995798699834151 0.0 5.815455664704588e-07 0.0 0.01 0.0 5.815455664704046e-07 0.0 0.01001100208087813 0.009996952458413194 0.0 6.570712111360452e-07 0.0 0.01 0.0 6.570712111359368e-07 0.0 0.010010846787030497 0.009999579085311775 0.0 6.261249740122489e-07 0.0 0.01 0.0 6.261249740123574e-07 0.0 0.010009776075740167 0.010004709382667638 0.0 2.3140236409566022e-07 0.0 0.01 0.0 2.3140236409576864e-07 0.0 0.010008813897046312 0.009994695727782396 0.0 1.7319680503179809e-07 0.0 0.01 0.0 1.7319680503178453e-07 0.0 0.01000972607559435 0.009994978308207348 0.0 3.92125406130134e-07 0.0 0.01 0.0 3.92125406130134e-07 0.0 0.010009903866600308 0.009994979849041838 0.0 6.644480993782875e-07 0.0 0.01 0.0 6.644480993782875e-07 0.0 0.010010178685870846 0.009995167622596047 0.0 8.853174389653615e-07 0.0 0.01 0.0 8.853174389653615e-07 0.0 0.010010374138430311 0.009996188311517051 0.0 9.348869384529813e-07 0.0 0.01 0.0 9.348869384529813e-07 0.0 0.010009832964914162 0.009999044217145392 0.0 7.310898058837754e-07 0.0 0.01 0.0 7.310898058839922e-07 0.0 0.01000884625459809 0.010004365164017998 0.0 -2.2358795459737676e-07 0.0 0.01 0.0 -2.2358795459726834e-07 0.0 0.010007939653192363 0.009995342775811928 0.0 3.681449702447326e-07 0.0 0.01 0.0 3.681449702447868e-07 0.0 0.010009214390411993 0.00999520401965674 0.0 6.69495573350548e-07 0.0 0.01 0.0 6.69495573350548e-07 0.0 0.01000944798993704 0.009994932001223677 0.0 9.862998973351762e-07 0.0 0.01 0.0 9.862998973352846e-07 0.0 0.010009694424720664 0.009995157231033893 0.0 1.1857465302098384e-06 0.0 0.01 0.0 1.1857465302098384e-06 0.0 0.010009690528263844 0.009996489023540885 0.0 1.0760264118388901e-06 0.0 0.01 0.0 1.0760264118388901e-06 0.0 0.01000890169527958 0.009999911533446102 0.0 4.6409193935406656e-07 0.0 0.01 0.0 4.6409193935395814e-07 0.0 0.01000832436496904 0.009995806207577678 0.0 6.729109863096725e-07 0.0 0.01 0.0 6.729109863095641e-07 0.0 0.010008826189306014 0.00999542180304191 0.0 1.0235116194141046e-06 0.0 0.01 0.0 1.023511619414213e-06 0.0 0.010009062762031087 0.009995352003450633 0.0 1.3187351919475123e-06 0.0 0.01 0.0 1.3187351919476207e-06 0.0 0.010009275349251159 0.009996118537592075 0.0 1.3579564875840222e-06 0.0 0.01 0.0 1.3579564875840222e-06 0.0 0.01000905746689453 0.009998293055362168 0.0 8.88052744314337e-07 0.0 0.01 0.0 8.88052744314337e-07 0.0 0.010008617694965057 0.010001718719135636 0.0 -4.177512510796346e-07 0.0 0.01 0.0 -4.177512510796346e-07 0.0 0.010007914662492632 0.009996093958354524 0.0 1.0602003549962588e-06 0.0 0.01 0.0 1.0602003549963672e-06 0.0 0.01000852520780501 0.009996045639353891 0.0 1.3966824908252188e-06 0.0 0.01 0.0 1.3966824908252188e-06 0.0 0.010008862158845978 0.00999678290055521 0.0 1.522173027172346e-06 0.0 0.01 0.0 1.5221730271725627e-06 0.0 0.010009072227741531 0.009998434066065605 0.0 1.1498344248729326e-06 0.0 0.01 0.0 1.1498344248727158e-06 0.0 0.010008866977456864 0.010001056317358191 0.0 8.492859290650502e-09 0.0 0.01 0.0 8.492859290650502e-09 0.0 0.010008636675965885 0.009996904755673571 0.0 1.4562433430398859e-06 0.0 0.01 0.0 1.456243343039669e-06 0.0 0.010008485205109477 0.009997846088223598 0.0 1.6173298812637796e-06 0.0 0.01 0.0 1.6173298812637796e-06 0.0 0.0100089043706137 0.009999734756299178 0.0 1.2807024705626096e-06 0.0 0.01 0.0 1.280702470562176e-06 0.0 0.01000920288382588 0.010001632253681092 0.0 1.6607148290725157e-07 0.0 0.01 0.0 1.6607148290725157e-07 0.0 0.010008943136791152 0.009999143999099512 0.0 1.611492104958449e-06 0.0 0.01 0.0 1.6114921049588827e-06 0.0 0.010008645387182094 0.010000871458397986 0.0 1.277620780586056e-06 0.0 0.01 0.0 1.277620780586056e-06 0.0 0.010009051067689994 0.010003008211399224 0.0 1.7421062248210379e-07 0.0 0.01 0.0 1.74210622482158e-07 0.0 0.010009336814695598 0.010002753913192332 0.0 -1.475554965748617e-06 0.0 0.01 0.0 -1.4755549657481833e-06 0.0 0.01000794628727578 0.01000178137850095 0.0 1.0095026216959489e-06 0.0 0.01 0.0 1.009502621695732e-06 0.0 0.010008557975800138 0.010002817089964837 0.0 9.111655891966432e-09 0.0 0.01 0.0 9.111655891966432e-09 0.0 0.0100087037501296 0.01000209588018687 0.0 -3.7858196913183664e-07 0.0 0.01 0.0 -3.7858196913194506e-07 0.0 0.010007946984604001 
