# vtk DataFile Version 3.0
Test VTK file for Force data
ASCII
DATASET POLYDATA
POINTS 2975 float
 -2.2000000E-01   9.9999998E-03  -3.8000000E-01
 -2.2000000E-01   9.9999998E-03  -3.6000001E-01
 -2.0000000E-01   9.9999998E-03  -4.0000001E-01
 -2.0000000E-01   9.9999998E-03  -3.8000000E-01
 -2.0000000E-01   9.9999998E-03  -3.6000001E-01
 -1.8000001E-01   9.9999998E-03  -4.0000001E-01
 -1.8000001E-01   9.9999998E-03  -3.8000000E-01
 -1.8000001E-01   9.9999998E-03  -3.6000001E-01
 -1.6000000E-01   9.9999998E-03  -4.0000001E-01
 -1.6000000E-01   9.9999998E-03  -3.8000000E-01
 -1.6000000E-01   9.9999998E-03  -3.6000001E-01
 -1.4000000E-01   9.9999998E-03  -4.0000001E-01
 -1.4000000E-01   9.9999998E-03  -3.8000000E-01
 -1.4000000E-01   9.9999998E-03  -3.6000001E-01
 -1.2000000E-01   9.9999998E-03  -4.0000001E-01
 -1.2000000E-01   9.9999998E-03  -3.8000000E-01
 -1.2000000E-01   9.9999998E-03  -3.6000001E-01
 -1.0000000E-01   9.9999998E-03  -4.0000001E-01
 -1.0000000E-01   9.9999998E-03  -3.8000000E-01
 -1.0000000E-01   9.9999998E-03  -3.6000001E-01
 -7.9999998E-02   9.9999998E-03  -4.0000001E-01
 -7.9999998E-02   9.9999998E-03  -3.8000000E-01
 -7.9999998E-02   9.9999998E-03  -3.6000001E-01
 -5.9999999E-02   9.9999998E-03  -4.0000001E-01
 -5.9999999E-02   9.9999998E-03  -3.8000000E-01
 -5.9999999E-02   9.9999998E-03  -3.6000001E-01
 -3.9999999E-02   9.9999998E-03  -4.0000001E-01
 -3.9999999E-02   9.9999998E-03  -3.8000000E-01
 -3.9999999E-02   9.9999998E-03  -3.6000001E-01
 -2.0000000E-02   9.9999998E-03  -4.0000001E-01
 -2.0000000E-02   9.9999998E-03  -3.8000000E-01
 -2.0000000E-02   9.9999998E-03  -3.6000001E-01
  0.0000000E+00   9.9999998E-03  -4.0000001E-01
  0.0000000E+00   9.9999998E-03  -3.8000000E-01
  0.0000000E+00   9.9999998E-03  -3.6000001E-01
  2.0000000E-02   9.9999998E-03  -4.0000001E-01
  2.0000000E-02   9.9999998E-03  -3.8000000E-01
  2.0000000E-02   9.9999998E-03  -3.6000001E-01
  3.9999999E-02   9.9999998E-03  -4.0000001E-01
  3.9999999E-02   9.9999998E-03  -3.8000000E-01
  3.9999999E-02   9.9999998E-03  -3.6000001E-01
  5.9999999E-02   9.9999998E-03  -4.0000001E-01
  5.9999999E-02   9.9999998E-03  -3.8000000E-01
  5.9999999E-02   9.9999998E-03  -3.6000001E-01
  7.9999998E-02   9.9999998E-03  -4.0000001E-01
  7.9999998E-02   9.9999998E-03  -3.8000000E-01
  7.9999998E-02   9.9999998E-03  -3.6000001E-01
  1.0000000E-01   9.9999998E-03  -4.0000001E-01
  1.0000000E-01   9.9999998E-03  -3.8000000E-01
  1.0000000E-01   9.9999998E-03  -3.6000001E-01
  1.2000000E-01   9.9999998E-03  -4.0000001E-01
  1.2000000E-01   9.9999998E-03  -3.8000000E-01
  1.2000000E-01   9.9999998E-03  -3.6000001E-01
  1.4000000E-01   9.9999998E-03  -4.0000001E-01
  1.4000000E-01   9.9999998E-03  -3.8000000E-01
  1.4000000E-01   9.9999998E-03  -3.6000001E-01
  1.6000000E-01   9.9999998E-03  -4.0000001E-01
  1.6000000E-01   9.9999998E-03  -3.8000000E-01
  1.6000000E-01   9.9999998E-03  -3.6000001E-01
  1.8000001E-01   9.9999998E-03  -4.0000001E-01
  1.8000001E-01   9.9999998E-03  -3.8000000E-01
  1.8000001E-01   9.9999998E-03  -3.6000001E-01
  2.0000000E-01   9.9999998E-03  -3.8000000E-01
  2.0000000E-01   9.9999998E-03  -3.6000001E-01
 -2.2000000E-01   9.9999998E-03  -3.4000000E-01
 -2.2000000E-01   9.9999998E-03  -3.1999999E-01
 -2.2000000E-01   9.9999998E-03  -3.0000001E-01
 -2.2000000E-01   9.9999998E-03  -2.8000000E-01
 -2.2000000E-01   9.9999998E-03  -2.5999999E-01
 -2.2000000E-01   9.9999998E-03  -2.3999999E-01
 -2.2000000E-01   9.9999998E-03  -2.2000000E-01
 -2.2000000E-01   9.9999998E-03  -2.0000000E-01
 -2.0000000E-01   9.9999998E-03  -3.4000000E-01
 -2.0000000E-01   9.9999998E-03  -3.1999999E-01
 -2.0000000E-01   9.9999998E-03  -3.0000001E-01
 -2.0000000E-01   9.9999998E-03  -2.8000000E-01
 -2.0000000E-01   9.9999998E-03  -2.5999999E-01
 -2.0000000E-01   9.9999998E-03  -2.3999999E-01
 -2.0000000E-01   9.9999998E-03  -2.2000000E-01
 -2.0000000E-01   9.9999998E-03  -2.0000000E-01
 -1.8000001E-01   9.9999998E-03  -3.4000000E-01
 -1.8000001E-01   9.9999998E-03  -3.1999999E-01
 -1.8000001E-01   9.9999998E-03  -3.0000001E-01
 -1.8000001E-01   9.9999998E-03  -2.8000000E-01
 -1.8000001E-01   9.9999998E-03  -2.5999999E-01
 -1.8000001E-01   9.9999998E-03  -2.3999999E-01
 -1.8000001E-01   9.9999998E-03  -2.2000000E-01
 -1.8000001E-01   9.9999998E-03  -2.0000000E-01
 -1.6000000E-01   9.9999998E-03  -3.4000000E-01
 -1.6000000E-01   9.9999998E-03  -3.1999999E-01
 -1.6000000E-01   9.9999998E-03  -3.0000001E-01
 -1.6000000E-01   9.9999998E-03  -2.8000000E-01
 -1.6000000E-01   9.9999998E-03  -2.5999999E-01
 -1.6000000E-01   9.9999998E-03  -2.3999999E-01
 -1.6000000E-01   9.9999998E-03  -2.2000000E-01
 -1.6000000E-01   9.9999998E-03  -2.0000000E-01
 -1.4000000E-01   9.9999998E-03  -3.4000000E-01
 -1.4000000E-01   9.9999998E-03  -3.1999999E-01
 -1.4000000E-01   9.9999998E-03  -3.0000001E-01
 -1.4000000E-01   9.9999998E-03  -2.8000000E-01
 -1.4000000E-01   9.9999998E-03  -2.5999999E-01
 -1.4000000E-01   9.9999998E-03  -2.3999999E-01
 -1.4000000E-01   9.9999998E-03  -2.2000000E-01
 -1.4000000E-01   9.9999998E-03  -2.0000000E-01
 -1.2000000E-01   9.9999998E-03  -3.4000000E-01
 -1.2000000E-01   9.9999998E-03  -3.1999999E-01
 -1.2000000E-01   9.9999998E-03  -3.0000001E-01
 -1.2000000E-01   9.9999998E-03  -2.8000000E-01
 -1.2000000E-01   9.9999998E-03  -2.5999999E-01
 -1.2000000E-01   9.9999998E-03  -2.3999999E-01
 -1.2000000E-01   9.9999998E-03  -2.2000000E-01
 -1.2000000E-01   9.9999998E-03  -2.0000000E-01
 -1.0000000E-01   9.9999998E-03  -3.4000000E-01
 -1.0000000E-01   9.9999998E-03  -3.1999999E-01
 -1.0000000E-01   9.9999998E-03  -3.0000001E-01
 -1.0000000E-01   9.9999998E-03  -2.8000000E-01
 -1.0000000E-01   9.9999998E-03  -2.5999999E-01
 -1.0000000E-01   9.9999998E-03  -2.3999999E-01
 -1.0000000E-01   9.9999998E-03  -2.2000000E-01
 -1.0000000E-01   9.9999998E-03  -2.0000000E-01
 -7.9999998E-02   9.9999998E-03  -3.4000000E-01
 -7.9999998E-02   9.9999998E-03  -3.1999999E-01
 -7.9999998E-02   9.9999998E-03  -3.0000001E-01
 -7.9999998E-02   9.9999998E-03  -2.8000000E-01
 -7.9999998E-02   9.9999998E-03  -2.5999999E-01
 -7.9999998E-02   9.9999998E-03  -2.3999999E-01
 -7.9999998E-02   9.9999998E-03  -2.2000000E-01
 -7.9999998E-02   9.9999998E-03  -2.0000000E-01
 -5.9999999E-02   9.9999998E-03  -3.4000000E-01
 -5.9999999E-02   9.9999998E-03  -3.1999999E-01
 -5.9999999E-02   9.9999998E-03  -3.0000001E-01
 -5.9999999E-02   9.9999998E-03  -2.8000000E-01
 -5.9999999E-02   9.9999998E-03  -2.5999999E-01
 -5.9999999E-02   9.9999998E-03  -2.3999999E-01
 -5.9999999E-02   9.9999998E-03  -2.2000000E-01
 -5.9999999E-02   9.9999998E-03  -2.0000000E-01
 -3.9999999E-02   9.9999998E-03  -3.4000000E-01
 -3.9999999E-02   9.9999998E-03  -3.1999999E-01
 -3.9999999E-02   9.9999998E-03  -3.0000001E-01
 -3.9999999E-02   9.9999998E-03  -2.8000000E-01
 -3.9999999E-02   9.9999998E-03  -2.5999999E-01
 -3.9999999E-02   9.9999998E-03  -2.3999999E-01
 -3.9999999E-02   9.9999998E-03  -2.2000000E-01
 -3.9999999E-02   9.9999998E-03  -2.0000000E-01
 -2.0000000E-02   9.9999998E-03  -3.4000000E-01
 -2.0000000E-02   9.9999998E-03  -3.1999999E-01
 -2.0000000E-02   9.9999998E-03  -3.0000001E-01
 -2.0000000E-02   9.9999998E-03  -2.8000000E-01
 -2.0000000E-02   9.9999998E-03  -2.5999999E-01
 -2.0000000E-02   9.9999998E-03  -2.3999999E-01
 -2.0000000E-02   9.9999998E-03  -2.2000000E-01
 -2.0000000E-02   9.9999998E-03  -2.0000000E-01
  0.0000000E+00   9.9999998E-03  -3.4000000E-01
  0.0000000E+00   9.9999998E-03  -3.1999999E-01
  0.0000000E+00   9.9999998E-03  -3.0000001E-01
  2.0000000E-02   9.9999998E-03  -3.4000000E-01
  2.0000000E-02   9.9999998E-03  -3.1999999E-01
  3.9999999E-02   9.9999998E-03  -3.4000000E-01
  3.9999999E-02   9.9999998E-03  -3.1999999E-01
  5.9999999E-02   9.9999998E-03  -3.4000000E-01
  5.9999999E-02   9.9999998E-03  -3.1999999E-01
  7.9999998E-02   9.9999998E-03  -3.4000000E-01
  7.9999998E-02   9.9999998E-03  -3.1999999E-01
  1.0000000E-01   9.9999998E-03  -3.4000000E-01
  1.0000000E-01   9.9999998E-03  -3.1999999E-01
  1.2000000E-01   9.9999998E-03  -3.4000000E-01
  1.2000000E-01   9.9999998E-03  -3.1999999E-01
  1.4000000E-01   9.9999998E-03  -3.4000000E-01
  1.4000000E-01   9.9999998E-03  -3.1999999E-01
  1.6000000E-01   9.9999998E-03  -3.4000000E-01
  1.6000000E-01   9.9999998E-03  -3.1999999E-01
  1.8000001E-01   9.9999998E-03  -3.4000000E-01
  1.8000001E-01   9.9999998E-03  -3.1999999E-01
  2.0000000E-01   9.9999998E-03  -3.4000000E-01
  2.0000000E-01   9.9999998E-03  -3.1999999E-01
 -2.2000000E-01   9.9999998E-03  -1.8000001E-01
 -2.2000000E-01   9.9999998E-03  -1.6000000E-01
 -2.2000000E-01   9.9999998E-03  -1.4000000E-01
 -2.2000000E-01   9.9999998E-03  -1.2000000E-01
 -2.2000000E-01   9.9999998E-03  -1.0000000E-01
 -2.2000000E-01   9.9999998E-03  -7.9999998E-02
 -2.2000000E-01   9.9999998E-03  -5.9999999E-02
 -2.2000000E-01   9.9999998E-03  -3.9999999E-02
 -2.2000000E-01   9.9999998E-03  -2.0000000E-02
 -2.0000000E-01   9.9999998E-03  -1.8000001E-01
 -2.0000000E-01   9.9999998E-03  -1.6000000E-01
 -2.0000000E-01   9.9999998E-03  -1.4000000E-01
 -2.0000000E-01   9.9999998E-03  -1.2000000E-01
 -2.0000000E-01   9.9999998E-03  -1.0000000E-01
 -2.0000000E-01   9.9999998E-03  -7.9999998E-02
 -2.0000000E-01   9.9999998E-03  -5.9999999E-02
 -2.0000000E-01   9.9999998E-03  -3.9999999E-02
 -2.0000000E-01   9.9999998E-03  -2.0000000E-02
 -1.8000001E-01   9.9999998E-03  -1.8000001E-01
 -1.8000001E-01   9.9999998E-03  -1.6000000E-01
 -1.8000001E-01   9.9999998E-03  -1.4000000E-01
 -1.8000001E-01   9.9999998E-03  -1.2000000E-01
 -1.8000001E-01   9.9999998E-03  -1.0000000E-01
 -1.8000001E-01   9.9999998E-03  -7.9999998E-02
 -1.8000001E-01   9.9999998E-03  -5.9999999E-02
 -1.8000001E-01   9.9999998E-03  -3.9999999E-02
 -1.8000001E-01   9.9999998E-03  -2.0000000E-02
 -1.6000000E-01   9.9999998E-03  -1.8000001E-01
 -1.6000000E-01   9.9999998E-03  -1.6000000E-01
 -1.6000000E-01   9.9999998E-03  -1.4000000E-01
 -1.6000000E-01   9.9999998E-03  -1.2000000E-01
 -1.6000000E-01   9.9999998E-03  -1.0000000E-01
 -1.6000000E-01   9.9999998E-03  -7.9999998E-02
 -1.6000000E-01   9.9999998E-03  -5.9999999E-02
 -1.6000000E-01   9.9999998E-03  -3.9999999E-02
 -1.6000000E-01   9.9999998E-03  -2.0000000E-02
 -1.4000000E-01   9.9999998E-03  -1.8000001E-01
 -1.4000000E-01   9.9999998E-03  -1.6000000E-01
 -1.4000000E-01   9.9999998E-03  -1.4000000E-01
 -1.4000000E-01   9.9999998E-03  -1.2000000E-01
 -1.4000000E-01   9.9999998E-03  -1.0000000E-01
 -1.4000000E-01   9.9999998E-03  -7.9999998E-02
 -1.4000000E-01   9.9999998E-03  -5.9999999E-02
 -1.4000000E-01   9.9999998E-03  -3.9999999E-02
 -1.4000000E-01   9.9999998E-03  -2.0000000E-02
 -1.2000000E-01   9.9999998E-03  -1.8000001E-01
 -1.2000000E-01   9.9999998E-03  -1.6000000E-01
 -1.2000000E-01   9.9999998E-03  -1.4000000E-01
 -1.2000000E-01   9.9999998E-03  -1.2000000E-01
 -1.2000000E-01   9.9999998E-03  -1.0000000E-01
 -1.2000000E-01   9.9999998E-03  -7.9999998E-02
 -1.2000000E-01   9.9999998E-03  -5.9999999E-02
 -1.2000000E-01   9.9999998E-03  -3.9999999E-02
 -1.2000000E-01   9.9999998E-03  -2.0000000E-02
 -1.0000000E-01   9.9999998E-03  -1.8000001E-01
 -1.0000000E-01   9.9999998E-03  -1.6000000E-01
 -1.0000000E-01   9.9999998E-03  -1.4000000E-01
 -1.0000000E-01   9.9999998E-03  -1.2000000E-01
 -1.0000000E-01   9.9999998E-03  -1.0000000E-01
 -1.0000000E-01   9.9999998E-03  -7.9999998E-02
 -1.0000000E-01   9.9999998E-03  -5.9999999E-02
 -1.0000000E-01   9.9999998E-03  -3.9999999E-02
 -1.0000000E-01   9.9999998E-03  -2.0000000E-02
 -7.9999998E-02   9.9999998E-03  -1.8000001E-01
 -7.9999998E-02   9.9999998E-03  -1.6000000E-01
 -7.9999998E-02   9.9999998E-03  -1.4000000E-01
 -7.9999998E-02   9.9999998E-03  -1.2000000E-01
 -7.9999998E-02   9.9999998E-03  -1.0000000E-01
 -7.9999998E-02   9.9999998E-03  -7.9999998E-02
 -7.9999998E-02   9.9999998E-03  -5.9999999E-02
 -7.9999998E-02   9.9999998E-03  -3.9999999E-02
 -7.9999998E-02   9.9999998E-03  -2.0000000E-02
 -5.9999999E-02   9.9999998E-03  -1.8000001E-01
 -5.9999999E-02   9.9999998E-03  -1.6000000E-01
 -5.9999999E-02   9.9999998E-03  -1.4000000E-01
 -5.9999999E-02   9.9999998E-03  -1.2000000E-01
 -5.9999999E-02   9.9999998E-03  -1.0000000E-01
 -5.9999999E-02   9.9999998E-03  -7.9999998E-02
 -5.9999999E-02   9.9999998E-03  -5.9999999E-02
 -5.9999999E-02   9.9999998E-03  -3.9999999E-02
 -5.9999999E-02   9.9999998E-03  -2.0000000E-02
 -3.9999999E-02   9.9999998E-03  -1.8000001E-01
 -3.9999999E-02   9.9999998E-03  -1.6000000E-01
 -3.9999999E-02   9.9999998E-03  -1.4000000E-01
 -3.9999999E-02   9.9999998E-03  -1.2000000E-01
 -3.9999999E-02   9.9999998E-03  -1.0000000E-01
 -3.9999999E-02   9.9999998E-03  -7.9999998E-02
 -3.9999999E-02   9.9999998E-03  -5.9999999E-02
 -3.9999999E-02   9.9999998E-03  -3.9999999E-02
 -3.9999999E-02   9.9999998E-03  -2.0000000E-02
 -2.0000000E-02   9.9999998E-03  -1.8000001E-01
 -2.0000000E-02   9.9999998E-03  -1.6000000E-01
 -2.0000000E-02   9.9999998E-03  -1.4000000E-01
 -2.0000000E-02   9.9999998E-03  -1.2000000E-01
 -2.0000000E-02   9.9999998E-03  -1.0000000E-01
 -2.0000000E-02   9.9999998E-03  -7.9999998E-02
 -2.0000000E-02   9.9999998E-03  -5.9999999E-02
 -2.0000000E-02   9.9999998E-03  -3.9999999E-02
 -2.0000000E-02   9.9999998E-03  -2.0000000E-02
 -2.2000000E-01   9.9999998E-03   0.0000000E+00
 -2.2000000E-01   9.9999998E-03   2.0000000E-02
 -2.2000000E-01   9.9999998E-03   3.9999999E-02
 -2.2000000E-01   9.9999998E-03   5.9999999E-02
 -2.2000000E-01   9.9999998E-03   7.9999998E-02
 -2.2000000E-01   9.9999998E-03   1.0000000E-01
 -2.2000000E-01   9.9999998E-03   1.2000000E-01
 -2.2000000E-01   9.9999998E-03   1.4000000E-01
 -2.0000000E-01   9.9999998E-03   0.0000000E+00
 -2.0000000E-01   9.9999998E-03   2.0000000E-02
 -2.0000000E-01   9.9999998E-03   3.9999999E-02
 -2.0000000E-01   9.9999998E-03   5.9999999E-02
 -2.0000000E-01   9.9999998E-03   7.9999998E-02
 -2.0000000E-01   9.9999998E-03   1.0000000E-01
 -2.0000000E-01   9.9999998E-03   1.2000000E-01
 -2.0000000E-01   9.9999998E-03   1.4000000E-01
 -1.8000001E-01   9.9999998E-03   0.0000000E+00
 -1.8000001E-01   9.9999998E-03   2.0000000E-02
 -1.8000001E-01   9.9999998E-03   3.9999999E-02
 -1.8000001E-01   9.9999998E-03   5.9999999E-02
 -1.8000001E-01   9.9999998E-03   7.9999998E-02
 -1.8000001E-01   9.9999998E-03   1.0000000E-01
 -1.8000001E-01   9.9999998E-03   1.2000000E-01
 -1.8000001E-01   9.9999998E-03   1.4000000E-01
 -1.6000000E-01   9.9999998E-03   0.0000000E+00
 -1.6000000E-01   9.9999998E-03   2.0000000E-02
 -1.6000000E-01   9.9999998E-03   3.9999999E-02
 -1.6000000E-01   9.9999998E-03   5.9999999E-02
 -1.6000000E-01   9.9999998E-03   7.9999998E-02
 -1.6000000E-01   9.9999998E-03   1.0000000E-01
 -1.6000000E-01   9.9999998E-03   1.2000000E-01
 -1.6000000E-01   9.9999998E-03   1.4000000E-01
 -1.4000000E-01   9.9999998E-03   0.0000000E+00
 -1.4000000E-01   9.9999998E-03   2.0000000E-02
 -1.4000000E-01   9.9999998E-03   3.9999999E-02
 -1.4000000E-01   9.9999998E-03   5.9999999E-02
 -1.4000000E-01   9.9999998E-03   7.9999998E-02
 -1.4000000E-01   9.9999998E-03   1.0000000E-01
 -1.4000000E-01   9.9999998E-03   1.2000000E-01
 -1.4000000E-01   9.9999998E-03   1.4000000E-01
 -1.2000000E-01   9.9999998E-03   0.0000000E+00
 -1.2000000E-01   9.9999998E-03   2.0000000E-02
 -1.2000000E-01   9.9999998E-03   3.9999999E-02
 -1.2000000E-01   9.9999998E-03   5.9999999E-02
 -1.2000000E-01   9.9999998E-03   7.9999998E-02
 -1.2000000E-01   9.9999998E-03   1.0000000E-01
 -1.2000000E-01   9.9999998E-03   1.2000000E-01
 -1.2000000E-01   9.9999998E-03   1.4000000E-01
 -1.0000000E-01   9.9999998E-03   0.0000000E+00
 -1.0000000E-01   9.9999998E-03   2.0000000E-02
 -1.0000000E-01   9.9999998E-03   3.9999999E-02
 -1.0000000E-01   9.9999998E-03   5.9999999E-02
 -1.0000000E-01   9.9999998E-03   7.9999998E-02
 -1.0000000E-01   9.9999998E-03   1.0000000E-01
 -1.0000000E-01   9.9999998E-03   1.2000000E-01
 -1.0000000E-01   9.9999998E-03   1.4000000E-01
 -7.9999998E-02   9.9999998E-03   0.0000000E+00
 -7.9999998E-02   9.9999998E-03   2.0000000E-02
 -7.9999998E-02   9.9999998E-03   3.9999999E-02
 -7.9999998E-02   9.9999998E-03   5.9999999E-02
 -7.9999998E-02   9.9999998E-03   7.9999998E-02
 -7.9999998E-02   9.9999998E-03   1.0000000E-01
 -7.9999998E-02   9.9999998E-03   1.2000000E-01
 -7.9999998E-02   9.9999998E-03   1.4000000E-01
 -5.9999999E-02   9.9999998E-03   0.0000000E+00
 -5.9999999E-02   9.9999998E-03   2.0000000E-02
 -5.9999999E-02   9.9999998E-03   3.9999999E-02
 -5.9999999E-02   9.9999998E-03   5.9999999E-02
 -5.9999999E-02   9.9999998E-03   7.9999998E-02
 -5.9999999E-02   9.9999998E-03   1.0000000E-01
 -5.9999999E-02   9.9999998E-03   1.2000000E-01
 -5.9999999E-02   9.9999998E-03   1.4000000E-01
 -3.9999999E-02   9.9999998E-03   0.0000000E+00
 -3.9999999E-02   9.9999998E-03   2.0000000E-02
 -3.9999999E-02   9.9999998E-03   3.9999999E-02
 -3.9999999E-02   9.9999998E-03   5.9999999E-02
 -3.9999999E-02   9.9999998E-03   7.9999998E-02
 -3.9999999E-02   9.9999998E-03   1.0000000E-01
 -3.9999999E-02   9.9999998E-03   1.2000000E-01
 -3.9999999E-02   9.9999998E-03   1.4000000E-01
 -2.0000000E-02   9.9999998E-03   0.0000000E+00
 -2.0000000E-02   9.9999998E-03   2.0000000E-02
 -2.0000000E-02   9.9999998E-03   3.9999999E-02
 -2.0000000E-02   9.9999998E-03   5.9999999E-02
 -2.0000000E-02   9.9999998E-03   7.9999998E-02
 -2.0000000E-02   9.9999998E-03   1.0000000E-01
 -2.0000000E-02   9.9999998E-03   1.2000000E-01
 -2.0000000E-02   9.9999998E-03   1.4000000E-01
 -2.2000000E-01   9.9999998E-03   1.6000000E-01
 -2.2000000E-01   9.9999998E-03   1.8000001E-01
 -2.2000000E-01   9.9999998E-03   2.0000000E-01
 -2.2000000E-01   9.9999998E-03   2.2000000E-01
 -2.2000000E-01   9.9999998E-03   2.3999999E-01
 -2.2000000E-01   9.9999998E-03   2.5999999E-01
 -2.2000000E-01   9.9999998E-03   2.8000000E-01
 -2.2000000E-01   9.9999998E-03   3.0000001E-01
 -2.2000000E-01   9.9999998E-03   3.1999999E-01
 -2.0000000E-01   9.9999998E-03   1.6000000E-01
 -2.0000000E-01   9.9999998E-03   1.8000001E-01
 -2.0000000E-01   9.9999998E-03   2.0000000E-01
 -2.0000000E-01   9.9999998E-03   2.2000000E-01
 -2.0000000E-01   9.9999998E-03   2.3999999E-01
 -2.0000000E-01   9.9999998E-03   2.5999999E-01
 -2.0000000E-01   9.9999998E-03   2.8000000E-01
 -2.0000000E-01   9.9999998E-03   3.0000001E-01
 -2.0000000E-01   9.9999998E-03   3.1999999E-01
 -1.8000001E-01   9.9999998E-03   1.6000000E-01
 -1.8000001E-01   9.9999998E-03   1.8000001E-01
 -1.8000001E-01   9.9999998E-03   2.0000000E-01
 -1.8000001E-01   9.9999998E-03   2.2000000E-01
 -1.8000001E-01   9.9999998E-03   2.3999999E-01
 -1.8000001E-01   9.9999998E-03   2.5999999E-01
 -1.8000001E-01   9.9999998E-03   2.8000000E-01
 -1.8000001E-01   9.9999998E-03   3.0000001E-01
 -1.8000001E-01   9.9999998E-03   3.1999999E-01
 -1.6000000E-01   9.9999998E-03   1.6000000E-01
 -1.6000000E-01   9.9999998E-03   1.8000001E-01
 -1.6000000E-01   9.9999998E-03   2.0000000E-01
 -1.6000000E-01   9.9999998E-03   2.2000000E-01
 -1.6000000E-01   9.9999998E-03   2.3999999E-01
 -1.6000000E-01   9.9999998E-03   2.5999999E-01
 -1.6000000E-01   9.9999998E-03   2.8000000E-01
 -1.6000000E-01   9.9999998E-03   3.0000001E-01
 -1.6000000E-01   9.9999998E-03   3.1999999E-01
 -1.4000000E-01   9.9999998E-03   1.6000000E-01
 -1.4000000E-01   9.9999998E-03   1.8000001E-01
 -1.4000000E-01   9.9999998E-03   2.0000000E-01
 -1.4000000E-01   9.9999998E-03   2.2000000E-01
 -1.4000000E-01   9.9999998E-03   2.3999999E-01
 -1.4000000E-01   9.9999998E-03   2.5999999E-01
 -1.4000000E-01   9.9999998E-03   2.8000000E-01
 -1.4000000E-01   9.9999998E-03   3.0000001E-01
 -1.4000000E-01   9.9999998E-03   3.1999999E-01
 -1.2000000E-01   9.9999998E-03   1.6000000E-01
 -1.2000000E-01   9.9999998E-03   1.8000001E-01
 -1.2000000E-01   9.9999998E-03   2.0000000E-01
 -1.2000000E-01   9.9999998E-03   2.2000000E-01
 -1.2000000E-01   9.9999998E-03   2.3999999E-01
 -1.2000000E-01   9.9999998E-03   2.5999999E-01
 -1.2000000E-01   9.9999998E-03   2.8000000E-01
 -1.2000000E-01   9.9999998E-03   3.0000001E-01
 -1.2000000E-01   9.9999998E-03   3.1999999E-01
 -1.0000000E-01   9.9999998E-03   1.6000000E-01
 -1.0000000E-01   9.9999998E-03   1.8000001E-01
 -1.0000000E-01   9.9999998E-03   2.0000000E-01
 -1.0000000E-01   9.9999998E-03   2.2000000E-01
 -1.0000000E-01   9.9999998E-03   2.3999999E-01
 -1.0000000E-01   9.9999998E-03   2.5999999E-01
 -1.0000000E-01   9.9999998E-03   2.8000000E-01
 -1.0000000E-01   9.9999998E-03   3.0000001E-01
 -1.0000000E-01   9.9999998E-03   3.1999999E-01
 -7.9999998E-02   9.9999998E-03   1.6000000E-01
 -7.9999998E-02   9.9999998E-03   1.8000001E-01
 -7.9999998E-02   9.9999998E-03   2.0000000E-01
 -7.9999998E-02   9.9999998E-03   2.2000000E-01
 -7.9999998E-02   9.9999998E-03   2.3999999E-01
 -7.9999998E-02   9.9999998E-03   2.5999999E-01
 -7.9999998E-02   9.9999998E-03   2.8000000E-01
 -7.9999998E-02   9.9999998E-03   3.0000001E-01
 -7.9999998E-02   9.9999998E-03   3.1999999E-01
 -5.9999999E-02   9.9999998E-03   1.6000000E-01
 -5.9999999E-02   9.9999998E-03   1.8000001E-01
 -5.9999999E-02   9.9999998E-03   2.0000000E-01
 -5.9999999E-02   9.9999998E-03   2.2000000E-01
 -5.9999999E-02   9.9999998E-03   2.3999999E-01
 -5.9999999E-02   9.9999998E-03   2.5999999E-01
 -5.9999999E-02   9.9999998E-03   2.8000000E-01
 -5.9999999E-02   9.9999998E-03   3.0000001E-01
 -5.9999999E-02   9.9999998E-03   3.1999999E-01
 -3.9999999E-02   9.9999998E-03   1.6000000E-01
 -3.9999999E-02   9.9999998E-03   1.8000001E-01
 -3.9999999E-02   9.9999998E-03   2.0000000E-01
 -3.9999999E-02   9.9999998E-03   2.2000000E-01
 -3.9999999E-02   9.9999998E-03   2.3999999E-01
 -3.9999999E-02   9.9999998E-03   2.5999999E-01
 -3.9999999E-02   9.9999998E-03   2.8000000E-01
 -3.9999999E-02   9.9999998E-03   3.0000001E-01
 -3.9999999E-02   9.9999998E-03   3.1999999E-01
 -2.0000000E-02   9.9999998E-03   1.6000000E-01
 -2.0000000E-02   9.9999998E-03   1.8000001E-01
 -2.0000000E-02   9.9999998E-03   2.0000000E-01
 -2.0000000E-02   9.9999998E-03   2.2000000E-01
 -2.0000000E-02   9.9999998E-03   2.3999999E-01
 -2.0000000E-02   9.9999998E-03   2.5999999E-01
 -2.0000000E-02   9.9999998E-03   2.8000000E-01
 -2.0000000E-02   9.9999998E-03   3.0000001E-01
 -2.0000000E-02   9.9999998E-03   3.1999999E-01
  0.0000000E+00   9.9999998E-03   3.0000001E-01
  0.0000000E+00   9.9999998E-03   3.1999999E-01
  2.0000000E-02   9.9999998E-03   3.1999999E-01
  3.9999999E-02   9.9999998E-03   3.1999999E-01
  5.9999999E-02   9.9999998E-03   3.1999999E-01
  7.9999998E-02   9.9999998E-03   3.1999999E-01
  1.0000000E-01   9.9999998E-03   3.1999999E-01
  1.2000000E-01   9.9999998E-03   3.1999999E-01
  1.4000000E-01   9.9999998E-03   3.1999999E-01
  1.6000000E-01   9.9999998E-03   3.1999999E-01
  1.8000001E-01   9.9999998E-03   3.1999999E-01
  2.0000000E-01   9.9999998E-03   3.1999999E-01
 -2.2000000E-01   9.9999998E-03   3.4000000E-01
 -2.2000000E-01   9.9999998E-03   3.6000001E-01
 -2.2000000E-01   9.9999998E-03   3.8000000E-01
 -2.0000000E-01   9.9999998E-03   3.4000000E-01
 -2.0000000E-01   9.9999998E-03   3.6000001E-01
 -2.0000000E-01   9.9999998E-03   3.8000000E-01
 -2.0000000E-01   9.9999998E-03   4.0000001E-01
 -1.8000001E-01   9.9999998E-03   3.4000000E-01
 -1.8000001E-01   9.9999998E-03   3.6000001E-01
 -1.8000001E-01   9.9999998E-03   3.8000000E-01
 -1.8000001E-01   9.9999998E-03   4.0000001E-01
 -1.6000000E-01   9.9999998E-03   3.4000000E-01
 -1.6000000E-01   9.9999998E-03   3.6000001E-01
 -1.6000000E-01   9.9999998E-03   3.8000000E-01
 -1.6000000E-01   9.9999998E-03   4.0000001E-01
 -1.4000000E-01   9.9999998E-03   3.4000000E-01
 -1.4000000E-01   9.9999998E-03   3.6000001E-01
 -1.4000000E-01   9.9999998E-03   3.8000000E-01
 -1.4000000E-01   9.9999998E-03   4.0000001E-01
 -1.2000000E-01   9.9999998E-03   3.4000000E-01
 -1.2000000E-01   9.9999998E-03   3.6000001E-01
 -1.2000000E-01   9.9999998E-03   3.8000000E-01
 -1.2000000E-01   9.9999998E-03   4.0000001E-01
 -1.0000000E-01   9.9999998E-03   3.4000000E-01
 -1.0000000E-01   9.9999998E-03   3.6000001E-01
 -1.0000000E-01   9.9999998E-03   3.8000000E-01
 -1.0000000E-01   9.9999998E-03   4.0000001E-01
 -7.9999998E-02   9.9999998E-03   3.4000000E-01
 -7.9999998E-02   9.9999998E-03   3.6000001E-01
 -7.9999998E-02   9.9999998E-03   3.8000000E-01
 -7.9999998E-02   9.9999998E-03   4.0000001E-01
 -5.9999999E-02   9.9999998E-03   3.4000000E-01
 -5.9999999E-02   9.9999998E-03   3.6000001E-01
 -5.9999999E-02   9.9999998E-03   3.8000000E-01
 -5.9999999E-02   9.9999998E-03   4.0000001E-01
 -3.9999999E-02   9.9999998E-03   3.4000000E-01
 -3.9999999E-02   9.9999998E-03   3.6000001E-01
 -3.9999999E-02   9.9999998E-03   3.8000000E-01
 -3.9999999E-02   9.9999998E-03   4.0000001E-01
 -2.0000000E-02   9.9999998E-03   3.4000000E-01
 -2.0000000E-02   9.9999998E-03   3.6000001E-01
 -2.0000000E-02   9.9999998E-03   3.8000000E-01
 -2.0000000E-02   9.9999998E-03   4.0000001E-01
  0.0000000E+00   9.9999998E-03   3.4000000E-01
  0.0000000E+00   9.9999998E-03   3.6000001E-01
  0.0000000E+00   9.9999998E-03   3.8000000E-01
  0.0000000E+00   9.9999998E-03   4.0000001E-01
  2.0000000E-02   9.9999998E-03   3.4000000E-01
  2.0000000E-02   9.9999998E-03   3.6000001E-01
  2.0000000E-02   9.9999998E-03   3.8000000E-01
  2.0000000E-02   9.9999998E-03   4.0000001E-01
  3.9999999E-02   9.9999998E-03   3.4000000E-01
  3.9999999E-02   9.9999998E-03   3.6000001E-01
  3.9999999E-02   9.9999998E-03   3.8000000E-01
  3.9999999E-02   9.9999998E-03   4.0000001E-01
  5.9999999E-02   9.9999998E-03   3.4000000E-01
  5.9999999E-02   9.9999998E-03   3.6000001E-01
  5.9999999E-02   9.9999998E-03   3.8000000E-01
  5.9999999E-02   9.9999998E-03   4.0000001E-01
  7.9999998E-02   9.9999998E-03   3.4000000E-01
  7.9999998E-02   9.9999998E-03   3.6000001E-01
  7.9999998E-02   9.9999998E-03   3.8000000E-01
  7.9999998E-02   9.9999998E-03   4.0000001E-01
  1.0000000E-01   9.9999998E-03   3.4000000E-01
  1.0000000E-01   9.9999998E-03   3.6000001E-01
  1.0000000E-01   9.9999998E-03   3.8000000E-01
  1.0000000E-01   9.9999998E-03   4.0000001E-01
  1.2000000E-01   9.9999998E-03   3.4000000E-01
  1.2000000E-01   9.9999998E-03   3.6000001E-01
  1.2000000E-01   9.9999998E-03   3.8000000E-01
  1.2000000E-01   9.9999998E-03   4.0000001E-01
  1.4000000E-01   9.9999998E-03   3.4000000E-01
  1.4000000E-01   9.9999998E-03   3.6000001E-01
  1.4000000E-01   9.9999998E-03   3.8000000E-01
  1.4000000E-01   9.9999998E-03   4.0000001E-01
  1.6000000E-01   9.9999998E-03   3.4000000E-01
  1.6000000E-01   9.9999998E-03   3.6000001E-01
  1.6000000E-01   9.9999998E-03   3.8000000E-01
  1.6000000E-01   9.9999998E-03   4.0000001E-01
  1.8000001E-01   9.9999998E-03   3.4000000E-01
  1.8000001E-01   9.9999998E-03   3.6000001E-01
  1.8000001E-01   9.9999998E-03   3.8000000E-01
  1.8000001E-01   9.9999998E-03   4.0000001E-01
  2.0000000E-01   9.9999998E-03   3.4000000E-01
  2.0000000E-01   9.9999998E-03   3.6000001E-01
  2.0000000E-01   9.9999998E-03   3.8000000E-01
  1.9200000E+00   9.9999998E-03  -3.6000001E-01
  1.9200000E+00   9.9999998E-03  -3.4000000E-01
  1.9200000E+00   9.9999998E-03  -3.1999999E-01
  1.9400001E+00   9.9999998E-03  -3.8000000E-01
  1.9400001E+00   9.9999998E-03  -3.6000001E-01
  1.9400001E+00   9.9999998E-03  -3.4000000E-01
  1.9400001E+00   9.9999998E-03  -3.1999999E-01
  1.9400001E+00   9.9999998E-03  -3.0000001E-01
  1.9400001E+00   9.9999998E-03  -2.8000000E-01
  1.9400001E+00   9.9999998E-03  -2.5999999E-01
  1.9400001E+00   9.9999998E-03  -2.3999999E-01
  1.9400001E+00   9.9999998E-03  -2.2000000E-01
  1.9600000E+00   9.9999998E-03  -3.8000000E-01
  1.9600000E+00   9.9999998E-03  -3.6000001E-01
  1.9600000E+00   9.9999998E-03  -3.4000000E-01
  1.9600000E+00   9.9999998E-03  -3.1999999E-01
  1.9600000E+00   9.9999998E-03  -3.0000001E-01
  1.9600000E+00   9.9999998E-03  -2.8000000E-01
  1.9600000E+00   9.9999998E-03  -2.5999999E-01
  1.9600000E+00   9.9999998E-03  -2.3999999E-01
  1.9600000E+00   9.9999998E-03  -2.2000000E-01
  1.9600000E+00   9.9999998E-03  -2.0000000E-01
  1.9600000E+00   9.9999998E-03  -1.8000001E-01
  1.9600000E+00   9.9999998E-03  -1.6000000E-01
  1.9600000E+00   9.9999998E-03  -1.4000000E-01
  1.9600000E+00   9.9999998E-03  -1.2000000E-01
  1.9800000E+00   9.9999998E-03  -3.8000000E-01
  1.9800000E+00   9.9999998E-03  -3.6000001E-01
  1.9800000E+00   9.9999998E-03  -3.4000000E-01
  1.9800000E+00   9.9999998E-03  -3.1999999E-01
  1.9800000E+00   9.9999998E-03  -3.0000001E-01
  1.9800000E+00   9.9999998E-03  -2.8000000E-01
  1.9800000E+00   9.9999998E-03  -2.5999999E-01
  1.9800000E+00   9.9999998E-03  -2.3999999E-01
  1.9800000E+00   9.9999998E-03  -2.2000000E-01
  1.9800000E+00   9.9999998E-03  -2.0000000E-01
  1.9800000E+00   9.9999998E-03  -1.8000001E-01
  1.9800000E+00   9.9999998E-03  -1.6000000E-01
  1.9800000E+00   9.9999998E-03  -1.4000000E-01
  1.9800000E+00   9.9999998E-03  -1.2000000E-01
  1.9800000E+00   9.9999998E-03  -1.0000000E-01
  1.9800000E+00   9.9999998E-03  -7.9999998E-02
  1.9800000E+00   9.9999998E-03  -5.9999999E-02
  1.9800000E+00   9.9999998E-03  -3.9999999E-02
  1.9800000E+00   9.9999998E-03  -2.0000000E-02
  2.0000000E+00   9.9999998E-03  -3.8000000E-01
  2.0000000E+00   9.9999998E-03  -3.6000001E-01
  2.0000000E+00   9.9999998E-03  -3.4000000E-01
  2.0000000E+00   9.9999998E-03  -3.1999999E-01
  2.0000000E+00   9.9999998E-03  -3.0000001E-01
  2.0000000E+00   9.9999998E-03  -2.8000000E-01
  2.0000000E+00   9.9999998E-03  -2.5999999E-01
  2.0000000E+00   9.9999998E-03  -2.3999999E-01
  2.0000000E+00   9.9999998E-03  -2.2000000E-01
  2.0000000E+00   9.9999998E-03  -2.0000000E-01
  2.0000000E+00   9.9999998E-03  -1.8000001E-01
  2.0000000E+00   9.9999998E-03  -1.6000000E-01
  2.0000000E+00   9.9999998E-03  -1.4000000E-01
  2.0000000E+00   9.9999998E-03  -1.2000000E-01
  2.0000000E+00   9.9999998E-03  -1.0000000E-01
  2.0000000E+00   9.9999998E-03  -7.9999998E-02
  2.0000000E+00   9.9999998E-03  -5.9999999E-02
  2.0000000E+00   9.9999998E-03  -3.9999999E-02
  2.0000000E+00   9.9999998E-03  -2.0000000E-02
  2.0000000E+00   9.9999998E-03   0.0000000E+00
  2.0000000E+00   9.9999998E-03   2.0000000E-02
  2.0000000E+00   9.9999998E-03   3.9999999E-02
  2.0000000E+00   9.9999998E-03   5.9999999E-02
  2.0000000E+00   9.9999998E-03   7.9999998E-02
  2.0200000E+00   9.9999998E-03  -4.0000001E-01
  2.0200000E+00   9.9999998E-03  -3.8000000E-01
  2.0200000E+00   9.9999998E-03  -3.6000001E-01
  2.0200000E+00   9.9999998E-03  -3.4000000E-01
  2.0200000E+00   9.9999998E-03  -3.1999999E-01
  2.0200000E+00   9.9999998E-03  -3.0000001E-01
  2.0200000E+00   9.9999998E-03  -2.8000000E-01
  2.0200000E+00   9.9999998E-03  -2.5999999E-01
  2.0200000E+00   9.9999998E-03  -2.3999999E-01
  2.0200000E+00   9.9999998E-03  -2.2000000E-01
  2.0200000E+00   9.9999998E-03  -2.0000000E-01
  2.0200000E+00   9.9999998E-03  -1.8000001E-01
  2.0200000E+00   9.9999998E-03  -1.6000000E-01
  2.0200000E+00   9.9999998E-03  -1.4000000E-01
  2.0200000E+00   9.9999998E-03  -1.2000000E-01
  2.0200000E+00   9.9999998E-03  -1.0000000E-01
  2.0200000E+00   9.9999998E-03  -7.9999998E-02
  2.0200000E+00   9.9999998E-03  -5.9999999E-02
  2.0200000E+00   9.9999998E-03  -3.9999999E-02
  2.0200000E+00   9.9999998E-03  -2.0000000E-02
  2.0200000E+00   9.9999998E-03   0.0000000E+00
  2.0200000E+00   9.9999998E-03   2.0000000E-02
  2.0200000E+00   9.9999998E-03   3.9999999E-02
  2.0200000E+00   9.9999998E-03   5.9999999E-02
  2.0200000E+00   9.9999998E-03   7.9999998E-02
  2.0200000E+00   9.9999998E-03   1.0000000E-01
  2.0200000E+00   9.9999998E-03   1.2000000E-01
  2.0200000E+00   9.9999998E-03   1.4000000E-01
  2.0200000E+00   9.9999998E-03   1.6000000E-01
  2.0200000E+00   9.9999998E-03   1.8000001E-01
  2.0400000E+00   9.9999998E-03  -4.0000001E-01
  2.0400000E+00   9.9999998E-03  -3.8000000E-01
  2.0400000E+00   9.9999998E-03  -3.6000001E-01
  2.0400000E+00   9.9999998E-03  -3.4000000E-01
  2.0400000E+00   9.9999998E-03  -3.1999999E-01
  2.0400000E+00   9.9999998E-03  -3.0000001E-01
  2.0400000E+00   9.9999998E-03  -2.8000000E-01
  2.0400000E+00   9.9999998E-03  -2.5999999E-01
  2.0400000E+00   9.9999998E-03  -2.3999999E-01
  2.0400000E+00   9.9999998E-03  -2.2000000E-01
  2.0400000E+00   9.9999998E-03  -2.0000000E-01
  2.0400000E+00   9.9999998E-03  -1.8000001E-01
  2.0400000E+00   9.9999998E-03  -1.6000000E-01
  2.0400000E+00   9.9999998E-03  -1.4000000E-01
  2.0400000E+00   9.9999998E-03  -1.2000000E-01
  2.0400000E+00   9.9999998E-03  -1.0000000E-01
  2.0400000E+00   9.9999998E-03  -7.9999998E-02
  2.0400000E+00   9.9999998E-03  -5.9999999E-02
  2.0400000E+00   9.9999998E-03  -3.9999999E-02
  2.0400000E+00   9.9999998E-03  -2.0000000E-02
  2.0400000E+00   9.9999998E-03   0.0000000E+00
  2.0400000E+00   9.9999998E-03   2.0000000E-02
  2.0400000E+00   9.9999998E-03   3.9999999E-02
  2.0400000E+00   9.9999998E-03   5.9999999E-02
  2.0400000E+00   9.9999998E-03   7.9999998E-02
  2.0400000E+00   9.9999998E-03   1.0000000E-01
  2.0400000E+00   9.9999998E-03   1.2000000E-01
  2.0400000E+00   9.9999998E-03   1.4000000E-01
  2.0400000E+00   9.9999998E-03   1.6000000E-01
  2.0400000E+00   9.9999998E-03   1.8000001E-01
  2.0400000E+00   9.9999998E-03   2.0000000E-01
  2.0400000E+00   9.9999998E-03   2.2000000E-01
  2.0400000E+00   9.9999998E-03   2.3999999E-01
  2.0400000E+00   9.9999998E-03   2.5999999E-01
  2.0400000E+00   9.9999998E-03   2.8000000E-01
  2.0599999E+00   9.9999998E-03  -4.0000001E-01
  2.0599999E+00   9.9999998E-03  -3.8000000E-01
  2.0599999E+00   9.9999998E-03  -3.6000001E-01
  2.0599999E+00   9.9999998E-03  -3.4000000E-01
  2.0599999E+00   9.9999998E-03  -3.1999999E-01
  2.0599999E+00   9.9999998E-03  -3.0000001E-01
  2.0599999E+00   9.9999998E-03  -2.8000000E-01
  2.0599999E+00   9.9999998E-03  -2.5999999E-01
  2.0599999E+00   9.9999998E-03  -2.3999999E-01
  2.0599999E+00   9.9999998E-03  -2.2000000E-01
  2.0599999E+00   9.9999998E-03  -2.0000000E-01
  2.0599999E+00   9.9999998E-03  -1.8000001E-01
  2.0599999E+00   9.9999998E-03  -1.6000000E-01
  2.0599999E+00   9.9999998E-03  -1.4000000E-01
  2.0599999E+00   9.9999998E-03  -1.2000000E-01
  2.0599999E+00   9.9999998E-03  -1.0000000E-01
  2.0599999E+00   9.9999998E-03  -7.9999998E-02
  2.0599999E+00   9.9999998E-03  -5.9999999E-02
  2.0599999E+00   9.9999998E-03  -3.9999999E-02
  2.0599999E+00   9.9999998E-03  -2.0000000E-02
  2.0599999E+00   9.9999998E-03   0.0000000E+00
  2.0599999E+00   9.9999998E-03   2.0000000E-02
  2.0599999E+00   9.9999998E-03   3.9999999E-02
  2.0599999E+00   9.9999998E-03   5.9999999E-02
  2.0599999E+00   9.9999998E-03   7.9999998E-02
  2.0599999E+00   9.9999998E-03   1.0000000E-01
  2.0599999E+00   9.9999998E-03   1.2000000E-01
  2.0599999E+00   9.9999998E-03   1.4000000E-01
  2.0599999E+00   9.9999998E-03   1.6000000E-01
  2.0599999E+00   9.9999998E-03   1.8000001E-01
  2.0599999E+00   9.9999998E-03   2.0000000E-01
  2.0599999E+00   9.9999998E-03   2.2000000E-01
  2.0599999E+00   9.9999998E-03   2.3999999E-01
  2.0599999E+00   9.9999998E-03   2.5999999E-01
  2.0599999E+00   9.9999998E-03   2.8000000E-01
  2.0599999E+00   9.9999998E-03   3.0000001E-01
  2.0599999E+00   9.9999998E-03   3.1999999E-01
  2.0599999E+00   9.9999998E-03   3.4000000E-01
  2.0599999E+00   9.9999998E-03   3.6000001E-01
  2.0599999E+00   9.9999998E-03   3.8000000E-01
  2.0799999E+00   9.9999998E-03  -4.0000001E-01
  2.0799999E+00   9.9999998E-03  -3.8000000E-01
  2.0799999E+00   9.9999998E-03  -3.6000001E-01
  2.0799999E+00   9.9999998E-03  -3.4000000E-01
  2.0799999E+00   9.9999998E-03  -3.1999999E-01
  2.0799999E+00   9.9999998E-03  -3.0000001E-01
  2.0799999E+00   9.9999998E-03  -2.8000000E-01
  2.0799999E+00   9.9999998E-03  -2.5999999E-01
  2.0799999E+00   9.9999998E-03  -2.3999999E-01
  2.0799999E+00   9.9999998E-03  -2.2000000E-01
  2.0799999E+00   9.9999998E-03  -2.0000000E-01
  2.0799999E+00   9.9999998E-03  -1.8000001E-01
  2.0799999E+00   9.9999998E-03  -1.6000000E-01
  2.0799999E+00   9.9999998E-03  -1.4000000E-01
  2.0799999E+00   9.9999998E-03  -1.2000000E-01
  2.0799999E+00   9.9999998E-03  -1.0000000E-01
  2.0799999E+00   9.9999998E-03  -7.9999998E-02
  2.0799999E+00   9.9999998E-03  -5.9999999E-02
  2.0799999E+00   9.9999998E-03  -3.9999999E-02
  2.0799999E+00   9.9999998E-03  -2.0000000E-02
  2.0799999E+00   9.9999998E-03   0.0000000E+00
  2.0799999E+00   9.9999998E-03   2.0000000E-02
  2.0799999E+00   9.9999998E-03   3.9999999E-02
  2.0799999E+00   9.9999998E-03   5.9999999E-02
  2.0799999E+00   9.9999998E-03   7.9999998E-02
  2.0799999E+00   9.9999998E-03   1.0000000E-01
  2.0799999E+00   9.9999998E-03   1.2000000E-01
  2.0799999E+00   9.9999998E-03   1.4000000E-01
  2.0799999E+00   9.9999998E-03   1.6000000E-01
  2.0799999E+00   9.9999998E-03   1.8000001E-01
  2.0799999E+00   9.9999998E-03   2.0000000E-01
  2.0799999E+00   9.9999998E-03   2.2000000E-01
  2.0799999E+00   9.9999998E-03   2.3999999E-01
  2.0799999E+00   9.9999998E-03   2.5999999E-01
  2.0799999E+00   9.9999998E-03   2.8000000E-01
  2.0799999E+00   9.9999998E-03   3.0000001E-01
  2.0799999E+00   9.9999998E-03   3.1999999E-01
  2.0799999E+00   9.9999998E-03   3.4000000E-01
  2.0799999E+00   9.9999998E-03   3.6000001E-01
  2.0799999E+00   9.9999998E-03   3.8000000E-01
  2.0799999E+00   9.9999998E-03   4.0000001E-01
  2.0999999E+00   9.9999998E-03  -4.0000001E-01
  2.0999999E+00   9.9999998E-03  -3.8000000E-01
  2.0999999E+00   9.9999998E-03  -3.6000001E-01
  2.0999999E+00   9.9999998E-03  -3.4000000E-01
  2.0999999E+00   9.9999998E-03  -3.1999999E-01
  2.0999999E+00   9.9999998E-03  -3.0000001E-01
  2.0999999E+00   9.9999998E-03  -2.8000000E-01
  2.0999999E+00   9.9999998E-03  -2.5999999E-01
  2.0999999E+00   9.9999998E-03  -2.3999999E-01
  2.0999999E+00   9.9999998E-03  -2.2000000E-01
  2.0999999E+00   9.9999998E-03  -2.0000000E-01
  2.0999999E+00   9.9999998E-03  -1.8000001E-01
  2.0999999E+00   9.9999998E-03  -1.6000000E-01
  2.0999999E+00   9.9999998E-03  -1.4000000E-01
  2.0999999E+00   9.9999998E-03  -1.2000000E-01
  2.0999999E+00   9.9999998E-03  -1.0000000E-01
  2.0999999E+00   9.9999998E-03  -7.9999998E-02
  2.0999999E+00   9.9999998E-03  -5.9999999E-02
  2.0999999E+00   9.9999998E-03  -3.9999999E-02
  2.0999999E+00   9.9999998E-03  -2.0000000E-02
  2.0999999E+00   9.9999998E-03   0.0000000E+00
  2.0999999E+00   9.9999998E-03   2.0000000E-02
  2.0999999E+00   9.9999998E-03   3.9999999E-02
  2.0999999E+00   9.9999998E-03   5.9999999E-02
  2.0999999E+00   9.9999998E-03   7.9999998E-02
  2.0999999E+00   9.9999998E-03   1.0000000E-01
  2.0999999E+00   9.9999998E-03   1.2000000E-01
  2.0999999E+00   9.9999998E-03   1.4000000E-01
  2.0999999E+00   9.9999998E-03   1.6000000E-01
  2.0999999E+00   9.9999998E-03   1.8000001E-01
  2.0999999E+00   9.9999998E-03   2.0000000E-01
  2.0999999E+00   9.9999998E-03   2.2000000E-01
  2.0999999E+00   9.9999998E-03   2.3999999E-01
  2.0999999E+00   9.9999998E-03   2.5999999E-01
  2.0999999E+00   9.9999998E-03   2.8000000E-01
  2.0999999E+00   9.9999998E-03   3.0000001E-01
  2.0999999E+00   9.9999998E-03   3.1999999E-01
  2.0999999E+00   9.9999998E-03   3.4000000E-01
  2.0999999E+00   9.9999998E-03   3.6000001E-01
  2.0999999E+00   9.9999998E-03   3.8000000E-01
  2.0999999E+00   9.9999998E-03   4.0000001E-01
  2.1199999E+00   9.9999998E-03  -4.1999999E-01
  2.1199999E+00   9.9999998E-03  -4.0000001E-01
  2.1199999E+00   9.9999998E-03  -3.8000000E-01
  2.1199999E+00   9.9999998E-03  -3.6000001E-01
  2.1199999E+00   9.9999998E-03  -3.4000000E-01
  2.1199999E+00   9.9999998E-03  -3.1999999E-01
  2.1199999E+00   9.9999998E-03  -3.0000001E-01
  2.1199999E+00   9.9999998E-03  -2.8000000E-01
  2.1199999E+00   9.9999998E-03  -2.5999999E-01
  2.1199999E+00   9.9999998E-03  -2.3999999E-01
  2.1199999E+00   9.9999998E-03  -2.2000000E-01
  2.1199999E+00   9.9999998E-03  -2.0000000E-01
  2.1199999E+00   9.9999998E-03  -1.8000001E-01
  2.1199999E+00   9.9999998E-03  -1.6000000E-01
  2.1199999E+00   9.9999998E-03  -1.4000000E-01
  2.1199999E+00   9.9999998E-03  -1.2000000E-01
  2.1199999E+00   9.9999998E-03  -1.0000000E-01
  2.1199999E+00   9.9999998E-03  -7.9999998E-02
  2.1199999E+00   9.9999998E-03  -5.9999999E-02
  2.1199999E+00   9.9999998E-03  -3.9999999E-02
  2.1199999E+00   9.9999998E-03  -2.0000000E-02
  2.1199999E+00   9.9999998E-03   0.0000000E+00
  2.1199999E+00   9.9999998E-03   2.0000000E-02
  2.1199999E+00   9.9999998E-03   3.9999999E-02
  2.1199999E+00   9.9999998E-03   5.9999999E-02
  2.1199999E+00   9.9999998E-03   7.9999998E-02
  2.1199999E+00   9.9999998E-03   1.0000000E-01
  2.1199999E+00   9.9999998E-03   1.2000000E-01
  2.1199999E+00   9.9999998E-03   1.4000000E-01
  2.1199999E+00   9.9999998E-03   1.6000000E-01
  2.1199999E+00   9.9999998E-03   1.8000001E-01
  2.1199999E+00   9.9999998E-03   2.0000000E-01
  2.1199999E+00   9.9999998E-03   2.2000000E-01
  2.1199999E+00   9.9999998E-03   2.3999999E-01
  2.1199999E+00   9.9999998E-03   2.5999999E-01
  2.1199999E+00   9.9999998E-03   2.8000000E-01
  2.1199999E+00   9.9999998E-03   3.0000001E-01
  2.1199999E+00   9.9999998E-03   3.1999999E-01
  2.1199999E+00   9.9999998E-03   3.4000000E-01
  2.1199999E+00   9.9999998E-03   3.6000001E-01
  2.1199999E+00   9.9999998E-03   3.8000000E-01
  2.1199999E+00   9.9999998E-03   4.0000001E-01
  2.1400001E+00   9.9999998E-03  -3.8000000E-01
  2.1400001E+00   9.9999998E-03  -3.6000001E-01
  2.1400001E+00   9.9999998E-03  -3.4000000E-01
  2.1400001E+00   9.9999998E-03  -3.1999999E-01
  2.1400001E+00   9.9999998E-03  -3.0000001E-01
  2.1400001E+00   9.9999998E-03  -2.8000000E-01
  2.1400001E+00   9.9999998E-03  -2.5999999E-01
  2.1400001E+00   9.9999998E-03  -2.3999999E-01
  2.1400001E+00   9.9999998E-03  -2.2000000E-01
  2.1400001E+00   9.9999998E-03  -2.0000000E-01
  2.1400001E+00   9.9999998E-03  -1.8000001E-01
  2.1400001E+00   9.9999998E-03  -1.6000000E-01
  2.1400001E+00   9.9999998E-03  -1.4000000E-01
  2.1400001E+00   9.9999998E-03  -1.2000000E-01
  2.1400001E+00   9.9999998E-03  -1.0000000E-01
  2.1400001E+00   9.9999998E-03  -7.9999998E-02
  2.1400001E+00   9.9999998E-03  -5.9999999E-02
  2.1400001E+00   9.9999998E-03  -3.9999999E-02
  2.1400001E+00   9.9999998E-03  -2.0000000E-02
  2.1400001E+00   9.9999998E-03   0.0000000E+00
  2.1400001E+00   9.9999998E-03   2.0000000E-02
  2.1400001E+00   9.9999998E-03   3.9999999E-02
  2.1400001E+00   9.9999998E-03   5.9999999E-02
  2.1400001E+00   9.9999998E-03   7.9999998E-02
  2.1400001E+00   9.9999998E-03   1.0000000E-01
  2.1400001E+00   9.9999998E-03   1.2000000E-01
  2.1400001E+00   9.9999998E-03   1.4000000E-01
  2.1400001E+00   9.9999998E-03   1.6000000E-01
  2.1400001E+00   9.9999998E-03   1.8000001E-01
  2.1400001E+00   9.9999998E-03   2.0000000E-01
  2.1400001E+00   9.9999998E-03   2.2000000E-01
  2.1400001E+00   9.9999998E-03   2.3999999E-01
  2.1400001E+00   9.9999998E-03   2.5999999E-01
  2.1400001E+00   9.9999998E-03   2.8000000E-01
  2.1400001E+00   9.9999998E-03   3.0000001E-01
  2.1400001E+00   9.9999998E-03   3.1999999E-01
  2.1400001E+00   9.9999998E-03   3.4000000E-01
  2.1400001E+00   9.9999998E-03   3.6000001E-01
  2.1400001E+00   9.9999998E-03   3.8000000E-01
  2.1400001E+00   9.9999998E-03   4.0000001E-01
  2.1600001E+00   9.9999998E-03  -2.8000000E-01
  2.1600001E+00   9.9999998E-03  -2.5999999E-01
  2.1600001E+00   9.9999998E-03  -2.3999999E-01
  2.1600001E+00   9.9999998E-03  -2.2000000E-01
  2.1600001E+00   9.9999998E-03  -2.0000000E-01
  2.1600001E+00   9.9999998E-03  -1.8000001E-01
  2.1600001E+00   9.9999998E-03  -1.6000000E-01
  2.1600001E+00   9.9999998E-03  -1.4000000E-01
  2.1600001E+00   9.9999998E-03  -1.2000000E-01
  2.1600001E+00   9.9999998E-03  -1.0000000E-01
  2.1600001E+00   9.9999998E-03  -7.9999998E-02
  2.1600001E+00   9.9999998E-03  -5.9999999E-02
  2.1600001E+00   9.9999998E-03  -3.9999999E-02
  2.1600001E+00   9.9999998E-03  -2.0000000E-02
  2.1600001E+00   9.9999998E-03   0.0000000E+00
  2.1600001E+00   9.9999998E-03   2.0000000E-02
  2.1600001E+00   9.9999998E-03   3.9999999E-02
  2.1600001E+00   9.9999998E-03   5.9999999E-02
  2.1600001E+00   9.9999998E-03   7.9999998E-02
  2.1600001E+00   9.9999998E-03   1.0000000E-01
  2.1600001E+00   9.9999998E-03   1.2000000E-01
  2.1600001E+00   9.9999998E-03   1.4000000E-01
  2.1600001E+00   9.9999998E-03   1.6000000E-01
  2.1600001E+00   9.9999998E-03   1.8000001E-01
  2.1600001E+00   9.9999998E-03   2.0000000E-01
  2.1600001E+00   9.9999998E-03   2.2000000E-01
  2.1600001E+00   9.9999998E-03   2.3999999E-01
  2.1600001E+00   9.9999998E-03   2.5999999E-01
  2.1600001E+00   9.9999998E-03   2.8000000E-01
  2.1600001E+00   9.9999998E-03   3.0000001E-01
  2.1600001E+00   9.9999998E-03   3.1999999E-01
  2.1600001E+00   9.9999998E-03   3.4000000E-01
  2.1600001E+00   9.9999998E-03   3.6000001E-01
  2.1600001E+00   9.9999998E-03   3.8000000E-01
  2.1600001E+00   9.9999998E-03   4.0000001E-01
  2.1800001E+00   9.9999998E-03  -1.8000001E-01
  2.1800001E+00   9.9999998E-03  -1.6000000E-01
  2.1800001E+00   9.9999998E-03  -1.4000000E-01
  2.1800001E+00   9.9999998E-03  -1.2000000E-01
  2.1800001E+00   9.9999998E-03  -1.0000000E-01
  2.1800001E+00   9.9999998E-03  -7.9999998E-02
  2.1800001E+00   9.9999998E-03  -5.9999999E-02
  2.1800001E+00   9.9999998E-03  -3.9999999E-02
  2.1800001E+00   9.9999998E-03  -2.0000000E-02
  2.1800001E+00   9.9999998E-03   0.0000000E+00
  2.1800001E+00   9.9999998E-03   2.0000000E-02
  2.1800001E+00   9.9999998E-03   3.9999999E-02
  2.1800001E+00   9.9999998E-03   5.9999999E-02
  2.1800001E+00   9.9999998E-03   7.9999998E-02
  2.1800001E+00   9.9999998E-03   1.0000000E-01
  2.1800001E+00   9.9999998E-03   1.2000000E-01
  2.1800001E+00   9.9999998E-03   1.4000000E-01
  2.1800001E+00   9.9999998E-03   1.6000000E-01
  2.1800001E+00   9.9999998E-03   1.8000001E-01
  2.1800001E+00   9.9999998E-03   2.0000000E-01
  2.1800001E+00   9.9999998E-03   2.2000000E-01
  2.1800001E+00   9.9999998E-03   2.3999999E-01
  2.1800001E+00   9.9999998E-03   2.5999999E-01
  2.1800001E+00   9.9999998E-03   2.8000000E-01
  2.1800001E+00   9.9999998E-03   3.0000001E-01
  2.1800001E+00   9.9999998E-03   3.1999999E-01
  2.1800001E+00   9.9999998E-03   3.4000000E-01
  2.1800001E+00   9.9999998E-03   3.6000001E-01
  2.1800001E+00   9.9999998E-03   3.8000000E-01
  2.1800001E+00   9.9999998E-03   4.0000001E-01
  2.2000000E+00   9.9999998E-03  -7.9999998E-02
  2.2000000E+00   9.9999998E-03  -5.9999999E-02
  2.2000000E+00   9.9999998E-03  -3.9999999E-02
  2.2000000E+00   9.9999998E-03  -2.0000000E-02
  2.2000000E+00   9.9999998E-03   0.0000000E+00
  2.2000000E+00   9.9999998E-03   2.0000000E-02
  2.2000000E+00   9.9999998E-03   3.9999999E-02
  2.2000000E+00   9.9999998E-03   5.9999999E-02
  2.2000000E+00   9.9999998E-03   7.9999998E-02
  2.2000000E+00   9.9999998E-03   1.0000000E-01
  2.2000000E+00   9.9999998E-03   1.2000000E-01
  2.2000000E+00   9.9999998E-03   1.4000000E-01
  2.2000000E+00   9.9999998E-03   1.6000000E-01
  2.2000000E+00   9.9999998E-03   1.8000001E-01
  2.2000000E+00   9.9999998E-03   2.0000000E-01
  2.2000000E+00   9.9999998E-03   2.2000000E-01
  2.2000000E+00   9.9999998E-03   2.3999999E-01
  2.2000000E+00   9.9999998E-03   2.5999999E-01
  2.2000000E+00   9.9999998E-03   2.8000000E-01
  2.2000000E+00   9.9999998E-03   3.0000001E-01
  2.2000000E+00   9.9999998E-03   3.1999999E-01
  2.2000000E+00   9.9999998E-03   3.4000000E-01
  2.2000000E+00   9.9999998E-03   3.6000001E-01
  2.2000000E+00   9.9999998E-03   3.8000000E-01
  2.2200000E+00   9.9999998E-03   2.0000000E-02
  2.2200000E+00   9.9999998E-03   3.9999999E-02
  2.2200000E+00   9.9999998E-03   5.9999999E-02
  2.2200000E+00   9.9999998E-03   7.9999998E-02
  2.2200000E+00   9.9999998E-03   1.0000000E-01
  2.2200000E+00   9.9999998E-03   1.2000000E-01
  2.2200000E+00   9.9999998E-03   1.4000000E-01
  2.2200000E+00   9.9999998E-03   1.6000000E-01
  2.2200000E+00   9.9999998E-03   1.8000001E-01
  2.2200000E+00   9.9999998E-03   2.0000000E-01
  2.2200000E+00   9.9999998E-03   2.2000000E-01
  2.2200000E+00   9.9999998E-03   2.3999999E-01
  2.2200000E+00   9.9999998E-03   2.5999999E-01
  2.2200000E+00   9.9999998E-03   2.8000000E-01
  2.2200000E+00   9.9999998E-03   3.0000001E-01
  2.2200000E+00   9.9999998E-03   3.1999999E-01
  2.2200000E+00   9.9999998E-03   3.4000000E-01
  2.2200000E+00   9.9999998E-03   3.6000001E-01
  2.2200000E+00   9.9999998E-03   3.8000000E-01
  2.2400000E+00   9.9999998E-03   1.2000000E-01
  2.2400000E+00   9.9999998E-03   1.4000000E-01
  2.2400000E+00   9.9999998E-03   1.6000000E-01
  2.2400000E+00   9.9999998E-03   1.8000001E-01
  2.2400000E+00   9.9999998E-03   2.0000000E-01
  2.2400000E+00   9.9999998E-03   2.2000000E-01
  2.2400000E+00   9.9999998E-03   2.3999999E-01
  2.2400000E+00   9.9999998E-03   2.5999999E-01
  2.2400000E+00   9.9999998E-03   2.8000000E-01
  2.2400000E+00   9.9999998E-03   3.0000001E-01
  2.2400000E+00   9.9999998E-03   3.1999999E-01
  2.2400000E+00   9.9999998E-03   3.4000000E-01
  2.2400000E+00   9.9999998E-03   3.6000001E-01
  2.2400000E+00   9.9999998E-03   3.8000000E-01
  2.2600000E+00   9.9999998E-03   2.2000000E-01
  2.2600000E+00   9.9999998E-03   2.3999999E-01
  2.2600000E+00   9.9999998E-03   2.5999999E-01
  2.2600000E+00   9.9999998E-03   2.8000000E-01
  2.2600000E+00   9.9999998E-03   3.0000001E-01
  2.2600000E+00   9.9999998E-03   3.1999999E-01
  2.2600000E+00   9.9999998E-03   3.4000000E-01
  2.2600000E+00   9.9999998E-03   3.6000001E-01
  2.2600000E+00   9.9999998E-03   3.8000000E-01
  2.2800000E+00   9.9999998E-03   3.1999999E-01
  2.2800000E+00   9.9999998E-03   3.4000000E-01
  2.2800000E+00   9.9999998E-03   3.6000001E-01
 -6.0564325E-06   9.9999998E-03  -2.8000236E-01
 -7.3980968E-06   9.9999998E-03  -2.6000229E-01
 -8.5385691E-06   9.9999998E-03  -2.4000208E-01
 -9.4365305E-06   9.9999998E-03  -2.2000182E-01
 -1.0101617E-05   9.9999998E-03  -2.0000152E-01
  1.9994078E-02   9.9999998E-03  -3.0000308E-01
  1.9991646E-02   9.9999998E-03  -2.8000286E-01
  1.9989556E-02   9.9999998E-03  -2.6000285E-01
  1.9987861E-02   9.9999998E-03  -2.4000268E-01
  1.9986570E-02   9.9999998E-03  -2.2000238E-01
  1.9985642E-02   9.9999998E-03  -2.0000203E-01
  3.9991774E-02   9.9999998E-03  -3.0000338E-01
  3.9988425E-02   9.9999998E-03  -2.8000322E-01
  3.9985538E-02   9.9999998E-03  -2.6000318E-01
  3.9983187E-02   9.9999998E-03  -2.4000297E-01
  3.9981432E-02   9.9999998E-03  -2.2000268E-01
  3.9980188E-02   9.9999998E-03  -2.0000230E-01
  5.9988927E-02   9.9999998E-03  -3.0000353E-01
  5.9984513E-02   9.9999998E-03  -2.8000334E-01
  5.9980772E-02   9.9999998E-03  -2.6000330E-01
  5.9977755E-02   9.9999998E-03  -2.4000312E-01
  5.9975516E-02   9.9999998E-03  -2.2000283E-01
  5.9973963E-02   9.9999998E-03  -2.0000243E-01
  7.9985589E-02   9.9999998E-03  -3.0000371E-01
  7.9979986E-02   9.9999998E-03  -2.8000337E-01
  7.9975337E-02   9.9999998E-03  -2.6000330E-01
  7.9971649E-02   9.9999998E-03  -2.4000312E-01
  7.9968952E-02   9.9999998E-03  -2.2000284E-01
  7.9967111E-02   9.9999998E-03  -2.0000246E-01
  9.9981658E-02   9.9999998E-03  -3.0000392E-01
  9.9974737E-02   9.9999998E-03  -2.8000334E-01
  9.9969149E-02   9.9999998E-03  -2.6000321E-01
  9.9964790E-02   9.9999998E-03  -2.4000302E-01
  9.9961668E-02   9.9999998E-03  -2.2000276E-01
  9.9959582E-02   9.9999998E-03  -2.0000239E-01
  1.1997697E-01   9.9999998E-03  -3.0000430E-01
  1.1996860E-01   9.9999998E-03  -2.8000334E-01
  1.1996203E-01   9.9999998E-03  -2.6000306E-01
  1.1995701E-01   9.9999998E-03  -2.4000286E-01
  1.1995349E-01   9.9999998E-03  -2.2000264E-01
  1.1995119E-01   9.9999998E-03  -2.0000230E-01
  1.3997130E-01   9.9999998E-03  -3.0000496E-01
  1.3996135E-01   9.9999998E-03  -2.8000349E-01
  1.3995378E-01   9.9999998E-03  -2.6000306E-01
  1.3994807E-01   9.9999998E-03  -2.4000275E-01
  1.3994417E-01   9.9999998E-03  -2.2000256E-01
  1.3994169E-01   9.9999998E-03  -2.0000228E-01
  1.5996422E-01   9.9999998E-03  -3.0000576E-01
  1.5995274E-01   9.9999998E-03  -2.8000385E-01
  1.5994419E-01   9.9999998E-03  -2.6000324E-01
  1.5993780E-01   9.9999998E-03  -2.4000289E-01
  1.5993352E-01   9.9999998E-03  -2.2000271E-01
  1.5993088E-01   9.9999998E-03  -2.0000246E-01
  1.7995495E-01   9.9999998E-03  -3.0000597E-01
  1.7994247E-01   9.9999998E-03  -2.8000429E-01
  1.7993304E-01   9.9999998E-03  -2.6000369E-01
  1.7992602E-01   9.9999998E-03  -2.4000336E-01
  1.7992136E-01   9.9999998E-03  -2.2000322E-01
  1.7991862E-01   9.9999998E-03  -2.0000300E-01
  1.9994278E-01   9.9999998E-03  -3.0000553E-01
  1.9993004E-01   9.9999998E-03  -2.8000471E-01
  1.9991998E-01   9.9999998E-03  -2.6000434E-01
  1.9991247E-01   9.9999998E-03  -2.4000424E-01
  1.9990754E-01   9.9999998E-03  -2.2000422E-01
  1.9990475E-01   9.9999998E-03  -2.0000403E-01
  2.1992904E-01   9.9999998E-03  -3.0000833E-01
  2.1991527E-01   9.9999998E-03  -2.8000647E-01
  2.1990483E-01   9.9999998E-03  -2.6000589E-01
  2.1989694E-01   9.9999998E-03  -2.4000581E-01
  2.1989186E-01   9.9999998E-03  -2.2000583E-01
  2.1988913E-01   9.9999998E-03  -2.0000567E-01
  2.3991251E-01   9.9999998E-03  -3.0002043E-01
  2.3989789E-01   9.9999998E-03  -2.8001413E-01
  2.3988707E-01   9.9999998E-03  -2.6001048E-01
  2.3987906E-01   9.9999998E-03  -2.4000905E-01
  2.3987408E-01   9.9999998E-03  -2.2000855E-01
  2.3987153E-01   9.9999998E-03  -2.0000814E-01
  2.5989079E-01   9.9999998E-03  -3.0003169E-01
  2.5987664E-01   9.9999998E-03  -2.8002414E-01
  2.5986606E-01   9.9999998E-03  -2.6001790E-01
  2.5985846E-01   9.9999998E-03  -2.4001446E-01
  2.5985393E-01   9.9999998E-03  -2.2001281E-01
  2.5985169E-01   9.9999998E-03  -2.0001161E-01
  2.7986464E-01   9.9999998E-03  -3.0003989E-01
  2.7985156E-01   9.9999998E-03  -2.8003278E-01
  2.7984184E-01   9.9999998E-03  -2.6002595E-01
  2.7983510E-01   9.9999998E-03  -2.4002123E-01
  2.7983117E-01   9.9999998E-03  -2.2001827E-01
  2.7982932E-01   9.9999998E-03  -2.0001601E-01
  2.9983586E-01   9.9999998E-03  -3.0004686E-01
  2.9982397E-01   9.9999998E-03  -2.8004023E-01
  2.9981509E-01   9.9999998E-03  -2.6003358E-01
  2.9980907E-01   9.9999998E-03  -2.4002825E-01
  2.9980564E-01   9.9999998E-03  -2.2002426E-01
  2.9980421E-01   9.9999998E-03  -2.0002103E-01
  3.1980583E-01   9.9999998E-03  -3.0005372E-01
  3.1979451E-01   9.9999998E-03  -2.8004721E-01
  3.1978604E-01   9.9999998E-03  -2.6004067E-01
  3.1978035E-01   9.9999998E-03  -2.4003506E-01
  3.1977719E-01   9.9999998E-03  -2.2003038E-01
  3.1977612E-01   9.9999998E-03  -2.0002639E-01
  3.3977473E-01   9.9999998E-03  -3.0006087E-01
  3.3976308E-01   9.9999998E-03  -2.8005415E-01
  3.3975437E-01   9.9999998E-03  -2.6004753E-01
  3.3974859E-01   9.9999998E-03  -2.4004167E-01
  3.3974552E-01   9.9999998E-03  -2.2003648E-01
  3.3974472E-01   9.9999998E-03  -2.0003186E-01
  3.5974163E-01   9.9999998E-03  -3.0006859E-01
  3.5972887E-01   9.9999998E-03  -2.8006142E-01
  3.5971943E-01   9.9999998E-03  -2.6005438E-01
  3.5971335E-01   9.9999998E-03  -2.4004824E-01
  3.5971028E-01   9.9999998E-03  -2.2004260E-01
  3.5970971E-01   9.9999998E-03  -2.0003739E-01
  3.7970525E-01   9.9999998E-03  -3.0007693E-01
  3.7969103E-01   9.9999998E-03  -2.8006914E-01
  3.7968069E-01   9.9999998E-03  -2.6006153E-01
  3.7967420E-01   9.9999998E-03  -2.4005495E-01
  3.7967113E-01   9.9999998E-03  -2.2004879E-01
  3.7967077E-01   9.9999998E-03  -2.0004296E-01
  3.9966485E-01   9.9999998E-03  -3.0008599E-01
  3.9964902E-01   9.9999998E-03  -2.8007743E-01
  3.9963770E-01   9.9999998E-03  -2.6006910E-01
  3.9963073E-01   9.9999998E-03  -2.4006194E-01
  3.9962763E-01   9.9999998E-03  -2.2005516E-01
  3.9962754E-01   9.9999998E-03  -2.0004864E-01
  4.1961992E-01   9.9999998E-03  -3.0009592E-01
  4.1960239E-01   9.9999998E-03  -2.8008640E-01
  4.1959000E-01   9.9999998E-03  -2.6007721E-01
  4.1958255E-01   9.9999998E-03  -2.4006931E-01
  4.1957939E-01   9.9999998E-03  -2.2006179E-01
  4.1957960E-01   9.9999998E-03  -2.0005450E-01
  4.3956995E-01   9.9999998E-03  -3.0010685E-01
  4.3955058E-01   9.9999998E-03  -2.8009623E-01
  4.3953705E-01   9.9999998E-03  -2.6008597E-01
  4.3952909E-01   9.9999998E-03  -2.4007711E-01
  4.3952596E-01   9.9999998E-03  -2.2006872E-01
  4.3952650E-01   9.9999998E-03  -2.0006061E-01
  4.5951417E-01   9.9999998E-03  -3.0011913E-01
  4.5949283E-01   9.9999998E-03  -2.8010714E-01
  4.5947820E-01   9.9999998E-03  -2.6009542E-01
  4.5946980E-01   9.9999998E-03  -2.4008532E-01
  4.5946670E-01   9.9999998E-03  -2.2007602E-01
  4.5946774E-01   9.9999998E-03  -2.0006710E-01
  4.7945145E-01   9.9999998E-03  -3.0013302E-01
  4.7942823E-01   9.9999998E-03  -2.8011924E-01
  4.7941259E-01   9.9999998E-03  -2.6010552E-01
  4.7940385E-01   9.9999998E-03  -2.4009396E-01
  4.7940105E-01   9.9999998E-03  -2.2008388E-01
  4.7940272E-01   9.9999998E-03  -2.0007437E-01
  4.9938014E-01   9.9999998E-03  -3.0014905E-01
  4.9935555E-01   9.9999998E-03  -2.8013286E-01
  4.9933934E-01   9.9999998E-03  -2.6011640E-01
  4.9933064E-01   9.9999998E-03  -2.4010332E-01
  4.9932837E-01   9.9999998E-03  -2.2009280E-01
  4.9933094E-01   9.9999998E-03  -2.0008309E-01
  5.1929802E-01   9.9999998E-03  -3.0016786E-01
  5.1927346E-01   9.9999998E-03  -2.8014848E-01
  5.1925766E-01   9.9999998E-03  -2.6012847E-01
  5.1924962E-01   9.9999998E-03  -2.4011423E-01
  5.1924843E-01   9.9999998E-03  -2.2010390E-01
  5.1925212E-01   9.9999998E-03  -2.0009440E-01
  5.3920305E-01   9.9999998E-03  -3.0019036E-01
  5.3918123E-01   9.9999998E-03  -2.8016692E-01
  5.3916752E-01   9.9999998E-03  -2.6014289E-01
  5.3916126E-01   9.9999998E-03  -2.4012822E-01
  5.3916156E-01   9.9999998E-03  -2.2011884E-01
  5.3916675E-01   9.9999998E-03  -2.0010991E-01
  5.5909526E-01   9.9999998E-03  -3.0021805E-01
  5.5908000E-01   9.9999998E-03  -2.8018996E-01
  5.5907065E-01   9.9999998E-03  -2.6016188E-01
  5.5906749E-01   9.9999998E-03  -2.4014765E-01
  5.5906999E-01   9.9999998E-03  -2.2013982E-01
  5.5907667E-01   9.9999998E-03  -2.0013125E-01
  5.7897902E-01   9.9999998E-03  -3.0025327E-01
  5.7897449E-01   9.9999998E-03  -2.8022069E-01
  5.7897168E-01   9.9999998E-03  -2.6018894E-01
  5.7897258E-01   9.9999998E-03  -2.4017516E-01
  5.7897782E-01   9.9999998E-03  -2.2016856E-01
  5.7898587E-01   9.9999998E-03  -2.0015959E-01
  5.9886414E-01   9.9999998E-03  -3.0029997E-01
  5.9887248E-01   9.9999998E-03  -2.8026426E-01
  5.9887755E-01   9.9999998E-03  -2.6022956E-01
  5.9888250E-01   9.9999998E-03  -2.4021292E-01
  5.9888965E-01   9.9999998E-03  -2.2020449E-01
  5.9889895E-01   9.9999998E-03  -2.0019357E-01
  6.1876363E-01   9.9999998E-03  -3.0036405E-01
  6.1878264E-01   9.9999998E-03  -2.8032839E-01
  6.1879176E-01   9.9999998E-03  -2.6028779E-01
  6.1879981E-01   9.9999998E-03  -2.4026214E-01
  6.1880964E-01   9.9999998E-03  -2.2024763E-01
  6.1882019E-01   9.9999998E-03  -2.0023179E-01
  6.3868970E-01   9.9999998E-03  -3.0044967E-01
  6.3871104E-01   9.9999998E-03  -2.8041759E-01
  6.3872164E-01   9.9999998E-03  -2.6037562E-01
  6.3873011E-01   9.9999998E-03  -2.4033216E-01
  6.3874084E-01   9.9999998E-03  -2.2029948E-01
  6.3875395E-01   9.9999998E-03  -2.0027500E-01
  6.5865237E-01   9.9999998E-03  -3.0054957E-01
  6.5867054E-01   9.9999998E-03  -2.8052482E-01
  6.5868163E-01   9.9999998E-03  -2.6049292E-01
  6.5868932E-01   9.9999998E-03  -2.4043903E-01
  6.5869677E-01   9.9999998E-03  -2.2037713E-01
  6.5870851E-01   9.9999998E-03  -2.0033188E-01
  6.7867565E-01   9.9999998E-03  -3.0064067E-01
  6.7867225E-01   9.9999998E-03  -2.8062457E-01
  6.7867947E-01   9.9999998E-03  -2.6060864E-01
  6.7868614E-01   9.9999998E-03  -2.4056616E-01
  6.7868716E-01   9.9999998E-03  -2.2048491E-01
  6.7869443E-01   9.9999998E-03  -2.0041560E-01
  6.9887984E-01   9.9999998E-03  -3.0071399E-01
  6.9876891E-01   9.9999998E-03  -2.8070241E-01
  6.9874072E-01   9.9999998E-03  -2.6070273E-01
  6.9874567E-01   9.9999998E-03  -2.4068742E-01
  6.9874024E-01   9.9999998E-03  -2.2061898E-01
  6.9873887E-01   9.9999998E-03  -2.0053855E-01
  7.1924716E-01   9.9999998E-03  -3.0076829E-01
  7.1912658E-01   9.9999998E-03  -2.8075650E-01
  7.1902043E-01   9.9999998E-03  -2.6076442E-01
  7.1895134E-01   9.9999998E-03  -2.4077109E-01
  7.1892059E-01   9.9999998E-03  -2.2073661E-01
  7.1891350E-01   9.9999998E-03  -2.0068084E-01
  7.3954862E-01   9.9999998E-03  -3.0080625E-01
  7.3947203E-01   9.9999998E-03  -2.8079173E-01
  7.3940247E-01   9.9999998E-03  -2.6078433E-01
  7.3934877E-01   9.9999998E-03  -2.4078256E-01
  7.3931497E-01   9.9999998E-03  -2.2075179E-01
  7.3930073E-01   9.9999998E-03  -2.0070186E-01
  7.5975382E-01   9.9999998E-03  -3.0083376E-01
  7.5971192E-01   9.9999998E-03  -2.8081620E-01
  7.5967485E-01   9.9999998E-03  -2.6079181E-01
  7.5964320E-01   9.9999998E-03  -2.4077763E-01
  7.5962096E-01   9.9999998E-03  -2.2074379E-01
  7.5960845E-01   9.9999998E-03  -2.0069183E-01
  7.7988875E-01   9.9999998E-03  -3.0085272E-01
  7.7987325E-01   9.9999998E-03  -2.8083262E-01
  7.7986044E-01   9.9999998E-03  -2.6080042E-01
  7.7984774E-01   9.9999998E-03  -2.4077281E-01
  7.7983689E-01   9.9999998E-03  -2.2073217E-01
  7.7982891E-01   9.9999998E-03  -2.0067714E-01
  7.9999846E-01   9.9999998E-03  -3.0086255E-01
  8.0000395E-01   9.9999998E-03  -2.8084084E-01
  8.0000955E-01   9.9999998E-03  -2.6080734E-01
  8.0001235E-01   9.9999998E-03  -2.4077369E-01
  8.0001146E-01   9.9999998E-03  -2.2072692E-01
  8.0000830E-01   9.9999998E-03  -2.0066668E-01
  8.2011956E-01   9.9999998E-03  -3.0086353E-01
  8.2014447E-01   9.9999998E-03  -2.8084117E-01
  8.2016492E-01   9.9999998E-03  -2.6081043E-01
  8.2018042E-01   9.9999998E-03  -2.4077934E-01
  8.2018745E-01   9.9999998E-03  -2.2072871E-01
  8.2018721E-01   9.9999998E-03  -2.0066081E-01
  8.4026492E-01   9.9999998E-03  -3.0085418E-01
  8.4030920E-01   9.9999998E-03  -2.8083149E-01
  8.4034359E-01   9.9999998E-03  -2.6080346E-01
  8.4036970E-01   9.9999998E-03  -2.4077754E-01
  8.4038264E-01   9.9999998E-03  -2.2072732E-01
  8.4038234E-01   9.9999998E-03  -2.0065543E-01
  8.6042619E-01   9.9999998E-03  -3.0083600E-01
  8.6049032E-01   9.9999998E-03  -2.8081319E-01
  8.6053813E-01   9.9999998E-03  -2.6078692E-01
  8.6057389E-01   9.9999998E-03  -2.4076524E-01
  8.6059111E-01   9.9999998E-03  -2.2071765E-01
  8.6058831E-01   9.9999998E-03  -2.0064624E-01
  8.8058710E-01   9.9999998E-03  -3.0081093E-01
  8.8066953E-01   9.9999998E-03  -2.8078789E-01
  8.8072985E-01   9.9999998E-03  -2.6076233E-01
  8.8077497E-01   9.9999998E-03  -2.4074283E-01
  8.8079554E-01   9.9999998E-03  -2.2069821E-01
  8.8078940E-01   9.9999998E-03  -2.0063008E-01
  9.0073347E-01   9.9999998E-03  -3.0078024E-01
  9.0082985E-01   9.9999998E-03  -2.8075719E-01
  9.0090108E-01   9.9999998E-03  -2.6073119E-01
  9.0095282E-01   9.9999998E-03  -2.4071009E-01
  9.0097785E-01   9.9999998E-03  -2.2066738E-01
  9.0097028E-01   9.9999998E-03  -2.0060536E-01
  9.2085630E-01   9.9999998E-03  -3.0074480E-01
  9.2095989E-01   9.9999998E-03  -2.8072223E-01
  9.2103875E-01   9.9999998E-03  -2.6069421E-01
  9.2109495E-01   9.9999998E-03  -2.4066891E-01
  9.2112470E-01   9.9999998E-03  -2.2062565E-01
  9.2111421E-01   9.9999998E-03  -2.0057251E-01
  9.4095135E-01   9.9999998E-03  -3.0070597E-01
  9.4105673E-01   9.9999998E-03  -2.8068393E-01
  9.4114035E-01   9.9999998E-03  -2.6065311E-01
  9.4119829E-01   9.9999998E-03  -2.4062158E-01
  9.4120991E-01   9.9999998E-03  -2.2058383E-01
  9.4117671E-01   9.9999998E-03  -2.0053700E-01
  9.6102637E-01   9.9999998E-03  -3.0066401E-01
  9.6113032E-01   9.9999998E-03  -2.8064278E-01
  9.6121418E-01   9.9999998E-03  -2.6060921E-01
  9.6125519E-01   9.9999998E-03  -2.4057920E-01
  9.6123642E-01   9.9999998E-03  -2.2054873E-01
  9.6119314E-01   9.9999998E-03  -2.0050137E-01
  9.8109466E-01   9.9999998E-03  -3.0061883E-01
  9.8119318E-01   9.9999998E-03  -2.8059837E-01
  9.8126620E-01   9.9999998E-03  -2.6056439E-01
  9.8127586E-01   9.9999998E-03  -2.4054238E-01
  9.8124117E-01   9.9999998E-03  -2.2051291E-01
  9.8119241E-01   9.9999998E-03  -2.0046622E-01
  1.0011666E+00   9.9999998E-03  -3.0057120E-01
  1.0012505E+00   9.9999998E-03  -2.8055099E-01
  1.0012981E+00   9.9999998E-03  -2.6051974E-01
  1.0012813E+00   9.9999998E-03  -2.4050361E-01
  1.0012364E+00   9.9999998E-03  -2.2047396E-01
  1.0011845E+00   9.9999998E-03  -2.0043278E-01
  1.0212501E+00   9.9999998E-03  -3.0052236E-01
  1.0213075E+00   9.9999998E-03  -2.8050190E-01
  1.0213159E+00   9.9999998E-03  -2.6047546E-01
  1.0212809E+00   9.9999998E-03  -2.4046226E-01
  1.0212283E+00   9.9999998E-03  -2.2043607E-01
  1.0211735E+00   9.9999998E-03  -2.0040187E-01
  1.0413551E+00   9.9999998E-03  -3.0047289E-01
  1.0413666E+00   9.9999998E-03  -2.8045458E-01
  1.0413285E+00   9.9999998E-03  -2.6043370E-01
  1.0412785E+00   9.9999998E-03  -2.4042109E-01
  1.0412197E+00   9.9999998E-03  -2.2039892E-01
  1.0411606E+00   9.9999998E-03  -2.0036919E-01
  1.0614562E+00   9.9999998E-03  -3.0043098E-01
  1.0614084E+00   9.9999998E-03  -2.8041470E-01
  1.0613427E+00   9.9999998E-03  -2.6039502E-01
  1.0612762E+00   9.9999998E-03  -2.4038239E-01
  1.0612117E+00   9.9999998E-03  -2.2036244E-01
  1.0611470E+00   9.9999998E-03  -2.0033641E-01
  1.0814974E+00   9.9999998E-03  -3.0039251E-01
  1.0814322E+00   9.9999998E-03  -2.8037745E-01
  1.0813509E+00   9.9999998E-03  -2.6035708E-01
  1.0812742E+00   9.9999998E-03  -2.4034384E-01
  1.0812045E+00   9.9999998E-03  -2.2032727E-01
  1.0811342E+00   9.9999998E-03  -2.0030296E-01
  1.1014372E+00   9.9999998E-03  -2.8034276E-01
  1.1013509E+00   9.9999998E-03  -2.6031956E-01
  1.1012716E+00   9.9999998E-03  -2.4030463E-01
  1.1011978E+00   9.9999998E-03  -2.2029097E-01
  1.1011233E+00   9.9999998E-03  -2.0027022E-01
  1.1214252E+00   9.9999998E-03  -2.8031239E-01
  1.1213475E+00   9.9999998E-03  -2.6028880E-01
  1.1212677E+00   9.9999998E-03  -2.4026839E-01
  1.1211923E+00   9.9999998E-03  -2.2025564E-01
  1.1211146E+00   9.9999998E-03  -2.0023786E-01
  1.1413405E+00   9.9999998E-03  -2.6026714E-01
  1.1412632E+00   9.9999998E-03  -2.4024202E-01
  1.1411892E+00   9.9999998E-03  -2.2022632E-01
  1.1411097E+00   9.9999998E-03  -2.0020966E-01
  1.1613231E+00   9.9999998E-03  -2.6025015E-01
  1.1612611E+00   9.9999998E-03  -2.4022801E-01
  1.1611881E+00   9.9999998E-03  -2.2020553E-01
  1.1611104E+00   9.9999998E-03  -2.0018871E-01
  1.1812505E+00   9.9999998E-03  -2.4022028E-01
  1.1811879E+00   9.9999998E-03  -2.2019666E-01
  1.1811157E+00   9.9999998E-03  -2.0017743E-01
  1.2011794E+00   9.9999998E-03  -2.2019391E-01
  1.2011222E+00   9.9999998E-03  -2.0017542E-01
  1.2211409E+00   9.9999998E-03  -2.2018164E-01
  1.2211134E+00   9.9999998E-03  -2.0017546E-01
 -1.0565279E-05   9.9999998E-03  -1.8000124E-01
 -1.0871799E-05   9.9999998E-03  -1.6000098E-01
 -1.1053747E-05   9.9999998E-03  -1.4000076E-01
 -1.1146944E-05   9.9999998E-03  -1.2000058E-01
 -1.1182265E-05   9.9999998E-03  -1.0000042E-01
 -1.1181998E-05   9.9999998E-03  -8.0000296E-02
 -1.1165050E-05   9.9999998E-03  -6.0000200E-02
 -1.1144218E-05   9.9999998E-03  -4.0000122E-02
 -1.1128351E-05   9.9999998E-03  -2.0000057E-02
  1.9985015E-02   9.9999998E-03  -1.8000166E-01
  1.9984618E-02   9.9999998E-03  -1.6000132E-01
  1.9984398E-02   9.9999998E-03  -1.4000104E-01
  1.9984294E-02   9.9999998E-03  -1.2000079E-01
  1.9984268E-02   9.9999998E-03  -1.0000058E-01
  1.9984284E-02   9.9999998E-03  -8.0000415E-02
  1.9984322E-02   9.9999998E-03  -6.0000282E-02
  1.9984361E-02   9.9999998E-03  -4.0000174E-02
  1.9984389E-02   9.9999998E-03  -2.0000083E-02
  3.9979376E-02   9.9999998E-03  -1.8000191E-01
  3.9978880E-02   9.9999998E-03  -1.6000155E-01
  3.9978616E-02   9.9999998E-03  -1.4000122E-01
  3.9978504E-02   9.9999998E-03  -1.2000094E-01
  3.9978497E-02   9.9999998E-03  -1.0000070E-01
  3.9978538E-02   9.9999998E-03  -8.0000505E-02
  3.9978601E-02   9.9999998E-03  -6.0000345E-02
  3.9978664E-02   9.9999998E-03  -4.0000215E-02
  3.9978705E-02   9.9999998E-03  -2.0000102E-02
  5.9972964E-02   9.9999998E-03  -1.8000203E-01
  5.9972379E-02   9.9999998E-03  -1.6000165E-01
  5.9972081E-02   9.9999998E-03  -1.4000131E-01
  5.9971977E-02   9.9999998E-03  -1.2000101E-01
  5.9971988E-02   9.9999998E-03  -1.0000076E-01
  5.9972066E-02   9.9999998E-03  -8.0000550E-02
  5.9972163E-02   9.9999998E-03  -6.0000379E-02
  5.9972253E-02   9.9999998E-03  -4.0000234E-02
  5.9972316E-02   9.9999998E-03  -2.0000113E-02
  7.9965957E-02   9.9999998E-03  -1.8000205E-01
  7.9965308E-02   9.9999998E-03  -1.6000168E-01
  7.9964995E-02   9.9999998E-03  -1.4000133E-01
  7.9964906E-02   9.9999998E-03  -1.2000103E-01
  7.9964958E-02   9.9999998E-03  -1.0000078E-01
  7.9965077E-02   9.9999998E-03  -8.0000564E-02
  7.9965219E-02   9.9999998E-03  -6.0000390E-02
  7.9965346E-02   9.9999998E-03  -4.0000241E-02
  7.9965428E-02   9.9999998E-03  -2.0000117E-02
  9.9958315E-02   9.9999998E-03  -1.8000200E-01
  9.9957623E-02   9.9999998E-03  -1.6000164E-01
  9.9957317E-02   9.9999998E-03  -1.4000131E-01
  9.9957272E-02   9.9999998E-03  -1.2000102E-01
  9.9957384E-02   9.9999998E-03  -1.0000077E-01
  9.9957556E-02   9.9999998E-03  -8.0000564E-02
  9.9957749E-02   9.9999998E-03  -6.0000390E-02
  9.9957913E-02   9.9999998E-03  -4.0000245E-02
  9.9958017E-02   9.9999998E-03  -2.0000119E-02
  1.1994983E-01   9.9999998E-03  -1.8000196E-01
  1.1994914E-01   9.9999998E-03  -1.6000162E-01
  1.1994888E-01   9.9999998E-03  -1.4000130E-01
  1.1994890E-01   9.9999998E-03  -1.2000102E-01
  1.1994908E-01   9.9999998E-03  -1.0000078E-01
  1.1994933E-01   9.9999998E-03  -8.0000579E-02
  1.1994958E-01   9.9999998E-03  -6.0000405E-02
  1.1994979E-01   9.9999998E-03  -4.0000256E-02
  1.1994993E-01   9.9999998E-03  -2.0000124E-02
  1.3994029E-01   9.9999998E-03  -1.8000199E-01
  1.3993962E-01   9.9999998E-03  -1.6000168E-01
  1.3993943E-01   9.9999998E-03  -1.4000137E-01
  1.3993955E-01   9.9999998E-03  -1.2000110E-01
  1.3993981E-01   9.9999998E-03  -1.0000086E-01
  1.3994016E-01   9.9999998E-03  -8.0000639E-02
  1.3994049E-01   9.9999998E-03  -6.0000457E-02
  1.3994075E-01   9.9999998E-03  -4.0000293E-02
  1.3994092E-01   9.9999998E-03  -2.0000143E-02
  1.5992947E-01   9.9999998E-03  -1.8000220E-01
  1.5992887E-01   9.9999998E-03  -1.6000190E-01
  1.5992878E-01   9.9999998E-03  -1.4000161E-01
  1.5992902E-01   9.9999998E-03  -1.2000132E-01
  1.5992941E-01   9.9999998E-03  -1.0000104E-01
  1.5992986E-01   9.9999998E-03  -8.0000803E-02
  1.5993027E-01   9.9999998E-03  -6.0000576E-02
  1.5993060E-01   9.9999998E-03  -4.0000375E-02
  1.5993083E-01   9.9999998E-03  -2.0000184E-02
  1.7991725E-01   9.9999998E-03  -1.8000273E-01
  1.7991675E-01   9.9999998E-03  -1.6000243E-01
  1.7991680E-01   9.9999998E-03  -1.4000210E-01
  1.7991717E-01   9.9999998E-03  -1.2000175E-01
  1.7991771E-01   9.9999998E-03  -1.0000141E-01
  1.7991827E-01   9.9999998E-03  -8.0001093E-02
  1.7991880E-01   9.9999998E-03  -6.0000800E-02
  1.7991921E-01   9.9999998E-03  -4.0000521E-02
  1.7991947E-01   9.9999998E-03  -2.0000257E-02
  1.9990347E-01   9.9999998E-03  -1.8000375E-01
  1.9990312E-01   9.9999998E-03  -1.6000336E-01
  1.9990332E-01   9.9999998E-03  -1.4000292E-01
  1.9990388E-01   9.9999998E-03  -1.2000246E-01
  1.9990456E-01   9.9999998E-03  -1.0000201E-01
  1.9990528E-01   9.9999998E-03  -8.0001563E-02
  1.9990592E-01   9.9999998E-03  -6.0001146E-02
  1.9990641E-01   9.9999998E-03  -4.0000752E-02
  1.9990674E-01   9.9999998E-03  -2.0000372E-02
  2.1988799E-01   9.9999998E-03  -1.8000530E-01
  2.1988779E-01   9.9999998E-03  -1.6000476E-01
  2.1988820E-01   9.9999998E-03  -1.4000417E-01
  2.1988893E-01   9.9999998E-03  -1.2000352E-01
  2.1988979E-01   9.9999998E-03  -1.0000287E-01
  2.1989067E-01   9.9999998E-03  -8.0002241E-02
  2.1989144E-01   9.9999998E-03  -6.0001649E-02
  2.1989205E-01   9.9999998E-03  -4.0001083E-02
  2.1989243E-01   9.9999998E-03  -2.0000536E-02
  2.3987056E-01   9.9999998E-03  -1.8000747E-01
  2.3987058E-01   9.9999998E-03  -1.6000670E-01
  2.3987119E-01   9.9999998E-03  -1.4000584E-01
  2.3987213E-01   9.9999998E-03  -1.2000492E-01
  2.3987320E-01   9.9999998E-03  -1.0000402E-01
  2.3987426E-01   9.9999998E-03  -8.0003142E-02
  2.3987518E-01   9.9999998E-03  -6.0002312E-02
  2.3987590E-01   9.9999998E-03  -4.0001519E-02
  2.3987634E-01   9.9999998E-03  -2.0000752E-02
  2.5985098E-01   9.9999998E-03  -1.8001041E-01
  2.5985122E-01   9.9999998E-03  -1.6000919E-01
  2.5985208E-01   9.9999998E-03  -1.4000796E-01
  2.5985324E-01   9.9999998E-03  -1.2000670E-01
  2.5985456E-01   9.9999998E-03  -1.0000546E-01
  2.5985581E-01   9.9999998E-03  -8.0004275E-02
  2.5985691E-01   9.9999998E-03  -6.0003147E-02
  2.5985774E-01   9.9999998E-03  -4.0002067E-02
  2.5985825E-01   9.9999998E-03  -2.0001026E-02
  2.7982894E-01   9.9999998E-03  -1.8001406E-01
  2.7982947E-01   9.9999998E-03  -1.6001225E-01
  2.7983060E-01   9.9999998E-03  -1.4001052E-01
  2.7983204E-01   9.9999998E-03  -1.2000882E-01
  2.7983359E-01   9.9999998E-03  -1.0000719E-01
  2.7983508E-01   9.9999998E-03  -8.0005631E-02
  2.7983636E-01   9.9999998E-03  -6.0004145E-02
  2.7983734E-01   9.9999998E-03  -4.0002726E-02
  2.7983794E-01   9.9999998E-03  -2.0001352E-02
  2.9980418E-01   9.9999998E-03  -1.8001828E-01
  2.9980507E-01   9.9999998E-03  -1.6001579E-01
  2.9980651E-01   9.9999998E-03  -1.4001347E-01
  2.9980826E-01   9.9999998E-03  -1.2001125E-01
  2.9981008E-01   9.9999998E-03  -1.0000915E-01
  2.9981181E-01   9.9999998E-03  -8.0007166E-02
  2.9981327E-01   9.9999998E-03  -6.0005277E-02
  2.9981440E-01   9.9999998E-03  -4.0003475E-02
  2.9981509E-01   9.9999998E-03  -2.0001722E-02
  3.1977645E-01   9.9999998E-03  -1.8002287E-01
  3.1977770E-01   9.9999998E-03  -1.6001967E-01
  3.1977952E-01   9.9999998E-03  -1.4001670E-01
  3.1978160E-01   9.9999998E-03  -1.2001393E-01
  3.1978375E-01   9.9999998E-03  -1.0001132E-01
  3.1978571E-01   9.9999998E-03  -8.0008857E-02
  3.1978741E-01   9.9999998E-03  -6.0006533E-02
  3.1978866E-01   9.9999998E-03  -4.0004302E-02
  3.1978947E-01   9.9999998E-03  -2.0002136E-02
  3.3974540E-01   9.9999998E-03  -1.8002765E-01
  3.3974707E-01   9.9999998E-03  -1.6002375E-01
  3.3974931E-01   9.9999998E-03  -1.4002015E-01
  3.3975178E-01   9.9999998E-03  -1.2001679E-01
  3.3975425E-01   9.9999998E-03  -1.0001364E-01
  3.3975649E-01   9.9999998E-03  -8.0010690E-02
  3.3975840E-01   9.9999998E-03  -6.0007885E-02
  3.3975983E-01   9.9999998E-03  -4.0005196E-02
  3.3976072E-01   9.9999998E-03  -2.0002581E-02
  3.5971078E-01   9.9999998E-03  -1.8003249E-01
  3.5971290E-01   9.9999998E-03  -1.6002794E-01
  3.5971555E-01   9.9999998E-03  -1.4002371E-01
  3.5971844E-01   9.9999998E-03  -1.2001976E-01
  3.5972124E-01   9.9999998E-03  -1.0001607E-01
  3.5972381E-01   9.9999998E-03  -8.0012597E-02
  3.5972595E-01   9.9999998E-03  -6.0009297E-02
  3.5972753E-01   9.9999998E-03  -4.0006123E-02
  3.5972852E-01   9.9999998E-03  -2.0003041E-02
  3.7967226E-01   9.9999998E-03  -1.8003741E-01
  3.7967482E-01   9.9999998E-03  -1.6003220E-01
  3.7967795E-01   9.9999998E-03  -1.4002734E-01
  3.7968126E-01   9.9999998E-03  -1.2002279E-01
  3.7968445E-01   9.9999998E-03  -1.0001853E-01
  3.7968731E-01   9.9999998E-03  -8.0014527E-02
  3.7968969E-01   9.9999998E-03  -6.0010720E-02
  3.7969145E-01   9.9999998E-03  -4.0007062E-02
  3.7969255E-01   9.9999998E-03  -2.0003507E-02
  3.9962944E-01   9.9999998E-03  -1.8004239E-01
  3.9963251E-01   9.9999998E-03  -1.6003650E-01
  3.9963612E-01   9.9999998E-03  -1.4003100E-01
  3.9963990E-01   9.9999998E-03  -1.2002583E-01
  3.9964348E-01   9.9999998E-03  -1.0002100E-01
  3.9964667E-01   9.9999998E-03  -8.0016457E-02
  3.9964929E-01   9.9999998E-03  -6.0012147E-02
  3.9965126E-01   9.9999998E-03  -4.0008005E-02
  3.9965245E-01   9.9999998E-03  -2.0003974E-02
  4.1958198E-01   9.9999998E-03  -1.8004748E-01
  4.1958559E-01   9.9999998E-03  -1.6004089E-01
  4.1958976E-01   9.9999998E-03  -1.4003471E-01
  4.1959405E-01   9.9999998E-03  -1.2002891E-01
  4.1959807E-01   9.9999998E-03  -1.0002350E-01
  4.1960162E-01   9.9999998E-03  -8.0018423E-02
  4.1960451E-01   9.9999998E-03  -6.0013607E-02
  4.1960666E-01   9.9999998E-03  -4.0008973E-02
  4.1960797E-01   9.9999998E-03  -2.0004459E-02
  4.3952945E-01   9.9999998E-03  -1.8005282E-01
  4.3953371E-01   9.9999998E-03  -1.6004547E-01
  4.3953851E-01   9.9999998E-03  -1.4003861E-01
  4.3954337E-01   9.9999998E-03  -1.2003218E-01
  4.3954787E-01   9.9999998E-03  -1.0002618E-01
  4.3955177E-01   9.9999998E-03  -8.0020539E-02
  4.3955496E-01   9.9999998E-03  -6.0015190E-02
  4.3955731E-01   9.9999998E-03  -4.0010028E-02
  4.3955877E-01   9.9999998E-03  -2.0004986E-02
  4.5947137E-01   9.9999998E-03  -1.8005860E-01
  4.5947641E-01   9.9999998E-03  -1.6005056E-01
  4.5948195E-01   9.9999998E-03  -1.4004299E-01
  4.5948744E-01   9.9999998E-03  -1.2003591E-01
  4.5949247E-01   9.9999998E-03  -1.0002927E-01
  4.5949683E-01   9.9999998E-03  -8.0023006E-02
  4.5950034E-01   9.9999998E-03  -6.0017046E-02
  4.5950291E-01   9.9999998E-03  -4.0011276E-02
  4.5950449E-01   9.9999998E-03  -2.0005612E-02
  4.7940722E-01   9.9999998E-03  -1.8006530E-01
  4.7941315E-01   9.9999998E-03  -1.6005665E-01
  4.7941956E-01   9.9999998E-03  -1.4004840E-01
  4.7942579E-01   9.9999998E-03  -1.2004056E-01
  4.7943142E-01   9.9999998E-03  -1.0003315E-01
  4.7943625E-01   9.9999998E-03  -8.0026135E-02
  4.7944012E-01   9.9999998E-03  -6.0019407E-02
  4.7944298E-01   9.9999998E-03  -4.0012863E-02
  4.7944471E-01   9.9999998E-03  -2.0006413E-02
  4.9933648E-01   9.9999998E-03  -1.8007372E-01
  4.9934345E-01   9.9999998E-03  -1.6006455E-01
  4.9935085E-01   9.9999998E-03  -1.4005554E-01
  4.9935791E-01   9.9999998E-03  -1.2004677E-01
  4.9936423E-01   9.9999998E-03  -1.0003836E-01
  4.9936959E-01   9.9999998E-03  -8.0030322E-02
  4.9937388E-01   9.9999998E-03  -6.0022566E-02
  4.9937701E-01   9.9999998E-03  -4.0014986E-02
  4.9937889E-01   9.9999998E-03  -2.0007480E-02
  5.1925886E-01   9.9999998E-03  -1.8008496E-01
  5.1926702E-01   9.9999998E-03  -1.6007525E-01
  5.1927543E-01   9.9999998E-03  -1.4006530E-01
  5.1928341E-01   9.9999998E-03  -1.2005530E-01
  5.1929045E-01   9.9999998E-03  -1.0004552E-01
  5.1929641E-01   9.9999998E-03  -8.0036044E-02
  5.1930118E-01   9.9999998E-03  -6.0026858E-02
  5.1930463E-01   9.9999998E-03  -4.0017851E-02
  5.1930672E-01   9.9999998E-03  -2.0008918E-02
  5.3917480E-01   9.9999998E-03  -1.8010031E-01
  5.3918403E-01   9.9999998E-03  -1.6008979E-01
  5.3919345E-01   9.9999998E-03  -1.4007856E-01
  5.3920233E-01   9.9999998E-03  -1.2006687E-01
  5.3921020E-01   9.9999998E-03  -1.0005518E-01
  5.3921682E-01   9.9999998E-03  -8.0043748E-02
  5.3922206E-01   9.9999998E-03  -6.0032617E-02
  5.3922588E-01   9.9999998E-03  -4.0021677E-02
  5.3922820E-01   9.9999998E-03  -2.0010822E-02
  5.5908591E-01   9.9999998E-03  -1.8012106E-01
  5.5909616E-01   9.9999998E-03  -1.6010924E-01
  5.5910641E-01   9.9999998E-03  -1.4009608E-01
  5.5911613E-01   9.9999998E-03  -1.2008212E-01
  5.5912471E-01   9.9999998E-03  -1.0006791E-01
  5.5913198E-01   9.9999998E-03  -8.0053903E-02
  5.5913776E-01   9.9999998E-03  -6.0040187E-02
  5.5914193E-01   9.9999998E-03  -4.0026698E-02
  5.5914450E-01   9.9999998E-03  -2.0013327E-02
  5.7899594E-01   9.9999998E-03  -1.8014795E-01
  5.7900679E-01   9.9999998E-03  -1.6013381E-01
  5.7901764E-01   9.9999998E-03  -1.4011790E-01
  5.7902795E-01   9.9999998E-03  -1.2010095E-01
  5.7903725E-01   9.9999998E-03  -1.0008355E-01
  5.7904512E-01   9.9999998E-03  -8.0066323E-02
  5.7905138E-01   9.9999998E-03  -6.0049444E-02
  5.7905602E-01   9.9999998E-03  -4.0032856E-02
  5.7905883E-01   9.9999998E-03  -2.0016409E-02
  5.9890974E-01   9.9999998E-03  -1.8017951E-01
  5.9892130E-01   9.9999998E-03  -1.6016285E-01
  5.9893280E-01   9.9999998E-03  -1.4014398E-01
  5.9894365E-01   9.9999998E-03  -1.2012345E-01
  5.9895337E-01   9.9999998E-03  -1.0010223E-01
  5.9896171E-01   9.9999998E-03  -8.0081150E-02
  5.9896851E-01   9.9999998E-03  -6.0060509E-02
  5.9897357E-01   9.9999998E-03  -4.0040240E-02
  5.9897667E-01   9.9999998E-03  -2.0020114E-02
  6.1883247E-01   9.9999998E-03  -1.8021458E-01
  6.1884511E-01   9.9999998E-03  -1.6019528E-01
  6.1885715E-01   9.9999998E-03  -1.4017308E-01
  6.1886829E-01   9.9999998E-03  -1.2014869E-01
  6.1887842E-01   9.9999998E-03  -1.0012346E-01
  6.1888719E-01   9.9999998E-03  -8.0098271E-02
  6.1889440E-01   9.9999998E-03  -6.0073406E-02
  6.1889988E-01   9.9999998E-03  -4.0048879E-02
  6.1890322E-01   9.9999998E-03  -2.0024478E-02
  6.3876826E-01   9.9999998E-03  -1.8025284E-01
  6.3878167E-01   9.9999998E-03  -1.6022971E-01
  6.3879389E-01   9.9999998E-03  -1.4020354E-01
  6.3880515E-01   9.9999998E-03  -1.2017509E-01
  6.3881558E-01   9.9999998E-03  -1.0014550E-01
  6.3882482E-01   9.9999998E-03  -8.0115855E-02
  6.3883251E-01   9.9999998E-03  -6.0086634E-02
  6.3883829E-01   9.9999998E-03  -4.0057775E-02
  6.3884187E-01   9.9999998E-03  -2.0028934E-02
  6.5872246E-01   9.9999998E-03  -1.8029857E-01
  6.5873575E-01   9.9999998E-03  -1.6026902E-01
  6.5874767E-01   9.9999998E-03  -1.4023791E-01
  6.5875864E-01   9.9999998E-03  -1.2020412E-01
  6.5876877E-01   9.9999998E-03  -1.0016934E-01
  6.5877807E-01   9.9999998E-03  -8.0134980E-02
  6.5878594E-01   9.9999998E-03  -6.0101327E-02
  6.5879190E-01   9.9999998E-03  -4.0067803E-02
  6.5879554E-01   9.9999998E-03  -2.0033972E-02
  6.7870659E-01   9.9999998E-03  -1.8036716E-01
  6.7871869E-01   9.9999998E-03  -1.6032781E-01
  6.7872918E-01   9.9999998E-03  -1.4028928E-01
  6.7873865E-01   9.9999998E-03  -1.2024876E-01
  6.7874771E-01   9.9999998E-03  -1.0020754E-01
  6.7875612E-01   9.9999998E-03  -8.0166966E-02
  6.7876321E-01   9.9999998E-03  -6.0126700E-02
  6.7876852E-01   9.9999998E-03  -4.0085871E-02
  6.7877167E-01   9.9999998E-03  -2.0043548E-02
  6.9874531E-01   9.9999998E-03  -1.8047410E-01
  6.9875300E-01   9.9999998E-03  -1.6042109E-01
  6.9875824E-01   9.9999998E-03  -1.4036913E-01
  6.9876230E-01   9.9999998E-03  -1.2031627E-01
  6.9876760E-01   9.9999998E-03  -1.0026442E-01
  6.9877338E-01   9.9999998E-03  -8.0213934E-02
  6.9877851E-01   9.9999998E-03  -6.0163207E-02
  6.9878227E-01   9.9999998E-03  -4.0110964E-02
  6.9878441E-01   9.9999998E-03  -2.0056307E-02
  7.1891475E-01   9.9999998E-03  -1.8061671E-01
  7.1891969E-01   9.9999998E-03  -1.6055584E-01
  7.1892345E-01   9.9999998E-03  -1.4048941E-01
  7.1892703E-01   9.9999998E-03  -1.2041777E-01
  7.1893233E-01   9.9999998E-03  -1.0034670E-01
  7.1893871E-01   9.9999998E-03  -8.0278277E-02
  7.1894497E-01   9.9999998E-03  -6.0211409E-02
  7.1895027E-01   9.9999998E-03  -4.0143482E-02
  7.1895379E-01   9.9999998E-03  -2.0072846E-02
  7.3929745E-01   9.9999998E-03  -1.8063995E-01
  7.3929751E-01   9.9999998E-03  -1.6058038E-01
  7.3929840E-01   9.9999998E-03  -1.4051282E-01
  7.3930001E-01   9.9999998E-03  -1.2043874E-01
  7.3930228E-01   9.9999998E-03  -1.0036575E-01
  7.3930514E-01   9.9999998E-03  -8.0295339E-02
  7.3930818E-01   9.9999998E-03  -6.0225580E-02
  7.3931098E-01   9.9999998E-03  -4.0153727E-02
  7.3931301E-01   9.9999998E-03  -2.0078246E-02
  7.5960207E-01   9.9999998E-03  -1.8063377E-01
  7.5959772E-01   9.9999998E-03  -1.6057941E-01
  7.5959432E-01   9.9999998E-03  -1.4051567E-01
  7.5959176E-01   9.9999998E-03  -1.2044422E-01
  7.5959003E-01   9.9999998E-03  -1.0037273E-01
  7.5958920E-01   9.9999998E-03  -8.0302782E-02
  7.5958902E-01   9.9999998E-03  -6.0232446E-02
  7.5958937E-01   9.9999998E-03  -4.0159017E-02
  7.5958979E-01   9.9999998E-03  -2.0081125E-02
  7.7982312E-01   9.9999998E-03  -1.8062252E-01
  7.7981812E-01   9.9999998E-03  -1.6057210E-01
  7.7981347E-01   9.9999998E-03  -1.4051150E-01
  7.7980924E-01   9.9999998E-03  -1.2044241E-01
  7.7980548E-01   9.9999998E-03  -1.0037261E-01
  7.7980256E-01   9.9999998E-03  -8.0303766E-02
  7.7980047E-01   9.9999998E-03  -6.0233969E-02
  7.7979916E-01   9.9999998E-03  -4.0160481E-02
  7.7979851E-01   9.9999998E-03  -2.0082010E-02
  8.0000424E-01   9.9999998E-03  -1.8061231E-01
  7.9999983E-01   9.9999998E-03  -1.6056354E-01
  7.9999512E-01   9.9999998E-03  -1.4050448E-01
  7.9999042E-01   9.9999998E-03  -1.2043671E-01
  7.9998600E-01   9.9999998E-03  -1.0036813E-01
  7.9998219E-01   9.9999998E-03  -8.0300450E-02
  7.9997909E-01   9.9999998E-03  -6.0231734E-02
  7.9997694E-01   9.9999998E-03  -4.0159155E-02
  7.9997563E-01   9.9999998E-03  -2.0081406E-02
  8.2018334E-01   9.9999998E-03  -1.8060473E-01
  8.2017839E-01   9.9999998E-03  -1.6055560E-01
  8.2017320E-01   9.9999998E-03  -1.4049661E-01
  8.2016808E-01   9.9999998E-03  -1.2042917E-01
  8.2016325E-01   9.9999998E-03  -1.0036124E-01
  8.2015902E-01   9.9999998E-03  -8.0294587E-02
  8.2015550E-01   9.9999998E-03  -6.0227159E-02
  8.2015294E-01   9.9999998E-03  -4.0156040E-02
  8.2015139E-01   9.9999998E-03  -2.0079833E-02
  8.4037602E-01   9.9999998E-03  -1.8059768E-01
  8.4036845E-01   9.9999998E-03  -1.6054747E-01
  8.4036124E-01   9.9999998E-03  -1.4048788E-01
  8.4035486E-01   9.9999998E-03  -1.2042033E-01
  8.4034926E-01   9.9999998E-03  -1.0035285E-01
  8.4034455E-01   9.9999998E-03  -8.0287181E-02
  8.4034079E-01   9.9999998E-03  -6.0221191E-02
  8.4033799E-01   9.9999998E-03  -4.0151849E-02
  8.4033626E-01   9.9999998E-03  -2.0077668E-02
  8.6057717E-01   9.9999998E-03  -1.8058784E-01
  8.6056495E-01   9.9999998E-03  -1.6053684E-01
  8.6055434E-01   9.9999998E-03  -1.4047688E-01
  8.6054564E-01   9.9999998E-03  -1.2040955E-01
  8.6053866E-01   9.9999998E-03  -1.0034284E-01
  8.6053318E-01   9.9999998E-03  -8.0278434E-02
  8.6052889E-01   9.9999998E-03  -6.0214143E-02
  8.6052585E-01   9.9999998E-03  -4.0146880E-02
  8.6052394E-01   9.9999998E-03  -2.0075092E-02
  8.8077229E-01   9.9999998E-03  -1.8057230E-01
  8.8075459E-01   9.9999998E-03  -1.6052145E-01
  8.8073981E-01   9.9999998E-03  -1.4046200E-01
  8.8072819E-01   9.9999998E-03  -1.2039575E-01
  8.8071930E-01   9.9999998E-03  -1.0033055E-01
  8.8071257E-01   9.9999998E-03  -8.0268003E-02
  8.8070756E-01   9.9999998E-03  -6.0205884E-02
  8.8070399E-01   9.9999998E-03  -4.0141113E-02
  8.8070184E-01   9.9999998E-03  -2.0072114E-02
  9.0094769E-01   9.9999998E-03  -1.8054953E-01
  9.0092474E-01   9.9999998E-03  -1.6049992E-01
  9.0090579E-01   9.9999998E-03  -1.4044210E-01
  9.0089107E-01   9.9999998E-03  -1.2037806E-01
  9.0087986E-01   9.9999998E-03  -1.0031534E-01
  9.0087152E-01   9.9999998E-03  -8.0255419E-02
  9.0086538E-01   9.9999998E-03  -6.0196105E-02
  9.0086102E-01   9.9999998E-03  -4.0134374E-02
  9.0085840E-01   9.9999998E-03  -2.0068660E-02
  9.2108172E-01   9.9999998E-03  -1.8051998E-01
  9.2104965E-01   9.9999998E-03  -1.6047230E-01
  9.2102343E-01   9.9999998E-03  -1.4041705E-01
  9.2100269E-01   9.9999998E-03  -1.2035625E-01
  9.2098635E-01   9.9999998E-03  -1.0029704E-01
  9.2097360E-01   9.9999998E-03  -8.0240682E-02
  9.2096406E-01   9.9999998E-03  -6.0184933E-02
  9.2095733E-01   9.9999998E-03  -4.0126804E-02
  9.2095339E-01   9.9999998E-03  -2.0064821E-02
  9.4113469E-01   9.9999998E-03  -1.8048726E-01
  9.4109750E-01   9.9999998E-03  -1.6044113E-01
  9.4106662E-01   9.9999998E-03  -1.4038864E-01
  9.4104147E-01   9.9999998E-03  -1.2033170E-01
  9.4102120E-01   9.9999998E-03  -1.0027657E-01
  9.4100517E-01   9.9999998E-03  -8.0224194E-02
  9.4099295E-01   9.9999998E-03  -6.0172316E-02
  9.4098437E-01   9.9999998E-03  -4.0118165E-02
  9.4097930E-01   9.9999998E-03  -2.0060387E-02
  9.6114826E-01   9.9999998E-03  -1.8045460E-01
  9.6110886E-01   9.9999998E-03  -1.6040993E-01
  9.6107578E-01   9.9999998E-03  -1.4036013E-01
  9.6104848E-01   9.9999998E-03  -1.2030700E-01
  9.6102619E-01   9.9999998E-03  -1.0025574E-01
  9.6100843E-01   9.9999998E-03  -8.0207035E-02
  9.6099490E-01   9.9999998E-03  -6.0158905E-02
  9.6098542E-01   9.9999998E-03  -4.0108871E-02
  9.6097988E-01   9.9999998E-03  -2.0055667E-02
  9.8114568E-01   9.9999998E-03  -1.8042365E-01
  9.8110491E-01   9.9999998E-03  -1.6038115E-01
  9.8107052E-01   9.9999998E-03  -1.4033391E-01
  9.8104209E-01   9.9999998E-03  -1.2028408E-01
  9.8101884E-01   9.9999998E-03  -1.0023617E-01
  9.8100036E-01   9.9999998E-03  -8.0190822E-02
  9.8098624E-01   9.9999998E-03  -6.0146164E-02
  9.8097622E-01   9.9999998E-03  -4.0099893E-02
  9.8097032E-01   9.9999998E-03  -2.0050922E-02
  1.0011363E+00   9.9999998E-03  -1.8039341E-01
  1.0010942E+00   9.9999998E-03  -1.6035452E-01
  1.0010585E+00   9.9999998E-03  -1.4031067E-01
  1.0010290E+00   9.9999998E-03  -1.2026453E-01
  1.0010052E+00   9.9999998E-03  -1.0021972E-01
  1.0009861E+00   9.9999998E-03  -8.0177173E-02
  1.0009714E+00   9.9999998E-03  -6.0135212E-02
  1.0009608E+00   9.9999998E-03  -4.0092051E-02
  1.0009545E+00   9.9999998E-03  -2.0046813E-02
  1.0211232E+00   9.9999998E-03  -1.8036561E-01
  1.0210797E+00   9.9999998E-03  -1.6032889E-01
  1.0210425E+00   9.9999998E-03  -1.4028835E-01
  1.0210121E+00   9.9999998E-03  -1.2024561E-01
  1.0209876E+00   9.9999998E-03  -1.0020354E-01
  1.0209681E+00   9.9999998E-03  -8.0163620E-02
  1.0209529E+00   9.9999998E-03  -6.0124572E-02
  1.0209420E+00   9.9999998E-03  -4.0084641E-02
  1.0209353E+00   9.9999998E-03  -2.0042948E-02
  1.0411075E+00   9.9999998E-03  -1.8033825E-01
  1.0410614E+00   9.9999998E-03  -1.6030434E-01
  1.0410229E+00   9.9999998E-03  -1.4026788E-01
  1.0409912E+00   9.9999998E-03  -1.2022834E-01
  1.0409659E+00   9.9999998E-03  -1.0018916E-01
  1.0409459E+00   9.9999998E-03  -8.0151364E-02
  1.0409303E+00   9.9999998E-03  -6.0114559E-02
  1.0409188E+00   9.9999998E-03  -4.0077340E-02
  1.0409119E+00   9.9999998E-03  -2.0039108E-02
  1.0610901E+00   9.9999998E-03  -1.8030971E-01
  1.0610410E+00   9.9999998E-03  -1.6027968E-01
  1.0610003E+00   9.9999998E-03  -1.4024720E-01
  1.0609672E+00   9.9999998E-03  -1.2021212E-01
  1.0609407E+00   9.9999998E-03  -1.0017592E-01
  1.0609199E+00   9.9999998E-03  -8.0140322E-02
  1.0609038E+00   9.9999998E-03  -6.0105391E-02
  1.0608921E+00   9.9999998E-03  -4.0070627E-02
  1.0608848E+00   9.9999998E-03  -2.0035461E-02
  1.0810717E+00   9.9999998E-03  -1.8027925E-01
  1.0810196E+00   9.9999998E-03  -1.6025509E-01
  1.0809760E+00   9.9999998E-03  -1.4022650E-01
  1.0809412E+00   9.9999998E-03  -1.2019602E-01
  1.0809133E+00   9.9999998E-03  -1.0016332E-01
  1.0808914E+00   9.9999998E-03  -8.0130219E-02
  1.0808747E+00   9.9999998E-03  -6.0097322E-02
  1.0808625E+00   9.9999998E-03  -4.0064778E-02
  1.0808553E+00   9.9999998E-03  -2.0032413E-02
  1.1010550E+00   9.9999998E-03  -1.8024836E-01
  1.1009983E+00   9.9999998E-03  -1.6022755E-01
  1.1009521E+00   9.9999998E-03  -1.4020544E-01
  1.1009145E+00   9.9999998E-03  -1.2017927E-01
  1.1008850E+00   9.9999998E-03  -1.0015098E-01
  1.1008618E+00   9.9999998E-03  -8.0120526E-02
  1.1008443E+00   9.9999998E-03  -6.0089909E-02
  1.1008317E+00   9.9999998E-03  -4.0059496E-02
  1.1008244E+00   9.9999998E-03  -2.0029608E-02
  1.1210415E+00   9.9999998E-03  -1.8021789E-01
  1.1209793E+00   9.9999998E-03  -1.6019909E-01
  1.1209294E+00   9.9999998E-03  -1.4018135E-01
  1.1208893E+00   9.9999998E-03  -1.2016121E-01
  1.1208574E+00   9.9999998E-03  -1.0013729E-01
  1.1208328E+00   9.9999998E-03  -8.0110893E-02
  1.1208142E+00   9.9999998E-03  -6.0082749E-02
  1.1208012E+00   9.9999998E-03  -4.0054742E-02
  1.1207936E+00   9.9999998E-03  -2.0027209E-02
  1.1410321E+00   9.9999998E-03  -1.8018982E-01
  1.1409647E+00   9.9999998E-03  -1.6017170E-01
  1.1409098E+00   9.9999998E-03  -1.4015576E-01
  1.1408664E+00   9.9999998E-03  -1.2014031E-01
  1.1408321E+00   9.9999998E-03  -1.0012195E-01
  1.1408055E+00   9.9999998E-03  -8.0099702E-02
  1.1407859E+00   9.9999998E-03  -6.0075302E-02
  1.1407723E+00   9.9999998E-03  -4.0049974E-02
  1.1407644E+00   9.9999998E-03  -2.0024927E-02
  1.1610284E+00   9.9999998E-03  -1.8016763E-01
  1.1609554E+00   9.9999998E-03  -1.6014792E-01
  1.1608952E+00   9.9999998E-03  -1.4013177E-01
  1.1608473E+00   9.9999998E-03  -1.2011776E-01
  1.1608101E+00   9.9999998E-03  -1.0010375E-01
  1.1607815E+00   9.9999998E-03  -8.0086805E-02
  1.1607603E+00   9.9999998E-03  -6.0066365E-02
  1.1607460E+00   9.9999998E-03  -4.0044580E-02
  1.1607378E+00   9.9999998E-03  -2.0022389E-02
  1.1810349E+00   9.9999998E-03  -1.8015586E-01
  1.1809542E+00   9.9999998E-03  -1.6013214E-01
  1.1808866E+00   9.9999998E-03  -1.4011261E-01
  1.1808336E+00   9.9999998E-03  -1.2009754E-01
  1.1807925E+00   9.9999998E-03  -1.0008459E-01
  1.1807612E+00   9.9999998E-03  -8.0071442E-02
  1.1807386E+00   9.9999998E-03  -6.0055938E-02
  1.1807233E+00   9.9999998E-03  -4.0038127E-02
  1.1807146E+00   9.9999998E-03  -2.0019228E-02
  1.2010477E+00   9.9999998E-03  -1.8015255E-01
  1.2009674E+00   9.9999998E-03  -1.6012934E-01
  1.2008892E+00   9.9999998E-03  -1.4010429E-01
  1.2008270E+00   9.9999998E-03  -1.2008388E-01
  1.2007806E+00   9.9999998E-03  -1.0006884E-01
  1.2007462E+00   9.9999998E-03  -8.0056481E-02
  1.2007213E+00   9.9999998E-03  -6.0044348E-02
  1.2007048E+00   9.9999998E-03  -4.0030710E-02
  1.2006955E+00   9.9999998E-03  -2.0015649E-02
  1.2210531E+00   9.9999998E-03  -1.8015361E-01
  1.2209840E+00   9.9999998E-03  -1.6013180E-01
  1.2209088E+00   9.9999998E-03  -1.4010951E-01
  1.2208364E+00   9.9999998E-03  -1.2008476E-01
  1.2207788E+00   9.9999998E-03  -1.0006307E-01
  1.2207381E+00   9.9999998E-03  -8.0046967E-02
  1.2207099E+00   9.9999998E-03  -6.0034767E-02
  1.2206914E+00   9.9999998E-03  -4.0024035E-02
  1.2206810E+00   9.9999998E-03  -2.0012408E-02
  1.2410339E+00   9.9999998E-03  -1.8014988E-01
  1.2409823E+00   9.9999998E-03  -1.6013135E-01
  1.2409240E+00   9.9999998E-03  -1.4011435E-01
  1.2408608E+00   9.9999998E-03  -1.2009488E-01
  1.2407991E+00   9.9999998E-03  -1.0007358E-01
  1.2407471E+00   9.9999998E-03  -8.0052115E-02
  1.2407103E+00   9.9999998E-03  -6.0034480E-02
  1.2406869E+00   9.9999998E-03  -4.0021546E-02
  1.2406741E+00   9.9999998E-03  -2.0010883E-02
  1.2609527E+00   9.9999998E-03  -1.6012479E-01
  1.2609121E+00   9.9999998E-03  -1.4011110E-01
  1.2608644E+00   9.9999998E-03  -1.2009550E-01
  1.2608176E+00   9.9999998E-03  -1.0008126E-01
  1.2607733E+00   9.9999998E-03  -8.0063634E-02
  1.2607368E+00   9.9999998E-03  -6.0045768E-02
  1.2607095E+00   9.9999998E-03  -4.0028393E-02
  1.2606934E+00   9.9999998E-03  -2.0013466E-02
  1.2808386E+00   9.9999998E-03  -1.2008952E-01
  1.2808044E+00   9.9999998E-03  -1.0007802E-01
  1.2807697E+00   9.9999998E-03  -8.0062345E-02
  1.2807426E+00   9.9999998E-03  -6.0046535E-02
  1.2807224E+00   9.9999998E-03  -4.0029645E-02
  1.2807101E+00   9.9999998E-03  -2.0013791E-02
  1.3007411E+00   9.9999998E-03  -8.0057628E-02
  1.3007185E+00   9.9999998E-03  -6.0040932E-02
  1.3007016E+00   9.9999998E-03  -4.0025264E-02
  1.3006915E+00   9.9999998E-03  -2.0011727E-02
 -1.1122535E-05   9.9999998E-03  -2.2502237E-14
 -1.1128355E-05   9.9999998E-03   2.0000057E-02
 -1.1144215E-05   9.9999998E-03   4.0000122E-02
 -1.1165048E-05   9.9999998E-03   6.0000200E-02
 -1.1181998E-05   9.9999998E-03   8.0000296E-02
 -1.1182270E-05   9.9999998E-03   1.0000042E-01
 -1.1146944E-05   9.9999998E-03   1.2000058E-01
 -1.1053748E-05   9.9999998E-03   1.4000076E-01
  1.9984398E-02   9.9999998E-03  -4.4249793E-13
  1.9984389E-02   9.9999998E-03   2.0000083E-02
  1.9984361E-02   9.9999998E-03   4.0000174E-02
  1.9984322E-02   9.9999998E-03   6.0000282E-02
  1.9984284E-02   9.9999998E-03   8.0000415E-02
  1.9984268E-02   9.9999998E-03   1.0000058E-01
  1.9984294E-02   9.9999998E-03   1.2000079E-01
  1.9984398E-02   9.9999998E-03   1.4000104E-01
  3.9978724E-02   9.9999998E-03  -1.6697522E-14
  3.9978705E-02   9.9999998E-03   2.0000102E-02
  3.9978664E-02   9.9999998E-03   4.0000215E-02
  3.9978601E-02   9.9999998E-03   6.0000345E-02
  3.9978538E-02   9.9999998E-03   8.0000505E-02
  3.9978497E-02   9.9999998E-03   1.0000070E-01
  3.9978504E-02   9.9999998E-03   1.2000094E-01
  3.9978616E-02   9.9999998E-03   1.4000122E-01
  5.9972338E-02   9.9999998E-03  -1.1177921E-12
  5.9972316E-02   9.9999998E-03   2.0000113E-02
  5.9972253E-02   9.9999998E-03   4.0000234E-02
  5.9972163E-02   9.9999998E-03   6.0000379E-02
  5.9972066E-02   9.9999998E-03   8.0000550E-02
  5.9971988E-02   9.9999998E-03   1.0000076E-01
  5.9971977E-02   9.9999998E-03   1.2000101E-01
  5.9972081E-02   9.9999998E-03   1.4000131E-01
  7.9965457E-02   9.9999998E-03  -1.0706336E-12
  7.9965428E-02   9.9999998E-03   2.0000117E-02
  7.9965346E-02   9.9999998E-03   4.0000241E-02
  7.9965219E-02   9.9999998E-03   6.0000390E-02
  7.9965077E-02   9.9999998E-03   8.0000564E-02
  7.9964958E-02   9.9999998E-03   1.0000078E-01
  7.9964906E-02   9.9999998E-03   1.2000103E-01
  7.9964995E-02   9.9999998E-03   1.4000133E-01
  9.9958062E-02   9.9999998E-03  -3.0777301E-13
  9.9958017E-02   9.9999998E-03   2.0000119E-02
  9.9957913E-02   9.9999998E-03   4.0000245E-02
  9.9957749E-02   9.9999998E-03   6.0000390E-02
  9.9957556E-02   9.9999998E-03   8.0000564E-02
  9.9957384E-02   9.9999998E-03   1.0000077E-01
  9.9957272E-02   9.9999998E-03   1.2000102E-01
  9.9957317E-02   9.9999998E-03   1.4000131E-01
  1.1994997E-01   9.9999998E-03  -4.6505592E-14
  1.1994993E-01   9.9999998E-03   2.0000124E-02
  1.1994979E-01   9.9999998E-03   4.0000256E-02
  1.1994958E-01   9.9999998E-03   6.0000405E-02
  1.1994933E-01   9.9999998E-03   8.0000579E-02
  1.1994908E-01   9.9999998E-03   1.0000078E-01
  1.1994890E-01   9.9999998E-03   1.2000102E-01
  1.1994888E-01   9.9999998E-03   1.4000130E-01
  1.3994099E-01   9.9999998E-03   1.2588418E-12
  1.3994092E-01   9.9999998E-03   2.0000143E-02
  1.3994075E-01   9.9999998E-03   4.0000293E-02
  1.3994049E-01   9.9999998E-03   6.0000457E-02
  1.3994016E-01   9.9999998E-03   8.0000639E-02
  1.3993981E-01   9.9999998E-03   1.0000086E-01
  1.3993955E-01   9.9999998E-03   1.2000110E-01
  1.3993943E-01   9.9999998E-03   1.4000137E-01
  1.5993090E-01   9.9999998E-03  -1.5253181E-12
  1.5993083E-01   9.9999998E-03   2.0000184E-02
  1.5993060E-01   9.9999998E-03   4.0000375E-02
  1.5993027E-01   9.9999998E-03   6.0000576E-02
  1.5992986E-01   9.9999998E-03   8.0000803E-02
  1.5992941E-01   9.9999998E-03   1.0000104E-01
  1.5992902E-01   9.9999998E-03   1.2000132E-01
  1.5992878E-01   9.9999998E-03   1.4000161E-01
  1.7991956E-01   9.9999998E-03   1.5812106E-12
  1.7991947E-01   9.9999998E-03   2.0000257E-02
  1.7991921E-01   9.9999998E-03   4.0000521E-02
  1.7991880E-01   9.9999998E-03   6.0000800E-02
  1.7991827E-01   9.9999998E-03   8.0001093E-02
  1.7991771E-01   9.9999998E-03   1.0000141E-01
  1.7991717E-01   9.9999998E-03   1.2000175E-01
  1.7991680E-01   9.9999998E-03   1.4000210E-01
  1.9990684E-01   9.9999998E-03   1.0615712E-12
  1.9990674E-01   9.9999998E-03   2.0000372E-02
  1.9990641E-01   9.9999998E-03   4.0000752E-02
  1.9990592E-01   9.9999998E-03   6.0001146E-02
  1.9990528E-01   9.9999998E-03   8.0001563E-02
  1.9990456E-01   9.9999998E-03   1.0000201E-01
  1.9990388E-01   9.9999998E-03   1.2000246E-01
  1.9990332E-01   9.9999998E-03   1.4000292E-01
  2.1989256E-01   9.9999998E-03  -2.1566958E-12
  2.1989243E-01   9.9999998E-03   2.0000536E-02
  2.1989205E-01   9.9999998E-03   4.0001083E-02
  2.1989144E-01   9.9999998E-03   6.0001649E-02
  2.1989067E-01   9.9999998E-03   8.0002241E-02
  2.1988979E-01   9.9999998E-03   1.0000287E-01
  2.1988893E-01   9.9999998E-03   1.2000352E-01
  2.1988820E-01   9.9999998E-03   1.4000417E-01
  2.3987649E-01   9.9999998E-03   2.1391933E-12
  2.3987634E-01   9.9999998E-03   2.0000752E-02
  2.3987590E-01   9.9999998E-03   4.0001519E-02
  2.3987518E-01   9.9999998E-03   6.0002312E-02
  2.3987426E-01   9.9999998E-03   8.0003142E-02
  2.3987320E-01   9.9999998E-03   1.0000402E-01
  2.3987213E-01   9.9999998E-03   1.2000492E-01
  2.3987119E-01   9.9999998E-03   1.4000584E-01
  2.5985843E-01   9.9999998E-03  -3.6608481E-12
  2.5985825E-01   9.9999998E-03   2.0001026E-02
  2.5985774E-01   9.9999998E-03   4.0002067E-02
  2.5985691E-01   9.9999998E-03   6.0003147E-02
  2.5985581E-01   9.9999998E-03   8.0004275E-02
  2.5985456E-01   9.9999998E-03   1.0000546E-01
  2.5985324E-01   9.9999998E-03   1.2000670E-01
  2.5985208E-01   9.9999998E-03   1.4000796E-01
  2.7983814E-01   9.9999998E-03  -1.4821328E-13
  2.7983794E-01   9.9999998E-03   2.0001352E-02
  2.7983734E-01   9.9999998E-03   4.0002726E-02
  2.7983636E-01   9.9999998E-03   6.0004145E-02
  2.7983508E-01   9.9999998E-03   8.0005631E-02
  2.7983359E-01   9.9999998E-03   1.0000719E-01
  2.7983204E-01   9.9999998E-03   1.2000882E-01
  2.7983060E-01   9.9999998E-03   1.4001052E-01
  2.9981533E-01   9.9999998E-03  -3.0683190E-12
  2.9981509E-01   9.9999998E-03   2.0001722E-02
  2.9981440E-01   9.9999998E-03   4.0003475E-02
  2.9981327E-01   9.9999998E-03   6.0005277E-02
  2.9981181E-01   9.9999998E-03   8.0007166E-02
  2.9981008E-01   9.9999998E-03   1.0000915E-01
  2.9980826E-01   9.9999998E-03   1.2001125E-01
  2.9980651E-01   9.9999998E-03   1.4001347E-01
  3.1978974E-01   9.9999998E-03  -6.3006371E-12
  3.1978947E-01   9.9999998E-03   2.0002136E-02
  3.1978866E-01   9.9999998E-03   4.0004302E-02
  3.1978741E-01   9.9999998E-03   6.0006533E-02
  3.1978571E-01   9.9999998E-03   8.0008857E-02
  3.1978375E-01   9.9999998E-03   1.0001132E-01
  3.1978160E-01   9.9999998E-03   1.2001393E-01
  3.1977952E-01   9.9999998E-03   1.4001670E-01
  3.3976102E-01   9.9999998E-03  -3.1069442E-12
  3.3976072E-01   9.9999998E-03   2.0002581E-02
  3.3975983E-01   9.9999998E-03   4.0005196E-02
  3.3975840E-01   9.9999998E-03   6.0007885E-02
  3.3975649E-01   9.9999998E-03   8.0010690E-02
  3.3975425E-01   9.9999998E-03   1.0001364E-01
  3.3975178E-01   9.9999998E-03   1.2001679E-01
  3.3974931E-01   9.9999998E-03   1.4002015E-01
  3.5972887E-01   9.9999998E-03  -5.0654051E-12
  3.5972852E-01   9.9999998E-03   2.0003041E-02
  3.5972753E-01   9.9999998E-03   4.0006123E-02
  3.5972595E-01   9.9999998E-03   6.0009297E-02
  3.5972381E-01   9.9999998E-03   8.0012597E-02
  3.5972124E-01   9.9999998E-03   1.0001607E-01
  3.5971844E-01   9.9999998E-03   1.2001976E-01
  3.5971555E-01   9.9999998E-03   1.4002371E-01
  3.7969291E-01   9.9999998E-03  -8.6049969E-12
  3.7969255E-01   9.9999998E-03   2.0003507E-02
  3.7969145E-01   9.9999998E-03   4.0007062E-02
  3.7968969E-01   9.9999998E-03   6.0010720E-02
  3.7968731E-01   9.9999998E-03   8.0014527E-02
  3.7968445E-01   9.9999998E-03   1.0001853E-01
  3.7968126E-01   9.9999998E-03   1.2002279E-01
  3.7967795E-01   9.9999998E-03   1.4002734E-01
  3.9965287E-01   9.9999998E-03  -1.7176917E-13
  3.9965245E-01   9.9999998E-03   2.0003974E-02
  3.9965126E-01   9.9999998E-03   4.0008005E-02
  3.9964929E-01   9.9999998E-03   6.0012147E-02
  3.9964667E-01   9.9999998E-03   8.0016457E-02
  3.9964348E-01   9.9999998E-03   1.0002100E-01
  3.9963990E-01   9.9999998E-03   1.2002583E-01
  3.9963612E-01   9.9999998E-03   1.4003100E-01
  4.1960841E-01   9.9999998E-03  -6.2391303E-12
  4.1960797E-01   9.9999998E-03   2.0004459E-02
  4.1960666E-01   9.9999998E-03   4.0008973E-02
  4.1960451E-01   9.9999998E-03   6.0013607E-02
  4.1960162E-01   9.9999998E-03   8.0018423E-02
  4.1959807E-01   9.9999998E-03   1.0002350E-01
  4.1959405E-01   9.9999998E-03   1.2002891E-01
  4.1958976E-01   9.9999998E-03   1.4003471E-01
  4.3955925E-01   9.9999998E-03   5.6764810E-12
  4.3955877E-01   9.9999998E-03   2.0004986E-02
  4.3955731E-01   9.9999998E-03   4.0010028E-02
  4.3955496E-01   9.9999998E-03   6.0015190E-02
  4.3955177E-01   9.9999998E-03   8.0020539E-02
  4.3954787E-01   9.9999998E-03   1.0002618E-01
  4.3954337E-01   9.9999998E-03   1.2003218E-01
  4.3953851E-01   9.9999998E-03   1.4003861E-01
  4.5950502E-01   9.9999998E-03   8.0393782E-12
  4.5950449E-01   9.9999998E-03   2.0005612E-02
  4.5950291E-01   9.9999998E-03   4.0011276E-02
  4.5950034E-01   9.9999998E-03   6.0017046E-02
  4.5949683E-01   9.9999998E-03   8.0023006E-02
  4.5949247E-01   9.9999998E-03   1.0002927E-01
  4.5948744E-01   9.9999998E-03   1.2003591E-01
  4.5948195E-01   9.9999998E-03   1.4004299E-01
  4.7944528E-01   9.9999998E-03  -9.0944597E-13
  4.7944471E-01   9.9999998E-03   2.0006413E-02
  4.7944298E-01   9.9999998E-03   4.0012863E-02
  4.7944012E-01   9.9999998E-03   6.0019407E-02
  4.7943625E-01   9.9999998E-03   8.0026135E-02
  4.7943142E-01   9.9999998E-03   1.0003315E-01
  4.7942579E-01   9.9999998E-03   1.2004056E-01
  4.7941956E-01   9.9999998E-03   1.4004840E-01
  4.9937955E-01   9.9999998E-03  -1.1390592E-11
  4.9937889E-01   9.9999998E-03   2.0007480E-02
  4.9937701E-01   9.9999998E-03   4.0014986E-02
  4.9937388E-01   9.9999998E-03   6.0022566E-02
  4.9936959E-01   9.9999998E-03   8.0030322E-02
  4.9936423E-01   9.9999998E-03   1.0003836E-01
  4.9935791E-01   9.9999998E-03   1.2004677E-01
  4.9935085E-01   9.9999998E-03   1.4005554E-01
  5.1930743E-01   9.9999998E-03  -1.7813076E-11
  5.1930672E-01   9.9999998E-03   2.0008918E-02
  5.1930463E-01   9.9999998E-03   4.0017851E-02
  5.1930118E-01   9.9999998E-03   6.0026858E-02
  5.1929641E-01   9.9999998E-03   8.0036044E-02
  5.1929045E-01   9.9999998E-03   1.0004552E-01
  5.1928341E-01   9.9999998E-03   1.2005530E-01
  5.1927543E-01   9.9999998E-03   1.4006530E-01
  5.3922898E-01   9.9999998E-03  -7.8129468E-13
  5.3922820E-01   9.9999998E-03   2.0010822E-02
  5.3922588E-01   9.9999998E-03   4.0021677E-02
  5.3922206E-01   9.9999998E-03   6.0032617E-02
  5.3921682E-01   9.9999998E-03   8.0043748E-02
  5.3921020E-01   9.9999998E-03   1.0005518E-01
  5.3920233E-01   9.9999998E-03   1.2006687E-01
  5.3919345E-01   9.9999998E-03   1.4007856E-01
  5.5914539E-01   9.9999998E-03  -1.6682060E-11
  5.5914450E-01   9.9999998E-03   2.0013327E-02
  5.5914193E-01   9.9999998E-03   4.0026698E-02
  5.5913776E-01   9.9999998E-03   6.0040187E-02
  5.5913198E-01   9.9999998E-03   8.0053903E-02
  5.5912471E-01   9.9999998E-03   1.0006791E-01
  5.5911613E-01   9.9999998E-03   1.2008212E-01
  5.5910641E-01   9.9999998E-03   1.4009608E-01
  5.7905978E-01   9.9999998E-03  -1.0380893E-11
  5.7905883E-01   9.9999998E-03   2.0016409E-02
  5.7905602E-01   9.9999998E-03   4.0032856E-02
  5.7905138E-01   9.9999998E-03   6.0049444E-02
  5.7904512E-01   9.9999998E-03   8.0066323E-02
  5.7903725E-01   9.9999998E-03   1.0008355E-01
  5.7902795E-01   9.9999998E-03   1.2010095E-01
  5.7901764E-01   9.9999998E-03   1.4011790E-01
  5.9897774E-01   9.9999998E-03   7.1454201E-12
  5.9897667E-01   9.9999998E-03   2.0020114E-02
  5.9897357E-01   9.9999998E-03   4.0040240E-02
  5.9896851E-01   9.9999998E-03   6.0060509E-02
  5.9896171E-01   9.9999998E-03   8.0081150E-02
  5.9895337E-01   9.9999998E-03   1.0010223E-01
  5.9894365E-01   9.9999998E-03   1.2012345E-01
  5.9893280E-01   9.9999998E-03   1.4014398E-01
  6.1890435E-01   9.9999998E-03  -1.3796125E-12
  6.1890322E-01   9.9999998E-03   2.0024478E-02
  6.1889988E-01   9.9999998E-03   4.0048879E-02
  6.1889440E-01   9.9999998E-03   6.0073406E-02
  6.1888719E-01   9.9999998E-03   8.0098271E-02
  6.1887842E-01   9.9999998E-03   1.0012346E-01
  6.1886829E-01   9.9999998E-03   1.2014869E-01
  6.1885715E-01   9.9999998E-03   1.4017308E-01
  6.3884306E-01   9.9999998E-03   3.4601724E-11
  6.3884187E-01   9.9999998E-03   2.0028934E-02
  6.3883829E-01   9.9999998E-03   4.0057775E-02
  6.3883251E-01   9.9999998E-03   6.0086634E-02
  6.3882482E-01   9.9999998E-03   8.0115855E-02
  6.3881558E-01   9.9999998E-03   1.0014550E-01
  6.3880515E-01   9.9999998E-03   1.2017509E-01
  6.3879389E-01   9.9999998E-03   1.4020354E-01
  6.5879679E-01   9.9999998E-03  -2.6194543E-12
  6.5879554E-01   9.9999998E-03   2.0033972E-02
  6.5879190E-01   9.9999998E-03   4.0067803E-02
  6.5878594E-01   9.9999998E-03   6.0101327E-02
  6.5877807E-01   9.9999998E-03   8.0134980E-02
  6.5876877E-01   9.9999998E-03   1.0016934E-01
  6.5875864E-01   9.9999998E-03   1.2020412E-01
  6.5874767E-01   9.9999998E-03   1.4023791E-01
  6.7877275E-01   9.9999998E-03   1.7784963E-11
  6.7877167E-01   9.9999998E-03   2.0043548E-02
  6.7876852E-01   9.9999998E-03   4.0085871E-02
  6.7876321E-01   9.9999998E-03   6.0126700E-02
  6.7875612E-01   9.9999998E-03   8.0166966E-02
  6.7874771E-01   9.9999998E-03   1.0020754E-01
  6.7873865E-01   9.9999998E-03   1.2024876E-01
  6.7872918E-01   9.9999998E-03   1.4028928E-01
  6.9878507E-01   9.9999998E-03   4.3080588E-11
  6.9878441E-01   9.9999998E-03   2.0056307E-02
  6.9878227E-01   9.9999998E-03   4.0110964E-02
  6.9877851E-01   9.9999998E-03   6.0163207E-02
  6.9877338E-01   9.9999998E-03   8.0213934E-02
  6.9876760E-01   9.9999998E-03   1.0026442E-01
  6.9876230E-01   9.9999998E-03   1.2031627E-01
  6.9875824E-01   9.9999998E-03   1.4036913E-01
  7.1895504E-01   9.9999998E-03  -1.8603770E-11
  7.1895379E-01   9.9999998E-03   2.0072846E-02
  7.1895027E-01   9.9999998E-03   4.0143482E-02
  7.1894497E-01   9.9999998E-03   6.0211409E-02
  7.1893871E-01   9.9999998E-03   8.0278277E-02
  7.1893233E-01   9.9999998E-03   1.0034670E-01
  7.1892703E-01   9.9999998E-03   1.2041777E-01
  7.1892345E-01   9.9999998E-03   1.4048941E-01
  7.3931372E-01   9.9999998E-03   6.7273534E-11
  7.3931301E-01   9.9999998E-03   2.0078244E-02
  7.3931098E-01   9.9999998E-03   4.0153727E-02
  7.3930818E-01   9.9999998E-03   6.0225580E-02
  7.3930514E-01   9.9999998E-03   8.0295339E-02
  7.3930228E-01   9.9999998E-03   1.0036575E-01
  7.3930001E-01   9.9999998E-03   1.2043875E-01
  7.3929840E-01   9.9999998E-03   1.4051282E-01
  7.5958991E-01   9.9999998E-03   1.6695284E-10
  7.5958979E-01   9.9999998E-03   2.0081125E-02
  7.5958937E-01   9.9999998E-03   4.0159017E-02
  7.5958902E-01   9.9999998E-03   6.0232446E-02
  7.5958920E-01   9.9999998E-03   8.0302782E-02
  7.5959003E-01   9.9999998E-03   1.0037273E-01
  7.5959176E-01   9.9999998E-03   1.2044422E-01
  7.5959432E-01   9.9999998E-03   1.4051567E-01
  7.7979827E-01   9.9999998E-03  -7.9806869E-11
  7.7979851E-01   9.9999998E-03   2.0082010E-02
  7.7979916E-01   9.9999998E-03   4.0160481E-02
  7.7980047E-01   9.9999998E-03   6.0233969E-02
  7.7980256E-01   9.9999998E-03   8.0303766E-02
  7.7980548E-01   9.9999998E-03   1.0037261E-01
  7.7980924E-01   9.9999998E-03   1.2044241E-01
  7.7981347E-01   9.9999998E-03   1.4051150E-01
  7.9997522E-01   9.9999998E-03  -2.1815133E-10
  7.9997563E-01   9.9999998E-03   2.0081408E-02
  7.9997694E-01   9.9999998E-03   4.0159155E-02
  7.9997909E-01   9.9999998E-03   6.0231734E-02
  7.9998219E-01   9.9999998E-03   8.0300450E-02
  7.9998600E-01   9.9999998E-03   1.0036813E-01
  7.9999042E-01   9.9999998E-03   1.2043671E-01
  7.9999512E-01   9.9999998E-03   1.4050448E-01
  8.2015085E-01   9.9999998E-03   3.1786875E-11
  8.2015139E-01   9.9999998E-03   2.0079833E-02
  8.2015294E-01   9.9999998E-03   4.0156040E-02
  8.2015550E-01   9.9999998E-03   6.0227159E-02
  8.2015902E-01   9.9999998E-03   8.0294587E-02
  8.2016325E-01   9.9999998E-03   1.0036124E-01
  8.2016808E-01   9.9999998E-03   1.2042917E-01
  8.2017320E-01   9.9999998E-03   1.4049661E-01
  8.4033567E-01   9.9999998E-03   2.3475055E-10
  8.4033626E-01   9.9999998E-03   2.0077668E-02
  8.4033799E-01   9.9999998E-03   4.0151849E-02
  8.4034079E-01   9.9999998E-03   6.0221191E-02
  8.4034455E-01   9.9999998E-03   8.0287181E-02
  8.4034926E-01   9.9999998E-03   1.0035285E-01
  8.4035486E-01   9.9999998E-03   1.2042033E-01
  8.4036124E-01   9.9999998E-03   1.4048788E-01
  8.6052328E-01   9.9999998E-03   1.8263417E-10
  8.6052394E-01   9.9999998E-03   2.0075092E-02
  8.6052585E-01   9.9999998E-03   4.0146880E-02
  8.6052889E-01   9.9999998E-03   6.0214143E-02
  8.6053318E-01   9.9999998E-03   8.0278434E-02
  8.6053866E-01   9.9999998E-03   1.0034284E-01
  8.6054564E-01   9.9999998E-03   1.2040955E-01
  8.6055434E-01   9.9999998E-03   1.4047688E-01
  8.8070112E-01   9.9999998E-03  -1.1235252E-10
  8.8070184E-01   9.9999998E-03   2.0072114E-02
  8.8070399E-01   9.9999998E-03   4.0141113E-02
  8.8070756E-01   9.9999998E-03   6.0205884E-02
  8.8071257E-01   9.9999998E-03   8.0268003E-02
  8.8071930E-01   9.9999998E-03   1.0033055E-01
  8.8072819E-01   9.9999998E-03   1.2039575E-01
  8.8073981E-01   9.9999998E-03   1.4046200E-01
  9.0085757E-01   9.9999998E-03  -1.2369282E-10
  9.0085840E-01   9.9999998E-03   2.0068660E-02
  9.0086102E-01   9.9999998E-03   4.0134374E-02
  9.0086538E-01   9.9999998E-03   6.0196105E-02
  9.0087152E-01   9.9999998E-03   8.0255419E-02
  9.0087986E-01   9.9999998E-03   1.0031534E-01
  9.0089107E-01   9.9999998E-03   1.2037806E-01
  9.0090579E-01   9.9999998E-03   1.4044210E-01
  9.2095208E-01   9.9999998E-03  -6.8786578E-13
  9.2095339E-01   9.9999998E-03   2.0064821E-02
  9.2095733E-01   9.9999998E-03   4.0126804E-02
  9.2096406E-01   9.9999998E-03   6.0184933E-02
  9.2097360E-01   9.9999998E-03   8.0240682E-02
  9.2098635E-01   9.9999998E-03   1.0029704E-01
  9.2100269E-01   9.9999998E-03   1.2035625E-01
  9.2102343E-01   9.9999998E-03   1.4041705E-01
  9.4097763E-01   9.9999998E-03   1.3602486E-10
  9.4097930E-01   9.9999998E-03   2.0060387E-02
  9.4098437E-01   9.9999998E-03   4.0118165E-02
  9.4099295E-01   9.9999998E-03   6.0172316E-02
  9.4100517E-01   9.9999998E-03   8.0224194E-02
  9.4102120E-01   9.9999998E-03   1.0027657E-01
  9.4104147E-01   9.9999998E-03   1.2033170E-01
  9.4106662E-01   9.9999998E-03   1.4038864E-01
  9.6097797E-01   9.9999998E-03   4.3859114E-11
  9.6097988E-01   9.9999998E-03   2.0055667E-02
  9.6098542E-01   9.9999998E-03   4.0108871E-02
  9.6099490E-01   9.9999998E-03   6.0158905E-02
  9.6100843E-01   9.9999998E-03   8.0207035E-02
  9.6102619E-01   9.9999998E-03   1.0025574E-01
  9.6104848E-01   9.9999998E-03   1.2030700E-01
  9.6107578E-01   9.9999998E-03   1.4036013E-01
  9.8096836E-01   9.9999998E-03  -4.0171238E-11
  9.8097032E-01   9.9999998E-03   2.0050922E-02
  9.8097622E-01   9.9999998E-03   4.0099893E-02
  9.8098624E-01   9.9999998E-03   6.0146164E-02
  9.8100036E-01   9.9999998E-03   8.0190822E-02
  9.8101884E-01   9.9999998E-03   1.0023617E-01
  9.8104209E-01   9.9999998E-03   1.2028408E-01
  9.8107052E-01   9.9999998E-03   1.4033391E-01
  1.0009525E+00   9.9999998E-03   8.8683332E-12
  1.0009545E+00   9.9999998E-03   2.0046813E-02
  1.0009608E+00   9.9999998E-03   4.0092051E-02
  1.0009714E+00   9.9999998E-03   6.0135212E-02
  1.0009861E+00   9.9999998E-03   8.0177173E-02
  1.0010052E+00   9.9999998E-03   1.0021972E-01
  1.0010290E+00   9.9999998E-03   1.2026453E-01
  1.0010585E+00   9.9999998E-03   1.4031067E-01
  1.0209330E+00   9.9999998E-03   3.0301924E-11
  1.0209353E+00   9.9999998E-03   2.0042948E-02
  1.0209420E+00   9.9999998E-03   4.0084641E-02
  1.0209529E+00   9.9999998E-03   6.0124572E-02
  1.0209681E+00   9.9999998E-03   8.0163620E-02
  1.0209876E+00   9.9999998E-03   1.0020354E-01
  1.0210121E+00   9.9999998E-03   1.2024561E-01
  1.0210425E+00   9.9999998E-03   1.4028835E-01
  1.0409095E+00   9.9999998E-03   2.1342768E-11
  1.0409119E+00   9.9999998E-03   2.0039108E-02
  1.0409188E+00   9.9999998E-03   4.0077340E-02
  1.0409303E+00   9.9999998E-03   6.0114559E-02
  1.0409459E+00   9.9999998E-03   8.0151364E-02
  1.0409659E+00   9.9999998E-03   1.0018916E-01
  1.0409912E+00   9.9999998E-03   1.2022834E-01
  1.0410229E+00   9.9999998E-03   1.4026788E-01
  1.0608824E+00   9.9999998E-03   5.2795854E-11
  1.0608848E+00   9.9999998E-03   2.0035461E-02
  1.0608921E+00   9.9999998E-03   4.0070627E-02
  1.0609038E+00   9.9999998E-03   6.0105391E-02
  1.0609199E+00   9.9999998E-03   8.0140322E-02
  1.0609407E+00   9.9999998E-03   1.0017592E-01
  1.0609672E+00   9.9999998E-03   1.2021212E-01
  1.0610003E+00   9.9999998E-03   1.4024720E-01
  1.0808527E+00   9.9999998E-03   2.0876755E-11
  1.0808553E+00   9.9999998E-03   2.0032413E-02
  1.0808625E+00   9.9999998E-03   4.0064778E-02
  1.0808747E+00   9.9999998E-03   6.0097322E-02
  1.0808914E+00   9.9999998E-03   8.0130219E-02
  1.0809133E+00   9.9999998E-03   1.0016332E-01
  1.0809412E+00   9.9999998E-03   1.2019602E-01
  1.0809760E+00   9.9999998E-03   1.4022650E-01
  1.1008217E+00   9.9999998E-03  -4.4475591E-12
  1.1008244E+00   9.9999998E-03   2.0029608E-02
  1.1008317E+00   9.9999998E-03   4.0059496E-02
  1.1008443E+00   9.9999998E-03   6.0089909E-02
  1.1008618E+00   9.9999998E-03   8.0120526E-02
  1.1008850E+00   9.9999998E-03   1.0015098E-01
  1.1009145E+00   9.9999998E-03   1.2017927E-01
  1.1009521E+00   9.9999998E-03   1.4020544E-01
  1.1207910E+00   9.9999998E-03  -1.5212586E-11
  1.1207936E+00   9.9999998E-03   2.0027209E-02
  1.1208012E+00   9.9999998E-03   4.0054742E-02
  1.1208142E+00   9.9999998E-03   6.0082749E-02
  1.1208328E+00   9.9999998E-03   8.0110893E-02
  1.1208574E+00   9.9999998E-03   1.0013729E-01
  1.1208893E+00   9.9999998E-03   1.2016121E-01
  1.1209294E+00   9.9999998E-03   1.4018135E-01
  1.1407617E+00   9.9999998E-03   1.2483674E-11
  1.1407644E+00   9.9999998E-03   2.0024927E-02
  1.1407723E+00   9.9999998E-03   4.0049974E-02
  1.1407859E+00   9.9999998E-03   6.0075302E-02
  1.1408055E+00   9.9999998E-03   8.0099702E-02
  1.1408321E+00   9.9999998E-03   1.0012195E-01
  1.1408664E+00   9.9999998E-03   1.2014031E-01
  1.1409098E+00   9.9999998E-03   1.4015576E-01
  1.1607350E+00   9.9999998E-03   1.7763267E-11
  1.1607378E+00   9.9999998E-03   2.0022389E-02
  1.1607460E+00   9.9999998E-03   4.0044580E-02
  1.1607603E+00   9.9999998E-03   6.0066365E-02
  1.1607815E+00   9.9999998E-03   8.0086805E-02
  1.1608101E+00   9.9999998E-03   1.0010375E-01
  1.1608473E+00   9.9999998E-03   1.2011776E-01
  1.1608952E+00   9.9999998E-03   1.4013177E-01
  1.1807117E+00   9.9999998E-03   1.6245909E-11
  1.1807146E+00   9.9999998E-03   2.0019228E-02
  1.1807233E+00   9.9999998E-03   4.0038127E-02
  1.1807386E+00   9.9999998E-03   6.0055938E-02
  1.1807612E+00   9.9999998E-03   8.0071442E-02
  1.1807925E+00   9.9999998E-03   1.0008459E-01
  1.1808336E+00   9.9999998E-03   1.2009754E-01
  1.1808866E+00   9.9999998E-03   1.4011261E-01
  1.2006924E+00   9.9999998E-03   2.1028929E-11
  1.2006955E+00   9.9999998E-03   2.0015649E-02
  1.2007048E+00   9.9999998E-03   4.0030710E-02
  1.2007213E+00   9.9999998E-03   6.0044348E-02
  1.2007462E+00   9.9999998E-03   8.0056481E-02
  1.2007806E+00   9.9999998E-03   1.0006884E-01
  1.2008270E+00   9.9999998E-03   1.2008388E-01
  1.2008892E+00   9.9999998E-03   1.4010429E-01
  1.2206775E+00   9.9999998E-03   2.1802308E-11
  1.2206810E+00   9.9999998E-03   2.0012408E-02
  1.2206914E+00   9.9999998E-03   4.0024035E-02
  1.2207099E+00   9.9999998E-03   6.0034767E-02
  1.2207381E+00   9.9999998E-03   8.0046967E-02
  1.2207788E+00   9.9999998E-03   1.0006307E-01
  1.2208364E+00   9.9999998E-03   1.2008476E-01
  1.2209088E+00   9.9999998E-03   1.4010951E-01
  1.2406700E+00   9.9999998E-03   2.9710789E-11
  1.2406741E+00   9.9999998E-03   2.0010883E-02
  1.2406869E+00   9.9999998E-03   4.0021546E-02
  1.2407103E+00   9.9999998E-03   6.0034480E-02
  1.2407471E+00   9.9999998E-03   8.0052115E-02
  1.2407991E+00   9.9999998E-03   1.0007358E-01
  1.2408608E+00   9.9999998E-03   1.2009488E-01
  1.2409240E+00   9.9999998E-03   1.4011435E-01
  1.2606879E+00   9.9999998E-03   2.3179163E-11
  1.2606934E+00   9.9999998E-03   2.0013466E-02
  1.2607095E+00   9.9999998E-03   4.0028393E-02
  1.2607368E+00   9.9999998E-03   6.0045768E-02
  1.2607733E+00   9.9999998E-03   8.0063634E-02
  1.2608176E+00   9.9999998E-03   1.0008126E-01
  1.2608644E+00   9.9999998E-03   1.2009550E-01
  1.2609121E+00   9.9999998E-03   1.4011110E-01
  1.2807062E+00   9.9999998E-03   2.4208913E-11
  1.2807101E+00   9.9999998E-03   2.0013791E-02
  1.2807224E+00   9.9999998E-03   4.0029645E-02
  1.2807426E+00   9.9999998E-03   6.0046535E-02
  1.2807697E+00   9.9999998E-03   8.0062345E-02
  1.2808044E+00   9.9999998E-03   1.0007802E-01
  1.2808386E+00   9.9999998E-03   1.2008952E-01
  1.3006881E+00   9.9999998E-03   2.0161877E-11
  1.3006915E+00   9.9999998E-03   2.0011727E-02
  1.3007016E+00   9.9999998E-03   4.0025264E-02
  1.3007185E+00   9.9999998E-03   6.0040932E-02
  1.3007411E+00   9.9999998E-03   8.0057628E-02
 -1.0871800E-05   9.9999998E-03   1.6000098E-01
 -1.0565280E-05   9.9999998E-03   1.8000124E-01
 -1.0101614E-05   9.9999998E-03   2.0000152E-01
 -9.4365323E-06   9.9999998E-03   2.2000182E-01
 -8.5385682E-06   9.9999998E-03   2.4000208E-01
 -7.3980950E-06   9.9999998E-03   2.6000229E-01
 -6.0564330E-06   9.9999998E-03   2.8000236E-01
  1.9984618E-02   9.9999998E-03   1.6000132E-01
  1.9985015E-02   9.9999998E-03   1.8000166E-01
  1.9985642E-02   9.9999998E-03   2.0000203E-01
  1.9986570E-02   9.9999998E-03   2.2000238E-01
  1.9987861E-02   9.9999998E-03   2.4000268E-01
  1.9989556E-02   9.9999998E-03   2.6000285E-01
  1.9991646E-02   9.9999998E-03   2.8000286E-01
  1.9994078E-02   9.9999998E-03   3.0000308E-01
  3.9978880E-02   9.9999998E-03   1.6000155E-01
  3.9979376E-02   9.9999998E-03   1.8000191E-01
  3.9980188E-02   9.9999998E-03   2.0000230E-01
  3.9981432E-02   9.9999998E-03   2.2000268E-01
  3.9983187E-02   9.9999998E-03   2.4000297E-01
  3.9985538E-02   9.9999998E-03   2.6000318E-01
  3.9988425E-02   9.9999998E-03   2.8000322E-01
  3.9991774E-02   9.9999998E-03   3.0000338E-01
  5.9972379E-02   9.9999998E-03   1.6000165E-01
  5.9972964E-02   9.9999998E-03   1.8000203E-01
  5.9973963E-02   9.9999998E-03   2.0000243E-01
  5.9975516E-02   9.9999998E-03   2.2000283E-01
  5.9977755E-02   9.9999998E-03   2.4000312E-01
  5.9980772E-02   9.9999998E-03   2.6000330E-01
  5.9984513E-02   9.9999998E-03   2.8000334E-01
  5.9988927E-02   9.9999998E-03   3.0000353E-01
  7.9965308E-02   9.9999998E-03   1.6000168E-01
  7.9965957E-02   9.9999998E-03   1.8000205E-01
  7.9967111E-02   9.9999998E-03   2.0000246E-01
  7.9968952E-02   9.9999998E-03   2.2000284E-01
  7.9971649E-02   9.9999998E-03   2.4000312E-01
  7.9975337E-02   9.9999998E-03   2.6000330E-01
  7.9979986E-02   9.9999998E-03   2.8000337E-01
  7.9985589E-02   9.9999998E-03   3.0000371E-01
  9.9957623E-02   9.9999998E-03   1.6000164E-01
  9.9958315E-02   9.9999998E-03   1.8000200E-01
  9.9959582E-02   9.9999998E-03   2.0000239E-01
  9.9961668E-02   9.9999998E-03   2.2000276E-01
  9.9964790E-02   9.9999998E-03   2.4000302E-01
  9.9969149E-02   9.9999998E-03   2.6000321E-01
  9.9974737E-02   9.9999998E-03   2.8000334E-01
  9.9981658E-02   9.9999998E-03   3.0000392E-01
  1.1994914E-01   9.9999998E-03   1.6000162E-01
  1.1994983E-01   9.9999998E-03   1.8000196E-01
  1.1995119E-01   9.9999998E-03   2.0000230E-01
  1.1995349E-01   9.9999998E-03   2.2000264E-01
  1.1995701E-01   9.9999998E-03   2.4000286E-01
  1.1996203E-01   9.9999998E-03   2.6000306E-01
  1.1996860E-01   9.9999998E-03   2.8000334E-01
  1.1997697E-01   9.9999998E-03   3.0000430E-01
  1.3993962E-01   9.9999998E-03   1.6000168E-01
  1.3994029E-01   9.9999998E-03   1.8000199E-01
  1.3994169E-01   9.9999998E-03   2.0000228E-01
  1.3994417E-01   9.9999998E-03   2.2000256E-01
  1.3994807E-01   9.9999998E-03   2.4000275E-01
  1.3995378E-01   9.9999998E-03   2.6000306E-01
  1.3996135E-01   9.9999998E-03   2.8000349E-01
  1.3997130E-01   9.9999998E-03   3.0000496E-01
  1.5992887E-01   9.9999998E-03   1.6000190E-01
  1.5992947E-01   9.9999998E-03   1.8000220E-01
  1.5993088E-01   9.9999998E-03   2.0000246E-01
  1.5993352E-01   9.9999998E-03   2.2000271E-01
  1.5993780E-01   9.9999998E-03   2.4000289E-01
  1.5994419E-01   9.9999998E-03   2.6000324E-01
  1.5995274E-01   9.9999998E-03   2.8000385E-01
  1.5996422E-01   9.9999998E-03   3.0000576E-01
  1.7991675E-01   9.9999998E-03   1.6000243E-01
  1.7991725E-01   9.9999998E-03   1.8000273E-01
  1.7991862E-01   9.9999998E-03   2.0000300E-01
  1.7992136E-01   9.9999998E-03   2.2000322E-01
  1.7992602E-01   9.9999998E-03   2.4000336E-01
  1.7993304E-01   9.9999998E-03   2.6000369E-01
  1.7994247E-01   9.9999998E-03   2.8000429E-01
  1.7995495E-01   9.9999998E-03   3.0000597E-01
  1.9990312E-01   9.9999998E-03   1.6000336E-01
  1.9990347E-01   9.9999998E-03   1.8000375E-01
  1.9990475E-01   9.9999998E-03   2.0000403E-01
  1.9990754E-01   9.9999998E-03   2.2000422E-01
  1.9991247E-01   9.9999998E-03   2.4000424E-01
  1.9991998E-01   9.9999998E-03   2.6000434E-01
  1.9993004E-01   9.9999998E-03   2.8000471E-01
  1.9994278E-01   9.9999998E-03   3.0000553E-01
  2.1988779E-01   9.9999998E-03   1.6000476E-01
  2.1988799E-01   9.9999998E-03   1.8000530E-01
  2.1988913E-01   9.9999998E-03   2.0000567E-01
  2.1989186E-01   9.9999998E-03   2.2000583E-01
  2.1989694E-01   9.9999998E-03   2.4000581E-01
  2.1990483E-01   9.9999998E-03   2.6000589E-01
  2.1991527E-01   9.9999998E-03   2.8000647E-01
  2.1992904E-01   9.9999998E-03   3.0000833E-01
  2.3987058E-01   9.9999998E-03   1.6000670E-01
  2.3987056E-01   9.9999998E-03   1.8000747E-01
  2.3987153E-01   9.9999998E-03   2.0000814E-01
  2.3987408E-01   9.9999998E-03   2.2000855E-01
  2.3987906E-01   9.9999998E-03   2.4000905E-01
  2.3988707E-01   9.9999998E-03   2.6001048E-01
  2.3989789E-01   9.9999998E-03   2.8001413E-01
  2.3991251E-01   9.9999998E-03   3.0002043E-01
  2.5985122E-01   9.9999998E-03   1.6000919E-01
  2.5985098E-01   9.9999998E-03   1.8001041E-01
  2.5985169E-01   9.9999998E-03   2.0001161E-01
  2.5985393E-01   9.9999998E-03   2.2001281E-01
  2.5985846E-01   9.9999998E-03   2.4001446E-01
  2.5986606E-01   9.9999998E-03   2.6001790E-01
  2.5987664E-01   9.9999998E-03   2.8002414E-01
  2.5989079E-01   9.9999998E-03   3.0003169E-01
  2.7982947E-01   9.9999998E-03   1.6001225E-01
  2.7982894E-01   9.9999998E-03   1.8001406E-01
  2.7982932E-01   9.9999998E-03   2.0001601E-01
  2.7983117E-01   9.9999998E-03   2.2001827E-01
  2.7983510E-01   9.9999998E-03   2.4002123E-01
  2.7984184E-01   9.9999998E-03   2.6002595E-01
  2.7985156E-01   9.9999998E-03   2.8003278E-01
  2.7986464E-01   9.9999998E-03   3.0003989E-01
  2.9980507E-01   9.9999998E-03   1.6001579E-01
  2.9980418E-01   9.9999998E-03   1.8001828E-01
  2.9980421E-01   9.9999998E-03   2.0002103E-01
  2.9980564E-01   9.9999998E-03   2.2002426E-01
  2.9980907E-01   9.9999998E-03   2.4002825E-01
  2.9981509E-01   9.9999998E-03   2.6003358E-01
  2.9982397E-01   9.9999998E-03   2.8004023E-01
  2.9983586E-01   9.9999998E-03   3.0004686E-01
  3.1977770E-01   9.9999998E-03   1.6001967E-01
  3.1977645E-01   9.9999998E-03   1.8002287E-01
  3.1977612E-01   9.9999998E-03   2.0002639E-01
  3.1977719E-01   9.9999998E-03   2.2003038E-01
  3.1978035E-01   9.9999998E-03   2.4003506E-01
  3.1978604E-01   9.9999998E-03   2.6004067E-01
  3.1979451E-01   9.9999998E-03   2.8004721E-01
  3.1980583E-01   9.9999998E-03   3.0005372E-01
  3.3974707E-01   9.9999998E-03   1.6002375E-01
  3.3974540E-01   9.9999998E-03   1.8002765E-01
  3.3974472E-01   9.9999998E-03   2.0003186E-01
  3.3974552E-01   9.9999998E-03   2.2003648E-01
  3.3974859E-01   9.9999998E-03   2.4004167E-01
  3.3975437E-01   9.9999998E-03   2.6004753E-01
  3.3976308E-01   9.9999998E-03   2.8005415E-01
  3.3977473E-01   9.9999998E-03   3.0006087E-01
  3.5971290E-01   9.9999998E-03   1.6002794E-01
  3.5971078E-01   9.9999998E-03   1.8003249E-01
  3.5970971E-01   9.9999998E-03   2.0003739E-01
  3.5971028E-01   9.9999998E-03   2.2004260E-01
  3.5971335E-01   9.9999998E-03   2.4004824E-01
  3.5971943E-01   9.9999998E-03   2.6005438E-01
  3.5972887E-01   9.9999998E-03   2.8006142E-01
  3.5974163E-01   9.9999998E-03   3.0006859E-01
  3.7967482E-01   9.9999998E-03   1.6003220E-01
  3.7967226E-01   9.9999998E-03   1.8003741E-01
  3.7967077E-01   9.9999998E-03   2.0004296E-01
  3.7967113E-01   9.9999998E-03   2.2004879E-01
  3.7967420E-01   9.9999998E-03   2.4005495E-01
  3.7968069E-01   9.9999998E-03   2.6006153E-01
  3.7969103E-01   9.9999998E-03   2.8006914E-01
  3.7970525E-01   9.9999998E-03   3.0007693E-01
  3.9963251E-01   9.9999998E-03   1.6003650E-01
  3.9962944E-01   9.9999998E-03   1.8004239E-01
  3.9962754E-01   9.9999998E-03   2.0004864E-01
  3.9962763E-01   9.9999998E-03   2.2005516E-01
  3.9963073E-01   9.9999998E-03   2.4006194E-01
  3.9963770E-01   9.9999998E-03   2.6006910E-01
  3.9964902E-01   9.9999998E-03   2.8007743E-01
  3.9966485E-01   9.9999998E-03   3.0008599E-01
  4.1958559E-01   9.9999998E-03   1.6004089E-01
  4.1958198E-01   9.9999998E-03   1.8004748E-01
  4.1957960E-01   9.9999998E-03   2.0005450E-01
  4.1957939E-01   9.9999998E-03   2.2006179E-01
  4.1958255E-01   9.9999998E-03   2.4006931E-01
  4.1959000E-01   9.9999998E-03   2.6007721E-01
  4.1960239E-01   9.9999998E-03   2.8008640E-01
  4.1961992E-01   9.9999998E-03   3.0009592E-01
  4.3953371E-01   9.9999998E-03   1.6004547E-01
  4.3952945E-01   9.9999998E-03   1.8005282E-01
  4.3952650E-01   9.9999998E-03   2.0006061E-01
  4.3952596E-01   9.9999998E-03   2.2006872E-01
  4.3952909E-01   9.9999998E-03   2.4007711E-01
  4.3953705E-01   9.9999998E-03   2.6008597E-01
  4.3955058E-01   9.9999998E-03   2.8009623E-01
  4.3956995E-01   9.9999998E-03   3.0010685E-01
  4.5947641E-01   9.9999998E-03   1.6005056E-01
  4.5947137E-01   9.9999998E-03   1.8005860E-01
  4.5946774E-01   9.9999998E-03   2.0006710E-01
  4.5946670E-01   9.9999998E-03   2.2007602E-01
  4.5946980E-01   9.9999998E-03   2.4008532E-01
  4.5947820E-01   9.9999998E-03   2.6009542E-01
  4.5949283E-01   9.9999998E-03   2.8010714E-01
  4.5951417E-01   9.9999998E-03   3.0011913E-01
  4.7941315E-01   9.9999998E-03   1.6005665E-01
  4.7940722E-01   9.9999998E-03   1.8006530E-01
  4.7940269E-01   9.9999998E-03   2.0007437E-01
  4.7940105E-01   9.9999998E-03   2.2008388E-01
  4.7940385E-01   9.9999998E-03   2.4009396E-01
  4.7941259E-01   9.9999998E-03   2.6010552E-01
  4.7942823E-01   9.9999998E-03   2.8011924E-01
  4.7945145E-01   9.9999998E-03   3.0013302E-01
  4.9934345E-01   9.9999998E-03   1.6006455E-01
  4.9933648E-01   9.9999998E-03   1.8007372E-01
  4.9933094E-01   9.9999998E-03   2.0008309E-01
  4.9932837E-01   9.9999998E-03   2.2009280E-01
  4.9933064E-01   9.9999998E-03   2.4010332E-01
  4.9933934E-01   9.9999998E-03   2.6011640E-01
  4.9935555E-01   9.9999998E-03   2.8013286E-01
  4.9938014E-01   9.9999998E-03   3.0014905E-01
  5.1926702E-01   9.9999998E-03   1.6007525E-01
  5.1925886E-01   9.9999998E-03   1.8008496E-01
  5.1925212E-01   9.9999998E-03   2.0009440E-01
  5.1924843E-01   9.9999998E-03   2.2010390E-01
  5.1924962E-01   9.9999998E-03   2.4011423E-01
  5.1925766E-01   9.9999998E-03   2.6012847E-01
  5.1927346E-01   9.9999998E-03   2.8014848E-01
  5.1929802E-01   9.9999998E-03   3.0016786E-01
  5.3918403E-01   9.9999998E-03   1.6008979E-01
  5.3917480E-01   9.9999998E-03   1.8010031E-01
  5.3916675E-01   9.9999998E-03   2.0010991E-01
  5.3916156E-01   9.9999998E-03   2.2011884E-01
  5.3916126E-01   9.9999998E-03   2.4012822E-01
  5.3916752E-01   9.9999998E-03   2.6014289E-01
  5.3918123E-01   9.9999998E-03   2.8016692E-01
  5.3920305E-01   9.9999998E-03   3.0019036E-01
  5.5909616E-01   9.9999998E-03   1.6010924E-01
  5.5908591E-01   9.9999998E-03   1.8012106E-01
  5.5907667E-01   9.9999998E-03   2.0013125E-01
  5.5906999E-01   9.9999998E-03   2.2013982E-01
  5.5906749E-01   9.9999998E-03   2.4014765E-01
  5.5907065E-01   9.9999998E-03   2.6016188E-01
  5.5908000E-01   9.9999998E-03   2.8018996E-01
  5.5909526E-01   9.9999998E-03   3.0021805E-01
  5.7900679E-01   9.9999998E-03   1.6013381E-01
  5.7899594E-01   9.9999998E-03   1.8014795E-01
  5.7898587E-01   9.9999998E-03   2.0015959E-01
  5.7897782E-01   9.9999998E-03   2.2016856E-01
  5.7897258E-01   9.9999998E-03   2.4017516E-01
  5.7897168E-01   9.9999998E-03   2.6018894E-01
  5.7897449E-01   9.9999998E-03   2.8022069E-01
  5.7897902E-01   9.9999998E-03   3.0025327E-01
  5.9892130E-01   9.9999998E-03   1.6016285E-01
  5.9890974E-01   9.9999998E-03   1.8017951E-01
  5.9889895E-01   9.9999998E-03   2.0019357E-01
  5.9888965E-01   9.9999998E-03   2.2020449E-01
  5.9888250E-01   9.9999998E-03   2.4021292E-01
  5.9887755E-01   9.9999998E-03   2.6022956E-01
  5.9887248E-01   9.9999998E-03   2.8026426E-01
  5.9886414E-01   9.9999998E-03   3.0029997E-01
  6.1884511E-01   9.9999998E-03   1.6019528E-01
  6.1883247E-01   9.9999998E-03   1.8021458E-01
  6.1882019E-01   9.9999998E-03   2.0023179E-01
  6.1880964E-01   9.9999998E-03   2.2024763E-01
  6.1879981E-01   9.9999998E-03   2.4026214E-01
  6.1879176E-01   9.9999998E-03   2.6028779E-01
  6.1878264E-01   9.9999998E-03   2.8032839E-01
  6.1876363E-01   9.9999998E-03   3.0036405E-01
  6.3878167E-01   9.9999998E-03   1.6022971E-01
  6.3876826E-01   9.9999998E-03   1.8025284E-01
  6.3875395E-01   9.9999998E-03   2.0027500E-01
  6.3874084E-01   9.9999998E-03   2.2029948E-01
  6.3873011E-01   9.9999998E-03   2.4033216E-01
  6.3872164E-01   9.9999998E-03   2.6037562E-01
  6.3871104E-01   9.9999998E-03   2.8041759E-01
  6.3868970E-01   9.9999998E-03   3.0044967E-01
  6.5873575E-01   9.9999998E-03   1.6026902E-01
  6.5872246E-01   9.9999998E-03   1.8029857E-01
  6.5870851E-01   9.9999998E-03   2.0033188E-01
  6.5869677E-01   9.9999998E-03   2.2037713E-01
  6.5868932E-01   9.9999998E-03   2.4043903E-01
  6.5868163E-01   9.9999998E-03   2.6049292E-01
  6.5867054E-01   9.9999998E-03   2.8052482E-01
  6.5865237E-01   9.9999998E-03   3.0054957E-01
  6.7871869E-01   9.9999998E-03   1.6032781E-01
  6.7870659E-01   9.9999998E-03   1.8036716E-01
  6.7869443E-01   9.9999998E-03   2.0041560E-01
  6.7868716E-01   9.9999998E-03   2.2048491E-01
  6.7868614E-01   9.9999998E-03   2.4056616E-01
  6.7867947E-01   9.9999998E-03   2.6060864E-01
  6.7867225E-01   9.9999998E-03   2.8062457E-01
  6.7867565E-01   9.9999998E-03   3.0064067E-01
  6.9875300E-01   9.9999998E-03   1.6042109E-01
  6.9874531E-01   9.9999998E-03   1.8047410E-01
  6.9873887E-01   9.9999998E-03   2.0053855E-01
  6.9874024E-01   9.9999998E-03   2.2061898E-01
  6.9874567E-01   9.9999998E-03   2.4068742E-01
  6.9874072E-01   9.9999998E-03   2.6070273E-01
  6.9876891E-01   9.9999998E-03   2.8070241E-01
  6.9887984E-01   9.9999998E-03   3.0071399E-01
  7.1891969E-01   9.9999998E-03   1.6055584E-01
  7.1891475E-01   9.9999998E-03   1.8061671E-01
  7.1891350E-01   9.9999998E-03   2.0068084E-01
  7.1892059E-01   9.9999998E-03   2.2073661E-01
  7.1895134E-01   9.9999998E-03   2.4077109E-01
  7.1902043E-01   9.9999998E-03   2.6076442E-01
  7.1912658E-01   9.9999998E-03   2.8075650E-01
  7.1924716E-01   9.9999998E-03   3.0076829E-01
  7.3929751E-01   9.9999998E-03   1.6058038E-01
  7.3929745E-01   9.9999998E-03   1.8063995E-01
  7.3930073E-01   9.9999998E-03   2.0070186E-01
  7.3931497E-01   9.9999998E-03   2.2075179E-01
  7.3934877E-01   9.9999998E-03   2.4078256E-01
  7.3940247E-01   9.9999998E-03   2.6078433E-01
  7.3947203E-01   9.9999998E-03   2.8079173E-01
  7.3954862E-01   9.9999998E-03   3.0080625E-01
  7.5959772E-01   9.9999998E-03   1.6057941E-01
  7.5960207E-01   9.9999998E-03   1.8063377E-01
  7.5960845E-01   9.9999998E-03   2.0069183E-01
  7.5962096E-01   9.9999998E-03   2.2074379E-01
  7.5964320E-01   9.9999998E-03   2.4077763E-01
  7.5967485E-01   9.9999998E-03   2.6079181E-01
  7.5971192E-01   9.9999998E-03   2.8081620E-01
  7.5975382E-01   9.9999998E-03   3.0083376E-01
  7.7981812E-01   9.9999998E-03   1.6057210E-01
  7.7982312E-01   9.9999998E-03   1.8062252E-01
  7.7982891E-01   9.9999998E-03   2.0067714E-01
  7.7983689E-01   9.9999998E-03   2.2073217E-01
  7.7984774E-01   9.9999998E-03   2.4077281E-01
  7.7986044E-01   9.9999998E-03   2.6080042E-01
  7.7987325E-01   9.9999998E-03   2.8083262E-01
  7.7988875E-01   9.9999998E-03   3.0085272E-01
  7.9999983E-01   9.9999998E-03   1.6056354E-01
  8.0000424E-01   9.9999998E-03   1.8061231E-01
  8.0000830E-01   9.9999998E-03   2.0066668E-01
  8.0001146E-01   9.9999998E-03   2.2072692E-01
  8.0001235E-01   9.9999998E-03   2.4077369E-01
  8.0000955E-01   9.9999998E-03   2.6080734E-01
  8.0000395E-01   9.9999998E-03   2.8084084E-01
  7.9999846E-01   9.9999998E-03   3.0086255E-01
  8.2017839E-01   9.9999998E-03   1.6055560E-01
  8.2018334E-01   9.9999998E-03   1.8060473E-01
  8.2018721E-01   9.9999998E-03   2.0066079E-01
  8.2018745E-01   9.9999998E-03   2.2072871E-01
  8.2018042E-01   9.9999998E-03   2.4077934E-01
  8.2016492E-01   9.9999998E-03   2.6081043E-01
  8.2014447E-01   9.9999998E-03   2.8084117E-01
  8.2011956E-01   9.9999998E-03   3.0086353E-01
  8.4036845E-01   9.9999998E-03   1.6054747E-01
  8.4037602E-01   9.9999998E-03   1.8059768E-01
  8.4038234E-01   9.9999998E-03   2.0065543E-01
  8.4038264E-01   9.9999998E-03   2.2072732E-01
  8.4036970E-01   9.9999998E-03   2.4077754E-01
  8.4034359E-01   9.9999998E-03   2.6080346E-01
  8.4030920E-01   9.9999998E-03   2.8083149E-01
  8.4026492E-01   9.9999998E-03   3.0085418E-01
  8.6056495E-01   9.9999998E-03   1.6053684E-01
  8.6057717E-01   9.9999998E-03   1.8058784E-01
  8.6058831E-01   9.9999998E-03   2.0064624E-01
  8.6059111E-01   9.9999998E-03   2.2071765E-01
  8.6057389E-01   9.9999998E-03   2.4076524E-01
  8.6053813E-01   9.9999998E-03   2.6078692E-01
  8.6049032E-01   9.9999998E-03   2.8081319E-01
  8.6042619E-01   9.9999998E-03   3.0083600E-01
  8.8075459E-01   9.9999998E-03   1.6052145E-01
  8.8077229E-01   9.9999998E-03   1.8057230E-01
  8.8078940E-01   9.9999998E-03   2.0063008E-01
  8.8079560E-01   9.9999998E-03   2.2069821E-01
  8.8077497E-01   9.9999998E-03   2.4074283E-01
  8.8072985E-01   9.9999998E-03   2.6076233E-01
  8.8066953E-01   9.9999998E-03   2.8078789E-01
  8.8058710E-01   9.9999998E-03   3.0081093E-01
  9.0092474E-01   9.9999998E-03   1.6049992E-01
  9.0094769E-01   9.9999998E-03   1.8054953E-01
  9.0097028E-01   9.9999998E-03   2.0060536E-01
  9.0097785E-01   9.9999998E-03   2.2066738E-01
  9.0095282E-01   9.9999998E-03   2.4071009E-01
  9.0090108E-01   9.9999998E-03   2.6073119E-01
  9.0082985E-01   9.9999998E-03   2.8075719E-01
  9.0073347E-01   9.9999998E-03   3.0078024E-01
  9.2104965E-01   9.9999998E-03   1.6047230E-01
  9.2108172E-01   9.9999998E-03   1.8051998E-01
  9.2111421E-01   9.9999998E-03   2.0057251E-01
  9.2112470E-01   9.9999998E-03   2.2062565E-01
  9.2109495E-01   9.9999998E-03   2.4066891E-01
  9.2103875E-01   9.9999998E-03   2.6069421E-01
  9.2095989E-01   9.9999998E-03   2.8072223E-01
  9.2085630E-01   9.9999998E-03   3.0074480E-01
  9.4109750E-01   9.9999998E-03   1.6044113E-01
  9.4113469E-01   9.9999998E-03   1.8048726E-01
  9.4117671E-01   9.9999998E-03   2.0053700E-01
  9.4120991E-01   9.9999998E-03   2.2058383E-01
  9.4119829E-01   9.9999998E-03   2.4062158E-01
  9.4114035E-01   9.9999998E-03   2.6065311E-01
  9.4105673E-01   9.9999998E-03   2.8068393E-01
  9.4095135E-01   9.9999998E-03   3.0070597E-01
  9.6110886E-01   9.9999998E-03   1.6040993E-01
  9.6114826E-01   9.9999998E-03   1.8045460E-01
  9.6119314E-01   9.9999998E-03   2.0050137E-01
  9.6123642E-01   9.9999998E-03   2.2054873E-01
  9.6125519E-01   9.9999998E-03   2.4057920E-01
  9.6121418E-01   9.9999998E-03   2.6060921E-01
  9.6113032E-01   9.9999998E-03   2.8064278E-01
  9.6102637E-01   9.9999998E-03   3.0066401E-01
  9.8110491E-01   9.9999998E-03   1.6038115E-01
  9.8114568E-01   9.9999998E-03   1.8042365E-01
  9.8119241E-01   9.9999998E-03   2.0046622E-01
  9.8124117E-01   9.9999998E-03   2.2051291E-01
  9.8127586E-01   9.9999998E-03   2.4054238E-01
  9.8126620E-01   9.9999998E-03   2.6056439E-01
  9.8119318E-01   9.9999998E-03   2.8059837E-01
  9.8109466E-01   9.9999998E-03   3.0061883E-01
  1.0010942E+00   9.9999998E-03   1.6035452E-01
  1.0011363E+00   9.9999998E-03   1.8039341E-01
  1.0011845E+00   9.9999998E-03   2.0043278E-01
  1.0012364E+00   9.9999998E-03   2.2047396E-01
  1.0012813E+00   9.9999998E-03   2.4050361E-01
  1.0012981E+00   9.9999998E-03   2.6051974E-01
  1.0012505E+00   9.9999998E-03   2.8055099E-01
  1.0011666E+00   9.9999998E-03   3.0057120E-01
  1.0210797E+00   9.9999998E-03   1.6032889E-01
  1.0211232E+00   9.9999998E-03   1.8036561E-01
  1.0211735E+00   9.9999998E-03   2.0040187E-01
  1.0212283E+00   9.9999998E-03   2.2043607E-01
  1.0212809E+00   9.9999998E-03   2.4046226E-01
  1.0213159E+00   9.9999998E-03   2.6047546E-01
  1.0213075E+00   9.9999998E-03   2.8050190E-01
  1.0212501E+00   9.9999998E-03   3.0052236E-01
  1.0410614E+00   9.9999998E-03   1.6030434E-01
  1.0411075E+00   9.9999998E-03   1.8033825E-01
  1.0411606E+00   9.9999998E-03   2.0036919E-01
  1.0412197E+00   9.9999998E-03   2.2039892E-01
  1.0412785E+00   9.9999998E-03   2.4042109E-01
  1.0413285E+00   9.9999998E-03   2.6043370E-01
  1.0413666E+00   9.9999998E-03   2.8045458E-01
  1.0413551E+00   9.9999998E-03   3.0047289E-01
  1.0610410E+00   9.9999998E-03   1.6027968E-01
  1.0610901E+00   9.9999998E-03   1.8030971E-01
  1.0611470E+00   9.9999998E-03   2.0033641E-01
  1.0612117E+00   9.9999998E-03   2.2036244E-01
  1.0612762E+00   9.9999998E-03   2.4038239E-01
  1.0613427E+00   9.9999998E-03   2.6039502E-01
  1.0614084E+00   9.9999998E-03   2.8041470E-01
  1.0614562E+00   9.9999998E-03   3.0043098E-01
  1.0810196E+00   9.9999998E-03   1.6025509E-01
  1.0810717E+00   9.9999998E-03   1.8027925E-01
  1.0811342E+00   9.9999998E-03   2.0030296E-01
  1.0812045E+00   9.9999998E-03   2.2032727E-01
  1.0812742E+00   9.9999998E-03   2.4034384E-01
  1.0813509E+00   9.9999998E-03   2.6035708E-01
  1.0814322E+00   9.9999998E-03   2.8037745E-01
  1.0814974E+00   9.9999998E-03   3.0039251E-01
  1.1009983E+00   9.9999998E-03   1.6022755E-01
  1.1010550E+00   9.9999998E-03   1.8024836E-01
  1.1011233E+00   9.9999998E-03   2.0027022E-01
  1.1011978E+00   9.9999998E-03   2.2029097E-01
  1.1012716E+00   9.9999998E-03   2.4030463E-01
  1.1013509E+00   9.9999998E-03   2.6031956E-01
  1.1014372E+00   9.9999998E-03   2.8034276E-01
  1.1209793E+00   9.9999998E-03   1.6019909E-01
  1.1210415E+00   9.9999998E-03   1.8021789E-01
  1.1211146E+00   9.9999998E-03   2.0023786E-01
  1.1211923E+00   9.9999998E-03   2.2025564E-01
  1.1212677E+00   9.9999998E-03   2.4026839E-01
  1.1213475E+00   9.9999998E-03   2.6028880E-01
  1.1214252E+00   9.9999998E-03   2.8031239E-01
  1.1409647E+00   9.9999998E-03   1.6017170E-01
  1.1410321E+00   9.9999998E-03   1.8018982E-01
  1.1411097E+00   9.9999998E-03   2.0020966E-01
  1.1411892E+00   9.9999998E-03   2.2022632E-01
  1.1412632E+00   9.9999998E-03   2.4024202E-01
  1.1413405E+00   9.9999998E-03   2.6026714E-01
  1.1609554E+00   9.9999998E-03   1.6014792E-01
  1.1610284E+00   9.9999998E-03   1.8016763E-01
  1.1611104E+00   9.9999998E-03   2.0018871E-01
  1.1611881E+00   9.9999998E-03   2.2020553E-01
  1.1612611E+00   9.9999998E-03   2.4022801E-01
  1.1613231E+00   9.9999998E-03   2.6025015E-01
  1.1809542E+00   9.9999998E-03   1.6013214E-01
  1.1810349E+00   9.9999998E-03   1.8015586E-01
  1.1811157E+00   9.9999998E-03   2.0017743E-01
  1.1811879E+00   9.9999998E-03   2.2019666E-01
  1.1812505E+00   9.9999998E-03   2.4022028E-01
  1.2009674E+00   9.9999998E-03   1.6012934E-01
  1.2010477E+00   9.9999998E-03   1.8015255E-01
  1.2011222E+00   9.9999998E-03   2.0017542E-01
  1.2011794E+00   9.9999998E-03   2.2019391E-01
  1.2209840E+00   9.9999998E-03   1.6013180E-01
  1.2210531E+00   9.9999998E-03   1.8015361E-01
  1.2211134E+00   9.9999998E-03   2.0017546E-01
  1.2211409E+00   9.9999998E-03   2.2018164E-01
  1.2409823E+00   9.9999998E-03   1.6013135E-01
  1.2410339E+00   9.9999998E-03   1.8014988E-01
  1.2609527E+00   9.9999998E-03   1.6012479E-01
VERTICES 2975 5950
1 0
1 1
1 2
1 3
1 4
1 5
1 6
1 7
1 8
1 9
1 10
1 11
1 12
1 13
1 14
1 15
1 16
1 17
1 18
1 19
1 20
1 21
1 22
1 23
1 24
1 25
1 26
1 27
1 28
1 29
1 30
1 31
1 32
1 33
1 34
1 35
1 36
1 37
1 38
1 39
1 40
1 41
1 42
1 43
1 44
1 45
1 46
1 47
1 48
1 49
1 50
1 51
1 52
1 53
1 54
1 55
1 56
1 57
1 58
1 59
1 60
1 61
1 62
1 63
1 64
1 65
1 66
1 67
1 68
1 69
1 70
1 71
1 72
1 73
1 74
1 75
1 76
1 77
1 78
1 79
1 80
1 81
1 82
1 83
1 84
1 85
1 86
1 87
1 88
1 89
1 90
1 91
1 92
1 93
1 94
1 95
1 96
1 97
1 98
1 99
1 100
1 101
1 102
1 103
1 104
1 105
1 106
1 107
1 108
1 109
1 110
1 111
1 112
1 113
1 114
1 115
1 116
1 117
1 118
1 119
1 120
1 121
1 122
1 123
1 124
1 125
1 126
1 127
1 128
1 129
1 130
1 131
1 132
1 133
1 134
1 135
1 136
1 137
1 138
1 139
1 140
1 141
1 142
1 143
1 144
1 145
1 146
1 147
1 148
1 149
1 150
1 151
1 152
1 153
1 154
1 155
1 156
1 157
1 158
1 159
1 160
1 161
1 162
1 163
1 164
1 165
1 166
1 167
1 168
1 169
1 170
1 171
1 172
1 173
1 174
1 175
1 176
1 177
1 178
1 179
1 180
1 181
1 182
1 183
1 184
1 185
1 186
1 187
1 188
1 189
1 190
1 191
1 192
1 193
1 194
1 195
1 196
1 197
1 198
1 199
1 200
1 201
1 202
1 203
1 204
1 205
1 206
1 207
1 208
1 209
1 210
1 211
1 212
1 213
1 214
1 215
1 216
1 217
1 218
1 219
1 220
1 221
1 222
1 223
1 224
1 225
1 226
1 227
1 228
1 229
1 230
1 231
1 232
1 233
1 234
1 235
1 236
1 237
1 238
1 239
1 240
1 241
1 242
1 243
1 244
1 245
1 246
1 247
1 248
1 249
1 250
1 251
1 252
1 253
1 254
1 255
1 256
1 257
1 258
1 259
1 260
1 261
1 262
1 263
1 264
1 265
1 266
1 267
1 268
1 269
1 270
1 271
1 272
1 273
1 274
1 275
1 276
1 277
1 278
1 279
1 280
1 281
1 282
1 283
1 284
1 285
1 286
1 287
1 288
1 289
1 290
1 291
1 292
1 293
1 294
1 295
1 296
1 297
1 298
1 299
1 300
1 301
1 302
1 303
1 304
1 305
1 306
1 307
1 308
1 309
1 310
1 311
1 312
1 313
1 314
1 315
1 316
1 317
1 318
1 319
1 320
1 321
1 322
1 323
1 324
1 325
1 326
1 327
1 328
1 329
1 330
1 331
1 332
1 333
1 334
1 335
1 336
1 337
1 338
1 339
1 340
1 341
1 342
1 343
1 344
1 345
1 346
1 347
1 348
1 349
1 350
1 351
1 352
1 353
1 354
1 355
1 356
1 357
1 358
1 359
1 360
1 361
1 362
1 363
1 364
1 365
1 366
1 367
1 368
1 369
1 370
1 371
1 372
1 373
1 374
1 375
1 376
1 377
1 378
1 379
1 380
1 381
1 382
1 383
1 384
1 385
1 386
1 387
1 388
1 389
1 390
1 391
1 392
1 393
1 394
1 395
1 396
1 397
1 398
1 399
1 400
1 401
1 402
1 403
1 404
1 405
1 406
1 407
1 408
1 409
1 410
1 411
1 412
1 413
1 414
1 415
1 416
1 417
1 418
1 419
1 420
1 421
1 422
1 423
1 424
1 425
1 426
1 427
1 428
1 429
1 430
1 431
1 432
1 433
1 434
1 435
1 436
1 437
1 438
1 439
1 440
1 441
1 442
1 443
1 444
1 445
1 446
1 447
1 448
1 449
1 450
1 451
1 452
1 453
1 454
1 455
1 456
1 457
1 458
1 459
1 460
1 461
1 462
1 463
1 464
1 465
1 466
1 467
1 468
1 469
1 470
1 471
1 472
1 473
1 474
1 475
1 476
1 477
1 478
1 479
1 480
1 481
1 482
1 483
1 484
1 485
1 486
1 487
1 488
1 489
1 490
1 491
1 492
1 493
1 494
1 495
1 496
1 497
1 498
1 499
1 500
1 501
1 502
1 503
1 504
1 505
1 506
1 507
1 508
1 509
1 510
1 511
1 512
1 513
1 514
1 515
1 516
1 517
1 518
1 519
1 520
1 521
1 522
1 523
1 524
1 525
1 526
1 527
1 528
1 529
1 530
1 531
1 532
1 533
1 534
1 535
1 536
1 537
1 538
1 539
1 540
1 541
1 542
1 543
1 544
1 545
1 546
1 547
1 548
1 549
1 550
1 551
1 552
1 553
1 554
1 555
1 556
1 557
1 558
1 559
1 560
1 561
1 562
1 563
1 564
1 565
1 566
1 567
1 568
1 569
1 570
1 571
1 572
1 573
1 574
1 575
1 576
1 577
1 578
1 579
1 580
1 581
1 582
1 583
1 584
1 585
1 586
1 587
1 588
1 589
1 590
1 591
1 592
1 593
1 594
1 595
1 596
1 597
1 598
1 599
1 600
1 601
1 602
1 603
1 604
1 605
1 606
1 607
1 608
1 609
1 610
1 611
1 612
1 613
1 614
1 615
1 616
1 617
1 618
1 619
1 620
1 621
1 622
1 623
1 624
1 625
1 626
1 627
1 628
1 629
1 630
1 631
1 632
1 633
1 634
1 635
1 636
1 637
1 638
1 639
1 640
1 641
1 642
1 643
1 644
1 645
1 646
1 647
1 648
1 649
1 650
1 651
1 652
1 653
1 654
1 655
1 656
1 657
1 658
1 659
1 660
1 661
1 662
1 663
1 664
1 665
1 666
1 667
1 668
1 669
1 670
1 671
1 672
1 673
1 674
1 675
1 676
1 677
1 678
1 679
1 680
1 681
1 682
1 683
1 684
1 685
1 686
1 687
1 688
1 689
1 690
1 691
1 692
1 693
1 694
1 695
1 696
1 697
1 698
1 699
1 700
1 701
1 702
1 703
1 704
1 705
1 706
1 707
1 708
1 709
1 710
1 711
1 712
1 713
1 714
1 715
1 716
1 717
1 718
1 719
1 720
1 721
1 722
1 723
1 724
1 725
1 726
1 727
1 728
1 729
1 730
1 731
1 732
1 733
1 734
1 735
1 736
1 737
1 738
1 739
1 740
1 741
1 742
1 743
1 744
1 745
1 746
1 747
1 748
1 749
1 750
1 751
1 752
1 753
1 754
1 755
1 756
1 757
1 758
1 759
1 760
1 761
1 762
1 763
1 764
1 765
1 766
1 767
1 768
1 769
1 770
1 771
1 772
1 773
1 774
1 775
1 776
1 777
1 778
1 779
1 780
1 781
1 782
1 783
1 784
1 785
1 786
1 787
1 788
1 789
1 790
1 791
1 792
1 793
1 794
1 795
1 796
1 797
1 798
1 799
1 800
1 801
1 802
1 803
1 804
1 805
1 806
1 807
1 808
1 809
1 810
1 811
1 812
1 813
1 814
1 815
1 816
1 817
1 818
1 819
1 820
1 821
1 822
1 823
1 824
1 825
1 826
1 827
1 828
1 829
1 830
1 831
1 832
1 833
1 834
1 835
1 836
1 837
1 838
1 839
1 840
1 841
1 842
1 843
1 844
1 845
1 846
1 847
1 848
1 849
1 850
1 851
1 852
1 853
1 854
1 855
1 856
1 857
1 858
1 859
1 860
1 861
1 862
1 863
1 864
1 865
1 866
1 867
1 868
1 869
1 870
1 871
1 872
1 873
1 874
1 875
1 876
1 877
1 878
1 879
1 880
1 881
1 882
1 883
1 884
1 885
1 886
1 887
1 888
1 889
1 890
1 891
1 892
1 893
1 894
1 895
1 896
1 897
1 898
1 899
1 900
1 901
1 902
1 903
1 904
1 905
1 906
1 907
1 908
1 909
1 910
1 911
1 912
1 913
1 914
1 915
1 916
1 917
1 918
1 919
1 920
1 921
1 922
1 923
1 924
1 925
1 926
1 927
1 928
1 929
1 930
1 931
1 932
1 933
1 934
1 935
1 936
1 937
1 938
1 939
1 940
1 941
1 942
1 943
1 944
1 945
1 946
1 947
1 948
1 949
1 950
1 951
1 952
1 953
1 954
1 955
1 956
1 957
1 958
1 959
1 960
1 961
1 962
1 963
1 964
1 965
1 966
1 967
1 968
1 969
1 970
1 971
1 972
1 973
1 974
1 975
1 976
1 977
1 978
1 979
1 980
1 981
1 982
1 983
1 984
1 985
1 986
1 987
1 988
1 989
1 990
1 991
1 992
1 993
1 994
1 995
1 996
1 997
1 998
1 999
1 1000
1 1001
1 1002
1 1003
1 1004
1 1005
1 1006
1 1007
1 1008
1 1009
1 1010
1 1011
1 1012
1 1013
1 1014
1 1015
1 1016
1 1017
1 1018
1 1019
1 1020
1 1021
1 1022
1 1023
1 1024
1 1025
1 1026
1 1027
1 1028
1 1029
1 1030
1 1031
1 1032
1 1033
1 1034
1 1035
1 1036
1 1037
1 1038
1 1039
1 1040
1 1041
1 1042
1 1043
1 1044
1 1045
1 1046
1 1047
1 1048
1 1049
1 1050
1 1051
1 1052
1 1053
1 1054
1 1055
1 1056
1 1057
1 1058
1 1059
1 1060
1 1061
1 1062
1 1063
1 1064
1 1065
1 1066
1 1067
1 1068
1 1069
1 1070
1 1071
1 1072
1 1073
1 1074
1 1075
1 1076
1 1077
1 1078
1 1079
1 1080
1 1081
1 1082
1 1083
1 1084
1 1085
1 1086
1 1087
1 1088
1 1089
1 1090
1 1091
1 1092
1 1093
1 1094
1 1095
1 1096
1 1097
1 1098
1 1099
1 1100
1 1101
1 1102
1 1103
1 1104
1 1105
1 1106
1 1107
1 1108
1 1109
1 1110
1 1111
1 1112
1 1113
1 1114
1 1115
1 1116
1 1117
1 1118
1 1119
1 1120
1 1121
1 1122
1 1123
1 1124
1 1125
1 1126
1 1127
1 1128
1 1129
1 1130
1 1131
1 1132
1 1133
1 1134
1 1135
1 1136
1 1137
1 1138
1 1139
1 1140
1 1141
1 1142
1 1143
1 1144
1 1145
1 1146
1 1147
1 1148
1 1149
1 1150
1 1151
1 1152
1 1153
1 1154
1 1155
1 1156
1 1157
1 1158
1 1159
1 1160
1 1161
1 1162
1 1163
1 1164
1 1165
1 1166
1 1167
1 1168
1 1169
1 1170
1 1171
1 1172
1 1173
1 1174
1 1175
1 1176
1 1177
1 1178
1 1179
1 1180
1 1181
1 1182
1 1183
1 1184
1 1185
1 1186
1 1187
1 1188
1 1189
1 1190
1 1191
1 1192
1 1193
1 1194
1 1195
1 1196
1 1197
1 1198
1 1199
1 1200
1 1201
1 1202
1 1203
1 1204
1 1205
1 1206
1 1207
1 1208
1 1209
1 1210
1 1211
1 1212
1 1213
1 1214
1 1215
1 1216
1 1217
1 1218
1 1219
1 1220
1 1221
1 1222
1 1223
1 1224
1 1225
1 1226
1 1227
1 1228
1 1229
1 1230
1 1231
1 1232
1 1233
1 1234
1 1235
1 1236
1 1237
1 1238
1 1239
1 1240
1 1241
1 1242
1 1243
1 1244
1 1245
1 1246
1 1247
1 1248
1 1249
1 1250
1 1251
1 1252
1 1253
1 1254
1 1255
1 1256
1 1257
1 1258
1 1259
1 1260
1 1261
1 1262
1 1263
1 1264
1 1265
1 1266
1 1267
1 1268
1 1269
1 1270
1 1271
1 1272
1 1273
1 1274
1 1275
1 1276
1 1277
1 1278
1 1279
1 1280
1 1281
1 1282
1 1283
1 1284
1 1285
1 1286
1 1287
1 1288
1 1289
1 1290
1 1291
1 1292
1 1293
1 1294
1 1295
1 1296
1 1297
1 1298
1 1299
1 1300
1 1301
1 1302
1 1303
1 1304
1 1305
1 1306
1 1307
1 1308
1 1309
1 1310
1 1311
1 1312
1 1313
1 1314
1 1315
1 1316
1 1317
1 1318
1 1319
1 1320
1 1321
1 1322
1 1323
1 1324
1 1325
1 1326
1 1327
1 1328
1 1329
1 1330
1 1331
1 1332
1 1333
1 1334
1 1335
1 1336
1 1337
1 1338
1 1339
1 1340
1 1341
1 1342
1 1343
1 1344
1 1345
1 1346
1 1347
1 1348
1 1349
1 1350
1 1351
1 1352
1 1353
1 1354
1 1355
1 1356
1 1357
1 1358
1 1359
1 1360
1 1361
1 1362
1 1363
1 1364
1 1365
1 1366
1 1367
1 1368
1 1369
1 1370
1 1371
1 1372
1 1373
1 1374
1 1375
1 1376
1 1377
1 1378
1 1379
1 1380
1 1381
1 1382
1 1383
1 1384
1 1385
1 1386
1 1387
1 1388
1 1389
1 1390
1 1391
1 1392
1 1393
1 1394
1 1395
1 1396
1 1397
1 1398
1 1399
1 1400
1 1401
1 1402
1 1403
1 1404
1 1405
1 1406
1 1407
1 1408
1 1409
1 1410
1 1411
1 1412
1 1413
1 1414
1 1415
1 1416
1 1417
1 1418
1 1419
1 1420
1 1421
1 1422
1 1423
1 1424
1 1425
1 1426
1 1427
1 1428
1 1429
1 1430
1 1431
1 1432
1 1433
1 1434
1 1435
1 1436
1 1437
1 1438
1 1439
1 1440
1 1441
1 1442
1 1443
1 1444
1 1445
1 1446
1 1447
1 1448
1 1449
1 1450
1 1451
1 1452
1 1453
1 1454
1 1455
1 1456
1 1457
1 1458
1 1459
1 1460
1 1461
1 1462
1 1463
1 1464
1 1465
1 1466
1 1467
1 1468
1 1469
1 1470
1 1471
1 1472
1 1473
1 1474
1 1475
1 1476
1 1477
1 1478
1 1479
1 1480
1 1481
1 1482
1 1483
1 1484
1 1485
1 1486
1 1487
1 1488
1 1489
1 1490
1 1491
1 1492
1 1493
1 1494
1 1495
1 1496
1 1497
1 1498
1 1499
1 1500
1 1501
1 1502
1 1503
1 1504
1 1505
1 1506
1 1507
1 1508
1 1509
1 1510
1 1511
1 1512
1 1513
1 1514
1 1515
1 1516
1 1517
1 1518
1 1519
1 1520
1 1521
1 1522
1 1523
1 1524
1 1525
1 1526
1 1527
1 1528
1 1529
1 1530
1 1531
1 1532
1 1533
1 1534
1 1535
1 1536
1 1537
1 1538
1 1539
1 1540
1 1541
1 1542
1 1543
1 1544
1 1545
1 1546
1 1547
1 1548
1 1549
1 1550
1 1551
1 1552
1 1553
1 1554
1 1555
1 1556
1 1557
1 1558
1 1559
1 1560
1 1561
1 1562
1 1563
1 1564
1 1565
1 1566
1 1567
1 1568
1 1569
1 1570
1 1571
1 1572
1 1573
1 1574
1 1575
1 1576
1 1577
1 1578
1 1579
1 1580
1 1581
1 1582
1 1583
1 1584
1 1585
1 1586
1 1587
1 1588
1 1589
1 1590
1 1591
1 1592
1 1593
1 1594
1 1595
1 1596
1 1597
1 1598
1 1599
1 1600
1 1601
1 1602
1 1603
1 1604
1 1605
1 1606
1 1607
1 1608
1 1609
1 1610
1 1611
1 1612
1 1613
1 1614
1 1615
1 1616
1 1617
1 1618
1 1619
1 1620
1 1621
1 1622
1 1623
1 1624
1 1625
1 1626
1 1627
1 1628
1 1629
1 1630
1 1631
1 1632
1 1633
1 1634
1 1635
1 1636
1 1637
1 1638
1 1639
1 1640
1 1641
1 1642
1 1643
1 1644
1 1645
1 1646
1 1647
1 1648
1 1649
1 1650
1 1651
1 1652
1 1653
1 1654
1 1655
1 1656
1 1657
1 1658
1 1659
1 1660
1 1661
1 1662
1 1663
1 1664
1 1665
1 1666
1 1667
1 1668
1 1669
1 1670
1 1671
1 1672
1 1673
1 1674
1 1675
1 1676
1 1677
1 1678
1 1679
1 1680
1 1681
1 1682
1 1683
1 1684
1 1685
1 1686
1 1687
1 1688
1 1689
1 1690
1 1691
1 1692
1 1693
1 1694
1 1695
1 1696
1 1697
1 1698
1 1699
1 1700
1 1701
1 1702
1 1703
1 1704
1 1705
1 1706
1 1707
1 1708
1 1709
1 1710
1 1711
1 1712
1 1713
1 1714
1 1715
1 1716
1 1717
1 1718
1 1719
1 1720
1 1721
1 1722
1 1723
1 1724
1 1725
1 1726
1 1727
1 1728
1 1729
1 1730
1 1731
1 1732
1 1733
1 1734
1 1735
1 1736
1 1737
1 1738
1 1739
1 1740
1 1741
1 1742
1 1743
1 1744
1 1745
1 1746
1 1747
1 1748
1 1749
1 1750
1 1751
1 1752
1 1753
1 1754
1 1755
1 1756
1 1757
1 1758
1 1759
1 1760
1 1761
1 1762
1 1763
1 1764
1 1765
1 1766
1 1767
1 1768
1 1769
1 1770
1 1771
1 1772
1 1773
1 1774
1 1775
1 1776
1 1777
1 1778
1 1779
1 1780
1 1781
1 1782
1 1783
1 1784
1 1785
1 1786
1 1787
1 1788
1 1789
1 1790
1 1791
1 1792
1 1793
1 1794
1 1795
1 1796
1 1797
1 1798
1 1799
1 1800
1 1801
1 1802
1 1803
1 1804
1 1805
1 1806
1 1807
1 1808
1 1809
1 1810
1 1811
1 1812
1 1813
1 1814
1 1815
1 1816
1 1817
1 1818
1 1819
1 1820
1 1821
1 1822
1 1823
1 1824
1 1825
1 1826
1 1827
1 1828
1 1829
1 1830
1 1831
1 1832
1 1833
1 1834
1 1835
1 1836
1 1837
1 1838
1 1839
1 1840
1 1841
1 1842
1 1843
1 1844
1 1845
1 1846
1 1847
1 1848
1 1849
1 1850
1 1851
1 1852
1 1853
1 1854
1 1855
1 1856
1 1857
1 1858
1 1859
1 1860
1 1861
1 1862
1 1863
1 1864
1 1865
1 1866
1 1867
1 1868
1 1869
1 1870
1 1871
1 1872
1 1873
1 1874
1 1875
1 1876
1 1877
1 1878
1 1879
1 1880
1 1881
1 1882
1 1883
1 1884
1 1885
1 1886
1 1887
1 1888
1 1889
1 1890
1 1891
1 1892
1 1893
1 1894
1 1895
1 1896
1 1897
1 1898
1 1899
1 1900
1 1901
1 1902
1 1903
1 1904
1 1905
1 1906
1 1907
1 1908
1 1909
1 1910
1 1911
1 1912
1 1913
1 1914
1 1915
1 1916
1 1917
1 1918
1 1919
1 1920
1 1921
1 1922
1 1923
1 1924
1 1925
1 1926
1 1927
1 1928
1 1929
1 1930
1 1931
1 1932
1 1933
1 1934
1 1935
1 1936
1 1937
1 1938
1 1939
1 1940
1 1941
1 1942
1 1943
1 1944
1 1945
1 1946
1 1947
1 1948
1 1949
1 1950
1 1951
1 1952
1 1953
1 1954
1 1955
1 1956
1 1957
1 1958
1 1959
1 1960
1 1961
1 1962
1 1963
1 1964
1 1965
1 1966
1 1967
1 1968
1 1969
1 1970
1 1971
1 1972
1 1973
1 1974
1 1975
1 1976
1 1977
1 1978
1 1979
1 1980
1 1981
1 1982
1 1983
1 1984
1 1985
1 1986
1 1987
1 1988
1 1989
1 1990
1 1991
1 1992
1 1993
1 1994
1 1995
1 1996
1 1997
1 1998
1 1999
1 2000
1 2001
1 2002
1 2003
1 2004
1 2005
1 2006
1 2007
1 2008
1 2009
1 2010
1 2011
1 2012
1 2013
1 2014
1 2015
1 2016
1 2017
1 2018
1 2019
1 2020
1 2021
1 2022
1 2023
1 2024
1 2025
1 2026
1 2027
1 2028
1 2029
1 2030
1 2031
1 2032
1 2033
1 2034
1 2035
1 2036
1 2037
1 2038
1 2039
1 2040
1 2041
1 2042
1 2043
1 2044
1 2045
1 2046
1 2047
1 2048
1 2049
1 2050
1 2051
1 2052
1 2053
1 2054
1 2055
1 2056
1 2057
1 2058
1 2059
1 2060
1 2061
1 2062
1 2063
1 2064
1 2065
1 2066
1 2067
1 2068
1 2069
1 2070
1 2071
1 2072
1 2073
1 2074
1 2075
1 2076
1 2077
1 2078
1 2079
1 2080
1 2081
1 2082
1 2083
1 2084
1 2085
1 2086
1 2087
1 2088
1 2089
1 2090
1 2091
1 2092
1 2093
1 2094
1 2095
1 2096
1 2097
1 2098
1 2099
1 2100
1 2101
1 2102
1 2103
1 2104
1 2105
1 2106
1 2107
1 2108
1 2109
1 2110
1 2111
1 2112
1 2113
1 2114
1 2115
1 2116
1 2117
1 2118
1 2119
1 2120
1 2121
1 2122
1 2123
1 2124
1 2125
1 2126
1 2127
1 2128
1 2129
1 2130
1 2131
1 2132
1 2133
1 2134
1 2135
1 2136
1 2137
1 2138
1 2139
1 2140
1 2141
1 2142
1 2143
1 2144
1 2145
1 2146
1 2147
1 2148
1 2149
1 2150
1 2151
1 2152
1 2153
1 2154
1 2155
1 2156
1 2157
1 2158
1 2159
1 2160
1 2161
1 2162
1 2163
1 2164
1 2165
1 2166
1 2167
1 2168
1 2169
1 2170
1 2171
1 2172
1 2173
1 2174
1 2175
1 2176
1 2177
1 2178
1 2179
1 2180
1 2181
1 2182
1 2183
1 2184
1 2185
1 2186
1 2187
1 2188
1 2189
1 2190
1 2191
1 2192
1 2193
1 2194
1 2195
1 2196
1 2197
1 2198
1 2199
1 2200
1 2201
1 2202
1 2203
1 2204
1 2205
1 2206
1 2207
1 2208
1 2209
1 2210
1 2211
1 2212
1 2213
1 2214
1 2215
1 2216
1 2217
1 2218
1 2219
1 2220
1 2221
1 2222
1 2223
1 2224
1 2225
1 2226
1 2227
1 2228
1 2229
1 2230
1 2231
1 2232
1 2233
1 2234
1 2235
1 2236
1 2237
1 2238
1 2239
1 2240
1 2241
1 2242
1 2243
1 2244
1 2245
1 2246
1 2247
1 2248
1 2249
1 2250
1 2251
1 2252
1 2253
1 2254
1 2255
1 2256
1 2257
1 2258
1 2259
1 2260
1 2261
1 2262
1 2263
1 2264
1 2265
1 2266
1 2267
1 2268
1 2269
1 2270
1 2271
1 2272
1 2273
1 2274
1 2275
1 2276
1 2277
1 2278
1 2279
1 2280
1 2281
1 2282
1 2283
1 2284
1 2285
1 2286
1 2287
1 2288
1 2289
1 2290
1 2291
1 2292
1 2293
1 2294
1 2295
1 2296
1 2297
1 2298
1 2299
1 2300
1 2301
1 2302
1 2303
1 2304
1 2305
1 2306
1 2307
1 2308
1 2309
1 2310
1 2311
1 2312
1 2313
1 2314
1 2315
1 2316
1 2317
1 2318
1 2319
1 2320
1 2321
1 2322
1 2323
1 2324
1 2325
1 2326
1 2327
1 2328
1 2329
1 2330
1 2331
1 2332
1 2333
1 2334
1 2335
1 2336
1 2337
1 2338
1 2339
1 2340
1 2341
1 2342
1 2343
1 2344
1 2345
1 2346
1 2347
1 2348
1 2349
1 2350
1 2351
1 2352
1 2353
1 2354
1 2355
1 2356
1 2357
1 2358
1 2359
1 2360
1 2361
1 2362
1 2363
1 2364
1 2365
1 2366
1 2367
1 2368
1 2369
1 2370
1 2371
1 2372
1 2373
1 2374
1 2375
1 2376
1 2377
1 2378
1 2379
1 2380
1 2381
1 2382
1 2383
1 2384
1 2385
1 2386
1 2387
1 2388
1 2389
1 2390
1 2391
1 2392
1 2393
1 2394
1 2395
1 2396
1 2397
1 2398
1 2399
1 2400
1 2401
1 2402
1 2403
1 2404
1 2405
1 2406
1 2407
1 2408
1 2409
1 2410
1 2411
1 2412
1 2413
1 2414
1 2415
1 2416
1 2417
1 2418
1 2419
1 2420
1 2421
1 2422
1 2423
1 2424
1 2425
1 2426
1 2427
1 2428
1 2429
1 2430
1 2431
1 2432
1 2433
1 2434
1 2435
1 2436
1 2437
1 2438
1 2439
1 2440
1 2441
1 2442
1 2443
1 2444
1 2445
1 2446
1 2447
1 2448
1 2449
1 2450
1 2451
1 2452
1 2453
1 2454
1 2455
1 2456
1 2457
1 2458
1 2459
1 2460
1 2461
1 2462
1 2463
1 2464
1 2465
1 2466
1 2467
1 2468
1 2469
1 2470
1 2471
1 2472
1 2473
1 2474
1 2475
1 2476
1 2477
1 2478
1 2479
1 2480
1 2481
1 2482
1 2483
1 2484
1 2485
1 2486
1 2487
1 2488
1 2489
1 2490
1 2491
1 2492
1 2493
1 2494
1 2495
1 2496
1 2497
1 2498
1 2499
1 2500
1 2501
1 2502
1 2503
1 2504
1 2505
1 2506
1 2507
1 2508
1 2509
1 2510
1 2511
1 2512
1 2513
1 2514
1 2515
1 2516
1 2517
1 2518
1 2519
1 2520
1 2521
1 2522
1 2523
1 2524
1 2525
1 2526
1 2527
1 2528
1 2529
1 2530
1 2531
1 2532
1 2533
1 2534
1 2535
1 2536
1 2537
1 2538
1 2539
1 2540
1 2541
1 2542
1 2543
1 2544
1 2545
1 2546
1 2547
1 2548
1 2549
1 2550
1 2551
1 2552
1 2553
1 2554
1 2555
1 2556
1 2557
1 2558
1 2559
1 2560
1 2561
1 2562
1 2563
1 2564
1 2565
1 2566
1 2567
1 2568
1 2569
1 2570
1 2571
1 2572
1 2573
1 2574
1 2575
1 2576
1 2577
1 2578
1 2579
1 2580
1 2581
1 2582
1 2583
1 2584
1 2585
1 2586
1 2587
1 2588
1 2589
1 2590
1 2591
1 2592
1 2593
1 2594
1 2595
1 2596
1 2597
1 2598
1 2599
1 2600
1 2601
1 2602
1 2603
1 2604
1 2605
1 2606
1 2607
1 2608
1 2609
1 2610
1 2611
1 2612
1 2613
1 2614
1 2615
1 2616
1 2617
1 2618
1 2619
1 2620
1 2621
1 2622
1 2623
1 2624
1 2625
1 2626
1 2627
1 2628
1 2629
1 2630
1 2631
1 2632
1 2633
1 2634
1 2635
1 2636
1 2637
1 2638
1 2639
1 2640
1 2641
1 2642
1 2643
1 2644
1 2645
1 2646
1 2647
1 2648
1 2649
1 2650
1 2651
1 2652
1 2653
1 2654
1 2655
1 2656
1 2657
1 2658
1 2659
1 2660
1 2661
1 2662
1 2663
1 2664
1 2665
1 2666
1 2667
1 2668
1 2669
1 2670
1 2671
1 2672
1 2673
1 2674
1 2675
1 2676
1 2677
1 2678
1 2679
1 2680
1 2681
1 2682
1 2683
1 2684
1 2685
1 2686
1 2687
1 2688
1 2689
1 2690
1 2691
1 2692
1 2693
1 2694
1 2695
1 2696
1 2697
1 2698
1 2699
1 2700
1 2701
1 2702
1 2703
1 2704
1 2705
1 2706
1 2707
1 2708
1 2709
1 2710
1 2711
1 2712
1 2713
1 2714
1 2715
1 2716
1 2717
1 2718
1 2719
1 2720
1 2721
1 2722
1 2723
1 2724
1 2725
1 2726
1 2727
1 2728
1 2729
1 2730
1 2731
1 2732
1 2733
1 2734
1 2735
1 2736
1 2737
1 2738
1 2739
1 2740
1 2741
1 2742
1 2743
1 2744
1 2745
1 2746
1 2747
1 2748
1 2749
1 2750
1 2751
1 2752
1 2753
1 2754
1 2755
1 2756
1 2757
1 2758
1 2759
1 2760
1 2761
1 2762
1 2763
1 2764
1 2765
1 2766
1 2767
1 2768
1 2769
1 2770
1 2771
1 2772
1 2773
1 2774
1 2775
1 2776
1 2777
1 2778
1 2779
1 2780
1 2781
1 2782
1 2783
1 2784
1 2785
1 2786
1 2787
1 2788
1 2789
1 2790
1 2791
1 2792
1 2793
1 2794
1 2795
1 2796
1 2797
1 2798
1 2799
1 2800
1 2801
1 2802
1 2803
1 2804
1 2805
1 2806
1 2807
1 2808
1 2809
1 2810
1 2811
1 2812
1 2813
1 2814
1 2815
1 2816
1 2817
1 2818
1 2819
1 2820
1 2821
1 2822
1 2823
1 2824
1 2825
1 2826
1 2827
1 2828
1 2829
1 2830
1 2831
1 2832
1 2833
1 2834
1 2835
1 2836
1 2837
1 2838
1 2839
1 2840
1 2841
1 2842
1 2843
1 2844
1 2845
1 2846
1 2847
1 2848
1 2849
1 2850
1 2851
1 2852
1 2853
1 2854
1 2855
1 2856
1 2857
1 2858
1 2859
1 2860
1 2861
1 2862
1 2863
1 2864
1 2865
1 2866
1 2867
1 2868
1 2869
1 2870
1 2871
1 2872
1 2873
1 2874
1 2875
1 2876
1 2877
1 2878
1 2879
1 2880
1 2881
1 2882
1 2883
1 2884
1 2885
1 2886
1 2887
1 2888
1 2889
1 2890
1 2891
1 2892
1 2893
1 2894
1 2895
1 2896
1 2897
1 2898
1 2899
1 2900
1 2901
1 2902
1 2903
1 2904
1 2905
1 2906
1 2907
1 2908
1 2909
1 2910
1 2911
1 2912
1 2913
1 2914
1 2915
1 2916
1 2917
1 2918
1 2919
1 2920
1 2921
1 2922
1 2923
1 2924
1 2925
1 2926
1 2927
1 2928
1 2929
1 2930
1 2931
1 2932
1 2933
1 2934
1 2935
1 2936
1 2937
1 2938
1 2939
1 2940
1 2941
1 2942
1 2943
1 2944
1 2945
1 2946
1 2947
1 2948
1 2949
1 2950
1 2951
1 2952
1 2953
1 2954
1 2955
1 2956
1 2957
1 2958
1 2959
1 2960
1 2961
1 2962
1 2963
1 2964
1 2965
1 2966
1 2967
1 2968
1 2969
1 2970
1 2971
1 2972
1 2973
1 2974
POINT_DATA 2975
SCALARS Idp unsigned_int
LOOKUP_TABLE default
0 1 39 40 41 80 81 82 121 122 123 162 163 164 203 204 205 244 245 246 285 286 287 326 327 328 367 368 369 408 409 410 449 450 451 461 462 463 471 472 473 481 482 483 491 492 493 501 502 503 511 512 513 521 522 523 531 532 533 541 542 543 551 552 2 3 4 5 6 7 8 9 42 43 44 45 46 47 48 49 83 84 85 86 87 88 89 90 124 125 126 127 128 129 130 131 165 166 167 168 169 170 171 172 206 207 208 209 210 211 212 213 247 248 249 250 251 252 253 254 288 289 290 291 292 293 294 295 329 330 331 332 333 334 335 336 370 371 372 373 374 375 376 377 411 412 413 414 415 416 417 418 452 453 454 464 465 474 475 484 485 494 495 504 505 514 515 524 525 534 535 544 545 553 554 10 11 12 13 14 15 16 17 18 50 51 52 53 54 55 56 57 58 91 92 93 94 95 96 97 98 99 132 133 134 135 136 137 138 139 140 173 174 175 176 177 178 179 180 181 214 215 216 217 218 219 220 221 222 255 256 257 258 259 260 261 262 263 296 297 298 299 300 301 302 303 304 337 338 339 340 341 342 343 344 345 378 379 380 381 382 383 384 385 386 419 420 421 422 423 424 425 426 427 19 20 21 22 23 24 25 26 59 60 61 62 63 64 65 66 100 101 102 103 104 105 106 107 141 142 143 144 145 146 147 148 182 183 184 185 186 187 188 189 223 224 225 226 227 228 229 230 264 265 266 267 268 269 270 271 305 306 307 308 309 310 311 312 346 347 348 349 350 351 352 353 387 388 389 390 391 392 393 394 428 429 430 431 432 433 434 435 27 28 29 30 31 32 33 34 35 67 68 69 70 71 72 73 74 75 108 109 110 111 112 113 114 115 116 149 150 151 152 153 154 155 156 157 190 191 192 193 194 195 196 197 198 231 232 233 234 235 236 237 238 239 272 273 274 275 276 277 278 279 280 313 314 315 316 317 318 319 320 321 354 355 356 357 358 359 360 361 362 395 396 397 398 399 400 401 402 403 436 437 438 439 440 441 442 443 444 455 456 466 476 486 496 506 516 526 536 546 555 36 37 38 76 77 78 79 117 118 119 120 158 159 160 161 199 200 201 202 240 241 242 243 281 282 283 284 322 323 324 325 363 364 365 366 404 405 406 407 445 446 447 448 457 458 459 460 467 468 469 470 477 478 479 480 487 488 489 490 497 498 499 500 507 508 509 510 517 518 519 520 527 528 529 530 537 538 539 540 547 548 549 550 556 557 558 559 560 561 562 563 564 565 566 567 568 569 570 571 572 573 574 575 576 577 578 579 580 581 582 583 584 585 586 587 588 589 590 591 592 593 594 595 596 597 598 599 600 601 602 603 604 605 606 607 608 609 610 611 612 613 614 615 616 617 618 619 620 621 622 623 624 625 626 627 628 629 630 631 632 633 634 635 636 637 638 639 640 641 642 643 644 645 646 647 648 649 650 651 652 653 654 655 656 657 658 659 660 661 662 663 664 665 666 667 668 669 670 671 672 673 674 675 676 677 678 679 680 681 682 683 684 685 686 687 688 689 690 691 692 693 694 695 696 697 698 699 700 701 702 703 704 705 706 707 708 709 710 711 712 713 714 715 716 717 718 719 720 721 722 723 724 725 726 727 728 729 730 731 732 733 734 735 736 737 738 739 740 741 742 743 744 745 746 747 748 749 750 751 752 753 754 755 756 757 758 759 760 761 762 763 764 765 766 767 768 769 770 771 772 773 774 775 776 777 778 779 780 781 782 783 784 785 786 787 788 789 790 791 792 793 794 795 796 797 798 799 800 801 802 803 804 805 806 807 808 809 810 811 812 813 814 815 816 817 818 819 820 821 822 823 824 825 826 827 828 829 830 831 832 833 834 835 836 837 838 839 840 841 842 843 844 845 846 847 848 849 850 851 852 853 854 855 856 857 858 859 860 861 862 863 864 865 866 867 868 869 870 871 872 873 874 875 876 877 878 879 880 881 882 883 884 885 886 887 888 889 890 891 892 893 894 895 896 897 898 899 900 901 902 903 904 905 906 907 908 909 910 911 912 913 914 915 916 917 918 919 920 921 922 923 924 925 926 927 928 929 930 931 932 933 934 935 936 937 938 939 940 941 942 943 944 945 946 947 948 949 950 951 952 953 954 955 956 957 958 959 960 961 962 963 964 965 966 967 968 969 970 971 972 973 974 975 976 977 978 979 980 981 982 983 984 985 986 987 988 989 990 991 992 993 994 995 996 997 998 999 1000 1001 1002 1003 1004 1005 1006 1007 1008 1009 1010 1011 1012 1013 1014 1015 1016 1017 1018 1019 1020 1021 1022 1023 1024 1025 1026 1027 1028 1029 1030 1031 1032 1033 1034 1035 1060 1061 1062 1063 1064 1065 1091 1092 1093 1094 1095 1096 1122 1123 1124 1125 1126 1127 1153 1154 1155 1156 1157 1158 1184 1185 1186 1187 1188 1189 1215 1216 1217 1218 1219 1220 1246 1247 1248 1249 1250 1251 1277 1278 1279 1280 1281 1282 1308 1309 1310 1311 1312 1313 1339 1340 1341 1342 1343 1344 1370 1371 1372 1373 1374 1375 1401 1402 1403 1404 1405 1406 1432 1433 1434 1435 1436 1437 1463 1464 1465 1466 1467 1468 1494 1495 1496 1497 1498 1499 1525 1526 1527 1528 1529 1530 1556 1557 1558 1559 1560 1561 1587 1588 1589 1590 1591 1592 1618 1619 1620 1621 1622 1623 1649 1650 1651 1652 1653 1654 1680 1681 1682 1683 1684 1685 1711 1712 1713 1714 1715 1716 1742 1743 1744 1745 1746 1747 1773 1774 1775 1776 1777 1778 1804 1805 1806 1807 1808 1809 1835 1836 1837 1838 1839 1840 1866 1867 1868 1869 1870 1871 1897 1898 1899 1900 1901 1902 1928 1929 1930 1931 1932 1933 1959 1960 1961 1962 1963 1964 1990 1991 1992 1993 1994 1995 2021 2022 2023 2024 2025 2026 2052 2053 2054 2055 2056 2057 2083 2084 2085 2086 2087 2088 2114 2115 2116 2117 2118 2119 2145 2146 2147 2148 2149 2150 2176 2177 2178 2179 2180 2181 2207 2208 2209 2210 2211 2212 2238 2239 2240 2241 2242 2243 2269 2270 2271 2272 2273 2274 2300 2301 2302 2303 2304 2305 2331 2332 2333 2334 2335 2336 2362 2363 2364 2365 2366 2367 2393 2394 2395 2396 2397 2398 2424 2425 2426 2427 2428 2429 2455 2456 2457 2458 2459 2460 2486 2487 2488 2489 2490 2491 2517 2518 2519 2520 2521 2522 2548 2549 2550 2551 2552 2553 2579 2580 2581 2582 2583 2584 2610 2611 2612 2613 2614 2615 2641 2642 2643 2644 2645 2646 2672 2673 2674 2675 2676 2677 2703 2704 2705 2706 2707 2708 2734 2735 2736 2737 2738 2763 2764 2765 2766 2767 2792 2793 2794 2795 2819 2820 2821 2822 2846 2847 2848 2871 2872 2894 2895 1036 1037 1038 1039 1040 1041 1042 1043 1044 1066 1067 1068 1069 1070 1071 1072 1073 1074 1097 1098 1099 1100 1101 1102 1103 1104 1105 1128 1129 1130 1131 1132 1133 1134 1135 1136 1159 1160 1161 1162 1163 1164 1165 1166 1167 1190 1191 1192 1193 1194 1195 1196 1197 1198 1221 1222 1223 1224 1225 1226 1227 1228 1229 1252 1253 1254 1255 1256 1257 1258 1259 1260 1283 1284 1285 1286 1287 1288 1289 1290 1291 1314 1315 1316 1317 1318 1319 1320 1321 1322 1345 1346 1347 1348 1349 1350 1351 1352 1353 1376 1377 1378 1379 1380 1381 1382 1383 1384 1407 1408 1409 1410 1411 1412 1413 1414 1415 1438 1439 1440 1441 1442 1443 1444 1445 1446 1469 1470 1471 1472 1473 1474 1475 1476 1477 1500 1501 1502 1503 1504 1505 1506 1507 1508 1531 1532 1533 1534 1535 1536 1537 1538 1539 1562 1563 1564 1565 1566 1567 1568 1569 1570 1593 1594 1595 1596 1597 1598 1599 1600 1601 1624 1625 1626 1627 1628 1629 1630 1631 1632 1655 1656 1657 1658 1659 1660 1661 1662 1663 1686 1687 1688 1689 1690 1691 1692 1693 1694 1717 1718 1719 1720 1721 1722 1723 1724 1725 1748 1749 1750 1751 1752 1753 1754 1755 1756 1779 1780 1781 1782 1783 1784 1785 1786 1787 1810 1811 1812 1813 1814 1815 1816 1817 1818 1841 1842 1843 1844 1845 1846 1847 1848 1849 1872 1873 1874 1875 1876 1877 1878 1879 1880 1903 1904 1905 1906 1907 1908 1909 1910 1911 1934 1935 1936 1937 1938 1939 1940 1941 1942 1965 1966 1967 1968 1969 1970 1971 1972 1973 1996 1997 1998 1999 2000 2001 2002 2003 2004 2027 2028 2029 2030 2031 2032 2033 2034 2035 2058 2059 2060 2061 2062 2063 2064 2065 2066 2089 2090 2091 2092 2093 2094 2095 2096 2097 2120 2121 2122 2123 2124 2125 2126 2127 2128 2151 2152 2153 2154 2155 2156 2157 2158 2159 2182 2183 2184 2185 2186 2187 2188 2189 2190 2213 2214 2215 2216 2217 2218 2219 2220 2221 2244 2245 2246 2247 2248 2249 2250 2251 2252 2275 2276 2277 2278 2279 2280 2281 2282 2283 2306 2307 2308 2309 2310 2311 2312 2313 2314 2337 2338 2339 2340 2341 2342 2343 2344 2345 2368 2369 2370 2371 2372 2373 2374 2375 2376 2399 2400 2401 2402 2403 2404 2405 2406 2407 2430 2431 2432 2433 2434 2435 2436 2437 2438 2461 2462 2463 2464 2465 2466 2467 2468 2469 2492 2493 2494 2495 2496 2497 2498 2499 2500 2523 2524 2525 2526 2527 2528 2529 2530 2531 2554 2555 2556 2557 2558 2559 2560 2561 2562 2585 2586 2587 2588 2589 2590 2591 2592 2593 2616 2617 2618 2619 2620 2621 2622 2623 2624 2647 2648 2649 2650 2651 2652 2653 2654 2655 2678 2679 2680 2681 2682 2683 2684 2685 2686 2709 2710 2711 2712 2713 2714 2715 2716 2717 2739 2740 2741 2742 2743 2744 2745 2746 2747 2768 2769 2770 2771 2772 2773 2774 2775 2776 2796 2797 2798 2799 2800 2801 2802 2803 2804 2823 2824 2825 2826 2827 2828 2829 2830 2831 2849 2850 2851 2852 2853 2854 2855 2856 2857 2873 2874 2875 2876 2877 2878 2879 2880 2881 2896 2897 2898 2899 2900 2901 2902 2903 2904 2917 2918 2919 2920 2921 2922 2923 2924 2925 2936 2937 2938 2939 2940 2941 2942 2943 2953 2954 2955 2956 2957 2958 2966 2967 2968 2969 1045 1046 1047 1048 1049 1050 1051 1052 1075 1076 1077 1078 1079 1080 1081 1082 1106 1107 1108 1109 1110 1111 1112 1113 1137 1138 1139 1140 1141 1142 1143 1144 1168 1169 1170 1171 1172 1173 1174 1175 1199 1200 1201 1202 1203 1204 1205 1206 1230 1231 1232 1233 1234 1235 1236 1237 1261 1262 1263 1264 1265 1266 1267 1268 1292 1293 1294 1295 1296 1297 1298 1299 1323 1324 1325 1326 1327 1328 1329 1330 1354 1355 1356 1357 1358 1359 1360 1361 1385 1386 1387 1388 1389 1390 1391 1392 1416 1417 1418 1419 1420 1421 1422 1423 1447 1448 1449 1450 1451 1452 1453 1454 1478 1479 1480 1481 1482 1483 1484 1485 1509 1510 1511 1512 1513 1514 1515 1516 1540 1541 1542 1543 1544 1545 1546 1547 1571 1572 1573 1574 1575 1576 1577 1578 1602 1603 1604 1605 1606 1607 1608 1609 1633 1634 1635 1636 1637 1638 1639 1640 1664 1665 1666 1667 1668 1669 1670 1671 1695 1696 1697 1698 1699 1700 1701 1702 1726 1727 1728 1729 1730 1731 1732 1733 1757 1758 1759 1760 1761 1762 1763 1764 1788 1789 1790 1791 1792 1793 1794 1795 1819 1820 1821 1822 1823 1824 1825 1826 1850 1851 1852 1853 1854 1855 1856 1857 1881 1882 1883 1884 1885 1886 1887 1888 1912 1913 1914 1915 1916 1917 1918 1919 1943 1944 1945 1946 1947 1948 1949 1950 1974 1975 1976 1977 1978 1979 1980 1981 2005 2006 2007 2008 2009 2010 2011 2012 2036 2037 2038 2039 2040 2041 2042 2043 2067 2068 2069 2070 2071 2072 2073 2074 2098 2099 2100 2101 2102 2103 2104 2105 2129 2130 2131 2132 2133 2134 2135 2136 2160 2161 2162 2163 2164 2165 2166 2167 2191 2192 2193 2194 2195 2196 2197 2198 2222 2223 2224 2225 2226 2227 2228 2229 2253 2254 2255 2256 2257 2258 2259 2260 2284 2285 2286 2287 2288 2289 2290 2291 2315 2316 2317 2318 2319 2320 2321 2322 2346 2347 2348 2349 2350 2351 2352 2353 2377 2378 2379 2380 2381 2382 2383 2384 2408 2409 2410 2411 2412 2413 2414 2415 2439 2440 2441 2442 2443 2444 2445 2446 2470 2471 2472 2473 2474 2475 2476 2477 2501 2502 2503 2504 2505 2506 2507 2508 2532 2533 2534 2535 2536 2537 2538 2539 2563 2564 2565 2566 2567 2568 2569 2570 2594 2595 2596 2597 2598 2599 2600 2601 2625 2626 2627 2628 2629 2630 2631 2632 2656 2657 2658 2659 2660 2661 2662 2663 2687 2688 2689 2690 2691 2692 2693 2694 2718 2719 2720 2721 2722 2723 2724 2725 2748 2749 2750 2751 2752 2753 2754 2755 2777 2778 2779 2780 2781 2782 2783 2784 2805 2806 2807 2808 2809 2810 2811 2812 2832 2833 2834 2835 2836 2837 2838 2839 2858 2859 2860 2861 2862 2863 2864 2865 2882 2883 2884 2885 2886 2887 2888 2889 2905 2906 2907 2908 2909 2910 2911 2912 2926 2927 2928 2929 2930 2931 2932 2933 2944 2945 2946 2947 2948 2949 2950 2951 2959 2960 2961 2962 2963 2964 2965 2970 2971 2972 2973 2974 1053 1054 1055 1056 1057 1058 1059 1083 1084 1085 1086 1087 1088 1089 1090 1114 1115 1116 1117 1118 1119 1120 1121 1145 1146 1147 1148 1149 1150 1151 1152 1176 1177 1178 1179 1180 1181 1182 1183 1207 1208 1209 1210 1211 1212 1213 1214 1238 1239 1240 1241 1242 1243 1244 1245 1269 1270 1271 1272 1273 1274 1275 1276 1300 1301 1302 1303 1304 1305 1306 1307 1331 1332 1333 1334 1335 1336 1337 1338 1362 1363 1364 1365 1366 1367 1368 1369 1393 1394 1395 1396 1397 1398 1399 1400 1424 1425 1426 1427 1428 1429 1430 1431 1455 1456 1457 1458 1459 1460 1461 1462 1486 1487 1488 1489 1490 1491 1492 1493 1517 1518 1519 1520 1521 1522 1523 1524 1548 1549 1550 1551 1552 1553 1554 1555 1579 1580 1581 1582 1583 1584 1585 1586 1610 1611 1612 1613 1614 1615 1616 1617 1641 1642 1643 1644 1645 1646 1647 1648 1672 1673 1674 1675 1676 1677 1678 1679 1703 1704 1705 1706 1707 1708 1709 1710 1734 1735 1736 1737 1738 1739 1740 1741 1765 1766 1767 1768 1769 1770 1771 1772 1796 1797 1798 1799 1800 1801 1802 1803 1827 1828 1829 1830 1831 1832 1833 1834 1858 1859 1860 1861 1862 1863 1864 1865 1889 1890 1891 1892 1893 1894 1895 1896 1920 1921 1922 1923 1924 1925 1926 1927 1951 1952 1953 1954 1955 1956 1957 1958 1982 1983 1984 1985 1986 1987 1988 1989 2013 2014 2015 2016 2017 2018 2019 2020 2044 2045 2046 2047 2048 2049 2050 2051 2075 2076 2077 2078 2079 2080 2081 2082 2106 2107 2108 2109 2110 2111 2112 2113 2137 2138 2139 2140 2141 2142 2143 2144 2168 2169 2170 2171 2172 2173 2174 2175 2199 2200 2201 2202 2203 2204 2205 2206 2230 2231 2232 2233 2234 2235 2236 2237 2261 2262 2263 2264 2265 2266 2267 2268 2292 2293 2294 2295 2296 2297 2298 2299 2323 2324 2325 2326 2327 2328 2329 2330 2354 2355 2356 2357 2358 2359 2360 2361 2385 2386 2387 2388 2389 2390 2391 2392 2416 2417 2418 2419 2420 2421 2422 2423 2447 2448 2449 2450 2451 2452 2453 2454 2478 2479 2480 2481 2482 2483 2484 2485 2509 2510 2511 2512 2513 2514 2515 2516 2540 2541 2542 2543 2544 2545 2546 2547 2571 2572 2573 2574 2575 2576 2577 2578 2602 2603 2604 2605 2606 2607 2608 2609 2633 2634 2635 2636 2637 2638 2639 2640 2664 2665 2666 2667 2668 2669 2670 2671 2695 2696 2697 2698 2699 2700 2701 2702 2726 2727 2728 2729 2730 2731 2732 2733 2756 2757 2758 2759 2760 2761 2762 2785 2786 2787 2788 2789 2790 2791 2813 2814 2815 2816 2817 2818 2840 2841 2842 2843 2844 2845 2866 2867 2868 2869 2870 2890 2891 2892 2893 2913 2914 2915 2916 2934 2935 2952 
FIELD FieldData 12
Idp 1 2975 float
0 1 39 40 41 80 81 82 121 122 123 162 163 164 203 204 205 244 245 246 285 286 287 326 327 328 367 368 369 408 409 410 449 450 451 461 462 463 471 472 473 481 482 483 491 492 493 501 502 503 511 512 513 521 522 523 531 532 533 541 542 543 551 552 2 3 4 5 6 7 8 9 42 43 44 45 46 47 48 49 83 84 85 86 87 88 89 90 124 125 126 127 128 129 130 131 165 166 167 168 169 170 171 172 206 207 208 209 210 211 212 213 247 248 249 250 251 252 253 254 288 289 290 291 292 293 294 295 329 330 331 332 333 334 335 336 370 371 372 373 374 375 376 377 411 412 413 414 415 416 417 418 452 453 454 464 465 474 475 484 485 494 495 504 505 514 515 524 525 534 535 544 545 553 554 10 11 12 13 14 15 16 17 18 50 51 52 53 54 55 56 57 58 91 92 93 94 95 96 97 98 99 132 133 134 135 136 137 138 139 140 173 174 175 176 177 178 179 180 181 214 215 216 217 218 219 220 221 222 255 256 257 258 259 260 261 262 263 296 297 298 299 300 301 302 303 304 337 338 339 340 341 342 343 344 345 378 379 380 381 382 383 384 385 386 419 420 421 422 423 424 425 426 427 19 20 21 22 23 24 25 26 59 60 61 62 63 64 65 66 100 101 102 103 104 105 106 107 141 142 143 144 145 146 147 148 182 183 184 185 186 187 188 189 223 224 225 226 227 228 229 230 264 265 266 267 268 269 270 271 305 306 307 308 309 310 311 312 346 347 348 349 350 351 352 353 387 388 389 390 391 392 393 394 428 429 430 431 432 433 434 435 27 28 29 30 31 32 33 34 35 67 68 69 70 71 72 73 74 75 108 109 110 111 112 113 114 115 116 149 150 151 152 153 154 155 156 157 190 191 192 193 194 195 196 197 198 231 232 233 234 235 236 237 238 239 272 273 274 275 276 277 278 279 280 313 314 315 316 317 318 319 320 321 354 355 356 357 358 359 360 361 362 395 396 397 398 399 400 401 402 403 436 437 438 439 440 441 442 443 444 455 456 466 476 486 496 506 516 526 536 546 555 36 37 38 76 77 78 79 117 118 119 120 158 159 160 161 199 200 201 202 240 241 242 243 281 282 283 284 322 323 324 325 363 364 365 366 404 405 406 407 445 446 447 448 457 458 459 460 467 468 469 470 477 478 479 480 487 488 489 490 497 498 499 500 507 508 509 510 517 518 519 520 527 528 529 530 537 538 539 540 547 548 549 550 556 557 558 559 560 561 562 563 564 565 566 567 568 569 570 571 572 573 574 575 576 577 578 579 580 581 582 583 584 585 586 587 588 589 590 591 592 593 594 595 596 597 598 599 600 601 602 603 604 605 606 607 608 609 610 611 612 613 614 615 616 617 618 619 620 621 622 623 624 625 626 627 628 629 630 631 632 633 634 635 636 637 638 639 640 641 642 643 644 645 646 647 648 649 650 651 652 653 654 655 656 657 658 659 660 661 662 663 664 665 666 667 668 669 670 671 672 673 674 675 676 677 678 679 680 681 682 683 684 685 686 687 688 689 690 691 692 693 694 695 696 697 698 699 700 701 702 703 704 705 706 707 708 709 710 711 712 713 714 715 716 717 718 719 720 721 722 723 724 725 726 727 728 729 730 731 732 733 734 735 736 737 738 739 740 741 742 743 744 745 746 747 748 749 750 751 752 753 754 755 756 757 758 759 760 761 762 763 764 765 766 767 768 769 770 771 772 773 774 775 776 777 778 779 780 781 782 783 784 785 786 787 788 789 790 791 792 793 794 795 796 797 798 799 800 801 802 803 804 805 806 807 808 809 810 811 812 813 814 815 816 817 818 819 820 821 822 823 824 825 826 827 828 829 830 831 832 833 834 835 836 837 838 839 840 841 842 843 844 845 846 847 848 849 850 851 852 853 854 855 856 857 858 859 860 861 862 863 864 865 866 867 868 869 870 871 872 873 874 875 876 877 878 879 880 881 882 883 884 885 886 887 888 889 890 891 892 893 894 895 896 897 898 899 900 901 902 903 904 905 906 907 908 909 910 911 912 913 914 915 916 917 918 919 920 921 922 923 924 925 926 927 928 929 930 931 932 933 934 935 936 937 938 939 940 941 942 943 944 945 946 947 948 949 950 951 952 953 954 955 956 957 958 959 960 961 962 963 964 965 966 967 968 969 970 971 972 973 974 975 976 977 978 979 980 981 982 983 984 985 986 987 988 989 990 991 992 993 994 995 996 997 998 999 1000 1001 1002 1003 1004 1005 1006 1007 1008 1009 1010 1011 1012 1013 1014 1015 1016 1017 1018 1019 1020 1021 1022 1023 1024 1025 1026 1027 1028 1029 1030 1031 1032 1033 1034 1035 1060 1061 1062 1063 1064 1065 1091 1092 1093 1094 1095 1096 1122 1123 1124 1125 1126 1127 1153 1154 1155 1156 1157 1158 1184 1185 1186 1187 1188 1189 1215 1216 1217 1218 1219 1220 1246 1247 1248 1249 1250 1251 1277 1278 1279 1280 1281 1282 1308 1309 1310 1311 1312 1313 1339 1340 1341 1342 1343 1344 1370 1371 1372 1373 1374 1375 1401 1402 1403 1404 1405 1406 1432 1433 1434 1435 1436 1437 1463 1464 1465 1466 1467 1468 1494 1495 1496 1497 1498 1499 1525 1526 1527 1528 1529 1530 1556 1557 1558 1559 1560 1561 1587 1588 1589 1590 1591 1592 1618 1619 1620 1621 1622 1623 1649 1650 1651 1652 1653 1654 1680 1681 1682 1683 1684 1685 1711 1712 1713 1714 1715 1716 1742 1743 1744 1745 1746 1747 1773 1774 1775 1776 1777 1778 1804 1805 1806 1807 1808 1809 1835 1836 1837 1838 1839 1840 1866 1867 1868 1869 1870 1871 1897 1898 1899 1900 1901 1902 1928 1929 1930 1931 1932 1933 1959 1960 1961 1962 1963 1964 1990 1991 1992 1993 1994 1995 2021 2022 2023 2024 2025 2026 2052 2053 2054 2055 2056 2057 2083 2084 2085 2086 2087 2088 2114 2115 2116 2117 2118 2119 2145 2146 2147 2148 2149 2150 2176 2177 2178 2179 2180 2181 2207 2208 2209 2210 2211 2212 2238 2239 2240 2241 2242 2243 2269 2270 2271 2272 2273 2274 2300 2301 2302 2303 2304 2305 2331 2332 2333 2334 2335 2336 2362 2363 2364 2365 2366 2367 2393 2394 2395 2396 2397 2398 2424 2425 2426 2427 2428 2429 2455 2456 2457 2458 2459 2460 2486 2487 2488 2489 2490 2491 2517 2518 2519 2520 2521 2522 2548 2549 2550 2551 2552 2553 2579 2580 2581 2582 2583 2584 2610 2611 2612 2613 2614 2615 2641 2642 2643 2644 2645 2646 2672 2673 2674 2675 2676 2677 2703 2704 2705 2706 2707 2708 2734 2735 2736 2737 2738 2763 2764 2765 2766 2767 2792 2793 2794 2795 2819 2820 2821 2822 2846 2847 2848 2871 2872 2894 2895 1036 1037 1038 1039 1040 1041 1042 1043 1044 1066 1067 1068 1069 1070 1071 1072 1073 1074 1097 1098 1099 1100 1101 1102 1103 1104 1105 1128 1129 1130 1131 1132 1133 1134 1135 1136 1159 1160 1161 1162 1163 1164 1165 1166 1167 1190 1191 1192 1193 1194 1195 1196 1197 1198 1221 1222 1223 1224 1225 1226 1227 1228 1229 1252 1253 1254 1255 1256 1257 1258 1259 1260 1283 1284 1285 1286 1287 1288 1289 1290 1291 1314 1315 1316 1317 1318 1319 1320 1321 1322 1345 1346 1347 1348 1349 1350 1351 1352 1353 1376 1377 1378 1379 1380 1381 1382 1383 1384 1407 1408 1409 1410 1411 1412 1413 1414 1415 1438 1439 1440 1441 1442 1443 1444 1445 1446 1469 1470 1471 1472 1473 1474 1475 1476 1477 1500 1501 1502 1503 1504 1505 1506 1507 1508 1531 1532 1533 1534 1535 1536 1537 1538 1539 1562 1563 1564 1565 1566 1567 1568 1569 1570 1593 1594 1595 1596 1597 1598 1599 1600 1601 1624 1625 1626 1627 1628 1629 1630 1631 1632 1655 1656 1657 1658 1659 1660 1661 1662 1663 1686 1687 1688 1689 1690 1691 1692 1693 1694 1717 1718 1719 1720 1721 1722 1723 1724 1725 1748 1749 1750 1751 1752 1753 1754 1755 1756 1779 1780 1781 1782 1783 1784 1785 1786 1787 1810 1811 1812 1813 1814 1815 1816 1817 1818 1841 1842 1843 1844 1845 1846 1847 1848 1849 1872 1873 1874 1875 1876 1877 1878 1879 1880 1903 1904 1905 1906 1907 1908 1909 1910 1911 1934 1935 1936 1937 1938 1939 1940 1941 1942 1965 1966 1967 1968 1969 1970 1971 1972 1973 1996 1997 1998 1999 2000 2001 2002 2003 2004 2027 2028 2029 2030 2031 2032 2033 2034 2035 2058 2059 2060 2061 2062 2063 2064 2065 2066 2089 2090 2091 2092 2093 2094 2095 2096 2097 2120 2121 2122 2123 2124 2125 2126 2127 2128 2151 2152 2153 2154 2155 2156 2157 2158 2159 2182 2183 2184 2185 2186 2187 2188 2189 2190 2213 2214 2215 2216 2217 2218 2219 2220 2221 2244 2245 2246 2247 2248 2249 2250 2251 2252 2275 2276 2277 2278 2279 2280 2281 2282 2283 2306 2307 2308 2309 2310 2311 2312 2313 2314 2337 2338 2339 2340 2341 2342 2343 2344 2345 2368 2369 2370 2371 2372 2373 2374 2375 2376 2399 2400 2401 2402 2403 2404 2405 2406 2407 2430 2431 2432 2433 2434 2435 2436 2437 2438 2461 2462 2463 2464 2465 2466 2467 2468 2469 2492 2493 2494 2495 2496 2497 2498 2499 2500 2523 2524 2525 2526 2527 2528 2529 2530 2531 2554 2555 2556 2557 2558 2559 2560 2561 2562 2585 2586 2587 2588 2589 2590 2591 2592 2593 2616 2617 2618 2619 2620 2621 2622 2623 2624 2647 2648 2649 2650 2651 2652 2653 2654 2655 2678 2679 2680 2681 2682 2683 2684 2685 2686 2709 2710 2711 2712 2713 2714 2715 2716 2717 2739 2740 2741 2742 2743 2744 2745 2746 2747 2768 2769 2770 2771 2772 2773 2774 2775 2776 2796 2797 2798 2799 2800 2801 2802 2803 2804 2823 2824 2825 2826 2827 2828 2829 2830 2831 2849 2850 2851 2852 2853 2854 2855 2856 2857 2873 2874 2875 2876 2877 2878 2879 2880 2881 2896 2897 2898 2899 2900 2901 2902 2903 2904 2917 2918 2919 2920 2921 2922 2923 2924 2925 2936 2937 2938 2939 2940 2941 2942 2943 2953 2954 2955 2956 2957 2958 2966 2967 2968 2969 1045 1046 1047 1048 1049 1050 1051 1052 1075 1076 1077 1078 1079 1080 1081 1082 1106 1107 1108 1109 1110 1111 1112 1113 1137 1138 1139 1140 1141 1142 1143 1144 1168 1169 1170 1171 1172 1173 1174 1175 1199 1200 1201 1202 1203 1204 1205 1206 1230 1231 1232 1233 1234 1235 1236 1237 1261 1262 1263 1264 1265 1266 1267 1268 1292 1293 1294 1295 1296 1297 1298 1299 1323 1324 1325 1326 1327 1328 1329 1330 1354 1355 1356 1357 1358 1359 1360 1361 1385 1386 1387 1388 1389 1390 1391 1392 1416 1417 1418 1419 1420 1421 1422 1423 1447 1448 1449 1450 1451 1452 1453 1454 1478 1479 1480 1481 1482 1483 1484 1485 1509 1510 1511 1512 1513 1514 1515 1516 1540 1541 1542 1543 1544 1545 1546 1547 1571 1572 1573 1574 1575 1576 1577 1578 1602 1603 1604 1605 1606 1607 1608 1609 1633 1634 1635 1636 1637 1638 1639 1640 1664 1665 1666 1667 1668 1669 1670 1671 1695 1696 1697 1698 1699 1700 1701 1702 1726 1727 1728 1729 1730 1731 1732 1733 1757 1758 1759 1760 1761 1762 1763 1764 1788 1789 1790 1791 1792 1793 1794 1795 1819 1820 1821 1822 1823 1824 1825 1826 1850 1851 1852 1853 1854 1855 1856 1857 1881 1882 1883 1884 1885 1886 1887 1888 1912 1913 1914 1915 1916 1917 1918 1919 1943 1944 1945 1946 1947 1948 1949 1950 1974 1975 1976 1977 1978 1979 1980 1981 2005 2006 2007 2008 2009 2010 2011 2012 2036 2037 2038 2039 2040 2041 2042 2043 2067 2068 2069 2070 2071 2072 2073 2074 2098 2099 2100 2101 2102 2103 2104 2105 2129 2130 2131 2132 2133 2134 2135 2136 2160 2161 2162 2163 2164 2165 2166 2167 2191 2192 2193 2194 2195 2196 2197 2198 2222 2223 2224 2225 2226 2227 2228 2229 2253 2254 2255 2256 2257 2258 2259 2260 2284 2285 2286 2287 2288 2289 2290 2291 2315 2316 2317 2318 2319 2320 2321 2322 2346 2347 2348 2349 2350 2351 2352 2353 2377 2378 2379 2380 2381 2382 2383 2384 2408 2409 2410 2411 2412 2413 2414 2415 2439 2440 2441 2442 2443 2444 2445 2446 2470 2471 2472 2473 2474 2475 2476 2477 2501 2502 2503 2504 2505 2506 2507 2508 2532 2533 2534 2535 2536 2537 2538 2539 2563 2564 2565 2566 2567 2568 2569 2570 2594 2595 2596 2597 2598 2599 2600 2601 2625 2626 2627 2628 2629 2630 2631 2632 2656 2657 2658 2659 2660 2661 2662 2663 2687 2688 2689 2690 2691 2692 2693 2694 2718 2719 2720 2721 2722 2723 2724 2725 2748 2749 2750 2751 2752 2753 2754 2755 2777 2778 2779 2780 2781 2782 2783 2784 2805 2806 2807 2808 2809 2810 2811 2812 2832 2833 2834 2835 2836 2837 2838 2839 2858 2859 2860 2861 2862 2863 2864 2865 2882 2883 2884 2885 2886 2887 2888 2889 2905 2906 2907 2908 2909 2910 2911 2912 2926 2927 2928 2929 2930 2931 2932 2933 2944 2945 2946 2947 2948 2949 2950 2951 2959 2960 2961 2962 2963 2964 2965 2970 2971 2972 2973 2974 1053 1054 1055 1056 1057 1058 1059 1083 1084 1085 1086 1087 1088 1089 1090 1114 1115 1116 1117 1118 1119 1120 1121 1145 1146 1147 1148 1149 1150 1151 1152 1176 1177 1178 1179 1180 1181 1182 1183 1207 1208 1209 1210 1211 1212 1213 1214 1238 1239 1240 1241 1242 1243 1244 1245 1269 1270 1271 1272 1273 1274 1275 1276 1300 1301 1302 1303 1304 1305 1306 1307 1331 1332 1333 1334 1335 1336 1337 1338 1362 1363 1364 1365 1366 1367 1368 1369 1393 1394 1395 1396 1397 1398 1399 1400 1424 1425 1426 1427 1428 1429 1430 1431 1455 1456 1457 1458 1459 1460 1461 1462 1486 1487 1488 1489 1490 1491 1492 1493 1517 1518 1519 1520 1521 1522 1523 1524 1548 1549 1550 1551 1552 1553 1554 1555 1579 1580 1581 1582 1583 1584 1585 1586 1610 1611 1612 1613 1614 1615 1616 1617 1641 1642 1643 1644 1645 1646 1647 1648 1672 1673 1674 1675 1676 1677 1678 1679 1703 1704 1705 1706 1707 1708 1709 1710 1734 1735 1736 1737 1738 1739 1740 1741 1765 1766 1767 1768 1769 1770 1771 1772 1796 1797 1798 1799 1800 1801 1802 1803 1827 1828 1829 1830 1831 1832 1833 1834 1858 1859 1860 1861 1862 1863 1864 1865 1889 1890 1891 1892 1893 1894 1895 1896 1920 1921 1922 1923 1924 1925 1926 1927 1951 1952 1953 1954 1955 1956 1957 1958 1982 1983 1984 1985 1986 1987 1988 1989 2013 2014 2015 2016 2017 2018 2019 2020 2044 2045 2046 2047 2048 2049 2050 2051 2075 2076 2077 2078 2079 2080 2081 2082 2106 2107 2108 2109 2110 2111 2112 2113 2137 2138 2139 2140 2141 2142 2143 2144 2168 2169 2170 2171 2172 2173 2174 2175 2199 2200 2201 2202 2203 2204 2205 2206 2230 2231 2232 2233 2234 2235 2236 2237 2261 2262 2263 2264 2265 2266 2267 2268 2292 2293 2294 2295 2296 2297 2298 2299 2323 2324 2325 2326 2327 2328 2329 2330 2354 2355 2356 2357 2358 2359 2360 2361 2385 2386 2387 2388 2389 2390 2391 2392 2416 2417 2418 2419 2420 2421 2422 2423 2447 2448 2449 2450 2451 2452 2453 2454 2478 2479 2480 2481 2482 2483 2484 2485 2509 2510 2511 2512 2513 2514 2515 2516 2540 2541 2542 2543 2544 2545 2546 2547 2571 2572 2573 2574 2575 2576 2577 2578 2602 2603 2604 2605 2606 2607 2608 2609 2633 2634 2635 2636 2637 2638 2639 2640 2664 2665 2666 2667 2668 2669 2670 2671 2695 2696 2697 2698 2699 2700 2701 2702 2726 2727 2728 2729 2730 2731 2732 2733 2756 2757 2758 2759 2760 2761 2762 2785 2786 2787 2788 2789 2790 2791 2813 2814 2815 2816 2817 2818 2840 2841 2842 2843 2844 2845 2866 2867 2868 2869 2870 2890 2891 2892 2893 2913 2914 2915 2916 2934 2935 2952 
Rhop 1 2975 float
  1.0000000E+03   1.0000000E+03   1.0000000E+03   1.0000000E+03   1.0000000E+03   1.0000000E+03   1.0000000E+03   1.0000000E+03   1.0000000E+03   1.0000000E+03   1.0000000E+03   1.0000000E+03   1.0000000E+03   1.0000000E+03   1.0000000E+03   1.0000000E+03   1.0000000E+03   1.0000000E+03   1.0000002E+03   1.0000009E+03   1.0000002E+03   1.0000012E+03   1.0000029E+03   1.0000011E+03   1.0000034E+03   1.0000073E+03   1.0000027E+03   1.0000070E+03   1.0000139E+03   1.0000049E+03   1.0000121E+03   1.0000223E+03   1.0000077E+03   1.0000175E+03   1.0000319E+03   1.0000103E+03   1.0000233E+03   1.0000413E+03   1.0000128E+03   1.0000283E+03   1.0000498E+03   1.0000150E+03   1.0000329E+03   1.0000575E+03   1.0000170E+03   1.0000377E+03   1.0000661E+03   1.0000201E+03   1.0000439E+03   1.0000772E+03   1.0000245E+03   1.0000536E+03   1.0000943E+03   1.0000318E+03   1.0000695E+03   1.0001220E+03   1.0000450E+03   1.0000951E+03   1.0001642E+03   1.0000674E+03   1.0001329E+03   1.0002219E+03   1.0001843E+03   1.0002930E+03   1.0000000E+03   1.0000000E+03   1.0000000E+03   1.0000000E+03   1.0000000E+03   1.0000000E+03   1.0000000E+03   1.0000000E+03   1.0000000E+03   1.0000000E+03   1.0000000E+03   1.0000000E+03   1.0000000E+03   1.0000000E+03   1.0000000E+03   1.0000000E+03   1.0000000E+03   1.0000000E+03   1.0000000E+03   1.0000000E+03   1.0000000E+03   1.0000000E+03   1.0000000E+03   1.0000000E+03   1.0000000E+03   1.0000000E+03   1.0000000E+03   1.0000000E+03   1.0000000E+03   1.0000000E+03   1.0000000E+03   1.0000000E+03   1.0000000E+03   1.0000000E+03   1.0000001E+03   1.0000003E+03   1.0000005E+03   1.0000006E+03   1.0000007E+03   1.0000008E+03   1.0000004E+03   1.0000009E+03   1.0000016E+03   1.0000023E+03   1.0000030E+03   1.0000037E+03   1.0000042E+03   1.0000045E+03   1.0000020E+03   1.0000035E+03   1.0000055E+03   1.0000078E+03   1.0000101E+03   1.0000120E+03   1.0000134E+03   1.0000146E+03   1.0000057E+03   1.0000095E+03   1.0000142E+03   1.0000192E+03   1.0000244E+03   1.0000286E+03   1.0000320E+03   1.0000347E+03   1.0000128E+03   1.0000200E+03   1.0000290E+03   1.0000386E+03   1.0000479E+03   1.0000559E+03   1.0000624E+03   1.0000672E+03   1.0000231E+03   1.0000352E+03   1.0000500E+03   1.0000656E+03   1.0000805E+03   1.0000930E+03   1.0001031E+03   1.0001111E+03   1.0000362E+03   1.0000543E+03   1.0000757E+03   1.0000980E+03   1.0001186E+03   1.0001359E+03   1.0001499E+03   1.0001607E+03   1.0000507E+03   1.0000745E+03   1.0001020E+03   1.0000645E+03   1.0000934E+03   1.0000770E+03   1.0001104E+03   1.0000886E+03   1.0001263E+03   1.0001015E+03   1.0001443E+03   1.0001189E+03   1.0001689E+03   1.0001455E+03   1.0002049E+03   1.0001868E+03   1.0002593E+03   1.0002482E+03   1.0003375E+03   1.0003306E+03   1.0004401E+03   1.0004279E+03   1.0005615E+03   1.0000000E+03   1.0000000E+03   1.0000000E+03   1.0000000E+03   1.0000000E+03   1.0000000E+03   1.0000000E+03   1.0000000E+03   1.0000000E+03   1.0000000E+03   1.0000000E+03   1.0000000E+03   1.0000000E+03   1.0000000E+03   1.0000000E+03   1.0000000E+03   1.0000000E+03   1.0000000E+03   1.0000000E+03   1.0000000E+03   1.0000000E+03   1.0000000E+03   1.0000000E+03   1.0000000E+03   1.0000000E+03   1.0000000E+03   1.0000000E+03   1.0000000E+03   1.0000000E+03   1.0000000E+03   1.0000000E+03   1.0000000E+03   1.0000000E+03   1.0000000E+03   1.0000000E+03   1.0000000E+03   1.0000009E+03   1.0000009E+03   1.0000009E+03   1.0000009E+03   1.0000009E+03   1.0000009E+03   1.0000009E+03   1.0000009E+03   1.0000009E+03   1.0000049E+03   1.0000049E+03   1.0000051E+03   1.0000052E+03   1.0000052E+03   1.0000052E+03   1.0000052E+03   1.0000052E+03   1.0000052E+03   1.0000153E+03   1.0000160E+03   1.0000164E+03   1.0000164E+03   1.0000168E+03   1.0000170E+03   1.0000170E+03   1.0000170E+03   1.0000170E+03   1.0000366E+03   1.0000381E+03   1.0000389E+03   1.0000396E+03   1.0000402E+03   1.0000403E+03   1.0000404E+03   1.0000405E+03   1.0000405E+03   1.0000710E+03   1.0000737E+03   1.0000755E+03   1.0000770E+03   1.0000775E+03   1.0000778E+03   1.0000782E+03   1.0000782E+03   1.0000782E+03   1.0001169E+03   1.0001213E+03   1.0001243E+03   1.0001264E+03   1.0001278E+03   1.0001284E+03   1.0001287E+03   1.0001288E+03   1.0001290E+03   1.0001689E+03   1.0001747E+03   1.0001788E+03   1.0001816E+03   1.0001834E+03   1.0001844E+03   1.0001849E+03   1.0001851E+03   1.0001852E+03   1.0000000E+03   1.0000000E+03   1.0000000E+03   1.0000000E+03   1.0000000E+03   1.0000000E+03   1.0000000E+03   1.0000000E+03   1.0000000E+03   1.0000000E+03   1.0000000E+03   1.0000000E+03   1.0000000E+03   1.0000000E+03   1.0000000E+03   1.0000000E+03   1.0000000E+03   1.0000000E+03   1.0000000E+03   1.0000000E+03   1.0000000E+03   1.0000000E+03   1.0000000E+03   1.0000000E+03   1.0000000E+03   1.0000000E+03   1.0000000E+03   1.0000000E+03   1.0000000E+03   1.0000000E+03   1.0000000E+03   1.0000000E+03   1.0000009E+03   1.0000009E+03   1.0000009E+03   1.0000009E+03   1.0000009E+03   1.0000009E+03   1.0000009E+03   1.0000009E+03   1.0000052E+03   1.0000052E+03   1.0000052E+03   1.0000052E+03   1.0000052E+03   1.0000052E+03   1.0000052E+03   1.0000051E+03   1.0000170E+03   1.0000170E+03   1.0000170E+03   1.0000170E+03   1.0000170E+03   1.0000168E+03   1.0000164E+03   1.0000164E+03   1.0000405E+03   1.0000405E+03   1.0000405E+03   1.0000404E+03   1.0000403E+03   1.0000402E+03   1.0000396E+03   1.0000389E+03   1.0000782E+03   1.0000782E+03   1.0000782E+03   1.0000782E+03   1.0000778E+03   1.0000775E+03   1.0000770E+03   1.0000755E+03   1.0001290E+03   1.0001290E+03   1.0001288E+03   1.0001287E+03   1.0001284E+03   1.0001278E+03   1.0001264E+03   1.0001243E+03   1.0001852E+03   1.0001852E+03   1.0001851E+03   1.0001849E+03   1.0001844E+03   1.0001834E+03   1.0001816E+03   1.0001788E+03   1.0000000E+03   1.0000000E+03   1.0000000E+03   1.0000000E+03   1.0000000E+03   1.0000000E+03   1.0000000E+03   1.0000000E+03   1.0000000E+03   1.0000000E+03   1.0000000E+03   1.0000000E+03   1.0000000E+03   1.0000000E+03   1.0000000E+03   1.0000000E+03   1.0000000E+03   1.0000000E+03   1.0000000E+03   1.0000000E+03   1.0000000E+03   1.0000000E+03   1.0000000E+03   1.0000000E+03   1.0000000E+03   1.0000000E+03   1.0000000E+03   1.0000000E+03   1.0000000E+03   1.0000000E+03   1.0000000E+03   1.0000000E+03   1.0000000E+03   1.0000000E+03   1.0000000E+03   1.0000000E+03   1.0000009E+03   1.0000009E+03   1.0000008E+03   1.0000007E+03   1.0000006E+03   1.0000005E+03   1.0000003E+03   1.0000001E+03   1.0000000E+03   1.0000049E+03   1.0000049E+03   1.0000045E+03   1.0000042E+03   1.0000037E+03   1.0000030E+03   1.0000023E+03   1.0000016E+03   1.0000009E+03   1.0000160E+03   1.0000153E+03   1.0000146E+03   1.0000134E+03   1.0000120E+03   1.0000101E+03   1.0000078E+03   1.0000055E+03   1.0000035E+03   1.0000381E+03   1.0000366E+03   1.0000347E+03   1.0000320E+03   1.0000286E+03   1.0000244E+03   1.0000192E+03   1.0000142E+03   1.0000095E+03   1.0000737E+03   1.0000710E+03   1.0000672E+03   1.0000624E+03   1.0000559E+03   1.0000479E+03   1.0000386E+03   1.0000290E+03   1.0000200E+03   1.0001213E+03   1.0001169E+03   1.0001111E+03   1.0001031E+03   1.0000930E+03   1.0000805E+03   1.0000656E+03   1.0000500E+03   1.0000352E+03   1.0001747E+03   1.0001689E+03   1.0001607E+03   1.0001499E+03   1.0001359E+03   1.0001186E+03   1.0000980E+03   1.0000757E+03   1.0000543E+03   1.0001020E+03   1.0000745E+03   1.0000934E+03   1.0001104E+03   1.0001263E+03   1.0001443E+03   1.0001689E+03   1.0002049E+03   1.0002593E+03   1.0003375E+03   1.0004401E+03   1.0005615E+03   1.0000000E+03   1.0000000E+03   1.0000000E+03   1.0000000E+03   1.0000000E+03   1.0000000E+03   1.0000000E+03   1.0000000E+03   1.0000000E+03   1.0000000E+03   1.0000000E+03   1.0000000E+03   1.0000000E+03   1.0000000E+03   1.0000000E+03   1.0000000E+03   1.0000000E+03   1.0000000E+03   1.0000000E+03   1.0000004E+03   1.0000000E+03   1.0000000E+03   1.0000000E+03   1.0000020E+03   1.0000009E+03   1.0000002E+03   1.0000000E+03   1.0000057E+03   1.0000029E+03   1.0000012E+03   1.0000002E+03   1.0000128E+03   1.0000073E+03   1.0000034E+03   1.0000011E+03   1.0000231E+03   1.0000139E+03   1.0000070E+03   1.0000027E+03   1.0000362E+03   1.0000223E+03   1.0000121E+03   1.0000049E+03   1.0000507E+03   1.0000319E+03   1.0000175E+03   1.0000077E+03   1.0000645E+03   1.0000413E+03   1.0000233E+03   1.0000103E+03   1.0000770E+03   1.0000498E+03   1.0000283E+03   1.0000128E+03   1.0000886E+03   1.0000575E+03   1.0000329E+03   1.0000150E+03   1.0001015E+03   1.0000661E+03   1.0000377E+03   1.0000170E+03   1.0001189E+03   1.0000772E+03   1.0000439E+03   1.0000201E+03   1.0001455E+03   1.0000943E+03   1.0000536E+03   1.0000245E+03   1.0001868E+03   1.0001220E+03   1.0000695E+03   1.0000318E+03   1.0002482E+03   1.0001642E+03   1.0000951E+03   1.0000450E+03   1.0003306E+03   1.0002219E+03   1.0001329E+03   1.0000674E+03   1.0004279E+03   1.0002930E+03   1.0001843E+03   1.0000000E+03   1.0000000E+03   1.0000000E+03   1.0000000E+03   1.0000000E+03   1.0000000E+03   1.0000000E+03   1.0000000E+03   1.0000000E+03   1.0000000E+03   1.0000000E+03   1.0000000E+03   1.0000000E+03   1.0000000E+03   1.0000000E+03   1.0000000E+03   1.0000000E+03   1.0000000E+03   1.0000000E+03   1.0000000E+03   1.0000000E+03   1.0000000E+03   1.0000000E+03   1.0000000E+03   1.0000000E+03   1.0000000E+03   1.0000000E+03   1.0000000E+03   1.0000000E+03   1.0000000E+03   1.0000000E+03   1.0000000E+03   1.0000000E+03   1.0000000E+03   1.0000000E+03   1.0000000E+03   1.0000000E+03   1.0000000E+03   1.0000000E+03   1.0000000E+03   1.0000000E+03   1.0000000E+03   1.0000000E+03   1.0000000E+03   1.0000000E+03   1.0000000E+03   1.0000000E+03   1.0000000E+03   1.0000000E+03   1.0000000E+03   1.0000000E+03   1.0000000E+03   1.0000000E+03   1.0000000E+03   1.0000000E+03   1.0000000E+03   1.0000000E+03   1.0000000E+03   1.0000000E+03   1.0000000E+03   1.0000000E+03   1.0000000E+03   1.0000000E+03   1.0000000E+03   1.0000000E+03   1.0000000E+03   1.0000000E+03   1.0000000E+03   1.0000000E+03   1.0000000E+03   1.0000000E+03   1.0000000E+03   1.0000000E+03   1.0000000E+03   1.0000000E+03   1.0000000E+03   1.0000000E+03   1.0000000E+03   1.0000000E+03   1.0000000E+03   1.0000000E+03   1.0000000E+03   1.0000000E+03   1.0000000E+03   1.0000000E+03   1.0000000E+03   1.0000000E+03   1.0000000E+03   1.0000000E+03   1.0000000E+03   1.0000000E+03   1.0000000E+03   1.0000000E+03   1.0000000E+03   1.0000000E+03   1.0000000E+03   1.0000000E+03   1.0000000E+03   1.0000000E+03   1.0000000E+03   1.0000000E+03   1.0000000E+03   1.0000000E+03   1.0000000E+03   1.0000000E+03   1.0000000E+03   1.0000000E+03   1.0000000E+03   1.0000000E+03   1.0000000E+03   1.0000000E+03   1.0000000E+03   1.0000000E+03   1.0000000E+03   1.0000000E+03   1.0000000E+03   1.0000000E+03   1.0000000E+03   1.0000000E+03   1.0000000E+03   1.0000000E+03   1.0000000E+03   1.0000000E+03   1.0000000E+03   1.0000000E+03   1.0000000E+03   1.0000000E+03   1.0000000E+03   1.0000000E+03   1.0000000E+03   1.0000000E+03   1.0000000E+03   1.0000000E+03   1.0000000E+03   1.0000000E+03   1.0000000E+03   1.0000000E+03   1.0000000E+03   1.0000000E+03   1.0000000E+03   1.0000000E+03   1.0000000E+03   1.0000000E+03   1.0000000E+03   1.0000000E+03   1.0000000E+03   1.0000000E+03   1.0000000E+03   1.0000000E+03   1.0000000E+03   1.0000000E+03   1.0000000E+03   1.0000000E+03   1.0000000E+03   1.0000000E+03   1.0000000E+03   1.0000000E+03   1.0000000E+03   1.0000000E+03   1.0000000E+03   1.0000000E+03   1.0000000E+03   1.0000000E+03   1.0000000E+03   1.0000000E+03   1.0000000E+03   1.0000000E+03   1.0000000E+03   1.0000000E+03   1.0000000E+03   1.0000000E+03   1.0000000E+03   1.0000000E+03   1.0000000E+03   1.0000000E+03   1.0000000E+03   1.0000000E+03   1.0000000E+03   1.0000000E+03   1.0000000E+03   1.0000000E+03   1.0000000E+03   1.0000000E+03   1.0000000E+03   1.0000000E+03   1.0000000E+03   1.0000000E+03   1.0000000E+03   1.0000000E+03   1.0000000E+03   1.0000000E+03   1.0000000E+03   1.0000000E+03   1.0000000E+03   1.0000000E+03   1.0000000E+03   1.0000000E+03   1.0000000E+03   1.0000000E+03   1.0000000E+03   1.0000000E+03   1.0000000E+03   1.0000000E+03   1.0000000E+03   1.0000000E+03   1.0000000E+03   1.0000000E+03   1.0000000E+03   1.0000000E+03   1.0000000E+03   1.0000000E+03   1.0000000E+03   1.0000000E+03   1.0000000E+03   1.0000000E+03   1.0000000E+03   1.0000000E+03   1.0000000E+03   1.0000000E+03   1.0000000E+03   1.0000000E+03   1.0000000E+03   1.0000000E+03   1.0000000E+03   1.0000000E+03   1.0000000E+03   1.0000000E+03   1.0000000E+03   1.0000000E+03   1.0000000E+03   1.0000000E+03   1.0000000E+03   1.0000000E+03   1.0000000E+03   1.0000000E+03   1.0000000E+03   1.0000000E+03   1.0000000E+03   1.0000000E+03   1.0000000E+03   1.0000000E+03   1.0000000E+03   1.0000000E+03   1.0000000E+03   1.0000000E+03   1.0000000E+03   1.0000000E+03   1.0000000E+03   1.0000000E+03   1.0000000E+03   1.0000000E+03   1.0000000E+03   1.0000000E+03   1.0000000E+03   1.0000000E+03   1.0000000E+03   1.0000000E+03   1.0000000E+03   1.0000000E+03   1.0000000E+03   1.0000000E+03   1.0000000E+03   1.0000000E+03   1.0000000E+03   1.0000000E+03   1.0000000E+03   1.0000000E+03   1.0000000E+03   1.0000000E+03   1.0000000E+03   1.0000000E+03   1.0000000E+03   1.0000000E+03   1.0000000E+03   1.0000000E+03   1.0000000E+03   1.0000000E+03   1.0000000E+03   1.0000000E+03   1.0000000E+03   1.0000000E+03   1.0000000E+03   1.0000000E+03   1.0000000E+03   1.0000000E+03   1.0000000E+03   1.0000000E+03   1.0000000E+03   1.0000000E+03   1.0000000E+03   1.0000000E+03   1.0000000E+03   1.0000000E+03   1.0000000E+03   1.0000000E+03   1.0000000E+03   1.0000000E+03   1.0000000E+03   1.0000000E+03   1.0000000E+03   1.0000000E+03   1.0000000E+03   1.0000000E+03   1.0000000E+03   1.0000000E+03   1.0000000E+03   1.0000000E+03   1.0000000E+03   1.0000000E+03   1.0000000E+03   1.0000000E+03   1.0000000E+03   1.0000000E+03   1.0000000E+03   1.0000000E+03   1.0000000E+03   1.0000000E+03   1.0000000E+03   1.0000000E+03   1.0000000E+03   1.0000000E+03   1.0000000E+03   1.0000000E+03   1.0000000E+03   1.0000000E+03   1.0000000E+03   1.0000000E+03   1.0000000E+03   1.0000000E+03   1.0000000E+03   1.0000000E+03   1.0000000E+03   1.0000000E+03   1.0000000E+03   1.0000000E+03   1.0000000E+03   1.0000000E+03   1.0000000E+03   1.0000000E+03   1.0000000E+03   1.0000000E+03   1.0000000E+03   1.0000000E+03   1.0000000E+03   1.0000000E+03   1.0000000E+03   1.0000000E+03   1.0000000E+03   1.0000000E+03   1.0000000E+03   1.0000000E+03   1.0000000E+03   1.0000000E+03   1.0000000E+03   1.0000000E+03   1.0000000E+03   1.0000000E+03   1.0000000E+03   1.0000000E+03   1.0000000E+03   1.0000000E+03   1.0000000E+03   1.0000000E+03   1.0000000E+03   1.0000000E+03   1.0000000E+03   1.0000000E+03   1.0000000E+03   1.0000000E+03   1.0000000E+03   1.0000000E+03   1.0000000E+03   1.0000000E+03   1.0000000E+03   1.0000000E+03   1.0000000E+03   1.0000000E+03   1.0000000E+03   1.0000000E+03   1.0000000E+03   1.0000000E+03   1.0000000E+03   1.0000000E+03   1.0000000E+03   1.0000000E+03   1.0000000E+03   1.0000000E+03   1.0000000E+03   1.0000000E+03   1.0000000E+03   1.0000000E+03   1.0000000E+03   1.0000000E+03   1.0000000E+03   1.0000000E+03   1.0000000E+03   1.0000000E+03   1.0000000E+03   1.0000000E+03   1.0000000E+03   1.0000000E+03   1.0000000E+03   1.0000000E+03   1.0000000E+03   1.0000000E+03   1.0000000E+03   1.0000000E+03   1.0000000E+03   1.0000000E+03   1.0000000E+03   1.0000000E+03   1.0000000E+03   1.0000000E+03   1.0000000E+03   1.0000000E+03   1.0000000E+03   1.0000000E+03   1.0000000E+03   1.0000000E+03   1.0000000E+03   1.0000000E+03   1.0000000E+03   1.0000000E+03   1.0000000E+03   1.0000000E+03   1.0000000E+03   1.0000000E+03   1.0000000E+03   1.0000000E+03   1.0000000E+03   1.0000000E+03   1.0000000E+03   1.0000000E+03   1.0000000E+03   1.0000000E+03   1.0000000E+03   1.0000000E+03   1.0000000E+03   1.0000000E+03   1.0000000E+03   1.0000000E+03   1.0000000E+03   1.0000000E+03   1.0000000E+03   1.0000000E+03   1.0000000E+03   1.0000000E+03   1.0000000E+03   1.0000000E+03   1.0000000E+03   1.0000000E+03   1.0000000E+03   1.0000000E+03   1.0000000E+03   1.0000000E+03   1.0000000E+03   1.0000000E+03   1.0000000E+03   1.0000000E+03   1.0000000E+03   1.0000000E+03   1.0000000E+03   1.0000000E+03   1.0000000E+03   1.0000000E+03   1.0000000E+03   1.0000000E+03   1.0000000E+03   1.0000000E+03   1.0000000E+03   1.0000000E+03   1.0000000E+03   1.0001298E+03   1.0001552E+03   1.0001765E+03   1.0001933E+03   1.0002062E+03   1.0001245E+03   1.0001580E+03   1.0001868E+03   1.0002106E+03   1.0002292E+03   1.0002435E+03   1.0001456E+03   1.0001829E+03   1.0002151E+03   1.0002410E+03   1.0002606E+03   1.0002755E+03   1.0001662E+03   1.0002080E+03   1.0002433E+03   1.0002712E+03   1.0002922E+03   1.0003070E+03   1.0001901E+03   1.0002364E+03   1.0002753E+03   1.0003056E+03   1.0003277E+03   1.0003423E+03   1.0002232E+03   1.0002745E+03   1.0003161E+03   1.0003475E+03   1.0003702E+03   1.0003849E+03   1.0002764E+03   1.0003304E+03   1.0003715E+03   1.0004011E+03   1.0004221E+03   1.0004362E+03   1.0003624E+03   1.0004150E+03   1.0004475E+03   1.0004697E+03   1.0004855E+03   1.0004962E+03   1.0004937E+03   1.0005353E+03   1.0005484E+03   1.0005544E+03   1.0005597E+03   1.0005649E+03   1.0006761E+03   1.0006887E+03   1.0006700E+03   1.0006522E+03   1.0006432E+03   1.0006408E+03   1.0008911E+03   1.0008570E+03   1.0007992E+03   1.0007554E+03   1.0007318E+03   1.0007224E+03   1.0010602E+03   1.0010043E+03   1.0009178E+03   1.0008549E+03   1.0008218E+03   1.0008079E+03   1.0010806E+03   1.0010756E+03   1.0010059E+03   1.0009442E+03   1.0009103E+03   1.0008961E+03   1.0010624E+03   1.0010923E+03   1.0010656E+03   1.0010240E+03   1.0009989E+03   1.0009891E+03   1.0010860E+03   1.0011196E+03   1.0011229E+03   1.0011055E+03   1.0010935E+03   1.0010893E+03   1.0011567E+03   1.0011848E+03   1.0012006E+03   1.0012004E+03   1.0011990E+03   1.0011998E+03   1.0012651E+03   1.0012886E+03   1.0013074E+03   1.0013150E+03   1.0013197E+03   1.0013237E+03   1.0014015E+03   1.0014221E+03   1.0014399E+03   1.0014495E+03   1.0014568E+03   1.0014628E+03   1.0015564E+03   1.0015767E+03   1.0015937E+03   1.0016032E+03   1.0016118E+03   1.0016190E+03   1.0017288E+03   1.0017509E+03   1.0017676E+03   1.0017767E+03   1.0017859E+03   1.0017938E+03   1.0019229E+03   1.0019468E+03   1.0019631E+03   1.0019713E+03   1.0019807E+03   1.0019882E+03   1.0021431E+03   1.0021671E+03   1.0021822E+03   1.0021886E+03   1.0021968E+03   1.0022032E+03   1.0023918E+03   1.0024144E+03   1.0024272E+03   1.0024304E+03   1.0024355E+03   1.0024386E+03   1.0026718E+03   1.0026908E+03   1.0027004E+03   1.0026982E+03   1.0026969E+03   1.0026946E+03   1.0029778E+03   1.0029933E+03   1.0029987E+03   1.0029853E+03   1.0029732E+03   1.0029623E+03   1.0032967E+03   1.0033096E+03   1.0033081E+03   1.0032759E+03   1.0032471E+03   1.0032236E+03   1.0036085E+03   1.0036217E+03   1.0036083E+03   1.0035450E+03   1.0034941E+03   1.0034570E+03   1.0038859E+03   1.0039006E+03   1.0038660E+03   1.0037595E+03   1.0036836E+03   1.0036342E+03   1.0041200E+03   1.0041364E+03   1.0040690E+03   1.0039120E+03   1.0038143E+03   1.0037601E+03   1.0043769E+03   1.0043936E+03   1.0042906E+03   1.0040906E+03   1.0039847E+03   1.0039396E+03   1.0049279E+03   1.0049473E+03   1.0048295E+03   1.0046258E+03   1.0045356E+03   1.0045193E+03   1.0064078E+03   1.0064419E+03   1.0063987E+03   1.0062552E+03   1.0062048E+03   1.0062346E+03   1.0094529E+03   1.0095363E+03   1.0096353E+03   1.0096677E+03   1.0097006E+03   1.0097818E+03   1.0132112E+03   1.0133437E+03   1.0135674E+03   1.0138292E+03   1.0140043E+03   1.0141391E+03   1.0154947E+03   1.0156231E+03   1.0158688E+03   1.0162368E+03   1.0165377E+03   1.0167080E+03   1.0156907E+03   1.0157656E+03   1.0159081E+03   1.0162165E+03   1.0165385E+03   1.0167109E+03   1.0150836E+03   1.0150622E+03   1.0150056E+03   1.0151267E+03   1.0153353E+03   1.0154404E+03   1.0147935E+03   1.0146566E+03   1.0145109E+03   1.0144031E+03   1.0143805E+03   1.0143226E+03   1.0150577E+03   1.0148157E+03   1.0146331E+03   1.0143459E+03   1.0141291E+03   1.0139291E+03   1.0156481E+03   1.0153347E+03   1.0151142E+03   1.0147609E+03   1.0144407E+03   1.0141599E+03   1.0162579E+03   1.0159093E+03   1.0156595E+03   1.0153042E+03   1.0149690E+03   1.0146752E+03   1.0166688E+03   1.0163176E+03   1.0160548E+03   1.0157263E+03   1.0154403E+03   1.0151874E+03   1.0165719E+03   1.0162448E+03   1.0159894E+03   1.0156943E+03   1.0154760E+03   1.0152894E+03   1.0160875E+03   1.0158061E+03   1.0155817E+03   1.0153337E+03   1.0151891E+03   1.0150785E+03   1.0154154E+03   1.0151999E+03   1.0150348E+03   1.0148566E+03   1.0147926E+03   1.0147627E+03   1.0146843E+03   1.0145496E+03   1.0144778E+03   1.0143997E+03   1.0144254E+03   1.0144785E+03   1.0139119E+03   1.0138715E+03   1.0139258E+03   1.0139703E+03   1.0140931E+03   1.0142237E+03   1.0130368E+03   1.0131036E+03   1.0133021E+03   1.0134811E+03   1.0136821E+03   1.0138842E+03   1.0120137E+03   1.0121834E+03   1.0125244E+03   1.0127983E+03   1.0130706E+03   1.0133322E+03   1.0108660E+03   1.0111199E+03   1.0115580E+03   1.0118777E+03   1.0122180E+03   1.0125152E+03   1.0096718E+03   1.0099775E+03   1.0104439E+03   1.0107886E+03   1.0111651E+03   1.0114713E+03   1.0085246E+03   1.0088464E+03   1.0092852E+03   1.0096298E+03   1.0100027E+03   1.0102973E+03   1.0074547E+03   1.0077773E+03   1.0081757E+03   1.0085008E+03   1.0088385E+03   1.0091044E+03   1.0063059E+03   1.0067579E+03   1.0071765E+03   1.0074727E+03   1.0077573E+03   1.0079797E+03   1.0053021E+03   1.0058762E+03   1.0063442E+03   1.0065979E+03   1.0068057E+03   1.0069753E+03   1.0051326E+03   1.0056798E+03   1.0058870E+03   1.0060056E+03   1.0061110E+03   1.0044871E+03   1.0050549E+03   1.0053030E+03   1.0053510E+03   1.0053925E+03   1.0043643E+03   1.0047371E+03   1.0047961E+03   1.0048064E+03   1.0036844E+03   1.0040487E+03   1.0042658E+03   1.0043033E+03   1.0033080E+03   1.0036284E+03   1.0037819E+03   1.0029247E+03   1.0031231E+03   1.0026967E+03   1.0024810E+03   1.0002160E+03   1.0002234E+03   1.0002282E+03   1.0002318E+03   1.0002336E+03   1.0002349E+03   1.0002355E+03   1.0002357E+03   1.0002357E+03   1.0002540E+03   1.0002618E+03   1.0002671E+03   1.0002707E+03   1.0002726E+03   1.0002739E+03   1.0002743E+03   1.0002746E+03   1.0002745E+03   1.0002861E+03   1.0002938E+03   1.0002991E+03   1.0003022E+03   1.0003041E+03   1.0003049E+03   1.0003052E+03   1.0003053E+03   1.0003052E+03   1.0003176E+03   1.0003246E+03   1.0003290E+03   1.0003315E+03   1.0003331E+03   1.0003334E+03   1.0003334E+03   1.0003331E+03   1.0003330E+03   1.0003524E+03   1.0003586E+03   1.0003624E+03   1.0003637E+03   1.0003643E+03   1.0003640E+03   1.0003636E+03   1.0003633E+03   1.0003629E+03   1.0003942E+03   1.0003993E+03   1.0004017E+03   1.0004021E+03   1.0004017E+03   1.0004008E+03   1.0003996E+03   1.0003988E+03   1.0003982E+03   1.0004443E+03   1.0004479E+03   1.0004489E+03   1.0004481E+03   1.0004462E+03   1.0004443E+03   1.0004426E+03   1.0004412E+03   1.0004403E+03   1.0005025E+03   1.0005044E+03   1.0005035E+03   1.0005011E+03   1.0004981E+03   1.0004952E+03   1.0004927E+03   1.0004907E+03   1.0004896E+03   1.0005678E+03   1.0005680E+03   1.0005653E+03   1.0005610E+03   1.0005568E+03   1.0005528E+03   1.0005493E+03   1.0005469E+03   1.0005455E+03   1.0006403E+03   1.0006381E+03   1.0006334E+03   1.0006275E+03   1.0006219E+03   1.0006168E+03   1.0006129E+03   1.0006097E+03   1.0006080E+03   1.0007186E+03   1.0007144E+03   1.0007081E+03   1.0007010E+03   1.0006939E+03   1.0006881E+03   1.0006835E+03   1.0006801E+03   1.0006780E+03   1.0008019E+03   1.0007966E+03   1.0007894E+03   1.0007812E+03   1.0007734E+03   1.0007667E+03   1.0007617E+03   1.0007579E+03   1.0007557E+03   1.0008904E+03   1.0008850E+03   1.0008776E+03   1.0008689E+03   1.0008607E+03   1.0008539E+03   1.0008483E+03   1.0008442E+03   1.0008419E+03   1.0009851E+03   1.0009804E+03   1.0009734E+03   1.0009651E+03   1.0009567E+03   1.0009496E+03   1.0009440E+03   1.0009401E+03   1.0009377E+03   1.0010875E+03   1.0010844E+03   1.0010781E+03   1.0010703E+03   1.0010624E+03   1.0010552E+03   1.0010500E+03   1.0010459E+03   1.0010436E+03   1.0012004E+03   1.0011982E+03   1.0011934E+03   1.0011864E+03   1.0011794E+03   1.0011729E+03   1.0011674E+03   1.0011635E+03   1.0011614E+03   1.0013257E+03   1.0013250E+03   1.0013212E+03   1.0013149E+03   1.0013083E+03   1.0013025E+03   1.0012974E+03   1.0012937E+03   1.0012917E+03   1.0014663E+03   1.0014664E+03   1.0014630E+03   1.0014578E+03   1.0014515E+03   1.0014462E+03   1.0014414E+03   1.0014379E+03   1.0014361E+03   1.0016232E+03   1.0016237E+03   1.0016208E+03   1.0016154E+03   1.0016095E+03   1.0016045E+03   1.0016002E+03   1.0015972E+03   1.0015953E+03   1.0017982E+03   1.0017984E+03   1.0017950E+03   1.0017895E+03   1.0017837E+03   1.0017786E+03   1.0017744E+03   1.0017715E+03   1.0017696E+03   1.0019921E+03   1.0019913E+03   1.0019868E+03   1.0019806E+03   1.0019740E+03   1.0019688E+03   1.0019642E+03   1.0019610E+03   1.0019593E+03   1.0022054E+03   1.0022026E+03   1.0021963E+03   1.0021878E+03   1.0021802E+03   1.0021738E+03   1.0021688E+03   1.0021654E+03   1.0021632E+03   1.0024375E+03   1.0024316E+03   1.0024217E+03   1.0024107E+03   1.0024005E+03   1.0023925E+03   1.0023865E+03   1.0023821E+03   1.0023795E+03   1.0026884E+03   1.0026769E+03   1.0026617E+03   1.0026459E+03   1.0026324E+03   1.0026216E+03   1.0026138E+03   1.0026082E+03   1.0026051E+03   1.0029478E+03   1.0029286E+03   1.0029063E+03   1.0028838E+03   1.0028651E+03   1.0028508E+03   1.0028406E+03   1.0028337E+03   1.0028297E+03   1.0031989E+03   1.0031692E+03   1.0031368E+03   1.0031068E+03   1.0030817E+03   1.0030631E+03   1.0030505E+03   1.0030417E+03   1.0030374E+03   1.0034205E+03   1.0033795E+03   1.0033361E+03   1.0032960E+03   1.0032643E+03   1.0032414E+03   1.0032257E+03   1.0032156E+03   1.0032104E+03   1.0035884E+03   1.0035379E+03   1.0034845E+03   1.0034355E+03   1.0033969E+03   1.0033696E+03   1.0033519E+03   1.0033406E+03   1.0033347E+03   1.0037128E+03   1.0036592E+03   1.0036006E+03   1.0035460E+03   1.0035030E+03   1.0034728E+03   1.0034536E+03   1.0034420E+03   1.0034359E+03   1.0039042E+03   1.0038594E+03   1.0038064E+03   1.0037541E+03   1.0037115E+03   1.0036818E+03   1.0036633E+03   1.0036526E+03   1.0036467E+03   1.0045131E+03   1.0044937E+03   1.0044598E+03   1.0044213E+03   1.0043878E+03   1.0043633E+03   1.0043483E+03   1.0043395E+03   1.0043347E+03   1.0062753E+03   1.0062971E+03   1.0062978E+03   1.0062855E+03   1.0062700E+03   1.0062573E+03   1.0062492E+03   1.0062439E+03   1.0062412E+03   1.0098759E+03   1.0099479E+03   1.0099915E+03   1.0100137E+03   1.0100241E+03   1.0100287E+03   1.0100300E+03   1.0100304E+03   1.0100300E+03   1.0142735E+03   1.0143870E+03   1.0144691E+03   1.0145244E+03   1.0145609E+03   1.0145839E+03   1.0145969E+03   1.0146025E+03   1.0146037E+03   1.0168504E+03   1.0169758E+03   1.0170756E+03   1.0171511E+03   1.0172067E+03   1.0172435E+03   1.0172648E+03   1.0172737E+03   1.0172753E+03   1.0168228E+03   1.0169203E+03   1.0170062E+03   1.0170803E+03   1.0171398E+03   1.0171819E+03   1.0172058E+03   1.0172147E+03   1.0172154E+03   1.0154877E+03   1.0155228E+03   1.0155657E+03   1.0156160E+03   1.0156639E+03   1.0157004E+03   1.0157201E+03   1.0157247E+03   1.0157220E+03   1.0142540E+03   1.0142062E+03   1.0141925E+03   1.0142049E+03   1.0142290E+03   1.0142493E+03   1.0142573E+03   1.0142527E+03   1.0142436E+03   1.0137599E+03   1.0136423E+03   1.0135775E+03   1.0135520E+03   1.0135469E+03   1.0135444E+03   1.0135339E+03   1.0135151E+03   1.0134968E+03   1.0139355E+03   1.0137803E+03   1.0136852E+03   1.0136337E+03   1.0136050E+03   1.0135805E+03   1.0135508E+03   1.0135168E+03   1.0134880E+03   1.0144461E+03   1.0142909E+03   1.0141945E+03   1.0141374E+03   1.0140990E+03   1.0140626E+03   1.0140198E+03   1.0139741E+03   1.0139377E+03   1.0149931E+03   1.0148699E+03   1.0147985E+03   1.0147576E+03   1.0147272E+03   1.0146927E+03   1.0146478E+03   1.0145989E+03   1.0145595E+03   1.0151531E+03   1.0150814E+03   1.0150516E+03   1.0150424E+03   1.0150356E+03   1.0150169E+03   1.0149822E+03   1.0149388E+03   1.0149022E+03   1.0150100E+03   1.0149960E+03   1.0150142E+03   1.0150448E+03   1.0150696E+03   1.0150763E+03   1.0150600E+03   1.0150299E+03   1.0150008E+03   1.0147646E+03   1.0148070E+03   1.0148710E+03   1.0149393E+03   1.0149966E+03   1.0150303E+03   1.0150366E+03   1.0150224E+03   1.0150036E+03   1.0145494E+03   1.0146417E+03   1.0147417E+03   1.0148380E+03   1.0149203E+03   1.0149761E+03   1.0150014E+03   1.0150031E+03   1.0149938E+03   1.0143560E+03   1.0144845E+03   1.0146046E+03   1.0147141E+03   1.0148078E+03   1.0148749E+03   1.0149119E+03   1.0149225E+03   1.0149198E+03   1.0140615E+03   1.0142085E+03   1.0143312E+03   1.0144377E+03   1.0145279E+03   1.0145950E+03   1.0146337E+03   1.0146482E+03   1.0146482E+03   1.0135356E+03   1.0136851E+03   1.0137974E+03   1.0138891E+03   1.0139664E+03   1.0140249E+03   1.0140594E+03   1.0140728E+03   1.0140735E+03   1.0127281E+03   1.0128700E+03   1.0129656E+03   1.0130389E+03   1.0131000E+03   1.0131475E+03   1.0131765E+03   1.0131874E+03   1.0131881E+03   1.0116823E+03   1.0118134E+03   1.0118936E+03   1.0119507E+03   1.0119989E+03   1.0120370E+03   1.0120612E+03   1.0120710E+03   1.0120721E+03   1.0104982E+03   1.0106207E+03   1.0106913E+03   1.0107402E+03   1.0107809E+03   1.0108137E+03   1.0108356E+03   1.0108459E+03   1.0108488E+03   1.0092872E+03   1.0094037E+03   1.0094747E+03   1.0095236E+03   1.0095631E+03   1.0095948E+03   1.0096165E+03   1.0096290E+03   1.0096339E+03   1.0081362E+03   1.0082479E+03   1.0083270E+03   1.0083851E+03   1.0084301E+03   1.0084641E+03   1.0084877E+03   1.0085021E+03   1.0085090E+03   1.0070967E+03   1.0071979E+03   1.0072877E+03   1.0073619E+03   1.0074189E+03   1.0074600E+03   1.0074874E+03   1.0075046E+03   1.0075135E+03   1.0061890E+03   1.0062699E+03   1.0063627E+03   1.0064545E+03   1.0065298E+03   1.0065841E+03   1.0066198E+03   1.0066414E+03   1.0066525E+03   1.0054226E+03   1.0054700E+03   1.0055502E+03   1.0056491E+03   1.0057432E+03   1.0058169E+03   1.0058670E+03   1.0058977E+03   1.0059138E+03   1.0048015E+03   1.0048077E+03   1.0048564E+03   1.0049423E+03   1.0050417E+03   1.0051319E+03   1.0052003E+03   1.0052453E+03   1.0052698E+03   1.0043130E+03   1.0042933E+03   1.0042980E+03   1.0043483E+03   1.0044303E+03   1.0045199E+03   1.0045983E+03   1.0046557E+03   1.0046901E+03   1.0038781E+03   1.0039080E+03   1.0038896E+03   1.0038910E+03   1.0039307E+03   1.0039950E+03   1.0040639E+03   1.0041218E+03   1.0041599E+03   1.0033777E+03   1.0035306E+03   1.0035944E+03   1.0035825E+03   1.0035698E+03   1.0035855E+03   1.0036218E+03   1.0036625E+03   1.0036935E+03   1.0027861E+03   1.0030428E+03   1.0032320E+03   1.0033340E+03   1.0033397E+03   1.0033137E+03   1.0033021E+03   1.0033084E+03   1.0033204E+03   1.0024235E+03   1.0025855E+03   1.0027487E+03   1.0029260E+03   1.0030505E+03   1.0031022E+03   1.0030977E+03   1.0030811E+03   1.0030731E+03   1.0025072E+03   1.0024791E+03   1.0025645E+03   1.0026326E+03   1.0027166E+03   1.0027665E+03   1.0027970E+03   1.0028094E+03   1.0026000E+03   1.0025272E+03   1.0025501E+03   1.0025309E+03   1.0025175E+03   1.0025045E+03   1.0028018E+03   1.0027706E+03   1.0027412E+03   1.0027139E+03   1.0002357E+03   1.0002357E+03   1.0002357E+03   1.0002355E+03   1.0002349E+03   1.0002336E+03   1.0002318E+03   1.0002282E+03   1.0002746E+03   1.0002745E+03   1.0002746E+03   1.0002743E+03   1.0002739E+03   1.0002726E+03   1.0002707E+03   1.0002671E+03   1.0003052E+03   1.0003052E+03   1.0003053E+03   1.0003052E+03   1.0003049E+03   1.0003041E+03   1.0003022E+03   1.0002991E+03   1.0003330E+03   1.0003330E+03   1.0003331E+03   1.0003334E+03   1.0003334E+03   1.0003331E+03   1.0003315E+03   1.0003290E+03   1.0003627E+03   1.0003629E+03   1.0003633E+03   1.0003636E+03   1.0003640E+03   1.0003643E+03   1.0003637E+03   1.0003624E+03   1.0003979E+03   1.0003982E+03   1.0003988E+03   1.0003996E+03   1.0004008E+03   1.0004017E+03   1.0004021E+03   1.0004017E+03   1.0004399E+03   1.0004403E+03   1.0004412E+03   1.0004426E+03   1.0004443E+03   1.0004462E+03   1.0004481E+03   1.0004489E+03   1.0004890E+03   1.0004896E+03   1.0004907E+03   1.0004927E+03   1.0004952E+03   1.0004981E+03   1.0005011E+03   1.0005035E+03   1.0005450E+03   1.0005455E+03   1.0005469E+03   1.0005493E+03   1.0005528E+03   1.0005568E+03   1.0005610E+03   1.0005653E+03   1.0006074E+03   1.0006080E+03   1.0006097E+03   1.0006129E+03   1.0006168E+03   1.0006219E+03   1.0006275E+03   1.0006334E+03   1.0006772E+03   1.0006780E+03   1.0006801E+03   1.0006835E+03   1.0006881E+03   1.0006939E+03   1.0007010E+03   1.0007081E+03   1.0007549E+03   1.0007557E+03   1.0007579E+03   1.0007617E+03   1.0007667E+03   1.0007734E+03   1.0007812E+03   1.0007894E+03   1.0008411E+03   1.0008419E+03   1.0008442E+03   1.0008483E+03   1.0008539E+03   1.0008607E+03   1.0008689E+03   1.0008776E+03   1.0009369E+03   1.0009377E+03   1.0009401E+03   1.0009440E+03   1.0009496E+03   1.0009567E+03   1.0009651E+03   1.0009734E+03   1.0010429E+03   1.0010436E+03   1.0010459E+03   1.0010500E+03   1.0010552E+03   1.0010624E+03   1.0010703E+03   1.0010781E+03   1.0011605E+03   1.0011614E+03   1.0011635E+03   1.0011674E+03   1.0011729E+03   1.0011794E+03   1.0011864E+03   1.0011934E+03   1.0012910E+03   1.0012917E+03   1.0012937E+03   1.0012974E+03   1.0013025E+03   1.0013083E+03   1.0013149E+03   1.0013212E+03   1.0014355E+03   1.0014361E+03   1.0014379E+03   1.0014414E+03   1.0014462E+03   1.0014515E+03   1.0014578E+03   1.0014630E+03   1.0015945E+03   1.0015953E+03   1.0015972E+03   1.0016002E+03   1.0016045E+03   1.0016095E+03   1.0016154E+03   1.0016208E+03   1.0017689E+03   1.0017696E+03   1.0017715E+03   1.0017744E+03   1.0017786E+03   1.0017837E+03   1.0017895E+03   1.0017950E+03   1.0019589E+03   1.0019593E+03   1.0019610E+03   1.0019642E+03   1.0019688E+03   1.0019740E+03   1.0019806E+03   1.0019868E+03   1.0021625E+03   1.0021632E+03   1.0021654E+03   1.0021688E+03   1.0021738E+03   1.0021802E+03   1.0021878E+03   1.0021962E+03   1.0023787E+03   1.0023795E+03   1.0023821E+03   1.0023865E+03   1.0023925E+03   1.0024005E+03   1.0024107E+03   1.0024217E+03   1.0026040E+03   1.0026051E+03   1.0026082E+03   1.0026138E+03   1.0026216E+03   1.0026324E+03   1.0026459E+03   1.0026617E+03   1.0028284E+03   1.0028297E+03   1.0028337E+03   1.0028406E+03   1.0028508E+03   1.0028651E+03   1.0028838E+03   1.0029063E+03   1.0030356E+03   1.0030374E+03   1.0030417E+03   1.0030505E+03   1.0030631E+03   1.0030817E+03   1.0031068E+03   1.0031368E+03   1.0032083E+03   1.0032104E+03   1.0032156E+03   1.0032257E+03   1.0032414E+03   1.0032643E+03   1.0032960E+03   1.0033361E+03   1.0033326E+03   1.0033347E+03   1.0033406E+03   1.0033519E+03   1.0033697E+03   1.0033969E+03   1.0034355E+03   1.0034845E+03   1.0034337E+03   1.0034359E+03   1.0034420E+03   1.0034536E+03   1.0034728E+03   1.0035030E+03   1.0035460E+03   1.0036006E+03   1.0036448E+03   1.0036467E+03   1.0036526E+03   1.0036633E+03   1.0036818E+03   1.0037115E+03   1.0037541E+03   1.0038064E+03   1.0043332E+03   1.0043347E+03   1.0043395E+03   1.0043483E+03   1.0043633E+03   1.0043878E+03   1.0044213E+03   1.0044598E+03   1.0062401E+03   1.0062412E+03   1.0062439E+03   1.0062492E+03   1.0062573E+03   1.0062700E+03   1.0062855E+03   1.0062978E+03   1.0100295E+03   1.0100300E+03   1.0100304E+03   1.0100300E+03   1.0100287E+03   1.0100241E+03   1.0100137E+03   1.0099915E+03   1.0146038E+03   1.0146037E+03   1.0146025E+03   1.0145969E+03   1.0145839E+03   1.0145609E+03   1.0145244E+03   1.0144691E+03   1.0172755E+03   1.0172753E+03   1.0172737E+03   1.0172648E+03   1.0172435E+03   1.0172067E+03   1.0171511E+03   1.0170756E+03   1.0172147E+03   1.0172154E+03   1.0172147E+03   1.0172058E+03   1.0171819E+03   1.0171398E+03   1.0170803E+03   1.0170062E+03   1.0157197E+03   1.0157220E+03   1.0157247E+03   1.0157201E+03   1.0157003E+03   1.0156639E+03   1.0156160E+03   1.0155657E+03   1.0142391E+03   1.0142436E+03   1.0142527E+03   1.0142573E+03   1.0142493E+03   1.0142290E+03   1.0142049E+03   1.0141925E+03   1.0134892E+03   1.0134968E+03   1.0135151E+03   1.0135339E+03   1.0135444E+03   1.0135469E+03   1.0135520E+03   1.0135775E+03   1.0134767E+03   1.0134880E+03   1.0135168E+03   1.0135508E+03   1.0135805E+03   1.0136050E+03   1.0136338E+03   1.0136852E+03   1.0139238E+03   1.0139377E+03   1.0139741E+03   1.0140198E+03   1.0140626E+03   1.0140990E+03   1.0141374E+03   1.0141945E+03   1.0145444E+03   1.0145595E+03   1.0145989E+03   1.0146478E+03   1.0146927E+03   1.0147272E+03   1.0147576E+03   1.0147985E+03   1.0148880E+03   1.0149022E+03   1.0149388E+03   1.0149822E+03   1.0150169E+03   1.0150356E+03   1.0150424E+03   1.0150516E+03   1.0149891E+03   1.0150008E+03   1.0150299E+03   1.0150600E+03   1.0150763E+03   1.0150696E+03   1.0150448E+03   1.0150142E+03   1.0149953E+03   1.0150035E+03   1.0150223E+03   1.0150366E+03   1.0150303E+03   1.0149966E+03   1.0149393E+03   1.0148710E+03   1.0149883E+03   1.0149938E+03   1.0150031E+03   1.0150014E+03   1.0149761E+03   1.0149203E+03   1.0148380E+03   1.0147417E+03   1.0149171E+03   1.0149198E+03   1.0149225E+03   1.0149119E+03   1.0148749E+03   1.0148078E+03   1.0147141E+03   1.0146046E+03   1.0146466E+03   1.0146482E+03   1.0146482E+03   1.0146337E+03   1.0145950E+03   1.0145279E+03   1.0144377E+03   1.0143312E+03   1.0140722E+03   1.0140735E+03   1.0140728E+03   1.0140594E+03   1.0140249E+03   1.0139664E+03   1.0138891E+03   1.0137974E+03   1.0131871E+03   1.0131881E+03   1.0131874E+03   1.0131765E+03   1.0131475E+03   1.0131000E+03   1.0130389E+03   1.0129656E+03   1.0120715E+03   1.0120721E+03   1.0120710E+03   1.0120612E+03   1.0120370E+03   1.0119989E+03   1.0119507E+03   1.0118936E+03   1.0108489E+03   1.0108488E+03   1.0108459E+03   1.0108356E+03   1.0108137E+03   1.0107809E+03   1.0107402E+03   1.0106913E+03   1.0096350E+03   1.0096339E+03   1.0096290E+03   1.0096165E+03   1.0095948E+03   1.0095631E+03   1.0095236E+03   1.0094747E+03   1.0085112E+03   1.0085090E+03   1.0085021E+03   1.0084877E+03   1.0084641E+03   1.0084301E+03   1.0083851E+03   1.0083270E+03   1.0075162E+03   1.0075135E+03   1.0075046E+03   1.0074874E+03   1.0074600E+03   1.0074189E+03   1.0073619E+03   1.0072877E+03   1.0066559E+03   1.0066525E+03   1.0066414E+03   1.0066198E+03   1.0065841E+03   1.0065298E+03   1.0064545E+03   1.0063627E+03   1.0059188E+03   1.0059138E+03   1.0058977E+03   1.0058670E+03   1.0058169E+03   1.0057432E+03   1.0056491E+03   1.0055502E+03   1.0052778E+03   1.0052698E+03   1.0052453E+03   1.0052003E+03   1.0051319E+03   1.0050417E+03   1.0049423E+03   1.0048564E+03   1.0047014E+03   1.0046901E+03   1.0046557E+03   1.0045983E+03   1.0045199E+03   1.0044303E+03   1.0043483E+03   1.0042980E+03   1.0041729E+03   1.0041599E+03   1.0041218E+03   1.0040639E+03   1.0039950E+03   1.0039307E+03   1.0038910E+03   1.0038896E+03   1.0037047E+03   1.0036935E+03   1.0036625E+03   1.0036218E+03   1.0035855E+03   1.0035698E+03   1.0035825E+03   1.0035944E+03   1.0033257E+03   1.0033204E+03   1.0033084E+03   1.0033021E+03   1.0033137E+03   1.0033397E+03   1.0033340E+03   1.0032320E+03   1.0030714E+03   1.0030731E+03   1.0030811E+03   1.0030977E+03   1.0031022E+03   1.0030505E+03   1.0029260E+03   1.0027487E+03   1.0028138E+03   1.0028094E+03   1.0027970E+03   1.0027665E+03   1.0027166E+03   1.0026326E+03   1.0025645E+03   1.0024791E+03   1.0024979E+03   1.0025045E+03   1.0025175E+03   1.0025309E+03   1.0025501E+03   1.0025272E+03   1.0026000E+03   1.0027024E+03   1.0027139E+03   1.0027412E+03   1.0027706E+03   1.0028018E+03   1.0002234E+03   1.0002160E+03   1.0002062E+03   1.0001933E+03   1.0001765E+03   1.0001552E+03   1.0001298E+03   1.0002618E+03   1.0002540E+03   1.0002435E+03   1.0002292E+03   1.0002106E+03   1.0001868E+03   1.0001580E+03   1.0001245E+03   1.0002938E+03   1.0002861E+03   1.0002755E+03   1.0002606E+03   1.0002410E+03   1.0002151E+03   1.0001829E+03   1.0001456E+03   1.0003246E+03   1.0003176E+03   1.0003070E+03   1.0002922E+03   1.0002712E+03   1.0002433E+03   1.0002080E+03   1.0001662E+03   1.0003586E+03   1.0003524E+03   1.0003423E+03   1.0003277E+03   1.0003056E+03   1.0002753E+03   1.0002364E+03   1.0001901E+03   1.0003993E+03   1.0003942E+03   1.0003849E+03   1.0003702E+03   1.0003475E+03   1.0003161E+03   1.0002745E+03   1.0002232E+03   1.0004479E+03   1.0004443E+03   1.0004362E+03   1.0004221E+03   1.0004011E+03   1.0003715E+03   1.0003304E+03   1.0002764E+03   1.0005044E+03   1.0005025E+03   1.0004962E+03   1.0004855E+03   1.0004697E+03   1.0004475E+03   1.0004150E+03   1.0003624E+03   1.0005680E+03   1.0005678E+03   1.0005649E+03   1.0005597E+03   1.0005544E+03   1.0005484E+03   1.0005353E+03   1.0004937E+03   1.0006381E+03   1.0006403E+03   1.0006408E+03   1.0006432E+03   1.0006522E+03   1.0006700E+03   1.0006887E+03   1.0006761E+03   1.0007144E+03   1.0007186E+03   1.0007224E+03   1.0007318E+03   1.0007554E+03   1.0007992E+03   1.0008570E+03   1.0008911E+03   1.0007966E+03   1.0008019E+03   1.0008079E+03   1.0008218E+03   1.0008549E+03   1.0009178E+03   1.0010043E+03   1.0010602E+03   1.0008850E+03   1.0008904E+03   1.0008962E+03   1.0009103E+03   1.0009442E+03   1.0010059E+03   1.0010756E+03   1.0010806E+03   1.0009804E+03   1.0009851E+03   1.0009891E+03   1.0009989E+03   1.0010240E+03   1.0010656E+03   1.0010923E+03   1.0010624E+03   1.0010844E+03   1.0010875E+03   1.0010893E+03   1.0010935E+03   1.0011055E+03   1.0011229E+03   1.0011196E+03   1.0010860E+03   1.0011982E+03   1.0012004E+03   1.0011998E+03   1.0011990E+03   1.0012004E+03   1.0012006E+03   1.0011848E+03   1.0011567E+03   1.0013250E+03   1.0013257E+03   1.0013237E+03   1.0013197E+03   1.0013150E+03   1.0013074E+03   1.0012886E+03   1.0012651E+03   1.0014664E+03   1.0014663E+03   1.0014628E+03   1.0014568E+03   1.0014495E+03   1.0014399E+03   1.0014221E+03   1.0014015E+03   1.0016237E+03   1.0016232E+03   1.0016190E+03   1.0016118E+03   1.0016032E+03   1.0015937E+03   1.0015767E+03   1.0015564E+03   1.0017984E+03   1.0017982E+03   1.0017938E+03   1.0017859E+03   1.0017767E+03   1.0017676E+03   1.0017509E+03   1.0017288E+03   1.0019913E+03   1.0019921E+03   1.0019882E+03   1.0019807E+03   1.0019713E+03   1.0019631E+03   1.0019468E+03   1.0019229E+03   1.0022026E+03   1.0022054E+03   1.0022032E+03   1.0021968E+03   1.0021886E+03   1.0021822E+03   1.0021671E+03   1.0021431E+03   1.0024316E+03   1.0024375E+03   1.0024386E+03   1.0024355E+03   1.0024304E+03   1.0024272E+03   1.0024144E+03   1.0023918E+03   1.0026769E+03   1.0026884E+03   1.0026946E+03   1.0026969E+03   1.0026982E+03   1.0027004E+03   1.0026908E+03   1.0026718E+03   1.0029286E+03   1.0029478E+03   1.0029623E+03   1.0029732E+03   1.0029853E+03   1.0029987E+03   1.0029933E+03   1.0029778E+03   1.0031692E+03   1.0031989E+03   1.0032236E+03   1.0032471E+03   1.0032759E+03   1.0033081E+03   1.0033097E+03   1.0032967E+03   1.0033795E+03   1.0034205E+03   1.0034570E+03   1.0034941E+03   1.0035450E+03   1.0036083E+03   1.0036217E+03   1.0036085E+03   1.0035379E+03   1.0035884E+03   1.0036342E+03   1.0036836E+03   1.0037595E+03   1.0038660E+03   1.0039006E+03   1.0038859E+03   1.0036592E+03   1.0037128E+03   1.0037601E+03   1.0038143E+03   1.0039120E+03   1.0040690E+03   1.0041364E+03   1.0041200E+03   1.0038594E+03   1.0039042E+03   1.0039396E+03   1.0039847E+03   1.0040906E+03   1.0042906E+03   1.0043936E+03   1.0043769E+03   1.0044937E+03   1.0045131E+03   1.0045193E+03   1.0045356E+03   1.0046258E+03   1.0048295E+03   1.0049473E+03   1.0049279E+03   1.0062971E+03   1.0062753E+03   1.0062346E+03   1.0062048E+03   1.0062552E+03   1.0063987E+03   1.0064419E+03   1.0064078E+03   1.0099479E+03   1.0098759E+03   1.0097818E+03   1.0097006E+03   1.0096677E+03   1.0096353E+03   1.0095363E+03   1.0094529E+03   1.0143870E+03   1.0142735E+03   1.0141391E+03   1.0140043E+03   1.0138292E+03   1.0135674E+03   1.0133437E+03   1.0132112E+03   1.0169758E+03   1.0168504E+03   1.0167080E+03   1.0165377E+03   1.0162368E+03   1.0158688E+03   1.0156231E+03   1.0154947E+03   1.0169203E+03   1.0168228E+03   1.0167109E+03   1.0165385E+03   1.0162165E+03   1.0159081E+03   1.0157656E+03   1.0156907E+03   1.0155228E+03   1.0154877E+03   1.0154404E+03   1.0153353E+03   1.0151267E+03   1.0150056E+03   1.0150622E+03   1.0150836E+03   1.0142062E+03   1.0142540E+03   1.0143226E+03   1.0143805E+03   1.0144031E+03   1.0145109E+03   1.0146566E+03   1.0147935E+03   1.0136423E+03   1.0137599E+03   1.0139291E+03   1.0141291E+03   1.0143459E+03   1.0146331E+03   1.0148157E+03   1.0150577E+03   1.0137802E+03   1.0139355E+03   1.0141599E+03   1.0144407E+03   1.0147609E+03   1.0151142E+03   1.0153347E+03   1.0156480E+03   1.0142909E+03   1.0144461E+03   1.0146752E+03   1.0149690E+03   1.0153042E+03   1.0156595E+03   1.0159093E+03   1.0162579E+03   1.0148699E+03   1.0149931E+03   1.0151874E+03   1.0154403E+03   1.0157263E+03   1.0160548E+03   1.0163176E+03   1.0166688E+03   1.0150814E+03   1.0151531E+03   1.0152894E+03   1.0154760E+03   1.0156943E+03   1.0159894E+03   1.0162448E+03   1.0165719E+03   1.0149960E+03   1.0150100E+03   1.0150784E+03   1.0151891E+03   1.0153337E+03   1.0155817E+03   1.0158061E+03   1.0160875E+03   1.0148071E+03   1.0147646E+03   1.0147627E+03   1.0147926E+03   1.0148566E+03   1.0150348E+03   1.0151999E+03   1.0154154E+03   1.0146417E+03   1.0145494E+03   1.0144785E+03   1.0144254E+03   1.0143997E+03   1.0144778E+03   1.0145496E+03   1.0146843E+03   1.0144845E+03   1.0143560E+03   1.0142237E+03   1.0140931E+03   1.0139703E+03   1.0139258E+03   1.0138715E+03   1.0139119E+03   1.0142085E+03   1.0140615E+03   1.0138842E+03   1.0136822E+03   1.0134811E+03   1.0133021E+03   1.0131036E+03   1.0130368E+03   1.0136851E+03   1.0135356E+03   1.0133322E+03   1.0130706E+03   1.0127983E+03   1.0125244E+03   1.0121834E+03   1.0120137E+03   1.0128700E+03   1.0127281E+03   1.0125152E+03   1.0122180E+03   1.0118777E+03   1.0115580E+03   1.0111199E+03   1.0108660E+03   1.0118134E+03   1.0116823E+03   1.0114713E+03   1.0111651E+03   1.0107886E+03   1.0104439E+03   1.0099775E+03   1.0096718E+03   1.0106207E+03   1.0104982E+03   1.0102973E+03   1.0100027E+03   1.0096298E+03   1.0092852E+03   1.0088464E+03   1.0085246E+03   1.0094037E+03   1.0092872E+03   1.0091045E+03   1.0088385E+03   1.0085008E+03   1.0081757E+03   1.0077773E+03   1.0074547E+03   1.0082479E+03   1.0081362E+03   1.0079797E+03   1.0077573E+03   1.0074727E+03   1.0071765E+03   1.0067579E+03   1.0063059E+03   1.0071979E+03   1.0070967E+03   1.0069753E+03   1.0068057E+03   1.0065979E+03   1.0063442E+03   1.0058762E+03   1.0053021E+03   1.0062699E+03   1.0061890E+03   1.0061110E+03   1.0060056E+03   1.0058870E+03   1.0056798E+03   1.0051326E+03   1.0054700E+03   1.0054226E+03   1.0053925E+03   1.0053510E+03   1.0053030E+03   1.0050549E+03   1.0044871E+03   1.0048077E+03   1.0048015E+03   1.0048064E+03   1.0047961E+03   1.0047371E+03   1.0043643E+03   1.0042933E+03   1.0043130E+03   1.0043033E+03   1.0042658E+03   1.0040487E+03   1.0036844E+03   1.0039080E+03   1.0038781E+03   1.0037819E+03   1.0036284E+03   1.0033080E+03   1.0035306E+03   1.0033777E+03   1.0031231E+03   1.0029247E+03   1.0030428E+03   1.0027861E+03   1.0024810E+03   1.0026967E+03   1.0025855E+03   1.0024235E+03   1.0025072E+03 
Mass 1 2975 float
  4.0000001E-01   4.0000001E-01   4.0000001E-01   4.0000001E-01   4.0000001E-01   4.0000001E-01   4.0000001E-01   4.0000001E-01   4.0000001E-01   4.0000001E-01   4.0000001E-01   4.0000001E-01   4.0000001E-01   4.0000001E-01   4.0000001E-01   4.0000001E-01   4.0000001E-01   4.0000001E-01   4.0000001E-01   4.0000001E-01   4.0000001E-01   4.0000001E-01   4.0000001E-01   4.0000001E-01   4.0000001E-01   4.0000001E-01   4.0000001E-01   4.0000001E-01   4.0000001E-01   4.0000001E-01   4.0000001E-01   4.0000001E-01   4.0000001E-01   4.0000001E-01   4.0000001E-01   4.0000001E-01   4.0000001E-01   4.0000001E-01   4.0000001E-01   4.0000001E-01   4.0000001E-01   4.0000001E-01   4.0000001E-01   4.0000001E-01   4.0000001E-01   4.0000001E-01   4.0000001E-01   4.0000001E-01   4.0000001E-01   4.0000001E-01   4.0000001E-01   4.0000001E-01   4.0000001E-01   4.0000001E-01   4.0000001E-01   4.0000001E-01   4.0000001E-01   4.0000001E-01   4.0000001E-01   4.0000001E-01   4.0000001E-01   4.0000001E-01   4.0000001E-01   4.0000001E-01   4.0000001E-01   4.0000001E-01   4.0000001E-01   4.0000001E-01   4.0000001E-01   4.0000001E-01   4.0000001E-01   4.0000001E-01   4.0000001E-01   4.0000001E-01   4.0000001E-01   4.0000001E-01   4.0000001E-01   4.0000001E-01   4.0000001E-01   4.0000001E-01   4.0000001E-01   4.0000001E-01   4.0000001E-01   4.0000001E-01   4.0000001E-01   4.0000001E-01   4.0000001E-01   4.0000001E-01   4.0000001E-01   4.0000001E-01   4.0000001E-01   4.0000001E-01   4.0000001E-01   4.0000001E-01   4.0000001E-01   4.0000001E-01   4.0000001E-01   4.0000001E-01   4.0000001E-01   4.0000001E-01   4.0000001E-01   4.0000001E-01   4.0000001E-01   4.0000001E-01   4.0000001E-01   4.0000001E-01   4.0000001E-01   4.0000001E-01   4.0000001E-01   4.0000001E-01   4.0000001E-01   4.0000001E-01   4.0000001E-01   4.0000001E-01   4.0000001E-01   4.0000001E-01   4.0000001E-01   4.0000001E-01   4.0000001E-01   4.0000001E-01   4.0000001E-01   4.0000001E-01   4.0000001E-01   4.0000001E-01   4.0000001E-01   4.0000001E-01   4.0000001E-01   4.0000001E-01   4.0000001E-01   4.0000001E-01   4.0000001E-01   4.0000001E-01   4.0000001E-01   4.0000001E-01   4.0000001E-01   4.0000001E-01   4.0000001E-01   4.0000001E-01   4.0000001E-01   4.0000001E-01   4.0000001E-01   4.0000001E-01   4.0000001E-01   4.0000001E-01   4.0000001E-01   4.0000001E-01   4.0000001E-01   4.0000001E-01   4.0000001E-01   4.0000001E-01   4.0000001E-01   4.0000001E-01   4.0000001E-01   4.0000001E-01   4.0000001E-01   4.0000001E-01   4.0000001E-01   4.0000001E-01   4.0000001E-01   4.0000001E-01   4.0000001E-01   4.0000001E-01   4.0000001E-01   4.0000001E-01   4.0000001E-01   4.0000001E-01   4.0000001E-01   4.0000001E-01   4.0000001E-01   4.0000001E-01   4.0000001E-01   4.0000001E-01   4.0000001E-01   4.0000001E-01   4.0000001E-01   4.0000001E-01   4.0000001E-01   4.0000001E-01   4.0000001E-01   4.0000001E-01   4.0000001E-01   4.0000001E-01   4.0000001E-01   4.0000001E-01   4.0000001E-01   4.0000001E-01   4.0000001E-01   4.0000001E-01   4.0000001E-01   4.0000001E-01   4.0000001E-01   4.0000001E-01   4.0000001E-01   4.0000001E-01   4.0000001E-01   4.0000001E-01   4.0000001E-01   4.0000001E-01   4.0000001E-01   4.0000001E-01   4.0000001E-01   4.0000001E-01   4.0000001E-01   4.0000001E-01   4.0000001E-01   4.0000001E-01   4.0000001E-01   4.0000001E-01   4.0000001E-01   4.0000001E-01   4.0000001E-01   4.0000001E-01   4.0000001E-01   4.0000001E-01   4.0000001E-01   4.0000001E-01   4.0000001E-01   4.0000001E-01   4.0000001E-01   4.0000001E-01   4.0000001E-01   4.0000001E-01   4.0000001E-01   4.0000001E-01   4.0000001E-01   4.0000001E-01   4.0000001E-01   4.0000001E-01   4.0000001E-01   4.0000001E-01   4.0000001E-01   4.0000001E-01   4.0000001E-01   4.0000001E-01   4.0000001E-01   4.0000001E-01   4.0000001E-01   4.0000001E-01   4.0000001E-01   4.0000001E-01   4.0000001E-01   4.0000001E-01   4.0000001E-01   4.0000001E-01   4.0000001E-01   4.0000001E-01   4.0000001E-01   4.0000001E-01   4.0000001E-01   4.0000001E-01   4.0000001E-01   4.0000001E-01   4.0000001E-01   4.0000001E-01   4.0000001E-01   4.0000001E-01   4.0000001E-01   4.0000001E-01   4.0000001E-01   4.0000001E-01   4.0000001E-01   4.0000001E-01   4.0000001E-01   4.0000001E-01   4.0000001E-01   4.0000001E-01   4.0000001E-01   4.0000001E-01   4.0000001E-01   4.0000001E-01   4.0000001E-01   4.0000001E-01   4.0000001E-01   4.0000001E-01   4.0000001E-01   4.0000001E-01   4.0000001E-01   4.0000001E-01   4.0000001E-01   4.0000001E-01   4.0000001E-01   4.0000001E-01   4.0000001E-01   4.0000001E-01   4.0000001E-01   4.0000001E-01   4.0000001E-01   4.0000001E-01   4.0000001E-01   4.0000001E-01   4.0000001E-01   4.0000001E-01   4.0000001E-01   4.0000001E-01   4.0000001E-01   4.0000001E-01   4.0000001E-01   4.0000001E-01   4.0000001E-01   4.0000001E-01   4.0000001E-01   4.0000001E-01   4.0000001E-01   4.0000001E-01   4.0000001E-01   4.0000001E-01   4.0000001E-01   4.0000001E-01   4.0000001E-01   4.0000001E-01   4.0000001E-01   4.0000001E-01   4.0000001E-01   4.0000001E-01   4.0000001E-01   4.0000001E-01   4.0000001E-01   4.0000001E-01   4.0000001E-01   4.0000001E-01   4.0000001E-01   4.0000001E-01   4.0000001E-01   4.0000001E-01   4.0000001E-01   4.0000001E-01   4.0000001E-01   4.0000001E-01   4.0000001E-01   4.0000001E-01   4.0000001E-01   4.0000001E-01   4.0000001E-01   4.0000001E-01   4.0000001E-01   4.0000001E-01   4.0000001E-01   4.0000001E-01   4.0000001E-01   4.0000001E-01   4.0000001E-01   4.0000001E-01   4.0000001E-01   4.0000001E-01   4.0000001E-01   4.0000001E-01   4.0000001E-01   4.0000001E-01   4.0000001E-01   4.0000001E-01   4.0000001E-01   4.0000001E-01   4.0000001E-01   4.0000001E-01   4.0000001E-01   4.0000001E-01   4.0000001E-01   4.0000001E-01   4.0000001E-01   4.0000001E-01   4.0000001E-01   4.0000001E-01   4.0000001E-01   4.0000001E-01   4.0000001E-01   4.0000001E-01   4.0000001E-01   4.0000001E-01   4.0000001E-01   4.0000001E-01   4.0000001E-01   4.0000001E-01   4.0000001E-01   4.0000001E-01   4.0000001E-01   4.0000001E-01   4.0000001E-01   4.0000001E-01   4.0000001E-01   4.0000001E-01   4.0000001E-01   4.0000001E-01   4.0000001E-01   4.0000001E-01   4.0000001E-01   4.0000001E-01   4.0000001E-01   4.0000001E-01   4.0000001E-01   4.0000001E-01   4.0000001E-01   4.0000001E-01   4.0000001E-01   4.0000001E-01   4.0000001E-01   4.0000001E-01   4.0000001E-01   4.0000001E-01   4.0000001E-01   4.0000001E-01   4.0000001E-01   4.0000001E-01   4.0000001E-01   4.0000001E-01   4.0000001E-01   4.0000001E-01   4.0000001E-01   4.0000001E-01   4.0000001E-01   4.0000001E-01   4.0000001E-01   4.0000001E-01   4.0000001E-01   4.0000001E-01   4.0000001E-01   4.0000001E-01   4.0000001E-01   4.0000001E-01   4.0000001E-01   4.0000001E-01   4.0000001E-01   4.0000001E-01   4.0000001E-01   4.0000001E-01   4.0000001E-01   4.0000001E-01   4.0000001E-01   4.0000001E-01   4.0000001E-01   4.0000001E-01   4.0000001E-01   4.0000001E-01   4.0000001E-01   4.0000001E-01   4.0000001E-01   4.0000001E-01   4.0000001E-01   4.0000001E-01   4.0000001E-01   4.0000001E-01   4.0000001E-01   4.0000001E-01   4.0000001E-01   4.0000001E-01   4.0000001E-01   4.0000001E-01   4.0000001E-01   4.0000001E-01   4.0000001E-01   4.0000001E-01   4.0000001E-01   4.0000001E-01   4.0000001E-01   4.0000001E-01   4.0000001E-01   4.0000001E-01   4.0000001E-01   4.0000001E-01   4.0000001E-01   4.0000001E-01   4.0000001E-01   4.0000001E-01   4.0000001E-01   4.0000001E-01   4.0000001E-01   4.0000001E-01   4.0000001E-01   4.0000001E-01   4.0000001E-01   4.0000001E-01   4.0000001E-01   4.0000001E-01   4.0000001E-01   4.0000001E-01   4.0000001E-01   4.0000001E-01   4.0000001E-01   4.0000001E-01   4.0000001E-01   4.0000001E-01   4.0000001E-01   4.0000001E-01   4.0000001E-01   4.0000001E-01   4.0000001E-01   4.0000001E-01   4.0000001E-01   4.0000001E-01   4.0000001E-01   4.0000001E-01   4.0000001E-01   4.0000001E-01   4.0000001E-01   4.0000001E-01   4.0000001E-01   4.0000001E-01   4.0000001E-01   4.0000001E-01   4.0000001E-01   4.0000001E-01   4.0000001E-01   4.0000001E-01   4.0000001E-01   4.0000001E-01   4.0000001E-01   4.0000001E-01   4.0000001E-01   4.0000001E-01   4.0000001E-01   4.0000001E-01   4.0000001E-01   4.0000001E-01   4.0000001E-01   4.0000001E-01   4.0000001E-01   4.0000001E-01   4.0000001E-01   4.0000001E-01   4.0000001E-01   4.0000001E-01   4.0000001E-01   4.0000001E-01   4.0000001E-01   4.0000001E-01   4.0000001E-01   4.0000001E-01   4.0000001E-01   4.0000001E-01   4.0000001E-01   4.0000001E-01   4.0000001E-01   4.0000001E-01   4.0000001E-01   4.0000001E-01   4.0000001E-01   4.0000001E-01   4.0000001E-01   4.0000001E-01   4.0000001E-01   4.0000001E-01   4.0000001E-01   4.0000001E-01   4.0000001E-01   4.0000001E-01   4.0000001E-01   4.0000001E-01   4.0000001E-01   4.0000001E-01   4.0000001E-01   4.0000001E-01   4.0000001E-01   4.0000001E-01   4.0000001E-01   4.0000001E-01   4.0000001E-01   4.0000001E-01   4.0000001E-01   4.0000001E-01   4.0000001E-01   4.0000001E-01   4.0000001E-01   4.0000001E-01   4.0000001E-01   4.0000001E-01   4.0000001E-01   4.0000001E-01   4.0000001E-01   4.0000001E-01   4.0000001E-01   4.0000001E-01   4.0000001E-01   4.0000001E-01   4.0000001E-01   4.0000001E-01   4.0000001E-01   4.0000001E-01   4.0000001E-01   4.0000001E-01   4.0000001E-01   4.0000001E-01   4.0000001E-01   4.0000001E-01   4.0000001E-01   4.0000001E-01   4.0000001E-01   4.0000001E-01   4.0000001E-01   4.0000001E-01   4.0000001E-01   4.0000001E-01   4.0000001E-01   4.0000001E-01   4.0000001E-01   4.0000001E-01   4.0000001E-01   4.0000001E-01   4.0000001E-01   4.0000001E-01   4.0000001E-01   4.0000001E-01   4.0000001E-01   4.0000001E-01   4.0000001E-01   4.0000001E-01   4.0000001E-01   4.0000001E-01   4.0000001E-01   4.0000001E-01   4.0000001E-01   4.0000001E-01   4.0000001E-01   4.0000001E-01   4.0000001E-01   4.0000001E-01   4.0000001E-01   4.0000001E-01   4.0000001E-01   4.0000001E-01   4.0000001E-01   4.0000001E-01   4.0000001E-01   4.0000001E-01   4.0000001E-01   4.0000001E-01   4.0000001E-01   4.0000001E-01   4.0000001E-01   4.0000001E-01   4.0000001E-01   4.0000001E-01   4.0000001E-01   4.0000001E-01   4.0000001E-01   4.0000001E-01   4.0000001E-01   4.0000001E-01   4.0000001E-01   4.0000001E-01   4.0000001E-01   4.0000001E-01   4.0000001E-01   4.0000001E-01   4.0000001E-01   4.0000001E-01   4.0000001E-01   4.0000001E-01   4.0000001E-01   4.0000001E-01   4.0000001E-01   4.0000001E-01   4.0000001E-01   4.0000001E-01   4.0000001E-01   4.0000001E-01   4.0000001E-01   4.0000001E-01   4.0000001E-01   4.0000001E-01   4.0000001E-01   4.0000001E-01   4.0000001E-01   4.0000001E-01   4.0000001E-01   4.0000001E-01   4.0000001E-01   4.0000001E-01   4.0000001E-01   4.0000001E-01   4.0000001E-01   4.0000001E-01   4.0000001E-01   4.0000001E-01   4.0000001E-01   4.0000001E-01   4.0000001E-01   4.0000001E-01   4.0000001E-01   4.0000001E-01   4.0000001E-01   4.0000001E-01   4.0000001E-01   4.0000001E-01   4.0000001E-01   4.0000001E-01   4.0000001E-01   4.0000001E-01   4.0000001E-01   4.0000001E-01   4.0000001E-01   4.0000001E-01   4.0000001E-01   4.0000001E-01   4.0000001E-01   4.0000001E-01   4.0000001E-01   4.0000001E-01   4.0000001E-01   4.0000001E-01   4.0000001E-01   4.0000001E-01   4.0000001E-01   4.0000001E-01   4.0000001E-01   4.0000001E-01   4.0000001E-01   4.0000001E-01   4.0000001E-01   4.0000001E-01   4.0000001E-01   4.0000001E-01   4.0000001E-01   4.0000001E-01   4.0000001E-01   4.0000001E-01   4.0000001E-01   4.0000001E-01   4.0000001E-01   4.0000001E-01   4.0000001E-01   4.0000001E-01   4.0000001E-01   4.0000001E-01   4.0000001E-01   4.0000001E-01   4.0000001E-01   4.0000001E-01   4.0000001E-01   4.0000001E-01   4.0000001E-01   4.0000001E-01   4.0000001E-01   4.0000001E-01   4.0000001E-01   4.0000001E-01   4.0000001E-01   4.0000001E-01   4.0000001E-01   4.0000001E-01   4.0000001E-01   4.0000001E-01   4.0000001E-01   4.0000001E-01   4.0000001E-01   4.0000001E-01   4.0000001E-01   4.0000001E-01   4.0000001E-01   4.0000001E-01   4.0000001E-01   4.0000001E-01   4.0000001E-01   4.0000001E-01   4.0000001E-01   4.0000001E-01   4.0000001E-01   4.0000001E-01   4.0000001E-01   4.0000001E-01   4.0000001E-01   4.0000001E-01   4.0000001E-01   4.0000001E-01   4.0000001E-01   4.0000001E-01   4.0000001E-01   4.0000001E-01   4.0000001E-01   4.0000001E-01   4.0000001E-01   4.0000001E-01   4.0000001E-01   4.0000001E-01   4.0000001E-01   4.0000001E-01   4.0000001E-01   4.0000001E-01   4.0000001E-01   4.0000001E-01   4.0000001E-01   4.0000001E-01   4.0000001E-01   4.0000001E-01   4.0000001E-01   4.0000001E-01   4.0000001E-01   4.0000001E-01   4.0000001E-01   4.0000001E-01   4.0000001E-01   4.0000001E-01   4.0000001E-01   4.0000001E-01   4.0000001E-01   4.0000001E-01   4.0000001E-01   4.0000001E-01   4.0000001E-01   4.0000001E-01   4.0000001E-01   4.0000001E-01   4.0000001E-01   4.0000001E-01   4.0000001E-01   4.0000001E-01   4.0000001E-01   4.0000001E-01   4.0000001E-01   4.0000001E-01   4.0000001E-01   4.0000001E-01   4.0000001E-01   4.0000001E-01   4.0000001E-01   4.0000001E-01   4.0000001E-01   4.0000001E-01   4.0000001E-01   4.0000001E-01   4.0000001E-01   4.0000001E-01   4.0000001E-01   4.0000001E-01   4.0000001E-01   4.0000001E-01   4.0000001E-01   4.0000001E-01   4.0000001E-01   4.0000001E-01   4.0000001E-01   4.0000001E-01   4.0000001E-01   4.0000001E-01   4.0000001E-01   4.0000001E-01   4.0000001E-01   4.0000001E-01   4.0000001E-01   4.0000001E-01   4.0000001E-01   4.0000001E-01   4.0000001E-01   4.0000001E-01   4.0000001E-01   4.0000001E-01   4.0000001E-01   4.0000001E-01   4.0000001E-01   4.0000001E-01   4.0000001E-01   4.0000001E-01   4.0000001E-01   4.0000001E-01   4.0000001E-01   4.0000001E-01   4.0000001E-01   4.0000001E-01   4.0000001E-01   4.0000001E-01   4.0000001E-01   4.0000001E-01   4.0000001E-01   4.0000001E-01   4.0000001E-01   4.0000001E-01   4.0000001E-01   4.0000001E-01   4.0000001E-01   4.0000001E-01   4.0000001E-01   4.0000001E-01   4.0000001E-01   4.0000001E-01   4.0000001E-01   4.0000001E-01   4.0000001E-01   4.0000001E-01   4.0000001E-01   4.0000001E-01   4.0000001E-01   4.0000001E-01   4.0000001E-01   4.0000001E-01   4.0000001E-01   4.0000001E-01   4.0000001E-01   4.0000001E-01   4.0000001E-01   4.0000001E-01   4.0000001E-01   4.0000001E-01   4.0000001E-01   4.0000001E-01   4.0000001E-01   4.0000001E-01   4.0000001E-01   4.0000001E-01   4.0000001E-01   4.0000001E-01   4.0000001E-01   4.0000001E-01   4.0000001E-01   4.0000001E-01   4.0000001E-01   4.0000001E-01   4.0000001E-01   4.0000001E-01   4.0000001E-01   4.0000001E-01   4.0000001E-01   4.0000001E-01   4.0000001E-01   4.0000001E-01   4.0000001E-01   4.0000001E-01   4.0000001E-01   4.0000001E-01   4.0000001E-01   4.0000001E-01   4.0000001E-01   4.0000001E-01   4.0000001E-01   4.0000001E-01   4.0000001E-01   4.0000001E-01   4.0000001E-01   4.0000001E-01   4.0000001E-01   4.0000001E-01   4.0000001E-01   4.0000001E-01   4.0000001E-01   4.0000001E-01   4.0000001E-01   4.0000001E-01   4.0000001E-01   4.0000001E-01   4.0000001E-01   4.0000001E-01   4.0000001E-01   4.0000001E-01   4.0000001E-01   4.0000001E-01   4.0000001E-01   4.0000001E-01   4.0000001E-01   4.0000001E-01   4.0000001E-01   4.0000001E-01   4.0000001E-01   4.0000001E-01   4.0000001E-01   4.0000001E-01   4.0000001E-01   4.0000001E-01   4.0000001E-01   4.0000001E-01   4.0000001E-01   4.0000001E-01   4.0000001E-01   4.0000001E-01   4.0000001E-01   4.0000001E-01   4.0000001E-01   4.0000001E-01   4.0000001E-01   4.0000001E-01   4.0000001E-01   4.0000001E-01   4.0000001E-01   4.0000001E-01   4.0000001E-01   4.0000001E-01   4.0000001E-01   4.0000001E-01   4.0000001E-01   4.0000001E-01   4.0000001E-01   4.0000001E-01   4.0000001E-01   4.0000001E-01   4.0000001E-01   4.0000001E-01   4.0000001E-01   4.0000001E-01   4.0000001E-01   4.0000001E-01   4.0000001E-01   4.0000001E-01   4.0000001E-01   4.0000001E-01   4.0000001E-01   4.0000001E-01   4.0000001E-01   4.0000001E-01   4.0000001E-01   4.0000001E-01   4.0000001E-01   4.0000001E-01   4.0000001E-01   4.0000001E-01   4.0000001E-01   4.0000001E-01   4.0000001E-01   4.0000001E-01   4.0000001E-01   4.0000001E-01   4.0000001E-01   4.0000001E-01   4.0000001E-01   4.0000001E-01   4.0000001E-01   4.0000001E-01   4.0000001E-01   4.0000001E-01   4.0000001E-01   4.0000001E-01   4.0000001E-01   4.0000001E-01   4.0000001E-01   4.0000001E-01   4.0000001E-01   4.0000001E-01   4.0000001E-01   4.0000001E-01   4.0000001E-01   4.0000001E-01   4.0000001E-01   4.0000001E-01   4.0000001E-01   4.0000001E-01   4.0000001E-01   4.0000001E-01   4.0000001E-01   4.0000001E-01   4.0000001E-01   4.0000001E-01   4.0000001E-01   4.0000001E-01   4.0000001E-01   4.0000001E-01   4.0000001E-01   4.0000001E-01   4.0000001E-01   4.0000001E-01   4.0000001E-01   4.0000001E-01   4.0000001E-01   4.0000001E-01   4.0000001E-01   4.0000001E-01   4.0000001E-01   4.0000001E-01   4.0000001E-01   4.0000001E-01   4.0000001E-01   4.0000001E-01   4.0000001E-01   4.0000001E-01   4.0000001E-01   4.0000001E-01   4.0000001E-01   4.0000001E-01   4.0000001E-01   4.0000001E-01   4.0000001E-01   4.0000001E-01   4.0000001E-01   4.0000001E-01   4.0000001E-01   4.0000001E-01   4.0000001E-01   4.0000001E-01   4.0000001E-01   4.0000001E-01   4.0000001E-01   4.0000001E-01   4.0000001E-01   4.0000001E-01   4.0000001E-01   4.0000001E-01   4.0000001E-01   4.0000001E-01   4.0000001E-01   4.0000001E-01   4.0000001E-01   4.0000001E-01   4.0000001E-01   4.0000001E-01   4.0000001E-01   4.0000001E-01   4.0000001E-01   4.0000001E-01   4.0000001E-01   4.0000001E-01   4.0000001E-01   4.0000001E-01   4.0000001E-01   4.0000001E-01   4.0000001E-01   4.0000001E-01   4.0000001E-01   4.0000001E-01   4.0000001E-01   4.0000001E-01   4.0000001E-01   4.0000001E-01   4.0000001E-01   4.0000001E-01   4.0000001E-01   4.0000001E-01   4.0000001E-01   4.0000001E-01   4.0000001E-01   4.0000001E-01   4.0000001E-01   4.0000001E-01   4.0000001E-01   4.0000001E-01   4.0000001E-01   4.0000001E-01   4.0000001E-01   4.0000001E-01   4.0000001E-01   4.0000001E-01   4.0000001E-01   4.0000001E-01   4.0000001E-01   4.0000001E-01   4.0000001E-01   4.0000001E-01   4.0000001E-01   4.0000001E-01   4.0000001E-01   4.0000001E-01   4.0000001E-01   4.0000001E-01   4.0000001E-01   4.0000001E-01   4.0000001E-01   4.0000001E-01   4.0000001E-01   4.0000001E-01   4.0000001E-01   4.0000001E-01   4.0000001E-01   4.0000001E-01   4.0000001E-01   4.0000001E-01   4.0000001E-01   4.0000001E-01   4.0000001E-01   4.0000001E-01   4.0000001E-01   4.0000001E-01   4.0000001E-01   4.0000001E-01   4.0000001E-01   4.0000001E-01   4.0000001E-01   4.0000001E-01   4.0000001E-01   4.0000001E-01   4.0000001E-01   4.0000001E-01   4.0000001E-01   4.0000001E-01   4.0000001E-01   4.0000001E-01   4.0000078E-01   4.0000093E-01   4.0000090E-01   4.0000081E-01   4.0000087E-01   4.0000096E-01   4.0000251E-01   4.0000245E-01   4.0000269E-01   4.0000239E-01   4.0000254E-01   4.0000248E-01   4.0000600E-01   4.0000612E-01   4.0000609E-01   4.0000612E-01   4.0000606E-01   4.0000615E-01   4.0001655E-01   4.0001658E-01   4.0001640E-01   4.0001652E-01   4.0001649E-01   4.0001649E-01   4.0004447E-01   4.0004444E-01   4.0004447E-01   4.0004444E-01   4.0004453E-01   4.0004453E-01   4.0011954E-01   4.0011957E-01   4.0011957E-01   4.0011960E-01   4.0011978E-01   4.0011972E-01   4.0031865E-01   4.0031886E-01   4.0031892E-01   4.0031895E-01   4.0031907E-01   4.0031922E-01   4.0082443E-01   4.0082479E-01   4.0082514E-01   4.0082550E-01   4.0082586E-01   4.0082592E-01   4.0198606E-01   4.0198699E-01   4.0198785E-01   4.0198857E-01   4.0198928E-01   4.0198967E-01   4.0413141E-01   4.0413329E-01   4.0413442E-01   4.0413535E-01   4.0413639E-01   4.0413710E-01   4.0686467E-01   4.0686643E-01   4.0686697E-01   4.0686709E-01   4.0686750E-01   4.0686810E-01   4.0907967E-01   4.0908006E-01   4.0907970E-01   4.0907851E-01   4.0907753E-01   4.0907726E-01   4.1030815E-01   4.1030717E-01   4.1030616E-01   4.1030437E-01   4.1030252E-01   4.1030154E-01   4.1084942E-01   4.1084921E-01   4.1084865E-01   4.1084665E-01   4.1084492E-01   4.1084394E-01   4.1106221E-01   4.1106254E-01   4.1106260E-01   4.1106156E-01   4.1106045E-01   4.1105971E-01   4.1114077E-01   4.1114151E-01   4.1114181E-01   4.1114148E-01   4.1114110E-01   4.1114056E-01   4.1116795E-01   4.1116893E-01   4.1116923E-01   4.1116920E-01   4.1116911E-01   4.1116890E-01   4.1117534E-01   4.1117644E-01   4.1117659E-01   4.1117665E-01   4.1117677E-01   4.1117659E-01   4.1115969E-01   4.1116083E-01   4.1116112E-01   4.1116112E-01   4.1116089E-01   4.1116059E-01   4.1097811E-01   4.1097918E-01   4.1097921E-01   4.1097909E-01   4.1097862E-01   4.1097826E-01   4.1062120E-01   4.1062179E-01   4.1062170E-01   4.1062132E-01   4.1062069E-01   4.1062036E-01   4.1010892E-01   4.1010901E-01   4.1010869E-01   4.1010809E-01   4.1010720E-01   4.1010675E-01   4.0946916E-01   4.0946883E-01   4.0946820E-01   4.0946725E-01   4.0946627E-01   4.0946576E-01   4.0873539E-01   4.0873471E-01   4.0873364E-01   4.0873253E-01   4.0873143E-01   4.0873075E-01   4.0794322E-01   4.0794212E-01   4.0794095E-01   4.0793958E-01   4.0793899E-01   4.0793851E-01   4.0712765E-01   4.0712637E-01   4.0712506E-01   4.0712398E-01   4.0712354E-01   4.0712327E-01   4.0631995E-01   4.0631852E-01   4.0631738E-01   4.0631676E-01   4.0631649E-01   4.0631616E-01   4.0554637E-01   4.0554526E-01   4.0554425E-01   4.0554383E-01   4.0554377E-01   4.0554368E-01   4.0482742E-01   4.0482679E-01   4.0482649E-01   4.0482631E-01   4.0482616E-01   4.0482634E-01   4.0417781E-01   4.0417770E-01   4.0417781E-01   4.0417799E-01   4.0417802E-01   4.0417814E-01   4.0360653E-01   4.0360662E-01   4.0360680E-01   4.0360716E-01   4.0360740E-01   4.0360776E-01   4.0311643E-01   4.0311661E-01   4.0311667E-01   4.0311715E-01   4.0311739E-01   4.0311790E-01   4.0270573E-01   4.0270564E-01   4.0270615E-01   4.0270656E-01   4.0270686E-01   4.0236896E-01   4.0236908E-01   4.0236935E-01   4.0236953E-01   4.0236992E-01   4.0209916E-01   4.0209916E-01   4.0209946E-01   4.0209976E-01   4.0188754E-01   4.0188757E-01   4.0188766E-01   4.0188786E-01   4.0172496E-01   4.0172505E-01   4.0172514E-01   4.0160286E-01   4.0160277E-01   4.0151253E-01   4.0151283E-01   4.0000001E-01   4.0000001E-01   4.0000001E-01   4.0000001E-01   4.0000001E-01   4.0000001E-01   4.0000001E-01   4.0000001E-01   4.0000001E-01   4.0000001E-01   4.0000001E-01   4.0000001E-01   4.0000001E-01   4.0000001E-01   4.0000001E-01   4.0000001E-01   4.0000001E-01   4.0000001E-01   4.0000001E-01   4.0000001E-01   4.0000001E-01   4.0000001E-01   4.0000001E-01   4.0000001E-01   4.0000001E-01   4.0000001E-01   4.0000001E-01   4.0000001E-01   4.0000001E-01   4.0000001E-01   4.0000001E-01   4.0000001E-01   4.0000001E-01   4.0000001E-01   4.0000001E-01   4.0000001E-01   4.0000001E-01   4.0000001E-01   4.0000001E-01   4.0000001E-01   4.0000001E-01   4.0000001E-01   4.0000001E-01   4.0000001E-01   4.0000001E-01   4.0000001E-01   4.0000001E-01   4.0000001E-01   4.0000001E-01   4.0000001E-01   4.0000001E-01   4.0000001E-01   4.0000001E-01   4.0000001E-01   4.0000001E-01   4.0000001E-01   4.0000001E-01   4.0000001E-01   4.0000001E-01   4.0000001E-01   4.0000001E-01   4.0000001E-01   4.0000001E-01   4.0000001E-01   4.0000001E-01   4.0000001E-01   4.0000001E-01   4.0000001E-01   4.0000001E-01   4.0000001E-01   4.0000001E-01   4.0000001E-01   4.0000001E-01   4.0000001E-01   4.0000001E-01   4.0000001E-01   4.0000001E-01   4.0000001E-01   4.0000001E-01   4.0000001E-01   4.0000001E-01   4.0000001E-01   4.0000001E-01   4.0000001E-01   4.0000001E-01   4.0000001E-01   4.0000001E-01   4.0000001E-01   4.0000001E-01   4.0000001E-01   4.0000001E-01   4.0000001E-01   4.0000001E-01   4.0000001E-01   4.0000001E-01   4.0000001E-01   4.0000001E-01   4.0000001E-01   4.0000001E-01   4.0000001E-01   4.0000001E-01   4.0000001E-01   4.0000001E-01   4.0000001E-01   4.0000001E-01   4.0000001E-01   4.0000001E-01   4.0000001E-01   4.0000001E-01   4.0000001E-01   4.0000001E-01   4.0000001E-01   4.0000001E-01   4.0000001E-01   4.0000001E-01   4.0000001E-01   4.0000001E-01   4.0000001E-01   4.0000001E-01   4.0000001E-01   4.0000001E-01   4.0000001E-01   4.0000001E-01   4.0000001E-01   4.0000001E-01   4.0000001E-01   4.0000001E-01   4.0000001E-01   4.0000001E-01   4.0000001E-01   4.0000001E-01   4.0000001E-01   4.0000001E-01   4.0000001E-01   4.0000001E-01   4.0000001E-01   4.0000001E-01   4.0000001E-01   4.0000001E-01   4.0000001E-01   4.0000001E-01   4.0000001E-01   4.0000001E-01   4.0000001E-01   4.0000001E-01   4.0000001E-01   4.0000001E-01   4.0000001E-01   4.0000001E-01   4.0000001E-01   4.0000001E-01   4.0000001E-01   4.0000001E-01   4.0000001E-01   4.0000001E-01   4.0000001E-01   4.0000001E-01   4.0000001E-01   4.0000001E-01   4.0000001E-01   4.0000001E-01   4.0000001E-01   4.0000001E-01   4.0000001E-01   4.0000001E-01   4.0000001E-01   4.0000001E-01   4.0000001E-01   4.0000001E-01   4.0000001E-01   4.0000001E-01   4.0000001E-01   4.0000001E-01   4.0000001E-01   4.0000001E-01   4.0000001E-01   4.0000001E-01   4.0000001E-01   4.0000001E-01   4.0000001E-01   4.0000001E-01   4.0000001E-01   4.0000001E-01   4.0000001E-01   4.0000001E-01   4.0000001E-01   4.0000001E-01   4.0000001E-01   4.0000001E-01   4.0000001E-01   4.0000001E-01   4.0000001E-01   4.0000001E-01   4.0000001E-01   4.0000001E-01   4.0000001E-01   4.0000001E-01   4.0000001E-01   4.0000001E-01   4.0000001E-01   4.0000001E-01   4.0000001E-01   4.0000001E-01   4.0000001E-01   4.0000001E-01   4.0000001E-01   4.0000001E-01   4.0000090E-01   4.0000087E-01   4.0000096E-01   4.0000090E-01   4.0000087E-01   4.0000081E-01   4.0000081E-01   4.0000084E-01   4.0000084E-01   4.0000257E-01   4.0000266E-01   4.0000263E-01   4.0000257E-01   4.0000269E-01   4.0000242E-01   4.0000272E-01   4.0000254E-01   4.0000248E-01   4.0000612E-01   4.0000594E-01   4.0000603E-01   4.0000591E-01   4.0000594E-01   4.0000603E-01   4.0000594E-01   4.0000609E-01   4.0000612E-01   4.0001652E-01   4.0001661E-01   4.0001664E-01   4.0001652E-01   4.0001658E-01   4.0001643E-01   4.0001664E-01   4.0001658E-01   4.0001658E-01   4.0004438E-01   4.0004462E-01   4.0004423E-01   4.0004444E-01   4.0004453E-01   4.0004459E-01   4.0004453E-01   4.0004462E-01   4.0004450E-01   4.0011963E-01   4.0011987E-01   4.0011978E-01   4.0011978E-01   4.0011987E-01   4.0011978E-01   4.0011999E-01   4.0012011E-01   4.0011993E-01   4.0031934E-01   4.0031919E-01   4.0031943E-01   4.0031943E-01   4.0031952E-01   4.0031961E-01   4.0031967E-01   4.0031978E-01   4.0031967E-01   4.0082607E-01   4.0082639E-01   4.0082654E-01   4.0082672E-01   4.0082684E-01   4.0082729E-01   4.0082741E-01   4.0082735E-01   4.0082750E-01   4.0199009E-01   4.0199083E-01   4.0199140E-01   4.0199155E-01   4.0199214E-01   4.0199247E-01   4.0199277E-01   4.0199283E-01   4.0199304E-01   4.0413803E-01   4.0413868E-01   4.0413946E-01   4.0414008E-01   4.0414086E-01   4.0414140E-01   4.0414178E-01   4.0414208E-01   4.0414229E-01   4.0686852E-01   4.0686929E-01   4.0686986E-01   4.0687022E-01   4.0687087E-01   4.0687138E-01   4.0687186E-01   4.0687218E-01   4.0687221E-01   4.0907708E-01   4.0907699E-01   4.0907693E-01   4.0907696E-01   4.0907705E-01   4.0907711E-01   4.0907735E-01   4.0907735E-01   4.0907738E-01   4.1030085E-01   4.1030008E-01   4.1029951E-01   4.1029915E-01   4.1029859E-01   4.1029862E-01   4.1029835E-01   4.1029826E-01   4.1029802E-01   4.1084304E-01   4.1084203E-01   4.1084141E-01   4.1084072E-01   4.1084003E-01   4.1083995E-01   4.1083935E-01   4.1083899E-01   4.1083884E-01   4.1105875E-01   4.1105813E-01   4.1105717E-01   4.1105652E-01   4.1105589E-01   4.1105539E-01   4.1105485E-01   4.1105455E-01   4.1105452E-01   4.1113985E-01   4.1113916E-01   4.1113859E-01   4.1113788E-01   4.1113719E-01   4.1113672E-01   4.1113618E-01   4.1113597E-01   4.1113576E-01   4.1116831E-01   4.1116783E-01   4.1116726E-01   4.1116652E-01   4.1116610E-01   4.1116548E-01   4.1116503E-01   4.1116488E-01   4.1116458E-01   4.1117612E-01   4.1117555E-01   4.1117498E-01   4.1117427E-01   4.1117370E-01   4.1117337E-01   4.1117299E-01   4.1117272E-01   4.1117239E-01   4.1116032E-01   4.1115955E-01   4.1115895E-01   4.1115841E-01   4.1115785E-01   4.1115749E-01   4.1115716E-01   4.1115680E-01   4.1115668E-01   4.1097784E-01   4.1097718E-01   4.1097653E-01   4.1097605E-01   4.1097549E-01   4.1097525E-01   4.1097465E-01   4.1097447E-01   4.1097438E-01   4.1061983E-01   4.1061908E-01   4.1061839E-01   4.1061795E-01   4.1061750E-01   4.1061717E-01   4.1061687E-01   4.1061655E-01   4.1061661E-01   4.1010615E-01   4.1010532E-01   4.1010505E-01   4.1010451E-01   4.1010410E-01   4.1010368E-01   4.1010341E-01   4.1010338E-01   4.1010320E-01   4.0946513E-01   4.0946448E-01   4.0946415E-01   4.0946379E-01   4.0946332E-01   4.0946299E-01   4.0946287E-01   4.0946278E-01   4.0946284E-01   4.0873033E-01   4.0873006E-01   4.0872967E-01   4.0872949E-01   4.0872929E-01   4.0872920E-01   4.0872887E-01   4.0872893E-01   4.0872884E-01   4.0793815E-01   4.0793803E-01   4.0793791E-01   4.0793782E-01   4.0793785E-01   4.0793774E-01   4.0793768E-01   4.0793774E-01   4.0793777E-01   4.0712318E-01   4.0712297E-01   4.0712297E-01   4.0712306E-01   4.0712309E-01   4.0712315E-01   4.0712318E-01   4.0712330E-01   4.0712312E-01   4.0631622E-01   4.0631625E-01   4.0631637E-01   4.0631652E-01   4.0631661E-01   4.0631679E-01   4.0631673E-01   4.0631679E-01   4.0631688E-01   4.0554377E-01   4.0554386E-01   4.0554410E-01   4.0554410E-01   4.0554446E-01   4.0554449E-01   4.0554458E-01   4.0554461E-01   4.0554479E-01   4.0482643E-01   4.0482658E-01   4.0482670E-01   4.0482697E-01   4.0482715E-01   4.0482736E-01   4.0482736E-01   4.0482745E-01   4.0482754E-01   4.0417850E-01   4.0417859E-01   4.0417862E-01   4.0417877E-01   4.0417901E-01   4.0417913E-01   4.0417925E-01   4.0417933E-01   4.0417928E-01   4.0360790E-01   4.0360805E-01   4.0360826E-01   4.0360841E-01   4.0360841E-01   4.0360859E-01   4.0360868E-01   4.0360874E-01   4.0360871E-01   4.0311801E-01   4.0311837E-01   4.0311849E-01   4.0311852E-01   4.0311846E-01   4.0311870E-01   4.0311861E-01   4.0311888E-01   4.0311879E-01   4.0270701E-01   4.0270743E-01   4.0270752E-01   4.0270746E-01   4.0270746E-01   4.0270770E-01   4.0270761E-01   4.0270776E-01   4.0270787E-01   4.0237021E-01   4.0237060E-01   4.0237054E-01   4.0237081E-01   4.0237069E-01   4.0237084E-01   4.0237090E-01   4.0237078E-01   4.0237072E-01   4.0210018E-01   4.0210021E-01   4.0210044E-01   4.0210053E-01   4.0210044E-01   4.0210056E-01   4.0210050E-01   4.0210053E-01   4.0210044E-01   4.0188807E-01   4.0188840E-01   4.0188864E-01   4.0188855E-01   4.0188849E-01   4.0188855E-01   4.0188846E-01   4.0188846E-01   4.0188846E-01   4.0172532E-01   4.0172526E-01   4.0172562E-01   4.0172568E-01   4.0172565E-01   4.0172568E-01   4.0172556E-01   4.0172571E-01   4.0172562E-01   4.0160272E-01   4.0160283E-01   4.0160289E-01   4.0160295E-01   4.0160304E-01   4.0160307E-01   4.0160310E-01   4.0160298E-01   4.0160301E-01   4.0151262E-01   4.0151262E-01   4.0151253E-01   4.0151262E-01   4.0151274E-01   4.0151268E-01   4.0151268E-01   4.0151277E-01   4.0151277E-01   4.0144765E-01   4.0144747E-01   4.0144762E-01   4.0144756E-01   4.0144753E-01   4.0144745E-01   4.0144745E-01   4.0144742E-01   4.0144756E-01   4.0140152E-01   4.0140149E-01   4.0140149E-01   4.0140149E-01   4.0140134E-01   4.0140149E-01   4.0140155E-01   4.0140143E-01   4.0136939E-01   4.0136942E-01   4.0136939E-01   4.0136948E-01   4.0136951E-01   4.0136951E-01   4.0134740E-01   4.0134749E-01   4.0134767E-01   4.0134761E-01   4.0000001E-01   4.0000001E-01   4.0000001E-01   4.0000001E-01   4.0000001E-01   4.0000001E-01   4.0000001E-01   4.0000001E-01   4.0000001E-01   4.0000001E-01   4.0000001E-01   4.0000001E-01   4.0000001E-01   4.0000001E-01   4.0000001E-01   4.0000001E-01   4.0000001E-01   4.0000001E-01   4.0000001E-01   4.0000001E-01   4.0000001E-01   4.0000001E-01   4.0000001E-01   4.0000001E-01   4.0000001E-01   4.0000001E-01   4.0000001E-01   4.0000001E-01   4.0000001E-01   4.0000001E-01   4.0000001E-01   4.0000001E-01   4.0000001E-01   4.0000001E-01   4.0000001E-01   4.0000001E-01   4.0000001E-01   4.0000001E-01   4.0000001E-01   4.0000001E-01   4.0000001E-01   4.0000001E-01   4.0000001E-01   4.0000001E-01   4.0000001E-01   4.0000001E-01   4.0000001E-01   4.0000001E-01   4.0000001E-01   4.0000001E-01   4.0000001E-01   4.0000001E-01   4.0000001E-01   4.0000001E-01   4.0000001E-01   4.0000001E-01   4.0000001E-01   4.0000001E-01   4.0000001E-01   4.0000001E-01   4.0000001E-01   4.0000001E-01   4.0000001E-01   4.0000001E-01   4.0000001E-01   4.0000001E-01   4.0000001E-01   4.0000001E-01   4.0000001E-01   4.0000001E-01   4.0000001E-01   4.0000001E-01   4.0000001E-01   4.0000001E-01   4.0000001E-01   4.0000001E-01   4.0000001E-01   4.0000001E-01   4.0000001E-01   4.0000001E-01   4.0000001E-01   4.0000001E-01   4.0000001E-01   4.0000001E-01   4.0000001E-01   4.0000001E-01   4.0000001E-01   4.0000001E-01   4.0000001E-01   4.0000001E-01   4.0000001E-01   4.0000001E-01   4.0000001E-01   4.0000001E-01   4.0000001E-01   4.0000001E-01   4.0000001E-01   4.0000001E-01   4.0000001E-01   4.0000001E-01   4.0000001E-01   4.0000001E-01   4.0000001E-01   4.0000001E-01   4.0000001E-01   4.0000001E-01   4.0000001E-01   4.0000001E-01   4.0000001E-01   4.0000001E-01   4.0000001E-01   4.0000001E-01   4.0000001E-01   4.0000001E-01   4.0000001E-01   4.0000001E-01   4.0000001E-01   4.0000001E-01   4.0000001E-01   4.0000001E-01   4.0000001E-01   4.0000001E-01   4.0000001E-01   4.0000001E-01   4.0000001E-01   4.0000001E-01   4.0000001E-01   4.0000001E-01   4.0000001E-01   4.0000001E-01   4.0000001E-01   4.0000001E-01   4.0000001E-01   4.0000001E-01   4.0000001E-01   4.0000001E-01   4.0000001E-01   4.0000001E-01   4.0000001E-01   4.0000001E-01   4.0000001E-01   4.0000001E-01   4.0000001E-01   4.0000001E-01   4.0000001E-01   4.0000001E-01   4.0000001E-01   4.0000001E-01   4.0000001E-01   4.0000001E-01   4.0000001E-01   4.0000001E-01   4.0000001E-01   4.0000001E-01   4.0000001E-01   4.0000001E-01   4.0000001E-01   4.0000001E-01   4.0000001E-01   4.0000001E-01   4.0000001E-01   4.0000001E-01   4.0000001E-01   4.0000001E-01   4.0000001E-01   4.0000001E-01   4.0000001E-01   4.0000001E-01   4.0000001E-01   4.0000001E-01   4.0000001E-01   4.0000001E-01   4.0000001E-01   4.0000001E-01   4.0000001E-01   4.0000001E-01   4.0000001E-01   4.0000001E-01   4.0000001E-01   4.0000001E-01   4.0000001E-01   4.0000001E-01   4.0000001E-01   4.0000001E-01   4.0000093E-01   4.0000084E-01   4.0000084E-01   4.0000081E-01   4.0000081E-01   4.0000087E-01   4.0000090E-01   4.0000096E-01   4.0000263E-01   4.0000248E-01   4.0000254E-01   4.0000272E-01   4.0000242E-01   4.0000269E-01   4.0000257E-01   4.0000263E-01   4.0000612E-01   4.0000612E-01   4.0000609E-01   4.0000594E-01   4.0000603E-01   4.0000594E-01   4.0000591E-01   4.0000603E-01   4.0001655E-01   4.0001658E-01   4.0001658E-01   4.0001664E-01   4.0001643E-01   4.0001658E-01   4.0001652E-01   4.0001664E-01   4.0004453E-01   4.0004450E-01   4.0004462E-01   4.0004453E-01   4.0004459E-01   4.0004453E-01   4.0004444E-01   4.0004423E-01   4.0011987E-01   4.0011993E-01   4.0012011E-01   4.0011999E-01   4.0011978E-01   4.0011987E-01   4.0011978E-01   4.0011978E-01   4.0031976E-01   4.0031967E-01   4.0031978E-01   4.0031967E-01   4.0031961E-01   4.0031952E-01   4.0031943E-01   4.0031943E-01   4.0082756E-01   4.0082750E-01   4.0082735E-01   4.0082741E-01   4.0082729E-01   4.0082684E-01   4.0082672E-01   4.0082654E-01   4.0199304E-01   4.0199304E-01   4.0199283E-01   4.0199277E-01   4.0199247E-01   4.0199214E-01   4.0199155E-01   4.0199140E-01   4.0414250E-01   4.0414229E-01   4.0414208E-01   4.0414178E-01   4.0414140E-01   4.0414086E-01   4.0414008E-01   4.0413946E-01   4.0687227E-01   4.0687221E-01   4.0687218E-01   4.0687186E-01   4.0687138E-01   4.0687087E-01   4.0687022E-01   4.0686986E-01   4.0907758E-01   4.0907738E-01   4.0907735E-01   4.0907735E-01   4.0907711E-01   4.0907705E-01   4.0907696E-01   4.0907693E-01   4.1029814E-01   4.1029802E-01   4.1029826E-01   4.1029835E-01   4.1029862E-01   4.1029859E-01   4.1029915E-01   4.1029951E-01   4.1083905E-01   4.1083884E-01   4.1083899E-01   4.1083935E-01   4.1083989E-01   4.1084003E-01   4.1084072E-01   4.1084141E-01   4.1105428E-01   4.1105452E-01   4.1105455E-01   4.1105485E-01   4.1105539E-01   4.1105589E-01   4.1105652E-01   4.1105717E-01   4.1113546E-01   4.1113576E-01   4.1113597E-01   4.1113618E-01   4.1113672E-01   4.1113719E-01   4.1113788E-01   4.1113859E-01   4.1116458E-01   4.1116458E-01   4.1116488E-01   4.1116503E-01   4.1116548E-01   4.1116610E-01   4.1116655E-01   4.1116726E-01   4.1117245E-01   4.1117239E-01   4.1117272E-01   4.1117299E-01   4.1117337E-01   4.1117370E-01   4.1117427E-01   4.1117498E-01   4.1115662E-01   4.1115668E-01   4.1115680E-01   4.1115716E-01   4.1115749E-01   4.1115785E-01   4.1115841E-01   4.1115895E-01   4.1097423E-01   4.1097438E-01   4.1097447E-01   4.1097465E-01   4.1097525E-01   4.1097549E-01   4.1097605E-01   4.1097653E-01   4.1061655E-01   4.1061661E-01   4.1061655E-01   4.1061687E-01   4.1061717E-01   4.1061750E-01   4.1061795E-01   4.1061839E-01   4.1010326E-01   4.1010317E-01   4.1010335E-01   4.1010341E-01   4.1010368E-01   4.1010410E-01   4.1010451E-01   4.1010505E-01   4.0946293E-01   4.0946284E-01   4.0946278E-01   4.0946287E-01   4.0946299E-01   4.0946332E-01   4.0946379E-01   4.0946415E-01   4.0872887E-01   4.0872884E-01   4.0872893E-01   4.0872887E-01   4.0872920E-01   4.0872929E-01   4.0872949E-01   4.0872967E-01   4.0793774E-01   4.0793777E-01   4.0793774E-01   4.0793768E-01   4.0793774E-01   4.0793785E-01   4.0793782E-01   4.0793791E-01   4.0712327E-01   4.0712312E-01   4.0712330E-01   4.0712318E-01   4.0712315E-01   4.0712309E-01   4.0712306E-01   4.0712297E-01   4.0631685E-01   4.0631688E-01   4.0631679E-01   4.0631673E-01   4.0631679E-01   4.0631661E-01   4.0631652E-01   4.0631637E-01   4.0554476E-01   4.0554479E-01   4.0554461E-01   4.0554458E-01   4.0554449E-01   4.0554446E-01   4.0554410E-01   4.0554410E-01   4.0482739E-01   4.0482754E-01   4.0482745E-01   4.0482736E-01   4.0482736E-01   4.0482715E-01   4.0482697E-01   4.0482670E-01   4.0417930E-01   4.0417928E-01   4.0417933E-01   4.0417925E-01   4.0417913E-01   4.0417901E-01   4.0417877E-01   4.0417862E-01   4.0360868E-01   4.0360871E-01   4.0360874E-01   4.0360868E-01   4.0360859E-01   4.0360841E-01   4.0360841E-01   4.0360826E-01   4.0311891E-01   4.0311879E-01   4.0311888E-01   4.0311861E-01   4.0311870E-01   4.0311846E-01   4.0311852E-01   4.0311849E-01   4.0270755E-01   4.0270787E-01   4.0270776E-01   4.0270761E-01   4.0270770E-01   4.0270746E-01   4.0270746E-01   4.0270752E-01   4.0237078E-01   4.0237072E-01   4.0237078E-01   4.0237090E-01   4.0237084E-01   4.0237069E-01   4.0237081E-01   4.0237054E-01   4.0210056E-01   4.0210044E-01   4.0210053E-01   4.0210050E-01   4.0210056E-01   4.0210044E-01   4.0210053E-01   4.0210044E-01   4.0188852E-01   4.0188846E-01   4.0188846E-01   4.0188846E-01   4.0188855E-01   4.0188849E-01   4.0188855E-01   4.0188864E-01   4.0172553E-01   4.0172562E-01   4.0172571E-01   4.0172556E-01   4.0172568E-01   4.0172565E-01   4.0172568E-01   4.0172562E-01   4.0160295E-01   4.0160301E-01   4.0160298E-01   4.0160310E-01   4.0160307E-01   4.0160304E-01   4.0160295E-01   4.0160289E-01   4.0151268E-01   4.0151277E-01   4.0151277E-01   4.0151268E-01   4.0151268E-01   4.0151274E-01   4.0151262E-01   4.0151253E-01   4.0144759E-01   4.0144756E-01   4.0144742E-01   4.0144745E-01   4.0144745E-01   4.0144753E-01   4.0144756E-01   4.0144762E-01   4.0140140E-01   4.0140143E-01   4.0140155E-01   4.0140149E-01   4.0140134E-01   4.0140149E-01   4.0140149E-01   4.0140149E-01   4.0136954E-01   4.0136951E-01   4.0136951E-01   4.0136948E-01   4.0136939E-01   4.0136942E-01   4.0136939E-01   4.0134764E-01   4.0134761E-01   4.0134767E-01   4.0134749E-01   4.0134740E-01   4.0000001E-01   4.0000001E-01   4.0000001E-01   4.0000001E-01   4.0000001E-01   4.0000001E-01   4.0000001E-01   4.0000001E-01   4.0000001E-01   4.0000001E-01   4.0000001E-01   4.0000001E-01   4.0000001E-01   4.0000001E-01   4.0000001E-01   4.0000001E-01   4.0000001E-01   4.0000001E-01   4.0000001E-01   4.0000001E-01   4.0000001E-01   4.0000001E-01   4.0000001E-01   4.0000001E-01   4.0000001E-01   4.0000001E-01   4.0000001E-01   4.0000001E-01   4.0000001E-01   4.0000001E-01   4.0000001E-01   4.0000001E-01   4.0000001E-01   4.0000001E-01   4.0000001E-01   4.0000001E-01   4.0000001E-01   4.0000001E-01   4.0000001E-01   4.0000001E-01   4.0000001E-01   4.0000001E-01   4.0000001E-01   4.0000001E-01   4.0000001E-01   4.0000001E-01   4.0000001E-01   4.0000001E-01   4.0000001E-01   4.0000001E-01   4.0000001E-01   4.0000001E-01   4.0000001E-01   4.0000001E-01   4.0000001E-01   4.0000001E-01   4.0000001E-01   4.0000001E-01   4.0000001E-01   4.0000001E-01   4.0000001E-01   4.0000001E-01   4.0000001E-01   4.0000001E-01   4.0000001E-01   4.0000001E-01   4.0000001E-01   4.0000001E-01   4.0000001E-01   4.0000001E-01   4.0000001E-01   4.0000001E-01   4.0000001E-01   4.0000001E-01   4.0000001E-01   4.0000001E-01   4.0000001E-01   4.0000001E-01   4.0000001E-01   4.0000001E-01   4.0000001E-01   4.0000001E-01   4.0000001E-01   4.0000001E-01   4.0000001E-01   4.0000001E-01   4.0000001E-01   4.0000001E-01   4.0000001E-01   4.0000001E-01   4.0000001E-01   4.0000001E-01   4.0000001E-01   4.0000001E-01   4.0000001E-01   4.0000001E-01   4.0000001E-01   4.0000001E-01   4.0000001E-01   4.0000001E-01   4.0000001E-01   4.0000001E-01   4.0000001E-01   4.0000001E-01   4.0000001E-01   4.0000001E-01   4.0000001E-01   4.0000001E-01   4.0000001E-01   4.0000001E-01   4.0000001E-01   4.0000001E-01   4.0000001E-01   4.0000001E-01   4.0000001E-01   4.0000001E-01   4.0000001E-01   4.0000001E-01   4.0000001E-01   4.0000001E-01   4.0000001E-01   4.0000001E-01   4.0000001E-01   4.0000001E-01   4.0000001E-01   4.0000001E-01   4.0000001E-01   4.0000001E-01   4.0000001E-01   4.0000001E-01   4.0000001E-01   4.0000001E-01   4.0000001E-01   4.0000001E-01   4.0000001E-01   4.0000001E-01   4.0000001E-01   4.0000001E-01   4.0000001E-01   4.0000001E-01   4.0000001E-01   4.0000001E-01   4.0000001E-01   4.0000001E-01   4.0000001E-01   4.0000001E-01   4.0000001E-01   4.0000001E-01   4.0000001E-01   4.0000001E-01   4.0000001E-01   4.0000001E-01   4.0000001E-01   4.0000001E-01   4.0000001E-01   4.0000001E-01   4.0000001E-01   4.0000001E-01   4.0000001E-01   4.0000001E-01   4.0000001E-01   4.0000001E-01   4.0000001E-01   4.0000001E-01   4.0000001E-01   4.0000001E-01   4.0000001E-01   4.0000001E-01   4.0000001E-01   4.0000001E-01   4.0000001E-01   4.0000001E-01   4.0000001E-01   4.0000001E-01   4.0000001E-01   4.0000001E-01   4.0000001E-01   4.0000001E-01   4.0000001E-01   4.0000001E-01   4.0000001E-01   4.0000001E-01   4.0000001E-01   4.0000087E-01   4.0000090E-01   4.0000096E-01   4.0000087E-01   4.0000081E-01   4.0000090E-01   4.0000093E-01   4.0000078E-01   4.0000266E-01   4.0000257E-01   4.0000248E-01   4.0000254E-01   4.0000239E-01   4.0000269E-01   4.0000245E-01   4.0000251E-01   4.0000594E-01   4.0000612E-01   4.0000615E-01   4.0000606E-01   4.0000612E-01   4.0000609E-01   4.0000606E-01   4.0000600E-01   4.0001661E-01   4.0001652E-01   4.0001649E-01   4.0001649E-01   4.0001652E-01   4.0001640E-01   4.0001658E-01   4.0001655E-01   4.0004462E-01   4.0004438E-01   4.0004453E-01   4.0004453E-01   4.0004444E-01   4.0004447E-01   4.0004444E-01   4.0004447E-01   4.0011987E-01   4.0011963E-01   4.0011972E-01   4.0011978E-01   4.0011960E-01   4.0011957E-01   4.0011957E-01   4.0011954E-01   4.0031919E-01   4.0031934E-01   4.0031922E-01   4.0031907E-01   4.0031895E-01   4.0031892E-01   4.0031886E-01   4.0031865E-01   4.0082639E-01   4.0082607E-01   4.0082592E-01   4.0082586E-01   4.0082550E-01   4.0082514E-01   4.0082479E-01   4.0082443E-01   4.0199083E-01   4.0199009E-01   4.0198967E-01   4.0198928E-01   4.0198857E-01   4.0198785E-01   4.0198699E-01   4.0198606E-01   4.0413868E-01   4.0413803E-01   4.0413710E-01   4.0413639E-01   4.0413535E-01   4.0413442E-01   4.0413329E-01   4.0413141E-01   4.0686929E-01   4.0686852E-01   4.0686810E-01   4.0686750E-01   4.0686709E-01   4.0686697E-01   4.0686643E-01   4.0686467E-01   4.0907699E-01   4.0907708E-01   4.0907726E-01   4.0907753E-01   4.0907851E-01   4.0907970E-01   4.0908006E-01   4.0907967E-01   4.1030008E-01   4.1030085E-01   4.1030157E-01   4.1030252E-01   4.1030437E-01   4.1030616E-01   4.1030717E-01   4.1030815E-01   4.1084203E-01   4.1084304E-01   4.1084394E-01   4.1084492E-01   4.1084665E-01   4.1084865E-01   4.1084921E-01   4.1084942E-01   4.1105813E-01   4.1105875E-01   4.1105971E-01   4.1106045E-01   4.1106156E-01   4.1106260E-01   4.1106254E-01   4.1106221E-01   4.1113916E-01   4.1113985E-01   4.1114056E-01   4.1114110E-01   4.1114148E-01   4.1114181E-01   4.1114151E-01   4.1114077E-01   4.1116780E-01   4.1116843E-01   4.1116890E-01   4.1116911E-01   4.1116920E-01   4.1116923E-01   4.1116893E-01   4.1116789E-01   4.1117555E-01   4.1117612E-01   4.1117659E-01   4.1117677E-01   4.1117665E-01   4.1117659E-01   4.1117644E-01   4.1117534E-01   4.1115955E-01   4.1116032E-01   4.1116059E-01   4.1116089E-01   4.1116112E-01   4.1116112E-01   4.1116083E-01   4.1115969E-01   4.1097718E-01   4.1097784E-01   4.1097826E-01   4.1097862E-01   4.1097909E-01   4.1097921E-01   4.1097918E-01   4.1097811E-01   4.1061908E-01   4.1061983E-01   4.1062039E-01   4.1062069E-01   4.1062132E-01   4.1062170E-01   4.1062179E-01   4.1062120E-01   4.1010529E-01   4.1010615E-01   4.1010675E-01   4.1010720E-01   4.1010809E-01   4.1010869E-01   4.1010901E-01   4.1010892E-01   4.0946448E-01   4.0946513E-01   4.0946576E-01   4.0946627E-01   4.0946725E-01   4.0946820E-01   4.0946883E-01   4.0946916E-01   4.0873006E-01   4.0873033E-01   4.0873075E-01   4.0873143E-01   4.0873253E-01   4.0873364E-01   4.0873471E-01   4.0873539E-01   4.0793803E-01   4.0793815E-01   4.0793851E-01   4.0793893E-01   4.0793958E-01   4.0794095E-01   4.0794212E-01   4.0794322E-01   4.0712297E-01   4.0712318E-01   4.0712327E-01   4.0712354E-01   4.0712398E-01   4.0712506E-01   4.0712637E-01   4.0712765E-01   4.0631625E-01   4.0631622E-01   4.0631616E-01   4.0631649E-01   4.0631676E-01   4.0631738E-01   4.0631852E-01   4.0631995E-01   4.0554386E-01   4.0554377E-01   4.0554368E-01   4.0554377E-01   4.0554383E-01   4.0554425E-01   4.0554526E-01   4.0554637E-01   4.0482658E-01   4.0482643E-01   4.0482634E-01   4.0482616E-01   4.0482631E-01   4.0482649E-01   4.0482679E-01   4.0482742E-01   4.0417859E-01   4.0417850E-01   4.0417814E-01   4.0417802E-01   4.0417799E-01   4.0417781E-01   4.0417770E-01   4.0417781E-01   4.0360805E-01   4.0360790E-01   4.0360776E-01   4.0360740E-01   4.0360716E-01   4.0360680E-01   4.0360662E-01   4.0360653E-01   4.0311837E-01   4.0311801E-01   4.0311790E-01   4.0311739E-01   4.0311715E-01   4.0311667E-01   4.0311661E-01   4.0311643E-01   4.0270743E-01   4.0270701E-01   4.0270686E-01   4.0270656E-01   4.0270615E-01   4.0270564E-01   4.0270573E-01   4.0237060E-01   4.0237021E-01   4.0236992E-01   4.0236953E-01   4.0236935E-01   4.0236908E-01   4.0236896E-01   4.0210021E-01   4.0210018E-01   4.0209976E-01   4.0209946E-01   4.0209916E-01   4.0209916E-01   4.0188840E-01   4.0188807E-01   4.0188786E-01   4.0188766E-01   4.0188757E-01   4.0188754E-01   4.0172526E-01   4.0172532E-01   4.0172514E-01   4.0172505E-01   4.0172496E-01   4.0160283E-01   4.0160272E-01   4.0160277E-01   4.0160286E-01   4.0151262E-01   4.0151262E-01   4.0151283E-01   4.0151253E-01   4.0144747E-01   4.0144765E-01   4.0140152E-01 
Press 1 2975 float
  0.0000000E+00   0.0000000E+00   0.0000000E+00   0.0000000E+00   0.0000000E+00   0.0000000E+00   0.0000000E+00   0.0000000E+00   0.0000000E+00   0.0000000E+00   0.0000000E+00   0.0000000E+00   0.0000000E+00   0.0000000E+00   0.0000000E+00   0.0000000E+00   0.0000000E+00   0.0000000E+00   1.9752525E-01   6.9133836E-01   1.9752525E-01   9.8762625E-01   2.4690657E+00   8.8886362E-01   2.8641162E+00   6.0245199E+00   2.2715404E+00   5.8269949E+00   1.1456465E+01   4.0492678E+00   9.9750252E+00   1.8468611E+01   6.4195704E+00   1.4518106E+01   2.6468384E+01   8.5923481E+00   1.9258711E+01   3.4171867E+01   1.0666364E+01   2.3406742E+01   4.1282776E+01   1.2444091E+01   2.7258484E+01   4.7603584E+01   1.4123055E+01   3.1208990E+01   5.4714493E+01   1.6592121E+01   3.6443409E+01   6.3998180E+01   2.0246338E+01   4.4443180E+01   7.8121239E+01   2.6369621E+01   5.7578609E+01   1.0103416E+02   3.7332272E+01   7.8812576E+01   1.3599614E+02   5.5800884E+01   1.1012032E+02   1.8389601E+02   1.5268701E+02   2.4275853E+02   0.0000000E+00   0.0000000E+00   0.0000000E+00   0.0000000E+00   0.0000000E+00   0.0000000E+00   0.0000000E+00   0.0000000E+00   0.0000000E+00   0.0000000E+00   0.0000000E+00   0.0000000E+00   0.0000000E+00   0.0000000E+00   0.0000000E+00   0.0000000E+00   0.0000000E+00   0.0000000E+00   0.0000000E+00   0.0000000E+00   0.0000000E+00   0.0000000E+00   0.0000000E+00   0.0000000E+00   0.0000000E+00   0.0000000E+00   0.0000000E+00   0.0000000E+00   0.0000000E+00   0.0000000E+00   0.0000000E+00   0.0000000E+00   0.0000000E+00   0.0000000E+00   9.8762624E-02   2.9628786E-01   3.9505050E-01   4.9381313E-01   5.9257573E-01   6.9133836E-01   2.9628786E-01   6.9133836E-01   1.2839141E+00   1.8764899E+00   2.4690657E+00   3.0616415E+00   3.4566917E+00   3.7529798E+00   1.5802020E+00   2.8641162E+00   4.5430808E+00   6.5183330E+00   8.2960606E+00   9.9750252E+00   1.1160176E+01   1.2147802E+01   4.7406058E+00   7.9010100E+00   1.1752752E+01   1.5900783E+01   2.0147575E+01   2.3703030E+01   2.6468384E+01   2.8739923E+01   1.0567601E+01   1.6493359E+01   2.3999317E+01   3.1999090E+01   3.9603813E+01   4.6319672E+01   5.1751614E+01   5.5702122E+01   1.9159948E+01   2.9134974E+01   4.1381538E+01   5.4319443E+01   6.6664772E+01   7.7034843E+01   8.5429672E+01   9.2046768E+01   3.0023838E+01   4.5035755E+01   6.2714268E+01   8.1182877E+01   9.8268814E+01   1.1258939E+02   1.2414462E+02   1.3313202E+02   4.1974113E+01   6.1726639E+01   8.4540810E+01   5.3430580E+01   7.7429893E+01   6.3800655E+01   9.1454193E+01   7.3380630E+01   1.0468839E+02   8.4046989E+01   1.1950278E+02   9.8466339E+01   1.3994664E+02   1.2058916E+02   1.6977295E+02   1.5476103E+02   2.1480870E+02   2.0562378E+02   2.7959698E+02   2.7386874E+02   3.6463162E+02   3.5455783E+02   4.6517197E+02   0.0000000E+00   0.0000000E+00   0.0000000E+00   0.0000000E+00   0.0000000E+00   0.0000000E+00   0.0000000E+00   0.0000000E+00   0.0000000E+00   0.0000000E+00   0.0000000E+00   0.0000000E+00   0.0000000E+00   0.0000000E+00   0.0000000E+00   0.0000000E+00   0.0000000E+00   0.0000000E+00   0.0000000E+00   0.0000000E+00   0.0000000E+00   0.0000000E+00   0.0000000E+00   0.0000000E+00   0.0000000E+00   0.0000000E+00   0.0000000E+00   0.0000000E+00   0.0000000E+00   0.0000000E+00   0.0000000E+00   0.0000000E+00   0.0000000E+00   0.0000000E+00   0.0000000E+00   0.0000000E+00   6.9133836E-01   6.9133836E-01   6.9133836E-01   7.9010099E-01   7.9010099E-01   7.9010099E-01   7.9010099E-01   7.9010099E-01   7.9010099E-01   4.0492678E+00   4.0492678E+00   4.1480303E+00   4.3455553E+00   4.3455553E+00   4.3455553E+00   4.3455553E+00   4.3455553E+00   4.3455553E+00   1.2740378E+01   1.3234192E+01   1.3530479E+01   1.3629242E+01   1.3925530E+01   1.4024293E+01   1.4024293E+01   1.4024293E+01   1.4024293E+01   3.0320126E+01   3.1604040E+01   3.2295380E+01   3.2789192E+01   3.3283005E+01   3.3381767E+01   3.3480530E+01   3.3480530E+01   3.3480530E+01   5.8862522E+01   6.1035301E+01   6.2516743E+01   6.3800655E+01   6.4195709E+01   6.4491997E+01   6.4788284E+01   6.4788284E+01   6.4788284E+01   9.6886131E+01   1.0054035E+02   1.0300941E+02   1.0468839E+02   1.0587354E+02   1.0636735E+02   1.0666364E+02   1.0676240E+02   1.0686116E+02   1.3994664E+02   1.4478601E+02   1.4814394E+02   1.5041548E+02   1.5199568E+02   1.5278578E+02   1.5318083E+02   1.5337836E+02   1.5347711E+02   0.0000000E+00   0.0000000E+00   0.0000000E+00   0.0000000E+00   0.0000000E+00   0.0000000E+00   0.0000000E+00   0.0000000E+00   0.0000000E+00   0.0000000E+00   0.0000000E+00   0.0000000E+00   0.0000000E+00   0.0000000E+00   0.0000000E+00   0.0000000E+00   0.0000000E+00   0.0000000E+00   0.0000000E+00   0.0000000E+00   0.0000000E+00   0.0000000E+00   0.0000000E+00   0.0000000E+00   0.0000000E+00   0.0000000E+00   0.0000000E+00   0.0000000E+00   0.0000000E+00   0.0000000E+00   0.0000000E+00   0.0000000E+00   7.9010099E-01   7.9010099E-01   7.9010099E-01   7.9010099E-01   7.9010099E-01   7.9010099E-01   7.9010099E-01   6.9133836E-01   4.3455553E+00   4.3455553E+00   4.3455553E+00   4.3455553E+00   4.3455553E+00   4.3455553E+00   4.3455553E+00   4.1480303E+00   1.4024293E+01   1.4024293E+01   1.4024293E+01   1.4024293E+01   1.4024293E+01   1.3925530E+01   1.3629242E+01   1.3530479E+01   3.3480530E+01   3.3480530E+01   3.3480530E+01   3.3480530E+01   3.3381767E+01   3.3283005E+01   3.2789192E+01   3.2295380E+01   6.4788284E+01   6.4788284E+01   6.4788284E+01   6.4788284E+01   6.4491997E+01   6.4195709E+01   6.3800655E+01   6.2516743E+01   1.0686116E+02   1.0686116E+02   1.0676240E+02   1.0666364E+02   1.0636735E+02   1.0587354E+02   1.0468839E+02   1.0300941E+02   1.5347711E+02   1.5347711E+02   1.5337836E+02   1.5318083E+02   1.5278578E+02   1.5199568E+02   1.5041548E+02   1.4814394E+02   0.0000000E+00   0.0000000E+00   0.0000000E+00   0.0000000E+00   0.0000000E+00   0.0000000E+00   0.0000000E+00   0.0000000E+00   0.0000000E+00   0.0000000E+00   0.0000000E+00   0.0000000E+00   0.0000000E+00   0.0000000E+00   0.0000000E+00   0.0000000E+00   0.0000000E+00   0.0000000E+00   0.0000000E+00   0.0000000E+00   0.0000000E+00   0.0000000E+00   0.0000000E+00   0.0000000E+00   0.0000000E+00   0.0000000E+00   0.0000000E+00   0.0000000E+00   0.0000000E+00   0.0000000E+00   0.0000000E+00   0.0000000E+00   0.0000000E+00   0.0000000E+00   0.0000000E+00   0.0000000E+00   6.9133836E-01   6.9133836E-01   6.9133836E-01   5.9257573E-01   4.9381313E-01   3.9505050E-01   2.9628786E-01   9.8762624E-02   0.0000000E+00   4.0492678E+00   4.0492678E+00   3.7529798E+00   3.4566917E+00   3.0616415E+00   2.4690657E+00   1.8764899E+00   1.2839141E+00   6.9133836E-01   1.3234192E+01   1.2740378E+01   1.2147802E+01   1.1160176E+01   9.9750252E+00   8.2960606E+00   6.5183330E+00   4.5430808E+00   2.8641162E+00   3.1604040E+01   3.0320126E+01   2.8739923E+01   2.6468384E+01   2.3703030E+01   2.0147575E+01   1.5900783E+01   1.1752752E+01   7.9010100E+00   6.1035301E+01   5.8862522E+01   5.5702122E+01   5.1751614E+01   4.6319672E+01   3.9603813E+01   3.1999090E+01   2.3999317E+01   1.6493359E+01   1.0054035E+02   9.6886131E+01   9.2046768E+01   8.5429672E+01   7.7034843E+01   6.6664772E+01   5.4319443E+01   4.1381538E+01   2.9134974E+01   1.4478601E+02   1.3994664E+02   1.3313202E+02   1.2414462E+02   1.1258939E+02   9.8268814E+01   8.1182877E+01   6.2714268E+01   4.5035755E+01   8.4540810E+01   6.1726639E+01   7.7429893E+01   9.1454193E+01   1.0468839E+02   1.1950278E+02   1.3994664E+02   1.6977295E+02   2.1480870E+02   2.7959698E+02   3.6463162E+02   4.6517197E+02   0.0000000E+00   0.0000000E+00   0.0000000E+00   0.0000000E+00   0.0000000E+00   0.0000000E+00   0.0000000E+00   0.0000000E+00   0.0000000E+00   0.0000000E+00   0.0000000E+00   0.0000000E+00   0.0000000E+00   0.0000000E+00   0.0000000E+00   0.0000000E+00   0.0000000E+00   0.0000000E+00   0.0000000E+00   2.9628786E-01   0.0000000E+00   0.0000000E+00   0.0000000E+00   1.5802020E+00   6.9133836E-01   1.9752525E-01   0.0000000E+00   4.7406058E+00   2.4690657E+00   9.8762625E-01   1.9752525E-01   1.0567601E+01   6.0245199E+00   2.8641162E+00   8.8886362E-01   1.9159948E+01   1.1456465E+01   5.8269949E+00   2.2715404E+00   3.0023838E+01   1.8468611E+01   9.9750252E+00   4.0492678E+00   4.1974113E+01   2.6468384E+01   1.4518106E+01   6.4195704E+00   5.3430580E+01   3.4171867E+01   1.9258711E+01   8.5923481E+00   6.3800655E+01   4.1282776E+01   2.3406742E+01   1.0666364E+01   7.3380630E+01   4.7603584E+01   2.7258484E+01   1.2444091E+01   8.4046989E+01   5.4714493E+01   3.1208990E+01   1.4123055E+01   9.8466339E+01   6.3998180E+01   3.6443409E+01   1.6592121E+01   1.2058916E+02   7.8121239E+01   4.4443180E+01   2.0246338E+01   1.5476103E+02   1.0103416E+02   5.7578609E+01   2.6369621E+01   2.0562378E+02   1.3599614E+02   7.8812576E+01   3.7332272E+01   2.7386874E+02   1.8389601E+02   1.1012032E+02   5.5800884E+01   3.5455783E+02   2.4275853E+02   1.5268701E+02   0.0000000E+00   0.0000000E+00   0.0000000E+00   0.0000000E+00   0.0000000E+00   0.0000000E+00   0.0000000E+00   0.0000000E+00   0.0000000E+00   0.0000000E+00   0.0000000E+00   0.0000000E+00   0.0000000E+00   0.0000000E+00   0.0000000E+00   0.0000000E+00   0.0000000E+00   0.0000000E+00   0.0000000E+00   0.0000000E+00   0.0000000E+00   0.0000000E+00   0.0000000E+00   0.0000000E+00   0.0000000E+00   0.0000000E+00   0.0000000E+00   0.0000000E+00   0.0000000E+00   0.0000000E+00   0.0000000E+00   0.0000000E+00   0.0000000E+00   0.0000000E+00   0.0000000E+00   0.0000000E+00   0.0000000E+00   0.0000000E+00   0.0000000E+00   0.0000000E+00   0.0000000E+00   0.0000000E+00   0.0000000E+00   0.0000000E+00   0.0000000E+00   0.0000000E+00   0.0000000E+00   0.0000000E+00   0.0000000E+00   0.0000000E+00   0.0000000E+00   0.0000000E+00   0.0000000E+00   0.0000000E+00   0.0000000E+00   0.0000000E+00   0.0000000E+00   0.0000000E+00   0.0000000E+00   0.0000000E+00   0.0000000E+00   0.0000000E+00   0.0000000E+00   0.0000000E+00   0.0000000E+00   0.0000000E+00   0.0000000E+00   0.0000000E+00   0.0000000E+00   0.0000000E+00   0.0000000E+00   0.0000000E+00   0.0000000E+00   0.0000000E+00   0.0000000E+00   0.0000000E+00   0.0000000E+00   0.0000000E+00   0.0000000E+00   0.0000000E+00   0.0000000E+00   0.0000000E+00   0.0000000E+00   0.0000000E+00   0.0000000E+00   0.0000000E+00   0.0000000E+00   0.0000000E+00   0.0000000E+00   0.0000000E+00   0.0000000E+00   0.0000000E+00   0.0000000E+00   0.0000000E+00   0.0000000E+00   0.0000000E+00   0.0000000E+00   0.0000000E+00   0.0000000E+00   0.0000000E+00   0.0000000E+00   0.0000000E+00   0.0000000E+00   0.0000000E+00   0.0000000E+00   0.0000000E+00   0.0000000E+00   0.0000000E+00   0.0000000E+00   0.0000000E+00   0.0000000E+00   0.0000000E+00   0.0000000E+00   0.0000000E+00   0.0000000E+00   0.0000000E+00   0.0000000E+00   0.0000000E+00   0.0000000E+00   0.0000000E+00   0.0000000E+00   0.0000000E+00   0.0000000E+00   0.0000000E+00   0.0000000E+00   0.0000000E+00   0.0000000E+00   0.0000000E+00   0.0000000E+00   0.0000000E+00   0.0000000E+00   0.0000000E+00   0.0000000E+00   0.0000000E+00   0.0000000E+00   0.0000000E+00   0.0000000E+00   0.0000000E+00   0.0000000E+00   0.0000000E+00   0.0000000E+00   0.0000000E+00   0.0000000E+00   0.0000000E+00   0.0000000E+00   0.0000000E+00   0.0000000E+00   0.0000000E+00   0.0000000E+00   0.0000000E+00   0.0000000E+00   0.0000000E+00   0.0000000E+00   0.0000000E+00   0.0000000E+00   0.0000000E+00   0.0000000E+00   0.0000000E+00   0.0000000E+00   0.0000000E+00   0.0000000E+00   0.0000000E+00   0.0000000E+00   0.0000000E+00   0.0000000E+00   0.0000000E+00   0.0000000E+00   0.0000000E+00   0.0000000E+00   0.0000000E+00   0.0000000E+00   0.0000000E+00   0.0000000E+00   0.0000000E+00   0.0000000E+00   0.0000000E+00   0.0000000E+00   0.0000000E+00   0.0000000E+00   0.0000000E+00   0.0000000E+00   0.0000000E+00   0.0000000E+00   0.0000000E+00   0.0000000E+00   0.0000000E+00   0.0000000E+00   0.0000000E+00   0.0000000E+00   0.0000000E+00   0.0000000E+00   0.0000000E+00   0.0000000E+00   0.0000000E+00   0.0000000E+00   0.0000000E+00   0.0000000E+00   0.0000000E+00   0.0000000E+00   0.0000000E+00   0.0000000E+00   0.0000000E+00   0.0000000E+00   0.0000000E+00   0.0000000E+00   0.0000000E+00   0.0000000E+00   0.0000000E+00   0.0000000E+00   0.0000000E+00   0.0000000E+00   0.0000000E+00   0.0000000E+00   0.0000000E+00   0.0000000E+00   0.0000000E+00   0.0000000E+00   0.0000000E+00   0.0000000E+00   0.0000000E+00   0.0000000E+00   0.0000000E+00   0.0000000E+00   0.0000000E+00   0.0000000E+00   0.0000000E+00   0.0000000E+00   0.0000000E+00   0.0000000E+00   0.0000000E+00   0.0000000E+00   0.0000000E+00   0.0000000E+00   0.0000000E+00   0.0000000E+00   0.0000000E+00   0.0000000E+00   0.0000000E+00   0.0000000E+00   0.0000000E+00   0.0000000E+00   0.0000000E+00   0.0000000E+00   0.0000000E+00   0.0000000E+00   0.0000000E+00   0.0000000E+00   0.0000000E+00   0.0000000E+00   0.0000000E+00   0.0000000E+00   0.0000000E+00   0.0000000E+00   0.0000000E+00   0.0000000E+00   0.0000000E+00   0.0000000E+00   0.0000000E+00   0.0000000E+00   0.0000000E+00   0.0000000E+00   0.0000000E+00   0.0000000E+00   0.0000000E+00   0.0000000E+00   0.0000000E+00   0.0000000E+00   0.0000000E+00   0.0000000E+00   0.0000000E+00   0.0000000E+00   0.0000000E+00   0.0000000E+00   0.0000000E+00   0.0000000E+00   0.0000000E+00   0.0000000E+00   0.0000000E+00   0.0000000E+00   0.0000000E+00   0.0000000E+00   0.0000000E+00   0.0000000E+00   0.0000000E+00   0.0000000E+00   0.0000000E+00   0.0000000E+00   0.0000000E+00   0.0000000E+00   0.0000000E+00   0.0000000E+00   0.0000000E+00   0.0000000E+00   0.0000000E+00   0.0000000E+00   0.0000000E+00   0.0000000E+00   0.0000000E+00   0.0000000E+00   0.0000000E+00   0.0000000E+00   0.0000000E+00   0.0000000E+00   0.0000000E+00   0.0000000E+00   0.0000000E+00   0.0000000E+00   0.0000000E+00   0.0000000E+00   0.0000000E+00   0.0000000E+00   0.0000000E+00   0.0000000E+00   0.0000000E+00   0.0000000E+00   0.0000000E+00   0.0000000E+00   0.0000000E+00   0.0000000E+00   0.0000000E+00   0.0000000E+00   0.0000000E+00   0.0000000E+00   0.0000000E+00   0.0000000E+00   0.0000000E+00   0.0000000E+00   0.0000000E+00   0.0000000E+00   0.0000000E+00   0.0000000E+00   0.0000000E+00   0.0000000E+00   0.0000000E+00   0.0000000E+00   0.0000000E+00   0.0000000E+00   0.0000000E+00   0.0000000E+00   0.0000000E+00   0.0000000E+00   0.0000000E+00   0.0000000E+00   0.0000000E+00   0.0000000E+00   0.0000000E+00   0.0000000E+00   0.0000000E+00   0.0000000E+00   0.0000000E+00   0.0000000E+00   0.0000000E+00   0.0000000E+00   0.0000000E+00   0.0000000E+00   0.0000000E+00   0.0000000E+00   0.0000000E+00   0.0000000E+00   0.0000000E+00   0.0000000E+00   0.0000000E+00   0.0000000E+00   0.0000000E+00   0.0000000E+00   0.0000000E+00   0.0000000E+00   0.0000000E+00   0.0000000E+00   0.0000000E+00   0.0000000E+00   0.0000000E+00   0.0000000E+00   0.0000000E+00   0.0000000E+00   0.0000000E+00   0.0000000E+00   0.0000000E+00   0.0000000E+00   0.0000000E+00   0.0000000E+00   0.0000000E+00   0.0000000E+00   0.0000000E+00   0.0000000E+00   0.0000000E+00   0.0000000E+00   0.0000000E+00   0.0000000E+00   0.0000000E+00   0.0000000E+00   0.0000000E+00   0.0000000E+00   0.0000000E+00   0.0000000E+00   0.0000000E+00   0.0000000E+00   0.0000000E+00   0.0000000E+00   0.0000000E+00   0.0000000E+00   0.0000000E+00   0.0000000E+00   0.0000000E+00   0.0000000E+00   0.0000000E+00   0.0000000E+00   0.0000000E+00   0.0000000E+00   0.0000000E+00   0.0000000E+00   0.0000000E+00   0.0000000E+00   0.0000000E+00   0.0000000E+00   0.0000000E+00   0.0000000E+00   0.0000000E+00   0.0000000E+00   0.0000000E+00   0.0000000E+00   0.0000000E+00   0.0000000E+00   0.0000000E+00   0.0000000E+00   0.0000000E+00   0.0000000E+00   0.0000000E+00   0.0000000E+00   0.0000000E+00   0.0000000E+00   0.0000000E+00   0.0000000E+00   0.0000000E+00   0.0000000E+00   0.0000000E+00   0.0000000E+00   0.0000000E+00   0.0000000E+00   0.0000000E+00   0.0000000E+00   0.0000000E+00   0.0000000E+00   0.0000000E+00   0.0000000E+00   0.0000000E+00   0.0000000E+00   0.0000000E+00   0.0000000E+00   0.0000000E+00   0.0000000E+00   0.0000000E+00   0.0000000E+00   0.0000000E+00   0.0000000E+00   0.0000000E+00   0.0000000E+00   0.0000000E+00   0.0000000E+00   0.0000000E+00   0.0000000E+00   0.0000000E+00   0.0000000E+00   0.0000000E+00   0.0000000E+00   0.0000000E+00   0.0000000E+00   0.0000000E+00   0.0000000E+00   0.0000000E+00   0.0000000E+00   0.0000000E+00   1.0755250E+02   1.2858894E+02   1.4626744E+02   1.6019298E+02   1.7085934E+02   1.0310818E+02   1.3086047E+02   1.5476103E+02   1.7441479E+02   1.8992053E+02   2.0167328E+02   1.2068793E+02   1.5150186E+02   1.7816777E+02   1.9959926E+02   2.1589510E+02   2.2824042E+02   1.3767509E+02   1.7234077E+02   2.0157451E+02   2.2468497E+02   2.4206718E+02   2.5431375E+02   1.5742763E+02   1.9584628E+02   2.2814166E+02   2.5322737E+02   2.7149844E+02   2.8354749E+02   1.8488364E+02   2.2745032E+02   2.6191849E+02   2.8789304E+02   3.0665796E+02   3.1890451E+02   2.2903052E+02   2.7367123E+02   3.0774432E+02   3.3233624E+02   3.4961969E+02   3.6137244E+02   3.0023837E+02   3.4379269E+02   3.7075488E+02   3.8912473E+02   4.0216141E+02   4.1105005E+02   4.0897601E+02   4.4344418E+02   4.5430807E+02   4.5934497E+02   4.6369052E+02   4.6803607E+02   5.6018158E+02   5.7055170E+02   5.5514471E+02   5.4033032E+02   5.3282434E+02   5.3084912E+02   7.3825061E+02   7.1000452E+02   6.6210461E+02   6.2585876E+02   6.0630377E+02   5.9850153E+02   8.7839478E+02   8.3197632E+02   7.6037341E+02   7.0832556E+02   6.8086951E+02   6.6931433E+02   8.9528320E+02   8.9113513E+02   8.3335901E+02   7.8220001E+02   7.5415137E+02   7.4239862E+02   8.8017242E+02   9.0496185E+02   8.8274030E+02   8.4837085E+02   8.2753198E+02   8.1943341E+02   8.9972742E+02   9.2757849E+02   9.3024506E+02   9.1582574E+02   9.0594946E+02   9.0249280E+02   9.5829352E+02   9.8150275E+02   9.9463818E+02   9.9453943E+02   9.9335425E+02   9.9394684E+02   1.0480687E+03   1.0675249E+03   1.0831294E+03   1.0894503E+03   1.0933020E+03   1.0966599E+03   1.1611519E+03   1.1781390E+03   1.1929534E+03   1.2008544E+03   1.2068789E+03   1.2119158E+03   1.2894443E+03   1.3062340E+03   1.3203571E+03   1.3282581E+03   1.3353689E+03   1.3412947E+03   1.4322548E+03   1.4506245E+03   1.4644513E+03   1.4719573E+03   1.4796608E+03   1.4860803E+03   1.5931387E+03   1.6128912E+03   1.6264216E+03   1.6331376E+03   1.6409398E+03   1.6471617E+03   1.7755525E+03   1.7954037E+03   1.8079465E+03   1.8131809E+03   1.8199956E+03   1.8253287E+03   1.9815703E+03   2.0002365E+03   2.0109027E+03   2.0134706E+03   2.0178162E+03   2.0202852E+03   2.2134631E+03   2.2292651E+03   2.2371663E+03   2.2353884E+03   2.2343020E+03   2.2324255E+03   2.4669846E+03   2.4799224E+03   2.4843667E+03   2.4732065E+03   2.4632314E+03   2.4541455E+03   2.7312700E+03   2.7419363E+03   2.7406526E+03   2.7139866E+03   2.6900862E+03   2.6707288E+03   2.9895293E+03   3.0004919E+03   2.9894304E+03   2.9368892E+03   2.8948164E+03   2.8640027E+03   3.2193433E+03   3.2314910E+03   3.2028499E+03   3.1146555E+03   3.0517441E+03   3.0108567E+03   3.4133032E+03   3.4268335E+03   3.3711318E+03   3.2410627E+03   3.1599792E+03   3.1151416E+03   3.6261230E+03   3.6399497E+03   3.5547185E+03   3.3889971E+03   3.3011982E+03   3.2638662E+03   4.0825801E+03   4.0986782E+03   4.0011023E+03   3.8323198E+03   3.7575579E+03   3.7441262E+03   5.3085674E+03   5.3369111E+03   5.3011597E+03   5.1822524E+03   5.1403779E+03   5.1650679E+03   7.8313389E+03   7.9003716E+03   7.9823423E+03   8.0093037E+03   8.0364624E+03   8.1038164E+03   1.0944814E+04   1.1054534E+04   1.1239903E+04   1.1456777E+04   1.1601854E+04   1.1713451E+04   1.2836347E+04   1.2942708E+04   1.3146246E+04   1.3451109E+04   1.3700372E+04   1.3841496E+04   1.2998443E+04   1.3060465E+04   1.3178575E+04   1.3434055E+04   1.3700793E+04   1.3843691E+04   1.2495146E+04   1.2477471E+04   1.2430563E+04   1.2530899E+04   1.2703716E+04   1.2790717E+04   1.2254430E+04   1.2141067E+04   1.2020301E+04   1.1931032E+04   1.1912271E+04   1.1864378E+04   1.2472639E+04   1.2272189E+04   1.2120915E+04   1.1883141E+04   1.1703428E+04   1.1537834E+04   1.2960851E+04   1.2701172E+04   1.2518606E+04   1.2225950E+04   1.1960742E+04   1.1728119E+04   1.3464676E+04   1.3175993E+04   1.2969157E+04   1.2674849E+04   1.2397224E+04   1.2153858E+04   1.3803309E+04   1.3512487E+04   1.3294914E+04   1.3022752E+04   1.2786030E+04   1.2576554E+04   1.3720784E+04   1.3449946E+04   1.3238526E+04   1.2994240E+04   1.2813421E+04   1.2658956E+04   1.3316689E+04   1.3083799E+04   1.2898078E+04   1.2692823E+04   1.2573025E+04   1.2481551E+04   1.2756584E+04   1.2578210E+04   1.2441570E+04   1.2294082E+04   1.2241104E+04   1.2216344E+04   1.2146615E+04   1.2035161E+04   1.1975681E+04   1.1911177E+04   1.1932370E+04   1.1976351E+04   1.1501397E+04   1.1467853E+04   1.1512763E+04   1.1549602E+04   1.1651100E+04   1.1759020E+04   1.0769920E+04   1.0825020E+04   1.0988949E+04   1.1136739E+04   1.1302868E+04   1.1469808E+04   9.9147471E+03   1.0054782E+04   1.0336104E+04   1.0562157E+04   1.0786871E+04   1.1002845E+04   8.9555654E+03   9.1647676E+03   9.5257793E+03   9.7892744E+03   1.0069702E+04   1.0314675E+04   7.9568877E+03   8.2083711E+03   8.5919834E+03   8.8756201E+03   9.1853711E+03   9.4372686E+03   6.9961108E+03   7.2601064E+03   7.6202212E+03   7.9029980E+03   8.2091797E+03   8.4509922E+03   6.0980332E+03   6.3619941E+03   6.6878398E+03   6.9539287E+03   7.2302734E+03   7.4479175E+03   5.1359502E+03   5.5040898E+03   5.8451758E+03   6.0865557E+03   6.3184253E+03   6.4997129E+03   4.2934644E+03   4.7584668E+03   5.1375981E+03   5.3431646E+03   5.5116558E+03   5.6490684E+03   4.1248374E+03   4.5647378E+03   4.7313149E+03   4.8268950E+03   4.9116558E+03   3.5702195E+03   4.0221643E+03   4.2197456E+03   4.2580610E+03   4.2913569E+03   3.4278743E+03   3.7207720E+03   3.7674199E+03   3.7756934E+03   2.8459307E+03   3.1275107E+03   3.2954253E+03   3.3246763E+03   2.5018894E+03   2.7444460E+03   2.8608257E+03   2.1549082E+03   2.3013423E+03   1.9246914E+03   1.7708582E+03   1.7895787E+02   1.8508116E+02   1.8903166E+02   1.9199454E+02   1.9347598E+02   1.9456236E+02   1.9515494E+02   1.9525371E+02   1.9525371E+02   2.1036440E+02   2.1688272E+02   2.2132704E+02   2.2428992E+02   2.2587012E+02   2.2695651E+02   2.2725279E+02   2.2745032E+02   2.2745032E+02   2.3703030E+02   2.4335110E+02   2.4779543E+02   2.5036325E+02   2.5194345E+02   2.5253603E+02   2.5293108E+02   2.5293108E+02   2.5283232E+02   2.6310364E+02   2.6893063E+02   2.7258484E+02   2.7465884E+02   2.7594278E+02   2.7623904E+02   2.7623904E+02   2.7594278E+02   2.7584399E+02   2.9194232E+02   2.9717673E+02   3.0023837E+02   3.0132477E+02   3.0181857E+02   3.0162106E+02   3.0122601E+02   3.0092972E+02   3.0063342E+02   3.2650925E+02   3.3085480E+02   3.3283005E+02   3.3312634E+02   3.3283005E+02   3.3203995E+02   3.3105231E+02   3.3036096E+02   3.2986716E+02   3.6808829E+02   3.7114993E+02   3.7194003E+02   3.7124872E+02   3.6966849E+02   3.6808829E+02   3.6670563E+02   3.6552048E+02   3.6482913E+02   4.1628445E+02   4.1786465E+02   4.1707455E+02   4.1519806E+02   4.1263025E+02   4.1025995E+02   4.0818591E+02   4.0650696E+02   4.0561810E+02   4.7040637E+02   4.7060391E+02   4.6833237E+02   4.6477692E+02   4.6132022E+02   4.5796228E+02   4.5509818E+02   4.5312292E+02   4.5193777E+02   5.3045404E+02   5.2857758E+02   5.2472583E+02   5.1988647E+02   5.1524463E+02   5.1099780E+02   5.0773865E+02   5.0517081E+02   5.0378815E+02   5.9534113E+02   5.9178564E+02   5.8664996E+02   5.8072424E+02   5.7489722E+02   5.7005786E+02   5.6620612E+02   5.6344080E+02   5.6166302E+02   6.6437616E+02   6.6003064E+02   6.5400610E+02   6.4719147E+02   6.4077191E+02   6.3524121E+02   6.3109314E+02   6.2793274E+02   6.2605627E+02   7.3775677E+02   7.3321375E+02   7.2709045E+02   7.1988074E+02   7.1306616E+02   7.0743665E+02   7.0279486E+02   6.9943689E+02   6.9756042E+02   8.1617426E+02   8.1222375E+02   8.0639679E+02   7.9958215E+02   7.9266876E+02   7.8674298E+02   7.8210114E+02   7.7884198E+02   7.7686676E+02   9.0091260E+02   8.9844354E+02   8.9320911E+02   8.8669080E+02   8.8017242E+02   8.7414795E+02   8.6990112E+02   8.6654321E+02   8.6456793E+02   9.9453943E+02   9.9276166E+02   9.8871240E+02   9.8288544E+02   9.7705841E+02   9.7172522E+02   9.6718213E+02   9.6392297E+02   9.6214526E+02   1.0983389E+03   1.0977463E+03   1.0945859E+03   1.0893514E+03   1.0839196E+03   1.0790802E+03   1.0748334E+03   1.0717717E+03   1.0701915E+03   1.2147799E+03   1.2148787E+03   1.2121133E+03   1.2077678E+03   1.2025333E+03   1.1980890E+03   1.1941385E+03   1.1912744E+03   1.1897930E+03   1.3448501E+03   1.3452452E+03   1.3427761E+03   1.3383318E+03   1.3333937E+03   1.3292456E+03   1.3257889E+03   1.3232212E+03   1.3216410E+03   1.4898333E+03   1.4899320E+03   1.4871667E+03   1.4825249E+03   1.4777843E+03   1.4735375E+03   1.4700808E+03   1.4677104E+03   1.4660315E+03   1.6504210E+03   1.6497296E+03   1.6460754E+03   1.6408409E+03   1.6354091E+03   1.6310635E+03   1.6273105E+03   1.6246439E+03   1.6232612E+03   1.8272052E+03   1.8248350E+03   1.8196006E+03   1.8125884E+03   1.8062676E+03   1.8009344E+03   1.7967864E+03   1.7940210E+03   1.7921445E+03   2.0193964E+03   2.0145570E+03   2.0063596E+03   1.9971748E+03   1.9886812E+03   1.9821628E+03   1.9771260E+03   1.9735706E+03   1.9712990E+03   2.2272900E+03   2.2178088E+03   2.2051672E+03   2.1921306E+03   2.1808716E+03   2.1718843E+03   2.1654646E+03   2.1608230E+03   2.1582551E+03   2.4421951E+03   2.4262944E+03   2.4077271E+03   2.3891597E+03   2.3736541E+03   2.3618027E+03   2.3533091E+03   2.3476797E+03   2.3443218E+03   2.6501863E+03   2.6255945E+03   2.5988298E+03   2.5738430E+03   2.5531030E+03   2.5376960E+03   2.5273259E+03   2.5200176E+03   2.5163635E+03   2.8337815E+03   2.7998074E+03   2.7638579E+03   2.7306738E+03   2.7044031E+03   2.6854407E+03   2.6724041E+03   2.6640093E+03   2.6597627E+03   2.9729321E+03   2.9310571E+03   2.8868118E+03   2.8462205E+03   2.8142217E+03   2.7916052E+03   2.7769883E+03   2.7676060E+03   2.7626680E+03   3.0759331E+03   3.0314905E+03   2.9829983E+03   2.9377656E+03   2.9021125E+03   2.8771257E+03   2.8611265E+03   2.8516453E+03   2.8465098E+03   3.2345342E+03   3.1973999E+03   3.1534512E+03   3.1101936E+03   3.0749358E+03   3.0502454E+03   3.0349375E+03   3.0261477E+03   3.0211108E+03   3.7389907E+03   3.7228926E+03   3.6948445E+03   3.6629448E+03   3.6351929E+03   3.6148481E+03   3.6024043E+03   3.5950959E+03   3.5911455E+03   5.1988442E+03   5.2169170E+03   5.2175098E+03   5.2073374E+03   5.1943999E+03   5.1839312E+03   5.1772153E+03   5.1728701E+03   5.1705986E+03   8.1817363E+03   8.2413877E+03   8.2775332E+03   8.2959023E+03   8.3044951E+03   8.3083467E+03   8.3094326E+03   8.3097285E+03   8.3094326E+03   1.1824851E+04   1.1918868E+04   1.1986913E+04   1.2032737E+04   1.2062957E+04   1.2082018E+04   1.2092782E+04   1.2097424E+04   1.2098411E+04   1.3959411E+04   1.4063304E+04   1.4146062E+04   1.4208575E+04   1.4254596E+04   1.4285112E+04   1.4302789E+04   1.4310098E+04   1.4311480E+04   1.3936324E+04   1.4017105E+04   1.4088308E+04   1.4149635E+04   1.4198914E+04   1.4233873E+04   1.4253624E+04   1.4260932E+04   1.4261524E+04   1.2829922E+04   1.2859054E+04   1.2894604E+04   1.2936180E+04   1.2975878E+04   1.3006096E+04   1.3022489E+04   1.3026341E+04   1.3024068E+04   1.1807498E+04   1.1767999E+04   1.1756544E+04   1.1766813E+04   1.1786860E+04   1.1803647E+04   1.1810264E+04   1.1806511E+04   1.1798906E+04   1.1397717E+04   1.1300257E+04   1.1246540E+04   1.1225409E+04   1.1221262E+04   1.1219090E+04   1.1210499E+04   1.1194897E+04   1.1179690E+04   1.1542295E+04   1.1413739E+04   1.1335045E+04   1.1292391E+04   1.1268595E+04   1.1248354E+04   1.1223770E+04   1.1195629E+04   1.1171636E+04   1.1964201E+04   1.1835657E+04   1.1755787E+04   1.1708497E+04   1.1676706E+04   1.1646495E+04   1.1611053E+04   1.1573239E+04   1.1543128E+04   1.2415646E+04   1.2313673E+04   1.2254543E+04   1.2220585E+04   1.2195413E+04   1.2166884E+04   1.2129767E+04   1.2089194E+04   1.2056619E+04   1.2546043E+04   1.2486726E+04   1.2462051E+04   1.2454453E+04   1.2448827E+04   1.2433331E+04   1.2404610E+04   1.2368684E+04   1.2338284E+04   1.2424814E+04   1.2413172E+04   1.2428271E+04   1.2453633E+04   1.2474158E+04   1.2479686E+04   1.2466168E+04   1.2441301E+04   1.2417224E+04   1.2218024E+04   1.2253049E+04   1.2306025E+04   1.2362554E+04   1.2409906E+04   1.2437825E+04   1.2443055E+04   1.2431316E+04   1.2415729E+04   1.2035028E+04   1.2111259E+04   1.2193996E+04   1.2273675E+04   1.2341717E+04   1.2387868E+04   1.2408873E+04   1.2410256E+04   1.2402564E+04   1.1868327E+04   1.1974676E+04   1.2073929E+04   1.2164409E+04   1.2241978E+04   1.2297467E+04   1.2328022E+04   1.2336797E+04   1.2334531E+04   1.1616268E+04   1.1737810E+04   1.1839161E+04   1.1927216E+04   1.2001677E+04   1.2057030E+04   1.2089142E+04   1.2101063E+04   1.2101064E+04   1.1170712E+04   1.1294107E+04   1.1386806E+04   1.1462478E+04   1.1526245E+04   1.1574562E+04   1.1603102E+04   1.1614127E+04   1.1614721E+04   1.0490187E+04   1.0607136E+04   1.0686060E+04   1.0746408E+04   1.0796830E+04   1.0835949E+04   1.0859835E+04   1.0868884E+04   1.0869477E+04   9.6109043E+03   9.7188271E+03   9.7847686E+03   9.8318730E+03   9.8715195E+03   9.9029229E+03   9.9228467E+03   9.9308994E+03   9.9317891E+03   8.6159043E+03   8.7165332E+03   8.7744971E+03   8.8147461E+03   8.8481387E+03   8.8750674E+03   8.8930898E+03   8.9015166E+03   8.9038730E+03   7.5973916E+03   7.6928330E+03   7.7510107E+03   7.7909429E+03   7.8233569E+03   7.8493276E+03   7.8670996E+03   7.8773564E+03   7.8813647E+03   6.6272979E+03   6.7183623E+03   6.7828096E+03   6.8302520E+03   6.8668081E+03   6.8946147E+03   6.9138687E+03   6.9256392E+03   6.9312837E+03   5.7474683E+03   5.8295352E+03   5.9024170E+03   5.9625381E+03   6.0087441E+03   6.0420977E+03   6.0643379E+03   6.0782651E+03   6.0855215E+03   4.9745615E+03   5.0397456E+03   5.1143955E+03   5.1883589E+03   5.2488901E+03   5.2925435E+03   5.3212354E+03   5.3387051E+03   5.3476338E+03   4.3154419E+03   4.3533530E+03   4.4173281E+03   4.4960820E+03   4.5710229E+03   4.6298184E+03   4.6697173E+03   4.6942314E+03   4.7070610E+03   3.7720691E+03   3.7771250E+03   3.8155837E+03   3.8831416E+03   3.9613555E+03   4.0322441E+03   4.0860671E+03   4.1215146E+03   4.1407407E+03   3.3323923E+03   3.3174214E+03   3.3212009E+03   3.3602251E+03   3.4237234E+03   3.4930947E+03   3.5537852E+03   3.5981470E+03   3.6248005E+03   2.9337864E+03   2.9567935E+03   2.9430474E+03   2.9443130E+03   2.9744954E+03   3.0232292E+03   3.0754546E+03   3.1193552E+03   3.1482568E+03   2.4891509E+03   2.6021650E+03   2.6494700E+03   2.6409204E+03   2.6316938E+03   2.6434260E+03   2.6703279E+03   2.7004512E+03   2.7233403E+03   1.9888079E+03   2.1723682E+03   2.3077346E+03   2.3808950E+03   2.3851338E+03   2.3668259E+03   2.3585969E+03   2.3631853E+03   2.3718289E+03   1.6662566E+03   1.7778263E+03   1.8902640E+03   2.0124229E+03   2.0982808E+03   2.1340923E+03   2.1312166E+03   2.1198337E+03   2.1143933E+03   1.6515956E+03   1.6332135E+03   1.6897054E+03   1.7347379E+03   1.7902181E+03   1.8232853E+03   1.8435121E+03   1.8517512E+03   1.6340015E+03   1.5883584E+03   1.6029554E+03   1.5909963E+03   1.5826071E+03   1.5744860E+03   1.6753167E+03   1.6568070E+03   1.6392703E+03   1.6229867E+03   1.9525371E+02   1.9525371E+02   1.9525371E+02   1.9515494E+02   1.9456236E+02   1.9347598E+02   1.9199454E+02   1.8903166E+02   2.2745032E+02   2.2745032E+02   2.2745032E+02   2.2725279E+02   2.2695651E+02   2.2587012E+02   2.2428992E+02   2.2132704E+02   2.5283232E+02   2.5283232E+02   2.5293108E+02   2.5293108E+02   2.5253603E+02   2.5194345E+02   2.5036325E+02   2.4779543E+02   2.7584399E+02   2.7584399E+02   2.7594278E+02   2.7623904E+02   2.7623904E+02   2.7594278E+02   2.7465884E+02   2.7258484E+02   3.0043591E+02   3.0063342E+02   3.0092972E+02   3.0122601E+02   3.0162106E+02   3.0181857E+02   3.0132477E+02   3.0023837E+02   3.2966965E+02   3.2986716E+02   3.3036096E+02   3.3105231E+02   3.3203995E+02   3.3283005E+02   3.3312634E+02   3.3283005E+02   3.6443408E+02   3.6482913E+02   3.6552048E+02   3.6670563E+02   3.6808829E+02   3.6966849E+02   3.7124872E+02   3.7194003E+02   4.0512430E+02   4.0561810E+02   4.0650696E+02   4.0818591E+02   4.1025995E+02   4.1263025E+02   4.1519806E+02   4.1707455E+02   4.5154272E+02   4.5193777E+02   4.5312292E+02   4.5509818E+02   4.5796228E+02   4.6132022E+02   4.6477692E+02   4.6833237E+02   5.0319556E+02   5.0378815E+02   5.0517081E+02   5.0773865E+02   5.1099780E+02   5.1524463E+02   5.1988647E+02   5.2472583E+02   5.6107050E+02   5.6166302E+02   5.6344080E+02   5.6620612E+02   5.7005786E+02   5.7489722E+02   5.8072424E+02   5.8664996E+02   6.2546368E+02   6.2605627E+02   6.2793274E+02   6.3109314E+02   6.3524121E+02   6.4077191E+02   6.4719147E+02   6.5400610E+02   6.9677032E+02   6.9756042E+02   6.9943689E+02   7.0279486E+02   7.0743665E+02   7.1306616E+02   7.1988074E+02   7.2709045E+02   7.7617542E+02   7.7686676E+02   7.7884198E+02   7.8210114E+02   7.8674298E+02   7.9266876E+02   7.9958215E+02   8.0639679E+02   8.6407416E+02   8.6456793E+02   8.6654321E+02   8.6990112E+02   8.7414795E+02   8.8017242E+02   8.8669080E+02   8.9320911E+02   9.6145392E+02   9.6214526E+02   9.6392297E+02   9.6718213E+02   9.7172522E+02   9.7705841E+02   9.8288544E+02   9.8871240E+02   1.0695990E+03   1.0701915E+03   1.0717717E+03   1.0748334E+03   1.0790802E+03   1.0839196E+03   1.0893514E+03   1.0945859E+03   1.1892992E+03   1.1897930E+03   1.1912744E+03   1.1941385E+03   1.1980890E+03   1.2025333E+03   1.2077678E+03   1.2121133E+03   1.3210483E+03   1.3216410E+03   1.3232212E+03   1.3257889E+03   1.3292456E+03   1.3333937E+03   1.3383318E+03   1.3427761E+03   1.4655377E+03   1.4660315E+03   1.4677104E+03   1.4700808E+03   1.4735375E+03   1.4777843E+03   1.4825249E+03   1.4871667E+03   1.6228662E+03   1.6232612E+03   1.6246439E+03   1.6273105E+03   1.6310635E+03   1.6354091E+03   1.6408409E+03   1.6460754E+03   1.7916508E+03   1.7921445E+03   1.7940210E+03   1.7967864E+03   1.8009344E+03   1.8062676E+03   1.8125884E+03   1.8195017E+03   1.9707064E+03   1.9712990E+03   1.9735706E+03   1.9771260E+03   1.9821628E+03   1.9886812E+03   1.9971748E+03   2.0063596E+03   2.1573662E+03   2.1582551E+03   2.1608230E+03   2.1654646E+03   2.1718843E+03   2.1808716E+03   2.1921306E+03   2.2051672E+03   2.3433340E+03   2.3443218E+03   2.3476797E+03   2.3533091E+03   2.3618027E+03   2.3736541E+03   2.3891597E+03   2.4077271E+03   2.5148821E+03   2.5163635E+03   2.5200176E+03   2.5273259E+03   2.5376960E+03   2.5531030E+03   2.5738430E+03   2.5988298E+03   2.6579849E+03   2.6597627E+03   2.6640093E+03   2.6724041E+03   2.6854407E+03   2.7044031E+03   2.7306738E+03   2.7638579E+03   2.7609890E+03   2.7626680E+03   2.7676060E+03   2.7769883E+03   2.7917039E+03   2.8142217E+03   2.8462205E+03   2.8868118E+03   2.8447319E+03   2.8465098E+03   2.8516453E+03   2.8611265E+03   2.8771257E+03   2.9021125E+03   2.9377656E+03   2.9829983E+03   3.0196294E+03   3.0211108E+03   3.0261477E+03   3.0349375E+03   3.0502454E+03   3.0749358E+03   3.1101936E+03   3.1534512E+03   3.5898616E+03   3.5911455E+03   3.5950959E+03   3.6024043E+03   3.6148481E+03   3.6351929E+03   3.6629448E+03   3.6948445E+03   5.1697100E+03   5.1705986E+03   5.1728701E+03   5.1772153E+03   5.1839312E+03   5.1943999E+03   5.2073374E+03   5.2175098E+03   8.3089385E+03   8.3094326E+03   8.3097285E+03   8.3094326E+03   8.3083467E+03   8.3044951E+03   8.2959023E+03   8.2775332E+03   1.2098411E+04   1.2098411E+04   1.2097424E+04   1.2092782E+04   1.2082018E+04   1.2062957E+04   1.2032737E+04   1.1986913E+04   1.4311678E+04   1.4311480E+04   1.4310098E+04   1.4302789E+04   1.4285112E+04   1.4254596E+04   1.4208575E+04   1.4146062E+04   1.4260932E+04   1.4261524E+04   1.4260932E+04   1.4253624E+04   1.4233873E+04   1.4198914E+04   1.4149635E+04   1.4088308E+04   1.3022191E+04   1.3024068E+04   1.3026341E+04   1.3022489E+04   1.3006096E+04   1.2975878E+04   1.2936180E+04   1.2894604E+04   1.1795253E+04   1.1798906E+04   1.1806511E+04   1.1810264E+04   1.1803647E+04   1.1786860E+04   1.1766813E+04   1.1756544E+04   1.1173470E+04   1.1179690E+04   1.1194897E+04   1.1210499E+04   1.1219090E+04   1.1221262E+04   1.1225409E+04   1.1246540E+04   1.1162354E+04   1.1171636E+04   1.1195629E+04   1.1223770E+04   1.1248354E+04   1.1268595E+04   1.1292489E+04   1.1335045E+04   1.1531576E+04   1.1543128E+04   1.1573239E+04   1.1611053E+04   1.1646495E+04   1.1676706E+04   1.1708497E+04   1.1755787E+04   1.2044181E+04   1.2056619E+04   1.2089194E+04   1.2129767E+04   1.2166884E+04   1.2195413E+04   1.2220585E+04   1.2254543E+04   1.2326638E+04   1.2338284E+04   1.2368684E+04   1.2404610E+04   1.2433331E+04   1.2448827E+04   1.2454453E+04   1.2462051E+04   1.2407454E+04   1.2417224E+04   1.2441301E+04   1.2466168E+04   1.2479686E+04   1.2474158E+04   1.2453633E+04   1.2428271E+04   1.2408923E+04   1.2415729E+04   1.2431316E+04   1.2443055E+04   1.2437825E+04   1.2409906E+04   1.2362554E+04   1.2306025E+04   1.2398029E+04   1.2402564E+04   1.2410256E+04   1.2408873E+04   1.2387868E+04   1.2341717E+04   1.2273675E+04   1.2193996E+04   1.2332266E+04   1.2334531E+04   1.2336797E+04   1.2328022E+04   1.2297467E+04   1.2241978E+04   1.2164409E+04   1.2073929E+04   1.2099785E+04   1.2101064E+04   1.2101063E+04   1.2089142E+04   1.2057030E+04   1.2001677E+04   1.1927216E+04   1.1839161E+04   1.1613641E+04   1.1614721E+04   1.1614127E+04   1.1603102E+04   1.1574562E+04   1.1526245E+04   1.1462478E+04   1.1386806E+04   1.0868595E+04   1.0869477E+04   1.0868884E+04   1.0859835E+04   1.0835949E+04   1.0796830E+04   1.0746408E+04   1.0686060E+04   9.9313008E+03   9.9317891E+03   9.9308994E+03   9.9228467E+03   9.9029229E+03   9.8715195E+03   9.8318730E+03   9.7847686E+03   8.9039736E+03   8.9038730E+03   8.9015166E+03   8.8930898E+03   8.8750674E+03   8.8481387E+03   8.8147461E+03   8.7744971E+03   7.8822451E+03   7.8813647E+03   7.8773564E+03   7.8670996E+03   7.8493276E+03   7.8233569E+03   7.7909429E+03   7.7510107E+03   6.9330352E+03   6.9312837E+03   6.9256392E+03   6.9138687E+03   6.8946147E+03   6.8668081E+03   6.8302520E+03   6.7828096E+03   6.0876509E+03   6.0855215E+03   6.0782651E+03   6.0643379E+03   6.0420977E+03   6.0087441E+03   5.9625381E+03   5.9024170E+03   5.3504189E+03   5.3476338E+03   5.3387051E+03   5.3212354E+03   5.2925435E+03   5.2488901E+03   5.1883589E+03   5.1143955E+03   4.7109575E+03   4.7070610E+03   4.6942314E+03   4.6697173E+03   4.6298184E+03   4.5710229E+03   4.4960820E+03   4.4173281E+03   4.1470249E+03   4.1407407E+03   4.1215146E+03   4.0860671E+03   4.0322441E+03   3.9613555E+03   3.8831416E+03   3.8155837E+03   3.6334700E+03   3.6248005E+03   3.5981470E+03   3.5537852E+03   3.4930947E+03   3.4237234E+03   3.3602251E+03   3.3212009E+03   3.1581011E+03   3.1482568E+03   3.1193552E+03   3.0754546E+03   3.0232292E+03   2.9744954E+03   2.9443130E+03   2.9430474E+03   2.7315264E+03   2.7233403E+03   2.7004512E+03   2.6703279E+03   2.6434260E+03   2.6316938E+03   2.6409204E+03   2.6494700E+03   2.3755894E+03   2.3718289E+03   2.3631853E+03   2.3585969E+03   2.3668259E+03   2.3851338E+03   2.3808950E+03   2.3077346E+03   2.1132627E+03   2.1143933E+03   2.1198337E+03   2.1311345E+03   2.1340923E+03   2.0982808E+03   2.0124229E+03   1.8902640E+03   1.8546813E+03   1.8517512E+03   1.8435121E+03   1.8232853E+03   1.7902181E+03   1.7347379E+03   1.6897054E+03   1.6332135E+03   1.5703793E+03   1.5744860E+03   1.5826071E+03   1.5909963E+03   1.6029554E+03   1.5883584E+03   1.6340015E+03   1.6160852E+03   1.6229867E+03   1.6392703E+03   1.6568070E+03   1.6753167E+03   1.8508116E+02   1.7895787E+02   1.7085934E+02   1.6019298E+02   1.4626744E+02   1.2858894E+02   1.0755250E+02   2.1688272E+02   2.1036440E+02   2.0167328E+02   1.8992053E+02   1.7441479E+02   1.5476103E+02   1.3086047E+02   1.0310818E+02   2.4335110E+02   2.3703030E+02   2.2824042E+02   2.1589510E+02   1.9959926E+02   1.7816777E+02   1.5150186E+02   1.2068793E+02   2.6893063E+02   2.6310364E+02   2.5431375E+02   2.4206718E+02   2.2468497E+02   2.0157451E+02   1.7234077E+02   1.3767509E+02   2.9717673E+02   2.9194232E+02   2.8354749E+02   2.7149844E+02   2.5322737E+02   2.2814166E+02   1.9584628E+02   1.5742763E+02   3.3085480E+02   3.2650925E+02   3.1890451E+02   3.0665796E+02   2.8789304E+02   2.6191849E+02   2.2745032E+02   1.8488364E+02   3.7114993E+02   3.6808829E+02   3.6137244E+02   3.4961969E+02   3.3233624E+02   3.0774432E+02   2.7367123E+02   2.2903052E+02   4.1786465E+02   4.1628445E+02   4.1105005E+02   4.0216141E+02   3.8912473E+02   3.7075488E+02   3.4379269E+02   3.0023837E+02   4.7060391E+02   4.7040637E+02   4.6803607E+02   4.6369052E+02   4.5934497E+02   4.5430807E+02   4.4344418E+02   4.0897601E+02   5.2857758E+02   5.3045404E+02   5.3084912E+02   5.3282434E+02   5.4033032E+02   5.5514471E+02   5.7055170E+02   5.6018158E+02   5.9178564E+02   5.9534113E+02   5.9850153E+02   6.0630377E+02   6.2585876E+02   6.6210461E+02   7.1000452E+02   7.3825061E+02   6.6003064E+02   6.6437616E+02   6.6931433E+02   6.8086951E+02   7.0832556E+02   7.6037341E+02   8.3197632E+02   8.7839478E+02   7.3321375E+02   7.3775677E+02   7.4249744E+02   7.5415137E+02   7.8220001E+02   8.3335901E+02   8.9113513E+02   8.9528320E+02   8.1222375E+02   8.1617426E+02   8.1943341E+02   8.2753198E+02   8.4837085E+02   8.8274030E+02   9.0496185E+02   8.8017242E+02   8.9844354E+02   9.0091260E+02   9.0249280E+02   9.0594946E+02   9.1582574E+02   9.3024506E+02   9.2757849E+02   8.9972742E+02   9.9276166E+02   9.9453943E+02   9.9394684E+02   9.9335425E+02   9.9453943E+02   9.9463818E+02   9.8150275E+02   9.5829352E+02   1.0977463E+03   1.0983389E+03   1.0966599E+03   1.0933020E+03   1.0894503E+03   1.0831294E+03   1.0675249E+03   1.0480687E+03   1.2148787E+03   1.2147799E+03   1.2119158E+03   1.2068789E+03   1.2008544E+03   1.1929534E+03   1.1781390E+03   1.1611519E+03   1.3452452E+03   1.3448501E+03   1.3412947E+03   1.3353689E+03   1.3282581E+03   1.3203571E+03   1.3062340E+03   1.2894443E+03   1.4899320E+03   1.4898333E+03   1.4860803E+03   1.4796608E+03   1.4719573E+03   1.4644513E+03   1.4506245E+03   1.4322548E+03   1.6497296E+03   1.6504210E+03   1.6471617E+03   1.6409398E+03   1.6331376E+03   1.6264216E+03   1.6128912E+03   1.5931387E+03   1.8248350E+03   1.8272052E+03   1.8253287E+03   1.8199956E+03   1.8131809E+03   1.8079465E+03   1.7954037E+03   1.7755525E+03   2.0145570E+03   2.0193964E+03   2.0202852E+03   2.0178162E+03   2.0134706E+03   2.0109027E+03   2.0002365E+03   1.9815703E+03   2.2178088E+03   2.2272900E+03   2.2324255E+03   2.2343020E+03   2.2353884E+03   2.2371663E+03   2.2292651E+03   2.2134631E+03   2.4262944E+03   2.4421951E+03   2.4541455E+03   2.4632314E+03   2.4732065E+03   2.4843667E+03   2.4799224E+03   2.4669846E+03   2.6255945E+03   2.6501863E+03   2.6707288E+03   2.6900862E+03   2.7139866E+03   2.7406526E+03   2.7420352E+03   2.7312700E+03   2.7998074E+03   2.8337815E+03   2.8640027E+03   2.8948164E+03   2.9368892E+03   2.9894304E+03   3.0004919E+03   2.9895293E+03   2.9310571E+03   2.9729321E+03   3.0108567E+03   3.0517441E+03   3.1146555E+03   3.2028499E+03   3.2314910E+03   3.2193433E+03   3.0314905E+03   3.0759331E+03   3.1151416E+03   3.1599792E+03   3.2410627E+03   3.3711318E+03   3.4268335E+03   3.4133032E+03   3.1973999E+03   3.2345342E+03   3.2638662E+03   3.3011982E+03   3.3889971E+03   3.5547185E+03   3.6399497E+03   3.6261230E+03   3.7228926E+03   3.7389907E+03   3.7441262E+03   3.7575579E+03   3.8323198E+03   4.0011023E+03   4.0986782E+03   4.0825801E+03   5.2169170E+03   5.1988442E+03   5.1650679E+03   5.1403779E+03   5.1822524E+03   5.3011597E+03   5.3369111E+03   5.3085674E+03   8.2413877E+03   8.1817363E+03   8.1038164E+03   8.0364624E+03   8.0093037E+03   7.9823423E+03   7.9003716E+03   7.8313389E+03   1.1918868E+04   1.1824851E+04   1.1713451E+04   1.1601854E+04   1.1456777E+04   1.1239903E+04   1.1054534E+04   1.0944814E+04   1.4063304E+04   1.3959411E+04   1.3841496E+04   1.3700372E+04   1.3451109E+04   1.3146246E+04   1.2942708E+04   1.2836347E+04   1.4017105E+04   1.3936324E+04   1.3843593E+04   1.3700793E+04   1.3434055E+04   1.3178575E+04   1.3060465E+04   1.2998443E+04   1.2859054E+04   1.2829922E+04   1.2790717E+04   1.2703716E+04   1.2530899E+04   1.2430563E+04   1.2477471E+04   1.2495146E+04   1.1767999E+04   1.1807498E+04   1.1864378E+04   1.1912271E+04   1.1931032E+04   1.2020301E+04   1.2141067E+04   1.2254430E+04   1.1300257E+04   1.1397717E+04   1.1537834E+04   1.1703428E+04   1.1883141E+04   1.2120915E+04   1.2272189E+04   1.2472639E+04   1.1413739E+04   1.1542394E+04   1.1728119E+04   1.1960742E+04   1.2225950E+04   1.2518606E+04   1.2701172E+04   1.2960752E+04   1.1835657E+04   1.1964201E+04   1.2153858E+04   1.2397224E+04   1.2674849E+04   1.2969157E+04   1.3175993E+04   1.3464676E+04   1.2313673E+04   1.2415646E+04   1.2576554E+04   1.2786030E+04   1.3022752E+04   1.3294914E+04   1.3512487E+04   1.3803309E+04   1.2486726E+04   1.2546043E+04   1.2658956E+04   1.2813421E+04   1.2994240E+04   1.3238526E+04   1.3449946E+04   1.3720784E+04   1.2413172E+04   1.2424814E+04   1.2481452E+04   1.2573025E+04   1.2692823E+04   1.2898078E+04   1.3083799E+04   1.3316689E+04   1.2253147E+04   1.2218024E+04   1.2216344E+04   1.2241104E+04   1.2294082E+04   1.2441570E+04   1.2578210E+04   1.2756584E+04   1.2111259E+04   1.2035028E+04   1.1976351E+04   1.1932370E+04   1.1911177E+04   1.1975681E+04   1.2035161E+04   1.2146615E+04   1.1974676E+04   1.1868327E+04   1.1759020E+04   1.1651100E+04   1.1549602E+04   1.1512763E+04   1.1467853E+04   1.1501397E+04   1.1737810E+04   1.1616268E+04   1.1469808E+04   1.1302967E+04   1.1136739E+04   1.0988949E+04   1.0825020E+04   1.0769920E+04   1.1294107E+04   1.1170712E+04   1.1002845E+04   1.0786871E+04   1.0562157E+04   1.0336104E+04   1.0054782E+04   9.9147471E+03   1.0607136E+04   1.0490187E+04   1.0314675E+04   1.0069702E+04   9.7892744E+03   9.5257793E+03   9.1647676E+03   8.9555654E+03   9.7188271E+03   9.6109043E+03   9.4372686E+03   9.1853711E+03   8.8756201E+03   8.5919834E+03   8.2083711E+03   7.9568877E+03   8.7165332E+03   8.6159043E+03   8.4509922E+03   8.2091797E+03   7.9029980E+03   7.6202212E+03   7.2601064E+03   6.9961108E+03   7.6928330E+03   7.5973916E+03   7.4479175E+03   7.2302734E+03   6.9539287E+03   6.6878398E+03   6.3619941E+03   6.0980332E+03   6.7183623E+03   6.6272979E+03   6.4997129E+03   6.3184253E+03   6.0865557E+03   5.8451758E+03   5.5040898E+03   5.1359502E+03   5.8295352E+03   5.7474683E+03   5.6490684E+03   5.5116558E+03   5.3431646E+03   5.1375981E+03   4.7584668E+03   4.2934644E+03   5.0397456E+03   4.9745615E+03   4.9116558E+03   4.8268950E+03   4.7313149E+03   4.5647378E+03   4.1248374E+03   4.3533530E+03   4.3154419E+03   4.2913569E+03   4.2580610E+03   4.2197456E+03   4.0221643E+03   3.5702195E+03   3.7771250E+03   3.7720691E+03   3.7756934E+03   3.7674199E+03   3.7207720E+03   3.4278743E+03   3.3174214E+03   3.3323923E+03   3.3246763E+03   3.2954253E+03   3.1275107E+03   2.8459307E+03   2.9567935E+03   2.9337864E+03   2.8608257E+03   2.7444460E+03   2.5018894E+03   2.6021650E+03   2.4891509E+03   2.3013423E+03   2.1549082E+03   2.1723682E+03   1.9888079E+03   1.7708582E+03   1.9246914E+03   1.7778263E+03   1.6662566E+03   1.6515956E+03 
Type 1 2975 float
0 0 0 0 0 0 0 0 0 0 0 0 0 0 0 0 0 0 0 0 0 0 0 0 0 0 0 0 0 0 0 0 0 0 0 0 0 0 0 0 0 0 0 0 0 0 0 0 0 0 0 0 0 0 0 0 0 0 0 0 0 0 0 0 0 0 0 0 0 0 0 0 0 0 0 0 0 0 0 0 0 0 0 0 0 0 0 0 0 0 0 0 0 0 0 0 0 0 0 0 0 0 0 0 0 0 0 0 0 0 0 0 0 0 0 0 0 0 0 0 0 0 0 0 0 0 0 0 0 0 0 0 0 0 0 0 0 0 0 0 0 0 0 0 0 0 0 0 0 0 0 0 0 0 0 0 0 0 0 0 0 0 0 0 0 0 0 0 0 0 0 0 0 0 0 0 0 0 0 0 0 0 0 0 0 0 0 0 0 0 0 0 0 0 0 0 0 0 0 0 0 0 0 0 0 0 0 0 0 0 0 0 0 0 0 0 0 0 0 0 0 0 0 0 0 0 0 0 0 0 0 0 0 0 0 0 0 0 0 0 0 0 0 0 0 0 0 0 0 0 0 0 0 0 0 0 0 0 0 0 0 0 0 0 0 0 0 0 0 0 0 0 0 0 0 0 0 0 0 0 0 0 0 0 0 0 0 0 0 0 0 0 0 0 0 0 0 0 0 0 0 0 0 0 0 0 0 0 0 0 0 0 0 0 0 0 0 0 0 0 0 0 0 0 0 0 0 0 0 0 0 0 0 0 0 0 0 0 0 0 0 0 0 0 0 0 0 0 0 0 0 0 0 0 0 0 0 0 0 0 0 0 0 0 0 0 0 0 0 0 0 0 0 0 0 0 0 0 0 0 0 0 0 0 0 0 0 0 0 0 0 0 0 0 0 0 0 0 0 0 0 0 0 0 0 0 0 0 0 0 0 0 0 0 0 0 0 0 0 0 0 0 0 0 0 0 0 0 0 0 0 0 0 0 0 0 0 0 0 0 0 0 0 0 0 0 0 0 0 0 0 0 0 0 0 0 0 0 0 0 0 0 0 0 0 0 0 0 0 0 0 0 0 0 0 0 0 0 0 0 0 0 0 0 0 0 0 0 0 0 0 0 0 0 0 0 0 0 0 0 0 0 0 0 0 0 0 0 0 0 0 0 0 0 0 0 0 0 0 0 0 0 0 0 0 0 0 0 0 0 0 0 0 0 0 0 0 0 0 0 0 0 0 0 0 0 0 0 0 0 0 0 0 0 0 0 0 0 0 0 0 0 0 0 0 0 0 0 0 0 0 0 0 0 0 0 0 0 0 0 0 0 0 0 0 0 0 0 0 0 0 0 0 0 0 0 0 0 0 0 0 0 0 0 0 0 0 0 0 0 0 0 0 0 0 0 0 0 0 0 0 0 0 0 0 0 0 0 0 0 0 0 0 0 0 0 0 0 0 0 0 0 0 0 0 0 0 0 0 0 0 0 0 0 0 0 0 0 0 0 0 0 0 0 0 0 0 0 0 0 0 0 0 0 0 0 0 0 0 0 0 0 0 0 0 0 0 0 0 0 0 0 0 0 0 0 0 0 0 0 0 0 0 0 0 0 0 0 0 0 0 0 0 0 0 0 0 0 0 0 0 0 0 0 0 0 0 0 0 0 0 0 0 0 0 0 0 0 0 0 0 0 0 0 0 0 0 0 0 0 0 0 0 0 0 0 0 0 0 0 0 0 0 0 0 0 0 0 0 0 0 0 0 0 0 0 0 0 0 0 0 0 0 0 0 0 0 0 0 0 0 0 0 0 0 0 0 0 0 0 0 0 0 0 0 0 0 0 0 0 0 0 0 0 0 0 0 0 0 0 0 0 0 0 0 0 0 0 0 0 0 0 0 0 0 0 0 0 0 0 0 0 0 0 0 0 0 0 0 0 0 0 0 0 0 0 0 0 0 0 0 0 0 0 0 0 0 0 0 0 0 0 0 0 0 0 0 0 0 0 0 0 0 0 0 0 0 0 0 0 0 0 0 0 0 0 0 0 0 0 0 0 0 0 0 0 0 0 0 0 0 0 0 0 0 0 0 0 0 0 0 0 0 0 0 0 0 0 0 0 0 0 0 0 0 0 0 0 0 0 0 0 0 0 0 0 0 0 0 0 0 0 0 0 0 0 0 0 0 0 0 0 0 0 0 0 0 0 0 0 0 0 0 0 0 0 0 0 0 0 0 0 0 0 0 0 0 0 0 0 0 0 0 0 0 0 0 0 0 0 0 0 0 0 0 0 0 0 0 0 0 0 0 0 0 0 0 0 0 0 0 0 0 0 0 0 0 0 0 0 0 3 3 3 3 3 3 3 3 3 3 3 3 3 3 3 3 3 3 3 3 3 3 3 3 3 3 3 3 3 3 3 3 3 3 3 3 3 3 3 3 3 3 3 3 3 3 3 3 3 3 3 3 3 3 3 3 3 3 3 3 3 3 3 3 3 3 3 3 3 3 3 3 3 3 3 3 3 3 3 3 3 3 3 3 3 3 3 3 3 3 3 3 3 3 3 3 3 3 3 3 3 3 3 3 3 3 3 3 3 3 3 3 3 3 3 3 3 3 3 3 3 3 3 3 3 3 3 3 3 3 3 3 3 3 3 3 3 3 3 3 3 3 3 3 3 3 3 3 3 3 3 3 3 3 3 3 3 3 3 3 3 3 3 3 3 3 3 3 3 3 3 3 3 3 3 3 3 3 3 3 3 3 3 3 3 3 3 3 3 3 3 3 3 3 3 3 3 3 3 3 3 3 3 3 3 3 3 3 3 3 3 3 3 3 3 3 3 3 3 3 3 3 3 3 3 3 3 3 3 3 3 3 3 3 3 3 3 3 3 3 3 3 3 3 3 3 3 3 3 3 3 3 3 3 3 3 3 3 3 3 3 3 3 3 3 3 3 3 3 3 3 3 3 3 3 3 3 3 3 3 3 3 3 3 3 3 3 3 3 3 3 3 3 3 3 3 3 3 3 3 3 3 3 3 3 3 3 3 3 3 3 3 3 3 3 3 3 3 3 3 3 3 3 3 3 3 3 3 3 3 3 3 3 3 3 3 3 3 3 3 3 3 3 3 3 3 3 3 3 3 3 3 3 3 3 3 3 3 3 3 3 3 3 3 3 3 3 3 3 3 3 3 3 3 3 3 3 3 3 3 3 3 3 3 3 3 3 3 3 3 3 3 3 3 3 3 3 3 3 3 3 3 3 3 3 3 3 3 3 3 3 3 3 3 3 3 3 3 3 3 3 3 3 3 3 3 3 3 3 3 3 3 3 3 3 3 3 3 3 3 3 3 3 3 3 3 3 3 3 3 3 3 3 3 3 3 3 3 3 3 3 3 3 3 3 3 3 3 3 3 3 3 3 3 3 3 3 3 3 3 3 3 3 3 3 3 3 3 3 3 3 3 3 3 3 3 3 3 3 3 3 3 3 3 3 3 3 3 3 3 3 3 3 3 3 3 3 3 3 3 3 3 3 3 3 3 3 3 3 3 3 3 3 3 3 3 3 3 3 3 3 3 3 3 3 3 3 3 3 3 3 3 3 3 3 3 3 3 3 3 3 3 3 3 3 3 3 3 3 3 3 3 3 3 3 3 3 3 3 3 3 3 3 3 3 3 3 3 3 3 3 3 3 3 3 3 3 3 3 3 3 3 3 3 3 3 3 3 3 3 3 3 3 3 3 3 3 3 3 3 3 3 3 3 3 3 3 3 3 3 3 3 3 3 3 3 3 3 3 3 3 3 3 3 3 3 3 3 3 3 3 3 3 3 3 3 3 3 3 3 3 3 3 3 3 3 3 3 3 3 3 3 3 3 3 3 3 3 3 3 3 3 3 3 3 3 3 3 3 3 3 3 3 3 3 3 3 3 3 3 3 3 3 3 3 3 3 3 3 3 3 3 3 3 3 3 3 3 3 3 3 3 3 3 3 3 3 3 3 3 3 3 3 3 3 3 3 3 3 3 3 3 3 3 3 3 3 3 3 3 3 3 3 3 3 3 3 3 3 3 3 3 3 3 3 3 3 3 3 3 3 3 3 3 3 3 3 3 3 3 3 3 3 3 3 3 3 3 3 3 3 3 3 3 3 3 3 3 3 3 3 3 3 3 3 3 3 3 3 3 3 3 3 3 3 3 3 3 3 3 3 3 3 3 3 3 3 3 3 3 3 3 3 3 3 3 3 3 3 3 3 3 3 3 3 3 3 3 3 3 3 3 3 3 3 3 3 3 3 3 3 3 3 3 3 3 3 3 3 3 3 3 3 3 3 3 3 3 3 3 3 3 3 3 3 3 3 3 3 3 3 3 3 3 3 3 3 3 3 3 3 3 3 3 3 3 3 3 3 3 3 3 3 3 3 3 3 3 3 3 3 3 3 3 3 3 3 3 3 3 3 3 3 3 3 3 3 3 3 3 3 3 3 3 3 3 3 3 3 3 3 3 3 3 3 3 3 3 3 3 3 3 3 3 3 3 3 3 3 3 3 3 3 3 3 3 3 3 3 3 3 3 3 3 3 3 3 3 3 3 3 3 3 3 3 3 3 3 3 3 3 3 3 3 3 3 3 3 3 3 3 3 3 3 3 3 3 3 3 3 3 3 3 3 3 3 3 3 3 3 3 3 3 3 3 3 3 3 3 3 3 3 3 3 3 3 3 3 3 3 3 3 3 3 3 3 3 3 3 3 3 3 3 3 3 3 3 3 3 3 3 3 3 3 3 3 3 3 3 3 3 3 3 3 3 3 3 3 3 3 3 3 3 3 3 3 3 3 3 3 3 3 3 3 3 3 3 3 3 3 3 3 3 3 3 3 3 3 3 3 3 3 3 3 3 3 3 3 3 3 3 3 3 3 3 3 3 3 3 3 3 3 3 3 3 3 3 3 3 3 3 3 3 3 3 3 3 3 3 3 3 3 3 3 3 3 3 3 3 3 3 3 3 3 3 3 3 3 3 3 3 3 3 3 3 3 3 3 3 3 3 3 3 3 3 3 3 3 3 3 3 3 3 3 3 3 3 3 3 3 3 3 3 3 3 3 3 3 3 3 3 3 3 3 3 3 3 3 3 3 3 3 3 3 3 3 3 3 3 3 3 3 3 3 3 3 3 3 3 3 3 3 3 3 3 3 3 3 3 3 3 3 3 3 3 3 3 3 3 3 3 3 3 3 3 3 3 3 3 3 3 3 3 3 3 3 3 3 3 3 3 3 3 3 3 3 3 3 3 3 3 3 3 3 3 3 3 3 3 3 3 3 3 3 3 3 3 3 3 3 3 3 3 3 3 3 3 3 3 3 3 3 3 3 3 3 3 3 3 3 3 3 3 3 3 3 3 3 3 3 3 3 3 3 3 3 3 3 3 3 3 3 3 3 3 3 3 3 3 3 3 3 3 3 3 3 3 3 3 3 3 3 3 3 3 3 3 3 3 3 3 3 3 3 3 3 3 3 3 3 3 3 3 3 3 3 3 3 3 3 3 3 3 3 3 3 3 3 3 3 3 3 3 3 3 3 3 3 3 3 3 3 3 3 3 3 3 3 3 3 3 3 3 3 3 3 3 3 3 3 3 3 3 3 3 3 3 3 3 3 3 3 3 3 3 3 3 3 3 3 3 3 3 3 3 3 3 3 3 3 3 3 3 3 3 3 3 3 3 3 3 3 3 3 3 3 3 3 3 3 3 3 3 3 3 3 3 3 3 3 3 3 3 3 3 3 3 3 3 3 3 3 3 3 3 3 3 3 3 3 3 3 3 3 3 3 3 3 3 3 3 3 3 3 3 3 3 3 3 3 3 3 3 3 3 3 3 3 3 3 3 3 3 3 3 3 3 3 3 3 3 3 3 3 3 3 3 3 3 3 3 3 3 3 3 3 3 3 3 3 3 3 3 3 3 3 3 3 3 3 3 3 3 3 3 3 3 3 3 3 3 3 3 3 3 3 3 3 3 3 3 3 3 3 3 3 3 3 3 3 3 3 3 3 3 3 3 3 3 3 3 3 3 3 3 3 3 3 3 3 3 3 3 3 3 3 3 3 3 3 3 3 3 3 3 3 3 3 3 3 3 3 3 3 3 3 3 3 3 3 3 3 3 3 3 3 3 3 3 3 3 3 3 3 3 3 3 3 3 3 3 3 3 3 3 3 3 3 3 3 3 3 3 3 3 3 3 3 3 3 3 3 3 3 3 3 3 3 3 3 3 3 3 3 3 3 3 3 3 3 3 3 3 3 3 3 3 3 3 3 3 3 3 3 3 3 3 3 3 3 3 3 3 3 3 3 3 3 3 3 3 3 3 3 3 3 3 3 3 3 3 3 3 3 3 3 3 3 3 3 3 3 3 3 3 3 3 3 3 3 3 3 3 3 3 3 3 3 3 3 3 3 3 3 3 3 3 3 3 3 3 3 3 3 3 3 3 3 3 3 3 3 3 3 3 3 3 3 3 3 3 3 3 3 3 3 3 3 3 3 3 3 3 3 3 3 3 3 3 3 3 3 3 3 3 3 3 3 3 3 3 3 3 3 3 3 3 3 3 3 3 3 3 3 3 3 3 3 3 3 3 3 3 3 3 3 3 3 3 3 3 3 3 3 3 3 3 3 3 3 3 3 3 3 3 3 3 3 3 3 3 3 3 3 3 3 3 3 3 3 3 3 3 3 3 3 3 3 3 3 3 3 3 3 
CellOffSpring 1 2975 float
0 0 0 0 0 0 0 0 0 0 0 0 0 0 0 0 0 0 0 0 0 0 0 0 0 0 0 0 0 0 0 0 0 0 0 0 0 0 0 0 0 0 0 0 0 0 0 0 0 0 0 0 0 0 0 0 0 0 0 0 0 0 0 0 0 0 0 0 0 0 0 0 0 0 0 0 0 0 0 0 0 0 0 0 0 0 0 0 0 0 0 0 0 0 0 0 0 0 0 0 0 0 0 0 0 0 0 0 0 0 0 0 0 0 0 0 0 0 0 0 0 0 0 0 0 0 0 0 0 0 0 0 0 0 0 0 0 0 0 0 0 0 0 0 0 0 0 0 0 0 0 0 0 0 0 0 0 0 0 0 0 0 0 0 0 0 0 0 0 0 0 0 0 0 0 0 0 0 0 0 0 0 0 0 0 0 0 0 0 0 0 0 0 0 0 0 0 0 0 0 0 0 0 0 0 0 0 0 0 0 0 0 0 0 0 0 0 0 0 0 0 0 0 0 0 0 0 0 0 0 0 0 0 0 0 0 0 0 0 0 0 0 0 0 0 0 0 0 0 0 0 0 0 0 0 0 0 0 0 0 0 0 0 0 0 0 0 0 0 0 0 0 0 0 0 0 0 0 0 0 0 0 0 0 0 0 0 0 0 0 0 0 0 0 0 0 0 0 0 0 0 0 0 0 0 0 0 0 0 0 0 0 0 0 0 0 0 0 0 0 0 0 0 0 0 0 0 0 0 0 0 0 0 0 0 0 0 0 0 0 0 0 0 0 0 0 0 0 0 0 0 0 0 0 0 0 0 0 0 0 0 0 0 0 0 0 0 0 0 0 0 0 0 0 0 0 0 0 0 0 0 0 0 0 0 0 0 0 0 0 0 0 0 0 0 0 0 0 0 0 0 0 0 0 0 0 0 0 0 0 0 0 0 0 0 0 0 0 0 0 0 0 0 0 0 0 0 0 0 0 0 0 0 0 0 0 0 0 0 0 0 0 0 0 0 0 0 0 0 0 0 0 0 0 0 0 0 0 0 0 0 0 0 0 0 0 0 0 0 0 0 0 0 0 0 0 0 0 0 0 0 0 0 0 0 0 0 0 0 0 0 0 0 0 0 0 0 0 0 0 0 0 0 0 0 0 0 0 0 0 0 0 0 0 0 0 0 0 0 0 0 0 0 0 0 0 0 0 0 0 0 0 0 0 0 0 0 0 0 0 0 0 0 0 0 0 0 0 0 0 0 0 0 0 0 0 0 0 0 0 0 0 0 0 0 0 0 0 0 0 0 0 0 0 0 0 0 0 0 0 0 0 0 0 0 0 0 0 0 0 0 0 0 0 0 0 0 0 0 0 0 0 0 0 0 0 0 0 0 0 0 0 0 0 0 0 0 0 0 0 0 0 0 0 0 0 0 0 0 0 0 0 0 0 0 0 0 0 0 0 0 0 0 0 0 0 0 0 0 0 0 0 0 0 0 0 0 0 0 0 0 0 0 0 0 0 0 0 0 0 0 0 0 0 0 0 0 0 0 0 0 0 0 0 0 0 0 0 0 0 0 0 0 0 0 0 0 0 0 0 0 0 0 0 0 0 0 0 0 0 0 0 0 0 0 0 0 0 0 0 0 0 0 0 0 0 0 0 0 0 0 0 0 0 0 0 0 0 0 0 0 0 0 0 0 0 0 0 0 0 0 0 0 0 0 0 0 0 0 0 0 0 0 0 0 0 0 0 0 0 0 0 0 0 0 0 0 0 0 0 0 0 0 0 0 0 0 0 0 0 0 0 0 0 0 0 0 0 0 0 0 0 0 0 0 0 0 0 0 0 0 0 0 0 0 0 0 0 0 0 0 0 0 0 0 0 0 0 0 0 0 0 0 0 0 0 0 0 0 0 0 0 0 0 0 0 0 0 0 0 0 0 0 0 0 0 0 0 0 0 0 0 0 0 0 0 0 0 0 0 0 0 0 0 0 0 0 0 0 0 0 0 0 0 0 0 0 0 0 0 0 0 0 0 0 0 0 0 0 0 0 0 0 0 0 0 0 0 0 0 0 0 0 0 0 0 0 0 0 0 0 0 0 0 0 0 0 0 0 0 0 0 0 0 0 0 0 0 0 0 0 0 0 0 0 0 0 0 0 0 0 0 0 0 0 0 0 0 0 0 0 0 0 0 0 0 0 0 0 0 0 0 0 0 0 0 0 0 0 0 0 0 0 0 0 0 0 0 0 0 0 0 0 0 0 0 0 0 0 0 0 0 0 0 0 0 0 0 0 0 0 0 0 0 0 0 0 0 0 0 0 0 0 0 0 0 0 0 0 0 0 0 0 0 0 0 0 0 0 0 0 0 0 0 0 0 0 0 0 0 0 0 0 0 0 0 0 0 0 0 0 0 0 0 0 0 0 0 0 0 0 0 0 0 0 0 0 0 0 0 0 0 0 0 0 0 0 0 0 0 0 0 0 0 0 0 0 0 0 0 0 0 0 0 0 0 0 0 0 0 0 0 0 0 0 0 0 0 0 0 0 0 0 0 0 0 0 0 0 0 0 0 0 0 0 0 0 0 0 0 0 0 0 0 0 0 0 0 0 0 0 0 0 0 0 0 0 0 0 0 0 0 0 0 0 0 0 0 0 0 0 0 0 0 0 0 0 0 0 0 0 0 0 0 0 0 0 0 0 0 0 0 0 0 0 0 0 0 0 0 0 0 0 0 0 0 0 0 0 0 0 0 0 0 0 0 0 0 0 0 0 0 0 0 0 0 0 0 0 0 0 0 0 0 0 0 0 0 0 0 0 0 0 0 0 0 0 0 0 0 0 0 0 0 0 0 0 0 0 0 0 0 0 0 0 0 0 0 0 0 0 0 0 0 0 0 0 0 0 0 0 0 0 0 0 0 0 0 0 0 0 0 0 0 0 0 0 0 0 0 0 0 0 0 0 0 0 0 0 0 0 0 0 0 0 0 0 0 0 0 0 0 0 0 0 0 0 0 0 0 0 0 0 0 0 0 0 0 0 0 0 0 0 0 0 0 0 0 0 0 0 0 0 0 0 0 0 0 0 0 0 0 0 0 0 0 0 0 0 0 0 0 0 0 0 0 0 0 0 0 0 0 0 0 0 0 0 0 0 0 0 0 0 0 0 0 0 0 0 0 0 0 0 0 0 0 0 0 0 0 0 0 0 0 0 0 0 0 0 0 0 0 0 0 0 0 0 0 0 0 0 0 0 0 0 0 0 0 0 0 0 0 0 0 0 0 0 0 0 0 0 0 0 0 0 0 0 0 0 0 0 0 0 0 0 0 0 0 0 0 0 0 0 0 0 0 0 0 0 0 0 0 0 0 0 0 0 0 0 0 0 0 0 0 0 0 0 0 0 0 0 0 0 0 0 0 0 0 0 0 0 0 0 0 0 0 0 0 0 0 0 0 0 0 0 0 0 0 0 0 0 0 0 0 0 0 0 0 0 0 0 0 0 0 0 0 0 0 0 0 0 0 0 0 0 0 0 0 0 0 0 0 0 0 0 0 0 0 0 0 0 0 0 0 0 0 0 0 0 0 0 0 0 0 0 0 0 0 0 0 0 0 0 0 0 0 0 0 0 0 0 0 0 0 0 0 0 0 0 0 0 0 0 0 0 0 0 0 0 0 0 0 0 0 0 0 0 0 0 0 0 0 0 0 0 0 0 0 0 0 0 0 0 0 0 0 0 0 0 0 0 0 0 0 0 0 0 0 0 0 0 0 0 0 0 0 0 0 0 0 0 0 0 0 0 0 0 0 0 0 0 0 0 0 0 0 0 0 0 0 0 0 0 0 0 0 0 0 0 0 0 0 0 0 0 0 0 0 0 0 0 0 0 0 0 0 0 0 0 0 0 0 0 0 0 0 0 0 0 0 0 0 0 0 0 0 0 0 0 0 0 0 0 0 0 0 0 0 0 0 0 0 0 0 0 0 0 0 0 0 0 0 0 0 0 0 0 0 0 0 0 0 0 0 0 0 0 0 0 0 0 0 0 0 0 0 0 0 0 0 0 0 0 0 0 0 0 0 0 0 0 0 0 0 0 0 0 0 0 0 0 0 0 0 0 0 0 0 0 0 0 0 0 0 0 0 0 0 0 0 0 0 0 0 0 0 0 0 0 0 0 0 0 0 0 0 0 0 0 0 0 0 0 0 0 0 0 0 0 0 0 0 0 0 0 0 0 0 0 0 0 0 0 0 0 0 0 0 0 0 0 0 0 0 0 0 0 0 0 0 0 0 0 0 0 0 0 0 0 0 0 0 0 0 0 0 0 0 0 0 0 0 0 0 0 0 0 0 0 0 0 0 0 0 0 0 0 0 0 0 0 0 0 0 0 0 0 0 0 0 0 0 0 0 0 0 0 0 0 0 0 0 0 0 0 0 0 0 0 0 0 0 0 0 0 0 0 0 0 0 0 0 0 0 0 0 0 0 0 0 0 0 0 0 0 0 0 0 0 0 0 0 0 0 0 0 0 0 0 0 0 0 0 0 0 0 0 0 0 0 0 0 0 0 0 0 0 0 0 0 0 0 0 0 0 0 0 0 0 0 0 0 0 0 0 0 0 0 0 0 0 0 0 0 0 0 0 0 0 0 0 0 0 0 0 0 0 0 0 0 0 0 0 0 0 0 0 0 0 0 0 0 0 0 0 0 0 0 0 0 0 0 0 0 0 0 0 0 0 0 0 0 0 0 0 0 0 0 0 0 0 0 0 0 0 0 0 0 0 0 0 0 0 0 0 0 0 0 0 0 0 0 0 0 0 0 0 0 0 0 0 0 0 0 0 0 0 0 0 0 0 0 0 0 0 0 0 0 0 0 0 0 0 0 0 0 0 0 0 0 0 0 0 0 0 0 0 0 0 0 0 0 0 0 0 0 0 0 0 0 0 0 0 0 0 0 0 0 0 0 0 0 0 0 0 0 0 0 0 0 0 0 0 0 0 0 0 0 0 0 0 0 0 0 0 0 0 0 0 0 0 0 0 0 0 0 0 0 0 0 0 0 0 0 0 0 0 0 0 0 0 0 0 0 0 0 0 0 0 0 0 0 0 0 0 0 0 0 0 0 0 0 0 0 0 0 0 0 0 0 0 0 0 0 0 0 0 0 0 0 0 0 0 0 0 0 0 0 0 0 0 0 0 0 0 0 0 0 0 0 0 0 0 0 0 0 0 0 0 0 0 0 0 0 0 0 0 0 0 0 0 0 0 0 0 0 0 0 0 0 0 0 0 0 0 0 0 0 0 0 0 0 0 0 0 0 0 0 0 0 0 0 0 0 0 0 0 0 0 0 0 0 0 0 0 0 0 0 0 0 0 0 0 0 0 0 0 0 0 0 0 0 0 0 0 0 0 0 0 0 0 0 0 0 0 0 0 0 0 0 0 0 0 0 0 0 0 0 0 0 0 0 0 0 0 0 0 0 0 0 0 0 0 0 0 0 0 0 0 0 0 0 0 0 0 0 0 0 0 0 0 0 0 0 0 0 0 0 0 0 0 0 0 0 0 0 0 0 0 0 0 0 0 0 0 0 0 0 0 0 0 0 0 0 0 0 0 0 0 0 0 0 0 0 0 0 0 0 0 0 0 0 0 0 0 0 0 0 0 0 0 0 0 0 0 0 0 0 0 0 0 0 0 0 0 0 0 0 0 0 0 0 0 0 0 0 0 0 0 0 0 0 0 0 0 0 0 0 0 0 0 0 0 0 0 0 0 0 0 0 0 0 0 0 0 0 0 0 0 0 0 0 0 0 0 0 0 0 0 0 0 0 0 0 0 0 0 0 0 0 0 0 0 0 0 0 0 0 0 0 0 0 0 0 0 0 0 0 0 0 0 0 0 0 0 0 0 0 0 0 0 0 0 0 0 0 0 0 0 0 0 0 0 0 0 0 0 0 0 0 0 0 0 0 0 0 0 0 0 0 0 0 0 0 0 0 0 0 0 0 0 0 0 0 0 0 0 0 0 0 0 0 0 0 0 0 0 0 0 0 0 0 0 0 0 0 0 0 0 0 0 0 0 0 0 0 0 0 0 0 0 0 0 0 0 0 0 0 0 0 0 0 0 0 0 0 0 0 0 0 0 0 0 0 0 0 0 0 0 0 0 0 0 0 0 0 0 0 0 0 0 0 0 0 0 0 0 0 0 0 0 0 0 0 0 0 0 0 0 0 0 0 0 0 0 0 0 0 0 0 0 0 0 0 0 0 0 0 0 0 0 0 0 0 0 0 0 0 0 0 0 0 0 0 0 0 0 0 0 0 0 0 0 0 0 0 0 0 0 0 0 0 0 0 0 0 0 0 0 0 0 0 0 0 0 0 0 0 0 0 0 0 0 0 0 0 0 0 0 0 0 0 0 0 0 0 0 0 0 0 0 0 0 0 0 0 0 0 0 0 0 0 0 0 0 0 0 0 0 0 0 0 0 0 0 0 0 0 0 0 0 0 0 0 0 0 0 0 0 0 0 0 0 0 0 0 0 0 0 0 0 0 0 0 0 0 0 0 0 0 0 0 0 0 0 0 0 0 0 0 0 0 0 0 0 0 0 0 0 0 0 0 0 0 0 0 0 0 0 0 0 0 0 0 0 0 0 0 0 0 0 0 0 0 0 0 0 0 0 0 0 0 0 0 0 0 0 0 0 0 0 0 0 0 0 0 0 0 0 0 0 0 0 0 0 
GradVel 1 2975 float
  0.0000000E+00   0.0000000E+00   0.0000000E+00   0.0000000E+00   0.0000000E+00   0.0000000E+00   0.0000000E+00   0.0000000E+00   0.0000000E+00   0.0000000E+00   0.0000000E+00   0.0000000E+00   0.0000000E+00  -2.1017986E-06  -7.6177643E-16  -1.1018408E-05  -7.4177296E-05  -2.0028294E-05  -1.4584765E-04  -4.5880771E-04  -1.6780655E-04  -6.3698087E-04  -1.5288901E-03  -5.9393572E-04  -1.7332253E-03  -3.6371644E-03  -1.3913270E-03  -3.5518035E-03  -6.9057727E-03  -2.5231515E-03  -5.9816092E-03  -1.1107227E-02  -3.8248801E-03  -8.6993258E-03  -1.5697464E-02  -5.0837453E-03  -1.1310048E-02  -2.0043410E-02  -6.1503379E-03  -1.3546441E-02  -2.3754343E-02  -7.0168558E-03  -1.5406416E-02  -2.6886508E-02  -7.8283455E-03  -1.7192680E-02  -3.0008622E-02  -8.8580139E-03  -1.9470446E-02  -3.4110032E-02  -1.0496849E-02  -2.3036487E-02  -4.0511481E-02  -1.3356723E-02  -2.9002279E-02  -5.0867721E-02  -1.8386601E-02  -3.8641803E-02  -6.6687301E-02  -2.6804479E-02  -5.2646704E-02  -8.7943077E-02  -7.1158268E-02  -1.1330153E-01   0.0000000E+00   0.0000000E+00   0.0000000E+00   0.0000000E+00   0.0000000E+00   0.0000000E+00   0.0000000E+00   0.0000000E+00   0.0000000E+00   0.0000000E+00   0.0000000E+00   0.0000000E+00   0.0000000E+00   0.0000000E+00   0.0000000E+00   0.0000000E+00   0.0000000E+00   0.0000000E+00   0.0000000E+00   0.0000000E+00   0.0000000E+00   0.0000000E+00   0.0000000E+00   0.0000000E+00   0.0000000E+00  -3.7529915E-07  -2.3832063E-06  -5.6374206E-06  -8.4390231E-06  -1.0024958E-05  -1.1132469E-05  -1.1981213E-05  -1.8043680E-05  -5.8516605E-05  -1.2457266E-04  -2.0610190E-04  -2.8665087E-04  -3.5269238E-04  -3.9978363E-04  -4.3220649E-04  -2.2168069E-04  -4.6889856E-04  -8.0760580E-04  -1.1987854E-03  -1.5844663E-03  -1.9163890E-03  -2.1750557E-03  -2.3647922E-03  -1.0023320E-03  -1.7999031E-03  -2.8259156E-03  -3.9769220E-03  -5.1027043E-03  -6.0833166E-03  -6.8704137E-03  -7.4695596E-03  -2.8975033E-03  -4.7914702E-03  -7.1553267E-03  -9.7603183E-03  -1.2286499E-02  -1.4488525E-02  -1.6274935E-02  -1.7659171E-02  -6.3741454E-03  -1.0043561E-02  -1.4542749E-02  -1.9436877E-02  -2.4131738E-02  -2.8200226E-02  -3.1507153E-02  -3.4091357E-02  -1.1537806E-02  -1.7626232E-02  -2.4998045E-02  -3.2909028E-02  -4.0382560E-02  -4.6792291E-02  -5.1990230E-02  -5.6066584E-02  -1.7992372E-02  -2.6897274E-02  -3.7522942E-02  -4.8716374E-02  -5.9071742E-02  -6.7854926E-02  -7.4952021E-02  -8.0519423E-02  -2.4890017E-02  -3.6575980E-02  -5.0168369E-02  -3.1284817E-02  -4.5296453E-02  -3.6683738E-02  -5.2534305E-02  -4.1306909E-02  -5.8859743E-02  -4.6083424E-02  -6.5552562E-02  -5.2502405E-02  -7.4530587E-02  -6.2424608E-02  -8.8040866E-02  -7.8001082E-02  -1.0844938E-01  -1.0100259E-01  -1.3753270E-01  -1.3105953E-01  -1.7487806E-01  -1.6556156E-01  -2.1758726E-01   0.0000000E+00   0.0000000E+00   0.0000000E+00   0.0000000E+00   0.0000000E+00   0.0000000E+00   0.0000000E+00   0.0000000E+00   0.0000000E+00   0.0000000E+00   0.0000000E+00   0.0000000E+00   0.0000000E+00   0.0000000E+00   0.0000000E+00   0.0000000E+00   0.0000000E+00   0.0000000E+00   0.0000000E+00   0.0000000E+00   0.0000000E+00   0.0000000E+00   0.0000000E+00   0.0000000E+00   0.0000000E+00   0.0000000E+00   0.0000000E+00  -1.2596263E-05  -1.3016923E-05  -1.3285420E-05  -1.3441633E-05  -1.3520822E-05  -1.3551287E-05  -1.3554481E-05  -1.3546207E-05  -1.3537171E-05  -4.5587428E-04  -4.7262132E-04  -4.8378081E-04  -4.9070385E-04  -4.9461046E-04  -4.9652182E-04  -4.9724343E-04  -4.9736281E-04  -4.9728033E-04  -2.5003420E-03  -2.5968414E-03  -2.6627854E-03  -2.7051007E-03  -2.7302518E-03  -2.7437559E-03  -2.7500044E-03  -2.7522661E-03  -2.7527674E-03  -7.9096686E-03  -8.2243551E-03  -8.4423721E-03  -8.5854400E-03  -8.6732376E-03  -8.7228371E-03  -8.7479800E-03  -8.7589622E-03  -8.7628365E-03  -1.8696317E-02  -1.9448830E-02  -1.9975029E-02  -2.0325331E-02  -2.0544685E-02  -2.0672385E-02  -2.0740330E-02  -2.0772543E-02  -2.0785492E-02  -3.6051199E-02  -3.7490565E-02  -3.8506266E-02  -3.9188754E-02  -3.9621495E-02  -3.9878163E-02  -4.0018588E-02  -4.0088065E-02  -4.0117718E-02  -5.9180051E-02  -6.1486121E-02  -6.3124552E-02  -6.4232342E-02  -6.4939968E-02  -6.5364376E-02  -6.5600492E-02  -6.5720230E-02  -6.5773010E-02  -8.4784381E-02  -8.7958612E-02  -9.0223163E-02  -9.1758564E-02  -9.2743047E-02  -9.3337163E-02  -9.3670994E-02  -9.3842767E-02  -9.3919776E-02   0.0000000E+00   0.0000000E+00   0.0000000E+00   0.0000000E+00   0.0000000E+00   0.0000000E+00   0.0000000E+00   0.0000000E+00   0.0000000E+00   0.0000000E+00   0.0000000E+00   0.0000000E+00   0.0000000E+00   0.0000000E+00   0.0000000E+00   0.0000000E+00   0.0000000E+00   0.0000000E+00   0.0000000E+00   0.0000000E+00   0.0000000E+00   0.0000000E+00   0.0000000E+00   0.0000000E+00  -1.3533471E-05  -1.3537173E-05  -1.3546203E-05  -1.3554479E-05  -1.3551289E-05  -1.3520826E-05  -1.3441639E-05  -1.3285421E-05  -4.9722771E-04  -4.9728050E-04  -4.9736275E-04  -4.9724343E-04  -4.9652177E-04  -4.9461034E-04  -4.9070385E-04  -4.8378095E-04  -2.7527923E-03  -2.7527669E-03  -2.7522666E-03  -2.7500049E-03  -2.7437557E-03  -2.7302520E-03  -2.7051002E-03  -2.6627863E-03  -8.7636821E-03  -8.7628355E-03  -8.7589622E-03  -8.7479791E-03  -8.7228371E-03  -8.6732386E-03  -8.5854409E-03  -8.4423721E-03  -2.0788766E-02  -2.0785488E-02  -2.0772547E-02  -2.0740326E-02  -2.0672383E-02  -2.0544684E-02  -2.0325327E-02  -1.9975021E-02  -4.0125672E-02  -4.0117729E-02  -4.0088091E-02  -4.0018607E-02  -3.9878171E-02  -3.9621517E-02  -3.9188746E-02  -3.8506277E-02  -6.5787457E-02  -6.5773010E-02  -6.5720230E-02  -6.5600485E-02  -6.5364376E-02  -6.4939961E-02  -6.4232334E-02  -6.3124567E-02  -9.3941249E-02  -9.3919791E-02  -9.3842760E-02  -9.3671016E-02  -9.3337148E-02  -9.2743054E-02  -9.1758557E-02  -9.0223201E-02   0.0000000E+00   0.0000000E+00   0.0000000E+00   0.0000000E+00   0.0000000E+00   0.0000000E+00   0.0000000E+00   0.0000000E+00   0.0000000E+00   0.0000000E+00   0.0000000E+00   0.0000000E+00   0.0000000E+00   0.0000000E+00   0.0000000E+00   0.0000000E+00   0.0000000E+00   0.0000000E+00   0.0000000E+00   0.0000000E+00   0.0000000E+00   0.0000000E+00   0.0000000E+00   0.0000000E+00   0.0000000E+00   0.0000000E+00   0.0000000E+00  -1.3016923E-05  -1.2596261E-05  -1.1981218E-05  -1.1132463E-05  -1.0024958E-05  -8.4390222E-06  -5.6374247E-06  -2.3832074E-06  -3.7529921E-07  -4.7262132E-04  -4.5587440E-04  -4.3220638E-04  -3.9978357E-04  -3.5269230E-04  -2.8665081E-04  -2.0610195E-04  -1.2457269E-04  -5.8516605E-05  -2.5968419E-03  -2.5003427E-03  -2.3647931E-03  -2.1750554E-03  -1.9163887E-03  -1.5844662E-03  -1.1987851E-03  -8.0760592E-04  -4.6889877E-04  -8.2243579E-03  -7.9096677E-03  -7.4695582E-03  -6.8704127E-03  -6.0833171E-03  -5.1027038E-03  -3.9769234E-03  -2.8259153E-03  -1.7999037E-03  -1.9448822E-02  -1.8696317E-02  -1.7659167E-02  -1.6274927E-02  -1.4488525E-02  -1.2286498E-02  -9.7603193E-03  -7.1553253E-03  -4.7914707E-03  -3.7490580E-02  -3.6051195E-02  -3.4091342E-02  -3.1507146E-02  -2.8200215E-02  -2.4131740E-02  -1.9436877E-02  -1.4542755E-02  -1.0043563E-02  -6.1486114E-02  -5.9180047E-02  -5.6066588E-02  -5.1990226E-02  -4.6792280E-02  -4.0382545E-02  -3.2909028E-02  -2.4998046E-02  -1.7626233E-02  -8.7958612E-02  -8.4784411E-02  -8.0519423E-02  -7.4952006E-02  -6.7854911E-02  -5.9071746E-02  -4.8716374E-02  -3.7522942E-02  -2.6897281E-02  -5.0168354E-02  -3.6575973E-02  -4.5296460E-02  -5.2534312E-02  -5.8859754E-02  -6.5552570E-02  -7.4530616E-02  -8.8040881E-02  -1.0844937E-01  -1.3753273E-01  -1.7487806E-01  -2.1758734E-01   0.0000000E+00   0.0000000E+00   0.0000000E+00   0.0000000E+00   0.0000000E+00   0.0000000E+00   0.0000000E+00   0.0000000E+00   0.0000000E+00   0.0000000E+00   0.0000000E+00   0.0000000E+00   0.0000000E+00   0.0000000E+00   0.0000000E+00  -1.8043680E-05  -2.1017986E-06   0.0000000E+00   0.0000000E+00  -2.2168073E-04  -7.4177311E-05  -1.1018409E-05  -7.6177665E-16  -1.0023323E-03  -4.5880786E-04  -1.4584762E-04  -2.0028299E-05  -2.8975036E-03  -1.5288900E-03  -6.3698081E-04  -1.6780655E-04  -6.3741459E-03  -3.6371651E-03  -1.7332250E-03  -5.9393561E-04  -1.1537807E-02  -6.9057737E-03  -3.5518035E-03  -1.3913271E-03  -1.7992374E-02  -1.1107229E-02  -5.9816111E-03  -2.5231512E-03  -2.4890015E-02  -1.5697461E-02  -8.6993258E-03  -3.8248801E-03  -3.1284824E-02  -2.0043405E-02  -1.1310047E-02  -5.0837453E-03  -3.6683731E-02  -2.3754342E-02  -1.3546439E-02  -6.1503379E-03  -4.1306905E-02  -2.6886508E-02  -1.5406415E-02  -7.0168553E-03  -4.6083435E-02  -3.0008620E-02  -1.7192684E-02  -7.8283455E-03  -5.2502416E-02  -3.4110032E-02  -1.9470453E-02  -8.8580158E-03  -6.2424600E-02  -4.0511485E-02  -2.3036487E-02  -1.0496852E-02  -7.8001082E-02  -5.0867725E-02  -2.9002279E-02  -1.3356725E-02  -1.0100259E-01  -6.6687301E-02  -3.8641803E-02  -1.8386602E-02  -1.3105951E-01  -8.7943077E-02  -5.2646704E-02  -2.6804481E-02  -1.6556156E-01  -1.1330155E-01  -7.1158260E-02   0.0000000E+00   0.0000000E+00   0.0000000E+00   0.0000000E+00   0.0000000E+00   0.0000000E+00   0.0000000E+00   0.0000000E+00   0.0000000E+00   0.0000000E+00   0.0000000E+00   0.0000000E+00   0.0000000E+00   0.0000000E+00   0.0000000E+00   0.0000000E+00   0.0000000E+00   0.0000000E+00   0.0000000E+00   0.0000000E+00   0.0000000E+00   0.0000000E+00   0.0000000E+00   0.0000000E+00   0.0000000E+00   0.0000000E+00   0.0000000E+00   0.0000000E+00   0.0000000E+00   0.0000000E+00   0.0000000E+00   0.0000000E+00   0.0000000E+00   0.0000000E+00   0.0000000E+00   0.0000000E+00   0.0000000E+00   0.0000000E+00   0.0000000E+00   0.0000000E+00   0.0000000E+00   0.0000000E+00   0.0000000E+00   0.0000000E+00   0.0000000E+00   0.0000000E+00   0.0000000E+00   0.0000000E+00   0.0000000E+00   0.0000000E+00   0.0000000E+00   0.0000000E+00   0.0000000E+00   0.0000000E+00   0.0000000E+00   0.0000000E+00   0.0000000E+00   0.0000000E+00   0.0000000E+00   0.0000000E+00   0.0000000E+00   0.0000000E+00   0.0000000E+00   0.0000000E+00   0.0000000E+00   0.0000000E+00   0.0000000E+00   0.0000000E+00   0.0000000E+00   0.0000000E+00   0.0000000E+00   0.0000000E+00   0.0000000E+00   0.0000000E+00   0.0000000E+00   0.0000000E+00   0.0000000E+00   0.0000000E+00   0.0000000E+00   0.0000000E+00   0.0000000E+00   0.0000000E+00   0.0000000E+00   0.0000000E+00   0.0000000E+00   0.0000000E+00   0.0000000E+00   0.0000000E+00   0.0000000E+00   0.0000000E+00   0.0000000E+00   0.0000000E+00   0.0000000E+00   0.0000000E+00   0.0000000E+00   0.0000000E+00   0.0000000E+00   0.0000000E+00   0.0000000E+00   0.0000000E+00   0.0000000E+00   0.0000000E+00   0.0000000E+00   0.0000000E+00   0.0000000E+00   0.0000000E+00   0.0000000E+00   0.0000000E+00   0.0000000E+00   0.0000000E+00   0.0000000E+00   0.0000000E+00   0.0000000E+00   0.0000000E+00   0.0000000E+00   0.0000000E+00   0.0000000E+00   0.0000000E+00   0.0000000E+00   0.0000000E+00   0.0000000E+00   0.0000000E+00   0.0000000E+00   0.0000000E+00   0.0000000E+00   0.0000000E+00   0.0000000E+00   0.0000000E+00   0.0000000E+00   0.0000000E+00   0.0000000E+00   0.0000000E+00   0.0000000E+00   0.0000000E+00   0.0000000E+00   0.0000000E+00   0.0000000E+00   0.0000000E+00   0.0000000E+00   0.0000000E+00   0.0000000E+00   0.0000000E+00   0.0000000E+00   0.0000000E+00   0.0000000E+00   0.0000000E+00   0.0000000E+00   0.0000000E+00   0.0000000E+00   0.0000000E+00   0.0000000E+00   0.0000000E+00   0.0000000E+00   0.0000000E+00   0.0000000E+00   0.0000000E+00   0.0000000E+00   0.0000000E+00   0.0000000E+00   0.0000000E+00   0.0000000E+00   0.0000000E+00   0.0000000E+00   0.0000000E+00   0.0000000E+00   0.0000000E+00   0.0000000E+00   0.0000000E+00   0.0000000E+00   0.0000000E+00   0.0000000E+00   0.0000000E+00   0.0000000E+00   0.0000000E+00   0.0000000E+00   0.0000000E+00   0.0000000E+00   0.0000000E+00   0.0000000E+00   0.0000000E+00   0.0000000E+00   0.0000000E+00   0.0000000E+00   0.0000000E+00   0.0000000E+00   0.0000000E+00   0.0000000E+00   0.0000000E+00   0.0000000E+00   0.0000000E+00   0.0000000E+00   0.0000000E+00   0.0000000E+00   0.0000000E+00   0.0000000E+00   0.0000000E+00   0.0000000E+00   0.0000000E+00   0.0000000E+00   0.0000000E+00   0.0000000E+00   0.0000000E+00   0.0000000E+00   0.0000000E+00   0.0000000E+00   0.0000000E+00   0.0000000E+00   0.0000000E+00   0.0000000E+00   0.0000000E+00   0.0000000E+00   0.0000000E+00   0.0000000E+00   0.0000000E+00   0.0000000E+00   0.0000000E+00   0.0000000E+00   0.0000000E+00   0.0000000E+00   0.0000000E+00   0.0000000E+00   0.0000000E+00   0.0000000E+00   0.0000000E+00   0.0000000E+00   0.0000000E+00   0.0000000E+00   0.0000000E+00   0.0000000E+00   0.0000000E+00   0.0000000E+00   0.0000000E+00   0.0000000E+00   0.0000000E+00   0.0000000E+00   0.0000000E+00   0.0000000E+00   0.0000000E+00   0.0000000E+00   0.0000000E+00   0.0000000E+00   0.0000000E+00   0.0000000E+00   0.0000000E+00   0.0000000E+00   0.0000000E+00   0.0000000E+00   0.0000000E+00   0.0000000E+00   0.0000000E+00   0.0000000E+00   0.0000000E+00   0.0000000E+00   0.0000000E+00   0.0000000E+00   0.0000000E+00   0.0000000E+00   0.0000000E+00   0.0000000E+00   0.0000000E+00   0.0000000E+00   0.0000000E+00   0.0000000E+00   0.0000000E+00   0.0000000E+00   0.0000000E+00   0.0000000E+00   0.0000000E+00   0.0000000E+00   0.0000000E+00   0.0000000E+00   0.0000000E+00   0.0000000E+00   0.0000000E+00   0.0000000E+00   0.0000000E+00   0.0000000E+00   0.0000000E+00   0.0000000E+00   0.0000000E+00   0.0000000E+00   0.0000000E+00   0.0000000E+00   0.0000000E+00   0.0000000E+00   0.0000000E+00   0.0000000E+00   0.0000000E+00   0.0000000E+00   0.0000000E+00   0.0000000E+00   0.0000000E+00   0.0000000E+00   0.0000000E+00   0.0000000E+00   0.0000000E+00   0.0000000E+00   0.0000000E+00   0.0000000E+00   0.0000000E+00   0.0000000E+00   0.0000000E+00   0.0000000E+00   0.0000000E+00   0.0000000E+00   0.0000000E+00   0.0000000E+00   0.0000000E+00   0.0000000E+00   0.0000000E+00   0.0000000E+00   0.0000000E+00   0.0000000E+00   0.0000000E+00   0.0000000E+00   0.0000000E+00   0.0000000E+00   0.0000000E+00   0.0000000E+00   0.0000000E+00   0.0000000E+00   0.0000000E+00   0.0000000E+00   0.0000000E+00   0.0000000E+00   0.0000000E+00   0.0000000E+00   0.0000000E+00   0.0000000E+00   0.0000000E+00   0.0000000E+00   0.0000000E+00   0.0000000E+00   0.0000000E+00   0.0000000E+00   0.0000000E+00   0.0000000E+00   0.0000000E+00   0.0000000E+00   0.0000000E+00   0.0000000E+00   0.0000000E+00   0.0000000E+00   0.0000000E+00   0.0000000E+00   0.0000000E+00   0.0000000E+00   0.0000000E+00   0.0000000E+00   0.0000000E+00   0.0000000E+00   0.0000000E+00   0.0000000E+00   0.0000000E+00   0.0000000E+00   0.0000000E+00   0.0000000E+00   0.0000000E+00   0.0000000E+00   0.0000000E+00   0.0000000E+00   0.0000000E+00   0.0000000E+00   0.0000000E+00   0.0000000E+00   0.0000000E+00   0.0000000E+00   0.0000000E+00   0.0000000E+00   0.0000000E+00   0.0000000E+00   0.0000000E+00   0.0000000E+00   0.0000000E+00   0.0000000E+00   0.0000000E+00   0.0000000E+00   0.0000000E+00   0.0000000E+00   0.0000000E+00   0.0000000E+00   0.0000000E+00   0.0000000E+00   0.0000000E+00   0.0000000E+00   0.0000000E+00   0.0000000E+00   0.0000000E+00   0.0000000E+00   0.0000000E+00   0.0000000E+00   0.0000000E+00   0.0000000E+00   0.0000000E+00   0.0000000E+00   0.0000000E+00   0.0000000E+00   0.0000000E+00   0.0000000E+00   0.0000000E+00   0.0000000E+00   0.0000000E+00   0.0000000E+00   0.0000000E+00   0.0000000E+00   0.0000000E+00   0.0000000E+00   0.0000000E+00   0.0000000E+00   0.0000000E+00   0.0000000E+00   0.0000000E+00   0.0000000E+00   0.0000000E+00   0.0000000E+00   0.0000000E+00   0.0000000E+00   0.0000000E+00   0.0000000E+00   0.0000000E+00   0.0000000E+00   0.0000000E+00   0.0000000E+00   0.0000000E+00   0.0000000E+00   0.0000000E+00   0.0000000E+00   0.0000000E+00   0.0000000E+00   0.0000000E+00   0.0000000E+00   0.0000000E+00   0.0000000E+00   0.0000000E+00   0.0000000E+00   0.0000000E+00   0.0000000E+00   0.0000000E+00   0.0000000E+00   0.0000000E+00   0.0000000E+00   0.0000000E+00   0.0000000E+00   0.0000000E+00   0.0000000E+00   0.0000000E+00   0.0000000E+00   0.0000000E+00   0.0000000E+00   0.0000000E+00   0.0000000E+00   0.0000000E+00   0.0000000E+00   0.0000000E+00   0.0000000E+00   0.0000000E+00   0.0000000E+00   0.0000000E+00   0.0000000E+00   0.0000000E+00   0.0000000E+00   0.0000000E+00   0.0000000E+00   0.0000000E+00   0.0000000E+00   0.0000000E+00   0.0000000E+00   0.0000000E+00   0.0000000E+00   0.0000000E+00   0.0000000E+00   0.0000000E+00  -6.3905373E-02  -7.6578319E-02  -8.7185323E-02  -9.5707700E-02  -1.0236499E-01  -6.0383238E-02  -7.6652341E-02  -9.0883873E-02  -1.0265329E-01  -1.1198528E-01  -1.1918307E-01  -6.9341242E-02  -8.7259024E-02  -1.0278079E-01  -1.1538125E-01  -1.2515114E-01  -1.3251190E-01  -7.7442206E-02  -9.7021975E-02  -1.1381970E-01  -1.2719244E-01  -1.3727723E-01  -1.4462899E-01  -8.6304404E-02  -1.0762382E-01  -1.2570629E-01  -1.3987389E-01  -1.5029082E-01  -1.5759131E-01  -9.8903783E-02  -1.2172838E-01  -1.4057223E-01  -1.5508649E-01  -1.6561444E-01  -1.7280054E-01  -1.1955447E-01  -1.4308685E-01  -1.6104394E-01  -1.7447309E-01  -1.8419495E-01  -1.9084625E-01  -1.5352298E-01  -1.7579648E-01  -1.8963683E-01  -1.9926916E-01  -2.0643896E-01  -2.1164784E-01  -2.0567776E-01  -2.2249538E-01  -2.2735214E-01  -2.2960539E-01  -2.3203252E-01  -2.3467107E-01  -2.7779323E-01  -2.8131253E-01  -2.7197680E-01  -2.6379919E-01  -2.5986576E-01  -2.5917679E-01  -3.6214346E-01  -3.4367993E-01  -3.1748581E-01  -2.9816929E-01  -2.8795609E-01  -2.8411934E-01  -4.2401177E-01  -3.9418313E-01  -3.5580322E-01  -3.2846403E-01  -3.1411695E-01  -3.0839041E-01  -4.1755325E-01  -4.0796208E-01  -3.7844861E-01  -3.5161325E-01  -3.3710417E-01  -3.3144653E-01  -3.9547169E-01  -3.9706877E-01  -3.8528350E-01  -3.6789975E-01  -3.5740769E-01  -3.5366422E-01  -3.8758454E-01  -3.8989264E-01  -3.8850689E-01  -3.8174048E-01  -3.7711191E-01  -3.7609607E-01  -3.9394993E-01  -3.9463547E-01  -3.9761978E-01  -3.9824760E-01  -3.9853179E-01  -3.9994371E-01  -4.0972212E-01  -4.1050345E-01  -4.1541529E-01  -4.1971806E-01  -4.2293876E-01  -4.2601237E-01  -4.3308094E-01  -4.3444163E-01  -4.4002825E-01  -4.4574934E-01  -4.5051372E-01  -4.5473301E-01  -4.6042597E-01  -4.6276036E-01  -4.6882659E-01  -4.7528058E-01  -4.8109114E-01  -4.8631427E-01  -4.8986864E-01  -4.9335498E-01  -5.0046420E-01  -5.0773686E-01  -5.1454383E-01  -5.2070409E-01  -5.2171546E-01  -5.2625787E-01  -5.3460658E-01  -5.4281527E-01  -5.5061525E-01  -5.5768716E-01  -5.5654651E-01  -5.6160522E-01  -5.7106054E-01  -5.8027625E-01  -5.8907837E-01  -5.9703350E-01  -5.9453219E-01  -5.9951586E-01  -6.0976297E-01  -6.2001586E-01  -6.2975550E-01  -6.3847989E-01  -6.3545573E-01  -6.3983351E-01  -6.5058917E-01  -6.6178787E-01  -6.7217904E-01  -6.8139660E-01  -6.7828768E-01  -6.8161488E-01  -6.9274032E-01  -7.0446599E-01  -7.1485776E-01  -7.2407651E-01  -7.2007936E-01  -7.2222978E-01  -7.3366863E-01  -7.4489933E-01  -7.5426525E-01  -7.6281542E-01  -7.5474918E-01  -7.5613248E-01  -7.6774931E-01  -7.7678996E-01  -7.8384995E-01  -7.9109526E-01  -7.7249086E-01  -7.7394944E-01  -7.8534693E-01  -7.8987688E-01  -7.9359162E-01  -7.9924423E-01  -7.5843245E-01  -7.6134813E-01  -7.7185267E-01  -7.6986653E-01  -7.7008134E-01  -7.7471042E-01  -6.8952620E-01  -6.9639367E-01  -7.0570773E-01  -6.9744164E-01  -6.9603050E-01  -7.0172441E-01  -5.3099668E-01  -5.4568100E-01  -5.5504167E-01  -5.4604614E-01  -5.4736090E-01  -5.5729818E-01  -2.4052612E-01  -2.6846656E-01  -2.8414071E-01  -2.8435156E-01  -2.9167330E-01  -3.0849022E-01   2.1807294E-01   1.6764192E-01   1.3983609E-01   1.1775303E-01   9.9987388E-02   7.7287748E-02   8.2165909E-01   7.5597525E-01   7.1706367E-01   6.7143023E-01   6.3658261E-01   6.1181122E-01   1.4818205E+00   1.4058663E+00   1.3710607E+00   1.3251100E+00   1.2831116E+00   1.2646848E+00   2.0579350E+00   1.9978901E+00   1.9892682E+00   1.9774272E+00   1.9555764E+00   1.9542300E+00   2.4404848E+00   2.4090779E+00   2.4450488E+00   2.4918072E+00   2.5191207E+00   2.5564921E+00   2.5786755E+00   2.5556815E+00   2.6496277E+00   2.7521052E+00   2.8451862E+00   2.9383559E+00   2.5504031E+00   2.4977827E+00   2.6513731E+00   2.7941692E+00   2.9392626E+00   3.0752311E+00   2.4571552E+00   2.3808117E+00   2.5798018E+00   2.7283726E+00   2.8973477E+00   3.0546968E+00   2.3802392E+00   2.2938180E+00   2.5109253E+00   2.6599259E+00   2.8277316E+00   2.9849110E+00   2.3598628E+00   2.2688723E+00   2.4809847E+00   2.6337106E+00   2.7867498E+00   2.9273140E+00   2.3720887E+00   2.2785697E+00   2.4732506E+00   2.6245949E+00   2.7612970E+00   2.8796828E+00   2.3614786E+00   2.2688606E+00   2.4431806E+00   2.5818684E+00   2.7001829E+00   2.7965524E+00   2.2858500E+00   2.1952193E+00   2.3418958E+00   2.4572983E+00   2.5531228E+00   2.6271369E+00   2.1367655E+00   2.0461142E+00   2.1497443E+00   2.2319264E+00   2.2998302E+00   2.3486271E+00   1.9260502E+00   1.8327141E+00   1.8862084E+00   1.9266641E+00   1.9589423E+00   1.9801959E+00   1.6845827E+00   1.5926654E+00   1.5944794E+00   1.5828643E+00   1.5814615E+00   1.5743979E+00   1.4491311E+00   1.3599902E+00   1.3093674E+00   1.2552969E+00   1.2227435E+00   1.1881235E+00   1.2384095E+00   1.1433301E+00   1.0535414E+00   9.7857910E-01   9.1632777E-01   8.6095732E-01   1.0489312E+00   9.4795418E-01   8.4134853E-01   7.5478637E-01   6.7200601E-01   6.0738003E-01   8.7692225E-01   7.6589650E-01   6.7112672E-01   5.7402414E-01   4.8534375E-01   4.2167163E-01   7.2095001E-01   6.1248201E-01   5.2321577E-01   4.2463207E-01   3.4319702E-01   2.8738654E-01   6.0065353E-01   4.8979571E-01   3.8574660E-01   2.9908603E-01   2.3323476E-01   1.8874416E-01   4.8339796E-01   3.6884621E-01   2.5525522E-01   1.8970689E-01   1.4599065E-01   1.1371453E-01   2.6887989E-01   1.4692082E-01   9.3893886E-02   7.3832020E-02   5.5740297E-02   1.9396329E-01   7.7579483E-02   1.6589336E-02   1.3714299E-02   1.0111034E-02   5.5585895E-02  -2.8035849E-02  -3.6585763E-02  -2.5732577E-02   6.0476493E-02  -2.6074551E-02  -7.0358530E-02  -5.3760216E-02   2.1591917E-02  -5.7535633E-02  -6.5656960E-02   4.4377893E-03  -3.0593634E-02  -5.6728497E-03   3.8323879E-02  -1.0745614E-01  -1.1124866E-01  -1.1395640E-01  -1.1579077E-01  -1.1696770E-01  -1.1767995E-01  -1.1808225E-01  -1.1829074E-01  -1.1838527E-01  -1.2463439E-01  -1.2866937E-01  -1.3153136E-01  -1.3345365E-01  -1.3467877E-01  -1.3541573E-01  -1.3582908E-01  -1.3604167E-01  -1.3613695E-01  -1.3796650E-01  -1.4192568E-01  -1.4467469E-01  -1.4647622E-01  -1.4759791E-01  -1.4825442E-01  -1.4860937E-01  -1.4878239E-01  -1.4885503E-01  -1.4988595E-01  -1.5355754E-01  -1.5599081E-01  -1.5750134E-01  -1.5838814E-01  -1.5886752E-01  -1.5909578E-01  -1.5918460E-01  -1.5920916E-01  -1.6255866E-01  -1.6581684E-01  -1.6779627E-01  -1.6889331E-01  -1.6944367E-01  -1.6966641E-01  -1.6970927E-01  -1.6967398E-01  -1.6962734E-01  -1.7740808E-01  -1.8015862E-01  -1.8159090E-01  -1.8218961E-01  -1.8232906E-01  -1.8223478E-01  -1.8204692E-01  -1.8185586E-01  -1.8171935E-01  -1.9494246E-01  -1.9708076E-01  -1.9789158E-01  -1.9792864E-01  -1.9760445E-01  -1.9715199E-01  -1.9670297E-01  -1.9633563E-01  -1.9609722E-01  -2.1487994E-01  -2.1629675E-01  -2.1641679E-01  -2.1584553E-01  -2.1502627E-01  -2.1419565E-01  -2.1347368E-01  -2.1292326E-01  -2.1257976E-01  -2.3659234E-01  -2.3717637E-01  -2.3657268E-01  -2.3538049E-01  -2.3406777E-01  -2.3286760E-01  -2.3188365E-01  -2.3115997E-01  -2.3071799E-01  -2.5950819E-01  -2.5923666E-01  -2.5796849E-01  -2.5621328E-01  -2.5445983E-01  -2.5293738E-01  -2.5172967E-01  -2.5086066E-01  -2.5033727E-01  -2.8302425E-01  -2.8206924E-01  -2.8031749E-01  -2.7815163E-01  -2.7607629E-01  -2.7432162E-01  -2.7295703E-01  -2.7198881E-01  -2.7141047E-01  -3.0653867E-01  -3.0528146E-01  -3.0334079E-01  -3.0100596E-01  -2.9878974E-01  -2.9693374E-01  -2.9550302E-01  -2.9449514E-01  -2.9389650E-01  -3.2976779E-01  -3.2868633E-01  -3.2690600E-01  -3.2469240E-01  -3.2255548E-01  -3.2075304E-01  -3.1936213E-01  -3.1838381E-01  -3.1780320E-01  -3.5292321E-01  -3.5241282E-01  -3.5111159E-01  -3.4929591E-01  -3.4745413E-01  -3.4586230E-01  -3.4461835E-01  -3.4373778E-01  -3.4321392E-01  -3.7662476E-01  -3.7689382E-01  -3.7629071E-01  -3.7507358E-01  -3.7369809E-01  -3.7244824E-01  -3.7144452E-01  -3.7072343E-01  -3.7029055E-01  -4.0164989E-01  -4.0275267E-01  -4.0293488E-01  -4.0241364E-01  -4.0160257E-01  -4.0078083E-01  -4.0008545E-01  -3.9956954E-01  -3.9925373E-01  -4.2870075E-01  -4.3061930E-01  -4.3156511E-01  -4.3174383E-01  -4.3152481E-01  -4.3117034E-01  -4.3082023E-01  -4.3053880E-01  -4.3035781E-01  -4.5830885E-01  -4.6096587E-01  -4.6259829E-01  -4.6342972E-01  -4.6378890E-01  -4.6390969E-01  -4.6392176E-01  -4.6389085E-01  -4.6385604E-01  -4.9070770E-01  -4.9402466E-01  -4.9627045E-01  -4.9770409E-01  -4.9862012E-01  -4.9921608E-01  -4.9960226E-01  -4.9983612E-01  -4.9995786E-01  -5.2586490E-01  -5.2980036E-01  -5.3262430E-01  -5.3463864E-01  -5.3610694E-01  -5.3719032E-01  -5.3796804E-01  -5.3848279E-01  -5.3877151E-01  -5.6359440E-01  -5.6814682E-01  -5.7155311E-01  -5.7415491E-01  -5.7619274E-01  -5.7778579E-01  -5.7897729E-01  -5.7979083E-01  -5.8025658E-01  -6.0366225E-01  -6.0882920E-01  -6.1282259E-01  -6.1601913E-01  -6.1864060E-01  -6.2076360E-01  -6.2239105E-01  -6.2352121E-01  -6.2417632E-01  -6.4573842E-01  -6.5145415E-01  -6.5598083E-01  -6.5973389E-01  -6.6292149E-01  -6.6557992E-01  -6.6765970E-01  -6.6912466E-01  -6.6998267E-01  -6.8905365E-01  -6.9512749E-01  -7.0002729E-01  -7.0421696E-01  -7.0790744E-01  -7.1108377E-01  -7.1363080E-01  -7.1545750E-01  -7.1654046E-01  -7.3172879E-01  -7.3781240E-01  -7.4279273E-01  -7.4721032E-01  -7.5129277E-01  -7.5496268E-01  -7.5800359E-01  -7.6023751E-01  -7.6158369E-01  -7.6992893E-01  -7.7554649E-01  -7.8020763E-01  -7.8457499E-01  -7.8891283E-01  -7.9305786E-01  -7.9664874E-01  -7.9937065E-01  -8.0104417E-01  -7.9719460E-01  -8.0189294E-01  -8.0583286E-01  -8.0986428E-01  -8.1432790E-01  -8.1895638E-01  -8.2319039E-01  -8.2651508E-01  -8.2860935E-01  -8.0423224E-01  -8.0788672E-01  -8.1095743E-01  -8.1453812E-01  -8.1909633E-01  -8.2428056E-01  -8.2929724E-01  -8.3337969E-01  -8.3600885E-01  -7.7921659E-01  -7.8242773E-01  -7.8516114E-01  -7.8870529E-01  -7.9367530E-01  -7.9969406E-01  -8.0575502E-01  -8.1082201E-01  -8.1414187E-01  -7.0746100E-01  -7.1180767E-01  -7.1577102E-01  -7.2068453E-01  -7.2715580E-01  -7.3479772E-01  -7.4247032E-01  -7.4891293E-01  -7.5315833E-01  -5.6714618E-01  -5.7516110E-01  -5.8278447E-01  -5.9140444E-01  -6.0137302E-01  -6.1212331E-01  -6.2242520E-01  -6.3089192E-01  -6.3641846E-01  -3.2513320E-01  -3.3946320E-01  -3.5324967E-01  -3.6804754E-01  -3.8380468E-01  -3.9950401E-01  -4.1372025E-01  -4.2501205E-01  -4.3224198E-01   5.4258808E-02   3.3150434E-02   1.2273222E-02  -9.9430084E-03  -3.2882124E-02  -5.4794058E-02  -7.3842496E-02  -8.8501006E-02  -9.7691059E-02   5.8829230E-01   5.6486058E-01   5.3976035E-01   5.1185071E-01   4.8267102E-01   4.5507255E-01   4.3158665E-01   4.1393059E-01   4.0307188E-01   1.2521724E+00   1.2367835E+00   1.2153963E+00   1.1876564E+00   1.1566242E+00   1.1266491E+00   1.1012554E+00   1.0824785E+00   1.0711370E+00   1.9653740E+00   1.9716760E+00   1.9655627E+00   1.9472260E+00   1.9218086E+00   1.8954446E+00   1.8728218E+00   1.8563552E+00   1.8466549E+00   2.6019151E+00   2.6407228E+00   2.6606410E+00   2.6613369E+00   2.6498959E+00   2.6341898E+00   2.6199801E+00   2.6099834E+00   2.6044865E+00   3.0287039E+00   3.1038063E+00   3.1524844E+00   3.1760459E+00   3.1830397E+00   3.1824152E+00   3.1804247E+00   3.1796887E+00   3.1800628E+00   3.2000890E+00   3.3017015E+00   3.3718903E+00   3.4139242E+00   3.4372687E+00   3.4511707E+00   3.4615541E+00   3.4704025E+00   3.4768739E+00   3.1953988E+00   3.3075492E+00   3.3865569E+00   3.4373574E+00   3.4698687E+00   3.4931135E+00   3.5122125E+00   3.5281591E+00   3.5392480E+00   3.1225398E+00   3.2295694E+00   3.3039923E+00   3.3521004E+00   3.3841350E+00   3.4087908E+00   3.4303808E+00   3.4489050E+00   3.4618428E+00   3.0491385E+00   3.1401870E+00   3.1999755E+00   3.2358642E+00   3.2585101E+00   3.2765372E+00   3.2938442E+00   3.3098049E+00   3.3213902E+00   2.9802642E+00   3.0506456E+00   3.0909319E+00   3.1091475E+00   3.1164718E+00   3.1218829E+00   3.1294475E+00   3.1385140E+00   3.1459899E+00   2.8751793E+00   2.9248383E+00   2.9452238E+00   2.9444687E+00   2.9342270E+00   2.9241209E+00   2.9189041E+00   2.9184976E+00   2.9201667E+00   2.6842108E+00   2.7147198E+00   2.7171559E+00   2.6990287E+00   2.6720858E+00   2.6465838E+00   2.6282098E+00   2.6177897E+00   2.6132195E+00   2.3835659E+00   2.3962436E+00   2.3834136E+00   2.3511186E+00   2.3105707E+00   2.2722955E+00   2.2427709E+00   2.2237070E+00   2.2136943E+00   1.9925845E+00   1.9890997E+00   1.9644457E+00   1.9225250E+00   1.8732905E+00   1.8269444E+00   1.7902794E+00   1.7655964E+00   1.7520001E+00   1.5655692E+00   1.5488453E+00   1.5166852E+00   1.4704808E+00   1.4183819E+00   1.3696482E+00   1.3308384E+00   1.3043840E+00   1.2896159E+00   1.1623160E+00   1.1368397E+00   1.1019750E+00   1.0566478E+00   1.0069886E+00   9.6094215E-01   9.2440671E-01   8.9957798E-01   8.8575339E-01   8.2488763E-01   7.9589099E-01   7.6266146E-01   7.2203588E-01   6.7829311E-01   6.3803566E-01   6.0636210E-01   5.8507377E-01   5.7335430E-01   5.6816375E-01   5.4029548E-01   5.1162452E-01   4.7758216E-01   4.4101632E-01   4.0743056E-01   3.8121483E-01   3.6380485E-01   3.5433874E-01   3.8489780E-01   3.6113876E-01   3.3816838E-01   3.1080559E-01   2.8097665E-01   2.5339964E-01   2.3189470E-01   2.1764690E-01   2.0991093E-01   2.5692418E-01   2.3848742E-01   2.2079597E-01   1.9899961E-01   1.7459391E-01   1.5170093E-01   1.3363853E-01   1.2147482E-01   1.1474101E-01   1.6589749E-01   1.5255062E-01   1.3872246E-01   1.2079923E-01   1.0031377E-01   8.0777794E-02   6.5006912E-02   5.4057598E-02   4.7792405E-02   9.8596245E-02   8.9623004E-02   7.8297004E-02   6.2624514E-02   4.4703871E-02   2.7460605E-02   1.3192266E-02   2.9714108E-03  -3.0495524E-03   4.7393337E-02   4.2454898E-02   3.3288360E-02   1.9096553E-02   2.6443005E-03  -1.3180375E-02  -2.6482701E-02  -3.6217064E-02  -4.2043865E-02   7.6082647E-03   6.8100691E-03   8.7258220E-04  -1.1167541E-02  -2.6351154E-02  -4.1439712E-02  -5.4261774E-02  -6.3739210E-02  -6.9445252E-02  -2.4000362E-02  -2.1338090E-02  -2.2601575E-02  -3.0514225E-02  -4.3112129E-02  -5.7019606E-02  -6.9556013E-02  -7.9027936E-02  -8.4760666E-02  -4.9210191E-02  -4.5703650E-02  -4.2310581E-02  -4.4305831E-02  -5.1972866E-02  -6.2869787E-02  -7.3944435E-02  -8.3002761E-02  -8.8733733E-02  -6.6202238E-02  -6.7035988E-02  -6.2982231E-02  -5.9236363E-02  -6.0203657E-02  -6.5622419E-02  -7.3293701E-02  -8.0590978E-02  -8.5657448E-02  -6.3076615E-02  -7.6848432E-02  -8.2771286E-02  -7.9557225E-02  -7.4533671E-02  -7.3361859E-02  -7.5567767E-02  -7.9629451E-02  -8.3166674E-02  -2.2106782E-02  -6.3059226E-02  -8.2974628E-02  -9.7031817E-02  -9.5910788E-02  -9.0769067E-02  -8.7469429E-02  -8.7177426E-02  -8.8339671E-02   1.5719920E-02  -2.6910901E-02  -5.5986851E-02  -8.9410439E-02  -1.0493912E-01  -1.1054717E-01  -1.0786337E-01  -1.0519075E-01  -1.0424069E-01  -3.5120688E-02  -3.8660072E-02  -7.5153582E-02  -9.4712183E-02  -1.1643545E-01  -1.2189826E-01  -1.2379139E-01  -1.2411226E-01  -1.0532155E-01  -1.0910653E-01  -1.3287544E-01  -1.3975695E-01  -1.4532168E-01  -1.4692806E-01  -1.9723773E-01  -1.9515502E-01  -1.8920256E-01  -1.8622074E-01  -1.1841171E-01  -1.1838529E-01  -1.1829077E-01  -1.1808223E-01  -1.1767995E-01  -1.1696771E-01  -1.1579075E-01  -1.1395641E-01  -1.3616350E-01  -1.3613698E-01  -1.3604167E-01  -1.3582909E-01  -1.3541572E-01  -1.3467881E-01  -1.3345370E-01  -1.3153133E-01  -1.4887418E-01  -1.4885500E-01  -1.4878237E-01  -1.4860937E-01  -1.4825447E-01  -1.4759789E-01  -1.4647627E-01  -1.4467475E-01  -1.5921274E-01  -1.5920922E-01  -1.5918455E-01  -1.5909575E-01  -1.5886752E-01  -1.5838824E-01  -1.5750141E-01  -1.5599081E-01  -1.6960764E-01  -1.6962737E-01  -1.6967398E-01  -1.6970932E-01  -1.6966639E-01  -1.6944367E-01  -1.6889332E-01  -1.6779627E-01  -1.8167022E-01  -1.8171935E-01  -1.8185596E-01  -1.8204696E-01  -1.8223472E-01  -1.8232909E-01  -1.8218963E-01  -1.8159091E-01  -1.9601490E-01  -1.9609728E-01  -1.9633560E-01  -1.9670308E-01  -1.9715200E-01  -1.9760443E-01  -1.9792865E-01  -1.9789170E-01  -2.1246307E-01  -2.1257970E-01  -2.1292311E-01  -2.1347371E-01  -2.1419568E-01  -2.1502632E-01  -2.1584554E-01  -2.1641687E-01  -2.3056933E-01  -2.3071802E-01  -2.3115996E-01  -2.3188369E-01  -2.3286751E-01  -2.3406783E-01  -2.3538050E-01  -2.3657282E-01  -2.5016236E-01  -2.5033736E-01  -2.5086066E-01  -2.5172970E-01  -2.5293723E-01  -2.5445995E-01  -2.5621322E-01  -2.5796843E-01  -2.7121791E-01  -2.7141041E-01  -2.7198878E-01  -2.7295694E-01  -2.7432162E-01  -2.7607638E-01  -2.7815166E-01  -2.8031728E-01  -2.9369774E-01  -2.9389656E-01  -2.9449540E-01  -2.9550302E-01  -2.9693377E-01  -2.9878992E-01  -3.0100587E-01  -3.0334076E-01  -3.1761044E-01  -3.1780326E-01  -3.1838366E-01  -3.1936213E-01  -3.2075310E-01  -3.2255536E-01  -3.2469255E-01  -3.2690620E-01  -3.4303981E-01  -3.4321386E-01  -3.4373784E-01  -3.4461850E-01  -3.4586227E-01  -3.4745413E-01  -3.4929574E-01  -3.5111168E-01  -3.7014619E-01  -3.7029058E-01  -3.7072349E-01  -3.7144473E-01  -3.7244806E-01  -3.7369826E-01  -3.7507358E-01  -3.7629068E-01  -3.9914769E-01  -3.9925379E-01  -3.9956951E-01  -4.0008548E-01  -4.0078092E-01  -4.0160254E-01  -4.0241349E-01  -4.0293509E-01  -4.3029526E-01  -4.3035787E-01  -4.3053868E-01  -4.3082038E-01  -4.3117049E-01  -4.3152472E-01  -4.3174383E-01  -4.3156511E-01  -4.6384159E-01  -4.6385616E-01  -4.6389097E-01  -4.6392184E-01  -4.6390998E-01  -4.6378899E-01  -4.6343005E-01  -4.6259832E-01  -4.9999467E-01  -4.9995768E-01  -4.9983633E-01  -4.9960229E-01  -4.9921593E-01  -4.9861944E-01  -4.9770409E-01  -4.9627045E-01  -5.3886318E-01  -5.3877121E-01  -5.3848308E-01  -5.3796804E-01  -5.3719050E-01  -5.3610677E-01  -5.3463835E-01  -5.3262466E-01  -5.8040732E-01  -5.8025634E-01  -5.7979071E-01  -5.7897729E-01  -5.7778597E-01  -5.7619244E-01  -5.7415479E-01  -5.7155305E-01  -6.2438941E-01  -6.2417626E-01  -6.2352133E-01  -6.2239122E-01  -6.2076384E-01  -6.1864042E-01  -6.1601883E-01  -6.1282235E-01  -6.7026341E-01  -6.6998249E-01  -6.6912448E-01  -6.6765976E-01  -6.6557980E-01  -6.6292149E-01  -6.5973395E-01  -6.5598160E-01  -7.1689641E-01  -7.1653938E-01  -7.1545732E-01  -7.1363115E-01  -7.1108401E-01  -7.0790756E-01  -7.0421690E-01  -7.0002699E-01  -7.6203042E-01  -7.6158369E-01  -7.6023787E-01  -7.5800371E-01  -7.5496209E-01  -7.5129312E-01  -7.4721020E-01  -7.4279267E-01  -8.0160648E-01  -8.0104405E-01  -7.9937053E-01  -7.9664910E-01  -7.9305780E-01  -7.8891271E-01  -7.8457463E-01  -7.8020769E-01  -8.2932055E-01  -8.2860929E-01  -8.2651538E-01  -8.2319063E-01  -8.1895638E-01  -8.1432819E-01  -8.0986488E-01  -8.0583245E-01  -8.3691198E-01  -8.3600855E-01  -8.3337957E-01  -8.2929707E-01  -8.2428074E-01  -8.1909668E-01  -8.1453812E-01  -8.1095725E-01  -8.1529307E-01  -8.1414235E-01  -8.1082213E-01  -8.0575520E-01  -7.9969364E-01  -7.9367507E-01  -7.8870565E-01  -7.8516126E-01  -7.5463498E-01  -7.5315815E-01  -7.4891281E-01  -7.4246973E-01  -7.3479766E-01  -7.2715569E-01  -7.2068453E-01  -7.1577084E-01  -6.3833380E-01  -6.3641769E-01  -6.3089287E-01  -6.2242514E-01  -6.1212301E-01  -6.0137296E-01  -5.9140456E-01  -5.8278483E-01  -4.3472636E-01  -4.3224153E-01  -4.2501220E-01  -4.1372019E-01  -3.9950410E-01  -3.8380504E-01  -3.6804777E-01  -3.5324931E-01  -1.0081574E-01  -9.7691178E-02  -8.8500842E-02  -7.3842585E-02  -5.4794163E-02  -3.2882214E-02  -9.9429935E-03   1.2273133E-02   3.9941978E-01   4.0307176E-01   4.1393051E-01   4.3158668E-01   4.5507240E-01   4.8267066E-01   5.1185036E-01   5.3975999E-01   1.0673671E+00   1.0711371E+00   1.0824785E+00   1.1012557E+00   1.1266490E+00   1.1566236E+00   1.1876559E+00   1.2153965E+00   1.8434885E+00   1.8466551E+00   1.8563553E+00   1.8728205E+00   1.8954450E+00   1.9218082E+00   1.9472255E+00   1.9655623E+00   2.6027882E+00   2.6044874E+00   2.6099834E+00   2.6199825E+00   2.6341889E+00   2.6498952E+00   2.6613357E+00   2.6606407E+00   3.1803851E+00   3.1800621E+00   3.1796887E+00   3.1804249E+00   3.1824152E+00   3.1830399E+00   3.1760461E+00   3.1524823E+00   3.4792900E+00   3.4768739E+00   3.4704020E+00   3.4615555E+00   3.4511709E+00   3.4372692E+00   3.4139233E+00   3.3718882E+00   3.5432634E+00   3.5392506E+00   3.5281601E+00   3.5122123E+00   3.4931149E+00   3.4698694E+00   3.4373574E+00   3.3865561E+00   3.4665258E+00   3.4618442E+00   3.4489026E+00   3.4303827E+00   3.4087911E+00   3.3841348E+00   3.3521016E+00   3.3039930E+00   3.3256538E+00   3.3213925E+00   3.3098056E+00   3.2938437E+00   3.2765379E+00   3.2585108E+00   3.2358658E+00   3.1999753E+00   3.1488879E+00   3.1459920E+00   3.1385145E+00   3.1294470E+00   3.1218839E+00   3.1164720E+00   3.1091466E+00   3.0909321E+00   2.9211056E+00   2.9201658E+00   2.9184971E+00   2.9189043E+00   2.9241211E+00   2.9342289E+00   2.9444683E+00   2.9452229E+00   2.6120415E+00   2.6132183E+00   2.6177902E+00   2.6282110E+00   2.6465831E+00   2.6720860E+00   2.6990287E+00   2.7171569E+00   2.2106581E+00   2.2136943E+00   2.2237072E+00   2.2427704E+00   2.2722957E+00   2.3105707E+00   2.3511176E+00   2.3834119E+00   1.7477362E+00   1.7519997E+00   1.7655957E+00   1.7902796E+00   1.8269441E+00   1.8732903E+00   1.9225245E+00   1.9644457E+00   1.2849417E+00   1.2896161E+00   1.3043838E+00   1.3308382E+00   1.3696477E+00   1.4183818E+00   1.4704807E+00   1.5166833E+00   8.8138664E-01   8.8575339E-01   8.9957798E-01   9.2440641E-01   9.6094197E-01   1.0069889E+00   1.0566480E+00   1.1019747E+00   5.6968009E-01   5.7335401E-01   5.8507413E-01   6.0636199E-01   6.3803548E-01   6.7829299E-01   7.2203577E-01   7.6266146E-01   3.5139611E-01   3.5433877E-01   3.6380482E-01   3.8121501E-01   4.0743086E-01   4.4101635E-01   4.7758234E-01   5.1162463E-01   2.0750839E-01   2.0991088E-01   2.1764684E-01   2.3189488E-01   2.5339970E-01   2.8097644E-01   3.1080568E-01   3.3816832E-01   1.1261956E-01   1.1474110E-01   1.2147494E-01   1.3363859E-01   1.5170078E-01   1.7459385E-01   1.9899984E-01   2.2079596E-01   4.5771897E-02   4.7792375E-02   5.4057688E-02   6.5006852E-02   8.0777794E-02   1.0031365E-01   1.2079920E-01   1.3872230E-01  -5.0269365E-03  -3.0496120E-03   2.9718280E-03   1.3192266E-02   2.7460515E-02   4.4703871E-02   6.2624589E-02   7.8297153E-02  -4.3971568E-02  -4.2044014E-02  -3.6216915E-02  -2.6482970E-02  -1.3180137E-02   2.6444495E-03   1.9096449E-02   3.3288583E-02  -7.1333736E-02  -6.9445014E-02  -6.3739121E-02  -5.4261506E-02  -4.1439801E-02  -2.6351094E-02  -1.1167362E-02   8.7270141E-04  -8.6661994E-02  -8.4760547E-02  -7.9028130E-02  -6.9555998E-02  -5.7019830E-02  -4.3112114E-02  -3.0514300E-02  -2.2601485E-02  -9.0677917E-02  -8.8733763E-02  -8.3002776E-02  -7.3944524E-02  -6.2869817E-02  -5.1972941E-02  -4.4306010E-02  -4.2310834E-02  -8.7461233E-02  -8.5657552E-02  -8.0590874E-02  -7.3293909E-02  -6.5622762E-02  -6.0203850E-02  -5.9236720E-02  -6.2982023E-02  -8.4510103E-02  -8.3166763E-02  -7.9629436E-02  -7.5568080E-02  -7.3362008E-02  -7.4533895E-02  -7.9557404E-02  -8.2771569E-02  -8.9008436E-02  -8.8339761E-02  -8.7177515E-02  -8.7469473E-02  -9.0769380E-02  -9.5911041E-02  -9.7032100E-02  -8.2974717E-02  -1.0432646E-01  -1.0424078E-01  -1.0519087E-01  -1.0786407E-01  -1.1054748E-01  -1.0493964E-01  -8.9410648E-02  -5.5987298E-02  -1.2404520E-01  -1.2411258E-01  -1.2379143E-01  -1.2189851E-01  -1.1643565E-01  -9.4712682E-02  -7.5153947E-02  -3.8660496E-02  -1.4634925E-01  -1.4692844E-01  -1.4532211E-01  -1.3975757E-01  -1.3287595E-01  -1.0910650E-01  -1.0532124E-01  -1.8541695E-01  -1.8622077E-01  -1.8920258E-01  -1.9515502E-01  -1.9723782E-01  -1.1124866E-01  -1.0745612E-01  -1.0236499E-01  -9.5707707E-02  -8.7185338E-02  -7.6578356E-02  -6.3905381E-02  -1.2866940E-01  -1.2463441E-01  -1.1918305E-01  -1.1198528E-01  -1.0265325E-01  -9.0883851E-02  -7.6652348E-02  -6.0383223E-02  -1.4192566E-01  -1.3796651E-01  -1.3251181E-01  -1.2515113E-01  -1.1538126E-01  -1.0278080E-01  -8.7259017E-02  -6.9341250E-02  -1.5355751E-01  -1.4988601E-01  -1.4462896E-01  -1.3727720E-01  -1.2719244E-01  -1.1381968E-01  -9.7021945E-02  -7.7442199E-02  -1.6581683E-01  -1.6255865E-01  -1.5759143E-01  -1.5029079E-01  -1.3987383E-01  -1.2570633E-01  -1.0762380E-01  -8.6304389E-02  -1.8015863E-01  -1.7740795E-01  -1.7280050E-01  -1.6561447E-01  -1.5508662E-01  -1.4057223E-01  -1.2172836E-01  -9.8903775E-02  -1.9708087E-01  -1.9494252E-01  -1.9084629E-01  -1.8419500E-01  -1.7447318E-01  -1.6104405E-01  -1.4308687E-01  -1.1955446E-01  -2.1629681E-01  -2.1488008E-01  -2.1164785E-01  -2.0643905E-01  -1.9926913E-01  -1.8963686E-01  -1.7579654E-01  -1.5352300E-01  -2.3717642E-01  -2.3659241E-01  -2.3467112E-01  -2.3203254E-01  -2.2960533E-01  -2.2735205E-01  -2.2249538E-01  -2.0567781E-01  -2.5923669E-01  -2.5950831E-01  -2.5917661E-01  -2.5986585E-01  -2.6379925E-01  -2.7197680E-01  -2.8131258E-01  -2.7779326E-01  -2.8206918E-01  -2.8302419E-01  -2.8411931E-01  -2.8795609E-01  -2.9816931E-01  -3.1748584E-01  -3.4367993E-01  -3.6214358E-01  -3.0528149E-01  -3.0653870E-01  -3.0839044E-01  -3.1411704E-01  -3.2846403E-01  -3.5580331E-01  -3.9418316E-01  -4.2401183E-01  -3.2868636E-01  -3.2976785E-01  -3.3144665E-01  -3.3710411E-01  -3.5161352E-01  -3.7844861E-01  -4.0796199E-01  -4.1755331E-01  -3.5241279E-01  -3.5292313E-01  -3.5366407E-01  -3.5740772E-01  -3.6789969E-01  -3.8528341E-01  -3.9706892E-01  -3.9547166E-01  -3.7689388E-01  -3.7662500E-01  -3.7609607E-01  -3.7711215E-01  -3.8174060E-01  -3.8850689E-01  -3.8989258E-01  -3.8758469E-01  -4.0275258E-01  -4.0164989E-01  -3.9994380E-01  -3.9853182E-01  -3.9824736E-01  -3.9761961E-01  -3.9463562E-01  -3.9395002E-01  -4.3061939E-01  -4.2870089E-01  -4.2601240E-01  -4.2293888E-01  -4.1971821E-01  -4.1541535E-01  -4.1050354E-01  -4.0972212E-01  -4.6096563E-01  -4.5830876E-01  -4.5473310E-01  -4.5051396E-01  -4.4574940E-01  -4.4002831E-01  -4.3444178E-01  -4.3308094E-01  -4.9402475E-01  -4.9070776E-01  -4.8631418E-01  -4.8109123E-01  -4.7528055E-01  -4.6882600E-01  -4.6276027E-01  -4.6042594E-01  -5.2980089E-01  -5.2586472E-01  -5.2070415E-01  -5.1454389E-01  -5.0773716E-01  -5.0046426E-01  -4.9335533E-01  -4.8986873E-01  -5.6814694E-01  -5.6359458E-01  -5.5768728E-01  -5.5061567E-01  -5.4281557E-01  -5.3460634E-01  -5.2625823E-01  -5.2171534E-01  -6.0882956E-01  -6.0366255E-01  -5.9703356E-01  -5.8907849E-01  -5.8027637E-01  -5.7106090E-01  -5.6160510E-01  -5.5654669E-01  -6.5145409E-01  -6.4573812E-01  -6.3848019E-01  -6.2975532E-01  -6.2001580E-01  -6.0976285E-01  -5.9951603E-01  -5.9453225E-01  -6.9512761E-01  -6.8905395E-01  -6.8139654E-01  -6.7217892E-01  -6.6178751E-01  -6.5058929E-01  -6.3983327E-01  -6.3545579E-01  -7.3781234E-01  -7.3172885E-01  -7.2407639E-01  -7.1485823E-01  -7.0446575E-01  -6.9273996E-01  -6.8161476E-01  -6.7828751E-01  -7.7554667E-01  -7.6992881E-01  -7.6281512E-01  -7.5426489E-01  -7.4489951E-01  -7.3366821E-01  -7.2222722E-01  -7.2007936E-01  -8.0189276E-01  -7.9719418E-01  -7.9109514E-01  -7.8385031E-01  -7.7679002E-01  -7.6774907E-01  -7.5613236E-01  -7.5474894E-01  -8.0788678E-01  -8.0423176E-01  -7.9924458E-01  -7.9359150E-01  -7.8987724E-01  -7.8534687E-01  -7.7394927E-01  -7.7249098E-01  -7.8242821E-01  -7.7921671E-01  -7.7471066E-01  -7.7008098E-01  -7.6986653E-01  -7.7185285E-01  -7.6134789E-01  -7.5843287E-01  -7.1180797E-01  -7.0746130E-01  -7.0172518E-01  -6.9603074E-01  -6.9744152E-01  -7.0570815E-01  -6.9639361E-01  -6.8952632E-01  -5.7516122E-01  -5.6714571E-01  -5.5729842E-01  -5.4736108E-01  -5.4604667E-01  -5.5504209E-01  -5.4568136E-01  -5.3099686E-01  -3.3946335E-01  -3.2513344E-01  -3.0849046E-01  -2.9167348E-01  -2.8435209E-01  -2.8414088E-01  -2.6846650E-01  -2.4052630E-01   3.3150300E-02   5.4258645E-02   7.7287346E-02   9.9987186E-02   1.1775281E-01   1.3983603E-01   1.6764161E-01   2.1807283E-01   5.6485999E-01   5.8829212E-01   6.1181104E-01   6.3658231E-01   6.7143011E-01   7.1706372E-01   7.5597495E-01   8.2165933E-01   1.2367833E+00   1.2521722E+00   1.2646846E+00   1.2831117E+00   1.3251098E+00   1.3710612E+00   1.4058666E+00   1.4818208E+00   1.9716752E+00   1.9653732E+00   1.9542297E+00   1.9555765E+00   1.9774274E+00   1.9892685E+00   1.9978898E+00   2.0579360E+00   2.6407251E+00   2.6019149E+00   2.5564916E+00   2.5191209E+00   2.4918077E+00   2.4450490E+00   2.4090793E+00   2.4404864E+00   3.1038043E+00   3.0287056E+00   2.9383564E+00   2.8451884E+00   2.7521074E+00   2.6496289E+00   2.5556829E+00   2.5786772E+00   3.3017037E+00   3.2000885E+00   3.0752325E+00   2.9392645E+00   2.7941699E+00   2.6513743E+00   2.4977839E+00   2.5504036E+00   3.3075500E+00   3.1953981E+00   3.0546968E+00   2.8973498E+00   2.7283731E+00   2.5798028E+00   2.3808129E+00   2.4571483E+00   3.2295692E+00   3.1225390E+00   2.9849112E+00   2.8277335E+00   2.6599250E+00   2.5109246E+00   2.2938168E+00   2.3802388E+00   3.1401882E+00   3.0491395E+00   2.9273131E+00   2.7867508E+00   2.6337097E+00   2.4809844E+00   2.2688725E+00   2.3598614E+00   3.0506461E+00   2.9802642E+00   2.8796825E+00   2.7612944E+00   2.6245942E+00   2.4732499E+00   2.2785697E+00   2.3720899E+00   2.9248371E+00   2.8751781E+00   2.7965519E+00   2.7001834E+00   2.5818679E+00   2.4431801E+00   2.2688589E+00   2.3614767E+00   2.7147195E+00   2.6842103E+00   2.6271377E+00   2.5531225E+00   2.4572980E+00   2.3418951E+00   2.1952195E+00   2.2858505E+00   2.3962440E+00   2.3835649E+00   2.3486269E+00   2.2998297E+00   2.2319264E+00   2.1497445E+00   2.0461142E+00   2.1367652E+00   1.9890996E+00   1.9925854E+00   1.9801960E+00   1.9589431E+00   1.9266652E+00   1.8862085E+00   1.8327147E+00   1.9260504E+00   1.5488453E+00   1.5655708E+00   1.5743980E+00   1.5814626E+00   1.5828649E+00   1.5944812E+00   1.5926670E+00   1.6845831E+00   1.1368401E+00   1.1623160E+00   1.1881244E+00   1.2227441E+00   1.2552979E+00   1.3093683E+00   1.3599912E+00   1.4491315E+00   7.9589140E-01   8.2488823E-01   8.6095762E-01   9.1632813E-01   9.7858030E-01   1.0535421E+00   1.1433305E+00   1.2384098E+00   5.4029578E-01   5.6816435E-01   6.0738039E-01   6.7200649E-01   7.5478661E-01   8.4134865E-01   9.4795513E-01   1.0489314E+00   3.6113915E-01   3.8489810E-01   4.2167187E-01   4.8534399E-01   5.7402468E-01   6.7112672E-01   7.6589692E-01   8.7692225E-01   2.3848754E-01   2.5692430E-01   2.8738657E-01   3.4319720E-01   4.2463207E-01   5.2321529E-01   6.1248225E-01   7.2095001E-01   1.5255050E-01   1.6589752E-01   1.8874416E-01   2.3323482E-01   2.9908603E-01   3.8574678E-01   4.8979560E-01   6.0065293E-01   8.9623123E-02   9.8596454E-02   1.1371464E-01   1.4599067E-01   1.8970685E-01   2.5525492E-01   3.6884561E-01   4.8339745E-01   4.2454988E-02   4.7393292E-02   5.5740207E-02   7.3831953E-02   9.3893915E-02   1.4692056E-01   2.6887900E-01   6.8100691E-03   7.6083541E-03   1.0111123E-02   1.3714135E-02   1.6589232E-02   7.7579282E-02   1.9396324E-01  -2.1337956E-02  -2.4000481E-02  -2.5732681E-02  -3.6585510E-02  -2.8035782E-02   5.5586014E-02  -4.5703650E-02  -4.9210429E-02  -5.3760201E-02  -7.0358656E-02  -2.6074581E-02   6.0476121E-02  -6.7036211E-02  -6.6202193E-02  -6.5657139E-02  -5.7535924E-02   2.1592110E-02  -7.6848432E-02  -6.3076928E-02  -3.0593708E-02   4.4371411E-03  -6.3059375E-02  -2.2107020E-02   3.8323671E-02  -5.6730434E-03  -2.6911184E-02   1.5719302E-02  -3.5121128E-02 
VonMises3D 1 2975 float
  0.0000000E+00   0.0000000E+00   0.0000000E+00   0.0000000E+00   0.0000000E+00   0.0000000E+00   0.0000000E+00   0.0000000E+00   0.0000000E+00   0.0000000E+00   0.0000000E+00   0.0000000E+00   0.0000000E+00   7.9021025E-03   1.0013460E-12   5.8052473E-02   3.2552591E-01   1.2259050E-01   8.6866313E-01   2.2593880E+00   1.1411256E+00   4.1474476E+00   8.2280893E+00   4.3946009E+00   1.2200791E+01   2.1223537E+01   1.1155260E+01   2.6984234E+01   4.3691254E+01   2.1892609E+01   4.9001804E+01   7.6163918E+01   3.5795895E+01   7.6564644E+01   1.1618681E+02   5.0940502E+01   1.0607072E+02   1.5850732E+02   6.5154961E+01   1.3353445E+02   1.9726295E+02   7.7077751E+01   1.5648322E+02   2.2897360E+02   8.6755554E+01   1.7489586E+02   2.5445219E+02   1.0100106E+02   1.9121568E+02   2.8185834E+02   1.8935973E+02   2.3314626E+02   3.3344998E+02   5.5176654E+02   4.7875397E+02   4.4202304E+02   1.5360406E+03   1.2702428E+03   6.0446649E+02   3.6822698E+03   2.9616768E+03   7.3248956E+02   5.5908721E+03   9.0853094E+02   0.0000000E+00   0.0000000E+00   0.0000000E+00   0.0000000E+00   0.0000000E+00   0.0000000E+00   0.0000000E+00   0.0000000E+00   0.0000000E+00   0.0000000E+00   0.0000000E+00   0.0000000E+00   0.0000000E+00   0.0000000E+00   0.0000000E+00   0.0000000E+00   0.0000000E+00   0.0000000E+00   0.0000000E+00   0.0000000E+00   0.0000000E+00   0.0000000E+00   0.0000000E+00   0.0000000E+00   0.0000000E+00   5.0319202E-04   1.5687372E-03   9.0017734E-04   1.1119947E-03   1.9820451E-03   2.2268451E-03   2.3624168E-03   4.9261220E-02   1.0450992E-01   1.2720454E-01   9.3938477E-02   1.6699376E-02   6.6904299E-02   1.1703774E-01   1.3014488E-01   7.0842940E-01   9.8389339E-01   1.0030614E+00   7.2965497E-01   2.3478997E-01   3.0992880E-01   7.2131979E-01   9.2503506E-01   3.5954466E+00   4.2826905E+00   4.0607300E+00   2.9031413E+00   1.0509456E+00   9.6084273E-01   2.5501761E+00   3.4496722E+00   1.1421639E+01   1.2642091E+01   1.1539150E+01   8.1490784E+00   3.0807135E+00   2.3575525E+00   6.7247372E+00   9.3146677E+00   2.7442932E+01   2.9207405E+01   2.6103004E+01   1.8270161E+01   7.0197539E+00   4.8836670E+00   1.4467893E+01   2.0270376E+01   5.4346630E+01   5.6652992E+01   5.0044025E+01   3.4715244E+01   1.3289531E+01   8.9302464E+00   2.6674528E+01   3.7481270E+01   9.2766998E+01   9.5675797E+01   8.3874077E+01   5.7442833E+01   2.1451862E+01   1.4793705E+01   4.3300369E+01   6.0614456E+01   1.3987175E+02   1.4331981E+02   1.2417008E+02   1.8915173E+02   1.9246016E+02   2.3310172E+02   2.3445619E+02   2.6768021E+02   2.6564746E+02   2.9477441E+02   2.8832761E+02   3.4084677E+02   3.4151224E+02   5.4854755E+02   6.7092743E+02   1.2021609E+03   1.7046610E+03   2.5815322E+03   3.9033530E+03   4.7543252E+03   7.5629653E+03   7.1292163E+03   1.2043308E+04   0.0000000E+00   0.0000000E+00   0.0000000E+00   0.0000000E+00   0.0000000E+00   0.0000000E+00   0.0000000E+00   0.0000000E+00   0.0000000E+00   0.0000000E+00   0.0000000E+00   0.0000000E+00   0.0000000E+00   0.0000000E+00   0.0000000E+00   0.0000000E+00   0.0000000E+00   0.0000000E+00   0.0000000E+00   0.0000000E+00   0.0000000E+00   0.0000000E+00   0.0000000E+00   0.0000000E+00   0.0000000E+00   0.0000000E+00   0.0000000E+00   2.4194578E-03   2.4221723E-03   2.3918618E-03   2.3476279E-03   2.2965081E-03   2.2453163E-03   2.2001665E-03   2.1647390E-03   2.1424002E-03   1.3110977E-01   1.2757841E-01   1.2164676E-01   1.1479317E-01   1.0795103E-01   1.0170138E-01   9.6416742E-02   9.2416942E-02   8.9928359E-02   9.5893735E-01   9.2562819E-01   8.6923730E-01   8.0390120E-01   7.3880392E-01   6.7965585E-01   6.3019162E-01   5.9298772E-01   5.6990767E-01   3.7328825E+00   3.6329122E+00   3.3921359E+00   3.1049790E+00   2.8156211E+00   2.5519559E+00   2.3315837E+00   2.1662533E+00   2.0638759E+00   1.0267422E+01   1.0132167E+01   9.4585276E+00   8.6165495E+00   7.7549834E+00   6.9647827E+00   6.3030639E+00   5.8065963E+00   5.4993591E+00   2.2532976E+01   2.2389328E+01   2.0960831E+01   1.9051620E+01   1.7068403E+01   1.5235950E+01   1.3696616E+01   1.2540567E+01   1.1825079E+01   4.1796062E+01   4.1629814E+01   3.9043079E+01   3.5439819E+01   3.1648729E+01   2.8122009E+01   2.5149691E+01   2.2914341E+01   2.1530281E+01   6.7561546E+01   6.7294220E+01   6.3122059E+01   5.7244682E+01   5.0994701E+01   4.5147079E+01   4.0203655E+01   3.6480549E+01   3.4174030E+01   0.0000000E+00   0.0000000E+00   0.0000000E+00   0.0000000E+00   0.0000000E+00   0.0000000E+00   0.0000000E+00   0.0000000E+00   0.0000000E+00   0.0000000E+00   0.0000000E+00   0.0000000E+00   0.0000000E+00   0.0000000E+00   0.0000000E+00   0.0000000E+00   0.0000000E+00   0.0000000E+00   0.0000000E+00   0.0000000E+00   0.0000000E+00   0.0000000E+00   0.0000000E+00   0.0000000E+00   2.1347753E-03   2.1424002E-03   2.1647387E-03   2.2001662E-03   2.2453163E-03   2.2965085E-03   2.3476284E-03   2.3918613E-03   8.9081593E-02   8.9928359E-02   9.2416935E-02   9.6416764E-02   1.0170142E-01   1.0795106E-01   1.1479317E-01   1.2164676E-01   5.6209421E-01   5.6990767E-01   5.9298784E-01   6.3019180E-01   6.7965591E-01   7.3880404E-01   8.0390137E-01   8.6923748E-01   2.0292199E+00   2.0638759E+00   2.1662538E+00   2.3315842E+00   2.5519569E+00   2.8156219E+00   3.1049798E+00   3.3921363E+00   5.3953800E+00   5.4993591E+00   5.8065968E+00   6.3030653E+00   6.9647841E+00   7.7549877E+00   8.6165524E+00   9.4585285E+00   1.1582925E+01   1.1825080E+01   1.2540569E+01   1.3696618E+01   1.5235955E+01   1.7068407E+01   1.9051624E+01   2.0960833E+01   2.1061852E+01   2.1530289E+01   2.2914347E+01   2.5149696E+01   2.8122021E+01   3.1648731E+01   3.5439827E+01   3.9043091E+01   3.3393341E+01   3.4174038E+01   3.6480553E+01   4.0203663E+01   4.5147083E+01   5.0994717E+01   5.7244690E+01   6.3122074E+01   0.0000000E+00   0.0000000E+00   0.0000000E+00   0.0000000E+00   0.0000000E+00   0.0000000E+00   0.0000000E+00   0.0000000E+00   0.0000000E+00   0.0000000E+00   0.0000000E+00   0.0000000E+00   0.0000000E+00   0.0000000E+00   0.0000000E+00   0.0000000E+00   0.0000000E+00   0.0000000E+00   0.0000000E+00   0.0000000E+00   0.0000000E+00   0.0000000E+00   0.0000000E+00   0.0000000E+00   0.0000000E+00   0.0000000E+00   0.0000000E+00   2.4221723E-03   2.4194582E-03   2.3624173E-03   2.2268449E-03   1.9820449E-03   1.1119947E-03   9.0017647E-04   1.5687369E-03   5.0319196E-04   1.2757838E-01   1.3110977E-01   1.3014489E-01   1.1703774E-01   6.6904292E-02   1.6699385E-02   9.3938492E-02   1.2720452E-01   1.0450990E-01   9.2562819E-01   9.5893753E-01   9.2503506E-01   7.2131985E-01   3.0992875E-01   2.3479018E-01   7.2965509E-01   1.0030614E+00   9.8389333E-01   3.6329129E+00   3.7328825E+00   3.4496720E+00   2.5501766E+00   9.6084243E-01   1.0509458E+00   2.9031420E+00   4.0607305E+00   4.2826910E+00   1.0132167E+01   1.0267422E+01   9.3146677E+00   6.7247362E+00   2.3575521E+00   3.0807145E+00   8.1490784E+00   1.1539150E+01   1.2642092E+01   2.2389328E+01   2.2532976E+01   2.0270374E+01   1.4467893E+01   4.8836675E+00   7.0197563E+00   1.8270168E+01   2.6103010E+01   2.9207409E+01   4.1629818E+01   4.1796070E+01   3.7481277E+01   2.6674526E+01   8.9302483E+00   1.3289532E+01   3.4715244E+01   5.0044037E+01   5.6652981E+01   6.7294235E+01   6.7561562E+01   6.0614464E+01   4.3300377E+01   1.4793708E+01   2.1451866E+01   5.7442852E+01   8.3874092E+01   9.5675812E+01   1.2417008E+02   1.4331981E+02   1.9246016E+02   2.3445616E+02   2.6564743E+02   2.8832758E+02   3.4151227E+02   6.7092743E+02   1.7046609E+03   3.9033535E+03   7.5629668E+03   1.2043308E+04   0.0000000E+00   0.0000000E+00   0.0000000E+00   0.0000000E+00   0.0000000E+00   0.0000000E+00   0.0000000E+00   0.0000000E+00   0.0000000E+00   0.0000000E+00   0.0000000E+00   0.0000000E+00   0.0000000E+00   0.0000000E+00   0.0000000E+00   4.9261197E-02   7.9021007E-03   0.0000000E+00   0.0000000E+00   7.0842928E-01   3.2552576E-01   5.8052454E-02   1.0013459E-12   3.5954456E+00   2.2593877E+00   8.6866289E-01   1.2259050E-01   1.1421638E+01   8.2280893E+00   4.1474471E+00   1.1411254E+00   2.7442936E+01   2.1223534E+01   1.2200785E+01   4.3945999E+00   5.4346630E+01   4.3691246E+01   2.6984230E+01   1.1155258E+01   9.2767006E+01   7.6163910E+01   4.9001804E+01   2.1892607E+01   1.3987177E+02   1.1618679E+02   7.6564629E+01   3.5795895E+01   1.8915175E+02   1.5850734E+02   1.0607072E+02   5.0940506E+01   2.3310176E+02   1.9726295E+02   1.3353447E+02   6.5154968E+01   2.6768021E+02   2.2897360E+02   1.5648323E+02   7.7077751E+01   2.9477444E+02   2.5445219E+02   1.7489589E+02   8.6755547E+01   3.4084680E+02   2.8185834E+02   1.9121565E+02   1.0100106E+02   5.4854773E+02   3.3344992E+02   2.3314624E+02   1.8935971E+02   1.2021611E+03   4.4202313E+02   4.7875394E+02   5.5176660E+02   2.5815322E+03   6.0446649E+02   1.2702432E+03   1.5360405E+03   4.7543252E+03   7.3248962E+02   2.9616768E+03   3.6822698E+03   7.1292163E+03   9.0853082E+02   5.5908716E+03   0.0000000E+00   0.0000000E+00   0.0000000E+00   0.0000000E+00   0.0000000E+00   0.0000000E+00   0.0000000E+00   0.0000000E+00   0.0000000E+00   0.0000000E+00   0.0000000E+00   0.0000000E+00   0.0000000E+00   0.0000000E+00   0.0000000E+00   0.0000000E+00   0.0000000E+00   0.0000000E+00   0.0000000E+00   0.0000000E+00   0.0000000E+00   0.0000000E+00   0.0000000E+00   0.0000000E+00   0.0000000E+00   0.0000000E+00   0.0000000E+00   0.0000000E+00   0.0000000E+00   0.0000000E+00   0.0000000E+00   0.0000000E+00   0.0000000E+00   0.0000000E+00   0.0000000E+00   0.0000000E+00   0.0000000E+00   0.0000000E+00   0.0000000E+00   0.0000000E+00   0.0000000E+00   0.0000000E+00   0.0000000E+00   0.0000000E+00   0.0000000E+00   0.0000000E+00   0.0000000E+00   0.0000000E+00   0.0000000E+00   0.0000000E+00   0.0000000E+00   0.0000000E+00   0.0000000E+00   0.0000000E+00   0.0000000E+00   0.0000000E+00   0.0000000E+00   0.0000000E+00   0.0000000E+00   0.0000000E+00   0.0000000E+00   0.0000000E+00   0.0000000E+00   0.0000000E+00   0.0000000E+00   0.0000000E+00   0.0000000E+00   0.0000000E+00   0.0000000E+00   0.0000000E+00   0.0000000E+00   0.0000000E+00   0.0000000E+00   0.0000000E+00   0.0000000E+00   0.0000000E+00   0.0000000E+00   0.0000000E+00   0.0000000E+00   0.0000000E+00   0.0000000E+00   0.0000000E+00   0.0000000E+00   0.0000000E+00   0.0000000E+00   0.0000000E+00   0.0000000E+00   0.0000000E+00   0.0000000E+00   0.0000000E+00   0.0000000E+00   0.0000000E+00   0.0000000E+00   0.0000000E+00   0.0000000E+00   0.0000000E+00   0.0000000E+00   0.0000000E+00   0.0000000E+00   0.0000000E+00   0.0000000E+00   0.0000000E+00   0.0000000E+00   0.0000000E+00   0.0000000E+00   0.0000000E+00   0.0000000E+00   0.0000000E+00   0.0000000E+00   0.0000000E+00   0.0000000E+00   0.0000000E+00   0.0000000E+00   0.0000000E+00   0.0000000E+00   0.0000000E+00   0.0000000E+00   0.0000000E+00   0.0000000E+00   0.0000000E+00   0.0000000E+00   0.0000000E+00   0.0000000E+00   0.0000000E+00   0.0000000E+00   0.0000000E+00   0.0000000E+00   0.0000000E+00   0.0000000E+00   0.0000000E+00   0.0000000E+00   0.0000000E+00   0.0000000E+00   0.0000000E+00   0.0000000E+00   0.0000000E+00   0.0000000E+00   0.0000000E+00   0.0000000E+00   0.0000000E+00   0.0000000E+00   0.0000000E+00   0.0000000E+00   0.0000000E+00   0.0000000E+00   0.0000000E+00   0.0000000E+00   0.0000000E+00   0.0000000E+00   0.0000000E+00   0.0000000E+00   0.0000000E+00   0.0000000E+00   0.0000000E+00   0.0000000E+00   0.0000000E+00   0.0000000E+00   0.0000000E+00   0.0000000E+00   0.0000000E+00   0.0000000E+00   0.0000000E+00   0.0000000E+00   0.0000000E+00   0.0000000E+00   0.0000000E+00   0.0000000E+00   0.0000000E+00   0.0000000E+00   0.0000000E+00   0.0000000E+00   0.0000000E+00   0.0000000E+00   0.0000000E+00   0.0000000E+00   0.0000000E+00   0.0000000E+00   0.0000000E+00   0.0000000E+00   0.0000000E+00   0.0000000E+00   0.0000000E+00   0.0000000E+00   0.0000000E+00   0.0000000E+00   0.0000000E+00   0.0000000E+00   0.0000000E+00   0.0000000E+00   0.0000000E+00   0.0000000E+00   0.0000000E+00   0.0000000E+00   0.0000000E+00   0.0000000E+00   0.0000000E+00   0.0000000E+00   0.0000000E+00   0.0000000E+00   0.0000000E+00   0.0000000E+00   0.0000000E+00   0.0000000E+00   0.0000000E+00   0.0000000E+00   0.0000000E+00   0.0000000E+00   0.0000000E+00   0.0000000E+00   0.0000000E+00   0.0000000E+00   0.0000000E+00   0.0000000E+00   0.0000000E+00   0.0000000E+00   0.0000000E+00   0.0000000E+00   0.0000000E+00   0.0000000E+00   0.0000000E+00   0.0000000E+00   0.0000000E+00   0.0000000E+00   0.0000000E+00   0.0000000E+00   0.0000000E+00   0.0000000E+00   0.0000000E+00   0.0000000E+00   0.0000000E+00   0.0000000E+00   0.0000000E+00   0.0000000E+00   0.0000000E+00   0.0000000E+00   0.0000000E+00   0.0000000E+00   0.0000000E+00   0.0000000E+00   0.0000000E+00   0.0000000E+00   0.0000000E+00   0.0000000E+00   0.0000000E+00   0.0000000E+00   0.0000000E+00   0.0000000E+00   0.0000000E+00   0.0000000E+00   0.0000000E+00   0.0000000E+00   0.0000000E+00   0.0000000E+00   0.0000000E+00   0.0000000E+00   0.0000000E+00   0.0000000E+00   0.0000000E+00   0.0000000E+00   0.0000000E+00   0.0000000E+00   0.0000000E+00   0.0000000E+00   0.0000000E+00   0.0000000E+00   0.0000000E+00   0.0000000E+00   0.0000000E+00   0.0000000E+00   0.0000000E+00   0.0000000E+00   0.0000000E+00   0.0000000E+00   0.0000000E+00   0.0000000E+00   0.0000000E+00   0.0000000E+00   0.0000000E+00   0.0000000E+00   0.0000000E+00   0.0000000E+00   0.0000000E+00   0.0000000E+00   0.0000000E+00   0.0000000E+00   0.0000000E+00   0.0000000E+00   0.0000000E+00   0.0000000E+00   0.0000000E+00   0.0000000E+00   0.0000000E+00   0.0000000E+00   0.0000000E+00   0.0000000E+00   0.0000000E+00   0.0000000E+00   0.0000000E+00   0.0000000E+00   0.0000000E+00   0.0000000E+00   0.0000000E+00   0.0000000E+00   0.0000000E+00   0.0000000E+00   0.0000000E+00   0.0000000E+00   0.0000000E+00   0.0000000E+00   0.0000000E+00   0.0000000E+00   0.0000000E+00   0.0000000E+00   0.0000000E+00   0.0000000E+00   0.0000000E+00   0.0000000E+00   0.0000000E+00   0.0000000E+00   0.0000000E+00   0.0000000E+00   0.0000000E+00   0.0000000E+00   0.0000000E+00   0.0000000E+00   0.0000000E+00   0.0000000E+00   0.0000000E+00   0.0000000E+00   0.0000000E+00   0.0000000E+00   0.0000000E+00   0.0000000E+00   0.0000000E+00   0.0000000E+00   0.0000000E+00   0.0000000E+00   0.0000000E+00   0.0000000E+00   0.0000000E+00   0.0000000E+00   0.0000000E+00   0.0000000E+00   0.0000000E+00   0.0000000E+00   0.0000000E+00   0.0000000E+00   0.0000000E+00   0.0000000E+00   0.0000000E+00   0.0000000E+00   0.0000000E+00   0.0000000E+00   0.0000000E+00   0.0000000E+00   0.0000000E+00   0.0000000E+00   0.0000000E+00   0.0000000E+00   0.0000000E+00   0.0000000E+00   0.0000000E+00   0.0000000E+00   0.0000000E+00   0.0000000E+00   0.0000000E+00   0.0000000E+00   0.0000000E+00   0.0000000E+00   0.0000000E+00   0.0000000E+00   0.0000000E+00   0.0000000E+00   0.0000000E+00   0.0000000E+00   0.0000000E+00   0.0000000E+00   0.0000000E+00   0.0000000E+00   0.0000000E+00   0.0000000E+00   0.0000000E+00   0.0000000E+00   0.0000000E+00   0.0000000E+00   0.0000000E+00   0.0000000E+00   0.0000000E+00   0.0000000E+00   0.0000000E+00   0.0000000E+00   0.0000000E+00   0.0000000E+00   0.0000000E+00   0.0000000E+00   0.0000000E+00   0.0000000E+00   0.0000000E+00   0.0000000E+00   0.0000000E+00   0.0000000E+00   0.0000000E+00   0.0000000E+00   0.0000000E+00   0.0000000E+00   0.0000000E+00   0.0000000E+00   0.0000000E+00   0.0000000E+00   0.0000000E+00   0.0000000E+00   0.0000000E+00   0.0000000E+00   0.0000000E+00   0.0000000E+00   0.0000000E+00   0.0000000E+00   0.0000000E+00   0.0000000E+00   0.0000000E+00   0.0000000E+00   0.0000000E+00   0.0000000E+00   0.0000000E+00   0.0000000E+00   0.0000000E+00   0.0000000E+00   0.0000000E+00   0.0000000E+00   0.0000000E+00   0.0000000E+00   0.0000000E+00   0.0000000E+00   0.0000000E+00   0.0000000E+00   0.0000000E+00   0.0000000E+00   0.0000000E+00   0.0000000E+00   0.0000000E+00   0.0000000E+00   0.0000000E+00   0.0000000E+00   0.0000000E+00   0.0000000E+00   0.0000000E+00   0.0000000E+00   0.0000000E+00   0.0000000E+00   0.0000000E+00   0.0000000E+00   0.0000000E+00   0.0000000E+00   0.0000000E+00   0.0000000E+00   0.0000000E+00   0.0000000E+00   0.0000000E+00   0.0000000E+00   0.0000000E+00   0.0000000E+00   0.0000000E+00   0.0000000E+00   0.0000000E+00   0.0000000E+00   0.0000000E+00   0.0000000E+00   0.0000000E+00   0.0000000E+00   0.0000000E+00   0.0000000E+00   0.0000000E+00   8.1595009E+01   2.9832060E+01   2.2203274E+01   6.2564148E+01   8.6933472E+01   1.5056277E+02   1.0421901E+02   3.6324558E+01   3.0387890E+01   8.1566879E+01   1.1223257E+02   1.8128355E+02   1.2126020E+02   3.9460255E+01   3.9010620E+01   9.8356972E+01   1.3342815E+02   2.0263812E+02   1.3137407E+02   3.8648029E+01   4.8056847E+01   1.1228099E+02   1.4933682E+02   2.1542519E+02   1.3493639E+02   3.4154583E+01   5.7488167E+01   1.2349963E+02   1.6033722E+02   2.5356152E+02   1.5466971E+02   4.4991226E+01   6.8116562E+01   1.3272563E+02   1.6785023E+02   5.6928571E+02   3.8120169E+02   1.8143222E+02   1.0108536E+02   1.4288678E+02   1.7473880E+02   1.5386379E+03   1.0784812E+03   5.6119067E+02   2.3449228E+02   1.6674294E+02   1.8701289E+02   3.4696995E+03   2.4212847E+03   1.2764058E+03   5.1948938E+02   2.3533110E+02   2.1544098E+02   6.3255571E+03   4.3298213E+03   2.2601567E+03   9.1907715E+02   3.6314761E+02   2.7479944E+02   9.0979580E+03   6.1663091E+03   3.1757058E+03   1.2941855E+03   5.2122028E+02   3.7876785E+02   1.0411313E+04   6.9735342E+03   3.5582959E+03   1.4734087E+03   6.8112866E+02   5.3753015E+02   9.7755615E+03   6.3553896E+03   3.2086357E+03   1.4278708E+03   8.6983447E+02   7.5762323E+02   7.2260605E+03   4.6713276E+03   2.4465674E+03   1.3927571E+03   1.1406449E+03   1.0343766E+03   4.5490322E+03   3.1202656E+03   2.0118076E+03   1.6168983E+03   1.4836145E+03   1.3486636E+03   3.2520874E+03   2.6466306E+03   2.1905413E+03   1.9919385E+03   1.8439219E+03   1.6775376E+03   3.1184209E+03   2.8143127E+03   2.5370649E+03   2.3577246E+03   2.1895168E+03   2.0070514E+03   3.2719712E+03   3.0547102E+03   2.8434194E+03   2.6872417E+03   2.5203457E+03   2.3344221E+03   3.4810247E+03   3.2964834E+03   3.1307986E+03   3.0068694E+03   2.8497410E+03   2.6640251E+03   3.7547932E+03   3.5791672E+03   3.4407898E+03   3.3418564E+03   3.1912302E+03   3.0034592E+03   4.1009556E+03   3.9209661E+03   3.7946716E+03   3.7079395E+03   3.5550735E+03   3.3589417E+03   4.5224248E+03   4.3295386E+03   4.2010771E+03   4.1106450E+03   3.9443484E+03   3.7319438E+03   5.0208457E+03   4.8043271E+03   4.6533643E+03   4.5428892E+03   4.3536479E+03   4.1185410E+03   5.5964229E+03   5.3316973E+03   5.1277983E+03   4.9867041E+03   4.7716655E+03   4.5121753E+03   6.2305674E+03   5.8755659E+03   5.5839072E+03   5.4194536E+03   5.1888691E+03   4.9105366E+03   6.8787549E+03   6.3760840E+03   5.9760776E+03   5.8314766E+03   5.6124390E+03   5.3272764E+03   7.4742378E+03   6.7725659E+03   6.2872598E+03   6.2537319E+03   6.0876138E+03   5.8084746E+03   7.9335161E+03   7.0238301E+03   6.5610127E+03   6.7776958E+03   6.7144746E+03   6.4477192E+03   8.2102920E+03   7.1725889E+03   6.9253569E+03   7.5533447E+03   7.6423652E+03   7.3831089E+03   8.3868184E+03   7.4074541E+03   7.5914199E+03   8.7391982E+03   9.0144551E+03   8.7605908E+03   8.8390283E+03   8.1587666E+03   8.8429863E+03   1.0392183E+04   1.0878742E+04   1.0660744E+04   1.0418976E+04   1.0219528E+04   1.0803203E+04   1.2422953E+04   1.3149342E+04   1.3043384E+04   1.3954859E+04   1.4119090E+04   1.4150542E+04   1.4885020E+04   1.5602561E+04   1.5722611E+04   1.8518359E+04   1.9053213E+04   1.8708984E+04   1.8021736E+04   1.8115260E+04   1.8408563E+04   2.1151305E+04   2.2271756E+04   2.2279402E+04   2.1071348E+04   2.0408904E+04   2.0782305E+04   2.1617178E+04   2.3059258E+04   2.3995791E+04   2.3281311E+04   2.2329271E+04   2.2645324E+04   2.0721057E+04   2.2110918E+04   2.3992504E+04   2.4188365E+04   2.3567586E+04   2.3941250E+04   1.9644057E+04   2.0864895E+04   2.2082857E+04   2.3051709E+04   2.3407807E+04   2.4385316E+04   1.9450682E+04   2.0621443E+04   2.0820189E+04   2.2195613E+04   2.3232998E+04   2.4610830E+04   2.0102762E+04   2.1254043E+04   2.0926875E+04   2.2102824E+04   2.3355170E+04   2.4853934E+04   2.0967262E+04   2.2138172E+04   2.1749221E+04   2.2626951E+04   2.3744334E+04   2.5134686E+04   2.1614838E+04   2.2842148E+04   2.2677893E+04   2.3409086E+04   2.4194863E+04   2.5353805E+04   2.1542953E+04   2.2841451E+04   2.3005730E+04   2.3823959E+04   2.4402305E+04   2.5376211E+04   2.0953176E+04   2.2281756E+04   2.2730293E+04   2.3715482E+04   2.4232613E+04   2.5109229E+04   2.0167881E+04   2.1441639E+04   2.2047451E+04   2.3149014E+04   2.3686303E+04   2.4528529E+04   1.9349891E+04   2.0539510E+04   2.1130262E+04   2.2199324E+04   2.2798504E+04   2.3659305E+04   1.8520883E+04   1.9618420E+04   1.9997029E+04   2.0942842E+04   2.1615688E+04   2.2544828E+04   1.7695094E+04   1.8636486E+04   1.8689752E+04   1.9425063E+04   2.0291496E+04   2.1238773E+04   1.6686219E+04   1.7493479E+04   1.7197213E+04   1.7973268E+04   1.8907438E+04   1.9765545E+04   1.5295438E+04   1.6004845E+04   1.5593040E+04   1.6600121E+04   1.7370654E+04   1.8137107E+04   1.3484363E+04   1.4146134E+04   1.3975806E+04   1.5104391E+04   1.5706949E+04   1.6398676E+04   1.1325416E+04   1.2053470E+04   1.2397316E+04   1.3560523E+04   1.4061830E+04   1.4632730E+04   8.8801533E+03   1.0052004E+04   1.1026254E+04   1.2134701E+04   1.2538649E+04   1.2923021E+04   7.5111880E+03   8.9797715E+03   1.0040182E+04   1.1034173E+04   1.1273631E+04   1.1387913E+04   8.7147324E+03   8.2569248E+03   9.5756934E+03   1.0424254E+04   1.0482890E+04   1.0165171E+04   6.8790054E+03   9.3050898E+03   1.0310794E+04   1.0258851E+04   9.4348379E+03   5.6503735E+03   8.4766563E+03   1.0219197E+04   1.0423985E+04   9.2854482E+03   6.1078755E+03   9.4147217E+03   1.0510651E+04   9.5763818E+03   4.9308232E+03   7.1484302E+03   9.7092148E+03   9.7898955E+03   3.9860281E+03   7.2387070E+03   9.1048330E+03   3.5408569E+03   6.6417383E+03   5.6700522E+03   3.0652769E+03   9.6656212E+01   9.6165276E+01   9.0156898E+01   8.1716331E+01   7.2666550E+01   6.4155029E+01   5.6938332E+01   5.1495235E+01   4.8121082E+01   1.2431606E+02   1.2350723E+02   1.1579116E+02   1.0501109E+02   9.3361252E+01   8.2341331E+01   7.2965675E+01   6.5882256E+01   6.1487740E+01   1.4691899E+02   1.4568987E+02   1.3672380E+02   1.2428191E+02   1.1071430E+02   9.7790154E+01   8.6746170E+01   7.8382385E+01   7.3187263E+01   1.6298492E+02   1.6120618E+02   1.5162383E+02   1.3843643E+02   1.2389654E+02   1.0992077E+02   9.7905968E+01   8.8773224E+01   8.3089355E+01   1.7307013E+02   1.7073943E+02   1.6126097E+02   1.4829794E+02   1.3379323E+02   1.1966695E+02   1.0740896E+02   9.8034431E+01   9.2180069E+01   1.7923929E+02   1.7672876E+02   1.6814815E+02   1.5636714E+02   1.4283595E+02   1.2936072E+02   1.1747905E+02   1.0829639E+02   1.0252634E+02   1.8484328E+02   1.8287883E+02   1.7607034E+02   1.6639388E+02   1.5463283E+02   1.4241533E+02   1.3132971E+02   1.2260421E+02   1.1706225E+02   1.9523805E+02   1.9416098E+02   1.8986496E+02   1.8303400E+02   1.7359711E+02   1.6296864E+02   1.5283586E+02   1.4461833E+02   1.3930893E+02   2.1895477E+02   2.1757066E+02   2.1559665E+02   2.1172902E+02   2.0468904E+02   1.9557884E+02   1.8622632E+02   1.7832129E+02   1.7309599E+02   2.6788406E+02   2.6260843E+02   2.6079706E+02   2.5868921E+02   2.5323804E+02   2.4496962E+02   2.3580457E+02   2.2773697E+02   2.2228700E+02   3.5547888E+02   3.4020258E+02   3.3390134E+02   3.3048080E+02   3.2454932E+02   3.1563376E+02   3.0555371E+02   2.9654233E+02   2.9039667E+02   4.9305753E+02   4.5997830E+02   4.4259119E+02   4.3300775E+02   4.2320956E+02   4.1129752E+02   3.9868060E+02   3.8765228E+02   3.8019482E+02   6.8544788E+02   6.2706757E+02   5.9165137E+02   5.7019250E+02   5.5227899E+02   5.3438965E+02   5.1722211E+02   5.0289130E+02   4.9340704E+02   9.2818622E+02   8.4004169E+02   7.8135822E+02   7.4288745E+02   7.1262061E+02   6.8562476E+02   6.6176624E+02   6.4277832E+02   6.3052557E+02   1.2087501E+03   1.0913053E+03   1.0073384E+03   9.4858759E+02   9.0266095E+02   8.6385828E+02   8.3137024E+02   8.0647455E+02   7.9076581E+02   1.5120449E+03   1.3699697E+03   1.2620874E+03   1.1821686E+03   1.1187760E+03   1.0663325E+03   1.0237505E+03   9.9194476E+02   9.7221387E+02   1.8262770E+03   1.6658231E+03   1.5374783E+03   1.4374332E+03   1.3562446E+03   1.2893082E+03   1.2357585E+03   1.1963666E+03   1.1722064E+03   2.1455620E+03   1.9722104E+03   1.8270863E+03   1.7088328E+03   1.6104878E+03   1.5289867E+03   1.4641251E+03   1.4167964E+03   1.3879713E+03   2.4700469E+03   2.2866912E+03   2.1273381E+03   1.9927233E+03   1.8782493E+03   1.7825859E+03   1.7064797E+03   1.6511658E+03   1.6176216E+03   2.8031782E+03   2.6098643E+03   2.4374292E+03   2.2879568E+03   2.1585798E+03   2.0495500E+03   1.9626759E+03   1.8996675E+03   1.8615688E+03   3.1483000E+03   2.9434734E+03   2.7586697E+03   2.5961868E+03   2.4538210E+03   2.3329600E+03   2.2364265E+03   2.1664783E+03   2.1242729E+03   3.5063420E+03   3.2891191E+03   3.0942405E+03   2.9225190E+03   2.7708792E+03   2.6411641E+03   2.5370977E+03   2.4615984E+03   2.4160728E+03   3.8756660E+03   3.6486550E+03   3.4501526E+03   3.2768960E+03   3.1228376E+03   2.9894355E+03   2.8813176E+03   2.8024001E+03   2.7546897E+03   4.2547397E+03   4.0267102E+03   3.8375261E+03   3.6760359E+03   3.5304868E+03   3.4011328E+03   3.2938528E+03   3.2143113E+03   3.1658010E+03   4.6478042E+03   4.4349141E+03   4.2753408E+03   4.1449053E+03   4.0228496E+03   3.9075667E+03   3.8070613E+03   3.7300215E+03   3.6821230E+03   5.0732397E+03   4.8968867E+03   4.7923853E+03   4.7164326E+03   4.6355347E+03   4.5456606E+03   4.4582471E+03   4.3867485E+03   4.3406782E+03   5.5747217E+03   5.4536479E+03   5.4278843E+03   5.4290073E+03   5.4065625E+03   5.3531064E+03   5.2847192E+03   5.2214316E+03   5.1781396E+03   6.2330303E+03   6.1702729E+03   6.2323887E+03   6.3232700E+03   6.3712134E+03   6.3626255E+03   6.3181563E+03   6.2654556E+03   6.2259131E+03   7.1678003E+03   7.1396772E+03   7.2706807E+03   7.4423970E+03   7.5604312E+03   7.5999980E+03   7.5830464E+03   7.5437803E+03   7.5097959E+03   8.5146348E+03   8.4736855E+03   8.6237930E+03   8.8393369E+03   9.0088926E+03   9.0918213E+03   9.1043799E+03   9.0827451E+03   9.0579717E+03   1.0372760E+04   1.0271747E+04   1.0378595E+04   1.0582424E+04   1.0768351E+04   1.0880854E+04   1.0922745E+04   1.0924339E+04   1.0914592E+04   1.2748468E+04   1.2573498E+04   1.2594567E+04   1.2737936E+04   1.2902961E+04   1.3027438E+04   1.3097593E+04   1.3129605E+04   1.3142758E+04   1.5515398E+04   1.5314292E+04   1.5259448E+04   1.5330409E+04   1.5457304E+04   1.5584319E+04   1.5685434E+04   1.5758184E+04   1.5804532E+04   1.8413838E+04   1.8304668E+04   1.8254211E+04   1.8297574E+04   1.8406980E+04   1.8548064E+04   1.8693127E+04   1.8822307E+04   1.8915105E+04   2.1109262E+04   2.1252775E+04   2.1346354E+04   2.1460242E+04   2.1613115E+04   2.1804949E+04   2.2019469E+04   2.2225635E+04   2.2379725E+04   2.3302762E+04   2.3835313E+04   2.4222996E+04   2.4526797E+04   2.4806146E+04   2.5101414E+04   2.5418576E+04   2.5723623E+04   2.5952359E+04   2.4850535E+04   2.5803227E+04   2.6571404E+04   2.7154096E+04   2.7633594E+04   2.8084791E+04   2.8538582E+04   2.8963400E+04   2.9278232E+04   2.5736354E+04   2.7080303E+04   2.8196887E+04   2.9067662E+04   2.9776094E+04   3.0413896E+04   3.1027248E+04   3.1584998E+04   3.1991709E+04   2.6216545E+04   2.7770826E+04   2.9109779E+04   3.0200160E+04   3.1108016E+04   3.1922150E+04   3.2690059E+04   3.3375027E+04   3.3867934E+04   2.6489004E+04   2.8065324E+04   2.9476373E+04   3.0677266E+04   3.1710115E+04   3.2649740E+04   3.3534980E+04   3.4318516E+04   3.4878301E+04   2.6652799E+04   2.8126314E+04   2.9489281E+04   3.0692771E+04   3.1759824E+04   3.2751271E+04   3.3694742E+04   3.4531266E+04   3.5128227E+04   2.6707703E+04   2.8032531E+04   2.9282592E+04   3.0411439E+04   3.1433961E+04   3.2404021E+04   3.3342191E+04   3.4181395E+04   3.4782762E+04   2.6591688E+04   2.7782449E+04   2.8906754E+04   2.9923691E+04   3.0850682E+04   3.1743813E+04   3.2623900E+04   3.3422512E+04   3.3999781E+04   2.6236539E+04   2.7333010E+04   2.8348867E+04   2.9248189E+04   3.0057510E+04   3.0842160E+04   3.1630412E+04   3.2359309E+04   3.2892848E+04   2.5606309E+04   2.6642490E+04   2.7573217E+04   2.8364951E+04   2.9055006E+04   2.9721191E+04   3.0403490E+04   3.1048887E+04   3.1528982E+04   2.4705256E+04   2.5697170E+04   2.6558342E+04   2.7255590E+04   2.7835453E+04   2.8387543E+04   2.8964014E+04   2.9523686E+04   2.9947947E+04   2.3564100E+04   2.4514232E+04   2.5313119E+04   2.5927605E+04   2.6410162E+04   2.6858975E+04   2.7336508E+04   2.7813537E+04   2.8182615E+04   2.2220949E+04   2.3126611E+04   2.3868258E+04   2.4411768E+04   2.4811438E+04   2.5169576E+04   2.5556326E+04   2.5954133E+04   2.6268328E+04   2.0702531E+04   2.1564715E+04   2.2258820E+04   2.2747217E+04   2.3081715E+04   2.3363955E+04   2.3668994E+04   2.3990770E+04   2.4249777E+04   1.9026910E+04   1.9852539E+04   2.0514781E+04   2.0969473E+04   2.1261572E+04   2.1487270E+04   2.1723215E+04   2.1974314E+04   2.2179023E+04   1.7220893E+04   1.8013588E+04   1.8659213E+04   1.9103123E+04   1.9379184E+04   1.9572777E+04   1.9757680E+04   1.9948166E+04   2.0102744E+04   1.5341091E+04   1.6080896E+04   1.6714492E+04   1.7164506E+04   1.7449314E+04   1.7637570E+04   1.7794186E+04   1.7939885E+04   1.8053135E+04   1.3466424E+04   1.4106786E+04   1.4710963E+04   1.5170712E+04   1.5480987E+04   1.5687797E+04   1.5840513E+04   1.5961827E+04   1.6047018E+04   1.1687440E+04   1.2166112E+04   1.2698831E+04   1.3153492E+04   1.3490646E+04   1.3729237E+04   1.3898238E+04   1.4016525E+04   1.4089727E+04   1.0102307E+04   1.0351403E+04   1.0755885E+04   1.1169616E+04   1.1515298E+04   1.1781428E+04   1.1975197E+04   1.2106121E+04   1.2181792E+04   8.8353838E+03   8.7547471E+03   8.9770254E+03   9.2983516E+03   9.6168164E+03   9.8879434E+03   1.0098203E+04   1.0244507E+04   1.0329389E+04   8.0683071E+03   7.4904150E+03   7.4496699E+03   7.6278145E+03   7.8716587E+03   8.1128667E+03   8.3165449E+03   8.4662979E+03   8.5562598E+03   7.9547163E+03   6.7528101E+03   6.2711270E+03   6.2310410E+03   6.3541680E+03   6.5247178E+03   6.6911953E+03   6.8237217E+03   6.9069683E+03   8.3317510E+03   6.7173818E+03   5.6299482E+03   5.1907085E+03   5.1194419E+03   5.1815967E+03   5.2797515E+03   5.3722158E+03   5.4352124E+03   8.6392607E+03   7.1431943E+03   5.6646206E+03   4.6813779E+03   4.2420923E+03   4.1218379E+03   4.1234893E+03   4.1580908E+03   4.1893325E+03   7.9833799E+03   7.4070845E+03   6.0198706E+03   4.7153174E+03   3.8294268E+03   3.3929624E+03   3.2402356E+03   3.2027583E+03   3.1980520E+03   5.4422261E+03   6.5065439E+03   6.0020342E+03   4.8302983E+03   3.7281582E+03   2.9879036E+03   2.6281516E+03   2.4990383E+03   2.4586440E+03   2.3563381E+03   3.7287725E+03   4.6439067E+03   4.3786025E+03   3.5306660E+03   2.7138726E+03   2.2213020E+03   2.0144724E+03   1.9456266E+03   2.0209401E+03   2.1493269E+03   2.7031111E+03   2.6627441E+03   2.2257297E+03   1.8185262E+03   1.6082030E+03   1.5359316E+03   1.5224198E+03   1.5018925E+03   1.4761901E+03   1.3456268E+03   1.2269484E+03   1.1625762E+03   1.3740652E+03   1.2411504E+03   1.1680570E+03   1.1236222E+03   4.6978851E+01   4.8121082E+01   5.1495251E+01   5.6938343E+01   6.4155052E+01   7.2666557E+01   8.1716362E+01   9.0156921E+01   5.9999699E+01   6.1487732E+01   6.5882278E+01   7.2965698E+01   8.2341354E+01   9.3361290E+01   1.0501112E+02   1.1579116E+02   7.1427307E+01   7.3187271E+01   7.8382401E+01   8.6746193E+01   9.7790192E+01   1.1071433E+02   1.2428192E+02   1.3672382E+02   8.1162193E+01   8.3089363E+01   8.8773239E+01   9.7905991E+01   1.0992081E+02   1.2389656E+02   1.3843643E+02   1.5162384E+02   9.0192162E+01   9.2180084E+01   9.8034454E+01   1.0740897E+02   1.1966698E+02   1.3379326E+02   1.4829797E+02   1.6126099E+02   1.0056187E+02   1.0252635E+02   1.0829640E+02   1.1747909E+02   1.2936072E+02   1.4283598E+02   1.5636716E+02   1.6814815E+02   1.1516626E+02   1.1706225E+02   1.2260421E+02   1.3132973E+02   1.4241536E+02   1.5463286E+02   1.6639389E+02   1.7607033E+02   1.3747823E+02   1.3930893E+02   1.4461832E+02   1.5283591E+02   1.6296866E+02   1.7359714E+02   1.8303404E+02   1.8986496E+02   1.7127577E+02   1.7309604E+02   1.7832133E+02   1.8622638E+02   1.9557890E+02   2.0468904E+02   2.1172905E+02   2.1559665E+02   2.2036995E+02   2.2228697E+02   2.2773701E+02   2.3580457E+02   2.4496964E+02   2.5323801E+02   2.5868921E+02   2.6079709E+02   2.8822476E+02   2.9039667E+02   2.9654236E+02   3.0555380E+02   3.1563379E+02   3.2454941E+02   3.3048077E+02   3.3390134E+02   3.7756662E+02   3.8019482E+02   3.8765234E+02   3.9868060E+02   4.1129755E+02   4.2320956E+02   4.3300775E+02   4.4259122E+02   4.9009314E+02   4.9340704E+02   5.0289145E+02   5.1722211E+02   5.3438971E+02   5.5227911E+02   5.7019244E+02   5.9165137E+02   6.2629108E+02   6.3052557E+02   6.4277838E+02   6.6176624E+02   6.8562476E+02   7.1262054E+02   7.4288733E+02   7.8135815E+02   7.8539282E+02   7.9076563E+02   8.0647461E+02   8.3137024E+02   8.6385840E+02   9.0266089E+02   9.4858716E+02   1.0073384E+03   9.6552173E+02   9.7221399E+02   9.9194501E+02   1.0237506E+03   1.0663323E+03   1.1187758E+03   1.1821683E+03   1.2620869E+03   1.1640610E+03   1.1722064E+03   1.1963666E+03   1.2357587E+03   1.2893082E+03   1.3562441E+03   1.4374323E+03   1.5374775E+03   1.3782909E+03   1.3879717E+03   1.4167968E+03   1.4641256E+03   1.5289867E+03   1.6104873E+03   1.7088320E+03   1.8270852E+03   1.6063851E+03   1.6176216E+03   1.6511665E+03   1.7064796E+03   1.7825858E+03   1.8782485E+03   1.9927224E+03   2.1273367E+03   1.8488313E+03   1.8615688E+03   1.8996675E+03   1.9626759E+03   2.0495500E+03   2.1585789E+03   2.2879558E+03   2.4374275E+03   2.1101848E+03   2.1242734E+03   2.1664790E+03   2.2364275E+03   2.3329600E+03   2.4538201E+03   2.5961855E+03   2.7586682E+03   2.4008901E+03   2.4160737E+03   2.4615989E+03   2.5370986E+03   2.6411641E+03   2.7708782E+03   2.9225176E+03   3.0942388E+03   2.7387681E+03   2.7546904E+03   2.8024009E+03   2.8813186E+03   2.9894368E+03   3.1228374E+03   3.2768953E+03   3.4501509E+03   3.1495522E+03   3.1658013E+03   3.2143127E+03   3.2938540E+03   3.4011333E+03   3.5304868E+03   3.6760352E+03   3.8375247E+03   3.6659409E+03   3.6821243E+03   3.7300222E+03   3.8070620E+03   3.9075676E+03   4.0228496E+03   4.1449048E+03   4.2753394E+03   4.3248672E+03   4.3406797E+03   4.3867500E+03   4.4582476E+03   4.5456611E+03   4.6355347E+03   4.7164321E+03   4.7923843E+03   5.1629082E+03   5.1781411E+03   5.2214321E+03   5.2847212E+03   5.3531064E+03   5.4065625E+03   5.4290078E+03   5.4278838E+03   6.2115103E+03   6.2259141E+03   6.2654570E+03   6.3181577E+03   6.3626270E+03   6.3712129E+03   6.3232700E+03   6.2323872E+03   7.4968516E+03   7.5097959E+03   7.5437817E+03   7.5830469E+03   7.5999990E+03   7.5604312E+03   7.4423984E+03   7.2706807E+03   9.0479082E+03   9.0579717E+03   9.0827451E+03   9.1043809E+03   9.0918223E+03   9.0088936E+03   8.8393369E+03   8.6237930E+03   1.0909788E+04   1.0914595E+04   1.0924341E+04   1.0922746E+04   1.0880855E+04   1.0768350E+04   1.0582423E+04   1.0378593E+04   1.3146483E+04   1.3142758E+04   1.3129605E+04   1.3097593E+04   1.3027437E+04   1.2902960E+04   1.2737935E+04   1.2594568E+04   1.5820984E+04   1.5804534E+04   1.5758181E+04   1.5685434E+04   1.5584321E+04   1.5457304E+04   1.5330409E+04   1.5259442E+04   1.8949471E+04   1.8915105E+04   1.8822307E+04   1.8693127E+04   1.8548066E+04   1.8406984E+04   1.8297578E+04   1.8254213E+04   2.2437541E+04   2.2379725E+04   2.2225641E+04   2.2019471E+04   2.1804949E+04   2.1613115E+04   2.1460242E+04   2.1346352E+04   2.6038201E+04   2.5952357E+04   2.5723627E+04   2.5418576E+04   2.5101418E+04   2.4806145E+04   2.4526795E+04   2.4222996E+04   2.9395777E+04   2.9278227E+04   2.8963400E+04   2.8538582E+04   2.8084789E+04   2.7633588E+04   2.7154094E+04   2.6571408E+04   3.2142436E+04   3.1991705E+04   3.1584998E+04   3.1027244E+04   3.0413891E+04   2.9776094E+04   2.9067670E+04   2.8196887E+04   3.4049477E+04   3.3867941E+04   3.3375020E+04   3.2690059E+04   3.1922152E+04   3.1108021E+04   3.0200160E+04   2.9109785E+04   3.5083715E+04   3.4878297E+04   3.4318516E+04   3.3534980E+04   3.2649736E+04   3.1710119E+04   3.0677268E+04   2.9476375E+04   3.5347105E+04   3.5128223E+04   3.4531262E+04   3.3694742E+04   3.2751260E+04   3.1759826E+04   3.0692775E+04   2.9489289E+04   3.5003676E+04   3.4782754E+04   3.4181387E+04   3.3342184E+04   3.2404021E+04   3.1433961E+04   3.0411441E+04   2.9282592E+04   3.4212719E+04   3.3999777E+04   3.3422516E+04   3.2623898E+04   3.1743811E+04   3.0850693E+04   2.9923684E+04   2.8906754E+04   3.3090859E+04   3.2892852E+04   3.2359307E+04   3.1630412E+04   3.0842160E+04   3.0057514E+04   2.9248197E+04   2.8348865E+04   3.1708525E+04   3.1528984E+04   3.1048885E+04   3.0403479E+04   2.9721193E+04   2.9055002E+04   2.8364959E+04   2.7573219E+04   3.0108047E+04   2.9947943E+04   2.9523680E+04   2.8964016E+04   2.8387537E+04   2.7835447E+04   2.7255598E+04   2.6558342E+04   2.8323225E+04   2.8182609E+04   2.7813537E+04   2.7336508E+04   2.6858971E+04   2.6410162E+04   2.5927605E+04   2.5313119E+04   2.6389193E+04   2.6268322E+04   2.5954129E+04   2.5556324E+04   2.5169570E+04   2.4811432E+04   2.4411766E+04   2.3868254E+04   2.4350332E+04   2.4249773E+04   2.3990762E+04   2.3668994E+04   2.3363955E+04   2.3081715E+04   2.2747217E+04   2.2258820E+04   2.2259023E+04   2.2179018E+04   2.1974316E+04   2.1723217E+04   2.1487266E+04   2.1261570E+04   2.0969475E+04   2.0514785E+04   2.0163234E+04   2.0102744E+04   1.9948164E+04   1.9757678E+04   1.9572775E+04   1.9379180E+04   1.9103123E+04   1.8659211E+04   1.8096861E+04   1.8053131E+04   1.7939889E+04   1.7794186E+04   1.7637566E+04   1.7449314E+04   1.7164506E+04   1.6714494E+04   1.6078529E+04   1.6047013E+04   1.5961827E+04   1.5840511E+04   1.5687795E+04   1.5480987E+04   1.5170712E+04   1.4710964E+04   1.4114978E+04   1.4089725E+04   1.4016526E+04   1.3898236E+04   1.3729236E+04   1.3490648E+04   1.3153491E+04   1.2698831E+04   1.2206598E+04   1.2181794E+04   1.2106121E+04   1.1975199E+04   1.1781427E+04   1.1515296E+04   1.1169615E+04   1.0755885E+04   1.0357044E+04   1.0329388E+04   1.0244507E+04   1.0098201E+04   9.8879434E+03   9.6168154E+03   9.2983516E+03   8.9770264E+03   8.5860781E+03   8.5562588E+03   8.4662959E+03   8.3165449E+03   8.1128682E+03   7.8716587E+03   7.6278145E+03   7.4496689E+03   6.9351802E+03   6.9069658E+03   6.8237197E+03   6.6911953E+03   6.5247178E+03   6.3541685E+03   6.2310405E+03   6.2711265E+03   5.4573350E+03   5.4352124E+03   5.3722139E+03   5.2797505E+03   5.1815947E+03   5.1194414E+03   5.1907070E+03   5.6299478E+03   4.2013125E+03   4.1893320E+03   4.1580898E+03   4.1234873E+03   4.1218379E+03   4.2420933E+03   4.6813784E+03   5.6646206E+03   3.1984446E+03   3.1980505E+03   3.2027571E+03   3.2402349E+03   3.3929622E+03   3.8294263E+03   4.7153174E+03   6.0198721E+03   2.4491221E+03   2.4586438E+03   2.4990374E+03   2.6281506E+03   2.9879028E+03   3.7281570E+03   4.8302988E+03   6.0020352E+03   1.9294340E+03   1.9456257E+03   2.0144716E+03   2.2213008E+03   2.7138721E+03   3.5306658E+03   4.3786025E+03   4.6439067E+03   1.5202263E+03   1.5359310E+03   1.6082024E+03   1.8185254E+03   2.2257288E+03   2.6627434E+03   2.7031111E+03   2.1493271E+03   1.1433231E+03   1.1625757E+03   1.2269474E+03   1.3456266E+03   1.4761896E+03   1.5018916E+03   1.5224196E+03   1.1078749E+03   1.1236222E+03   1.1680564E+03   1.2411493E+03   1.3740643E+03   9.6165276E+01   9.6656212E+01   8.6933472E+01   6.2564152E+01   2.2203291E+01   2.9832060E+01   8.1595032E+01   1.2350723E+02   1.2431606E+02   1.1223259E+02   8.1566895E+01   3.0387911E+01   3.6324554E+01   1.0421899E+02   1.5056277E+02   1.4568987E+02   1.4691902E+02   1.3342816E+02   9.8356995E+01   3.9010643E+01   3.9460228E+01   1.2126020E+02   1.8128355E+02   1.6120618E+02   1.6298497E+02   1.4933690E+02   1.1228101E+02   4.8056904E+01   3.8647991E+01   1.3137405E+02   2.0263808E+02   1.7073947E+02   1.7307019E+02   1.6033727E+02   1.2349965E+02   5.7488228E+01   3.4154537E+01   1.3493639E+02   2.1542516E+02   1.7672878E+02   1.7923933E+02   1.6785030E+02   1.3272568E+02   6.8116608E+01   4.4991219E+01   1.5466960E+02   2.5356161E+02   1.8287886E+02   1.8484331E+02   1.7473885E+02   1.4288686E+02   1.0108540E+02   1.8143222E+02   3.8120169E+02   5.6928583E+02   1.9416096E+02   1.9523810E+02   1.8701295E+02   1.6674298E+02   2.3449231E+02   5.6119067E+02   1.0784817E+03   1.5386379E+03   2.1757071E+02   2.1895485E+02   2.1544104E+02   2.3533113E+02   5.1948944E+02   1.2764058E+03   2.4212847E+03   3.4696995E+03   2.6260846E+02   2.6788416E+02   2.7479947E+02   3.6314764E+02   9.1907733E+02   2.2601570E+03   4.3298218E+03   6.3255571E+03   3.4020255E+02   3.5547882E+02   3.7876794E+02   5.2122046E+02   1.2941853E+03   3.1757051E+03   6.1663105E+03   9.0979580E+03   4.5997827E+02   4.9305759E+02   5.3753021E+02   6.8112860E+02   1.4734087E+03   3.5582959E+03   6.9735332E+03   1.0411313E+04   6.2706763E+02   6.8544775E+02   7.5762335E+02   8.6983435E+02   1.4278706E+03   3.2086357E+03   6.3553901E+03   9.7755625E+03   8.4004175E+02   9.2818616E+02   1.0343765E+03   1.1406448E+03   1.3927570E+03   2.4465676E+03   4.6713276E+03   7.2260610E+03   1.0913052E+03   1.2087499E+03   1.3486633E+03   1.4836144E+03   1.6168984E+03   2.0118073E+03   3.1202656E+03   4.5490322E+03   1.3699694E+03   1.5120447E+03   1.6775375E+03   1.8439218E+03   1.9919385E+03   2.1905410E+03   2.6466311E+03   3.2520869E+03   1.6658221E+03   1.8262764E+03   2.0070510E+03   2.1895168E+03   2.3577241E+03   2.5370649E+03   2.8143127E+03   3.1184209E+03   1.9722095E+03   2.1455613E+03   2.3344211E+03   2.5203455E+03   2.6872422E+03   2.8434194E+03   3.0547102E+03   3.2719712E+03   2.2866895E+03   2.4700457E+03   2.6640247E+03   2.8497407E+03   3.0068699E+03   3.1307983E+03   3.2964829E+03   3.4810242E+03   2.6098630E+03   2.8031772E+03   3.0034583E+03   3.1912305E+03   3.3418572E+03   3.4407905E+03   3.5791672E+03   3.7547925E+03   2.9434722E+03   3.1482986E+03   3.3589412E+03   3.5550735E+03   3.7079402E+03   3.7946716E+03   3.9209666E+03   4.1009565E+03   3.2891179E+03   3.5063396E+03   3.7319424E+03   3.9443479E+03   4.1106460E+03   4.2010776E+03   4.3295396E+03   4.5224248E+03   3.6486533E+03   3.8756650E+03   4.1185396E+03   4.3536479E+03   4.5428896E+03   4.6533652E+03   4.8043267E+03   5.0208462E+03   4.0267085E+03   4.2547388E+03   4.5121753E+03   4.7716655E+03   4.9867041E+03   5.1277988E+03   5.3316982E+03   5.5964238E+03   4.4349131E+03   4.6478037E+03   4.9105352E+03   5.1888687E+03   5.4194536E+03   5.5839092E+03   5.8755669E+03   6.2305684E+03   4.8968862E+03   5.0732397E+03   5.3272764E+03   5.6124395E+03   5.8314771E+03   5.9760781E+03   6.3761055E+03   6.8787549E+03   5.4536465E+03   5.5747217E+03   5.8084751E+03   6.0876147E+03   6.2537324E+03   6.2872612E+03   6.7725659E+03   7.4742383E+03   6.1702729E+03   6.2330288E+03   6.4477202E+03   6.7144746E+03   6.7776973E+03   6.5610132E+03   7.0238296E+03   7.9335161E+03   7.1396782E+03   7.1677988E+03   7.3831089E+03   7.6423667E+03   7.5533438E+03   6.9253579E+03   7.1725874E+03   8.2102910E+03   8.4736865E+03   8.5146348E+03   8.7605898E+03   9.0144561E+03   8.7391973E+03   7.5914219E+03   7.4074541E+03   8.3868184E+03   1.0271747E+04   1.0372760E+04   1.0660742E+04   1.0878741E+04   1.0392183E+04   8.8429854E+03   8.1587666E+03   8.8390303E+03   1.2573497E+04   1.2748465E+04   1.3043385E+04   1.3149342E+04   1.2422954E+04   1.0803203E+04   1.0219529E+04   1.0418976E+04   1.5314295E+04   1.5515397E+04   1.5722611E+04   1.5602563E+04   1.4885017E+04   1.4150542E+04   1.4119090E+04   1.3954859E+04   1.8304664E+04   1.8413840E+04   1.8408559E+04   1.8115260E+04   1.8021738E+04   1.8708982E+04   1.9053213E+04   1.8518357E+04   2.1252771E+04   2.1109260E+04   2.0782305E+04   2.0408902E+04   2.1071344E+04   2.2279400E+04   2.2271752E+04   2.1151305E+04   2.3835311E+04   2.3302762E+04   2.2645328E+04   2.2329279E+04   2.3281307E+04   2.3995787E+04   2.3059256E+04   2.1617176E+04   2.5803225E+04   2.4850525E+04   2.3941252E+04   2.3567586E+04   2.4188363E+04   2.3992504E+04   2.2110912E+04   2.0721053E+04   2.7080307E+04   2.5736357E+04   2.4385320E+04   2.3407803E+04   2.3051709E+04   2.2082859E+04   2.0864893E+04   1.9644059E+04   2.7770826E+04   2.6216545E+04   2.4610834E+04   2.3233002E+04   2.2195615E+04   2.0820186E+04   2.0621439E+04   1.9450682E+04   2.8065330E+04   2.6489012E+04   2.4853934E+04   2.3355172E+04   2.2102824E+04   2.0926869E+04   2.1254039E+04   2.0102709E+04   2.8126320E+04   2.6652807E+04   2.5134693E+04   2.3744338E+04   2.2626951E+04   2.1749221E+04   2.2138176E+04   2.0967264E+04   2.8032535E+04   2.6707707E+04   2.5353803E+04   2.4194863E+04   2.3409078E+04   2.2677885E+04   2.2842150E+04   2.1614838E+04   2.7782451E+04   2.6591691E+04   2.5376207E+04   2.4402293E+04   2.3823953E+04   2.3005725E+04   2.2841449E+04   2.1542949E+04   2.7333014E+04   2.6236539E+04   2.5109225E+04   2.4232602E+04   2.3715482E+04   2.2730285E+04   2.2281752E+04   2.0953176E+04   2.6642490E+04   2.5606305E+04   2.4528527E+04   2.3686303E+04   2.3149014E+04   2.2047449E+04   2.1441641E+04   2.0167879E+04   2.5697164E+04   2.4705256E+04   2.3659303E+04   2.2798502E+04   2.2199320E+04   2.1130264E+04   2.0539514E+04   1.9349896E+04   2.4514232E+04   2.3564096E+04   2.2544824E+04   2.1615686E+04   2.0942846E+04   1.9997029E+04   1.9618422E+04   1.8520885E+04   2.3126613E+04   2.2220951E+04   2.1238768E+04   2.0291498E+04   1.9425064E+04   1.8689748E+04   1.8636490E+04   1.7695096E+04   2.1564719E+04   2.0702531E+04   1.9765541E+04   1.8907436E+04   1.7973268E+04   1.7197217E+04   1.7493479E+04   1.6686219E+04   1.9852539E+04   1.9026908E+04   1.8137107E+04   1.7370654E+04   1.6600127E+04   1.5593046E+04   1.6004852E+04   1.5295438E+04   1.8013592E+04   1.7220898E+04   1.6398676E+04   1.5706953E+04   1.5104401E+04   1.3975809E+04   1.4146137E+04   1.3484361E+04   1.6080897E+04   1.5341092E+04   1.4632733E+04   1.4061833E+04   1.3560525E+04   1.2397321E+04   1.2053466E+04   1.1325414E+04   1.4106787E+04   1.3466424E+04   1.2923023E+04   1.2538650E+04   1.2134705E+04   1.1026254E+04   1.0052008E+04   8.8801533E+03   1.2166113E+04   1.1687441E+04   1.1387916E+04   1.1273631E+04   1.1034176E+04   1.0040181E+04   8.9797734E+03   7.5111851E+03   1.0351404E+04   1.0102308E+04   1.0165169E+04   1.0482892E+04   1.0424256E+04   9.5756895E+03   8.2569238E+03   8.7147305E+03   8.7547471E+03   8.8353848E+03   9.4348359E+03   1.0258853E+04   1.0310795E+04   9.3050908E+03   6.8790054E+03   7.4904150E+03   8.0683086E+03   9.2854473E+03   1.0423983E+04   1.0219197E+04   8.4766553E+03   5.6503706E+03   6.7528105E+03   7.9547158E+03   9.5763818E+03   1.0510649E+04   9.4147227E+03   6.1078740E+03   6.7173818E+03   8.3317520E+03   9.7898945E+03   9.7092139E+03   7.1484268E+03   4.9308198E+03   7.1431953E+03   8.6392617E+03   9.1048281E+03   7.2387075E+03   3.9860293E+03   7.4070840E+03   7.9833789E+03   6.6417402E+03   3.5408569E+03   6.5065454E+03   5.4422251E+03   3.0652769E+03   5.6700508E+03   3.7287739E+03   2.3563384E+03   2.0209398E+03 
Vel 3 2975 float
  0.0000000E+00   0.0000000E+00   0.0000000E+00   0.0000000E+00   0.0000000E+00   0.0000000E+00   0.0000000E+00   0.0000000E+00   0.0000000E+00   0.0000000E+00   0.0000000E+00   0.0000000E+00   0.0000000E+00   0.0000000E+00   0.0000000E+00   0.0000000E+00   0.0000000E+00   0.0000000E+00   0.0000000E+00   0.0000000E+00   0.0000000E+00   0.0000000E+00   0.0000000E+00   0.0000000E+00   0.0000000E+00   0.0000000E+00   0.0000000E+00   0.0000000E+00   0.0000000E+00   0.0000000E+00   0.0000000E+00   0.0000000E+00   0.0000000E+00   0.0000000E+00   0.0000000E+00   0.0000000E+00   0.0000000E+00   0.0000000E+00   0.0000000E+00   0.0000000E+00   0.0000000E+00   0.0000000E+00   0.0000000E+00   0.0000000E+00   0.0000000E+00   0.0000000E+00   0.0000000E+00   0.0000000E+00   0.0000000E+00   0.0000000E+00   0.0000000E+00   0.0000000E+00   0.0000000E+00   0.0000000E+00   0.0000000E+00   0.0000000E+00   0.0000000E+00   0.0000000E+00   0.0000000E+00   0.0000000E+00   0.0000000E+00   0.0000000E+00   0.0000000E+00   0.0000000E+00   0.0000000E+00   0.0000000E+00   0.0000000E+00   0.0000000E+00   0.0000000E+00   0.0000000E+00   0.0000000E+00   0.0000000E+00   0.0000000E+00   0.0000000E+00   0.0000000E+00   0.0000000E+00   0.0000000E+00   0.0000000E+00   0.0000000E+00   0.0000000E+00   0.0000000E+00   0.0000000E+00   0.0000000E+00   0.0000000E+00   0.0000000E+00   0.0000000E+00   0.0000000E+00   0.0000000E+00   0.0000000E+00   0.0000000E+00   0.0000000E+00   0.0000000E+00   0.0000000E+00   0.0000000E+00   0.0000000E+00   0.0000000E+00   0.0000000E+00   0.0000000E+00   0.0000000E+00   0.0000000E+00   0.0000000E+00   0.0000000E+00   0.0000000E+00   0.0000000E+00   0.0000000E+00   0.0000000E+00   0.0000000E+00   0.0000000E+00   0.0000000E+00   0.0000000E+00   0.0000000E+00   0.0000000E+00   0.0000000E+00   0.0000000E+00   0.0000000E+00   0.0000000E+00   0.0000000E+00   0.0000000E+00   0.0000000E+00   0.0000000E+00   0.0000000E+00   0.0000000E+00   0.0000000E+00   0.0000000E+00   0.0000000E+00   0.0000000E+00   0.0000000E+00   0.0000000E+00   0.0000000E+00   0.0000000E+00   0.0000000E+00   0.0000000E+00   0.0000000E+00   0.0000000E+00   0.0000000E+00   0.0000000E+00   0.0000000E+00   0.0000000E+00   0.0000000E+00   0.0000000E+00   0.0000000E+00   0.0000000E+00   0.0000000E+00   0.0000000E+00   0.0000000E+00   0.0000000E+00   0.0000000E+00   0.0000000E+00   0.0000000E+00   0.0000000E+00   0.0000000E+00   0.0000000E+00   0.0000000E+00   0.0000000E+00   0.0000000E+00   0.0000000E+00   0.0000000E+00   0.0000000E+00   0.0000000E+00   0.0000000E+00   0.0000000E+00   0.0000000E+00   0.0000000E+00   0.0000000E+00   0.0000000E+00   0.0000000E+00   0.0000000E+00   0.0000000E+00   0.0000000E+00   0.0000000E+00   0.0000000E+00   0.0000000E+00   0.0000000E+00   0.0000000E+00   0.0000000E+00   0.0000000E+00   0.0000000E+00   0.0000000E+00   0.0000000E+00   0.0000000E+00   0.0000000E+00   0.0000000E+00   0.0000000E+00   0.0000000E+00   0.0000000E+00   0.0000000E+00   0.0000000E+00   0.0000000E+00   0.0000000E+00   0.0000000E+00   0.0000000E+00   0.0000000E+00   0.0000000E+00   0.0000000E+00   0.0000000E+00   0.0000000E+00   0.0000000E+00   0.0000000E+00   0.0000000E+00   0.0000000E+00   0.0000000E+00   0.0000000E+00   0.0000000E+00   0.0000000E+00   0.0000000E+00   0.0000000E+00   0.0000000E+00   0.0000000E+00   0.0000000E+00   0.0000000E+00   0.0000000E+00   0.0000000E+00   0.0000000E+00   0.0000000E+00   0.0000000E+00   0.0000000E+00   0.0000000E+00   0.0000000E+00   0.0000000E+00   0.0000000E+00   0.0000000E+00   0.0000000E+00   0.0000000E+00   0.0000000E+00   0.0000000E+00   0.0000000E+00   0.0000000E+00   0.0000000E+00   0.0000000E+00   0.0000000E+00   0.0000000E+00   0.0000000E+00   0.0000000E+00   0.0000000E+00   0.0000000E+00   0.0000000E+00   0.0000000E+00   0.0000000E+00   0.0000000E+00   0.0000000E+00   0.0000000E+00   0.0000000E+00   0.0000000E+00   0.0000000E+00   0.0000000E+00   0.0000000E+00   0.0000000E+00   0.0000000E+00   0.0000000E+00   0.0000000E+00   0.0000000E+00   0.0000000E+00   0.0000000E+00   0.0000000E+00   0.0000000E+00   0.0000000E+00   0.0000000E+00   0.0000000E+00   0.0000000E+00   0.0000000E+00   0.0000000E+00   0.0000000E+00   0.0000000E+00   0.0000000E+00   0.0000000E+00   0.0000000E+00   0.0000000E+00   0.0000000E+00   0.0000000E+00   0.0000000E+00   0.0000000E+00   0.0000000E+00   0.0000000E+00   0.0000000E+00   0.0000000E+00   0.0000000E+00   0.0000000E+00   0.0000000E+00   0.0000000E+00   0.0000000E+00   0.0000000E+00   0.0000000E+00   0.0000000E+00   0.0000000E+00   0.0000000E+00   0.0000000E+00   0.0000000E+00   0.0000000E+00   0.0000000E+00   0.0000000E+00   0.0000000E+00   0.0000000E+00   0.0000000E+00   0.0000000E+00   0.0000000E+00   0.0000000E+00   0.0000000E+00   0.0000000E+00   0.0000000E+00   0.0000000E+00   0.0000000E+00   0.0000000E+00   0.0000000E+00   0.0000000E+00   0.0000000E+00   0.0000000E+00   0.0000000E+00   0.0000000E+00   0.0000000E+00   0.0000000E+00   0.0000000E+00   0.0000000E+00   0.0000000E+00   0.0000000E+00   0.0000000E+00   0.0000000E+00   0.0000000E+00   0.0000000E+00   0.0000000E+00   0.0000000E+00   0.0000000E+00   0.0000000E+00   0.0000000E+00   0.0000000E+00   0.0000000E+00   0.0000000E+00   0.0000000E+00   0.0000000E+00   0.0000000E+00   0.0000000E+00   0.0000000E+00   0.0000000E+00   0.0000000E+00   0.0000000E+00   0.0000000E+00   0.0000000E+00   0.0000000E+00   0.0000000E+00   0.0000000E+00   0.0000000E+00   0.0000000E+00   0.0000000E+00   0.0000000E+00   0.0000000E+00   0.0000000E+00   0.0000000E+00   0.0000000E+00   0.0000000E+00   0.0000000E+00   0.0000000E+00   0.0000000E+00   0.0000000E+00   0.0000000E+00   0.0000000E+00   0.0000000E+00   0.0000000E+00   0.0000000E+00   0.0000000E+00   0.0000000E+00   0.0000000E+00   0.0000000E+00   0.0000000E+00   0.0000000E+00   0.0000000E+00   0.0000000E+00   0.0000000E+00   0.0000000E+00   0.0000000E+00   0.0000000E+00   0.0000000E+00   0.0000000E+00   0.0000000E+00   0.0000000E+00   0.0000000E+00   0.0000000E+00   0.0000000E+00   0.0000000E+00   0.0000000E+00   0.0000000E+00   0.0000000E+00   0.0000000E+00   0.0000000E+00   0.0000000E+00   0.0000000E+00   0.0000000E+00   0.0000000E+00   0.0000000E+00   0.0000000E+00   0.0000000E+00   0.0000000E+00   0.0000000E+00   0.0000000E+00   0.0000000E+00   0.0000000E+00   0.0000000E+00   0.0000000E+00   0.0000000E+00   0.0000000E+00   0.0000000E+00   0.0000000E+00   0.0000000E+00   0.0000000E+00   0.0000000E+00   0.0000000E+00   0.0000000E+00   0.0000000E+00   0.0000000E+00   0.0000000E+00   0.0000000E+00   0.0000000E+00   0.0000000E+00   0.0000000E+00   0.0000000E+00   0.0000000E+00   0.0000000E+00   0.0000000E+00   0.0000000E+00   0.0000000E+00   0.0000000E+00   0.0000000E+00   0.0000000E+00   0.0000000E+00   0.0000000E+00   0.0000000E+00   0.0000000E+00   0.0000000E+00   0.0000000E+00   0.0000000E+00   0.0000000E+00   0.0000000E+00   0.0000000E+00   0.0000000E+00   0.0000000E+00   0.0000000E+00   0.0000000E+00   0.0000000E+00   0.0000000E+00   0.0000000E+00   0.0000000E+00   0.0000000E+00   0.0000000E+00   0.0000000E+00   0.0000000E+00   0.0000000E+00   0.0000000E+00   0.0000000E+00   0.0000000E+00   0.0000000E+00   0.0000000E+00   0.0000000E+00   0.0000000E+00   0.0000000E+00   0.0000000E+00   0.0000000E+00   0.0000000E+00   0.0000000E+00   0.0000000E+00   0.0000000E+00   0.0000000E+00   0.0000000E+00   0.0000000E+00   0.0000000E+00   0.0000000E+00   0.0000000E+00   0.0000000E+00   0.0000000E+00   0.0000000E+00   0.0000000E+00   0.0000000E+00   0.0000000E+00   0.0000000E+00   0.0000000E+00   0.0000000E+00   0.0000000E+00   0.0000000E+00   0.0000000E+00   0.0000000E+00   0.0000000E+00   0.0000000E+00   0.0000000E+00   0.0000000E+00   0.0000000E+00   0.0000000E+00   0.0000000E+00   0.0000000E+00   0.0000000E+00   0.0000000E+00   0.0000000E+00   0.0000000E+00   0.0000000E+00   0.0000000E+00   0.0000000E+00   0.0000000E+00   0.0000000E+00   0.0000000E+00   0.0000000E+00   0.0000000E+00   0.0000000E+00   0.0000000E+00   0.0000000E+00   0.0000000E+00   0.0000000E+00   0.0000000E+00   0.0000000E+00   0.0000000E+00   0.0000000E+00   0.0000000E+00   0.0000000E+00   0.0000000E+00   0.0000000E+00   0.0000000E+00   0.0000000E+00   0.0000000E+00   0.0000000E+00   0.0000000E+00   0.0000000E+00   0.0000000E+00   0.0000000E+00   0.0000000E+00   0.0000000E+00   0.0000000E+00   0.0000000E+00   0.0000000E+00   0.0000000E+00   0.0000000E+00   0.0000000E+00   0.0000000E+00   0.0000000E+00   0.0000000E+00   0.0000000E+00   0.0000000E+00   0.0000000E+00   0.0000000E+00   0.0000000E+00   0.0000000E+00   0.0000000E+00   0.0000000E+00   0.0000000E+00   0.0000000E+00   0.0000000E+00   0.0000000E+00   0.0000000E+00   0.0000000E+00   0.0000000E+00   0.0000000E+00   0.0000000E+00   0.0000000E+00   0.0000000E+00   0.0000000E+00   0.0000000E+00   0.0000000E+00   0.0000000E+00   0.0000000E+00   0.0000000E+00   0.0000000E+00   0.0000000E+00   0.0000000E+00   0.0000000E+00   0.0000000E+00   0.0000000E+00   0.0000000E+00   0.0000000E+00   0.0000000E+00   0.0000000E+00   0.0000000E+00   0.0000000E+00   0.0000000E+00   0.0000000E+00   0.0000000E+00   0.0000000E+00   0.0000000E+00   0.0000000E+00   0.0000000E+00   0.0000000E+00   0.0000000E+00   0.0000000E+00   0.0000000E+00   0.0000000E+00   0.0000000E+00   0.0000000E+00   0.0000000E+00   0.0000000E+00   0.0000000E+00   0.0000000E+00   0.0000000E+00   0.0000000E+00   0.0000000E+00   0.0000000E+00   0.0000000E+00   0.0000000E+00   0.0000000E+00   0.0000000E+00   0.0000000E+00   0.0000000E+00   0.0000000E+00   0.0000000E+00   0.0000000E+00   0.0000000E+00   0.0000000E+00   0.0000000E+00   0.0000000E+00   0.0000000E+00   0.0000000E+00   0.0000000E+00   0.0000000E+00   0.0000000E+00   0.0000000E+00   0.0000000E+00   0.0000000E+00   0.0000000E+00   0.0000000E+00   0.0000000E+00   0.0000000E+00   0.0000000E+00   0.0000000E+00   0.0000000E+00   0.0000000E+00   0.0000000E+00   0.0000000E+00   0.0000000E+00   0.0000000E+00   0.0000000E+00   0.0000000E+00   0.0000000E+00   0.0000000E+00   0.0000000E+00   0.0000000E+00   0.0000000E+00   0.0000000E+00   0.0000000E+00   0.0000000E+00   0.0000000E+00   0.0000000E+00   0.0000000E+00   0.0000000E+00   0.0000000E+00   0.0000000E+00   0.0000000E+00   0.0000000E+00   0.0000000E+00   0.0000000E+00   0.0000000E+00   0.0000000E+00   0.0000000E+00   0.0000000E+00   0.0000000E+00   0.0000000E+00   0.0000000E+00   0.0000000E+00   0.0000000E+00   0.0000000E+00   0.0000000E+00   0.0000000E+00   0.0000000E+00   0.0000000E+00   0.0000000E+00   0.0000000E+00   0.0000000E+00   0.0000000E+00   0.0000000E+00   0.0000000E+00   0.0000000E+00   0.0000000E+00   0.0000000E+00   0.0000000E+00   0.0000000E+00   0.0000000E+00   0.0000000E+00   0.0000000E+00   0.0000000E+00   0.0000000E+00   0.0000000E+00   0.0000000E+00   0.0000000E+00   0.0000000E+00   0.0000000E+00   0.0000000E+00   0.0000000E+00   0.0000000E+00   0.0000000E+00   0.0000000E+00   0.0000000E+00   0.0000000E+00   0.0000000E+00   0.0000000E+00   0.0000000E+00   0.0000000E+00   0.0000000E+00   0.0000000E+00   0.0000000E+00   0.0000000E+00   0.0000000E+00   0.0000000E+00   0.0000000E+00   0.0000000E+00   0.0000000E+00   0.0000000E+00   0.0000000E+00   0.0000000E+00   0.0000000E+00   0.0000000E+00   0.0000000E+00   0.0000000E+00   0.0000000E+00   0.0000000E+00   0.0000000E+00   0.0000000E+00   0.0000000E+00   0.0000000E+00   0.0000000E+00   0.0000000E+00   0.0000000E+00   0.0000000E+00   0.0000000E+00   0.0000000E+00   0.0000000E+00   0.0000000E+00   0.0000000E+00   0.0000000E+00   0.0000000E+00   0.0000000E+00   0.0000000E+00   0.0000000E+00   0.0000000E+00   0.0000000E+00   0.0000000E+00   0.0000000E+00   0.0000000E+00   0.0000000E+00   0.0000000E+00   0.0000000E+00   0.0000000E+00   0.0000000E+00   0.0000000E+00   0.0000000E+00   0.0000000E+00   0.0000000E+00   0.0000000E+00   0.0000000E+00   0.0000000E+00   0.0000000E+00   0.0000000E+00   0.0000000E+00   0.0000000E+00   0.0000000E+00   0.0000000E+00   0.0000000E+00   0.0000000E+00   0.0000000E+00   0.0000000E+00   0.0000000E+00   0.0000000E+00   0.0000000E+00   0.0000000E+00   0.0000000E+00   0.0000000E+00   0.0000000E+00   0.0000000E+00   0.0000000E+00   0.0000000E+00   0.0000000E+00   0.0000000E+00   0.0000000E+00   0.0000000E+00   0.0000000E+00   0.0000000E+00   0.0000000E+00   0.0000000E+00   0.0000000E+00   0.0000000E+00   0.0000000E+00   0.0000000E+00   0.0000000E+00   0.0000000E+00   0.0000000E+00   0.0000000E+00   0.0000000E+00   0.0000000E+00   0.0000000E+00   0.0000000E+00   0.0000000E+00   0.0000000E+00   0.0000000E+00   0.0000000E+00   0.0000000E+00   0.0000000E+00   0.0000000E+00   0.0000000E+00   0.0000000E+00   0.0000000E+00   0.0000000E+00   0.0000000E+00   0.0000000E+00   0.0000000E+00   0.0000000E+00   0.0000000E+00   0.0000000E+00   0.0000000E+00   0.0000000E+00   0.0000000E+00   0.0000000E+00   0.0000000E+00   0.0000000E+00   0.0000000E+00   0.0000000E+00   0.0000000E+00   0.0000000E+00   0.0000000E+00   0.0000000E+00   0.0000000E+00   0.0000000E+00   0.0000000E+00   0.0000000E+00   0.0000000E+00   0.0000000E+00   0.0000000E+00   0.0000000E+00   0.0000000E+00   0.0000000E+00   0.0000000E+00   0.0000000E+00   0.0000000E+00   0.0000000E+00   0.0000000E+00   0.0000000E+00   0.0000000E+00   0.0000000E+00   0.0000000E+00   0.0000000E+00   0.0000000E+00   0.0000000E+00   0.0000000E+00   0.0000000E+00   0.0000000E+00   0.0000000E+00   0.0000000E+00   0.0000000E+00   0.0000000E+00   0.0000000E+00   0.0000000E+00   0.0000000E+00   0.0000000E+00   0.0000000E+00   0.0000000E+00   0.0000000E+00   0.0000000E+00   0.0000000E+00   0.0000000E+00   0.0000000E+00   0.0000000E+00   0.0000000E+00   0.0000000E+00   0.0000000E+00   0.0000000E+00   0.0000000E+00   0.0000000E+00   0.0000000E+00   0.0000000E+00   0.0000000E+00   0.0000000E+00   0.0000000E+00   0.0000000E+00   0.0000000E+00   0.0000000E+00   0.0000000E+00   0.0000000E+00   0.0000000E+00   0.0000000E+00   0.0000000E+00   0.0000000E+00   0.0000000E+00   0.0000000E+00   0.0000000E+00   0.0000000E+00   0.0000000E+00   0.0000000E+00   0.0000000E+00   0.0000000E+00   0.0000000E+00   0.0000000E+00   0.0000000E+00   0.0000000E+00   0.0000000E+00   0.0000000E+00   0.0000000E+00   0.0000000E+00   0.0000000E+00   0.0000000E+00   0.0000000E+00   0.0000000E+00   0.0000000E+00   0.0000000E+00   0.0000000E+00   0.0000000E+00   0.0000000E+00   0.0000000E+00   0.0000000E+00   0.0000000E+00   0.0000000E+00   0.0000000E+00   0.0000000E+00   0.0000000E+00   0.0000000E+00   0.0000000E+00   0.0000000E+00   0.0000000E+00   0.0000000E+00   0.0000000E+00   0.0000000E+00   0.0000000E+00   0.0000000E+00   0.0000000E+00   0.0000000E+00   0.0000000E+00   0.0000000E+00   0.0000000E+00   0.0000000E+00   0.0000000E+00   0.0000000E+00   0.0000000E+00   0.0000000E+00   0.0000000E+00   0.0000000E+00   0.0000000E+00   0.0000000E+00   0.0000000E+00   0.0000000E+00   0.0000000E+00   0.0000000E+00   0.0000000E+00   0.0000000E+00   0.0000000E+00   0.0000000E+00   0.0000000E+00   0.0000000E+00   0.0000000E+00   0.0000000E+00   0.0000000E+00   0.0000000E+00   0.0000000E+00   0.0000000E+00   0.0000000E+00   0.0000000E+00   0.0000000E+00   0.0000000E+00   0.0000000E+00   0.0000000E+00   0.0000000E+00   0.0000000E+00   0.0000000E+00   0.0000000E+00   0.0000000E+00   0.0000000E+00   0.0000000E+00   0.0000000E+00   0.0000000E+00   0.0000000E+00   0.0000000E+00   0.0000000E+00   0.0000000E+00   0.0000000E+00   0.0000000E+00   0.0000000E+00   0.0000000E+00   0.0000000E+00   0.0000000E+00   0.0000000E+00   0.0000000E+00   0.0000000E+00   0.0000000E+00   0.0000000E+00   0.0000000E+00   0.0000000E+00   0.0000000E+00   0.0000000E+00   0.0000000E+00   0.0000000E+00   0.0000000E+00   0.0000000E+00   0.0000000E+00   0.0000000E+00   0.0000000E+00   0.0000000E+00   0.0000000E+00   0.0000000E+00   0.0000000E+00   0.0000000E+00   0.0000000E+00   0.0000000E+00   0.0000000E+00   0.0000000E+00   0.0000000E+00   0.0000000E+00   0.0000000E+00   0.0000000E+00   0.0000000E+00   0.0000000E+00   0.0000000E+00   0.0000000E+00   0.0000000E+00   0.0000000E+00   0.0000000E+00   0.0000000E+00   0.0000000E+00   0.0000000E+00   0.0000000E+00   0.0000000E+00   0.0000000E+00   0.0000000E+00   0.0000000E+00   0.0000000E+00   0.0000000E+00   0.0000000E+00   0.0000000E+00   0.0000000E+00   0.0000000E+00   0.0000000E+00   0.0000000E+00   0.0000000E+00   0.0000000E+00   0.0000000E+00   0.0000000E+00   0.0000000E+00   0.0000000E+00   0.0000000E+00   0.0000000E+00   0.0000000E+00   0.0000000E+00   0.0000000E+00   0.0000000E+00   0.0000000E+00   0.0000000E+00   0.0000000E+00   0.0000000E+00   0.0000000E+00   0.0000000E+00   0.0000000E+00   0.0000000E+00   0.0000000E+00   0.0000000E+00   0.0000000E+00   0.0000000E+00   0.0000000E+00   0.0000000E+00   0.0000000E+00   0.0000000E+00   0.0000000E+00   0.0000000E+00   0.0000000E+00   0.0000000E+00   0.0000000E+00   0.0000000E+00   0.0000000E+00   0.0000000E+00   0.0000000E+00   0.0000000E+00   0.0000000E+00   0.0000000E+00   0.0000000E+00   0.0000000E+00   0.0000000E+00   0.0000000E+00   0.0000000E+00   0.0000000E+00   0.0000000E+00   0.0000000E+00   0.0000000E+00   0.0000000E+00   0.0000000E+00   0.0000000E+00   0.0000000E+00   0.0000000E+00   0.0000000E+00   0.0000000E+00   0.0000000E+00   0.0000000E+00   0.0000000E+00   0.0000000E+00   0.0000000E+00   0.0000000E+00   0.0000000E+00   0.0000000E+00   0.0000000E+00   0.0000000E+00   0.0000000E+00   0.0000000E+00   0.0000000E+00   0.0000000E+00   0.0000000E+00   0.0000000E+00   0.0000000E+00   0.0000000E+00   0.0000000E+00   0.0000000E+00   0.0000000E+00   0.0000000E+00   0.0000000E+00   0.0000000E+00   0.0000000E+00   0.0000000E+00   0.0000000E+00   0.0000000E+00   0.0000000E+00   0.0000000E+00   0.0000000E+00   0.0000000E+00   0.0000000E+00   0.0000000E+00   0.0000000E+00   0.0000000E+00   0.0000000E+00   0.0000000E+00   0.0000000E+00   0.0000000E+00   0.0000000E+00   0.0000000E+00   0.0000000E+00   0.0000000E+00   0.0000000E+00   0.0000000E+00   0.0000000E+00   0.0000000E+00   0.0000000E+00   0.0000000E+00   0.0000000E+00   0.0000000E+00   0.0000000E+00   0.0000000E+00   0.0000000E+00   0.0000000E+00   0.0000000E+00   0.0000000E+00   0.0000000E+00   0.0000000E+00   0.0000000E+00   0.0000000E+00   0.0000000E+00   0.0000000E+00   0.0000000E+00   0.0000000E+00   0.0000000E+00   0.0000000E+00   0.0000000E+00   0.0000000E+00   0.0000000E+00   0.0000000E+00   0.0000000E+00   0.0000000E+00   0.0000000E+00   0.0000000E+00   0.0000000E+00   0.0000000E+00   0.0000000E+00   0.0000000E+00   0.0000000E+00   0.0000000E+00   0.0000000E+00   0.0000000E+00   0.0000000E+00   0.0000000E+00   0.0000000E+00   0.0000000E+00   0.0000000E+00   0.0000000E+00   0.0000000E+00   0.0000000E+00   0.0000000E+00   0.0000000E+00   0.0000000E+00   0.0000000E+00   0.0000000E+00   0.0000000E+00   0.0000000E+00   0.0000000E+00   0.0000000E+00   0.0000000E+00   0.0000000E+00   0.0000000E+00   0.0000000E+00   0.0000000E+00   0.0000000E+00   0.0000000E+00   0.0000000E+00   0.0000000E+00   0.0000000E+00   0.0000000E+00   0.0000000E+00   0.0000000E+00   0.0000000E+00   0.0000000E+00   0.0000000E+00   0.0000000E+00   0.0000000E+00   0.0000000E+00   0.0000000E+00   0.0000000E+00   0.0000000E+00   0.0000000E+00   0.0000000E+00   0.0000000E+00   0.0000000E+00   0.0000000E+00   0.0000000E+00   0.0000000E+00   0.0000000E+00   0.0000000E+00   0.0000000E+00   0.0000000E+00   0.0000000E+00   0.0000000E+00   0.0000000E+00   0.0000000E+00   0.0000000E+00   0.0000000E+00   0.0000000E+00   0.0000000E+00   0.0000000E+00   0.0000000E+00   0.0000000E+00   0.0000000E+00   0.0000000E+00   0.0000000E+00   0.0000000E+00   0.0000000E+00   0.0000000E+00   0.0000000E+00   0.0000000E+00   0.0000000E+00   0.0000000E+00   0.0000000E+00   0.0000000E+00   0.0000000E+00   0.0000000E+00   0.0000000E+00   0.0000000E+00   0.0000000E+00   0.0000000E+00   0.0000000E+00   0.0000000E+00   0.0000000E+00   0.0000000E+00   0.0000000E+00   0.0000000E+00   0.0000000E+00   0.0000000E+00   0.0000000E+00   0.0000000E+00   0.0000000E+00   0.0000000E+00   0.0000000E+00   0.0000000E+00   0.0000000E+00   0.0000000E+00   0.0000000E+00   0.0000000E+00   0.0000000E+00   0.0000000E+00   0.0000000E+00   0.0000000E+00   0.0000000E+00   0.0000000E+00   0.0000000E+00   0.0000000E+00   0.0000000E+00   0.0000000E+00   0.0000000E+00   0.0000000E+00   0.0000000E+00   0.0000000E+00   0.0000000E+00   0.0000000E+00   0.0000000E+00   0.0000000E+00   0.0000000E+00   0.0000000E+00   0.0000000E+00   0.0000000E+00   0.0000000E+00   0.0000000E+00   0.0000000E+00   0.0000000E+00   0.0000000E+00   0.0000000E+00   0.0000000E+00   0.0000000E+00   0.0000000E+00   0.0000000E+00   0.0000000E+00   0.0000000E+00   0.0000000E+00   0.0000000E+00   0.0000000E+00   0.0000000E+00   0.0000000E+00   0.0000000E+00   0.0000000E+00   0.0000000E+00   0.0000000E+00   0.0000000E+00   0.0000000E+00   0.0000000E+00   0.0000000E+00   0.0000000E+00   0.0000000E+00   0.0000000E+00   0.0000000E+00   0.0000000E+00   0.0000000E+00   0.0000000E+00   0.0000000E+00   0.0000000E+00   0.0000000E+00   0.0000000E+00   0.0000000E+00   0.0000000E+00   0.0000000E+00   0.0000000E+00   0.0000000E+00   0.0000000E+00   0.0000000E+00   0.0000000E+00   0.0000000E+00   0.0000000E+00   0.0000000E+00   0.0000000E+00   0.0000000E+00   0.0000000E+00   0.0000000E+00   0.0000000E+00   0.0000000E+00   0.0000000E+00   0.0000000E+00   0.0000000E+00   0.0000000E+00   0.0000000E+00   0.0000000E+00   0.0000000E+00   0.0000000E+00   0.0000000E+00   0.0000000E+00   0.0000000E+00   0.0000000E+00   0.0000000E+00   0.0000000E+00   0.0000000E+00   0.0000000E+00   0.0000000E+00   0.0000000E+00   0.0000000E+00   0.0000000E+00   0.0000000E+00   0.0000000E+00   0.0000000E+00   0.0000000E+00   0.0000000E+00   0.0000000E+00   0.0000000E+00   0.0000000E+00   0.0000000E+00   0.0000000E+00   0.0000000E+00   0.0000000E+00   0.0000000E+00   0.0000000E+00   0.0000000E+00   0.0000000E+00   0.0000000E+00   0.0000000E+00   0.0000000E+00   0.0000000E+00   0.0000000E+00   0.0000000E+00   0.0000000E+00   0.0000000E+00   0.0000000E+00   0.0000000E+00   0.0000000E+00   0.0000000E+00   0.0000000E+00   0.0000000E+00   0.0000000E+00   0.0000000E+00   0.0000000E+00   0.0000000E+00   0.0000000E+00   0.0000000E+00   0.0000000E+00   0.0000000E+00   0.0000000E+00   0.0000000E+00   0.0000000E+00   0.0000000E+00   0.0000000E+00   0.0000000E+00   0.0000000E+00   0.0000000E+00   0.0000000E+00   0.0000000E+00   0.0000000E+00   0.0000000E+00   0.0000000E+00   0.0000000E+00   0.0000000E+00   0.0000000E+00   0.0000000E+00   0.0000000E+00   0.0000000E+00   0.0000000E+00   0.0000000E+00   0.0000000E+00   0.0000000E+00   0.0000000E+00   0.0000000E+00   0.0000000E+00   0.0000000E+00   0.0000000E+00   0.0000000E+00   0.0000000E+00   0.0000000E+00   0.0000000E+00   0.0000000E+00   0.0000000E+00   0.0000000E+00   0.0000000E+00   0.0000000E+00   0.0000000E+00   0.0000000E+00   0.0000000E+00   0.0000000E+00   0.0000000E+00   0.0000000E+00   0.0000000E+00   0.0000000E+00   0.0000000E+00   0.0000000E+00   0.0000000E+00   0.0000000E+00   0.0000000E+00   0.0000000E+00   0.0000000E+00   0.0000000E+00   0.0000000E+00   0.0000000E+00   0.0000000E+00   0.0000000E+00   0.0000000E+00   0.0000000E+00   0.0000000E+00   0.0000000E+00   0.0000000E+00   0.0000000E+00   0.0000000E+00   0.0000000E+00   0.0000000E+00   0.0000000E+00   0.0000000E+00   0.0000000E+00   0.0000000E+00   0.0000000E+00   0.0000000E+00   0.0000000E+00   0.0000000E+00   0.0000000E+00   0.0000000E+00   0.0000000E+00   0.0000000E+00   0.0000000E+00   0.0000000E+00   0.0000000E+00   0.0000000E+00   0.0000000E+00   0.0000000E+00   0.0000000E+00   0.0000000E+00   0.0000000E+00   0.0000000E+00   0.0000000E+00   0.0000000E+00   0.0000000E+00   0.0000000E+00   0.0000000E+00   0.0000000E+00   0.0000000E+00   0.0000000E+00   0.0000000E+00   0.0000000E+00   0.0000000E+00   0.0000000E+00   0.0000000E+00   0.0000000E+00   0.0000000E+00   0.0000000E+00   0.0000000E+00   0.0000000E+00   0.0000000E+00   0.0000000E+00   0.0000000E+00   0.0000000E+00   0.0000000E+00   0.0000000E+00   0.0000000E+00   0.0000000E+00   0.0000000E+00   0.0000000E+00   0.0000000E+00   0.0000000E+00   0.0000000E+00   0.0000000E+00   0.0000000E+00   0.0000000E+00   0.0000000E+00   0.0000000E+00   0.0000000E+00   0.0000000E+00   0.0000000E+00   0.0000000E+00   0.0000000E+00   0.0000000E+00   0.0000000E+00   0.0000000E+00   0.0000000E+00   0.0000000E+00   0.0000000E+00   0.0000000E+00   0.0000000E+00   0.0000000E+00   0.0000000E+00   0.0000000E+00   0.0000000E+00   0.0000000E+00   0.0000000E+00   0.0000000E+00   0.0000000E+00   0.0000000E+00   0.0000000E+00   0.0000000E+00   0.0000000E+00   0.0000000E+00   0.0000000E+00   0.0000000E+00   0.0000000E+00   0.0000000E+00   0.0000000E+00   0.0000000E+00   0.0000000E+00   0.0000000E+00   0.0000000E+00   0.0000000E+00   0.0000000E+00   0.0000000E+00   0.0000000E+00   0.0000000E+00   0.0000000E+00   0.0000000E+00   0.0000000E+00   0.0000000E+00   0.0000000E+00   0.0000000E+00   0.0000000E+00   0.0000000E+00   0.0000000E+00   0.0000000E+00   0.0000000E+00   0.0000000E+00   0.0000000E+00   0.0000000E+00   0.0000000E+00   0.0000000E+00   0.0000000E+00   0.0000000E+00   0.0000000E+00   0.0000000E+00   0.0000000E+00   0.0000000E+00   0.0000000E+00   0.0000000E+00   0.0000000E+00   0.0000000E+00   0.0000000E+00   0.0000000E+00   0.0000000E+00   0.0000000E+00   0.0000000E+00   0.0000000E+00   0.0000000E+00   0.0000000E+00   0.0000000E+00   0.0000000E+00   0.0000000E+00   0.0000000E+00   0.0000000E+00   0.0000000E+00   0.0000000E+00   0.0000000E+00   0.0000000E+00   0.0000000E+00   0.0000000E+00   0.0000000E+00   0.0000000E+00   0.0000000E+00   0.0000000E+00   0.0000000E+00   0.0000000E+00   0.0000000E+00   0.0000000E+00   0.0000000E+00   0.0000000E+00   0.0000000E+00   0.0000000E+00   0.0000000E+00   0.0000000E+00   0.0000000E+00   0.0000000E+00   0.0000000E+00   0.0000000E+00   0.0000000E+00   0.0000000E+00   0.0000000E+00   0.0000000E+00   0.0000000E+00   0.0000000E+00   0.0000000E+00   0.0000000E+00   0.0000000E+00   0.0000000E+00   0.0000000E+00   0.0000000E+00   0.0000000E+00   0.0000000E+00   0.0000000E+00   0.0000000E+00   0.0000000E+00   0.0000000E+00   0.0000000E+00   0.0000000E+00   0.0000000E+00   0.0000000E+00   0.0000000E+00   0.0000000E+00   0.0000000E+00   0.0000000E+00   0.0000000E+00   0.0000000E+00   0.0000000E+00   0.0000000E+00   0.0000000E+00   0.0000000E+00   0.0000000E+00   0.0000000E+00   0.0000000E+00   0.0000000E+00   0.0000000E+00   0.0000000E+00   0.0000000E+00   0.0000000E+00   0.0000000E+00   0.0000000E+00   0.0000000E+00   0.0000000E+00   0.0000000E+00   0.0000000E+00   0.0000000E+00   0.0000000E+00   0.0000000E+00   0.0000000E+00   0.0000000E+00   0.0000000E+00   0.0000000E+00   0.0000000E+00   0.0000000E+00   0.0000000E+00   0.0000000E+00   0.0000000E+00   0.0000000E+00   0.0000000E+00   0.0000000E+00   0.0000000E+00   0.0000000E+00   0.0000000E+00   0.0000000E+00   0.0000000E+00   0.0000000E+00   0.0000000E+00   0.0000000E+00   0.0000000E+00   0.0000000E+00   0.0000000E+00   0.0000000E+00   0.0000000E+00   0.0000000E+00   0.0000000E+00   0.0000000E+00   0.0000000E+00   0.0000000E+00   0.0000000E+00   0.0000000E+00   0.0000000E+00   0.0000000E+00   0.0000000E+00   0.0000000E+00   0.0000000E+00   0.0000000E+00   0.0000000E+00   0.0000000E+00   0.0000000E+00   0.0000000E+00   0.0000000E+00   0.0000000E+00   0.0000000E+00   0.0000000E+00   0.0000000E+00   0.0000000E+00   0.0000000E+00   0.0000000E+00   0.0000000E+00   0.0000000E+00   0.0000000E+00   0.0000000E+00   0.0000000E+00   0.0000000E+00   0.0000000E+00   0.0000000E+00   0.0000000E+00   0.0000000E+00   0.0000000E+00   0.0000000E+00   0.0000000E+00   0.0000000E+00   0.0000000E+00   0.0000000E+00   0.0000000E+00   0.0000000E+00   0.0000000E+00   0.0000000E+00   0.0000000E+00   0.0000000E+00   0.0000000E+00   0.0000000E+00   0.0000000E+00   0.0000000E+00   0.0000000E+00   0.0000000E+00   0.0000000E+00   0.0000000E+00   0.0000000E+00   0.0000000E+00   0.0000000E+00   0.0000000E+00   0.0000000E+00   0.0000000E+00   0.0000000E+00   0.0000000E+00   0.0000000E+00   0.0000000E+00   0.0000000E+00   0.0000000E+00   0.0000000E+00   0.0000000E+00   0.0000000E+00   0.0000000E+00   0.0000000E+00   0.0000000E+00   0.0000000E+00   0.0000000E+00   0.0000000E+00   0.0000000E+00   0.0000000E+00   0.0000000E+00   0.0000000E+00   0.0000000E+00   0.0000000E+00   0.0000000E+00   0.0000000E+00   0.0000000E+00   0.0000000E+00   0.0000000E+00   0.0000000E+00   0.0000000E+00   0.0000000E+00   0.0000000E+00   0.0000000E+00   0.0000000E+00   0.0000000E+00   0.0000000E+00   0.0000000E+00   0.0000000E+00   0.0000000E+00   0.0000000E+00   0.0000000E+00   0.0000000E+00   0.0000000E+00   0.0000000E+00   0.0000000E+00   0.0000000E+00   0.0000000E+00   0.0000000E+00   0.0000000E+00   0.0000000E+00   0.0000000E+00   0.0000000E+00   0.0000000E+00   0.0000000E+00   0.0000000E+00   0.0000000E+00   0.0000000E+00   0.0000000E+00   0.0000000E+00   0.0000000E+00   0.0000000E+00   0.0000000E+00   0.0000000E+00   0.0000000E+00   0.0000000E+00   0.0000000E+00   0.0000000E+00   0.0000000E+00   0.0000000E+00   0.0000000E+00   0.0000000E+00   0.0000000E+00   0.0000000E+00   0.0000000E+00   0.0000000E+00   0.0000000E+00   0.0000000E+00   0.0000000E+00   0.0000000E+00   0.0000000E+00   0.0000000E+00   0.0000000E+00   0.0000000E+00   0.0000000E+00   0.0000000E+00   0.0000000E+00   0.0000000E+00   0.0000000E+00   0.0000000E+00   0.0000000E+00   0.0000000E+00   0.0000000E+00   0.0000000E+00   0.0000000E+00   0.0000000E+00   0.0000000E+00   0.0000000E+00   0.0000000E+00   0.0000000E+00   0.0000000E+00   0.0000000E+00   0.0000000E+00   0.0000000E+00   0.0000000E+00   0.0000000E+00   0.0000000E+00   0.0000000E+00   0.0000000E+00   0.0000000E+00   0.0000000E+00   0.0000000E+00   0.0000000E+00   0.0000000E+00   0.0000000E+00   0.0000000E+00   0.0000000E+00   0.0000000E+00   0.0000000E+00   0.0000000E+00   0.0000000E+00   0.0000000E+00   0.0000000E+00   0.0000000E+00   0.0000000E+00   0.0000000E+00   0.0000000E+00   0.0000000E+00   0.0000000E+00   0.0000000E+00   0.0000000E+00   0.0000000E+00   0.0000000E+00   0.0000000E+00   0.0000000E+00   0.0000000E+00   0.0000000E+00   0.0000000E+00   0.0000000E+00   0.0000000E+00   0.0000000E+00   0.0000000E+00   0.0000000E+00   0.0000000E+00   0.0000000E+00   0.0000000E+00   0.0000000E+00   0.0000000E+00   0.0000000E+00   0.0000000E+00   0.0000000E+00   0.0000000E+00   0.0000000E+00   0.0000000E+00   0.0000000E+00   0.0000000E+00   0.0000000E+00   0.0000000E+00   0.0000000E+00   0.0000000E+00   0.0000000E+00   0.0000000E+00   0.0000000E+00   0.0000000E+00   0.0000000E+00   0.0000000E+00   0.0000000E+00   0.0000000E+00   0.0000000E+00   0.0000000E+00   0.0000000E+00   0.0000000E+00   0.0000000E+00   0.0000000E+00   0.0000000E+00   0.0000000E+00   0.0000000E+00   0.0000000E+00   0.0000000E+00   0.0000000E+00   0.0000000E+00   0.0000000E+00   0.0000000E+00   0.0000000E+00   0.0000000E+00   0.0000000E+00   0.0000000E+00   0.0000000E+00   0.0000000E+00   0.0000000E+00   0.0000000E+00   0.0000000E+00   0.0000000E+00   0.0000000E+00   0.0000000E+00   0.0000000E+00   0.0000000E+00   0.0000000E+00   0.0000000E+00   0.0000000E+00   0.0000000E+00   0.0000000E+00   0.0000000E+00   0.0000000E+00   0.0000000E+00   0.0000000E+00   0.0000000E+00   0.0000000E+00   0.0000000E+00   0.0000000E+00   0.0000000E+00   0.0000000E+00   0.0000000E+00   0.0000000E+00   0.0000000E+00   0.0000000E+00   0.0000000E+00   0.0000000E+00   0.0000000E+00   0.0000000E+00   0.0000000E+00   0.0000000E+00   0.0000000E+00   0.0000000E+00   0.0000000E+00   0.0000000E+00   0.0000000E+00   0.0000000E+00   0.0000000E+00   0.0000000E+00   0.0000000E+00   0.0000000E+00   0.0000000E+00   0.0000000E+00   0.0000000E+00   0.0000000E+00   0.0000000E+00   0.0000000E+00   0.0000000E+00   0.0000000E+00   0.0000000E+00   0.0000000E+00   0.0000000E+00   0.0000000E+00   0.0000000E+00   0.0000000E+00   0.0000000E+00   0.0000000E+00   0.0000000E+00   0.0000000E+00   0.0000000E+00   0.0000000E+00   0.0000000E+00   0.0000000E+00   0.0000000E+00   0.0000000E+00   0.0000000E+00   0.0000000E+00   0.0000000E+00   0.0000000E+00   0.0000000E+00   0.0000000E+00   0.0000000E+00   0.0000000E+00   0.0000000E+00   0.0000000E+00   0.0000000E+00   0.0000000E+00   0.0000000E+00   0.0000000E+00   0.0000000E+00   0.0000000E+00   0.0000000E+00   0.0000000E+00   0.0000000E+00   0.0000000E+00   0.0000000E+00   0.0000000E+00   0.0000000E+00   0.0000000E+00   0.0000000E+00   0.0000000E+00   0.0000000E+00   0.0000000E+00   0.0000000E+00   0.0000000E+00   0.0000000E+00   0.0000000E+00   0.0000000E+00   0.0000000E+00   0.0000000E+00   0.0000000E+00   0.0000000E+00   0.0000000E+00   0.0000000E+00   0.0000000E+00   0.0000000E+00   0.0000000E+00   0.0000000E+00   0.0000000E+00   0.0000000E+00   0.0000000E+00   0.0000000E+00   0.0000000E+00   0.0000000E+00   0.0000000E+00   0.0000000E+00   0.0000000E+00   0.0000000E+00   0.0000000E+00   0.0000000E+00   0.0000000E+00   0.0000000E+00   0.0000000E+00   0.0000000E+00   0.0000000E+00   0.0000000E+00   0.0000000E+00   0.0000000E+00   0.0000000E+00   0.0000000E+00   0.0000000E+00   0.0000000E+00   0.0000000E+00   0.0000000E+00   0.0000000E+00   0.0000000E+00   0.0000000E+00   0.0000000E+00   0.0000000E+00   0.0000000E+00   0.0000000E+00   0.0000000E+00   0.0000000E+00   0.0000000E+00   0.0000000E+00   0.0000000E+00   0.0000000E+00   0.0000000E+00   0.0000000E+00   0.0000000E+00   0.0000000E+00   0.0000000E+00   0.0000000E+00   0.0000000E+00   0.0000000E+00   0.0000000E+00   0.0000000E+00   0.0000000E+00   0.0000000E+00   0.0000000E+00   0.0000000E+00   0.0000000E+00   0.0000000E+00   0.0000000E+00   0.0000000E+00   0.0000000E+00   0.0000000E+00   0.0000000E+00   0.0000000E+00   0.0000000E+00   0.0000000E+00   0.0000000E+00   0.0000000E+00   0.0000000E+00   0.0000000E+00   0.0000000E+00   0.0000000E+00   0.0000000E+00   0.0000000E+00   0.0000000E+00   0.0000000E+00   0.0000000E+00   0.0000000E+00   0.0000000E+00   0.0000000E+00   0.0000000E+00   0.0000000E+00   0.0000000E+00   0.0000000E+00   0.0000000E+00   0.0000000E+00   0.0000000E+00   0.0000000E+00   0.0000000E+00   0.0000000E+00   0.0000000E+00   0.0000000E+00   0.0000000E+00   0.0000000E+00   0.0000000E+00   0.0000000E+00   0.0000000E+00   0.0000000E+00   0.0000000E+00   0.0000000E+00   0.0000000E+00   0.0000000E+00   0.0000000E+00   0.0000000E+00   0.0000000E+00   0.0000000E+00   0.0000000E+00   0.0000000E+00   0.0000000E+00   0.0000000E+00   0.0000000E+00   0.0000000E+00   0.0000000E+00   0.0000000E+00   0.0000000E+00   0.0000000E+00   0.0000000E+00   0.0000000E+00   0.0000000E+00   0.0000000E+00   0.0000000E+00   0.0000000E+00   0.0000000E+00   0.0000000E+00   0.0000000E+00   0.0000000E+00   0.0000000E+00   0.0000000E+00   0.0000000E+00   0.0000000E+00   0.0000000E+00   0.0000000E+00   0.0000000E+00   0.0000000E+00   0.0000000E+00   0.0000000E+00   0.0000000E+00   0.0000000E+00   0.0000000E+00   0.0000000E+00   0.0000000E+00   0.0000000E+00   0.0000000E+00   0.0000000E+00   0.0000000E+00   0.0000000E+00   0.0000000E+00   0.0000000E+00   0.0000000E+00   0.0000000E+00   0.0000000E+00   0.0000000E+00   0.0000000E+00   0.0000000E+00   0.0000000E+00   0.0000000E+00   0.0000000E+00   0.0000000E+00   0.0000000E+00   0.0000000E+00   0.0000000E+00   0.0000000E+00   0.0000000E+00   0.0000000E+00   0.0000000E+00   0.0000000E+00   0.0000000E+00   0.0000000E+00   0.0000000E+00   0.0000000E+00   0.0000000E+00   0.0000000E+00   0.0000000E+00   0.0000000E+00   0.0000000E+00   0.0000000E+00   0.0000000E+00   0.0000000E+00   0.0000000E+00   0.0000000E+00   0.0000000E+00   0.0000000E+00   0.0000000E+00   0.0000000E+00   0.0000000E+00   0.0000000E+00   0.0000000E+00   0.0000000E+00   0.0000000E+00   0.0000000E+00   0.0000000E+00   0.0000000E+00   0.0000000E+00   0.0000000E+00   0.0000000E+00   0.0000000E+00   0.0000000E+00   0.0000000E+00   0.0000000E+00   0.0000000E+00   0.0000000E+00   0.0000000E+00   0.0000000E+00   0.0000000E+00   0.0000000E+00   0.0000000E+00   0.0000000E+00   0.0000000E+00   0.0000000E+00   0.0000000E+00   0.0000000E+00   0.0000000E+00   0.0000000E+00   0.0000000E+00   0.0000000E+00   0.0000000E+00   0.0000000E+00   0.0000000E+00   0.0000000E+00   0.0000000E+00   0.0000000E+00   0.0000000E+00   0.0000000E+00   0.0000000E+00   0.0000000E+00   0.0000000E+00   0.0000000E+00   0.0000000E+00   0.0000000E+00   0.0000000E+00   0.0000000E+00   0.0000000E+00   0.0000000E+00   0.0000000E+00   0.0000000E+00   0.0000000E+00   0.0000000E+00   0.0000000E+00   0.0000000E+00   0.0000000E+00   0.0000000E+00   0.0000000E+00   0.0000000E+00   0.0000000E+00   0.0000000E+00   0.0000000E+00   0.0000000E+00   0.0000000E+00   0.0000000E+00   0.0000000E+00   0.0000000E+00   0.0000000E+00   0.0000000E+00   0.0000000E+00   0.0000000E+00   0.0000000E+00   0.0000000E+00   0.0000000E+00   0.0000000E+00   0.0000000E+00   0.0000000E+00   0.0000000E+00   0.0000000E+00   0.0000000E+00   0.0000000E+00   0.0000000E+00   0.0000000E+00   0.0000000E+00   0.0000000E+00   0.0000000E+00   0.0000000E+00   0.0000000E+00   0.0000000E+00   0.0000000E+00   0.0000000E+00   0.0000000E+00   0.0000000E+00   0.0000000E+00   0.0000000E+00   0.0000000E+00   0.0000000E+00   0.0000000E+00   0.0000000E+00   0.0000000E+00   0.0000000E+00   0.0000000E+00   0.0000000E+00   0.0000000E+00   0.0000000E+00   0.0000000E+00   0.0000000E+00   0.0000000E+00   0.0000000E+00   0.0000000E+00   0.0000000E+00   0.0000000E+00   0.0000000E+00   0.0000000E+00   0.0000000E+00   0.0000000E+00   0.0000000E+00   0.0000000E+00   0.0000000E+00   0.0000000E+00   0.0000000E+00   0.0000000E+00   0.0000000E+00   0.0000000E+00   0.0000000E+00   0.0000000E+00   0.0000000E+00   0.0000000E+00   0.0000000E+00   0.0000000E+00   0.0000000E+00   0.0000000E+00   0.0000000E+00   0.0000000E+00   0.0000000E+00   0.0000000E+00   0.0000000E+00   0.0000000E+00   0.0000000E+00   0.0000000E+00   0.0000000E+00   0.0000000E+00   0.0000000E+00   0.0000000E+00   0.0000000E+00   0.0000000E+00   0.0000000E+00   0.0000000E+00   0.0000000E+00   0.0000000E+00   0.0000000E+00   0.0000000E+00   0.0000000E+00   0.0000000E+00   0.0000000E+00   0.0000000E+00   0.0000000E+00   0.0000000E+00   0.0000000E+00   0.0000000E+00   0.0000000E+00   0.0000000E+00   0.0000000E+00   0.0000000E+00   0.0000000E+00   0.0000000E+00   0.0000000E+00   0.0000000E+00   0.0000000E+00   0.0000000E+00   0.0000000E+00   0.0000000E+00   0.0000000E+00   0.0000000E+00   0.0000000E+00   0.0000000E+00   0.0000000E+00   0.0000000E+00   0.0000000E+00   0.0000000E+00   0.0000000E+00   0.0000000E+00   0.0000000E+00   0.0000000E+00   0.0000000E+00   0.0000000E+00   0.0000000E+00   0.0000000E+00   0.0000000E+00   0.0000000E+00   0.0000000E+00   0.0000000E+00   0.0000000E+00   0.0000000E+00   0.0000000E+00   0.0000000E+00   0.0000000E+00   0.0000000E+00   0.0000000E+00   0.0000000E+00   0.0000000E+00   0.0000000E+00   0.0000000E+00   0.0000000E+00   0.0000000E+00   0.0000000E+00   0.0000000E+00   0.0000000E+00   0.0000000E+00   0.0000000E+00   0.0000000E+00   0.0000000E+00   0.0000000E+00   0.0000000E+00   0.0000000E+00   0.0000000E+00   0.0000000E+00   0.0000000E+00   0.0000000E+00   0.0000000E+00   0.0000000E+00   0.0000000E+00   0.0000000E+00   0.0000000E+00   0.0000000E+00   0.0000000E+00   0.0000000E+00   0.0000000E+00   0.0000000E+00   0.0000000E+00   0.0000000E+00   0.0000000E+00   0.0000000E+00   0.0000000E+00   0.0000000E+00   0.0000000E+00   0.0000000E+00   0.0000000E+00   0.0000000E+00   0.0000000E+00   0.0000000E+00   0.0000000E+00   0.0000000E+00   0.0000000E+00   0.0000000E+00   0.0000000E+00   0.0000000E+00   0.0000000E+00   0.0000000E+00   0.0000000E+00   0.0000000E+00   0.0000000E+00   0.0000000E+00   0.0000000E+00   0.0000000E+00   0.0000000E+00   0.0000000E+00   0.0000000E+00   0.0000000E+00   0.0000000E+00   0.0000000E+00   0.0000000E+00   0.0000000E+00   0.0000000E+00   0.0000000E+00   0.0000000E+00   0.0000000E+00   0.0000000E+00   0.0000000E+00   0.0000000E+00   0.0000000E+00   0.0000000E+00   0.0000000E+00   0.0000000E+00   0.0000000E+00   0.0000000E+00   0.0000000E+00   0.0000000E+00   0.0000000E+00   0.0000000E+00   0.0000000E+00   0.0000000E+00   0.0000000E+00   0.0000000E+00   0.0000000E+00   0.0000000E+00   0.0000000E+00   0.0000000E+00   0.0000000E+00   0.0000000E+00   0.0000000E+00   0.0000000E+00   0.0000000E+00   0.0000000E+00   0.0000000E+00   0.0000000E+00   0.0000000E+00   0.0000000E+00   0.0000000E+00   0.0000000E+00   0.0000000E+00   0.0000000E+00   0.0000000E+00   0.0000000E+00   0.0000000E+00   0.0000000E+00   0.0000000E+00   0.0000000E+00   0.0000000E+00   0.0000000E+00   0.0000000E+00   0.0000000E+00   0.0000000E+00   0.0000000E+00   0.0000000E+00   0.0000000E+00   0.0000000E+00   0.0000000E+00   0.0000000E+00   0.0000000E+00   0.0000000E+00   0.0000000E+00   0.0000000E+00   0.0000000E+00   0.0000000E+00   0.0000000E+00   0.0000000E+00   0.0000000E+00   0.0000000E+00   0.0000000E+00   0.0000000E+00   0.0000000E+00   0.0000000E+00   0.0000000E+00   0.0000000E+00   0.0000000E+00   0.0000000E+00   0.0000000E+00   0.0000000E+00   0.0000000E+00   0.0000000E+00   0.0000000E+00   0.0000000E+00   0.0000000E+00   0.0000000E+00   0.0000000E+00   0.0000000E+00   0.0000000E+00   0.0000000E+00   0.0000000E+00   0.0000000E+00   0.0000000E+00   0.0000000E+00   0.0000000E+00   0.0000000E+00   0.0000000E+00   0.0000000E+00   0.0000000E+00   0.0000000E+00   0.0000000E+00   0.0000000E+00   0.0000000E+00   0.0000000E+00   0.0000000E+00   0.0000000E+00   0.0000000E+00   0.0000000E+00   0.0000000E+00   0.0000000E+00   0.0000000E+00   0.0000000E+00   0.0000000E+00   0.0000000E+00   0.0000000E+00   0.0000000E+00   0.0000000E+00   0.0000000E+00   0.0000000E+00   0.0000000E+00   0.0000000E+00   0.0000000E+00   0.0000000E+00   0.0000000E+00   0.0000000E+00   0.0000000E+00   0.0000000E+00   0.0000000E+00   0.0000000E+00   0.0000000E+00   0.0000000E+00   0.0000000E+00   0.0000000E+00   0.0000000E+00   0.0000000E+00   0.0000000E+00   0.0000000E+00   0.0000000E+00   0.0000000E+00   0.0000000E+00   0.0000000E+00   0.0000000E+00   0.0000000E+00   0.0000000E+00   0.0000000E+00   0.0000000E+00   0.0000000E+00   0.0000000E+00   0.0000000E+00   0.0000000E+00   0.0000000E+00   0.0000000E+00   0.0000000E+00   0.0000000E+00   0.0000000E+00   0.0000000E+00   0.0000000E+00   0.0000000E+00   0.0000000E+00   0.0000000E+00   0.0000000E+00   0.0000000E+00   0.0000000E+00   0.0000000E+00   0.0000000E+00   0.0000000E+00   0.0000000E+00   0.0000000E+00   0.0000000E+00   0.0000000E+00   0.0000000E+00   0.0000000E+00   0.0000000E+00   0.0000000E+00   0.0000000E+00   0.0000000E+00   0.0000000E+00   0.0000000E+00   0.0000000E+00   0.0000000E+00   0.0000000E+00   0.0000000E+00   0.0000000E+00   0.0000000E+00   0.0000000E+00   0.0000000E+00   0.0000000E+00   0.0000000E+00   0.0000000E+00   0.0000000E+00   0.0000000E+00   0.0000000E+00   0.0000000E+00   0.0000000E+00   0.0000000E+00   0.0000000E+00   0.0000000E+00   0.0000000E+00   0.0000000E+00   0.0000000E+00   0.0000000E+00   0.0000000E+00   0.0000000E+00   0.0000000E+00   0.0000000E+00   0.0000000E+00   0.0000000E+00   0.0000000E+00   0.0000000E+00   0.0000000E+00   0.0000000E+00   0.0000000E+00   0.0000000E+00   0.0000000E+00   0.0000000E+00   0.0000000E+00   0.0000000E+00   0.0000000E+00   0.0000000E+00   0.0000000E+00   0.0000000E+00   0.0000000E+00   0.0000000E+00   0.0000000E+00   0.0000000E+00   0.0000000E+00   0.0000000E+00   0.0000000E+00   0.0000000E+00   0.0000000E+00   0.0000000E+00   0.0000000E+00   0.0000000E+00   0.0000000E+00   0.0000000E+00   0.0000000E+00   0.0000000E+00   0.0000000E+00   0.0000000E+00   0.0000000E+00   0.0000000E+00   0.0000000E+00   0.0000000E+00   0.0000000E+00   0.0000000E+00   0.0000000E+00   0.0000000E+00   0.0000000E+00   0.0000000E+00   0.0000000E+00   0.0000000E+00   0.0000000E+00   0.0000000E+00   0.0000000E+00   0.0000000E+00   0.0000000E+00   0.0000000E+00   0.0000000E+00   0.0000000E+00   0.0000000E+00   0.0000000E+00   0.0000000E+00   0.0000000E+00   0.0000000E+00   0.0000000E+00   0.0000000E+00   0.0000000E+00   0.0000000E+00   0.0000000E+00   0.0000000E+00   0.0000000E+00   0.0000000E+00   0.0000000E+00   0.0000000E+00   0.0000000E+00   0.0000000E+00   0.0000000E+00   0.0000000E+00   0.0000000E+00   0.0000000E+00   0.0000000E+00   0.0000000E+00   0.0000000E+00   0.0000000E+00   0.0000000E+00   0.0000000E+00   0.0000000E+00   0.0000000E+00   0.0000000E+00   0.0000000E+00   0.0000000E+00   0.0000000E+00   0.0000000E+00   0.0000000E+00   0.0000000E+00   0.0000000E+00   0.0000000E+00   0.0000000E+00   0.0000000E+00   0.0000000E+00   0.0000000E+00   0.0000000E+00   0.0000000E+00   0.0000000E+00   0.0000000E+00   0.0000000E+00   0.0000000E+00   0.0000000E+00   0.0000000E+00   0.0000000E+00   0.0000000E+00   0.0000000E+00   0.0000000E+00   0.0000000E+00   0.0000000E+00   0.0000000E+00   0.0000000E+00   0.0000000E+00   0.0000000E+00   0.0000000E+00   0.0000000E+00   0.0000000E+00   0.0000000E+00   0.0000000E+00   0.0000000E+00   0.0000000E+00   0.0000000E+00   0.0000000E+00   0.0000000E+00   0.0000000E+00   0.0000000E+00   0.0000000E+00   0.0000000E+00   0.0000000E+00   0.0000000E+00   0.0000000E+00   0.0000000E+00   0.0000000E+00   0.0000000E+00   0.0000000E+00   0.0000000E+00   0.0000000E+00   0.0000000E+00   0.0000000E+00   0.0000000E+00   0.0000000E+00   0.0000000E+00   0.0000000E+00   0.0000000E+00   0.0000000E+00   0.0000000E+00   0.0000000E+00   0.0000000E+00   0.0000000E+00   0.0000000E+00   0.0000000E+00   0.0000000E+00   0.0000000E+00   0.0000000E+00   0.0000000E+00   0.0000000E+00   0.0000000E+00   0.0000000E+00   0.0000000E+00   0.0000000E+00   0.0000000E+00   0.0000000E+00   0.0000000E+00   0.0000000E+00   0.0000000E+00   0.0000000E+00   0.0000000E+00   0.0000000E+00   0.0000000E+00   0.0000000E+00   0.0000000E+00   0.0000000E+00   0.0000000E+00   0.0000000E+00   0.0000000E+00   0.0000000E+00   0.0000000E+00   0.0000000E+00   0.0000000E+00   0.0000000E+00   0.0000000E+00   0.0000000E+00   0.0000000E+00   0.0000000E+00   0.0000000E+00   0.0000000E+00   0.0000000E+00   0.0000000E+00   0.0000000E+00   0.0000000E+00   0.0000000E+00   0.0000000E+00   0.0000000E+00   0.0000000E+00   0.0000000E+00   0.0000000E+00   0.0000000E+00   0.0000000E+00   0.0000000E+00   0.0000000E+00   0.0000000E+00   0.0000000E+00   0.0000000E+00   0.0000000E+00   0.0000000E+00   0.0000000E+00   0.0000000E+00   0.0000000E+00   0.0000000E+00   0.0000000E+00   0.0000000E+00   0.0000000E+00   0.0000000E+00   0.0000000E+00   0.0000000E+00   0.0000000E+00   0.0000000E+00   0.0000000E+00   0.0000000E+00   0.0000000E+00   0.0000000E+00   0.0000000E+00   0.0000000E+00   0.0000000E+00   0.0000000E+00   0.0000000E+00   0.0000000E+00   0.0000000E+00   0.0000000E+00   0.0000000E+00   0.0000000E+00   0.0000000E+00   0.0000000E+00   0.0000000E+00   0.0000000E+00   0.0000000E+00   0.0000000E+00   0.0000000E+00   0.0000000E+00   0.0000000E+00   0.0000000E+00   0.0000000E+00   0.0000000E+00   0.0000000E+00   0.0000000E+00   0.0000000E+00   0.0000000E+00   0.0000000E+00   0.0000000E+00   0.0000000E+00   0.0000000E+00   0.0000000E+00   0.0000000E+00   0.0000000E+00   0.0000000E+00   0.0000000E+00   0.0000000E+00   0.0000000E+00   0.0000000E+00   0.0000000E+00   0.0000000E+00   0.0000000E+00   0.0000000E+00   0.0000000E+00   0.0000000E+00   0.0000000E+00   0.0000000E+00   0.0000000E+00   0.0000000E+00   0.0000000E+00   0.0000000E+00   0.0000000E+00   0.0000000E+00   0.0000000E+00   0.0000000E+00   0.0000000E+00   0.0000000E+00   0.0000000E+00   0.0000000E+00   0.0000000E+00   0.0000000E+00   0.0000000E+00   0.0000000E+00   0.0000000E+00   0.0000000E+00   0.0000000E+00   0.0000000E+00   0.0000000E+00   0.0000000E+00   0.0000000E+00   0.0000000E+00   0.0000000E+00   0.0000000E+00   0.0000000E+00   0.0000000E+00   0.0000000E+00   0.0000000E+00   0.0000000E+00   0.0000000E+00   0.0000000E+00   0.0000000E+00   0.0000000E+00   0.0000000E+00   0.0000000E+00   0.0000000E+00   0.0000000E+00   0.0000000E+00   0.0000000E+00   0.0000000E+00   0.0000000E+00   0.0000000E+00   0.0000000E+00   0.0000000E+00   0.0000000E+00   0.0000000E+00   0.0000000E+00   0.0000000E+00   0.0000000E+00   0.0000000E+00   0.0000000E+00   0.0000000E+00   0.0000000E+00   0.0000000E+00   0.0000000E+00   0.0000000E+00   0.0000000E+00   0.0000000E+00   0.0000000E+00   0.0000000E+00   0.0000000E+00   0.0000000E+00   0.0000000E+00   0.0000000E+00   0.0000000E+00   0.0000000E+00   0.0000000E+00   0.0000000E+00   0.0000000E+00   0.0000000E+00   0.0000000E+00   0.0000000E+00   0.0000000E+00   0.0000000E+00   0.0000000E+00   0.0000000E+00   0.0000000E+00   0.0000000E+00   0.0000000E+00   0.0000000E+00   0.0000000E+00   0.0000000E+00   0.0000000E+00   0.0000000E+00   0.0000000E+00   0.0000000E+00   0.0000000E+00   0.0000000E+00   0.0000000E+00   0.0000000E+00   0.0000000E+00   0.0000000E+00   0.0000000E+00   0.0000000E+00   0.0000000E+00   0.0000000E+00   0.0000000E+00   0.0000000E+00   0.0000000E+00   0.0000000E+00   0.0000000E+00   0.0000000E+00   0.0000000E+00   0.0000000E+00   0.0000000E+00   0.0000000E+00   0.0000000E+00   0.0000000E+00   0.0000000E+00   0.0000000E+00   0.0000000E+00   0.0000000E+00   0.0000000E+00   0.0000000E+00   0.0000000E+00   0.0000000E+00   0.0000000E+00   0.0000000E+00   0.0000000E+00   0.0000000E+00   0.0000000E+00   0.0000000E+00   0.0000000E+00   0.0000000E+00   0.0000000E+00   0.0000000E+00   0.0000000E+00   0.0000000E+00   0.0000000E+00   0.0000000E+00   0.0000000E+00   0.0000000E+00   0.0000000E+00  -3.1998283E-03   0.0000000E+00  -1.2735019E-03  -3.9259121E-03   0.0000000E+00  -1.2370234E-03  -4.5480742E-03   0.0000000E+00  -1.1369777E-03  -5.0446936E-03   0.0000000E+00  -1.0020140E-03  -5.4157428E-03   0.0000000E+00  -8.5759291E-04  -3.0725347E-03   0.0000000E+00  -1.6458170E-03  -4.3689292E-03   0.0000000E+00  -1.5244993E-03  -5.4907561E-03   0.0000000E+00  -1.5288197E-03  -6.4080600E-03   0.0000000E+00  -1.4487550E-03  -7.1144211E-03   0.0000000E+00  -1.3073001E-03  -7.6284427E-03   0.0000000E+00  -1.1366089E-03  -4.2311810E-03   0.0000000E+00  -1.7596215E-03  -6.0020019E-03   0.0000000E+00  -1.6728893E-03  -7.5382590E-03   0.0000000E+00  -1.6575489E-03  -8.8002542E-03   0.0000000E+00  -1.5803614E-03  -9.7548505E-03   0.0000000E+00  -1.4550146E-03  -1.0440328E-02   0.0000000E+00  -1.2800877E-03  -5.6449957E-03   0.0000000E+00  -1.7926681E-03  -7.9542650E-03   0.0000000E+00  -1.6784600E-03  -9.9208076E-03   0.0000000E+00  -1.6764400E-03  -1.1523599E-02   0.0000000E+00  -1.6156870E-03  -1.2730059E-02   0.0000000E+00  -1.5033877E-03  -1.3584408E-02   0.0000000E+00  -1.3355967E-03  -7.2717178E-03   0.0000000E+00  -1.8027592E-03  -1.0160310E-02   0.0000000E+00  -1.6127848E-03  -1.2570176E-02   0.0000000E+00  -1.6112204E-03  -1.4506680E-02   0.0000000E+00  -1.5639354E-03  -1.5943309E-02   0.0000000E+00  -1.4717594E-03  -1.6948614E-02   0.0000000E+00  -1.3186829E-03  -9.1362363E-03   0.0000000E+00  -1.8283878E-03  -1.2646487E-02   0.0000000E+00  -1.5061478E-03  -1.5501716E-02   0.0000000E+00  -1.4814931E-03  -1.7755097E-02   0.0000000E+00  -1.4445081E-03  -1.9400736E-02   0.0000000E+00  -1.3799055E-03  -2.0533955E-02   0.0000000E+00  -1.2527717E-03  -1.1294909E-02   0.0000000E+00  -1.9404714E-03  -1.5477346E-02   0.0000000E+00  -1.4139073E-03  -1.8776400E-02   0.0000000E+00  -1.3295793E-03  -2.1332704E-02   0.0000000E+00  -1.2947887E-03  -2.3174290E-02   0.0000000E+00  -1.2579461E-03  -2.4418890E-02   0.0000000E+00  -1.1684370E-03  -1.3835006E-02   0.0000000E+00  -2.2104890E-03  -1.8731236E-02   0.0000000E+00  -1.4066785E-03  -2.2465393E-02   0.0000000E+00  -1.2293963E-03  -2.5329603E-02   0.0000000E+00  -1.1710135E-03  -2.7352709E-02   0.0000000E+00  -1.1638991E-03  -2.8698202E-02   0.0000000E+00  -1.1136575E-03  -1.6941968E-02   0.0000000E+00  -2.5278553E-03  -2.2475451E-02   0.0000000E+00  -1.5110760E-03  -2.6615035E-02   0.0000000E+00  -1.2614001E-03  -2.9794674E-02   0.0000000E+00  -1.1581216E-03  -3.1999607E-02   0.0000000E+00  -1.1797899E-03  -3.3437543E-02   0.0000000E+00  -1.1586286E-03  -2.1005481E-02   0.0000000E+00  -2.4452237E-03  -2.6824547E-02   0.0000000E+00  -1.6220188E-03  -3.1304013E-02   0.0000000E+00  -1.3993471E-03  -3.4765914E-02   0.0000000E+00  -1.3172360E-03  -3.7151173E-02   0.0000000E+00  -1.3699827E-03  -3.8663752E-02   0.0000000E+00  -1.3815801E-03  -2.6345361E-02   0.0000000E+00  -1.9187554E-03  -3.1995330E-02   0.0000000E+00  -1.6741190E-03  -3.6654327E-02   0.0000000E+00  -1.6093006E-03  -4.0312938E-02   0.0000000E+00  -1.6758232E-03  -4.2840730E-02   0.0000000E+00  -1.7852144E-03  -4.4391409E-02   0.0000000E+00  -1.8409023E-03  -3.2154884E-02   0.0000000E+00  -2.8735721E-03  -3.7992273E-02   0.0000000E+00  -2.3418886E-03  -4.2707156E-02   0.0000000E+00  -2.2210239E-03  -4.6475232E-02   0.0000000E+00  -2.3519571E-03  -4.9092852E-02   0.0000000E+00  -2.5016910E-03  -5.0638344E-02   0.0000000E+00  -2.6099582E-03  -3.8598511E-02   0.0000000E+00  -7.9941181E-03  -4.4717237E-02   0.0000000E+00  -5.7664067E-03  -4.9584832E-02   0.0000000E+00  -4.2401822E-03  -5.3358927E-02   0.0000000E+00  -3.8183052E-03  -5.5941101E-02   0.0000000E+00  -3.7572554E-03  -5.7452325E-02   0.0000000E+00  -3.7797706E-03  -4.6797421E-02   0.0000000E+00  -1.2294257E-02  -5.2698851E-02   0.0000000E+00  -9.9415770E-03  -5.7431228E-02   0.0000000E+00  -7.5553968E-03  -6.1040930E-02   0.0000000E+00  -6.2710056E-03  -6.3447066E-02   0.0000000E+00  -5.7229125E-03  -6.4887874E-02   0.0000000E+00  -5.4008560E-03  -5.6394022E-02   0.0000000E+00  -1.5146606E-02  -6.1869256E-02   0.0000000E+00  -1.3161337E-02  -6.6190183E-02   0.0000000E+00  -1.0920114E-02  -6.9440752E-02   0.0000000E+00  -9.2396094E-03  -7.1633406E-02   0.0000000E+00  -8.1968028E-03  -7.2981246E-02   0.0000000E+00  -7.4518695E-03  -6.6566959E-02   0.0000000E+00  -1.7392205E-02  -7.1478412E-02   0.0000000E+00  -1.5758121E-02  -7.5434171E-02   0.0000000E+00  -1.3892740E-02  -7.8422360E-02   0.0000000E+00  -1.2169480E-02  -8.0476567E-02   0.0000000E+00  -1.0828209E-02  -8.1771083E-02   0.0000000E+00  -9.7130910E-03  -7.6622486E-02   0.0000000E+00  -1.9531021E-02  -8.1218116E-02   0.0000000E+00  -1.8083725E-02  -8.5012764E-02   0.0000000E+00  -1.6472178E-02  -8.7927341E-02   0.0000000E+00  -1.4831039E-02  -8.9970425E-02   0.0000000E+00  -1.3359204E-02  -9.1274783E-02   0.0000000E+00  -1.2013879E-02  -8.6437806E-02   0.0000000E+00  -2.1644298E-02  -9.1100425E-02   0.0000000E+00  -2.0294821E-02  -9.4995566E-02   0.0000000E+00  -1.8804230E-02  -9.8014325E-02   0.0000000E+00  -1.7241249E-02  -1.0015546E-01   0.0000000E+00  -1.5714638E-02  -1.0151569E-01   0.0000000E+00  -1.4234342E-02  -9.6320249E-02   0.0000000E+00  -2.3780640E-02  -1.0137131E-01   0.0000000E+00  -2.2447109E-02  -1.0555169E-01   0.0000000E+00  -2.0990785E-02  -1.0878365E-01   0.0000000E+00  -1.9456688E-02  -1.1108139E-01   0.0000000E+00  -1.7887749E-02  -1.1252403E-01   0.0000000E+00  -1.6326785E-02  -1.0669871E-01   0.0000000E+00  -2.5906952E-02  -1.1225362E-01   0.0000000E+00  -2.4556877E-02  -1.1680804E-01   0.0000000E+00  -2.3073684E-02  -1.2030127E-01   0.0000000E+00  -2.1530729E-02  -1.2277868E-01   0.0000000E+00  -1.9918984E-02  -1.2433340E-01   0.0000000E+00  -1.8287269E-02  -1.1773556E-01   0.0000000E+00  -2.7979640E-02  -1.2382385E-01   0.0000000E+00  -2.6613249E-02  -1.2880397E-01   0.0000000E+00  -2.5075220E-02  -1.3259704E-01   0.0000000E+00  -2.3502745E-02  -1.3528354E-01   0.0000000E+00  -2.1836236E-02  -1.3697842E-01   0.0000000E+00  -2.0123653E-02  -1.2943695E-01   0.0000000E+00  -2.9970000E-02  -1.3610911E-01   0.0000000E+00  -2.8588550E-02  -1.4155963E-01   0.0000000E+00  -2.7002661E-02  -1.4569513E-01   0.0000000E+00  -2.5386022E-02  -1.4862540E-01   0.0000000E+00  -2.3646358E-02  -1.5049334E-01   0.0000000E+00  -2.1829650E-02  -1.4180988E-01   0.0000000E+00  -3.1858161E-02  -1.4912783E-01   0.0000000E+00  -3.0462362E-02  -1.5509945E-01   0.0000000E+00  -2.8838601E-02  -1.5962744E-01   0.0000000E+00  -2.7150815E-02  -1.6283956E-01   0.0000000E+00  -2.5317891E-02  -1.6491666E-01   0.0000000E+00  -2.3375470E-02  -1.5489075E-01   0.0000000E+00  -3.3629585E-02  -1.6292426E-01   0.0000000E+00  -3.2208696E-02  -1.6946866E-01   0.0000000E+00  -3.0534191E-02  -1.7444153E-01   0.0000000E+00  -2.8731862E-02  -1.7797725E-01   0.0000000E+00  -2.6789615E-02  -1.8029629E-01   0.0000000E+00  -2.4719404E-02  -1.6878723E-01   0.0000000E+00  -3.5273828E-02  -1.7759246E-01   0.0000000E+00  -3.3795133E-02  -1.8475023E-01   0.0000000E+00  -3.2009821E-02  -1.9021423E-01   0.0000000E+00  -3.0030748E-02  -1.9410364E-01   0.0000000E+00  -2.7998157E-02  -1.9668938E-01   0.0000000E+00  -2.5828116E-02  -1.8373479E-01   0.0000000E+00  -3.6788709E-02  -1.9329669E-01   0.0000000E+00  -3.5182696E-02  -2.0106775E-01   0.0000000E+00  -3.3163629E-02  -2.0703977E-01   0.0000000E+00  -3.0962108E-02  -2.1128787E-01   0.0000000E+00  -2.8910687E-02  -2.1414800E-01   0.0000000E+00  -2.6713768E-02  -2.0010747E-01   0.0000000E+00  -3.8195252E-02  -2.1025376E-01   0.0000000E+00  -3.6347888E-02  -2.1854818E-01   0.0000000E+00  -3.3922464E-02  -2.2498441E-01   0.0000000E+00  -3.1503811E-02  -2.2956149E-01   0.0000000E+00  -2.9572487E-02  -2.3268312E-01   0.0000000E+00  -2.7469125E-02  -2.1827635E-01   0.0000000E+00  -3.9548133E-02  -2.2860287E-01   0.0000000E+00  -3.7314031E-02  -2.3721035E-01   0.0000000E+00  -3.4309845E-02  -2.4397013E-01   0.0000000E+00  -3.1779926E-02  -2.4882264E-01   0.0000000E+00  -3.0123109E-02  -2.5216728E-01   0.0000000E+00  -2.8271325E-02  -2.3822802E-01   0.0000000E+00  -4.0962473E-02  -2.4811606E-01   0.0000000E+00  -3.8204912E-02  -2.5669393E-01   0.0000000E+00  -3.4514662E-02  -2.6354730E-01   0.0000000E+00  -3.2101221E-02  -2.6860502E-01   0.0000000E+00  -3.0887080E-02  -2.7215406E-01   0.0000000E+00  -2.9362060E-02  -2.5912604E-01   0.0000000E+00  -4.2676162E-02  -2.6790297E-01   0.0000000E+00  -3.9292991E-02  -2.7606240E-01   0.0000000E+00  -3.4967843E-02  -2.8278041E-01   0.0000000E+00  -3.2853380E-02  -2.8779542E-01   0.0000000E+00  -3.2302465E-02  -2.9166061E-01   0.0000000E+00  -3.0973626E-02  -2.7927130E-01   0.0000000E+00  -4.5138709E-02  -2.8644633E-01   0.0000000E+00  -4.1181557E-02  -2.9379317E-01   0.0000000E+00  -3.6547232E-02  -3.0034018E-01   0.0000000E+00  -3.4460086E-02  -3.0551487E-01   0.0000000E+00  -3.3963349E-02  -3.0958831E-01   0.0000000E+00  -3.2821596E-02  -2.9638103E-01   0.0000000E+00  -4.9113434E-02  -3.0233279E-01   0.0000000E+00  -4.4783540E-02  -3.0939499E-01   0.0000000E+00  -4.0009696E-02  -3.1579888E-01   0.0000000E+00  -3.6916766E-02  -3.2094321E-01   0.0000000E+00  -3.5896678E-02  -3.2523468E-01   0.0000000E+00  -3.4367356E-02  -3.0875921E-01   0.0000000E+00  -5.5328198E-02  -3.1484500E-01   0.0000000E+00  -5.0906222E-02  -3.2201773E-01   0.0000000E+00  -4.6764132E-02  -3.2854030E-01   0.0000000E+00  -4.1762147E-02  -3.3366442E-01   0.0000000E+00  -3.8452625E-02  -3.3770251E-01   0.0000000E+00  -3.5752635E-02  -3.1349251E-01   0.0000000E+00  -6.3302703E-02  -3.2117838E-01   0.0000000E+00  -5.9649121E-02  -3.2838586E-01   0.0000000E+00  -5.7518154E-02  -3.3519483E-01   0.0000000E+00  -5.2370418E-02  -3.4114131E-01   0.0000000E+00  -4.4543389E-02  -3.4582400E-01   0.0000000E+00  -3.8565390E-02  -3.0331099E-01   0.0000000E+00  -7.1217299E-02  -3.1761363E-01   0.0000000E+00  -6.7829080E-02  -3.2662803E-01   0.0000000E+00  -6.8372525E-02  -3.3375469E-01   0.0000000E+00  -6.6475272E-02  -3.4143212E-01   0.0000000E+00  -5.6829315E-02  -3.4743378E-01   0.0000000E+00  -4.6596028E-02  -2.4484500E-01   0.0000000E+00  -7.6271966E-02  -2.8934336E-01   0.0000000E+00  -7.3379651E-02  -3.1088829E-01   0.0000000E+00  -7.6522835E-02  -3.1841958E-01   0.0000000E+00  -8.0752395E-02  -3.2645404E-01   0.0000000E+00  -7.7218190E-02  -3.3535421E-01   0.0000000E+00  -6.6221438E-02  -1.5416345E-01   0.0000000E+00  -8.0036715E-02  -1.9397937E-01   0.0000000E+00  -7.6974981E-02  -2.3482625E-01   0.0000000E+00  -7.9984479E-02  -2.6507285E-01   0.0000000E+00  -8.8251084E-02  -2.8149688E-01   0.0000000E+00  -9.3172185E-02  -2.9123205E-01   0.0000000E+00  -9.3402289E-02  -8.9427441E-02   0.0000000E+00  -8.3621435E-02  -1.1322450E-01   0.0000000E+00  -7.7653691E-02  -1.3821192E-01   0.0000000E+00  -7.9755217E-02  -1.5917143E-01   0.0000000E+00  -8.5131146E-02  -1.7467354E-01   0.0000000E+00  -8.9615561E-02  -1.8503313E-01   0.0000000E+00  -9.1035552E-02  -5.3155761E-02   0.0000000E+00  -8.7501653E-02  -6.5563746E-02   0.0000000E+00  -7.6271780E-02  -7.8205422E-02   0.0000000E+00  -7.8440942E-02  -8.9605831E-02   0.0000000E+00  -7.9928495E-02  -9.8717995E-02   0.0000000E+00  -8.2906678E-02  -1.0564934E-01   0.0000000E+00  -8.1452765E-02  -3.3268899E-02   0.0000000E+00  -9.0109818E-02  -3.8023859E-02   0.0000000E+00  -7.5484641E-02  -4.2319465E-02   0.0000000E+00  -7.9247080E-02  -4.6390038E-02   0.0000000E+00  -7.6425478E-02  -5.0000191E-02   0.0000000E+00  -7.6437369E-02  -5.3167026E-02   0.0000000E+00  -7.1548648E-02  -1.4820503E-02   0.0000000E+00  -9.1191441E-02  -1.3850478E-02   0.0000000E+00  -7.5108416E-02  -1.2179406E-02   0.0000000E+00  -7.9602100E-02  -1.0701413E-02   0.0000000E+00  -7.6179378E-02  -1.0023860E-02   0.0000000E+00  -7.3883742E-02  -1.0104278E-02   0.0000000E+00  -6.7198671E-02   1.1950306E-02   0.0000000E+00  -9.1263101E-02   1.8640129E-02   0.0000000E+00  -7.4870102E-02   2.5603686E-02   0.0000000E+00  -7.9098709E-02   3.1579830E-02   0.0000000E+00  -7.8402966E-02   3.5374206E-02   0.0000000E+00  -7.6641545E-02   3.7144892E-02   0.0000000E+00  -6.7913964E-02   4.8565641E-02   0.0000000E+00  -9.0613313E-02   6.1882120E-02   0.0000000E+00  -7.4715070E-02   7.4514106E-02   0.0000000E+00  -7.8108907E-02   8.4585495E-02   0.0000000E+00  -7.9955623E-02   9.0754457E-02   0.0000000E+00  -8.0538541E-02   9.3041733E-02   0.0000000E+00  -7.1412452E-02   9.0759575E-02   0.0000000E+00  -8.9419141E-02   1.1141829E-01   0.0000000E+00  -7.4688926E-02   1.3017452E-01   0.0000000E+00  -7.7771336E-02   1.4448518E-01   0.0000000E+00  -8.0723636E-02   1.5251897E-01   0.0000000E+00  -8.3059974E-02   1.5454188E-01   0.0000000E+00  -7.5531058E-02   1.3307834E-01   0.0000000E+00  -8.8117704E-02   1.6092700E-01   0.0000000E+00  -7.5058989E-02   1.8582776E-01   0.0000000E+00  -7.7912815E-02   2.0443924E-01   0.0000000E+00  -8.1054382E-02   2.1430162E-01   0.0000000E+00  -8.3948396E-02   2.1607323E-01   0.0000000E+00  -7.8678787E-02   1.7201738E-01   0.0000000E+00  -8.7213717E-02   2.0587373E-01   0.0000000E+00  -7.6133266E-02   2.3624322E-01   0.0000000E+00  -7.8221232E-02   2.5801948E-01   0.0000000E+00  -8.0435142E-02   2.7071932E-01   0.0000000E+00  -8.3397038E-02   2.7303869E-01   0.0000000E+00  -7.9730824E-02   2.0631374E-01   0.0000000E+00  -8.6461648E-02   2.4405766E-01   0.0000000E+00  -7.7593602E-02   2.7760193E-01   0.0000000E+00  -7.8585878E-02   3.0276442E-01   0.0000000E+00  -7.9380602E-02   3.1818503E-01   0.0000000E+00  -8.0816478E-02   3.2165354E-01   0.0000000E+00  -7.8456014E-02   2.3589817E-01   0.0000000E+00  -8.5269146E-02   2.7442899E-01   0.0000000E+00  -7.9151966E-02   3.0993950E-01   0.0000000E+00  -7.9308212E-02   3.3824098E-01   0.0000000E+00  -7.7412859E-02   3.5240680E-01   0.0000000E+00  -7.8609444E-02   3.5177869E-01   0.0000000E+00  -7.6963037E-02   2.6271534E-01   0.0000000E+00  -8.3738916E-02   3.0086190E-01   0.0000000E+00  -8.0237590E-02   3.3681369E-01   0.0000000E+00  -7.9739712E-02   3.6359072E-01   0.0000000E+00  -7.7166870E-02   3.7077183E-01   0.0000000E+00  -7.9378746E-02   3.6641943E-01   0.0000000E+00  -7.6263107E-02   2.8876090E-01   0.0000000E+00  -8.2137927E-02   3.2566273E-01   0.0000000E+00  -8.0093525E-02   3.5973179E-01   0.0000000E+00  -7.9132475E-02   3.7886789E-01   0.0000000E+00  -7.8951262E-02   3.7903389E-01   0.0000000E+00  -8.1220314E-02   3.7168244E-01   0.0000000E+00  -7.5712934E-02   3.1524301E-01   0.0000000E+00  -8.0067910E-02   3.4934488E-01   0.0000000E+00  -7.8610919E-02   3.7869281E-01   0.0000000E+00  -7.8047618E-02   3.8625124E-01   0.0000000E+00  -8.0038734E-02   3.8231742E-01   0.0000000E+00  -8.0881380E-02   3.7314501E-01   0.0000000E+00  -7.4354835E-02   3.4296471E-01   0.0000000E+00  -7.7442452E-02   3.7271956E-01   0.0000000E+00  -7.5204030E-02   3.9037442E-01   0.0000000E+00  -7.6765455E-02   3.9022833E-01   0.0000000E+00  -7.8752808E-02   3.8315716E-01   0.0000000E+00  -7.8471884E-02   3.7293917E-01   0.0000000E+00  -7.2664879E-02   3.7256265E-01   0.0000000E+00  -7.4083745E-02   3.9395186E-01   0.0000000E+00  -7.1604796E-02   3.9658517E-01   0.0000000E+00  -7.3746525E-02   3.9159274E-01   0.0000000E+00  -7.4745707E-02   3.8288024E-01   0.0000000E+00  -7.4212462E-02   3.7192374E-01   0.0000000E+00  -6.9417834E-02   4.0136743E-01   0.0000000E+00  -6.9314033E-02   4.0465134E-01   0.0000000E+00  -6.8402797E-02   4.0004453E-01   0.0000000E+00  -6.8627752E-02   3.9176008E-01   0.0000000E+00  -6.9157176E-02   3.8218239E-01   0.0000000E+00  -6.8898626E-02   3.7038508E-01   0.0000000E+00  -6.5159194E-02   4.1046828E-01   0.0000000E+00  -6.4535700E-02   4.0906391E-01   0.0000000E+00  -6.3531347E-02   4.0011573E-01   0.0000000E+00  -6.2103480E-02   3.9083794E-01   0.0000000E+00  -6.2126387E-02   3.8104361E-01   0.0000000E+00  -6.2604494E-02   3.6846563E-01   0.0000000E+00  -5.9663951E-02   4.0850997E-01   0.0000000E+00  -5.8521293E-02   3.9801821E-01   0.0000000E+00  -5.5801909E-02   3.8856956E-01   0.0000000E+00  -5.4359376E-02   3.7897921E-01   0.0000000E+00  -5.5059273E-02   3.6633202E-01   0.0000000E+00  -5.3480700E-02   4.0451986E-01   0.0000000E+00  -5.3509325E-02   3.9511061E-01   0.0000000E+00  -5.0246660E-02   3.8508388E-01   0.0000000E+00  -4.6964943E-02   3.7593243E-01   0.0000000E+00  -4.7132213E-02   3.6398429E-01   0.0000000E+00  -4.6688467E-02   3.9164409E-01   0.0000000E+00  -4.5606140E-02   3.8135284E-01   0.0000000E+00  -4.1249700E-02   3.7208900E-01   0.0000000E+00  -3.9566860E-02   3.6135429E-01   0.0000000E+00  -3.9941024E-02   3.8594857E-01   0.0000000E+00  -4.1506905E-02   3.7775224E-01   0.0000000E+00  -3.7118033E-02   3.6788848E-01   0.0000000E+00  -3.3245116E-02   3.5826573E-01   0.0000000E+00  -3.3375267E-02   3.7311631E-01   0.0000000E+00  -3.4589097E-02   3.6386275E-01   0.0000000E+00  -2.9683707E-02   3.5471165E-01   0.0000000E+00  -2.7971584E-02   3.5889867E-01   0.0000000E+00  -2.8243225E-02   3.5096076E-01   0.0000000E+00  -2.5091890E-02   3.4688187E-01   0.0000000E+00  -2.6133612E-02   3.4515837E-01   0.0000000E+00  -2.4183253E-02  -5.6794453E-03   0.0000000E+00  -7.1890233E-04  -5.8588954E-03   0.0000000E+00  -5.8555172E-04  -5.9714690E-03   0.0000000E+00  -4.6896451E-04  -6.0349423E-03   0.0000000E+00  -3.6899871E-04  -6.0664513E-03   0.0000000E+00  -2.8058034E-04  -6.0770987E-03   0.0000000E+00  -2.0655361E-04  -6.0764425E-03   0.0000000E+00  -1.4432683E-04  -6.0716104E-03   0.0000000E+00  -9.0667912E-05  -6.0668727E-03   0.0000000E+00  -4.3976375E-05  -7.9857362E-03   0.0000000E+00  -9.5649238E-04  -8.2189431E-03   0.0000000E+00  -7.8853971E-04  -8.3591565E-03   0.0000000E+00  -6.4083235E-04  -8.4366966E-03   0.0000000E+00  -5.0527079E-04  -8.4705232E-03   0.0000000E+00  -3.8952520E-04  -8.4778015E-03   0.0000000E+00  -2.9099415E-04  -8.4720161E-03   0.0000000E+00  -2.0474804E-04  -8.4617054E-03   0.0000000E+00  -1.3013562E-04  -8.4531382E-03   0.0000000E+00  -6.3328473E-05  -1.0902373E-02   0.0000000E+00  -1.0960946E-03  -1.1197233E-02   0.0000000E+00  -9.1558613E-04  -1.1370942E-02   0.0000000E+00  -7.5075170E-04  -1.1462120E-02   0.0000000E+00  -5.9995323E-04  -1.1498041E-02   0.0000000E+00  -4.6797257E-04  -1.1501169E-02   0.0000000E+00  -3.5217375E-04  -1.1488273E-02   0.0000000E+00  -2.5040310E-04  -1.1470975E-02   0.0000000E+00  -1.6061407E-04  -1.1457605E-02   0.0000000E+00  -7.8169651E-05  -1.4150065E-02   0.0000000E+00  -1.1539306E-03  -1.4503375E-02   0.0000000E+00  -9.7545295E-04  -1.4708788E-02   0.0000000E+00  -8.0418179E-04  -1.4811398E-02   0.0000000E+00  -6.5017614E-04  -1.4847302E-02   0.0000000E+00  -5.1196507E-04  -1.4844557E-02   0.0000000E+00  -3.8809006E-04  -1.4823200E-02   0.0000000E+00  -2.7847142E-04  -1.4798108E-02   0.0000000E+00  -1.7943405E-04  -1.4779239E-02   0.0000000E+00  -8.7696033E-05  -1.7603325E-02   0.0000000E+00  -1.1487782E-03  -1.8005615E-02   0.0000000E+00  -9.7827148E-04  -1.8234294E-02   0.0000000E+00  -8.1294071E-04  -1.8342983E-02   0.0000000E+00  -6.6398835E-04  -1.8375477E-02   0.0000000E+00  -5.2634702E-04  -1.8363977E-02   0.0000000E+00  -4.0287149E-04  -1.8332642E-02   0.0000000E+00  -2.9128802E-04  -1.8298756E-02   0.0000000E+00  -1.8869957E-04  -1.8273881E-02   0.0000000E+00  -9.2718758E-05  -2.1260321E-02   0.0000000E+00  -1.1056237E-03  -2.1699362E-02   0.0000000E+00  -9.4881054E-04  -2.1940636E-02   0.0000000E+00  -7.9772720E-04  -2.2048393E-02   0.0000000E+00  -6.5704435E-04  -2.2072036E-02   0.0000000E+00  -5.2695925E-04  -2.2048539E-02   0.0000000E+00  -4.0756923E-04  -2.2005161E-02   0.0000000E+00  -2.9697164E-04  -2.1961151E-02   0.0000000E+00  -1.9389758E-04  -2.1929627E-02   0.0000000E+00  -9.5760064E-05  -2.5201386E-02   0.0000000E+00  -1.0550037E-03  -2.5663694E-02   0.0000000E+00  -9.2081440E-04  -2.5907099E-02   0.0000000E+00  -7.8769086E-04  -2.6005818E-02   0.0000000E+00  -6.5725192E-04  -2.6014781E-02   0.0000000E+00  -5.3471496E-04  -2.5975466E-02   0.0000000E+00  -4.1851250E-04  -2.5917400E-02   0.0000000E+00  -3.0852848E-04  -2.5861658E-02   0.0000000E+00  -2.0319490E-04  -2.5822619E-02   0.0000000E+00  -1.0086172E-04  -2.9524181E-02   0.0000000E+00  -1.0391237E-03  -2.9997189E-02   0.0000000E+00  -9.3318732E-04  -3.0233053E-02   0.0000000E+00  -8.1762177E-04  -3.0314777E-02   0.0000000E+00  -6.9666735E-04  -3.0303396E-02   0.0000000E+00  -5.7611242E-04  -3.0243948E-02   0.0000000E+00  -4.5727610E-04  -3.0168265E-02   0.0000000E+00  -3.4103563E-04  -3.0098919E-02   0.0000000E+00  -2.2654889E-04  -3.0051278E-02   0.0000000E+00  -1.1305981E-04  -3.4293983E-02   0.0000000E+00  -1.1170766E-03  -3.4766071E-02   0.0000000E+00  -1.0363519E-03  -3.4985971E-02   0.0000000E+00  -9.3283935E-04  -3.5044491E-02   0.0000000E+00  -8.1161526E-04  -3.5007857E-02   0.0000000E+00  -6.8167178E-04  -3.4924440E-02   0.0000000E+00  -5.4736569E-04  -3.4828253E-02   0.0000000E+00  -4.1164804E-04  -3.4743264E-02   0.0000000E+00  -2.7509246E-04  -3.4685832E-02   0.0000000E+00  -1.3775496E-04  -3.9534718E-02   0.0000000E+00  -1.3625366E-03  -3.9996114E-02   0.0000000E+00  -1.2900601E-03  -4.0194158E-02   0.0000000E+00  -1.1813443E-03  -4.0225651E-02   0.0000000E+00  -1.0407489E-03  -4.0160552E-02   0.0000000E+00  -8.8143989E-04  -4.0050276E-02   0.0000000E+00  -7.1191054E-04  -3.9931100E-02   0.0000000E+00  -5.3737068E-04  -3.9828576E-02   0.0000000E+00  -3.6007378E-04  -3.9760165E-02   0.0000000E+00  -1.8063984E-04  -4.5261659E-02   0.0000000E+00  -1.8362046E-03  -4.5705441E-02   0.0000000E+00  -1.7519341E-03  -4.5879535E-02   0.0000000E+00  -1.6102437E-03  -4.5883518E-02   0.0000000E+00  -1.4206357E-03  -4.5789257E-02   0.0000000E+00  -1.2029676E-03  -4.5650709E-02   0.0000000E+00  -9.7125984E-04  -4.5506887E-02   0.0000000E+00  -7.3268788E-04  -4.5385379E-02   0.0000000E+00  -4.9062085E-04  -4.5305017E-02   0.0000000E+00  -2.4594733E-04  -5.1502910E-02   0.0000000E+00  -2.5751751E-03  -5.1924217E-02   0.0000000E+00  -2.4591053E-03  -5.2077774E-02   0.0000000E+00  -2.2462478E-03  -5.2056894E-02   0.0000000E+00  -1.9719803E-03  -5.1934250E-02   0.0000000E+00  -1.6641639E-03  -5.1767264E-02   0.0000000E+00  -1.3394286E-03  -5.1597822E-02   0.0000000E+00  -1.0086666E-03  -5.1456239E-02   0.0000000E+00  -6.7456171E-04  -5.1363181E-02   0.0000000E+00  -3.3815997E-04  -5.8292639E-02   0.0000000E+00  -3.6422284E-03  -5.8698162E-02   0.0000000E+00  -3.4170102E-03  -5.8835600E-02   0.0000000E+00  -3.0934198E-03  -5.8792021E-02   0.0000000E+00  -2.7056546E-03  -5.8644313E-02   0.0000000E+00  -2.2721407E-03  -5.8450617E-02   0.0000000E+00  -1.8249648E-03  -5.8256276E-02   0.0000000E+00  -1.3729938E-03  -5.8094844E-02   0.0000000E+00  -9.1626984E-04  -5.7989184E-02   0.0000000E+00  -4.5821178E-04  -6.5688007E-02   0.0000000E+00  -5.0551845E-03  -6.6082105E-02   0.0000000E+00  -4.6366528E-03  -6.6204563E-02   0.0000000E+00  -4.1502034E-03  -6.6144250E-02   0.0000000E+00  -3.6093560E-03  -6.5973386E-02   0.0000000E+00  -3.0327756E-03  -6.5754838E-02   0.0000000E+00  -2.4369243E-03  -6.5537110E-02   0.0000000E+00  -1.8298768E-03  -6.5357186E-02   0.0000000E+00  -1.2200233E-03  -6.5239623E-02   0.0000000E+00  -6.1091554E-04  -7.3748335E-02   0.0000000E+00  -6.7846184E-03  -7.4124992E-02   0.0000000E+00  -6.1193625E-03  -7.4236333E-02   0.0000000E+00  -5.4223752E-03  -7.4162759E-02   0.0000000E+00  -4.6833353E-03  -7.3974378E-02   0.0000000E+00  -3.9228015E-03  -7.3735297E-02   0.0000000E+00  -3.1460887E-03  -7.3497839E-02   0.0000000E+00  -2.3628820E-03  -7.3300570E-02   0.0000000E+00  -1.5753589E-03  -7.3171392E-02   0.0000000E+00  -7.8878616E-04  -8.2514167E-02   0.0000000E+00  -8.7359035E-03  -8.2877830E-02   0.0000000E+00  -7.8133699E-03  -8.2979992E-02   0.0000000E+00  -6.8694465E-03  -8.2896903E-02   0.0000000E+00  -5.9050820E-03  -8.2696699E-02   0.0000000E+00  -4.9282038E-03  -8.2444325E-02   0.0000000E+00  -3.9449162E-03  -8.2191586E-02   0.0000000E+00  -2.9584067E-03  -8.1982657E-02   0.0000000E+00  -1.9714057E-03  -8.1846207E-02   0.0000000E+00  -9.8581251E-04  -9.2019893E-02   0.0000000E+00  -1.0789549E-02  -9.2381433E-02   0.0000000E+00  -9.6062841E-03  -9.2482001E-02   0.0000000E+00  -8.4203212E-03  -9.2396528E-02   0.0000000E+00  -7.2287968E-03  -9.2191644E-02   0.0000000E+00  -6.0283048E-03  -9.1932975E-02   0.0000000E+00  -4.8258528E-03  -9.1675550E-02   0.0000000E+00  -3.6249238E-03  -9.1461651E-02   0.0000000E+00  -2.4204012E-03  -9.1322057E-02   0.0000000E+00  -1.2105976E-03  -1.0229027E-01   0.0000000E+00  -1.2822539E-02  -1.0267098E-01   0.0000000E+00  -1.1420834E-02  -1.0278555E-01   0.0000000E+00  -1.0014732E-02  -1.0270947E-01   0.0000000E+00  -8.6008906E-03  -1.0251349E-01   0.0000000E+00  -7.1891737E-03  -1.0226148E-01   0.0000000E+00  -5.7703638E-03  -1.0200883E-01   0.0000000E+00  -4.3428689E-03  -1.0179837E-01   0.0000000E+00  -2.9059420E-03  -1.0165975E-01   0.0000000E+00  -1.4573655E-03  -1.1335564E-01   0.0000000E+00  -1.4770084E-02  -1.1377981E-01   0.0000000E+00  -1.3190253E-02  -1.1392982E-01   0.0000000E+00  -1.1592634E-02  -1.1388485E-01   0.0000000E+00  -9.9908952E-03  -1.1371522E-01   0.0000000E+00  -8.3718449E-03  -1.1348673E-01   0.0000000E+00  -6.7350282E-03  -1.1325358E-01   0.0000000E+00  -5.0797141E-03  -1.1305635E-01   0.0000000E+00  -3.3988012E-03  -1.1292651E-01   0.0000000E+00  -1.7032893E-03  -1.2524946E-01   0.0000000E+00  -1.6608629E-02  -1.2574407E-01   0.0000000E+00  -1.4877986E-02  -1.2595612E-01   0.0000000E+00  -1.3123551E-02  -1.2596682E-01   0.0000000E+00  -1.1340804E-02  -1.2584811E-01   0.0000000E+00  -9.5276963E-03  -1.2566496E-01   0.0000000E+00  -7.6817269E-03  -1.2546779E-01   0.0000000E+00  -5.7950970E-03  -1.2529841E-01   0.0000000E+00  -3.8814829E-03  -1.2518500E-01   0.0000000E+00  -1.9458822E-03  -1.3800670E-01   0.0000000E+00  -1.8321829E-02  -1.3859902E-01   0.0000000E+00  -1.6455177E-02  -1.3890177E-01   0.0000000E+00  -1.4551745E-02  -1.3899668E-01   0.0000000E+00  -1.2605210E-02  -1.3895752E-01   0.0000000E+00  -1.0612223E-02  -1.3884325E-01   0.0000000E+00  -8.5652471E-03  -1.3870385E-01   0.0000000E+00  -6.4723166E-03  -1.3857655E-01   0.0000000E+00  -4.3391208E-03  -1.3848895E-01   0.0000000E+00  -2.1772005E-03  -1.5166239E-01   0.0000000E+00  -1.9891033E-02  -1.5238006E-01   0.0000000E+00  -1.7887332E-02  -1.5280075E-01   0.0000000E+00  -1.5838206E-02  -1.5300982E-01   0.0000000E+00  -1.3740024E-02  -1.5307754E-01   0.0000000E+00  -1.1584969E-02  -1.5305929E-01   0.0000000E+00  -9.3636559E-03  -1.5299913E-01   0.0000000E+00  -7.0866495E-03  -1.5293011E-01   0.0000000E+00  -4.7572488E-03  -1.5287806E-01   0.0000000E+00  -2.3890445E-03  -1.6625270E-01   0.0000000E+00  -2.1290325E-02  -1.6712058E-01   0.0000000E+00  -1.9143749E-02  -1.6768464E-01   0.0000000E+00  -1.6953303E-02  -1.6803417E-01   0.0000000E+00  -1.4717411E-02  -1.6823530E-01   0.0000000E+00  -1.2420019E-02  -1.6833858E-01   0.0000000E+00  -1.0055238E-02  -1.6837983E-01   0.0000000E+00  -7.6219863E-03  -1.6838618E-01   0.0000000E+00  -5.1243226E-03  -1.6838004E-01   0.0000000E+00  -2.5755321E-03  -1.8182161E-01   0.0000000E+00  -2.2493800E-02  -1.8285877E-01   0.0000000E+00  -2.0210490E-02  -1.8358530E-01   0.0000000E+00  -1.7890489E-02  -1.8409607E-01   0.0000000E+00  -1.5532263E-02  -1.8445371E-01   0.0000000E+00  -1.3115081E-02  -1.8470150E-01   0.0000000E+00  -1.0632039E-02  -1.8486506E-01   0.0000000E+00  -8.0719879E-03  -1.8496346E-01   0.0000000E+00  -5.4351967E-03  -1.8501402E-01   0.0000000E+00  -2.7350863E-03  -1.9841991E-01   0.0000000E+00  -2.3500249E-02  -1.9963621E-01   0.0000000E+00  -2.1108609E-02  -2.0053731E-01   0.0000000E+00  -1.8680362E-02  -2.0122367E-01   0.0000000E+00  -1.6213378E-02  -2.0175554E-01   0.0000000E+00  -1.3691402E-02  -2.0216644E-01   0.0000000E+00  -1.1107013E-02  -2.0246989E-01   0.0000000E+00  -8.4429756E-03  -2.0267537E-01   0.0000000E+00  -5.6924187E-03  -2.0279261E-01   0.0000000E+00  -2.8675909E-03  -2.1608952E-01   0.0000000E+00  -2.4357902E-02  -2.1749160E-01   0.0000000E+00  -2.1908751E-02  -2.1857399E-01   0.0000000E+00  -1.9395491E-02  -2.1944566E-01   0.0000000E+00  -1.6824629E-02  -2.2016355E-01   0.0000000E+00  -1.4198262E-02  -2.2074945E-01   0.0000000E+00  -1.1513430E-02  -2.2120588E-01   0.0000000E+00  -8.7533090E-03  -2.2152975E-01   0.0000000E+00  -5.9049265E-03  -2.2172160E-01   0.0000000E+00  -2.9766078E-03  -2.3483606E-01   0.0000000E+00  -2.5180265E-02  -2.3643149E-01   0.0000000E+00  -2.2726921E-02  -2.3770532E-01   0.0000000E+00  -2.0138793E-02  -2.3877080E-01   0.0000000E+00  -1.7452713E-02  -2.3968078E-01   0.0000000E+00  -1.4701413E-02  -2.4044801E-01   0.0000000E+00  -1.1896584E-02  -2.4106325E-01   0.0000000E+00  -9.0306308E-03  -2.4151148E-01   0.0000000E+00  -6.0864440E-03  -2.4178255E-01   0.0000000E+00  -3.0666431E-03  -2.5453949E-01   0.0000000E+00  -2.6127787E-02  -2.5634912E-01   0.0000000E+00  -2.3688855E-02  -2.5783971E-01   0.0000000E+00  -2.1014538E-02  -2.5911382E-01   0.0000000E+00  -1.8179422E-02  -2.6022208E-01   0.0000000E+00  -1.5259367E-02  -2.6117241E-01   0.0000000E+00  -1.2299584E-02  -2.6194638E-01   0.0000000E+00  -9.3023796E-03  -2.6251885E-01   0.0000000E+00  -6.2515805E-03  -2.6286912E-01   0.0000000E+00  -3.1418891E-03  -2.7477008E-01   0.0000000E+00  -2.7357168E-02  -2.7685997E-01   0.0000000E+00  -2.4888180E-02  -2.7862155E-01   0.0000000E+00  -2.2098262E-02  -2.8013933E-01   0.0000000E+00  -1.9060886E-02  -2.8146315E-01   0.0000000E+00  -1.5915284E-02  -2.8260151E-01   0.0000000E+00  -1.2748213E-02  -2.8353286E-01   0.0000000E+00  -9.5839174E-03  -2.8422740E-01   0.0000000E+00  -6.4113326E-03  -2.8465724E-01   0.0000000E+00  -3.2164461E-03  -2.9462507E-01   0.0000000E+00  -2.8968338E-02  -2.9708341E-01   0.0000000E+00  -2.6407456E-02  -2.9921800E-01   0.0000000E+00  -2.3385232E-02  -3.0105439E-01   0.0000000E+00  -2.0057019E-02  -3.0263290E-01   0.0000000E+00  -1.6634166E-02  -3.0397144E-01   0.0000000E+00  -1.3221916E-02  -3.0506337E-01   0.0000000E+00  -9.8704947E-03  -3.0587602E-01   0.0000000E+00  -6.5715220E-03  -3.0638263E-01   0.0000000E+00  -3.2837878E-03  -3.1292716E-01   0.0000000E+00  -3.0780502E-02  -3.1584030E-01   0.0000000E+00  -2.7999761E-02  -3.1837866E-01   0.0000000E+00  -2.4708195E-02  -3.2054812E-01   0.0000000E+00  -2.1081250E-02  -3.2240039E-01   0.0000000E+00  -1.7310537E-02  -3.2393688E-01   0.0000000E+00  -1.3626019E-02  -3.2517239E-01   0.0000000E+00  -1.0087647E-02  -3.2608375E-01   0.0000000E+00  -6.6741765E-03  -3.2665277E-01   0.0000000E+00  -3.3197554E-03  -3.2874107E-01   0.0000000E+00  -3.2176487E-02  -3.3195555E-01   0.0000000E+00  -2.9196192E-02  -3.3484545E-01   0.0000000E+00  -2.5663262E-02  -3.3730817E-01   0.0000000E+00  -2.1719029E-02  -3.3938429E-01   0.0000000E+00  -1.7671015E-02  -3.4108615E-01   0.0000000E+00  -1.3736336E-02  -3.4240994E-01   0.0000000E+00  -1.0062257E-02  -3.4339589E-01   0.0000000E+00  -6.5854276E-03  -3.4400427E-01   0.0000000E+00  -3.2610067E-03  -3.4123117E-01   0.0000000E+00  -3.2968793E-02  -3.4469485E-01   0.0000000E+00  -2.9751064E-02  -3.4789202E-01   0.0000000E+00  -2.5957599E-02  -3.5061535E-01   0.0000000E+00  -2.1879371E-02  -3.5289907E-01   0.0000000E+00  -1.7708493E-02  -3.5472739E-01   0.0000000E+00  -1.3648055E-02  -3.5613963E-01   0.0000000E+00  -9.8583028E-03  -3.5715401E-01   0.0000000E+00  -6.3615050E-03  -3.5777232E-01   0.0000000E+00  -3.1007421E-03  -3.4980783E-01   0.0000000E+00  -3.4008387E-02  -3.5353398E-01   0.0000000E+00  -2.9847289E-02  -3.5699001E-01   0.0000000E+00  -2.5660302E-02  -3.5995129E-01   0.0000000E+00  -2.1285566E-02  -3.6241561E-01   0.0000000E+00  -1.6962215E-02  -3.6433029E-01   0.0000000E+00  -1.2880174E-02  -3.6574674E-01   0.0000000E+00  -9.1620563E-03  -3.6674157E-01   0.0000000E+00  -5.8666854E-03  -3.6734378E-01   0.0000000E+00  -2.8716940E-03  -3.5208398E-01   0.0000000E+00  -3.9131820E-02  -3.5642481E-01   0.0000000E+00  -3.2972269E-02  -3.6048242E-01   0.0000000E+00  -2.7485870E-02  -3.6403665E-01   0.0000000E+00  -2.2321351E-02  -3.6690870E-01   0.0000000E+00  -1.7513359E-02  -3.6911309E-01   0.0000000E+00  -1.3151539E-02  -3.7074605E-01   0.0000000E+00  -9.2241503E-03  -3.7188593E-01   0.0000000E+00  -5.8257920E-03  -3.7256756E-01   0.0000000E+00  -2.8162063E-03  -3.4230456E-01   0.0000000E+00  -5.4953098E-02  -3.4857580E-01   0.0000000E+00  -4.5211982E-02  -3.5451862E-01   0.0000000E+00  -3.6808461E-02  -3.5965583E-01   0.0000000E+00  -2.9722478E-02  -3.6358681E-01   0.0000000E+00  -2.3826873E-02  -3.6667508E-01   0.0000000E+00  -1.8558862E-02  -3.6905760E-01   0.0000000E+00  -1.3621395E-02  -3.7083521E-01   0.0000000E+00  -8.9187734E-03  -3.7185735E-01   0.0000000E+00  -4.4004265E-03  -3.0024266E-01   0.0000000E+00  -8.7868504E-02  -3.0832833E-01   0.0000000E+00  -7.7639520E-02  -3.1654552E-01   0.0000000E+00  -6.6333413E-02  -3.2431909E-01   0.0000000E+00  -5.5483893E-02  -3.3061105E-01   0.0000000E+00  -4.5371007E-02  -3.3530623E-01   0.0000000E+00  -3.5959791E-02  -3.3878767E-01   0.0000000E+00  -2.7038157E-02  -3.4118393E-01   0.0000000E+00  -1.8199107E-02  -3.4254277E-01   0.0000000E+00  -9.1806576E-03  -1.9272925E-01   0.0000000E+00  -8.4691912E-02  -1.9980119E-01   0.0000000E+00  -7.4237548E-02  -2.0679578E-01   0.0000000E+00  -6.3318767E-02  -2.1333154E-01   0.0000000E+00  -5.2708302E-02  -2.1905619E-01   0.0000000E+00  -4.3225292E-02  -2.2378103E-01   0.0000000E+00  -3.4608059E-02  -2.2743173E-01   0.0000000E+00  -2.6278064E-02  -2.3000474E-01   0.0000000E+00  -1.7809769E-02  -2.3152950E-01   0.0000000E+00  -9.0259658E-03  -1.1140139E-01   0.0000000E+00  -7.2983839E-02  -1.1714957E-01   0.0000000E+00  -6.4264394E-02  -1.2300777E-01   0.0000000E+00  -5.5168584E-02  -1.2866914E-01   0.0000000E+00  -4.6311967E-02  -1.3382488E-01   0.0000000E+00  -3.8383387E-02  -1.3825285E-01   0.0000000E+00  -3.1074004E-02  -1.4179888E-01   0.0000000E+00  -2.3831977E-02  -1.4437118E-01   0.0000000E+00  -1.6276456E-02  -1.4592586E-01   0.0000000E+00  -8.2875425E-03  -5.6225300E-02   0.0000000E+00  -6.3768499E-02  -5.9593815E-02   0.0000000E+00  -5.6233581E-02  -6.3302577E-02   0.0000000E+00  -4.8299644E-02  -6.7145102E-02   0.0000000E+00  -4.0555131E-02  -7.0865914E-02   0.0000000E+00  -3.3660211E-02  -7.4231617E-02   0.0000000E+00  -2.7323654E-02  -7.7040009E-02   0.0000000E+00  -2.1028288E-02  -7.9141237E-02   0.0000000E+00  -1.4408666E-02  -8.0437660E-02   0.0000000E+00  -7.3530599E-03  -1.0709129E-02   0.0000000E+00  -5.9175998E-02  -1.1768346E-02   0.0000000E+00  -5.1886659E-02  -1.3247066E-02   0.0000000E+00  -4.4239230E-02  -1.5043104E-02   0.0000000E+00  -3.6779270E-02  -1.6993748E-02   0.0000000E+00  -3.0219520E-02  -1.8909812E-02   0.0000000E+00  -2.4331795E-02  -2.0603225E-02   0.0000000E+00  -1.8626455E-02  -2.1922618E-02   0.0000000E+00  -1.2725528E-02  -2.2757730E-02   0.0000000E+00  -6.4854333E-03   3.7847869E-02   0.0000000E+00  -5.9089419E-02   3.8148299E-02   0.0000000E+00  -5.1344976E-02   3.8221929E-02   0.0000000E+00  -4.3287914E-02   3.8067047E-02   0.0000000E+00  -3.5435576E-02   3.7708215E-02   0.0000000E+00  -2.8609063E-02   3.7225362E-02   0.0000000E+00  -2.2665679E-02   3.6719751E-02   0.0000000E+00  -1.7132811E-02   3.6283150E-02   0.0000000E+00  -1.1604317E-02   3.5988543E-02   0.0000000E+00  -5.8850269E-03   9.3662791E-02   0.0000000E+00  -6.1919078E-02   9.4080731E-02   0.0000000E+00  -5.3506542E-02   9.4711870E-02   0.0000000E+00  -4.4729102E-02   9.5465712E-02   0.0000000E+00  -3.6155894E-02   9.6206620E-02   0.0000000E+00  -2.8735572E-02   9.6853897E-02   0.0000000E+00  -2.2406634E-02   9.7366944E-02   0.0000000E+00  -1.6706225E-02   9.7728662E-02   0.0000000E+00  -1.1199529E-02   9.7939633E-02   0.0000000E+00  -5.6440174E-03   1.5404680E-01   0.0000000E+00  -6.5705717E-02   1.5359251E-01   0.0000000E+00  -5.6748044E-02   1.5391326E-01   0.0000000E+00  -4.7316283E-02   1.5486279E-01   0.0000000E+00  -3.8063239E-02   1.5614803E-01   0.0000000E+00  -3.0036796E-02   1.5751088E-01   0.0000000E+00  -2.3228690E-02   1.5874766E-01   0.0000000E+00  -1.7180312E-02   1.5971358E-01   0.0000000E+00  -1.1440133E-02   1.6032091E-01   0.0000000E+00  -5.7394463E-03   2.1407010E-01   0.0000000E+00  -6.8799481E-02   2.1229522E-01   0.0000000E+00  -5.9566692E-02   2.1182996E-01   0.0000000E+00  -4.9780507E-02   2.1250273E-01   0.0000000E+00  -4.0144093E-02   2.1389011E-01   0.0000000E+00  -3.1739369E-02   2.1558017E-01   0.0000000E+00  -2.4568850E-02   2.1722496E-01   0.0000000E+00  -1.8170636E-02   2.1856436E-01   0.0000000E+00  -1.2090355E-02   2.1942858E-01   0.0000000E+00  -6.0603861E-03   2.6982841E-01   0.0000000E+00  -7.0198469E-02   2.6682827E-01   0.0000000E+00  -6.0960401E-02   2.6550815E-01   0.0000000E+00  -5.1181622E-02   2.6569337E-01   0.0000000E+00  -4.1550823E-02   2.6688230E-01   0.0000000E+00  -3.3109713E-02   2.6856792E-01   0.0000000E+00  -2.5827231E-02   2.7031395E-01   0.0000000E+00  -1.9224027E-02   2.7178574E-01   0.0000000E+00  -1.2849156E-02   2.7275479E-01   0.0000000E+00  -6.4569926E-03   3.1687862E-01   0.0000000E+00  -6.9639362E-02   3.1213298E-01   0.0000000E+00  -6.0544886E-02   3.0936280E-01   0.0000000E+00  -5.1039018E-02   3.0832803E-01   0.0000000E+00  -4.1756567E-02   3.0847806E-01   0.0000000E+00  -3.3628691E-02   3.0930489E-01   0.0000000E+00  -2.6540769E-02   3.1039250E-01   0.0000000E+00  -1.9967703E-02   3.1141010E-01   0.0000000E+00  -1.3454605E-02   3.1211928E-01   0.0000000E+00  -6.7941728E-03   3.4513557E-01   0.0000000E+00  -6.8029627E-02   3.3918965E-01   0.0000000E+00  -5.8921628E-02   3.3499417E-01   0.0000000E+00  -4.9748559E-02   3.3231455E-01   0.0000000E+00  -4.1010715E-02   3.3073461E-01   0.0000000E+00  -3.3406001E-02   3.2987392E-01   0.0000000E+00  -2.6689615E-02   3.2942972E-01   0.0000000E+00  -2.0283746E-02   3.2920864E-01   0.0000000E+00  -1.3762530E-02   3.2911974E-01   0.0000000E+00  -6.9735148E-03   3.5853192E-01   0.0000000E+00  -6.6910453E-02   3.5164729E-01   0.0000000E+00  -5.7706293E-02   3.4619722E-01   0.0000000E+00  -4.8755113E-02   3.4202543E-01   0.0000000E+00  -4.0481009E-02   3.3893111E-01   0.0000000E+00  -3.3289861E-02   3.3666056E-01   0.0000000E+00  -2.6805827E-02   3.3508077E-01   0.0000000E+00  -2.0485224E-02   3.3403119E-01   0.0000000E+00  -1.3958891E-02   3.3343345E-01   0.0000000E+00  -7.1109924E-03   3.6301059E-01   0.0000000E+00  -6.6586539E-02   3.5548526E-01   0.0000000E+00  -5.7444688E-02   3.4932232E-01   0.0000000E+00  -4.8581425E-02   3.4441236E-01   0.0000000E+00  -4.0512811E-02   3.4061909E-01   0.0000000E+00  -3.3455577E-02   3.3775780E-01   0.0000000E+00  -2.7035726E-02   3.3568799E-01   0.0000000E+00  -2.0694071E-02   3.3427858E-01   0.0000000E+00  -1.4078681E-02   3.3346972E-01   0.0000000E+00  -7.1377163E-03   3.6383471E-01   0.0000000E+00  -6.5578699E-02   3.5587296E-01   0.0000000E+00  -5.6948815E-02   3.4930971E-01   0.0000000E+00  -4.8435088E-02   3.4398270E-01   0.0000000E+00  -4.0598556E-02   3.3979639E-01   0.0000000E+00  -3.3636663E-02   3.3653492E-01   0.0000000E+00  -2.7214624E-02   3.3407116E-01   0.0000000E+00  -2.0844888E-02   3.3236390E-01   0.0000000E+00  -1.4214168E-02   3.3134806E-01   0.0000000E+00  -7.2254441E-03   3.6296940E-01   0.0000000E+00  -6.4636089E-02   3.5450158E-01   0.0000000E+00  -5.6165203E-02   3.4752047E-01   0.0000000E+00  -4.7871571E-02   3.4187135E-01   0.0000000E+00  -4.0152531E-02   3.3736715E-01   0.0000000E+00  -3.3088110E-02   3.3380741E-01   0.0000000E+00  -2.6620030E-02   3.3112296E-01   0.0000000E+00  -2.0366222E-02   3.2921627E-01   0.0000000E+00  -1.3895686E-02   3.2807153E-01   0.0000000E+00  -7.0545790E-03   3.6127931E-01   0.0000000E+00  -6.2526591E-02   3.5210389E-01   0.0000000E+00  -5.4867782E-02   3.4464833E-01   0.0000000E+00  -4.7214042E-02   3.3854967E-01   0.0000000E+00  -3.9664648E-02   3.3373556E-01   0.0000000E+00  -3.2707911E-02   3.2995868E-01   0.0000000E+00  -2.6179202E-02   3.2705435E-01   0.0000000E+00  -1.9781889E-02   3.2497674E-01   0.0000000E+00  -1.3272380E-02   3.2371369E-01   0.0000000E+00  -6.6847294E-03   3.5879517E-01   0.0000000E+00  -5.9324726E-02   3.4880900E-01   0.0000000E+00  -5.2673835E-02   3.4081677E-01   0.0000000E+00  -4.5793235E-02   3.3429334E-01   0.0000000E+00  -3.8820855E-02   3.2915139E-01   0.0000000E+00  -3.2108732E-02   3.2503423E-01   0.0000000E+00  -2.5572879E-02   3.2184556E-01   0.0000000E+00  -1.9223865E-02   3.1952518E-01   0.0000000E+00  -1.2880499E-02   3.1813878E-01   0.0000000E+00  -6.4395289E-03   3.5584524E-01   0.0000000E+00  -5.5175662E-02   3.4501275E-01   0.0000000E+00  -4.9950738E-02   3.3615896E-01   0.0000000E+00  -4.3957293E-02   3.2914454E-01   0.0000000E+00  -3.7676267E-02   3.2349771E-01   0.0000000E+00  -3.1224899E-02   3.1901288E-01   0.0000000E+00  -2.4830930E-02   3.1551814E-01   0.0000000E+00  -1.8505603E-02   3.1299785E-01   0.0000000E+00  -1.2303587E-02   3.1147972E-01   0.0000000E+00  -6.1757634E-03   3.5277250E-01   0.0000000E+00  -5.0062448E-02   3.4091595E-01   0.0000000E+00  -4.6126042E-02   3.3116502E-01   0.0000000E+00  -4.1563671E-02   3.2333335E-01   0.0000000E+00  -3.6182359E-02   3.1709617E-01   0.0000000E+00  -3.0272674E-02   3.1213522E-01   0.0000000E+00  -2.4031727E-02   3.0830520E-01   0.0000000E+00  -1.7791970E-02   3.0558899E-01   0.0000000E+00  -1.1691851E-02   3.0400589E-01   0.0000000E+00  -5.8498019E-03   3.4983033E-01   0.0000000E+00  -4.4210546E-02   3.3682871E-01   0.0000000E+00  -4.1235723E-02   3.2623887E-01   0.0000000E+00  -3.8050368E-02   3.1736413E-01   0.0000000E+00  -3.3860896E-02   3.1042358E-01   0.0000000E+00  -2.8874006E-02   3.0484754E-01   0.0000000E+00  -2.3099104E-02   3.0064178E-01   0.0000000E+00  -1.7087288E-02   2.9774240E-01   0.0000000E+00  -1.1269438E-02   2.9603413E-01   0.0000000E+00  -5.6368480E-03   3.4726331E-01   0.0000000E+00  -3.8238741E-02   3.3338705E-01   0.0000000E+00  -3.5746112E-02   3.2148978E-01   0.0000000E+00  -3.3313811E-02   3.1193355E-01   0.0000000E+00  -3.0537600E-02   3.0384195E-01   0.0000000E+00  -2.6560642E-02   2.9768339E-01   0.0000000E+00  -2.1725643E-02   2.9297063E-01   0.0000000E+00  -1.6217859E-02   2.8985232E-01   0.0000000E+00  -1.0828727E-02   2.8796670E-01   0.0000000E+00  -5.4091956E-03   3.4491315E-01   0.0000000E+00  -3.2474723E-02   3.3071730E-01   0.0000000E+00  -3.0331045E-02   3.1773823E-01   0.0000000E+00  -2.8172199E-02   3.0680403E-01   0.0000000E+00  -2.5926232E-02   2.9815039E-01   0.0000000E+00  -2.3279585E-02   2.9100209E-01   0.0000000E+00  -1.9442024E-02   2.8585872E-01   0.0000000E+00  -1.4961097E-02   2.8233674E-01   0.0000000E+00  -1.0118382E-02   2.8030735E-01   0.0000000E+00  -5.0937957E-03   3.4247479E-01   0.0000000E+00  -2.7058246E-02   3.2852015E-01   0.0000000E+00  -2.5343837E-02   3.1485096E-01   0.0000000E+00  -2.3195583E-02   3.0282333E-01   0.0000000E+00  -2.1133883E-02   2.9302561E-01   0.0000000E+00  -1.8870579E-02   2.8549895E-01   0.0000000E+00  -1.6321149E-02   2.7964067E-01   0.0000000E+00  -1.2913633E-02   2.7582273E-01   0.0000000E+00  -8.9981575E-03   2.7357200E-01   0.0000000E+00  -4.5851259E-03   3.3955550E-01   0.0000000E+00  -2.2642996E-02   3.2658392E-01   0.0000000E+00  -2.1132991E-02   3.1264600E-01   0.0000000E+00  -1.9036131E-02   2.9972956E-01   0.0000000E+00  -1.6634151E-02   2.8919864E-01   0.0000000E+00  -1.4586531E-02   2.8068995E-01   0.0000000E+00  -1.2301400E-02   2.7466679E-01   0.0000000E+00  -1.0060397E-02   2.7045923E-01   0.0000000E+00  -7.2588143E-03   2.6806220E-01   0.0000000E+00  -3.7990557E-03   3.3534381E-01   0.0000000E+00  -2.0384386E-02   3.2366711E-01   0.0000000E+00  -1.7642749E-02   3.1109753E-01   0.0000000E+00  -1.6051782E-02   2.9760900E-01   0.0000000E+00  -1.3409860E-02   2.8622362E-01   0.0000000E+00  -1.0939031E-02   2.7707416E-01   0.0000000E+00  -8.7424461E-03   2.7041179E-01   0.0000000E+00  -6.7595285E-03   2.6598915E-01   0.0000000E+00  -4.9577230E-03   2.6347733E-01   0.0000000E+00  -2.6830069E-03   3.2723737E-01   0.0000000E+00  -1.9375738E-02   3.1812823E-01   0.0000000E+00  -1.5661437E-02   3.0753815E-01   0.0000000E+00  -1.3480143E-02   2.9548219E-01   0.0000000E+00  -1.1102205E-02   2.8418624E-01   0.0000000E+00  -8.9305053E-03   2.7419540E-01   0.0000000E+00  -6.3303737E-03   2.6708791E-01   0.0000000E+00  -4.3628179E-03   2.6221702E-01   0.0000000E+00  -2.8043617E-03   2.5934184E-01   0.0000000E+00  -1.4538377E-03   3.0727386E-01   0.0000000E+00  -1.4087552E-02   3.0004704E-01   0.0000000E+00  -1.1321787E-02   2.9001859E-01   0.0000000E+00  -8.3985943E-03   2.8027266E-01   0.0000000E+00  -6.8111517E-03   2.7084014E-01   0.0000000E+00  -4.6019596E-03   2.6368171E-01   0.0000000E+00  -3.0009903E-03   2.5853243E-01   0.0000000E+00  -1.6665716E-03   2.5544319E-01   0.0000000E+00  -6.0585997E-04   2.7963752E-01   0.0000000E+00  -6.0223890E-03   2.7227268E-01   0.0000000E+00  -4.1306838E-03   2.6420254E-01   0.0000000E+00  -1.9066464E-03   2.5789681E-01   0.0000000E+00  -8.1810832E-04   2.5294349E-01   0.0000000E+00   7.1654744E-05   2.5009519E-01   0.0000000E+00   2.7122063E-04   2.5376758E-01   0.0000000E+00   4.8022703E-04   2.4888681E-01   0.0000000E+00   1.9028302E-03   2.4542046E-01   0.0000000E+00   1.5550626E-03   2.4325453E-01   0.0000000E+00   8.2605297E-04  -6.0650664E-03   0.0000000E+00  -7.2751660E-10  -6.0668779E-03   0.0000000E+00   4.3977543E-05  -6.0716104E-03   0.0000000E+00   9.0668029E-05  -6.0764397E-03   0.0000000E+00   1.4432661E-04  -6.0770963E-03   0.0000000E+00   2.0655358E-04  -6.0664541E-03   0.0000000E+00   2.8058022E-04  -6.0349456E-03   0.0000000E+00   3.6899868E-04  -5.9714708E-03   0.0000000E+00   4.6896414E-04  -8.4499372E-03   0.0000000E+00   1.8276266E-12  -8.4531363E-03   0.0000000E+00   6.3328640E-05  -8.4617035E-03   0.0000000E+00   1.3013500E-04  -8.4720124E-03   0.0000000E+00   2.0474796E-04  -8.4778070E-03   0.0000000E+00   2.9099325E-04  -8.4705278E-03   0.0000000E+00   3.8952520E-04  -8.4367022E-03   0.0000000E+00   5.0527009E-04  -8.3591528E-03   0.0000000E+00   6.4083212E-04  -1.1452653E-02   0.0000000E+00   2.5463010E-11  -1.1457604E-02   0.0000000E+00   7.8170240E-05  -1.1470979E-02   0.0000000E+00   1.6061407E-04  -1.1488270E-02   0.0000000E+00   2.5040255E-04  -1.1501169E-02   0.0000000E+00   3.5217340E-04  -1.1498037E-02   0.0000000E+00   4.6797210E-04  -1.1462118E-02   0.0000000E+00   5.9995230E-04  -1.1370945E-02   0.0000000E+00   7.5075123E-04  -1.4772313E-02   0.0000000E+00  -1.6889874E-09  -1.4779240E-02   0.0000000E+00   8.7693181E-05  -1.4798103E-02   0.0000000E+00   1.7943470E-04  -1.4823199E-02   0.0000000E+00   2.7847139E-04  -1.4844558E-02   0.0000000E+00   3.8808986E-04  -1.4847302E-02   0.0000000E+00   5.1196560E-04  -1.4811401E-02   0.0000000E+00   6.5017637E-04  -1.4708790E-02   0.0000000E+00   8.0418313E-04  -1.8264832E-02   0.0000000E+00   3.6577030E-10  -1.8273881E-02   0.0000000E+00   9.2721035E-05  -1.8298753E-02   0.0000000E+00   1.8869918E-04  -1.8332638E-02   0.0000000E+00   2.9128752E-04  -1.8363979E-02   0.0000000E+00   4.0287120E-04  -1.8375481E-02   0.0000000E+00   5.2634743E-04  -1.8342979E-02   0.0000000E+00   6.6398853E-04  -1.8234298E-02   0.0000000E+00   8.1293943E-04  -2.1918288E-02   0.0000000E+00   7.1366590E-10  -2.1929633E-02   0.0000000E+00   9.5759417E-05  -2.1961153E-02   0.0000000E+00   1.9389857E-04  -2.2005163E-02   0.0000000E+00   2.9697228E-04  -2.2048535E-02   0.0000000E+00   4.0756923E-04  -2.2072032E-02   0.0000000E+00   5.2695884E-04  -2.2048397E-02   0.0000000E+00   6.5704447E-04  -2.1940641E-02   0.0000000E+00   7.9772586E-04  -2.5808671E-02   0.0000000E+00  -4.9238841E-10  -2.5822617E-02   0.0000000E+00   1.0086159E-04  -2.5861658E-02   0.0000000E+00   2.0319528E-04  -2.5917396E-02   0.0000000E+00   3.0852784E-04  -2.5975464E-02   0.0000000E+00   4.1851209E-04  -2.6014782E-02   0.0000000E+00   5.3471420E-04  -2.6005814E-02   0.0000000E+00   6.5725285E-04  -2.5907097E-02   0.0000000E+00   7.8769238E-04  -3.0034393E-02   0.0000000E+00  -6.9241907E-10  -3.0051280E-02   0.0000000E+00   1.1305875E-04  -3.0098917E-02   0.0000000E+00   2.2654919E-04  -3.0168267E-02   0.0000000E+00   3.4103447E-04  -3.0243948E-02   0.0000000E+00   4.5727612E-04  -3.0303396E-02   0.0000000E+00   5.7611213E-04  -3.0314777E-02   0.0000000E+00   6.9666648E-04  -3.0233052E-02   0.0000000E+00   8.1762474E-04  -3.4665618E-02   0.0000000E+00  -5.8055741E-11  -3.4685835E-02   0.0000000E+00   1.3775223E-04  -3.4743264E-02   0.0000000E+00   2.7509002E-04  -3.4828249E-02   0.0000000E+00   4.1164825E-04  -3.4924440E-02   0.0000000E+00   5.4736569E-04  -3.5007849E-02   0.0000000E+00   6.8167213E-04  -3.5044491E-02   0.0000000E+00   8.1161730E-04  -3.4985974E-02   0.0000000E+00   9.3284075E-04  -3.9736222E-02   0.0000000E+00  -1.0243895E-10  -3.9760161E-02   0.0000000E+00   1.8063757E-04  -3.9828576E-02   0.0000000E+00   3.6007274E-04  -3.9931100E-02   0.0000000E+00   5.3737103E-04  -4.0050283E-02   0.0000000E+00   7.1191014E-04  -4.0160552E-02   0.0000000E+00   8.8143832E-04  -4.0225659E-02   0.0000000E+00   1.0407477E-03  -4.0194150E-02   0.0000000E+00   1.1813438E-03  -4.5276970E-02   0.0000000E+00   1.8594060E-09  -4.5305014E-02   0.0000000E+00   2.4594605E-04  -4.5385372E-02   0.0000000E+00   4.9061992E-04  -4.5506887E-02   0.0000000E+00   7.3268538E-04  -4.5650706E-02   0.0000000E+00   9.7125885E-04  -4.5789257E-02   0.0000000E+00   1.2029686E-03  -4.5883510E-02   0.0000000E+00   1.4206371E-03  -4.5879532E-02   0.0000000E+00   1.6102397E-03  -5.1330630E-02   0.0000000E+00   1.5657121E-10  -5.1363174E-02   0.0000000E+00   3.3815633E-04  -5.1456243E-02   0.0000000E+00   6.7456247E-04  -5.1597815E-02   0.0000000E+00   1.0086675E-03  -5.1767267E-02   0.0000000E+00   1.3394268E-03  -5.1934250E-02   0.0000000E+00   1.6641639E-03  -5.2056886E-02   0.0000000E+00   1.9719782E-03  -5.2077781E-02   0.0000000E+00   2.2462469E-03  -5.7952516E-02   0.0000000E+00   2.5364297E-09  -5.7989188E-02   0.0000000E+00   4.5820753E-04  -5.8094848E-02   0.0000000E+00   9.1626612E-04  -5.8256291E-02   0.0000000E+00   1.3729923E-03  -5.8450606E-02   0.0000000E+00   1.8249640E-03  -5.8644313E-02   0.0000000E+00   2.2721395E-03  -5.8792006E-02   0.0000000E+00   2.7056555E-03  -5.8835600E-02   0.0000000E+00   3.0934210E-03  -6.5198645E-02   0.0000000E+00  -4.4776658E-09  -6.5239623E-02   0.0000000E+00   6.1091402E-04  -6.5357193E-02   0.0000000E+00   1.2200159E-03  -6.5537110E-02   0.0000000E+00   1.8298751E-03  -6.5754838E-02   0.0000000E+00   2.4369240E-03  -6.5973379E-02   0.0000000E+00   3.0327735E-03  -6.6144250E-02   0.0000000E+00   3.6093534E-03  -6.6204555E-02   0.0000000E+00   4.1502095E-03  -7.3126897E-02   0.0000000E+00   9.5253316E-10  -7.3171392E-02   0.0000000E+00   7.8878197E-04  -7.3300578E-02   0.0000000E+00   1.5753589E-03  -7.3497817E-02   0.0000000E+00   2.3628832E-03  -7.3735297E-02   0.0000000E+00   3.1460884E-03  -7.3974386E-02   0.0000000E+00   3.9228024E-03  -7.4162744E-02   0.0000000E+00   4.6833321E-03  -7.4236326E-02   0.0000000E+00   5.4223724E-03  -8.1798919E-02   0.0000000E+00  -2.9081553E-09  -8.1846207E-02   0.0000000E+00   9.8580576E-04  -8.1982657E-02   0.0000000E+00   1.9714050E-03  -8.2191609E-02   0.0000000E+00   2.9584048E-03  -8.2444325E-02   0.0000000E+00   3.9449157E-03  -8.2696714E-02   0.0000000E+00   4.9282033E-03  -8.2896903E-02   0.0000000E+00   5.9050820E-03  -8.2979985E-02   0.0000000E+00   6.8694470E-03  -9.1273561E-02   0.0000000E+00  -5.6707683E-09  -9.1322057E-02   0.0000000E+00   1.2105919E-03  -9.1461666E-02   0.0000000E+00   2.4203944E-03  -9.1675542E-02   0.0000000E+00   3.6249214E-03  -9.1932990E-02   0.0000000E+00   4.8258533E-03  -9.2191644E-02   0.0000000E+00   6.0283048E-03  -9.2396520E-02   0.0000000E+00   7.2287996E-03  -9.2481956E-02   0.0000000E+00   8.4203193E-03  -1.0161152E-01   0.0000000E+00  -2.8855949E-09  -1.0165976E-01   0.0000000E+00   1.4573638E-03  -1.0179838E-01   0.0000000E+00   2.9059432E-03  -1.0200883E-01   0.0000000E+00   4.3428699E-03  -1.0226149E-01   0.0000000E+00   5.7703634E-03  -1.0251348E-01   0.0000000E+00   7.1891751E-03  -1.0270947E-01   0.0000000E+00   8.6008869E-03  -1.0278555E-01   0.0000000E+00   1.0014729E-02  -1.1288076E-01   0.0000000E+00  -2.8019171E-09  -1.1292650E-01   0.0000000E+00   1.7032850E-03  -1.1305634E-01   0.0000000E+00   3.3988010E-03  -1.1325358E-01   0.0000000E+00   5.0797155E-03  -1.1348672E-01   0.0000000E+00   6.7350287E-03  -1.1371523E-01   0.0000000E+00   8.3718468E-03  -1.1388485E-01   0.0000000E+00   9.9908961E-03  -1.1392981E-01   0.0000000E+00   1.1592631E-02  -1.2514561E-01   0.0000000E+00  -2.5275382E-09  -1.2518498E-01   0.0000000E+00   1.9458896E-03  -1.2529840E-01   0.0000000E+00   3.8814852E-03  -1.2546779E-01   0.0000000E+00   5.7950988E-03  -1.2566496E-01   0.0000000E+00   7.6817302E-03  -1.2584810E-01   0.0000000E+00   9.5276982E-03  -1.2596683E-01   0.0000000E+00   1.1340805E-02  -1.2595610E-01   0.0000000E+00   1.3123552E-02  -1.3845809E-01   0.0000000E+00  -9.3867658E-10  -1.3848895E-01   0.0000000E+00   2.1771975E-03  -1.3857655E-01   0.0000000E+00   4.3391204E-03  -1.3870384E-01   0.0000000E+00   6.4723236E-03  -1.3884322E-01   0.0000000E+00   8.5652526E-03  -1.3895753E-01   0.0000000E+00   1.0612230E-02  -1.3899665E-01   0.0000000E+00   1.2605214E-02  -1.3890176E-01   0.0000000E+00   1.4551739E-02  -1.5285906E-01   0.0000000E+00  -6.4758381E-09  -1.5287811E-01   0.0000000E+00   2.3890431E-03  -1.5293013E-01   0.0000000E+00   4.7572521E-03  -1.5299912E-01   0.0000000E+00   7.0866551E-03  -1.5305930E-01   0.0000000E+00   9.3636615E-03  -1.5307754E-01   0.0000000E+00   1.1584978E-02  -1.5300982E-01   0.0000000E+00   1.3740026E-02  -1.5280078E-01   0.0000000E+00   1.5838210E-02  -1.6837633E-01   0.0000000E+00   3.0419809E-09  -1.6838005E-01   0.0000000E+00   2.5755335E-03  -1.6838619E-01   0.0000000E+00   5.1243319E-03  -1.6837984E-01   0.0000000E+00   7.6219910E-03  -1.6833858E-01   0.0000000E+00   1.0055244E-02  -1.6823532E-01   0.0000000E+00   1.2420026E-02  -1.6803417E-01   0.0000000E+00   1.4717418E-02  -1.6768464E-01   0.0000000E+00   1.6953303E-02  -1.8502901E-01   0.0000000E+00  -2.0303734E-09  -1.8501404E-01   0.0000000E+00   2.7350890E-03  -1.8496346E-01   0.0000000E+00   5.4351971E-03  -1.8486504E-01   0.0000000E+00   8.0719898E-03  -1.8470152E-01   0.0000000E+00   1.0632044E-02  -1.8445371E-01   0.0000000E+00   1.3115085E-02  -1.8409610E-01   0.0000000E+00   1.5532267E-02  -1.8358532E-01   0.0000000E+00   1.7890479E-02  -2.0283034E-01   0.0000000E+00   3.6378551E-09  -2.0279261E-01   0.0000000E+00   2.8675892E-03  -2.0267537E-01   0.0000000E+00   5.6924177E-03  -2.0246992E-01   0.0000000E+00   8.4429784E-03  -2.0216647E-01   0.0000000E+00   1.1107016E-02  -2.0175555E-01   0.0000000E+00   1.3691406E-02  -2.0122372E-01   0.0000000E+00   1.6213380E-02  -2.0053729E-01   0.0000000E+00   1.8680362E-02  -2.2178470E-01   0.0000000E+00   3.8950905E-09  -2.2172159E-01   0.0000000E+00   2.9766038E-03  -2.2152975E-01   0.0000000E+00   5.9049213E-03  -2.2120588E-01   0.0000000E+00   8.7533090E-03  -2.2074950E-01   0.0000000E+00   1.1513432E-02  -2.2016357E-01   0.0000000E+00   1.4198266E-02  -2.1944565E-01   0.0000000E+00   1.6824633E-02  -2.1857400E-01   0.0000000E+00   1.9395499E-02  -2.4187285E-01   0.0000000E+00   8.2901686E-10  -2.4178255E-01   0.0000000E+00   3.0666487E-03  -2.4151149E-01   0.0000000E+00   6.0864431E-03  -2.4106330E-01   0.0000000E+00   9.0306280E-03  -2.4044803E-01   0.0000000E+00   1.1896589E-02  -2.3968077E-01   0.0000000E+00   1.4701417E-02  -2.3877081E-01   0.0000000E+00   1.7452713E-02  -2.3770532E-01   0.0000000E+00   2.0138791E-02  -2.6298752E-01   0.0000000E+00   3.0009595E-09  -2.6286912E-01   0.0000000E+00   3.1418819E-03  -2.6251885E-01   0.0000000E+00   6.2515819E-03  -2.6194632E-01   0.0000000E+00   9.3023852E-03  -2.6117238E-01   0.0000000E+00   1.2299592E-02  -2.6022208E-01   0.0000000E+00   1.5259376E-02  -2.5911379E-01   0.0000000E+00   1.8179420E-02  -2.5783968E-01   0.0000000E+00   2.1014534E-02  -2.8480265E-01   0.0000000E+00  -3.7733101E-09  -2.8465730E-01   0.0000000E+00   3.2164515E-03  -2.8422737E-01   0.0000000E+00   6.4113396E-03  -2.8353286E-01   0.0000000E+00   9.5839296E-03  -2.8260151E-01   0.0000000E+00   1.2748223E-02  -2.8146321E-01   0.0000000E+00   1.5915297E-02  -2.8013927E-01   0.0000000E+00   1.9060891E-02  -2.7862155E-01   0.0000000E+00   2.2098262E-02  -3.0655390E-01   0.0000000E+00  -9.9004094E-10  -3.0638263E-01   0.0000000E+00   3.2837915E-03  -3.0587599E-01   0.0000000E+00   6.5715332E-03  -3.0506334E-01   0.0000000E+00   9.8705105E-03  -3.0397141E-01   0.0000000E+00   1.3221930E-02  -3.0263290E-01   0.0000000E+00   1.6634179E-02  -3.0105445E-01   0.0000000E+00   2.0057026E-02  -2.9921806E-01   0.0000000E+00   2.3385232E-02  -3.2684287E-01   0.0000000E+00   4.2881827E-09  -3.2665274E-01   0.0000000E+00   3.3197636E-03  -3.2608375E-01   0.0000000E+00   6.6741868E-03  -3.2517242E-01   0.0000000E+00   1.0087666E-02  -3.2393691E-01   0.0000000E+00   1.3626034E-02  -3.2240039E-01   0.0000000E+00   1.7310547E-02  -3.2054812E-01   0.0000000E+00   2.1081256E-02  -3.1837866E-01   0.0000000E+00   2.4708197E-02  -3.4420627E-01   0.0000000E+00   5.0437308E-09  -3.4400421E-01   0.0000000E+00   3.2610195E-03  -3.4339589E-01   0.0000000E+00   6.5854373E-03  -3.4240991E-01   0.0000000E+00   1.0062267E-02  -3.4108618E-01   0.0000000E+00   1.3736356E-02  -3.3938435E-01   0.0000000E+00   1.7671032E-02  -3.3730814E-01   0.0000000E+00   2.1719035E-02  -3.3484551E-01   0.0000000E+00   2.5663264E-02  -3.5799083E-01   0.0000000E+00   1.0158169E-08  -3.5777235E-01   0.0000000E+00   3.1007621E-03  -3.5715410E-01   0.0000000E+00   6.3615213E-03  -3.5613957E-01   0.0000000E+00   9.8583149E-03  -3.5472739E-01   0.0000000E+00   1.3648068E-02  -3.5289910E-01   0.0000000E+00   1.7708510E-02  -3.5061532E-01   0.0000000E+00   2.1879379E-02  -3.4789199E-01   0.0000000E+00   2.5957596E-02  -3.6755937E-01   0.0000000E+00   1.5957859E-08  -3.6734378E-01   0.0000000E+00   2.8717197E-03  -3.6674160E-01   0.0000000E+00   5.8667040E-03  -3.6574671E-01   0.0000000E+00   9.1620749E-03  -3.6433026E-01   0.0000000E+00   1.2880182E-02  -3.6241558E-01   0.0000000E+00   1.6962223E-02  -3.5995126E-01   0.0000000E+00   2.1285580E-02  -3.5699007E-01   0.0000000E+00   2.5660312E-02  -3.7279528E-01   0.0000000E+00   1.6773964E-08  -3.7256750E-01   0.0000000E+00   2.8162391E-03  -3.7188593E-01   0.0000000E+00   5.8258208E-03  -3.7074599E-01   0.0000000E+00   9.2241680E-03  -3.6911309E-01   0.0000000E+00   1.3151547E-02  -3.6690870E-01   0.0000000E+00   1.7513368E-02  -3.6403668E-01   0.0000000E+00   2.2321364E-02  -3.6048245E-01   0.0000000E+00   2.7485901E-02  -3.7218919E-01   0.0000000E+00   2.6295934E-08  -3.7185735E-01   0.0000000E+00   4.4004698E-03  -3.7083521E-01   0.0000000E+00   8.9188041E-03  -3.6905754E-01   0.0000000E+00   1.3621438E-02  -3.6667502E-01   0.0000000E+00   1.8558880E-02  -3.6358684E-01   0.0000000E+00   2.3826856E-02  -3.5965580E-01   0.0000000E+00   2.9722489E-02  -3.5451862E-01   0.0000000E+00   3.6808476E-02  -3.4297737E-01   0.0000000E+00   1.1322292E-08  -3.4254268E-01   0.0000000E+00   9.1806846E-03  -3.4118393E-01   0.0000000E+00   1.8199157E-02  -3.3878782E-01   0.0000000E+00   2.7038164E-02  -3.3530617E-01   0.0000000E+00   3.5959825E-02  -3.3061108E-01   0.0000000E+00   4.5371037E-02  -3.2431915E-01   0.0000000E+00   5.5483904E-02  -3.1654555E-01   0.0000000E+00   6.6333383E-02  -2.3203421E-01   0.0000000E+00   2.7230410E-08  -2.3152947E-01   0.0000000E+00   9.0259556E-03  -2.3000474E-01   0.0000000E+00   1.7809814E-02  -2.2743170E-01   0.0000000E+00   2.6278114E-02  -2.2378108E-01   0.0000000E+00   3.4608088E-02  -2.1905617E-01   0.0000000E+00   4.3225288E-02  -2.1333165E-01   0.0000000E+00   5.2708339E-02  -2.0679590E-01   0.0000000E+00   6.3318759E-02  -1.4644580E-01   0.0000000E+00   3.4230581E-08  -1.4592591E-01   0.0000000E+00   8.2876133E-03  -1.4437115E-01   0.0000000E+00   1.6276464E-02  -1.4179879E-01   0.0000000E+00   2.3831993E-02  -1.3825281E-01   0.0000000E+00   3.1074001E-02  -1.3382497E-01   0.0000000E+00   3.8383383E-02  -1.2866917E-01   0.0000000E+00   4.6311926E-02  -1.2300779E-01   0.0000000E+00   5.5168591E-02  -8.0875412E-02   0.0000000E+00  -3.8701337E-08  -8.0437690E-02   0.0000000E+00   7.3530395E-03  -7.9141244E-02   0.0000000E+00   1.4408647E-02  -7.7040069E-02   0.0000000E+00   2.1028282E-02  -7.4231490E-02   0.0000000E+00   2.7323665E-02  -7.0865974E-02   0.0000000E+00   3.3660199E-02  -6.7145184E-02   0.0000000E+00   4.0555164E-02  -6.3302755E-02   0.0000000E+00   4.8299678E-02  -2.3043441E-02   0.0000000E+00  -2.1231182E-08  -2.2757633E-02   0.0000000E+00   6.4854180E-03  -2.1922514E-02   0.0000000E+00   1.2725532E-02  -2.0603307E-02   0.0000000E+00   1.8626455E-02  -1.8909775E-02   0.0000000E+00   2.4331816E-02  -1.6993761E-02   0.0000000E+00   3.0219527E-02  -1.5043080E-02   0.0000000E+00   3.6779284E-02  -1.3247124E-02   0.0000000E+00   4.4239253E-02   3.5884686E-02   0.0000000E+00   2.1323546E-08   3.5988532E-02   0.0000000E+00   5.8849873E-03   3.6283165E-02   0.0000000E+00   1.1604308E-02   3.6719769E-02   0.0000000E+00   1.7132843E-02   3.7225388E-02   0.0000000E+00   2.2665622E-02   3.7708219E-02   0.0000000E+00   2.8609101E-02   3.8067039E-02   0.0000000E+00   3.5435539E-02   3.8221993E-02   0.0000000E+00   4.3287907E-02   9.8008461E-02   0.0000000E+00   7.5197434E-08   9.7939722E-02   0.0000000E+00   5.6440234E-03   9.7728632E-02   0.0000000E+00   1.1199530E-02   9.7366862E-02   0.0000000E+00   1.6706217E-02   9.6853882E-02   0.0000000E+00   2.2406613E-02   9.6206583E-02   0.0000000E+00   2.8735539E-02   9.5465846E-02   0.0000000E+00   3.6155887E-02   9.4711915E-02   0.0000000E+00   4.4729222E-02   1.6052710E-01   0.0000000E+00   7.7719690E-08   1.6032094E-01   0.0000000E+00   5.7394700E-03   1.5971361E-01   0.0000000E+00   1.1440150E-02   1.5874767E-01   0.0000000E+00   1.7180318E-02   1.5751098E-01   0.0000000E+00   2.3228649E-02   1.5614809E-01   0.0000000E+00   3.0036787E-02   1.5486290E-01   0.0000000E+00   3.8063243E-02   1.5391332E-01   0.0000000E+00   4.7316305E-02   2.1972604E-01   0.0000000E+00   2.7526283E-08   2.1942855E-01   0.0000000E+00   6.0604336E-03   2.1856426E-01   0.0000000E+00   1.2090322E-02   2.1722490E-01   0.0000000E+00   1.8170597E-02   2.1558024E-01   0.0000000E+00   2.4568828E-02   2.1389024E-01   0.0000000E+00   3.1739388E-02   2.1250273E-01   0.0000000E+00   4.0144123E-02   2.1183003E-01   0.0000000E+00   4.9780536E-02   2.7309155E-01   0.0000000E+00   2.1218405E-08   2.7275476E-01   0.0000000E+00   6.4570620E-03   2.7178568E-01   0.0000000E+00   1.2849194E-02   2.7031404E-01   0.0000000E+00   1.9224044E-02   2.6856792E-01   0.0000000E+00   2.5827199E-02   2.6688224E-01   0.0000000E+00   3.3109691E-02   2.6569331E-01   0.0000000E+00   4.1550815E-02   2.6550823E-01   0.0000000E+00   5.1181629E-02   3.1237134E-01   0.0000000E+00   5.5348020E-09   3.1211933E-01   0.0000000E+00   6.7942254E-03   3.1141007E-01   0.0000000E+00   1.3454595E-02   3.1039244E-01   0.0000000E+00   1.9967696E-02   3.0930489E-01   0.0000000E+00   2.6540717E-02   3.0847809E-01   0.0000000E+00   3.3628695E-02   3.0832806E-01   0.0000000E+00   4.1756589E-02   3.0936283E-01   0.0000000E+00   5.1039033E-02   3.2910624E-01   0.0000000E+00   2.6057576E-08   3.2911971E-01   0.0000000E+00   6.9735353E-03   3.2920864E-01   0.0000000E+00   1.3762537E-02   3.2942966E-01   0.0000000E+00   2.0283738E-02   3.2987386E-01   0.0000000E+00   2.6689626E-02   3.3073461E-01   0.0000000E+00   3.3405975E-02   3.3231446E-01   0.0000000E+00   4.1010655E-02   3.3499417E-01   0.0000000E+00   4.9748551E-02   3.3324221E-01   0.0000000E+00   6.3360779E-09   3.3343345E-01   0.0000000E+00   7.1110101E-03   3.3403116E-01   0.0000000E+00   1.3958894E-02   3.3508077E-01   0.0000000E+00   2.0485204E-02   3.3666050E-01   0.0000000E+00   2.6805820E-02   3.3893108E-01   0.0000000E+00   3.3289872E-02   3.4202540E-01   0.0000000E+00   4.0480979E-02   3.4619719E-01   0.0000000E+00   4.8755109E-02   3.3321303E-01   0.0000000E+00  -7.4377984E-09   3.3346972E-01   0.0000000E+00   7.1376897E-03   3.3427858E-01   0.0000000E+00   1.4078691E-02   3.3568797E-01   0.0000000E+00   2.0694071E-02   3.3775777E-01   0.0000000E+00   2.7035728E-02   3.4061912E-01   0.0000000E+00   3.3455566E-02   3.4441239E-01   0.0000000E+00   4.0512796E-02   3.4932232E-01   0.0000000E+00   4.8581421E-02   3.3101723E-01   0.0000000E+00  -6.5449473E-09   3.3134806E-01   0.0000000E+00   7.2254403E-03   3.3236390E-01   0.0000000E+00   1.4214174E-02   3.3407119E-01   0.0000000E+00   2.0844894E-02   3.3653483E-01   0.0000000E+00   2.7214620E-02   3.3979639E-01   0.0000000E+00   3.3636674E-02   3.4398270E-01   0.0000000E+00   4.0598541E-02   3.4930971E-01   0.0000000E+00   4.8435077E-02   3.2769373E-01   0.0000000E+00   6.3445760E-09   3.2807156E-01   0.0000000E+00   7.0545748E-03   3.2921630E-01   0.0000000E+00   1.3895668E-02   3.3112296E-01   0.0000000E+00   2.0366229E-02   3.3380747E-01   0.0000000E+00   2.6620036E-02   3.3736718E-01   0.0000000E+00   3.3088107E-02   3.4187138E-01   0.0000000E+00   4.0152524E-02   3.4752050E-01   0.0000000E+00   4.7871541E-02   3.2328585E-01   0.0000000E+00   1.0569318E-09   3.2371363E-01   0.0000000E+00   6.6847377E-03   3.2497674E-01   0.0000000E+00   1.3272375E-02   3.2705435E-01   0.0000000E+00   1.9781891E-02   3.2995868E-01   0.0000000E+00   2.6179213E-02   3.3373556E-01   0.0000000E+00   3.2707896E-02   3.3854964E-01   0.0000000E+00   3.9664667E-02   3.4464830E-01   0.0000000E+00   4.7214016E-02   3.1772566E-01   0.0000000E+00   2.7217828E-09   3.1813875E-01   0.0000000E+00   6.4395298E-03   3.1952515E-01   0.0000000E+00   1.2880495E-02   3.2184553E-01   0.0000000E+00   1.9223860E-02   3.2503417E-01   0.0000000E+00   2.5572883E-02   3.2915133E-01   0.0000000E+00   3.2108728E-02   3.3429334E-01   0.0000000E+00   3.8820855E-02   3.4081686E-01   0.0000000E+00   4.5793209E-02   3.1096718E-01   0.0000000E+00   3.2342569E-09   3.1147972E-01   0.0000000E+00   6.1757648E-03   3.1299782E-01   0.0000000E+00   1.2303585E-02   3.1551814E-01   0.0000000E+00   1.8505603E-02   3.1901285E-01   0.0000000E+00   2.4830934E-02   3.2349774E-01   0.0000000E+00   3.1224899E-02   3.2914457E-01   0.0000000E+00   3.7676249E-02   3.3615893E-01   0.0000000E+00   4.3957289E-02   3.0346352E-01   0.0000000E+00   8.7231655E-10   3.0400589E-01   0.0000000E+00   5.8498089E-03   3.0558899E-01   0.0000000E+00   1.1691854E-02   3.0830523E-01   0.0000000E+00   1.7791968E-02   3.1213525E-01   0.0000000E+00   2.4031727E-02   3.1709614E-01   0.0000000E+00   3.0272678E-02   3.2333338E-01   0.0000000E+00   3.6182359E-02   3.3116502E-01   0.0000000E+00   4.1563679E-02   2.9545051E-01   0.0000000E+00   2.8377294E-09   2.9603410E-01   0.0000000E+00   5.6368513E-03   2.9774240E-01   0.0000000E+00   1.1269442E-02   3.0064178E-01   0.0000000E+00   1.7087288E-02   3.0484751E-01   0.0000000E+00   2.3099108E-02   3.1042355E-01   0.0000000E+00   2.8874004E-02   3.1736419E-01   0.0000000E+00   3.3860892E-02   3.2623893E-01   0.0000000E+00   3.8050368E-02   2.8734869E-01   0.0000000E+00   3.4287293E-09   2.8796664E-01   0.0000000E+00   5.4092011E-03   2.8985232E-01   0.0000000E+00   1.0828737E-02   2.9297069E-01   0.0000000E+00   1.6217861E-02   2.9768342E-01   0.0000000E+00   2.1725636E-02   3.0384189E-01   0.0000000E+00   2.6560647E-02   3.1193352E-01   0.0000000E+00   3.0537598E-02   3.2148981E-01   0.0000000E+00   3.3313826E-02   2.7963084E-01   0.0000000E+00   3.6433188E-09   2.8030738E-01   0.0000000E+00   5.0938008E-03   2.8233671E-01   0.0000000E+00   1.0118390E-02   2.8585875E-01   0.0000000E+00   1.4961099E-02   2.9100212E-01   0.0000000E+00   1.9442014E-02   2.9815039E-01   0.0000000E+00   2.3279585E-02   3.0680412E-01   0.0000000E+00   2.5926229E-02   3.1773826E-01   0.0000000E+00   2.8172208E-02   2.7285990E-01   0.0000000E+00   1.0209397E-08   2.7357200E-01   0.0000000E+00   4.5851329E-03   2.7582279E-01   0.0000000E+00   8.9981658E-03   2.7964064E-01   0.0000000E+00   1.2913641E-02   2.8549901E-01   0.0000000E+00   1.6321151E-02   2.9302555E-01   0.0000000E+00   1.8870592E-02   3.0282336E-01   0.0000000E+00   2.1133870E-02   3.1485102E-01   0.0000000E+00   2.3195585E-02   2.6730382E-01   0.0000000E+00   1.0874088E-08   2.6806214E-01   0.0000000E+00   3.7990781E-03   2.7045920E-01   0.0000000E+00   7.2588199E-03   2.7466682E-01   0.0000000E+00   1.0060400E-02   2.8069001E-01   0.0000000E+00   1.2301397E-02   2.8919864E-01   0.0000000E+00   1.4586525E-02   2.9972956E-01   0.0000000E+00   1.6634140E-02   3.1264597E-01   0.0000000E+00   1.9036118E-02   2.6259604E-01   0.0000000E+00   1.4096303E-08   2.6347733E-01   0.0000000E+00   2.6830395E-03   2.6598918E-01   0.0000000E+00   4.9577425E-03   2.7041179E-01   0.0000000E+00   6.7595383E-03   2.7707416E-01   0.0000000E+00   8.7424414E-03   2.8622365E-01   0.0000000E+00   1.0939018E-02   2.9760900E-01   0.0000000E+00   1.3409839E-02   3.1109753E-01   0.0000000E+00   1.6051779E-02   2.5844249E-01   0.0000000E+00   1.5804332E-08   2.5934184E-01   0.0000000E+00   1.4538659E-03   2.6221696E-01   0.0000000E+00   2.8043846E-03   2.6708776E-01   0.0000000E+00   4.3627536E-03   2.7419534E-01   0.0000000E+00   6.3303551E-03   2.8418624E-01   0.0000000E+00   8.9304829E-03   2.9548219E-01   0.0000000E+00   1.1102187E-02   3.0753812E-01   0.0000000E+00   1.3480120E-02   2.5441673E-01   0.0000000E+00   1.3180367E-08   2.5544319E-01   0.0000000E+00   6.0588418E-04   2.5853243E-01   0.0000000E+00   1.6665867E-03   2.6368171E-01   0.0000000E+00   3.0009903E-03   2.7084008E-01   0.0000000E+00   4.6019438E-03   2.8027263E-01   0.0000000E+00   6.8111201E-03   2.9001859E-01   0.0000000E+00   8.3985655E-03   3.0004704E-01   0.0000000E+00   1.1321759E-02   2.4923322E-01   0.0000000E+00   8.6663112E-09   2.5009519E-01   0.0000000E+00  -2.7119659E-04   2.5294349E-01   0.0000000E+00  -7.1643444E-05   2.5789678E-01   0.0000000E+00   8.1809406E-04   2.6420254E-01   0.0000000E+00   1.9066249E-03   2.7227268E-01   0.0000000E+00   4.1306601E-03   2.7963749E-01   0.0000000E+00   6.0223630E-03   2.4251564E-01   0.0000000E+00   8.9738723E-09   2.4325453E-01   0.0000000E+00  -8.2603574E-04   2.4542043E-01   0.0000000E+00  -1.5550498E-03   2.4888678E-01   0.0000000E+00  -1.9028295E-03   2.5376752E-01   0.0000000E+00  -4.8024693E-04  -5.8588930E-03   0.0000000E+00   5.8555225E-04  -5.6794458E-03   0.0000000E+00   7.1890262E-04  -5.4157418E-03   0.0000000E+00   8.5759244E-04  -5.0446950E-03   0.0000000E+00   1.0020139E-03  -4.5480751E-03   0.0000000E+00   1.1369784E-03  -3.9259130E-03   0.0000000E+00   1.2370233E-03  -3.1998283E-03   0.0000000E+00   1.2735013E-03  -8.2189441E-03   0.0000000E+00   7.8853860E-04  -7.9857381E-03   0.0000000E+00   9.5649267E-04  -7.6284469E-03   0.0000000E+00   1.1366094E-03  -7.1144225E-03   0.0000000E+00   1.3072998E-03  -6.4080553E-03   0.0000000E+00   1.4487556E-03  -5.4907566E-03   0.0000000E+00   1.5288207E-03  -4.3689292E-03   0.0000000E+00   1.5244992E-03  -3.0725354E-03   0.0000000E+00   1.6458174E-03  -1.1197235E-02   0.0000000E+00   9.1558625E-04  -1.0902374E-02   0.0000000E+00   1.0960944E-03  -1.0440331E-02   0.0000000E+00   1.2800882E-03  -9.7548515E-03   0.0000000E+00   1.4550147E-03  -8.8002561E-03   0.0000000E+00   1.5803622E-03  -7.5382604E-03   0.0000000E+00   1.6575508E-03  -6.0019991E-03   0.0000000E+00   1.6728895E-03  -4.2311801E-03   0.0000000E+00   1.7596212E-03  -1.4503375E-02   0.0000000E+00   9.7544992E-04  -1.4150064E-02   0.0000000E+00   1.1539269E-03  -1.3584408E-02   0.0000000E+00   1.3355961E-03  -1.2730061E-02   0.0000000E+00   1.5033882E-03  -1.1523599E-02   0.0000000E+00   1.6156875E-03  -9.9208048E-03   0.0000000E+00   1.6764408E-03  -7.9542669E-03   0.0000000E+00   1.6784599E-03  -5.6449953E-03   0.0000000E+00   1.7926686E-03  -1.8005619E-02   0.0000000E+00   9.7827159E-04  -1.7603327E-02   0.0000000E+00   1.1487779E-03  -1.6948618E-02   0.0000000E+00   1.3186831E-03  -1.5943307E-02   0.0000000E+00   1.4717594E-03  -1.4506682E-02   0.0000000E+00   1.5639360E-03  -1.2570178E-02   0.0000000E+00   1.6112218E-03  -1.0160314E-02   0.0000000E+00   1.6127843E-03  -7.2717168E-03   0.0000000E+00   1.8027576E-03  -2.1699362E-02   0.0000000E+00   9.4881066E-04  -2.1260321E-02   0.0000000E+00   1.1056245E-03  -2.0533955E-02   0.0000000E+00   1.2527710E-03  -1.9400736E-02   0.0000000E+00   1.3799059E-03  -1.7755102E-02   0.0000000E+00   1.4445076E-03  -1.5501716E-02   0.0000000E+00   1.4814923E-03  -1.2646486E-02   0.0000000E+00   1.5061478E-03  -9.1362372E-03   0.0000000E+00   1.8283875E-03  -2.5663696E-02   0.0000000E+00   9.2081068E-04  -2.5201390E-02   0.0000000E+00   1.0549983E-03  -2.4418890E-02   0.0000000E+00   1.1684349E-03  -2.3174290E-02   0.0000000E+00   1.2579436E-03  -2.1332702E-02   0.0000000E+00   1.2947877E-03  -1.8776404E-02   0.0000000E+00   1.3295803E-03  -1.5477348E-02   0.0000000E+00   1.4139077E-03  -1.1294911E-02   0.0000000E+00   1.9404721E-03  -2.9997185E-02   0.0000000E+00   9.3318621E-04  -2.9524185E-02   0.0000000E+00   1.0391193E-03  -2.8698210E-02   0.0000000E+00   1.1136545E-03  -2.7352707E-02   0.0000000E+00   1.1638991E-03  -2.5329605E-02   0.0000000E+00   1.1710122E-03  -2.2465393E-02   0.0000000E+00   1.2293948E-03  -1.8731242E-02   0.0000000E+00   1.4066820E-03  -1.3835005E-02   0.0000000E+00   2.2104878E-03  -3.4766082E-02   0.0000000E+00   1.0363508E-03  -3.4293979E-02   0.0000000E+00   1.1170738E-03  -3.3437543E-02   0.0000000E+00   1.1586307E-03  -3.1999614E-02   0.0000000E+00   1.1797923E-03  -2.9794678E-02   0.0000000E+00   1.1581210E-03  -2.6615035E-02   0.0000000E+00   1.2614008E-03  -2.2475453E-02   0.0000000E+00   1.5110741E-03  -1.6941968E-02   0.0000000E+00   2.5278537E-03  -3.9996117E-02   0.0000000E+00   1.2900617E-03  -3.9534718E-02   0.0000000E+00   1.3625405E-03  -3.8663752E-02   0.0000000E+00   1.3815813E-03  -3.7151173E-02   0.0000000E+00   1.3699795E-03  -3.4765910E-02   0.0000000E+00   1.3172347E-03  -3.1304009E-02   0.0000000E+00   1.3993471E-03  -2.6824549E-02   0.0000000E+00   1.6220188E-03  -2.1005483E-02   0.0000000E+00   2.4452223E-03  -4.5705449E-02   0.0000000E+00   1.7519357E-03  -4.5261659E-02   0.0000000E+00   1.8362046E-03  -4.4391416E-02   0.0000000E+00   1.8408981E-03  -4.2840738E-02   0.0000000E+00   1.7852110E-03  -4.0312950E-02   0.0000000E+00   1.6758231E-03  -3.6654323E-02   0.0000000E+00   1.6093004E-03  -3.1995330E-02   0.0000000E+00   1.6741201E-03  -2.6345368E-02   0.0000000E+00   1.9187551E-03  -5.1924221E-02   0.0000000E+00   2.4591042E-03  -5.1502906E-02   0.0000000E+00   2.5751768E-03  -5.0638348E-02   0.0000000E+00   2.6099598E-03  -4.9092855E-02   0.0000000E+00   2.5016917E-03  -4.6475235E-02   0.0000000E+00   2.3519567E-03  -4.2707156E-02   0.0000000E+00   2.2210239E-03  -3.7992276E-02   0.0000000E+00   2.3418874E-03  -3.2154884E-02   0.0000000E+00   2.8735669E-03  -5.8698159E-02   0.0000000E+00   3.4170053E-03  -5.8292627E-02   0.0000000E+00   3.6422235E-03  -5.7452329E-02   0.0000000E+00   3.7797736E-03  -5.5941097E-02   0.0000000E+00   3.7572556E-03  -5.3358931E-02   0.0000000E+00   3.8183043E-03  -4.9584836E-02   0.0000000E+00   4.2401832E-03  -4.4717241E-02   0.0000000E+00   5.7664081E-03  -3.8598515E-02   0.0000000E+00   7.9941107E-03  -6.6082098E-02   0.0000000E+00   4.6366509E-03  -6.5688014E-02   0.0000000E+00   5.0551868E-03  -6.4887889E-02   0.0000000E+00   5.4008542E-03  -6.3447081E-02   0.0000000E+00   5.7229102E-03  -6.1040930E-02   0.0000000E+00   6.2710023E-03  -5.7431236E-02   0.0000000E+00   7.5553954E-03  -5.2698862E-02   0.0000000E+00   9.9415733E-03  -4.6797428E-02   0.0000000E+00   1.2294256E-02  -7.4124999E-02   0.0000000E+00   6.1193635E-03  -7.3748358E-02   0.0000000E+00   6.7846156E-03  -7.2981261E-02   0.0000000E+00   7.4518672E-03  -7.1633413E-02   0.0000000E+00   8.1968028E-03  -6.9440767E-02   0.0000000E+00   9.2396084E-03  -6.6190191E-02   0.0000000E+00   1.0920112E-02  -6.1869249E-02   0.0000000E+00   1.3161335E-02  -5.6394026E-02   0.0000000E+00   1.5146599E-02  -8.2877845E-02   0.0000000E+00   7.8133643E-03  -8.2514159E-02   0.0000000E+00   8.7359063E-03  -8.1771076E-02   0.0000000E+00   9.7130938E-03  -8.0476560E-02   0.0000000E+00   1.0828208E-02  -7.8422368E-02   0.0000000E+00   1.2169477E-02  -7.5434178E-02   0.0000000E+00   1.3892739E-02  -7.1478412E-02   0.0000000E+00   1.5758118E-02  -6.6566952E-02   0.0000000E+00   1.7392203E-02  -9.2381440E-02   0.0000000E+00   9.6062841E-03  -9.2019893E-02   0.0000000E+00   1.0789544E-02  -9.1274768E-02   0.0000000E+00   1.2013875E-02  -8.9970425E-02   0.0000000E+00   1.3359203E-02  -8.7927356E-02   0.0000000E+00   1.4831038E-02  -8.5012764E-02   0.0000000E+00   1.6472174E-02  -8.1218131E-02   0.0000000E+00   1.8083723E-02  -7.6622486E-02   0.0000000E+00   1.9531021E-02  -1.0267098E-01   0.0000000E+00   1.1420834E-02  -1.0229026E-01   0.0000000E+00   1.2822540E-02  -1.0151571E-01   0.0000000E+00   1.4234345E-02  -1.0015546E-01   0.0000000E+00   1.5714634E-02  -9.8014317E-02   0.0000000E+00   1.7241249E-02  -9.4995581E-02   0.0000000E+00   1.8804226E-02  -9.1100425E-02   0.0000000E+00   2.0294819E-02  -8.6437814E-02   0.0000000E+00   2.1644296E-02  -1.1377981E-01   0.0000000E+00   1.3190244E-02  -1.1335562E-01   0.0000000E+00   1.4770079E-02  -1.1252402E-01   0.0000000E+00   1.6326781E-02  -1.1108139E-01   0.0000000E+00   1.7887741E-02  -1.0878365E-01   0.0000000E+00   1.9456685E-02  -1.0555170E-01   0.0000000E+00   2.0990781E-02  -1.0137133E-01   0.0000000E+00   2.2447107E-02  -9.6320257E-02   0.0000000E+00   2.3780638E-02  -1.2574406E-01   0.0000000E+00   1.4877978E-02  -1.2524948E-01   0.0000000E+00   1.6608618E-02  -1.2433340E-01   0.0000000E+00   1.8287260E-02  -1.2277867E-01   0.0000000E+00   1.9918976E-02  -1.2030128E-01   0.0000000E+00   2.1530723E-02  -1.1680804E-01   0.0000000E+00   2.3073681E-02  -1.1225364E-01   0.0000000E+00   2.4556875E-02  -1.0669872E-01   0.0000000E+00   2.5906952E-02  -1.3859904E-01   0.0000000E+00   1.6455164E-02  -1.3800670E-01   0.0000000E+00   1.8321810E-02  -1.3697839E-01   0.0000000E+00   2.0123642E-02  -1.3528356E-01   0.0000000E+00   2.1836223E-02  -1.3259706E-01   0.0000000E+00   2.3502735E-02  -1.2880397E-01   0.0000000E+00   2.5075216E-02  -1.2382387E-01   0.0000000E+00   2.6613245E-02  -1.1773557E-01   0.0000000E+00   2.7979633E-02  -1.5238006E-01   0.0000000E+00   1.7887317E-02  -1.5166236E-01   0.0000000E+00   1.9891016E-02  -1.5049335E-01   0.0000000E+00   2.1829637E-02  -1.4862540E-01   0.0000000E+00   2.3646345E-02  -1.4569512E-01   0.0000000E+00   2.5386013E-02  -1.4155963E-01   0.0000000E+00   2.7002657E-02  -1.3610911E-01   0.0000000E+00   2.8588543E-02  -1.2943698E-01   0.0000000E+00   2.9969996E-02  -1.6712055E-01   0.0000000E+00   1.9143732E-02  -1.6625270E-01   0.0000000E+00   2.1290310E-02  -1.6491668E-01   0.0000000E+00   2.3375463E-02  -1.6283956E-01   0.0000000E+00   2.5317881E-02  -1.5962747E-01   0.0000000E+00   2.7150808E-02  -1.5509945E-01   0.0000000E+00   2.8838599E-02  -1.4912780E-01   0.0000000E+00   3.0462364E-02  -1.4180990E-01   0.0000000E+00   3.1858161E-02  -1.8285878E-01   0.0000000E+00   2.0210478E-02  -1.8182163E-01   0.0000000E+00   2.2493783E-02  -1.8029629E-01   0.0000000E+00   2.4719389E-02  -1.7797726E-01   0.0000000E+00   2.6789607E-02  -1.7444150E-01   0.0000000E+00   2.8731860E-02  -1.6946869E-01   0.0000000E+00   3.0534189E-02  -1.6292426E-01   0.0000000E+00   3.2208692E-02  -1.5489076E-01   0.0000000E+00   3.3629589E-02  -1.9963624E-01   0.0000000E+00   2.1108605E-02  -1.9841991E-01   0.0000000E+00   2.3500238E-02  -1.9668941E-01   0.0000000E+00   2.5828104E-02  -1.9410366E-01   0.0000000E+00   2.7998149E-02  -1.9021420E-01   0.0000000E+00   3.0030740E-02  -1.8475020E-01   0.0000000E+00   3.2009829E-02  -1.7759246E-01   0.0000000E+00   3.3795130E-02  -1.6878723E-01   0.0000000E+00   3.5273850E-02  -2.1749164E-01   0.0000000E+00   2.1908753E-02  -2.1608956E-01   0.0000000E+00   2.4357894E-02  -2.1414797E-01   0.0000000E+00   2.6713764E-02  -2.1128786E-01   0.0000000E+00   2.8910683E-02  -2.0703979E-01   0.0000000E+00   3.0962106E-02  -2.0106775E-01   0.0000000E+00   3.3163618E-02  -1.9329666E-01   0.0000000E+00   3.5182960E-02  -1.8373480E-01   0.0000000E+00   3.6788724E-02  -2.3643148E-01   0.0000000E+00   2.2726906E-02  -2.3483606E-01   0.0000000E+00   2.5180267E-02  -2.3268311E-01   0.0000000E+00   2.7469121E-02  -2.2956152E-01   0.0000000E+00   2.9572494E-02  -2.2498442E-01   0.0000000E+00   3.1503826E-02  -2.1854818E-01   0.0000000E+00   3.3922471E-02  -2.1025375E-01   0.0000000E+00   3.6347888E-02  -2.0010747E-01   0.0000000E+00   3.8195271E-02  -2.5634912E-01   0.0000000E+00   2.3688845E-02  -2.5453949E-01   0.0000000E+00   2.6127791E-02  -2.5216728E-01   0.0000000E+00   2.8271323E-02  -2.4882261E-01   0.0000000E+00   3.0123107E-02  -2.4397016E-01   0.0000000E+00   3.1779930E-02  -2.3721036E-01   0.0000000E+00   3.4309849E-02  -2.2860284E-01   0.0000000E+00   3.7314035E-02  -2.1827632E-01   0.0000000E+00   3.9548144E-02  -2.7685994E-01   0.0000000E+00   2.4888171E-02  -2.7477008E-01   0.0000000E+00   2.7357157E-02  -2.7215406E-01   0.0000000E+00   2.9362051E-02  -2.6860508E-01   0.0000000E+00   3.0887078E-02  -2.6354736E-01   0.0000000E+00   3.2101214E-02  -2.5669393E-01   0.0000000E+00   3.4514662E-02  -2.4811606E-01   0.0000000E+00   3.8204920E-02  -2.3822802E-01   0.0000000E+00   4.0962487E-02  -2.9708347E-01   0.0000000E+00   2.6407447E-02  -2.9462510E-01   0.0000000E+00   2.8968321E-02  -2.9166064E-01   0.0000000E+00   3.0973619E-02  -2.8779542E-01   0.0000000E+00   3.2302462E-02  -2.8278038E-01   0.0000000E+00   3.2853380E-02  -2.7606240E-01   0.0000000E+00   3.4967836E-02  -2.6790297E-01   0.0000000E+00   3.9293002E-02  -2.5912607E-01   0.0000000E+00   4.2676166E-02  -3.1584033E-01   0.0000000E+00   2.7999753E-02  -3.1292716E-01   0.0000000E+00   3.0780487E-02  -3.0958840E-01   0.0000000E+00   3.2821592E-02  -3.0551490E-01   0.0000000E+00   3.3963341E-02  -3.0034021E-01   0.0000000E+00   3.4460094E-02  -2.9379314E-01   0.0000000E+00   3.6547232E-02  -2.8644636E-01   0.0000000E+00   4.1181561E-02  -2.7927130E-01   0.0000000E+00   4.5138709E-02  -3.3195555E-01   0.0000000E+00   2.9196188E-02  -3.2874113E-01   0.0000000E+00   3.2176483E-02  -3.2523474E-01   0.0000000E+00   3.4367353E-02  -3.2094321E-01   0.0000000E+00   3.5896670E-02  -3.1579888E-01   0.0000000E+00   3.6916770E-02  -3.0939499E-01   0.0000000E+00   4.0009700E-02  -3.0233282E-01   0.0000000E+00   4.4783540E-02  -2.9638097E-01   0.0000000E+00   4.9113426E-02  -3.4469485E-01   0.0000000E+00   2.9751064E-02  -3.4123117E-01   0.0000000E+00   3.2968786E-02  -3.3770254E-01   0.0000000E+00   3.5752639E-02  -3.3366442E-01   0.0000000E+00   3.8452629E-02  -3.2854033E-01   0.0000000E+00   4.1762155E-02  -3.2201767E-01   0.0000000E+00   4.6764120E-02  -3.1484500E-01   0.0000000E+00   5.0906211E-02  -3.0875921E-01   0.0000000E+00   5.5328194E-02  -3.5353398E-01   0.0000000E+00   2.9847296E-02  -3.4980777E-01   0.0000000E+00   3.4008395E-02  -3.4582400E-01   0.0000000E+00   3.8565375E-02  -3.4114128E-01   0.0000000E+00   4.4543367E-02  -3.3519486E-01   0.0000000E+00   5.2370403E-02  -3.2838586E-01   0.0000000E+00   5.7518143E-02  -3.2117838E-01   0.0000000E+00   5.9649095E-02  -3.1349251E-01   0.0000000E+00   6.3302703E-02  -3.5642487E-01   0.0000000E+00   3.2972295E-02  -3.5208398E-01   0.0000000E+00   3.9131820E-02  -3.4743381E-01   0.0000000E+00   4.6596039E-02  -3.4143224E-01   0.0000000E+00   5.6829263E-02  -3.3375475E-01   0.0000000E+00   6.6475235E-02  -3.2662800E-01   0.0000000E+00   6.8372495E-02  -3.1761363E-01   0.0000000E+00   6.7829072E-02  -3.0331099E-01   0.0000000E+00   7.1217291E-02  -3.4857586E-01   0.0000000E+00   4.5211963E-02  -3.4230468E-01   0.0000000E+00   5.4953068E-02  -3.3535424E-01   0.0000000E+00   6.6221356E-02  -3.2645407E-01   0.0000000E+00   7.7218138E-02  -3.1841964E-01   0.0000000E+00   8.0752343E-02  -3.1088829E-01   0.0000000E+00   7.6522805E-02  -2.8934333E-01   0.0000000E+00   7.3379613E-02  -2.4484511E-01   0.0000000E+00   7.6271951E-02  -3.0832842E-01   0.0000000E+00   7.7639520E-02  -3.0024263E-01   0.0000000E+00   8.7868482E-02  -2.9123199E-01   0.0000000E+00   9.3402281E-02  -2.8149691E-01   0.0000000E+00   9.3172140E-02  -2.6507294E-01   0.0000000E+00   8.8251039E-02  -2.3482628E-01   0.0000000E+00   7.9984426E-02  -1.9397949E-01   0.0000000E+00   7.6974981E-02  -1.5416345E-01   0.0000000E+00   8.0036730E-02  -1.9980128E-01   0.0000000E+00   7.4237555E-02  -1.9272935E-01   0.0000000E+00   8.4691912E-02  -1.8503316E-01   0.0000000E+00   9.1035545E-02  -1.7467362E-01   0.0000000E+00   8.9615524E-02  -1.5917148E-01   0.0000000E+00   8.5131116E-02  -1.3821192E-01   0.0000000E+00   7.9755180E-02  -1.1322436E-01   0.0000000E+00   7.7653676E-02  -8.9427337E-02   0.0000000E+00   8.3621427E-02  -1.1714961E-01   0.0000000E+00   6.4264312E-02  -1.1140146E-01   0.0000000E+00   7.2983854E-02  -1.0564937E-01   0.0000000E+00   8.1452817E-02  -9.8717973E-02   0.0000000E+00   8.2906656E-02  -8.9605875E-02   0.0000000E+00   7.9928473E-02  -7.8205459E-02   0.0000000E+00   7.8440927E-02  -6.5563709E-02   0.0000000E+00   7.6271787E-02  -5.3155750E-02   0.0000000E+00   8.7501653E-02  -5.9593894E-02   0.0000000E+00   5.6233522E-02  -5.6225266E-02   0.0000000E+00   6.3768543E-02  -5.3166948E-02   0.0000000E+00   7.1548715E-02  -5.0000142E-02   0.0000000E+00   7.6437406E-02  -4.6389960E-02   0.0000000E+00   7.6425463E-02  -4.2319424E-02   0.0000000E+00   7.9247072E-02  -3.8023874E-02   0.0000000E+00   7.5484656E-02  -3.3268914E-02   0.0000000E+00   9.0109378E-02  -1.1768376E-02   0.0000000E+00   5.1886644E-02  -1.0709015E-02   0.0000000E+00   5.9175972E-02  -1.0104255E-02   0.0000000E+00   6.7198709E-02  -1.0023752E-02   0.0000000E+00   7.3883779E-02  -1.0701233E-02   0.0000000E+00   7.6179370E-02  -1.2179298E-02   0.0000000E+00   7.9602093E-02  -1.3850507E-02   0.0000000E+00   7.5108394E-02  -1.4820497E-02   0.0000000E+00   9.1191411E-02   3.8148392E-02   0.0000000E+00   5.1345013E-02   3.7848108E-02   0.0000000E+00   5.9089407E-02   3.7145119E-02   0.0000000E+00   6.7913949E-02   3.5374366E-02   0.0000000E+00   7.6641500E-02   3.1579979E-02   0.0000000E+00   7.8402884E-02   2.5603773E-02   0.0000000E+00   7.9098724E-02   1.8640075E-02   0.0000000E+00   7.4870080E-02   1.1950233E-02   0.0000000E+00   9.1263071E-02   9.4080858E-02   0.0000000E+00   5.3506561E-02   9.3663022E-02   0.0000000E+00   6.1919078E-02   9.3041837E-02   0.0000000E+00   7.1412466E-02   9.0754636E-02   0.0000000E+00   8.0538489E-02   8.4585465E-02   0.0000000E+00   7.9955608E-02   7.4514151E-02   0.0000000E+00   7.8108907E-02   6.1882097E-02   0.0000000E+00   7.4715078E-02   4.8565544E-02   0.0000000E+00   9.0613328E-02   1.5359272E-01   0.0000000E+00   5.6748062E-02   1.5404694E-01   0.0000000E+00   6.5705694E-02   1.5454194E-01   0.0000000E+00   7.5530961E-02   1.5251896E-01   0.0000000E+00   8.3059914E-02   1.4448510E-01   0.0000000E+00   8.0723591E-02   1.3017447E-01   0.0000000E+00   7.7771299E-02   1.1141825E-01   0.0000000E+00   7.4688889E-02   9.0759501E-02   0.0000000E+00   8.9419127E-02   2.1229513E-01   0.0000000E+00   5.9566725E-02   2.1407020E-01   0.0000000E+00   6.8799466E-02   2.1607316E-01   0.0000000E+00   7.8678787E-02   2.1430165E-01   0.0000000E+00   8.3948351E-02   2.0443934E-01   0.0000000E+00   8.1054352E-02   1.8582767E-01   0.0000000E+00   7.7912807E-02   1.6092701E-01   0.0000000E+00   7.5058959E-02   1.3307832E-01   0.0000000E+00   8.8117734E-02   2.6682836E-01   0.0000000E+00   6.0960371E-02   2.6982850E-01   0.0000000E+00   7.0198394E-02   2.7303860E-01   0.0000000E+00   7.9730831E-02   2.7071935E-01   0.0000000E+00   8.3397053E-02   2.5801951E-01   0.0000000E+00   8.0435172E-02   2.3624311E-01   0.0000000E+00   7.8221262E-02   2.0587371E-01   0.0000000E+00   7.6133288E-02   1.7201728E-01   0.0000000E+00   8.7213740E-02   3.1213304E-01   0.0000000E+00   6.0544834E-02   3.1687859E-01   0.0000000E+00   6.9639407E-02   3.2165354E-01   0.0000000E+00   7.8456029E-02   3.1818503E-01   0.0000000E+00   8.0816507E-02   3.0276433E-01   0.0000000E+00   7.9380661E-02   2.7760193E-01   0.0000000E+00   7.8585923E-02   2.4405760E-01   0.0000000E+00   7.7593647E-02   2.0631367E-01   0.0000000E+00   8.6461656E-02   3.3918956E-01   0.0000000E+00   5.8921609E-02   3.4513557E-01   0.0000000E+00   6.8029612E-02   3.5177857E-01   0.0000000E+00   7.6963067E-02   3.5240668E-01   0.0000000E+00   7.8609571E-02   3.3824101E-01   0.0000000E+00   7.7412903E-02   3.0993953E-01   0.0000000E+00   7.9308301E-02   2.7442899E-01   0.0000000E+00   7.9152010E-02   2.3589805E-01   0.0000000E+00   8.5269168E-02   3.5164726E-01   0.0000000E+00   5.7706293E-02   3.5853198E-01   0.0000000E+00   6.6910468E-02   3.6641949E-01   0.0000000E+00   7.6263115E-02   3.7077186E-01   0.0000000E+00   7.9378799E-02   3.6359075E-01   0.0000000E+00   7.7166922E-02   3.3681375E-01   0.0000000E+00   7.9739764E-02   3.0086198E-01   0.0000000E+00   8.0237657E-02   2.6271537E-01   0.0000000E+00   8.3738945E-02   3.5548532E-01   0.0000000E+00   5.7444662E-02   3.6301067E-01   0.0000000E+00   6.6586554E-02   3.7168249E-01   0.0000000E+00   7.5712956E-02   3.7903386E-01   0.0000000E+00   8.1220344E-02   3.7886789E-01   0.0000000E+00   7.8951299E-02   3.5973176E-01   0.0000000E+00   7.9132520E-02   3.2566276E-01   0.0000000E+00   8.0093555E-02   2.8876099E-01   0.0000000E+00   8.2137942E-02   3.5587290E-01   0.0000000E+00   5.6948781E-02   3.6383477E-01   0.0000000E+00   6.5578714E-02   3.7314504E-01   0.0000000E+00   7.4354820E-02   3.8231745E-01   0.0000000E+00   8.0881380E-02   3.8625130E-01   0.0000000E+00   8.0038771E-02   3.7869281E-01   0.0000000E+00   7.8047656E-02   3.4934482E-01   0.0000000E+00   7.8610972E-02   3.1524298E-01   0.0000000E+00   8.0067940E-02   3.5450158E-01   0.0000000E+00   5.6165207E-02   3.6296943E-01   0.0000000E+00   6.4636081E-02   3.7293920E-01   0.0000000E+00   7.2664894E-02   3.8315713E-01   0.0000000E+00   7.8471921E-02   3.9022833E-01   0.0000000E+00   7.8752846E-02   3.9037442E-01   0.0000000E+00   7.6765478E-02   3.7271959E-01   0.0000000E+00   7.5204059E-02   3.4296474E-01   0.0000000E+00   7.7442475E-02   3.5210392E-01   0.0000000E+00   5.4867767E-02   3.6127931E-01   0.0000000E+00   6.2526591E-02   3.7192377E-01   0.0000000E+00   6.9417872E-02   3.8288027E-01   0.0000000E+00   7.4212477E-02   3.9159280E-01   0.0000000E+00   7.4745744E-02   3.9658514E-01   0.0000000E+00   7.3746525E-02   3.9395192E-01   0.0000000E+00   7.1604803E-02   3.7256271E-01   0.0000000E+00   7.4083760E-02   3.4880903E-01   0.0000000E+00   5.2673820E-02   3.5879520E-01   0.0000000E+00   5.9324719E-02   3.7038511E-01   0.0000000E+00   6.5159217E-02   3.8218242E-01   0.0000000E+00   6.8898648E-02   3.9176014E-01   0.0000000E+00   6.9157198E-02   4.0004459E-01   0.0000000E+00   6.8627790E-02   4.0465134E-01   0.0000000E+00   6.8402819E-02   4.0136749E-01   0.0000000E+00   6.9314040E-02   3.4501278E-01   0.0000000E+00   4.9950738E-02   3.5584527E-01   0.0000000E+00   5.5175669E-02   3.6846572E-01   0.0000000E+00   5.9663955E-02   3.8104367E-01   0.0000000E+00   6.2604532E-02   3.9083797E-01   0.0000000E+00   6.2126409E-02   4.0011576E-01   0.0000000E+00   6.2103488E-02   4.0906394E-01   0.0000000E+00   6.3531354E-02   4.1046825E-01   0.0000000E+00   6.4535715E-02   3.4091598E-01   0.0000000E+00   4.6126049E-02   3.5277247E-01   0.0000000E+00   5.0062452E-02   3.6633199E-01   0.0000000E+00   5.3480700E-02   3.7897924E-01   0.0000000E+00   5.5059299E-02   3.8856959E-01   0.0000000E+00   5.4359399E-02   3.9801821E-01   0.0000000E+00   5.5801928E-02   4.0850994E-01   0.0000000E+00   5.8521293E-02   3.3682874E-01   0.0000000E+00   4.1235734E-02   3.4983039E-01   0.0000000E+00   4.4210535E-02   3.6398432E-01   0.0000000E+00   4.6688471E-02   3.7593251E-01   0.0000000E+00   4.7132201E-02   3.8508385E-01   0.0000000E+00   4.6964951E-02   3.9511064E-01   0.0000000E+00   5.0246671E-02   4.0451989E-01   0.0000000E+00   5.3509343E-02   3.3338705E-01   0.0000000E+00   3.5746116E-02   3.4726337E-01   0.0000000E+00   3.8238738E-02   3.6135432E-01   0.0000000E+00   3.9941035E-02   3.7208903E-01   0.0000000E+00   3.9566878E-02   3.8135287E-01   0.0000000E+00   4.1249704E-02   3.9164412E-01   0.0000000E+00   4.5606151E-02   3.3071727E-01   0.0000000E+00   3.0331062E-02   3.4491310E-01   0.0000000E+00   3.2474723E-02   3.5826585E-01   0.0000000E+00   3.3375271E-02   3.6788845E-01   0.0000000E+00   3.3245116E-02   3.7775218E-01   0.0000000E+00   3.7118044E-02   3.8594854E-01   0.0000000E+00   4.1506901E-02   3.2852015E-01   0.0000000E+00   2.5343830E-02   3.4247482E-01   0.0000000E+00   2.7058253E-02   3.5471165E-01   0.0000000E+00   2.7971577E-02   3.6386272E-01   0.0000000E+00   2.9683704E-02   3.7311628E-01   0.0000000E+00   3.4589101E-02   3.2658395E-01   0.0000000E+00   2.1132987E-02   3.3955547E-01   0.0000000E+00   2.2642987E-02   3.5096076E-01   0.0000000E+00   2.5091894E-02   3.5889864E-01   0.0000000E+00   2.8243206E-02   3.2366711E-01   0.0000000E+00   1.7642738E-02   3.3534381E-01   0.0000000E+00   2.0384375E-02   3.4515837E-01   0.0000000E+00   2.4183242E-02   3.4688187E-01   0.0000000E+00   2.6133606E-02   3.1812826E-01   0.0000000E+00   1.5661424E-02   3.2723737E-01   0.0000000E+00   1.9375717E-02   3.0727389E-01   0.0000000E+00   1.4087535E-02 
Acec 3 2975 float
  0.0000000E+00   0.0000000E+00   0.0000000E+00   0.0000000E+00   0.0000000E+00   0.0000000E+00   0.0000000E+00   0.0000000E+00   0.0000000E+00   0.0000000E+00   0.0000000E+00   0.0000000E+00   0.0000000E+00   0.0000000E+00   0.0000000E+00   0.0000000E+00   0.0000000E+00   0.0000000E+00   0.0000000E+00   0.0000000E+00   0.0000000E+00   0.0000000E+00   0.0000000E+00   0.0000000E+00   0.0000000E+00   0.0000000E+00   0.0000000E+00   0.0000000E+00   0.0000000E+00   0.0000000E+00   0.0000000E+00   0.0000000E+00   0.0000000E+00   0.0000000E+00   0.0000000E+00   0.0000000E+00   0.0000000E+00   0.0000000E+00   0.0000000E+00   0.0000000E+00   0.0000000E+00   0.0000000E+00   0.0000000E+00   0.0000000E+00   0.0000000E+00   0.0000000E+00   0.0000000E+00   0.0000000E+00   0.0000000E+00   0.0000000E+00   0.0000000E+00   0.0000000E+00   0.0000000E+00   0.0000000E+00   0.0000000E+00   0.0000000E+00   0.0000000E+00   0.0000000E+00   0.0000000E+00   0.0000000E+00   0.0000000E+00   0.0000000E+00   0.0000000E+00   0.0000000E+00   0.0000000E+00   0.0000000E+00   0.0000000E+00   0.0000000E+00   0.0000000E+00   0.0000000E+00   0.0000000E+00   0.0000000E+00   0.0000000E+00   0.0000000E+00   0.0000000E+00   0.0000000E+00   0.0000000E+00   0.0000000E+00   0.0000000E+00   0.0000000E+00   0.0000000E+00   0.0000000E+00   0.0000000E+00   0.0000000E+00   0.0000000E+00   0.0000000E+00   0.0000000E+00   0.0000000E+00   0.0000000E+00   0.0000000E+00   0.0000000E+00   0.0000000E+00   0.0000000E+00   0.0000000E+00   0.0000000E+00   0.0000000E+00   0.0000000E+00   0.0000000E+00   0.0000000E+00   0.0000000E+00   0.0000000E+00   0.0000000E+00   0.0000000E+00   0.0000000E+00   0.0000000E+00   0.0000000E+00   0.0000000E+00   0.0000000E+00   0.0000000E+00   0.0000000E+00   0.0000000E+00   0.0000000E+00   0.0000000E+00   0.0000000E+00   0.0000000E+00   0.0000000E+00   0.0000000E+00   0.0000000E+00   0.0000000E+00   0.0000000E+00   0.0000000E+00   0.0000000E+00   0.0000000E+00   0.0000000E+00   0.0000000E+00   0.0000000E+00   0.0000000E+00   0.0000000E+00   0.0000000E+00   0.0000000E+00   0.0000000E+00   0.0000000E+00   0.0000000E+00   0.0000000E+00   0.0000000E+00   0.0000000E+00   0.0000000E+00   0.0000000E+00   0.0000000E+00   0.0000000E+00   0.0000000E+00   0.0000000E+00   0.0000000E+00   0.0000000E+00   0.0000000E+00   0.0000000E+00   0.0000000E+00   0.0000000E+00   0.0000000E+00   0.0000000E+00   0.0000000E+00   0.0000000E+00   0.0000000E+00   0.0000000E+00   0.0000000E+00   0.0000000E+00   0.0000000E+00   0.0000000E+00   0.0000000E+00   0.0000000E+00   0.0000000E+00   0.0000000E+00   0.0000000E+00   0.0000000E+00   0.0000000E+00   0.0000000E+00   0.0000000E+00   0.0000000E+00   0.0000000E+00   0.0000000E+00   0.0000000E+00   0.0000000E+00   0.0000000E+00   0.0000000E+00   0.0000000E+00   0.0000000E+00   0.0000000E+00   0.0000000E+00   0.0000000E+00   0.0000000E+00   0.0000000E+00   0.0000000E+00   0.0000000E+00   0.0000000E+00   0.0000000E+00   0.0000000E+00   0.0000000E+00   0.0000000E+00   0.0000000E+00   0.0000000E+00   0.0000000E+00   0.0000000E+00   0.0000000E+00   0.0000000E+00   0.0000000E+00   0.0000000E+00   0.0000000E+00   0.0000000E+00   0.0000000E+00   0.0000000E+00   0.0000000E+00   0.0000000E+00   0.0000000E+00   0.0000000E+00   0.0000000E+00   0.0000000E+00   0.0000000E+00   0.0000000E+00   0.0000000E+00   0.0000000E+00   0.0000000E+00   0.0000000E+00   0.0000000E+00   0.0000000E+00   0.0000000E+00   0.0000000E+00   0.0000000E+00   0.0000000E+00   0.0000000E+00   0.0000000E+00   0.0000000E+00   0.0000000E+00   0.0000000E+00   0.0000000E+00   0.0000000E+00   0.0000000E+00   0.0000000E+00   0.0000000E+00   0.0000000E+00   0.0000000E+00   0.0000000E+00   0.0000000E+00   0.0000000E+00   0.0000000E+00   0.0000000E+00   0.0000000E+00   0.0000000E+00   0.0000000E+00   0.0000000E+00   0.0000000E+00   0.0000000E+00   0.0000000E+00   0.0000000E+00   0.0000000E+00   0.0000000E+00   0.0000000E+00   0.0000000E+00   0.0000000E+00   0.0000000E+00   0.0000000E+00   0.0000000E+00   0.0000000E+00   0.0000000E+00   0.0000000E+00   0.0000000E+00   0.0000000E+00   0.0000000E+00   0.0000000E+00   0.0000000E+00   0.0000000E+00   0.0000000E+00   0.0000000E+00   0.0000000E+00   0.0000000E+00   0.0000000E+00   0.0000000E+00   0.0000000E+00   0.0000000E+00   0.0000000E+00   0.0000000E+00   0.0000000E+00   0.0000000E+00   0.0000000E+00   0.0000000E+00   0.0000000E+00   0.0000000E+00   0.0000000E+00   0.0000000E+00   0.0000000E+00   0.0000000E+00   0.0000000E+00   0.0000000E+00   0.0000000E+00   0.0000000E+00   0.0000000E+00   0.0000000E+00   0.0000000E+00   0.0000000E+00   0.0000000E+00   0.0000000E+00   0.0000000E+00   0.0000000E+00   0.0000000E+00   0.0000000E+00   0.0000000E+00   0.0000000E+00   0.0000000E+00   0.0000000E+00   0.0000000E+00   0.0000000E+00   0.0000000E+00   0.0000000E+00   0.0000000E+00   0.0000000E+00   0.0000000E+00   0.0000000E+00   0.0000000E+00   0.0000000E+00   0.0000000E+00   0.0000000E+00   0.0000000E+00   0.0000000E+00   0.0000000E+00   0.0000000E+00   0.0000000E+00   0.0000000E+00   0.0000000E+00   0.0000000E+00   0.0000000E+00   0.0000000E+00   0.0000000E+00   0.0000000E+00   0.0000000E+00   0.0000000E+00   0.0000000E+00   0.0000000E+00   0.0000000E+00   0.0000000E+00   0.0000000E+00   0.0000000E+00   0.0000000E+00   0.0000000E+00   0.0000000E+00   0.0000000E+00   0.0000000E+00   0.0000000E+00   0.0000000E+00   0.0000000E+00   0.0000000E+00   0.0000000E+00   0.0000000E+00   0.0000000E+00   0.0000000E+00   0.0000000E+00   0.0000000E+00   0.0000000E+00   0.0000000E+00   0.0000000E+00   0.0000000E+00   0.0000000E+00   0.0000000E+00   0.0000000E+00   0.0000000E+00   0.0000000E+00   0.0000000E+00   0.0000000E+00   0.0000000E+00   0.0000000E+00   0.0000000E+00   0.0000000E+00   0.0000000E+00   0.0000000E+00   0.0000000E+00   0.0000000E+00   0.0000000E+00   0.0000000E+00   0.0000000E+00   0.0000000E+00   0.0000000E+00   0.0000000E+00   0.0000000E+00   0.0000000E+00   0.0000000E+00   0.0000000E+00   0.0000000E+00   0.0000000E+00   0.0000000E+00   0.0000000E+00   0.0000000E+00   0.0000000E+00   0.0000000E+00   0.0000000E+00   0.0000000E+00   0.0000000E+00   0.0000000E+00   0.0000000E+00   0.0000000E+00   0.0000000E+00   0.0000000E+00   0.0000000E+00   0.0000000E+00   0.0000000E+00   0.0000000E+00   0.0000000E+00   0.0000000E+00   0.0000000E+00   0.0000000E+00   0.0000000E+00   0.0000000E+00   0.0000000E+00   0.0000000E+00   0.0000000E+00   0.0000000E+00   0.0000000E+00   0.0000000E+00   0.0000000E+00   0.0000000E+00   0.0000000E+00   0.0000000E+00   0.0000000E+00   0.0000000E+00   0.0000000E+00   0.0000000E+00   0.0000000E+00   0.0000000E+00   0.0000000E+00   0.0000000E+00   0.0000000E+00   0.0000000E+00   0.0000000E+00   0.0000000E+00   0.0000000E+00   0.0000000E+00   0.0000000E+00   0.0000000E+00   0.0000000E+00   0.0000000E+00   0.0000000E+00   0.0000000E+00   0.0000000E+00   0.0000000E+00   0.0000000E+00   0.0000000E+00   0.0000000E+00   0.0000000E+00   0.0000000E+00   0.0000000E+00   0.0000000E+00   0.0000000E+00   0.0000000E+00   0.0000000E+00   0.0000000E+00   0.0000000E+00   0.0000000E+00   0.0000000E+00   0.0000000E+00   0.0000000E+00   0.0000000E+00   0.0000000E+00   0.0000000E+00   0.0000000E+00   0.0000000E+00   0.0000000E+00   0.0000000E+00   0.0000000E+00   0.0000000E+00   0.0000000E+00   0.0000000E+00   0.0000000E+00   0.0000000E+00   0.0000000E+00   0.0000000E+00   0.0000000E+00   0.0000000E+00   0.0000000E+00   0.0000000E+00   0.0000000E+00   0.0000000E+00   0.0000000E+00   0.0000000E+00   0.0000000E+00   0.0000000E+00   0.0000000E+00   0.0000000E+00   0.0000000E+00   0.0000000E+00   0.0000000E+00   0.0000000E+00   0.0000000E+00   0.0000000E+00   0.0000000E+00   0.0000000E+00   0.0000000E+00   0.0000000E+00   0.0000000E+00   0.0000000E+00   0.0000000E+00   0.0000000E+00   0.0000000E+00   0.0000000E+00   0.0000000E+00   0.0000000E+00   0.0000000E+00   0.0000000E+00   0.0000000E+00   0.0000000E+00   0.0000000E+00   0.0000000E+00   0.0000000E+00   0.0000000E+00   0.0000000E+00   0.0000000E+00   0.0000000E+00   0.0000000E+00   0.0000000E+00   0.0000000E+00   0.0000000E+00   0.0000000E+00   0.0000000E+00   0.0000000E+00   0.0000000E+00   0.0000000E+00   0.0000000E+00   0.0000000E+00   0.0000000E+00   0.0000000E+00   0.0000000E+00   0.0000000E+00   0.0000000E+00   0.0000000E+00   0.0000000E+00   0.0000000E+00   0.0000000E+00   0.0000000E+00   0.0000000E+00   0.0000000E+00   0.0000000E+00   0.0000000E+00   0.0000000E+00   0.0000000E+00   0.0000000E+00   0.0000000E+00   0.0000000E+00   0.0000000E+00   0.0000000E+00   0.0000000E+00   0.0000000E+00   0.0000000E+00   0.0000000E+00   0.0000000E+00   0.0000000E+00   0.0000000E+00   0.0000000E+00   0.0000000E+00   0.0000000E+00   0.0000000E+00   0.0000000E+00   0.0000000E+00   0.0000000E+00   0.0000000E+00   0.0000000E+00   0.0000000E+00   0.0000000E+00   0.0000000E+00   0.0000000E+00   0.0000000E+00   0.0000000E+00   0.0000000E+00   0.0000000E+00   0.0000000E+00   0.0000000E+00   0.0000000E+00   0.0000000E+00   0.0000000E+00   0.0000000E+00   0.0000000E+00   0.0000000E+00   0.0000000E+00   0.0000000E+00   0.0000000E+00   0.0000000E+00   0.0000000E+00   0.0000000E+00   0.0000000E+00   0.0000000E+00   0.0000000E+00   0.0000000E+00   0.0000000E+00   0.0000000E+00   0.0000000E+00   0.0000000E+00   0.0000000E+00   0.0000000E+00   0.0000000E+00   0.0000000E+00   0.0000000E+00   0.0000000E+00   0.0000000E+00   0.0000000E+00   0.0000000E+00   0.0000000E+00   0.0000000E+00   0.0000000E+00   0.0000000E+00   0.0000000E+00   0.0000000E+00   0.0000000E+00   0.0000000E+00   0.0000000E+00   0.0000000E+00   0.0000000E+00   0.0000000E+00   0.0000000E+00   0.0000000E+00   0.0000000E+00   0.0000000E+00   0.0000000E+00   0.0000000E+00   0.0000000E+00   0.0000000E+00   0.0000000E+00   0.0000000E+00   0.0000000E+00   0.0000000E+00   0.0000000E+00   0.0000000E+00   0.0000000E+00   0.0000000E+00   0.0000000E+00   0.0000000E+00   0.0000000E+00   0.0000000E+00   0.0000000E+00   0.0000000E+00   0.0000000E+00   0.0000000E+00   0.0000000E+00   0.0000000E+00   0.0000000E+00   0.0000000E+00   0.0000000E+00   0.0000000E+00   0.0000000E+00   0.0000000E+00   0.0000000E+00   0.0000000E+00   0.0000000E+00   0.0000000E+00   0.0000000E+00   0.0000000E+00   0.0000000E+00   0.0000000E+00   0.0000000E+00   0.0000000E+00   0.0000000E+00   0.0000000E+00   0.0000000E+00   0.0000000E+00   0.0000000E+00   0.0000000E+00   0.0000000E+00   0.0000000E+00   0.0000000E+00   0.0000000E+00   0.0000000E+00   0.0000000E+00   0.0000000E+00   0.0000000E+00   0.0000000E+00   0.0000000E+00   0.0000000E+00   0.0000000E+00   0.0000000E+00   0.0000000E+00   0.0000000E+00   0.0000000E+00   0.0000000E+00   0.0000000E+00   0.0000000E+00   0.0000000E+00   0.0000000E+00   0.0000000E+00   0.0000000E+00   0.0000000E+00   0.0000000E+00   0.0000000E+00   0.0000000E+00   0.0000000E+00   0.0000000E+00   0.0000000E+00   0.0000000E+00   0.0000000E+00   0.0000000E+00   0.0000000E+00   0.0000000E+00   0.0000000E+00   0.0000000E+00   0.0000000E+00   0.0000000E+00   0.0000000E+00   0.0000000E+00   0.0000000E+00   0.0000000E+00   0.0000000E+00   0.0000000E+00   0.0000000E+00   0.0000000E+00   0.0000000E+00   0.0000000E+00   0.0000000E+00   0.0000000E+00   0.0000000E+00   0.0000000E+00   0.0000000E+00   0.0000000E+00   0.0000000E+00   0.0000000E+00   0.0000000E+00   0.0000000E+00   0.0000000E+00   0.0000000E+00   0.0000000E+00   0.0000000E+00   0.0000000E+00   0.0000000E+00   0.0000000E+00   0.0000000E+00   0.0000000E+00   0.0000000E+00   0.0000000E+00   0.0000000E+00   0.0000000E+00   0.0000000E+00   0.0000000E+00   0.0000000E+00   0.0000000E+00   0.0000000E+00   0.0000000E+00   0.0000000E+00   0.0000000E+00   0.0000000E+00   0.0000000E+00   0.0000000E+00   0.0000000E+00   0.0000000E+00   0.0000000E+00   0.0000000E+00   0.0000000E+00   0.0000000E+00   0.0000000E+00   0.0000000E+00   0.0000000E+00   0.0000000E+00   0.0000000E+00   0.0000000E+00   0.0000000E+00   0.0000000E+00   0.0000000E+00   0.0000000E+00   0.0000000E+00   0.0000000E+00   0.0000000E+00   0.0000000E+00   0.0000000E+00   0.0000000E+00   0.0000000E+00   0.0000000E+00   0.0000000E+00   0.0000000E+00   0.0000000E+00   0.0000000E+00   0.0000000E+00   0.0000000E+00   0.0000000E+00   0.0000000E+00   0.0000000E+00   0.0000000E+00   0.0000000E+00   0.0000000E+00   0.0000000E+00   0.0000000E+00   0.0000000E+00   0.0000000E+00   0.0000000E+00   0.0000000E+00   0.0000000E+00   0.0000000E+00   0.0000000E+00   0.0000000E+00   0.0000000E+00   0.0000000E+00   0.0000000E+00   0.0000000E+00   0.0000000E+00   0.0000000E+00   0.0000000E+00   0.0000000E+00   0.0000000E+00   0.0000000E+00   0.0000000E+00   0.0000000E+00   0.0000000E+00   0.0000000E+00   0.0000000E+00   0.0000000E+00   0.0000000E+00   0.0000000E+00   0.0000000E+00   0.0000000E+00   0.0000000E+00   0.0000000E+00   0.0000000E+00   0.0000000E+00   0.0000000E+00   0.0000000E+00   0.0000000E+00   0.0000000E+00   0.0000000E+00   0.0000000E+00   0.0000000E+00   0.0000000E+00   0.0000000E+00   0.0000000E+00   0.0000000E+00   0.0000000E+00   0.0000000E+00   0.0000000E+00   0.0000000E+00   0.0000000E+00   0.0000000E+00   0.0000000E+00   0.0000000E+00   0.0000000E+00   0.0000000E+00   0.0000000E+00   0.0000000E+00   0.0000000E+00   0.0000000E+00   0.0000000E+00   0.0000000E+00   0.0000000E+00   0.0000000E+00   0.0000000E+00   0.0000000E+00   0.0000000E+00   0.0000000E+00   0.0000000E+00   0.0000000E+00   0.0000000E+00   0.0000000E+00   0.0000000E+00   0.0000000E+00   0.0000000E+00   0.0000000E+00   0.0000000E+00   0.0000000E+00   0.0000000E+00   0.0000000E+00   0.0000000E+00   0.0000000E+00   0.0000000E+00   0.0000000E+00   0.0000000E+00   0.0000000E+00   0.0000000E+00   0.0000000E+00   0.0000000E+00   0.0000000E+00   0.0000000E+00   0.0000000E+00   0.0000000E+00   0.0000000E+00   0.0000000E+00   0.0000000E+00   0.0000000E+00   0.0000000E+00   0.0000000E+00   0.0000000E+00   0.0000000E+00   0.0000000E+00   0.0000000E+00   0.0000000E+00   0.0000000E+00   0.0000000E+00   0.0000000E+00   0.0000000E+00   0.0000000E+00   0.0000000E+00   0.0000000E+00   0.0000000E+00   0.0000000E+00   0.0000000E+00   0.0000000E+00   0.0000000E+00   0.0000000E+00   0.0000000E+00   0.0000000E+00   0.0000000E+00   0.0000000E+00   0.0000000E+00   0.0000000E+00   0.0000000E+00   0.0000000E+00   0.0000000E+00   0.0000000E+00   0.0000000E+00   0.0000000E+00   0.0000000E+00   0.0000000E+00   0.0000000E+00   0.0000000E+00   0.0000000E+00   0.0000000E+00   0.0000000E+00   0.0000000E+00   0.0000000E+00   0.0000000E+00   0.0000000E+00   0.0000000E+00   0.0000000E+00   0.0000000E+00   0.0000000E+00   0.0000000E+00   0.0000000E+00   0.0000000E+00   0.0000000E+00   0.0000000E+00   0.0000000E+00   0.0000000E+00   0.0000000E+00   0.0000000E+00   0.0000000E+00   0.0000000E+00   0.0000000E+00   0.0000000E+00   0.0000000E+00   0.0000000E+00   0.0000000E+00   0.0000000E+00   0.0000000E+00   0.0000000E+00   0.0000000E+00   0.0000000E+00   0.0000000E+00   0.0000000E+00   0.0000000E+00   0.0000000E+00   0.0000000E+00   0.0000000E+00   0.0000000E+00   0.0000000E+00   0.0000000E+00   0.0000000E+00   0.0000000E+00   0.0000000E+00   0.0000000E+00   0.0000000E+00   0.0000000E+00   0.0000000E+00   0.0000000E+00   0.0000000E+00   0.0000000E+00   0.0000000E+00   0.0000000E+00   0.0000000E+00   0.0000000E+00   0.0000000E+00   0.0000000E+00   0.0000000E+00   0.0000000E+00   0.0000000E+00   0.0000000E+00   0.0000000E+00   0.0000000E+00   0.0000000E+00   0.0000000E+00   0.0000000E+00   0.0000000E+00   0.0000000E+00   0.0000000E+00   0.0000000E+00   0.0000000E+00   0.0000000E+00   0.0000000E+00   0.0000000E+00   0.0000000E+00   0.0000000E+00   0.0000000E+00   0.0000000E+00   0.0000000E+00   0.0000000E+00   0.0000000E+00   0.0000000E+00   0.0000000E+00   0.0000000E+00   0.0000000E+00   0.0000000E+00   0.0000000E+00   0.0000000E+00   0.0000000E+00   0.0000000E+00   0.0000000E+00   0.0000000E+00   0.0000000E+00   0.0000000E+00   0.0000000E+00   0.0000000E+00   0.0000000E+00   0.0000000E+00   0.0000000E+00   0.0000000E+00   0.0000000E+00   0.0000000E+00   0.0000000E+00   0.0000000E+00   0.0000000E+00   0.0000000E+00   0.0000000E+00   0.0000000E+00   0.0000000E+00   0.0000000E+00   0.0000000E+00   0.0000000E+00   0.0000000E+00   0.0000000E+00   0.0000000E+00   0.0000000E+00   0.0000000E+00   0.0000000E+00   0.0000000E+00   0.0000000E+00   0.0000000E+00   0.0000000E+00   0.0000000E+00   0.0000000E+00   0.0000000E+00   0.0000000E+00   0.0000000E+00   0.0000000E+00   0.0000000E+00   0.0000000E+00   0.0000000E+00   0.0000000E+00   0.0000000E+00   0.0000000E+00   0.0000000E+00   0.0000000E+00   0.0000000E+00   0.0000000E+00   0.0000000E+00   0.0000000E+00   0.0000000E+00   0.0000000E+00   0.0000000E+00   0.0000000E+00   0.0000000E+00   0.0000000E+00   0.0000000E+00   0.0000000E+00   0.0000000E+00   0.0000000E+00   0.0000000E+00   0.0000000E+00   0.0000000E+00   0.0000000E+00   0.0000000E+00   0.0000000E+00   0.0000000E+00   0.0000000E+00   0.0000000E+00   0.0000000E+00   0.0000000E+00   0.0000000E+00   0.0000000E+00   0.0000000E+00   0.0000000E+00   0.0000000E+00   0.0000000E+00   0.0000000E+00   0.0000000E+00   0.0000000E+00   0.0000000E+00   0.0000000E+00   0.0000000E+00   0.0000000E+00   0.0000000E+00   0.0000000E+00   0.0000000E+00   0.0000000E+00   0.0000000E+00   0.0000000E+00   0.0000000E+00   0.0000000E+00   0.0000000E+00   0.0000000E+00   0.0000000E+00   0.0000000E+00   0.0000000E+00   0.0000000E+00   0.0000000E+00   0.0000000E+00   0.0000000E+00   0.0000000E+00   0.0000000E+00   0.0000000E+00   0.0000000E+00   0.0000000E+00   0.0000000E+00   0.0000000E+00   0.0000000E+00   0.0000000E+00   0.0000000E+00   0.0000000E+00   0.0000000E+00   0.0000000E+00   0.0000000E+00   0.0000000E+00   0.0000000E+00   0.0000000E+00   0.0000000E+00   0.0000000E+00   0.0000000E+00   0.0000000E+00   0.0000000E+00   0.0000000E+00   0.0000000E+00   0.0000000E+00   0.0000000E+00   0.0000000E+00   0.0000000E+00   0.0000000E+00   0.0000000E+00   0.0000000E+00   0.0000000E+00   0.0000000E+00   0.0000000E+00   0.0000000E+00   0.0000000E+00   0.0000000E+00   0.0000000E+00   0.0000000E+00   0.0000000E+00   0.0000000E+00   0.0000000E+00   0.0000000E+00   0.0000000E+00   0.0000000E+00   0.0000000E+00   0.0000000E+00   0.0000000E+00   0.0000000E+00   0.0000000E+00   0.0000000E+00   0.0000000E+00   0.0000000E+00   0.0000000E+00   0.0000000E+00   0.0000000E+00   0.0000000E+00   0.0000000E+00   0.0000000E+00   0.0000000E+00   0.0000000E+00   0.0000000E+00   0.0000000E+00   0.0000000E+00   0.0000000E+00   0.0000000E+00   0.0000000E+00   0.0000000E+00   0.0000000E+00   0.0000000E+00   0.0000000E+00   0.0000000E+00   0.0000000E+00   0.0000000E+00   0.0000000E+00   0.0000000E+00   0.0000000E+00   0.0000000E+00   0.0000000E+00   0.0000000E+00   0.0000000E+00   0.0000000E+00   0.0000000E+00   0.0000000E+00   0.0000000E+00   0.0000000E+00   0.0000000E+00   0.0000000E+00   0.0000000E+00   0.0000000E+00   0.0000000E+00   0.0000000E+00   0.0000000E+00   0.0000000E+00   0.0000000E+00   0.0000000E+00   0.0000000E+00   0.0000000E+00   0.0000000E+00   0.0000000E+00   0.0000000E+00   0.0000000E+00   0.0000000E+00   0.0000000E+00   0.0000000E+00   0.0000000E+00   0.0000000E+00   0.0000000E+00   0.0000000E+00   0.0000000E+00   0.0000000E+00   0.0000000E+00   0.0000000E+00   0.0000000E+00   0.0000000E+00   0.0000000E+00   0.0000000E+00   0.0000000E+00   0.0000000E+00   0.0000000E+00   0.0000000E+00   0.0000000E+00   0.0000000E+00   0.0000000E+00   0.0000000E+00   0.0000000E+00   0.0000000E+00   0.0000000E+00   0.0000000E+00   0.0000000E+00   0.0000000E+00   0.0000000E+00   0.0000000E+00   0.0000000E+00   0.0000000E+00   0.0000000E+00   0.0000000E+00   0.0000000E+00   0.0000000E+00   0.0000000E+00   0.0000000E+00   0.0000000E+00   0.0000000E+00   0.0000000E+00   0.0000000E+00   0.0000000E+00   0.0000000E+00   0.0000000E+00   0.0000000E+00   0.0000000E+00   0.0000000E+00   0.0000000E+00   0.0000000E+00   0.0000000E+00   0.0000000E+00   0.0000000E+00   0.0000000E+00   0.0000000E+00   0.0000000E+00   0.0000000E+00   0.0000000E+00   0.0000000E+00   0.0000000E+00   0.0000000E+00   0.0000000E+00   0.0000000E+00   0.0000000E+00   0.0000000E+00   0.0000000E+00   0.0000000E+00   0.0000000E+00   0.0000000E+00   0.0000000E+00   0.0000000E+00   0.0000000E+00   0.0000000E+00   0.0000000E+00   0.0000000E+00   0.0000000E+00   0.0000000E+00   0.0000000E+00   0.0000000E+00   0.0000000E+00   0.0000000E+00   0.0000000E+00   0.0000000E+00   0.0000000E+00   0.0000000E+00   0.0000000E+00   0.0000000E+00   0.0000000E+00   0.0000000E+00   0.0000000E+00   0.0000000E+00   0.0000000E+00   0.0000000E+00   0.0000000E+00   0.0000000E+00   0.0000000E+00   0.0000000E+00   0.0000000E+00   0.0000000E+00   0.0000000E+00   0.0000000E+00   0.0000000E+00   0.0000000E+00   0.0000000E+00   0.0000000E+00   0.0000000E+00   0.0000000E+00   0.0000000E+00   0.0000000E+00   0.0000000E+00   0.0000000E+00   0.0000000E+00   0.0000000E+00   0.0000000E+00   0.0000000E+00   0.0000000E+00   0.0000000E+00   0.0000000E+00   0.0000000E+00   0.0000000E+00   0.0000000E+00   0.0000000E+00   0.0000000E+00   0.0000000E+00   0.0000000E+00   0.0000000E+00   0.0000000E+00   0.0000000E+00   0.0000000E+00   0.0000000E+00   0.0000000E+00   0.0000000E+00   0.0000000E+00   0.0000000E+00   0.0000000E+00   0.0000000E+00   0.0000000E+00   0.0000000E+00   0.0000000E+00   0.0000000E+00   0.0000000E+00   0.0000000E+00   0.0000000E+00   0.0000000E+00   0.0000000E+00   0.0000000E+00   0.0000000E+00   0.0000000E+00   0.0000000E+00   0.0000000E+00   0.0000000E+00   0.0000000E+00   0.0000000E+00   0.0000000E+00   0.0000000E+00   0.0000000E+00   0.0000000E+00   0.0000000E+00   0.0000000E+00   0.0000000E+00   0.0000000E+00   0.0000000E+00   0.0000000E+00   0.0000000E+00   0.0000000E+00   0.0000000E+00   0.0000000E+00   0.0000000E+00   0.0000000E+00   0.0000000E+00   0.0000000E+00   0.0000000E+00   0.0000000E+00   0.0000000E+00   0.0000000E+00   0.0000000E+00   0.0000000E+00   0.0000000E+00   0.0000000E+00   0.0000000E+00   0.0000000E+00   0.0000000E+00   0.0000000E+00   0.0000000E+00   0.0000000E+00   0.0000000E+00   0.0000000E+00   0.0000000E+00   0.0000000E+00   0.0000000E+00   0.0000000E+00   0.0000000E+00   0.0000000E+00   0.0000000E+00   0.0000000E+00   0.0000000E+00   0.0000000E+00   0.0000000E+00   0.0000000E+00   0.0000000E+00   0.0000000E+00   0.0000000E+00   0.0000000E+00   0.0000000E+00   0.0000000E+00   0.0000000E+00   0.0000000E+00   0.0000000E+00   0.0000000E+00   0.0000000E+00   0.0000000E+00   0.0000000E+00   0.0000000E+00   0.0000000E+00   0.0000000E+00   0.0000000E+00   0.0000000E+00   0.0000000E+00   0.0000000E+00   0.0000000E+00   0.0000000E+00   0.0000000E+00   0.0000000E+00   0.0000000E+00   0.0000000E+00   0.0000000E+00   0.0000000E+00   0.0000000E+00   0.0000000E+00   0.0000000E+00   0.0000000E+00   0.0000000E+00   0.0000000E+00   0.0000000E+00   0.0000000E+00   0.0000000E+00   0.0000000E+00   0.0000000E+00   0.0000000E+00   0.0000000E+00   0.0000000E+00   0.0000000E+00   0.0000000E+00   0.0000000E+00   0.0000000E+00   0.0000000E+00   0.0000000E+00   0.0000000E+00   0.0000000E+00   0.0000000E+00   0.0000000E+00   0.0000000E+00   0.0000000E+00   0.0000000E+00   0.0000000E+00   0.0000000E+00   0.0000000E+00   0.0000000E+00   0.0000000E+00   0.0000000E+00   0.0000000E+00   0.0000000E+00   0.0000000E+00   0.0000000E+00   0.0000000E+00   0.0000000E+00   0.0000000E+00   0.0000000E+00   0.0000000E+00   0.0000000E+00   0.0000000E+00   0.0000000E+00   0.0000000E+00   0.0000000E+00   0.0000000E+00   0.0000000E+00   0.0000000E+00   0.0000000E+00   0.0000000E+00   0.0000000E+00   0.0000000E+00   0.0000000E+00   0.0000000E+00   0.0000000E+00   0.0000000E+00   0.0000000E+00   0.0000000E+00   0.0000000E+00   0.0000000E+00   0.0000000E+00   0.0000000E+00   0.0000000E+00   0.0000000E+00   0.0000000E+00   0.0000000E+00   0.0000000E+00   0.0000000E+00   0.0000000E+00   0.0000000E+00   0.0000000E+00   0.0000000E+00   0.0000000E+00   0.0000000E+00   0.0000000E+00   0.0000000E+00   0.0000000E+00   0.0000000E+00   0.0000000E+00   0.0000000E+00   0.0000000E+00   0.0000000E+00   0.0000000E+00   0.0000000E+00   0.0000000E+00   0.0000000E+00   0.0000000E+00   0.0000000E+00   0.0000000E+00   0.0000000E+00   0.0000000E+00   0.0000000E+00   0.0000000E+00   0.0000000E+00   0.0000000E+00   0.0000000E+00   0.0000000E+00   0.0000000E+00   0.0000000E+00   0.0000000E+00   0.0000000E+00   0.0000000E+00   0.0000000E+00   0.0000000E+00   0.0000000E+00   0.0000000E+00   0.0000000E+00   0.0000000E+00   0.0000000E+00   0.0000000E+00   0.0000000E+00   0.0000000E+00   0.0000000E+00   0.0000000E+00   0.0000000E+00   0.0000000E+00   0.0000000E+00   0.0000000E+00   0.0000000E+00   0.0000000E+00   0.0000000E+00   0.0000000E+00   0.0000000E+00   0.0000000E+00   0.0000000E+00   0.0000000E+00   0.0000000E+00   0.0000000E+00   0.0000000E+00   0.0000000E+00   0.0000000E+00   0.0000000E+00   0.0000000E+00   0.0000000E+00   0.0000000E+00   0.0000000E+00   0.0000000E+00   0.0000000E+00   0.0000000E+00   0.0000000E+00   0.0000000E+00   0.0000000E+00   0.0000000E+00   0.0000000E+00   0.0000000E+00   0.0000000E+00   0.0000000E+00   0.0000000E+00   0.0000000E+00   0.0000000E+00   0.0000000E+00   0.0000000E+00   0.0000000E+00   0.0000000E+00   0.0000000E+00   0.0000000E+00   0.0000000E+00   0.0000000E+00   0.0000000E+00   0.0000000E+00   0.0000000E+00   0.0000000E+00   0.0000000E+00   0.0000000E+00   0.0000000E+00   0.0000000E+00   0.0000000E+00   0.0000000E+00   0.0000000E+00   0.0000000E+00   0.0000000E+00   0.0000000E+00   0.0000000E+00   0.0000000E+00   0.0000000E+00   0.0000000E+00   0.0000000E+00   0.0000000E+00   0.0000000E+00   0.0000000E+00   0.0000000E+00   0.0000000E+00   0.0000000E+00   0.0000000E+00   0.0000000E+00   0.0000000E+00   0.0000000E+00   0.0000000E+00   0.0000000E+00   0.0000000E+00   0.0000000E+00   0.0000000E+00   0.0000000E+00   0.0000000E+00   0.0000000E+00   0.0000000E+00   0.0000000E+00   0.0000000E+00   0.0000000E+00   0.0000000E+00   0.0000000E+00   0.0000000E+00   0.0000000E+00   0.0000000E+00   0.0000000E+00   0.0000000E+00   0.0000000E+00   0.0000000E+00   0.0000000E+00   0.0000000E+00   0.0000000E+00   0.0000000E+00   0.0000000E+00   0.0000000E+00   0.0000000E+00   0.0000000E+00   0.0000000E+00   0.0000000E+00   0.0000000E+00   0.0000000E+00   0.0000000E+00   0.0000000E+00   0.0000000E+00   0.0000000E+00   0.0000000E+00   0.0000000E+00   0.0000000E+00   0.0000000E+00   0.0000000E+00   0.0000000E+00   0.0000000E+00   0.0000000E+00   0.0000000E+00   0.0000000E+00   0.0000000E+00   0.0000000E+00   0.0000000E+00   0.0000000E+00   0.0000000E+00   0.0000000E+00   0.0000000E+00   0.0000000E+00   0.0000000E+00   0.0000000E+00   0.0000000E+00   0.0000000E+00   0.0000000E+00   0.0000000E+00   0.0000000E+00   0.0000000E+00   0.0000000E+00   0.0000000E+00   0.0000000E+00   0.0000000E+00   0.0000000E+00   0.0000000E+00   0.0000000E+00   0.0000000E+00   0.0000000E+00   0.0000000E+00   0.0000000E+00   0.0000000E+00   0.0000000E+00   0.0000000E+00   0.0000000E+00   0.0000000E+00   0.0000000E+00   0.0000000E+00   0.0000000E+00   0.0000000E+00   0.0000000E+00   0.0000000E+00   0.0000000E+00   0.0000000E+00   0.0000000E+00   0.0000000E+00   0.0000000E+00   0.0000000E+00   0.0000000E+00   0.0000000E+00   0.0000000E+00   0.0000000E+00   0.0000000E+00   0.0000000E+00   0.0000000E+00   0.0000000E+00   0.0000000E+00   0.0000000E+00   0.0000000E+00   0.0000000E+00   0.0000000E+00   0.0000000E+00   0.0000000E+00   0.0000000E+00   0.0000000E+00   0.0000000E+00   0.0000000E+00   0.0000000E+00   0.0000000E+00   0.0000000E+00   0.0000000E+00   0.0000000E+00   0.0000000E+00   0.0000000E+00   0.0000000E+00   0.0000000E+00   0.0000000E+00   0.0000000E+00   0.0000000E+00   0.0000000E+00   0.0000000E+00   0.0000000E+00   0.0000000E+00   0.0000000E+00   0.0000000E+00   0.0000000E+00   0.0000000E+00   0.0000000E+00   0.0000000E+00   0.0000000E+00   0.0000000E+00   0.0000000E+00   0.0000000E+00   0.0000000E+00   0.0000000E+00   0.0000000E+00   0.0000000E+00   0.0000000E+00   0.0000000E+00   0.0000000E+00   0.0000000E+00   0.0000000E+00   0.0000000E+00   0.0000000E+00   0.0000000E+00   0.0000000E+00   0.0000000E+00   0.0000000E+00   0.0000000E+00   0.0000000E+00   0.0000000E+00   0.0000000E+00   0.0000000E+00   0.0000000E+00   0.0000000E+00   0.0000000E+00   0.0000000E+00   0.0000000E+00   0.0000000E+00   0.0000000E+00   0.0000000E+00   0.0000000E+00   0.0000000E+00   0.0000000E+00   0.0000000E+00   0.0000000E+00   0.0000000E+00   0.0000000E+00   0.0000000E+00   0.0000000E+00   0.0000000E+00   0.0000000E+00   0.0000000E+00   0.0000000E+00   0.0000000E+00   0.0000000E+00   0.0000000E+00   0.0000000E+00   0.0000000E+00   0.0000000E+00   0.0000000E+00   0.0000000E+00   0.0000000E+00   0.0000000E+00   0.0000000E+00   0.0000000E+00   0.0000000E+00   0.0000000E+00   0.0000000E+00   0.0000000E+00   0.0000000E+00   0.0000000E+00   0.0000000E+00   0.0000000E+00   0.0000000E+00   0.0000000E+00   0.0000000E+00   0.0000000E+00   0.0000000E+00   0.0000000E+00   0.0000000E+00   0.0000000E+00   0.0000000E+00   0.0000000E+00   0.0000000E+00   0.0000000E+00   0.0000000E+00   0.0000000E+00   0.0000000E+00   0.0000000E+00   0.0000000E+00   0.0000000E+00   0.0000000E+00   0.0000000E+00   0.0000000E+00   0.0000000E+00   0.0000000E+00   0.0000000E+00   0.0000000E+00   0.0000000E+00   0.0000000E+00   0.0000000E+00   0.0000000E+00   0.0000000E+00   0.0000000E+00   0.0000000E+00   0.0000000E+00   0.0000000E+00   0.0000000E+00   0.0000000E+00   0.0000000E+00   0.0000000E+00   0.0000000E+00   0.0000000E+00   0.0000000E+00   0.0000000E+00   0.0000000E+00   0.0000000E+00   0.0000000E+00   0.0000000E+00   0.0000000E+00   0.0000000E+00   0.0000000E+00   0.0000000E+00   0.0000000E+00   0.0000000E+00   0.0000000E+00   0.0000000E+00   0.0000000E+00   0.0000000E+00   0.0000000E+00   0.0000000E+00   0.0000000E+00   0.0000000E+00   0.0000000E+00   0.0000000E+00   0.0000000E+00   0.0000000E+00   0.0000000E+00   0.0000000E+00   0.0000000E+00   0.0000000E+00   0.0000000E+00   0.0000000E+00   0.0000000E+00   0.0000000E+00   0.0000000E+00   0.0000000E+00   0.0000000E+00   0.0000000E+00   0.0000000E+00   0.0000000E+00   0.0000000E+00   0.0000000E+00   0.0000000E+00   0.0000000E+00   0.0000000E+00   0.0000000E+00   0.0000000E+00   0.0000000E+00   0.0000000E+00   0.0000000E+00   0.0000000E+00   0.0000000E+00   0.0000000E+00   0.0000000E+00   0.0000000E+00   0.0000000E+00   0.0000000E+00   0.0000000E+00   0.0000000E+00   0.0000000E+00   0.0000000E+00   0.0000000E+00   0.0000000E+00   0.0000000E+00   0.0000000E+00   0.0000000E+00   0.0000000E+00   0.0000000E+00   0.0000000E+00   0.0000000E+00   0.0000000E+00   0.0000000E+00   0.0000000E+00   0.0000000E+00   0.0000000E+00   0.0000000E+00   0.0000000E+00   0.0000000E+00   0.0000000E+00   0.0000000E+00   0.0000000E+00   0.0000000E+00   0.0000000E+00   0.0000000E+00   0.0000000E+00   0.0000000E+00   0.0000000E+00   0.0000000E+00   0.0000000E+00   0.0000000E+00   0.0000000E+00   0.0000000E+00   0.0000000E+00   0.0000000E+00   0.0000000E+00   0.0000000E+00   0.0000000E+00   0.0000000E+00   0.0000000E+00   0.0000000E+00   0.0000000E+00   0.0000000E+00   0.0000000E+00   0.0000000E+00   0.0000000E+00   0.0000000E+00   0.0000000E+00   0.0000000E+00   0.0000000E+00   0.0000000E+00   0.0000000E+00   0.0000000E+00   0.0000000E+00   0.0000000E+00   0.0000000E+00   0.0000000E+00   0.0000000E+00   0.0000000E+00   0.0000000E+00   0.0000000E+00   0.0000000E+00   0.0000000E+00   0.0000000E+00   0.0000000E+00   0.0000000E+00   0.0000000E+00   0.0000000E+00   0.0000000E+00   0.0000000E+00   0.0000000E+00   0.0000000E+00   0.0000000E+00   0.0000000E+00   0.0000000E+00   0.0000000E+00   0.0000000E+00   0.0000000E+00   0.0000000E+00   0.0000000E+00   0.0000000E+00   0.0000000E+00   0.0000000E+00   0.0000000E+00   0.0000000E+00   0.0000000E+00   0.0000000E+00   0.0000000E+00   0.0000000E+00   0.0000000E+00   0.0000000E+00   0.0000000E+00   0.0000000E+00   0.0000000E+00   0.0000000E+00   0.0000000E+00   0.0000000E+00   0.0000000E+00   0.0000000E+00   0.0000000E+00   0.0000000E+00   0.0000000E+00   0.0000000E+00   0.0000000E+00   0.0000000E+00   0.0000000E+00   0.0000000E+00   0.0000000E+00   0.0000000E+00   0.0000000E+00   0.0000000E+00   0.0000000E+00   0.0000000E+00   0.0000000E+00   0.0000000E+00   0.0000000E+00   0.0000000E+00   0.0000000E+00   0.0000000E+00   0.0000000E+00   0.0000000E+00   0.0000000E+00   0.0000000E+00   0.0000000E+00   0.0000000E+00   0.0000000E+00   0.0000000E+00   0.0000000E+00   0.0000000E+00   0.0000000E+00   0.0000000E+00   0.0000000E+00   0.0000000E+00   0.0000000E+00   0.0000000E+00   0.0000000E+00   0.0000000E+00   0.0000000E+00   0.0000000E+00   0.0000000E+00   0.0000000E+00   0.0000000E+00   0.0000000E+00   0.0000000E+00   0.0000000E+00   0.0000000E+00   0.0000000E+00   0.0000000E+00   0.0000000E+00   0.0000000E+00   0.0000000E+00   0.0000000E+00   0.0000000E+00   0.0000000E+00   0.0000000E+00   0.0000000E+00   0.0000000E+00   0.0000000E+00   0.0000000E+00   0.0000000E+00   0.0000000E+00   0.0000000E+00   0.0000000E+00   0.0000000E+00   0.0000000E+00   0.0000000E+00   0.0000000E+00   0.0000000E+00   0.0000000E+00   0.0000000E+00   0.0000000E+00   0.0000000E+00   0.0000000E+00   0.0000000E+00   0.0000000E+00   0.0000000E+00   0.0000000E+00   0.0000000E+00   0.0000000E+00   0.0000000E+00   0.0000000E+00   0.0000000E+00   0.0000000E+00   0.0000000E+00   0.0000000E+00   0.0000000E+00   0.0000000E+00   0.0000000E+00   0.0000000E+00   0.0000000E+00   0.0000000E+00   0.0000000E+00   0.0000000E+00   0.0000000E+00   0.0000000E+00   0.0000000E+00   0.0000000E+00   0.0000000E+00   0.0000000E+00   0.0000000E+00   0.0000000E+00   0.0000000E+00   0.0000000E+00   0.0000000E+00   0.0000000E+00   0.0000000E+00   0.0000000E+00   0.0000000E+00   0.0000000E+00   0.0000000E+00   0.0000000E+00   0.0000000E+00   0.0000000E+00   0.0000000E+00   0.0000000E+00   0.0000000E+00   0.0000000E+00   0.0000000E+00   0.0000000E+00   0.0000000E+00   0.0000000E+00   0.0000000E+00   0.0000000E+00   0.0000000E+00   0.0000000E+00   0.0000000E+00   0.0000000E+00   0.0000000E+00   0.0000000E+00   0.0000000E+00   0.0000000E+00   0.0000000E+00   0.0000000E+00   0.0000000E+00   0.0000000E+00   0.0000000E+00   0.0000000E+00   0.0000000E+00   0.0000000E+00   0.0000000E+00   0.0000000E+00   0.0000000E+00   0.0000000E+00   0.0000000E+00   0.0000000E+00   0.0000000E+00   0.0000000E+00   0.0000000E+00   0.0000000E+00   0.0000000E+00   0.0000000E+00   0.0000000E+00   0.0000000E+00   0.0000000E+00   0.0000000E+00   0.0000000E+00   0.0000000E+00   0.0000000E+00   0.0000000E+00   0.0000000E+00   0.0000000E+00   0.0000000E+00   0.0000000E+00   0.0000000E+00   0.0000000E+00   0.0000000E+00   0.0000000E+00   0.0000000E+00   0.0000000E+00   0.0000000E+00   0.0000000E+00   0.0000000E+00   0.0000000E+00   0.0000000E+00   0.0000000E+00   0.0000000E+00   0.0000000E+00   0.0000000E+00   0.0000000E+00   0.0000000E+00   0.0000000E+00   0.0000000E+00   0.0000000E+00   0.0000000E+00   0.0000000E+00   0.0000000E+00   0.0000000E+00   0.0000000E+00   0.0000000E+00   0.0000000E+00   0.0000000E+00   0.0000000E+00   0.0000000E+00   0.0000000E+00   0.0000000E+00   0.0000000E+00   0.0000000E+00   0.0000000E+00   0.0000000E+00   0.0000000E+00   0.0000000E+00   0.0000000E+00   0.0000000E+00   0.0000000E+00   0.0000000E+00   0.0000000E+00   0.0000000E+00   0.0000000E+00   0.0000000E+00   0.0000000E+00   0.0000000E+00   0.0000000E+00   0.0000000E+00   0.0000000E+00   0.0000000E+00   0.0000000E+00   0.0000000E+00   0.0000000E+00   0.0000000E+00   0.0000000E+00   0.0000000E+00   0.0000000E+00   0.0000000E+00   0.0000000E+00   0.0000000E+00   0.0000000E+00   0.0000000E+00   0.0000000E+00   0.0000000E+00   0.0000000E+00   0.0000000E+00   0.0000000E+00   0.0000000E+00   0.0000000E+00   0.0000000E+00   0.0000000E+00   0.0000000E+00   0.0000000E+00   0.0000000E+00   0.0000000E+00   0.0000000E+00   0.0000000E+00   0.0000000E+00   0.0000000E+00   0.0000000E+00   0.0000000E+00   0.0000000E+00   0.0000000E+00   0.0000000E+00   0.0000000E+00   0.0000000E+00   0.0000000E+00   0.0000000E+00   0.0000000E+00   0.0000000E+00   0.0000000E+00   0.0000000E+00   0.0000000E+00   0.0000000E+00   0.0000000E+00   0.0000000E+00   0.0000000E+00   0.0000000E+00   0.0000000E+00   0.0000000E+00   0.0000000E+00   0.0000000E+00   0.0000000E+00   0.0000000E+00   0.0000000E+00   0.0000000E+00   0.0000000E+00   0.0000000E+00   0.0000000E+00   0.0000000E+00   0.0000000E+00   0.0000000E+00   0.0000000E+00   0.0000000E+00   0.0000000E+00   0.0000000E+00   0.0000000E+00   0.0000000E+00   0.0000000E+00   0.0000000E+00   0.0000000E+00   0.0000000E+00   0.0000000E+00   0.0000000E+00   0.0000000E+00   0.0000000E+00   0.0000000E+00   0.0000000E+00   0.0000000E+00   0.0000000E+00   0.0000000E+00   0.0000000E+00   0.0000000E+00   0.0000000E+00   0.0000000E+00   0.0000000E+00   0.0000000E+00   0.0000000E+00   0.0000000E+00   0.0000000E+00   0.0000000E+00   0.0000000E+00   0.0000000E+00   0.0000000E+00   0.0000000E+00   0.0000000E+00   0.0000000E+00   0.0000000E+00   0.0000000E+00   0.0000000E+00   0.0000000E+00   0.0000000E+00   0.0000000E+00   0.0000000E+00   0.0000000E+00   0.0000000E+00   0.0000000E+00   0.0000000E+00   0.0000000E+00   0.0000000E+00   0.0000000E+00   0.0000000E+00   0.0000000E+00   0.0000000E+00   0.0000000E+00   0.0000000E+00   0.0000000E+00   0.0000000E+00   0.0000000E+00   0.0000000E+00   0.0000000E+00   0.0000000E+00   0.0000000E+00   0.0000000E+00   0.0000000E+00   0.0000000E+00   0.0000000E+00   0.0000000E+00   0.0000000E+00   0.0000000E+00   0.0000000E+00   0.0000000E+00   0.0000000E+00   0.0000000E+00   0.0000000E+00   0.0000000E+00   0.0000000E+00   0.0000000E+00   0.0000000E+00   0.0000000E+00   0.0000000E+00   0.0000000E+00   0.0000000E+00   0.0000000E+00   0.0000000E+00   0.0000000E+00   0.0000000E+00   0.0000000E+00   0.0000000E+00   0.0000000E+00   0.0000000E+00   0.0000000E+00   0.0000000E+00   0.0000000E+00   0.0000000E+00   0.0000000E+00   0.0000000E+00   0.0000000E+00   0.0000000E+00   0.0000000E+00   0.0000000E+00   0.0000000E+00   0.0000000E+00   0.0000000E+00   0.0000000E+00   0.0000000E+00   0.0000000E+00   0.0000000E+00   0.0000000E+00   0.0000000E+00   0.0000000E+00   0.0000000E+00   0.0000000E+00   0.0000000E+00   0.0000000E+00   0.0000000E+00   0.0000000E+00   0.0000000E+00   0.0000000E+00   0.0000000E+00   0.0000000E+00   0.0000000E+00   0.0000000E+00   0.0000000E+00   0.0000000E+00   0.0000000E+00   0.0000000E+00   0.0000000E+00   0.0000000E+00   0.0000000E+00   0.0000000E+00   0.0000000E+00   0.0000000E+00   0.0000000E+00   0.0000000E+00   0.0000000E+00   0.0000000E+00   0.0000000E+00   0.0000000E+00   0.0000000E+00   0.0000000E+00   0.0000000E+00   0.0000000E+00   0.0000000E+00   0.0000000E+00   0.0000000E+00   0.0000000E+00   0.0000000E+00   0.0000000E+00   0.0000000E+00   0.0000000E+00   0.0000000E+00   0.0000000E+00   0.0000000E+00   0.0000000E+00   0.0000000E+00   0.0000000E+00   0.0000000E+00   0.0000000E+00   0.0000000E+00   0.0000000E+00   0.0000000E+00   0.0000000E+00   0.0000000E+00   0.0000000E+00   0.0000000E+00   0.0000000E+00   0.0000000E+00   0.0000000E+00   0.0000000E+00   0.0000000E+00   0.0000000E+00   0.0000000E+00   0.0000000E+00   0.0000000E+00   0.0000000E+00   0.0000000E+00   0.0000000E+00   0.0000000E+00   0.0000000E+00   0.0000000E+00   0.0000000E+00   0.0000000E+00   0.0000000E+00   0.0000000E+00   0.0000000E+00   0.0000000E+00   0.0000000E+00   0.0000000E+00   0.0000000E+00   0.0000000E+00   0.0000000E+00   0.0000000E+00   0.0000000E+00   0.0000000E+00   0.0000000E+00   0.0000000E+00   0.0000000E+00   0.0000000E+00   0.0000000E+00   0.0000000E+00   0.0000000E+00   0.0000000E+00   0.0000000E+00   0.0000000E+00   0.0000000E+00   0.0000000E+00   0.0000000E+00   0.0000000E+00   0.0000000E+00   0.0000000E+00   0.0000000E+00   0.0000000E+00   0.0000000E+00   0.0000000E+00   0.0000000E+00   0.0000000E+00   0.0000000E+00   0.0000000E+00   0.0000000E+00   0.0000000E+00   0.0000000E+00   0.0000000E+00   0.0000000E+00   0.0000000E+00   0.0000000E+00   0.0000000E+00   0.0000000E+00   0.0000000E+00   0.0000000E+00   0.0000000E+00   0.0000000E+00   0.0000000E+00   0.0000000E+00   0.0000000E+00   0.0000000E+00   0.0000000E+00   0.0000000E+00   0.0000000E+00   0.0000000E+00   0.0000000E+00   0.0000000E+00   0.0000000E+00   0.0000000E+00   0.0000000E+00   0.0000000E+00   0.0000000E+00   0.0000000E+00   0.0000000E+00   0.0000000E+00   0.0000000E+00   0.0000000E+00   0.0000000E+00   0.0000000E+00   0.0000000E+00   0.0000000E+00   0.0000000E+00   0.0000000E+00   0.0000000E+00   0.0000000E+00   0.0000000E+00   0.0000000E+00   0.0000000E+00   0.0000000E+00   0.0000000E+00   0.0000000E+00   0.0000000E+00   0.0000000E+00   0.0000000E+00   0.0000000E+00   0.0000000E+00   0.0000000E+00   0.0000000E+00   0.0000000E+00   0.0000000E+00   0.0000000E+00   0.0000000E+00   0.0000000E+00   0.0000000E+00   0.0000000E+00   0.0000000E+00   0.0000000E+00   0.0000000E+00   0.0000000E+00   0.0000000E+00   0.0000000E+00   0.0000000E+00   0.0000000E+00   0.0000000E+00   0.0000000E+00   0.0000000E+00   0.0000000E+00   0.0000000E+00   0.0000000E+00   0.0000000E+00   0.0000000E+00   0.0000000E+00   0.0000000E+00   0.0000000E+00   0.0000000E+00   0.0000000E+00   0.0000000E+00   0.0000000E+00   0.0000000E+00   0.0000000E+00   0.0000000E+00   0.0000000E+00   0.0000000E+00   0.0000000E+00   0.0000000E+00   0.0000000E+00   0.0000000E+00   0.0000000E+00   0.0000000E+00   0.0000000E+00   0.0000000E+00   0.0000000E+00   0.0000000E+00   0.0000000E+00   0.0000000E+00   0.0000000E+00   0.0000000E+00   0.0000000E+00   0.0000000E+00   0.0000000E+00   0.0000000E+00   0.0000000E+00   0.0000000E+00   0.0000000E+00   0.0000000E+00   0.0000000E+00   0.0000000E+00   0.0000000E+00   0.0000000E+00   0.0000000E+00   0.0000000E+00   0.0000000E+00   0.0000000E+00   0.0000000E+00   0.0000000E+00   0.0000000E+00   0.0000000E+00   0.0000000E+00   0.0000000E+00   0.0000000E+00   0.0000000E+00   0.0000000E+00   0.0000000E+00   0.0000000E+00   0.0000000E+00   0.0000000E+00   0.0000000E+00   0.0000000E+00   0.0000000E+00   0.0000000E+00   0.0000000E+00   0.0000000E+00   0.0000000E+00   0.0000000E+00   0.0000000E+00   0.0000000E+00   0.0000000E+00   0.0000000E+00   0.0000000E+00   0.0000000E+00   0.0000000E+00   0.0000000E+00   0.0000000E+00   0.0000000E+00   0.0000000E+00   0.0000000E+00   0.0000000E+00   0.0000000E+00   0.0000000E+00   0.0000000E+00   0.0000000E+00   0.0000000E+00   0.0000000E+00   0.0000000E+00   0.0000000E+00   0.0000000E+00   0.0000000E+00   0.0000000E+00   0.0000000E+00   0.0000000E+00   0.0000000E+00   0.0000000E+00   0.0000000E+00   0.0000000E+00   0.0000000E+00   0.0000000E+00   0.0000000E+00   0.0000000E+00   0.0000000E+00   0.0000000E+00   0.0000000E+00   0.0000000E+00   0.0000000E+00   0.0000000E+00   0.0000000E+00   0.0000000E+00   0.0000000E+00   0.0000000E+00   0.0000000E+00   0.0000000E+00   0.0000000E+00   0.0000000E+00   0.0000000E+00   0.0000000E+00   0.0000000E+00   0.0000000E+00   0.0000000E+00   0.0000000E+00   0.0000000E+00   0.0000000E+00   0.0000000E+00   0.0000000E+00   0.0000000E+00   0.0000000E+00   0.0000000E+00   0.0000000E+00   0.0000000E+00   0.0000000E+00   0.0000000E+00   0.0000000E+00   0.0000000E+00   0.0000000E+00   0.0000000E+00   0.0000000E+00   0.0000000E+00   0.0000000E+00   0.0000000E+00   0.0000000E+00   0.0000000E+00   0.0000000E+00   0.0000000E+00   0.0000000E+00   0.0000000E+00   0.0000000E+00   0.0000000E+00   0.0000000E+00   0.0000000E+00   0.0000000E+00   0.0000000E+00   0.0000000E+00   0.0000000E+00   0.0000000E+00   0.0000000E+00   0.0000000E+00   0.0000000E+00   0.0000000E+00   0.0000000E+00   0.0000000E+00   0.0000000E+00   0.0000000E+00   0.0000000E+00   0.0000000E+00   0.0000000E+00   0.0000000E+00   0.0000000E+00   0.0000000E+00   0.0000000E+00   0.0000000E+00   0.0000000E+00   0.0000000E+00   0.0000000E+00   0.0000000E+00   0.0000000E+00   0.0000000E+00   0.0000000E+00   0.0000000E+00   0.0000000E+00   0.0000000E+00   0.0000000E+00   0.0000000E+00   0.0000000E+00   0.0000000E+00   0.0000000E+00   0.0000000E+00   0.0000000E+00   0.0000000E+00   0.0000000E+00   0.0000000E+00   0.0000000E+00   0.0000000E+00   0.0000000E+00   0.0000000E+00   0.0000000E+00   0.0000000E+00   0.0000000E+00   0.0000000E+00   0.0000000E+00   0.0000000E+00   0.0000000E+00   0.0000000E+00   0.0000000E+00   0.0000000E+00   0.0000000E+00   0.0000000E+00   0.0000000E+00   0.0000000E+00   0.0000000E+00   0.0000000E+00   0.0000000E+00   0.0000000E+00   0.0000000E+00   0.0000000E+00   0.0000000E+00   0.0000000E+00   0.0000000E+00   0.0000000E+00   0.0000000E+00   0.0000000E+00   0.0000000E+00   0.0000000E+00   0.0000000E+00   0.0000000E+00   0.0000000E+00   0.0000000E+00   0.0000000E+00   0.0000000E+00   0.0000000E+00   0.0000000E+00   0.0000000E+00   0.0000000E+00   0.0000000E+00   0.0000000E+00   0.0000000E+00   0.0000000E+00   0.0000000E+00   0.0000000E+00   0.0000000E+00   0.0000000E+00   0.0000000E+00   0.0000000E+00   0.0000000E+00   0.0000000E+00   0.0000000E+00   0.0000000E+00   0.0000000E+00   0.0000000E+00   0.0000000E+00   0.0000000E+00   0.0000000E+00   0.0000000E+00   0.0000000E+00   0.0000000E+00   0.0000000E+00   0.0000000E+00   0.0000000E+00   0.0000000E+00   0.0000000E+00   0.0000000E+00   0.0000000E+00   0.0000000E+00   0.0000000E+00   0.0000000E+00   0.0000000E+00   0.0000000E+00   0.0000000E+00   0.0000000E+00   0.0000000E+00   0.0000000E+00   0.0000000E+00   0.0000000E+00   0.0000000E+00   0.0000000E+00   0.0000000E+00   0.0000000E+00   0.0000000E+00   0.0000000E+00   0.0000000E+00   0.0000000E+00   0.0000000E+00   0.0000000E+00   0.0000000E+00   0.0000000E+00   0.0000000E+00   0.0000000E+00   0.0000000E+00   0.0000000E+00   0.0000000E+00   0.0000000E+00   0.0000000E+00   0.0000000E+00   0.0000000E+00   0.0000000E+00   0.0000000E+00   0.0000000E+00   0.0000000E+00   0.0000000E+00   0.0000000E+00   0.0000000E+00   0.0000000E+00   0.0000000E+00   0.0000000E+00   0.0000000E+00   0.0000000E+00   0.0000000E+00   0.0000000E+00   0.0000000E+00   0.0000000E+00   0.0000000E+00   0.0000000E+00   0.0000000E+00   0.0000000E+00   0.0000000E+00   0.0000000E+00   0.0000000E+00   0.0000000E+00   0.0000000E+00   0.0000000E+00   0.0000000E+00   0.0000000E+00   0.0000000E+00   0.0000000E+00   0.0000000E+00   0.0000000E+00   0.0000000E+00   0.0000000E+00   0.0000000E+00   0.0000000E+00   0.0000000E+00   0.0000000E+00   0.0000000E+00   0.0000000E+00   0.0000000E+00   0.0000000E+00   0.0000000E+00   0.0000000E+00   0.0000000E+00   0.0000000E+00   0.0000000E+00   0.0000000E+00   0.0000000E+00   0.0000000E+00   0.0000000E+00   0.0000000E+00   0.0000000E+00   0.0000000E+00   0.0000000E+00   0.0000000E+00   0.0000000E+00   0.0000000E+00   0.0000000E+00   0.0000000E+00   0.0000000E+00   0.0000000E+00   0.0000000E+00   0.0000000E+00   0.0000000E+00   0.0000000E+00   0.0000000E+00   0.0000000E+00   0.0000000E+00   0.0000000E+00   0.0000000E+00   0.0000000E+00   0.0000000E+00   0.0000000E+00   0.0000000E+00   0.0000000E+00   0.0000000E+00   0.0000000E+00   0.0000000E+00   0.0000000E+00   0.0000000E+00   0.0000000E+00   0.0000000E+00   0.0000000E+00   0.0000000E+00   0.0000000E+00   0.0000000E+00   0.0000000E+00   0.0000000E+00   0.0000000E+00   0.0000000E+00   0.0000000E+00   0.0000000E+00   0.0000000E+00   0.0000000E+00   0.0000000E+00   0.0000000E+00   0.0000000E+00   0.0000000E+00   0.0000000E+00   0.0000000E+00   0.0000000E+00   0.0000000E+00   0.0000000E+00   0.0000000E+00   0.0000000E+00   0.0000000E+00   0.0000000E+00   0.0000000E+00   0.0000000E+00   0.0000000E+00   0.0000000E+00   0.0000000E+00   0.0000000E+00   0.0000000E+00   0.0000000E+00   0.0000000E+00   0.0000000E+00   0.0000000E+00   0.0000000E+00   0.0000000E+00   0.0000000E+00   0.0000000E+00   0.0000000E+00   0.0000000E+00   0.0000000E+00   0.0000000E+00   0.0000000E+00   0.0000000E+00   0.0000000E+00   0.0000000E+00   0.0000000E+00   0.0000000E+00   0.0000000E+00   0.0000000E+00   0.0000000E+00   0.0000000E+00   0.0000000E+00   0.0000000E+00   0.0000000E+00   0.0000000E+00   0.0000000E+00   0.0000000E+00   0.0000000E+00   0.0000000E+00   0.0000000E+00   0.0000000E+00   0.0000000E+00   0.0000000E+00   0.0000000E+00   0.0000000E+00   0.0000000E+00   0.0000000E+00   0.0000000E+00   0.0000000E+00   0.0000000E+00   0.0000000E+00   0.0000000E+00   0.0000000E+00   0.0000000E+00   0.0000000E+00   0.0000000E+00   0.0000000E+00   0.0000000E+00   0.0000000E+00   0.0000000E+00   0.0000000E+00   0.0000000E+00   0.0000000E+00   0.0000000E+00   0.0000000E+00   0.0000000E+00   0.0000000E+00   0.0000000E+00   0.0000000E+00   0.0000000E+00   0.0000000E+00   0.0000000E+00   0.0000000E+00   0.0000000E+00   0.0000000E+00   0.0000000E+00   0.0000000E+00   0.0000000E+00   0.0000000E+00   0.0000000E+00   0.0000000E+00   0.0000000E+00   0.0000000E+00   0.0000000E+00   0.0000000E+00   0.0000000E+00   0.0000000E+00   0.0000000E+00   0.0000000E+00   0.0000000E+00   0.0000000E+00   0.0000000E+00   0.0000000E+00   0.0000000E+00   0.0000000E+00   0.0000000E+00   0.0000000E+00   0.0000000E+00   0.0000000E+00   0.0000000E+00   0.0000000E+00   0.0000000E+00   0.0000000E+00   0.0000000E+00   0.0000000E+00   0.0000000E+00   0.0000000E+00   0.0000000E+00   0.0000000E+00   0.0000000E+00   0.0000000E+00   0.0000000E+00   0.0000000E+00   0.0000000E+00   0.0000000E+00   0.0000000E+00   0.0000000E+00   0.0000000E+00   0.0000000E+00   0.0000000E+00   0.0000000E+00  -2.0688810E+00   0.0000000E+00  -8.4200621E-01  -2.4120817E+00   0.0000000E+00  -7.7935219E-01  -2.6988659E+00   0.0000000E+00  -6.9788504E-01  -2.9395361E+00   0.0000000E+00  -6.1141729E-01  -3.1350842E+00   0.0000000E+00  -5.3036153E-01  -1.9601583E+00   0.0000000E+00  -1.0812898E+00  -2.5665779E+00   0.0000000E+00  -9.1673326E-01  -3.0062370E+00   0.0000000E+00  -8.6184549E-01  -3.3416138E+00   0.0000000E+00  -7.8840971E-01  -3.6147118E+00   0.0000000E+00  -7.0553172E-01  -3.8391495E+00   0.0000000E+00  -6.2366259E-01  -2.5356340E+00   0.0000000E+00  -1.0830278E+00  -3.2459536E+00   0.0000000E+00  -9.2136812E-01  -3.7320614E+00   0.0000000E+00  -8.4201288E-01  -4.0980129E+00   0.0000000E+00  -7.6930690E-01  -4.3960581E+00   0.0000000E+00  -7.0330191E-01  -4.6504879E+00   0.0000000E+00  -6.3213766E-01  -3.2316570E+00   0.0000000E+00  -1.0409851E+00  -4.0434122E+00   0.0000000E+00  -8.5466957E-01  -4.5515947E+00   0.0000000E+00  -7.8023338E-01  -4.9258518E+00   0.0000000E+00  -7.1909904E-01  -5.2402124E+00   0.0000000E+00  -6.6876364E-01  -5.5224705E+00   0.0000000E+00  -6.1069000E-01  -4.0373201E+00   0.0000000E+00  -9.9629307E-01  -4.9540029E+00   0.0000000E+00  -7.6808453E-01  -5.4808741E+00   0.0000000E+00  -6.9886541E-01  -5.8584194E+00   0.0000000E+00  -6.5155387E-01  -6.1858654E+00   0.0000000E+00  -6.1793041E-01  -6.4931736E+00   0.0000000E+00  -5.7584572E-01  -4.9714956E+00   0.0000000E+00  -9.7060299E-01  -6.0045743E+00   0.0000000E+00  -6.7376232E-01  -6.5467391E+00   0.0000000E+00  -6.0307980E-01  -6.9233003E+00   0.0000000E+00  -5.7010221E-01  -7.2614832E+00   0.0000000E+00  -5.5656588E-01  -7.5919127E+00   0.0000000E+00  -5.3341699E-01  -6.0535536E+00   0.0000000E+00  -1.0070591E+00  -7.2122812E+00   0.0000000E+00  -5.9794044E-01  -7.7548904E+00   0.0000000E+00  -5.0797653E-01  -8.1249123E+00   0.0000000E+00  -4.8323202E-01  -8.4705219E+00   0.0000000E+00  -4.8851717E-01  -8.8205814E+00   0.0000000E+00  -4.8762882E-01  -7.3133020E+00   0.0000000E+00  -1.1439972E+00  -8.5917091E+00   0.0000000E+00  -5.7011223E-01  -9.1127701E+00   0.0000000E+00  -4.3264675E-01  -9.4532700E+00   0.0000000E+00  -4.1409874E-01  -9.7984304E+00   0.0000000E+00  -4.3071079E-01  -1.0163568E+01   0.0000000E+00  -4.5190167E-01  -8.8387661E+00   0.0000000E+00  -1.3038235E+00  -1.0131315E+01   0.0000000E+00  -6.1154175E-01  -1.0580158E+01   0.0000000E+00  -4.3612289E-01  -1.0893621E+01   0.0000000E+00  -3.8613319E-01  -1.1227387E+01   0.0000000E+00  -4.1651416E-01  -1.1605782E+01   0.0000000E+00  -4.5026034E-01  -1.0849720E+01   0.0000000E+00  -1.1962280E+00  -1.1890636E+01   0.0000000E+00  -6.3337326E-01  -1.2191305E+01   0.0000000E+00  -4.7703266E-01  -1.2439636E+01   0.0000000E+00  -4.2980862E-01  -1.2746448E+01   0.0000000E+00  -4.7021556E-01  -1.3135441E+01   0.0000000E+00  -5.0696051E-01  -1.3517014E+01   0.0000000E+00  -8.0026245E-01  -1.3936569E+01   0.0000000E+00  -6.1980820E-01  -1.3975944E+01   0.0000000E+00  -5.5159187E-01  -1.4099836E+01   0.0000000E+00  -5.4780865E-01  -1.4373060E+01   0.0000000E+00  -5.9126878E-01  -1.4743209E+01   0.0000000E+00  -6.4196259E-01  -1.6318081E+01   0.0000000E+00  -1.2091026E+00  -1.6265690E+01   0.0000000E+00  -8.9686775E-01  -1.5943796E+01   0.0000000E+00  -7.6718330E-01  -1.5878680E+01   0.0000000E+00  -7.5942802E-01  -1.6068514E+01   0.0000000E+00  -8.2428908E-01  -1.6408941E+01   0.0000000E+00  -8.9138067E-01  -1.9173901E+01   0.0000000E+00  -3.7068176E+00  -1.8726454E+01   0.0000000E+00  -2.4281063E+00  -1.8101704E+01   0.0000000E+00  -1.5202255E+00  -1.7747671E+01   0.0000000E+00  -1.2925830E+00  -1.7834845E+01   0.0000000E+00  -1.2421565E+00  -1.8146635E+01   0.0000000E+00  -1.2670923E+00  -2.2682213E+01   0.0000000E+00  -5.6507587E+00  -2.1553366E+01   0.0000000E+00  -4.1345406E+00  -2.0432003E+01   0.0000000E+00  -2.7889118E+00  -1.9775749E+01   0.0000000E+00  -2.1682172E+00  -1.9671925E+01   0.0000000E+00  -1.9012260E+00  -1.9932638E+01   0.0000000E+00  -1.8141162E+00  -2.6677219E+01   0.0000000E+00  -6.8833733E+00  -2.4732548E+01   0.0000000E+00  -5.2912750E+00  -2.2931850E+01   0.0000000E+00  -3.9985869E+00  -2.1862951E+01   0.0000000E+00  -3.1673172E+00  -2.1557188E+01   0.0000000E+00  -2.7101288E+00  -2.1770109E+01   0.0000000E+00  -2.4861641E+00  -3.0827129E+01   0.0000000E+00  -7.7600098E+00  -2.7878914E+01   0.0000000E+00  -6.1539974E+00  -2.5412670E+01   0.0000000E+00  -4.9623585E+00  -2.3953003E+01   0.0000000E+00  -4.0840774E+00  -2.3464344E+01   0.0000000E+00  -3.5492830E+00  -2.3649063E+01   0.0000000E+00  -3.1909952E+00  -3.4707165E+01   0.0000000E+00  -8.5937281E+00  -3.0879379E+01   0.0000000E+00  -6.9098811E+00  -2.7812958E+01   0.0000000E+00  -5.7188292E+00  -2.6012714E+01   0.0000000E+00  -4.8398814E+00  -2.5391729E+01   0.0000000E+00  -4.2578592E+00  -2.5569052E+01   0.0000000E+00  -3.8395665E+00  -3.8299267E+01   0.0000000E+00  -9.3746729E+00  -3.3743374E+01   0.0000000E+00  -7.6057096E+00  -3.0159460E+01   0.0000000E+00  -6.3321090E+00  -2.8055830E+01   0.0000000E+00  -5.4582605E+00  -2.7311630E+01   0.0000000E+00  -4.8761425E+00  -2.7513353E+01   0.0000000E+00  -4.4023051E+00  -4.1741512E+01   0.0000000E+00  -1.0090389E+01  -3.6567249E+01   0.0000000E+00  -8.2244034E+00  -3.2493042E+01   0.0000000E+00  -6.8740993E+00  -3.0103815E+01   0.0000000E+00  -5.9578347E+00  -2.9269344E+01   0.0000000E+00  -5.3327837E+00  -2.9471823E+01   0.0000000E+00  -4.8571086E+00  -4.5197643E+01   0.0000000E+00  -1.0735246E+01  -3.9428741E+01   0.0000000E+00  -8.7330618E+00  -3.4845287E+01   0.0000000E+00  -7.3223720E+00  -3.2160686E+01   0.0000000E+00  -6.3465219E+00  -3.1220440E+01   0.0000000E+00  -5.6848412E+00  -3.1437099E+01   0.0000000E+00  -5.2088814E+00  -4.8729340E+01   0.0000000E+00  -1.1265687E+01  -4.2297150E+01   0.0000000E+00  -9.1649809E+00  -3.7206661E+01   0.0000000E+00  -7.6663098E+00  -3.4215771E+01   0.0000000E+00  -6.6283317E+00  -3.3172794E+01   0.0000000E+00  -5.9188652E+00  -3.3400669E+01   0.0000000E+00  -5.4593849E+00  -5.2308231E+01   0.0000000E+00  -1.1648362E+01  -4.5185898E+01   0.0000000E+00  -9.4641361E+00  -3.9561596E+01   0.0000000E+00  -7.8928809E+00  -3.6251213E+01   0.0000000E+00  -6.7993627E+00  -3.5106888E+01   0.0000000E+00  -6.0513043E+00  -3.5354210E+01   0.0000000E+00  -5.5989556E+00  -5.5905830E+01   0.0000000E+00  -1.1848011E+01  -4.8065899E+01   0.0000000E+00  -9.6014671E+00  -4.1889584E+01   0.0000000E+00  -7.9775791E+00  -3.8256611E+01   0.0000000E+00  -6.8324246E+00  -3.7004906E+01   0.0000000E+00  -6.0607204E+00  -3.7286636E+01   0.0000000E+00  -5.6080685E+00  -5.9505341E+01   0.0000000E+00  -1.1828016E+01  -5.0918301E+01   0.0000000E+00  -9.5386477E+00  -4.4170414E+01   0.0000000E+00  -7.8792267E+00  -4.0213634E+01   0.0000000E+00  -6.6868963E+00  -3.8859386E+01   0.0000000E+00  -5.8972144E+00  -3.9189938E+01   0.0000000E+00  -5.4549298E+00  -6.3102551E+01   0.0000000E+00  -1.1567991E+01  -5.3738213E+01   0.0000000E+00  -9.2361526E+00  -4.6397739E+01   0.0000000E+00  -7.5522985E+00  -4.2114773E+01   0.0000000E+00  -6.3020964E+00  -4.0661762E+01   0.0000000E+00  -5.5117855E+00  -4.1053692E+01   0.0000000E+00  -5.0860710E+00  -6.6743446E+01   0.0000000E+00  -1.1042586E+01  -5.6548512E+01   0.0000000E+00  -8.6565228E+00  -4.8580582E+01   0.0000000E+00  -6.9273252E+00  -4.3964054E+01   0.0000000E+00  -5.6235151E+00  -4.2413284E+01   0.0000000E+00  -4.8454390E+00  -4.2880810E+01   0.0000000E+00  -4.4415450E+00  -7.0532463E+01   0.0000000E+00  -1.0210269E+01  -5.9396439E+01   0.0000000E+00  -7.7559133E+00  -5.0744076E+01   0.0000000E+00  -5.9412866E+00  -4.5770050E+01   0.0000000E+00  -4.5917993E+00  -4.4118637E+01   0.0000000E+00  -3.8407927E+00  -4.4662067E+01   0.0000000E+00  -3.4757094E+00  -7.4589104E+01   0.0000000E+00  -9.0553770E+00  -6.2325306E+01   0.0000000E+00  -6.4817634E+00  -5.2914829E+01   0.0000000E+00  -4.5492716E+00  -4.7545105E+01   0.0000000E+00  -3.1519711E+00  -4.5775105E+01   0.0000000E+00  -2.4613729E+00  -4.6388195E+01   0.0000000E+00  -2.1381116E+00  -7.8921684E+01   0.0000000E+00  -7.5602765E+00  -6.5304512E+01   0.0000000E+00  -4.7872090E+00  -5.5059448E+01   0.0000000E+00  -2.6305845E+00  -4.9252388E+01   0.0000000E+00  -1.2275994E+00  -4.7374783E+01   0.0000000E+00  -6.1045647E-01  -4.8012310E+01   0.0000000E+00  -4.1090837E-01  -8.3383896E+01   0.0000000E+00  -5.7663398E+00  -6.8194305E+01   0.0000000E+00  -2.6461933E+00  -5.7031879E+01   0.0000000E+00  -2.4830961E-01  -5.0772755E+01   0.0000000E+00   1.1923918E+00  -4.8722557E+01   0.0000000E+00   1.6053393E+00  -4.9417435E+01   0.0000000E+00   1.6938223E+00  -8.7498947E+01   0.0000000E+00  -3.6222105E+00  -7.0742760E+01   0.0000000E+00  -8.6685926E-02  -5.8681080E+01   0.0000000E+00   2.6712470E+00  -5.2032257E+01   0.0000000E+00   4.0971317E+00  -4.9741165E+01   0.0000000E+00   4.2586346E+00  -5.0374718E+01   0.0000000E+00   4.0201344E+00  -9.1011528E+01   0.0000000E+00  -1.5630244E+00  -7.2991173E+01   0.0000000E+00   2.9356894E+00  -6.0083931E+01   0.0000000E+00   6.0356112E+00  -5.2875401E+01   0.0000000E+00   7.3301401E+00  -5.0381386E+01   0.0000000E+00   7.4514594E+00  -5.1005554E+01   0.0000000E+00   6.9107108E+00  -9.3374626E+01   0.0000000E+00   4.0375736E-01  -7.4618340E+01   0.0000000E+00   6.1063290E+00  -6.1106968E+01   0.0000000E+00   9.5535812E+00  -5.3434692E+01   0.0000000E+00   1.0968029E+01  -5.0699184E+01   0.0000000E+00   1.0884501E+01  -5.1278038E+01   0.0000000E+00   1.0195780E+01  -9.3516251E+01   0.0000000E+00   1.6727923E+00  -7.5475624E+01   0.0000000E+00   9.2864714E+00  -6.1524902E+01   0.0000000E+00   1.2890029E+01  -5.3499287E+01   0.0000000E+00   1.4787108E+01  -5.0681438E+01   0.0000000E+00   1.4829783E+01  -5.1229153E+01   0.0000000E+00   1.3951130E+01  -8.7664970E+01   0.0000000E+00   9.7670496E-01  -7.3573883E+01   0.0000000E+00   1.2249022E+01  -6.0187653E+01   0.0000000E+00   1.6656572E+01  -5.2488770E+01   0.0000000E+00   1.8433773E+01  -4.9974770E+01   0.0000000E+00   1.8378611E+01  -5.0703632E+01   0.0000000E+00   1.7642900E+01  -6.3059494E+01   0.0000000E+00   3.8941557E+00  -6.1323448E+01   0.0000000E+00   1.6167538E+01  -5.5220688E+01   0.0000000E+00   2.0255989E+01  -4.9275833E+01   0.0000000E+00   2.2335682E+01  -4.6498081E+01   0.0000000E+00   2.1357338E+01  -4.7990326E+01   0.0000000E+00   2.0209831E+01  -3.4440472E+01   0.0000000E+00   6.8855786E+00  -3.4249828E+01   0.0000000E+00   1.9373707E+01  -3.4534851E+01   0.0000000E+00   2.5661089E+01  -3.5128197E+01   0.0000000E+00   2.8036407E+01  -3.6281864E+01   0.0000000E+00   2.8077152E+01  -3.8199570E+01   0.0000000E+00   2.5426762E+01  -1.8013344E+01   0.0000000E+00   5.8173647E+00  -1.7540550E+01   0.0000000E+00   2.2279371E+01  -1.7472977E+01   0.0000000E+00   2.9444580E+01  -1.7951992E+01   0.0000000E+00   3.2110142E+01  -1.9136507E+01   0.0000000E+00   3.2813679E+01  -2.1299688E+01   0.0000000E+00   3.0390125E+01  -1.2307721E+01   0.0000000E+00   2.4001873E+00  -1.1548838E+01   0.0000000E+00   2.4968327E+01  -1.0974738E+01   0.0000000E+00   3.2763626E+01  -1.0943484E+01   0.0000000E+00   3.6840759E+01  -1.1562699E+01   0.0000000E+00   3.6670185E+01  -1.2813469E+01   0.0000000E+00   3.2980782E+01  -1.1032853E+01   0.0000000E+00   1.4045711E+00  -1.0263232E+01   0.0000000E+00   2.7384130E+01  -9.5393028E+00   0.0000000E+00   3.5465649E+01  -9.1375303E+00   0.0000000E+00   3.9860046E+01  -9.1446419E+00   0.0000000E+00   3.8973198E+01  -9.5461025E+00   0.0000000E+00   3.6973923E+01  -8.1894693E+00   0.0000000E+00   1.5195984E+00  -7.7404828E+00   0.0000000E+00   2.8498127E+01  -7.2948160E+00   0.0000000E+00   3.7388901E+01  -6.9454231E+00   0.0000000E+00   4.1035252E+01  -6.7128372E+00   0.0000000E+00   4.0372375E+01  -6.5885444E+00   0.0000000E+00   3.8410793E+01  -6.8131137E-01   0.0000000E+00   1.9016554E+00  -7.9533422E-01   0.0000000E+00   2.8745890E+01  -9.3571472E-01   0.0000000E+00   3.8616890E+01  -1.0246176E+00   0.0000000E+00   4.1395004E+01  -9.9764287E-01   0.0000000E+00   3.9489849E+01  -8.2493073E-01   0.0000000E+00   3.7450935E+01   1.1026357E+01   0.0000000E+00   2.0472693E+00   1.0297203E+01   0.0000000E+00   2.7858660E+01   9.4900675E+00   0.0000000E+00   3.8337540E+01   8.7767096E+00   0.0000000E+00   4.1049774E+01   8.2882042E+00   0.0000000E+00   3.7924767E+01   8.1126623E+00   0.0000000E+00   3.4979923E+01   2.4469597E+01   0.0000000E+00   2.2176850E+00   2.3256451E+01   0.0000000E+00   2.6296480E+01   2.1914774E+01   0.0000000E+00   3.6197048E+01   2.0628117E+01   0.0000000E+00   3.9156509E+01   1.9471785E+01   0.0000000E+00   3.6665840E+01   1.8872297E+01   0.0000000E+00   3.1723299E+01   3.7403851E+01   0.0000000E+00   2.5889382E+00   3.6015087E+01   0.0000000E+00   2.3961529E+01   3.4288456E+01   0.0000000E+00   3.3199100E+01   3.2464352E+01   0.0000000E+00   3.6045403E+01   3.0786261E+01   0.0000000E+00   3.4501167E+01   2.9985287E+01   0.0000000E+00   2.8251324E+01   4.9012943E+01   0.0000000E+00   2.3595648E+00   4.7744751E+01   0.0000000E+00   2.1184296E+01   4.5343929E+01   0.0000000E+00   2.9538578E+01   4.2862286E+01   0.0000000E+00   3.2650986E+01   4.1387341E+01   0.0000000E+00   3.1346102E+01   4.0712391E+01   0.0000000E+00   2.5065067E+01   5.9779125E+01   0.0000000E+00   8.2610178E-01   5.8600174E+01   0.0000000E+00   1.7506163E+01   5.4903553E+01   0.0000000E+00   2.5661739E+01   5.2142513E+01   0.0000000E+00   2.8907003E+01   5.0778984E+01   0.0000000E+00   2.7481615E+01   5.1010406E+01   0.0000000E+00   2.2318848E+01   7.0192581E+01   0.0000000E+00  -4.2623585E-01   6.7879250E+01   0.0000000E+00   1.3800070E+01   6.2997131E+01   0.0000000E+00   2.0957577E+01   6.0809109E+01   0.0000000E+00   2.4634077E+01   6.0364273E+01   0.0000000E+00   2.3876734E+01   6.1328449E+01   0.0000000E+00   1.9140329E+01   8.1191071E+01   0.0000000E+00  -1.6437721E+00   7.7411278E+01   0.0000000E+00   1.0537726E+01   7.1132500E+01   0.0000000E+00   1.6046879E+01   6.9451370E+01   0.0000000E+00   1.9948185E+01   6.9370277E+01   0.0000000E+00   2.0019190E+01   7.0059349E+01   0.0000000E+00   1.5377937E+01   9.3177353E+01   0.0000000E+00  -3.8285074E+00   8.7228333E+01   0.0000000E+00   7.3441811E+00   7.9673706E+01   0.0000000E+00   1.1633666E+01   7.7168747E+01   0.0000000E+00   1.5311061E+01   7.5071541E+01   0.0000000E+00   1.4456420E+01   7.4568604E+01   0.0000000E+00   1.1190796E+01   1.0589539E+02   0.0000000E+00  -6.7693653E+00   9.7627930E+01   0.0000000E+00   3.8421352E+00   8.8960205E+01   0.0000000E+00   7.6233511E+00   8.2202835E+01   0.0000000E+00   1.0360895E+01   7.8685341E+01   0.0000000E+00   8.8844738E+00   7.6844971E+01   0.0000000E+00   7.8683090E+00   1.1946906E+02   0.0000000E+00  -1.0068291E+01   1.0833707E+02   0.0000000E+00   4.8718262E-01   9.6503738E+01   0.0000000E+00   3.2258825E+00   8.6376259E+01   0.0000000E+00   5.4940224E+00   8.1015259E+01   0.0000000E+00   5.1946597E+00   7.8305557E+01   0.0000000E+00   5.3932786E+00   1.3429013E+02   0.0000000E+00  -1.4293584E+01   1.1892590E+02   0.0000000E+00  -2.8471994E+00   1.0244638E+02   0.0000000E+00   2.3988342E-01   8.9646408E+01   0.0000000E+00   2.3644078E+00   8.2536446E+01   0.0000000E+00   3.0390675E+00   7.9325340E+01   0.0000000E+00   3.4072702E+00   1.5255692E+02   0.0000000E+00  -1.2890542E+01   1.2870903E+02   0.0000000E+00  -4.9879136E+00   1.0794276E+02   0.0000000E+00  -2.0876150E+00   9.3138718E+01   0.0000000E+00   2.3330346E-01   8.4545311E+01   0.0000000E+00   1.4039160E+00   8.0566040E+01   0.0000000E+00   2.0042326E+00   1.6570589E+02   0.0000000E+00  -1.3576527E+01   1.3867268E+02   0.0000000E+00  -7.7423453E+00   1.1449306E+02   0.0000000E+00  -3.9019198E+00   9.7699875E+01   0.0000000E+00  -1.1888493E+00   8.7394035E+01   0.0000000E+00   6.6892788E-02   8.2068100E+01   0.0000000E+00   8.3673799E-01   1.4998451E+02   0.0000000E+00  -1.0234357E+01   1.2332839E+02   0.0000000E+00  -6.2279506E+00   1.0389341E+02   0.0000000E+00  -2.8737202E+00   9.1496483E+01   0.0000000E+00  -1.1544968E+00   8.4330269E+01   0.0000000E+00  -1.9599186E-01   1.6231960E+02   0.0000000E+00  -1.2318880E+01   1.3443073E+02   0.0000000E+00  -8.1373949E+00   1.1210403E+02   0.0000000E+00  -4.5361657E+00   9.7074677E+01   0.0000000E+00  -2.2574589E+00   8.7768097E+01   0.0000000E+00  -1.2012824E+00   1.4770213E+02   0.0000000E+00  -9.6432867E+00   1.2307275E+02   0.0000000E+00  -5.9944811E+00   1.0469609E+02   0.0000000E+00  -3.0754859E+00   9.2748398E+01   0.0000000E+00  -1.9667535E+00   1.6192445E+02   0.0000000E+00  -1.0841290E+01   1.3646458E+02   0.0000000E+00  -7.0121045E+00   1.1507877E+02   0.0000000E+00  -3.7763689E+00   1.0008234E+02   0.0000000E+00  -2.4130471E+00   1.5178021E+02   0.0000000E+00  -8.0374203E+00   1.2844551E+02   0.0000000E+00  -4.5255580E+00   1.1067706E+02   0.0000000E+00  -2.5097530E+00   1.4424095E+02   0.0000000E+00  -5.5843449E+00   1.2431083E+02   0.0000000E+00  -2.8218837E+00   1.5928111E+02   0.0000000E+00  -7.2209182E+00   1.4088454E+02   0.0000000E+00  -4.0737500E+00  -3.2882900E+00   0.0000000E+00  -4.5610368E-01  -3.4021034E+00   0.0000000E+00  -3.8388896E-01  -3.4803200E+00   0.0000000E+00  -3.1838661E-01  -3.5298424E+00   0.0000000E+00  -2.6068079E-01  -3.5604229E+00   0.0000000E+00  -2.0585465E-01  -3.5774784E+00   0.0000000E+00  -1.5700346E-01  -3.5859127E+00   0.0000000E+00  -1.1380003E-01  -3.5898304E+00   0.0000000E+00  -7.3263600E-02  -3.5912132E+00   0.0000000E+00  -3.6483325E-02  -4.0190029E+00   0.0000000E+00  -5.4056650E-01  -4.1519260E+00   0.0000000E+00  -4.6330339E-01  -4.2428017E+00   0.0000000E+00  -3.9161909E-01  -4.3021908E+00   0.0000000E+00  -3.2298163E-01  -4.3384247E+00   0.0000000E+00  -2.5962070E-01  -4.3590641E+00   0.0000000E+00  -2.0194733E-01  -4.3702393E+00   0.0000000E+00  -1.4710683E-01  -4.3756008E+00   0.0000000E+00  -9.5620237E-02  -4.3776455E+00   0.0000000E+00  -4.7815334E-02  -4.8575373E+00   0.0000000E+00  -5.6153816E-01  -5.0131350E+00   0.0000000E+00  -4.9016008E-01  -5.1204271E+00   0.0000000E+00  -4.2229635E-01  -5.1916676E+00   0.0000000E+00  -3.5409963E-01  -5.2364550E+00   0.0000000E+00  -2.8908452E-01  -5.2630205E+00   0.0000000E+00  -2.2738332E-01  -5.2782021E+00   0.0000000E+00  -1.6763896E-01  -5.2859907E+00   0.0000000E+00  -1.1056313E-01  -5.2895947E+00   0.0000000E+00  -5.5066731E-02  -5.7576475E+00   0.0000000E+00  -5.5310655E-01  -5.9369812E+00   0.0000000E+00  -4.9180526E-01  -6.0627804E+00   0.0000000E+00  -4.2850807E-01  -6.1471176E+00   0.0000000E+00  -3.6587158E-01  -6.2015944E+00   0.0000000E+00  -3.0358091E-01  -6.2358742E+00   0.0000000E+00  -2.4056317E-01  -6.2563076E+00   0.0000000E+00  -1.7920646E-01  -6.2675600E+00   0.0000000E+00  -1.1930981E-01  -6.2731123E+00   0.0000000E+00  -5.9454478E-02  -6.7567239E+00   0.0000000E+00  -5.2986711E-01  -6.9596305E+00   0.0000000E+00  -4.7927314E-01  -7.1037641E+00   0.0000000E+00  -4.2294270E-01  -7.2016859E+00   0.0000000E+00  -3.6609107E-01  -7.2669845E+00   0.0000000E+00  -3.0698675E-01  -7.3093128E+00   0.0000000E+00  -2.4644136E-01  -7.3355780E+00   0.0000000E+00  -1.8594247E-01  -7.3510127E+00   0.0000000E+00  -1.2411596E-01  -7.3588581E+00   0.0000000E+00  -6.2202029E-02  -7.8823671E+00   0.0000000E+00  -5.0159168E-01  -8.1086617E+00   0.0000000E+00  -4.5986044E-01  -8.2701769E+00   0.0000000E+00  -4.1278893E-01  -8.3817301E+00   0.0000000E+00  -3.6163628E-01  -8.4577055E+00   0.0000000E+00  -3.0701858E-01  -8.5083055E+00   0.0000000E+00  -2.5004026E-01  -8.5409498E+00   0.0000000E+00  -1.8977074E-01  -8.5606842E+00   0.0000000E+00  -1.2758605E-01  -8.5710649E+00   0.0000000E+00  -6.4360850E-02  -9.1355562E+00   0.0000000E+00  -4.7281897E-01  -9.3835678E+00   0.0000000E+00  -4.4368201E-01  -9.5619268E+00   0.0000000E+00  -4.0553910E-01  -9.6866474E+00   0.0000000E+00  -3.6065847E-01  -9.7731342E+00   0.0000000E+00  -3.1029993E-01  -9.8322649E+00   0.0000000E+00  -2.5528660E-01  -9.8715010E+00   0.0000000E+00  -1.9575185E-01  -9.8958588E+00   0.0000000E+00  -1.3268185E-01  -9.9090099E+00   0.0000000E+00  -6.6999905E-02  -1.0500635E+01   0.0000000E+00  -4.5601898E-01  -1.0769216E+01   0.0000000E+00  -4.4122490E-01  -1.0963851E+01   0.0000000E+00  -4.1273218E-01  -1.1101583E+01   0.0000000E+00  -3.7363300E-01  -1.1198866E+01   0.0000000E+00  -3.2595107E-01  -1.1266946E+01   0.0000000E+00  -2.7053231E-01  -1.1313235E+01   0.0000000E+00  -2.0898153E-01  -1.1342736E+01   0.0000000E+00  -1.4255528E-01  -1.1359009E+01   0.0000000E+00  -7.2293565E-02  -1.1962152E+01   0.0000000E+00  -4.7218490E-01  -1.2250414E+01   0.0000000E+00  -4.7056445E-01  -1.2461546E+01   0.0000000E+00  -4.5016253E-01  -1.2613162E+01   0.0000000E+00  -4.1372213E-01  -1.2722241E+01   0.0000000E+00  -3.6470568E-01  -1.2800337E+01   0.0000000E+00  -3.0476028E-01  -1.2854610E+01   0.0000000E+00  -2.3641756E-01  -1.2889950E+01   0.0000000E+00  -1.6152769E-01  -1.2909765E+01   0.0000000E+00  -8.2009092E-02  -1.3508302E+01   0.0000000E+00  -5.4446250E-01  -1.3815447E+01   0.0000000E+00  -5.5269337E-01  -1.4044339E+01   0.0000000E+00  -5.3524858E-01  -1.4212001E+01   0.0000000E+00  -4.9503538E-01  -1.4335182E+01   0.0000000E+00  -4.3686137E-01  -1.4425070E+01   0.0000000E+00  -3.6495188E-01  -1.4488698E+01   0.0000000E+00  -2.8287777E-01  -1.4530677E+01   0.0000000E+00  -1.9354896E-01  -1.4554469E+01   0.0000000E+00  -9.8405711E-02  -1.5124394E+01   0.0000000E+00  -6.9097656E-01  -1.5452264E+01   0.0000000E+00  -7.0621622E-01  -1.5702692E+01   0.0000000E+00  -6.8407971E-01  -1.5890714E+01   0.0000000E+00  -6.2973714E-01  -1.6031622E+01   0.0000000E+00  -5.5285954E-01  -1.6135981E+01   0.0000000E+00  -4.5963949E-01  -1.6210873E+01   0.0000000E+00  -3.5441738E-01  -1.6261007E+01   0.0000000E+00  -2.4104773E-01  -1.6289585E+01   0.0000000E+00  -1.2197859E-01  -1.6807283E+01   0.0000000E+00  -9.2514348E-01  -1.7153929E+01   0.0000000E+00  -9.4731361E-01  -1.7433590E+01   0.0000000E+00  -9.0172946E-01  -1.7647076E+01   0.0000000E+00  -8.2112575E-01  -1.7810265E+01   0.0000000E+00  -7.1251780E-01  -1.7932455E+01   0.0000000E+00  -5.8650327E-01  -1.8020788E+01   0.0000000E+00  -4.4878229E-01  -1.8080250E+01   0.0000000E+00  -3.0351946E-01  -1.8114298E+01   0.0000000E+00  -1.5278731E-01  -1.8543913E+01   0.0000000E+00  -1.3018885E+00  -1.8925735E+01   0.0000000E+00  -1.2637397E+00  -1.9237085E+01   0.0000000E+00  -1.1834680E+00  -1.9480436E+01   0.0000000E+00  -1.0723505E+00  -1.9670544E+01   0.0000000E+00  -9.2206877E-01  -1.9815647E+01   0.0000000E+00  -7.5277859E-01  -1.9920383E+01   0.0000000E+00  -5.7615495E-01  -1.9991264E+01   0.0000000E+00  -3.8978013E-01  -2.0032330E+01   0.0000000E+00  -1.9596119E-01  -2.0347006E+01   0.0000000E+00  -1.7577673E+00  -2.0764336E+01   0.0000000E+00  -1.6625822E+00  -2.1113440E+01   0.0000000E+00  -1.5302564E+00  -2.1396559E+01   0.0000000E+00  -1.3568164E+00  -2.1619110E+01   0.0000000E+00  -1.1621460E+00  -2.1787607E+01   0.0000000E+00  -9.5443982E-01  -2.1909986E+01   0.0000000E+00  -7.3231637E-01  -2.1995064E+01   0.0000000E+00  -4.9244472E-01  -2.2044436E+01   0.0000000E+00  -2.4841119E-01  -2.2209906E+01   0.0000000E+00  -2.3127677E+00  -2.2665527E+01   0.0000000E+00  -2.1490390E+00  -2.3061193E+01   0.0000000E+00  -1.9440340E+00  -2.3389488E+01   0.0000000E+00  -1.6977212E+00  -2.3648638E+01   0.0000000E+00  -1.4407994E+00  -2.3848568E+01   0.0000000E+00  -1.1701890E+00  -2.3995226E+01   0.0000000E+00  -8.8646042E-01  -2.4095907E+01   0.0000000E+00  -5.9346575E-01  -2.4151619E+01   0.0000000E+00  -3.0412167E-01  -2.4127300E+01   0.0000000E+00  -2.9071240E+00  -2.4633204E+01   0.0000000E+00  -2.6770160E+00  -2.5080351E+01   0.0000000E+00  -2.3973160E+00  -2.5455547E+01   0.0000000E+00  -2.0882308E+00  -2.5757339E+01   0.0000000E+00  -1.7569302E+00  -2.5995842E+01   0.0000000E+00  -1.4082546E+00  -2.6167658E+01   0.0000000E+00  -1.0622973E+00  -2.6286806E+01   0.0000000E+00  -7.0896870E-01  -2.6357544E+01   0.0000000E+00  -3.5716486E-01  -2.6091574E+01   0.0000000E+00  -3.4942145E+00  -2.6657106E+01   0.0000000E+00  -3.1906784E+00  -2.7164183E+01   0.0000000E+00  -2.8490245E+00  -2.7594812E+01   0.0000000E+00  -2.4747422E+00  -2.7946064E+01   0.0000000E+00  -2.0826464E+00  -2.8221508E+01   0.0000000E+00  -1.6772988E+00  -2.8426516E+01   0.0000000E+00  -1.2649776E+00  -2.8564825E+01   0.0000000E+00  -8.5268611E-01  -2.8648312E+01   0.0000000E+00  -4.2457625E-01  -2.8091219E+01   0.0000000E+00  -4.0312233E+00  -2.8729160E+01   0.0000000E+00  -3.6714494E+00  -2.9306601E+01   0.0000000E+00  -3.2787521E+00  -2.9800713E+01   0.0000000E+00  -2.8453438E+00  -3.0206970E+01   0.0000000E+00  -2.3991513E+00  -3.0526096E+01   0.0000000E+00  -1.9367325E+00  -3.0764986E+01   0.0000000E+00  -1.4641725E+00  -3.0930290E+01   0.0000000E+00  -9.8525125E-01  -3.1023943E+01   0.0000000E+00  -4.9681962E-01  -3.0119484E+01   0.0000000E+00  -4.4819031E+00  -3.0836607E+01   0.0000000E+00  -4.0928755E+00  -3.1496733E+01   0.0000000E+00  -3.6509790E+00  -3.2064098E+01   0.0000000E+00  -3.1830518E+00  -3.2531876E+01   0.0000000E+00  -2.6896601E+00  -3.2902023E+01   0.0000000E+00  -2.1779602E+00  -3.3180408E+01   0.0000000E+00  -1.6509175E+00  -3.3372803E+01   0.0000000E+00  -1.1049504E+00  -3.3485775E+01   0.0000000E+00  -5.5439448E-01  -3.2157383E+01   0.0000000E+00  -4.8470864E+00  -3.2974754E+01   0.0000000E+00  -4.4302783E+00  -3.3726139E+01   0.0000000E+00  -3.9690621E+00  -3.4377110E+01   0.0000000E+00  -3.4686663E+00  -3.4914948E+01   0.0000000E+00  -2.9428694E+00  -3.5343197E+01   0.0000000E+00  -2.3925347E+00  -3.5665901E+01   0.0000000E+00  -1.8131801E+00  -3.5890785E+01   0.0000000E+00  -1.2172587E+00  -3.6022957E+01   0.0000000E+00  -6.0855740E-01  -3.4204845E+01   0.0000000E+00  -5.1015992E+00  -3.5130360E+01   0.0000000E+00  -4.6714554E+00  -3.5988400E+01   0.0000000E+00  -4.2045531E+00  -3.6729691E+01   0.0000000E+00  -3.6934865E+00  -3.7348579E+01   0.0000000E+00  -3.1439462E+00  -3.7841877E+01   0.0000000E+00  -2.5640953E+00  -3.8215614E+01   0.0000000E+00  -1.9504739E+00  -3.8476421E+01   0.0000000E+00  -1.3120825E+00  -3.8630924E+01   0.0000000E+00  -6.5900481E-01  -3.6258400E+01   0.0000000E+00  -5.2328806E+00  -3.7301525E+01   0.0000000E+00  -4.8037753E+00  -3.8272644E+01   0.0000000E+00  -4.3389893E+00  -3.9115154E+01   0.0000000E+00  -3.8307822E+00  -3.9822079E+01   0.0000000E+00  -3.2848282E+00  -4.0389145E+01   0.0000000E+00  -2.6839831E+00  -4.0819740E+01   0.0000000E+00  -2.0514569E+00  -4.1121033E+01   0.0000000E+00  -1.3844856E+00  -4.1299320E+01   0.0000000E+00  -6.9748050E-01  -3.8301842E+01   0.0000000E+00  -5.2294197E+00  -3.9473770E+01   0.0000000E+00  -4.8079376E+00  -4.0567120E+01   0.0000000E+00  -4.3552608E+00  -4.1520107E+01   0.0000000E+00  -3.8637121E+00  -4.2323540E+01   0.0000000E+00  -3.3322921E+00  -4.2970737E+01   0.0000000E+00  -2.7411692E+00  -4.3465405E+01   0.0000000E+00  -2.1056020E+00  -4.3811909E+01   0.0000000E+00  -1.4282954E+00  -4.4016594E+01   0.0000000E+00  -7.2071141E-01  -4.0324520E+01   0.0000000E+00  -5.0626936E+00  -4.1636120E+01   0.0000000E+00  -4.6547499E+00  -4.2859356E+01   0.0000000E+00  -4.2289023E+00  -4.3929901E+01   0.0000000E+00  -3.7722211E+00  -4.4837124E+01   0.0000000E+00  -3.2762477E+00  -4.5571438E+01   0.0000000E+00  -2.7171450E+00  -4.6135818E+01   0.0000000E+00  -2.1030128E+00  -4.6533127E+01   0.0000000E+00  -1.4360863E+00  -4.6768097E+01   0.0000000E+00  -7.2909743E-01  -4.2320156E+01   0.0000000E+00  -4.7008882E+00  -4.3777969E+01   0.0000000E+00  -4.3134356E+00  -4.5135002E+01   0.0000000E+00  -3.9336286E+00  -4.6327038E+01   0.0000000E+00  -3.5352867E+00  -4.7343712E+01   0.0000000E+00  -3.1011777E+00  -4.8171593E+01   0.0000000E+00  -2.5998721E+00  -4.8811020E+01   0.0000000E+00  -2.0333824E+00  -4.9265034E+01   0.0000000E+00  -1.3999242E+00  -4.9535004E+01   0.0000000E+00  -7.1500432E-01  -4.4283680E+01   0.0000000E+00  -4.0879617E+00  -4.5890396E+01   0.0000000E+00  -3.7607789E+00  -4.7379490E+01   0.0000000E+00  -3.4480724E+00  -4.8694847E+01   0.0000000E+00  -3.1348574E+00  -4.9823299E+01   0.0000000E+00  -2.7936618E+00  -5.0748024E+01   0.0000000E+00  -2.3809571E+00  -5.1470291E+01   0.0000000E+00  -1.8891549E+00  -5.1986885E+01   0.0000000E+00  -1.3145571E+00  -5.2297363E+01   0.0000000E+00  -6.7441374E-01  -4.6207100E+01   0.0000000E+00  -3.1996090E+00  -4.7960171E+01   0.0000000E+00  -2.9720519E+00  -4.9578354E+01   0.0000000E+00  -2.7540715E+00  -5.1014416E+01   0.0000000E+00  -2.5560451E+00  -5.2253529E+01   0.0000000E+00  -2.3365042E+00  -5.3283390E+01   0.0000000E+00  -2.0455294E+00  -5.4093796E+01   0.0000000E+00  -1.6593360E+00  -5.4679234E+01   0.0000000E+00  -1.1738784E+00  -5.5033836E+01   0.0000000E+00  -6.0799700E-01  -4.8069790E+01   0.0000000E+00  -1.9887285E+00  -4.9963383E+01   0.0000000E+00  -1.9108956E+00  -5.1710945E+01   0.0000000E+00  -1.8356346E+00  -5.3265331E+01   0.0000000E+00  -1.7888566E+00  -5.4615185E+01   0.0000000E+00  -1.7102904E+00  -5.5753685E+01   0.0000000E+00  -1.5784572E+00  -5.6658482E+01   0.0000000E+00  -1.3262506E+00  -5.7318939E+01   0.0000000E+00  -9.6165961E-01  -5.7721493E+01   0.0000000E+00  -5.0599325E-01  -4.9822800E+01   0.0000000E+00  -4.1824311E-01  -5.1843098E+01   0.0000000E+00  -5.0761068E-01  -5.3728889E+01   0.0000000E+00  -6.6908181E-01  -5.5406406E+01   0.0000000E+00  -8.0899489E-01  -5.6870445E+01   0.0000000E+00  -9.1302466E-01  -5.8119553E+01   0.0000000E+00  -9.5395464E-01  -5.9121288E+01   0.0000000E+00  -8.6316162E-01  -5.9859604E+01   0.0000000E+00  -6.5164369E-01  -6.0314949E+01   0.0000000E+00  -3.5255107E-01  -5.1340553E+01   0.0000000E+00   1.4411025E+00  -5.3461231E+01   0.0000000E+00   1.0658784E+00  -5.5483261E+01   0.0000000E+00   6.7637324E-01  -5.7299671E+01   0.0000000E+00   3.6219227E-01  -5.8897083E+01   0.0000000E+00   2.1373810E-02  -6.0283081E+01   0.0000000E+00  -1.6121949E-01  -6.1388729E+01   0.0000000E+00  -2.5986347E-01  -6.2216778E+01   0.0000000E+00  -2.5661290E-01  -6.2734028E+01   0.0000000E+00  -1.4798626E-01  -5.2388748E+01   0.0000000E+00   3.5800591E+00  -5.4767635E+01   0.0000000E+00   3.0804830E+00  -5.6932919E+01   0.0000000E+00   2.4415722E+00  -5.8849834E+01   0.0000000E+00   1.8167958E+00  -6.0605556E+01   0.0000000E+00   1.2709184E+00  -6.2082699E+01   0.0000000E+00   8.2278091E-01  -6.3307365E+01   0.0000000E+00   4.6568185E-01  -6.4241623E+01   0.0000000E+00   2.2844535E-01  -6.4830452E+01   0.0000000E+00   8.7242119E-02  -5.3097973E+01   0.0000000E+00   6.1599617E+00  -5.5596489E+01   0.0000000E+00   5.4529147E+00  -5.7891155E+01   0.0000000E+00   4.5580039E+00  -5.9954155E+01   0.0000000E+00   3.6799207E+00  -6.1794983E+01   0.0000000E+00   2.9161451E+00  -6.3360332E+01   0.0000000E+00   2.1673493E+00  -6.4668381E+01   0.0000000E+00   1.4660933E+00  -6.5685959E+01   0.0000000E+00   9.3922138E-01  -6.6339462E+01   0.0000000E+00   4.3912938E-01  -5.3358784E+01   0.0000000E+00   9.1876831E+00  -5.5967136E+01   0.0000000E+00   8.1697245E+00  -5.8371803E+01   0.0000000E+00   7.0001235E+00  -6.0491882E+01   0.0000000E+00   5.9372149E+00  -6.2402966E+01   0.0000000E+00   4.9137888E+00  -6.4034813E+01   0.0000000E+00   3.8385470E+00  -6.5445755E+01   0.0000000E+00   2.9072900E+00  -6.6512093E+01   0.0000000E+00   1.9834975E+00  -6.7126762E+01   0.0000000E+00   1.0651901E+00  -5.3388741E+01   0.0000000E+00   1.2688581E+01  -5.5964375E+01   0.0000000E+00   1.1357678E+01  -5.8397064E+01   0.0000000E+00   9.9314117E+00  -6.0610268E+01   0.0000000E+00   8.4897308E+00  -6.2462494E+01   0.0000000E+00   7.0338864E+00  -6.4133560E+01   0.0000000E+00   5.6255360E+00  -6.5518982E+01   0.0000000E+00   4.2715569E+00  -6.6563438E+01   0.0000000E+00   2.9118097E+00  -6.7316254E+01   0.0000000E+00   1.4755130E+00  -5.2997314E+01   0.0000000E+00   1.6525320E+01  -5.5705288E+01   0.0000000E+00   1.5267272E+01  -5.8232159E+01   0.0000000E+00   1.3800487E+01  -6.0548168E+01   0.0000000E+00   1.2245943E+01  -6.2426891E+01   0.0000000E+00   1.0545727E+01  -6.4104591E+01   0.0000000E+00   8.8836746E+00  -6.5462448E+01   0.0000000E+00   7.1305580E+00  -6.6384125E+01   0.0000000E+00   5.0171089E+00  -6.6953430E+01   0.0000000E+00   2.6182528E+00  -5.1216454E+01   0.0000000E+00   1.9629532E+01  -5.4571682E+01   0.0000000E+00   1.8948509E+01  -5.7565800E+01   0.0000000E+00   1.7873413E+01  -6.0047565E+01   0.0000000E+00   1.6374523E+01  -6.2187710E+01   0.0000000E+00   1.4620628E+01  -6.3922325E+01   0.0000000E+00   1.2773534E+01  -6.5209358E+01   0.0000000E+00   1.0484189E+01  -6.6127205E+01   0.0000000E+00   7.6401725E+00  -6.6547821E+01   0.0000000E+00   3.9773850E+00  -4.1812771E+01   0.0000000E+00   2.0944422E+01  -4.6232826E+01   0.0000000E+00   1.8814508E+01  -5.0490814E+01   0.0000000E+00   1.7995050E+01  -5.4498535E+01   0.0000000E+00   1.6637854E+01  -5.8130177E+01   0.0000000E+00   1.4941087E+01  -6.1287666E+01   0.0000000E+00   1.2983880E+01  -6.3884251E+01   0.0000000E+00   1.0630525E+01  -6.5904991E+01   0.0000000E+00   7.6470714E+00  -6.7191849E+01   0.0000000E+00   4.0229034E+00  -2.4271063E+01   0.0000000E+00   2.5574488E+01  -2.7568945E+01   0.0000000E+00   2.4538408E+01  -3.1032282E+01   0.0000000E+00   2.3298456E+01  -3.4455647E+01   0.0000000E+00   2.1343550E+01  -3.7667633E+01   0.0000000E+00   1.8996593E+01  -4.0543110E+01   0.0000000E+00   1.6362938E+01  -4.2968899E+01   0.0000000E+00   1.3285793E+01  -4.4826538E+01   0.0000000E+00   9.5231371E+00  -4.6000534E+01   0.0000000E+00   5.0093832E+00  -1.4598600E+01   0.0000000E+00   3.1369991E+01  -1.6764172E+01   0.0000000E+00   3.0206715E+01  -1.9146479E+01   0.0000000E+00   2.8384304E+01  -2.1594851E+01   0.0000000E+00   2.5817356E+01  -2.3978237E+01   0.0000000E+00   2.2866825E+01  -2.6180897E+01   0.0000000E+00   1.9624908E+01  -2.8085911E+01   0.0000000E+00   1.5882310E+01  -2.9570019E+01   0.0000000E+00   1.1351583E+01  -3.0517412E+01   0.0000000E+00   5.9593434E+00  -1.0270010E+01   0.0000000E+00   3.5335960E+01  -1.1247953E+01   0.0000000E+00   3.3833202E+01  -1.2425560E+01   0.0000000E+00   3.1684692E+01  -1.3735986E+01   0.0000000E+00   2.8809000E+01  -1.5100137E+01   0.0000000E+00   2.5556696E+01  -1.6430975E+01   0.0000000E+00   2.1979061E+01  -1.7628716E+01   0.0000000E+00   1.7813593E+01  -1.8587990E+01   0.0000000E+00   1.2739732E+01  -1.9211021E+01   0.0000000E+00   6.6887994E+00  -6.5482764E+00   0.0000000E+00   3.6678947E+01  -6.5945706E+00   0.0000000E+00   3.5063934E+01  -6.7518568E+00   0.0000000E+00   3.2856361E+01  -7.0264611E+00   0.0000000E+00   2.9978170E+01  -7.4022279E+00   0.0000000E+00   2.6735645E+01  -7.8395996E+00   0.0000000E+00   2.3121351E+01  -8.2805738E+00   0.0000000E+00   1.8824783E+01  -8.6605616E+00   0.0000000E+00   1.3503996E+01  -8.9180708E+00   0.0000000E+00   7.1017404E+00  -5.0151861E-01   0.0000000E+00   3.5726250E+01  -6.0107823E-02   0.0000000E+00   3.4143135E+01   4.3332419E-01   0.0000000E+00   3.2059166E+01   9.1240746E-01   0.0000000E+00   2.9395845E+01   1.3280858E+00   0.0000000E+00   2.6397875E+01   1.6582148E+00   0.0000000E+00   2.2995266E+01   1.9002287E+00   0.0000000E+00   1.8839540E+01   2.0609739E+00   0.0000000E+00   1.3576411E+01   2.1510098E+00   0.0000000E+00   7.1590509E+00   8.2881136E+00   0.0000000E+00   3.3214714E+01   8.7949677E+00   0.0000000E+00   3.1698915E+01   9.5571070E+00   0.0000000E+00   2.9807232E+01   1.0465566E+01   0.0000000E+00   2.7449497E+01   1.1412757E+01   0.0000000E+00   2.4810703E+01   1.2311475E+01   0.0000000E+00   2.1770895E+01   1.3090200E+01   0.0000000E+00   1.7957432E+01   1.3690970E+01   0.0000000E+00   1.3009337E+01   1.4069827E+01   0.0000000E+00   6.8826938E+00   1.8676413E+01   0.0000000E+00   2.9904533E+01   1.8996864E+01   0.0000000E+00   2.8448084E+01   1.9767572E+01   0.0000000E+00   2.6732794E+01   2.0856009E+01   0.0000000E+00   2.4663074E+01   2.2110054E+01   0.0000000E+00   2.2386021E+01   2.3382561E+01   0.0000000E+00   1.9757561E+01   2.4538534E+01   0.0000000E+00   1.6397879E+01   2.5459425E+01   0.0000000E+00   1.1942912E+01   2.6052240E+01   0.0000000E+00   6.3408432E+00   2.9448387E+01   0.0000000E+00   2.6385855E+01   2.9543787E+01   0.0000000E+00   2.4994617E+01   3.0236549E+01   0.0000000E+00   2.3408546E+01   3.1383316E+01   0.0000000E+00   2.1551584E+01   3.2802105E+01   0.0000000E+00   1.9567154E+01   3.4302452E+01   0.0000000E+00   1.7319132E+01   3.5701012E+01   0.0000000E+00   1.4439448E+01   3.6834259E+01   0.0000000E+00   1.0565844E+01   3.7571480E+01   0.0000000E+00   5.6286421E+00   4.0118431E+01   0.0000000E+00   2.3019476E+01   4.0119183E+01   0.0000000E+00   2.1736296E+01   4.0788532E+01   0.0000000E+00   2.0246412E+01   4.1977764E+01   0.0000000E+00   1.8522614E+01   4.3493256E+01   0.0000000E+00   1.6737581E+01   4.5124638E+01   0.0000000E+00   1.4793820E+01   4.6664211E+01   0.0000000E+00   1.2355442E+01   4.7923229E+01   0.0000000E+00   9.0696602E+00   4.8747551E+01   0.0000000E+00   4.8448434E+00   5.0782898E+01   0.0000000E+00   1.9980450E+01   5.0889805E+01   0.0000000E+00   1.8875420E+01   5.1645580E+01   0.0000000E+00   1.7483644E+01   5.2901306E+01   0.0000000E+00   1.5842052E+01   5.4472099E+01   0.0000000E+00   1.4173935E+01   5.6156193E+01   0.0000000E+00   1.2443909E+01   5.7748516E+01   0.0000000E+00   1.0367847E+01   5.9056950E+01   0.0000000E+00   7.6148834E+00   5.9916954E+01   0.0000000E+00   4.0733700E+00   6.1457947E+01   0.0000000E+00   1.7329359E+01   6.1834995E+01   0.0000000E+00   1.6466639E+01   6.2726944E+01   0.0000000E+00   1.5194972E+01   6.3978115E+01   0.0000000E+00   1.3606619E+01   6.5395660E+01   0.0000000E+00   1.1981252E+01   6.6779816E+01   0.0000000E+00   1.0356965E+01   6.8053802E+01   0.0000000E+00   8.5365448E+00   6.8921509E+01   0.0000000E+00   6.2359066E+00   6.9500923E+01   0.0000000E+00   3.3257542E+00   6.9993935E+01   0.0000000E+00   1.4532676E+01   7.0337379E+01   0.0000000E+00   1.3906162E+01   7.0901352E+01   0.0000000E+00   1.2751892E+01   7.1508415E+01   0.0000000E+00   1.1209080E+01   7.2210365E+01   0.0000000E+00   9.6224623E+00   7.2722992E+01   0.0000000E+00   8.1456051E+00   7.3212502E+01   0.0000000E+00   6.6068296E+00   7.3518181E+01   0.0000000E+00   4.8093758E+00   7.3686928E+01   0.0000000E+00   2.5621331E+00   7.4204605E+01   0.0000000E+00   1.1118948E+01   7.4338303E+01   0.0000000E+00   1.0822021E+01   7.4581268E+01   0.0000000E+00   9.9414959E+00   7.4742325E+01   0.0000000E+00   8.6377850E+00   7.4994415E+01   0.0000000E+00   7.2705898E+00   7.5104881E+01   0.0000000E+00   6.0595632E+00   7.5267258E+01   0.0000000E+00   4.8713379E+00   7.5400345E+01   0.0000000E+00   3.5384023E+00   7.5494637E+01   0.0000000E+00   1.9105814E+00   7.6213715E+01   0.0000000E+00   8.1558104E+00   7.6182793E+01   0.0000000E+00   8.1757040E+00   7.6315697E+01   0.0000000E+00   7.6194582E+00   7.6400017E+01   0.0000000E+00   6.6831708E+00   7.6377029E+01   0.0000000E+00   5.5874949E+00   7.6493042E+01   0.0000000E+00   4.5648570E+00   7.6551086E+01   0.0000000E+00   3.6533864E+00   7.6655525E+01   0.0000000E+00   2.6003609E+00   7.6684952E+01   0.0000000E+00   1.3843499E+00   7.7244644E+01   0.0000000E+00   5.5845532E+00   7.7158203E+01   0.0000000E+00   5.7237763E+00   7.7153664E+01   0.0000000E+00   5.5263729E+00   7.7164726E+01   0.0000000E+00   4.9386306E+00   7.7249290E+01   0.0000000E+00   4.2448311E+00   7.7168152E+01   0.0000000E+00   3.7186685E+00   7.7120522E+01   0.0000000E+00   3.0150154E+00   7.7120422E+01   0.0000000E+00   2.1481745E+00   7.7176064E+01   0.0000000E+00   1.1468127E+00   7.8237495E+01   0.0000000E+00   3.8736389E+00   7.7959641E+01   0.0000000E+00   4.1007590E+00   7.7937462E+01   0.0000000E+00   4.1420689E+00   7.7826172E+01   0.0000000E+00   3.8568199E+00   7.7705933E+01   0.0000000E+00   3.4315197E+00   7.7627533E+01   0.0000000E+00   2.8229885E+00   7.7600540E+01   0.0000000E+00   2.2665637E+00   7.7697105E+01   0.0000000E+00   1.7474470E+00   7.7833862E+01   0.0000000E+00   9.8968667E-01   7.8937042E+01   0.0000000E+00   2.5529468E+00   7.8374107E+01   0.0000000E+00   2.9542024E+00   7.8263626E+01   0.0000000E+00   3.0413380E+00   7.8132553E+01   0.0000000E+00   3.0941975E+00   7.8075294E+01   0.0000000E+00   2.7983809E+00   7.8069489E+01   0.0000000E+00   2.3828695E+00   7.8088470E+01   0.0000000E+00   1.8402505E+00   7.8151909E+01   0.0000000E+00   1.2391678E+00   7.8205109E+01   0.0000000E+00   5.8096677E-01   7.9570885E+01   0.0000000E+00   1.3896998E+00   7.8654099E+01   0.0000000E+00   1.8277309E+00   7.8365425E+01   0.0000000E+00   2.0710242E+00   7.8268356E+01   0.0000000E+00   2.1429636E+00   7.8229332E+01   0.0000000E+00   2.1009598E+00   7.8211441E+01   0.0000000E+00   1.8553566E+00   7.8221550E+01   0.0000000E+00   1.4973726E+00   7.8276726E+01   0.0000000E+00   1.0420765E+00   7.8348015E+01   0.0000000E+00   5.2314591E-01   8.0642929E+01   0.0000000E+00   4.5309061E-01   7.8907257E+01   0.0000000E+00   9.4153136E-01   7.8327896E+01   0.0000000E+00   1.1159317E+00   7.8161652E+01   0.0000000E+00   1.2722673E+00   7.8052963E+01   0.0000000E+00   1.3229994E+00   7.8015465E+01   0.0000000E+00   1.2634121E+00   7.7998383E+01   0.0000000E+00   1.0860721E+00   7.8066818E+01   0.0000000E+00   7.5164163E-01   7.8131073E+01   0.0000000E+00   3.2057077E-01   8.2229042E+01   0.0000000E+00  -3.5953417E-01   7.9421875E+01   0.0000000E+00   1.1919107E-01   7.8281174E+01   0.0000000E+00   4.0501422E-01   7.7798668E+01   0.0000000E+00   4.9928999E-01   7.7652748E+01   0.0000000E+00   6.3850623E-01   7.7519051E+01   0.0000000E+00   6.9976884E-01   7.7494881E+01   0.0000000E+00   6.8171823E-01   7.7578194E+01   0.0000000E+00   3.2322603E-01   7.7562180E+01   0.0000000E+00   1.6169195E-01   8.5059578E+01   0.0000000E+00  -1.1915731E+00   8.0632401E+01   0.0000000E+00  -4.9960649E-01   7.8533165E+01   0.0000000E+00  -2.5723535E-01   7.7596367E+01   0.0000000E+00  -6.4756922E-02   7.7083038E+01   0.0000000E+00   2.9272197E-02   7.6876762E+01   0.0000000E+00   2.1051301E-01   7.6813560E+01   0.0000000E+00   2.0256321E-01   7.6837646E+01   0.0000000E+00   3.9186172E-02   7.6779800E+01   0.0000000E+00   3.5663862E-02   8.9845680E+01   0.0000000E+00  -1.7546557E+00   8.3428215E+01   0.0000000E+00  -1.0979825E+00   7.9724930E+01   0.0000000E+00  -6.9730955E-01   7.7872864E+01   0.0000000E+00  -5.6208074E-01   7.6805939E+01   0.0000000E+00  -3.5445201E-01   7.6254234E+01   0.0000000E+00  -1.8537530E-01   7.6122307E+01   0.0000000E+00  -1.8465987E-01   7.6002495E+01   0.0000000E+00  -2.2290434E-01   7.5925636E+01   0.0000000E+00  -9.2732467E-02   9.7402664E+01   0.0000000E+00  -1.7231166E+00   8.8673134E+01   0.0000000E+00  -1.3580720E+00   8.2913002E+01   0.0000000E+00  -1.0534501E+00   7.9296906E+01   0.0000000E+00  -7.9634941E-01   7.7293724E+01   0.0000000E+00  -6.7342854E-01   7.6289833E+01   0.0000000E+00  -5.3340292E-01   7.5666634E+01   0.0000000E+00  -4.5405257E-01   7.5407738E+01   0.0000000E+00  -3.9820698E-01   7.5213371E+01   0.0000000E+00  -2.0702061E-01   1.0821574E+02   0.0000000E+00  -1.3415928E+00   9.6582932E+01   0.0000000E+00  -9.1017824E-01   8.9017586E+01   0.0000000E+00  -9.9702078E-01   8.3015152E+01   0.0000000E+00  -8.2349634E-01   7.9431183E+01   0.0000000E+00  -7.3597682E-01   7.7330521E+01   0.0000000E+00  -6.2328660E-01   7.6327332E+01   0.0000000E+00  -6.1468697E-01   7.5465225E+01   0.0000000E+00  -4.9012280E-01   7.5251274E+01   0.0000000E+00  -2.9375139E-01   1.2303567E+02   0.0000000E+00  -1.7027791E+00   1.0831190E+02   0.0000000E+00  -3.4749332E-01   9.7733543E+01   0.0000000E+00  -2.6236898E-01   8.9973236E+01   0.0000000E+00  -3.2990250E-01   8.4612083E+01   0.0000000E+00  -4.6000558E-01   8.0701019E+01   0.0000000E+00  -4.8992199E-01   7.8426476E+01   0.0000000E+00  -4.7213736E-01   7.7338120E+01   0.0000000E+00  -4.1078401E-01   7.6716255E+01   0.0000000E+00  -2.7390406E-01   1.3985873E+02   0.0000000E+00  -3.3432412E+00   1.2416363E+02   0.0000000E+00  -1.2057977E+00   1.1072466E+02   0.0000000E+00  -1.8167937E-02   1.0014339E+02   0.0000000E+00   5.5988181E-01   9.2743446E+01   0.0000000E+00   3.7949580E-01   8.7267044E+01   0.0000000E+00   2.3649454E-01   8.3837868E+01   0.0000000E+00  -4.0479463E-02   8.1844666E+01   0.0000000E+00  -1.7237318E-01   8.0648224E+01   0.0000000E+00  -9.1952473E-02   1.4015955E+02   0.0000000E+00  -2.4363613E+00   1.2705019E+02   0.0000000E+00  -8.8522851E-01   1.1493866E+02   0.0000000E+00   3.5498941E-01   1.0517490E+02   0.0000000E+00   8.2819664E-01   9.7762962E+01   0.0000000E+00   1.1491940E+00   9.2773506E+01   0.0000000E+00   1.0658710E+00   9.0105667E+01   0.0000000E+00   5.3430831E-01   8.8560753E+01   0.0000000E+00   2.1402763E-01   1.3015332E+02   0.0000000E+00  -6.2882259E-02   1.2027675E+02   0.0000000E+00   6.3909578E-01   1.1189349E+02   0.0000000E+00   1.3178668E+00   1.0615955E+02   0.0000000E+00   1.4685733E+00   1.0260390E+02   0.0000000E+00   1.2866865E+00   1.0102395E+02   0.0000000E+00   3.4565470E-01   1.2689856E+02   0.0000000E+00   1.5102364E+00   1.2163573E+02   0.0000000E+00   1.3312576E+00   1.1831501E+02   0.0000000E+00   6.5788257E-01   1.1632777E+02   0.0000000E+00   3.3661512E-01  -3.5915451E+00   0.0000000E+00  -9.3644758E-07  -3.5912075E+00   0.0000000E+00   3.6487453E-02  -3.5898438E+00   0.0000000E+00   7.3264927E-02  -3.5859222E+00   0.0000000E+00   1.1379972E-01  -3.5774574E+00   0.0000000E+00   1.5700272E-01  -3.5604324E+00   0.0000000E+00   2.0585486E-01  -3.5298328E+00   0.0000000E+00   2.6067919E-01  -3.4803219E+00   0.0000000E+00   3.1838727E-01  -4.3782139E+00   0.0000000E+00   1.8877763E-06  -4.3776283E+00   0.0000000E+00   4.7815830E-02  -4.3756084E+00   0.0000000E+00   9.5619768E-02  -4.3702240E+00   0.0000000E+00   1.4710777E-01  -4.3590622E+00   0.0000000E+00   2.0194520E-01  -4.3384228E+00   0.0000000E+00   2.5961986E-01  -4.3021832E+00   0.0000000E+00   3.2298064E-01  -4.2427883E+00   0.0000000E+00   3.9161718E-01  -5.2905655E+00   0.0000000E+00  -4.8191805E-07  -5.2895908E+00   0.0000000E+00   5.5075843E-02  -5.2859993E+00   0.0000000E+00   1.1056614E-01  -5.2781849E+00   0.0000000E+00   1.6763818E-01  -5.2630129E+00   0.0000000E+00   2.2738275E-01  -5.2364550E+00   0.0000000E+00   2.8908414E-01  -5.1916513E+00   0.0000000E+00   3.5409710E-01  -5.1204348E+00   0.0000000E+00   4.2229533E-01  -6.2747993E+00   0.0000000E+00  -3.0048122E-06  -6.2731171E+00   0.0000000E+00   5.9453454E-02  -6.2675552E+00   0.0000000E+00   1.1931556E-01  -6.2563028E+00   0.0000000E+00   1.7920519E-01  -6.2358704E+00   0.0000000E+00   2.4056271E-01  -6.2015934E+00   0.0000000E+00   3.0358291E-01  -6.1471252E+00   0.0000000E+00   3.6586872E-01  -6.0627899E+00   0.0000000E+00   4.2851120E-01  -7.3612337E+00   0.0000000E+00  -1.7910024E-06  -7.3588676E+00   0.0000000E+00   6.2214978E-02  -7.3509984E+00   0.0000000E+00   1.2411108E-01  -7.3355761E+00   0.0000000E+00   1.8594271E-01  -7.3093219E+00   0.0000000E+00   2.4644393E-01  -7.2669959E+00   0.0000000E+00   3.0698788E-01  -7.2016811E+00   0.0000000E+00   3.6609313E-01  -7.1037679E+00   0.0000000E+00   4.2294225E-01  -8.5742950E+00   0.0000000E+00   4.1204858E-06  -8.5710697E+00   0.0000000E+00   6.4359210E-02  -8.5606823E+00   0.0000000E+00   1.2758927E-01  -8.5409489E+00   0.0000000E+00   1.8977091E-01  -8.5082970E+00   0.0000000E+00   2.5004268E-01  -8.4576979E+00   0.0000000E+00   3.0701846E-01  -8.3817310E+00   0.0000000E+00   3.6163688E-01  -8.2701874E+00   0.0000000E+00   4.1278791E-01  -9.9131470E+00   0.0000000E+00  -6.2220297E-06  -9.9090157E+00   0.0000000E+00   6.7010708E-02  -9.8958626E+00   0.0000000E+00   1.3268374E-01  -9.8714828E+00   0.0000000E+00   1.9575295E-01  -9.8322535E+00   0.0000000E+00   2.5528559E-01  -9.7731237E+00   0.0000000E+00   3.1029755E-01  -9.6866360E+00   0.0000000E+00   3.6066645E-01  -9.5619173E+00   0.0000000E+00   4.0554035E-01  -1.1364183E+01   0.0000000E+00   1.5375372E-07  -1.1359006E+01   0.0000000E+00   7.2296120E-02  -1.1342721E+01   0.0000000E+00   1.4254990E-01  -1.1313241E+01   0.0000000E+00   2.0897962E-01  -1.1266934E+01   0.0000000E+00   2.7053216E-01  -1.1198854E+01   0.0000000E+00   3.2595351E-01  -1.1101590E+01   0.0000000E+00   3.7362802E-01  -1.0963860E+01   0.0000000E+00   4.1272703E-01  -1.2916141E+01   0.0000000E+00  -3.7327954E-06  -1.2909772E+01   0.0000000E+00   8.1997983E-02  -1.2889952E+01   0.0000000E+00   1.6152152E-01  -1.2854599E+01   0.0000000E+00   2.3642033E-01  -1.2800333E+01   0.0000000E+00   3.0475599E-01  -1.2722238E+01   0.0000000E+00   3.6470205E-01  -1.2613149E+01   0.0000000E+00   4.1372344E-01  -1.2461555E+01   0.0000000E+00   4.5016193E-01  -1.4562140E+01   0.0000000E+00  -5.1237685E-06  -1.4554473E+01   0.0000000E+00   9.8408237E-02  -1.4530670E+01   0.0000000E+00   1.9354622E-01  -1.4488687E+01   0.0000000E+00   2.8287971E-01  -1.4425073E+01   0.0000000E+00   3.6495131E-01  -1.4335184E+01   0.0000000E+00   4.3685442E-01  -1.4212008E+01   0.0000000E+00   4.9503452E-01  -1.4044340E+01   0.0000000E+00   5.3525078E-01  -1.6298853E+01   0.0000000E+00  -4.5077636E-06  -1.6289589E+01   0.0000000E+00   1.2197931E-01  -1.6261024E+01   0.0000000E+00   2.4105209E-01  -1.6210905E+01   0.0000000E+00   3.5440969E-01  -1.6135996E+01   0.0000000E+00   4.5963910E-01  -1.6031622E+01   0.0000000E+00   5.5285197E-01  -1.5890712E+01   0.0000000E+00   6.2974489E-01  -1.5702717E+01   0.0000000E+00   6.8407720E-01  -1.8124540E+01   0.0000000E+00   6.4145970E-06  -1.8114290E+01   0.0000000E+00   1.5277421E-01  -1.8080242E+01   0.0000000E+00   3.0352518E-01  -1.8020792E+01   0.0000000E+00   4.4879150E-01  -1.7932487E+01   0.0000000E+00   5.8650464E-01  -1.7810266E+01   0.0000000E+00   7.1252328E-01  -1.7647049E+01   0.0000000E+00   8.2113260E-01  -1.7433598E+01   0.0000000E+00   9.0172964E-01  -2.0045706E+01   0.0000000E+00   1.3236822E-06  -2.0032347E+01   0.0000000E+00   1.9595750E-01  -1.9991302E+01   0.0000000E+00   3.8977832E-01  -1.9920376E+01   0.0000000E+00   5.7615280E-01  -1.9815636E+01   0.0000000E+00   7.5277972E-01  -1.9670521E+01   0.0000000E+00   9.2206270E-01  -1.9480421E+01   0.0000000E+00   1.0723577E+00  -1.9237055E+01   0.0000000E+00   1.1834809E+00  -2.2059958E+01   0.0000000E+00  -1.0667587E-05  -2.2044426E+01   0.0000000E+00   2.4840112E-01  -2.1995060E+01   0.0000000E+00   4.9242911E-01  -2.1909929E+01   0.0000000E+00   7.3231173E-01  -2.1787590E+01   0.0000000E+00   9.5443499E-01  -2.1619093E+01   0.0000000E+00   1.1621470E+00  -2.1396578E+01   0.0000000E+00   1.3568269E+00  -2.1113482E+01   0.0000000E+00   1.5302777E+00  -2.4171009E+01   0.0000000E+00  -8.3058876E-06  -2.4151581E+01   0.0000000E+00   3.0412978E-01  -2.4095922E+01   0.0000000E+00   5.9346038E-01  -2.3995188E+01   0.0000000E+00   8.8646203E-01  -2.3848600E+01   0.0000000E+00   1.1701868E+00  -2.3648642E+01   0.0000000E+00   1.4407970E+00  -2.3389526E+01   0.0000000E+00   1.6977156E+00  -2.3061190E+01   0.0000000E+00   1.9440316E+00  -2.6380402E+01   0.0000000E+00  -6.0726725E-06  -2.6357529E+01   0.0000000E+00   3.5715011E-01  -2.6286791E+01   0.0000000E+00   7.0896250E-01  -2.6167679E+01   0.0000000E+00   1.0622996E+00  -2.5995829E+01   0.0000000E+00   1.4082558E+00  -2.5757345E+01   0.0000000E+00   1.7569342E+00  -2.5455473E+01   0.0000000E+00   2.0882246E+00  -2.5080339E+01   0.0000000E+00   2.3973246E+00  -2.8675896E+01   0.0000000E+00  -2.3257298E-05  -2.8648325E+01   0.0000000E+00   4.2455578E-01  -2.8564854E+01   0.0000000E+00   8.5266775E-01  -2.8426514E+01   0.0000000E+00   1.2649803E+00  -2.8221512E+01   0.0000000E+00   1.6773031E+00  -2.7946054E+01   0.0000000E+00   2.0826530E+00  -2.7594839E+01   0.0000000E+00   2.4747603E+00  -2.7164118E+01   0.0000000E+00   2.8490267E+00  -3.1055569E+01   0.0000000E+00   5.4827997E-06  -3.1023945E+01   0.0000000E+00   4.9683505E-01  -3.0930323E+01   0.0000000E+00   9.8525274E-01  -3.0765005E+01   0.0000000E+00   1.4641755E+00  -3.0526096E+01   0.0000000E+00   1.9367385E+00  -3.0206902E+01   0.0000000E+00   2.3991625E+00  -2.9800673E+01   0.0000000E+00   2.8453417E+00  -2.9306551E+01   0.0000000E+00   3.2787526E+00  -3.3520973E+01   0.0000000E+00  -1.7078055E-05  -3.3485794E+01   0.0000000E+00   5.5435336E-01  -3.3372791E+01   0.0000000E+00   1.1049489E+00  -3.3180305E+01   0.0000000E+00   1.6509215E+00  -3.2901974E+01   0.0000000E+00   2.1779702E+00  -3.2531925E+01   0.0000000E+00   2.6896577E+00  -3.2064079E+01   0.0000000E+00   3.1830540E+00  -3.1496784E+01   0.0000000E+00   3.6509666E+00  -3.6067539E+01   0.0000000E+00   2.8030136E-06  -3.6022968E+01   0.0000000E+00   6.0856062E-01  -3.5890781E+01   0.0000000E+00   1.2172661E+00  -3.5665890E+01   0.0000000E+00   1.8131945E+00  -3.5343216E+01   0.0000000E+00   2.3925457E+00  -3.4914940E+01   0.0000000E+00   2.9428701E+00  -3.4377056E+01   0.0000000E+00   3.4686708E+00  -3.3726082E+01   0.0000000E+00   3.9690659E+00  -3.8682411E+01   0.0000000E+00  -1.1864028E-05  -3.8630924E+01   0.0000000E+00   6.5899509E-01  -3.8476414E+01   0.0000000E+00   1.3120873E+00  -3.8215595E+01   0.0000000E+00   1.9504870E+00  -3.7841854E+01   0.0000000E+00   2.5641141E+00  -3.7348598E+01   0.0000000E+00   3.1439695E+00  -3.6729652E+01   0.0000000E+00   3.6935034E+00  -3.5988316E+01   0.0000000E+00   4.2045531E+00  -4.1358879E+01   0.0000000E+00  -1.3144321E-05  -4.1299370E+01   0.0000000E+00   6.9746053E-01  -4.1121128E+01   0.0000000E+00   1.3844894E+00  -4.0819672E+01   0.0000000E+00   2.0514748E+00  -4.0389198E+01   0.0000000E+00   2.6840045E+00  -3.9822033E+01   0.0000000E+00   3.2848487E+00  -3.9115166E+01   0.0000000E+00   3.8307874E+00  -3.8272579E+01   0.0000000E+00   4.3389916E+00  -4.4084572E+01   0.0000000E+00   3.9742745E-06  -4.4016586E+01   0.0000000E+00   7.2074556E-01  -4.3811958E+01   0.0000000E+00   1.4282931E+00  -4.3465466E+01   0.0000000E+00   2.1056199E+00  -4.2970825E+01   0.0000000E+00   2.7411952E+00  -4.2323578E+01   0.0000000E+00   3.3323143E+00  -4.1520111E+01   0.0000000E+00   3.8637381E+00  -4.0567150E+01   0.0000000E+00   4.3552628E+00  -4.6844921E+01   0.0000000E+00  -2.2284656E-05  -4.6768101E+01   0.0000000E+00   7.2910142E-01  -4.6533043E+01   0.0000000E+00   1.4361026E+00  -4.6135807E+01   0.0000000E+00   2.1030288E+00  -4.5571487E+01   0.0000000E+00   2.7171671E+00  -4.4837196E+01   0.0000000E+00   3.2762587E+00  -4.3929890E+01   0.0000000E+00   3.7722220E+00  -4.2859455E+01   0.0000000E+00   4.2288723E+00  -4.9623852E+01   0.0000000E+00   5.0682393E-06  -4.9535015E+01   0.0000000E+00   7.1502775E-01  -4.9264950E+01   0.0000000E+00   1.3999463E+00  -4.8811016E+01   0.0000000E+00   2.0333948E+00  -4.8171486E+01   0.0000000E+00   2.5998831E+00  -4.7343666E+01   0.0000000E+00   3.1011915E+00  -4.6327038E+01   0.0000000E+00   3.5352826E+00  -4.5134903E+01   0.0000000E+00   3.9336395E+00  -5.2399555E+01   0.0000000E+00   1.6832579E-05  -5.2297207E+01   0.0000000E+00   6.7443591E-01  -5.1986866E+01   0.0000000E+00   1.3145576E+00  -5.1470306E+01   0.0000000E+00   1.8891722E+00  -5.0748081E+01   0.0000000E+00   2.3809707E+00  -4.9823277E+01   0.0000000E+00   2.7936733E+00  -4.8694759E+01   0.0000000E+00   3.1348641E+00  -4.7379440E+01   0.0000000E+00   3.4480731E+00  -5.5153141E+01   0.0000000E+00   2.7166163E-05  -5.5033882E+01   0.0000000E+00   6.0804260E-01  -5.4679428E+01   0.0000000E+00   1.1739029E+00  -5.4093727E+01   0.0000000E+00   1.6593348E+00  -5.3283379E+01   0.0000000E+00   2.0455515E+00  -5.2253536E+01   0.0000000E+00   2.3365290E+00  -5.1014339E+01   0.0000000E+00   2.5560462E+00  -4.9578213E+01   0.0000000E+00   2.7540519E+00  -5.7857128E+01   0.0000000E+00   2.0691470E-05  -5.7721474E+01   0.0000000E+00   5.0600702E-01  -5.7318886E+01   0.0000000E+00   9.6168923E-01  -5.6658195E+01   0.0000000E+00   1.3262802E+00  -5.5753613E+01   0.0000000E+00   1.5784813E+00  -5.4615227E+01   0.0000000E+00   1.7103070E+00  -5.3265202E+01   0.0000000E+00   1.7888567E+00  -5.1710930E+01   0.0000000E+00   1.8356378E+00  -6.0468731E+01   0.0000000E+00   7.2055263E-06  -6.0315144E+01   0.0000000E+00   3.5258707E-01  -5.9859585E+01   0.0000000E+00   6.5168238E-01  -5.9121216E+01   0.0000000E+00   8.6320621E-01  -5.8119396E+01   0.0000000E+00   9.5398712E-01  -5.6870514E+01   0.0000000E+00   9.1305846E-01  -5.5406384E+01   0.0000000E+00   8.0899954E-01  -5.3728943E+01   0.0000000E+00   6.6906244E-01  -6.2906689E+01   0.0000000E+00   9.2456758E-06  -6.2734222E+01   0.0000000E+00   1.4798795E-01  -6.2216755E+01   0.0000000E+00   2.5664529E-01  -6.1388840E+01   0.0000000E+00   2.5991622E-01  -6.0283077E+01   0.0000000E+00   1.6126288E-01  -5.8897152E+01   0.0000000E+00  -2.1333922E-02  -5.7299740E+01   0.0000000E+00  -3.6217541E-01  -5.5483273E+01   0.0000000E+00  -6.7638755E-01  -6.5013077E+01   0.0000000E+00   1.0290532E-05  -6.4830330E+01   0.0000000E+00  -8.7233499E-02  -6.4241722E+01   0.0000000E+00  -2.2842669E-01  -6.3307354E+01   0.0000000E+00  -4.6563703E-01  -6.2082745E+01   0.0000000E+00  -8.2273567E-01  -6.0605511E+01   0.0000000E+00  -1.2708871E+00  -5.8849903E+01   0.0000000E+00  -1.8167822E+00  -5.6932930E+01   0.0000000E+00  -2.4415781E+00  -6.6550957E+01   0.0000000E+00  -7.9126039E-08  -6.6339371E+01   0.0000000E+00  -4.3911979E-01  -6.5685844E+01   0.0000000E+00  -9.3921214E-01  -6.4668243E+01   0.0000000E+00  -1.4660745E+00  -6.3360294E+01   0.0000000E+00  -2.1673093E+00  -6.1795116E+01   0.0000000E+00  -2.9161146E+00  -5.9954170E+01   0.0000000E+00  -3.6799207E+00  -5.7891293E+01   0.0000000E+00  -4.5580001E+00  -6.7354004E+01   0.0000000E+00  -7.6773540E-07  -6.7126808E+01   0.0000000E+00  -1.0651661E+00  -6.6512260E+01   0.0000000E+00  -1.9834691E+00  -6.5445839E+01   0.0000000E+00  -2.9072518E+00  -6.4034859E+01   0.0000000E+00  -3.8385305E+00  -6.2403049E+01   0.0000000E+00  -4.9137630E+00  -6.0491951E+01   0.0000000E+00  -5.9371977E+00  -5.8371731E+01   0.0000000E+00  -7.0001345E+00  -6.7608948E+01   0.0000000E+00   6.5082641E-06  -6.7316223E+01   0.0000000E+00  -1.4755001E+00  -6.6563362E+01   0.0000000E+00  -2.9117966E+00  -6.5518967E+01   0.0000000E+00  -4.2715364E+00  -6.4133636E+01   0.0000000E+00  -5.6255279E+00  -6.2462692E+01   0.0000000E+00  -7.0338821E+00  -6.0610344E+01   0.0000000E+00  -8.4897156E+00  -5.8397118E+01   0.0000000E+00  -9.9313965E+00  -6.7152145E+01   0.0000000E+00   7.5389617E-06  -6.6953339E+01   0.0000000E+00  -2.6182301E+00  -6.6383942E+01   0.0000000E+00  -5.0170989E+00  -6.5462311E+01   0.0000000E+00  -7.1305575E+00  -6.4104607E+01   0.0000000E+00  -8.8836679E+00  -6.2426895E+01   0.0000000E+00  -1.0545740E+01  -6.0548336E+01   0.0000000E+00  -1.2245939E+01  -5.8232391E+01   0.0000000E+00  -1.3800452E+01  -6.6782494E+01   0.0000000E+00   2.0685984E-05  -6.6547859E+01   0.0000000E+00  -3.9773510E+00  -6.6127136E+01   0.0000000E+00  -7.6401539E+00  -6.5209305E+01   0.0000000E+00  -1.0484183E+01  -6.3922371E+01   0.0000000E+00  -1.2773521E+01  -6.2187710E+01   0.0000000E+00  -1.4620625E+01  -6.0047516E+01   0.0000000E+00  -1.6374537E+01  -5.7565731E+01   0.0000000E+00  -1.7873396E+01  -6.7608055E+01   0.0000000E+00  -7.2507828E-06  -6.7191833E+01   0.0000000E+00  -4.0228715E+00  -6.5905022E+01   0.0000000E+00  -7.6470327E+00  -6.3884300E+01   0.0000000E+00  -1.0630507E+01  -6.1287659E+01   0.0000000E+00  -1.2983882E+01  -5.8130310E+01   0.0000000E+00  -1.4941084E+01  -5.4498596E+01   0.0000000E+00  -1.6637871E+01  -5.0490795E+01   0.0000000E+00  -1.7995058E+01  -4.6402870E+01   0.0000000E+00   2.6116497E-05  -4.6000462E+01   0.0000000E+00  -5.0093327E+00  -4.4826607E+01   0.0000000E+00  -9.5231333E+00  -4.2968975E+01   0.0000000E+00  -1.3285780E+01  -4.0543186E+01   0.0000000E+00  -1.6362930E+01  -3.7667709E+01   0.0000000E+00  -1.8996595E+01  -3.4455799E+01   0.0000000E+00  -2.1343534E+01  -3.1032362E+01   0.0000000E+00  -2.3298456E+01  -3.0843763E+01   0.0000000E+00   1.6046455E-05  -3.0517506E+01   0.0000000E+00  -5.9593663E+00  -2.9569889E+01   0.0000000E+00  -1.1351588E+01  -2.8085909E+01   0.0000000E+00  -1.5882331E+01  -2.6181026E+01   0.0000000E+00  -1.9624943E+01  -2.3978312E+01   0.0000000E+00  -2.2866858E+01  -2.1594957E+01   0.0000000E+00  -2.5817358E+01  -1.9146521E+01   0.0000000E+00  -2.8384270E+01  -1.9427208E+01   0.0000000E+00  -2.1062209E-05  -1.9211044E+01   0.0000000E+00  -6.6888247E+00  -1.8588095E+01   0.0000000E+00  -1.2739734E+01  -1.7628698E+01   0.0000000E+00  -1.7813625E+01  -1.6430861E+01   0.0000000E+00  -2.1979090E+01  -1.5100196E+01   0.0000000E+00  -2.5556730E+01  -1.3736106E+01   0.0000000E+00  -2.8809025E+01  -1.2425641E+01   0.0000000E+00  -3.1684616E+01  -9.0093346E+00   0.0000000E+00   3.7505059E-05  -8.9180326E+00   0.0000000E+00  -7.1017346E+00  -8.6605310E+00   0.0000000E+00  -1.3503996E+01  -8.2805929E+00   0.0000000E+00  -1.8824789E+01  -7.8396025E+00   0.0000000E+00  -2.3121378E+01  -7.4022288E+00   0.0000000E+00  -2.6735672E+01  -7.0264659E+00   0.0000000E+00  -2.9978153E+01  -6.7517810E+00   0.0000000E+00  -3.2856308E+01   2.1798482E+00   0.0000000E+00   5.4873992E-05   2.1509738E+00   0.0000000E+00  -7.1590133E+00   2.0609529E+00   0.0000000E+00  -1.3576389E+01   1.9002618E+00   0.0000000E+00  -1.8839563E+01   1.6581749E+00   0.0000000E+00  -2.2995302E+01   1.3281167E+00   0.0000000E+00  -2.6397846E+01   9.1242915E-01   0.0000000E+00  -2.9395844E+01   4.3342125E-01   0.0000000E+00  -3.2059155E+01   1.4199063E+01   0.0000000E+00   3.7404010E-05   1.4069826E+01   0.0000000E+00  -6.8827119E+00   1.3691079E+01   0.0000000E+00  -1.3009333E+01   1.3090229E+01   0.0000000E+00  -1.7957426E+01   1.2311473E+01   0.0000000E+00  -2.1770945E+01   1.1412865E+01   0.0000000E+00  -2.4810745E+01   1.0465553E+01   0.0000000E+00  -2.7449509E+01   9.5571995E+00   0.0000000E+00  -2.9807184E+01   2.6256613E+01   0.0000000E+00   1.4092016E-05   2.6052368E+01   0.0000000E+00  -6.3408456E+00   2.5459381E+01   0.0000000E+00  -1.1942917E+01   2.4538437E+01   0.0000000E+00  -1.6397884E+01   2.3382608E+01   0.0000000E+00  -1.9757612E+01   2.2110159E+01   0.0000000E+00  -2.2386032E+01   2.0856077E+01   0.0000000E+00  -2.4663059E+01   1.9767607E+01   0.0000000E+00  -2.6732782E+01   3.7827038E+01   0.0000000E+00   6.6745939E-05   3.7571323E+01   0.0000000E+00  -5.6286459E+00   3.6834152E+01   0.0000000E+00  -1.0565855E+01   3.5701015E+01   0.0000000E+00  -1.4439480E+01   3.4302521E+01   0.0000000E+00  -1.7319145E+01   3.2802174E+01   0.0000000E+00  -1.9567139E+01   3.1383205E+01   0.0000000E+00  -2.1551575E+01   3.0236551E+01   0.0000000E+00  -2.3408552E+01   4.9034275E+01   0.0000000E+00   5.1116251E-05   4.8747581E+01   0.0000000E+00  -4.8448133E+00   4.7923306E+01   0.0000000E+00  -9.0696583E+00   4.6664318E+01   0.0000000E+00  -1.2355440E+01   4.5124645E+01   0.0000000E+00  -1.4793841E+01   4.3493233E+01   0.0000000E+00  -1.6737572E+01   4.1977768E+01   0.0000000E+00  -1.8522615E+01   4.0788589E+01   0.0000000E+00  -2.0246414E+01   6.0216995E+01   0.0000000E+00  -2.3392378E-05   5.9916985E+01   0.0000000E+00  -4.0733504E+00   5.9056911E+01   0.0000000E+00  -7.6148720E+00   5.7748611E+01   0.0000000E+00  -1.0367874E+01   5.6156147E+01   0.0000000E+00  -1.2443917E+01   5.4472122E+01   0.0000000E+00  -1.4173923E+01   5.2901379E+01   0.0000000E+00  -1.5842043E+01   5.1645691E+01   0.0000000E+00  -1.7483644E+01   6.9732742E+01   0.0000000E+00   6.0128805E-06   6.9500862E+01   0.0000000E+00  -3.3257751E+00   6.8921524E+01   0.0000000E+00  -6.2359099E+00   6.8053787E+01   0.0000000E+00  -8.5365620E+00   6.6779793E+01   0.0000000E+00  -1.0356969E+01   6.5395653E+01   0.0000000E+00  -1.1981264E+01   6.3977947E+01   0.0000000E+00  -1.3606596E+01   6.2726925E+01   0.0000000E+00  -1.5194981E+01   7.3744156E+01   0.0000000E+00  -1.5975966E-06   7.3686974E+01   0.0000000E+00  -2.5621402E+00   7.3518112E+01   0.0000000E+00  -4.8093805E+00   7.3212593E+01   0.0000000E+00  -6.6068358E+00   7.2723091E+01   0.0000000E+00  -8.1456156E+00   7.2210228E+01   0.0000000E+00  -9.6224689E+00   7.1508301E+01   0.0000000E+00  -1.1209072E+01   7.0901360E+01   0.0000000E+00  -1.2751895E+01   7.5532608E+01   0.0000000E+00  -1.4876234E-05   7.5494942E+01   0.0000000E+00  -1.9106044E+00   7.5400314E+01   0.0000000E+00  -3.5384083E+00   7.5267349E+01   0.0000000E+00  -4.8713360E+00   7.5104919E+01   0.0000000E+00  -6.0595741E+00   7.4994545E+01   0.0000000E+00  -7.2705841E+00   7.4742348E+01   0.0000000E+00  -8.6377964E+00   7.4581161E+01   0.0000000E+00  -9.9414787E+00   7.6694862E+01   0.0000000E+00  -1.3226920E-05   7.6684883E+01   0.0000000E+00  -1.3843602E+00   7.6655472E+01   0.0000000E+00  -2.6003790E+00   7.6551224E+01   0.0000000E+00  -3.6533768E+00   7.6492851E+01   0.0000000E+00  -4.5648661E+00   7.6377144E+01   0.0000000E+00  -5.5874972E+00   7.6399994E+01   0.0000000E+00  -6.6831679E+00   7.6315689E+01   0.0000000E+00  -7.6194577E+00   7.7220337E+01   0.0000000E+00   9.7686716E-06   7.7176254E+01   0.0000000E+00  -1.1468128E+00   7.7120483E+01   0.0000000E+00  -2.1481943E+00   7.7120636E+01   0.0000000E+00  -3.0150216E+00   7.7168327E+01   0.0000000E+00  -3.7186837E+00   7.7249290E+01   0.0000000E+00  -4.2448440E+00   7.7164810E+01   0.0000000E+00  -4.9386606E+00   7.7153908E+01   0.0000000E+00  -5.5264230E+00   7.7881050E+01   0.0000000E+00   1.3170793E-06   7.7833778E+01   0.0000000E+00  -9.8968196E-01   7.7697052E+01   0.0000000E+00  -1.7474433E+00   7.7600471E+01   0.0000000E+00  -2.2665477E+00   7.7627365E+01   0.0000000E+00  -2.8229887E+00   7.7705894E+01   0.0000000E+00  -3.4315188E+00   7.7826080E+01   0.0000000E+00  -3.8568232E+00   7.7937469E+01   0.0000000E+00  -4.1421175E+00   7.8283363E+01   0.0000000E+00  -1.5982027E-05   7.8204964E+01   0.0000000E+00  -5.8095938E-01   7.8151871E+01   0.0000000E+00  -1.2391713E+00   7.8088379E+01   0.0000000E+00  -1.8402464E+00   7.8069389E+01   0.0000000E+00  -2.3828733E+00   7.8075378E+01   0.0000000E+00  -2.7984080E+00   7.8132614E+01   0.0000000E+00  -3.0942073E+00   7.8263840E+01   0.0000000E+00  -3.0413723E+00   7.8368362E+01   0.0000000E+00  -2.1248779E-06   7.8348076E+01   0.0000000E+00  -5.2314967E-01   7.8276711E+01   0.0000000E+00  -1.0420841E+00   7.8221542E+01   0.0000000E+00  -1.4973824E+00   7.8211411E+01   0.0000000E+00  -1.8553535E+00   7.8229553E+01   0.0000000E+00  -2.1009781E+00   7.8268417E+01   0.0000000E+00  -2.1429749E+00   7.8365372E+01   0.0000000E+00  -2.0710521E+00   7.8138092E+01   0.0000000E+00  -3.7370955E-06   7.8131042E+01   0.0000000E+00  -3.2058397E-01   7.8066788E+01   0.0000000E+00  -7.5163871E-01   7.7998344E+01   0.0000000E+00  -1.0860753E+00   7.8015587E+01   0.0000000E+00  -1.2634031E+00   7.8052956E+01   0.0000000E+00  -1.3230039E+00   7.8161812E+01   0.0000000E+00  -1.2723001E+00   7.8327896E+01   0.0000000E+00  -1.1159524E+00   7.7570732E+01   0.0000000E+00  -2.1674068E-06   7.7562157E+01   0.0000000E+00  -1.6169602E-01   7.7578293E+01   0.0000000E+00  -3.2322744E-01   7.7495018E+01   0.0000000E+00  -6.8172717E-01   7.7519051E+01   0.0000000E+00  -6.9976586E-01   7.7652702E+01   0.0000000E+00  -6.3849753E-01   7.7798706E+01   0.0000000E+00  -4.9930775E-01   7.8281242E+01   0.0000000E+00  -4.0502036E-01   7.6779266E+01   0.0000000E+00   2.4979272E-06   7.6779900E+01   0.0000000E+00  -3.5662033E-02   7.6837677E+01   0.0000000E+00  -3.9180063E-02   7.6813568E+01   0.0000000E+00  -2.0256208E-01   7.6876999E+01   0.0000000E+00  -2.1052881E-01   7.7082985E+01   0.0000000E+00  -2.9272463E-02   7.7596382E+01   0.0000000E+00   6.4754114E-02   7.8533051E+01   0.0000000E+00   2.5723806E-01   7.5908585E+01   0.0000000E+00  -5.1752249E-06   7.5925491E+01   0.0000000E+00   9.2739232E-02   7.6002472E+01   0.0000000E+00   2.2291571E-01   7.6122177E+01   0.0000000E+00   1.8466949E-01   7.6254257E+01   0.0000000E+00   1.8537739E-01   7.6805946E+01   0.0000000E+00   3.5446143E-01   7.7872910E+01   0.0000000E+00   5.6205648E-01   7.9724792E+01   0.0000000E+00   6.9732475E-01   7.5226067E+01   0.0000000E+00   2.2579552E-06   7.5213554E+01   0.0000000E+00   2.0703617E-01   7.5407616E+01   0.0000000E+00   3.9822590E-01   7.5666634E+01   0.0000000E+00   4.5405552E-01   7.6289886E+01   0.0000000E+00   5.3339970E-01   7.7293549E+01   0.0000000E+00   6.7344743E-01   7.9296883E+01   0.0000000E+00   7.9634678E-01   8.2913040E+01   0.0000000E+00   1.0534128E+00   7.5091644E+01   0.0000000E+00   1.0330652E-05   7.5251228E+01   0.0000000E+00   2.9376638E-01   7.5465164E+01   0.0000000E+00   4.9012870E-01   7.6327377E+01   0.0000000E+00   6.1469328E-01   7.7330589E+01   0.0000000E+00   6.2326813E-01   7.9431198E+01   0.0000000E+00   7.3595262E-01   8.3015106E+01   0.0000000E+00   8.2349104E-01   8.9017647E+01   0.0000000E+00   9.9696761E-01   7.6504074E+01   0.0000000E+00   1.8098937E-05   7.6716301E+01   0.0000000E+00   2.7392542E-01   7.7338173E+01   0.0000000E+00   4.1079569E-01   7.8426399E+01   0.0000000E+00   4.7215533E-01   8.0701019E+01   0.0000000E+00   4.8991105E-01   8.4612122E+01   0.0000000E+00   4.5998889E-01   8.9973175E+01   0.0000000E+00   3.2990766E-01   9.7733521E+01   0.0000000E+00   2.6233259E-01   8.0509621E+01   0.0000000E+00   1.8303399E-05   8.0648087E+01   0.0000000E+00   9.1997162E-02   8.1844643E+01   0.0000000E+00   1.7240289E-01   8.3837662E+01   0.0000000E+00   4.0416092E-02   8.7267128E+01   0.0000000E+00  -2.3652221E-01   9.2743576E+01   0.0000000E+00  -3.7955970E-01   1.0014337E+02   0.0000000E+00  -5.5991709E-01   1.1072469E+02   0.0000000E+00   1.8132955E-02   8.8086830E+01   0.0000000E+00   1.7487328E-05   8.8560776E+01   0.0000000E+00  -2.1400340E-01   9.0105606E+01   0.0000000E+00  -5.3427541E-01   9.2773476E+01   0.0000000E+00  -1.0658488E+00   9.7762878E+01   0.0000000E+00  -1.1491833E+00   1.0517487E+02   0.0000000E+00  -8.2823586E-01   1.1493866E+02   0.0000000E+00  -3.5505193E-01   1.2705022E+02   0.0000000E+00   8.8515198E-01   1.0042037E+02   0.0000000E+00   1.1276279E-05   1.0102402E+02   0.0000000E+00  -3.4561169E-01   1.0260392E+02   0.0000000E+00  -1.2866744E+00   1.0615954E+02   0.0000000E+00  -1.4685781E+00   1.1189342E+02   0.0000000E+00  -1.3178881E+00   1.2027670E+02   0.0000000E+00  -6.3909638E-01   1.3015320E+02   0.0000000E+00   6.2894821E-02   1.1567774E+02   0.0000000E+00   2.1652380E-05   1.1632774E+02   0.0000000E+00  -3.3657902E-01   1.1831492E+02   0.0000000E+00  -6.5786207E-01   1.2163560E+02   0.0000000E+00  -1.3312553E+00   1.2689845E+02   0.0000000E+00  -1.5102528E+00  -3.4020805E+00   0.0000000E+00   3.8389015E-01  -3.2882938E+00   0.0000000E+00   4.5610452E-01  -3.1350918E+00   0.0000000E+00   5.3036070E-01  -2.9395361E+00   0.0000000E+00   6.1141682E-01  -2.6988726E+00   0.0000000E+00   6.9788742E-01  -2.4120865E+00   0.0000000E+00   7.7935076E-01  -2.0688801E+00   0.0000000E+00   8.4200430E-01  -4.1519222E+00   0.0000000E+00   4.6329510E-01  -4.0190048E+00   0.0000000E+00   5.4056960E-01  -3.8391705E+00   0.0000000E+00   6.2366652E-01  -3.6147194E+00   0.0000000E+00   7.0553088E-01  -3.3416033E+00   0.0000000E+00   7.8841019E-01  -3.0062342E+00   0.0000000E+00   8.6185074E-01  -2.5665789E+00   0.0000000E+00   9.1673279E-01  -1.9601545E+00   0.0000000E+00   1.0812912E+00  -5.0131321E+00   0.0000000E+00   4.9016333E-01  -4.8575459E+00   0.0000000E+00   5.6153864E-01  -4.6504984E+00   0.0000000E+00   6.3213867E-01  -4.3960667E+00   0.0000000E+00   7.0330286E-01  -4.0980139E+00   0.0000000E+00   7.6930833E-01  -3.7320604E+00   0.0000000E+00   8.4201574E-01  -3.2459526E+00   0.0000000E+00   9.2136908E-01  -2.5356293E+00   0.0000000E+00   1.0830269E+00  -5.9369726E+00   0.0000000E+00   4.9179843E-01  -5.7576427E+00   0.0000000E+00   5.5309767E-01  -5.5224800E+00   0.0000000E+00   6.1069119E-01  -5.2402115E+00   0.0000000E+00   6.6876411E-01  -4.9258537E+00   0.0000000E+00   7.1909857E-01  -4.5515881E+00   0.0000000E+00   7.8023386E-01  -4.0434160E+00   0.0000000E+00   8.5467052E-01  -3.2316589E+00   0.0000000E+00   1.0409842E+00  -6.9596357E+00   0.0000000E+00   4.7927773E-01  -6.7567291E+00   0.0000000E+00   5.2986455E-01  -6.4931760E+00   0.0000000E+00   5.7584876E-01  -6.1858582E+00   0.0000000E+00   6.1793292E-01  -5.8584228E+00   0.0000000E+00   6.5155602E-01  -5.4808788E+00   0.0000000E+00   6.9886827E-01  -4.9540086E+00   0.0000000E+00   7.6808262E-01  -4.0373249E+00   0.0000000E+00   9.9629211E-01  -8.1086597E+00   0.0000000E+00   4.5986691E-01  -7.8823586E+00   0.0000000E+00   5.0160170E-01  -7.5919113E+00   0.0000000E+00   5.3342134E-01  -7.2614880E+00   0.0000000E+00   5.5656564E-01  -6.9233170E+00   0.0000000E+00   5.7009983E-01  -6.5467429E+00   0.0000000E+00   6.0307789E-01  -6.0045810E+00   0.0000000E+00   6.7376328E-01  -4.9715023E+00   0.0000000E+00   9.7060013E-01  -9.3835697E+00   0.0000000E+00   4.4366771E-01  -9.1355610E+00   0.0000000E+00   4.7280645E-01  -8.8205843E+00   0.0000000E+00   4.8762161E-01  -8.4705067E+00   0.0000000E+00   4.8851418E-01  -8.1249018E+00   0.0000000E+00   4.8322868E-01  -7.7549057E+00   0.0000000E+00   5.0798225E-01  -7.2122860E+00   0.0000000E+00   5.9793758E-01  -6.0535603E+00   0.0000000E+00   1.0070591E+00  -1.0769221E+01   0.0000000E+00   4.4121936E-01  -1.0500632E+01   0.0000000E+00   4.5599627E-01  -1.0163569E+01   0.0000000E+00   4.5189798E-01  -9.7984390E+00   0.0000000E+00   4.3071413E-01  -9.4532690E+00   0.0000000E+00   4.1409636E-01  -9.1127605E+00   0.0000000E+00   4.3263912E-01  -8.5917206E+00   0.0000000E+00   5.7011890E-01  -7.3132992E+00   0.0000000E+00   1.1439953E+00  -1.2250424E+01   0.0000000E+00   4.7056520E-01  -1.1962149E+01   0.0000000E+00   4.7217387E-01  -1.1605784E+01   0.0000000E+00   4.5026493E-01  -1.1227399E+01   0.0000000E+00   4.1652060E-01  -1.0893621E+01   0.0000000E+00   3.8613653E-01  -1.0580154E+01   0.0000000E+00   4.3611908E-01  -1.0131314E+01   0.0000000E+00   6.1154938E-01  -8.8387604E+00   0.0000000E+00   1.3038158E+00  -1.3815430E+01   0.0000000E+00   5.5270535E-01  -1.3508301E+01   0.0000000E+00   5.4445946E-01  -1.3135462E+01   0.0000000E+00   5.0696230E-01  -1.2746418E+01   0.0000000E+00   4.7020793E-01  -1.2439618E+01   0.0000000E+00   4.2980194E-01  -1.2191294E+01   0.0000000E+00   4.7703266E-01  -1.1890637E+01   0.0000000E+00   6.3337708E-01  -1.0849716E+01   0.0000000E+00   1.1962147E+00  -1.5452258E+01   0.0000000E+00   7.0623183E-01  -1.5124392E+01   0.0000000E+00   6.9099259E-01  -1.4743217E+01   0.0000000E+00   6.4196265E-01  -1.4373078E+01   0.0000000E+00   5.9126353E-01  -1.4099843E+01   0.0000000E+00   5.4781008E-01  -1.3975929E+01   0.0000000E+00   5.5158997E-01  -1.3936567E+01   0.0000000E+00   6.1980629E-01  -1.3517040E+01   0.0000000E+00   8.0027008E-01  -1.7153954E+01   0.0000000E+00   9.4731814E-01  -1.6807264E+01   0.0000000E+00   9.2515540E-01  -1.6408970E+01   0.0000000E+00   8.9137775E-01  -1.6068495E+01   0.0000000E+00   8.2429242E-01  -1.5878654E+01   0.0000000E+00   7.5942469E-01  -1.5943787E+01   0.0000000E+00   7.6718426E-01  -1.6265688E+01   0.0000000E+00   8.9686012E-01  -1.6318077E+01   0.0000000E+00   1.2090874E+00  -1.8925743E+01   0.0000000E+00   1.2637193E+00  -1.8543892E+01   0.0000000E+00   1.3018825E+00  -1.8146614E+01   0.0000000E+00   1.2671130E+00  -1.7834843E+01   0.0000000E+00   1.2421570E+00  -1.7747681E+01   0.0000000E+00   1.2925820E+00  -1.8101715E+01   0.0000000E+00   1.5202208E+00  -1.8726444E+01   0.0000000E+00   2.4281101E+00  -1.9173901E+01   0.0000000E+00   3.7067928E+00  -2.0764315E+01   0.0000000E+00   1.6626059E+00  -2.0347002E+01   0.0000000E+00   1.7577901E+00  -1.9932642E+01   0.0000000E+00   1.8141176E+00  -1.9671944E+01   0.0000000E+00   1.9012237E+00  -1.9775772E+01   0.0000000E+00   2.1682143E+00  -2.0432007E+01   0.0000000E+00   2.7889137E+00  -2.1553402E+01   0.0000000E+00   4.1345377E+00  -2.2682219E+01   0.0000000E+00   5.6507587E+00  -2.2665531E+01   0.0000000E+00   2.1490431E+00  -2.2209953E+01   0.0000000E+00   2.3127494E+00  -2.1770111E+01   0.0000000E+00   2.4861548E+00  -2.1557199E+01   0.0000000E+00   2.7101274E+00  -2.1862959E+01   0.0000000E+00   3.1673179E+00  -2.2931879E+01   0.0000000E+00   3.9985888E+00  -2.4732550E+01   0.0000000E+00   5.2912707E+00  -2.6677210E+01   0.0000000E+00   6.8833761E+00  -2.4633198E+01   0.0000000E+00   2.6770105E+00  -2.4127274E+01   0.0000000E+00   2.9071314E+00  -2.3649063E+01   0.0000000E+00   3.1910059E+00  -2.3464317E+01   0.0000000E+00   3.5492721E+00  -2.3953001E+01   0.0000000E+00   4.0840678E+00  -2.5412609E+01   0.0000000E+00   4.9623537E+00  -2.7878906E+01   0.0000000E+00   6.1539946E+00  -3.0827120E+01   0.0000000E+00   7.7600079E+00  -2.6657110E+01   0.0000000E+00   3.1906850E+00  -2.6091576E+01   0.0000000E+00   3.4942076E+00  -2.5569094E+01   0.0000000E+00   3.8395679E+00  -2.5391739E+01   0.0000000E+00   4.2578611E+00  -2.6012724E+01   0.0000000E+00   4.8398814E+00  -2.7812944E+01   0.0000000E+00   5.7188230E+00  -3.0879395E+01   0.0000000E+00   6.9098821E+00  -3.4707142E+01   0.0000000E+00   8.5937319E+00  -2.8729160E+01   0.0000000E+00   3.6714501E+00  -2.8091198E+01   0.0000000E+00   4.0312448E+00  -2.7513405E+01   0.0000000E+00   4.4023252E+00  -2.7311665E+01   0.0000000E+00   4.8761435E+00  -2.8055868E+01   0.0000000E+00   5.4582624E+00  -3.0159456E+01   0.0000000E+00   6.3321071E+00  -3.3743359E+01   0.0000000E+00   7.6057062E+00  -3.8299294E+01   0.0000000E+00   9.3746805E+00  -3.0836582E+01   0.0000000E+00   4.0928588E+00  -3.0119457E+01   0.0000000E+00   4.4819078E+00  -2.9471874E+01   0.0000000E+00   4.8571057E+00  -2.9269360E+01   0.0000000E+00   5.3327737E+00  -3.0103821E+01   0.0000000E+00   5.9578319E+00  -3.2493076E+01   0.0000000E+00   6.8740983E+00  -3.6567242E+01   0.0000000E+00   8.2244110E+00  -4.1741528E+01   0.0000000E+00   1.0090387E+01  -3.2974747E+01   0.0000000E+00   4.4302478E+00  -3.2157391E+01   0.0000000E+00   4.8470802E+00  -3.1437082E+01   0.0000000E+00   5.2088494E+00  -3.1220402E+01   0.0000000E+00   5.6848340E+00  -3.2160736E+01   0.0000000E+00   6.3465219E+00  -3.4845222E+01   0.0000000E+00   7.3223701E+00  -3.9428802E+01   0.0000000E+00   8.7330608E+00  -4.5197639E+01   0.0000000E+00   1.0735239E+01  -3.5130367E+01   0.0000000E+00   4.6714416E+00  -3.4204876E+01   0.0000000E+00   5.1015849E+00  -3.3400661E+01   0.0000000E+00   5.4593635E+00  -3.3172810E+01   0.0000000E+00   5.9188514E+00  -3.4215889E+01   0.0000000E+00   6.6283293E+00  -3.7206741E+01   0.0000000E+00   7.6663198E+00  -4.2297192E+01   0.0000000E+00   9.1649866E+00  -4.8729336E+01   0.0000000E+00   1.1265681E+01  -3.7301571E+01   0.0000000E+00   4.8037434E+00  -3.6258339E+01   0.0000000E+00   5.2328434E+00  -3.5354259E+01   0.0000000E+00   5.5989223E+00  -3.5106861E+01   0.0000000E+00   6.0512891E+00  -3.6251148E+01   0.0000000E+00   6.7993450E+00  -3.9561474E+01   0.0000000E+00   7.8928685E+00  -4.5185959E+01   0.0000000E+00   9.4641352E+00  -5.2308300E+01   0.0000000E+00   1.1648387E+01  -3.9473785E+01   0.0000000E+00   4.8079247E+00  -3.8301815E+01   0.0000000E+00   5.2293935E+00  -3.7286678E+01   0.0000000E+00   5.6080413E+00  -3.7004948E+01   0.0000000E+00   6.0606875E+00  -3.8256584E+01   0.0000000E+00   6.8324018E+00  -4.1889545E+01   0.0000000E+00   7.9775705E+00  -4.8065994E+01   0.0000000E+00   9.6014748E+00  -5.5905941E+01   0.0000000E+00   1.1848038E+01  -4.1636124E+01   0.0000000E+00   4.6547279E+00  -4.0324547E+01   0.0000000E+00   5.0626440E+00  -3.9189938E+01   0.0000000E+00   5.4548855E+00  -3.8859493E+01   0.0000000E+00   5.8971896E+00  -4.0213558E+01   0.0000000E+00   6.6868653E+00  -4.4170475E+01   0.0000000E+00   7.8792005E+00  -5.0918324E+01   0.0000000E+00   9.5386467E+00  -5.9505291E+01   0.0000000E+00   1.1828046E+01  -4.3778008E+01   0.0000000E+00   4.3134384E+00  -4.2320103E+01   0.0000000E+00   4.7008624E+00  -4.1053654E+01   0.0000000E+00   5.0860400E+00  -4.0661819E+01   0.0000000E+00   5.5117555E+00  -4.2114738E+01   0.0000000E+00   6.3020635E+00  -4.6397755E+01   0.0000000E+00   7.5522747E+00  -5.3738235E+01   0.0000000E+00   9.2361526E+00  -6.3102604E+01   0.0000000E+00   1.1568027E+01  -4.5890480E+01   0.0000000E+00   3.7607684E+00  -4.4283649E+01   0.0000000E+00   4.0879374E+00  -4.2880836E+01   0.0000000E+00   4.4415393E+00  -4.2413197E+01   0.0000000E+00   4.8453970E+00  -4.3964031E+01   0.0000000E+00   5.6234775E+00  -4.8580601E+01   0.0000000E+00   6.9272861E+00  -5.6548500E+01   0.0000000E+00   8.6573133E+00  -6.6743385E+01   0.0000000E+00   1.1042620E+01  -4.7960220E+01   0.0000000E+00   2.9720571E+00  -4.6207039E+01   0.0000000E+00   3.1995718E+00  -4.4662086E+01   0.0000000E+00   3.4756801E+00  -4.4118671E+01   0.0000000E+00   3.8407631E+00  -4.5770004E+01   0.0000000E+00   4.5917811E+00  -5.0744061E+01   0.0000000E+00   5.9412646E+00  -5.9396496E+01   0.0000000E+00   7.7559152E+00  -7.0532494E+01   0.0000000E+00   1.0210315E+01  -4.9963436E+01   0.0000000E+00   1.9108591E+00  -4.8069916E+01   0.0000000E+00   1.9886999E+00  -4.6388329E+01   0.0000000E+00   2.1380458E+00  -4.5775162E+01   0.0000000E+00   2.4613416E+00  -4.7545113E+01   0.0000000E+00   3.1519339E+00  -5.2914745E+01   0.0000000E+00   4.5492482E+00  -6.2325249E+01   0.0000000E+00   6.4817648E+00  -7.4589035E+01   0.0000000E+00   9.0554037E+00  -5.1843109E+01   0.0000000E+00   5.0757277E-01  -4.9822807E+01   0.0000000E+00   4.1820523E-01  -4.8012157E+01   0.0000000E+00   4.1088030E-01  -4.7374825E+01   0.0000000E+00   6.1042267E-01  -4.9252640E+01   0.0000000E+00   1.2275792E+00  -5.5059429E+01   0.0000000E+00   2.6305809E+00  -6.5304543E+01   0.0000000E+00   4.7872224E+00  -7.8921654E+01   0.0000000E+00   7.5603027E+00  -5.3461189E+01   0.0000000E+00  -1.0659237E+00  -5.1340591E+01   0.0000000E+00  -1.4411598E+00  -4.9417545E+01   0.0000000E+00  -1.6938663E+00  -4.8722622E+01   0.0000000E+00  -1.6053923E+00  -5.0772747E+01   0.0000000E+00  -1.1924118E+00  -5.7031784E+01   0.0000000E+00   2.4830699E-01  -6.8194489E+01   0.0000000E+00   2.6462209E+00  -8.3383743E+01   0.0000000E+00   5.7663546E+00  -5.4767506E+01   0.0000000E+00  -3.0805132E+00  -5.2388668E+01   0.0000000E+00  -3.5801146E+00  -5.0374756E+01   0.0000000E+00  -4.0201631E+00  -4.9741066E+01   0.0000000E+00  -4.2586765E+00  -5.2032005E+01   0.0000000E+00  -4.0971460E+00  -5.8681286E+01   0.0000000E+00  -2.6712325E+00  -7.0742821E+01   0.0000000E+00   8.6700886E-02  -8.7499001E+01   0.0000000E+00   3.6222122E+00  -5.5596504E+01   0.0000000E+00  -5.4529405E+00  -5.3097900E+01   0.0000000E+00  -6.1600037E+00  -5.1005405E+01   0.0000000E+00  -6.9107447E+00  -5.0381371E+01   0.0000000E+00  -7.4514780E+00  -5.2875225E+01   0.0000000E+00  -7.3301716E+00  -6.0083832E+01   0.0000000E+00  -6.0356126E+00  -7.2991066E+01   0.0000000E+00  -2.9357102E+00  -9.1011513E+01   0.0000000E+00   1.5630406E+00  -5.5967102E+01   0.0000000E+00  -8.1697359E+00  -5.3358833E+01   0.0000000E+00  -9.1877079E+00  -5.1278130E+01   0.0000000E+00  -1.0195779E+01  -5.0699223E+01   0.0000000E+00  -1.0884504E+01  -5.3434647E+01   0.0000000E+00  -1.0968059E+01  -6.1106869E+01   0.0000000E+00  -9.5536137E+00  -7.4618439E+01   0.0000000E+00  -6.1063280E+00  -9.3374672E+01   0.0000000E+00  -4.0376562E-01  -5.5964191E+01   0.0000000E+00  -1.1357698E+01  -5.3388588E+01   0.0000000E+00  -1.2688597E+01  -5.1228958E+01   0.0000000E+00  -1.3951205E+01  -5.0681335E+01   0.0000000E+00  -1.4829816E+01  -5.3499271E+01   0.0000000E+00  -1.4787131E+01  -6.1524853E+01   0.0000000E+00  -1.2890092E+01  -7.5475639E+01   0.0000000E+00  -9.2864933E+00  -9.3516106E+01   0.0000000E+00  -1.6727966E+00  -5.5705368E+01   0.0000000E+00  -1.5267271E+01  -5.2997356E+01   0.0000000E+00  -1.6525280E+01  -5.0703655E+01   0.0000000E+00  -1.7642885E+01  -4.9974731E+01   0.0000000E+00  -1.8378653E+01  -5.2488892E+01   0.0000000E+00  -1.8433764E+01  -6.0187531E+01   0.0000000E+00  -1.6656605E+01  -7.3573730E+01   0.0000000E+00  -1.2249053E+01  -8.7664940E+01   0.0000000E+00  -9.7673035E-01  -5.4571690E+01   0.0000000E+00  -1.8948481E+01  -5.1216568E+01   0.0000000E+00  -1.9629511E+01  -4.7990322E+01   0.0000000E+00  -2.0209877E+01  -4.6498039E+01   0.0000000E+00  -2.1357380E+01  -4.9275940E+01   0.0000000E+00  -2.2335705E+01  -5.5220680E+01   0.0000000E+00  -2.0256031E+01  -6.1323357E+01   0.0000000E+00  -1.6167568E+01  -6.3059395E+01   0.0000000E+00  -3.8941729E+00  -4.6232777E+01   0.0000000E+00  -1.8814486E+01  -4.1812622E+01   0.0000000E+00  -2.0944397E+01  -3.8199547E+01   0.0000000E+00  -2.5426765E+01  -3.6281853E+01   0.0000000E+00  -2.8077148E+01  -3.5128204E+01   0.0000000E+00  -2.8036427E+01  -3.4534851E+01   0.0000000E+00  -2.5661137E+01  -3.4249840E+01   0.0000000E+00  -1.9373718E+01  -3.4440395E+01   0.0000000E+00  -6.8855829E+00  -2.7568943E+01   0.0000000E+00  -2.4538355E+01  -2.4271166E+01   0.0000000E+00  -2.5574511E+01  -2.1299692E+01   0.0000000E+00  -3.0390125E+01  -1.9136480E+01   0.0000000E+00  -3.2813679E+01  -1.7952051E+01   0.0000000E+00  -3.2110165E+01  -1.7472956E+01   0.0000000E+00  -2.9444572E+01  -1.7540476E+01   0.0000000E+00  -2.2279398E+01  -1.8013214E+01   0.0000000E+00  -5.8174009E+00  -1.6764246E+01   0.0000000E+00  -3.0206676E+01  -1.4598642E+01   0.0000000E+00  -3.1369982E+01  -1.2813480E+01   0.0000000E+00  -3.2980774E+01  -1.1562737E+01   0.0000000E+00  -3.6670212E+01  -1.0943423E+01   0.0000000E+00  -3.6840755E+01  -1.0974785E+01   0.0000000E+00  -3.2763603E+01  -1.1548800E+01   0.0000000E+00  -2.4968309E+01  -1.2307620E+01   0.0000000E+00  -2.4001939E+00  -1.1248035E+01   0.0000000E+00  -3.3833145E+01  -1.0269985E+01   0.0000000E+00  -3.5335930E+01  -9.5461922E+00   0.0000000E+00  -3.6973930E+01  -9.1447010E+00   0.0000000E+00  -3.8973221E+01  -9.1375504E+00   0.0000000E+00  -3.9860058E+01  -9.5392866E+00   0.0000000E+00  -3.5465599E+01  -1.0263236E+01   0.0000000E+00  -2.7384092E+01  -1.1032804E+01   0.0000000E+00  -1.4057268E+00  -6.5946002E+00   0.0000000E+00  -3.5063965E+01  -6.5483437E+00   0.0000000E+00  -3.6678951E+01  -6.5884895E+00   0.0000000E+00  -3.8410809E+01  -6.7128921E+00   0.0000000E+00  -4.0372379E+01  -6.9453154E+00   0.0000000E+00  -4.1035229E+01  -7.2948117E+00   0.0000000E+00  -3.7388855E+01  -7.7405748E+00   0.0000000E+00  -2.8498116E+01  -8.1895628E+00   0.0000000E+00  -1.5196216E+00  -6.0078099E-02   0.0000000E+00  -3.4143070E+01  -5.0154936E-01   0.0000000E+00  -3.5726234E+01  -8.2486171E-01   0.0000000E+00  -3.7450909E+01  -9.9764532E-01   0.0000000E+00  -3.9489811E+01  -1.0246671E+00   0.0000000E+00  -4.1394966E+01  -9.3570644E-01   0.0000000E+00  -3.8616852E+01  -7.9545540E-01   0.0000000E+00  -2.8745884E+01  -6.8146843E-01   0.0000000E+00  -1.9016395E+00   8.7949638E+00   0.0000000E+00  -3.1698898E+01   8.2881575E+00   0.0000000E+00  -3.3214718E+01   8.1126604E+00   0.0000000E+00  -3.4979912E+01   8.2881861E+00   0.0000000E+00  -3.7924755E+01   8.7766361E+00   0.0000000E+00  -4.1049725E+01   9.4901171E+00   0.0000000E+00  -3.8337490E+01   1.0297166E+01   0.0000000E+00  -2.7858644E+01   1.1026210E+01   0.0000000E+00  -2.0472171E+00   1.8996901E+01   0.0000000E+00  -2.8448097E+01   1.8676453E+01   0.0000000E+00  -2.9904537E+01   1.8872410E+01   0.0000000E+00  -3.1723328E+01   1.9471716E+01   0.0000000E+00  -3.6665840E+01   2.0628082E+01   0.0000000E+00  -3.9156528E+01   2.1914759E+01   0.0000000E+00  -3.6197029E+01   2.3256386E+01   0.0000000E+00  -2.6296423E+01   2.4469530E+01   0.0000000E+00  -2.2176492E+00   2.9543676E+01   0.0000000E+00  -2.4994644E+01   2.9448479E+01   0.0000000E+00  -2.6385866E+01   2.9985399E+01   0.0000000E+00  -2.8251341E+01   3.0786263E+01   0.0000000E+00  -3.4501156E+01   3.2464382E+01   0.0000000E+00  -3.6045399E+01   3.4288456E+01   0.0000000E+00  -3.3199089E+01   3.6015121E+01   0.0000000E+00  -2.3961533E+01   3.7403896E+01   0.0000000E+00  -2.5888908E+00   4.0119240E+01   0.0000000E+00  -2.1736330E+01   4.0118420E+01   0.0000000E+00  -2.3019476E+01   4.0712479E+01   0.0000000E+00  -2.5065062E+01   4.1387371E+01   0.0000000E+00  -3.1346077E+01   4.2862354E+01   0.0000000E+00  -3.2650990E+01   4.5343899E+01   0.0000000E+00  -2.9538568E+01   4.7744774E+01   0.0000000E+00  -2.1184305E+01   4.9012878E+01   0.0000000E+00  -2.3596075E+00   5.0889751E+01   0.0000000E+00  -1.8875422E+01   5.0782825E+01   0.0000000E+00  -1.9980469E+01   5.1010269E+01   0.0000000E+00  -2.2318806E+01   5.0778931E+01   0.0000000E+00  -2.7481567E+01   5.2142529E+01   0.0000000E+00  -2.8907021E+01   5.4903526E+01   0.0000000E+00  -2.5661737E+01   5.8600124E+01   0.0000000E+00  -1.7506166E+01   5.9779163E+01   0.0000000E+00  -8.2612401E-01   6.1834969E+01   0.0000000E+00  -1.6466627E+01   6.1458046E+01   0.0000000E+00  -1.7329359E+01   6.1328327E+01   0.0000000E+00  -1.9140305E+01   6.0364227E+01   0.0000000E+00  -2.3876768E+01   6.0809052E+01   0.0000000E+00  -2.4634022E+01   6.2997093E+01   0.0000000E+00  -2.0957586E+01   6.7879250E+01   0.0000000E+00  -1.3800117E+01   7.0192543E+01   0.0000000E+00   4.2622611E-01   7.0337395E+01   0.0000000E+00  -1.3906166E+01   6.9993851E+01   0.0000000E+00  -1.4532668E+01   7.0059349E+01   0.0000000E+00  -1.5377937E+01   6.9370186E+01   0.0000000E+00  -2.0019182E+01   6.9451317E+01   0.0000000E+00  -1.9948170E+01   7.1132507E+01   0.0000000E+00  -1.6046892E+01   7.7411270E+01   0.0000000E+00  -1.0537735E+01   8.1191078E+01   0.0000000E+00   1.6437758E+00   7.4338318E+01   0.0000000E+00  -1.0822024E+01   7.4204605E+01   0.0000000E+00  -1.1118939E+01   7.4568588E+01   0.0000000E+00  -1.1190779E+01   7.5071625E+01   0.0000000E+00  -1.4456399E+01   7.7168602E+01   0.0000000E+00  -1.5311059E+01   7.9673714E+01   0.0000000E+00  -1.1633657E+01   8.7228279E+01   0.0000000E+00  -7.3442178E+00   9.3177391E+01   0.0000000E+00   3.8285074E+00   7.6182823E+01   0.0000000E+00  -8.1757164E+00   7.6213577E+01   0.0000000E+00  -8.1557989E+00   7.6844810E+01   0.0000000E+00  -7.8682747E+00   7.8685249E+01   0.0000000E+00  -8.8843994E+00   8.2202644E+01   0.0000000E+00  -1.0360871E+01   8.8960144E+01   0.0000000E+00  -7.6233468E+00   9.7627922E+01   0.0000000E+00  -3.8421218E+00   1.0589536E+02   0.0000000E+00   6.7693877E+00   7.7158058E+01   0.0000000E+00  -5.7237663E+00   7.7244705E+01   0.0000000E+00  -5.5845633E+00   7.8305534E+01   0.0000000E+00  -5.3932910E+00   8.1015099E+01   0.0000000E+00  -5.1946392E+00   8.6376228E+01   0.0000000E+00  -5.4940019E+00   9.6503731E+01   0.0000000E+00  -3.2258739E+00   1.0833704E+02   0.0000000E+00  -4.8713249E-01   1.1946900E+02   0.0000000E+00   1.0068304E+01   7.7959503E+01   0.0000000E+00  -4.1007562E+00   7.8237419E+01   0.0000000E+00  -3.8736429E+00   7.9325371E+01   0.0000000E+00  -3.4072225E+00   8.2536415E+01   0.0000000E+00  -3.0390077E+00   8.9646416E+01   0.0000000E+00  -2.3643811E+00   1.0244624E+02   0.0000000E+00  -2.3981513E-01   1.1892596E+02   0.0000000E+00   2.8472145E+00   1.3429016E+02   0.0000000E+00   1.4293606E+01   7.8374084E+01   0.0000000E+00  -2.9541972E+00   7.8937202E+01   0.0000000E+00  -2.5530043E+00   8.0566154E+01   0.0000000E+00  -2.0042675E+00   8.4545456E+01   0.0000000E+00  -1.4038798E+00   9.3138855E+01   0.0000000E+00  -2.3326358E-01   1.0794276E+02   0.0000000E+00   2.0876858E+00   1.2870892E+02   0.0000000E+00   4.9879351E+00   1.5255695E+02   0.0000000E+00   1.2890582E+01   7.8654045E+01   0.0000000E+00  -1.8277231E+00   7.9570938E+01   0.0000000E+00  -1.3897240E+00   8.2068153E+01   0.0000000E+00  -8.3676416E-01   8.7394150E+01   0.0000000E+00  -6.6898800E-02   9.7699890E+01   0.0000000E+00   1.1888757E+00   1.1449304E+02   0.0000000E+00   3.9019859E+00   1.3867273E+02   0.0000000E+00   7.7423711E+00   1.6570583E+02   0.0000000E+00   1.3576559E+01   7.8907166E+01   0.0000000E+00  -9.4153243E-01   8.0642921E+01   0.0000000E+00  -4.5309976E-01   8.4330383E+01   0.0000000E+00   1.9594270E-01   9.1496552E+01   0.0000000E+00   1.1545081E+00   1.0389332E+02   0.0000000E+00   2.8737695E+00   1.2332846E+02   0.0000000E+00   6.2279477E+00   1.4998454E+02   0.0000000E+00   1.0234327E+01   7.9422012E+01   0.0000000E+00  -1.1921420E-01   8.2229073E+01   0.0000000E+00   3.5953194E-01   8.7768105E+01   0.0000000E+00   1.2012709E+00   9.7074875E+01   0.0000000E+00   2.2574480E+00   1.1210403E+02   0.0000000E+00   4.5361676E+00   1.3443069E+02   0.0000000E+00   8.1373968E+00   1.6231952E+02   0.0000000E+00   1.2318892E+01   8.0632278E+01   0.0000000E+00   4.9963853E-01   8.5059494E+01   0.0000000E+00   1.1915834E+00   9.2748512E+01   0.0000000E+00   1.9667215E+00   1.0469586E+02   0.0000000E+00   3.0755377E+00   1.2307276E+02   0.0000000E+00   5.9945102E+00   1.4770212E+02   0.0000000E+00   9.6433125E+00   8.3428139E+01   0.0000000E+00   1.0980151E+00   8.9845665E+01   0.0000000E+00   1.7546577E+00   1.0008237E+02   0.0000000E+00   2.4130387E+00   1.1507878E+02   0.0000000E+00   3.7763641E+00   1.3646454E+02   0.0000000E+00   7.0121126E+00   1.6192445E+02   0.0000000E+00   1.0841280E+01   8.8673157E+01   0.0000000E+00   1.3580784E+00   9.7402641E+01   0.0000000E+00   1.7231119E+00   1.1067712E+02   0.0000000E+00   2.5097609E+00   1.2844553E+02   0.0000000E+00   4.5255637E+00   1.5178004E+02   0.0000000E+00   8.0374374E+00   9.6582840E+01   0.0000000E+00   9.1021490E-01   1.0821577E+02   0.0000000E+00   1.3416001E+00   1.2431079E+02   0.0000000E+00   2.8218551E+00   1.4424106E+02   0.0000000E+00   5.5843244E+00   1.0831192E+02   0.0000000E+00   3.4747186E-01   1.2303567E+02   0.0000000E+00   1.7027905E+00   1.4088455E+02   0.0000000E+00   4.0737524E+00   1.5928110E+02   0.0000000E+00   7.2209158E+00   1.2416371E+02   0.0000000E+00   1.2057824E+00   1.3985884E+02   0.0000000E+00   3.3432174E+00   1.4015962E+02   0.0000000E+00   2.4363170E+00 
StrainDot 3 2975 float
  0.0000000E+00   0.0000000E+00   0.0000000E+00   0.0000000E+00   0.0000000E+00   0.0000000E+00   0.0000000E+00   0.0000000E+00   0.0000000E+00   0.0000000E+00   0.0000000E+00   0.0000000E+00   0.0000000E+00   0.0000000E+00   0.0000000E+00   0.0000000E+00   0.0000000E+00   0.0000000E+00   0.0000000E+00   0.0000000E+00   0.0000000E+00   0.0000000E+00   0.0000000E+00   0.0000000E+00   0.0000000E+00   0.0000000E+00   0.0000000E+00   0.0000000E+00   0.0000000E+00   0.0000000E+00   0.0000000E+00   0.0000000E+00   0.0000000E+00   0.0000000E+00   0.0000000E+00   0.0000000E+00   0.0000000E+00   0.0000000E+00   0.0000000E+00  -1.6461604E-06   0.0000000E+00  -4.5563823E-07  -5.3090082E-16   0.0000000E+00  -2.3087561E-16  -7.7073846E-06   0.0000000E+00  -3.3110236E-06  -5.5503679E-05   0.0000000E+00  -1.8673622E-05  -1.3080982E-05   0.0000000E+00  -6.9473117E-06  -9.6564116E-05   0.0000000E+00  -4.9283524E-05  -3.2999442E-04   0.0000000E+00  -1.2881329E-04  -1.0346842E-04   0.0000000E+00  -6.4338128E-05  -4.0302073E-04   0.0000000E+00  -2.3396011E-04  -1.0623587E-03   0.0000000E+00  -4.6653143E-04  -3.4766269E-04   0.0000000E+00  -2.4627300E-04  -1.0494059E-03   0.0000000E+00  -6.8381935E-04  -2.4421192E-03   0.0000000E+00  -1.1950451E-03  -7.7080150E-04   0.0000000E+00  -6.2052556E-04  -2.0511909E-03   0.0000000E+00  -1.5006126E-03  -4.4659227E-03   0.0000000E+00  -2.4398500E-03  -1.3165658E-03   0.0000000E+00  -1.2065857E-03  -3.2827226E-03   0.0000000E+00  -2.6988869E-03  -6.8964581E-03   0.0000000E+00  -4.2107687E-03  -1.8750490E-03   0.0000000E+00  -1.9498311E-03  -4.5329607E-03   0.0000000E+00  -4.1663656E-03  -9.3529634E-03   0.0000000E+00  -6.3445009E-03  -2.3503634E-03   0.0000000E+00  -2.7333817E-03  -5.6257765E-03   0.0000000E+00  -5.6842719E-03  -1.1521341E-02   0.0000000E+00  -8.5220682E-03  -2.7206948E-03   0.0000000E+00  -3.4296431E-03  -6.5282728E-03   0.0000000E+00  -7.0181680E-03  -1.3355330E-02   0.0000000E+00  -1.0399013E-02  -3.0558947E-03   0.0000000E+00  -3.9609610E-03  -7.3806010E-03   0.0000000E+00  -8.0258148E-03  -1.5111642E-02   0.0000000E+00  -1.1774867E-02  -3.5014285E-03   0.0000000E+00  -4.3269168E-03  -8.4874714E-03   0.0000000E+00  -8.7052081E-03  -1.7344126E-02   0.0000000E+00  -1.2664495E-02  -4.2646714E-03   0.0000000E+00  -4.5933430E-03  -1.0286960E-02   0.0000000E+00  -9.1834869E-03  -2.0833172E-02   0.0000000E+00  -1.3276861E-02  -5.6140674E-03   0.0000000E+00  -4.8827822E-03  -1.3316507E-02   0.0000000E+00  -9.7199799E-03  -2.6495742E-02   0.0000000E+00  -1.4015738E-02  -7.9093082E-03   0.0000000E+00  -5.4474152E-03  -1.8218633E-02   0.0000000E+00  -1.0783646E-02  -3.5333198E-02   0.0000000E+00  -1.5534522E-02  -1.1546903E-02   0.0000000E+00  -6.8396972E-03  -2.5445810E-02   0.0000000E+00  -1.3195994E-02  -4.7843646E-02   0.0000000E+00  -1.8843658E-02  -1.6578646E-02   0.0000000E+00  -1.0225832E-02  -3.4299351E-02   0.0000000E+00  -1.8347353E-02  -6.2478904E-02   0.0000000E+00  -2.5464170E-02  -4.2806674E-02   0.0000000E+00  -2.8351594E-02  -7.5825311E-02   0.0000000E+00  -3.7476223E-02   0.0000000E+00   0.0000000E+00   0.0000000E+00   0.0000000E+00   0.0000000E+00   0.0000000E+00   0.0000000E+00   0.0000000E+00   0.0000000E+00   0.0000000E+00   0.0000000E+00   0.0000000E+00   0.0000000E+00   0.0000000E+00   0.0000000E+00   0.0000000E+00   0.0000000E+00   0.0000000E+00   0.0000000E+00   0.0000000E+00   0.0000000E+00   0.0000000E+00   0.0000000E+00   0.0000000E+00   0.0000000E+00   0.0000000E+00   0.0000000E+00   0.0000000E+00   0.0000000E+00   0.0000000E+00   0.0000000E+00   0.0000000E+00   0.0000000E+00   0.0000000E+00   0.0000000E+00   0.0000000E+00   0.0000000E+00   0.0000000E+00   0.0000000E+00   0.0000000E+00   0.0000000E+00   0.0000000E+00   0.0000000E+00   0.0000000E+00   0.0000000E+00   0.0000000E+00   0.0000000E+00   0.0000000E+00   0.0000000E+00   0.0000000E+00   0.0000000E+00   0.0000000E+00   0.0000000E+00   0.0000000E+00   0.0000000E+00   0.0000000E+00   0.0000000E+00   0.0000000E+00   0.0000000E+00   0.0000000E+00   0.0000000E+00   0.0000000E+00   0.0000000E+00   0.0000000E+00   0.0000000E+00   0.0000000E+00   0.0000000E+00   0.0000000E+00   0.0000000E+00   0.0000000E+00   0.0000000E+00   0.0000000E+00   0.0000000E+00   0.0000000E+00   0.0000000E+00  -3.4436468E-07   0.0000000E+00  -3.0934476E-08  -2.2786735E-06   0.0000000E+00  -1.0453279E-07  -5.5424839E-06   0.0000000E+00  -9.4936851E-08  -8.4272542E-06   0.0000000E+00  -1.1769290E-08  -1.0048003E-05   0.0000000E+00   2.3044995E-08  -1.1159847E-05   0.0000000E+00   2.7378899E-08  -1.2009251E-05   0.0000000E+00   2.8037924E-08  -1.5160644E-05   0.0000000E+00  -2.8830364E-06  -5.2272200E-05   0.0000000E+00  -6.2444069E-06  -1.1646442E-04   0.0000000E+00  -8.1082362E-06  -1.9903999E-04   0.0000000E+00  -7.0619085E-06  -2.8312553E-04   0.0000000E+00  -3.5253495E-06  -3.5320749E-04   0.0000000E+00   5.1511182E-07  -4.0266916E-04   0.0000000E+00   2.8855377E-06  -4.3556371E-04   0.0000000E+00   3.3572164E-06  -1.8062982E-04   0.0000000E+00  -4.1050866E-05  -4.1033639E-04   0.0000000E+00  -5.8562175E-05  -7.4461912E-04   0.0000000E+00  -6.2986670E-05  -1.1471059E-03   0.0000000E+00  -5.1679461E-05  -1.5564503E-03   0.0000000E+00  -2.8016060E-05  -1.9153804E-03   0.0000000E+00  -1.0086228E-06  -2.1945317E-03   0.0000000E+00   1.9476092E-05  -2.3941072E-03   0.0000000E+00   2.9314991E-05  -7.9475302E-04   0.0000000E+00  -2.0757894E-04  -1.5465899E-03   0.0000000E+00  -2.5331319E-04  -2.5745817E-03   0.0000000E+00  -2.5133402E-04  -3.7777510E-03   0.0000000E+00  -1.9917118E-04  -4.9941964E-03   0.0000000E+00  -1.0850815E-04  -6.0760812E-03   0.0000000E+00  -7.2353646E-06  -6.9438326E-03   0.0000000E+00   7.3419120E-05  -7.5883423E-03   0.0000000E+00   1.1878255E-04  -2.2422583E-03   0.0000000E+00  -6.5524509E-04  -4.0500863E-03   0.0000000E+00  -7.4138382E-04  -6.4498587E-03   0.0000000E+00  -7.0546789E-04  -9.2131263E-03   0.0000000E+00  -5.4719206E-04  -1.1990413E-02   0.0000000E+00  -2.9608596E-04  -1.4468402E-02   0.0000000E+00  -2.0123389E-05  -1.6478660E-02   0.0000000E+00   2.0372507E-04  -1.7996101E-02   0.0000000E+00   3.3692949E-04  -4.8119398E-03   0.0000000E+00  -1.5622057E-03  -8.3463313E-03   0.0000000E+00  -1.6972298E-03  -1.2965714E-02   0.0000000E+00  -1.5770353E-03  -1.8232306E-02   0.0000000E+00  -1.2045709E-03  -2.3488188E-02   0.0000000E+00  -6.4354873E-04  -2.8163064E-02   0.0000000E+00  -3.7161946E-05  -3.1963807E-02   0.0000000E+00   4.5665292E-04  -3.4849908E-02   0.0000000E+00   7.5855287E-04  -8.4717954E-03   0.0000000E+00  -3.0660105E-03  -1.4367679E-02   0.0000000E+00  -3.2585519E-03  -2.2012392E-02   0.0000000E+00  -2.9856532E-03  -3.0659985E-02   0.0000000E+00  -2.2490444E-03  -3.9205484E-02   0.0000000E+00  -1.1770760E-03  -4.6748202E-02   0.0000000E+00  -4.4087486E-05  -5.2862015E-02   0.0000000E+00   8.7178563E-04  -5.7504628E-02   0.0000000E+00   1.4380445E-03  -1.2814088E-02   0.0000000E+00  -5.1782834E-03  -2.1457953E-02   0.0000000E+00  -5.4393201E-03  -3.2586429E-02   0.0000000E+00  -4.9365140E-03  -4.5057669E-02   0.0000000E+00  -3.6587047E-03  -5.7214458E-02   0.0000000E+00  -1.8572857E-03  -6.7841418E-02   0.0000000E+00  -1.3506708E-05  -7.6407470E-02   0.0000000E+00   1.4554452E-03  -8.2885519E-02   0.0000000E+00   2.3660946E-03  -1.7181473E-02   0.0000000E+00  -7.7085434E-03  -2.8537560E-02   0.0000000E+00  -8.0384193E-03  -4.2967118E-02   0.0000000E+00  -7.2012511E-03  -2.1023545E-02   0.0000000E+00  -1.0261272E-02  -3.4675039E-02   0.0000000E+00  -1.0621415E-02  -2.4286753E-02   0.0000000E+00  -1.2396984E-02  -3.9849468E-02   0.0000000E+00  -1.2684839E-02  -2.7421705E-02   0.0000000E+00  -1.3885203E-02  -4.4836260E-02   0.0000000E+00  -1.4023484E-02  -3.1304833E-02   0.0000000E+00  -1.4778593E-02  -5.0823003E-02   0.0000000E+00  -1.4729558E-02  -3.7138142E-02   0.0000000E+00  -1.5364263E-02  -5.9405681E-02   0.0000000E+00  -1.5124904E-02  -4.6275999E-02   0.0000000E+00  -1.6148610E-02  -7.2296806E-02   0.0000000E+00  -1.5744058E-02  -6.0101539E-02   0.0000000E+00  -1.7899539E-02  -9.1082640E-02   0.0000000E+00  -1.7366745E-02  -7.9239383E-02   0.0000000E+00  -2.1763206E-02  -1.1639046E-01   0.0000000E+00  -2.1142235E-02  -1.0161064E-01   0.0000000E+00  -2.9448889E-02  -1.4603794E-01   0.0000000E+00  -2.8840121E-02  -1.2231509E-01   0.0000000E+00  -4.3246478E-02  -1.7460629E-01   0.0000000E+00  -4.2980973E-02   0.0000000E+00   0.0000000E+00   0.0000000E+00   0.0000000E+00   0.0000000E+00   0.0000000E+00   0.0000000E+00   0.0000000E+00   0.0000000E+00   0.0000000E+00   0.0000000E+00   0.0000000E+00   0.0000000E+00   0.0000000E+00   0.0000000E+00   0.0000000E+00   0.0000000E+00   0.0000000E+00   0.0000000E+00   0.0000000E+00   0.0000000E+00   0.0000000E+00   0.0000000E+00   0.0000000E+00   0.0000000E+00   0.0000000E+00   0.0000000E+00   0.0000000E+00   0.0000000E+00   0.0000000E+00   0.0000000E+00   0.0000000E+00   0.0000000E+00   0.0000000E+00   0.0000000E+00   0.0000000E+00   0.0000000E+00   0.0000000E+00   0.0000000E+00   0.0000000E+00   0.0000000E+00   0.0000000E+00   0.0000000E+00   0.0000000E+00   0.0000000E+00   0.0000000E+00   0.0000000E+00   0.0000000E+00   0.0000000E+00   0.0000000E+00   0.0000000E+00   0.0000000E+00   0.0000000E+00   0.0000000E+00   0.0000000E+00   0.0000000E+00   0.0000000E+00   0.0000000E+00   0.0000000E+00   0.0000000E+00   0.0000000E+00   0.0000000E+00   0.0000000E+00   0.0000000E+00   0.0000000E+00   0.0000000E+00   0.0000000E+00   0.0000000E+00   0.0000000E+00   0.0000000E+00   0.0000000E+00   0.0000000E+00   0.0000000E+00   0.0000000E+00   0.0000000E+00   0.0000000E+00   0.0000000E+00   0.0000000E+00   0.0000000E+00   0.0000000E+00   0.0000000E+00  -1.2622916E-05   0.0000000E+00   2.6652721E-08  -1.3041053E-05   0.0000000E+00   2.4129546E-08  -1.3306485E-05   0.0000000E+00   2.1064713E-08  -1.3459803E-05   0.0000000E+00   1.8169835E-08  -1.3536312E-05   0.0000000E+00   1.5489995E-08  -1.3564328E-05   0.0000000E+00   1.3040078E-08  -1.3565497E-05   0.0000000E+00   1.1016446E-08  -1.3555697E-05   0.0000000E+00   9.4896482E-09  -1.3545714E-05   0.0000000E+00   8.5429761E-09  -4.5913347E-04   0.0000000E+00   3.2591820E-06  -4.7561491E-04   0.0000000E+00   2.9935936E-06  -4.8643589E-04   0.0000000E+00   2.6550833E-06  -4.9300614E-04   0.0000000E+00   2.3022994E-06  -4.9657898E-04   0.0000000E+00   1.9685453E-06  -4.9819448E-04   0.0000000E+00   1.6726583E-06  -4.9866916E-04   0.0000000E+00   1.4257522E-06  -4.9860275E-04   0.0000000E+00   1.2399529E-06  -4.9840525E-04   0.0000000E+00   1.1249329E-06  -2.5308034E-03   0.0000000E+00   3.0461451E-05  -2.6252607E-03   0.0000000E+00   2.8419219E-05  -2.6882626E-03   0.0000000E+00   2.5477315E-05  -2.7273681E-03   0.0000000E+00   2.2267399E-05  -2.7494167E-03   0.0000000E+00   1.9164978E-05  -2.7601453E-03   0.0000000E+00   1.6389438E-05  -2.7640895E-03   0.0000000E+00   1.4085129E-05  -2.7646215E-03   0.0000000E+00   1.2355428E-05  -2.7640495E-03   0.0000000E+00   1.1282024E-05  -8.0422275E-03   0.0000000E+00   1.3255909E-04  -8.3514331E-03   0.0000000E+00   1.2707798E-04  -8.5575264E-03   0.0000000E+00   1.1515399E-04  -8.6868862E-03   0.0000000E+00   1.0144604E-04  -8.7611359E-03   0.0000000E+00   8.7897963E-05  -8.7985098E-03   0.0000000E+00   7.5672346E-05  -8.8134715E-03   0.0000000E+00   6.5491986E-05  -8.8168215E-03   0.0000000E+00   5.7859092E-05  -8.8159647E-03   0.0000000E+00   5.3128118E-05  -1.9082654E-02   0.0000000E+00   3.8633758E-04  -1.9829616E-02   0.0000000E+00   3.8078570E-04  -2.0324033E-02   0.0000000E+00   3.4900324E-04  -2.0635216E-02   0.0000000E+00   3.0988458E-04  -2.0814966E-02   0.0000000E+00   2.7028113E-04  -2.0906541E-02   0.0000000E+00   2.3415709E-04  -2.0944286E-02   0.0000000E+00   2.0395505E-04  -2.0953823E-02   0.0000000E+00   1.8128054E-04  -2.0952722E-02   0.0000000E+00   1.6722985E-04  -3.6931127E-02   0.0000000E+00   8.7992894E-04  -3.8370386E-02   0.0000000E+00   8.7981875E-04  -3.9322574E-02   0.0000000E+00   8.1630732E-04  -3.9918993E-02   0.0000000E+00   7.3023874E-04  -4.0262513E-02   0.0000000E+00   6.4101687E-04  -4.0436849E-02   0.0000000E+00   5.5868458E-04  -4.0508073E-02   0.0000000E+00   4.8948557E-04  -4.0525492E-02   0.0000000E+00   4.3742705E-04  -4.0522862E-02   0.0000000E+00   4.0514569E-04  -6.0855497E-02   0.0000000E+00   1.6754461E-03  -6.3173592E-02   0.0000000E+00   1.6874708E-03  -6.4704448E-02   0.0000000E+00   1.5798931E-03  -6.5655433E-02   0.0000000E+00   1.4230887E-03  -6.6196874E-02   0.0000000E+00   1.2569043E-03  -6.6466168E-02   0.0000000E+00   1.1017913E-03  -6.6571176E-02   0.0000000E+00   9.7068102E-04  -6.6592015E-02   0.0000000E+00   8.7178487E-04  -6.6583402E-02   0.0000000E+00   8.1039418E-04  -8.7541498E-02   0.0000000E+00   2.7571176E-03  -9.0746760E-02   0.0000000E+00   2.7881509E-03  -9.2849985E-02   0.0000000E+00   2.6268186E-03  -9.4140366E-02   0.0000000E+00   2.3818042E-03  -9.4859548E-02   0.0000000E+00   2.1165018E-03  -9.5203273E-02   0.0000000E+00   1.8661085E-03  -9.5324226E-02   0.0000000E+00   1.6532318E-03  -9.5334955E-02   0.0000000E+00   1.4921875E-03  -9.5311858E-02   0.0000000E+00   1.3920848E-03   0.0000000E+00   0.0000000E+00   0.0000000E+00   0.0000000E+00   0.0000000E+00   0.0000000E+00   0.0000000E+00   0.0000000E+00   0.0000000E+00   0.0000000E+00   0.0000000E+00   0.0000000E+00   0.0000000E+00   0.0000000E+00   0.0000000E+00   0.0000000E+00   0.0000000E+00   0.0000000E+00   0.0000000E+00   0.0000000E+00   0.0000000E+00   0.0000000E+00   0.0000000E+00   0.0000000E+00   0.0000000E+00   0.0000000E+00   0.0000000E+00   0.0000000E+00   0.0000000E+00   0.0000000E+00   0.0000000E+00   0.0000000E+00   0.0000000E+00   0.0000000E+00   0.0000000E+00   0.0000000E+00   0.0000000E+00   0.0000000E+00   0.0000000E+00   0.0000000E+00   0.0000000E+00   0.0000000E+00   0.0000000E+00   0.0000000E+00   0.0000000E+00   0.0000000E+00   0.0000000E+00   0.0000000E+00   0.0000000E+00   0.0000000E+00   0.0000000E+00   0.0000000E+00   0.0000000E+00   0.0000000E+00   0.0000000E+00   0.0000000E+00   0.0000000E+00   0.0000000E+00   0.0000000E+00   0.0000000E+00   0.0000000E+00   0.0000000E+00   0.0000000E+00   0.0000000E+00   0.0000000E+00   0.0000000E+00   0.0000000E+00   0.0000000E+00   0.0000000E+00   0.0000000E+00   0.0000000E+00   0.0000000E+00  -1.3541700E-05   0.0000000E+00   8.2294846E-09  -1.3545716E-05   0.0000000E+00   8.5429583E-09  -1.3555693E-05   0.0000000E+00   9.4896304E-09  -1.3565495E-05   0.0000000E+00   1.1016457E-08  -1.3564329E-05   0.0000000E+00   1.3040102E-08  -1.3536315E-05   0.0000000E+00   1.5490031E-08  -1.3459809E-05   0.0000000E+00   1.8169841E-08  -1.3306486E-05   0.0000000E+00   2.1064709E-08  -4.9831363E-04   0.0000000E+00   1.0859097E-06  -4.9840542E-04   0.0000000E+00   1.1249319E-06  -4.9860269E-04   0.0000000E+00   1.2399523E-06  -4.9866916E-04   0.0000000E+00   1.4257525E-06  -4.9819442E-04   0.0000000E+00   1.6726600E-06  -4.9657887E-04   0.0000000E+00   1.9685467E-06  -4.9300614E-04   0.0000000E+00   2.3023013E-06  -4.8643604E-04   0.0000000E+00   2.6550856E-06  -2.7637109E-03   0.0000000E+00   1.0918564E-05  -2.7640490E-03   0.0000000E+00   1.1282023E-05  -2.7646220E-03   0.0000000E+00   1.2355432E-05  -2.7640900E-03   0.0000000E+00   1.4085140E-05  -2.7601451E-03   0.0000000E+00   1.6389449E-05  -2.7494170E-03   0.0000000E+00   1.9164989E-05  -2.7273677E-03   0.0000000E+00   2.2267415E-05  -2.6882635E-03   0.0000000E+00   2.5477324E-05  -8.8152066E-03   0.0000000E+00   5.1524661E-05  -8.8159638E-03   0.0000000E+00   5.3128140E-05  -8.8168215E-03   0.0000000E+00   5.7859121E-05  -8.8134715E-03   0.0000000E+00   6.5492051E-05  -8.7985098E-03   0.0000000E+00   7.5672389E-05  -8.7611368E-03   0.0000000E+00   8.7898043E-05  -8.6868871E-03   0.0000000E+00   1.0144609E-04  -8.5575264E-03   0.0000000E+00   1.1515406E-04  -2.0951238E-02   0.0000000E+00   1.6247020E-04  -2.0952718E-02   0.0000000E+00   1.6722991E-04  -2.0953827E-02   0.0000000E+00   1.8128060E-04  -2.0944282E-02   0.0000000E+00   2.0395519E-04  -2.0906540E-02   0.0000000E+00   2.3415728E-04  -2.0814965E-02   0.0000000E+00   2.7028137E-04  -2.0635212E-02   0.0000000E+00   3.0988487E-04  -2.0324025E-02   0.0000000E+00   3.4900327E-04  -4.0519878E-02   0.0000000E+00   3.9420731E-04  -4.0522877E-02   0.0000000E+00   4.0514598E-04  -4.0525518E-02   0.0000000E+00   4.3742752E-04  -4.0508091E-02   0.0000000E+00   4.8948615E-04  -4.0436856E-02   0.0000000E+00   5.5868516E-04  -4.0262535E-02   0.0000000E+00   6.4101745E-04  -3.9918985E-02   0.0000000E+00   7.3023885E-04  -3.9322585E-02   0.0000000E+00   8.1630744E-04  -6.6577040E-02   0.0000000E+00   7.8958599E-04  -6.6583402E-02   0.0000000E+00   8.1039476E-04  -6.6592015E-02   0.0000000E+00   8.7178539E-04  -6.6571169E-02   0.0000000E+00   9.7068172E-04  -6.6466168E-02   0.0000000E+00   1.1017923E-03  -6.6196866E-02   0.0000000E+00   1.2569055E-03  -6.5655425E-02   0.0000000E+00   1.4230894E-03  -6.4704463E-02   0.0000000E+00   1.5798932E-03  -9.5299393E-02   0.0000000E+00   1.3581438E-03  -9.5311880E-02   0.0000000E+00   1.3920852E-03  -9.5334947E-02   0.0000000E+00   1.4921888E-03  -9.5324248E-02   0.0000000E+00   1.6532332E-03  -9.5203258E-02   0.0000000E+00   1.8661094E-03  -9.4859555E-02   0.0000000E+00   2.1165032E-03  -9.4140366E-02   0.0000000E+00   2.3818056E-03  -9.2850022E-02   0.0000000E+00   2.6268193E-03   0.0000000E+00   0.0000000E+00   0.0000000E+00   0.0000000E+00   0.0000000E+00   0.0000000E+00   0.0000000E+00   0.0000000E+00   0.0000000E+00   0.0000000E+00   0.0000000E+00   0.0000000E+00   0.0000000E+00   0.0000000E+00   0.0000000E+00   0.0000000E+00   0.0000000E+00   0.0000000E+00   0.0000000E+00   0.0000000E+00   0.0000000E+00   0.0000000E+00   0.0000000E+00   0.0000000E+00   0.0000000E+00   0.0000000E+00   0.0000000E+00   0.0000000E+00   0.0000000E+00   0.0000000E+00   0.0000000E+00   0.0000000E+00   0.0000000E+00   0.0000000E+00   0.0000000E+00   0.0000000E+00   0.0000000E+00   0.0000000E+00   0.0000000E+00   0.0000000E+00   0.0000000E+00   0.0000000E+00   0.0000000E+00   0.0000000E+00   0.0000000E+00   0.0000000E+00   0.0000000E+00   0.0000000E+00   0.0000000E+00   0.0000000E+00   0.0000000E+00   0.0000000E+00   0.0000000E+00   0.0000000E+00   0.0000000E+00   0.0000000E+00   0.0000000E+00   0.0000000E+00   0.0000000E+00   0.0000000E+00   0.0000000E+00   0.0000000E+00   0.0000000E+00   0.0000000E+00   0.0000000E+00   0.0000000E+00   0.0000000E+00   0.0000000E+00   0.0000000E+00   0.0000000E+00   0.0000000E+00   0.0000000E+00   0.0000000E+00   0.0000000E+00   0.0000000E+00   0.0000000E+00   0.0000000E+00   0.0000000E+00   0.0000000E+00   0.0000000E+00   0.0000000E+00  -1.3041053E-05   0.0000000E+00   2.4129580E-08  -1.2622913E-05   0.0000000E+00   2.6652756E-08  -1.2009255E-05   0.0000000E+00   2.8037908E-08  -1.1159841E-05   0.0000000E+00   2.7378862E-08  -1.0048003E-05   0.0000000E+00   2.3044997E-08  -8.4272533E-06   0.0000000E+00  -1.1769281E-08  -5.5424880E-06   0.0000000E+00  -9.4936865E-08  -2.2786746E-06   0.0000000E+00  -1.0453277E-07  -3.4436474E-07   0.0000000E+00  -3.0934480E-08  -4.7561491E-04   0.0000000E+00   2.9935950E-06  -4.5913359E-04   0.0000000E+00   3.2591827E-06  -4.3556359E-04   0.0000000E+00   3.3572148E-06  -4.0266910E-04   0.0000000E+00   2.8855359E-06  -3.5320740E-04   0.0000000E+00   5.1511068E-07  -2.8312547E-04   0.0000000E+00  -3.5253493E-06  -1.9904003E-04   0.0000000E+00  -7.0619089E-06  -1.1646446E-04   0.0000000E+00  -8.1082362E-06  -5.2272200E-05   0.0000000E+00  -6.2444055E-06  -2.6252612E-03   0.0000000E+00   2.8419228E-05  -2.5308041E-03   0.0000000E+00   3.0461450E-05  -2.3941081E-03   0.0000000E+00   2.9314971E-05  -2.1945315E-03   0.0000000E+00   1.9476076E-05  -1.9153801E-03   0.0000000E+00  -1.0086310E-06  -1.5564502E-03   0.0000000E+00  -2.8016069E-05  -1.1471057E-03   0.0000000E+00  -5.1679461E-05  -7.4461923E-04   0.0000000E+00  -6.2986677E-05  -4.1033656E-04   0.0000000E+00  -5.8562197E-05  -8.3514359E-03   0.0000000E+00   1.2707796E-04  -8.0422265E-03   0.0000000E+00   1.3255906E-04  -7.5883409E-03   0.0000000E+00   1.1878255E-04  -6.9438317E-03   0.0000000E+00   7.3419083E-05  -6.0760817E-03   0.0000000E+00  -7.2353891E-06  -4.9941959E-03   0.0000000E+00  -1.0850810E-04  -3.7777522E-03   0.0000000E+00  -1.9917115E-04  -2.5745814E-03   0.0000000E+00  -2.5133396E-04  -1.5465905E-03   0.0000000E+00  -2.5331319E-04  -1.9829609E-02   0.0000000E+00   3.8078590E-04  -1.9082654E-02   0.0000000E+00   3.8633769E-04  -1.7996097E-02   0.0000000E+00   3.3692952E-04  -1.6478652E-02   0.0000000E+00   2.0372485E-04  -1.4468402E-02   0.0000000E+00  -2.0123407E-05  -1.1990412E-02   0.0000000E+00  -2.9608599E-04  -9.2131272E-03   0.0000000E+00  -5.4719229E-04  -6.4498573E-03   0.0000000E+00  -7.0546812E-04  -4.0500867E-03   0.0000000E+00  -7.4138382E-04  -3.8370401E-02   0.0000000E+00   8.7981886E-04  -3.6931124E-02   0.0000000E+00   8.7992888E-04  -3.4849897E-02   0.0000000E+00   7.5855321E-04  -3.1963799E-02   0.0000000E+00   4.5665290E-04  -2.8163053E-02   0.0000000E+00  -3.7161859E-05  -2.3488190E-02   0.0000000E+00  -6.4354867E-04  -1.8232306E-02   0.0000000E+00  -1.2045706E-03  -1.2965719E-02   0.0000000E+00  -1.5770355E-03  -8.3463332E-03   0.0000000E+00  -1.6972298E-03  -6.3173585E-02   0.0000000E+00   1.6874722E-03  -6.0855493E-02   0.0000000E+00   1.6754464E-03  -5.7504632E-02   0.0000000E+00   1.4380447E-03  -5.2862011E-02   0.0000000E+00   8.7178499E-04  -4.6748191E-02   0.0000000E+00  -4.4087523E-05  -3.9205469E-02   0.0000000E+00  -1.1770761E-03  -3.0659983E-02   0.0000000E+00  -2.2490444E-03  -2.2012394E-02   0.0000000E+00  -2.9856535E-03  -1.4367682E-02   0.0000000E+00  -3.2585515E-03  -9.0746760E-02   0.0000000E+00   2.7881505E-03  -8.7541528E-02   0.0000000E+00   2.7571179E-03  -8.2885519E-02   0.0000000E+00   2.3660944E-03  -7.6407455E-02   0.0000000E+00   1.4554448E-03  -6.7841403E-02   0.0000000E+00  -1.3506591E-05  -5.7214461E-02   0.0000000E+00  -1.8572855E-03  -4.5057669E-02   0.0000000E+00  -3.6587059E-03  -3.2586429E-02   0.0000000E+00  -4.9365140E-03  -2.1457963E-02   0.0000000E+00  -5.4393192E-03  -4.2967103E-02   0.0000000E+00  -7.2012516E-03  -2.8537557E-02   0.0000000E+00  -8.0384156E-03  -3.4675047E-02   0.0000000E+00  -1.0621415E-02  -3.9849471E-02   0.0000000E+00  -1.2684841E-02  -4.4836272E-02   0.0000000E+00  -1.4023484E-02  -5.0823014E-02   0.0000000E+00  -1.4729558E-02  -5.9405707E-02   0.0000000E+00  -1.5124906E-02  -7.2296821E-02   0.0000000E+00  -1.5744060E-02  -9.1082633E-02   0.0000000E+00  -1.7366741E-02  -1.1639049E-01   0.0000000E+00  -2.1142237E-02  -1.4603794E-01   0.0000000E+00  -2.8840117E-02  -1.7460637E-01   0.0000000E+00  -4.2980973E-02   0.0000000E+00   0.0000000E+00   0.0000000E+00   0.0000000E+00   0.0000000E+00   0.0000000E+00   0.0000000E+00   0.0000000E+00   0.0000000E+00   0.0000000E+00   0.0000000E+00   0.0000000E+00   0.0000000E+00   0.0000000E+00   0.0000000E+00   0.0000000E+00   0.0000000E+00   0.0000000E+00   0.0000000E+00   0.0000000E+00   0.0000000E+00   0.0000000E+00   0.0000000E+00   0.0000000E+00   0.0000000E+00   0.0000000E+00   0.0000000E+00   0.0000000E+00   0.0000000E+00   0.0000000E+00   0.0000000E+00   0.0000000E+00   0.0000000E+00   0.0000000E+00   0.0000000E+00   0.0000000E+00   0.0000000E+00   0.0000000E+00   0.0000000E+00   0.0000000E+00   0.0000000E+00   0.0000000E+00   0.0000000E+00   0.0000000E+00   0.0000000E+00  -1.5160645E-05   0.0000000E+00  -2.8830350E-06  -1.6461606E-06   0.0000000E+00  -4.5563806E-07   0.0000000E+00   0.0000000E+00   0.0000000E+00   0.0000000E+00   0.0000000E+00   0.0000000E+00  -1.8062987E-04   0.0000000E+00  -4.1050866E-05  -5.5503693E-05   0.0000000E+00  -1.8673616E-05  -7.7073864E-06   0.0000000E+00  -3.3110227E-06  -5.3090109E-16   0.0000000E+00  -2.3087556E-16  -7.9475343E-04   0.0000000E+00  -2.0757885E-04  -3.2999457E-04   0.0000000E+00  -1.2881328E-04  -9.6564130E-05   0.0000000E+00  -4.9283484E-05  -1.3080989E-05   0.0000000E+00  -6.9473103E-06  -2.2422587E-03   0.0000000E+00  -6.5524486E-04  -1.0623587E-03   0.0000000E+00  -4.6653126E-04  -4.0302079E-04   0.0000000E+00  -2.3396000E-04  -1.0346844E-04   0.0000000E+00  -6.4338114E-05  -4.8119407E-03   0.0000000E+00  -1.5622053E-03  -2.4421201E-03   0.0000000E+00  -1.1950450E-03  -1.0494058E-03   0.0000000E+00  -6.8381918E-04  -3.4766275E-04   0.0000000E+00  -2.4627289E-04  -8.4717972E-03   0.0000000E+00  -3.0660101E-03  -4.4659241E-03   0.0000000E+00  -2.4398498E-03  -2.0511912E-03   0.0000000E+00  -1.5006125E-03  -7.7080162E-04   0.0000000E+00  -6.2052550E-04  -1.2814089E-02   0.0000000E+00  -5.1782839E-03  -6.8964600E-03   0.0000000E+00  -4.2107692E-03  -3.2827232E-03   0.0000000E+00  -2.6988876E-03  -1.3165659E-03   0.0000000E+00  -1.2065853E-03  -1.7181471E-02   0.0000000E+00  -7.7085439E-03  -9.3529616E-03   0.0000000E+00  -6.3445000E-03  -4.5329612E-03   0.0000000E+00  -4.1663647E-03  -1.8750490E-03   0.0000000E+00  -1.9498311E-03  -2.1023549E-02   0.0000000E+00  -1.0261273E-02  -1.1521337E-02   0.0000000E+00  -8.5220682E-03  -5.6257774E-03   0.0000000E+00  -5.6842701E-03  -2.3503632E-03   0.0000000E+00  -2.7333822E-03  -2.4286749E-02   0.0000000E+00  -1.2396984E-02  -1.3355331E-02   0.0000000E+00  -1.0399010E-02  -6.5282704E-03   0.0000000E+00  -7.0181685E-03  -2.7206952E-03   0.0000000E+00  -3.4296426E-03  -2.7421702E-02   0.0000000E+00  -1.3885204E-02  -1.5111643E-02   0.0000000E+00  -1.1774865E-02  -7.3805996E-03   0.0000000E+00  -8.0258148E-03  -3.0558943E-03   0.0000000E+00  -3.9609610E-03  -3.1304844E-02   0.0000000E+00  -1.4778594E-02  -1.7344125E-02   0.0000000E+00  -1.2664495E-02  -8.4874742E-03   0.0000000E+00  -8.7052099E-03  -3.5014285E-03   0.0000000E+00  -4.3269168E-03  -3.7138149E-02   0.0000000E+00  -1.5364265E-02  -2.0833174E-02   0.0000000E+00  -1.3276860E-02  -1.0286966E-02   0.0000000E+00  -9.1834869E-03  -4.2646718E-03   0.0000000E+00  -4.5933435E-03  -4.6275992E-02   0.0000000E+00  -1.6148610E-02  -2.6495744E-02   0.0000000E+00  -1.4015743E-02  -1.3316508E-02   0.0000000E+00  -9.7199799E-03  -5.6140688E-03   0.0000000E+00  -4.8827832E-03  -6.0101546E-02   0.0000000E+00  -1.7899539E-02  -3.5333201E-02   0.0000000E+00  -1.5534524E-02  -1.8218635E-02   0.0000000E+00  -1.0783643E-02  -7.9093082E-03   0.0000000E+00  -5.4474170E-03  -7.9239383E-02   0.0000000E+00  -2.1763207E-02  -4.7843643E-02   0.0000000E+00  -1.8843662E-02  -2.5445808E-02   0.0000000E+00  -1.3195997E-02  -1.1546903E-02   0.0000000E+00  -6.8396982E-03  -1.0161063E-01   0.0000000E+00  -2.9448887E-02  -6.2478907E-02   0.0000000E+00  -2.5464172E-02  -3.4299355E-02   0.0000000E+00  -1.8347351E-02  -1.6578648E-02   0.0000000E+00  -1.0225832E-02  -1.2231506E-01   0.0000000E+00  -4.3246485E-02  -7.5825319E-02   0.0000000E+00  -3.7476223E-02  -4.2806666E-02   0.0000000E+00  -2.8351590E-02   0.0000000E+00   0.0000000E+00   0.0000000E+00   0.0000000E+00   0.0000000E+00   0.0000000E+00   0.0000000E+00   0.0000000E+00   0.0000000E+00   0.0000000E+00   0.0000000E+00   0.0000000E+00   0.0000000E+00   0.0000000E+00   0.0000000E+00   0.0000000E+00   0.0000000E+00   0.0000000E+00   0.0000000E+00   0.0000000E+00   0.0000000E+00   0.0000000E+00   0.0000000E+00   0.0000000E+00   0.0000000E+00   0.0000000E+00   0.0000000E+00   0.0000000E+00   0.0000000E+00   0.0000000E+00   0.0000000E+00   0.0000000E+00   0.0000000E+00   0.0000000E+00   0.0000000E+00   0.0000000E+00   0.0000000E+00   0.0000000E+00   0.0000000E+00   0.0000000E+00   0.0000000E+00   0.0000000E+00   0.0000000E+00   0.0000000E+00   0.0000000E+00   0.0000000E+00   0.0000000E+00   0.0000000E+00   0.0000000E+00   0.0000000E+00   0.0000000E+00   0.0000000E+00   0.0000000E+00   0.0000000E+00   0.0000000E+00   0.0000000E+00   0.0000000E+00   0.0000000E+00   0.0000000E+00   0.0000000E+00   0.0000000E+00   0.0000000E+00   0.0000000E+00   0.0000000E+00   0.0000000E+00   0.0000000E+00   0.0000000E+00   0.0000000E+00   0.0000000E+00   0.0000000E+00   0.0000000E+00   0.0000000E+00   0.0000000E+00   0.0000000E+00   0.0000000E+00   0.0000000E+00   0.0000000E+00   0.0000000E+00   0.0000000E+00   0.0000000E+00   0.0000000E+00   0.0000000E+00   0.0000000E+00   0.0000000E+00   0.0000000E+00   0.0000000E+00   0.0000000E+00   0.0000000E+00   0.0000000E+00   0.0000000E+00   0.0000000E+00   0.0000000E+00   0.0000000E+00   0.0000000E+00   0.0000000E+00   0.0000000E+00   0.0000000E+00   0.0000000E+00   0.0000000E+00   0.0000000E+00   0.0000000E+00   0.0000000E+00   0.0000000E+00   0.0000000E+00   0.0000000E+00   0.0000000E+00   0.0000000E+00   0.0000000E+00   0.0000000E+00   0.0000000E+00   0.0000000E+00   0.0000000E+00   0.0000000E+00   0.0000000E+00   0.0000000E+00   0.0000000E+00   0.0000000E+00   0.0000000E+00   0.0000000E+00   0.0000000E+00   0.0000000E+00   0.0000000E+00   0.0000000E+00   0.0000000E+00   0.0000000E+00   0.0000000E+00   0.0000000E+00   0.0000000E+00   0.0000000E+00   0.0000000E+00   0.0000000E+00   0.0000000E+00   0.0000000E+00   0.0000000E+00   0.0000000E+00   0.0000000E+00   0.0000000E+00   0.0000000E+00   0.0000000E+00   0.0000000E+00   0.0000000E+00   0.0000000E+00   0.0000000E+00   0.0000000E+00   0.0000000E+00   0.0000000E+00   0.0000000E+00   0.0000000E+00   0.0000000E+00   0.0000000E+00   0.0000000E+00   0.0000000E+00   0.0000000E+00   0.0000000E+00   0.0000000E+00   0.0000000E+00   0.0000000E+00   0.0000000E+00   0.0000000E+00   0.0000000E+00   0.0000000E+00   0.0000000E+00   0.0000000E+00   0.0000000E+00   0.0000000E+00   0.0000000E+00   0.0000000E+00   0.0000000E+00   0.0000000E+00   0.0000000E+00   0.0000000E+00   0.0000000E+00   0.0000000E+00   0.0000000E+00   0.0000000E+00   0.0000000E+00   0.0000000E+00   0.0000000E+00   0.0000000E+00   0.0000000E+00   0.0000000E+00   0.0000000E+00   0.0000000E+00   0.0000000E+00   0.0000000E+00   0.0000000E+00   0.0000000E+00   0.0000000E+00   0.0000000E+00   0.0000000E+00   0.0000000E+00   0.0000000E+00   0.0000000E+00   0.0000000E+00   0.0000000E+00   0.0000000E+00   0.0000000E+00   0.0000000E+00   0.0000000E+00   0.0000000E+00   0.0000000E+00   0.0000000E+00   0.0000000E+00   0.0000000E+00   0.0000000E+00   0.0000000E+00   0.0000000E+00   0.0000000E+00   0.0000000E+00   0.0000000E+00   0.0000000E+00   0.0000000E+00   0.0000000E+00   0.0000000E+00   0.0000000E+00   0.0000000E+00   0.0000000E+00   0.0000000E+00   0.0000000E+00   0.0000000E+00   0.0000000E+00   0.0000000E+00   0.0000000E+00   0.0000000E+00   0.0000000E+00   0.0000000E+00   0.0000000E+00   0.0000000E+00   0.0000000E+00   0.0000000E+00   0.0000000E+00   0.0000000E+00   0.0000000E+00   0.0000000E+00   0.0000000E+00   0.0000000E+00   0.0000000E+00   0.0000000E+00   0.0000000E+00   0.0000000E+00   0.0000000E+00   0.0000000E+00   0.0000000E+00   0.0000000E+00   0.0000000E+00   0.0000000E+00   0.0000000E+00   0.0000000E+00   0.0000000E+00   0.0000000E+00   0.0000000E+00   0.0000000E+00   0.0000000E+00   0.0000000E+00   0.0000000E+00   0.0000000E+00   0.0000000E+00   0.0000000E+00   0.0000000E+00   0.0000000E+00   0.0000000E+00   0.0000000E+00   0.0000000E+00   0.0000000E+00   0.0000000E+00   0.0000000E+00   0.0000000E+00   0.0000000E+00   0.0000000E+00   0.0000000E+00   0.0000000E+00   0.0000000E+00   0.0000000E+00   0.0000000E+00   0.0000000E+00   0.0000000E+00   0.0000000E+00   0.0000000E+00   0.0000000E+00   0.0000000E+00   0.0000000E+00   0.0000000E+00   0.0000000E+00   0.0000000E+00   0.0000000E+00   0.0000000E+00   0.0000000E+00   0.0000000E+00   0.0000000E+00   0.0000000E+00   0.0000000E+00   0.0000000E+00   0.0000000E+00   0.0000000E+00   0.0000000E+00   0.0000000E+00   0.0000000E+00   0.0000000E+00   0.0000000E+00   0.0000000E+00   0.0000000E+00   0.0000000E+00   0.0000000E+00   0.0000000E+00   0.0000000E+00   0.0000000E+00   0.0000000E+00   0.0000000E+00   0.0000000E+00   0.0000000E+00   0.0000000E+00   0.0000000E+00   0.0000000E+00   0.0000000E+00   0.0000000E+00   0.0000000E+00   0.0000000E+00   0.0000000E+00   0.0000000E+00   0.0000000E+00   0.0000000E+00   0.0000000E+00   0.0000000E+00   0.0000000E+00   0.0000000E+00   0.0000000E+00   0.0000000E+00   0.0000000E+00   0.0000000E+00   0.0000000E+00   0.0000000E+00   0.0000000E+00   0.0000000E+00   0.0000000E+00   0.0000000E+00   0.0000000E+00   0.0000000E+00   0.0000000E+00   0.0000000E+00   0.0000000E+00   0.0000000E+00   0.0000000E+00   0.0000000E+00   0.0000000E+00   0.0000000E+00   0.0000000E+00   0.0000000E+00   0.0000000E+00   0.0000000E+00   0.0000000E+00   0.0000000E+00   0.0000000E+00   0.0000000E+00   0.0000000E+00   0.0000000E+00   0.0000000E+00   0.0000000E+00   0.0000000E+00   0.0000000E+00   0.0000000E+00   0.0000000E+00   0.0000000E+00   0.0000000E+00   0.0000000E+00   0.0000000E+00   0.0000000E+00   0.0000000E+00   0.0000000E+00   0.0000000E+00   0.0000000E+00   0.0000000E+00   0.0000000E+00   0.0000000E+00   0.0000000E+00   0.0000000E+00   0.0000000E+00   0.0000000E+00   0.0000000E+00   0.0000000E+00   0.0000000E+00   0.0000000E+00   0.0000000E+00   0.0000000E+00   0.0000000E+00   0.0000000E+00   0.0000000E+00   0.0000000E+00   0.0000000E+00   0.0000000E+00   0.0000000E+00   0.0000000E+00   0.0000000E+00   0.0000000E+00   0.0000000E+00   0.0000000E+00   0.0000000E+00   0.0000000E+00   0.0000000E+00   0.0000000E+00   0.0000000E+00   0.0000000E+00   0.0000000E+00   0.0000000E+00   0.0000000E+00   0.0000000E+00   0.0000000E+00   0.0000000E+00   0.0000000E+00   0.0000000E+00   0.0000000E+00   0.0000000E+00   0.0000000E+00   0.0000000E+00   0.0000000E+00   0.0000000E+00   0.0000000E+00   0.0000000E+00   0.0000000E+00   0.0000000E+00   0.0000000E+00   0.0000000E+00   0.0000000E+00   0.0000000E+00   0.0000000E+00   0.0000000E+00   0.0000000E+00   0.0000000E+00   0.0000000E+00   0.0000000E+00   0.0000000E+00   0.0000000E+00   0.0000000E+00   0.0000000E+00   0.0000000E+00   0.0000000E+00   0.0000000E+00   0.0000000E+00   0.0000000E+00   0.0000000E+00   0.0000000E+00   0.0000000E+00   0.0000000E+00   0.0000000E+00   0.0000000E+00   0.0000000E+00   0.0000000E+00   0.0000000E+00   0.0000000E+00   0.0000000E+00   0.0000000E+00   0.0000000E+00   0.0000000E+00   0.0000000E+00   0.0000000E+00   0.0000000E+00   0.0000000E+00   0.0000000E+00   0.0000000E+00   0.0000000E+00   0.0000000E+00   0.0000000E+00   0.0000000E+00   0.0000000E+00   0.0000000E+00   0.0000000E+00   0.0000000E+00   0.0000000E+00   0.0000000E+00   0.0000000E+00   0.0000000E+00   0.0000000E+00   0.0000000E+00   0.0000000E+00   0.0000000E+00   0.0000000E+00   0.0000000E+00   0.0000000E+00   0.0000000E+00   0.0000000E+00   0.0000000E+00   0.0000000E+00   0.0000000E+00   0.0000000E+00   0.0000000E+00   0.0000000E+00   0.0000000E+00   0.0000000E+00   0.0000000E+00   0.0000000E+00   0.0000000E+00   0.0000000E+00   0.0000000E+00   0.0000000E+00   0.0000000E+00   0.0000000E+00   0.0000000E+00   0.0000000E+00   0.0000000E+00   0.0000000E+00   0.0000000E+00   0.0000000E+00   0.0000000E+00   0.0000000E+00   0.0000000E+00   0.0000000E+00   0.0000000E+00   0.0000000E+00   0.0000000E+00   0.0000000E+00   0.0000000E+00   0.0000000E+00   0.0000000E+00   0.0000000E+00   0.0000000E+00   0.0000000E+00   0.0000000E+00   0.0000000E+00   0.0000000E+00   0.0000000E+00   0.0000000E+00   0.0000000E+00   0.0000000E+00   0.0000000E+00   0.0000000E+00   0.0000000E+00   0.0000000E+00   0.0000000E+00   0.0000000E+00   0.0000000E+00   0.0000000E+00   0.0000000E+00   0.0000000E+00   0.0000000E+00   0.0000000E+00   0.0000000E+00   0.0000000E+00   0.0000000E+00   0.0000000E+00   0.0000000E+00   0.0000000E+00   0.0000000E+00   0.0000000E+00   0.0000000E+00   0.0000000E+00   0.0000000E+00   0.0000000E+00   0.0000000E+00   0.0000000E+00   0.0000000E+00   0.0000000E+00   0.0000000E+00   0.0000000E+00   0.0000000E+00   0.0000000E+00   0.0000000E+00   0.0000000E+00   0.0000000E+00   0.0000000E+00   0.0000000E+00   0.0000000E+00   0.0000000E+00   0.0000000E+00   0.0000000E+00   0.0000000E+00   0.0000000E+00   0.0000000E+00   0.0000000E+00   0.0000000E+00   0.0000000E+00   0.0000000E+00   0.0000000E+00   0.0000000E+00   0.0000000E+00   0.0000000E+00   0.0000000E+00   0.0000000E+00   0.0000000E+00   0.0000000E+00   0.0000000E+00   0.0000000E+00   0.0000000E+00   0.0000000E+00   0.0000000E+00   0.0000000E+00   0.0000000E+00   0.0000000E+00   0.0000000E+00   0.0000000E+00   0.0000000E+00   0.0000000E+00   0.0000000E+00   0.0000000E+00   0.0000000E+00   0.0000000E+00   0.0000000E+00   0.0000000E+00   0.0000000E+00   0.0000000E+00   0.0000000E+00   0.0000000E+00   0.0000000E+00   0.0000000E+00   0.0000000E+00   0.0000000E+00   0.0000000E+00   0.0000000E+00   0.0000000E+00   0.0000000E+00   0.0000000E+00   0.0000000E+00   0.0000000E+00   0.0000000E+00   0.0000000E+00   0.0000000E+00   0.0000000E+00   0.0000000E+00   0.0000000E+00   0.0000000E+00   0.0000000E+00   0.0000000E+00   0.0000000E+00   0.0000000E+00   0.0000000E+00   0.0000000E+00   0.0000000E+00   0.0000000E+00   0.0000000E+00   0.0000000E+00   0.0000000E+00   0.0000000E+00   0.0000000E+00   0.0000000E+00   0.0000000E+00   0.0000000E+00   0.0000000E+00   0.0000000E+00   0.0000000E+00   0.0000000E+00   0.0000000E+00   0.0000000E+00   0.0000000E+00   0.0000000E+00   0.0000000E+00   0.0000000E+00   0.0000000E+00   0.0000000E+00   0.0000000E+00   0.0000000E+00   0.0000000E+00   0.0000000E+00   0.0000000E+00   0.0000000E+00   0.0000000E+00   0.0000000E+00   0.0000000E+00   0.0000000E+00   0.0000000E+00   0.0000000E+00   0.0000000E+00   0.0000000E+00   0.0000000E+00   0.0000000E+00   0.0000000E+00   0.0000000E+00   0.0000000E+00   0.0000000E+00   0.0000000E+00   0.0000000E+00   0.0000000E+00   0.0000000E+00   0.0000000E+00   0.0000000E+00   0.0000000E+00   0.0000000E+00   0.0000000E+00   0.0000000E+00   0.0000000E+00   0.0000000E+00   0.0000000E+00   0.0000000E+00   0.0000000E+00   0.0000000E+00   0.0000000E+00   0.0000000E+00   0.0000000E+00   0.0000000E+00   0.0000000E+00   0.0000000E+00   0.0000000E+00   0.0000000E+00   0.0000000E+00   0.0000000E+00   0.0000000E+00   0.0000000E+00   0.0000000E+00   0.0000000E+00   0.0000000E+00   0.0000000E+00   0.0000000E+00   0.0000000E+00   0.0000000E+00   0.0000000E+00   0.0000000E+00   0.0000000E+00   0.0000000E+00   0.0000000E+00   0.0000000E+00   0.0000000E+00   0.0000000E+00   0.0000000E+00   0.0000000E+00   0.0000000E+00   0.0000000E+00   0.0000000E+00   0.0000000E+00   0.0000000E+00   0.0000000E+00   0.0000000E+00   0.0000000E+00   0.0000000E+00   0.0000000E+00   0.0000000E+00   0.0000000E+00   0.0000000E+00   0.0000000E+00   0.0000000E+00   0.0000000E+00   0.0000000E+00   0.0000000E+00   0.0000000E+00   0.0000000E+00   0.0000000E+00   0.0000000E+00   0.0000000E+00   0.0000000E+00   0.0000000E+00   0.0000000E+00   0.0000000E+00   0.0000000E+00   0.0000000E+00   0.0000000E+00   0.0000000E+00   0.0000000E+00   0.0000000E+00   0.0000000E+00   0.0000000E+00   0.0000000E+00   0.0000000E+00   0.0000000E+00   0.0000000E+00   0.0000000E+00   0.0000000E+00   0.0000000E+00   0.0000000E+00   0.0000000E+00   0.0000000E+00   0.0000000E+00   0.0000000E+00   0.0000000E+00   0.0000000E+00   0.0000000E+00   0.0000000E+00   0.0000000E+00   0.0000000E+00   0.0000000E+00   0.0000000E+00   0.0000000E+00   0.0000000E+00   0.0000000E+00   0.0000000E+00   0.0000000E+00   0.0000000E+00   0.0000000E+00   0.0000000E+00   0.0000000E+00   0.0000000E+00   0.0000000E+00   0.0000000E+00   0.0000000E+00   0.0000000E+00   0.0000000E+00   0.0000000E+00   0.0000000E+00   0.0000000E+00   0.0000000E+00   0.0000000E+00   0.0000000E+00   0.0000000E+00   0.0000000E+00   0.0000000E+00   0.0000000E+00   0.0000000E+00   0.0000000E+00   0.0000000E+00   0.0000000E+00   0.0000000E+00   0.0000000E+00   0.0000000E+00   0.0000000E+00   0.0000000E+00   0.0000000E+00   0.0000000E+00   0.0000000E+00   0.0000000E+00   0.0000000E+00   0.0000000E+00   0.0000000E+00   0.0000000E+00   0.0000000E+00   0.0000000E+00   0.0000000E+00   0.0000000E+00   0.0000000E+00   0.0000000E+00   0.0000000E+00   0.0000000E+00   0.0000000E+00   0.0000000E+00   0.0000000E+00   0.0000000E+00   0.0000000E+00   0.0000000E+00   0.0000000E+00   0.0000000E+00   0.0000000E+00   0.0000000E+00   0.0000000E+00   0.0000000E+00   0.0000000E+00   0.0000000E+00   0.0000000E+00   0.0000000E+00   0.0000000E+00   0.0000000E+00   0.0000000E+00   0.0000000E+00   0.0000000E+00   0.0000000E+00   0.0000000E+00   0.0000000E+00   0.0000000E+00   0.0000000E+00   0.0000000E+00   0.0000000E+00   0.0000000E+00   0.0000000E+00   0.0000000E+00   0.0000000E+00   0.0000000E+00   0.0000000E+00   0.0000000E+00   0.0000000E+00   0.0000000E+00   0.0000000E+00   0.0000000E+00   0.0000000E+00   0.0000000E+00   0.0000000E+00   0.0000000E+00   0.0000000E+00   0.0000000E+00   0.0000000E+00   0.0000000E+00   0.0000000E+00   0.0000000E+00   0.0000000E+00   0.0000000E+00   0.0000000E+00   0.0000000E+00   0.0000000E+00   0.0000000E+00   0.0000000E+00   0.0000000E+00   0.0000000E+00   0.0000000E+00   0.0000000E+00   0.0000000E+00   0.0000000E+00   0.0000000E+00   0.0000000E+00   0.0000000E+00   0.0000000E+00   0.0000000E+00   0.0000000E+00   0.0000000E+00   0.0000000E+00   0.0000000E+00   0.0000000E+00   0.0000000E+00   0.0000000E+00   0.0000000E+00   0.0000000E+00   0.0000000E+00   0.0000000E+00   0.0000000E+00   0.0000000E+00   0.0000000E+00   0.0000000E+00   0.0000000E+00   0.0000000E+00   0.0000000E+00   0.0000000E+00   0.0000000E+00   0.0000000E+00   0.0000000E+00   0.0000000E+00   0.0000000E+00   0.0000000E+00   0.0000000E+00   0.0000000E+00   0.0000000E+00   0.0000000E+00   0.0000000E+00   0.0000000E+00   0.0000000E+00   0.0000000E+00   0.0000000E+00   0.0000000E+00   0.0000000E+00   0.0000000E+00   0.0000000E+00   0.0000000E+00   0.0000000E+00   0.0000000E+00   0.0000000E+00   0.0000000E+00   0.0000000E+00   0.0000000E+00   0.0000000E+00   0.0000000E+00   0.0000000E+00   0.0000000E+00   0.0000000E+00   0.0000000E+00   0.0000000E+00   0.0000000E+00   0.0000000E+00   0.0000000E+00   0.0000000E+00   0.0000000E+00   0.0000000E+00   0.0000000E+00   0.0000000E+00   0.0000000E+00   0.0000000E+00   0.0000000E+00   0.0000000E+00   0.0000000E+00   0.0000000E+00   0.0000000E+00   0.0000000E+00   0.0000000E+00   0.0000000E+00   0.0000000E+00   0.0000000E+00   0.0000000E+00   0.0000000E+00   0.0000000E+00   0.0000000E+00   0.0000000E+00   0.0000000E+00   0.0000000E+00   0.0000000E+00   0.0000000E+00   0.0000000E+00   0.0000000E+00   0.0000000E+00   0.0000000E+00   0.0000000E+00   0.0000000E+00   0.0000000E+00   0.0000000E+00   0.0000000E+00   0.0000000E+00   0.0000000E+00   0.0000000E+00   0.0000000E+00   0.0000000E+00   0.0000000E+00   0.0000000E+00   0.0000000E+00   0.0000000E+00   0.0000000E+00   0.0000000E+00   0.0000000E+00   0.0000000E+00   0.0000000E+00   0.0000000E+00   0.0000000E+00   0.0000000E+00   0.0000000E+00   0.0000000E+00   0.0000000E+00   0.0000000E+00   0.0000000E+00   0.0000000E+00   0.0000000E+00   0.0000000E+00   0.0000000E+00   0.0000000E+00   0.0000000E+00   0.0000000E+00   0.0000000E+00   0.0000000E+00   0.0000000E+00   0.0000000E+00   0.0000000E+00   0.0000000E+00   0.0000000E+00   0.0000000E+00   0.0000000E+00   0.0000000E+00   0.0000000E+00   0.0000000E+00   0.0000000E+00   0.0000000E+00   0.0000000E+00   0.0000000E+00   0.0000000E+00   0.0000000E+00   0.0000000E+00   0.0000000E+00   0.0000000E+00   0.0000000E+00   0.0000000E+00   0.0000000E+00   0.0000000E+00   0.0000000E+00   0.0000000E+00   0.0000000E+00   0.0000000E+00   0.0000000E+00   0.0000000E+00   0.0000000E+00   0.0000000E+00   0.0000000E+00   0.0000000E+00   0.0000000E+00   0.0000000E+00   0.0000000E+00   0.0000000E+00   0.0000000E+00   0.0000000E+00   0.0000000E+00   0.0000000E+00   0.0000000E+00   0.0000000E+00   0.0000000E+00   0.0000000E+00   0.0000000E+00   0.0000000E+00   0.0000000E+00   0.0000000E+00   0.0000000E+00   0.0000000E+00   0.0000000E+00   0.0000000E+00   0.0000000E+00   0.0000000E+00   0.0000000E+00   0.0000000E+00   0.0000000E+00   0.0000000E+00   0.0000000E+00   0.0000000E+00   0.0000000E+00   0.0000000E+00   0.0000000E+00   0.0000000E+00   0.0000000E+00   0.0000000E+00   0.0000000E+00   0.0000000E+00   0.0000000E+00   0.0000000E+00   0.0000000E+00   0.0000000E+00   0.0000000E+00   0.0000000E+00   0.0000000E+00   0.0000000E+00   0.0000000E+00   0.0000000E+00   0.0000000E+00   0.0000000E+00   0.0000000E+00   0.0000000E+00   0.0000000E+00   0.0000000E+00   0.0000000E+00   0.0000000E+00   0.0000000E+00   0.0000000E+00   0.0000000E+00   0.0000000E+00   0.0000000E+00   0.0000000E+00   0.0000000E+00   0.0000000E+00   0.0000000E+00   0.0000000E+00   0.0000000E+00   0.0000000E+00   0.0000000E+00   0.0000000E+00   0.0000000E+00   0.0000000E+00   0.0000000E+00   0.0000000E+00   0.0000000E+00   0.0000000E+00   0.0000000E+00   0.0000000E+00   0.0000000E+00   0.0000000E+00   0.0000000E+00   0.0000000E+00   0.0000000E+00   0.0000000E+00   0.0000000E+00   0.0000000E+00   0.0000000E+00   0.0000000E+00   0.0000000E+00   0.0000000E+00   0.0000000E+00   0.0000000E+00   0.0000000E+00   0.0000000E+00   0.0000000E+00   0.0000000E+00   0.0000000E+00   0.0000000E+00   0.0000000E+00   0.0000000E+00   0.0000000E+00   0.0000000E+00   0.0000000E+00   0.0000000E+00   0.0000000E+00   0.0000000E+00   0.0000000E+00   0.0000000E+00   0.0000000E+00   0.0000000E+00   0.0000000E+00   0.0000000E+00   0.0000000E+00   0.0000000E+00   0.0000000E+00   0.0000000E+00   0.0000000E+00   0.0000000E+00   0.0000000E+00   0.0000000E+00   0.0000000E+00   0.0000000E+00   0.0000000E+00   0.0000000E+00   0.0000000E+00   0.0000000E+00   0.0000000E+00   0.0000000E+00   0.0000000E+00   0.0000000E+00   0.0000000E+00   0.0000000E+00   0.0000000E+00   0.0000000E+00   0.0000000E+00   0.0000000E+00   0.0000000E+00   0.0000000E+00   0.0000000E+00   0.0000000E+00   0.0000000E+00   0.0000000E+00   0.0000000E+00   0.0000000E+00   0.0000000E+00   0.0000000E+00   0.0000000E+00   0.0000000E+00   0.0000000E+00   0.0000000E+00   0.0000000E+00   0.0000000E+00   0.0000000E+00   0.0000000E+00   0.0000000E+00   0.0000000E+00   0.0000000E+00   0.0000000E+00   0.0000000E+00   0.0000000E+00   0.0000000E+00   0.0000000E+00   0.0000000E+00   0.0000000E+00   0.0000000E+00   0.0000000E+00   0.0000000E+00   0.0000000E+00   0.0000000E+00   0.0000000E+00   0.0000000E+00   0.0000000E+00   0.0000000E+00   0.0000000E+00   0.0000000E+00   0.0000000E+00   0.0000000E+00   0.0000000E+00   0.0000000E+00   0.0000000E+00   0.0000000E+00   0.0000000E+00   0.0000000E+00   0.0000000E+00   0.0000000E+00   0.0000000E+00   0.0000000E+00   0.0000000E+00   0.0000000E+00   0.0000000E+00   0.0000000E+00   0.0000000E+00   0.0000000E+00   0.0000000E+00   0.0000000E+00   0.0000000E+00   0.0000000E+00   0.0000000E+00   0.0000000E+00   0.0000000E+00   0.0000000E+00   0.0000000E+00   0.0000000E+00   0.0000000E+00   0.0000000E+00   0.0000000E+00   0.0000000E+00   0.0000000E+00   0.0000000E+00   0.0000000E+00   0.0000000E+00   0.0000000E+00   0.0000000E+00   0.0000000E+00   0.0000000E+00   0.0000000E+00   0.0000000E+00   0.0000000E+00   0.0000000E+00   0.0000000E+00   0.0000000E+00   0.0000000E+00   0.0000000E+00   0.0000000E+00   0.0000000E+00   0.0000000E+00   0.0000000E+00   0.0000000E+00   0.0000000E+00   0.0000000E+00   0.0000000E+00   0.0000000E+00   0.0000000E+00   0.0000000E+00   0.0000000E+00   0.0000000E+00   0.0000000E+00   0.0000000E+00   0.0000000E+00   0.0000000E+00   0.0000000E+00   0.0000000E+00   0.0000000E+00   0.0000000E+00   0.0000000E+00   0.0000000E+00   0.0000000E+00   0.0000000E+00   0.0000000E+00   0.0000000E+00   0.0000000E+00   0.0000000E+00   0.0000000E+00   0.0000000E+00   0.0000000E+00   0.0000000E+00   0.0000000E+00   0.0000000E+00   0.0000000E+00   0.0000000E+00   0.0000000E+00   0.0000000E+00   0.0000000E+00   0.0000000E+00   0.0000000E+00   0.0000000E+00   0.0000000E+00   0.0000000E+00   0.0000000E+00   0.0000000E+00   0.0000000E+00   0.0000000E+00   0.0000000E+00   0.0000000E+00   0.0000000E+00   0.0000000E+00   0.0000000E+00   0.0000000E+00   0.0000000E+00   0.0000000E+00   0.0000000E+00   0.0000000E+00   0.0000000E+00   0.0000000E+00   0.0000000E+00   0.0000000E+00   0.0000000E+00   0.0000000E+00   0.0000000E+00   0.0000000E+00   0.0000000E+00   0.0000000E+00   0.0000000E+00   0.0000000E+00   0.0000000E+00   0.0000000E+00   0.0000000E+00   0.0000000E+00   0.0000000E+00   0.0000000E+00   0.0000000E+00   0.0000000E+00   0.0000000E+00   0.0000000E+00   0.0000000E+00   0.0000000E+00   0.0000000E+00   0.0000000E+00   0.0000000E+00   0.0000000E+00   0.0000000E+00   0.0000000E+00   0.0000000E+00   0.0000000E+00   0.0000000E+00   0.0000000E+00   0.0000000E+00   0.0000000E+00   0.0000000E+00   0.0000000E+00   0.0000000E+00   0.0000000E+00   0.0000000E+00   0.0000000E+00   0.0000000E+00   0.0000000E+00   0.0000000E+00   0.0000000E+00   0.0000000E+00   0.0000000E+00   0.0000000E+00   0.0000000E+00   0.0000000E+00   0.0000000E+00   0.0000000E+00   0.0000000E+00   0.0000000E+00   0.0000000E+00   0.0000000E+00   0.0000000E+00   0.0000000E+00   0.0000000E+00   0.0000000E+00   0.0000000E+00   0.0000000E+00   0.0000000E+00   0.0000000E+00   0.0000000E+00   0.0000000E+00   0.0000000E+00   0.0000000E+00   0.0000000E+00   0.0000000E+00   0.0000000E+00   0.0000000E+00   0.0000000E+00   0.0000000E+00   0.0000000E+00   0.0000000E+00   0.0000000E+00   0.0000000E+00   0.0000000E+00   0.0000000E+00   0.0000000E+00   0.0000000E+00   0.0000000E+00   0.0000000E+00   0.0000000E+00   0.0000000E+00   0.0000000E+00   0.0000000E+00   0.0000000E+00   0.0000000E+00   0.0000000E+00   0.0000000E+00   0.0000000E+00   0.0000000E+00   0.0000000E+00   0.0000000E+00   0.0000000E+00   0.0000000E+00  -5.8780566E-02   0.0000000E+00  -5.1248060E-03  -7.4022174E-02   0.0000000E+00  -2.5561419E-03  -8.7256581E-02   0.0000000E+00   7.1254326E-05  -9.7846605E-02   0.0000000E+00   2.1389048E-03  -1.0578649E-01   0.0000000E+00   3.4214961E-03  -5.1773068E-02   0.0000000E+00  -8.6101685E-03  -7.0198797E-02   0.0000000E+00  -6.4535467E-03  -8.7753624E-02   0.0000000E+00  -3.1302471E-03  -1.0284251E-01   0.0000000E+00   1.8922170E-04  -1.1476552E-01   0.0000000E+00   2.7802412E-03  -1.2357153E-01   0.0000000E+00   4.3884576E-03  -5.9168942E-02   0.0000000E+00  -1.0172300E-02  -7.9849653E-02   0.0000000E+00  -7.4093752E-03  -9.9285074E-02   0.0000000E+00  -3.4957193E-03  -1.1569972E-01   0.0000000E+00   3.1847460E-04  -1.2841487E-01   0.0000000E+00   3.2637317E-03  -1.3759688E-01   0.0000000E+00   5.0849747E-03  -6.6317260E-02   0.0000000E+00  -1.1124947E-02  -8.9097209E-02   0.0000000E+00  -7.9247626E-03  -1.1019085E-01   0.0000000E+00  -3.6288467E-03  -1.2764007E-01   0.0000000E+00   4.4762855E-04  -1.4081816E-01   0.0000000E+00   3.5409317E-03  -1.5006004E-01   0.0000000E+00   5.4310588E-03  -7.4801609E-02   0.0000000E+00  -1.1502797E-02  -9.9598132E-02   0.0000000E+00  -8.0256937E-03  -1.2215163E-01   0.0000000E+00  -3.5546646E-03  -1.4043418E-01   0.0000000E+00   5.6029018E-04  -1.5389851E-01   0.0000000E+00   3.6076955E-03  -1.6302569E-01   0.0000000E+00   5.4343827E-03  -8.7416343E-02   0.0000000E+00  -1.1487437E-02  -1.1387958E-01   0.0000000E+00  -7.8487899E-03  -1.3722584E-01   0.0000000E+00  -3.3463994E-03  -1.5572086E-01   0.0000000E+00   6.3437270E-04  -1.6909979E-01   0.0000000E+00   3.4853471E-03  -1.7795967E-01   0.0000000E+00   5.1591196E-03  -1.0821921E-01   0.0000000E+00  -1.1335256E-02  -1.3546711E-01   0.0000000E+00  -7.6197372E-03  -1.5793903E-01   0.0000000E+00  -3.1049177E-03  -1.7515799E-01   0.0000000E+00   6.8490766E-04  -1.8745819E-01   0.0000000E+00   3.2632384E-03  -1.9558276E-01   0.0000000E+00   4.7365162E-03  -1.4223127E-01   0.0000000E+00  -1.1291718E-02  -1.6817056E-01   0.0000000E+00  -7.6259272E-03  -1.8670106E-01   0.0000000E+00  -2.9357669E-03  -2.0006838E-01   0.0000000E+00   7.9921773E-04  -2.0959581E-01   0.0000000E+00   3.1568506E-03  -2.1607612E-01   0.0000000E+00   4.4282894E-03  -1.9397251E-01   0.0000000E+00  -1.1705249E-02  -2.1433415E-01   0.0000000E+00  -8.1612328E-03  -2.2448355E-01   0.0000000E+00  -2.8685858E-03  -2.3079503E-01   0.0000000E+00   1.1896316E-03  -2.3557274E-01   0.0000000E+00   3.5402151E-03  -2.3932837E-01   0.0000000E+00   4.6572927E-03  -2.6343399E-01   0.0000000E+00  -1.4359226E-02  -2.7162254E-01   0.0000000E+00  -9.6899802E-03  -2.6918891E-01   0.0000000E+00  -2.7878783E-03  -2.6608989E-01   0.0000000E+00   2.2906815E-03  -2.6483369E-01   0.0000000E+00   4.9679303E-03  -2.6516753E-01   0.0000000E+00   5.9907557E-03  -3.3923262E-01   0.0000000E+00  -2.2910826E-02  -3.3058760E-01   0.0000000E+00  -1.3092328E-02  -3.1505045E-01   0.0000000E+00  -2.4353713E-03  -3.0298835E-01   0.0000000E+00   4.8190770E-03  -2.9611358E-01   0.0000000E+00   8.1574963E-03  -2.9319328E-01   0.0000000E+00   9.0739373E-03  -3.9577103E-01   0.0000000E+00  -2.8240729E-02  -3.7830198E-01   0.0000000E+00  -1.5881157E-02  -3.5535240E-01   0.0000000E+00  -4.5081414E-04  -3.3820134E-01   0.0000000E+00   9.7372979E-03  -3.2792729E-01   0.0000000E+00   1.3810324E-02  -3.2283160E-01   0.0000000E+00   1.4441195E-02  -4.2659351E-01   0.0000000E+00   9.0402551E-03  -4.0986165E-01   0.0000000E+00   1.8995609E-03  -3.8751176E-01   0.0000000E+00   9.0631638E-03  -3.7023607E-01   0.0000000E+00   1.8622812E-02  -3.5944489E-01   0.0000000E+00   2.2340719E-02  -3.5366759E-01   0.0000000E+00   2.2221064E-02  -4.4657785E-01   0.0000000E+00   5.1106140E-02  -4.3191987E-01   0.0000000E+00   3.4851111E-02  -4.1397089E-01   0.0000000E+00   2.8687388E-02  -3.9986545E-01   0.0000000E+00   3.1965706E-02  -3.9074001E-01   0.0000000E+00   3.3332329E-02  -3.8555837E-01   0.0000000E+00   3.1894147E-02  -4.6271726E-01   0.0000000E+00   7.5132720E-02  -4.5096710E-01   0.0000000E+00   6.1074473E-02  -4.3843785E-01   0.0000000E+00   4.9930960E-02  -4.2873871E-01   0.0000000E+00   4.6998244E-02  -4.2233527E-01   0.0000000E+00   4.5223340E-02  -4.1851792E-01   0.0000000E+00   4.2421848E-02  -4.7830984E-01   0.0000000E+00   8.4359899E-02  -4.7066405E-01   0.0000000E+00   7.6028585E-02  -4.6355259E-01   0.0000000E+00   6.5932795E-02  -4.5822975E-01   0.0000000E+00   5.9982136E-02  -4.5471859E-01   0.0000000E+00   5.6186806E-02  -4.5259735E-01   0.0000000E+00   5.2653629E-02  -4.9648085E-01   0.0000000E+00   8.6758733E-02  -4.9331987E-01   0.0000000E+00   8.2816407E-02  -4.9076831E-01   0.0000000E+00   7.5353019E-02  -4.8908347E-01   0.0000000E+00   6.9365419E-02  -4.8819628E-01   0.0000000E+00   6.5257534E-02  -4.8788771E-01   0.0000000E+00   6.1875332E-02  -5.1943338E-01   0.0000000E+00   8.6352430E-02  -5.1974398E-01   0.0000000E+00   8.5302368E-02  -5.2047592E-01   0.0000000E+00   8.0447681E-02  -5.2160501E-01   0.0000000E+00   7.5855680E-02  -5.2303463E-01   0.0000000E+00   7.2520927E-02  -5.2462655E-01   0.0000000E+00   6.9893532E-02  -5.4697353E-01   0.0000000E+00   8.6547554E-02  -5.4956895E-01   0.0000000E+00   8.6808585E-02  -5.5265111E-01   0.0000000E+00   8.3824508E-02  -5.5606127E-01   0.0000000E+00   8.0780670E-02  -5.5963820E-01   0.0000000E+00   7.8547060E-02  -5.6318581E-01   0.0000000E+00   7.6871552E-02  -5.7822680E-01   0.0000000E+00   8.8358156E-02  -5.8253652E-01   0.0000000E+00   8.9181550E-02  -5.8750933E-01   0.0000000E+00   8.7045155E-02  -5.9290469E-01   0.0000000E+00   8.5167833E-02  -5.9845573E-01   0.0000000E+00   8.3911873E-02  -6.0385227E-01   0.0000000E+00   8.3148167E-02  -6.1328107E-01   0.0000000E+00   9.1565602E-02  -6.1893570E-01   0.0000000E+00   9.2677809E-02  -6.2543154E-01   0.0000000E+00   9.0824991E-02  -6.3247383E-01   0.0000000E+00   8.9658551E-02  -6.3970929E-01   0.0000000E+00   8.9094035E-02  -6.4673173E-01   0.0000000E+00   8.9044601E-02  -6.5235871E-01   0.0000000E+00   9.5812179E-02  -6.5894997E-01   0.0000000E+00   9.7344741E-02  -6.6655236E-01   0.0000000E+00   9.5491797E-02  -6.7483765E-01   0.0000000E+00   9.4561391E-02  -6.8339717E-01   0.0000000E+00   9.4318815E-02  -6.9175684E-01   0.0000000E+00   9.4723336E-02  -6.9555211E-01   0.0000000E+00   1.0101992E-01  -7.0259190E-01   0.0000000E+00   1.0307603E-01  -7.1080023E-01   0.0000000E+00   1.0103728E-01  -7.1983647E-01   0.0000000E+00   9.9820636E-02  -7.2927642E-01   0.0000000E+00   9.9520952E-02  -7.3861438E-01   0.0000000E+00   1.0013449E-01  -7.4268234E-01   0.0000000E+00   1.0722660E-01  -7.4952155E-01   0.0000000E+00   1.0968805E-01  -7.5767398E-01   0.0000000E+00   1.0708480E-01  -7.6682329E-01   0.0000000E+00   1.0503544E-01  -7.7657747E-01   0.0000000E+00   1.0439843E-01  -7.8644300E-01   0.0000000E+00   1.0504640E-01  -7.9251313E-01   0.0000000E+00   1.1422545E-01  -7.9831165E-01   0.0000000E+00   1.1669677E-01  -8.0555987E-01   0.0000000E+00   1.1281957E-01  -8.1402177E-01   0.0000000E+00   1.0955581E-01  -8.2339227E-01   0.0000000E+00   1.0853451E-01  -8.3323681E-01   0.0000000E+00   1.0916030E-01  -8.4153658E-01   0.0000000E+00   1.2145723E-01  -8.4537303E-01   0.0000000E+00   1.2314324E-01  -8.5077721E-01   0.0000000E+00   1.1710858E-01  -8.5767984E-01   0.0000000E+00   1.1278053E-01  -8.6592096E-01   0.0000000E+00   1.1165571E-01  -8.7515557E-01   0.0000000E+00   1.1234014E-01  -8.8278705E-01   0.0000000E+00   1.2803790E-01  -8.8392371E-01   0.0000000E+00   1.2779124E-01  -8.8671738E-01   0.0000000E+00   1.1896806E-01  -8.9136171E-01   0.0000000E+00   1.1457175E-01  -8.9788127E-01   0.0000000E+00   1.1403131E-01  -9.0604115E-01   0.0000000E+00   1.1494587E-01  -9.0507346E-01   0.0000000E+00   1.3258260E-01  -9.0339458E-01   0.0000000E+00   1.2944512E-01  -9.0344644E-01   0.0000000E+00   1.1809953E-01  -9.0572679E-01   0.0000000E+00   1.1584993E-01  -9.1043854E-01   0.0000000E+00   1.1684690E-01  -9.1743296E-01   0.0000000E+00   1.1818872E-01  -8.9214772E-01   0.0000000E+00   1.3371526E-01  -8.8884747E-01   0.0000000E+00   1.2749937E-01  -8.8743019E-01   0.0000000E+00   1.1557754E-01  -8.8855708E-01   0.0000000E+00   1.1869056E-01  -8.9243388E-01   0.0000000E+00   1.2235253E-01  -8.9892840E-01   0.0000000E+00   1.2421798E-01  -8.2048327E-01   0.0000000E+00   1.3095708E-01  -8.1874365E-01   0.0000000E+00   1.2234998E-01  -8.1937724E-01   0.0000000E+00   1.1366950E-01  -8.2285893E-01   0.0000000E+00   1.2541728E-01  -8.2897151E-01   0.0000000E+00   1.3294104E-01  -8.3724797E-01   0.0000000E+00   1.3552354E-01  -6.5828151E-01   0.0000000E+00   1.2728482E-01  -6.6325676E-01   0.0000000E+00   1.1757579E-01  -6.7138302E-01   0.0000000E+00   1.1634133E-01  -6.8271524E-01   0.0000000E+00   1.3666907E-01  -6.9626516E-01   0.0000000E+00   1.4890423E-01  -7.1073973E-01   0.0000000E+00   1.5344156E-01  -3.7075514E-01   0.0000000E+00   1.3022901E-01  -3.8814005E-01   0.0000000E+00   1.1967349E-01  -4.0934077E-01   0.0000000E+00   1.2520006E-01  -4.3394619E-01   0.0000000E+00   1.4959463E-01  -4.6018001E-01   0.0000000E+00   1.6850670E-01  -4.8574477E-01   0.0000000E+00   1.7725456E-01   6.5116867E-02   0.0000000E+00   1.5295607E-01   3.1399723E-02   0.0000000E+00   1.3624220E-01  -6.0940008E-03   0.0000000E+00   1.4593008E-01  -4.6567079E-02   0.0000000E+00   1.6432011E-01  -8.7744325E-02   0.0000000E+00   1.8773171E-01  -1.2661837E-01   0.0000000E+00   2.0390612E-01   6.3838822E-01   0.0000000E+00   1.8327084E-01   5.8949959E-01   0.0000000E+00   1.6647564E-01   5.3755611E-01   0.0000000E+00   1.7950757E-01   4.8423120E-01   0.0000000E+00   1.8719900E-01   4.3172434E-01   0.0000000E+00   2.0485827E-01   3.8299295E-01   0.0000000E+00   2.2881828E-01   1.2839651E+00   0.0000000E+00   1.9785532E-01   1.2295824E+00   0.0000000E+00   1.7628381E-01   1.1728549E+00   0.0000000E+00   1.9820586E-01   1.1173840E+00   0.0000000E+00   2.0772599E-01   1.0647324E+00   0.0000000E+00   2.1837911E-01   1.0168418E+00   0.0000000E+00   2.4784298E-01   1.8796787E+00   0.0000000E+00   1.7825638E-01   1.8399054E+00   0.0000000E+00   1.5798473E-01   1.7977450E+00   0.0000000E+00   1.9152315E-01   1.7588187E+00   0.0000000E+00   2.1860847E-01   1.7240022E+00   0.0000000E+00   2.3157413E-01   1.6934087E+00   0.0000000E+00   2.6082119E-01   2.2800703E+00   0.0000000E+00   1.6041456E-01   2.2812514E+00   0.0000000E+00   1.2782647E-01   2.2799463E+00   0.0000000E+00   1.6510251E-01   2.2799175E+00   0.0000000E+00   2.1188971E-01   2.2827251E+00   0.0000000E+00   2.3639557E-01   2.2867203E+00   0.0000000E+00   2.6977181E-01   2.4191477E+00   0.0000000E+00   1.5952782E-01   2.4658048E+00   0.0000000E+00   8.9876637E-02   2.5176196E+00   0.0000000E+00   1.3200814E-01   2.5711331E+00   0.0000000E+00   1.8097214E-01   2.6232395E+00   0.0000000E+00   2.2194670E-01   2.6704209E+00   0.0000000E+00   2.6793516E-01   2.3607044E+00   0.0000000E+00   1.8969859E-01   2.4413531E+00   0.0000000E+00   5.6429643E-02   2.5335715E+00   0.0000000E+00   1.1780170E-01   2.6294742E+00   0.0000000E+00   1.6469495E-01   2.7221680E+00   0.0000000E+00   2.1709472E-01   2.8056355E+00   0.0000000E+00   2.6959562E-01   2.2288148E+00   0.0000000E+00   2.2834051E-01   2.3285868E+00   0.0000000E+00   5.2224938E-02   2.4422328E+00   0.0000000E+00   1.3756895E-01   2.5605521E+00   0.0000000E+00   1.6782056E-01   2.6748617E+00   0.0000000E+00   2.2248596E-01   2.7777102E+00   0.0000000E+00   2.7698651E-01   2.1288586E+00   0.0000000E+00   2.5138071E-01   2.2345695E+00   0.0000000E+00   5.9248380E-02   2.3530068E+00   0.0000000E+00   1.5791844E-01   2.4753554E+00   0.0000000E+00   1.8457060E-01   2.5925646E+00   0.0000000E+00   2.3516701E-01   2.6967442E+00   0.0000000E+00   2.8816679E-01   2.1026809E+00   0.0000000E+00   2.5718182E-01   2.2045012E+00   0.0000000E+00   6.4371198E-02   2.3164091E+00   0.0000000E+00   1.6457565E-01   2.4302113E+00   0.0000000E+00   2.0349933E-01   2.5369561E+00   0.0000000E+00   2.4979383E-01   2.6288142E+00   0.0000000E+00   2.9849985E-01   2.1261587E+00   0.0000000E+00   2.4592999E-01   2.2177272E+00   0.0000000E+00   6.0842492E-02   2.3166325E+00   0.0000000E+00   1.5661816E-01   2.4149137E+00   0.0000000E+00   2.0968120E-01   2.5037153E+00   0.0000000E+00   2.5758180E-01   2.5755186E+00   0.0000000E+00   3.0416414E-01   2.1391850E+00   0.0000000E+00   2.2229351E-01   2.2164207E+00   0.0000000E+00   5.2439857E-02   2.2983301E+00   0.0000000E+00   1.4485049E-01   2.3770511E+00   0.0000000E+00   2.0481737E-01   2.4440513E+00   0.0000000E+00   2.5613168E-01   2.4925122E+00   0.0000000E+00   3.0404028E-01   2.0873284E+00   0.0000000E+00   1.9852152E-01   2.1464710E+00   0.0000000E+00   4.8748150E-02   2.2072463E+00   0.0000000E+00   1.3464957E-01   2.2623045E+00   0.0000000E+00   1.9499385E-01   2.3042133E+00   0.0000000E+00   2.4890944E-01   2.3275445E+00   0.0000000E+00   2.9959255E-01   1.9517083E+00   0.0000000E+00   1.8505719E-01   1.9877553E+00   0.0000000E+00   5.8358982E-02   2.0217285E+00   0.0000000E+00   1.2801576E-01   2.0475211E+00   0.0000000E+00   1.8440543E-01   2.0596857E+00   0.0000000E+00   2.4014443E-01   2.0553217E+00   0.0000000E+00   2.9330537E-01   1.7510424E+00   0.0000000E+00   1.7500786E-01   1.7586192E+00   0.0000000E+00   7.4094854E-02   1.7597308E+00   0.0000000E+00   1.2647760E-01   1.7502352E+00   0.0000000E+00   1.7642887E-01   1.7276670E+00   0.0000000E+00   2.3127528E-01   1.6930882E+00   0.0000000E+00   2.8710771E-01   1.5224538E+00   0.0000000E+00   1.6212898E-01   1.4979988E+00   0.0000000E+00   9.4666623E-02   1.4624068E+00   0.0000000E+00   1.3207267E-01   1.4142942E+00   0.0000000E+00   1.6856998E-01   1.3557471E+00   0.0000000E+00   2.2571449E-01   1.2920772E+00   0.0000000E+00   2.8232077E-01   1.3000923E+00   0.0000000E+00   1.4903881E-01   1.2438675E+00   0.0000000E+00   1.1612277E-01   1.1721662E+00   0.0000000E+00   1.3720122E-01   1.0876279E+00   0.0000000E+00   1.6766900E-01   9.9741238E-01   0.0000000E+00   2.2533111E-01   9.0981585E-01   0.0000000E+00   2.7830768E-01   1.1002111E+00   0.0000000E+00   1.3819842E-01   1.0179435E+00   0.0000000E+00   1.2538664E-01   9.1686440E-01   0.0000000E+00   1.3667709E-01   8.0400938E-01   0.0000000E+00   1.7456974E-01   6.9092792E-01   0.0000000E+00   2.2539984E-01   5.8811474E-01   0.0000000E+00   2.7284259E-01   9.2187363E-01   0.0000000E+00   1.2705764E-01   8.2442909E-01   0.0000000E+00   1.2352510E-01   7.0523661E-01   0.0000000E+00   1.3611194E-01   5.7508290E-01   0.0000000E+00   1.7970350E-01   4.5107934E-01   0.0000000E+00   2.2092669E-01   3.4351006E-01   0.0000000E+00   2.6386994E-01   7.5810939E-01   0.0000000E+00   1.1881287E-01   6.5830833E-01   0.0000000E+00   1.0758819E-01   5.3048223E-01   0.0000000E+00   1.4064448E-01   3.9504269E-01   0.0000000E+00   1.7898147E-01   2.7257815E-01   0.0000000E+00   2.1276559E-01   1.7047973E-01   0.0000000E+00   2.5119191E-01   6.1339343E-01   0.0000000E+00   1.0755660E-01   5.1516908E-01   0.0000000E+00   9.7312935E-02   3.7965956E-01   0.0000000E+00   1.4355619E-01   2.5032693E-01   0.0000000E+00   1.7430513E-01   1.4037710E-01   0.0000000E+00   2.0281991E-01   5.2130710E-02   0.0000000E+00   2.3525582E-01   5.1189983E-01   0.0000000E+00   8.8753678E-02   3.8153720E-01   0.0000000E+00   1.0825851E-01   2.4515559E-01   0.0000000E+00   1.4059103E-01   1.2966831E-01   0.0000000E+00   1.6941772E-01   3.9675284E-02   0.0000000E+00   1.9355948E-01  -2.9535420E-02   0.0000000E+00   2.1827959E-01   4.0064678E-01   0.0000000E+00   8.2751185E-02   2.6040915E-01   0.0000000E+00   1.0843705E-01   1.2437437E-01   0.0000000E+00   1.3088083E-01   2.7645279E-02   0.0000000E+00   1.6206162E-01  -3.9566759E-02   0.0000000E+00   1.8555741E-01  -8.8211253E-02   0.0000000E+00   2.0192578E-01   1.5849580E-01   0.0000000E+00   1.1038408E-01   2.4239777E-02   0.0000000E+00   1.2268104E-01  -5.5291791E-02   0.0000000E+00   1.4918567E-01  -1.0194995E-01   0.0000000E+00   1.7578197E-01  -1.3186955E-01   0.0000000E+00   1.8760985E-01   8.4313825E-02   0.0000000E+00   1.0964947E-01  -4.0476374E-02   0.0000000E+00   1.1805586E-01  -1.1486108E-01   0.0000000E+00   1.3145041E-01  -1.4834291E-01   0.0000000E+00   1.6205721E-01  -1.6461720E-01   0.0000000E+00   1.7472823E-01  -6.0436796E-02   0.0000000E+00   1.1602269E-01  -1.4402989E-01   0.0000000E+00   1.1599404E-01  -1.7799322E-01   0.0000000E+00   1.4140746E-01  -1.8794571E-01   0.0000000E+00   1.6221313E-01  -5.2707259E-02   0.0000000E+00   1.1318375E-01  -1.3397177E-01   0.0000000E+00   1.0789721E-01  -1.8659920E-01   0.0000000E+00   1.1624067E-01  -2.0015952E-01   0.0000000E+00   1.4639930E-01  -9.2586584E-02   0.0000000E+00   1.1417850E-01  -1.6183004E-01   0.0000000E+00   1.0429440E-01  -1.9334652E-01   0.0000000E+00   1.2768956E-01  -1.0707714E-01   0.0000000E+00   1.1151493E-01  -1.5074326E-01   0.0000000E+00   1.2014963E-01  -1.1695412E-01   0.0000000E+00   1.1128127E-01  -9.0395227E-02   0.0000000E+00   1.2871911E-01  -1.1143763E-01   0.0000000E+00   3.9814841E-03  -1.1528708E-01   0.0000000E+00   4.0384219E-03  -1.1778200E-01   0.0000000E+00   3.8256038E-03  -1.1928338E-01   0.0000000E+00   3.4926105E-03  -1.2009194E-01   0.0000000E+00   3.1242422E-03  -1.2045240E-01   0.0000000E+00   2.7724509E-03  -1.2055372E-01   0.0000000E+00   2.4714659E-03  -1.2053376E-01   0.0000000E+00   2.2430166E-03  -1.2048607E-01   0.0000000E+00   2.1007974E-03  -1.2973545E-01   0.0000000E+00   5.1010628E-03  -1.3386095E-01   0.0000000E+00   5.1915860E-03  -1.3648067E-01   0.0000000E+00   4.9493201E-03  -1.3800882E-01   0.0000000E+00   4.5551695E-03  -1.3878645E-01   0.0000000E+00   4.1076900E-03  -1.3908979E-01   0.0000000E+00   3.6740617E-03  -1.3912912E-01   0.0000000E+00   3.3000458E-03  -1.3905668E-01   0.0000000E+00   3.0150055E-03  -1.3897415E-01   0.0000000E+00   2.8372032E-03  -1.4386739E-01   0.0000000E+00   5.9008850E-03  -1.4795491E-01   0.0000000E+00   6.0292273E-03  -1.5046921E-01   0.0000000E+00   5.7945289E-03  -1.5186404E-01   0.0000000E+00   5.3878073E-03  -1.5250666E-01   0.0000000E+00   4.9087512E-03  -1.5268929E-01   0.0000000E+00   4.4348612E-03  -1.5263079E-01   0.0000000E+00   4.0214201E-03  -1.5248686E-01   0.0000000E+00   3.7044741E-03  -1.5236121E-01   0.0000000E+00   3.5061790E-03  -1.5616757E-01   0.0000000E+00   6.2816110E-03  -1.6000473E-01   0.0000000E+00   6.4472016E-03  -1.6225439E-01   0.0000000E+00   6.2635802E-03  -1.6340435E-01   0.0000000E+00   5.9030084E-03  -1.6383986E-01   0.0000000E+00   5.4517183E-03  -1.6385815E-01   0.0000000E+00   4.9906215E-03  -1.6367680E-01   0.0000000E+00   4.5810137E-03  -1.6344851E-01   0.0000000E+00   4.2639151E-03  -1.6327369E-01   0.0000000E+00   4.0645241E-03  -1.6881776E-01   0.0000000E+00   6.2590986E-03  -1.7228259E-01   0.0000000E+00   6.4657526E-03  -1.7417528E-01   0.0000000E+00   6.3790097E-03  -1.7501782E-01   0.0000000E+00   6.1245137E-03  -1.7520618E-01   0.0000000E+00   5.7625226E-03  -1.7503548E-01   0.0000000E+00   5.3690607E-03  -1.7471687E-01   0.0000000E+00   5.0076097E-03  -1.7439650E-01   0.0000000E+00   4.7225193E-03  -1.7416885E-01   0.0000000E+00   4.5415214E-03  -1.8334192E-01   0.0000000E+00   5.9338417E-03  -1.8636397E-01   0.0000000E+00   6.2053516E-03  -1.8785529E-01   0.0000000E+00   6.2643909E-03  -1.8836482E-01   0.0000000E+00   6.1752070E-03  -1.8829021E-01   0.0000000E+00   5.9611523E-03  -1.8792063E-01   0.0000000E+00   5.6858547E-03  -1.8745881E-01   0.0000000E+00   5.4118945E-03  -1.8704237E-01   0.0000000E+00   5.1865173E-03  -1.8675967E-01   0.0000000E+00   5.0403168E-03  -2.0041421E-01   0.0000000E+00   5.4717581E-03  -2.0293573E-01   0.0000000E+00   5.8549680E-03  -2.0400672E-01   0.0000000E+00   6.1151395E-03  -2.0417960E-01   0.0000000E+00   6.2509649E-03  -2.0384322E-01   0.0000000E+00   6.2387753E-03  -2.0327665E-01   0.0000000E+00   6.1246594E-03  -2.0267227E-01   0.0000000E+00   5.9693041E-03  -2.0215970E-01   0.0000000E+00   5.8240695E-03  -2.0182131E-01   0.0000000E+00   5.7240911E-03  -2.2000916E-01   0.0000000E+00   5.1292148E-03  -2.2195934E-01   0.0000000E+00   5.6625837E-03  -2.2259639E-01   0.0000000E+00   6.1795996E-03  -2.2244151E-01   0.0000000E+00   6.5959836E-03  -2.2185792E-01   0.0000000E+00   6.8316460E-03  -2.2110735E-01   0.0000000E+00   6.9116987E-03  -2.2036967E-01   0.0000000E+00   6.8959873E-03  -2.1976613E-01   0.0000000E+00   6.8428600E-03  -2.1937460E-01   0.0000000E+00   6.7948364E-03  -2.4188776E-01   0.0000000E+00   5.2954326E-03  -2.4313976E-01   0.0000000E+00   5.9633804E-03  -2.4333154E-01   0.0000000E+00   6.7588463E-03  -2.4286857E-01   0.0000000E+00   7.4880836E-03  -2.4206711E-01   0.0000000E+00   7.9993512E-03  -2.4115896E-01   0.0000000E+00   8.2913702E-03  -2.4030763E-01   0.0000000E+00   8.4239813E-03  -2.3962577E-01   0.0000000E+00   8.4658014E-03  -2.3918788E-01   0.0000000E+00   8.4698955E-03  -2.6599884E-01   0.0000000E+00   6.4906571E-03  -2.6642990E-01   0.0000000E+00   7.1932282E-03  -2.6617891E-01   0.0000000E+00   8.2104271E-03  -2.6544335E-01   0.0000000E+00   9.2300912E-03  -2.6446825E-01   0.0000000E+00   1.0008417E-02  -2.6344323E-01   0.0000000E+00   1.0505869E-02  -2.6250914E-01   0.0000000E+00   1.0779479E-02  -2.6176971E-01   0.0000000E+00   1.0909043E-02  -2.6129732E-01   0.0000000E+00   1.0960050E-02  -2.9230657E-01   0.0000000E+00   9.2823124E-03  -2.9190013E-01   0.0000000E+00   9.8308856E-03  -2.9123327E-01   0.0000000E+00   1.0915783E-02  -2.9027748E-01   0.0000000E+00   1.2125847E-02  -2.8918627E-01   0.0000000E+00   1.3109968E-02  -2.8809512E-01   0.0000000E+00   1.3773514E-02  -2.8711873E-01   0.0000000E+00   1.4161700E-02  -2.8635028E-01   0.0000000E+00   1.4361481E-02  -2.8585979E-01   0.0000000E+00   1.4449328E-02  -3.2065222E-01   0.0000000E+00   1.4113533E-02  -3.1954458E-01   0.0000000E+00   1.4263131E-02  -3.1853336E-01   0.0000000E+00   1.5192566E-02  -3.1743050E-01   0.0000000E+00   1.6424533E-02  -3.1629130E-01   0.0000000E+00   1.7501578E-02  -3.1519368E-01   0.0000000E+00   1.8259937E-02  -3.1422225E-01   0.0000000E+00   1.8719235E-02  -3.1345895E-01   0.0000000E+00   1.8963821E-02  -3.1297180E-01   0.0000000E+00   1.9075310E-02  -3.5086095E-01   0.0000000E+00   2.1093162E-02  -3.4931469E-01   0.0000000E+00   2.0628365E-02  -3.4809029E-01   0.0000000E+00   2.1184284E-02  -3.4694228E-01   0.0000000E+00   2.2249866E-02  -3.4583858E-01   0.0000000E+00   2.3283103E-02  -3.4480199E-01   0.0000000E+00   2.4048962E-02  -3.4389076E-01   0.0000000E+00   2.4528628E-02  -3.4317479E-01   0.0000000E+00   2.4790971E-02  -3.4271657E-01   0.0000000E+00   2.4913365E-02  -3.8278702E-01   0.0000000E+00   2.9863805E-02  -3.8113245E-01   0.0000000E+00   2.8719649E-02  -3.7989548E-01   0.0000000E+00   2.8783878E-02  -3.7884226E-01   0.0000000E+00   2.9546352E-02  -3.7787643E-01   0.0000000E+00   3.0422296E-02  -3.7698299E-01   0.0000000E+00   3.1120695E-02  -3.7619755E-01   0.0000000E+00   3.1579193E-02  -3.7557790E-01   0.0000000E+00   3.1840123E-02  -3.7518036E-01   0.0000000E+00   3.1966459E-02  -4.1630751E-01   0.0000000E+00   3.9682761E-02  -4.1491154E-01   0.0000000E+00   3.8017720E-02  -4.1392666E-01   0.0000000E+00   3.7635945E-02  -4.1314399E-01   0.0000000E+00   3.8070407E-02  -4.1244340E-01   0.0000000E+00   3.8745318E-02  -4.1179228E-01   0.0000000E+00   3.9344039E-02  -4.1121221E-01   0.0000000E+00   3.9767686E-02  -4.1075021E-01   0.0000000E+00   4.0026784E-02  -4.1045156E-01   0.0000000E+00   4.0161021E-02  -4.5134711E-01   0.0000000E+00   4.9697235E-02  -4.5060158E-01   0.0000000E+00   4.7848914E-02  -4.5016083E-01   0.0000000E+00   4.7225956E-02  -4.4984823E-01   0.0000000E+00   4.7434609E-02  -4.4956070E-01   0.0000000E+00   4.7958128E-02  -4.4926956E-01   0.0000000E+00   4.8488729E-02  -4.4899127E-01   0.0000000E+00   4.8905808E-02  -4.4875848E-01   0.0000000E+00   4.9188942E-02  -4.4860357E-01   0.0000000E+00   4.9349844E-02  -4.8793790E-01   0.0000000E+00   5.9237160E-02  -4.8821336E-01   0.0000000E+00   5.7594050E-02  -4.8858532E-01   0.0000000E+00   5.7020202E-02  -4.8894125E-01   0.0000000E+00   5.7197411E-02  -4.8922500E-01   0.0000000E+00   5.7700194E-02  -4.8942637E-01   0.0000000E+00   5.8256030E-02  -4.8955753E-01   0.0000000E+00   5.8737293E-02  -4.8963559E-01   0.0000000E+00   5.9096791E-02  -4.8967549E-01   0.0000000E+00   5.9317671E-02  -5.2625579E-01   0.0000000E+00   6.7946933E-02  -5.2780479E-01   0.0000000E+00   6.6838920E-02  -5.2919251E-01   0.0000000E+00   6.6594213E-02  -5.3039062E-01   0.0000000E+00   6.6960894E-02  -5.3140086E-01   0.0000000E+00   6.7611955E-02  -5.3223097E-01   0.0000000E+00   6.8321303E-02  -5.3288430E-01   0.0000000E+00   6.8962537E-02  -5.3335720E-01   0.0000000E+00   6.9466360E-02  -5.3364432E-01   0.0000000E+00   6.9788292E-02  -5.6650013E-01   0.0000000E+00   7.5792439E-02  -5.6943589E-01   0.0000000E+00   7.5411238E-02  -5.7196289E-01   0.0000000E+00   7.5692445E-02  -5.7413602E-01   0.0000000E+00   7.6431938E-02  -5.7600635E-01   0.0000000E+00   7.7386230E-02  -5.7758802E-01   0.0000000E+00   7.8371935E-02  -5.7886845E-01   0.0000000E+00   7.9266183E-02  -5.7981628E-01   0.0000000E+00   7.9980165E-02  -5.8040035E-01   0.0000000E+00   8.0442473E-02  -6.0879916E-01   0.0000000E+00   8.2934260E-02  -6.1312258E-01   0.0000000E+00   8.3322212E-02  -6.1683917E-01   0.0000000E+00   8.4214851E-02  -6.2007022E-01   0.0000000E+00   8.5431576E-02  -6.2289482E-01   0.0000000E+00   8.6787909E-02  -6.2532300E-01   0.0000000E+00   8.8132709E-02  -6.2731332E-01   0.0000000E+00   8.9345306E-02  -6.2879992E-01   0.0000000E+00   9.0317130E-02  -6.2972134E-01   0.0000000E+00   9.0949848E-02  -6.5316474E-01   0.0000000E+00   8.9570336E-02  -6.5880734E-01   0.0000000E+00   9.0660520E-02  -6.6370559E-01   0.0000000E+00   9.2152491E-02  -6.6802180E-01   0.0000000E+00   9.3866907E-02  -6.7184687E-01   0.0000000E+00   9.5654130E-02  -6.7517126E-01   0.0000000E+00   9.7385481E-02  -6.7791760E-01   0.0000000E+00   9.8940313E-02  -6.7998117E-01   0.0000000E+00   1.0019037E-01  -6.8126380E-01   0.0000000E+00   1.0100722E-01  -6.9947535E-01   0.0000000E+00   9.5813088E-02  -7.0632082E-01   0.0000000E+00   9.7491607E-02  -7.1234345E-01   0.0000000E+00   9.9520884E-02  -7.1771950E-01   0.0000000E+00   1.0170034E-01  -7.2253537E-01   0.0000000E+00   1.0389479E-01  -7.2675431E-01   0.0000000E+00   1.0599071E-01  -7.3026049E-01   0.0000000E+00   1.0786945E-01  -7.3290640E-01   0.0000000E+00   1.0938522E-01  -7.3455584E-01   0.0000000E+00   1.1037952E-01  -7.4736786E-01   0.0000000E+00   1.0162944E-01  -7.5525796E-01   0.0000000E+00   1.0380383E-01  -7.6230621E-01   0.0000000E+00   1.0632538E-01  -7.6867419E-01   0.0000000E+00   1.0894031E-01  -7.7442467E-01   0.0000000E+00   1.1150319E-01  -7.7949238E-01   0.0000000E+00   1.1391249E-01  -7.8372025E-01   0.0000000E+00   1.1606053E-01  -7.8691936E-01   0.0000000E+00   1.1779469E-01  -7.8891772E-01   0.0000000E+00   1.1893504E-01  -7.9591346E-01   0.0000000E+00   1.0685978E-01  -8.0465186E-01   0.0000000E+00   1.0952435E-01  -8.1260574E-01   0.0000000E+00   1.1257846E-01  -8.1987721E-01   0.0000000E+00   1.1566026E-01  -8.2648563E-01   0.0000000E+00   1.1857818E-01  -8.3232504E-01   0.0000000E+00   1.2124125E-01  -8.3720440E-01   0.0000000E+00   1.2357362E-01  -8.4090000E-01   0.0000000E+00   1.2544250E-01  -8.4321004E-01   0.0000000E+00   1.2666960E-01  -8.4304678E-01   0.0000000E+00   1.1131798E-01  -8.5241103E-01   0.0000000E+00   1.1459865E-01  -8.6115009E-01   0.0000000E+00   1.1835738E-01  -8.6924577E-01   0.0000000E+00   1.2203545E-01  -8.7663502E-01   0.0000000E+00   1.2534225E-01  -8.8316256E-01   0.0000000E+00   1.2819991E-01  -8.8860464E-01   0.0000000E+00   1.3060105E-01  -8.9271778E-01   0.0000000E+00   1.3248028E-01  -8.9528537E-01   0.0000000E+00   1.3370167E-01  -8.8490057E-01   0.0000000E+00   1.1497162E-01  -8.9466071E-01   0.0000000E+00   1.1911424E-01  -9.0407676E-01   0.0000000E+00   1.2386910E-01  -9.1293514E-01   0.0000000E+00   1.2836017E-01  -9.2104131E-01   0.0000000E+00   1.3212848E-01  -9.2817116E-01   0.0000000E+00   1.3511330E-01  -9.3407744E-01   0.0000000E+00   1.3742869E-01  -9.3851602E-01   0.0000000E+00   1.3914537E-01  -9.4127417E-01   0.0000000E+00   1.4023001E-01  -9.1538954E-01   0.0000000E+00   1.1819495E-01  -9.2534423E-01   0.0000000E+00   1.2345127E-01  -9.3533403E-01   0.0000000E+00   1.2950118E-01  -9.4488907E-01   0.0000000E+00   1.3502476E-01  -9.5364070E-01   0.0000000E+00   1.3931279E-01  -9.6127731E-01   0.0000000E+00   1.4232092E-01  -9.6753538E-01   0.0000000E+00   1.4434499E-01  -9.7218889E-01   0.0000000E+00   1.4567381E-01  -9.7506070E-01   0.0000000E+00   1.4645135E-01  -9.2629331E-01   0.0000000E+00   1.2206107E-01  -9.3635714E-01   0.0000000E+00   1.2847042E-01  -9.4684392E-01   0.0000000E+00   1.3588651E-01  -9.5701838E-01   0.0000000E+00   1.4248022E-01  -9.6631759E-01   0.0000000E+00   1.4722128E-01  -9.7434235E-01   0.0000000E+00   1.5006177E-01  -9.8082066E-01   0.0000000E+00   1.5152340E-01  -9.8556900E-01   0.0000000E+00   1.5218933E-01  -9.8846734E-01   0.0000000E+00   1.5245849E-01  -9.0771228E-01   0.0000000E+00   1.2849569E-01  -9.1811419E-01   0.0000000E+00   1.3568647E-01  -9.2919677E-01   0.0000000E+00   1.4403561E-01  -9.3999720E-01   0.0000000E+00   1.5129192E-01  -9.4979769E-01   0.0000000E+00   1.5612236E-01  -9.5813197E-01   0.0000000E+00   1.5843788E-01  -9.6473861E-01   0.0000000E+00   1.5898357E-01  -9.6949637E-01   0.0000000E+00   1.5867434E-01  -9.7235984E-01   0.0000000E+00   1.5821794E-01  -8.4739041E-01   0.0000000E+00   1.3992940E-01  -8.5900640E-01   0.0000000E+00   1.4719875E-01  -8.7125933E-01   0.0000000E+00   1.5548831E-01  -8.8307965E-01   0.0000000E+00   1.6239515E-01  -8.9364666E-01   0.0000000E+00   1.6649088E-01  -9.0247136E-01   0.0000000E+00   1.6767362E-01  -9.0932447E-01   0.0000000E+00   1.6685416E-01  -9.1416007E-01   0.0000000E+00   1.6524711E-01  -9.1702437E-01   0.0000000E+00   1.6386604E-01  -7.2542620E-01   0.0000000E+00   1.5828004E-01  -7.4024314E-01   0.0000000E+00   1.6508202E-01  -7.5496179E-01   0.0000000E+00   1.7217733E-01  -7.6878732E-01   0.0000000E+00   1.7738287E-01  -7.8092265E-01   0.0000000E+00   1.7954963E-01  -7.9088247E-01   0.0000000E+00   1.7875917E-01  -7.9848522E-01   0.0000000E+00   1.7606004E-01  -8.0376005E-01   0.0000000E+00   1.7286813E-01  -8.0684066E-01   0.0000000E+00   1.7042218E-01  -5.0905639E-01   0.0000000E+00   1.8392318E-01  -5.2998000E-01   0.0000000E+00   1.9051680E-01  -5.4906738E-01   0.0000000E+00   1.9581769E-01  -5.6629390E-01   0.0000000E+00   1.9824636E-01  -5.8117133E-01   0.0000000E+00   1.9736667E-01  -5.9328187E-01   0.0000000E+00   1.9377786E-01  -6.0247511E-01   0.0000000E+00   1.8875484E-01  -6.0882640E-01   0.0000000E+00   1.8381433E-01  -6.1251968E-01   0.0000000E+00   1.8027772E-01  -1.6083255E-01   0.0000000E+00   2.1509136E-01  -1.8987629E-01   0.0000000E+00   2.2302672E-01  -2.1479312E-01   0.0000000E+00   2.2706634E-01  -2.3649374E-01   0.0000000E+00   2.2655073E-01  -2.5503296E-01   0.0000000E+00   2.2215083E-01  -2.7015823E-01   0.0000000E+00   2.1536417E-01  -2.8172916E-01   0.0000000E+00   2.0788667E-01  -2.8979459E-01   0.0000000E+00   2.0129359E-01  -2.9452038E-01   0.0000000E+00   1.9682932E-01   3.4044871E-01   0.0000000E+00   2.4784359E-01   3.0483624E-01   0.0000000E+00   2.6002434E-01   2.7502832E-01   0.0000000E+00   2.6473206E-01   2.4949910E-01   0.0000000E+00   2.6235160E-01   2.2769894E-01   0.0000000E+00   2.5497210E-01   2.0972335E-01   0.0000000E+00   2.4534920E-01   1.9574903E-01   0.0000000E+00   2.3583762E-01   1.8584436E-01   0.0000000E+00   2.2808623E-01   1.7996229E-01   0.0000000E+00   2.2310960E-01   9.7507966E-01   0.0000000E+00   2.7709270E-01   9.3979937E-01   0.0000000E+00   2.9698417E-01   9.1009849E-01   0.0000000E+00   3.0529779E-01   8.8448334E-01   0.0000000E+00   3.0317307E-01   8.6229473E-01   0.0000000E+00   2.9432943E-01   8.4360814E-01   0.0000000E+00   2.8304100E-01   8.2873642E-01   0.0000000E+00   2.7251902E-01   8.1796455E-01   0.0000000E+00   2.6451391E-01   8.1146193E-01   0.0000000E+00   2.5967500E-01   1.6666055E+00   0.0000000E+00   2.9876852E-01   1.6430930E+00   0.0000000E+00   3.2858303E-01   1.6223431E+00   0.0000000E+00   3.4321967E-01   1.6035663E+00   0.0000000E+00   3.4365979E-01   1.5865436E+00   0.0000000E+00   3.3526501E-01   1.5715522E+00   0.0000000E+00   3.2389250E-01   1.5591331E+00   0.0000000E+00   3.1368881E-01   1.5498408E+00   0.0000000E+00   3.0651438E-01   1.5441033E+00   0.0000000E+00   3.0255157E-01   2.2894132E+00   0.0000000E+00   3.1250200E-01   2.2898257E+00   0.0000000E+00   3.5089716E-01   2.2881007E+00   0.0000000E+00   3.7254027E-01   2.2845895E+00   0.0000000E+00   3.7674740E-01   2.2797427E+00   0.0000000E+00   3.7015319E-01   2.2742174E+00   0.0000000E+00   3.5997257E-01   2.2688088E+00   0.0000000E+00   3.5117131E-01   2.2643168E+00   0.0000000E+00   3.4566659E-01   2.2613616E+00   0.0000000E+00   3.4312499E-01   2.7097254E+00   0.0000000E+00   3.1897849E-01   2.7401285E+00   0.0000000E+00   3.6367774E-01   2.7628138E+00   0.0000000E+00   3.8967073E-01   2.7794921E+00   0.0000000E+00   3.9655375E-01   2.7913730E+00   0.0000000E+00   3.9166662E-01   2.7993824E+00   0.0000000E+00   3.8303277E-01   2.8044090E+00   0.0000000E+00   3.7601569E-01   2.8072798E+00   0.0000000E+00   3.7240878E-01   2.8086927E+00   0.0000000E+00   3.7137011E-01   2.8758557E+00   0.0000000E+00   3.2423332E-01   2.9319396E+00   0.0000000E+00   3.6976203E-01   2.9759867E+00   0.0000000E+00   3.9590365E-01   3.0110044E+00   0.0000000E+00   4.0291989E-01   3.0389283E+00   0.0000000E+00   3.9834058E-01   3.0607164E+00   0.0000000E+00   3.9045426E-01   3.0769334E+00   0.0000000E+00   3.8462073E-01   3.0880480E+00   0.0000000E+00   3.8235453E-01   3.0944972E+00   0.0000000E+00   3.8237673E-01   2.8643737E+00   0.0000000E+00   3.3102509E-01   2.9341652E+00   0.0000000E+00   3.7338397E-01   2.9900546E+00   0.0000000E+00   3.9650226E-01   3.0361190E+00   0.0000000E+00   4.0123841E-01   3.0747361E+00   0.0000000E+00   3.9513254E-01   3.1066189E+00   0.0000000E+00   3.8649458E-01   3.1316779E+00   0.0000000E+00   3.8053459E-01   3.1496785E+00   0.0000000E+00   3.7848061E-01   3.1604910E+00   0.0000000E+00   3.7875703E-01   2.7832015E+00   0.0000000E+00   3.3933821E-01   2.8520045E+00   0.0000000E+00   3.7756485E-01   2.9073272E+00   0.0000000E+00   3.9666522E-01   2.9541788E+00   0.0000000E+00   3.9792150E-01   2.9951890E+00   0.0000000E+00   3.8894603E-01   3.0306771E+00   0.0000000E+00   3.7811378E-01   3.0597825E+00   0.0000000E+00   3.7059823E-01   3.0814099E+00   0.0000000E+00   3.6749512E-01   3.0947051E+00   0.0000000E+00   3.6713767E-01   2.7017233E+00   0.0000000E+00   3.4741518E-01   2.7571728E+00   0.0000000E+00   3.8301411E-01   2.8008425E+00   0.0000000E+00   3.9913291E-01   2.8386421E+00   0.0000000E+00   3.9722201E-01   2.8734295E+00   0.0000000E+00   3.8508049E-01   2.9052267E+00   0.0000000E+00   3.7131041E-01   2.9325535E+00   0.0000000E+00   3.6129057E-01   2.9535758E+00   0.0000000E+00   3.5622904E-01   2.9667978E+00   0.0000000E+00   3.5459232E-01   2.6272919E+00   0.0000000E+00   3.5297215E-01   2.6621246E+00   0.0000000E+00   3.8852099E-01   2.6871562E+00   0.0000000E+00   4.0377581E-01   2.7090509E+00   0.0000000E+00   4.0009668E-01   2.7309551E+00   0.0000000E+00   3.8551664E-01   2.7528791E+00   0.0000000E+00   3.6900380E-01   2.7731023E+00   0.0000000E+00   3.5634509E-01   2.7894282E+00   0.0000000E+00   3.4908578E-01   2.8000033E+00   0.0000000E+00   3.4598669E-01   2.5205648E+00   0.0000000E+00   3.5461462E-01   2.5326009E+00   0.0000000E+00   3.9223734E-01   2.5366137E+00   0.0000000E+00   4.0860999E-01   2.5396523E+00   0.0000000E+00   4.0481633E-01   2.5451467E+00   0.0000000E+00   3.8908020E-01   2.5533633E+00   0.0000000E+00   3.7075767E-01   2.5627856E+00   0.0000000E+00   3.5611838E-01   2.5713568E+00   0.0000000E+00   3.4714085E-01   2.5772741E+00   0.0000000E+00   3.4289256E-01   2.3317039E+00   0.0000000E+00   3.5250694E-01   2.3217998E+00   0.0000000E+00   3.9292005E-01   2.3058004E+00   0.0000000E+00   4.1135553E-01   2.2904487E+00   0.0000000E+00   4.0858012E-01   2.2791600E+00   0.0000000E+00   3.9292577E-01   2.2725434E+00   0.0000000E+00   3.7404040E-01   2.2696264E+00   0.0000000E+00   3.5858342E-01   2.2689245E+00   0.0000000E+00   3.4886521E-01   2.2690890E+00   0.0000000E+00   3.4413058E-01   2.0356002E+00   0.0000000E+00   3.4796560E-01   2.0057895E+00   0.0000000E+00   3.9045408E-01   1.9727498E+00   0.0000000E+00   4.1066366E-01   1.9419178E+00   0.0000000E+00   4.0920070E-01   1.9161210E+00   0.0000000E+00   3.9444971E-01   1.8961277E+00   0.0000000E+00   3.7616783E-01   1.8816166E+00   0.0000000E+00   3.6115441E-01   1.8719037E+00   0.0000000E+00   3.5180324E-01   1.8663559E+00   0.0000000E+00   3.4733847E-01   1.6501157E+00   0.0000000E+00   3.4246877E-01   1.6035269E+00   0.0000000E+00   3.8557285E-01   1.5579351E+00   0.0000000E+00   4.0651059E-01   1.5164845E+00   0.0000000E+00   4.0604052E-01   1.4807330E+00   0.0000000E+00   3.9255750E-01   1.4512444E+00   0.0000000E+00   3.7570000E-01   1.4281715E+00   0.0000000E+00   3.6210781E-01   1.4115983E+00   0.0000000E+00   3.5399812E-01   1.4016079E+00   0.0000000E+00   3.5039219E-01   1.2287036E+00   0.0000000E+00   3.3686554E-01   1.1697097E+00   0.0000000E+00   3.7913564E-01   1.1169624E+00   0.0000000E+00   3.9972278E-01   1.0707064E+00   0.0000000E+00   3.9977443E-01   1.0307497E+00   0.0000000E+00   3.8763231E-01   9.9704695E-01   0.0000000E+00   3.7260121E-01   9.6990478E-01   0.0000000E+00   3.6093372E-01   9.4989008E-01   0.0000000E+00   3.5449395E-01   9.3759972E-01   0.0000000E+00   3.5201612E-01   8.3151215E-01   0.0000000E+00   3.3080378E-01   7.6550841E-01   0.0000000E+00   3.7133133E-01   7.1094263E-01   0.0000000E+00   3.9103231E-01   6.6522473E-01   0.0000000E+00   3.9142302E-01   6.2631744E-01   0.0000000E+00   3.8067123E-01   5.9335285E-01   0.0000000E+00   3.6758929E-01   5.6648177E-01   0.0000000E+00   3.5792494E-01   5.4642969E-01   0.0000000E+00   3.5314831E-01   5.3400940E-01   0.0000000E+00   3.5174403E-01   5.0210416E-01   0.0000000E+00   3.2278344E-01   4.3448579E-01   0.0000000E+00   3.6140519E-01   3.8223377E-01   0.0000000E+00   3.8042766E-01   3.4053704E-01   0.0000000E+00   3.8149884E-01   3.0588830E-01   0.0000000E+00   3.7240484E-01   2.7669120E-01   0.0000000E+00   3.6134443E-01   2.5282234E-01   0.0000000E+00   3.5353976E-01   2.3493208E-01   0.0000000E+00   3.5014170E-01   2.2381391E-01   0.0000000E+00   3.4954038E-01   2.5721318E-01   0.0000000E+00   3.1095061E-01   1.9227770E-01   0.0000000E+00   3.4801775E-01   1.4450510E-01   0.0000000E+00   3.6711940E-01   1.0788654E-01   0.0000000E+00   3.6969563E-01   7.8165159E-02   0.0000000E+00   3.6285114E-01   5.3394984E-02   0.0000000E+00   3.5403559E-01   3.3258554E-02   0.0000000E+00   3.4795627E-01   1.8217240E-02   0.0000000E+00   3.4558761E-01   8.8871298E-03   0.0000000E+00   3.4545159E-01   9.0569220E-02   0.0000000E+00   2.9432857E-01   3.1234231E-02   0.0000000E+00   3.2990453E-01  -1.1801137E-02   0.0000000E+00   3.4996951E-01  -4.4296619E-02   0.0000000E+00   3.5510221E-01  -7.0387468E-02   0.0000000E+00   3.5136414E-01  -9.1864981E-02   0.0000000E+00   3.4526461E-01  -1.0907201E-01   0.0000000E+00   3.4096670E-01  -1.2175867E-01   0.0000000E+00   3.3940557E-01  -1.2955835E-01   0.0000000E+00   3.3946928E-01  -1.6183119E-02   0.0000000E+00   2.7310729E-01  -6.8061687E-02   0.0000000E+00   3.0654910E-01  -1.0723938E-01   0.0000000E+00   3.2803535E-01  -1.3766161E-01   0.0000000E+00   3.3666122E-01  -1.6237070E-01   0.0000000E+00   3.3696461E-01  -1.8255816E-01   0.0000000E+00   3.3425909E-01  -1.9841927E-01   0.0000000E+00   3.3205780E-01  -2.0987378E-01   0.0000000E+00   3.3134860E-01  -2.1680598E-01   0.0000000E+00   3.3154699E-01  -8.2964204E-02   0.0000000E+00   2.4886170E-01  -1.2617756E-01   0.0000000E+00   2.7872819E-01  -1.6246583E-01   0.0000000E+00   3.0118829E-01  -1.9294716E-01   0.0000000E+00   3.1374639E-01  -2.1847616E-01   0.0000000E+00   3.1878993E-01  -2.3935676E-01   0.0000000E+00   3.2013455E-01  -2.5551230E-01   0.0000000E+00   3.2051921E-01  -2.6694530E-01   0.0000000E+00   3.2100290E-01  -2.7374679E-01   0.0000000E+00   3.2153919E-01  -1.2548539E-01   0.0000000E+00   2.2408164E-01  -1.5901883E-01   0.0000000E+00   2.4864183E-01  -1.9227915E-01   0.0000000E+00   2.7057615E-01  -2.2396544E-01   0.0000000E+00   2.8658995E-01  -2.5177953E-01   0.0000000E+00   2.9648340E-01  -2.7476928E-01   0.0000000E+00   3.0222988E-01  -2.9247883E-01   0.0000000E+00   3.0567110E-01  -3.0486286E-01   0.0000000E+00   3.0783427E-01  -3.1213781E-01   0.0000000E+00   3.0908826E-01  -1.5385729E-01   0.0000000E+00   2.0125063E-01  -1.7687845E-01   0.0000000E+00   2.1933335E-01  -2.0545071E-01   0.0000000E+00   2.3873907E-01  -2.3737070E-01   0.0000000E+00   2.5646725E-01  -2.6777482E-01   0.0000000E+00   2.7041912E-01  -2.9353109E-01   0.0000000E+00   2.8035071E-01  -3.1352881E-01   0.0000000E+00   2.8704610E-01  -3.2750788E-01   0.0000000E+00   2.9129082E-01  -3.3568150E-01   0.0000000E+00   2.9363763E-01  -1.7450675E-01   0.0000000E+00   1.8211502E-01  -1.8697661E-01   0.0000000E+00   1.9378668E-01  -2.0819098E-01   0.0000000E+00   2.0906356E-01  -2.3706424E-01   0.0000000E+00   2.2589670E-01  -2.6820448E-01   0.0000000E+00   2.4185333E-01  -2.9638016E-01   0.0000000E+00   2.5494045E-01  -3.1880978E-01   0.0000000E+00   2.6454800E-01  -3.3467707E-01   0.0000000E+00   2.7093786E-01  -3.4400803E-01   0.0000000E+00   2.7456278E-01  -1.9135173E-01   0.0000000E+00   1.6735137E-01  -1.9521342E-01   0.0000000E+00   1.7387533E-01  -2.0709841E-01   0.0000000E+00   1.8449683E-01  -2.2872229E-01   0.0000000E+00   1.9820806E-01  -2.5633311E-01   0.0000000E+00   2.1322098E-01  -2.8428727E-01   0.0000000E+00   2.2726767E-01  -3.0818161E-01   0.0000000E+00   2.3862560E-01  -3.2569563E-01   0.0000000E+00   2.4666770E-01  -3.3616695E-01   0.0000000E+00   2.5140628E-01  -2.0519716E-01   0.0000000E+00   1.5598696E-01  -2.0557420E-01   0.0000000E+00   1.5987055E-01  -2.0870908E-01   0.0000000E+00   1.6639850E-01  -2.2023447E-01   0.0000000E+00   1.7592864E-01  -2.3958857E-01   0.0000000E+00   1.8761571E-01  -2.6262072E-01   0.0000000E+00   1.9975093E-01  -2.8454551E-01   0.0000000E+00   2.1060108E-01  -3.0196297E-01   0.0000000E+00   2.1896021E-01  -3.1289572E-01   0.0000000E+00   2.2416198E-01  -2.1107833E-01   0.0000000E+00   1.4487609E-01  -2.1733950E-01   0.0000000E+00   1.5030351E-01  -2.1709605E-01   0.0000000E+00   1.5411381E-01  -2.1894599E-01   0.0000000E+00   1.5970963E-01  -2.2708873E-01   0.0000000E+00   1.6688508E-01  -2.4060036E-01   0.0000000E+00   1.7497794E-01  -2.5607011E-01   0.0000000E+00   1.8277641E-01  -2.6992223E-01   0.0000000E+00   1.8933125E-01  -2.7936018E-01   0.0000000E+00   1.9370273E-01  -1.9599406E-01   0.0000000E+00   1.3291745E-01  -2.1997668E-01   0.0000000E+00   1.4312825E-01  -2.2883958E-01   0.0000000E+00   1.4606829E-01  -2.2761689E-01   0.0000000E+00   1.4805967E-01  -2.2540341E-01   0.0000000E+00   1.5086974E-01  -2.2724709E-01   0.0000000E+00   1.5388523E-01  -2.3267713E-01   0.0000000E+00   1.5710936E-01  -2.3963968E-01   0.0000000E+00   1.6001023E-01  -2.4527618E-01   0.0000000E+00   1.6210951E-01  -1.4984755E-01   0.0000000E+00   1.2774077E-01  -1.9745842E-01   0.0000000E+00   1.3439919E-01  -2.2412252E-01   0.0000000E+00   1.4114790E-01  -2.3686211E-01   0.0000000E+00   1.3983029E-01  -2.3383941E-01   0.0000000E+00   1.3792862E-01  -2.2675380E-01   0.0000000E+00   1.3598473E-01  -2.2161995E-01   0.0000000E+00   1.3415052E-01  -2.1992756E-01   0.0000000E+00   1.3275014E-01  -2.2017498E-01   0.0000000E+00   1.3183531E-01  -1.1446877E-01   0.0000000E+00   1.3018869E-01  -1.5391168E-01   0.0000000E+00   1.2700078E-01  -1.8948503E-01   0.0000000E+00   1.3349818E-01  -2.2221303E-01   0.0000000E+00   1.3280259E-01  -2.3318398E-01   0.0000000E+00   1.2824486E-01  -2.3125111E-01   0.0000000E+00   1.2070394E-01  -2.2174871E-01   0.0000000E+00   1.1388534E-01  -2.1349488E-01   0.0000000E+00   1.0830413E-01  -2.0882797E-01   0.0000000E+00   1.0458728E-01  -1.5539649E-01   0.0000000E+00   1.2027580E-01  -1.5985240E-01   0.0000000E+00   1.2119233E-01  -1.9286889E-01   0.0000000E+00   1.1771531E-01  -2.1066968E-01   0.0000000E+00   1.1595750E-01  -2.2277108E-01   0.0000000E+00   1.0633563E-01  -2.1812685E-01   0.0000000E+00   9.6228585E-02  -2.1087521E-01   0.0000000E+00   8.7083824E-02  -2.0513995E-01   0.0000000E+00   8.1027687E-02  -2.0371069E-01   0.0000000E+00   9.8389141E-02  -2.0469765E-01   0.0000000E+00   9.5591128E-02  -2.1863919E-01   0.0000000E+00   8.5763760E-02  -2.1649043E-01   0.0000000E+00   7.6733485E-02  -2.1275325E-01   0.0000000E+00   6.7431569E-02  -2.0794412E-01   0.0000000E+00   6.1016072E-02  -2.6063415E-01   0.0000000E+00   6.3396432E-02  -2.5014156E-01   0.0000000E+00   5.4986529E-02  -2.3874667E-01   0.0000000E+00   4.9544111E-02  -2.3073912E-01   0.0000000E+00   4.4518389E-02  -1.2046427E-01   0.0000000E+00   2.0525539E-03  -1.2048608E-01   0.0000000E+00   2.1007976E-03  -1.2053379E-01   0.0000000E+00   2.2430180E-03  -1.2055370E-01   0.0000000E+00   2.4714672E-03  -1.2045240E-01   0.0000000E+00   2.7724528E-03  -1.2009195E-01   0.0000000E+00   3.1242433E-03  -1.1928336E-01   0.0000000E+00   3.4926119E-03  -1.1778201E-01   0.0000000E+00   3.8256054E-03  -1.3894033E-01   0.0000000E+00   2.7768319E-03  -1.3897419E-01   0.0000000E+00   2.8372048E-03  -1.3905668E-01   0.0000000E+00   3.0150064E-03  -1.3912915E-01   0.0000000E+00   3.3000486E-03  -1.3908978E-01   0.0000000E+00   3.6740629E-03  -1.3878649E-01   0.0000000E+00   4.1076913E-03  -1.3800886E-01   0.0000000E+00   4.5551714E-03  -1.3648064E-01   0.0000000E+00   4.9493196E-03  -1.5231293E-01   0.0000000E+00   3.4387594E-03  -1.5236118E-01   0.0000000E+00   3.5061811E-03  -1.5248685E-01   0.0000000E+00   3.7044764E-03  -1.5263079E-01   0.0000000E+00   4.0214211E-03  -1.5268934E-01   0.0000000E+00   4.4348631E-03  -1.5250665E-01   0.0000000E+00   4.9087512E-03  -1.5186408E-01   0.0000000E+00   5.3878077E-03  -1.5046927E-01   0.0000000E+00   5.7945270E-03  -1.6320933E-01   0.0000000E+00   3.9965902E-03  -1.6327375E-01   0.0000000E+00   4.0645259E-03  -1.6344847E-01   0.0000000E+00   4.2639174E-03  -1.6367677E-01   0.0000000E+00   4.5810151E-03  -1.6385815E-01   0.0000000E+00   4.9906243E-03  -1.6383997E-01   0.0000000E+00   5.4517188E-03  -1.6340442E-01   0.0000000E+00   5.9030061E-03  -1.6225439E-01   0.0000000E+00   6.2635778E-03  -1.7408726E-01   0.0000000E+00   4.4796155E-03  -1.7416888E-01   0.0000000E+00   4.5415233E-03  -1.7439650E-01   0.0000000E+00   4.7225216E-03  -1.7471693E-01   0.0000000E+00   5.0076135E-03  -1.7503546E-01   0.0000000E+00   5.3690630E-03  -1.7520618E-01   0.0000000E+00   5.7625207E-03  -1.7501783E-01   0.0000000E+00   6.1245156E-03  -1.7417528E-01   0.0000000E+00   6.3790078E-03  -1.8666008E-01   0.0000000E+00   4.9898662E-03  -1.8675967E-01   0.0000000E+00   5.0403150E-03  -1.8704247E-01   0.0000000E+00   5.1865182E-03  -1.8745886E-01   0.0000000E+00   5.4118996E-03  -1.8792057E-01   0.0000000E+00   5.6858580E-03  -1.8829024E-01   0.0000000E+00   5.9611541E-03  -1.8836483E-01   0.0000000E+00   6.1752046E-03  -1.8785530E-01   0.0000000E+00   6.2643904E-03  -2.0170365E-01   0.0000000E+00   5.6887581E-03  -2.0182137E-01   0.0000000E+00   5.7240897E-03  -2.0215967E-01   0.0000000E+00   5.8240728E-03  -2.0267238E-01   0.0000000E+00   5.9693069E-03  -2.0327666E-01   0.0000000E+00   6.1246641E-03  -2.0384321E-01   0.0000000E+00   6.2387735E-03  -2.0417961E-01   0.0000000E+00   6.2509677E-03  -2.0400684E-01   0.0000000E+00   6.1151376E-03  -2.1923934E-01   0.0000000E+00   6.7762681E-03  -2.1937454E-01   0.0000000E+00   6.7948396E-03  -2.1976598E-01   0.0000000E+00   6.8428591E-03  -2.2036970E-01   0.0000000E+00   6.8959929E-03  -2.2110739E-01   0.0000000E+00   6.9117039E-03  -2.2185796E-01   0.0000000E+00   6.8316455E-03  -2.2244152E-01   0.0000000E+00   6.5959827E-03  -2.2259647E-01   0.0000000E+00   6.1795986E-03  -2.3903719E-01   0.0000000E+00   8.4678531E-03  -2.3918791E-01   0.0000000E+00   8.4698964E-03  -2.3962575E-01   0.0000000E+00   8.4658042E-03  -2.4030767E-01   0.0000000E+00   8.4239850E-03  -2.4115889E-01   0.0000000E+00   8.2913712E-03  -2.4206719E-01   0.0000000E+00   7.9993540E-03  -2.4286859E-01   0.0000000E+00   7.4880808E-03  -2.4333166E-01   0.0000000E+00   6.7588449E-03  -2.6113501E-01   0.0000000E+00   1.0972657E-02  -2.6129740E-01   0.0000000E+00   1.0960055E-02  -2.6176971E-01   0.0000000E+00   1.0909047E-02  -2.6250920E-01   0.0000000E+00   1.0779488E-02  -2.6344311E-01   0.0000000E+00   1.0505875E-02  -2.6446837E-01   0.0000000E+00   1.0008416E-02  -2.6544330E-01   0.0000000E+00   9.2300884E-03  -2.6617885E-01   0.0000000E+00   8.2104281E-03  -2.8569117E-01   0.0000000E+00   1.4473265E-02  -2.8585973E-01   0.0000000E+00   1.4449332E-02  -2.8635025E-01   0.0000000E+00   1.4361479E-02  -2.8711864E-01   0.0000000E+00   1.4161709E-02  -2.8809512E-01   0.0000000E+00   1.3773515E-02  -2.8918633E-01   0.0000000E+00   1.3109966E-02  -2.9027751E-01   0.0000000E+00   1.2125841E-02  -2.9123306E-01   0.0000000E+00   1.0915782E-02  -3.1280425E-01   0.0000000E+00   1.9106494E-02  -3.1297186E-01   0.0000000E+00   1.9075306E-02  -3.1345922E-01   0.0000000E+00   1.8963825E-02  -3.1422225E-01   0.0000000E+00   1.8719230E-02  -3.1519371E-01   0.0000000E+00   1.8259935E-02  -3.1629148E-01   0.0000000E+00   1.7501578E-02  -3.1743041E-01   0.0000000E+00   1.6424539E-02  -3.1853333E-01   0.0000000E+00   1.5192565E-02  -3.4255862E-01   0.0000000E+00   2.4948167E-02  -3.4271663E-01   0.0000000E+00   2.4913358E-02  -3.4317464E-01   0.0000000E+00   2.4790959E-02  -3.4389076E-01   0.0000000E+00   2.4528630E-02  -3.4480205E-01   0.0000000E+00   2.4048943E-02  -3.4583846E-01   0.0000000E+00   2.3283085E-02  -3.4694242E-01   0.0000000E+00   2.2249866E-02  -3.4809050E-01   0.0000000E+00   2.1184288E-02  -3.7504312E-01   0.0000000E+00   3.2003324E-02  -3.7518030E-01   0.0000000E+00   3.1966455E-02  -3.7557799E-01   0.0000000E+00   3.1840131E-02  -3.7619770E-01   0.0000000E+00   3.1579193E-02  -3.7698296E-01   0.0000000E+00   3.1120697E-02  -3.7787640E-01   0.0000000E+00   3.0422276E-02  -3.7884209E-01   0.0000000E+00   2.9546343E-02  -3.7989557E-01   0.0000000E+00   2.8783875E-02  -4.1034818E-01   0.0000000E+00   4.0201999E-02  -4.1045159E-01   0.0000000E+00   4.0161014E-02  -4.1075027E-01   0.0000000E+00   4.0026773E-02  -4.1121241E-01   0.0000000E+00   3.9767679E-02  -4.1179210E-01   0.0000000E+00   3.9344039E-02  -4.1244361E-01   0.0000000E+00   3.8745336E-02  -4.1314399E-01   0.0000000E+00   3.8070407E-02  -4.1392663E-01   0.0000000E+00   3.7635952E-02  -4.4854957E-01   0.0000000E+00   4.9401868E-02  -4.4860363E-01   0.0000000E+00   4.9349852E-02  -4.4875842E-01   0.0000000E+00   4.9188923E-02  -4.4899130E-01   0.0000000E+00   4.8905823E-02  -4.4926962E-01   0.0000000E+00   4.8488718E-02  -4.4956067E-01   0.0000000E+00   4.7958139E-02  -4.4984812E-01   0.0000000E+00   4.7434617E-02  -4.5016101E-01   0.0000000E+00   4.7225937E-02  -4.8968747E-01   0.0000000E+00   5.9392203E-02  -4.8967555E-01   0.0000000E+00   5.9317671E-02  -4.8963550E-01   0.0000000E+00   5.9096821E-02  -4.8955762E-01   0.0000000E+00   5.8737237E-02  -4.8942652E-01   0.0000000E+00   5.8256023E-02  -4.8922491E-01   0.0000000E+00   5.7700198E-02  -4.8894125E-01   0.0000000E+00   5.7197422E-02  -4.8858532E-01   0.0000000E+00   5.7020228E-02  -5.3374076E-01   0.0000000E+00   6.9899179E-02  -5.3364444E-01   0.0000000E+00   6.9788292E-02  -5.3335732E-01   0.0000000E+00   6.9466352E-02  -5.3288436E-01   0.0000000E+00   6.8962522E-02  -5.3223127E-01   0.0000000E+00   6.8321280E-02  -5.3140092E-01   0.0000000E+00   6.7611918E-02  -5.3039086E-01   0.0000000E+00   6.6960827E-02  -5.2919257E-01   0.0000000E+00   6.6594236E-02  -5.8059758E-01   0.0000000E+00   8.0602907E-02  -5.8040017E-01   0.0000000E+00   8.0442481E-02  -5.7981646E-01   0.0000000E+00   7.9980120E-02  -5.7886851E-01   0.0000000E+00   7.9266220E-02  -5.7758784E-01   0.0000000E+00   7.8371905E-02  -5.7600570E-01   0.0000000E+00   7.7386267E-02  -5.7413602E-01   0.0000000E+00   7.6431930E-02  -5.7196295E-01   0.0000000E+00   7.5692497E-02  -6.3003302E-01   0.0000000E+00   9.1169856E-02  -6.2972099E-01   0.0000000E+00   9.0949796E-02  -6.2880015E-01   0.0000000E+00   9.0317093E-02  -6.2731332E-01   0.0000000E+00   8.9345291E-02  -6.2532318E-01   0.0000000E+00   8.8132672E-02  -6.2289470E-01   0.0000000E+00   8.6787917E-02  -6.2006980E-01   0.0000000E+00   8.5431479E-02  -6.1683947E-01   0.0000000E+00   8.4214784E-02  -6.8169934E-01   0.0000000E+00   1.0129204E-01  -6.8126357E-01   0.0000000E+00   1.0100724E-01  -6.7998111E-01   0.0000000E+00   1.0019041E-01  -6.7791760E-01   0.0000000E+00   9.8940313E-02  -6.7517138E-01   0.0000000E+00   9.7385429E-02  -6.7184663E-01   0.0000000E+00   9.5654167E-02  -6.6802168E-01   0.0000000E+00   9.3866862E-02  -6.6370559E-01   0.0000000E+00   9.2152558E-02  -7.3511630E-01   0.0000000E+00   1.1072687E-01  -7.3455572E-01   0.0000000E+00   1.1037949E-01  -7.3290652E-01   0.0000000E+00   1.0938521E-01  -7.3026067E-01   0.0000000E+00   1.0786944E-01  -7.2675449E-01   0.0000000E+00   1.0599065E-01  -7.2253525E-01   0.0000000E+00   1.0389480E-01  -7.1771926E-01   0.0000000E+00   1.0170040E-01  -7.1234328E-01   0.0000000E+00   9.9520914E-02  -7.8959757E-01   0.0000000E+00   1.1933419E-01  -7.8891760E-01   0.0000000E+00   1.1893511E-01  -7.8691918E-01   0.0000000E+00   1.1779467E-01  -7.8372031E-01   0.0000000E+00   1.1606057E-01  -7.7949226E-01   0.0000000E+00   1.1391247E-01  -7.7442467E-01   0.0000000E+00   1.1150321E-01  -7.6867419E-01   0.0000000E+00   1.0894022E-01  -7.6230693E-01   0.0000000E+00   1.0632533E-01  -8.4399551E-01   0.0000000E+00   1.2709908E-01  -8.4320903E-01   0.0000000E+00   1.2666963E-01  -8.4089988E-01   0.0000000E+00   1.2544253E-01  -8.3720469E-01   0.0000000E+00   1.2357357E-01  -8.3232528E-01   0.0000000E+00   1.2124126E-01  -8.2648569E-01   0.0000000E+00   1.1857816E-01  -8.1987715E-01   0.0000000E+00   1.1566023E-01  -8.1260544E-01   0.0000000E+00   1.1257847E-01  -8.9615828E-01   0.0000000E+00   1.3412784E-01  -8.9528543E-01   0.0000000E+00   1.3370174E-01  -8.9271814E-01   0.0000000E+00   1.3248028E-01  -8.8860488E-01   0.0000000E+00   1.3060115E-01  -8.8316202E-01   0.0000000E+00   1.2819993E-01  -8.7663537E-01   0.0000000E+00   1.2534225E-01  -8.6924559E-01   0.0000000E+00   1.2203540E-01  -8.6115009E-01   0.0000000E+00   1.1835742E-01  -9.4221073E-01   0.0000000E+00   1.4060426E-01  -9.4127411E-01   0.0000000E+00   1.4023004E-01  -9.3851584E-01   0.0000000E+00   1.3914534E-01  -9.3407774E-01   0.0000000E+00   1.3742861E-01  -9.2817110E-01   0.0000000E+00   1.3511327E-01  -9.2104119E-01   0.0000000E+00   1.3212848E-01  -9.1293484E-01   0.0000000E+00   1.2836018E-01  -9.0407681E-01   0.0000000E+00   1.2386914E-01  -9.7603160E-01   0.0000000E+00   1.4671108E-01  -9.7506070E-01   0.0000000E+00   1.4645141E-01  -9.7218913E-01   0.0000000E+00   1.4567377E-01  -9.6753567E-01   0.0000000E+00   1.4434506E-01  -9.6127731E-01   0.0000000E+00   1.4232095E-01  -9.5364100E-01   0.0000000E+00   1.3931277E-01  -9.4488966E-01   0.0000000E+00   1.3502480E-01  -9.3533361E-01   0.0000000E+00   1.2950118E-01  -9.8944145E-01   0.0000000E+00   1.5252948E-01  -9.8846698E-01   0.0000000E+00   1.5245846E-01  -9.8556888E-01   0.0000000E+00   1.5218931E-01  -9.8082048E-01   0.0000000E+00   1.5152341E-01  -9.7434253E-01   0.0000000E+00   1.5006177E-01  -9.6631801E-01   0.0000000E+00   1.4722130E-01  -9.5701832E-01   0.0000000E+00   1.4248018E-01  -9.4684374E-01   0.0000000E+00   1.3588649E-01  -9.7331583E-01   0.0000000E+00   1.5802279E-01  -9.7236037E-01   0.0000000E+00   1.5821803E-01  -9.6949637E-01   0.0000000E+00   1.5867423E-01  -9.6473867E-01   0.0000000E+00   1.5898347E-01  -9.5813149E-01   0.0000000E+00   1.5843786E-01  -9.4979739E-01   0.0000000E+00   1.5612236E-01  -9.3999749E-01   0.0000000E+00   1.5129183E-01  -9.2919683E-01   0.0000000E+00   1.4403555E-01  -9.1797155E-01   0.0000000E+00   1.6333655E-01  -9.1702414E-01   0.0000000E+00   1.6386600E-01  -9.1415989E-01   0.0000000E+00   1.6524710E-01  -9.0932405E-01   0.0000000E+00   1.6685431E-01  -9.0247130E-01   0.0000000E+00   1.6767365E-01  -8.9364648E-01   0.0000000E+00   1.6649079E-01  -8.8307959E-01   0.0000000E+00   1.6239507E-01  -8.7125915E-01   0.0000000E+00   1.5548830E-01  -8.0785054E-01   0.0000000E+00   1.6951677E-01  -8.0683982E-01   0.0000000E+00   1.7042214E-01  -8.0376089E-01   0.0000000E+00   1.7286801E-01  -7.9848510E-01   0.0000000E+00   1.7605996E-01  -7.9088217E-01   0.0000000E+00   1.7875916E-01  -7.8092253E-01   0.0000000E+00   1.7954960E-01  -7.6878732E-01   0.0000000E+00   1.7738275E-01  -7.5496227E-01   0.0000000E+00   1.7217743E-01  -6.1372793E-01   0.0000000E+00   1.7900155E-01  -6.1251926E-01   0.0000000E+00   1.8027773E-01  -6.0882646E-01   0.0000000E+00   1.8381426E-01  -6.0247511E-01   0.0000000E+00   1.8875490E-01  -5.9328187E-01   0.0000000E+00   1.9377777E-01  -5.8117169E-01   0.0000000E+00   1.9736665E-01  -5.6629407E-01   0.0000000E+00   1.9824632E-01  -5.4906696E-01   0.0000000E+00   1.9581766E-01  -2.9607317E-01   0.0000000E+00   1.9525743E-01  -2.9452062E-01   0.0000000E+00   1.9682944E-01  -2.8979450E-01   0.0000000E+00   2.0129366E-01  -2.8172913E-01   0.0000000E+00   2.0788655E-01  -2.7015817E-01   0.0000000E+00   2.1536401E-01  -2.5503296E-01   0.0000000E+00   2.2215074E-01  -2.3649377E-01   0.0000000E+00   2.2655077E-01  -2.1479315E-01   0.0000000E+00   2.2706628E-01   1.7801517E-01   0.0000000E+00   2.2140461E-01   1.7996217E-01   0.0000000E+00   2.2310960E-01   1.8584427E-01   0.0000000E+00   2.2808623E-01   1.9574913E-01   0.0000000E+00   2.3583753E-01   2.0972323E-01   0.0000000E+00   2.4534917E-01   2.2769879E-01   0.0000000E+00   2.5497189E-01   2.4949892E-01   0.0000000E+00   2.6235145E-01   2.7502817E-01   0.0000000E+00   2.6473179E-01   8.0929142E-01   0.0000000E+00   2.5807562E-01   8.1146216E-01   0.0000000E+00   2.5967488E-01   8.1796461E-01   0.0000000E+00   2.6451385E-01   8.2873654E-01   0.0000000E+00   2.7251908E-01   8.4360814E-01   0.0000000E+00   2.8304085E-01   8.6229444E-01   0.0000000E+00   2.9432920E-01   8.8448310E-01   0.0000000E+00   3.0317283E-01   9.1009885E-01   0.0000000E+00   3.0529767E-01   1.5421664E+00   0.0000000E+00   3.0132204E-01   1.5441034E+00   0.0000000E+00   3.0255172E-01   1.5498412E+00   0.0000000E+00   3.0651414E-01   1.5591319E+00   0.0000000E+00   3.1368861E-01   1.5715528E+00   0.0000000E+00   3.2389227E-01   1.5865436E+00   0.0000000E+00   3.3526471E-01   1.6035658E+00   0.0000000E+00   3.4365961E-01   1.6223429E+00   0.0000000E+00   3.4321934E-01   2.2603331E+00   0.0000000E+00   3.4245518E-01   2.2613626E+00   0.0000000E+00   3.4312481E-01   2.2643168E+00   0.0000000E+00   3.4566662E-01   2.2688115E+00   0.0000000E+00   3.5117102E-01   2.2742164E+00   0.0000000E+00   3.5997254E-01   2.2797422E+00   0.0000000E+00   3.7015295E-01   2.2845886E+00   0.0000000E+00   3.7674716E-01   2.2881007E+00   0.0000000E+00   3.7253997E-01   2.8091102E+00   0.0000000E+00   3.7127486E-01   2.8086922E+00   0.0000000E+00   3.7136984E-01   2.8072801E+00   0.0000000E+00   3.7240857E-01   2.8044090E+00   0.0000000E+00   3.7601587E-01   2.7993824E+00   0.0000000E+00   3.8303280E-01   2.7913735E+00   0.0000000E+00   3.9166650E-01   2.7794924E+00   0.0000000E+00   3.9655367E-01   2.7628117E+00   0.0000000E+00   3.8967064E-01   3.0966055E+00   0.0000000E+00   3.8268441E-01   3.0944972E+00   0.0000000E+00   3.8237676E-01   3.0880475E+00   0.0000000E+00   3.8235447E-01   3.0769351E+00   0.0000000E+00   3.8462055E-01   3.0607169E+00   0.0000000E+00   3.9045402E-01   3.0389285E+00   0.0000000E+00   3.9834058E-01   3.0110037E+00   0.0000000E+00   4.0291959E-01   2.9759846E+00   0.0000000E+00   3.9590347E-01   3.1640925E+00   0.0000000E+00   3.7917084E-01   3.1604934E+00   0.0000000E+00   3.7875724E-01   3.1496797E+00   0.0000000E+00   3.7848055E-01   3.1316779E+00   0.0000000E+00   3.8053450E-01   3.1066203E+00   0.0000000E+00   3.8649467E-01   3.0747371E+00   0.0000000E+00   3.9513239E-01   3.0361192E+00   0.0000000E+00   4.0123817E-01   2.9900541E+00   0.0000000E+00   3.9650208E-01   3.0991888E+00   0.0000000E+00   3.6733696E-01   3.0947063E+00   0.0000000E+00   3.6713785E-01   3.0814078E+00   0.0000000E+00   3.6749494E-01   3.0597847E+00   0.0000000E+00   3.7059811E-01   3.0306773E+00   0.0000000E+00   3.7811372E-01   2.9951887E+00   0.0000000E+00   3.8894612E-01   2.9541800E+00   0.0000000E+00   3.9792156E-01   2.9073281E+00   0.0000000E+00   3.9666489E-01   2.9713085E+00   0.0000000E+00   3.5434529E-01   2.9668002E+00   0.0000000E+00   3.5459229E-01   2.9535768E+00   0.0000000E+00   3.5622883E-01   2.9325531E+00   0.0000000E+00   3.6129081E-01   2.9052277E+00   0.0000000E+00   3.7131023E-01   2.8734305E+00   0.0000000E+00   3.8508025E-01   2.8386438E+00   0.0000000E+00   3.9722201E-01   2.8008423E+00   0.0000000E+00   3.9913297E-01   2.8036616E+00   0.0000000E+00   3.4522635E-01   2.8000054E+00   0.0000000E+00   3.4598669E-01   2.7894289E+00   0.0000000E+00   3.4908554E-01   2.7731020E+00   0.0000000E+00   3.5634482E-01   2.7528801E+00   0.0000000E+00   3.6900380E-01   2.7309556E+00   0.0000000E+00   3.8551646E-01   2.7090502E+00   0.0000000E+00   4.0009636E-01   2.6871564E+00   0.0000000E+00   4.0377572E-01   2.5793769E+00   0.0000000E+00   3.4172860E-01   2.5772734E+00   0.0000000E+00   3.4289241E-01   2.5713565E+00   0.0000000E+00   3.4714055E-01   2.5627861E+00   0.0000000E+00   3.5611811E-01   2.5533636E+00   0.0000000E+00   3.7075749E-01   2.5451486E+00   0.0000000E+00   3.8908032E-01   2.5396521E+00   0.0000000E+00   4.0481618E-01   2.5366130E+00   0.0000000E+00   4.0860987E-01   2.2692442E+00   0.0000000E+00   3.4279716E-01   2.2690880E+00   0.0000000E+00   3.4413016E-01   2.2689252E+00   0.0000000E+00   3.4886515E-01   2.2696278E+00   0.0000000E+00   3.5858312E-01   2.2725430E+00   0.0000000E+00   3.7404025E-01   2.2791607E+00   0.0000000E+00   3.9292532E-01   2.2904484E+00   0.0000000E+00   4.0858024E-01   2.3058014E+00   0.0000000E+00   4.1135561E-01   1.8645531E+00   0.0000000E+00   3.4610504E-01   1.8663559E+00   0.0000000E+00   3.4733835E-01   1.8719043E+00   0.0000000E+00   3.5180292E-01   1.8816166E+00   0.0000000E+00   3.6115393E-01   1.8961282E+00   0.0000000E+00   3.7616763E-01   1.9161211E+00   0.0000000E+00   3.9444956E-01   1.9419171E+00   0.0000000E+00   4.0920067E-01   1.9727483E+00   0.0000000E+00   4.1066363E-01   1.3982700E+00   0.0000000E+00   3.4946615E-01   1.4016076E+00   0.0000000E+00   3.5039213E-01   1.4115981E+00   0.0000000E+00   3.5399756E-01   1.4281719E+00   0.0000000E+00   3.6210772E-01   1.4512442E+00   0.0000000E+00   3.7569982E-01   1.4807329E+00   0.0000000E+00   3.9255741E-01   1.5164840E+00   0.0000000E+00   4.0604046E-01   1.5579351E+00   0.0000000E+00   4.0651062E-01   9.3345404E-01   0.0000000E+00   3.5148761E-01   9.3760020E-01   0.0000000E+00   3.5201591E-01   9.4989002E-01   0.0000000E+00   3.5449380E-01   9.6990478E-01   0.0000000E+00   3.6093342E-01   9.9704689E-01   0.0000000E+00   3.7260091E-01   1.0307498E+00   0.0000000E+00   3.8763198E-01   1.0707061E+00   0.0000000E+00   3.9977452E-01   1.1169603E+00   0.0000000E+00   3.9972311E-01   5.2980185E-01   0.0000000E+00   3.5158479E-01   5.3400922E-01   0.0000000E+00   3.5174415E-01   5.4642975E-01   0.0000000E+00   3.5314825E-01   5.6648183E-01   0.0000000E+00   3.5792455E-01   5.9335279E-01   0.0000000E+00   3.6758918E-01   6.2631750E-01   0.0000000E+00   3.8067135E-01   6.6522497E-01   0.0000000E+00   3.9142305E-01   7.1094251E-01   0.0000000E+00   3.9103225E-01   2.2004046E-01   0.0000000E+00   3.4963962E-01   2.2381388E-01   0.0000000E+00   3.4954014E-01   2.3493224E-01   0.0000000E+00   3.5014188E-01   2.5282261E-01   0.0000000E+00   3.5353935E-01   2.7669117E-01   0.0000000E+00   3.6134431E-01   3.0588838E-01   0.0000000E+00   3.7240463E-01   3.4053689E-01   0.0000000E+00   3.8149887E-01   3.8223377E-01   0.0000000E+00   3.8042772E-01   5.7224752E-03   0.0000000E+00   3.4567365E-01   8.8871848E-03   0.0000000E+00   3.4545159E-01   1.8217316E-02   0.0000000E+00   3.4558749E-01   3.3258695E-02   0.0000000E+00   3.4795630E-01   5.3395193E-02   0.0000000E+00   3.5403568E-01   7.8165263E-02   0.0000000E+00   3.6285108E-01   1.0788654E-01   0.0000000E+00   3.6969581E-01   1.4450525E-01   0.0000000E+00   3.6711940E-01  -1.3219205E-01   0.0000000E+00   3.3970043E-01  -1.2955831E-01   0.0000000E+00   3.3946919E-01  -1.2175865E-01   0.0000000E+00   3.3940548E-01  -1.0907193E-01   0.0000000E+00   3.4096682E-01  -9.1864876E-02   0.0000000E+00   3.4526458E-01  -7.0387393E-02   0.0000000E+00   3.5136384E-01  -4.4296626E-02   0.0000000E+00   3.5510230E-01  -1.1801154E-02   0.0000000E+00   3.4996948E-01  -2.1912734E-01   0.0000000E+00   3.3174691E-01  -2.1680589E-01   0.0000000E+00   3.3154699E-01  -2.0987366E-01   0.0000000E+00   3.3134860E-01  -1.9841918E-01   0.0000000E+00   3.3205777E-01  -1.8255813E-01   0.0000000E+00   3.3425891E-01  -1.6237064E-01   0.0000000E+00   3.3696449E-01  -1.3766156E-01   0.0000000E+00   3.3666140E-01  -1.0723942E-01   0.0000000E+00   3.2803538E-01  -2.7600327E-01   0.0000000E+00   3.2177517E-01  -2.7374673E-01   0.0000000E+00   3.2153910E-01  -2.6694518E-01   0.0000000E+00   3.2100287E-01  -2.5551236E-01   0.0000000E+00   3.2051921E-01  -2.3935664E-01   0.0000000E+00   3.2013443E-01  -2.1847616E-01   0.0000000E+00   3.1878981E-01  -1.9294719E-01   0.0000000E+00   3.1374639E-01  -1.6246590E-01   0.0000000E+00   3.0118820E-01  -3.1453341E-01   0.0000000E+00   3.0950648E-01  -3.1213772E-01   0.0000000E+00   3.0908811E-01  -3.0486271E-01   0.0000000E+00   3.0783454E-01  -2.9247886E-01   0.0000000E+00   3.0567113E-01  -2.7476925E-01   0.0000000E+00   3.0222976E-01  -2.5177956E-01   0.0000000E+00   2.9648343E-01  -2.2396539E-01   0.0000000E+00   2.8658998E-01  -1.9227915E-01   0.0000000E+00   2.7057630E-01  -3.3836192E-01   0.0000000E+00   2.9439035E-01  -3.3568162E-01   0.0000000E+00   2.9363760E-01  -3.2750764E-01   0.0000000E+00   2.9129073E-01  -3.1352887E-01   0.0000000E+00   2.8704590E-01  -2.9353106E-01   0.0000000E+00   2.8035092E-01  -2.6777479E-01   0.0000000E+00   2.7041924E-01  -2.3737060E-01   0.0000000E+00   2.5646704E-01  -2.0545068E-01   0.0000000E+00   2.3873927E-01  -3.4707221E-01   0.0000000E+00   2.7573848E-01  -3.4400791E-01   0.0000000E+00   2.7456290E-01  -3.3467713E-01   0.0000000E+00   2.7093801E-01  -3.1880948E-01   0.0000000E+00   2.6454797E-01  -2.9638016E-01   0.0000000E+00   2.5494036E-01  -2.6820457E-01   0.0000000E+00   2.4185348E-01  -2.3706412E-01   0.0000000E+00   2.2589676E-01  -2.0819092E-01   0.0000000E+00   2.0906362E-01  -3.3963168E-01   0.0000000E+00   2.5296968E-01  -3.3616695E-01   0.0000000E+00   2.5140640E-01  -3.2569566E-01   0.0000000E+00   2.4666753E-01  -3.0818152E-01   0.0000000E+00   2.3862553E-01  -2.8428739E-01   0.0000000E+00   2.2726756E-01  -2.5633311E-01   0.0000000E+00   2.1322100E-01  -2.2872230E-01   0.0000000E+00   1.9820800E-01  -2.0709839E-01   0.0000000E+00   1.8449691E-01  -3.1660244E-01   0.0000000E+00   2.2592452E-01  -3.1289563E-01   0.0000000E+00   2.2416186E-01  -3.0196291E-01   0.0000000E+00   2.1896014E-01  -2.8454557E-01   0.0000000E+00   2.1060105E-01  -2.6262075E-01   0.0000000E+00   1.9975093E-01  -2.3958857E-01   0.0000000E+00   1.8761563E-01  -2.2023460E-01   0.0000000E+00   1.7592859E-01  -2.0870925E-01   0.0000000E+00   1.6639842E-01  -2.8269720E-01   0.0000000E+00   1.9523597E-01  -2.7936020E-01   0.0000000E+00   1.9370265E-01  -2.6992214E-01   0.0000000E+00   1.8933126E-01  -2.5607029E-01   0.0000000E+00   1.8277638E-01  -2.4060060E-01   0.0000000E+00   1.7497784E-01  -2.2708885E-01   0.0000000E+00   1.6688500E-01  -2.1894625E-01   0.0000000E+00   1.5970953E-01  -2.1709599E-01   0.0000000E+00   1.5411396E-01  -2.4738519E-01   0.0000000E+00   1.6287509E-01  -2.4527627E-01   0.0000000E+00   1.6210951E-01  -2.3963964E-01   0.0000000E+00   1.6001020E-01  -2.3267736E-01   0.0000000E+00   1.5710928E-01  -2.2724715E-01   0.0000000E+00   1.5388514E-01  -2.2540362E-01   0.0000000E+00   1.5086973E-01  -2.2761703E-01   0.0000000E+00   1.4805962E-01  -2.2883984E-01   0.0000000E+00   1.4606827E-01  -2.2053115E-01   0.0000000E+00   1.3152272E-01  -2.2017495E-01   0.0000000E+00   1.3183519E-01  -2.1992762E-01   0.0000000E+00   1.3275011E-01  -2.2161986E-01   0.0000000E+00   1.3415039E-01  -2.2675392E-01   0.0000000E+00   1.3598454E-01  -2.3383965E-01   0.0000000E+00   1.3792861E-01  -2.3686235E-01   0.0000000E+00   1.3983025E-01  -2.2412264E-01   0.0000000E+00   1.4114793E-01  -2.0757756E-01   0.0000000E+00   1.0325109E-01  -2.0882799E-01   0.0000000E+00   1.0458721E-01  -2.1349481E-01   0.0000000E+00   1.0830394E-01  -2.2174925E-01   0.0000000E+00   1.1388518E-01  -2.3125124E-01   0.0000000E+00   1.2070376E-01  -2.3318438E-01   0.0000000E+00   1.2824474E-01  -2.2221319E-01   0.0000000E+00   1.3280255E-01  -1.8948549E-01   0.0000000E+00   1.3349819E-01  -2.0301417E-01   0.0000000E+00   7.8968965E-02  -2.0514016E-01   0.0000000E+00   8.1027575E-02  -2.1087511E-01   0.0000000E+00   8.7083682E-02  -2.1812689E-01   0.0000000E+00   9.6228383E-02  -2.2277111E-01   0.0000000E+00   1.0633545E-01  -2.1067004E-01   0.0000000E+00   1.1595736E-01  -1.9286920E-01   0.0000000E+00   1.1771525E-01  -1.5985286E-01   0.0000000E+00   1.2119237E-01  -2.0511982E-01   0.0000000E+00   5.8770571E-02  -2.0794442E-01   0.0000000E+00   6.1015978E-02  -2.1275356E-01   0.0000000E+00   6.7431442E-02  -2.1649078E-01   0.0000000E+00   7.6733209E-02  -2.1863949E-01   0.0000000E+00   8.5763551E-02  -2.0469745E-01   0.0000000E+00   9.5590942E-02  -2.0371014E-01   0.0000000E+00   9.8388895E-02  -2.2789019E-01   0.0000000E+00   4.2473242E-02  -2.3073906E-01   0.0000000E+00   4.4518284E-02  -2.3874654E-01   0.0000000E+00   4.9543966E-02  -2.5014138E-01   0.0000000E+00   5.4986358E-02  -2.6063398E-01   0.0000000E+00   6.3396156E-02  -1.1528709E-01   0.0000000E+00   4.0384200E-03  -1.1143760E-01   0.0000000E+00   3.9814855E-03  -1.0578648E-01   0.0000000E+00   3.4214957E-03  -9.7846612E-02   0.0000000E+00   2.1389062E-03  -8.7256595E-02   0.0000000E+00   7.1256654E-05  -7.4022211E-02   0.0000000E+00  -2.5561424E-03  -5.8780573E-02   0.0000000E+00  -5.1248064E-03  -1.3386098E-01   0.0000000E+00   5.1915855E-03  -1.2973547E-01   0.0000000E+00   5.1010638E-03  -1.2357151E-01   0.0000000E+00   4.3884590E-03  -1.1476552E-01   0.0000000E+00   2.7802433E-03  -1.0284247E-01   0.0000000E+00   1.8922309E-04  -8.7753609E-02   0.0000000E+00  -3.1302436E-03  -7.0198804E-02   0.0000000E+00  -6.4535448E-03  -5.1773056E-02   0.0000000E+00  -8.6101666E-03  -1.4795490E-01   0.0000000E+00   6.0292310E-03  -1.4386740E-01   0.0000000E+00   5.9008840E-03  -1.3759679E-01   0.0000000E+00   5.0849770E-03  -1.2841487E-01   0.0000000E+00   3.2637343E-03  -1.1569974E-01   0.0000000E+00   3.1847740E-04  -9.9285081E-02   0.0000000E+00  -3.4957165E-03  -7.9849645E-02   0.0000000E+00  -7.4093705E-03  -5.9168946E-02   0.0000000E+00  -1.0172302E-02  -1.6000471E-01   0.0000000E+00   6.4472021E-03  -1.5616763E-01   0.0000000E+00   6.2816101E-03  -1.5006001E-01   0.0000000E+00   5.4310607E-03  -1.4081813E-01   0.0000000E+00   3.5409373E-03  -1.2764007E-01   0.0000000E+00   4.4763088E-04  -1.1019084E-01   0.0000000E+00  -3.6288439E-03  -8.9097187E-02   0.0000000E+00  -7.9247598E-03  -6.6317260E-02   0.0000000E+00  -1.1124942E-02  -1.7228258E-01   0.0000000E+00   6.4657521E-03  -1.6881774E-01   0.0000000E+00   6.2591014E-03  -1.6302581E-01   0.0000000E+00   5.4343832E-03  -1.5389849E-01   0.0000000E+00   3.6077006E-03  -1.4043413E-01   0.0000000E+00   5.6029158E-04  -1.2215167E-01   0.0000000E+00  -3.5546618E-03  -9.9598110E-02   0.0000000E+00  -8.0256891E-03  -7.4801594E-02   0.0000000E+00  -1.1502798E-02  -1.8636398E-01   0.0000000E+00   6.2053506E-03  -1.8334179E-01   0.0000000E+00   5.9338403E-03  -1.7795962E-01   0.0000000E+00   5.1591252E-03  -1.6909982E-01   0.0000000E+00   3.4853478E-03  -1.5572099E-01   0.0000000E+00   6.3437689E-04  -1.3722584E-01   0.0000000E+00  -3.3463961E-03  -1.1387957E-01   0.0000000E+00  -7.8487881E-03  -8.7416336E-02   0.0000000E+00  -1.1487441E-02  -2.0293583E-01   0.0000000E+00   5.8549675E-03  -2.0041429E-01   0.0000000E+00   5.4717590E-03  -1.9558281E-01   0.0000000E+00   4.7365194E-03  -1.8745823E-01   0.0000000E+00   3.2632423E-03  -1.7515810E-01   0.0000000E+00   6.8491185E-04  -1.5793914E-01   0.0000000E+00  -3.1049140E-03  -1.3546713E-01   0.0000000E+00  -7.6197376E-03  -1.0821921E-01   0.0000000E+00  -1.1335254E-02  -2.2195940E-01   0.0000000E+00   5.6625865E-03  -2.2000930E-01   0.0000000E+00   5.1292148E-03  -2.1607615E-01   0.0000000E+00   4.4282912E-03  -2.0959590E-01   0.0000000E+00   3.1568524E-03  -2.0006835E-01   0.0000000E+00   7.9922006E-04  -1.8670109E-01   0.0000000E+00  -2.9357641E-03  -1.6817062E-01   0.0000000E+00  -7.6259230E-03  -1.4223129E-01   0.0000000E+00  -1.1291717E-02  -2.4313980E-01   0.0000000E+00   5.9633795E-03  -2.4188785E-01   0.0000000E+00   5.2954345E-03  -2.3932841E-01   0.0000000E+00   4.6572946E-03  -2.3557276E-01   0.0000000E+00   3.5402218E-03  -2.3079497E-01   0.0000000E+00   1.1896372E-03  -2.2448348E-01   0.0000000E+00  -2.8685802E-03  -2.1433415E-01   0.0000000E+00  -8.1612356E-03  -1.9397256E-01   0.0000000E+00  -1.1705242E-02  -2.6642993E-01   0.0000000E+00   7.1932268E-03  -2.6599896E-01   0.0000000E+00   6.4906594E-03  -2.6516739E-01   0.0000000E+00   5.9907632E-03  -2.6483378E-01   0.0000000E+00   4.9679377E-03  -2.6608995E-01   0.0000000E+00   2.2906880E-03  -2.6918894E-01   0.0000000E+00  -2.7878727E-03  -2.7162260E-01   0.0000000E+00  -9.6899774E-03  -2.6343405E-01   0.0000000E+00  -1.4359212E-02  -2.9190007E-01   0.0000000E+00   9.8308874E-03  -2.9230651E-01   0.0000000E+00   9.2823124E-03  -2.9319325E-01   0.0000000E+00   9.0739429E-03  -2.9611358E-01   0.0000000E+00   8.1575019E-03  -3.0298841E-01   0.0000000E+00   4.8190830E-03  -3.1505048E-01   0.0000000E+00  -2.4353629E-03  -3.3058763E-01   0.0000000E+00  -1.3092318E-02  -3.3923274E-01   0.0000000E+00  -2.2910826E-02  -3.1954461E-01   0.0000000E+00   1.4263126E-02  -3.2065225E-01   0.0000000E+00   1.4113541E-02  -3.2283163E-01   0.0000000E+00   1.4441205E-02  -3.2792738E-01   0.0000000E+00   1.3810342E-02  -3.3820134E-01   0.0000000E+00   9.7373147E-03  -3.5535249E-01   0.0000000E+00  -4.5080762E-04  -3.7830201E-01   0.0000000E+00  -1.5881147E-02  -3.9577112E-01   0.0000000E+00  -2.8240707E-02  -3.4931472E-01   0.0000000E+00   2.0628354E-02  -3.5086101E-01   0.0000000E+00   2.1093162E-02  -3.5366771E-01   0.0000000E+00   2.2221062E-02  -3.5944486E-01   0.0000000E+00   2.2340732E-02  -3.7023634E-01   0.0000000E+00   1.8622812E-02  -3.8751179E-01   0.0000000E+00   9.0631880E-03  -4.0986156E-01   0.0000000E+00   1.8995795E-03  -4.2659357E-01   0.0000000E+00   9.0402663E-03  -3.8113245E-01   0.0000000E+00   2.8719660E-02  -3.8278693E-01   0.0000000E+00   2.9863808E-02  -3.8555822E-01   0.0000000E+00   3.1894136E-02  -3.9074004E-01   0.0000000E+00   3.3332326E-02  -3.9986539E-01   0.0000000E+00   3.1965714E-02  -4.1397080E-01   0.0000000E+00   2.8687380E-02  -4.3192002E-01   0.0000000E+00   3.4851104E-02  -4.4657779E-01   0.0000000E+00   5.1106133E-02  -4.1491163E-01   0.0000000E+00   3.8017746E-02  -4.1630775E-01   0.0000000E+00   3.9682742E-02  -4.1851792E-01   0.0000000E+00   4.2421859E-02  -4.2233548E-01   0.0000000E+00   4.5223329E-02  -4.2873883E-01   0.0000000E+00   4.6998221E-02  -4.3843782E-01   0.0000000E+00   4.9930945E-02  -4.5096710E-01   0.0000000E+00   6.1074518E-02  -4.6271741E-01   0.0000000E+00   7.5132728E-02  -4.5060146E-01   0.0000000E+00   4.7848888E-02  -4.5134714E-01   0.0000000E+00   4.9697235E-02  -4.5259741E-01   0.0000000E+00   5.2653603E-02  -4.5471865E-01   0.0000000E+00   5.6186818E-02  -4.5822951E-01   0.0000000E+00   5.9982143E-02  -4.6355245E-01   0.0000000E+00   6.5932840E-02  -4.7066414E-01   0.0000000E+00   7.6028541E-02  -4.7830993E-01   0.0000000E+00   8.4359907E-02  -4.8821342E-01   0.0000000E+00   5.7594024E-02  -4.8793805E-01   0.0000000E+00   5.9237156E-02  -4.8788771E-01   0.0000000E+00   6.1875299E-02  -4.8819643E-01   0.0000000E+00   6.5257534E-02  -4.8908365E-01   0.0000000E+00   6.9365434E-02  -4.9076834E-01   0.0000000E+00   7.5352989E-02  -4.9331990E-01   0.0000000E+00   8.2816362E-02  -4.9648079E-01   0.0000000E+00   8.6758681E-02  -5.2780455E-01   0.0000000E+00   6.6838905E-02  -5.2625567E-01   0.0000000E+00   6.7946926E-02  -5.2462661E-01   0.0000000E+00   6.9893509E-02  -5.2303487E-01   0.0000000E+00   7.2520927E-02  -5.2160513E-01   0.0000000E+00   7.5855725E-02  -5.2047598E-01   0.0000000E+00   8.0447689E-02  -5.1974416E-01   0.0000000E+00   8.5302383E-02  -5.1943332E-01   0.0000000E+00   8.6352371E-02  -5.6943595E-01   0.0000000E+00   7.5411215E-02  -5.6650019E-01   0.0000000E+00   7.5792432E-02  -5.6318563E-01   0.0000000E+00   7.6871470E-02  -5.5963832E-01   0.0000000E+00   7.8547098E-02  -5.5606121E-01   0.0000000E+00   8.0780655E-02  -5.5265045E-01   0.0000000E+00   8.3824441E-02  -5.4956877E-01   0.0000000E+00   8.6808518E-02  -5.4697347E-01   0.0000000E+00   8.6547516E-02  -6.1312306E-01   0.0000000E+00   8.3322152E-02  -6.0879898E-01   0.0000000E+00   8.2934238E-02  -6.0385227E-01   0.0000000E+00   8.3148144E-02  -5.9845579E-01   0.0000000E+00   8.3911873E-02  -5.9290504E-01   0.0000000E+00   8.5167870E-02  -5.8750945E-01   0.0000000E+00   8.7045178E-02  -5.8253688E-01   0.0000000E+00   8.9181535E-02  -5.7822692E-01   0.0000000E+00   8.8358201E-02  -6.5880746E-01   0.0000000E+00   9.0660535E-02  -6.5316492E-01   0.0000000E+00   8.9570336E-02  -6.4673197E-01   0.0000000E+00   8.9044668E-02  -6.3970971E-01   0.0000000E+00   8.9094028E-02  -6.3247412E-01   0.0000000E+00   8.9658581E-02  -6.2543142E-01   0.0000000E+00   9.0825088E-02  -6.1893600E-01   0.0000000E+00   9.2677757E-02  -6.1328089E-01   0.0000000E+00   9.1565557E-02  -7.0632118E-01   0.0000000E+00   9.7491600E-02  -6.9947565E-01   0.0000000E+00   9.5813110E-02  -6.9175696E-01   0.0000000E+00   9.4723381E-02  -6.8339735E-01   0.0000000E+00   9.4318859E-02  -6.7483777E-01   0.0000000E+00   9.4561368E-02  -6.6655272E-01   0.0000000E+00   9.5491856E-02  -6.5894985E-01   0.0000000E+00   9.7344771E-02  -6.5235871E-01   0.0000000E+00   9.5812008E-02  -7.5525790E-01   0.0000000E+00   1.0380384E-01  -7.4736762E-01   0.0000000E+00   1.0162949E-01  -7.3861480E-01   0.0000000E+00   1.0013460E-01  -7.2927630E-01   0.0000000E+00   9.9520996E-02  -7.1983653E-01   0.0000000E+00   9.9820733E-02  -7.1080017E-01   0.0000000E+00   1.0103730E-01  -7.0259207E-01   0.0000000E+00   1.0307604E-01  -6.9555205E-01   0.0000000E+00   1.0101981E-01  -8.0465198E-01   0.0000000E+00   1.0952439E-01  -7.9591382E-01   0.0000000E+00   1.0685985E-01  -7.8644300E-01   0.0000000E+00   1.0504645E-01  -7.7657747E-01   0.0000000E+00   1.0439853E-01  -7.6682311E-01   0.0000000E+00   1.0503561E-01  -7.5767416E-01   0.0000000E+00   1.0708489E-01  -7.4952132E-01   0.0000000E+00   1.0968804E-01  -7.4268228E-01   0.0000000E+00   1.0722651E-01  -8.5241109E-01   0.0000000E+00   1.1459874E-01  -8.4304684E-01   0.0000000E+00   1.1131801E-01  -8.3323681E-01   0.0000000E+00   1.0916040E-01  -8.2339281E-01   0.0000000E+00   1.0853457E-01  -8.1402165E-01   0.0000000E+00   1.0955593E-01  -8.0555964E-01   0.0000000E+00   1.1281970E-01  -7.9831153E-01   0.0000000E+00   1.1669677E-01  -7.9251307E-01   0.0000000E+00   1.1422559E-01  -8.9466101E-01   0.0000000E+00   1.1911437E-01  -8.8490051E-01   0.0000000E+00   1.1497173E-01  -8.7515533E-01   0.0000000E+00   1.1234023E-01  -8.6592072E-01   0.0000000E+00   1.1165585E-01  -8.5768014E-01   0.0000000E+00   1.1278065E-01  -8.5077697E-01   0.0000000E+00   1.1710875E-01  -8.4537321E-01   0.0000000E+00   1.2314598E-01  -8.4153652E-01   0.0000000E+00   1.2145714E-01  -9.2534405E-01   0.0000000E+00   1.2345126E-01  -9.1538912E-01   0.0000000E+00   1.1819494E-01  -9.0604115E-01   0.0000000E+00   1.1494598E-01  -8.9788169E-01   0.0000000E+00   1.1403139E-01  -8.9136183E-01   0.0000000E+00   1.1457184E-01  -8.8671732E-01   0.0000000E+00   1.1896823E-01  -8.8392353E-01   0.0000000E+00   1.2779117E-01  -8.8278699E-01   0.0000000E+00   1.2803802E-01  -9.3635726E-01   0.0000000E+00   1.2847050E-01  -9.2629296E-01   0.0000000E+00   1.2206118E-01  -9.1743338E-01   0.0000000E+00   1.1818881E-01  -9.1043854E-01   0.0000000E+00   1.1684704E-01  -9.0572721E-01   0.0000000E+00   1.1584999E-01  -9.0344650E-01   0.0000000E+00   1.1809960E-01  -9.0339446E-01   0.0000000E+00   1.2944517E-01  -9.0507364E-01   0.0000000E+00   1.3258266E-01  -9.1811466E-01   0.0000000E+00   1.3568644E-01  -9.0771246E-01   0.0000000E+00   1.2849574E-01  -8.9892870E-01   0.0000000E+00   1.2421807E-01  -8.9243364E-01   0.0000000E+00   1.2235265E-01  -8.8855720E-01   0.0000000E+00   1.1869066E-01  -8.8743049E-01   0.0000000E+00   1.1557762E-01  -8.8884723E-01   0.0000000E+00   1.2749931E-01  -8.9214808E-01   0.0000000E+00   1.3371523E-01  -8.5900670E-01   0.0000000E+00   1.4719875E-01  -8.4739065E-01   0.0000000E+00   1.3992935E-01  -8.3724874E-01   0.0000000E+00   1.3552354E-01  -8.2897174E-01   0.0000000E+00   1.3294104E-01  -8.2285887E-01   0.0000000E+00   1.2541734E-01  -8.1937772E-01   0.0000000E+00   1.1366956E-01  -8.1874353E-01   0.0000000E+00   1.2234995E-01  -8.2048333E-01   0.0000000E+00   1.3095699E-01  -7.4024314E-01   0.0000000E+00   1.6508190E-01  -7.2542572E-01   0.0000000E+00   1.5828000E-01  -7.1073997E-01   0.0000000E+00   1.5344155E-01  -6.9626534E-01   0.0000000E+00   1.4890426E-01  -6.8271571E-01   0.0000000E+00   1.3666905E-01  -6.7138332E-01   0.0000000E+00   1.1634126E-01  -6.6325712E-01   0.0000000E+00   1.1757578E-01  -6.5828174E-01   0.0000000E+00   1.2728488E-01  -5.2998006E-01   0.0000000E+00   1.9051673E-01  -5.0905645E-01   0.0000000E+00   1.8392302E-01  -4.8574492E-01   0.0000000E+00   1.7725447E-01  -4.6018025E-01   0.0000000E+00   1.6850676E-01  -4.3394670E-01   0.0000000E+00   1.4959460E-01  -4.0934101E-01   0.0000000E+00   1.2520011E-01  -3.8814011E-01   0.0000000E+00   1.1967361E-01  -3.7075514E-01   0.0000000E+00   1.3022883E-01  -1.8987632E-01   0.0000000E+00   2.2302662E-01  -1.6083252E-01   0.0000000E+00   2.1509117E-01  -1.2661867E-01   0.0000000E+00   2.0390601E-01  -8.7744482E-02   0.0000000E+00   1.8773167E-01  -4.6567313E-02   0.0000000E+00   1.6432013E-01  -6.0942220E-03   0.0000000E+00   1.4593025E-01   3.1399403E-02   0.0000000E+00   1.3624221E-01   6.5116689E-02   0.0000000E+00   1.5295614E-01   3.0483592E-01   0.0000000E+00   2.6002407E-01   3.4044865E-01   0.0000000E+00   2.4784344E-01   3.8299283E-01   0.0000000E+00   2.2881821E-01   4.3172419E-01   0.0000000E+00   2.0485811E-01   4.8423108E-01   0.0000000E+00   1.8719900E-01   5.3755605E-01   0.0000000E+00   1.7950766E-01   5.8949947E-01   0.0000000E+00   1.6647549E-01   6.3838822E-01   0.0000000E+00   1.8327108E-01   9.3979925E-01   0.0000000E+00   2.9698396E-01   9.7507954E-01   0.0000000E+00   2.7709275E-01   1.0168418E+00   0.0000000E+00   2.4784280E-01   1.0647326E+00   0.0000000E+00   2.1837914E-01   1.1173841E+00   0.0000000E+00   2.0772576E-01   1.1728554E+00   0.0000000E+00   1.9820587E-01   1.2295825E+00   0.0000000E+00   1.7628407E-01   1.2839652E+00   0.0000000E+00   1.9785556E-01   1.6430925E+00   0.0000000E+00   3.2858270E-01   1.6666052E+00   0.0000000E+00   2.9876789E-01   1.6934087E+00   0.0000000E+00   2.6082098E-01   1.7240025E+00   0.0000000E+00   2.3157401E-01   1.7588189E+00   0.0000000E+00   2.1860848E-01   1.7977455E+00   0.0000000E+00   1.9152313E-01   1.8399051E+00   0.0000000E+00   1.5798467E-01   1.8796794E+00   0.0000000E+00   1.7825645E-01   2.2898281E+00   0.0000000E+00   3.5089698E-01   2.2894130E+00   0.0000000E+00   3.1250185E-01   2.2867200E+00   0.0000000E+00   2.6977167E-01   2.2827256E+00   0.0000000E+00   2.3639543E-01   2.2799180E+00   0.0000000E+00   2.1188973E-01   2.2799466E+00   0.0000000E+00   1.6510248E-01   2.2812529E+00   0.0000000E+00   1.2782654E-01   2.2800713E+00   0.0000000E+00   1.6041511E-01   2.7401271E+00   0.0000000E+00   3.6367726E-01   2.7097270E+00   0.0000000E+00   3.1897846E-01   2.6704211E+00   0.0000000E+00   2.6793516E-01   2.6232419E+00   0.0000000E+00   2.2194648E-01   2.5711353E+00   0.0000000E+00   1.8097201E-01   2.5176210E+00   0.0000000E+00   1.3200785E-01   2.4658060E+00   0.0000000E+00   8.9876778E-02   2.4191489E+00   0.0000000E+00   1.5952815E-01   2.9319420E+00   0.0000000E+00   3.6976177E-01   2.8758554E+00   0.0000000E+00   3.2423308E-01   2.8056371E+00   0.0000000E+00   2.6959535E-01   2.7221699E+00   0.0000000E+00   2.1709463E-01   2.6294751E+00   0.0000000E+00   1.6469470E-01   2.5335729E+00   0.0000000E+00   1.1780152E-01   2.4413540E+00   0.0000000E+00   5.6429818E-02   2.3607047E+00   0.0000000E+00   1.8969899E-01   2.9341662E+00   0.0000000E+00   3.7338379E-01   2.8643734E+00   0.0000000E+00   3.3102471E-01   2.7777104E+00   0.0000000E+00   2.7698645E-01   2.6748641E+00   0.0000000E+00   2.2248583E-01   2.5605528E+00   0.0000000E+00   1.6782033E-01   2.4422340E+00   0.0000000E+00   1.3756867E-01   2.3285880E+00   0.0000000E+00   5.2224964E-02   2.2288129E+00   0.0000000E+00   2.2833546E-01   2.8520048E+00   0.0000000E+00   3.7756446E-01   2.7832010E+00   0.0000000E+00   3.3933818E-01   2.6967444E+00   0.0000000E+00   2.8816676E-01   2.5925665E+00   0.0000000E+00   2.3516695E-01   2.4753547E+00   0.0000000E+00   1.8457030E-01   2.3530064E+00   0.0000000E+00   1.5791813E-01   2.2345686E+00   0.0000000E+00   5.9248112E-02   2.1288581E+00   0.0000000E+00   2.5138062E-01   2.7571743E+00   0.0000000E+00   3.8301387E-01   2.7017243E+00   0.0000000E+00   3.4741509E-01   2.6288133E+00   0.0000000E+00   2.9849985E-01   2.5369573E+00   0.0000000E+00   2.4979343E-01   2.4302108E+00   0.0000000E+00   2.0349891E-01   2.3164089E+00   0.0000000E+00   1.6457553E-01   2.2045014E+00   0.0000000E+00   6.4371049E-02   2.1026800E+00   0.0000000E+00   2.5718150E-01   2.6621256E+00   0.0000000E+00   3.8852054E-01   2.6272922E+00   0.0000000E+00   3.5297209E-01   2.5755186E+00   0.0000000E+00   3.0416396E-01   2.5037127E+00   0.0000000E+00   2.5758183E-01   2.4149132E+00   0.0000000E+00   2.0968099E-01   2.3166318E+00   0.0000000E+00   1.5661807E-01   2.2177269E+00   0.0000000E+00   6.0842767E-02   2.1261594E+00   0.0000000E+00   2.4593048E-01   2.5325999E+00   0.0000000E+00   3.9223707E-01   2.5205641E+00   0.0000000E+00   3.5461405E-01   2.4925117E+00   0.0000000E+00   3.0404010E-01   2.4440515E+00   0.0000000E+00   2.5613180E-01   2.3770506E+00   0.0000000E+00   2.0481730E-01   2.2983296E+00   0.0000000E+00   1.4485039E-01   2.2164197E+00   0.0000000E+00   5.2439276E-02   2.1391833E+00   0.0000000E+00   2.2229342E-01   2.3217993E+00   0.0000000E+00   3.9292023E-01   2.3317034E+00   0.0000000E+00   3.5250700E-01   2.3275449E+00   0.0000000E+00   2.9959264E-01   2.3042130E+00   0.0000000E+00   2.4890947E-01   2.2623041E+00   0.0000000E+00   1.9499387E-01   2.2072456E+00   0.0000000E+00   1.3464960E-01   2.1464715E+00   0.0000000E+00   4.8748009E-02   2.0873287E+00   0.0000000E+00   1.9852194E-01   2.0057895E+00   0.0000000E+00   3.9045444E-01   2.0355995E+00   0.0000000E+00   3.4796554E-01   2.0553212E+00   0.0000000E+00   2.9330572E-01   2.0596850E+00   0.0000000E+00   2.4014466E-01   2.0475206E+00   0.0000000E+00   1.8440577E-01   2.0217285E+00   0.0000000E+00   1.2801611E-01   1.9877548E+00   0.0000000E+00   5.8359377E-02   1.9517077E+00   0.0000000E+00   1.8505754E-01   1.6035266E+00   0.0000000E+00   3.8557303E-01   1.6501162E+00   0.0000000E+00   3.4246925E-01   1.6930882E+00   0.0000000E+00   2.8710786E-01   1.7276675E+00   0.0000000E+00   2.3127565E-01   1.7502357E+00   0.0000000E+00   1.7642953E-01   1.7597306E+00   0.0000000E+00   1.2647800E-01   1.7586194E+00   0.0000000E+00   7.4095234E-02   1.7510427E+00   0.0000000E+00   1.7500769E-01   1.1697091E+00   0.0000000E+00   3.7913626E-01   1.2287049E+00   0.0000000E+00   3.3686590E-01   1.2920769E+00   0.0000000E+00   2.8232110E-01   1.3557475E+00   0.0000000E+00   2.2571518E-01   1.4142945E+00   0.0000000E+00   1.6857041E-01   1.4624076E+00   0.0000000E+00   1.3207358E-01   1.4979998E+00   0.0000000E+00   9.4667204E-02   1.5224540E+00   0.0000000E+00   1.6212904E-01   7.6550859E-01   0.0000000E+00   3.7133157E-01   8.3151203E-01   0.0000000E+00   3.3080396E-01   9.0981615E-01   0.0000000E+00   2.7830824E-01   9.9741238E-01   0.0000000E+00   2.2533177E-01   1.0876285E+00   0.0000000E+00   1.6766942E-01   1.1721666E+00   0.0000000E+00   1.3720164E-01   1.2438680E+00   0.0000000E+00   1.1612324E-01   1.3000927E+00   0.0000000E+00   1.4903884E-01   4.3448591E-01   0.0000000E+00   3.6140552E-01   5.0210434E-01   0.0000000E+00   3.2278386E-01   5.8811486E-01   0.0000000E+00   2.7284274E-01   6.9092780E-01   0.0000000E+00   2.2540031E-01   8.0401009E-01   0.0000000E+00   1.7457020E-01   9.1686481E-01   0.0000000E+00   1.3667732E-01   1.0179437E+00   0.0000000E+00   1.2538676E-01   1.1002115E+00   0.0000000E+00   1.3819824E-01   1.9227786E-01   0.0000000E+00   3.4801793E-01   2.5721344E-01   0.0000000E+00   3.1095091E-01   3.4351006E-01   0.0000000E+00   2.6387036E-01   4.5107958E-01   0.0000000E+00   2.2092694E-01   5.7508272E-01   0.0000000E+00   1.7970386E-01   7.0523649E-01   0.0000000E+00   1.3611218E-01   8.2442963E-01   0.0000000E+00   1.2352549E-01   9.2187387E-01   0.0000000E+00   1.2705754E-01   3.1234322E-02   0.0000000E+00   3.2990482E-01   9.0569220E-02   0.0000000E+00   2.9432887E-01   1.7047973E-01   0.0000000E+00   2.5119215E-01   2.7257803E-01   0.0000000E+00   2.1276595E-01   3.9504284E-01   0.0000000E+00   1.7898183E-01   5.3048205E-01   0.0000000E+00   1.4064470E-01   6.5830863E-01   0.0000000E+00   1.0758830E-01   7.5810945E-01   0.0000000E+00   1.1881278E-01  -6.8061680E-02   0.0000000E+00   3.0654922E-01  -1.6183190E-02   0.0000000E+00   2.7310750E-01   5.2130610E-02   0.0000000E+00   2.3525596E-01   1.4037707E-01   0.0000000E+00   2.0282012E-01   2.5032681E-01   0.0000000E+00   1.7430526E-01   3.7965927E-01   0.0000000E+00   1.4355600E-01   5.1516944E-01   0.0000000E+00   9.7312808E-02   6.1339355E-01   0.0000000E+00   1.0755645E-01  -1.2617765E-01   0.0000000E+00   2.7872816E-01  -8.2964309E-02   0.0000000E+00   2.4886182E-01  -2.9535519E-02   0.0000000E+00   2.1827967E-01   3.9675198E-02   0.0000000E+00   1.9355962E-01   1.2966819E-01   0.0000000E+00   1.6941786E-01   2.4515566E-01   0.0000000E+00   1.4059110E-01   3.8153720E-01   0.0000000E+00   1.0825839E-01   5.1189941E-01   0.0000000E+00   8.8753499E-02  -1.5901886E-01   0.0000000E+00   2.4864198E-01  -1.2548538E-01   0.0000000E+00   2.2408183E-01  -8.8211328E-02   0.0000000E+00   2.0192596E-01  -3.9566889E-02   0.0000000E+00   1.8555756E-01   2.7645128E-02   0.0000000E+00   1.6206172E-01   1.2437424E-01   0.0000000E+00   1.3088067E-01   2.6040867E-01   0.0000000E+00   1.0843693E-01   4.0064630E-01   0.0000000E+00   8.2751155E-02  -1.7687845E-01   0.0000000E+00   2.1933344E-01  -1.5385734E-01   0.0000000E+00   2.0125063E-01  -1.3186958E-01   0.0000000E+00   1.8760979E-01  -1.0195006E-01   0.0000000E+00   1.7578201E-01  -5.5291768E-02   0.0000000E+00   1.4918569E-01   2.4239570E-02   0.0000000E+00   1.2268100E-01   1.5849502E-01   0.0000000E+00   1.1038396E-01  -1.8697670E-01   0.0000000E+00   1.9378677E-01  -1.7450677E-01   0.0000000E+00   1.8211512E-01  -1.6461721E-01   0.0000000E+00   1.7472833E-01  -1.4834304E-01   0.0000000E+00   1.6205718E-01  -1.1486126E-01   0.0000000E+00   1.3145049E-01  -4.0476620E-02   0.0000000E+00   1.1805590E-01   8.4313586E-02   0.0000000E+00   1.0964966E-01  -1.9521332E-01   0.0000000E+00   1.7387536E-01  -1.9135177E-01   0.0000000E+00   1.6735129E-01  -1.8794590E-01   0.0000000E+00   1.6221322E-01  -1.7799306E-01   0.0000000E+00   1.4140755E-01  -1.4402987E-01   0.0000000E+00   1.1599409E-01  -6.0436774E-02   0.0000000E+00   1.1602279E-01  -2.0557427E-01   0.0000000E+00   1.5987062E-01  -2.0519730E-01   0.0000000E+00   1.5598688E-01  -2.0015961E-01   0.0000000E+00   1.4639941E-01  -1.8659936E-01   0.0000000E+00   1.1624070E-01  -1.3397187E-01   0.0000000E+00   1.0789729E-01  -5.2707706E-02   0.0000000E+00   1.1318383E-01  -2.1733974E-01   0.0000000E+00   1.5030353E-01  -2.1107845E-01   0.0000000E+00   1.4487626E-01  -1.9334668E-01   0.0000000E+00   1.2768954E-01  -1.6183022E-01   0.0000000E+00   1.0429429E-01  -9.2586458E-02   0.0000000E+00   1.1417857E-01  -2.1997672E-01   0.0000000E+00   1.4312829E-01  -1.9599432E-01   0.0000000E+00   1.3291739E-01  -1.5074345E-01   0.0000000E+00   1.2014975E-01  -1.0707767E-01   0.0000000E+00   1.1151481E-01  -1.9745860E-01   0.0000000E+00   1.3439922E-01  -1.4984778E-01   0.0000000E+00   1.2774076E-01  -9.0395421E-02   0.0000000E+00   1.2871909E-01  -1.1695429E-01   0.0000000E+00   1.1128125E-01  -1.5391192E-01   0.0000000E+00   1.2700073E-01  -1.1446936E-01   0.0000000E+00   1.3018866E-01  -1.5539697E-01   0.0000000E+00   1.2027584E-01 
Force 3 2975 float
0.0 0.0 0.0 0.0 0.0 0.0 0.0 0.0 0.0 0.0 0.0 0.0 0.0 0.0 0.0 0.0 0.0 0.0 0.0 0.0 0.0 0.0 0.0 0.0 0.0 0.0 0.0 0.0 0.0 0.0 0.0 0.0 0.0 0.0 0.0 0.0 0.0 0.0 0.0 0.0 0.0 0.0 0.0 0.0 0.0 0.0 0.0 0.0 0.0 0.0 0.0 0.0 0.0 0.0 0.0 0.0 0.0 0.0 0.0 0.0 0.0 0.0 0.0 0.0 0.0 0.0 0.0 0.0 0.0 0.0 0.0 0.0 0.0 0.0 0.0 0.0 0.0 0.0 0.0 0.0 0.0 0.0 0.0 0.0 0.0 0.0 0.0 0.0 0.0 0.0 0.0 0.0 0.0 0.0 0.0 0.0 0.0 0.0 0.0 0.0 0.0 0.0 0.0 0.0 0.0 0.0 0.0 0.0 0.0 0.0 0.0 0.0 0.0 0.0 0.0 0.0 0.0 0.0 0.0 0.0 0.0 0.0 0.0 0.0 0.0 0.0 0.0 0.0 0.0 0.0 0.0 0.0 0.0 0.0 0.0 0.0 0.0 0.0 0.0 0.0 0.0 0.0 0.0 0.0 0.0 0.0 0.0 0.0 0.0 0.0 0.0 0.0 0.0 0.0 0.0 0.0 0.0 0.0 0.0 0.0 0.0 0.0 0.0 0.0 0.0 0.0 0.0 0.0 0.0 0.0 0.0 0.0 0.0 0.0 0.0 0.0 0.0 0.0 0.0 0.0 0.0 0.0 0.0 0.0 0.0 0.0 0.0 0.0 0.0 0.0 0.0 0.0 0.0 0.0 0.0 0.0 0.0 0.0 0.0 0.0 0.0 0.0 0.0 0.0 0.0 0.0 0.0 0.0 0.0 0.0 0.0 0.0 0.0 0.0 0.0 0.0 0.0 0.0 0.0 0.0 0.0 0.0 0.0 0.0 0.0 0.0 0.0 0.0 0.0 0.0 0.0 0.0 0.0 0.0 0.0 0.0 0.0 0.0 0.0 0.0 0.0 0.0 0.0 0.0 0.0 0.0 0.0 0.0 0.0 0.0 0.0 0.0 0.0 0.0 0.0 0.0 0.0 0.0 0.0 0.0 0.0 0.0 0.0 0.0 0.0 0.0 0.0 0.0 0.0 0.0 0.0 0.0 0.0 0.0 0.0 0.0 0.0 0.0 0.0 0.0 0.0 0.0 0.0 0.0 0.0 0.0 0.0 0.0 0.0 0.0 0.0 0.0 0.0 0.0 0.0 0.0 0.0 0.0 0.0 0.0 0.0 0.0 0.0 0.0 0.0 0.0 0.0 0.0 0.0 0.0 0.0 0.0 0.0 0.0 0.0 0.0 0.0 0.0 0.0 0.0 0.0 0.0 0.0 0.0 0.0 0.0 0.0 0.0 0.0 0.0 0.0 0.0 0.0 0.0 0.0 0.0 0.0 0.0 0.0 0.0 0.0 0.0 0.0 0.0 0.0 0.0 0.0 0.0 0.0 0.0 0.0 0.0 0.0 0.0 0.0 0.0 0.0 0.0 0.0 0.0 0.0 0.0 0.0 0.0 0.0 0.0 0.0 0.0 0.0 0.0 0.0 0.0 0.0 0.0 0.0 0.0 0.0 0.0 0.0 0.0 0.0 0.0 0.0 0.0 0.0 0.0 0.0 0.0 0.0 0.0 0.0 0.0 0.0 0.0 0.0 0.0 0.0 0.0 0.0 0.0 0.0 0.0 0.0 0.0 0.0 0.0 0.0 0.0 0.0 0.0 0.0 0.0 0.0 0.0 0.0 0.0 0.0 0.0 0.0 0.0 0.0 0.0 0.0 0.0 0.0 0.0 0.0 0.0 0.0 0.0 0.0 0.0 0.0 0.0 0.0 0.0 0.0 0.0 0.0 0.0 0.0 0.0 0.0 0.0 0.0 0.0 0.0 0.0 0.0 0.0 0.0 0.0 0.0 0.0 0.0 0.0 0.0 0.0 0.0 0.0 0.0 0.0 0.0 0.0 0.0 0.0 0.0 0.0 0.0 0.0 0.0 0.0 0.0 0.0 0.0 0.0 0.0 0.0 0.0 0.0 0.0 0.0 0.0 0.0 0.0 0.0 0.0 0.0 0.0 0.0 0.0 0.0 0.0 0.0 0.0 0.0 0.0 0.0 0.0 0.0 0.0 0.0 0.0 0.0 0.0 0.0 0.0 0.0 0.0 0.0 0.0 0.0 0.0 0.0 0.0 0.0 0.0 0.0 0.0 0.0 0.0 0.0 0.0 0.0 0.0 0.0 0.0 0.0 0.0 0.0 0.0 0.0 0.0 0.0 0.0 0.0 0.0 0.0 0.0 0.0 0.0 0.0 0.0 0.0 0.0 0.0 0.0 0.0 0.0 0.0 0.0 0.0 0.0 0.0 0.0 0.0 0.0 0.0 0.0 0.0 0.0 0.0 0.0 0.0 0.0 0.0 0.0 0.0 0.0 0.0 0.0 0.0 0.0 0.0 0.0 0.0 0.0 0.0 0.0 0.0 0.0 0.0 0.0 0.0 0.0 0.0 0.0 0.0 0.0 0.0 0.0 0.0 0.0 0.0 0.0 0.0 0.0 0.0 0.0 0.0 0.0 0.0 0.0 0.0 0.0 0.0 0.0 0.0 0.0 0.0 0.0 0.0 0.0 0.0 0.0 0.0 0.0 0.0 0.0 0.0 0.0 0.0 0.0 0.0 0.0 0.0 0.0 0.0 0.0 0.0 0.0 0.0 0.0 0.0 0.0 0.0 0.0 0.0 0.0 0.0 0.0 0.0 0.0 0.0 0.0 0.0 0.0 0.0 0.0 0.0 0.0 0.0 0.0 0.0 0.0 0.0 0.0 0.0 0.0 0.0 0.0 0.0 0.0 0.0 0.0 0.0 0.0 0.0 0.0 0.0 0.0 0.0 0.0 0.0 0.0 0.0 0.0 0.0 0.0 0.0 0.0 0.0 0.0 0.0 0.0 0.0 0.0 0.0 0.0 0.0 0.0 0.0 0.0 0.0 0.0 0.0 0.0 0.0 0.0 0.0 0.0 0.0 0.0 0.0 0.0 0.0 0.0 0.0 0.0 0.0 0.0 0.0 0.0 0.0 0.0 0.0 0.0 0.0 0.0 0.0 0.0 0.0 0.0 0.0 0.0 0.0 0.0 0.0 0.0 0.0 0.0 0.0 0.0 0.0 0.0 0.0 0.0 0.0 0.0 0.0 0.0 0.0 0.0 0.0 0.0 0.0 0.0 0.0 0.0 0.0 0.0 0.0 0.0 0.0 0.0 0.0 0.0 0.0 0.0 0.0 0.0 0.0 0.0 0.0 0.0 0.0 0.0 0.0 0.0 0.0 0.0 0.0 0.0 0.0 0.0 0.0 0.0 0.0 0.0 0.0 0.0 0.0 0.0 0.0 0.0 0.0 0.0 0.0 0.0 0.0 0.0 0.0 0.0 0.0 0.0 0.0 0.0 0.0 0.0 0.0 0.0 0.0 0.0 0.0 0.0 0.0 0.0 0.0 0.0 0.0 0.0 0.0 0.0 0.0 0.0 0.0 0.0 0.0 0.0 0.0 0.0 0.0 0.0 0.0 0.0 0.0 0.0 0.0 0.0 0.0 0.0 0.0 0.0 0.0 0.0 0.0 0.0 0.0 0.0 0.0 0.0 0.0 0.0 0.0 0.0 0.0 0.0 0.0 0.0 0.0 0.0 0.0 0.0 0.0 0.0 0.0 0.0 0.0 0.0 0.0 0.0 0.0 0.0 0.0 0.0 0.0 0.0 0.0 0.0 0.0 0.0 0.0 0.0 0.0 0.0 0.0 0.0 0.0 0.0 0.0 0.0 0.0 0.0 0.0 0.0 0.0 0.0 0.0 0.0 0.0 0.0 0.0 0.0 0.0 0.0 0.0 0.0 0.0 0.0 0.0 0.0 0.0 0.0 0.0 0.0 0.0 0.0 0.0 0.0 0.0 0.0 0.0 0.0 0.0 0.0 0.0 0.0 0.0 0.0 0.0 0.0 0.0 0.0 0.0 0.0 0.0 0.0 0.0 0.0 0.0 0.0 0.0 0.0 0.0 0.0 0.0 0.0 0.0 0.0 0.0 0.0 0.0 0.0 0.0 0.0 0.0 0.0 0.0 0.0 0.0 0.0 0.0 0.0 0.0 0.0 0.0 0.0 0.0 0.0 0.0 0.0 0.0 0.0 0.0 0.0 0.0 0.0 0.0 0.0 0.0 0.0 0.0 0.0 0.0 0.0 0.0 0.0 0.0 0.0 0.0 0.0 0.0 0.0 0.0 0.0 0.0 0.0 0.0 0.0 0.0 0.0 0.0 0.0 0.0 0.0 0.0 0.0 0.0 0.0 0.0 0.0 0.0 0.0 0.0 0.0 0.0 0.0 0.0 0.0 0.0 0.0 0.0 0.0 0.0 0.0 0.0 0.0 0.0 0.0 0.0 0.0 0.0 0.0 0.0 0.0 0.0 0.0 0.0 0.0 0.0 0.0 0.0 0.0 0.0 0.0 0.0 0.0 0.0 0.0 0.0 0.0 0.0 0.0 0.0 0.0 0.0 0.0 0.0 0.0 0.0 0.0 0.0 0.0 0.0 0.0 0.0 0.0 0.0 0.0 0.0 0.0 0.0 0.0 0.0 0.0 0.0 0.0 0.0 0.0 0.0 0.0 0.0 0.0 0.0 0.0 0.0 0.0 0.0 0.0 0.0 0.0 0.0 0.0 0.0 0.0 0.0 0.0 0.0 0.0 0.0 0.0 0.0 0.0 0.0 0.0 0.0 0.0 0.0 0.0 0.0 0.0 0.0 0.0 0.0 0.0 0.0 0.0 0.0 0.0 0.0 0.0 0.0 0.0 0.0 0.0 0.0 0.0 0.0 0.0 0.0 0.0 0.0 0.0 0.0 0.0 0.0 0.0 0.0 0.0 0.0 0.0 0.0 0.0 0.0 0.0 0.0 0.0 0.0 0.0 0.0 0.0 0.0 0.0 0.0 0.0 0.0 0.0 0.0 0.0 0.0 0.0 0.0 0.0 0.0 0.0 0.0 0.0 0.0 0.0 0.0 0.0 0.0 0.0 0.0 0.0 0.0 0.0 0.0 0.0 0.0 0.0 0.0 0.0 0.0 0.0 0.0 0.0 0.0 0.0 0.0 0.0 0.0 0.0 0.0 0.0 0.0 0.0 0.0 0.0 0.0 0.0 0.0 0.0 0.0 0.0 0.0 0.0 0.0 0.0 0.0 0.0 0.0 0.0 0.0 0.0 0.0 0.0 0.0 0.0 0.0 0.0 0.0 0.0 0.0 0.0 0.0 0.0 0.0 0.0 0.0 0.0 0.0 0.0 0.0 0.0 0.0 0.0 0.0 0.0 0.0 0.0 0.0 0.0 0.0 0.0 0.0 0.0 0.0 0.0 0.0 0.0 0.0 0.0 0.0 0.0 0.0 0.0 0.0 0.0 0.0 0.0 0.0 0.0 0.0 0.0 0.0 0.0 0.0 0.0 0.0 0.0 0.0 0.0 0.0 0.0 0.0 0.0 0.0 0.0 0.0 0.0 0.0 0.0 0.0 0.0 0.0 0.0 0.0 0.0 0.0 0.0 0.0 0.0 0.0 0.0 0.0 0.0 0.0 0.0 0.0 0.0 0.0 0.0 0.0 0.0 0.0 0.0 0.0 0.0 0.0 0.0 0.0 0.0 0.0 0.0 0.0 0.0 0.0 0.0 0.0 0.0 0.0 0.0 0.0 0.0 0.0 0.0 0.0 0.0 0.0 0.0 0.0 0.0 0.0 0.0 0.0 0.0 0.0 0.0 0.0 0.0 0.0 0.0 0.0 0.0 0.0 0.0 0.0 0.0 0.0 0.0 0.0 0.0 0.0 0.0 0.0 0.0 0.0 0.0 0.0 0.0 0.0 0.0 0.0 0.0 0.0 0.0 0.0 0.0 0.0 0.0 0.0 0.0 0.0 0.0 0.0 0.0 0.0 0.0 0.0 0.0 0.0 0.0 0.0 0.0 0.0 0.0 0.0 0.0 0.0 0.0 0.0 0.0 0.0 0.0 0.0 0.0 0.0 0.0 0.0 0.0 0.0 0.0 0.0 0.0 0.0 0.0 0.0 0.0 0.0 0.0 0.0 0.0 0.0 0.0 0.0 0.0 0.0 0.0 0.0 0.0 0.0 0.0 0.0 0.0 0.0 0.0 0.0 0.0 0.0 0.0 0.0 0.0 0.0 0.0 0.0 0.0 0.0 0.0 0.0 0.0 0.0 0.0 0.0 0.0 0.0 0.0 0.0 0.0 0.0 0.0 0.0 0.0 0.0 0.0 0.0 0.0 0.0 0.0 0.0 0.0 0.0 0.0 0.0 0.0 0.0 0.0 0.0 0.0 0.0 0.0 0.0 0.0 0.0 0.0 0.0 0.0 0.0 0.0 0.0 0.0 0.0 0.0 0.0 0.0 0.0 0.0 0.0 0.0 0.0 0.0 0.0 0.0 0.0 0.0 0.0 0.0 0.0 0.0 0.0 0.0 0.0 0.0 0.0 0.0 0.0 0.0 0.0 0.0 0.0 0.0 0.0 0.0 0.0 0.0 0.0 0.0 0.0 0.0 0.0 0.0 0.0 0.0 0.0 0.0 0.0 0.0 0.0 0.0 0.0 0.0 0.0 0.0 0.0 0.0 0.0 0.0 0.0 0.0 0.0 0.0 0.0 0.0 0.0 0.0 0.0 0.0 0.0 0.0 0.0 0.0 0.0 0.0 0.0 0.0 0.0 0.0 0.0 0.0 0.0 0.0 0.0 0.0 0.0 0.0 0.0 0.0 0.0 0.0 0.0 0.0 0.0 0.0 0.0 0.0 0.0 0.0 0.0 0.0 0.0 0.0 0.0 0.0 0.0 0.0 0.0 0.0 0.0 0.0 0.0 0.0 0.0 0.0 0.0 0.0 0.0 0.0 0.0 0.0 0.0 0.0 0.0 0.0 0.0 0.0 0.0 0.0 0.0 0.0 0.0 0.0 0.0 0.0 0.0 0.0 0.0 0.0 0.0 0.0 0.0 0.0 0.0 0.0 0.0 0.0 0.0 0.0 0.0 0.0 0.0 0.0 0.0 0.0 0.0 0.0 0.0 0.0 0.0 0.0 0.0 0.0 0.0 0.0 0.0 0.0 0.0 0.0 0.0 0.0 0.0 0.0 0.0 0.0 0.0 0.0 0.0 0.0 0.0 0.0 0.0 0.0 0.0 0.0 0.0 0.0 0.0 0.0 0.0 0.0 0.0 0.0 0.0 0.0 0.0 0.0 0.0 0.0 0.0 0.0 0.0 0.0 0.0 0.0 0.0 0.0 0.0 0.0 0.0 0.0 0.0 0.0 0.0 0.0 0.0 0.0 0.0 0.0 0.0 0.0 0.0 0.0 0.0 0.0 0.0 0.0 0.0 0.0 0.0 0.0 0.0 0.0 0.0 0.0 0.0 0.0 0.0 0.0 0.0 0.0 0.0 0.0 0.0 0.0 0.0 0.0 0.0 0.0 0.0 0.0 0.0 0.0 0.0 0.0 0.0 0.0 0.0 0.0 0.0 0.0 0.0 0.0 0.0 0.0 0.0 0.0 0.0 0.0 0.0 0.0 0.0 0.0 0.0 0.0 0.0 0.0 0.0 0.0 0.0 0.0 0.0 0.0 0.0 0.0 0.0 0.0 0.0 0.0 0.0 0.0 0.0 0.0 0.0 0.0 0.0 0.0 0.0 0.0 0.0 0.0 0.0 0.0 0.0 0.0 0.0 0.0 0.0 0.0 0.0 0.0 0.0 0.0 0.0 0.0 0.0 0.0 0.0 0.0 0.0 0.0 0.0 0.0 0.0 0.0 0.0 0.0 0.0 0.0 0.0 0.0 0.0 0.0 0.0 0.0 0.0 0.0 0.0 0.0 0.0 0.0 0.0 0.0 0.0 0.0 0.0 0.0 0.0 0.0 0.0 0.0 0.0 0.0 0.0 0.0 0.0 0.0 0.0 0.0 0.0 0.0 0.0 0.0 0.0 0.0 0.0 0.0 0.0 0.0 0.0 0.0 0.0 0.0 0.0 0.0 0.0 0.0 0.0 0.0 0.0 0.0 0.0 0.0 0.0 0.0 0.0 0.0 0.0 0.0 0.0 0.0 0.0 0.0 0.0 0.0 0.0 0.0 0.0 0.0 0.0 0.0 0.0 0.0 0.0 0.0 0.0 0.0 0.0 0.0 0.0 0.0 0.0 0.0 0.0 0.0 0.0 0.0 0.0 0.0 0.0 0.0 0.0 0.0 0.0 0.0 0.0 0.0 0.0 0.0 0.0 0.0 0.0 0.0 0.0 0.0 0.0 0.0 0.0 0.0 0.0 0.0 0.0 0.0 0.0 0.0 0.0 0.0 0.0 0.0 0.0 0.0 0.0 0.0 0.0 0.0 0.0 0.0 0.0 0.0 0.0 0.0 0.0 0.0 0.0 0.0 0.0 0.0 0.0 0.0 0.0 0.0 0.0 0.0 0.0 0.0 0.0 0.0 0.0 0.0 0.0 0.0 0.0 0.0 0.0 0.0 0.0 0.0 0.0 0.0 0.0 0.0 0.0 0.0 0.0 0.0 0.0 0.0 0.0 0.0 0.0 0.0 0.0 0.0 0.0 0.0 0.0 0.0 0.0 0.0 0.0 0.0 0.0 0.0 0.0 0.0 0.0 0.0 0.0 0.0 0.0 0.0 0.0 0.0 0.0 0.0 0.0 0.0 0.0 0.0 0.0 0.0 0.0 0.0 0.0 0.0 0.0 0.0 0.0 0.0 0.0 0.0 0.0 0.0 0.0 0.0 0.0 0.0 0.0 0.0 0.0 0.0 0.0 0.0 0.0 0.0 0.0 0.0 0.0 0.0 0.0 0.0 0.0 0.0 0.0 0.0 0.0 0.0 0.0 0.0 0.0 0.0 0.0 0.0 0.0 0.0 0.0 0.0 0.0 0.0 0.0 0.0 0.0 0.0 0.0 0.0 0.0 0.0 0.0 0.0 0.0 0.0 0.0 0.0 0.0 0.0 0.0 0.0 0.0 0.0 0.0 0.0 0.0 0.0 0.0 0.0 0.0 0.0 0.0 0.0 0.0 0.0 0.0 0.0 0.0 0.0 0.0 0.0 0.0 0.0 0.0 0.0 0.0 0.0 0.0 0.0 0.0 0.0 0.0 0.0 0.0 0.0 0.0 0.0 0.0 0.0 0.0 0.0 0.0 0.0 0.0 0.0 0.0 0.0 0.0 0.0 0.0 0.0 0.0 0.0 0.0 0.0 0.0 0.0 0.0 0.0 0.0 0.0 0.0 0.0 0.0 0.0 0.0 0.0 0.0 0.0 0.0 0.0 0.0 0.0 0.0 0.0 0.0 0.0 0.0 0.0 0.0 0.0 0.0 0.0 0.0 0.0 0.0 0.0 0.0 0.0 0.0 0.0 0.0 0.0 0.0 0.0 0.0 0.0 0.0 0.0 0.0 0.0 0.0 0.0 0.0 0.0 0.0 0.0 0.0 0.0 0.0 0.0 0.0 0.0 0.0 0.0 0.0 0.0 0.0 0.0 0.0 0.0 0.0 0.0 0.0 0.0 0.0 0.0 0.0 0.0 0.0 0.0 0.0 0.0 0.0 0.0 0.0 0.0 0.0 0.0 0.0 0.0 0.0 0.0 0.0 0.0 0.0 0.0 0.0 0.0 0.0 0.0 0.0 0.0 0.0 0.0 0.0 0.0 0.0 0.0 0.0 0.0 0.0 0.0 0.0 0.0 0.0 0.0 0.0 0.0 0.0 0.0 0.0 0.0 0.0 0.0 0.0 0.0 0.0 0.0 0.0 0.0 0.0 0.0 0.0 0.0 0.0 0.0 0.0 0.0 0.0 0.0 0.0 0.0 0.0 0.0 0.0 0.0 0.0 0.0 0.0 0.0 0.0 0.0 0.0 0.0 0.0 0.0 0.0 0.0 0.0 0.0 0.0 0.0 0.0 0.0 0.0 0.0 0.0 0.0 0.0 0.0 0.0 0.0 0.0 0.0 0.0 0.0 0.0 0.0 0.0 0.0 0.0 0.0 0.0 0.0 0.0 0.0 0.0 0.0 0.0 0.0 0.0 0.0 0.0 0.0 0.0 0.0 0.0 0.0 0.0 0.0 0.0 0.0 0.0 0.0 0.0 0.0 0.0 0.0 0.0 0.0 0.0 0.0 0.0 0.0 0.0 0.0 0.0 0.0 0.0 0.0 0.0 0.0 0.0 0.0 0.0 0.0 0.0 0.0 0.0 0.0 0.0 0.0 0.0 0.0 0.0 0.0 0.0 0.0 0.0 0.0 0.0 0.0 0.0 0.0 0.0 0.0 0.0 0.0 0.0 0.0 0.0 0.0 0.0 0.0 0.0 0.0 0.0 0.0 0.0 0.0 0.0 0.0 0.0 0.0 0.0 0.0 0.0 0.0 0.0 0.0 0.0 0.0 0.0 0.0 0.0 0.0 0.0 0.0 0.0 0.0 0.0 0.0 0.0 0.0 0.0 0.0 0.0 0.0 0.0 0.0 0.0 0.0 0.0 0.0 0.0 0.0 0.0 0.0 0.0 0.0 0.0 0.0 0.0 0.0 0.0 0.0 0.0 0.0 0.0 0.0 0.0 0.0 0.0 0.0 0.0 0.0 0.0 0.0 0.0 0.0 0.0 0.0 0.0 0.0 0.0 0.0 0.0 0.0 0.0 0.0 0.0 0.0 0.0 0.0 0.0 0.0 0.0 0.0 0.0 0.0 0.0 0.0 0.0 0.0 0.0 0.0 0.0 0.0 0.0 0.0 0.0 0.0 0.0 0.0 0.0 0.0 0.0 0.0 0.0 0.0 0.0 0.0 0.0 0.0 0.0 0.0 0.0 0.0 0.0 0.0 0.0 0.0 0.0 0.0 0.0 0.0 0.0 0.0 0.0 0.0 0.0 0.0 0.0 0.0 0.0 0.0 0.0 0.0 0.0 0.0 0.0 0.0 0.0 0.0 0.0 0.0 0.0 0.0 0.0 0.0 0.0 0.0 0.0 0.0 0.0 0.0 0.0 0.0 0.0 0.0 0.0 0.0 0.0 0.0 0.0 0.0 0.0 0.0 0.0 0.0 0.0 0.0 0.0 0.0 0.0 0.0 0.0 0.0 0.0 0.0 0.0 0.0 0.0 0.0 0.0 0.0 0.0 0.0 0.0 0.0 0.0 0.0 0.0 0.0 0.0 0.0 0.0 0.0 0.0 0.0 0.0 0.0 0.0 0.0 0.0 0.0 0.0 0.0 0.0 0.0 0.0 0.0 0.0 0.0 0.0 0.0 0.0 0.0 0.0 0.0 0.0 0.0 0.0 0.0 0.0 0.0 0.0 0.0 0.0 0.0 0.0 0.0 0.0 0.0 0.0 0.0 0.0 0.0 0.0 0.0 0.0 0.0 0.0 0.0 0.0 0.0 0.0 0.0 0.0 0.0 0.0 0.0 0.0 0.0 0.0 0.0 0.0 0.0 0.0 0.0 0.0 0.0 0.0 0.0 0.0 0.0 0.0 0.0 0.0 0.0 0.0 0.0 0.0 0.0 0.0 0.0 0.0 0.0 0.0 0.0 0.0 0.0 0.0 0.0 0.0 0.0 0.0 0.0 0.0 0.0 0.0 0.0 0.0 0.0 0.0 0.0 0.0 0.0 0.0 0.0 0.0 0.0 0.0 0.0 0.0 0.0 0.0 0.0 0.0 0.0 0.0 0.0 0.0 0.0 0.0 0.0 0.0 0.0 0.0 0.0 0.0 0.0 0.0 0.0 0.0 0.0 0.0 0.0 0.0 0.0 0.0 0.0 0.0 0.0 0.0 0.0 0.0 0.0 0.0 0.0 0.0 0.0 0.0 0.0 0.0 0.0 0.0 0.0 0.0 0.0 0.0 0.0 0.0 0.0 0.0 0.0 0.0 0.0 0.0 0.0 0.0 0.0 0.0 0.0 0.0 0.0 0.0 0.0 0.0 0.0 0.0 0.0 0.0 0.0 0.0 0.0 0.0 0.0 0.0 0.0 0.0 0.0 0.0 0.0 0.0 0.0 0.0 0.0 0.0 0.0 0.0 0.0 0.0 0.0 0.0 0.0 0.0 0.0 0.0 0.0 0.0 0.0 0.0 0.0 0.0 0.0 0.0 0.0 0.0 0.0 0.0 0.0 0.0 0.0 0.0 0.0 0.0 0.0 0.0 0.0 0.0 0.0 0.0 0.0 0.0 0.0 0.0 0.0 0.0 0.0 0.0 0.0 0.0 0.0 0.0 0.0 0.0 0.0 0.0 0.0 0.0 0.0 0.0 0.0 0.0 0.0 0.0 0.0 0.0 0.0 0.0 0.0 0.0 0.0 0.0 0.0 0.0 0.0 0.0 0.0 0.0 0.0 0.0 0.0 0.0 0.0 0.0 0.0 0.0 0.0 0.0 0.0 0.0 0.0 0.0 0.0 0.0 0.0 0.0 0.0 0.0 0.0 0.0 0.0 0.0 0.0 0.0 0.0 0.0 0.0 0.0 0.0 0.0 0.0 0.0 0.0 0.0 0.0 0.0 0.0 0.0 0.0 0.0 0.0 0.0 0.0 0.0 0.0 0.0 0.0 0.0 0.0 0.0 0.0 0.0 0.0 0.0 0.0 0.0 0.0 0.0 0.0 0.0 0.0 0.0 0.0 0.0 0.0 0.0 0.0 0.0 0.0 0.0 0.0 0.0 0.0 0.0 0.0 0.0 0.0 0.0 0.0 0.0 0.0 0.0 0.0 0.0 0.0 0.0 0.0 0.0 0.0 0.0 0.0 0.0 0.0 0.0 0.0 0.0 0.0 0.0 0.0 0.0 0.0 0.0 0.0 0.0 0.0 0.0 0.0 0.0 0.0 0.0 0.0 0.0 0.0 0.0 0.0 0.0 0.0 0.0 0.0 0.0 0.0 0.0 0.0 0.0 0.0 0.0 0.0 0.0 0.0 0.0 0.0 0.0 0.0 0.0 0.0 0.0 0.0 0.0 0.0 0.0 0.0 0.0 0.0 0.0 0.0 0.0 0.0 0.0 0.0 0.0 0.0 0.0 0.0 0.0 0.0 0.0 0.0 0.0 0.0 0.0 0.0 0.0 0.0 0.0 0.0 0.0 0.0 0.0 0.0 0.0 0.0 0.0 0.0 0.0 0.0 0.0 0.0 0.0 0.0 0.0 0.0 0.0 0.0 0.0 0.0 0.0 0.0 0.0 0.0 0.0 0.0 0.0 0.0 0.0 0.0 0.0 0.0 0.0 0.0 0.0 0.0 0.0 0.0 0.0 0.0 0.0 0.0 0.0 0.0 0.0 0.0 0.0 0.0 0.0 0.0 0.0 0.0 0.0 0.0 0.0 0.0 0.0 0.0 0.0 0.0 0.0 0.0 0.0 0.0 0.0 0.0 0.0 0.0 0.0 0.0 0.0 0.0 0.0 0.0 0.0 0.0 0.0 0.0 0.0 0.0 0.0 0.0 0.0 0.0 0.0 0.0 0.0 0.0 0.0 0.0 0.0 0.0 0.0 0.0 0.0 0.0 0.0 0.0 0.0 0.0 -0.8275524206888101 0.0 -0.3368024924200621 -0.964832704120817 0.0 -0.31174088379352194 -1.079546386988659 0.0 -0.2791540229788504 -1.1758144693953612 0.0 -0.2445669221141729 -1.2540337113508422 0.0 -0.2121446173036153 -0.784063339601583 0.0 -0.432515930812898 -1.026631185665779 0.0 -0.3666933131673326 -1.2024948300623701 0.0 -0.3447382046184549 -1.336645553416138 0.0 -0.31536389188409714 -1.445884756147118 0.0 -0.2822126950553172 -1.535659838391495 0.0 -0.2494650422366259 -1.0142536253563401 0.0 -0.433211130830278 -1.298381472459536 0.0 -0.3685472572136812 -1.492824597320614 0.0 -0.3368051604201288 -1.639205200980129 0.0 -0.307722767693069 -1.7584232839605811 0.0 -0.2813207710330191 -1.860195206504879 0.0 -0.2528550703213766 -1.2926628323165699 0.0 -0.41639405040985106 -1.6173649204341218 0.0 -0.3418678365466957 -1.820637925515947 0.0 -0.3120933598023338 -1.9703407692585182 0.0 -0.2876396231909904 -2.096085012402124 0.0 -0.2675054626876364 -2.208988255224705 0.0 -0.24427600610689998 -1.614928080373201 0.0 -0.3985172379629307 -1.981601209540029 0.0 -0.3072338196808453 -2.1923496948087413 0.0 -0.27954617098865414 -2.343367818584194 0.0 -0.2606215545155387 -2.4743462218586543 0.0 -0.24717217017930412 -2.5972695049317363 0.0 -0.2303382937584572 -1.9885982897149561 0.0 -0.38824120570602993 -2.401829780045743 0.0 -0.2695049347376232 -2.618695705467391 0.0 -0.24123192603079804 -2.769320189233003 0.0 -0.22804088970102213 -2.904593352614832 0.0 -0.2226263575656588 -3.0367651559191273 0.0 -0.2133668013341699 -2.421421500535536 0.0 -0.402823650070591 -2.884912552122812 0.0 -0.2391761819794044 -3.101956237548904 0.0 -0.2031906170797653 -3.249965001249123 0.0 -0.1932928128323202 -3.3882088447052188 0.0 -0.1954068728851717 -3.528232648205814 0.0 -0.1950515328762882 -2.9253208731330202 0.0 -0.457598891439972 -3.436683725917091 0.0 -0.2280448977011223 -3.645108131127701 0.0 -0.17305870432646753 -3.7813080945327 0.0 -0.1656395001409874 -3.9193722579843047 0.0 -0.1722843203071079 -4.06542730163568 0.0 -0.1807606725190167 -3.5355065283876614 0.0 -0.5215294130382351 -4.05252610131315 0.0 -0.2446167061154175 -4.232063305801581 0.0 -0.1744491603612289 -4.35744850893621 0.0 -0.15445327986133192 -4.49095491227387 0.0 -0.1666056681651416 -4.64231291605782 0.0 -0.1801041405026034 -4.3398881084972 0.0 -0.47849121196228006 -4.756254518906361 0.0 -0.25334931033373265 -4.87652212191305 0.0 -0.1908130687703266 -4.97585452439636 0.0 -0.1719234522980862 -5.0985793274644795 0.0 -0.1880862287021556 -5.25417653135441 0.0 -0.2027842090696051 -5.40680573517014 0.0 -0.3201049880026245 -5.57462773936569 0.0 -0.24792328619808202 -5.5903777397594405 0.0 -0.22063675351591872 -5.63993454099836 0.0 -0.2191234654780865 -5.749224143730601 0.0 -0.23650751791268784 -5.89728374743209 0.0 -0.2567850424196259 -6.52723256318081 0.0 -0.48364105209102604 -6.5062761626569 0.0 -0.3587471089686775 -6.37751855943796 0.0 -0.306873327671833 -6.3514721587868 0.0 -0.3037712155942802 -6.42740576068514 0.0 -0.3297156402428908 -6.56357656408941 0.0 -0.3565522769138067 -7.66956059173901 0.0 -1.482727077068176 -7.49058178726454 0.0 -0.971242544281063 -7.240681781017041 0.0 -0.608090215202255 -7.099068577476711 0.0 -0.51703321292583 -7.133938178348451 0.0 -0.49686261242156504 -7.25865418146635 0.0 -0.506836932670923 -9.07288542682213 0.0 -2.260303536507587 -8.62134661553366 0.0 -1.6538162813454063 -8.172801404320031 0.0 -1.1155647478891182 -7.9102997977574905 0.0 -0.867286901682172 -7.868770196719251 0.0 -0.7604904190122601 -7.97305539932638 0.0 -0.725646498141162 -10.67088786677219 0.0 -2.753349388833733 -9.89301944732548 0.0 -2.11651005291275 -9.172740229318501 0.0 -1.599434799985869 -8.74518061862951 0.0 -1.266926911673172 -8.62287541557188 0.0 -1.0840515471012881 -8.70804381770109 0.0 -0.994465664861641 -12.33085190827129 0.0 -3.104003997600098 -11.15156587878914 0.0 -2.461599021539974 -10.1650682541267 0.0 -1.984943449623585 -9.58120143953003 0.0 -1.633631000840774 -9.385737834643441 0.0 -1.4197132354928301 -9.459625436490631 0.0 -1.2763981119099521 -13.882866347071651 0.0 -3.4374913259372812 -12.35175190879379 0.0 -2.763952509098811 -11.12518347812958 0.0 -2.287531737188292 -10.40508586012714 0.0 -1.9359526083988141 -10.156691853917291 0.0 -1.7031437225785921 -10.22762105569052 0.0 -1.5358266383956651 -15.319707182992671 0.0 -3.7498692537467293 -13.497349937433741 0.0 -3.0422839160570962 -12.0637843015946 0.0 -2.5328436633210902 -11.2223322805583 0.0 -2.183304254582605 -10.924652273116301 0.0 -1.9504570487614252 -11.00534147513353 0.0 -1.7609220840230513 -16.696605217415122 0.0 -4.03615570090389 -14.62689996567249 0.0 -3.289761442244034 -12.997217124930422 0.0 -2.749639788740993 -12.04152630103815 0.0 -2.383133939578347 -11.70773789269344 0.0 -2.1331135333278373 -11.78872949471823 0.0 -1.9428434885710861 -18.07905765197643 0.0 -4.2940985073524605 -15.771496794287412 0.0 -3.493224807330618 -13.93811514845287 0.0 -2.92894887322372 -12.86427472160686 0.0 -2.538608823465219 -12.4881763122044 0.0 -2.2739365368484123 -12.57483991437099 0.0 -2.083552612088814 -19.4917364872934 0.0 -4.50627491265687 -16.918860422971502 0.0 -3.6659924516498092 -14.88266477206661 0.0 -3.066523996663098 -13.68630874215771 0.0 -2.6513327462833174 -13.269117931727942 0.0 -2.367546139188652 -13.360267934006691 0.0 -2.183754014593849 -20.92329292308231 0.0 -4.6593449164836205 -18.07435965185898 0.0 -3.785654534641361 -15.82463879561596 0.0 -3.1571524389288093 -14.50048556251213 0.0 -2.7197451479936268 -14.042755551068879 0.0 -2.420521780513043 -14.141684353542102 0.0 -2.239582295989556 -22.362332559058302 0.0 -4.73920451848011 -19.226360080658992 0.0 -3.8405869360146716 -16.75583401889584 0.0 -3.191031719775791 -15.30264478256611 0.0 -2.7329699083242462 -14.80196277004906 0.0 -2.4242882206072043 -14.914654772866362 0.0 -2.243227456080685 -23.80218281416598 0.0 -4.73121562585248 -20.367367754019927 0.0 -3.815467950942361 -17.6682053533726 0.0 -3.15169777130403 -16.085486173043538 0.0 -2.674763936386003 -15.54378820766582 0.0 -2.3588908905765282 -15.67601282234048 0.0 -2.181977156732608 -25.24117878740301 0.0 -4.62722543565741 -21.49541685862185 0.0 -3.6944836685738704 -18.55922040991791 0.0 -3.020939715682965 -16.846009854307468 0.0 -2.520853622010396 -16.264808080875483 0.0 -2.20472819993517 -16.42157861315616 0.0 -2.03444101345608 -26.697778860676 0.0 -4.417100655515999 -22.61975087689344 0.0 -3.462662097919536 -19.432528655744377 0.0 -2.770972267410468 -17.58589066001048 0.0 -2.249440455912412 -16.965570624501037 0.0 -1.93820496336034 -17.1525877169815 0.0 -1.7766453155017499 -28.214152512262654 0.0 -4.0842765799519505 -23.759560392958623 0.0 -3.102493913042514 -20.2984626028464 0.0 -2.3766120771002397 -18.308776121226 0.0 -1.836795576524436 -17.64818231632413 0.0 -1.5363804146716231 -17.86556327748483 0.0 -1.390341074448006 -29.838958577454882 0.0 -3.62255349261519 -24.93289213659864 0.0 -2.592993409565496 -21.168284722445627 0.0 -1.8199109461080518 -19.0201549044662 0.0 -1.260928513595684 -18.31208036542565 0.0 -0.9846587649352371 -18.55734366632335 0.0 -0.8553398501095479 -31.57810789810536 0.0 -3.02501435545281 -26.12961326049984 0.0 -1.9154560065801298 -22.03036265819736 0.0 -1.052548338988665 -19.706845785604802 0.0 -0.49118658088823997 -18.95558775150774 0.0 -0.2442557084759766 -19.2106720337532 0.0 -0.16441254195005642 -33.380128678460395 0.0 -2.30837336417727 -27.2994664360923 0.0 -1.059321085195638 -22.830940206850684 0.0 -0.0994030349008212 -20.32529597020725 0.0 0.47733703336461003 -19.504568706261992 0.0 0.642647935610451 -19.782749033600698 0.0 0.678069621954606 -35.07171555687521 0.0 -1.451870459002515 -28.3554519210204 0.0 -0.03474586808490554 -23.520852106351203 0.0 1.0707029527495802 -20.8558554281535 0.0 1.64223486221835 -19.9375452385269 0.0 1.7069708759707558 -20.191492687090562 0.0 1.611374069403648 -36.585365555299674 0.0 -0.6283140202398639 -29.34150193083927 0.0 1.180108945480906 -24.15301024223835 0.0 2.4262423697239197 -21.255306836166568 0.0 2.946632536698657 -20.252777083542078 0.0 2.9954067991552322 -20.50370582062718 0.0 2.778034353957436 -37.735619263602665 0.0 0.1631710311946776 -30.1557552385386 0.0 2.4677708285924096 -24.69542907063856 0.0 3.8609309971849037 -21.594847953562198 0.0 4.43256823872515 -20.48938519770576 0.0 4.398822941091391 -20.723357571009803 0.0 4.120492961438 -38.04845860275217 0.0 0.680600087118041 -30.70849768890232 0.0 3.778353465815102 -25.032450456286938 0.0 5.24452704244213 -21.76709921876483 0.0 6.01638760147572 -20.620629975465 0.0 6.0337567347525 -20.843508145719298 0.0 5.676269755953 -35.8619569981599 0.0 0.39955014272416317 -30.09760847207298 0.0 5.01083065470132 -24.621547032944097 0.0 6.8138654767884 -21.472027823332702 0.0 7.54086039251823 -20.4435554739181 0.0 7.5182767927108305 -20.74170285060832 0.0 7.217309190454 -25.8738243230761 0.0 1.5978038210789551 -25.16145040352216 0.0 6.63365676264746 -22.65738844583808 0.0 8.311157063592239 -20.218089615290207 0.0 9.164427931530339 -19.07827980946412 0.0 8.76296960189176 -19.690504662902043 0.0 8.29212478243974 -14.14984794572624 0.0 2.828935974174412 -14.071514776435881 0.0 7.95967221572147 -14.18859691130115 0.0 10.54282377317985 -14.43230205799005 0.0 11.518663893986549 -14.90621951253088 0.0 11.53535526726784 -15.694061845105802 0.0 10.446431081522281 -7.404604994130239 0.0 2.391298789957987 -7.2102630359969995 0.0 9.15821483286234 -7.1824873553602 0.0 12.103565610708 -7.37937383662752 0.0 13.199245062341522 -7.866261178848151 0.0 13.488405655895551 -8.75544357237048 0.0 12.49215596936375 -5.06020588888517 0.0 0.9868148546662209 -4.74820669406538 0.0 10.265515664953769 -4.51217364559578 0.0 13.470496495803062 -4.49932020811632 0.0 15.14676417958332 -4.7539007858288995 0.0 15.076620198103498 -5.268136820202639 0.0 13.559737180717919 -4.53635555066135 0.0 0.5775146198162451 -4.21992211978176 0.0 11.2595034310809 -3.922267787012844 0.0 14.58238359078027 -3.75707102342676 0.0 16.389223225783198 -3.759994271291709 0.0 16.02457513551378 -3.92506046421225 0.0 15.2025272485947 -3.3673078238470624 0.0 0.624821388783456 -3.1827041615852316 0.0 11.71775840652788 -2.99945756755744 0.0 15.37344081702759 -2.855795803090615 0.0 16.8727374492658 -2.7601627174318444 0.0 16.60018274972875 -2.709055219455596 0.0 15.793618884935869 -0.28012777168267533 0.0 0.7818840447508261 -0.3270102780226026 0.0 11.8191839914887 -0.3847295122756864 0.0 15.877763743316798 -0.421282919987712 0.0 17.02001620704448 -0.4101917303313543 0.0 16.23668146080561 -0.3391790056559307 0.0 15.398348530651651 4.531591360045271 0.0 0.841382867575023 4.23193604523354 0.0 11.4493292426988 3.900220443996675 0.0 15.755931902543399 3.607044124602264 0.0 16.870598763225658 3.406274724394204 0.0 15.586268405481542 3.334127836021598 0.0 14.37598788947398 10.047735283656401 0.0 0.910628475922 9.549605538667288 0.0 10.7979076882992 8.9986817549958 0.0 14.863293384741601 8.47034463165444 0.0 16.07849741217188 7.9955177922316505 0.0 15.055752520229602 7.74934938816692 0.0 13.02623245576764 15.339652937450921 0.0 1.061746649148744 14.77011167463387 0.0 9.826838936276289 14.061993772282639 0.0 13.615239410179 13.313893391807678 0.0 14.78251137761027 12.6256672971792 0.0 14.149176995102401 12.29716859938725 0.0 11.586058668837001 20.06928859933788 0.0 0.966169016621568 19.54998733061133 0.0 8.67430889749368 18.5668969885578 0.0 12.0951083642196 17.5507023771335 0.0 13.369509447208502 16.946720144488072 0.0 12.83517146497954 16.67033012223216 0.0 10.26328670860592 24.433843970733747 0.0 0.3376570332279942 23.95192512583954 0.0 7.155376457017731 22.44092906662292 0.0 10.48881599019996 21.31234125904789 0.0 11.815232470907588 20.754966744267122 0.0 11.23259979765945 20.8495215021845 0.0 9.122399482175998 28.63458751325082 0.0 -0.173880025128437 27.69080514901 0.0 5.6296298119484005 25.699109467414452 0.0 8.549453871078152 24.80644238563422 0.0 10.049215025067662 24.624940559704267 0.0 9.74025075245866 25.018236105670987 0.0 7.80807729316979 33.055129937213145 0.0 -0.6692250722085651 31.516172609200858 0.0 4.29018613443462 28.959823330449996 0.0 6.53308657568774 28.2753181708526 0.0 8.121384470976299 28.24227274302058 0.0 8.1502835007326 28.522791258951226 0.0 6.26071599729399 37.85981741209235 0.0 -1.5555989353426298 35.44248716662717 0.0 2.984076795163972 32.37281147681028 0.0 4.72696068891508 31.354955254299718 0.0 6.22114069768236 30.502805038011086 0.0 5.873881832365799 30.298428833840635 0.0 4.54700125806336 42.9454910142343 0.0 -2.7452915246189606 39.592544255111804 0.0 1.558159718639152 36.07729961657125 0.0 3.0916062043361747 33.336852542758045 0.0 4.2017970405278495 31.91034983287557 0.0 3.6030429993182262 31.16399232883328 0.0 3.19094298723712 48.3643513296252 0.0 -4.07592026933922 43.8577482861053 0.0 0.1972245761983898 39.067269526419615 0.0 1.305922689627425 34.96738220257429 0.0 2.2241248152493442 32.79709620237544 0.0 2.102934138857752 31.70015204197138 0.0 2.183341236238324 54.2770906480153 0.0 -5.77714947817104 48.06719673243 0.0 -1.15077450493338 41.406553510827806 0.0 0.09695555535091022 36.233104996159916 0.0 0.955641592144322 33.35941732211692 0.0 1.22832428479635 32.0615683760676 0.0 1.377144131913428 61.5729691086876 0.0 -5.2027069264392605 51.94781656177861 0.0 -2.013154948948032 43.566431946768 0.0 -0.842575609782 37.59145345802088 0.0 0.0941629469087736 34.1231131549014 0.0 0.5666308865784 32.5170789364704 0.0 0.8089238302049759 66.7987668067727 0.0 -5.47292109603861 55.901260661214806 0.0 -3.121067990785433 46.154061085310204 0.0 -1.572928916383066 39.38449516535625 0.0 -0.479245541595495 35.230055290768654 0.0 0.02696564610838332 33.08312012899 0.0 0.33730406137902097 60.3996215882423 0.0 -4.12143420676561 49.665038225119595 0.0 -2.5080308322613836 41.8385151514715 0.0 -1.15726479791923 36.84623392102848 0.0 -0.464923434859008 33.960377831945344 0.0 -0.0789272665261596 65.312368639616 0.0 -4.9567349339648 54.090769153828404 0.0 -3.274236099509692 45.1072256834805 0.0 -1.825214044201295 39.05989215939181 0.0 -0.908332676587317 35.31524216844224 0.0 -0.483359903185408 59.39090240321081 0.0 -3.8775574817091725 49.48744939389 0.0 -2.410375814945876 42.098241253111404 0.0 -1.236651219627614 37.29410857618448 0.0 -0.79083111032916 65.075418876353 0.0 -4.3569793685266 54.84341844727061 0.0 -2.8180776380910655 46.2487375909782 0.0 -1.517676060517774 40.2218774463924 0.0 -0.969774335098206 60.973898791041606 0.0 -3.2288323485206885 51.599778927025504 0.0 -1.8180300138279 44.4617574232884 0.0 -1.0082308752904199 57.927578049117 0.0 -2.242688883066414 49.9235736689991 0.0 -1.133276310537849 63.953361457308304 0.0 -2.899289135405046 56.56695035864819 0.0 -1.6356628912125002 -1.3153160328829 0.0 -0.18244147656103682 -1.3608413940210342 0.0 -0.15355558783888962 -1.3921280348032 0.0 -0.1273546471838661 -1.4119369952984242 0.0 -0.1042723186068079 -1.424169195604229 0.0 -0.0823418620585465 -1.430991395774784 0.0 -0.0628013855700346 -1.434365115859127 0.0 -0.045520013138000304 -1.435932195898304 0.0 -0.029305440732636 -1.436485315912132 0.0 -0.01459333036483325 -1.6076012001900293 0.0 -0.216226605405665 -1.66077044151926 0.0 -0.1853213606330339 -1.6971207224280171 0.0 -0.1566476399161909 -1.7208763630219082 0.0 -0.12919265522981632 -1.735369923384247 0.0 -0.103848282596207 -1.7436256835906412 0.0 -0.08077893401947331 -1.748095763702393 0.0 -0.0588427334710683 -1.750240363756008 0.0 -0.03824809575620237 -1.751058243776455 0.0 -0.01912613407815334 -1.943014968575373 0.0 -0.2246152696153816 -2.00525405013135 0.0 -0.19606403690160082 -2.048170891204271 0.0 -0.1689185442229635 -2.076667091916676 0.0 -0.1416398555409963 -2.0945820523645504 0.0 -0.1156338108908452 -2.105208252630205 0.0 -0.0909533302738332 -2.111280892782021 0.0 -0.0670555856763896 -2.1143963328599074 0.0 -0.0442252531056313 -2.115837932895947 0.0 -0.022026692950667313 -2.303059057576475 0.0 -0.2212426255310655 -2.374792539369812 0.0 -0.1967221089180526 -2.4251122206278044 0.0 -0.17140323228508073 -2.458847101471176 0.0 -0.1463486356587158 -2.4806378220159444 0.0 -0.12143236703580909 -2.4943497423587417 0.0 -0.0962252704056317 -2.5025231025630763 0.0 -0.0716825857920646 -2.5070240626755997 0.0 -0.0477239251930981 -2.5092449827311234 0.0 -0.02378179179454478 -2.702689627567239 0.0 -0.2119468492986711 -2.7838522695963053 0.0 -0.1917092607927314 -2.8415057110376414 0.0 -0.169177084229427 -2.880674432016859 0.0 -0.14643643166091072 -2.9067938726698452 0.0 -0.12279470306986749 -2.923725193093128 0.0 -0.0985765464644136 -2.9342312733557803 0.0 -0.0743769898594247 -2.940405153510127 0.0 -0.0496463852411596 -2.943543313588581 0.0 -0.02488081222202029 -3.152946918823671 0.0 -0.2006366770159168 -3.2434647610866176 0.0 -0.1839441805986044 -3.3080708427017687 0.0 -0.1651155761278893 -3.352692123817301 0.0 -0.1446545156163628 -3.3830822845770547 0.0 -0.1228074350701858 -3.4033222850830556 0.0 -0.10001610650040262 -3.416380005409498 0.0 -0.0759082978977074 -3.4242737656068423 0.0 -0.051034421275860505 -3.428426045710649 0.0 -0.0257443406436085 -3.6542225713555623 0.0 -0.18912759272818971 -3.753427213835678 0.0 -0.17747280843682012 -3.824770815619268 0.0 -0.162215644055391 -3.874659056866474 0.0 -0.14426339160658472 -3.909253777731342 0.0 -0.12411997510299931 -3.9329060583226494 0.0 -0.102114642552866 -3.9486004987150105 0.0 -0.0783007419575185 -3.9583436189585877 0.0 -0.053072741326818496 -3.9636040590900987 0.0 -0.02679996266999905 -4.20025410500635 0.0 -0.18240759656018982 -4.307686507692161 0.0 -0.17648996441224898 -4.38554050963851 0.0 -0.16509287612732182 -4.44063331101583 0.0 -0.14945320373633 -4.47954651198866 0.0 -0.1303804312595107 -4.50677851266946 0.0 -0.1082129267053231 -4.52529411313235 0.0 -0.0835926140898153 -4.53709451342736 0.0 -0.05702211342555281 -4.54360371359009 0.0 -0.028917426722935652 -4.78486091962152 0.0 -0.188873964721849 -4.9001657225041395 0.0 -0.18822578470564452 -4.984618524615461 0.0 -0.18006501650162532 -5.045264926131621 0.0 -0.1654888561372213 -5.088896527222411 0.0 -0.1458822756470568 -5.12013492800337 0.0 -0.1219041150476028 -5.1418441285461 0.0 -0.0945670263641756 -5.1559801288995 0.0 -0.0646110776152769 -5.163906129097651 0.0 -0.03280363762009093 -5.403320935083021 0.0 -0.217785005444625 -5.52617893815447 0.0 -0.2210773535269337 -5.617735740443391 0.0 -0.2140994373524858 -5.68480054212001 0.0 -0.19801415695035382 -5.73407294335182 0.0 -0.17474455236861372 -5.7700281442507 0.0 -0.14598075564951882 -5.79547934488698 0.0 -0.1131511108287777 -5.8122709453067705 0.0 -0.0774195859354896 -5.82178774554469 0.0 -0.039362285384057116 -6.04975775124394 0.0 -0.2763906309097656 -6.18090575452264 0.0 -0.28248649506216217 -6.2810769570269205 0.0 -0.2736318908407971 -6.3562857589071395 0.0 -0.2518948622973714 -6.412648960316219 0.0 -0.22114382152859544 -6.4543925613598105 0.0 -0.1838558005963949 -6.4843493621087305 0.0 -0.14176695554417382 -6.50440296261007 0.0 -0.0964190944104773 -6.51583416289585 0.0 -0.0487914372197859 -6.722913368072831 0.0 -0.3700574012514348 -6.861571771539291 0.0 -0.3789254534731361 -6.9734361743359 0.0 -0.3606917930172946 -7.0588305764707595 0.0 -0.32845030821125754 -7.124106178102651 0.0 -0.285007127125178 -7.172982179324551 0.0 -0.23460131386503272 -7.20831538020788 0.0 -0.17951292048782289 -7.2321001808025 0.0 -0.12140778703519461 -7.2457193811429805 0.0 -0.06111492552787311 -7.41756538543913 0.0 -0.5207554130188851 -7.57029418925735 0.0 -0.505495892637397 -7.69483419237085 0.0 -0.47338721183468 -7.792174594804361 0.0 -0.428940210723505 -7.86821779670544 0.0 -0.3688275172206877 -7.926258998156469 0.0 -0.3011114435277859 -7.968153399203831 0.0 -0.23046198576154953 -7.996505799912641 0.0 -0.1559120558978013 -8.0129322003233 0.0 -0.07838447795961191 -8.13880260347006 0.0 -0.7031069375776731 -8.30573460764336 0.0 -0.665032896625822 -8.4453762111344 0.0 -0.6121025753025641 -8.55862381396559 0.0 -0.542726573568164 -8.6476442161911 0.0 -0.46485841162145997 -8.71504301787607 0.0 -0.38177593754439826 -8.76399461909986 0.0 -0.29292655532316375 -8.79802581995064 0.0 -0.1969778929244472 -8.81777462044436 0.0 -0.09936447848411191 -8.88396262209906 0.0 -0.9251071031276771 -9.066211026655271 0.0 -0.8596156214903901 -9.22447743061193 0.0 -0.77761361944034 -9.35579543389488 0.0 -0.679088496977212 -9.45945543648638 0.0 -0.576319774407994 -9.53942743848568 0.0 -0.46807561170189 -9.59809063995226 0.0 -0.35458417686460425 -9.63836304095907 0.0 -0.2373863059346575 -9.660647841516191 0.0 -0.12164867104121671 -9.650920241273 0.0 -1.16284962907124 -9.85328184633204 0.0 -1.07080642677016 -10.03214065080351 0.0 -0.9589264239731601 -10.18221905455547 0.0 -0.835292340882308 -10.302935857573392 0.0 -0.702772097569302 -10.39833705995842 0.0 -0.5633018540825461 -10.467063461676581 0.0 -0.42491893062297303 -10.51472266286806 0.0 -0.283587487089687 -10.543017863575441 0.0 -0.14286594757164858 -10.43662986091574 0.0 -1.397685834942145 -10.66284266657106 0.0 -1.276271391906784 -10.86567347164183 0.0 -1.1396098284902452 -11.03792507594812 0.0 -0.9898969047474221 -11.17842587946064 0.0 -0.833058580826464 -11.28860348221508 0.0 -0.670919536772988 -11.37060668426516 0.0 -0.505991052649776 -11.425930285648251 0.0 -0.34107445252686114 -11.45932508648312 0.0 -0.16983050424576251 -11.23648788091219 0.0 -1.612489360312233 -11.4916642872916 0.0 -1.4685797967144942 -11.72264069306601 0.0 -1.311500872787521 -11.92028549800713 0.0 -1.1381375484534382 -12.0827883020697 0.0 -0.9596605439915131 -12.21043870526096 0.0 -0.774693019367325 -12.30599470764986 0.0 -0.585669014641725 -12.3721163093029 0.0 -0.39410050985251255 -12.40957751023943 0.0 -0.19872785296819623 -12.04779390119484 0.0 -1.792761284819031 -12.334643108366071 0.0 -1.637150240928755 -12.59869351496733 0.0 -1.46039163650979 -12.825639520640982 0.0 -1.273220751830518 -13.012750725318758 0.0 -1.075864066896601 -13.16080952902023 0.0 -0.8711841017796019 -13.27216353180408 0.0 -0.6603670165091751 -13.34912153372803 0.0 -0.44198017104950404 -13.39431033485775 0.0 -0.2217577975439448 -12.862953521573832 0.0 -1.938834608470864 -13.18990192974754 0.0 -1.7721113643027833 -13.490455937261393 0.0 -1.587624879690621 -13.750844343771101 0.0 -1.3874665546866631 -13.965979549149482 0.0 -1.1771477894286941 -14.137279153431972 0.0 -0.9570139039253471 -14.26636075665901 0.0 -0.7252720581318011 -14.35631435890785 0.0 -0.486903492172587 -14.40918316022957 0.0 -0.243422966085574 -13.68193834204845 0.0 -2.040639731015992 -14.052144351303602 0.0 -1.868582206714554 -14.395360359884 0.0 -1.6818212820455312 -14.691876767296911 0.0 -1.4773946369348652 -14.93943197348579 0.0 -1.257578511439462 -15.13675117841877 0.0 -1.0256381456409531 -15.286245982156142 0.0 -0.780189579504739 -15.390568784764211 0.0 -0.5248330131208251 -15.452369986309241 0.0 -0.2636019305900481 -14.503360362584 0.0 -2.093152292328806 -14.92061037301525 0.0 -1.921510168037753 -15.30905798272644 0.0 -1.7355957633898929 -15.646061991151539 0.0 -1.532312918307822 -15.928831998220792 0.0 -1.3139313128482821 -16.15565840389145 0.0 -1.073593266839831 -16.3278964081974 0.0 -0.820582780514569 -16.44841361121033 0.0 -0.553794253844856 -16.519728412993203 0.0 -0.278992206974805 -15.320737183018421 0.0 -2.0917679322941973 -15.789508394737702 0.0 -1.923175088079376 -16.226848405671202 0.0 -1.7421043635526081 -16.60804321520107 0.0 -1.545484878637121 -16.929416423235402 0.0 -1.332916873322921 -17.18829522970737 0.0 -1.096467707411692 -17.38616243465405 0.0 -0.8422408210560202 -17.52476403811909 0.0 -0.5713181742829541 -17.60663804016594 0.0 -0.28828457120711415 -16.129844292068 0.0 -2.02508199642424 -16.6544842234244 0.0 -1.8619040096324129 -17.14378354498176 0.0 -1.691564979746208 -17.5719999369109 0.0 -1.50889183499899 -17.934888608297882 0.0 -1.310501930335499 -18.22861211286478 0.0 -1.08686020088745 -18.45436457001258 0.0 -0.841206823440368 -18.61328988782668 0.0 -0.574435726312492 -18.70727808520148 0.0 -0.29163958444184124 -16.92817116280092 0.0 -1.880367361282674 -17.51130404939754 0.0 -1.725385713738696 -18.05411950505526 0.0 -1.573461785443218 -18.530934260487662 0.0 -1.4141237656868189 -18.937612154585278 0.0 -1.240479422168013 -19.26875377525506 0.0 -1.039955131690482 -19.5245407659744 0.0 -0.8133584908001279 -19.70613873318636 0.0 -0.559973235807468 -19.81412444680992 0.0 -0.2860035012107136 -17.7137430161216 0.0 -1.6352096983256041 -18.35643098895224 0.0 -1.504333899026666 -18.9520816983247 0.0 -1.379249751876572 -19.478226586545773 0.0 -1.253961487007234 -19.92961555039606 0.0 -1.117481314351092 -20.29951561058472 0.0 -0.952397197171313 -20.588422133528542 0.0 -0.755673181580106 -20.795070600129648 0.0 -0.525830845652739 -20.91926525986156 0.0 -0.2697696234120888 -18.483603341292 0.0 -1.27989645754068 -19.18486501844031 0.0 -1.1888701257820589 -19.832166583810558 0.0 -1.1016744277497599 -20.406609158152317 0.0 -1.022460265865052 -20.90227796351082 0.0 -0.9346404192396359 -21.314231446097697 0.0 -0.8182453680480419 -21.638418520765438 0.0 -0.66376201135104 -21.87260018169972 0.0 -0.46957082290387203 -22.01444686100088 0.0 -0.24320888059026002 -19.2300493372802 0.0 -0.7955796597708299 -19.98758256614946 0.0 -0.764443504161672 -20.68666517509735 0.0 -0.734335030118358 -21.30849951130964 0.0 -0.715622136787304 -21.84850601418805 0.0 -0.684192319231512 -22.303960056814148 0.0 -0.631453263406548 -22.66591580220346 0.0 -0.5305592979392181 -22.93013317105818 0.0 -0.3847067532517982 -23.091165806438504 0.0 -0.202419816699625 -19.935080301564 0.0 -0.16734727842324928 -20.74345363215726 0.0 -0.2031051192922116 -21.49799124632442 0.0 -0.2677128666192018 -22.16919897931068 0.0 -0.3236948574079242 -22.75499506024215 0.0 -0.3653193082659942 -23.25478276005834 0.0 -0.38169612068677916 -23.65560916334712 0.0 -0.3453682187627838 -23.951031337036436 0.0 -0.2607357449236059 -24.13321317183357 0.0 -0.1410627094498251 -20.552616292195022 0.0 0.57690120167235 -21.401556690322888 0.0 0.42669157772649596 -22.211027418061228 0.0 0.27076534990405315 -22.938171633907526 0.0 0.1449926030768061 -23.57765199596016 0.0 0.0085563533597712 -24.13249947551841 0.0 -0.0645393233611989 -24.57511573499943 0.0 -0.1040284585554549 -24.90660688126884 0.0 -0.10272721967316199 -25.113665386730762 0.0 -0.05924181076773421 -20.998775973060358 0.0 1.434981019420737 -21.95231342588765 0.0 1.23473888034637 -22.82022493487026 0.0 0.978646937086188 -23.58858593476448 0.0 0.728220301423776 -24.292333497923043 0.0 0.509418206169856 -24.884439996055708 0.0 0.3297930424190339 -25.37532714687465 0.0 0.1866580498195085 -25.749799506789053 0.0 0.0915671442603225 -25.985827999029997 0.0 0.0349690404534725 -21.344858945087573 0.0 2.4762435581795534 -22.34927875819587 0.0 2.192021706172201 -23.271746446067 0.0 1.8322783689664601 -24.10106369739025 0.0 1.4792970260700848 -24.84109745743362 0.0 1.172267409299514 -25.47037636070004 0.0 0.8712580984597711 -25.996221609605367 0.0 0.589358906745441 -26.40528454967397 0.0 0.3775602605427054 -26.66800200134448 0.0 0.17652695441951521 -21.564313848955518 0.0 3.7130921482982924 -22.61848446642048 0.0 3.301701675393659 -23.59034894364638 0.0 2.82902613122331 -24.44719403083056 0.0 2.399466504663192 -25.219588345790758 0.0 1.985862831490368 -25.8791189745582 0.0 1.5513157585458 -26.449363919143902 0.0 1.1749573555762 -26.88033561017344 0.0 0.8016148053248 -27.12876331496498 0.0 0.43048836629932896 -21.72219803533332 0.0 5.16258417237012 -22.77018552154375 0.0 4.62109038390862 -23.76000525409104 0.0 4.040792087981362 -24.660513075418958 0.0 3.4542186383367763 -25.414169276149778 0.0 2.861883479049168 -26.0941100615128 0.0 2.2888695955596803 -26.657830071646515 0.0 1.737976300998834 -27.082811127354844 0.0 1.184734360384146 -27.389113033901342 0.0 0.6003452351937301 -21.67998645896312 0.0 6.7601296516656 -22.787751542123118 0.0 6.24548967527128 -23.82143283099187 0.0 5.64546085446491 -24.76886049900928 0.0 5.00953313477328 -25.53740841095155 0.0 4.31401489126535 -26.223720824012013 0.0 3.6341079315484066 -26.779204752352797 0.0 2.9169497706613 -27.15624193706875 0.0 2.0523856134734153 -27.389133726413398 0.0 1.071067995601664 -21.014154610185898 0.0 8.0540136647022 -22.390765490334562 0.0 7.774574758580721 -23.619219532758 0.0 7.333452595927629 -24.63746487906975 0.0 6.71845286855545 -25.515529728328904 0.0 5.998823053314521 -26.2272417346915 0.0 5.24096337272308 -26.755291991959297 0.0 4.30164544778815 -27.1318771501633 0.0 3.13474948284985 -27.304439191614417 0.0 1.6319131902777 -17.178485948463837 0.0 8.60487000552288 -18.994388086476782 0.0 7.729790660171241 -20.74371721580774 0.0 7.3931117150205 -22.390217358345197 0.0 6.83550791661488 -23.88220366258531 0.0 6.13839663131261 -25.179421635056702 0.0 5.334296610006 -26.246164156076848 0.0 4.3674379811587505 -27.07633993839909 0.0 3.141715090433886 -27.60502130061516 0.0 1.6527649662880557 -9.97683281795125 0.0 10.512617069169998 -11.332438977772851 0.0 10.08671210565704 -12.75604201756194 0.0 9.576997388729522 -14.163218350168439 0.0 8.773405387446 -15.48350240700837 0.0 7.80866144258277 -16.6654638928629 0.0 6.72607386113582 -17.66257433311015 0.0 5.461189648746051 -18.4261524056479 0.0 3.914528835228805 -18.908727423113678 0.0 2.059129606772064 -6.002066214209999 0.0 12.89745339424135 -6.89240759417552 0.0 12.419163431459399 -7.87185637952461 0.0 11.66988272469136 -8.87846125905588 0.0 10.61449301304528 -9.85834498133403 0.0 9.401402174721749 -10.76392811923784 0.0 8.06852030542176 -11.547134160359981 0.0 6.529792262975801 -12.15729844448343 0.0 4.66704408774051 -12.546799375853121 0.0 2.450099177859984 -4.2227026553831 0.0 14.5290269554276 -4.62479642695199 0.0 13.91112424829166 -5.1089834591656 0.0 13.027707993583919 -5.64777756238872 0.0 11.845296274679999 -6.2086644397557 0.0 10.508047023205599 -6.755849722743 0.0 9.03703116601428 -7.24831154300148 0.0 7.32432650025279 -7.642728677791201 0.0 5.23813037901216 -7.898891380836179 0.0 2.7501973960052517 -2.6924948828395676 0.0 15.081507113145639 -2.71152619346883 0.0 14.417432347613701 -2.776194584702864 0.0 13.50971357704778 -2.889100013475897 0.0 12.326252165685899 -3.04360143388623 0.0 10.9929940765365 -3.2234345869826515 0.0 9.50688380962287 -3.4047482882616626 0.0 7.74024231221117 -3.5609866697995516 0.0 5.55247476618912 -3.6668644850252123 0.0 2.9200395734275557 -0.2062045521735552 0.0 14.689216382400001 -0.02471390545615965 0.0 14.03827602218925 0.1781651189700005 0.0 13.1814130304357 0.37514400052573854 0.0 12.08634889080645 0.54605290214353 0.0 10.85369352956875 0.6817874350488521 0.0 9.45467585044234 0.7812926356424921 0.0 7.7460117621064 0.84738343360752 0.0 5.5820337022448 0.8844020480154641 0.0 2.943491599995012 3.4062310250026244 0.0 13.65051141593776 3.6145310235370864 0.0 13.0275306957597 3.92774667169871 0.0 12.25007277626496 4.3010969756943 0.0 11.28108585154685 4.690363400325929 0.0 10.19659082266947 5.05971151599375 0.0 8.94729901534875 5.37974036343 0.0 7.3800493310988005 5.6266391395359 0.0 5.34650537862639 5.78233842803226 0.0 2.828610817184844 7.6689055310697904 0.0 12.279394256689391 7.80047481856512 0.0 11.681326079842721 8.116928588849081 0.0 10.97697683248166 8.56385166076155 0.0 10.127100886578301 9.078775098345002 0.0 9.1920919779675 9.60128102517237 0.0 8.112793783922369 10.07593602546858 0.0 6.73324574961873 10.454061258483751 0.0 4.9039573223936 10.697482471706401 0.0 2.603655539325552 12.07696461628005 0.0 10.82100140850825 12.11606422164684 0.0 10.25042540306244 12.40016143947245 0.0 9.599962927757302 12.870439430355159 0.0 8.838401796043838 13.4522777491305 0.0 8.024570080731399 14.067561798223363 0.0 7.10263976760576 14.641106761650919 0.0 5.9216668633176806 15.105854115695422 0.0 4.33308833695272 15.408184176736 0.0 2.3083241368647203 16.427098564811033 0.0 9.425672732871881 16.42738040511984 0.0 8.90024113876608 16.7014415851278 0.0 8.2901798801298 17.18837434316556 0.0 7.58433972914706 17.80889299936992 0.0 6.85342548502892 18.47686919814762 0.0 6.0575217707218005 19.10726176234557 0.0 5.05909474143854 19.62277857291662 0.0 3.713688279147356 19.96031067550484 0.0 1.983783337919256 20.75651065789634 0.0 8.1666159220485 20.800193051038303 0.0 7.7149515491252 21.1090808703586 0.0 7.14608404251748 21.622323821713938 0.0 6.47511383451348 22.264342349079712 0.0 5.793302389056151 22.9526758399356 0.0 5.0861889704428 23.60348568885692 0.0 4.23763838864289 24.1382839825635 0.0 3.112423144156762 24.489787104753358 0.0 1.6649037949907999 25.071041201978048 0.0 7.06930665114585 25.22484604535985 0.0 6.717368274381171 25.588698436047043 0.0 6.19860512018852 26.099092760809302 0.0 5.5506544924305805 26.677364939731003 0.0 4.8876061811881995 27.24200721665584 0.0 4.224996895359101 27.761710103059364 0.0 3.482378280928064 28.11568461884966 0.0 2.5438616452550837 28.352051541561707 0.0 1.3567007519161338 28.496153397913297 0.0 5.916589267029679 28.635962640495627 0.0 5.661517974741139 28.865569003255438 0.0 5.1915881441592395 29.1127247305499 0.0 4.5634749493847995 29.39850692882785 0.0 3.9175265849845076 29.6072135804648 0.0 3.3162644069680645 29.80650662999636 0.0 2.689793476470128 29.930964458717302 0.0 1.9580089466361401 29.99965203057536 0.0 1.043103621527272 30.1505346101931 0.0 4.51780892173656 30.204860506323747 0.0 4.39716299014125 30.303590083757157 0.0 4.039392526457883 30.369041390708997 0.0 3.5096747417081997 30.471476471733155 0.0 2.954161400236578 30.516374161251992 0.0 2.462102268226128 30.58234614662634 0.0 1.9793060862530671 30.63642614529255 0.0 1.437712264264617 30.67474536257256 0.0 0.776301473434032 30.907997306805548 0.0 3.307538097021208 30.89546393880098 0.0 3.3156065583774397 30.949380655737702 0.0 3.09002631820662 30.983576134249702 0.0 2.71032048723228 30.974280982209336 0.0 2.2659776019732543 31.02133170643858 0.0 1.8512526039879298 31.04487802041388 0.0 1.481611053165712 31.08723499047025 0.0 1.0545623470497492 31.099182755000076 0.0 0.5614158894820209 31.27067346714092 0.0 2.260774735101076 31.23569143943574 0.0 2.317136784214054 31.233863190028803 0.0 2.23722330407643 31.23836221746022 0.0 1.999290861747282 31.2726099102235 0.0 1.718422876444365 31.239779250238726 0.0 1.5054187515701603 31.22049732308192 0.0 1.220560724741344 31.2204637811839 0.0 0.869640004990025 31.242996136002557 0.0 0.46426136418175795 31.6219133728575 0.0 1.56564156014365 31.50961777628619 0.0 1.6574389905498101 31.50065583746244 0.0 1.674135691946918 31.45568647276844 0.0 1.5588447232935232 31.40710707106633 0.0 1.386948235141497 31.37542875198629 0.0 1.1409930359300051 31.364528056795 0.0 0.916098016343225 31.40356384183965 0.0 0.7062819576705099 31.458834302779355 0.0 0.40001084570619755 31.859613753831805 0.0 1.03038949675972 31.63242049676135 0.0 1.19233986996932 31.58784591115076 0.0 1.2275091382518801 31.534955485570727 0.0 1.248844133200975 31.511845271622537 0.0 1.129450065623369 31.50951637731051 0.0 0.961746599049005 31.5171842999196 0.0 0.74274107517434 31.542793520084665 0.0 0.500138954406572 31.564263158899386 0.0 0.23448324859256667 32.076456815138854 0.0 0.5602130178733981 31.70691218269863 0.0 0.736791901206633 31.59055179420825 0.0 0.834868148257458 31.551423833553116 0.0 0.8638683148458719 31.53568784266872 0.0 0.846935679097908 31.528494421046698 0.0 0.74792894062842 31.532562508045498 0.0 0.603618761164086 31.55482611518688 0.0 0.42008071155432003 31.583557005701852 0.0 0.2108899462326489 32.47547281523229 0.0 0.1824627648121761 31.77653867481951 0.0 0.3791616742500048 31.543232744977917 0.0 0.449394087396384 31.47628034632392 0.0 0.512351532824058 31.432510475203983 0.0 0.532781727955524 31.417428474580504 0.0 0.5087857809431701 31.410542401794633 0.0 0.437369499678681 31.438113407107682 0.0 0.3026919171400488 31.46399798864451 0.0 0.1290963719709599 33.08651689763882 0.0 -0.1446658394850757 31.957027496875003 0.0 0.047958982350542 31.498038254213956 0.0 0.1629657904090788 31.303913060081083 0.0 0.20089971770119192 31.24518979315612 0.0 0.25691619233439866 31.191405666872843 0.0 0.2815665759566256 31.1816850133629 0.0 0.274303577751507 31.215198430771316 0.0 0.1300567098074034 31.2087502113696 0.0 0.06506010633970401 34.20247162452404 0.0 -0.479131757993158 32.42230537490421 0.0 -0.20089187454636293 31.5782202010926 0.0 -0.103434447418554 31.20154029677451 0.0 -0.026038792657368658 30.99512349633672 0.0 0.01177036329346668 30.91218905118672 0.0 0.0846473992082856 30.88677088278 0.0 0.08145076802260501 30.896458180552383 0.0 0.01575678052987116 30.873191363112 0.0 0.014340454602299279 36.1079069330376 0.0 -0.705175192787499 33.528831841206 0.0 -0.441266430153 32.0405436917952 0.0 -0.280240786708512 31.296212397307205 0.0 -0.225893813581527 30.867422847742105 0.0 -0.1424501830763649 30.6457035336207 0.0 -0.074500210522815 30.592676731877223 0.0 -0.0742126707781002 30.5445256717077 0.0 -0.0895826819299164 30.513636926560558 0.0 -0.03726810835463082 39.12911636425248 0.0 -0.692219567532312 35.62223781116484 0.0 -0.5455718272987199 33.30827713451124 0.0 -0.42319789456156204 31.85560348474608 0.0 -0.3199140082498488 31.0508715148206 0.0 -0.270533517960051 30.64758503901144 0.0 -0.2142816507509856 30.39722091696504 0.0 -0.1824045229526892 30.29322708754398 0.0 -0.1599699817674558 30.21513809726502 0.0 -0.0831654829050282 43.4597355308128 0.0 -0.538787317612416 38.787978820897564 0.0 -0.36553015698841923 35.749719798423534 0.0 -0.4004064266380542 33.3391299378984 0.0 -0.33071855945820305 31.899804563596323 0.0 -0.2955705282815328 31.05617463829947 0.0 -0.25031381204986203 30.653293145929197 0.0 -0.24686019268160703 30.3070592463705 0.0 -0.19683477704594401 30.221138144734738 0.0 -0.1179714424156839 49.400374215155395 0.0 -0.683687297722242 43.488594746177995 0.0 -0.1395229533456984 39.24124211579379 0.0 -0.10534443295331938 36.12538971623832 0.0 -0.13246001711955 33.97282928243742 0.0 -0.1846981008410892 32.40248241742092 0.0 -0.1967098911958332 31.489224561715677 0.0 -0.18956913674172482 31.0522427877924 0.0 -0.1649350257268077 30.802556049076355 0.0 -0.10997597784484621 56.1459584904845 0.0 -1.34213632312318 49.84517512951609 0.0 -0.484064435996819 44.4501512323092 0.0 -0.007293475068959939 40.2023195656284 0.0 0.2247631865128836 37.231627320388384 0.0 0.152347651555374 35.0331322828378 0.0 0.094940130021923 33.6564983220366 0.0 -0.01625037719871935 32.85633000646172 0.0 -0.0691987683881956 32.376032743133436 0.0 -0.03691409592181588 56.260256412516 0.0 -0.9779591290891761 50.998135570783106 0.0 -0.35533204290447995 46.136549382603405 0.0 0.1424932781082209 42.217361570601 0.0 0.33243936530899365 39.24218394916908 0.0 0.46128801151996 37.239423540923944 0.0 0.42784220754779 36.16855439758385 0.0 0.2144721838118805 35.54841289607679 0.0 0.0859109967415109 52.239558654874806 0.0 -0.025239013936652007 48.275409386985 0.0 0.2565135025430476 44.9106218262711 0.0 0.528951393617252 42.609203380534 0.0 0.589440501762884 41.182077067089 0.0 0.516436730028615 40.547933309764495 0.0 0.138735257568197 50.930407119744004 0.0 0.60612945252536 48.81819492981769 0.0 0.534296896303424 47.4854535895267 0.0 0.2640396366031119 46.687872466129704 0.0 0.1350996739018632 -1.436618075915451 0.0 -3.745790413644758e-07 -1.436483035912075 0.0 0.014594981564874532 -1.4359375558984382 0.0 0.02930597153264927 -1.434368915859222 0.0 0.0455198891379972 -1.430982995774574 0.0 0.06280108957002721 -1.424172995604324 0.0 0.08234194605854861 -1.411933155298328 0.0 0.1042716786067919 -1.392128794803219 0.0 0.1273549111838727 -1.7512856037821392 0.0 7.55110538877763e-07 -1.751051363776283 0.0 0.0191263324781583 -1.7502434037560841 0.0 0.03824790815619768 -1.7480896437022402 0.0 0.0588431094710777 -1.7436249235906223 0.0 0.080778082019452 -1.735369163384228 0.0 0.1038479465961986 -1.720873323021832 0.0 0.1291922592298064 -1.697115362427883 0.0 0.15664687591617182 -2.116226252905655 0.0 -1.9276722481918053e-07 -2.115836372895908 0.0 0.02203033775075843 -2.114399772859993 0.0 0.0442264571056614 -2.1112740127818492 0.0 0.0670552736763818 -2.105205212630129 0.0 0.0909531022738275 -2.0945820523645504 0.0 0.1156336588908414 -2.076660571916513 0.0 0.141638843540971 -2.048173971204348 0.0 0.16891813622295332 -2.509919782747993 0.0 -1.2019249100481219e-06 -2.5092469027311712 0.0 0.02378138219453454 -2.5070221426755523 0.0 0.0477262251931556 -2.502521182563028 0.0 0.0716820777920519 -2.494348222358704 0.0 0.0962250864056271 -2.480637422015934 0.0 0.1214331670358291 -2.458850141471252 0.0 0.1463474916586872 -2.4251160206278994 0.0 0.171404484285112 -2.944493553612337 0.0 -7.16400977910024e-07 -2.943547113588676 0.0 0.02488599182214978 -2.940399433509984 0.0 0.0496444332411108 -2.934230513355761 0.0 0.07437708585942711 -2.923728833093219 0.0 0.09857757446443931 -2.906798432669959 0.0 0.1227951550698788 -2.8806725120168113 0.0 0.1464372556609313 -2.841507231037679 0.0 0.16917690422942253 -3.42971808574295 0.0 1.648194361204858e-06 -3.4284279657106973 0.0 0.025743684643592103 -3.424273005606823 0.0 0.0510357092758927 -3.416379645409489 0.0 0.07590836589770909 -3.4033188850829705 0.0 0.10001707450042681 -3.383079244576979 0.0 0.1228073870701846 -3.3526924838173104 0.0 0.1446547556163688 -3.3080750427018737 0.0 0.1651151681278791 -3.96525889913147 0.0 -2.488811942220297e-06 -3.963606379090157 0.0 0.026804283870107082 -3.958345138958626 0.0 0.0530734973268374 -3.9485932187148283 0.0 0.07830118195752951 -3.9329014983225354 0.0 0.10211423855285591 -3.909249577731237 0.0 0.1241190231029755 -3.87465449686636 0.0 0.14426658360666453 -3.824767015619173 0.0 0.1622161440554035 -4.545673313641831 0.0 6.150148953753721e-08 -4.54360251359006 0.0 0.028918448722961204 -4.53708851342721 0.0 0.057019961425499005 -4.52529651313241 0.0 0.08359185008979621 -4.5067737126693395 0.0 0.10821286670532161 -4.47954171198854 0.0 0.1303814072595351 -4.4406361110159 0.0 0.1494512117362802 -4.385544109638601 0.0 0.1650908161272703 -5.16645652916141 0.0 -1.493118197327954e-06 -5.163908929097721 0.0 0.03279919401997983 -5.1559809288995195 0.0 0.06460860961521521 -5.141839728545991 0.0 0.0945681343642033 -5.12013332800333 0.0 0.1219023990475599 -5.088895327222381 0.0 0.1458808236470205 -5.04525972613149 0.0 0.1654893801372344 -4.984622124615551 0.0 0.1800647765016193 -5.8248561456214 0.0 -2.049507451237685e-06 -5.8217893455447305 0.0 0.03936329578408237 -5.8122681453067 0.0 0.0774184899354622 -5.7954749448868705 0.0 0.11315188682879711 -5.77002934425073 0.0 0.1459805276495131 -5.73407374335184 0.0 0.1747417723685442 -5.68480334212008 0.0 0.1980138129503452 -5.6177361404434 0.0 0.2141003173525078 -6.519541362988531 0.0 -1.8031054850776363e-06 -6.51583576289589 0.0 0.0487917252197931 -6.50440976261024 0.0 0.0964208384105209 -6.484362162109051 0.0 0.14176387954409692 -6.45439856135996 0.0 0.183855644596391 -6.412648960316219 0.0 0.2211407935285197 -6.35628495890712 0.0 0.25189796229744893 -6.281086957027171 0.0 0.273630886840772 -7.2498161812454 0.0 2.56583886414597e-06 -7.2457161811429005 0.0 0.0611096855277421 -7.23209698080242 0.0 0.12141007503525181 -7.20831698020792 0.0 0.179516604487915 -7.172994979324869 0.0 0.23460186186504642 -7.124106578102659 0.0 0.2850093191252328 -7.05881977647049 0.0 0.32845304821132604 -6.97343937433598 0.0 0.36069186501729644 -8.01828260045706 0.0 5.29472893236822e-07 -8.01293900032347 0.0 0.07838300195957501 -7.996520999913021 0.0 0.15591133189778322 -7.968150599203761 0.0 0.23046112576152802 -7.926254598156361 0.0 0.3011118955277972 -7.868208596705211 0.0 0.368825089220627 -7.7921685948042105 0.0 0.428943090723577 -7.694822192370551 0.0 0.473392371834809 -8.82398342059958 0.0 -4.267034906675871e-06 -8.81777062044426 0.0 0.09936045048401121 -8.7980242199506 0.0 0.19697164892429112 -8.763971819099291 0.0 0.2929246993231173 -8.715036217875902 0.0 0.3817740055443499 -8.64763741619093 0.0 0.46485881162147 -8.55863141396578 0.0 0.542730773568269 -8.44539301113482 0.0 0.6121110953027771 -9.668403841710091 0.0 -3.322355123058876e-06 -9.66063264151581 0.0 0.12165191504129781 -9.63836904095922 0.0 0.23738415793460382 -9.598075439951879 0.0 0.35458482086462034 -9.539440238486002 0.0 0.46807473170186803 -9.45945703648642 0.0 0.5763188144079701 -9.35581063389526 0.0 0.6790862569771561 -9.2244762306119 0.0 0.777612659440316 -10.55216106380402 0.0 -2.4290690607267252e-06 -10.54301186357529 0.0 0.14286004757150111 -10.514716662867912 0.0 0.28358500708962503 -10.467071861676791 0.0 0.42491985062299603 -10.39833185995829 0.0 0.563302334082558 -10.302938257573452 0.0 0.7027736975693419 -10.182189454554731 0.0 0.8352898608822461 -10.03213585080339 0.0 0.9589298639732461 -11.470358686758962 0.0 -9.302919432572981e-06 -11.459330286483251 0.0 0.1698223162455578 -11.425941885648541 0.0 0.3410671085266775 -11.37060588426514 0.0 0.505992132649803 -11.28860508221512 0.0 0.670921256773031 -11.17842187946054 0.0 0.8330612208265301 -11.03793587594839 0.0 0.9899041447476029 -10.86564747164118 0.0 1.1396107084902671 -12.42222791055569 0.0 2.193119934827997e-06 -12.409578310239452 0.0 0.19873402496835052 -12.372129509303232 0.0 0.3941011058525274 -12.30600230765005 0.0 0.5856702146417551 -12.21043870526096 0.0 0.774695419367385 -12.08276110206902 0.0 0.9596650239916251 -11.92026949800673 0.0 1.138136708453417 -11.72262069306551 0.0 1.311501072787526 -13.40838953520973 0.0 -6.83122217078055e-06 -13.39431793485794 0.0 0.2217413495435336 -13.34911673372791 0.0 0.441979571049489 -13.272122331803049 0.0 0.660368616509215 -13.160789929019742 0.0 0.871188101779702 -13.01277032531925 0.0 1.0758631068965772 -12.82563192064079 0.0 1.27322163183054 -12.598713914967842 0.0 1.460386676509666 -14.427015960675389 0.0 1.121205468030136e-06 -14.40918756022968 0.0 0.2434242540856062 -14.356312758907809 0.0 0.48690645217266104 -14.2663563566589 0.0 0.725277818131945 -14.13728675343216 0.0 0.957018303925457 -13.9659763491494 0.0 1.177148069428701 -13.750822743770561 0.0 1.387468354686708 -13.490433137260819 0.0 1.587626399690659 -15.472964786824111 0.0 -4.74561131864028e-06 -15.452369986309241 0.0 0.2635980425899509 -15.39056598476414 0.0 0.524834933120873 -15.28623838215595 0.0 0.78019481950487 -15.13674197841854 0.0 1.025645665641141 -14.939439573485982 0.0 1.257587831439695 -14.691861167296521 0.0 1.4774013969350341 -14.39532675988316 0.0 1.6818212820455312 -16.54355201358879 0.0 -5.25772853144321e-06 -16.519748412993703 0.0 0.2789842189746053 -16.44845161121128 0.0 0.5537957738448941 -16.32786920819672 0.0 0.820589940514748 -16.15567960389198 0.0 1.073601826840045 -15.92881359822033 0.0 1.313939512848487 -15.64606679115166 0.0 1.532314998307874 -15.309031982725791 0.0 1.7355966833899161 -17.63382924084572 0.0 1.589709839742745e-06 -17.60663484016586 0.0 0.2882982312074556 -17.52478363811958 0.0 0.571317254282931 -17.386186834654662 0.0 0.8422479810561991 -17.188330429708248 0.0 1.096478107411952 -16.92943162323578 0.0 1.3329257533231431 -16.60804481520111 0.0 1.545495278637381 -16.2268604056715 0.0 1.7421051635526281 -18.73801196577653 0.0 -8.91388312473008e-06 -18.707279685204842 0.0 0.2916411804451928 -18.61325628775612 0.0 0.574442246326184 -18.454360170003667 0.0 0.841213223453328 -18.22863171290447 0.0 1.086869040905351 -17.93491740836052 0.0 1.310506330345069 -17.571995536901 0.0 1.5088921949998 -17.143823145076798 0.0 1.691552979717408 -19.849671310730763 0.0 2.027309049469359e-06 -19.8141288468372 0.0 0.28601287326881997 -19.706105132973 0.0 0.559982075863602 -19.52453916596352 0.0 0.813363450833856 -19.26871097499612 0.0 1.039959531717102 -18.93759375446154 0.0 1.240484942205135 -18.530934260487662 0.0 1.414122125676282 -18.054079904794893 0.0 1.573466145471885 -20.9601426852766 0.0 6.7331346153834805e-06 -20.919202858906843 0.0 0.26977849154776923 -20.79506300001394 0.0 0.525831045655784 -20.58842813361764 0.0 0.755680101682868 -20.29953841092843 0.0 0.9524026372533211 -19.92960675026538 0.0 1.117485914419402 -19.47819138602569 0.0 1.2539641670468311 -18.9520616980232 0.0 1.379250031880793 -22.06216918448355 0.0 1.086691479999765e-05 -22.01446526176356 0.0 0.243227121346308 -21.87267778491624 0.0 0.46958062331008205 -21.63839091961728 0.0 0.663761531331072 -21.31422704591697 0.0 0.818254208411145 -20.90228076362688 0.0 0.93465033965082 -20.406578356880278 0.0 1.022460705883224 -19.83211018146432 0.0 1.101666587423616 -23.145427577909842 0.0 8.277509391159101e-06 -23.091158205593 0.0 0.20242532531239 -22.93011196869332 0.0 0.3847186025734426 -22.66580098942335 0.0 0.530571139257306 -22.30393125360367 0.0 0.6314629044811669 -21.84852281605831 0.0 0.68419895997071 -21.30844790557688 0.0 0.715622176791748 -20.6866591744339 0.0 0.734336310259894 -24.19474078678497 0.0 2.883074246437581e-06 -24.13329119521992 0.0 0.1410771137673051 -23.95102373475435 0.0 0.26075122557066177 -23.655580354707837 0.0 0.3453860601131379 -23.25471994125288 0.0 0.38170911657723355 -22.75502266851318 0.0 0.3653328323176002 -22.16919017667552 0.0 0.3236967179649012 -21.498012852792538 0.0 0.2677051162990632 -25.182790642874643 0.0 3.7012267172938083e-06 -25.11374304874674 0.0 0.0592424873079765 -24.9065976739139 0.0 0.10274018603083622 -24.575160170482803 0.0 0.1040495754180474 -24.13249787423997 0.0 0.0645566932290768 -23.57767961800704 0.0 -0.00854038541475744 -22.9381992559482 0.0 -0.14498585369121628 -22.21103222189439 0.0 -0.27077107847509646 -26.05903302200212 0.0 4.12472883266192e-06 -25.985779098075003 0.0 -0.0349655853204225 -25.7498391886967 0.0 -0.0915596648219715 -25.37532273777314 0.0 -0.1866400847349923 -24.88445843411105 0.0 -0.32977490899243433 -24.29231546071524 0.0 -0.509405660289764 -23.588613591808162 0.0 -0.728214850180384 -22.8202293439622 0.0 -0.9786493019627741 -26.75302151933928 0.0 -3.180811696076856e-08 -26.66796541997784 0.0 -0.17652309930626162 -26.405238320498523 0.0 -0.3775565461289562 -25.99616613460311 0.0 -0.589351349281365 -25.47036108498618 0.0 -0.871242018760971 -24.84115092238824 0.0 -1.1722551485392438 -24.101069727263496 0.0 -1.4792970260700848 -23.2718019208802 0.0 -1.83227684139914 -27.220615561570003 0.0 -3.102745038945e-07 -27.12878190551032 0.0 -0.430478666884369 -26.8804031019008 0.0 -0.801603327689728 -26.449397867053424 0.0 -1.174941917360204 -25.8791375650626 0.0 -1.5513090902127 -25.21962188948214 0.0 -1.98585240465618 -24.44722191649608 0.0 -2.399459553453816 -23.590319845605258 0.0 -2.82903057675737 -27.50820614507196 0.0 2.6480321881265067e-06 -27.389100420862828 0.0 -0.6003399865422211 -27.08278020506916 0.0 -1.1847290303585882 -26.65782396856862 0.0 -1.7379679601257036 -26.094140983737677 0.0 -2.288866299901502 -25.414249836582037 0.0 -2.861881729504427 -24.660543997555678 0.0 -3.4542124539094323 -23.76002722506348 0.0 -4.04078590355949 -27.4704369684091 0.0 3.084020207948686e-06 -27.38909650037182 0.0 -1.0710587095451378 -27.156167075913704 0.0 -2.052381522699915 -26.77914870875585 0.0 -2.916949566122625 -26.223727369245772 0.0 -3.6341051907317694 -25.53741004725975 0.0 -4.314020209267 -24.76892922393856 0.0 -5.0095314984654395 -23.82152773683963 0.0 -5.64544653677236 -27.40073307276116 0.0 8.48742075926976e-06 -27.30445478293918 0.0 -1.63189924014502 -27.13184883958336 0.0 -3.134741851302214 -26.75527024614675 0.0 -4.30164298599805 -26.22726060842802 0.0 -5.24095803884102 -25.515529728328904 0.0 -5.99882182241875 -24.6374447744114 0.0 -6.71845861274355 -23.619191222091807 0.0 -7.33344562083596 -27.776029088547745 0.0 -2.97890471730834e-06 -27.60501472719372 0.0 -1.6527518605290599 -27.076352674407783 0.0 -3.1416991909649727 -26.246184287205 0.0 -4.36743058605045 -25.179415081917508 0.0 -5.33429665265298 -23.882258304309303 0.0 -6.13839539879252 -22.390242419629118 0.0 -6.83551490090712 -20.74370940982095 0.0 -7.393115001751781 -19.0740983177836 0.0 1.0735297870457161e-05 -18.908697827188238 0.0 -2.059108848518804 -18.426180768411854 0.0 -3.914527273221515 -17.66260557327875 0.0 -5.461184305033001 -16.66549513307254 0.0 -6.7260705726926995 -15.48353364725601 0.0 -7.808662264694549 -14.16328083075948 0.0 -8.773398810541678 -12.756074902135541 0.0 -9.576997388729522 -12.68096468913598 0.0 6.5972666577943e-06 -12.54683802261456 0.0 -2.450108592868888 -12.15724499680733 0.0 -4.66704614342036 -11.54713333808762 0.0 -6.529800896835581 -10.76398115587472 0.0 -8.06853469520696 -9.85837581662328 0.0 -9.40141574224902 -8.87850483967116 0.0 -10.61449383532104 -7.8718736473453905 0.0 -11.6698687459793 -7.9877798178926405 0.0 -8.660034317357221e-06 -7.898900837621521 0.0 -2.750207798469126 -7.6427718501036 0.0 -5.23813120134192 -7.24830414203094 0.0 -7.324339657533749 -6.755802849878281 0.0 -9.037043089813201 -6.2086886985556 0.0 -10.508061002853001 -5.6478273144543 0.0 -11.84530741811375 -5.10901676371366 0.0 -13.027676744872158 -3.7043901803517705 0.0 1.542104699642455e-05 -3.666848778239914 0.0 -2.920037188627694 -3.56097408791432 0.0 -5.55247476618912 -3.4047561416657715 0.0 -7.74024477924911 -3.223435779385425 0.0 -9.50689491130386 -3.04360180394256 0.0 -10.993005178226399 -2.889101987112393 0.0 -12.32624517572331 -2.7761634176393803 0.0 -13.50969178477384 0.8962590180250839 0.0 2.256180507662704e-05 0.884387246374984 0.0 -2.943476140503844 0.84737479931472 0.0 -5.5820246567952 0.7813062449444881 0.0 -7.746021218721079 0.6817710298650009 0.0 -9.45469065211198 0.546065606921095 0.0 -10.8536816059911 0.3751529185516515 0.0 -12.08634847964804 0.1782050260576875 0.0 -13.18140850768725 5.83544898314649 0.0 1.53720842086623e-05 5.78233801705788 0.0 -2.828618255821122 5.62668393575313 0.0 -5.346503734728509 5.37975228169485 0.0 -7.3800468652509 5.05971069404325 0.0 -8.94731956411125 4.69040778567885 0.0 -10.19660808364005 4.30109163300565 0.0 -11.28109078325945 3.9277846870277346 0.0 -12.25005304939152 10.78139984474515 0.0 5.7864149924648e-06 10.69753503063248 0.0 -2.603656524805416 10.45404319135555 0.0 -4.90395937547635 10.07589619563219 0.0 -6.733247802703081 9.601300324179359 0.0 -8.11281472539804 9.078818213182501 0.0 -9.192096494760001 8.56387958278215 0.0 -10.12709472730905 8.11694296049273 0.0 -10.97697190506098 15.51299159994388 0.0 2.7372727175661142e-05 15.40811866339391 0.0 -2.3083255263975033 15.1058091296092 0.0 -4.33309253111425 14.64110799196115 0.0 -5.9216799866268 14.06759009537728 0.0 -7.1026450989536 13.452306046313401 0.0 -8.0245639291699 12.870393908754549 0.0 -8.838398105103249 12.400162259682551 0.0 -9.5999653883876 20.07771791192575 0.0 2.0930209905075432e-05 19.960322959390037 0.0 -1.9837710130877722 19.62281010155068 0.0 -3.7136875011680743 19.107305574872658 0.0 -5.059093922512799 18.47687206438855 0.0 -6.05753036944459 17.80888358171356 0.0 -6.85342179985904 17.18837598102072 0.0 -7.584340138610849 16.70146492458435 0.0 -8.290180699058102 24.61242432114565 0.0 -9.56114022655286e-06 24.489799775347397 0.0 -1.6648957839055358 24.13826804213523 0.0 -3.11241848464696 23.60352451809957 0.0 -4.23764942432238 22.9526570383924 0.0 -5.0861922402764 22.264351749853383 0.0 -5.79329748430467 21.62235365896671 0.0 -6.4751101559480695 21.10912623935197 0.0 -7.14608404251748 28.44661717548308 0.0 2.4528808820600696e-06 28.352026657357737 0.0 -1.356709277815527 28.115690737915763 0.0 -2.5438629914496262 27.761703983994163 0.0 -3.48238529745616 27.24199783408782 0.0 -4.22499852711006 26.67736208416605 0.0 -4.8876110764424 26.09902422725554 0.0 -5.55064510986072 25.58869068522675 0.0 -6.19860879162971 30.02296193411012 0.0 -6.50418751932882e-07 29.99967075823888 0.0 -1.043106512101424 29.930936367209604 0.0 -1.9580108601156498 29.80654367820574 0.0 -2.689796000633844 29.607253885656647 0.0 -3.3162686817611395 29.398451152964522 0.0 -3.917529271996901 29.11267831852106 0.0 -4.56347169240032 28.865572260239198 0.0 -5.1915893655281495 30.6901713548448 0.0 -6.0444645387429e-06 30.674869289220958 0.0 -0.7763108187222719 30.636413549472056 0.0 -1.437714702165357 30.58238312144877 0.0 -1.9793053142512802 30.516389601290008 0.0 -2.4621066970791388 30.471529292892452 0.0 -2.954159084231901 30.369050735988964 0.0 -3.5096793737165277 30.303546607905567 0.0 -4.039385537816319 31.10319940302312 0.0 -5.3641080969392e-06 31.09915477240957 0.0 -0.561420066593358 31.087213496605923 0.0 -1.0545696874071901 31.044933985565923 0.0 -1.481607159937744 31.02125424744099 0.0 -1.8512562944427888 30.97432761982224 0.0 -2.265978534725512 30.983566806735404 0.0 -2.71031931115439 30.949377411384905 0.0 -3.0900261154345703 31.26090748263043 0.0 3.9546258275951245e-06 31.243073053235157 0.0 -0.464261404664512 31.220488475658346 0.0 -0.869648020573535 31.220543473400962 0.0 -1.220563234670976 31.239850095026725 0.0 -1.5054249049460322 31.2726099102235 0.0 -1.7184280987146 31.2383962229257 0.0 -1.9993030065563822 31.2339619677436 0.0 -2.2372435858941 31.477908272265 0.0 5.3233618951849e-07 31.458800351719837 0.0 -0.40000894202178877 31.40354242033516 0.0 -0.706280462206989 31.364500168426748 0.0 -0.9160915494752249 31.37536084989245 0.0 -1.140993116765831 31.40709130808494 0.0 -1.386947871380388 31.455649288321602 0.0 -1.5588460570834641 31.500658666712777 0.0 -1.6741553350278502 31.595844806390836 0.0 -6.45048482119436e-06 31.56420463563644 0.0 -0.2344802659241998 31.542778182952542 0.0 -0.500140367037162 31.517147571529723 0.0 -0.7427394203787521 31.509476016451508 0.0 -0.961748132761647 31.51187917472898 0.0 -1.1294610034112798 31.53498010568374 0.0 -1.2488480885633928 31.587932283318402 0.0 -1.227522982015198 31.59176866792542 0.0 -8.56578462931089e-07 31.583581595948043 0.0 -0.2108914619592993 31.554820068403682 0.0 -0.42008377525780805 31.532559283096617 0.0 -0.603622711726464 31.528482327485698 0.0 -0.7479276909604501 31.53577693184838 0.0 -0.846943056165726 31.551448423782837 0.0 -0.863872870085148 31.590530428928275 0.0 -0.8348793952633291 31.4667995909946 0.0 -1.504956572921025e-06 31.46398550470054 0.0 -0.1291016877148439 31.438101325874882 0.0 -0.3026907412333896 31.41052669619784 0.0 -0.437370788343033 31.4174776049199 0.0 -0.5087821565738699 31.432507656251758 0.0 -0.532783540139094 31.47634477951752 0.0 -0.512364741628746 31.543232744977917 0.0 -0.449402423442048 31.21219594001096 0.0 -8.72101164693304e-07 31.20874095684304 0.0 -0.0650617439885344 31.21523826547854 0.0 -0.13005727715020318 31.1817401381762 0.0 -0.274307174947353 31.191405666872843 0.0 -0.2815653768915224 31.24517128410438 0.0 -0.2569126917093957 31.30392835017186 0.0 -0.2009068638067775 31.49806561541068 0.0 -0.16296826096419442 30.87298585498896 0.0 1.004417925959232e-06 30.873231573155998 0.0 -0.014339719160594521 30.89647064566881 0.0 -0.01575432409773339 30.886774099584002 0.0 -0.08145031364904001 30.91228434901944 0.0 -0.0846537523971336 30.995102185013398 0.0 -0.01177047025218372 31.201546328282465 0.0 0.02603766355908042 31.57817436164244 0.0 0.10343553711074639 30.506788880944203 0.0 -2.079863475728148e-06 30.51357865273386 0.0 0.037270827130062724 30.54451642827312 0.0 0.08958725140170659 30.592624486377417 0.0 0.0742165369450854 30.645712777057348 0.0 0.0745010504698845 30.86742566096154 0.0 0.1424539688659407 31.296230884180503 0.0 0.22588406376530398 32.04048823116288 0.0 0.28024689541584 30.22023163539051 0.0 9.07078249436256e-07 30.21521161305348 0.0 0.0831717337556754 30.29317807700736 0.0 0.159977582417889 30.39722091696504 0.0 0.1824057080430912 30.647606330472478 0.0 0.214280357194296 31.05080121283185 0.0 0.27054110655757946 31.855594245055435 0.0 0.3199129517113104 33.308292400084795 0.0 0.423182910195936 30.157025750749803 0.0 4.1488203186234e-06 30.221119670996277 0.0 0.1179774624448038 30.30703474858872 0.0 0.196837146503526 30.653311218068698 0.0 0.246862726797168 31.05620194730823 0.0 0.2503063944411591 31.89981058764192 0.0 0.2955608094879648 33.339111464162706 0.0 0.330716430962568 35.74974429619983 0.0 0.4003850734123929 30.717355782658323 0.0 7.26695270002116e-06 30.80257451866377 0.0 0.10998455415761339 31.05226406796921 0.0 0.1649397153959613 31.48919364523932 0.0 0.18957635192458439 32.40248241742092 0.0 0.196705498647114 33.972844941434275 0.0 0.1846913995934586 36.1253652239685 0.0 0.13246208892466918 39.241233282518124 0.0 0.10532982191235268 32.32039332226339 0.0 7.34785541735841e-06 32.37597774481772 0.0 0.03693203621182472 32.85632077317106 0.0 0.0692106953910438 33.656415623861896 0.0 0.0162249370723654 35.0331660044236 0.0 -0.0949512380728645 37.23167950856728 0.0 -0.152373304052541 40.2023115366772 0.0 -0.22477734958280038 44.4501632757378 0.0 0.0072794316283171 35.358176883562 0.0 7.019437941459201e-06 35.54842212830968 0.0 -0.08590127078486201 36.1685299120893 0.0 -0.2144589777008855 37.23941149887924 0.0 -0.427833296434712 39.24215023145652 0.0 -0.461283716525622 42.217349528556305 0.0 -0.33245510827543145 46.136549382603405 0.0 -0.1425183737293757 50.9981476128278 0.0 0.3553013236484502 40.3056777135298 0.0 4.52595491514166e-06 40.5479614056302 0.0 -0.13871799466557191 41.1820850944792 0.0 -0.516431873457544 42.609199366839206 0.0 -0.589442428336388 44.9105937304138 0.0 -0.528959942785259 48.275389318514 0.0 -0.2565137433646996 52.239510490548 0.0 0.02524405593892919 46.4269879495336 0.0 8.690131613383201e-06 46.6878604257014 0.0 -0.1350851852531422 47.4854174682364 0.0 -0.2640314089758769 48.81814275464399 0.0 -0.534295973204197 50.93036297153 0.0 -0.60613603462272 -1.360832234020805 0.0 0.1535560638389015 -1.315317552882938 0.0 0.18244181256104522 -1.254036751350918 0.0 0.21214428530360702 -1.1758144693953612 0.0 0.2445667341141682 -1.079549066988726 0.0 0.2791549749788742 -0.9648346241208651 0.0 0.31174031179350764 -0.8275520606888009 0.0 0.336801728420043 -1.6607689215192218 0.0 0.185318044632951 -1.6076019601900482 0.0 0.216227845405696 -1.535668238391705 0.0 0.24946661423666522 -1.445887796147194 0.0 0.2822123590553088 -1.336641353416033 0.0 0.3153640838841019 -1.202493710062342 0.0 0.3447403046185074 -1.026631585665789 0.0 0.3666931251673279 -0.7840618196015451 0.0 0.432516490812912 -2.005252890131321 0.0 0.1960653369016333 -1.943018408575459 0.0 0.2246154616153864 -1.860199406504984 0.0 0.2528554743213867 -1.7584267239606672 0.0 0.2813211510330286 -1.639205600980139 0.0 0.3077233396930833 -1.492824197320604 0.0 0.3368063044201574 -1.298381072459526 0.0 0.36854764121369077 -1.0142517453562931 0.0 0.433210770830269 -2.374789099369726 0.0 0.1967193769179843 -2.303057137576427 0.0 0.22123907353097672 -2.2089920552248 0.0 0.24427648210691194 -2.0960846524021153 0.0 0.2675056506876411 -1.9703415292585371 0.0 0.2876394351909857 -1.8206352855158812 0.0 0.3120935518023386 -1.61736644043416 0.0 0.3418682165467052 -1.292663592316589 0.0 0.41639369040984203 -2.783854349596357 0.0 0.1917110967927773 -2.702691707567291 0.0 0.2119458252986455 -2.59727046493176 0.0 0.2303395097584876 -2.474343341858582 0.0 0.2471731741793292 -2.343369178584228 0.0 0.26062241451556023 -2.192351574808788 0.0 0.2795473149886827 -1.981603489540086 0.0 0.3072330556808262 -1.614930000373249 0.0 0.3985168539629211 -3.243463961086597 0.0 0.18394676859866912 -3.152943518823586 0.0 0.20064068501601703 -3.036764595919113 0.0 0.2133685413342134 -2.90459527261488 0.0 0.2226262615656564 -2.7693268692331703 0.0 0.2280399377009983 -2.6186972254674292 0.0 0.2412311620307789 -2.40183246004581 0.0 0.2695053187376328 -1.988600969715023 0.0 0.38824006170600134 -3.7534279738356973 0.0 0.1774670884366771 -3.6542244913556097 0.0 0.1891225847280645 -3.5282338082058433 0.0 0.1950486488762161 -3.388202764705067 0.0 0.19540567688514182 -3.249960801249018 0.0 0.1932914768322868 -3.1019623575490574 0.0 0.2031929050798225 -2.88491447212286 0.0 0.2391750379793758 -2.421424180535603 0.0 0.402823650070591 -4.30768850769221 0.0 0.1764877484121936 -4.20025290500632 0.0 0.1823985125599627 -4.065427701635691 0.0 0.1807591965189798 -3.9193756979843903 0.0 0.1722856563071413 -3.7813076945326904 0.0 0.1656385481409636 -3.6451042911276055 0.0 0.1730556523263912 -3.4366883259172063 0.0 0.228047565701189 -2.9253197531329924 0.0 0.45759813143995304 -4.90016972250424 0.0 0.18822608470565202 -4.78485971962149 0.0 0.1888695527217387 -4.64231371605784 0.0 0.1801059765026493 -4.49095971227399 0.0 0.166608244165206 -4.35744850893621 0.0 0.1544546158613653 -4.232061705801541 0.0 0.17444763636119082 -4.05252570131314 0.0 0.24461975811549383 -3.5355042483876042 0.0 0.521526333038158 -5.5261721381543 0.0 0.2210821455270535 -5.40332053508301 0.0 0.21778378944459462 -5.2541849313546205 0.0 0.202784925069623 -5.09856732746418 0.0 0.1880831767020793 -4.97584732439618 0.0 0.1719207802980194 -4.87651772191294 0.0 0.1908130687703266 -4.75625491890637 0.0 0.2533508383337708 -4.339886508497161 0.0 0.478485891962147 -6.180903354522581 0.0 0.2824927390623183 -6.04975695124392 0.0 0.2763970429099259 -5.89728694743217 0.0 0.2567850664196265 -5.74923134373078 0.0 0.2365054179126353 -5.63993734099843 0.0 0.2191240374781008 -5.5903717397592905 0.0 0.22063599351589971 -5.57462693936567 0.0 0.2479225221980629 -5.4068161351704 0.0 0.3201080400027008 -6.86158177153954 0.0 0.37892726547318145 -6.72290576807264 0.0 0.370062169251554 -6.5635881640897 0.0 0.3565511089137775 -6.42739816068495 0.0 0.32971697624292423 -6.35146175878654 0.0 0.3037698835942469 -6.37751495943787 0.0 0.3068737116718426 -6.506275362656881 0.0 0.35874405696860123 -6.52723096318077 0.0 0.483634972090874 -7.570297389257431 0.0 0.505487732637193 -7.41755698543892 0.0 0.520753013018825 -7.25864578146614 0.0 0.50684521267113 -7.13393737834843 0.0 0.49686281242157 -7.09907257747681 0.0 0.5170328129258199 -7.24068618101715 0.0 0.608088335202208 -7.49057778726444 0.0 0.9712440642811011 -7.66956059173901 0.0 1.482717157067928 -8.30572620764315 0.0 0.665042376626059 -8.13880100347002 0.0 0.7031160575779011 -7.97305699932642 0.0 0.725647058141176 -7.86877779671944 0.0 0.7604894990122371 -7.910308997757721 0.0 0.867285741682143 -8.17280300432007 0.0 1.115565507889137 -8.62136101553402 0.0 1.6538151213453771 -9.07288782682219 0.0 2.260303536507587 -9.066212626655311 0.0 0.859617261490431 -8.883981422099529 0.0 0.925099783127494 -8.70804461770111 0.0 0.994461944861548 -8.622879815571991 0.0 1.084050987101274 -8.74518381862959 0.0 1.266927191673179 -9.17275182931879 0.0 1.599435559985888 -9.8930202473255 0.0 2.1165083329127072 -10.6708842667721 0.0 2.753350508833761 -9.85327944633198 0.0 1.0708042267701052 -9.65090984127274 0.0 1.162852589071314 -9.459625436490631 0.0 1.276402391910059 -9.385727034643171 0.0 1.4197088754927212 -9.58120063953001 0.0 1.633627160840678 -10.16504385412609 0.0 1.9849415296235373 -11.15156267878906 0.0 2.461597901539946 -12.3308483082712 0.0 3.1040032376000792 -10.662844266571101 0.0 1.2762740319068502 -10.43663066091576 0.0 1.397683074942076 -10.22763785569094 0.0 1.535827198395679 -10.156695853917391 0.0 1.7031444825786113 -10.405089860127239 0.0 1.9359526083988141 -11.125177878129442 0.0 2.2875292571882304 -12.35175830879395 0.0 2.7639529090988213 -13.88285714707142 0.0 3.437492845937319 -11.4916642872916 0.0 1.468580076714501 -11.23647948091198 0.0 1.6124979603124479 -11.00536227513405 0.0 1.760930124023252 -10.924666273116651 0.0 1.9504574487614352 -11.22234748055868 0.0 2.183305014582624 -12.06378270159456 0.0 2.5328429033210713 -13.49734393743359 0.0 3.0422825560570623 -15.319717982992941 0.0 3.7498722937468054 -12.33463310836582 0.0 1.637143560928588 -12.04778310119457 0.0 1.792763164819078 -11.788749894718741 0.0 1.942842328571057 -11.7077442926936 0.0 2.133109533327737 -12.04152870103821 0.0 2.3831328195783192 -12.99723072493076 0.0 2.749639388740983 -14.626897165672421 0.0 3.28976448224411 -16.696611617415282 0.0 4.03615490090387 -13.18989912974747 0.0 1.7720991643024782 -12.862956721573909 0.0 1.9388321284708019 -12.57483311437082 0.0 2.0835398120884943 -12.48816111220402 0.0 2.27393365684834 -12.86429472160736 0.0 2.538608823465219 -13.938089148452221 0.0 2.928948113223701 -15.77152119428802 0.0 3.4932244073306085 -18.07905605197639 0.0 4.29409570735239 -14.05214715130367 0.0 1.868576686714416 -13.68195074204876 0.0 2.040634011015849 -13.360264734006611 0.0 2.1837454545936352 -13.2691243317281 0.0 2.367540619188514 -13.68635594215889 0.0 2.651331786283293 -14.88269677206741 0.0 3.066527996663198 -16.918877222971922 0.0 3.6659947316498664 -19.49173488729336 0.0 4.50627251265681 -14.920628773015713 0.0 1.921497408037434 -14.50333596258339 0.0 2.093137412328434 -14.14170395354259 0.0 2.239568975989223 -14.04274475106861 0.0 2.420515700512891 -14.50045956251148 0.0 2.71973806799345 -15.824589995614739 0.0 3.157147478928685 -18.07438405185959 0.0 3.785654174641352 -20.923320523083003 0.0 4.65935491648387 -15.78951439473785 0.0 1.9231699280792471 -15.32072638301815 0.0 2.091757452293935 -14.914671572866782 0.0 2.243216576080413 -14.80197957004948 0.0 2.4242750606068753 -15.302633982565839 0.0 2.7329607883240183 -16.75581841889545 0.0 3.191028279775705 -19.22639808065994 0.0 3.8405900160147484 -22.36237695905941 0.0 4.7392153184803805 -16.65448582342788 0.0 1.861895209613273 -16.1298550920923 0.0 2.0250621563795996 -15.67601282234048 0.0 2.18195943669008 -15.54383100775891 0.0 2.358880970554952 -16.08545577298198 0.0 2.6747515363608927 -17.6682297534275 0.0 3.15168729128045 -20.36737695404132 0.0 3.8154675509414306 -23.80216281412698 0.0 4.7312276258758805 -17.51131964950128 0.0 1.725386833746144 -16.928149962664712 0.0 1.8803570412163682 -16.42156341306192 0.0 2.0344286133792 -16.264830881020263 0.0 2.2047161998589697 -16.84599585422382 0.0 2.520840461931765 -18.559226809960947 0.0 3.0209301956189427 -21.495425658675753 0.0 3.6944836685738704 -25.24119998753604 0.0 4.62723983574777 -18.3564645894512 0.0 1.504329698964296 -17.71373061593188 0.0 1.6351999781768882 -17.1525981171414 0.0 1.7766430354666949 -16.96553582397382 0.0 1.93818816310582 -17.58588145986972 0.0 2.2494254156823 -19.43253625586009 0.0 2.7709566271723487 -22.619742683909998 0.0 3.462977783318598 -26.697754460309998 0.0 4.41711425572 -19.1848846192542 0.0 1.188872205868431 -18.48357894028428 0.0 1.279881576926136 -17.86557087779814 0.0 1.390329353964849 -17.64819591688479 0.0 1.5363685741835191 -18.30875772046608 0.0 1.836788296223772 -20.2984566026004 0.0 2.37660327673944 -23.75958319390368 0.0 3.1024946730740157 -28.2141649127757 0.0 4.08429498071325 -19.987603768514322 0.0 0.764428902533042 -19.230099742872078 0.0 0.795568218501562 -18.55739727229037 0.0 0.8553135271794741 -18.312103167963862 0.0 0.984646243541448 -19.02015810482172 0.0 1.260913631942516 -21.16825111871015 0.0 1.819901585067454 -24.93286933406556 0.0 2.592993969627712 -29.838930974386447 0.0 3.6225641738025387 -20.74345803347583 0.0 0.2030899507479399 -19.93508310240141 0.0 0.16733212189166488 -19.21061081543604 0.0 0.164401310589516 -18.9556045565385 0.0 0.24424218442741258 -19.706946615744002 0.0 0.49117849847232004 -22.03035505592553 0.0 1.052546898558213 -26.129625664206507 0.0 1.915461368182368 -31.578095894519162 0.0 3.0250248385847582 -21.401539876916907 0.0 -0.42670971218580295 -20.55263150432994 0.0 -0.576924139970532 -19.7827930687149 0.0 -0.678087236000286 -19.50459472700154 0.0 -0.6426691525211611 -20.32529276765565 0.0 -0.47734503974361 -22.83090217655328 0.0 0.0994019860652508 -27.29954009476254 0.0 1.0593321339961739 -33.38006742970695 0.0 2.3083792888932897 -21.95226171928334 0.0 -1.2347509853033478 -20.99874390697476 0.0 -1.435003265267622 -20.19150791847552 0.0 -1.6113855731075521 -19.93750555676676 0.0 -1.70698767057429 -20.8557544201275 0.0 -1.6422405940230003 -23.520934676330043 0.0 -1.07069714078505 -28.355476371332593 0.0 0.03475186442376394 -35.071737201394434 0.0 1.451871140404046 -22.349284788058323 0.0 -2.1920320775356155 -21.344829599811003 0.0 -2.476260441763333 -20.503645924166353 0.0 -2.778047981407249 -20.25277105370288 0.0 -2.9954142761558398 -21.25523608617825 0.0 -2.946645199338612 -24.1529704454412 0.0 -2.42624293250691 -29.34145891823134 0.0 -1.180117306810298 -36.58535952550878 0.0 0.628320532414036 -22.618470725705357 0.0 -3.3017062825746115 -21.56433365171899 0.0 -3.7131021709214367 -20.723394751623 0.0 -4.1204925573009 -20.489400959024973 0.0 -4.39882415350056 -21.59482976747145 0.0 -4.43258036278565 -24.69538906133098 0.0 -3.8609441315535538 -30.155795247734307 0.0 -2.46777042445912 -37.735637853647525 0.0 -0.16317436932012422 -22.77011065759439 0.0 -4.62109852129442 -21.722135784449762 0.0 -5.16259068226644 -20.8434288064398 0.0 -5.6763002710605 -20.6205880681125 0.0 -6.03377016138 -21.76709270889139 0.0 -6.01639695941879 -25.03243051980541 0.0 -5.2445526750612395 -30.70850379189877 0.0 -3.778362376189919 -38.04839960737502 0.0 -0.6806018366361221 -22.78778426828232 0.0 -6.245489266194289 -21.680003640200482 0.0 -6.760113288582399 -20.7417122593853 0.0 -7.2173030542951 -20.44353951989443 0.0 -7.51829397396709 -21.47207773091092 0.0 -7.54085671081164 -24.6214971252207 0.0 -6.8138789764185 -30.097545882823802 0.0 -5.01084333618318 -35.8619447257698 0.0 -0.3995605292569845 -22.3907687727352 0.0 -7.774563270178481 -21.0142013844828 0.0 -8.05400504838435 -19.69050446140554 0.0 -8.29214426260689 -19.07826257675828 0.0 -8.7629868345976 -20.218133517857797 0.0 -9.16443736853085 -22.6573851633888 0.0 -8.31117429645096 -25.16141306556969 0.0 -6.63366907186256 -25.87378370256925 0.0 -1.597810878379135 -18.99436795521731 0.0 -7.72978162164658 -17.17842473285088 0.0 -8.60485973444688 -15.694052395695183 0.0 -10.4464323140541 -14.906214993236759 0.0 -11.535353623888161 -14.432304933916598 0.0 -11.51867211091955 -14.18859691130115 0.0 -10.542843493915049 -14.0715197066264 0.0 -7.95967673506278 -14.149816310320901 0.0 -2.8289377408269183 -11.332438155656591 0.0 -10.08669031957615 -9.9768751570025 0.0 -10.51262652352125 -8.75544521660932 0.0 -12.49215596936375 -7.866250080216 0.0 -13.488405655895551 -7.37939808925956 0.0 -13.199254516757401 -7.1824787230456 0.0 -12.1035623222072 -7.21023261736904 0.0 -9.15822593155092 -7.40455155604294 0.0 -2.391313670409989 -6.89243801847336 0.0 -12.41914739703216 -6.0020834820837 0.0 -12.897449693982699 -5.2681413427488 0.0 -13.559733891593439 -4.7539164091907 0.0 -15.076631298913199 -4.49929512848604 0.0 -15.1467625350174 -4.51219296926085 0.0 -13.470487039541432 -4.748191070688 0.0 -10.26550826440659 -5.0601643636674 0.0 -0.986817568195303 -4.624829805273 0.0 -13.911099796731001 -4.222693608573549 0.0 -14.529018860689899 -3.92509734606258 0.0 -15.202530126777 -3.76001857138611 0.0 -16.02458459240331 -3.7570792879276804 0.0 -16.3892281598136 -3.922261126071318 0.0 -14.582363032318769 -4.219923764457479 0.0 -11.259487806661559 -4.53633474146356 0.0 -0.577989722272452 -2.71153836426511 0.0 -14.41744509405575 -2.692522554992444 0.0 -15.081508757850118 -2.709032645860805 0.0 -15.79362546376131 -2.7601852910365174 0.0 -16.600184394435832 -2.85575151936541 0.0 -16.87272799220285 -2.999455799498103 0.0 -15.37342190290445 -3.182741989817712 0.0 -11.717753883587038 -3.367346268741352 0.0 -0.624830928051344 -0.02470168414969545 0.0 -14.0382492968185 -0.20621719535339522 0.0 -14.68920980383488 -0.3391506273520089 0.0 -15.39833784047631 -0.41019273767553477 0.0 -16.23666583669179 -0.421303272463152 0.0 -17.020000582921917 -0.3847261078616128 0.0 -15.87774811919424 -0.327060102491982 0.0 -11.819181524523719 -0.2801923484235867 0.0 -0.781877507311755 3.614529420726084 0.0 -13.02752370914764 3.4062490669298002 0.0 -13.650513059849118 3.3341270551629036 0.0 -14.375983368713118 3.4062672856811824 0.0 -15.5862634737381 3.6070139176391485 0.0 -16.87057862525025 3.900240828565491 0.0 -15.755911353582901 4.23192083900388 0.0 -11.44932266703192 4.531530946263101 0.0 -0.8413614145176811 7.800490011471081 0.0 -11.68133141789076 7.66892195586299 0.0 -12.27939589916871 7.7493963544399 0.0 -13.026245315457919 7.99548945940404 0.0 -15.055752520229602 8.47033025990824 0.0 -16.07850521397696 8.9986755956703 0.0 -14.863285582929299 9.54957884825094 0.0 -10.79788428285717 10.047707772036 0.0 -0.91061377568304 12.11601781364604 0.0 -10.25043572606676 12.07700234604585 0.0 -10.8210059196759 12.29721453134325 0.0 -11.58606564065175 12.625668117393602 0.0 -14.1491724839232 13.31390569505038 0.0 -14.78250973717791 14.061993772282639 0.0 -13.61523489898341 14.77012561834021 0.0 -9.82684057671233 15.33967139235232 0.0 -1.061727209985936 16.4274037445952 0.0 -8.9002550605584 16.4270940606946 0.0 -9.425672732871881 16.670366155219043 0.0 -10.26328466127712 16.94673242847617 0.0 -12.835161228322791 17.5507302209065 0.0 -13.3695110850775 18.5668847045118 0.0 -12.0951042695376 19.54999674839442 0.0 -8.67431258271315 20.06926198384248 0.0 -0.9661865009547 20.80017097961506 0.0 -7.714952366585321 20.75648082058225 0.0 -8.16662368792477 20.84946550607175 0.0 -9.122382315484499 20.75494508150133 0.0 -11.23258017855081 21.31234779876837 0.0 -11.81523982809313 22.44091803081464 0.0 -10.48881517273268 23.95190468910404 0.0 -7.15537768322186 24.43385950267857 0.0 -0.3376661194157139 25.22483543897107 0.0 -6.7173633791248095 25.071081587854902 0.0 -7.06930665114585 25.018186337172768 0.0 -7.80806750264555 24.624918172657107 0.0 -9.740263189778238 24.806419133078162 0.0 -10.049192588390762 25.699093965658353 0.0 -8.5494575425467 27.69080514901 0.0 -5.62964898522804 28.63457201140846 0.0 0.1738760517614742 28.635969154463147 0.0 -5.66151960323302 28.49611919956618 0.0 -5.916586010044239 28.522791258951226 0.0 -6.26071599729399 28.242235694778444 0.0 -8.15028024374428 28.27529659328166 0.0 -8.1213783641166 28.95982618032542 0.0 -6.5330918683135195 31.516169352189902 0.0 -4.29018979857195 33.0551327871067 0.0 0.66922657858087 30.2048666010675 0.0 -4.3971642090900005 30.1505346101931 0.0 -4.51780526489058 30.29842233278208 0.0 -4.54699435068864 30.502839168596246 0.0 -5.873873299719509 31.354896338369524 0.0 -6.22113988504884 32.37281472734932 0.0 -4.72695703205866 35.44246522542708 0.0 -2.9840917070536563 37.85983285225045 0.0 1.5555989353426298 30.895476105116778 0.0 -3.315611587121304 30.90794134176529 0.0 -3.3075334332678534 31.163927036300798 0.0 -3.190929077088896 31.91031252284873 0.0 -3.603012826861738 33.33677508388652 0.0 -4.2017873074759295 36.077274878372 0.0 -3.0916044604959 39.59254101074972 0.0 -1.5581542843326681 42.9454788478432 0.0 2.745300608857649 31.23563273958164 0.0 -2.317132735948254 31.27069816155315 0.0 -2.2607788238480193 31.70014273096556 0.0 -2.1833462560849397 32.79703143018984 0.0 -2.102925839921472 34.96736965295868 0.0 -2.224116516309989 39.06726669263419 0.0 -1.305919208119611 43.8577361413016 0.0 -0.1972042822314071 48.36432703998 0.0 4.075925532095679 31.50956199964077 0.0 -1.657437858849758 31.6218826552915 0.0 -1.56564317685765 32.06158090558994 0.0 -1.3771248526161501 33.359404792598305 0.0 -1.228300114950754 36.23310822958384 0.0 -0.955630800591989 41.406496925934405 0.0 -0.0969279540482653 48.067220983092 0.0 1.15078060801665 54.2771027733496 0.0 5.77715837008286 31.632411213776198 0.0 -1.1923377712074599 31.8596783310958 0.0 -1.0304127042139701 32.517124947755036 0.0 -0.8089379161158 34.1231716779744 0.0 -0.56661627599052 37.591508752201804 0.0 -0.09414685105523281 43.566431946768 0.0 0.84260418514344 51.94777216505041 0.0 2.013163626490362 61.572981216883505 0.0 5.20272307070046 31.70689041430665 0.0 -0.736788756883347 32.07647818039338 0.0 -0.56022277332924 33.083141494238696 0.0 -0.33731461097446397 35.2301016492685 0.0 -0.026968069650131998 39.3845012121135 0.0 0.479256183888255 46.1540530229768 0.0 1.5729555623949532 55.9012808170453 0.0 3.121078391193971 66.7987426197869 0.0 5.47293399576437 31.776502028443378 0.0 -0.37916210514695486 32.47546959357621 0.0 -0.1824664495813176 33.96042374052738 0.0 0.078907469456922 36.84626170778112 0.0 0.46492798544313596 41.838478907918 0.0 1.1572846513324249 49.6650664145144 0.0 2.5080296644150275 60.3996336694142 0.0 4.12142212559371 31.9570826216472 0.0 -0.04796828918252 33.08652937111533 0.0 0.1446649421995074 35.3152453874016 0.0 0.48335527593132793 39.05997182855875 0.0 0.90832829075944 45.1072256834805 0.0 1.82521480870306 54.0907530590652 0.0 3.274236864010944 65.31233645009921 0.0 4.95673976239232 32.42225591657838 0.0 0.20090475783709133 34.20243784810892 0.0 0.479135899625012 37.29415441555712 0.0 0.7908182431368399 42.0981487702356 0.0 1.236672048379642 49.4874534148816 0.0 2.410387516031432 59.390898382219206 0.0 3.8775678558675004 33.5288012976876 0.0 0.44127953171483997 36.107900904716544 0.0 0.705175996563639 40.221889503028194 0.0 0.969770959240182 46.2487416098548 0.0 1.517674131457006 54.8434023717678 0.0 2.8180808933803823 65.075418876353 0.0 4.3569753496512 35.62224705084582 0.0 0.5455743983403839 39.12910712457012 0.0 0.6922176794233079 44.4617815267968 0.0 1.0082340489190258 51.59978696152649 0.0 1.818032303660685 60.97383049779841 0.0 3.2288392180175043 38.787941873437205 0.0 0.365544879748167 43.45974757889441 0.0 0.538790249312272 49.9235576048883 0.0 1.133264824698627 57.927622225431605 0.0 2.242680650207784 43.4886027764304 0.0 0.1395143368848732 49.400374215155395 0.0 0.6836918749661101 56.5669543737765 0.0 1.635663854843292 63.953357442183 0.0 2.899288171774974 49.845207245313695 0.0 0.48405829385052795 56.14600264972599 0.0 1.3421267686691098 56.2602845106224 0.0 0.97794134700184 
TENSORS Ellispoids float
0.01 0.0 0.0 0.0 0.01 0.0 0.0 0.0 0.01 0.01 0.0 0.0 0.0 0.01 0.0 0.0 0.0 0.01 0.01 0.0 0.0 0.0 0.01 0.0 0.0 0.0 0.01 0.01 0.0 0.0 0.0 0.01 0.0 0.0 0.0 0.01 0.01 0.0 0.0 0.0 0.01 0.0 0.0 0.0 0.01 0.01 0.0 0.0 0.0 0.01 0.0 0.0 0.0 0.01 0.01 0.0 0.0 0.0 0.01 0.0 0.0 0.0 0.01 0.01 0.0 0.0 0.0 0.01 0.0 0.0 0.0 0.01 0.01 0.0 0.0 0.0 0.01 0.0 0.0 0.0 0.01 0.01 0.0 0.0 0.0 0.01 0.0 0.0 0.0 0.01 0.01 0.0 0.0 0.0 0.01 0.0 0.0 0.0 0.01 0.01 0.0 0.0 0.0 0.01 0.0 0.0 0.0 0.01 0.01 0.0 0.0 0.0 0.01 0.0 0.0 0.0 0.01 0.01 0.0 0.0 0.0 0.01 0.0 0.0 0.0 0.01 0.01 0.0 0.0 0.0 0.01 0.0 0.0 0.0 0.01 0.01 0.0 0.0 0.0 0.01 0.0 0.0 0.0 0.01 0.01 0.0 0.0 0.0 0.01 0.0 0.0 0.0 0.01 0.01 0.0 0.0 0.0 0.01 0.0 0.0 0.0 0.01 0.01 0.0 0.0 0.0 0.01 0.0 0.0 0.0 0.01 0.01 0.0 0.0 0.0 0.01 0.0 0.0 0.0 0.01 0.01 0.0 0.0 0.0 0.01 0.0 0.0 0.0 0.01 0.01 0.0 0.0 0.0 0.01 0.0 0.0 0.0 0.01 0.01 0.0 0.0 0.0 0.01 0.0 0.0 0.0 0.01 0.01 0.0 0.0 0.0 0.01 0.0 0.0 0.0 0.01 0.01 0.0 0.0 0.0 0.01 0.0 0.0 0.0 0.01 0.01 0.0 0.0 0.0 0.01 0.0 0.0 0.0 0.01 0.01 0.0 0.0 0.0 0.01 0.0 0.0 0.0 0.01 0.01 0.0 0.0 0.0 0.01 0.0 0.0 0.0 0.01 0.01 0.0 0.0 0.0 0.01 0.0 0.0 0.0 0.01 0.01 0.0 0.0 0.0 0.01 0.0 0.0 0.0 0.01 0.01 0.0 0.0 0.0 0.01 0.0 0.0 0.0 0.01 0.01 0.0 0.0 0.0 0.01 0.0 0.0 0.0 0.01 0.01 0.0 0.0 0.0 0.01 0.0 0.0 0.0 0.01 0.01 0.0 0.0 0.0 0.01 0.0 0.0 0.0 0.01 0.01 0.0 0.0 0.0 0.01 0.0 0.0 0.0 0.01 0.01 0.0 0.0 0.0 0.01 0.0 0.0 0.0 0.01 0.01 0.0 0.0 0.0 0.01 0.0 0.0 0.0 0.01 0.01 0.0 0.0 0.0 0.01 0.0 0.0 0.0 0.01 0.01 0.0 0.0 0.0 0.01 0.0 0.0 0.0 0.01 0.01 0.0 0.0 0.0 0.01 0.0 0.0 0.0 0.01 0.01 0.0 0.0 0.0 0.01 0.0 0.0 0.0 0.01 0.01 0.0 0.0 0.0 0.01 0.0 0.0 0.0 0.01 0.01 0.0 0.0 0.0 0.01 0.0 0.0 0.0 0.01 0.01 0.0 0.0 0.0 0.01 0.0 0.0 0.0 0.01 0.01 0.0 0.0 0.0 0.01 0.0 0.0 0.0 0.01 0.01 0.0 0.0 0.0 0.01 0.0 0.0 0.0 0.01 0.01 0.0 0.0 0.0 0.01 0.0 0.0 0.0 0.01 0.01 0.0 0.0 0.0 0.01 0.0 0.0 0.0 0.01 0.01 0.0 0.0 0.0 0.01 0.0 0.0 0.0 0.01 0.01 0.0 0.0 0.0 0.01 0.0 0.0 0.0 0.01 0.01 0.0 0.0 0.0 0.01 0.0 0.0 0.0 0.01 0.01 0.0 0.0 0.0 0.01 0.0 0.0 0.0 0.01 0.01 0.0 0.0 0.0 0.01 0.0 0.0 0.0 0.01 0.01 0.0 0.0 0.0 0.01 0.0 0.0 0.0 0.01 0.01 0.0 0.0 0.0 0.01 0.0 0.0 0.0 0.01 0.01 0.0 0.0 0.0 0.01 0.0 0.0 0.0 0.01 0.01 0.0 0.0 0.0 0.01 0.0 0.0 0.0 0.01 0.01 0.0 0.0 0.0 0.01 0.0 0.0 0.0 0.01 0.01 0.0 0.0 0.0 0.01 0.0 0.0 0.0 0.01 0.01 0.0 0.0 0.0 0.01 0.0 0.0 0.0 0.01 0.01 0.0 0.0 0.0 0.01 0.0 0.0 0.0 0.01 0.01 0.0 0.0 0.0 0.01 0.0 0.0 0.0 0.01 0.01 0.0 0.0 0.0 0.01 0.0 0.0 0.0 0.01 0.01 0.0 0.0 0.0 0.01 0.0 0.0 0.0 0.01 0.01 0.0 0.0 0.0 0.01 0.0 0.0 0.0 0.01 0.01 0.0 0.0 0.0 0.01 0.0 0.0 0.0 0.01 0.01 0.0 0.0 0.0 0.01 0.0 0.0 0.0 0.01 0.01 0.0 0.0 0.0 0.01 0.0 0.0 0.0 0.01 0.01 0.0 0.0 0.0 0.01 0.0 0.0 0.0 0.01 0.01 0.0 0.0 0.0 0.01 0.0 0.0 0.0 0.01 0.01 0.0 0.0 0.0 0.01 0.0 0.0 0.0 0.01 0.01 0.0 0.0 0.0 0.01 0.0 0.0 0.0 0.01 0.01 0.0 0.0 0.0 0.01 0.0 0.0 0.0 0.01 0.01 0.0 0.0 0.0 0.01 0.0 0.0 0.0 0.01 0.01 0.0 0.0 0.0 0.01 0.0 0.0 0.0 0.01 0.01 0.0 0.0 0.0 0.01 0.0 0.0 0.0 0.01 0.01 0.0 0.0 0.0 0.01 0.0 0.0 0.0 0.01 0.01 0.0 0.0 0.0 0.01 0.0 0.0 0.0 0.01 0.01 0.0 0.0 0.0 0.01 0.0 0.0 0.0 0.01 0.01 0.0 0.0 0.0 0.01 0.0 0.0 0.0 0.01 0.01 0.0 0.0 0.0 0.01 0.0 0.0 0.0 0.01 0.01 0.0 0.0 0.0 0.01 0.0 0.0 0.0 0.01 0.01 0.0 0.0 0.0 0.01 0.0 0.0 0.0 0.01 0.01 0.0 0.0 0.0 0.01 0.0 0.0 0.0 0.01 0.01 0.0 0.0 0.0 0.01 0.0 0.0 0.0 0.01 0.01 0.0 0.0 0.0 0.01 0.0 0.0 0.0 0.01 0.01 0.0 0.0 0.0 0.01 0.0 0.0 0.0 0.01 0.01 0.0 0.0 0.0 0.01 0.0 0.0 0.0 0.01 0.01 0.0 0.0 0.0 0.01 0.0 0.0 0.0 0.01 0.01 0.0 0.0 0.0 0.01 0.0 0.0 0.0 0.01 0.01 0.0 0.0 0.0 0.01 0.0 0.0 0.0 0.01 0.01 0.0 0.0 0.0 0.01 0.0 0.0 0.0 0.01 0.01 0.0 0.0 0.0 0.01 0.0 0.0 0.0 0.01 0.01 0.0 0.0 0.0 0.01 0.0 0.0 0.0 0.01 0.01 0.0 0.0 0.0 0.01 0.0 0.0 0.0 0.01 0.01 0.0 0.0 0.0 0.01 0.0 0.0 0.0 0.01 0.01 0.0 0.0 0.0 0.01 0.0 0.0 0.0 0.01 0.01 0.0 0.0 0.0 0.01 0.0 0.0 0.0 0.01 0.01 0.0 0.0 0.0 0.01 0.0 0.0 0.0 0.01 0.01 0.0 0.0 0.0 0.01 0.0 0.0 0.0 0.01 0.01 0.0 0.0 0.0 0.01 0.0 0.0 0.0 0.01 0.01 0.0 0.0 0.0 0.01 0.0 0.0 0.0 0.01 0.01 0.0 0.0 0.0 0.01 0.0 0.0 0.0 0.01 0.01 0.0 0.0 0.0 0.01 0.0 0.0 0.0 0.01 0.01 0.0 0.0 0.0 0.01 0.0 0.0 0.0 0.01 0.01 0.0 0.0 0.0 0.01 0.0 0.0 0.0 0.01 0.01 0.0 0.0 0.0 0.01 0.0 0.0 0.0 0.01 0.01 0.0 0.0 0.0 0.01 0.0 0.0 0.0 0.01 0.01 0.0 0.0 0.0 0.01 0.0 0.0 0.0 0.01 0.01 0.0 0.0 0.0 0.01 0.0 0.0 0.0 0.01 0.01 0.0 0.0 0.0 0.01 0.0 0.0 0.0 0.01 0.01 0.0 0.0 0.0 0.01 0.0 0.0 0.0 0.01 0.01 0.0 0.0 0.0 0.01 0.0 0.0 0.0 0.01 0.01 0.0 0.0 0.0 0.01 0.0 0.0 0.0 0.01 0.01 0.0 0.0 0.0 0.01 0.0 0.0 0.0 0.01 0.01 0.0 0.0 0.0 0.01 0.0 0.0 0.0 0.01 0.01 0.0 0.0 0.0 0.01 0.0 0.0 0.0 0.01 0.01 0.0 0.0 0.0 0.01 0.0 0.0 0.0 0.01 0.01 0.0 0.0 0.0 0.01 0.0 0.0 0.0 0.01 0.01 0.0 0.0 0.0 0.01 0.0 0.0 0.0 0.01 0.01 0.0 0.0 0.0 0.01 0.0 0.0 0.0 0.01 0.01 0.0 0.0 0.0 0.01 0.0 0.0 0.0 0.01 0.01 0.0 0.0 0.0 0.01 0.0 0.0 0.0 0.01 0.01 0.0 0.0 0.0 0.01 0.0 0.0 0.0 0.01 0.01 0.0 0.0 0.0 0.01 0.0 0.0 0.0 0.01 0.01 0.0 0.0 0.0 0.01 0.0 0.0 0.0 0.01 0.01 0.0 0.0 0.0 0.01 0.0 0.0 0.0 0.01 0.01 0.0 0.0 0.0 0.01 0.0 0.0 0.0 0.01 0.01 0.0 0.0 0.0 0.01 0.0 0.0 0.0 0.01 0.01 0.0 0.0 0.0 0.01 0.0 0.0 0.0 0.01 0.01 0.0 0.0 0.0 0.01 0.0 0.0 0.0 0.01 0.01 0.0 0.0 0.0 0.01 0.0 0.0 0.0 0.01 0.01 0.0 0.0 0.0 0.01 0.0 0.0 0.0 0.01 0.01 0.0 0.0 0.0 0.01 0.0 0.0 0.0 0.01 0.01 0.0 0.0 0.0 0.01 0.0 0.0 0.0 0.01 0.01 0.0 0.0 0.0 0.01 0.0 0.0 0.0 0.01 0.01 0.0 0.0 0.0 0.01 0.0 0.0 0.0 0.01 0.01 0.0 0.0 0.0 0.01 0.0 0.0 0.0 0.01 0.01 0.0 0.0 0.0 0.01 0.0 0.0 0.0 0.01 0.01 0.0 0.0 0.0 0.01 0.0 0.0 0.0 0.01 0.01 0.0 0.0 0.0 0.01 0.0 0.0 0.0 0.01 0.01 0.0 0.0 0.0 0.01 0.0 0.0 0.0 0.01 0.01 0.0 0.0 0.0 0.01 0.0 0.0 0.0 0.01 0.01 0.0 0.0 0.0 0.01 0.0 0.0 0.0 0.01 0.01 0.0 0.0 0.0 0.01 0.0 0.0 0.0 0.01 0.01 0.0 0.0 0.0 0.01 0.0 0.0 0.0 0.01 0.01 0.0 0.0 0.0 0.01 0.0 0.0 0.0 0.01 0.01 0.0 0.0 0.0 0.01 0.0 0.0 0.0 0.01 0.01 0.0 0.0 0.0 0.01 0.0 0.0 0.0 0.01 0.01 0.0 0.0 0.0 0.01 0.0 0.0 0.0 0.01 0.01 0.0 0.0 0.0 0.01 0.0 0.0 0.0 0.01 0.01 0.0 0.0 0.0 0.01 0.0 0.0 0.0 0.01 0.01 0.0 0.0 0.0 0.01 0.0 0.0 0.0 0.01 0.01 0.0 0.0 0.0 0.01 0.0 0.0 0.0 0.01 0.01 0.0 0.0 0.0 0.01 0.0 0.0 0.0 0.01 0.01 0.0 0.0 0.0 0.01 0.0 0.0 0.0 0.01 0.01 0.0 0.0 0.0 0.01 0.0 0.0 0.0 0.01 0.01 0.0 0.0 0.0 0.01 0.0 0.0 0.0 0.01 0.01 0.0 0.0 0.0 0.01 0.0 0.0 0.0 0.01 0.01 0.0 0.0 0.0 0.01 0.0 0.0 0.0 0.01 0.01 0.0 0.0 0.0 0.01 0.0 0.0 0.0 0.01 0.01 0.0 0.0 0.0 0.01 0.0 0.0 0.0 0.01 0.01 0.0 0.0 0.0 0.01 0.0 0.0 0.0 0.01 0.01 0.0 0.0 0.0 0.01 0.0 0.0 0.0 0.01 0.01 0.0 0.0 0.0 0.01 0.0 0.0 0.0 0.01 0.01 0.0 0.0 0.0 0.01 0.0 0.0 0.0 0.01 0.01 0.0 0.0 0.0 0.01 0.0 0.0 0.0 0.01 0.01 0.0 0.0 0.0 0.01 0.0 0.0 0.0 0.01 0.01 0.0 0.0 0.0 0.01 0.0 0.0 0.0 0.01 0.01 0.0 0.0 0.0 0.01 0.0 0.0 0.0 0.01 0.01 0.0 0.0 0.0 0.01 0.0 0.0 0.0 0.01 0.01 0.0 0.0 0.0 0.01 0.0 0.0 0.0 0.01 0.01 0.0 0.0 0.0 0.01 0.0 0.0 0.0 0.01 0.01 0.0 0.0 0.0 0.01 0.0 0.0 0.0 0.01 0.01 0.0 0.0 0.0 0.01 0.0 0.0 0.0 0.01 0.01 0.0 0.0 0.0 0.01 0.0 0.0 0.0 0.01 0.01 0.0 0.0 0.0 0.01 0.0 0.0 0.0 0.01 0.01 0.0 0.0 0.0 0.01 0.0 0.0 0.0 0.01 0.01 0.0 0.0 0.0 0.01 0.0 0.0 0.0 0.01 0.01 0.0 0.0 0.0 0.01 0.0 0.0 0.0 0.01 0.01 0.0 0.0 0.0 0.01 0.0 0.0 0.0 0.01 0.01 0.0 0.0 0.0 0.01 0.0 0.0 0.0 0.01 0.01 0.0 0.0 0.0 0.01 0.0 0.0 0.0 0.01 0.01 0.0 0.0 0.0 0.01 0.0 0.0 0.0 0.01 0.01 0.0 0.0 0.0 0.01 0.0 0.0 0.0 0.01 0.01 0.0 0.0 0.0 0.01 0.0 0.0 0.0 0.01 0.01 0.0 0.0 0.0 0.01 0.0 0.0 0.0 0.01 0.01 0.0 0.0 0.0 0.01 0.0 0.0 0.0 0.01 0.01 0.0 0.0 0.0 0.01 0.0 0.0 0.0 0.01 0.01 0.0 0.0 0.0 0.01 0.0 0.0 0.0 0.01 0.01 0.0 0.0 0.0 0.01 0.0 0.0 0.0 0.01 0.01 0.0 0.0 0.0 0.01 0.0 0.0 0.0 0.01 0.01 0.0 0.0 0.0 0.01 0.0 0.0 0.0 0.01 0.01 0.0 0.0 0.0 0.01 0.0 0.0 0.0 0.01 0.01 0.0 0.0 0.0 0.01 0.0 0.0 0.0 0.01 0.01 0.0 0.0 0.0 0.01 0.0 0.0 0.0 0.01 0.01 0.0 0.0 0.0 0.01 0.0 0.0 0.0 0.01 0.01 0.0 0.0 0.0 0.01 0.0 0.0 0.0 0.01 0.01 0.0 0.0 0.0 0.01 0.0 0.0 0.0 0.01 0.01 0.0 0.0 0.0 0.01 0.0 0.0 0.0 0.01 0.01 0.0 0.0 0.0 0.01 0.0 0.0 0.0 0.01 0.01 0.0 0.0 0.0 0.01 0.0 0.0 0.0 0.01 0.01 0.0 0.0 0.0 0.01 0.0 0.0 0.0 0.01 0.01 0.0 0.0 0.0 0.01 0.0 0.0 0.0 0.01 0.01 0.0 0.0 0.0 0.01 0.0 0.0 0.0 0.01 0.01 0.0 0.0 0.0 0.01 0.0 0.0 0.0 0.01 0.01 0.0 0.0 0.0 0.01 0.0 0.0 0.0 0.01 0.01 0.0 0.0 0.0 0.01 0.0 0.0 0.0 0.01 0.01 0.0 0.0 0.0 0.01 0.0 0.0 0.0 0.01 0.01 0.0 0.0 0.0 0.01 0.0 0.0 0.0 0.01 0.01 0.0 0.0 0.0 0.01 0.0 0.0 0.0 0.01 0.01 0.0 0.0 0.0 0.01 0.0 0.0 0.0 0.01 0.01 0.0 0.0 0.0 0.01 0.0 0.0 0.0 0.01 0.01 0.0 0.0 0.0 0.01 0.0 0.0 0.0 0.01 0.01 0.0 0.0 0.0 0.01 0.0 0.0 0.0 0.01 0.01 0.0 0.0 0.0 0.01 0.0 0.0 0.0 0.01 0.01 0.0 0.0 0.0 0.01 0.0 0.0 0.0 0.01 0.01 0.0 0.0 0.0 0.01 0.0 0.0 0.0 0.01 0.01 0.0 0.0 0.0 0.01 0.0 0.0 0.0 0.01 0.01 0.0 0.0 0.0 0.01 0.0 0.0 0.0 0.01 0.01 0.0 0.0 0.0 0.01 0.0 0.0 0.0 0.01 0.01 0.0 0.0 0.0 0.01 0.0 0.0 0.0 0.01 0.01 0.0 0.0 0.0 0.01 0.0 0.0 0.0 0.01 0.01 0.0 0.0 0.0 0.01 0.0 0.0 0.0 0.01 0.01 0.0 0.0 0.0 0.01 0.0 0.0 0.0 0.01 0.01 0.0 0.0 0.0 0.01 0.0 0.0 0.0 0.01 0.01 0.0 0.0 0.0 0.01 0.0 0.0 0.0 0.01 0.01 0.0 0.0 0.0 0.01 0.0 0.0 0.0 0.01 0.01 0.0 0.0 0.0 0.01 0.0 0.0 0.0 0.01 0.01 0.0 0.0 0.0 0.01 0.0 0.0 0.0 0.01 0.01 0.0 0.0 0.0 0.01 0.0 0.0 0.0 0.01 0.01 0.0 0.0 0.0 0.01 0.0 0.0 0.0 0.01 0.01 0.0 0.0 0.0 0.01 0.0 0.0 0.0 0.01 0.01 0.0 0.0 0.0 0.01 0.0 0.0 0.0 0.01 0.01 0.0 0.0 0.0 0.01 0.0 0.0 0.0 0.01 0.01 0.0 0.0 0.0 0.01 0.0 0.0 0.0 0.01 0.01 0.0 0.0 0.0 0.01 0.0 0.0 0.0 0.01 0.01 0.0 0.0 0.0 0.01 0.0 0.0 0.0 0.01 0.01 0.0 0.0 0.0 0.01 0.0 0.0 0.0 0.01 0.01 0.0 0.0 0.0 0.01 0.0 0.0 0.0 0.01 0.01 0.0 0.0 0.0 0.01 0.0 0.0 0.0 0.01 0.01 0.0 0.0 0.0 0.01 0.0 0.0 0.0 0.01 0.01 0.0 0.0 0.0 0.01 0.0 0.0 0.0 0.01 0.01 0.0 0.0 0.0 0.01 0.0 0.0 0.0 0.01 0.01 0.0 0.0 0.0 0.01 0.0 0.0 0.0 0.01 0.01 0.0 0.0 0.0 0.01 0.0 0.0 0.0 0.01 0.01 0.0 0.0 0.0 0.01 0.0 0.0 0.0 0.01 0.01 0.0 0.0 0.0 0.01 0.0 0.0 0.0 0.01 0.01 0.0 0.0 0.0 0.01 0.0 0.0 0.0 0.01 0.01 0.0 0.0 0.0 0.01 0.0 0.0 0.0 0.01 0.01 0.0 0.0 0.0 0.01 0.0 0.0 0.0 0.01 0.01 0.0 0.0 0.0 0.01 0.0 0.0 0.0 0.01 0.01 0.0 0.0 0.0 0.01 0.0 0.0 0.0 0.01 0.01 0.0 0.0 0.0 0.01 0.0 0.0 0.0 0.01 0.01 0.0 0.0 0.0 0.01 0.0 0.0 0.0 0.01 0.01 0.0 0.0 0.0 0.01 0.0 0.0 0.0 0.01 0.01 0.0 0.0 0.0 0.01 0.0 0.0 0.0 0.01 0.01 0.0 0.0 0.0 0.01 0.0 0.0 0.0 0.01 0.01 0.0 0.0 0.0 0.01 0.0 0.0 0.0 0.01 0.01 0.0 0.0 0.0 0.01 0.0 0.0 0.0 0.01 0.01 0.0 0.0 0.0 0.01 0.0 0.0 0.0 0.01 0.01 0.0 0.0 0.0 0.01 0.0 0.0 0.0 0.01 0.01 0.0 0.0 0.0 0.01 0.0 0.0 0.0 0.01 0.01 0.0 0.0 0.0 0.01 0.0 0.0 0.0 0.01 0.01 0.0 0.0 0.0 0.01 0.0 0.0 0.0 0.01 0.01 0.0 0.0 0.0 0.01 0.0 0.0 0.0 0.01 0.01 0.0 0.0 0.0 0.01 0.0 0.0 0.0 0.01 0.01 0.0 0.0 0.0 0.01 0.0 0.0 0.0 0.01 0.01 0.0 0.0 0.0 0.01 0.0 0.0 0.0 0.01 0.01 0.0 0.0 0.0 0.01 0.0 0.0 0.0 0.01 0.01 0.0 0.0 0.0 0.01 0.0 0.0 0.0 0.01 0.01 0.0 0.0 0.0 0.01 0.0 0.0 0.0 0.01 0.01 0.0 0.0 0.0 0.01 0.0 0.0 0.0 0.01 0.01 0.0 0.0 0.0 0.01 0.0 0.0 0.0 0.01 0.01 0.0 0.0 0.0 0.01 0.0 0.0 0.0 0.01 0.01 0.0 0.0 0.0 0.01 0.0 0.0 0.0 0.01 0.01 0.0 0.0 0.0 0.01 0.0 0.0 0.0 0.01 0.01 0.0 0.0 0.0 0.01 0.0 0.0 0.0 0.01 0.01 0.0 0.0 0.0 0.01 0.0 0.0 0.0 0.01 0.01 0.0 0.0 0.0 0.01 0.0 0.0 0.0 0.01 0.01 0.0 0.0 0.0 0.01 0.0 0.0 0.0 0.01 0.01 0.0 0.0 0.0 0.01 0.0 0.0 0.0 0.01 0.01 0.0 0.0 0.0 0.01 0.0 0.0 0.0 0.01 0.01 0.0 0.0 0.0 0.01 0.0 0.0 0.0 0.01 0.01 0.0 0.0 0.0 0.01 0.0 0.0 0.0 0.01 0.01 0.0 0.0 0.0 0.01 0.0 0.0 0.0 0.01 0.01 0.0 0.0 0.0 0.01 0.0 0.0 0.0 0.01 0.01 0.0 0.0 0.0 0.01 0.0 0.0 0.0 0.01 0.01 0.0 0.0 0.0 0.01 0.0 0.0 0.0 0.01 0.01 0.0 0.0 0.0 0.01 0.0 0.0 0.0 0.01 0.01 0.0 0.0 0.0 0.01 0.0 0.0 0.0 0.01 0.01 0.0 0.0 0.0 0.01 0.0 0.0 0.0 0.01 0.01 0.0 0.0 0.0 0.01 0.0 0.0 0.0 0.01 0.01 0.0 0.0 0.0 0.01 0.0 0.0 0.0 0.01 0.01 0.0 0.0 0.0 0.01 0.0 0.0 0.0 0.01 0.01 0.0 0.0 0.0 0.01 0.0 0.0 0.0 0.01 0.01 0.0 0.0 0.0 0.01 0.0 0.0 0.0 0.01 0.01 0.0 0.0 0.0 0.01 0.0 0.0 0.0 0.01 0.01 0.0 0.0 0.0 0.01 0.0 0.0 0.0 0.01 0.01 0.0 0.0 0.0 0.01 0.0 0.0 0.0 0.01 0.01 0.0 0.0 0.0 0.01 0.0 0.0 0.0 0.01 0.01 0.0 0.0 0.0 0.01 0.0 0.0 0.0 0.01 0.01 0.0 0.0 0.0 0.01 0.0 0.0 0.0 0.01 0.01 0.0 0.0 0.0 0.01 0.0 0.0 0.0 0.01 0.01 0.0 0.0 0.0 0.01 0.0 0.0 0.0 0.01 0.01 0.0 0.0 0.0 0.01 0.0 0.0 0.0 0.01 0.01 0.0 0.0 0.0 0.01 0.0 0.0 0.0 0.01 0.01 0.0 0.0 0.0 0.01 0.0 0.0 0.0 0.01 0.01 0.0 0.0 0.0 0.01 0.0 0.0 0.0 0.01 0.01 0.0 0.0 0.0 0.01 0.0 0.0 0.0 0.01 0.01 0.0 0.0 0.0 0.01 0.0 0.0 0.0 0.01 0.01 0.0 0.0 0.0 0.01 0.0 0.0 0.0 0.01 0.01 0.0 0.0 0.0 0.01 0.0 0.0 0.0 0.01 0.01 0.0 0.0 0.0 0.01 0.0 0.0 0.0 0.01 0.01 0.0 0.0 0.0 0.01 0.0 0.0 0.0 0.01 0.01 0.0 0.0 0.0 0.01 0.0 0.0 0.0 0.01 0.01 0.0 0.0 0.0 0.01 0.0 0.0 0.0 0.01 0.01 0.0 0.0 0.0 0.01 0.0 0.0 0.0 0.01 0.01 0.0 0.0 0.0 0.01 0.0 0.0 0.0 0.01 0.01 0.0 0.0 0.0 0.01 0.0 0.0 0.0 0.01 0.01 0.0 0.0 0.0 0.01 0.0 0.0 0.0 0.01 0.01 0.0 0.0 0.0 0.01 0.0 0.0 0.0 0.01 0.01 0.0 0.0 0.0 0.01 0.0 0.0 0.0 0.01 0.01 0.0 0.0 0.0 0.01 0.0 0.0 0.0 0.01 0.01 0.0 0.0 0.0 0.01 0.0 0.0 0.0 0.01 0.01 0.0 0.0 0.0 0.01 0.0 0.0 0.0 0.01 0.01 0.0 0.0 0.0 0.01 0.0 0.0 0.0 0.01 0.01 0.0 0.0 0.0 0.01 0.0 0.0 0.0 0.01 0.01 0.0 0.0 0.0 0.01 0.0 0.0 0.0 0.01 0.01 0.0 0.0 0.0 0.01 0.0 0.0 0.0 0.01 0.01 0.0 0.0 0.0 0.01 0.0 0.0 0.0 0.01 0.01 0.0 0.0 0.0 0.01 0.0 0.0 0.0 0.01 0.01 0.0 0.0 0.0 0.01 0.0 0.0 0.0 0.01 0.01 0.0 0.0 0.0 0.01 0.0 0.0 0.0 0.01 0.01 0.0 0.0 0.0 0.01 0.0 0.0 0.0 0.01 0.01 0.0 0.0 0.0 0.01 0.0 0.0 0.0 0.01 0.01 0.0 0.0 0.0 0.01 0.0 0.0 0.0 0.01 0.01 0.0 0.0 0.0 0.01 0.0 0.0 0.0 0.01 0.01 0.0 0.0 0.0 0.01 0.0 0.0 0.0 0.01 0.01 0.0 0.0 0.0 0.01 0.0 0.0 0.0 0.01 0.01 0.0 0.0 0.0 0.01 0.0 0.0 0.0 0.01 0.01 0.0 0.0 0.0 0.01 0.0 0.0 0.0 0.01 0.01 0.0 0.0 0.0 0.01 0.0 0.0 0.0 0.01 0.01 0.0 0.0 0.0 0.01 0.0 0.0 0.0 0.01 0.01 0.0 0.0 0.0 0.01 0.0 0.0 0.0 0.01 0.01 0.0 0.0 0.0 0.01 0.0 0.0 0.0 0.01 0.01 0.0 0.0 0.0 0.01 0.0 0.0 0.0 0.01 0.01 0.0 0.0 0.0 0.01 0.0 0.0 0.0 0.01 0.01 0.0 0.0 0.0 0.01 0.0 0.0 0.0 0.01 0.01 0.0 0.0 0.0 0.01 0.0 0.0 0.0 0.01 0.01 0.0 0.0 0.0 0.01 0.0 0.0 0.0 0.01 0.01 0.0 0.0 0.0 0.01 0.0 0.0 0.0 0.01 0.01 0.0 0.0 0.0 0.01 0.0 0.0 0.0 0.01 0.01 0.0 0.0 0.0 0.01 0.0 0.0 0.0 0.01 0.01 0.0 0.0 0.0 0.01 0.0 0.0 0.0 0.01 0.01 0.0 0.0 0.0 0.01 0.0 0.0 0.0 0.01 0.01 0.0 0.0 0.0 0.01 0.0 0.0 0.0 0.01 0.01 0.0 0.0 0.0 0.01 0.0 0.0 0.0 0.01 0.01 0.0 0.0 0.0 0.01 0.0 0.0 0.0 0.01 0.01 0.0 0.0 0.0 0.01 0.0 0.0 0.0 0.01 0.01 0.0 0.0 0.0 0.01 0.0 0.0 0.0 0.01 0.01 0.0 0.0 0.0 0.01 0.0 0.0 0.0 0.01 0.01 0.0 0.0 0.0 0.01 0.0 0.0 0.0 0.01 0.01 0.0 0.0 0.0 0.01 0.0 0.0 0.0 0.01 0.01 0.0 0.0 0.0 0.01 0.0 0.0 0.0 0.01 0.01 0.0 0.0 0.0 0.01 0.0 0.0 0.0 0.01 0.01 0.0 0.0 0.0 0.01 0.0 0.0 0.0 0.01 0.01 0.0 0.0 0.0 0.01 0.0 0.0 0.0 0.01 0.01 0.0 0.0 0.0 0.01 0.0 0.0 0.0 0.01 0.01 0.0 0.0 0.0 0.01 0.0 0.0 0.0 0.01 0.01 0.0 0.0 0.0 0.01 0.0 0.0 0.0 0.01 0.01 0.0 0.0 0.0 0.01 0.0 0.0 0.0 0.01 0.01 0.0 0.0 0.0 0.01 0.0 0.0 0.0 0.01 0.01 0.0 0.0 0.0 0.01 0.0 0.0 0.0 0.01 0.01 0.0 0.0 0.0 0.01 0.0 0.0 0.0 0.01 0.01 0.0 0.0 0.0 0.01 0.0 0.0 0.0 0.01 0.01 0.0 0.0 0.0 0.01 0.0 0.0 0.0 0.01 0.01 0.0 0.0 0.0 0.01 0.0 0.0 0.0 0.01 0.01 0.0 0.0 0.0 0.01 0.0 0.0 0.0 0.01 0.01 0.0 0.0 0.0 0.01 0.0 0.0 0.0 0.01 0.01 0.0 0.0 0.0 0.01 0.0 0.0 0.0 0.01 0.01 0.0 0.0 0.0 0.01 0.0 0.0 0.0 0.01 0.01 0.0 0.0 0.0 0.01 0.0 0.0 0.0 0.01 0.01 0.0 0.0 0.0 0.01 0.0 0.0 0.0 0.01 0.01 0.0 0.0 0.0 0.01 0.0 0.0 0.0 0.01 0.01 0.0 0.0 0.0 0.01 0.0 0.0 0.0 0.01 0.01 0.0 0.0 0.0 0.01 0.0 0.0 0.0 0.01 0.01 0.0 0.0 0.0 0.01 0.0 0.0 0.0 0.01 0.01 0.0 0.0 0.0 0.01 0.0 0.0 0.0 0.01 0.01 0.0 0.0 0.0 0.01 0.0 0.0 0.0 0.01 0.01 0.0 0.0 0.0 0.01 0.0 0.0 0.0 0.01 0.01 0.0 0.0 0.0 0.01 0.0 0.0 0.0 0.01 0.01 0.0 0.0 0.0 0.01 0.0 0.0 0.0 0.01 0.01 0.0 0.0 0.0 0.01 0.0 0.0 0.0 0.01 0.01 0.0 0.0 0.0 0.01 0.0 0.0 0.0 0.01 0.01 0.0 0.0 0.0 0.01 0.0 0.0 0.0 0.01 0.01 0.0 0.0 0.0 0.01 0.0 0.0 0.0 0.01 0.01 0.0 0.0 0.0 0.01 0.0 0.0 0.0 0.01 0.01 0.0 0.0 0.0 0.01 0.0 0.0 0.0 0.01 0.01 0.0 0.0 0.0 0.01 0.0 0.0 0.0 0.01 0.01 0.0 0.0 0.0 0.01 0.0 0.0 0.0 0.01 0.01 0.0 0.0 0.0 0.01 0.0 0.0 0.0 0.01 0.01 0.0 0.0 0.0 0.01 0.0 0.0 0.0 0.01 0.01 0.0 0.0 0.0 0.01 0.0 0.0 0.0 0.01 0.01 0.0 0.0 0.0 0.01 0.0 0.0 0.0 0.01 0.01 0.0 0.0 0.0 0.01 0.0 0.0 0.0 0.01 0.01 0.0 0.0 0.0 0.01 0.0 0.0 0.0 0.01 0.01 0.0 0.0 0.0 0.01 0.0 0.0 0.0 0.01 0.01 0.0 0.0 0.0 0.01 0.0 0.0 0.0 0.01 0.01 0.0 0.0 0.0 0.01 0.0 0.0 0.0 0.01 0.01 0.0 0.0 0.0 0.01 0.0 0.0 0.0 0.01 0.01 0.0 0.0 0.0 0.01 0.0 0.0 0.0 0.01 0.01 0.0 0.0 0.0 0.01 0.0 0.0 0.0 0.01 0.01 0.0 0.0 0.0 0.01 0.0 0.0 0.0 0.01 0.01 0.0 0.0 0.0 0.01 0.0 0.0 0.0 0.01 0.01 0.0 0.0 0.0 0.01 0.0 0.0 0.0 0.01 0.01 0.0 0.0 0.0 0.01 0.0 0.0 0.0 0.01 0.01 0.0 0.0 0.0 0.01 0.0 0.0 0.0 0.01 0.01 0.0 0.0 0.0 0.01 0.0 0.0 0.0 0.01 0.01 0.0 0.0 0.0 0.01 0.0 0.0 0.0 0.01 0.01 0.0 0.0 0.0 0.01 0.0 0.0 0.0 0.01 0.01 0.0 0.0 0.0 0.01 0.0 0.0 0.0 0.01 0.01 0.0 0.0 0.0 0.01 0.0 0.0 0.0 0.01 0.01 0.0 0.0 0.0 0.01 0.0 0.0 0.0 0.01 0.01 0.0 0.0 0.0 0.01 0.0 0.0 0.0 0.01 0.01 0.0 0.0 0.0 0.01 0.0 0.0 0.0 0.01 0.01 0.0 0.0 0.0 0.01 0.0 0.0 0.0 0.01 0.01 0.0 0.0 0.0 0.01 0.0 0.0 0.0 0.01 0.01 0.0 0.0 0.0 0.01 0.0 0.0 0.0 0.01 0.01 0.0 0.0 0.0 0.01 0.0 0.0 0.0 0.01 0.01 0.0 0.0 0.0 0.01 0.0 0.0 0.0 0.01 0.01 0.0 0.0 0.0 0.01 0.0 0.0 0.0 0.01 0.01 0.0 0.0 0.0 0.01 0.0 0.0 0.0 0.01 0.01 0.0 0.0 0.0 0.01 0.0 0.0 0.0 0.01 0.01 0.0 0.0 0.0 0.01 0.0 0.0 0.0 0.01 0.01 0.0 0.0 0.0 0.01 0.0 0.0 0.0 0.01 0.01 0.0 0.0 0.0 0.01 0.0 0.0 0.0 0.01 0.01 0.0 0.0 0.0 0.01 0.0 0.0 0.0 0.01 0.01 0.0 0.0 0.0 0.01 0.0 0.0 0.0 0.01 0.01 0.0 0.0 0.0 0.01 0.0 0.0 0.0 0.01 0.01 0.0 0.0 0.0 0.01 0.0 0.0 0.0 0.01 0.01 0.0 0.0 0.0 0.01 0.0 0.0 0.0 0.01 0.01 0.0 0.0 0.0 0.01 0.0 0.0 0.0 0.01 0.01 0.0 0.0 0.0 0.01 0.0 0.0 0.0 0.01 0.01 0.0 0.0 0.0 0.01 0.0 0.0 0.0 0.01 0.01 0.0 0.0 0.0 0.01 0.0 0.0 0.0 0.01 0.01 0.0 0.0 0.0 0.01 0.0 0.0 0.0 0.01 0.01 0.0 0.0 0.0 0.01 0.0 0.0 0.0 0.01 0.01 0.0 0.0 0.0 0.01 0.0 0.0 0.0 0.01 0.01 0.0 0.0 0.0 0.01 0.0 0.0 0.0 0.01 0.01 0.0 0.0 0.0 0.01 0.0 0.0 0.0 0.01 0.01 0.0 0.0 0.0 0.01 0.0 0.0 0.0 0.01 0.01 0.0 0.0 0.0 0.01 0.0 0.0 0.0 0.01 0.01 0.0 0.0 0.0 0.01 0.0 0.0 0.0 0.01 0.01 0.0 0.0 0.0 0.01 0.0 0.0 0.0 0.01 0.01 0.0 0.0 0.0 0.01 0.0 0.0 0.0 0.01 0.01 0.0 0.0 0.0 0.01 0.0 0.0 0.0 0.01 0.01 0.0 0.0 0.0 0.01 0.0 0.0 0.0 0.01 0.01 0.0 0.0 0.0 0.01 0.0 0.0 0.0 0.01 0.01 0.0 0.0 0.0 0.01 0.0 0.0 0.0 0.01 0.01 0.0 0.0 0.0 0.01 0.0 0.0 0.0 0.01 0.01 0.0 0.0 0.0 0.01 0.0 0.0 0.0 0.01 0.01 0.0 0.0 0.0 0.01 0.0 0.0 0.0 0.01 0.01 0.0 0.0 0.0 0.01 0.0 0.0 0.0 0.01 0.01 0.0 0.0 0.0 0.01 0.0 0.0 0.0 0.01 0.01 0.0 0.0 0.0 0.01 0.0 0.0 0.0 0.01 0.01 0.0 0.0 0.0 0.01 0.0 0.0 0.0 0.01 0.01 0.0 0.0 0.0 0.01 0.0 0.0 0.0 0.01 0.01 0.0 0.0 0.0 0.01 0.0 0.0 0.0 0.01 0.01 0.0 0.0 0.0 0.01 0.0 0.0 0.0 0.01 0.01 0.0 0.0 0.0 0.01 0.0 0.0 0.0 0.01 0.01 0.0 0.0 0.0 0.01 0.0 0.0 0.0 0.01 0.01 0.0 0.0 0.0 0.01 0.0 0.0 0.0 0.01 0.01 0.0 0.0 0.0 0.01 0.0 0.0 0.0 0.01 0.01 0.0 0.0 0.0 0.01 0.0 0.0 0.0 0.01 0.01 0.0 0.0 0.0 0.01 0.0 0.0 0.0 0.01 0.01 0.0 0.0 0.0 0.01 0.0 0.0 0.0 0.01 0.01 0.0 0.0 0.0 0.01 0.0 0.0 0.0 0.01 0.01 0.0 0.0 0.0 0.01 0.0 0.0 0.0 0.01 0.01 0.0 0.0 0.0 0.01 0.0 0.0 0.0 0.01 0.01 0.0 0.0 0.0 0.01 0.0 0.0 0.0 0.01 0.01 0.0 0.0 0.0 0.01 0.0 0.0 0.0 0.01 0.01 0.0 0.0 0.0 0.01 0.0 0.0 0.0 0.01 0.01 0.0 0.0 0.0 0.01 0.0 0.0 0.0 0.01 0.01 0.0 0.0 0.0 0.01 0.0 0.0 0.0 0.01 0.01 0.0 0.0 0.0 0.01 0.0 0.0 0.0 0.01 0.01 0.0 0.0 0.0 0.01 0.0 0.0 0.0 0.01 0.01 0.0 0.0 0.0 0.01 0.0 0.0 0.0 0.01 0.01 0.0 0.0 0.0 0.01 0.0 0.0 0.0 0.01 0.01 0.0 0.0 0.0 0.01 0.0 0.0 0.0 0.01 0.01 0.0 0.0 0.0 0.01 0.0 0.0 0.0 0.01 0.01 0.0 0.0 0.0 0.01 0.0 0.0 0.0 0.01 0.01 0.0 0.0 0.0 0.01 0.0 0.0 0.0 0.01 0.01 0.0 0.0 0.0 0.01 0.0 0.0 0.0 0.01 0.01 0.0 0.0 0.0 0.01 0.0 0.0 0.0 0.01 0.01 0.0 0.0 0.0 0.01 0.0 0.0 0.0 0.01 0.01 0.0 0.0 0.0 0.01 0.0 0.0 0.0 0.01 0.01 0.0 0.0 0.0 0.01 0.0 0.0 0.0 0.01 0.01 0.0 0.0 0.0 0.01 0.0 0.0 0.0 0.01 0.01 0.0 0.0 0.0 0.01 0.0 0.0 0.0 0.01 0.01 0.0 0.0 0.0 0.01 0.0 0.0 0.0 0.01 0.01 0.0 0.0 0.0 0.01 0.0 0.0 0.0 0.01 0.01 0.0 0.0 0.0 0.01 0.0 0.0 0.0 0.01 0.01 0.0 0.0 0.0 0.01 0.0 0.0 0.0 0.01 0.01 0.0 0.0 0.0 0.01 0.0 0.0 0.0 0.01 0.01 0.0 0.0 0.0 0.01 0.0 0.0 0.0 0.01 0.01 0.0 0.0 0.0 0.01 0.0 0.0 0.0 0.01 0.01 0.0 0.0 0.0 0.01 0.0 0.0 0.0 0.01 0.01 0.0 0.0 0.0 0.01 0.0 0.0 0.0 0.01 0.01 0.0 0.0 0.0 0.01 0.0 0.0 0.0 0.01 0.01 0.0 0.0 0.0 0.01 0.0 0.0 0.0 0.01 0.01 0.0 0.0 0.0 0.01 0.0 0.0 0.0 0.01 0.01 0.0 0.0 0.0 0.01 0.0 0.0 0.0 0.01 0.01 0.0 0.0 0.0 0.01 0.0 0.0 0.0 0.01 0.01 0.0 0.0 0.0 0.01 0.0 0.0 0.0 0.01 0.01 0.0 0.0 0.0 0.01 0.0 0.0 0.0 0.01 0.01 0.0 0.0 0.0 0.01 0.0 0.0 0.0 0.01 0.01 0.0 0.0 0.0 0.01 0.0 0.0 0.0 0.01 0.01 0.0 0.0 0.0 0.01 0.0 0.0 0.0 0.01 0.01 0.0 0.0 0.0 0.01 0.0 0.0 0.0 0.01 0.01 0.0 0.0 0.0 0.01 0.0 0.0 0.0 0.01 0.01 0.0 0.0 0.0 0.01 0.0 0.0 0.0 0.01 0.01 0.0 0.0 0.0 0.01 0.0 0.0 0.0 0.01 0.01 0.0 0.0 0.0 0.01 0.0 0.0 0.0 0.01 0.01 0.0 0.0 0.0 0.01 0.0 0.0 0.0 0.01 0.01 0.0 0.0 0.0 0.01 0.0 0.0 0.0 0.01 0.01 0.0 0.0 0.0 0.01 0.0 0.0 0.0 0.01 0.01 0.0 0.0 0.0 0.01 0.0 0.0 0.0 0.01 0.01 0.0 0.0 0.0 0.01 0.0 0.0 0.0 0.01 0.01 0.0 0.0 0.0 0.01 0.0 0.0 0.0 0.01 0.01 0.0 0.0 0.0 0.01 0.0 0.0 0.0 0.01 0.01 0.0 0.0 0.0 0.01 0.0 0.0 0.0 0.01 0.01 0.0 0.0 0.0 0.01 0.0 0.0 0.0 0.01 0.01 0.0 0.0 0.0 0.01 0.0 0.0 0.0 0.01 0.01 0.0 0.0 0.0 0.01 0.0 0.0 0.0 0.01 0.01 0.0 0.0 0.0 0.01 0.0 0.0 0.0 0.01 0.01 0.0 0.0 0.0 0.01 0.0 0.0 0.0 0.01 0.01 0.0 0.0 0.0 0.01 0.0 0.0 0.0 0.01 0.01 0.0 0.0 0.0 0.01 0.0 0.0 0.0 0.01 0.01 0.0 0.0 0.0 0.01 0.0 0.0 0.0 0.01 0.01 0.0 0.0 0.0 0.01 0.0 0.0 0.0 0.01 0.01 0.0 0.0 0.0 0.01 0.0 0.0 0.0 0.01 0.01 0.0 0.0 0.0 0.01 0.0 0.0 0.0 0.01 0.01 0.0 0.0 0.0 0.01 0.0 0.0 0.0 0.01 0.01 0.0 0.0 0.0 0.01 0.0 0.0 0.0 0.01 0.01 0.0 0.0 0.0 0.01 0.0 0.0 0.0 0.01 0.01 0.0 0.0 0.0 0.01 0.0 0.0 0.0 0.01 0.01 0.0 0.0 0.0 0.01 0.0 0.0 0.0 0.01 0.01 0.0 0.0 0.0 0.01 0.0 0.0 0.0 0.01 0.01 0.0 0.0 0.0 0.01 0.0 0.0 0.0 0.01 0.01 0.0 0.0 0.0 0.01 0.0 0.0 0.0 0.01 0.01 0.0 0.0 0.0 0.01 0.0 0.0 0.0 0.01 0.01 0.0 0.0 0.0 0.01 0.0 0.0 0.0 0.01 0.01 0.0 0.0 0.0 0.01 0.0 0.0 0.0 0.01 0.01 0.0 0.0 0.0 0.01 0.0 0.0 0.0 0.01 0.01 0.0 0.0 0.0 0.01 0.0 0.0 0.0 0.01 0.01 0.0 0.0 0.0 0.01 0.0 0.0 0.0 0.01 0.01 0.0 0.0 0.0 0.01 0.0 0.0 0.0 0.01 0.01 0.0 0.0 0.0 0.01 0.0 0.0 0.0 0.01 0.01 0.0 0.0 0.0 0.01 0.0 0.0 0.0 0.01 0.01 0.0 0.0 0.0 0.01 0.0 0.0 0.0 0.01 0.01 0.0 0.0 0.0 0.01 0.0 0.0 0.0 0.01 0.01 0.0 0.0 0.0 0.01 0.0 0.0 0.0 0.01 0.01 0.0 0.0 0.0 0.01 0.0 0.0 0.0 0.01 0.01 0.0 0.0 0.0 0.01 0.0 0.0 0.0 0.01 0.01 0.0 0.0 0.0 0.01 0.0 0.0 0.0 0.01 0.01 0.0 0.0 0.0 0.01 0.0 0.0 0.0 0.01 0.01 0.0 0.0 0.0 0.01 0.0 0.0 0.0 0.01 0.01 0.0 0.0 0.0 0.01 0.0 0.0 0.0 0.01 0.01 0.0 0.0 0.0 0.01 0.0 0.0 0.0 0.01 0.01 0.0 0.0 0.0 0.01 0.0 0.0 0.0 0.01 0.01 0.0 0.0 0.0 0.01 0.0 0.0 0.0 0.01 0.01 0.0 0.0 0.0 0.01 0.0 0.0 0.0 0.01 0.01 0.0 0.0 0.0 0.01 0.0 0.0 0.0 0.01 0.01 0.0 0.0 0.0 0.01 0.0 0.0 0.0 0.01 0.01 0.0 0.0 0.0 0.01 0.0 0.0 0.0 0.01 0.01 0.0 0.0 0.0 0.01 0.0 0.0 0.0 0.01 0.01 0.0 0.0 0.0 0.01 0.0 0.0 0.0 0.01 0.01 0.0 0.0 0.0 0.01 0.0 0.0 0.0 0.01 0.01 0.0 0.0 0.0 0.01 0.0 0.0 0.0 0.01 0.01 0.0 0.0 0.0 0.01 0.0 0.0 0.0 0.01 0.01 0.0 0.0 0.0 0.01 0.0 0.0 0.0 0.01 0.01 0.0 0.0 0.0 0.01 0.0 0.0 0.0 0.01 0.01 0.0 0.0 0.0 0.01 0.0 0.0 0.0 0.01 0.01 0.0 0.0 0.0 0.01 0.0 0.0 0.0 0.01 0.01 0.0 0.0 0.0 0.01 0.0 0.0 0.0 0.01 0.01 0.0 0.0 0.0 0.01 0.0 0.0 0.0 0.01 0.01 0.0 0.0 0.0 0.01 0.0 0.0 0.0 0.01 0.01 0.0 0.0 0.0 0.01 0.0 0.0 0.0 0.01 0.01 0.0 0.0 0.0 0.01 0.0 0.0 0.0 0.01 0.01 0.0 0.0 0.0 0.01 0.0 0.0 0.0 0.01 0.01 0.0 0.0 0.0 0.01 0.0 0.0 0.0 0.01 0.01 0.0 0.0 0.0 0.01 0.0 0.0 0.0 0.01 0.01 0.0 0.0 0.0 0.01 0.0 0.0 0.0 0.01 0.01 0.0 0.0 0.0 0.01 0.0 0.0 0.0 0.01 0.01 0.0 0.0 0.0 0.01 0.0 0.0 0.0 0.01 0.01 0.0 0.0 0.0 0.01 0.0 0.0 0.0 0.01 0.01 0.0 0.0 0.0 0.01 0.0 0.0 0.0 0.01 0.01 0.0 0.0 0.0 0.01 0.0 0.0 0.0 0.01 0.01 0.0 0.0 0.0 0.01 0.0 0.0 0.0 0.01 0.01 0.0 0.0 0.0 0.01 0.0 0.0 0.0 0.01 0.01 0.0 0.0 0.0 0.01 0.0 0.0 0.0 0.01 0.01 0.0 0.0 0.0 0.01 0.0 0.0 0.0 0.01 0.01 0.0 0.0 0.0 0.01 0.0 0.0 0.0 0.01 0.01 0.0 0.0 0.0 0.01 0.0 0.0 0.0 0.01 0.01 0.0 0.0 0.0 0.01 0.0 0.0 0.0 0.01 0.01 0.0 0.0 0.0 0.01 0.0 0.0 0.0 0.01 0.01 0.0 0.0 0.0 0.01 0.0 0.0 0.0 0.01 0.01 0.0 0.0 0.0 0.01 0.0 0.0 0.0 0.01 0.01 0.0 0.0 0.0 0.01 0.0 0.0 0.0 0.01 0.01 0.0 0.0 0.0 0.01 0.0 0.0 0.0 0.01 0.01 0.0 0.0 0.0 0.01 0.0 0.0 0.0 0.01 0.01 0.0 0.0 0.0 0.01 0.0 0.0 0.0 0.01 0.01 0.0 0.0 0.0 0.01 0.0 0.0 0.0 0.01 0.01 0.0 0.0 0.0 0.01 0.0 0.0 0.0 0.01 0.01 0.0 0.0 0.0 0.01 0.0 0.0 0.0 0.01 0.01 0.0 0.0 0.0 0.01 0.0 0.0 0.0 0.01 0.01 0.0 0.0 0.0 0.01 0.0 0.0 0.0 0.01 0.01 0.0 0.0 0.0 0.01 0.0 0.0 0.0 0.01 0.01 0.0 0.0 0.0 0.01 0.0 0.0 0.0 0.01 0.01 0.0 0.0 0.0 0.01 0.0 0.0 0.0 0.01 0.01 0.0 0.0 0.0 0.01 0.0 0.0 0.0 0.01 0.01 0.0 0.0 0.0 0.01 0.0 0.0 0.0 0.01 0.01 0.0 0.0 0.0 0.01 0.0 0.0 0.0 0.01 0.01 0.0 0.0 0.0 0.01 0.0 0.0 0.0 0.01 0.01 0.0 0.0 0.0 0.01 0.0 0.0 0.0 0.01 0.01 0.0 0.0 0.0 0.01 0.0 0.0 0.0 0.01 0.01 0.0 0.0 0.0 0.01 0.0 0.0 0.0 0.01 0.01 0.0 0.0 0.0 0.01 0.0 0.0 0.0 0.01 0.01 0.0 0.0 0.0 0.01 0.0 0.0 0.0 0.01 0.01 0.0 0.0 0.0 0.01 0.0 0.0 0.0 0.01 0.01 0.0 0.0 0.0 0.01 0.0 0.0 0.0 0.01 0.01 0.0 0.0 0.0 0.01 0.0 0.0 0.0 0.01 0.01 0.0 0.0 0.0 0.01 0.0 0.0 0.0 0.01 0.01 0.0 0.0 0.0 0.01 0.0 0.0 0.0 0.01 0.01 0.0 0.0 0.0 0.01 0.0 0.0 0.0 0.01 0.01 0.0 0.0 0.0 0.01 0.0 0.0 0.0 0.01 0.01 0.0 0.0 0.0 0.01 0.0 0.0 0.0 0.01 0.01 0.0 0.0 0.0 0.01 0.0 0.0 0.0 0.01 0.01 0.0 0.0 0.0 0.01 0.0 0.0 0.0 0.01 0.01 0.0 0.0 0.0 0.01 0.0 0.0 0.0 0.01 0.01 0.0 0.0 0.0 0.01 0.0 0.0 0.0 0.01 0.01 0.0 0.0 0.0 0.01 0.0 0.0 0.0 0.01 0.01 0.0 0.0 0.0 0.01 0.0 0.0 0.0 0.01 0.01 0.0 0.0 0.0 0.01 0.0 0.0 0.0 0.01 0.01 0.0 0.0 0.0 0.01 0.0 0.0 0.0 0.01 0.01 0.0 0.0 0.0 0.01 0.0 0.0 0.0 0.01 0.01 0.0 0.0 0.0 0.01 0.0 0.0 0.0 0.01 0.01 0.0 0.0 0.0 0.01 0.0 0.0 0.0 0.01 0.01 0.0 0.0 0.0 0.01 0.0 0.0 0.0 0.01 0.01 0.0 0.0 0.0 0.01 0.0 0.0 0.0 0.01 0.01 0.0 0.0 0.0 0.01 0.0 0.0 0.0 0.01 0.01 0.0 0.0 0.0 0.01 0.0 0.0 0.0 0.01 0.01 0.0 0.0 0.0 0.01 0.0 0.0 0.0 0.01 0.01 0.0 0.0 0.0 0.01 0.0 0.0 0.0 0.01 0.01 0.0 0.0 0.0 0.01 0.0 0.0 0.0 0.01 0.01 0.0 0.0 0.0 0.01 0.0 0.0 0.0 0.01 0.01 0.0 0.0 0.0 0.01 0.0 0.0 0.0 0.01 0.01 0.0 0.0 0.0 0.01 0.0 0.0 0.0 0.01 0.01 0.0 0.0 0.0 0.01 0.0 0.0 0.0 0.01 0.01 0.0 0.0 0.0 0.01 0.0 0.0 0.0 0.01 0.01 0.0 0.0 0.0 0.01 0.0 0.0 0.0 0.01 0.01 0.0 0.0 0.0 0.01 0.0 0.0 0.0 0.01 0.01 0.0 0.0 0.0 0.01 0.0 0.0 0.0 0.01 0.01 0.0 0.0 0.0 0.01 0.0 0.0 0.0 0.01 0.01 0.0 0.0 0.0 0.01 0.0 0.0 0.0 0.01 0.01 0.0 0.0 0.0 0.01 0.0 0.0 0.0 0.01 0.01 0.0 0.0 0.0 0.01 0.0 0.0 0.0 0.01 0.01 0.0 0.0 0.0 0.01 0.0 0.0 0.0 0.01 0.01 0.0 0.0 0.0 0.01 0.0 0.0 0.0 0.01 0.01 0.0 0.0 0.0 0.01 0.0 0.0 0.0 0.01 0.01 0.0 0.0 0.0 0.01 0.0 0.0 0.0 0.01 0.01 0.0 0.0 0.0 0.01 0.0 0.0 0.0 0.01 0.01 0.0 0.0 0.0 0.01 0.0 0.0 0.0 0.01 0.01 0.0 0.0 0.0 0.01 0.0 0.0 0.0 0.01 0.01 0.0 0.0 0.0 0.01 0.0 0.0 0.0 0.01 0.01 0.0 0.0 0.0 0.01 0.0 0.0 0.0 0.01 0.01 0.0 0.0 0.0 0.01 0.0 0.0 0.0 0.01 0.01 0.0 0.0 0.0 0.01 0.0 0.0 0.0 0.01 0.01 0.0 0.0 0.0 0.01 0.0 0.0 0.0 0.01 0.01 0.0 0.0 0.0 0.01 0.0 0.0 0.0 0.01 0.01 0.0 0.0 0.0 0.01 0.0 0.0 0.0 0.01 0.01 0.0 0.0 0.0 0.01 0.0 0.0 0.0 0.01 0.01 0.0 0.0 0.0 0.01 0.0 0.0 0.0 0.01 0.01 0.0 0.0 0.0 0.01 0.0 0.0 0.0 0.01 0.01 0.0 0.0 0.0 0.01 0.0 0.0 0.0 0.01 0.01 0.0 0.0 0.0 0.01 0.0 0.0 0.0 0.01 0.01 0.0 0.0 0.0 0.01 0.0 0.0 0.0 0.01 0.01 0.0 0.0 0.0 0.01 0.0 0.0 0.0 0.01 0.01 0.0 0.0 0.0 0.01 0.0 0.0 0.0 0.01 0.01 0.0 0.0 0.0 0.01 0.0 0.0 0.0 0.01 0.01 0.0 0.0 0.0 0.01 0.0 0.0 0.0 0.01 0.01 0.0 0.0 0.0 0.01 0.0 0.0 0.0 0.01 0.01 0.0 0.0 0.0 0.01 0.0 0.0 0.0 0.01 0.01 0.0 0.0 0.0 0.01 0.0 0.0 0.0 0.01 0.01 0.0 0.0 0.0 0.01 0.0 0.0 0.0 0.01 0.01 0.0 0.0 0.0 0.01 0.0 0.0 0.0 0.01 0.01 0.0 0.0 0.0 0.01 0.0 0.0 0.0 0.01 0.01 0.0 0.0 0.0 0.01 0.0 0.0 0.0 0.01 0.01 0.0 0.0 0.0 0.01 0.0 0.0 0.0 0.01 0.01 0.0 0.0 0.0 0.01 0.0 0.0 0.0 0.01 0.01 0.0 0.0 0.0 0.01 0.0 0.0 0.0 0.01 0.01 0.0 0.0 0.0 0.01 0.0 0.0 0.0 0.01 0.01 0.0 0.0 0.0 0.01 0.0 0.0 0.0 0.01 0.01 0.0 0.0 0.0 0.01 0.0 0.0 0.0 0.01 0.01 0.0 0.0 0.0 0.01 0.0 0.0 0.0 0.01 0.01 0.0 0.0 0.0 0.01 0.0 0.0 0.0 0.01 0.01 0.0 0.0 0.0 0.01 0.0 0.0 0.0 0.01 0.01 0.0 0.0 0.0 0.01 0.0 0.0 0.0 0.01 0.01 0.0 0.0 0.0 0.01 0.0 0.0 0.0 0.01 0.01 0.0 0.0 0.0 0.01 0.0 0.0 0.0 0.01 0.01 0.0 0.0 0.0 0.01 0.0 0.0 0.0 0.01 0.01 0.0 0.0 0.0 0.01 0.0 0.0 0.0 0.01 0.01 0.0 0.0 0.0 0.01 0.0 0.0 0.0 0.01 0.01 0.0 0.0 0.0 0.01 0.0 0.0 0.0 0.01 0.01 0.0 0.0 0.0 0.01 0.0 0.0 0.0 0.01 0.01 0.0 0.0 0.0 0.01 0.0 0.0 0.0 0.01 0.01 0.0 0.0 0.0 0.01 0.0 0.0 0.0 0.01 0.01 0.0 0.0 0.0 0.01 0.0 0.0 0.0 0.01 0.01 0.0 0.0 0.0 0.01 0.0 0.0 0.0 0.01 0.01 0.0 0.0 0.0 0.01 0.0 0.0 0.0 0.01 0.01 0.0 0.0 0.0 0.01 0.0 0.0 0.0 0.01 0.01 0.0 0.0 0.0 0.01 0.0 0.0 0.0 0.01 0.01 0.0 0.0 0.0 0.01 0.0 0.0 0.0 0.01 0.01 0.0 0.0 0.0 0.01 0.0 0.0 0.0 0.01 0.01 0.0 0.0 0.0 0.01 0.0 0.0 0.0 0.01 0.01 0.0 0.0 0.0 0.01 0.0 0.0 0.0 0.01 0.01 0.0 0.0 0.0 0.01 0.0 0.0 0.0 0.01 0.01 0.0 0.0 0.0 0.01 0.0 0.0 0.0 0.01 0.01 0.0 0.0 0.0 0.01 0.0 0.0 0.0 0.01 0.01 0.0 0.0 0.0 0.01 0.0 0.0 0.0 0.01 0.01 0.0 0.0 0.0 0.01 0.0 0.0 0.0 0.01 0.01 0.0 0.0 0.0 0.01 0.0 0.0 0.0 0.01 0.01 0.0 0.0 0.0 0.01 0.0 0.0 0.0 0.01 0.01 0.0 0.0 0.0 0.01 0.0 0.0 0.0 0.01 0.01 0.0 0.0 0.0 0.01 0.0 0.0 0.0 0.01 0.01 0.0 0.0 0.0 0.01 0.0 0.0 0.0 0.01 0.01 0.0 0.0 0.0 0.01 0.0 0.0 0.0 0.01 0.01 0.0 0.0 0.0 0.01 0.0 0.0 0.0 0.01 0.01 0.0 0.0 0.0 0.01 0.0 0.0 0.0 0.01 0.01 0.0 0.0 0.0 0.01 0.0 0.0 0.0 0.01 0.01 0.0 0.0 0.0 0.01 0.0 0.0 0.0 0.01 0.01 0.0 0.0 0.0 0.01 0.0 0.0 0.0 0.01 0.01 0.0 0.0 0.0 0.01 0.0 0.0 0.0 0.01 0.01 0.0 0.0 0.0 0.01 0.0 0.0 0.0 0.01 0.01 0.0 0.0 0.0 0.01 0.0 0.0 0.0 0.01 0.01 0.0 0.0 0.0 0.01 0.0 0.0 0.0 0.01 0.01 0.0 0.0 0.0 0.01 0.0 0.0 0.0 0.01 0.01 0.0 0.0 0.0 0.01 0.0 0.0 0.0 0.01 0.01 0.0 0.0 0.0 0.01 0.0 0.0 0.0 0.01 0.01 0.0 0.0 0.0 0.01 0.0 0.0 0.0 0.01 0.01 0.0 0.0 0.0 0.01 0.0 0.0 0.0 0.01 0.01 0.0 0.0 0.0 0.01 0.0 0.0 0.0 0.01 0.01 0.0 0.0 0.0 0.01 0.0 0.0 0.0 0.01 0.01 0.0 0.0 0.0 0.01 0.0 0.0 0.0 0.01 0.01 0.0 0.0 0.0 0.01 0.0 0.0 0.0 0.01 0.01 0.0 0.0 0.0 0.01 0.0 0.0 0.0 0.01 0.01 0.0 0.0 0.0 0.01 0.0 0.0 0.0 0.01 0.01 0.0 0.0 0.0 0.01 0.0 0.0 0.0 0.01 0.01 0.0 0.0 0.0 0.01 0.0 0.0 0.0 0.01 0.01 0.0 0.0 0.0 0.01 0.0 0.0 0.0 0.01 0.01 0.0 0.0 0.0 0.01 0.0 0.0 0.0 0.01 0.01 0.0 0.0 0.0 0.01 0.0 0.0 0.0 0.01 0.01 0.0 0.0 0.0 0.01 0.0 0.0 0.0 0.01 0.01 0.0 0.0 0.0 0.01 0.0 0.0 0.0 0.01 0.01 0.0 0.0 0.0 0.01 0.0 0.0 0.0 0.01 0.01 0.0 0.0 0.0 0.01 0.0 0.0 0.0 0.01 0.01 0.0 0.0 0.0 0.01 0.0 0.0 0.0 0.01 0.01 0.0 0.0 0.0 0.01 0.0 0.0 0.0 0.01 0.01 0.0 0.0 0.0 0.01 0.0 0.0 0.0 0.01 0.01 0.0 0.0 0.0 0.01 0.0 0.0 0.0 0.01 0.01 0.0 0.0 0.0 0.01 0.0 0.0 0.0 0.01 0.01 0.0 0.0 0.0 0.01 0.0 0.0 0.0 0.01 0.01 0.0 0.0 0.0 0.01 0.0 0.0 0.0 0.01 0.01 0.0 0.0 0.0 0.01 0.0 0.0 0.0 0.01 0.01 0.0 0.0 0.0 0.01 0.0 0.0 0.0 0.01 0.01 0.0 0.0 0.0 0.01 0.0 0.0 0.0 0.01 0.01 0.0 0.0 0.0 0.01 0.0 0.0 0.0 0.01 0.01 0.0 0.0 0.0 0.01 0.0 0.0 0.0 0.01 0.01 0.0 0.0 0.0 0.01 0.0 0.0 0.0 0.01 0.01 0.0 0.0 0.0 0.01 0.0 0.0 0.0 0.01 0.01 0.0 0.0 0.0 0.01 0.0 0.0 0.0 0.01 0.01 0.0 0.0 0.0 0.01 0.0 0.0 0.0 0.01 0.01 0.0 0.0 0.0 0.01 0.0 0.0 0.0 0.01 0.01 0.0 0.0 0.0 0.01 0.0 0.0 0.0 0.01 0.01 0.0 0.0 0.0 0.01 0.0 0.0 0.0 0.01 0.01 0.0 0.0 0.0 0.01 0.0 0.0 0.0 0.01 0.01 0.0 0.0 0.0 0.01 0.0 0.0 0.0 0.01 0.01 0.0 0.0 0.0 0.01 0.0 0.0 0.0 0.01 0.01 0.0 0.0 0.0 0.01 0.0 0.0 0.0 0.01 0.01 0.0 0.0 0.0 0.01 0.0 0.0 0.0 0.01 0.01 0.0 0.0 0.0 0.01 0.0 0.0 0.0 0.01 0.01 0.0 0.0 0.0 0.01 0.0 0.0 0.0 0.01 0.01 0.0 0.0 0.0 0.01 0.0 0.0 0.0 0.01 0.01 0.0 0.0 0.0 0.01 0.0 0.0 0.0 0.01 0.01 0.0 0.0 0.0 0.01 0.0 0.0 0.0 0.01 0.01 0.0 0.0 0.0 0.01 0.0 0.0 0.0 0.01 0.01 0.0 0.0 0.0 0.01 0.0 0.0 0.0 0.01 0.01 0.0 0.0 0.0 0.01 0.0 0.0 0.0 0.01 0.01 0.0 0.0 0.0 0.01 0.0 0.0 0.0 0.01 0.01 0.0 0.0 0.0 0.01 0.0 0.0 0.0 0.01 0.01 0.0 0.0 0.0 0.01 0.0 0.0 0.0 0.01 0.01 0.0 0.0 0.0 0.01 0.0 0.0 0.0 0.01 0.01 0.0 0.0 0.0 0.01 0.0 0.0 0.0 0.01 0.01 0.0 0.0 0.0 0.01 0.0 0.0 0.0 0.01 0.01 0.0 0.0 0.0 0.01 0.0 0.0 0.0 0.01 0.01 0.0 0.0 0.0 0.01 0.0 0.0 0.0 0.01 0.01 0.0 0.0 0.0 0.01 0.0 0.0 0.0 0.01 0.01 0.0 0.0 0.0 0.01 0.0 0.0 0.0 0.01 0.01 0.0 0.0 0.0 0.01 0.0 0.0 0.0 0.01 0.01 0.0 0.0 0.0 0.01 0.0 0.0 0.0 0.01 0.01 0.0 0.0 0.0 0.01 0.0 0.0 0.0 0.01 0.01 0.0 0.0 0.0 0.01 0.0 0.0 0.0 0.01 0.01 0.0 0.0 0.0 0.01 0.0 0.0 0.0 0.01 0.01 0.0 0.0 0.0 0.01 0.0 0.0 0.0 0.01 0.01 0.0 0.0 0.0 0.01 0.0 0.0 0.0 0.01 0.01 0.0 0.0 0.0 0.01 0.0 0.0 0.0 0.01 0.01 0.0 0.0 0.0 0.01 0.0 0.0 0.0 0.01 0.01 0.0 0.0 0.0 0.01 0.0 0.0 0.0 0.01 0.01 0.0 0.0 0.0 0.01 0.0 0.0 0.0 0.01 0.01 0.0 0.0 0.0 0.01 0.0 0.0 0.0 0.01 0.01 0.0 0.0 0.0 0.01 0.0 0.0 0.0 0.01 0.01 0.0 0.0 0.0 0.01 0.0 0.0 0.0 0.01 0.01 0.0 0.0 0.0 0.01 0.0 0.0 0.0 0.01 0.01 0.0 0.0 0.0 0.01 0.0 0.0 0.0 0.01 0.01 0.0 0.0 0.0 0.01 0.0 0.0 0.0 0.01 0.01 0.0 0.0 0.0 0.01 0.0 0.0 0.0 0.01 0.01 0.0 0.0 0.0 0.01 0.0 0.0 0.0 0.01 0.01 0.0 0.0 0.0 0.01 0.0 0.0 0.0 0.01 0.01 0.0 0.0 0.0 0.01 0.0 0.0 0.0 0.01 0.01 0.0 0.0 0.0 0.01 0.0 0.0 0.0 0.01 0.01 0.0 0.0 0.0 0.01 0.0 0.0 0.0 0.01 0.01 0.0 0.0 0.0 0.01 0.0 0.0 0.0 0.01 0.01 0.0 0.0 0.0 0.01 0.0 0.0 0.0 0.01 0.01 0.0 0.0 0.0 0.01 0.0 0.0 0.0 0.01 0.01 0.0 0.0 0.0 0.01 0.0 0.0 0.0 0.01 0.01 0.0 0.0 0.0 0.01 0.0 0.0 0.0 0.01 0.01 0.0 0.0 0.0 0.01 0.0 0.0 0.0 0.01 0.01 0.0 0.0 0.0 0.01 0.0 0.0 0.0 0.01 0.01 0.0 0.0 0.0 0.01 0.0 0.0 0.0 0.01 0.01 0.0 0.0 0.0 0.01 0.0 0.0 0.0 0.01 0.01 0.0 0.0 0.0 0.01 0.0 0.0 0.0 0.01 0.01 0.0 0.0 0.0 0.01 0.0 0.0 0.0 0.01 0.01 0.0 0.0 0.0 0.01 0.0 0.0 0.0 0.01 0.01 0.0 0.0 0.0 0.01 0.0 0.0 0.0 0.01 0.01 0.0 0.0 0.0 0.01 0.0 0.0 0.0 0.01 0.01 0.0 0.0 0.0 0.01 0.0 0.0 0.0 0.01 0.01 0.0 0.0 0.0 0.01 0.0 0.0 0.0 0.01 0.01 0.0 0.0 0.0 0.01 0.0 0.0 0.0 0.01 0.01 0.0 0.0 0.0 0.01 0.0 0.0 0.0 0.01 0.01 0.0 0.0 0.0 0.01 0.0 0.0 0.0 0.01 0.01 0.0 0.0 0.0 0.01 0.0 0.0 0.0 0.01 0.01 0.0 0.0 0.0 0.01 0.0 0.0 0.0 0.01 0.01 0.0 0.0 0.0 0.01 0.0 0.0 0.0 0.01 0.01 0.0 0.0 0.0 0.01 0.0 0.0 0.0 0.01 0.01 0.0 0.0 0.0 0.01 0.0 0.0 0.0 0.01 0.01 0.0 0.0 0.0 0.01 0.0 0.0 0.0 0.01 0.01 0.0 0.0 0.0 0.01 0.0 0.0 0.0 0.01 0.01 0.0 0.0 0.0 0.01 0.0 0.0 0.0 0.01 0.01 0.0 0.0 0.0 0.01 0.0 0.0 0.0 0.01 0.01 0.0 0.0 0.0 0.01 0.0 0.0 0.0 0.01 0.01 0.0 0.0 0.0 0.01 0.0 0.0 0.0 0.01 0.01 0.0 0.0 0.0 0.01 0.0 0.0 0.0 0.01 0.01 0.0 0.0 0.0 0.01 0.0 0.0 0.0 0.01 0.01 0.0 0.0 0.0 0.01 0.0 0.0 0.0 0.01 0.01 0.0 0.0 0.0 0.01 0.0 0.0 0.0 0.01 0.01 0.0 0.0 0.0 0.01 0.0 0.0 0.0 0.01 0.01 0.0 0.0 0.0 0.01 0.0 0.0 0.0 0.01 0.01 0.0 0.0 0.0 0.01 0.0 0.0 0.0 0.01 0.01 0.0 0.0 0.0 0.01 0.0 0.0 0.0 0.01 0.01 0.0 0.0 0.0 0.01 0.0 0.0 0.0 0.01 0.01 0.0 0.0 0.0 0.01 0.0 0.0 0.0 0.01 0.01 0.0 0.0 0.0 0.01 0.0 0.0 0.0 0.01 0.01 0.0 0.0 0.0 0.01 0.0 0.0 0.0 0.01 0.01 0.0 0.0 0.0 0.01 0.0 0.0 0.0 0.01 0.01 0.0 0.0 0.0 0.01 0.0 0.0 0.0 0.01 0.01 0.0 0.0 0.0 0.01 0.0 0.0 0.0 0.01 0.01 0.0 0.0 0.0 0.01 0.0 0.0 0.0 0.01 0.01 0.0 0.0 0.0 0.01 0.0 0.0 0.0 0.01 0.01 0.0 0.0 0.0 0.01 0.0 0.0 0.0 0.01 0.01 0.0 0.0 0.0 0.01 0.0 0.0 0.0 0.01 0.01 0.0 0.0 0.0 0.01 0.0 0.0 0.0 0.01 0.01 0.0 0.0 0.0 0.01 0.0 0.0 0.0 0.01 0.01 0.0 0.0 0.0 0.01 0.0 0.0 0.0 0.01 0.01 0.0 0.0 0.0 0.01 0.0 0.0 0.0 0.01 0.01 0.0 0.0 0.0 0.01 0.0 0.0 0.0 0.01 0.01 0.0 0.0 0.0 0.01 0.0 0.0 0.0 0.01 0.01 0.0 0.0 0.0 0.01 0.0 0.0 0.0 0.01 0.01 0.0 0.0 0.0 0.01 0.0 0.0 0.0 0.01 0.01 0.0 0.0 0.0 0.01 0.0 0.0 0.0 0.01 0.01 0.0 0.0 0.0 0.01 0.0 0.0 0.0 0.01 0.01 0.0 0.0 0.0 0.01 0.0 0.0 0.0 0.01 0.01 0.0 0.0 0.0 0.01 0.0 0.0 0.0 0.01 0.01 0.0 0.0 0.0 0.01 0.0 0.0 0.0 0.01 0.01 0.0 0.0 0.0 0.01 0.0 0.0 0.0 0.01 0.01 0.0 0.0 0.0 0.01 0.0 0.0 0.0 0.01 0.01 0.0 0.0 0.0 0.01 0.0 0.0 0.0 0.01 0.01 0.0 0.0 0.0 0.01 0.0 0.0 0.0 0.01 0.01 0.0 0.0 0.0 0.01 0.0 0.0 0.0 0.01 0.01 0.0 0.0 0.0 0.01 0.0 0.0 0.0 0.01 0.01 0.0 0.0 0.0 0.01 0.0 0.0 0.0 0.01 0.01 0.0 0.0 0.0 0.01 0.0 0.0 0.0 0.01 0.01 0.0 0.0 0.0 0.01 0.0 0.0 0.0 0.01 0.01 0.0 0.0 0.0 0.01 0.0 0.0 0.0 0.01 0.01 0.0 0.0 0.0 0.01 0.0 0.0 0.0 0.01 0.01 0.0 0.0 0.0 0.01 0.0 0.0 0.0 0.01 0.01 0.0 0.0 0.0 0.01 0.0 0.0 0.0 0.01 0.01 0.0 0.0 0.0 0.01 0.0 0.0 0.0 0.01 0.01 0.0 0.0 0.0 0.01 0.0 0.0 0.0 0.01 0.01 0.0 0.0 0.0 0.01 0.0 0.0 0.0 0.01 0.01 0.0 0.0 0.0 0.01 0.0 0.0 0.0 0.01 0.01 0.0 0.0 0.0 0.01 0.0 0.0 0.0 0.01 0.01 0.0 0.0 0.0 0.01 0.0 0.0 0.0 0.01 0.01 0.0 0.0 0.0 0.01 0.0 0.0 0.0 0.01 0.01 0.0 0.0 0.0 0.01 0.0 0.0 0.0 0.01 0.01 0.0 0.0 0.0 0.01 0.0 0.0 0.0 0.01 0.01 0.0 0.0 0.0 0.01 0.0 0.0 0.0 0.01 0.01 0.0 0.0 0.0 0.01 0.0 0.0 0.0 0.01 0.01 0.0 0.0 0.0 0.01 0.0 0.0 0.0 0.01 0.01 0.0 0.0 0.0 0.01 0.0 0.0 0.0 0.01 0.01 0.0 0.0 0.0 0.01 0.0 0.0 0.0 0.01 0.01 0.0 0.0 0.0 0.01 0.0 0.0 0.0 0.01 0.01 0.0 0.0 0.0 0.01 0.0 0.0 0.0 0.01 0.01 0.0 0.0 0.0 0.01 0.0 0.0 0.0 0.01 0.01 0.0 0.0 0.0 0.01 0.0 0.0 0.0 0.01 0.01 0.0 0.0 0.0 0.01 0.0 0.0 0.0 0.01 0.01 0.0 0.0 0.0 0.01 0.0 0.0 0.0 0.01 0.01 0.0 0.0 0.0 0.01 0.0 0.0 0.0 0.01 0.01 0.0 0.0 0.0 0.01 0.0 0.0 0.0 0.01 0.01 0.0 0.0 0.0 0.01 0.0 0.0 0.0 0.01 0.01 0.0 0.0 0.0 0.01 0.0 0.0 0.0 0.01 0.01 0.0 0.0 0.0 0.01 0.0 0.0 0.0 0.01 0.01 0.0 0.0 0.0 0.01 0.0 0.0 0.0 0.01 0.01 0.0 0.0 0.0 0.01 0.0 0.0 0.0 0.01 0.01 0.0 0.0 0.0 0.01 0.0 0.0 0.0 0.01 0.01 0.0 0.0 0.0 0.01 0.0 0.0 0.0 0.01 0.01 0.0 0.0 0.0 0.01 0.0 0.0 0.0 0.01 0.01 0.0 0.0 0.0 0.01 0.0 0.0 0.0 0.01 0.01 0.0 0.0 0.0 0.01 0.0 0.0 0.0 0.01 0.01 0.0 0.0 0.0 0.01 0.0 0.0 0.0 0.01 0.01 0.0 0.0 0.0 0.01 0.0 0.0 0.0 0.01 0.01 0.0 0.0 0.0 0.01 0.0 0.0 0.0 0.01 0.01 0.0 0.0 0.0 0.01 0.0 0.0 0.0 0.01 0.01 0.0 0.0 0.0 0.01 0.0 0.0 0.0 0.01 0.01 0.0 0.0 0.0 0.01 0.0 0.0 0.0 0.01 0.01 0.0 0.0 0.0 0.01 0.0 0.0 0.0 0.01 0.01 0.0 0.0 0.0 0.01 0.0 0.0 0.0 0.01 0.01 0.0 0.0 0.0 0.01 0.0 0.0 0.0 0.01 0.01 0.0 0.0 0.0 0.01 0.0 0.0 0.0 0.01 0.01 0.0 0.0 0.0 0.01 0.0 0.0 0.0 0.01 0.01 0.0 0.0 0.0 0.01 0.0 0.0 0.0 0.01 0.01 0.0 0.0 0.0 0.01 0.0 0.0 0.0 0.01 0.01 0.0 0.0 0.0 0.01 0.0 0.0 0.0 0.01 0.01 0.0 0.0 0.0 0.01 0.0 0.0 0.0 0.01 0.01 0.0 0.0 0.0 0.01 0.0 0.0 0.0 0.01 0.01 0.0 0.0 0.0 0.01 0.0 0.0 0.0 0.01 0.01 0.0 0.0 0.0 0.01 0.0 0.0 0.0 0.01 0.01 0.0 0.0 0.0 0.01 0.0 0.0 0.0 0.01 0.01 0.0 0.0 0.0 0.01 0.0 0.0 0.0 0.01 0.01 0.0 0.0 0.0 0.01 0.0 0.0 0.0 0.01 0.01 0.0 0.0 0.0 0.01 0.0 0.0 0.0 0.01 0.01 0.0 0.0 0.0 0.01 0.0 0.0 0.0 0.01 0.01 0.0 0.0 0.0 0.01 0.0 0.0 0.0 0.01 0.01 0.0 0.0 0.0 0.01 0.0 0.0 0.0 0.01 0.01 0.0 0.0 0.0 0.01 0.0 0.0 0.0 0.01 0.01 0.0 0.0 0.0 0.01 0.0 0.0 0.0 0.01 0.01 0.0 0.0 0.0 0.01 0.0 0.0 0.0 0.01 0.01 0.0 0.0 0.0 0.01 0.0 0.0 0.0 0.01 0.01 0.0 0.0 0.0 0.01 0.0 0.0 0.0 0.01 0.01 0.0 0.0 0.0 0.01 0.0 0.0 0.0 0.01 0.01 0.0 0.0 0.0 0.01 0.0 0.0 0.0 0.01 0.01 0.0 0.0 0.0 0.01 0.0 0.0 0.0 0.01 0.01 0.0 0.0 0.0 0.01 0.0 0.0 0.0 0.01 0.01 0.0 0.0 0.0 0.01 0.0 0.0 0.0 0.01 0.01 0.0 0.0 0.0 0.01 0.0 0.0 0.0 0.01 0.01 0.0 0.0 0.0 0.01 0.0 0.0 0.0 0.01 0.01 0.0 0.0 0.0 0.01 0.0 0.0 0.0 0.01 0.01 0.0 0.0 0.0 0.01 0.0 0.0 0.0 0.01 0.01 0.0 0.0 0.0 0.01 0.0 0.0 0.0 0.01 0.01 0.0 0.0 0.0 0.01 0.0 0.0 0.0 0.01 0.01 0.0 0.0 0.0 0.01 0.0 0.0 0.0 0.01 0.01 0.0 0.0 0.0 0.01 0.0 0.0 0.0 0.01 0.01 0.0 0.0 0.0 0.01 0.0 0.0 0.0 0.01 0.01 0.0 0.0 0.0 0.01 0.0 0.0 0.0 0.01 0.01 0.0 0.0 0.0 0.01 0.0 0.0 0.0 0.01 0.01 0.0 0.0 0.0 0.01 0.0 0.0 0.0 0.01 0.01 0.0 0.0 0.0 0.01 0.0 0.0 0.0 0.01 0.01 0.0 0.0 0.0 0.01 0.0 0.0 0.0 0.01 0.01 0.0 0.0 0.0 0.01 0.0 0.0 0.0 0.01 0.01 0.0 0.0 0.0 0.01 0.0 0.0 0.0 0.01 0.01 0.0 0.0 0.0 0.01 0.0 0.0 0.0 0.01 0.01 0.0 0.0 0.0 0.01 0.0 0.0 0.0 0.01 0.01 0.0 0.0 0.0 0.01 0.0 0.0 0.0 0.01 0.01 0.0 0.0 0.0 0.01 0.0 0.0 0.0 0.01 0.01 0.0 0.0 0.0 0.01 0.0 0.0 0.0 0.01 0.01 0.0 0.0 0.0 0.01 0.0 0.0 0.0 0.01 0.01 0.0 0.0 0.0 0.01 0.0 0.0 0.0 0.01 0.01 0.0 0.0 0.0 0.01 0.0 0.0 0.0 0.01 0.01 0.0 0.0 0.0 0.01 0.0 0.0 0.0 0.01 0.01 0.0 0.0 0.0 0.01 0.0 0.0 0.0 0.01 0.01 0.0 0.0 0.0 0.01 0.0 0.0 0.0 0.01 0.01 0.0 0.0 0.0 0.01 0.0 0.0 0.0 0.01 0.01 0.0 0.0 0.0 0.01 0.0 0.0 0.0 0.01 0.01 0.0 0.0 0.0 0.01 0.0 0.0 0.0 0.01 0.01 0.0 0.0 0.0 0.01 0.0 0.0 0.0 0.01 0.01 0.0 0.0 0.0 0.01 0.0 0.0 0.0 0.01 0.01 0.0 0.0 0.0 0.01 0.0 0.0 0.0 0.01 0.01 0.0 0.0 0.0 0.01 0.0 0.0 0.0 0.01 0.01 0.0 0.0 0.0 0.01 0.0 0.0 0.0 0.01 0.01 0.0 0.0 0.0 0.01 0.0 0.0 0.0 0.01 0.01 0.0 0.0 0.0 0.01 0.0 0.0 0.0 0.01 0.01 0.0 0.0 0.0 0.01 0.0 0.0 0.0 0.01 0.01 0.0 0.0 0.0 0.01 0.0 0.0 0.0 0.01 0.01 0.0 0.0 0.0 0.01 0.0 0.0 0.0 0.01 0.01 0.0 0.0 0.0 0.01 0.0 0.0 0.0 0.01 0.01 0.0 0.0 0.0 0.01 0.0 0.0 0.0 0.01 0.01 0.0 0.0 0.0 0.01 0.0 0.0 0.0 0.01 0.01 0.0 0.0 0.0 0.01 0.0 0.0 0.0 0.01 0.01 0.0 0.0 0.0 0.01 0.0 0.0 0.0 0.01 0.01 0.0 0.0 0.0 0.01 0.0 0.0 0.0 0.01 0.01 0.0 0.0 0.0 0.01 0.0 0.0 0.0 0.01 0.01 0.0 0.0 0.0 0.01 0.0 0.0 0.0 0.01 0.01 0.0 0.0 0.0 0.01 0.0 0.0 0.0 0.01 0.01 0.0 0.0 0.0 0.01 0.0 0.0 0.0 0.01 0.01 0.0 0.0 0.0 0.01 0.0 0.0 0.0 0.01 0.01 0.0 0.0 0.0 0.01 0.0 0.0 0.0 0.01 0.01 0.0 0.0 0.0 0.01 0.0 0.0 0.0 0.01 0.01 0.0 0.0 0.0 0.01 0.0 0.0 0.0 0.01 0.01 0.0 0.0 0.0 0.01 0.0 0.0 0.0 0.01 0.01 0.0 0.0 0.0 0.01 0.0 0.0 0.0 0.01 0.01 0.0 0.0 0.0 0.01 0.0 0.0 0.0 0.01 0.009998800715776903 0.0 1.52929213402965e-12 0.0 0.01 0.0 1.5292921340279957e-12 0.0 0.009999901001470126 0.009998490841702573 0.0 6.485129371634382e-13 0.0 0.01 0.0 6.485129371634382e-13 0.0 0.009999954500310534 0.00999822647192187 0.0 1.288095855254911e-13 0.0 0.01 0.0 1.288095855253877e-13 0.0 0.010000007800009127 0.009998017089945816 0.0 -2.910594920132617e-14 0.0 0.01 0.0 -2.910594920132617e-14 0.0 0.010000050300379518 0.009997862685412369 0.0 -6.4621490917265906e-15 0.0 0.01 0.0 -6.4621490917265906e-15 0.0 0.010000074700837023 0.009998927172668471 0.0 1.6925963024664964e-12 0.0 0.01 0.0 1.6925963024664964e-12 0.0 0.00999982700448922 0.00999854681682259 0.0 6.13768518077088e-13 0.0 0.01 0.0 6.13768518077088e-13 0.0 0.009999876002306354 0.009998186493440224 0.0 -3.4707623934134607e-13 0.0 0.01 0.0 -3.4707623934134607e-13 0.0 0.009999945000453751 0.009997880673921882 0.0 -7.628222434160348e-13 0.0 0.01 0.0 -7.62822243416862e-13 0.0 0.010000013650027947 0.009997640335465355 0.0 -6.95587304221494e-13 0.0 0.01 0.0 -6.95587304221494e-13 0.0 0.01000006740068142 0.009997466463146696 0.0 -4.336951909620753e-13 0.0 0.01 0.0 -4.336951909620753e-13 0.0 0.010000099101473146 0.009998750734138778 0.0 1.321623157706496e-12 0.0 0.01 0.0 1.321623157706496e-12 0.0 0.009999792506458214 0.009998316925006587 0.0 4.404480340673308e-13 0.0 0.01 0.0 4.404480340677444e-13 0.0 0.009999854503175459 0.009997910155300226 0.0 -5.054839477734033e-13 0.0 0.01 0.0 -5.054839477734033e-13 0.0 0.009999940000539996 0.009997570385740749 0.0 -9.81777229349232e-13 0.0 0.01 0.0 -9.81777229349232e-13 0.0 0.010000020000060004 0.009997310085735213 0.0 -9.396829967297964e-13 0.0 0.01 0.0 -9.396829967297964e-13 0.0 0.010000082501020954 0.009997127737957474 0.0 -6.67086060033506e-13 0.0 0.01 0.0 -6.67086060033506e-13 0.0 0.010000118652111718 0.009998569806876377 0.0 1.4782374733643042e-11 0.0 0.01 0.0 1.4782374733643042e-11 0.0 0.009999768508038527 0.009998079553358989 0.0 5.3633672558758694e-12 0.0 0.01 0.0 5.3633672558758694e-12 0.0 0.009999843003697254 0.009997629842913068 0.0 1.1785827125035607e-12 0.0 0.01 0.0 1.1785827125027335e-12 0.0 0.009999937000595349 0.009997260126447563 0.0 2.1905886920623376e-13 0.0 0.01 0.0 2.1905886920623376e-13 0.0 0.01000002635010415 0.009996984364657173 0.0 -2.943476426902959e-13 0.0 0.01 0.0 -2.943476426907095e-13 0.0 0.01000009425133248 0.00999679653998117 0.0 -4.2525154088766136e-13 0.0 0.01 0.0 -4.2525154088766136e-13 0.0 0.010000132802645438 0.009998347409748731 0.0 1.3325738648000876e-09 0.0 0.01 0.0 1.3325738647983936e-09 0.0 0.009999754009077292 0.009997799726393771 0.0 7.491419394087831e-10 0.0 0.01 0.0 7.491419394083596e-10 0.0 0.009999835504059008 0.009997307587753046 0.0 2.6238695622560884e-10 0.0 0.01 0.0 2.6238695622560884e-10 0.0 0.009999940500531043 0.009996910432404242 0.0 3.094989633587211e-11 0.0 0.01 0.0 3.094989633587211e-11 0.0 0.010000033700170354 0.009996623211175832 0.0 1.4859570645663309e-12 0.0 0.01 0.0 1.4859570645663309e-12 0.0 0.010000102551577504 0.009996436905251746 0.0 3.5216061870236375e-13 0.0 0.01 0.0 3.5216061870277734e-13 0.0 0.010000139652925387 0.009998022586699924 0.0 1.175525995586403e-08 0.0 0.01 0.0 1.175525995586403e-08 0.0 0.009999745509735857 0.009997422996492774 0.0 7.4496388480747855e-09 0.0 0.01 0.0 7.449638848068009e-09 0.0 0.00999983450411675 0.00999689494680405 0.0 3.4413637905282834e-09 0.0 0.01 0.0 3.4413637905248952e-09 0.0 0.00999994500045552 0.009996483355888179 0.0 9.52690899015977e-10 0.0 0.01 0.0 9.52690899015977e-10 0.0 0.010000040050240737 0.009996194173750039 0.0 1.0921128595637973e-10 0.0 0.01 0.0 1.0921128595637973e-10 0.0 0.010000107901746396 0.009996007392410855 0.0 1.6703125923869256e-12 0.0 0.01 0.0 1.6703125923869256e-12 0.0 0.010000144053112635 0.009997497440099682 0.0 4.932622378766064e-08 0.0 0.01 0.0 4.932622378766064e-08 0.0 0.009999739010582782 0.009996861478337825 0.0 3.3802852294456784e-08 0.0 0.01 0.0 3.380285229448389e-08 0.0 0.009999836004205754 0.00999633801254897 0.0 1.7031351677137532e-08 0.0 0.01 0.0 1.7031351677144308e-08 0.0 0.009999951500396365 0.009995942970265046 0.0 5.940053301263089e-09 0.0 0.01 0.0 5.940053301263089e-09 0.0 0.010000048350355955 0.009995666318747874 0.0 1.195816672801394e-09 0.0 0.01 0.0 1.195816672801394e-09 0.0 0.01000011375194111 0.009995495046021112 0.0 8.685199481595837e-11 0.0 0.01 0.0 8.68519948159319e-11 0.0 0.010000146503219417 0.009996649687521867 0.0 1.4323682797083744e-07 0.0 0.01 0.0 1.4323682797078323e-07 0.0 0.00999972801417596 0.009996020877798825 0.0 1.0081204461135198e-07 0.0 0.01 0.0 1.0081204461135198e-07 0.0 0.00999983100580929 0.009995566949952338 0.0 5.282699747495524e-08 0.0 0.01 0.0 5.282699747495524e-08 0.0 0.009999958500677189 0.009995245393154814 0.0 2.0139458129638194e-08 0.0 0.01 0.0 2.013945812964497e-08 0.0 0.010000060050601787 0.00999502621324944 0.0 5.046691916155941e-09 0.0 0.01 0.0 5.046691916157635e-09 0.0 0.010000123552293563 0.009994887423440329 0.0 6.490702889853645e-10 0.0 0.01 0.0 6.490702889853645e-10 0.0 0.010000152853504621 0.009995356252565158 0.0 3.2539579960242423e-07 0.0 0.01 0.0 3.253957996023158e-07 0.0 0.009999708528637267 0.009994831517503739 0.0 2.2727438246932397e-07 0.0 0.01 0.0 2.2727438246932397e-07 0.0 0.009999821012559352 0.009994548962476238 0.0 1.1999843185843363e-07 0.0 0.01 0.0 1.1999843185843363e-07 0.0 0.009999969502301049 0.009994376747042498 0.0 4.741089979959953e-08 0.0 0.01 0.0 4.741089979958598e-08 0.0 0.010000084001395834 0.009994256951208619 0.0 1.3173820049802617e-08 0.0 0.01 0.0 1.3173820049795841e-08 0.0 0.010000150403419162 0.009994181082913538 0.0 2.1773015012019815e-09 0.0 0.01 0.0 2.1773015012019815e-09 0.0 0.01000017625466046 0.009993599203625697 0.0 5.930422719665389e-07 0.0 0.01 0.0 5.930422719666473e-07 0.0 0.009999644571755215 0.009993320722666857 0.0 4.0616577818262684e-07 0.0 0.01 0.0 4.0616577818262684e-07 0.0 0.009999795531040306 0.009993312221708944 0.0 2.1217449013114257e-07 0.0 0.01 0.0 2.1217449013119678e-07 0.0 0.009999990006773724 0.009993349142052627 0.0 8.466637227620114e-08 0.0 0.01 0.0 8.466637227622824e-08 0.0 0.010000134753799912 0.009993365109204648 0.0 2.4720254653572257e-08 0.0 0.01 0.0 2.472025465356548e-08 0.0 0.010000205556429585 0.00999337009917422 0.0 4.627845904625285e-09 0.0 0.01 0.0 4.627845904626132e-09 0.0 0.01000022755777036 0.009991622647664797 0.0 8.510327163683065e-07 0.0 0.01 0.0 8.510327163685234e-07 0.0 0.009999475650019506 0.009991691416512667 0.0 5.775396763944797e-07 0.0 0.01 0.0 5.775396763945881e-07 0.0 0.009999743559956281 0.00999197767730095 0.0 2.976239395501598e-07 0.0 0.01 0.0 2.97623939550214e-07 0.0 0.010000035663491882 0.009992220589422599 0.0 1.1856640492861632e-07 0.0 0.01 0.0 1.1856640492861632e-07 0.0 0.01000022805991222 0.009992372236488889 0.0 3.5357889677687065e-08 0.0 0.01 0.0 3.535788967768029e-08 0.0 0.010000314965067524 0.009992456045290136 0.0 7.023930768723356e-09 0.0 0.01 0.0 7.023930768723356e-09 0.0 0.01000032666601331 0.009989996173523868 0.0 9.716125377384147e-07 0.0 0.01 0.0 9.716125377381979e-07 0.0 0.009999413693383275 0.009990236880345156 0.0 6.520014275634371e-07 0.0 0.01 0.0 6.520014275635455e-07 0.0 0.00999973157466177 0.009990695020161127 0.0 3.325754601922167e-07 0.0 0.01 0.0 3.3257546019216247e-07 0.0 0.0100001382194766 0.009991060005431457 0.0 1.3149574274920863e-07 0.0 0.01 0.0 1.3149574274923573e-07 0.0 0.010000397476293344 0.009991298371175437 0.0 3.9283387313111416e-08 0.0 0.01 0.0 3.928338731311819e-08 0.0 0.010000491236426328 0.009991442497184437 0.0 7.902416648174004e-09 0.0 0.01 0.0 7.902416648174004e-09 0.0 0.010000485385346928 0.009988838838323967 0.0 9.106168453867436e-07 0.0 0.01 0.0 9.106168453869605e-07 0.0 0.010000364894527927 0.009989063520058844 0.0 5.928451092451683e-07 0.0 0.01 0.0 5.928451092450599e-07 0.0 0.010000192908375966 0.009989513531200261 0.0 2.962721759937098e-07 0.0 0.01 0.0 2.962721759937098e-07 0.0 0.010000436541767122 0.00998989384282714 0.0 1.1518641294952438e-07 0.0 0.01 0.0 1.1518641294953793e-07 0.0 0.010000675870506478 0.009990156553286871 0.0 3.377911286004087e-08 0.0 0.01 0.0 3.3779112860047645e-08 0.0 0.010000748634230935 0.009990332537074622 0.0 6.552612274949133e-09 0.0 0.01 0.0 6.5526122749482856e-09 0.0 0.01000071347635646 0.009987823341595268 0.0 6.561664929570369e-07 0.0 0.01 0.0 6.561664929571453e-07 0.0 0.010001566332594001 0.009988016601645264 0.0 4.228428794339229e-07 0.0 0.01 0.0 4.228428794339229e-07 0.0 0.010001074900141344 0.009988376304467023 0.0 2.0732975886919754e-07 0.0 0.01 0.0 2.0732975886919754e-07 0.0 0.01000098305139567 0.0099886961962478 0.0 7.832818682357789e-08 0.0 0.01 0.0 7.832818682357789e-08 0.0 0.010001076324667705 0.00998893887943403 0.0 2.1897161659089812e-08 0.0 0.01 0.0 2.1897161659089812e-08 0.0 0.01000108222572854 0.009989122772886262 0.0 3.812576972411353e-09 0.0 0.01 0.0 3.812576972410929e-09 0.0 0.010000998699592395 0.009986773307750397 0.0 3.6077504566287867e-07 0.0 0.01 0.0 3.6077504566285157e-07 0.0 0.010002383171200982 0.00998693017578653 0.0 2.3079567615171838e-07 0.0 0.01 0.0 2.3079567615169128e-07 0.0 0.010001887742401109 0.009987185176956823 0.0 1.1078561972880101e-07 0.0 0.01 0.0 1.1078561972880101e-07 0.0 0.010001602436931722 0.009987424262454048 0.0 3.979958741859554e-08 0.0 0.01 0.0 3.979958741859554e-08 0.0 0.01000153550383131 0.009987627997913895 0.0 1.0027402192605118e-08 0.0 0.01 0.0 1.0027402192605118e-08 0.0 0.010001454417253013 0.009987804346428729 0.0 1.3589764449918804e-09 0.0 0.01 0.0 1.3589764449916686e-09 0.0 0.01000131861076458 0.009985609127698221 0.0 1.5037772658185505e-07 0.0 0.01 0.0 1.503777265818415e-07 0.0 0.010002844466584358 0.00998571765750133 0.0 9.411485138696897e-08 0.0 0.01 0.0 9.411485138696219e-08 0.0 0.01000245645616047 0.009985874486265764 0.0 4.282120588089519e-08 0.0 0.01 0.0 4.282120588089519e-08 0.0 0.01000213738534259 0.0099860412813936 0.0 1.3831769015479656e-08 0.0 0.01 0.0 1.383176901548135e-08 0.0 0.010001972283360583 0.009986204599561732 0.0 2.7549049863354527e-09 0.0 0.01 0.0 2.7549049863354527e-09 0.0 0.01000182229799564 0.009986367925769566 0.0 1.8932232172675682e-10 0.0 0.01 0.0 1.8932232172678329e-10 0.0 0.010001653259899894 0.009984270689959692 0.0 4.426843037005237e-08 0.0 0.01 0.0 4.426843037005915e-08 0.0 0.010003102493517208 0.009984327421699798 0.0 2.5650975872976042e-08 0.0 0.01 0.0 2.5650975872976042e-08 0.0 0.010002813687178808 0.009984414014329862 0.0 1.0240765876909374e-08 0.0 0.01 0.0 1.0240765876909374e-08 0.0 0.010002535163748265 0.009984524497944102 0.0 2.505078541193252e-09 0.0 0.01 0.0 2.505078541193252e-09 0.0 0.010002348477043628 0.009984651907041762 0.0 2.2699610443818768e-10 0.0 0.01 0.0 2.2699610443818768e-10 0.0 0.010002172557796082 0.009984800723062718 0.0 -2.212817732344037e-11 0.0 0.01 0.0 -2.212817732343706e-11 0.0 0.010001984490574161 0.009982732329072931 0.0 6.539117212622823e-09 0.0 0.01 0.0 6.539117212622823e-09 0.0 0.010003281864895333 0.009982749738614653 0.0 3.061648556755628e-09 0.0 0.01 0.0 3.061648556755416e-09 0.0 0.01000305900305409 0.009982789034782176 0.0 7.269870959286084e-10 0.0 0.01 0.0 7.269870959286084e-10 0.0 0.010002838107771389 0.009982858674702234 0.0 -4.8409525150917547e-11 0.0 0.01 0.0 -4.840952515091424e-11 0.0 0.01000267292129443 0.00998295766538262 0.0 -6.357845808243659e-11 0.0 0.01 0.0 -6.357845808242997e-11 0.0 0.010002501438266071 0.009983089989182544 0.0 -1.9796681472180868e-11 0.0 0.01 0.0 -1.9796681472180868e-11 0.0 0.010002313802804839 0.009980991337084744 0.0 -9.160433302790211e-11 0.0 0.01 0.0 -9.160433302790872e-11 0.0 0.010003479365055122 0.009980975428191043 0.0 -2.905354289502096e-10 0.0 0.01 0.0 -2.9053542895023607e-10 0.0 0.010003291674555197 0.009980980399712151 0.0 -2.54776866801789e-10 0.0 0.01 0.0 -2.5477686680180226e-10 0.0 0.01000311865829804 0.009981015200567947 0.0 -1.4706974455816684e-10 0.0 0.01 0.0 -1.4706974455816684e-10 0.0 0.010002988138812615 0.00998109076939398 0.0 -6.27180799279295e-11 0.0 0.01 0.0 -6.27180799279295e-11 0.0 0.01000282639782729 0.009981207606154672 0.0 -1.8372920161685675e-11 0.0 0.01 0.0 -1.8372920161685675e-11 0.0 0.010002637292930355 0.009979014245612516 0.0 -2.316545740141516e-10 0.0 0.01 0.0 -2.316545740141516e-10 0.0 0.010003740397539953 0.009978970025478756 0.0 -3.588743995044954e-10 0.0 0.01 0.0 -3.588743995045219e-10 0.0 0.010003563403772443 0.009978947170359145 0.0 -2.85741113717674e-10 0.0 0.01 0.0 -2.85741113717674e-10 0.0 0.01000341875238137 0.0099789615790032 0.0 -1.5992867585813648e-10 0.0 0.01 0.0 -1.5992867585813648e-10 0.0 0.010003315598250087 0.009979023189081821 0.0 -6.533073145064646e-11 0.0 0.01 0.0 -6.533073145064646e-11 0.0 0.010003160197396182 0.009979134487600412 0.0 -1.7585592268704274e-11 0.0 0.01 0.0 -1.7585592268703446e-11 0.0 0.010002971523968635 0.009976745865444867 0.0 -2.7820158614621596e-10 0.0 0.01 0.0 -2.7820158614621596e-10 0.0 0.010004078643944174 0.009976691745206915 0.0 -4.242901228752026e-10 0.0 0.01 0.0 -4.242901228751761e-10 0.0 0.010003895324851844 0.009976657982568781 0.0 -3.307955646450292e-10 0.0 0.01 0.0 -3.307955646450292e-10 0.0 0.010003762372252102 0.009976668905737713 0.0 -1.801111117308567e-10 0.0 0.01 0.0 -1.8011111173084348e-10 0.0 0.01000367147096551 0.00997673047336095 0.0 -7.025275865236906e-11 0.0 0.01 0.0 -7.025275865237237e-11 0.0 0.010003515502945586 0.009976852122419121 0.0 -1.699234807323774e-11 0.0 0.01 0.0 -1.699234807323774e-11 0.0 0.01000331709974294 0.009974147598685588 0.0 -3.2188883335975616e-10 0.0 0.01 0.0 -3.218888333597694e-10 0.0 0.010004485416039745 0.00997410195484054 0.0 -5.026726812997702e-10 0.0 0.01 0.0 -5.026726812997702e-10 0.0 0.01000429035949911 0.009974086574990397 0.0 -3.8776815199846963e-10 0.0 0.01 0.0 -3.8776815199846963e-10 0.0 0.010004155889277562 0.00997411336574303 0.0 -2.0645482351364922e-10 0.0 0.01 0.0 -2.0645482351363599e-10 0.0 0.01000406352549465 0.009974202669811028 0.0 -7.723243566047347e-11 0.0 0.01 0.0 -7.723243566047678e-11 0.0 0.010003892871988536 0.009974351019092576 0.0 -1.6813006737232432e-11 0.0 0.01 0.0 -1.6813006737232432e-11 0.0 0.01000368023061816 0.009971191469623419 0.0 -3.4965580525517037e-10 0.0 0.01 0.0 -3.4965580525515713e-10 0.0 0.010004972957087225 0.009971182547194597 0.0 -5.915963098414756e-10 0.0 0.01 0.0 -5.915963098414491e-10 0.0 0.010004753887769967 0.009971212784411548 0.0 -4.57730372301384e-10 0.0 0.01 0.0 -4.57730372301384e-10 0.0 0.010004597418496231 0.009971292592157805 0.0 -2.409033532532121e-10 0.0 0.01 0.0 -2.409033532532121e-10 0.0 0.0100044820114643 0.009971432879983904 0.0 -8.814444125331056e-11 0.0 0.01 0.0 -8.814444125331056e-11 0.0 0.010004290359499074 0.00997163266403405 0.0 -1.8531377014808445e-11 0.0 0.01 0.0 -1.8531377014807618e-11 0.0 0.0100040542141658 0.009967871997214403 0.0 -3.485861877111624e-10 0.0 0.01 0.0 -3.4858618771117565e-10 0.0 0.010005533389373584 0.00996794380144891 0.0 -6.944077340587502e-10 0.0 0.01 0.0 -6.944077340587766e-10 0.0 0.01000526881113233 0.009968055720108473 0.0 -5.479839335481022e-10 0.0 0.01 0.0 -5.479839335481022e-10 0.0 0.01000505803497128 0.00996822459566396 0.0 -2.9014294598961963e-10 0.0 0.01 0.0 -2.9014294598961963e-10 0.0 0.010004910364385283 0.009968450932082469 0.0 -1.0780240511701198e-10 0.0 0.01 0.0 -1.0780240511701198e-10 0.0 0.010004693251925732 0.009968732264482603 0.0 -2.5207535410106675e-11 0.0 0.01 0.0 -2.5207535410106675e-11 0.0 0.010004432645511019 0.009964258040446686 0.0 -3.113920183850895e-10 0.0 0.01 0.0 -3.1139201838510273e-10 0.0 0.010006153124485474 0.009964453436043073 0.0 -8.246986642592238e-10 0.0 0.01 0.0 -8.246986642591973e-10 0.0 0.010005797036952278 0.009964698315108126 0.0 -6.759943544788716e-10 0.0 0.01 0.0 -6.759943544788716e-10 0.0 0.010005496728784886 0.009964998625798405 0.0 -3.6737141083561126e-10 0.0 0.01 0.0 -3.6737141083561126e-10 0.0 0.01000532650272429 0.009965349434939968 0.0 -1.444971247593843e-10 0.0 0.01 0.0 -1.4449712475939092e-10 0.0 0.010005093238520998 0.009965736407035223 0.0 -4.1646691214464606e-11 0.0 0.01 0.0 -4.1646691214467915e-11 0.0 0.010004815976812242 0.009960553636009747 0.0 -2.4242376025566816e-10 0.0 0.01 0.0 -2.4242376025566816e-10 0.0 0.010006785700616184 0.009960921271490631 0.0 -1.013434662313031e-09 0.0 0.01 0.0 -1.013434662313084e-09 0.0 0.010006281814224778 0.009961341829192439 0.0 -8.753651494818732e-10 0.0 0.01 0.0 -8.753651494818468e-10 0.0 0.010005868461787583 0.009961812363456033 0.0 -4.955022844716875e-10 0.0 0.01 0.0 -4.955022844716743e-10 0.0 0.010005719252738979 0.009962318064416697 0.0 -2.1020178426202994e-10 0.0 0.01 0.0 -2.1020178426203655e-10 0.0 0.010005500134396307 0.009962832247962771 0.0 -7.365507398199545e-11 0.0 0.01 0.0 -7.365507398200207e-11 0.0 0.010005214025075494 0.009957151974799338 0.0 -1.6555762241285663e-10 0.0 0.01 0.0 -1.6555762241285663e-10 0.0 0.010007367483982286 0.009957719663685133 0.0 -1.3177028474147903e-09 0.0 0.01 0.0 -1.3177028474147903e-09 0.0 0.010006663404231349 0.009958347196287447 0.0 -1.2092132446599077e-09 0.0 0.01 0.0 -1.2092132446599077e-09 0.0 0.010006161439826754 0.009959006949344106 0.0 -7.160636919423609e-10 0.0 0.01 0.0 -7.160636919423609e-10 0.0 0.010006123319668271 0.009959678194977133 0.0 -3.2241309768450855e-10 0.0 0.01 0.0 -3.2241309768450855e-10 0.0 0.010005956016898066 0.00996032339043202 0.0 -1.25307573954784e-10 0.0 0.01 0.0 -1.253075739547873e-10 0.0 0.01000568304087475 0.009954677492031801 0.0 -1.2114996098092078e-10 0.0 0.01 0.0 -1.2114996098092078e-10 0.0 0.01000781675570746 0.00995543469013486 0.0 -1.8215902993060234e-09 0.0 0.01 0.0 -1.8215902993060234e-09 0.0 0.010006898732315733 0.009956250289553714 0.0 -1.784366342044678e-09 0.0 0.01 0.0 -1.7843663420447309e-09 0.0 0.010006419275779554 0.009957083365067487 0.0 -1.1041380211625148e-09 0.0 0.01 0.0 -1.1041380211625148e-09 0.0 0.010006637452523072 0.009957894432678957 0.0 -5.117435698561249e-10 0.0 0.01 0.0 -5.117435698561249e-10 0.0 0.010006578736275846 0.009958648908397661 0.0 -1.9710605794359734e-10 0.0 0.01 0.0 -1.9710605794359734e-10 0.0 0.010006315527849778 0.009953981120976138 0.0 -1.6359788661902006e-10 0.0 0.01 0.0 -1.6359788661902006e-10 0.0 0.010008091359931696 0.009954851607634251 0.0 -2.6235469675974515e-09 0.0 0.01 0.0 -2.6235469675975574e-09 0.0 0.01000704163070851 0.00995577363542527 0.0 -2.7462425944049684e-09 0.0 0.01 0.0 -2.7462425944049684e-09 0.0 0.010006778836670296 0.009956689010012789 0.0 -1.7701051432930987e-09 0.0 0.01 0.0 -1.7701051432930987e-09 0.0 0.010007418897848102 0.009957561688332015 0.0 -8.28122436246775e-10 0.0 0.01 0.0 -8.281224362467486e-10 0.0 0.01000751676678129 0.009958353121629347 0.0 -2.896117704611652e-10 0.0 0.01 0.0 -2.896117704611586e-10 0.0 0.010007262804594538 0.009956208345190294 0.0 -4.190278097855244e-10 0.0 0.01 0.0 -4.190278097855244e-10 0.0 0.010008290097474386 0.009957023147624507 0.0 -3.883209038169051e-09 0.0 0.01 0.0 -3.883209038169051e-09 0.0 0.010007293621787192 0.009957861847934032 0.0 -4.286770195298987e-09 0.0 0.01 0.0 -4.286770195299093e-09 0.0 0.01000746685477243 0.00995867211815863 0.0 -2.839428315196187e-09 0.0 0.01 0.0 -2.839428315196187e-09 0.0 0.01000864203983443 0.009959434673699568 0.0 -1.317751400385601e-09 0.0 0.01 0.0 -1.3177514003857068e-09 0.0 0.010008930899915398 0.00996012823769176 0.0 -3.9955825798608065e-10 0.0 0.01 0.0 -3.995582579860674e-10 0.0 0.010008680740219033 0.009962782803777711 0.0 -1.0748334269621021e-09 0.0 0.01 0.0 -1.0748334269620757e-09 0.0 0.010008799701599335 0.00996328617998897 0.0 -5.89633476273142e-09 0.0 0.01 0.0 -5.896334762731632e-09 0.0 0.010008097725369525 0.00996376885986992 0.0 -6.7114256776050954e-09 0.0 0.01 0.0 -6.7114256776050954e-09 0.0 0.010008781102644347 0.009964200660635263 0.0 -4.502974183536273e-09 0.0 0.01 0.0 -4.502974183536273e-09 0.0 0.010010371111715339 0.009964596898356208 0.0 -2.0475688702509285e-09 0.0 0.01 0.0 -2.0475688702509285e-09 0.0 0.010010876117795608 0.009964975371776826 0.0 -5.191434405191335e-10 0.0 0.01 0.0 -5.191434405191203e-10 0.0 0.01001066107457452 0.009975167306621222 0.0 -2.2080558957686323e-09 0.0 0.01 0.0 -2.2080558957685264e-09 0.0 0.01001050723713559 0.009975078472922302 0.0 -8.838083768175873e-09 0.0 0.01 0.0 -8.838083768175873e-09 0.0 0.010010280481554227 0.009974922647458567 0.0 -1.0171156856796169e-08 0.0 0.01 0.0 -1.0171156856796592e-08 0.0 0.010010864379614487 0.009974697854785884 0.0 -6.9718652059691946e-09 0.0 0.01 0.0 -6.971865205968983e-09 0.0 0.010012523486442496 0.009974455711032485 0.0 -3.173799031311696e-09 0.0 0.01 0.0 -3.173799031311696e-09 0.0 0.010013274434890336 0.009974275107094876 0.0 -7.167822128101681e-10 0.0 0.01 0.0 -7.167822128101946e-10 0.0 0.010013172481503302 0.009994285901374236 0.0 -3.3611577817981356e-09 0.0 0.01 0.0 -3.3611577817983474e-09 0.0 0.010014278071388293 0.00999338606742803 0.0 -1.1895725492821872e-08 0.0 0.01 0.0 -1.1895725492822719e-08 0.0 0.01001439627837965 0.009992391192940304 0.0 -1.4166757721491033e-08 0.0 0.01 0.0 -1.4166757721490186e-08 0.0 0.010014418825563282 0.009991326796746552 0.0 -1.0147713994850239e-08 0.0 0.01 0.0 -1.0147713994849392e-08 0.0 0.01001516773940538 0.00999027969105514 0.0 -4.859990057231126e-09 0.0 0.01 0.0 -4.859990057231126e-09 0.0 0.010015908983999223 0.009989363992793541 0.0 -1.208817721098834e-09 0.0 0.01 0.0 -1.208817721098834e-09 0.0 0.010016038502687768 0.010019685928161055 0.0 -3.032660156371714e-09 0.0 0.01 0.0 -3.032660156371714e-09 0.0 0.01001914861030406 0.010017932420709755 0.0 -1.3239192828251698e-08 0.0 0.01 0.0 -1.3239192828238145e-08 0.0 0.010019628943450657 0.010016080705407887 0.0 -1.7180104315491244e-08 0.0 0.01 0.0 -1.7180104315484468e-08 0.0 0.010019267442483949 0.010014190297661003 0.0 -1.3234284589875011e-08 0.0 0.01 0.0 -1.3234284589878399e-08 0.0 0.01001856084819889 0.010012359325245085 0.0 -6.958603051903604e-09 0.0 0.01 0.0 -6.958603051903604e-09 0.0 0.01001865461970049 0.010010731098790918 0.0 -2.2172603337471702e-09 0.0 0.01 0.0 -2.217260333746323e-09 0.0 0.010018963455831887 0.010048740747264718 0.0 -7.660239409056904e-10 0.0 0.01 0.0 -7.660239409056904e-10 0.0 0.01002208660784534 0.010046409944765 0.0 -1.0742549685862732e-08 0.0 0.01 0.0 -1.0742549685863579e-08 0.0 0.010023139166099057 0.010043957094550339 0.0 -1.6925821449421456e-08 0.0 0.01 0.0 -1.692582144941976e-08 0.0 0.010023138662645717 0.01004152183511929 0.0 -1.4576102097151884e-08 0.0 0.01 0.0 -1.4576102097151037e-08 0.0 0.010021898874674954 0.010039203943173569 0.0 -8.614758250028638e-09 0.0 0.01 0.0 -8.614758250028638e-09 0.0 0.010021218241527595 0.010037118246556646 0.0 -3.5222269430013526e-09 0.0 0.01 0.0 -3.522226943001776e-09 0.0 0.01002160889036404 0.010076409882638455 0.0 -6.005883098155111e-09 0.0 0.01 0.0 -6.005883098154899e-09 0.0 0.010022774365184093 0.0100741960644298 0.0 -7.249979853709306e-09 0.0 0.01 0.0 -7.249979853709306e-09 0.0 0.010024158564294923 0.010071783651870805 0.0 -1.3002305666119754e-08 0.0 0.01 0.0 -1.3002305666119754e-08 0.0 0.010025106434464689 0.010069404876572017 0.0 -1.3020461235046691e-08 0.0 0.01 0.0 -1.3020461235046691e-08 0.0 0.010024388228645958 0.01006715037042154 0.0 -8.630670235000279e-09 0.0 0.01 0.0 -8.630670235000702e-09 0.0 0.010023416443435351 0.010065087996784992 0.0 -4.256341517425774e-09 0.0 0.01 0.0 -4.256341517425562e-09 0.0 0.010023748380759026 0.010096529826388959 0.0 -1.094534819263238e-08 0.0 0.01 0.0 -1.0945348192632803e-08 0.0 0.010022025656329042 0.010095360556294402 0.0 -1.3666349624395611e-08 0.0 0.01 0.0 -1.36663496243954e-08 0.0 0.010023349576572388 0.010093937142139244 0.0 -1.191375350351732e-08 0.0 0.01 0.0 -1.1913753503517532e-08 0.0 0.010025266840406654 0.010092437486895922 0.0 -9.69806249778755e-09 0.0 0.01 0.0 -9.69806249778755e-09 0.0 0.010025502022333068 0.010090951549525986 0.0 -6.646165612545357e-09 0.0 0.01 0.0 -6.646165612545357e-09 0.0 0.010024885082854292 0.010089481315067901 0.0 -3.6545386281447116e-09 0.0 0.01 0.0 -3.6545386281447116e-09 0.0 0.010025284070378684 0.010105585509827163 0.0 -1.4152263342312227e-09 0.0 0.01 0.0 -1.4152263342312491e-09 0.0 0.010021036393783508 0.010105815811029296 0.0 -9.335267433532201e-09 0.0 0.01 0.0 -9.335267433532413e-09 0.0 0.010022142678211655 0.010105965001761577 0.0 -8.967561302773621e-09 0.0 0.01 0.0 -8.967561302773621e-09 0.0 0.010023411055769049 0.010105964485691895 0.0 -6.384239834596445e-09 0.0 0.01 0.0 -6.384239834596551e-09 0.0 0.010024442826593332 0.010105755847597457 0.0 -3.9247699239037676e-09 0.0 0.01 0.0 -3.924769923903662e-09 0.0 0.010024843725882892 0.010105269574390932 0.0 -2.1284163884032037e-09 0.0 0.01 0.0 -2.1284163884032037e-09 0.0 0.0100258803734883 0.010104970796806213 0.0 5.842172824332566e-09 0.0 0.01 0.0 5.842172824332566e-09 0.0 0.010020911108774495 0.010106403478067332 0.0 -1.477623957258156e-09 0.0 0.01 0.0 -1.477623957258156e-09 0.0 0.010021877736445188 0.010107933069641415 0.0 -3.0487208872053705e-09 0.0 0.01 0.0 -3.0487208872053705e-09 0.0 0.010022153952783417 0.010109311478983635 0.0 -2.3074449407511256e-09 0.0 0.01 0.0 -2.3074449407511256e-09 0.0 0.01002360627612086 0.010110323604539865 0.0 -1.3447339492762833e-09 0.0 0.01 0.0 -1.3447339492762833e-09 0.0 0.010024722730726349 0.010110830298139445 0.0 -6.933719850615461e-10 0.0 0.01 0.0 -6.933719850615328e-10 0.0 0.010026182067311994 0.01009906317157752 0.0 3.965030962632906e-09 0.0 0.01 0.0 3.965030962633012e-09 0.0 0.010021607934192803 0.010101292912312926 0.0 1.032655668503574e-09 0.0 0.01 0.0 1.0326556685036005e-09 0.0 0.010022494624207028 0.010103698902448421 0.0 -7.975469268678465e-11 0.0 0.01 0.0 -7.975469268678465e-11 0.0 0.010022279334752556 0.010105952409816972 0.0 -2.0983420596753238e-10 0.0 0.01 0.0 -2.0983420596753238e-10 0.0 0.010023519717115471 0.0101077732067257 0.0 -1.0143614182281633e-10 0.0 0.01 0.0 -1.0143614182281964e-10 0.0 0.010024863925748239 0.010108952322406668 0.0 -2.0687131891008182e-11 0.0 0.01 0.0 -2.0687131891008596e-11 0.0 0.010026454708674857 0.010092315980850025 0.0 2.2726478948213152e-10 0.0 0.01 0.0 2.272647894821249e-10 0.0 0.010022496587396434 0.010094896408234591 0.0 2.0295456936445676e-10 0.0 0.01 0.0 2.0295456936445014e-10 0.0 0.010023384520364536 0.010097641176680583 0.0 1.2637197482267032e-10 0.0 0.01 0.0 1.2637197482267032e-10 0.0 0.010023126377741944 0.010100219097581464 0.0 7.626094459276645e-11 0.0 0.01 0.0 7.62609445927681e-11 0.0 0.010024062623664435 0.010102333355240738 0.0 5.625752573497273e-11 0.0 0.01 0.0 5.625752573497273e-11 0.0 0.010025270266224717 0.010103751299672205 0.0 4.6810937362344176e-11 0.0 0.01 0.0 4.6810937362344176e-11 0.0 0.01002675247256258 0.010087221767674103 0.0 -8.275596437877862e-11 0.0 0.01 0.0 -8.275596437878027e-11 0.0 0.010023166203008834 0.01008976367267225 0.0 -3.4889258805557236e-10 0.0 0.01 0.0 -3.4889258805557236e-10 0.0 0.010024113288027978 0.010092407880946867 0.0 -3.5170353954075386e-10 0.0 0.01 0.0 -3.517035395407605e-10 0.0 0.010024083322431888 0.010094854693088726 0.0 -2.66030404279085e-10 0.0 0.01 0.0 -2.6603040427909163e-10 0.0 0.010024887500810509 0.010096819312398423 0.0 -1.7371391530070908e-10 0.0 0.01 0.0 -1.7371391530070908e-10 0.0 0.010025755914453618 0.010098068994065994 0.0 -9.063284431520807e-11 0.0 0.01 0.0 -9.063284431520807e-11 0.0 0.010026996630519928 0.010083798019482969 0.0 1.0788776889934967e-09 0.0 0.01 0.0 1.0788776889935232e-09 0.0 0.010023112582501196 0.010086010633955136 0.0 -6.843546350824952e-10 0.0 0.01 0.0 -6.843546350824952e-10 0.0 0.010024145268414414 0.010088248833134979 0.0 -1.034785238380929e-09 0.0 0.01 0.0 -1.0347852383809025e-09 0.0 0.010024438897921697 0.010090251717284004 0.0 -8.161583895297427e-10 0.0 0.01 0.0 -8.161583895297692e-10 0.0 0.010025349464543224 0.01009175086072326 0.0 -4.971386642293724e-10 0.0 0.01 0.0 -4.971386642293857e-10 0.0 0.010026003930117416 0.010092538848062736 0.0 -2.3969417952463216e-10 0.0 0.01 0.0 -2.3969417952462554e-10 0.0 0.01002705419471751 0.010080415245004488 0.0 6.435706424233948e-10 0.0 0.01 0.0 6.435706424233948e-10 0.0 0.010022529005360064 0.010082105694202977 0.0 -2.0268305520843896e-09 0.0 0.01 0.0 -2.0268305520843366e-09 0.0 0.010023619066297557 0.010083743932671595 0.0 -2.3442042971490674e-09 0.0 0.01 0.0 -2.3442042971490674e-09 0.0 0.010024193969843505 0.010085093492036463 0.0 -1.7247071396978814e-09 0.0 0.01 0.0 -1.7247071396978814e-09 0.0 0.010025280594143716 0.010085919472802247 0.0 -9.586500725426576e-10 0.0 0.01 0.0 -9.586500725426576e-10 0.0 0.010025873016671034 0.010086055728089724 0.0 -3.985769632627285e-10 0.0 0.01 0.0 -3.985769632627285e-10 0.0 0.010026826312837998 0.010075255616577138 0.0 -1.8217515524278983e-09 0.0 0.01 0.0 -1.8217515524278453e-09 0.0 0.010021751916603499 0.010076298008671136 0.0 -4.48103970871401e-09 0.0 0.01 0.0 -4.481039708714222e-09 0.0 0.010022822039769064 0.010077182308551104 0.0 -4.3119068145806755e-09 0.0 0.01 0.0 -4.31190681458057e-09 0.0 0.010023542325972874 0.010077721495268033 0.0 -3.013077376834069e-09 0.0 0.01 0.0 -3.0130773768339633e-09 0.0 0.010024744844002597 0.010077718527123757 0.0 -1.5783739053834778e-09 0.0 0.01 0.0 -1.5783739053834778e-09 0.0 0.010025360800334218 0.010077086372368467 0.0 -5.768858452792041e-10 0.0 0.01 0.0 -5.768858452792041e-10 0.0 0.010026275045092794 0.010067551925903712 0.0 -4.993502523636713e-09 0.0 0.01 0.0 -4.993502523636713e-09 0.0 0.010020959763077835 0.010067818006481977 0.0 -7.26087445688181e-09 0.0 0.01 0.0 -7.26087445688181e-09 0.0 0.010021979955981048 0.01006781550629604 0.0 -6.368725505218735e-09 0.0 0.01 0.0 -6.368725505218523e-09 0.0 0.010022656364696956 0.01006738749202277 0.0 -4.303566193679507e-09 0.0 0.01 0.0 -4.303566193679507e-09 0.0 0.010023819687134426 0.010066429568511049 0.0 -2.1359572694575285e-09 0.0 0.01 0.0 -2.1359572694575285e-09 0.0 0.010024492036036226 0.010064955087546306 0.0 -6.854231249522705e-10 0.0 0.01 0.0 -6.85423124952244e-10 0.0 0.010025428715120998 0.01005793170181206 0.0 -7.358421372235799e-09 0.0 0.01 0.0 -7.358421372235799e-09 0.0 0.010020173179806165 0.010057311197954857 0.0 -9.446699226397466e-09 0.0 0.01 0.0 -9.446699226397466e-09 0.0 0.010021134662800416 0.010056291568579031 0.0 -7.777674424248165e-09 0.0 0.01 0.0 -7.777674424248165e-09 0.0 0.010021560729851968 0.01005477538691459 0.0 -4.99357249988341e-09 0.0 0.01 0.0 -4.993572499883833e-09 0.0 0.01002258800283751 0.010052785118120636 0.0 -2.2936558780456025e-09 0.0 0.01 0.0 -2.2936558780454967e-09 0.0 0.01002333139986152 0.01005046439406828 0.0 -6.189447264035665e-10 0.0 0.01 0.0 -6.1894472640354e-10 0.0 0.010024339574727044 0.010047859956834904 0.0 -8.062230171231492e-09 0.0 0.01 0.0 -8.062230171231916e-09 0.0 0.010019416755517001 0.010046282742423397 0.0 -1.057015117078237e-08 0.0 0.01 0.0 -1.0570151170780675e-08 0.0 0.010020261614026103 0.010044190605011862 0.0 -8.025815624108182e-09 0.0 0.01 0.0 -8.025815624108605e-09 0.0 0.010020322030318513 0.010041581168605656 0.0 -4.725555726859922e-09 0.0 0.01 0.0 -4.725555726859922e-09 0.0 0.01002110517675401 0.010038616084139687 0.0 -1.9875565113467047e-09 0.0 0.01 0.0 -1.9875565113467047e-09 0.0 0.010022050268316832 0.0100355870179966 0.0 -4.219176658922702e-10 0.0 0.01 0.0 -4.219176658922702e-10 0.0 0.01002308111546758 0.010038802785600761 0.0 -6.897586540469086e-09 0.0 0.01 0.0 -6.897586540469509e-09 0.0 0.01001851760858006 0.010036293784017929 0.0 -1.5754162542176765e-08 0.0 0.01 0.0 -1.5754162542176765e-08 0.0 0.010019270912458867 0.010033190866804311 0.0 -1.1607091373827422e-08 0.0 0.01 0.0 -1.1607091373825728e-08 0.0 0.010018925189191917 0.010029620336818678 0.0 -5.5929703271665945e-09 0.0 0.01 0.0 -5.5929703271657475e-09 0.0 0.010019739946366218 0.010025892214973624 0.0 -1.621432689002795e-09 0.0 0.01 0.0 -1.6214326890023714e-09 0.0 0.010020760269835286 0.010022372203998682 0.0 -2.2523353422364197e-10 0.0 0.01 0.0 -2.2523353422364197e-10 0.0 0.01002169439334987 0.01003150470906223 0.0 -4.155712151841841e-09 0.0 0.01 0.0 -4.1557121518414176e-09 0.0 0.010017273654011167 0.010028235336699446 0.0 -3.516131871842261e-08 0.0 0.01 0.0 -3.5161318718429386e-08 0.0 0.010017948607676616 0.010024325774595791 0.0 -2.826351960499553e-08 0.0 0.01 0.0 -2.8263519605002305e-08 0.0 0.010017446903300448 0.010020052856722738 0.0 -1.4656414428485713e-08 0.0 0.01 0.0 -1.4656414428485713e-08 0.0 0.010018526960378062 0.010015843724155845 0.0 -3.943963252035074e-09 0.0 0.01 0.0 -3.943963252035074e-09 0.0 0.010019368626587349 0.010012069666414674 0.0 -2.8987333554895265e-10 0.0 0.01 0.0 -2.898733355490056e-10 0.0 0.010020208543140927 0.010025889242006203 0.0 6.1384548541105205e-09 0.0 0.01 0.0 6.1384548541096735e-09 0.0 0.010015622483194337 0.010022158382753542 0.0 -6.640553785776653e-08 0.0 0.01 0.0 -6.640553785776653e-08 0.0 0.010016250979143325 0.010017736526798273 0.0 -5.7154615312499536e-08 0.0 0.01 0.0 -5.7154615312499536e-08 0.0 0.010015998762810958 0.010013068071758306 0.0 -3.112290541066188e-08 0.0 0.01 0.0 -3.112290541066188e-08 0.0 0.010017243247262806 0.010008685602872469 0.0 -7.52609758441678e-09 0.0 0.01 0.0 -7.52609758441678e-09 0.0 0.010017899997041944 0.010004905957903331 0.0 3.003701826430028e-10 0.0 0.01 0.0 3.0037018264302925e-10 0.0 0.010018663921569401 0.010021503260305181 0.0 2.584189362599468e-08 0.0 0.01 0.0 2.584189362599468e-08 0.0 0.010013598487722786 0.010017562257712349 0.0 -7.668012969318282e-08 0.0 0.01 0.0 -7.668012969318282e-08 0.0 0.0100142972040375 0.010012848922669392 0.0 -7.345934473489439e-08 0.0 0.01 0.0 -7.345934473484018e-08 0.0 0.010014638531171918 0.010008115318247954 0.0 -3.3519707330736926e-08 0.0 0.01 0.0 -3.3519707330736926e-08 0.0 0.010015956058452671 0.01000388411177821 0.0 2.499026059712054e-09 0.0 0.01 0.0 2.499026059712054e-09 0.0 0.010016504620643463 0.010000341317486852 0.0 9.322868794833279e-09 0.0 0.01 0.0 9.322868794834126e-09 0.0 0.010017142629938601 0.010018401266664085 0.0 3.3439650384626664e-09 0.0 0.01 0.0 3.3439650384635135e-09 0.0 0.01001121513872902 0.01001392206972899 0.0 -4.525178513903551e-10 0.0 0.01 0.0 -4.525178513903551e-10 0.0 0.010012473499474244 0.01000887214337551 0.0 -2.4303046720440655e-08 0.0 0.01 0.0 -2.430304672043388e-08 0.0 0.010013579861984813 0.010004384231601628 0.0 2.0545799650931125e-08 0.0 0.01 0.0 2.0545799650931125e-08 0.0 0.010014852373608147 0.01000062115832672 0.0 5.5188669309828766e-08 0.0 0.01 0.0 5.518866930983554e-08 0.0 0.010015281558121024 0.009997560393321068 0.0 4.311779971867563e-08 0.0 0.01 0.0 4.311779971867563e-08 0.0 0.01001572059328537 0.010017113186723582 0.0 -2.2532713085633097e-07 0.0 0.01 0.0 -2.2532713085633097e-07 0.0 0.010009724122996387 0.01001076737003685 0.0 1.7418930579340096e-07 0.0 0.01 0.0 1.741893057936178e-07 0.0 0.010011597799719493 0.010005341680597942 0.0 1.5541067163279596e-07 0.0 0.01 0.0 1.5541067163279596e-07 0.0 0.010012889130303425 0.010001252689932379 0.0 1.7506212639649302e-07 0.0 0.01 0.0 1.7506212639649302e-07 0.0 0.01001405593453039 0.009998200490808512 0.0 1.8191593660830106e-07 0.0 0.01 0.0 1.8191593660830106e-07 0.0 0.010014300622730489 0.009995822121926979 0.0 1.2301275910010377e-07 0.0 0.01 0.0 1.2301275910009022e-07 0.0 0.010014491391572882 0.010016013573590618 0.0 -7.783120125196604e-07 0.0 0.01 0.0 -7.783120125198772e-07 0.0 0.010008648497014532 0.010008108519547719 0.0 3.4690031071901543e-07 0.0 0.01 0.0 3.469003107187986e-07 0.0 0.010010869765097515 0.010002169686462692 0.0 4.516880323810683e-07 0.0 0.01 0.0 4.516880323811225e-07 0.0 0.010012179495432443 0.009998484374069872 0.0 4.432642865551334e-07 0.0 0.01 0.0 4.432642865550792e-07 0.0 0.010013368087538914 0.009996236649633058 0.0 4.0137334838925777e-07 0.0 0.01 0.0 4.013733483892849e-07 0.0 0.010013569092247335 0.009994650306837096 0.0 2.694989827880926e-07 0.0 0.01 0.0 2.694989827880926e-07 0.0 0.010013488201604514 0.010006172722068645 0.0 2.7602254749610564e-07 0.0 0.01 0.0 2.7602254749621406e-07 0.0 0.010010001796793538 0.009999659599492273 0.0 7.403812479214126e-07 0.0 0.01 0.0 7.403812479214126e-07 0.0 0.010011098129957905 0.009996248204654138 0.0 7.842752297514089e-07 0.0 0.01 0.0 7.842752297514632e-07 0.0 0.01001247163451639 0.009994657359562686 0.0 7.069258899657744e-07 0.0 0.01 0.0 7.069258899657744e-07 0.0 0.010012900495304915 0.009993823264562503 0.0 4.9691268461349e-07 0.0 0.01 0.0 4.9691268461349e-07 0.0 0.01001270731735729 0.01000516711263146 0.0 -2.6530681137963176e-07 0.0 0.01 0.0 -2.6530681137963176e-07 0.0 0.010009075851251978 0.009998531434377804 0.0 8.599115191706627e-07 0.0 0.01 0.0 8.599115191706627e-07 0.0 0.010010078827605242 0.009994925547928801 0.0 1.1040243756899786e-06 0.0 0.01 0.0 1.1040243756898702e-06 0.0 0.010011237345757377 0.009993591336285289 0.0 1.0656919992391243e-06 0.0 0.01 0.0 1.0656919992391243e-06 0.0 0.010012111487692814 0.009993263910968268 0.0 8.107477072200465e-07 0.0 0.01 0.0 8.107477072200465e-07 0.0 0.010012038903805268 0.009999264625921158 0.0 5.46778299463104e-07 0.0 0.01 0.0 5.46778299463104e-07 0.0 0.010009513102405311 0.009994973032918266 0.0 1.2644306217567385e-06 0.0 0.01 0.0 1.2644306217567385e-06 0.0 0.010010108295347406 0.009993311516701466 0.0 1.4148097129195814e-06 0.0 0.01 0.0 1.4148097129195814e-06 0.0 0.010011196325248831 0.009993003564526256 0.0 1.197441604339558e-06 0.0 0.01 0.0 1.1974416043396665e-06 0.0 0.010011414277787583 0.010001223911035433 0.0 -4.928435021103305e-07 0.0 0.01 0.0 -4.928435021102221e-07 0.0 0.010009062139829874 0.009996932575221976 0.0 1.0435785906211031e-06 0.0 0.01 0.0 1.0435785906211031e-06 0.0 0.010009730145961297 0.009994221899274727 0.0 1.6070272517816012e-06 0.0 0.01 0.0 1.6070272517816012e-06 0.0 0.010010288693444858 0.009993323573540798 0.0 1.5942691296158898e-06 0.0 0.01 0.0 1.5942691296158898e-06 0.0 0.010010825082520382 0.010000182154992062 0.0 1.0046035789194286e-08 0.0 0.01 0.0 1.0046035789194286e-08 0.0 0.010009818140492144 0.009996836777874368 0.0 1.3576428113104815e-06 0.0 0.01 0.0 1.3576428113104815e-06 0.0 0.010009973677179212 0.009994855474513663 0.0 1.8291644889791448e-06 0.0 0.01 0.0 1.8291644889791448e-06 0.0 0.010010433807790296 0.010000651919554411 0.0 1.9695927470626904e-07 0.0 0.01 0.0 1.9695927470629614e-07 0.0 0.010010127670509673 0.009998296788358244 0.0 1.5350441842003435e-06 0.0 0.01 0.0 1.5350441842003435e-06 0.0 0.01001050809237086 0.010001730902666955 0.0 -1.7399723002873256e-06 0.0 0.01 0.0 -1.7399723002873256e-06 0.0 0.010009080656713635 0.010002234155036637 0.0 2.0905442385163973e-07 0.0 0.01 0.0 2.0905442385163973e-07 0.0 0.010010728196001328 0.00999775525605759 0.0 2.7797315004400786e-14 0.0 0.01 0.0 2.7797315004400786e-14 0.0 0.010000085951108129 0.00999768130670019 0.0 2.7586694900811187e-14 0.0 0.01 0.0 2.7586694900811187e-14 0.0 0.010000083501045852 0.009997639835819262 0.0 1.43589177876799e-14 0.0 0.01 0.0 1.43589177876799e-14 0.0 0.010000077650904441 0.00999761585289473 0.0 6.703684100834629e-15 0.0 0.01 0.0 6.703684100834629e-15 0.0 0.01000006785069055 0.009997605360419522 0.0 4.027333371876405e-15 0.0 0.01 0.0 4.027333371876405e-15 0.0 0.010000059550531935 0.009997603361856561 0.0 1.7199846324625989e-15 0.0 0.01 0.0 1.7199846324625989e-15 0.0 0.010000048850357952 0.00999760436113789 0.0 7.093370882699668e-16 0.0 0.01 0.0 7.093370882699668e-16 0.0 0.01000004150025834 0.00999760785862491 0.0 1.855047591080747e-16 0.0 0.01 0.0 1.855047591080747e-16 0.0 0.010000035150185329 0.009997610856473844 0.0 1.6679165594689676e-16 0.0 0.01 0.0 1.6679165594689676e-16 0.0 0.010000032700160394 0.009997348055294746 0.0 -2.277117366589155e-13 0.0 0.01 0.0 -2.277117366587087e-13 0.0 0.010000110351826604 0.009997271617017401 0.0 -1.0923013598326621e-13 0.0 0.01 0.0 -1.0923013598326621e-13 0.0 0.010000109851810088 0.009997227653312233 0.0 -5.079477928638527e-14 0.0 0.01 0.0 -5.079477928638527e-14 0.0 0.010000101051531695 0.009997205671677147 0.0 -1.7991307714884918e-14 0.0 0.01 0.0 -1.7991307714884918e-14 0.0 0.010000089851210972 0.009997198177971053 0.0 -4.376895041039157e-15 0.0 0.01 0.0 -4.376895041039157e-15 0.0 0.010000077150892829 0.009997197678391247 0.0 6.358097352989929e-17 0.0 0.01 0.0 6.358097352989929e-17 0.0 0.010000064950632782 0.0099972016750318 0.0 5.866803988719465e-16 0.0 0.01 0.0 5.866803988719465e-16 0.0 0.010000055650464542 0.009997206670839231 0.0 3.509464600569776e-16 0.0 0.01 0.0 3.509464600569776e-16 0.0 0.010000048350350663 0.009997211167072324 0.0 1.573079435201606e-17 0.0 0.01 0.0 1.573079435201606e-17 0.0 0.010000042950276707 0.009997005845281426 0.0 -4.027368926047531e-13 0.0 0.01 0.0 -4.027368926045463e-13 0.0 0.010000131852607723 0.009996930913472212 0.0 -2.2141615910381278e-13 0.0 0.01 0.0 -2.2141615910381278e-13 0.0 0.010000130852568314 0.009996889451928552 0.0 -1.0466614572324237e-13 0.0 0.01 0.0 -1.0466614572324237e-13 0.0 0.010000120102163645 0.009996871968299719 0.0 -3.787672509514714e-14 0.0 0.01 0.0 -3.787672509514714e-14 0.0 0.010000107401730246 0.009996868471584958 0.0 -1.017858578339046e-14 0.0 0.01 0.0 -1.017858578339046e-14 0.0 0.01000009425133248 0.009996871968299717 0.0 -1.7518439593002439e-15 0.0 0.01 0.0 -1.7518439593002439e-15 0.0 0.010000079600950437 0.009996880460336552 0.0 2.4662769185543107e-17 0.0 0.01 0.0 2.4662769185543107e-17 0.0 0.010000068350700766 0.009996888952395028 0.0 1.7382116497568092e-16 0.0 0.01 0.0 1.7382116497568092e-16 0.0 0.0100000586005151 0.009996894946802275 0.0 -6.925825696439794e-17 0.0 0.01 0.0 -6.925825696439794e-17 0.0 0.01000005320042454 0.009996679154934542 0.0 -3.721039956441645e-13 0.0 0.01 0.0 -3.7210399564375093e-13 0.0 0.010000146003197477 0.009996609225382905 0.0 -2.469722129972589e-13 0.0 0.01 0.0 -2.469722129972589e-13 0.0 0.010000144053112635 0.009996575260130187 0.0 -1.2327073496991316e-13 0.0 0.01 0.0 -1.2327073497001656e-13 0.0 0.010000134302705535 0.009996564271446077 0.0 -4.484980798341296e-14 0.0 0.01 0.0 -4.484980798341296e-14 0.0 0.010000120102163647 0.009996568766812469 0.0 -1.1687919442444416e-14 0.0 0.01 0.0 -1.1687919442444416e-14 0.0 0.010000104501638067 0.009996577757563446 0.0 -1.8029470048746638e-15 0.0 0.01 0.0 -1.8029470048746638e-15 0.0 0.010000090351224488 0.009996589245780554 0.0 -6.55937454622193e-17 0.0 0.01 0.0 -6.55937454622193e-17 0.0 0.010000077650904441 0.009996598736076733 0.0 -2.462900680802339e-17 0.0 0.01 0.0 -2.462900680802339e-17 0.0 0.010000068850711056 0.009996608725891386 0.0 3.0632485384613683e-17 0.0 0.01 0.0 3.0632485384613683e-17 0.0 0.010000063500604844 0.009996323528460764 0.0 -1.0672388039010596e-13 0.0 0.01 0.0 -1.0672388039005426e-13 0.0 0.010000154803594553 0.009996263595151926 0.0 -1.8846272024945504e-13 0.0 0.01 0.0 -1.8846272024945504e-13 0.0 0.010000150403393113 0.009996237124950383 0.0 -1.110762873865727e-13 0.0 0.01 0.0 -1.110762873866761e-13 0.0 0.010000142103028931 0.009996235127207861 0.0 -4.287145712421806e-14 0.0 0.01 0.0 -4.287145712421806e-14 0.0 0.01000012840247304 0.009996244616495524 0.0 -1.0848028303742575e-14 0.0 0.01 0.0 -1.0848028303742575e-14 0.0 0.010000112801908613 0.009996262096833014 0.0 -1.2951941222190142e-15 0.0 0.01 0.0 -1.2951941222190142e-15 0.0 0.010000097651430352 0.009996277080052424 0.0 3.0671467406960143e-16 0.0 0.01 0.0 3.0671467406960143e-16 0.0 0.01000008495108249 0.009996292063339208 0.0 1.9563410387736064e-16 0.0 0.01 0.0 1.9563410387736064e-16 0.0 0.010000075700859585 0.009996302052234495 0.0 5.767113971120256e-17 0.0 0.01 0.0 5.767113971120256e-17 0.0 0.010000069350721423 0.009995903019163881 0.0 3.5281616653035424e-13 0.0 0.01 0.0 3.5281616653025084e-13 0.0 0.010000155753638808 0.009995855078481126 0.0 -5.361982412326673e-14 0.0 0.01 0.0 -5.361982412326673e-14 0.0 0.010000152853504559 0.00999584009715922 0.0 -8.438503011630774e-14 0.0 0.01 0.0 -8.438503011628189e-14 0.0 0.010000144053112635 0.0099958460896799 0.0 -4.0007311058017005e-14 0.0 0.01 0.0 -4.0007311058017005e-14 0.0 0.010000132802645436 0.009995866564206866 0.0 -1.0528089510648335e-14 0.0 0.01 0.0 -1.0528089510648335e-14 0.0 0.010000118152093954 0.009995889535777134 0.0 -6.718710007549172e-16 0.0 0.01 0.0 -6.718710007549172e-16 0.0 0.010000105451667985 0.00999591300689294 0.0 9.941936921722561e-16 0.0 0.01 0.0 9.941936921722561e-16 0.0 0.010000093251304354 0.009995929486711345 0.0 6.132632335745033e-16 0.0 0.01 0.0 6.132632335745033e-16 0.0 0.010000084001058415 0.009995941971476522 0.0 9.614394053504106e-17 0.0 0.01 0.0 9.614394053504106e-17 0.0 0.010000077650904441 0.009995403670879387 0.0 9.78767403081182e-13 0.0 0.01 0.0 9.787674030820091e-13 0.0 0.010000156753685681 0.009995367720690885 0.0 1.1865938843251596e-13 0.0 0.01 0.0 1.1865938843246426e-13 0.0 0.010000155753638808 0.009995364225554358 0.0 -6.091306914048735e-14 0.0 0.01 0.0 -6.091306914048735e-14 0.0 0.010000148453305694 0.009995382699888951 0.0 -4.2918175417812784e-14 0.0 0.01 0.0 -4.2918175417812784e-14 0.0 0.01000013865288364 0.009995412159174946 0.0 -1.3358747649537553e-14 0.0 0.01 0.0 -1.3358747649537553e-14 0.0 0.010000128402473038 0.00999544311667142 0.0 -1.0036902399043146e-15 0.0 0.01 0.0 -1.0036902399043146e-15 0.0 0.010000115251992422 0.00999547157784938 0.0 1.3851499200238773e-15 0.0 0.01 0.0 1.3851499200238773e-15 0.0 0.010000102551577501 0.009995493548047761 0.0 9.136486364161154e-16 0.0 0.01 0.0 9.136486364161154e-16 0.0 0.010000095201359476 0.009995507529158525 0.0 4.154596638652795e-16 0.0 0.01 0.0 4.154596638652795e-16 0.0 0.010000089851210972 0.009994815534591073 0.0 1.6071574028482174e-11 0.0 0.01 0.0 1.607157402848879e-11 0.0 0.010000162103941565 0.009994796564181225 0.0 2.6971851242251294e-13 0.0 0.01 0.0 2.6971851242251294e-13 0.0 0.010000162603965926 0.009994810043145537 0.0 -6.044398296356459e-14 0.0 0.01 0.0 -6.044398296356459e-14 0.0 0.010000157703730493 0.00999484049582125 0.0 -5.81886603466439e-14 0.0 0.01 0.0 -5.81886603466439e-14 0.0 0.010000152853504559 0.009994878936481483 0.0 -2.1303681728876005e-14 0.0 0.01 0.0 -2.1303681728876005e-14 0.0 0.010000143553091064 0.00999491837606139 0.0 -3.138348721449163e-15 0.0 0.01 0.0 -3.138348721449163e-15 0.0 0.010000133802685425 0.009994953322914734 0.0 7.140931021138593e-16 0.0 0.01 0.0 7.140931021138593e-16 0.0 0.010000122552252822 0.009994981280661341 0.0 1.019321063588368e-15 0.0 0.01 0.0 1.019321063588368e-15 0.0 0.010000114251957997 0.00999499725662188 0.0 2.6407528645174803e-16 0.0 0.01 0.0 2.6407528645174803e-16 0.0 0.010000110851843193 0.009994144147669986 0.0 1.2936944584378817e-10 0.0 0.01 0.0 1.2936944584378817e-10 0.0 0.010000179704843966 0.009994144646792155 0.0 3.8913460644649903e-13 0.0 0.01 0.0 3.891346064467058e-13 0.0 0.010000180204870953 0.009994173096879675 0.0 -8.420917128230664e-14 0.0 0.01 0.0 -8.420917128230664e-14 0.0 0.010000179204817041 0.009994217519432013 0.0 -8.971977679946722e-14 0.0 0.01 0.0 -8.971977679946722e-14 0.0 0.010000177254712776 0.009994266434837803 0.0 -3.534475209417902e-14 0.0 0.01 0.0 -3.534475209417902e-14 0.0 0.010000169454307118 0.009994314352666407 0.0 -8.518473956563736e-15 0.0 0.01 0.0 -8.518473956563736e-15 0.0 0.01000016260396592 0.00999435578217794 0.0 -5.822236349743308e-16 0.0 0.01 0.0 -5.822236349743308e-16 0.0 0.010000154303571365 0.00999438872649461 0.0 7.10722469912312e-16 0.0 0.01 0.0 7.10722469912312e-16 0.0 0.010000146003197477 0.009994408193743953 0.0 1.8607722262388367e-16 0.0 0.01 0.0 1.8607722262388367e-16 0.0 0.010000141603007655 0.009993377085264796 0.0 3.844685962749997e-10 0.0 0.01 0.0 3.8446859627478796e-10 0.0 0.010000224607567082 0.009993404530774968 0.0 1.727861268246688e-12 0.0 0.01 0.0 1.7278612682462745e-12 0.0 0.01000022120733969 0.009993451438170434 0.0 -1.411089253075288e-13 0.0 0.01 0.0 -1.411089253074771e-13 0.0 0.010000220707306544 0.009993508825776019 0.0 -1.3559342380347415e-13 0.0 0.01 0.0 -1.3559342380342245e-13 0.0 0.010000222157402868 0.009993570206657084 0.0 -5.771862803674956e-14 0.0 0.01 0.0 -5.771862803674956e-14 0.0 0.01000021680705059 0.009993626099174889 0.0 -1.7000986474198896e-14 0.0 0.01 0.0 -1.7000986474198896e-14 0.0 0.010000211456706902 0.00999367500589726 0.0 -2.945657004952376e-15 0.0 0.01 0.0 -2.945657004952376e-15 0.0 0.0100002011560694 0.009993712434996348 0.0 -4.484668067787501e-16 0.0 0.01 0.0 -4.484668067787501e-16 0.0 0.010000193855636856 0.009993735890779457 0.0 -7.41442228367013e-17 0.0 0.01 0.0 -7.41442228367013e-17 0.0 0.010000188955355484 0.00999250992359867 0.0 6.719812506968227e-10 0.0 0.01 0.0 6.719812506969286e-10 0.0 0.010000310564467011 0.009992565299442532 0.0 6.183454564200575e-12 0.0 0.01 0.0 6.183454564198921e-12 0.0 0.010000295913134174 0.009992632649682658 0.0 -1.9985508977146614e-13 0.0 0.01 0.0 -1.9985508977146614e-13 0.0 0.01000029101270277 0.009992705489252945 0.0 -1.7841388698719373e-13 0.0 0.01 0.0 -1.7841388698719373e-13 0.0 0.01000029056266351 0.009992778829333677 0.0 -8.078989754321708e-14 0.0 0.01 0.0 -8.078989754321708e-14 0.0 0.010000286612321524 0.009992843190326695 0.0 -2.6760357454569027e-14 0.0 0.01 0.0 -2.6760357454569027e-14 0.0 0.010000279811743755 0.009992900068518428 0.0 -6.320363167817608e-15 0.0 0.01 0.0 -6.320363167817608e-15 0.0 0.010000271011016647 0.009992943975155228 0.0 -1.5366438223632511e-15 0.0 0.01 0.0 -1.5366438223632511e-15 0.0 0.010000262210312777 0.00999297091815071 0.0 -1.0327312491896903e-16 0.0 0.01 0.0 -1.0327312491896903e-16 0.0 0.01000025535978096 0.009991540745966433 0.0 7.69120717261422e-10 0.0 0.01 0.0 7.69120717261422e-10 0.0 0.010000446329879863 0.00999162453402737 0.0 6.980474558852644e-12 0.0 0.01 0.0 6.980474558854299e-12 0.0 0.010000416025960204 0.00999171181549913 0.0 -2.0472614681485005e-13 0.0 0.01 0.0 -2.0472614681485005e-13 0.0 0.010000398473815944 0.009991801593113563 0.0 -1.8253545676431585e-13 0.0 0.01 0.0 -1.8253545676426415e-13 0.0 0.010000393573233766 0.009991887382872903 0.0 -8.667696203381633e-14 0.0 0.01 0.0 -8.667696203381633e-14 0.0 0.01000038477220631 0.00999196319891815 0.0 -3.0721911172791926e-14 0.0 0.01 0.0 -3.0721911172791926e-14 0.0 0.010000373570932244 0.009992025548932798 0.0 -8.697044104584483e-15 0.0 0.01 0.0 -8.697044104584483e-15 0.0 0.01000036281974477 0.009992075429784905 0.0 -6.370294857932771e-16 0.0 0.01 0.0 -6.370294857932771e-16 0.0 0.010000353518745442 0.009992103363388388 0.0 -9.068004707934138e-16 0.0 0.01 0.0 -9.068004707934138e-16 0.0 0.010000345217875484 0.00999046216292438 0.0 5.705822358788282e-10 0.0 0.01 0.0 5.70582235878934e-10 0.0 0.010000644112226785 0.009990573346043877 0.0 2.0048812840957626e-12 0.0 0.01 0.0 2.004881284095349e-12 0.0 0.010000583551075807 0.009990682538460222 0.0 -1.197649164535258e-13 0.0 0.01 0.0 -1.197649164535258e-13 0.0 0.01000054934526372 0.00999078874273807 0.0 -1.158148612023403e-13 0.0 0.01 0.0 -1.158148612023403e-13 0.0 0.010000530292178489 0.009990885476342195 0.0 -6.176251563230858e-14 0.0 0.01 0.0 -6.176251563230858e-14 0.0 0.0100005146897331 0.009990971741153069 0.0 -2.385948526468411e-14 0.0 0.01 0.0 -2.385948526468411e-14 0.0 0.01000049808721116 0.00999104354709279 0.0 -6.84180093937206e-15 0.0 0.01 0.0 -6.84180093937206e-15 0.0 0.010000482434909272 0.009991095407901017 0.0 -1.981874252377188e-15 0.0 0.01 0.0 -1.981874252377188e-15 0.0 0.010000469283031919 0.009991130314668965 0.0 3.898651727842209e-16 0.0 0.01 0.0 3.898651727842209e-16 0.0 0.010000460481804571 0.009989273284083146 0.0 2.3957946435366807e-10 0.0 0.01 0.0 2.3957946435369454e-10 0.0 0.010000888768472379 0.009989407354423337 0.0 -2.6304680745521927e-13 0.0 0.01 0.0 -2.630468074551934e-13 0.0 0.0100007998959648 0.009989534452109273 0.0 3.0371213387239553e-14 0.0 0.01 0.0 3.0371213387239553e-14 0.0 0.010000741782528036 0.009989655573241961 0.0 1.2187956792215683e-14 0.0 0.01 0.0 1.2187956792215683e-14 0.0 0.010000704174372248 0.009989764735568224 0.0 -1.5018122580661598e-16 0.0 0.01 0.0 -1.5018122580661598e-16 0.0 0.0100006773188079 0.009989861439430944 0.0 -3.110187645362938e-15 0.0 0.01 0.0 -3.110187645362938e-15 0.0 0.01000065191374319 0.009989939203337071 0.0 6.323355330383202e-16 0.0 0.01 0.0 6.323355330383202e-16 0.0 0.010000628459239188 0.009989997527458435 0.0 1.0396091012254723e-15 0.0 0.01 0.0 1.0396091012254723e-15 0.0 0.010000611856150612 0.009990033918239721 0.0 -9.607497061205167e-16 0.0 0.01 0.0 -9.607497061205167e-16 0.0 0.0100005991538435 0.009987963765567454 0.0 2.9258348144132875e-11 0.0 0.01 0.0 2.9258348144132875e-11 0.0 0.010001174506887568 0.009988116715478933 0.0 -3.482157397816536e-13 0.0 0.01 0.0 -3.482157397816019e-13 0.0 0.010001054366729944 0.009988261700546501 0.0 1.7483598826373953e-13 0.0 0.01 0.0 1.7483598826373953e-13 0.0 0.010000969891085065 0.009988397224944054 0.0 1.5471990884020352e-13 0.0 0.01 0.0 1.5471990884020352e-13 0.0 0.010000914675479384 0.009988519799554486 0.0 7.816404904003717e-14 0.0 0.01 0.0 7.816404904003717e-14 0.0 0.010000869263329677 0.009988624439987475 0.0 3.510746022105601e-14 0.0 0.01 0.0 3.510746022105601e-14 0.0 0.010000832603972864 0.009988711144551896 0.0 1.0840777057141663e-14 0.0 0.01 0.0 1.0840777057141663e-14 0.0 0.010000801846433345 0.009988775426979573 0.0 3.8627979568929135e-15 0.0 0.01 0.0 3.8627979568929135e-15 0.0 0.010000777440652699 0.009988814296026298 0.0 4.787811201721421e-16 0.0 0.01 0.0 4.787811201721421e-16 0.0 0.010000761787039084 0.009986530762010106 0.0 -5.03698586245648e-12 0.0 0.01 0.0 -5.0369858624560665e-12 0.0 0.010001483730152964 0.009986695598243844 0.0 -3.670250401986023e-13 0.0 0.01 0.0 -3.670250401986023e-13 0.0 0.010001336717974483 0.00998685396823492 0.0 2.590701103728292e-13 0.0 0.01 0.0 2.590701103728292e-13 0.0 0.010001229726797017 0.009987001886635002 0.0 2.6791301077223734e-13 0.0 0.01 0.0 2.679130107722115e-13 0.0 0.010001150098378523 0.009987136363611458 0.0 1.651395707806559e-13 0.0 0.01 0.0 1.651395707806559e-13 0.0 0.010001088577724426 0.0099872509223577 0.0 7.914821116086436e-14 0.0 0.01 0.0 7.914821116086436e-14 0.0 0.010001037261364353 0.009987346058921463 0.0 2.986824493695546e-14 0.0 0.01 0.0 2.986824493695546e-14 0.0 0.01000099524855824 0.009987415296140478 0.0 8.513115624049643e-15 0.0 0.01 0.0 8.513115624049643e-15 0.0 0.010000965939937972 0.009987456639914726 0.0 2.2776430737731035e-15 0.0 0.01 0.0 2.2776430737731035e-15 0.0 0.010000946434343742 0.009984963980398266 0.0 -4.443220115158751e-12 0.0 0.01 0.0 -4.4432201151591645e-12 0.0 0.010001797834715255 0.009985132223469893 0.0 -3.704384274137111e-13 0.0 0.01 0.0 -3.704384274137111e-13 0.0 0.01000163665170666 0.009985301968441579 0.0 2.6114513271781036e-13 0.0 0.01 0.0 2.6114513271781036e-13 0.0 0.010001507640878631 0.009985462761251887 0.0 3.427769057216916e-13 0.0 0.01 0.0 3.4277690572166576e-13 0.0 0.010001406546700401 0.009985608128620316 0.0 2.408698016020116e-13 0.0 0.01 0.0 2.408698016020116e-13 0.0 0.010001328864835339 0.009985734583480827 0.0 1.2700062600708606e-13 0.0 0.01 0.0 1.2700062600708606e-13 0.0 0.010001262439022609 0.009985834655496073 0.0 5.57676305972078e-14 0.0 0.01 0.0 5.57676305972078e-14 0.0 0.010001210669822727 0.009985908840175547 0.0 1.5367750700508966e-14 0.0 0.01 0.0 1.5367750700508966e-14 0.0 0.01000117305637691 0.009985952156826758 0.0 3.102786818533483e-15 0.0 0.01 0.0 3.102786818533483e-15 0.0 0.01000114914805084 0.009983246197733383 0.0 -3.7667412902853644e-12 0.0 0.01 0.0 -3.766741290285778e-12 0.0 0.010002119823857515 0.009983419329152903 0.0 -3.293018570971415e-13 0.0 0.01 0.0 -3.293018570971415e-13 0.0 0.010001943416383325 0.009983596449925802 0.0 2.6575252086484576e-13 0.0 0.01 0.0 2.6575252086484576e-13 0.0 0.010001798835254856 0.009983769101999352 0.0 4.1016022896474743e-13 0.0 0.01 0.0 4.1016022896469573e-13 0.0 0.010001680623579427 0.009983926337617235 0.0 3.1552771705626254e-13 0.0 0.01 0.0 3.1552771705626254e-13 0.0 0.010001583876220133 0.009984061685617598 0.0 1.7755677154477173e-13 0.0 0.01 0.0 1.7755677154477173e-13 0.0 0.010001504739568049 0.00998417116229169 0.0 7.780575734384803e-14 0.0 0.01 0.0 7.780575734384803e-14 0.0 0.010001442211936306 0.009984249788670508 0.0 2.5412184622638144e-14 0.0 0.01 0.0 2.5412184622638144e-14 0.0 0.01000139679259994 0.009984298060215757 0.0 3.886077469444778e-15 0.0 0.01 0.0 3.886077469444778e-15 0.0 0.010001366480039131 0.009981358754264133 0.0 -3.032783463789777e-12 0.0 0.01 0.0 -3.032783463789777e-12 0.0 0.01000244179406265 0.009981538251562998 0.0 -1.112103199501723e-13 0.0 0.01 0.0 -1.112103199501723e-13 0.0 0.010002256613615989 0.00998172919560722 0.0 3.4452468719189674e-13 0.0 0.01 0.0 3.4452468719189674e-13 0.0 0.01000209931088094 0.009981913685808258 0.0 4.964425763831725e-13 0.0 0.01 0.0 4.964425763831725e-13 0.0 0.010001964428695442 0.009982082769369571 0.0 3.9425675699548716e-13 0.0 0.01 0.0 3.9425675699543546e-13 0.0 0.01000185356522827 0.009982228486508036 0.0 2.2622337483229938e-13 0.0 0.01 0.0 2.2622337483229938e-13 0.0 0.010001758263614954 0.00998234436851465 0.0 9.842922952582055e-14 0.0 0.01 0.0 9.842922952582055e-14 0.0 0.010001684525548369 0.009982429914902781 0.0 3.2589297903327333e-14 0.0 0.01 0.0 3.2589297903327333e-14 0.0 0.010001629798349834 0.009982480646939264 0.0 5.171996678353267e-15 0.0 0.01 0.0 5.171996678353267e-15 0.0 0.0100015975327351 0.009979290510542976 0.0 -2.1402590460798855e-12 0.0 0.01 0.0 -2.1402590460800923e-12 0.0 0.010002769199845607 0.009979480828689323 0.0 2.361879172844983e-13 0.0 0.01 0.0 2.361879172844983e-13 0.0 0.010002575194402489 0.009979686066464396 0.0 4.89615059683156e-13 0.0 0.01 0.0 4.89615059683156e-13 0.0 0.010002404667085558 0.009979887340987044 0.0 6.002117007917856e-13 0.0 0.01 0.0 6.002117007917856e-13 0.0 0.010002257113954598 0.009980072226093952 0.0 4.746327941516893e-13 0.0 0.01 0.0 4.746327941516634e-13 0.0 0.01000213103100047 0.00998023028118674 0.0 2.685792164883947e-13 0.0 0.01 0.0 2.685792164883947e-13 0.0 0.010002023564056044 0.009980353052431128 0.0 1.2244328418232307e-13 0.0 0.01 0.0 1.2244328418232307e-13 0.0 0.010001941465246772 0.009980445009569686 0.0 3.773910244009969e-14 0.0 0.01 0.0 3.773910244009969e-14 0.0 0.010001878479170058 0.009980501179234519 0.0 6.49622061738372e-15 0.0 0.01 0.0 6.49622061738372e-15 0.0 0.010001842809266767 0.009977024921383965 0.0 -1.1027241218980625e-12 0.0 0.01 0.0 -1.1027241218980625e-12 0.0 0.010003106897322074 0.009977235470188294 0.0 6.048814465851934e-13 0.0 0.01 0.0 6.048814465851417e-13 0.0 0.010002902613285663 0.009977461427719091 0.0 5.586481013096345e-13 0.0 0.01 0.0 5.586481013096086e-13 0.0 0.010002720359651001 0.009977683923980386 0.0 6.680995549595868e-13 0.0 0.01 0.0 6.680995549595868e-13 0.0 0.010002561533882338 0.009977886070765057 0.0 5.407091824596234e-13 0.0 0.01 0.0 5.407091824595975e-13 0.0 0.01000242273015889 0.009978057433312492 0.0 3.2252067444076826e-13 0.0 0.01 0.0 3.2252067444076826e-13 0.0 0.010002305497052482 0.009978195026443887 0.0 1.5180525836085165e-13 0.0 0.01 0.0 1.5180525836085165e-13 0.0 0.010002211183183497 0.009978291394697783 0.0 5.3902743212461214e-14 0.0 0.01 0.0 5.3902743212461214e-14 0.0 0.010002142788534684 0.009978351502084431 0.0 9.994966878837363e-15 0.0 0.01 0.0 9.994966878837363e-15 0.0 0.01000210271302442 0.009974554948139137 0.0 -3.2638470892908913e-13 0.0 0.01 0.0 -3.2638470892908913e-13 0.0 0.0100034558906519 0.009974797099114377 0.0 6.243646499698639e-13 0.0 0.01 0.0 6.24364649969838e-13 0.0 0.010003238872865357 0.009975050185579416 0.0 3.912663986432095e-13 0.0 0.01 0.0 3.912663986432095e-13 0.0 0.010003049744574204 0.009975298824571094 0.0 6.071547178819135e-13 0.0 0.01 0.0 6.071547178818877e-13 0.0 0.01000288064423878 0.009975521672520297 0.0 5.793718770796286e-13 0.0 0.01 0.0 5.793718770796028e-13 0.0 0.010002733520411713 0.009975711775113926 0.0 3.8026631132675683e-13 0.0 0.01 0.0 3.8026631132675683e-13 0.0 0.010002608420223581 0.009975861184518457 0.0 1.9745427617079154e-13 0.0 0.01 0.0 1.9745427617079154e-13 0.0 0.010002507793038556 0.009975969895247907 0.0 7.537427906057223e-14 0.0 0.01 0.0 7.537427906057223e-14 0.0 0.01000243543941595 0.009976032939171176 0.0 1.7916690867234265e-14 0.0 0.01 0.0 1.7916690867234265e-14 0.0 0.010002391007264059 0.009971885013904983 0.0 -7.103269147504605e-13 0.0 0.01 0.0 -7.103269147504605e-13 0.0 0.010003811277769024 0.009972167628839712 0.0 -2.7344427770998075e-13 0.0 0.01 0.0 -2.7344427770998075e-13 0.0 0.01000358883103218 0.009972460185397805 0.0 -3.6829381484782577e-13 0.0 0.01 0.0 -3.6829381484782577e-13 0.0 0.010003394777895414 0.009972737890017931 0.0 2.7054735175231466e-13 0.0 0.01 0.0 2.7054735175231466e-13 0.0 0.010003226661029603 0.00997298784401293 0.0 5.133824907333066e-13 0.0 0.01 0.0 5.133824907333066e-13 0.0 0.01000307807059475 0.00997319764133707 0.0 4.098122648469436e-13 0.0 0.01 0.0 4.098122648469436e-13 0.0 0.010002947602742283 0.00997336231423229 0.0 2.326320578111388e-13 0.0 0.01 0.0 2.326320578111388e-13 0.0 0.010002842011095123 0.009973478383764074 0.0 1.017438094602095e-13 0.0 0.01 0.0 1.017438094602095e-13 0.0 0.010002768249056299 0.0099735503092255 0.0 2.2605743201965186e-14 0.0 0.01 0.0 2.2605743201965186e-14 0.0 0.010002722311243413 0.00996905027802166 0.0 -4.154367259270897e-12 0.0 0.01 0.0 -4.154367259271311e-12 0.0 0.010004178417417546 0.00996938615714057 0.0 -3.1719738166728552e-12 0.0 0.01 0.0 -3.1719738166728552e-12 0.0 0.010003954494467776 0.009969720583795463 0.0 -2.386144367007192e-12 0.0 0.01 0.0 -2.386144367007192e-12 0.0 0.01000376872942816 0.009970032250188263 0.0 -7.050601205609101e-13 0.0 0.01 0.0 -7.050601205608584e-13 0.0 0.01000361475902821 0.009970307769780778 0.0 1.6222750180669087e-13 0.0 0.01 0.0 1.6222750180669087e-13 0.0 0.010003473959420969 0.009970538212880074 0.0 3.2740520021376335e-13 0.0 0.01 0.0 3.2740520021376335e-13 0.0 0.010003348380997795 0.009970719605138519 0.0 2.266995256633237e-13 0.0 0.01 0.0 2.266995256633237e-13 0.0 0.010003247180943113 0.009970847477761783 0.0 1.0178867219856318e-13 0.0 0.01 0.0 1.0178867219856318e-13 0.0 0.01000316995665696 0.009970925789781836 0.0 2.5315080767188576e-14 0.0 0.01 0.0 2.5315080767188576e-14 0.0 0.010003125014246985 0.009966137777380965 0.0 -1.3566768463347682e-11 0.0 0.01 0.0 -1.3566768463347269e-11 0.0 0.010004556312106297 0.009966534741250315 0.0 -1.020565362448993e-11 0.0 0.01 0.0 -1.0205653624489517e-11 0.0 0.010004346582275133 0.00996691244542451 0.0 -7.112380252320944e-12 0.0 0.01 0.0 -7.112380252320944e-12 0.0 0.01000419503827618 0.009967256525264284 0.0 -3.151675700428161e-12 0.0 0.01 0.0 -3.1516757004280576e-12 0.0 0.01000407083440539 0.00996755607701632 0.0 -8.372043593456196e-13 0.0 0.01 0.0 -8.372043593455938e-13 0.0 0.01000395594618898 0.009967806631950219 0.0 -5.9932059290598704e-15 0.0 0.01 0.0 -5.9932059290598704e-15 0.0 0.010003847419256749 0.00996800322681637 0.0 1.340691631805499e-13 0.0 0.01 0.0 1.340691631805499e-13 0.0 0.01000375110956832 0.009968142880613705 0.0 8.011644725868693e-14 0.0 0.01 0.0 8.011644725868693e-14 0.0 0.010003676326312992 0.009968229548155821 0.0 2.3616994185456e-14 0.0 0.01 0.0 2.3616994185456e-14 0.0 0.010003630375987966 0.009963328708384456 0.0 -3.298627796441137e-11 0.0 0.01 0.0 -3.2986277964413027e-11 0.0 0.010004963142473879 0.009963788148734023 0.0 -2.5002204209115262e-11 0.0 0.01 0.0 -2.5002204209114435e-11 0.0 0.010004794946523284 0.009964205112478917 0.0 -1.739961383098204e-11 0.0 0.01 0.0 -1.739961383098204e-11 0.0 0.01000470056221679 0.009964574141851121 0.0 -8.751666367626789e-12 0.0 0.01 0.0 -8.751666367626789e-12 0.0 0.010004633568505067 0.009964892252349662 0.0 -3.2732149342831693e-12 0.0 0.01 0.0 -3.2732149342832727e-12 0.0 0.010004558314841936 0.009965159429338975 0.0 -8.72212654502346e-13 0.0 0.01 0.0 -8.722126545023201e-13 0.0 0.010004477104876393 0.009965370712285496 0.0 -1.2022153772276134e-13 0.0 0.01 0.0 -1.2022153772276134e-13 0.0 0.010004393043129509 0.009965521636904073 0.0 1.9628091146644405e-14 0.0 0.01 0.0 1.9628091146644405e-14 0.0 0.01000432410306394 0.009965615164125358 0.0 8.330501283167673e-15 0.0 0.01 0.0 8.330501283167673e-15 0.0 0.010004281047536834 0.00996091385908273 0.0 -6.335016064690826e-11 0.0 0.01 0.0 -6.335016064690992e-11 0.0 0.010005453207379528 0.009961430790643256 0.0 -5.001433150905989e-11 0.0 0.01 0.0 -5.0014331509058235e-11 0.0 0.010005341176179003 0.009961877610865569 0.0 -3.657498811889462e-11 0.0 0.01 0.0 -3.657498811889462e-11 0.0 0.010005328005122813 0.009962262695552325 0.0 -2.0154787368116653e-11 0.0 0.01 0.0 -2.0154787368115826e-11 0.0 0.010005340224656089 0.009962590967307911 0.0 -8.624854016265669e-12 0.0 0.01 0.0 -8.624854016265669e-12 0.0 0.010005326502724272 0.009962865870429228 0.0 -2.9089291511161673e-12 0.0 0.01 0.0 -2.9089291511161673e-12 0.0 0.010005278125852992 0.00996308393027587 0.0 -7.670327344215159e-13 0.0 0.01 0.0 -7.670327344215159e-13 0.0 0.01000521502664067 0.00996324266311424 0.0 -1.457263941839921e-13 0.0 0.01 0.0 -1.457263941839921e-13 0.0 0.010005155333881565 0.009963340082351358 0.0 -1.917455986612366e-14 0.0 0.01 0.0 -1.917455986612366e-14 0.0 0.010005113769923567 0.009959308227505596 0.0 -9.483499818187243e-11 0.0 0.01 0.0 -9.483499818186913e-11 0.0 0.010006107640938455 0.009959864429184267 0.0 -7.799421057840314e-11 0.0 0.01 0.0 -7.799421057840314e-11 0.0 0.010006056748189423 0.009960319931929189 0.0 -6.303635936676774e-11 0.0 0.01 0.0 -6.303635936676609e-11 0.0 0.010006132085763274 0.009960703353610835 0.0 -3.8667760816496935e-11 0.0 0.01 0.0 -3.866776081649859e-11 0.0 0.010006237781637515 0.009961029000350953 0.0 -1.8499439639579494e-11 0.0 0.01 0.0 -1.8499439639579494e-11 0.0 0.010006294989047973 0.009961301797316996 0.0 -7.105847783258022e-12 0.0 0.01 0.0 -7.105847783258022e-12 0.0 0.01000629158262478 0.00996152123722845 0.0 -2.20491639336292e-12 0.0 0.01 0.0 -2.20491639336292e-12 0.0 0.010006251457225206 0.009961680883934518 0.0 -5.746385651959493e-13 0.0 0.01 0.0 -5.746385651959493e-13 0.0 0.01000620351777394 0.009961780234520858 0.0 -1.0531979098579573e-13 0.0 0.01 0.0 -1.0531979098579573e-13 0.0 0.01000616339343377 0.009959032631006521 0.0 -1.0367697300633556e-10 0.0 0.01 0.0 -1.0367697300633887e-10 0.0 0.010007054808532303 0.00995958088311474 0.0 -8.332610735023217e-11 0.0 0.01 0.0 -8.332610735023548e-11 0.0 0.010007040628593646 0.009960017573892819 0.0 -8.042133584417614e-11 0.0 0.01 0.0 -8.042133584417945e-11 0.0 0.010007185487270847 0.009960378232887056 0.0 -5.786085608959025e-11 0.0 0.01 0.0 -5.7860856089591904e-11 0.0 0.010007371442721536 0.00996067963552102 0.0 -3.1597455832560295e-11 0.0 0.01 0.0 -3.1597455832560295e-11 0.0 0.010007500630486936 0.009960931648889126 0.0 -1.3599750195317565e-11 0.0 0.01 0.0 -1.3599750195318392e-11 0.0 0.010007546133032504 0.009961137226899982 0.0 -4.78138039723881e-12 0.0 0.01 0.0 -4.781380397239017e-12 0.0 0.010007532903153494 0.009961289936113284 0.0 -1.4176283178420638e-12 0.0 0.01 0.0 -1.4176283178420638e-12 0.0 0.010007495218331183 0.009961384826929338 0.0 -2.895178975809775e-13 0.0 0.01 0.0 -2.895178975809775e-13 0.0 0.01000745903729333 0.009960725095342012 0.0 -5.999883888411268e-11 0.0 0.01 0.0 -5.999883888411102e-11 0.0 0.01000843987270668 0.009961202955247394 0.0 -2.774346664615495e-11 0.0 0.01 0.0 -2.774346664615495e-11 0.0 0.010008410999849565 0.009961568685602617 0.0 -5.8017955255509744e-11 0.0 0.01 0.0 -5.8017955255509744e-11 0.0 0.010008575468199166 0.009961865253303222 0.0 -6.038984143251278e-11 0.0 0.01 0.0 -6.038984143251278e-11 0.0 0.010008805065739422 0.00996211241328828 0.0 -4.110348247693815e-11 0.0 0.01 0.0 -4.110348247693815e-11 0.0 0.010008985747052957 0.0099623190531548 0.0 -2.0479140766391327e-11 0.0 0.01 0.0 -2.0479140766391327e-11 0.0 0.010009072882659802 0.009962493570042944 0.0 -8.176864452943957e-12 0.0 0.01 0.0 -8.176864452943957e-12 0.0 0.010009086118647282 0.009962624092917021 0.0 -2.7665025889022326e-12 0.0 0.01 0.0 -2.7665025889022326e-12 0.0 0.010009062604751196 0.00996270962773436 0.0 -6.210298691569651e-13 0.0 0.01 0.0 -6.210298691569651e-13 0.0 0.010009037135728762 0.009965329147365337 0.0 6.690897158810022e-11 0.0 0.01 0.0 6.690897158810188e-11 0.0 0.010010375475263478 0.009965623576755829 0.0 1.239213786121796e-10 0.0 0.01 0.0 1.239213786121796e-10 0.0 0.01001028389204109 0.009965847756462833 0.0 3.8014329116833333e-11 0.0 0.01 0.0 3.8014329116833333e-11 0.0 0.010010401456065741 0.009966022953784893 0.0 -2.117873291353614e-11 0.0 0.01 0.0 -2.117873291353614e-11 0.0 0.010010616482555383 0.009966172423210915 0.0 -3.377902092684847e-11 0.0 0.01 0.0 -3.3779020926845163e-11 0.0 0.010010807545242107 0.00996630309073496 0.0 -2.2483157940738955e-11 0.0 0.01 0.0 -2.2483157940738128e-11 0.0 0.010010922168039808 0.009966418418993834 0.0 -1.0704573540841596e-11 0.0 0.01 0.0 -1.0704573540841596e-11 0.0 0.010010963302782788 0.009966510981479696 0.0 -4.292364034646602e-12 0.0 0.01 0.0 -4.292364034646602e-12 0.0 0.0100109598915897 0.009966570876227198 0.0 -1.0814098436392225e-12 0.0 0.01 0.0 -1.0814098436392225e-12 0.0 0.010010947149811057 0.009974181831980617 0.0 2.645197965377249e-10 0.0 0.01 0.0 2.6451979653771165e-10 0.0 0.010012879338946633 0.009974149087082395 0.0 3.802904106019746e-10 0.0 0.01 0.0 3.8029041060196136e-10 0.0 0.010012708735807755 0.00997413172249448 0.0 2.2856820208902108e-10 0.0 0.01 0.0 2.2856820208902108e-10 0.0 0.01001273719415429 0.009974119815400901 0.0 8.577096577192274e-11 0.0 0.01 0.0 8.577096577191943e-11 0.0 0.010012884709648914 0.009974121303785265 0.0 1.1596029072677322e-11 0.0 0.01 0.0 1.1596029072676909e-11 0.0 0.010013048946886406 0.00997413321088417 0.0 -7.420429057988535e-12 0.0 0.01 0.0 -7.420429057988535e-12 0.0 0.01001317052378774 0.009974158513610923 0.0 -6.928036925929097e-12 0.0 0.01 0.0 -6.928036925929097e-12 0.0 0.01001323668516781 0.009974189770186317 0.0 -4.137658322017461e-12 0.0 0.01 0.0 -4.1376583220176676e-12 0.0 0.010013260680286776 0.009974212096491505 0.0 -1.3461251864391232e-12 0.0 0.01 0.0 -1.3461251864391232e-12 0.0 0.010013270017346218 0.009988666297081526 0.0 3.692300895611697e-10 0.0 0.01 0.0 3.6923008956111675e-10 0.0 0.010015833927751558 0.009988170523633271 0.0 6.438050036010776e-10 0.0 0.01 0.0 6.438050036010511e-10 0.0 0.010015635694941937 0.009987817797123471 0.0 4.709714173337473e-10 0.0 0.01 0.0 4.709714173337737e-10 0.0 0.010015578829516767 0.009987547299144754 0.0 2.580070860483304e-10 0.0 0.01 0.0 2.580070860483172e-10 0.0 0.010015648956982438 0.009987345062712994 0.0 1.1080051960890312e-10 0.0 0.01 0.0 1.1080051960890312e-10 0.0 0.010015770628616277 0.009987197627146236 0.0 4.057052848245784e-11 0.0 0.01 0.0 4.057052848245784e-11 0.0 0.010015887883676215 0.009987101498688538 0.0 1.2420428597822049e-11 0.0 0.01 0.0 1.2420428597822049e-11 0.0 0.010015978163835518 0.009987044221393562 0.0 1.5852469315940187e-12 0.0 0.01 0.0 1.5852469315940187e-12 0.0 0.010016040964495675 0.009987014337978694 0.0 -5.043298871968404e-13 0.0 0.01 0.0 -5.043298871968404e-13 0.0 0.010016080705363703 0.01000940730798564 0.0 7.658333277880109e-11 0.0 0.01 0.0 7.658333277878785e-11 0.0 0.010018976228243446 0.010008409997324358 0.0 6.720068660897489e-10 0.0 0.01 0.0 6.72006866089643e-10 0.0 0.0100188716366988 0.010007668010749688 0.0 6.126705310699124e-10 0.0 0.01 0.0 6.126705310699124e-10 0.0 0.010018818135367267 0.01000710030499689 0.0 4.2040356777315193e-10 0.0 0.01 0.0 4.20403567773099e-10 0.0 0.010018853484365205 0.010006656039536628 0.0 2.4088734326660916e-10 0.0 0.01 0.0 2.4088734326663563e-10 0.0 0.010018951186315753 0.010006316529745776 0.0 1.22077673588215e-10 0.0 0.01 0.0 1.2207767358820178e-10 0.0 0.010019076900698975 0.010006069471303874 0.0 5.281640473391651e-11 0.0 0.01 0.0 5.2816404733909895e-11 0.0 0.010019208050987027 0.010005903173006555 0.0 1.6262110148922903e-11 0.0 0.01 0.0 1.6262110148922903e-11 0.0 0.010019325879429984 0.010005809759075954 0.0 2.4179681892587623e-12 0.0 0.01 0.0 2.4179681892585555e-12 0.0 0.0100194113742872 0.010035362495384633 0.0 -7.198183458288855e-10 0.0 0.01 0.0 -7.198183458288855e-10 0.0 0.010021958364290935 0.010033970165120906 0.0 2.747154834100072e-10 0.0 0.01 0.0 2.747154834099807e-10 0.0 0.010022113183263542 0.010032890054688553 0.0 4.820243643037868e-10 0.0 0.01 0.0 4.820243643038397e-10 0.0 0.010022208061244748 0.010032037101360951 0.0 4.477181450710297e-10 0.0 0.01 0.0 4.477181450710297e-10 0.0 0.010022310794235162 0.010031357832767885 0.0 3.279582327956843e-10 0.0 0.01 0.0 3.2795823279563136e-10 0.0 0.010022448917453068 0.010030822117060962 0.0 2.0218641413839333e-10 0.0 0.01 0.0 2.0218641413839333e-10 0.0 0.010022620472024516 0.010030418481823346 0.0 1.0132910232900252e-10 0.0 0.01 0.0 1.0132910232900252e-10 0.0 0.010022817609575123 0.010030135678562993 0.0 3.6494250200178386e-11 0.0 0.01 0.0 3.649425020017177e-11 0.0 0.010023012291804936 0.010029973575722535 0.0 6.985553757308309e-12 0.0 0.01 0.0 6.985553757308309e-12 0.0 0.010023158801817124 0.010063271720428523 0.0 -1.5438307012105303e-09 0.0 0.01 0.0 -1.5438307012105303e-09 0.0 0.0100244408622542 0.010061732516445073 0.0 -3.439758834833243e-10 0.0 0.01 0.0 -3.4397588348331105e-10 0.0 0.01002500265831278 0.010060469902252 0.0 1.1995011360285553e-10 0.0 0.01 0.0 1.1995011360285553e-10 0.0 0.010025400148421392 0.01005942595030459 0.0 2.9312607008504975e-10 0.0 0.01 0.0 2.9312607008504975e-10 0.0 0.010025696861019206 0.010058564176391775 0.0 2.996608490459411e-10 0.0 0.01 0.0 2.996608490459543e-10 0.0 0.01002596009017044 0.01005786363305704 0.0 2.2182016824986915e-10 0.0 0.01 0.0 2.2182016824986915e-10 0.0 0.010026235686702868 0.01005732213384924 0.0 1.2373050375471518e-10 0.0 0.01 0.0 1.237305037547218e-10 0.0 0.010026536404622775 0.010056935685600317 0.0 4.835580956058571e-11 0.0 0.01 0.0 4.835580956058571e-11 0.0 0.010026828278574084 0.010056702759898497 0.0 1.009668295379775e-11 0.0 0.01 0.0 1.0096682953797336e-11 0.0 0.01002705177518661 0.010088035284449686 0.0 -1.6763588091514331e-09 0.0 0.01 0.0 -1.6763588091514331e-09 0.0 0.010026240121428262 0.010086665507370812 0.0 -6.809922283878779e-10 0.0 0.01 0.0 -6.809922283878911e-10 0.0 0.010027236874358105 0.010085427081150403 0.0 -1.936355513096126e-10 0.0 0.01 0.0 -1.93635551309606e-10 0.0 0.010028031979775982 0.010084330782635617 0.0 6.299988651348047e-11 0.0 0.01 0.0 6.299988651348047e-11 0.0 0.010028616518758365 0.010083379497401608 0.0 1.5919855675174717e-10 0.0 0.01 0.0 1.5919855675175047e-10 0.0 0.010029080460911383 0.010082572641239108 0.0 1.4768728906252525e-10 0.0 0.01 0.0 1.4768728906252525e-10 0.0 0.010029513948689138 0.010081929581007771 0.0 8.980432859876545e-11 0.0 0.01 0.0 8.980432859876545e-11 0.0 0.010029952890895956 0.0100814597518558 0.0 3.605891064574421e-11 0.0 0.01 0.0 3.6058910645743386e-11 0.0 0.010030367772253005 0.010081173582776881 0.0 7.462134573577218e-12 0.0 0.01 0.0 7.462134573577218e-12 0.0 0.010030678702135837 0.010104506817973332 0.0 -1.0733028453529461e-09 0.0 0.01 0.0 -1.0733028453529726e-09 0.0 0.010027301348944013 0.010103544294132173 0.0 -5.485209533762989e-10 0.0 0.01 0.0 -5.485209533762989e-10 0.0 0.010028704672395068 0.01010250502365412 0.0 -2.7019734848542996e-10 0.0 0.01 0.0 -2.7019734848542996e-10 0.0 0.010029856834256426 0.010101478648984518 0.0 -9.623286222724512e-11 0.0 0.01 0.0 -9.623286222724347e-11 0.0 0.010030735370985845 0.010100525027755197 0.0 -2.2810488708882173e-12 0.0 0.01 0.0 -2.2810488708881656e-12 0.0 0.010031435711730085 0.010099687366622688 0.0 2.5785850138800174e-11 0.0 0.01 0.0 2.5785850138801e-11 0.0 0.01003205926307526 0.010098992255835576 0.0 1.8195394074823775e-11 0.0 0.01 0.0 1.819539407482419e-11 0.0 0.010032661269781619 0.010098476783992533 0.0 5.1761195836036495e-12 0.0 0.01 0.0 5.1761195836036495e-12 0.0 0.010033212076648645 0.010098156520568165 0.0 1.862497888443238e-13 0.0 0.01 0.0 1.862497888443238e-13 0.0 0.010033619483651427 0.01011079195109445 0.0 -3.650791939765989e-10 0.0 0.01 0.0 -3.650791939765989e-10 0.0 0.01002787098729426 0.010110304950573913 0.0 -2.3314254422981084e-10 0.0 0.01 0.0 -2.3314254422981415e-10 0.0 0.010029491753395289 0.01010954404979803 0.0 -1.7102298521457278e-10 0.0 0.01 0.0 -1.7102298521457278e-10 0.0 0.010030872379341929 0.010108669383778466 0.0 -1.184053226164414e-10 0.0 0.01 0.0 -1.184053226164414e-10 0.0 0.01003197692724184 0.010107796906853282 0.0 -7.467714444961097e-11 0.0 0.01 0.0 -7.467714444961097e-11 0.0 0.010032878743833193 0.010107001830197901 0.0 -4.601633651182283e-11 0.0 0.01 0.0 -4.6016336511822e-11 0.0 0.010033681101526292 0.010106331891464912 0.0 -2.8759582402866624e-11 0.0 0.01 0.0 -2.8759582402866624e-11 0.0 0.010034441771728235 0.010105824377306359 0.0 -1.5727731197200345e-11 0.0 0.01 0.0 -1.572773119719993e-11 0.0 0.010035124142944832 0.010105505891097634 0.0 -4.743803548981089e-12 0.0 0.01 0.0 -4.743803548981089e-12 0.0 0.010035617592239138 0.010109429570465055 0.0 -5.720718209658408e-12 0.0 0.01 0.0 -5.720718209658408e-12 0.0 0.010028176239256599 0.010109298409619953 0.0 -2.9052196170156138e-11 0.0 0.01 0.0 -2.9052196170156965e-11 0.0 0.010029822831674601 0.010108763694014795 0.0 -5.318550932355812e-11 0.0 0.01 0.0 -5.3185509323558946e-11 0.0 0.010031276473145152 0.01010803897783418 0.0 -6.05145287920499e-11 0.0 0.01 0.0 -6.05145287920499e-11 0.0 0.010032489199105193 0.010107275594180098 0.0 -5.466689260524275e-11 0.0 0.01 0.0 -5.466689260524192e-11 0.0 0.010033516402515274 0.010106567818169753 0.0 -4.254045135565708e-11 0.0 0.01 0.0 -4.2540451355656254e-11 0.0 0.010034447682387187 0.010105969543113784 0.0 -2.844942117782014e-11 0.0 0.01 0.0 -2.844942117782014e-11 0.0 0.010035327426141497 0.010105514508199161 0.0 -1.4816915912813416e-11 0.0 0.01 0.0 -1.4816915912813416e-11 0.0 0.010036110204547458 0.010105227782112694 0.0 -4.1770957368260865e-12 0.0 0.01 0.0 -4.177095736826293e-12 0.0 0.010036672903348993 0.010104396997338456 0.0 3.481821770174114e-11 0.0 0.01 0.0 3.481821770174114e-11 0.0 0.01002835797169991 0.010104372856880511 0.0 1.708063038496264e-11 0.0 0.01 0.0 1.7080630384963055e-11 0.0 0.010029895730808936 0.010103901894656786 0.0 3.0528652363968434e-13 0.0 0.01 0.0 3.0528652363968434e-13 0.0 0.010031294743558041 0.010103235098790912 0.0 -9.806891064616801e-12 0.0 0.01 0.0 -9.806891064616801e-12 0.0 0.010032509899627699 0.010102534202999341 0.0 -1.3176859957359482e-11 0.0 0.01 0.0 -1.3176859957359482e-11 0.0 0.010033570644716116 0.010101897418664763 0.0 -1.1917112812378767e-11 0.0 0.01 0.0 -1.1917112812378354e-11 0.0 0.010034551297429896 0.01010137042159826 0.0 -8.342679138600518e-12 0.0 0.01 0.0 -8.342679138600311e-12 0.0 0.010035489788708983 0.010100974854327384 0.0 -4.322633161610418e-12 0.0 0.01 0.0 -4.322633161610418e-12 0.0 0.010036327346948756 0.010100728292457726 0.0 -1.1965773564638573e-12 0.0 0.01 0.0 -1.1965773564638832e-12 0.0 0.010036926179023773 0.010098541149290437 0.0 -3.238599330776525e-11 0.0 0.01 0.0 -3.238599330776608e-11 0.0 0.010028433814132051 0.010098353103090783 0.0 -4.335279079183651e-12 0.0 0.01 0.0 -4.335279079183444e-12 0.0 0.010029817383221824 0.010097755770807128 0.0 3.332736754941746e-12 0.0 0.01 0.0 3.332736754941746e-12 0.0 0.010031100537206593 0.010097007272925158 0.0 3.834235404608802e-12 0.0 0.01 0.0 3.834235404608802e-12 0.0 0.010032237268869117 0.01009627602550818 0.0 3.615076443961028e-12 0.0 0.01 0.0 3.615076443961028e-12 0.0 0.010033249093234418 0.01009564443674049 0.0 3.530257100968741e-12 0.0 0.01 0.0 3.5302571009688445e-12 0.0 0.010034207425043384 0.010095144549456354 0.0 2.9295135953706192e-12 0.0 0.01 0.0 2.9295135953706192e-12 0.0 0.010035137937312439 0.010094779854018342 0.0 1.735650696014371e-12 0.0 0.01 0.0 1.735650696014371e-12 0.0 0.010035976923699369 0.010094559872793696 0.0 5.1644120500345e-13 0.0 0.01 0.0 5.1644120500345e-13 0.0 0.010036581101970633 0.010092574520523303 0.0 -9.047248588047152e-11 0.0 0.01 0.0 -9.047248588047318e-11 0.0 0.010028348592369755 0.010092015883868795 0.0 -2.711812666143613e-11 0.0 0.01 0.0 -2.711812666143613e-11 0.0 0.01002959819125911 0.010091133684919734 0.0 -7.004065989325063e-12 0.0 0.01 0.0 -7.004065989325063e-12 0.0 0.01003075358797956 0.010090182990237177 0.0 -1.9962455587937106e-12 0.0 0.01 0.0 -1.9962455587937106e-12 0.0 0.010031772838021496 0.010089321298980118 0.0 -4.797970130422604e-13 0.0 0.01 0.0 -4.797970130422604e-13 0.0 0.010032686919572613 0.010088613796643265 0.0 6.437006747238592e-13 0.0 0.01 0.0 6.437006747238592e-13 0.0 0.010033563725503741 0.010088075375127625 0.0 1.1827562882962546e-12 0.0 0.01 0.0 1.1827562882963063e-12 0.0 0.010034436366262946 0.010087699896654558 0.0 9.044092838801892e-13 0.0 0.01 0.0 9.044092838801892e-13 0.0 0.01003523070970198 0.01008747786308446 0.0 2.9432045722025697e-13 0.0 0.01 0.0 2.9432045722025697e-13 0.0 0.010035809129803206 0.010085506687873 0.0 -1.2592236182800596e-10 0.0 0.01 0.0 -1.2592236182800596e-10 0.0 0.010028031475559423 0.010084466973545456 0.0 -3.4924799937362574e-11 0.0 0.01 0.0 -3.49247999373634e-11 0.0 0.010029187339632872 0.010083217823624016 0.0 -1.1031498935537433e-11 0.0 0.01 0.0 -1.1031498935537433e-11 0.0 0.010030233256860165 0.010081999113104222 0.0 -6.090313710852854e-12 0.0 0.01 0.0 -6.090313710852854e-12 0.0 0.010031137025741068 0.010080944962158172 0.0 -5.9876317766119915e-12 0.0 0.01 0.0 -5.9876317766119915e-12 0.0 0.01003192861709262 0.010080100179223565 0.0 -5.574026306171389e-12 0.0 0.01 0.0 -5.574026306171182e-12 0.0 0.010032693836971187 0.010079473105970033 0.0 -3.93885205769856e-12 0.0 0.01 0.0 -3.938852057698353e-12 0.0 0.010033470494300811 0.010079040121976777 0.0 -2.0116314476153914e-12 0.0 0.01 0.0 -2.0116314476153914e-12 0.0 0.01003419413965933 0.010078788149648068 0.0 -5.485729716715303e-13 0.0 0.01 0.0 -5.485729716715303e-13 0.0 0.010034729890617558 0.010075890393357902 0.0 -1.378483407470433e-10 0.0 0.01 0.0 -1.378483407470466e-10 0.0 0.010027432267938022 0.010074351834388899 0.0 -2.2573018100143632e-11 0.0 0.01 0.0 -2.2573018100142805e-11 0.0 0.010028531796630099 0.0100727381481916 0.0 -2.7534701075943452e-12 0.0 0.01 0.0 -2.753470107594242e-12 0.0 0.010029494729573853 0.010071253385503555 0.0 -5.883674737663667e-13 0.0 0.01 0.0 -5.883674737663667e-13 0.0 0.01003028941360354 0.010070003165073085 0.0 -2.687580881330949e-12 0.0 0.01 0.0 -2.687580881330949e-12 0.0 0.010030962055990869 0.010069009071247373 0.0 -4.565046628435801e-12 0.0 0.01 0.0 -4.565046628435801e-12 0.0 0.010031606718692933 0.010068271438009018 0.0 -4.306629217762012e-12 0.0 0.01 0.0 -4.306629217762012e-12 0.0 0.010032275688265806 0.010067760196570836 0.0 -2.5891480406433516e-12 0.0 0.01 0.0 -2.5891480406433516e-12 0.0 0.010032917170600151 0.010067463203050766 0.0 -7.829005150458597e-13 0.0 0.01 0.0 -7.829005150458597e-13 0.0 0.010033399486796588 0.010063109024760429 0.0 -1.0449470362234898e-10 0.0 0.01 0.0 -1.0449470362235229e-10 0.0 0.010026557068318996 0.010061125261643896 0.0 8.567655786127742e-12 0.0 0.01 0.0 8.567655786127742e-12 0.0 0.01002761542198204 0.01005922715369958 0.0 1.1243280756365872e-11 0.0 0.01 0.0 1.1243280756365872e-11 0.0 0.01002850965828496 0.010057559070321243 0.0 8.568746132200357e-12 0.0 0.01 0.0 8.56874613220077e-12 0.0 0.010029212962788378 0.010056174414208918 0.0 6.216124432256326e-12 0.0 0.01 0.0 6.216124432256326e-12 0.0 0.010029773039200298 0.010055077714423866 0.0 3.056935134590643e-12 0.0 0.01 0.0 3.0569351345902295e-12 0.0 0.010030306164944132 0.010054254256193522 0.0 7.217211040272452e-13 0.0 0.01 0.0 7.217211040272452e-13 0.0 0.010030868897292076 0.010053680618211207 0.0 -2.159586515283893e-13 0.0 0.01 0.0 -2.159586515283893e-13 0.0 0.010031426828490448 0.010053343259850661 0.0 -1.8870566925996577e-13 0.0 0.01 0.0 -1.8870566925996577e-13 0.0 0.010031852241028797 0.010048048696251696 0.0 -3.035541637008141e-11 0.0 0.01 0.0 -3.035541637008141e-11 0.0 0.010025443477197171 0.010045753502755855 0.0 3.0891961840196995e-11 0.0 0.01 0.0 3.0891961840196995e-11 0.0 0.010026462570752034 0.010043721118021437 0.0 7.974749448603253e-12 0.0 0.01 0.0 7.974749448602426e-12 0.0 0.010027297870611537 0.010042008836401663 0.0 4.4434065138896274e-12 0.0 0.01 0.0 4.443406513889214e-12 0.0 0.010027919692626298 0.010040611764447165 0.0 7.808721824752865e-12 0.0 0.01 0.0 7.808721824752038e-12 0.0 0.010028388026074893 0.010039510787809165 0.0 7.902073807830681e-12 0.0 0.01 0.0 7.902073807829027e-12 0.0 0.01002881940672533 0.010038675871983696 0.0 5.274696809837112e-12 0.0 0.01 0.0 5.274696809837939e-12 0.0 0.010029284385849041 0.010038088105715775 0.0 2.3441076755221017e-12 0.0 0.01 0.0 2.3441076755221017e-12 0.0 0.01002976269739135 0.010037741391760996 0.0 5.278380202138154e-13 0.0 0.01 0.0 5.278380202138154e-13 0.0 0.01003013668763112 0.010032768263025979 0.0 2.2117012710208515e-11 0.0 0.01 0.0 2.2117012710205206e-11 0.0 0.010024148239835863 0.010030336236838418 0.0 5.784213927536983e-12 0.0 0.01 0.0 5.784213927536983e-12 0.0 0.010025126635895274 0.010028338254966459 0.0 -2.995655965368031e-11 0.0 0.01 0.0 -2.995655965368031e-11 0.0 0.010025911413385848 0.01002672737228076 0.0 -2.2181733522796455e-11 0.0 0.01 0.0 -2.2181733522902334e-11 0.0 0.010026466501797553 0.010025447860488337 0.0 -5.585585715643431e-12 0.0 0.01 0.0 -5.5855857156500486e-12 0.0 0.010026853379613718 0.010024440862253844 0.0 3.0773290197374665e-12 0.0 0.01 0.0 3.0773290197374665e-12 0.0 0.010027197958321743 0.010023675112019393 0.0 4.420279679545141e-12 0.0 0.01 0.0 4.420279679545141e-12 0.0 0.01002757705610086 0.01002313277190577 0.0 2.5415303507757256e-12 0.0 0.01 0.0 2.5415303507757256e-12 0.0 0.010027978331560798 0.010022808245781742 0.0 6.591464403672144e-13 0.0 0.01 0.0 6.591464403674212e-13 0.0 0.01002830083887644 0.010019341620377554 0.0 7.316183237435895e-12 0.0 0.01 0.0 7.316183237435895e-12 0.0 0.010022723721114145 0.010016926680085506 0.0 -6.050959193551068e-11 0.0 0.01 0.0 -6.050959193551068e-11 0.0 0.010023664789061882 0.010015076978878205 0.0 -8.221270402649716e-11 0.0 0.01 0.0 -8.221270402651039e-11 0.0 0.01002440887903825 0.01001366857349838 0.0 -5.420447961057596e-11 0.0 0.01 0.0 -5.420447961058258e-11 0.0 0.010024910622667738 0.010012579346244195 0.0 -2.3423793912684276e-11 0.0 0.01 0.0 -2.3423793912684276e-11 0.0 0.010025240743667693 0.010011732515535358 0.0 -5.847088315706829e-12 0.0 0.01 0.0 -5.847088315706829e-12 0.0 0.010025512350953954 0.010011085807057597 0.0 7.369889254902869e-13 0.0 0.01 0.0 7.369889254902869e-13 0.0 0.01002581592630797 0.010010625310624343 0.0 1.4889113841921111e-12 0.0 0.01 0.0 1.4889113841919044e-12 0.0 0.010026143667487292 0.01001035049777172 0.0 5.036979933874152e-13 0.0 0.01 0.0 5.036979933874152e-13 0.0 0.010026413836251129 0.010008991111492355 0.0 -3.191666115741638e-11 0.0 0.01 0.0 -3.1916661157413074e-11 0.0 0.010021194138826694 0.010006676129659857 0.0 -1.0550492922717336e-10 0.0 0.01 0.0 -1.0550492922717336e-10 0.0 0.010022109710327546 0.010005017423656386 0.0 -1.0165698334959182e-10 0.0 0.01 0.0 -1.0165698334959182e-10 0.0 0.010022831353254864 0.010003819086699957 0.0 -6.275465555019729e-11 0.0 0.01 0.0 -6.275465555019068e-11 0.0 0.010023308792433334 0.01000292608379408 0.0 -2.8932467437335178e-11 0.0 0.01 0.0 -2.8932467437335178e-11 0.0 0.01002360285198654 0.010002241453391833 0.0 -8.979174382226622e-12 0.0 0.01 0.0 -8.979174382224967e-12 0.0 0.010023822154681785 0.010001721144248679 0.0 -6.8782350297816705e-15 0.0 0.01 0.0 -6.8782350297816705e-15 0.0 0.010024059702680815 0.01000135087367966 0.0 1.8671159974983263e-12 0.0 0.01 0.0 1.8671159974983263e-12 0.0 0.010024320838633848 0.010001127140538234 0.0 7.603220960392598e-13 0.0 0.01 0.0 7.603220960393632e-13 0.0 0.010024539735138161 0.010001900441614512 0.0 1.9611331601110178e-10 0.0 0.01 0.0 1.9611331601111502e-10 0.0 0.0100195906188448 0.009999715012183172 0.0 -6.70812182795824e-11 0.0 0.01 0.0 -6.70812182795824e-11 0.0 0.010020487589649057 0.009998210480471663 0.0 -5.720273504273427e-11 0.0 0.01 0.0 -5.720273504273427e-11 0.0 0.010021207422959906 0.009997167204164643 0.0 -3.6096874668133635e-11 0.0 0.01 0.0 -3.6096874668133635e-11 0.0 0.01002168805226446 0.00999641193205902 0.0 -1.886667109619982e-11 0.0 0.01 0.0 -1.8866671096200646e-11 0.0 0.010021973564015407 0.009995845590302766 0.0 -5.45236508011979e-12 0.0 0.01 0.0 -5.45236508011979e-12 0.0 0.010022167240732623 0.009995421146805582 0.0 2.6308383326624196e-12 0.0 0.01 0.0 2.630838332662833e-12 0.0 0.010022358462207647 0.009995119575108381 0.0 3.937003664324463e-12 0.0 0.01 0.0 3.937003664324463e-12 0.0 0.01002256097058551 0.009994938345646989 0.0 1.5147351215195815e-12 0.0 0.01 0.0 1.5147351215195815e-12 0.0 0.010022729107673 0.009997542406263353 0.0 3.0001541772938855e-09 0.0 0.01 0.0 3.0001541772938855e-09 0.0 0.010017961376024523 0.00999548106496273 0.0 1.558571417643597e-10 0.0 0.01 0.0 1.5585714176437293e-10 0.0 0.010018819090740615 0.009994059297987353 0.0 4.409326102274849e-11 0.0 0.01 0.0 4.409326102275511e-11 0.0 0.010019549377662435 0.009993078692311991 0.0 1.3760206005321139e-11 0.0 0.01 0.0 1.3760206005321139e-11 0.0 0.010020054818445612 0.00999237273515816 0.0 -4.251795226651514e-12 0.0 0.01 0.0 -4.251795226651514e-12 0.0 0.010020361822157148 0.009991852966948206 0.0 -3.811589918403038e-12 0.0 0.01 0.0 -3.811589918402831e-12 0.0 0.010020559832637733 0.009991472420357864 0.0 2.8467983555013103e-12 0.0 0.01 0.0 2.8467983555013103e-12 0.0 0.010020727365915616 0.009991212097672333 0.0 4.8138907374013925e-12 0.0 0.01 0.0 4.8138907374013925e-12 0.0 0.010020886052330565 0.0099910580081985 0.0 1.97306648618336e-12 0.0 0.01 0.0 1.9730664861834635e-12 0.0 0.010021014305039978 0.009995105595659866 0.0 1.5156660028111533e-08 0.0 0.01 0.0 1.5156660028110686e-08 0.0 0.010016374129227837 0.009993191459751229 0.0 1.712258457335659e-09 0.0 0.01 0.0 1.712258457335659e-09 0.0 0.010017144589972216 0.00999177116820647 0.0 1.7556630157395938e-10 0.0 0.01 0.0 1.755663015739329e-10 0.0 0.010017865160811434 0.009990754836778979 0.0 7.306661323540409e-11 0.0 0.01 0.0 7.306661323540409e-11 0.0 0.010018405188233838 0.00999000999000999 0.0 7.668474567623352e-12 0.0 0.01 0.0 7.668474567623352e-12 0.0 0.010018759707260606 0.009989469656604386 0.0 -9.995328310971477e-12 0.0 0.01 0.0 -9.995328310971477e-12 0.0 0.010018990961834829 0.009989085395329621 0.0 -4.6131193852917805e-12 0.0 0.01 0.0 -4.613119385291987e-12 0.0 0.010019160880543422 0.009988829245780477 0.0 1.2066632875130732e-12 0.0 0.01 0.0 1.2066632875130732e-12 0.0 0.010019297415157271 0.009988679252955351 0.0 1.1827098707358297e-12 0.0 0.01 0.0 1.1827098707358297e-12 0.0 0.010019397091464669 0.00999385966055354 0.0 4.861735139426567e-08 0.0 0.01 0.0 4.861735139426567e-08 0.0 0.010014911687927553 0.009992154243064415 0.0 8.406336496961751e-09 0.0 0.01 0.0 8.406336496961751e-09 0.0 0.010015517996651055 0.009990711956207456 0.0 4.5601209434142267e-10 0.0 0.01 0.0 4.5601209434142267e-10 0.0 0.010016182245178695 0.009989579311274355 0.0 1.5025495766721558e-10 0.0 0.01 0.0 1.502549576672222e-10 0.0 0.010016743106063737 0.009988729083709196 0.0 3.072454304326327e-11 0.0 0.01 0.0 3.072454304326492e-11 0.0 0.010017151425013733 0.009988107747537762 0.0 -1.5575155878552756e-11 0.0 0.01 0.0 -1.557515587855193e-11 0.0 0.010017437604694217 0.009987672831385226 0.0 -1.7001801528214525e-11 0.0 0.01 0.0 -1.7001801528214525e-11 0.0 0.01001764031757563 0.009987389394278455 0.0 -6.8256806939406904e-12 0.0 0.01 0.0 -6.825680693941104e-12 0.0 0.010017782168621167 0.009987233489250706 0.0 -1.1186383223162965e-12 0.0 0.01 0.0 -1.1186383223162965e-12 0.0 0.010017871544911499 0.009993302237243833 0.0 1.2181238298048094e-07 0.0 0.01 0.0 1.218123829804945e-07 0.0 0.010013646033619511 0.009991919305350726 0.0 3.088816027643537e-08 0.0 0.01 0.0 3.088816027643368e-08 0.0 0.010014031427131158 0.009990503045973058 0.0 2.963229227041393e-09 0.0 0.01 0.0 2.963229227041393e-09 0.0 0.010014561996115234 0.009989227930654689 0.0 2.6907760877314264e-10 0.0 0.01 0.0 2.690776087731294e-10 0.0 0.010015100535187869 0.00998821984853858 0.0 9.646425632000358e-11 0.0 0.01 0.0 9.646425631999696e-11 0.0 0.010015546428713853 0.009987472579820248 0.0 4.8038759823094635e-12 0.0 0.01 0.0 4.80387598230967e-12 0.0 0.010015888838211601 0.009986954571953706 0.0 -1.973605220647343e-11 0.0 0.01 0.0 -1.9736052206474256e-11 0.0 0.010016138081762393 0.009986619902041445 0.0 -1.3479277565417968e-11 0.0 0.01 0.0 -1.347927756541714e-11 0.0 0.010016305895803119 0.009986434154839083 0.0 -3.645449214159889e-12 0.0 0.01 0.0 -3.645449214159889e-12 0.0 0.01001640503063515 0.009993142071097682 0.0 2.57702925752823e-07 0.0 0.01 0.0 2.577029257527959e-07 0.0 0.010012622518976007 0.009992207120011948 0.0 8.908495375591557e-08 0.0 0.01 0.0 8.908495375592235e-08 0.0 0.010012764148184108 0.009990953789953806 0.0 1.7097561408655447e-08 0.0 0.01 0.0 1.7097561408655447e-08 0.0 0.010013100398216363 0.0099896027379677 0.0 1.32224695890208e-09 0.0 0.01 0.0 1.32224695890208e-09 0.0 0.010013541104653113 0.009988419646791667 0.0 2.2493283883905015e-10 0.0 0.01 0.0 2.2493283883903692e-10 0.0 0.010013979961348556 0.00998750993927287 0.0 7.954544642532202e-11 0.0 0.01 0.0 7.954544642532533e-11 0.0 0.010014351636406028 0.009986863928863545 0.0 1.0052913109268027e-11 0.0 0.01 0.0 1.0052913109268027e-11 0.0 0.010014644908296802 0.00998645208173112 0.0 -6.873170396253278e-12 0.0 0.01 0.0 -6.873170396253692e-12 0.0 0.010014846949452639 0.009986222027280233 0.0 -3.2990355006106595e-12 0.0 0.01 0.0 -3.2990355006104527e-12 0.0 0.010014965176570665 0.009993180018336007 0.0 4.841167032758179e-07 0.0 0.01 0.0 4.841167032758721e-07 0.0 0.01001183646725284 0.009992776341801984 0.0 2.1707435315445353e-07 0.0 0.01 0.0 2.1707435315443998e-07 0.0 0.010011778082908549 0.009991865437129401 0.0 6.760770244003042e-08 0.0 0.01 0.0 6.760770244003042e-08 0.0 0.010011896194981582 0.009990617222041852 0.0 1.2532989572529485e-08 0.0 0.01 0.0 1.2532989572529485e-08 0.0 0.010012163757633865 0.00998933109814054 0.0 1.2034173708535681e-09 0.0 0.01 0.0 1.203417370853674e-09 0.0 0.010012517614434304 0.009988246753340427 0.0 2.0861803105847744e-10 0.0 0.01 0.0 2.086180310584642e-10 0.0 0.010012869551240373 0.009987447175631936 0.0 8.496828969203776e-11 0.0 0.01 0.0 8.496828969203776e-11 0.0 0.010013171979524787 0.009986918712853749 0.0 2.393633850273325e-11 0.0 0.01 0.0 2.3936338502731596e-11 0.0 0.01001339501597992 0.009986623388012955 0.0 3.602515584623343e-12 0.0 0.01 0.0 3.6025155846231363e-12 0.0 0.010013530812973414 0.00999325792545597 0.0 8.203880636994021e-07 0.0 0.01 0.0 8.203880636994021e-07 0.0 0.010011221611206367 0.009993367136251902 0.0 4.558462260874211e-07 0.0 0.01 0.0 4.558462260874211e-07 0.0 0.010011058397318959 0.009992950467328964 0.0 1.9878009535223443e-07 0.0 0.01 0.0 1.9878009535222087e-07 0.0 0.01001099661819807 0.009992028043585097 0.0 6.473160799033354e-08 0.0 0.01 0.0 6.473160799034031e-08 0.0 0.010011065189330927 0.009990851569431386 0.0 1.4878325641619514e-08 0.0 0.01 0.0 1.4878325641619514e-08 0.0 0.010011253317143434 0.00998969844021351 0.0 2.2257877163755785e-09 0.0 0.01 0.0 2.2257877163755785e-09 0.0 0.010011511045163464 0.009988758484203785 0.0 2.698798232525498e-10 0.0 0.01 0.0 2.698798232525498e-10 0.0 0.01001176974647921 0.00998809828140385 0.0 7.396557307857332e-11 0.0 0.01 0.0 7.396557307857332e-11 0.0 0.010011980495500542 0.009987722148917624 0.0 1.677070111464485e-11 0.0 0.01 0.0 1.6770701114645677e-11 0.0 0.010012114277856171 0.009993352868645795 0.0 1.2517516332171113e-06 0.0 0.01 0.0 1.2517516332170029e-06 0.0 0.010010712724384245 0.009993746474012015 0.0 8.290620686085418e-07 0.0 0.01 0.0 8.290620686086502e-07 0.0 0.010010523992781285 0.009993864183479681 0.0 4.5906675720546646e-07 0.0 0.01 0.0 4.5906675720546646e-07 0.0 0.010010365726546209 0.00999345992810397 0.0 2.1009729655598421e-07 0.0 0.01 0.0 2.1009729655598421e-07 0.0 0.010010268250528831 0.009992642628540762 0.0 7.875853228687642e-08 0.0 0.01 0.0 7.875853228686964e-08 0.0 0.010010272156859798 0.009991654957679532 0.0 2.3761737810149e-08 0.0 0.01 0.0 2.3761737810150694e-08 0.0 0.010010370108682687 0.00999072890892983 0.0 5.35712821638759e-09 0.0 0.01 0.0 5.357128216388014e-09 0.0 0.010010516566498213 0.009990007497496055 0.0 8.430844795626486e-10 0.0 0.01 0.0 8.430844795625956e-10 0.0 0.010010662529217416 0.009989562862843656 0.0 5.897773874123749e-11 0.0 0.01 0.0 5.89777387412408e-11 0.0 0.010010767365490962 0.009993936455539764 0.0 1.704877092610288e-06 0.0 0.01 0.0 1.7048770926098543e-06 0.0 0.010010400438031681 0.009993928290361848 0.0 1.3063018050595314e-06 0.0 0.01 0.0 1.3063018050595314e-06 0.0 0.010010123006047651 0.009994339422252509 0.0 8.651779298804235e-07 0.0 0.01 0.0 8.651779298804235e-07 0.0 0.010009901498629077 0.009994518547152878 0.0 4.959950402008847e-07 0.0 0.01 0.0 4.959950402008305e-07 0.0 0.010009710963963142 0.009994266942975113 0.0 2.4508523259711185e-07 0.0 0.01 0.0 2.4508523259713895e-07 0.0 0.010009566920397313 0.009993697963952579 0.0 1.0306727328620745e-07 0.0 0.01 0.0 1.0306727328620745e-07 0.0 0.010009495910332634 0.009993014326954404 0.0 3.5231151278672276e-08 0.0 0.01 0.0 3.523115127866889e-08 0.0 0.01000949300065576 0.009992400172406145 0.0 8.924884174155994e-09 0.0 0.01 0.0 8.924884174155147e-09 0.0 0.010009530206446174 0.009991983150796075 0.0 1.2252092279567392e-09 0.0 0.01 0.0 1.2252092279567392e-09 0.0 0.010009569869853888 0.009995930064817858 0.0 1.9646578875538116e-06 0.0 0.01 0.0 1.9646578875535947e-06 0.0 0.010010339842473095 0.009994732646593132 0.0 1.79235946696772e-06 0.0 0.01 0.0 1.7923594669675032e-06 0.0 0.010010020422166926 0.00999453276354518 0.0 1.357997266705096e-06 0.0 0.01 0.0 1.357997266705096e-06 0.0 0.010009591207181829 0.009994961933129601 0.0 9.064202717057367e-07 0.0 0.01 0.0 9.064202717057367e-07 0.0 0.010009285991467306 0.009995321328039538 0.0 5.322441359934048e-07 0.0 0.01 0.0 5.322441359933506e-07 0.0 0.010009056280009294 0.009995352752415577 0.0 2.6919561694682876e-07 0.0 0.01 0.0 2.6919561694685587e-07 0.0 0.010008870198972708 0.009995124070433327 0.0 1.1283638940229128e-07 0.0 0.01 0.0 1.1283638940229128e-07 0.0 0.010008736036336386 0.00999479606515686 0.0 3.612518663628273e-08 0.0 0.01 0.0 3.612518663628951e-08 0.0 0.01000865577560692 0.009994524999635776 0.0 6.756918943750854e-09 0.0 0.01 0.0 6.756918943751701e-09 0.0 0.010008616122863778 0.009999471399891194 0.0 1.5457980753930296e-06 0.0 0.01 0.0 1.5457980753930296e-06 0.0 0.010010448861472027 0.0099972452212952 0.0 1.9713165178142627e-06 0.0 0.01 0.0 1.9713165178142627e-06 0.0 0.010010115007893491 0.009995826094119985 0.0 1.7879678328273918e-06 0.0 0.01 0.0 1.7879678328276086e-06 0.0 0.010009654090805033 0.009995360999094339 0.0 1.3392551435587822e-06 0.0 0.01 0.0 1.3392551435588906e-06 0.0 0.010009105941195574 0.009995711874963505 0.0 8.762991707100386e-07 0.0 0.01 0.0 8.762991707101471e-07 0.0 0.01000870236148176 0.009996250646828006 0.0 4.975308845754146e-07 0.0 0.01 0.0 4.975308845754146e-07 0.0 0.010008425222774007 0.009996578265387404 0.0 2.3589783488094573e-07 0.0 0.01 0.0 2.3589783488091863e-07 0.0 0.010008215220732959 0.009996672662531878 0.0 8.636506128707972e-08 0.0 0.01 0.0 8.636506128707972e-08 0.0 0.01000805657693344 0.009996654179976321 0.0 1.8289759255809998e-08 0.0 0.01 0.0 1.828975925580661e-08 0.0 0.010007957237628037 0.01000181299294067 0.0 1.1060532841036978e-08 0.0 0.01 0.0 1.1060532841040366e-08 0.0 0.010010101234671998 0.01000035229454457 0.0 1.22814135660918e-06 0.0 0.01 0.0 1.22814135660918e-06 0.0 0.010009948150829676 0.009998902615100847 0.0 1.7026940491240723e-06 0.0 0.01 0.0 1.7026940491240723e-06 0.0 0.010009770584824655 0.00999760423611312 0.0 1.581371988759522e-06 0.0 0.01 0.0 1.5813719887597388e-06 0.0 0.010009303391178281 0.009996920125698992 0.0 1.1614366020402857e-06 0.0 0.01 0.0 1.1614366020403942e-06 0.0 0.01000874701512292 0.009996894522356588 0.0 7.079508112684419e-07 0.0 0.01 0.0 7.079508112686587e-07 0.0 0.01000826079990429 0.00999727413429184 0.0 3.5908600471519156e-07 0.0 0.01 0.0 3.5908600471513735e-07 0.0 0.010007928889441282 0.009997654828227169 0.0 1.413209570745545e-07 0.0 0.01 0.0 1.413209570745545e-07 0.0 0.010007714019733811 0.009997872179488238 0.0 3.189069602476871e-08 0.0 0.01 0.0 3.189069602475516e-08 0.0 0.010007579408567316 0.010000693453551176 0.0 -4.5804438670996647e-07 0.0 0.01 0.0 -4.5804438670996647e-07 0.0 0.010009236913732912 0.010000850761032942 0.0 5.919095809631559e-07 0.0 0.01 0.0 5.919095809633727e-07 0.0 0.010009362785282878 0.01000018667729091 0.0 1.0717056161068349e-06 0.0 0.01 0.0 1.0717056161070517e-06 0.0 0.01000917834270763 0.00999977517543875 0.0 1.058445199317911e-06 0.0 0.01 0.0 1.058445199317911e-06 0.0 0.010008909009092341 0.0099994296347608 0.0 7.573769969005956e-07 0.0 0.01 0.0 7.573769969007041e-07 0.0 0.010008415948175075 0.009999392581764488 0.0 4.1984294996697327e-07 0.0 0.01 0.0 4.1984294996697327e-07 0.0 0.010007958266416421 0.009999433552584407 0.0 1.723410868162867e-07 0.0 0.01 0.0 1.723410868162867e-07 0.0 0.010007619053104747 0.009999503037285381 0.0 3.977744814793045e-08 0.0 0.01 0.0 3.977744814793045e-08 0.0 0.01000742135354288 0.009999602529641806 0.0 -1.9915383609467666e-07 0.0 0.01 0.0 -1.9915383609470376e-07 0.0 0.01000860730605378 0.010000285670367615 0.0 2.3290830951497093e-07 0.0 0.01 0.0 2.3290830951491672e-07 0.0 0.010008652324585265 0.010000402890504318 0.0 3.284017236359249e-07 0.0 0.01 0.0 3.2840172363597913e-07 0.0 0.01000830921112698 0.010000971349925888 0.0 2.3702596485124542e-07 0.0 0.01 0.0 2.3702596485129963e-07 0.0 0.010007929329587327 0.0100014471158919 0.0 1.1055607587796856e-07 0.0 0.01 0.0 1.1055607587796856e-07 0.0 0.0100075867268677 0.010001793432453205 0.0 2.6921375671013403e-08 0.0 0.01 0.0 2.6921375671013403e-08 0.0 0.010007376303567144 0.009997577397958774 0.0 -3.399185281557958e-07 0.0 0.01 0.0 -3.399185281557958e-07 0.0 0.01000808110238841 0.009998223975397073 0.0 -1.196298001753665e-07 0.0 0.01 0.0 -1.196298001753665e-07 0.0 0.010007742384547252 0.009998762229994497 0.0 -3.114205578227155e-08 0.0 0.01 0.0 -3.114205578227155e-08 0.0 0.01000749767399074 0.009999179101095742 0.0 -4.778684700517964e-09 0.0 0.01 0.0 -4.778684700517964e-09 0.0 0.010007355758127393 0.009997611356115597 0.0 -2.032655058802199e-18 0.0 0.01 0.0 -2.032655058802199e-18 0.0 0.01000003025013726 0.009997610856473844 0.0 5.780341691654748e-17 0.0 0.01 0.0 5.780341691654748e-17 0.0 0.010000032700160394 0.00999760785862491 0.0 1.664984958917987e-16 0.0 0.01 0.0 1.664984958917987e-16 0.0 0.010000035150185329 0.00999760436113789 0.0 6.999144166745529e-16 0.0 0.01 0.0 6.999144166745529e-16 0.0 0.01000004150025834 0.009997603361856561 0.0 1.7287466457748604e-15 0.0 0.01 0.0 1.7287466457748604e-15 0.0 0.010000048850357952 0.009997605360419522 0.0 4.0928086809477475e-15 0.0 0.01 0.0 4.0928086809477475e-15 0.0 0.010000059550531935 0.00999761585289473 0.0 7.544604834605336e-15 0.0 0.01 0.0 7.544604834605336e-15 0.0 0.01000006785069055 0.009997639835819262 0.0 1.304732398873525e-14 0.0 0.01 0.0 1.304732398873525e-14 0.0 0.010000077650904441 0.009997212665818036 0.0 1.8230806905330728e-18 0.0 0.01 0.0 1.8230806905330728e-18 0.0 0.010000042500270938 0.009997211167072324 0.0 7.695060860640748e-17 0.0 0.01 0.0 7.695060860640748e-17 0.0 0.010000042950276707 0.009997206670839231 0.0 3.6826080827219745e-16 0.0 0.01 0.0 3.6826080827219745e-16 0.0 0.010000048350350663 0.0099972016750318 0.0 6.073512916667799e-16 0.0 0.01 0.0 6.073512916667799e-16 0.0 0.010000055650464542 0.009997197678391247 0.0 -5.140048677694382e-17 0.0 0.01 0.0 -5.140048677694382e-17 0.0 0.010000064950632782 0.009997198177971053 0.0 -4.122431579321056e-15 0.0 0.01 0.0 -4.122431579321056e-15 0.0 0.010000077150892829 0.009997205671677147 0.0 -1.720325702391029e-14 0.0 0.01 0.0 -1.720325702391029e-14 0.0 0.010000089851210972 0.009997227653312233 0.0 -5.1337996541738116e-14 0.0 0.01 0.0 -5.1337996541738116e-14 0.0 0.010000101051531695 0.009996894946802275 0.0 -1.0067601417255234e-18 0.0 0.01 0.0 -1.0067601417255234e-18 0.0 0.010000052750417389 0.009996894946802275 0.0 -1.2179278785296461e-17 0.0 0.01 0.0 -1.2179278785296461e-17 0.0 0.01000005320042454 0.009996888952395028 0.0 4.873790025715649e-17 0.0 0.01 0.0 4.873790025715649e-17 0.0 0.0100000586005151 0.009996880460336552 0.0 1.8159565799976313e-17 0.0 0.01 0.0 1.8159565799976313e-17 0.0 0.010000068350700766 0.009996871968299717 0.0 -1.6627058860049493e-15 0.0 0.01 0.0 -1.6627058860049493e-15 0.0 0.010000079600950437 0.009996868471584958 0.0 -1.020232196487544e-14 0.0 0.01 0.0 -1.020232196487544e-14 0.0 0.01000009425133248 0.009996871968299719 0.0 -3.793150476441056e-14 0.0 0.01 0.0 -3.793150476441056e-14 0.0 0.010000107401730246 0.009996889451928552 0.0 -1.0481534876785722e-13 0.0 0.01 0.0 -1.0481534876790892e-13 0.0 0.010000120102163645 0.00999661222233359 0.0 -1.6098112352658713e-18 0.0 0.01 0.0 -1.6098112352658713e-18 0.0 0.010000060050540905 0.009996608725891386 0.0 1.422290169795519e-17 0.0 0.01 0.0 1.422290169795519e-17 0.0 0.010000063500604844 0.009996598736076733 0.0 8.971832786353246e-17 0.0 0.01 0.0 8.971832786353246e-17 0.0 0.010000068850711056 0.009996589245780554 0.0 -1.6529374121393e-16 0.0 0.01 0.0 -1.6529374121393e-16 0.0 0.010000077650904441 0.009996577757563446 0.0 -1.86081876829897e-15 0.0 0.01 0.0 -1.86081876829897e-15 0.0 0.010000090351224488 0.009996568766812469 0.0 -1.1774096419595574e-14 0.0 0.01 0.0 -1.1774096419595574e-14 0.0 0.010000104501638067 0.009996564271446077 0.0 -4.461156402699464e-14 0.0 0.01 0.0 -4.461156402699464e-14 0.0 0.010000120102163647 0.009996575260130187 0.0 -1.224287407394384e-13 0.0 0.01 0.0 -1.224287407395418e-13 0.0 0.010000134302705535 0.009996305048908919 0.0 5.715661199278665e-19 0.0 0.01 0.0 5.715661199278665e-19 0.0 0.010000067400681422 0.009996302052234495 0.0 8.682579830440328e-17 0.0 0.01 0.0 8.682579830440328e-17 0.0 0.010000069350721423 0.009996292063339208 0.0 2.3648723463274396e-16 0.0 0.01 0.0 2.3648723463274396e-16 0.0 0.010000075700859585 0.009996277080052424 0.0 2.839051872848658e-16 0.0 0.01 0.0 2.839051872848658e-16 0.0 0.01000008495108249 0.009996262096833014 0.0 -1.238263374068091e-15 0.0 0.01 0.0 -1.238263374068091e-15 0.0 0.010000097651430352 0.009996244616495524 0.0 -1.0926222557977924e-14 0.0 0.01 0.0 -1.0926222557977924e-14 0.0 0.010000112801908613 0.009996235127207861 0.0 -4.2452021529017716e-14 0.0 0.01 0.0 -4.2452021529017716e-14 0.0 0.01000012840247304 0.009996237124950383 0.0 -1.1096719666524992e-13 0.0 0.01 0.0 -1.1096719666535331e-13 0.0 0.010000142103028931 0.00999594646600344 0.0 -3.8934318259331014e-19 0.0 0.01 0.0 -3.8934318259331014e-19 0.0 0.010000075700859585 0.009995941971476522 0.0 1.4532079326791272e-16 0.0 0.01 0.0 1.4532079326791272e-16 0.0 0.010000077650904441 0.009995929486711345 0.0 4.504715671026489e-16 0.0 0.01 0.0 4.504715671026489e-16 0.0 0.010000084001058415 0.00999591300689294 0.0 9.76987855145775e-16 0.0 0.01 0.0 9.76987855145775e-16 0.0 0.010000093251304354 0.009995889535777134 0.0 -6.376974418498178e-16 0.0 0.01 0.0 -6.376974418498178e-16 0.0 0.010000105451667985 0.009995866564206866 0.0 -1.0734788448712986e-14 0.0 0.01 0.0 -1.0734788448712986e-14 0.0 0.010000118152093954 0.009995846089679898 0.0 -3.983040731953996e-14 0.0 0.01 0.0 -3.983040731953996e-14 0.0 0.010000132802645435 0.00999584009715922 0.0 -8.312681345879406e-14 0.0 0.01 0.0 -8.312681345874236e-14 0.0 0.010000144053112635 0.009995513021753806 0.0 2.9044726568383896e-20 0.0 0.01 0.0 2.9044726568383896e-20 0.0 0.010000087901158979 0.009995507529158525 0.0 1.6076347428048474e-16 0.0 0.01 0.0 1.6076347428048474e-16 0.0 0.010000089851210972 0.009995493548047761 0.0 8.167467437614453e-16 0.0 0.01 0.0 8.167467437614453e-16 0.0 0.010000095201359476 0.00999547157784938 0.0 1.331291796998397e-15 0.0 0.01 0.0 1.331291796998397e-15 0.0 0.010000102551577501 0.00999544311667142 0.0 -1.0212751169461514e-15 0.0 0.01 0.0 -1.0212751169461514e-15 0.0 0.010000115251992422 0.009995412159174946 0.0 -1.3858228834042207e-14 0.0 0.01 0.0 -1.3858228834042207e-14 0.0 0.010000128402473038 0.009995382699888951 0.0 -4.319281080481607e-14 0.0 0.01 0.0 -4.319281080481607e-14 0.0 0.01000013865288364 0.009995364225554358 0.0 -6.136045282090511e-14 0.0 0.01 0.0 -6.136045282090511e-14 0.0 0.010000148453305694 0.009995001749874584 0.0 1.6446870324801132e-18 0.0 0.01 0.0 1.6446870324801132e-18 0.0 0.010000108401762615 0.00999499725662188 0.0 2.5078587951434196e-17 0.0 0.01 0.0 2.5078587951434196e-17 0.0 0.010000110851843193 0.009994981280661341 0.0 1.0064432937254572e-15 0.0 0.01 0.0 1.0064432937254572e-15 0.0 0.010000114251957997 0.009994953322914734 0.0 8.070100256967658e-16 0.0 0.01 0.0 8.070100256967658e-16 0.0 0.010000122552252822 0.00999491837606139 0.0 -3.121433484001889e-15 0.0 0.01 0.0 -3.121433484001889e-15 0.0 0.010000133802685425 0.009994878936481483 0.0 -2.083994270551313e-14 0.0 0.01 0.0 -2.083994270551313e-14 0.0 0.010000143553091064 0.00999484049582125 0.0 -5.900911875980769e-14 0.0 0.01 0.0 -5.900911875980769e-14 0.0 0.010000152853504559 0.009994810043145537 0.0 -5.888925234668023e-14 0.0 0.01 0.0 -5.888925234668023e-14 0.0 0.010000157703730493 0.009994414183689713 0.0 -2.0283386054674547e-18 0.0 0.01 0.0 -2.0283386054674547e-18 0.0 0.01000013865288364 0.009994408193743953 0.0 2.757891656190253e-18 0.0 0.01 0.0 2.757891656190253e-18 0.0 0.010000141603007655 0.00999438872649461 0.0 4.3029217126046773e-16 0.0 0.01 0.0 4.3029217126046773e-16 0.0 0.010000146003197477 0.00999435578217794 0.0 -7.609247160238244e-16 0.0 0.01 0.0 -7.609247160238244e-16 0.0 0.010000154303571365 0.009994314352666407 0.0 -8.525764412154146e-15 0.0 0.01 0.0 -8.525764412154146e-15 0.0 0.01000016260396592 0.009994266434837803 0.0 -3.509718937236503e-14 0.0 0.01 0.0 -3.509718937236503e-14 0.0 0.010000169454307118 0.009994217519432013 0.0 -8.930371688612172e-14 0.0 0.01 0.0 -8.930371688612172e-14 0.0 0.010000177254712776 0.009994173096879675 0.0 -8.389457300315831e-14 0.0 0.01 0.0 -8.389457300315831e-14 0.0 0.010000179204817041 0.009993744873889066 0.0 -1.0595492385258485e-18 0.0 0.01 0.0 -1.0595492385258485e-18 0.0 0.010000188505330005 0.009993735890779457 0.0 -2.467261569862183e-16 0.0 0.01 0.0 -2.467261569862183e-16 0.0 0.010000188955355484 0.009993712434996348 0.0 -9.928798396421377e-16 0.0 0.01 0.0 -9.928798396421377e-16 0.0 0.010000193855636856 0.00999367500589726 0.0 -3.507420346817017e-15 0.0 0.01 0.0 -3.507420346817017e-15 0.0 0.0100002011560694 0.00999362659821945 0.0 -1.6723622832174514e-14 0.0 0.01 0.0 -1.6723622832174514e-14 0.0 0.010000211456706902 0.009993570206657084 0.0 -5.770076469873784e-14 0.0 0.01 0.0 -5.770076469873784e-14 0.0 0.01000021680705059 0.009993508825776019 0.0 -1.3634885781312444e-13 0.0 0.01 0.0 -1.363488578130986e-13 0.0 0.010000222157402868 0.009993451438170434 0.0 -1.454051588487124e-13 0.0 0.01 0.0 -1.4540515884868656e-13 0.0 0.010000220707306544 0.009992978402354798 0.0 8.564244445215493e-20 0.0 0.01 0.0 8.564244445215493e-20 0.0 0.010000254909746516 0.00999297091815071 0.0 6.343191393706986e-17 0.0 0.01 0.0 6.343191393706986e-17 0.0 0.01000025535978096 0.009992943975155228 0.0 -1.5355558820985696e-15 0.0 0.01 0.0 -1.5355558820985696e-15 0.0 0.010000262210312777 0.009992900068518428 0.0 -6.552902742642393e-15 0.0 0.01 0.0 -6.552902742642393e-15 0.0 0.010000271011016647 0.009992843190326695 0.0 -2.5807892409479565e-14 0.0 0.01 0.0 -2.5807892409479565e-14 0.0 0.010000279811743755 0.009992778829333677 0.0 -8.032328837100754e-14 0.0 0.01 0.0 -8.032328837100754e-14 0.0 0.010000286612321524 0.009992705489252945 0.0 -1.7877615102426848e-13 0.0 0.01 0.0 -1.7877615102426848e-13 0.0 0.01000029056266351 0.009992632649682658 0.0 -2.0079053086907252e-13 0.0 0.01 0.0 -2.0079053086902082e-13 0.0 0.01000029101270277 0.009992112840914225 0.0 -6.574233977813559e-19 0.0 0.01 0.0 -6.574233977813559e-19 0.0 0.010000343267674097 0.009992103363388388 0.0 -2.25696845317897e-18 0.0 0.01 0.0 -2.25696845317897e-18 0.0 0.010000345217875484 0.009992075429784905 0.0 -1.8457557316310033e-15 0.0 0.01 0.0 -1.8457557316310033e-15 0.0 0.010000353518745442 0.009992025548932798 0.0 -8.218934066436216e-15 0.0 0.01 0.0 -8.218934066436216e-15 0.0 0.01000036281974477 0.00999196319891815 0.0 -3.107592580096809e-14 0.0 0.01 0.0 -3.107592580096809e-14 0.0 0.010000373570932244 0.009991887382872903 0.0 -8.563558548344303e-14 0.0 0.01 0.0 -8.563558548344303e-14 0.0 0.01000038477220631 0.009991801593113563 0.0 -1.837069637473303e-13 0.0 0.01 0.0 -1.8370696374730445e-13 0.0 0.010000393573233766 0.00999171181549913 0.0 -2.0926019002122709e-13 0.0 0.01 0.0 -2.0926019002117539e-13 0.0 0.010000398473815944 0.009991139290754148 0.0 1.0090552933470196e-18 0.0 0.01 0.0 1.0090552933470196e-18 0.0 0.010000456581268065 0.009991130314668965 0.0 2.1923013904330202e-17 0.0 0.01 0.0 2.1923013904330202e-17 0.0 0.010000460481804571 0.009991095407901017 0.0 -2.113793686217677e-15 0.0 0.01 0.0 -2.113793686217677e-15 0.0 0.010000469283031919 0.00999104354709279 0.0 -6.614223560490583e-15 0.0 0.01 0.0 -6.614223560490583e-15 0.0 0.010000482434909272 0.009990971741153069 0.0 -2.283113365785598e-14 0.0 0.01 0.0 -2.283113365785598e-14 0.0 0.01000049808721116 0.009990885476342195 0.0 -6.144294836936072e-14 0.0 0.01 0.0 -6.144294836936072e-14 0.0 0.0100005146897331 0.00999078874273807 0.0 -1.190029497271886e-13 0.0 0.01 0.0 -1.190029497271886e-13 0.0 0.010000530292178489 0.009990682538460222 0.0 -1.1953121420650015e-13 0.0 0.01 0.0 -1.1953121420650015e-13 0.0 0.01000054934526372 0.009990045882419063 0.0 -7.777592866532297e-19 0.0 0.01 0.0 -7.777592866532297e-19 0.0 0.010000594803064394 0.009990033918239721 0.0 -4.99206109069905e-16 0.0 0.01 0.0 -4.99206109069905e-16 0.0 0.0100005991538435 0.009989997527458435 0.0 8.488945005259598e-16 0.0 0.01 0.0 8.488945005259598e-16 0.0 0.010000611856150612 0.009989939203337071 0.0 -1.1830793618456588e-16 0.0 0.01 0.0 -1.1830793618456588e-16 0.0 0.010000628459239188 0.009989861439430944 0.0 -2.6295770326090653e-15 0.0 0.01 0.0 -2.6295770326090653e-15 0.0 0.01000065191374319 0.009989764735568224 0.0 -2.931684847044906e-16 0.0 0.01 0.0 -2.931684847044906e-16 0.0 0.0100006773188079 0.009989655573241961 0.0 1.1843527041932999e-14 0.0 0.01 0.0 1.1843527041932999e-14 0.0 0.010000704174372248 0.009989534452109273 0.0 3.95672150804489e-14 0.0 0.01 0.0 3.95672150804489e-14 0.0 0.010000741782528036 0.00998882725247604 0.0 2.404479546676628e-19 0.0 0.01 0.0 2.404479546676628e-19 0.0 0.010000756435820617 0.009988814296026298 0.0 8.56859314520231e-17 0.0 0.01 0.0 8.56859314520231e-17 0.0 0.010000761787039084 0.009988775426979573 0.0 3.56810655458106e-15 0.0 0.01 0.0 3.56810655458106e-15 0.0 0.010000777440652699 0.009988711144551896 0.0 1.2560545672955221e-14 0.0 0.01 0.0 1.2560545672955221e-14 0.0 0.010000801846433345 0.009988624439987475 0.0 3.336336711921372e-14 0.0 0.01 0.0 3.336336711921372e-14 0.0 0.010000832603972864 0.009988519799554486 0.0 7.895531768224172e-14 0.0 0.01 0.0 7.895531768224172e-14 0.0 0.010000869263329677 0.009988397224944054 0.0 1.5750785219625194e-13 0.0 0.01 0.0 1.5750785219625194e-13 0.0 0.010000914675479384 0.009988261700546501 0.0 1.747650630074996e-13 0.0 0.01 0.0 1.747650630074996e-13 0.0 0.010000969891085065 0.009987471583573916 0.0 2.300492402208024e-18 0.0 0.01 0.0 2.300492402208024e-18 0.0 0.010000938632138008 0.009987456639914726 0.0 2.361264565776874e-15 0.0 0.01 0.0 2.361264565776874e-15 0.0 0.010000946434343742 0.009987415296140478 0.0 8.960194630394322e-15 0.0 0.01 0.0 8.960194630394322e-15 0.0 0.010000965939937972 0.009987346058921463 0.0 3.076277891116252e-14 0.0 0.01 0.0 3.076277891116252e-14 0.0 0.01000099524855824 0.0099872509223577 0.0 7.834614762030292e-14 0.0 0.01 0.0 7.834614762030292e-14 0.0 0.010001037261364353 0.009987136363611458 0.0 1.6183846148882377e-13 0.0 0.01 0.0 1.6183846148882377e-13 0.0 0.010001088577724426 0.009987001886635002 0.0 2.642216076281707e-13 0.0 0.01 0.0 2.6422160762811903e-13 0.0 0.010001150098378523 0.00998685396823492 0.0 2.6023504941641043e-13 0.0 0.01 0.0 2.6023504941641043e-13 0.0 0.010001229726797017 0.009985968587428123 0.0 -1.420414429351792e-19 0.0 0.01 0.0 -1.420414429351792e-19 0.0 0.010001140795182358 0.009985952156826758 0.0 3.5358112175923807e-15 0.0 0.01 0.0 3.5358112175923807e-15 0.0 0.01000114914805084 0.009985908840175547 0.0 1.6424787080516013e-14 0.0 0.01 0.0 1.6424787080516013e-14 0.0 0.01000117305637691 0.009985834655496073 0.0 5.443326348617909e-14 0.0 0.01 0.0 5.443326348617909e-14 0.0 0.010001210669822727 0.009985734583480827 0.0 1.2685525009996224e-13 0.0 0.01 0.0 1.2685525009996224e-13 0.0 0.010001262439022609 0.009985608128620316 0.0 2.421200071320544e-13 0.0 0.01 0.0 2.421200071320544e-13 0.0 0.010001328864835339 0.009985462761251887 0.0 3.387527173289842e-13 0.0 0.01 0.0 3.3875271732895833e-13 0.0 0.010001406546700401 0.00998530196844158 0.0 2.6311301142048346e-13 0.0 0.01 0.0 2.6311301142048346e-13 0.0 0.010001507640878633 0.009984314482653649 0.0 -5.252761133529456e-19 0.0 0.01 0.0 -5.252761133529456e-19 0.0 0.0100013567260559 0.009984298060215757 0.0 4.784355000730483e-15 0.0 0.01 0.0 4.784355000730483e-15 0.0 0.010001366480039131 0.009984249788670508 0.0 2.3822655163114475e-14 0.0 0.01 0.0 2.3822655163114475e-14 0.0 0.01000139679259994 0.00998417116229169 0.0 7.742329944692977e-14 0.0 0.01 0.0 7.742329944692977e-14 0.0 0.010001442211936306 0.009984061685617598 0.0 1.8080544292940645e-13 0.0 0.01 0.0 1.8080544292940645e-13 0.0 0.010001504739568049 0.009983926337617235 0.0 3.1089256827080087e-13 0.0 0.01 0.0 3.1089256827080087e-13 0.0 0.010001583876220133 0.009983769101999352 0.0 4.13380555046813e-13 0.0 0.01 0.0 4.1338055504678716e-13 0.0 0.010001680623579427 0.009983596449925802 0.0 2.7854762327980895e-13 0.0 0.01 0.0 2.7854762327980895e-13 0.0 0.010001798835254856 0.009982497557789976 0.0 -3.465917160083782e-21 0.0 0.01 0.0 -3.465917160083782e-21 0.0 0.010001586327385363 0.009982480646939264 0.0 5.765806148814654e-15 0.0 0.01 0.0 5.765806148814654e-15 0.0 0.0100015975327351 0.009982429914902781 0.0 3.217557048796749e-14 0.0 0.01 0.0 3.217557048796749e-14 0.0 0.010001629798349834 0.00998234436851465 0.0 1.0014294924242383e-13 0.0 0.01 0.0 1.0014294924242383e-13 0.0 0.010001684525548369 0.009982228486508036 0.0 2.224652684268893e-13 0.0 0.01 0.0 2.224652684268893e-13 0.0 0.010001758263614954 0.009982082769369571 0.0 3.949764187332126e-13 0.0 0.01 0.0 3.9497641873318674e-13 0.0 0.01000185356522827 0.009981913685808258 0.0 5.035399159764406e-13 0.0 0.01 0.0 5.035399159763889e-13 0.0 0.010001964428695442 0.00998172919560722 0.0 3.4420254056718767e-13 0.0 0.01 0.0 3.4420254056718767e-13 0.0 0.01000209931088094 0.009980520068361441 0.0 -6.510070236294921e-19 0.0 0.01 0.0 -6.510070236294921e-19 0.0 0.010001830102268584 0.009980501179234519 0.0 7.735329322768588e-15 0.0 0.01 0.0 7.735329322768588e-15 0.0 0.010001842809266767 0.009980445009569686 0.0 4.02069821371128e-14 0.0 0.01 0.0 4.02069821371128e-14 0.0 0.010001878479170058 0.009980353052431128 0.0 1.2117870160411702e-13 0.0 0.01 0.0 1.2117870160411702e-13 0.0 0.010001941465246772 0.00998023028118674 0.0 2.714069940386974e-13 0.0 0.01 0.0 2.714069940386974e-13 0.0 0.010002023564056044 0.009980072226093952 0.0 4.765961687610339e-13 0.0 0.01 0.0 4.76596168761008e-13 0.0 0.01000213103100047 0.009979887340987044 0.0 5.95387357214984e-13 0.0 0.01 0.0 5.95387357214984e-13 0.0 0.010002257113954598 0.009979686066464396 0.0 4.789348151318219e-13 0.0 0.01 0.0 4.789348151317702e-13 0.0 0.010002404667085558 0.009978370875771109 0.0 -1.0237888020950798e-18 0.0 0.01 0.0 -1.0237888020950798e-18 0.0 0.010002088554126591 0.009978351502084431 0.0 1.0878771103708047e-14 0.0 0.01 0.0 1.0878771103708047e-14 0.0 0.01000210271302442 0.009978291394697783 0.0 5.539644153741032e-14 0.0 0.01 0.0 5.539644153741032e-14 0.0 0.010002142788534684 0.009978195026443887 0.0 1.516343770735721e-13 0.0 0.01 0.0 1.516343770735721e-13 0.0 0.010002211183183497 0.009978057433312492 0.0 3.243183535421928e-13 0.0 0.01 0.0 3.243183535421928e-13 0.0 0.010002305497052482 0.009977886070765057 0.0 5.404969611717041e-13 0.0 0.01 0.0 5.404969611716782e-13 0.0 0.01000242273015889 0.009977683923980386 0.0 6.610175537607009e-13 0.0 0.01 0.0 6.610175537607009e-13 0.0 0.010002561533882338 0.009977461427719091 0.0 5.741156794819646e-13 0.0 0.01 0.0 5.741156794819129e-13 0.0 0.010002720359651001 0.00997605527785597 0.0 4.277377998999221e-19 0.0 0.01 0.0 4.277377998999221e-19 0.0 0.010002375846428801 0.009976032939171176 0.0 1.822521362590881e-14 0.0 0.01 0.0 1.822521362590881e-14 0.0 0.010002391007264059 0.009975969895247907 0.0 7.4620518577463e-14 0.0 0.01 0.0 7.4620518577463e-14 0.0 0.01000243543941595 0.009975861184518457 0.0 1.9225369039861113e-13 0.0 0.01 0.0 1.9225369039861113e-13 0.0 0.010002507793038556 0.009975711775113926 0.0 3.799148829218503e-13 0.0 0.01 0.0 3.799148829218503e-13 0.0 0.010002608420223581 0.009975521672520297 0.0 5.787459255367871e-13 0.0 0.01 0.0 5.787459255367354e-13 0.0 0.010002733520411713 0.009975298824571094 0.0 6.109471632662426e-13 0.0 0.01 0.0 6.109471632662426e-13 0.0 0.01000288064423878 0.009975050185579416 0.0 3.9027918266427605e-13 0.0 0.01 0.0 3.9027918266427605e-13 0.0 0.010003049744574204 0.009973573127283229 0.0 -5.757902552411796e-19 0.0 0.01 0.0 -5.757902552411796e-19 0.0 0.010002707649307835 0.0099735503092255 0.0 2.311195508961182e-14 0.0 0.01 0.0 2.311195508961182e-14 0.0 0.010002722311243413 0.009973478383764074 0.0 9.883464206173765e-14 0.0 0.01 0.0 9.883464206173765e-14 0.0 0.010002768249056299 0.00997336231423229 0.0 2.348147439213512e-13 0.0 0.01 0.0 2.348147439213512e-13 0.0 0.010002842011095123 0.00997319764133707 0.0 4.120389533233574e-13 0.0 0.01 0.0 4.120389533233574e-13 0.0 0.010002947602742283 0.00997298784401293 0.0 5.104145350992866e-13 0.0 0.01 0.0 5.104145350992866e-13 0.0 0.01000307807059475 0.009972737890017931 0.0 2.69647194131224e-13 0.0 0.01 0.0 2.69647194131224e-13 0.0 0.010003226661029603 0.009972460185397805 0.0 -3.8383688064917377e-13 0.0 0.01 0.0 -3.8383688064917377e-13 0.0 0.010003394777895414 0.009970952059417048 0.0 -2.4801640238025377e-18 0.0 0.01 0.0 -2.4801640238025377e-18 0.0 0.010003109850073837 0.009970925789781836 0.0 2.4911662213706542e-14 0.0 0.01 0.0 2.4911662213706542e-14 0.0 0.010003125014246985 0.009970847477761783 0.0 1.0353899853740171e-13 0.0 0.01 0.0 1.0353899853740171e-13 0.0 0.01000316995665696 0.009970719605138519 0.0 2.2861483171570464e-13 0.0 0.01 0.0 2.2861483171570464e-13 0.0 0.010003247180943113 0.009970538212880074 0.0 3.275387101618925e-13 0.0 0.01 0.0 3.275387101618925e-13 0.0 0.010003348380997795 0.009970307769780778 0.0 1.571158357840773e-13 0.0 0.01 0.0 1.571158357840773e-13 0.0 0.010003473959420969 0.009970032250188263 0.0 -7.122465969689917e-13 0.0 0.01 0.0 -7.122465969689917e-13 0.0 0.01000361475902821 0.009969720583795463 0.0 -2.3884480185185706e-12 0.0 0.01 0.0 -2.388448018518364e-12 0.0 0.01000376872942816 0.009968258272754263 0.0 -3.140095653745978e-20 0.0 0.01 0.0 -3.140095653745978e-20 0.0 0.010003616711144178 0.009968229548155821 0.0 2.1579789360459125e-14 0.0 0.01 0.0 2.1579789360459125e-14 0.0 0.010003630375987966 0.009968142880613705 0.0 8.305384179347484e-14 0.0 0.01 0.0 8.305384179347484e-14 0.0 0.010003676326312992 0.00996800322681637 0.0 1.3268047244834902e-13 0.0 0.01 0.0 1.3268047244834902e-13 0.0 0.01000375110956832 0.009967806631950219 0.0 -5.343039972002797e-15 0.0 0.01 0.0 -5.343039972002797e-15 0.0 0.010003847419256749 0.00996755607701632 0.0 -8.371493454691097e-13 0.0 0.01 0.0 -8.37149345469058e-13 0.0 0.01000395594618898 0.009967256525264286 0.0 -3.1619260182079567e-12 0.0 0.01 0.0 -3.1619260182078533e-12 0.0 0.01000407083440539 0.009966912445424515 0.0 -7.103660712225539e-12 0.0 0.01 0.0 -7.1036607122259525e-12 0.0 0.010004195038276183 0.009965642381536256 0.0 5.641317011792648e-19 0.0 0.01 0.0 5.641317011792648e-19 0.0 0.010004267380026447 0.009965615164125358 0.0 9.292154026425106e-15 0.0 0.01 0.0 9.292154026425106e-15 0.0 0.010004281047536834 0.009965521636904073 0.0 1.1886567210644851e-14 0.0 0.01 0.0 1.1886567210644851e-14 0.0 0.01000432410306394 0.009965370712285496 0.0 -1.2192154105180695e-13 0.0 0.01 0.0 -1.2192154105180695e-13 0.0 0.010004393043129509 0.009965159924131113 0.0 -8.711403268791904e-13 0.0 0.01 0.0 -8.711403268791646e-13 0.0 0.010004477104876393 0.009964892252349662 0.0 -3.2702694464199147e-12 0.0 0.01 0.0 -3.2702694464199147e-12 0.0 0.010004558314841936 0.009964574141851121 0.0 -8.751001951308212e-12 0.0 0.01 0.0 -8.751001951307799e-12 0.0 0.010004633568505067 0.00996420511247891 0.0 -1.7402503288232703e-11 0.0 0.01 0.0 -1.7402503288232703e-11 0.0 0.010004700562216785 0.009963372720907436 0.0 1.294633922086758e-18 0.0 0.01 0.0 1.294633922086758e-18 0.0 0.010005100098999986 0.009963340082351358 0.0 -1.7760382744624626e-14 0.0 0.01 0.0 -1.7760382744624626e-14 0.0 0.010005113769923567 0.00996324266311424 0.0 -1.4873632435463184e-13 0.0 0.01 0.0 -1.4873632435463184e-13 0.0 0.010005155333881565 0.00996308393027587 0.0 -7.616058208171072e-13 0.0 0.01 0.0 -7.616058208171072e-13 0.0 0.01000521502664067 0.009962865870429228 0.0 -2.9059980782651634e-12 0.0 0.01 0.0 -2.9059980782651634e-12 0.0 0.010005278125852992 0.009962590967307911 0.0 -8.625790984090842e-12 0.0 0.01 0.0 -8.625790984090842e-12 0.0 0.010005326502724272 0.009962262201191627 0.0 -2.014907824726406e-11 0.0 0.01 0.0 -2.014907824726406e-11 0.0 0.01000534022465609 0.009961877116562193 0.0 -3.6587025855480175e-11 0.0 0.01 0.0 -3.6587025855480175e-11 0.0 0.010005328005122814 0.009961814340631389 0.0 1.3329483904327747e-18 0.0 0.01 0.0 1.3329483904327747e-18 0.0 0.010006149718207149 0.009961780234520858 0.0 -1.0414457678316938e-13 0.0 0.01 0.0 -1.0414457678316938e-13 0.0 0.01000616339343377 0.009961680883934518 0.0 -5.730157243606082e-13 0.0 0.01 0.0 -5.730157243606082e-13 0.0 0.01000620351777394 0.00996152123722845 0.0 -2.215083135013717e-12 0.0 0.01 0.0 -2.215083135013717e-12 0.0 0.010006251457225206 0.009961301797316996 0.0 -7.106895662282273e-12 0.0 0.01 0.0 -7.106895662282273e-12 0.0 0.01000629158262478 0.009961029000350953 0.0 -1.8499399835725346e-11 0.0 0.01 0.0 -1.849939983572452e-11 0.0 0.010006294989047973 0.009960703353610838 0.0 -3.867679626825152e-11 0.0 0.01 0.0 -3.867679626825152e-11 0.0 0.010006237781637518 0.009960319931929189 0.0 -6.301384826638387e-11 0.0 0.01 0.0 -6.301384826638387e-11 0.0 0.010006132085763274 0.00996141794050862 0.0 8.84067592667725e-19 0.0 0.01 0.0 8.84067592667725e-19 0.0 0.010007446308877477 0.009961384826929338 0.0 -2.869600262921e-13 0.0 0.01 0.0 -2.869600262921e-13 0.0 0.01000745903729333 0.009961289936113284 0.0 -1.414591514017754e-12 0.0 0.01 0.0 -1.414591514017754e-12 0.0 0.010007495218331183 0.009961137226899982 0.0 -4.7835719419926436e-12 0.0 0.01 0.0 -4.78357194199285e-12 0.0 0.010007532903153494 0.009960931648889126 0.0 -1.3598894264606837e-11 0.0 0.01 0.0 -1.359889426460725e-11 0.0 0.010007546133032504 0.00996067963552102 0.0 -3.1597651394014244e-11 0.0 0.01 0.0 -3.159765139401507e-11 0.0 0.010007500630486936 0.009960378232887052 0.0 -5.7856751057791374e-11 0.0 0.01 0.0 -5.7856751057791374e-11 0.0 0.010007371442721532 0.009960017573892817 0.0 -8.04382073817685e-11 0.0 0.01 0.0 -8.043820738177181e-11 0.0 0.010007185487270845 0.009962737315777284 0.0 -6.787747692668401e-19 0.0 0.01 0.0 -6.787747692668401e-19 0.0 0.010009026857930276 0.00996270962773436 0.0 -6.187170735046614e-13 0.0 0.01 0.0 -6.187170735046614e-13 0.0 0.010009037135728762 0.009962624092917023 0.0 -2.770566635796517e-12 0.0 0.01 0.0 -2.770566635796517e-12 0.0 0.010009062604751196 0.009962493570042944 0.0 -8.194826465547983e-12 0.0 0.01 0.0 -8.194826465547983e-12 0.0 0.010009086118647283 0.009962319053154802 0.0 -2.048489493987421e-11 0.0 0.01 0.0 -2.0484894939873384e-11 0.0 0.010009072882659802 0.009962112413288279 0.0 -4.109889298209241e-11 0.0 0.01 0.0 -4.109889298209241e-11 0.0 0.010008985747052956 0.009961865253303219 0.0 -6.037203022014669e-11 0.0 0.01 0.0 -6.037203022014669e-11 0.0 0.010008805065739422 0.009961568685602617 0.0 -5.79903993373835e-11 0.0 0.01 0.0 -5.79903993373835e-11 0.0 0.010008575468199166 0.009966591171386575 0.0 1.6777985158902727e-18 0.0 0.01 0.0 1.6777985158902727e-18 0.0 0.01001094128058293 0.009966570876227198 0.0 -1.0865534578477909e-12 0.0 0.01 0.0 -1.0865534578477909e-12 0.0 0.010010947149811057 0.009966510981479694 0.0 -4.27808528856481e-12 0.0 0.01 0.0 -4.27808528856481e-12 0.0 0.010010959891589698 0.009966418418993834 0.0 -1.070730173658197e-11 0.0 0.01 0.0 -1.070730173658197e-11 0.0 0.010010963302782788 0.00996630309073496 0.0 -2.248240901257123e-11 0.0 0.01 0.0 -2.248240901257123e-11 0.0 0.010010922168039808 0.009966172423210913 0.0 -3.3753088438201655e-11 0.0 0.01 0.0 -3.37530884382e-11 0.0 0.010010807545242108 0.009966022953784895 0.0 -2.1144482054908436e-11 0.0 0.01 0.0 -2.114448205490761e-11 0.0 0.010010616482555386 0.009965847756462835 0.0 3.7972670798636396e-11 0.0 0.01 0.0 3.7972670798636396e-11 0.0 0.010010401456065743 0.009974220530912481 0.0 8.880731452945826e-19 0.0 0.01 0.0 8.880731452945826e-19 0.0 0.010013271975120057 0.009974212096491505 0.0 -1.3476106822873175e-12 0.0 0.01 0.0 -1.3476106822873175e-12 0.0 0.010013270017346218 0.009974189770186317 0.0 -4.139781204559847e-12 0.0 0.01 0.0 -4.139781204560261e-12 0.0 0.010013260680286778 0.009974158513610927 0.0 -6.9534810625900675e-12 0.0 0.01 0.0 -6.9534810625900675e-12 0.0 0.010013236685167811 0.00997413321088417 0.0 -7.43262620649778e-12 0.0 0.01 0.0 -7.432626206497366e-12 0.0 0.01001317052378774 0.009974121303785268 0.0 1.1592279326692953e-11 0.0 0.01 0.0 1.159227932669254e-11 0.0 0.01001304894688641 0.009974119815400903 0.0 8.574989705387011e-11 0.0 0.01 0.0 8.574989705387342e-11 0.0 0.010012884709648917 0.009974131722494482 0.0 2.286083725623951e-10 0.0 0.01 0.0 2.286083725623951e-10 0.0 0.010012737194154292 0.00998700537300654 0.0 -1.1255596574962213e-19 0.0 0.01 0.0 -1.1255596574962213e-19 0.0 0.010016096380779285 0.009987014337978694 0.0 -5.064365560366151e-13 0.0 0.01 0.0 -5.064365560366151e-13 0.0 0.010016080705363703 0.009987044221393562 0.0 1.5676723247910986e-12 0.0 0.01 0.0 1.567672324791202e-12 0.0 0.010016040964495675 0.009987101498688537 0.0 1.2400956686675752e-11 0.0 0.01 0.0 1.240095668667658e-11 0.0 0.010015978163835516 0.009987197627146236 0.0 4.05525267273684e-11 0.0 0.01 0.0 4.0552526727366747e-11 0.0 0.010015887883676215 0.009987345062712996 0.0 1.1081845291509631e-10 0.0 0.01 0.0 1.1081845291509631e-10 0.0 0.010015770628616279 0.00998754729914475 0.0 2.5795703225576e-10 0.0 0.01 0.0 2.5795703225577324e-10 0.0 0.010015648956982433 0.009987817797123474 0.0 4.709056991151379e-10 0.0 0.01 0.0 4.709056991151379e-10 0.0 0.010015578829516768 0.010005778454724721 0.0 -4.224989845305979e-18 0.0 0.01 0.0 -4.224989845305979e-18 0.0 0.01001944230384817 0.010005809759075954 0.0 2.4373377654249116e-12 0.0 0.01 0.0 2.437337765424498e-12 0.0 0.010019411374287203 0.010005903173006559 0.0 1.6201726765948032e-11 0.0 0.01 0.0 1.6201726765949686e-11 0.0 0.010019325879429986 0.010006069471303877 0.0 5.2799134431321225e-11 0.0 0.01 0.0 5.2799134431321225e-11 0.0 0.010019208050987027 0.010006316529745776 0.0 1.2210171992952755e-10 0.0 0.01 0.0 1.221017199295408e-10 0.0 0.010019076900698977 0.010006656039536628 0.0 2.408320062973538e-10 0.0 0.01 0.0 2.4083200629732735e-10 0.0 0.010018951186315751 0.01000710030499689 0.0 4.204497621134877e-10 0.0 0.01 0.0 4.204497621134348e-10 0.0 0.010018853484365209 0.010007668010749688 0.0 6.127209307435429e-10 0.0 0.01 0.0 6.127209307435429e-10 0.0 0.010018818135367265 0.010029919896339896 0.0 2.6906991872136526e-17 0.0 0.01 0.0 2.6906991872136526e-17 0.0 0.010023215343309714 0.010029973575722537 0.0 6.997459136828277e-12 0.0 0.01 0.0 6.997459136829931e-12 0.0 0.010023158801817122 0.010030135678562993 0.0 3.648832068049761e-11 0.0 0.01 0.0 3.648832068049761e-11 0.0 0.010023012291804937 0.010030418481823348 0.0 1.0131108421463472e-10 0.0 0.01 0.0 1.0131108421463472e-10 0.0 0.01002281760957512 0.01003082211706096 0.0 2.0219743198817028e-10 0.0 0.01 0.0 2.0219743198811734e-10 0.0 0.010022620472024518 0.010031357832767889 0.0 3.2794338863587496e-10 0.0 0.01 0.0 3.2794338863587496e-10 0.0 0.01002244891745307 0.010032037101360953 0.0 4.4762603830526344e-10 0.0 0.01 0.0 4.476260383052105e-10 0.0 0.010022310794235158 0.010032890054688555 0.0 4.819988344788171e-10 0.0 0.01 0.0 4.819988344787642e-10 0.0 0.010022208061244747 0.010056626325143807 0.0 4.596454057776358e-18 0.0 0.01 0.0 4.596454057776358e-18 0.0 0.01002713398981139 0.010056703268452268 0.0 1.007694538908753e-11 0.0 0.01 0.0 1.0076945389087116e-11 0.0 0.01002705177518661 0.010056935685600314 0.0 4.835613005251806e-11 0.0 0.01 0.0 4.835613005251806e-11 0.0 0.01002682827857408 0.010057322133849236 0.0 1.2372630135333242e-10 0.0 0.01 0.0 1.2372630135333904e-10 0.0 0.010026536404622774 0.010057863633057041 0.0 2.2182746448673735e-10 0.0 0.01 0.0 2.2182746448673735e-10 0.0 0.01002623568670287 0.01005856417639177 0.0 2.997037076509269e-10 0.0 0.01 0.0 2.9970370765091366e-10 0.0 0.010025960090170434 0.010059425950304585 0.0 2.930463968254955e-10 0.0 0.01 0.0 2.93046396825469e-10 0.0 0.010025696861019203 0.010060469902252001 0.0 1.2011408160022297e-10 0.0 0.01 0.0 1.2011408160021635e-10 0.0 0.010025400148421392 0.010081078557081612 0.0 6.6304011651964315e-18 0.0 0.01 0.0 6.6304011651964315e-18 0.0 0.010030794967669253 0.010081173582776883 0.0 7.475008517322965e-12 0.0 0.01 0.0 7.475008517323172e-12 0.0 0.010030678702135837 0.0100814597518558 0.0 3.605802293135629e-11 0.0 0.01 0.0 3.605802293135629e-11 0.0 0.010030367772253005 0.010081929581007775 0.0 8.980777576381096e-11 0.0 0.01 0.0 8.980777576381096e-11 0.0 0.010029952890895958 0.010082572641239108 0.0 1.476932633102738e-10 0.0 0.01 0.0 1.4769326331027711e-10 0.0 0.010029513948689141 0.010083379497401608 0.0 1.5917865505588325e-10 0.0 0.01 0.0 1.5917865505588325e-10 0.0 0.010029080460911386 0.010084330782635618 0.0 6.297089120640764e-11 0.0 0.01 0.0 6.297089120640764e-11 0.0 0.010028616518758367 0.010085427081150407 0.0 -1.9362921478269283e-10 0.0 0.01 0.0 -1.936292147826862e-10 0.0 0.01002803197977598 0.010098048914777622 0.0 3.479866826628706e-18 0.0 0.01 0.0 3.479866826628706e-18 0.0 0.010033767924048784 0.010098156520568165 0.0 1.9729622856111818e-13 0.0 0.01 0.0 1.9729622856111818e-13 0.0 0.010033619483651427 0.010098476783992534 0.0 5.204499290203585e-12 0.0 0.01 0.0 5.204499290203585e-12 0.0 0.010033212076648645 0.01009899225583557 0.0 1.821909502217647e-11 0.0 0.01 0.0 1.821909502217647e-11 0.0 0.010032661269781617 0.01009968736662269 0.0 2.580045211951941e-11 0.0 0.01 0.0 2.5800452119518583e-11 0.0 0.010032059263075262 0.010100525027755197 0.0 -2.2622973285007457e-12 0.0 0.01 0.0 -2.2622973285007457e-12 0.0 0.010031435711730085 0.01010147864898452 0.0 -9.624676908606907e-11 0.0 0.01 0.0 -9.624676908606907e-11 0.0 0.010030735370985847 0.010102505023654122 0.0 -2.701516951025668e-10 0.0 0.01 0.0 -2.701516951025668e-10 0.0 0.010029856834256426 0.010105398101791941 0.0 -1.2877424915541088e-18 0.0 0.01 0.0 -1.2877424915541088e-18 0.0 0.010035801195179774 0.010105505891097634 0.0 -4.754733484672542e-12 0.0 0.01 0.0 -4.754733484672646e-12 0.0 0.010035617592239138 0.01010582437730636 0.0 -1.5736677491373256e-11 0.0 0.01 0.0 -1.5736677491372842e-11 0.0 0.010035124142944834 0.01010633189146491 0.0 -2.8744493085951534e-11 0.0 0.01 0.0 -2.874449308595319e-11 0.0 0.010034441771728233 0.010107001830197901 0.0 -4.601265448812561e-11 0.0 0.01 0.0 -4.6012654488124784e-11 0.0 0.010033681101526292 0.010107796906853282 0.0 -7.46718902631564e-11 0.0 0.01 0.0 -7.467189026315475e-11 0.0 0.010032878743833193 0.010108669383778461 0.0 -1.184102499838343e-10 0.0 0.01 0.0 -1.1841024998383098e-10 0.0 0.010031976927241839 0.010109544049798034 0.0 -1.7098439484039509e-10 0.0 0.01 0.0 -1.709843948403984e-10 0.0 0.01003087237934193 0.010105131558654834 0.0 1.8142958133797516e-18 0.0 0.01 0.0 1.8142958133797516e-18 0.0 0.010036880274544706 0.010105227782112694 0.0 -4.17578960519139e-12 0.0 0.01 0.0 -4.1757896051914935e-12 0.0 0.010036672903348993 0.010105514972594478 0.0 -1.4808206176321183e-11 0.0 0.01 0.0 -1.4808206176320356e-11 0.0 0.010036110204547456 0.010105969543113784 0.0 -2.845119878442191e-11 0.0 0.01 0.0 -2.8451198784421084e-11 0.0 0.010035327426141497 0.010106567818169753 0.0 -4.254138378030358e-11 0.0 0.01 0.0 -4.254138378030358e-11 0.0 0.010034447682387187 0.010107275594180098 0.0 -5.466364506069758e-11 0.0 0.01 0.0 -5.466364506069841e-11 0.0 0.010033516402515272 0.010108038977834174 0.0 -6.052222352610642e-11 0.0 0.01 0.0 -6.052222352610477e-11 0.0 0.010032489199105188 0.010108763694014795 0.0 -5.31851774585119e-11 0.0 0.01 0.0 -5.3185177458511074e-11 0.0 0.010031276473145152 0.010100646263754903 0.0 -2.531910495686304e-18 0.0 0.01 0.0 -2.531910495686304e-18 0.0 0.010037148379760856 0.010100728292457726 0.0 -1.1949477990460453e-12 0.0 0.01 0.0 -1.194947799046097e-12 0.0 0.010036926179023773 0.010100974854327384 0.0 -4.323023075123701e-12 0.0 0.01 0.0 -4.323023075123598e-12 0.0 0.010036327346948756 0.01010137042159826 0.0 -8.342371923557855e-12 0.0 0.01 0.0 -8.342371923557648e-12 0.0 0.010035489788708983 0.010101897418664763 0.0 -1.1918867707305593e-11 0.0 0.01 0.0 -1.191886770730518e-11 0.0 0.010034551297429896 0.010102533739014841 0.0 -1.317483074533241e-11 0.0 0.01 0.0 -1.317483074533241e-11 0.0 0.010033570644716116 0.010103235098790912 0.0 -9.806499202184828e-12 0.0 0.01 0.0 -9.806499202184828e-12 0.0 0.010032509899627699 0.010103901894656786 0.0 3.081614122375509e-13 0.0 0.01 0.0 3.081614122375509e-13 0.0 0.010031294743558041 0.010094486017463721 0.0 8.590020751203315e-19 0.0 0.01 0.0 8.590020751203315e-19 0.0 0.010036804745858451 0.010094559872793696 0.0 5.168456001483659e-13 0.0 0.01 0.0 5.168456001483659e-13 0.0 0.010036581101970633 0.010094779854018342 0.0 1.7337340216106626e-12 0.0 0.01 0.0 1.7337340216106626e-12 0.0 0.010035976923699369 0.010095144549456354 0.0 2.929972642624281e-12 0.0 0.01 0.0 2.9299726426243845e-12 0.0 0.010035137937312439 0.01009564443674049 0.0 3.5324205085028847e-12 0.0 0.01 0.0 3.5324205085028847e-12 0.0 0.010034207425043384 0.01009627602550818 0.0 3.613634311880868e-12 0.0 0.01 0.0 3.6136343118809715e-12 0.0 0.010033249093234418 0.010097007272925158 0.0 3.841002073026664e-12 0.0 0.01 0.0 3.841002073026664e-12 0.0 0.010032237268869117 0.010097755770807128 0.0 3.3265984557498317e-12 0.0 0.01 0.0 3.3265984557498317e-12 0.0 0.010031100537206591 0.010087404214410258 0.0 -1.5762122751241033e-18 0.0 0.01 0.0 -1.5762122751241033e-18 0.0 0.010036024786934786 0.01008747786308446 0.0 2.9468120241826333e-13 0.0 0.01 0.0 2.9468120241826333e-13 0.0 0.010035809129803206 0.010087699896654558 0.0 9.090342671928035e-13 0.0 0.01 0.0 9.090342671928035e-13 0.0 0.01003523070970198 0.010088075375127625 0.0 1.1813054705366378e-12 0.0 0.01 0.0 1.1813054705366895e-12 0.0 0.010034436366262946 0.010088613796643265 0.0 6.453654408065894e-13 0.0 0.01 0.0 6.453654408065894e-13 0.0 0.010033563725503741 0.010089321298980118 0.0 -4.812164241868893e-13 0.0 0.01 0.0 -4.812164241868893e-13 0.0 0.010032686919572613 0.010090182990237177 0.0 -1.9999606381720356e-12 0.0 0.01 0.0 -1.999960638171984e-12 0.0 0.010031772838021496 0.010091133684919734 0.0 -7.007540180417978e-12 0.0 0.01 0.0 -7.0075401804181844e-12 0.0 0.01003075358797956 0.01007870516980564 0.0 3.0033813374318828e-18 0.0 0.01 0.0 3.0033813374318828e-18 0.0 0.01003492920884296 0.010078788149648068 0.0 -5.509247444560414e-13 0.0 0.01 0.0 -5.509247444560414e-13 0.0 0.010034729890617558 0.010079040121976777 0.0 -2.0087768333927833e-12 0.0 0.01 0.0 -2.008776833392835e-12 0.0 0.01003419413965933 0.010079473105970033 0.0 -3.941643643576282e-12 0.0 0.01 0.0 -3.941643643576282e-12 0.0 0.010033470494300811 0.010080100179223565 0.0 -5.571334806672447e-12 0.0 0.01 0.0 -5.5713348066722406e-12 0.0 0.010032693836971187 0.010080944962158172 0.0 -5.985307898047304e-12 0.0 0.01 0.0 -5.985307898047304e-12 0.0 0.01003192861709262 0.010081999113104222 0.0 -6.094247674147654e-12 0.0 0.01 0.0 -6.094247674147861e-12 0.0 0.010031137025741068 0.010083217823624016 0.0 -1.1030648639718763e-11 0.0 0.01 0.0 -1.1030648639718763e-11 0.0 0.010030233256860165 0.010067362595504373 0.0 -8.6388481202031025e-19 0.0 0.01 0.0 -8.6388481202031025e-19 0.0 0.01003357902859846 0.010067463203050766 0.0 -7.841715454463921e-13 0.0 0.01 0.0 -7.841715454463921e-13 0.0 0.010033399486796588 0.010067760196570836 0.0 -2.584070405835943e-12 0.0 0.01 0.0 -2.5840704058360465e-12 0.0 0.010032917170600151 0.010068271438009018 0.0 -4.309441085923893e-12 0.0 0.01 0.0 -4.309441085923893e-12 0.0 0.010032275688265806 0.010069009071247373 0.0 -4.568748566727537e-12 0.0 0.01 0.0 -4.568748566727537e-12 0.0 0.010031606718692935 0.010070003165073085 0.0 -2.687787274277544e-12 0.0 0.01 0.0 -2.687787274277544e-12 0.0 0.010030962055990869 0.010071253385503555 0.0 -6.089706612075706e-13 0.0 0.01 0.0 -6.089706612075706e-13 0.0 0.01003028941360354 0.0100727381481916 0.0 -2.74547623763727e-12 0.0 0.01 0.0 -2.745476237637063e-12 0.0 0.010029494729573851 0.010053234082920368 0.0 8.267141965425341e-18 0.0 0.01 0.0 8.267141965425341e-18 0.0 0.010032013930158344 0.010053343259850661 0.0 -1.8720321979024696e-13 0.0 0.01 0.0 -1.8720321979024696e-13 0.0 0.010031852241028797 0.010053680618211207 0.0 -2.1423491626344722e-13 0.0 0.01 0.0 -2.1423491626344722e-13 0.0 0.010031426828490448 0.010054254256193522 0.0 7.235358245287267e-13 0.0 0.01 0.0 7.235358245287267e-13 0.0 0.010030868897292076 0.010055077714423866 0.0 3.058849793086181e-12 0.0 0.01 0.0 3.058849793085974e-12 0.0 0.010030306164944132 0.010056174414208918 0.0 6.224748131847607e-12 0.0 0.01 0.0 6.224748131847607e-12 0.0 0.0100297730392003 0.010057559070321243 0.0 8.56915439873416e-12 0.0 0.01 0.0 8.56915439873416e-12 0.0 0.010029212962788378 0.01005922715369958 0.0 1.1211736377332214e-11 0.0 0.01 0.0 1.1211736377332214e-11 0.0 0.010028509658284956 0.010037625339616526 0.0 -2.6235980523523067e-17 0.0 0.01 0.0 -2.6235980523523067e-17 0.0 0.010030279574752854 0.010037741391760996 0.0 5.301731450390507e-13 0.0 0.01 0.0 5.301731450391541e-13 0.0 0.010030136183097017 0.010038088105715774 0.0 2.34111451886204e-12 0.0 0.01 0.0 2.34111451886204e-12 0.0 0.010029762697391349 0.01003867587198369 0.0 5.276346512611791e-12 0.0 0.01 0.0 5.276346512610137e-12 0.0 0.010029284385849038 0.010039510787809165 0.0 7.904612146412926e-12 0.0 0.01 0.0 7.904612146412926e-12 0.0 0.01002881940672533 0.010040611764447167 0.0 7.802876747715589e-12 0.0 0.01 0.0 7.802876747716416e-12 0.0 0.010028388026074897 0.010042008836401665 0.0 4.438508347630024e-12 0.0 0.01 0.0 4.438508347630024e-12 0.0 0.010027919692626303 0.010043721118021438 0.0 7.954967730959384e-12 0.0 0.01 0.0 7.954967730959384e-12 0.0 0.010027297870611539 0.010022702074282963 0.0 1.3776804819473536e-17 0.0 0.01 0.0 1.3776804819473536e-17 0.0 0.010028425947416816 0.010022808245781742 0.0 6.58742106432436e-13 0.0 0.01 0.0 6.58742106432436e-13 0.0 0.01002830083887644 0.01002313277190577 0.0 2.5414595608235122e-12 0.0 0.01 0.0 2.541459560822685e-12 0.0 0.010027978331560796 0.010023675112019396 0.0 4.4076099247219025e-12 0.0 0.01 0.0 4.4076099247219025e-12 0.0 0.01002757705610086 0.010024440862253842 0.0 3.078855331433405e-12 0.0 0.01 0.0 3.078855331433405e-12 0.0 0.010027197958321741 0.010025447860488331 0.0 -5.598157328578991e-12 0.0 0.01 0.0 -5.598157328578991e-12 0.0 0.010026853379613716 0.01002672737228076 0.0 -2.2172180703957925e-11 0.0 0.01 0.0 -2.2172180703852046e-11 0.0 0.010026466501797553 0.010028338254966459 0.0 -2.992366038425394e-11 0.0 0.01 0.0 -2.992366038425394e-11 0.0 0.010025911413385848 0.010010257460767974 0.0 -7.62988188281506e-18 0.0 0.01 0.0 -7.62988188281506e-18 0.0 0.01002651821059601 0.01001035049777172 0.0 5.091253567597531e-13 0.0 0.01 0.0 5.091253567597531e-13 0.0 0.010026413836251129 0.010010625310624343 0.0 1.48355706791999e-12 0.0 0.01 0.0 1.4835570679197832e-12 0.0 0.010026143667487292 0.010011085807057597 0.0 7.361387377065752e-13 0.0 0.01 0.0 7.361387377065752e-13 0.0 0.01002581592630797 0.010011732515535356 0.0 -5.8511127116557475e-12 0.0 0.01 0.0 -5.8511127116557475e-12 0.0 0.010025512350953954 0.010012579346244197 0.0 -2.343054405661172e-11 0.0 0.01 0.0 -2.343054405660841e-11 0.0 0.010025240743667695 0.010013668573498379 0.0 -5.416305081500605e-11 0.0 0.01 0.0 -5.416305081500605e-11 0.0 0.01002491062266774 0.010015076978878209 0.0 -8.219983309910398e-11 0.0 0.01 0.0 -8.219983309910398e-11 0.0 0.010024408879038252 0.010001050965656108 0.0 -5.188940723512533e-19 0.0 0.01 0.0 -5.188940723512533e-19 0.0 0.010024623852427014 0.010001127140538234 0.0 7.687541034239743e-13 0.0 0.01 0.0 7.68754103424026e-13 0.0 0.010024539735138161 0.01000135087367966 0.0 1.8725093486424465e-12 0.0 0.01 0.0 1.8725093486424465e-12 0.0 0.010024320838633848 0.010001721144248679 0.0 -2.4443346758846412e-15 0.0 0.01 0.0 -2.4443346758846412e-15 0.0 0.010024059702680815 0.010002241453391835 0.0 -8.982668499009855e-12 0.0 0.01 0.0 -8.982668499009028e-12 0.0 0.010023822154681786 0.010002926083794082 0.0 -2.892444862926382e-11 0.0 0.01 0.0 -2.8924448629262165e-11 0.0 0.010023602851986543 0.010003819086699959 0.0 -6.272692305940585e-11 0.0 0.01 0.0 -6.272692305941247e-11 0.0 0.010023308792433338 0.01000501742365638 0.0 -1.0164747375034472e-10 0.0 0.01 0.0 -1.0164747375035134e-10 0.0 0.010022831353254862 0.009994878936481483 0.0 2.6111399962428886e-18 0.0 0.01 0.0 2.6111399962428886e-18 0.0 0.010022795005624063 0.009994938345646989 0.0 1.5196110517680388e-12 0.0 0.01 0.0 1.5196110517680388e-12 0.0 0.010022729107673 0.009995119575108381 0.0 3.938529247434135e-12 0.0 0.01 0.0 3.938529247434135e-12 0.0 0.01002256097058551 0.009995421146805582 0.0 2.617903243504108e-12 0.0 0.01 0.0 2.617903243504108e-12 0.0 0.010022358462207646 0.009995845590302765 0.0 -5.4644115286311155e-12 0.0 0.01 0.0 -5.4644115286311155e-12 0.0 0.010022167240732622 0.009996411932059019 0.0 -1.886798771625969e-11 0.0 0.01 0.0 -1.886798771625969e-11 0.0 0.010021973564015406 0.009997167703739887 0.0 -3.6120157024663147e-11 0.0 0.01 0.0 -3.61201570246648e-11 0.0 0.01002168805226446 0.009998210480471665 0.0 -5.7195052730167766e-11 0.0 0.01 0.0 -5.7195052730171074e-11 0.0 0.010021207422959907 0.009991004652016591 0.0 -5.623002189795083e-18 0.0 0.01 0.0 -5.623002189795083e-18 0.0 0.010021062457681761 0.0099910580081985 0.0 1.9795988718462103e-12 0.0 0.01 0.0 1.9795988718462103e-12 0.0 0.010021014305039978 0.009991212097672331 0.0 4.803314664382846e-12 0.0 0.01 0.0 4.803314664382846e-12 0.0 0.010020886052330563 0.009991472420357863 0.0 2.831581558106029e-12 0.0 0.01 0.0 2.831581558106029e-12 0.0 0.010020727365915614 0.009991852966948203 0.0 -3.8163231008395946e-12 0.0 0.01 0.0 -3.816323100839388e-12 0.0 0.01002055983263773 0.00999237273515816 0.0 -4.254422779115e-12 0.0 0.01 0.0 -4.254422779115e-12 0.0 0.010020361822157148 0.009993078692311995 0.0 1.3743279765309553e-11 0.0 0.01 0.0 1.3743279765309553e-11 0.0 0.010020054818445616 0.009994059297987353 0.0 4.415234928443089e-11 0.0 0.01 0.0 4.415234928443089e-11 0.0 0.010019549377662435 0.009988631416133271 0.0 1.956544938050809e-18 0.0 0.01 0.0 1.956544938050809e-18 0.0 0.010019434458273885 0.009988679252955351 0.0 1.18341682315467e-12 0.0 0.01 0.0 1.18341682315467e-12 0.0 0.010019397091464669 0.009988829245780477 0.0 1.19556376961304e-12 0.0 0.01 0.0 1.19556376961304e-12 0.0 0.010019297415157271 0.009989085395329621 0.0 -4.619294739676742e-12 0.0 0.01 0.0 -4.619294739676742e-12 0.0 0.010019160880543424 0.009989469656604388 0.0 -1.0000855795896177e-11 0.0 0.01 0.0 -1.000085579589659e-11 0.0 0.01001899096183483 0.009990009990009992 0.0 7.696831720544801e-12 0.0 0.01 0.0 7.696831720544801e-12 0.0 0.010018759707260608 0.009990754836778979 0.0 7.308096788594959e-11 0.0 0.01 0.0 7.308096788594959e-11 0.0 0.01001840518823384 0.009991771168206471 0.0 1.754857555343959e-10 0.0 0.01 0.0 1.7548575553438266e-10 0.0 0.010017865160811434 0.009987182186636896 0.0 -1.474085899342022e-18 0.0 0.01 0.0 -1.474085899342022e-18 0.0 0.010017901957524281 0.009987233489250706 0.0 -1.1216735811676065e-12 0.0 0.01 0.0 -1.1216735811676065e-12 0.0 0.010017871544911499 0.009987389394278455 0.0 -6.818966519187117e-12 0.0 0.01 0.0 -6.818966519186703e-12 0.0 0.010017782168621167 0.009987672831385228 0.0 -1.6997177865975446e-11 0.0 0.01 0.0 -1.6997177865975446e-11 0.0 0.010017640317575635 0.009988107747537764 0.0 -1.5586091923170625e-11 0.0 0.01 0.0 -1.5586091923169798e-11 0.0 0.010017437604694217 0.009988729083709196 0.0 3.07056454601665e-11 0.0 0.01 0.0 3.0705645460169806e-11 0.0 0.010017151425013728 0.00998957931127436 0.0 1.5029677714813635e-10 0.0 0.01 0.0 1.5029677714814296e-10 0.0 0.010016743106063737 0.009990711956207456 0.0 4.560369749729188e-10 0.0 0.01 0.0 4.560369749729188e-10 0.0 0.010016182245178694 0.009986375893106695 0.0 1.6955814180521202e-18 0.0 0.01 0.0 1.6955814180521202e-18 0.0 0.010016436937302002 0.009986434154839083 0.0 -3.645564512731761e-12 0.0 0.01 0.0 -3.645564512731761e-12 0.0 0.01001640503063515 0.009986619902041447 0.0 -1.3471445163505154e-11 0.0 0.01 0.0 -1.3471445163505981e-11 0.0 0.01001630589580312 0.00998695457195371 0.0 -1.9730662229782322e-11 0.0 0.01 0.0 -1.9730662229781494e-11 0.0 0.010016138081762398 0.00998747257982025 0.0 4.816427358113139e-12 0.0 0.01 0.0 4.816427358113139e-12 0.0 0.010015888838211601 0.009988219848538578 0.0 9.646074434978745e-11 0.0 0.01 0.0 9.646074434978083e-11 0.0 0.010015546428713853 0.009989227930654689 0.0 2.6904170058918654e-10 0.0 0.01 0.0 2.6904170058918654e-10 0.0 0.010015100535187869 0.00999050304597306 0.0 2.963237183060083e-09 0.0 0.01 0.0 2.9632371830598714e-09 0.0 0.010014561996115235 0.0099861488314709 0.0 -3.8382243899008483e-19 0.0 0.01 0.0 -3.8382243899008483e-19 0.0 0.01001500194133677 0.00998622202728023 0.0 -3.306861011700344e-12 0.0 0.01 0.0 -3.3068610116999302e-12 0.0 0.010014965176570662 0.009986452081731127 0.0 -6.866003528820286e-12 0.0 0.01 0.0 -6.866003528819872e-12 0.0 0.010014846949452642 0.00998686442689576 0.0 1.0059171253930627e-11 0.0 0.01 0.0 1.0059171253930627e-11 0.0 0.010014644908296804 0.009987509939272872 0.0 7.953810440198197e-11 0.0 0.01 0.0 7.953810440198197e-11 0.0 0.010014351636406032 0.009988419646791664 0.0 2.249320685643874e-10 0.0 0.01 0.0 2.2493206856437416e-10 0.0 0.010013979961348554 0.0099896027379677 0.0 1.3222148438541374e-09 0.0 0.01 0.0 1.3222148438541374e-09 0.0 0.010013541104653115 0.009990953789953806 0.0 1.7097650962875674e-08 0.0 0.01 0.0 1.709765096287398e-08 0.0 0.010013100398216363 0.009986531259992475 0.0 -5.942434269791143e-19 0.0 0.01 0.0 -5.942434269791143e-19 0.0 0.010013575945988557 0.009986623388012955 0.0 3.5919254280107304e-12 0.0 0.01 0.0 3.5919254280109372e-12 0.0 0.010013530812973414 0.009986918712853747 0.0 2.393868510493495e-11 0.0 0.01 0.0 2.3938685104933296e-11 0.0 0.010013395015979915 0.009987447175631934 0.0 8.497718910227571e-11 0.0 0.01 0.0 8.497718910228233e-11 0.0 0.010013171477546422 0.009988246753340427 0.0 2.086289428523311e-10 0.0 0.01 0.0 2.0862894285231786e-10 0.0 0.010012869551240373 0.00998933109814054 0.0 1.2034086184505833e-09 0.0 0.01 0.0 1.2034086184505833e-09 0.0 0.010012517614434306 0.009990617222041857 0.0 1.2532956058632464e-08 0.0 0.01 0.0 1.2532956058632464e-08 0.0 0.01001216375763387 0.009991865437129401 0.0 6.760770244003042e-08 0.0 0.01 0.0 6.760770244003042e-08 0.0 0.010011896194981582 0.009987598109243307 0.0 2.4513637199279585e-18 0.0 0.01 0.0 2.4513637199279585e-18 0.0 0.010012161298659932 0.00998772214891762 0.0 1.6757387980910035e-11 0.0 0.01 0.0 1.6757387980909208e-11 0.0 0.01001211427785617 0.009988098281403852 0.0 7.398064321367045e-11 0.0 0.01 0.0 7.398064321367045e-11 0.0 0.010011980495500544 0.009988758484203783 0.0 2.698734777665956e-10 0.0 0.01 0.0 2.698734777665956e-10 0.0 0.010011769746479209 0.009989698440213508 0.0 2.2257786147460976e-09 0.0 0.01 0.0 2.2257786147463094e-09 0.0 0.010011511045163459 0.00999085156943138 0.0 1.4878324641306637e-08 0.0 0.01 0.0 1.4878324641308331e-08 0.0 0.010011253317143433 0.0099920280435851 0.0 6.473162299727047e-08 0.0 0.01 0.0 6.473162299727047e-08 0.0 0.010011065189330927 0.00999295046732896 0.0 1.9878011036108905e-07 0.0 0.01 0.0 1.9878011036108905e-07 0.0 0.010010996618198067 0.009989416325865563 0.0 3.2738924117570363e-19 0.0 0.01 0.0 3.2738924117570363e-19 0.0 0.010010802629341458 0.009989562862843658 0.0 5.898842424649712e-11 0.0 0.01 0.0 5.898842424650043e-11 0.0 0.010010767365490966 0.009990007497496053 0.0 8.431233333845439e-10 0.0 0.01 0.0 8.431233333845969e-10 0.0 0.010010662529217415 0.009990728908929833 0.0 5.357143219160513e-09 0.0 0.01 0.0 5.357143219160936e-09 0.0 0.010010516566498217 0.009991654957679527 0.0 2.3761745312416376e-08 0.0 0.01 0.0 2.3761745312419764e-08 0.0 0.010010370108682685 0.009992642628540764 0.0 7.875851728032573e-08 0.0 0.01 0.0 7.875851728033251e-08 0.0 0.0100102721568598 0.009993459928103963 0.0 2.1009722151412347e-07 0.0 0.01 0.0 2.1009722151412347e-07 0.0 0.010010268250528824 0.009993864183479681 0.0 4.5906672718640197e-07 0.0 0.01 0.0 4.5906672718640197e-07 0.0 0.010010365726546204 0.009991836008507405 0.0 3.3621720699751812e-18 0.0 0.01 0.0 3.3621720699751812e-18 0.0 0.01000958601615945 0.009991983150796071 0.0 1.2251897734557315e-09 0.0 0.01 0.0 1.2251897734556256e-09 0.0 0.01000956986985389 0.009992400172406145 0.0 8.924887675162547e-09 0.0 0.01 0.0 8.924887675163394e-09 0.0 0.010009530206446175 0.009993014326954404 0.0 3.5231173787112565e-08 0.0 0.01 0.0 3.5231173787109176e-08 0.0 0.01000949300065576 0.009993697963952579 0.0 1.0306727828860785e-07 0.0 0.01 0.0 1.030672782885943e-07 0.0 0.010009495910332636 0.00999426694297512 0.0 2.4508529263158165e-07 0.0 0.01 0.0 2.4508529263160875e-07 0.0 0.010009566920397322 0.009994518547152914 0.0 4.95995310371923e-07 0.0 0.01 0.0 4.95995310371923e-07 0.0 0.010009710963963183 0.009994339422252576 0.0 8.651781800390413e-07 0.0 0.01 0.0 8.651781800390413e-07 0.0 0.010009901498629143 0.009994426163613544 0.0 7.539764804523703e-18 0.0 0.01 0.0 7.539764804523703e-18 0.0 0.010008607801394667 0.009994524999635775 0.0 6.756911440224788e-09 0.0 0.01 0.0 6.756911440224788e-09 0.0 0.01000861612286378 0.009994796065156863 0.0 3.612516062284044e-08 0.0 0.01 0.0 3.612516062284044e-08 0.0 0.01000865577560692 0.009995124070433329 0.0 1.128363743936264e-07 0.0 0.01 0.0 1.1283637439361285e-07 0.0 0.01000873603633639 0.009995352752415577 0.0 2.6919561694682876e-07 0.0 0.01 0.0 2.6919561694685587e-07 0.0 0.010008870198972708 0.009995321328039524 0.0 5.322440359277242e-07 0.0 0.01 0.0 5.322440359277784e-07 0.0 0.010009056280009277 0.009994961933129586 0.0 9.064202216739264e-07 0.0 0.01 0.0 9.064202216739264e-07 0.0 0.01000928599146729 0.009994532763545325 0.0 1.3579976169213713e-06 0.0 0.01 0.0 1.3579976169214797e-06 0.0 0.010009591207181975 0.009996633700559046 0.0 4.511214943646467e-18 0.0 0.01 0.0 4.511214943646467e-18 0.0 0.010007924459616225 0.009996654179976323 0.0 1.8289731236447994e-08 0.0 0.01 0.0 1.8289731236451382e-08 0.0 0.010007957237628038 0.009996672662531878 0.0 8.636506128707972e-08 0.0 0.01 0.0 8.636506128707972e-08 0.0 0.01000805657693344 0.009996578265387412 0.0 2.3589785989888376e-07 0.0 0.01 0.0 2.3589785989888376e-07 0.0 0.010008215220732964 0.009996250646828022 0.0 4.975309746386254e-07 0.0 0.01 0.0 4.97530974638517e-07 0.0 0.010008425222774025 0.009995711874963478 0.0 8.76299070643816e-07 0.0 0.01 0.0 8.762990706440328e-07 0.0 0.010008702361481733 0.009995360999094377 0.0 1.3392552436256554e-06 0.0 0.01 0.0 1.3392552436258722e-06 0.0 0.010009105941195612 0.00999582609412031 0.0 1.7879684333207881e-06 0.0 0.01 0.0 1.7879684333207881e-06 0.0 0.01000965409080536 0.009997936638794658 0.0 -2.7401798746098444e-17 0.0 0.01 0.0 -2.7401798746098444e-17 0.0 0.010007530948743999 0.009997872179488238 0.0 3.1890699527622644e-08 0.0 0.01 0.0 3.1890699527622644e-08 0.0 0.010007579408567316 0.009997654828227166 0.0 1.4132091203834123e-07 0.0 0.01 0.0 1.4132091203831413e-07 0.0 0.010007714019733807 0.00999727413429181 0.0 3.5908573450452565e-07 0.0 0.01 0.0 3.5908573450457986e-07 0.0 0.010007928889441253 0.009996894522356557 0.0 7.07950661152628e-07 0.0 0.01 0.0 7.07950661152628e-07 0.0 0.01000826079990426 0.009996920125698909 0.0 1.1614363518277831e-06 0.0 0.01 0.0 1.1614363518277831e-06 0.0 0.010008747015122839 0.009997604236113193 0.0 1.5813721389148008e-06 0.0 0.01 0.0 1.5813721389148008e-06 0.0 0.010009303391178354 0.009998902615100766 0.0 1.7026938989293285e-06 0.0 0.01 0.0 1.7026938989291116e-06 0.0 0.010009770584824575 0.009999527033556705 0.0 4.1041056536332436e-18 0.0 0.01 0.0 4.1041056536332436e-18 0.0 0.010007356760332464 0.009999503037285383 0.0 3.9777418116777104e-08 0.0 0.01 0.0 3.9777418116777104e-08 0.0 0.010007421353542881 0.0099994335525844 0.0 1.7234099672117325e-07 0.0 0.01 0.0 1.7234099672111904e-07 0.0 0.010007619053104742 0.009999392581764481 0.0 4.198429199339768e-07 0.0 0.01 0.0 4.1984291993392257e-07 0.0 0.010007958266416412 0.009999429634760706 0.0 7.573765964299234e-07 0.0 0.01 0.0 7.573765964300318e-07 0.0 0.010008415948174984 0.009999775175438715 0.0 1.058445099188154e-06 0.0 0.01 0.0 1.0584450991879372e-06 0.0 0.010008909009092312 0.01000018667729091 0.0 1.0717056161068349e-06 0.0 0.01 0.0 1.0717056161070517e-06 0.0 0.01000917834270763 0.010000850761032996 0.0 5.919098814230082e-07 0.0 0.01 0.0 5.919098814228998e-07 0.0 0.010009362785282928 0.010001922904492085 0.0 7.854070679080672e-18 0.0 0.01 0.0 7.854070679080672e-18 0.0 0.01000730780279907 0.010001793432453207 0.0 2.692139219371241e-08 0.0 0.01 0.0 2.6921392193719187e-08 0.0 0.010007376303567145 0.010001447115891904 0.0 1.1055613095253868e-07 0.0 0.01 0.0 1.1055613095253868e-07 0.0 0.010007586726867702 0.01000097134992588 0.0 2.3702582967107541e-07 0.0 0.01 0.0 2.370258296710212e-07 0.0 0.01000792932958732 0.010000402890504315 0.0 3.284016935967485e-07 0.0 0.01 0.0 3.2840169359669427e-07 0.0 0.010008309211126979 0.010000285670367606 0.0 2.32908209380823e-07 0.0 0.01 0.0 2.32908209380823e-07 0.0 0.010008652324585254 0.009999602529641806 0.0 -1.9915383609467666e-07 0.0 0.01 0.0 -1.9915383609470376e-07 0.0 0.01000860730605378 0.00999933906553093 0.0 -2.787542697225443e-18 0.0 0.01 0.0 -2.787542697225443e-18 0.0 0.010007310258175134 0.009999179101095742 0.0 -4.778658624983918e-09 0.0 0.01 0.0 -4.778658624983071e-09 0.0 0.010007355758127391 0.009998762229994495 0.0 -3.114207630151595e-08 0.0 0.01 0.0 -3.1142076301522725e-08 0.0 0.010007497673990739 0.009998223975397067 0.0 -1.196297050903752e-07 0.0 0.01 0.0 -1.196297050903752e-07 0.0 0.01000774238454725 0.009997577397958762 0.0 -3.399184080539507e-07 0.0 0.01 0.0 -3.399184080539507e-07 0.0 0.010008081102388397 0.00999768130670019 0.0 2.5415476589785722e-14 0.0 0.01 0.0 2.5415476589785722e-14 0.0 0.010000083501045852 0.00999775525605759 0.0 2.7609838730957063e-14 0.0 0.01 0.0 2.7609838730957063e-14 0.0 0.010000085951108129 0.009997862685412369 0.0 -6.589979530715663e-15 0.0 0.01 0.0 -6.589979530715663e-15 0.0 0.010000074700837023 0.009998017089945816 0.0 -2.5639676310127766e-14 0.0 0.01 0.0 -2.5639676310127766e-14 0.0 0.010000050300379518 0.009998226471921874 0.0 1.275554377765967e-13 0.0 0.01 0.0 1.275554377764933e-13 0.0 0.01000000780000913 0.009998490841702576 0.0 6.50227337285739e-13 0.0 0.01 0.0 6.502273372865662e-13 0.0 0.009999954500310538 0.0099988007157769 0.0 1.5381700548432044e-12 0.0 0.01 0.0 1.5381700548432044e-12 0.0 0.009999901001470126 0.009997271617017401 0.0 -1.1182379687466567e-13 0.0 0.01 0.0 -1.1182379687466567e-13 0.0 0.010000109851810088 0.009997348055294748 0.0 -2.2903530188540726e-13 0.0 0.01 0.0 -2.2903530188540726e-13 0.0 0.010000110351826606 0.009997466463146695 0.0 -4.4064340785550524e-13 0.0 0.01 0.0 -4.4064340785571204e-13 0.0 0.010000099101473144 0.009997640335465357 0.0 -6.918660341443654e-13 0.0 0.01 0.0 -6.918660341443654e-13 0.0 0.010000067400681422 0.009997880673921886 0.0 -7.635378673211275e-13 0.0 0.01 0.0 -7.635378673219546e-13 0.0 0.01000001365002795 0.00999818649344022 0.0 -3.4902195387224245e-13 0.0 0.01 0.0 -3.4902195387224245e-13 0.0 0.009999945000453748 0.009998546816822588 0.0 6.193595451097927e-13 0.0 0.01 0.0 6.193595451097927e-13 0.0 0.00999987600230635 0.009998927172668471 0.0 1.6909393621484887e-12 0.0 0.01 0.0 1.6909393621484887e-12 0.0 0.00999982700448922 0.009996930913472212 0.0 -2.2165627323367935e-13 0.0 0.01 0.0 -2.2165627323367935e-13 0.0 0.010000130852568314 0.009997005845281424 0.0 -4.004098970893072e-13 0.0 0.01 0.0 -4.004098970891004e-13 0.0 0.010000131852607721 0.009997127737957476 0.0 -6.680604574124747e-13 0.0 0.01 0.0 -6.680604574124747e-13 0.0 0.01000011865211172 0.009997310085735211 0.0 -9.432012202162927e-13 0.0 0.01 0.0 -9.432012202162927e-13 0.0 0.010000082501020953 0.009997570385740744 0.0 -9.836363571638041e-13 0.0 0.01 0.0 -9.836363571646313e-13 0.0 0.010000020000059999 0.009997910155300228 0.0 -5.125539672211016e-13 0.0 0.01 0.0 -5.125539672211016e-13 0.0 0.009999940000539996 0.00999831692500659 0.0 4.4615974207328697e-13 0.0 0.01 0.0 4.4615974207328697e-13 0.0 0.009999854503175462 0.009998750734138778 0.0 1.3215982631484415e-12 0.0 0.01 0.0 1.3215982631484415e-12 0.0 0.009999792506458213 0.009996609225382905 0.0 -2.473640420869263e-13 0.0 0.01 0.0 -2.473640420867195e-13 0.0 0.010000144053112635 0.009996679154934542 0.0 -3.711168959353665e-13 0.0 0.01 0.0 -3.711168959353665e-13 0.0 0.010000146003197477 0.009996796539981168 0.0 -4.282987067666433e-13 0.0 0.01 0.0 -4.2829870676643653e-13 0.0 0.010000132802645436 0.009996984364657173 0.0 -2.94718864952422e-13 0.0 0.01 0.0 -2.947188649526288e-13 0.0 0.01000009425133248 0.009997260126447565 0.0 2.216054123117333e-13 0.0 0.01 0.0 2.2160541231183669e-13 0.0 0.010000026350104151 0.00999762984291307 0.0 1.1787126150769461e-12 0.0 0.01 0.0 1.1787126150769461e-12 0.0 0.009999937000595349 0.009998079553358985 0.0 5.36129540167327e-12 0.0 0.01 0.0 5.361295401666652e-12 0.0 0.009999843003697256 0.009998569806876374 0.0 1.478584186930678e-11 0.0 0.01 0.0 1.478584186930678e-11 0.0 0.009999768508038525 0.009996263595151924 0.0 -1.8567927321374472e-13 0.0 0.01 0.0 -1.8567927321374472e-13 0.0 0.010000150403393112 0.00999632352846076 0.0 -1.0966739471405294e-13 0.0 0.01 0.0 -1.0966739471415634e-13 0.0 0.010000154803594547 0.009996436905251744 0.0 3.4843994024073254e-13 0.0 0.01 0.0 3.4843994024114613e-13 0.0 0.010000139652925386 0.009996623211175833 0.0 1.487593110684223e-12 0.0 0.01 0.0 1.4875931106833958e-12 0.0 0.010000102551577504 0.009996910432404244 0.0 3.094760938460749e-11 0.0 0.01 0.0 3.094760938460749e-11 0.0 0.010000033700170354 0.00999730758775305 0.0 2.6239751686489445e-10 0.0 0.01 0.0 2.623975168646827e-10 0.0 0.009999940500531043 0.009997799726393771 0.0 7.491521857723755e-10 0.0 0.01 0.0 7.49152185772799e-10 0.0 0.009999835504059008 0.00999834740974873 0.0 1.3325802629803453e-09 0.0 0.01 0.0 1.3325802629786512e-09 0.0 0.009999754009077292 0.009995855078481126 0.0 -4.957738062004762e-14 0.0 0.01 0.0 -4.957738062004762e-14 0.0 0.010000152853504559 0.009995903019163878 0.0 3.4616677469654637e-13 0.0 0.01 0.0 3.4616677469654637e-13 0.0 0.010000155753638804 0.009996007392410857 0.0 1.655446378979614e-12 0.0 0.01 0.0 1.655446378979614e-12 0.0 0.010000144053112638 0.00999619417375004 0.0 1.0920394003307499e-10 0.0 0.01 0.0 1.0920394003307499e-10 0.0 0.010000107901746396 0.009996483355888184 0.0 9.526897995888109e-10 0.0 0.01 0.0 9.526897995883874e-10 0.0 0.010000040050240739 0.009996894946804053 0.0 3.441363090857046e-09 0.0 0.01 0.0 3.441363090853658e-09 0.0 0.009999945000455522 0.00999742299649278 0.0 7.449622854649397e-09 0.0 0.01 0.0 7.449622854649397e-09 0.0 0.009999834504116751 0.009998022586699925 0.0 1.1755275450671615e-08 0.0 0.01 0.0 1.1755275450685168e-08 0.0 0.009999745509735859 0.009995367720690885 0.0 1.1851593481815955e-13 0.0 0.01 0.0 1.1851593481810785e-13 0.0 0.010000155753638808 0.009995403670879388 0.0 9.710401520981747e-13 0.0 0.01 0.0 9.71040152097761e-13 0.0 0.010000156753685681 0.00999549504602111 0.0 8.684124684686616e-11 0.0 0.01 0.0 8.684124684686616e-11 0.0 0.010000146503219419 0.009995666318747877 0.0 1.19581842169319e-09 0.0 0.01 0.0 1.19581842169319e-09 0.0 0.010000113751941112 0.009995942970265048 0.0 5.940047804563057e-09 0.0 0.01 0.0 5.940047804564751e-09 0.0 0.010000048350355954 0.009996338012548976 0.0 1.703135367602009e-08 0.0 0.01 0.0 1.7031353676026867e-08 0.0 0.00999995150039637 0.009996861478337827 0.0 3.380285629249295e-08 0.0 0.01 0.0 3.3802856292506505e-08 0.0 0.009999836004205757 0.009997497440099683 0.0 4.9326231284566296e-08 0.0 0.01 0.0 4.932623128453919e-08 0.0 0.009999739010582783 0.009994796564181218 0.0 2.732982737950962e-13 0.0 0.01 0.0 2.732982737950962e-13 0.0 0.010000162603965919 0.009994815534591075 0.0 1.6074865547084423e-11 0.0 0.01 0.0 1.6074865547097657e-11 0.0 0.010000162103941567 0.009994887423440332 0.0 6.490643933745302e-10 0.0 0.01 0.0 6.49064393374742e-10 0.0 0.010000152853504625 0.009995026213249438 0.0 5.046688918336934e-09 0.0 0.01 0.0 5.046688918338628e-09 0.0 0.01000012355229356 0.009995245393154812 0.0 2.013945663069481e-08 0.0 0.01 0.0 2.0139456630701585e-08 0.0 0.010000060050601783 0.009995566949952338 0.0 5.282699747495524e-08 0.0 0.01 0.0 5.282699747495524e-08 0.0 0.009999958500677189 0.009996020877798825 0.0 1.0081208958319073e-07 0.0 0.01 0.0 1.0081208958324494e-07 0.0 0.009999831005809288 0.009996649687521869 0.0 1.4323684296264298e-07 0.0 0.01 0.0 1.4323684296258877e-07 0.0 0.009999728014175962 0.009994144646792155 0.0 3.921474097250625e-13 0.0 0.01 0.0 3.921474097250625e-13 0.0 0.010000180204870953 0.009994144147669984 0.0 1.293745365060837e-10 0.0 0.01 0.0 1.293745365060837e-10 0.0 0.010000179704843962 0.009994181082913538 0.0 2.177306397053687e-09 0.0 0.01 0.0 2.1773063970532637e-09 0.0 0.010000176254660455 0.009994256951208619 0.0 1.3173820049802617e-08 0.0 0.01 0.0 1.3173820049795841e-08 0.0 0.010000150403419162 0.009994376747042498 0.0 4.741089979959953e-08 0.0 0.01 0.0 4.741089979958598e-08 0.0 0.010000084001395834 0.009994548962476238 0.0 1.199984018831709e-07 0.0 0.01 0.0 1.199984018831438e-07 0.0 0.009999969502301049 0.009994831517503739 0.0 2.2727439745722638e-07 0.0 0.01 0.0 2.2727439745717217e-07 0.0 0.00999982101255935 0.009995356252565157 0.0 3.25395769624451e-07 0.0 0.01 0.0 3.253957696245594e-07 0.0 0.009999708528637265 0.009993404530774965 0.0 1.7368230419926186e-12 0.0 0.01 0.0 1.736823041992205e-12 0.0 0.010000221207339687 0.009993377085264796 0.0 3.8446868119333493e-10 0.0 0.01 0.0 3.8446868119333493e-10 0.0 0.010000224607567082 0.009993370099174222 0.0 4.627855195692414e-09 0.0 0.01 0.0 4.627855195693261e-09 0.0 0.010000227557770358 0.009993365109204646 0.0 2.472025265550285e-08 0.0 0.01 0.0 2.472025265550285e-08 0.0 0.010000205556429583 0.009993349142052625 0.0 8.466638726150146e-08 0.0 0.01 0.0 8.466638726152857e-08 0.0 0.01000013475379991 0.009993312221708944 0.0 2.1217449013114257e-07 0.0 0.01 0.0 2.1217449013119678e-07 0.0 0.009999990006773724 0.009993320722666855 0.0 4.061658081516012e-07 0.0 0.01 0.0 4.061658081517096e-07 0.0 0.009999795531040308 0.009993599203625709 0.0 5.930423219159498e-07 0.0 0.01 0.0 5.930423219158414e-07 0.0 0.009999644571755227 0.009992565299442532 0.0 6.189713355512032e-12 0.0 0.01 0.0 6.189713355512032e-12 0.0 0.010000295913134174 0.009992509923598672 0.0 6.719832984893935e-10 0.0 0.01 0.0 6.719832984893935e-10 0.0 0.010000310564467013 0.00999245604529014 0.0 7.023936262770482e-09 0.0 0.01 0.0 7.023936262768788e-09 0.0 0.010000326666013316 0.00999237223648889 0.0 3.53579081573981e-08 0.0 0.01 0.0 3.53579081573981e-08 0.0 0.010000314965067526 0.009992220589422599 0.0 1.1856638994561992e-07 0.0 0.01 0.0 1.1856638994564702e-07 0.0 0.010000228059912221 0.00999197767730095 0.0 2.9762390958606435e-07 0.0 0.01 0.0 2.9762390958606435e-07 0.0 0.010000035663491882 0.009991691416512679 0.0 5.775397263305549e-07 0.0 0.01 0.0 5.775397263303381e-07 0.0 0.009999743559956293 0.009991622647664821 0.0 8.51032816235036e-07 0.0 0.01 0.0 8.51032816235036e-07 0.0 0.009999475650019529 0.00999162453402737 0.0 6.973953852752982e-12 0.0 0.01 0.0 6.973953852752982e-12 0.0 0.010000416025960199 0.009991540745966435 0.0 7.691183201458992e-10 0.0 0.01 0.0 7.691183201458992e-10 0.0 0.010000446329879863 0.009991442497184437 0.0 7.902403663914476e-09 0.0 0.01 0.0 7.902403663914476e-09 0.0 0.01000048538534693 0.009991298371175437 0.0 3.9283387313111416e-08 0.0 0.01 0.0 3.928338731311819e-08 0.0 0.010000491236426328 0.009991060005431459 0.0 1.3149575773000952e-07 0.0 0.01 0.0 1.314957577299824e-07 0.0 0.010000397476293344 0.009990695020161125 0.0 3.3257543023348804e-07 0.0 0.01 0.0 3.3257543023348804e-07 0.0 0.0100001382194766 0.009990236880345149 0.0 6.520013776386375e-07 0.0 0.01 0.0 6.520013776388544e-07 0.0 0.009999731574661762 0.009989996173523868 0.0 9.716125377384147e-07 0.0 0.01 0.0 9.716125377381979e-07 0.0 0.009999413693383275 0.009990573346043877 0.0 1.9958231146255376e-12 0.0 0.01 0.0 1.995823114625951e-12 0.0 0.010000583551075807 0.00999046216292438 0.0 5.705824855454951e-10 0.0 0.01 0.0 5.705824855453892e-10 0.0 0.010000644112226788 0.00999033253707462 0.0 6.552623759505487e-09 0.0 0.01 0.0 6.552623759505487e-09 0.0 0.01000071347635646 0.009990156553286871 0.0 3.377911286004087e-08 0.0 0.01 0.0 3.3779112860047645e-08 0.0 0.010000748634230935 0.00998989384282714 0.0 1.1518638299196126e-07 0.0 0.01 0.0 1.1518638299196126e-07 0.0 0.010000675870506478 0.00998951353120026 0.0 2.962721460388301e-07 0.0 0.01 0.0 2.962721460388301e-07 0.0 0.010000436541767117 0.009989063520058863 0.0 5.928452090840338e-07 0.0 0.01 0.0 5.928452090840338e-07 0.0 0.010000192908375985 0.009988838838323955 0.0 9.106167954677988e-07 0.0 0.01 0.0 9.106167954677988e-07 0.0 0.010000364894527913 0.009989407354423337 0.0 -2.732866346425244e-13 0.0 0.01 0.0 -2.732866346425244e-13 0.0 0.0100007998959648 0.00998927328408315 0.0 2.395600081065548e-10 0.0 0.01 0.0 2.3956000810652835e-10 0.0 0.010000888768472382 0.009989122772886258 0.0 3.812556752416495e-09 0.0 0.01 0.0 3.8125567524169185e-09 0.0 0.010000998699592393 0.00998893887943403 0.0 2.189716315684735e-08 0.0 0.01 0.0 2.1897163156843962e-08 0.0 0.010001082225728541 0.009988696196247798 0.0 7.832820180057052e-08 0.0 0.01 0.0 7.832820180055696e-08 0.0 0.010001076324667705 0.009988376304467025 0.0 2.0732977384522793e-07 0.0 0.01 0.0 2.0732977384522793e-07 0.0 0.01000098305139567 0.009988016601645272 0.0 4.228429393358219e-07 0.0 0.01 0.0 4.228429393357677e-07 0.0 0.010001074900141354 0.009987823341595268 0.0 6.561664929570369e-07 0.0 0.01 0.0 6.561664929571453e-07 0.0 0.010001566332594001 0.009988116715478933 0.0 -3.5489937093195086e-13 0.0 0.01 0.0 -3.5489937093195086e-13 0.0 0.010001054366729944 0.009987963765567452 0.0 2.926725560799648e-11 0.0 0.01 0.0 2.926725560799979e-11 0.0 0.010001174506887566 0.00998780434642873 0.0 1.3589655128577084e-09 0.0 0.01 0.0 1.3589655128577084e-09 0.0 0.010001318610764587 0.0099876279979139 0.0 1.002741167704648e-08 0.0 0.01 0.0 1.0027411677045634e-08 0.0 0.010001454417253013 0.009987424262454045 0.0 3.979959840038109e-08 0.0 0.01 0.0 3.979959840038109e-08 0.0 0.01000153550383131 0.009987185176956822 0.0 1.1078557480449097e-07 0.0 0.01 0.0 1.1078557480450452e-07 0.0 0.01000160243693172 0.009986930175786533 0.0 2.307956611768535e-07 0.0 0.01 0.0 2.307956611768535e-07 0.0 0.010001887742401112 0.009986773307750408 0.0 3.6077513551643187e-07 0.0 0.01 0.0 3.60775135516459e-07 0.0 0.010002383171200993 0.009986695598243844 0.0 -3.792441805639693e-13 0.0 0.01 0.0 -3.792441805639693e-13 0.0 0.010001336717974483 0.009986530762010108 0.0 -5.0464133825078204e-12 0.0 0.01 0.0 -5.046413382507407e-12 0.0 0.010001483730152963 0.009986367925769566 0.0 1.8932642933248699e-10 0.0 0.01 0.0 1.8932642933248699e-10 0.0 0.010001653259899894 0.009986204599561734 0.0 2.754898697650509e-09 0.0 0.01 0.0 2.754898697650297e-09 0.0 0.010001822297995639 0.009986041281393599 0.0 1.3831774006489161e-08 0.0 0.01 0.0 1.3831774006490855e-08 0.0 0.010001972283360583 0.00998587448626576 0.0 4.282119839437755e-08 0.0 0.01 0.0 4.2821198394380936e-08 0.0 0.010002137385342587 0.009985717657501331 0.0 9.411483641359487e-08 0.0 0.01 0.0 9.411483641358809e-08 0.0 0.010002456456160474 0.00998560912769822 0.0 1.5037771160784398e-07 0.0 0.01 0.0 1.5037771160783043e-07 0.0 0.010002844466584358 0.009985132223469893 0.0 -3.802294763067002e-13 0.0 0.01 0.0 -3.8022947630667434e-13 0.0 0.01000163665170666 0.009984963980398266 0.0 -4.44388633951837e-12 0.0 0.01 0.0 -4.443886339518784e-12 0.0 0.010001797834715255 0.009984800723062718 0.0 -2.2136726342339887e-11 0.0 0.01 0.0 -2.2136726342336578e-11 0.0 0.01000198449057416 0.009984651907041762 0.0 2.2697559505656168e-10 0.0 0.01 0.0 2.2697559505656168e-10 0.0 0.01000217255779608 0.009984524497944102 0.0 2.5050720539942787e-09 0.0 0.01 0.0 2.5050720539942787e-09 0.0 0.010002348477043628 0.009984414014329864 0.0 1.0240763381804422e-08 0.0 0.01 0.0 1.0240763381804422e-08 0.0 0.010002535163748267 0.009984327421699794 0.0 2.5650981362362792e-08 0.0 0.01 0.0 2.5650981362362792e-08 0.0 0.010002813687178804 0.00998427068995969 0.0 4.4268441848260213e-08 0.0 0.01 0.0 4.4268441848260213e-08 0.0 0.010003102493517206 0.009983419329152903 0.0 -3.3314797361071067e-13 0.0 0.01 0.0 -3.3314797361071067e-13 0.0 0.010001943416383325 0.009983246197733381 0.0 -3.764154032512595e-12 0.0 0.01 0.0 -3.764154032513008e-12 0.0 0.010002119823857515 0.009983089989182544 0.0 -1.9809656997579937e-11 0.0 0.01 0.0 -1.9809656997578283e-11 0.0 0.010002313802804839 0.009982957665382616 0.0 -6.358374153161467e-11 0.0 0.01 0.0 -6.358374153162129e-11 0.0 0.010002501438266071 0.009982858674702232 0.0 -4.840080911156671e-11 0.0 0.01 0.0 -4.840080911156671e-11 0.0 0.01000267292129443 0.009982789034782176 0.0 7.26974922236624e-10 0.0 0.01 0.0 7.26974922236624e-10 0.0 0.01000283810777139 0.009982749738614648 0.0 3.061632740504333e-09 0.0 0.01 0.0 3.061632740504121e-09 0.0 0.010003059003054086 0.009982732329072935 0.0 6.5391007472484645e-09 0.0 0.01 0.0 6.539100747248041e-09 0.0 0.010003281864895337 0.009981538251562998 0.0 -1.1640590398928365e-13 0.0 0.01 0.0 -1.1640590398928365e-13 0.0 0.010002256613615989 0.009981358754264135 0.0 -3.035401386292672e-12 0.0 0.01 0.0 -3.035401386292672e-12 0.0 0.01000244179406265 0.009981207606154674 0.0 -1.838654406254607e-11 0.0 0.01 0.0 -1.838654406254607e-11 0.0 0.010002637292930357 0.009981090769393979 0.0 -6.273710890289782e-11 0.0 0.01 0.0 -6.273710890289451e-11 0.0 0.010002826397827286 0.009981015200567945 0.0 -1.4708433445827306e-10 0.0 0.01 0.0 -1.4708433445827306e-10 0.0 0.010002988138812617 0.009980980399712158 0.0 -2.547719884677967e-10 0.0 0.01 0.0 -2.547719884677835e-10 0.0 0.010003118658298043 0.009980975428191046 0.0 -2.905666450880898e-10 0.0 0.01 0.0 -2.905666450880898e-10 0.0 0.010003291674555199 0.009980991337084745 0.0 -9.163259701580741e-11 0.0 0.01 0.0 -9.163259701580741e-11 0.0 0.010003479365055124 0.009979480828689323 0.0 2.3409636761198376e-13 0.0 0.01 0.0 2.3409636761198376e-13 0.0 0.010002575194402489 0.009979290510542976 0.0 -2.141167195305679e-12 0.0 0.01 0.0 -2.1411671953057826e-12 0.0 0.010002769199845607 0.009979134487600412 0.0 -1.7585151455268616e-11 0.0 0.01 0.0 -1.7585151455267788e-11 0.0 0.010002971523968635 0.009979023189081823 0.0 -6.535598376971905e-11 0.0 0.01 0.0 -6.535598376971905e-11 0.0 0.010003160197396183 0.009978961579003204 0.0 -1.5992439227867777e-10 0.0 0.01 0.0 -1.5992439227867777e-10 0.0 0.01000331559825009 0.009978947170359145 0.0 -2.857291853611065e-10 0.0 0.01 0.0 -2.8572918536111975e-10 0.0 0.010003418752381373 0.009978970025478755 0.0 -3.58864849597915e-10 0.0 0.01 0.0 -3.588648495978885e-10 0.0 0.01000356340377244 0.009979014245612518 0.0 -2.3162955392480845e-10 0.0 0.01 0.0 -2.3162955392479521e-10 0.0 0.010003740397539955 0.009977235470188294 0.0 6.170419047501318e-13 0.0 0.01 0.0 6.170419047501318e-13 0.0 0.010002902613285663 0.009977024921383965 0.0 -1.1119269593117522e-12 0.0 0.01 0.0 -1.111926959311804e-12 0.0 0.010003106897322074 0.009976852122419123 0.0 -1.6993769830650075e-11 0.0 0.01 0.0 -1.6993769830649248e-11 0.0 0.01000331709974294 0.009976730473360949 0.0 -7.028336267970946e-11 0.0 0.01 0.0 -7.028336267970946e-11 0.0 0.010003515502945584 0.009976668905737712 0.0 -1.8012279217526686e-10 0.0 0.01 0.0 -1.8012279217526686e-10 0.0 0.010003671470965512 0.00997665798256878 0.0 -3.308016866072869e-10 0.0 0.01 0.0 -3.308016866072869e-10 0.0 0.010003762372252105 0.009976691745206915 0.0 -4.2433040021222523e-10 0.0 0.01 0.0 -4.2433040021222523e-10 0.0 0.01000389532485184 0.00997674586544487 0.0 -2.781714032420609e-10 0.0 0.01 0.0 -2.781714032420477e-10 0.0 0.010004078643944179 0.009974797099114377 0.0 6.295029631140061e-13 0.0 0.01 0.0 6.295029631139544e-13 0.0 0.010003238872865357 0.009974554948139137 0.0 -3.239546769454459e-13 0.0 0.01 0.0 -3.239546769454459e-13 0.0 0.0100034558906519 0.009974351019092578 0.0 -1.6816072598765757e-11 0.0 0.01 0.0 -1.6816072598765757e-11 0.0 0.010003680230618161 0.009974202669811026 0.0 -7.722923621005786e-11 0.0 0.01 0.0 -7.722923621005786e-11 0.0 0.010003892871988534 0.00997411336574303 0.0 -2.0646158131337808e-10 0.0 0.01 0.0 -2.0646158131336484e-10 0.0 0.010004063525494648 0.009974086574990397 0.0 -3.877802772846387e-10 0.0 0.01 0.0 -3.877802772846387e-10 0.0 0.01000415588927756 0.009974101954840539 0.0 -5.026927659693885e-10 0.0 0.01 0.0 -5.026927659693885e-10 0.0 0.01000429035949911 0.009974147598685588 0.0 -3.219074285477315e-10 0.0 0.01 0.0 -3.219074285477183e-10 0.0 0.010004485416039748 0.009972167628839712 0.0 -2.7000207289901764e-13 0.0 0.01 0.0 -2.7000207289901764e-13 0.0 0.01000358883103218 0.009971885013904983 0.0 -7.305199172098416e-13 0.0 0.01 0.0 -7.305199172098416e-13 0.0 0.010003811277769024 0.00997163266403405 0.0 -1.853951472151665e-11 0.0 0.01 0.0 -1.8539514721514996e-11 0.0 0.0100040542141658 0.009971432879983902 0.0 -8.812462868416911e-11 0.0 0.01 0.0 -8.812462868416911e-11 0.0 0.010004290359499074 0.009971292592157807 0.0 -2.4089978626619436e-10 0.0 0.01 0.0 -2.408997862661811e-10 0.0 0.010004482011464302 0.009971212784411548 0.0 -4.577281653410522e-10 0.0 0.01 0.0 -4.5772816534107865e-10 0.0 0.01000459741849623 0.009971182547194594 0.0 -5.915835062405492e-10 0.0 0.01 0.0 -5.915835062405492e-10 0.0 0.010004753887769965 0.009971191469623416 0.0 -3.4961549993573933e-10 0.0 0.01 0.0 -3.4961549993573933e-10 0.0 0.010004972957087221 0.00996938615714057 0.0 -3.1856635939803046e-12 0.0 0.01 0.0 -3.1856635939803046e-12 0.0 0.010003954494467778 0.00996905027802166 0.0 -4.166853542214057e-12 0.0 0.01 0.0 -4.166853542214264e-12 0.0 0.01000417791679056 0.009968732264482602 0.0 -2.5203788556780767e-11 0.0 0.01 0.0 -2.5203788556780767e-11 0.0 0.010004432645511017 0.009968450932082472 0.0 -1.0779623507991377e-10 0.0 0.01 0.0 -1.0779623507991046e-10 0.0 0.010004693251925732 0.009968224595663962 0.0 -2.9014312028418476e-10 0.0 0.01 0.0 -2.90143120284198e-10 0.0 0.010004910364385283 0.009968055720108476 0.0 -5.479696912394009e-10 0.0 0.01 0.0 -5.479696912393479e-10 0.0 0.010005058034971284 0.009967943801448909 0.0 -6.944208311998974e-10 0.0 0.01 0.0 -6.944208311998709e-10 0.0 0.010005268811132327 0.009967871997214404 0.0 -3.486456743503467e-10 0.0 0.01 0.0 -3.4864567435035995e-10 0.0 0.010005533389373586 0.009966534741250317 0.0 -1.0214779582052419e-11 0.0 0.01 0.0 -1.0214779582052419e-11 0.0 0.010004346582275133 0.009966137777380965 0.0 -1.3566633559116294e-11 0.0 0.01 0.0 -1.3566633559115881e-11 0.0 0.010004556312106297 0.009965736407035223 0.0 -4.1653960454491923e-11 0.0 0.01 0.0 -4.165396045449358e-11 0.0 0.010004815976812244 0.00996534943493997 0.0 -1.4449038976172945e-10 0.0 0.01 0.0 -1.4449038976172945e-10 0.0 0.010005093238521 0.00996499862579841 0.0 -3.673799874751964e-10 0.0 0.01 0.0 -3.6737998747518316e-10 0.0 0.010005326502724293 0.009964698315108125 0.0 -6.759792224592562e-10 0.0 0.01 0.0 -6.759792224592297e-10 0.0 0.010005496728784884 0.009964453436043075 0.0 -8.246900030988133e-10 0.0 0.01 0.0 -8.246900030988398e-10 0.0 0.010005797036952277 0.009964258040446686 0.0 -3.113529625869041e-10 0.0 0.01 0.0 -3.113529625869041e-10 0.0 0.010006153124485476 0.009963788148734025 0.0 -2.5010559141374232e-11 0.0 0.01 0.0 -2.501055914137506e-11 0.0 0.010004794946523288 0.009963328708384454 0.0 -3.2981755581761176e-11 0.0 0.01 0.0 -3.298175558176283e-11 0.0 0.010004963142473877 0.009962832247962775 0.0 -7.366715080229585e-11 0.0 0.01 0.0 -7.366715080229254e-11 0.0 0.010005214025075497 0.009962318064416699 0.0 -2.1019729106413155e-10 0.0 0.01 0.0 -2.1019729106413155e-10 0.0 0.010005500134396307 0.009961812363456031 0.0 -4.95518156763622e-10 0.0 0.01 0.0 -4.95518156763622e-10 0.0 0.010005719252738975 0.00996134182919244 0.0 -8.753632090764837e-10 0.0 0.01 0.0 -8.753632090764572e-10 0.0 0.010005868461787583 0.009960921271490633 0.0 -1.0134042129184803e-09 0.0 0.01 0.0 -1.0134042129185068e-09 0.0 0.010006281814224782 0.009960553636009747 0.0 -2.4248608325762044e-10 0.0 0.01 0.0 -2.4248608325762044e-10 0.0 0.010006785700616184 0.009961430790643254 0.0 -5.001104796138509e-11 0.0 0.01 0.0 -5.001104796138509e-11 0.0 0.010005341176179001 0.009960913859082732 0.0 -6.333648998393635e-11 0.0 0.01 0.0 -6.333648998393635e-11 0.0 0.01000545320737953 0.009960323390432024 0.0 -1.2528316409907142e-10 0.0 0.01 0.0 -1.2528316409907142e-10 0.0 0.010005683040874751 0.009959678194977135 0.0 -3.22378009561509e-10 0.0 0.01 0.0 -3.22378009561509e-10 0.0 0.010005956016898063 0.009959006949344104 0.0 -7.160814982820012e-10 0.0 0.01 0.0 -7.160814982820012e-10 0.0 0.01000612331966827 0.00995834719628745 0.0 -1.2092078236848853e-09 0.0 0.01 0.0 -1.2092078236848324e-09 0.0 0.010006161439826756 0.009957719663685135 0.0 -1.317707671491624e-09 0.0 0.01 0.0 -1.317707671491571e-09 0.0 0.01000666340423135 0.009957151974799338 0.0 -1.6543495414696148e-10 0.0 0.01 0.0 -1.6543495414695486e-10 0.0 0.010007367483982284 0.009959864429184265 0.0 -7.79796354951101e-11 0.0 0.01 0.0 -7.79796354951101e-11 0.0 0.010006056748189418 0.009959308227505593 0.0 -9.487745669031951e-11 0.0 0.01 0.0 -9.487745669032282e-11 0.0 0.01000610764093845 0.009958648908397658 0.0 -1.97093782820827e-10 0.0 0.01 0.0 -1.97093782820827e-10 0.0 0.010006315527849773 0.009957894432678957 0.0 -5.117291471613415e-10 0.0 0.01 0.0 -5.117291471613283e-10 0.0 0.010006578736275848 0.009957083365067483 0.0 -1.1041458781527833e-09 0.0 0.01 0.0 -1.1041458781528097e-09 0.0 0.010006637452523068 0.009956250289553714 0.0 -1.7843543098250363e-09 0.0 0.01 0.0 -1.7843543098250893e-09 0.0 0.010006419275779556 0.009955434690134863 0.0 -1.8216200302940268e-09 0.0 0.01 0.0 -1.8216200302940268e-09 0.0 0.010006898732315733 0.009954677492031798 0.0 -1.2119603017028242e-10 0.0 0.01 0.0 -1.2119603017028242e-10 0.0 0.010007816755707463 0.009959580883114744 0.0 -8.33406093343668e-11 0.0 0.01 0.0 -8.334060933436349e-11 0.0 0.01000704062859365 0.009959032631006521 0.0 -1.0366557630970086e-10 0.0 0.01 0.0 -1.0366557630970086e-10 0.0 0.0100070548085323 0.009958353121629347 0.0 -2.8961895320098523e-10 0.0 0.01 0.0 -2.896189532009786e-10 0.0 0.010007262804594538 0.009957561688332008 0.0 -8.280672768905614e-10 0.0 0.01 0.0 -8.280672768905614e-10 0.0 0.01000751676678129 0.009956689010012789 0.0 -1.770083261807116e-09 0.0 0.01 0.0 -1.770083261807116e-09 0.0 0.010007418897848102 0.00995577363542527 0.0 -2.7461942177986993e-09 0.0 0.01 0.0 -2.7461942177986993e-09 0.0 0.010006778836670298 0.009954851607634253 0.0 -2.623513659174848e-09 0.0 0.01 0.0 -2.623513659174742e-09 0.0 0.010007041630708513 0.009953981120976136 0.0 -1.6351422562446852e-10 0.0 0.01 0.0 -1.6351422562448175e-10 0.0 0.010008091359931694 0.00996120295524739 0.0 -2.7734188667314548e-11 0.0 0.01 0.0 -2.7734188667314548e-11 0.0 0.010008410999849563 0.00996072509534201 0.0 -5.996472753684974e-11 0.0 0.01 0.0 -5.99647275368514e-11 0.0 0.01000843987270668 0.009960128237691762 0.0 -3.996087454343473e-10 0.0 0.01 0.0 -3.996087454343605e-10 0.0 0.010008680740219033 0.009959434673699568 0.0 -1.3177319432460326e-09 0.0 0.01 0.0 -1.3177319432460856e-09 0.0 0.010008930899915397 0.00995867211815863 0.0 -2.8394494111605433e-09 0.0 0.01 0.0 -2.8394494111604374e-09 0.0 0.010008642039834427 0.009957861847934032 0.0 -4.286779894560611e-09 0.0 0.01 0.0 -4.286779894560611e-09 0.0 0.010007466854772433 0.009957023147624509 0.0 -3.883093211823302e-09 0.0 0.01 0.0 -3.883093211823196e-09 0.0 0.010007293621787193 0.009956208345190294 0.0 -4.1900442010462485e-10 0.0 0.01 0.0 -4.1900442010462485e-10 0.0 0.01000829009747439 0.009965623576755825 0.0 1.238773834307077e-10 0.0 0.01 0.0 1.238773834307077e-10 0.0 0.010010283892041087 0.00996532914736534 0.0 6.699322792458948e-11 0.0 0.01 0.0 6.699322792458948e-11 0.0 0.010010375475263482 0.009964975371776826 0.0 -5.191036865733114e-10 0.0 0.01 0.0 -5.191036865733511e-10 0.0 0.01001066107457452 0.009964596898356205 0.0 -2.047599706193041e-09 0.0 0.01 0.0 -2.047599706193041e-09 0.0 0.010010876117795608 0.009964200660635263 0.0 -4.502967210276548e-09 0.0 0.01 0.0 -4.50296721027676e-09 0.0 0.010010371111715342 0.009963768859869918 0.0 -6.711362439350063e-09 0.0 0.01 0.0 -6.711362439350063e-09 0.0 0.010008781102644344 0.00996328617998897 0.0 -5.8962600849544454e-09 0.0 0.01 0.0 -5.8962600849544454e-09 0.0 0.010008097725369525 0.009962782803777707 0.0 -1.0749239390788132e-09 0.0 0.01 0.0 -1.0749239390787868e-09 0.0 0.01000879970159933 0.009974149087082395 0.0 3.8028277073941715e-10 0.0 0.01 0.0 3.8028277073941715e-10 0.0 0.010012708735807755 0.009974181831980615 0.0 2.645211339286729e-10 0.0 0.01 0.0 2.645211339286729e-10 0.0 0.010012879338946633 0.009974275107094872 0.0 -7.166379858054511e-10 0.0 0.01 0.0 -7.166379858054247e-10 0.0 0.0100131724815033 0.009974455711032485 0.0 -3.1738417522653177e-09 0.0 0.01 0.0 -3.1738417522653177e-09 0.0 0.010013274434890338 0.009974697854785887 0.0 -6.971859716543481e-09 0.0 0.01 0.0 -6.971859716543269e-09 0.0 0.010012523486442498 0.009974922647458567 0.0 -1.0171221218967784e-08 0.0 0.01 0.0 -1.0171221218967784e-08 0.0 0.010010864379614487 0.009975078472922307 0.0 -8.837995462941726e-09 0.0 0.01 0.0 -8.837995462941726e-09 0.0 0.010010280481554232 0.009975167306621222 0.0 -2.2080638789477516e-09 0.0 0.01 0.0 -2.2080638789478575e-09 0.0 0.010010506785715655 0.009988170523633268 0.0 6.438392230017131e-10 0.0 0.01 0.0 6.438392230016601e-10 0.0 0.010015635694941936 0.009988666297081526 0.0 3.6924733113095157e-10 0.0 0.01 0.0 3.6924733113097804e-10 0.0 0.010015833927751558 0.009989363992793543 0.0 -1.2088378873606743e-09 0.0 0.01 0.0 -1.2088378873606214e-09 0.0 0.010016038502687771 0.009990279691055138 0.0 -4.8598688952232484e-09 0.0 0.01 0.0 -4.8598688952232484e-09 0.0 0.01001590898399922 0.009991326796746549 0.0 -1.0147608392339758e-08 0.0 0.01 0.0 -1.0147608392341453e-08 0.0 0.01001516773940538 0.009992391192940306 0.0 -1.4166848814256824e-08 0.0 0.01 0.0 -1.4166848814256824e-08 0.0 0.01001441882556328 0.009993386067428032 0.0 -1.1895597343625024e-08 0.0 0.01 0.0 -1.1895597343625871e-08 0.0 0.010014396278379651 0.00999428590137424 0.0 -3.361266421019776e-09 0.0 0.01 0.0 -3.361266421019776e-09 0.0 0.0100142780713883 0.010008409997324356 0.0 6.718916459264105e-10 0.0 0.01 0.0 6.718916459265163e-10 0.0 0.0100188716366988 0.010009407307985635 0.0 7.658262979460618e-11 0.0 0.01 0.0 7.658262979460618e-11 0.0 0.010018976228243442 0.01001073109879092 0.0 -2.2171174492466878e-09 0.0 0.01 0.0 -2.2171174492462642e-09 0.0 0.010018963455831888 0.010012359325245088 0.0 -6.958590493664379e-09 0.0 0.01 0.0 -6.958590493666073e-09 0.0 0.01001865461970049 0.010014190297661004 0.0 -1.3234253437331358e-08 0.0 0.01 0.0 -1.3234253437334747e-08 0.0 0.010018560848198889 0.010016080705407883 0.0 -1.7179918835516495e-08 0.0 0.01 0.0 -1.7179918835530047e-08 0.0 0.01001926744248395 0.010017932420709754 0.0 -1.323906159159604e-08 0.0 0.01 0.0 -1.3239061591609593e-08 0.0 0.010019628943450657 0.010019685928161052 0.0 -3.0324863981200036e-09 0.0 0.01 0.0 -3.0324863981132273e-09 0.0 0.010019148610304058 0.010033970165120904 0.0 2.746570496202164e-10 0.0 0.01 0.0 2.7465704962018994e-10 0.0 0.010022113183263539 0.010035362495384637 0.0 -7.198311553270935e-10 0.0 0.01 0.0 -7.198311553271994e-10 0.0 0.010021958364290935 0.010037118246556644 0.0 -3.522177157055079e-09 0.0 0.01 0.0 -3.5221771570555026e-09 0.0 0.010021608890364039 0.010039203943173565 0.0 -8.614896495237342e-09 0.0 0.01 0.0 -8.614896495236495e-09 0.0 0.010021218241527593 0.010041521835119294 0.0 -1.4576201536977595e-08 0.0 0.01 0.0 -1.4576201536977595e-08 0.0 0.010021898874674955 0.01004395709455034 0.0 -1.6925847711918543e-08 0.0 0.01 0.0 -1.6925847711918543e-08 0.0 0.010023138662645719 0.010046409944765 0.0 -1.0742704792390498e-08 0.0 0.01 0.0 -1.0742704792390498e-08 0.0 0.010023139166099057 0.010048740747264716 0.0 -7.660698753211549e-10 0.0 0.01 0.0 -7.66069875321049e-10 0.0 0.010022086607845343 0.010061732516445076 0.0 -3.441061731306297e-10 0.0 0.01 0.0 -3.4410617313061647e-10 0.0 0.010025002658312783 0.01006327172042852 0.0 -1.5438999539158606e-09 0.0 0.01 0.0 -1.5438999539158606e-09 0.0 0.010024440862254194 0.010065087996784992 0.0 -4.256441588320677e-09 0.0 0.01 0.0 -4.256441588320677e-09 0.0 0.01002374838075903 0.010067150370421536 0.0 -8.630521230357256e-09 0.0 0.01 0.0 -8.630521230357256e-09 0.0 0.010023416443435351 0.010069404876572015 0.0 -1.3020466812732391e-08 0.0 0.01 0.0 -1.3020466812732814e-08 0.0 0.010024388228645957 0.010071783651870806 0.0 -1.3002329509057486e-08 0.0 0.01 0.0 -1.3002329509057486e-08 0.0 0.010025106434464689 0.010074196064429799 0.0 -7.249973257422865e-09 0.0 0.01 0.0 -7.249973257423077e-09 0.0 0.010024158564294923 0.010076409882638453 0.0 -6.005879545875537e-09 0.0 0.01 0.0 -6.005879545875537e-09 0.0 0.010022774365184091 0.01008666550737081 0.0 -6.810979626985643e-10 0.0 0.01 0.0 -6.810979626985776e-10 0.0 0.010027236874358103 0.01008803528444969 0.0 -1.6762907062565886e-09 0.0 0.01 0.0 -1.6762907062565886e-09 0.0 0.010026240121428264 0.010089481315067903 0.0 -3.654432015832468e-09 0.0 0.01 0.0 -3.654432015832574e-09 0.0 0.010025284070378686 0.010090951549525986 0.0 -6.646164595091287e-09 0.0 0.01 0.0 -6.646164595090863e-09 0.0 0.010024885082854292 0.010092437486895924 0.0 -9.697975478202668e-09 0.0 0.01 0.0 -9.697975478202668e-09 0.0 0.010025502022333068 0.010093937142139242 0.0 -1.1913720419698314e-08 0.0 0.01 0.0 -1.1913720419698314e-08 0.0 0.010025266840406654 0.010095360556294404 0.0 -1.3666537424423885e-08 0.0 0.01 0.0 -1.366653742442452e-08 0.0 0.010023349576572393 0.010096529826388962 0.0 -1.0945264728028472e-08 0.0 0.01 0.0 -1.094526472802826e-08 0.0 0.010022025656329045 0.01010354429413217 0.0 -5.485790389944673e-10 0.0 0.01 0.0 -5.485790389944805e-10 0.0 0.010028704672395066 0.010104506817973329 0.0 -1.0731764322418417e-09 0.0 0.01 0.0 -1.0731764322418417e-09 0.0 0.010027301348944008 0.010105269574390929 0.0 -2.128388395715114e-09 0.0 0.01 0.0 -2.128388395715114e-09 0.0 0.010025880373488298 0.010105755847597455 0.0 -3.924682536883087e-09 0.0 0.01 0.0 -3.924682536882981e-09 0.0 0.010024843725882892 0.010105964485691895 0.0 -6.384152144225632e-09 0.0 0.01 0.0 -6.384152144225526e-09 0.0 0.010024442826593332 0.010105965001761577 0.0 -8.967625021393744e-09 0.0 0.01 0.0 -8.967625021393744e-09 0.0 0.010023411055769047 0.010105815811029296 0.0 -9.335092117096045e-09 0.0 0.01 0.0 -9.335092117096045e-09 0.0 0.010022142678211656 0.010105585509827165 0.0 -1.4157347012012225e-09 0.0 0.01 0.0 -1.4157347012012225e-09 0.0 0.010021036393783508 0.010110304950573913 0.0 -2.3316679496385285e-10 0.0 0.01 0.0 -2.3316679496385616e-10 0.0 0.010029491753395289 0.010110791951094454 0.0 -3.651554661150543e-10 0.0 0.01 0.0 -3.651554661150543e-10 0.0 0.010027870987294256 0.010110830298139448 0.0 -6.93361115065592e-10 0.0 0.01 0.0 -6.933611150655788e-10 0.0 0.010026182067311998 0.010110323604539865 0.0 -1.3447304800619478e-09 0.0 0.01 0.0 -1.3447304800619213e-09 0.0 0.010024722730726349 0.01010931147898364 0.0 -2.307448969883409e-09 0.0 0.01 0.0 -2.307448969883409e-09 0.0 0.010023606276120865 0.010107933069641417 0.0 -3.0487393930038546e-09 0.0 0.01 0.0 -3.0487393930039605e-09 0.0 0.010022153952783419 0.010106403478067334 0.0 -1.477619217374068e-09 0.0 0.01 0.0 -1.4776192173740944e-09 0.0 0.010021877736445185 0.010104970796806216 0.0 5.842299176095641e-09 0.0 0.01 0.0 5.8422991760955355e-09 0.0 0.010020911108774497 0.010109298409619953 0.0 -2.9050955677169994e-11 0.0 0.01 0.0 -2.9050955677170408e-11 0.0 0.010029822831674601 0.010109429570465055 0.0 -5.746900956891683e-12 0.0 0.01 0.0 -5.746900956891683e-12 0.0 0.010028176239256599 0.010108952322406663 0.0 -2.0713414200132516e-11 0.0 0.01 0.0 -2.0713414200132102e-11 0.0 0.010026454708674856 0.010107773206725696 0.0 -1.0137881310452318e-10 0.0 0.01 0.0 -1.0137881310452484e-10 0.0 0.010024863925748235 0.01010595240981697 0.0 -2.0984244362948519e-10 0.0 0.01 0.0 -2.0984244362948188e-10 0.0 0.01002351971711547 0.010103698902448418 0.0 -7.97295136252524e-11 0.0 0.01 0.0 -7.97295136252524e-11 0.0 0.010022279334752552 0.010101292912312926 0.0 1.0327158708400045e-09 0.0 0.01 0.0 1.032715870840031e-09 0.0 0.01002249462420703 0.010099063171577521 0.0 3.965188642401662e-09 0.0 0.01 0.0 3.965188642401556e-09 0.0 0.010021608387116217 0.010104372856880511 0.0 1.7087732330461445e-11 0.0 0.01 0.0 1.708773233046186e-11 0.0 0.010029895730808938 0.010104396997338456 0.0 3.481454768195745e-11 0.0 0.01 0.0 3.481454768195828e-11 0.0 0.01002835797169991 0.010103751299672207 0.0 4.682239237714683e-11 0.0 0.01 0.0 4.682239237714683e-11 0.0 0.010026752472562581 0.010102333355240738 0.0 5.6261393724360606e-11 0.0 0.01 0.0 5.6261393724360606e-11 0.0 0.010025270266224717 0.010100219097581466 0.0 7.625279985310398e-11 0.0 0.01 0.0 7.625279985310232e-11 0.0 0.010024062623664436 0.01009764117668058 0.0 1.263678562165729e-10 0.0 0.01 0.0 1.263678562165762e-10 0.0 0.010023126377741942 0.010094896408234594 0.0 2.0293383633941806e-10 0.0 0.01 0.0 2.0293383633941806e-10 0.0 0.010023384520364536 0.010092315980850024 0.0 2.2729239890711562e-10 0.0 0.01 0.0 2.272923989071024e-10 0.0 0.010022496587396432 0.010098353103090783 0.0 -4.330446712257604e-12 0.0 0.01 0.0 -4.3304467122575005e-12 0.0 0.010029817383221824 0.010098541149290437 0.0 -3.239307482074156e-11 0.0 0.01 0.0 -3.239307482074156e-11 0.0 0.010028433814132053 0.010098068994065993 0.0 -9.064720503392904e-11 0.0 0.01 0.0 -9.064720503392738e-11 0.0 0.01002699663051993 0.010096819312398421 0.0 -1.7371147096359918e-10 0.0 0.01 0.0 -1.737114709636025e-10 0.0 0.010025755914453616 0.010094854693088726 0.0 -2.6603594753115497e-10 0.0 0.01 0.0 -2.6603594753114835e-10 0.0 0.01002488750081051 0.010092407880946867 0.0 -3.5171322154972587e-10 0.0 0.01 0.0 -3.5171322154971925e-10 0.0 0.01002408332243189 0.010089763672672248 0.0 -3.4895712668727176e-10 0.0 0.01 0.0 -3.4895712668727176e-10 0.0 0.010024113288027974 0.010087221767674102 0.0 -8.270759200963471e-11 0.0 0.01 0.0 -8.270759200963471e-11 0.0 0.010023165699525882 0.010092015883868795 0.0 -2.7119654671097292e-11 0.0 0.01 0.0 -2.7119654671097292e-11 0.0 0.01002959819125911 0.010092574520523307 0.0 -9.045504873271276e-11 0.0 0.01 0.0 -9.045504873271276e-11 0.0 0.010028348592369753 0.010092538848062738 0.0 -2.396979716672613e-10 0.0 0.01 0.0 -2.396979716672679e-10 0.0 0.010027054194717512 0.010091750860723262 0.0 -4.971412696583284e-10 0.0 0.01 0.0 -4.971412696583284e-10 0.0 0.010026003930117414 0.010090251717284004 0.0 -8.161585930136323e-10 0.0 0.01 0.0 -8.161585930136323e-10 0.0 0.010025349464543226 0.010088248833134979 0.0 -1.034771254931955e-09 0.0 0.01 0.0 -1.0347712549319285e-09 0.0 0.010024438897921699 0.010086010633955134 0.0 -6.842768147109012e-10 0.0 0.01 0.0 -6.842768147109012e-10 0.0 0.010024145268414416 0.01008379801948297 0.0 1.0787538767265706e-09 0.0 0.01 0.0 1.0787538767265706e-09 0.0 0.010023112582501194 0.010084466973545458 0.0 -3.492223575302578e-11 0.0 0.01 0.0 -3.492223575302578e-11 0.0 0.010029187339632876 0.010085506687873 0.0 -1.258905109977174e-10 0.0 0.01 0.0 -1.258905109977141e-10 0.0 0.01002803147555942 0.01008605572808972 0.0 -3.9856787627467534e-10 0.0 0.01 0.0 -3.985678762746621e-10 0.0 0.010026826312837994 0.010085919472802247 0.0 -9.586616645717173e-10 0.0 0.01 0.0 -9.586616645717437e-10 0.0 0.010025873016671032 0.01008509349203646 0.0 -1.7247237107613585e-09 0.0 0.01 0.0 -1.7247237107613056e-09 0.0 0.010025280594143716 0.010083743932671597 0.0 -2.3442587178931863e-09 0.0 0.01 0.0 -2.3442587178932392e-09 0.0 0.010024193969843507 0.010082105694202979 0.0 -2.026896333260602e-09 0.0 0.01 0.0 -2.026896333260602e-09 0.0 0.01002361906629756 0.010080415245004483 0.0 6.436543707624192e-10 0.0 0.01 0.0 6.436543707623927e-10 0.0 0.01002252900536006 0.010074351323153034 0.0 -2.256190527419929e-11 0.0 0.01 0.0 -2.256190527419929e-11 0.0 0.010028531796630097 0.010075889881887774 0.0 -1.378257948336996e-10 0.0 0.01 0.0 -1.378257948337062e-10 0.0 0.010027432267938025 0.010077086372368468 0.0 -5.769141216998524e-10 0.0 0.01 0.0 -5.769141216998524e-10 0.0 0.010026275549044452 0.010077718527123759 0.0 -1.5783683707560098e-09 0.0 0.01 0.0 -1.5783683707560627e-09 0.0 0.010025360800334225 0.010077721495268033 0.0 -3.013015181456907e-09 0.0 0.01 0.0 -3.013015181457013e-09 0.0 0.010024744844002599 0.010077182308551098 0.0 -4.311855294680138e-09 0.0 0.01 0.0 -4.311855294680032e-09 0.0 0.01002354232597287 0.010076298008671132 0.0 -4.480915380102046e-09 0.0 0.01 0.0 -4.480915380102152e-09 0.0 0.010022822039769062 0.010075255616577133 0.0 -1.821908309277337e-09 0.0 0.01 0.0 -1.821908309277337e-09 0.0 0.010021751916603497 0.010061125261643893 0.0 8.594673100055168e-12 0.0 0.01 0.0 8.594673100054755e-12 0.0 0.010027615421982041 0.010063109024760429 0.0 -1.0449013272114202e-10 0.0 0.01 0.0 -1.0449013272114202e-10 0.0 0.010026557068318996 0.01006495508754631 0.0 -6.854380757157291e-10 0.0 0.01 0.0 -6.854380757157555e-10 0.0 0.010025428715121002 0.010066429568511052 0.0 -2.135948044864804e-09 0.0 0.01 0.0 -2.135948044864804e-09 0.0 0.010024492036036229 0.01006738749202277 0.0 -4.303559279867519e-09 0.0 0.01 0.0 -4.303559279867731e-09 0.0 0.010023819183552992 0.010067815506296042 0.0 -6.36874172317117e-09 0.0 0.01 0.0 -6.36874172317117e-09 0.0 0.010022656364696956 0.010067818006481977 0.0 -7.260803003742325e-09 0.0 0.01 0.0 -7.260803003742325e-09 0.0 0.01002197995598105 0.01006755192590371 0.0 -4.993529427407409e-09 0.0 0.01 0.0 -4.993529427407409e-09 0.0 0.010020959763077835 0.010045753502755854 0.0 3.0874114935566504e-11 0.0 0.01 0.0 3.0874114935563195e-11 0.0 0.010026462570752029 0.010048048696251694 0.0 -3.031570438946435e-11 0.0 0.01 0.0 -3.031570438946435e-11 0.0 0.01002544347719717 0.01005046439406828 0.0 -6.188792473710207e-10 0.0 0.01 0.0 -6.188792473710471e-10 0.0 0.01002433957472704 0.010052785118120635 0.0 -2.2936487978489212e-09 0.0 0.01 0.0 -2.2936487978489212e-09 0.0 0.010023331399861522 0.010054775386914593 0.0 -4.9935470570306715e-09 0.0 0.01 0.0 -4.993547057030883e-09 0.0 0.01002258800283751 0.010056291568579031 0.0 -7.777559088474888e-09 0.0 0.01 0.0 -7.777559088475311e-09 0.0 0.010021560729851966 0.01005731119795486 0.0 -9.446652177394216e-09 0.0 0.01 0.0 -9.446652177393793e-09 0.0 0.010021134662800418 0.01005793170181206 0.0 -7.358266067937698e-09 0.0 0.01 0.0 -7.358266067937698e-09 0.0 0.010020173179806165 0.010030336236838418 0.0 5.7547768840570575e-12 0.0 0.01 0.0 5.754776884058712e-12 0.0 0.010025126635895274 0.010032768263025979 0.0 2.2129650993385286e-11 0.0 0.01 0.0 2.2129650993385286e-11 0.0 0.010024148239835865 0.010035587017996605 0.0 -4.219714261912476e-10 0.0 0.01 0.0 -4.219714261912476e-10 0.0 0.010023081115467581 0.010038616084139687 0.0 -1.9875698822687263e-09 0.0 0.01 0.0 -1.9875698822687263e-09 0.0 0.010022050268316833 0.01004158116860566 0.0 -4.725536951456039e-09 0.0 0.01 0.0 -4.725536951456039e-09 0.0 0.010021105176754011 0.010044190605011863 0.0 -8.025762109729127e-09 0.0 0.01 0.0 -8.025762109729127e-09 0.0 0.01002032203031851 0.0100462827424234 0.0 -1.0570223386605778e-08 0.0 0.01 0.0 -1.0570223386604931e-08 0.0 0.010020261614026105 0.0100478599568349 0.0 -8.061729656060852e-09 0.0 0.01 0.0 -8.061729656061275e-09 0.0 0.010019416755517001 0.010016926680085508 0.0 -6.053142432412854e-11 0.0 0.01 0.0 -6.053142432412854e-11 0.0 0.010023664789061882 0.010019341620377556 0.0 7.313909450562126e-12 0.0 0.01 0.0 7.313909450565434e-12 0.0 0.010022723721114148 0.010022372203998679 0.0 -2.252708296632566e-10 0.0 0.01 0.0 -2.2527082966283308e-10 0.0 0.01002169439334987 0.010025892214973622 0.0 -1.62139588263831e-09 0.0 0.01 0.0 -1.6213958826378865e-09 0.0 0.010020760269835284 0.010029620336818682 0.0 -5.592994001580769e-09 0.0 0.01 0.0 -5.592994001579922e-09 0.0 0.010019739946366218 0.01003319086680431 0.0 -1.1607061138722095e-08 0.0 0.01 0.0 -1.1607061138722095e-08 0.0 0.010018925189191915 0.010036293784017927 0.0 -1.5753991625759556e-08 0.0 0.01 0.0 -1.5753991625759556e-08 0.0 0.010019270912458867 0.01003880278560076 0.0 -6.897486182713346e-09 0.0 0.01 0.0 -6.89748618271377e-09 0.0 0.010018517608580059 0.010006676129659857 0.0 -1.0547269046204845e-10 0.0 0.01 0.0 -1.0547269046203521e-10 0.0 0.010022109710327545 0.010008991111492357 0.0 -3.194943457748663e-11 0.0 0.01 0.0 -3.194943457748663e-11 0.0 0.010021194138826696 0.010012069666414677 0.0 -2.898575443434161e-10 0.0 0.01 0.0 -2.8985754434336314e-10 0.0 0.010020208543140926 0.010015843724155848 0.0 -3.943928414032433e-09 0.0 0.01 0.0 -3.943928414032433e-09 0.0 0.010019369129498313 0.01002005285672274 0.0 -1.4656411914004035e-08 0.0 0.01 0.0 -1.465641191397693e-08 0.0 0.010018526960378062 0.01002432577459579 0.0 -2.8263568409516067e-08 0.0 0.01 0.0 -2.8263568409516067e-08 0.0 0.010017446903300446 0.010028235336699444 0.0 -3.516127743376571e-08 0.0 0.01 0.0 -3.5161277433772486e-08 0.0 0.010017948607676613 0.010031504709062227 0.0 -4.155769418756847e-09 0.0 0.01 0.0 -4.155769418756847e-09 0.0 0.01001727365401116 0.009999715012183172 0.0 -6.704562069900817e-11 0.0 0.01 0.0 -6.704562069900817e-11 0.0 0.010020487589649059 0.010001900441614513 0.0 1.9611068756016092e-10 0.0 0.01 0.0 1.9611068756016092e-10 0.0 0.010019590618844805 0.010004905957903333 0.0 3.004166515025875e-10 0.0 0.01 0.0 3.004166515025875e-10 0.0 0.010018663921569403 0.01000868560287247 0.0 -7.526121680240857e-09 0.0 0.01 0.0 -7.526121680244245e-09 0.0 0.010017899997041944 0.01001306807175831 0.0 -3.11229410723075e-08 0.0 0.01 0.0 -3.11229410723075e-08 0.0 0.010017243247262811 0.010017736526798276 0.0 -5.715466556592075e-08 0.0 0.01 0.0 -5.715466556592075e-08 0.0 0.01001599876281096 0.010022158382753537 0.0 -6.640552277117461e-08 0.0 0.01 0.0 -6.640552277116106e-08 0.0 0.01001625097914332 0.010025889242006205 0.0 6.138591199518344e-09 0.0 0.01 0.0 6.138591199517497e-09 0.0 0.010015622483194337 0.009995481064962728 0.0 1.559214242804803e-10 0.0 0.01 0.0 1.5592142428050678e-10 0.0 0.010018819090740616 0.009997542406263351 0.0 3.000223738669351e-09 0.0 0.01 0.0 3.000223738669139e-09 0.0 0.010017961376024526 0.010000341317486852 0.0 9.322853755482086e-09 0.0 0.01 0.0 9.322853755482933e-09 0.0 0.010017142629938601 0.010003884111778208 0.0 2.4990557503073325e-09 0.0 0.01 0.0 2.499055750306909e-09 0.0 0.010016504620643463 0.010008115318247952 0.0 -3.351972991207287e-08 0.0 0.01 0.0 -3.3519729912079646e-08 0.0 0.010015956058452671 0.010012848922669392 0.0 -7.345932465227176e-08 0.0 0.01 0.0 -7.345932465232597e-08 0.0 0.010014638531171917 0.01001756225771235 0.0 -7.668012466928811e-08 0.0 0.01 0.0 -7.668012466928811e-08 0.0 0.0100142972040375 0.010021503260305183 0.0 2.5842024814267815e-08 0.0 0.01 0.0 2.5842024814274592e-08 0.0 0.010013598487722788 0.009993191459751227 0.0 1.7122626638384943e-09 0.0 0.01 0.0 1.712262663838706e-09 0.0 0.010017144589972214 0.00999510559565987 0.0 1.5156695589195708e-08 0.0 0.01 0.0 1.5156695589196555e-08 0.0 0.010016374129227842 0.009997560393321068 0.0 4.311778118182375e-08 0.0 0.01 0.0 4.311778118182714e-08 0.0 0.010015720593285366 0.010000621158326723 0.0 5.5188734464931216e-08 0.0 0.01 0.0 5.518873446492444e-08 0.0 0.010015281558121022 0.010004384231601628 0.0 2.0545799650931125e-08 0.0 0.01 0.0 2.0545799650931125e-08 0.0 0.010014852373608147 0.010008872143375511 0.0 -2.430317013513329e-08 0.0 0.01 0.0 -2.4303170135140067e-08 0.0 0.010013579861984815 0.01001392206972899 0.0 -4.523001667752942e-10 0.0 0.01 0.0 -4.523001667757177e-10 0.0 0.010012473499474244 0.010018401266664083 0.0 3.3440040612976515e-09 0.0 0.01 0.0 3.3440040612993456e-09 0.0 0.010011215138729018 0.009992154243064419 0.0 8.406281433791e-09 0.0 0.01 0.0 8.406281433790576e-09 0.0 0.010015517996651055 0.00999385966055354 0.0 4.8617403462597274e-08 0.0 0.01 0.0 4.861740346260066e-08 0.0 0.010014911687927557 0.009995822121926975 0.0 1.230126939995909e-07 0.0 0.01 0.0 1.2301269399960445e-07 0.0 0.010014491391572879 0.009998200490808512 0.0 1.819159666645808e-07 0.0 0.01 0.0 1.8191596666459434e-07 0.0 0.010014300622730494 0.010001252689932377 0.0 1.750620944568999e-07 0.0 0.01 0.0 1.750620944568728e-07 0.0 0.010014056436641779 0.010005341680597931 0.0 1.5541041593479955e-07 0.0 0.01 0.0 1.5541041593479955e-07 0.0 0.010012889130303411 0.01001076737003685 0.0 1.7418930579340096e-07 0.0 0.01 0.0 1.741893057936178e-07 0.0 0.010011597799719493 0.010017113186723577 0.0 -2.2532705555404486e-07 0.0 0.01 0.0 -2.2532705555404486e-07 0.0 0.010009724122996383 0.00999191930535073 0.0 3.0888223832974894e-08 0.0 0.01 0.0 3.0888223832974894e-08 0.0 0.010014031427131163 0.009993302237243835 0.0 1.2181243803771738e-07 0.0 0.01 0.0 1.218124380377106e-07 0.0 0.010013646033619511 0.009994650306837098 0.0 2.69499012824667e-07 0.0 0.01 0.0 2.694990128246941e-07 0.0 0.010013488201604514 0.009996236649633075 0.0 4.013734986098056e-07 0.0 0.01 0.0 4.013734986098327e-07 0.0 0.010013569092247352 0.009998484374069881 0.0 4.432643466617298e-07 0.0 0.01 0.0 4.43264346661784e-07 0.0 0.010013368087538919 0.010002169686462633 0.0 4.516875513474526e-07 0.0 0.01 0.0 4.516875513474526e-07 0.0 0.010012179495432382 0.010008108519547693 0.0 3.469000449641494e-07 0.0 0.01 0.0 3.4690004496436624e-07 0.0 0.010010869765097491 0.010016013573590603 0.0 -7.783119623347608e-07 0.0 0.01 0.0 -7.783119623345439e-07 0.0 0.010008648497014515 0.009992207120011953 0.0 8.908501380054977e-08 0.0 0.01 0.0 8.908501380053621e-08 0.0 0.010012764148184116 0.009993142071097692 0.0 2.5770304585640284e-07 0.0 0.01 0.0 2.5770304585640284e-07 0.0 0.010012622518976015 0.009993823264562485 0.0 4.969125644960323e-07 0.0 0.01 0.0 4.969125644960866e-07 0.0 0.010012707317357268 0.009994657359562708 0.0 7.069259900790515e-07 0.0 0.01 0.0 7.069259900791057e-07 0.0 0.01001290049530494 0.00999624820465416 0.0 7.842753298823043e-07 0.0 0.01 0.0 7.842753298822501e-07 0.0 0.010012471634516417 0.009999659599492273 0.0 7.403812479214126e-07 0.0 0.01 0.0 7.403812479214126e-07 0.0 0.010011098129957905 0.01000617322299516 0.0 2.7602259829759106e-07 0.0 0.01 0.0 2.760225982976995e-07 0.0 0.01001000179679354 0.009992776341801997 0.0 2.1707450325668778e-07 0.0 0.01 0.0 2.1707450325667422e-07 0.0 0.010011778082908561 0.00999318001833601 0.0 4.841167332983519e-07 0.0 0.01 0.0 4.841167332983519e-07 0.0 0.010011836467252844 0.009993263910968248 0.0 8.107476071406508e-07 0.0 0.01 0.0 8.107476071405966e-07 0.0 0.010012038903805247 0.009993591336285178 0.0 1.065691648940016e-06 0.0 0.01 0.0 1.0656916489401244e-06 0.0 0.010012111487692703 0.009994925547928751 0.0 1.1040242255516133e-06 0.0 0.01 0.0 1.1040242255515049e-06 0.0 0.010011237345757328 0.009998531434377738 0.0 8.599112688477883e-07 0.0 0.01 0.0 8.599112688478967e-07 0.0 0.010010078827605177 0.010005167112631417 0.0 -2.653063052999701e-07 0.0 0.01 0.0 -2.653063052999701e-07 0.0 0.010009075851251936 0.00999336713625192 0.0 4.5584634616682327e-07 0.0 0.01 0.0 4.558463461668775e-07 0.0 0.010011058397318976 0.009993257925455908 0.0 8.203878135317312e-07 0.0 0.01 0.0 8.203878135317855e-07 0.0 0.010011221611206307 0.009993003564526256 0.0 1.197441604339558e-06 0.0 0.01 0.0 1.1974416043396665e-06 0.0 0.010011414277787583 0.009993311516701402 0.0 1.4148095628185127e-06 0.0 0.01 0.0 1.4148095628184042e-06 0.0 0.010011196325248769 0.009994973032918358 0.0 1.2644308719471234e-06 0.0 0.01 0.0 1.2644308719471234e-06 0.0 0.0100101082953475 0.00999926462592114 0.0 5.467781993313955e-07 0.0 0.01 0.0 5.467781993313955e-07 0.0 0.010009513102405297 0.009993746474012041 0.0 8.290621686724876e-07 0.0 0.01 0.0 8.290621686727045e-07 0.0 0.01001052399278131 0.009993352868645925 0.0 1.251751983429917e-06 0.0 0.01 0.0 1.2517519834298087e-06 0.0 0.010010712724384375 0.009993323573540967 0.0 1.5942694798331408e-06 0.0 0.01 0.0 1.5942694798331408e-06 0.0 0.010010825082520552 0.009994221899274437 0.0 1.607026651376459e-06 0.0 0.01 0.0 1.6070266513766758e-06 0.0 0.010010288693444568 0.009996932575221867 0.0 1.0435782402715794e-06 0.0 0.01 0.0 1.0435782402715794e-06 0.0 0.010009730145961189 0.01000122391103537 0.0 -4.928431165163215e-07 0.0 0.01 0.0 -4.928431165163215e-07 0.0 0.010009062139829817 0.009993928290361886 0.0 1.3063019051202246e-06 0.0 0.01 0.0 1.3063019051200078e-06 0.0 0.01001012300604769 0.009993936455539813 0.0 1.7048771926749928e-06 0.0 0.01 0.0 1.7048771926749928e-06 0.0 0.01001040043803173 0.0099948554745132 0.0 1.8291636383058803e-06 0.0 0.01 0.0 1.8291636383058803e-06 0.0 0.010010433807789834 0.00999683677787441 0.0 1.3576429114124829e-06 0.0 0.01 0.0 1.3576429114124829e-06 0.0 0.010009973677179252 0.010000182154992064 0.0 1.004585952513282e-08 0.0 0.01 0.0 1.0045859525131126e-08 0.0 0.010009818140492142 0.009994732646593216 0.0 1.7923596170746434e-06 0.0 0.01 0.0 1.7923596170744266e-06 0.0 0.010010020422167006 0.009995930064817447 0.0 1.9646571868961807e-06 0.0 0.01 0.0 1.9646571868961807e-06 0.0 0.010010339842472684 0.009998296788358405 0.0 1.535044534662841e-06 0.0 0.01 0.0 1.5350445346626242e-06 0.0 0.010010508092371022 0.010000651919554402 0.0 1.969591545121854e-07 0.0 0.01 0.0 1.969591545122125e-07 0.0 0.010010127670509662 0.009997245221295345 0.0 1.9713167680899743e-06 0.0 0.01 0.0 1.971316768090191e-06 0.0 0.010010115007893637 0.009999471399891081 0.0 1.545797825020824e-06 0.0 0.01 0.0 1.5457978250210409e-06 0.0 0.010010448861471911 0.01000223415503664 0.0 2.0905443387107727e-07 0.0 0.01 0.0 2.0905443387102306e-07 0.0 0.01001072819600133 0.0100017309026667 0.0 -1.7399717994761275e-06 0.0 0.01 0.0 -1.7399717994765612e-06 0.0 0.01000908065671338 0.010000352294544759 0.0 1.2281418573813468e-06 0.0 0.01 0.0 1.2281418573813468e-06 0.0 0.010009948150829865 0.01000181299294067 0.0 1.1060614987644068e-08 0.0 0.01 0.0 1.1060614987644068e-08 0.0 0.010010101234672001 0.010000693453551146 0.0 -4.5804417639707957e-07 0.0 0.01 0.0 -4.5804417639707957e-07 0.0 0.010009236913732884 
