# vtk DataFile Version 3.0
Test VTK file for Force data
ASCII
DATASET POLYDATA
POINTS 2975 float
 -2.2000000E-01   9.9999998E-03  -3.8000000E-01
 -2.2000000E-01   9.9999998E-03  -3.6000001E-01
 -2.0000000E-01   9.9999998E-03  -4.0000001E-01
 -2.0000000E-01   9.9999998E-03  -3.8000000E-01
 -2.0000000E-01   9.9999998E-03  -3.6000001E-01
 -1.8000001E-01   9.9999998E-03  -4.0000001E-01
 -1.8000001E-01   9.9999998E-03  -3.8000000E-01
 -1.8000001E-01   9.9999998E-03  -3.6000001E-01
 -1.6000000E-01   9.9999998E-03  -4.0000001E-01
 -1.6000000E-01   9.9999998E-03  -3.8000000E-01
 -1.6000000E-01   9.9999998E-03  -3.6000001E-01
 -1.4000000E-01   9.9999998E-03  -4.0000001E-01
 -1.4000000E-01   9.9999998E-03  -3.8000000E-01
 -1.4000000E-01   9.9999998E-03  -3.6000001E-01
 -1.2000000E-01   9.9999998E-03  -4.0000001E-01
 -1.2000000E-01   9.9999998E-03  -3.8000000E-01
 -1.2000000E-01   9.9999998E-03  -3.6000001E-01
 -1.0000000E-01   9.9999998E-03  -4.0000001E-01
 -1.0000000E-01   9.9999998E-03  -3.8000000E-01
 -1.0000000E-01   9.9999998E-03  -3.6000001E-01
 -7.9999998E-02   9.9999998E-03  -4.0000001E-01
 -7.9999998E-02   9.9999998E-03  -3.8000000E-01
 -7.9999998E-02   9.9999998E-03  -3.6000001E-01
 -5.9999999E-02   9.9999998E-03  -4.0000001E-01
 -5.9999999E-02   9.9999998E-03  -3.8000000E-01
 -5.9999999E-02   9.9999998E-03  -3.6000001E-01
 -3.9999999E-02   9.9999998E-03  -4.0000001E-01
 -3.9999999E-02   9.9999998E-03  -3.8000000E-01
 -3.9999999E-02   9.9999998E-03  -3.6000001E-01
 -2.0000000E-02   9.9999998E-03  -4.0000001E-01
 -2.0000000E-02   9.9999998E-03  -3.8000000E-01
 -2.0000000E-02   9.9999998E-03  -3.6000001E-01
  0.0000000E+00   9.9999998E-03  -4.0000001E-01
  0.0000000E+00   9.9999998E-03  -3.8000000E-01
  0.0000000E+00   9.9999998E-03  -3.6000001E-01
  2.0000000E-02   9.9999998E-03  -4.0000001E-01
  2.0000000E-02   9.9999998E-03  -3.8000000E-01
  2.0000000E-02   9.9999998E-03  -3.6000001E-01
  3.9999999E-02   9.9999998E-03  -4.0000001E-01
  3.9999999E-02   9.9999998E-03  -3.8000000E-01
  3.9999999E-02   9.9999998E-03  -3.6000001E-01
  5.9999999E-02   9.9999998E-03  -4.0000001E-01
  5.9999999E-02   9.9999998E-03  -3.8000000E-01
  5.9999999E-02   9.9999998E-03  -3.6000001E-01
  7.9999998E-02   9.9999998E-03  -4.0000001E-01
  7.9999998E-02   9.9999998E-03  -3.8000000E-01
  7.9999998E-02   9.9999998E-03  -3.6000001E-01
  1.0000000E-01   9.9999998E-03  -4.0000001E-01
  1.0000000E-01   9.9999998E-03  -3.8000000E-01
  1.0000000E-01   9.9999998E-03  -3.6000001E-01
  1.2000000E-01   9.9999998E-03  -4.0000001E-01
  1.2000000E-01   9.9999998E-03  -3.8000000E-01
  1.2000000E-01   9.9999998E-03  -3.6000001E-01
  1.4000000E-01   9.9999998E-03  -4.0000001E-01
  1.4000000E-01   9.9999998E-03  -3.8000000E-01
  1.4000000E-01   9.9999998E-03  -3.6000001E-01
  1.6000000E-01   9.9999998E-03  -4.0000001E-01
  1.6000000E-01   9.9999998E-03  -3.8000000E-01
  1.6000000E-01   9.9999998E-03  -3.6000001E-01
  1.8000001E-01   9.9999998E-03  -4.0000001E-01
  1.8000001E-01   9.9999998E-03  -3.8000000E-01
  1.8000001E-01   9.9999998E-03  -3.6000001E-01
  2.0000000E-01   9.9999998E-03  -3.8000000E-01
  2.0000000E-01   9.9999998E-03  -3.6000001E-01
 -2.2000000E-01   9.9999998E-03  -3.4000000E-01
 -2.2000000E-01   9.9999998E-03  -3.1999999E-01
 -2.2000000E-01   9.9999998E-03  -3.0000001E-01
 -2.2000000E-01   9.9999998E-03  -2.8000000E-01
 -2.2000000E-01   9.9999998E-03  -2.5999999E-01
 -2.2000000E-01   9.9999998E-03  -2.3999999E-01
 -2.2000000E-01   9.9999998E-03  -2.2000000E-01
 -2.2000000E-01   9.9999998E-03  -2.0000000E-01
 -2.0000000E-01   9.9999998E-03  -3.4000000E-01
 -2.0000000E-01   9.9999998E-03  -3.1999999E-01
 -2.0000000E-01   9.9999998E-03  -3.0000001E-01
 -2.0000000E-01   9.9999998E-03  -2.8000000E-01
 -2.0000000E-01   9.9999998E-03  -2.5999999E-01
 -2.0000000E-01   9.9999998E-03  -2.3999999E-01
 -2.0000000E-01   9.9999998E-03  -2.2000000E-01
 -2.0000000E-01   9.9999998E-03  -2.0000000E-01
 -1.8000001E-01   9.9999998E-03  -3.4000000E-01
 -1.8000001E-01   9.9999998E-03  -3.1999999E-01
 -1.8000001E-01   9.9999998E-03  -3.0000001E-01
 -1.8000001E-01   9.9999998E-03  -2.8000000E-01
 -1.8000001E-01   9.9999998E-03  -2.5999999E-01
 -1.8000001E-01   9.9999998E-03  -2.3999999E-01
 -1.8000001E-01   9.9999998E-03  -2.2000000E-01
 -1.8000001E-01   9.9999998E-03  -2.0000000E-01
 -1.6000000E-01   9.9999998E-03  -3.4000000E-01
 -1.6000000E-01   9.9999998E-03  -3.1999999E-01
 -1.6000000E-01   9.9999998E-03  -3.0000001E-01
 -1.6000000E-01   9.9999998E-03  -2.8000000E-01
 -1.6000000E-01   9.9999998E-03  -2.5999999E-01
 -1.6000000E-01   9.9999998E-03  -2.3999999E-01
 -1.6000000E-01   9.9999998E-03  -2.2000000E-01
 -1.6000000E-01   9.9999998E-03  -2.0000000E-01
 -1.4000000E-01   9.9999998E-03  -3.4000000E-01
 -1.4000000E-01   9.9999998E-03  -3.1999999E-01
 -1.4000000E-01   9.9999998E-03  -3.0000001E-01
 -1.4000000E-01   9.9999998E-03  -2.8000000E-01
 -1.4000000E-01   9.9999998E-03  -2.5999999E-01
 -1.4000000E-01   9.9999998E-03  -2.3999999E-01
 -1.4000000E-01   9.9999998E-03  -2.2000000E-01
 -1.4000000E-01   9.9999998E-03  -2.0000000E-01
 -1.2000000E-01   9.9999998E-03  -3.4000000E-01
 -1.2000000E-01   9.9999998E-03  -3.1999999E-01
 -1.2000000E-01   9.9999998E-03  -3.0000001E-01
 -1.2000000E-01   9.9999998E-03  -2.8000000E-01
 -1.2000000E-01   9.9999998E-03  -2.5999999E-01
 -1.2000000E-01   9.9999998E-03  -2.3999999E-01
 -1.2000000E-01   9.9999998E-03  -2.2000000E-01
 -1.2000000E-01   9.9999998E-03  -2.0000000E-01
 -1.0000000E-01   9.9999998E-03  -3.4000000E-01
 -1.0000000E-01   9.9999998E-03  -3.1999999E-01
 -1.0000000E-01   9.9999998E-03  -3.0000001E-01
 -1.0000000E-01   9.9999998E-03  -2.8000000E-01
 -1.0000000E-01   9.9999998E-03  -2.5999999E-01
 -1.0000000E-01   9.9999998E-03  -2.3999999E-01
 -1.0000000E-01   9.9999998E-03  -2.2000000E-01
 -1.0000000E-01   9.9999998E-03  -2.0000000E-01
 -7.9999998E-02   9.9999998E-03  -3.4000000E-01
 -7.9999998E-02   9.9999998E-03  -3.1999999E-01
 -7.9999998E-02   9.9999998E-03  -3.0000001E-01
 -7.9999998E-02   9.9999998E-03  -2.8000000E-01
 -7.9999998E-02   9.9999998E-03  -2.5999999E-01
 -7.9999998E-02   9.9999998E-03  -2.3999999E-01
 -7.9999998E-02   9.9999998E-03  -2.2000000E-01
 -7.9999998E-02   9.9999998E-03  -2.0000000E-01
 -5.9999999E-02   9.9999998E-03  -3.4000000E-01
 -5.9999999E-02   9.9999998E-03  -3.1999999E-01
 -5.9999999E-02   9.9999998E-03  -3.0000001E-01
 -5.9999999E-02   9.9999998E-03  -2.8000000E-01
 -5.9999999E-02   9.9999998E-03  -2.5999999E-01
 -5.9999999E-02   9.9999998E-03  -2.3999999E-01
 -5.9999999E-02   9.9999998E-03  -2.2000000E-01
 -5.9999999E-02   9.9999998E-03  -2.0000000E-01
 -3.9999999E-02   9.9999998E-03  -3.4000000E-01
 -3.9999999E-02   9.9999998E-03  -3.1999999E-01
 -3.9999999E-02   9.9999998E-03  -3.0000001E-01
 -3.9999999E-02   9.9999998E-03  -2.8000000E-01
 -3.9999999E-02   9.9999998E-03  -2.5999999E-01
 -3.9999999E-02   9.9999998E-03  -2.3999999E-01
 -3.9999999E-02   9.9999998E-03  -2.2000000E-01
 -3.9999999E-02   9.9999998E-03  -2.0000000E-01
 -2.0000000E-02   9.9999998E-03  -3.4000000E-01
 -2.0000000E-02   9.9999998E-03  -3.1999999E-01
 -2.0000000E-02   9.9999998E-03  -3.0000001E-01
 -2.0000000E-02   9.9999998E-03  -2.8000000E-01
 -2.0000000E-02   9.9999998E-03  -2.5999999E-01
 -2.0000000E-02   9.9999998E-03  -2.3999999E-01
 -2.0000000E-02   9.9999998E-03  -2.2000000E-01
 -2.0000000E-02   9.9999998E-03  -2.0000000E-01
  0.0000000E+00   9.9999998E-03  -3.4000000E-01
  0.0000000E+00   9.9999998E-03  -3.1999999E-01
  0.0000000E+00   9.9999998E-03  -3.0000001E-01
  2.0000000E-02   9.9999998E-03  -3.4000000E-01
  2.0000000E-02   9.9999998E-03  -3.1999999E-01
  3.9999999E-02   9.9999998E-03  -3.4000000E-01
  3.9999999E-02   9.9999998E-03  -3.1999999E-01
  5.9999999E-02   9.9999998E-03  -3.4000000E-01
  5.9999999E-02   9.9999998E-03  -3.1999999E-01
  7.9999998E-02   9.9999998E-03  -3.4000000E-01
  7.9999998E-02   9.9999998E-03  -3.1999999E-01
  1.0000000E-01   9.9999998E-03  -3.4000000E-01
  1.0000000E-01   9.9999998E-03  -3.1999999E-01
  1.2000000E-01   9.9999998E-03  -3.4000000E-01
  1.2000000E-01   9.9999998E-03  -3.1999999E-01
  1.4000000E-01   9.9999998E-03  -3.4000000E-01
  1.4000000E-01   9.9999998E-03  -3.1999999E-01
  1.6000000E-01   9.9999998E-03  -3.4000000E-01
  1.6000000E-01   9.9999998E-03  -3.1999999E-01
  1.8000001E-01   9.9999998E-03  -3.4000000E-01
  1.8000001E-01   9.9999998E-03  -3.1999999E-01
  2.0000000E-01   9.9999998E-03  -3.4000000E-01
  2.0000000E-01   9.9999998E-03  -3.1999999E-01
 -2.2000000E-01   9.9999998E-03  -1.8000001E-01
 -2.2000000E-01   9.9999998E-03  -1.6000000E-01
 -2.2000000E-01   9.9999998E-03  -1.4000000E-01
 -2.2000000E-01   9.9999998E-03  -1.2000000E-01
 -2.2000000E-01   9.9999998E-03  -1.0000000E-01
 -2.2000000E-01   9.9999998E-03  -7.9999998E-02
 -2.2000000E-01   9.9999998E-03  -5.9999999E-02
 -2.2000000E-01   9.9999998E-03  -3.9999999E-02
 -2.2000000E-01   9.9999998E-03  -2.0000000E-02
 -2.0000000E-01   9.9999998E-03  -1.8000001E-01
 -2.0000000E-01   9.9999998E-03  -1.6000000E-01
 -2.0000000E-01   9.9999998E-03  -1.4000000E-01
 -2.0000000E-01   9.9999998E-03  -1.2000000E-01
 -2.0000000E-01   9.9999998E-03  -1.0000000E-01
 -2.0000000E-01   9.9999998E-03  -7.9999998E-02
 -2.0000000E-01   9.9999998E-03  -5.9999999E-02
 -2.0000000E-01   9.9999998E-03  -3.9999999E-02
 -2.0000000E-01   9.9999998E-03  -2.0000000E-02
 -1.8000001E-01   9.9999998E-03  -1.8000001E-01
 -1.8000001E-01   9.9999998E-03  -1.6000000E-01
 -1.8000001E-01   9.9999998E-03  -1.4000000E-01
 -1.8000001E-01   9.9999998E-03  -1.2000000E-01
 -1.8000001E-01   9.9999998E-03  -1.0000000E-01
 -1.8000001E-01   9.9999998E-03  -7.9999998E-02
 -1.8000001E-01   9.9999998E-03  -5.9999999E-02
 -1.8000001E-01   9.9999998E-03  -3.9999999E-02
 -1.8000001E-01   9.9999998E-03  -2.0000000E-02
 -1.6000000E-01   9.9999998E-03  -1.8000001E-01
 -1.6000000E-01   9.9999998E-03  -1.6000000E-01
 -1.6000000E-01   9.9999998E-03  -1.4000000E-01
 -1.6000000E-01   9.9999998E-03  -1.2000000E-01
 -1.6000000E-01   9.9999998E-03  -1.0000000E-01
 -1.6000000E-01   9.9999998E-03  -7.9999998E-02
 -1.6000000E-01   9.9999998E-03  -5.9999999E-02
 -1.6000000E-01   9.9999998E-03  -3.9999999E-02
 -1.6000000E-01   9.9999998E-03  -2.0000000E-02
 -1.4000000E-01   9.9999998E-03  -1.8000001E-01
 -1.4000000E-01   9.9999998E-03  -1.6000000E-01
 -1.4000000E-01   9.9999998E-03  -1.4000000E-01
 -1.4000000E-01   9.9999998E-03  -1.2000000E-01
 -1.4000000E-01   9.9999998E-03  -1.0000000E-01
 -1.4000000E-01   9.9999998E-03  -7.9999998E-02
 -1.4000000E-01   9.9999998E-03  -5.9999999E-02
 -1.4000000E-01   9.9999998E-03  -3.9999999E-02
 -1.4000000E-01   9.9999998E-03  -2.0000000E-02
 -1.2000000E-01   9.9999998E-03  -1.8000001E-01
 -1.2000000E-01   9.9999998E-03  -1.6000000E-01
 -1.2000000E-01   9.9999998E-03  -1.4000000E-01
 -1.2000000E-01   9.9999998E-03  -1.2000000E-01
 -1.2000000E-01   9.9999998E-03  -1.0000000E-01
 -1.2000000E-01   9.9999998E-03  -7.9999998E-02
 -1.2000000E-01   9.9999998E-03  -5.9999999E-02
 -1.2000000E-01   9.9999998E-03  -3.9999999E-02
 -1.2000000E-01   9.9999998E-03  -2.0000000E-02
 -1.0000000E-01   9.9999998E-03  -1.8000001E-01
 -1.0000000E-01   9.9999998E-03  -1.6000000E-01
 -1.0000000E-01   9.9999998E-03  -1.4000000E-01
 -1.0000000E-01   9.9999998E-03  -1.2000000E-01
 -1.0000000E-01   9.9999998E-03  -1.0000000E-01
 -1.0000000E-01   9.9999998E-03  -7.9999998E-02
 -1.0000000E-01   9.9999998E-03  -5.9999999E-02
 -1.0000000E-01   9.9999998E-03  -3.9999999E-02
 -1.0000000E-01   9.9999998E-03  -2.0000000E-02
 -7.9999998E-02   9.9999998E-03  -1.8000001E-01
 -7.9999998E-02   9.9999998E-03  -1.6000000E-01
 -7.9999998E-02   9.9999998E-03  -1.4000000E-01
 -7.9999998E-02   9.9999998E-03  -1.2000000E-01
 -7.9999998E-02   9.9999998E-03  -1.0000000E-01
 -7.9999998E-02   9.9999998E-03  -7.9999998E-02
 -7.9999998E-02   9.9999998E-03  -5.9999999E-02
 -7.9999998E-02   9.9999998E-03  -3.9999999E-02
 -7.9999998E-02   9.9999998E-03  -2.0000000E-02
 -5.9999999E-02   9.9999998E-03  -1.8000001E-01
 -5.9999999E-02   9.9999998E-03  -1.6000000E-01
 -5.9999999E-02   9.9999998E-03  -1.4000000E-01
 -5.9999999E-02   9.9999998E-03  -1.2000000E-01
 -5.9999999E-02   9.9999998E-03  -1.0000000E-01
 -5.9999999E-02   9.9999998E-03  -7.9999998E-02
 -5.9999999E-02   9.9999998E-03  -5.9999999E-02
 -5.9999999E-02   9.9999998E-03  -3.9999999E-02
 -5.9999999E-02   9.9999998E-03  -2.0000000E-02
 -3.9999999E-02   9.9999998E-03  -1.8000001E-01
 -3.9999999E-02   9.9999998E-03  -1.6000000E-01
 -3.9999999E-02   9.9999998E-03  -1.4000000E-01
 -3.9999999E-02   9.9999998E-03  -1.2000000E-01
 -3.9999999E-02   9.9999998E-03  -1.0000000E-01
 -3.9999999E-02   9.9999998E-03  -7.9999998E-02
 -3.9999999E-02   9.9999998E-03  -5.9999999E-02
 -3.9999999E-02   9.9999998E-03  -3.9999999E-02
 -3.9999999E-02   9.9999998E-03  -2.0000000E-02
 -2.0000000E-02   9.9999998E-03  -1.8000001E-01
 -2.0000000E-02   9.9999998E-03  -1.6000000E-01
 -2.0000000E-02   9.9999998E-03  -1.4000000E-01
 -2.0000000E-02   9.9999998E-03  -1.2000000E-01
 -2.0000000E-02   9.9999998E-03  -1.0000000E-01
 -2.0000000E-02   9.9999998E-03  -7.9999998E-02
 -2.0000000E-02   9.9999998E-03  -5.9999999E-02
 -2.0000000E-02   9.9999998E-03  -3.9999999E-02
 -2.0000000E-02   9.9999998E-03  -2.0000000E-02
 -2.2000000E-01   9.9999998E-03   0.0000000E+00
 -2.2000000E-01   9.9999998E-03   2.0000000E-02
 -2.2000000E-01   9.9999998E-03   3.9999999E-02
 -2.2000000E-01   9.9999998E-03   5.9999999E-02
 -2.2000000E-01   9.9999998E-03   7.9999998E-02
 -2.2000000E-01   9.9999998E-03   1.0000000E-01
 -2.2000000E-01   9.9999998E-03   1.2000000E-01
 -2.2000000E-01   9.9999998E-03   1.4000000E-01
 -2.0000000E-01   9.9999998E-03   0.0000000E+00
 -2.0000000E-01   9.9999998E-03   2.0000000E-02
 -2.0000000E-01   9.9999998E-03   3.9999999E-02
 -2.0000000E-01   9.9999998E-03   5.9999999E-02
 -2.0000000E-01   9.9999998E-03   7.9999998E-02
 -2.0000000E-01   9.9999998E-03   1.0000000E-01
 -2.0000000E-01   9.9999998E-03   1.2000000E-01
 -2.0000000E-01   9.9999998E-03   1.4000000E-01
 -1.8000001E-01   9.9999998E-03   0.0000000E+00
 -1.8000001E-01   9.9999998E-03   2.0000000E-02
 -1.8000001E-01   9.9999998E-03   3.9999999E-02
 -1.8000001E-01   9.9999998E-03   5.9999999E-02
 -1.8000001E-01   9.9999998E-03   7.9999998E-02
 -1.8000001E-01   9.9999998E-03   1.0000000E-01
 -1.8000001E-01   9.9999998E-03   1.2000000E-01
 -1.8000001E-01   9.9999998E-03   1.4000000E-01
 -1.6000000E-01   9.9999998E-03   0.0000000E+00
 -1.6000000E-01   9.9999998E-03   2.0000000E-02
 -1.6000000E-01   9.9999998E-03   3.9999999E-02
 -1.6000000E-01   9.9999998E-03   5.9999999E-02
 -1.6000000E-01   9.9999998E-03   7.9999998E-02
 -1.6000000E-01   9.9999998E-03   1.0000000E-01
 -1.6000000E-01   9.9999998E-03   1.2000000E-01
 -1.6000000E-01   9.9999998E-03   1.4000000E-01
 -1.4000000E-01   9.9999998E-03   0.0000000E+00
 -1.4000000E-01   9.9999998E-03   2.0000000E-02
 -1.4000000E-01   9.9999998E-03   3.9999999E-02
 -1.4000000E-01   9.9999998E-03   5.9999999E-02
 -1.4000000E-01   9.9999998E-03   7.9999998E-02
 -1.4000000E-01   9.9999998E-03   1.0000000E-01
 -1.4000000E-01   9.9999998E-03   1.2000000E-01
 -1.4000000E-01   9.9999998E-03   1.4000000E-01
 -1.2000000E-01   9.9999998E-03   0.0000000E+00
 -1.2000000E-01   9.9999998E-03   2.0000000E-02
 -1.2000000E-01   9.9999998E-03   3.9999999E-02
 -1.2000000E-01   9.9999998E-03   5.9999999E-02
 -1.2000000E-01   9.9999998E-03   7.9999998E-02
 -1.2000000E-01   9.9999998E-03   1.0000000E-01
 -1.2000000E-01   9.9999998E-03   1.2000000E-01
 -1.2000000E-01   9.9999998E-03   1.4000000E-01
 -1.0000000E-01   9.9999998E-03   0.0000000E+00
 -1.0000000E-01   9.9999998E-03   2.0000000E-02
 -1.0000000E-01   9.9999998E-03   3.9999999E-02
 -1.0000000E-01   9.9999998E-03   5.9999999E-02
 -1.0000000E-01   9.9999998E-03   7.9999998E-02
 -1.0000000E-01   9.9999998E-03   1.0000000E-01
 -1.0000000E-01   9.9999998E-03   1.2000000E-01
 -1.0000000E-01   9.9999998E-03   1.4000000E-01
 -7.9999998E-02   9.9999998E-03   0.0000000E+00
 -7.9999998E-02   9.9999998E-03   2.0000000E-02
 -7.9999998E-02   9.9999998E-03   3.9999999E-02
 -7.9999998E-02   9.9999998E-03   5.9999999E-02
 -7.9999998E-02   9.9999998E-03   7.9999998E-02
 -7.9999998E-02   9.9999998E-03   1.0000000E-01
 -7.9999998E-02   9.9999998E-03   1.2000000E-01
 -7.9999998E-02   9.9999998E-03   1.4000000E-01
 -5.9999999E-02   9.9999998E-03   0.0000000E+00
 -5.9999999E-02   9.9999998E-03   2.0000000E-02
 -5.9999999E-02   9.9999998E-03   3.9999999E-02
 -5.9999999E-02   9.9999998E-03   5.9999999E-02
 -5.9999999E-02   9.9999998E-03   7.9999998E-02
 -5.9999999E-02   9.9999998E-03   1.0000000E-01
 -5.9999999E-02   9.9999998E-03   1.2000000E-01
 -5.9999999E-02   9.9999998E-03   1.4000000E-01
 -3.9999999E-02   9.9999998E-03   0.0000000E+00
 -3.9999999E-02   9.9999998E-03   2.0000000E-02
 -3.9999999E-02   9.9999998E-03   3.9999999E-02
 -3.9999999E-02   9.9999998E-03   5.9999999E-02
 -3.9999999E-02   9.9999998E-03   7.9999998E-02
 -3.9999999E-02   9.9999998E-03   1.0000000E-01
 -3.9999999E-02   9.9999998E-03   1.2000000E-01
 -3.9999999E-02   9.9999998E-03   1.4000000E-01
 -2.0000000E-02   9.9999998E-03   0.0000000E+00
 -2.0000000E-02   9.9999998E-03   2.0000000E-02
 -2.0000000E-02   9.9999998E-03   3.9999999E-02
 -2.0000000E-02   9.9999998E-03   5.9999999E-02
 -2.0000000E-02   9.9999998E-03   7.9999998E-02
 -2.0000000E-02   9.9999998E-03   1.0000000E-01
 -2.0000000E-02   9.9999998E-03   1.2000000E-01
 -2.0000000E-02   9.9999998E-03   1.4000000E-01
 -2.2000000E-01   9.9999998E-03   1.6000000E-01
 -2.2000000E-01   9.9999998E-03   1.8000001E-01
 -2.2000000E-01   9.9999998E-03   2.0000000E-01
 -2.2000000E-01   9.9999998E-03   2.2000000E-01
 -2.2000000E-01   9.9999998E-03   2.3999999E-01
 -2.2000000E-01   9.9999998E-03   2.5999999E-01
 -2.2000000E-01   9.9999998E-03   2.8000000E-01
 -2.2000000E-01   9.9999998E-03   3.0000001E-01
 -2.2000000E-01   9.9999998E-03   3.1999999E-01
 -2.0000000E-01   9.9999998E-03   1.6000000E-01
 -2.0000000E-01   9.9999998E-03   1.8000001E-01
 -2.0000000E-01   9.9999998E-03   2.0000000E-01
 -2.0000000E-01   9.9999998E-03   2.2000000E-01
 -2.0000000E-01   9.9999998E-03   2.3999999E-01
 -2.0000000E-01   9.9999998E-03   2.5999999E-01
 -2.0000000E-01   9.9999998E-03   2.8000000E-01
 -2.0000000E-01   9.9999998E-03   3.0000001E-01
 -2.0000000E-01   9.9999998E-03   3.1999999E-01
 -1.8000001E-01   9.9999998E-03   1.6000000E-01
 -1.8000001E-01   9.9999998E-03   1.8000001E-01
 -1.8000001E-01   9.9999998E-03   2.0000000E-01
 -1.8000001E-01   9.9999998E-03   2.2000000E-01
 -1.8000001E-01   9.9999998E-03   2.3999999E-01
 -1.8000001E-01   9.9999998E-03   2.5999999E-01
 -1.8000001E-01   9.9999998E-03   2.8000000E-01
 -1.8000001E-01   9.9999998E-03   3.0000001E-01
 -1.8000001E-01   9.9999998E-03   3.1999999E-01
 -1.6000000E-01   9.9999998E-03   1.6000000E-01
 -1.6000000E-01   9.9999998E-03   1.8000001E-01
 -1.6000000E-01   9.9999998E-03   2.0000000E-01
 -1.6000000E-01   9.9999998E-03   2.2000000E-01
 -1.6000000E-01   9.9999998E-03   2.3999999E-01
 -1.6000000E-01   9.9999998E-03   2.5999999E-01
 -1.6000000E-01   9.9999998E-03   2.8000000E-01
 -1.6000000E-01   9.9999998E-03   3.0000001E-01
 -1.6000000E-01   9.9999998E-03   3.1999999E-01
 -1.4000000E-01   9.9999998E-03   1.6000000E-01
 -1.4000000E-01   9.9999998E-03   1.8000001E-01
 -1.4000000E-01   9.9999998E-03   2.0000000E-01
 -1.4000000E-01   9.9999998E-03   2.2000000E-01
 -1.4000000E-01   9.9999998E-03   2.3999999E-01
 -1.4000000E-01   9.9999998E-03   2.5999999E-01
 -1.4000000E-01   9.9999998E-03   2.8000000E-01
 -1.4000000E-01   9.9999998E-03   3.0000001E-01
 -1.4000000E-01   9.9999998E-03   3.1999999E-01
 -1.2000000E-01   9.9999998E-03   1.6000000E-01
 -1.2000000E-01   9.9999998E-03   1.8000001E-01
 -1.2000000E-01   9.9999998E-03   2.0000000E-01
 -1.2000000E-01   9.9999998E-03   2.2000000E-01
 -1.2000000E-01   9.9999998E-03   2.3999999E-01
 -1.2000000E-01   9.9999998E-03   2.5999999E-01
 -1.2000000E-01   9.9999998E-03   2.8000000E-01
 -1.2000000E-01   9.9999998E-03   3.0000001E-01
 -1.2000000E-01   9.9999998E-03   3.1999999E-01
 -1.0000000E-01   9.9999998E-03   1.6000000E-01
 -1.0000000E-01   9.9999998E-03   1.8000001E-01
 -1.0000000E-01   9.9999998E-03   2.0000000E-01
 -1.0000000E-01   9.9999998E-03   2.2000000E-01
 -1.0000000E-01   9.9999998E-03   2.3999999E-01
 -1.0000000E-01   9.9999998E-03   2.5999999E-01
 -1.0000000E-01   9.9999998E-03   2.8000000E-01
 -1.0000000E-01   9.9999998E-03   3.0000001E-01
 -1.0000000E-01   9.9999998E-03   3.1999999E-01
 -7.9999998E-02   9.9999998E-03   1.6000000E-01
 -7.9999998E-02   9.9999998E-03   1.8000001E-01
 -7.9999998E-02   9.9999998E-03   2.0000000E-01
 -7.9999998E-02   9.9999998E-03   2.2000000E-01
 -7.9999998E-02   9.9999998E-03   2.3999999E-01
 -7.9999998E-02   9.9999998E-03   2.5999999E-01
 -7.9999998E-02   9.9999998E-03   2.8000000E-01
 -7.9999998E-02   9.9999998E-03   3.0000001E-01
 -7.9999998E-02   9.9999998E-03   3.1999999E-01
 -5.9999999E-02   9.9999998E-03   1.6000000E-01
 -5.9999999E-02   9.9999998E-03   1.8000001E-01
 -5.9999999E-02   9.9999998E-03   2.0000000E-01
 -5.9999999E-02   9.9999998E-03   2.2000000E-01
 -5.9999999E-02   9.9999998E-03   2.3999999E-01
 -5.9999999E-02   9.9999998E-03   2.5999999E-01
 -5.9999999E-02   9.9999998E-03   2.8000000E-01
 -5.9999999E-02   9.9999998E-03   3.0000001E-01
 -5.9999999E-02   9.9999998E-03   3.1999999E-01
 -3.9999999E-02   9.9999998E-03   1.6000000E-01
 -3.9999999E-02   9.9999998E-03   1.8000001E-01
 -3.9999999E-02   9.9999998E-03   2.0000000E-01
 -3.9999999E-02   9.9999998E-03   2.2000000E-01
 -3.9999999E-02   9.9999998E-03   2.3999999E-01
 -3.9999999E-02   9.9999998E-03   2.5999999E-01
 -3.9999999E-02   9.9999998E-03   2.8000000E-01
 -3.9999999E-02   9.9999998E-03   3.0000001E-01
 -3.9999999E-02   9.9999998E-03   3.1999999E-01
 -2.0000000E-02   9.9999998E-03   1.6000000E-01
 -2.0000000E-02   9.9999998E-03   1.8000001E-01
 -2.0000000E-02   9.9999998E-03   2.0000000E-01
 -2.0000000E-02   9.9999998E-03   2.2000000E-01
 -2.0000000E-02   9.9999998E-03   2.3999999E-01
 -2.0000000E-02   9.9999998E-03   2.5999999E-01
 -2.0000000E-02   9.9999998E-03   2.8000000E-01
 -2.0000000E-02   9.9999998E-03   3.0000001E-01
 -2.0000000E-02   9.9999998E-03   3.1999999E-01
  0.0000000E+00   9.9999998E-03   3.0000001E-01
  0.0000000E+00   9.9999998E-03   3.1999999E-01
  2.0000000E-02   9.9999998E-03   3.1999999E-01
  3.9999999E-02   9.9999998E-03   3.1999999E-01
  5.9999999E-02   9.9999998E-03   3.1999999E-01
  7.9999998E-02   9.9999998E-03   3.1999999E-01
  1.0000000E-01   9.9999998E-03   3.1999999E-01
  1.2000000E-01   9.9999998E-03   3.1999999E-01
  1.4000000E-01   9.9999998E-03   3.1999999E-01
  1.6000000E-01   9.9999998E-03   3.1999999E-01
  1.8000001E-01   9.9999998E-03   3.1999999E-01
  2.0000000E-01   9.9999998E-03   3.1999999E-01
 -2.2000000E-01   9.9999998E-03   3.4000000E-01
 -2.2000000E-01   9.9999998E-03   3.6000001E-01
 -2.2000000E-01   9.9999998E-03   3.8000000E-01
 -2.0000000E-01   9.9999998E-03   3.4000000E-01
 -2.0000000E-01   9.9999998E-03   3.6000001E-01
 -2.0000000E-01   9.9999998E-03   3.8000000E-01
 -2.0000000E-01   9.9999998E-03   4.0000001E-01
 -1.8000001E-01   9.9999998E-03   3.4000000E-01
 -1.8000001E-01   9.9999998E-03   3.6000001E-01
 -1.8000001E-01   9.9999998E-03   3.8000000E-01
 -1.8000001E-01   9.9999998E-03   4.0000001E-01
 -1.6000000E-01   9.9999998E-03   3.4000000E-01
 -1.6000000E-01   9.9999998E-03   3.6000001E-01
 -1.6000000E-01   9.9999998E-03   3.8000000E-01
 -1.6000000E-01   9.9999998E-03   4.0000001E-01
 -1.4000000E-01   9.9999998E-03   3.4000000E-01
 -1.4000000E-01   9.9999998E-03   3.6000001E-01
 -1.4000000E-01   9.9999998E-03   3.8000000E-01
 -1.4000000E-01   9.9999998E-03   4.0000001E-01
 -1.2000000E-01   9.9999998E-03   3.4000000E-01
 -1.2000000E-01   9.9999998E-03   3.6000001E-01
 -1.2000000E-01   9.9999998E-03   3.8000000E-01
 -1.2000000E-01   9.9999998E-03   4.0000001E-01
 -1.0000000E-01   9.9999998E-03   3.4000000E-01
 -1.0000000E-01   9.9999998E-03   3.6000001E-01
 -1.0000000E-01   9.9999998E-03   3.8000000E-01
 -1.0000000E-01   9.9999998E-03   4.0000001E-01
 -7.9999998E-02   9.9999998E-03   3.4000000E-01
 -7.9999998E-02   9.9999998E-03   3.6000001E-01
 -7.9999998E-02   9.9999998E-03   3.8000000E-01
 -7.9999998E-02   9.9999998E-03   4.0000001E-01
 -5.9999999E-02   9.9999998E-03   3.4000000E-01
 -5.9999999E-02   9.9999998E-03   3.6000001E-01
 -5.9999999E-02   9.9999998E-03   3.8000000E-01
 -5.9999999E-02   9.9999998E-03   4.0000001E-01
 -3.9999999E-02   9.9999998E-03   3.4000000E-01
 -3.9999999E-02   9.9999998E-03   3.6000001E-01
 -3.9999999E-02   9.9999998E-03   3.8000000E-01
 -3.9999999E-02   9.9999998E-03   4.0000001E-01
 -2.0000000E-02   9.9999998E-03   3.4000000E-01
 -2.0000000E-02   9.9999998E-03   3.6000001E-01
 -2.0000000E-02   9.9999998E-03   3.8000000E-01
 -2.0000000E-02   9.9999998E-03   4.0000001E-01
  0.0000000E+00   9.9999998E-03   3.4000000E-01
  0.0000000E+00   9.9999998E-03   3.6000001E-01
  0.0000000E+00   9.9999998E-03   3.8000000E-01
  0.0000000E+00   9.9999998E-03   4.0000001E-01
  2.0000000E-02   9.9999998E-03   3.4000000E-01
  2.0000000E-02   9.9999998E-03   3.6000001E-01
  2.0000000E-02   9.9999998E-03   3.8000000E-01
  2.0000000E-02   9.9999998E-03   4.0000001E-01
  3.9999999E-02   9.9999998E-03   3.4000000E-01
  3.9999999E-02   9.9999998E-03   3.6000001E-01
  3.9999999E-02   9.9999998E-03   3.8000000E-01
  3.9999999E-02   9.9999998E-03   4.0000001E-01
  5.9999999E-02   9.9999998E-03   3.4000000E-01
  5.9999999E-02   9.9999998E-03   3.6000001E-01
  5.9999999E-02   9.9999998E-03   3.8000000E-01
  5.9999999E-02   9.9999998E-03   4.0000001E-01
  7.9999998E-02   9.9999998E-03   3.4000000E-01
  7.9999998E-02   9.9999998E-03   3.6000001E-01
  7.9999998E-02   9.9999998E-03   3.8000000E-01
  7.9999998E-02   9.9999998E-03   4.0000001E-01
  1.0000000E-01   9.9999998E-03   3.4000000E-01
  1.0000000E-01   9.9999998E-03   3.6000001E-01
  1.0000000E-01   9.9999998E-03   3.8000000E-01
  1.0000000E-01   9.9999998E-03   4.0000001E-01
  1.2000000E-01   9.9999998E-03   3.4000000E-01
  1.2000000E-01   9.9999998E-03   3.6000001E-01
  1.2000000E-01   9.9999998E-03   3.8000000E-01
  1.2000000E-01   9.9999998E-03   4.0000001E-01
  1.4000000E-01   9.9999998E-03   3.4000000E-01
  1.4000000E-01   9.9999998E-03   3.6000001E-01
  1.4000000E-01   9.9999998E-03   3.8000000E-01
  1.4000000E-01   9.9999998E-03   4.0000001E-01
  1.6000000E-01   9.9999998E-03   3.4000000E-01
  1.6000000E-01   9.9999998E-03   3.6000001E-01
  1.6000000E-01   9.9999998E-03   3.8000000E-01
  1.6000000E-01   9.9999998E-03   4.0000001E-01
  1.8000001E-01   9.9999998E-03   3.4000000E-01
  1.8000001E-01   9.9999998E-03   3.6000001E-01
  1.8000001E-01   9.9999998E-03   3.8000000E-01
  1.8000001E-01   9.9999998E-03   4.0000001E-01
  2.0000000E-01   9.9999998E-03   3.4000000E-01
  2.0000000E-01   9.9999998E-03   3.6000001E-01
  2.0000000E-01   9.9999998E-03   3.8000000E-01
  1.9200000E+00   9.9999998E-03  -3.6000001E-01
  1.9200000E+00   9.9999998E-03  -3.4000000E-01
  1.9200000E+00   9.9999998E-03  -3.1999999E-01
  1.9400001E+00   9.9999998E-03  -3.8000000E-01
  1.9400001E+00   9.9999998E-03  -3.6000001E-01
  1.9400001E+00   9.9999998E-03  -3.4000000E-01
  1.9400001E+00   9.9999998E-03  -3.1999999E-01
  1.9400001E+00   9.9999998E-03  -3.0000001E-01
  1.9400001E+00   9.9999998E-03  -2.8000000E-01
  1.9400001E+00   9.9999998E-03  -2.5999999E-01
  1.9400001E+00   9.9999998E-03  -2.3999999E-01
  1.9400001E+00   9.9999998E-03  -2.2000000E-01
  1.9600000E+00   9.9999998E-03  -3.8000000E-01
  1.9600000E+00   9.9999998E-03  -3.6000001E-01
  1.9600000E+00   9.9999998E-03  -3.4000000E-01
  1.9600000E+00   9.9999998E-03  -3.1999999E-01
  1.9600000E+00   9.9999998E-03  -3.0000001E-01
  1.9600000E+00   9.9999998E-03  -2.8000000E-01
  1.9600000E+00   9.9999998E-03  -2.5999999E-01
  1.9600000E+00   9.9999998E-03  -2.3999999E-01
  1.9600000E+00   9.9999998E-03  -2.2000000E-01
  1.9600000E+00   9.9999998E-03  -2.0000000E-01
  1.9600000E+00   9.9999998E-03  -1.8000001E-01
  1.9600000E+00   9.9999998E-03  -1.6000000E-01
  1.9600000E+00   9.9999998E-03  -1.4000000E-01
  1.9600000E+00   9.9999998E-03  -1.2000000E-01
  1.9800000E+00   9.9999998E-03  -3.8000000E-01
  1.9800000E+00   9.9999998E-03  -3.6000001E-01
  1.9800000E+00   9.9999998E-03  -3.4000000E-01
  1.9800000E+00   9.9999998E-03  -3.1999999E-01
  1.9800000E+00   9.9999998E-03  -3.0000001E-01
  1.9800000E+00   9.9999998E-03  -2.8000000E-01
  1.9800000E+00   9.9999998E-03  -2.5999999E-01
  1.9800000E+00   9.9999998E-03  -2.3999999E-01
  1.9800000E+00   9.9999998E-03  -2.2000000E-01
  1.9800000E+00   9.9999998E-03  -2.0000000E-01
  1.9800000E+00   9.9999998E-03  -1.8000001E-01
  1.9800000E+00   9.9999998E-03  -1.6000000E-01
  1.9800000E+00   9.9999998E-03  -1.4000000E-01
  1.9800000E+00   9.9999998E-03  -1.2000000E-01
  1.9800000E+00   9.9999998E-03  -1.0000000E-01
  1.9800000E+00   9.9999998E-03  -7.9999998E-02
  1.9800000E+00   9.9999998E-03  -5.9999999E-02
  1.9800000E+00   9.9999998E-03  -3.9999999E-02
  1.9800000E+00   9.9999998E-03  -2.0000000E-02
  2.0000000E+00   9.9999998E-03  -3.8000000E-01
  2.0000000E+00   9.9999998E-03  -3.6000001E-01
  2.0000000E+00   9.9999998E-03  -3.4000000E-01
  2.0000000E+00   9.9999998E-03  -3.1999999E-01
  2.0000000E+00   9.9999998E-03  -3.0000001E-01
  2.0000000E+00   9.9999998E-03  -2.8000000E-01
  2.0000000E+00   9.9999998E-03  -2.5999999E-01
  2.0000000E+00   9.9999998E-03  -2.3999999E-01
  2.0000000E+00   9.9999998E-03  -2.2000000E-01
  2.0000000E+00   9.9999998E-03  -2.0000000E-01
  2.0000000E+00   9.9999998E-03  -1.8000001E-01
  2.0000000E+00   9.9999998E-03  -1.6000000E-01
  2.0000000E+00   9.9999998E-03  -1.4000000E-01
  2.0000000E+00   9.9999998E-03  -1.2000000E-01
  2.0000000E+00   9.9999998E-03  -1.0000000E-01
  2.0000000E+00   9.9999998E-03  -7.9999998E-02
  2.0000000E+00   9.9999998E-03  -5.9999999E-02
  2.0000000E+00   9.9999998E-03  -3.9999999E-02
  2.0000000E+00   9.9999998E-03  -2.0000000E-02
  2.0000000E+00   9.9999998E-03   0.0000000E+00
  2.0000000E+00   9.9999998E-03   2.0000000E-02
  2.0000000E+00   9.9999998E-03   3.9999999E-02
  2.0000000E+00   9.9999998E-03   5.9999999E-02
  2.0000000E+00   9.9999998E-03   7.9999998E-02
  2.0200000E+00   9.9999998E-03  -4.0000001E-01
  2.0200000E+00   9.9999998E-03  -3.8000000E-01
  2.0200000E+00   9.9999998E-03  -3.6000001E-01
  2.0200000E+00   9.9999998E-03  -3.4000000E-01
  2.0200000E+00   9.9999998E-03  -3.1999999E-01
  2.0200000E+00   9.9999998E-03  -3.0000001E-01
  2.0200000E+00   9.9999998E-03  -2.8000000E-01
  2.0200000E+00   9.9999998E-03  -2.5999999E-01
  2.0200000E+00   9.9999998E-03  -2.3999999E-01
  2.0200000E+00   9.9999998E-03  -2.2000000E-01
  2.0200000E+00   9.9999998E-03  -2.0000000E-01
  2.0200000E+00   9.9999998E-03  -1.8000001E-01
  2.0200000E+00   9.9999998E-03  -1.6000000E-01
  2.0200000E+00   9.9999998E-03  -1.4000000E-01
  2.0200000E+00   9.9999998E-03  -1.2000000E-01
  2.0200000E+00   9.9999998E-03  -1.0000000E-01
  2.0200000E+00   9.9999998E-03  -7.9999998E-02
  2.0200000E+00   9.9999998E-03  -5.9999999E-02
  2.0200000E+00   9.9999998E-03  -3.9999999E-02
  2.0200000E+00   9.9999998E-03  -2.0000000E-02
  2.0200000E+00   9.9999998E-03   0.0000000E+00
  2.0200000E+00   9.9999998E-03   2.0000000E-02
  2.0200000E+00   9.9999998E-03   3.9999999E-02
  2.0200000E+00   9.9999998E-03   5.9999999E-02
  2.0200000E+00   9.9999998E-03   7.9999998E-02
  2.0200000E+00   9.9999998E-03   1.0000000E-01
  2.0200000E+00   9.9999998E-03   1.2000000E-01
  2.0200000E+00   9.9999998E-03   1.4000000E-01
  2.0200000E+00   9.9999998E-03   1.6000000E-01
  2.0200000E+00   9.9999998E-03   1.8000001E-01
  2.0400000E+00   9.9999998E-03  -4.0000001E-01
  2.0400000E+00   9.9999998E-03  -3.8000000E-01
  2.0400000E+00   9.9999998E-03  -3.6000001E-01
  2.0400000E+00   9.9999998E-03  -3.4000000E-01
  2.0400000E+00   9.9999998E-03  -3.1999999E-01
  2.0400000E+00   9.9999998E-03  -3.0000001E-01
  2.0400000E+00   9.9999998E-03  -2.8000000E-01
  2.0400000E+00   9.9999998E-03  -2.5999999E-01
  2.0400000E+00   9.9999998E-03  -2.3999999E-01
  2.0400000E+00   9.9999998E-03  -2.2000000E-01
  2.0400000E+00   9.9999998E-03  -2.0000000E-01
  2.0400000E+00   9.9999998E-03  -1.8000001E-01
  2.0400000E+00   9.9999998E-03  -1.6000000E-01
  2.0400000E+00   9.9999998E-03  -1.4000000E-01
  2.0400000E+00   9.9999998E-03  -1.2000000E-01
  2.0400000E+00   9.9999998E-03  -1.0000000E-01
  2.0400000E+00   9.9999998E-03  -7.9999998E-02
  2.0400000E+00   9.9999998E-03  -5.9999999E-02
  2.0400000E+00   9.9999998E-03  -3.9999999E-02
  2.0400000E+00   9.9999998E-03  -2.0000000E-02
  2.0400000E+00   9.9999998E-03   0.0000000E+00
  2.0400000E+00   9.9999998E-03   2.0000000E-02
  2.0400000E+00   9.9999998E-03   3.9999999E-02
  2.0400000E+00   9.9999998E-03   5.9999999E-02
  2.0400000E+00   9.9999998E-03   7.9999998E-02
  2.0400000E+00   9.9999998E-03   1.0000000E-01
  2.0400000E+00   9.9999998E-03   1.2000000E-01
  2.0400000E+00   9.9999998E-03   1.4000000E-01
  2.0400000E+00   9.9999998E-03   1.6000000E-01
  2.0400000E+00   9.9999998E-03   1.8000001E-01
  2.0400000E+00   9.9999998E-03   2.0000000E-01
  2.0400000E+00   9.9999998E-03   2.2000000E-01
  2.0400000E+00   9.9999998E-03   2.3999999E-01
  2.0400000E+00   9.9999998E-03   2.5999999E-01
  2.0400000E+00   9.9999998E-03   2.8000000E-01
  2.0599999E+00   9.9999998E-03  -4.0000001E-01
  2.0599999E+00   9.9999998E-03  -3.8000000E-01
  2.0599999E+00   9.9999998E-03  -3.6000001E-01
  2.0599999E+00   9.9999998E-03  -3.4000000E-01
  2.0599999E+00   9.9999998E-03  -3.1999999E-01
  2.0599999E+00   9.9999998E-03  -3.0000001E-01
  2.0599999E+00   9.9999998E-03  -2.8000000E-01
  2.0599999E+00   9.9999998E-03  -2.5999999E-01
  2.0599999E+00   9.9999998E-03  -2.3999999E-01
  2.0599999E+00   9.9999998E-03  -2.2000000E-01
  2.0599999E+00   9.9999998E-03  -2.0000000E-01
  2.0599999E+00   9.9999998E-03  -1.8000001E-01
  2.0599999E+00   9.9999998E-03  -1.6000000E-01
  2.0599999E+00   9.9999998E-03  -1.4000000E-01
  2.0599999E+00   9.9999998E-03  -1.2000000E-01
  2.0599999E+00   9.9999998E-03  -1.0000000E-01
  2.0599999E+00   9.9999998E-03  -7.9999998E-02
  2.0599999E+00   9.9999998E-03  -5.9999999E-02
  2.0599999E+00   9.9999998E-03  -3.9999999E-02
  2.0599999E+00   9.9999998E-03  -2.0000000E-02
  2.0599999E+00   9.9999998E-03   0.0000000E+00
  2.0599999E+00   9.9999998E-03   2.0000000E-02
  2.0599999E+00   9.9999998E-03   3.9999999E-02
  2.0599999E+00   9.9999998E-03   5.9999999E-02
  2.0599999E+00   9.9999998E-03   7.9999998E-02
  2.0599999E+00   9.9999998E-03   1.0000000E-01
  2.0599999E+00   9.9999998E-03   1.2000000E-01
  2.0599999E+00   9.9999998E-03   1.4000000E-01
  2.0599999E+00   9.9999998E-03   1.6000000E-01
  2.0599999E+00   9.9999998E-03   1.8000001E-01
  2.0599999E+00   9.9999998E-03   2.0000000E-01
  2.0599999E+00   9.9999998E-03   2.2000000E-01
  2.0599999E+00   9.9999998E-03   2.3999999E-01
  2.0599999E+00   9.9999998E-03   2.5999999E-01
  2.0599999E+00   9.9999998E-03   2.8000000E-01
  2.0599999E+00   9.9999998E-03   3.0000001E-01
  2.0599999E+00   9.9999998E-03   3.1999999E-01
  2.0599999E+00   9.9999998E-03   3.4000000E-01
  2.0599999E+00   9.9999998E-03   3.6000001E-01
  2.0599999E+00   9.9999998E-03   3.8000000E-01
  2.0799999E+00   9.9999998E-03  -4.0000001E-01
  2.0799999E+00   9.9999998E-03  -3.8000000E-01
  2.0799999E+00   9.9999998E-03  -3.6000001E-01
  2.0799999E+00   9.9999998E-03  -3.4000000E-01
  2.0799999E+00   9.9999998E-03  -3.1999999E-01
  2.0799999E+00   9.9999998E-03  -3.0000001E-01
  2.0799999E+00   9.9999998E-03  -2.8000000E-01
  2.0799999E+00   9.9999998E-03  -2.5999999E-01
  2.0799999E+00   9.9999998E-03  -2.3999999E-01
  2.0799999E+00   9.9999998E-03  -2.2000000E-01
  2.0799999E+00   9.9999998E-03  -2.0000000E-01
  2.0799999E+00   9.9999998E-03  -1.8000001E-01
  2.0799999E+00   9.9999998E-03  -1.6000000E-01
  2.0799999E+00   9.9999998E-03  -1.4000000E-01
  2.0799999E+00   9.9999998E-03  -1.2000000E-01
  2.0799999E+00   9.9999998E-03  -1.0000000E-01
  2.0799999E+00   9.9999998E-03  -7.9999998E-02
  2.0799999E+00   9.9999998E-03  -5.9999999E-02
  2.0799999E+00   9.9999998E-03  -3.9999999E-02
  2.0799999E+00   9.9999998E-03  -2.0000000E-02
  2.0799999E+00   9.9999998E-03   0.0000000E+00
  2.0799999E+00   9.9999998E-03   2.0000000E-02
  2.0799999E+00   9.9999998E-03   3.9999999E-02
  2.0799999E+00   9.9999998E-03   5.9999999E-02
  2.0799999E+00   9.9999998E-03   7.9999998E-02
  2.0799999E+00   9.9999998E-03   1.0000000E-01
  2.0799999E+00   9.9999998E-03   1.2000000E-01
  2.0799999E+00   9.9999998E-03   1.4000000E-01
  2.0799999E+00   9.9999998E-03   1.6000000E-01
  2.0799999E+00   9.9999998E-03   1.8000001E-01
  2.0799999E+00   9.9999998E-03   2.0000000E-01
  2.0799999E+00   9.9999998E-03   2.2000000E-01
  2.0799999E+00   9.9999998E-03   2.3999999E-01
  2.0799999E+00   9.9999998E-03   2.5999999E-01
  2.0799999E+00   9.9999998E-03   2.8000000E-01
  2.0799999E+00   9.9999998E-03   3.0000001E-01
  2.0799999E+00   9.9999998E-03   3.1999999E-01
  2.0799999E+00   9.9999998E-03   3.4000000E-01
  2.0799999E+00   9.9999998E-03   3.6000001E-01
  2.0799999E+00   9.9999998E-03   3.8000000E-01
  2.0799999E+00   9.9999998E-03   4.0000001E-01
  2.0999999E+00   9.9999998E-03  -4.0000001E-01
  2.0999999E+00   9.9999998E-03  -3.8000000E-01
  2.0999999E+00   9.9999998E-03  -3.6000001E-01
  2.0999999E+00   9.9999998E-03  -3.4000000E-01
  2.0999999E+00   9.9999998E-03  -3.1999999E-01
  2.0999999E+00   9.9999998E-03  -3.0000001E-01
  2.0999999E+00   9.9999998E-03  -2.8000000E-01
  2.0999999E+00   9.9999998E-03  -2.5999999E-01
  2.0999999E+00   9.9999998E-03  -2.3999999E-01
  2.0999999E+00   9.9999998E-03  -2.2000000E-01
  2.0999999E+00   9.9999998E-03  -2.0000000E-01
  2.0999999E+00   9.9999998E-03  -1.8000001E-01
  2.0999999E+00   9.9999998E-03  -1.6000000E-01
  2.0999999E+00   9.9999998E-03  -1.4000000E-01
  2.0999999E+00   9.9999998E-03  -1.2000000E-01
  2.0999999E+00   9.9999998E-03  -1.0000000E-01
  2.0999999E+00   9.9999998E-03  -7.9999998E-02
  2.0999999E+00   9.9999998E-03  -5.9999999E-02
  2.0999999E+00   9.9999998E-03  -3.9999999E-02
  2.0999999E+00   9.9999998E-03  -2.0000000E-02
  2.0999999E+00   9.9999998E-03   0.0000000E+00
  2.0999999E+00   9.9999998E-03   2.0000000E-02
  2.0999999E+00   9.9999998E-03   3.9999999E-02
  2.0999999E+00   9.9999998E-03   5.9999999E-02
  2.0999999E+00   9.9999998E-03   7.9999998E-02
  2.0999999E+00   9.9999998E-03   1.0000000E-01
  2.0999999E+00   9.9999998E-03   1.2000000E-01
  2.0999999E+00   9.9999998E-03   1.4000000E-01
  2.0999999E+00   9.9999998E-03   1.6000000E-01
  2.0999999E+00   9.9999998E-03   1.8000001E-01
  2.0999999E+00   9.9999998E-03   2.0000000E-01
  2.0999999E+00   9.9999998E-03   2.2000000E-01
  2.0999999E+00   9.9999998E-03   2.3999999E-01
  2.0999999E+00   9.9999998E-03   2.5999999E-01
  2.0999999E+00   9.9999998E-03   2.8000000E-01
  2.0999999E+00   9.9999998E-03   3.0000001E-01
  2.0999999E+00   9.9999998E-03   3.1999999E-01
  2.0999999E+00   9.9999998E-03   3.4000000E-01
  2.0999999E+00   9.9999998E-03   3.6000001E-01
  2.0999999E+00   9.9999998E-03   3.8000000E-01
  2.0999999E+00   9.9999998E-03   4.0000001E-01
  2.1199999E+00   9.9999998E-03  -4.1999999E-01
  2.1199999E+00   9.9999998E-03  -4.0000001E-01
  2.1199999E+00   9.9999998E-03  -3.8000000E-01
  2.1199999E+00   9.9999998E-03  -3.6000001E-01
  2.1199999E+00   9.9999998E-03  -3.4000000E-01
  2.1199999E+00   9.9999998E-03  -3.1999999E-01
  2.1199999E+00   9.9999998E-03  -3.0000001E-01
  2.1199999E+00   9.9999998E-03  -2.8000000E-01
  2.1199999E+00   9.9999998E-03  -2.5999999E-01
  2.1199999E+00   9.9999998E-03  -2.3999999E-01
  2.1199999E+00   9.9999998E-03  -2.2000000E-01
  2.1199999E+00   9.9999998E-03  -2.0000000E-01
  2.1199999E+00   9.9999998E-03  -1.8000001E-01
  2.1199999E+00   9.9999998E-03  -1.6000000E-01
  2.1199999E+00   9.9999998E-03  -1.4000000E-01
  2.1199999E+00   9.9999998E-03  -1.2000000E-01
  2.1199999E+00   9.9999998E-03  -1.0000000E-01
  2.1199999E+00   9.9999998E-03  -7.9999998E-02
  2.1199999E+00   9.9999998E-03  -5.9999999E-02
  2.1199999E+00   9.9999998E-03  -3.9999999E-02
  2.1199999E+00   9.9999998E-03  -2.0000000E-02
  2.1199999E+00   9.9999998E-03   0.0000000E+00
  2.1199999E+00   9.9999998E-03   2.0000000E-02
  2.1199999E+00   9.9999998E-03   3.9999999E-02
  2.1199999E+00   9.9999998E-03   5.9999999E-02
  2.1199999E+00   9.9999998E-03   7.9999998E-02
  2.1199999E+00   9.9999998E-03   1.0000000E-01
  2.1199999E+00   9.9999998E-03   1.2000000E-01
  2.1199999E+00   9.9999998E-03   1.4000000E-01
  2.1199999E+00   9.9999998E-03   1.6000000E-01
  2.1199999E+00   9.9999998E-03   1.8000001E-01
  2.1199999E+00   9.9999998E-03   2.0000000E-01
  2.1199999E+00   9.9999998E-03   2.2000000E-01
  2.1199999E+00   9.9999998E-03   2.3999999E-01
  2.1199999E+00   9.9999998E-03   2.5999999E-01
  2.1199999E+00   9.9999998E-03   2.8000000E-01
  2.1199999E+00   9.9999998E-03   3.0000001E-01
  2.1199999E+00   9.9999998E-03   3.1999999E-01
  2.1199999E+00   9.9999998E-03   3.4000000E-01
  2.1199999E+00   9.9999998E-03   3.6000001E-01
  2.1199999E+00   9.9999998E-03   3.8000000E-01
  2.1199999E+00   9.9999998E-03   4.0000001E-01
  2.1400001E+00   9.9999998E-03  -3.8000000E-01
  2.1400001E+00   9.9999998E-03  -3.6000001E-01
  2.1400001E+00   9.9999998E-03  -3.4000000E-01
  2.1400001E+00   9.9999998E-03  -3.1999999E-01
  2.1400001E+00   9.9999998E-03  -3.0000001E-01
  2.1400001E+00   9.9999998E-03  -2.8000000E-01
  2.1400001E+00   9.9999998E-03  -2.5999999E-01
  2.1400001E+00   9.9999998E-03  -2.3999999E-01
  2.1400001E+00   9.9999998E-03  -2.2000000E-01
  2.1400001E+00   9.9999998E-03  -2.0000000E-01
  2.1400001E+00   9.9999998E-03  -1.8000001E-01
  2.1400001E+00   9.9999998E-03  -1.6000000E-01
  2.1400001E+00   9.9999998E-03  -1.4000000E-01
  2.1400001E+00   9.9999998E-03  -1.2000000E-01
  2.1400001E+00   9.9999998E-03  -1.0000000E-01
  2.1400001E+00   9.9999998E-03  -7.9999998E-02
  2.1400001E+00   9.9999998E-03  -5.9999999E-02
  2.1400001E+00   9.9999998E-03  -3.9999999E-02
  2.1400001E+00   9.9999998E-03  -2.0000000E-02
  2.1400001E+00   9.9999998E-03   0.0000000E+00
  2.1400001E+00   9.9999998E-03   2.0000000E-02
  2.1400001E+00   9.9999998E-03   3.9999999E-02
  2.1400001E+00   9.9999998E-03   5.9999999E-02
  2.1400001E+00   9.9999998E-03   7.9999998E-02
  2.1400001E+00   9.9999998E-03   1.0000000E-01
  2.1400001E+00   9.9999998E-03   1.2000000E-01
  2.1400001E+00   9.9999998E-03   1.4000000E-01
  2.1400001E+00   9.9999998E-03   1.6000000E-01
  2.1400001E+00   9.9999998E-03   1.8000001E-01
  2.1400001E+00   9.9999998E-03   2.0000000E-01
  2.1400001E+00   9.9999998E-03   2.2000000E-01
  2.1400001E+00   9.9999998E-03   2.3999999E-01
  2.1400001E+00   9.9999998E-03   2.5999999E-01
  2.1400001E+00   9.9999998E-03   2.8000000E-01
  2.1400001E+00   9.9999998E-03   3.0000001E-01
  2.1400001E+00   9.9999998E-03   3.1999999E-01
  2.1400001E+00   9.9999998E-03   3.4000000E-01
  2.1400001E+00   9.9999998E-03   3.6000001E-01
  2.1400001E+00   9.9999998E-03   3.8000000E-01
  2.1400001E+00   9.9999998E-03   4.0000001E-01
  2.1600001E+00   9.9999998E-03  -2.8000000E-01
  2.1600001E+00   9.9999998E-03  -2.5999999E-01
  2.1600001E+00   9.9999998E-03  -2.3999999E-01
  2.1600001E+00   9.9999998E-03  -2.2000000E-01
  2.1600001E+00   9.9999998E-03  -2.0000000E-01
  2.1600001E+00   9.9999998E-03  -1.8000001E-01
  2.1600001E+00   9.9999998E-03  -1.6000000E-01
  2.1600001E+00   9.9999998E-03  -1.4000000E-01
  2.1600001E+00   9.9999998E-03  -1.2000000E-01
  2.1600001E+00   9.9999998E-03  -1.0000000E-01
  2.1600001E+00   9.9999998E-03  -7.9999998E-02
  2.1600001E+00   9.9999998E-03  -5.9999999E-02
  2.1600001E+00   9.9999998E-03  -3.9999999E-02
  2.1600001E+00   9.9999998E-03  -2.0000000E-02
  2.1600001E+00   9.9999998E-03   0.0000000E+00
  2.1600001E+00   9.9999998E-03   2.0000000E-02
  2.1600001E+00   9.9999998E-03   3.9999999E-02
  2.1600001E+00   9.9999998E-03   5.9999999E-02
  2.1600001E+00   9.9999998E-03   7.9999998E-02
  2.1600001E+00   9.9999998E-03   1.0000000E-01
  2.1600001E+00   9.9999998E-03   1.2000000E-01
  2.1600001E+00   9.9999998E-03   1.4000000E-01
  2.1600001E+00   9.9999998E-03   1.6000000E-01
  2.1600001E+00   9.9999998E-03   1.8000001E-01
  2.1600001E+00   9.9999998E-03   2.0000000E-01
  2.1600001E+00   9.9999998E-03   2.2000000E-01
  2.1600001E+00   9.9999998E-03   2.3999999E-01
  2.1600001E+00   9.9999998E-03   2.5999999E-01
  2.1600001E+00   9.9999998E-03   2.8000000E-01
  2.1600001E+00   9.9999998E-03   3.0000001E-01
  2.1600001E+00   9.9999998E-03   3.1999999E-01
  2.1600001E+00   9.9999998E-03   3.4000000E-01
  2.1600001E+00   9.9999998E-03   3.6000001E-01
  2.1600001E+00   9.9999998E-03   3.8000000E-01
  2.1600001E+00   9.9999998E-03   4.0000001E-01
  2.1800001E+00   9.9999998E-03  -1.8000001E-01
  2.1800001E+00   9.9999998E-03  -1.6000000E-01
  2.1800001E+00   9.9999998E-03  -1.4000000E-01
  2.1800001E+00   9.9999998E-03  -1.2000000E-01
  2.1800001E+00   9.9999998E-03  -1.0000000E-01
  2.1800001E+00   9.9999998E-03  -7.9999998E-02
  2.1800001E+00   9.9999998E-03  -5.9999999E-02
  2.1800001E+00   9.9999998E-03  -3.9999999E-02
  2.1800001E+00   9.9999998E-03  -2.0000000E-02
  2.1800001E+00   9.9999998E-03   0.0000000E+00
  2.1800001E+00   9.9999998E-03   2.0000000E-02
  2.1800001E+00   9.9999998E-03   3.9999999E-02
  2.1800001E+00   9.9999998E-03   5.9999999E-02
  2.1800001E+00   9.9999998E-03   7.9999998E-02
  2.1800001E+00   9.9999998E-03   1.0000000E-01
  2.1800001E+00   9.9999998E-03   1.2000000E-01
  2.1800001E+00   9.9999998E-03   1.4000000E-01
  2.1800001E+00   9.9999998E-03   1.6000000E-01
  2.1800001E+00   9.9999998E-03   1.8000001E-01
  2.1800001E+00   9.9999998E-03   2.0000000E-01
  2.1800001E+00   9.9999998E-03   2.2000000E-01
  2.1800001E+00   9.9999998E-03   2.3999999E-01
  2.1800001E+00   9.9999998E-03   2.5999999E-01
  2.1800001E+00   9.9999998E-03   2.8000000E-01
  2.1800001E+00   9.9999998E-03   3.0000001E-01
  2.1800001E+00   9.9999998E-03   3.1999999E-01
  2.1800001E+00   9.9999998E-03   3.4000000E-01
  2.1800001E+00   9.9999998E-03   3.6000001E-01
  2.1800001E+00   9.9999998E-03   3.8000000E-01
  2.1800001E+00   9.9999998E-03   4.0000001E-01
  2.2000000E+00   9.9999998E-03  -7.9999998E-02
  2.2000000E+00   9.9999998E-03  -5.9999999E-02
  2.2000000E+00   9.9999998E-03  -3.9999999E-02
  2.2000000E+00   9.9999998E-03  -2.0000000E-02
  2.2000000E+00   9.9999998E-03   0.0000000E+00
  2.2000000E+00   9.9999998E-03   2.0000000E-02
  2.2000000E+00   9.9999998E-03   3.9999999E-02
  2.2000000E+00   9.9999998E-03   5.9999999E-02
  2.2000000E+00   9.9999998E-03   7.9999998E-02
  2.2000000E+00   9.9999998E-03   1.0000000E-01
  2.2000000E+00   9.9999998E-03   1.2000000E-01
  2.2000000E+00   9.9999998E-03   1.4000000E-01
  2.2000000E+00   9.9999998E-03   1.6000000E-01
  2.2000000E+00   9.9999998E-03   1.8000001E-01
  2.2000000E+00   9.9999998E-03   2.0000000E-01
  2.2000000E+00   9.9999998E-03   2.2000000E-01
  2.2000000E+00   9.9999998E-03   2.3999999E-01
  2.2000000E+00   9.9999998E-03   2.5999999E-01
  2.2000000E+00   9.9999998E-03   2.8000000E-01
  2.2000000E+00   9.9999998E-03   3.0000001E-01
  2.2000000E+00   9.9999998E-03   3.1999999E-01
  2.2000000E+00   9.9999998E-03   3.4000000E-01
  2.2000000E+00   9.9999998E-03   3.6000001E-01
  2.2000000E+00   9.9999998E-03   3.8000000E-01
  2.2200000E+00   9.9999998E-03   2.0000000E-02
  2.2200000E+00   9.9999998E-03   3.9999999E-02
  2.2200000E+00   9.9999998E-03   5.9999999E-02
  2.2200000E+00   9.9999998E-03   7.9999998E-02
  2.2200000E+00   9.9999998E-03   1.0000000E-01
  2.2200000E+00   9.9999998E-03   1.2000000E-01
  2.2200000E+00   9.9999998E-03   1.4000000E-01
  2.2200000E+00   9.9999998E-03   1.6000000E-01
  2.2200000E+00   9.9999998E-03   1.8000001E-01
  2.2200000E+00   9.9999998E-03   2.0000000E-01
  2.2200000E+00   9.9999998E-03   2.2000000E-01
  2.2200000E+00   9.9999998E-03   2.3999999E-01
  2.2200000E+00   9.9999998E-03   2.5999999E-01
  2.2200000E+00   9.9999998E-03   2.8000000E-01
  2.2200000E+00   9.9999998E-03   3.0000001E-01
  2.2200000E+00   9.9999998E-03   3.1999999E-01
  2.2200000E+00   9.9999998E-03   3.4000000E-01
  2.2200000E+00   9.9999998E-03   3.6000001E-01
  2.2200000E+00   9.9999998E-03   3.8000000E-01
  2.2400000E+00   9.9999998E-03   1.2000000E-01
  2.2400000E+00   9.9999998E-03   1.4000000E-01
  2.2400000E+00   9.9999998E-03   1.6000000E-01
  2.2400000E+00   9.9999998E-03   1.8000001E-01
  2.2400000E+00   9.9999998E-03   2.0000000E-01
  2.2400000E+00   9.9999998E-03   2.2000000E-01
  2.2400000E+00   9.9999998E-03   2.3999999E-01
  2.2400000E+00   9.9999998E-03   2.5999999E-01
  2.2400000E+00   9.9999998E-03   2.8000000E-01
  2.2400000E+00   9.9999998E-03   3.0000001E-01
  2.2400000E+00   9.9999998E-03   3.1999999E-01
  2.2400000E+00   9.9999998E-03   3.4000000E-01
  2.2400000E+00   9.9999998E-03   3.6000001E-01
  2.2400000E+00   9.9999998E-03   3.8000000E-01
  2.2600000E+00   9.9999998E-03   2.2000000E-01
  2.2600000E+00   9.9999998E-03   2.3999999E-01
  2.2600000E+00   9.9999998E-03   2.5999999E-01
  2.2600000E+00   9.9999998E-03   2.8000000E-01
  2.2600000E+00   9.9999998E-03   3.0000001E-01
  2.2600000E+00   9.9999998E-03   3.1999999E-01
  2.2600000E+00   9.9999998E-03   3.4000000E-01
  2.2600000E+00   9.9999998E-03   3.6000001E-01
  2.2600000E+00   9.9999998E-03   3.8000000E-01
  2.2800000E+00   9.9999998E-03   3.1999999E-01
  2.2800000E+00   9.9999998E-03   3.4000000E-01
  2.2800000E+00   9.9999998E-03   3.6000001E-01
 -9.2878105E-09   9.9999998E-03  -2.8000000E-01
 -1.1231980E-08   9.9999998E-03  -2.5999999E-01
 -1.2876431E-08   9.9999998E-03  -2.4000001E-01
 -1.4200316E-08   9.9999998E-03  -2.2000000E-01
 -1.5254004E-08   9.9999998E-03  -2.0000000E-01
  1.9999990E-02   9.9999998E-03  -3.0000001E-01
  1.9999987E-02   9.9999998E-03  -2.8000000E-01
  1.9999983E-02   9.9999998E-03  -2.5999999E-01
  1.9999981E-02   9.9999998E-03  -2.4000001E-01
  1.9999979E-02   9.9999998E-03  -2.2000000E-01
  1.9999977E-02   9.9999998E-03  -2.0000000E-01
  3.9999984E-02   9.9999998E-03  -3.0000001E-01
  3.9999980E-02   9.9999998E-03  -2.8000000E-01
  3.9999973E-02   9.9999998E-03  -2.6000002E-01
  3.9999969E-02   9.9999998E-03  -2.4000001E-01
  3.9999969E-02   9.9999998E-03  -2.2000000E-01
  3.9999966E-02   9.9999998E-03  -2.0000000E-01
  5.9999976E-02   9.9999998E-03  -3.0000001E-01
  5.9999969E-02   9.9999998E-03  -2.8000000E-01
  5.9999965E-02   9.9999998E-03  -2.6000002E-01
  5.9999958E-02   9.9999998E-03  -2.4000001E-01
  5.9999954E-02   9.9999998E-03  -2.2000001E-01
  5.9999950E-02   9.9999998E-03  -2.0000000E-01
  7.9999968E-02   9.9999998E-03  -3.0000001E-01
  7.9999961E-02   9.9999998E-03  -2.8000000E-01
  7.9999946E-02   9.9999998E-03  -2.6000002E-01
  7.9999939E-02   9.9999998E-03  -2.4000001E-01
  7.9999939E-02   9.9999998E-03  -2.2000001E-01
  7.9999931E-02   9.9999998E-03  -2.0000000E-01
  9.9999957E-02   9.9999998E-03  -3.0000001E-01
  9.9999942E-02   9.9999998E-03  -2.8000000E-01
  9.9999927E-02   9.9999998E-03  -2.6000002E-01
  9.9999920E-02   9.9999998E-03  -2.4000001E-01
  9.9999912E-02   9.9999998E-03  -2.2000001E-01
  9.9999905E-02   9.9999998E-03  -2.0000000E-01
  1.1999994E-01   9.9999998E-03  -3.0000001E-01
  1.1999992E-01   9.9999998E-03  -2.8000003E-01
  1.1999990E-01   9.9999998E-03  -2.6000002E-01
  1.1999989E-01   9.9999998E-03  -2.4000002E-01
  1.1999988E-01   9.9999998E-03  -2.2000001E-01
  1.1999987E-01   9.9999998E-03  -2.0000002E-01
  1.3999991E-01   9.9999998E-03  -3.0000004E-01
  1.3999988E-01   9.9999998E-03  -2.8000003E-01
  1.3999987E-01   9.9999998E-03  -2.6000002E-01
  1.3999985E-01   9.9999998E-03  -2.4000002E-01
  1.3999984E-01   9.9999998E-03  -2.2000001E-01
  1.3999982E-01   9.9999998E-03  -2.0000002E-01
  1.5999988E-01   9.9999998E-03  -3.0000004E-01
  1.5999985E-01   9.9999998E-03  -2.8000003E-01
  1.5999982E-01   9.9999998E-03  -2.6000002E-01
  1.5999979E-01   9.9999998E-03  -2.4000002E-01
  1.5999977E-01   9.9999998E-03  -2.2000003E-01
  1.5999977E-01   9.9999998E-03  -2.0000002E-01
  1.7999983E-01   9.9999998E-03  -3.0000004E-01
  1.7999978E-01   9.9999998E-03  -2.8000006E-01
  1.7999974E-01   9.9999998E-03  -2.6000005E-01
  1.7999972E-01   9.9999998E-03  -2.4000004E-01
  1.7999971E-01   9.9999998E-03  -2.2000003E-01
  1.7999969E-01   9.9999998E-03  -2.0000003E-01
  1.9999976E-01   9.9999998E-03  -3.0000007E-01
  1.9999970E-01   9.9999998E-03  -2.8000006E-01
  1.9999966E-01   9.9999998E-03  -2.6000005E-01
  1.9999963E-01   9.9999998E-03  -2.4000005E-01
  1.9999960E-01   9.9999998E-03  -2.2000004E-01
  1.9999959E-01   9.9999998E-03  -2.0000003E-01
  2.1999967E-01   9.9999998E-03  -3.0000010E-01
  2.1999960E-01   9.9999998E-03  -2.8000009E-01
  2.1999954E-01   9.9999998E-03  -2.6000008E-01
  2.1999949E-01   9.9999998E-03  -2.4000007E-01
  2.1999946E-01   9.9999998E-03  -2.2000006E-01
  2.1999945E-01   9.9999998E-03  -2.0000005E-01
  2.3999953E-01   9.9999998E-03  -3.0000019E-01
  2.3999944E-01   9.9999998E-03  -2.8000015E-01
  2.3999937E-01   9.9999998E-03  -2.6000011E-01
  2.3999932E-01   9.9999998E-03  -2.4000010E-01
  2.3999929E-01   9.9999998E-03  -2.2000009E-01
  2.3999928E-01   9.9999998E-03  -2.0000006E-01
  2.5999933E-01   9.9999998E-03  -3.0000031E-01
  2.5999922E-01   9.9999998E-03  -2.8000024E-01
  2.5999916E-01   9.9999998E-03  -2.6000017E-01
  2.5999910E-01   9.9999998E-03  -2.4000014E-01
  2.5999907E-01   9.9999998E-03  -2.2000012E-01
  2.5999904E-01   9.9999998E-03  -2.0000009E-01
  2.7999905E-01   9.9999998E-03  -3.0000046E-01
  2.7999893E-01   9.9999998E-03  -2.8000036E-01
  2.7999887E-01   9.9999998E-03  -2.6000026E-01
  2.7999881E-01   9.9999998E-03  -2.4000020E-01
  2.7999878E-01   9.9999998E-03  -2.2000016E-01
  2.7999875E-01   9.9999998E-03  -2.0000012E-01
  2.9999870E-01   9.9999998E-03  -3.0000061E-01
  2.9999858E-01   9.9999998E-03  -2.8000048E-01
  2.9999849E-01   9.9999998E-03  -2.6000035E-01
  2.9999843E-01   9.9999998E-03  -2.4000026E-01
  2.9999840E-01   9.9999998E-03  -2.2000021E-01
  2.9999837E-01   9.9999998E-03  -2.0000015E-01
  3.1999823E-01   9.9999998E-03  -3.0000082E-01
  3.1999809E-01   9.9999998E-03  -2.8000063E-01
  3.1999800E-01   9.9999998E-03  -2.6000047E-01
  3.1999794E-01   9.9999998E-03  -2.4000035E-01
  3.1999791E-01   9.9999998E-03  -2.2000027E-01
  3.1999788E-01   9.9999998E-03  -2.0000020E-01
  3.3999765E-01   9.9999998E-03  -3.0000106E-01
  3.3999750E-01   9.9999998E-03  -2.8000084E-01
  3.3999738E-01   9.9999998E-03  -2.6000062E-01
  3.3999729E-01   9.9999998E-03  -2.4000046E-01
  3.3999726E-01   9.9999998E-03  -2.2000034E-01
  3.3999723E-01   9.9999998E-03  -2.0000026E-01
  3.5999691E-01   9.9999998E-03  -3.0000135E-01
  3.5999671E-01   9.9999998E-03  -2.8000107E-01
  3.5999659E-01   9.9999998E-03  -2.6000080E-01
  3.5999650E-01   9.9999998E-03  -2.4000058E-01
  3.5999644E-01   9.9999998E-03  -2.2000043E-01
  3.5999644E-01   9.9999998E-03  -2.0000032E-01
  3.7999597E-01   9.9999998E-03  -3.0000174E-01
  3.7999570E-01   9.9999998E-03  -2.8000134E-01
  3.7999555E-01   9.9999998E-03  -2.6000100E-01
  3.7999547E-01   9.9999998E-03  -2.4000072E-01
  3.7999541E-01   9.9999998E-03  -2.2000054E-01
  3.7999541E-01   9.9999998E-03  -2.0000039E-01
  3.9999476E-01   9.9999998E-03  -3.0000225E-01
  3.9999443E-01   9.9999998E-03  -2.8000173E-01
  3.9999422E-01   9.9999998E-03  -2.6000124E-01
  3.9999413E-01   9.9999998E-03  -2.4000089E-01
  3.9999411E-01   9.9999998E-03  -2.2000065E-01
  3.9999413E-01   9.9999998E-03  -2.0000048E-01
  4.1999316E-01   9.9999998E-03  -3.0000287E-01
  4.1999277E-01   9.9999998E-03  -2.8000215E-01
  4.1999257E-01   9.9999998E-03  -2.6000154E-01
  4.1999248E-01   9.9999998E-03  -2.4000110E-01
  4.1999248E-01   9.9999998E-03  -2.2000080E-01
  4.1999254E-01   9.9999998E-03  -2.0000060E-01
  4.3999112E-01   9.9999998E-03  -3.0000365E-01
  4.3999064E-01   9.9999998E-03  -2.8000271E-01
  4.3999040E-01   9.9999998E-03  -2.6000190E-01
  4.3999037E-01   9.9999998E-03  -2.4000134E-01
  4.3999043E-01   9.9999998E-03  -2.2000100E-01
  4.3999058E-01   9.9999998E-03  -2.0000076E-01
  4.5998847E-01   9.9999998E-03  -3.0000460E-01
  4.5998794E-01   9.9999998E-03  -2.8000334E-01
  4.5998770E-01   9.9999998E-03  -2.6000232E-01
  4.5998770E-01   9.9999998E-03  -2.4000165E-01
  4.5998788E-01   9.9999998E-03  -2.2000125E-01
  4.5998812E-01   9.9999998E-03  -2.0000100E-01
  4.7998500E-01   9.9999998E-03  -3.0000582E-01
  4.7998443E-01   9.9999998E-03  -2.8000414E-01
  4.7998425E-01   9.9999998E-03  -2.6000282E-01
  4.7998440E-01   9.9999998E-03  -2.4000208E-01
  4.7998470E-01   9.9999998E-03  -2.2000164E-01
  4.7998509E-01   9.9999998E-03  -2.0000137E-01
  4.9998042E-01   9.9999998E-03  -3.0000737E-01
  4.9997994E-01   9.9999998E-03  -2.8000510E-01
  4.9997997E-01   9.9999998E-03  -2.6000351E-01
  4.9998033E-01   9.9999998E-03  -2.4000271E-01
  4.9998081E-01   9.9999998E-03  -2.2000225E-01
  4.9998134E-01   9.9999998E-03  -2.0000196E-01
  5.1997441E-01   9.9999998E-03  -3.0000934E-01
  5.1997435E-01   9.9999998E-03  -2.8000638E-01
  5.1997471E-01   9.9999998E-03  -2.6000449E-01
  5.1997536E-01   9.9999998E-03  -2.4000369E-01
  5.1997608E-01   9.9999998E-03  -2.2000322E-01
  5.1997679E-01   9.9999998E-03  -2.0000288E-01
  5.3996676E-01   9.9999998E-03  -3.0001202E-01
  5.3996742E-01   9.9999998E-03  -2.8000820E-01
  5.3996849E-01   9.9999998E-03  -2.6000607E-01
  5.3996962E-01   9.9999998E-03  -2.4000525E-01
  5.3997058E-01   9.9999998E-03  -2.2000475E-01
  5.3997147E-01   9.9999998E-03  -2.0000425E-01
  5.5995721E-01   9.9999998E-03  -3.0001581E-01
  5.5995935E-01   9.9999998E-03  -2.8001103E-01
  5.5996144E-01   9.9999998E-03  -2.6000860E-01
  5.5996305E-01   9.9999998E-03  -2.4000765E-01
  5.5996436E-01   9.9999998E-03  -2.2000693E-01
  5.5996543E-01   9.9999998E-03  -2.0000616E-01
  5.7994622E-01   9.9999998E-03  -3.0002147E-01
  5.7995045E-01   9.9999998E-03  -2.8001574E-01
  5.7995373E-01   9.9999998E-03  -2.6001257E-01
  5.7995594E-01   9.9999998E-03  -2.4001098E-01
  5.7995749E-01   9.9999998E-03  -2.2000979E-01
  5.7995880E-01   9.9999998E-03  -2.0000853E-01
  5.9993482E-01   9.9999998E-03  -3.0003035E-01
  5.9994125E-01   9.9999998E-03  -2.8002349E-01
  5.9994560E-01   9.9999998E-03  -2.6001850E-01
  5.9994847E-01   9.9999998E-03  -2.4001551E-01
  5.9995037E-01   9.9999998E-03  -2.2001323E-01
  5.9995204E-01   9.9999998E-03  -2.0001137E-01
  6.1992455E-01   9.9999998E-03  -3.0004439E-01
  6.1993253E-01   9.9999998E-03  -2.8003642E-01
  6.1993754E-01   9.9999998E-03  -2.6002824E-01
  6.1994070E-01   9.9999998E-03  -2.4002182E-01
  6.1994338E-01   9.9999998E-03  -2.2001775E-01
  6.1994553E-01   9.9999998E-03  -2.0001481E-01
  6.3991719E-01   9.9999998E-03  -3.0006543E-01
  6.3992602E-01   9.9999998E-03  -2.8005731E-01
  6.3993120E-01   9.9999998E-03  -2.6004541E-01
  6.3993436E-01   9.9999998E-03  -2.4003291E-01
  6.3993704E-01   9.9999998E-03  -2.2002429E-01
  6.3993961E-01   9.9999998E-03  -2.0001915E-01
  6.5991414E-01   9.9999998E-03  -3.0009091E-01
  6.5992302E-01   9.9999998E-03  -2.8008437E-01
  6.5992796E-01   9.9999998E-03  -2.6006925E-01
  6.5993029E-01   9.9999998E-03  -2.4004897E-01
  6.5993273E-01   9.9999998E-03  -2.2003406E-01
  6.5993536E-01   9.9999998E-03  -2.0002519E-01
  6.7991853E-01   9.9999998E-03  -3.0011371E-01
  6.7992485E-01   9.9999998E-03  -2.8010914E-01
  6.7992884E-01   9.9999998E-03  -2.6009223E-01
  6.7992997E-01   9.9999998E-03  -2.4006543E-01
  6.7993182E-01   9.9999998E-03  -2.2004442E-01
  6.7993426E-01   9.9999998E-03  -2.0003177E-01
  6.9993365E-01   9.9999998E-03  -3.0012935E-01
  6.9993430E-01   9.9999998E-03  -2.8012598E-01
  6.9993615E-01   9.9999998E-03  -2.6010862E-01
  6.9993651E-01   9.9999998E-03  -2.4007805E-01
  6.9993764E-01   9.9999998E-03  -2.2005309E-01
  6.9993967E-01   9.9999998E-03  -2.0003779E-01
  7.1995324E-01   9.9999998E-03  -3.0013865E-01
  7.1995217E-01   9.9999998E-03  -2.8013477E-01
  7.1995187E-01   9.9999998E-03  -2.6011723E-01
  7.1995223E-01   9.9999998E-03  -2.4008502E-01
  7.1995342E-01   9.9999998E-03  -2.2005840E-01
  7.1995515E-01   9.9999998E-03  -2.0004189E-01
  7.3997104E-01   9.9999998E-03  -3.0014396E-01
  7.3997015E-01   9.9999998E-03  -2.8013921E-01
  7.3996979E-01   9.9999998E-03  -2.6012096E-01
  7.3996997E-01   9.9999998E-03  -2.4008819E-01
  7.3997080E-01   9.9999998E-03  -2.2006117E-01
  7.3997194E-01   9.9999998E-03  -2.0004430E-01
  7.5998503E-01   9.9999998E-03  -3.0014688E-01
  7.5998443E-01   9.9999998E-03  -2.8014135E-01
  7.5998414E-01   9.9999998E-03  -2.6012257E-01
  7.5998414E-01   9.9999998E-03  -2.4008968E-01
  7.5998455E-01   9.9999998E-03  -2.2006264E-01
  7.5998521E-01   9.9999998E-03  -2.0004573E-01
  7.7999538E-01   9.9999998E-03  -3.0014831E-01
  7.7999508E-01   9.9999998E-03  -2.8014228E-01
  7.7999490E-01   9.9999998E-03  -2.6012310E-01
  7.7999485E-01   9.9999998E-03  -2.4009018E-01
  7.7999490E-01   9.9999998E-03  -2.2006324E-01
  7.7999508E-01   9.9999998E-03  -2.0004639E-01
  8.0000359E-01   9.9999998E-03  -3.0014870E-01
  8.0000353E-01   9.9999998E-03  -2.8014243E-01
  8.0000341E-01   9.9999998E-03  -2.6012298E-01
  8.0000329E-01   9.9999998E-03  -2.4009004E-01
  8.0000311E-01   9.9999998E-03  -2.2006319E-01
  8.0000299E-01   9.9999998E-03  -2.0004643E-01
  8.2001102E-01   9.9999998E-03  -3.0014822E-01
  8.2001120E-01   9.9999998E-03  -2.8014195E-01
  8.2001120E-01   9.9999998E-03  -2.6012242E-01
  8.2001102E-01   9.9999998E-03  -2.4008943E-01
  8.2001066E-01   9.9999998E-03  -2.2006266E-01
  8.2001019E-01   9.9999998E-03  -2.0004600E-01
  8.4001863E-01   9.9999998E-03  -3.0014586E-01
  8.4001899E-01   9.9999998E-03  -2.8013965E-01
  8.4001905E-01   9.9999998E-03  -2.6012027E-01
  8.4001875E-01   9.9999998E-03  -2.4008775E-01
  8.4001821E-01   9.9999998E-03  -2.2006138E-01
  8.4001750E-01   9.9999998E-03  -2.0004502E-01
  8.6002630E-01   9.9999998E-03  -3.0014160E-01
  8.6002684E-01   9.9999998E-03  -2.8013548E-01
  8.6002690E-01   9.9999998E-03  -2.6011652E-01
  8.6002660E-01   9.9999998E-03  -2.4008492E-01
  8.6002582E-01   9.9999998E-03  -2.2005937E-01
  8.6002481E-01   9.9999998E-03  -2.0004351E-01
  8.8003361E-01   9.9999998E-03  -3.0013558E-01
  8.8003427E-01   9.9999998E-03  -2.8012952E-01
  8.8003439E-01   9.9999998E-03  -2.6011124E-01
  8.8003397E-01   9.9999998E-03  -2.4008103E-01
  8.8003302E-01   9.9999998E-03  -2.2005662E-01
  8.8003176E-01   9.9999998E-03  -2.0004152E-01
  9.0004003E-01   9.9999998E-03  -3.0012807E-01
  9.0004069E-01   9.9999998E-03  -2.8012207E-01
  9.0004075E-01   9.9999998E-03  -2.6010460E-01
  9.0004039E-01   9.9999998E-03  -2.4007617E-01
  9.0003926E-01   9.9999998E-03  -2.2005326E-01
  9.0003777E-01   9.9999998E-03  -2.0003907E-01
  9.2004502E-01   9.9999998E-03  -3.0011943E-01
  9.2004538E-01   9.9999998E-03  -2.8011343E-01
  9.2004561E-01   9.9999998E-03  -2.6009691E-01
  9.2004526E-01   9.9999998E-03  -2.4007055E-01
  9.2004395E-01   9.9999998E-03  -2.2004937E-01
  9.2004210E-01   9.9999998E-03  -2.0003629E-01
  9.4004828E-01   9.9999998E-03  -3.0011007E-01
  9.4004846E-01   9.9999998E-03  -2.8010404E-01
  9.4004881E-01   9.9999998E-03  -2.6008856E-01
  9.4004840E-01   9.9999998E-03  -2.4006441E-01
  9.4004637E-01   9.9999998E-03  -2.2004515E-01
  9.4004369E-01   9.9999998E-03  -2.0003331E-01
  9.6005040E-01   9.9999998E-03  -3.0010036E-01
  9.6005052E-01   9.9999998E-03  -2.8009444E-01
  9.6005052E-01   9.9999998E-03  -2.6007998E-01
  9.6004945E-01   9.9999998E-03  -2.4005803E-01
  9.6004665E-01   9.9999998E-03  -2.2004075E-01
  9.6004361E-01   9.9999998E-03  -2.0003022E-01
  9.8005229E-01   9.9999998E-03  -3.0009067E-01
  9.8005193E-01   9.9999998E-03  -2.8008494E-01
  9.8005128E-01   9.9999998E-03  -2.6007152E-01
  9.8004931E-01   9.9999998E-03  -2.4005170E-01
  9.8004597E-01   9.9999998E-03  -2.2003640E-01
  9.8004276E-01   9.9999998E-03  -2.0002717E-01
  1.0000547E+00   9.9999998E-03  -3.0008122E-01
  1.0000535E+00   9.9999998E-03  -2.8007573E-01
  1.0000516E+00   9.9999998E-03  -2.6006344E-01
  1.0000489E+00   9.9999998E-03  -2.4004577E-01
  1.0000449E+00   9.9999998E-03  -2.2003229E-01
  1.0000414E+00   9.9999998E-03  -2.0002426E-01
  1.0200584E+00   9.9999998E-03  -3.0007231E-01
  1.0200558E+00   9.9999998E-03  -2.8006709E-01
  1.0200523E+00   9.9999998E-03  -2.6005614E-01
  1.0200483E+00   9.9999998E-03  -2.4004063E-01
  1.0200436E+00   9.9999998E-03  -2.2002876E-01
  1.0200399E+00   9.9999998E-03  -2.0002171E-01
  1.0400642E+00   9.9999998E-03  -3.0006447E-01
  1.0400593E+00   9.9999998E-03  -2.8005949E-01
  1.0400536E+00   9.9999998E-03  -2.6004997E-01
  1.0400478E+00   9.9999998E-03  -2.4003656E-01
  1.0400423E+00   9.9999998E-03  -2.2002600E-01
  1.0400383E+00   9.9999998E-03  -2.0001948E-01
  1.0600708E+00   9.9999998E-03  -3.0005786E-01
  1.0600632E+00   9.9999998E-03  -2.8005329E-01
  1.0600551E+00   9.9999998E-03  -2.6004526E-01
  1.0600474E+00   9.9999998E-03  -2.4003373E-01
  1.0600412E+00   9.9999998E-03  -2.2002402E-01
  1.0600368E+00   9.9999998E-03  -2.0001769E-01
  1.0800755E+00   9.9999998E-03  -3.0005243E-01
  1.0800661E+00   9.9999998E-03  -2.8004852E-01
  1.0800565E+00   9.9999998E-03  -2.6004189E-01
  1.0800472E+00   9.9999998E-03  -2.4003208E-01
  1.0800403E+00   9.9999998E-03  -2.2002287E-01
  1.0800354E+00   9.9999998E-03  -2.0001647E-01
  1.1000670E+00   9.9999998E-03  -2.8004459E-01
  1.1000574E+00   9.9999998E-03  -2.6003933E-01
  1.1000476E+00   9.9999998E-03  -2.4003123E-01
  1.1000400E+00   9.9999998E-03  -2.2002251E-01
  1.1000344E+00   9.9999998E-03  -2.0001586E-01
  1.1200665E+00   9.9999998E-03  -2.8004113E-01
  1.1200577E+00   9.9999998E-03  -2.6003712E-01
  1.1200484E+00   9.9999998E-03  -2.4003071E-01
  1.1200401E+00   9.9999998E-03  -2.2002277E-01
  1.1200339E+00   9.9999998E-03  -2.0001586E-01
  1.1400577E+00   9.9999998E-03  -2.6003519E-01
  1.1400495E+00   9.9999998E-03  -2.4003029E-01
  1.1400410E+00   9.9999998E-03  -2.2002350E-01
  1.1400340E+00   9.9999998E-03  -2.0001654E-01
  1.1600571E+00   9.9999998E-03  -2.6003340E-01
  1.1600504E+00   9.9999998E-03  -2.4002987E-01
  1.1600428E+00   9.9999998E-03  -2.2002444E-01
  1.1600353E+00   9.9999998E-03  -2.0001796E-01
  1.1800507E+00   9.9999998E-03  -2.4002936E-01
  1.1800445E+00   9.9999998E-03  -2.2002529E-01
  1.1800376E+00   9.9999998E-03  -2.0001973E-01
  1.2000457E+00   9.9999998E-03  -2.2002570E-01
  1.2000403E+00   9.9999998E-03  -2.0002128E-01
  1.2200456E+00   9.9999998E-03  -2.2002552E-01
  1.2200422E+00   9.9999998E-03  -2.0002227E-01
 -1.6072326E-08   9.9999998E-03  -1.8000001E-01
 -1.6700019E-08   9.9999998E-03  -1.6000000E-01
 -1.7172143E-08   9.9999998E-03  -1.4000000E-01
 -1.7527512E-08   9.9999998E-03  -1.2000000E-01
 -1.7791729E-08   9.9999998E-03  -1.0000000E-01
 -1.7984251E-08   9.9999998E-03  -7.9999998E-02
 -1.8119859E-08   9.9999998E-03  -5.9999999E-02
 -1.8209086E-08   9.9999998E-03  -3.9999999E-02
 -1.8259563E-08   9.9999998E-03  -2.0000000E-02
  1.9999975E-02   9.9999998E-03  -1.8000001E-01
  1.9999975E-02   9.9999998E-03  -1.6000000E-01
  1.9999973E-02   9.9999998E-03  -1.4000000E-01
  1.9999973E-02   9.9999998E-03  -1.2000000E-01
  1.9999973E-02   9.9999998E-03  -1.0000000E-01
  1.9999973E-02   9.9999998E-03  -7.9999998E-02
  1.9999973E-02   9.9999998E-03  -6.0000002E-02
  1.9999973E-02   9.9999998E-03  -3.9999999E-02
  1.9999973E-02   9.9999998E-03  -2.0000000E-02
  3.9999966E-02   9.9999998E-03  -1.8000001E-01
  3.9999962E-02   9.9999998E-03  -1.6000000E-01
  3.9999962E-02   9.9999998E-03  -1.4000000E-01
  3.9999962E-02   9.9999998E-03  -1.2000000E-01
  3.9999962E-02   9.9999998E-03  -1.0000000E-01
  3.9999962E-02   9.9999998E-03  -7.9999998E-02
  3.9999962E-02   9.9999998E-03  -6.0000002E-02
  3.9999962E-02   9.9999998E-03  -3.9999999E-02
  3.9999958E-02   9.9999998E-03  -2.0000000E-02
  5.9999950E-02   9.9999998E-03  -1.8000001E-01
  5.9999947E-02   9.9999998E-03  -1.6000001E-01
  5.9999947E-02   9.9999998E-03  -1.4000000E-01
  5.9999947E-02   9.9999998E-03  -1.2000000E-01
  5.9999943E-02   9.9999998E-03  -1.0000000E-01
  5.9999943E-02   9.9999998E-03  -7.9999998E-02
  5.9999943E-02   9.9999998E-03  -6.0000002E-02
  5.9999943E-02   9.9999998E-03  -3.9999999E-02
  5.9999943E-02   9.9999998E-03  -2.0000000E-02
  7.9999931E-02   9.9999998E-03  -1.8000001E-01
  7.9999924E-02   9.9999998E-03  -1.6000001E-01
  7.9999924E-02   9.9999998E-03  -1.4000000E-01
  7.9999924E-02   9.9999998E-03  -1.2000000E-01
  7.9999924E-02   9.9999998E-03  -1.0000000E-01
  7.9999924E-02   9.9999998E-03  -8.0000006E-02
  7.9999924E-02   9.9999998E-03  -6.0000002E-02
  7.9999924E-02   9.9999998E-03  -4.0000003E-02
  7.9999924E-02   9.9999998E-03  -2.0000001E-02
  9.9999905E-02   9.9999998E-03  -1.8000001E-01
  9.9999897E-02   9.9999998E-03  -1.6000001E-01
  9.9999897E-02   9.9999998E-03  -1.4000000E-01
  9.9999897E-02   9.9999998E-03  -1.2000000E-01
  9.9999897E-02   9.9999998E-03  -1.0000000E-01
  9.9999897E-02   9.9999998E-03  -8.0000006E-02
  9.9999897E-02   9.9999998E-03  -6.0000002E-02
  9.9999897E-02   9.9999998E-03  -4.0000003E-02
  9.9999897E-02   9.9999998E-03  -2.0000001E-02
  1.1999987E-01   9.9999998E-03  -1.8000001E-01
  1.1999986E-01   9.9999998E-03  -1.6000001E-01
  1.1999986E-01   9.9999998E-03  -1.4000000E-01
  1.1999986E-01   9.9999998E-03  -1.2000000E-01
  1.1999986E-01   9.9999998E-03  -1.0000000E-01
  1.1999986E-01   9.9999998E-03  -8.0000006E-02
  1.1999986E-01   9.9999998E-03  -6.0000002E-02
  1.1999986E-01   9.9999998E-03  -4.0000003E-02
  1.1999986E-01   9.9999998E-03  -2.0000001E-02
  1.3999982E-01   9.9999998E-03  -1.8000002E-01
  1.3999982E-01   9.9999998E-03  -1.6000001E-01
  1.3999982E-01   9.9999998E-03  -1.4000002E-01
  1.3999981E-01   9.9999998E-03  -1.2000000E-01
  1.3999981E-01   9.9999998E-03  -1.0000001E-01
  1.3999981E-01   9.9999998E-03  -8.0000006E-02
  1.3999981E-01   9.9999998E-03  -6.0000002E-02
  1.3999981E-01   9.9999998E-03  -4.0000003E-02
  1.3999981E-01   9.9999998E-03  -2.0000001E-02
  1.5999976E-01   9.9999998E-03  -1.8000002E-01
  1.5999976E-01   9.9999998E-03  -1.6000001E-01
  1.5999976E-01   9.9999998E-03  -1.4000002E-01
  1.5999976E-01   9.9999998E-03  -1.2000001E-01
  1.5999974E-01   9.9999998E-03  -1.0000001E-01
  1.5999974E-01   9.9999998E-03  -8.0000006E-02
  1.5999974E-01   9.9999998E-03  -6.0000002E-02
  1.5999974E-01   9.9999998E-03  -4.0000003E-02
  1.5999974E-01   9.9999998E-03  -2.0000001E-02
  1.7999968E-01   9.9999998E-03  -1.8000002E-01
  1.7999968E-01   9.9999998E-03  -1.6000003E-01
  1.7999966E-01   9.9999998E-03  -1.4000002E-01
  1.7999966E-01   9.9999998E-03  -1.2000001E-01
  1.7999966E-01   9.9999998E-03  -1.0000001E-01
  1.7999966E-01   9.9999998E-03  -8.0000006E-02
  1.7999966E-01   9.9999998E-03  -6.0000006E-02
  1.7999966E-01   9.9999998E-03  -4.0000003E-02
  1.7999966E-01   9.9999998E-03  -2.0000001E-02
  1.9999957E-01   9.9999998E-03  -1.8000004E-01
  1.9999957E-01   9.9999998E-03  -1.6000003E-01
  1.9999957E-01   9.9999998E-03  -1.4000002E-01
  1.9999957E-01   9.9999998E-03  -1.2000002E-01
  1.9999956E-01   9.9999998E-03  -1.0000002E-01
  1.9999956E-01   9.9999998E-03  -8.0000006E-02
  1.9999956E-01   9.9999998E-03  -6.0000006E-02
  1.9999956E-01   9.9999998E-03  -4.0000003E-02
  1.9999956E-01   9.9999998E-03  -2.0000001E-02
  2.1999943E-01   9.9999998E-03  -1.8000004E-01
  2.1999943E-01   9.9999998E-03  -1.6000004E-01
  2.1999943E-01   9.9999998E-03  -1.4000003E-01
  2.1999943E-01   9.9999998E-03  -1.2000002E-01
  2.1999943E-01   9.9999998E-03  -1.0000002E-01
  2.1999943E-01   9.9999998E-03  -8.0000013E-02
  2.1999943E-01   9.9999998E-03  -6.0000010E-02
  2.1999943E-01   9.9999998E-03  -4.0000007E-02
  2.1999943E-01   9.9999998E-03  -2.0000003E-02
  2.3999926E-01   9.9999998E-03  -1.8000005E-01
  2.3999925E-01   9.9999998E-03  -1.6000004E-01
  2.3999925E-01   9.9999998E-03  -1.4000003E-01
  2.3999925E-01   9.9999998E-03  -1.2000003E-01
  2.3999925E-01   9.9999998E-03  -1.0000002E-01
  2.3999925E-01   9.9999998E-03  -8.0000013E-02
  2.3999925E-01   9.9999998E-03  -6.0000010E-02
  2.3999925E-01   9.9999998E-03  -4.0000007E-02
  2.3999925E-01   9.9999998E-03  -2.0000003E-02
  2.5999904E-01   9.9999998E-03  -1.8000007E-01
  2.5999904E-01   9.9999998E-03  -1.6000006E-01
  2.5999904E-01   9.9999998E-03  -1.4000005E-01
  2.5999904E-01   9.9999998E-03  -1.2000003E-01
  2.5999904E-01   9.9999998E-03  -1.0000002E-01
  2.5999904E-01   9.9999998E-03  -8.0000021E-02
  2.5999904E-01   9.9999998E-03  -6.0000014E-02
  2.5999904E-01   9.9999998E-03  -4.0000007E-02
  2.5999904E-01   9.9999998E-03  -2.0000003E-02
  2.7999875E-01   9.9999998E-03  -1.8000010E-01
  2.7999872E-01   9.9999998E-03  -1.6000007E-01
  2.7999872E-01   9.9999998E-03  -1.4000006E-01
  2.7999872E-01   9.9999998E-03  -1.2000004E-01
  2.7999875E-01   9.9999998E-03  -1.0000003E-01
  2.7999875E-01   9.9999998E-03  -8.0000021E-02
  2.7999875E-01   9.9999998E-03  -6.0000014E-02
  2.7999875E-01   9.9999998E-03  -4.0000010E-02
  2.7999875E-01   9.9999998E-03  -2.0000005E-02
  2.9999834E-01   9.9999998E-03  -1.8000013E-01
  2.9999834E-01   9.9999998E-03  -1.6000009E-01
  2.9999834E-01   9.9999998E-03  -1.4000008E-01
  2.9999837E-01   9.9999998E-03  -1.2000005E-01
  2.9999837E-01   9.9999998E-03  -1.0000004E-01
  2.9999837E-01   9.9999998E-03  -8.0000028E-02
  2.9999837E-01   9.9999998E-03  -6.0000017E-02
  2.9999837E-01   9.9999998E-03  -4.0000010E-02
  2.9999837E-01   9.9999998E-03  -2.0000005E-02
  3.1999788E-01   9.9999998E-03  -1.8000016E-01
  3.1999788E-01   9.9999998E-03  -1.6000012E-01
  3.1999788E-01   9.9999998E-03  -1.4000009E-01
  3.1999788E-01   9.9999998E-03  -1.2000006E-01
  3.1999791E-01   9.9999998E-03  -1.0000005E-01
  3.1999791E-01   9.9999998E-03  -8.0000035E-02
  3.1999791E-01   9.9999998E-03  -6.0000021E-02
  3.1999794E-01   9.9999998E-03  -4.0000014E-02
  3.1999794E-01   9.9999998E-03  -2.0000007E-02
  3.3999723E-01   9.9999998E-03  -1.8000019E-01
  3.3999726E-01   9.9999998E-03  -1.6000015E-01
  3.3999726E-01   9.9999998E-03  -1.4000010E-01
  3.3999729E-01   9.9999998E-03  -1.2000008E-01
  3.3999732E-01   9.9999998E-03  -1.0000005E-01
  3.3999732E-01   9.9999998E-03  -8.0000043E-02
  3.3999735E-01   9.9999998E-03  -6.0000028E-02
  3.3999735E-01   9.9999998E-03  -4.0000018E-02
  3.3999735E-01   9.9999998E-03  -2.0000009E-02
  3.5999644E-01   9.9999998E-03  -1.8000023E-01
  3.5999647E-01   9.9999998E-03  -1.6000018E-01
  3.5999650E-01   9.9999998E-03  -1.4000012E-01
  3.5999656E-01   9.9999998E-03  -1.2000009E-01
  3.5999656E-01   9.9999998E-03  -1.0000007E-01
  3.5999659E-01   9.9999998E-03  -8.0000050E-02
  3.5999662E-01   9.9999998E-03  -6.0000036E-02
  3.5999662E-01   9.9999998E-03  -4.0000021E-02
  3.5999665E-01   9.9999998E-03  -2.0000011E-02
  3.7999547E-01   9.9999998E-03  -1.8000029E-01
  3.7999550E-01   9.9999998E-03  -1.6000022E-01
  3.7999555E-01   9.9999998E-03  -1.4000016E-01
  3.7999561E-01   9.9999998E-03  -1.2000012E-01
  3.7999564E-01   9.9999998E-03  -1.0000009E-01
  3.7999567E-01   9.9999998E-03  -8.0000065E-02
  3.7999570E-01   9.9999998E-03  -6.0000047E-02
  3.7999570E-01   9.9999998E-03  -4.0000033E-02
  3.7999573E-01   9.9999998E-03  -2.0000016E-02
  3.9999419E-01   9.9999998E-03  -1.8000036E-01
  3.9999428E-01   9.9999998E-03  -1.6000026E-01
  3.9999437E-01   9.9999998E-03  -1.4000021E-01
  3.9999443E-01   9.9999998E-03  -1.2000016E-01
  3.9999449E-01   9.9999998E-03  -1.0000012E-01
  3.9999455E-01   9.9999998E-03  -8.0000095E-02
  3.9999458E-01   9.9999998E-03  -6.0000069E-02
  3.9999458E-01   9.9999998E-03  -4.0000044E-02
  3.9999461E-01   9.9999998E-03  -2.0000022E-02
  4.1999266E-01   9.9999998E-03  -1.8000045E-01
  4.1999277E-01   9.9999998E-03  -1.6000035E-01
  4.1999289E-01   9.9999998E-03  -1.4000027E-01
  4.1999298E-01   9.9999998E-03  -1.2000022E-01
  4.1999307E-01   9.9999998E-03  -1.0000017E-01
  4.1999313E-01   9.9999998E-03  -8.0000140E-02
  4.1999319E-01   9.9999998E-03  -6.0000103E-02
  4.1999319E-01   9.9999998E-03  -4.0000066E-02
  4.1999322E-01   9.9999998E-03  -2.0000033E-02
  4.3999076E-01   9.9999998E-03  -1.8000059E-01
  4.3999094E-01   9.9999998E-03  -1.6000047E-01
  4.3999109E-01   9.9999998E-03  -1.4000039E-01
  4.3999124E-01   9.9999998E-03  -1.2000032E-01
  4.3999133E-01   9.9999998E-03  -1.0000025E-01
  4.3999141E-01   9.9999998E-03  -8.0000199E-02
  4.3999147E-01   9.9999998E-03  -6.0000151E-02
  4.3999150E-01   9.9999998E-03  -4.0000100E-02
  4.3999153E-01   9.9999998E-03  -2.0000052E-02
  4.5998839E-01   9.9999998E-03  -1.8000081E-01
  4.5998865E-01   9.9999998E-03  -1.6000068E-01
  4.5998886E-01   9.9999998E-03  -1.4000057E-01
  4.5998904E-01   9.9999998E-03  -1.2000047E-01
  4.5998919E-01   9.9999998E-03  -1.0000038E-01
  4.5998928E-01   9.9999998E-03  -8.0000304E-02
  4.5998937E-01   9.9999998E-03  -6.0000226E-02
  4.5998940E-01   9.9999998E-03  -4.0000152E-02
  4.5998943E-01   9.9999998E-03  -2.0000076E-02
  4.7998545E-01   9.9999998E-03  -1.8000115E-01
  4.7998580E-01   9.9999998E-03  -1.6000099E-01
  4.7998613E-01   9.9999998E-03  -1.4000084E-01
  4.7998637E-01   9.9999998E-03  -1.2000070E-01
  4.7998655E-01   9.9999998E-03  -1.0000057E-01
  4.7998667E-01   9.9999998E-03  -8.0000453E-02
  4.7998676E-01   9.9999998E-03  -6.0000338E-02
  4.7998679E-01   9.9999998E-03  -4.0000223E-02
  4.7998682E-01   9.9999998E-03  -2.0000113E-02
  4.9998185E-01   9.9999998E-03  -1.8000171E-01
  4.9998233E-01   9.9999998E-03  -1.6000147E-01
  4.9998271E-01   9.9999998E-03  -1.4000125E-01
  4.9998301E-01   9.9999998E-03  -1.2000103E-01
  4.9998325E-01   9.9999998E-03  -1.0000084E-01
  4.9998340E-01   9.9999998E-03  -8.0000661E-02
  4.9998352E-01   9.9999998E-03  -6.0000487E-02
  4.9998358E-01   9.9999998E-03  -4.0000323E-02
  4.9998361E-01   9.9999998E-03  -2.0000162E-02
  5.1997745E-01   9.9999998E-03  -1.8000253E-01
  5.1997805E-01   9.9999998E-03  -1.6000217E-01
  5.1997858E-01   9.9999998E-03  -1.4000183E-01
  5.1997894E-01   9.9999998E-03  -1.2000151E-01
  5.1997924E-01   9.9999998E-03  -1.0000122E-01
  5.1997942E-01   9.9999998E-03  -8.0000937E-02
  5.1997954E-01   9.9999998E-03  -6.0000688E-02
  5.1997960E-01   9.9999998E-03  -4.0000454E-02
  5.1997966E-01   9.9999998E-03  -2.0000225E-02
  5.3997231E-01   9.9999998E-03  -1.8000372E-01
  5.3997302E-01   9.9999998E-03  -1.6000319E-01
  5.3997362E-01   9.9999998E-03  -1.4000265E-01
  5.3997409E-01   9.9999998E-03  -1.2000215E-01
  5.3997445E-01   9.9999998E-03  -1.0000170E-01
  5.3997469E-01   9.9999998E-03  -8.0001302E-02
  5.3997481E-01   9.9999998E-03  -6.0000949E-02
  5.3997493E-01   9.9999998E-03  -4.0000618E-02
  5.3997493E-01   9.9999998E-03  -2.0000305E-02
  5.5996639E-01   9.9999998E-03  -1.8000533E-01
  5.5996722E-01   9.9999998E-03  -1.6000451E-01
  5.5996799E-01   9.9999998E-03  -1.4000373E-01
  5.5996859E-01   9.9999998E-03  -1.2000299E-01
  5.5996901E-01   9.9999998E-03  -1.0000233E-01
  5.5996931E-01   9.9999998E-03  -8.0001764E-02
  5.5996943E-01   9.9999998E-03  -6.0001262E-02
  5.5996954E-01   9.9999998E-03  -4.0000815E-02
  5.5996960E-01   9.9999998E-03  -2.0000400E-02
  5.7995999E-01   9.9999998E-03  -1.8000735E-01
  5.7996106E-01   9.9999998E-03  -1.6000617E-01
  5.7996196E-01   9.9999998E-03  -1.4000505E-01
  5.7996267E-01   9.9999998E-03  -1.2000401E-01
  5.7996315E-01   9.9999998E-03  -1.0000309E-01
  5.7996351E-01   9.9999998E-03  -8.0002300E-02
  5.7996368E-01   9.9999998E-03  -6.0001630E-02
  5.7996380E-01   9.9999998E-03  -4.0001038E-02
  5.7996386E-01   9.9999998E-03  -2.0000506E-02
  5.9995353E-01   9.9999998E-03  -1.8000968E-01
  5.9995484E-01   9.9999998E-03  -1.6000809E-01
  5.9995592E-01   9.9999998E-03  -1.4000657E-01
  5.9995681E-01   9.9999998E-03  -1.2000516E-01
  5.9995741E-01   9.9999998E-03  -1.0000393E-01
  5.9995782E-01   9.9999998E-03  -8.0002889E-02
  5.9995806E-01   9.9999998E-03  -6.0002018E-02
  5.9995818E-01   9.9999998E-03  -4.0001273E-02
  5.9995824E-01   9.9999998E-03  -2.0000618E-02
  6.1994731E-01   9.9999998E-03  -1.8001243E-01
  6.1994898E-01   9.9999998E-03  -1.6001035E-01
  6.1995029E-01   9.9999998E-03  -1.4000833E-01
  6.1995131E-01   9.9999998E-03  -1.2000643E-01
  6.1995208E-01   9.9999998E-03  -1.0000479E-01
  6.1995256E-01   9.9999998E-03  -8.0003440E-02
  6.1995286E-01   9.9999998E-03  -6.0002360E-02
  6.1995304E-01   9.9999998E-03  -4.0001478E-02
  6.1995310E-01   9.9999998E-03  -2.0000711E-02
  6.3994193E-01   9.9999998E-03  -1.8001576E-01
  6.3994378E-01   9.9999998E-03  -1.6001295E-01
  6.3994533E-01   9.9999998E-03  -1.4001031E-01
  6.3994646E-01   9.9999998E-03  -1.2000785E-01
  6.3994735E-01   9.9999998E-03  -1.0000572E-01
  6.3994795E-01   9.9999998E-03  -8.0004007E-02
  6.3994837E-01   9.9999998E-03  -6.0002681E-02
  6.3994861E-01   9.9999998E-03  -4.0001646E-02
  6.3994873E-01   9.9999998E-03  -2.0000784E-02
  6.5993786E-01   9.9999998E-03  -1.8001989E-01
  6.5993989E-01   9.9999998E-03  -1.6001612E-01
  6.5994155E-01   9.9999998E-03  -1.4001273E-01
  6.5994281E-01   9.9999998E-03  -1.2000956E-01
  6.5994382E-01   9.9999998E-03  -1.0000686E-01
  6.5994453E-01   9.9999998E-03  -8.0004722E-02
  6.5994501E-01   9.9999998E-03  -6.0003098E-02
  6.5994537E-01   9.9999998E-03  -4.0001869E-02
  6.5994555E-01   9.9999998E-03  -2.0000879E-02
  6.7993683E-01   9.9999998E-03  -1.8002458E-01
  6.7993897E-01   9.9999998E-03  -1.6001973E-01
  6.7994064E-01   9.9999998E-03  -1.4001545E-01
  6.7994195E-01   9.9999998E-03  -1.2001149E-01
  6.7994297E-01   9.9999998E-03  -1.0000811E-01
  6.7994368E-01   9.9999998E-03  -8.0005474E-02
  6.7994422E-01   9.9999998E-03  -6.0003523E-02
  6.7994452E-01   9.9999998E-03  -4.0002089E-02
  6.7994469E-01   9.9999998E-03  -2.0000976E-02
  6.9994187E-01   9.9999998E-03  -1.8002898E-01
  6.9994378E-01   9.9999998E-03  -1.6002317E-01
  6.9994539E-01   9.9999998E-03  -1.4001808E-01
  6.9994658E-01   9.9999998E-03  -1.2001330E-01
  6.9994748E-01   9.9999998E-03  -1.0000924E-01
  6.9994813E-01   9.9999998E-03  -8.0006085E-02
  6.9994855E-01   9.9999998E-03  -6.0003806E-02
  6.9994879E-01   9.9999998E-03  -4.0002197E-02
  6.9994891E-01   9.9999998E-03  -2.0001005E-02
  7.1995693E-01   9.9999998E-03  -1.8003225E-01
  7.1995860E-01   9.9999998E-03  -1.6002582E-01
  7.1995997E-01   9.9999998E-03  -1.4002013E-01
  7.1996099E-01   9.9999998E-03  -1.2001479E-01
  7.1996176E-01   9.9999998E-03  -1.0001025E-01
  7.1996224E-01   9.9999998E-03  -8.0006726E-02
  7.1996254E-01   9.9999998E-03  -6.0004182E-02
  7.1996278E-01   9.9999998E-03  -4.0002402E-02
  7.1996284E-01   9.9999998E-03  -2.0001093E-02
  7.3997319E-01   9.9999998E-03  -1.8003434E-01
  7.3997432E-01   9.9999998E-03  -1.6002759E-01
  7.3997527E-01   9.9999998E-03  -1.4002156E-01
  7.3997605E-01   9.9999998E-03  -1.2001586E-01
  7.3997658E-01   9.9999998E-03  -1.0001100E-01
  7.3997694E-01   9.9999998E-03  -8.0007225E-02
  7.3997718E-01   9.9999998E-03  -6.0004495E-02
  7.3997736E-01   9.9999998E-03  -4.0002581E-02
  7.3997742E-01   9.9999998E-03  -2.0001177E-02
  7.5998592E-01   9.9999998E-03  -1.8003567E-01
  7.5998658E-01   9.9999998E-03  -1.6002876E-01
  7.5998718E-01   9.9999998E-03  -1.4002250E-01
  7.5998765E-01   9.9999998E-03  -1.2001658E-01
  7.5998801E-01   9.9999998E-03  -1.0001151E-01
  7.5998825E-01   9.9999998E-03  -8.0007561E-02
  7.5998837E-01   9.9999998E-03  -6.0004711E-02
  7.5998849E-01   9.9999998E-03  -4.0002711E-02
  7.5998855E-01   9.9999998E-03  -2.0001234E-02
  7.7999538E-01   9.9999998E-03  -1.8003632E-01
  7.7999562E-01   9.9999998E-03  -1.6002937E-01
  7.7999592E-01   9.9999998E-03  -1.4002302E-01
  7.7999610E-01   9.9999998E-03  -1.2001698E-01
  7.7999628E-01   9.9999998E-03  -1.0001180E-01
  7.7999640E-01   9.9999998E-03  -8.0007754E-02
  7.7999645E-01   9.9999998E-03  -6.0004834E-02
  7.7999651E-01   9.9999998E-03  -4.0002782E-02
  7.7999651E-01   9.9999998E-03  -2.0001270E-02
  8.0000287E-01   9.9999998E-03  -1.8003644E-01
  8.0000281E-01   9.9999998E-03  -1.6002952E-01
  8.0000275E-01   9.9999998E-03  -1.4002316E-01
  8.0000269E-01   9.9999998E-03  -1.2001709E-01
  8.0000269E-01   9.9999998E-03  -1.0001188E-01
  8.0000269E-01   9.9999998E-03  -8.0007814E-02
  8.0000269E-01   9.9999998E-03  -6.0004875E-02
  8.0000269E-01   9.9999998E-03  -4.0002808E-02
  8.0000269E-01   9.9999998E-03  -2.0001283E-02
  8.2000977E-01   9.9999998E-03  -1.8003610E-01
  8.2000935E-01   9.9999998E-03  -1.6002925E-01
  8.2000905E-01   9.9999998E-03  -1.4002296E-01
  8.2000881E-01   9.9999998E-03  -1.2001694E-01
  8.2000864E-01   9.9999998E-03  -1.0001177E-01
  8.2000858E-01   9.9999998E-03  -8.0007747E-02
  8.2000846E-01   9.9999998E-03  -6.0004834E-02
  8.2000846E-01   9.9999998E-03  -4.0002789E-02
  8.2000840E-01   9.9999998E-03  -2.0001274E-02
  8.4001672E-01   9.9999998E-03  -1.8003532E-01
  8.4001607E-01   9.9999998E-03  -1.6002862E-01
  8.4001553E-01   9.9999998E-03  -1.4002247E-01
  8.4001511E-01   9.9999998E-03  -1.2001657E-01
  8.4001482E-01   9.9999998E-03  -1.0001152E-01
  8.4001458E-01   9.9999998E-03  -8.0007575E-02
  8.4001446E-01   9.9999998E-03  -6.0004734E-02
  8.4001440E-01   9.9999998E-03  -4.0002730E-02
  8.4001434E-01   9.9999998E-03  -2.0001248E-02
  8.6002380E-01   9.9999998E-03  -1.8003413E-01
  8.6002284E-01   9.9999998E-03  -1.6002765E-01
  8.6002207E-01   9.9999998E-03  -1.4002171E-01
  8.6002153E-01   9.9999998E-03  -1.2001601E-01
  8.6002111E-01   9.9999998E-03  -1.0001113E-01
  8.6002082E-01   9.9999998E-03  -8.0007315E-02
  8.6002064E-01   9.9999998E-03  -6.0004570E-02
  8.6002052E-01   9.9999998E-03  -4.0002637E-02
  8.6002046E-01   9.9999998E-03  -2.0001205E-02
  8.8003045E-01   9.9999998E-03  -1.8003257E-01
  8.8002926E-01   9.9999998E-03  -1.6002640E-01
  8.8002831E-01   9.9999998E-03  -1.4002071E-01
  8.8002759E-01   9.9999998E-03  -1.2001527E-01
  8.8002706E-01   9.9999998E-03  -1.0001061E-01
  8.8002670E-01   9.9999998E-03  -8.0006972E-02
  8.8002646E-01   9.9999998E-03  -6.0004354E-02
  8.8002634E-01   9.9999998E-03  -4.0002510E-02
  8.8002628E-01   9.9999998E-03  -2.0001147E-02
  9.0003622E-01   9.9999998E-03  -1.8003069E-01
  9.0003479E-01   9.9999998E-03  -1.6002487E-01
  9.0003365E-01   9.9999998E-03  -1.4001952E-01
  9.0003282E-01   9.9999998E-03  -1.2001439E-01
  9.0003216E-01   9.9999998E-03  -1.0000999E-01
  9.0003175E-01   9.9999998E-03  -8.0006562E-02
  9.0003151E-01   9.9999998E-03  -6.0004096E-02
  9.0003133E-01   9.9999998E-03  -4.0002361E-02
  9.0003121E-01   9.9999998E-03  -2.0001078E-02
  9.2004013E-01   9.9999998E-03  -1.8002854E-01
  9.2003834E-01   9.9999998E-03  -1.6002317E-01
  9.2003697E-01   9.9999998E-03  -1.4001819E-01
  9.2003590E-01   9.9999998E-03  -1.2001342E-01
  9.2003512E-01   9.9999998E-03  -1.0000934E-01
  9.2003453E-01   9.9999998E-03  -8.0006167E-02
  9.2003411E-01   9.9999998E-03  -6.0003877E-02
  9.2003387E-01   9.9999998E-03  -4.0002253E-02
  9.2003369E-01   9.9999998E-03  -2.0001037E-02
  9.4004124E-01   9.9999998E-03  -1.8002631E-01
  9.4003922E-01   9.9999998E-03  -1.6002138E-01
  9.4003767E-01   9.9999998E-03  -1.4001681E-01
  9.4003648E-01   9.9999998E-03  -1.2001243E-01
  9.4003558E-01   9.9999998E-03  -1.0000870E-01
  9.4003487E-01   9.9999998E-03  -8.0005795E-02
  9.4003445E-01   9.9999998E-03  -6.0003687E-02
  9.4003415E-01   9.9999998E-03  -4.0002175E-02
  9.4003397E-01   9.9999998E-03  -2.0001011E-02
  9.6004099E-01   9.9999998E-03  -1.8002400E-01
  9.6003884E-01   9.9999998E-03  -1.6001955E-01
  9.6003723E-01   9.9999998E-03  -1.4001538E-01
  9.6003598E-01   9.9999998E-03  -1.2001140E-01
  9.6003503E-01   9.9999998E-03  -1.0000801E-01
  9.6003437E-01   9.9999998E-03  -8.0005370E-02
  9.6003389E-01   9.9999998E-03  -6.0003445E-02
  9.6003360E-01   9.9999998E-03  -4.0002044E-02
  9.6003342E-01   9.9999998E-03  -2.0000955E-02
  9.8004001E-01   9.9999998E-03  -1.8002169E-01
  9.8003787E-01   9.9999998E-03  -1.6001770E-01
  9.8003620E-01   9.9999998E-03  -1.4001393E-01
  9.8003495E-01   9.9999998E-03  -1.2001037E-01
  9.8003405E-01   9.9999998E-03  -1.0000733E-01
  9.8003340E-01   9.9999998E-03  -8.0004945E-02
  9.8003298E-01   9.9999998E-03  -6.0003199E-02
  9.8003274E-01   9.9999998E-03  -4.0001918E-02
  9.8003256E-01   9.9999998E-03  -2.0000903E-02
  1.0000386E+00   9.9999998E-03  -1.8001948E-01
  1.0000366E+00   9.9999998E-03  -1.6001594E-01
  1.0000349E+00   9.9999998E-03  -1.4001259E-01
  1.0000337E+00   9.9999998E-03  -1.2000941E-01
  1.0000328E+00   9.9999998E-03  -1.0000669E-01
  1.0000322E+00   9.9999998E-03  -8.0004573E-02
  1.0000318E+00   9.9999998E-03  -6.0003001E-02
  1.0000316E+00   9.9999998E-03  -4.0001821E-02
  1.0000315E+00   9.9999998E-03  -2.0000860E-02
  1.0200372E+00   9.9999998E-03  -1.8001743E-01
  1.0200351E+00   9.9999998E-03  -1.6001430E-01
  1.0200335E+00   9.9999998E-03  -1.4001133E-01
  1.0200323E+00   9.9999998E-03  -1.2000853E-01
  1.0200313E+00   9.9999998E-03  -1.0000613E-01
  1.0200309E+00   9.9999998E-03  -8.0004252E-02
  1.0200305E+00   9.9999998E-03  -6.0002830E-02
  1.0200303E+00   9.9999998E-03  -4.0001728E-02
  1.0200301E+00   9.9999998E-03  -2.0000819E-02
  1.0400356E+00   9.9999998E-03  -1.8001562E-01
  1.0400335E+00   9.9999998E-03  -1.6001277E-01
  1.0400318E+00   9.9999998E-03  -1.4001018E-01
  1.0400306E+00   9.9999998E-03  -1.2000773E-01
  1.0400298E+00   9.9999998E-03  -1.0000563E-01
  1.0400292E+00   9.9999998E-03  -8.0003962E-02
  1.0400288E+00   9.9999998E-03  -6.0002666E-02
  1.0400287E+00   9.9999998E-03  -4.0001638E-02
  1.0400286E+00   9.9999998E-03  -2.0000778E-02
  1.0600338E+00   9.9999998E-03  -1.8001406E-01
  1.0600317E+00   9.9999998E-03  -1.6001138E-01
  1.0600300E+00   9.9999998E-03  -1.4000912E-01
  1.0600288E+00   9.9999998E-03  -1.2000701E-01
  1.0600280E+00   9.9999998E-03  -1.0000519E-01
  1.0600274E+00   9.9999998E-03  -8.0003701E-02
  1.0600271E+00   9.9999998E-03  -6.0002510E-02
  1.0600269E+00   9.9999998E-03  -4.0001549E-02
  1.0600268E+00   9.9999998E-03  -2.0000739E-02
  1.0800321E+00   9.9999998E-03  -1.8001270E-01
  1.0800298E+00   9.9999998E-03  -1.6001020E-01
  1.0800282E+00   9.9999998E-03  -1.4000812E-01
  1.0800270E+00   9.9999998E-03  -1.2000635E-01
  1.0800261E+00   9.9999998E-03  -1.0000477E-01
  1.0800256E+00   9.9999998E-03  -8.0003448E-02
  1.0800252E+00   9.9999998E-03  -6.0002368E-02
  1.0800251E+00   9.9999998E-03  -4.0001471E-02
  1.0800250E+00   9.9999998E-03  -2.0000705E-02
  1.1000307E+00   9.9999998E-03  -1.8001170E-01
  1.1000282E+00   9.9999998E-03  -1.6000910E-01
  1.1000265E+00   9.9999998E-03  -1.4000723E-01
  1.1000252E+00   9.9999998E-03  -1.2000568E-01
  1.1000243E+00   9.9999998E-03  -1.0000436E-01
  1.1000237E+00   9.9999998E-03  -8.0003209E-02
  1.1000234E+00   9.9999998E-03  -6.0002234E-02
  1.1000233E+00   9.9999998E-03  -4.0001400E-02
  1.1000232E+00   9.9999998E-03  -2.0000674E-02
  1.1200296E+00   9.9999998E-03  -1.8001117E-01
  1.1200268E+00   9.9999998E-03  -1.6000827E-01
  1.1200249E+00   9.9999998E-03  -1.4000639E-01
  1.1200236E+00   9.9999998E-03  -1.2000506E-01
  1.1200228E+00   9.9999998E-03  -1.0000393E-01
  1.1200222E+00   9.9999998E-03  -8.0002964E-02
  1.1200217E+00   9.9999998E-03  -6.0002092E-02
  1.1200215E+00   9.9999998E-03  -4.0001333E-02
  1.1200213E+00   9.9999998E-03  -2.0000646E-02
  1.1400290E+00   9.9999998E-03  -1.8001126E-01
  1.1400257E+00   9.9999998E-03  -1.6000785E-01
  1.1400236E+00   9.9999998E-03  -1.4000577E-01
  1.1400223E+00   9.9999998E-03  -1.2000445E-01
  1.1400213E+00   9.9999998E-03  -1.0000349E-01
  1.1400207E+00   9.9999998E-03  -8.0002651E-02
  1.1400203E+00   9.9999998E-03  -6.0001917E-02
  1.1400200E+00   9.9999998E-03  -4.0001236E-02
  1.1400199E+00   9.9999998E-03  -2.0000607E-02
  1.1600293E+00   9.9999998E-03  -1.8001215E-01
  1.1600254E+00   9.9999998E-03  -1.6000807E-01
  1.1600229E+00   9.9999998E-03  -1.4000554E-01
  1.1600212E+00   9.9999998E-03  -1.2000401E-01
  1.1600201E+00   9.9999998E-03  -1.0000303E-01
  1.1600194E+00   9.9999998E-03  -8.0002315E-02
  1.1600189E+00   9.9999998E-03  -6.0001671E-02
  1.1600187E+00   9.9999998E-03  -4.0001094E-02
  1.1600186E+00   9.9999998E-03  -2.0000538E-02
  1.1800311E+00   9.9999998E-03  -1.8001401E-01
  1.1800259E+00   9.9999998E-03  -1.6000929E-01
  1.1800226E+00   9.9999998E-03  -1.4000604E-01
  1.1800206E+00   9.9999998E-03  -1.2000403E-01
  1.1800193E+00   9.9999998E-03  -1.0000281E-01
  1.1800184E+00   9.9999998E-03  -8.0002010E-02
  1.1800178E+00   9.9999998E-03  -6.0001418E-02
  1.1800176E+00   9.9999998E-03  -4.0000919E-02
  1.1800174E+00   9.9999998E-03  -2.0000445E-02
  1.2000345E+00   9.9999998E-03  -1.8001623E-01
  1.2000287E+00   9.9999998E-03  -1.6001157E-01
  1.2000239E+00   9.9999998E-03  -1.4000773E-01
  1.2000208E+00   9.9999998E-03  -1.2000493E-01
  1.2000189E+00   9.9999998E-03  -1.0000316E-01
  1.2000178E+00   9.9999998E-03  -8.0002062E-02
  1.2000171E+00   9.9999998E-03  -6.0001325E-02
  1.2000166E+00   9.9999998E-03  -4.0000800E-02
  1.2000165E+00   9.9999998E-03  -2.0000376E-02
  1.2200379E+00   9.9999998E-03  -1.8001820E-01
  1.2200330E+00   9.9999998E-03  -1.6001396E-01
  1.2200278E+00   9.9999998E-03  -1.4001019E-01
  1.2200233E+00   9.9999998E-03  -1.2000711E-01
  1.2200201E+00   9.9999998E-03  -1.0000462E-01
  1.2200181E+00   9.9999998E-03  -8.0002859E-02
  1.2200170E+00   9.9999998E-03  -6.0001690E-02
  1.2200164E+00   9.9999998E-03  -4.0000934E-02
  1.2200161E+00   9.9999998E-03  -2.0000415E-02
  1.2400392E+00   9.9999998E-03  -1.8001966E-01
  1.2400362E+00   9.9999998E-03  -1.6001607E-01
  1.2400328E+00   9.9999998E-03  -1.4001250E-01
  1.2400287E+00   9.9999998E-03  -1.2000938E-01
  1.2400248E+00   9.9999998E-03  -1.0000678E-01
  1.2400215E+00   9.9999998E-03  -8.0004632E-02
  1.2400193E+00   9.9999998E-03  -6.0002901E-02
  1.2400179E+00   9.9999998E-03  -4.0001616E-02
  1.2400173E+00   9.9999998E-03  -2.0000709E-02
  1.2600366E+00   9.9999998E-03  -1.6001765E-01
  1.2600350E+00   9.9999998E-03  -1.4001463E-01
  1.2600330E+00   9.9999998E-03  -1.2001161E-01
  1.2600305E+00   9.9999998E-03  -1.0000879E-01
  1.2600280E+00   9.9999998E-03  -8.0006227E-02
  1.2600259E+00   9.9999998E-03  -6.0004022E-02
  1.2600244E+00   9.9999998E-03  -4.0002301E-02
  1.2600236E+00   9.9999998E-03  -2.0001028E-02
  1.2800336E+00   9.9999998E-03  -1.2001372E-01
  1.2800330E+00   9.9999998E-03  -1.0001090E-01
  1.2800322E+00   9.9999998E-03  -8.0007978E-02
  1.2800313E+00   9.9999998E-03  -6.0005199E-02
  1.2800307E+00   9.9999998E-03  -4.0002972E-02
  1.2800304E+00   9.9999998E-03  -2.0001320E-02
  1.3000318E+00   9.9999998E-03  -8.0009773E-02
  1.3000320E+00   9.9999998E-03  -6.0006410E-02
  1.3000321E+00   9.9999998E-03  -4.0003650E-02
  1.3000323E+00   9.9999998E-03  -2.0001611E-02
 -1.8275978E-08   9.9999998E-03  -1.1676729E-16
 -1.8259563E-08   9.9999998E-03   2.0000000E-02
 -1.8209095E-08   9.9999998E-03   3.9999999E-02
 -1.8119861E-08   9.9999998E-03   5.9999999E-02
 -1.7984247E-08   9.9999998E-03   7.9999998E-02
 -1.7791722E-08   9.9999998E-03   1.0000000E-01
 -1.7527514E-08   9.9999998E-03   1.2000000E-01
 -1.7172150E-08   9.9999998E-03   1.4000000E-01
  1.9999973E-02   9.9999998E-03   1.1134349E-15
  1.9999973E-02   9.9999998E-03   2.0000000E-02
  1.9999973E-02   9.9999998E-03   3.9999999E-02
  1.9999973E-02   9.9999998E-03   6.0000002E-02
  1.9999973E-02   9.9999998E-03   7.9999998E-02
  1.9999973E-02   9.9999998E-03   1.0000000E-01
  1.9999973E-02   9.9999998E-03   1.2000000E-01
  1.9999973E-02   9.9999998E-03   1.4000000E-01
  3.9999958E-02   9.9999998E-03  -5.0749476E-16
  3.9999958E-02   9.9999998E-03   2.0000000E-02
  3.9999962E-02   9.9999998E-03   3.9999999E-02
  3.9999962E-02   9.9999998E-03   6.0000002E-02
  3.9999962E-02   9.9999998E-03   7.9999998E-02
  3.9999962E-02   9.9999998E-03   1.0000000E-01
  3.9999962E-02   9.9999998E-03   1.2000000E-01
  3.9999962E-02   9.9999998E-03   1.4000000E-01
  5.9999943E-02   9.9999998E-03   6.6129461E-16
  5.9999943E-02   9.9999998E-03   2.0000000E-02
  5.9999943E-02   9.9999998E-03   3.9999999E-02
  5.9999943E-02   9.9999998E-03   6.0000002E-02
  5.9999943E-02   9.9999998E-03   7.9999998E-02
  5.9999943E-02   9.9999998E-03   1.0000000E-01
  5.9999947E-02   9.9999998E-03   1.2000000E-01
  5.9999947E-02   9.9999998E-03   1.4000000E-01
  7.9999924E-02   9.9999998E-03  -2.0331859E-15
  7.9999924E-02   9.9999998E-03   2.0000001E-02
  7.9999924E-02   9.9999998E-03   4.0000003E-02
  7.9999924E-02   9.9999998E-03   6.0000002E-02
  7.9999924E-02   9.9999998E-03   8.0000006E-02
  7.9999924E-02   9.9999998E-03   1.0000000E-01
  7.9999924E-02   9.9999998E-03   1.2000000E-01
  7.9999924E-02   9.9999998E-03   1.4000000E-01
  9.9999897E-02   9.9999998E-03  -1.2021316E-15
  9.9999897E-02   9.9999998E-03   2.0000001E-02
  9.9999897E-02   9.9999998E-03   4.0000003E-02
  9.9999897E-02   9.9999998E-03   6.0000002E-02
  9.9999897E-02   9.9999998E-03   8.0000006E-02
  9.9999897E-02   9.9999998E-03   1.0000000E-01
  9.9999897E-02   9.9999998E-03   1.2000000E-01
  9.9999897E-02   9.9999998E-03   1.4000000E-01
  1.1999986E-01   9.9999998E-03   2.9020458E-15
  1.1999986E-01   9.9999998E-03   2.0000001E-02
  1.1999986E-01   9.9999998E-03   4.0000003E-02
  1.1999986E-01   9.9999998E-03   6.0000002E-02
  1.1999986E-01   9.9999998E-03   8.0000006E-02
  1.1999986E-01   9.9999998E-03   1.0000000E-01
  1.1999986E-01   9.9999998E-03   1.2000000E-01
  1.1999986E-01   9.9999998E-03   1.4000000E-01
  1.3999981E-01   9.9999998E-03  -1.8376780E-14
  1.3999981E-01   9.9999998E-03   2.0000001E-02
  1.3999981E-01   9.9999998E-03   4.0000003E-02
  1.3999981E-01   9.9999998E-03   6.0000002E-02
  1.3999981E-01   9.9999998E-03   8.0000006E-02
  1.3999981E-01   9.9999998E-03   1.0000001E-01
  1.3999981E-01   9.9999998E-03   1.2000000E-01
  1.3999982E-01   9.9999998E-03   1.4000002E-01
  1.5999974E-01   9.9999998E-03  -4.8708392E-15
  1.5999974E-01   9.9999998E-03   2.0000001E-02
  1.5999974E-01   9.9999998E-03   4.0000003E-02
  1.5999974E-01   9.9999998E-03   6.0000002E-02
  1.5999974E-01   9.9999998E-03   8.0000006E-02
  1.5999974E-01   9.9999998E-03   1.0000001E-01
  1.5999976E-01   9.9999998E-03   1.2000001E-01
  1.5999976E-01   9.9999998E-03   1.4000002E-01
  1.7999966E-01   9.9999998E-03   9.1139746E-15
  1.7999966E-01   9.9999998E-03   2.0000001E-02
  1.7999966E-01   9.9999998E-03   4.0000003E-02
  1.7999966E-01   9.9999998E-03   6.0000006E-02
  1.7999966E-01   9.9999998E-03   8.0000006E-02
  1.7999966E-01   9.9999998E-03   1.0000001E-01
  1.7999966E-01   9.9999998E-03   1.2000001E-01
  1.7999966E-01   9.9999998E-03   1.4000002E-01
  1.9999956E-01   9.9999998E-03   1.0706718E-15
  1.9999956E-01   9.9999998E-03   2.0000001E-02
  1.9999956E-01   9.9999998E-03   4.0000003E-02
  1.9999956E-01   9.9999998E-03   6.0000006E-02
  1.9999956E-01   9.9999998E-03   8.0000006E-02
  1.9999956E-01   9.9999998E-03   1.0000002E-01
  1.9999957E-01   9.9999998E-03   1.2000002E-01
  1.9999957E-01   9.9999998E-03   1.4000002E-01
  2.1999943E-01   9.9999998E-03   6.6641630E-15
  2.1999943E-01   9.9999998E-03   2.0000003E-02
  2.1999943E-01   9.9999998E-03   4.0000007E-02
  2.1999943E-01   9.9999998E-03   6.0000010E-02
  2.1999943E-01   9.9999998E-03   8.0000013E-02
  2.1999943E-01   9.9999998E-03   1.0000002E-01
  2.1999943E-01   9.9999998E-03   1.2000002E-01
  2.1999943E-01   9.9999998E-03   1.4000003E-01
  2.3999925E-01   9.9999998E-03  -3.9132343E-14
  2.3999925E-01   9.9999998E-03   2.0000003E-02
  2.3999925E-01   9.9999998E-03   4.0000007E-02
  2.3999925E-01   9.9999998E-03   6.0000010E-02
  2.3999925E-01   9.9999998E-03   8.0000013E-02
  2.3999925E-01   9.9999998E-03   1.0000002E-01
  2.3999925E-01   9.9999998E-03   1.2000003E-01
  2.3999925E-01   9.9999998E-03   1.4000003E-01
  2.5999904E-01   9.9999998E-03  -2.9209331E-14
  2.5999904E-01   9.9999998E-03   2.0000003E-02
  2.5999904E-01   9.9999998E-03   4.0000007E-02
  2.5999904E-01   9.9999998E-03   6.0000014E-02
  2.5999904E-01   9.9999998E-03   8.0000021E-02
  2.5999904E-01   9.9999998E-03   1.0000002E-01
  2.5999904E-01   9.9999998E-03   1.2000003E-01
  2.5999904E-01   9.9999998E-03   1.4000005E-01
  2.7999875E-01   9.9999998E-03  -4.2777397E-14
  2.7999875E-01   9.9999998E-03   2.0000005E-02
  2.7999875E-01   9.9999998E-03   4.0000010E-02
  2.7999875E-01   9.9999998E-03   6.0000014E-02
  2.7999875E-01   9.9999998E-03   8.0000021E-02
  2.7999875E-01   9.9999998E-03   1.0000003E-01
  2.7999872E-01   9.9999998E-03   1.2000004E-01
  2.7999872E-01   9.9999998E-03   1.4000006E-01
  2.9999837E-01   9.9999998E-03  -2.1245348E-14
  2.9999837E-01   9.9999998E-03   2.0000005E-02
  2.9999837E-01   9.9999998E-03   4.0000010E-02
  2.9999837E-01   9.9999998E-03   6.0000017E-02
  2.9999837E-01   9.9999998E-03   8.0000028E-02
  2.9999837E-01   9.9999998E-03   1.0000004E-01
  2.9999837E-01   9.9999998E-03   1.2000005E-01
  2.9999834E-01   9.9999998E-03   1.4000008E-01
  3.1999794E-01   9.9999998E-03  -5.0927358E-14
  3.1999794E-01   9.9999998E-03   2.0000007E-02
  3.1999794E-01   9.9999998E-03   4.0000014E-02
  3.1999791E-01   9.9999998E-03   6.0000021E-02
  3.1999791E-01   9.9999998E-03   8.0000035E-02
  3.1999791E-01   9.9999998E-03   1.0000005E-01
  3.1999788E-01   9.9999998E-03   1.2000006E-01
  3.1999788E-01   9.9999998E-03   1.4000009E-01
  3.3999735E-01   9.9999998E-03   5.0632709E-14
  3.3999735E-01   9.9999998E-03   2.0000009E-02
  3.3999735E-01   9.9999998E-03   4.0000018E-02
  3.3999735E-01   9.9999998E-03   6.0000028E-02
  3.3999732E-01   9.9999998E-03   8.0000043E-02
  3.3999732E-01   9.9999998E-03   1.0000005E-01
  3.3999729E-01   9.9999998E-03   1.2000008E-01
  3.3999726E-01   9.9999998E-03   1.4000010E-01
  3.5999665E-01   9.9999998E-03  -7.7918676E-14
  3.5999665E-01   9.9999998E-03   2.0000011E-02
  3.5999662E-01   9.9999998E-03   4.0000021E-02
  3.5999662E-01   9.9999998E-03   6.0000036E-02
  3.5999659E-01   9.9999998E-03   8.0000050E-02
  3.5999656E-01   9.9999998E-03   1.0000007E-01
  3.5999656E-01   9.9999998E-03   1.2000009E-01
  3.5999650E-01   9.9999998E-03   1.4000012E-01
  3.7999573E-01   9.9999998E-03  -2.7669928E-15
  3.7999573E-01   9.9999998E-03   2.0000016E-02
  3.7999570E-01   9.9999998E-03   4.0000033E-02
  3.7999570E-01   9.9999998E-03   6.0000047E-02
  3.7999567E-01   9.9999998E-03   8.0000065E-02
  3.7999564E-01   9.9999998E-03   1.0000009E-01
  3.7999561E-01   9.9999998E-03   1.2000012E-01
  3.7999555E-01   9.9999998E-03   1.4000016E-01
  3.9999461E-01   9.9999998E-03   1.1147584E-13
  3.9999461E-01   9.9999998E-03   2.0000022E-02
  3.9999458E-01   9.9999998E-03   4.0000044E-02
  3.9999458E-01   9.9999998E-03   6.0000069E-02
  3.9999455E-01   9.9999998E-03   8.0000095E-02
  3.9999449E-01   9.9999998E-03   1.0000012E-01
  3.9999443E-01   9.9999998E-03   1.2000016E-01
  3.9999437E-01   9.9999998E-03   1.4000021E-01
  4.1999322E-01   9.9999998E-03  -3.1325534E-13
  4.1999322E-01   9.9999998E-03   2.0000033E-02
  4.1999319E-01   9.9999998E-03   4.0000066E-02
  4.1999319E-01   9.9999998E-03   6.0000103E-02
  4.1999313E-01   9.9999998E-03   8.0000140E-02
  4.1999307E-01   9.9999998E-03   1.0000017E-01
  4.1999298E-01   9.9999998E-03   1.2000022E-01
  4.1999289E-01   9.9999998E-03   1.4000027E-01
  4.3999153E-01   9.9999998E-03  -2.6006267E-13
  4.3999153E-01   9.9999998E-03   2.0000052E-02
  4.3999150E-01   9.9999998E-03   4.0000100E-02
  4.3999147E-01   9.9999998E-03   6.0000151E-02
  4.3999141E-01   9.9999998E-03   8.0000199E-02
  4.3999133E-01   9.9999998E-03   1.0000025E-01
  4.3999124E-01   9.9999998E-03   1.2000032E-01
  4.3999109E-01   9.9999998E-03   1.4000039E-01
  4.5998943E-01   9.9999998E-03   2.0567089E-13
  4.5998943E-01   9.9999998E-03   2.0000076E-02
  4.5998940E-01   9.9999998E-03   4.0000152E-02
  4.5998937E-01   9.9999998E-03   6.0000226E-02
  4.5998928E-01   9.9999998E-03   8.0000304E-02
  4.5998919E-01   9.9999998E-03   1.0000038E-01
  4.5998904E-01   9.9999998E-03   1.2000047E-01
  4.5998886E-01   9.9999998E-03   1.4000057E-01
  4.7998682E-01   9.9999998E-03   3.3546665E-13
  4.7998682E-01   9.9999998E-03   2.0000113E-02
  4.7998679E-01   9.9999998E-03   4.0000223E-02
  4.7998676E-01   9.9999998E-03   6.0000338E-02
  4.7998667E-01   9.9999998E-03   8.0000453E-02
  4.7998655E-01   9.9999998E-03   1.0000057E-01
  4.7998637E-01   9.9999998E-03   1.2000070E-01
  4.7998613E-01   9.9999998E-03   1.4000084E-01
  4.9998361E-01   9.9999998E-03   3.7457019E-13
  4.9998361E-01   9.9999998E-03   2.0000162E-02
  4.9998358E-01   9.9999998E-03   4.0000323E-02
  4.9998352E-01   9.9999998E-03   6.0000487E-02
  4.9998340E-01   9.9999998E-03   8.0000661E-02
  4.9998325E-01   9.9999998E-03   1.0000084E-01
  4.9998301E-01   9.9999998E-03   1.2000103E-01
  4.9998271E-01   9.9999998E-03   1.4000125E-01
  5.1997966E-01   9.9999998E-03   6.4881030E-14
  5.1997966E-01   9.9999998E-03   2.0000225E-02
  5.1997960E-01   9.9999998E-03   4.0000454E-02
  5.1997954E-01   9.9999998E-03   6.0000688E-02
  5.1997942E-01   9.9999998E-03   8.0000937E-02
  5.1997924E-01   9.9999998E-03   1.0000122E-01
  5.1997894E-01   9.9999998E-03   1.2000151E-01
  5.1997858E-01   9.9999998E-03   1.4000183E-01
  5.3997499E-01   9.9999998E-03  -1.1658408E-12
  5.3997493E-01   9.9999998E-03   2.0000305E-02
  5.3997493E-01   9.9999998E-03   4.0000618E-02
  5.3997481E-01   9.9999998E-03   6.0000949E-02
  5.3997469E-01   9.9999998E-03   8.0001302E-02
  5.3997445E-01   9.9999998E-03   1.0000170E-01
  5.3997409E-01   9.9999998E-03   1.2000215E-01
  5.3997362E-01   9.9999998E-03   1.4000265E-01
  5.5996960E-01   9.9999998E-03  -2.3632136E-12
  5.5996960E-01   9.9999998E-03   2.0000400E-02
  5.5996954E-01   9.9999998E-03   4.0000815E-02
  5.5996943E-01   9.9999998E-03   6.0001262E-02
  5.5996931E-01   9.9999998E-03   8.0001764E-02
  5.5996901E-01   9.9999998E-03   1.0000233E-01
  5.5996859E-01   9.9999998E-03   1.2000299E-01
  5.5996799E-01   9.9999998E-03   1.4000373E-01
  5.7996386E-01   9.9999998E-03   3.7569347E-14
  5.7996386E-01   9.9999998E-03   2.0000506E-02
  5.7996380E-01   9.9999998E-03   4.0001038E-02
  5.7996368E-01   9.9999998E-03   6.0001630E-02
  5.7996351E-01   9.9999998E-03   8.0002300E-02
  5.7996315E-01   9.9999998E-03   1.0000309E-01
  5.7996267E-01   9.9999998E-03   1.2000401E-01
  5.7996196E-01   9.9999998E-03   1.4000505E-01
  5.9995824E-01   9.9999998E-03   1.7304304E-12
  5.9995824E-01   9.9999998E-03   2.0000618E-02
  5.9995818E-01   9.9999998E-03   4.0001273E-02
  5.9995806E-01   9.9999998E-03   6.0002018E-02
  5.9995782E-01   9.9999998E-03   8.0002889E-02
  5.9995741E-01   9.9999998E-03   1.0000393E-01
  5.9995681E-01   9.9999998E-03   1.2000516E-01
  5.9995592E-01   9.9999998E-03   1.4000657E-01
  6.1995316E-01   9.9999998E-03  -6.0987633E-14
  6.1995310E-01   9.9999998E-03   2.0000711E-02
  6.1995304E-01   9.9999998E-03   4.0001478E-02
  6.1995286E-01   9.9999998E-03   6.0002360E-02
  6.1995256E-01   9.9999998E-03   8.0003440E-02
  6.1995208E-01   9.9999998E-03   1.0000479E-01
  6.1995131E-01   9.9999998E-03   1.2000643E-01
  6.1995029E-01   9.9999998E-03   1.4000833E-01
  6.3994879E-01   9.9999998E-03   4.2435342E-13
  6.3994873E-01   9.9999998E-03   2.0000784E-02
  6.3994861E-01   9.9999998E-03   4.0001646E-02
  6.3994837E-01   9.9999998E-03   6.0002681E-02
  6.3994795E-01   9.9999998E-03   8.0004007E-02
  6.3994735E-01   9.9999998E-03   1.0000572E-01
  6.3994646E-01   9.9999998E-03   1.2000785E-01
  6.3994533E-01   9.9999998E-03   1.4001031E-01
  6.5994561E-01   9.9999998E-03   2.0230144E-12
  6.5994555E-01   9.9999998E-03   2.0000879E-02
  6.5994537E-01   9.9999998E-03   4.0001869E-02
  6.5994501E-01   9.9999998E-03   6.0003098E-02
  6.5994453E-01   9.9999998E-03   8.0004722E-02
  6.5994382E-01   9.9999998E-03   1.0000686E-01
  6.5994281E-01   9.9999998E-03   1.2000956E-01
  6.5994155E-01   9.9999998E-03   1.4001273E-01
  6.7994475E-01   9.9999998E-03   3.8666063E-12
  6.7994469E-01   9.9999998E-03   2.0000976E-02
  6.7994452E-01   9.9999998E-03   4.0002089E-02
  6.7994422E-01   9.9999998E-03   6.0003523E-02
  6.7994368E-01   9.9999998E-03   8.0005474E-02
  6.7994297E-01   9.9999998E-03   1.0000811E-01
  6.7994195E-01   9.9999998E-03   1.2001149E-01
  6.7994064E-01   9.9999998E-03   1.4001545E-01
  6.9994897E-01   9.9999998E-03   8.2222605E-12
  6.9994891E-01   9.9999998E-03   2.0001005E-02
  6.9994879E-01   9.9999998E-03   4.0002197E-02
  6.9994855E-01   9.9999998E-03   6.0003806E-02
  6.9994813E-01   9.9999998E-03   8.0006085E-02
  6.9994748E-01   9.9999998E-03   1.0000924E-01
  6.9994658E-01   9.9999998E-03   1.2001330E-01
  6.9994539E-01   9.9999998E-03   1.4001808E-01
  7.1996289E-01   9.9999998E-03   3.3637561E-12
  7.1996284E-01   9.9999998E-03   2.0001093E-02
  7.1996278E-01   9.9999998E-03   4.0002402E-02
  7.1996254E-01   9.9999998E-03   6.0004182E-02
  7.1996224E-01   9.9999998E-03   8.0006726E-02
  7.1996176E-01   9.9999998E-03   1.0001025E-01
  7.1996099E-01   9.9999998E-03   1.2001479E-01
  7.1995997E-01   9.9999998E-03   1.4002013E-01
  7.3997742E-01   9.9999998E-03   3.2138639E-13
  7.3997742E-01   9.9999998E-03   2.0001177E-02
  7.3997736E-01   9.9999998E-03   4.0002581E-02
  7.3997718E-01   9.9999998E-03   6.0004495E-02
  7.3997694E-01   9.9999998E-03   8.0007225E-02
  7.3997658E-01   9.9999998E-03   1.0001100E-01
  7.3997605E-01   9.9999998E-03   1.2001586E-01
  7.3997527E-01   9.9999998E-03   1.4002156E-01
  7.5998855E-01   9.9999998E-03   1.3804983E-11
  7.5998855E-01   9.9999998E-03   2.0001234E-02
  7.5998849E-01   9.9999998E-03   4.0002711E-02
  7.5998837E-01   9.9999998E-03   6.0004711E-02
  7.5998825E-01   9.9999998E-03   8.0007561E-02
  7.5998801E-01   9.9999998E-03   1.0001151E-01
  7.5998765E-01   9.9999998E-03   1.2001658E-01
  7.5998718E-01   9.9999998E-03   1.4002250E-01
  7.7999651E-01   9.9999998E-03  -7.5392019E-12
  7.7999651E-01   9.9999998E-03   2.0001270E-02
  7.7999651E-01   9.9999998E-03   4.0002782E-02
  7.7999645E-01   9.9999998E-03   6.0004834E-02
  7.7999640E-01   9.9999998E-03   8.0007754E-02
  7.7999628E-01   9.9999998E-03   1.0001180E-01
  7.7999610E-01   9.9999998E-03   1.2001698E-01
  7.7999592E-01   9.9999998E-03   1.4002302E-01
  8.0000269E-01   9.9999998E-03  -1.4841120E-11
  8.0000269E-01   9.9999998E-03   2.0001283E-02
  8.0000269E-01   9.9999998E-03   4.0002808E-02
  8.0000269E-01   9.9999998E-03   6.0004875E-02
  8.0000269E-01   9.9999998E-03   8.0007814E-02
  8.0000269E-01   9.9999998E-03   1.0001188E-01
  8.0000269E-01   9.9999998E-03   1.2001709E-01
  8.0000275E-01   9.9999998E-03   1.4002316E-01
  8.2000840E-01   9.9999998E-03   1.0254729E-12
  8.2000840E-01   9.9999998E-03   2.0001274E-02
  8.2000846E-01   9.9999998E-03   4.0002789E-02
  8.2000846E-01   9.9999998E-03   6.0004838E-02
  8.2000858E-01   9.9999998E-03   8.0007747E-02
  8.2000864E-01   9.9999998E-03   1.0001177E-01
  8.2000881E-01   9.9999998E-03   1.2001694E-01
  8.2000905E-01   9.9999998E-03   1.4002296E-01
  8.4001434E-01   9.9999998E-03  -1.8086173E-13
  8.4001434E-01   9.9999998E-03   2.0001248E-02
  8.4001440E-01   9.9999998E-03   4.0002730E-02
  8.4001446E-01   9.9999998E-03   6.0004734E-02
  8.4001458E-01   9.9999998E-03   8.0007575E-02
  8.4001482E-01   9.9999998E-03   1.0001152E-01
  8.4001511E-01   9.9999998E-03   1.2001657E-01
  8.4001553E-01   9.9999998E-03   1.4002247E-01
  8.6002046E-01   9.9999998E-03   1.0259105E-11
  8.6002046E-01   9.9999998E-03   2.0001205E-02
  8.6002052E-01   9.9999998E-03   4.0002637E-02
  8.6002064E-01   9.9999998E-03   6.0004570E-02
  8.6002082E-01   9.9999998E-03   8.0007315E-02
  8.6002111E-01   9.9999998E-03   1.0001113E-01
  8.6002153E-01   9.9999998E-03   1.2001601E-01
  8.6002207E-01   9.9999998E-03   1.4002171E-01
  8.8002622E-01   9.9999998E-03  -5.3433013E-12
  8.8002628E-01   9.9999998E-03   2.0001147E-02
  8.8002634E-01   9.9999998E-03   4.0002510E-02
  8.8002646E-01   9.9999998E-03   6.0004354E-02
  8.8002670E-01   9.9999998E-03   8.0006972E-02
  8.8002706E-01   9.9999998E-03   1.0001061E-01
  8.8002759E-01   9.9999998E-03   1.2001527E-01
  8.8002831E-01   9.9999998E-03   1.4002071E-01
  9.0003121E-01   9.9999998E-03  -2.6942473E-11
  9.0003121E-01   9.9999998E-03   2.0001078E-02
  9.0003133E-01   9.9999998E-03   4.0002361E-02
  9.0003151E-01   9.9999998E-03   6.0004096E-02
  9.0003175E-01   9.9999998E-03   8.0006562E-02
  9.0003216E-01   9.9999998E-03   1.0000999E-01
  9.0003282E-01   9.9999998E-03   1.2001439E-01
  9.0003365E-01   9.9999998E-03   1.4001952E-01
  9.2003369E-01   9.9999998E-03  -4.4708399E-12
  9.2003369E-01   9.9999998E-03   2.0001037E-02
  9.2003387E-01   9.9999998E-03   4.0002253E-02
  9.2003411E-01   9.9999998E-03   6.0003877E-02
  9.2003453E-01   9.9999998E-03   8.0006167E-02
  9.2003512E-01   9.9999998E-03   1.0000934E-01
  9.2003590E-01   9.9999998E-03   1.2001342E-01
  9.2003697E-01   9.9999998E-03   1.4001819E-01
  9.4003391E-01   9.9999998E-03   6.5103877E-12
  9.4003397E-01   9.9999998E-03   2.0001011E-02
  9.4003415E-01   9.9999998E-03   4.0002175E-02
  9.4003445E-01   9.9999998E-03   6.0003687E-02
  9.4003487E-01   9.9999998E-03   8.0005795E-02
  9.4003558E-01   9.9999998E-03   1.0000870E-01
  9.4003648E-01   9.9999998E-03   1.2001243E-01
  9.4003767E-01   9.9999998E-03   1.4001681E-01
  9.6003342E-01   9.9999998E-03  -6.6968978E-12
  9.6003342E-01   9.9999998E-03   2.0000955E-02
  9.6003360E-01   9.9999998E-03   4.0002044E-02
  9.6003389E-01   9.9999998E-03   6.0003445E-02
  9.6003437E-01   9.9999998E-03   8.0005370E-02
  9.6003503E-01   9.9999998E-03   1.0000801E-01
  9.6003598E-01   9.9999998E-03   1.2001140E-01
  9.6003723E-01   9.9999998E-03   1.4001538E-01
  9.8003256E-01   9.9999998E-03   2.2503663E-12
  9.8003256E-01   9.9999998E-03   2.0000903E-02
  9.8003274E-01   9.9999998E-03   4.0001918E-02
  9.8003298E-01   9.9999998E-03   6.0003199E-02
  9.8003340E-01   9.9999998E-03   8.0004945E-02
  9.8003405E-01   9.9999998E-03   1.0000733E-01
  9.8003495E-01   9.9999998E-03   1.2001037E-01
  9.8003620E-01   9.9999998E-03   1.4001393E-01
  1.0000315E+00   9.9999998E-03  -2.2549636E-12
  1.0000315E+00   9.9999998E-03   2.0000860E-02
  1.0000316E+00   9.9999998E-03   4.0001821E-02
  1.0000318E+00   9.9999998E-03   6.0003001E-02
  1.0000322E+00   9.9999998E-03   8.0004573E-02
  1.0000328E+00   9.9999998E-03   1.0000669E-01
  1.0000337E+00   9.9999998E-03   1.2000941E-01
  1.0000349E+00   9.9999998E-03   1.4001259E-01
  1.0200301E+00   9.9999998E-03   3.0697641E-12
  1.0200301E+00   9.9999998E-03   2.0000819E-02
  1.0200303E+00   9.9999998E-03   4.0001728E-02
  1.0200305E+00   9.9999998E-03   6.0002830E-02
  1.0200309E+00   9.9999998E-03   8.0004252E-02
  1.0200313E+00   9.9999998E-03   1.0000613E-01
  1.0200323E+00   9.9999998E-03   1.2000853E-01
  1.0200335E+00   9.9999998E-03   1.4001133E-01
  1.0400286E+00   9.9999998E-03   3.2702142E-12
  1.0400286E+00   9.9999998E-03   2.0000778E-02
  1.0400287E+00   9.9999998E-03   4.0001638E-02
  1.0400288E+00   9.9999998E-03   6.0002666E-02
  1.0400292E+00   9.9999998E-03   8.0003962E-02
  1.0400298E+00   9.9999998E-03   1.0000563E-01
  1.0400306E+00   9.9999998E-03   1.2000773E-01
  1.0400318E+00   9.9999998E-03   1.4001018E-01
  1.0600268E+00   9.9999998E-03   2.3425428E-12
  1.0600268E+00   9.9999998E-03   2.0000739E-02
  1.0600269E+00   9.9999998E-03   4.0001549E-02
  1.0600271E+00   9.9999998E-03   6.0002510E-02
  1.0600274E+00   9.9999998E-03   8.0003701E-02
  1.0600280E+00   9.9999998E-03   1.0000519E-01
  1.0600288E+00   9.9999998E-03   1.2000701E-01
  1.0600300E+00   9.9999998E-03   1.4000912E-01
  1.0800250E+00   9.9999998E-03  -1.8652833E-12
  1.0800250E+00   9.9999998E-03   2.0000705E-02
  1.0800251E+00   9.9999998E-03   4.0001471E-02
  1.0800252E+00   9.9999998E-03   6.0002368E-02
  1.0800256E+00   9.9999998E-03   8.0003448E-02
  1.0800261E+00   9.9999998E-03   1.0000477E-01
  1.0800270E+00   9.9999998E-03   1.2000635E-01
  1.0800282E+00   9.9999998E-03   1.4000812E-01
  1.1000230E+00   9.9999998E-03  -1.8175911E-13
  1.1000232E+00   9.9999998E-03   2.0000674E-02
  1.1000233E+00   9.9999998E-03   4.0001400E-02
  1.1000234E+00   9.9999998E-03   6.0002234E-02
  1.1000237E+00   9.9999998E-03   8.0003209E-02
  1.1000243E+00   9.9999998E-03   1.0000436E-01
  1.1000252E+00   9.9999998E-03   1.2000568E-01
  1.1000265E+00   9.9999998E-03   1.4000723E-01
  1.1200213E+00   9.9999998E-03  -2.0836087E-12
  1.1200213E+00   9.9999998E-03   2.0000646E-02
  1.1200215E+00   9.9999998E-03   4.0001333E-02
  1.1200217E+00   9.9999998E-03   6.0002092E-02
  1.1200222E+00   9.9999998E-03   8.0002964E-02
  1.1200228E+00   9.9999998E-03   1.0000393E-01
  1.1200236E+00   9.9999998E-03   1.2000506E-01
  1.1200249E+00   9.9999998E-03   1.4000639E-01
  1.1400198E+00   9.9999998E-03  -2.3067544E-12
  1.1400199E+00   9.9999998E-03   2.0000607E-02
  1.1400200E+00   9.9999998E-03   4.0001236E-02
  1.1400203E+00   9.9999998E-03   6.0001917E-02
  1.1400207E+00   9.9999998E-03   8.0002651E-02
  1.1400213E+00   9.9999998E-03   1.0000349E-01
  1.1400223E+00   9.9999998E-03   1.2000445E-01
  1.1400236E+00   9.9999998E-03   1.4000577E-01
  1.1600184E+00   9.9999998E-03  -7.5994880E-13
  1.1600186E+00   9.9999998E-03   2.0000538E-02
  1.1600187E+00   9.9999998E-03   4.0001094E-02
  1.1600189E+00   9.9999998E-03   6.0001671E-02
  1.1600194E+00   9.9999998E-03   8.0002315E-02
  1.1600201E+00   9.9999998E-03   1.0000303E-01
  1.1600212E+00   9.9999998E-03   1.2000401E-01
  1.1600229E+00   9.9999998E-03   1.4000554E-01
  1.1800174E+00   9.9999998E-03  -6.5495049E-13
  1.1800174E+00   9.9999998E-03   2.0000445E-02
  1.1800176E+00   9.9999998E-03   4.0000919E-02
  1.1800178E+00   9.9999998E-03   6.0001418E-02
  1.1800184E+00   9.9999998E-03   8.0002010E-02
  1.1800193E+00   9.9999998E-03   1.0000281E-01
  1.1800206E+00   9.9999998E-03   1.2000403E-01
  1.1800226E+00   9.9999998E-03   1.4000604E-01
  1.2000164E+00   9.9999998E-03  -1.1451985E-12
  1.2000165E+00   9.9999998E-03   2.0000376E-02
  1.2000166E+00   9.9999998E-03   4.0000800E-02
  1.2000171E+00   9.9999998E-03   6.0001325E-02
  1.2000178E+00   9.9999998E-03   8.0002062E-02
  1.2000189E+00   9.9999998E-03   1.0000316E-01
  1.2000208E+00   9.9999998E-03   1.2000493E-01
  1.2000239E+00   9.9999998E-03   1.4000773E-01
  1.2200160E+00   9.9999998E-03   1.1532760E-13
  1.2200161E+00   9.9999998E-03   2.0000415E-02
  1.2200164E+00   9.9999998E-03   4.0000934E-02
  1.2200170E+00   9.9999998E-03   6.0001690E-02
  1.2200181E+00   9.9999998E-03   8.0002859E-02
  1.2200201E+00   9.9999998E-03   1.0000462E-01
  1.2200233E+00   9.9999998E-03   1.2000711E-01
  1.2200278E+00   9.9999998E-03   1.4001019E-01
  1.2400171E+00   9.9999998E-03  -1.2603315E-12
  1.2400173E+00   9.9999998E-03   2.0000709E-02
  1.2400179E+00   9.9999998E-03   4.0001616E-02
  1.2400193E+00   9.9999998E-03   6.0002901E-02
  1.2400215E+00   9.9999998E-03   8.0004632E-02
  1.2400248E+00   9.9999998E-03   1.0000678E-01
  1.2400287E+00   9.9999998E-03   1.2000938E-01
  1.2400328E+00   9.9999998E-03   1.4001250E-01
  1.2600234E+00   9.9999998E-03  -7.7119967E-13
  1.2600236E+00   9.9999998E-03   2.0001028E-02
  1.2600244E+00   9.9999998E-03   4.0002301E-02
  1.2600259E+00   9.9999998E-03   6.0004022E-02
  1.2600280E+00   9.9999998E-03   8.0006227E-02
  1.2600305E+00   9.9999998E-03   1.0000879E-01
  1.2600330E+00   9.9999998E-03   1.2001161E-01
  1.2600350E+00   9.9999998E-03   1.4001463E-01
  1.2800303E+00   9.9999998E-03   1.1235639E-12
  1.2800304E+00   9.9999998E-03   2.0001320E-02
  1.2800307E+00   9.9999998E-03   4.0002972E-02
  1.2800313E+00   9.9999998E-03   6.0005199E-02
  1.2800322E+00   9.9999998E-03   8.0007978E-02
  1.2800330E+00   9.9999998E-03   1.0001090E-01
  1.2800336E+00   9.9999998E-03   1.2001372E-01
  1.3000323E+00   9.9999998E-03   7.6856945E-13
  1.3000323E+00   9.9999998E-03   2.0001611E-02
  1.3000321E+00   9.9999998E-03   4.0003650E-02
  1.3000320E+00   9.9999998E-03   6.0006410E-02
  1.3000318E+00   9.9999998E-03   8.0009773E-02
 -1.6700017E-08   9.9999998E-03   1.6000000E-01
 -1.6072331E-08   9.9999998E-03   1.8000001E-01
 -1.5254001E-08   9.9999998E-03   2.0000000E-01
 -1.4200318E-08   9.9999998E-03   2.2000000E-01
 -1.2876431E-08   9.9999998E-03   2.4000001E-01
 -1.1231980E-08   9.9999998E-03   2.5999999E-01
 -9.2878105E-09   9.9999998E-03   2.8000000E-01
  1.9999975E-02   9.9999998E-03   1.6000000E-01
  1.9999975E-02   9.9999998E-03   1.8000001E-01
  1.9999977E-02   9.9999998E-03   2.0000000E-01
  1.9999979E-02   9.9999998E-03   2.2000000E-01
  1.9999981E-02   9.9999998E-03   2.4000001E-01
  1.9999983E-02   9.9999998E-03   2.5999999E-01
  1.9999987E-02   9.9999998E-03   2.8000000E-01
  1.9999990E-02   9.9999998E-03   3.0000001E-01
  3.9999962E-02   9.9999998E-03   1.6000000E-01
  3.9999966E-02   9.9999998E-03   1.8000001E-01
  3.9999966E-02   9.9999998E-03   2.0000000E-01
  3.9999969E-02   9.9999998E-03   2.2000000E-01
  3.9999969E-02   9.9999998E-03   2.4000001E-01
  3.9999973E-02   9.9999998E-03   2.6000002E-01
  3.9999980E-02   9.9999998E-03   2.8000000E-01
  3.9999984E-02   9.9999998E-03   3.0000001E-01
  5.9999947E-02   9.9999998E-03   1.6000001E-01
  5.9999950E-02   9.9999998E-03   1.8000001E-01
  5.9999950E-02   9.9999998E-03   2.0000000E-01
  5.9999954E-02   9.9999998E-03   2.2000001E-01
  5.9999958E-02   9.9999998E-03   2.4000001E-01
  5.9999965E-02   9.9999998E-03   2.6000002E-01
  5.9999969E-02   9.9999998E-03   2.8000000E-01
  5.9999976E-02   9.9999998E-03   3.0000001E-01
  7.9999924E-02   9.9999998E-03   1.6000001E-01
  7.9999931E-02   9.9999998E-03   1.8000001E-01
  7.9999931E-02   9.9999998E-03   2.0000000E-01
  7.9999939E-02   9.9999998E-03   2.2000001E-01
  7.9999939E-02   9.9999998E-03   2.4000001E-01
  7.9999946E-02   9.9999998E-03   2.6000002E-01
  7.9999961E-02   9.9999998E-03   2.8000000E-01
  7.9999968E-02   9.9999998E-03   3.0000001E-01
  9.9999897E-02   9.9999998E-03   1.6000001E-01
  9.9999905E-02   9.9999998E-03   1.8000001E-01
  9.9999905E-02   9.9999998E-03   2.0000000E-01
  9.9999912E-02   9.9999998E-03   2.2000001E-01
  9.9999920E-02   9.9999998E-03   2.4000001E-01
  9.9999927E-02   9.9999998E-03   2.6000002E-01
  9.9999942E-02   9.9999998E-03   2.8000000E-01
  9.9999957E-02   9.9999998E-03   3.0000001E-01
  1.1999986E-01   9.9999998E-03   1.6000001E-01
  1.1999987E-01   9.9999998E-03   1.8000001E-01
  1.1999987E-01   9.9999998E-03   2.0000002E-01
  1.1999988E-01   9.9999998E-03   2.2000001E-01
  1.1999989E-01   9.9999998E-03   2.4000002E-01
  1.1999990E-01   9.9999998E-03   2.6000002E-01
  1.1999992E-01   9.9999998E-03   2.8000003E-01
  1.1999994E-01   9.9999998E-03   3.0000001E-01
  1.3999982E-01   9.9999998E-03   1.6000001E-01
  1.3999982E-01   9.9999998E-03   1.8000002E-01
  1.3999982E-01   9.9999998E-03   2.0000002E-01
  1.3999984E-01   9.9999998E-03   2.2000001E-01
  1.3999985E-01   9.9999998E-03   2.4000002E-01
  1.3999987E-01   9.9999998E-03   2.6000002E-01
  1.3999988E-01   9.9999998E-03   2.8000003E-01
  1.3999991E-01   9.9999998E-03   3.0000004E-01
  1.5999976E-01   9.9999998E-03   1.6000001E-01
  1.5999976E-01   9.9999998E-03   1.8000002E-01
  1.5999977E-01   9.9999998E-03   2.0000002E-01
  1.5999977E-01   9.9999998E-03   2.2000003E-01
  1.5999979E-01   9.9999998E-03   2.4000002E-01
  1.5999982E-01   9.9999998E-03   2.6000002E-01
  1.5999985E-01   9.9999998E-03   2.8000003E-01
  1.5999988E-01   9.9999998E-03   3.0000004E-01
  1.7999968E-01   9.9999998E-03   1.6000003E-01
  1.7999968E-01   9.9999998E-03   1.8000002E-01
  1.7999969E-01   9.9999998E-03   2.0000003E-01
  1.7999971E-01   9.9999998E-03   2.2000003E-01
  1.7999972E-01   9.9999998E-03   2.4000004E-01
  1.7999974E-01   9.9999998E-03   2.6000005E-01
  1.7999978E-01   9.9999998E-03   2.8000006E-01
  1.7999983E-01   9.9999998E-03   3.0000004E-01
  1.9999957E-01   9.9999998E-03   1.6000003E-01
  1.9999957E-01   9.9999998E-03   1.8000004E-01
  1.9999959E-01   9.9999998E-03   2.0000003E-01
  1.9999960E-01   9.9999998E-03   2.2000004E-01
  1.9999963E-01   9.9999998E-03   2.4000005E-01
  1.9999966E-01   9.9999998E-03   2.6000005E-01
  1.9999970E-01   9.9999998E-03   2.8000006E-01
  1.9999976E-01   9.9999998E-03   3.0000007E-01
  2.1999943E-01   9.9999998E-03   1.6000004E-01
  2.1999943E-01   9.9999998E-03   1.8000004E-01
  2.1999945E-01   9.9999998E-03   2.0000005E-01
  2.1999946E-01   9.9999998E-03   2.2000006E-01
  2.1999949E-01   9.9999998E-03   2.4000007E-01
  2.1999954E-01   9.9999998E-03   2.6000008E-01
  2.1999960E-01   9.9999998E-03   2.8000009E-01
  2.1999967E-01   9.9999998E-03   3.0000010E-01
  2.3999925E-01   9.9999998E-03   1.6000004E-01
  2.3999926E-01   9.9999998E-03   1.8000005E-01
  2.3999928E-01   9.9999998E-03   2.0000006E-01
  2.3999929E-01   9.9999998E-03   2.2000009E-01
  2.3999932E-01   9.9999998E-03   2.4000010E-01
  2.3999937E-01   9.9999998E-03   2.6000011E-01
  2.3999944E-01   9.9999998E-03   2.8000015E-01
  2.3999953E-01   9.9999998E-03   3.0000019E-01
  2.5999904E-01   9.9999998E-03   1.6000006E-01
  2.5999904E-01   9.9999998E-03   1.8000007E-01
  2.5999904E-01   9.9999998E-03   2.0000009E-01
  2.5999907E-01   9.9999998E-03   2.2000012E-01
  2.5999910E-01   9.9999998E-03   2.4000014E-01
  2.5999916E-01   9.9999998E-03   2.6000017E-01
  2.5999922E-01   9.9999998E-03   2.8000024E-01
  2.5999933E-01   9.9999998E-03   3.0000031E-01
  2.7999872E-01   9.9999998E-03   1.6000007E-01
  2.7999875E-01   9.9999998E-03   1.8000010E-01
  2.7999875E-01   9.9999998E-03   2.0000012E-01
  2.7999878E-01   9.9999998E-03   2.2000016E-01
  2.7999881E-01   9.9999998E-03   2.4000020E-01
  2.7999887E-01   9.9999998E-03   2.6000026E-01
  2.7999893E-01   9.9999998E-03   2.8000036E-01
  2.7999905E-01   9.9999998E-03   3.0000046E-01
  2.9999834E-01   9.9999998E-03   1.6000009E-01
  2.9999834E-01   9.9999998E-03   1.8000013E-01
  2.9999837E-01   9.9999998E-03   2.0000015E-01
  2.9999840E-01   9.9999998E-03   2.2000021E-01
  2.9999843E-01   9.9999998E-03   2.4000026E-01
  2.9999849E-01   9.9999998E-03   2.6000035E-01
  2.9999858E-01   9.9999998E-03   2.8000048E-01
  2.9999870E-01   9.9999998E-03   3.0000061E-01
  3.1999788E-01   9.9999998E-03   1.6000012E-01
  3.1999788E-01   9.9999998E-03   1.8000016E-01
  3.1999788E-01   9.9999998E-03   2.0000020E-01
  3.1999791E-01   9.9999998E-03   2.2000027E-01
  3.1999794E-01   9.9999998E-03   2.4000035E-01
  3.1999800E-01   9.9999998E-03   2.6000047E-01
  3.1999809E-01   9.9999998E-03   2.8000063E-01
  3.1999823E-01   9.9999998E-03   3.0000082E-01
  3.3999726E-01   9.9999998E-03   1.6000015E-01
  3.3999723E-01   9.9999998E-03   1.8000019E-01
  3.3999723E-01   9.9999998E-03   2.0000026E-01
  3.3999726E-01   9.9999998E-03   2.2000034E-01
  3.3999729E-01   9.9999998E-03   2.4000046E-01
  3.3999738E-01   9.9999998E-03   2.6000062E-01
  3.3999750E-01   9.9999998E-03   2.8000084E-01
  3.3999765E-01   9.9999998E-03   3.0000106E-01
  3.5999647E-01   9.9999998E-03   1.6000018E-01
  3.5999644E-01   9.9999998E-03   1.8000023E-01
  3.5999644E-01   9.9999998E-03   2.0000032E-01
  3.5999644E-01   9.9999998E-03   2.2000043E-01
  3.5999650E-01   9.9999998E-03   2.4000058E-01
  3.5999659E-01   9.9999998E-03   2.6000080E-01
  3.5999671E-01   9.9999998E-03   2.8000107E-01
  3.5999691E-01   9.9999998E-03   3.0000135E-01
  3.7999550E-01   9.9999998E-03   1.6000022E-01
  3.7999547E-01   9.9999998E-03   1.8000029E-01
  3.7999541E-01   9.9999998E-03   2.0000039E-01
  3.7999541E-01   9.9999998E-03   2.2000054E-01
  3.7999547E-01   9.9999998E-03   2.4000072E-01
  3.7999555E-01   9.9999998E-03   2.6000100E-01
  3.7999570E-01   9.9999998E-03   2.8000134E-01
  3.7999597E-01   9.9999998E-03   3.0000174E-01
  3.9999428E-01   9.9999998E-03   1.6000026E-01
  3.9999419E-01   9.9999998E-03   1.8000036E-01
  3.9999413E-01   9.9999998E-03   2.0000048E-01
  3.9999411E-01   9.9999998E-03   2.2000065E-01
  3.9999413E-01   9.9999998E-03   2.4000089E-01
  3.9999422E-01   9.9999998E-03   2.6000124E-01
  3.9999443E-01   9.9999998E-03   2.8000173E-01
  3.9999476E-01   9.9999998E-03   3.0000225E-01
  4.1999277E-01   9.9999998E-03   1.6000035E-01
  4.1999266E-01   9.9999998E-03   1.8000045E-01
  4.1999254E-01   9.9999998E-03   2.0000060E-01
  4.1999248E-01   9.9999998E-03   2.2000080E-01
  4.1999248E-01   9.9999998E-03   2.4000110E-01
  4.1999257E-01   9.9999998E-03   2.6000154E-01
  4.1999277E-01   9.9999998E-03   2.8000215E-01
  4.1999316E-01   9.9999998E-03   3.0000287E-01
  4.3999094E-01   9.9999998E-03   1.6000047E-01
  4.3999076E-01   9.9999998E-03   1.8000059E-01
  4.3999058E-01   9.9999998E-03   2.0000076E-01
  4.3999043E-01   9.9999998E-03   2.2000100E-01
  4.3999037E-01   9.9999998E-03   2.4000134E-01
  4.3999040E-01   9.9999998E-03   2.6000190E-01
  4.3999064E-01   9.9999998E-03   2.8000271E-01
  4.3999112E-01   9.9999998E-03   3.0000365E-01
  4.5998865E-01   9.9999998E-03   1.6000068E-01
  4.5998839E-01   9.9999998E-03   1.8000081E-01
  4.5998812E-01   9.9999998E-03   2.0000100E-01
  4.5998788E-01   9.9999998E-03   2.2000125E-01
  4.5998770E-01   9.9999998E-03   2.4000165E-01
  4.5998770E-01   9.9999998E-03   2.6000232E-01
  4.5998794E-01   9.9999998E-03   2.8000334E-01
  4.5998847E-01   9.9999998E-03   3.0000460E-01
  4.7998580E-01   9.9999998E-03   1.6000099E-01
  4.7998545E-01   9.9999998E-03   1.8000115E-01
  4.7998509E-01   9.9999998E-03   2.0000137E-01
  4.7998470E-01   9.9999998E-03   2.2000164E-01
  4.7998440E-01   9.9999998E-03   2.4000208E-01
  4.7998425E-01   9.9999998E-03   2.6000282E-01
  4.7998443E-01   9.9999998E-03   2.8000414E-01
  4.7998500E-01   9.9999998E-03   3.0000582E-01
  4.9998233E-01   9.9999998E-03   1.6000147E-01
  4.9998185E-01   9.9999998E-03   1.8000171E-01
  4.9998134E-01   9.9999998E-03   2.0000196E-01
  4.9998081E-01   9.9999998E-03   2.2000225E-01
  4.9998033E-01   9.9999998E-03   2.4000271E-01
  4.9997997E-01   9.9999998E-03   2.6000351E-01
  4.9997994E-01   9.9999998E-03   2.8000510E-01
  4.9998042E-01   9.9999998E-03   3.0000737E-01
  5.1997805E-01   9.9999998E-03   1.6000217E-01
  5.1997745E-01   9.9999998E-03   1.8000253E-01
  5.1997679E-01   9.9999998E-03   2.0000288E-01
  5.1997608E-01   9.9999998E-03   2.2000322E-01
  5.1997536E-01   9.9999998E-03   2.4000369E-01
  5.1997471E-01   9.9999998E-03   2.6000449E-01
  5.1997435E-01   9.9999998E-03   2.8000638E-01
  5.1997441E-01   9.9999998E-03   3.0000934E-01
  5.3997302E-01   9.9999998E-03   1.6000319E-01
  5.3997231E-01   9.9999998E-03   1.8000372E-01
  5.3997147E-01   9.9999998E-03   2.0000425E-01
  5.3997058E-01   9.9999998E-03   2.2000475E-01
  5.3996962E-01   9.9999998E-03   2.4000525E-01
  5.3996849E-01   9.9999998E-03   2.6000607E-01
  5.3996742E-01   9.9999998E-03   2.8000820E-01
  5.3996676E-01   9.9999998E-03   3.0001202E-01
  5.5996722E-01   9.9999998E-03   1.6000451E-01
  5.5996639E-01   9.9999998E-03   1.8000533E-01
  5.5996543E-01   9.9999998E-03   2.0000616E-01
  5.5996436E-01   9.9999998E-03   2.2000693E-01
  5.5996305E-01   9.9999998E-03   2.4000765E-01
  5.5996144E-01   9.9999998E-03   2.6000860E-01
  5.5995935E-01   9.9999998E-03   2.8001103E-01
  5.5995721E-01   9.9999998E-03   3.0001581E-01
  5.7996106E-01   9.9999998E-03   1.6000617E-01
  5.7995999E-01   9.9999998E-03   1.8000735E-01
  5.7995880E-01   9.9999998E-03   2.0000853E-01
  5.7995749E-01   9.9999998E-03   2.2000979E-01
  5.7995594E-01   9.9999998E-03   2.4001098E-01
  5.7995373E-01   9.9999998E-03   2.6001257E-01
  5.7995045E-01   9.9999998E-03   2.8001574E-01
  5.7994622E-01   9.9999998E-03   3.0002147E-01
  5.9995484E-01   9.9999998E-03   1.6000809E-01
  5.9995353E-01   9.9999998E-03   1.8000968E-01
  5.9995204E-01   9.9999998E-03   2.0001137E-01
  5.9995037E-01   9.9999998E-03   2.2001323E-01
  5.9994847E-01   9.9999998E-03   2.4001551E-01
  5.9994560E-01   9.9999998E-03   2.6001850E-01
  5.9994125E-01   9.9999998E-03   2.8002349E-01
  5.9993482E-01   9.9999998E-03   3.0003035E-01
  6.1994898E-01   9.9999998E-03   1.6001035E-01
  6.1994731E-01   9.9999998E-03   1.8001243E-01
  6.1994553E-01   9.9999998E-03   2.0001481E-01
  6.1994338E-01   9.9999998E-03   2.2001775E-01
  6.1994070E-01   9.9999998E-03   2.4002182E-01
  6.1993754E-01   9.9999998E-03   2.6002824E-01
  6.1993253E-01   9.9999998E-03   2.8003642E-01
  6.1992455E-01   9.9999998E-03   3.0004439E-01
  6.3994378E-01   9.9999998E-03   1.6001295E-01
  6.3994193E-01   9.9999998E-03   1.8001576E-01
  6.3993961E-01   9.9999998E-03   2.0001915E-01
  6.3993704E-01   9.9999998E-03   2.2002429E-01
  6.3993436E-01   9.9999998E-03   2.4003291E-01
  6.3993120E-01   9.9999998E-03   2.6004541E-01
  6.3992602E-01   9.9999998E-03   2.8005731E-01
  6.3991719E-01   9.9999998E-03   3.0006543E-01
  6.5993989E-01   9.9999998E-03   1.6001612E-01
  6.5993786E-01   9.9999998E-03   1.8001989E-01
  6.5993536E-01   9.9999998E-03   2.0002519E-01
  6.5993273E-01   9.9999998E-03   2.2003406E-01
  6.5993029E-01   9.9999998E-03   2.4004897E-01
  6.5992796E-01   9.9999998E-03   2.6006925E-01
  6.5992302E-01   9.9999998E-03   2.8008437E-01
  6.5991414E-01   9.9999998E-03   3.0009091E-01
  6.7993897E-01   9.9999998E-03   1.6001973E-01
  6.7993683E-01   9.9999998E-03   1.8002458E-01
  6.7993426E-01   9.9999998E-03   2.0003177E-01
  6.7993182E-01   9.9999998E-03   2.2004442E-01
  6.7992997E-01   9.9999998E-03   2.4006543E-01
  6.7992884E-01   9.9999998E-03   2.6009223E-01
  6.7992485E-01   9.9999998E-03   2.8010914E-01
  6.7991853E-01   9.9999998E-03   3.0011371E-01
  6.9994378E-01   9.9999998E-03   1.6002317E-01
  6.9994187E-01   9.9999998E-03   1.8002898E-01
  6.9993967E-01   9.9999998E-03   2.0003779E-01
  6.9993764E-01   9.9999998E-03   2.2005309E-01
  6.9993651E-01   9.9999998E-03   2.4007805E-01
  6.9993615E-01   9.9999998E-03   2.6010862E-01
  6.9993430E-01   9.9999998E-03   2.8012598E-01
  6.9993365E-01   9.9999998E-03   3.0012935E-01
  7.1995860E-01   9.9999998E-03   1.6002582E-01
  7.1995693E-01   9.9999998E-03   1.8003225E-01
  7.1995515E-01   9.9999998E-03   2.0004189E-01
  7.1995342E-01   9.9999998E-03   2.2005840E-01
  7.1995223E-01   9.9999998E-03   2.4008502E-01
  7.1995187E-01   9.9999998E-03   2.6011723E-01
  7.1995217E-01   9.9999998E-03   2.8013477E-01
  7.1995324E-01   9.9999998E-03   3.0013865E-01
  7.3997432E-01   9.9999998E-03   1.6002759E-01
  7.3997319E-01   9.9999998E-03   1.8003434E-01
  7.3997194E-01   9.9999998E-03   2.0004430E-01
  7.3997080E-01   9.9999998E-03   2.2006117E-01
  7.3996997E-01   9.9999998E-03   2.4008819E-01
  7.3996979E-01   9.9999998E-03   2.6012096E-01
  7.3997015E-01   9.9999998E-03   2.8013921E-01
  7.3997104E-01   9.9999998E-03   3.0014396E-01
  7.5998658E-01   9.9999998E-03   1.6002876E-01
  7.5998592E-01   9.9999998E-03   1.8003567E-01
  7.5998521E-01   9.9999998E-03   2.0004573E-01
  7.5998455E-01   9.9999998E-03   2.2006264E-01
  7.5998414E-01   9.9999998E-03   2.4008968E-01
  7.5998414E-01   9.9999998E-03   2.6012257E-01
  7.5998443E-01   9.9999998E-03   2.8014135E-01
  7.5998503E-01   9.9999998E-03   3.0014688E-01
  7.7999562E-01   9.9999998E-03   1.6002937E-01
  7.7999538E-01   9.9999998E-03   1.8003632E-01
  7.7999508E-01   9.9999998E-03   2.0004639E-01
  7.7999490E-01   9.9999998E-03   2.2006324E-01
  7.7999485E-01   9.9999998E-03   2.4009018E-01
  7.7999490E-01   9.9999998E-03   2.6012310E-01
  7.7999508E-01   9.9999998E-03   2.8014228E-01
  7.7999538E-01   9.9999998E-03   3.0014831E-01
  8.0000281E-01   9.9999998E-03   1.6002952E-01
  8.0000287E-01   9.9999998E-03   1.8003644E-01
  8.0000299E-01   9.9999998E-03   2.0004643E-01
  8.0000311E-01   9.9999998E-03   2.2006319E-01
  8.0000329E-01   9.9999998E-03   2.4009004E-01
  8.0000341E-01   9.9999998E-03   2.6012298E-01
  8.0000353E-01   9.9999998E-03   2.8014243E-01
  8.0000359E-01   9.9999998E-03   3.0014870E-01
  8.2000935E-01   9.9999998E-03   1.6002925E-01
  8.2000977E-01   9.9999998E-03   1.8003610E-01
  8.2001019E-01   9.9999998E-03   2.0004600E-01
  8.2001066E-01   9.9999998E-03   2.2006266E-01
  8.2001102E-01   9.9999998E-03   2.4008943E-01
  8.2001120E-01   9.9999998E-03   2.6012242E-01
  8.2001120E-01   9.9999998E-03   2.8014195E-01
  8.2001102E-01   9.9999998E-03   3.0014822E-01
  8.4001607E-01   9.9999998E-03   1.6002862E-01
  8.4001672E-01   9.9999998E-03   1.8003532E-01
  8.4001750E-01   9.9999998E-03   2.0004502E-01
  8.4001821E-01   9.9999998E-03   2.2006138E-01
  8.4001875E-01   9.9999998E-03   2.4008775E-01
  8.4001905E-01   9.9999998E-03   2.6012027E-01
  8.4001899E-01   9.9999998E-03   2.8013965E-01
  8.4001863E-01   9.9999998E-03   3.0014586E-01
  8.6002284E-01   9.9999998E-03   1.6002765E-01
  8.6002380E-01   9.9999998E-03   1.8003413E-01
  8.6002481E-01   9.9999998E-03   2.0004351E-01
  8.6002582E-01   9.9999998E-03   2.2005937E-01
  8.6002660E-01   9.9999998E-03   2.4008492E-01
  8.6002690E-01   9.9999998E-03   2.6011652E-01
  8.6002684E-01   9.9999998E-03   2.8013548E-01
  8.6002630E-01   9.9999998E-03   3.0014160E-01
  8.8002926E-01   9.9999998E-03   1.6002640E-01
  8.8003045E-01   9.9999998E-03   1.8003257E-01
  8.8003176E-01   9.9999998E-03   2.0004152E-01
  8.8003302E-01   9.9999998E-03   2.2005662E-01
  8.8003397E-01   9.9999998E-03   2.4008103E-01
  8.8003439E-01   9.9999998E-03   2.6011124E-01
  8.8003427E-01   9.9999998E-03   2.8012952E-01
  8.8003361E-01   9.9999998E-03   3.0013558E-01
  9.0003479E-01   9.9999998E-03   1.6002487E-01
  9.0003622E-01   9.9999998E-03   1.8003069E-01
  9.0003777E-01   9.9999998E-03   2.0003907E-01
  9.0003926E-01   9.9999998E-03   2.2005326E-01
  9.0004039E-01   9.9999998E-03   2.4007617E-01
  9.0004075E-01   9.9999998E-03   2.6010460E-01
  9.0004069E-01   9.9999998E-03   2.8012207E-01
  9.0004003E-01   9.9999998E-03   3.0012807E-01
  9.2003834E-01   9.9999998E-03   1.6002317E-01
  9.2004013E-01   9.9999998E-03   1.8002854E-01
  9.2004210E-01   9.9999998E-03   2.0003629E-01
  9.2004395E-01   9.9999998E-03   2.2004937E-01
  9.2004526E-01   9.9999998E-03   2.4007055E-01
  9.2004561E-01   9.9999998E-03   2.6009691E-01
  9.2004538E-01   9.9999998E-03   2.8011343E-01
  9.2004502E-01   9.9999998E-03   3.0011943E-01
  9.4003922E-01   9.9999998E-03   1.6002138E-01
  9.4004124E-01   9.9999998E-03   1.8002631E-01
  9.4004369E-01   9.9999998E-03   2.0003331E-01
  9.4004637E-01   9.9999998E-03   2.2004515E-01
  9.4004840E-01   9.9999998E-03   2.4006441E-01
  9.4004881E-01   9.9999998E-03   2.6008856E-01
  9.4004846E-01   9.9999998E-03   2.8010404E-01
  9.4004828E-01   9.9999998E-03   3.0011007E-01
  9.6003884E-01   9.9999998E-03   1.6001955E-01
  9.6004099E-01   9.9999998E-03   1.8002400E-01
  9.6004361E-01   9.9999998E-03   2.0003022E-01
  9.6004665E-01   9.9999998E-03   2.2004075E-01
  9.6004945E-01   9.9999998E-03   2.4005803E-01
  9.6005052E-01   9.9999998E-03   2.6007998E-01
  9.6005052E-01   9.9999998E-03   2.8009444E-01
  9.6005040E-01   9.9999998E-03   3.0010036E-01
  9.8003787E-01   9.9999998E-03   1.6001770E-01
  9.8004001E-01   9.9999998E-03   1.8002169E-01
  9.8004276E-01   9.9999998E-03   2.0002717E-01
  9.8004597E-01   9.9999998E-03   2.2003640E-01
  9.8004931E-01   9.9999998E-03   2.4005170E-01
  9.8005128E-01   9.9999998E-03   2.6007152E-01
  9.8005193E-01   9.9999998E-03   2.8008494E-01
  9.8005229E-01   9.9999998E-03   3.0009067E-01
  1.0000366E+00   9.9999998E-03   1.6001594E-01
  1.0000386E+00   9.9999998E-03   1.8001948E-01
  1.0000414E+00   9.9999998E-03   2.0002426E-01
  1.0000449E+00   9.9999998E-03   2.2003229E-01
  1.0000489E+00   9.9999998E-03   2.4004577E-01
  1.0000516E+00   9.9999998E-03   2.6006344E-01
  1.0000535E+00   9.9999998E-03   2.8007573E-01
  1.0000547E+00   9.9999998E-03   3.0008122E-01
  1.0200351E+00   9.9999998E-03   1.6001430E-01
  1.0200372E+00   9.9999998E-03   1.8001743E-01
  1.0200399E+00   9.9999998E-03   2.0002171E-01
  1.0200436E+00   9.9999998E-03   2.2002876E-01
  1.0200483E+00   9.9999998E-03   2.4004063E-01
  1.0200523E+00   9.9999998E-03   2.6005614E-01
  1.0200558E+00   9.9999998E-03   2.8006709E-01
  1.0200584E+00   9.9999998E-03   3.0007231E-01
  1.0400335E+00   9.9999998E-03   1.6001277E-01
  1.0400356E+00   9.9999998E-03   1.8001562E-01
  1.0400383E+00   9.9999998E-03   2.0001948E-01
  1.0400423E+00   9.9999998E-03   2.2002600E-01
  1.0400478E+00   9.9999998E-03   2.4003656E-01
  1.0400536E+00   9.9999998E-03   2.6004997E-01
  1.0400593E+00   9.9999998E-03   2.8005949E-01
  1.0400642E+00   9.9999998E-03   3.0006447E-01
  1.0600317E+00   9.9999998E-03   1.6001138E-01
  1.0600338E+00   9.9999998E-03   1.8001406E-01
  1.0600368E+00   9.9999998E-03   2.0001769E-01
  1.0600412E+00   9.9999998E-03   2.2002402E-01
  1.0600474E+00   9.9999998E-03   2.4003373E-01
  1.0600551E+00   9.9999998E-03   2.6004526E-01
  1.0600632E+00   9.9999998E-03   2.8005329E-01
  1.0600708E+00   9.9999998E-03   3.0005786E-01
  1.0800298E+00   9.9999998E-03   1.6001020E-01
  1.0800321E+00   9.9999998E-03   1.8001270E-01
  1.0800354E+00   9.9999998E-03   2.0001647E-01
  1.0800403E+00   9.9999998E-03   2.2002287E-01
  1.0800472E+00   9.9999998E-03   2.4003208E-01
  1.0800565E+00   9.9999998E-03   2.6004189E-01
  1.0800661E+00   9.9999998E-03   2.8004852E-01
  1.0800755E+00   9.9999998E-03   3.0005243E-01
  1.1000282E+00   9.9999998E-03   1.6000910E-01
  1.1000307E+00   9.9999998E-03   1.8001170E-01
  1.1000344E+00   9.9999998E-03   2.0001586E-01
  1.1000400E+00   9.9999998E-03   2.2002251E-01
  1.1000476E+00   9.9999998E-03   2.4003123E-01
  1.1000574E+00   9.9999998E-03   2.6003933E-01
  1.1000670E+00   9.9999998E-03   2.8004459E-01
  1.1200268E+00   9.9999998E-03   1.6000827E-01
  1.1200296E+00   9.9999998E-03   1.8001117E-01
  1.1200339E+00   9.9999998E-03   2.0001586E-01
  1.1200401E+00   9.9999998E-03   2.2002277E-01
  1.1200484E+00   9.9999998E-03   2.4003071E-01
  1.1200577E+00   9.9999998E-03   2.6003712E-01
  1.1200665E+00   9.9999998E-03   2.8004113E-01
  1.1400257E+00   9.9999998E-03   1.6000785E-01
  1.1400290E+00   9.9999998E-03   1.8001126E-01
  1.1400340E+00   9.9999998E-03   2.0001654E-01
  1.1400410E+00   9.9999998E-03   2.2002350E-01
  1.1400495E+00   9.9999998E-03   2.4003029E-01
  1.1400577E+00   9.9999998E-03   2.6003519E-01
  1.1600254E+00   9.9999998E-03   1.6000807E-01
  1.1600293E+00   9.9999998E-03   1.8001215E-01
  1.1600353E+00   9.9999998E-03   2.0001796E-01
  1.1600428E+00   9.9999998E-03   2.2002444E-01
  1.1600504E+00   9.9999998E-03   2.4002987E-01
  1.1600571E+00   9.9999998E-03   2.6003340E-01
  1.1800259E+00   9.9999998E-03   1.6000929E-01
  1.1800311E+00   9.9999998E-03   1.8001401E-01
  1.1800376E+00   9.9999998E-03   2.0001973E-01
  1.1800445E+00   9.9999998E-03   2.2002529E-01
  1.1800507E+00   9.9999998E-03   2.4002936E-01
  1.2000287E+00   9.9999998E-03   1.6001157E-01
  1.2000345E+00   9.9999998E-03   1.8001623E-01
  1.2000403E+00   9.9999998E-03   2.0002128E-01
  1.2000457E+00   9.9999998E-03   2.2002570E-01
  1.2200330E+00   9.9999998E-03   1.6001396E-01
  1.2200379E+00   9.9999998E-03   1.8001820E-01
  1.2200422E+00   9.9999998E-03   2.0002227E-01
  1.2200456E+00   9.9999998E-03   2.2002552E-01
  1.2400362E+00   9.9999998E-03   1.6001607E-01
  1.2400392E+00   9.9999998E-03   1.8001966E-01
  1.2600366E+00   9.9999998E-03   1.6001765E-01
VERTICES 2975 5950
1 0
1 1
1 2
1 3
1 4
1 5
1 6
1 7
1 8
1 9
1 10
1 11
1 12
1 13
1 14
1 15
1 16
1 17
1 18
1 19
1 20
1 21
1 22
1 23
1 24
1 25
1 26
1 27
1 28
1 29
1 30
1 31
1 32
1 33
1 34
1 35
1 36
1 37
1 38
1 39
1 40
1 41
1 42
1 43
1 44
1 45
1 46
1 47
1 48
1 49
1 50
1 51
1 52
1 53
1 54
1 55
1 56
1 57
1 58
1 59
1 60
1 61
1 62
1 63
1 64
1 65
1 66
1 67
1 68
1 69
1 70
1 71
1 72
1 73
1 74
1 75
1 76
1 77
1 78
1 79
1 80
1 81
1 82
1 83
1 84
1 85
1 86
1 87
1 88
1 89
1 90
1 91
1 92
1 93
1 94
1 95
1 96
1 97
1 98
1 99
1 100
1 101
1 102
1 103
1 104
1 105
1 106
1 107
1 108
1 109
1 110
1 111
1 112
1 113
1 114
1 115
1 116
1 117
1 118
1 119
1 120
1 121
1 122
1 123
1 124
1 125
1 126
1 127
1 128
1 129
1 130
1 131
1 132
1 133
1 134
1 135
1 136
1 137
1 138
1 139
1 140
1 141
1 142
1 143
1 144
1 145
1 146
1 147
1 148
1 149
1 150
1 151
1 152
1 153
1 154
1 155
1 156
1 157
1 158
1 159
1 160
1 161
1 162
1 163
1 164
1 165
1 166
1 167
1 168
1 169
1 170
1 171
1 172
1 173
1 174
1 175
1 176
1 177
1 178
1 179
1 180
1 181
1 182
1 183
1 184
1 185
1 186
1 187
1 188
1 189
1 190
1 191
1 192
1 193
1 194
1 195
1 196
1 197
1 198
1 199
1 200
1 201
1 202
1 203
1 204
1 205
1 206
1 207
1 208
1 209
1 210
1 211
1 212
1 213
1 214
1 215
1 216
1 217
1 218
1 219
1 220
1 221
1 222
1 223
1 224
1 225
1 226
1 227
1 228
1 229
1 230
1 231
1 232
1 233
1 234
1 235
1 236
1 237
1 238
1 239
1 240
1 241
1 242
1 243
1 244
1 245
1 246
1 247
1 248
1 249
1 250
1 251
1 252
1 253
1 254
1 255
1 256
1 257
1 258
1 259
1 260
1 261
1 262
1 263
1 264
1 265
1 266
1 267
1 268
1 269
1 270
1 271
1 272
1 273
1 274
1 275
1 276
1 277
1 278
1 279
1 280
1 281
1 282
1 283
1 284
1 285
1 286
1 287
1 288
1 289
1 290
1 291
1 292
1 293
1 294
1 295
1 296
1 297
1 298
1 299
1 300
1 301
1 302
1 303
1 304
1 305
1 306
1 307
1 308
1 309
1 310
1 311
1 312
1 313
1 314
1 315
1 316
1 317
1 318
1 319
1 320
1 321
1 322
1 323
1 324
1 325
1 326
1 327
1 328
1 329
1 330
1 331
1 332
1 333
1 334
1 335
1 336
1 337
1 338
1 339
1 340
1 341
1 342
1 343
1 344
1 345
1 346
1 347
1 348
1 349
1 350
1 351
1 352
1 353
1 354
1 355
1 356
1 357
1 358
1 359
1 360
1 361
1 362
1 363
1 364
1 365
1 366
1 367
1 368
1 369
1 370
1 371
1 372
1 373
1 374
1 375
1 376
1 377
1 378
1 379
1 380
1 381
1 382
1 383
1 384
1 385
1 386
1 387
1 388
1 389
1 390
1 391
1 392
1 393
1 394
1 395
1 396
1 397
1 398
1 399
1 400
1 401
1 402
1 403
1 404
1 405
1 406
1 407
1 408
1 409
1 410
1 411
1 412
1 413
1 414
1 415
1 416
1 417
1 418
1 419
1 420
1 421
1 422
1 423
1 424
1 425
1 426
1 427
1 428
1 429
1 430
1 431
1 432
1 433
1 434
1 435
1 436
1 437
1 438
1 439
1 440
1 441
1 442
1 443
1 444
1 445
1 446
1 447
1 448
1 449
1 450
1 451
1 452
1 453
1 454
1 455
1 456
1 457
1 458
1 459
1 460
1 461
1 462
1 463
1 464
1 465
1 466
1 467
1 468
1 469
1 470
1 471
1 472
1 473
1 474
1 475
1 476
1 477
1 478
1 479
1 480
1 481
1 482
1 483
1 484
1 485
1 486
1 487
1 488
1 489
1 490
1 491
1 492
1 493
1 494
1 495
1 496
1 497
1 498
1 499
1 500
1 501
1 502
1 503
1 504
1 505
1 506
1 507
1 508
1 509
1 510
1 511
1 512
1 513
1 514
1 515
1 516
1 517
1 518
1 519
1 520
1 521
1 522
1 523
1 524
1 525
1 526
1 527
1 528
1 529
1 530
1 531
1 532
1 533
1 534
1 535
1 536
1 537
1 538
1 539
1 540
1 541
1 542
1 543
1 544
1 545
1 546
1 547
1 548
1 549
1 550
1 551
1 552
1 553
1 554
1 555
1 556
1 557
1 558
1 559
1 560
1 561
1 562
1 563
1 564
1 565
1 566
1 567
1 568
1 569
1 570
1 571
1 572
1 573
1 574
1 575
1 576
1 577
1 578
1 579
1 580
1 581
1 582
1 583
1 584
1 585
1 586
1 587
1 588
1 589
1 590
1 591
1 592
1 593
1 594
1 595
1 596
1 597
1 598
1 599
1 600
1 601
1 602
1 603
1 604
1 605
1 606
1 607
1 608
1 609
1 610
1 611
1 612
1 613
1 614
1 615
1 616
1 617
1 618
1 619
1 620
1 621
1 622
1 623
1 624
1 625
1 626
1 627
1 628
1 629
1 630
1 631
1 632
1 633
1 634
1 635
1 636
1 637
1 638
1 639
1 640
1 641
1 642
1 643
1 644
1 645
1 646
1 647
1 648
1 649
1 650
1 651
1 652
1 653
1 654
1 655
1 656
1 657
1 658
1 659
1 660
1 661
1 662
1 663
1 664
1 665
1 666
1 667
1 668
1 669
1 670
1 671
1 672
1 673
1 674
1 675
1 676
1 677
1 678
1 679
1 680
1 681
1 682
1 683
1 684
1 685
1 686
1 687
1 688
1 689
1 690
1 691
1 692
1 693
1 694
1 695
1 696
1 697
1 698
1 699
1 700
1 701
1 702
1 703
1 704
1 705
1 706
1 707
1 708
1 709
1 710
1 711
1 712
1 713
1 714
1 715
1 716
1 717
1 718
1 719
1 720
1 721
1 722
1 723
1 724
1 725
1 726
1 727
1 728
1 729
1 730
1 731
1 732
1 733
1 734
1 735
1 736
1 737
1 738
1 739
1 740
1 741
1 742
1 743
1 744
1 745
1 746
1 747
1 748
1 749
1 750
1 751
1 752
1 753
1 754
1 755
1 756
1 757
1 758
1 759
1 760
1 761
1 762
1 763
1 764
1 765
1 766
1 767
1 768
1 769
1 770
1 771
1 772
1 773
1 774
1 775
1 776
1 777
1 778
1 779
1 780
1 781
1 782
1 783
1 784
1 785
1 786
1 787
1 788
1 789
1 790
1 791
1 792
1 793
1 794
1 795
1 796
1 797
1 798
1 799
1 800
1 801
1 802
1 803
1 804
1 805
1 806
1 807
1 808
1 809
1 810
1 811
1 812
1 813
1 814
1 815
1 816
1 817
1 818
1 819
1 820
1 821
1 822
1 823
1 824
1 825
1 826
1 827
1 828
1 829
1 830
1 831
1 832
1 833
1 834
1 835
1 836
1 837
1 838
1 839
1 840
1 841
1 842
1 843
1 844
1 845
1 846
1 847
1 848
1 849
1 850
1 851
1 852
1 853
1 854
1 855
1 856
1 857
1 858
1 859
1 860
1 861
1 862
1 863
1 864
1 865
1 866
1 867
1 868
1 869
1 870
1 871
1 872
1 873
1 874
1 875
1 876
1 877
1 878
1 879
1 880
1 881
1 882
1 883
1 884
1 885
1 886
1 887
1 888
1 889
1 890
1 891
1 892
1 893
1 894
1 895
1 896
1 897
1 898
1 899
1 900
1 901
1 902
1 903
1 904
1 905
1 906
1 907
1 908
1 909
1 910
1 911
1 912
1 913
1 914
1 915
1 916
1 917
1 918
1 919
1 920
1 921
1 922
1 923
1 924
1 925
1 926
1 927
1 928
1 929
1 930
1 931
1 932
1 933
1 934
1 935
1 936
1 937
1 938
1 939
1 940
1 941
1 942
1 943
1 944
1 945
1 946
1 947
1 948
1 949
1 950
1 951
1 952
1 953
1 954
1 955
1 956
1 957
1 958
1 959
1 960
1 961
1 962
1 963
1 964
1 965
1 966
1 967
1 968
1 969
1 970
1 971
1 972
1 973
1 974
1 975
1 976
1 977
1 978
1 979
1 980
1 981
1 982
1 983
1 984
1 985
1 986
1 987
1 988
1 989
1 990
1 991
1 992
1 993
1 994
1 995
1 996
1 997
1 998
1 999
1 1000
1 1001
1 1002
1 1003
1 1004
1 1005
1 1006
1 1007
1 1008
1 1009
1 1010
1 1011
1 1012
1 1013
1 1014
1 1015
1 1016
1 1017
1 1018
1 1019
1 1020
1 1021
1 1022
1 1023
1 1024
1 1025
1 1026
1 1027
1 1028
1 1029
1 1030
1 1031
1 1032
1 1033
1 1034
1 1035
1 1036
1 1037
1 1038
1 1039
1 1040
1 1041
1 1042
1 1043
1 1044
1 1045
1 1046
1 1047
1 1048
1 1049
1 1050
1 1051
1 1052
1 1053
1 1054
1 1055
1 1056
1 1057
1 1058
1 1059
1 1060
1 1061
1 1062
1 1063
1 1064
1 1065
1 1066
1 1067
1 1068
1 1069
1 1070
1 1071
1 1072
1 1073
1 1074
1 1075
1 1076
1 1077
1 1078
1 1079
1 1080
1 1081
1 1082
1 1083
1 1084
1 1085
1 1086
1 1087
1 1088
1 1089
1 1090
1 1091
1 1092
1 1093
1 1094
1 1095
1 1096
1 1097
1 1098
1 1099
1 1100
1 1101
1 1102
1 1103
1 1104
1 1105
1 1106
1 1107
1 1108
1 1109
1 1110
1 1111
1 1112
1 1113
1 1114
1 1115
1 1116
1 1117
1 1118
1 1119
1 1120
1 1121
1 1122
1 1123
1 1124
1 1125
1 1126
1 1127
1 1128
1 1129
1 1130
1 1131
1 1132
1 1133
1 1134
1 1135
1 1136
1 1137
1 1138
1 1139
1 1140
1 1141
1 1142
1 1143
1 1144
1 1145
1 1146
1 1147
1 1148
1 1149
1 1150
1 1151
1 1152
1 1153
1 1154
1 1155
1 1156
1 1157
1 1158
1 1159
1 1160
1 1161
1 1162
1 1163
1 1164
1 1165
1 1166
1 1167
1 1168
1 1169
1 1170
1 1171
1 1172
1 1173
1 1174
1 1175
1 1176
1 1177
1 1178
1 1179
1 1180
1 1181
1 1182
1 1183
1 1184
1 1185
1 1186
1 1187
1 1188
1 1189
1 1190
1 1191
1 1192
1 1193
1 1194
1 1195
1 1196
1 1197
1 1198
1 1199
1 1200
1 1201
1 1202
1 1203
1 1204
1 1205
1 1206
1 1207
1 1208
1 1209
1 1210
1 1211
1 1212
1 1213
1 1214
1 1215
1 1216
1 1217
1 1218
1 1219
1 1220
1 1221
1 1222
1 1223
1 1224
1 1225
1 1226
1 1227
1 1228
1 1229
1 1230
1 1231
1 1232
1 1233
1 1234
1 1235
1 1236
1 1237
1 1238
1 1239
1 1240
1 1241
1 1242
1 1243
1 1244
1 1245
1 1246
1 1247
1 1248
1 1249
1 1250
1 1251
1 1252
1 1253
1 1254
1 1255
1 1256
1 1257
1 1258
1 1259
1 1260
1 1261
1 1262
1 1263
1 1264
1 1265
1 1266
1 1267
1 1268
1 1269
1 1270
1 1271
1 1272
1 1273
1 1274
1 1275
1 1276
1 1277
1 1278
1 1279
1 1280
1 1281
1 1282
1 1283
1 1284
1 1285
1 1286
1 1287
1 1288
1 1289
1 1290
1 1291
1 1292
1 1293
1 1294
1 1295
1 1296
1 1297
1 1298
1 1299
1 1300
1 1301
1 1302
1 1303
1 1304
1 1305
1 1306
1 1307
1 1308
1 1309
1 1310
1 1311
1 1312
1 1313
1 1314
1 1315
1 1316
1 1317
1 1318
1 1319
1 1320
1 1321
1 1322
1 1323
1 1324
1 1325
1 1326
1 1327
1 1328
1 1329
1 1330
1 1331
1 1332
1 1333
1 1334
1 1335
1 1336
1 1337
1 1338
1 1339
1 1340
1 1341
1 1342
1 1343
1 1344
1 1345
1 1346
1 1347
1 1348
1 1349
1 1350
1 1351
1 1352
1 1353
1 1354
1 1355
1 1356
1 1357
1 1358
1 1359
1 1360
1 1361
1 1362
1 1363
1 1364
1 1365
1 1366
1 1367
1 1368
1 1369
1 1370
1 1371
1 1372
1 1373
1 1374
1 1375
1 1376
1 1377
1 1378
1 1379
1 1380
1 1381
1 1382
1 1383
1 1384
1 1385
1 1386
1 1387
1 1388
1 1389
1 1390
1 1391
1 1392
1 1393
1 1394
1 1395
1 1396
1 1397
1 1398
1 1399
1 1400
1 1401
1 1402
1 1403
1 1404
1 1405
1 1406
1 1407
1 1408
1 1409
1 1410
1 1411
1 1412
1 1413
1 1414
1 1415
1 1416
1 1417
1 1418
1 1419
1 1420
1 1421
1 1422
1 1423
1 1424
1 1425
1 1426
1 1427
1 1428
1 1429
1 1430
1 1431
1 1432
1 1433
1 1434
1 1435
1 1436
1 1437
1 1438
1 1439
1 1440
1 1441
1 1442
1 1443
1 1444
1 1445
1 1446
1 1447
1 1448
1 1449
1 1450
1 1451
1 1452
1 1453
1 1454
1 1455
1 1456
1 1457
1 1458
1 1459
1 1460
1 1461
1 1462
1 1463
1 1464
1 1465
1 1466
1 1467
1 1468
1 1469
1 1470
1 1471
1 1472
1 1473
1 1474
1 1475
1 1476
1 1477
1 1478
1 1479
1 1480
1 1481
1 1482
1 1483
1 1484
1 1485
1 1486
1 1487
1 1488
1 1489
1 1490
1 1491
1 1492
1 1493
1 1494
1 1495
1 1496
1 1497
1 1498
1 1499
1 1500
1 1501
1 1502
1 1503
1 1504
1 1505
1 1506
1 1507
1 1508
1 1509
1 1510
1 1511
1 1512
1 1513
1 1514
1 1515
1 1516
1 1517
1 1518
1 1519
1 1520
1 1521
1 1522
1 1523
1 1524
1 1525
1 1526
1 1527
1 1528
1 1529
1 1530
1 1531
1 1532
1 1533
1 1534
1 1535
1 1536
1 1537
1 1538
1 1539
1 1540
1 1541
1 1542
1 1543
1 1544
1 1545
1 1546
1 1547
1 1548
1 1549
1 1550
1 1551
1 1552
1 1553
1 1554
1 1555
1 1556
1 1557
1 1558
1 1559
1 1560
1 1561
1 1562
1 1563
1 1564
1 1565
1 1566
1 1567
1 1568
1 1569
1 1570
1 1571
1 1572
1 1573
1 1574
1 1575
1 1576
1 1577
1 1578
1 1579
1 1580
1 1581
1 1582
1 1583
1 1584
1 1585
1 1586
1 1587
1 1588
1 1589
1 1590
1 1591
1 1592
1 1593
1 1594
1 1595
1 1596
1 1597
1 1598
1 1599
1 1600
1 1601
1 1602
1 1603
1 1604
1 1605
1 1606
1 1607
1 1608
1 1609
1 1610
1 1611
1 1612
1 1613
1 1614
1 1615
1 1616
1 1617
1 1618
1 1619
1 1620
1 1621
1 1622
1 1623
1 1624
1 1625
1 1626
1 1627
1 1628
1 1629
1 1630
1 1631
1 1632
1 1633
1 1634
1 1635
1 1636
1 1637
1 1638
1 1639
1 1640
1 1641
1 1642
1 1643
1 1644
1 1645
1 1646
1 1647
1 1648
1 1649
1 1650
1 1651
1 1652
1 1653
1 1654
1 1655
1 1656
1 1657
1 1658
1 1659
1 1660
1 1661
1 1662
1 1663
1 1664
1 1665
1 1666
1 1667
1 1668
1 1669
1 1670
1 1671
1 1672
1 1673
1 1674
1 1675
1 1676
1 1677
1 1678
1 1679
1 1680
1 1681
1 1682
1 1683
1 1684
1 1685
1 1686
1 1687
1 1688
1 1689
1 1690
1 1691
1 1692
1 1693
1 1694
1 1695
1 1696
1 1697
1 1698
1 1699
1 1700
1 1701
1 1702
1 1703
1 1704
1 1705
1 1706
1 1707
1 1708
1 1709
1 1710
1 1711
1 1712
1 1713
1 1714
1 1715
1 1716
1 1717
1 1718
1 1719
1 1720
1 1721
1 1722
1 1723
1 1724
1 1725
1 1726
1 1727
1 1728
1 1729
1 1730
1 1731
1 1732
1 1733
1 1734
1 1735
1 1736
1 1737
1 1738
1 1739
1 1740
1 1741
1 1742
1 1743
1 1744
1 1745
1 1746
1 1747
1 1748
1 1749
1 1750
1 1751
1 1752
1 1753
1 1754
1 1755
1 1756
1 1757
1 1758
1 1759
1 1760
1 1761
1 1762
1 1763
1 1764
1 1765
1 1766
1 1767
1 1768
1 1769
1 1770
1 1771
1 1772
1 1773
1 1774
1 1775
1 1776
1 1777
1 1778
1 1779
1 1780
1 1781
1 1782
1 1783
1 1784
1 1785
1 1786
1 1787
1 1788
1 1789
1 1790
1 1791
1 1792
1 1793
1 1794
1 1795
1 1796
1 1797
1 1798
1 1799
1 1800
1 1801
1 1802
1 1803
1 1804
1 1805
1 1806
1 1807
1 1808
1 1809
1 1810
1 1811
1 1812
1 1813
1 1814
1 1815
1 1816
1 1817
1 1818
1 1819
1 1820
1 1821
1 1822
1 1823
1 1824
1 1825
1 1826
1 1827
1 1828
1 1829
1 1830
1 1831
1 1832
1 1833
1 1834
1 1835
1 1836
1 1837
1 1838
1 1839
1 1840
1 1841
1 1842
1 1843
1 1844
1 1845
1 1846
1 1847
1 1848
1 1849
1 1850
1 1851
1 1852
1 1853
1 1854
1 1855
1 1856
1 1857
1 1858
1 1859
1 1860
1 1861
1 1862
1 1863
1 1864
1 1865
1 1866
1 1867
1 1868
1 1869
1 1870
1 1871
1 1872
1 1873
1 1874
1 1875
1 1876
1 1877
1 1878
1 1879
1 1880
1 1881
1 1882
1 1883
1 1884
1 1885
1 1886
1 1887
1 1888
1 1889
1 1890
1 1891
1 1892
1 1893
1 1894
1 1895
1 1896
1 1897
1 1898
1 1899
1 1900
1 1901
1 1902
1 1903
1 1904
1 1905
1 1906
1 1907
1 1908
1 1909
1 1910
1 1911
1 1912
1 1913
1 1914
1 1915
1 1916
1 1917
1 1918
1 1919
1 1920
1 1921
1 1922
1 1923
1 1924
1 1925
1 1926
1 1927
1 1928
1 1929
1 1930
1 1931
1 1932
1 1933
1 1934
1 1935
1 1936
1 1937
1 1938
1 1939
1 1940
1 1941
1 1942
1 1943
1 1944
1 1945
1 1946
1 1947
1 1948
1 1949
1 1950
1 1951
1 1952
1 1953
1 1954
1 1955
1 1956
1 1957
1 1958
1 1959
1 1960
1 1961
1 1962
1 1963
1 1964
1 1965
1 1966
1 1967
1 1968
1 1969
1 1970
1 1971
1 1972
1 1973
1 1974
1 1975
1 1976
1 1977
1 1978
1 1979
1 1980
1 1981
1 1982
1 1983
1 1984
1 1985
1 1986
1 1987
1 1988
1 1989
1 1990
1 1991
1 1992
1 1993
1 1994
1 1995
1 1996
1 1997
1 1998
1 1999
1 2000
1 2001
1 2002
1 2003
1 2004
1 2005
1 2006
1 2007
1 2008
1 2009
1 2010
1 2011
1 2012
1 2013
1 2014
1 2015
1 2016
1 2017
1 2018
1 2019
1 2020
1 2021
1 2022
1 2023
1 2024
1 2025
1 2026
1 2027
1 2028
1 2029
1 2030
1 2031
1 2032
1 2033
1 2034
1 2035
1 2036
1 2037
1 2038
1 2039
1 2040
1 2041
1 2042
1 2043
1 2044
1 2045
1 2046
1 2047
1 2048
1 2049
1 2050
1 2051
1 2052
1 2053
1 2054
1 2055
1 2056
1 2057
1 2058
1 2059
1 2060
1 2061
1 2062
1 2063
1 2064
1 2065
1 2066
1 2067
1 2068
1 2069
1 2070
1 2071
1 2072
1 2073
1 2074
1 2075
1 2076
1 2077
1 2078
1 2079
1 2080
1 2081
1 2082
1 2083
1 2084
1 2085
1 2086
1 2087
1 2088
1 2089
1 2090
1 2091
1 2092
1 2093
1 2094
1 2095
1 2096
1 2097
1 2098
1 2099
1 2100
1 2101
1 2102
1 2103
1 2104
1 2105
1 2106
1 2107
1 2108
1 2109
1 2110
1 2111
1 2112
1 2113
1 2114
1 2115
1 2116
1 2117
1 2118
1 2119
1 2120
1 2121
1 2122
1 2123
1 2124
1 2125
1 2126
1 2127
1 2128
1 2129
1 2130
1 2131
1 2132
1 2133
1 2134
1 2135
1 2136
1 2137
1 2138
1 2139
1 2140
1 2141
1 2142
1 2143
1 2144
1 2145
1 2146
1 2147
1 2148
1 2149
1 2150
1 2151
1 2152
1 2153
1 2154
1 2155
1 2156
1 2157
1 2158
1 2159
1 2160
1 2161
1 2162
1 2163
1 2164
1 2165
1 2166
1 2167
1 2168
1 2169
1 2170
1 2171
1 2172
1 2173
1 2174
1 2175
1 2176
1 2177
1 2178
1 2179
1 2180
1 2181
1 2182
1 2183
1 2184
1 2185
1 2186
1 2187
1 2188
1 2189
1 2190
1 2191
1 2192
1 2193
1 2194
1 2195
1 2196
1 2197
1 2198
1 2199
1 2200
1 2201
1 2202
1 2203
1 2204
1 2205
1 2206
1 2207
1 2208
1 2209
1 2210
1 2211
1 2212
1 2213
1 2214
1 2215
1 2216
1 2217
1 2218
1 2219
1 2220
1 2221
1 2222
1 2223
1 2224
1 2225
1 2226
1 2227
1 2228
1 2229
1 2230
1 2231
1 2232
1 2233
1 2234
1 2235
1 2236
1 2237
1 2238
1 2239
1 2240
1 2241
1 2242
1 2243
1 2244
1 2245
1 2246
1 2247
1 2248
1 2249
1 2250
1 2251
1 2252
1 2253
1 2254
1 2255
1 2256
1 2257
1 2258
1 2259
1 2260
1 2261
1 2262
1 2263
1 2264
1 2265
1 2266
1 2267
1 2268
1 2269
1 2270
1 2271
1 2272
1 2273
1 2274
1 2275
1 2276
1 2277
1 2278
1 2279
1 2280
1 2281
1 2282
1 2283
1 2284
1 2285
1 2286
1 2287
1 2288
1 2289
1 2290
1 2291
1 2292
1 2293
1 2294
1 2295
1 2296
1 2297
1 2298
1 2299
1 2300
1 2301
1 2302
1 2303
1 2304
1 2305
1 2306
1 2307
1 2308
1 2309
1 2310
1 2311
1 2312
1 2313
1 2314
1 2315
1 2316
1 2317
1 2318
1 2319
1 2320
1 2321
1 2322
1 2323
1 2324
1 2325
1 2326
1 2327
1 2328
1 2329
1 2330
1 2331
1 2332
1 2333
1 2334
1 2335
1 2336
1 2337
1 2338
1 2339
1 2340
1 2341
1 2342
1 2343
1 2344
1 2345
1 2346
1 2347
1 2348
1 2349
1 2350
1 2351
1 2352
1 2353
1 2354
1 2355
1 2356
1 2357
1 2358
1 2359
1 2360
1 2361
1 2362
1 2363
1 2364
1 2365
1 2366
1 2367
1 2368
1 2369
1 2370
1 2371
1 2372
1 2373
1 2374
1 2375
1 2376
1 2377
1 2378
1 2379
1 2380
1 2381
1 2382
1 2383
1 2384
1 2385
1 2386
1 2387
1 2388
1 2389
1 2390
1 2391
1 2392
1 2393
1 2394
1 2395
1 2396
1 2397
1 2398
1 2399
1 2400
1 2401
1 2402
1 2403
1 2404
1 2405
1 2406
1 2407
1 2408
1 2409
1 2410
1 2411
1 2412
1 2413
1 2414
1 2415
1 2416
1 2417
1 2418
1 2419
1 2420
1 2421
1 2422
1 2423
1 2424
1 2425
1 2426
1 2427
1 2428
1 2429
1 2430
1 2431
1 2432
1 2433
1 2434
1 2435
1 2436
1 2437
1 2438
1 2439
1 2440
1 2441
1 2442
1 2443
1 2444
1 2445
1 2446
1 2447
1 2448
1 2449
1 2450
1 2451
1 2452
1 2453
1 2454
1 2455
1 2456
1 2457
1 2458
1 2459
1 2460
1 2461
1 2462
1 2463
1 2464
1 2465
1 2466
1 2467
1 2468
1 2469
1 2470
1 2471
1 2472
1 2473
1 2474
1 2475
1 2476
1 2477
1 2478
1 2479
1 2480
1 2481
1 2482
1 2483
1 2484
1 2485
1 2486
1 2487
1 2488
1 2489
1 2490
1 2491
1 2492
1 2493
1 2494
1 2495
1 2496
1 2497
1 2498
1 2499
1 2500
1 2501
1 2502
1 2503
1 2504
1 2505
1 2506
1 2507
1 2508
1 2509
1 2510
1 2511
1 2512
1 2513
1 2514
1 2515
1 2516
1 2517
1 2518
1 2519
1 2520
1 2521
1 2522
1 2523
1 2524
1 2525
1 2526
1 2527
1 2528
1 2529
1 2530
1 2531
1 2532
1 2533
1 2534
1 2535
1 2536
1 2537
1 2538
1 2539
1 2540
1 2541
1 2542
1 2543
1 2544
1 2545
1 2546
1 2547
1 2548
1 2549
1 2550
1 2551
1 2552
1 2553
1 2554
1 2555
1 2556
1 2557
1 2558
1 2559
1 2560
1 2561
1 2562
1 2563
1 2564
1 2565
1 2566
1 2567
1 2568
1 2569
1 2570
1 2571
1 2572
1 2573
1 2574
1 2575
1 2576
1 2577
1 2578
1 2579
1 2580
1 2581
1 2582
1 2583
1 2584
1 2585
1 2586
1 2587
1 2588
1 2589
1 2590
1 2591
1 2592
1 2593
1 2594
1 2595
1 2596
1 2597
1 2598
1 2599
1 2600
1 2601
1 2602
1 2603
1 2604
1 2605
1 2606
1 2607
1 2608
1 2609
1 2610
1 2611
1 2612
1 2613
1 2614
1 2615
1 2616
1 2617
1 2618
1 2619
1 2620
1 2621
1 2622
1 2623
1 2624
1 2625
1 2626
1 2627
1 2628
1 2629
1 2630
1 2631
1 2632
1 2633
1 2634
1 2635
1 2636
1 2637
1 2638
1 2639
1 2640
1 2641
1 2642
1 2643
1 2644
1 2645
1 2646
1 2647
1 2648
1 2649
1 2650
1 2651
1 2652
1 2653
1 2654
1 2655
1 2656
1 2657
1 2658
1 2659
1 2660
1 2661
1 2662
1 2663
1 2664
1 2665
1 2666
1 2667
1 2668
1 2669
1 2670
1 2671
1 2672
1 2673
1 2674
1 2675
1 2676
1 2677
1 2678
1 2679
1 2680
1 2681
1 2682
1 2683
1 2684
1 2685
1 2686
1 2687
1 2688
1 2689
1 2690
1 2691
1 2692
1 2693
1 2694
1 2695
1 2696
1 2697
1 2698
1 2699
1 2700
1 2701
1 2702
1 2703
1 2704
1 2705
1 2706
1 2707
1 2708
1 2709
1 2710
1 2711
1 2712
1 2713
1 2714
1 2715
1 2716
1 2717
1 2718
1 2719
1 2720
1 2721
1 2722
1 2723
1 2724
1 2725
1 2726
1 2727
1 2728
1 2729
1 2730
1 2731
1 2732
1 2733
1 2734
1 2735
1 2736
1 2737
1 2738
1 2739
1 2740
1 2741
1 2742
1 2743
1 2744
1 2745
1 2746
1 2747
1 2748
1 2749
1 2750
1 2751
1 2752
1 2753
1 2754
1 2755
1 2756
1 2757
1 2758
1 2759
1 2760
1 2761
1 2762
1 2763
1 2764
1 2765
1 2766
1 2767
1 2768
1 2769
1 2770
1 2771
1 2772
1 2773
1 2774
1 2775
1 2776
1 2777
1 2778
1 2779
1 2780
1 2781
1 2782
1 2783
1 2784
1 2785
1 2786
1 2787
1 2788
1 2789
1 2790
1 2791
1 2792
1 2793
1 2794
1 2795
1 2796
1 2797
1 2798
1 2799
1 2800
1 2801
1 2802
1 2803
1 2804
1 2805
1 2806
1 2807
1 2808
1 2809
1 2810
1 2811
1 2812
1 2813
1 2814
1 2815
1 2816
1 2817
1 2818
1 2819
1 2820
1 2821
1 2822
1 2823
1 2824
1 2825
1 2826
1 2827
1 2828
1 2829
1 2830
1 2831
1 2832
1 2833
1 2834
1 2835
1 2836
1 2837
1 2838
1 2839
1 2840
1 2841
1 2842
1 2843
1 2844
1 2845
1 2846
1 2847
1 2848
1 2849
1 2850
1 2851
1 2852
1 2853
1 2854
1 2855
1 2856
1 2857
1 2858
1 2859
1 2860
1 2861
1 2862
1 2863
1 2864
1 2865
1 2866
1 2867
1 2868
1 2869
1 2870
1 2871
1 2872
1 2873
1 2874
1 2875
1 2876
1 2877
1 2878
1 2879
1 2880
1 2881
1 2882
1 2883
1 2884
1 2885
1 2886
1 2887
1 2888
1 2889
1 2890
1 2891
1 2892
1 2893
1 2894
1 2895
1 2896
1 2897
1 2898
1 2899
1 2900
1 2901
1 2902
1 2903
1 2904
1 2905
1 2906
1 2907
1 2908
1 2909
1 2910
1 2911
1 2912
1 2913
1 2914
1 2915
1 2916
1 2917
1 2918
1 2919
1 2920
1 2921
1 2922
1 2923
1 2924
1 2925
1 2926
1 2927
1 2928
1 2929
1 2930
1 2931
1 2932
1 2933
1 2934
1 2935
1 2936
1 2937
1 2938
1 2939
1 2940
1 2941
1 2942
1 2943
1 2944
1 2945
1 2946
1 2947
1 2948
1 2949
1 2950
1 2951
1 2952
1 2953
1 2954
1 2955
1 2956
1 2957
1 2958
1 2959
1 2960
1 2961
1 2962
1 2963
1 2964
1 2965
1 2966
1 2967
1 2968
1 2969
1 2970
1 2971
1 2972
1 2973
1 2974
POINT_DATA 2975
SCALARS Idp unsigned_int
LOOKUP_TABLE default
0 1 39 40 41 80 81 82 121 122 123 162 163 164 203 204 205 244 245 246 285 286 287 326 327 328 367 368 369 408 409 410 449 450 451 461 462 463 471 472 473 481 482 483 491 492 493 501 502 503 511 512 513 521 522 523 531 532 533 541 542 543 551 552 2 3 4 5 6 7 8 9 42 43 44 45 46 47 48 49 83 84 85 86 87 88 89 90 124 125 126 127 128 129 130 131 165 166 167 168 169 170 171 172 206 207 208 209 210 211 212 213 247 248 249 250 251 252 253 254 288 289 290 291 292 293 294 295 329 330 331 332 333 334 335 336 370 371 372 373 374 375 376 377 411 412 413 414 415 416 417 418 452 453 454 464 465 474 475 484 485 494 495 504 505 514 515 524 525 534 535 544 545 553 554 10 11 12 13 14 15 16 17 18 50 51 52 53 54 55 56 57 58 91 92 93 94 95 96 97 98 99 132 133 134 135 136 137 138 139 140 173 174 175 176 177 178 179 180 181 214 215 216 217 218 219 220 221 222 255 256 257 258 259 260 261 262 263 296 297 298 299 300 301 302 303 304 337 338 339 340 341 342 343 344 345 378 379 380 381 382 383 384 385 386 419 420 421 422 423 424 425 426 427 19 20 21 22 23 24 25 26 59 60 61 62 63 64 65 66 100 101 102 103 104 105 106 107 141 142 143 144 145 146 147 148 182 183 184 185 186 187 188 189 223 224 225 226 227 228 229 230 264 265 266 267 268 269 270 271 305 306 307 308 309 310 311 312 346 347 348 349 350 351 352 353 387 388 389 390 391 392 393 394 428 429 430 431 432 433 434 435 27 28 29 30 31 32 33 34 35 67 68 69 70 71 72 73 74 75 108 109 110 111 112 113 114 115 116 149 150 151 152 153 154 155 156 157 190 191 192 193 194 195 196 197 198 231 232 233 234 235 236 237 238 239 272 273 274 275 276 277 278 279 280 313 314 315 316 317 318 319 320 321 354 355 356 357 358 359 360 361 362 395 396 397 398 399 400 401 402 403 436 437 438 439 440 441 442 443 444 455 456 466 476 486 496 506 516 526 536 546 555 36 37 38 76 77 78 79 117 118 119 120 158 159 160 161 199 200 201 202 240 241 242 243 281 282 283 284 322 323 324 325 363 364 365 366 404 405 406 407 445 446 447 448 457 458 459 460 467 468 469 470 477 478 479 480 487 488 489 490 497 498 499 500 507 508 509 510 517 518 519 520 527 528 529 530 537 538 539 540 547 548 549 550 556 557 558 559 560 561 562 563 564 565 566 567 568 569 570 571 572 573 574 575 576 577 578 579 580 581 582 583 584 585 586 587 588 589 590 591 592 593 594 595 596 597 598 599 600 601 602 603 604 605 606 607 608 609 610 611 612 613 614 615 616 617 618 619 620 621 622 623 624 625 626 627 628 629 630 631 632 633 634 635 636 637 638 639 640 641 642 643 644 645 646 647 648 649 650 651 652 653 654 655 656 657 658 659 660 661 662 663 664 665 666 667 668 669 670 671 672 673 674 675 676 677 678 679 680 681 682 683 684 685 686 687 688 689 690 691 692 693 694 695 696 697 698 699 700 701 702 703 704 705 706 707 708 709 710 711 712 713 714 715 716 717 718 719 720 721 722 723 724 725 726 727 728 729 730 731 732 733 734 735 736 737 738 739 740 741 742 743 744 745 746 747 748 749 750 751 752 753 754 755 756 757 758 759 760 761 762 763 764 765 766 767 768 769 770 771 772 773 774 775 776 777 778 779 780 781 782 783 784 785 786 787 788 789 790 791 792 793 794 795 796 797 798 799 800 801 802 803 804 805 806 807 808 809 810 811 812 813 814 815 816 817 818 819 820 821 822 823 824 825 826 827 828 829 830 831 832 833 834 835 836 837 838 839 840 841 842 843 844 845 846 847 848 849 850 851 852 853 854 855 856 857 858 859 860 861 862 863 864 865 866 867 868 869 870 871 872 873 874 875 876 877 878 879 880 881 882 883 884 885 886 887 888 889 890 891 892 893 894 895 896 897 898 899 900 901 902 903 904 905 906 907 908 909 910 911 912 913 914 915 916 917 918 919 920 921 922 923 924 925 926 927 928 929 930 931 932 933 934 935 936 937 938 939 940 941 942 943 944 945 946 947 948 949 950 951 952 953 954 955 956 957 958 959 960 961 962 963 964 965 966 967 968 969 970 971 972 973 974 975 976 977 978 979 980 981 982 983 984 985 986 987 988 989 990 991 992 993 994 995 996 997 998 999 1000 1001 1002 1003 1004 1005 1006 1007 1008 1009 1010 1011 1012 1013 1014 1015 1016 1017 1018 1019 1020 1021 1022 1023 1024 1025 1026 1027 1028 1029 1030 1031 1032 1033 1034 1035 1060 1061 1062 1063 1064 1065 1091 1092 1093 1094 1095 1096 1122 1123 1124 1125 1126 1127 1153 1154 1155 1156 1157 1158 1184 1185 1186 1187 1188 1189 1215 1216 1217 1218 1219 1220 1246 1247 1248 1249 1250 1251 1277 1278 1279 1280 1281 1282 1308 1309 1310 1311 1312 1313 1339 1340 1341 1342 1343 1344 1370 1371 1372 1373 1374 1375 1401 1402 1403 1404 1405 1406 1432 1433 1434 1435 1436 1437 1463 1464 1465 1466 1467 1468 1494 1495 1496 1497 1498 1499 1525 1526 1527 1528 1529 1530 1556 1557 1558 1559 1560 1561 1587 1588 1589 1590 1591 1592 1618 1619 1620 1621 1622 1623 1649 1650 1651 1652 1653 1654 1680 1681 1682 1683 1684 1685 1711 1712 1713 1714 1715 1716 1742 1743 1744 1745 1746 1747 1773 1774 1775 1776 1777 1778 1804 1805 1806 1807 1808 1809 1835 1836 1837 1838 1839 1840 1866 1867 1868 1869 1870 1871 1897 1898 1899 1900 1901 1902 1928 1929 1930 1931 1932 1933 1959 1960 1961 1962 1963 1964 1990 1991 1992 1993 1994 1995 2021 2022 2023 2024 2025 2026 2052 2053 2054 2055 2056 2057 2083 2084 2085 2086 2087 2088 2114 2115 2116 2117 2118 2119 2145 2146 2147 2148 2149 2150 2176 2177 2178 2179 2180 2181 2207 2208 2209 2210 2211 2212 2238 2239 2240 2241 2242 2243 2269 2270 2271 2272 2273 2274 2300 2301 2302 2303 2304 2305 2331 2332 2333 2334 2335 2336 2362 2363 2364 2365 2366 2367 2393 2394 2395 2396 2397 2398 2424 2425 2426 2427 2428 2429 2455 2456 2457 2458 2459 2460 2486 2487 2488 2489 2490 2491 2517 2518 2519 2520 2521 2522 2548 2549 2550 2551 2552 2553 2579 2580 2581 2582 2583 2584 2610 2611 2612 2613 2614 2615 2641 2642 2643 2644 2645 2646 2672 2673 2674 2675 2676 2677 2703 2704 2705 2706 2707 2708 2734 2735 2736 2737 2738 2763 2764 2765 2766 2767 2792 2793 2794 2795 2819 2820 2821 2822 2846 2847 2848 2871 2872 2894 2895 1036 1037 1038 1039 1040 1041 1042 1043 1044 1066 1067 1068 1069 1070 1071 1072 1073 1074 1097 1098 1099 1100 1101 1102 1103 1104 1105 1128 1129 1130 1131 1132 1133 1134 1135 1136 1159 1160 1161 1162 1163 1164 1165 1166 1167 1190 1191 1192 1193 1194 1195 1196 1197 1198 1221 1222 1223 1224 1225 1226 1227 1228 1229 1252 1253 1254 1255 1256 1257 1258 1259 1260 1283 1284 1285 1286 1287 1288 1289 1290 1291 1314 1315 1316 1317 1318 1319 1320 1321 1322 1345 1346 1347 1348 1349 1350 1351 1352 1353 1376 1377 1378 1379 1380 1381 1382 1383 1384 1407 1408 1409 1410 1411 1412 1413 1414 1415 1438 1439 1440 1441 1442 1443 1444 1445 1446 1469 1470 1471 1472 1473 1474 1475 1476 1477 1500 1501 1502 1503 1504 1505 1506 1507 1508 1531 1532 1533 1534 1535 1536 1537 1538 1539 1562 1563 1564 1565 1566 1567 1568 1569 1570 1593 1594 1595 1596 1597 1598 1599 1600 1601 1624 1625 1626 1627 1628 1629 1630 1631 1632 1655 1656 1657 1658 1659 1660 1661 1662 1663 1686 1687 1688 1689 1690 1691 1692 1693 1694 1717 1718 1719 1720 1721 1722 1723 1724 1725 1748 1749 1750 1751 1752 1753 1754 1755 1756 1779 1780 1781 1782 1783 1784 1785 1786 1787 1810 1811 1812 1813 1814 1815 1816 1817 1818 1841 1842 1843 1844 1845 1846 1847 1848 1849 1872 1873 1874 1875 1876 1877 1878 1879 1880 1903 1904 1905 1906 1907 1908 1909 1910 1911 1934 1935 1936 1937 1938 1939 1940 1941 1942 1965 1966 1967 1968 1969 1970 1971 1972 1973 1996 1997 1998 1999 2000 2001 2002 2003 2004 2027 2028 2029 2030 2031 2032 2033 2034 2035 2058 2059 2060 2061 2062 2063 2064 2065 2066 2089 2090 2091 2092 2093 2094 2095 2096 2097 2120 2121 2122 2123 2124 2125 2126 2127 2128 2151 2152 2153 2154 2155 2156 2157 2158 2159 2182 2183 2184 2185 2186 2187 2188 2189 2190 2213 2214 2215 2216 2217 2218 2219 2220 2221 2244 2245 2246 2247 2248 2249 2250 2251 2252 2275 2276 2277 2278 2279 2280 2281 2282 2283 2306 2307 2308 2309 2310 2311 2312 2313 2314 2337 2338 2339 2340 2341 2342 2343 2344 2345 2368 2369 2370 2371 2372 2373 2374 2375 2376 2399 2400 2401 2402 2403 2404 2405 2406 2407 2430 2431 2432 2433 2434 2435 2436 2437 2438 2461 2462 2463 2464 2465 2466 2467 2468 2469 2492 2493 2494 2495 2496 2497 2498 2499 2500 2523 2524 2525 2526 2527 2528 2529 2530 2531 2554 2555 2556 2557 2558 2559 2560 2561 2562 2585 2586 2587 2588 2589 2590 2591 2592 2593 2616 2617 2618 2619 2620 2621 2622 2623 2624 2647 2648 2649 2650 2651 2652 2653 2654 2655 2678 2679 2680 2681 2682 2683 2684 2685 2686 2709 2710 2711 2712 2713 2714 2715 2716 2717 2739 2740 2741 2742 2743 2744 2745 2746 2747 2768 2769 2770 2771 2772 2773 2774 2775 2776 2796 2797 2798 2799 2800 2801 2802 2803 2804 2823 2824 2825 2826 2827 2828 2829 2830 2831 2849 2850 2851 2852 2853 2854 2855 2856 2857 2873 2874 2875 2876 2877 2878 2879 2880 2881 2896 2897 2898 2899 2900 2901 2902 2903 2904 2917 2918 2919 2920 2921 2922 2923 2924 2925 2936 2937 2938 2939 2940 2941 2942 2943 2953 2954 2955 2956 2957 2958 2966 2967 2968 2969 1045 1046 1047 1048 1049 1050 1051 1052 1075 1076 1077 1078 1079 1080 1081 1082 1106 1107 1108 1109 1110 1111 1112 1113 1137 1138 1139 1140 1141 1142 1143 1144 1168 1169 1170 1171 1172 1173 1174 1175 1199 1200 1201 1202 1203 1204 1205 1206 1230 1231 1232 1233 1234 1235 1236 1237 1261 1262 1263 1264 1265 1266 1267 1268 1292 1293 1294 1295 1296 1297 1298 1299 1323 1324 1325 1326 1327 1328 1329 1330 1354 1355 1356 1357 1358 1359 1360 1361 1385 1386 1387 1388 1389 1390 1391 1392 1416 1417 1418 1419 1420 1421 1422 1423 1447 1448 1449 1450 1451 1452 1453 1454 1478 1479 1480 1481 1482 1483 1484 1485 1509 1510 1511 1512 1513 1514 1515 1516 1540 1541 1542 1543 1544 1545 1546 1547 1571 1572 1573 1574 1575 1576 1577 1578 1602 1603 1604 1605 1606 1607 1608 1609 1633 1634 1635 1636 1637 1638 1639 1640 1664 1665 1666 1667 1668 1669 1670 1671 1695 1696 1697 1698 1699 1700 1701 1702 1726 1727 1728 1729 1730 1731 1732 1733 1757 1758 1759 1760 1761 1762 1763 1764 1788 1789 1790 1791 1792 1793 1794 1795 1819 1820 1821 1822 1823 1824 1825 1826 1850 1851 1852 1853 1854 1855 1856 1857 1881 1882 1883 1884 1885 1886 1887 1888 1912 1913 1914 1915 1916 1917 1918 1919 1943 1944 1945 1946 1947 1948 1949 1950 1974 1975 1976 1977 1978 1979 1980 1981 2005 2006 2007 2008 2009 2010 2011 2012 2036 2037 2038 2039 2040 2041 2042 2043 2067 2068 2069 2070 2071 2072 2073 2074 2098 2099 2100 2101 2102 2103 2104 2105 2129 2130 2131 2132 2133 2134 2135 2136 2160 2161 2162 2163 2164 2165 2166 2167 2191 2192 2193 2194 2195 2196 2197 2198 2222 2223 2224 2225 2226 2227 2228 2229 2253 2254 2255 2256 2257 2258 2259 2260 2284 2285 2286 2287 2288 2289 2290 2291 2315 2316 2317 2318 2319 2320 2321 2322 2346 2347 2348 2349 2350 2351 2352 2353 2377 2378 2379 2380 2381 2382 2383 2384 2408 2409 2410 2411 2412 2413 2414 2415 2439 2440 2441 2442 2443 2444 2445 2446 2470 2471 2472 2473 2474 2475 2476 2477 2501 2502 2503 2504 2505 2506 2507 2508 2532 2533 2534 2535 2536 2537 2538 2539 2563 2564 2565 2566 2567 2568 2569 2570 2594 2595 2596 2597 2598 2599 2600 2601 2625 2626 2627 2628 2629 2630 2631 2632 2656 2657 2658 2659 2660 2661 2662 2663 2687 2688 2689 2690 2691 2692 2693 2694 2718 2719 2720 2721 2722 2723 2724 2725 2748 2749 2750 2751 2752 2753 2754 2755 2777 2778 2779 2780 2781 2782 2783 2784 2805 2806 2807 2808 2809 2810 2811 2812 2832 2833 2834 2835 2836 2837 2838 2839 2858 2859 2860 2861 2862 2863 2864 2865 2882 2883 2884 2885 2886 2887 2888 2889 2905 2906 2907 2908 2909 2910 2911 2912 2926 2927 2928 2929 2930 2931 2932 2933 2944 2945 2946 2947 2948 2949 2950 2951 2959 2960 2961 2962 2963 2964 2965 2970 2971 2972 2973 2974 1053 1054 1055 1056 1057 1058 1059 1083 1084 1085 1086 1087 1088 1089 1090 1114 1115 1116 1117 1118 1119 1120 1121 1145 1146 1147 1148 1149 1150 1151 1152 1176 1177 1178 1179 1180 1181 1182 1183 1207 1208 1209 1210 1211 1212 1213 1214 1238 1239 1240 1241 1242 1243 1244 1245 1269 1270 1271 1272 1273 1274 1275 1276 1300 1301 1302 1303 1304 1305 1306 1307 1331 1332 1333 1334 1335 1336 1337 1338 1362 1363 1364 1365 1366 1367 1368 1369 1393 1394 1395 1396 1397 1398 1399 1400 1424 1425 1426 1427 1428 1429 1430 1431 1455 1456 1457 1458 1459 1460 1461 1462 1486 1487 1488 1489 1490 1491 1492 1493 1517 1518 1519 1520 1521 1522 1523 1524 1548 1549 1550 1551 1552 1553 1554 1555 1579 1580 1581 1582 1583 1584 1585 1586 1610 1611 1612 1613 1614 1615 1616 1617 1641 1642 1643 1644 1645 1646 1647 1648 1672 1673 1674 1675 1676 1677 1678 1679 1703 1704 1705 1706 1707 1708 1709 1710 1734 1735 1736 1737 1738 1739 1740 1741 1765 1766 1767 1768 1769 1770 1771 1772 1796 1797 1798 1799 1800 1801 1802 1803 1827 1828 1829 1830 1831 1832 1833 1834 1858 1859 1860 1861 1862 1863 1864 1865 1889 1890 1891 1892 1893 1894 1895 1896 1920 1921 1922 1923 1924 1925 1926 1927 1951 1952 1953 1954 1955 1956 1957 1958 1982 1983 1984 1985 1986 1987 1988 1989 2013 2014 2015 2016 2017 2018 2019 2020 2044 2045 2046 2047 2048 2049 2050 2051 2075 2076 2077 2078 2079 2080 2081 2082 2106 2107 2108 2109 2110 2111 2112 2113 2137 2138 2139 2140 2141 2142 2143 2144 2168 2169 2170 2171 2172 2173 2174 2175 2199 2200 2201 2202 2203 2204 2205 2206 2230 2231 2232 2233 2234 2235 2236 2237 2261 2262 2263 2264 2265 2266 2267 2268 2292 2293 2294 2295 2296 2297 2298 2299 2323 2324 2325 2326 2327 2328 2329 2330 2354 2355 2356 2357 2358 2359 2360 2361 2385 2386 2387 2388 2389 2390 2391 2392 2416 2417 2418 2419 2420 2421 2422 2423 2447 2448 2449 2450 2451 2452 2453 2454 2478 2479 2480 2481 2482 2483 2484 2485 2509 2510 2511 2512 2513 2514 2515 2516 2540 2541 2542 2543 2544 2545 2546 2547 2571 2572 2573 2574 2575 2576 2577 2578 2602 2603 2604 2605 2606 2607 2608 2609 2633 2634 2635 2636 2637 2638 2639 2640 2664 2665 2666 2667 2668 2669 2670 2671 2695 2696 2697 2698 2699 2700 2701 2702 2726 2727 2728 2729 2730 2731 2732 2733 2756 2757 2758 2759 2760 2761 2762 2785 2786 2787 2788 2789 2790 2791 2813 2814 2815 2816 2817 2818 2840 2841 2842 2843 2844 2845 2866 2867 2868 2869 2870 2890 2891 2892 2893 2913 2914 2915 2916 2934 2935 2952 
FIELD FieldData 12
Idp 1 2975 float
0 1 39 40 41 80 81 82 121 122 123 162 163 164 203 204 205 244 245 246 285 286 287 326 327 328 367 368 369 408 409 410 449 450 451 461 462 463 471 472 473 481 482 483 491 492 493 501 502 503 511 512 513 521 522 523 531 532 533 541 542 543 551 552 2 3 4 5 6 7 8 9 42 43 44 45 46 47 48 49 83 84 85 86 87 88 89 90 124 125 126 127 128 129 130 131 165 166 167 168 169 170 171 172 206 207 208 209 210 211 212 213 247 248 249 250 251 252 253 254 288 289 290 291 292 293 294 295 329 330 331 332 333 334 335 336 370 371 372 373 374 375 376 377 411 412 413 414 415 416 417 418 452 453 454 464 465 474 475 484 485 494 495 504 505 514 515 524 525 534 535 544 545 553 554 10 11 12 13 14 15 16 17 18 50 51 52 53 54 55 56 57 58 91 92 93 94 95 96 97 98 99 132 133 134 135 136 137 138 139 140 173 174 175 176 177 178 179 180 181 214 215 216 217 218 219 220 221 222 255 256 257 258 259 260 261 262 263 296 297 298 299 300 301 302 303 304 337 338 339 340 341 342 343 344 345 378 379 380 381 382 383 384 385 386 419 420 421 422 423 424 425 426 427 19 20 21 22 23 24 25 26 59 60 61 62 63 64 65 66 100 101 102 103 104 105 106 107 141 142 143 144 145 146 147 148 182 183 184 185 186 187 188 189 223 224 225 226 227 228 229 230 264 265 266 267 268 269 270 271 305 306 307 308 309 310 311 312 346 347 348 349 350 351 352 353 387 388 389 390 391 392 393 394 428 429 430 431 432 433 434 435 27 28 29 30 31 32 33 34 35 67 68 69 70 71 72 73 74 75 108 109 110 111 112 113 114 115 116 149 150 151 152 153 154 155 156 157 190 191 192 193 194 195 196 197 198 231 232 233 234 235 236 237 238 239 272 273 274 275 276 277 278 279 280 313 314 315 316 317 318 319 320 321 354 355 356 357 358 359 360 361 362 395 396 397 398 399 400 401 402 403 436 437 438 439 440 441 442 443 444 455 456 466 476 486 496 506 516 526 536 546 555 36 37 38 76 77 78 79 117 118 119 120 158 159 160 161 199 200 201 202 240 241 242 243 281 282 283 284 322 323 324 325 363 364 365 366 404 405 406 407 445 446 447 448 457 458 459 460 467 468 469 470 477 478 479 480 487 488 489 490 497 498 499 500 507 508 509 510 517 518 519 520 527 528 529 530 537 538 539 540 547 548 549 550 556 557 558 559 560 561 562 563 564 565 566 567 568 569 570 571 572 573 574 575 576 577 578 579 580 581 582 583 584 585 586 587 588 589 590 591 592 593 594 595 596 597 598 599 600 601 602 603 604 605 606 607 608 609 610 611 612 613 614 615 616 617 618 619 620 621 622 623 624 625 626 627 628 629 630 631 632 633 634 635 636 637 638 639 640 641 642 643 644 645 646 647 648 649 650 651 652 653 654 655 656 657 658 659 660 661 662 663 664 665 666 667 668 669 670 671 672 673 674 675 676 677 678 679 680 681 682 683 684 685 686 687 688 689 690 691 692 693 694 695 696 697 698 699 700 701 702 703 704 705 706 707 708 709 710 711 712 713 714 715 716 717 718 719 720 721 722 723 724 725 726 727 728 729 730 731 732 733 734 735 736 737 738 739 740 741 742 743 744 745 746 747 748 749 750 751 752 753 754 755 756 757 758 759 760 761 762 763 764 765 766 767 768 769 770 771 772 773 774 775 776 777 778 779 780 781 782 783 784 785 786 787 788 789 790 791 792 793 794 795 796 797 798 799 800 801 802 803 804 805 806 807 808 809 810 811 812 813 814 815 816 817 818 819 820 821 822 823 824 825 826 827 828 829 830 831 832 833 834 835 836 837 838 839 840 841 842 843 844 845 846 847 848 849 850 851 852 853 854 855 856 857 858 859 860 861 862 863 864 865 866 867 868 869 870 871 872 873 874 875 876 877 878 879 880 881 882 883 884 885 886 887 888 889 890 891 892 893 894 895 896 897 898 899 900 901 902 903 904 905 906 907 908 909 910 911 912 913 914 915 916 917 918 919 920 921 922 923 924 925 926 927 928 929 930 931 932 933 934 935 936 937 938 939 940 941 942 943 944 945 946 947 948 949 950 951 952 953 954 955 956 957 958 959 960 961 962 963 964 965 966 967 968 969 970 971 972 973 974 975 976 977 978 979 980 981 982 983 984 985 986 987 988 989 990 991 992 993 994 995 996 997 998 999 1000 1001 1002 1003 1004 1005 1006 1007 1008 1009 1010 1011 1012 1013 1014 1015 1016 1017 1018 1019 1020 1021 1022 1023 1024 1025 1026 1027 1028 1029 1030 1031 1032 1033 1034 1035 1060 1061 1062 1063 1064 1065 1091 1092 1093 1094 1095 1096 1122 1123 1124 1125 1126 1127 1153 1154 1155 1156 1157 1158 1184 1185 1186 1187 1188 1189 1215 1216 1217 1218 1219 1220 1246 1247 1248 1249 1250 1251 1277 1278 1279 1280 1281 1282 1308 1309 1310 1311 1312 1313 1339 1340 1341 1342 1343 1344 1370 1371 1372 1373 1374 1375 1401 1402 1403 1404 1405 1406 1432 1433 1434 1435 1436 1437 1463 1464 1465 1466 1467 1468 1494 1495 1496 1497 1498 1499 1525 1526 1527 1528 1529 1530 1556 1557 1558 1559 1560 1561 1587 1588 1589 1590 1591 1592 1618 1619 1620 1621 1622 1623 1649 1650 1651 1652 1653 1654 1680 1681 1682 1683 1684 1685 1711 1712 1713 1714 1715 1716 1742 1743 1744 1745 1746 1747 1773 1774 1775 1776 1777 1778 1804 1805 1806 1807 1808 1809 1835 1836 1837 1838 1839 1840 1866 1867 1868 1869 1870 1871 1897 1898 1899 1900 1901 1902 1928 1929 1930 1931 1932 1933 1959 1960 1961 1962 1963 1964 1990 1991 1992 1993 1994 1995 2021 2022 2023 2024 2025 2026 2052 2053 2054 2055 2056 2057 2083 2084 2085 2086 2087 2088 2114 2115 2116 2117 2118 2119 2145 2146 2147 2148 2149 2150 2176 2177 2178 2179 2180 2181 2207 2208 2209 2210 2211 2212 2238 2239 2240 2241 2242 2243 2269 2270 2271 2272 2273 2274 2300 2301 2302 2303 2304 2305 2331 2332 2333 2334 2335 2336 2362 2363 2364 2365 2366 2367 2393 2394 2395 2396 2397 2398 2424 2425 2426 2427 2428 2429 2455 2456 2457 2458 2459 2460 2486 2487 2488 2489 2490 2491 2517 2518 2519 2520 2521 2522 2548 2549 2550 2551 2552 2553 2579 2580 2581 2582 2583 2584 2610 2611 2612 2613 2614 2615 2641 2642 2643 2644 2645 2646 2672 2673 2674 2675 2676 2677 2703 2704 2705 2706 2707 2708 2734 2735 2736 2737 2738 2763 2764 2765 2766 2767 2792 2793 2794 2795 2819 2820 2821 2822 2846 2847 2848 2871 2872 2894 2895 1036 1037 1038 1039 1040 1041 1042 1043 1044 1066 1067 1068 1069 1070 1071 1072 1073 1074 1097 1098 1099 1100 1101 1102 1103 1104 1105 1128 1129 1130 1131 1132 1133 1134 1135 1136 1159 1160 1161 1162 1163 1164 1165 1166 1167 1190 1191 1192 1193 1194 1195 1196 1197 1198 1221 1222 1223 1224 1225 1226 1227 1228 1229 1252 1253 1254 1255 1256 1257 1258 1259 1260 1283 1284 1285 1286 1287 1288 1289 1290 1291 1314 1315 1316 1317 1318 1319 1320 1321 1322 1345 1346 1347 1348 1349 1350 1351 1352 1353 1376 1377 1378 1379 1380 1381 1382 1383 1384 1407 1408 1409 1410 1411 1412 1413 1414 1415 1438 1439 1440 1441 1442 1443 1444 1445 1446 1469 1470 1471 1472 1473 1474 1475 1476 1477 1500 1501 1502 1503 1504 1505 1506 1507 1508 1531 1532 1533 1534 1535 1536 1537 1538 1539 1562 1563 1564 1565 1566 1567 1568 1569 1570 1593 1594 1595 1596 1597 1598 1599 1600 1601 1624 1625 1626 1627 1628 1629 1630 1631 1632 1655 1656 1657 1658 1659 1660 1661 1662 1663 1686 1687 1688 1689 1690 1691 1692 1693 1694 1717 1718 1719 1720 1721 1722 1723 1724 1725 1748 1749 1750 1751 1752 1753 1754 1755 1756 1779 1780 1781 1782 1783 1784 1785 1786 1787 1810 1811 1812 1813 1814 1815 1816 1817 1818 1841 1842 1843 1844 1845 1846 1847 1848 1849 1872 1873 1874 1875 1876 1877 1878 1879 1880 1903 1904 1905 1906 1907 1908 1909 1910 1911 1934 1935 1936 1937 1938 1939 1940 1941 1942 1965 1966 1967 1968 1969 1970 1971 1972 1973 1996 1997 1998 1999 2000 2001 2002 2003 2004 2027 2028 2029 2030 2031 2032 2033 2034 2035 2058 2059 2060 2061 2062 2063 2064 2065 2066 2089 2090 2091 2092 2093 2094 2095 2096 2097 2120 2121 2122 2123 2124 2125 2126 2127 2128 2151 2152 2153 2154 2155 2156 2157 2158 2159 2182 2183 2184 2185 2186 2187 2188 2189 2190 2213 2214 2215 2216 2217 2218 2219 2220 2221 2244 2245 2246 2247 2248 2249 2250 2251 2252 2275 2276 2277 2278 2279 2280 2281 2282 2283 2306 2307 2308 2309 2310 2311 2312 2313 2314 2337 2338 2339 2340 2341 2342 2343 2344 2345 2368 2369 2370 2371 2372 2373 2374 2375 2376 2399 2400 2401 2402 2403 2404 2405 2406 2407 2430 2431 2432 2433 2434 2435 2436 2437 2438 2461 2462 2463 2464 2465 2466 2467 2468 2469 2492 2493 2494 2495 2496 2497 2498 2499 2500 2523 2524 2525 2526 2527 2528 2529 2530 2531 2554 2555 2556 2557 2558 2559 2560 2561 2562 2585 2586 2587 2588 2589 2590 2591 2592 2593 2616 2617 2618 2619 2620 2621 2622 2623 2624 2647 2648 2649 2650 2651 2652 2653 2654 2655 2678 2679 2680 2681 2682 2683 2684 2685 2686 2709 2710 2711 2712 2713 2714 2715 2716 2717 2739 2740 2741 2742 2743 2744 2745 2746 2747 2768 2769 2770 2771 2772 2773 2774 2775 2776 2796 2797 2798 2799 2800 2801 2802 2803 2804 2823 2824 2825 2826 2827 2828 2829 2830 2831 2849 2850 2851 2852 2853 2854 2855 2856 2857 2873 2874 2875 2876 2877 2878 2879 2880 2881 2896 2897 2898 2899 2900 2901 2902 2903 2904 2917 2918 2919 2920 2921 2922 2923 2924 2925 2936 2937 2938 2939 2940 2941 2942 2943 2953 2954 2955 2956 2957 2958 2966 2967 2968 2969 1045 1046 1047 1048 1049 1050 1051 1052 1075 1076 1077 1078 1079 1080 1081 1082 1106 1107 1108 1109 1110 1111 1112 1113 1137 1138 1139 1140 1141 1142 1143 1144 1168 1169 1170 1171 1172 1173 1174 1175 1199 1200 1201 1202 1203 1204 1205 1206 1230 1231 1232 1233 1234 1235 1236 1237 1261 1262 1263 1264 1265 1266 1267 1268 1292 1293 1294 1295 1296 1297 1298 1299 1323 1324 1325 1326 1327 1328 1329 1330 1354 1355 1356 1357 1358 1359 1360 1361 1385 1386 1387 1388 1389 1390 1391 1392 1416 1417 1418 1419 1420 1421 1422 1423 1447 1448 1449 1450 1451 1452 1453 1454 1478 1479 1480 1481 1482 1483 1484 1485 1509 1510 1511 1512 1513 1514 1515 1516 1540 1541 1542 1543 1544 1545 1546 1547 1571 1572 1573 1574 1575 1576 1577 1578 1602 1603 1604 1605 1606 1607 1608 1609 1633 1634 1635 1636 1637 1638 1639 1640 1664 1665 1666 1667 1668 1669 1670 1671 1695 1696 1697 1698 1699 1700 1701 1702 1726 1727 1728 1729 1730 1731 1732 1733 1757 1758 1759 1760 1761 1762 1763 1764 1788 1789 1790 1791 1792 1793 1794 1795 1819 1820 1821 1822 1823 1824 1825 1826 1850 1851 1852 1853 1854 1855 1856 1857 1881 1882 1883 1884 1885 1886 1887 1888 1912 1913 1914 1915 1916 1917 1918 1919 1943 1944 1945 1946 1947 1948 1949 1950 1974 1975 1976 1977 1978 1979 1980 1981 2005 2006 2007 2008 2009 2010 2011 2012 2036 2037 2038 2039 2040 2041 2042 2043 2067 2068 2069 2070 2071 2072 2073 2074 2098 2099 2100 2101 2102 2103 2104 2105 2129 2130 2131 2132 2133 2134 2135 2136 2160 2161 2162 2163 2164 2165 2166 2167 2191 2192 2193 2194 2195 2196 2197 2198 2222 2223 2224 2225 2226 2227 2228 2229 2253 2254 2255 2256 2257 2258 2259 2260 2284 2285 2286 2287 2288 2289 2290 2291 2315 2316 2317 2318 2319 2320 2321 2322 2346 2347 2348 2349 2350 2351 2352 2353 2377 2378 2379 2380 2381 2382 2383 2384 2408 2409 2410 2411 2412 2413 2414 2415 2439 2440 2441 2442 2443 2444 2445 2446 2470 2471 2472 2473 2474 2475 2476 2477 2501 2502 2503 2504 2505 2506 2507 2508 2532 2533 2534 2535 2536 2537 2538 2539 2563 2564 2565 2566 2567 2568 2569 2570 2594 2595 2596 2597 2598 2599 2600 2601 2625 2626 2627 2628 2629 2630 2631 2632 2656 2657 2658 2659 2660 2661 2662 2663 2687 2688 2689 2690 2691 2692 2693 2694 2718 2719 2720 2721 2722 2723 2724 2725 2748 2749 2750 2751 2752 2753 2754 2755 2777 2778 2779 2780 2781 2782 2783 2784 2805 2806 2807 2808 2809 2810 2811 2812 2832 2833 2834 2835 2836 2837 2838 2839 2858 2859 2860 2861 2862 2863 2864 2865 2882 2883 2884 2885 2886 2887 2888 2889 2905 2906 2907 2908 2909 2910 2911 2912 2926 2927 2928 2929 2930 2931 2932 2933 2944 2945 2946 2947 2948 2949 2950 2951 2959 2960 2961 2962 2963 2964 2965 2970 2971 2972 2973 2974 1053 1054 1055 1056 1057 1058 1059 1083 1084 1085 1086 1087 1088 1089 1090 1114 1115 1116 1117 1118 1119 1120 1121 1145 1146 1147 1148 1149 1150 1151 1152 1176 1177 1178 1179 1180 1181 1182 1183 1207 1208 1209 1210 1211 1212 1213 1214 1238 1239 1240 1241 1242 1243 1244 1245 1269 1270 1271 1272 1273 1274 1275 1276 1300 1301 1302 1303 1304 1305 1306 1307 1331 1332 1333 1334 1335 1336 1337 1338 1362 1363 1364 1365 1366 1367 1368 1369 1393 1394 1395 1396 1397 1398 1399 1400 1424 1425 1426 1427 1428 1429 1430 1431 1455 1456 1457 1458 1459 1460 1461 1462 1486 1487 1488 1489 1490 1491 1492 1493 1517 1518 1519 1520 1521 1522 1523 1524 1548 1549 1550 1551 1552 1553 1554 1555 1579 1580 1581 1582 1583 1584 1585 1586 1610 1611 1612 1613 1614 1615 1616 1617 1641 1642 1643 1644 1645 1646 1647 1648 1672 1673 1674 1675 1676 1677 1678 1679 1703 1704 1705 1706 1707 1708 1709 1710 1734 1735 1736 1737 1738 1739 1740 1741 1765 1766 1767 1768 1769 1770 1771 1772 1796 1797 1798 1799 1800 1801 1802 1803 1827 1828 1829 1830 1831 1832 1833 1834 1858 1859 1860 1861 1862 1863 1864 1865 1889 1890 1891 1892 1893 1894 1895 1896 1920 1921 1922 1923 1924 1925 1926 1927 1951 1952 1953 1954 1955 1956 1957 1958 1982 1983 1984 1985 1986 1987 1988 1989 2013 2014 2015 2016 2017 2018 2019 2020 2044 2045 2046 2047 2048 2049 2050 2051 2075 2076 2077 2078 2079 2080 2081 2082 2106 2107 2108 2109 2110 2111 2112 2113 2137 2138 2139 2140 2141 2142 2143 2144 2168 2169 2170 2171 2172 2173 2174 2175 2199 2200 2201 2202 2203 2204 2205 2206 2230 2231 2232 2233 2234 2235 2236 2237 2261 2262 2263 2264 2265 2266 2267 2268 2292 2293 2294 2295 2296 2297 2298 2299 2323 2324 2325 2326 2327 2328 2329 2330 2354 2355 2356 2357 2358 2359 2360 2361 2385 2386 2387 2388 2389 2390 2391 2392 2416 2417 2418 2419 2420 2421 2422 2423 2447 2448 2449 2450 2451 2452 2453 2454 2478 2479 2480 2481 2482 2483 2484 2485 2509 2510 2511 2512 2513 2514 2515 2516 2540 2541 2542 2543 2544 2545 2546 2547 2571 2572 2573 2574 2575 2576 2577 2578 2602 2603 2604 2605 2606 2607 2608 2609 2633 2634 2635 2636 2637 2638 2639 2640 2664 2665 2666 2667 2668 2669 2670 2671 2695 2696 2697 2698 2699 2700 2701 2702 2726 2727 2728 2729 2730 2731 2732 2733 2756 2757 2758 2759 2760 2761 2762 2785 2786 2787 2788 2789 2790 2791 2813 2814 2815 2816 2817 2818 2840 2841 2842 2843 2844 2845 2866 2867 2868 2869 2870 2890 2891 2892 2893 2913 2914 2915 2916 2934 2935 2952 
Rhop 1 2975 float
  1.0000000E+03   1.0000000E+03   1.0000000E+03   1.0000000E+03   1.0000000E+03   1.0000000E+03   1.0000000E+03   1.0000000E+03   1.0000000E+03   1.0000000E+03   1.0000000E+03   1.0000000E+03   1.0000000E+03   1.0000000E+03   1.0000000E+03   1.0000000E+03   1.0000000E+03   1.0000000E+03   1.0000000E+03   1.0000000E+03   1.0000000E+03   1.0000000E+03   1.0000000E+03   1.0000000E+03   1.0000000E+03   1.0000000E+03   1.0000000E+03   1.0000000E+03   1.0000000E+03   1.0000000E+03   1.0000000E+03   1.0000000E+03   1.0000000E+03   1.0000000E+03   1.0000000E+03   1.0000000E+03   1.0000000E+03   1.0000001E+03   1.0000000E+03   1.0000001E+03   1.0000001E+03   1.0000000E+03   1.0000001E+03   1.0000001E+03   1.0000000E+03   1.0000001E+03   1.0000002E+03   1.0000001E+03   1.0000001E+03   1.0000002E+03   1.0000001E+03   1.0000002E+03   1.0000004E+03   1.0000001E+03   1.0000004E+03   1.0000007E+03   1.0000002E+03   1.0000007E+03   1.0000011E+03   1.0000004E+03   1.0000010E+03   1.0000016E+03   1.0000016E+03   1.0000024E+03   1.0000000E+03   1.0000000E+03   1.0000000E+03   1.0000000E+03   1.0000000E+03   1.0000000E+03   1.0000000E+03   1.0000000E+03   1.0000000E+03   1.0000000E+03   1.0000000E+03   1.0000000E+03   1.0000000E+03   1.0000000E+03   1.0000000E+03   1.0000000E+03   1.0000000E+03   1.0000000E+03   1.0000000E+03   1.0000000E+03   1.0000000E+03   1.0000000E+03   1.0000000E+03   1.0000000E+03   1.0000000E+03   1.0000000E+03   1.0000000E+03   1.0000000E+03   1.0000000E+03   1.0000000E+03   1.0000000E+03   1.0000000E+03   1.0000000E+03   1.0000000E+03   1.0000000E+03   1.0000000E+03   1.0000000E+03   1.0000000E+03   1.0000000E+03   1.0000000E+03   1.0000000E+03   1.0000000E+03   1.0000000E+03   1.0000000E+03   1.0000000E+03   1.0000000E+03   1.0000000E+03   1.0000000E+03   1.0000000E+03   1.0000000E+03   1.0000000E+03   1.0000000E+03   1.0000000E+03   1.0000000E+03   1.0000000E+03   1.0000000E+03   1.0000000E+03   1.0000000E+03   1.0000000E+03   1.0000000E+03   1.0000000E+03   1.0000000E+03   1.0000000E+03   1.0000000E+03   1.0000000E+03   1.0000000E+03   1.0000000E+03   1.0000000E+03   1.0000001E+03   1.0000001E+03   1.0000001E+03   1.0000001E+03   1.0000000E+03   1.0000000E+03   1.0000001E+03   1.0000001E+03   1.0000001E+03   1.0000001E+03   1.0000001E+03   1.0000001E+03   1.0000000E+03   1.0000001E+03   1.0000001E+03   1.0000001E+03   1.0000002E+03   1.0000002E+03   1.0000002E+03   1.0000002E+03   1.0000001E+03   1.0000001E+03   1.0000001E+03   1.0000001E+03   1.0000002E+03   1.0000001E+03   1.0000002E+03   1.0000002E+03   1.0000004E+03   1.0000003E+03   1.0000005E+03   1.0000004E+03   1.0000007E+03   1.0000007E+03   1.0000010E+03   1.0000011E+03   1.0000014E+03   1.0000016E+03   1.0000021E+03   1.0000024E+03   1.0000032E+03   1.0000036E+03   1.0000047E+03   1.0000000E+03   1.0000000E+03   1.0000000E+03   1.0000000E+03   1.0000000E+03   1.0000000E+03   1.0000000E+03   1.0000000E+03   1.0000000E+03   1.0000000E+03   1.0000000E+03   1.0000000E+03   1.0000000E+03   1.0000000E+03   1.0000000E+03   1.0000000E+03   1.0000000E+03   1.0000000E+03   1.0000000E+03   1.0000000E+03   1.0000000E+03   1.0000000E+03   1.0000000E+03   1.0000000E+03   1.0000000E+03   1.0000000E+03   1.0000000E+03   1.0000000E+03   1.0000000E+03   1.0000000E+03   1.0000000E+03   1.0000000E+03   1.0000000E+03   1.0000000E+03   1.0000000E+03   1.0000000E+03   1.0000000E+03   1.0000000E+03   1.0000000E+03   1.0000000E+03   1.0000000E+03   1.0000000E+03   1.0000000E+03   1.0000000E+03   1.0000000E+03   1.0000000E+03   1.0000000E+03   1.0000000E+03   1.0000000E+03   1.0000000E+03   1.0000000E+03   1.0000000E+03   1.0000000E+03   1.0000000E+03   1.0000000E+03   1.0000000E+03   1.0000000E+03   1.0000000E+03   1.0000000E+03   1.0000000E+03   1.0000000E+03   1.0000000E+03   1.0000000E+03   1.0000000E+03   1.0000000E+03   1.0000000E+03   1.0000000E+03   1.0000000E+03   1.0000000E+03   1.0000000E+03   1.0000001E+03   1.0000001E+03   1.0000001E+03   1.0000001E+03   1.0000001E+03   1.0000001E+03   1.0000001E+03   1.0000001E+03   1.0000001E+03   1.0000001E+03   1.0000001E+03   1.0000001E+03   1.0000002E+03   1.0000002E+03   1.0000002E+03   1.0000002E+03   1.0000002E+03   1.0000002E+03   1.0000002E+03   1.0000002E+03   1.0000002E+03   1.0000002E+03   1.0000002E+03   1.0000002E+03   1.0000003E+03   1.0000004E+03   1.0000004E+03   1.0000004E+03   1.0000004E+03   1.0000000E+03   1.0000000E+03   1.0000000E+03   1.0000000E+03   1.0000000E+03   1.0000000E+03   1.0000000E+03   1.0000000E+03   1.0000000E+03   1.0000000E+03   1.0000000E+03   1.0000000E+03   1.0000000E+03   1.0000000E+03   1.0000000E+03   1.0000000E+03   1.0000000E+03   1.0000000E+03   1.0000000E+03   1.0000000E+03   1.0000000E+03   1.0000000E+03   1.0000000E+03   1.0000000E+03   1.0000000E+03   1.0000000E+03   1.0000000E+03   1.0000000E+03   1.0000000E+03   1.0000000E+03   1.0000000E+03   1.0000000E+03   1.0000000E+03   1.0000000E+03   1.0000000E+03   1.0000000E+03   1.0000000E+03   1.0000000E+03   1.0000000E+03   1.0000000E+03   1.0000000E+03   1.0000000E+03   1.0000000E+03   1.0000000E+03   1.0000000E+03   1.0000000E+03   1.0000000E+03   1.0000000E+03   1.0000000E+03   1.0000000E+03   1.0000000E+03   1.0000000E+03   1.0000000E+03   1.0000000E+03   1.0000000E+03   1.0000000E+03   1.0000001E+03   1.0000001E+03   1.0000001E+03   1.0000000E+03   1.0000000E+03   1.0000000E+03   1.0000000E+03   1.0000000E+03   1.0000001E+03   1.0000001E+03   1.0000001E+03   1.0000001E+03   1.0000001E+03   1.0000001E+03   1.0000001E+03   1.0000001E+03   1.0000002E+03   1.0000002E+03   1.0000002E+03   1.0000002E+03   1.0000002E+03   1.0000002E+03   1.0000002E+03   1.0000002E+03   1.0000004E+03   1.0000004E+03   1.0000004E+03   1.0000004E+03   1.0000004E+03   1.0000003E+03   1.0000002E+03   1.0000002E+03   1.0000000E+03   1.0000000E+03   1.0000000E+03   1.0000000E+03   1.0000000E+03   1.0000000E+03   1.0000000E+03   1.0000000E+03   1.0000000E+03   1.0000000E+03   1.0000000E+03   1.0000000E+03   1.0000000E+03   1.0000000E+03   1.0000000E+03   1.0000000E+03   1.0000000E+03   1.0000000E+03   1.0000000E+03   1.0000000E+03   1.0000000E+03   1.0000000E+03   1.0000000E+03   1.0000000E+03   1.0000000E+03   1.0000000E+03   1.0000000E+03   1.0000000E+03   1.0000000E+03   1.0000000E+03   1.0000000E+03   1.0000000E+03   1.0000000E+03   1.0000000E+03   1.0000000E+03   1.0000000E+03   1.0000000E+03   1.0000000E+03   1.0000000E+03   1.0000000E+03   1.0000000E+03   1.0000000E+03   1.0000000E+03   1.0000000E+03   1.0000000E+03   1.0000000E+03   1.0000000E+03   1.0000000E+03   1.0000000E+03   1.0000000E+03   1.0000000E+03   1.0000000E+03   1.0000000E+03   1.0000000E+03   1.0000000E+03   1.0000000E+03   1.0000000E+03   1.0000000E+03   1.0000000E+03   1.0000000E+03   1.0000000E+03   1.0000000E+03   1.0000000E+03   1.0000000E+03   1.0000000E+03   1.0000000E+03   1.0000000E+03   1.0000000E+03   1.0000000E+03   1.0000000E+03   1.0000000E+03   1.0000000E+03   1.0000001E+03   1.0000001E+03   1.0000001E+03   1.0000001E+03   1.0000001E+03   1.0000001E+03   1.0000000E+03   1.0000000E+03   1.0000000E+03   1.0000002E+03   1.0000001E+03   1.0000001E+03   1.0000001E+03   1.0000001E+03   1.0000001E+03   1.0000001E+03   1.0000001E+03   1.0000000E+03   1.0000002E+03   1.0000002E+03   1.0000002E+03   1.0000002E+03   1.0000002E+03   1.0000002E+03   1.0000001E+03   1.0000001E+03   1.0000001E+03   1.0000001E+03   1.0000001E+03   1.0000002E+03   1.0000002E+03   1.0000004E+03   1.0000005E+03   1.0000007E+03   1.0000010E+03   1.0000014E+03   1.0000021E+03   1.0000032E+03   1.0000047E+03   1.0000000E+03   1.0000000E+03   1.0000000E+03   1.0000000E+03   1.0000000E+03   1.0000000E+03   1.0000000E+03   1.0000000E+03   1.0000000E+03   1.0000000E+03   1.0000000E+03   1.0000000E+03   1.0000000E+03   1.0000000E+03   1.0000000E+03   1.0000000E+03   1.0000000E+03   1.0000000E+03   1.0000000E+03   1.0000000E+03   1.0000000E+03   1.0000000E+03   1.0000000E+03   1.0000000E+03   1.0000000E+03   1.0000000E+03   1.0000000E+03   1.0000000E+03   1.0000000E+03   1.0000000E+03   1.0000000E+03   1.0000000E+03   1.0000000E+03   1.0000000E+03   1.0000000E+03   1.0000000E+03   1.0000000E+03   1.0000000E+03   1.0000000E+03   1.0000000E+03   1.0000000E+03   1.0000000E+03   1.0000000E+03   1.0000001E+03   1.0000000E+03   1.0000000E+03   1.0000000E+03   1.0000001E+03   1.0000001E+03   1.0000000E+03   1.0000000E+03   1.0000001E+03   1.0000001E+03   1.0000001E+03   1.0000000E+03   1.0000002E+03   1.0000001E+03   1.0000001E+03   1.0000000E+03   1.0000003E+03   1.0000002E+03   1.0000001E+03   1.0000000E+03   1.0000004E+03   1.0000002E+03   1.0000001E+03   1.0000001E+03   1.0000007E+03   1.0000004E+03   1.0000002E+03   1.0000001E+03   1.0000011E+03   1.0000007E+03   1.0000004E+03   1.0000001E+03   1.0000016E+03   1.0000011E+03   1.0000007E+03   1.0000002E+03   1.0000024E+03   1.0000016E+03   1.0000010E+03   1.0000004E+03   1.0000036E+03   1.0000024E+03   1.0000016E+03   1.0000000E+03   1.0000000E+03   1.0000000E+03   1.0000000E+03   1.0000000E+03   1.0000000E+03   1.0000000E+03   1.0000000E+03   1.0000000E+03   1.0000000E+03   1.0000000E+03   1.0000000E+03   1.0000000E+03   1.0000000E+03   1.0000000E+03   1.0000000E+03   1.0000000E+03   1.0000000E+03   1.0000000E+03   1.0000000E+03   1.0000000E+03   1.0000000E+03   1.0000000E+03   1.0000000E+03   1.0000000E+03   1.0000000E+03   1.0000000E+03   1.0000000E+03   1.0000000E+03   1.0000000E+03   1.0000000E+03   1.0000000E+03   1.0000000E+03   1.0000000E+03   1.0000000E+03   1.0000000E+03   1.0000000E+03   1.0000000E+03   1.0000000E+03   1.0000000E+03   1.0000000E+03   1.0000000E+03   1.0000000E+03   1.0000000E+03   1.0000000E+03   1.0000000E+03   1.0000000E+03   1.0000000E+03   1.0000000E+03   1.0000000E+03   1.0000000E+03   1.0000000E+03   1.0000000E+03   1.0000000E+03   1.0000000E+03   1.0000000E+03   1.0000000E+03   1.0000000E+03   1.0000000E+03   1.0000000E+03   1.0000000E+03   1.0000000E+03   1.0000000E+03   1.0000000E+03   1.0000000E+03   1.0000000E+03   1.0000000E+03   1.0000000E+03   1.0000000E+03   1.0000000E+03   1.0000000E+03   1.0000000E+03   1.0000000E+03   1.0000000E+03   1.0000000E+03   1.0000000E+03   1.0000000E+03   1.0000000E+03   1.0000000E+03   1.0000000E+03   1.0000000E+03   1.0000000E+03   1.0000000E+03   1.0000000E+03   1.0000000E+03   1.0000000E+03   1.0000000E+03   1.0000000E+03   1.0000000E+03   1.0000000E+03   1.0000000E+03   1.0000000E+03   1.0000000E+03   1.0000000E+03   1.0000000E+03   1.0000000E+03   1.0000000E+03   1.0000000E+03   1.0000000E+03   1.0000000E+03   1.0000000E+03   1.0000000E+03   1.0000000E+03   1.0000000E+03   1.0000000E+03   1.0000000E+03   1.0000000E+03   1.0000000E+03   1.0000000E+03   1.0000000E+03   1.0000000E+03   1.0000000E+03   1.0000000E+03   1.0000000E+03   1.0000000E+03   1.0000000E+03   1.0000000E+03   1.0000000E+03   1.0000000E+03   1.0000000E+03   1.0000000E+03   1.0000000E+03   1.0000000E+03   1.0000000E+03   1.0000000E+03   1.0000000E+03   1.0000000E+03   1.0000000E+03   1.0000000E+03   1.0000000E+03   1.0000000E+03   1.0000000E+03   1.0000000E+03   1.0000000E+03   1.0000000E+03   1.0000000E+03   1.0000000E+03   1.0000000E+03   1.0000000E+03   1.0000000E+03   1.0000000E+03   1.0000000E+03   1.0000000E+03   1.0000000E+03   1.0000000E+03   1.0000000E+03   1.0000000E+03   1.0000000E+03   1.0000000E+03   1.0000000E+03   1.0000000E+03   1.0000000E+03   1.0000000E+03   1.0000000E+03   1.0000000E+03   1.0000000E+03   1.0000000E+03   1.0000000E+03   1.0000000E+03   1.0000000E+03   1.0000000E+03   1.0000000E+03   1.0000000E+03   1.0000000E+03   1.0000000E+03   1.0000000E+03   1.0000000E+03   1.0000000E+03   1.0000000E+03   1.0000000E+03   1.0000000E+03   1.0000000E+03   1.0000000E+03   1.0000000E+03   1.0000000E+03   1.0000000E+03   1.0000000E+03   1.0000000E+03   1.0000000E+03   1.0000000E+03   1.0000000E+03   1.0000000E+03   1.0000000E+03   1.0000000E+03   1.0000000E+03   1.0000000E+03   1.0000000E+03   1.0000000E+03   1.0000000E+03   1.0000000E+03   1.0000000E+03   1.0000000E+03   1.0000000E+03   1.0000000E+03   1.0000000E+03   1.0000000E+03   1.0000000E+03   1.0000000E+03   1.0000000E+03   1.0000000E+03   1.0000000E+03   1.0000000E+03   1.0000000E+03   1.0000000E+03   1.0000000E+03   1.0000000E+03   1.0000000E+03   1.0000000E+03   1.0000000E+03   1.0000000E+03   1.0000000E+03   1.0000000E+03   1.0000000E+03   1.0000000E+03   1.0000000E+03   1.0000000E+03   1.0000000E+03   1.0000000E+03   1.0000000E+03   1.0000000E+03   1.0000000E+03   1.0000000E+03   1.0000000E+03   1.0000000E+03   1.0000000E+03   1.0000000E+03   1.0000000E+03   1.0000000E+03   1.0000000E+03   1.0000000E+03   1.0000000E+03   1.0000000E+03   1.0000000E+03   1.0000000E+03   1.0000000E+03   1.0000000E+03   1.0000000E+03   1.0000000E+03   1.0000000E+03   1.0000000E+03   1.0000000E+03   1.0000000E+03   1.0000000E+03   1.0000000E+03   1.0000000E+03   1.0000000E+03   1.0000000E+03   1.0000000E+03   1.0000000E+03   1.0000000E+03   1.0000000E+03   1.0000000E+03   1.0000000E+03   1.0000000E+03   1.0000000E+03   1.0000000E+03   1.0000000E+03   1.0000000E+03   1.0000000E+03   1.0000000E+03   1.0000000E+03   1.0000000E+03   1.0000000E+03   1.0000000E+03   1.0000000E+03   1.0000000E+03   1.0000000E+03   1.0000000E+03   1.0000000E+03   1.0000000E+03   1.0000000E+03   1.0000000E+03   1.0000000E+03   1.0000000E+03   1.0000000E+03   1.0000000E+03   1.0000000E+03   1.0000000E+03   1.0000000E+03   1.0000000E+03   1.0000000E+03   1.0000000E+03   1.0000000E+03   1.0000000E+03   1.0000000E+03   1.0000000E+03   1.0000000E+03   1.0000000E+03   1.0000000E+03   1.0000000E+03   1.0000000E+03   1.0000000E+03   1.0000000E+03   1.0000000E+03   1.0000000E+03   1.0000000E+03   1.0000000E+03   1.0000000E+03   1.0000000E+03   1.0000000E+03   1.0000000E+03   1.0000000E+03   1.0000000E+03   1.0000000E+03   1.0000000E+03   1.0000000E+03   1.0000000E+03   1.0000000E+03   1.0000000E+03   1.0000000E+03   1.0000000E+03   1.0000000E+03   1.0000000E+03   1.0000000E+03   1.0000000E+03   1.0000000E+03   1.0000000E+03   1.0000000E+03   1.0000000E+03   1.0000000E+03   1.0000000E+03   1.0000000E+03   1.0000000E+03   1.0000000E+03   1.0000000E+03   1.0000000E+03   1.0000000E+03   1.0000000E+03   1.0000000E+03   1.0000000E+03   1.0000000E+03   1.0000000E+03   1.0000000E+03   1.0000000E+03   1.0000000E+03   1.0000000E+03   1.0000000E+03   1.0000000E+03   1.0000000E+03   1.0000000E+03   1.0000000E+03   1.0000000E+03   1.0000000E+03   1.0000000E+03   1.0000000E+03   1.0000000E+03   1.0000000E+03   1.0000000E+03   1.0000000E+03   1.0000000E+03   1.0000000E+03   1.0000000E+03   1.0000000E+03   1.0000000E+03   1.0000000E+03   1.0000000E+03   1.0000000E+03   1.0000000E+03   1.0000000E+03   1.0000000E+03   1.0000000E+03   1.0000000E+03   1.0000000E+03   1.0000000E+03   1.0000000E+03   1.0000000E+03   1.0000000E+03   1.0000000E+03   1.0000000E+03   1.0000000E+03   1.0000000E+03   1.0000000E+03   1.0000000E+03   1.0000000E+03   1.0000000E+03   1.0000000E+03   1.0000000E+03   1.0000000E+03   1.0000000E+03   1.0000000E+03   1.0000000E+03   1.0000000E+03   1.0000000E+03   1.0000000E+03   1.0000000E+03   1.0000000E+03   1.0000000E+03   1.0000000E+03   1.0000000E+03   1.0000000E+03   1.0000000E+03   1.0000000E+03   1.0000000E+03   1.0000000E+03   1.0000000E+03   1.0000000E+03   1.0000000E+03   1.0000000E+03   1.0000000E+03   1.0000000E+03   1.0000000E+03   1.0000000E+03   1.0000000E+03   1.0000000E+03   1.0000000E+03   1.0000000E+03   1.0000000E+03   1.0000000E+03   1.0000000E+03   1.0000000E+03   1.0000000E+03   1.0000000E+03   1.0000000E+03   1.0000000E+03   1.0000000E+03   1.0000000E+03   1.0000000E+03   1.0000000E+03   1.0000000E+03   1.0000000E+03   1.0000000E+03   1.0000000E+03   1.0000000E+03   1.0000000E+03   1.0000000E+03   1.0000000E+03   1.0000000E+03   1.0000000E+03   1.0000000E+03   1.0000000E+03   1.0000000E+03   1.0000000E+03   1.0000000E+03   1.0000000E+03   1.0000000E+03   1.0000000E+03   1.0000000E+03   1.0000000E+03   1.0000000E+03   1.0000000E+03   1.0000000E+03   1.0000000E+03   1.0000000E+03   1.0000000E+03   1.0000000E+03   1.0000000E+03   1.0000000E+03   1.0000000E+03   1.0000000E+03   1.0000000E+03   1.0000000E+03   1.0000000E+03   1.0000000E+03   1.0000000E+03   1.0000000E+03   1.0000000E+03   1.0000000E+03   1.0000000E+03   1.0000000E+03   1.0000000E+03   1.0000000E+03   1.0000000E+03   1.0000000E+03   1.0000000E+03   1.0000000E+03   1.0000000E+03   1.0000000E+03   1.0000000E+03   1.0000000E+03   1.0000000E+03   1.0000000E+03   1.0000000E+03   1.0000002E+03   1.0000002E+03   1.0000004E+03   1.0000004E+03   1.0000004E+03   1.0000002E+03   1.0000004E+03   1.0000004E+03   1.0000004E+03   1.0000005E+03   1.0000005E+03   1.0000004E+03   1.0000004E+03   1.0000005E+03   1.0000006E+03   1.0000007E+03   1.0000007E+03   1.0000004E+03   1.0000006E+03   1.0000007E+03   1.0000008E+03   1.0000009E+03   1.0000009E+03   1.0000007E+03   1.0000009E+03   1.0000009E+03   1.0000010E+03   1.0000012E+03   1.0000012E+03   1.0000009E+03   1.0000012E+03   1.0000013E+03   1.0000013E+03   1.0000015E+03   1.0000016E+03   1.0000013E+03   1.0000015E+03   1.0000018E+03   1.0000018E+03   1.0000020E+03   1.0000021E+03   1.0000019E+03   1.0000021E+03   1.0000024E+03   1.0000025E+03   1.0000026E+03   1.0000027E+03   1.0000028E+03   1.0000032E+03   1.0000033E+03   1.0000035E+03   1.0000036E+03   1.0000037E+03   1.0000043E+03   1.0000045E+03   1.0000045E+03   1.0000046E+03   1.0000046E+03   1.0000048E+03   1.0000062E+03   1.0000062E+03   1.0000061E+03   1.0000060E+03   1.0000060E+03   1.0000062E+03   1.0000082E+03   1.0000082E+03   1.0000080E+03   1.0000079E+03   1.0000079E+03   1.0000080E+03   1.0000098E+03   1.0000103E+03   1.0000101E+03   1.0000101E+03   1.0000101E+03   1.0000102E+03   1.0000118E+03   1.0000126E+03   1.0000126E+03   1.0000126E+03   1.0000128E+03   1.0000132E+03   1.0000145E+03   1.0000155E+03   1.0000159E+03   1.0000161E+03   1.0000165E+03   1.0000168E+03   1.0000185E+03   1.0000196E+03   1.0000201E+03   1.0000204E+03   1.0000209E+03   1.0000213E+03   1.0000240E+03   1.0000251E+03   1.0000256E+03   1.0000261E+03   1.0000266E+03   1.0000272E+03   1.0000311E+03   1.0000322E+03   1.0000328E+03   1.0000332E+03   1.0000338E+03   1.0000345E+03   1.0000398E+03   1.0000409E+03   1.0000417E+03   1.0000422E+03   1.0000428E+03   1.0000436E+03   1.0000506E+03   1.0000521E+03   1.0000530E+03   1.0000536E+03   1.0000543E+03   1.0000549E+03   1.0000642E+03   1.0000664E+03   1.0000674E+03   1.0000678E+03   1.0000684E+03   1.0000689E+03   1.0000818E+03   1.0000846E+03   1.0000858E+03   1.0000858E+03   1.0000860E+03   1.0000861E+03   1.0001039E+03   1.0001077E+03   1.0001088E+03   1.0001078E+03   1.0001072E+03   1.0001068E+03   1.0001321E+03   1.0001373E+03   1.0001375E+03   1.0001351E+03   1.0001331E+03   1.0001317E+03   1.0001670E+03   1.0001739E+03   1.0001720E+03   1.0001667E+03   1.0001630E+03   1.0001605E+03   1.0002085E+03   1.0002165E+03   1.0002108E+03   1.0002012E+03   1.0001952E+03   1.0001913E+03   1.0002584E+03   1.0002669E+03   1.0002538E+03   1.0002384E+03   1.0002299E+03   1.0002253E+03   1.0003188E+03   1.0003246E+03   1.0003003E+03   1.0002778E+03   1.0002676E+03   1.0002636E+03   1.0004040E+03   1.0004031E+03   1.0003637E+03   1.0003345E+03   1.0003246E+03   1.0003239E+03   1.0005609E+03   1.0005484E+03   1.0004952E+03   1.0004611E+03   1.0004544E+03   1.0004608E+03   1.0009192E+03   1.0008936E+03   1.0008374E+03   1.0008032E+03   1.0008035E+03   1.0008217E+03   1.0017393E+03   1.0017058E+03   1.0016702E+03   1.0016517E+03   1.0016649E+03   1.0017000E+03   1.0032556E+03   1.0032174E+03   1.0032381E+03   1.0032692E+03   1.0033089E+03   1.0033666E+03   1.0051471E+03   1.0050934E+03   1.0051926E+03   1.0053023E+03   1.0053806E+03   1.0054650E+03   1.0066008E+03   1.0065156E+03   1.0066696E+03   1.0068474E+03   1.0069623E+03   1.0070718E+03   1.0073412E+03   1.0072153E+03   1.0073779E+03   1.0075889E+03   1.0077258E+03   1.0078544E+03   1.0076432E+03   1.0074896E+03   1.0076290E+03   1.0078400E+03   1.0079828E+03   1.0081219E+03   1.0077763E+03   1.0076024E+03   1.0077180E+03   1.0079143E+03   1.0080540E+03   1.0081979E+03   1.0078646E+03   1.0076784E+03   1.0077747E+03   1.0079570E+03   1.0080923E+03   1.0082374E+03   1.0079415E+03   1.0077496E+03   1.0078356E+03   1.0080087E+03   1.0081401E+03   1.0082847E+03   1.0080046E+03   1.0078126E+03   1.0078966E+03   1.0080662E+03   1.0081952E+03   1.0083383E+03   1.0080412E+03   1.0078533E+03   1.0079422E+03   1.0081136E+03   1.0082419E+03   1.0083828E+03   1.0079408E+03   1.0077590E+03   1.0078507E+03   1.0080215E+03   1.0081481E+03   1.0082864E+03   1.0077048E+03   1.0075306E+03   1.0076221E+03   1.0077890E+03   1.0079126E+03   1.0080472E+03   1.0073550E+03   1.0071903E+03   1.0072791E+03   1.0074393E+03   1.0075590E+03   1.0076892E+03   1.0069144E+03   1.0067621E+03   1.0068467E+03   1.0069979E+03   1.0071127E+03   1.0072381E+03   1.0064053E+03   1.0062686E+03   1.0063479E+03   1.0064888E+03   1.0065984E+03   1.0067180E+03   1.0058473E+03   1.0057279E+03   1.0058026E+03   1.0059331E+03   1.0060369E+03   1.0061503E+03   1.0052596E+03   1.0051579E+03   1.0052296E+03   1.0053505E+03   1.0054484E+03   1.0055552E+03   1.0046658E+03   1.0045801E+03   1.0046489E+03   1.0047607E+03   1.0048526E+03   1.0049527E+03   1.0040901E+03   1.0040177E+03   1.0040813E+03   1.0041835E+03   1.0042693E+03   1.0043625E+03   1.0035535E+03   1.0034918E+03   1.0035468E+03   1.0036386E+03   1.0037178E+03   1.0038036E+03   1.0030623E+03   1.0030144E+03   1.0030598E+03   1.0031415E+03   1.0032134E+03   1.0032904E+03   1.0026188E+03   1.0025908E+03   1.0026290E+03   1.0027024E+03   1.0027667E+03   1.0028334E+03   1.0022264E+03   1.0022226E+03   1.0022569E+03   1.0023245E+03   1.0023821E+03   1.0024374E+03   1.0019177E+03   1.0019455E+03   1.0020051E+03   1.0020579E+03   1.0021027E+03   1.0016727E+03   1.0016907E+03   1.0017377E+03   1.0017883E+03   1.0018257E+03   1.0014834E+03   1.0015154E+03   1.0015634E+03   1.0016003E+03   1.0013142E+03   1.0013305E+03   1.0013727E+03   1.0014148E+03   1.0011802E+03   1.0012101E+03   1.0012557E+03   1.0010772E+03   1.0011152E+03   1.0009831E+03   1.0010012E+03   1.0000004E+03   1.0000004E+03   1.0000004E+03   1.0000004E+03   1.0000004E+03   1.0000005E+03   1.0000005E+03   1.0000005E+03   1.0000005E+03   1.0000005E+03   1.0000005E+03   1.0000005E+03   1.0000006E+03   1.0000007E+03   1.0000007E+03   1.0000007E+03   1.0000007E+03   1.0000007E+03   1.0000007E+03   1.0000007E+03   1.0000007E+03   1.0000007E+03   1.0000009E+03   1.0000009E+03   1.0000009E+03   1.0000009E+03   1.0000009E+03   1.0000009E+03   1.0000010E+03   1.0000010E+03   1.0000010E+03   1.0000010E+03   1.0000010E+03   1.0000010E+03   1.0000010E+03   1.0000010E+03   1.0000012E+03   1.0000013E+03   1.0000013E+03   1.0000013E+03   1.0000013E+03   1.0000013E+03   1.0000013E+03   1.0000013E+03   1.0000013E+03   1.0000016E+03   1.0000016E+03   1.0000017E+03   1.0000017E+03   1.0000018E+03   1.0000018E+03   1.0000018E+03   1.0000018E+03   1.0000018E+03   1.0000021E+03   1.0000021E+03   1.0000023E+03   1.0000023E+03   1.0000023E+03   1.0000023E+03   1.0000023E+03   1.0000023E+03   1.0000023E+03   1.0000028E+03   1.0000029E+03   1.0000029E+03   1.0000030E+03   1.0000031E+03   1.0000031E+03   1.0000031E+03   1.0000031E+03   1.0000031E+03   1.0000037E+03   1.0000038E+03   1.0000039E+03   1.0000040E+03   1.0000040E+03   1.0000040E+03   1.0000040E+03   1.0000040E+03   1.0000040E+03   1.0000048E+03   1.0000049E+03   1.0000051E+03   1.0000051E+03   1.0000051E+03   1.0000051E+03   1.0000051E+03   1.0000051E+03   1.0000051E+03   1.0000063E+03   1.0000064E+03   1.0000066E+03   1.0000067E+03   1.0000067E+03   1.0000067E+03   1.0000067E+03   1.0000067E+03   1.0000067E+03   1.0000082E+03   1.0000083E+03   1.0000083E+03   1.0000083E+03   1.0000084E+03   1.0000084E+03   1.0000084E+03   1.0000084E+03   1.0000085E+03   1.0000104E+03   1.0000107E+03   1.0000107E+03   1.0000107E+03   1.0000107E+03   1.0000108E+03   1.0000108E+03   1.0000108E+03   1.0000108E+03   1.0000135E+03   1.0000137E+03   1.0000138E+03   1.0000139E+03   1.0000139E+03   1.0000139E+03   1.0000139E+03   1.0000139E+03   1.0000139E+03   1.0000172E+03   1.0000175E+03   1.0000176E+03   1.0000176E+03   1.0000176E+03   1.0000175E+03   1.0000175E+03   1.0000175E+03   1.0000175E+03   1.0000218E+03   1.0000220E+03   1.0000223E+03   1.0000223E+03   1.0000225E+03   1.0000223E+03   1.0000223E+03   1.0000222E+03   1.0000222E+03   1.0000276E+03   1.0000279E+03   1.0000282E+03   1.0000282E+03   1.0000281E+03   1.0000281E+03   1.0000280E+03   1.0000280E+03   1.0000279E+03   1.0000350E+03   1.0000354E+03   1.0000356E+03   1.0000356E+03   1.0000355E+03   1.0000354E+03   1.0000353E+03   1.0000351E+03   1.0000351E+03   1.0000442E+03   1.0000444E+03   1.0000446E+03   1.0000444E+03   1.0000442E+03   1.0000441E+03   1.0000439E+03   1.0000438E+03   1.0000438E+03   1.0000555E+03   1.0000557E+03   1.0000557E+03   1.0000554E+03   1.0000551E+03   1.0000547E+03   1.0000546E+03   1.0000544E+03   1.0000542E+03   1.0000695E+03   1.0000695E+03   1.0000692E+03   1.0000687E+03   1.0000682E+03   1.0000677E+03   1.0000674E+03   1.0000671E+03   1.0000671E+03   1.0000863E+03   1.0000861E+03   1.0000856E+03   1.0000847E+03   1.0000840E+03   1.0000834E+03   1.0000828E+03   1.0000825E+03   1.0000823E+03   1.0001064E+03   1.0001058E+03   1.0001046E+03   1.0001036E+03   1.0001025E+03   1.0001019E+03   1.0001013E+03   1.0001009E+03   1.0001006E+03   1.0001309E+03   1.0001294E+03   1.0001278E+03   1.0001262E+03   1.0001250E+03   1.0001240E+03   1.0001234E+03   1.0001229E+03   1.0001227E+03   1.0001583E+03   1.0001564E+03   1.0001541E+03   1.0001521E+03   1.0001506E+03   1.0001495E+03   1.0001490E+03   1.0001485E+03   1.0001482E+03   1.0001883E+03   1.0001855E+03   1.0001827E+03   1.0001804E+03   1.0001788E+03   1.0001777E+03   1.0001772E+03   1.0001769E+03   1.0001771E+03   1.0002220E+03   1.0002189E+03   1.0002159E+03   1.0002134E+03   1.0002119E+03   1.0002110E+03   1.0002109E+03   1.0002109E+03   1.0002112E+03   1.0002614E+03   1.0002593E+03   1.0002568E+03   1.0002548E+03   1.0002537E+03   1.0002535E+03   1.0002539E+03   1.0002545E+03   1.0002548E+03   1.0003254E+03   1.0003264E+03   1.0003262E+03   1.0003256E+03   1.0003257E+03   1.0003264E+03   1.0003279E+03   1.0003292E+03   1.0003303E+03   1.0004703E+03   1.0004781E+03   1.0004829E+03   1.0004857E+03   1.0004880E+03   1.0004907E+03   1.0004936E+03   1.0004962E+03   1.0004978E+03   1.0008442E+03   1.0008638E+03   1.0008773E+03   1.0008860E+03   1.0008925E+03   1.0008979E+03   1.0009033E+03   1.0009076E+03   1.0009105E+03   1.0017411E+03   1.0017775E+03   1.0018043E+03   1.0018221E+03   1.0018345E+03   1.0018447E+03   1.0018534E+03   1.0018601E+03   1.0018645E+03   1.0034311E+03   1.0034891E+03   1.0035328E+03   1.0035626E+03   1.0035836E+03   1.0035996E+03   1.0036125E+03   1.0036226E+03   1.0036291E+03   1.0055552E+03   1.0056370E+03   1.0057002E+03   1.0057441E+03   1.0057746E+03   1.0057979E+03   1.0058163E+03   1.0058304E+03   1.0058394E+03   1.0071865E+03   1.0072914E+03   1.0073740E+03   1.0074320E+03   1.0074731E+03   1.0075040E+03   1.0075281E+03   1.0075464E+03   1.0075579E+03   1.0079890E+03   1.0081138E+03   1.0082131E+03   1.0082841E+03   1.0083347E+03   1.0083725E+03   1.0084023E+03   1.0084246E+03   1.0084387E+03   1.0082707E+03   1.0084100E+03   1.0085220E+03   1.0086031E+03   1.0086611E+03   1.0087048E+03   1.0087391E+03   1.0087650E+03   1.0087812E+03   1.0083549E+03   1.0085034E+03   1.0086235E+03   1.0087111E+03   1.0087742E+03   1.0088219E+03   1.0088596E+03   1.0088878E+03   1.0089057E+03   1.0083981E+03   1.0085510E+03   1.0086752E+03   1.0087661E+03   1.0088319E+03   1.0088820E+03   1.0089216E+03   1.0089516E+03   1.0089705E+03   1.0084460E+03   1.0086001E+03   1.0087252E+03   1.0088170E+03   1.0088835E+03   1.0089346E+03   1.0089751E+03   1.0090057E+03   1.0090251E+03   1.0084984E+03   1.0086512E+03   1.0087753E+03   1.0088662E+03   1.0089323E+03   1.0089832E+03   1.0090237E+03   1.0090545E+03   1.0090740E+03   1.0085405E+03   1.0086906E+03   1.0088123E+03   1.0089014E+03   1.0089662E+03   1.0090163E+03   1.0090564E+03   1.0090867E+03   1.0091060E+03   1.0084405E+03   1.0085871E+03   1.0087054E+03   1.0087919E+03   1.0088549E+03   1.0089035E+03   1.0089425E+03   1.0089722E+03   1.0089910E+03   1.0081969E+03   1.0083386E+03   1.0084529E+03   1.0085364E+03   1.0085970E+03   1.0086439E+03   1.0086814E+03   1.0087101E+03   1.0087282E+03   1.0078333E+03   1.0079694E+03   1.0080786E+03   1.0081581E+03   1.0082159E+03   1.0082604E+03   1.0082963E+03   1.0083235E+03   1.0083407E+03   1.0073757E+03   1.0075049E+03   1.0076083E+03   1.0076829E+03   1.0077371E+03   1.0077787E+03   1.0078123E+03   1.0078380E+03   1.0078541E+03   1.0068483E+03   1.0069694E+03   1.0070654E+03   1.0071343E+03   1.0071843E+03   1.0072225E+03   1.0072534E+03   1.0072767E+03   1.0072916E+03   1.0062723E+03   1.0063843E+03   1.0064724E+03   1.0065350E+03   1.0065798E+03   1.0066143E+03   1.0066418E+03   1.0066629E+03   1.0066761E+03   1.0056686E+03   1.0057712E+03   1.0058508E+03   1.0059067E+03   1.0059465E+03   1.0059767E+03   1.0060008E+03   1.0060194E+03   1.0060311E+03   1.0050574E+03   1.0051510E+03   1.0052227E+03   1.0052723E+03   1.0053069E+03   1.0053334E+03   1.0053544E+03   1.0053702E+03   1.0053803E+03   1.0044594E+03   1.0045447E+03   1.0046094E+03   1.0046538E+03   1.0046843E+03   1.0047072E+03   1.0047253E+03   1.0047390E+03   1.0047476E+03   1.0038923E+03   1.0039709E+03   1.0040301E+03   1.0040706E+03   1.0040982E+03   1.0041183E+03   1.0041340E+03   1.0041457E+03   1.0041531E+03   1.0033705E+03   1.0034428E+03   1.0034983E+03   1.0035366E+03   1.0035623E+03   1.0035806E+03   1.0035944E+03   1.0036046E+03   1.0036109E+03   1.0029039E+03   1.0029700E+03   1.0030229E+03   1.0030605E+03   1.0030861E+03   1.0031036E+03   1.0031161E+03   1.0031251E+03   1.0031306E+03   1.0024970E+03   1.0025560E+03   1.0026069E+03   1.0026452E+03   1.0026718E+03   1.0026898E+03   1.0027020E+03   1.0027104E+03   1.0027154E+03   1.0021501E+03   1.0022008E+03   1.0022487E+03   1.0022881E+03   1.0023171E+03   1.0023370E+03   1.0023502E+03   1.0023587E+03   1.0023633E+03   1.0018619E+03   1.0019031E+03   1.0019462E+03   1.0019856E+03   1.0020172E+03   1.0020401E+03   1.0020554E+03   1.0020649E+03   1.0020702E+03   1.0016282E+03   1.0016592E+03   1.0016954E+03   1.0017321E+03   1.0017646E+03   1.0017902E+03   1.0018083E+03   1.0018201E+03   1.0018265E+03   1.0014427E+03   1.0014659E+03   1.0014933E+03   1.0015242E+03   1.0015545E+03   1.0015804E+03   1.0016006E+03   1.0016144E+03   1.0016224E+03   1.0012917E+03   1.0013155E+03   1.0013358E+03   1.0013586E+03   1.0013830E+03   1.0014061E+03   1.0014255E+03   1.0014398E+03   1.0014486E+03   1.0011583E+03   1.0011918E+03   1.0012142E+03   1.0012314E+03   1.0012480E+03   1.0012651E+03   1.0012808E+03   1.0012933E+03   1.0013014E+03   1.0010357E+03   1.0010743E+03   1.0011074E+03   1.0011304E+03   1.0011451E+03   1.0011563E+03   1.0011664E+03   1.0011750E+03   1.0011810E+03   1.0009518E+03   1.0009727E+03   1.0010001E+03   1.0010286E+03   1.0010518E+03   1.0010681E+03   1.0010784E+03   1.0010850E+03   1.0010892E+03   1.0009237E+03   1.0009257E+03   1.0009359E+03   1.0009529E+03   1.0009708E+03   1.0009844E+03   1.0009933E+03   1.0009980E+03   1.0009044E+03   1.0008964E+03   1.0008968E+03   1.0008984E+03   1.0008995E+03   1.0009001E+03   1.0009084E+03   1.0008995E+03   1.0008899E+03   1.0008835E+03   1.0000005E+03   1.0000005E+03   1.0000005E+03   1.0000005E+03   1.0000005E+03   1.0000004E+03   1.0000004E+03   1.0000004E+03   1.0000007E+03   1.0000007E+03   1.0000007E+03   1.0000007E+03   1.0000007E+03   1.0000007E+03   1.0000006E+03   1.0000005E+03   1.0000009E+03   1.0000009E+03   1.0000009E+03   1.0000009E+03   1.0000009E+03   1.0000009E+03   1.0000007E+03   1.0000007E+03   1.0000010E+03   1.0000010E+03   1.0000010E+03   1.0000010E+03   1.0000010E+03   1.0000010E+03   1.0000010E+03   1.0000010E+03   1.0000013E+03   1.0000013E+03   1.0000013E+03   1.0000013E+03   1.0000013E+03   1.0000013E+03   1.0000013E+03   1.0000013E+03   1.0000018E+03   1.0000018E+03   1.0000018E+03   1.0000018E+03   1.0000018E+03   1.0000018E+03   1.0000017E+03   1.0000017E+03   1.0000023E+03   1.0000023E+03   1.0000023E+03   1.0000023E+03   1.0000023E+03   1.0000023E+03   1.0000023E+03   1.0000023E+03   1.0000031E+03   1.0000031E+03   1.0000031E+03   1.0000031E+03   1.0000031E+03   1.0000031E+03   1.0000030E+03   1.0000029E+03   1.0000040E+03   1.0000040E+03   1.0000040E+03   1.0000040E+03   1.0000040E+03   1.0000040E+03   1.0000040E+03   1.0000039E+03   1.0000051E+03   1.0000051E+03   1.0000051E+03   1.0000051E+03   1.0000051E+03   1.0000051E+03   1.0000051E+03   1.0000051E+03   1.0000067E+03   1.0000067E+03   1.0000067E+03   1.0000067E+03   1.0000067E+03   1.0000067E+03   1.0000067E+03   1.0000066E+03   1.0000085E+03   1.0000085E+03   1.0000084E+03   1.0000084E+03   1.0000084E+03   1.0000084E+03   1.0000083E+03   1.0000083E+03   1.0000108E+03   1.0000108E+03   1.0000108E+03   1.0000108E+03   1.0000108E+03   1.0000107E+03   1.0000107E+03   1.0000107E+03   1.0000139E+03   1.0000139E+03   1.0000139E+03   1.0000139E+03   1.0000139E+03   1.0000139E+03   1.0000139E+03   1.0000138E+03   1.0000175E+03   1.0000175E+03   1.0000175E+03   1.0000175E+03   1.0000175E+03   1.0000176E+03   1.0000176E+03   1.0000176E+03   1.0000222E+03   1.0000222E+03   1.0000222E+03   1.0000223E+03   1.0000223E+03   1.0000225E+03   1.0000223E+03   1.0000223E+03   1.0000279E+03   1.0000279E+03   1.0000280E+03   1.0000280E+03   1.0000281E+03   1.0000281E+03   1.0000282E+03   1.0000282E+03   1.0000351E+03   1.0000351E+03   1.0000351E+03   1.0000353E+03   1.0000354E+03   1.0000355E+03   1.0000356E+03   1.0000356E+03   1.0000437E+03   1.0000438E+03   1.0000438E+03   1.0000439E+03   1.0000441E+03   1.0000442E+03   1.0000444E+03   1.0000446E+03   1.0000541E+03   1.0000542E+03   1.0000544E+03   1.0000546E+03   1.0000547E+03   1.0000551E+03   1.0000554E+03   1.0000557E+03   1.0000670E+03   1.0000671E+03   1.0000671E+03   1.0000674E+03   1.0000677E+03   1.0000682E+03   1.0000687E+03   1.0000692E+03   1.0000823E+03   1.0000823E+03   1.0000825E+03   1.0000828E+03   1.0000834E+03   1.0000840E+03   1.0000847E+03   1.0000856E+03   1.0001006E+03   1.0001006E+03   1.0001009E+03   1.0001013E+03   1.0001019E+03   1.0001025E+03   1.0001036E+03   1.0001046E+03   1.0001227E+03   1.0001227E+03   1.0001229E+03   1.0001234E+03   1.0001240E+03   1.0001250E+03   1.0001262E+03   1.0001278E+03   1.0001482E+03   1.0001482E+03   1.0001485E+03   1.0001490E+03   1.0001495E+03   1.0001506E+03   1.0001521E+03   1.0001541E+03   1.0001771E+03   1.0001771E+03   1.0001769E+03   1.0001772E+03   1.0001777E+03   1.0001788E+03   1.0001804E+03   1.0001827E+03   1.0002112E+03   1.0002112E+03   1.0002109E+03   1.0002109E+03   1.0002110E+03   1.0002119E+03   1.0002134E+03   1.0002159E+03   1.0002551E+03   1.0002548E+03   1.0002545E+03   1.0002539E+03   1.0002535E+03   1.0002537E+03   1.0002548E+03   1.0002568E+03   1.0003305E+03   1.0003303E+03   1.0003292E+03   1.0003279E+03   1.0003264E+03   1.0003257E+03   1.0003256E+03   1.0003262E+03   1.0004984E+03   1.0004978E+03   1.0004962E+03   1.0004936E+03   1.0004907E+03   1.0004880E+03   1.0004857E+03   1.0004829E+03   1.0009114E+03   1.0009105E+03   1.0009076E+03   1.0009033E+03   1.0008979E+03   1.0008925E+03   1.0008860E+03   1.0008773E+03   1.0018660E+03   1.0018645E+03   1.0018601E+03   1.0018534E+03   1.0018447E+03   1.0018345E+03   1.0018221E+03   1.0018043E+03   1.0036313E+03   1.0036291E+03   1.0036226E+03   1.0036125E+03   1.0035996E+03   1.0035836E+03   1.0035626E+03   1.0035328E+03   1.0058423E+03   1.0058394E+03   1.0058304E+03   1.0058163E+03   1.0057979E+03   1.0057746E+03   1.0057441E+03   1.0057002E+03   1.0075620E+03   1.0075579E+03   1.0075464E+03   1.0075281E+03   1.0075040E+03   1.0074731E+03   1.0074320E+03   1.0073740E+03   1.0084434E+03   1.0084387E+03   1.0084246E+03   1.0084023E+03   1.0083725E+03   1.0083347E+03   1.0082841E+03   1.0082131E+03   1.0087867E+03   1.0087812E+03   1.0087650E+03   1.0087391E+03   1.0087048E+03   1.0086611E+03   1.0086031E+03   1.0085220E+03   1.0089119E+03   1.0089057E+03   1.0088878E+03   1.0088596E+03   1.0088219E+03   1.0087742E+03   1.0087111E+03   1.0086235E+03   1.0089769E+03   1.0089705E+03   1.0089516E+03   1.0089216E+03   1.0088820E+03   1.0088319E+03   1.0087661E+03   1.0086752E+03   1.0090317E+03   1.0090251E+03   1.0090057E+03   1.0089751E+03   1.0089346E+03   1.0088835E+03   1.0088170E+03   1.0087252E+03   1.0090807E+03   1.0090740E+03   1.0090545E+03   1.0090237E+03   1.0089832E+03   1.0089323E+03   1.0088662E+03   1.0087753E+03   1.0091126E+03   1.0091060E+03   1.0090867E+03   1.0090564E+03   1.0090163E+03   1.0089662E+03   1.0089014E+03   1.0088123E+03   1.0089975E+03   1.0089910E+03   1.0089722E+03   1.0089425E+03   1.0089035E+03   1.0088549E+03   1.0087919E+03   1.0087054E+03   1.0087344E+03   1.0087282E+03   1.0087101E+03   1.0086814E+03   1.0086439E+03   1.0085970E+03   1.0085364E+03   1.0084529E+03   1.0083468E+03   1.0083407E+03   1.0083235E+03   1.0082963E+03   1.0082604E+03   1.0082159E+03   1.0081581E+03   1.0080786E+03   1.0078596E+03   1.0078541E+03   1.0078380E+03   1.0078123E+03   1.0077787E+03   1.0077371E+03   1.0076829E+03   1.0076083E+03   1.0072968E+03   1.0072916E+03   1.0072767E+03   1.0072534E+03   1.0072225E+03   1.0071843E+03   1.0071343E+03   1.0070654E+03   1.0066808E+03   1.0066761E+03   1.0066629E+03   1.0066418E+03   1.0066143E+03   1.0065798E+03   1.0065350E+03   1.0064724E+03   1.0060350E+03   1.0060311E+03   1.0060194E+03   1.0060008E+03   1.0059767E+03   1.0059465E+03   1.0059067E+03   1.0058508E+03   1.0053839E+03   1.0053803E+03   1.0053702E+03   1.0053544E+03   1.0053334E+03   1.0053069E+03   1.0052723E+03   1.0052227E+03   1.0047505E+03   1.0047476E+03   1.0047390E+03   1.0047253E+03   1.0047072E+03   1.0046843E+03   1.0046538E+03   1.0046094E+03   1.0041556E+03   1.0041531E+03   1.0041457E+03   1.0041340E+03   1.0041183E+03   1.0040982E+03   1.0040706E+03   1.0040301E+03   1.0036130E+03   1.0036109E+03   1.0036046E+03   1.0035944E+03   1.0035806E+03   1.0035623E+03   1.0035366E+03   1.0034983E+03   1.0031324E+03   1.0031306E+03   1.0031251E+03   1.0031161E+03   1.0031036E+03   1.0030861E+03   1.0030605E+03   1.0030229E+03   1.0027169E+03   1.0027154E+03   1.0027104E+03   1.0027020E+03   1.0026898E+03   1.0026718E+03   1.0026452E+03   1.0026069E+03   1.0023649E+03   1.0023633E+03   1.0023587E+03   1.0023502E+03   1.0023370E+03   1.0023171E+03   1.0022881E+03   1.0022487E+03   1.0020718E+03   1.0020702E+03   1.0020649E+03   1.0020554E+03   1.0020401E+03   1.0020172E+03   1.0019856E+03   1.0019462E+03   1.0018287E+03   1.0018265E+03   1.0018201E+03   1.0018083E+03   1.0017902E+03   1.0017646E+03   1.0017321E+03   1.0016954E+03   1.0016250E+03   1.0016224E+03   1.0016144E+03   1.0016006E+03   1.0015804E+03   1.0015545E+03   1.0015242E+03   1.0014933E+03   1.0014515E+03   1.0014486E+03   1.0014398E+03   1.0014255E+03   1.0014061E+03   1.0013830E+03   1.0013586E+03   1.0013358E+03   1.0013042E+03   1.0013014E+03   1.0012933E+03   1.0012808E+03   1.0012651E+03   1.0012480E+03   1.0012314E+03   1.0012142E+03   1.0011831E+03   1.0011810E+03   1.0011750E+03   1.0011664E+03   1.0011563E+03   1.0011451E+03   1.0011304E+03   1.0011074E+03   1.0010906E+03   1.0010892E+03   1.0010850E+03   1.0010784E+03   1.0010681E+03   1.0010518E+03   1.0010286E+03   1.0010001E+03   1.0009998E+03   1.0009980E+03   1.0009933E+03   1.0009844E+03   1.0009708E+03   1.0009529E+03   1.0009359E+03   1.0009257E+03   1.0009003E+03   1.0009001E+03   1.0008995E+03   1.0008984E+03   1.0008968E+03   1.0008964E+03   1.0009044E+03   1.0008813E+03   1.0008835E+03   1.0008899E+03   1.0008995E+03   1.0009084E+03   1.0000004E+03   1.0000004E+03   1.0000004E+03   1.0000004E+03   1.0000004E+03   1.0000002E+03   1.0000002E+03   1.0000005E+03   1.0000005E+03   1.0000005E+03   1.0000005E+03   1.0000004E+03   1.0000004E+03   1.0000004E+03   1.0000002E+03   1.0000007E+03   1.0000007E+03   1.0000007E+03   1.0000007E+03   1.0000006E+03   1.0000005E+03   1.0000004E+03   1.0000004E+03   1.0000010E+03   1.0000009E+03   1.0000009E+03   1.0000009E+03   1.0000008E+03   1.0000007E+03   1.0000006E+03   1.0000004E+03   1.0000013E+03   1.0000012E+03   1.0000012E+03   1.0000012E+03   1.0000010E+03   1.0000009E+03   1.0000009E+03   1.0000007E+03   1.0000016E+03   1.0000016E+03   1.0000016E+03   1.0000015E+03   1.0000013E+03   1.0000013E+03   1.0000012E+03   1.0000009E+03   1.0000021E+03   1.0000021E+03   1.0000021E+03   1.0000020E+03   1.0000018E+03   1.0000018E+03   1.0000015E+03   1.0000013E+03   1.0000029E+03   1.0000028E+03   1.0000027E+03   1.0000026E+03   1.0000025E+03   1.0000024E+03   1.0000021E+03   1.0000019E+03   1.0000038E+03   1.0000037E+03   1.0000037E+03   1.0000036E+03   1.0000035E+03   1.0000033E+03   1.0000032E+03   1.0000028E+03   1.0000049E+03   1.0000048E+03   1.0000048E+03   1.0000046E+03   1.0000046E+03   1.0000045E+03   1.0000045E+03   1.0000043E+03   1.0000064E+03   1.0000063E+03   1.0000062E+03   1.0000060E+03   1.0000060E+03   1.0000061E+03   1.0000062E+03   1.0000062E+03   1.0000083E+03   1.0000082E+03   1.0000080E+03   1.0000079E+03   1.0000079E+03   1.0000080E+03   1.0000082E+03   1.0000082E+03   1.0000107E+03   1.0000104E+03   1.0000102E+03   1.0000101E+03   1.0000101E+03   1.0000101E+03   1.0000103E+03   1.0000098E+03   1.0000137E+03   1.0000135E+03   1.0000132E+03   1.0000128E+03   1.0000126E+03   1.0000126E+03   1.0000126E+03   1.0000118E+03   1.0000175E+03   1.0000172E+03   1.0000168E+03   1.0000165E+03   1.0000161E+03   1.0000159E+03   1.0000155E+03   1.0000145E+03   1.0000220E+03   1.0000218E+03   1.0000213E+03   1.0000209E+03   1.0000204E+03   1.0000201E+03   1.0000196E+03   1.0000185E+03   1.0000279E+03   1.0000276E+03   1.0000272E+03   1.0000266E+03   1.0000261E+03   1.0000256E+03   1.0000251E+03   1.0000240E+03   1.0000354E+03   1.0000350E+03   1.0000345E+03   1.0000338E+03   1.0000332E+03   1.0000328E+03   1.0000322E+03   1.0000311E+03   1.0000444E+03   1.0000442E+03   1.0000436E+03   1.0000428E+03   1.0000422E+03   1.0000417E+03   1.0000409E+03   1.0000398E+03   1.0000557E+03   1.0000555E+03   1.0000549E+03   1.0000543E+03   1.0000536E+03   1.0000530E+03   1.0000521E+03   1.0000506E+03   1.0000695E+03   1.0000695E+03   1.0000689E+03   1.0000684E+03   1.0000678E+03   1.0000674E+03   1.0000664E+03   1.0000642E+03   1.0000861E+03   1.0000863E+03   1.0000861E+03   1.0000860E+03   1.0000858E+03   1.0000858E+03   1.0000846E+03   1.0000818E+03   1.0001058E+03   1.0001064E+03   1.0001068E+03   1.0001072E+03   1.0001078E+03   1.0001088E+03   1.0001077E+03   1.0001039E+03   1.0001294E+03   1.0001309E+03   1.0001317E+03   1.0001331E+03   1.0001351E+03   1.0001375E+03   1.0001373E+03   1.0001321E+03   1.0001564E+03   1.0001583E+03   1.0001605E+03   1.0001630E+03   1.0001667E+03   1.0001720E+03   1.0001739E+03   1.0001670E+03   1.0001855E+03   1.0001883E+03   1.0001913E+03   1.0001952E+03   1.0002012E+03   1.0002108E+03   1.0002165E+03   1.0002085E+03   1.0002189E+03   1.0002220E+03   1.0002253E+03   1.0002299E+03   1.0002384E+03   1.0002538E+03   1.0002669E+03   1.0002584E+03   1.0002593E+03   1.0002614E+03   1.0002636E+03   1.0002676E+03   1.0002778E+03   1.0003003E+03   1.0003246E+03   1.0003188E+03   1.0003264E+03   1.0003254E+03   1.0003239E+03   1.0003246E+03   1.0003345E+03   1.0003637E+03   1.0004031E+03   1.0004040E+03   1.0004781E+03   1.0004703E+03   1.0004608E+03   1.0004544E+03   1.0004611E+03   1.0004952E+03   1.0005484E+03   1.0005609E+03   1.0008638E+03   1.0008442E+03   1.0008217E+03   1.0008035E+03   1.0008032E+03   1.0008374E+03   1.0008936E+03   1.0009192E+03   1.0017775E+03   1.0017411E+03   1.0017000E+03   1.0016649E+03   1.0016517E+03   1.0016702E+03   1.0017058E+03   1.0017393E+03   1.0034891E+03   1.0034311E+03   1.0033666E+03   1.0033089E+03   1.0032692E+03   1.0032381E+03   1.0032174E+03   1.0032556E+03   1.0056370E+03   1.0055552E+03   1.0054650E+03   1.0053806E+03   1.0053023E+03   1.0051926E+03   1.0050934E+03   1.0051471E+03   1.0072914E+03   1.0071865E+03   1.0070718E+03   1.0069623E+03   1.0068474E+03   1.0066696E+03   1.0065156E+03   1.0066008E+03   1.0081138E+03   1.0079890E+03   1.0078544E+03   1.0077258E+03   1.0075889E+03   1.0073779E+03   1.0072153E+03   1.0073412E+03   1.0084100E+03   1.0082707E+03   1.0081219E+03   1.0079828E+03   1.0078400E+03   1.0076290E+03   1.0074896E+03   1.0076432E+03   1.0085034E+03   1.0083549E+03   1.0081979E+03   1.0080540E+03   1.0079143E+03   1.0077180E+03   1.0076024E+03   1.0077763E+03   1.0085510E+03   1.0083981E+03   1.0082374E+03   1.0080923E+03   1.0079570E+03   1.0077747E+03   1.0076784E+03   1.0078646E+03   1.0086001E+03   1.0084460E+03   1.0082847E+03   1.0081401E+03   1.0080087E+03   1.0078356E+03   1.0077496E+03   1.0079415E+03   1.0086512E+03   1.0084984E+03   1.0083383E+03   1.0081952E+03   1.0080662E+03   1.0078966E+03   1.0078126E+03   1.0080046E+03   1.0086906E+03   1.0085405E+03   1.0083828E+03   1.0082419E+03   1.0081136E+03   1.0079422E+03   1.0078533E+03   1.0080412E+03   1.0085871E+03   1.0084405E+03   1.0082864E+03   1.0081481E+03   1.0080215E+03   1.0078507E+03   1.0077590E+03   1.0079408E+03   1.0083386E+03   1.0081969E+03   1.0080472E+03   1.0079126E+03   1.0077890E+03   1.0076221E+03   1.0075306E+03   1.0077048E+03   1.0079694E+03   1.0078333E+03   1.0076892E+03   1.0075590E+03   1.0074393E+03   1.0072791E+03   1.0071903E+03   1.0073550E+03   1.0075049E+03   1.0073757E+03   1.0072381E+03   1.0071127E+03   1.0069979E+03   1.0068467E+03   1.0067621E+03   1.0069144E+03   1.0069694E+03   1.0068483E+03   1.0067180E+03   1.0065984E+03   1.0064888E+03   1.0063479E+03   1.0062686E+03   1.0064053E+03   1.0063843E+03   1.0062723E+03   1.0061503E+03   1.0060369E+03   1.0059331E+03   1.0058026E+03   1.0057279E+03   1.0058473E+03   1.0057712E+03   1.0056686E+03   1.0055552E+03   1.0054484E+03   1.0053505E+03   1.0052296E+03   1.0051579E+03   1.0052596E+03   1.0051510E+03   1.0050574E+03   1.0049527E+03   1.0048526E+03   1.0047607E+03   1.0046489E+03   1.0045801E+03   1.0046658E+03   1.0045447E+03   1.0044594E+03   1.0043625E+03   1.0042693E+03   1.0041835E+03   1.0040813E+03   1.0040177E+03   1.0040901E+03   1.0039709E+03   1.0038923E+03   1.0038036E+03   1.0037178E+03   1.0036386E+03   1.0035468E+03   1.0034918E+03   1.0035535E+03   1.0034428E+03   1.0033705E+03   1.0032904E+03   1.0032134E+03   1.0031415E+03   1.0030598E+03   1.0030144E+03   1.0030623E+03   1.0029700E+03   1.0029039E+03   1.0028334E+03   1.0027667E+03   1.0027024E+03   1.0026290E+03   1.0025908E+03   1.0026188E+03   1.0025560E+03   1.0024970E+03   1.0024374E+03   1.0023821E+03   1.0023245E+03   1.0022569E+03   1.0022226E+03   1.0022264E+03   1.0022008E+03   1.0021501E+03   1.0021027E+03   1.0020579E+03   1.0020051E+03   1.0019455E+03   1.0019177E+03   1.0019031E+03   1.0018619E+03   1.0018257E+03   1.0017883E+03   1.0017377E+03   1.0016907E+03   1.0016727E+03   1.0016592E+03   1.0016282E+03   1.0016003E+03   1.0015634E+03   1.0015154E+03   1.0014834E+03   1.0014659E+03   1.0014427E+03   1.0014148E+03   1.0013727E+03   1.0013305E+03   1.0013142E+03   1.0013155E+03   1.0012917E+03   1.0012557E+03   1.0012101E+03   1.0011802E+03   1.0011918E+03   1.0011583E+03   1.0011152E+03   1.0010772E+03   1.0010743E+03   1.0010357E+03   1.0010012E+03   1.0009831E+03   1.0009727E+03   1.0009518E+03   1.0009237E+03 
Mass 1 2975 float
  4.0000001E-01   4.0000001E-01   4.0000001E-01   4.0000001E-01   4.0000001E-01   4.0000001E-01   4.0000001E-01   4.0000001E-01   4.0000001E-01   4.0000001E-01   4.0000001E-01   4.0000001E-01   4.0000001E-01   4.0000001E-01   4.0000001E-01   4.0000001E-01   4.0000001E-01   4.0000001E-01   4.0000001E-01   4.0000001E-01   4.0000001E-01   4.0000001E-01   4.0000001E-01   4.0000001E-01   4.0000001E-01   4.0000001E-01   4.0000001E-01   4.0000001E-01   4.0000001E-01   4.0000001E-01   4.0000001E-01   4.0000001E-01   4.0000001E-01   4.0000001E-01   4.0000001E-01   4.0000001E-01   4.0000001E-01   4.0000001E-01   4.0000001E-01   4.0000001E-01   4.0000001E-01   4.0000001E-01   4.0000001E-01   4.0000001E-01   4.0000001E-01   4.0000001E-01   4.0000001E-01   4.0000001E-01   4.0000001E-01   4.0000001E-01   4.0000001E-01   4.0000001E-01   4.0000001E-01   4.0000001E-01   4.0000001E-01   4.0000001E-01   4.0000001E-01   4.0000001E-01   4.0000001E-01   4.0000001E-01   4.0000001E-01   4.0000001E-01   4.0000001E-01   4.0000001E-01   4.0000001E-01   4.0000001E-01   4.0000001E-01   4.0000001E-01   4.0000001E-01   4.0000001E-01   4.0000001E-01   4.0000001E-01   4.0000001E-01   4.0000001E-01   4.0000001E-01   4.0000001E-01   4.0000001E-01   4.0000001E-01   4.0000001E-01   4.0000001E-01   4.0000001E-01   4.0000001E-01   4.0000001E-01   4.0000001E-01   4.0000001E-01   4.0000001E-01   4.0000001E-01   4.0000001E-01   4.0000001E-01   4.0000001E-01   4.0000001E-01   4.0000001E-01   4.0000001E-01   4.0000001E-01   4.0000001E-01   4.0000001E-01   4.0000001E-01   4.0000001E-01   4.0000001E-01   4.0000001E-01   4.0000001E-01   4.0000001E-01   4.0000001E-01   4.0000001E-01   4.0000001E-01   4.0000001E-01   4.0000001E-01   4.0000001E-01   4.0000001E-01   4.0000001E-01   4.0000001E-01   4.0000001E-01   4.0000001E-01   4.0000001E-01   4.0000001E-01   4.0000001E-01   4.0000001E-01   4.0000001E-01   4.0000001E-01   4.0000001E-01   4.0000001E-01   4.0000001E-01   4.0000001E-01   4.0000001E-01   4.0000001E-01   4.0000001E-01   4.0000001E-01   4.0000001E-01   4.0000001E-01   4.0000001E-01   4.0000001E-01   4.0000001E-01   4.0000001E-01   4.0000001E-01   4.0000001E-01   4.0000001E-01   4.0000001E-01   4.0000001E-01   4.0000001E-01   4.0000001E-01   4.0000001E-01   4.0000001E-01   4.0000001E-01   4.0000001E-01   4.0000001E-01   4.0000001E-01   4.0000001E-01   4.0000001E-01   4.0000001E-01   4.0000001E-01   4.0000001E-01   4.0000001E-01   4.0000001E-01   4.0000001E-01   4.0000001E-01   4.0000001E-01   4.0000001E-01   4.0000001E-01   4.0000001E-01   4.0000001E-01   4.0000001E-01   4.0000001E-01   4.0000001E-01   4.0000001E-01   4.0000001E-01   4.0000001E-01   4.0000001E-01   4.0000001E-01   4.0000001E-01   4.0000001E-01   4.0000001E-01   4.0000001E-01   4.0000001E-01   4.0000001E-01   4.0000001E-01   4.0000001E-01   4.0000001E-01   4.0000001E-01   4.0000001E-01   4.0000001E-01   4.0000001E-01   4.0000001E-01   4.0000001E-01   4.0000001E-01   4.0000001E-01   4.0000001E-01   4.0000001E-01   4.0000001E-01   4.0000001E-01   4.0000001E-01   4.0000001E-01   4.0000001E-01   4.0000001E-01   4.0000001E-01   4.0000001E-01   4.0000001E-01   4.0000001E-01   4.0000001E-01   4.0000001E-01   4.0000001E-01   4.0000001E-01   4.0000001E-01   4.0000001E-01   4.0000001E-01   4.0000001E-01   4.0000001E-01   4.0000001E-01   4.0000001E-01   4.0000001E-01   4.0000001E-01   4.0000001E-01   4.0000001E-01   4.0000001E-01   4.0000001E-01   4.0000001E-01   4.0000001E-01   4.0000001E-01   4.0000001E-01   4.0000001E-01   4.0000001E-01   4.0000001E-01   4.0000001E-01   4.0000001E-01   4.0000001E-01   4.0000001E-01   4.0000001E-01   4.0000001E-01   4.0000001E-01   4.0000001E-01   4.0000001E-01   4.0000001E-01   4.0000001E-01   4.0000001E-01   4.0000001E-01   4.0000001E-01   4.0000001E-01   4.0000001E-01   4.0000001E-01   4.0000001E-01   4.0000001E-01   4.0000001E-01   4.0000001E-01   4.0000001E-01   4.0000001E-01   4.0000001E-01   4.0000001E-01   4.0000001E-01   4.0000001E-01   4.0000001E-01   4.0000001E-01   4.0000001E-01   4.0000001E-01   4.0000001E-01   4.0000001E-01   4.0000001E-01   4.0000001E-01   4.0000001E-01   4.0000001E-01   4.0000001E-01   4.0000001E-01   4.0000001E-01   4.0000001E-01   4.0000001E-01   4.0000001E-01   4.0000001E-01   4.0000001E-01   4.0000001E-01   4.0000001E-01   4.0000001E-01   4.0000001E-01   4.0000001E-01   4.0000001E-01   4.0000001E-01   4.0000001E-01   4.0000001E-01   4.0000001E-01   4.0000001E-01   4.0000001E-01   4.0000001E-01   4.0000001E-01   4.0000001E-01   4.0000001E-01   4.0000001E-01   4.0000001E-01   4.0000001E-01   4.0000001E-01   4.0000001E-01   4.0000001E-01   4.0000001E-01   4.0000001E-01   4.0000001E-01   4.0000001E-01   4.0000001E-01   4.0000001E-01   4.0000001E-01   4.0000001E-01   4.0000001E-01   4.0000001E-01   4.0000001E-01   4.0000001E-01   4.0000001E-01   4.0000001E-01   4.0000001E-01   4.0000001E-01   4.0000001E-01   4.0000001E-01   4.0000001E-01   4.0000001E-01   4.0000001E-01   4.0000001E-01   4.0000001E-01   4.0000001E-01   4.0000001E-01   4.0000001E-01   4.0000001E-01   4.0000001E-01   4.0000001E-01   4.0000001E-01   4.0000001E-01   4.0000001E-01   4.0000001E-01   4.0000001E-01   4.0000001E-01   4.0000001E-01   4.0000001E-01   4.0000001E-01   4.0000001E-01   4.0000001E-01   4.0000001E-01   4.0000001E-01   4.0000001E-01   4.0000001E-01   4.0000001E-01   4.0000001E-01   4.0000001E-01   4.0000001E-01   4.0000001E-01   4.0000001E-01   4.0000001E-01   4.0000001E-01   4.0000001E-01   4.0000001E-01   4.0000001E-01   4.0000001E-01   4.0000001E-01   4.0000001E-01   4.0000001E-01   4.0000001E-01   4.0000001E-01   4.0000001E-01   4.0000001E-01   4.0000001E-01   4.0000001E-01   4.0000001E-01   4.0000001E-01   4.0000001E-01   4.0000001E-01   4.0000001E-01   4.0000001E-01   4.0000001E-01   4.0000001E-01   4.0000001E-01   4.0000001E-01   4.0000001E-01   4.0000001E-01   4.0000001E-01   4.0000001E-01   4.0000001E-01   4.0000001E-01   4.0000001E-01   4.0000001E-01   4.0000001E-01   4.0000001E-01   4.0000001E-01   4.0000001E-01   4.0000001E-01   4.0000001E-01   4.0000001E-01   4.0000001E-01   4.0000001E-01   4.0000001E-01   4.0000001E-01   4.0000001E-01   4.0000001E-01   4.0000001E-01   4.0000001E-01   4.0000001E-01   4.0000001E-01   4.0000001E-01   4.0000001E-01   4.0000001E-01   4.0000001E-01   4.0000001E-01   4.0000001E-01   4.0000001E-01   4.0000001E-01   4.0000001E-01   4.0000001E-01   4.0000001E-01   4.0000001E-01   4.0000001E-01   4.0000001E-01   4.0000001E-01   4.0000001E-01   4.0000001E-01   4.0000001E-01   4.0000001E-01   4.0000001E-01   4.0000001E-01   4.0000001E-01   4.0000001E-01   4.0000001E-01   4.0000001E-01   4.0000001E-01   4.0000001E-01   4.0000001E-01   4.0000001E-01   4.0000001E-01   4.0000001E-01   4.0000001E-01   4.0000001E-01   4.0000001E-01   4.0000001E-01   4.0000001E-01   4.0000001E-01   4.0000001E-01   4.0000001E-01   4.0000001E-01   4.0000001E-01   4.0000001E-01   4.0000001E-01   4.0000001E-01   4.0000001E-01   4.0000001E-01   4.0000001E-01   4.0000001E-01   4.0000001E-01   4.0000001E-01   4.0000001E-01   4.0000001E-01   4.0000001E-01   4.0000001E-01   4.0000001E-01   4.0000001E-01   4.0000001E-01   4.0000001E-01   4.0000001E-01   4.0000001E-01   4.0000001E-01   4.0000001E-01   4.0000001E-01   4.0000001E-01   4.0000001E-01   4.0000001E-01   4.0000001E-01   4.0000001E-01   4.0000001E-01   4.0000001E-01   4.0000001E-01   4.0000001E-01   4.0000001E-01   4.0000001E-01   4.0000001E-01   4.0000001E-01   4.0000001E-01   4.0000001E-01   4.0000001E-01   4.0000001E-01   4.0000001E-01   4.0000001E-01   4.0000001E-01   4.0000001E-01   4.0000001E-01   4.0000001E-01   4.0000001E-01   4.0000001E-01   4.0000001E-01   4.0000001E-01   4.0000001E-01   4.0000001E-01   4.0000001E-01   4.0000001E-01   4.0000001E-01   4.0000001E-01   4.0000001E-01   4.0000001E-01   4.0000001E-01   4.0000001E-01   4.0000001E-01   4.0000001E-01   4.0000001E-01   4.0000001E-01   4.0000001E-01   4.0000001E-01   4.0000001E-01   4.0000001E-01   4.0000001E-01   4.0000001E-01   4.0000001E-01   4.0000001E-01   4.0000001E-01   4.0000001E-01   4.0000001E-01   4.0000001E-01   4.0000001E-01   4.0000001E-01   4.0000001E-01   4.0000001E-01   4.0000001E-01   4.0000001E-01   4.0000001E-01   4.0000001E-01   4.0000001E-01   4.0000001E-01   4.0000001E-01   4.0000001E-01   4.0000001E-01   4.0000001E-01   4.0000001E-01   4.0000001E-01   4.0000001E-01   4.0000001E-01   4.0000001E-01   4.0000001E-01   4.0000001E-01   4.0000001E-01   4.0000001E-01   4.0000001E-01   4.0000001E-01   4.0000001E-01   4.0000001E-01   4.0000001E-01   4.0000001E-01   4.0000001E-01   4.0000001E-01   4.0000001E-01   4.0000001E-01   4.0000001E-01   4.0000001E-01   4.0000001E-01   4.0000001E-01   4.0000001E-01   4.0000001E-01   4.0000001E-01   4.0000001E-01   4.0000001E-01   4.0000001E-01   4.0000001E-01   4.0000001E-01   4.0000001E-01   4.0000001E-01   4.0000001E-01   4.0000001E-01   4.0000001E-01   4.0000001E-01   4.0000001E-01   4.0000001E-01   4.0000001E-01   4.0000001E-01   4.0000001E-01   4.0000001E-01   4.0000001E-01   4.0000001E-01   4.0000001E-01   4.0000001E-01   4.0000001E-01   4.0000001E-01   4.0000001E-01   4.0000001E-01   4.0000001E-01   4.0000001E-01   4.0000001E-01   4.0000001E-01   4.0000001E-01   4.0000001E-01   4.0000001E-01   4.0000001E-01   4.0000001E-01   4.0000001E-01   4.0000001E-01   4.0000001E-01   4.0000001E-01   4.0000001E-01   4.0000001E-01   4.0000001E-01   4.0000001E-01   4.0000001E-01   4.0000001E-01   4.0000001E-01   4.0000001E-01   4.0000001E-01   4.0000001E-01   4.0000001E-01   4.0000001E-01   4.0000001E-01   4.0000001E-01   4.0000001E-01   4.0000001E-01   4.0000001E-01   4.0000001E-01   4.0000001E-01   4.0000001E-01   4.0000001E-01   4.0000001E-01   4.0000001E-01   4.0000001E-01   4.0000001E-01   4.0000001E-01   4.0000001E-01   4.0000001E-01   4.0000001E-01   4.0000001E-01   4.0000001E-01   4.0000001E-01   4.0000001E-01   4.0000001E-01   4.0000001E-01   4.0000001E-01   4.0000001E-01   4.0000001E-01   4.0000001E-01   4.0000001E-01   4.0000001E-01   4.0000001E-01   4.0000001E-01   4.0000001E-01   4.0000001E-01   4.0000001E-01   4.0000001E-01   4.0000001E-01   4.0000001E-01   4.0000001E-01   4.0000001E-01   4.0000001E-01   4.0000001E-01   4.0000001E-01   4.0000001E-01   4.0000001E-01   4.0000001E-01   4.0000001E-01   4.0000001E-01   4.0000001E-01   4.0000001E-01   4.0000001E-01   4.0000001E-01   4.0000001E-01   4.0000001E-01   4.0000001E-01   4.0000001E-01   4.0000001E-01   4.0000001E-01   4.0000001E-01   4.0000001E-01   4.0000001E-01   4.0000001E-01   4.0000001E-01   4.0000001E-01   4.0000001E-01   4.0000001E-01   4.0000001E-01   4.0000001E-01   4.0000001E-01   4.0000001E-01   4.0000001E-01   4.0000001E-01   4.0000001E-01   4.0000001E-01   4.0000001E-01   4.0000001E-01   4.0000001E-01   4.0000001E-01   4.0000001E-01   4.0000001E-01   4.0000001E-01   4.0000001E-01   4.0000001E-01   4.0000001E-01   4.0000001E-01   4.0000001E-01   4.0000001E-01   4.0000001E-01   4.0000001E-01   4.0000001E-01   4.0000001E-01   4.0000001E-01   4.0000001E-01   4.0000001E-01   4.0000001E-01   4.0000001E-01   4.0000001E-01   4.0000001E-01   4.0000001E-01   4.0000001E-01   4.0000001E-01   4.0000001E-01   4.0000001E-01   4.0000001E-01   4.0000001E-01   4.0000001E-01   4.0000001E-01   4.0000001E-01   4.0000001E-01   4.0000001E-01   4.0000001E-01   4.0000001E-01   4.0000001E-01   4.0000001E-01   4.0000001E-01   4.0000001E-01   4.0000001E-01   4.0000001E-01   4.0000001E-01   4.0000001E-01   4.0000001E-01   4.0000001E-01   4.0000001E-01   4.0000001E-01   4.0000001E-01   4.0000001E-01   4.0000001E-01   4.0000001E-01   4.0000001E-01   4.0000001E-01   4.0000001E-01   4.0000001E-01   4.0000001E-01   4.0000001E-01   4.0000001E-01   4.0000001E-01   4.0000001E-01   4.0000001E-01   4.0000001E-01   4.0000001E-01   4.0000001E-01   4.0000001E-01   4.0000001E-01   4.0000001E-01   4.0000001E-01   4.0000001E-01   4.0000001E-01   4.0000001E-01   4.0000001E-01   4.0000001E-01   4.0000001E-01   4.0000001E-01   4.0000001E-01   4.0000001E-01   4.0000001E-01   4.0000001E-01   4.0000001E-01   4.0000001E-01   4.0000001E-01   4.0000001E-01   4.0000001E-01   4.0000001E-01   4.0000001E-01   4.0000001E-01   4.0000001E-01   4.0000001E-01   4.0000001E-01   4.0000001E-01   4.0000001E-01   4.0000001E-01   4.0000001E-01   4.0000001E-01   4.0000001E-01   4.0000001E-01   4.0000001E-01   4.0000001E-01   4.0000001E-01   4.0000001E-01   4.0000001E-01   4.0000001E-01   4.0000001E-01   4.0000001E-01   4.0000001E-01   4.0000001E-01   4.0000001E-01   4.0000001E-01   4.0000001E-01   4.0000001E-01   4.0000001E-01   4.0000001E-01   4.0000001E-01   4.0000001E-01   4.0000001E-01   4.0000001E-01   4.0000001E-01   4.0000001E-01   4.0000001E-01   4.0000001E-01   4.0000001E-01   4.0000001E-01   4.0000001E-01   4.0000001E-01   4.0000001E-01   4.0000001E-01   4.0000001E-01   4.0000001E-01   4.0000001E-01   4.0000001E-01   4.0000001E-01   4.0000001E-01   4.0000001E-01   4.0000001E-01   4.0000001E-01   4.0000001E-01   4.0000001E-01   4.0000001E-01   4.0000001E-01   4.0000001E-01   4.0000001E-01   4.0000001E-01   4.0000001E-01   4.0000001E-01   4.0000001E-01   4.0000001E-01   4.0000001E-01   4.0000001E-01   4.0000001E-01   4.0000001E-01   4.0000001E-01   4.0000001E-01   4.0000001E-01   4.0000001E-01   4.0000001E-01   4.0000001E-01   4.0000001E-01   4.0000001E-01   4.0000001E-01   4.0000001E-01   4.0000001E-01   4.0000001E-01   4.0000001E-01   4.0000001E-01   4.0000001E-01   4.0000001E-01   4.0000001E-01   4.0000001E-01   4.0000001E-01   4.0000001E-01   4.0000001E-01   4.0000001E-01   4.0000001E-01   4.0000001E-01   4.0000001E-01   4.0000001E-01   4.0000001E-01   4.0000001E-01   4.0000001E-01   4.0000001E-01   4.0000001E-01   4.0000001E-01   4.0000001E-01   4.0000001E-01   4.0000001E-01   4.0000001E-01   4.0000001E-01   4.0000001E-01   4.0000001E-01   4.0000001E-01   4.0000001E-01   4.0000001E-01   4.0000001E-01   4.0000001E-01   4.0000001E-01   4.0000001E-01   4.0000001E-01   4.0000001E-01   4.0000001E-01   4.0000001E-01   4.0000001E-01   4.0000001E-01   4.0000001E-01   4.0000001E-01   4.0000001E-01   4.0000001E-01   4.0000001E-01   4.0000001E-01   4.0000001E-01   4.0000001E-01   4.0000001E-01   4.0000001E-01   4.0000001E-01   4.0000001E-01   4.0000001E-01   4.0000001E-01   4.0000001E-01   4.0000001E-01   4.0000001E-01   4.0000001E-01   4.0000001E-01   4.0000001E-01   4.0000001E-01   4.0000001E-01   4.0000001E-01   4.0000001E-01   4.0000001E-01   4.0000001E-01   4.0000001E-01   4.0000001E-01   4.0000001E-01   4.0000001E-01   4.0000001E-01   4.0000001E-01   4.0000001E-01   4.0000001E-01   4.0000001E-01   4.0000001E-01   4.0000001E-01   4.0000001E-01   4.0000001E-01   4.0000001E-01   4.0000001E-01   4.0000001E-01   4.0000001E-01   4.0000001E-01   4.0000001E-01   4.0000001E-01   4.0000001E-01   4.0000001E-01   4.0000001E-01   4.0000001E-01   4.0000001E-01   4.0000001E-01   4.0000001E-01   4.0000001E-01   4.0000001E-01   4.0000001E-01   4.0000001E-01   4.0000001E-01   4.0000001E-01   4.0000001E-01   4.0000001E-01   4.0000001E-01   4.0000001E-01   4.0000001E-01   4.0000001E-01   4.0000001E-01   4.0000001E-01   4.0000001E-01   4.0000001E-01   4.0000001E-01   4.0000001E-01   4.0000001E-01   4.0000001E-01   4.0000001E-01   4.0000001E-01   4.0000001E-01   4.0000001E-01   4.0000001E-01   4.0000001E-01   4.0000001E-01   4.0000001E-01   4.0000001E-01   4.0000001E-01   4.0000001E-01   4.0000001E-01   4.0000001E-01   4.0000001E-01   4.0000001E-01   4.0000001E-01   4.0000001E-01   4.0000001E-01   4.0000001E-01   4.0000001E-01   4.0000001E-01   4.0000001E-01   4.0000001E-01   4.0000001E-01   4.0000001E-01   4.0000001E-01   4.0000001E-01   4.0000001E-01   4.0000001E-01   4.0000001E-01   4.0000001E-01   4.0000001E-01   4.0000001E-01   4.0000001E-01   4.0000001E-01   4.0000001E-01   4.0000001E-01   4.0000001E-01   4.0000001E-01   4.0000001E-01   4.0000001E-01   4.0000001E-01   4.0000001E-01   4.0000001E-01   4.0000001E-01   4.0000001E-01   4.0000001E-01   4.0000001E-01   4.0000001E-01   4.0000001E-01   4.0000001E-01   4.0000001E-01   4.0000001E-01   4.0000001E-01   4.0000001E-01   4.0000001E-01   4.0000001E-01   4.0000001E-01   4.0000001E-01   4.0000001E-01   4.0000001E-01   4.0000001E-01   4.0000001E-01   4.0000001E-01   4.0000001E-01   4.0000001E-01   4.0000001E-01   4.0000001E-01   4.0000001E-01   4.0000001E-01   4.0000001E-01   4.0000001E-01   4.0000001E-01   4.0000001E-01   4.0000001E-01   4.0000001E-01   4.0000001E-01   4.0000001E-01   4.0000001E-01   4.0000001E-01   4.0000001E-01   4.0000001E-01   4.0000001E-01   4.0000001E-01   4.0000001E-01   4.0000001E-01   4.0000001E-01   4.0000001E-01   4.0000001E-01   4.0000001E-01   4.0000001E-01   4.0000001E-01   4.0000001E-01   4.0000001E-01   4.0000001E-01   4.0000001E-01   4.0000001E-01   4.0000001E-01   4.0000001E-01   4.0000001E-01   4.0000001E-01   4.0000001E-01   4.0000001E-01   4.0000001E-01   4.0000001E-01   4.0000001E-01   4.0000001E-01   4.0000001E-01   4.0000001E-01   4.0000001E-01   4.0000001E-01   4.0000001E-01   4.0000001E-01   4.0000001E-01   4.0000001E-01   4.0000001E-01   4.0000001E-01   4.0000001E-01   4.0000001E-01   4.0000001E-01   4.0000001E-01   4.0000001E-01   4.0000001E-01   4.0000001E-01   4.0000001E-01   4.0000001E-01   4.0000001E-01   4.0000001E-01   4.0000001E-01   4.0000001E-01   4.0000001E-01   4.0000001E-01   4.0000001E-01   4.0000001E-01   4.0000001E-01   4.0000001E-01   4.0000001E-01   4.0000001E-01   4.0000001E-01   4.0000001E-01   4.0000001E-01   4.0000001E-01   4.0000001E-01   4.0000001E-01   4.0000001E-01   4.0000001E-01   4.0000001E-01   4.0000001E-01   4.0000001E-01   4.0000001E-01   4.0000001E-01   4.0000001E-01   4.0000001E-01   4.0000001E-01   4.0000001E-01   4.0000001E-01   4.0000001E-01   4.0000001E-01   4.0000001E-01   4.0000001E-01   4.0000001E-01   4.0000001E-01   4.0000001E-01   4.0000001E-01   4.0000001E-01   4.0000001E-01   4.0000001E-01   4.0000001E-01   4.0000001E-01   4.0000001E-01   4.0000001E-01   4.0000001E-01   4.0000001E-01   4.0000001E-01   4.0000001E-01   4.0000001E-01   4.0000001E-01   4.0000001E-01   4.0000001E-01   4.0000001E-01   4.0000001E-01   4.0000001E-01   4.0000001E-01   4.0000001E-01   4.0000001E-01   4.0000001E-01   4.0000001E-01   4.0000001E-01   4.0000001E-01   4.0000001E-01   4.0000001E-01   4.0000001E-01   4.0000001E-01   4.0000001E-01   4.0000001E-01   4.0000001E-01   4.0000001E-01   4.0000001E-01   4.0000001E-01   4.0000001E-01   4.0000001E-01   4.0000001E-01   4.0000001E-01   4.0000001E-01   4.0000001E-01   4.0000001E-01   4.0000001E-01   4.0000001E-01   4.0000001E-01   4.0000001E-01   4.0000001E-01   4.0000001E-01   4.0000001E-01   4.0000001E-01   4.0000001E-01   4.0000001E-01   4.0000001E-01   4.0000001E-01   4.0000001E-01   4.0000001E-01   4.0000001E-01   4.0000001E-01   4.0000030E-01   4.0000033E-01   4.0000033E-01   4.0000027E-01   4.0000033E-01   4.0000033E-01   4.0000090E-01   4.0000087E-01   4.0000096E-01   4.0000087E-01   4.0000090E-01   4.0000084E-01   4.0000206E-01   4.0000215E-01   4.0000212E-01   4.0000212E-01   4.0000209E-01   4.0000212E-01   4.0000585E-01   4.0000591E-01   4.0000591E-01   4.0000588E-01   4.0000591E-01   4.0000594E-01   4.0001556E-01   4.0001556E-01   4.0001556E-01   4.0001562E-01   4.0001562E-01   4.0001559E-01   4.0004191E-01   4.0004191E-01   4.0004188E-01   4.0004194E-01   4.0004200E-01   4.0004188E-01   4.0011185E-01   4.0011182E-01   4.0011185E-01   4.0011185E-01   4.0011182E-01   4.0011185E-01   4.0028945E-01   4.0028948E-01   4.0028951E-01   4.0028951E-01   4.0028957E-01   4.0028954E-01   4.0069616E-01   4.0069613E-01   4.0069625E-01   4.0069628E-01   4.0069628E-01   4.0069631E-01   4.0144116E-01   4.0144128E-01   4.0144125E-01   4.0144131E-01   4.0144128E-01   4.0144116E-01   4.0237731E-01   4.0237740E-01   4.0237731E-01   4.0237719E-01   4.0237719E-01   4.0237713E-01   4.0312389E-01   4.0312400E-01   4.0312368E-01   4.0312341E-01   4.0312332E-01   4.0312323E-01   4.0353212E-01   4.0353203E-01   4.0353170E-01   4.0353155E-01   4.0353125E-01   4.0353104E-01   4.0371037E-01   4.0371048E-01   4.0371010E-01   4.0370971E-01   4.0370953E-01   4.0370935E-01   4.0378052E-01   4.0378061E-01   4.0378037E-01   4.0377998E-01   4.0377972E-01   4.0377951E-01   4.0380701E-01   4.0380710E-01   4.0380684E-01   4.0380654E-01   4.0380636E-01   4.0380609E-01   4.0381667E-01   4.0381688E-01   4.0381655E-01   4.0381622E-01   4.0381598E-01   4.0381578E-01   4.0381914E-01   4.0381935E-01   4.0381905E-01   4.0381873E-01   4.0381855E-01   4.0381828E-01   4.0381506E-01   4.0381521E-01   4.0381488E-01   4.0381464E-01   4.0381435E-01   4.0381414E-01   4.0375340E-01   4.0375349E-01   4.0375325E-01   4.0375286E-01   4.0375268E-01   4.0375248E-01   4.0363196E-01   4.0363210E-01   4.0363181E-01   4.0363157E-01   4.0363133E-01   4.0363115E-01   4.0345776E-01   4.0345791E-01   4.0345764E-01   4.0345740E-01   4.0345719E-01   4.0345696E-01   4.0324029E-01   4.0324038E-01   4.0324020E-01   4.0323988E-01   4.0323976E-01   4.0323964E-01   4.0299067E-01   4.0299073E-01   4.0299055E-01   4.0299040E-01   4.0299019E-01   4.0299007E-01   4.0272084E-01   4.0272096E-01   4.0272078E-01   4.0272057E-01   4.0272051E-01   4.0272036E-01   4.0244260E-01   4.0244260E-01   4.0244254E-01   4.0244243E-01   4.0244225E-01   4.0244225E-01   4.0216675E-01   4.0216669E-01   4.0216660E-01   4.0216652E-01   4.0216646E-01   4.0216643E-01   4.0190217E-01   4.0190223E-01   4.0190211E-01   4.0190202E-01   4.0190202E-01   4.0190187E-01   4.0165621E-01   4.0165627E-01   4.0165630E-01   4.0165618E-01   4.0165612E-01   4.0165609E-01   4.0143389E-01   4.0143391E-01   4.0143391E-01   4.0143394E-01   4.0143386E-01   4.0143380E-01   4.0123814E-01   4.0123817E-01   4.0123811E-01   4.0123808E-01   4.0123811E-01   4.0123808E-01   4.0106994E-01   4.0107006E-01   4.0106994E-01   4.0107000E-01   4.0106988E-01   4.0107000E-01   4.0092894E-01   4.0092897E-01   4.0092891E-01   4.0092903E-01   4.0092894E-01   4.0081325E-01   4.0081325E-01   4.0081328E-01   4.0081325E-01   4.0081328E-01   4.0072060E-01   4.0072054E-01   4.0072051E-01   4.0072051E-01   4.0064776E-01   4.0064779E-01   4.0064776E-01   4.0064785E-01   4.0059185E-01   4.0059185E-01   4.0059188E-01   4.0054974E-01   4.0054974E-01   4.0051872E-01   4.0051877E-01   4.0000001E-01   4.0000001E-01   4.0000001E-01   4.0000001E-01   4.0000001E-01   4.0000001E-01   4.0000001E-01   4.0000001E-01   4.0000001E-01   4.0000001E-01   4.0000001E-01   4.0000001E-01   4.0000001E-01   4.0000001E-01   4.0000001E-01   4.0000001E-01   4.0000001E-01   4.0000001E-01   4.0000001E-01   4.0000001E-01   4.0000001E-01   4.0000001E-01   4.0000001E-01   4.0000001E-01   4.0000001E-01   4.0000001E-01   4.0000001E-01   4.0000001E-01   4.0000001E-01   4.0000001E-01   4.0000001E-01   4.0000001E-01   4.0000001E-01   4.0000001E-01   4.0000001E-01   4.0000001E-01   4.0000001E-01   4.0000001E-01   4.0000001E-01   4.0000001E-01   4.0000001E-01   4.0000001E-01   4.0000001E-01   4.0000001E-01   4.0000001E-01   4.0000001E-01   4.0000001E-01   4.0000001E-01   4.0000001E-01   4.0000001E-01   4.0000001E-01   4.0000001E-01   4.0000001E-01   4.0000001E-01   4.0000001E-01   4.0000001E-01   4.0000001E-01   4.0000001E-01   4.0000001E-01   4.0000001E-01   4.0000001E-01   4.0000001E-01   4.0000001E-01   4.0000001E-01   4.0000001E-01   4.0000001E-01   4.0000001E-01   4.0000001E-01   4.0000001E-01   4.0000001E-01   4.0000001E-01   4.0000001E-01   4.0000001E-01   4.0000001E-01   4.0000001E-01   4.0000001E-01   4.0000001E-01   4.0000001E-01   4.0000001E-01   4.0000001E-01   4.0000001E-01   4.0000001E-01   4.0000001E-01   4.0000001E-01   4.0000001E-01   4.0000001E-01   4.0000001E-01   4.0000001E-01   4.0000001E-01   4.0000001E-01   4.0000001E-01   4.0000001E-01   4.0000001E-01   4.0000001E-01   4.0000001E-01   4.0000001E-01   4.0000001E-01   4.0000001E-01   4.0000001E-01   4.0000001E-01   4.0000001E-01   4.0000001E-01   4.0000001E-01   4.0000001E-01   4.0000001E-01   4.0000001E-01   4.0000001E-01   4.0000001E-01   4.0000001E-01   4.0000001E-01   4.0000001E-01   4.0000001E-01   4.0000001E-01   4.0000001E-01   4.0000001E-01   4.0000001E-01   4.0000001E-01   4.0000001E-01   4.0000001E-01   4.0000001E-01   4.0000001E-01   4.0000001E-01   4.0000001E-01   4.0000001E-01   4.0000001E-01   4.0000001E-01   4.0000001E-01   4.0000001E-01   4.0000001E-01   4.0000001E-01   4.0000001E-01   4.0000001E-01   4.0000001E-01   4.0000001E-01   4.0000001E-01   4.0000001E-01   4.0000001E-01   4.0000001E-01   4.0000001E-01   4.0000001E-01   4.0000001E-01   4.0000001E-01   4.0000001E-01   4.0000001E-01   4.0000001E-01   4.0000001E-01   4.0000001E-01   4.0000001E-01   4.0000001E-01   4.0000001E-01   4.0000001E-01   4.0000001E-01   4.0000001E-01   4.0000001E-01   4.0000001E-01   4.0000001E-01   4.0000001E-01   4.0000001E-01   4.0000001E-01   4.0000001E-01   4.0000001E-01   4.0000001E-01   4.0000001E-01   4.0000001E-01   4.0000001E-01   4.0000001E-01   4.0000001E-01   4.0000001E-01   4.0000001E-01   4.0000001E-01   4.0000001E-01   4.0000001E-01   4.0000001E-01   4.0000001E-01   4.0000001E-01   4.0000001E-01   4.0000001E-01   4.0000001E-01   4.0000001E-01   4.0000001E-01   4.0000001E-01   4.0000001E-01   4.0000001E-01   4.0000001E-01   4.0000001E-01   4.0000001E-01   4.0000001E-01   4.0000001E-01   4.0000001E-01   4.0000001E-01   4.0000001E-01   4.0000001E-01   4.0000001E-01   4.0000001E-01   4.0000001E-01   4.0000001E-01   4.0000001E-01   4.0000001E-01   4.0000001E-01   4.0000001E-01   4.0000001E-01   4.0000001E-01   4.0000001E-01   4.0000001E-01   4.0000001E-01   4.0000001E-01   4.0000001E-01   4.0000030E-01   4.0000030E-01   4.0000036E-01   4.0000033E-01   4.0000027E-01   4.0000027E-01   4.0000024E-01   4.0000030E-01   4.0000033E-01   4.0000099E-01   4.0000099E-01   4.0000093E-01   4.0000090E-01   4.0000093E-01   4.0000093E-01   4.0000096E-01   4.0000093E-01   4.0000090E-01   4.0000206E-01   4.0000212E-01   4.0000206E-01   4.0000209E-01   4.0000209E-01   4.0000200E-01   4.0000203E-01   4.0000212E-01   4.0000215E-01   4.0000585E-01   4.0000597E-01   4.0000585E-01   4.0000594E-01   4.0000594E-01   4.0000591E-01   4.0000597E-01   4.0000591E-01   4.0000591E-01   4.0001553E-01   4.0001556E-01   4.0001550E-01   4.0001553E-01   4.0001553E-01   4.0001556E-01   4.0001559E-01   4.0001553E-01   4.0001553E-01   4.0004188E-01   4.0004188E-01   4.0004188E-01   4.0004191E-01   4.0004194E-01   4.0004191E-01   4.0004197E-01   4.0004200E-01   4.0004194E-01   4.0011185E-01   4.0011185E-01   4.0011188E-01   4.0011185E-01   4.0011185E-01   4.0011182E-01   4.0011185E-01   4.0011188E-01   4.0011185E-01   4.0028948E-01   4.0028954E-01   4.0028954E-01   4.0028948E-01   4.0028951E-01   4.0028954E-01   4.0028962E-01   4.0028954E-01   4.0028954E-01   4.0069619E-01   4.0069622E-01   4.0069637E-01   4.0069622E-01   4.0069628E-01   4.0069625E-01   4.0069628E-01   4.0069625E-01   4.0069619E-01   4.0144119E-01   4.0144128E-01   4.0144119E-01   4.0144113E-01   4.0144122E-01   4.0144119E-01   4.0144116E-01   4.0144116E-01   4.0144119E-01   4.0237698E-01   4.0237701E-01   4.0237692E-01   4.0237689E-01   4.0237686E-01   4.0237686E-01   4.0237680E-01   4.0237686E-01   4.0237686E-01   4.0312305E-01   4.0312299E-01   4.0312287E-01   4.0312281E-01   4.0312275E-01   4.0312269E-01   4.0312272E-01   4.0312266E-01   4.0312272E-01   4.0353087E-01   4.0353066E-01   4.0353060E-01   4.0353054E-01   4.0353039E-01   4.0353045E-01   4.0353045E-01   4.0353042E-01   4.0353036E-01   4.0370911E-01   4.0370893E-01   4.0370882E-01   4.0370867E-01   4.0370858E-01   4.0370861E-01   4.0370849E-01   4.0370849E-01   4.0370852E-01   4.0377924E-01   4.0377909E-01   4.0377885E-01   4.0377885E-01   4.0377876E-01   4.0377861E-01   4.0377861E-01   4.0377861E-01   4.0377864E-01   4.0380573E-01   4.0380555E-01   4.0380540E-01   4.0380529E-01   4.0380523E-01   4.0380517E-01   4.0380514E-01   4.0380511E-01   4.0380514E-01   4.0381545E-01   4.0381533E-01   4.0381515E-01   4.0381503E-01   4.0381494E-01   4.0381485E-01   4.0381479E-01   4.0381485E-01   4.0381479E-01   4.0381798E-01   4.0381777E-01   4.0381762E-01   4.0381747E-01   4.0381739E-01   4.0381739E-01   4.0381742E-01   4.0381736E-01   4.0381724E-01   4.0381387E-01   4.0381366E-01   4.0381348E-01   4.0381336E-01   4.0381324E-01   4.0381324E-01   4.0381324E-01   4.0381321E-01   4.0381315E-01   4.0375227E-01   4.0375203E-01   4.0375179E-01   4.0375173E-01   4.0375164E-01   4.0375164E-01   4.0375155E-01   4.0375149E-01   4.0375152E-01   4.0363091E-01   4.0363064E-01   4.0363047E-01   4.0363047E-01   4.0363035E-01   4.0363038E-01   4.0363029E-01   4.0363026E-01   4.0363020E-01   4.0345681E-01   4.0345660E-01   4.0345648E-01   4.0345642E-01   4.0345627E-01   4.0345633E-01   4.0345633E-01   4.0345627E-01   4.0345624E-01   4.0323946E-01   4.0323928E-01   4.0323919E-01   4.0323913E-01   4.0323901E-01   4.0323898E-01   4.0323904E-01   4.0323898E-01   4.0323904E-01   4.0298989E-01   4.0298977E-01   4.0298969E-01   4.0298960E-01   4.0298957E-01   4.0298951E-01   4.0298951E-01   4.0298951E-01   4.0298945E-01   4.0272021E-01   4.0272009E-01   4.0272000E-01   4.0271997E-01   4.0271991E-01   4.0271994E-01   4.0271991E-01   4.0271991E-01   4.0271994E-01   4.0244213E-01   4.0244195E-01   4.0244195E-01   4.0244183E-01   4.0244192E-01   4.0244183E-01   4.0244186E-01   4.0244189E-01   4.0244177E-01   4.0216628E-01   4.0216622E-01   4.0216616E-01   4.0216616E-01   4.0216607E-01   4.0216610E-01   4.0216604E-01   4.0216601E-01   4.0216610E-01   4.0190184E-01   4.0190181E-01   4.0190169E-01   4.0190169E-01   4.0190175E-01   4.0190169E-01   4.0190169E-01   4.0190169E-01   4.0190172E-01   4.0165603E-01   4.0165597E-01   4.0165597E-01   4.0165594E-01   4.0165594E-01   4.0165600E-01   4.0165594E-01   4.0165597E-01   4.0165597E-01   4.0143383E-01   4.0143374E-01   4.0143362E-01   4.0143368E-01   4.0143362E-01   4.0143362E-01   4.0143371E-01   4.0143365E-01   4.0143365E-01   4.0123799E-01   4.0123802E-01   4.0123799E-01   4.0123793E-01   4.0123796E-01   4.0123799E-01   4.0123799E-01   4.0123796E-01   4.0123791E-01   4.0106997E-01   4.0106997E-01   4.0107000E-01   4.0107000E-01   4.0106991E-01   4.0106997E-01   4.0106988E-01   4.0107000E-01   4.0106994E-01   4.0092885E-01   4.0092891E-01   4.0092891E-01   4.0092883E-01   4.0092880E-01   4.0092885E-01   4.0092885E-01   4.0092888E-01   4.0092885E-01   4.0081325E-01   4.0081337E-01   4.0081337E-01   4.0081331E-01   4.0081328E-01   4.0081331E-01   4.0081334E-01   4.0081328E-01   4.0081331E-01   4.0072057E-01   4.0072057E-01   4.0072057E-01   4.0072057E-01   4.0072045E-01   4.0072048E-01   4.0072057E-01   4.0072060E-01   4.0072051E-01   4.0064782E-01   4.0064782E-01   4.0064791E-01   4.0064782E-01   4.0064770E-01   4.0064776E-01   4.0064770E-01   4.0064785E-01   4.0064779E-01   4.0059185E-01   4.0059182E-01   4.0059185E-01   4.0059185E-01   4.0059176E-01   4.0059182E-01   4.0059179E-01   4.0059179E-01   4.0059179E-01   4.0054980E-01   4.0054971E-01   4.0054977E-01   4.0054974E-01   4.0054977E-01   4.0054971E-01   4.0054980E-01   4.0054971E-01   4.0054977E-01   4.0051872E-01   4.0051880E-01   4.0051872E-01   4.0051872E-01   4.0051875E-01   4.0051869E-01   4.0051872E-01   4.0051877E-01   4.0051869E-01   4.0049633E-01   4.0049633E-01   4.0049636E-01   4.0049636E-01   4.0049630E-01   4.0049633E-01   4.0049627E-01   4.0049630E-01   4.0049633E-01   4.0048060E-01   4.0048054E-01   4.0048051E-01   4.0048054E-01   4.0048048E-01   4.0048054E-01   4.0048060E-01   4.0048048E-01   4.0046957E-01   4.0046951E-01   4.0046948E-01   4.0046945E-01   4.0046948E-01   4.0046945E-01   4.0046203E-01   4.0046203E-01   4.0046206E-01   4.0046203E-01   4.0000001E-01   4.0000001E-01   4.0000001E-01   4.0000001E-01   4.0000001E-01   4.0000001E-01   4.0000001E-01   4.0000001E-01   4.0000001E-01   4.0000001E-01   4.0000001E-01   4.0000001E-01   4.0000001E-01   4.0000001E-01   4.0000001E-01   4.0000001E-01   4.0000001E-01   4.0000001E-01   4.0000001E-01   4.0000001E-01   4.0000001E-01   4.0000001E-01   4.0000001E-01   4.0000001E-01   4.0000001E-01   4.0000001E-01   4.0000001E-01   4.0000001E-01   4.0000001E-01   4.0000001E-01   4.0000001E-01   4.0000001E-01   4.0000001E-01   4.0000001E-01   4.0000001E-01   4.0000001E-01   4.0000001E-01   4.0000001E-01   4.0000001E-01   4.0000001E-01   4.0000001E-01   4.0000001E-01   4.0000001E-01   4.0000001E-01   4.0000001E-01   4.0000001E-01   4.0000001E-01   4.0000001E-01   4.0000001E-01   4.0000001E-01   4.0000001E-01   4.0000001E-01   4.0000001E-01   4.0000001E-01   4.0000001E-01   4.0000001E-01   4.0000001E-01   4.0000001E-01   4.0000001E-01   4.0000001E-01   4.0000001E-01   4.0000001E-01   4.0000001E-01   4.0000001E-01   4.0000001E-01   4.0000001E-01   4.0000001E-01   4.0000001E-01   4.0000001E-01   4.0000001E-01   4.0000001E-01   4.0000001E-01   4.0000001E-01   4.0000001E-01   4.0000001E-01   4.0000001E-01   4.0000001E-01   4.0000001E-01   4.0000001E-01   4.0000001E-01   4.0000001E-01   4.0000001E-01   4.0000001E-01   4.0000001E-01   4.0000001E-01   4.0000001E-01   4.0000001E-01   4.0000001E-01   4.0000001E-01   4.0000001E-01   4.0000001E-01   4.0000001E-01   4.0000001E-01   4.0000001E-01   4.0000001E-01   4.0000001E-01   4.0000001E-01   4.0000001E-01   4.0000001E-01   4.0000001E-01   4.0000001E-01   4.0000001E-01   4.0000001E-01   4.0000001E-01   4.0000001E-01   4.0000001E-01   4.0000001E-01   4.0000001E-01   4.0000001E-01   4.0000001E-01   4.0000001E-01   4.0000001E-01   4.0000001E-01   4.0000001E-01   4.0000001E-01   4.0000001E-01   4.0000001E-01   4.0000001E-01   4.0000001E-01   4.0000001E-01   4.0000001E-01   4.0000001E-01   4.0000001E-01   4.0000001E-01   4.0000001E-01   4.0000001E-01   4.0000001E-01   4.0000001E-01   4.0000001E-01   4.0000001E-01   4.0000001E-01   4.0000001E-01   4.0000001E-01   4.0000001E-01   4.0000001E-01   4.0000001E-01   4.0000001E-01   4.0000001E-01   4.0000001E-01   4.0000001E-01   4.0000001E-01   4.0000001E-01   4.0000001E-01   4.0000001E-01   4.0000001E-01   4.0000001E-01   4.0000001E-01   4.0000001E-01   4.0000001E-01   4.0000001E-01   4.0000001E-01   4.0000001E-01   4.0000001E-01   4.0000001E-01   4.0000001E-01   4.0000001E-01   4.0000001E-01   4.0000001E-01   4.0000001E-01   4.0000001E-01   4.0000001E-01   4.0000001E-01   4.0000001E-01   4.0000001E-01   4.0000001E-01   4.0000001E-01   4.0000001E-01   4.0000001E-01   4.0000001E-01   4.0000001E-01   4.0000001E-01   4.0000001E-01   4.0000001E-01   4.0000001E-01   4.0000001E-01   4.0000001E-01   4.0000001E-01   4.0000001E-01   4.0000001E-01   4.0000001E-01   4.0000001E-01   4.0000001E-01   4.0000001E-01   4.0000001E-01   4.0000033E-01   4.0000033E-01   4.0000030E-01   4.0000024E-01   4.0000027E-01   4.0000027E-01   4.0000033E-01   4.0000036E-01   4.0000093E-01   4.0000090E-01   4.0000093E-01   4.0000096E-01   4.0000093E-01   4.0000093E-01   4.0000090E-01   4.0000093E-01   4.0000215E-01   4.0000215E-01   4.0000212E-01   4.0000203E-01   4.0000200E-01   4.0000209E-01   4.0000209E-01   4.0000206E-01   4.0000591E-01   4.0000591E-01   4.0000591E-01   4.0000597E-01   4.0000591E-01   4.0000594E-01   4.0000594E-01   4.0000585E-01   4.0001565E-01   4.0001553E-01   4.0001553E-01   4.0001559E-01   4.0001556E-01   4.0001553E-01   4.0001553E-01   4.0001550E-01   4.0004191E-01   4.0004194E-01   4.0004200E-01   4.0004197E-01   4.0004191E-01   4.0004194E-01   4.0004191E-01   4.0004188E-01   4.0011188E-01   4.0011185E-01   4.0011188E-01   4.0011185E-01   4.0011182E-01   4.0011185E-01   4.0011185E-01   4.0011188E-01   4.0028954E-01   4.0028954E-01   4.0028954E-01   4.0028962E-01   4.0028954E-01   4.0028951E-01   4.0028948E-01   4.0028954E-01   4.0069619E-01   4.0069619E-01   4.0069625E-01   4.0069628E-01   4.0069625E-01   4.0069628E-01   4.0069622E-01   4.0069637E-01   4.0144128E-01   4.0144119E-01   4.0144116E-01   4.0144116E-01   4.0144119E-01   4.0144122E-01   4.0144113E-01   4.0144119E-01   4.0237689E-01   4.0237686E-01   4.0237686E-01   4.0237680E-01   4.0237686E-01   4.0237686E-01   4.0237689E-01   4.0237692E-01   4.0312278E-01   4.0312272E-01   4.0312266E-01   4.0312272E-01   4.0312269E-01   4.0312275E-01   4.0312281E-01   4.0312287E-01   4.0353033E-01   4.0353036E-01   4.0353042E-01   4.0353045E-01   4.0353045E-01   4.0353039E-01   4.0353054E-01   4.0353060E-01   4.0370849E-01   4.0370852E-01   4.0370849E-01   4.0370849E-01   4.0370861E-01   4.0370858E-01   4.0370867E-01   4.0370882E-01   4.0377855E-01   4.0377864E-01   4.0377861E-01   4.0377861E-01   4.0377861E-01   4.0377876E-01   4.0377885E-01   4.0377885E-01   4.0380502E-01   4.0380514E-01   4.0380511E-01   4.0380514E-01   4.0380517E-01   4.0380523E-01   4.0380529E-01   4.0380540E-01   4.0381476E-01   4.0381479E-01   4.0381485E-01   4.0381479E-01   4.0381485E-01   4.0381494E-01   4.0381503E-01   4.0381515E-01   4.0381727E-01   4.0381724E-01   4.0381736E-01   4.0381742E-01   4.0381739E-01   4.0381739E-01   4.0381747E-01   4.0381762E-01   4.0381312E-01   4.0381315E-01   4.0381321E-01   4.0381324E-01   4.0381324E-01   4.0381324E-01   4.0381336E-01   4.0381348E-01   4.0375146E-01   4.0375152E-01   4.0375149E-01   4.0375155E-01   4.0375164E-01   4.0375164E-01   4.0375173E-01   4.0375179E-01   4.0363029E-01   4.0363020E-01   4.0363026E-01   4.0363029E-01   4.0363038E-01   4.0363035E-01   4.0363047E-01   4.0363047E-01   4.0345621E-01   4.0345624E-01   4.0345627E-01   4.0345633E-01   4.0345633E-01   4.0345627E-01   4.0345642E-01   4.0345648E-01   4.0323901E-01   4.0323904E-01   4.0323898E-01   4.0323904E-01   4.0323898E-01   4.0323901E-01   4.0323913E-01   4.0323919E-01   4.0298957E-01   4.0298945E-01   4.0298951E-01   4.0298951E-01   4.0298951E-01   4.0298957E-01   4.0298960E-01   4.0298969E-01   4.0271989E-01   4.0271994E-01   4.0271991E-01   4.0271991E-01   4.0271994E-01   4.0271991E-01   4.0271997E-01   4.0272000E-01   4.0244183E-01   4.0244177E-01   4.0244189E-01   4.0244186E-01   4.0244183E-01   4.0244192E-01   4.0244183E-01   4.0244195E-01   4.0216610E-01   4.0216610E-01   4.0216601E-01   4.0216604E-01   4.0216610E-01   4.0216607E-01   4.0216616E-01   4.0216616E-01   4.0190178E-01   4.0190172E-01   4.0190169E-01   4.0190169E-01   4.0190169E-01   4.0190175E-01   4.0190169E-01   4.0190169E-01   4.0165594E-01   4.0165597E-01   4.0165597E-01   4.0165594E-01   4.0165600E-01   4.0165594E-01   4.0165594E-01   4.0165597E-01   4.0143359E-01   4.0143365E-01   4.0143365E-01   4.0143371E-01   4.0143362E-01   4.0143362E-01   4.0143368E-01   4.0143362E-01   4.0123788E-01   4.0123791E-01   4.0123796E-01   4.0123799E-01   4.0123799E-01   4.0123796E-01   4.0123793E-01   4.0123799E-01   4.0106997E-01   4.0106994E-01   4.0107000E-01   4.0106988E-01   4.0106997E-01   4.0106991E-01   4.0107000E-01   4.0107000E-01   4.0092883E-01   4.0092885E-01   4.0092888E-01   4.0092885E-01   4.0092885E-01   4.0092880E-01   4.0092883E-01   4.0092891E-01   4.0081328E-01   4.0081331E-01   4.0081328E-01   4.0081334E-01   4.0081331E-01   4.0081328E-01   4.0081331E-01   4.0081337E-01   4.0072051E-01   4.0072051E-01   4.0072060E-01   4.0072057E-01   4.0072048E-01   4.0072045E-01   4.0072057E-01   4.0072057E-01   4.0064779E-01   4.0064779E-01   4.0064785E-01   4.0064770E-01   4.0064776E-01   4.0064770E-01   4.0064782E-01   4.0064791E-01   4.0059176E-01   4.0059179E-01   4.0059179E-01   4.0059179E-01   4.0059182E-01   4.0059176E-01   4.0059185E-01   4.0059185E-01   4.0054965E-01   4.0054977E-01   4.0054971E-01   4.0054980E-01   4.0054971E-01   4.0054977E-01   4.0054974E-01   4.0054977E-01   4.0051872E-01   4.0051869E-01   4.0051877E-01   4.0051872E-01   4.0051869E-01   4.0051875E-01   4.0051872E-01   4.0051872E-01   4.0049636E-01   4.0049633E-01   4.0049630E-01   4.0049627E-01   4.0049633E-01   4.0049630E-01   4.0049636E-01   4.0049636E-01   4.0048054E-01   4.0048048E-01   4.0048060E-01   4.0048054E-01   4.0048048E-01   4.0048054E-01   4.0048051E-01   4.0048054E-01   4.0046951E-01   4.0046945E-01   4.0046948E-01   4.0046945E-01   4.0046948E-01   4.0046951E-01   4.0046957E-01   4.0046206E-01   4.0046203E-01   4.0046206E-01   4.0046203E-01   4.0046203E-01   4.0000001E-01   4.0000001E-01   4.0000001E-01   4.0000001E-01   4.0000001E-01   4.0000001E-01   4.0000001E-01   4.0000001E-01   4.0000001E-01   4.0000001E-01   4.0000001E-01   4.0000001E-01   4.0000001E-01   4.0000001E-01   4.0000001E-01   4.0000001E-01   4.0000001E-01   4.0000001E-01   4.0000001E-01   4.0000001E-01   4.0000001E-01   4.0000001E-01   4.0000001E-01   4.0000001E-01   4.0000001E-01   4.0000001E-01   4.0000001E-01   4.0000001E-01   4.0000001E-01   4.0000001E-01   4.0000001E-01   4.0000001E-01   4.0000001E-01   4.0000001E-01   4.0000001E-01   4.0000001E-01   4.0000001E-01   4.0000001E-01   4.0000001E-01   4.0000001E-01   4.0000001E-01   4.0000001E-01   4.0000001E-01   4.0000001E-01   4.0000001E-01   4.0000001E-01   4.0000001E-01   4.0000001E-01   4.0000001E-01   4.0000001E-01   4.0000001E-01   4.0000001E-01   4.0000001E-01   4.0000001E-01   4.0000001E-01   4.0000001E-01   4.0000001E-01   4.0000001E-01   4.0000001E-01   4.0000001E-01   4.0000001E-01   4.0000001E-01   4.0000001E-01   4.0000001E-01   4.0000001E-01   4.0000001E-01   4.0000001E-01   4.0000001E-01   4.0000001E-01   4.0000001E-01   4.0000001E-01   4.0000001E-01   4.0000001E-01   4.0000001E-01   4.0000001E-01   4.0000001E-01   4.0000001E-01   4.0000001E-01   4.0000001E-01   4.0000001E-01   4.0000001E-01   4.0000001E-01   4.0000001E-01   4.0000001E-01   4.0000001E-01   4.0000001E-01   4.0000001E-01   4.0000001E-01   4.0000001E-01   4.0000001E-01   4.0000001E-01   4.0000001E-01   4.0000001E-01   4.0000001E-01   4.0000001E-01   4.0000001E-01   4.0000001E-01   4.0000001E-01   4.0000001E-01   4.0000001E-01   4.0000001E-01   4.0000001E-01   4.0000001E-01   4.0000001E-01   4.0000001E-01   4.0000001E-01   4.0000001E-01   4.0000001E-01   4.0000001E-01   4.0000001E-01   4.0000001E-01   4.0000001E-01   4.0000001E-01   4.0000001E-01   4.0000001E-01   4.0000001E-01   4.0000001E-01   4.0000001E-01   4.0000001E-01   4.0000001E-01   4.0000001E-01   4.0000001E-01   4.0000001E-01   4.0000001E-01   4.0000001E-01   4.0000001E-01   4.0000001E-01   4.0000001E-01   4.0000001E-01   4.0000001E-01   4.0000001E-01   4.0000001E-01   4.0000001E-01   4.0000001E-01   4.0000001E-01   4.0000001E-01   4.0000001E-01   4.0000001E-01   4.0000001E-01   4.0000001E-01   4.0000001E-01   4.0000001E-01   4.0000001E-01   4.0000001E-01   4.0000001E-01   4.0000001E-01   4.0000001E-01   4.0000001E-01   4.0000001E-01   4.0000001E-01   4.0000001E-01   4.0000001E-01   4.0000001E-01   4.0000001E-01   4.0000001E-01   4.0000001E-01   4.0000001E-01   4.0000001E-01   4.0000001E-01   4.0000001E-01   4.0000001E-01   4.0000001E-01   4.0000001E-01   4.0000001E-01   4.0000001E-01   4.0000001E-01   4.0000001E-01   4.0000001E-01   4.0000001E-01   4.0000001E-01   4.0000001E-01   4.0000001E-01   4.0000001E-01   4.0000001E-01   4.0000001E-01   4.0000001E-01   4.0000001E-01   4.0000001E-01   4.0000001E-01   4.0000001E-01   4.0000001E-01   4.0000001E-01   4.0000001E-01   4.0000030E-01   4.0000030E-01   4.0000033E-01   4.0000033E-01   4.0000027E-01   4.0000033E-01   4.0000033E-01   4.0000030E-01   4.0000099E-01   4.0000099E-01   4.0000084E-01   4.0000090E-01   4.0000087E-01   4.0000096E-01   4.0000087E-01   4.0000090E-01   4.0000212E-01   4.0000206E-01   4.0000212E-01   4.0000209E-01   4.0000212E-01   4.0000212E-01   4.0000215E-01   4.0000206E-01   4.0000597E-01   4.0000585E-01   4.0000594E-01   4.0000591E-01   4.0000588E-01   4.0000591E-01   4.0000591E-01   4.0000585E-01   4.0001556E-01   4.0001553E-01   4.0001559E-01   4.0001562E-01   4.0001562E-01   4.0001556E-01   4.0001556E-01   4.0001556E-01   4.0004188E-01   4.0004188E-01   4.0004188E-01   4.0004200E-01   4.0004194E-01   4.0004188E-01   4.0004191E-01   4.0004191E-01   4.0011185E-01   4.0011185E-01   4.0011185E-01   4.0011182E-01   4.0011185E-01   4.0011185E-01   4.0011182E-01   4.0011185E-01   4.0028954E-01   4.0028948E-01   4.0028954E-01   4.0028957E-01   4.0028951E-01   4.0028951E-01   4.0028948E-01   4.0028945E-01   4.0069622E-01   4.0069619E-01   4.0069631E-01   4.0069628E-01   4.0069628E-01   4.0069625E-01   4.0069613E-01   4.0069616E-01   4.0144128E-01   4.0144119E-01   4.0144116E-01   4.0144128E-01   4.0144131E-01   4.0144125E-01   4.0144128E-01   4.0144116E-01   4.0237701E-01   4.0237698E-01   4.0237713E-01   4.0237719E-01   4.0237719E-01   4.0237731E-01   4.0237740E-01   4.0237731E-01   4.0312299E-01   4.0312305E-01   4.0312323E-01   4.0312332E-01   4.0312341E-01   4.0312368E-01   4.0312400E-01   4.0312389E-01   4.0353066E-01   4.0353087E-01   4.0353104E-01   4.0353125E-01   4.0353155E-01   4.0353170E-01   4.0353203E-01   4.0353212E-01   4.0370893E-01   4.0370911E-01   4.0370935E-01   4.0370953E-01   4.0370971E-01   4.0371010E-01   4.0371048E-01   4.0371037E-01   4.0377909E-01   4.0377924E-01   4.0377951E-01   4.0377972E-01   4.0377998E-01   4.0378037E-01   4.0378061E-01   4.0378052E-01   4.0380555E-01   4.0380573E-01   4.0380609E-01   4.0380636E-01   4.0380654E-01   4.0380684E-01   4.0380710E-01   4.0380701E-01   4.0381533E-01   4.0381545E-01   4.0381578E-01   4.0381598E-01   4.0381622E-01   4.0381655E-01   4.0381688E-01   4.0381667E-01   4.0381777E-01   4.0381798E-01   4.0381828E-01   4.0381855E-01   4.0381873E-01   4.0381905E-01   4.0381935E-01   4.0381914E-01   4.0381366E-01   4.0381387E-01   4.0381414E-01   4.0381435E-01   4.0381464E-01   4.0381488E-01   4.0381521E-01   4.0381506E-01   4.0375203E-01   4.0375227E-01   4.0375248E-01   4.0375268E-01   4.0375286E-01   4.0375325E-01   4.0375349E-01   4.0375340E-01   4.0363064E-01   4.0363091E-01   4.0363115E-01   4.0363133E-01   4.0363157E-01   4.0363181E-01   4.0363210E-01   4.0363196E-01   4.0345660E-01   4.0345681E-01   4.0345696E-01   4.0345719E-01   4.0345740E-01   4.0345764E-01   4.0345791E-01   4.0345776E-01   4.0323928E-01   4.0323946E-01   4.0323964E-01   4.0323976E-01   4.0323988E-01   4.0324020E-01   4.0324038E-01   4.0324029E-01   4.0298977E-01   4.0298989E-01   4.0299007E-01   4.0299019E-01   4.0299040E-01   4.0299055E-01   4.0299073E-01   4.0299067E-01   4.0272009E-01   4.0272021E-01   4.0272036E-01   4.0272051E-01   4.0272057E-01   4.0272078E-01   4.0272096E-01   4.0272084E-01   4.0244195E-01   4.0244213E-01   4.0244225E-01   4.0244225E-01   4.0244243E-01   4.0244254E-01   4.0244260E-01   4.0244260E-01   4.0216622E-01   4.0216628E-01   4.0216643E-01   4.0216646E-01   4.0216652E-01   4.0216660E-01   4.0216669E-01   4.0216675E-01   4.0190181E-01   4.0190184E-01   4.0190187E-01   4.0190202E-01   4.0190202E-01   4.0190211E-01   4.0190223E-01   4.0190217E-01   4.0165597E-01   4.0165603E-01   4.0165609E-01   4.0165612E-01   4.0165618E-01   4.0165630E-01   4.0165627E-01   4.0165621E-01   4.0143374E-01   4.0143383E-01   4.0143380E-01   4.0143386E-01   4.0143394E-01   4.0143391E-01   4.0143391E-01   4.0143389E-01   4.0123802E-01   4.0123799E-01   4.0123808E-01   4.0123811E-01   4.0123808E-01   4.0123811E-01   4.0123817E-01   4.0123814E-01   4.0106997E-01   4.0106997E-01   4.0107000E-01   4.0106988E-01   4.0107000E-01   4.0106994E-01   4.0107006E-01   4.0106994E-01   4.0092891E-01   4.0092885E-01   4.0092894E-01   4.0092903E-01   4.0092891E-01   4.0092897E-01   4.0092894E-01   4.0081337E-01   4.0081325E-01   4.0081328E-01   4.0081325E-01   4.0081328E-01   4.0081325E-01   4.0081325E-01   4.0072057E-01   4.0072057E-01   4.0072051E-01   4.0072051E-01   4.0072054E-01   4.0072060E-01   4.0064782E-01   4.0064782E-01   4.0064785E-01   4.0064776E-01   4.0064779E-01   4.0064776E-01   4.0059182E-01   4.0059185E-01   4.0059188E-01   4.0059185E-01   4.0059185E-01   4.0054971E-01   4.0054980E-01   4.0054974E-01   4.0054974E-01   4.0051880E-01   4.0051872E-01   4.0051877E-01   4.0051872E-01   4.0049633E-01   4.0049633E-01   4.0048060E-01 
Press 1 2975 float
  0.0000000E+00   0.0000000E+00   0.0000000E+00   0.0000000E+00   0.0000000E+00   0.0000000E+00   0.0000000E+00   0.0000000E+00   0.0000000E+00   0.0000000E+00   0.0000000E+00   0.0000000E+00   0.0000000E+00   0.0000000E+00   0.0000000E+00   0.0000000E+00   0.0000000E+00   0.0000000E+00   0.0000000E+00   0.0000000E+00   0.0000000E+00   0.0000000E+00   0.0000000E+00   0.0000000E+00   0.0000000E+00   0.0000000E+00   0.0000000E+00   0.0000000E+00   0.0000000E+00   0.0000000E+00   0.0000000E+00   0.0000000E+00   0.0000000E+00   0.0000000E+00   0.0000000E+00   0.0000000E+00   0.0000000E+00   9.8762624E-02   0.0000000E+00   9.8762624E-02   9.8762624E-02   0.0000000E+00   9.8762624E-02   9.8762624E-02   0.0000000E+00   9.8762624E-02   1.9752525E-01   9.8762624E-02   9.8762624E-02   1.9752525E-01   9.8762624E-02   1.9752525E-01   3.9505050E-01   9.8762624E-02   3.9505050E-01   5.9257573E-01   1.9752525E-01   5.9257573E-01   8.8886362E-01   3.9505050E-01   7.9010099E-01   1.3826767E+00   1.2839141E+00   1.9752525E+00   0.0000000E+00   0.0000000E+00   0.0000000E+00   0.0000000E+00   0.0000000E+00   0.0000000E+00   0.0000000E+00   0.0000000E+00   0.0000000E+00   0.0000000E+00   0.0000000E+00   0.0000000E+00   0.0000000E+00   0.0000000E+00   0.0000000E+00   0.0000000E+00   0.0000000E+00   0.0000000E+00   0.0000000E+00   0.0000000E+00   0.0000000E+00   0.0000000E+00   0.0000000E+00   0.0000000E+00   0.0000000E+00   0.0000000E+00   0.0000000E+00   0.0000000E+00   0.0000000E+00   0.0000000E+00   0.0000000E+00   0.0000000E+00   0.0000000E+00   0.0000000E+00   0.0000000E+00   0.0000000E+00   0.0000000E+00   0.0000000E+00   0.0000000E+00   0.0000000E+00   0.0000000E+00   0.0000000E+00   0.0000000E+00   0.0000000E+00   0.0000000E+00   0.0000000E+00   0.0000000E+00   0.0000000E+00   0.0000000E+00   0.0000000E+00   0.0000000E+00   0.0000000E+00   0.0000000E+00   0.0000000E+00   0.0000000E+00   0.0000000E+00   0.0000000E+00   0.0000000E+00   0.0000000E+00   0.0000000E+00   0.0000000E+00   0.0000000E+00   0.0000000E+00   0.0000000E+00   0.0000000E+00   0.0000000E+00   0.0000000E+00   0.0000000E+00   9.8762624E-02   9.8762624E-02   9.8762624E-02   9.8762624E-02   0.0000000E+00   0.0000000E+00   9.8762624E-02   9.8762624E-02   9.8762624E-02   9.8762624E-02   9.8762624E-02   9.8762624E-02   0.0000000E+00   9.8762624E-02   9.8762624E-02   9.8762624E-02   1.9752525E-01   1.9752525E-01   1.9752525E-01   1.9752525E-01   9.8762624E-02   9.8762624E-02   9.8762624E-02   9.8762624E-02   1.9752525E-01   9.8762624E-02   1.9752525E-01   1.9752525E-01   2.9628786E-01   2.9628786E-01   3.9505050E-01   3.9505050E-01   5.9257573E-01   5.9257573E-01   7.9010099E-01   8.8886362E-01   1.1851515E+00   1.2839141E+00   1.7777272E+00   1.9752525E+00   2.6665909E+00   2.9628787E+00   3.8517423E+00   0.0000000E+00   0.0000000E+00   0.0000000E+00   0.0000000E+00   0.0000000E+00   0.0000000E+00   0.0000000E+00   0.0000000E+00   0.0000000E+00   0.0000000E+00   0.0000000E+00   0.0000000E+00   0.0000000E+00   0.0000000E+00   0.0000000E+00   0.0000000E+00   0.0000000E+00   0.0000000E+00   0.0000000E+00   0.0000000E+00   0.0000000E+00   0.0000000E+00   0.0000000E+00   0.0000000E+00   0.0000000E+00   0.0000000E+00   0.0000000E+00   0.0000000E+00   0.0000000E+00   0.0000000E+00   0.0000000E+00   0.0000000E+00   0.0000000E+00   0.0000000E+00   0.0000000E+00   0.0000000E+00   0.0000000E+00   0.0000000E+00   0.0000000E+00   0.0000000E+00   0.0000000E+00   0.0000000E+00   0.0000000E+00   0.0000000E+00   0.0000000E+00   0.0000000E+00   0.0000000E+00   0.0000000E+00   0.0000000E+00   0.0000000E+00   0.0000000E+00   0.0000000E+00   0.0000000E+00   0.0000000E+00   0.0000000E+00   0.0000000E+00   0.0000000E+00   0.0000000E+00   0.0000000E+00   0.0000000E+00   0.0000000E+00   0.0000000E+00   0.0000000E+00   0.0000000E+00   0.0000000E+00   0.0000000E+00   0.0000000E+00   0.0000000E+00   0.0000000E+00   0.0000000E+00   9.8762624E-02   9.8762624E-02   9.8762624E-02   9.8762624E-02   9.8762624E-02   9.8762624E-02   9.8762624E-02   9.8762624E-02   9.8762624E-02   9.8762624E-02   9.8762624E-02   9.8762624E-02   1.9752525E-01   1.9752525E-01   1.9752525E-01   1.9752525E-01   1.9752525E-01   1.9752525E-01   1.9752525E-01   1.9752525E-01   1.9752525E-01   1.9752525E-01   1.9752525E-01   1.9752525E-01   2.9628786E-01   2.9628786E-01   2.9628786E-01   2.9628786E-01   2.9628786E-01   0.0000000E+00   0.0000000E+00   0.0000000E+00   0.0000000E+00   0.0000000E+00   0.0000000E+00   0.0000000E+00   0.0000000E+00   0.0000000E+00   0.0000000E+00   0.0000000E+00   0.0000000E+00   0.0000000E+00   0.0000000E+00   0.0000000E+00   0.0000000E+00   0.0000000E+00   0.0000000E+00   0.0000000E+00   0.0000000E+00   0.0000000E+00   0.0000000E+00   0.0000000E+00   0.0000000E+00   0.0000000E+00   0.0000000E+00   0.0000000E+00   0.0000000E+00   0.0000000E+00   0.0000000E+00   0.0000000E+00   0.0000000E+00   0.0000000E+00   0.0000000E+00   0.0000000E+00   0.0000000E+00   0.0000000E+00   0.0000000E+00   0.0000000E+00   0.0000000E+00   0.0000000E+00   0.0000000E+00   0.0000000E+00   0.0000000E+00   0.0000000E+00   0.0000000E+00   0.0000000E+00   0.0000000E+00   0.0000000E+00   0.0000000E+00   0.0000000E+00   0.0000000E+00   0.0000000E+00   0.0000000E+00   0.0000000E+00   0.0000000E+00   9.8762624E-02   9.8762624E-02   9.8762624E-02   0.0000000E+00   0.0000000E+00   0.0000000E+00   0.0000000E+00   0.0000000E+00   9.8762624E-02   9.8762624E-02   9.8762624E-02   9.8762624E-02   9.8762624E-02   9.8762624E-02   9.8762624E-02   9.8762624E-02   1.9752525E-01   1.9752525E-01   1.9752525E-01   1.9752525E-01   1.9752525E-01   1.9752525E-01   1.9752525E-01   1.9752525E-01   2.9628786E-01   2.9628786E-01   2.9628786E-01   2.9628786E-01   2.9628786E-01   2.9628786E-01   1.9752525E-01   1.9752525E-01   0.0000000E+00   0.0000000E+00   0.0000000E+00   0.0000000E+00   0.0000000E+00   0.0000000E+00   0.0000000E+00   0.0000000E+00   0.0000000E+00   0.0000000E+00   0.0000000E+00   0.0000000E+00   0.0000000E+00   0.0000000E+00   0.0000000E+00   0.0000000E+00   0.0000000E+00   0.0000000E+00   0.0000000E+00   0.0000000E+00   0.0000000E+00   0.0000000E+00   0.0000000E+00   0.0000000E+00   0.0000000E+00   0.0000000E+00   0.0000000E+00   0.0000000E+00   0.0000000E+00   0.0000000E+00   0.0000000E+00   0.0000000E+00   0.0000000E+00   0.0000000E+00   0.0000000E+00   0.0000000E+00   0.0000000E+00   0.0000000E+00   0.0000000E+00   0.0000000E+00   0.0000000E+00   0.0000000E+00   0.0000000E+00   0.0000000E+00   0.0000000E+00   0.0000000E+00   0.0000000E+00   0.0000000E+00   0.0000000E+00   0.0000000E+00   0.0000000E+00   0.0000000E+00   0.0000000E+00   0.0000000E+00   0.0000000E+00   0.0000000E+00   0.0000000E+00   0.0000000E+00   0.0000000E+00   0.0000000E+00   0.0000000E+00   0.0000000E+00   0.0000000E+00   0.0000000E+00   0.0000000E+00   0.0000000E+00   0.0000000E+00   0.0000000E+00   0.0000000E+00   0.0000000E+00   0.0000000E+00   0.0000000E+00   9.8762624E-02   9.8762624E-02   9.8762624E-02   9.8762624E-02   9.8762624E-02   9.8762624E-02   0.0000000E+00   0.0000000E+00   0.0000000E+00   1.9752525E-01   9.8762624E-02   9.8762624E-02   9.8762624E-02   9.8762624E-02   9.8762624E-02   9.8762624E-02   9.8762624E-02   0.0000000E+00   1.9752525E-01   1.9752525E-01   1.9752525E-01   1.9752525E-01   1.9752525E-01   1.9752525E-01   9.8762624E-02   9.8762624E-02   9.8762624E-02   9.8762624E-02   9.8762624E-02   1.9752525E-01   1.9752525E-01   2.9628786E-01   3.9505050E-01   5.9257573E-01   7.9010099E-01   1.1851515E+00   1.7777272E+00   2.6665909E+00   3.8517423E+00   0.0000000E+00   0.0000000E+00   0.0000000E+00   0.0000000E+00   0.0000000E+00   0.0000000E+00   0.0000000E+00   0.0000000E+00   0.0000000E+00   0.0000000E+00   0.0000000E+00   0.0000000E+00   0.0000000E+00   0.0000000E+00   0.0000000E+00   0.0000000E+00   0.0000000E+00   0.0000000E+00   0.0000000E+00   0.0000000E+00   0.0000000E+00   0.0000000E+00   0.0000000E+00   0.0000000E+00   0.0000000E+00   0.0000000E+00   0.0000000E+00   0.0000000E+00   0.0000000E+00   0.0000000E+00   0.0000000E+00   0.0000000E+00   0.0000000E+00   0.0000000E+00   0.0000000E+00   0.0000000E+00   0.0000000E+00   0.0000000E+00   0.0000000E+00   0.0000000E+00   0.0000000E+00   0.0000000E+00   0.0000000E+00   9.8762624E-02   0.0000000E+00   0.0000000E+00   0.0000000E+00   9.8762624E-02   9.8762624E-02   0.0000000E+00   0.0000000E+00   9.8762624E-02   9.8762624E-02   9.8762624E-02   0.0000000E+00   1.9752525E-01   9.8762624E-02   9.8762624E-02   0.0000000E+00   2.9628786E-01   1.9752525E-01   9.8762624E-02   0.0000000E+00   3.9505050E-01   1.9752525E-01   9.8762624E-02   9.8762624E-02   5.9257573E-01   3.9505050E-01   1.9752525E-01   9.8762624E-02   8.8886362E-01   5.9257573E-01   3.9505050E-01   9.8762624E-02   1.2839141E+00   8.8886362E-01   5.9257573E-01   1.9752525E-01   1.9752525E+00   1.3826767E+00   7.9010099E-01   3.9505050E-01   2.9628787E+00   1.9752525E+00   1.2839141E+00   0.0000000E+00   0.0000000E+00   0.0000000E+00   0.0000000E+00   0.0000000E+00   0.0000000E+00   0.0000000E+00   0.0000000E+00   0.0000000E+00   0.0000000E+00   0.0000000E+00   0.0000000E+00   0.0000000E+00   0.0000000E+00   0.0000000E+00   0.0000000E+00   0.0000000E+00   0.0000000E+00   0.0000000E+00   0.0000000E+00   0.0000000E+00   0.0000000E+00   0.0000000E+00   0.0000000E+00   0.0000000E+00   0.0000000E+00   0.0000000E+00   0.0000000E+00   0.0000000E+00   0.0000000E+00   0.0000000E+00   0.0000000E+00   0.0000000E+00   0.0000000E+00   0.0000000E+00   0.0000000E+00   0.0000000E+00   0.0000000E+00   0.0000000E+00   0.0000000E+00   0.0000000E+00   0.0000000E+00   0.0000000E+00   0.0000000E+00   0.0000000E+00   0.0000000E+00   0.0000000E+00   0.0000000E+00   0.0000000E+00   0.0000000E+00   0.0000000E+00   0.0000000E+00   0.0000000E+00   0.0000000E+00   0.0000000E+00   0.0000000E+00   0.0000000E+00   0.0000000E+00   0.0000000E+00   0.0000000E+00   0.0000000E+00   0.0000000E+00   0.0000000E+00   0.0000000E+00   0.0000000E+00   0.0000000E+00   0.0000000E+00   0.0000000E+00   0.0000000E+00   0.0000000E+00   0.0000000E+00   0.0000000E+00   0.0000000E+00   0.0000000E+00   0.0000000E+00   0.0000000E+00   0.0000000E+00   0.0000000E+00   0.0000000E+00   0.0000000E+00   0.0000000E+00   0.0000000E+00   0.0000000E+00   0.0000000E+00   0.0000000E+00   0.0000000E+00   0.0000000E+00   0.0000000E+00   0.0000000E+00   0.0000000E+00   0.0000000E+00   0.0000000E+00   0.0000000E+00   0.0000000E+00   0.0000000E+00   0.0000000E+00   0.0000000E+00   0.0000000E+00   0.0000000E+00   0.0000000E+00   0.0000000E+00   0.0000000E+00   0.0000000E+00   0.0000000E+00   0.0000000E+00   0.0000000E+00   0.0000000E+00   0.0000000E+00   0.0000000E+00   0.0000000E+00   0.0000000E+00   0.0000000E+00   0.0000000E+00   0.0000000E+00   0.0000000E+00   0.0000000E+00   0.0000000E+00   0.0000000E+00   0.0000000E+00   0.0000000E+00   0.0000000E+00   0.0000000E+00   0.0000000E+00   0.0000000E+00   0.0000000E+00   0.0000000E+00   0.0000000E+00   0.0000000E+00   0.0000000E+00   0.0000000E+00   0.0000000E+00   0.0000000E+00   0.0000000E+00   0.0000000E+00   0.0000000E+00   0.0000000E+00   0.0000000E+00   0.0000000E+00   0.0000000E+00   0.0000000E+00   0.0000000E+00   0.0000000E+00   0.0000000E+00   0.0000000E+00   0.0000000E+00   0.0000000E+00   0.0000000E+00   0.0000000E+00   0.0000000E+00   0.0000000E+00   0.0000000E+00   0.0000000E+00   0.0000000E+00   0.0000000E+00   0.0000000E+00   0.0000000E+00   0.0000000E+00   0.0000000E+00   0.0000000E+00   0.0000000E+00   0.0000000E+00   0.0000000E+00   0.0000000E+00   0.0000000E+00   0.0000000E+00   0.0000000E+00   0.0000000E+00   0.0000000E+00   0.0000000E+00   0.0000000E+00   0.0000000E+00   0.0000000E+00   0.0000000E+00   0.0000000E+00   0.0000000E+00   0.0000000E+00   0.0000000E+00   0.0000000E+00   0.0000000E+00   0.0000000E+00   0.0000000E+00   0.0000000E+00   0.0000000E+00   0.0000000E+00   0.0000000E+00   0.0000000E+00   0.0000000E+00   0.0000000E+00   0.0000000E+00   0.0000000E+00   0.0000000E+00   0.0000000E+00   0.0000000E+00   0.0000000E+00   0.0000000E+00   0.0000000E+00   0.0000000E+00   0.0000000E+00   0.0000000E+00   0.0000000E+00   0.0000000E+00   0.0000000E+00   0.0000000E+00   0.0000000E+00   0.0000000E+00   0.0000000E+00   0.0000000E+00   0.0000000E+00   0.0000000E+00   0.0000000E+00   0.0000000E+00   0.0000000E+00   0.0000000E+00   0.0000000E+00   0.0000000E+00   0.0000000E+00   0.0000000E+00   0.0000000E+00   0.0000000E+00   0.0000000E+00   0.0000000E+00   0.0000000E+00   0.0000000E+00   0.0000000E+00   0.0000000E+00   0.0000000E+00   0.0000000E+00   0.0000000E+00   0.0000000E+00   0.0000000E+00   0.0000000E+00   0.0000000E+00   0.0000000E+00   0.0000000E+00   0.0000000E+00   0.0000000E+00   0.0000000E+00   0.0000000E+00   0.0000000E+00   0.0000000E+00   0.0000000E+00   0.0000000E+00   0.0000000E+00   0.0000000E+00   0.0000000E+00   0.0000000E+00   0.0000000E+00   0.0000000E+00   0.0000000E+00   0.0000000E+00   0.0000000E+00   0.0000000E+00   0.0000000E+00   0.0000000E+00   0.0000000E+00   0.0000000E+00   0.0000000E+00   0.0000000E+00   0.0000000E+00   0.0000000E+00   0.0000000E+00   0.0000000E+00   0.0000000E+00   0.0000000E+00   0.0000000E+00   0.0000000E+00   0.0000000E+00   0.0000000E+00   0.0000000E+00   0.0000000E+00   0.0000000E+00   0.0000000E+00   0.0000000E+00   0.0000000E+00   0.0000000E+00   0.0000000E+00   0.0000000E+00   0.0000000E+00   0.0000000E+00   0.0000000E+00   0.0000000E+00   0.0000000E+00   0.0000000E+00   0.0000000E+00   0.0000000E+00   0.0000000E+00   0.0000000E+00   0.0000000E+00   0.0000000E+00   0.0000000E+00   0.0000000E+00   0.0000000E+00   0.0000000E+00   0.0000000E+00   0.0000000E+00   0.0000000E+00   0.0000000E+00   0.0000000E+00   0.0000000E+00   0.0000000E+00   0.0000000E+00   0.0000000E+00   0.0000000E+00   0.0000000E+00   0.0000000E+00   0.0000000E+00   0.0000000E+00   0.0000000E+00   0.0000000E+00   0.0000000E+00   0.0000000E+00   0.0000000E+00   0.0000000E+00   0.0000000E+00   0.0000000E+00   0.0000000E+00   0.0000000E+00   0.0000000E+00   0.0000000E+00   0.0000000E+00   0.0000000E+00   0.0000000E+00   0.0000000E+00   0.0000000E+00   0.0000000E+00   0.0000000E+00   0.0000000E+00   0.0000000E+00   0.0000000E+00   0.0000000E+00   0.0000000E+00   0.0000000E+00   0.0000000E+00   0.0000000E+00   0.0000000E+00   0.0000000E+00   0.0000000E+00   0.0000000E+00   0.0000000E+00   0.0000000E+00   0.0000000E+00   0.0000000E+00   0.0000000E+00   0.0000000E+00   0.0000000E+00   0.0000000E+00   0.0000000E+00   0.0000000E+00   0.0000000E+00   0.0000000E+00   0.0000000E+00   0.0000000E+00   0.0000000E+00   0.0000000E+00   0.0000000E+00   0.0000000E+00   0.0000000E+00   0.0000000E+00   0.0000000E+00   0.0000000E+00   0.0000000E+00   0.0000000E+00   0.0000000E+00   0.0000000E+00   0.0000000E+00   0.0000000E+00   0.0000000E+00   0.0000000E+00   0.0000000E+00   0.0000000E+00   0.0000000E+00   0.0000000E+00   0.0000000E+00   0.0000000E+00   0.0000000E+00   0.0000000E+00   0.0000000E+00   0.0000000E+00   0.0000000E+00   0.0000000E+00   0.0000000E+00   0.0000000E+00   0.0000000E+00   0.0000000E+00   0.0000000E+00   0.0000000E+00   0.0000000E+00   0.0000000E+00   0.0000000E+00   0.0000000E+00   0.0000000E+00   0.0000000E+00   0.0000000E+00   0.0000000E+00   0.0000000E+00   0.0000000E+00   0.0000000E+00   0.0000000E+00   0.0000000E+00   0.0000000E+00   0.0000000E+00   0.0000000E+00   0.0000000E+00   0.0000000E+00   0.0000000E+00   0.0000000E+00   0.0000000E+00   0.0000000E+00   0.0000000E+00   0.0000000E+00   0.0000000E+00   0.0000000E+00   0.0000000E+00   0.0000000E+00   0.0000000E+00   0.0000000E+00   0.0000000E+00   0.0000000E+00   0.0000000E+00   0.0000000E+00   0.0000000E+00   0.0000000E+00   0.0000000E+00   0.0000000E+00   0.0000000E+00   0.0000000E+00   0.0000000E+00   0.0000000E+00   0.0000000E+00   0.0000000E+00   0.0000000E+00   0.0000000E+00   0.0000000E+00   0.0000000E+00   0.0000000E+00   0.0000000E+00   0.0000000E+00   0.0000000E+00   0.0000000E+00   0.0000000E+00   0.0000000E+00   0.0000000E+00   0.0000000E+00   0.0000000E+00   0.0000000E+00   0.0000000E+00   0.0000000E+00   0.0000000E+00   0.0000000E+00   0.0000000E+00   0.0000000E+00   0.0000000E+00   0.0000000E+00   0.0000000E+00   0.0000000E+00   0.0000000E+00   0.0000000E+00   0.0000000E+00   0.0000000E+00   0.0000000E+00   0.0000000E+00   0.0000000E+00   0.0000000E+00   0.0000000E+00   0.0000000E+00   0.0000000E+00   0.0000000E+00   0.0000000E+00   0.0000000E+00   0.0000000E+00   0.0000000E+00   0.0000000E+00   1.9752525E-01   1.9752525E-01   2.9628786E-01   2.9628786E-01   2.9628786E-01   1.9752525E-01   2.9628786E-01   3.9505050E-01   3.9505050E-01   3.9505050E-01   3.9505050E-01   2.9628786E-01   3.9505050E-01   3.9505050E-01   4.9381313E-01   5.9257573E-01   5.9257573E-01   3.9505050E-01   4.9381313E-01   5.9257573E-01   6.9133836E-01   6.9133836E-01   6.9133836E-01   5.9257573E-01   6.9133836E-01   7.9010099E-01   8.8886362E-01   9.8762625E-01   9.8762625E-01   6.9133836E-01   9.8762625E-01   1.0863888E+00   1.0863888E+00   1.1851515E+00   1.2839141E+00   1.0863888E+00   1.2839141E+00   1.4814394E+00   1.4814394E+00   1.6789646E+00   1.7777272E+00   1.5802020E+00   1.7777272E+00   1.9752525E+00   2.0740151E+00   2.1727777E+00   2.2715404E+00   2.3703029E+00   2.6665909E+00   2.7653534E+00   2.8641162E+00   2.9628787E+00   3.0616415E+00   3.5554545E+00   3.6542170E+00   3.7529798E+00   3.7529798E+00   3.8517423E+00   3.9505050E+00   5.1356564E+00   5.1356564E+00   5.0368938E+00   4.9381313E+00   4.9381313E+00   5.1356564E+00   6.8146210E+00   6.8146210E+00   6.6170959E+00   6.5183330E+00   6.5183330E+00   6.6170959E+00   8.0985355E+00   8.5923481E+00   8.3948231E+00   8.2960606E+00   8.2960606E+00   8.4935856E+00   9.7774992E+00   1.0468838E+01   1.0468838E+01   1.0468838E+01   1.0666363E+01   1.0962650E+01   1.1950276E+01   1.2839140E+01   1.3234191E+01   1.3332953E+01   1.3629241E+01   1.3925529E+01   1.5308204E+01   1.6197067E+01   1.6690880E+01   1.6987167E+01   1.7283455E+01   1.7678505E+01   1.9851282E+01   2.0740147E+01   2.1233959E+01   2.1629009E+01   2.2024059E+01   2.2517874E+01   2.5777037E+01   2.6665901E+01   2.7159714E+01   2.7554764E+01   2.8048576E+01   2.8641151E+01   3.2986702E+01   3.3875565E+01   3.4566902E+01   3.4961952E+01   3.5455765E+01   3.6147102E+01   4.1875328E+01   4.3159241E+01   4.3850578E+01   4.4443153E+01   4.4936966E+01   4.5430779E+01   5.3233009E+01   5.5010735E+01   5.5899597E+01   5.6195885E+01   5.6590935E+01   5.7084751E+01   6.7849846E+01   7.0121384E+01   7.1109009E+01   7.1109009E+01   7.1207771E+01   7.1306534E+01   8.6022118E+01   8.9281281E+01   9.0071381E+01   8.9380043E+01   8.8886230E+01   8.8491180E+01   1.0942876E+02   1.1367554E+02   1.1397182E+02   1.1189782E+02   1.1031762E+02   1.0913247E+02   1.3836604E+02   1.4409425E+02   1.4251405E+02   1.3816852E+02   1.3500812E+02   1.3293411E+02   1.7273517E+02   1.7935223E+02   1.7461165E+02   1.6671066E+02   1.6167380E+02   1.5851340E+02   2.1411626E+02   2.2112836E+02   2.1026453E+02   1.9752422E+02   1.9051212E+02   1.8666039E+02   2.6408939E+02   2.6892871E+02   2.4878128E+02   2.3011528E+02   2.2172052E+02   2.1836261E+02   3.3470334E+02   3.3391327E+02   3.0132190E+02   2.7712527E+02   2.6892807E+02   2.6833551E+02   4.6467215E+02   4.5430222E+02   4.1025464E+02   3.8200891E+02   3.7647827E+02   3.8171262E+02   7.6154535E+02   7.4031171E+02   6.9379535E+02   6.6535217E+02   6.6564850E+02   6.8075891E+02   1.4409127E+03   1.4131611E+03   1.3836318E+03   1.3683240E+03   1.3792864E+03   1.4083219E+03   2.6971216E+03   2.6655186E+03   2.6826040E+03   2.7083801E+03   2.7412671E+03   2.7890667E+03   4.2640913E+03   4.2195513E+03   4.3018169E+03   4.3926743E+03   4.4575586E+03   4.5274795E+03   5.4683677E+03   5.3977563E+03   5.5253501E+03   5.6725967E+03   5.7677983E+03   5.8584575E+03   6.0815249E+03   5.9772397E+03   6.1120405E+03   6.2867378E+03   6.4001084E+03   6.5067637E+03   6.3315967E+03   6.2043052E+03   6.3198452E+03   6.4945376E+03   6.6129414E+03   6.7281855E+03   6.4415659E+03   6.2975903E+03   6.3932778E+03   6.5559165E+03   6.6716499E+03   6.7908394E+03   6.5144136E+03   6.3601763E+03   6.4399609E+03   6.5909399E+03   6.7031128E+03   6.8231851E+03   6.5776611E+03   6.4186943E+03   6.4899824E+03   6.6333486E+03   6.7421567E+03   6.8619248E+03   6.6293892E+03   6.4703384E+03   6.5399419E+03   6.6803330E+03   6.7871567E+03   6.9056304E+03   6.6587832E+03   6.5033057E+03   6.5768491E+03   6.7188027E+03   6.8250210E+03   6.9417031E+03   6.5745771E+03   6.4240605E+03   6.5000591E+03   6.6414956E+03   6.7462158E+03   6.8607075E+03   6.3777280E+03   6.2335601E+03   6.3093447E+03   6.4474932E+03   6.5498218E+03   6.6612290E+03   6.0863760E+03   5.9501431E+03   6.0235371E+03   6.1562188E+03   6.2551621E+03   6.3629844E+03   5.7194512E+03   5.5934302E+03   5.6635405E+03   5.7884766E+03   5.8834355E+03   5.9872700E+03   5.2954966E+03   5.1824556E+03   5.2479937E+03   5.3644844E+03   5.4551548E+03   5.5539058E+03   4.8306040E+03   4.7319258E+03   4.7936733E+03   4.9014121E+03   4.9871895E+03   5.0809443E+03   4.3407813E+03   4.2568604E+03   4.3159888E+03   4.4157495E+03   4.4966216E+03   4.5847744E+03   3.8454973E+03   3.7748538E+03   3.8316440E+03   3.9237070E+03   3.9995586E+03   4.0819937E+03   3.3649963E+03   3.3054644E+03   3.3577397E+03   3.4418899E+03   3.5125066E+03   3.5892031E+03   2.9165303E+03   2.8658499E+03   2.9110535E+03   2.9863926E+03   3.0513608E+03   3.1218076E+03   2.5053467E+03   2.4661436E+03   2.5032061E+03   2.5701118E+03   2.6289229E+03   2.6919268E+03   2.1332661E+03   2.1104497E+03   2.1415286E+03   2.2013513E+03   2.2536963E+03   2.3081765E+03   1.8032595E+03   1.8001752E+03   1.8279890E+03   1.8827416E+03   1.9293824E+03   1.9742841E+03   1.5416035E+03   1.5639384E+03   1.6118599E+03   1.6543181E+03   1.6902583E+03   1.3313199E+03   1.3457490E+03   1.3831407E+03   1.4233788E+03   1.4531780E+03   1.1656178E+03   1.1907281E+03   1.2284846E+03   1.2574352E+03   1.0156250E+03   1.0282531E+03   1.0608744E+03   1.0934038E+03   8.9311389E+02   9.1576404E+02   9.5023364E+02   7.9415198E+02   8.2219440E+02   7.0216071E+02   7.1502118E+02   3.9505050E-01   3.9505050E-01   3.9505050E-01   3.9505050E-01   3.9505050E-01   3.9505050E-01   3.9505050E-01   3.9505050E-01   3.9505050E-01   3.9505050E-01   4.9381313E-01   4.9381313E-01   4.9381313E-01   5.9257573E-01   5.9257573E-01   5.9257573E-01   5.9257573E-01   5.9257573E-01   5.9257573E-01   5.9257573E-01   5.9257573E-01   5.9257573E-01   6.9133836E-01   6.9133836E-01   6.9133836E-01   6.9133836E-01   6.9133836E-01   7.9010099E-01   7.9010099E-01   7.9010099E-01   7.9010099E-01   8.8886362E-01   8.8886362E-01   8.8886362E-01   8.8886362E-01   8.8886362E-01   9.8762625E-01   1.0863888E+00   1.0863888E+00   1.0863888E+00   1.0863888E+00   1.0863888E+00   1.0863888E+00   1.0863888E+00   1.0863888E+00   1.2839141E+00   1.3826767E+00   1.3826767E+00   1.3826767E+00   1.4814394E+00   1.4814394E+00   1.4814394E+00   1.4814394E+00   1.4814394E+00   1.7777272E+00   1.7777272E+00   1.8764899E+00   1.8764899E+00   1.8764899E+00   1.8764899E+00   1.8764899E+00   1.8764899E+00   1.8764899E+00   2.3703029E+00   2.3703029E+00   2.4690657E+00   2.4690657E+00   2.5678282E+00   2.5678282E+00   2.5678282E+00   2.5678282E+00   2.5678282E+00   3.0616415E+00   3.1604040E+00   3.2591665E+00   3.2591665E+00   3.2591665E+00   3.2591665E+00   3.2591665E+00   3.3579292E+00   3.3579292E+00   3.9505050E+00   4.0492678E+00   4.1480303E+00   4.1480303E+00   4.1480303E+00   4.1480303E+00   4.1480303E+00   4.1480303E+00   4.1480303E+00   5.2344189E+00   5.3331819E+00   5.4319444E+00   5.5307069E+00   5.5307069E+00   5.5307069E+00   5.5307069E+00   5.5307069E+00   5.5307069E+00   6.8146210E+00   6.9133835E+00   6.9133835E+00   6.9133835E+00   6.9133835E+00   6.9133835E+00   7.0121465E+00   7.0121465E+00   7.0121465E+00   8.6911106E+00   8.8886366E+00   8.8886366E+00   8.8886366E+00   8.8886366E+00   8.9873991E+00   8.9873991E+00   8.9873991E+00   8.9873991E+00   1.1160175E+01   1.1357701E+01   1.1456464E+01   1.1456464E+01   1.1456464E+01   1.1456464E+01   1.1555226E+01   1.1555226E+01   1.1555226E+01   1.4221817E+01   1.4518105E+01   1.4518105E+01   1.4518105E+01   1.4518105E+01   1.4518105E+01   1.4518105E+01   1.4518105E+01   1.4518105E+01   1.8073557E+01   1.8271082E+01   1.8468607E+01   1.8468607E+01   1.8567369E+01   1.8468607E+01   1.8468607E+01   1.8369844E+01   1.8369844E+01   2.2912924E+01   2.3110449E+01   2.3406736E+01   2.3406736E+01   2.3307974E+01   2.3307974E+01   2.3209211E+01   2.3110449E+01   2.3110449E+01   2.9036203E+01   2.9332491E+01   2.9431253E+01   2.9431253E+01   2.9332491E+01   2.9332491E+01   2.9233728E+01   2.9036203E+01   2.9036203E+01   3.6640919E+01   3.6739681E+01   3.6937206E+01   3.6838444E+01   3.6640919E+01   3.6542156E+01   3.6443390E+01   3.6344627E+01   3.6245865E+01   4.5924591E+01   4.6122116E+01   4.6122116E+01   4.5825829E+01   4.5628304E+01   4.5332016E+01   4.5233253E+01   4.5134491E+01   4.4936966E+01   5.7578564E+01   5.7578564E+01   5.7282276E+01   5.6887222E+01   5.6492172E+01   5.6097122E+01   5.5899597E+01   5.5603310E+01   5.5603310E+01   7.1504059E+01   7.1306534E+01   7.0911484E+01   7.0220146E+01   6.9627571E+01   6.9034996E+01   6.8639946E+01   6.8343658E+01   6.8146133E+01   8.8096130E+01   8.7602318E+01   8.6713455E+01   8.5824593E+01   8.4935730E+01   8.4441917E+01   8.3849342E+01   8.3553055E+01   8.3355530E+01   1.0844113E+02   1.0715722E+02   1.0587331E+02   1.0458940E+02   1.0360178E+02   1.0271291E+02   1.0221910E+02   1.0182405E+02   1.0172529E+02   1.3115639E+02   1.2957619E+02   1.2769971E+02   1.2602074E+02   1.2483560E+02   1.2384798E+02   1.2345293E+02   1.2305788E+02   1.2276159E+02   1.5604434E+02   1.5367406E+02   1.5140253E+02   1.4942728E+02   1.4814337E+02   1.4715575E+02   1.4685945E+02   1.4656317E+02   1.4676070E+02   1.8389505E+02   1.8142599E+02   1.7885818E+02   1.7678418E+02   1.7559903E+02   1.7480893E+02   1.7471017E+02   1.7471017E+02   1.7500645E+02   2.1658490E+02   2.1480719E+02   2.1273318E+02   2.1115300E+02   2.1016537E+02   2.0996785E+02   2.1036290E+02   2.1085670E+02   2.1115300E+02   2.6952063E+02   2.7040948E+02   2.7031073E+02   2.6981693E+02   2.6981693E+02   2.7040948E+02   2.7169339E+02   2.7268100E+02   2.7356985E+02   3.8961353E+02   3.9603302E+02   4.0008221E+02   4.0235373E+02   4.0432898E+02   4.0650171E+02   4.0897076E+02   4.1104474E+02   4.1242740E+02   6.9942474E+02   7.1562152E+02   7.2678149E+02   7.3399103E+02   7.3932410E+02   7.4396588E+02   7.4831134E+02   7.5186676E+02   7.5433575E+02   1.4424929E+03   1.4726149E+03   1.4948359E+03   1.5095511E+03   1.5198223E+03   1.5282169E+03   1.5354264E+03   1.5410557E+03   1.5447098E+03   2.8424956E+03   2.8904927E+03   2.9267373E+03   2.9514272E+03   2.9688088E+03   2.9821414E+03   2.9928076E+03   3.0012021E+03   3.0065352E+03   4.6021411E+03   4.6699883E+03   4.7223301E+03   4.7586733E+03   4.7839551E+03   4.8032134E+03   4.8185205E+03   4.8301743E+03   4.8375811E+03   5.9534614E+03   6.0404663E+03   6.1088062E+03   6.1569009E+03   6.1909717E+03   6.2165498E+03   6.2365977E+03   6.2517075E+03   6.2611880E+03   6.6181592E+03   6.7215557E+03   6.8038184E+03   6.8626763E+03   6.9045479E+03   6.9359521E+03   6.9605420E+03   6.9790093E+03   6.9907607E+03   6.8514282E+03   6.9667710E+03   7.0595977E+03   7.1267495E+03   7.1747432E+03   7.2109849E+03   7.2394258E+03   7.2608550E+03   7.2742852E+03   6.9208916E+03   7.0438335E+03   7.1433721E+03   7.2159521E+03   7.2681899E+03   7.3076895E+03   7.3389927E+03   7.3622974E+03   7.3771099E+03   6.9563901E+03   7.0829795E+03   7.1858706E+03   7.2611128E+03   7.3156196E+03   7.3571904E+03   7.3899736E+03   7.4147583E+03   7.4304585E+03   6.9956147E+03   7.1231831E+03   7.2267573E+03   7.3027852E+03   7.3579790E+03   7.4002383E+03   7.4338091E+03   7.4591846E+03   7.4751797E+03   7.0383208E+03   7.1647915E+03   7.2675674E+03   7.3428970E+03   7.3976909E+03   7.4398477E+03   7.4734150E+03   7.4988872E+03   7.5149795E+03   7.0723042E+03   7.1965879E+03   7.2973765E+03   7.3711177E+03   7.4248188E+03   7.4662798E+03   7.4995469E+03   7.5246206E+03   7.5405142E+03   6.9883257E+03   7.1097266E+03   7.2076362E+03   7.2792925E+03   7.3314058E+03   7.3716753E+03   7.4039497E+03   7.4286250E+03   7.4441206E+03   6.7851685E+03   6.9023970E+03   6.9970288E+03   7.0662021E+03   7.1163301E+03   7.1551104E+03   7.1861938E+03   7.2098765E+03   7.2249741E+03   6.4822495E+03   6.5948081E+03   6.6851694E+03   6.7509673E+03   6.7988115E+03   6.8357061E+03   6.8653003E+03   6.8877920E+03   6.9020962E+03   6.1010640E+03   6.2079551E+03   6.2934482E+03   6.3551772E+03   6.4000435E+03   6.4344575E+03   6.4621665E+03   6.4834658E+03   6.4967778E+03   5.6616255E+03   5.7618555E+03   5.8411914E+03   5.8981553E+03   5.9394502E+03   5.9710859E+03   5.9966113E+03   6.0159277E+03   6.0281484E+03   5.1816914E+03   5.2742642E+03   5.3469434E+03   5.3986465E+03   5.4357744E+03   5.4641372E+03   5.4869849E+03   5.5043174E+03   5.5153477E+03   4.6782393E+03   4.7630469E+03   4.8286689E+03   4.8748110E+03   4.9076714E+03   4.9326611E+03   4.9524365E+03   4.9677842E+03   4.9774258E+03   4.1683584E+03   4.2454873E+03   4.3045371E+03   4.3454111E+03   4.3739043E+03   4.3958149E+03   4.4131074E+03   4.4261753E+03   4.4344282E+03   3.6688425E+03   3.7390662E+03   3.7923223E+03   3.8288071E+03   3.8539153E+03   3.8727458E+03   3.8876538E+03   3.8988345E+03   3.9059944E+03   3.1946028E+03   3.2590808E+03   3.3077083E+03   3.3409749E+03   3.3635764E+03   3.3801118E+03   3.3930269E+03   3.4026155E+03   3.4086816E+03   2.7574661E+03   2.8165684E+03   2.8620166E+03   2.8933232E+03   2.9143896E+03   2.9293115E+03   2.9406245E+03   2.9490122E+03   2.9540835E+03   2.3654724E+03   2.4193691E+03   2.4624863E+03   2.4930767E+03   2.5139553E+03   2.5282307E+03   2.5384275E+03   2.5457107E+03   2.5501777E+03   2.0224679E+03   2.0702646E+03   2.1114954E+03   2.1425874E+03   2.1641201E+03   2.1786040E+03   2.1885496E+03   2.1954050E+03   2.1993643E+03   1.7284017E+03   1.7692275E+03   1.8076571E+03   1.8393781E+03   1.8626656E+03   1.8786698E+03   1.8893073E+03   1.8961115E+03   1.8998491E+03   1.4820269E+03   1.5148599E+03   1.5491155E+03   1.5804291E+03   1.6056698E+03   1.6238884E+03   1.6360344E+03   1.6436256E+03   1.6478005E+03   1.2794524E+03   1.3037163E+03   1.3321943E+03   1.3610466E+03   1.3865261E+03   1.4066661E+03   1.4209048E+03   1.4301785E+03   1.4352369E+03   1.1150607E+03   1.1329382E+03   1.1541311E+03   1.1779949E+03   1.2013976E+03   1.2214832E+03   1.2370538E+03   1.2477416E+03   1.2539146E+03   9.7748602E+02   9.9553510E+02   1.0108759E+03   1.0281998E+03   1.0466056E+03   1.0641089E+03   1.0788148E+03   1.0896412E+03   1.0963175E+03   8.5392938E+02   8.7872144E+02   8.9525079E+02   9.0791113E+02   9.2013049E+02   9.3270038E+02   9.4430298E+02   9.5353210E+02   9.5950897E+02   7.3971777E+02   7.6731049E+02   7.9090228E+02   8.0734131E+02   8.1790375E+02   8.2591022E+02   8.3314935E+02   8.3928070E+02   8.4353833E+02   6.5483209E+02   6.6910535E+02   6.8797217E+02   7.0757806E+02   7.2357562E+02   7.3473389E+02   7.4195416E+02   7.4646674E+02   7.4933813E+02   6.0879755E+02   6.1013519E+02   6.1673749E+02   6.2805444E+02   6.3976440E+02   6.4880261E+02   6.5461871E+02   6.5776263E+02   5.6847565E+02   5.6345563E+02   5.6375659E+02   5.6473193E+02   5.6540723E+02   5.6585742E+02   5.4316168E+02   5.3781519E+02   5.3211249E+02   5.2833453E+02   3.9505050E-01   3.9505050E-01   3.9505050E-01   3.9505050E-01   3.9505050E-01   3.9505050E-01   3.9505050E-01   3.9505050E-01   5.9257573E-01   5.9257573E-01   5.9257573E-01   5.9257573E-01   5.9257573E-01   5.9257573E-01   4.9381313E-01   4.9381313E-01   6.9133836E-01   6.9133836E-01   6.9133836E-01   6.9133836E-01   6.9133836E-01   6.9133836E-01   5.9257573E-01   5.9257573E-01   8.8886362E-01   8.8886362E-01   8.8886362E-01   8.8886362E-01   8.8886362E-01   8.8886362E-01   7.9010099E-01   7.9010099E-01   1.0863888E+00   1.0863888E+00   1.0863888E+00   1.0863888E+00   1.0863888E+00   1.0863888E+00   1.0863888E+00   1.0863888E+00   1.4814394E+00   1.4814394E+00   1.4814394E+00   1.4814394E+00   1.4814394E+00   1.4814394E+00   1.3826767E+00   1.3826767E+00   1.8764899E+00   1.8764899E+00   1.8764899E+00   1.8764899E+00   1.8764899E+00   1.8764899E+00   1.8764899E+00   1.8764899E+00   2.5678282E+00   2.5678282E+00   2.5678282E+00   2.5678282E+00   2.5678282E+00   2.5678282E+00   2.4690657E+00   2.4690657E+00   3.3579292E+00   3.3579292E+00   3.3579292E+00   3.2591665E+00   3.2591665E+00   3.2591665E+00   3.2591665E+00   3.2591665E+00   4.1480303E+00   4.1480303E+00   4.1480303E+00   4.1480303E+00   4.1480303E+00   4.1480303E+00   4.1480303E+00   4.1480303E+00   5.5307069E+00   5.5307069E+00   5.5307069E+00   5.5307069E+00   5.5307069E+00   5.5307069E+00   5.5307069E+00   5.4319444E+00   7.0121465E+00   7.0121465E+00   7.0121465E+00   7.0121465E+00   6.9133835E+00   6.9133835E+00   6.9133835E+00   6.9133835E+00   8.9873991E+00   8.9873991E+00   8.9873991E+00   8.9873991E+00   8.9873991E+00   8.8886366E+00   8.8886366E+00   8.8886366E+00   1.1555226E+01   1.1555226E+01   1.1555226E+01   1.1555226E+01   1.1456464E+01   1.1456464E+01   1.1456464E+01   1.1456464E+01   1.4518105E+01   1.4518105E+01   1.4518105E+01   1.4518105E+01   1.4518105E+01   1.4518105E+01   1.4518105E+01   1.4518105E+01   1.8369844E+01   1.8369844E+01   1.8369844E+01   1.8468607E+01   1.8468607E+01   1.8567369E+01   1.8468607E+01   1.8468607E+01   2.3110449E+01   2.3110449E+01   2.3110449E+01   2.3209211E+01   2.3307974E+01   2.3307974E+01   2.3406736E+01   2.3406736E+01   2.9036203E+01   2.9036203E+01   2.9036203E+01   2.9233728E+01   2.9332491E+01   2.9332491E+01   2.9431253E+01   2.9431253E+01   3.6245865E+01   3.6245865E+01   3.6344627E+01   3.6443390E+01   3.6542156E+01   3.6640919E+01   3.6838444E+01   3.6937206E+01   4.4838203E+01   4.4936966E+01   4.5134491E+01   4.5233253E+01   4.5332016E+01   4.5628304E+01   4.5825829E+01   4.6122116E+01   5.5504547E+01   5.5603310E+01   5.5603310E+01   5.5899597E+01   5.6097122E+01   5.6492172E+01   5.6887222E+01   5.7282276E+01   6.8146133E+01   6.8146133E+01   6.8343658E+01   6.8639946E+01   6.9034996E+01   6.9627571E+01   7.0220146E+01   7.0911484E+01   8.3355530E+01   8.3355530E+01   8.3553055E+01   8.3849342E+01   8.4441917E+01   8.4935730E+01   8.5824593E+01   8.6713455E+01   1.0162653E+02   1.0172529E+02   1.0182405E+02   1.0221910E+02   1.0271291E+02   1.0360178E+02   1.0458940E+02   1.0587331E+02   1.2276159E+02   1.2276159E+02   1.2305788E+02   1.2345293E+02   1.2384798E+02   1.2483560E+02   1.2602074E+02   1.2769971E+02   1.4666193E+02   1.4676070E+02   1.4656317E+02   1.4685945E+02   1.4715575E+02   1.4814337E+02   1.4942728E+02   1.5140253E+02   1.7500645E+02   1.7500645E+02   1.7471017E+02   1.7471017E+02   1.7480893E+02   1.7559903E+02   1.7678418E+02   1.7885818E+02   2.1135051E+02   2.1115300E+02   2.1085670E+02   2.1036290E+02   2.0996785E+02   2.1016537E+02   2.1115300E+02   2.1273318E+02   2.7376740E+02   2.7356985E+02   2.7268100E+02   2.7169339E+02   2.7040948E+02   2.6981693E+02   2.6981693E+02   2.7031073E+02   4.1292120E+02   4.1242740E+02   4.1104474E+02   4.0897076E+02   4.0650171E+02   4.0432898E+02   4.0235373E+02   4.0008221E+02   7.5502710E+02   7.5433575E+02   7.5186676E+02   7.4831134E+02   7.4396588E+02   7.3932410E+02   7.3399103E+02   7.2678149E+02   1.5458950E+03   1.5447098E+03   1.5410557E+03   1.5354264E+03   1.5282169E+03   1.5198223E+03   1.5095511E+03   1.4948359E+03   3.0084116E+03   3.0065352E+03   3.0012021E+03   2.9928076E+03   2.9821414E+03   2.9688088E+03   2.9514272E+03   2.9267373E+03   4.8400498E+03   4.8375811E+03   4.8301743E+03   4.8185205E+03   4.8032134E+03   4.7839551E+03   4.7586733E+03   4.7223301E+03   6.2645459E+03   6.2611880E+03   6.2517075E+03   6.2365977E+03   6.2165498E+03   6.1909717E+03   6.1569009E+03   6.1088062E+03   6.9946123E+03   6.9907607E+03   6.9790093E+03   6.9605420E+03   6.9359521E+03   6.9045479E+03   6.8626763E+03   6.8038184E+03   7.2788276E+03   7.2742852E+03   7.2608550E+03   7.2394258E+03   7.2109849E+03   7.1747432E+03   7.1267495E+03   7.0595977E+03   7.3822446E+03   7.3771099E+03   7.3622974E+03   7.3389927E+03   7.3076895E+03   7.2681899E+03   7.2159521E+03   7.1433721E+03   7.4356919E+03   7.4304585E+03   7.4147583E+03   7.3899736E+03   7.3571904E+03   7.3156196E+03   7.2611128E+03   7.1858706E+03   7.4806104E+03   7.4751797E+03   7.4591846E+03   7.4338091E+03   7.4002383E+03   7.3579790E+03   7.3027852E+03   7.2267573E+03   7.5206074E+03   7.5149795E+03   7.4988872E+03   7.4734150E+03   7.4398477E+03   7.3976909E+03   7.3428970E+03   7.2675674E+03   7.5460420E+03   7.5405142E+03   7.5246206E+03   7.4995469E+03   7.4662798E+03   7.4248188E+03   7.3711177E+03   7.2973765E+03   7.4494502E+03   7.4441206E+03   7.4286250E+03   7.4039497E+03   7.3716753E+03   7.3314058E+03   7.2792925E+03   7.2076362E+03   7.2301055E+03   7.2249741E+03   7.2098765E+03   7.1861938E+03   7.1551104E+03   7.1163301E+03   7.0662021E+03   6.9970288E+03   6.9071270E+03   6.9020962E+03   6.8877920E+03   6.8653003E+03   6.8357061E+03   6.7988115E+03   6.7509673E+03   6.6851694E+03   6.5013140E+03   6.4967778E+03   6.4834658E+03   6.4621665E+03   6.4344575E+03   6.4000435E+03   6.3551772E+03   6.2934482E+03   6.0324849E+03   6.0281484E+03   6.0159277E+03   5.9966113E+03   5.9710859E+03   5.9394502E+03   5.8981553E+03   5.8411914E+03   5.5190898E+03   5.5153477E+03   5.5043174E+03   5.4869849E+03   5.4641372E+03   5.4357744E+03   5.3986465E+03   5.3469434E+03   4.9806729E+03   4.9774258E+03   4.9677842E+03   4.9524365E+03   4.9326611E+03   4.9076714E+03   4.8748110E+03   4.8286689E+03   4.4374741E+03   4.4344282E+03   4.4261753E+03   4.4131074E+03   4.3958149E+03   4.3739043E+03   4.3454111E+03   4.3045371E+03   3.9083481E+03   3.9059944E+03   3.8988345E+03   3.8876538E+03   3.8727458E+03   3.8539153E+03   3.8288071E+03   3.7923223E+03   3.4107363E+03   3.4086816E+03   3.4026155E+03   3.3930269E+03   3.3801118E+03   3.3635764E+03   3.3409749E+03   3.3077083E+03   2.9558389E+03   2.9540835E+03   2.9490122E+03   2.9406245E+03   2.9293115E+03   2.9143896E+03   2.8933232E+03   2.8620166E+03   2.5517314E+03   2.5501777E+03   2.5457107E+03   2.5384275E+03   2.5282307E+03   2.5139553E+03   2.4930767E+03   2.4624863E+03   2.2006196E+03   2.1993643E+03   2.1954050E+03   2.1885496E+03   2.1786040E+03   2.1641201E+03   2.1425874E+03   2.1114954E+03   1.9010950E+03   1.8998491E+03   1.8961115E+03   1.8893073E+03   1.8786698E+03   1.8626656E+03   1.8393781E+03   1.8076571E+03   1.6491290E+03   1.6478005E+03   1.6436256E+03   1.6360344E+03   1.6238884E+03   1.6056698E+03   1.5804291E+03   1.5491155E+03   1.4369231E+03   1.4352369E+03   1.4301785E+03   1.4209048E+03   1.4066661E+03   1.3865261E+03   1.3610466E+03   1.3321943E+03   1.2558494E+03   1.2539146E+03   1.2477416E+03   1.2370538E+03   1.2214832E+03   1.2013976E+03   1.1779949E+03   1.1541311E+03   1.0984828E+03   1.0963175E+03   1.0896412E+03   1.0788148E+03   1.0641089E+03   1.0466056E+03   1.0281998E+03   1.0108759E+03   9.6153064E+02   9.5950897E+02   9.5353210E+02   9.4430298E+02   9.3270038E+02   9.2013049E+02   9.0791113E+02   8.9525079E+02   8.4507111E+02   8.4353833E+02   8.3928070E+02   8.3314935E+02   8.2591022E+02   8.1790375E+02   8.0734131E+02   7.9090228E+02   7.5032257E+02   7.4933813E+02   7.4646674E+02   7.4195416E+02   7.3473389E+02   7.2357562E+02   7.0757806E+02   6.8797217E+02   6.5894153E+02   6.5776263E+02   6.5461871E+02   6.4880261E+02   6.3976440E+02   6.2805444E+02   6.1673749E+02   6.1013519E+02   5.6593250E+02   5.6585742E+02   5.6540723E+02   5.6473193E+02   5.6375659E+02   5.6345563E+02   5.6847565E+02   5.2698022E+02   5.2833453E+02   5.3211249E+02   5.3781519E+02   5.4316168E+02   3.9505050E-01   3.9505050E-01   2.9628786E-01   2.9628786E-01   2.9628786E-01   1.9752525E-01   1.9752525E-01   4.9381313E-01   3.9505050E-01   3.9505050E-01   3.9505050E-01   3.9505050E-01   3.9505050E-01   2.9628786E-01   1.9752525E-01   5.9257573E-01   5.9257573E-01   5.9257573E-01   5.9257573E-01   4.9381313E-01   3.9505050E-01   3.9505050E-01   2.9628786E-01   7.9010099E-01   7.9010099E-01   6.9133836E-01   6.9133836E-01   6.9133836E-01   5.9257573E-01   4.9381313E-01   3.9505050E-01   1.0863888E+00   9.8762625E-01   9.8762625E-01   9.8762625E-01   8.8886362E-01   7.9010099E-01   6.9133836E-01   5.9257573E-01   1.3826767E+00   1.2839141E+00   1.2839141E+00   1.1851515E+00   1.0863888E+00   1.0863888E+00   9.8762625E-01   6.9133836E-01   1.7777272E+00   1.7777272E+00   1.7777272E+00   1.6789646E+00   1.4814394E+00   1.4814394E+00   1.2839141E+00   1.0863888E+00   2.3703029E+00   2.3703029E+00   2.2715404E+00   2.1727777E+00   2.0740151E+00   1.9752525E+00   1.7777272E+00   1.5802020E+00   3.1604040E+00   3.0616415E+00   3.0616415E+00   2.9628787E+00   2.8641162E+00   2.7653534E+00   2.6665909E+00   2.3703029E+00   4.0492678E+00   3.9505050E+00   3.9505050E+00   3.8517423E+00   3.7529798E+00   3.7529798E+00   3.6542170E+00   3.5554545E+00   5.3331819E+00   5.2344189E+00   5.1356564E+00   4.9381313E+00   4.9381313E+00   5.0368938E+00   5.1356564E+00   5.1356564E+00   6.9133835E+00   6.8146210E+00   6.6170959E+00   6.5183330E+00   6.5183330E+00   6.6170959E+00   6.8146210E+00   6.8146210E+00   8.8886366E+00   8.6911106E+00   8.4935856E+00   8.2960606E+00   8.2960606E+00   8.3948231E+00   8.5923481E+00   8.0985355E+00   1.1357701E+01   1.1160175E+01   1.0962650E+01   1.0666363E+01   1.0468838E+01   1.0468838E+01   1.0468838E+01   9.7774992E+00   1.4518105E+01   1.4221817E+01   1.3925529E+01   1.3629241E+01   1.3332953E+01   1.3234191E+01   1.2839140E+01   1.1950276E+01   1.8271082E+01   1.8073557E+01   1.7678505E+01   1.7283455E+01   1.6987167E+01   1.6690880E+01   1.6197067E+01   1.5308204E+01   2.3110449E+01   2.2912924E+01   2.2517874E+01   2.2024059E+01   2.1629009E+01   2.1233959E+01   2.0740147E+01   1.9851282E+01   2.9332491E+01   2.9036203E+01   2.8641151E+01   2.8048576E+01   2.7554764E+01   2.7159714E+01   2.6665901E+01   2.5777037E+01   3.6739681E+01   3.6640919E+01   3.6147102E+01   3.5455765E+01   3.4961952E+01   3.4566902E+01   3.3875565E+01   3.2986702E+01   4.6122116E+01   4.5924591E+01   4.5430779E+01   4.4936966E+01   4.4443153E+01   4.3850578E+01   4.3159241E+01   4.1875328E+01   5.7578564E+01   5.7578564E+01   5.7084751E+01   5.6590935E+01   5.6195885E+01   5.5899597E+01   5.5010735E+01   5.3233009E+01   7.1306534E+01   7.1504059E+01   7.1306534E+01   7.1207771E+01   7.1109009E+01   7.1109009E+01   7.0121384E+01   6.7849846E+01   8.7602318E+01   8.8096130E+01   8.8491180E+01   8.8886230E+01   8.9380043E+01   9.0071381E+01   8.9281281E+01   8.6022118E+01   1.0715722E+02   1.0844113E+02   1.0913247E+02   1.1031762E+02   1.1189782E+02   1.1397182E+02   1.1367554E+02   1.0942876E+02   1.2957619E+02   1.3115639E+02   1.3293411E+02   1.3500812E+02   1.3816852E+02   1.4251405E+02   1.4409425E+02   1.3836604E+02   1.5367406E+02   1.5604434E+02   1.5851340E+02   1.6167380E+02   1.6671066E+02   1.7461165E+02   1.7935223E+02   1.7273517E+02   1.8142599E+02   1.8389505E+02   1.8666039E+02   1.9051212E+02   1.9752422E+02   2.1026453E+02   2.2112836E+02   2.1411626E+02   2.1480719E+02   2.1658490E+02   2.1836261E+02   2.2172052E+02   2.3011528E+02   2.4878128E+02   2.6892871E+02   2.6408939E+02   2.7040948E+02   2.6952063E+02   2.6833551E+02   2.6892807E+02   2.7712527E+02   3.0132190E+02   3.3391327E+02   3.3470334E+02   3.9603302E+02   3.8961353E+02   3.8171262E+02   3.7647827E+02   3.8200891E+02   4.1025464E+02   4.5430222E+02   4.6467215E+02   7.1562152E+02   6.9942474E+02   6.8075891E+02   6.6564850E+02   6.6535217E+02   6.9379535E+02   7.4031171E+02   7.6154535E+02   1.4726149E+03   1.4424929E+03   1.4083219E+03   1.3792864E+03   1.3683240E+03   1.3836318E+03   1.4131611E+03   1.4409127E+03   2.8904927E+03   2.8424956E+03   2.7890667E+03   2.7412671E+03   2.7083801E+03   2.6826040E+03   2.6655186E+03   2.6971216E+03   4.6699883E+03   4.6021411E+03   4.5274795E+03   4.4575586E+03   4.3926743E+03   4.3018169E+03   4.2195513E+03   4.2640913E+03   6.0404663E+03   5.9534614E+03   5.8584575E+03   5.7677983E+03   5.6725967E+03   5.5253501E+03   5.3977563E+03   5.4683677E+03   6.7215557E+03   6.6181592E+03   6.5067637E+03   6.4001084E+03   6.2867378E+03   6.1120405E+03   5.9772397E+03   6.0815249E+03   6.9667710E+03   6.8514282E+03   6.7281855E+03   6.6129414E+03   6.4945376E+03   6.3198452E+03   6.2043052E+03   6.3315967E+03   7.0438335E+03   6.9208916E+03   6.7908394E+03   6.6716499E+03   6.5559165E+03   6.3932778E+03   6.2975903E+03   6.4415659E+03   7.0829795E+03   6.9563901E+03   6.8231851E+03   6.7031128E+03   6.5909399E+03   6.4399609E+03   6.3601763E+03   6.5144136E+03   7.1231831E+03   6.9956147E+03   6.8619248E+03   6.7421567E+03   6.6333486E+03   6.4899824E+03   6.4186943E+03   6.5776611E+03   7.1647915E+03   7.0383208E+03   6.9056304E+03   6.7871567E+03   6.6803330E+03   6.5399419E+03   6.4703384E+03   6.6293892E+03   7.1965879E+03   7.0723042E+03   6.9417031E+03   6.8250210E+03   6.7188027E+03   6.5768491E+03   6.5033057E+03   6.6587832E+03   7.1097266E+03   6.9883257E+03   6.8607075E+03   6.7462158E+03   6.6414956E+03   6.5000591E+03   6.4240605E+03   6.5745771E+03   6.9023970E+03   6.7851685E+03   6.6612290E+03   6.5498218E+03   6.4474932E+03   6.3093447E+03   6.2335601E+03   6.3777280E+03   6.5948081E+03   6.4822495E+03   6.3629844E+03   6.2551621E+03   6.1562188E+03   6.0235371E+03   5.9501431E+03   6.0863760E+03   6.2079551E+03   6.1010640E+03   5.9872700E+03   5.8834355E+03   5.7884766E+03   5.6635405E+03   5.5934302E+03   5.7194512E+03   5.7618555E+03   5.6616255E+03   5.5539058E+03   5.4551548E+03   5.3644844E+03   5.2479937E+03   5.1824556E+03   5.2954966E+03   5.2742642E+03   5.1816914E+03   5.0809443E+03   4.9871895E+03   4.9014121E+03   4.7936733E+03   4.7319258E+03   4.8306040E+03   4.7630469E+03   4.6782393E+03   4.5847744E+03   4.4966216E+03   4.4157495E+03   4.3159888E+03   4.2568604E+03   4.3407813E+03   4.2454873E+03   4.1683584E+03   4.0819937E+03   3.9995586E+03   3.9237070E+03   3.8316440E+03   3.7748538E+03   3.8454973E+03   3.7390662E+03   3.6688425E+03   3.5892031E+03   3.5125066E+03   3.4418899E+03   3.3577397E+03   3.3054644E+03   3.3649963E+03   3.2590808E+03   3.1946028E+03   3.1218076E+03   3.0513608E+03   2.9863926E+03   2.9110535E+03   2.8658499E+03   2.9165303E+03   2.8165684E+03   2.7574661E+03   2.6919268E+03   2.6289229E+03   2.5701118E+03   2.5032061E+03   2.4661436E+03   2.5053467E+03   2.4193691E+03   2.3654724E+03   2.3081765E+03   2.2536963E+03   2.2013513E+03   2.1415286E+03   2.1104497E+03   2.1332661E+03   2.0702646E+03   2.0224679E+03   1.9742841E+03   1.9293824E+03   1.8827416E+03   1.8279890E+03   1.8001752E+03   1.8032595E+03   1.7692275E+03   1.7284017E+03   1.6902583E+03   1.6543181E+03   1.6118599E+03   1.5639384E+03   1.5416035E+03   1.5148599E+03   1.4820269E+03   1.4531780E+03   1.4233788E+03   1.3831407E+03   1.3457490E+03   1.3313199E+03   1.3037163E+03   1.2794524E+03   1.2574352E+03   1.2284846E+03   1.1907281E+03   1.1656178E+03   1.1329382E+03   1.1150607E+03   1.0934038E+03   1.0608744E+03   1.0282531E+03   1.0156250E+03   9.9553510E+02   9.7748602E+02   9.5023364E+02   9.1576404E+02   8.9311389E+02   8.7872144E+02   8.5392938E+02   8.2219440E+02   7.9415198E+02   7.6731049E+02   7.3971777E+02   7.1502118E+02   7.0216071E+02   6.6910535E+02   6.5483209E+02   6.0879755E+02 
Type 1 2975 float
0 0 0 0 0 0 0 0 0 0 0 0 0 0 0 0 0 0 0 0 0 0 0 0 0 0 0 0 0 0 0 0 0 0 0 0 0 0 0 0 0 0 0 0 0 0 0 0 0 0 0 0 0 0 0 0 0 0 0 0 0 0 0 0 0 0 0 0 0 0 0 0 0 0 0 0 0 0 0 0 0 0 0 0 0 0 0 0 0 0 0 0 0 0 0 0 0 0 0 0 0 0 0 0 0 0 0 0 0 0 0 0 0 0 0 0 0 0 0 0 0 0 0 0 0 0 0 0 0 0 0 0 0 0 0 0 0 0 0 0 0 0 0 0 0 0 0 0 0 0 0 0 0 0 0 0 0 0 0 0 0 0 0 0 0 0 0 0 0 0 0 0 0 0 0 0 0 0 0 0 0 0 0 0 0 0 0 0 0 0 0 0 0 0 0 0 0 0 0 0 0 0 0 0 0 0 0 0 0 0 0 0 0 0 0 0 0 0 0 0 0 0 0 0 0 0 0 0 0 0 0 0 0 0 0 0 0 0 0 0 0 0 0 0 0 0 0 0 0 0 0 0 0 0 0 0 0 0 0 0 0 0 0 0 0 0 0 0 0 0 0 0 0 0 0 0 0 0 0 0 0 0 0 0 0 0 0 0 0 0 0 0 0 0 0 0 0 0 0 0 0 0 0 0 0 0 0 0 0 0 0 0 0 0 0 0 0 0 0 0 0 0 0 0 0 0 0 0 0 0 0 0 0 0 0 0 0 0 0 0 0 0 0 0 0 0 0 0 0 0 0 0 0 0 0 0 0 0 0 0 0 0 0 0 0 0 0 0 0 0 0 0 0 0 0 0 0 0 0 0 0 0 0 0 0 0 0 0 0 0 0 0 0 0 0 0 0 0 0 0 0 0 0 0 0 0 0 0 0 0 0 0 0 0 0 0 0 0 0 0 0 0 0 0 0 0 0 0 0 0 0 0 0 0 0 0 0 0 0 0 0 0 0 0 0 0 0 0 0 0 0 0 0 0 0 0 0 0 0 0 0 0 0 0 0 0 0 0 0 0 0 0 0 0 0 0 0 0 0 0 0 0 0 0 0 0 0 0 0 0 0 0 0 0 0 0 0 0 0 0 0 0 0 0 0 0 0 0 0 0 0 0 0 0 0 0 0 0 0 0 0 0 0 0 0 0 0 0 0 0 0 0 0 0 0 0 0 0 0 0 0 0 0 0 0 0 0 0 0 0 0 0 0 0 0 0 0 0 0 0 0 0 0 0 0 0 0 0 0 0 0 0 0 0 0 0 0 0 0 0 0 0 0 0 0 0 0 0 0 0 0 0 0 0 0 0 0 0 0 0 0 0 0 0 0 0 0 0 0 0 0 0 0 0 0 0 0 0 0 0 0 0 0 0 0 0 0 0 0 0 0 0 0 0 0 0 0 0 0 0 0 0 0 0 0 0 0 0 0 0 0 0 0 0 0 0 0 0 0 0 0 0 0 0 0 0 0 0 0 0 0 0 0 0 0 0 0 0 0 0 0 0 0 0 0 0 0 0 0 0 0 0 0 0 0 0 0 0 0 0 0 0 0 0 0 0 0 0 0 0 0 0 0 0 0 0 0 0 0 0 0 0 0 0 0 0 0 0 0 0 0 0 0 0 0 0 0 0 0 0 0 0 0 0 0 0 0 0 0 0 0 0 0 0 0 0 0 0 0 0 0 0 0 0 0 0 0 0 0 0 0 0 0 0 0 0 0 0 0 0 0 0 0 0 0 0 0 0 0 0 0 0 0 0 0 0 0 0 0 0 0 0 0 0 0 0 0 0 0 0 0 0 0 0 0 0 0 0 0 0 0 0 0 0 0 0 0 0 0 0 0 0 0 0 0 0 0 0 0 0 0 0 0 0 0 0 0 0 0 0 0 0 0 0 0 0 0 0 0 0 0 0 0 0 0 0 0 0 0 0 0 0 0 0 0 0 0 0 0 0 0 0 0 0 0 0 0 0 0 0 0 0 0 0 0 0 0 0 0 0 0 0 0 0 0 0 0 0 0 0 0 0 0 0 0 0 0 0 0 0 0 0 0 0 0 0 0 0 0 0 0 0 0 0 0 0 0 0 0 0 0 0 0 0 0 0 0 0 0 0 0 0 0 0 0 0 0 0 0 0 0 0 0 0 0 0 0 0 0 0 0 0 0 0 0 0 0 0 0 0 0 0 0 0 0 0 0 0 0 0 0 0 0 0 0 0 0 0 0 0 0 0 0 0 0 0 0 0 0 0 0 0 0 0 0 0 0 0 0 0 0 0 0 0 0 0 0 0 0 0 0 3 3 3 3 3 3 3 3 3 3 3 3 3 3 3 3 3 3 3 3 3 3 3 3 3 3 3 3 3 3 3 3 3 3 3 3 3 3 3 3 3 3 3 3 3 3 3 3 3 3 3 3 3 3 3 3 3 3 3 3 3 3 3 3 3 3 3 3 3 3 3 3 3 3 3 3 3 3 3 3 3 3 3 3 3 3 3 3 3 3 3 3 3 3 3 3 3 3 3 3 3 3 3 3 3 3 3 3 3 3 3 3 3 3 3 3 3 3 3 3 3 3 3 3 3 3 3 3 3 3 3 3 3 3 3 3 3 3 3 3 3 3 3 3 3 3 3 3 3 3 3 3 3 3 3 3 3 3 3 3 3 3 3 3 3 3 3 3 3 3 3 3 3 3 3 3 3 3 3 3 3 3 3 3 3 3 3 3 3 3 3 3 3 3 3 3 3 3 3 3 3 3 3 3 3 3 3 3 3 3 3 3 3 3 3 3 3 3 3 3 3 3 3 3 3 3 3 3 3 3 3 3 3 3 3 3 3 3 3 3 3 3 3 3 3 3 3 3 3 3 3 3 3 3 3 3 3 3 3 3 3 3 3 3 3 3 3 3 3 3 3 3 3 3 3 3 3 3 3 3 3 3 3 3 3 3 3 3 3 3 3 3 3 3 3 3 3 3 3 3 3 3 3 3 3 3 3 3 3 3 3 3 3 3 3 3 3 3 3 3 3 3 3 3 3 3 3 3 3 3 3 3 3 3 3 3 3 3 3 3 3 3 3 3 3 3 3 3 3 3 3 3 3 3 3 3 3 3 3 3 3 3 3 3 3 3 3 3 3 3 3 3 3 3 3 3 3 3 3 3 3 3 3 3 3 3 3 3 3 3 3 3 3 3 3 3 3 3 3 3 3 3 3 3 3 3 3 3 3 3 3 3 3 3 3 3 3 3 3 3 3 3 3 3 3 3 3 3 3 3 3 3 3 3 3 3 3 3 3 3 3 3 3 3 3 3 3 3 3 3 3 3 3 3 3 3 3 3 3 3 3 3 3 3 3 3 3 3 3 3 3 3 3 3 3 3 3 3 3 3 3 3 3 3 3 3 3 3 3 3 3 3 3 3 3 3 3 3 3 3 3 3 3 3 3 3 3 3 3 3 3 3 3 3 3 3 3 3 3 3 3 3 3 3 3 3 3 3 3 3 3 3 3 3 3 3 3 3 3 3 3 3 3 3 3 3 3 3 3 3 3 3 3 3 3 3 3 3 3 3 3 3 3 3 3 3 3 3 3 3 3 3 3 3 3 3 3 3 3 3 3 3 3 3 3 3 3 3 3 3 3 3 3 3 3 3 3 3 3 3 3 3 3 3 3 3 3 3 3 3 3 3 3 3 3 3 3 3 3 3 3 3 3 3 3 3 3 3 3 3 3 3 3 3 3 3 3 3 3 3 3 3 3 3 3 3 3 3 3 3 3 3 3 3 3 3 3 3 3 3 3 3 3 3 3 3 3 3 3 3 3 3 3 3 3 3 3 3 3 3 3 3 3 3 3 3 3 3 3 3 3 3 3 3 3 3 3 3 3 3 3 3 3 3 3 3 3 3 3 3 3 3 3 3 3 3 3 3 3 3 3 3 3 3 3 3 3 3 3 3 3 3 3 3 3 3 3 3 3 3 3 3 3 3 3 3 3 3 3 3 3 3 3 3 3 3 3 3 3 3 3 3 3 3 3 3 3 3 3 3 3 3 3 3 3 3 3 3 3 3 3 3 3 3 3 3 3 3 3 3 3 3 3 3 3 3 3 3 3 3 3 3 3 3 3 3 3 3 3 3 3 3 3 3 3 3 3 3 3 3 3 3 3 3 3 3 3 3 3 3 3 3 3 3 3 3 3 3 3 3 3 3 3 3 3 3 3 3 3 3 3 3 3 3 3 3 3 3 3 3 3 3 3 3 3 3 3 3 3 3 3 3 3 3 3 3 3 3 3 3 3 3 3 3 3 3 3 3 3 3 3 3 3 3 3 3 3 3 3 3 3 3 3 3 3 3 3 3 3 3 3 3 3 3 3 3 3 3 3 3 3 3 3 3 3 3 3 3 3 3 3 3 3 3 3 3 3 3 3 3 3 3 3 3 3 3 3 3 3 3 3 3 3 3 3 3 3 3 3 3 3 3 3 3 3 3 3 3 3 3 3 3 3 3 3 3 3 3 3 3 3 3 3 3 3 3 3 3 3 3 3 3 3 3 3 3 3 3 3 3 3 3 3 3 3 3 3 3 3 3 3 3 3 3 3 3 3 3 3 3 3 3 3 3 3 3 3 3 3 3 3 3 3 3 3 3 3 3 3 3 3 3 3 3 3 3 3 3 3 3 3 3 3 3 3 3 3 3 3 3 3 3 3 3 3 3 3 3 3 3 3 3 3 3 3 3 3 3 3 3 3 3 3 3 3 3 3 3 3 3 3 3 3 3 3 3 3 3 3 3 3 3 3 3 3 3 3 3 3 3 3 3 3 3 3 3 3 3 3 3 3 3 3 3 3 3 3 3 3 3 3 3 3 3 3 3 3 3 3 3 3 3 3 3 3 3 3 3 3 3 3 3 3 3 3 3 3 3 3 3 3 3 3 3 3 3 3 3 3 3 3 3 3 3 3 3 3 3 3 3 3 3 3 3 3 3 3 3 3 3 3 3 3 3 3 3 3 3 3 3 3 3 3 3 3 3 3 3 3 3 3 3 3 3 3 3 3 3 3 3 3 3 3 3 3 3 3 3 3 3 3 3 3 3 3 3 3 3 3 3 3 3 3 3 3 3 3 3 3 3 3 3 3 3 3 3 3 3 3 3 3 3 3 3 3 3 3 3 3 3 3 3 3 3 3 3 3 3 3 3 3 3 3 3 3 3 3 3 3 3 3 3 3 3 3 3 3 3 3 3 3 3 3 3 3 3 3 3 3 3 3 3 3 3 3 3 3 3 3 3 3 3 3 3 3 3 3 3 3 3 3 3 3 3 3 3 3 3 3 3 3 3 3 3 3 3 3 3 3 3 3 3 3 3 3 3 3 3 3 3 3 3 3 3 3 3 3 3 3 3 3 3 3 3 3 3 3 3 3 3 3 3 3 3 3 3 3 3 3 3 3 3 3 3 3 3 3 3 3 3 3 3 3 3 3 3 3 3 3 3 3 3 3 3 3 3 3 3 3 3 3 3 3 3 3 3 3 3 3 3 3 3 3 3 3 3 3 3 3 3 3 3 3 3 3 3 3 3 3 3 3 3 3 3 3 3 3 3 3 3 3 3 3 3 3 3 3 3 3 3 3 3 3 3 3 3 3 3 3 3 3 3 3 3 3 3 3 3 3 3 3 3 3 3 3 3 3 3 3 3 3 3 3 3 3 3 3 3 3 3 3 3 3 3 3 3 3 3 3 3 3 3 3 3 3 3 3 3 3 3 3 3 3 3 3 3 3 3 3 3 3 3 3 3 3 3 3 3 3 3 3 3 3 3 3 3 3 3 3 3 3 3 3 3 3 3 3 3 3 3 3 3 3 3 3 3 3 3 3 3 3 3 3 3 3 3 3 3 3 3 3 3 3 3 3 3 3 3 3 3 3 3 3 3 3 3 3 3 3 3 3 3 3 3 3 3 3 3 3 3 3 3 3 3 3 3 3 3 3 3 3 3 3 3 3 3 3 3 3 3 3 3 3 3 3 3 3 3 3 3 3 3 3 3 3 3 3 3 3 3 3 3 3 3 3 3 3 3 3 3 3 3 3 3 3 3 3 3 3 3 3 3 3 3 3 3 3 3 3 3 3 3 3 3 3 3 3 3 3 3 3 3 3 3 3 3 3 3 3 3 3 3 3 3 3 3 3 3 3 3 3 3 3 3 3 3 3 3 3 3 3 3 3 3 3 3 3 3 3 3 3 3 3 3 3 3 3 3 3 3 3 3 3 3 3 3 3 3 3 3 3 3 3 3 3 3 3 3 3 3 3 3 3 3 3 3 3 3 3 3 3 3 3 3 3 3 3 3 3 3 3 3 3 3 3 3 3 3 3 3 3 3 3 3 3 3 3 3 3 3 3 3 3 3 3 3 3 3 3 3 3 3 3 3 3 3 3 3 3 3 3 3 3 3 3 3 3 3 3 3 3 3 3 3 3 3 3 3 3 3 3 3 3 3 3 3 3 3 3 3 3 3 3 3 3 3 3 3 3 3 3 3 3 3 3 3 3 3 3 3 3 3 3 3 3 3 3 3 3 3 3 3 3 3 3 3 3 3 3 3 3 3 3 3 3 3 3 3 3 3 3 3 3 3 3 3 3 3 3 3 3 3 3 3 3 3 3 3 3 3 3 3 3 3 3 3 3 3 3 3 3 3 3 3 
CellOffSpring 1 2975 float
0 0 0 0 0 0 0 0 0 0 0 0 0 0 0 0 0 0 0 0 0 0 0 0 0 0 0 0 0 0 0 0 0 0 0 0 0 0 0 0 0 0 0 0 0 0 0 0 0 0 0 0 0 0 0 0 0 0 0 0 0 0 0 0 0 0 0 0 0 0 0 0 0 0 0 0 0 0 0 0 0 0 0 0 0 0 0 0 0 0 0 0 0 0 0 0 0 0 0 0 0 0 0 0 0 0 0 0 0 0 0 0 0 0 0 0 0 0 0 0 0 0 0 0 0 0 0 0 0 0 0 0 0 0 0 0 0 0 0 0 0 0 0 0 0 0 0 0 0 0 0 0 0 0 0 0 0 0 0 0 0 0 0 0 0 0 0 0 0 0 0 0 0 0 0 0 0 0 0 0 0 0 0 0 0 0 0 0 0 0 0 0 0 0 0 0 0 0 0 0 0 0 0 0 0 0 0 0 0 0 0 0 0 0 0 0 0 0 0 0 0 0 0 0 0 0 0 0 0 0 0 0 0 0 0 0 0 0 0 0 0 0 0 0 0 0 0 0 0 0 0 0 0 0 0 0 0 0 0 0 0 0 0 0 0 0 0 0 0 0 0 0 0 0 0 0 0 0 0 0 0 0 0 0 0 0 0 0 0 0 0 0 0 0 0 0 0 0 0 0 0 0 0 0 0 0 0 0 0 0 0 0 0 0 0 0 0 0 0 0 0 0 0 0 0 0 0 0 0 0 0 0 0 0 0 0 0 0 0 0 0 0 0 0 0 0 0 0 0 0 0 0 0 0 0 0 0 0 0 0 0 0 0 0 0 0 0 0 0 0 0 0 0 0 0 0 0 0 0 0 0 0 0 0 0 0 0 0 0 0 0 0 0 0 0 0 0 0 0 0 0 0 0 0 0 0 0 0 0 0 0 0 0 0 0 0 0 0 0 0 0 0 0 0 0 0 0 0 0 0 0 0 0 0 0 0 0 0 0 0 0 0 0 0 0 0 0 0 0 0 0 0 0 0 0 0 0 0 0 0 0 0 0 0 0 0 0 0 0 0 0 0 0 0 0 0 0 0 0 0 0 0 0 0 0 0 0 0 0 0 0 0 0 0 0 0 0 0 0 0 0 0 0 0 0 0 0 0 0 0 0 0 0 0 0 0 0 0 0 0 0 0 0 0 0 0 0 0 0 0 0 0 0 0 0 0 0 0 0 0 0 0 0 0 0 0 0 0 0 0 0 0 0 0 0 0 0 0 0 0 0 0 0 0 0 0 0 0 0 0 0 0 0 0 0 0 0 0 0 0 0 0 0 0 0 0 0 0 0 0 0 0 0 0 0 0 0 0 0 0 0 0 0 0 0 0 0 0 0 0 0 0 0 0 0 0 0 0 0 0 0 0 0 0 0 0 0 0 0 0 0 0 0 0 0 0 0 0 0 0 0 0 0 0 0 0 0 0 0 0 0 0 0 0 0 0 0 0 0 0 0 0 0 0 0 0 0 0 0 0 0 0 0 0 0 0 0 0 0 0 0 0 0 0 0 0 0 0 0 0 0 0 0 0 0 0 0 0 0 0 0 0 0 0 0 0 0 0 0 0 0 0 0 0 0 0 0 0 0 0 0 0 0 0 0 0 0 0 0 0 0 0 0 0 0 0 0 0 0 0 0 0 0 0 0 0 0 0 0 0 0 0 0 0 0 0 0 0 0 0 0 0 0 0 0 0 0 0 0 0 0 0 0 0 0 0 0 0 0 0 0 0 0 0 0 0 0 0 0 0 0 0 0 0 0 0 0 0 0 0 0 0 0 0 0 0 0 0 0 0 0 0 0 0 0 0 0 0 0 0 0 0 0 0 0 0 0 0 0 0 0 0 0 0 0 0 0 0 0 0 0 0 0 0 0 0 0 0 0 0 0 0 0 0 0 0 0 0 0 0 0 0 0 0 0 0 0 0 0 0 0 0 0 0 0 0 0 0 0 0 0 0 0 0 0 0 0 0 0 0 0 0 0 0 0 0 0 0 0 0 0 0 0 0 0 0 0 0 0 0 0 0 0 0 0 0 0 0 0 0 0 0 0 0 0 0 0 0 0 0 0 0 0 0 0 0 0 0 0 0 0 0 0 0 0 0 0 0 0 0 0 0 0 0 0 0 0 0 0 0 0 0 0 0 0 0 0 0 0 0 0 0 0 0 0 0 0 0 0 0 0 0 0 0 0 0 0 0 0 0 0 0 0 0 0 0 0 0 0 0 0 0 0 0 0 0 0 0 0 0 0 0 0 0 0 0 0 0 0 0 0 0 0 0 0 0 0 0 0 0 0 0 0 0 0 0 0 0 0 0 0 0 0 0 0 0 0 0 0 0 0 0 0 0 0 0 0 0 0 0 0 0 0 0 0 0 0 0 0 0 0 0 0 0 0 0 0 0 0 0 0 0 0 0 0 0 0 0 0 0 0 0 0 0 0 0 0 0 0 0 0 0 0 0 0 0 0 0 0 0 0 0 0 0 0 0 0 0 0 0 0 0 0 0 0 0 0 0 0 0 0 0 0 0 0 0 0 0 0 0 0 0 0 0 0 0 0 0 0 0 0 0 0 0 0 0 0 0 0 0 0 0 0 0 0 0 0 0 0 0 0 0 0 0 0 0 0 0 0 0 0 0 0 0 0 0 0 0 0 0 0 0 0 0 0 0 0 0 0 0 0 0 0 0 0 0 0 0 0 0 0 0 0 0 0 0 0 0 0 0 0 0 0 0 0 0 0 0 0 0 0 0 0 0 0 0 0 0 0 0 0 0 0 0 0 0 0 0 0 0 0 0 0 0 0 0 0 0 0 0 0 0 0 0 0 0 0 0 0 0 0 0 0 0 0 0 0 0 0 0 0 0 0 0 0 0 0 0 0 0 0 0 0 0 0 0 0 0 0 0 0 0 0 0 0 0 0 0 0 0 0 0 0 0 0 0 0 0 0 0 0 0 0 0 0 0 0 0 0 0 0 0 0 0 0 0 0 0 0 0 0 0 0 0 0 0 0 0 0 0 0 0 0 0 0 0 0 0 0 0 0 0 0 0 0 0 0 0 0 0 0 0 0 0 0 0 0 0 0 0 0 0 0 0 0 0 0 0 0 0 0 0 0 0 0 0 0 0 0 0 0 0 0 0 0 0 0 0 0 0 0 0 0 0 0 0 0 0 0 0 0 0 0 0 0 0 0 0 0 0 0 0 0 0 0 0 0 0 0 0 0 0 0 0 0 0 0 0 0 0 0 0 0 0 0 0 0 0 0 0 0 0 0 0 0 0 0 0 0 0 0 0 0 0 0 0 0 0 0 0 0 0 0 0 0 0 0 0 0 0 0 0 0 0 0 0 0 0 0 0 0 0 0 0 0 0 0 0 0 0 0 0 0 0 0 0 0 0 0 0 0 0 0 0 0 0 0 0 0 0 0 0 0 0 0 0 0 0 0 0 0 0 0 0 0 0 0 0 0 0 0 0 0 0 0 0 0 0 0 0 0 0 0 0 0 0 0 0 0 0 0 0 0 0 0 0 0 0 0 0 0 0 0 0 0 0 0 0 0 0 0 0 0 0 0 0 0 0 0 0 0 0 0 0 0 0 0 0 0 0 0 0 0 0 0 0 0 0 0 0 0 0 0 0 0 0 0 0 0 0 0 0 0 0 0 0 0 0 0 0 0 0 0 0 0 0 0 0 0 0 0 0 0 0 0 0 0 0 0 0 0 0 0 0 0 0 0 0 0 0 0 0 0 0 0 0 0 0 0 0 0 0 0 0 0 0 0 0 0 0 0 0 0 0 0 0 0 0 0 0 0 0 0 0 0 0 0 0 0 0 0 0 0 0 0 0 0 0 0 0 0 0 0 0 0 0 0 0 0 0 0 0 0 0 0 0 0 0 0 0 0 0 0 0 0 0 0 0 0 0 0 0 0 0 0 0 0 0 0 0 0 0 0 0 0 0 0 0 0 0 0 0 0 0 0 0 0 0 0 0 0 0 0 0 0 0 0 0 0 0 0 0 0 0 0 0 0 0 0 0 0 0 0 0 0 0 0 0 0 0 0 0 0 0 0 0 0 0 0 0 0 0 0 0 0 0 0 0 0 0 0 0 0 0 0 0 0 0 0 0 0 0 0 0 0 0 0 0 0 0 0 0 0 0 0 0 0 0 0 0 0 0 0 0 0 0 0 0 0 0 0 0 0 0 0 0 0 0 0 0 0 0 0 0 0 0 0 0 0 0 0 0 0 0 0 0 0 0 0 0 0 0 0 0 0 0 0 0 0 0 0 0 0 0 0 0 0 0 0 0 0 0 0 0 0 0 0 0 0 0 0 0 0 0 0 0 0 0 0 0 0 0 0 0 0 0 0 0 0 0 0 0 0 0 0 0 0 0 0 0 0 0 0 0 0 0 0 0 0 0 0 0 0 0 0 0 0 0 0 0 0 0 0 0 0 0 0 0 0 0 0 0 0 0 0 0 0 0 0 0 0 0 0 0 0 0 0 0 0 0 0 0 0 0 0 0 0 0 0 0 0 0 0 0 0 0 0 0 0 0 0 0 0 0 0 0 0 0 0 0 0 0 0 0 0 0 0 0 0 0 0 0 0 0 0 0 0 0 0 0 0 0 0 0 0 0 0 0 0 0 0 0 0 0 0 0 0 0 0 0 0 0 0 0 0 0 0 0 0 0 0 0 0 0 0 0 0 0 0 0 0 0 0 0 0 0 0 0 0 0 0 0 0 0 0 0 0 0 0 0 0 0 0 0 0 0 0 0 0 0 0 0 0 0 0 0 0 0 0 0 0 0 0 0 0 0 0 0 0 0 0 0 0 0 0 0 0 0 0 0 0 0 0 0 0 0 0 0 0 0 0 0 0 0 0 0 0 0 0 0 0 0 0 0 0 0 0 0 0 0 0 0 0 0 0 0 0 0 0 0 0 0 0 0 0 0 0 0 0 0 0 0 0 0 0 0 0 0 0 0 0 0 0 0 0 0 0 0 0 0 0 0 0 0 0 0 0 0 0 0 0 0 0 0 0 0 0 0 0 0 0 0 0 0 0 0 0 0 0 0 0 0 0 0 0 0 0 0 0 0 0 0 0 0 0 0 0 0 0 0 0 0 0 0 0 0 0 0 0 0 0 0 0 0 0 0 0 0 0 0 0 0 0 0 0 0 0 0 0 0 0 0 0 0 0 0 0 0 0 0 0 0 0 0 0 0 0 0 0 0 0 0 0 0 0 0 0 0 0 0 0 0 0 0 0 0 0 0 0 0 0 0 0 0 0 0 0 0 0 0 0 0 0 0 0 0 0 0 0 0 0 0 0 0 0 0 0 0 0 0 0 0 0 0 0 0 0 0 0 0 0 0 0 0 0 0 0 0 0 0 0 0 0 0 0 0 0 0 0 0 0 0 0 0 0 0 0 0 0 0 0 0 0 0 0 0 0 0 0 0 0 0 0 0 0 0 0 0 0 0 0 0 0 0 0 0 0 0 0 0 0 0 0 0 0 0 0 0 0 0 0 0 0 0 0 0 0 0 0 0 0 0 0 0 0 0 0 0 0 0 0 0 0 0 0 0 0 0 0 0 0 0 0 0 0 0 0 0 0 0 0 0 0 0 0 0 0 0 0 0 0 0 0 0 0 0 0 0 0 0 0 0 0 0 0 0 0 0 0 0 0 0 0 0 0 0 0 0 0 0 0 0 0 0 0 0 0 0 0 0 0 0 0 0 0 0 0 0 0 0 0 0 0 0 0 0 0 0 0 0 0 0 0 0 0 0 0 0 0 0 0 0 0 0 0 0 0 0 0 0 0 0 0 0 0 0 0 0 0 0 0 0 0 0 0 0 0 0 0 0 0 0 0 0 0 0 0 0 0 0 0 0 0 0 0 0 0 0 0 0 0 0 0 0 0 0 0 0 0 0 0 0 0 0 0 0 0 0 0 0 0 0 0 0 0 0 0 0 0 0 0 0 0 0 0 0 0 0 0 0 0 0 0 0 0 0 0 0 0 0 0 0 0 0 0 0 0 0 0 0 0 0 0 0 0 0 0 0 0 0 0 0 0 0 0 0 0 0 0 0 0 0 0 0 0 0 0 0 0 0 0 0 0 0 0 0 0 0 0 0 0 0 0 0 0 0 0 0 0 0 0 0 0 0 0 0 0 0 0 0 0 0 0 0 0 0 0 0 0 0 0 0 0 0 0 0 0 0 0 0 0 0 0 0 0 0 0 0 0 0 0 0 0 0 0 0 0 0 0 0 0 0 0 0 0 0 0 0 0 0 0 0 0 0 0 0 0 0 0 0 0 0 0 0 0 0 0 0 0 0 0 0 0 0 0 0 0 0 0 0 0 0 0 0 0 0 0 0 0 0 0 0 0 0 0 0 0 0 0 0 0 0 0 0 0 0 0 0 0 0 0 0 0 0 0 0 0 0 0 0 0 0 0 0 0 0 0 0 0 0 0 0 0 0 0 0 0 0 0 0 0 0 0 0 0 0 0 0 0 0 0 0 0 0 0 0 0 0 0 0 0 0 0 0 0 0 0 0 0 0 0 0 0 0 0 0 0 0 0 0 0 0 0 0 0 0 0 0 0 0 0 0 0 0 0 0 0 0 0 0 0 0 0 0 0 0 0 0 0 0 0 0 0 0 0 0 0 0 0 0 0 0 0 0 0 
GradVel 1 2975 float
  0.0000000E+00   0.0000000E+00   0.0000000E+00   0.0000000E+00   0.0000000E+00   0.0000000E+00   0.0000000E+00   0.0000000E+00   0.0000000E+00   0.0000000E+00   0.0000000E+00   0.0000000E+00   0.0000000E+00  -1.0609186E-08  -2.3439631E-26  -5.6833834E-08  -3.8485999E-07  -1.0685338E-07  -7.7429252E-07  -2.4403532E-06  -9.1408691E-07  -3.4758975E-06  -8.3699224E-06  -3.3339629E-06  -9.7945849E-06  -2.0655909E-05  -8.1436920E-06  -2.1023430E-05  -4.1147716E-05  -1.5644468E-05  -3.7670849E-05  -7.0527880E-05  -2.5659745E-05  -5.9521721E-05  -1.0844921E-04  -3.7901940E-05  -8.6289438E-05  -1.5461084E-04  -5.2515421E-05  -1.1859932E-04  -2.1043571E-04  -7.0552844E-05  -1.5886308E-04  -2.8040266E-04  -9.4403164E-05  -2.1237270E-04  -3.7411065E-04  -1.2866569E-04  -2.8930054E-04  -5.0970144E-04  -1.8213045E-04  -4.0849281E-04  -7.1944785E-04  -2.7269131E-04  -6.0431450E-04  -1.0577582E-03  -4.3567910E-04  -9.3134807E-04  -1.6003731E-03  -7.3226303E-04  -1.4539398E-03  -2.4136752E-03  -2.2365125E-03  -3.5330902E-03   0.0000000E+00   0.0000000E+00   0.0000000E+00   0.0000000E+00   0.0000000E+00   0.0000000E+00   0.0000000E+00   0.0000000E+00   0.0000000E+00   0.0000000E+00   0.0000000E+00   0.0000000E+00   0.0000000E+00   0.0000000E+00   0.0000000E+00   0.0000000E+00   0.0000000E+00   0.0000000E+00   0.0000000E+00   0.0000000E+00   0.0000000E+00   0.0000000E+00   0.0000000E+00   0.0000000E+00   0.0000000E+00  -1.9043060E-09  -1.2097374E-08  -2.8488804E-08  -4.2313832E-08  -4.9795055E-08  -5.4961863E-08  -5.9070668E-08  -9.1483898E-08  -2.9709133E-07  -6.3108035E-07  -1.0395445E-06  -1.4383334E-06  -1.7611975E-06  -1.9893046E-06  -2.1483847E-06  -1.1510531E-06  -2.4303060E-06  -4.1688518E-06  -6.1546366E-06  -8.0887830E-06  -9.7363654E-06  -1.1017124E-05  -1.1970898E-05  -5.3327358E-06  -9.5541291E-06  -1.4933493E-05  -2.0897109E-05  -2.6658441E-05  -3.1629257E-05  -3.5615547E-05  -3.8698756E-05  -1.5872962E-05  -2.6185955E-05  -3.8921775E-05  -5.2781372E-05  -6.6053188E-05  -7.7515862E-05  -8.6815162E-05  -9.4141236E-05  -3.6237958E-05  -5.6952085E-05  -8.2047947E-05  -1.0898128E-04  -1.3448232E-04  -1.5638060E-04  -1.7419524E-04  -1.8836418E-04  -6.8836853E-05  -1.0485019E-04  -1.4786399E-04  -1.9335847E-04  -2.3576150E-04  -2.7180160E-04  -3.0108017E-04  -3.2448719E-04  -1.1440915E-04  -1.7045633E-04  -2.3633681E-04  -3.0469662E-04  -3.6711042E-04  -4.1957191E-04  -4.6207494E-04  -4.9613212E-04  -1.7222640E-04  -2.5220407E-04  -3.4397256E-04  -2.4178369E-04  -3.4899320E-04  -3.2566313E-04  -4.6511731E-04  -4.3125640E-04  -6.1211502E-04  -5.7338341E-04  -8.0985937E-04  -7.7938649E-04  -1.0938649E-03  -1.0960896E-03  -1.5225746E-03  -1.5988632E-03  -2.1854981E-03  -2.3885483E-03  -3.1991843E-03  -3.5487930E-03  -4.6661566E-03  -5.1019406E-03  -6.6219382E-03   0.0000000E+00   0.0000000E+00   0.0000000E+00   0.0000000E+00   0.0000000E+00   0.0000000E+00   0.0000000E+00   0.0000000E+00   0.0000000E+00   0.0000000E+00   0.0000000E+00   0.0000000E+00   0.0000000E+00   0.0000000E+00   0.0000000E+00   0.0000000E+00   0.0000000E+00   0.0000000E+00   0.0000000E+00   0.0000000E+00   0.0000000E+00   0.0000000E+00   0.0000000E+00   0.0000000E+00   0.0000000E+00   0.0000000E+00   0.0000000E+00  -6.2267723E-08  -6.4704899E-08  -6.6529545E-08  -6.7875675E-08  -6.8855392E-08  -6.9554389E-08  -7.0038141E-08  -7.0353714E-08  -7.0531463E-08  -2.2708280E-06  -2.3655309E-06  -2.4374417E-06  -2.4911051E-06  -2.5304785E-06  -2.5587949E-06  -2.5785362E-06  -2.5914778E-06  -2.5988024E-06  -1.2681793E-05  -1.3228119E-05  -1.3646193E-05  -1.3960425E-05  -1.4192382E-05  -1.4359983E-05  -1.4477252E-05  -1.4554368E-05  -1.4598092E-05  -4.1055926E-05  -4.2861247E-05  -4.4245673E-05  -4.5291472E-05  -4.6066823E-05  -4.6629066E-05  -4.7023543E-05  -4.7283469E-05  -4.7431069E-05  -9.9847915E-05  -1.0426562E-04  -1.0765933E-04  -1.1023038E-04  -1.1214199E-04  -1.1353150E-04  -1.1450813E-04  -1.1515256E-04  -1.1551882E-04  -1.9953595E-04  -2.0827189E-04  -2.1501322E-04  -2.2012953E-04  -2.2393891E-04  -2.2671162E-04  -2.2866261E-04  -2.2995107E-04  -2.3068397E-04  -3.4309371E-04  -3.5775441E-04  -3.6911402E-04  -3.7774595E-04  -3.8417408E-04  -3.8885450E-04  -3.9214946E-04  -3.9432652E-04  -3.9556556E-04  -5.2333670E-04  -5.4487813E-04  -5.6160556E-04  -5.7431130E-04  -5.8376329E-04  -5.9064070E-04  -5.9548084E-04  -5.9867912E-04  -6.0049980E-04   0.0000000E+00   0.0000000E+00   0.0000000E+00   0.0000000E+00   0.0000000E+00   0.0000000E+00   0.0000000E+00   0.0000000E+00   0.0000000E+00   0.0000000E+00   0.0000000E+00   0.0000000E+00   0.0000000E+00   0.0000000E+00   0.0000000E+00   0.0000000E+00   0.0000000E+00   0.0000000E+00   0.0000000E+00   0.0000000E+00   0.0000000E+00   0.0000000E+00   0.0000000E+00   0.0000000E+00  -7.0588790E-08  -7.0531478E-08  -7.0353728E-08  -7.0038148E-08  -6.9554389E-08  -6.8855400E-08  -6.7875675E-08  -6.6529523E-08  -2.6011735E-06  -2.5988027E-06  -2.5914776E-06  -2.5785362E-06  -2.5587949E-06  -2.5304785E-06  -2.4911049E-06  -2.4374417E-06  -1.4612256E-05  -1.4598088E-05  -1.4554366E-05  -1.4477248E-05  -1.4359985E-05  -1.4192384E-05  -1.3960432E-05  -1.3646192E-05  -4.7478909E-05  -4.7431076E-05  -4.7283469E-05  -4.7023550E-05  -4.6629073E-05  -4.6066816E-05  -4.5291476E-05  -4.4245677E-05  -1.1563765E-04  -1.1551882E-04  -1.1515261E-04  -1.1450814E-04  -1.1353149E-04  -1.1214198E-04  -1.1023039E-04  -1.0765930E-04  -2.3092184E-04  -2.3068406E-04  -2.2995114E-04  -2.2866255E-04  -2.2671164E-04  -2.2393890E-04  -2.2012953E-04  -2.1501319E-04  -3.9596768E-04  -3.9556567E-04  -3.9432661E-04  -3.9214946E-04  -3.8885456E-04  -3.8417405E-04  -3.7774592E-04  -3.6911407E-04  -6.0109096E-04  -6.0049986E-04  -5.9867918E-04  -5.9548079E-04  -5.9064070E-04  -5.8376335E-04  -5.7431124E-04  -5.6160585E-04   0.0000000E+00   0.0000000E+00   0.0000000E+00   0.0000000E+00   0.0000000E+00   0.0000000E+00   0.0000000E+00   0.0000000E+00   0.0000000E+00   0.0000000E+00   0.0000000E+00   0.0000000E+00   0.0000000E+00   0.0000000E+00   0.0000000E+00   0.0000000E+00   0.0000000E+00   0.0000000E+00   0.0000000E+00   0.0000000E+00   0.0000000E+00   0.0000000E+00   0.0000000E+00   0.0000000E+00   0.0000000E+00   0.0000000E+00   0.0000000E+00  -6.4704878E-08  -6.2267723E-08  -5.9070700E-08  -5.4961866E-08  -4.9795052E-08  -4.2313843E-08  -2.8488806E-08  -1.2097376E-08  -1.9043065E-09  -2.3655309E-06  -2.2708284E-06  -2.1483847E-06  -1.9893048E-06  -1.7611975E-06  -1.4383332E-06  -1.0395446E-06  -6.3108058E-07  -2.9709133E-07  -1.3228118E-05  -1.2681794E-05  -1.1970900E-05  -1.1017122E-05  -9.7363636E-06  -8.0887821E-06  -6.1546380E-06  -4.1688518E-06  -2.4303067E-06  -4.2861251E-05  -4.1055919E-05  -3.8698756E-05  -3.5615540E-05  -3.1629257E-05  -2.6658437E-05  -2.0897111E-05  -1.4933496E-05  -9.5541309E-06  -1.0426562E-04  -9.9847923E-05  -9.4141251E-05  -8.6815162E-05  -7.7515855E-05  -6.6053188E-05  -5.2781379E-05  -3.8921782E-05  -2.6185960E-05  -2.0827180E-04  -1.9953599E-04  -1.8836423E-04  -1.7419527E-04  -1.5638059E-04  -1.3448237E-04  -1.0898127E-04  -8.2047947E-05  -5.6952100E-05  -3.5775444E-04  -3.4309353E-04  -3.2448719E-04  -3.0108026E-04  -2.7180157E-04  -2.3576150E-04  -1.9335843E-04  -1.4786400E-04  -1.0485020E-04  -5.4487836E-04  -5.2333658E-04  -4.9613207E-04  -4.6207500E-04  -4.1957197E-04  -3.6711051E-04  -3.0469673E-04  -2.3633687E-04  -1.7045633E-04  -3.4397264E-04  -2.5220407E-04  -3.4899329E-04  -4.6511739E-04  -6.1211508E-04  -8.0985948E-04  -1.0938650E-03  -1.5225746E-03  -2.1854979E-03  -3.1991850E-03  -4.6661575E-03  -6.6219424E-03   0.0000000E+00   0.0000000E+00   0.0000000E+00   0.0000000E+00   0.0000000E+00   0.0000000E+00   0.0000000E+00   0.0000000E+00   0.0000000E+00   0.0000000E+00   0.0000000E+00   0.0000000E+00   0.0000000E+00   0.0000000E+00   0.0000000E+00  -9.1483912E-08  -1.0609188E-08   0.0000000E+00   0.0000000E+00  -1.1510531E-06  -3.8486007E-07  -5.6833848E-08  -2.3439629E-26  -5.3327376E-06  -2.4403537E-06  -7.7429263E-07  -1.0685339E-07  -1.5872964E-05  -8.3699233E-06  -3.4758978E-06  -9.1408720E-07  -3.6237965E-05  -2.0655913E-05  -9.7945849E-06  -3.3339638E-06  -6.8836860E-05  -4.1147727E-05  -2.1023436E-05  -8.1436956E-06  -1.1440918E-04  -7.0527894E-05  -3.7670849E-05  -1.5644473E-05  -1.7222646E-04  -1.0844925E-04  -5.9521713E-05  -2.5659752E-05  -2.4178380E-04  -1.5461085E-04  -8.6289423E-05  -3.7901940E-05  -3.2566313E-04  -2.1043574E-04  -1.1859930E-04  -5.2515432E-05  -4.3125640E-04  -2.8040272E-04  -1.5886308E-04  -7.0552851E-05  -5.7338353E-04  -3.7411068E-04  -2.1237266E-04  -9.4403178E-05  -7.7938655E-04  -5.0970161E-04  -2.8930051E-04  -1.2866571E-04  -1.0960898E-03  -7.1944797E-04  -4.0849275E-04  -1.8213048E-04  -1.5988634E-03  -1.0577583E-03  -6.0431455E-04  -2.7269134E-04  -2.3885488E-03  -1.6003735E-03  -9.3134830E-04  -4.3567916E-04  -3.5487935E-03  -2.4136761E-03  -1.4539401E-03  -7.3226326E-04  -5.1019411E-03  -3.5330909E-03  -2.2365132E-03   0.0000000E+00   0.0000000E+00   0.0000000E+00   0.0000000E+00   0.0000000E+00   0.0000000E+00   0.0000000E+00   0.0000000E+00   0.0000000E+00   0.0000000E+00   0.0000000E+00   0.0000000E+00   0.0000000E+00   0.0000000E+00   0.0000000E+00   0.0000000E+00   0.0000000E+00   0.0000000E+00   0.0000000E+00   0.0000000E+00   0.0000000E+00   0.0000000E+00   0.0000000E+00   0.0000000E+00   0.0000000E+00   0.0000000E+00   0.0000000E+00   0.0000000E+00   0.0000000E+00   0.0000000E+00   0.0000000E+00   0.0000000E+00   0.0000000E+00   0.0000000E+00   0.0000000E+00   0.0000000E+00   0.0000000E+00   0.0000000E+00   0.0000000E+00   0.0000000E+00   0.0000000E+00   0.0000000E+00   0.0000000E+00   0.0000000E+00   0.0000000E+00   0.0000000E+00   0.0000000E+00   0.0000000E+00   0.0000000E+00   0.0000000E+00   0.0000000E+00   0.0000000E+00   0.0000000E+00   0.0000000E+00   0.0000000E+00   0.0000000E+00   0.0000000E+00   0.0000000E+00   0.0000000E+00   0.0000000E+00   0.0000000E+00   0.0000000E+00   0.0000000E+00   0.0000000E+00   0.0000000E+00   0.0000000E+00   0.0000000E+00   0.0000000E+00   0.0000000E+00   0.0000000E+00   0.0000000E+00   0.0000000E+00   0.0000000E+00   0.0000000E+00   0.0000000E+00   0.0000000E+00   0.0000000E+00   0.0000000E+00   0.0000000E+00   0.0000000E+00   0.0000000E+00   0.0000000E+00   0.0000000E+00   0.0000000E+00   0.0000000E+00   0.0000000E+00   0.0000000E+00   0.0000000E+00   0.0000000E+00   0.0000000E+00   0.0000000E+00   0.0000000E+00   0.0000000E+00   0.0000000E+00   0.0000000E+00   0.0000000E+00   0.0000000E+00   0.0000000E+00   0.0000000E+00   0.0000000E+00   0.0000000E+00   0.0000000E+00   0.0000000E+00   0.0000000E+00   0.0000000E+00   0.0000000E+00   0.0000000E+00   0.0000000E+00   0.0000000E+00   0.0000000E+00   0.0000000E+00   0.0000000E+00   0.0000000E+00   0.0000000E+00   0.0000000E+00   0.0000000E+00   0.0000000E+00   0.0000000E+00   0.0000000E+00   0.0000000E+00   0.0000000E+00   0.0000000E+00   0.0000000E+00   0.0000000E+00   0.0000000E+00   0.0000000E+00   0.0000000E+00   0.0000000E+00   0.0000000E+00   0.0000000E+00   0.0000000E+00   0.0000000E+00   0.0000000E+00   0.0000000E+00   0.0000000E+00   0.0000000E+00   0.0000000E+00   0.0000000E+00   0.0000000E+00   0.0000000E+00   0.0000000E+00   0.0000000E+00   0.0000000E+00   0.0000000E+00   0.0000000E+00   0.0000000E+00   0.0000000E+00   0.0000000E+00   0.0000000E+00   0.0000000E+00   0.0000000E+00   0.0000000E+00   0.0000000E+00   0.0000000E+00   0.0000000E+00   0.0000000E+00   0.0000000E+00   0.0000000E+00   0.0000000E+00   0.0000000E+00   0.0000000E+00   0.0000000E+00   0.0000000E+00   0.0000000E+00   0.0000000E+00   0.0000000E+00   0.0000000E+00   0.0000000E+00   0.0000000E+00   0.0000000E+00   0.0000000E+00   0.0000000E+00   0.0000000E+00   0.0000000E+00   0.0000000E+00   0.0000000E+00   0.0000000E+00   0.0000000E+00   0.0000000E+00   0.0000000E+00   0.0000000E+00   0.0000000E+00   0.0000000E+00   0.0000000E+00   0.0000000E+00   0.0000000E+00   0.0000000E+00   0.0000000E+00   0.0000000E+00   0.0000000E+00   0.0000000E+00   0.0000000E+00   0.0000000E+00   0.0000000E+00   0.0000000E+00   0.0000000E+00   0.0000000E+00   0.0000000E+00   0.0000000E+00   0.0000000E+00   0.0000000E+00   0.0000000E+00   0.0000000E+00   0.0000000E+00   0.0000000E+00   0.0000000E+00   0.0000000E+00   0.0000000E+00   0.0000000E+00   0.0000000E+00   0.0000000E+00   0.0000000E+00   0.0000000E+00   0.0000000E+00   0.0000000E+00   0.0000000E+00   0.0000000E+00   0.0000000E+00   0.0000000E+00   0.0000000E+00   0.0000000E+00   0.0000000E+00   0.0000000E+00   0.0000000E+00   0.0000000E+00   0.0000000E+00   0.0000000E+00   0.0000000E+00   0.0000000E+00   0.0000000E+00   0.0000000E+00   0.0000000E+00   0.0000000E+00   0.0000000E+00   0.0000000E+00   0.0000000E+00   0.0000000E+00   0.0000000E+00   0.0000000E+00   0.0000000E+00   0.0000000E+00   0.0000000E+00   0.0000000E+00   0.0000000E+00   0.0000000E+00   0.0000000E+00   0.0000000E+00   0.0000000E+00   0.0000000E+00   0.0000000E+00   0.0000000E+00   0.0000000E+00   0.0000000E+00   0.0000000E+00   0.0000000E+00   0.0000000E+00   0.0000000E+00   0.0000000E+00   0.0000000E+00   0.0000000E+00   0.0000000E+00   0.0000000E+00   0.0000000E+00   0.0000000E+00   0.0000000E+00   0.0000000E+00   0.0000000E+00   0.0000000E+00   0.0000000E+00   0.0000000E+00   0.0000000E+00   0.0000000E+00   0.0000000E+00   0.0000000E+00   0.0000000E+00   0.0000000E+00   0.0000000E+00   0.0000000E+00   0.0000000E+00   0.0000000E+00   0.0000000E+00   0.0000000E+00   0.0000000E+00   0.0000000E+00   0.0000000E+00   0.0000000E+00   0.0000000E+00   0.0000000E+00   0.0000000E+00   0.0000000E+00   0.0000000E+00   0.0000000E+00   0.0000000E+00   0.0000000E+00   0.0000000E+00   0.0000000E+00   0.0000000E+00   0.0000000E+00   0.0000000E+00   0.0000000E+00   0.0000000E+00   0.0000000E+00   0.0000000E+00   0.0000000E+00   0.0000000E+00   0.0000000E+00   0.0000000E+00   0.0000000E+00   0.0000000E+00   0.0000000E+00   0.0000000E+00   0.0000000E+00   0.0000000E+00   0.0000000E+00   0.0000000E+00   0.0000000E+00   0.0000000E+00   0.0000000E+00   0.0000000E+00   0.0000000E+00   0.0000000E+00   0.0000000E+00   0.0000000E+00   0.0000000E+00   0.0000000E+00   0.0000000E+00   0.0000000E+00   0.0000000E+00   0.0000000E+00   0.0000000E+00   0.0000000E+00   0.0000000E+00   0.0000000E+00   0.0000000E+00   0.0000000E+00   0.0000000E+00   0.0000000E+00   0.0000000E+00   0.0000000E+00   0.0000000E+00   0.0000000E+00   0.0000000E+00   0.0000000E+00   0.0000000E+00   0.0000000E+00   0.0000000E+00   0.0000000E+00   0.0000000E+00   0.0000000E+00   0.0000000E+00   0.0000000E+00   0.0000000E+00   0.0000000E+00   0.0000000E+00   0.0000000E+00   0.0000000E+00   0.0000000E+00   0.0000000E+00   0.0000000E+00   0.0000000E+00   0.0000000E+00   0.0000000E+00   0.0000000E+00   0.0000000E+00   0.0000000E+00   0.0000000E+00   0.0000000E+00   0.0000000E+00   0.0000000E+00   0.0000000E+00   0.0000000E+00   0.0000000E+00   0.0000000E+00   0.0000000E+00   0.0000000E+00   0.0000000E+00   0.0000000E+00   0.0000000E+00   0.0000000E+00   0.0000000E+00   0.0000000E+00   0.0000000E+00   0.0000000E+00   0.0000000E+00   0.0000000E+00   0.0000000E+00   0.0000000E+00   0.0000000E+00   0.0000000E+00   0.0000000E+00   0.0000000E+00   0.0000000E+00   0.0000000E+00   0.0000000E+00   0.0000000E+00   0.0000000E+00   0.0000000E+00   0.0000000E+00   0.0000000E+00   0.0000000E+00   0.0000000E+00   0.0000000E+00   0.0000000E+00   0.0000000E+00   0.0000000E+00   0.0000000E+00   0.0000000E+00   0.0000000E+00   0.0000000E+00   0.0000000E+00   0.0000000E+00   0.0000000E+00   0.0000000E+00   0.0000000E+00   0.0000000E+00   0.0000000E+00   0.0000000E+00   0.0000000E+00   0.0000000E+00   0.0000000E+00   0.0000000E+00   0.0000000E+00   0.0000000E+00   0.0000000E+00   0.0000000E+00   0.0000000E+00   0.0000000E+00   0.0000000E+00   0.0000000E+00   0.0000000E+00   0.0000000E+00   0.0000000E+00   0.0000000E+00   0.0000000E+00   0.0000000E+00   0.0000000E+00   0.0000000E+00   0.0000000E+00   0.0000000E+00   0.0000000E+00   0.0000000E+00   0.0000000E+00   0.0000000E+00   0.0000000E+00   0.0000000E+00   0.0000000E+00   0.0000000E+00   0.0000000E+00   0.0000000E+00   0.0000000E+00   0.0000000E+00   0.0000000E+00   0.0000000E+00   0.0000000E+00   0.0000000E+00   0.0000000E+00   0.0000000E+00   0.0000000E+00   0.0000000E+00   0.0000000E+00   0.0000000E+00   0.0000000E+00   0.0000000E+00   0.0000000E+00   0.0000000E+00   0.0000000E+00   0.0000000E+00   0.0000000E+00   0.0000000E+00   0.0000000E+00   0.0000000E+00   0.0000000E+00  -4.3580486E-04  -5.1908719E-04  -5.8822159E-04  -6.4396119E-04  -6.8854674E-04  -4.6501664E-04  -5.8595539E-04  -6.9114985E-04  -7.7738019E-04  -8.4611314E-04  -9.0063381E-04  -6.1364047E-04  -7.6699414E-04  -8.9873082E-04  -1.0047852E-03  -1.0877801E-03  -1.1525962E-03  -8.0318085E-04  -9.9860784E-04  -1.1642196E-03  -1.2949753E-03  -1.3950423E-03  -1.4715625E-03  -1.0582170E-03  -1.3074032E-03  -1.5152365E-03  -1.6765082E-03  -1.7974580E-03  -1.8877226E-03  -1.4257145E-03  -1.7382043E-03  -1.9914664E-03  -2.1841722E-03  -2.3272764E-03  -2.4329475E-03  -1.9880182E-03  -2.3657768E-03  -2.6527883E-03  -2.8646302E-03  -3.0223005E-03  -3.1409576E-03  -2.8736372E-03  -3.2975485E-03  -3.5791227E-03  -3.7757349E-03  -3.9269971E-03  -4.0494204E-03  -4.2480896E-03  -4.6552946E-03  -4.8527988E-03  -4.9756044E-03  -5.0880769E-03  -5.2004438E-03  -6.2377881E-03  -6.5142890E-03  -6.5189470E-03  -6.5027345E-03  -6.5469309E-03  -6.6394540E-03  -8.7748235E-03  -8.8172248E-03  -8.5485242E-03  -8.3622374E-03  -8.3352653E-03  -8.4142704E-03  -1.1323029E-02  -1.1318472E-02  -1.0847016E-02  -1.0543410E-02  -1.0487759E-02  -1.0581215E-02  -1.3338960E-02  -1.3733052E-02  -1.3347077E-02  -1.3074687E-02  -1.3068466E-02  -1.3217547E-02  -1.5264914E-02  -1.6199719E-02  -1.6169801E-02  -1.6075440E-02  -1.6191013E-02  -1.6430203E-02  -1.7955374E-02  -1.9255809E-02  -1.9617269E-02  -1.9751392E-02  -2.0014539E-02  -2.0354547E-02  -2.2002481E-02  -2.3425817E-02  -2.4028689E-02  -2.4329344E-02  -2.4716271E-02  -2.5147816E-02  -2.7597729E-02  -2.8949143E-02  -2.9635189E-02  -3.0012814E-02  -3.0481610E-02  -3.0989392E-02  -3.4545973E-02  -3.5860352E-02  -3.6573105E-02  -3.6997903E-02  -3.7526827E-02  -3.8091104E-02  -4.2827092E-02  -4.4278603E-02  -4.5085162E-02  -4.5552358E-02  -4.6116475E-02  -4.6697903E-02  -5.2798841E-02  -5.4561108E-02  -5.5545498E-02  -5.6027312E-02  -5.6559544E-02  -5.7081200E-02  -6.4968452E-02  -6.7194283E-02  -6.8420656E-02  -6.8828151E-02  -6.9198653E-02  -6.9530264E-02  -7.9808772E-02  -8.2775280E-02  -8.4263653E-02  -8.4402293E-02  -8.4383786E-02  -8.4320687E-02  -9.7903661E-02  -1.0194792E-01  -1.0366178E-01  -1.0315766E-01  -1.0238967E-01  -1.0163054E-01  -1.1971732E-01  -1.2534150E-01  -1.2703174E-01  -1.2525494E-01  -1.2322588E-01  -1.2136527E-01  -1.4532775E-01  -1.5325212E-01  -1.5425387E-01  -1.5024370E-01  -1.4630283E-01  -1.4287743E-01  -1.7423128E-01  -1.8517840E-01  -1.8421541E-01  -1.7658004E-01  -1.7000285E-01  -1.6458814E-01  -2.0469569E-01  -2.1879497E-01  -2.1381912E-01  -2.0102042E-01  -1.9116588E-01  -1.8356742E-01  -2.3300910E-01  -2.4966282E-01  -2.3769897E-01  -2.1813600E-01  -2.0473540E-01  -1.9523431E-01  -2.5274950E-01  -2.6980764E-01  -2.4768800E-01  -2.2026955E-01  -2.0378703E-01  -1.9333896E-01  -2.5351459E-01  -2.6751989E-01  -2.3258890E-01  -1.9807088E-01  -1.7988704E-01  -1.7007594E-01  -2.2081277E-01  -2.2489898E-01  -1.7982900E-01  -1.4207742E-01  -1.2393869E-01  -1.1627861E-01  -1.3672690E-01  -1.2445448E-01  -7.9987697E-02  -4.4034302E-02  -2.6879147E-02  -2.3431093E-02   1.4181249E-02   5.1887386E-02   9.1673091E-02   1.0705962E-01   1.1539921E-01   1.1235563E-01   2.1279207E-01   2.9643580E-01   3.3253631E-01   3.0834767E-01   2.9830319E-01   2.8587750E-01   4.1355467E-01   5.4299021E-01   5.9017718E-01   5.3107458E-01   5.0110251E-01   4.7939694E-01   5.7213277E-01   7.3581827E-01   8.0646169E-01   7.3273695E-01   6.9160396E-01   6.6419256E-01   6.5788215E-01   8.3736098E-01   9.4150913E-01   8.7506950E-01   8.3590078E-01   8.0814695E-01   6.7998475E-01   8.6676288E-01   9.9328816E-01   9.4518036E-01   9.1554379E-01   8.9099777E-01   6.5797579E-01   8.4698904E-01   9.8837900E-01   9.5567930E-01   9.3490463E-01   9.1420007E-01   6.1329401E-01   8.0249757E-01   9.5089352E-01   9.2741609E-01   9.1271234E-01   8.9526892E-01   5.6653392E-01   7.5506532E-01   9.0332997E-01   8.8271230E-01   8.7083721E-01   8.5549903E-01   5.2887911E-01   7.1604079E-01   8.5931492E-01   8.3624828E-01   8.2427955E-01   8.0979502E-01   4.9577117E-01   6.7871279E-01   8.1553173E-01   7.9012090E-01   7.7731359E-01   7.6288104E-01   4.6179074E-01   6.3745511E-01   7.6717567E-01   7.4052262E-01   7.2666460E-01   7.1169245E-01   4.2253530E-01   5.8749163E-01   7.0864159E-01   6.8196976E-01   6.6693228E-01   6.5094334E-01   3.7655914E-01   5.2765346E-01   6.3803905E-01   6.1225796E-01   5.9584498E-01   5.7847524E-01   3.2682878E-01   4.6094555E-01   5.5892968E-01   5.3442186E-01   5.1645541E-01   4.9754754E-01   2.7970898E-01   3.9612782E-01   4.8009151E-01   4.5550075E-01   4.3592551E-01   4.1557568E-01   2.4191239E-01   3.4015763E-01   4.0969920E-01   3.8323373E-01   3.6212730E-01   3.4050137E-01   2.1337342E-01   2.9573226E-01   3.5171512E-01   3.2268596E-01   3.0039543E-01   2.7761284E-01   1.9049013E-01   2.5987676E-01   3.0493414E-01   2.7525491E-01   2.5219664E-01   2.2862977E-01   1.7081484E-01   2.2773477E-01   2.6623744E-01   2.3906252E-01   2.1607386E-01   1.9244580E-01   1.6476570E-01   2.0241311E-01   2.3431200E-01   2.1104386E-01   1.8902609E-01   1.6651869E-01   1.8167652E-01   1.8933395E-01   2.0895241E-01   1.8849573E-01   1.6803364E-01   1.4822958E-01   2.0964095E-01   1.8400869E-01   1.8875343E-01   1.7032872E-01   1.5153335E-01   1.3554528E-01   1.7658181E-01   1.7030013E-01   1.5610868E-01   1.3936430E-01   1.2702894E-01   1.7311434E-01   1.5744998E-01   1.4693922E-01   1.3163614E-01   1.2155855E-01   1.5587972E-01   1.4622423E-01   1.3072129E-01   1.1896270E-01   1.6429779E-01   1.5638429E-01   1.4009614E-01   1.2260677E-01   1.7273152E-01   1.6048875E-01   1.3801767E-01   1.8423904E-01   1.6562811E-01   1.9327733E-01   1.9335687E-01  -7.2419632E-04  -7.5247290E-04  -7.7441568E-04  -7.9103169E-04  -8.0335845E-04  -8.1230886E-04  -8.1859954E-04  -8.2275458E-04  -8.2511915E-04  -9.4402389E-04  -9.7833201E-04  -1.0048153E-03  -1.0247268E-03  -1.0394162E-03  -1.0500374E-03  -1.0574802E-03  -1.0623867E-03  -1.0651764E-03  -1.2035940E-03  -1.2435380E-03  -1.2740217E-03  -1.2966562E-03  -1.3131985E-03  -1.3250728E-03  -1.3333472E-03  -1.3387814E-03  -1.3418635E-03  -1.5307290E-03  -1.5763503E-03  -1.6105456E-03  -1.6354868E-03  -1.6534665E-03  -1.6662268E-03  -1.6750405E-03  -1.6807902E-03  -1.6840369E-03  -1.9559863E-03  -2.0075543E-03  -2.0453199E-03  -2.0722647E-03  -2.0913279E-03  -2.1046416E-03  -2.1137162E-03  -2.1195738E-03  -2.1228576E-03  -2.5111507E-03  -2.5688095E-03  -2.6099572E-03  -2.6385586E-03  -2.6583155E-03  -2.6718120E-03  -2.6808330E-03  -2.6865634E-03  -2.6897402E-03  -3.2291317E-03  -3.2927191E-03  -3.3368217E-03  -3.3665195E-03  -3.3864079E-03  -3.3995847E-03  -3.4081405E-03  -3.4134360E-03  -3.4163150E-03  -4.1452143E-03  -4.2144200E-03  -4.2607766E-03  -4.2907023E-03  -4.3098819E-03  -4.3220161E-03  -4.3295133E-03  -4.3339380E-03  -4.3362495E-03  -5.2999798E-03  -5.3743981E-03  -5.4223794E-03  -5.4514389E-03  -5.4687657E-03  -5.4788156E-03  -5.4844110E-03  -5.4873331E-03  -5.4886905E-03  -6.7412648E-03  -6.8216813E-03  -6.8713096E-03  -6.8984339E-03  -6.9124671E-03  -6.9190231E-03  -6.9214907E-03  -6.9219996E-03  -6.9218366E-03  -8.5244160E-03  -8.6145913E-03  -8.6669875E-03  -8.6913016E-03  -8.7002767E-03  -8.7013887E-03  -8.6989878E-03  -8.6957281E-03  -8.6932005E-03  -1.0715058E-02  -1.0822117E-02  -1.0879442E-02  -1.0900104E-02  -1.0901691E-02  -1.0894584E-02  -1.0884747E-02  -1.0875705E-02  -1.0869553E-02  -1.3394892E-02  -1.3527174E-02  -1.3591651E-02  -1.3607105E-02  -1.3597764E-02  -1.3578315E-02  -1.3557228E-02  -1.3539436E-02  -1.3527796E-02  -1.6666384E-02  -1.6829880E-02  -1.6901925E-02  -1.6908418E-02  -1.6882274E-02  -1.6844181E-02  -1.6806170E-02  -1.6775252E-02  -1.6755382E-02  -2.0654378E-02  -2.0850036E-02  -2.0925861E-02  -2.0915315E-02  -2.0862529E-02  -2.0796068E-02  -2.0732787E-02  -2.0682413E-02  -2.0650405E-02  -2.5506757E-02  -2.5728891E-02  -2.5797341E-02  -2.5754688E-02  -2.5659382E-02  -2.5549974E-02  -2.5449352E-02  -2.5370656E-02  -2.5321113E-02  -3.1396396E-02  -3.1629335E-02  -3.1668339E-02  -3.1568598E-02  -3.1406589E-02  -3.1233218E-02  -3.1078478E-02  -3.0959392E-02  -3.0885125E-02  -3.8522251E-02  -3.8734645E-02  -3.8707059E-02  -3.8512044E-02  -3.8248617E-02  -3.7982300E-02  -3.7751202E-02  -3.7576187E-02  -3.7468009E-02  -4.7105845E-02  -4.7244720E-02  -4.7093775E-02  -4.6748679E-02  -4.6336468E-02  -4.5939524E-02  -4.5604110E-02  -4.5354243E-02  -4.5201279E-02  -5.7386026E-02  -5.7369556E-02  -5.7013590E-02  -5.6443874E-02  -5.5821676E-02  -5.5247918E-02  -5.4775633E-02  -5.4429792E-02  -5.4220293E-02  -6.9606900E-02  -6.9315657E-02  -6.8643145E-02  -6.7753084E-02  -6.6847004E-02  -6.6044033E-02  -6.5400600E-02  -6.4938039E-02  -6.4661160E-02  -8.3984874E-02  -8.3254218E-02  -8.2121737E-02  -8.0796883E-02  -7.9525635E-02  -7.8441240E-02  -7.7596471E-02  -7.7001572E-02  -7.6650240E-02  -1.0062975E-01  -9.9247687E-02  -9.7484782E-02  -9.5602080E-02  -9.3888409E-02  -9.2482269E-02  -9.1419905E-02  -9.0689488E-02  -9.0265393E-02  -1.1938485E-01  -1.1710294E-01  -1.1452813E-01  -1.1197429E-01  -1.0976497E-01  -1.0802552E-01  -1.0675764E-01  -1.0591123E-01  -1.0543024E-01  -1.3957286E-01  -1.3613707E-01  -1.3258700E-01  -1.2928712E-01  -1.2657756E-01  -1.2454361E-01  -1.2312633E-01  -1.2221775E-01  -1.2171707E-01  -1.5967385E-01  -1.5488921E-01  -1.5026683E-01  -1.4622021E-01  -1.4308184E-01  -1.4086357E-01  -1.3941385E-01  -1.3854237E-01  -1.3808757E-01  -1.7698811E-01  -1.7085719E-01  -1.6522309E-01  -1.6055559E-01  -1.5716626E-01  -1.5496466E-01  -1.5367422E-01  -1.5299504E-01  -1.5268609E-01  -1.8738969E-01  -1.8032113E-01  -1.7405590E-01  -1.6911688E-01  -1.6581079E-01  -1.6394697E-01  -1.6310182E-01  -1.6283910E-01  -1.6281821E-01  -1.8526967E-01  -1.7828304E-01  -1.7228520E-01  -1.6779736E-01  -1.6515800E-01  -1.6412677E-01  -1.6414414E-01  -1.6461818E-01  -1.6508664E-01  -1.6344944E-01  -1.5827200E-01  -1.5410522E-01  -1.5132146E-01  -1.5030223E-01  -1.5085459E-01  -1.5233810E-01  -1.5400359E-01  -1.5524554E-01  -1.1332919E-01  -1.1232806E-01  -1.1220833E-01  -1.1296052E-01  -1.1495972E-01  -1.1816657E-01  -1.2195197E-01  -1.2543075E-01  -1.2783410E-01  -2.6628092E-02  -3.2512814E-02  -3.9049581E-02  -4.5583799E-02  -5.2372530E-02  -5.9594393E-02  -6.6734970E-02  -7.2804801E-02  -7.6853380E-02   1.0088228E-01   8.5676722E-02   7.0012197E-02   5.5456348E-02   4.2017169E-02   2.9304549E-02   1.7660253E-02   8.1537366E-03   1.9341484E-03   2.6488632E-01   2.3897003E-01   2.1254703E-01   1.8832600E-01   1.6674428E-01   1.4728405E-01   1.3013244E-01   1.1644652E-01   1.0759522E-01   4.4939858E-01   4.1293931E-01   3.7550485E-01   3.4108800E-01   3.1072164E-01   2.8388745E-01   2.6069501E-01   2.4242696E-01   2.3069370E-01   6.2740743E-01   5.8213276E-01   5.3493130E-01   4.9112549E-01   4.5245767E-01   4.1853634E-01   3.8948783E-01   3.6676416E-01   3.5222733E-01   7.6783526E-01   7.1649176E-01   6.6192091E-01   6.1068428E-01   5.6523550E-01   5.2539063E-01   4.9137717E-01   4.6484813E-01   4.4791007E-01   8.5001159E-01   7.9554999E-01   7.3652494E-01   6.8045247E-01   6.3036412E-01   5.8630228E-01   5.4865640E-01   5.1930088E-01   5.0056446E-01   8.7425500E-01   8.1911474E-01   7.5833893E-01   6.9999385E-01   6.4747047E-01   6.0099769E-01   5.6115174E-01   5.3002894E-01   5.1015097E-01   8.5710859E-01   8.0285120E-01   7.4229705E-01   6.8368757E-01   6.3054037E-01   5.8320296E-01   5.4242355E-01   5.1048458E-01   4.9005908E-01   8.1912243E-01   7.6646245E-01   7.0726430E-01   6.4966357E-01   5.9712392E-01   5.5003977E-01   5.0928366E-01   4.7726962E-01   4.5676398E-01   7.7481884E-01   7.2390831E-01   6.6656113E-01   6.1062968E-01   5.5940896E-01   5.1328933E-01   4.7320825E-01   4.4164133E-01   4.2139286E-01   7.2886288E-01   6.7961633E-01   6.2429029E-01   5.7034278E-01   5.2084351E-01   4.7613832E-01   4.3717575E-01   4.0642858E-01   3.8668373E-01   6.7825663E-01   6.3058650E-01   5.7740617E-01   5.2569389E-01   4.7824034E-01   4.3531555E-01   3.9783755E-01   3.6822367E-01   3.4919298E-01   6.1784190E-01   5.7180703E-01   5.2104521E-01   4.7194615E-01   4.2694804E-01   3.8621604E-01   3.5061359E-01   3.2246011E-01   3.0436173E-01   5.4566020E-01   5.0155532E-01   4.5371401E-01   4.0779585E-01   3.6581022E-01   3.2779002E-01   2.9452699E-01   2.6820934E-01   2.5128913E-01   4.6523488E-01   4.2359030E-01   3.7934625E-01   3.3730382E-01   2.9898500E-01   2.6426959E-01   2.3386195E-01   2.0978764E-01   1.9430861E-01   3.8412476E-01   3.4548342E-01   3.0543244E-01   2.6784128E-01   2.3372337E-01   2.0279689E-01   1.7566311E-01   1.5416038E-01   1.4033192E-01   3.1010470E-01   2.7466619E-01   2.3899467E-01   2.0602915E-01   1.7628615E-01   1.4932287E-01   1.2562165E-01   1.0681814E-01   9.4723083E-02   2.4813966E-01   2.1559814E-01   1.8394464E-01   1.5526883E-01   1.2963820E-01   1.0645391E-01   8.6060643E-02   6.9873102E-02   5.9462301E-02   1.9985007E-01   1.6951245E-01   1.4103340E-01   1.1585655E-01   9.3697950E-02   7.3821962E-02   5.6405850E-02   4.2605925E-02   3.3737946E-02   1.6440336E-01   1.3551708E-01   1.0907942E-01   8.6310670E-02   6.6739835E-02   4.9529243E-02   3.4644939E-02   2.2928823E-02   1.5418924E-02   1.3984099E-01   1.1195754E-01   8.6421356E-02   6.4841114E-02   4.6850890E-02   3.1569310E-02   1.8708598E-02   8.7386928E-03   2.3894720E-03   1.2408941E-01   9.7347505E-02   7.1894743E-02   5.0303228E-02   3.2823324E-02   1.8650614E-02   7.2426274E-03  -1.3478175E-03  -6.7399144E-03   1.1527713E-01   9.0500399E-02   6.5017164E-02   4.2479154E-02   2.4410971E-02   1.0403626E-02  -2.4989992E-04  -7.9087391E-03  -1.2583364E-02   1.1168917E-01   9.0197310E-02   6.5454394E-02   4.1782971E-02   2.2161514E-02   7.2518028E-03  -3.5552494E-03  -1.0919694E-02  -1.5233729E-02   1.1129265E-01   9.4527416E-02   7.2153285E-02   4.8343286E-02   2.7031146E-02   1.0295037E-02  -1.6985536E-03  -9.6158832E-03  -1.4101867E-02   1.1204596E-01   1.0083705E-01   8.2855299E-02   6.0965151E-02   3.9295178E-02   2.0906422E-02   7.0883706E-03  -2.1761507E-03  -7.4147880E-03   1.1334983E-01   1.0650174E-01   9.4460145E-02   7.6984830E-02   5.7385739E-02   3.9074786E-02   2.4209807E-02   1.3604218E-02   7.3583499E-03   1.2038457E-01   1.1129504E-01   1.0407797E-01   9.2931665E-02   7.8143582E-02   6.2479317E-02   4.8490636E-02   3.7723221E-02   3.1010799E-02   1.4139539E-01   1.2307342E-01   1.1294687E-01   1.0588855E-01   9.7485855E-02   8.7021694E-02   7.6228023E-02   6.7050353E-02   6.0944550E-02   1.7483237E-01   1.5271212E-01   1.3315780E-01   1.2068336E-01   1.1358774E-01   1.0799085E-01   1.0204519E-01   9.6227661E-02   9.1919139E-02   1.9363813E-01   1.8605126E-01   1.7209348E-01   1.5518856E-01   1.4018710E-01   1.2982056E-01   1.2352308E-01   1.1955622E-01   1.1703657E-01   1.8881777E-01   1.9497216E-01   1.9457111E-01   1.8634966E-01   1.7527448E-01   1.6592912E-01   1.5975054E-01   1.5621084E-01   1.9204761E-01   2.0390359E-01   2.0759249E-01   2.0968252E-01   2.1038432E-01   2.1072935E-01   1.7939787E-01   1.8808429E-01   1.9689482E-01   2.0266998E-01  -8.2588708E-04  -8.2511932E-04  -8.2275475E-04  -8.1859971E-04  -8.1230869E-04  -8.0335862E-04  -7.9103163E-04  -7.7441544E-04  -1.0660816E-03  -1.0651764E-03  -1.0623867E-03  -1.0574802E-03  -1.0500379E-03  -1.0394163E-03  -1.0247271E-03  -1.0048155E-03  -1.3428627E-03  -1.3418630E-03  -1.3387807E-03  -1.3333469E-03  -1.3250723E-03  -1.3131987E-03  -1.2966563E-03  -1.2740217E-03  -1.6850873E-03  -1.6840369E-03  -1.6807902E-03  -1.6750399E-03  -1.6662269E-03  -1.6534665E-03  -1.6354875E-03  -1.6105461E-03  -2.1239168E-03  -2.1228588E-03  -2.1195731E-03  -2.1137155E-03  -2.1046421E-03  -2.0913281E-03  -2.0722658E-03  -2.0453217E-03  -2.6907590E-03  -2.6897406E-03  -2.6865629E-03  -2.6808332E-03  -2.6718113E-03  -2.6583150E-03  -2.6385589E-03  -2.6099579E-03  -3.4172260E-03  -3.4163150E-03  -3.4134362E-03  -3.4081400E-03  -3.3995854E-03  -3.3864086E-03  -3.3665211E-03  -3.3368214E-03  -4.3369653E-03  -4.3362491E-03  -4.3339366E-03  -4.3295119E-03  -4.3220152E-03  -4.3098805E-03  -4.2907032E-03  -4.2607784E-03  -5.4890802E-03  -5.4886919E-03  -5.4873335E-03  -5.4844087E-03  -5.4788170E-03  -5.4687653E-03  -5.4514371E-03  -5.4223826E-03  -6.9217077E-03  -6.9218371E-03  -6.9219996E-03  -6.9214921E-03  -6.9190226E-03  -6.9124661E-03  -6.8984348E-03  -6.8713166E-03  -8.6922720E-03  -8.6932033E-03  -8.6957300E-03  -8.6989952E-03  -8.7013924E-03  -8.7002795E-03  -8.6913044E-03  -8.6669913E-03  -1.0867389E-02  -1.0869552E-02  -1.0875703E-02  -1.0884742E-02  -1.0894581E-02  -1.0901690E-02  -1.0900108E-02  -1.0879440E-02  -1.3523762E-02  -1.3527795E-02  -1.3539444E-02  -1.3557233E-02  -1.3578319E-02  -1.3597766E-02  -1.3607108E-02  -1.3591652E-02  -1.6748555E-02  -1.6755382E-02  -1.6775260E-02  -1.6806176E-02  -1.6844189E-02  -1.6882282E-02  -1.6908418E-02  -1.6901931E-02  -2.0639472E-02  -2.0650402E-02  -2.0682404E-02  -2.0732785E-02  -2.0796070E-02  -2.0862538E-02  -2.0915324E-02  -2.0925874E-02  -2.5304249E-02  -2.5321122E-02  -2.5370650E-02  -2.5449349E-02  -2.5549967E-02  -2.5659386E-02  -2.5754685E-02  -2.5797345E-02  -3.0859934E-02  -3.0885121E-02  -3.0959403E-02  -3.1078478E-02  -3.1233214E-02  -3.1406589E-02  -3.1568576E-02  -3.1668335E-02  -3.7431475E-02  -3.7467990E-02  -3.7576180E-02  -3.7751179E-02  -3.7982300E-02  -3.8248606E-02  -3.8511999E-02  -3.8707044E-02  -4.5149859E-02  -4.5201298E-02  -4.5354277E-02  -4.5604110E-02  -4.5939531E-02  -4.6336468E-02  -4.6748679E-02  -4.7093760E-02  -5.4150254E-02  -5.4220304E-02  -5.4429792E-02  -5.4775644E-02  -5.5247910E-02  -5.5821698E-02  -5.6443874E-02  -5.7013620E-02  -6.4569108E-02  -6.4661138E-02  -6.4938039E-02  -6.5400586E-02  -6.6044062E-02  -6.6847004E-02  -6.7753062E-02  -6.8643160E-02  -7.6534323E-02  -7.6650247E-02  -7.7001557E-02  -7.7596478E-02  -7.8441277E-02  -7.9525612E-02  -8.0796905E-02  -8.2121737E-02  -9.0126552E-02  -9.0265393E-02  -9.0689503E-02  -9.1419950E-02  -9.2482276E-02  -9.3888439E-02  -9.5602013E-02  -9.7484812E-02  -1.0527466E-01  -1.0543026E-01  -1.0591119E-01  -1.0675757E-01  -1.0802550E-01  -1.0976498E-01  -1.1197432E-01  -1.1452807E-01  -1.2155789E-01  -1.2171707E-01  -1.2221774E-01  -1.2312628E-01  -1.2454366E-01  -1.2657762E-01  -1.2928718E-01  -1.3258696E-01  -1.3794756E-01  -1.3808756E-01  -1.3854235E-01  -1.3941379E-01  -1.4086360E-01  -1.4308201E-01  -1.4622027E-01  -1.5026677E-01  -1.5259957E-01  -1.5268609E-01  -1.5299499E-01  -1.5367432E-01  -1.5496472E-01  -1.5716624E-01  -1.6055557E-01  -1.6522309E-01  -1.6283372E-01  -1.6281819E-01  -1.6283919E-01  -1.6310185E-01  -1.6394679E-01  -1.6581067E-01  -1.6911688E-01  -1.7405593E-01  -1.6527258E-01  -1.6508655E-01  -1.6461818E-01  -1.6414404E-01  -1.6412681E-01  -1.6515799E-01  -1.6779742E-01  -1.7228508E-01  -1.5569890E-01  -1.5524565E-01  -1.5400359E-01  -1.5233800E-01  -1.5085462E-01  -1.5030217E-01  -1.5132146E-01  -1.5410507E-01  -1.2868676E-01  -1.2783417E-01  -1.2543075E-01  -1.2195189E-01  -1.1816660E-01  -1.1495970E-01  -1.1296061E-01  -1.1220834E-01  -7.8270182E-02  -7.6853484E-02  -7.2804645E-02  -6.6734955E-02  -5.9594408E-02  -5.2372403E-02  -4.5583814E-02  -3.9049663E-02  -2.2575259E-04   1.9341856E-03   8.1537217E-03   1.7660275E-02   2.9304579E-02   4.2017117E-02   5.5456392E-02   7.0012197E-02   1.0453557E-01   1.0759521E-01   1.1644653E-01   1.3013244E-01   1.4728408E-01   1.6674441E-01   1.8832609E-01   2.1254696E-01   2.2664964E-01   2.3069376E-01   2.4242699E-01   2.6069510E-01   2.8388762E-01   3.1072164E-01   3.4108806E-01   3.7550473E-01   3.4722579E-01   3.5222745E-01   3.6676431E-01   3.8948798E-01   4.1853634E-01   4.5245779E-01   4.9112546E-01   5.3493130E-01   4.4208726E-01   4.4791013E-01   4.6484855E-01   4.9137712E-01   5.2539045E-01   5.6523561E-01   6.1068416E-01   6.6192091E-01   4.9412501E-01   5.0056463E-01   5.1930070E-01   5.4865640E-01   5.8630264E-01   6.3036430E-01   6.8045223E-01   7.3652494E-01   5.0331765E-01   5.1015109E-01   5.3002906E-01   5.6115174E-01   6.0099763E-01   6.4747053E-01   6.9999397E-01   7.5833881E-01   4.8303366E-01   4.9005884E-01   5.1048422E-01   5.4242307E-01   5.8320302E-01   6.3054067E-01   6.8368751E-01   7.4229729E-01   4.4970661E-01   4.5676389E-01   4.7726959E-01   5.0928396E-01   5.5003983E-01   5.9712386E-01   6.4966351E-01   7.0726454E-01   4.1441956E-01   4.2139274E-01   4.4164109E-01   4.7320828E-01   5.1328921E-01   5.5940896E-01   6.1062974E-01   6.6656125E-01   3.7988058E-01   3.8668388E-01   4.0642887E-01   4.3717569E-01   4.7613841E-01   5.2084351E-01   5.7034296E-01   6.2429011E-01   3.4263399E-01   3.4919301E-01   3.6822367E-01   3.9783758E-01   4.3531573E-01   4.7824043E-01   5.2569389E-01   5.7740599E-01   2.9812333E-01   3.0436167E-01   3.2246023E-01   3.5061353E-01   3.8621601E-01   4.2694801E-01   4.7194627E-01   5.2104545E-01   2.4545738E-01   2.5128919E-01   2.6820940E-01   2.9452717E-01   3.2779005E-01   3.6581025E-01   4.0779576E-01   4.5371383E-01   1.8897414E-01   1.9430852E-01   2.0978767E-01   2.3386189E-01   2.6426947E-01   2.9898503E-01   3.3730385E-01   3.7934643E-01   1.3556677E-01   1.4033186E-01   1.5416031E-01   1.7566311E-01   2.0279682E-01   2.3372330E-01   2.6784128E-01   3.0543235E-01   9.0555824E-02   9.4723068E-02   1.0681811E-01   1.2562165E-01   1.4932284E-01   1.7628618E-01   2.0602915E-01   2.3899476E-01   5.5875838E-02   5.9462231E-02   6.9873065E-02   8.6060584E-02   1.0645382E-01   1.2963815E-01   1.5526858E-01   1.8394470E-01   3.0684084E-02   3.3737943E-02   4.2605877E-02   5.6405813E-02   7.3821947E-02   9.3697943E-02   1.1585642E-01   1.4103326E-01   1.2834594E-02   1.5418965E-02   2.2928789E-02   3.4644905E-02   4.9529195E-02   6.6739753E-02   8.6310543E-02   1.0907941E-01   2.0913407E-04   2.3894943E-03   8.7386295E-03   1.8708572E-02   3.1569287E-02   4.6850860E-02   6.4841099E-02   8.6421385E-02  -8.5813105E-03  -6.7399330E-03  -1.3478547E-03   7.2425529E-03   1.8650651E-02   3.2823280E-02   5.0303198E-02   7.1894765E-02  -1.4160413E-02  -1.2583338E-02  -7.9087280E-03  -2.4998188E-04   1.0403603E-02   2.4410985E-02   4.2479072E-02   6.5017194E-02  -1.6658820E-02  -1.5233710E-02  -1.0919705E-02  -3.5552643E-03   7.2518215E-03   2.2161517E-02   4.1782912E-02   6.5454364E-02  -1.5553981E-02  -1.4101844E-02  -9.6158534E-03  -1.6985498E-03   1.0294981E-02   2.7031165E-02   4.8343293E-02   7.2153300E-02  -9.1028363E-03  -7.4147955E-03  -2.1761730E-03   7.0883669E-03   2.0906441E-02   3.9295159E-02   6.0965143E-02   8.2855262E-02   5.3020269E-03   7.3583014E-03   1.3604222E-02   2.4209773E-02   3.9074775E-02   5.7385728E-02   7.6984830E-02   9.4460219E-02   2.8736766E-02   3.1010807E-02   3.7723247E-02   4.8490636E-02   6.2479336E-02   7.8143589E-02   9.2931688E-02   1.0407797E-01   5.8822624E-02   6.0944557E-02   6.7050368E-02   7.6228060E-02   8.7021716E-02   9.7485840E-02   1.0588850E-01   1.1294691E-01   9.0350270E-02   9.1919146E-02   9.6227653E-02   1.0204518E-01   1.0799088E-01   1.1358778E-01   1.2068333E-01   1.3315783E-01   1.1613369E-01   1.1703658E-01   1.1955622E-01   1.2352312E-01   1.2982059E-01   1.4018711E-01   1.5518862E-01   1.7209339E-01   1.5504818E-01   1.5621082E-01   1.5975052E-01   1.6592918E-01   1.7527452E-01   1.8634969E-01   1.9457114E-01   1.9497213E-01   2.1078765E-01   2.1072927E-01   2.1038426E-01   2.0968249E-01   2.0759243E-01   2.0390365E-01   1.9204758E-01   2.0459077E-01   2.0266998E-01   1.9689487E-01   1.8808433E-01   1.7939790E-01  -7.5247290E-04  -7.2419643E-04  -6.8854669E-04  -6.4396107E-04  -5.8822165E-04  -5.1908725E-04  -4.3580480E-04  -9.7833190E-04  -9.4402401E-04  -9.0063404E-04  -8.4611331E-04  -7.7738042E-04  -6.9114973E-04  -5.8595551E-04  -4.6501678E-04  -1.2435383E-03  -1.2035944E-03  -1.1525967E-03  -1.0877805E-03  -1.0047855E-03  -8.9873112E-04  -7.6699414E-04  -6.1364035E-04  -1.5763512E-03  -1.5307294E-03  -1.4715631E-03  -1.3950429E-03  -1.2949759E-03  -1.1642200E-03  -9.9860795E-04  -8.0318097E-04  -2.0075543E-03  -1.9559872E-03  -1.8877235E-03  -1.7974582E-03  -1.6765083E-03  -1.5152369E-03  -1.3074032E-03  -1.0582173E-03  -2.5688095E-03  -2.5111511E-03  -2.4329473E-03  -2.3272764E-03  -2.1841719E-03  -1.9914666E-03  -1.7382044E-03  -1.4257147E-03  -3.2927194E-03  -3.2291315E-03  -3.1409585E-03  -3.0223015E-03  -2.8646311E-03  -2.6527890E-03  -2.3657777E-03  -1.9880182E-03  -4.2144195E-03  -4.1452148E-03  -4.0494213E-03  -3.9269971E-03  -3.7757368E-03  -3.5791232E-03  -3.2975483E-03  -2.8736372E-03  -5.3743995E-03  -5.2999789E-03  -5.2004415E-03  -5.0880769E-03  -4.9756039E-03  -4.8528006E-03  -4.6552946E-03  -4.2480896E-03  -6.8216799E-03  -6.7412672E-03  -6.6394573E-03  -6.5469304E-03  -6.5027354E-03  -6.5189479E-03  -6.5142894E-03  -6.2377900E-03  -8.6145895E-03  -8.5244160E-03  -8.4142694E-03  -8.3352653E-03  -8.3622374E-03  -8.5485242E-03  -8.8172276E-03  -8.7748254E-03  -1.0822116E-02  -1.0715059E-02  -1.0581217E-02  -1.0487763E-02  -1.0543416E-02  -1.0847018E-02  -1.1318479E-02  -1.1323029E-02  -1.3527181E-02  -1.3394899E-02  -1.3217546E-02  -1.3068466E-02  -1.3074691E-02  -1.3347086E-02  -1.3733062E-02  -1.3338962E-02  -1.6829895E-02  -1.6666390E-02  -1.6430207E-02  -1.6191019E-02  -1.6075440E-02  -1.6169807E-02  -1.6199719E-02  -1.5264918E-02  -2.0850042E-02  -2.0654382E-02  -2.0354558E-02  -2.0014556E-02  -1.9751396E-02  -1.9617280E-02  -1.9255823E-02  -1.7955376E-02  -2.5728881E-02  -2.5506763E-02  -2.5147822E-02  -2.4716273E-02  -2.4329351E-02  -2.4028704E-02  -2.3425829E-02  -2.2002503E-02  -3.1629346E-02  -3.1396400E-02  -3.0989416E-02  -3.0481622E-02  -3.0012812E-02  -2.9635195E-02  -2.8949142E-02  -2.7597751E-02  -3.8734633E-02  -3.8522251E-02  -3.8091104E-02  -3.7526816E-02  -3.6997940E-02  -3.6573116E-02  -3.5860367E-02  -3.4545980E-02  -4.7244702E-02  -4.7105860E-02  -4.6697900E-02  -4.6116475E-02  -4.5552354E-02  -4.5085192E-02  -4.4278599E-02  -4.2827092E-02  -5.7369575E-02  -5.7386037E-02  -5.7081208E-02  -5.6559559E-02  -5.6027301E-02  -5.5545509E-02  -5.4561108E-02  -5.2798856E-02  -6.9315650E-02  -6.9606937E-02  -6.9530278E-02  -6.9198638E-02  -6.8828180E-02  -6.8420701E-02  -6.7194283E-02  -6.4968437E-02  -8.3254188E-02  -8.3984949E-02  -8.4320754E-02  -8.4383816E-02  -8.4402286E-02  -8.4263720E-02  -8.2775265E-02  -7.9808749E-02  -9.9247716E-02  -1.0062972E-01  -1.0163052E-01  -1.0238967E-01  -1.0315771E-01  -1.0366178E-01  -1.0194787E-01  -9.7903624E-02  -1.1710291E-01  -1.1938486E-01  -1.2136525E-01  -1.2322584E-01  -1.2525499E-01  -1.2703170E-01  -1.2534152E-01  -1.1971735E-01  -1.3613710E-01  -1.3957284E-01  -1.4287737E-01  -1.4630285E-01  -1.5024363E-01  -1.5425384E-01  -1.5325217E-01  -1.4532778E-01  -1.5488932E-01  -1.5967384E-01  -1.6458823E-01  -1.7000277E-01  -1.7658001E-01  -1.8421534E-01  -1.8517846E-01  -1.7423131E-01  -1.7085715E-01  -1.7698805E-01  -1.8356726E-01  -1.9116589E-01  -2.0102051E-01  -2.1381913E-01  -2.1879497E-01  -2.0469573E-01  -1.8032110E-01  -1.8738978E-01  -1.9523434E-01  -2.0473535E-01  -2.1813604E-01  -2.3769906E-01  -2.4966283E-01  -2.3300913E-01  -1.7828326E-01  -1.8526965E-01  -1.9333898E-01  -2.0378694E-01  -2.2026962E-01  -2.4768806E-01  -2.6980764E-01  -2.5274959E-01  -1.5827215E-01  -1.6344945E-01  -1.7007589E-01  -1.7988718E-01  -1.9807096E-01  -2.3258890E-01  -2.6751986E-01  -2.5351453E-01  -1.1232813E-01  -1.1332939E-01  -1.1627849E-01  -1.2393848E-01  -1.4207739E-01  -1.7982906E-01  -2.2489905E-01  -2.2081272E-01  -3.2512709E-02  -2.6628122E-02  -2.3431197E-02  -2.6879147E-02  -4.4034362E-02  -7.9987682E-02  -1.2445441E-01  -1.3672698E-01   8.5676767E-02   1.0088225E-01   1.1235563E-01   1.1539923E-01   1.0705959E-01   9.1673240E-02   5.1887527E-02   1.4181294E-02   2.3896988E-01   2.6488641E-01   2.8587741E-01   2.9830331E-01   3.0834767E-01   3.3253631E-01   2.9643577E-01   2.1279204E-01   4.1293892E-01   4.4939852E-01   4.7939700E-01   5.0110257E-01   5.3107476E-01   5.9017766E-01   5.4299021E-01   4.1355449E-01   5.8213294E-01   6.2740755E-01   6.6419315E-01   6.9160432E-01   7.3273724E-01   8.0646193E-01   7.3581827E-01   5.7213283E-01   7.1649158E-01   7.6783508E-01   8.0814707E-01   8.3590108E-01   8.7506938E-01   9.4150960E-01   8.3736134E-01   6.5788233E-01   7.9555011E-01   8.5001147E-01   8.9099789E-01   9.1554368E-01   9.4518030E-01   9.9328876E-01   8.6676300E-01   6.7998475E-01   8.1911433E-01   8.7425500E-01   9.1420007E-01   9.3490469E-01   9.5567977E-01   9.8837942E-01   8.4698904E-01   6.5797579E-01   8.0285120E-01   8.5710847E-01   8.9526904E-01   9.1271210E-01   9.2741591E-01   9.5089328E-01   8.0249780E-01   6.1329436E-01   7.6646256E-01   8.1912267E-01   8.5549927E-01   8.7083691E-01   8.8271248E-01   9.0332997E-01   7.5506508E-01   5.6653368E-01   7.2390819E-01   7.7481854E-01   8.0979544E-01   8.2427943E-01   8.3624816E-01   8.5931492E-01   7.1604073E-01   5.2887923E-01   6.7961645E-01   7.2886264E-01   7.6288104E-01   7.7731347E-01   7.9012036E-01   8.1553161E-01   6.7871273E-01   4.9577117E-01   6.3058656E-01   6.7825639E-01   7.1169251E-01   7.2666454E-01   7.4052238E-01   7.6717579E-01   6.3745505E-01   4.6179098E-01   5.7180727E-01   6.1784202E-01   6.5094328E-01   6.6693223E-01   6.8196952E-01   7.0864135E-01   5.8749151E-01   4.2253518E-01   5.0155514E-01   5.4566014E-01   5.7847524E-01   5.9584481E-01   6.1225790E-01   6.3803923E-01   5.2765357E-01   3.7655932E-01   4.2359033E-01   4.6523499E-01   4.9754745E-01   5.1645541E-01   5.3442198E-01   5.5892992E-01   4.6094561E-01   3.2682905E-01   3.4548336E-01   3.8412502E-01   4.1557574E-01   4.3592572E-01   4.5550093E-01   4.8009166E-01   3.9612782E-01   2.7970904E-01   2.7466619E-01   3.1010467E-01   3.4050122E-01   3.6212742E-01   3.8323379E-01   4.0969941E-01   3.4015775E-01   2.4191248E-01   2.1559823E-01   2.4813958E-01   2.7761286E-01   3.0039558E-01   3.2268596E-01   3.5171530E-01   2.9573232E-01   2.1337342E-01   1.6951250E-01   1.9985011E-01   2.2862972E-01   2.5219667E-01   2.7525488E-01   3.0493400E-01   2.5987679E-01   1.9049013E-01   1.3551708E-01   1.6440347E-01   1.9244584E-01   2.1607386E-01   2.3906259E-01   2.6623738E-01   2.2773482E-01   1.7081484E-01   1.1195752E-01   1.3984105E-01   1.6651848E-01   1.8902597E-01   2.1104388E-01   2.3431186E-01   2.0241310E-01   1.6476557E-01   9.7347543E-02   1.2408938E-01   1.4822969E-01   1.6803369E-01   1.8849565E-01   2.0895241E-01   1.8933395E-01   1.8167636E-01   9.0500474E-02   1.1527713E-01   1.3554539E-01   1.5153328E-01   1.7032881E-01   1.8875332E-01   1.8400860E-01   2.0964068E-01   9.0197310E-02   1.1168909E-01   1.2702887E-01   1.3936441E-01   1.5610862E-01   1.7030013E-01   1.7658189E-01   9.4527423E-02   1.1129267E-01   1.2155845E-01   1.3163613E-01   1.4693928E-01   1.5744993E-01   1.7311427E-01   1.0083708E-01   1.1204578E-01   1.1896266E-01   1.3072118E-01   1.4622426E-01   1.5587971E-01   1.0650179E-01   1.1334983E-01   1.2260681E-01   1.4009620E-01   1.5638427E-01   1.6429766E-01   1.1129506E-01   1.2038453E-01   1.3801771E-01   1.6048877E-01   1.7273152E-01   1.2307339E-01   1.4139529E-01   1.6562808E-01   1.8423907E-01   1.5271211E-01   1.7483246E-01   1.9335696E-01   1.9327734E-01   1.8605138E-01   1.9363803E-01   1.8881771E-01 
VonMises3D 1 2975 float
  0.0000000E+00   0.0000000E+00   0.0000000E+00   0.0000000E+00   0.0000000E+00   0.0000000E+00   0.0000000E+00   0.0000000E+00   0.0000000E+00   0.0000000E+00   0.0000000E+00   0.0000000E+00   0.0000000E+00   7.9320662E-06   0.0000000E+00   5.9658840E-05   3.3604534E-04   1.3041667E-04   9.2370290E-04   2.4157879E-03   1.2512627E-03   4.5925537E-03   9.1868723E-03   5.0403140E-03   1.4214233E-02   2.4995675E-02   1.3571623E-02   3.3502690E-02   5.4954708E-02   2.8728342E-02   6.5892875E-02   1.0393838E-01   5.1734369E-02   1.1382587E-01   1.7557818E-01   8.3193570E-02   1.7882913E-01   2.7218693E-01   1.2381473E-01   2.6283443E-01   3.9663857E-01   1.7550839E-01   3.7024462E-01   5.5562967E-01   2.4247898E-01   5.0987250E-01   7.6349562E-01   3.4018338E-01   6.9848949E-01   1.0517890E+00   6.0001892E-01   1.0017308E+00   1.4913265E+00   1.6255107E+00   1.8206029E+00   2.2158203E+00   4.8882818E+00   4.5034356E+00   3.3797493E+00   1.3186071E+01   1.1283209E+01   5.0377059E+00   2.3895870E+01   7.6814518E+00   0.0000000E+00   0.0000000E+00   0.0000000E+00   0.0000000E+00   0.0000000E+00   0.0000000E+00   0.0000000E+00   0.0000000E+00   0.0000000E+00   0.0000000E+00   0.0000000E+00   0.0000000E+00   0.0000000E+00   0.0000000E+00   0.0000000E+00   0.0000000E+00   0.0000000E+00   0.0000000E+00   0.0000000E+00   0.0000000E+00   0.0000000E+00   0.0000000E+00   0.0000000E+00   0.0000000E+00   0.0000000E+00   5.0299627E-07   1.5623627E-06   8.7928021E-07   1.1294316E-06   1.9668109E-06   2.2003358E-06   2.3564710E-06   4.9523296E-05   1.0520712E-04   1.2826391E-04   9.5766030E-05   2.0283222E-05   6.1252518E-05   1.1027331E-04   1.2405957E-04   7.3282182E-04   1.0188078E-03   1.0410504E-03   7.6685514E-04   2.7372336E-04   2.6465658E-04   6.7042984E-04   8.7840296E-04   3.8569437E-03   4.6019536E-03   4.3747900E-03   3.1658409E-03   1.2527022E-03   7.9841173E-04   2.4050442E-03   3.3319222E-03   1.2812963E-02   1.4212810E-02   1.3002643E-02   9.2835929E-03   3.8009372E-03   1.9873772E-03   6.5727369E-03   9.3125449E-03   3.2506995E-02   3.4667265E-02   3.1024782E-02   2.1916227E-02   9.0510203E-03   4.3137725E-03   1.4890576E-02   2.1284502E-02   6.8782426E-02   7.1786210E-02   6.3394986E-02   4.4299759E-02   1.8130040E-02   8.4975576E-03   2.9355854E-02   4.1953672E-02   1.2738116E-01   1.3135722E-01   1.1489180E-01   7.9165064E-02   3.1563908E-02   1.5563809E-02   5.1905967E-02   7.3675402E-02   2.1266878E-01   2.1766734E-01   1.8812291E-01   3.2710260E-01   3.3265659E-01   4.7343183E-01   4.7784275E-01   6.5936738E-01   6.6087466E-01   9.0258867E-01   8.9879084E-01   1.2636561E+00   1.2687684E+00   2.0330894E+00   2.2837219E+00   4.1477733E+00   5.5527391E+00   9.2722683E+00   1.3768409E+01   1.8893091E+01   2.9949244E+01   3.2020493E+01   5.4009518E+01   0.0000000E+00   0.0000000E+00   0.0000000E+00   0.0000000E+00   0.0000000E+00   0.0000000E+00   0.0000000E+00   0.0000000E+00   0.0000000E+00   0.0000000E+00   0.0000000E+00   0.0000000E+00   0.0000000E+00   0.0000000E+00   0.0000000E+00   0.0000000E+00   0.0000000E+00   0.0000000E+00   0.0000000E+00   0.0000000E+00   0.0000000E+00   0.0000000E+00   0.0000000E+00   0.0000000E+00   0.0000000E+00   0.0000000E+00   0.0000000E+00   2.4502940E-06   2.5001843E-06   2.5264021E-06   2.5401330E-06   2.5439278E-06   2.5418747E-06   2.5361053E-06   2.5286849E-06   2.5230918E-06   1.2750379E-04   1.2758402E-04   1.2583047E-04   1.2333746E-04   1.2066992E-04   1.1807633E-04   1.1572464E-04   1.1382495E-04   1.1257584E-04   9.2978560E-04   9.2449755E-04   9.0185506E-04   8.7193551E-04   8.4080867E-04   8.1165304E-04   7.8634138E-04   7.6651800E-04   7.5379794E-04   3.6804518E-03   3.6867822E-03   3.5789469E-03   3.4339144E-03   3.2818399E-03   3.1399643E-03   3.0183366E-03   2.9244528E-03   2.8648612E-03   1.0453212E-02   1.0595562E-02   1.0273670E-02   9.8151928E-03   9.3281437E-03   8.8723619E-03   8.4831724E-03   8.1848651E-03   7.9967091E-03   2.4020102E-02   2.4449563E-02   2.3731904E-02   2.2607721E-02   2.1400262E-02   2.0265691E-02   1.9297894E-02   1.8558729E-02   1.8094262E-02   4.7349256E-02   4.8177514E-02   4.6747625E-02   4.4423595E-02   4.1910112E-02   3.9541725E-02   3.7521962E-02   3.5982482E-02   3.5017416E-02   8.2872443E-02   8.4090598E-02   8.1425279E-02   7.7189438E-02   7.2594240E-02   6.8259530E-02   6.4563982E-02   6.1751064E-02   5.9990689E-02   0.0000000E+00   0.0000000E+00   0.0000000E+00   0.0000000E+00   0.0000000E+00   0.0000000E+00   0.0000000E+00   0.0000000E+00   0.0000000E+00   0.0000000E+00   0.0000000E+00   0.0000000E+00   0.0000000E+00   0.0000000E+00   0.0000000E+00   0.0000000E+00   0.0000000E+00   0.0000000E+00   0.0000000E+00   0.0000000E+00   0.0000000E+00   0.0000000E+00   0.0000000E+00   0.0000000E+00   2.5211432E-06   2.5230920E-06   2.5286852E-06   2.5361057E-06   2.5418749E-06   2.5439285E-06   2.5401334E-06   2.5264017E-06   1.1213742E-04   1.1257586E-04   1.1382495E-04   1.1572467E-04   1.1807638E-04   1.2066997E-04   1.2333749E-04   1.2583048E-04   7.4940361E-04   7.5379794E-04   7.6651806E-04   7.8634149E-04   8.1165339E-04   8.4080902E-04   8.7193598E-04   9.0185506E-04   2.8444091E-03   2.8648609E-03   2.9244525E-03   3.0183373E-03   3.1399655E-03   3.2818406E-03   3.4339156E-03   3.5789481E-03   7.9323277E-03   7.9967091E-03   8.1848670E-03   8.4831752E-03   8.8723646E-03   9.3281483E-03   9.8151965E-03   1.0273673E-02   1.7935647E-02   1.8094262E-02   1.8558728E-02   1.9297894E-02   2.0265698E-02   2.1400265E-02   2.2607727E-02   2.3731906E-02   3.4688346E-02   3.5017412E-02   3.5982482E-02   3.7521973E-02   3.9541733E-02   4.1910119E-02   4.4423606E-02   4.6747632E-02   5.9391133E-02   5.9990682E-02   6.1751068E-02   6.4563990E-02   6.8259530E-02   7.2594248E-02   7.7189445E-02   8.1425294E-02   0.0000000E+00   0.0000000E+00   0.0000000E+00   0.0000000E+00   0.0000000E+00   0.0000000E+00   0.0000000E+00   0.0000000E+00   0.0000000E+00   0.0000000E+00   0.0000000E+00   0.0000000E+00   0.0000000E+00   0.0000000E+00   0.0000000E+00   0.0000000E+00   0.0000000E+00   0.0000000E+00   0.0000000E+00   0.0000000E+00   0.0000000E+00   0.0000000E+00   0.0000000E+00   0.0000000E+00   0.0000000E+00   0.0000000E+00   0.0000000E+00   2.5001839E-06   2.4502945E-06   2.3564714E-06   2.2003358E-06   1.9668109E-06   1.1294325E-06   8.7928004E-07   1.5623625E-06   5.0299604E-07   1.2758399E-04   1.2750379E-04   1.2405956E-04   1.1027329E-04   6.1252533E-05   2.0283200E-05   9.5766045E-05   1.2826391E-04   1.0520707E-04   9.2449755E-04   9.2978560E-04   8.7840285E-04   6.7042990E-04   2.6465653E-04   2.7372327E-04   7.6685514E-04   1.0410503E-03   1.0188075E-03   3.6867827E-03   3.6804518E-03   3.3319220E-03   2.4050442E-03   7.9841207E-04   1.2527021E-03   3.1658409E-03   4.3747895E-03   4.6019526E-03   1.0595564E-02   1.0453212E-02   9.3125449E-03   6.5727378E-03   1.9873786E-03   3.8009360E-03   9.2835920E-03   1.3002641E-02   1.4212808E-02   2.4449563E-02   2.4020102E-02   2.1284502E-02   1.4890579E-02   4.3137772E-03   9.0510184E-03   2.1916233E-02   3.1024788E-02   3.4667257E-02   4.8177529E-02   4.7349259E-02   4.1953690E-02   2.9355869E-02   8.4975660E-03   1.8130040E-02   4.4299774E-02   6.3394994E-02   7.1786202E-02   8.4090613E-02   8.2872473E-02   7.3675424E-02   5.1905993E-02   1.5563831E-02   3.1563908E-02   7.9165071E-02   1.1489181E-01   1.3135719E-01   1.8812293E-01   2.1766731E-01   3.3265659E-01   4.7784290E-01   6.6087478E-01   8.9879090E-01   1.2687683E+00   2.2837212E+00   5.5527401E+00   1.3768414E+01   2.9949247E+01   5.4009525E+01   0.0000000E+00   0.0000000E+00   0.0000000E+00   0.0000000E+00   0.0000000E+00   0.0000000E+00   0.0000000E+00   0.0000000E+00   0.0000000E+00   0.0000000E+00   0.0000000E+00   0.0000000E+00   0.0000000E+00   0.0000000E+00   0.0000000E+00   4.9523282E-05   7.9320653E-06   0.0000000E+00   0.0000000E+00   7.3282170E-04   3.3604528E-04   5.9658840E-05   0.0000000E+00   3.8569432E-03   2.4157879E-03   9.2370290E-04   1.3041668E-04   1.2812959E-02   9.1868732E-03   4.5925537E-03   1.2512631E-03   3.2506999E-02   2.4995683E-02   1.4214228E-02   5.0403140E-03   6.8782426E-02   5.4954723E-02   3.3502690E-02   1.3571624E-02   1.2738116E-01   1.0393838E-01   6.5892875E-02   2.8728342E-02   2.1266879E-01   1.7557818E-01   1.1382587E-01   5.1734366E-02   3.2710266E-01   2.7218693E-01   1.7882912E-01   8.3193570E-02   4.7343189E-01   3.9663863E-01   2.6283440E-01   1.2381473E-01   6.5936744E-01   5.5562979E-01   3.7024462E-01   1.7550839E-01   9.0258884E-01   7.6349568E-01   5.0987238E-01   2.4247898E-01   1.2636563E+00   1.0517893E+00   6.9848949E-01   3.4018341E-01   2.0330894E+00   1.4913266E+00   1.0017307E+00   6.0001904E-01   4.1477728E+00   2.2158206E+00   1.8206021E+00   1.6255108E+00   9.2722702E+00   3.3797500E+00   4.5034366E+00   4.8882823E+00   1.8893095E+01   5.0377045E+00   1.1283209E+01   1.3186078E+01   3.2020493E+01   7.6814518E+00   2.3895878E+01   0.0000000E+00   0.0000000E+00   0.0000000E+00   0.0000000E+00   0.0000000E+00   0.0000000E+00   0.0000000E+00   0.0000000E+00   0.0000000E+00   0.0000000E+00   0.0000000E+00   0.0000000E+00   0.0000000E+00   0.0000000E+00   0.0000000E+00   0.0000000E+00   0.0000000E+00   0.0000000E+00   0.0000000E+00   0.0000000E+00   0.0000000E+00   0.0000000E+00   0.0000000E+00   0.0000000E+00   0.0000000E+00   0.0000000E+00   0.0000000E+00   0.0000000E+00   0.0000000E+00   0.0000000E+00   0.0000000E+00   0.0000000E+00   0.0000000E+00   0.0000000E+00   0.0000000E+00   0.0000000E+00   0.0000000E+00   0.0000000E+00   0.0000000E+00   0.0000000E+00   0.0000000E+00   0.0000000E+00   0.0000000E+00   0.0000000E+00   0.0000000E+00   0.0000000E+00   0.0000000E+00   0.0000000E+00   0.0000000E+00   0.0000000E+00   0.0000000E+00   0.0000000E+00   0.0000000E+00   0.0000000E+00   0.0000000E+00   0.0000000E+00   0.0000000E+00   0.0000000E+00   0.0000000E+00   0.0000000E+00   0.0000000E+00   0.0000000E+00   0.0000000E+00   0.0000000E+00   0.0000000E+00   0.0000000E+00   0.0000000E+00   0.0000000E+00   0.0000000E+00   0.0000000E+00   0.0000000E+00   0.0000000E+00   0.0000000E+00   0.0000000E+00   0.0000000E+00   0.0000000E+00   0.0000000E+00   0.0000000E+00   0.0000000E+00   0.0000000E+00   0.0000000E+00   0.0000000E+00   0.0000000E+00   0.0000000E+00   0.0000000E+00   0.0000000E+00   0.0000000E+00   0.0000000E+00   0.0000000E+00   0.0000000E+00   0.0000000E+00   0.0000000E+00   0.0000000E+00   0.0000000E+00   0.0000000E+00   0.0000000E+00   0.0000000E+00   0.0000000E+00   0.0000000E+00   0.0000000E+00   0.0000000E+00   0.0000000E+00   0.0000000E+00   0.0000000E+00   0.0000000E+00   0.0000000E+00   0.0000000E+00   0.0000000E+00   0.0000000E+00   0.0000000E+00   0.0000000E+00   0.0000000E+00   0.0000000E+00   0.0000000E+00   0.0000000E+00   0.0000000E+00   0.0000000E+00   0.0000000E+00   0.0000000E+00   0.0000000E+00   0.0000000E+00   0.0000000E+00   0.0000000E+00   0.0000000E+00   0.0000000E+00   0.0000000E+00   0.0000000E+00   0.0000000E+00   0.0000000E+00   0.0000000E+00   0.0000000E+00   0.0000000E+00   0.0000000E+00   0.0000000E+00   0.0000000E+00   0.0000000E+00   0.0000000E+00   0.0000000E+00   0.0000000E+00   0.0000000E+00   0.0000000E+00   0.0000000E+00   0.0000000E+00   0.0000000E+00   0.0000000E+00   0.0000000E+00   0.0000000E+00   0.0000000E+00   0.0000000E+00   0.0000000E+00   0.0000000E+00   0.0000000E+00   0.0000000E+00   0.0000000E+00   0.0000000E+00   0.0000000E+00   0.0000000E+00   0.0000000E+00   0.0000000E+00   0.0000000E+00   0.0000000E+00   0.0000000E+00   0.0000000E+00   0.0000000E+00   0.0000000E+00   0.0000000E+00   0.0000000E+00   0.0000000E+00   0.0000000E+00   0.0000000E+00   0.0000000E+00   0.0000000E+00   0.0000000E+00   0.0000000E+00   0.0000000E+00   0.0000000E+00   0.0000000E+00   0.0000000E+00   0.0000000E+00   0.0000000E+00   0.0000000E+00   0.0000000E+00   0.0000000E+00   0.0000000E+00   0.0000000E+00   0.0000000E+00   0.0000000E+00   0.0000000E+00   0.0000000E+00   0.0000000E+00   0.0000000E+00   0.0000000E+00   0.0000000E+00   0.0000000E+00   0.0000000E+00   0.0000000E+00   0.0000000E+00   0.0000000E+00   0.0000000E+00   0.0000000E+00   0.0000000E+00   0.0000000E+00   0.0000000E+00   0.0000000E+00   0.0000000E+00   0.0000000E+00   0.0000000E+00   0.0000000E+00   0.0000000E+00   0.0000000E+00   0.0000000E+00   0.0000000E+00   0.0000000E+00   0.0000000E+00   0.0000000E+00   0.0000000E+00   0.0000000E+00   0.0000000E+00   0.0000000E+00   0.0000000E+00   0.0000000E+00   0.0000000E+00   0.0000000E+00   0.0000000E+00   0.0000000E+00   0.0000000E+00   0.0000000E+00   0.0000000E+00   0.0000000E+00   0.0000000E+00   0.0000000E+00   0.0000000E+00   0.0000000E+00   0.0000000E+00   0.0000000E+00   0.0000000E+00   0.0000000E+00   0.0000000E+00   0.0000000E+00   0.0000000E+00   0.0000000E+00   0.0000000E+00   0.0000000E+00   0.0000000E+00   0.0000000E+00   0.0000000E+00   0.0000000E+00   0.0000000E+00   0.0000000E+00   0.0000000E+00   0.0000000E+00   0.0000000E+00   0.0000000E+00   0.0000000E+00   0.0000000E+00   0.0000000E+00   0.0000000E+00   0.0000000E+00   0.0000000E+00   0.0000000E+00   0.0000000E+00   0.0000000E+00   0.0000000E+00   0.0000000E+00   0.0000000E+00   0.0000000E+00   0.0000000E+00   0.0000000E+00   0.0000000E+00   0.0000000E+00   0.0000000E+00   0.0000000E+00   0.0000000E+00   0.0000000E+00   0.0000000E+00   0.0000000E+00   0.0000000E+00   0.0000000E+00   0.0000000E+00   0.0000000E+00   0.0000000E+00   0.0000000E+00   0.0000000E+00   0.0000000E+00   0.0000000E+00   0.0000000E+00   0.0000000E+00   0.0000000E+00   0.0000000E+00   0.0000000E+00   0.0000000E+00   0.0000000E+00   0.0000000E+00   0.0000000E+00   0.0000000E+00   0.0000000E+00   0.0000000E+00   0.0000000E+00   0.0000000E+00   0.0000000E+00   0.0000000E+00   0.0000000E+00   0.0000000E+00   0.0000000E+00   0.0000000E+00   0.0000000E+00   0.0000000E+00   0.0000000E+00   0.0000000E+00   0.0000000E+00   0.0000000E+00   0.0000000E+00   0.0000000E+00   0.0000000E+00   0.0000000E+00   0.0000000E+00   0.0000000E+00   0.0000000E+00   0.0000000E+00   0.0000000E+00   0.0000000E+00   0.0000000E+00   0.0000000E+00   0.0000000E+00   0.0000000E+00   0.0000000E+00   0.0000000E+00   0.0000000E+00   0.0000000E+00   0.0000000E+00   0.0000000E+00   0.0000000E+00   0.0000000E+00   0.0000000E+00   0.0000000E+00   0.0000000E+00   0.0000000E+00   0.0000000E+00   0.0000000E+00   0.0000000E+00   0.0000000E+00   0.0000000E+00   0.0000000E+00   0.0000000E+00   0.0000000E+00   0.0000000E+00   0.0000000E+00   0.0000000E+00   0.0000000E+00   0.0000000E+00   0.0000000E+00   0.0000000E+00   0.0000000E+00   0.0000000E+00   0.0000000E+00   0.0000000E+00   0.0000000E+00   0.0000000E+00   0.0000000E+00   0.0000000E+00   0.0000000E+00   0.0000000E+00   0.0000000E+00   0.0000000E+00   0.0000000E+00   0.0000000E+00   0.0000000E+00   0.0000000E+00   0.0000000E+00   0.0000000E+00   0.0000000E+00   0.0000000E+00   0.0000000E+00   0.0000000E+00   0.0000000E+00   0.0000000E+00   0.0000000E+00   0.0000000E+00   0.0000000E+00   0.0000000E+00   0.0000000E+00   0.0000000E+00   0.0000000E+00   0.0000000E+00   0.0000000E+00   0.0000000E+00   0.0000000E+00   0.0000000E+00   0.0000000E+00   0.0000000E+00   0.0000000E+00   0.0000000E+00   0.0000000E+00   0.0000000E+00   0.0000000E+00   0.0000000E+00   0.0000000E+00   0.0000000E+00   0.0000000E+00   0.0000000E+00   0.0000000E+00   0.0000000E+00   0.0000000E+00   0.0000000E+00   0.0000000E+00   0.0000000E+00   0.0000000E+00   0.0000000E+00   0.0000000E+00   0.0000000E+00   0.0000000E+00   0.0000000E+00   0.0000000E+00   0.0000000E+00   0.0000000E+00   0.0000000E+00   0.0000000E+00   0.0000000E+00   0.0000000E+00   0.0000000E+00   0.0000000E+00   0.0000000E+00   0.0000000E+00   0.0000000E+00   0.0000000E+00   0.0000000E+00   0.0000000E+00   0.0000000E+00   0.0000000E+00   0.0000000E+00   0.0000000E+00   0.0000000E+00   0.0000000E+00   0.0000000E+00   0.0000000E+00   0.0000000E+00   0.0000000E+00   0.0000000E+00   0.0000000E+00   0.0000000E+00   0.0000000E+00   0.0000000E+00   0.0000000E+00   0.0000000E+00   0.0000000E+00   0.0000000E+00   0.0000000E+00   0.0000000E+00   0.0000000E+00   0.0000000E+00   0.0000000E+00   0.0000000E+00   0.0000000E+00   0.0000000E+00   0.0000000E+00   0.0000000E+00   0.0000000E+00   0.0000000E+00   0.0000000E+00   0.0000000E+00   0.0000000E+00   0.0000000E+00   0.0000000E+00   0.0000000E+00   0.0000000E+00   0.0000000E+00   0.0000000E+00   0.0000000E+00   0.0000000E+00   0.0000000E+00   0.0000000E+00   0.0000000E+00   1.2541915E-01   4.8793435E-02   2.6550218E-02   8.3826773E-02   1.1774347E-01   2.6866096E-01   1.8429537E-01   6.8848349E-02   4.2567890E-02   1.2626201E-01   1.7514420E-01   3.8230252E-01   2.5660285E-01   9.1357715E-02   6.5548956E-02   1.8191716E-01   2.4871096E-01   5.2431625E-01   3.4595206E-01   1.1644679E-01   9.8482363E-02   2.5567141E-01   3.4403476E-01   7.0564008E-01   4.5779496E-01   1.4395186E-01   1.4619493E-01   3.5525572E-01   4.7015670E-01   9.8612559E-01   6.2797105E-01   1.9407220E-01   2.2061455E-01   4.9397576E-01   6.4131945E-01   1.9053885E+00   1.2714013E+00   5.6144321E-01   3.9374155E-01   7.0019591E-01   8.8235366E-01   5.0839138E+00   3.6097972E+00   1.8964520E+00   9.4747746E-01   1.0445025E+00   1.2395127E+00   1.2850595E+01   9.1827888E+00   4.9671607E+00   2.2787137E+00   1.6795686E+00   1.7938479E+00   2.7312616E+01   1.9154465E+01   1.0259658E+01   4.5912561E+00   2.7937667E+00   2.6681273E+00   4.7023548E+01   3.2331867E+01   1.6999632E+01   7.5922351E+00   4.4918637E+00   4.0167198E+00   6.5068726E+01   4.3959831E+01   2.2780493E+01   1.0546727E+01   6.8390741E+00   6.0107131E+00   7.2273552E+01   4.8345970E+01   2.5148045E+01   1.3188271E+01   1.0066863E+01   8.8298321E+00   6.5129990E+01   4.3785858E+01   2.4552128E+01   1.6725624E+01   1.4565010E+01   1.2641918E+01   5.0909248E+01   3.6247688E+01   2.5875011E+01   2.2760710E+01   2.0598425E+01   1.7586557E+01   4.3630035E+01   3.6620598E+01   3.3174072E+01   3.1499949E+01   2.8272573E+01   2.3805494E+01   5.1762051E+01   4.7433937E+01   4.5052677E+01   4.2583012E+01   3.7763191E+01   3.1486851E+01   6.9222824E+01   6.3773102E+01   6.0116253E+01   5.6162323E+01   4.9385704E+01   4.0859028E+01   9.2239449E+01   8.4321068E+01   7.8600487E+01   7.2761528E+01   6.3507023E+01   5.2157200E+01   1.2255548E+02   1.1024473E+02   1.0120566E+02   9.2804207E+01   8.0434303E+01   6.5625084E+01   1.6173709E+02   1.4224684E+02   1.2815314E+02   1.1653052E+02   1.0044314E+02   8.1564171E+01   2.1133028E+02   1.8008470E+02   1.5916792E+02   1.4406094E+02   1.2389571E+02   1.0048999E+02   2.7089044E+02   2.2230345E+02   1.9349161E+02   1.7572989E+02   1.5160172E+02   1.2348123E+02   3.3930652E+02   2.6640234E+02   2.3089362E+02   2.1300948E+02   1.8565317E+02   1.5279761E+02   4.1210944E+02   3.0880862E+02   2.7283905E+02   2.6025897E+02   2.3085521E+02   1.9286185E+02   4.8235056E+02   3.4681409E+02   3.2578244E+02   3.2762216E+02   2.9710529E+02   2.5190974E+02   5.4396527E+02   3.8655618E+02   4.0680783E+02   4.3533774E+02   4.0273889E+02   3.4443582E+02   5.9715735E+02   4.4626276E+02   5.4806940E+02   6.1652020E+02   5.7682141E+02   4.9358359E+02   6.6691168E+02   5.7182660E+02   7.9701172E+02   9.1320044E+02   8.5718207E+02   7.3081891E+02   8.2802118E+02   8.5279022E+02   1.2051467E+03   1.3663622E+03   1.2835988E+03   1.0904244E+03   1.2518992E+03   1.4251370E+03   1.8241693E+03   2.0129457E+03   1.8862739E+03   1.5999352E+03   2.2634973E+03   2.5453511E+03   2.7943259E+03   2.8808674E+03   2.6771145E+03   2.2657971E+03   4.2214487E+03   4.5836357E+03   4.3463462E+03   4.0329053E+03   3.6356704E+03   3.0620415E+03   6.7997480E+03   7.3219707E+03   6.3696001E+03   5.3950757E+03   4.6999697E+03   3.9276406E+03   8.9214160E+03   9.7400723E+03   8.2727969E+03   6.7150498E+03   5.7334976E+03   4.7708970E+03   1.0003121E+04   1.1192584E+04   9.6240801E+03   7.7791309E+03   6.6178369E+03   5.5057192E+03   1.0323695E+04   1.1754474E+04   1.0354744E+04   8.4974736E+03   7.2806797E+03   6.0757681E+03   1.0322252E+04   1.1911323E+04   1.0694030E+04   8.9351045E+03   7.7245034E+03   6.4686245E+03   1.0244167E+04   1.1923337E+04   1.0843970E+04   9.1782373E+03   7.9850103E+03   6.7028096E+03   1.0190894E+04   1.1899337E+04   1.0889685E+04   9.2803008E+03   8.1008159E+03   6.8084185E+03   1.0182746E+04   1.1873783E+04   1.0868990E+04   9.2769893E+03   8.1045425E+03   6.8134541E+03   1.0211104E+04   1.1850241E+04   1.0796576E+04   9.1868428E+03   8.0156221E+03   6.7356914E+03   1.0084462E+04   1.1664660E+04   1.0592164E+04   8.9930352E+03   7.8375962E+03   6.5821221E+03   9.7851709E+03   1.1299181E+04   1.0245996E+04   8.6931660E+03   7.5712856E+03   6.3546362E+03   9.3300342E+03   1.0764115E+04   9.7630439E+03   8.2897783E+03   7.2189248E+03   6.0554717E+03   8.7461563E+03   1.0083795E+04   9.1577275E+03   7.7920586E+03   6.7876333E+03   5.6906382E+03   8.0668818E+03   9.2828604E+03   8.4534199E+03   7.2160586E+03   6.2902617E+03   5.2709854E+03   7.3245581E+03   8.4103252E+03   7.6800620E+03   6.5822715E+03   5.7446563E+03   4.8118374E+03   6.5513970E+03   7.5114038E+03   6.8726504E+03   5.9150366E+03   5.1717524E+03   4.3313159E+03   5.7650918E+03   6.6118149E+03   6.0634717E+03   5.2434766E+03   4.5951416E+03   3.8491091E+03   4.9715122E+03   5.7254341E+03   5.2827993E+03   4.5964497E+03   4.0381133E+03   3.3849670E+03   4.1894160E+03   4.8775571E+03   4.5606489E+03   3.9976394E+03   3.5200359E+03   2.9551248E+03   3.4693489E+03   4.0965015E+03   3.9161436E+03   3.4602500E+03   3.0516025E+03   2.5682534E+03   2.8123955E+03   3.4050701E+03   3.3590227E+03   2.9906917E+03   2.6353462E+03   2.2263447E+03   2.3106501E+03   2.8207188E+03   2.8943386E+03   2.5959622E+03   2.2760547E+03   1.9285619E+03   2.2710046E+03   2.4934958E+03   2.2805442E+03   1.9814381E+03   1.6761787E+03   1.7503003E+03   2.0747661E+03   2.0170398E+03   1.7509009E+03   1.4711442E+03   1.5884719E+03   1.7324314E+03   1.5621846E+03   1.3088854E+03   1.1889575E+03   1.3528292E+03   1.3608663E+03   1.1718090E+03   9.6149261E+02   1.0697440E+03   1.0186265E+03   7.3595013E+02   7.8509015E+02   7.3737524E+02   5.1785364E+02   1.3173294E-01   1.3313453E-01   1.2852381E-01   1.2151968E-01   1.1393471E-01   1.0678092E-01   1.0068562E-01   9.6051916E-02   9.3156353E-02   1.9466293E-01   1.9582295E-01   1.8841863E-01   1.7768934E-01   1.6612083E-01   1.5521786E-01   1.4593561E-01   1.3888900E-01   1.3449210E-01   2.7427810E-01   2.7448767E-01   2.6321408E-01   2.4758781E-01   2.3083445E-01   2.1506414E-01   2.0165080E-01   1.9148283E-01   1.8514770E-01   3.7610763E-01   3.7427217E-01   3.5760394E-01   3.3541179E-01   3.1178695E-01   2.8959346E-01   2.7074128E-01   2.5647327E-01   2.4759813E-01   5.0931013E-01   5.0380570E-01   4.7941971E-01   4.4808486E-01   4.1502091E-01   3.8405856E-01   3.5781023E-01   3.3798629E-01   3.2567900E-01   6.8781263E-01   6.7595786E-01   6.4010596E-01   5.9557772E-01   5.4908597E-01   5.0574982E-01   4.6912992E-01   4.4155616E-01   4.2448044E-01   9.3325955E-01   9.0934336E-01   8.5552001E-01   7.9130596E-01   7.2520149E-01   6.6401029E-01   6.1256325E-01   5.7399255E-01   5.5018735E-01   1.2812182E+00   1.2315049E+00   1.1475420E+00   1.0528747E+00   9.5756656E-01   8.7033480E-01   7.9756171E-01   7.4333024E-01   7.1000642E-01   1.7898110E+00   1.6839373E+00   1.5466384E+00   1.4032949E+00   1.2639042E+00   1.1386192E+00   1.0353011E+00   9.5893663E-01   9.1227382E-01   2.5457449E+00   2.3266308E+00   2.0944984E+00   1.8723401E+00   1.6661255E+00   1.4855236E+00   1.3389666E+00   1.2318120E+00   1.1667904E+00   3.6631088E+00   3.2386506E+00   2.8448610E+00   2.4970727E+00   2.1906259E+00   1.9307113E+00   1.7240646E+00   1.5750164E+00   1.4853488E+00   5.2732544E+00   4.5127120E+00   3.8611259E+00   3.3208337E+00   2.8679378E+00   2.4969523E+00   2.2089031E+00   2.0044625E+00   1.8827283E+00   7.5097675E+00   6.2458887E+00   5.2111316E+00   4.3907442E+00   3.7319458E+00   3.2104506E+00   2.8157029E+00   2.5405693E+00   2.3786731E+00   1.0496485E+01   8.5311422E+00   6.9614782E+00   5.7549233E+00   4.8194389E+00   4.1020689E+00   3.5729823E+00   3.2114134E+00   3.0014834E+00   1.4347164E+01   1.1454014E+01   9.1746120E+00   7.4617319E+00   6.1716132E+00   5.2107430E+00   4.5202961E+00   4.0583110E+00   3.7940636E+00   1.9177288E+01   1.5095353E+01   1.1911356E+01   9.5636730E+00   7.8399415E+00   6.5909929E+00   5.7168746E+00   5.1450787E+00   4.8234739E+00   2.5115505E+01   1.9540424E+01   1.5240675E+01   1.2129121E+01   9.8995781E+00   8.3272371E+00   7.2561641E+00   6.5724306E+00   6.1951008E+00   3.2304821E+01   2.4893261E+01   1.9259438E+01   1.5265751E+01   1.2474134E+01   1.0557940E+01   9.2883701E+00   8.4988060E+00   8.0722027E+00   4.0914124E+01   3.1301771E+01   2.4128561E+01   1.9161566E+01   1.5776340E+01   1.3512705E+01   1.2052720E+01   1.1168269E+01   1.0700925E+01   5.1166466E+01   3.9008926E+01   3.0137117E+01   2.4150820E+01   2.0168512E+01   1.7563883E+01   1.5919600E+01   1.4944615E+01   1.4439194E+01   6.3416561E+01   4.8452423E+01   3.7807526E+01   3.0810946E+01   2.6243759E+01   2.3290379E+01   2.1438948E+01   2.0347834E+01   1.9785604E+01   7.8322678E+01   6.0434799E+01   4.8049217E+01   4.0089043E+01   3.4921741E+01   3.1545439E+01   2.9385798E+01   2.8084028E+01   2.7400236E+01   9.7145470E+01   7.6367126E+01   6.2346973E+01   5.3438263E+01   4.7540112E+01   4.3511868E+01   4.0788540E+01   3.9055191E+01   3.8103748E+01   1.2218731E+02   9.8556938E+01   8.2934624E+01   7.2913788E+01   6.5900436E+01   6.0713547E+01   5.6916771E+01   5.4331024E+01   5.2839478E+01   1.5739090E+02   1.3050256E+02   1.1289478E+02   1.0117029E+02   9.2216995E+01   8.4944221E+01   7.9198227E+01   7.5059143E+01   7.2579788E+01   2.0923004E+02   1.7722948E+02   1.5618053E+02   1.4134641E+02   1.2896140E+02   1.1810316E+02   1.0905573E+02   1.0230044E+02   9.8160431E+01   2.8824167E+02   2.4595657E+02   2.1770721E+02   1.9691884E+02   1.7865120E+02   1.6198346E+02   1.4770064E+02   1.3682394E+02   1.3007069E+02   4.1094943E+02   3.4728082E+02   3.0383279E+02   2.7173083E+02   2.4371545E+02   2.1810323E+02   1.9596643E+02   1.7894536E+02   1.6829433E+02   6.0040692E+02   4.9597418E+02   4.2297021E+02   3.7027594E+02   3.2653345E+02   2.8765335E+02   2.5424413E+02   2.2846979E+02   2.1226457E+02   8.8299841E+02   7.0955756E+02   5.8519647E+02   4.9768335E+02   4.2945465E+02   3.7148624E+02   3.2247580E+02   2.8471796E+02   2.6091360E+02   1.2803921E+03   1.0032377E+03   7.9961829E+02   6.5856812E+02   5.5434125E+02   4.6994260E+02   4.0013153E+02   3.4660867E+02   3.1282916E+02   1.7985389E+03   1.3819935E+03   1.0695360E+03   8.5446783E+02   7.0136877E+02   5.8236926E+02   4.8610489E+02   4.1278305E+02   3.6650867E+02   2.4177578E+03   1.8331368E+03   1.3874304E+03   1.0808076E+03   8.6738745E+02   7.0635052E+02   5.7845868E+02   4.8164273E+02   4.2056018E+02   3.0901123E+03   2.3240002E+03   1.7329872E+03   1.3253816E+03   1.0449056E+03   8.3710266E+02   6.7410559E+02   5.5123004E+02   4.7370697E+02   3.7486646E+03   2.8081497E+03   2.0764412E+03   1.5698754E+03   1.2227002E+03   9.6768506E+02   7.6885895E+02   6.1921387E+02   5.2473969E+02   4.3279697E+03   3.2389705E+03   2.3867463E+03   1.7943931E+03   1.3882031E+03   1.0902750E+03   8.5813214E+02   6.8325574E+02   5.7269836E+02   4.7841348E+03   3.5836289E+03   2.6406619E+03   1.9829977E+03   1.5306755E+03   1.1978804E+03   9.3774579E+02   7.4125250E+02   6.1678998E+02   5.1032822E+03   3.8297014E+03   2.8276355E+03   2.1270466E+03   1.6432781E+03   1.2853624E+03   1.0041290E+03   7.9092926E+02   6.5560022E+02   5.2961357E+03   3.9824365E+03   2.9487261E+03   2.2249734E+03   1.7231973E+03   1.3496288E+03   1.0544066E+03   8.2977344E+02   6.8690918E+02   5.3849346E+03   4.0561953E+03   3.0115588E+03   2.2797029E+03   1.7705945E+03   1.3894415E+03   1.0866962E+03   8.5561511E+02   7.0842010E+02   5.3914131E+03   4.0658579E+03   3.0250129E+03   2.2957983E+03   1.7873418E+03   1.4051074E+03   1.1003729E+03   8.6724927E+02   7.1859357E+02   5.3299302E+03   4.0218208E+03   2.9960071E+03   2.2776055E+03   1.7760663E+03   1.3981031E+03   1.0960892E+03   8.6473657E+02   7.1712140E+02   5.2069473E+03   3.9294326E+03   2.9288970E+03   2.2286877E+03   1.7396692E+03   1.3707069E+03   1.0755560E+03   8.4932507E+02   7.0494720E+02   5.0247070E+03   3.7912478E+03   2.8265730E+03   2.1521084E+03   1.6811433E+03   1.3256511E+03   1.0411604E+03   8.2308423E+02   6.8392883E+02   4.7855190E+03   3.6098145E+03   2.6919004E+03   2.0509355E+03   1.6035532E+03   1.2658152E+03   9.9552582E+02   7.8840143E+02   6.5629449E+02   4.4944824E+03   3.3895061E+03   2.5287217E+03   1.9286293E+03   1.5100233E+03   1.1939987E+03   9.4113770E+02   7.4749744E+02   6.2408978E+02   4.1604229E+03   3.1371804E+03   2.3422629E+03   1.7892349E+03   1.4037905E+03   1.1128390E+03   8.8014337E+02   7.0212848E+02   5.8880994E+02   3.7956165E+03   2.8620564E+03   2.1391313E+03   1.6374642E+03   1.2882919E+03   1.0248767E+03   8.1438068E+02   6.5357092E+02   5.5135370E+02   3.4147939E+03   2.5751655E+03   1.9270867E+03   1.4786520E+03   1.1672235E+03   9.3267969E+02   7.4556775E+02   6.0289038E+02   5.1235205E+02   3.0339929E+03   2.2886023E+03   1.7146389E+03   1.3185735E+03   1.0444740E+03   8.3887280E+02   6.7544788E+02   5.5118884E+02   4.7249945E+02   2.6690530E+03   2.0144446E+03   1.5104120E+03   1.1631028E+03   9.2395270E+02   7.4604095E+02   6.0571295E+02   4.9955035E+02   4.3250519E+02   2.3333960E+03   1.7632905E+03   1.3222550E+03   1.0177485E+03   8.0935138E+02   6.5655627E+02   5.3781812E+02   4.4883463E+02   3.9289758E+02   2.0353000E+03   1.5424032E+03   1.1562234E+03   8.8713593E+02   7.0391614E+02   5.7246436E+02   4.7290170E+02   3.9959409E+02   3.5392145E+02   1.7762981E+03   1.3541068E+03   1.0155994E+03   7.7452301E+02   6.1033911E+02   4.9557974E+02   4.1192874E+02   3.5218289E+02   3.1559277E+02   1.5524083E+03   1.1953591E+03   8.9988269E+02   6.8134839E+02   5.3065424E+02   4.2767392E+02   3.5600137E+02   3.0705774E+02   2.7795242E+02   1.3585598E+03   1.0590699E+03   8.0434070E+02   6.0662714E+02   4.6583710E+02   3.7037238E+02   3.0656610E+02   2.6516107E+02   2.4150876E+02   1.1938214E+03   9.3871997E+02   7.2132269E+02   5.4590631E+02   4.1500040E+02   3.2449185E+02   2.6505670E+02   2.2793385E+02   2.0750928E+02   1.0608813E+03   8.3481512E+02   6.4512274E+02   4.9218845E+02   3.7404846E+02   2.8894745E+02   2.3198508E+02   1.9660298E+02   1.7744702E+02   9.5477380E+02   7.5295807E+02   5.7921625E+02   4.4181940E+02   3.3696674E+02   2.5960034E+02   2.0576405E+02   1.7117337E+02   1.5209366E+02   8.6026495E+02   6.8851398E+02   5.3081879E+02   4.0084418E+02   3.0281876E+02   2.3217204E+02   1.8270097E+02   1.4984657E+02   1.3100366E+02   7.4378113E+02   6.2520148E+02   4.9252615E+02   3.7263046E+02   2.7703528E+02   2.0764226E+02   1.6061566E+02   1.3011754E+02   1.1248636E+02   5.5177606E+02   5.2814197E+02   4.4295557E+02   3.4450595E+02   2.5579469E+02   1.8717210E+02   1.4025630E+02   1.1117961E+02   9.5128326E+01   3.5617078E+02   3.5773438E+02   3.4736328E+02   2.9320242E+02   2.2452931E+02   1.6409518E+02   1.2055029E+02   9.3593361E+01   7.9269577E+01   2.5692090E+02   2.1026807E+02   1.9989577E+02   1.6661821E+02   1.2268666E+02   8.6588707E+01   6.4145187E+01   5.2696259E+01   1.4446671E+02   1.0212358E+02   7.2308792E+01   4.4389126E+01   2.4178272E+01   1.2850818E+01   9.0544800E+01   4.5882092E+01   2.0402269E+01   7.1559854E+00   9.2171200E-02   9.3156345E-02   9.6051931E-02   1.0068560E-01   1.0678092E-01   1.1393476E-01   1.2151971E-01   1.2852381E-01   1.3299754E-01   1.3449208E-01   1.3888901E-01   1.4593564E-01   1.5521786E-01   1.6612084E-01   1.7768937E-01   1.8841869E-01   1.8299636E-01   1.8514770E-01   1.9148278E-01   2.0165078E-01   2.1506414E-01   2.3083451E-01   2.4758779E-01   2.6321414E-01   2.4458730E-01   2.4759811E-01   2.5647327E-01   2.7074125E-01   2.8959349E-01   3.1178695E-01   3.3541185E-01   3.5760403E-01   3.2150882E-01   3.2567897E-01   3.3798641E-01   3.5781023E-01   3.8405851E-01   4.1502085E-01   4.4808486E-01   4.7941965E-01   4.1870332E-01   4.2448050E-01   4.4155601E-01   4.6912980E-01   5.0574976E-01   5.4908586E-01   5.9557772E-01   6.4010608E-01   5.4214829E-01   5.5018723E-01   5.7399243E-01   6.1256325E-01   6.6401017E-01   7.2520131E-01   7.9130572E-01   8.5552001E-01   6.9877917E-01   7.1000630E-01   7.4333024E-01   7.9756159E-01   8.7033480E-01   9.5756644E-01   1.0528743E+00   1.1475420E+00   8.9659756E-01   9.1227359E-01   9.5893633E-01   1.0353004E+00   1.1386192E+00   1.2639040E+00   1.4032944E+00   1.5466379E+00   1.1450230E+00   1.1667904E+00   1.2318120E+00   1.3389666E+00   1.4855233E+00   1.6661249E+00   1.8723396E+00   2.0944982E+00   1.4554576E+00   1.4853488E+00   1.5750166E+00   1.7240642E+00   1.9307106E+00   2.1906259E+00   2.4970725E+00   2.8448610E+00   1.8423513E+00   1.8827281E+00   2.0044627E+00   2.2089024E+00   2.4969523E+00   2.8679378E+00   3.3208330E+00   3.8611245E+00   2.3252928E+00   2.3786733E+00   2.5405693E+00   2.8157027E+00   3.2104504E+00   3.7319455E+00   4.3907428E+00   5.2111311E+00   2.9327383E+00   3.0014837E+00   3.2114136E+00   3.5729828E+00   4.1020699E+00   4.8194389E+00   5.7549233E+00   6.9614763E+00   3.7082121E+00   3.7940636E+00   4.0583119E+00   4.5202961E+00   5.2107434E+00   6.1716118E+00   7.4617300E+00   9.1746120E+00   4.7199454E+00   4.8234744E+00   5.1450791E+00   5.7168756E+00   6.5909944E+00   7.8399410E+00   9.5636730E+00   1.1911356E+01   6.0749235E+00   6.1951017E+00   6.5724330E+00   7.2561655E+00   8.3272381E+00   9.8995771E+00   1.2129121E+01   1.5240680E+01   7.9379811E+00   8.0722036E+00   8.4988060E+00   9.2883711E+00   1.0557940E+01   1.2474137E+01   1.5265753E+01   1.9259438E+01   1.0555822E+01   1.0700925E+01   1.1168269E+01   1.2052722E+01   1.3512705E+01   1.5776340E+01   1.9161566E+01   2.4128565E+01   1.4284118E+01   1.4439195E+01   1.4944613E+01   1.5919598E+01   1.7563881E+01   2.0168512E+01   2.4150822E+01   3.0137121E+01   1.9613815E+01   1.9785603E+01   2.0347834E+01   2.1438942E+01   2.3290377E+01   2.6243759E+01   3.0810949E+01   3.7807529E+01   2.7188917E+01   2.7400234E+01   2.8084023E+01   2.9385794E+01   3.1545437E+01   3.4921745E+01   4.0089046E+01   4.8049236E+01   3.7802162E+01   3.8103745E+01   3.9055187E+01   4.0788536E+01   4.3511868E+01   4.7540115E+01   5.3438282E+01   6.2346985E+01   5.2353802E+01   5.2839462E+01   5.4331013E+01   5.6916752E+01   6.0713547E+01   6.5900429E+01   7.2913803E+01   8.2934608E+01   7.1756805E+01   7.2579788E+01   7.5059151E+01   7.9198235E+01   8.4944214E+01   9.2217010E+01   1.0117027E+02   1.1289478E+02   9.6770355E+01   9.8160446E+01   1.0230042E+02   1.0905574E+02   1.1810317E+02   1.2896140E+02   1.4134641E+02   1.5618054E+02   1.2778813E+02   1.3007068E+02   1.3682394E+02   1.4770067E+02   1.6198347E+02   1.7865125E+02   1.9691888E+02   2.1770723E+02   1.6467940E+02   1.6829433E+02   1.7894536E+02   1.9596646E+02   2.1810324E+02   2.4371545E+02   2.7173090E+02   3.0383282E+02   2.0674872E+02   2.1226456E+02   2.2846983E+02   2.5424413E+02   2.8765338E+02   3.2653351E+02   3.7027591E+02   4.2297031E+02   2.5279410E+02   2.6091364E+02   2.8471796E+02   3.2247577E+02   3.7148630E+02   4.2945456E+02   4.9768323E+02   5.8519659E+02   3.0128998E+02   3.1282913E+02   3.4660867E+02   4.0013153E+02   4.6994263E+02   5.5434125E+02   6.5856793E+02   7.9961841E+02   3.5068420E+02   3.6650854E+02   4.1278317E+02   4.8610489E+02   5.8236914E+02   7.0136865E+02   8.5446790E+02   1.0695360E+03   3.9965518E+02   4.2056015E+02   4.8164273E+02   5.7845874E+02   7.0635034E+02   8.6738751E+02   1.0808079E+03   1.3874302E+03   4.4715543E+02   4.7370685E+02   5.5123016E+02   6.7410571E+02   8.3710291E+02   1.0449060E+03   1.3253818E+03   1.7329871E+03   4.9235623E+02   5.2473969E+02   6.1921411E+02   7.6885895E+02   9.6768518E+02   1.2227007E+03   1.5698750E+03   2.0764407E+03   5.3476563E+02   5.7269855E+02   6.8325574E+02   8.5813232E+02   1.0902753E+03   1.3882030E+03   1.7943931E+03   2.3867463E+03   5.7404315E+02   6.1679022E+02   7.4125275E+02   9.3774609E+02   1.1978804E+03   1.5306757E+03   1.9829976E+03   2.6406619E+03   6.0907715E+02   6.5560022E+02   7.9092926E+02   1.0041293E+03   1.2853625E+03   1.6432783E+03   2.1270464E+03   2.8276357E+03   6.3775647E+02   6.8690930E+02   8.2977362E+02   1.0544070E+03   1.3496284E+03   1.7231969E+03   2.2249731E+03   2.9487258E+03   6.5774634E+02   7.0842035E+02   8.5561499E+02   1.0866960E+03   1.3894417E+03   1.7705947E+03   2.2797029E+03   3.0115591E+03   6.6739618E+02   7.1859363E+02   8.6724915E+02   1.1003728E+03   1.4051074E+03   1.7873409E+03   2.2957983E+03   3.0250132E+03   6.6627136E+02   7.1712128E+02   8.6473700E+02   1.0960891E+03   1.3981030E+03   1.7760665E+03   2.2776050E+03   2.9960066E+03   6.5521069E+02   7.0494714E+02   8.4932532E+02   1.0755562E+03   1.3707069E+03   1.7396688E+03   2.2286877E+03   2.9288965E+03   6.3599750E+02   6.8392908E+02   8.2308429E+02   1.0411608E+03   1.3256511E+03   1.6811436E+03   2.1521079E+03   2.8265728E+03   6.1080530E+02   6.5629492E+02   7.8840179E+02   9.9552612E+02   1.2658148E+03   1.6035527E+03   2.0509353E+03   2.6919006E+03   5.8161792E+02   6.2408990E+02   7.4749725E+02   9.4113757E+02   1.1939984E+03   1.5100231E+03   1.9286287E+03   2.5287219E+03   5.4983984E+02   5.8881030E+02   7.0212848E+02   8.8014368E+02   1.1128387E+03   1.4037899E+03   1.7892343E+03   2.3422627E+03   5.1623376E+02   5.5135382E+02   6.5357104E+02   8.1438007E+02   1.0248763E+03   1.2882917E+03   1.6374642E+03   2.1391316E+03   4.8127643E+02   5.1235205E+02   6.0289026E+02   7.4556750E+02   9.3267932E+02   1.1672235E+03   1.4786517E+03   1.9270872E+03   4.4551807E+02   4.7249936E+02   5.5118872E+02   6.7544727E+02   8.3887256E+02   1.0444735E+03   1.3185732E+03   1.7146388E+03   4.0954367E+02   4.3250507E+02   4.9954987E+02   6.0571259E+02   7.4604065E+02   9.2395239E+02   1.1631025E+03   1.5104122E+03   3.7377505E+02   3.9289758E+02   4.4883438E+02   5.3781787E+02   6.5655603E+02   8.0935089E+02   1.0177482E+03   1.3222552E+03   3.3836240E+02   3.5392130E+02   3.9959384E+02   4.7290143E+02   5.7246411E+02   7.0391595E+02   8.8713593E+02   1.1562235E+03   3.0321707E+02   3.1559268E+02   3.5218283E+02   4.1192856E+02   4.9557962E+02   6.1033893E+02   7.7452301E+02   1.0155994E+03   2.6823999E+02   2.7795224E+02   3.0705765E+02   3.5600128E+02   4.2767374E+02   5.3065405E+02   6.8134845E+02   8.9988257E+02   2.3377689E+02   2.4150873E+02   2.6516101E+02   3.0656598E+02   3.7037228E+02   4.6583710E+02   6.0662701E+02   8.0434082E+02   2.0097583E+02   2.0750929E+02   2.2793381E+02   2.6505661E+02   3.2449173E+02   4.1500052E+02   5.4590625E+02   7.2132257E+02   1.7139015E+02   1.7744699E+02   1.9660301E+02   2.3198505E+02   2.8894742E+02   3.7404843E+02   4.9218839E+02   6.4512268E+02   1.4600887E+02   1.5209372E+02   1.7117334E+02   2.0576405E+02   2.5960037E+02   3.3696677E+02   4.4181940E+02   5.7921625E+02   1.2486216E+02   1.3100366E+02   1.4984656E+02   1.8270097E+02   2.3217207E+02   3.0281879E+02   4.0084427E+02   5.3081879E+02   1.0668944E+02   1.1248637E+02   1.3011751E+02   1.6061565E+02   2.0764227E+02   2.7703534E+02   3.7263052E+02   4.9252631E+02   8.9954422E+01   9.5128288E+01   1.1117961E+02   1.4025632E+02   1.8717210E+02   2.5579471E+02   3.4450589E+02   4.4295563E+02   7.4789337E+01   7.9269516E+01   9.3593346E+01   1.2055029E+02   1.6409520E+02   2.2452931E+02   2.9320245E+02   3.4736325E+02   4.9221481E+01   5.2696243E+01   6.4145149E+01   8.6588692E+01   1.2268670E+02   1.6661827E+02   1.9989581E+02   2.1026802E+02   9.3860884E+00   1.2850821E+01   2.4178261E+01   4.4389111E+01   7.2308769E+01   1.0212354E+02   1.4446672E+02   2.9818664E+00   7.1560006E+00   2.0402273E+01   4.5882095E+01   9.0544807E+01   1.3313457E-01   1.3173296E-01   1.1774351E-01   8.3826795E-02   2.6550239E-02   4.8793416E-02   1.2541918E-01   1.9582295E-01   1.9466299E-01   1.7514428E-01   1.2626207E-01   4.2567942E-02   6.8848312E-02   1.8429534E-01   2.6866099E-01   2.7448779E-01   2.7427819E-01   2.4871105E-01   1.8191724E-01   6.5549031E-02   9.1357663E-02   2.5660279E-01   3.8230246E-01   3.7427214E-01   3.7610766E-01   3.4403485E-01   2.5567147E-01   9.8482519E-02   1.1644672E-01   3.4595194E-01   5.2431625E-01   5.0380570E-01   5.0931025E-01   4.7015679E-01   3.5525587E-01   1.4619514E-01   1.4395164E-01   4.5779493E-01   7.0563996E-01   6.7595792E-01   6.8781275E-01   6.4131957E-01   4.9397597E-01   2.2061478E-01   1.9407205E-01   6.2797093E-01   9.8612577E-01   9.0934348E-01   9.3325973E-01   8.8235426E-01   7.0019609E-01   3.9374149E-01   5.6144381E-01   1.2714013E+00   1.9053875E+00   1.2315048E+00   1.2812186E+00   1.2395128E+00   1.0445029E+00   9.4747758E-01   1.8964522E+00   3.6097982E+00   5.0839157E+00   1.6839368E+00   1.7898116E+00   1.7938484E+00   1.6795692E+00   2.2787137E+00   4.9671617E+00   9.1827917E+00   1.2850597E+01   2.3266308E+00   2.5457451E+00   2.6681280E+00   2.7937672E+00   4.5912571E+00   1.0259660E+01   1.9154467E+01   2.7312616E+01   3.2386510E+00   3.6631095E+00   4.0167217E+00   4.4918647E+00   7.5922370E+00   1.6999634E+01   3.2331879E+01   4.7023567E+01   4.5127125E+00   5.2732558E+00   6.0107145E+00   6.8390741E+00   1.0546725E+01   2.2780493E+01   4.3959839E+01   6.5068733E+01   6.2458911E+00   7.5097694E+00   8.8298330E+00   1.0066864E+01   1.3188272E+01   2.5148054E+01   4.8345985E+01   7.2273582E+01   8.5311441E+00   1.0496488E+01   1.2641922E+01   1.4565019E+01   1.6725628E+01   2.4552135E+01   4.3785873E+01   6.5130028E+01   1.1454017E+01   1.4347169E+01   1.7586563E+01   2.0598427E+01   2.2760714E+01   2.5875013E+01   3.6247688E+01   5.0909264E+01   1.5095352E+01   1.9177301E+01   2.3805492E+01   2.8272581E+01   3.1499945E+01   3.3174076E+01   3.6620605E+01   4.3630032E+01   1.9540428E+01   2.5115509E+01   3.1486864E+01   3.7763195E+01   4.2583019E+01   4.5052673E+01   4.7433933E+01   5.1762043E+01   2.4893263E+01   3.2304829E+01   4.0859035E+01   4.9385731E+01   5.6162331E+01   6.0116261E+01   6.3773106E+01   6.9222824E+01   3.1301765E+01   4.0914146E+01   5.2157211E+01   6.3507046E+01   7.2761551E+01   7.8600517E+01   8.4321083E+01   9.2239479E+01   3.9008938E+01   5.1166473E+01   6.5625107E+01   8.0434303E+01   9.2804245E+01   1.0120568E+02   1.1024477E+02   1.2255550E+02   4.8452438E+01   6.3416573E+01   8.1564178E+01   1.0044316E+02   1.1653052E+02   1.2815318E+02   1.4224684E+02   1.6173712E+02   6.0434807E+01   7.8322685E+01   1.0049001E+02   1.2389571E+02   1.4406099E+02   1.5916795E+02   1.8008479E+02   2.1133029E+02   7.6367126E+01   9.7145531E+01   1.2348125E+02   1.5160170E+02   1.7572989E+02   1.9349165E+02   2.2230345E+02   2.7089047E+02   9.8556938E+01   1.2218736E+02   1.5279764E+02   1.8565321E+02   2.1300954E+02   2.3089362E+02   2.6640240E+02   3.3930667E+02   1.3050255E+02   1.5739093E+02   1.9286185E+02   2.3085526E+02   2.6025909E+02   2.7283908E+02   3.0880865E+02   4.1210956E+02   1.7722948E+02   2.0923009E+02   2.5190979E+02   2.9710538E+02   3.2762216E+02   3.2578253E+02   3.4681409E+02   4.8235062E+02   2.4595662E+02   2.8824170E+02   3.4443585E+02   4.0273895E+02   4.3533786E+02   4.0680786E+02   3.8655618E+02   5.4396533E+02   3.4728082E+02   4.1094949E+02   4.9358368E+02   5.7682147E+02   6.1652032E+02   5.4806958E+02   4.4626282E+02   5.9715741E+02   4.9597430E+02   6.0040698E+02   7.3081915E+02   8.5718225E+02   9.1320056E+02   7.9701190E+02   5.7182678E+02   6.6691187E+02   7.0955750E+02   8.8299860E+02   1.0904243E+03   1.2835988E+03   1.3663621E+03   1.2051470E+03   8.5279041E+02   8.2802142E+02   1.0032375E+03   1.2803921E+03   1.5999352E+03   1.8862733E+03   2.0129460E+03   1.8241693E+03   1.4251373E+03   1.2518992E+03   1.3819939E+03   1.7985392E+03   2.2657969E+03   2.6771140E+03   2.8808669E+03   2.7943264E+03   2.5453516E+03   2.2634980E+03   1.8331366E+03   2.4177571E+03   3.0620417E+03   3.6356704E+03   4.0329065E+03   4.3463467E+03   4.5836357E+03   4.2214492E+03   2.3240002E+03   3.0901121E+03   3.9276399E+03   4.6999692E+03   5.3950757E+03   6.3696001E+03   7.3219707E+03   6.7997480E+03   2.8081497E+03   3.7486646E+03   4.7708960E+03   5.7334976E+03   6.7150488E+03   8.2727979E+03   9.7400723E+03   8.9214170E+03   3.2389700E+03   4.3279697E+03   5.5057188E+03   6.6178379E+03   7.7791309E+03   9.6240811E+03   1.1192585E+04   1.0003121E+04   3.5836279E+03   4.7841333E+03   6.0757671E+03   7.2806782E+03   8.4974756E+03   1.0354743E+04   1.1754473E+04   1.0323695E+04   3.8297014E+03   5.1032803E+03   6.4686240E+03   7.7245010E+03   8.9351025E+03   1.0694033E+04   1.1911323E+04   1.0322252E+04   3.9824355E+03   5.2961353E+03   6.7028086E+03   7.9850098E+03   9.1782383E+03   1.0843972E+04   1.1923337E+04   1.0244166E+04   4.0561948E+03   5.3849336E+03   6.8084165E+03   8.1008154E+03   9.2802998E+03   1.0889684E+04   1.1899337E+04   1.0190894E+04   4.0658567E+03   5.3914131E+03   6.8134541E+03   8.1045425E+03   9.2769902E+03   1.0868988E+04   1.1873783E+04   1.0182745E+04   4.0218215E+03   5.3299302E+03   6.7356899E+03   8.0156216E+03   9.1868398E+03   1.0796576E+04   1.1850240E+04   1.0211104E+04   3.9294331E+03   5.2069468E+03   6.5821221E+03   7.8375967E+03   8.9930342E+03   1.0592162E+04   1.1664662E+04   1.0084463E+04   3.7912490E+03   5.0247070E+03   6.3546382E+03   7.5712827E+03   8.6931670E+03   1.0245997E+04   1.1299178E+04   9.7851709E+03   3.6098149E+03   4.7855195E+03   6.0554727E+03   7.2189258E+03   8.2897793E+03   9.7630449E+03   1.0764119E+04   9.3300361E+03   3.3895059E+03   4.4944819E+03   5.6906377E+03   6.7876343E+03   7.7920576E+03   9.1577246E+03   1.0083795E+04   8.7461572E+03   3.1371809E+03   4.1604238E+03   5.2709858E+03   6.2902627E+03   7.2160581E+03   8.4534189E+03   9.2828594E+03   8.0668818E+03   2.8620571E+03   3.7956172E+03   4.8118374E+03   5.7446572E+03   6.5822720E+03   7.6800649E+03   8.4103262E+03   7.3245581E+03   2.5751655E+03   3.4147942E+03   4.3313164E+03   5.1717524E+03   5.9150366E+03   6.8726499E+03   7.5114043E+03   6.5513970E+03   2.2886023E+03   3.0339919E+03   3.8491091E+03   4.5951416E+03   5.2434746E+03   6.0634707E+03   6.6118145E+03   5.7650918E+03   2.0144451E+03   2.6690540E+03   3.3849668E+03   4.0381140E+03   4.5964497E+03   5.2828003E+03   5.7254341E+03   4.9715132E+03   1.7632903E+03   2.3333958E+03   2.9551248E+03   3.5200361E+03   3.9976382E+03   4.5606504E+03   4.8775566E+03   4.1894165E+03   1.5424030E+03   2.0353008E+03   2.5682537E+03   3.0516023E+03   3.4602500E+03   3.9161436E+03   4.0965000E+03   3.4693479E+03   1.3541071E+03   1.7762986E+03   2.2263452E+03   2.6353462E+03   2.9906917E+03   3.3590222E+03   3.4050706E+03   2.8123943E+03   1.1953591E+03   1.5524081E+03   1.9285623E+03   2.2760547E+03   2.5959624E+03   2.8943386E+03   2.8207180E+03   2.3106494E+03   1.0590698E+03   1.3585599E+03   1.6761786E+03   1.9814384E+03   2.2805444E+03   2.4934958E+03   2.2710056E+03   9.3871997E+02   1.1938210E+03   1.4711439E+03   1.7509009E+03   2.0170405E+03   2.0747664E+03   1.7503004E+03   8.3481500E+02   1.0608815E+03   1.3088853E+03   1.5621841E+03   1.7324312E+03   1.5884722E+03   7.5295831E+02   9.5477380E+02   1.1718091E+03   1.3608661E+03   1.3528296E+03   1.1889574E+03   6.8851392E+02   8.6026495E+02   1.0186263E+03   1.0697441E+03   9.6149237E+02   6.2520142E+02   7.4378082E+02   7.8509027E+02   7.3595050E+02   5.2814197E+02   5.5177631E+02   5.1785364E+02   7.3737524E+02   3.5773431E+02   3.5617078E+02   2.5692081E+02 
Vel 3 2975 float
  0.0000000E+00   0.0000000E+00   0.0000000E+00   0.0000000E+00   0.0000000E+00   0.0000000E+00   0.0000000E+00   0.0000000E+00   0.0000000E+00   0.0000000E+00   0.0000000E+00   0.0000000E+00   0.0000000E+00   0.0000000E+00   0.0000000E+00   0.0000000E+00   0.0000000E+00   0.0000000E+00   0.0000000E+00   0.0000000E+00   0.0000000E+00   0.0000000E+00   0.0000000E+00   0.0000000E+00   0.0000000E+00   0.0000000E+00   0.0000000E+00   0.0000000E+00   0.0000000E+00   0.0000000E+00   0.0000000E+00   0.0000000E+00   0.0000000E+00   0.0000000E+00   0.0000000E+00   0.0000000E+00   0.0000000E+00   0.0000000E+00   0.0000000E+00   0.0000000E+00   0.0000000E+00   0.0000000E+00   0.0000000E+00   0.0000000E+00   0.0000000E+00   0.0000000E+00   0.0000000E+00   0.0000000E+00   0.0000000E+00   0.0000000E+00   0.0000000E+00   0.0000000E+00   0.0000000E+00   0.0000000E+00   0.0000000E+00   0.0000000E+00   0.0000000E+00   0.0000000E+00   0.0000000E+00   0.0000000E+00   0.0000000E+00   0.0000000E+00   0.0000000E+00   0.0000000E+00   0.0000000E+00   0.0000000E+00   0.0000000E+00   0.0000000E+00   0.0000000E+00   0.0000000E+00   0.0000000E+00   0.0000000E+00   0.0000000E+00   0.0000000E+00   0.0000000E+00   0.0000000E+00   0.0000000E+00   0.0000000E+00   0.0000000E+00   0.0000000E+00   0.0000000E+00   0.0000000E+00   0.0000000E+00   0.0000000E+00   0.0000000E+00   0.0000000E+00   0.0000000E+00   0.0000000E+00   0.0000000E+00   0.0000000E+00   0.0000000E+00   0.0000000E+00   0.0000000E+00   0.0000000E+00   0.0000000E+00   0.0000000E+00   0.0000000E+00   0.0000000E+00   0.0000000E+00   0.0000000E+00   0.0000000E+00   0.0000000E+00   0.0000000E+00   0.0000000E+00   0.0000000E+00   0.0000000E+00   0.0000000E+00   0.0000000E+00   0.0000000E+00   0.0000000E+00   0.0000000E+00   0.0000000E+00   0.0000000E+00   0.0000000E+00   0.0000000E+00   0.0000000E+00   0.0000000E+00   0.0000000E+00   0.0000000E+00   0.0000000E+00   0.0000000E+00   0.0000000E+00   0.0000000E+00   0.0000000E+00   0.0000000E+00   0.0000000E+00   0.0000000E+00   0.0000000E+00   0.0000000E+00   0.0000000E+00   0.0000000E+00   0.0000000E+00   0.0000000E+00   0.0000000E+00   0.0000000E+00   0.0000000E+00   0.0000000E+00   0.0000000E+00   0.0000000E+00   0.0000000E+00   0.0000000E+00   0.0000000E+00   0.0000000E+00   0.0000000E+00   0.0000000E+00   0.0000000E+00   0.0000000E+00   0.0000000E+00   0.0000000E+00   0.0000000E+00   0.0000000E+00   0.0000000E+00   0.0000000E+00   0.0000000E+00   0.0000000E+00   0.0000000E+00   0.0000000E+00   0.0000000E+00   0.0000000E+00   0.0000000E+00   0.0000000E+00   0.0000000E+00   0.0000000E+00   0.0000000E+00   0.0000000E+00   0.0000000E+00   0.0000000E+00   0.0000000E+00   0.0000000E+00   0.0000000E+00   0.0000000E+00   0.0000000E+00   0.0000000E+00   0.0000000E+00   0.0000000E+00   0.0000000E+00   0.0000000E+00   0.0000000E+00   0.0000000E+00   0.0000000E+00   0.0000000E+00   0.0000000E+00   0.0000000E+00   0.0000000E+00   0.0000000E+00   0.0000000E+00   0.0000000E+00   0.0000000E+00   0.0000000E+00   0.0000000E+00   0.0000000E+00   0.0000000E+00   0.0000000E+00   0.0000000E+00   0.0000000E+00   0.0000000E+00   0.0000000E+00   0.0000000E+00   0.0000000E+00   0.0000000E+00   0.0000000E+00   0.0000000E+00   0.0000000E+00   0.0000000E+00   0.0000000E+00   0.0000000E+00   0.0000000E+00   0.0000000E+00   0.0000000E+00   0.0000000E+00   0.0000000E+00   0.0000000E+00   0.0000000E+00   0.0000000E+00   0.0000000E+00   0.0000000E+00   0.0000000E+00   0.0000000E+00   0.0000000E+00   0.0000000E+00   0.0000000E+00   0.0000000E+00   0.0000000E+00   0.0000000E+00   0.0000000E+00   0.0000000E+00   0.0000000E+00   0.0000000E+00   0.0000000E+00   0.0000000E+00   0.0000000E+00   0.0000000E+00   0.0000000E+00   0.0000000E+00   0.0000000E+00   0.0000000E+00   0.0000000E+00   0.0000000E+00   0.0000000E+00   0.0000000E+00   0.0000000E+00   0.0000000E+00   0.0000000E+00   0.0000000E+00   0.0000000E+00   0.0000000E+00   0.0000000E+00   0.0000000E+00   0.0000000E+00   0.0000000E+00   0.0000000E+00   0.0000000E+00   0.0000000E+00   0.0000000E+00   0.0000000E+00   0.0000000E+00   0.0000000E+00   0.0000000E+00   0.0000000E+00   0.0000000E+00   0.0000000E+00   0.0000000E+00   0.0000000E+00   0.0000000E+00   0.0000000E+00   0.0000000E+00   0.0000000E+00   0.0000000E+00   0.0000000E+00   0.0000000E+00   0.0000000E+00   0.0000000E+00   0.0000000E+00   0.0000000E+00   0.0000000E+00   0.0000000E+00   0.0000000E+00   0.0000000E+00   0.0000000E+00   0.0000000E+00   0.0000000E+00   0.0000000E+00   0.0000000E+00   0.0000000E+00   0.0000000E+00   0.0000000E+00   0.0000000E+00   0.0000000E+00   0.0000000E+00   0.0000000E+00   0.0000000E+00   0.0000000E+00   0.0000000E+00   0.0000000E+00   0.0000000E+00   0.0000000E+00   0.0000000E+00   0.0000000E+00   0.0000000E+00   0.0000000E+00   0.0000000E+00   0.0000000E+00   0.0000000E+00   0.0000000E+00   0.0000000E+00   0.0000000E+00   0.0000000E+00   0.0000000E+00   0.0000000E+00   0.0000000E+00   0.0000000E+00   0.0000000E+00   0.0000000E+00   0.0000000E+00   0.0000000E+00   0.0000000E+00   0.0000000E+00   0.0000000E+00   0.0000000E+00   0.0000000E+00   0.0000000E+00   0.0000000E+00   0.0000000E+00   0.0000000E+00   0.0000000E+00   0.0000000E+00   0.0000000E+00   0.0000000E+00   0.0000000E+00   0.0000000E+00   0.0000000E+00   0.0000000E+00   0.0000000E+00   0.0000000E+00   0.0000000E+00   0.0000000E+00   0.0000000E+00   0.0000000E+00   0.0000000E+00   0.0000000E+00   0.0000000E+00   0.0000000E+00   0.0000000E+00   0.0000000E+00   0.0000000E+00   0.0000000E+00   0.0000000E+00   0.0000000E+00   0.0000000E+00   0.0000000E+00   0.0000000E+00   0.0000000E+00   0.0000000E+00   0.0000000E+00   0.0000000E+00   0.0000000E+00   0.0000000E+00   0.0000000E+00   0.0000000E+00   0.0000000E+00   0.0000000E+00   0.0000000E+00   0.0000000E+00   0.0000000E+00   0.0000000E+00   0.0000000E+00   0.0000000E+00   0.0000000E+00   0.0000000E+00   0.0000000E+00   0.0000000E+00   0.0000000E+00   0.0000000E+00   0.0000000E+00   0.0000000E+00   0.0000000E+00   0.0000000E+00   0.0000000E+00   0.0000000E+00   0.0000000E+00   0.0000000E+00   0.0000000E+00   0.0000000E+00   0.0000000E+00   0.0000000E+00   0.0000000E+00   0.0000000E+00   0.0000000E+00   0.0000000E+00   0.0000000E+00   0.0000000E+00   0.0000000E+00   0.0000000E+00   0.0000000E+00   0.0000000E+00   0.0000000E+00   0.0000000E+00   0.0000000E+00   0.0000000E+00   0.0000000E+00   0.0000000E+00   0.0000000E+00   0.0000000E+00   0.0000000E+00   0.0000000E+00   0.0000000E+00   0.0000000E+00   0.0000000E+00   0.0000000E+00   0.0000000E+00   0.0000000E+00   0.0000000E+00   0.0000000E+00   0.0000000E+00   0.0000000E+00   0.0000000E+00   0.0000000E+00   0.0000000E+00   0.0000000E+00   0.0000000E+00   0.0000000E+00   0.0000000E+00   0.0000000E+00   0.0000000E+00   0.0000000E+00   0.0000000E+00   0.0000000E+00   0.0000000E+00   0.0000000E+00   0.0000000E+00   0.0000000E+00   0.0000000E+00   0.0000000E+00   0.0000000E+00   0.0000000E+00   0.0000000E+00   0.0000000E+00   0.0000000E+00   0.0000000E+00   0.0000000E+00   0.0000000E+00   0.0000000E+00   0.0000000E+00   0.0000000E+00   0.0000000E+00   0.0000000E+00   0.0000000E+00   0.0000000E+00   0.0000000E+00   0.0000000E+00   0.0000000E+00   0.0000000E+00   0.0000000E+00   0.0000000E+00   0.0000000E+00   0.0000000E+00   0.0000000E+00   0.0000000E+00   0.0000000E+00   0.0000000E+00   0.0000000E+00   0.0000000E+00   0.0000000E+00   0.0000000E+00   0.0000000E+00   0.0000000E+00   0.0000000E+00   0.0000000E+00   0.0000000E+00   0.0000000E+00   0.0000000E+00   0.0000000E+00   0.0000000E+00   0.0000000E+00   0.0000000E+00   0.0000000E+00   0.0000000E+00   0.0000000E+00   0.0000000E+00   0.0000000E+00   0.0000000E+00   0.0000000E+00   0.0000000E+00   0.0000000E+00   0.0000000E+00   0.0000000E+00   0.0000000E+00   0.0000000E+00   0.0000000E+00   0.0000000E+00   0.0000000E+00   0.0000000E+00   0.0000000E+00   0.0000000E+00   0.0000000E+00   0.0000000E+00   0.0000000E+00   0.0000000E+00   0.0000000E+00   0.0000000E+00   0.0000000E+00   0.0000000E+00   0.0000000E+00   0.0000000E+00   0.0000000E+00   0.0000000E+00   0.0000000E+00   0.0000000E+00   0.0000000E+00   0.0000000E+00   0.0000000E+00   0.0000000E+00   0.0000000E+00   0.0000000E+00   0.0000000E+00   0.0000000E+00   0.0000000E+00   0.0000000E+00   0.0000000E+00   0.0000000E+00   0.0000000E+00   0.0000000E+00   0.0000000E+00   0.0000000E+00   0.0000000E+00   0.0000000E+00   0.0000000E+00   0.0000000E+00   0.0000000E+00   0.0000000E+00   0.0000000E+00   0.0000000E+00   0.0000000E+00   0.0000000E+00   0.0000000E+00   0.0000000E+00   0.0000000E+00   0.0000000E+00   0.0000000E+00   0.0000000E+00   0.0000000E+00   0.0000000E+00   0.0000000E+00   0.0000000E+00   0.0000000E+00   0.0000000E+00   0.0000000E+00   0.0000000E+00   0.0000000E+00   0.0000000E+00   0.0000000E+00   0.0000000E+00   0.0000000E+00   0.0000000E+00   0.0000000E+00   0.0000000E+00   0.0000000E+00   0.0000000E+00   0.0000000E+00   0.0000000E+00   0.0000000E+00   0.0000000E+00   0.0000000E+00   0.0000000E+00   0.0000000E+00   0.0000000E+00   0.0000000E+00   0.0000000E+00   0.0000000E+00   0.0000000E+00   0.0000000E+00   0.0000000E+00   0.0000000E+00   0.0000000E+00   0.0000000E+00   0.0000000E+00   0.0000000E+00   0.0000000E+00   0.0000000E+00   0.0000000E+00   0.0000000E+00   0.0000000E+00   0.0000000E+00   0.0000000E+00   0.0000000E+00   0.0000000E+00   0.0000000E+00   0.0000000E+00   0.0000000E+00   0.0000000E+00   0.0000000E+00   0.0000000E+00   0.0000000E+00   0.0000000E+00   0.0000000E+00   0.0000000E+00   0.0000000E+00   0.0000000E+00   0.0000000E+00   0.0000000E+00   0.0000000E+00   0.0000000E+00   0.0000000E+00   0.0000000E+00   0.0000000E+00   0.0000000E+00   0.0000000E+00   0.0000000E+00   0.0000000E+00   0.0000000E+00   0.0000000E+00   0.0000000E+00   0.0000000E+00   0.0000000E+00   0.0000000E+00   0.0000000E+00   0.0000000E+00   0.0000000E+00   0.0000000E+00   0.0000000E+00   0.0000000E+00   0.0000000E+00   0.0000000E+00   0.0000000E+00   0.0000000E+00   0.0000000E+00   0.0000000E+00   0.0000000E+00   0.0000000E+00   0.0000000E+00   0.0000000E+00   0.0000000E+00   0.0000000E+00   0.0000000E+00   0.0000000E+00   0.0000000E+00   0.0000000E+00   0.0000000E+00   0.0000000E+00   0.0000000E+00   0.0000000E+00   0.0000000E+00   0.0000000E+00   0.0000000E+00   0.0000000E+00   0.0000000E+00   0.0000000E+00   0.0000000E+00   0.0000000E+00   0.0000000E+00   0.0000000E+00   0.0000000E+00   0.0000000E+00   0.0000000E+00   0.0000000E+00   0.0000000E+00   0.0000000E+00   0.0000000E+00   0.0000000E+00   0.0000000E+00   0.0000000E+00   0.0000000E+00   0.0000000E+00   0.0000000E+00   0.0000000E+00   0.0000000E+00   0.0000000E+00   0.0000000E+00   0.0000000E+00   0.0000000E+00   0.0000000E+00   0.0000000E+00   0.0000000E+00   0.0000000E+00   0.0000000E+00   0.0000000E+00   0.0000000E+00   0.0000000E+00   0.0000000E+00   0.0000000E+00   0.0000000E+00   0.0000000E+00   0.0000000E+00   0.0000000E+00   0.0000000E+00   0.0000000E+00   0.0000000E+00   0.0000000E+00   0.0000000E+00   0.0000000E+00   0.0000000E+00   0.0000000E+00   0.0000000E+00   0.0000000E+00   0.0000000E+00   0.0000000E+00   0.0000000E+00   0.0000000E+00   0.0000000E+00   0.0000000E+00   0.0000000E+00   0.0000000E+00   0.0000000E+00   0.0000000E+00   0.0000000E+00   0.0000000E+00   0.0000000E+00   0.0000000E+00   0.0000000E+00   0.0000000E+00   0.0000000E+00   0.0000000E+00   0.0000000E+00   0.0000000E+00   0.0000000E+00   0.0000000E+00   0.0000000E+00   0.0000000E+00   0.0000000E+00   0.0000000E+00   0.0000000E+00   0.0000000E+00   0.0000000E+00   0.0000000E+00   0.0000000E+00   0.0000000E+00   0.0000000E+00   0.0000000E+00   0.0000000E+00   0.0000000E+00   0.0000000E+00   0.0000000E+00   0.0000000E+00   0.0000000E+00   0.0000000E+00   0.0000000E+00   0.0000000E+00   0.0000000E+00   0.0000000E+00   0.0000000E+00   0.0000000E+00   0.0000000E+00   0.0000000E+00   0.0000000E+00   0.0000000E+00   0.0000000E+00   0.0000000E+00   0.0000000E+00   0.0000000E+00   0.0000000E+00   0.0000000E+00   0.0000000E+00   0.0000000E+00   0.0000000E+00   0.0000000E+00   0.0000000E+00   0.0000000E+00   0.0000000E+00   0.0000000E+00   0.0000000E+00   0.0000000E+00   0.0000000E+00   0.0000000E+00   0.0000000E+00   0.0000000E+00   0.0000000E+00   0.0000000E+00   0.0000000E+00   0.0000000E+00   0.0000000E+00   0.0000000E+00   0.0000000E+00   0.0000000E+00   0.0000000E+00   0.0000000E+00   0.0000000E+00   0.0000000E+00   0.0000000E+00   0.0000000E+00   0.0000000E+00   0.0000000E+00   0.0000000E+00   0.0000000E+00   0.0000000E+00   0.0000000E+00   0.0000000E+00   0.0000000E+00   0.0000000E+00   0.0000000E+00   0.0000000E+00   0.0000000E+00   0.0000000E+00   0.0000000E+00   0.0000000E+00   0.0000000E+00   0.0000000E+00   0.0000000E+00   0.0000000E+00   0.0000000E+00   0.0000000E+00   0.0000000E+00   0.0000000E+00   0.0000000E+00   0.0000000E+00   0.0000000E+00   0.0000000E+00   0.0000000E+00   0.0000000E+00   0.0000000E+00   0.0000000E+00   0.0000000E+00   0.0000000E+00   0.0000000E+00   0.0000000E+00   0.0000000E+00   0.0000000E+00   0.0000000E+00   0.0000000E+00   0.0000000E+00   0.0000000E+00   0.0000000E+00   0.0000000E+00   0.0000000E+00   0.0000000E+00   0.0000000E+00   0.0000000E+00   0.0000000E+00   0.0000000E+00   0.0000000E+00   0.0000000E+00   0.0000000E+00   0.0000000E+00   0.0000000E+00   0.0000000E+00   0.0000000E+00   0.0000000E+00   0.0000000E+00   0.0000000E+00   0.0000000E+00   0.0000000E+00   0.0000000E+00   0.0000000E+00   0.0000000E+00   0.0000000E+00   0.0000000E+00   0.0000000E+00   0.0000000E+00   0.0000000E+00   0.0000000E+00   0.0000000E+00   0.0000000E+00   0.0000000E+00   0.0000000E+00   0.0000000E+00   0.0000000E+00   0.0000000E+00   0.0000000E+00   0.0000000E+00   0.0000000E+00   0.0000000E+00   0.0000000E+00   0.0000000E+00   0.0000000E+00   0.0000000E+00   0.0000000E+00   0.0000000E+00   0.0000000E+00   0.0000000E+00   0.0000000E+00   0.0000000E+00   0.0000000E+00   0.0000000E+00   0.0000000E+00   0.0000000E+00   0.0000000E+00   0.0000000E+00   0.0000000E+00   0.0000000E+00   0.0000000E+00   0.0000000E+00   0.0000000E+00   0.0000000E+00   0.0000000E+00   0.0000000E+00   0.0000000E+00   0.0000000E+00   0.0000000E+00   0.0000000E+00   0.0000000E+00   0.0000000E+00   0.0000000E+00   0.0000000E+00   0.0000000E+00   0.0000000E+00   0.0000000E+00   0.0000000E+00   0.0000000E+00   0.0000000E+00   0.0000000E+00   0.0000000E+00   0.0000000E+00   0.0000000E+00   0.0000000E+00   0.0000000E+00   0.0000000E+00   0.0000000E+00   0.0000000E+00   0.0000000E+00   0.0000000E+00   0.0000000E+00   0.0000000E+00   0.0000000E+00   0.0000000E+00   0.0000000E+00   0.0000000E+00   0.0000000E+00   0.0000000E+00   0.0000000E+00   0.0000000E+00   0.0000000E+00   0.0000000E+00   0.0000000E+00   0.0000000E+00   0.0000000E+00   0.0000000E+00   0.0000000E+00   0.0000000E+00   0.0000000E+00   0.0000000E+00   0.0000000E+00   0.0000000E+00   0.0000000E+00   0.0000000E+00   0.0000000E+00   0.0000000E+00   0.0000000E+00   0.0000000E+00   0.0000000E+00   0.0000000E+00   0.0000000E+00   0.0000000E+00   0.0000000E+00   0.0000000E+00   0.0000000E+00   0.0000000E+00   0.0000000E+00   0.0000000E+00   0.0000000E+00   0.0000000E+00   0.0000000E+00   0.0000000E+00   0.0000000E+00   0.0000000E+00   0.0000000E+00   0.0000000E+00   0.0000000E+00   0.0000000E+00   0.0000000E+00   0.0000000E+00   0.0000000E+00   0.0000000E+00   0.0000000E+00   0.0000000E+00   0.0000000E+00   0.0000000E+00   0.0000000E+00   0.0000000E+00   0.0000000E+00   0.0000000E+00   0.0000000E+00   0.0000000E+00   0.0000000E+00   0.0000000E+00   0.0000000E+00   0.0000000E+00   0.0000000E+00   0.0000000E+00   0.0000000E+00   0.0000000E+00   0.0000000E+00   0.0000000E+00   0.0000000E+00   0.0000000E+00   0.0000000E+00   0.0000000E+00   0.0000000E+00   0.0000000E+00   0.0000000E+00   0.0000000E+00   0.0000000E+00   0.0000000E+00   0.0000000E+00   0.0000000E+00   0.0000000E+00   0.0000000E+00   0.0000000E+00   0.0000000E+00   0.0000000E+00   0.0000000E+00   0.0000000E+00   0.0000000E+00   0.0000000E+00   0.0000000E+00   0.0000000E+00   0.0000000E+00   0.0000000E+00   0.0000000E+00   0.0000000E+00   0.0000000E+00   0.0000000E+00   0.0000000E+00   0.0000000E+00   0.0000000E+00   0.0000000E+00   0.0000000E+00   0.0000000E+00   0.0000000E+00   0.0000000E+00   0.0000000E+00   0.0000000E+00   0.0000000E+00   0.0000000E+00   0.0000000E+00   0.0000000E+00   0.0000000E+00   0.0000000E+00   0.0000000E+00   0.0000000E+00   0.0000000E+00   0.0000000E+00   0.0000000E+00   0.0000000E+00   0.0000000E+00   0.0000000E+00   0.0000000E+00   0.0000000E+00   0.0000000E+00   0.0000000E+00   0.0000000E+00   0.0000000E+00   0.0000000E+00   0.0000000E+00   0.0000000E+00   0.0000000E+00   0.0000000E+00   0.0000000E+00   0.0000000E+00   0.0000000E+00   0.0000000E+00   0.0000000E+00   0.0000000E+00   0.0000000E+00   0.0000000E+00   0.0000000E+00   0.0000000E+00   0.0000000E+00   0.0000000E+00   0.0000000E+00   0.0000000E+00   0.0000000E+00   0.0000000E+00   0.0000000E+00   0.0000000E+00   0.0000000E+00   0.0000000E+00   0.0000000E+00   0.0000000E+00   0.0000000E+00   0.0000000E+00   0.0000000E+00   0.0000000E+00   0.0000000E+00   0.0000000E+00   0.0000000E+00   0.0000000E+00   0.0000000E+00   0.0000000E+00   0.0000000E+00   0.0000000E+00   0.0000000E+00   0.0000000E+00   0.0000000E+00   0.0000000E+00   0.0000000E+00   0.0000000E+00   0.0000000E+00   0.0000000E+00   0.0000000E+00   0.0000000E+00   0.0000000E+00   0.0000000E+00   0.0000000E+00   0.0000000E+00   0.0000000E+00   0.0000000E+00   0.0000000E+00   0.0000000E+00   0.0000000E+00   0.0000000E+00   0.0000000E+00   0.0000000E+00   0.0000000E+00   0.0000000E+00   0.0000000E+00   0.0000000E+00   0.0000000E+00   0.0000000E+00   0.0000000E+00   0.0000000E+00   0.0000000E+00   0.0000000E+00   0.0000000E+00   0.0000000E+00   0.0000000E+00   0.0000000E+00   0.0000000E+00   0.0000000E+00   0.0000000E+00   0.0000000E+00   0.0000000E+00   0.0000000E+00   0.0000000E+00   0.0000000E+00   0.0000000E+00   0.0000000E+00   0.0000000E+00   0.0000000E+00   0.0000000E+00   0.0000000E+00   0.0000000E+00   0.0000000E+00   0.0000000E+00   0.0000000E+00   0.0000000E+00   0.0000000E+00   0.0000000E+00   0.0000000E+00   0.0000000E+00   0.0000000E+00   0.0000000E+00   0.0000000E+00   0.0000000E+00   0.0000000E+00   0.0000000E+00   0.0000000E+00   0.0000000E+00   0.0000000E+00   0.0000000E+00   0.0000000E+00   0.0000000E+00   0.0000000E+00   0.0000000E+00   0.0000000E+00   0.0000000E+00   0.0000000E+00   0.0000000E+00   0.0000000E+00   0.0000000E+00   0.0000000E+00   0.0000000E+00   0.0000000E+00   0.0000000E+00   0.0000000E+00   0.0000000E+00   0.0000000E+00   0.0000000E+00   0.0000000E+00   0.0000000E+00   0.0000000E+00   0.0000000E+00   0.0000000E+00   0.0000000E+00   0.0000000E+00   0.0000000E+00   0.0000000E+00   0.0000000E+00   0.0000000E+00   0.0000000E+00   0.0000000E+00   0.0000000E+00   0.0000000E+00   0.0000000E+00   0.0000000E+00   0.0000000E+00   0.0000000E+00   0.0000000E+00   0.0000000E+00   0.0000000E+00   0.0000000E+00   0.0000000E+00   0.0000000E+00   0.0000000E+00   0.0000000E+00   0.0000000E+00   0.0000000E+00   0.0000000E+00   0.0000000E+00   0.0000000E+00   0.0000000E+00   0.0000000E+00   0.0000000E+00   0.0000000E+00   0.0000000E+00   0.0000000E+00   0.0000000E+00   0.0000000E+00   0.0000000E+00   0.0000000E+00   0.0000000E+00   0.0000000E+00   0.0000000E+00   0.0000000E+00   0.0000000E+00   0.0000000E+00   0.0000000E+00   0.0000000E+00   0.0000000E+00   0.0000000E+00   0.0000000E+00   0.0000000E+00   0.0000000E+00   0.0000000E+00   0.0000000E+00   0.0000000E+00   0.0000000E+00   0.0000000E+00   0.0000000E+00   0.0000000E+00   0.0000000E+00   0.0000000E+00   0.0000000E+00   0.0000000E+00   0.0000000E+00   0.0000000E+00   0.0000000E+00   0.0000000E+00   0.0000000E+00   0.0000000E+00   0.0000000E+00   0.0000000E+00   0.0000000E+00   0.0000000E+00   0.0000000E+00   0.0000000E+00   0.0000000E+00   0.0000000E+00   0.0000000E+00   0.0000000E+00   0.0000000E+00   0.0000000E+00   0.0000000E+00   0.0000000E+00   0.0000000E+00   0.0000000E+00   0.0000000E+00   0.0000000E+00   0.0000000E+00   0.0000000E+00   0.0000000E+00   0.0000000E+00   0.0000000E+00   0.0000000E+00   0.0000000E+00   0.0000000E+00   0.0000000E+00   0.0000000E+00   0.0000000E+00   0.0000000E+00   0.0000000E+00   0.0000000E+00   0.0000000E+00   0.0000000E+00   0.0000000E+00   0.0000000E+00   0.0000000E+00   0.0000000E+00   0.0000000E+00   0.0000000E+00   0.0000000E+00   0.0000000E+00   0.0000000E+00   0.0000000E+00   0.0000000E+00   0.0000000E+00   0.0000000E+00   0.0000000E+00   0.0000000E+00   0.0000000E+00   0.0000000E+00   0.0000000E+00   0.0000000E+00   0.0000000E+00   0.0000000E+00   0.0000000E+00   0.0000000E+00   0.0000000E+00   0.0000000E+00   0.0000000E+00   0.0000000E+00   0.0000000E+00   0.0000000E+00   0.0000000E+00   0.0000000E+00   0.0000000E+00   0.0000000E+00   0.0000000E+00   0.0000000E+00   0.0000000E+00   0.0000000E+00   0.0000000E+00   0.0000000E+00   0.0000000E+00   0.0000000E+00   0.0000000E+00   0.0000000E+00   0.0000000E+00   0.0000000E+00   0.0000000E+00   0.0000000E+00   0.0000000E+00   0.0000000E+00   0.0000000E+00   0.0000000E+00   0.0000000E+00   0.0000000E+00   0.0000000E+00   0.0000000E+00   0.0000000E+00   0.0000000E+00   0.0000000E+00   0.0000000E+00   0.0000000E+00   0.0000000E+00   0.0000000E+00   0.0000000E+00   0.0000000E+00   0.0000000E+00   0.0000000E+00   0.0000000E+00   0.0000000E+00   0.0000000E+00   0.0000000E+00   0.0000000E+00   0.0000000E+00   0.0000000E+00   0.0000000E+00   0.0000000E+00   0.0000000E+00   0.0000000E+00   0.0000000E+00   0.0000000E+00   0.0000000E+00   0.0000000E+00   0.0000000E+00   0.0000000E+00   0.0000000E+00   0.0000000E+00   0.0000000E+00   0.0000000E+00   0.0000000E+00   0.0000000E+00   0.0000000E+00   0.0000000E+00   0.0000000E+00   0.0000000E+00   0.0000000E+00   0.0000000E+00   0.0000000E+00   0.0000000E+00   0.0000000E+00   0.0000000E+00   0.0000000E+00   0.0000000E+00   0.0000000E+00   0.0000000E+00   0.0000000E+00   0.0000000E+00   0.0000000E+00   0.0000000E+00   0.0000000E+00   0.0000000E+00   0.0000000E+00   0.0000000E+00   0.0000000E+00   0.0000000E+00   0.0000000E+00   0.0000000E+00   0.0000000E+00   0.0000000E+00   0.0000000E+00   0.0000000E+00   0.0000000E+00   0.0000000E+00   0.0000000E+00   0.0000000E+00   0.0000000E+00   0.0000000E+00   0.0000000E+00   0.0000000E+00   0.0000000E+00   0.0000000E+00   0.0000000E+00   0.0000000E+00   0.0000000E+00   0.0000000E+00   0.0000000E+00   0.0000000E+00   0.0000000E+00   0.0000000E+00   0.0000000E+00   0.0000000E+00   0.0000000E+00   0.0000000E+00   0.0000000E+00   0.0000000E+00   0.0000000E+00   0.0000000E+00   0.0000000E+00   0.0000000E+00   0.0000000E+00   0.0000000E+00   0.0000000E+00   0.0000000E+00   0.0000000E+00   0.0000000E+00   0.0000000E+00   0.0000000E+00   0.0000000E+00   0.0000000E+00   0.0000000E+00   0.0000000E+00   0.0000000E+00   0.0000000E+00   0.0000000E+00   0.0000000E+00   0.0000000E+00   0.0000000E+00   0.0000000E+00   0.0000000E+00   0.0000000E+00   0.0000000E+00   0.0000000E+00   0.0000000E+00   0.0000000E+00   0.0000000E+00   0.0000000E+00   0.0000000E+00   0.0000000E+00   0.0000000E+00   0.0000000E+00   0.0000000E+00   0.0000000E+00   0.0000000E+00   0.0000000E+00   0.0000000E+00   0.0000000E+00   0.0000000E+00   0.0000000E+00   0.0000000E+00   0.0000000E+00   0.0000000E+00   0.0000000E+00   0.0000000E+00   0.0000000E+00   0.0000000E+00   0.0000000E+00   0.0000000E+00   0.0000000E+00   0.0000000E+00   0.0000000E+00   0.0000000E+00   0.0000000E+00   0.0000000E+00   0.0000000E+00   0.0000000E+00   0.0000000E+00   0.0000000E+00   0.0000000E+00   0.0000000E+00   0.0000000E+00   0.0000000E+00   0.0000000E+00   0.0000000E+00   0.0000000E+00   0.0000000E+00   0.0000000E+00   0.0000000E+00   0.0000000E+00   0.0000000E+00   0.0000000E+00   0.0000000E+00   0.0000000E+00   0.0000000E+00   0.0000000E+00   0.0000000E+00   0.0000000E+00   0.0000000E+00   0.0000000E+00   0.0000000E+00   0.0000000E+00   0.0000000E+00   0.0000000E+00   0.0000000E+00   0.0000000E+00   0.0000000E+00   0.0000000E+00   0.0000000E+00   0.0000000E+00   0.0000000E+00   0.0000000E+00   0.0000000E+00   0.0000000E+00   0.0000000E+00   0.0000000E+00   0.0000000E+00   0.0000000E+00   0.0000000E+00   0.0000000E+00   0.0000000E+00   0.0000000E+00   0.0000000E+00   0.0000000E+00   0.0000000E+00   0.0000000E+00   0.0000000E+00   0.0000000E+00   0.0000000E+00   0.0000000E+00   0.0000000E+00   0.0000000E+00   0.0000000E+00   0.0000000E+00   0.0000000E+00   0.0000000E+00   0.0000000E+00   0.0000000E+00   0.0000000E+00   0.0000000E+00   0.0000000E+00   0.0000000E+00   0.0000000E+00   0.0000000E+00   0.0000000E+00   0.0000000E+00   0.0000000E+00   0.0000000E+00   0.0000000E+00   0.0000000E+00   0.0000000E+00   0.0000000E+00   0.0000000E+00   0.0000000E+00   0.0000000E+00   0.0000000E+00   0.0000000E+00   0.0000000E+00   0.0000000E+00   0.0000000E+00   0.0000000E+00   0.0000000E+00   0.0000000E+00   0.0000000E+00   0.0000000E+00   0.0000000E+00   0.0000000E+00   0.0000000E+00   0.0000000E+00   0.0000000E+00   0.0000000E+00   0.0000000E+00   0.0000000E+00   0.0000000E+00   0.0000000E+00   0.0000000E+00   0.0000000E+00   0.0000000E+00   0.0000000E+00   0.0000000E+00   0.0000000E+00   0.0000000E+00   0.0000000E+00   0.0000000E+00   0.0000000E+00   0.0000000E+00   0.0000000E+00   0.0000000E+00   0.0000000E+00   0.0000000E+00   0.0000000E+00   0.0000000E+00   0.0000000E+00   0.0000000E+00   0.0000000E+00   0.0000000E+00   0.0000000E+00   0.0000000E+00   0.0000000E+00   0.0000000E+00   0.0000000E+00   0.0000000E+00   0.0000000E+00   0.0000000E+00   0.0000000E+00   0.0000000E+00   0.0000000E+00   0.0000000E+00   0.0000000E+00   0.0000000E+00   0.0000000E+00   0.0000000E+00   0.0000000E+00   0.0000000E+00   0.0000000E+00   0.0000000E+00   0.0000000E+00   0.0000000E+00   0.0000000E+00   0.0000000E+00   0.0000000E+00   0.0000000E+00   0.0000000E+00   0.0000000E+00   0.0000000E+00   0.0000000E+00   0.0000000E+00   0.0000000E+00   0.0000000E+00   0.0000000E+00   0.0000000E+00   0.0000000E+00   0.0000000E+00   0.0000000E+00   0.0000000E+00   0.0000000E+00   0.0000000E+00   0.0000000E+00   0.0000000E+00   0.0000000E+00   0.0000000E+00   0.0000000E+00   0.0000000E+00   0.0000000E+00   0.0000000E+00   0.0000000E+00   0.0000000E+00   0.0000000E+00   0.0000000E+00   0.0000000E+00   0.0000000E+00   0.0000000E+00   0.0000000E+00   0.0000000E+00   0.0000000E+00   0.0000000E+00   0.0000000E+00   0.0000000E+00   0.0000000E+00   0.0000000E+00   0.0000000E+00   0.0000000E+00   0.0000000E+00   0.0000000E+00   0.0000000E+00   0.0000000E+00   0.0000000E+00   0.0000000E+00   0.0000000E+00   0.0000000E+00   0.0000000E+00   0.0000000E+00   0.0000000E+00   0.0000000E+00   0.0000000E+00   0.0000000E+00   0.0000000E+00   0.0000000E+00   0.0000000E+00   0.0000000E+00   0.0000000E+00   0.0000000E+00   0.0000000E+00   0.0000000E+00   0.0000000E+00   0.0000000E+00   0.0000000E+00   0.0000000E+00   0.0000000E+00   0.0000000E+00   0.0000000E+00   0.0000000E+00   0.0000000E+00   0.0000000E+00   0.0000000E+00   0.0000000E+00   0.0000000E+00   0.0000000E+00   0.0000000E+00   0.0000000E+00   0.0000000E+00   0.0000000E+00   0.0000000E+00   0.0000000E+00   0.0000000E+00   0.0000000E+00   0.0000000E+00   0.0000000E+00   0.0000000E+00   0.0000000E+00   0.0000000E+00   0.0000000E+00   0.0000000E+00   0.0000000E+00   0.0000000E+00   0.0000000E+00   0.0000000E+00   0.0000000E+00   0.0000000E+00   0.0000000E+00   0.0000000E+00   0.0000000E+00   0.0000000E+00   0.0000000E+00   0.0000000E+00   0.0000000E+00   0.0000000E+00   0.0000000E+00   0.0000000E+00   0.0000000E+00   0.0000000E+00   0.0000000E+00   0.0000000E+00   0.0000000E+00   0.0000000E+00   0.0000000E+00   0.0000000E+00   0.0000000E+00   0.0000000E+00   0.0000000E+00   0.0000000E+00   0.0000000E+00   0.0000000E+00   0.0000000E+00   0.0000000E+00   0.0000000E+00   0.0000000E+00   0.0000000E+00   0.0000000E+00   0.0000000E+00   0.0000000E+00   0.0000000E+00   0.0000000E+00   0.0000000E+00   0.0000000E+00   0.0000000E+00   0.0000000E+00   0.0000000E+00   0.0000000E+00   0.0000000E+00   0.0000000E+00   0.0000000E+00   0.0000000E+00   0.0000000E+00   0.0000000E+00   0.0000000E+00   0.0000000E+00   0.0000000E+00   0.0000000E+00   0.0000000E+00   0.0000000E+00   0.0000000E+00   0.0000000E+00   0.0000000E+00   0.0000000E+00   0.0000000E+00   0.0000000E+00   0.0000000E+00   0.0000000E+00   0.0000000E+00   0.0000000E+00   0.0000000E+00   0.0000000E+00   0.0000000E+00   0.0000000E+00   0.0000000E+00   0.0000000E+00   0.0000000E+00   0.0000000E+00   0.0000000E+00   0.0000000E+00   0.0000000E+00   0.0000000E+00   0.0000000E+00   0.0000000E+00   0.0000000E+00   0.0000000E+00   0.0000000E+00   0.0000000E+00   0.0000000E+00   0.0000000E+00   0.0000000E+00   0.0000000E+00   0.0000000E+00   0.0000000E+00   0.0000000E+00   0.0000000E+00   0.0000000E+00   0.0000000E+00   0.0000000E+00   0.0000000E+00   0.0000000E+00   0.0000000E+00   0.0000000E+00   0.0000000E+00   0.0000000E+00   0.0000000E+00   0.0000000E+00   0.0000000E+00   0.0000000E+00   0.0000000E+00   0.0000000E+00   0.0000000E+00   0.0000000E+00   0.0000000E+00   0.0000000E+00   0.0000000E+00   0.0000000E+00   0.0000000E+00   0.0000000E+00   0.0000000E+00   0.0000000E+00   0.0000000E+00   0.0000000E+00   0.0000000E+00   0.0000000E+00   0.0000000E+00   0.0000000E+00   0.0000000E+00   0.0000000E+00   0.0000000E+00   0.0000000E+00   0.0000000E+00   0.0000000E+00   0.0000000E+00   0.0000000E+00   0.0000000E+00   0.0000000E+00   0.0000000E+00   0.0000000E+00   0.0000000E+00   0.0000000E+00   0.0000000E+00   0.0000000E+00   0.0000000E+00   0.0000000E+00   0.0000000E+00   0.0000000E+00   0.0000000E+00   0.0000000E+00   0.0000000E+00   0.0000000E+00   0.0000000E+00   0.0000000E+00   0.0000000E+00   0.0000000E+00   0.0000000E+00   0.0000000E+00   0.0000000E+00   0.0000000E+00   0.0000000E+00   0.0000000E+00   0.0000000E+00   0.0000000E+00   0.0000000E+00   0.0000000E+00   0.0000000E+00   0.0000000E+00   0.0000000E+00   0.0000000E+00   0.0000000E+00   0.0000000E+00   0.0000000E+00   0.0000000E+00   0.0000000E+00   0.0000000E+00   0.0000000E+00   0.0000000E+00   0.0000000E+00   0.0000000E+00   0.0000000E+00   0.0000000E+00   0.0000000E+00   0.0000000E+00   0.0000000E+00   0.0000000E+00   0.0000000E+00   0.0000000E+00   0.0000000E+00   0.0000000E+00   0.0000000E+00   0.0000000E+00   0.0000000E+00   0.0000000E+00   0.0000000E+00   0.0000000E+00   0.0000000E+00   0.0000000E+00   0.0000000E+00   0.0000000E+00   0.0000000E+00   0.0000000E+00   0.0000000E+00   0.0000000E+00   0.0000000E+00   0.0000000E+00   0.0000000E+00   0.0000000E+00   0.0000000E+00   0.0000000E+00   0.0000000E+00   0.0000000E+00   0.0000000E+00   0.0000000E+00   0.0000000E+00   0.0000000E+00   0.0000000E+00   0.0000000E+00   0.0000000E+00   0.0000000E+00   0.0000000E+00   0.0000000E+00   0.0000000E+00   0.0000000E+00   0.0000000E+00   0.0000000E+00   0.0000000E+00   0.0000000E+00   0.0000000E+00   0.0000000E+00   0.0000000E+00   0.0000000E+00   0.0000000E+00   0.0000000E+00   0.0000000E+00   0.0000000E+00   0.0000000E+00   0.0000000E+00   0.0000000E+00   0.0000000E+00   0.0000000E+00   0.0000000E+00   0.0000000E+00   0.0000000E+00   0.0000000E+00   0.0000000E+00   0.0000000E+00   0.0000000E+00   0.0000000E+00   0.0000000E+00   0.0000000E+00   0.0000000E+00   0.0000000E+00   0.0000000E+00   0.0000000E+00   0.0000000E+00   0.0000000E+00   0.0000000E+00   0.0000000E+00   0.0000000E+00   0.0000000E+00   0.0000000E+00   0.0000000E+00   0.0000000E+00   0.0000000E+00   0.0000000E+00   0.0000000E+00   0.0000000E+00   0.0000000E+00   0.0000000E+00   0.0000000E+00   0.0000000E+00   0.0000000E+00   0.0000000E+00   0.0000000E+00   0.0000000E+00   0.0000000E+00   0.0000000E+00   0.0000000E+00   0.0000000E+00   0.0000000E+00   0.0000000E+00   0.0000000E+00   0.0000000E+00   0.0000000E+00   0.0000000E+00   0.0000000E+00   0.0000000E+00   0.0000000E+00   0.0000000E+00   0.0000000E+00   0.0000000E+00   0.0000000E+00   0.0000000E+00   0.0000000E+00   0.0000000E+00   0.0000000E+00   0.0000000E+00   0.0000000E+00   0.0000000E+00   0.0000000E+00   0.0000000E+00   0.0000000E+00   0.0000000E+00   0.0000000E+00   0.0000000E+00   0.0000000E+00   0.0000000E+00   0.0000000E+00   0.0000000E+00   0.0000000E+00   0.0000000E+00   0.0000000E+00   0.0000000E+00   0.0000000E+00   0.0000000E+00   0.0000000E+00   0.0000000E+00   0.0000000E+00   0.0000000E+00   0.0000000E+00   0.0000000E+00   0.0000000E+00   0.0000000E+00   0.0000000E+00   0.0000000E+00   0.0000000E+00   0.0000000E+00   0.0000000E+00   0.0000000E+00   0.0000000E+00   0.0000000E+00   0.0000000E+00   0.0000000E+00   0.0000000E+00   0.0000000E+00   0.0000000E+00   0.0000000E+00   0.0000000E+00   0.0000000E+00   0.0000000E+00   0.0000000E+00   0.0000000E+00   0.0000000E+00   0.0000000E+00   0.0000000E+00   0.0000000E+00   0.0000000E+00   0.0000000E+00   0.0000000E+00   0.0000000E+00   0.0000000E+00   0.0000000E+00   0.0000000E+00   0.0000000E+00   0.0000000E+00   0.0000000E+00   0.0000000E+00   0.0000000E+00   0.0000000E+00   0.0000000E+00   0.0000000E+00   0.0000000E+00   0.0000000E+00   0.0000000E+00   0.0000000E+00   0.0000000E+00   0.0000000E+00   0.0000000E+00   0.0000000E+00   0.0000000E+00   0.0000000E+00   0.0000000E+00   0.0000000E+00   0.0000000E+00   0.0000000E+00   0.0000000E+00   0.0000000E+00   0.0000000E+00   0.0000000E+00   0.0000000E+00   0.0000000E+00   0.0000000E+00   0.0000000E+00   0.0000000E+00   0.0000000E+00   0.0000000E+00   0.0000000E+00   0.0000000E+00   0.0000000E+00   0.0000000E+00   0.0000000E+00   0.0000000E+00   0.0000000E+00   0.0000000E+00   0.0000000E+00   0.0000000E+00   0.0000000E+00   0.0000000E+00   0.0000000E+00   0.0000000E+00   0.0000000E+00   0.0000000E+00   0.0000000E+00   0.0000000E+00   0.0000000E+00   0.0000000E+00   0.0000000E+00   0.0000000E+00   0.0000000E+00   0.0000000E+00   0.0000000E+00   0.0000000E+00   0.0000000E+00   0.0000000E+00   0.0000000E+00   0.0000000E+00   0.0000000E+00   0.0000000E+00   0.0000000E+00   0.0000000E+00   0.0000000E+00   0.0000000E+00   0.0000000E+00   0.0000000E+00   0.0000000E+00   0.0000000E+00   0.0000000E+00   0.0000000E+00   0.0000000E+00   0.0000000E+00   0.0000000E+00   0.0000000E+00   0.0000000E+00   0.0000000E+00   0.0000000E+00   0.0000000E+00   0.0000000E+00   0.0000000E+00   0.0000000E+00   0.0000000E+00   0.0000000E+00   0.0000000E+00   0.0000000E+00   0.0000000E+00   0.0000000E+00   0.0000000E+00   0.0000000E+00   0.0000000E+00   0.0000000E+00   0.0000000E+00   0.0000000E+00   0.0000000E+00   0.0000000E+00   0.0000000E+00   0.0000000E+00   0.0000000E+00   0.0000000E+00   0.0000000E+00   0.0000000E+00   0.0000000E+00   0.0000000E+00   0.0000000E+00   0.0000000E+00   0.0000000E+00   0.0000000E+00   0.0000000E+00   0.0000000E+00   0.0000000E+00   0.0000000E+00   0.0000000E+00   0.0000000E+00   0.0000000E+00   0.0000000E+00   0.0000000E+00   0.0000000E+00   0.0000000E+00   0.0000000E+00   0.0000000E+00   0.0000000E+00   0.0000000E+00   0.0000000E+00   0.0000000E+00   0.0000000E+00   0.0000000E+00   0.0000000E+00   0.0000000E+00   0.0000000E+00   0.0000000E+00   0.0000000E+00   0.0000000E+00   0.0000000E+00   0.0000000E+00   0.0000000E+00   0.0000000E+00   0.0000000E+00   0.0000000E+00   0.0000000E+00   0.0000000E+00   0.0000000E+00   0.0000000E+00   0.0000000E+00   0.0000000E+00   0.0000000E+00   0.0000000E+00   0.0000000E+00   0.0000000E+00   0.0000000E+00   0.0000000E+00   0.0000000E+00   0.0000000E+00   0.0000000E+00   0.0000000E+00   0.0000000E+00   0.0000000E+00   0.0000000E+00   0.0000000E+00   0.0000000E+00   0.0000000E+00   0.0000000E+00   0.0000000E+00   0.0000000E+00   0.0000000E+00   0.0000000E+00   0.0000000E+00   0.0000000E+00   0.0000000E+00   0.0000000E+00   0.0000000E+00   0.0000000E+00   0.0000000E+00   0.0000000E+00   0.0000000E+00   0.0000000E+00   0.0000000E+00   0.0000000E+00   0.0000000E+00   0.0000000E+00   0.0000000E+00   0.0000000E+00   0.0000000E+00   0.0000000E+00   0.0000000E+00   0.0000000E+00   0.0000000E+00   0.0000000E+00   0.0000000E+00   0.0000000E+00   0.0000000E+00   0.0000000E+00   0.0000000E+00   0.0000000E+00   0.0000000E+00   0.0000000E+00   0.0000000E+00   0.0000000E+00   0.0000000E+00   0.0000000E+00   0.0000000E+00   0.0000000E+00   0.0000000E+00   0.0000000E+00   0.0000000E+00   0.0000000E+00   0.0000000E+00   0.0000000E+00   0.0000000E+00   0.0000000E+00   0.0000000E+00   0.0000000E+00   0.0000000E+00   0.0000000E+00   0.0000000E+00   0.0000000E+00   0.0000000E+00   0.0000000E+00   0.0000000E+00   0.0000000E+00   0.0000000E+00   0.0000000E+00   0.0000000E+00   0.0000000E+00   0.0000000E+00   0.0000000E+00   0.0000000E+00   0.0000000E+00   0.0000000E+00   0.0000000E+00   0.0000000E+00   0.0000000E+00   0.0000000E+00   0.0000000E+00   0.0000000E+00   0.0000000E+00   0.0000000E+00   0.0000000E+00   0.0000000E+00   0.0000000E+00   0.0000000E+00   0.0000000E+00   0.0000000E+00   0.0000000E+00   0.0000000E+00   0.0000000E+00   0.0000000E+00   0.0000000E+00   0.0000000E+00   0.0000000E+00   0.0000000E+00   0.0000000E+00   0.0000000E+00   0.0000000E+00   0.0000000E+00   0.0000000E+00   0.0000000E+00   0.0000000E+00   0.0000000E+00   0.0000000E+00   0.0000000E+00   0.0000000E+00   0.0000000E+00   0.0000000E+00   0.0000000E+00   0.0000000E+00   0.0000000E+00   0.0000000E+00   0.0000000E+00   0.0000000E+00   0.0000000E+00   0.0000000E+00   0.0000000E+00   0.0000000E+00   0.0000000E+00   0.0000000E+00   0.0000000E+00   0.0000000E+00   0.0000000E+00   0.0000000E+00   0.0000000E+00   0.0000000E+00   0.0000000E+00   0.0000000E+00   0.0000000E+00   0.0000000E+00   0.0000000E+00   0.0000000E+00   0.0000000E+00   0.0000000E+00   0.0000000E+00   0.0000000E+00   0.0000000E+00   0.0000000E+00   0.0000000E+00   0.0000000E+00   0.0000000E+00   0.0000000E+00   0.0000000E+00   0.0000000E+00   0.0000000E+00   0.0000000E+00   0.0000000E+00   0.0000000E+00   0.0000000E+00   0.0000000E+00   0.0000000E+00   0.0000000E+00   0.0000000E+00   0.0000000E+00   0.0000000E+00   0.0000000E+00   0.0000000E+00   0.0000000E+00   0.0000000E+00   0.0000000E+00   0.0000000E+00   0.0000000E+00   0.0000000E+00   0.0000000E+00   0.0000000E+00   0.0000000E+00   0.0000000E+00   0.0000000E+00   0.0000000E+00   0.0000000E+00   0.0000000E+00   0.0000000E+00   0.0000000E+00   0.0000000E+00   0.0000000E+00   0.0000000E+00   0.0000000E+00   0.0000000E+00   0.0000000E+00   0.0000000E+00   0.0000000E+00   0.0000000E+00   0.0000000E+00   0.0000000E+00   0.0000000E+00   0.0000000E+00   0.0000000E+00   0.0000000E+00   0.0000000E+00   0.0000000E+00   0.0000000E+00   0.0000000E+00   0.0000000E+00   0.0000000E+00   0.0000000E+00   0.0000000E+00   0.0000000E+00   0.0000000E+00   0.0000000E+00   0.0000000E+00   0.0000000E+00   0.0000000E+00   0.0000000E+00   0.0000000E+00   0.0000000E+00   0.0000000E+00   0.0000000E+00   0.0000000E+00   0.0000000E+00   0.0000000E+00   0.0000000E+00   0.0000000E+00   0.0000000E+00   0.0000000E+00   0.0000000E+00   0.0000000E+00   0.0000000E+00   0.0000000E+00   0.0000000E+00   0.0000000E+00   0.0000000E+00   0.0000000E+00   0.0000000E+00   0.0000000E+00   0.0000000E+00   0.0000000E+00   0.0000000E+00   0.0000000E+00   0.0000000E+00   0.0000000E+00   0.0000000E+00   0.0000000E+00   0.0000000E+00   0.0000000E+00   0.0000000E+00   0.0000000E+00   0.0000000E+00   0.0000000E+00   0.0000000E+00   0.0000000E+00   0.0000000E+00   0.0000000E+00   0.0000000E+00   0.0000000E+00   0.0000000E+00   0.0000000E+00   0.0000000E+00   0.0000000E+00   0.0000000E+00   0.0000000E+00   0.0000000E+00   0.0000000E+00   0.0000000E+00   0.0000000E+00   0.0000000E+00   0.0000000E+00   0.0000000E+00   0.0000000E+00   0.0000000E+00   0.0000000E+00   0.0000000E+00   0.0000000E+00   0.0000000E+00   0.0000000E+00   0.0000000E+00   0.0000000E+00   0.0000000E+00   0.0000000E+00   0.0000000E+00   0.0000000E+00   0.0000000E+00   0.0000000E+00   0.0000000E+00   0.0000000E+00   0.0000000E+00   0.0000000E+00   0.0000000E+00   0.0000000E+00   0.0000000E+00   0.0000000E+00   0.0000000E+00   0.0000000E+00   0.0000000E+00   0.0000000E+00   0.0000000E+00   0.0000000E+00   0.0000000E+00   0.0000000E+00   0.0000000E+00   0.0000000E+00   0.0000000E+00   0.0000000E+00   0.0000000E+00   0.0000000E+00   0.0000000E+00   0.0000000E+00   0.0000000E+00   0.0000000E+00   0.0000000E+00   0.0000000E+00   0.0000000E+00   0.0000000E+00   0.0000000E+00   0.0000000E+00   0.0000000E+00   0.0000000E+00   0.0000000E+00   0.0000000E+00   0.0000000E+00   0.0000000E+00   0.0000000E+00   0.0000000E+00   0.0000000E+00   0.0000000E+00   0.0000000E+00   0.0000000E+00   0.0000000E+00   0.0000000E+00   0.0000000E+00   0.0000000E+00   0.0000000E+00   0.0000000E+00   0.0000000E+00   0.0000000E+00   0.0000000E+00   0.0000000E+00   0.0000000E+00   0.0000000E+00   0.0000000E+00   0.0000000E+00   0.0000000E+00   0.0000000E+00   0.0000000E+00   0.0000000E+00   0.0000000E+00   0.0000000E+00   0.0000000E+00   0.0000000E+00   0.0000000E+00   0.0000000E+00   0.0000000E+00   0.0000000E+00   0.0000000E+00   0.0000000E+00   0.0000000E+00   0.0000000E+00   0.0000000E+00   0.0000000E+00   0.0000000E+00   0.0000000E+00   0.0000000E+00   0.0000000E+00   0.0000000E+00   0.0000000E+00   0.0000000E+00   0.0000000E+00   0.0000000E+00   0.0000000E+00   0.0000000E+00   0.0000000E+00   0.0000000E+00   0.0000000E+00   0.0000000E+00   0.0000000E+00   0.0000000E+00   0.0000000E+00   0.0000000E+00   0.0000000E+00   0.0000000E+00   0.0000000E+00   0.0000000E+00   0.0000000E+00   0.0000000E+00   0.0000000E+00   0.0000000E+00   0.0000000E+00   0.0000000E+00   0.0000000E+00   0.0000000E+00   0.0000000E+00   0.0000000E+00   0.0000000E+00   0.0000000E+00   0.0000000E+00   0.0000000E+00   0.0000000E+00   0.0000000E+00   0.0000000E+00   0.0000000E+00   0.0000000E+00   0.0000000E+00   0.0000000E+00   0.0000000E+00   0.0000000E+00   0.0000000E+00   0.0000000E+00   0.0000000E+00   0.0000000E+00   0.0000000E+00   0.0000000E+00   0.0000000E+00   0.0000000E+00   0.0000000E+00   0.0000000E+00   0.0000000E+00   0.0000000E+00   0.0000000E+00   0.0000000E+00   0.0000000E+00   0.0000000E+00   0.0000000E+00   0.0000000E+00   0.0000000E+00   0.0000000E+00   0.0000000E+00   0.0000000E+00   0.0000000E+00   0.0000000E+00   0.0000000E+00   0.0000000E+00   0.0000000E+00   0.0000000E+00   0.0000000E+00   0.0000000E+00   0.0000000E+00   0.0000000E+00   0.0000000E+00   0.0000000E+00   0.0000000E+00   0.0000000E+00   0.0000000E+00   0.0000000E+00   0.0000000E+00   0.0000000E+00   0.0000000E+00   0.0000000E+00   0.0000000E+00   0.0000000E+00   0.0000000E+00   0.0000000E+00   0.0000000E+00   0.0000000E+00   0.0000000E+00   0.0000000E+00   0.0000000E+00   0.0000000E+00   0.0000000E+00   0.0000000E+00   0.0000000E+00   0.0000000E+00   0.0000000E+00   0.0000000E+00   0.0000000E+00   0.0000000E+00   0.0000000E+00   0.0000000E+00   0.0000000E+00   0.0000000E+00   0.0000000E+00   0.0000000E+00   0.0000000E+00   0.0000000E+00   0.0000000E+00   0.0000000E+00   0.0000000E+00   0.0000000E+00   0.0000000E+00   0.0000000E+00   0.0000000E+00   0.0000000E+00   0.0000000E+00   0.0000000E+00   0.0000000E+00   0.0000000E+00   0.0000000E+00   0.0000000E+00   0.0000000E+00   0.0000000E+00   0.0000000E+00   0.0000000E+00   0.0000000E+00   0.0000000E+00   0.0000000E+00   0.0000000E+00   0.0000000E+00   0.0000000E+00   0.0000000E+00   0.0000000E+00   0.0000000E+00   0.0000000E+00   0.0000000E+00   0.0000000E+00   0.0000000E+00   0.0000000E+00   0.0000000E+00   0.0000000E+00   0.0000000E+00   0.0000000E+00   0.0000000E+00   0.0000000E+00   0.0000000E+00   0.0000000E+00   0.0000000E+00   0.0000000E+00   0.0000000E+00   0.0000000E+00   0.0000000E+00   0.0000000E+00   0.0000000E+00   0.0000000E+00   0.0000000E+00   0.0000000E+00   0.0000000E+00   0.0000000E+00   0.0000000E+00   0.0000000E+00   0.0000000E+00   0.0000000E+00   0.0000000E+00   0.0000000E+00   0.0000000E+00   0.0000000E+00   0.0000000E+00   0.0000000E+00   0.0000000E+00   0.0000000E+00   0.0000000E+00   0.0000000E+00   0.0000000E+00   0.0000000E+00   0.0000000E+00   0.0000000E+00   0.0000000E+00   0.0000000E+00   0.0000000E+00   0.0000000E+00   0.0000000E+00   0.0000000E+00   0.0000000E+00   0.0000000E+00   0.0000000E+00   0.0000000E+00   0.0000000E+00   0.0000000E+00   0.0000000E+00   0.0000000E+00   0.0000000E+00   0.0000000E+00   0.0000000E+00   0.0000000E+00   0.0000000E+00   0.0000000E+00   0.0000000E+00   0.0000000E+00   0.0000000E+00   0.0000000E+00   0.0000000E+00   0.0000000E+00   0.0000000E+00   0.0000000E+00   0.0000000E+00   0.0000000E+00   0.0000000E+00   0.0000000E+00   0.0000000E+00   0.0000000E+00   0.0000000E+00   0.0000000E+00   0.0000000E+00   0.0000000E+00   0.0000000E+00   0.0000000E+00   0.0000000E+00   0.0000000E+00   0.0000000E+00   0.0000000E+00   0.0000000E+00   0.0000000E+00   0.0000000E+00   0.0000000E+00   0.0000000E+00   0.0000000E+00   0.0000000E+00   0.0000000E+00   0.0000000E+00   0.0000000E+00   0.0000000E+00   0.0000000E+00   0.0000000E+00   0.0000000E+00   0.0000000E+00   0.0000000E+00   0.0000000E+00   0.0000000E+00   0.0000000E+00   0.0000000E+00   0.0000000E+00   0.0000000E+00   0.0000000E+00   0.0000000E+00   0.0000000E+00   0.0000000E+00   0.0000000E+00   0.0000000E+00   0.0000000E+00   0.0000000E+00   0.0000000E+00   0.0000000E+00   0.0000000E+00   0.0000000E+00   0.0000000E+00   0.0000000E+00   0.0000000E+00   0.0000000E+00   0.0000000E+00   0.0000000E+00   0.0000000E+00   0.0000000E+00   0.0000000E+00   0.0000000E+00   0.0000000E+00   0.0000000E+00   0.0000000E+00   0.0000000E+00   0.0000000E+00   0.0000000E+00   0.0000000E+00   0.0000000E+00   0.0000000E+00   0.0000000E+00   0.0000000E+00   0.0000000E+00   0.0000000E+00   0.0000000E+00   0.0000000E+00   0.0000000E+00   0.0000000E+00   0.0000000E+00   0.0000000E+00   0.0000000E+00   0.0000000E+00   0.0000000E+00   0.0000000E+00   0.0000000E+00   0.0000000E+00   0.0000000E+00   0.0000000E+00   0.0000000E+00   0.0000000E+00   0.0000000E+00   0.0000000E+00   0.0000000E+00   0.0000000E+00   0.0000000E+00   0.0000000E+00   0.0000000E+00   0.0000000E+00   0.0000000E+00   0.0000000E+00   0.0000000E+00   0.0000000E+00   0.0000000E+00   0.0000000E+00   0.0000000E+00   0.0000000E+00   0.0000000E+00   0.0000000E+00   0.0000000E+00   0.0000000E+00   0.0000000E+00   0.0000000E+00   0.0000000E+00   0.0000000E+00   0.0000000E+00   0.0000000E+00   0.0000000E+00   0.0000000E+00   0.0000000E+00   0.0000000E+00   0.0000000E+00   0.0000000E+00   0.0000000E+00   0.0000000E+00   0.0000000E+00   0.0000000E+00   0.0000000E+00   0.0000000E+00   0.0000000E+00   0.0000000E+00   0.0000000E+00   0.0000000E+00   0.0000000E+00   0.0000000E+00   0.0000000E+00   0.0000000E+00   0.0000000E+00   0.0000000E+00   0.0000000E+00   0.0000000E+00   0.0000000E+00   0.0000000E+00   0.0000000E+00   0.0000000E+00   0.0000000E+00   0.0000000E+00   0.0000000E+00   0.0000000E+00   0.0000000E+00   0.0000000E+00   0.0000000E+00   0.0000000E+00   0.0000000E+00   0.0000000E+00   0.0000000E+00   0.0000000E+00   0.0000000E+00   0.0000000E+00   0.0000000E+00   0.0000000E+00   0.0000000E+00   0.0000000E+00   0.0000000E+00   0.0000000E+00   0.0000000E+00   0.0000000E+00   0.0000000E+00   0.0000000E+00   0.0000000E+00   0.0000000E+00   0.0000000E+00   0.0000000E+00   0.0000000E+00   0.0000000E+00   0.0000000E+00   0.0000000E+00   0.0000000E+00   0.0000000E+00   0.0000000E+00   0.0000000E+00   0.0000000E+00   0.0000000E+00   0.0000000E+00   0.0000000E+00   0.0000000E+00   0.0000000E+00   0.0000000E+00   0.0000000E+00   0.0000000E+00   0.0000000E+00   0.0000000E+00   0.0000000E+00   0.0000000E+00   0.0000000E+00   0.0000000E+00   0.0000000E+00   0.0000000E+00   0.0000000E+00   0.0000000E+00   0.0000000E+00   0.0000000E+00   0.0000000E+00   0.0000000E+00   0.0000000E+00   0.0000000E+00   0.0000000E+00   0.0000000E+00   0.0000000E+00   0.0000000E+00   0.0000000E+00   0.0000000E+00   0.0000000E+00   0.0000000E+00   0.0000000E+00   0.0000000E+00   0.0000000E+00   0.0000000E+00   0.0000000E+00   0.0000000E+00   0.0000000E+00   0.0000000E+00   0.0000000E+00   0.0000000E+00   0.0000000E+00   0.0000000E+00   0.0000000E+00   0.0000000E+00   0.0000000E+00   0.0000000E+00   0.0000000E+00   0.0000000E+00   0.0000000E+00   0.0000000E+00   0.0000000E+00   0.0000000E+00   0.0000000E+00   0.0000000E+00   0.0000000E+00   0.0000000E+00   0.0000000E+00   0.0000000E+00   0.0000000E+00   0.0000000E+00   0.0000000E+00   0.0000000E+00   0.0000000E+00   0.0000000E+00   0.0000000E+00   0.0000000E+00   0.0000000E+00   0.0000000E+00   0.0000000E+00   0.0000000E+00   0.0000000E+00   0.0000000E+00   0.0000000E+00   0.0000000E+00   0.0000000E+00   0.0000000E+00   0.0000000E+00   0.0000000E+00   0.0000000E+00   0.0000000E+00   0.0000000E+00   0.0000000E+00   0.0000000E+00   0.0000000E+00   0.0000000E+00   0.0000000E+00   0.0000000E+00   0.0000000E+00   0.0000000E+00   0.0000000E+00   0.0000000E+00   0.0000000E+00   0.0000000E+00   0.0000000E+00   0.0000000E+00   0.0000000E+00   0.0000000E+00   0.0000000E+00   0.0000000E+00   0.0000000E+00   0.0000000E+00   0.0000000E+00   0.0000000E+00   0.0000000E+00   0.0000000E+00   0.0000000E+00   0.0000000E+00   0.0000000E+00   0.0000000E+00   0.0000000E+00   0.0000000E+00   0.0000000E+00   0.0000000E+00   0.0000000E+00   0.0000000E+00   0.0000000E+00   0.0000000E+00   0.0000000E+00   0.0000000E+00   0.0000000E+00   0.0000000E+00   0.0000000E+00   0.0000000E+00   0.0000000E+00   0.0000000E+00   0.0000000E+00   0.0000000E+00   0.0000000E+00   0.0000000E+00  -2.1105583E-05   0.0000000E+00  -7.9898282E-06  -2.5494166E-05   0.0000000E+00  -7.7143613E-06  -2.9197945E-05   0.0000000E+00  -7.0886331E-06  -3.2149557E-05   0.0000000E+00  -6.3227712E-06  -3.4463093E-05   0.0000000E+00  -5.4726224E-06  -2.2696830E-05   0.0000000E+00  -1.1287502E-05  -3.0945441E-05   0.0000000E+00  -1.0888372E-05  -3.7980153E-05   0.0000000E+00  -1.0705480E-05  -4.3678661E-05   0.0000000E+00  -1.0007995E-05  -4.8100443E-05   0.0000000E+00  -9.0364574E-06  -5.1491686E-05   0.0000000E+00  -7.8493749E-06  -3.3328877E-05   0.0000000E+00  -1.4369976E-05  -4.5298657E-05   0.0000000E+00  -1.4291571E-05  -5.5493107E-05   0.0000000E+00  -1.3940795E-05  -6.3773288E-05   0.0000000E+00  -1.3024040E-05  -7.0125454E-05   0.0000000E+00  -1.1791383E-05  -7.4912772E-05   0.0000000E+00  -1.0264308E-05  -4.7614707E-05   0.0000000E+00  -1.8258017E-05  -6.4540523E-05   0.0000000E+00  -1.8170153E-05  -7.8712284E-05   0.0000000E+00  -1.7745457E-05  -9.0146081E-05   0.0000000E+00  -1.6524835E-05  -9.8817378E-05   0.0000000E+00  -1.4937067E-05  -1.0525312E-04   0.0000000E+00  -1.2990384E-05  -6.6529967E-05   0.0000000E+00  -2.3327022E-05  -8.9847104E-05   0.0000000E+00  -2.2962538E-05  -1.0904055E-04   0.0000000E+00  -2.2314191E-05  -1.2430563E-04   0.0000000E+00  -2.0685387E-05  -1.3569844E-04   0.0000000E+00  -1.8656976E-05  -1.4401336E-04   0.0000000E+00  -1.6191234E-05  -9.1752867E-05   0.0000000E+00  -3.0036623E-05  -1.2324615E-04   0.0000000E+00  -2.9003220E-05  -1.4868454E-04   0.0000000E+00  -2.7886870E-05  -1.6855463E-04   0.0000000E+00  -2.5697995E-05  -1.8310304E-04   0.0000000E+00  -2.3139371E-05  -1.9352778E-04   0.0000000E+00  -2.0049398E-05  -1.2578593E-04   0.0000000E+00  -3.8985883E-05  -1.6760772E-04   0.0000000E+00  -3.6810852E-05  -2.0071199E-04   0.0000000E+00  -3.4852954E-05  -2.2604388E-04   0.0000000E+00  -3.1898453E-05  -2.4423428E-04   0.0000000E+00  -2.8658098E-05  -2.5699675E-04   0.0000000E+00  -2.4822244E-05  -1.7215800E-04   0.0000000E+00  -5.1161231E-05  -2.2678563E-04   0.0000000E+00  -4.7185684E-05  -2.6914236E-04   0.0000000E+00  -4.3869579E-05  -3.0083273E-04   0.0000000E+00  -3.9909981E-05  -3.2319585E-04   0.0000000E+00  -3.5743109E-05  -3.3852944E-04   0.0000000E+00  -3.0960487E-05  -2.3585465E-04   0.0000000E+00  -6.7282468E-05  -3.0573559E-04   0.0000000E+00  -6.1035840E-05  -3.5890518E-04   0.0000000E+00  -5.5893852E-05  -3.9786080E-04   0.0000000E+00  -5.0796967E-05  -4.2499730E-04   0.0000000E+00  -4.5340152E-05  -4.4318265E-04   0.0000000E+00  -3.9107752E-05  -3.2406926E-04   0.0000000E+00  -8.7279921E-05  -4.1104064E-04   0.0000000E+00  -7.8800775E-05  -4.7612740E-04   0.0000000E+00  -7.2166455E-05  -5.2344770E-04   0.0000000E+00  -6.5537046E-05  -5.5596151E-04   0.0000000E+00  -5.8267498E-05  -5.7711138E-04   0.0000000E+00  -5.0082799E-05  -4.4566329E-04   0.0000000E+00  -1.1229764E-04  -5.5126881E-04   0.0000000E+00  -1.0142497E-04  -6.2903244E-04   0.0000000E+00  -9.3449322E-05  -6.8568141E-04   0.0000000E+00  -8.4893669E-05  -7.2372385E-04   0.0000000E+00  -7.5834978E-05  -7.4789528E-04   0.0000000E+00  -6.4750100E-05  -6.0247834E-04   0.0000000E+00  -1.7844068E-04  -7.3488092E-04   0.0000000E+00  -1.4656907E-04  -8.2758465E-04   0.0000000E+00  -1.2816608E-04  -8.9437276E-04   0.0000000E+00  -1.1311626E-04  -9.3808130E-04   0.0000000E+00  -9.9446916E-05  -9.6474460E-04   0.0000000E+00  -8.4270083E-05  -8.3154574E-04   0.0000000E+00  -3.2933883E-04  -9.8179688E-04   0.0000000E+00  -2.4390501E-04  -1.0869440E-03   0.0000000E+00  -1.9219793E-04  -1.1629801E-03   0.0000000E+00  -1.5768771E-04  -1.2109812E-03   0.0000000E+00  -1.3332261E-04  -1.2390254E-03   0.0000000E+00  -1.1058973E-04  -1.1580553E-03   0.0000000E+00  -5.2283797E-04  -1.3162806E-03   0.0000000E+00  -3.8622456E-04  -1.4280205E-03   0.0000000E+00  -2.8767492E-04  -1.5080400E-03   0.0000000E+00  -2.2376805E-04  -1.5571428E-03   0.0000000E+00  -1.8159220E-04  -1.5846322E-03   0.0000000E+00  -1.4568408E-04  -1.5915072E-03   0.0000000E+00  -7.3289295E-04  -1.7530225E-03   0.0000000E+00  -5.5368699E-04  -1.8672324E-03   0.0000000E+00  -4.0935073E-04  -1.9468400E-03   0.0000000E+00  -3.1097446E-04  -1.9935328E-03   0.0000000E+00  -2.4402767E-04  -2.0181113E-03   0.0000000E+00  -1.8987380E-04  -2.1372556E-03   0.0000000E+00  -9.6105103E-04  -2.3041212E-03   0.0000000E+00  -7.4022269E-04  -2.4196759E-03   0.0000000E+00  -5.5070233E-04  -2.4976896E-03   0.0000000E+00  -4.1538748E-04  -2.5402829E-03   0.0000000E+00  -3.2031006E-04  -2.5592837E-03   0.0000000E+00  -2.4300162E-04  -2.8026728E-03   0.0000000E+00  -1.2195081E-03  -2.9835526E-03   0.0000000E+00  -9.4994262E-04  -3.1052267E-03   0.0000000E+00  -7.1160565E-04  -3.1834864E-03   0.0000000E+00  -5.3492608E-04  -3.2212092E-03   0.0000000E+00  -4.0832767E-04  -3.2320628E-03   0.0000000E+00  -3.0511306E-04  -3.6080708E-03   0.0000000E+00  -1.5262536E-03  -3.8165557E-03   0.0000000E+00  -1.1940592E-03  -3.9527356E-03   0.0000000E+00  -8.9822558E-04  -4.0343800E-03   0.0000000E+00  -6.7211781E-04  -4.0664910E-03   0.0000000E+00  -5.0793390E-04  -4.0648854E-03   0.0000000E+00  -3.7520187E-04  -4.5914324E-03   0.0000000E+00  -1.8957843E-03  -4.8426636E-03   0.0000000E+00  -1.4846077E-03  -5.0013093E-03   0.0000000E+00  -1.1165480E-03  -5.0882683E-03   0.0000000E+00  -8.3123875E-04  -5.1112678E-03   0.0000000E+00  -6.2075641E-04  -5.0907908E-03   0.0000000E+00  -4.5264277E-04  -5.8069248E-03   0.0000000E+00  -2.3462102E-03  -6.1123683E-03   0.0000000E+00  -1.8351077E-03  -6.2983832E-03   0.0000000E+00  -1.3732346E-03  -6.3889595E-03   0.0000000E+00  -1.0134329E-03  -6.3961581E-03   0.0000000E+00  -7.4761931E-04  -6.3471007E-03   0.0000000E+00  -5.3914764E-04  -7.3142084E-03   0.0000000E+00  -2.8966197E-03  -7.6836236E-03   0.0000000E+00  -2.2569788E-03  -7.8990282E-03   0.0000000E+00  -1.6733266E-03  -7.9873493E-03   0.0000000E+00  -1.2210887E-03  -7.9671275E-03   0.0000000E+00  -8.9102669E-04  -7.8746472E-03   0.0000000E+00  -6.3830399E-04  -9.1830920E-03   0.0000000E+00  -3.5680626E-03  -9.6262302E-03   0.0000000E+00  -2.7593756E-03  -9.8695708E-03   0.0000000E+00  -2.0195756E-03  -9.9432226E-03   0.0000000E+00  -1.4564134E-03  -9.8763062E-03   0.0000000E+00  -1.0566389E-03  -9.7188484E-03   0.0000000E+00  -7.5848267E-04  -1.1503644E-02   0.0000000E+00  -4.3829395E-03  -1.2027512E-02   0.0000000E+00  -3.3534977E-03  -1.2291024E-02   0.0000000E+00  -2.4131089E-03  -1.2327349E-02   0.0000000E+00  -1.7241139E-03  -1.2185539E-02   0.0000000E+00  -1.2553496E-03  -1.1932799E-02   0.0000000E+00  -9.1743056E-04  -1.4392785E-02   0.0000000E+00  -5.3695845E-03  -1.4995943E-02   0.0000000E+00  -4.0486204E-03  -1.5259855E-02   0.0000000E+00  -2.8592646E-03  -1.5221800E-02   0.0000000E+00  -2.0400174E-03  -1.4966713E-02   0.0000000E+00  -1.5079997E-03  -1.4578518E-02   0.0000000E+00  -1.1492296E-03  -1.8010363E-02   0.0000000E+00  -6.5702205E-03  -1.8662320E-02   0.0000000E+00  -4.8540877E-03  -1.8882222E-02   0.0000000E+00  -3.3764476E-03  -1.8713793E-02   0.0000000E+00  -2.4401976E-03  -1.8295189E-02   0.0000000E+00  -1.8657240E-03  -1.7726084E-02   0.0000000E+00  -1.5060705E-03  -2.2549460E-02   0.0000000E+00  -8.0093462E-03  -2.3174979E-02   0.0000000E+00  -5.7841907E-03  -2.3258124E-02   0.0000000E+00  -3.9876872E-03  -2.2885712E-02   0.0000000E+00  -3.0032180E-03  -2.2239313E-02   0.0000000E+00  -2.4192429E-03  -2.1441283E-02   0.0000000E+00  -2.0808778E-03  -2.8250286E-02   0.0000000E+00  -9.7369794E-03  -2.8679043E-02   0.0000000E+00  -6.9013773E-03  -2.8481353E-02   0.0000000E+00  -4.8097139E-03  -2.7793296E-02   0.0000000E+00  -3.8412574E-03  -2.6838606E-02   0.0000000E+00  -3.3112827E-03  -2.5767116E-02   0.0000000E+00  -3.0091177E-03  -3.5328858E-02   0.0000000E+00  -1.1840513E-02  -3.5261102E-02   0.0000000E+00  -8.3205765E-03  -3.4559041E-02   0.0000000E+00  -6.0183555E-03  -3.3407241E-02   0.0000000E+00  -5.1740403E-03  -3.2067969E-02   0.0000000E+00  -4.7503114E-03  -3.0691907E-02   0.0000000E+00  -4.4512036E-03  -4.3827984E-02   0.0000000E+00  -1.4484677E-02  -4.2841896E-02   0.0000000E+00  -1.0293517E-02  -4.1344669E-02   0.0000000E+00  -7.9197083E-03  -3.9568726E-02   0.0000000E+00  -7.2999238E-03  -3.7789859E-02   0.0000000E+00  -6.9894572E-03  -3.6102839E-02   0.0000000E+00  -6.5975664E-03  -5.3435557E-02   0.0000000E+00  -1.7950747E-02  -5.1060952E-02   0.0000000E+00  -1.3256690E-02  -4.8466448E-02   0.0000000E+00  -1.0983327E-02  -4.5953359E-02   0.0000000E+00  -1.0551848E-02  -4.3733474E-02   0.0000000E+00  -1.0228384E-02  -4.1837595E-02   0.0000000E+00  -9.4392877E-03  -6.3325383E-02   0.0000000E+00  -2.2682479E-02  -5.9249815E-02   0.0000000E+00  -1.7966183E-02  -5.5422310E-02   0.0000000E+00  -1.5771614E-02  -5.2266967E-02   0.0000000E+00  -1.5023629E-02  -4.9878068E-02   0.0000000E+00  -1.4043608E-02  -4.7686860E-02   0.0000000E+00  -1.2852311E-02  -7.2318144E-02   0.0000000E+00  -2.9205406E-02  -6.6723451E-02   0.0000000E+00  -2.5251823E-02  -6.2063646E-02   0.0000000E+00  -2.2631111E-02  -5.8720220E-02   0.0000000E+00  -2.0560671E-02  -5.5802729E-02   0.0000000E+00  -1.8816065E-02  -5.3282630E-02   0.0000000E+00  -1.6917299E-02  -7.9269871E-02   0.0000000E+00  -3.8012479E-02  -7.2847493E-02   0.0000000E+00  -3.5892740E-02  -6.7616679E-02   0.0000000E+00  -3.3957668E-02  -6.4063668E-02   0.0000000E+00  -2.9381145E-02  -6.1070468E-02   0.0000000E+00  -2.5174694E-02  -5.8245327E-02   0.0000000E+00  -2.1909745E-02  -8.3152674E-02   0.0000000E+00  -4.8029602E-02  -7.6231867E-02   0.0000000E+00  -4.9441770E-02  -7.0295677E-02   0.0000000E+00  -5.0499439E-02  -6.7232095E-02   0.0000000E+00  -4.2880915E-02  -6.4517505E-02   0.0000000E+00  -3.4679323E-02  -6.1729990E-02   0.0000000E+00  -2.8686469E-02  -8.0924898E-02   0.0000000E+00  -5.7513647E-02  -7.5471476E-02   0.0000000E+00  -6.2275186E-02  -6.9787301E-02   0.0000000E+00  -6.7258373E-02  -6.7870647E-02   0.0000000E+00  -5.8307130E-02  -6.5890104E-02   0.0000000E+00  -4.5978509E-02  -6.3289292E-02   0.0000000E+00  -3.6864717E-02  -6.7240871E-02   0.0000000E+00  -6.5056272E-02  -6.7498438E-02   0.0000000E+00  -7.1804933E-02  -6.4217508E-02   0.0000000E+00  -8.0197804E-02  -6.3699268E-02   0.0000000E+00  -7.1212031E-02  -6.2570438E-02   0.0000000E+00  -5.6123201E-02  -6.0332835E-02   0.0000000E+00  -4.4727281E-02  -4.7420315E-02   0.0000000E+00  -6.9871373E-02  -4.9246497E-02   0.0000000E+00  -7.6637551E-02  -4.9909990E-02   0.0000000E+00  -8.7132484E-02  -4.9893606E-02   0.0000000E+00  -7.8607149E-02  -4.8622843E-02   0.0000000E+00  -6.2493116E-02  -4.6607826E-02   0.0000000E+00  -5.0103839E-02  -2.9391889E-02   0.0000000E+00  -7.2826773E-02  -3.0764522E-02   0.0000000E+00  -7.8990325E-02  -3.1522993E-02   0.0000000E+00  -8.9472674E-02  -3.1657919E-02   0.0000000E+00  -8.1320316E-02  -3.0853320E-02   0.0000000E+00  -6.5429255E-02  -2.9519465E-02   0.0000000E+00  -5.2995708E-02  -1.5276073E-02   0.0000000E+00  -7.4737199E-02  -1.6169190E-02   0.0000000E+00  -8.0199480E-02  -1.6736159E-02   0.0000000E+00  -9.0333283E-02  -1.6938688E-02   0.0000000E+00  -8.2448080E-02  -1.6584488E-02   0.0000000E+00  -6.6919275E-02  -1.5890876E-02   0.0000000E+00  -5.4653451E-02  -4.8280964E-03   0.0000000E+00  -7.5898208E-02  -5.2677221E-03   0.0000000E+00  -8.0834754E-02  -5.5925502E-03   0.0000000E+00  -9.0569831E-02  -5.8124387E-03   0.0000000E+00  -8.2717352E-02  -5.7881330E-03   0.0000000E+00  -6.7463949E-02  -5.5995197E-03   0.0000000E+00  -5.5380147E-02   3.4127480E-03   0.0000000E+00  -7.6454744E-02   3.3783440E-03   0.0000000E+00  -8.1153125E-02   3.2799528E-03   0.0000000E+00  -9.0527050E-02   3.0916729E-03   0.0000000E+00  -8.2511164E-02   2.8749732E-03   0.0000000E+00  -6.7356750E-02   2.6670434E-03   0.0000000E+00  -5.5396624E-02   1.1000348E-02   0.0000000E+00  -7.6394729E-02   1.1313261E-02   0.0000000E+00  -8.1111751E-02   1.1378691E-02   0.0000000E+00  -9.0244189E-02   1.1251921E-02   0.0000000E+00  -8.1950039E-02   1.0831795E-02   0.0000000E+00  -6.6733368E-02   1.0283006E-02   0.0000000E+00  -5.4829329E-02   1.8781122E-02   0.0000000E+00  -7.5408638E-02   1.9377517E-02   0.0000000E+00  -8.0073602E-02   1.9534707E-02   0.0000000E+00  -8.8867269E-02   1.9470725E-02   0.0000000E+00  -8.0459110E-02   1.8844310E-02   0.0000000E+00  -6.5382227E-02   1.7968226E-02   0.0000000E+00  -5.3658344E-02   2.6714975E-02   0.0000000E+00  -7.3439315E-02   2.7530765E-02   0.0000000E+00  -7.7936500E-02   2.7701864E-02   0.0000000E+00  -8.6229578E-02   2.7733890E-02   0.0000000E+00  -7.7951871E-02   2.6886683E-02   0.0000000E+00  -6.3270099E-02   2.5683345E-02   0.0000000E+00  -5.1890019E-02   3.4338165E-02   0.0000000E+00  -7.0616737E-02   3.5247955E-02   0.0000000E+00  -7.4774794E-02   3.5406131E-02   0.0000000E+00  -8.2419291E-02   3.5548799E-02   0.0000000E+00  -7.4457310E-02   3.4476530E-02   0.0000000E+00  -6.0414750E-02   3.2956071E-02   0.0000000E+00  -4.9546167E-02   4.1069523E-02   0.0000000E+00  -6.7169413E-02   4.1935861E-02   0.0000000E+00  -7.0765220E-02   4.1935947E-02   0.0000000E+00  -7.7542074E-02   4.2314306E-02   0.0000000E+00  -7.0081756E-02   4.1031759E-02   0.0000000E+00  -5.6885477E-02   3.9225250E-02   0.0000000E+00  -4.6680488E-02   4.6390336E-02   0.0000000E+00  -6.3159347E-02   4.6910848E-02   0.0000000E+00  -6.6101313E-02   4.6847321E-02   0.0000000E+00  -7.1826741E-02   4.7501516E-02   0.0000000E+00  -6.4947456E-02   4.6035111E-02   0.0000000E+00  -5.2805100E-02   4.3743346E-02   0.0000000E+00  -4.3394890E-02   4.9982712E-02   0.0000000E+00  -5.8750737E-02   5.0269093E-02   0.0000000E+00  -6.1065167E-02   5.0189748E-02   0.0000000E+00  -6.5774038E-02   5.0847970E-02   0.0000000E+00  -5.9344791E-02   4.8430752E-02   0.0000000E+00  -4.8358627E-02   4.5243919E-02   0.0000000E+00  -3.9858598E-02   5.2460492E-02   0.0000000E+00  -5.4193344E-02   5.2618541E-02   0.0000000E+00  -5.5921882E-02   5.2343614E-02   0.0000000E+00  -5.9724126E-02   5.1946796E-02   0.0000000E+00  -5.3579651E-02   4.8610918E-02   0.0000000E+00  -4.3732516E-02   4.5066327E-02   0.0000000E+00  -3.6192369E-02   5.4544076E-02   0.0000000E+00  -4.9534298E-02   5.4401219E-02   0.0000000E+00  -5.0796602E-02   5.3616557E-02   0.0000000E+00  -5.3816732E-02   5.1803846E-02   0.0000000E+00  -4.7759797E-02   4.7997434E-02   0.0000000E+00  -3.9122980E-02   4.4264987E-02   0.0000000E+00  -3.2540131E-02   5.6913301E-02   0.0000000E+00  -4.4802818E-02   5.6171805E-02   0.0000000E+00  -4.5700289E-02   5.4414034E-02   0.0000000E+00  -4.8044384E-02   5.1315457E-02   0.0000000E+00  -4.2245861E-02   4.6975702E-02   0.0000000E+00  -3.4724995E-02   4.3096900E-02   0.0000000E+00  -2.9083807E-02   6.0256738E-02   0.0000000E+00  -4.0197033E-02   5.8421731E-02   0.0000000E+00  -4.0620238E-02   5.5226509E-02   0.0000000E+00  -4.2504419E-02   5.0757747E-02   0.0000000E+00  -3.7340377E-02   4.5801774E-02   0.0000000E+00  -3.0864820E-02   4.1784015E-02   0.0000000E+00  -2.5970811E-02   6.5713175E-02   0.0000000E+00  -3.6614232E-02   6.1665967E-02   0.0000000E+00  -3.6400300E-02   5.6209151E-02   0.0000000E+00  -3.7612308E-02   5.0217528E-02   0.0000000E+00  -3.3335745E-02   4.4649575E-02   0.0000000E+00  -2.7656272E-02   4.0393684E-02   0.0000000E+00  -2.3110574E-02   7.1128115E-02   0.0000000E+00  -3.4670807E-02   6.4558096E-02   0.0000000E+00  -3.3556625E-02   5.7277903E-02   0.0000000E+00  -3.3832613E-02   4.9817055E-02   0.0000000E+00  -3.0270977E-02   4.3709397E-02   0.0000000E+00  -2.5047280E-02   3.9022569E-02   0.0000000E+00  -2.0669660E-02   7.4583746E-02   0.0000000E+00  -3.3291362E-02   6.6567726E-02   0.0000000E+00  -3.1474724E-02   5.8299724E-02   0.0000000E+00  -3.0836562E-02   4.9704175E-02   0.0000000E+00  -2.7974565E-02   4.2982463E-02   0.0000000E+00  -2.3124937E-02   3.7795350E-02   0.0000000E+00  -1.8772915E-02   6.7179747E-02   0.0000000E+00  -2.9486071E-02   5.9028994E-02   0.0000000E+00  -2.8208191E-02   5.0214142E-02   0.0000000E+00  -2.5895724E-02   4.2606205E-02   0.0000000E+00  -2.1754971E-02   3.6880903E-02   0.0000000E+00  -1.7367812E-02   6.6626966E-02   0.0000000E+00  -2.7935565E-02   5.9308443E-02   0.0000000E+00  -2.6154200E-02   5.1098187E-02   0.0000000E+00  -2.4089571E-02   4.2902038E-02   0.0000000E+00  -2.0605266E-02   3.6394782E-02   0.0000000E+00  -1.6405074E-02   5.9023403E-02   0.0000000E+00  -2.4812311E-02   5.1873319E-02   0.0000000E+00  -2.2835299E-02   4.3915145E-02   0.0000000E+00  -1.9851128E-02   3.6597647E-02   0.0000000E+00  -1.5881164E-02   5.8113374E-02   0.0000000E+00  -2.3923868E-02   5.2354001E-02   0.0000000E+00  -2.2151824E-02   4.5300383E-02   0.0000000E+00  -1.9564649E-02   3.7811793E-02   0.0000000E+00  -1.5972575E-02   5.2066751E-02   0.0000000E+00  -2.1722181E-02   4.6511501E-02   0.0000000E+00  -1.9628156E-02   3.9793015E-02   0.0000000E+00  -1.6557490E-02   4.6881840E-02   0.0000000E+00  -1.9650504E-02   4.1638415E-02   0.0000000E+00  -1.7321276E-02   4.5682363E-02   0.0000000E+00  -1.9272067E-02   4.2497329E-02   0.0000000E+00  -1.7818553E-02  -3.6224323E-05   0.0000000E+00  -4.6304044E-06  -3.7542846E-05   0.0000000E+00  -3.8319026E-06  -3.8503131E-05   0.0000000E+00  -3.1311874E-06  -3.9201164E-05   0.0000000E+00  -2.5000729E-06  -3.9702983E-05   0.0000000E+00  -1.9439169E-06  -4.0057010E-05   0.0000000E+00  -1.4600499E-06  -4.0298986E-05   0.0000000E+00  -1.0348125E-06  -4.0454135E-05   0.0000000E+00  -6.5979151E-07  -4.0540097E-05   0.0000000E+00  -3.2165636E-07  -5.4010558E-05   0.0000000E+00  -6.6588191E-06  -5.5853507E-05   0.0000000E+00  -5.5325645E-06  -5.7174741E-05   0.0000000E+00  -4.5393745E-06  -5.8125537E-05   0.0000000E+00  -3.6334222E-06  -5.8795187E-05   0.0000000E+00  -2.8446366E-06  -5.9258233E-05   0.0000000E+00  -2.1498777E-06  -5.9569818E-05   0.0000000E+00  -1.5298563E-06  -5.9766113E-05   0.0000000E+00  -9.7983434E-07  -5.9873641E-05   0.0000000E+00  -4.7825398E-07  -7.8397774E-05   0.0000000E+00  -8.7362505E-06  -8.0900892E-05   0.0000000E+00  -7.2775238E-06  -8.2664534E-05   0.0000000E+00  -5.9853319E-06  -8.3905717E-05   0.0000000E+00  -4.8108104E-06  -8.4758714E-05   0.0000000E+00  -3.7802631E-06  -8.5334410E-05   0.0000000E+00  -2.8639397E-06  -8.5713233E-05   0.0000000E+00  -2.0437478E-06  -8.5947744E-05   0.0000000E+00  -1.3120547E-06  -8.6074695E-05   0.0000000E+00  -6.4081649E-07  -1.0986040E-04   0.0000000E+00  -1.1048543E-05  -1.1310841E-04   0.0000000E+00  -9.2082428E-06  -1.1535404E-04   0.0000000E+00  -7.5704615E-06  -1.1689230E-04   0.0000000E+00  -6.0916677E-06  -1.1791847E-04   0.0000000E+00  -4.7913727E-06  -1.1859164E-04   0.0000000E+00  -3.6320419E-06  -1.1902237E-04   0.0000000E+00  -2.5954737E-06  -1.1928262E-04   0.0000000E+00  -1.6687218E-06  -1.1942120E-04   0.0000000E+00  -8.1492351E-07  -1.4985471E-04   0.0000000E+00  -1.3749381E-05  -1.5388781E-04   0.0000000E+00  -1.1452898E-05  -1.5661983E-04   0.0000000E+00  -9.3929193E-06  -1.5843722E-04   0.0000000E+00  -7.5500420E-06  -1.5961086E-04   0.0000000E+00  -5.9315794E-06  -1.6035353E-04   0.0000000E+00  -4.4910166E-06  -1.6081009E-04   0.0000000E+00  -3.2095625E-06  -1.6107512E-04   0.0000000E+00  -2.0650409E-06  -1.6121237E-04   0.0000000E+00  -1.0075257E-06  -2.0069245E-04   0.0000000E+00  -1.7005597E-05  -2.0551891E-04   0.0000000E+00  -1.4158190E-05  -2.0870927E-04   0.0000000E+00  -1.1571175E-05  -2.1075753E-04   0.0000000E+00  -9.2784385E-06  -2.1202574E-04   0.0000000E+00  -7.2693724E-06  -2.1278851E-04   0.0000000E+00  -5.4882053E-06  -2.1322859E-04   0.0000000E+00  -3.9173815E-06  -2.1346688E-04   0.0000000E+00  -2.5185504E-06  -2.1358277E-04   0.0000000E+00  -1.2278903E-06  -2.6556462E-04   0.0000000E+00  -2.1040052E-05  -2.7116630E-04   0.0000000E+00  -1.7511824E-05  -2.7475072E-04   0.0000000E+00  -1.4255229E-05  -2.7694387E-04   0.0000000E+00  -1.1388826E-05  -2.7821821E-04   0.0000000E+00  -8.8863208E-06  -2.7892136E-04   0.0000000E+00  -6.6784178E-06  -2.7927849E-04   0.0000000E+00  -4.7542280E-06  -2.7944191E-04   0.0000000E+00  -3.0492613E-06  -2.7950664E-04   0.0000000E+00  -1.4850154E-06  -3.4856534E-04   0.0000000E+00  -2.6186550E-05  -3.5488361E-04   0.0000000E+00  -2.1759812E-05  -3.5874624E-04   0.0000000E+00  -1.7631332E-05  -3.6094533E-04   0.0000000E+00  -1.4012397E-05  -3.6208730E-04   0.0000000E+00  -1.0866121E-05  -3.6260529E-04   0.0000000E+00  -8.1198550E-06  -3.6277861E-04   0.0000000E+00  -5.7551460E-06  -3.6279301E-04   0.0000000E+00  -3.6772644E-06  -3.6276210E-04   0.0000000E+00  -1.7876724E-06  -4.5468728E-04   0.0000000E+00  -3.2930584E-05  -4.6158777E-04   0.0000000E+00  -2.7258513E-05  -4.6554094E-04   0.0000000E+00  -2.1938587E-05  -4.6753496E-04   0.0000000E+00  -1.7304514E-05  -4.6833753E-04   0.0000000E+00  -1.3309080E-05  -4.6848759E-04   0.0000000E+00  -9.8672217E-06  -4.6832630E-04   0.0000000E+00  -6.9484940E-06  -4.6808104E-04   0.0000000E+00  -4.4162971E-06  -4.6788674E-04   0.0000000E+00  -2.1406399E-06  -5.8995734E-04   0.0000000E+00  -4.1952720E-05  -5.9721543E-04   0.0000000E+00  -3.4436751E-05  -6.0095830E-04   0.0000000E+00  -2.7462171E-05  -6.0242938E-04   0.0000000E+00  -2.1439737E-05  -6.0258940E-04   0.0000000E+00  -1.6311506E-05  -6.0210360E-04   0.0000000E+00  -1.1965035E-05  -6.0138956E-04   0.0000000E+00  -8.3501773E-06  -6.0072372E-04   0.0000000E+00  -5.2684391E-06  -6.0026796E-04   0.0000000E+00  -2.5429281E-06  -7.6176971E-04   0.0000000E+00  -5.3941814E-05  -7.6902792E-04   0.0000000E+00  -4.3736462E-05  -7.7209505E-04   0.0000000E+00  -3.4505996E-05  -7.7257509E-04   0.0000000E+00  -2.6583302E-05  -7.7164755E-04   0.0000000E+00  -1.9951005E-05  -7.7014067E-04   0.0000000E+00  -1.4436345E-05  -7.6856307E-04   0.0000000E+00  -9.9574545E-06  -7.6725119E-04   0.0000000E+00  -6.2238037E-06  -7.6639786E-04   0.0000000E+00  -2.9872192E-06  -9.7915018E-04   0.0000000E+00  -6.9507900E-05  -9.8580727E-04   0.0000000E+00  -5.5590746E-05  -9.8751776E-04   0.0000000E+00  -4.3327251E-05  -9.8634080E-04   0.0000000E+00  -3.2845008E-05  -9.8369399E-04   0.0000000E+00  -2.4266748E-05  -9.8062668E-04   0.0000000E+00  -1.7276781E-05  -9.7775494E-04   0.0000000E+00  -1.1747147E-05  -9.7548845E-04   0.0000000E+00  -7.2566395E-06  -9.7405090E-04   0.0000000E+00  -3.4587890E-06  -1.2530356E-03   0.0000000E+00  -8.9490110E-05  -1.2580793E-03   0.0000000E+00  -7.0416558E-05  -1.2574055E-03   0.0000000E+00  -5.4092139E-05  -1.2535998E-03   0.0000000E+00  -4.0261330E-05  -1.2483476E-03   0.0000000E+00  -2.9243625E-05  -1.2429720E-03   0.0000000E+00  -2.0442061E-05  -1.2382197E-03   0.0000000E+00  -1.3675589E-05  -1.2345802E-03   0.0000000E+00  -8.3293071E-06  -1.2323092E-03   0.0000000E+00  -3.9380702E-06  -1.5965678E-03   0.0000000E+00  -1.1490680E-04  -1.5984023E-03   0.0000000E+00  -8.8568690E-05  -1.5937884E-03   0.0000000E+00  -6.6854576E-05  -1.5859244E-03   0.0000000E+00  -4.8788563E-05  -1.5768192E-03   0.0000000E+00  -3.4782941E-05  -1.5681126E-03   0.0000000E+00  -2.3861909E-05  -1.5606814E-03   0.0000000E+00  -1.5687194E-05  -1.5551127E-03   0.0000000E+00  -9.4025190E-06  -1.5516805E-03   0.0000000E+00  -4.4071130E-06  -2.0255905E-03   0.0000000E+00  -1.4617461E-04  -2.0217800E-03   0.0000000E+00  -1.1017970E-04  -2.0109476E-03   0.0000000E+00  -8.1561455E-05  -1.9969752E-03   0.0000000E+00  -5.8338363E-05  -1.9822770E-03   0.0000000E+00  -4.0782201E-05  -1.9688362E-03   0.0000000E+00  -2.7430982E-05  -1.9576710E-03   0.0000000E+00  -1.7744578E-05  -1.9494363E-03   0.0000000E+00  -1.0461667E-05  -1.9444111E-03   0.0000000E+00  -4.8568850E-06  -2.5589792E-03   0.0000000E+00  -1.8308259E-04  -2.5462520E-03   0.0000000E+00  -1.3525937E-04  -2.5260111E-03   0.0000000E+00  -9.8116885E-05  -2.5030943E-03   0.0000000E+00  -6.8842950E-05  -2.4804245E-03   0.0000000E+00  -4.7191195E-05  -2.4603631E-03   0.0000000E+00  -3.1176827E-05  -2.4440729E-03   0.0000000E+00  -1.9860001E-05  -2.4322113E-03   0.0000000E+00  -1.1557746E-05  -2.4250404E-03   0.0000000E+00  -5.3141671E-06  -3.2197530E-03   0.0000000E+00  -2.2558037E-04  -3.1934706E-03   0.0000000E+00  -1.6333070E-04  -3.1595319E-03   0.0000000E+00  -1.1612913E-04  -3.1238948E-03   0.0000000E+00  -8.0211328E-05  -3.0901663E-03   0.0000000E+00  -5.4164295E-05  -3.0610440E-03   0.0000000E+00  -3.5344910E-05  -3.0378420E-03   0.0000000E+00  -2.2272188E-05  -3.0211611E-03   0.0000000E+00  -1.2906987E-05  -3.0111570E-03   0.0000000E+00  -5.9090785E-06  -4.0350799E-03   0.0000000E+00  -2.7296561E-04  -3.9891414E-03   0.0000000E+00  -1.9461031E-04  -3.9359140E-03   0.0000000E+00  -1.3600707E-04  -3.8826643E-03   0.0000000E+00  -9.3027149E-05  -3.8339677E-03   0.0000000E+00  -6.2391686E-05  -3.7927658E-03   0.0000000E+00  -4.0699084E-05  -3.7604843E-03   0.0000000E+00  -2.5715686E-05  -3.7375409E-03   0.0000000E+00  -1.5045296E-05  -3.7238819E-03   0.0000000E+00  -6.9292587E-06  -5.0359168E-03   0.0000000E+00  -3.2556223E-04  -4.9622934E-03   0.0000000E+00  -2.2984162E-04  -4.8826844E-03   0.0000000E+00  -1.5902563E-04  -4.8057078E-03   0.0000000E+00  -1.0893922E-04  -4.7372985E-03   0.0000000E+00  -7.3582225E-05  -4.6804552E-03   0.0000000E+00  -4.8969352E-05  -4.6365871E-03   0.0000000E+00  -3.1664167E-05  -4.6057324E-03   0.0000000E+00  -1.9038016E-05  -4.5875045E-03   0.0000000E+00  -8.9333598E-06  -6.2559485E-03   0.0000000E+00  -3.8438945E-04  -6.1443066E-03   0.0000000E+00  -2.7192943E-04  -6.0292729E-03   0.0000000E+00  -1.8862871E-04  -5.9211119E-03   0.0000000E+00  -1.3169082E-04  -5.8273324E-03   0.0000000E+00  -9.1410722E-05  -5.7507926E-03   0.0000000E+00  -6.3424006E-05  -5.6925663E-03   0.0000000E+00  -4.2832435E-05  -5.6520551E-03   0.0000000E+00  -2.6773005E-05  -5.6282971E-03   0.0000000E+00  -1.2916785E-05  -7.7318647E-03   0.0000000E+00  -4.5546092E-04  -7.5683938E-03   0.0000000E+00  -3.2612763E-04  -7.4060438E-03   0.0000000E+00  -2.3172014E-04  -7.2577903E-03   0.0000000E+00  -1.6777942E-04  -7.1320003E-03   0.0000000E+00  -1.2256105E-04  -7.0312773E-03   0.0000000E+00  -8.9610796E-05  -6.9557684E-03   0.0000000E+00  -6.3700092E-05  -6.9038495E-03   0.0000000E+00  -4.1366060E-05  -6.8736412E-03   0.0000000E+00  -2.0455493E-05  -9.5035937E-03   0.0000000E+00  -5.5000698E-04  -9.2699444E-03   0.0000000E+00  -4.0488882E-04  -9.0457369E-03   0.0000000E+00  -3.0087799E-04  -8.8465940E-03   0.0000000E+00  -2.2927218E-04  -8.6812796E-03   0.0000000E+00  -1.7749840E-04  -8.5514812E-03   0.0000000E+00  -1.3636459E-04  -8.4557468E-03   0.0000000E+00  -1.0096297E-04  -8.3907442E-03   0.0000000E+00  -6.7366520E-05  -8.3532538E-03   0.0000000E+00  -3.3830100E-05  -1.1617911E-02   0.0000000E+00  -6.8880979E-04  -1.1291618E-02   0.0000000E+00  -5.2970828E-04  -1.0987549E-02   0.0000000E+00  -4.1672282E-04  -1.0724997E-02   0.0000000E+00  -3.3478145E-04  -1.0511720E-02   0.0000000E+00  -2.7144307E-04  -1.0347719E-02   0.0000000E+00  -2.1621122E-04  -1.0228843E-02   0.0000000E+00  -1.6398047E-04  -1.0149234E-02   0.0000000E+00  -1.1096754E-04  -1.0103764E-02   0.0000000E+00  -5.6126821E-05  -1.4131189E-02   0.0000000E+00  -9.0763957E-04  -1.3686134E-02   0.0000000E+00  -7.3534803E-04  -1.3282407E-02   0.0000000E+00  -6.1071949E-04  -1.2942741E-02   0.0000000E+00  -5.1080750E-04  -1.2672585E-02   0.0000000E+00  -4.2586174E-04  -1.2469100E-02   0.0000000E+00  -3.4571401E-04  -1.2324305E-02   0.0000000E+00  -2.6483028E-04  -1.2228808E-02   0.0000000E+00  -1.8013996E-04  -1.2174850E-02   0.0000000E+00  -9.1294656E-05  -1.7110281E-02   0.0000000E+00  -1.2598203E-03  -1.6518088E-02   0.0000000E+00  -1.0741815E-03  -1.5995080E-02   0.0000000E+00  -9.2606794E-04  -1.5564065E-02   0.0000000E+00  -7.9360273E-04  -1.5228265E-02   0.0000000E+00  -6.6870981E-04  -1.4980286E-02   0.0000000E+00  -5.4455944E-04  -1.4807003E-02   0.0000000E+00  -4.1666874E-04  -1.4694543E-02   0.0000000E+00  -2.8261499E-04  -1.4631729E-02   0.0000000E+00  -1.4295295E-04  -2.0621596E-02   0.0000000E+00  -1.8325928E-03  -1.9856954E-02   0.0000000E+00  -1.6177646E-03  -1.9196810E-02   0.0000000E+00  -1.4217815E-03  -1.8661883E-02   0.0000000E+00  -1.2261994E-03  -1.8252274E-02   0.0000000E+00  -1.0297110E-03  -1.7955381E-02   0.0000000E+00  -8.3276210E-04  -1.7751561E-02   0.0000000E+00  -6.3205714E-04  -1.7621316E-02   0.0000000E+00  -4.2590662E-04  -1.7549438E-02   0.0000000E+00  -2.1460489E-04  -2.4715308E-02   0.0000000E+00  -2.7337787E-03  -2.3761619E-02   0.0000000E+00  -2.4558676E-03  -2.2950357E-02   0.0000000E+00  -2.1640174E-03  -2.2300651E-02   0.0000000E+00  -1.8553237E-03  -2.1809792E-02   0.0000000E+00  -1.5434693E-03  -2.1459199E-02   0.0000000E+00  -1.2343526E-03  -2.1222033E-02   0.0000000E+00  -9.2826941E-04  -2.1073056E-02   0.0000000E+00  -6.2049972E-04  -2.0991845E-02   0.0000000E+00  -3.1118252E-04  -2.9397683E-02   0.0000000E+00  -4.0934221E-03  -2.8248664E-02   0.0000000E+00  -3.6714694E-03  -2.7278984E-02   0.0000000E+00  -3.1993142E-03  -2.6506351E-02   0.0000000E+00  -2.7043258E-03  -2.5926337E-02   0.0000000E+00  -2.2191198E-03  -2.5516592E-02   0.0000000E+00  -1.7517745E-03  -2.5243549E-02   0.0000000E+00  -1.3018129E-03  -2.5073916E-02   0.0000000E+00  -8.6312345E-04  -2.4981897E-02   0.0000000E+00  -4.3047610E-04  -3.4584623E-02   0.0000000E+00  -6.0216547E-03  -3.3248305E-02   0.0000000E+00  -5.3284043E-03  -3.2114051E-02   0.0000000E+00  -4.5822440E-03  -3.1208849E-02   0.0000000E+00  -3.8256373E-03  -3.0533215E-02   0.0000000E+00  -3.0962965E-03  -3.0060718E-02   0.0000000E+00  -2.4105334E-03  -2.9749479E-02   0.0000000E+00  -1.7673413E-03  -2.9558381E-02   0.0000000E+00  -1.1576335E-03  -2.9455325E-02   0.0000000E+00  -5.7271461E-04  -4.0116485E-02   0.0000000E+00  -8.4840301E-03  -3.8577225E-02   0.0000000E+00  -7.4138390E-03  -3.7257224E-02   0.0000000E+00  -6.3091163E-03  -3.6203936E-02   0.0000000E+00  -5.2031418E-03  -3.5423517E-02   0.0000000E+00  -4.1551255E-03  -3.4881756E-02   0.0000000E+00  -3.1930308E-03  -3.4527190E-02   0.0000000E+00  -2.3143229E-03  -3.4310546E-02   0.0000000E+00  -1.5028440E-03  -3.4193136E-02   0.0000000E+00  -7.4226531E-04  -4.5702353E-02   0.0000000E+00  -1.1429309E-02  -4.3917727E-02   0.0000000E+00  -9.9078845E-03  -4.2378593E-02   0.0000000E+00  -8.3510010E-03  -4.1167196E-02   0.0000000E+00  -6.7816526E-03  -4.0272251E-02   0.0000000E+00  -5.3204228E-03  -3.9649606E-02   0.0000000E+00  -4.0256502E-03  -3.9234743E-02   0.0000000E+00  -2.8887077E-03  -3.8976979E-02   0.0000000E+00  -1.8661596E-03  -3.8841181E-02   0.0000000E+00  -9.1472769E-04  -5.1000509E-02   0.0000000E+00  -1.4950883E-02  -4.8931517E-02   0.0000000E+00  -1.2929926E-02  -4.7183909E-02   0.0000000E+00  -1.0795315E-02  -4.5808695E-02   0.0000000E+00  -8.6282380E-03  -4.4775303E-02   0.0000000E+00  -6.6352724E-03  -4.4053324E-02   0.0000000E+00  -4.9037589E-03  -4.3568976E-02   0.0000000E+00  -3.4511199E-03  -4.3254055E-02   0.0000000E+00  -2.2034389E-03  -4.3081000E-02   0.0000000E+00  -1.0745419E-03  -5.5610444E-02   0.0000000E+00  -1.9129708E-02  -5.3298011E-02   0.0000000E+00  -1.6367376E-02  -5.1401537E-02   0.0000000E+00  -1.3492712E-02  -4.9874797E-02   0.0000000E+00  -1.0628940E-02  -4.8690841E-02   0.0000000E+00  -8.0428831E-03  -4.7827605E-02   0.0000000E+00  -5.8556921E-03  -4.7235943E-02   0.0000000E+00  -4.0530879E-03  -4.6855051E-02   0.0000000E+00  -2.5543042E-03  -4.6643127E-02   0.0000000E+00  -1.2365609E-03  -5.9041865E-02   0.0000000E+00  -2.4292152E-02  -5.6669381E-02   0.0000000E+00  -2.0535478E-02  -5.4700844E-02   0.0000000E+00  -1.6776199E-02  -5.3086676E-02   0.0000000E+00  -1.3073493E-02  -5.1792748E-02   0.0000000E+00  -9.7558601E-03  -5.0797004E-02   0.0000000E+00  -6.9982088E-03  -5.0083611E-02   0.0000000E+00  -4.7839470E-03  -4.9613487E-02   0.0000000E+00  -2.9858609E-03  -4.9348481E-02   0.0000000E+00  -1.4369332E-03  -6.0532656E-02   0.0000000E+00  -3.0610176E-02  -5.8047570E-02   0.0000000E+00  -2.5588034E-02  -5.5995613E-02   0.0000000E+00  -2.0703578E-02  -5.4333091E-02   0.0000000E+00  -1.5953880E-02  -5.2997544E-02   0.0000000E+00  -1.1737431E-02  -5.1976454E-02   0.0000000E+00  -8.2932664E-03  -5.1237535E-02   0.0000000E+00  -5.5953162E-03  -5.0737895E-02   0.0000000E+00  -3.4511068E-03  -5.0457198E-02   0.0000000E+00  -1.6507438E-03  -5.7749771E-02   0.0000000E+00  -3.6843546E-02  -5.5361178E-02   0.0000000E+00  -3.0630769E-02  -5.3375743E-02   0.0000000E+00  -2.4606267E-02  -5.1774770E-02   0.0000000E+00  -1.8749841E-02  -5.0527122E-02   0.0000000E+00  -1.3597938E-02  -4.9595982E-02   0.0000000E+00  -9.4308769E-03  -4.8930824E-02   0.0000000E+00  -6.2342449E-03  -4.8498619E-02   0.0000000E+00  -3.7823631E-03  -4.8257884E-02   0.0000000E+00  -1.7892395E-03  -4.4342749E-02   0.0000000E+00  -4.1386373E-02  -4.2212330E-02   0.0000000E+00  -3.4417354E-02  -4.0402304E-02   0.0000000E+00  -2.7610989E-02  -3.8965493E-02   0.0000000E+00  -2.0988528E-02  -3.7888527E-02   0.0000000E+00  -1.5180137E-02  -3.7120473E-02   0.0000000E+00  -1.0486339E-02  -3.6597781E-02   0.0000000E+00  -6.8978309E-03  -3.6263309E-02   0.0000000E+00  -4.1682138E-03  -3.6076799E-02   0.0000000E+00  -1.9666238E-03  -2.7988717E-02   0.0000000E+00  -4.4061273E-02  -2.6515042E-02   0.0000000E+00  -3.6769234E-02  -2.5234230E-02   0.0000000E+00  -2.9559962E-02  -2.4199868E-02   0.0000000E+00  -2.2507343E-02  -2.3415253E-02   0.0000000E+00  -1.6300770E-02  -2.2850662E-02   0.0000000E+00  -1.1274583E-02  -2.2462741E-02   0.0000000E+00  -7.4253320E-03  -2.2211716E-02   0.0000000E+00  -4.4918284E-03  -2.2070352E-02   0.0000000E+00  -2.1209384E-03  -1.5040454E-02   0.0000000E+00  -4.5709893E-02  -1.4181307E-02   0.0000000E+00  -3.8286068E-02  -1.3407234E-02   0.0000000E+00  -3.0852251E-02  -1.2768285E-02   0.0000000E+00  -2.3531083E-02  -1.2276925E-02   0.0000000E+00  -1.7064631E-02  -1.1919122E-02   0.0000000E+00  -1.1817714E-02  -1.1669680E-02   0.0000000E+00  -7.7933818E-03  -1.1505586E-02   0.0000000E+00  -4.7204732E-03  -1.1411821E-02   0.0000000E+00  -2.2309176E-03  -5.3063980E-03   0.0000000E+00  -4.6510354E-02  -4.9703033E-03   0.0000000E+00  -3.9069686E-02  -4.6447571E-03   0.0000000E+00  -3.1544201E-02  -4.3657045E-03   0.0000000E+00  -2.4090314E-02  -4.1460325E-03   0.0000000E+00  -1.7488074E-02  -3.9821872E-03   0.0000000E+00  -1.2123829E-02  -3.8643416E-03   0.0000000E+00  -8.0050547E-03  -3.7840179E-03   0.0000000E+00  -4.8546549E-03  -3.7367258E-03   0.0000000E+00  -2.2964587E-03   2.5034507E-03   0.0000000E+00  -4.6620954E-02   2.3947377E-03   0.0000000E+00  -3.9230227E-02   2.3288119E-03   0.0000000E+00  -3.1710997E-02   2.2889469E-03   0.0000000E+00  -2.4236064E-02   2.2655507E-03   0.0000000E+00  -1.7605010E-02   2.2543690E-03   0.0000000E+00  -1.2214283E-02   2.2522088E-03   0.0000000E+00  -8.0727469E-03   2.2551357E-03   0.0000000E+00  -4.9008410E-03   2.2590386E-03   0.0000000E+00  -2.3201695E-03   9.7192209E-03   0.0000000E+00  -4.6150312E-02   9.2159882E-03   0.0000000E+00  -3.8856801E-02   8.8022156E-03   0.0000000E+00  -3.1423170E-02   8.4793903E-03   0.0000000E+00  -2.4021842E-02   8.2403803E-03   0.0000000E+00  -1.7453738E-02   8.0733029E-03   0.0000000E+00  -1.2114708E-02   7.9634832E-03   0.0000000E+00  -8.0123497E-03   7.8963889E-03   0.0000000E+00  -4.8679169E-03   7.8606810E-03   0.0000000E+00  -2.3060020E-03   1.7027128E-02   0.0000000E+00  -4.5148682E-02   1.6157825E-02   0.0000000E+00  -3.8012881E-02   1.5427232E-02   0.0000000E+00  -3.0739000E-02   1.4850289E-02   0.0000000E+00  -2.3495544E-02   1.4418876E-02   0.0000000E+00  -1.7070111E-02   1.4112859E-02   0.0000000E+00  -1.1849840E-02   1.3906782E-02   0.0000000E+00  -7.8398436E-03   1.3776762E-02   0.0000000E+00  -4.7652819E-03   1.3705323E-02   0.0000000E+00  -2.2582661E-03   2.4377463E-02   0.0000000E+00  -4.3646123E-02   2.3163848E-02   0.0000000E+00  -3.6739528E-02   2.2142502E-02   0.0000000E+00  -2.9700585E-02   2.1336397E-02   0.0000000E+00  -2.2693509E-02   2.0733070E-02   0.0000000E+00  -1.6481986E-02   2.0303313E-02   0.0000000E+00  -1.1439393E-02   2.0011595E-02   0.0000000E+00  -7.5682439E-03   1.9825598E-02   0.0000000E+00  -4.6007885E-03   1.9722292E-02   0.0000000E+00  -2.1806154E-03   3.1307131E-02   0.0000000E+00  -4.1673657E-02   2.9777706E-02   0.0000000E+00  -3.5074092E-02   2.8495153E-02   0.0000000E+00  -2.8344920E-02   2.7486170E-02   0.0000000E+00  -2.1647267E-02   2.6731947E-02   0.0000000E+00  -1.5713587E-02   2.6194151E-02   0.0000000E+00  -1.0900718E-02   2.5827823E-02   0.0000000E+00  -7.2092908E-03   2.5593122E-02   0.0000000E+00  -4.3817284E-03   2.5462184E-02   0.0000000E+00  -2.0766526E-03   3.7271123E-02   0.0000000E+00  -3.9280381E-02   3.5463385E-02   0.0000000E+00  -3.3063430E-02   3.3951137E-02   0.0000000E+00  -2.6713740E-02   3.2762185E-02   0.0000000E+00  -2.0390969E-02   3.1870257E-02   0.0000000E+00  -1.4791282E-02   3.1231461E-02   0.0000000E+00  -1.0253315E-02   3.0794526E-02   0.0000000E+00  -6.7771734E-03   3.0513557E-02   0.0000000E+00  -4.1177389E-03   3.0355822E-02   0.0000000E+00  -1.9511692E-03   4.1271918E-02   0.0000000E+00  -3.6561582E-02   3.9016206E-02   0.0000000E+00  -3.0787352E-02   3.7177127E-02   0.0000000E+00  -2.4875540E-02   3.5722643E-02   0.0000000E+00  -1.8991958E-02   3.4589492E-02   0.0000000E+00  -1.3791101E-02   3.3735115E-02   0.0000000E+00  -9.5871761E-03   3.3118013E-02   0.0000000E+00  -6.3635209E-03   3.2712396E-02   0.0000000E+00  -3.8841064E-03   3.2482952E-02   0.0000000E+00  -1.8469229E-03   4.2252332E-02   0.0000000E+00  -3.3664137E-02   3.9737564E-02   0.0000000E+00  -2.8358134E-02   3.7729487E-02   0.0000000E+00  -2.2920467E-02   3.6139835E-02   0.0000000E+00  -1.7520856E-02   3.4908857E-02   0.0000000E+00  -1.2757589E-02   3.3978473E-02   0.0000000E+00  -8.9104613E-03   3.3305924E-02   0.0000000E+00  -5.9546665E-03   3.2851811E-02   0.0000000E+00  -3.6575361E-03   3.2598745E-02   0.0000000E+00  -1.7473497E-03   4.1958347E-02   0.0000000E+00  -3.0660309E-02   3.9380014E-02   0.0000000E+00  -2.5853558E-02   3.7315130E-02   0.0000000E+00  -2.0901484E-02   3.5689641E-02   0.0000000E+00  -1.6001251E-02   3.4436528E-02   0.0000000E+00  -1.1679929E-02   3.3488274E-02   0.0000000E+00  -8.1855757E-03   3.2819528E-02   0.0000000E+00  -5.4859943E-03   3.2377362E-02   0.0000000E+00  -3.3770103E-03   3.2125864E-02   0.0000000E+00  -1.6152898E-03   4.1082799E-02   0.0000000E+00  -2.7673678E-02   3.8467649E-02   0.0000000E+00  -2.3345698E-02   3.6395997E-02   0.0000000E+00  -1.8894384E-02   3.4771703E-02   0.0000000E+00  -1.4494244E-02   3.3522651E-02   0.0000000E+00  -1.0612899E-02   3.2613002E-02   0.0000000E+00  -7.4619553E-03   3.1995621E-02   0.0000000E+00  -5.0145192E-03   3.1595640E-02   0.0000000E+00  -3.0977204E-03   3.1368814E-02   0.0000000E+00  -1.4858340E-03   3.9868467E-02   0.0000000E+00  -2.4811070E-02   3.7269656E-02   0.0000000E+00  -2.0977309E-02   3.5190348E-02   0.0000000E+00  -1.7007582E-02   3.3597674E-02   0.0000000E+00  -1.3090380E-02   3.2413829E-02   0.0000000E+00  -9.6125696E-03   3.1569336E-02   0.0000000E+00  -6.7858999E-03   3.0984795E-02   0.0000000E+00  -4.5985361E-03   3.0604517E-02   0.0000000E+00  -2.8683832E-03   3.0396115E-02   0.0000000E+00  -1.3831975E-03   3.8550880E-02   0.0000000E+00  -2.2125447E-02   3.5935361E-02   0.0000000E+00  -1.8734721E-02   3.3842769E-02   0.0000000E+00  -1.5227846E-02   3.2265555E-02   0.0000000E+00  -1.1774285E-02   3.1114124E-02   0.0000000E+00  -8.7076603E-03   3.0309543E-02   0.0000000E+00  -6.2149442E-03   2.9765662E-02   0.0000000E+00  -4.2554955E-03   2.9421894E-02   0.0000000E+00  -2.6664441E-03   2.9224386E-02   0.0000000E+00  -1.2856118E-03   3.7105825E-02   0.0000000E+00  -1.9710587E-02   3.4420136E-02   0.0000000E+00  -1.6637025E-02   3.2344859E-02   0.0000000E+00  -1.3593320E-02   3.0769372E-02   0.0000000E+00  -1.0578626E-02   2.9649917E-02   0.0000000E+00  -7.9126339E-03   2.8875170E-02   0.0000000E+00  -5.7107238E-03   2.8366804E-02   0.0000000E+00  -3.9427569E-03   2.8043645E-02   0.0000000E+00  -2.4757667E-03   2.7859619E-02   0.0000000E+00  -1.1899688E-03   3.5566054E-02   0.0000000E+00  -1.7532887E-02   3.2842249E-02   0.0000000E+00  -1.4723508E-02   3.0741865E-02   0.0000000E+00  -1.2089164E-02   2.9178750E-02   0.0000000E+00  -9.5114568E-03   2.8068459E-02   0.0000000E+00  -7.2028032E-03   2.7318668E-02   0.0000000E+00  -5.2569597E-03   2.6835775E-02   0.0000000E+00  -3.6580393E-03   2.6533244E-02   0.0000000E+00  -2.2987253E-03   2.6362868E-02   0.0000000E+00  -1.1064651E-03   3.4048568E-02   0.0000000E+00  -1.5598085E-02   3.1289600E-02   0.0000000E+00  -1.3074943E-02   2.9133298E-02   0.0000000E+00  -1.0697154E-02   2.7580634E-02   0.0000000E+00  -8.5477419E-03   2.6466530E-02   0.0000000E+00  -6.5505072E-03   2.5731744E-02   0.0000000E+00  -4.8463908E-03   2.5262162E-02   0.0000000E+00  -3.3946303E-03   2.4965288E-02   0.0000000E+00  -2.1391071E-03   2.4802865E-02   0.0000000E+00  -1.0303570E-03   3.2746017E-02   0.0000000E+00  -1.4011977E-02   2.9787498E-02   0.0000000E+00  -1.1512096E-02   2.7644092E-02   0.0000000E+00  -9.4665084E-03   2.6040819E-02   0.0000000E+00  -7.5960183E-03   2.4942210E-02   0.0000000E+00  -5.9407032E-03   2.4195870E-02   0.0000000E+00  -4.4498234E-03   2.3719845E-02   0.0000000E+00  -3.1478563E-03   2.3418466E-02   0.0000000E+00  -1.9936957E-03   2.3254517E-02   0.0000000E+00  -9.6439349E-04   3.1792715E-02   0.0000000E+00  -1.2827735E-02   2.8551571E-02   0.0000000E+00  -1.0206231E-02   2.6271153E-02   0.0000000E+00  -8.2679717E-03   2.4673097E-02   0.0000000E+00  -6.7031705E-03   2.3529295E-02   0.0000000E+00  -5.2991817E-03   2.2784373E-02   0.0000000E+00  -4.0571531E-03   2.2283053E-02   0.0000000E+00  -2.9004265E-03   2.1969490E-02   0.0000000E+00  -1.8603572E-03   2.1796521E-02   0.0000000E+00  -9.0360263E-04   3.1284247E-02   0.0000000E+00  -1.2148702E-02   2.7661771E-02   0.0000000E+00  -9.2813559E-03   2.5179790E-02   0.0000000E+00  -7.2852173E-03   2.3456786E-02   0.0000000E+00  -5.8255270E-03   2.2312835E-02   0.0000000E+00  -4.6709534E-03   2.1520691E-02   0.0000000E+00  -3.6094585E-03   2.1002870E-02   0.0000000E+00  -2.6342163E-03   2.0674121E-02   0.0000000E+00  -1.7039295E-03   2.0496482E-02   0.0000000E+00  -8.4044231E-04   3.1529550E-02   0.0000000E+00  -1.2102373E-02   2.7260887E-02   0.0000000E+00  -8.9167161E-03   2.4437703E-02   0.0000000E+00  -6.6612391E-03   2.2535145E-02   0.0000000E+00  -5.1371278E-03   2.1267252E-02   0.0000000E+00  -4.0292302E-03   2.0440171E-02   0.0000000E+00  -3.1471341E-03   1.9893007E-02   0.0000000E+00  -2.3069163E-03   1.9547746E-02   0.0000000E+00  -1.5140763E-03   1.9364024E-02   0.0000000E+00  -7.4844295E-04   3.3138674E-02   0.0000000E+00  -1.2892035E-02   2.7783960E-02   0.0000000E+00  -9.3761859E-03   2.4241345E-02   0.0000000E+00  -6.6533987E-03   2.1975320E-02   0.0000000E+00  -4.8275571E-03   2.0508114E-02   0.0000000E+00  -3.5992973E-03   1.9555885E-02   0.0000000E+00  -2.6955674E-03   1.8949546E-02   0.0000000E+00  -1.9636450E-03   1.8599641E-02   0.0000000E+00  -1.2949732E-03   1.8394675E-02   0.0000000E+00  -6.3416956E-04   3.5787277E-02   0.0000000E+00  -1.4175023E-02   2.9944280E-02   0.0000000E+00  -1.0843845E-02   2.5250683E-02   0.0000000E+00  -7.7214958E-03   2.2084925E-02   0.0000000E+00  -5.2693584E-03   2.0169040E-02   0.0000000E+00  -3.6383281E-03   1.8999895E-02   0.0000000E+00  -2.5554730E-03   1.8257048E-02   0.0000000E+00  -1.7451474E-03   1.7821319E-02   0.0000000E+00  -1.1021855E-03   1.7599586E-02   0.0000000E+00  -5.3300476E-04   3.8113926E-02   0.0000000E+00  -1.5446877E-02   3.3323899E-02   0.0000000E+00  -1.2544964E-02   2.8274434E-02   0.0000000E+00  -9.6761268E-03   2.3956418E-02   0.0000000E+00  -6.9967126E-03   2.0947138E-02   0.0000000E+00  -4.7013476E-03   1.9099889E-02   0.0000000E+00  -3.0501094E-03   1.8037744E-02   0.0000000E+00  -1.9226938E-03   1.7450592E-02   0.0000000E+00  -1.1347000E-03   1.7147234E-02   0.0000000E+00  -5.2657357E-04   3.8525820E-02   0.0000000E+00  -1.6126633E-02   3.5470936E-02   0.0000000E+00  -1.3959613E-02   3.2065172E-02   0.0000000E+00  -1.1379593E-02   2.8294649E-02   0.0000000E+00  -8.8847196E-03   2.4558386E-02   0.0000000E+00  -6.6435733E-03   2.1487804E-02   0.0000000E+00  -4.6592336E-03   1.9422151E-02   0.0000000E+00  -2.9772713E-03   1.8257564E-02   0.0000000E+00  -1.6951526E-03   1.7699862E-02   0.0000000E+00  -7.5795461E-04   3.5120595E-02   0.0000000E+00  -1.4611590E-02   3.3314940E-02   0.0000000E+00  -1.2811752E-02   3.1462729E-02   0.0000000E+00  -1.0519442E-02   2.9243840E-02   0.0000000E+00  -8.1732506E-03   2.6939293E-02   0.0000000E+00  -5.9441635E-03   2.4988484E-02   0.0000000E+00  -3.9349818E-03   2.3629148E-02   0.0000000E+00  -2.3021430E-03   2.2858482E-02   0.0000000E+00  -1.0428049E-03   3.1212801E-02   0.0000000E+00  -1.1868161E-02   3.0557171E-02   0.0000000E+00  -9.7750891E-03   2.9769698E-02   0.0000000E+00  -7.2862571E-03   2.9115140E-02   0.0000000E+00  -4.8440471E-03   2.8548986E-02   0.0000000E+00  -2.8178690E-03   2.8203221E-02   0.0000000E+00  -1.2672382E-03   2.8809104E-02   0.0000000E+00  -8.6099561E-03   2.8904723E-02   0.0000000E+00  -5.7615489E-03   2.8999383E-02   0.0000000E+00  -3.3280998E-03   2.9029148E-02   0.0000000E+00  -1.4834151E-03  -4.0567797E-05   0.0000000E+00  -3.2306318E-14  -4.0540093E-05   0.0000000E+00   3.2165374E-07  -4.0454157E-05   0.0000000E+00   6.5978821E-07  -4.0298986E-05   0.0000000E+00   1.0348098E-06  -4.0056992E-05   0.0000000E+00   1.4600473E-06  -3.9702973E-05   0.0000000E+00   1.9439151E-06  -3.9201168E-05   0.0000000E+00   2.5000695E-06  -3.8503160E-05   0.0000000E+00   3.1311893E-06  -5.9908045E-05   0.0000000E+00  -2.0994526E-12  -5.9873651E-05   0.0000000E+00   4.7824824E-07  -5.9766098E-05   0.0000000E+00   9.7983229E-07  -5.9569804E-05   0.0000000E+00   1.5298534E-06  -5.9258251E-05   0.0000000E+00   2.1498740E-06  -5.8795198E-05   0.0000000E+00   2.8446379E-06  -5.8125537E-05   0.0000000E+00   3.6334188E-06  -5.7174741E-05   0.0000000E+00   4.5393722E-06  -8.6114989E-05   0.0000000E+00   5.0986949E-12  -8.6074702E-05   0.0000000E+00   6.4081763E-07  -8.5947737E-05   0.0000000E+00   1.3120542E-06  -8.5713255E-05   0.0000000E+00   2.0437478E-06  -8.5334417E-05   0.0000000E+00   2.8639349E-06  -8.4758693E-05   0.0000000E+00   3.7802613E-06  -8.3905747E-05   0.0000000E+00   4.8108091E-06  -8.2664541E-05   0.0000000E+00   5.9853251E-06  -1.1946481E-04   0.0000000E+00  -8.9734001E-12  -1.1942122E-04   0.0000000E+00   8.1492720E-07  -1.1928261E-04   0.0000000E+00   1.6687130E-06  -1.1902241E-04   0.0000000E+00   2.5954678E-06  -1.1859163E-04   0.0000000E+00   3.6320378E-06  -1.1791853E-04   0.0000000E+00   4.7913686E-06  -1.1689233E-04   0.0000000E+00   6.0916623E-06  -1.1535409E-04   0.0000000E+00   7.5704634E-06  -1.6125468E-04   0.0000000E+00  -2.0913367E-12  -1.6121233E-04   0.0000000E+00   1.0075415E-06  -1.6107515E-04   0.0000000E+00   2.0650245E-06  -1.6081001E-04   0.0000000E+00   3.2095609E-06  -1.6035356E-04   0.0000000E+00   4.4910066E-06  -1.5961088E-04   0.0000000E+00   5.9315703E-06  -1.5843713E-04   0.0000000E+00   7.5500352E-06  -1.5661985E-04   0.0000000E+00   9.3929266E-06  -2.1361689E-04   0.0000000E+00  -1.6422207E-11  -2.1358280E-04   0.0000000E+00   1.2279218E-06  -2.1346693E-04   0.0000000E+00   2.5185639E-06  -2.1322854E-04   0.0000000E+00   3.9173706E-06  -2.1278854E-04   0.0000000E+00   5.4881930E-06  -2.1202571E-04   0.0000000E+00   7.2693592E-06  -2.1075748E-04   0.0000000E+00   9.2784321E-06  -2.0870924E-04   0.0000000E+00   1.1571189E-05  -2.7952265E-04   0.0000000E+00   1.8086876E-11  -2.7950670E-04   0.0000000E+00   1.4850369E-06  -2.7944183E-04   0.0000000E+00   3.0492274E-06  -2.7927849E-04   0.0000000E+00   4.7542158E-06  -2.7892148E-04   0.0000000E+00   6.6784119E-06  -2.7821827E-04   0.0000000E+00   8.8863117E-06  -2.7694379E-04   0.0000000E+00   1.1388834E-05  -2.7475072E-04   0.0000000E+00   1.4255230E-05  -3.6274490E-04   0.0000000E+00  -2.2531893E-11  -3.6276208E-04   0.0000000E+00   1.7876384E-06  -3.6279304E-04   0.0000000E+00   3.6772651E-06  -3.6277864E-04   0.0000000E+00   5.7551379E-06  -3.6260541E-04   0.0000000E+00   8.1198523E-06  -3.6208730E-04   0.0000000E+00   1.0866120E-05  -3.6094541E-04   0.0000000E+00   1.4012367E-05  -3.5874621E-04   0.0000000E+00   1.7631368E-05  -4.6781366E-04   0.0000000E+00  -1.3847281E-11  -4.6788668E-04   0.0000000E+00   2.1406099E-06  -4.6808104E-04   0.0000000E+00   4.4162798E-06  -4.6832647E-04   0.0000000E+00   6.9484854E-06  -4.6848741E-04   0.0000000E+00   9.8672062E-06  -4.6833741E-04   0.0000000E+00   1.3309095E-05  -4.6753485E-04   0.0000000E+00   1.7304506E-05  -4.6554100E-04   0.0000000E+00   2.1938557E-05  -6.0010643E-04   0.0000000E+00   2.1657710E-11  -6.0026790E-04   0.0000000E+00   2.5429351E-06  -6.0072372E-04   0.0000000E+00   5.2684172E-06  -6.0138968E-04   0.0000000E+00   8.3501473E-06  -6.0210394E-04   0.0000000E+00   1.1965027E-05  -6.0258934E-04   0.0000000E+00   1.6311487E-05  -6.0242921E-04   0.0000000E+00   2.1439739E-05  -6.0095836E-04   0.0000000E+00   2.7462080E-05  -7.6610257E-04   0.0000000E+00  -4.2383926E-11  -7.6639798E-04   0.0000000E+00   2.9871314E-06  -7.6725113E-04   0.0000000E+00   6.2237800E-06  -7.6856301E-04   0.0000000E+00   9.9574409E-06  -7.7014067E-04   0.0000000E+00   1.4436343E-05  -7.7164749E-04   0.0000000E+00   1.9951016E-05  -7.7257538E-04   0.0000000E+00   2.6583262E-05  -7.7209511E-04   0.0000000E+00   3.4505996E-05  -9.7355933E-04   0.0000000E+00   9.0316386E-11  -9.7405084E-04   0.0000000E+00   3.4588438E-06  -9.7548851E-04   0.0000000E+00   7.2566477E-06  -9.7775529E-04   0.0000000E+00   1.1747076E-05  -9.8062668E-04   0.0000000E+00   1.7276754E-05  -9.8369375E-04   0.0000000E+00   2.4266696E-05  -9.8634080E-04   0.0000000E+00   3.2844924E-05  -9.8751788E-04   0.0000000E+00   4.3327265E-05  -1.2315392E-03   0.0000000E+00   4.0719463E-11  -1.2323095E-03   0.0000000E+00   3.9380575E-06  -1.2345803E-03   0.0000000E+00   8.3292034E-06  -1.2382197E-03   0.0000000E+00   1.3675533E-05  -1.2429722E-03   0.0000000E+00   2.0442056E-05  -1.2483477E-03   0.0000000E+00   2.9243620E-05  -1.2535999E-03   0.0000000E+00   4.0261271E-05  -1.2574054E-03   0.0000000E+00   5.4092157E-05  -1.5505232E-03   0.0000000E+00  -1.0288691E-10  -1.5516802E-03   0.0000000E+00   4.4073008E-06  -1.5551129E-03   0.0000000E+00   9.4025090E-06  -1.5606818E-03   0.0000000E+00   1.5687199E-05  -1.5681125E-03   0.0000000E+00   2.3861887E-05  -1.5768190E-03   0.0000000E+00   3.4782930E-05  -1.5859245E-03   0.0000000E+00   4.8788574E-05  -1.5937887E-03   0.0000000E+00   6.6854780E-05  -1.9427249E-03   0.0000000E+00  -1.1897412E-10  -1.9444107E-03   0.0000000E+00   4.8566740E-06  -1.9494361E-03   0.0000000E+00   1.0461482E-05  -1.9576717E-03   0.0000000E+00   1.7744522E-05  -1.9688362E-03   0.0000000E+00   2.7430995E-05  -1.9822780E-03   0.0000000E+00   4.0782186E-05  -1.9969754E-03   0.0000000E+00   5.8338359E-05  -2.0109478E-03   0.0000000E+00   8.1561491E-05  -2.4226455E-03   0.0000000E+00  -3.6782143E-11  -2.4250404E-03   0.0000000E+00   5.3140752E-06  -2.4322115E-03   0.0000000E+00   1.1557543E-05  -2.4440733E-03   0.0000000E+00   1.9859823E-05  -2.4603624E-03   0.0000000E+00   3.1176773E-05  -2.4804242E-03   0.0000000E+00   4.7191075E-05  -2.5030950E-03   0.0000000E+00   6.8842957E-05  -2.5260109E-03   0.0000000E+00   9.8116885E-05  -3.0078280E-03   0.0000000E+00   1.6723503E-10  -3.0111568E-03   0.0000000E+00   5.9090653E-06  -3.0211615E-03   0.0000000E+00   1.2906554E-05  -3.0378420E-03   0.0000000E+00   2.2271892E-05  -3.0610440E-03   0.0000000E+00   3.5344863E-05  -3.0901665E-03   0.0000000E+00   5.4164248E-05  -3.1238939E-03   0.0000000E+00   8.0211204E-05  -3.1595321E-03   0.0000000E+00   1.1612896E-04  -3.7193538E-03   0.0000000E+00   1.2315363E-11  -3.7238828E-03   0.0000000E+00   6.9288685E-06  -3.7375407E-03   0.0000000E+00   1.5044878E-05  -3.7604847E-03   0.0000000E+00   2.5715592E-05  -3.7927658E-03   0.0000000E+00   4.0699080E-05  -3.8339677E-03   0.0000000E+00   6.2391511E-05  -3.8826647E-03   0.0000000E+00   9.3026858E-05  -3.9359140E-03   0.0000000E+00   1.3600633E-04  -4.5814794E-03   0.0000000E+00  -5.0007898E-10  -4.5875041E-03   0.0000000E+00   8.9339746E-06  -4.6057329E-03   0.0000000E+00   1.9037861E-05  -4.6365862E-03   0.0000000E+00   3.1664309E-05  -4.6804547E-03   0.0000000E+00   4.8969214E-05  -4.7372989E-03   0.0000000E+00   7.3582327E-05  -4.8057069E-03   0.0000000E+00   1.0893925E-04  -4.8826840E-03   0.0000000E+00   1.5902554E-04  -5.6204777E-03   0.0000000E+00  -4.1126244E-10  -5.6282966E-03   0.0000000E+00   1.2916536E-05  -5.6520551E-03   0.0000000E+00   2.6772695E-05  -5.6925672E-03   0.0000000E+00   4.2832384E-05  -5.7507930E-03   0.0000000E+00   6.3423984E-05  -5.8273328E-03   0.0000000E+00   9.1410875E-05  -5.9211119E-03   0.0000000E+00   1.3169124E-04  -6.0292734E-03   0.0000000E+00   1.8862887E-04  -6.8637393E-03   0.0000000E+00  -9.6950148E-12  -6.8736412E-03   0.0000000E+00   2.0455949E-05  -6.9038505E-03   0.0000000E+00   4.1365929E-05  -6.9557694E-03   0.0000000E+00   6.3699474E-05  -7.0312792E-03   0.0000000E+00   8.9610570E-05  -7.1320008E-03   0.0000000E+00   1.2256113E-04  -7.2577917E-03   0.0000000E+00   1.6777939E-04  -7.4060438E-03   0.0000000E+00   2.3171952E-04  -8.3410256E-03   0.0000000E+00  -8.1219886E-10  -8.3532548E-03   0.0000000E+00   3.3830718E-05  -8.3907442E-03   0.0000000E+00   6.7366156E-05  -8.4557487E-03   0.0000000E+00   1.0096269E-04  -8.5514830E-03   0.0000000E+00   1.3636422E-04  -8.6812805E-03   0.0000000E+00   1.7749863E-04  -8.8465950E-03   0.0000000E+00   2.2927225E-04  -9.0457378E-03   0.0000000E+00   3.0087706E-04  -1.0089007E-02   0.0000000E+00  -1.2261454E-09  -1.0103764E-02   0.0000000E+00   5.6126995E-05  -1.0149238E-02   0.0000000E+00   1.1096676E-04  -1.0228842E-02   0.0000000E+00   1.6398010E-04  -1.0347717E-02   0.0000000E+00   2.1621102E-04  -1.0511721E-02   0.0000000E+00   2.7144264E-04  -1.0724999E-02   0.0000000E+00   3.3478061E-04  -1.0987549E-02   0.0000000E+00   4.1672291E-04  -1.2157435E-02   0.0000000E+00   7.0234868E-10  -1.2174852E-02   0.0000000E+00   9.1294649E-05  -1.2228805E-02   0.0000000E+00   1.8014037E-04  -1.2324305E-02   0.0000000E+00   2.6482999E-04  -1.2469100E-02   0.0000000E+00   3.4571378E-04  -1.2672587E-02   0.0000000E+00   4.2586107E-04  -1.2942739E-02   0.0000000E+00   5.1080692E-04  -1.3282406E-02   0.0000000E+00   6.1071938E-04  -1.4611567E-02   0.0000000E+00  -3.8078510E-10  -1.4631727E-02   0.0000000E+00   1.4295062E-04  -1.4694542E-02   0.0000000E+00   2.8261522E-04  -1.4807002E-02   0.0000000E+00   4.1666854E-04  -1.4980284E-02   0.0000000E+00   5.4455915E-04  -1.5228268E-02   0.0000000E+00   6.6870992E-04  -1.5564067E-02   0.0000000E+00   7.9360284E-04  -1.5995080E-02   0.0000000E+00   9.2606794E-04  -1.7526455E-02   0.0000000E+00   8.2496487E-10  -1.7549437E-02   0.0000000E+00   2.1460450E-04  -1.7621314E-02   0.0000000E+00   4.2590595E-04  -1.7751563E-02   0.0000000E+00   6.3205633E-04  -1.7955381E-02   0.0000000E+00   8.3276222E-04  -1.8252276E-02   0.0000000E+00   1.0297105E-03  -1.8661883E-02   0.0000000E+00   1.2261987E-03  -1.9196808E-02   0.0000000E+00   1.4217802E-03  -2.0965984E-02   0.0000000E+00  -4.9173438E-10  -2.0991843E-02   0.0000000E+00   3.1118176E-04  -2.1073053E-02   0.0000000E+00   6.2049914E-04  -2.1222038E-02   0.0000000E+00   9.2826918E-04  -2.1459199E-02   0.0000000E+00   1.2343522E-03  -2.1809794E-02   0.0000000E+00   1.5434691E-03  -2.2300657E-02   0.0000000E+00   1.8553236E-03  -2.2950361E-02   0.0000000E+00   2.1640169E-03  -2.4953080E-02   0.0000000E+00  -1.8424563E-09  -2.4981894E-02   0.0000000E+00   4.3047458E-04  -2.5073918E-02   0.0000000E+00   8.6312182E-04  -2.5243549E-02   0.0000000E+00   1.3018118E-03  -2.5516594E-02   0.0000000E+00   1.7517736E-03  -2.5926340E-02   0.0000000E+00   2.2191193E-03  -2.6506353E-02   0.0000000E+00   2.7043282E-03  -2.7278988E-02   0.0000000E+00   3.1993166E-03  -2.9423013E-02   0.0000000E+00  -1.5180958E-10  -2.9455323E-02   0.0000000E+00   5.7271600E-04  -2.9558383E-02   0.0000000E+00   1.1576344E-03  -2.9749477E-02   0.0000000E+00   1.7673408E-03  -3.0060716E-02   0.0000000E+00   2.4105334E-03  -3.0533209E-02   0.0000000E+00   3.0962965E-03  -3.1208850E-02   0.0000000E+00   3.8256375E-03  -3.2114051E-02   0.0000000E+00   4.5822458E-03  -3.4156594E-02   0.0000000E+00   1.7939039E-09  -3.4193132E-02   0.0000000E+00   7.4226403E-04  -3.4310538E-02   0.0000000E+00   1.5028464E-03  -3.4527190E-02   0.0000000E+00   2.3143215E-03  -3.4881752E-02   0.0000000E+00   3.1930311E-03  -3.5423521E-02   0.0000000E+00   4.1551231E-03  -3.6203932E-02   0.0000000E+00   5.2031409E-03  -3.7257224E-02   0.0000000E+00   6.3091167E-03  -3.8797952E-02   0.0000000E+00   4.0582333E-09  -3.8841177E-02   0.0000000E+00   9.1472571E-04  -3.8976979E-02   0.0000000E+00   1.8661626E-03  -3.9234743E-02   0.0000000E+00   2.8887074E-03  -3.9649602E-02   0.0000000E+00   4.0256493E-03  -4.0272247E-02   0.0000000E+00   5.3204224E-03  -4.1167192E-02   0.0000000E+00   6.7816516E-03  -4.2378582E-02   0.0000000E+00   8.3509991E-03  -4.3024685E-02   0.0000000E+00  -2.2170892E-09  -4.3081008E-02   0.0000000E+00   1.0745467E-03  -4.3254059E-02   0.0000000E+00   2.2034321E-03  -4.3568980E-02   0.0000000E+00   3.4511208E-03  -4.4053327E-02   0.0000000E+00   4.9037561E-03  -4.4775315E-02   0.0000000E+00   6.6352752E-03  -4.5808699E-02   0.0000000E+00   8.6282343E-03  -4.7183909E-02   0.0000000E+00   1.0795315E-02  -4.6577714E-02   0.0000000E+00   1.8620703E-09  -4.6643116E-02   0.0000000E+00   1.2365683E-03  -4.6855059E-02   0.0000000E+00   2.5543028E-03  -4.7235928E-02   0.0000000E+00   4.0530805E-03  -4.7827609E-02   0.0000000E+00   5.8556888E-03  -4.8690844E-02   0.0000000E+00   8.0428841E-03  -4.9874801E-02   0.0000000E+00   1.0628945E-02  -5.1401533E-02   0.0000000E+00   1.3492710E-02  -4.9262144E-02   0.0000000E+00   7.6732505E-09  -4.9348481E-02   0.0000000E+00   1.4369463E-03  -4.9613491E-02   0.0000000E+00   2.9858476E-03  -5.0083619E-02   0.0000000E+00   4.7839452E-03  -5.0797008E-02   0.0000000E+00   6.9982065E-03  -5.1792748E-02   0.0000000E+00   9.7558638E-03  -5.3086679E-02   0.0000000E+00   1.3073493E-02  -5.4700859E-02   0.0000000E+00   1.6776200E-02  -5.0368223E-02   0.0000000E+00   4.8106403E-09  -5.0457198E-02   0.0000000E+00   1.6507187E-03  -5.0737895E-02   0.0000000E+00   3.4511078E-03  -5.1237542E-02   0.0000000E+00   5.5953115E-03  -5.1976446E-02   0.0000000E+00   8.2932580E-03  -5.2997537E-02   0.0000000E+00   1.1737433E-02  -5.4333109E-02   0.0000000E+00   1.5953878E-02  -5.5995610E-02   0.0000000E+00   2.0703573E-02  -4.8181515E-02   0.0000000E+00   9.3868113E-09  -4.8257891E-02   0.0000000E+00   1.7892200E-03  -4.8498612E-02   0.0000000E+00   3.7823597E-03  -4.8930820E-02   0.0000000E+00   6.2342477E-03  -4.9595982E-02   0.0000000E+00   9.4308835E-03  -5.0527126E-02   0.0000000E+00   1.3597935E-02  -5.1774770E-02   0.0000000E+00   1.8749859E-02  -5.3375747E-02   0.0000000E+00   2.4606271E-02  -3.6016803E-02   0.0000000E+00   2.2614642E-10  -3.6076814E-02   0.0000000E+00   1.9666278E-03  -3.6263313E-02   0.0000000E+00   4.1682059E-03  -3.6597785E-02   0.0000000E+00   6.8978192E-03  -3.7120454E-02   0.0000000E+00   1.0486334E-02  -3.7888523E-02   0.0000000E+00   1.5180133E-02  -3.8965501E-02   0.0000000E+00   2.0988557E-02  -4.0402312E-02   0.0000000E+00   2.7610993E-02  -2.2024592E-02   0.0000000E+00  -4.7134225E-09  -2.2070343E-02   0.0000000E+00   2.1209077E-03  -2.2211714E-02   0.0000000E+00   4.4918270E-03  -2.2462728E-02   0.0000000E+00   7.4253385E-03  -2.2850670E-02   0.0000000E+00   1.1274594E-02  -2.3415249E-02   0.0000000E+00   1.6300764E-02  -2.4199843E-02   0.0000000E+00   2.2507371E-02  -2.5234235E-02   0.0000000E+00   2.9559966E-02  -1.1381218E-02   0.0000000E+00   1.8053818E-08  -1.1411813E-02   0.0000000E+00   2.2309178E-03  -1.1505583E-02   0.0000000E+00   4.7204550E-03  -1.1669675E-02   0.0000000E+00   7.7933874E-03  -1.1919120E-02   0.0000000E+00   1.1817709E-02  -1.2276939E-02   0.0000000E+00   1.7064640E-02  -1.2768278E-02   0.0000000E+00   2.3531072E-02  -1.3407249E-02   0.0000000E+00   3.0852253E-02  -3.7210023E-03   0.0000000E+00  -2.5694278E-09  -3.7367174E-03   0.0000000E+00   2.2964536E-03  -3.7840211E-03   0.0000000E+00   4.8546488E-03  -3.8643493E-03   0.0000000E+00   8.0050426E-03  -3.9821719E-03   0.0000000E+00   1.2123819E-02  -4.1460372E-03   0.0000000E+00   1.7488077E-02  -4.3656961E-03   0.0000000E+00   2.4090325E-02  -4.6447767E-03   0.0000000E+00   3.1544175E-02   2.2607229E-03   0.0000000E+00  -1.4155956E-08   2.2590477E-03   0.0000000E+00   2.3201860E-03   2.2551485E-03   0.0000000E+00   4.9008327E-03   2.2521988E-03   0.0000000E+00   8.0727460E-03   2.2543629E-03   0.0000000E+00   1.2214282E-02   2.2655576E-03   0.0000000E+00   1.7604999E-02   2.2889457E-03   0.0000000E+00   2.4236046E-02   2.3288277E-03   0.0000000E+00   3.1711005E-02   7.8495322E-03   0.0000000E+00  -4.6117621E-09   7.8606922E-03   0.0000000E+00   2.3059982E-03   7.8963796E-03   0.0000000E+00   4.8679081E-03   7.9634683E-03   0.0000000E+00   8.0123628E-03   8.0733076E-03   0.0000000E+00   1.2114702E-02   8.2403822E-03   0.0000000E+00   1.7453736E-02   8.4793903E-03   0.0000000E+00   2.4021847E-02   8.8022090E-03   0.0000000E+00   3.1423166E-02   1.3682555E-02   0.0000000E+00   5.4661431E-09   1.3705325E-02   0.0000000E+00   2.2582349E-03   1.3776766E-02   0.0000000E+00   4.7652577E-03   1.3906801E-02   0.0000000E+00   7.8398362E-03   1.4112845E-02   0.0000000E+00   1.1849837E-02   1.4418876E-02   0.0000000E+00   1.7070102E-02   1.4850284E-02   0.0000000E+00   2.3495542E-02   1.5427223E-02   0.0000000E+00   3.0739011E-02   1.9689132E-02   0.0000000E+00   3.3102334E-09   1.9722294E-02   0.0000000E+00   2.1806059E-03   1.9825589E-02   0.0000000E+00   4.6007899E-03   2.0011608E-02   0.0000000E+00   7.5682341E-03   2.0303322E-02   0.0000000E+00   1.1439394E-02   2.0733064E-02   0.0000000E+00   1.6481990E-02   2.1336380E-02   0.0000000E+00   2.2693500E-02   2.2142496E-02   0.0000000E+00   2.9700587E-02   2.5420040E-02   0.0000000E+00  -1.6327579E-08   2.5462188E-02   0.0000000E+00   2.0766256E-03   2.5593121E-02   0.0000000E+00   4.3817121E-03   2.5827849E-02   0.0000000E+00   7.2092866E-03   2.6194157E-02   0.0000000E+00   1.0900721E-02   2.6731953E-02   0.0000000E+00   1.5713591E-02   2.7486175E-02   0.0000000E+00   2.1647248E-02   2.8495176E-02   0.0000000E+00   2.8344940E-02   3.0304901E-02   0.0000000E+00  -2.1126665E-08   3.0355826E-02   0.0000000E+00   1.9511873E-03   3.0513547E-02   0.0000000E+00   4.1177524E-03   3.0794550E-02   0.0000000E+00   6.7771664E-03   3.1231446E-02   0.0000000E+00   1.0253311E-02   3.1870261E-02   0.0000000E+00   1.4791281E-02   3.2762174E-02   0.0000000E+00   2.0390967E-02   3.3951126E-02   0.0000000E+00   2.6713740E-02   3.2408677E-02   0.0000000E+00   3.5045742E-09   3.2482941E-02   0.0000000E+00   1.8469159E-03   3.2712396E-02   0.0000000E+00   3.8840906E-03   3.3118010E-02   0.0000000E+00   6.3635199E-03   3.3735126E-02   0.0000000E+00   9.5871715E-03   3.4589503E-02   0.0000000E+00   1.3791096E-02   3.5722658E-02   0.0000000E+00   1.8991966E-02   3.7177142E-02   0.0000000E+00   2.4875544E-02   3.2517079E-02   0.0000000E+00   9.2834513E-09   3.2598749E-02   0.0000000E+00   1.7473744E-03   3.2851808E-02   0.0000000E+00   3.6575345E-03   3.3305928E-02   0.0000000E+00   5.9546693E-03   3.3978466E-02   0.0000000E+00   8.9104557E-03   3.4908853E-02   0.0000000E+00   1.2757577E-02   3.6139835E-02   0.0000000E+00   1.7520834E-02   3.7729502E-02   0.0000000E+00   2.2920474E-02   3.2044318E-02   0.0000000E+00   5.3554974E-09   3.2125864E-02   0.0000000E+00   1.6152889E-03   3.2377366E-02   0.0000000E+00   3.3770225E-03   3.2819532E-02   0.0000000E+00   5.4859906E-03   3.3488281E-02   0.0000000E+00   8.1855739E-03   3.4436516E-02   0.0000000E+00   1.1679942E-02   3.5689633E-02   0.0000000E+00   1.6001256E-02   3.7315141E-02   0.0000000E+00   2.0901484E-02   3.1295180E-02   0.0000000E+00   9.3955617E-09   3.1368814E-02   0.0000000E+00   1.4858381E-03   3.1595647E-02   0.0000000E+00   3.0977293E-03   3.1995628E-02   0.0000000E+00   5.0145192E-03   3.2613005E-02   0.0000000E+00   7.4619586E-03   3.3522654E-02   0.0000000E+00   1.0612894E-02   3.4771699E-02   0.0000000E+00   1.4494238E-02   3.6396001E-02   0.0000000E+00   1.8894373E-02   3.0331330E-02   0.0000000E+00  -2.6132030E-09   3.0396111E-02   0.0000000E+00   1.3832025E-03   3.0604519E-02   0.0000000E+00   2.8683909E-03   3.0984797E-02   0.0000000E+00   4.5985337E-03   3.1569343E-02   0.0000000E+00   6.7858952E-03   3.2413840E-02   0.0000000E+00   9.6125696E-03   3.3597678E-02   0.0000000E+00   1.3090377E-02   3.5190344E-02   0.0000000E+00   1.7007574E-02   2.9154861E-02   0.0000000E+00   1.5271642E-09   2.9224394E-02   0.0000000E+00   1.2856157E-03   2.9421886E-02   0.0000000E+00   2.6664480E-03   2.9765679E-02   0.0000000E+00   4.2555020E-03   3.0309543E-02   0.0000000E+00   6.2149460E-03   3.1114113E-02   0.0000000E+00   8.7076621E-03   3.2265559E-02   0.0000000E+00   1.1774288E-02   3.3842787E-02   0.0000000E+00   1.5227847E-02   2.7802305E-02   0.0000000E+00   4.9695665E-09   2.7859624E-02   0.0000000E+00   1.1899781E-03   2.8043643E-02   0.0000000E+00   2.4757653E-03   2.8366802E-02   0.0000000E+00   3.9427583E-03   2.8875167E-02   0.0000000E+00   5.7107247E-03   2.9649917E-02   0.0000000E+00   7.9126311E-03   3.0769372E-02   0.0000000E+00   1.0578625E-02   3.2344863E-02   0.0000000E+00   1.3593317E-02   2.6309304E-02   0.0000000E+00   4.1222656E-09   2.6362872E-02   0.0000000E+00   1.1064711E-03   2.6533246E-02   0.0000000E+00   2.2987281E-03   2.6835771E-02   0.0000000E+00   3.6580402E-03   2.7318671E-02   0.0000000E+00   5.2569625E-03   2.8068457E-02   0.0000000E+00   7.2028004E-03   2.9178757E-02   0.0000000E+00   9.5114596E-03   3.0741863E-02   0.0000000E+00   1.2089162E-02   2.4750836E-02   0.0000000E+00  -2.9114151E-09   2.4802864E-02   0.0000000E+00   1.0303648E-03   2.4965288E-02   0.0000000E+00   2.1391043E-03   2.5262155E-02   0.0000000E+00   3.3946317E-03   2.5731748E-02   0.0000000E+00   4.8463903E-03   2.6466534E-02   0.0000000E+00   6.5505067E-03   2.7580641E-02   0.0000000E+00   8.5477438E-03   2.9133303E-02   0.0000000E+00   1.0697154E-02   2.3201471E-02   0.0000000E+00  -2.4564425E-10   2.3254521E-02   0.0000000E+00   9.6439390E-04   2.3418469E-02   0.0000000E+00   1.9936960E-03   2.3719853E-02   0.0000000E+00   3.1478563E-03   2.4195878E-02   0.0000000E+00   4.4498248E-03   2.4942212E-02   0.0000000E+00   5.9407079E-03   2.6040820E-02   0.0000000E+00   7.5960150E-03   2.7644088E-02   0.0000000E+00   9.4665131E-03   2.1743072E-02   0.0000000E+00  -2.3962008E-09   2.1796523E-02   0.0000000E+00   9.0360432E-04   2.1969486E-02   0.0000000E+00   1.8603571E-03   2.2283047E-02   0.0000000E+00   2.9004263E-03   2.2784367E-02   0.0000000E+00   4.0571559E-03   2.3529295E-02   0.0000000E+00   5.2991840E-03   2.4673099E-02   0.0000000E+00   6.7031686E-03   2.6271150E-02   0.0000000E+00   8.2679698E-03   2.0435903E-02   0.0000000E+00  -1.4435712E-09   2.0496488E-02   0.0000000E+00   8.4044004E-04   2.0674115E-02   0.0000000E+00   1.7039320E-03   2.1002863E-02   0.0000000E+00   2.6342159E-03   2.1520691E-02   0.0000000E+00   3.6094585E-03   2.2312837E-02   0.0000000E+00   4.6709538E-03   2.3456790E-02   0.0000000E+00   5.8255279E-03   2.5179790E-02   0.0000000E+00   7.2852168E-03   1.9303909E-02   0.0000000E+00   2.5622029E-09   1.9364022E-02   0.0000000E+00   7.4844441E-04   1.9547749E-02   0.0000000E+00   1.5140750E-03   1.9893011E-02   0.0000000E+00   2.3069161E-03   2.0440172E-02   0.0000000E+00   3.1471334E-03   2.1267248E-02   0.0000000E+00   4.0292302E-03   2.2535147E-02   0.0000000E+00   5.1371297E-03   2.4437696E-02   0.0000000E+00   6.6612414E-03   1.8335985E-02   0.0000000E+00   1.0871946E-09   1.8394681E-02   0.0000000E+00   6.3417072E-04   1.8599637E-02   0.0000000E+00   1.2949706E-03   1.8949550E-02   0.0000000E+00   1.9636441E-03   1.9555883E-02   0.0000000E+00   2.6955670E-03   2.0508114E-02   0.0000000E+00   3.5992956E-03   2.1975324E-02   0.0000000E+00   4.8275567E-03   2.4241345E-02   0.0000000E+00   6.6533983E-03   1.7531099E-02   0.0000000E+00  -2.5566249E-09   1.7599594E-02   0.0000000E+00   5.3300807E-04   1.7821321E-02   0.0000000E+00   1.1021839E-03   1.8257050E-02   0.0000000E+00   1.7451468E-03   1.8999895E-02   0.0000000E+00   2.5554728E-03   2.0169040E-02   0.0000000E+00   3.6383267E-03   2.2084923E-02   0.0000000E+00   5.2693579E-03   2.5250683E-02   0.0000000E+00   7.7214986E-03   1.7052976E-02   0.0000000E+00   7.2415418E-10   1.7147236E-02   0.0000000E+00   5.2657066E-04   1.7450592E-02   0.0000000E+00   1.1347012E-03   1.8037744E-02   0.0000000E+00   1.9226932E-03   1.9099893E-02   0.0000000E+00   3.0501103E-03   2.0947140E-02   0.0000000E+00   4.7013485E-03   2.3956420E-02   0.0000000E+00   6.9967117E-03   2.8274443E-02   0.0000000E+00   9.6761296E-03   1.7535374E-02   0.0000000E+00  -1.1218838E-09   1.7699864E-02   0.0000000E+00   7.5795513E-04   1.8257566E-02   0.0000000E+00   1.6951530E-03   1.9422147E-02   0.0000000E+00   2.9772704E-03   2.1487806E-02   0.0000000E+00   4.6592336E-03   2.4558388E-02   0.0000000E+00   6.6435714E-03   2.8294658E-02   0.0000000E+00   8.8847186E-03   3.2065175E-02   0.0000000E+00   1.1379593E-02   2.2613194E-02   0.0000000E+00  -1.1190258E-10   2.2858487E-02   0.0000000E+00   1.0428044E-03   2.3629148E-02   0.0000000E+00   2.3021430E-03   2.4988491E-02   0.0000000E+00   3.9349822E-03   2.6939297E-02   0.0000000E+00   5.9441631E-03   2.9243845E-02   0.0000000E+00   8.1732515E-03   3.1462729E-02   0.0000000E+00   1.0519443E-02   3.3314943E-02   0.0000000E+00   1.2811752E-02   2.8086632E-02   0.0000000E+00   1.3271108E-09   2.8203217E-02   0.0000000E+00   1.2672404E-03   2.8548984E-02   0.0000000E+00   2.8178710E-03   2.9115142E-02   0.0000000E+00   4.8440462E-03   2.9769698E-02   0.0000000E+00   7.2862562E-03   3.0557174E-02   0.0000000E+00   9.7750900E-03   3.1212801E-02   0.0000000E+00   1.1868158E-02   2.9032324E-02   0.0000000E+00   8.8641250E-10   2.9029148E-02   0.0000000E+00   1.4834137E-03   2.8999384E-02   0.0000000E+00   3.3281005E-03   2.8904725E-02   0.0000000E+00   5.7615493E-03   2.8809108E-02   0.0000000E+00   8.6099561E-03  -3.7542850E-05   0.0000000E+00   3.8319049E-06  -3.6224323E-05   0.0000000E+00   4.6304071E-06  -3.4463079E-05   0.0000000E+00   5.4726247E-06  -3.2149561E-05   0.0000000E+00   6.3227712E-06  -2.9197945E-05   0.0000000E+00   7.0886335E-06  -2.5494168E-05   0.0000000E+00   7.7143568E-06  -2.1105581E-05   0.0000000E+00   7.9898291E-06  -5.5853499E-05   0.0000000E+00   5.5325600E-06  -5.4010554E-05   0.0000000E+00   6.6588150E-06  -5.1491697E-05   0.0000000E+00   7.8493758E-06  -4.8100428E-05   0.0000000E+00   9.0364620E-06  -4.3678665E-05   0.0000000E+00   1.0007996E-05  -3.7980146E-05   0.0000000E+00   1.0705480E-05  -3.0945455E-05   0.0000000E+00   1.0888374E-05  -2.2696822E-05   0.0000000E+00   1.1287502E-05  -8.0900892E-05   0.0000000E+00   7.2775279E-06  -7.8397767E-05   0.0000000E+00   8.7362532E-06  -7.4912794E-05   0.0000000E+00   1.0264309E-05  -7.0125439E-05   0.0000000E+00   1.1791379E-05  -6.3773281E-05   0.0000000E+00   1.3024037E-05  -5.5493096E-05   0.0000000E+00   1.3940797E-05  -4.5298671E-05   0.0000000E+00   1.4291573E-05  -3.3328874E-05   0.0000000E+00   1.4369984E-05  -1.1310843E-04   0.0000000E+00   9.2082382E-06  -1.0986041E-04   0.0000000E+00   1.1048548E-05  -1.0525319E-04   0.0000000E+00   1.2990388E-05  -9.8817378E-05   0.0000000E+00   1.4937069E-05  -9.0146073E-05   0.0000000E+00   1.6524838E-05  -7.8712321E-05   0.0000000E+00   1.7745457E-05  -6.4540523E-05   0.0000000E+00   1.8170145E-05  -4.7614707E-05   0.0000000E+00   1.8258026E-05  -1.5388784E-04   0.0000000E+00   1.1452924E-05  -1.4985472E-04   0.0000000E+00   1.3749382E-05  -1.4401345E-04   0.0000000E+00   1.6191218E-05  -1.3569844E-04   0.0000000E+00   1.8656978E-05  -1.2430565E-04   0.0000000E+00   2.0685382E-05  -1.0904052E-04   0.0000000E+00   2.2314192E-05  -8.9847126E-05   0.0000000E+00   2.2962538E-05  -6.6529967E-05   0.0000000E+00   2.3327029E-05  -2.0551895E-04   0.0000000E+00   1.4158171E-05  -2.0069249E-04   0.0000000E+00   1.7005606E-05  -1.9352783E-04   0.0000000E+00   2.0049400E-05  -1.8310308E-04   0.0000000E+00   2.3139375E-05  -1.6855460E-04   0.0000000E+00   2.5697991E-05  -1.4868457E-04   0.0000000E+00   2.7886857E-05  -1.2324617E-04   0.0000000E+00   2.9003222E-05  -9.1752881E-05   0.0000000E+00   3.0036630E-05  -2.7116633E-04   0.0000000E+00   1.7511855E-05  -2.6556468E-04   0.0000000E+00   2.1040034E-05  -2.5699678E-04   0.0000000E+00   2.4822226E-05  -2.4423425E-04   0.0000000E+00   2.8658100E-05  -2.2604398E-04   0.0000000E+00   3.1898453E-05  -2.0071203E-04   0.0000000E+00   3.4852957E-05  -1.6760771E-04   0.0000000E+00   3.6810841E-05  -1.2578594E-04   0.0000000E+00   3.8985891E-05  -3.5488358E-04   0.0000000E+00   2.1759861E-05  -3.4856543E-04   0.0000000E+00   2.6186553E-05  -3.3852950E-04   0.0000000E+00   3.0960458E-05  -3.2319588E-04   0.0000000E+00   3.5743094E-05  -3.0083279E-04   0.0000000E+00   3.9909974E-05  -2.6914236E-04   0.0000000E+00   4.3869579E-05  -2.2678560E-04   0.0000000E+00   4.7185666E-05  -1.7215798E-04   0.0000000E+00   5.1161202E-05  -4.6158777E-04   0.0000000E+00   2.7258504E-05  -4.5468737E-04   0.0000000E+00   3.2930544E-05  -4.4318277E-04   0.0000000E+00   3.9107759E-05  -4.2499730E-04   0.0000000E+00   4.5340144E-05  -3.9786080E-04   0.0000000E+00   5.0796956E-05  -3.5890518E-04   0.0000000E+00   5.5893852E-05  -3.0573562E-04   0.0000000E+00   6.1035847E-05  -2.3585468E-04   0.0000000E+00   6.7282468E-05  -5.9721555E-04   0.0000000E+00   3.4436704E-05  -5.8995740E-04   0.0000000E+00   4.1952640E-05  -5.7711144E-04   0.0000000E+00   5.0082752E-05  -5.5596163E-04   0.0000000E+00   5.8267513E-05  -5.2344776E-04   0.0000000E+00   6.5537053E-05  -4.7612740E-04   0.0000000E+00   7.2166447E-05  -4.1104059E-04   0.0000000E+00   7.8800760E-05  -3.2406932E-04   0.0000000E+00   8.7279957E-05  -7.6902803E-04   0.0000000E+00   4.3736603E-05  -7.6176983E-04   0.0000000E+00   5.3941887E-05  -7.4789539E-04   0.0000000E+00   6.4750107E-05  -7.2372402E-04   0.0000000E+00   7.5834949E-05  -6.8568141E-04   0.0000000E+00   8.4893654E-05  -6.2903250E-04   0.0000000E+00   9.3449300E-05  -5.5126887E-04   0.0000000E+00   1.0142496E-04  -4.4566346E-04   0.0000000E+00   1.1229768E-04  -9.8580727E-04   0.0000000E+00   5.5590619E-05  -9.7915030E-04   0.0000000E+00   6.9507914E-05  -9.6474477E-04   0.0000000E+00   8.4270061E-05  -9.3808147E-04   0.0000000E+00   9.9446930E-05  -8.9437293E-04   0.0000000E+00   1.1311629E-04  -8.2758494E-04   0.0000000E+00   1.2816607E-04  -7.3488121E-04   0.0000000E+00   1.4656913E-04  -6.0247834E-04   0.0000000E+00   1.7844074E-04  -1.2580794E-03   0.0000000E+00   7.0416529E-05  -1.2530355E-03   0.0000000E+00   8.9490000E-05  -1.2390256E-03   0.0000000E+00   1.1058974E-04  -1.2109814E-03   0.0000000E+00   1.3332261E-04  -1.1629803E-03   0.0000000E+00   1.5768770E-04  -1.0869441E-03   0.0000000E+00   1.9219796E-04  -9.8179688E-04   0.0000000E+00   2.4390494E-04  -8.3154574E-04   0.0000000E+00   3.2933889E-04  -1.5984023E-03   0.0000000E+00   8.8568457E-05  -1.5965676E-03   0.0000000E+00   1.1490672E-04  -1.5846323E-03   0.0000000E+00   1.4568417E-04  -1.5571428E-03   0.0000000E+00   1.8159219E-04  -1.5080404E-03   0.0000000E+00   2.2376799E-04  -1.4280207E-03   0.0000000E+00   2.8767483E-04  -1.3162807E-03   0.0000000E+00   3.8622462E-04  -1.1580557E-03   0.0000000E+00   5.2283809E-04  -2.0217807E-03   0.0000000E+00   1.1017983E-04  -2.0255905E-03   0.0000000E+00   1.4617464E-04  -2.0181120E-03   0.0000000E+00   1.8987400E-04  -1.9935332E-03   0.0000000E+00   2.4402756E-04  -1.9468408E-03   0.0000000E+00   3.1097449E-04  -1.8672324E-03   0.0000000E+00   4.0935079E-04  -1.7530231E-03   0.0000000E+00   5.5368693E-04  -1.5915075E-03   0.0000000E+00   7.3289283E-04  -2.5462520E-03   0.0000000E+00   1.3525893E-04  -2.5589794E-03   0.0000000E+00   1.8308248E-04  -2.5592851E-03   0.0000000E+00   2.4300147E-04  -2.5402831E-03   0.0000000E+00   3.2031012E-04  -2.4976907E-03   0.0000000E+00   4.1538753E-04  -2.4196764E-03   0.0000000E+00   5.5070239E-04  -2.3041214E-03   0.0000000E+00   7.4022257E-04  -2.1372556E-03   0.0000000E+00   9.6105103E-04  -3.1934709E-03   0.0000000E+00   1.6333039E-04  -3.2197533E-03   0.0000000E+00   2.2558030E-04  -3.2320637E-03   0.0000000E+00   3.0511306E-04  -3.2212106E-03   0.0000000E+00   4.0832770E-04  -3.1834859E-03   0.0000000E+00   5.3492613E-04  -3.1052274E-03   0.0000000E+00   7.1160553E-04  -2.9835531E-03   0.0000000E+00   9.4994274E-04  -2.8026733E-03   0.0000000E+00   1.2195081E-03  -3.9891405E-03   0.0000000E+00   1.9461050E-04  -4.0350808E-03   0.0000000E+00   2.7296523E-04  -4.0648864E-03   0.0000000E+00   3.7520187E-04  -4.0664915E-03   0.0000000E+00   5.0793379E-04  -4.0343804E-03   0.0000000E+00   6.7211787E-04  -3.9527356E-03   0.0000000E+00   8.9822558E-04  -3.8165562E-03   0.0000000E+00   1.1940593E-03  -3.6080712E-03   0.0000000E+00   1.5262538E-03  -4.9622944E-03   0.0000000E+00   2.2984156E-04  -5.0359173E-03   0.0000000E+00   3.2556205E-04  -5.0907913E-03   0.0000000E+00   4.5264259E-04  -5.1112687E-03   0.0000000E+00   6.2075641E-04  -5.0882688E-03   0.0000000E+00   8.3123875E-04  -5.0013093E-03   0.0000000E+00   1.1165480E-03  -4.8426646E-03   0.0000000E+00   1.4846079E-03  -4.5914324E-03   0.0000000E+00   1.8957843E-03  -6.1443066E-03   0.0000000E+00   2.7192946E-04  -6.2559494E-03   0.0000000E+00   3.8438916E-04  -6.3471012E-03   0.0000000E+00   5.3914764E-04  -6.3961591E-03   0.0000000E+00   7.4761931E-04  -6.3889613E-03   0.0000000E+00   1.0134329E-03  -6.2983846E-03   0.0000000E+00   1.3732347E-03  -6.1123692E-03   0.0000000E+00   1.8351080E-03  -5.8069248E-03   0.0000000E+00   2.3462104E-03  -7.5683934E-03   0.0000000E+00   3.2612702E-04  -7.7318647E-03   0.0000000E+00   4.5546150E-04  -7.8746481E-03   0.0000000E+00   6.3830387E-04  -7.9671284E-03   0.0000000E+00   8.9102658E-04  -7.9873493E-03   0.0000000E+00   1.2210887E-03  -7.8990292E-03   0.0000000E+00   1.6733266E-03  -7.6836231E-03   0.0000000E+00   2.2569795E-03  -7.3142103E-03   0.0000000E+00   2.8966204E-03  -9.2699463E-03   0.0000000E+00   4.0488792E-04  -9.5035946E-03   0.0000000E+00   5.5000692E-04  -9.7188465E-03   0.0000000E+00   7.5848238E-04  -9.8763071E-03   0.0000000E+00   1.0566383E-03  -9.9432226E-03   0.0000000E+00   1.4564135E-03  -9.8695736E-03   0.0000000E+00   2.0195758E-03  -9.6262321E-03   0.0000000E+00   2.7593758E-03  -9.1830939E-03   0.0000000E+00   3.5680626E-03  -1.1291620E-02   0.0000000E+00   5.2970881E-04  -1.1617913E-02   0.0000000E+00   6.8880897E-04  -1.1932801E-02   0.0000000E+00   9.1743114E-04  -1.2185541E-02   0.0000000E+00   1.2553498E-03  -1.2327352E-02   0.0000000E+00   1.7241138E-03  -1.2291027E-02   0.0000000E+00   2.4131087E-03  -1.2027512E-02   0.0000000E+00   3.3534979E-03  -1.1503644E-02   0.0000000E+00   4.3829395E-03  -1.3686134E-02   0.0000000E+00   7.3534762E-04  -1.4131189E-02   0.0000000E+00   9.0763991E-04  -1.4578518E-02   0.0000000E+00   1.1492301E-03  -1.4966711E-02   0.0000000E+00   1.5080000E-03  -1.5221803E-02   0.0000000E+00   2.0400174E-03  -1.5259854E-02   0.0000000E+00   2.8592641E-03  -1.4995943E-02   0.0000000E+00   4.0486208E-03  -1.4392784E-02   0.0000000E+00   5.3695845E-03  -1.6518088E-02   0.0000000E+00   1.0741818E-03  -1.7110286E-02   0.0000000E+00   1.2598190E-03  -1.7726090E-02   0.0000000E+00   1.5060710E-03  -1.8295189E-02   0.0000000E+00   1.8657240E-03  -1.8713795E-02   0.0000000E+00   2.4401976E-03  -1.8882221E-02   0.0000000E+00   3.3764483E-03  -1.8662326E-02   0.0000000E+00   4.8540882E-03  -1.8010367E-02   0.0000000E+00   6.5702205E-03  -1.9856954E-02   0.0000000E+00   1.6177635E-03  -2.0621598E-02   0.0000000E+00   1.8325922E-03  -2.1441283E-02   0.0000000E+00   2.0808789E-03  -2.2239311E-02   0.0000000E+00   2.4192431E-03  -2.2885712E-02   0.0000000E+00   3.0032180E-03  -2.3258125E-02   0.0000000E+00   3.9876867E-03  -2.3174981E-02   0.0000000E+00   5.7841907E-03  -2.2549463E-02   0.0000000E+00   8.0093471E-03  -2.3761619E-02   0.0000000E+00   2.4558674E-03  -2.4715308E-02   0.0000000E+00   2.7337782E-03  -2.5767116E-02   0.0000000E+00   3.0091179E-03  -2.6838610E-02   0.0000000E+00   3.3112851E-03  -2.7793303E-02   0.0000000E+00   3.8412581E-03  -2.8481353E-02   0.0000000E+00   4.8097130E-03  -2.8679047E-02   0.0000000E+00   6.9013773E-03  -2.8250290E-02   0.0000000E+00   9.7369775E-03  -2.8248664E-02   0.0000000E+00   3.6714699E-03  -2.9397685E-02   0.0000000E+00   4.0934212E-03  -3.0691909E-02   0.0000000E+00   4.4512032E-03  -3.2067969E-02   0.0000000E+00   4.7503095E-03  -3.3407249E-02   0.0000000E+00   5.1740399E-03  -3.4559041E-02   0.0000000E+00   6.0183560E-03  -3.5261109E-02   0.0000000E+00   8.3205765E-03  -3.5328865E-02   0.0000000E+00   1.1840515E-02  -3.3248309E-02   0.0000000E+00   5.3284038E-03  -3.4584627E-02   0.0000000E+00   6.0216561E-03  -3.6102835E-02   0.0000000E+00   6.5975678E-03  -3.7789851E-02   0.0000000E+00   6.9894572E-03  -3.9568722E-02   0.0000000E+00   7.2999233E-03  -4.1344676E-02   0.0000000E+00   7.9197083E-03  -4.2841904E-02   0.0000000E+00   1.0293517E-02  -4.3827988E-02   0.0000000E+00   1.4484677E-02  -3.8577229E-02   0.0000000E+00   7.4138381E-03  -4.0116489E-02   0.0000000E+00   8.4840311E-03  -4.1837603E-02   0.0000000E+00   9.4392877E-03  -4.3733470E-02   0.0000000E+00   1.0228383E-02  -4.5953371E-02   0.0000000E+00   1.0551848E-02  -4.8466448E-02   0.0000000E+00   1.0983325E-02  -5.1060952E-02   0.0000000E+00   1.3256690E-02  -5.3435560E-02   0.0000000E+00   1.7950747E-02  -4.3917719E-02   0.0000000E+00   9.9078882E-03  -4.5702357E-02   0.0000000E+00   1.1429309E-02  -4.7686853E-02   0.0000000E+00   1.2852311E-02  -4.9878076E-02   0.0000000E+00   1.4043608E-02  -5.2266967E-02   0.0000000E+00   1.5023627E-02  -5.5422321E-02   0.0000000E+00   1.5771614E-02  -5.9249826E-02   0.0000000E+00   1.7966181E-02  -6.3325390E-02   0.0000000E+00   2.2682481E-02  -4.8931513E-02   0.0000000E+00   1.2929930E-02  -5.1000517E-02   0.0000000E+00   1.4950880E-02  -5.3282633E-02   0.0000000E+00   1.6917299E-02  -5.5802733E-02   0.0000000E+00   1.8816065E-02  -5.8720220E-02   0.0000000E+00   2.0560671E-02  -6.2063653E-02   0.0000000E+00   2.2631109E-02  -6.6723444E-02   0.0000000E+00   2.5251823E-02  -7.2318159E-02   0.0000000E+00   2.9205404E-02  -5.3298011E-02   0.0000000E+00   1.6367383E-02  -5.5610456E-02   0.0000000E+00   1.9129708E-02  -5.8245324E-02   0.0000000E+00   2.1909744E-02  -6.1070476E-02   0.0000000E+00   2.5174700E-02  -6.4063668E-02   0.0000000E+00   2.9381149E-02  -6.7616679E-02   0.0000000E+00   3.3957668E-02  -7.2847493E-02   0.0000000E+00   3.5892744E-02  -7.9269871E-02   0.0000000E+00   3.8012482E-02  -5.6669373E-02   0.0000000E+00   2.0535467E-02  -5.9041861E-02   0.0000000E+00   2.4292143E-02  -6.1729997E-02   0.0000000E+00   2.8686466E-02  -6.4517505E-02   0.0000000E+00   3.4679320E-02  -6.7232095E-02   0.0000000E+00   4.2880919E-02  -7.0295684E-02   0.0000000E+00   5.0499432E-02  -7.6231867E-02   0.0000000E+00   4.9441770E-02  -8.3152682E-02   0.0000000E+00   4.8029598E-02  -5.8047563E-02   0.0000000E+00   2.5588024E-02  -6.0532663E-02   0.0000000E+00   3.0610170E-02  -6.3289292E-02   0.0000000E+00   3.6864705E-02  -6.5890104E-02   0.0000000E+00   4.5978501E-02  -6.7870647E-02   0.0000000E+00   5.8307137E-02  -6.9787286E-02   0.0000000E+00   6.7258380E-02  -7.5471468E-02   0.0000000E+00   6.2275194E-02  -8.0924898E-02   0.0000000E+00   5.7513643E-02  -5.5361189E-02   0.0000000E+00   3.0630745E-02  -5.7749767E-02   0.0000000E+00   3.6843546E-02  -6.0332842E-02   0.0000000E+00   4.4727288E-02  -6.2570438E-02   0.0000000E+00   5.6123205E-02  -6.3699275E-02   0.0000000E+00   7.1212038E-02  -6.4217493E-02   0.0000000E+00   8.0197819E-02  -6.7498423E-02   0.0000000E+00   7.1804933E-02  -6.7240879E-02   0.0000000E+00   6.5056272E-02  -4.2212326E-02   0.0000000E+00   3.4417354E-02  -4.4342767E-02   0.0000000E+00   4.1386351E-02  -4.6607818E-02   0.0000000E+00   5.0103836E-02  -4.8622839E-02   0.0000000E+00   6.2493108E-02  -4.9893618E-02   0.0000000E+00   7.8607135E-02  -4.9909990E-02   0.0000000E+00   8.7132484E-02  -4.9246494E-02   0.0000000E+00   7.6637566E-02  -4.7420308E-02   0.0000000E+00   6.9871373E-02  -2.6515061E-02   0.0000000E+00   3.6769241E-02  -2.7988706E-02   0.0000000E+00   4.4061270E-02  -2.9519469E-02   0.0000000E+00   5.2995700E-02  -3.0853311E-02   0.0000000E+00   6.5429240E-02  -3.1657916E-02   0.0000000E+00   8.1320308E-02  -3.1522997E-02   0.0000000E+00   8.9472681E-02  -3.0764503E-02   0.0000000E+00   7.8990333E-02  -2.9391894E-02   0.0000000E+00   7.2826780E-02  -1.4181297E-02   0.0000000E+00   3.8286056E-02  -1.5040466E-02   0.0000000E+00   4.5709893E-02  -1.5890868E-02   0.0000000E+00   5.4653432E-02  -1.6584480E-02   0.0000000E+00   6.6919260E-02  -1.6938692E-02   0.0000000E+00   8.2448073E-02  -1.6736163E-02   0.0000000E+00   9.0333275E-02  -1.6169164E-02   0.0000000E+00   8.0199480E-02  -1.5276073E-02   0.0000000E+00   7.4737199E-02  -4.9703135E-03   0.0000000E+00   3.9069671E-02  -5.3063924E-03   0.0000000E+00   4.6510350E-02  -5.5995160E-03   0.0000000E+00   5.5380147E-02  -5.7881442E-03   0.0000000E+00   6.7463942E-02  -5.8124224E-03   0.0000000E+00   8.2717359E-02  -5.5925604E-03   0.0000000E+00   9.0569824E-02  -5.2676923E-03   0.0000000E+00   8.0834769E-02  -4.8280838E-03   0.0000000E+00   7.5898215E-02   2.3947665E-03   0.0000000E+00   3.9230205E-02   2.5034547E-03   0.0000000E+00   4.6620928E-02   2.6670441E-03   0.0000000E+00   5.5396624E-02   2.8749846E-03   0.0000000E+00   6.7356758E-02   3.0916783E-03   0.0000000E+00   8.2511149E-02   3.2799391E-03   0.0000000E+00   9.0527043E-02   3.3783405E-03   0.0000000E+00   8.1153117E-02   3.4127287E-03   0.0000000E+00   7.6454744E-02   9.2159919E-03   0.0000000E+00   3.8856797E-02   9.7192479E-03   0.0000000E+00   4.6150308E-02   1.0283003E-02   0.0000000E+00   5.4829303E-02   1.0831817E-02   0.0000000E+00   6.6733360E-02   1.1251914E-02   0.0000000E+00   8.1950031E-02   1.1378706E-02   0.0000000E+00   9.0244189E-02   1.1313259E-02   0.0000000E+00   8.1111759E-02   1.1000332E-02   0.0000000E+00   7.6394744E-02   1.6157832E-02   0.0000000E+00   3.8012877E-02   1.7027128E-02   0.0000000E+00   4.5148674E-02   1.7968221E-02   0.0000000E+00   5.3658333E-02   1.8844338E-02   0.0000000E+00   6.5382220E-02   1.9470721E-02   0.0000000E+00   8.0459096E-02   1.9534715E-02   0.0000000E+00   8.8867262E-02   1.9377502E-02   0.0000000E+00   8.0073610E-02   1.8781090E-02   0.0000000E+00   7.5408638E-02   2.3163876E-02   0.0000000E+00   3.6739539E-02   2.4377460E-02   0.0000000E+00   4.3646108E-02   2.5683329E-02   0.0000000E+00   5.1890038E-02   2.6886677E-02   0.0000000E+00   6.3270085E-02   2.7733911E-02   0.0000000E+00   7.7951871E-02   2.7701862E-02   0.0000000E+00   8.6229600E-02   2.7530754E-02   0.0000000E+00   7.7936500E-02   2.6714951E-02   0.0000000E+00   7.3439322E-02   2.9777691E-02   0.0000000E+00   3.5074059E-02   3.1307131E-02   0.0000000E+00   4.1673645E-02   3.2956082E-02   0.0000000E+00   4.9546178E-02   3.4476504E-02   0.0000000E+00   6.0414754E-02   3.5548810E-02   0.0000000E+00   7.4457310E-02   3.5406113E-02   0.0000000E+00   8.2419276E-02   3.5247948E-02   0.0000000E+00   7.4774779E-02   3.4338154E-02   0.0000000E+00   7.0616730E-02   3.5463393E-02   0.0000000E+00   3.3063415E-02   3.7271131E-02   0.0000000E+00   3.9280362E-02   3.9225243E-02   0.0000000E+00   4.6680491E-02   4.1031763E-02   0.0000000E+00   5.6885481E-02   4.2314306E-02   0.0000000E+00   7.0081763E-02   4.1935928E-02   0.0000000E+00   7.7542089E-02   4.1935872E-02   0.0000000E+00   7.0765235E-02   4.1069523E-02   0.0000000E+00   6.7169413E-02   3.9016221E-02   0.0000000E+00   3.0787345E-02   4.1271936E-02   0.0000000E+00   3.6561586E-02   4.3743357E-02   0.0000000E+00   4.3394890E-02   4.6035100E-02   0.0000000E+00   5.2805092E-02   4.7501504E-02   0.0000000E+00   6.4947464E-02   4.6847310E-02   0.0000000E+00   7.1826756E-02   4.6910830E-02   0.0000000E+00   6.6101305E-02   4.6390343E-02   0.0000000E+00   6.3159361E-02   3.9737560E-02   0.0000000E+00   2.8358132E-02   4.2252321E-02   0.0000000E+00   3.3664130E-02   4.5243923E-02   0.0000000E+00   3.9858602E-02   4.8430748E-02   0.0000000E+00   4.8358627E-02   5.0847977E-02   0.0000000E+00   5.9344802E-02   5.0189752E-02   0.0000000E+00   6.5774031E-02   5.0269105E-02   0.0000000E+00   6.1065160E-02   4.9982734E-02   0.0000000E+00   5.8750734E-02   3.9380018E-02   0.0000000E+00   2.5853563E-02   4.1958343E-02   0.0000000E+00   3.0660303E-02   4.5066334E-02   0.0000000E+00   3.6192380E-02   4.8610922E-02   0.0000000E+00   4.3732520E-02   5.1946815E-02   0.0000000E+00   5.3579647E-02   5.2343618E-02   0.0000000E+00   5.9724122E-02   5.2618552E-02   0.0000000E+00   5.5921882E-02   5.2460480E-02   0.0000000E+00   5.4193348E-02   3.8467646E-02   0.0000000E+00   2.3345701E-02   4.1082796E-02   0.0000000E+00   2.7673677E-02   4.4264980E-02   0.0000000E+00   3.2540135E-02   4.7997437E-02   0.0000000E+00   3.9122988E-02   5.1803853E-02   0.0000000E+00   4.7759794E-02   5.3616580E-02   0.0000000E+00   5.3816728E-02   5.4401234E-02   0.0000000E+00   5.0796598E-02   5.4544087E-02   0.0000000E+00   4.9534295E-02   3.7269656E-02   0.0000000E+00   2.0977303E-02   3.9868467E-02   0.0000000E+00   2.4811070E-02   4.3096911E-02   0.0000000E+00   2.9083801E-02   4.6975709E-02   0.0000000E+00   3.4724988E-02   5.1315464E-02   0.0000000E+00   4.2245865E-02   5.4414049E-02   0.0000000E+00   4.8044376E-02   5.6171812E-02   0.0000000E+00   4.5700293E-02   5.6913290E-02   0.0000000E+00   4.4802815E-02   3.5935353E-02   0.0000000E+00   1.8734705E-02   3.8550880E-02   0.0000000E+00   2.2125451E-02   4.1784033E-02   0.0000000E+00   2.5970813E-02   4.5801781E-02   0.0000000E+00   3.0864816E-02   5.0757751E-02   0.0000000E+00   3.7340377E-02   5.5226516E-02   0.0000000E+00   4.2504426E-02   5.8421731E-02   0.0000000E+00   4.0620238E-02   6.0256753E-02   0.0000000E+00   4.0197033E-02   3.4420140E-02   0.0000000E+00   1.6637029E-02   3.7105832E-02   0.0000000E+00   1.9710589E-02   4.0393688E-02   0.0000000E+00   2.3110569E-02   4.4649579E-02   0.0000000E+00   2.7656274E-02   5.0217532E-02   0.0000000E+00   3.3335753E-02   5.6209158E-02   0.0000000E+00   3.7612308E-02   6.1665975E-02   0.0000000E+00   3.6400300E-02   6.5713167E-02   0.0000000E+00   3.6614232E-02   3.2842245E-02   0.0000000E+00   1.4723505E-02   3.5566054E-02   0.0000000E+00   1.7532881E-02   3.9022584E-02   0.0000000E+00   2.0669658E-02   4.3709405E-02   0.0000000E+00   2.5047278E-02   4.9817063E-02   0.0000000E+00   3.0270979E-02   5.7277918E-02   0.0000000E+00   3.3832610E-02   6.4558104E-02   0.0000000E+00   3.3556622E-02   7.1128123E-02   0.0000000E+00   3.4670807E-02   3.1289604E-02   0.0000000E+00   1.3074950E-02   3.4048576E-02   0.0000000E+00   1.5598081E-02   3.7795350E-02   0.0000000E+00   1.8772917E-02   4.2982463E-02   0.0000000E+00   2.3124941E-02   4.9704179E-02   0.0000000E+00   2.7974570E-02   5.8299735E-02   0.0000000E+00   3.0836562E-02   6.6567726E-02   0.0000000E+00   3.1474728E-02   7.4583739E-02   0.0000000E+00   3.3291362E-02   2.9787501E-02   0.0000000E+00   1.1512090E-02   3.2746017E-02   0.0000000E+00   1.4011978E-02   3.6880910E-02   0.0000000E+00   1.7367810E-02   4.2606212E-02   0.0000000E+00   2.1754969E-02   5.0214164E-02   0.0000000E+00   2.5895728E-02   5.9028998E-02   0.0000000E+00   2.8208191E-02   6.7179754E-02   0.0000000E+00   2.9486071E-02   2.8551571E-02   0.0000000E+00   1.0206235E-02   3.1792726E-02   0.0000000E+00   1.2827730E-02   3.6394782E-02   0.0000000E+00   1.6405072E-02   4.2902045E-02   0.0000000E+00   2.0605268E-02   5.1098201E-02   0.0000000E+00   2.4089575E-02   5.9308458E-02   0.0000000E+00   2.6154203E-02   6.6626959E-02   0.0000000E+00   2.7935566E-02   2.7661774E-02   0.0000000E+00   9.2813587E-03   3.1284254E-02   0.0000000E+00   1.2148703E-02   3.6597647E-02   0.0000000E+00   1.5881162E-02   4.3915145E-02   0.0000000E+00   1.9851124E-02   5.1873326E-02   0.0000000E+00   2.2835298E-02   5.9023410E-02   0.0000000E+00   2.4812309E-02   2.7260887E-02   0.0000000E+00   8.9167180E-03   3.1529550E-02   0.0000000E+00   1.2102372E-02   3.7811801E-02   0.0000000E+00   1.5972579E-02   4.5300387E-02   0.0000000E+00   1.9564653E-02   5.2354012E-02   0.0000000E+00   2.2151824E-02   5.8113363E-02   0.0000000E+00   2.3923865E-02   2.7783955E-02   0.0000000E+00   9.3761832E-03   3.3138677E-02   0.0000000E+00   1.2892030E-02   3.9793018E-02   0.0000000E+00   1.6557490E-02   4.6511505E-02   0.0000000E+00   1.9628158E-02   5.2066755E-02   0.0000000E+00   2.1722181E-02   2.9944280E-02   0.0000000E+00   1.0843844E-02   3.5787269E-02   0.0000000E+00   1.4175020E-02   4.1638412E-02   0.0000000E+00   1.7321276E-02   4.6881847E-02   0.0000000E+00   1.9650504E-02   3.3323895E-02   0.0000000E+00   1.2544964E-02   3.8113929E-02   0.0000000E+00   1.5446876E-02   4.2497337E-02   0.0000000E+00   1.7818555E-02   4.5682367E-02   0.0000000E+00   1.9272067E-02   3.5470940E-02   0.0000000E+00   1.3959615E-02   3.8525816E-02   0.0000000E+00   1.6126631E-02   3.5120599E-02   0.0000000E+00   1.4611591E-02 
Acec 3 2975 float
  0.0000000E+00   0.0000000E+00   0.0000000E+00   0.0000000E+00   0.0000000E+00   0.0000000E+00   0.0000000E+00   0.0000000E+00   0.0000000E+00   0.0000000E+00   0.0000000E+00   0.0000000E+00   0.0000000E+00   0.0000000E+00   0.0000000E+00   0.0000000E+00   0.0000000E+00   0.0000000E+00   0.0000000E+00   0.0000000E+00   0.0000000E+00   0.0000000E+00   0.0000000E+00   0.0000000E+00   0.0000000E+00   0.0000000E+00   0.0000000E+00   0.0000000E+00   0.0000000E+00   0.0000000E+00   0.0000000E+00   0.0000000E+00   0.0000000E+00   0.0000000E+00   0.0000000E+00   0.0000000E+00   0.0000000E+00   0.0000000E+00   0.0000000E+00   0.0000000E+00   0.0000000E+00   0.0000000E+00   0.0000000E+00   0.0000000E+00   0.0000000E+00   0.0000000E+00   0.0000000E+00   0.0000000E+00   0.0000000E+00   0.0000000E+00   0.0000000E+00   0.0000000E+00   0.0000000E+00   0.0000000E+00   0.0000000E+00   0.0000000E+00   0.0000000E+00   0.0000000E+00   0.0000000E+00   0.0000000E+00   0.0000000E+00   0.0000000E+00   0.0000000E+00   0.0000000E+00   0.0000000E+00   0.0000000E+00   0.0000000E+00   0.0000000E+00   0.0000000E+00   0.0000000E+00   0.0000000E+00   0.0000000E+00   0.0000000E+00   0.0000000E+00   0.0000000E+00   0.0000000E+00   0.0000000E+00   0.0000000E+00   0.0000000E+00   0.0000000E+00   0.0000000E+00   0.0000000E+00   0.0000000E+00   0.0000000E+00   0.0000000E+00   0.0000000E+00   0.0000000E+00   0.0000000E+00   0.0000000E+00   0.0000000E+00   0.0000000E+00   0.0000000E+00   0.0000000E+00   0.0000000E+00   0.0000000E+00   0.0000000E+00   0.0000000E+00   0.0000000E+00   0.0000000E+00   0.0000000E+00   0.0000000E+00   0.0000000E+00   0.0000000E+00   0.0000000E+00   0.0000000E+00   0.0000000E+00   0.0000000E+00   0.0000000E+00   0.0000000E+00   0.0000000E+00   0.0000000E+00   0.0000000E+00   0.0000000E+00   0.0000000E+00   0.0000000E+00   0.0000000E+00   0.0000000E+00   0.0000000E+00   0.0000000E+00   0.0000000E+00   0.0000000E+00   0.0000000E+00   0.0000000E+00   0.0000000E+00   0.0000000E+00   0.0000000E+00   0.0000000E+00   0.0000000E+00   0.0000000E+00   0.0000000E+00   0.0000000E+00   0.0000000E+00   0.0000000E+00   0.0000000E+00   0.0000000E+00   0.0000000E+00   0.0000000E+00   0.0000000E+00   0.0000000E+00   0.0000000E+00   0.0000000E+00   0.0000000E+00   0.0000000E+00   0.0000000E+00   0.0000000E+00   0.0000000E+00   0.0000000E+00   0.0000000E+00   0.0000000E+00   0.0000000E+00   0.0000000E+00   0.0000000E+00   0.0000000E+00   0.0000000E+00   0.0000000E+00   0.0000000E+00   0.0000000E+00   0.0000000E+00   0.0000000E+00   0.0000000E+00   0.0000000E+00   0.0000000E+00   0.0000000E+00   0.0000000E+00   0.0000000E+00   0.0000000E+00   0.0000000E+00   0.0000000E+00   0.0000000E+00   0.0000000E+00   0.0000000E+00   0.0000000E+00   0.0000000E+00   0.0000000E+00   0.0000000E+00   0.0000000E+00   0.0000000E+00   0.0000000E+00   0.0000000E+00   0.0000000E+00   0.0000000E+00   0.0000000E+00   0.0000000E+00   0.0000000E+00   0.0000000E+00   0.0000000E+00   0.0000000E+00   0.0000000E+00   0.0000000E+00   0.0000000E+00   0.0000000E+00   0.0000000E+00   0.0000000E+00   0.0000000E+00   0.0000000E+00   0.0000000E+00   0.0000000E+00   0.0000000E+00   0.0000000E+00   0.0000000E+00   0.0000000E+00   0.0000000E+00   0.0000000E+00   0.0000000E+00   0.0000000E+00   0.0000000E+00   0.0000000E+00   0.0000000E+00   0.0000000E+00   0.0000000E+00   0.0000000E+00   0.0000000E+00   0.0000000E+00   0.0000000E+00   0.0000000E+00   0.0000000E+00   0.0000000E+00   0.0000000E+00   0.0000000E+00   0.0000000E+00   0.0000000E+00   0.0000000E+00   0.0000000E+00   0.0000000E+00   0.0000000E+00   0.0000000E+00   0.0000000E+00   0.0000000E+00   0.0000000E+00   0.0000000E+00   0.0000000E+00   0.0000000E+00   0.0000000E+00   0.0000000E+00   0.0000000E+00   0.0000000E+00   0.0000000E+00   0.0000000E+00   0.0000000E+00   0.0000000E+00   0.0000000E+00   0.0000000E+00   0.0000000E+00   0.0000000E+00   0.0000000E+00   0.0000000E+00   0.0000000E+00   0.0000000E+00   0.0000000E+00   0.0000000E+00   0.0000000E+00   0.0000000E+00   0.0000000E+00   0.0000000E+00   0.0000000E+00   0.0000000E+00   0.0000000E+00   0.0000000E+00   0.0000000E+00   0.0000000E+00   0.0000000E+00   0.0000000E+00   0.0000000E+00   0.0000000E+00   0.0000000E+00   0.0000000E+00   0.0000000E+00   0.0000000E+00   0.0000000E+00   0.0000000E+00   0.0000000E+00   0.0000000E+00   0.0000000E+00   0.0000000E+00   0.0000000E+00   0.0000000E+00   0.0000000E+00   0.0000000E+00   0.0000000E+00   0.0000000E+00   0.0000000E+00   0.0000000E+00   0.0000000E+00   0.0000000E+00   0.0000000E+00   0.0000000E+00   0.0000000E+00   0.0000000E+00   0.0000000E+00   0.0000000E+00   0.0000000E+00   0.0000000E+00   0.0000000E+00   0.0000000E+00   0.0000000E+00   0.0000000E+00   0.0000000E+00   0.0000000E+00   0.0000000E+00   0.0000000E+00   0.0000000E+00   0.0000000E+00   0.0000000E+00   0.0000000E+00   0.0000000E+00   0.0000000E+00   0.0000000E+00   0.0000000E+00   0.0000000E+00   0.0000000E+00   0.0000000E+00   0.0000000E+00   0.0000000E+00   0.0000000E+00   0.0000000E+00   0.0000000E+00   0.0000000E+00   0.0000000E+00   0.0000000E+00   0.0000000E+00   0.0000000E+00   0.0000000E+00   0.0000000E+00   0.0000000E+00   0.0000000E+00   0.0000000E+00   0.0000000E+00   0.0000000E+00   0.0000000E+00   0.0000000E+00   0.0000000E+00   0.0000000E+00   0.0000000E+00   0.0000000E+00   0.0000000E+00   0.0000000E+00   0.0000000E+00   0.0000000E+00   0.0000000E+00   0.0000000E+00   0.0000000E+00   0.0000000E+00   0.0000000E+00   0.0000000E+00   0.0000000E+00   0.0000000E+00   0.0000000E+00   0.0000000E+00   0.0000000E+00   0.0000000E+00   0.0000000E+00   0.0000000E+00   0.0000000E+00   0.0000000E+00   0.0000000E+00   0.0000000E+00   0.0000000E+00   0.0000000E+00   0.0000000E+00   0.0000000E+00   0.0000000E+00   0.0000000E+00   0.0000000E+00   0.0000000E+00   0.0000000E+00   0.0000000E+00   0.0000000E+00   0.0000000E+00   0.0000000E+00   0.0000000E+00   0.0000000E+00   0.0000000E+00   0.0000000E+00   0.0000000E+00   0.0000000E+00   0.0000000E+00   0.0000000E+00   0.0000000E+00   0.0000000E+00   0.0000000E+00   0.0000000E+00   0.0000000E+00   0.0000000E+00   0.0000000E+00   0.0000000E+00   0.0000000E+00   0.0000000E+00   0.0000000E+00   0.0000000E+00   0.0000000E+00   0.0000000E+00   0.0000000E+00   0.0000000E+00   0.0000000E+00   0.0000000E+00   0.0000000E+00   0.0000000E+00   0.0000000E+00   0.0000000E+00   0.0000000E+00   0.0000000E+00   0.0000000E+00   0.0000000E+00   0.0000000E+00   0.0000000E+00   0.0000000E+00   0.0000000E+00   0.0000000E+00   0.0000000E+00   0.0000000E+00   0.0000000E+00   0.0000000E+00   0.0000000E+00   0.0000000E+00   0.0000000E+00   0.0000000E+00   0.0000000E+00   0.0000000E+00   0.0000000E+00   0.0000000E+00   0.0000000E+00   0.0000000E+00   0.0000000E+00   0.0000000E+00   0.0000000E+00   0.0000000E+00   0.0000000E+00   0.0000000E+00   0.0000000E+00   0.0000000E+00   0.0000000E+00   0.0000000E+00   0.0000000E+00   0.0000000E+00   0.0000000E+00   0.0000000E+00   0.0000000E+00   0.0000000E+00   0.0000000E+00   0.0000000E+00   0.0000000E+00   0.0000000E+00   0.0000000E+00   0.0000000E+00   0.0000000E+00   0.0000000E+00   0.0000000E+00   0.0000000E+00   0.0000000E+00   0.0000000E+00   0.0000000E+00   0.0000000E+00   0.0000000E+00   0.0000000E+00   0.0000000E+00   0.0000000E+00   0.0000000E+00   0.0000000E+00   0.0000000E+00   0.0000000E+00   0.0000000E+00   0.0000000E+00   0.0000000E+00   0.0000000E+00   0.0000000E+00   0.0000000E+00   0.0000000E+00   0.0000000E+00   0.0000000E+00   0.0000000E+00   0.0000000E+00   0.0000000E+00   0.0000000E+00   0.0000000E+00   0.0000000E+00   0.0000000E+00   0.0000000E+00   0.0000000E+00   0.0000000E+00   0.0000000E+00   0.0000000E+00   0.0000000E+00   0.0000000E+00   0.0000000E+00   0.0000000E+00   0.0000000E+00   0.0000000E+00   0.0000000E+00   0.0000000E+00   0.0000000E+00   0.0000000E+00   0.0000000E+00   0.0000000E+00   0.0000000E+00   0.0000000E+00   0.0000000E+00   0.0000000E+00   0.0000000E+00   0.0000000E+00   0.0000000E+00   0.0000000E+00   0.0000000E+00   0.0000000E+00   0.0000000E+00   0.0000000E+00   0.0000000E+00   0.0000000E+00   0.0000000E+00   0.0000000E+00   0.0000000E+00   0.0000000E+00   0.0000000E+00   0.0000000E+00   0.0000000E+00   0.0000000E+00   0.0000000E+00   0.0000000E+00   0.0000000E+00   0.0000000E+00   0.0000000E+00   0.0000000E+00   0.0000000E+00   0.0000000E+00   0.0000000E+00   0.0000000E+00   0.0000000E+00   0.0000000E+00   0.0000000E+00   0.0000000E+00   0.0000000E+00   0.0000000E+00   0.0000000E+00   0.0000000E+00   0.0000000E+00   0.0000000E+00   0.0000000E+00   0.0000000E+00   0.0000000E+00   0.0000000E+00   0.0000000E+00   0.0000000E+00   0.0000000E+00   0.0000000E+00   0.0000000E+00   0.0000000E+00   0.0000000E+00   0.0000000E+00   0.0000000E+00   0.0000000E+00   0.0000000E+00   0.0000000E+00   0.0000000E+00   0.0000000E+00   0.0000000E+00   0.0000000E+00   0.0000000E+00   0.0000000E+00   0.0000000E+00   0.0000000E+00   0.0000000E+00   0.0000000E+00   0.0000000E+00   0.0000000E+00   0.0000000E+00   0.0000000E+00   0.0000000E+00   0.0000000E+00   0.0000000E+00   0.0000000E+00   0.0000000E+00   0.0000000E+00   0.0000000E+00   0.0000000E+00   0.0000000E+00   0.0000000E+00   0.0000000E+00   0.0000000E+00   0.0000000E+00   0.0000000E+00   0.0000000E+00   0.0000000E+00   0.0000000E+00   0.0000000E+00   0.0000000E+00   0.0000000E+00   0.0000000E+00   0.0000000E+00   0.0000000E+00   0.0000000E+00   0.0000000E+00   0.0000000E+00   0.0000000E+00   0.0000000E+00   0.0000000E+00   0.0000000E+00   0.0000000E+00   0.0000000E+00   0.0000000E+00   0.0000000E+00   0.0000000E+00   0.0000000E+00   0.0000000E+00   0.0000000E+00   0.0000000E+00   0.0000000E+00   0.0000000E+00   0.0000000E+00   0.0000000E+00   0.0000000E+00   0.0000000E+00   0.0000000E+00   0.0000000E+00   0.0000000E+00   0.0000000E+00   0.0000000E+00   0.0000000E+00   0.0000000E+00   0.0000000E+00   0.0000000E+00   0.0000000E+00   0.0000000E+00   0.0000000E+00   0.0000000E+00   0.0000000E+00   0.0000000E+00   0.0000000E+00   0.0000000E+00   0.0000000E+00   0.0000000E+00   0.0000000E+00   0.0000000E+00   0.0000000E+00   0.0000000E+00   0.0000000E+00   0.0000000E+00   0.0000000E+00   0.0000000E+00   0.0000000E+00   0.0000000E+00   0.0000000E+00   0.0000000E+00   0.0000000E+00   0.0000000E+00   0.0000000E+00   0.0000000E+00   0.0000000E+00   0.0000000E+00   0.0000000E+00   0.0000000E+00   0.0000000E+00   0.0000000E+00   0.0000000E+00   0.0000000E+00   0.0000000E+00   0.0000000E+00   0.0000000E+00   0.0000000E+00   0.0000000E+00   0.0000000E+00   0.0000000E+00   0.0000000E+00   0.0000000E+00   0.0000000E+00   0.0000000E+00   0.0000000E+00   0.0000000E+00   0.0000000E+00   0.0000000E+00   0.0000000E+00   0.0000000E+00   0.0000000E+00   0.0000000E+00   0.0000000E+00   0.0000000E+00   0.0000000E+00   0.0000000E+00   0.0000000E+00   0.0000000E+00   0.0000000E+00   0.0000000E+00   0.0000000E+00   0.0000000E+00   0.0000000E+00   0.0000000E+00   0.0000000E+00   0.0000000E+00   0.0000000E+00   0.0000000E+00   0.0000000E+00   0.0000000E+00   0.0000000E+00   0.0000000E+00   0.0000000E+00   0.0000000E+00   0.0000000E+00   0.0000000E+00   0.0000000E+00   0.0000000E+00   0.0000000E+00   0.0000000E+00   0.0000000E+00   0.0000000E+00   0.0000000E+00   0.0000000E+00   0.0000000E+00   0.0000000E+00   0.0000000E+00   0.0000000E+00   0.0000000E+00   0.0000000E+00   0.0000000E+00   0.0000000E+00   0.0000000E+00   0.0000000E+00   0.0000000E+00   0.0000000E+00   0.0000000E+00   0.0000000E+00   0.0000000E+00   0.0000000E+00   0.0000000E+00   0.0000000E+00   0.0000000E+00   0.0000000E+00   0.0000000E+00   0.0000000E+00   0.0000000E+00   0.0000000E+00   0.0000000E+00   0.0000000E+00   0.0000000E+00   0.0000000E+00   0.0000000E+00   0.0000000E+00   0.0000000E+00   0.0000000E+00   0.0000000E+00   0.0000000E+00   0.0000000E+00   0.0000000E+00   0.0000000E+00   0.0000000E+00   0.0000000E+00   0.0000000E+00   0.0000000E+00   0.0000000E+00   0.0000000E+00   0.0000000E+00   0.0000000E+00   0.0000000E+00   0.0000000E+00   0.0000000E+00   0.0000000E+00   0.0000000E+00   0.0000000E+00   0.0000000E+00   0.0000000E+00   0.0000000E+00   0.0000000E+00   0.0000000E+00   0.0000000E+00   0.0000000E+00   0.0000000E+00   0.0000000E+00   0.0000000E+00   0.0000000E+00   0.0000000E+00   0.0000000E+00   0.0000000E+00   0.0000000E+00   0.0000000E+00   0.0000000E+00   0.0000000E+00   0.0000000E+00   0.0000000E+00   0.0000000E+00   0.0000000E+00   0.0000000E+00   0.0000000E+00   0.0000000E+00   0.0000000E+00   0.0000000E+00   0.0000000E+00   0.0000000E+00   0.0000000E+00   0.0000000E+00   0.0000000E+00   0.0000000E+00   0.0000000E+00   0.0000000E+00   0.0000000E+00   0.0000000E+00   0.0000000E+00   0.0000000E+00   0.0000000E+00   0.0000000E+00   0.0000000E+00   0.0000000E+00   0.0000000E+00   0.0000000E+00   0.0000000E+00   0.0000000E+00   0.0000000E+00   0.0000000E+00   0.0000000E+00   0.0000000E+00   0.0000000E+00   0.0000000E+00   0.0000000E+00   0.0000000E+00   0.0000000E+00   0.0000000E+00   0.0000000E+00   0.0000000E+00   0.0000000E+00   0.0000000E+00   0.0000000E+00   0.0000000E+00   0.0000000E+00   0.0000000E+00   0.0000000E+00   0.0000000E+00   0.0000000E+00   0.0000000E+00   0.0000000E+00   0.0000000E+00   0.0000000E+00   0.0000000E+00   0.0000000E+00   0.0000000E+00   0.0000000E+00   0.0000000E+00   0.0000000E+00   0.0000000E+00   0.0000000E+00   0.0000000E+00   0.0000000E+00   0.0000000E+00   0.0000000E+00   0.0000000E+00   0.0000000E+00   0.0000000E+00   0.0000000E+00   0.0000000E+00   0.0000000E+00   0.0000000E+00   0.0000000E+00   0.0000000E+00   0.0000000E+00   0.0000000E+00   0.0000000E+00   0.0000000E+00   0.0000000E+00   0.0000000E+00   0.0000000E+00   0.0000000E+00   0.0000000E+00   0.0000000E+00   0.0000000E+00   0.0000000E+00   0.0000000E+00   0.0000000E+00   0.0000000E+00   0.0000000E+00   0.0000000E+00   0.0000000E+00   0.0000000E+00   0.0000000E+00   0.0000000E+00   0.0000000E+00   0.0000000E+00   0.0000000E+00   0.0000000E+00   0.0000000E+00   0.0000000E+00   0.0000000E+00   0.0000000E+00   0.0000000E+00   0.0000000E+00   0.0000000E+00   0.0000000E+00   0.0000000E+00   0.0000000E+00   0.0000000E+00   0.0000000E+00   0.0000000E+00   0.0000000E+00   0.0000000E+00   0.0000000E+00   0.0000000E+00   0.0000000E+00   0.0000000E+00   0.0000000E+00   0.0000000E+00   0.0000000E+00   0.0000000E+00   0.0000000E+00   0.0000000E+00   0.0000000E+00   0.0000000E+00   0.0000000E+00   0.0000000E+00   0.0000000E+00   0.0000000E+00   0.0000000E+00   0.0000000E+00   0.0000000E+00   0.0000000E+00   0.0000000E+00   0.0000000E+00   0.0000000E+00   0.0000000E+00   0.0000000E+00   0.0000000E+00   0.0000000E+00   0.0000000E+00   0.0000000E+00   0.0000000E+00   0.0000000E+00   0.0000000E+00   0.0000000E+00   0.0000000E+00   0.0000000E+00   0.0000000E+00   0.0000000E+00   0.0000000E+00   0.0000000E+00   0.0000000E+00   0.0000000E+00   0.0000000E+00   0.0000000E+00   0.0000000E+00   0.0000000E+00   0.0000000E+00   0.0000000E+00   0.0000000E+00   0.0000000E+00   0.0000000E+00   0.0000000E+00   0.0000000E+00   0.0000000E+00   0.0000000E+00   0.0000000E+00   0.0000000E+00   0.0000000E+00   0.0000000E+00   0.0000000E+00   0.0000000E+00   0.0000000E+00   0.0000000E+00   0.0000000E+00   0.0000000E+00   0.0000000E+00   0.0000000E+00   0.0000000E+00   0.0000000E+00   0.0000000E+00   0.0000000E+00   0.0000000E+00   0.0000000E+00   0.0000000E+00   0.0000000E+00   0.0000000E+00   0.0000000E+00   0.0000000E+00   0.0000000E+00   0.0000000E+00   0.0000000E+00   0.0000000E+00   0.0000000E+00   0.0000000E+00   0.0000000E+00   0.0000000E+00   0.0000000E+00   0.0000000E+00   0.0000000E+00   0.0000000E+00   0.0000000E+00   0.0000000E+00   0.0000000E+00   0.0000000E+00   0.0000000E+00   0.0000000E+00   0.0000000E+00   0.0000000E+00   0.0000000E+00   0.0000000E+00   0.0000000E+00   0.0000000E+00   0.0000000E+00   0.0000000E+00   0.0000000E+00   0.0000000E+00   0.0000000E+00   0.0000000E+00   0.0000000E+00   0.0000000E+00   0.0000000E+00   0.0000000E+00   0.0000000E+00   0.0000000E+00   0.0000000E+00   0.0000000E+00   0.0000000E+00   0.0000000E+00   0.0000000E+00   0.0000000E+00   0.0000000E+00   0.0000000E+00   0.0000000E+00   0.0000000E+00   0.0000000E+00   0.0000000E+00   0.0000000E+00   0.0000000E+00   0.0000000E+00   0.0000000E+00   0.0000000E+00   0.0000000E+00   0.0000000E+00   0.0000000E+00   0.0000000E+00   0.0000000E+00   0.0000000E+00   0.0000000E+00   0.0000000E+00   0.0000000E+00   0.0000000E+00   0.0000000E+00   0.0000000E+00   0.0000000E+00   0.0000000E+00   0.0000000E+00   0.0000000E+00   0.0000000E+00   0.0000000E+00   0.0000000E+00   0.0000000E+00   0.0000000E+00   0.0000000E+00   0.0000000E+00   0.0000000E+00   0.0000000E+00   0.0000000E+00   0.0000000E+00   0.0000000E+00   0.0000000E+00   0.0000000E+00   0.0000000E+00   0.0000000E+00   0.0000000E+00   0.0000000E+00   0.0000000E+00   0.0000000E+00   0.0000000E+00   0.0000000E+00   0.0000000E+00   0.0000000E+00   0.0000000E+00   0.0000000E+00   0.0000000E+00   0.0000000E+00   0.0000000E+00   0.0000000E+00   0.0000000E+00   0.0000000E+00   0.0000000E+00   0.0000000E+00   0.0000000E+00   0.0000000E+00   0.0000000E+00   0.0000000E+00   0.0000000E+00   0.0000000E+00   0.0000000E+00   0.0000000E+00   0.0000000E+00   0.0000000E+00   0.0000000E+00   0.0000000E+00   0.0000000E+00   0.0000000E+00   0.0000000E+00   0.0000000E+00   0.0000000E+00   0.0000000E+00   0.0000000E+00   0.0000000E+00   0.0000000E+00   0.0000000E+00   0.0000000E+00   0.0000000E+00   0.0000000E+00   0.0000000E+00   0.0000000E+00   0.0000000E+00   0.0000000E+00   0.0000000E+00   0.0000000E+00   0.0000000E+00   0.0000000E+00   0.0000000E+00   0.0000000E+00   0.0000000E+00   0.0000000E+00   0.0000000E+00   0.0000000E+00   0.0000000E+00   0.0000000E+00   0.0000000E+00   0.0000000E+00   0.0000000E+00   0.0000000E+00   0.0000000E+00   0.0000000E+00   0.0000000E+00   0.0000000E+00   0.0000000E+00   0.0000000E+00   0.0000000E+00   0.0000000E+00   0.0000000E+00   0.0000000E+00   0.0000000E+00   0.0000000E+00   0.0000000E+00   0.0000000E+00   0.0000000E+00   0.0000000E+00   0.0000000E+00   0.0000000E+00   0.0000000E+00   0.0000000E+00   0.0000000E+00   0.0000000E+00   0.0000000E+00   0.0000000E+00   0.0000000E+00   0.0000000E+00   0.0000000E+00   0.0000000E+00   0.0000000E+00   0.0000000E+00   0.0000000E+00   0.0000000E+00   0.0000000E+00   0.0000000E+00   0.0000000E+00   0.0000000E+00   0.0000000E+00   0.0000000E+00   0.0000000E+00   0.0000000E+00   0.0000000E+00   0.0000000E+00   0.0000000E+00   0.0000000E+00   0.0000000E+00   0.0000000E+00   0.0000000E+00   0.0000000E+00   0.0000000E+00   0.0000000E+00   0.0000000E+00   0.0000000E+00   0.0000000E+00   0.0000000E+00   0.0000000E+00   0.0000000E+00   0.0000000E+00   0.0000000E+00   0.0000000E+00   0.0000000E+00   0.0000000E+00   0.0000000E+00   0.0000000E+00   0.0000000E+00   0.0000000E+00   0.0000000E+00   0.0000000E+00   0.0000000E+00   0.0000000E+00   0.0000000E+00   0.0000000E+00   0.0000000E+00   0.0000000E+00   0.0000000E+00   0.0000000E+00   0.0000000E+00   0.0000000E+00   0.0000000E+00   0.0000000E+00   0.0000000E+00   0.0000000E+00   0.0000000E+00   0.0000000E+00   0.0000000E+00   0.0000000E+00   0.0000000E+00   0.0000000E+00   0.0000000E+00   0.0000000E+00   0.0000000E+00   0.0000000E+00   0.0000000E+00   0.0000000E+00   0.0000000E+00   0.0000000E+00   0.0000000E+00   0.0000000E+00   0.0000000E+00   0.0000000E+00   0.0000000E+00   0.0000000E+00   0.0000000E+00   0.0000000E+00   0.0000000E+00   0.0000000E+00   0.0000000E+00   0.0000000E+00   0.0000000E+00   0.0000000E+00   0.0000000E+00   0.0000000E+00   0.0000000E+00   0.0000000E+00   0.0000000E+00   0.0000000E+00   0.0000000E+00   0.0000000E+00   0.0000000E+00   0.0000000E+00   0.0000000E+00   0.0000000E+00   0.0000000E+00   0.0000000E+00   0.0000000E+00   0.0000000E+00   0.0000000E+00   0.0000000E+00   0.0000000E+00   0.0000000E+00   0.0000000E+00   0.0000000E+00   0.0000000E+00   0.0000000E+00   0.0000000E+00   0.0000000E+00   0.0000000E+00   0.0000000E+00   0.0000000E+00   0.0000000E+00   0.0000000E+00   0.0000000E+00   0.0000000E+00   0.0000000E+00   0.0000000E+00   0.0000000E+00   0.0000000E+00   0.0000000E+00   0.0000000E+00   0.0000000E+00   0.0000000E+00   0.0000000E+00   0.0000000E+00   0.0000000E+00   0.0000000E+00   0.0000000E+00   0.0000000E+00   0.0000000E+00   0.0000000E+00   0.0000000E+00   0.0000000E+00   0.0000000E+00   0.0000000E+00   0.0000000E+00   0.0000000E+00   0.0000000E+00   0.0000000E+00   0.0000000E+00   0.0000000E+00   0.0000000E+00   0.0000000E+00   0.0000000E+00   0.0000000E+00   0.0000000E+00   0.0000000E+00   0.0000000E+00   0.0000000E+00   0.0000000E+00   0.0000000E+00   0.0000000E+00   0.0000000E+00   0.0000000E+00   0.0000000E+00   0.0000000E+00   0.0000000E+00   0.0000000E+00   0.0000000E+00   0.0000000E+00   0.0000000E+00   0.0000000E+00   0.0000000E+00   0.0000000E+00   0.0000000E+00   0.0000000E+00   0.0000000E+00   0.0000000E+00   0.0000000E+00   0.0000000E+00   0.0000000E+00   0.0000000E+00   0.0000000E+00   0.0000000E+00   0.0000000E+00   0.0000000E+00   0.0000000E+00   0.0000000E+00   0.0000000E+00   0.0000000E+00   0.0000000E+00   0.0000000E+00   0.0000000E+00   0.0000000E+00   0.0000000E+00   0.0000000E+00   0.0000000E+00   0.0000000E+00   0.0000000E+00   0.0000000E+00   0.0000000E+00   0.0000000E+00   0.0000000E+00   0.0000000E+00   0.0000000E+00   0.0000000E+00   0.0000000E+00   0.0000000E+00   0.0000000E+00   0.0000000E+00   0.0000000E+00   0.0000000E+00   0.0000000E+00   0.0000000E+00   0.0000000E+00   0.0000000E+00   0.0000000E+00   0.0000000E+00   0.0000000E+00   0.0000000E+00   0.0000000E+00   0.0000000E+00   0.0000000E+00   0.0000000E+00   0.0000000E+00   0.0000000E+00   0.0000000E+00   0.0000000E+00   0.0000000E+00   0.0000000E+00   0.0000000E+00   0.0000000E+00   0.0000000E+00   0.0000000E+00   0.0000000E+00   0.0000000E+00   0.0000000E+00   0.0000000E+00   0.0000000E+00   0.0000000E+00   0.0000000E+00   0.0000000E+00   0.0000000E+00   0.0000000E+00   0.0000000E+00   0.0000000E+00   0.0000000E+00   0.0000000E+00   0.0000000E+00   0.0000000E+00   0.0000000E+00   0.0000000E+00   0.0000000E+00   0.0000000E+00   0.0000000E+00   0.0000000E+00   0.0000000E+00   0.0000000E+00   0.0000000E+00   0.0000000E+00   0.0000000E+00   0.0000000E+00   0.0000000E+00   0.0000000E+00   0.0000000E+00   0.0000000E+00   0.0000000E+00   0.0000000E+00   0.0000000E+00   0.0000000E+00   0.0000000E+00   0.0000000E+00   0.0000000E+00   0.0000000E+00   0.0000000E+00   0.0000000E+00   0.0000000E+00   0.0000000E+00   0.0000000E+00   0.0000000E+00   0.0000000E+00   0.0000000E+00   0.0000000E+00   0.0000000E+00   0.0000000E+00   0.0000000E+00   0.0000000E+00   0.0000000E+00   0.0000000E+00   0.0000000E+00   0.0000000E+00   0.0000000E+00   0.0000000E+00   0.0000000E+00   0.0000000E+00   0.0000000E+00   0.0000000E+00   0.0000000E+00   0.0000000E+00   0.0000000E+00   0.0000000E+00   0.0000000E+00   0.0000000E+00   0.0000000E+00   0.0000000E+00   0.0000000E+00   0.0000000E+00   0.0000000E+00   0.0000000E+00   0.0000000E+00   0.0000000E+00   0.0000000E+00   0.0000000E+00   0.0000000E+00   0.0000000E+00   0.0000000E+00   0.0000000E+00   0.0000000E+00   0.0000000E+00   0.0000000E+00   0.0000000E+00   0.0000000E+00   0.0000000E+00   0.0000000E+00   0.0000000E+00   0.0000000E+00   0.0000000E+00   0.0000000E+00   0.0000000E+00   0.0000000E+00   0.0000000E+00   0.0000000E+00   0.0000000E+00   0.0000000E+00   0.0000000E+00   0.0000000E+00   0.0000000E+00   0.0000000E+00   0.0000000E+00   0.0000000E+00   0.0000000E+00   0.0000000E+00   0.0000000E+00   0.0000000E+00   0.0000000E+00   0.0000000E+00   0.0000000E+00   0.0000000E+00   0.0000000E+00   0.0000000E+00   0.0000000E+00   0.0000000E+00   0.0000000E+00   0.0000000E+00   0.0000000E+00   0.0000000E+00   0.0000000E+00   0.0000000E+00   0.0000000E+00   0.0000000E+00   0.0000000E+00   0.0000000E+00   0.0000000E+00   0.0000000E+00   0.0000000E+00   0.0000000E+00   0.0000000E+00   0.0000000E+00   0.0000000E+00   0.0000000E+00   0.0000000E+00   0.0000000E+00   0.0000000E+00   0.0000000E+00   0.0000000E+00   0.0000000E+00   0.0000000E+00   0.0000000E+00   0.0000000E+00   0.0000000E+00   0.0000000E+00   0.0000000E+00   0.0000000E+00   0.0000000E+00   0.0000000E+00   0.0000000E+00   0.0000000E+00   0.0000000E+00   0.0000000E+00   0.0000000E+00   0.0000000E+00   0.0000000E+00   0.0000000E+00   0.0000000E+00   0.0000000E+00   0.0000000E+00   0.0000000E+00   0.0000000E+00   0.0000000E+00   0.0000000E+00   0.0000000E+00   0.0000000E+00   0.0000000E+00   0.0000000E+00   0.0000000E+00   0.0000000E+00   0.0000000E+00   0.0000000E+00   0.0000000E+00   0.0000000E+00   0.0000000E+00   0.0000000E+00   0.0000000E+00   0.0000000E+00   0.0000000E+00   0.0000000E+00   0.0000000E+00   0.0000000E+00   0.0000000E+00   0.0000000E+00   0.0000000E+00   0.0000000E+00   0.0000000E+00   0.0000000E+00   0.0000000E+00   0.0000000E+00   0.0000000E+00   0.0000000E+00   0.0000000E+00   0.0000000E+00   0.0000000E+00   0.0000000E+00   0.0000000E+00   0.0000000E+00   0.0000000E+00   0.0000000E+00   0.0000000E+00   0.0000000E+00   0.0000000E+00   0.0000000E+00   0.0000000E+00   0.0000000E+00   0.0000000E+00   0.0000000E+00   0.0000000E+00   0.0000000E+00   0.0000000E+00   0.0000000E+00   0.0000000E+00   0.0000000E+00   0.0000000E+00   0.0000000E+00   0.0000000E+00   0.0000000E+00   0.0000000E+00   0.0000000E+00   0.0000000E+00   0.0000000E+00   0.0000000E+00   0.0000000E+00   0.0000000E+00   0.0000000E+00   0.0000000E+00   0.0000000E+00   0.0000000E+00   0.0000000E+00   0.0000000E+00   0.0000000E+00   0.0000000E+00   0.0000000E+00   0.0000000E+00   0.0000000E+00   0.0000000E+00   0.0000000E+00   0.0000000E+00   0.0000000E+00   0.0000000E+00   0.0000000E+00   0.0000000E+00   0.0000000E+00   0.0000000E+00   0.0000000E+00   0.0000000E+00   0.0000000E+00   0.0000000E+00   0.0000000E+00   0.0000000E+00   0.0000000E+00   0.0000000E+00   0.0000000E+00   0.0000000E+00   0.0000000E+00   0.0000000E+00   0.0000000E+00   0.0000000E+00   0.0000000E+00   0.0000000E+00   0.0000000E+00   0.0000000E+00   0.0000000E+00   0.0000000E+00   0.0000000E+00   0.0000000E+00   0.0000000E+00   0.0000000E+00   0.0000000E+00   0.0000000E+00   0.0000000E+00   0.0000000E+00   0.0000000E+00   0.0000000E+00   0.0000000E+00   0.0000000E+00   0.0000000E+00   0.0000000E+00   0.0000000E+00   0.0000000E+00   0.0000000E+00   0.0000000E+00   0.0000000E+00   0.0000000E+00   0.0000000E+00   0.0000000E+00   0.0000000E+00   0.0000000E+00   0.0000000E+00   0.0000000E+00   0.0000000E+00   0.0000000E+00   0.0000000E+00   0.0000000E+00   0.0000000E+00   0.0000000E+00   0.0000000E+00   0.0000000E+00   0.0000000E+00   0.0000000E+00   0.0000000E+00   0.0000000E+00   0.0000000E+00   0.0000000E+00   0.0000000E+00   0.0000000E+00   0.0000000E+00   0.0000000E+00   0.0000000E+00   0.0000000E+00   0.0000000E+00   0.0000000E+00   0.0000000E+00   0.0000000E+00   0.0000000E+00   0.0000000E+00   0.0000000E+00   0.0000000E+00   0.0000000E+00   0.0000000E+00   0.0000000E+00   0.0000000E+00   0.0000000E+00   0.0000000E+00   0.0000000E+00   0.0000000E+00   0.0000000E+00   0.0000000E+00   0.0000000E+00   0.0000000E+00   0.0000000E+00   0.0000000E+00   0.0000000E+00   0.0000000E+00   0.0000000E+00   0.0000000E+00   0.0000000E+00   0.0000000E+00   0.0000000E+00   0.0000000E+00   0.0000000E+00   0.0000000E+00   0.0000000E+00   0.0000000E+00   0.0000000E+00   0.0000000E+00   0.0000000E+00   0.0000000E+00   0.0000000E+00   0.0000000E+00   0.0000000E+00   0.0000000E+00   0.0000000E+00   0.0000000E+00   0.0000000E+00   0.0000000E+00   0.0000000E+00   0.0000000E+00   0.0000000E+00   0.0000000E+00   0.0000000E+00   0.0000000E+00   0.0000000E+00   0.0000000E+00   0.0000000E+00   0.0000000E+00   0.0000000E+00   0.0000000E+00   0.0000000E+00   0.0000000E+00   0.0000000E+00   0.0000000E+00   0.0000000E+00   0.0000000E+00   0.0000000E+00   0.0000000E+00   0.0000000E+00   0.0000000E+00   0.0000000E+00   0.0000000E+00   0.0000000E+00   0.0000000E+00   0.0000000E+00   0.0000000E+00   0.0000000E+00   0.0000000E+00   0.0000000E+00   0.0000000E+00   0.0000000E+00   0.0000000E+00   0.0000000E+00   0.0000000E+00   0.0000000E+00   0.0000000E+00   0.0000000E+00   0.0000000E+00   0.0000000E+00   0.0000000E+00   0.0000000E+00   0.0000000E+00   0.0000000E+00   0.0000000E+00   0.0000000E+00   0.0000000E+00   0.0000000E+00   0.0000000E+00   0.0000000E+00   0.0000000E+00   0.0000000E+00   0.0000000E+00   0.0000000E+00   0.0000000E+00   0.0000000E+00   0.0000000E+00   0.0000000E+00   0.0000000E+00   0.0000000E+00   0.0000000E+00   0.0000000E+00   0.0000000E+00   0.0000000E+00   0.0000000E+00   0.0000000E+00   0.0000000E+00   0.0000000E+00   0.0000000E+00   0.0000000E+00   0.0000000E+00   0.0000000E+00   0.0000000E+00   0.0000000E+00   0.0000000E+00   0.0000000E+00   0.0000000E+00   0.0000000E+00   0.0000000E+00   0.0000000E+00   0.0000000E+00   0.0000000E+00   0.0000000E+00   0.0000000E+00   0.0000000E+00   0.0000000E+00   0.0000000E+00   0.0000000E+00   0.0000000E+00   0.0000000E+00   0.0000000E+00   0.0000000E+00   0.0000000E+00   0.0000000E+00   0.0000000E+00   0.0000000E+00   0.0000000E+00   0.0000000E+00   0.0000000E+00   0.0000000E+00   0.0000000E+00   0.0000000E+00   0.0000000E+00   0.0000000E+00   0.0000000E+00   0.0000000E+00   0.0000000E+00   0.0000000E+00   0.0000000E+00   0.0000000E+00   0.0000000E+00   0.0000000E+00   0.0000000E+00   0.0000000E+00   0.0000000E+00   0.0000000E+00   0.0000000E+00   0.0000000E+00   0.0000000E+00   0.0000000E+00   0.0000000E+00   0.0000000E+00   0.0000000E+00   0.0000000E+00   0.0000000E+00   0.0000000E+00   0.0000000E+00   0.0000000E+00   0.0000000E+00   0.0000000E+00   0.0000000E+00   0.0000000E+00   0.0000000E+00   0.0000000E+00   0.0000000E+00   0.0000000E+00   0.0000000E+00   0.0000000E+00   0.0000000E+00   0.0000000E+00   0.0000000E+00   0.0000000E+00   0.0000000E+00   0.0000000E+00   0.0000000E+00   0.0000000E+00   0.0000000E+00   0.0000000E+00   0.0000000E+00   0.0000000E+00   0.0000000E+00   0.0000000E+00   0.0000000E+00   0.0000000E+00   0.0000000E+00   0.0000000E+00   0.0000000E+00   0.0000000E+00   0.0000000E+00   0.0000000E+00   0.0000000E+00   0.0000000E+00   0.0000000E+00   0.0000000E+00   0.0000000E+00   0.0000000E+00   0.0000000E+00   0.0000000E+00   0.0000000E+00   0.0000000E+00   0.0000000E+00   0.0000000E+00   0.0000000E+00   0.0000000E+00   0.0000000E+00   0.0000000E+00   0.0000000E+00   0.0000000E+00   0.0000000E+00   0.0000000E+00   0.0000000E+00   0.0000000E+00   0.0000000E+00   0.0000000E+00   0.0000000E+00   0.0000000E+00   0.0000000E+00   0.0000000E+00   0.0000000E+00   0.0000000E+00   0.0000000E+00   0.0000000E+00   0.0000000E+00   0.0000000E+00   0.0000000E+00   0.0000000E+00   0.0000000E+00   0.0000000E+00   0.0000000E+00   0.0000000E+00   0.0000000E+00   0.0000000E+00   0.0000000E+00   0.0000000E+00   0.0000000E+00   0.0000000E+00   0.0000000E+00   0.0000000E+00   0.0000000E+00   0.0000000E+00   0.0000000E+00   0.0000000E+00   0.0000000E+00   0.0000000E+00   0.0000000E+00   0.0000000E+00   0.0000000E+00   0.0000000E+00   0.0000000E+00   0.0000000E+00   0.0000000E+00   0.0000000E+00   0.0000000E+00   0.0000000E+00   0.0000000E+00   0.0000000E+00   0.0000000E+00   0.0000000E+00   0.0000000E+00   0.0000000E+00   0.0000000E+00   0.0000000E+00   0.0000000E+00   0.0000000E+00   0.0000000E+00   0.0000000E+00   0.0000000E+00   0.0000000E+00   0.0000000E+00   0.0000000E+00   0.0000000E+00   0.0000000E+00   0.0000000E+00   0.0000000E+00   0.0000000E+00   0.0000000E+00   0.0000000E+00   0.0000000E+00   0.0000000E+00   0.0000000E+00   0.0000000E+00   0.0000000E+00   0.0000000E+00   0.0000000E+00   0.0000000E+00   0.0000000E+00   0.0000000E+00   0.0000000E+00   0.0000000E+00   0.0000000E+00   0.0000000E+00   0.0000000E+00   0.0000000E+00   0.0000000E+00   0.0000000E+00   0.0000000E+00   0.0000000E+00   0.0000000E+00   0.0000000E+00   0.0000000E+00   0.0000000E+00   0.0000000E+00   0.0000000E+00   0.0000000E+00   0.0000000E+00   0.0000000E+00   0.0000000E+00   0.0000000E+00   0.0000000E+00   0.0000000E+00   0.0000000E+00   0.0000000E+00   0.0000000E+00   0.0000000E+00   0.0000000E+00   0.0000000E+00   0.0000000E+00   0.0000000E+00   0.0000000E+00   0.0000000E+00   0.0000000E+00   0.0000000E+00   0.0000000E+00   0.0000000E+00   0.0000000E+00   0.0000000E+00   0.0000000E+00   0.0000000E+00   0.0000000E+00   0.0000000E+00   0.0000000E+00   0.0000000E+00   0.0000000E+00   0.0000000E+00   0.0000000E+00   0.0000000E+00   0.0000000E+00   0.0000000E+00   0.0000000E+00   0.0000000E+00   0.0000000E+00   0.0000000E+00   0.0000000E+00   0.0000000E+00   0.0000000E+00   0.0000000E+00   0.0000000E+00   0.0000000E+00   0.0000000E+00   0.0000000E+00   0.0000000E+00   0.0000000E+00   0.0000000E+00   0.0000000E+00   0.0000000E+00   0.0000000E+00   0.0000000E+00   0.0000000E+00   0.0000000E+00   0.0000000E+00   0.0000000E+00   0.0000000E+00   0.0000000E+00   0.0000000E+00   0.0000000E+00   0.0000000E+00   0.0000000E+00   0.0000000E+00   0.0000000E+00   0.0000000E+00   0.0000000E+00   0.0000000E+00   0.0000000E+00   0.0000000E+00   0.0000000E+00   0.0000000E+00   0.0000000E+00   0.0000000E+00   0.0000000E+00   0.0000000E+00   0.0000000E+00   0.0000000E+00   0.0000000E+00   0.0000000E+00   0.0000000E+00   0.0000000E+00   0.0000000E+00   0.0000000E+00   0.0000000E+00   0.0000000E+00   0.0000000E+00   0.0000000E+00   0.0000000E+00   0.0000000E+00   0.0000000E+00   0.0000000E+00   0.0000000E+00   0.0000000E+00   0.0000000E+00   0.0000000E+00   0.0000000E+00   0.0000000E+00   0.0000000E+00   0.0000000E+00   0.0000000E+00   0.0000000E+00   0.0000000E+00   0.0000000E+00   0.0000000E+00   0.0000000E+00   0.0000000E+00   0.0000000E+00   0.0000000E+00   0.0000000E+00   0.0000000E+00   0.0000000E+00   0.0000000E+00   0.0000000E+00   0.0000000E+00   0.0000000E+00   0.0000000E+00   0.0000000E+00   0.0000000E+00   0.0000000E+00   0.0000000E+00   0.0000000E+00   0.0000000E+00   0.0000000E+00   0.0000000E+00   0.0000000E+00   0.0000000E+00   0.0000000E+00   0.0000000E+00   0.0000000E+00   0.0000000E+00   0.0000000E+00   0.0000000E+00   0.0000000E+00   0.0000000E+00   0.0000000E+00   0.0000000E+00   0.0000000E+00   0.0000000E+00   0.0000000E+00   0.0000000E+00   0.0000000E+00   0.0000000E+00   0.0000000E+00   0.0000000E+00   0.0000000E+00   0.0000000E+00   0.0000000E+00   0.0000000E+00   0.0000000E+00   0.0000000E+00   0.0000000E+00   0.0000000E+00   0.0000000E+00   0.0000000E+00   0.0000000E+00   0.0000000E+00   0.0000000E+00   0.0000000E+00   0.0000000E+00   0.0000000E+00   0.0000000E+00   0.0000000E+00   0.0000000E+00   0.0000000E+00   0.0000000E+00   0.0000000E+00   0.0000000E+00   0.0000000E+00   0.0000000E+00   0.0000000E+00   0.0000000E+00   0.0000000E+00   0.0000000E+00   0.0000000E+00   0.0000000E+00   0.0000000E+00   0.0000000E+00   0.0000000E+00   0.0000000E+00   0.0000000E+00   0.0000000E+00   0.0000000E+00   0.0000000E+00   0.0000000E+00   0.0000000E+00   0.0000000E+00   0.0000000E+00   0.0000000E+00   0.0000000E+00   0.0000000E+00   0.0000000E+00   0.0000000E+00   0.0000000E+00   0.0000000E+00   0.0000000E+00   0.0000000E+00   0.0000000E+00   0.0000000E+00   0.0000000E+00   0.0000000E+00   0.0000000E+00   0.0000000E+00   0.0000000E+00   0.0000000E+00   0.0000000E+00   0.0000000E+00   0.0000000E+00   0.0000000E+00   0.0000000E+00   0.0000000E+00   0.0000000E+00   0.0000000E+00   0.0000000E+00   0.0000000E+00   0.0000000E+00   0.0000000E+00   0.0000000E+00   0.0000000E+00   0.0000000E+00   0.0000000E+00   0.0000000E+00   0.0000000E+00   0.0000000E+00   0.0000000E+00   0.0000000E+00   0.0000000E+00   0.0000000E+00   0.0000000E+00   0.0000000E+00   0.0000000E+00   0.0000000E+00   0.0000000E+00   0.0000000E+00   0.0000000E+00   0.0000000E+00   0.0000000E+00   0.0000000E+00   0.0000000E+00   0.0000000E+00   0.0000000E+00   0.0000000E+00   0.0000000E+00   0.0000000E+00   0.0000000E+00   0.0000000E+00   0.0000000E+00   0.0000000E+00   0.0000000E+00   0.0000000E+00   0.0000000E+00   0.0000000E+00   0.0000000E+00   0.0000000E+00   0.0000000E+00   0.0000000E+00   0.0000000E+00   0.0000000E+00   0.0000000E+00   0.0000000E+00   0.0000000E+00   0.0000000E+00   0.0000000E+00   0.0000000E+00   0.0000000E+00   0.0000000E+00   0.0000000E+00   0.0000000E+00   0.0000000E+00   0.0000000E+00   0.0000000E+00   0.0000000E+00   0.0000000E+00   0.0000000E+00   0.0000000E+00   0.0000000E+00   0.0000000E+00   0.0000000E+00   0.0000000E+00   0.0000000E+00   0.0000000E+00   0.0000000E+00   0.0000000E+00   0.0000000E+00   0.0000000E+00   0.0000000E+00   0.0000000E+00   0.0000000E+00   0.0000000E+00   0.0000000E+00   0.0000000E+00   0.0000000E+00   0.0000000E+00   0.0000000E+00   0.0000000E+00   0.0000000E+00   0.0000000E+00   0.0000000E+00   0.0000000E+00   0.0000000E+00   0.0000000E+00   0.0000000E+00   0.0000000E+00   0.0000000E+00   0.0000000E+00   0.0000000E+00   0.0000000E+00   0.0000000E+00   0.0000000E+00   0.0000000E+00   0.0000000E+00   0.0000000E+00   0.0000000E+00   0.0000000E+00   0.0000000E+00   0.0000000E+00   0.0000000E+00   0.0000000E+00   0.0000000E+00   0.0000000E+00   0.0000000E+00   0.0000000E+00   0.0000000E+00   0.0000000E+00   0.0000000E+00   0.0000000E+00   0.0000000E+00   0.0000000E+00   0.0000000E+00   0.0000000E+00   0.0000000E+00   0.0000000E+00   0.0000000E+00   0.0000000E+00   0.0000000E+00   0.0000000E+00   0.0000000E+00   0.0000000E+00   0.0000000E+00   0.0000000E+00   0.0000000E+00   0.0000000E+00   0.0000000E+00   0.0000000E+00   0.0000000E+00   0.0000000E+00   0.0000000E+00   0.0000000E+00   0.0000000E+00   0.0000000E+00   0.0000000E+00   0.0000000E+00   0.0000000E+00   0.0000000E+00   0.0000000E+00   0.0000000E+00   0.0000000E+00   0.0000000E+00   0.0000000E+00   0.0000000E+00   0.0000000E+00   0.0000000E+00   0.0000000E+00   0.0000000E+00   0.0000000E+00   0.0000000E+00   0.0000000E+00   0.0000000E+00   0.0000000E+00   0.0000000E+00   0.0000000E+00   0.0000000E+00   0.0000000E+00   0.0000000E+00   0.0000000E+00   0.0000000E+00   0.0000000E+00   0.0000000E+00   0.0000000E+00   0.0000000E+00   0.0000000E+00   0.0000000E+00   0.0000000E+00   0.0000000E+00   0.0000000E+00   0.0000000E+00   0.0000000E+00   0.0000000E+00   0.0000000E+00   0.0000000E+00   0.0000000E+00   0.0000000E+00   0.0000000E+00   0.0000000E+00   0.0000000E+00   0.0000000E+00   0.0000000E+00   0.0000000E+00   0.0000000E+00   0.0000000E+00   0.0000000E+00   0.0000000E+00   0.0000000E+00   0.0000000E+00   0.0000000E+00   0.0000000E+00   0.0000000E+00   0.0000000E+00   0.0000000E+00   0.0000000E+00   0.0000000E+00   0.0000000E+00   0.0000000E+00   0.0000000E+00   0.0000000E+00   0.0000000E+00   0.0000000E+00   0.0000000E+00   0.0000000E+00   0.0000000E+00   0.0000000E+00   0.0000000E+00   0.0000000E+00   0.0000000E+00   0.0000000E+00   0.0000000E+00   0.0000000E+00   0.0000000E+00   0.0000000E+00   0.0000000E+00   0.0000000E+00   0.0000000E+00   0.0000000E+00   0.0000000E+00   0.0000000E+00   0.0000000E+00   0.0000000E+00   0.0000000E+00   0.0000000E+00   0.0000000E+00   0.0000000E+00   0.0000000E+00   0.0000000E+00   0.0000000E+00   0.0000000E+00   0.0000000E+00   0.0000000E+00   0.0000000E+00   0.0000000E+00   0.0000000E+00   0.0000000E+00   0.0000000E+00   0.0000000E+00   0.0000000E+00   0.0000000E+00   0.0000000E+00   0.0000000E+00   0.0000000E+00   0.0000000E+00   0.0000000E+00   0.0000000E+00   0.0000000E+00   0.0000000E+00   0.0000000E+00   0.0000000E+00   0.0000000E+00   0.0000000E+00   0.0000000E+00   0.0000000E+00   0.0000000E+00   0.0000000E+00   0.0000000E+00   0.0000000E+00   0.0000000E+00   0.0000000E+00   0.0000000E+00   0.0000000E+00   0.0000000E+00   0.0000000E+00   0.0000000E+00   0.0000000E+00   0.0000000E+00   0.0000000E+00   0.0000000E+00   0.0000000E+00   0.0000000E+00   0.0000000E+00   0.0000000E+00   0.0000000E+00   0.0000000E+00   0.0000000E+00   0.0000000E+00   0.0000000E+00   0.0000000E+00   0.0000000E+00   0.0000000E+00   0.0000000E+00   0.0000000E+00   0.0000000E+00   0.0000000E+00   0.0000000E+00   0.0000000E+00   0.0000000E+00   0.0000000E+00   0.0000000E+00   0.0000000E+00   0.0000000E+00   0.0000000E+00   0.0000000E+00   0.0000000E+00   0.0000000E+00   0.0000000E+00   0.0000000E+00   0.0000000E+00   0.0000000E+00   0.0000000E+00   0.0000000E+00   0.0000000E+00   0.0000000E+00   0.0000000E+00   0.0000000E+00   0.0000000E+00   0.0000000E+00   0.0000000E+00   0.0000000E+00   0.0000000E+00   0.0000000E+00   0.0000000E+00   0.0000000E+00   0.0000000E+00   0.0000000E+00   0.0000000E+00   0.0000000E+00   0.0000000E+00   0.0000000E+00   0.0000000E+00   0.0000000E+00   0.0000000E+00   0.0000000E+00   0.0000000E+00   0.0000000E+00   0.0000000E+00   0.0000000E+00   0.0000000E+00   0.0000000E+00   0.0000000E+00   0.0000000E+00   0.0000000E+00   0.0000000E+00   0.0000000E+00   0.0000000E+00   0.0000000E+00   0.0000000E+00   0.0000000E+00   0.0000000E+00   0.0000000E+00   0.0000000E+00   0.0000000E+00   0.0000000E+00   0.0000000E+00   0.0000000E+00   0.0000000E+00   0.0000000E+00   0.0000000E+00   0.0000000E+00   0.0000000E+00   0.0000000E+00   0.0000000E+00   0.0000000E+00   0.0000000E+00   0.0000000E+00   0.0000000E+00   0.0000000E+00   0.0000000E+00   0.0000000E+00   0.0000000E+00   0.0000000E+00   0.0000000E+00   0.0000000E+00   0.0000000E+00   0.0000000E+00   0.0000000E+00   0.0000000E+00   0.0000000E+00   0.0000000E+00   0.0000000E+00   0.0000000E+00   0.0000000E+00   0.0000000E+00   0.0000000E+00   0.0000000E+00   0.0000000E+00   0.0000000E+00   0.0000000E+00   0.0000000E+00   0.0000000E+00   0.0000000E+00   0.0000000E+00   0.0000000E+00   0.0000000E+00   0.0000000E+00   0.0000000E+00   0.0000000E+00   0.0000000E+00   0.0000000E+00   0.0000000E+00   0.0000000E+00   0.0000000E+00   0.0000000E+00   0.0000000E+00   0.0000000E+00   0.0000000E+00   0.0000000E+00   0.0000000E+00   0.0000000E+00   0.0000000E+00   0.0000000E+00   0.0000000E+00   0.0000000E+00   0.0000000E+00   0.0000000E+00   0.0000000E+00   0.0000000E+00   0.0000000E+00   0.0000000E+00   0.0000000E+00   0.0000000E+00   0.0000000E+00   0.0000000E+00   0.0000000E+00   0.0000000E+00   0.0000000E+00   0.0000000E+00   0.0000000E+00   0.0000000E+00   0.0000000E+00   0.0000000E+00   0.0000000E+00   0.0000000E+00   0.0000000E+00   0.0000000E+00   0.0000000E+00   0.0000000E+00   0.0000000E+00   0.0000000E+00   0.0000000E+00   0.0000000E+00   0.0000000E+00   0.0000000E+00   0.0000000E+00   0.0000000E+00   0.0000000E+00   0.0000000E+00   0.0000000E+00   0.0000000E+00   0.0000000E+00   0.0000000E+00   0.0000000E+00   0.0000000E+00   0.0000000E+00   0.0000000E+00   0.0000000E+00   0.0000000E+00   0.0000000E+00   0.0000000E+00   0.0000000E+00   0.0000000E+00   0.0000000E+00   0.0000000E+00   0.0000000E+00   0.0000000E+00   0.0000000E+00   0.0000000E+00   0.0000000E+00   0.0000000E+00   0.0000000E+00   0.0000000E+00   0.0000000E+00   0.0000000E+00   0.0000000E+00   0.0000000E+00   0.0000000E+00   0.0000000E+00   0.0000000E+00   0.0000000E+00   0.0000000E+00   0.0000000E+00   0.0000000E+00   0.0000000E+00   0.0000000E+00   0.0000000E+00   0.0000000E+00   0.0000000E+00   0.0000000E+00   0.0000000E+00   0.0000000E+00   0.0000000E+00   0.0000000E+00   0.0000000E+00   0.0000000E+00   0.0000000E+00   0.0000000E+00   0.0000000E+00   0.0000000E+00   0.0000000E+00   0.0000000E+00   0.0000000E+00   0.0000000E+00   0.0000000E+00   0.0000000E+00   0.0000000E+00   0.0000000E+00   0.0000000E+00   0.0000000E+00   0.0000000E+00   0.0000000E+00   0.0000000E+00   0.0000000E+00   0.0000000E+00   0.0000000E+00   0.0000000E+00   0.0000000E+00   0.0000000E+00   0.0000000E+00   0.0000000E+00   0.0000000E+00   0.0000000E+00   0.0000000E+00   0.0000000E+00   0.0000000E+00   0.0000000E+00   0.0000000E+00   0.0000000E+00   0.0000000E+00   0.0000000E+00   0.0000000E+00   0.0000000E+00   0.0000000E+00   0.0000000E+00   0.0000000E+00   0.0000000E+00   0.0000000E+00   0.0000000E+00   0.0000000E+00   0.0000000E+00   0.0000000E+00   0.0000000E+00   0.0000000E+00   0.0000000E+00   0.0000000E+00   0.0000000E+00   0.0000000E+00   0.0000000E+00   0.0000000E+00   0.0000000E+00   0.0000000E+00   0.0000000E+00   0.0000000E+00   0.0000000E+00   0.0000000E+00   0.0000000E+00   0.0000000E+00   0.0000000E+00   0.0000000E+00   0.0000000E+00   0.0000000E+00   0.0000000E+00   0.0000000E+00   0.0000000E+00   0.0000000E+00   0.0000000E+00   0.0000000E+00   0.0000000E+00   0.0000000E+00   0.0000000E+00   0.0000000E+00   0.0000000E+00   0.0000000E+00   0.0000000E+00   0.0000000E+00   0.0000000E+00   0.0000000E+00   0.0000000E+00   0.0000000E+00   0.0000000E+00   0.0000000E+00   0.0000000E+00   0.0000000E+00   0.0000000E+00   0.0000000E+00   0.0000000E+00   0.0000000E+00   0.0000000E+00   0.0000000E+00   0.0000000E+00   0.0000000E+00   0.0000000E+00   0.0000000E+00   0.0000000E+00   0.0000000E+00   0.0000000E+00   0.0000000E+00   0.0000000E+00   0.0000000E+00   0.0000000E+00   0.0000000E+00   0.0000000E+00   0.0000000E+00   0.0000000E+00   0.0000000E+00   0.0000000E+00   0.0000000E+00   0.0000000E+00   0.0000000E+00   0.0000000E+00   0.0000000E+00   0.0000000E+00   0.0000000E+00   0.0000000E+00   0.0000000E+00   0.0000000E+00   0.0000000E+00   0.0000000E+00   0.0000000E+00   0.0000000E+00   0.0000000E+00   0.0000000E+00   0.0000000E+00   0.0000000E+00   0.0000000E+00   0.0000000E+00   0.0000000E+00   0.0000000E+00   0.0000000E+00   0.0000000E+00   0.0000000E+00   0.0000000E+00   0.0000000E+00   0.0000000E+00   0.0000000E+00   0.0000000E+00   0.0000000E+00   0.0000000E+00   0.0000000E+00   0.0000000E+00   0.0000000E+00   0.0000000E+00   0.0000000E+00   0.0000000E+00   0.0000000E+00   0.0000000E+00   0.0000000E+00   0.0000000E+00   0.0000000E+00   0.0000000E+00   0.0000000E+00   0.0000000E+00   0.0000000E+00   0.0000000E+00   0.0000000E+00   0.0000000E+00   0.0000000E+00   0.0000000E+00   0.0000000E+00   0.0000000E+00   0.0000000E+00   0.0000000E+00   0.0000000E+00   0.0000000E+00   0.0000000E+00   0.0000000E+00   0.0000000E+00   0.0000000E+00   0.0000000E+00   0.0000000E+00   0.0000000E+00   0.0000000E+00   0.0000000E+00   0.0000000E+00   0.0000000E+00   0.0000000E+00   0.0000000E+00   0.0000000E+00   0.0000000E+00   0.0000000E+00   0.0000000E+00   0.0000000E+00   0.0000000E+00   0.0000000E+00   0.0000000E+00   0.0000000E+00   0.0000000E+00   0.0000000E+00   0.0000000E+00   0.0000000E+00   0.0000000E+00   0.0000000E+00   0.0000000E+00   0.0000000E+00   0.0000000E+00   0.0000000E+00   0.0000000E+00   0.0000000E+00   0.0000000E+00   0.0000000E+00   0.0000000E+00   0.0000000E+00   0.0000000E+00   0.0000000E+00   0.0000000E+00   0.0000000E+00   0.0000000E+00   0.0000000E+00   0.0000000E+00   0.0000000E+00   0.0000000E+00   0.0000000E+00   0.0000000E+00   0.0000000E+00   0.0000000E+00   0.0000000E+00   0.0000000E+00   0.0000000E+00   0.0000000E+00   0.0000000E+00   0.0000000E+00   0.0000000E+00   0.0000000E+00   0.0000000E+00   0.0000000E+00   0.0000000E+00   0.0000000E+00   0.0000000E+00   0.0000000E+00   0.0000000E+00   0.0000000E+00   0.0000000E+00   0.0000000E+00   0.0000000E+00   0.0000000E+00   0.0000000E+00   0.0000000E+00   0.0000000E+00   0.0000000E+00   0.0000000E+00   0.0000000E+00   0.0000000E+00   0.0000000E+00   0.0000000E+00   0.0000000E+00   0.0000000E+00   0.0000000E+00   0.0000000E+00   0.0000000E+00   0.0000000E+00   0.0000000E+00   0.0000000E+00   0.0000000E+00   0.0000000E+00   0.0000000E+00   0.0000000E+00   0.0000000E+00   0.0000000E+00   0.0000000E+00   0.0000000E+00   0.0000000E+00   0.0000000E+00   0.0000000E+00   0.0000000E+00   0.0000000E+00   0.0000000E+00   0.0000000E+00   0.0000000E+00   0.0000000E+00   0.0000000E+00   0.0000000E+00   0.0000000E+00   0.0000000E+00   0.0000000E+00   0.0000000E+00   0.0000000E+00   0.0000000E+00   0.0000000E+00   0.0000000E+00   0.0000000E+00   0.0000000E+00   0.0000000E+00   0.0000000E+00   0.0000000E+00   0.0000000E+00   0.0000000E+00   0.0000000E+00   0.0000000E+00   0.0000000E+00   0.0000000E+00   0.0000000E+00   0.0000000E+00   0.0000000E+00   0.0000000E+00   0.0000000E+00   0.0000000E+00   0.0000000E+00   0.0000000E+00   0.0000000E+00   0.0000000E+00   0.0000000E+00   0.0000000E+00   0.0000000E+00   0.0000000E+00   0.0000000E+00   0.0000000E+00   0.0000000E+00   0.0000000E+00   0.0000000E+00   0.0000000E+00   0.0000000E+00   0.0000000E+00   0.0000000E+00   0.0000000E+00   0.0000000E+00   0.0000000E+00   0.0000000E+00   0.0000000E+00   0.0000000E+00   0.0000000E+00   0.0000000E+00   0.0000000E+00   0.0000000E+00   0.0000000E+00   0.0000000E+00   0.0000000E+00   0.0000000E+00   0.0000000E+00   0.0000000E+00   0.0000000E+00   0.0000000E+00   0.0000000E+00   0.0000000E+00   0.0000000E+00   0.0000000E+00   0.0000000E+00   0.0000000E+00   0.0000000E+00   0.0000000E+00   0.0000000E+00   0.0000000E+00   0.0000000E+00   0.0000000E+00   0.0000000E+00   0.0000000E+00   0.0000000E+00   0.0000000E+00   0.0000000E+00   0.0000000E+00   0.0000000E+00   0.0000000E+00   0.0000000E+00   0.0000000E+00   0.0000000E+00   0.0000000E+00   0.0000000E+00   0.0000000E+00   0.0000000E+00   0.0000000E+00   0.0000000E+00   0.0000000E+00   0.0000000E+00   0.0000000E+00   0.0000000E+00   0.0000000E+00   0.0000000E+00   0.0000000E+00   0.0000000E+00   0.0000000E+00   0.0000000E+00   0.0000000E+00   0.0000000E+00   0.0000000E+00   0.0000000E+00   0.0000000E+00   0.0000000E+00   0.0000000E+00   0.0000000E+00   0.0000000E+00   0.0000000E+00   0.0000000E+00   0.0000000E+00   0.0000000E+00   0.0000000E+00   0.0000000E+00   0.0000000E+00   0.0000000E+00   0.0000000E+00   0.0000000E+00   0.0000000E+00  -3.6642902E-02   0.0000000E+00  -1.3948416E-02  -4.3656044E-02   0.0000000E+00  -1.3280474E-02  -4.9521603E-02   0.0000000E+00  -1.2058658E-02  -5.4186977E-02   0.0000000E+00  -1.0654024E-02  -5.7849891E-02   0.0000000E+00  -9.1500338E-03  -3.8787786E-02   0.0000000E+00  -1.9436006E-02  -5.1931679E-02   0.0000000E+00  -1.8240331E-02  -6.2738061E-02   0.0000000E+00  -1.7659904E-02  -7.1343280E-02   0.0000000E+00  -1.6306859E-02  -7.7996016E-02   0.0000000E+00  -1.4580988E-02  -8.3109297E-02   0.0000000E+00  -1.2565780E-02  -5.5481207E-02   0.0000000E+00  -2.3745682E-02  -7.3806003E-02   0.0000000E+00  -2.2925928E-02  -8.8778190E-02   0.0000000E+00  -2.1950154E-02  -1.0072217E-01   0.0000000E+00  -2.0216662E-02  -1.0985216E-01   0.0000000E+00  -1.8118721E-02  -1.1676183E-01   0.0000000E+00  -1.5640639E-02  -7.7447928E-02   0.0000000E+00  -2.8992280E-02  -1.0246007E-01   0.0000000E+00  -2.7906567E-02  -1.2242734E-01   0.0000000E+00  -2.6681773E-02  -1.3824549E-01   0.0000000E+00  -2.4441548E-02  -1.5020666E-01   0.0000000E+00  -2.1849031E-02  -1.5912768E-01   0.0000000E+00  -1.8833911E-02  -1.0597707E-01   0.0000000E+00  -3.5742156E-02  -1.3938445E-01   0.0000000E+00  -3.3822469E-02  -1.6544682E-01   0.0000000E+00  -3.2103643E-02  -1.8577556E-01   0.0000000E+00  -2.9204812E-02  -2.0090193E-01   0.0000000E+00  -2.6009589E-02  -2.1199450E-01   0.0000000E+00  -2.2351898E-02  -1.4335677E-01   0.0000000E+00  -4.4502020E-02  -1.8721768E-01   0.0000000E+00  -4.1038916E-02  -2.2056553E-01   0.0000000E+00  -3.8422231E-02  -2.4604249E-01   0.0000000E+00  -3.4665421E-02  -2.6461914E-01   0.0000000E+00  -3.0787274E-02  -2.7798909E-01   0.0000000E+00  -2.6386106E-02  -1.9291240E-01   0.0000000E+00  -5.5970430E-02  -2.4953669E-01   0.0000000E+00  -5.0101385E-02  -2.9138654E-01   0.0000000E+00  -4.6000019E-02  -3.2256669E-01   0.0000000E+00  -4.1120984E-02  -3.4479010E-01   0.0000000E+00  -3.6424454E-02  -3.6042306E-01   0.0000000E+00  -3.1180084E-02  -2.5924218E-01   0.0000000E+00  -7.1305633E-02  -3.3084491E-01   0.0000000E+00  -6.1966166E-02  -3.8234773E-01   0.0000000E+00  -5.5529349E-02  -4.1958454E-01   0.0000000E+00  -4.9230408E-02  -4.4555670E-01   0.0000000E+00  -4.3430217E-02  -4.6330106E-01   0.0000000E+00  -3.7200760E-02  -3.4871310E-01   0.0000000E+00  -9.1064900E-02  -4.3685284E-01   0.0000000E+00  -7.7501178E-02  -4.9859625E-01   0.0000000E+00  -6.8065211E-02  -5.4194027E-01   0.0000000E+00  -6.0245059E-02  -5.7166463E-01   0.0000000E+00  -5.2939139E-02  -5.9134763E-01   0.0000000E+00  -4.5168709E-02  -4.7053161E-01   0.0000000E+00  -1.1405987E-01  -5.7489616E-01   0.0000000E+00  -9.6772403E-02  -6.4628863E-01   0.0000000E+00  -8.4940687E-02  -6.9572419E-01   0.0000000E+00  -7.5209007E-02  -7.2903746E-01   0.0000000E+00  -6.5767720E-02  -7.5011176E-01   0.0000000E+00  -5.6040101E-02  -6.3555127E-01   0.0000000E+00  -1.4072180E-01  -7.5460827E-01   0.0000000E+00  -1.1990157E-01  -8.3384544E-01   0.0000000E+00  -1.0638058E-01  -8.8862842E-01   0.0000000E+00  -9.4644889E-02  -9.2434454E-01   0.0000000E+00  -8.3578840E-02  -9.4613969E-01   0.0000000E+00  -7.0741922E-02  -8.4198117E-01   0.0000000E+00  -2.2190487E-01  -9.8355442E-01   0.0000000E+00  -1.7036378E-01  -1.0705308E+00   0.0000000E+00  -1.4269626E-01  -1.1293150E+00   0.0000000E+00  -1.2342333E-01  -1.1660640E+00   0.0000000E+00  -1.0746951E-01  -1.1869030E+00   0.0000000E+00  -9.0555683E-02  -1.1361384E+00   0.0000000E+00  -4.2011267E-01  -1.2837291E+00   0.0000000E+00  -2.8771967E-01  -1.3709403E+00   0.0000000E+00  -2.1471156E-01  -1.4297739E+00   0.0000000E+00  -1.7105094E-01  -1.4639202E+00   0.0000000E+00  -1.4284633E-01  -1.4813566E+00   0.0000000E+00  -1.1772816E-01  -1.5484104E+00   0.0000000E+00  -6.6240096E-01  -1.6805357E+00   0.0000000E+00  -4.5775193E-01  -1.7555424E+00   0.0000000E+00  -3.2314736E-01  -1.8040895E+00   0.0000000E+00  -2.4318281E-01  -1.8294828E+00   0.0000000E+00  -1.9433349E-01  -1.8400069E+00   0.0000000E+00  -1.5432264E-01  -2.0835896E+00   0.0000000E+00  -9.0521747E-01  -2.1843088E+00   0.0000000E+00  -6.4550126E-01  -2.2360802E+00   0.0000000E+00  -4.5648995E-01  -2.2648060E+00   0.0000000E+00  -3.3787814E-01  -2.2748313E+00   0.0000000E+00  -2.6036239E-01  -2.2745178E+00   0.0000000E+00  -1.9995520E-01  -2.7355814E+00   0.0000000E+00  -1.1472918E+00  -2.7997611E+00   0.0000000E+00  -8.4148145E-01  -2.8189447E+00   0.0000000E+00  -6.0400683E-01  -2.8218555E+00   0.0000000E+00  -4.4571516E-01  -2.8131530E+00   0.0000000E+00  -3.4030548E-01  -2.7980511E+00   0.0000000E+00  -2.5463861E-01  -3.4996698E+00   0.0000000E+00  -1.4056612E+00  -3.5283985E+00   0.0000000E+00  -1.0472280E+00  -3.5145013E+00   0.0000000E+00  -7.6389641E-01  -3.4893720E+00   0.0000000E+00  -5.6454349E-01  -3.4582469E+00   0.0000000E+00  -4.2705938E-01  -3.4247849E+00   0.0000000E+00  -3.1721050E-01  -4.3877254E+00   0.0000000E+00  -1.6948613E+00  -4.3855329E+00   0.0000000E+00  -1.2732886E+00  -4.3391714E+00   0.0000000E+00  -9.3949139E-01  -4.2841907E+00   0.0000000E+00  -6.9569314E-01  -4.2282577E+00   0.0000000E+00  -5.2207458E-01  -4.1701183E+00   0.0000000E+00  -3.8360122E-01  -5.4287419E+00   0.0000000E+00  -2.0285819E+00  -5.3981071E+00   0.0000000E+00  -1.5300276E+00  -5.3172755E+00   0.0000000E+00  -1.1365634E+00  -5.2291265E+00   0.0000000E+00  -8.4388489E-01  -5.1411896E+00   0.0000000E+00  -6.2602395E-01  -5.0524383E+00   0.0000000E+00  -4.5334834E-01  -6.6664977E+00   0.0000000E+00  -2.4179356E+00  -6.6002383E+00   0.0000000E+00  -1.8279514E+00  -6.4766073E+00   0.0000000E+00  -1.3596562E+00  -6.3466396E+00   0.0000000E+00  -1.0060716E+00  -6.2189274E+00   0.0000000E+00  -7.3771340E-01  -6.0911064E+00   0.0000000E+00  -5.2669328E-01  -8.1399593E+00   0.0000000E+00  -2.8772523E+00  -8.0256948E+00   0.0000000E+00  -2.1761212E+00  -7.8464956E+00   0.0000000E+00  -1.6130561E+00  -7.6633930E+00   0.0000000E+00  -1.1835519E+00  -7.4856033E+00   0.0000000E+00  -8.5654151E-01  -7.3061109E+00   0.0000000E+00  -6.0365474E-01  -9.8911915E+00   0.0000000E+00  -3.4178667E+00  -9.7116966E+00   0.0000000E+00  -2.5814867E+00  -9.4599533E+00   0.0000000E+00  -1.8992928E+00  -9.2085533E+00   0.0000000E+00  -1.3768958E+00  -8.9638405E+00   0.0000000E+00  -9.8396045E-01  -8.7170038E+00   0.0000000E+00  -6.8597519E-01  -1.1969514E+01   0.0000000E+00  -4.0575027E+00  -1.1701529E+01   0.0000000E+00  -3.0543191E+00  -1.1355672E+01   0.0000000E+00  -2.2171896E+00  -1.1014279E+01   0.0000000E+00  -1.5833913E+00  -1.0680231E+01   0.0000000E+00  -1.1267081E+00  -1.0344902E+01   0.0000000E+00  -7.8415734E-01  -1.4436046E+01   0.0000000E+00  -4.8197579E+00  -1.4047652E+01   0.0000000E+00  -3.6037583E+00  -1.3578749E+01   0.0000000E+00  -2.5607202E+00  -1.3114737E+01   0.0000000E+00  -1.8028909E+00  -1.2661306E+01   0.0000000E+00  -1.2883556E+00  -1.2207985E+01   0.0000000E+00  -9.1532481E-01  -1.7375557E+01   0.0000000E+00  -5.7438164E+00  -1.6813173E+01   0.0000000E+00  -4.2350931E+00  -1.6177069E+01   0.0000000E+00  -2.9375110E+00  -1.5542750E+01   0.0000000E+00  -2.0396590E+00  -1.4932207E+01   0.0000000E+00  -1.4863520E+00  -1.4320847E+01   0.0000000E+00  -1.1129562E+00  -2.0878496E+01   0.0000000E+00  -6.8321505E+00  -2.0067663E+01   0.0000000E+00  -4.9510555E+00  -1.9186558E+01   0.0000000E+00  -3.3283615E+00  -1.8326168E+01   0.0000000E+00  -2.3546164E+00  -1.7507318E+01   0.0000000E+00  -1.7682053E+00  -1.6695766E+01   0.0000000E+00  -1.4254407E+00  -2.5062920E+01   0.0000000E+00  -8.0980864E+00  -2.3881203E+01   0.0000000E+00  -5.7509656E+00  -2.2657806E+01   0.0000000E+00  -3.7815573E+00  -2.1494993E+01   0.0000000E+00  -2.7564964E+00  -2.0389877E+01   0.0000000E+00  -2.2027600E+00  -1.9328650E+01   0.0000000E+00  -1.9447725E+00  -3.0029217E+01   0.0000000E+00  -9.5186262E+00  -2.8289974E+01   0.0000000E+00  -6.6468678E+00  -2.6600256E+01   0.0000000E+00  -4.3523979E+00  -2.5016859E+01   0.0000000E+00  -3.3564367E+00  -2.3550140E+01   0.0000000E+00  -2.9030485E+00  -2.2194138E+01   0.0000000E+00  -2.7769456E+00  -3.5751633E+01   0.0000000E+00  -1.1073300E+01  -3.3252850E+01   0.0000000E+00  -7.6280680E+00  -3.0941843E+01   0.0000000E+00  -5.1209836E+00  -2.8825777E+01   0.0000000E+00  -4.2428851E+00  -2.6902237E+01   0.0000000E+00  -4.0503893E+00  -2.5184448E+01   0.0000000E+00  -4.1553030E+00  -4.1994209E+01   0.0000000E+00  -1.2650272E+01  -3.8564960E+01   0.0000000E+00  -8.7573948E+00  -3.5458378E+01   0.0000000E+00  -6.2226782E+00  -3.2602364E+01   0.0000000E+00  -5.8732514E+00  -2.9994228E+01   0.0000000E+00  -6.3009310E+00  -2.8044836E+01   0.0000000E+00  -6.3248124E+00  -4.8271961E+01   0.0000000E+00  -1.4171727E+01  -4.3768005E+01   0.0000000E+00  -1.0033596E+01  -3.9622528E+01   0.0000000E+00  -8.2465019E+00  -3.5593330E+01   0.0000000E+00  -8.6902380E+00  -3.2970177E+01   0.0000000E+00  -8.8828974E+00  -3.0980904E+01   0.0000000E+00  -8.7343254E+00  -5.3919312E+01   0.0000000E+00  -1.5233932E+01  -4.8166065E+01   0.0000000E+00  -1.1708570E+01  -4.2383984E+01   0.0000000E+00  -1.1213151E+01  -3.8586815E+01   0.0000000E+00  -1.1534474E+01  -3.5826111E+01   0.0000000E+00  -1.1775518E+01  -3.3764580E+01   0.0000000E+00  -1.1513645E+01  -5.8764999E+01   0.0000000E+00  -1.4950346E+01  -5.1974770E+01   0.0000000E+00  -1.1822416E+01  -4.5708698E+01   0.0000000E+00  -1.3305854E+01  -4.1339096E+01   0.0000000E+00  -1.4627871E+01  -3.8401775E+01   0.0000000E+00  -1.5116842E+01  -3.6198944E+01   0.0000000E+00  -1.4824085E+01  -6.2070335E+01   0.0000000E+00  -1.3350125E+01  -5.5077366E+01   0.0000000E+00  -1.0138445E+01  -4.7325668E+01   0.0000000E+00  -1.6958183E+01  -4.2451782E+01   0.0000000E+00  -1.9842163E+01  -3.9562237E+01   0.0000000E+00  -1.9994059E+01  -3.7544559E+01   0.0000000E+00  -1.9187788E+01  -6.2748192E+01   0.0000000E+00  -1.2689333E+01  -5.5739025E+01   0.0000000E+00  -9.1318941E+00  -4.6668888E+01   0.0000000E+00  -1.9886459E+01  -4.2438702E+01   0.0000000E+00  -2.7921364E+01  -4.0377926E+01   0.0000000E+00  -2.7518545E+01  -3.8594658E+01   0.0000000E+00  -2.5526382E+01  -5.4102253E+01   0.0000000E+00  -1.3688773E+01  -5.1101112E+01   0.0000000E+00  -9.7798138E+00  -4.3712658E+01   0.0000000E+00  -2.3581184E+01  -4.1276646E+01   0.0000000E+00  -3.6217392E+01  -4.0211082E+01   0.0000000E+00  -3.5260391E+01  -3.8660168E+01   0.0000000E+00  -3.2265240E+01  -3.8143166E+01   0.0000000E+00  -1.5206753E+01  -3.7110283E+01   0.0000000E+00  -1.0496666E+01  -3.5633469E+01   0.0000000E+00  -2.6536512E+01  -3.5039734E+01   0.0000000E+00  -4.1939785E+01  -3.3702423E+01   0.0000000E+00  -4.0505211E+01  -3.2089447E+01   0.0000000E+00  -3.6976894E+01  -2.3580458E+01   0.0000000E+00  -1.6511017E+01  -2.3093340E+01   0.0000000E+00  -1.0887300E+01  -2.2569540E+01   0.0000000E+00  -2.6577898E+01  -2.2459610E+01   0.0000000E+00  -4.2989403E+01  -2.1688013E+01   0.0000000E+00  -4.2224358E+01  -2.0672058E+01   0.0000000E+00  -3.9025490E+01  -1.2250525E+01   0.0000000E+00  -1.7842194E+01  -1.2163424E+01   0.0000000E+00  -1.1302547E+01  -1.2090086E+01   0.0000000E+00  -2.6346508E+01  -1.2193583E+01   0.0000000E+00  -4.3205303E+01  -1.1908575E+01   0.0000000E+00  -4.2934750E+01  -1.1439183E+01   0.0000000E+00  -4.0100323E+01  -3.9790742E+00   0.0000000E+00  -1.8922997E+01  -4.0860434E+00   0.0000000E+00  -1.1731505E+01  -4.2037754E+00   0.0000000E+00  -2.6247198E+01  -4.4257531E+00   0.0000000E+00  -4.3033123E+01  -4.4576082E+00   0.0000000E+00  -4.3077759E+01  -4.3827715E+00   0.0000000E+00  -4.0495388E+01   2.5076425E+00   0.0000000E+00  -1.9575577E+01   2.3069942E+00   0.0000000E+00  -1.2146557E+01   2.0982597E+00   0.0000000E+00  -2.6413282E+01   1.8282962E+00   0.0000000E+00  -4.2803761E+01   1.5847319E+00   0.0000000E+00  -4.2887356E+01   1.3707502E+00   0.0000000E+00  -4.0409531E+01   8.5879993E+00   0.0000000E+00  -1.9633154E+01   8.2406063E+00   0.0000000E+00  -1.2429614E+01   7.8750434E+00   0.0000000E+00  -2.6618172E+01   7.6122522E+00   0.0000000E+00  -4.2543587E+01   7.1841187E+00   0.0000000E+00  -4.2450020E+01   6.7212553E+00   0.0000000E+00  -3.9947174E+01   1.4963135E+01   0.0000000E+00  -1.9437269E+01   1.4366517E+01   0.0000000E+00  -1.2589841E+01   1.3637922E+01   0.0000000E+00  -2.6605480E+01   1.3482075E+01   0.0000000E+00  -4.1879166E+01   1.2845245E+01   0.0000000E+00  -4.1621902E+01   1.2127173E+01   0.0000000E+00  -3.9097862E+01   2.1540466E+01   0.0000000E+00  -1.8988527E+01   2.0686211E+01   0.0000000E+00  -1.2636420E+01   1.9261997E+01   0.0000000E+00  -2.6019117E+01   1.9414883E+01   0.0000000E+00  -4.0711483E+01   1.8536655E+01   0.0000000E+00  -4.0351749E+01   1.7545752E+01   0.0000000E+00  -3.7849327E+01   2.7921818E+01   0.0000000E+00  -1.8366961E+01   2.6714437E+01   0.0000000E+00  -1.2519464E+01   2.4593218E+01   0.0000000E+00  -2.5069258E+01   2.5052576E+01   0.0000000E+00  -3.9029804E+01   2.3920351E+01   0.0000000E+00  -3.8626129E+01   2.2654037E+01   0.0000000E+00  -3.6200195E+01   3.3725101E+01   0.0000000E+00  -1.7984716E+01   3.2012043E+01   0.0000000E+00  -1.2304196E+01   2.8955500E+01   0.0000000E+00  -2.3690180E+01   2.9965805E+01   0.0000000E+00  -3.6877731E+01   2.8596102E+01   0.0000000E+00  -3.6473473E+01   2.7077457E+01   0.0000000E+00  -3.4176899E+01   3.8364590E+01   0.0000000E+00  -1.7404497E+01   3.6245922E+01   0.0000000E+00  -1.2160130E+01   3.2284962E+01   0.0000000E+00  -2.2028526E+01   3.3634090E+01   0.0000000E+00  -3.4136692E+01   3.2200371E+01   0.0000000E+00  -3.3963409E+01   3.0249199E+01   0.0000000E+00  -3.1844500E+01   4.1541576E+01   0.0000000E+00  -1.6588022E+01   3.8998753E+01   0.0000000E+00  -1.1798177E+01   3.4855995E+01   0.0000000E+00  -2.0577635E+01   3.6050076E+01   0.0000000E+00  -3.1228418E+01   3.3740463E+01   0.0000000E+00  -3.1220232E+01   3.1100250E+01   0.0000000E+00  -2.9318354E+01   4.3788486E+01   0.0000000E+00  -1.5670750E+01   4.1051414E+01   0.0000000E+00  -1.1415181E+01   3.6909348E+01   0.0000000E+00  -1.9387835E+01   3.6958908E+01   0.0000000E+00  -2.8531336E+01   3.3746185E+01   0.0000000E+00  -2.8364883E+01   3.0951042E+01   0.0000000E+00  -2.6681734E+01   4.5665699E+01   0.0000000E+00  -1.4634056E+01   4.2591103E+01   0.0000000E+00  -1.0885745E+01   3.8622219E+01   0.0000000E+00  -1.8432936E+01   3.6844830E+01   0.0000000E+00  -2.5555397E+01   3.3431160E+01   0.0000000E+00  -2.5515965E+01   3.0518534E+01   0.0000000E+00  -2.4071941E+01   4.7545868E+01   0.0000000E+00  -1.3336302E+01   4.4162952E+01   0.0000000E+00  -1.0287933E+01   4.0045605E+01   0.0000000E+00  -1.7540039E+01   3.6509209E+01   0.0000000E+00  -2.2689579E+01   3.2852406E+01   0.0000000E+00  -2.2762110E+01   2.9926750E+01   0.0000000E+00  -2.1608578E+01   4.9996601E+01   0.0000000E+00  -1.1784881E+01   4.5706543E+01   0.0000000E+00  -9.2998867E+00   4.0977512E+01   0.0000000E+00  -1.6229450E+01   3.6195847E+01   0.0000000E+00  -2.0079060E+01   3.2272751E+01   0.0000000E+00  -2.0343390E+01   2.9321535E+01   0.0000000E+00  -1.9379467E+01   5.3783398E+01   0.0000000E+00  -1.1274430E+01   4.7480331E+01   0.0000000E+00  -9.3111887E+00   4.1394550E+01   0.0000000E+00  -1.4605454E+01   3.5985554E+01   0.0000000E+00  -1.7955736E+01   3.1799154E+01   0.0000000E+00  -1.8174528E+01   2.8652271E+01   0.0000000E+00  -1.7207796E+01   5.7227013E+01   0.0000000E+00  -1.3700673E+01   4.8814213E+01   0.0000000E+00  -1.0797064E+01   4.2133186E+01   0.0000000E+00  -1.3468849E+01   3.6042419E+01   0.0000000E+00  -1.6110338E+01   3.1593735E+01   0.0000000E+00  -1.6193905E+01   2.7986067E+01   0.0000000E+00  -1.5275712E+01   6.0817013E+01   0.0000000E+00  -1.5213335E+01   5.1101646E+01   0.0000000E+00  -1.1778003E+01   4.3617817E+01   0.0000000E+00  -1.2081005E+01   3.6744850E+01   0.0000000E+00  -1.4310164E+01   3.1425156E+01   0.0000000E+00  -1.4606592E+01   2.7469778E+01   0.0000000E+00  -1.3654038E+01   5.3379425E+01   0.0000000E+00  -1.2251703E+01   4.5403149E+01   0.0000000E+00  -1.0854636E+01   3.8422421E+01   0.0000000E+00  -1.1860120E+01   3.1936895E+01   0.0000000E+00  -1.2929914E+01   2.7249355E+01   0.0000000E+00  -1.2195596E+01   5.5158604E+01   0.0000000E+00  -1.3220141E+01   4.7018833E+01   0.0000000E+00  -1.0727847E+01   3.9970646E+01   0.0000000E+00  -1.0266657E+01   3.3129890E+01   0.0000000E+00  -1.0885671E+01   2.7504255E+01   0.0000000E+00  -1.0731771E+01   4.8603153E+01   0.0000000E+00  -1.1384045E+01   4.1440571E+01   0.0000000E+00  -9.8336554E+00   3.4642315E+01   0.0000000E+00  -9.5719461E+00   2.8319126E+01   0.0000000E+00  -9.3093987E+00   5.0001041E+01   0.0000000E+00  -1.2421986E+01   4.3120678E+01   0.0000000E+00  -1.0344444E+01   3.6380547E+01   0.0000000E+00  -9.1300850E+00   2.9859865E+01   0.0000000E+00  -8.4571915E+00   4.4579147E+01   0.0000000E+00  -1.1236647E+01   3.8379608E+01   0.0000000E+00  -9.5594931E+00   3.1990175E+01   0.0000000E+00  -8.3671103E+00   4.0065895E+01   0.0000000E+00  -1.0349732E+01   3.4177822E+01   0.0000000E+00  -9.0009327E+00   4.0632576E+01   0.0000000E+00  -1.0898814E+01   3.6096699E+01   0.0000000E+00  -1.0008816E+01  -6.0627349E-02   0.0000000E+00  -7.6898145E-03  -6.2676452E-02   0.0000000E+00  -6.3125133E-03  -6.4122282E-02   0.0000000E+00  -5.1075434E-03  -6.5129019E-02   0.0000000E+00  -4.0268041E-03  -6.5818228E-02   0.0000000E+00  -3.0796244E-03  -6.6280514E-02   0.0000000E+00  -2.2761917E-03  -6.6581078E-02   0.0000000E+00  -1.5918626E-03  -6.6765063E-02   0.0000000E+00  -1.0045924E-03  -6.6863246E-02   0.0000000E+00  -4.8636616E-04  -8.6894564E-02   0.0000000E+00  -1.0574408E-02  -8.9608289E-02   0.0000000E+00  -8.7119127E-03  -9.1476806E-02   0.0000000E+00  -7.0819971E-03  -9.2754431E-02   0.0000000E+00  -5.5999882E-03  -9.3600303E-02   0.0000000E+00  -4.3268576E-03  -9.4150119E-02   0.0000000E+00  -3.2317536E-03  -9.4497874E-02   0.0000000E+00  -2.2779573E-03  -9.4703615E-02   0.0000000E+00  -1.4491563E-03  -9.4811171E-02   0.0000000E+00  -7.0397521E-04  -1.2176893E-01   0.0000000E+00  -1.3206099E-02  -1.2527722E-01   0.0000000E+00  -1.0906250E-02  -1.2763008E-01   0.0000000E+00  -8.8867294E-03  -1.2918101E-01   0.0000000E+00  -7.0674908E-03  -1.3016595E-01   0.0000000E+00  -5.4951105E-03  -1.3077116E-01   0.0000000E+00  -4.1245660E-03  -1.3112891E-01   0.0000000E+00  -2.9222062E-03  -1.3132654E-01   0.0000000E+00  -1.8673807E-03  -1.3142405E-01   0.0000000E+00  -9.0905617E-04  -1.6548204E-01   0.0000000E+00  -1.5882116E-02  -1.6982892E-01   0.0000000E+00  -1.3120016E-02  -1.7265292E-01   0.0000000E+00  -1.0683727E-02  -1.7442136E-01   0.0000000E+00  -8.5188281E-03  -1.7546865E-01   0.0000000E+00  -6.6421069E-03  -1.7605533E-01   0.0000000E+00  -4.9917302E-03  -1.7635928E-01   0.0000000E+00  -3.5448216E-03  -1.7650032E-01   0.0000000E+00  -2.2709076E-03  -1.7655778E-01   0.0000000E+00  -1.1058436E-03  -2.1972704E-01   0.0000000E+00  -1.8810121E-02  -2.2485884E-01   0.0000000E+00  -1.5523298E-02  -2.2806278E-01   0.0000000E+00  -1.2594917E-02  -2.2993667E-01   0.0000000E+00  -1.0033806E-02  -2.3093337E-01   0.0000000E+00  -7.8173233E-03  -2.3140015E-01   0.0000000E+00  -5.8662905E-03  -2.3156826E-01   0.0000000E+00  -4.1664615E-03  -2.3159125E-01   0.0000000E+00  -2.6717864E-03  -2.3157144E-01   0.0000000E+00  -1.2988860E-03  -2.8705311E-01   0.0000000E+00  -2.2162812E-02  -2.9283586E-01   0.0000000E+00  -1.8271562E-02  -2.9627031E-01   0.0000000E+00  -1.4748434E-02  -2.9809326E-01   0.0000000E+00  -1.1710887E-02  -2.9889283E-01   0.0000000E+00  -9.0893274E-03  -2.9911289E-01   0.0000000E+00  -6.7915348E-03  -2.9904166E-01   0.0000000E+00  -4.8145461E-03  -2.9887289E-01   0.0000000E+00  -3.0807073E-03  -2.9872945E-01   0.0000000E+00  -1.4972034E-03  -3.7069258E-01   0.0000000E+00  -2.6158895E-02  -3.7692761E-01   0.0000000E+00  -2.1561675E-02  -3.8036874E-01   0.0000000E+00  -1.7311737E-02  -3.8191792E-01   0.0000000E+00  -1.3669969E-02  -3.8231969E-01   0.0000000E+00  -1.0545205E-02  -3.8212690E-01   0.0000000E+00  -7.8244386E-03  -3.8168296E-01   0.0000000E+00  -5.5237599E-03  -3.8122723E-01   0.0000000E+00  -3.5155918E-03  -3.8090125E-01   0.0000000E+00  -1.7064664E-03  -4.7454780E-01   0.0000000E+00  -3.1143121E-02  -4.8091993E-01   0.0000000E+00  -2.5645817E-02  -4.8402736E-01   0.0000000E+00  -2.0482445E-02  -4.8498583E-01   0.0000000E+00  -1.6055966E-02  -4.8472109E-01   0.0000000E+00  -1.2265784E-02  -4.8387882E-01   0.0000000E+00  -9.0322169E-03  -4.8287728E-01   0.0000000E+00  -6.3311611E-03  -4.8199913E-01   0.0000000E+00  -4.0010898E-03  -4.8141015E-01   0.0000000E+00  -1.9350747E-03  -6.0318327E-01   0.0000000E+00  -3.7668381E-02  -6.0923499E-01   0.0000000E+00  -3.0915299E-02  -6.1154127E-01   0.0000000E+00  -2.4516031E-02  -6.1145574E-01   0.0000000E+00  -1.9046117E-02  -6.1011422E-01   0.0000000E+00  -1.4384058E-02  -6.0827994E-01   0.0000000E+00  -1.0470710E-02  -6.0644656E-01   0.0000000E+00  -7.2592688E-03  -6.0494912E-01   0.0000000E+00  -4.5426833E-03  -6.0397869E-01   0.0000000E+00  -2.1837212E-03  -7.6192605E-01   0.0000000E+00  -4.6532463E-02  -7.6703489E-01   0.0000000E+00  -3.7868626E-02  -7.6789188E-01   0.0000000E+00  -2.9721614E-02  -7.6612943E-01   0.0000000E+00  -2.2809567E-02  -7.6313180E-01   0.0000000E+00  -1.6971452E-02  -7.5981605E-01   0.0000000E+00  -1.2156795E-02  -7.5676847E-01   0.0000000E+00  -8.3003528E-03  -7.5437659E-01   0.0000000E+00  -5.1236562E-03  -7.5285923E-01   0.0000000E+00  -2.4422684E-03  -9.5699549E-01   0.0000000E+00  -5.8507405E-02  -9.6034342E-01   0.0000000E+00  -4.6974346E-02  -9.5886570E-01   0.0000000E+00  -3.6409765E-02  -9.5458537E-01   0.0000000E+00  -2.7480315E-02  -9.4916934E-01   0.0000000E+00  -2.0038208E-02  -9.4372016E-01   0.0000000E+00  -1.4048181E-02  -9.3894082E-01   0.0000000E+00  -9.3998350E-03  -9.3528348E-01   0.0000000E+00  -5.7030790E-03  -9.3299538E-01   0.0000000E+00  -2.6861618E-03  -1.1956174E+00   0.0000000E+00  -7.4197948E-02  -1.1960815E+00   0.0000000E+00  -5.8660712E-02  -1.1911263E+00   0.0000000E+00  -4.4794049E-02  -1.1832665E+00   0.0000000E+00  -3.3060629E-02  -1.1744430E+00   0.0000000E+00  -2.3545228E-02  -1.1660179E+00   0.0000000E+00  -1.6071076E-02  -1.1588275E+00   0.0000000E+00  -1.0465393E-02  -1.1534170E+00   0.0000000E+00  -6.1997012E-03  -1.1500666E+00   0.0000000E+00  -2.8755511E-03  -1.4861865E+00   0.0000000E+00  -9.4440199E-02  -1.4821596E+00   0.0000000E+00  -7.3243469E-02  -1.4721892E+00   0.0000000E+00  -5.4904517E-02  -1.4593424E+00   0.0000000E+00  -3.9475728E-02  -1.4458331E+00   0.0000000E+00  -2.7357008E-02  -1.4333473E+00   0.0000000E+00  -1.8048262E-02  -1.4228863E+00   0.0000000E+00  -1.1346950E-02  -1.4150938E+00   0.0000000E+00  -6.4976574E-03  -1.4103049E+00   0.0000000E+00  -2.9532237E-03  -1.8383503E+00   0.0000000E+00  -1.2025202E-01  -1.8275545E+00   0.0000000E+00  -9.0938762E-02  -1.8104663E+00   0.0000000E+00  -6.6621654E-02  -1.7907151E+00   0.0000000E+00  -4.6419419E-02  -1.7708371E+00   0.0000000E+00  -3.1115929E-02  -1.7528989E+00   0.0000000E+00  -1.9744335E-02  -1.7380362E+00   0.0000000E+00  -1.1849725E-02  -1.7270553E+00   0.0000000E+00  -6.4603202E-03  -1.7203417E+00   0.0000000E+00  -2.8411569E-03  -2.2631607E+00   0.0000000E+00  -1.5195632E-01  -2.2424293E+00   0.0000000E+00  -1.1169241E-01  -2.2153671E+00   0.0000000E+00  -7.9676010E-02  -2.1861522E+00   0.0000000E+00  -5.3683762E-02  -2.1576746E+00   0.0000000E+00  -3.4539361E-02  -2.1324165E+00   0.0000000E+00  -2.0704461E-02  -2.1117513E+00   0.0000000E+00  -1.1729970E-02  -2.0965638E+00   0.0000000E+00  -5.9232716E-03  -2.0873208E+00   0.0000000E+00  -2.4435897E-03  -2.7724986E+00   0.0000000E+00  -1.8820056E-01  -2.7379937E+00   0.0000000E+00  -1.3485622E-01  -2.6972520E+00   0.0000000E+00  -9.3549900E-02  -2.6552474E+00   0.0000000E+00  -6.0840767E-02  -2.6152651E+00   0.0000000E+00  -3.7251890E-02  -2.5803401E+00   0.0000000E+00  -2.0806668E-02  -2.5520759E+00   0.0000000E+00  -1.0778018E-02  -2.5314186E+00   0.0000000E+00  -4.7803055E-03  -2.5188978E+00   0.0000000E+00  -1.7143183E-03  -3.3803499E+00   0.0000000E+00  -2.2924751E-01  -3.3269639E+00   0.0000000E+00  -1.5987490E-01  -3.2676270E+00   0.0000000E+00  -1.0701697E-01  -3.2084782E+00   0.0000000E+00  -6.6918708E-02  -3.1534564E+00   0.0000000E+00  -3.9002273E-02  -3.1058888E+00   0.0000000E+00  -1.9952772E-02  -3.0677664E+00   0.0000000E+00  -8.8749109E-03  -3.0401130E+00   0.0000000E+00  -3.0737373E-03  -3.0233984E+00   0.0000000E+00  -6.9645495E-04  -4.1016846E+00   0.0000000E+00  -2.7277038E-01  -4.0232668E+00   0.0000000E+00  -1.8582383E-01  -3.9394090E+00   0.0000000E+00  -1.2020930E-01  -3.8576589E+00   0.0000000E+00  -7.1917735E-02  -3.7831223E+00   0.0000000E+00  -3.9901778E-02  -3.7192845E+00   0.0000000E+00  -1.8435473E-02  -3.6685848E+00   0.0000000E+00  -6.5513602E-03  -3.6320682E+00   0.0000000E+00  -1.1481534E-03  -3.6100667E+00   0.0000000E+00   4.1277058E-04  -4.9528980E+00   0.0000000E+00  -3.1803897E-01  -4.8416824E+00   0.0000000E+00  -2.1181765E-01  -4.7262235E+00   0.0000000E+00  -1.3325837E-01  -4.6153359E+00   0.0000000E+00  -7.7139109E-02  -4.5157404E+00   0.0000000E+00  -4.0784169E-02  -4.4314008E+00   0.0000000E+00  -1.7497528E-02  -4.3649540E+00   0.0000000E+00  -4.9643400E-03  -4.3173966E+00   0.0000000E+00   1.3166260E-04  -4.2888737E+00   0.0000000E+00   1.1413445E-03  -5.9498329E+00   0.0000000E+00  -3.6094829E-01  -5.7972279E+00   0.0000000E+00  -2.4018131E-01  -5.6415687E+00   0.0000000E+00  -1.4759541E-01  -5.4936919E+00   0.0000000E+00  -8.5014753E-02  -5.3627129E+00   0.0000000E+00  -4.4385184E-02  -5.2529898E+00   0.0000000E+00  -1.9878006E-02  -5.1672463E+00   0.0000000E+00  -6.5103839E-03  -5.1062737E+00   0.0000000E+00  -9.7749394E-04  -5.0698743E+00   0.0000000E+00   5.2355678E-04  -7.1111836E+00   0.0000000E+00  -4.0811446E-01  -6.9050026E+00   0.0000000E+00  -2.7142727E-01  -6.6978540E+00   0.0000000E+00  -1.6770312E-01  -6.5039759E+00   0.0000000E+00  -1.0002028E-01  -6.3343973E+00   0.0000000E+00  -5.6815673E-02  -6.1938510E+00   0.0000000E+00  -3.0479383E-02  -6.0850015E+00   0.0000000E+00  -1.5527149E-02  -6.0081372E+00   0.0000000E+00  -7.5925058E-03  -5.9624825E+00   0.0000000E+00  -3.0080997E-03  -8.4530592E+00   0.0000000E+00  -4.6561298E-01  -8.1775236E+00   0.0000000E+00  -3.1417498E-01  -7.9062247E+00   0.0000000E+00  -2.0307109E-01  -7.6558909E+00   0.0000000E+00  -1.3195799E-01  -7.4397025E+00   0.0000000E+00  -8.7745734E-02  -7.2625318E+00   0.0000000E+00  -5.7906646E-02  -7.1267648E+00   0.0000000E+00  -3.8772877E-02  -7.0315943E+00   0.0000000E+00  -2.4423607E-02  -6.9753489E+00   0.0000000E+00  -1.1862099E-02  -9.9905605E+00   0.0000000E+00  -5.4493260E-01  -9.6280546E+00   0.0000000E+00  -3.8535312E-01  -9.2763958E+00   0.0000000E+00  -2.7055049E-01  -8.9578867E+00   0.0000000E+00  -1.9734965E-01  -8.6866045E+00   0.0000000E+00  -1.5092407E-01  -8.4673262E+00   0.0000000E+00  -1.1484721E-01  -8.3010902E+00   0.0000000E+00  -8.6081810E-02  -8.1854315E+00   0.0000000E+00  -5.8334731E-02  -8.1174936E+00   0.0000000E+00  -2.9571790E-02  -1.1736353E+01   0.0000000E+00  -6.7135513E-01  -1.1266788E+01   0.0000000E+00  -5.0878602E-01  -1.0817588E+01   0.0000000E+00  -3.9710265E-01  -1.0419059E+01   0.0000000E+00  -3.2082400E-01  -1.0084501E+01   0.0000000E+00  -2.6784006E-01  -9.8179636E+00   0.0000000E+00  -2.1979524E-01  -9.6183510E+00   0.0000000E+00  -1.7151390E-01  -9.4807301E+00   0.0000000E+00  -1.1916695E-01  -9.4003382E+00   0.0000000E+00  -6.1054040E-02  -1.3705698E+01   0.0000000E+00  -8.7685305E-01  -1.3103261E+01   0.0000000E+00  -7.2400355E-01  -1.2540436E+01   0.0000000E+00  -6.1733425E-01  -1.2050137E+01   0.0000000E+00  -5.3797382E-01  -1.1645241E+01   0.0000000E+00  -4.6755379E-01  -1.1327643E+01   0.0000000E+00  -3.9264664E-01  -1.1092601E+01   0.0000000E+00  -3.0889300E-01  -1.0932055E+01   0.0000000E+00  -2.1421939E-01  -1.0838838E+01   0.0000000E+00  -1.0998509E-01  -1.5905669E+01   0.0000000E+00  -1.2321222E+00  -1.5144767E+01   0.0000000E+00  -1.0907379E+00  -1.4454268E+01   0.0000000E+00  -9.8916221E-01  -1.3863898E+01   0.0000000E+00  -8.9364123E-01  -1.3383841E+01   0.0000000E+00  -7.8342247E-01  -1.3013656E+01   0.0000000E+00  -6.5924823E-01  -1.2742702E+01   0.0000000E+00  -5.1658660E-01  -1.2559031E+01   0.0000000E+00  -3.5585979E-01  -1.2452835E+01   0.0000000E+00  -1.8134983E-01  -1.8327198E+01   0.0000000E+00  -1.7999648E+00  -1.7395508E+01   0.0000000E+00  -1.6868287E+00  -1.6570309E+01   0.0000000E+00  -1.5756067E+00  -1.5874735E+01   0.0000000E+00  -1.4318730E+00  -1.5317689E+01   0.0000000E+00  -1.2515073E+00  -1.4893421E+01   0.0000000E+00  -1.0389227E+00  -1.4583871E+01   0.0000000E+00  -8.0758226E-01  -1.4376038E+01   0.0000000E+00  -5.5269492E-01  -1.4256556E+01   0.0000000E+00  -2.8130984E-01  -2.0952736E+01   0.0000000E+00  -2.7180958E+00  -1.9847052E+01   0.0000000E+00  -2.6115394E+00  -1.8885223E+01   0.0000000E+00  -2.4352562E+00  -1.8090033E+01   0.0000000E+00  -2.1705468E+00  -1.7456734E+01   0.0000000E+00  -1.8654647E+00  -1.6975672E+01   0.0000000E+00  -1.5272419E+00  -1.6628391E+01   0.0000000E+00  -1.1648663E+00  -1.6394962E+01   0.0000000E+00  -7.8449321E-01  -1.6260159E+01   0.0000000E+00  -3.9318150E-01  -2.3713587E+01   0.0000000E+00  -4.1318269E+00  -2.2460426E+01   0.0000000E+00  -3.9240954E+00  -2.1385632E+01   0.0000000E+00  -3.5869689E+00  -2.0488897E+01   0.0000000E+00  -3.1625066E+00  -1.9777084E+01   0.0000000E+00  -2.6877561E+00  -1.9238951E+01   0.0000000E+00  -2.1751852E+00  -1.8852013E+01   0.0000000E+00  -1.6402693E+00  -1.8593950E+01   0.0000000E+00  -1.0907246E+00  -1.8445028E+01   0.0000000E+00  -5.4293334E-01  -2.6558073E+01   0.0000000E+00  -5.9973378E+00  -2.5195364E+01   0.0000000E+00  -5.5697579E+00  -2.4002832E+01   0.0000000E+00  -5.0195265E+00  -2.3001236E+01   0.0000000E+00  -4.3735352E+00  -2.2211073E+01   0.0000000E+00  -3.6639285E+00  -2.1615093E+01   0.0000000E+00  -2.9344845E+00  -2.1179884E+01   0.0000000E+00  -2.2037179E+00  -2.0891197E+01   0.0000000E+00  -1.4596412E+00  -2.0720659E+01   0.0000000E+00  -7.3896253E-01  -2.9371166E+01   0.0000000E+00  -8.2537889E+00  -2.7900248E+01   0.0000000E+00  -7.6307645E+00  -2.6597145E+01   0.0000000E+00  -6.8001556E+00  -2.5496336E+01   0.0000000E+00  -5.8290811E+00  -2.4635164E+01   0.0000000E+00  -4.7635288E+00  -2.3978621E+01   0.0000000E+00  -3.7331483E+00  -2.3490463E+01   0.0000000E+00  -2.7684791E+00  -2.3143011E+01   0.0000000E+00  -1.8470274E+00  -2.2951120E+01   0.0000000E+00  -9.2252648E-01  -3.2021809E+01   0.0000000E+00  -1.0928688E+01  -3.0445435E+01   0.0000000E+00  -1.0058597E+01  -2.9027374E+01   0.0000000E+00  -8.9434662E+00  -2.7869261E+01   0.0000000E+00  -7.5725760E+00  -2.6904663E+01   0.0000000E+00  -6.1435976E+00  -2.6164742E+01   0.0000000E+00  -4.7358489E+00  -2.5648849E+01   0.0000000E+00  -3.4451509E+00  -2.5264948E+01   0.0000000E+00  -2.2606261E+00  -2.5040621E+01   0.0000000E+00  -1.1153423E+00  -3.4336552E+01   0.0000000E+00  -1.4070650E+01  -3.2597336E+01   0.0000000E+00  -1.2852243E+01  -3.1155186E+01   0.0000000E+00  -1.1256465E+01  -2.9922899E+01   0.0000000E+00  -9.3940048E+00  -2.8879532E+01   0.0000000E+00  -7.5458946E+00  -2.8029007E+01   0.0000000E+00  -5.8444014E+00  -2.7431953E+01   0.0000000E+00  -4.2240047E+00  -2.7013836E+01   0.0000000E+00  -2.7509513E+00  -2.6747417E+01   0.0000000E+00  -1.3616507E+00  -3.5784641E+01   0.0000000E+00  -1.7921215E+01  -3.4182720E+01   0.0000000E+00  -1.6257921E+01  -3.2787964E+01   0.0000000E+00  -1.4112802E+01  -3.1543514E+01   0.0000000E+00  -1.1701530E+01  -3.0477064E+01   0.0000000E+00  -9.2841158E+00  -2.9580429E+01   0.0000000E+00  -7.0738430E+00  -2.8897018E+01   0.0000000E+00  -5.0963802E+00  -2.8415545E+01   0.0000000E+00  -3.3226063E+00  -2.8143591E+01   0.0000000E+00  -1.6461693E+00  -3.6914009E+01   0.0000000E+00  -2.3232723E+01  -3.5258335E+01   0.0000000E+00  -2.0760153E+01  -3.3779812E+01   0.0000000E+00  -1.7803511E+01  -3.2494987E+01   0.0000000E+00  -1.4598624E+01  -3.1373243E+01   0.0000000E+00  -1.1439300E+01  -3.0440180E+01   0.0000000E+00  -8.6094036E+00  -2.9751410E+01   0.0000000E+00  -6.1528735E+00  -2.9230972E+01   0.0000000E+00  -3.9702520E+00  -2.8927073E+01   0.0000000E+00  -1.9504538E+00  -3.6862808E+01   0.0000000E+00  -2.9040981E+01  -3.5164410E+01   0.0000000E+00  -2.5624153E+01  -3.3678284E+01   0.0000000E+00  -2.1699593E+01  -3.2387554E+01   0.0000000E+00  -1.7516418E+01  -3.1258944E+01   0.0000000E+00  -1.3549294E+01  -3.0336407E+01   0.0000000E+00  -1.0069869E+01  -2.9616907E+01   0.0000000E+00  -7.1159034E+00  -2.9121613E+01   0.0000000E+00  -4.5553246E+00  -2.8831894E+01   0.0000000E+00  -2.2286336E+00  -3.0339878E+01   0.0000000E+00  -3.3254646E+01  -2.8649477E+01   0.0000000E+00  -2.9270199E+01  -2.7125139E+01   0.0000000E+00  -2.4676840E+01  -2.5831114E+01   0.0000000E+00  -1.9824253E+01  -2.4793272E+01   0.0000000E+00  -1.5279594E+01  -2.3995142E+01   0.0000000E+00  -1.1311579E+01  -2.3408386E+01   0.0000000E+00  -7.9568076E+00  -2.3006243E+01   0.0000000E+00  -5.0797324E+00  -2.2770430E+01   0.0000000E+00  -2.4822493E+00  -1.9527082E+01   0.0000000E+00  -3.5355289E+01  -1.8373697E+01   0.0000000E+00  -3.1246380E+01  -1.7305471E+01   0.0000000E+00  -2.6417271E+01  -1.6382864E+01   0.0000000E+00  -2.1274204E+01  -1.5629849E+01   0.0000000E+00  -1.6430925E+01  -1.5043052E+01   0.0000000E+00  -1.2186186E+01  -1.4606179E+01   0.0000000E+00  -8.5859127E+00  -1.4302939E+01   0.0000000E+00  -5.4884338E+00  -1.4123376E+01   0.0000000E+00  -2.6842771E+00  -1.0845539E+01   0.0000000E+00  -3.6581985E+01  -1.0200010E+01   0.0000000E+00  -3.2478489E+01  -9.5704956E+00   0.0000000E+00  -2.7548080E+01  -9.0091543E+00   0.0000000E+00  -2.2239954E+01  -8.5409842E+00   0.0000000E+00  -1.7211605E+01  -8.1691904E+00   0.0000000E+00  -1.2788749E+01  -7.8871207E+00   0.0000000E+00  -9.0261030E+00  -7.6876469E+00   0.0000000E+00  -5.7783303E+00  -7.5677533E+00   0.0000000E+00  -2.8287432E+00  -4.2152233E+00   0.0000000E+00  -3.7125355E+01  -3.9860764E+00   0.0000000E+00  -3.3080624E+01  -3.7356386E+00   0.0000000E+00  -2.8132744E+01  -3.4981768E+00   0.0000000E+00  -2.2756622E+01  -3.2917678E+00   0.0000000E+00  -1.7640263E+01  -3.1212807E+00   0.0000000E+00  -1.3128112E+01  -2.9864361E+00   0.0000000E+00  -9.2804165E+00  -2.8871984E+00   0.0000000E+00  -5.9494319E+00  -2.8258193E+00   0.0000000E+00  -2.9153247E+00   1.2047881E+00   0.0000000E+00  -3.7139378E+01   1.0901067E+00   0.0000000E+00  -3.3164948E+01   1.0161703E+00   0.0000000E+00  -2.8250034E+01   9.7010213E-01   0.0000000E+00  -2.2878918E+01   9.4405276E-01   0.0000000E+00  -1.7754251E+01   9.3347687E-01   0.0000000E+00  -1.3228608E+01   9.3412822E-01   0.0000000E+00  -9.3635197E+00   9.4068795E-01   0.0000000E+00  -6.0098820E+00   9.4748396E-01   0.0000000E+00  -2.9474182E+00   6.2644486E+00   0.0000000E+00  -3.6723721E+01   5.8468227E+00   0.0000000E+00  -3.2817394E+01   5.4864330E+00   0.0000000E+00  -2.7970652E+01   5.1902652E+00   0.0000000E+00  -2.2662706E+01   4.9588881E+00   0.0000000E+00  -1.7595495E+01   4.7875199E+00   0.0000000E+00  -1.3119844E+01   4.6680317E+00   0.0000000E+00  -9.2949362E+00   4.5909028E+00   0.0000000E+00  -5.9711757E+00   4.5479755E+00   0.0000000E+00  -2.9302666E+00   1.1386477E+01   0.0000000E+00  -3.5920452E+01   1.0682753E+01   0.0000000E+00  -3.2093697E+01   1.0059645E+01   0.0000000E+00  -2.7349617E+01   9.5385065E+00   0.0000000E+00  -2.2156368E+01   9.1239376E+00   0.0000000E+00  -1.7202723E+01   8.8095427E+00   0.0000000E+00  -1.2830503E+01   8.5828667E+00   0.0000000E+00  -9.0944023E+00   8.4307442E+00   0.0000000E+00  -5.8454919E+00   8.3431911E+00   0.0000000E+00  -2.8698301E+00   1.6518518E+01   0.0000000E+00  -3.4744041E+01   1.5539027E+01   0.0000000E+00  -3.1023857E+01   1.4671389E+01   0.0000000E+00  -2.6422911E+01   1.3945886E+01   0.0000000E+00  -2.1394354E+01   1.3367304E+01   0.0000000E+00  -1.6604843E+01   1.2925428E+01   0.0000000E+00  -1.2382809E+01   1.2603478E+01   0.0000000E+00  -8.7777529E+00   1.2384809E+01   0.0000000E+00  -5.6431298E+00   1.2257561E+01   0.0000000E+00  -2.7709603E+00   2.1348988E+01   0.0000000E+00  -3.3207863E+01   2.0111378E+01   0.0000000E+00  -2.9632605E+01   1.9021196E+01   0.0000000E+00  -2.5219879E+01   1.8113358E+01   0.0000000E+00  -2.0404802E+01   1.7390059E+01   0.0000000E+00  -1.5825739E+01   1.6836588E+01   0.0000000E+00  -1.1795534E+01   1.6431509E+01   0.0000000E+00  -8.3588524E+00   1.6154825E+01   0.0000000E+00  -5.3731833E+00   1.5993127E+01   0.0000000E+00  -2.6383815E+00   2.5522741E+01   0.0000000E+00  -3.1342243E+01   2.4055210E+01   0.0000000E+00  -2.7953867E+01   2.2767750E+01   0.0000000E+00  -2.3774063E+01   2.1697535E+01   0.0000000E+00  -1.9217493E+01   2.0842964E+01   0.0000000E+00  -1.4890354E+01   2.0185146E+01   0.0000000E+00  -1.1088416E+01   1.9702957E+01   0.0000000E+00  -7.8524313E+00   1.9372147E+01   0.0000000E+00  -5.0457821E+00   1.9178572E+01   0.0000000E+00  -2.4773810E+00   2.8273987E+01   0.0000000E+00  -2.9208658E+01   2.6433165E+01   0.0000000E+00  -2.6035666E+01   2.4878483E+01   0.0000000E+00  -2.2126995E+01   2.3587616E+01   0.0000000E+00  -1.7875011E+01   2.2533773E+01   0.0000000E+00  -1.3842959E+01   2.1705946E+01   0.0000000E+00  -1.0311923E+01   2.1067371E+01   0.0000000E+00  -7.3150592E+00   2.0629055E+01   0.0000000E+00  -4.7082028E+00   2.0373714E+01   0.0000000E+00  -2.3139925E+00   2.8795021E+01   0.0000000E+00  -2.6896568E+01   2.6823133E+01   0.0000000E+00  -2.3951551E+01   2.5174618E+01   0.0000000E+00  -2.0342894E+01   2.3812572E+01   0.0000000E+00  -1.6427891E+01   2.2702951E+01   0.0000000E+00  -1.2730144E+01   2.1841980E+01   0.0000000E+00  -9.4854927E+00   2.1204824E+01   0.0000000E+00  -6.7395892E+00   2.0728210E+01   0.0000000E+00  -4.3404827E+00   2.0465601E+01   0.0000000E+00  -2.1361094E+00   2.8630445E+01   0.0000000E+00  -2.4495138E+01   2.6634359E+01   0.0000000E+00  -2.1809055E+01   2.4970179E+01   0.0000000E+00  -1.8512270E+01   2.3599943E+01   0.0000000E+00  -1.4949876E+01   2.2500910E+01   0.0000000E+00  -1.1576338E+01   2.1597046E+01   0.0000000E+00  -8.6462736E+00   2.0928888E+01   0.0000000E+00  -6.1453710E+00   2.0478060E+01   0.0000000E+00  -3.9564316E+00   2.0211315E+01   0.0000000E+00  -1.9423753E+00   2.8158325E+01   0.0000000E+00  -2.2134666E+01   2.6147434E+01   0.0000000E+00  -1.9679329E+01   2.4479162E+01   0.0000000E+00  -1.6695181E+01   2.3123089E+01   0.0000000E+00  -1.3481563E+01   2.1994934E+01   0.0000000E+00  -1.0462153E+01   2.1104212E+01   0.0000000E+00  -7.8123384E+00   2.0463131E+01   0.0000000E+00  -5.5368185E+00   2.0046412E+01   0.0000000E+00  -3.5404186E+00   1.9791237E+01   0.0000000E+00  -1.7269731E+00   2.7527643E+01   0.0000000E+00  -1.9873392E+01   2.5490587E+01   0.0000000E+00  -1.7684261E+01   2.3794666E+01   0.0000000E+00  -1.5012192E+01   2.2430510E+01   0.0000000E+00  -1.2157022E+01   2.1353897E+01   0.0000000E+00  -9.4231853E+00   2.0549240E+01   0.0000000E+00  -6.9966350E+00   1.9953096E+01   0.0000000E+00  -4.9349055E+00   1.9533140E+01   0.0000000E+00  -3.1786344E+00   1.9292358E+01   0.0000000E+00  -1.5736392E+00   2.6829895E+01   0.0000000E+00  -1.7770041E+01   2.4763329E+01   0.0000000E+00  -1.5805915E+01   2.3047009E+01   0.0000000E+00  -1.3432174E+01   2.1700460E+01   0.0000000E+00  -1.0878291E+01   2.0660494E+01   0.0000000E+00  -8.4218550E+00   1.9870710E+01   0.0000000E+00  -6.2789378E+00   1.9291338E+01   0.0000000E+00  -4.4692283E+00   1.8913113E+01   0.0000000E+00  -2.9014933E+00   1.8685907E+01   0.0000000E+00  -1.4418339E+00   2.6067598E+01   0.0000000E+00  -1.5827971E+01   2.3943064E+01   0.0000000E+00  -1.4036229E+01   2.2225420E+01   0.0000000E+00  -1.1967216E+01   2.0872774E+01   0.0000000E+00  -9.6930876E+00   1.9862020E+01   0.0000000E+00  -7.5527153E+00   1.9097925E+01   0.0000000E+00  -5.6686449E+00   1.8548952E+01   0.0000000E+00  -4.0534058E+00   1.8177794E+01   0.0000000E+00  -2.6429482E+00   1.7940678E+01   0.0000000E+00  -1.2996535E+00   2.5290462E+01   0.0000000E+00  -1.4003733E+01   2.3101610E+01   0.0000000E+00  -1.2385592E+01   2.1342834E+01   0.0000000E+00  -1.0582299E+01   2.0008152E+01   0.0000000E+00  -8.6627760E+00   1.8996500E+01   0.0000000E+00  -6.7991843E+00   1.8257635E+01   0.0000000E+00  -5.1268120E+00   1.7726431E+01   0.0000000E+00  -3.7029743E+00   1.7391068E+01   0.0000000E+00  -2.4060962E+00   1.7178541E+01   0.0000000E+00  -1.1790512E+00   2.4532427E+01   0.0000000E+00  -1.2339430E+01   2.2272280E+01   0.0000000E+00  -1.0942647E+01   2.0484768E+01   0.0000000E+00  -9.3451691E+00   1.9130219E+01   0.0000000E+00  -7.7420807E+00   1.8124132E+01   0.0000000E+00  -6.1293669E+00   1.7376932E+01   0.0000000E+00  -4.6615982E+00   1.6911505E+01   0.0000000E+00  -3.3939362E+00   1.6589798E+01   0.0000000E+00  -2.1940441E+00   1.6399658E+01   0.0000000E+00  -1.0677485E+00   2.3931425E+01   0.0000000E+00  -1.0884641E+01   2.1485683E+01   0.0000000E+00  -9.5635366E+00   1.9673840E+01   0.0000000E+00  -8.2664137E+00   1.8284721E+01   0.0000000E+00  -6.8670969E+00   1.7278530E+01   0.0000000E+00  -5.5130153E+00   1.6561325E+01   0.0000000E+00  -4.2445679E+00   1.6109694E+01   0.0000000E+00  -3.0975547E+00   1.5799877E+01   0.0000000E+00  -1.9948224E+00   1.5621201E+01   0.0000000E+00  -9.7604197E-01   2.3619705E+01   0.0000000E+00  -9.5963640E+00   2.0884041E+01   0.0000000E+00  -8.3225965E+00   1.8938580E+01   0.0000000E+00  -7.1538267E+00   1.7542353E+01   0.0000000E+00  -6.0372825E+00   1.6494770E+01   0.0000000E+00  -4.8790326E+00   1.5814521E+01   0.0000000E+00  -3.8344855E+00   1.5354346E+01   0.0000000E+00  -2.8038979E+00   1.5049672E+01   0.0000000E+00  -1.8237319E+00   1.4878081E+01   0.0000000E+00  -8.8997149E-01   2.3656021E+01   0.0000000E+00  -8.5011864E+00   2.0546553E+01   0.0000000E+00  -7.2768879E+00   1.8402496E+01   0.0000000E+00  -6.1848674E+00   1.6892109E+01   0.0000000E+00  -5.1901422E+00   1.5849172E+01   0.0000000E+00  -4.2774129E+00   1.5138988E+01   0.0000000E+00  -3.3818996E+00   1.4671818E+01   0.0000000E+00  -2.5125103E+00   1.4371552E+01   0.0000000E+00  -1.6441641E+00   1.4204333E+01   0.0000000E+00  -8.1528729E-01   2.4313602E+01   0.0000000E+00  -7.6430464E+00   2.0569502E+01   0.0000000E+00  -6.5225406E+00   1.8101765E+01   0.0000000E+00  -5.3948994E+00   1.6447206E+01   0.0000000E+00  -4.4908032E+00   1.5316777E+01   0.0000000E+00  -3.6645105E+00   1.4567767E+01   0.0000000E+00  -2.9397569E+00   1.4084608E+01   0.0000000E+00  -2.2013197E+00   1.3776110E+01   0.0000000E+00  -1.4555738E+00   1.3613994E+01   0.0000000E+00  -7.2722191E-01   2.6117832E+01   0.0000000E+00  -7.2625623E+00   2.1332642E+01   0.0000000E+00  -6.1360784E+00   1.8222845E+01   0.0000000E+00  -4.9574533E+00   1.6258923E+01   0.0000000E+00  -3.9722340E+00   1.4984894E+01   0.0000000E+00  -3.1955860E+00   1.4138202E+01   0.0000000E+00  -2.4968557E+00   1.3598761E+01   0.0000000E+00  -1.8805258E+00   1.3284336E+01   0.0000000E+00  -1.2576598E+00   1.3108174E+01   0.0000000E+00  -6.2584937E-01   2.8578808E+01   0.0000000E+00  -7.6443095E+00   2.3289848E+01   0.0000000E+00  -6.4228106E+00   1.9178894E+01   0.0000000E+00  -5.0958467E+00   1.6532211E+01   0.0000000E+00  -3.8467963E+00   1.4932079E+01   0.0000000E+00  -2.9238956E+00   1.3939179E+01   0.0000000E+00  -2.2325377E+00   1.3290984E+01   0.0000000E+00  -1.6179155E+00   1.2913569E+01   0.0000000E+00  -1.0613165E+00   1.2724469E+01   0.0000000E+00  -5.2345407E-01   3.0736069E+01   0.0000000E+00  -8.7731609E+00   2.5913101E+01   0.0000000E+00  -7.4070988E+00   2.1366032E+01   0.0000000E+00  -6.0918255E+00   1.7891432E+01   0.0000000E+00  -4.5884457E+00   1.5511545E+01   0.0000000E+00  -3.2560189E+00   1.4088123E+01   0.0000000E+00  -2.2808487E+00   1.3255630E+01   0.0000000E+00  -1.5750617E+00   1.2778323E+01   0.0000000E+00  -1.0021328E+00   1.2526871E+01   0.0000000E+00  -4.8744094E-01   3.2463409E+01   0.0000000E+00  -9.5600128E+00   2.8114384E+01   0.0000000E+00  -8.5689430E+00   2.4171768E+01   0.0000000E+00  -7.3473077E+00   2.0731516E+01   0.0000000E+00  -5.9314141E+00   1.7660173E+01   0.0000000E+00  -4.5567217E+00   1.5325062E+01   0.0000000E+00  -3.2552352E+00   1.3857530E+01   0.0000000E+00  -2.1222708E+00   1.3089096E+01   0.0000000E+00  -1.2431070E+00   1.2735465E+01   0.0000000E+00  -5.7372159E-01   2.9488764E+01   0.0000000E+00  -9.0671673E+00   2.6116119E+01   0.0000000E+00  -8.3792448E+00   2.3465414E+01   0.0000000E+00  -7.1052561E+00   2.1190920E+01   0.0000000E+00  -5.5519781E+00   1.9118189E+01   0.0000000E+00  -4.0938983E+00   1.7469225E+01   0.0000000E+00  -2.7671471E+00   1.6357542E+01   0.0000000E+00  -1.6564196E+00   1.5739229E+01   0.0000000E+00  -7.6406771E-01   2.4713089E+01   0.0000000E+00  -8.0296383E+00   2.2866306E+01   0.0000000E+00  -6.8822150E+00   2.1519707E+01   0.0000000E+00  -5.0967255E+00   2.0673342E+01   0.0000000E+00  -3.4140654E+00   1.9965673E+01   0.0000000E+00  -2.0111654E+00   1.9557444E+01   0.0000000E+00  -9.1497672E-01   2.2358587E+01   0.0000000E+00  -6.2696199E+00   2.1659903E+01   0.0000000E+00  -4.2405276E+00   2.1308807E+01   0.0000000E+00  -2.4634581E+00   2.1093042E+01   0.0000000E+00  -1.1049063E+00  -6.6894285E-02   0.0000000E+00  -1.2549108E-09  -6.6863209E-02   0.0000000E+00   4.8635772E-04  -6.6765092E-02   0.0000000E+00   1.0045941E-03  -6.6581070E-02   0.0000000E+00   1.5918538E-03  -6.6280454E-02   0.0000000E+00   2.2761838E-03  -6.5818235E-02   0.0000000E+00   3.0796225E-03  -6.5128990E-02   0.0000000E+00   4.0267915E-03  -6.4122379E-02   0.0000000E+00   5.1075323E-03  -9.4844967E-02   0.0000000E+00  -2.0396328E-08  -9.4811179E-02   0.0000000E+00   7.0397370E-04  -9.4703645E-02   0.0000000E+00   1.4491624E-03  -9.4497822E-02   0.0000000E+00   2.2779466E-03  -9.4150141E-02   0.0000000E+00   3.2317475E-03  -9.3600325E-02   0.0000000E+00   4.3268637E-03  -9.2754453E-02   0.0000000E+00   5.5999737E-03  -9.1476806E-02   0.0000000E+00   7.0819939E-03  -1.3145357E-01   0.0000000E+00   3.1073984E-08  -1.3142416E-01   0.0000000E+00   9.0905163E-04  -1.3132647E-01   0.0000000E+00   1.8673803E-03  -1.3112897E-01   0.0000000E+00   2.9222148E-03  -1.3077116E-01   0.0000000E+00   4.1245613E-03  -1.3016582E-01   0.0000000E+00   5.4951129E-03  -1.2918109E-01   0.0000000E+00   7.0674932E-03  -1.2763013E-01   0.0000000E+00   8.8867191E-03  -1.7657292E-01   0.0000000E+00  -4.6195659E-08  -1.7655781E-01   0.0000000E+00   1.1058379E-03  -1.7650019E-01   0.0000000E+00   2.2709155E-03  -1.7635930E-01   0.0000000E+00   3.5448133E-03  -1.7605530E-01   0.0000000E+00   4.9917190E-03  -1.7546883E-01   0.0000000E+00   6.6420953E-03  -1.7442141E-01   0.0000000E+00   8.5188104E-03  -1.7265305E-01   0.0000000E+00   1.0683721E-02  -2.3155923E-01   0.0000000E+00   2.0609058E-08  -2.3157144E-01   0.0000000E+00   1.2989645E-03  -2.3159131E-01   0.0000000E+00   2.6717500E-03  -2.3156805E-01   0.0000000E+00   4.1664676E-03  -2.3140024E-01   0.0000000E+00   5.8662640E-03  -2.3093343E-01   0.0000000E+00   7.8173121E-03  -2.2993650E-01   0.0000000E+00   1.0033801E-02  -2.2806273E-01   0.0000000E+00   1.2594949E-02  -2.9867426E-01   0.0000000E+00  -6.7120560E-08  -2.9872951E-01   0.0000000E+00   1.4973100E-03  -2.9887301E-01   0.0000000E+00   3.0807499E-03  -2.9904154E-01   0.0000000E+00   4.8145130E-03  -2.9911304E-01   0.0000000E+00   6.7914831E-03  -2.9889256E-01   0.0000000E+00   9.0892781E-03  -2.9809311E-01   0.0000000E+00   1.1710917E-02  -2.9627034E-01   0.0000000E+00   1.4748470E-02  -3.8078323E-01   0.0000000E+00   5.9299339E-08  -3.8090113E-01   0.0000000E+00   1.7065292E-03  -3.8122714E-01   0.0000000E+00   3.5155194E-03  -3.8168278E-01   0.0000000E+00   5.5237291E-03  -3.8212731E-01   0.0000000E+00   7.8244358E-03  -3.8231978E-01   0.0000000E+00   1.0545163E-02  -3.8191772E-01   0.0000000E+00   1.3670047E-02  -3.8036862E-01   0.0000000E+00   1.7311832E-02  -4.8120236E-01   0.0000000E+00   3.7736569E-08  -4.8141012E-01   0.0000000E+00   1.9349164E-03  -4.8199901E-01   0.0000000E+00   4.0010600E-03  -4.8287711E-01   0.0000000E+00   6.3310550E-03  -4.8387894E-01   0.0000000E+00   9.0322150E-03  -4.8472109E-01   0.0000000E+00   1.2265768E-02  -4.8498607E-01   0.0000000E+00   1.6055906E-02  -4.8402712E-01   0.0000000E+00   2.0482514E-02  -6.0364294E-01   0.0000000E+00  -2.1321114E-09  -6.0397881E-01   0.0000000E+00   2.1836546E-03  -6.0494900E-01   0.0000000E+00   4.5427680E-03  -6.0644728E-01   0.0000000E+00   7.2591882E-03  -6.0827959E-01   0.0000000E+00   1.0470648E-02  -6.1011392E-01   0.0000000E+00   1.4384147E-02  -6.1145568E-01   0.0000000E+00   1.9046253E-02  -6.1154175E-01   0.0000000E+00   2.4515970E-02  -7.5234115E-01   0.0000000E+00   3.2307383E-08  -7.5285923E-01   0.0000000E+00   2.4421602E-03  -7.5437623E-01   0.0000000E+00   5.1236050E-03  -7.5676852E-01   0.0000000E+00   8.3003510E-03  -7.5981671E-01   0.0000000E+00   1.2156878E-02  -7.6313186E-01   0.0000000E+00   1.6971359E-02  -7.6612872E-01   0.0000000E+00   2.2809587E-02  -7.6789194E-01   0.0000000E+00   2.9721415E-02  -9.3221980E-01   0.0000000E+00  -1.8885956E-07  -9.3299556E-01   0.0000000E+00   2.6860659E-03  -9.3528324E-01   0.0000000E+00   5.7030646E-03  -9.3894064E-01   0.0000000E+00   9.3998285E-03  -9.4372004E-01   0.0000000E+00   1.4048233E-02  -9.4916946E-01   0.0000000E+00   2.0038279E-02  -9.5458615E-01   0.0000000E+00   2.7480325E-02  -9.5886540E-01   0.0000000E+00   3.6409881E-02  -1.1489350E+00   0.0000000E+00   3.0158725E-07  -1.1500659E+00   0.0000000E+00   2.8756324E-03  -1.1534160E+00   0.0000000E+00   6.1997450E-03  -1.1588290E+00   0.0000000E+00   1.0465264E-02  -1.1660177E+00   0.0000000E+00   1.6071118E-02  -1.1744426E+00   0.0000000E+00   2.3545174E-02  -1.1832665E+00   0.0000000E+00   3.3060614E-02  -1.1911268E+00   0.0000000E+00   4.4794150E-02  -1.4086914E+00   0.0000000E+00   3.5230721E-07  -1.4103044E+00   0.0000000E+00   2.9530842E-03  -1.4150932E+00   0.0000000E+00   6.4973799E-03  -1.4228864E+00   0.0000000E+00   1.1346925E-02  -1.4333487E+00   0.0000000E+00   1.8048266E-02  -1.4458337E+00   0.0000000E+00   2.7357005E-02  -1.4593433E+00   0.0000000E+00   3.9475527E-02  -1.4721899E+00   0.0000000E+00   5.4904677E-02  -1.7180845E+00   0.0000000E+00  -5.1396228E-08  -1.7203403E+00   0.0000000E+00   2.8413392E-03  -1.7270558E+00   0.0000000E+00   6.4603044E-03  -1.7380366E+00   0.0000000E+00   1.1849759E-02  -1.7528987E+00   0.0000000E+00   1.9744189E-02  -1.7708358E+00   0.0000000E+00   3.1115755E-02  -1.7907147E+00   0.0000000E+00   4.6419706E-02  -1.8104661E+00   0.0000000E+00   6.6622503E-02  -2.0842166E+00   0.0000000E+00  -3.6485392E-07  -2.0873196E+00   0.0000000E+00   2.4426531E-03  -2.0965638E+00   0.0000000E+00   5.9230998E-03  -2.1117523E+00   0.0000000E+00   1.1730002E-02  -2.1324165E+00   0.0000000E+00   2.0704415E-02  -2.1576772E+00   0.0000000E+00   3.4539312E-02  -2.1861541E+00   0.0000000E+00   5.3683799E-02  -2.2153673E+00   0.0000000E+00   7.9676151E-02  -2.5147080E+00   0.0000000E+00  -8.9381729E-08  -2.5188980E+00   0.0000000E+00   1.7144380E-03  -2.5314202E+00   0.0000000E+00   4.7799372E-03  -2.5520785E+00   0.0000000E+00   1.0777636E-02  -2.5803375E+00   0.0000000E+00   2.0806501E-02  -2.6152651E+00   0.0000000E+00   3.7251551E-02  -2.6552489E+00   0.0000000E+00   6.0840260E-02  -2.6972518E+00   0.0000000E+00   9.3549833E-02  -3.0178137E+00   0.0000000E+00   1.6552888E-06  -3.0233991E+00   0.0000000E+00   6.9664564E-04  -3.0401146E+00   0.0000000E+00   3.0727084E-03  -3.0677655E+00   0.0000000E+00   8.8743893E-03  -3.1058898E+00   0.0000000E+00   1.9952567E-02  -3.1534579E+00   0.0000000E+00   3.9002165E-02  -3.2084739E+00   0.0000000E+00   6.6918164E-02  -3.2676315E+00   0.0000000E+00   1.0701677E-01  -3.6027293E+00   0.0000000E+00   3.6960341E-07  -3.6100669E+00   0.0000000E+00  -4.1418360E-04  -3.6320660E+00   0.0000000E+00   1.1470115E-03  -3.6685853E+00   0.0000000E+00   6.5516704E-03  -3.7192848E+00   0.0000000E+00   1.8435361E-02  -3.7831194E+00   0.0000000E+00   3.9901480E-02  -3.8576574E+00   0.0000000E+00   7.1916930E-02  -3.9394102E+00   0.0000000E+00   1.2020698E-01  -4.2793870E+00   0.0000000E+00  -1.2636435E-06  -4.2888732E+00   0.0000000E+00  -1.1377438E-03  -4.3173938E+00   0.0000000E+00  -1.3083871E-04  -4.3649535E+00   0.0000000E+00   4.9647922E-03  -4.4313970E+00   0.0000000E+00   1.7496960E-02  -4.5157461E+00   0.0000000E+00   4.0784501E-02  -4.6153345E+00   0.0000000E+00   7.7138729E-02  -4.7262244E+00   0.0000000E+00   1.3325840E-01  -5.0578036E+00   0.0000000E+00  -1.0202934E-06  -5.0698752E+00   0.0000000E+00  -5.2542344E-04  -5.1062737E+00   0.0000000E+00   9.7538647E-04  -5.1672459E+00   0.0000000E+00   6.5103373E-03  -5.2529898E+00   0.0000000E+00   1.9878149E-02  -5.3627119E+00   0.0000000E+00   4.4386644E-02  -5.4936910E+00   0.0000000E+00   8.5015900E-02  -5.6415677E+00   0.0000000E+00   1.4759554E-01  -5.9473677E+00   0.0000000E+00  -6.3637890E-07  -5.9624810E+00   0.0000000E+00   3.0071025E-03  -6.0081415E+00   0.0000000E+00   7.5932629E-03  -6.0850058E+00   0.0000000E+00   1.5526011E-02  -6.1938553E+00   0.0000000E+00   3.0478712E-02  -6.3343973E+00   0.0000000E+00   5.6816347E-02  -6.5039763E+00   0.0000000E+00   1.0002108E-01  -6.6978559E+00   0.0000000E+00   1.6770172E-01  -6.9567938E+00   0.0000000E+00  -1.2046016E-06  -6.9753494E+00   0.0000000E+00   1.1863224E-02  -7.0315909E+00   0.0000000E+00   2.4421014E-02  -7.1267715E+00   0.0000000E+00   3.8772780E-02  -7.2625332E+00   0.0000000E+00   5.7905927E-02  -7.4397035E+00   0.0000000E+00   8.7746777E-02  -7.6558905E+00   0.0000000E+00   1.3195996E-01  -7.9062328E+00   0.0000000E+00   2.0306909E-01  -8.0951138E+00   0.0000000E+00  -4.6324503E-06  -8.1174908E+00   0.0000000E+00   2.9571421E-02  -8.1854401E+00   0.0000000E+00   5.8333885E-02  -8.3010845E+00   0.0000000E+00   8.6080775E-02  -8.4673252E+00   0.0000000E+00   1.1484701E-01  -8.6866055E+00   0.0000000E+00   1.5092315E-01  -8.9579000E+00   0.0000000E+00   1.9734536E-01  -9.2763882E+00   0.0000000E+00   2.7055332E-01  -9.3739319E+00   0.0000000E+00   1.3495394E-06  -9.4003391E+00   0.0000000E+00   6.1056975E-02  -9.4807234E+00   0.0000000E+00   1.1916760E-01  -9.6183615E+00   0.0000000E+00   1.7151387E-01  -9.8179588E+00   0.0000000E+00   2.1979550E-01  -1.0084500E+01   0.0000000E+00   2.6783949E-01  -1.0419057E+01   0.0000000E+00   3.2082367E-01  -1.0817584E+01   0.0000000E+00   3.9710456E-01  -1.0808291E+01   0.0000000E+00  -2.5805284E-06  -1.0838839E+01   0.0000000E+00   1.0997928E-01  -1.0932051E+01   0.0000000E+00   2.1422440E-01  -1.1092601E+01   0.0000000E+00   3.0889240E-01  -1.1327637E+01   0.0000000E+00   3.9264706E-01  -1.1645236E+01   0.0000000E+00   4.6755466E-01  -1.2050143E+01   0.0000000E+00   5.3797704E-01  -1.2540437E+01   0.0000000E+00   6.1733389E-01  -1.2418288E+01   0.0000000E+00   6.5598588E-06  -1.2452820E+01   0.0000000E+00   1.8134958E-01  -1.2559028E+01   0.0000000E+00   3.5586056E-01  -1.2742707E+01   0.0000000E+00   5.1658368E-01  -1.3013656E+01   0.0000000E+00   6.5925044E-01  -1.3383842E+01   0.0000000E+00   7.8342295E-01  -1.3863885E+01   0.0000000E+00   8.9363706E-01  -1.4454269E+01   0.0000000E+00   9.8915887E-01  -1.4217702E+01   0.0000000E+00   2.8147319E-06  -1.4256560E+01   0.0000000E+00   2.8131557E-01  -1.4376035E+01   0.0000000E+00   5.5269367E-01  -1.4583874E+01   0.0000000E+00   8.0758244E-01  -1.4893432E+01   0.0000000E+00   1.0389231E+00  -1.5317669E+01   0.0000000E+00   1.2515100E+00  -1.5874740E+01   0.0000000E+00   1.4318771E+00  -1.6570309E+01   0.0000000E+00   1.5756058E+00  -1.6215725E+01   0.0000000E+00   9.7908332E-07  -1.6260155E+01   0.0000000E+00   3.9317274E-01  -1.6394974E+01   0.0000000E+00   7.8449422E-01  -1.6628389E+01   0.0000000E+00   1.1648641E+00  -1.6975677E+01   0.0000000E+00   1.5272419E+00  -1.7456730E+01   0.0000000E+00   1.8654652E+00  -1.8090021E+01   0.0000000E+00   2.1705561E+00  -1.8885229E+01   0.0000000E+00   2.4352629E+00  -1.8395761E+01   0.0000000E+00   1.0518377E-05  -1.8445021E+01   0.0000000E+00   5.4294062E-01  -1.8593958E+01   0.0000000E+00   1.0907279E+00  -1.8852007E+01   0.0000000E+00   1.6402673E+00  -1.9238945E+01   0.0000000E+00   2.1751869E+00  -1.9777073E+01   0.0000000E+00   2.6877580E+00  -2.0488884E+01   0.0000000E+00   3.1625042E+00  -2.1385618E+01   0.0000000E+00   3.5869656E+00  -2.0664381E+01   0.0000000E+00   4.6290406E-06  -2.0720655E+01   0.0000000E+00   7.3895818E-01  -2.0891188E+01   0.0000000E+00   1.4596480E+00  -2.1179918E+01   0.0000000E+00   2.2037160E+00  -2.1615084E+01   0.0000000E+00   2.9344847E+00  -2.2211088E+01   0.0000000E+00   3.6639259E+00  -2.3001236E+01   0.0000000E+00   4.3735323E+00  -2.4002825E+01   0.0000000E+00   5.0195265E+00  -2.2894402E+01   0.0000000E+00  -5.6051067E-07  -2.2951124E+01   0.0000000E+00   9.2253113E-01  -2.3142998E+01   0.0000000E+00   1.8470414E+00  -2.3490450E+01   0.0000000E+00   2.7684808E+00  -2.3978619E+01   0.0000000E+00   3.7331505E+00  -2.4635172E+01   0.0000000E+00   4.7635312E+00  -2.5496334E+01   0.0000000E+00   5.8290844E+00  -2.6597132E+01   0.0000000E+00   6.8001409E+00  -2.4965870E+01   0.0000000E+00  -3.7577120E-06  -2.5040630E+01   0.0000000E+00   1.1153576E+00  -2.5264959E+01   0.0000000E+00   2.2606111E+00  -2.5648840E+01   0.0000000E+00   3.4451571E+00  -2.6164738E+01   0.0000000E+00   4.7358499E+00  -2.6904703E+01   0.0000000E+00   6.1436038E+00  -2.7869221E+01   0.0000000E+00   7.5725751E+00  -2.9027386E+01   0.0000000E+00   8.9434671E+00  -2.6667625E+01   0.0000000E+00  -6.3853804E-06  -2.6747400E+01   0.0000000E+00   1.3616891E+00  -2.7013840E+01   0.0000000E+00   2.7509527E+00  -2.7431931E+01   0.0000000E+00   4.2240095E+00  -2.8029047E+01   0.0000000E+00   5.8443937E+00  -2.8879522E+01   0.0000000E+00   7.5459032E+00  -2.9922935E+01   0.0000000E+00   9.3940210E+00  -3.1155180E+01   0.0000000E+00   1.1256469E+01  -2.8049807E+01   0.0000000E+00   1.8123304E-05  -2.8143599E+01   0.0000000E+00   1.6461900E+00  -2.8415539E+01   0.0000000E+00   3.3225949E+00  -2.8897024E+01   0.0000000E+00   5.0963783E+00  -2.9580423E+01   0.0000000E+00   7.0738463E+00  -3.0477051E+01   0.0000000E+00   9.2841120E+00  -3.1543503E+01   0.0000000E+00   1.1701539E+01  -3.2788006E+01   0.0000000E+00   1.4112811E+01  -2.8832197E+01   0.0000000E+00   2.1074840E-05  -2.8927069E+01   0.0000000E+00   1.9504250E+00  -2.9230961E+01   0.0000000E+00   3.9702358E+00  -2.9751434E+01   0.0000000E+00   6.1528778E+00  -3.0440159E+01   0.0000000E+00   8.6094122E+00  -3.1373270E+01   0.0000000E+00   1.1439292E+01  -3.2495022E+01   0.0000000E+00   1.4598614E+01  -3.3779778E+01   0.0000000E+00   1.7803473E+01  -2.8735798E+01   0.0000000E+00   1.6735867E-05  -2.8831928E+01   0.0000000E+00   2.2286222E+00  -2.9121590E+01   0.0000000E+00   4.5553207E+00  -2.9616867E+01   0.0000000E+00   7.1158834E+00  -3.0336420E+01   0.0000000E+00   1.0069875E+01  -3.1258963E+01   0.0000000E+00   1.3549297E+01  -3.2387524E+01   0.0000000E+00   1.7516430E+01  -3.3678291E+01   0.0000000E+00   2.1699596E+01  -2.2692602E+01   0.0000000E+00   5.5847922E-06  -2.2770462E+01   0.0000000E+00   2.4822810E+00  -2.3006256E+01   0.0000000E+00   5.0797153E+00  -2.3408411E+01   0.0000000E+00   7.9567900E+00  -2.3995123E+01   0.0000000E+00   1.1311566E+01  -2.4793291E+01   0.0000000E+00   1.5279582E+01  -2.5831131E+01   0.0000000E+00   1.9824284E+01  -2.7125166E+01   0.0000000E+00   2.4676867E+01  -1.4063724E+01   0.0000000E+00  -1.7508457E-05  -1.4123362E+01   0.0000000E+00   2.6842635E+00  -1.4302948E+01   0.0000000E+00   5.4884720E+00  -1.4606175E+01   0.0000000E+00   8.5859270E+00  -1.5043039E+01   0.0000000E+00   1.2186209E+01  -1.5629885E+01   0.0000000E+00   1.6430901E+01  -1.6382832E+01   0.0000000E+00   2.1274248E+01  -1.7305464E+01   0.0000000E+00   2.6417242E+01  -7.5276594E+00   0.0000000E+00   7.4804411E-06  -7.5677304E+00   0.0000000E+00   2.8287427E+00  -7.6876264E+00   0.0000000E+00   5.7782993E+00  -7.8871274E+00   0.0000000E+00   9.0261288E+00  -8.1692295E+00   0.0000000E+00   1.2788731E+01  -8.5409698E+00   0.0000000E+00   1.7211630E+01  -9.0091524E+00   0.0000000E+00   2.2239939E+01  -9.5705214E+00   0.0000000E+00   2.7548077E+01  -2.8049369E+00   0.0000000E+00  -1.9011379E-05  -2.8257973E+00   0.0000000E+00   2.9153285E+00  -2.8872197E+00   0.0000000E+00   5.9494576E+00  -2.9864523E+00   0.0000000E+00   9.2803965E+00  -3.1212921E+00   0.0000000E+00   1.3128103E+01  -3.2917783E+00   0.0000000E+00   1.7640289E+01  -3.4981697E+00   0.0000000E+00   2.2756626E+01  -3.7356474E+00   0.0000000E+00   2.8132717E+01   9.5030427E-01   0.0000000E+00  -1.2239849E-05   9.4750237E-01   0.0000000E+00   2.9474094E+00   9.4069725E-01   0.0000000E+00   6.0099001E+00   9.3413240E-01   0.0000000E+00   9.3635464E+00   9.3345666E-01   0.0000000E+00   1.3228624E+01   9.4405109E-01   0.0000000E+00   1.7754230E+01   9.7010881E-01   0.0000000E+00   2.2878887E+01   1.0161675E+00   0.0000000E+00   2.8250072E+01   4.5342770E+00   0.0000000E+00  -1.8014689E-06   4.5479937E+00   0.0000000E+00   2.9302402E+00   4.5908804E+00   0.0000000E+00   5.9711318E+00   4.6680398E+00   0.0000000E+00   9.2949429E+00   4.7875595E+00   0.0000000E+00   1.3119861E+01   4.9588819E+00   0.0000000E+00   1.7595490E+01   5.1902828E+00   0.0000000E+00   2.2662714E+01   5.4864187E+00   0.0000000E+00   2.7970680E+01   8.3146029E+00   0.0000000E+00   9.1717229E-06   8.3431950E+00   0.0000000E+00   2.8698061E+00   8.4307394E+00   0.0000000E+00   5.8454814E+00   8.5828590E+00   0.0000000E+00   9.0943861E+00   8.8095303E+00   0.0000000E+00   1.2830503E+01   9.1239586E+00   0.0000000E+00   1.7202703E+01   9.5385027E+00   0.0000000E+00   2.2156391E+01   1.0059611E+01   0.0000000E+00   2.7349640E+01   1.2215718E+01   0.0000000E+00   6.4241467E-06   1.2257565E+01   0.0000000E+00   2.7709558E+00   1.2384805E+01   0.0000000E+00   5.6431513E+00   1.2603472E+01   0.0000000E+00   8.7777605E+00   1.2925447E+01   0.0000000E+00   1.2382794E+01   1.3367317E+01   0.0000000E+00   1.6604837E+01   1.3945889E+01   0.0000000E+00   2.1394337E+01   1.4671368E+01   0.0000000E+00   2.6422947E+01   1.5939834E+01   0.0000000E+00  -1.7620972E-05   1.5993134E+01   0.0000000E+00   2.6383383E+00   1.6154861E+01   0.0000000E+00   5.3731532E+00   1.6431520E+01   0.0000000E+00   8.3588552E+00   1.6836578E+01   0.0000000E+00   1.1795540E+01   1.7390072E+01   0.0000000E+00   1.5825756E+01   1.8113365E+01   0.0000000E+00   2.0404766E+01   1.9021238E+01   0.0000000E+00   2.5219908E+01   1.9114496E+01   0.0000000E+00  -2.2166467E-05   1.9178587E+01   0.0000000E+00   2.4773872E+00   1.9372128E+01   0.0000000E+00   5.0457850E+00   1.9702991E+01   0.0000000E+00   7.8524423E+00   2.0185131E+01   0.0000000E+00   1.1088403E+01   2.0842979E+01   0.0000000E+00   1.4890353E+01   2.1697502E+01   0.0000000E+00   1.9217495E+01   2.2767723E+01   0.0000000E+00   2.3774078E+01   2.0287724E+01   0.0000000E+00  -2.6360503E-06   2.0373741E+01   0.0000000E+00   2.3139877E+00   2.0629070E+01   0.0000000E+00   4.7081857E+00   2.1067362E+01   0.0000000E+00   7.3150592E+00   2.1705961E+01   0.0000000E+00   1.0311922E+01   2.2533781E+01   0.0000000E+00   1.3842939E+01   2.3587646E+01   0.0000000E+00   1.7875042E+01   2.4878525E+01   0.0000000E+00   2.2127020E+01   2.0384024E+01   0.0000000E+00  -1.7230224E-05   2.0465586E+01   0.0000000E+00   2.1361318E+00   2.0728224E+01   0.0000000E+00   4.3404756E+00   2.1204824E+01   0.0000000E+00   6.7395678E+00   2.1841946E+01   0.0000000E+00   9.4854927E+00   2.2702938E+01   0.0000000E+00   1.2730119E+01   2.3812586E+01   0.0000000E+00   1.6427872E+01   2.5174660E+01   0.0000000E+00   2.0342937E+01   2.0120428E+01   0.0000000E+00   1.4980033E-05   2.0211300E+01   0.0000000E+00   1.9423887E+00   2.0478081E+01   0.0000000E+00   3.9564126E+00   2.0928858E+01   0.0000000E+00   6.1453533E+00   2.1597065E+01   0.0000000E+00   8.6462669E+00   2.2500908E+01   0.0000000E+00   1.1576345E+01   2.3599920E+01   0.0000000E+00   1.4949884E+01   2.4970148E+01   0.0000000E+00   1.8512262E+01   1.9698704E+01   0.0000000E+00   1.7601065E-05   1.9791285E+01   0.0000000E+00   1.7269704E+00   2.0046480E+01   0.0000000E+00   3.5404372E+00   2.0463192E+01   0.0000000E+00   5.5368180E+00   2.1104242E+01   0.0000000E+00   7.8123469E+00   2.1994928E+01   0.0000000E+00   1.0462152E+01   2.3123104E+01   0.0000000E+00   1.3481554E+01   2.4479176E+01   0.0000000E+00   1.6695169E+01   1.9248100E+01   0.0000000E+00   9.0198882E-06   1.9292372E+01   0.0000000E+00   1.5736388E+00   1.9533115E+01   0.0000000E+00   3.1786366E+00   1.9953098E+01   0.0000000E+00   4.9349031E+00   2.0549246E+01   0.0000000E+00   6.9966254E+00   2.1353909E+01   0.0000000E+00   9.4231825E+00   2.2430506E+01   0.0000000E+00   1.2157007E+01   2.3794628E+01   0.0000000E+00   1.5012202E+01   1.8583445E+01   0.0000000E+00  -7.3170813E-06   1.8685926E+01   0.0000000E+00   1.4418333E+00   1.8913090E+01   0.0000000E+00   2.9014821E+00   1.9291376E+01   0.0000000E+00   4.4692430E+00   1.9870686E+01   0.0000000E+00   6.2789383E+00   2.0660482E+01   0.0000000E+00   8.4218645E+00   2.1700464E+01   0.0000000E+00   1.0878292E+01   2.3047031E+01   0.0000000E+00   1.3432163E+01   1.7871681E+01   0.0000000E+00   1.0706106E-05   1.7940683E+01   0.0000000E+00   1.2996885E+00   1.8177790E+01   0.0000000E+00   2.6429319E+00   1.8548948E+01   0.0000000E+00   4.0534143E+00   1.9097946E+01   0.0000000E+00   5.6686525E+00   1.9862007E+01   0.0000000E+00   7.5527101E+00   2.0872749E+01   0.0000000E+00   9.6930895E+00   2.2225441E+01   0.0000000E+00   1.1967225E+01   1.7113722E+01   0.0000000E+00   2.0407679E-05   1.7178555E+01   0.0000000E+00   1.1790670E+00   1.7391087E+01   0.0000000E+00   2.4060788E+00   1.7726423E+01   0.0000000E+00   3.7029800E+00   1.8257624E+01   0.0000000E+00   5.1268144E+00   1.8996506E+01   0.0000000E+00   6.7991796E+00   2.0008160E+01   0.0000000E+00   8.6627684E+00   2.1342854E+01   0.0000000E+00   1.0582299E+01   1.6336088E+01   0.0000000E+00  -5.8902078E-06   1.6399652E+01   0.0000000E+00   1.0677584E+00   1.6589785E+01   0.0000000E+00   2.1940224E+00   1.6911488E+01   0.0000000E+00   3.3939338E+00   1.7376961E+01   0.0000000E+00   4.6615949E+00   1.8124123E+01   0.0000000E+00   6.1293616E+00   1.9130232E+01   0.0000000E+00   7.7420802E+00   2.0484768E+01   0.0000000E+00   9.3451719E+00   1.5562884E+01   0.0000000E+00   6.7405927E-07   1.5621203E+01   0.0000000E+00   9.7604167E-01   1.5799870E+01   0.0000000E+00   1.9948239E+00   1.6109715E+01   0.0000000E+00   3.0975595E+00   1.6561359E+01   0.0000000E+00   4.2445683E+00   1.7278526E+01   0.0000000E+00   5.5130172E+00   1.8284718E+01   0.0000000E+00   6.8670950E+00   1.9673820E+01   0.0000000E+00   8.2664070E+00   1.4827398E+01   0.0000000E+00  -2.8684444E-06   1.4878093E+01   0.0000000E+00   8.8996679E-01   1.5049657E+01   0.0000000E+00   1.8237312E+00   1.5354335E+01   0.0000000E+00   2.8039081E+00   1.5814519E+01   0.0000000E+00   3.8344898E+00   1.6494783E+01   0.0000000E+00   4.8790383E+00   1.7542385E+01   0.0000000E+00   6.0372820E+00   1.8938568E+01   0.0000000E+00   7.1538301E+00   1.4153522E+01   0.0000000E+00  -2.2962922E-06   1.4204335E+01   0.0000000E+00   8.1527466E-01   1.4371548E+01   0.0000000E+00   1.6441753E+00   1.4671803E+01   0.0000000E+00   2.5125127E+00   1.5138993E+01   0.0000000E+00   3.3818967E+00   1.5849159E+01   0.0000000E+00   4.2774119E+00   1.6892099E+01   0.0000000E+00   5.1901464E+00   1.8402487E+01   0.0000000E+00   6.1848593E+00   1.3562481E+01   0.0000000E+00   9.5840514E-06   1.3613974E+01   0.0000000E+00   7.2722590E-01   1.3776117E+01   0.0000000E+00   1.4555727E+00   1.4084620E+01   0.0000000E+00   2.2013164E+00   1.4567778E+01   0.0000000E+00   2.9397531E+00   1.5316759E+01   0.0000000E+00   3.6645119E+00   1.6447201E+01   0.0000000E+00   4.4908085E+00   1.8101736E+01   0.0000000E+00   5.3949080E+00   1.3045816E+01   0.0000000E+00   6.9119706E-06   1.3108186E+01   0.0000000E+00   6.2585086E-01   1.3284312E+01   0.0000000E+00   1.2576544E+00   1.3598773E+01   0.0000000E+00   1.8805279E+00   1.4138202E+01   0.0000000E+00   2.4968553E+00   1.4984902E+01   0.0000000E+00   3.1955838E+00   1.6258930E+01   0.0000000E+00   3.9722316E+00   1.8222857E+01   0.0000000E+00   4.9574523E+00   1.2661090E+01   0.0000000E+00   4.3014006E-07   1.2724482E+01   0.0000000E+00   5.2345252E-01   1.2913575E+01   0.0000000E+00   1.0613215E+00   1.3290988E+01   0.0000000E+00   1.6179186E+00   1.3939174E+01   0.0000000E+00   2.2325394E+00   1.4932080E+01   0.0000000E+00   2.9238942E+00   1.6532211E+01   0.0000000E+00   3.8467898E+00   1.9178888E+01   0.0000000E+00   5.0958452E+00   1.2445892E+01   0.0000000E+00   2.7337082E-06   1.2526869E+01   0.0000000E+00   4.8743978E-01   1.2778310E+01   0.0000000E+00   1.0021361E+00   1.3255636E+01   0.0000000E+00   1.5750626E+00   1.4088119E+01   0.0000000E+00   2.2808499E+00   1.5511544E+01   0.0000000E+00   3.2560194E+00   1.7891436E+01   0.0000000E+00   4.5884442E+00   2.1366035E+01   0.0000000E+00   6.0918283E+00   1.2628716E+01   0.0000000E+00  -6.3545303E-07   1.2735472E+01   0.0000000E+00   5.7372278E-01   1.3089103E+01   0.0000000E+00   1.2431090E+00   1.3857529E+01   0.0000000E+00   2.1222706E+00   1.5325064E+01   0.0000000E+00   3.2552357E+00   1.7660179E+01   0.0000000E+00   4.5567203E+00   2.0731527E+01   0.0000000E+00   5.9314151E+00   2.4171778E+01   0.0000000E+00   7.3473091E+00   1.5544264E+01   0.0000000E+00  -3.6752317E-07   1.5739237E+01   0.0000000E+00   7.6406705E-01   1.6357536E+01   0.0000000E+00   1.6564218E+00   1.7469231E+01   0.0000000E+00   2.7671466E+00   1.9118191E+01   0.0000000E+00   4.0938988E+00   2.1190928E+01   0.0000000E+00   5.5519762E+00   2.3465416E+01   0.0000000E+00   7.1052547E+00   2.6116125E+01   0.0000000E+00   8.3792486E+00   1.9423868E+01   0.0000000E+00   2.3788307E-06   1.9557442E+01   0.0000000E+00   9.1497761E-01   1.9965675E+01   0.0000000E+00   2.0111675E+00   2.0673355E+01   0.0000000E+00   3.4140644E+00   2.1519707E+01   0.0000000E+00   5.0967236E+00   2.2866314E+01   0.0000000E+00   6.8822198E+00   2.4713081E+01   0.0000000E+00   8.0296345E+00   2.1018513E+01   0.0000000E+00  -9.6095027E-07   2.1093042E+01   0.0000000E+00   1.1049069E+00   2.1308815E+01   0.0000000E+00   2.4634569E+00   2.1659897E+01   0.0000000E+00   4.2405262E+00   2.2358593E+01   0.0000000E+00   6.2696199E+00  -6.2676504E-02   0.0000000E+00   6.3125198E-03  -6.0627304E-02   0.0000000E+00   7.6898150E-03  -5.7849854E-02   0.0000000E+00   9.1500450E-03  -5.4186985E-02   0.0000000E+00   1.0654029E-02  -4.9521580E-02   0.0000000E+00   1.2058659E-02  -4.3656044E-02   0.0000000E+00   1.3280459E-02  -3.6642890E-02   0.0000000E+00   1.3948422E-02  -8.9608341E-02   0.0000000E+00   8.7118996E-03  -8.6894557E-02   0.0000000E+00   1.0574393E-02  -8.3109297E-02   0.0000000E+00   1.2565787E-02  -7.7995971E-02   0.0000000E+00   1.4581003E-02  -7.1343280E-02   0.0000000E+00   1.6306859E-02  -6.2738039E-02   0.0000000E+00   1.7659904E-02  -5.1931705E-02   0.0000000E+00   1.8240333E-02  -3.8787752E-02   0.0000000E+00   1.9436002E-02  -1.2527718E-01   0.0000000E+00   1.0906281E-02  -1.2176895E-01   0.0000000E+00   1.3206106E-02  -1.1676189E-01   0.0000000E+00   1.5640639E-02  -1.0985214E-01   0.0000000E+00   1.8118717E-02  -1.0072216E-01   0.0000000E+00   2.0216644E-02  -8.8778131E-02   0.0000000E+00   2.1950172E-02  -7.3806025E-02   0.0000000E+00   2.2925932E-02  -5.5481177E-02   0.0000000E+00   2.3745701E-02  -1.6982900E-01   0.0000000E+00   1.3119988E-02  -1.6548210E-01   0.0000000E+00   1.5882136E-02  -1.5912785E-01   0.0000000E+00   1.8833937E-02  -1.5020666E-01   0.0000000E+00   2.1849021E-02  -1.3824552E-01   0.0000000E+00   2.4441550E-02  -1.2242745E-01   0.0000000E+00   2.6681762E-02  -1.0246011E-01   0.0000000E+00   2.7906526E-02  -7.7447906E-02   0.0000000E+00   2.8992299E-02  -2.2485892E-01   0.0000000E+00   1.5523359E-02  -2.1972704E-01   0.0000000E+00   1.8810142E-02  -2.1199468E-01   0.0000000E+00   2.2351874E-02  -2.0090169E-01   0.0000000E+00   2.6009588E-02  -1.8577561E-01   0.0000000E+00   2.9204806E-02  -1.6544679E-01   0.0000000E+00   3.2103654E-02  -1.3938446E-01   0.0000000E+00   3.3822469E-02  -1.0597707E-01   0.0000000E+00   3.5742179E-02  -2.9283604E-01   0.0000000E+00   1.8271575E-02  -2.8705329E-01   0.0000000E+00   2.2162857E-02  -2.7798912E-01   0.0000000E+00   2.6386127E-02  -2.6461920E-01   0.0000000E+00   3.0787311E-02  -2.4604255E-01   0.0000000E+00   3.4665421E-02  -2.2056553E-01   0.0000000E+00   3.8422219E-02  -1.8721762E-01   0.0000000E+00   4.1038908E-02  -1.4335681E-01   0.0000000E+00   4.4501998E-02  -3.7692755E-01   0.0000000E+00   2.1561783E-02  -3.7069279E-01   0.0000000E+00   2.6158851E-02  -3.6042306E-01   0.0000000E+00   3.1180095E-02  -3.4478992E-01   0.0000000E+00   3.6424488E-02  -3.2256684E-01   0.0000000E+00   4.1120991E-02  -2.9138660E-01   0.0000000E+00   4.6000026E-02  -2.4953654E-01   0.0000000E+00   5.0101437E-02  -1.9291238E-01   0.0000000E+00   5.5970401E-02  -4.8091978E-01   0.0000000E+00   2.5646187E-02  -4.7454777E-01   0.0000000E+00   3.1143177E-02  -4.6330103E-01   0.0000000E+00   3.7200667E-02  -4.4555673E-01   0.0000000E+00   4.3430261E-02  -4.1958460E-01   0.0000000E+00   4.9230386E-02  -3.8234788E-01   0.0000000E+00   5.5529356E-02  -3.3084476E-01   0.0000000E+00   6.1966091E-02  -2.5924200E-01   0.0000000E+00   7.1305498E-02  -6.0923505E-01   0.0000000E+00   3.0915344E-02  -6.0318357E-01   0.0000000E+00   3.7668254E-02  -5.9134758E-01   0.0000000E+00   4.5168638E-02  -5.7166451E-01   0.0000000E+00   5.2939136E-02  -5.4194021E-01   0.0000000E+00   6.0245033E-02  -4.9859595E-01   0.0000000E+00   6.8065256E-02  -4.3685287E-01   0.0000000E+00   7.7501133E-02  -3.4871304E-01   0.0000000E+00   9.1064841E-02  -7.6703477E-01   0.0000000E+00   3.7868567E-02  -7.6192605E-01   0.0000000E+00   4.6532229E-02  -7.5011188E-01   0.0000000E+00   5.6040019E-02  -7.2903752E-01   0.0000000E+00   6.5767787E-02  -6.9572449E-01   0.0000000E+00   7.5209044E-02  -6.4628869E-01   0.0000000E+00   8.4940672E-02  -5.7489634E-01   0.0000000E+00   9.6772283E-02  -4.7053191E-01   0.0000000E+00   1.1406016E-01  -9.6034330E-01   0.0000000E+00   4.6974652E-02  -9.5699531E-01   0.0000000E+00   5.8507707E-02  -9.4613945E-01   0.0000000E+00   7.0742019E-02  -9.2434490E-01   0.0000000E+00   8.3578706E-02  -8.8862890E-01   0.0000000E+00   9.4644934E-02  -8.3384585E-01   0.0000000E+00   1.0638049E-01  -7.5460815E-01   0.0000000E+00   1.1990157E-01  -6.3555175E-01   0.0000000E+00   1.4072192E-01  -1.1960813E+00   0.0000000E+00   5.8660358E-02  -1.1956179E+00   0.0000000E+00   7.4197814E-02  -1.1869034E+00   0.0000000E+00   9.0555459E-02  -1.1660644E+00   0.0000000E+00   1.0746959E-01  -1.1293156E+00   0.0000000E+00   1.2342346E-01  -1.0705311E+00   0.0000000E+00   1.4269629E-01  -9.8355514E-01   0.0000000E+00   1.7036387E-01  -8.4198147E-01   0.0000000E+00   2.2190505E-01  -1.4821601E+00   0.0000000E+00   7.3243596E-02  -1.4861860E+00   0.0000000E+00   9.4440095E-02  -1.4813572E+00   0.0000000E+00   1.1772825E-01  -1.4639204E+00   0.0000000E+00   1.4284639E-01  -1.4297743E+00   0.0000000E+00   1.7105091E-01  -1.3709396E+00   0.0000000E+00   2.1471141E-01  -1.2837294E+00   0.0000000E+00   2.8771928E-01  -1.1361387E+00   0.0000000E+00   4.2011279E-01  -1.8275551E+00   0.0000000E+00   9.0938509E-02  -1.8383507E+00   0.0000000E+00   1.2025172E-01  -1.8400068E+00   0.0000000E+00   1.5432328E-01  -1.8294824E+00   0.0000000E+00   1.9433345E-01  -1.8040901E+00   0.0000000E+00   2.4318263E-01  -1.7555419E+00   0.0000000E+00   3.2314730E-01  -1.6805358E+00   0.0000000E+00   4.5775178E-01  -1.5484116E+00   0.0000000E+00   6.6240102E-01  -2.2424312E+00   0.0000000E+00   1.1169297E-01  -2.2631600E+00   0.0000000E+00   1.5195625E-01  -2.2745183E+00   0.0000000E+00   1.9995612E-01  -2.2748327E+00   0.0000000E+00   2.6036239E-01  -2.2648084E+00   0.0000000E+00   3.3787823E-01  -2.2360787E+00   0.0000000E+00   4.5649001E-01  -2.1843100E+00   0.0000000E+00   6.4550138E-01  -2.0835900E+00   0.0000000E+00   9.0521723E-01  -2.7379920E+00   0.0000000E+00   1.3485527E-01  -2.7725000E+00   0.0000000E+00   1.8820088E-01  -2.7980525E+00   0.0000000E+00   2.5463754E-01  -2.8131533E+00   0.0000000E+00   3.4030560E-01  -2.8218586E+00   0.0000000E+00   4.4571528E-01  -2.8189428E+00   0.0000000E+00   6.0400677E-01  -2.7997608E+00   0.0000000E+00   8.4148103E-01  -2.7355804E+00   0.0000000E+00   1.1472919E+00  -3.3269625E+00   0.0000000E+00   1.5987433E-01  -3.3803484E+00   0.0000000E+00   2.2924720E-01  -3.4247875E+00   0.0000000E+00   3.1720960E-01  -3.4582486E+00   0.0000000E+00   4.2705923E-01  -3.4893703E+00   0.0000000E+00   5.6454378E-01  -3.5145025E+00   0.0000000E+00   7.6389623E-01  -3.5284004E+00   0.0000000E+00   1.0472283E+00  -3.4996696E+00   0.0000000E+00   1.4056612E+00  -4.0232654E+00   0.0000000E+00   1.8582410E-01  -4.1016855E+00   0.0000000E+00   2.7276924E-01  -4.1701212E+00   0.0000000E+00   3.8360271E-01  -4.2282553E+00   0.0000000E+00   5.2207446E-01  -4.2841916E+00   0.0000000E+00   6.9569331E-01  -4.3391705E+00   0.0000000E+00   9.3949181E-01  -4.3855329E+00   0.0000000E+00   1.2732884E+00  -4.3877258E+00   0.0000000E+00   1.6948617E+00  -4.8416858E+00   0.0000000E+00   2.1181859E-01  -4.9528980E+00   0.0000000E+00   3.1803834E-01  -5.0524373E+00   0.0000000E+00   4.5334733E-01  -5.1411886E+00   0.0000000E+00   6.2602419E-01  -5.2291288E+00   0.0000000E+00   8.4388465E-01  -5.3172798E+00   0.0000000E+00   1.1365629E+00  -5.3981085E+00   0.0000000E+00   1.5300280E+00  -5.4287395E+00   0.0000000E+00   2.0285816E+00  -5.7972283E+00   0.0000000E+00   2.4018036E-01  -5.9498315E+00   0.0000000E+00   3.6094964E-01  -6.0911016E+00   0.0000000E+00   5.2669275E-01  -6.2189269E+00   0.0000000E+00   7.3771381E-01  -6.3466425E+00   0.0000000E+00   1.0060713E+00  -6.4766068E+00   0.0000000E+00   1.3596559E+00  -6.6002388E+00   0.0000000E+00   1.8279523E+00  -6.6664982E+00   0.0000000E+00   2.4179366E+00  -6.9050012E+00   0.0000000E+00   2.7142289E-01  -7.1111784E+00   0.0000000E+00   4.0811658E-01  -7.3061094E+00   0.0000000E+00   6.0365528E-01  -7.4856048E+00   0.0000000E+00   8.5654122E-01  -7.6633935E+00   0.0000000E+00   1.1835514E+00  -7.8464952E+00   0.0000000E+00   1.6130557E+00  -8.0256929E+00   0.0000000E+00   2.1761217E+00  -8.1399612E+00   0.0000000E+00   2.8772519E+00  -8.1775274E+00   0.0000000E+00   3.1417564E-01  -8.4530582E+00   0.0000000E+00   4.6561345E-01  -8.7170000E+00   0.0000000E+00   6.8597347E-01  -8.9638424E+00   0.0000000E+00   9.8396063E-01  -9.2085476E+00   0.0000000E+00   1.3768953E+00  -9.4599543E+00   0.0000000E+00   1.8992934E+00  -9.7117004E+00   0.0000000E+00   2.5814869E+00  -9.8911915E+00   0.0000000E+00   3.4178667E+00  -9.6280613E+00   0.0000000E+00   3.8535523E-01  -9.9905567E+00   0.0000000E+00   5.4493165E-01  -1.0344909E+01   0.0000000E+00   7.8416020E-01  -1.0680228E+01   0.0000000E+00   1.1267080E+00  -1.1014283E+01   0.0000000E+00   1.5833913E+00  -1.1355674E+01   0.0000000E+00   2.2171888E+00  -1.1701529E+01   0.0000000E+00   3.0543206E+00  -1.1969514E+01   0.0000000E+00   4.0575008E+00  -1.1266785E+01   0.0000000E+00   5.0878841E-01  -1.1736353E+01   0.0000000E+00   6.7135179E-01  -1.2207976E+01   0.0000000E+00   9.1532481E-01  -1.2661299E+01   0.0000000E+00   1.2883557E+00  -1.3114734E+01   0.0000000E+00   1.8028908E+00  -1.3578741E+01   0.0000000E+00   2.5607207E+00  -1.4047642E+01   0.0000000E+00   3.6037588E+00  -1.4436042E+01   0.0000000E+00   4.8197560E+00  -1.3103268E+01   0.0000000E+00   7.2401148E-01  -1.3705708E+01   0.0000000E+00   8.7684762E-01  -1.4320851E+01   0.0000000E+00   1.1129578E+00  -1.4932201E+01   0.0000000E+00   1.4863490E+00  -1.5542748E+01   0.0000000E+00   2.0396585E+00  -1.6177063E+01   0.0000000E+00   2.9375119E+00  -1.6813181E+01   0.0000000E+00   4.2350931E+00  -1.7375570E+01   0.0000000E+00   5.7438145E+00  -1.5144770E+01   0.0000000E+00   1.0907317E+00  -1.5905670E+01   0.0000000E+00   1.2321222E+00  -1.6695766E+01   0.0000000E+00   1.4254411E+00  -1.7507315E+01   0.0000000E+00   1.7682040E+00  -1.8326162E+01   0.0000000E+00   2.3546154E+00  -1.9186537E+01   0.0000000E+00   3.3283582E+00  -2.0067671E+01   0.0000000E+00   4.9510546E+00  -2.0878510E+01   0.0000000E+00   6.8321500E+00  -1.7395500E+01   0.0000000E+00   1.6868324E+00  -1.8327194E+01   0.0000000E+00   1.7999668E+00  -1.9328650E+01   0.0000000E+00   1.9447728E+00  -2.0389883E+01   0.0000000E+00   2.2027640E+00  -2.1494999E+01   0.0000000E+00   2.7564993E+00  -2.2657812E+01   0.0000000E+00   3.7815533E+00  -2.3881207E+01   0.0000000E+00   5.7509623E+00  -2.5062923E+01   0.0000000E+00   8.0980806E+00  -1.9847042E+01   0.0000000E+00   2.6115367E+00  -2.0952751E+01   0.0000000E+00   2.7180974E+00  -2.2194136E+01   0.0000000E+00   2.7769463E+00  -2.3550125E+01   0.0000000E+00   2.9030447E+00  -2.5016865E+01   0.0000000E+00   3.3564365E+00  -2.6600254E+01   0.0000000E+00   4.3523974E+00  -2.8290003E+01   0.0000000E+00   6.6468654E+00  -3.0029232E+01   0.0000000E+00   9.5186338E+00  -2.2460449E+01   0.0000000E+00   3.9240878E+00  -2.3713596E+01   0.0000000E+00   4.1318297E+00  -2.5184429E+01   0.0000000E+00   4.1553035E+00  -2.6902199E+01   0.0000000E+00   4.0503912E+00  -2.8825775E+01   0.0000000E+00   4.2428827E+00  -3.0941847E+01   0.0000000E+00   5.1209826E+00  -3.3252865E+01   0.0000000E+00   7.6280651E+00  -3.5751644E+01   0.0000000E+00   1.1073298E+01  -2.5195377E+01   0.0000000E+00   5.5697560E+00  -2.6558077E+01   0.0000000E+00   5.9973311E+00  -2.8044867E+01   0.0000000E+00   6.3248119E+00  -2.9994246E+01   0.0000000E+00   6.3009310E+00  -3.2602394E+01   0.0000000E+00   5.8732514E+00  -3.5458374E+01   0.0000000E+00   6.2226758E+00  -3.8564968E+01   0.0000000E+00   8.7573948E+00  -4.1994225E+01   0.0000000E+00   1.2650269E+01  -2.7900219E+01   0.0000000E+00   7.6307650E+00  -2.9371181E+01   0.0000000E+00   8.2537937E+00  -3.0980913E+01   0.0000000E+00   8.7343140E+00  -3.2970200E+01   0.0000000E+00   8.8829060E+00  -3.5593346E+01   0.0000000E+00   8.6902409E+00  -3.9622528E+01   0.0000000E+00   8.2465038E+00  -4.3768032E+01   0.0000000E+00   1.0033588E+01  -4.8271965E+01   0.0000000E+00   1.4171726E+01  -3.0445406E+01   0.0000000E+00   1.0058608E+01  -3.2021793E+01   0.0000000E+00   1.0928680E+01  -3.3764618E+01   0.0000000E+00   1.1513648E+01  -3.5826088E+01   0.0000000E+00   1.1775531E+01  -3.8586788E+01   0.0000000E+00   1.1534472E+01  -4.2383991E+01   0.0000000E+00   1.1213148E+01  -4.8166023E+01   0.0000000E+00   1.1708569E+01  -5.3919304E+01   0.0000000E+00   1.5233934E+01  -3.2597336E+01   0.0000000E+00   1.2852267E+01  -3.4336590E+01   0.0000000E+00   1.4070635E+01  -3.6198910E+01   0.0000000E+00   1.4824070E+01  -3.8401752E+01   0.0000000E+00   1.5116847E+01  -4.1339134E+01   0.0000000E+00   1.4627888E+01  -4.5708698E+01   0.0000000E+00   1.3305847E+01  -5.1974751E+01   0.0000000E+00   1.1822413E+01  -5.8765015E+01   0.0000000E+00   1.4950336E+01  -3.4182686E+01   0.0000000E+00   1.6257875E+01  -3.5784611E+01   0.0000000E+00   1.7921217E+01  -3.7544533E+01   0.0000000E+00   1.9187782E+01  -3.9562210E+01   0.0000000E+00   1.9994062E+01  -4.2451805E+01   0.0000000E+00   1.9842169E+01  -4.7325691E+01   0.0000000E+00   1.6958187E+01  -5.5077370E+01   0.0000000E+00   1.0138445E+01  -6.2070362E+01   0.0000000E+00   1.3350129E+01  -3.5258339E+01   0.0000000E+00   2.0760126E+01  -3.6913994E+01   0.0000000E+00   2.3232698E+01  -3.8594654E+01   0.0000000E+00   2.5526396E+01  -4.0377907E+01   0.0000000E+00   2.7518543E+01  -4.2438660E+01   0.0000000E+00   2.7921362E+01  -4.6668930E+01   0.0000000E+00   1.9886492E+01  -5.5739021E+01   0.0000000E+00   9.1318884E+00  -6.2748184E+01   0.0000000E+00   1.2689336E+01  -3.5164433E+01   0.0000000E+00   2.5624138E+01  -3.6862778E+01   0.0000000E+00   2.9040985E+01  -3.8660175E+01   0.0000000E+00   3.2265270E+01  -4.0211067E+01   0.0000000E+00   3.5260403E+01  -4.1276649E+01   0.0000000E+00   3.6217419E+01  -4.3712601E+01   0.0000000E+00   2.3581194E+01  -5.1101059E+01   0.0000000E+00   9.7798119E+00  -5.4102264E+01   0.0000000E+00   1.3688777E+01  -2.8649487E+01   0.0000000E+00   2.9270231E+01  -3.0339882E+01   0.0000000E+00   3.3254623E+01  -3.2089436E+01   0.0000000E+00   3.6976894E+01  -3.3702427E+01   0.0000000E+00   4.0505226E+01  -3.5039776E+01   0.0000000E+00   4.1939770E+01  -3.5633488E+01   0.0000000E+00   2.6536537E+01  -3.7110268E+01   0.0000000E+00   1.0496676E+01  -3.8143147E+01   0.0000000E+00   1.5206750E+01  -1.8373690E+01   0.0000000E+00   3.1246408E+01  -1.9527061E+01   0.0000000E+00   3.5355282E+01  -2.0672037E+01   0.0000000E+00   3.9025517E+01  -2.1688015E+01   0.0000000E+00   4.2224373E+01  -2.2459631E+01   0.0000000E+00   4.2989407E+01  -2.2569563E+01   0.0000000E+00   2.6577909E+01  -2.3093273E+01   0.0000000E+00   1.0887298E+01  -2.3580444E+01   0.0000000E+00   1.6511000E+01  -1.0199978E+01   0.0000000E+00   3.2478458E+01  -1.0845528E+01   0.0000000E+00   3.6581993E+01  -1.1439174E+01   0.0000000E+00   4.0100304E+01  -1.1908588E+01   0.0000000E+00   4.2934761E+01  -1.2193596E+01   0.0000000E+00   4.3205307E+01  -1.2090086E+01   0.0000000E+00   2.6346506E+01  -1.2163365E+01   0.0000000E+00   1.1302554E+01  -1.2250475E+01   0.0000000E+00   1.7842224E+01  -3.9861128E+00   0.0000000E+00   3.3080559E+01  -4.2152038E+00   0.0000000E+00   3.7125320E+01  -4.3826919E+00   0.0000000E+00   4.0495411E+01  -4.4575882E+00   0.0000000E+00   4.3077763E+01  -4.4257207E+00   0.0000000E+00   4.3033127E+01  -4.2037134E+00   0.0000000E+00   2.6247204E+01  -4.0860233E+00   0.0000000E+00   1.1731505E+01  -3.9790783E+00   0.0000000E+00   1.8922998E+01   1.0901488E+00   0.0000000E+00   3.3164925E+01   1.2048028E+00   0.0000000E+00   3.7139385E+01   1.3707571E+00   0.0000000E+00   4.0409527E+01   1.5847168E+00   0.0000000E+00   4.2887356E+01   1.8282967E+00   0.0000000E+00   4.2803734E+01   2.0982575E+00   0.0000000E+00   2.6413277E+01   2.3070030E+00   0.0000000E+00   1.2146561E+01   2.5076263E+00   0.0000000E+00   1.9575609E+01   5.8468099E+00   0.0000000E+00   3.2817417E+01   6.2644591E+00   0.0000000E+00   3.6723705E+01   6.7212758E+00   0.0000000E+00   3.9947155E+01   7.1841655E+00   0.0000000E+00   4.2450043E+01   7.6122184E+00   0.0000000E+00   4.2543591E+01   7.8750763E+00   0.0000000E+00   2.6618172E+01   8.2406263E+00   0.0000000E+00   1.2429620E+01   8.5880013E+00   0.0000000E+00   1.9633169E+01   1.0682754E+01   0.0000000E+00   3.2093674E+01   1.1386457E+01   0.0000000E+00   3.5920448E+01   1.2127151E+01   0.0000000E+00   3.9097836E+01   1.2845301E+01   0.0000000E+00   4.1621872E+01   1.3482076E+01   0.0000000E+00   4.1879143E+01   1.3637944E+01   0.0000000E+00   2.6605484E+01   1.4366528E+01   0.0000000E+00   1.2589814E+01   1.4963132E+01   0.0000000E+00   1.9437252E+01   1.5539007E+01   0.0000000E+00   3.1023832E+01   1.6518490E+01   0.0000000E+00   3.4744034E+01   1.7545742E+01   0.0000000E+00   3.7849327E+01   1.8536652E+01   0.0000000E+00   4.0351727E+01   1.9414902E+01   0.0000000E+00   4.0711491E+01   1.9262035E+01   0.0000000E+00   2.6019119E+01   2.0686165E+01   0.0000000E+00   1.2636445E+01   2.1540421E+01   0.0000000E+00   1.8988518E+01   2.0111345E+01   0.0000000E+00   2.9632565E+01   2.1348982E+01   0.0000000E+00   3.3207867E+01   2.2654079E+01   0.0000000E+00   3.6200199E+01   2.3920364E+01   0.0000000E+00   3.8626118E+01   2.5052620E+01   0.0000000E+00   3.9029797E+01   2.4593187E+01   0.0000000E+00   2.5069233E+01   2.6714432E+01   0.0000000E+00   1.2519453E+01   2.7921814E+01   0.0000000E+00   1.8366961E+01   2.4055208E+01   0.0000000E+00   2.7953863E+01   2.5522758E+01   0.0000000E+00   3.1342249E+01   2.7077452E+01   0.0000000E+00   3.4176876E+01   2.8596151E+01   0.0000000E+00   3.6473476E+01   2.9965813E+01   0.0000000E+00   3.6877735E+01   2.8955511E+01   0.0000000E+00   2.3690207E+01   3.2012058E+01   0.0000000E+00   1.2304195E+01   3.3725094E+01   0.0000000E+00   1.7984709E+01   2.6433163E+01   0.0000000E+00   2.6035648E+01   2.8274000E+01   0.0000000E+00   2.9208662E+01   3.0249208E+01   0.0000000E+00   3.1844517E+01   3.2200378E+01   0.0000000E+00   3.3963402E+01   3.3634090E+01   0.0000000E+00   3.4136696E+01   3.2284962E+01   0.0000000E+00   2.2028549E+01   3.6245869E+01   0.0000000E+00   1.2160145E+01   3.8364628E+01   0.0000000E+00   1.7404497E+01   2.6823112E+01   0.0000000E+00   2.3951565E+01   2.8795000E+01   0.0000000E+00   2.6896568E+01   3.1100281E+01   0.0000000E+00   2.9318352E+01   3.3740440E+01   0.0000000E+00   3.1220247E+01   3.6050121E+01   0.0000000E+00   3.1228432E+01   3.4855980E+01   0.0000000E+00   2.0577616E+01   3.8998791E+01   0.0000000E+00   1.1798161E+01   4.1541634E+01   0.0000000E+00   1.6588024E+01   2.6634380E+01   0.0000000E+00   2.1809057E+01   2.8630421E+01   0.0000000E+00   2.4495138E+01   3.0951050E+01   0.0000000E+00   2.6681744E+01   3.3746193E+01   0.0000000E+00   2.8364880E+01   3.6958908E+01   0.0000000E+00   2.8531336E+01   3.6909332E+01   0.0000000E+00   1.9387842E+01   4.1051353E+01   0.0000000E+00   1.1415174E+01   4.3788483E+01   0.0000000E+00   1.5670753E+01   2.6147398E+01   0.0000000E+00   1.9679356E+01   2.8158325E+01   0.0000000E+00   2.2134663E+01   3.0518538E+01   0.0000000E+00   2.4071962E+01   3.3431126E+01   0.0000000E+00   2.5515968E+01   3.6844845E+01   0.0000000E+00   2.5555395E+01   3.8622208E+01   0.0000000E+00   1.8432947E+01   4.2591084E+01   0.0000000E+00   1.0885746E+01   4.5665749E+01   0.0000000E+00   1.4634060E+01   2.5490612E+01   0.0000000E+00   1.7684252E+01   2.7527615E+01   0.0000000E+00   1.9873381E+01   2.9926767E+01   0.0000000E+00   2.1608580E+01   3.2852436E+01   0.0000000E+00   2.2762110E+01   3.6509216E+01   0.0000000E+00   2.2689571E+01   4.0045589E+01   0.0000000E+00   1.7540037E+01   4.4162910E+01   0.0000000E+00   1.0287917E+01   4.7545849E+01   0.0000000E+00   1.3336291E+01   2.4763330E+01   0.0000000E+00   1.5805923E+01   2.6829878E+01   0.0000000E+00   1.7770044E+01   2.9321550E+01   0.0000000E+00   1.9379475E+01   3.2272774E+01   0.0000000E+00   2.0343384E+01   3.6195850E+01   0.0000000E+00   2.0079067E+01   4.0977501E+01   0.0000000E+00   1.6229439E+01   4.5706524E+01   0.0000000E+00   9.2998962E+00   4.9996597E+01   0.0000000E+00   1.1784881E+01   2.3943079E+01   0.0000000E+00   1.4036222E+01   2.6067606E+01   0.0000000E+00   1.5827967E+01   2.8652328E+01   0.0000000E+00   1.7207783E+01   3.1799149E+01   0.0000000E+00   1.8174520E+01   3.5985535E+01   0.0000000E+00   1.7955738E+01   4.1394554E+01   0.0000000E+00   1.4605448E+01   4.7480347E+01   0.0000000E+00   9.3111963E+00   5.3783375E+01   0.0000000E+00   1.1274437E+01   2.3101585E+01   0.0000000E+00   1.2385597E+01   2.5290474E+01   0.0000000E+00   1.4003736E+01   2.7986105E+01   0.0000000E+00   1.5275709E+01   3.1593769E+01   0.0000000E+00   1.6193907E+01   3.6042427E+01   0.0000000E+00   1.6110340E+01   4.2133186E+01   0.0000000E+00   1.3468856E+01   4.8814224E+01   0.0000000E+00   1.0797069E+01   5.7227009E+01   0.0000000E+00   1.3700685E+01   2.2272291E+01   0.0000000E+00   1.0942659E+01   2.4532425E+01   0.0000000E+00   1.2339425E+01   2.7469778E+01   0.0000000E+00   1.3654044E+01   3.1425133E+01   0.0000000E+00   1.4606590E+01   3.6744820E+01   0.0000000E+00   1.4310164E+01   4.3617840E+01   0.0000000E+00   1.2080999E+01   5.1101658E+01   0.0000000E+00   1.1778003E+01   6.0816994E+01   0.0000000E+00   1.5213335E+01   2.1485710E+01   0.0000000E+00   9.5635204E+00   2.3931414E+01   0.0000000E+00   1.0884649E+01   2.7249363E+01   0.0000000E+00   1.2195596E+01   3.1936920E+01   0.0000000E+00   1.2929913E+01   3.8422451E+01   0.0000000E+00   1.1860119E+01   4.5403137E+01   0.0000000E+00   1.0854643E+01   5.3379410E+01   0.0000000E+00   1.2251704E+01   2.0884062E+01   0.0000000E+00   8.3225870E+00   2.3619711E+01   0.0000000E+00   9.5963631E+00   2.7504242E+01   0.0000000E+00   1.0731765E+01   3.3129894E+01   0.0000000E+00   1.0885665E+01   3.9970669E+01   0.0000000E+00   1.0266656E+01   4.7018860E+01   0.0000000E+00   1.0727845E+01   5.5158588E+01   0.0000000E+00   1.3220138E+01   2.0546574E+01   0.0000000E+00   7.2768836E+00   2.3656034E+01   0.0000000E+00   8.5011835E+00   2.8319132E+01   0.0000000E+00   9.3093939E+00   3.4642342E+01   0.0000000E+00   9.5719385E+00   4.1440575E+01   0.0000000E+00   9.8336582E+00   4.8603146E+01   0.0000000E+00   1.1384042E+01   2.0569490E+01   0.0000000E+00   6.5225391E+00   2.4313622E+01   0.0000000E+00   7.6430421E+00   2.9859871E+01   0.0000000E+00   8.4571981E+00   3.6380543E+01   0.0000000E+00   9.1300850E+00   4.3120682E+01   0.0000000E+00   1.0344440E+01   5.0001026E+01   0.0000000E+00   1.2421984E+01   2.1332621E+01   0.0000000E+00   6.1360822E+00   2.6117840E+01   0.0000000E+00   7.2625580E+00   3.1990162E+01   0.0000000E+00   8.3671236E+00   3.8379620E+01   0.0000000E+00   9.5594893E+00   4.4579147E+01   0.0000000E+00   1.1236654E+01   2.3289829E+01   0.0000000E+00   6.4228148E+00   2.8578802E+01   0.0000000E+00   7.6443043E+00   3.4177807E+01   0.0000000E+00   9.0009336E+00   4.0065910E+01   0.0000000E+00   1.0349723E+01   2.5913092E+01   0.0000000E+00   7.4071012E+00   3.0736053E+01   0.0000000E+00   8.7731543E+00   3.6096684E+01   0.0000000E+00   1.0008820E+01   4.0632572E+01   0.0000000E+00   1.0898819E+01   2.8114378E+01   0.0000000E+00   8.5689487E+00   3.2463406E+01   0.0000000E+00   9.5600100E+00   2.9488762E+01   0.0000000E+00   9.0671692E+00 
StrainDot 3 2975 float
  0.0000000E+00   0.0000000E+00   0.0000000E+00   0.0000000E+00   0.0000000E+00   0.0000000E+00   0.0000000E+00   0.0000000E+00   0.0000000E+00   0.0000000E+00   0.0000000E+00   0.0000000E+00   0.0000000E+00   0.0000000E+00   0.0000000E+00   0.0000000E+00   0.0000000E+00   0.0000000E+00   0.0000000E+00   0.0000000E+00   0.0000000E+00   0.0000000E+00   0.0000000E+00   0.0000000E+00   0.0000000E+00   0.0000000E+00   0.0000000E+00   0.0000000E+00   0.0000000E+00   0.0000000E+00   0.0000000E+00   0.0000000E+00   0.0000000E+00   0.0000000E+00   0.0000000E+00   0.0000000E+00   0.0000000E+00   0.0000000E+00   0.0000000E+00  -8.4016367E-09   0.0000000E+00  -2.2075488E-09  -1.6590732E-26   0.0000000E+00  -6.8488973E-27  -4.0459312E-08   0.0000000E+00  -1.6374520E-08  -2.9212782E-07   0.0000000E+00  -9.2732165E-08  -7.1436666E-08   0.0000000E+00  -3.5416715E-08  -5.2312561E-07   0.0000000E+00  -2.5116694E-07  -1.7809501E-06   0.0000000E+00  -6.5940316E-07  -5.7719512E-07   0.0000000E+00  -3.3689179E-07  -2.2404470E-06   0.0000000E+00  -1.2354506E-06  -5.8898358E-06   0.0000000E+00  -2.4800868E-06  -1.9921392E-06   0.0000000E+00  -1.3418236E-06  -6.0177576E-06   0.0000000E+00  -3.7768273E-06  -1.3997064E-05   0.0000000E+00  -6.6588441E-06  -4.5800530E-06   0.0000000E+00  -3.5636394E-06  -1.2250767E-05   0.0000000E+00  -8.7726630E-06  -2.6732268E-05   0.0000000E+00  -1.4415449E-05  -8.2259266E-06   0.0000000E+00  -7.4185414E-06  -2.0715348E-05   0.0000000E+00  -1.6955502E-05  -4.3754109E-05   0.0000000E+00  -2.6773771E-05  -1.2568365E-05   0.0000000E+00  -1.3091380E-05  -3.0838892E-05   0.0000000E+00  -2.8682827E-05  -6.4186177E-05   0.0000000E+00  -4.4263037E-05  -1.7358074E-05   0.0000000E+00  -2.0543865E-05  -4.2340511E-05   0.0000000E+00  -4.3948927E-05  -8.7728004E-05   0.0000000E+00  -6.6882829E-05  -2.2811419E-05   0.0000000E+00  -2.9704002E-05  -5.5875436E-05   0.0000000E+00  -6.2723877E-05  -1.1584708E-04   0.0000000E+00  -9.4588620E-05  -2.9811457E-05   0.0000000E+00  -4.0741386E-05  -7.3402109E-05   0.0000000E+00  -8.5460983E-05  -1.5230713E-04   0.0000000E+00  -1.2809555E-04  -4.0118772E-05   0.0000000E+00  -5.4284395E-05  -9.8864570E-05   0.0000000E+00  -1.1350813E-04  -2.0457641E-04   0.0000000E+00  -1.6953424E-04  -5.6966379E-05   0.0000000E+00  -7.1699316E-05  -1.3954139E-04   0.0000000E+00  -1.4975916E-04  -2.8630384E-04   0.0000000E+00  -2.2339758E-04  -8.6099077E-05   0.0000000E+00  -9.6031370E-05  -2.0808309E-04   0.0000000E+00  -2.0040973E-04  -4.2066429E-04   0.0000000E+00  -2.9878359E-04  -1.3789615E-04   0.0000000E+00  -1.3479516E-04  -3.2571808E-04   0.0000000E+00  -2.7859645E-04  -6.4450194E-04   0.0000000E+00  -4.1325635E-04  -2.2921900E-04   0.0000000E+00  -2.0646008E-04  -5.2066485E-04   0.0000000E+00  -4.1068325E-04  -1.0019682E-03   0.0000000E+00  -5.9840496E-04  -3.7767249E-04   0.0000000E+00  -3.5459053E-04  -8.0704648E-04   0.0000000E+00  -6.4689340E-04  -1.5063725E-03   0.0000000E+00  -9.0730283E-04  -1.1639323E-03   0.0000000E+00  -1.0725803E-03  -2.1119623E-03   0.0000000E+00  -1.4211279E-03   0.0000000E+00   0.0000000E+00   0.0000000E+00   0.0000000E+00   0.0000000E+00   0.0000000E+00   0.0000000E+00   0.0000000E+00   0.0000000E+00   0.0000000E+00   0.0000000E+00   0.0000000E+00   0.0000000E+00   0.0000000E+00   0.0000000E+00   0.0000000E+00   0.0000000E+00   0.0000000E+00   0.0000000E+00   0.0000000E+00   0.0000000E+00   0.0000000E+00   0.0000000E+00   0.0000000E+00   0.0000000E+00   0.0000000E+00   0.0000000E+00   0.0000000E+00   0.0000000E+00   0.0000000E+00   0.0000000E+00   0.0000000E+00   0.0000000E+00   0.0000000E+00   0.0000000E+00   0.0000000E+00   0.0000000E+00   0.0000000E+00   0.0000000E+00   0.0000000E+00   0.0000000E+00   0.0000000E+00   0.0000000E+00   0.0000000E+00   0.0000000E+00   0.0000000E+00   0.0000000E+00   0.0000000E+00   0.0000000E+00   0.0000000E+00   0.0000000E+00   0.0000000E+00   0.0000000E+00   0.0000000E+00   0.0000000E+00   0.0000000E+00   0.0000000E+00   0.0000000E+00   0.0000000E+00   0.0000000E+00   0.0000000E+00   0.0000000E+00   0.0000000E+00   0.0000000E+00   0.0000000E+00   0.0000000E+00   0.0000000E+00   0.0000000E+00   0.0000000E+00   0.0000000E+00   0.0000000E+00   0.0000000E+00   0.0000000E+00   0.0000000E+00   0.0000000E+00  -1.7546709E-09   0.0000000E+00  -1.4963517E-10  -1.1591583E-08   0.0000000E+00  -5.0579069E-10  -2.8030044E-08   0.0000000E+00  -4.5876011E-10  -4.2254907E-08   0.0000000E+00  -5.8926856E-11  -4.9898020E-08   0.0000000E+00   1.0296607E-10  -5.5082683E-08   0.0000000E+00   1.2081967E-10  -5.9196395E-08   0.0000000E+00   1.2572596E-10  -7.7487982E-08   0.0000000E+00  -1.3995914E-08  -2.6675644E-07   0.0000000E+00  -3.0334874E-08  -5.9167968E-07   0.0000000E+00  -3.9400650E-08  -1.0051181E-06   0.0000000E+00  -3.4426400E-08  -1.4207620E-06   0.0000000E+00  -1.7571352E-08  -1.7628237E-06   0.0000000E+00   1.6262123E-09  -2.0021528E-06   0.0000000E+00   1.2848308E-08  -2.1634983E-06   0.0000000E+00   1.5113489E-08  -9.4694144E-07   0.0000000E+00  -2.0411166E-07  -2.1392254E-06   0.0000000E+00  -2.9108062E-07  -3.8561680E-06   0.0000000E+00  -3.1268362E-07  -5.8979599E-06   0.0000000E+00  -2.5667654E-07  -7.9477359E-06   0.0000000E+00  -1.4104712E-07  -9.7257889E-06   0.0000000E+00  -1.0576620E-08  -1.1104540E-05   0.0000000E+00   8.7416517E-08  -1.2105517E-05   0.0000000E+00   1.3461973E-07  -4.2680867E-06   0.0000000E+00  -1.0646489E-06  -8.2557481E-06   0.0000000E+00  -1.2983805E-06  -1.3648562E-05   0.0000000E+00  -1.2849308E-06  -1.9881516E-05   0.0000000E+00  -1.0155923E-06  -2.6102281E-05   0.0000000E+00  -5.5616044E-07  -3.1577667E-05   0.0000000E+00  -5.1589485E-08  -3.5959143E-05   0.0000000E+00   3.4359616E-07  -3.9262512E-05   0.0000000E+00   5.6375535E-07  -1.2379934E-05   0.0000000E+00  -3.4930281E-06  -2.2237404E-05   0.0000000E+00  -3.9485512E-06  -3.5179666E-05   0.0000000E+00  -3.7421087E-06  -4.9895858E-05   0.0000000E+00  -2.8855129E-06  -6.4497726E-05   0.0000000E+00  -1.5554641E-06  -7.7392433E-05   0.0000000E+00  -1.2343233E-07  -8.7828004E-05   0.0000000E+00   1.0128407E-06  -9.5816649E-05   0.0000000E+00   1.6754108E-06  -2.7503900E-05   0.0000000E+00  -8.7340586E-06  -4.7478716E-05   0.0000000E+00  -9.4733687E-06  -7.3297226E-05   0.0000000E+00  -8.7507206E-06  -1.0235969E-04   0.0000000E+00  -6.6215857E-06  -1.3099119E-04   0.0000000E+00  -3.4911311E-06  -1.5619640E-04   0.0000000E+00  -1.8420296E-07  -1.7663493E-04   0.0000000E+00   2.4396827E-06  -1.9236165E-04   0.0000000E+00   3.9974720E-06  -5.0659113E-05   0.0000000E+00  -1.8177740E-05  -8.5587541E-05   0.0000000E+00  -1.9262645E-05  -1.3035978E-04   0.0000000E+00  -1.7504208E-05  -1.8034298E-04   0.0000000E+00  -1.3015495E-05  -2.2910409E-04   0.0000000E+00  -6.6574194E-06  -2.7170617E-04   0.0000000E+00  -9.5442296E-08  -3.0613982E-04   0.0000000E+00   5.0596382E-06  -3.3261755E-04   0.0000000E+00   8.1303560E-06  -8.1380953E-05   0.0000000E+00  -3.3028202E-05  -1.3592390E-04   0.0000000E+00  -3.4532437E-05  -2.0533804E-04   0.0000000E+00  -3.0998770E-05  -2.8209222E-04   0.0000000E+00  -2.2604390E-05  -3.5600358E-04   0.0000000E+00  -1.1106847E-05  -4.1997890E-04   0.0000000E+00   4.0698615E-07  -4.7138482E-04   0.0000000E+00   9.3098834E-06  -5.1071774E-04   0.0000000E+00   1.4585594E-05  -1.1830169E-04   0.0000000E+00  -5.3924708E-05  -1.9631349E-04   0.0000000E+00  -5.5890592E-05  -2.9450937E-04   0.0000000E+00  -4.9463182E-05  -1.6099746E-04   0.0000000E+00  -8.0786238E-05  -2.6588768E-04   0.0000000E+00  -8.3105522E-05  -2.1226831E-04   0.0000000E+00  -1.1339482E-04  -3.4946823E-04   0.0000000E+00  -1.1564907E-04  -2.7867794E-04   0.0000000E+00  -1.5257846E-04  -4.5771623E-04   0.0000000E+00  -1.5439882E-04  -3.7241730E-04   0.0000000E+00  -2.0096608E-04  -6.0786301E-04   0.0000000E+00  -2.0199636E-04  -5.1540049E-04   0.0000000E+00  -2.6398600E-04  -8.3017437E-04   0.0000000E+00  -2.6369060E-04  -7.4385211E-04   0.0000000E+00  -3.5223746E-04  -1.1730662E-03   0.0000000E+00  -3.4950834E-04  -1.1132183E-03   0.0000000E+00  -4.8564488E-04  -1.7072471E-03   0.0000000E+00  -4.7825093E-04  -1.6887661E-03   0.0000000E+00  -6.9978234E-04  -2.5148629E-03   0.0000000E+00  -6.8432128E-04  -2.4952991E-03   0.0000000E+00  -1.0534941E-03  -3.6392498E-03   0.0000000E+00  -1.0269067E-03  -3.4704374E-03   0.0000000E+00  -1.6315035E-03  -5.0289906E-03   0.0000000E+00  -1.5929476E-03   0.0000000E+00   0.0000000E+00   0.0000000E+00   0.0000000E+00   0.0000000E+00   0.0000000E+00   0.0000000E+00   0.0000000E+00   0.0000000E+00   0.0000000E+00   0.0000000E+00   0.0000000E+00   0.0000000E+00   0.0000000E+00   0.0000000E+00   0.0000000E+00   0.0000000E+00   0.0000000E+00   0.0000000E+00   0.0000000E+00   0.0000000E+00   0.0000000E+00   0.0000000E+00   0.0000000E+00   0.0000000E+00   0.0000000E+00   0.0000000E+00   0.0000000E+00   0.0000000E+00   0.0000000E+00   0.0000000E+00   0.0000000E+00   0.0000000E+00   0.0000000E+00   0.0000000E+00   0.0000000E+00   0.0000000E+00   0.0000000E+00   0.0000000E+00   0.0000000E+00   0.0000000E+00   0.0000000E+00   0.0000000E+00   0.0000000E+00   0.0000000E+00   0.0000000E+00   0.0000000E+00   0.0000000E+00   0.0000000E+00   0.0000000E+00   0.0000000E+00   0.0000000E+00   0.0000000E+00   0.0000000E+00   0.0000000E+00   0.0000000E+00   0.0000000E+00   0.0000000E+00   0.0000000E+00   0.0000000E+00   0.0000000E+00   0.0000000E+00   0.0000000E+00   0.0000000E+00   0.0000000E+00   0.0000000E+00   0.0000000E+00   0.0000000E+00   0.0000000E+00   0.0000000E+00   0.0000000E+00   0.0000000E+00   0.0000000E+00   0.0000000E+00   0.0000000E+00   0.0000000E+00   0.0000000E+00   0.0000000E+00   0.0000000E+00   0.0000000E+00   0.0000000E+00  -6.2388814E-08   0.0000000E+00   1.2109275E-10  -6.4815580E-08   0.0000000E+00   1.1068382E-10  -6.6628395E-08   0.0000000E+00   9.8849984E-11  -6.7963597E-08   0.0000000E+00   8.7921018E-11  -6.8933389E-08   0.0000000E+00   7.7993723E-11  -6.9623965E-08   0.0000000E+00   6.9579627E-11  -7.0100761E-08   0.0000000E+00   6.2618237E-11  -7.0410778E-08   0.0000000E+00   5.7062494E-11  -7.0585017E-08   0.0000000E+00   5.3555067E-11  -2.2856616E-06   0.0000000E+00   1.4833678E-08  -2.3793702E-06   0.0000000E+00   1.3839406E-08  -2.4499711E-06   0.0000000E+00   1.2529512E-08  -2.5022944E-06   0.0000000E+00   1.1189177E-08  -2.5404420E-06   0.0000000E+00   9.9634265E-09  -2.5676984E-06   0.0000000E+00   8.9036103E-09  -2.5865647E-06   0.0000000E+00   8.0285512E-09  -2.5988443E-06   0.0000000E+00   7.3664310E-09  -2.6057505E-06   0.0000000E+00   6.9481740E-09  -1.2823029E-05   0.0000000E+00   1.4123616E-07  -1.3361707E-05   0.0000000E+00   1.3358759E-07  -1.3768394E-05   0.0000000E+00   1.2220048E-07  -1.4070258E-05   0.0000000E+00   1.0983204E-07  -1.4290503E-05   0.0000000E+00   9.8121284E-08  -1.4447853E-05   0.0000000E+00   8.7869587E-08  -1.4556705E-05   0.0000000E+00   7.9452185E-08  -1.4627504E-05   0.0000000E+00   7.3136157E-08  -1.4667286E-05   0.0000000E+00   6.9193753E-08  -4.1689036E-05   0.0000000E+00   6.3310881E-07  -4.3474785E-05   0.0000000E+00   6.1353620E-07  -4.4811732E-05   0.0000000E+00   5.6605808E-07  -4.5803168E-05   0.0000000E+00   5.1169781E-07  -4.6525583E-05   0.0000000E+00   4.5876169E-07  -4.7040874E-05   0.0000000E+00   4.1180772E-07  -4.7396716E-05   0.0000000E+00   3.7317238E-07  -4.7627778E-05   0.0000000E+00   3.4430838E-07  -4.7757465E-05   0.0000000E+00   3.2639483E-07  -1.0176923E-04   0.0000000E+00   1.9213217E-06  -1.0617211E-04   0.0000000E+00   1.9064912E-06  -1.0943275E-04   0.0000000E+00   1.7734166E-06  -1.1184137E-04   0.0000000E+00   1.6109880E-06  -1.1359101E-04   0.0000000E+00   1.4490240E-06  -1.1483511E-04   0.0000000E+00   1.3036220E-06  -1.1569163E-04   0.0000000E+00   1.1834920E-06  -1.1624638E-04   0.0000000E+00   1.0938189E-06  -1.1655713E-04   0.0000000E+00   1.0383112E-06  -2.0414345E-04   0.0000000E+00   4.6074997E-06  -2.1288793E-04   0.0000000E+00   4.6160403E-06  -2.1934290E-04   0.0000000E+00   4.3296814E-06  -2.2407807E-04   0.0000000E+00   3.9485471E-06  -2.2750015E-04   0.0000000E+00   3.5612388E-06  -2.2992158E-04   0.0000000E+00   3.2099638E-06  -2.3158110E-04   0.0000000E+00   2.9184862E-06  -2.3265180E-04   0.0000000E+00   2.7007338E-06  -2.3325003E-04   0.0000000E+00   2.5660488E-06  -3.5244698E-04   0.0000000E+00   9.3532817E-06  -3.6714706E-04   0.0000000E+00   9.3926374E-06  -3.7796531E-04   0.0000000E+00   8.8512888E-06  -3.8584106E-04   0.0000000E+00   8.0951031E-06  -3.9148986E-04   0.0000000E+00   7.3157803E-06  -3.9545796E-04   0.0000000E+00   6.6034695E-06  -3.9815964E-04   0.0000000E+00   6.0101615E-06  -3.9989286E-04   0.0000000E+00   5.5663349E-06  -4.0085736E-04   0.0000000E+00   5.2918062E-06  -5.4001727E-04   0.0000000E+00   1.6680582E-05  -5.6160986E-04   0.0000000E+00   1.6731743E-05  -5.7739567E-04   0.0000000E+00   1.5790129E-05  -5.8877957E-04   0.0000000E+00   1.4468294E-05  -5.9685577E-04   0.0000000E+00   1.3092466E-05  -6.0246879E-04   0.0000000E+00   1.1828114E-05  -6.0625264E-04   0.0000000E+00   1.0771812E-05  -6.0865970E-04   0.0000000E+00   9.9805748E-06  -6.0999079E-04   0.0000000E+00   9.4910083E-06   0.0000000E+00   0.0000000E+00   0.0000000E+00   0.0000000E+00   0.0000000E+00   0.0000000E+00   0.0000000E+00   0.0000000E+00   0.0000000E+00   0.0000000E+00   0.0000000E+00   0.0000000E+00   0.0000000E+00   0.0000000E+00   0.0000000E+00   0.0000000E+00   0.0000000E+00   0.0000000E+00   0.0000000E+00   0.0000000E+00   0.0000000E+00   0.0000000E+00   0.0000000E+00   0.0000000E+00   0.0000000E+00   0.0000000E+00   0.0000000E+00   0.0000000E+00   0.0000000E+00   0.0000000E+00   0.0000000E+00   0.0000000E+00   0.0000000E+00   0.0000000E+00   0.0000000E+00   0.0000000E+00   0.0000000E+00   0.0000000E+00   0.0000000E+00   0.0000000E+00   0.0000000E+00   0.0000000E+00   0.0000000E+00   0.0000000E+00   0.0000000E+00   0.0000000E+00   0.0000000E+00   0.0000000E+00   0.0000000E+00   0.0000000E+00   0.0000000E+00   0.0000000E+00   0.0000000E+00   0.0000000E+00   0.0000000E+00   0.0000000E+00   0.0000000E+00   0.0000000E+00   0.0000000E+00   0.0000000E+00   0.0000000E+00   0.0000000E+00   0.0000000E+00   0.0000000E+00   0.0000000E+00   0.0000000E+00   0.0000000E+00   0.0000000E+00   0.0000000E+00   0.0000000E+00   0.0000000E+00   0.0000000E+00  -7.0641192E-08   0.0000000E+00   5.2404043E-11  -7.0585031E-08   0.0000000E+00   5.3554938E-11  -7.0410792E-08   0.0000000E+00   5.7062445E-11  -7.0100768E-08   0.0000000E+00   6.2618320E-11  -6.9623965E-08   0.0000000E+00   6.9579724E-11  -6.8933396E-08   0.0000000E+00   7.7993903E-11  -6.7963597E-08   0.0000000E+00   8.7921309E-11  -6.6628374E-08   0.0000000E+00   9.8850039E-11  -2.6079774E-06   0.0000000E+00   6.8040125E-09  -2.6057508E-06   0.0000000E+00   6.9481709E-09  -2.5988440E-06   0.0000000E+00   7.3664306E-09  -2.5865647E-06   0.0000000E+00   8.0285547E-09  -2.5676986E-06   0.0000000E+00   8.9036245E-09  -2.5404420E-06   0.0000000E+00   9.9634461E-09  -2.5022941E-06   0.0000000E+00   1.1189192E-08  -2.4499711E-06   0.0000000E+00   1.2529519E-08  -1.4680106E-05   0.0000000E+00   6.7849768E-08  -1.4667281E-05   0.0000000E+00   6.9193746E-08  -1.4627502E-05   0.0000000E+00   7.3136142E-08  -1.4556700E-05   0.0000000E+00   7.9452249E-08  -1.4447854E-05   0.0000000E+00   8.7869708E-08  -1.4290506E-05   0.0000000E+00   9.8121419E-08  -1.4070264E-05   0.0000000E+00   1.0983216E-07  -1.3768393E-05   0.0000000E+00   1.2220053E-07  -4.7799225E-05   0.0000000E+00   3.2031534E-07  -4.7757472E-05   0.0000000E+00   3.2639485E-07  -4.7627778E-05   0.0000000E+00   3.4430843E-07  -4.7396723E-05   0.0000000E+00   3.7317253E-07  -4.7040881E-05   0.0000000E+00   4.1180817E-07  -4.6525580E-05   0.0000000E+00   4.5876212E-07  -4.5803175E-05   0.0000000E+00   5.1169815E-07  -4.4811735E-05   0.0000000E+00   5.6605836E-07  -1.1665715E-04   0.0000000E+00   1.0195023E-06  -1.1655713E-04   0.0000000E+00   1.0383112E-06  -1.1624643E-04   0.0000000E+00   1.0938195E-06  -1.1569163E-04   0.0000000E+00   1.1834924E-06  -1.1483511E-04   0.0000000E+00   1.3036229E-06  -1.1359101E-04   0.0000000E+00   1.4490255E-06  -1.1184138E-04   0.0000000E+00   1.6109886E-06  -1.0943272E-04   0.0000000E+00   1.7734172E-06  -2.3344228E-04   0.0000000E+00   2.5204326E-06  -2.3325012E-04   0.0000000E+00   2.5660490E-06  -2.3265187E-04   0.0000000E+00   2.7007341E-06  -2.3158104E-04   0.0000000E+00   2.9184873E-06  -2.2992160E-04   0.0000000E+00   3.2099656E-06  -2.2750015E-04   0.0000000E+00   3.5612406E-06  -2.2407807E-04   0.0000000E+00   3.9485494E-06  -2.1934288E-04   0.0000000E+00   4.3296836E-06  -4.0116653E-04   0.0000000E+00   5.1988491E-06  -4.0085748E-04   0.0000000E+00   5.2918058E-06  -3.9989295E-04   0.0000000E+00   5.5663354E-06  -3.9815964E-04   0.0000000E+00   6.0101634E-06  -3.9545805E-04   0.0000000E+00   6.6034740E-06  -3.9148983E-04   0.0000000E+00   7.3157858E-06  -3.8584103E-04   0.0000000E+00   8.0951077E-06  -3.7796536E-04   0.0000000E+00   8.8512925E-06  -6.1041623E-04   0.0000000E+00   9.3252602E-06  -6.0999085E-04   0.0000000E+00   9.4910047E-06  -6.0865976E-04   0.0000000E+00   9.9805775E-06  -6.0625258E-04   0.0000000E+00   1.0771822E-05  -6.0246879E-04   0.0000000E+00   1.1828115E-05  -5.9685583E-04   0.0000000E+00   1.3092465E-05  -5.8877957E-04   0.0000000E+00   1.4468301E-05  -5.7739596E-04   0.0000000E+00   1.5790134E-05   0.0000000E+00   0.0000000E+00   0.0000000E+00   0.0000000E+00   0.0000000E+00   0.0000000E+00   0.0000000E+00   0.0000000E+00   0.0000000E+00   0.0000000E+00   0.0000000E+00   0.0000000E+00   0.0000000E+00   0.0000000E+00   0.0000000E+00   0.0000000E+00   0.0000000E+00   0.0000000E+00   0.0000000E+00   0.0000000E+00   0.0000000E+00   0.0000000E+00   0.0000000E+00   0.0000000E+00   0.0000000E+00   0.0000000E+00   0.0000000E+00   0.0000000E+00   0.0000000E+00   0.0000000E+00   0.0000000E+00   0.0000000E+00   0.0000000E+00   0.0000000E+00   0.0000000E+00   0.0000000E+00   0.0000000E+00   0.0000000E+00   0.0000000E+00   0.0000000E+00   0.0000000E+00   0.0000000E+00   0.0000000E+00   0.0000000E+00   0.0000000E+00   0.0000000E+00   0.0000000E+00   0.0000000E+00   0.0000000E+00   0.0000000E+00   0.0000000E+00   0.0000000E+00   0.0000000E+00   0.0000000E+00   0.0000000E+00   0.0000000E+00   0.0000000E+00   0.0000000E+00   0.0000000E+00   0.0000000E+00   0.0000000E+00   0.0000000E+00   0.0000000E+00   0.0000000E+00   0.0000000E+00   0.0000000E+00   0.0000000E+00   0.0000000E+00   0.0000000E+00   0.0000000E+00   0.0000000E+00   0.0000000E+00   0.0000000E+00   0.0000000E+00   0.0000000E+00   0.0000000E+00   0.0000000E+00   0.0000000E+00   0.0000000E+00   0.0000000E+00   0.0000000E+00  -6.4815559E-08   0.0000000E+00   1.1068366E-10  -6.2388814E-08   0.0000000E+00   1.2109264E-10  -5.9196427E-08   0.0000000E+00   1.2572578E-10  -5.5082687E-08   0.0000000E+00   1.2081963E-10  -4.9898016E-08   0.0000000E+00   1.0296614E-10  -4.2254918E-08   0.0000000E+00  -5.8926808E-11  -2.8030046E-08   0.0000000E+00  -4.5876020E-10  -1.1591585E-08   0.0000000E+00  -5.0579069E-10  -1.7546714E-09   0.0000000E+00  -1.4963517E-10  -2.3793702E-06   0.0000000E+00   1.3839399E-08  -2.2856620E-06   0.0000000E+00   1.4833661E-08  -2.1634983E-06   0.0000000E+00   1.5113475E-08  -2.0021530E-06   0.0000000E+00   1.2848308E-08  -1.7628237E-06   0.0000000E+00   1.6262172E-09  -1.4207619E-06   0.0000000E+00  -1.7571349E-08  -1.0051182E-06   0.0000000E+00  -3.4426407E-08  -5.9167991E-07   0.0000000E+00  -3.9400650E-08  -2.6675644E-07   0.0000000E+00  -3.0334874E-08  -1.3361706E-05   0.0000000E+00   1.3358753E-07  -1.2823030E-05   0.0000000E+00   1.4123609E-07  -1.2105520E-05   0.0000000E+00   1.3461963E-07  -1.1104538E-05   0.0000000E+00   8.7416517E-08  -9.7257871E-06   0.0000000E+00  -1.0576598E-08  -7.9477350E-06   0.0000000E+00  -1.4104710E-07  -5.8979613E-06   0.0000000E+00  -2.5667660E-07  -3.8561680E-06   0.0000000E+00  -3.1268365E-07  -2.1392261E-06   0.0000000E+00  -2.9108065E-07  -4.3474789E-05   0.0000000E+00   6.1353614E-07  -4.1689029E-05   0.0000000E+00   6.3310875E-07  -3.9262512E-05   0.0000000E+00   5.6375507E-07  -3.5959136E-05   0.0000000E+00   3.4359621E-07  -3.1577667E-05   0.0000000E+00  -5.1589513E-08  -2.6102278E-05   0.0000000E+00  -5.5616050E-07  -1.9881518E-05   0.0000000E+00  -1.0155923E-06  -1.3648566E-05   0.0000000E+00  -1.2849308E-06  -8.2557499E-06   0.0000000E+00  -1.2983807E-06  -1.0617211E-04   0.0000000E+00   1.9064915E-06  -1.0176924E-04   0.0000000E+00   1.9213221E-06  -9.5816664E-05   0.0000000E+00   1.6754108E-06  -8.7828004E-05   0.0000000E+00   1.0128415E-06  -7.7392426E-05   0.0000000E+00  -1.2343214E-07  -6.4497726E-05   0.0000000E+00  -1.5554640E-06  -4.9895865E-05   0.0000000E+00  -2.8855136E-06  -3.5179673E-05   0.0000000E+00  -3.7421075E-06  -2.2237409E-05   0.0000000E+00  -3.9485503E-06  -2.1288784E-04   0.0000000E+00   4.6160403E-06  -2.0414349E-04   0.0000000E+00   4.6074992E-06  -1.9236169E-04   0.0000000E+00   3.9974730E-06  -1.7663496E-04   0.0000000E+00   2.4396832E-06  -1.5619639E-04   0.0000000E+00  -1.8420246E-07  -1.3099123E-04   0.0000000E+00  -3.4911316E-06  -1.0235969E-04   0.0000000E+00  -6.6215875E-06  -7.3297226E-05   0.0000000E+00  -8.7507224E-06  -4.7478730E-05   0.0000000E+00  -9.4733678E-06  -3.6714709E-04   0.0000000E+00   9.3926365E-06  -3.5244680E-04   0.0000000E+00   9.3532863E-06  -3.3261755E-04   0.0000000E+00   8.1303588E-06  -3.0613990E-04   0.0000000E+00   5.0596454E-06  -2.7170614E-04   0.0000000E+00  -9.5440278E-08  -2.2910409E-04   0.0000000E+00  -6.6574203E-06  -1.8034293E-04   0.0000000E+00  -1.3015499E-05  -1.3035980E-04   0.0000000E+00  -1.7504210E-05  -8.5587562E-05   0.0000000E+00  -1.9262643E-05  -5.6161010E-04   0.0000000E+00   1.6731750E-05  -5.4001715E-04   0.0000000E+00   1.6680588E-05  -5.1071768E-04   0.0000000E+00   1.4585600E-05  -4.7138488E-04   0.0000000E+00   9.3098924E-06  -4.1997895E-04   0.0000000E+00   4.0699118E-07  -3.5600367E-04   0.0000000E+00  -1.1106847E-05  -2.8209234E-04   0.0000000E+00  -2.2604396E-05  -2.0533809E-04   0.0000000E+00  -3.0998777E-05  -1.3592391E-04   0.0000000E+00  -3.4532426E-05  -2.9450943E-04   0.0000000E+00  -4.9463197E-05  -1.9631349E-04   0.0000000E+00  -5.5890585E-05  -2.6588773E-04   0.0000000E+00  -8.3105551E-05  -3.4946829E-04   0.0000000E+00  -1.1564910E-04  -4.5771626E-04   0.0000000E+00  -1.5439882E-04  -6.0786313E-04   0.0000000E+00  -2.0199637E-04  -8.3017431E-04   0.0000000E+00  -2.6369074E-04  -1.1730662E-03   0.0000000E+00  -3.4950834E-04  -1.7072469E-03   0.0000000E+00  -4.7825102E-04  -2.5148636E-03   0.0000000E+00  -6.8432145E-04  -3.6392512E-03   0.0000000E+00  -1.0269064E-03  -5.0289943E-03   0.0000000E+00  -1.5929481E-03   0.0000000E+00   0.0000000E+00   0.0000000E+00   0.0000000E+00   0.0000000E+00   0.0000000E+00   0.0000000E+00   0.0000000E+00   0.0000000E+00   0.0000000E+00   0.0000000E+00   0.0000000E+00   0.0000000E+00   0.0000000E+00   0.0000000E+00   0.0000000E+00   0.0000000E+00   0.0000000E+00   0.0000000E+00   0.0000000E+00   0.0000000E+00   0.0000000E+00   0.0000000E+00   0.0000000E+00   0.0000000E+00   0.0000000E+00   0.0000000E+00   0.0000000E+00   0.0000000E+00   0.0000000E+00   0.0000000E+00   0.0000000E+00   0.0000000E+00   0.0000000E+00   0.0000000E+00   0.0000000E+00   0.0000000E+00   0.0000000E+00   0.0000000E+00   0.0000000E+00   0.0000000E+00   0.0000000E+00   0.0000000E+00   0.0000000E+00   0.0000000E+00  -7.7487996E-08   0.0000000E+00  -1.3995912E-08  -8.4016394E-09   0.0000000E+00  -2.2075486E-09   0.0000000E+00   0.0000000E+00   0.0000000E+00   0.0000000E+00   0.0000000E+00   0.0000000E+00  -9.4694150E-07   0.0000000E+00  -2.0411164E-07  -2.9212794E-07   0.0000000E+00  -9.2732151E-08  -4.0459327E-08   0.0000000E+00  -1.6374520E-08  -1.6590732E-26   0.0000000E+00  -6.8488965E-27  -4.2680886E-06   0.0000000E+00  -1.0646488E-06  -1.7809505E-06   0.0000000E+00  -6.5940327E-07  -5.2312572E-07   0.0000000E+00  -2.5116694E-07  -7.1436681E-08   0.0000000E+00  -3.5416715E-08  -1.2379936E-05   0.0000000E+00  -3.4930276E-06  -5.8898363E-06   0.0000000E+00  -2.4800866E-06  -2.2404472E-06   0.0000000E+00  -1.2354506E-06  -5.7719535E-07   0.0000000E+00  -3.3689184E-07  -2.7503907E-05   0.0000000E+00  -8.7340595E-06  -1.3997066E-05   0.0000000E+00  -6.6588459E-06  -6.0177581E-06   0.0000000E+00  -3.7768264E-06  -1.9921401E-06   0.0000000E+00  -1.3418236E-06  -5.0659120E-05   0.0000000E+00  -1.8177736E-05  -2.6732274E-05   0.0000000E+00  -1.4415454E-05  -1.2250770E-05   0.0000000E+00  -8.7726648E-06  -4.5800562E-06   0.0000000E+00  -3.5636399E-06  -8.1380975E-05   0.0000000E+00  -3.3028206E-05  -4.3754124E-05   0.0000000E+00  -2.6773772E-05  -2.0715344E-05   0.0000000E+00  -1.6955502E-05  -8.2259294E-06   0.0000000E+00  -7.4185427E-06  -1.1830173E-04   0.0000000E+00  -5.3924723E-05  -6.4186199E-05   0.0000000E+00  -4.4263052E-05  -3.0838892E-05   0.0000000E+00  -2.8682824E-05  -1.2568370E-05   0.0000000E+00  -1.3091382E-05  -1.6099753E-04   0.0000000E+00  -8.0786260E-05  -8.7728011E-05   0.0000000E+00  -6.6882843E-05  -4.2340500E-05   0.0000000E+00  -4.3948923E-05  -1.7358077E-05   0.0000000E+00  -2.0543865E-05  -2.1226829E-04   0.0000000E+00  -1.1339483E-04  -1.1584708E-04   0.0000000E+00  -9.4588657E-05  -5.5875429E-05   0.0000000E+00  -6.2723877E-05  -2.2811424E-05   0.0000000E+00  -2.9704008E-05  -2.7867794E-04   0.0000000E+00  -1.5257846E-04  -1.5230716E-04   0.0000000E+00  -1.2809558E-04  -7.3402094E-05   0.0000000E+00  -8.5460983E-05  -2.9811459E-05   0.0000000E+00  -4.0741390E-05  -3.7241739E-04   0.0000000E+00  -2.0096615E-04  -2.0457643E-04   0.0000000E+00  -1.6953425E-04  -9.8864541E-05   0.0000000E+00  -1.1350811E-04  -4.0118772E-05   0.0000000E+00  -5.4284403E-05  -5.1540049E-04   0.0000000E+00  -2.6398606E-04  -2.8630396E-04   0.0000000E+00  -2.2339767E-04  -1.3954136E-04   0.0000000E+00  -1.4975916E-04  -5.6966383E-05   0.0000000E+00  -7.1699316E-05  -7.4385235E-04   0.0000000E+00  -3.5223746E-04  -4.2066429E-04   0.0000000E+00  -2.9878365E-04  -2.0808306E-04   0.0000000E+00  -2.0040969E-04  -8.6099091E-05   0.0000000E+00  -9.6031385E-05  -1.1132185E-03   0.0000000E+00  -4.8564491E-04  -6.4450200E-04   0.0000000E+00  -4.1325638E-04  -3.2571808E-04   0.0000000E+00  -2.7859648E-04  -1.3789618E-04   0.0000000E+00  -1.3479516E-04  -1.6887664E-03   0.0000000E+00  -6.9978234E-04  -1.0019686E-03   0.0000000E+00  -5.9840491E-04  -5.2066497E-04   0.0000000E+00  -4.1068331E-04  -2.2921906E-04   0.0000000E+00  -2.0646010E-04  -2.4952993E-03   0.0000000E+00  -1.0534942E-03  -1.5063733E-03   0.0000000E+00  -9.0730283E-04  -8.0704672E-04   0.0000000E+00  -6.4689334E-04  -3.7767267E-04   0.0000000E+00  -3.5459059E-04  -3.4704376E-03   0.0000000E+00  -1.6315033E-03  -2.1119628E-03   0.0000000E+00  -1.4211281E-03  -1.1639326E-03   0.0000000E+00  -1.0725806E-03   0.0000000E+00   0.0000000E+00   0.0000000E+00   0.0000000E+00   0.0000000E+00   0.0000000E+00   0.0000000E+00   0.0000000E+00   0.0000000E+00   0.0000000E+00   0.0000000E+00   0.0000000E+00   0.0000000E+00   0.0000000E+00   0.0000000E+00   0.0000000E+00   0.0000000E+00   0.0000000E+00   0.0000000E+00   0.0000000E+00   0.0000000E+00   0.0000000E+00   0.0000000E+00   0.0000000E+00   0.0000000E+00   0.0000000E+00   0.0000000E+00   0.0000000E+00   0.0000000E+00   0.0000000E+00   0.0000000E+00   0.0000000E+00   0.0000000E+00   0.0000000E+00   0.0000000E+00   0.0000000E+00   0.0000000E+00   0.0000000E+00   0.0000000E+00   0.0000000E+00   0.0000000E+00   0.0000000E+00   0.0000000E+00   0.0000000E+00   0.0000000E+00   0.0000000E+00   0.0000000E+00   0.0000000E+00   0.0000000E+00   0.0000000E+00   0.0000000E+00   0.0000000E+00   0.0000000E+00   0.0000000E+00   0.0000000E+00   0.0000000E+00   0.0000000E+00   0.0000000E+00   0.0000000E+00   0.0000000E+00   0.0000000E+00   0.0000000E+00   0.0000000E+00   0.0000000E+00   0.0000000E+00   0.0000000E+00   0.0000000E+00   0.0000000E+00   0.0000000E+00   0.0000000E+00   0.0000000E+00   0.0000000E+00   0.0000000E+00   0.0000000E+00   0.0000000E+00   0.0000000E+00   0.0000000E+00   0.0000000E+00   0.0000000E+00   0.0000000E+00   0.0000000E+00   0.0000000E+00   0.0000000E+00   0.0000000E+00   0.0000000E+00   0.0000000E+00   0.0000000E+00   0.0000000E+00   0.0000000E+00   0.0000000E+00   0.0000000E+00   0.0000000E+00   0.0000000E+00   0.0000000E+00   0.0000000E+00   0.0000000E+00   0.0000000E+00   0.0000000E+00   0.0000000E+00   0.0000000E+00   0.0000000E+00   0.0000000E+00   0.0000000E+00   0.0000000E+00   0.0000000E+00   0.0000000E+00   0.0000000E+00   0.0000000E+00   0.0000000E+00   0.0000000E+00   0.0000000E+00   0.0000000E+00   0.0000000E+00   0.0000000E+00   0.0000000E+00   0.0000000E+00   0.0000000E+00   0.0000000E+00   0.0000000E+00   0.0000000E+00   0.0000000E+00   0.0000000E+00   0.0000000E+00   0.0000000E+00   0.0000000E+00   0.0000000E+00   0.0000000E+00   0.0000000E+00   0.0000000E+00   0.0000000E+00   0.0000000E+00   0.0000000E+00   0.0000000E+00   0.0000000E+00   0.0000000E+00   0.0000000E+00   0.0000000E+00   0.0000000E+00   0.0000000E+00   0.0000000E+00   0.0000000E+00   0.0000000E+00   0.0000000E+00   0.0000000E+00   0.0000000E+00   0.0000000E+00   0.0000000E+00   0.0000000E+00   0.0000000E+00   0.0000000E+00   0.0000000E+00   0.0000000E+00   0.0000000E+00   0.0000000E+00   0.0000000E+00   0.0000000E+00   0.0000000E+00   0.0000000E+00   0.0000000E+00   0.0000000E+00   0.0000000E+00   0.0000000E+00   0.0000000E+00   0.0000000E+00   0.0000000E+00   0.0000000E+00   0.0000000E+00   0.0000000E+00   0.0000000E+00   0.0000000E+00   0.0000000E+00   0.0000000E+00   0.0000000E+00   0.0000000E+00   0.0000000E+00   0.0000000E+00   0.0000000E+00   0.0000000E+00   0.0000000E+00   0.0000000E+00   0.0000000E+00   0.0000000E+00   0.0000000E+00   0.0000000E+00   0.0000000E+00   0.0000000E+00   0.0000000E+00   0.0000000E+00   0.0000000E+00   0.0000000E+00   0.0000000E+00   0.0000000E+00   0.0000000E+00   0.0000000E+00   0.0000000E+00   0.0000000E+00   0.0000000E+00   0.0000000E+00   0.0000000E+00   0.0000000E+00   0.0000000E+00   0.0000000E+00   0.0000000E+00   0.0000000E+00   0.0000000E+00   0.0000000E+00   0.0000000E+00   0.0000000E+00   0.0000000E+00   0.0000000E+00   0.0000000E+00   0.0000000E+00   0.0000000E+00   0.0000000E+00   0.0000000E+00   0.0000000E+00   0.0000000E+00   0.0000000E+00   0.0000000E+00   0.0000000E+00   0.0000000E+00   0.0000000E+00   0.0000000E+00   0.0000000E+00   0.0000000E+00   0.0000000E+00   0.0000000E+00   0.0000000E+00   0.0000000E+00   0.0000000E+00   0.0000000E+00   0.0000000E+00   0.0000000E+00   0.0000000E+00   0.0000000E+00   0.0000000E+00   0.0000000E+00   0.0000000E+00   0.0000000E+00   0.0000000E+00   0.0000000E+00   0.0000000E+00   0.0000000E+00   0.0000000E+00   0.0000000E+00   0.0000000E+00   0.0000000E+00   0.0000000E+00   0.0000000E+00   0.0000000E+00   0.0000000E+00   0.0000000E+00   0.0000000E+00   0.0000000E+00   0.0000000E+00   0.0000000E+00   0.0000000E+00   0.0000000E+00   0.0000000E+00   0.0000000E+00   0.0000000E+00   0.0000000E+00   0.0000000E+00   0.0000000E+00   0.0000000E+00   0.0000000E+00   0.0000000E+00   0.0000000E+00   0.0000000E+00   0.0000000E+00   0.0000000E+00   0.0000000E+00   0.0000000E+00   0.0000000E+00   0.0000000E+00   0.0000000E+00   0.0000000E+00   0.0000000E+00   0.0000000E+00   0.0000000E+00   0.0000000E+00   0.0000000E+00   0.0000000E+00   0.0000000E+00   0.0000000E+00   0.0000000E+00   0.0000000E+00   0.0000000E+00   0.0000000E+00   0.0000000E+00   0.0000000E+00   0.0000000E+00   0.0000000E+00   0.0000000E+00   0.0000000E+00   0.0000000E+00   0.0000000E+00   0.0000000E+00   0.0000000E+00   0.0000000E+00   0.0000000E+00   0.0000000E+00   0.0000000E+00   0.0000000E+00   0.0000000E+00   0.0000000E+00   0.0000000E+00   0.0000000E+00   0.0000000E+00   0.0000000E+00   0.0000000E+00   0.0000000E+00   0.0000000E+00   0.0000000E+00   0.0000000E+00   0.0000000E+00   0.0000000E+00   0.0000000E+00   0.0000000E+00   0.0000000E+00   0.0000000E+00   0.0000000E+00   0.0000000E+00   0.0000000E+00   0.0000000E+00   0.0000000E+00   0.0000000E+00   0.0000000E+00   0.0000000E+00   0.0000000E+00   0.0000000E+00   0.0000000E+00   0.0000000E+00   0.0000000E+00   0.0000000E+00   0.0000000E+00   0.0000000E+00   0.0000000E+00   0.0000000E+00   0.0000000E+00   0.0000000E+00   0.0000000E+00   0.0000000E+00   0.0000000E+00   0.0000000E+00   0.0000000E+00   0.0000000E+00   0.0000000E+00   0.0000000E+00   0.0000000E+00   0.0000000E+00   0.0000000E+00   0.0000000E+00   0.0000000E+00   0.0000000E+00   0.0000000E+00   0.0000000E+00   0.0000000E+00   0.0000000E+00   0.0000000E+00   0.0000000E+00   0.0000000E+00   0.0000000E+00   0.0000000E+00   0.0000000E+00   0.0000000E+00   0.0000000E+00   0.0000000E+00   0.0000000E+00   0.0000000E+00   0.0000000E+00   0.0000000E+00   0.0000000E+00   0.0000000E+00   0.0000000E+00   0.0000000E+00   0.0000000E+00   0.0000000E+00   0.0000000E+00   0.0000000E+00   0.0000000E+00   0.0000000E+00   0.0000000E+00   0.0000000E+00   0.0000000E+00   0.0000000E+00   0.0000000E+00   0.0000000E+00   0.0000000E+00   0.0000000E+00   0.0000000E+00   0.0000000E+00   0.0000000E+00   0.0000000E+00   0.0000000E+00   0.0000000E+00   0.0000000E+00   0.0000000E+00   0.0000000E+00   0.0000000E+00   0.0000000E+00   0.0000000E+00   0.0000000E+00   0.0000000E+00   0.0000000E+00   0.0000000E+00   0.0000000E+00   0.0000000E+00   0.0000000E+00   0.0000000E+00   0.0000000E+00   0.0000000E+00   0.0000000E+00   0.0000000E+00   0.0000000E+00   0.0000000E+00   0.0000000E+00   0.0000000E+00   0.0000000E+00   0.0000000E+00   0.0000000E+00   0.0000000E+00   0.0000000E+00   0.0000000E+00   0.0000000E+00   0.0000000E+00   0.0000000E+00   0.0000000E+00   0.0000000E+00   0.0000000E+00   0.0000000E+00   0.0000000E+00   0.0000000E+00   0.0000000E+00   0.0000000E+00   0.0000000E+00   0.0000000E+00   0.0000000E+00   0.0000000E+00   0.0000000E+00   0.0000000E+00   0.0000000E+00   0.0000000E+00   0.0000000E+00   0.0000000E+00   0.0000000E+00   0.0000000E+00   0.0000000E+00   0.0000000E+00   0.0000000E+00   0.0000000E+00   0.0000000E+00   0.0000000E+00   0.0000000E+00   0.0000000E+00   0.0000000E+00   0.0000000E+00   0.0000000E+00   0.0000000E+00   0.0000000E+00   0.0000000E+00   0.0000000E+00   0.0000000E+00   0.0000000E+00   0.0000000E+00   0.0000000E+00   0.0000000E+00   0.0000000E+00   0.0000000E+00   0.0000000E+00   0.0000000E+00   0.0000000E+00   0.0000000E+00   0.0000000E+00   0.0000000E+00   0.0000000E+00   0.0000000E+00   0.0000000E+00   0.0000000E+00   0.0000000E+00   0.0000000E+00   0.0000000E+00   0.0000000E+00   0.0000000E+00   0.0000000E+00   0.0000000E+00   0.0000000E+00   0.0000000E+00   0.0000000E+00   0.0000000E+00   0.0000000E+00   0.0000000E+00   0.0000000E+00   0.0000000E+00   0.0000000E+00   0.0000000E+00   0.0000000E+00   0.0000000E+00   0.0000000E+00   0.0000000E+00   0.0000000E+00   0.0000000E+00   0.0000000E+00   0.0000000E+00   0.0000000E+00   0.0000000E+00   0.0000000E+00   0.0000000E+00   0.0000000E+00   0.0000000E+00   0.0000000E+00   0.0000000E+00   0.0000000E+00   0.0000000E+00   0.0000000E+00   0.0000000E+00   0.0000000E+00   0.0000000E+00   0.0000000E+00   0.0000000E+00   0.0000000E+00   0.0000000E+00   0.0000000E+00   0.0000000E+00   0.0000000E+00   0.0000000E+00   0.0000000E+00   0.0000000E+00   0.0000000E+00   0.0000000E+00   0.0000000E+00   0.0000000E+00   0.0000000E+00   0.0000000E+00   0.0000000E+00   0.0000000E+00   0.0000000E+00   0.0000000E+00   0.0000000E+00   0.0000000E+00   0.0000000E+00   0.0000000E+00   0.0000000E+00   0.0000000E+00   0.0000000E+00   0.0000000E+00   0.0000000E+00   0.0000000E+00   0.0000000E+00   0.0000000E+00   0.0000000E+00   0.0000000E+00   0.0000000E+00   0.0000000E+00   0.0000000E+00   0.0000000E+00   0.0000000E+00   0.0000000E+00   0.0000000E+00   0.0000000E+00   0.0000000E+00   0.0000000E+00   0.0000000E+00   0.0000000E+00   0.0000000E+00   0.0000000E+00   0.0000000E+00   0.0000000E+00   0.0000000E+00   0.0000000E+00   0.0000000E+00   0.0000000E+00   0.0000000E+00   0.0000000E+00   0.0000000E+00   0.0000000E+00   0.0000000E+00   0.0000000E+00   0.0000000E+00   0.0000000E+00   0.0000000E+00   0.0000000E+00   0.0000000E+00   0.0000000E+00   0.0000000E+00   0.0000000E+00   0.0000000E+00   0.0000000E+00   0.0000000E+00   0.0000000E+00   0.0000000E+00   0.0000000E+00   0.0000000E+00   0.0000000E+00   0.0000000E+00   0.0000000E+00   0.0000000E+00   0.0000000E+00   0.0000000E+00   0.0000000E+00   0.0000000E+00   0.0000000E+00   0.0000000E+00   0.0000000E+00   0.0000000E+00   0.0000000E+00   0.0000000E+00   0.0000000E+00   0.0000000E+00   0.0000000E+00   0.0000000E+00   0.0000000E+00   0.0000000E+00   0.0000000E+00   0.0000000E+00   0.0000000E+00   0.0000000E+00   0.0000000E+00   0.0000000E+00   0.0000000E+00   0.0000000E+00   0.0000000E+00   0.0000000E+00   0.0000000E+00   0.0000000E+00   0.0000000E+00   0.0000000E+00   0.0000000E+00   0.0000000E+00   0.0000000E+00   0.0000000E+00   0.0000000E+00   0.0000000E+00   0.0000000E+00   0.0000000E+00   0.0000000E+00   0.0000000E+00   0.0000000E+00   0.0000000E+00   0.0000000E+00   0.0000000E+00   0.0000000E+00   0.0000000E+00   0.0000000E+00   0.0000000E+00   0.0000000E+00   0.0000000E+00   0.0000000E+00   0.0000000E+00   0.0000000E+00   0.0000000E+00   0.0000000E+00   0.0000000E+00   0.0000000E+00   0.0000000E+00   0.0000000E+00   0.0000000E+00   0.0000000E+00   0.0000000E+00   0.0000000E+00   0.0000000E+00   0.0000000E+00   0.0000000E+00   0.0000000E+00   0.0000000E+00   0.0000000E+00   0.0000000E+00   0.0000000E+00   0.0000000E+00   0.0000000E+00   0.0000000E+00   0.0000000E+00   0.0000000E+00   0.0000000E+00   0.0000000E+00   0.0000000E+00   0.0000000E+00   0.0000000E+00   0.0000000E+00   0.0000000E+00   0.0000000E+00   0.0000000E+00   0.0000000E+00   0.0000000E+00   0.0000000E+00   0.0000000E+00   0.0000000E+00   0.0000000E+00   0.0000000E+00   0.0000000E+00   0.0000000E+00   0.0000000E+00   0.0000000E+00   0.0000000E+00   0.0000000E+00   0.0000000E+00   0.0000000E+00   0.0000000E+00   0.0000000E+00   0.0000000E+00   0.0000000E+00   0.0000000E+00   0.0000000E+00   0.0000000E+00   0.0000000E+00   0.0000000E+00   0.0000000E+00   0.0000000E+00   0.0000000E+00   0.0000000E+00   0.0000000E+00   0.0000000E+00   0.0000000E+00   0.0000000E+00   0.0000000E+00   0.0000000E+00   0.0000000E+00   0.0000000E+00   0.0000000E+00   0.0000000E+00   0.0000000E+00   0.0000000E+00   0.0000000E+00   0.0000000E+00   0.0000000E+00   0.0000000E+00   0.0000000E+00   0.0000000E+00   0.0000000E+00   0.0000000E+00   0.0000000E+00   0.0000000E+00   0.0000000E+00   0.0000000E+00   0.0000000E+00   0.0000000E+00   0.0000000E+00   0.0000000E+00   0.0000000E+00   0.0000000E+00   0.0000000E+00   0.0000000E+00   0.0000000E+00   0.0000000E+00   0.0000000E+00   0.0000000E+00   0.0000000E+00   0.0000000E+00   0.0000000E+00   0.0000000E+00   0.0000000E+00   0.0000000E+00   0.0000000E+00   0.0000000E+00   0.0000000E+00   0.0000000E+00   0.0000000E+00   0.0000000E+00   0.0000000E+00   0.0000000E+00   0.0000000E+00   0.0000000E+00   0.0000000E+00   0.0000000E+00   0.0000000E+00   0.0000000E+00   0.0000000E+00   0.0000000E+00   0.0000000E+00   0.0000000E+00   0.0000000E+00   0.0000000E+00   0.0000000E+00   0.0000000E+00   0.0000000E+00   0.0000000E+00   0.0000000E+00   0.0000000E+00   0.0000000E+00   0.0000000E+00   0.0000000E+00   0.0000000E+00   0.0000000E+00   0.0000000E+00   0.0000000E+00   0.0000000E+00   0.0000000E+00   0.0000000E+00   0.0000000E+00   0.0000000E+00   0.0000000E+00   0.0000000E+00   0.0000000E+00   0.0000000E+00   0.0000000E+00   0.0000000E+00   0.0000000E+00   0.0000000E+00   0.0000000E+00   0.0000000E+00   0.0000000E+00   0.0000000E+00   0.0000000E+00   0.0000000E+00   0.0000000E+00   0.0000000E+00   0.0000000E+00   0.0000000E+00   0.0000000E+00   0.0000000E+00   0.0000000E+00   0.0000000E+00   0.0000000E+00   0.0000000E+00   0.0000000E+00   0.0000000E+00   0.0000000E+00   0.0000000E+00   0.0000000E+00   0.0000000E+00   0.0000000E+00   0.0000000E+00   0.0000000E+00   0.0000000E+00   0.0000000E+00   0.0000000E+00   0.0000000E+00   0.0000000E+00   0.0000000E+00   0.0000000E+00   0.0000000E+00   0.0000000E+00   0.0000000E+00   0.0000000E+00   0.0000000E+00   0.0000000E+00   0.0000000E+00   0.0000000E+00   0.0000000E+00   0.0000000E+00   0.0000000E+00   0.0000000E+00   0.0000000E+00   0.0000000E+00   0.0000000E+00   0.0000000E+00   0.0000000E+00   0.0000000E+00   0.0000000E+00   0.0000000E+00   0.0000000E+00   0.0000000E+00   0.0000000E+00   0.0000000E+00   0.0000000E+00   0.0000000E+00   0.0000000E+00   0.0000000E+00   0.0000000E+00   0.0000000E+00   0.0000000E+00   0.0000000E+00   0.0000000E+00   0.0000000E+00   0.0000000E+00   0.0000000E+00   0.0000000E+00   0.0000000E+00   0.0000000E+00   0.0000000E+00   0.0000000E+00   0.0000000E+00   0.0000000E+00   0.0000000E+00   0.0000000E+00   0.0000000E+00   0.0000000E+00   0.0000000E+00   0.0000000E+00   0.0000000E+00   0.0000000E+00   0.0000000E+00   0.0000000E+00   0.0000000E+00   0.0000000E+00   0.0000000E+00   0.0000000E+00   0.0000000E+00   0.0000000E+00   0.0000000E+00   0.0000000E+00   0.0000000E+00   0.0000000E+00   0.0000000E+00   0.0000000E+00   0.0000000E+00   0.0000000E+00   0.0000000E+00   0.0000000E+00   0.0000000E+00   0.0000000E+00   0.0000000E+00   0.0000000E+00   0.0000000E+00   0.0000000E+00   0.0000000E+00   0.0000000E+00   0.0000000E+00   0.0000000E+00   0.0000000E+00   0.0000000E+00   0.0000000E+00   0.0000000E+00   0.0000000E+00   0.0000000E+00   0.0000000E+00   0.0000000E+00   0.0000000E+00   0.0000000E+00   0.0000000E+00   0.0000000E+00   0.0000000E+00   0.0000000E+00   0.0000000E+00   0.0000000E+00   0.0000000E+00   0.0000000E+00   0.0000000E+00   0.0000000E+00   0.0000000E+00   0.0000000E+00   0.0000000E+00   0.0000000E+00   0.0000000E+00   0.0000000E+00   0.0000000E+00   0.0000000E+00   0.0000000E+00   0.0000000E+00   0.0000000E+00   0.0000000E+00   0.0000000E+00   0.0000000E+00   0.0000000E+00   0.0000000E+00   0.0000000E+00   0.0000000E+00   0.0000000E+00   0.0000000E+00   0.0000000E+00   0.0000000E+00   0.0000000E+00   0.0000000E+00   0.0000000E+00   0.0000000E+00   0.0000000E+00   0.0000000E+00   0.0000000E+00   0.0000000E+00   0.0000000E+00   0.0000000E+00   0.0000000E+00   0.0000000E+00   0.0000000E+00   0.0000000E+00   0.0000000E+00   0.0000000E+00   0.0000000E+00   0.0000000E+00   0.0000000E+00   0.0000000E+00   0.0000000E+00   0.0000000E+00   0.0000000E+00   0.0000000E+00   0.0000000E+00   0.0000000E+00   0.0000000E+00   0.0000000E+00   0.0000000E+00   0.0000000E+00   0.0000000E+00   0.0000000E+00   0.0000000E+00   0.0000000E+00   0.0000000E+00   0.0000000E+00   0.0000000E+00   0.0000000E+00   0.0000000E+00   0.0000000E+00   0.0000000E+00   0.0000000E+00   0.0000000E+00   0.0000000E+00   0.0000000E+00   0.0000000E+00   0.0000000E+00   0.0000000E+00   0.0000000E+00   0.0000000E+00   0.0000000E+00   0.0000000E+00   0.0000000E+00   0.0000000E+00   0.0000000E+00   0.0000000E+00   0.0000000E+00   0.0000000E+00   0.0000000E+00   0.0000000E+00   0.0000000E+00   0.0000000E+00   0.0000000E+00   0.0000000E+00   0.0000000E+00   0.0000000E+00   0.0000000E+00   0.0000000E+00   0.0000000E+00   0.0000000E+00   0.0000000E+00   0.0000000E+00   0.0000000E+00   0.0000000E+00   0.0000000E+00   0.0000000E+00   0.0000000E+00   0.0000000E+00   0.0000000E+00   0.0000000E+00   0.0000000E+00   0.0000000E+00   0.0000000E+00   0.0000000E+00   0.0000000E+00   0.0000000E+00   0.0000000E+00   0.0000000E+00   0.0000000E+00   0.0000000E+00   0.0000000E+00   0.0000000E+00   0.0000000E+00   0.0000000E+00   0.0000000E+00   0.0000000E+00   0.0000000E+00   0.0000000E+00   0.0000000E+00   0.0000000E+00   0.0000000E+00   0.0000000E+00   0.0000000E+00   0.0000000E+00   0.0000000E+00   0.0000000E+00   0.0000000E+00   0.0000000E+00   0.0000000E+00   0.0000000E+00   0.0000000E+00   0.0000000E+00   0.0000000E+00   0.0000000E+00   0.0000000E+00   0.0000000E+00   0.0000000E+00   0.0000000E+00   0.0000000E+00   0.0000000E+00   0.0000000E+00   0.0000000E+00   0.0000000E+00   0.0000000E+00   0.0000000E+00   0.0000000E+00   0.0000000E+00   0.0000000E+00   0.0000000E+00   0.0000000E+00   0.0000000E+00   0.0000000E+00   0.0000000E+00   0.0000000E+00   0.0000000E+00   0.0000000E+00   0.0000000E+00   0.0000000E+00   0.0000000E+00   0.0000000E+00   0.0000000E+00   0.0000000E+00   0.0000000E+00   0.0000000E+00   0.0000000E+00   0.0000000E+00   0.0000000E+00   0.0000000E+00   0.0000000E+00   0.0000000E+00   0.0000000E+00   0.0000000E+00   0.0000000E+00   0.0000000E+00   0.0000000E+00   0.0000000E+00   0.0000000E+00   0.0000000E+00   0.0000000E+00   0.0000000E+00   0.0000000E+00   0.0000000E+00   0.0000000E+00   0.0000000E+00   0.0000000E+00   0.0000000E+00   0.0000000E+00   0.0000000E+00   0.0000000E+00   0.0000000E+00   0.0000000E+00   0.0000000E+00   0.0000000E+00   0.0000000E+00   0.0000000E+00   0.0000000E+00   0.0000000E+00   0.0000000E+00   0.0000000E+00   0.0000000E+00   0.0000000E+00   0.0000000E+00   0.0000000E+00   0.0000000E+00   0.0000000E+00   0.0000000E+00   0.0000000E+00   0.0000000E+00   0.0000000E+00   0.0000000E+00   0.0000000E+00   0.0000000E+00   0.0000000E+00   0.0000000E+00   0.0000000E+00   0.0000000E+00   0.0000000E+00   0.0000000E+00   0.0000000E+00   0.0000000E+00   0.0000000E+00   0.0000000E+00   0.0000000E+00   0.0000000E+00   0.0000000E+00   0.0000000E+00   0.0000000E+00   0.0000000E+00   0.0000000E+00   0.0000000E+00   0.0000000E+00   0.0000000E+00   0.0000000E+00   0.0000000E+00   0.0000000E+00   0.0000000E+00   0.0000000E+00   0.0000000E+00   0.0000000E+00   0.0000000E+00   0.0000000E+00   0.0000000E+00   0.0000000E+00   0.0000000E+00   0.0000000E+00   0.0000000E+00   0.0000000E+00   0.0000000E+00   0.0000000E+00   0.0000000E+00   0.0000000E+00   0.0000000E+00   0.0000000E+00   0.0000000E+00   0.0000000E+00   0.0000000E+00   0.0000000E+00   0.0000000E+00   0.0000000E+00   0.0000000E+00   0.0000000E+00   0.0000000E+00   0.0000000E+00   0.0000000E+00   0.0000000E+00   0.0000000E+00   0.0000000E+00   0.0000000E+00   0.0000000E+00   0.0000000E+00   0.0000000E+00   0.0000000E+00   0.0000000E+00   0.0000000E+00   0.0000000E+00   0.0000000E+00   0.0000000E+00   0.0000000E+00   0.0000000E+00   0.0000000E+00   0.0000000E+00   0.0000000E+00   0.0000000E+00   0.0000000E+00   0.0000000E+00   0.0000000E+00   0.0000000E+00   0.0000000E+00   0.0000000E+00   0.0000000E+00   0.0000000E+00   0.0000000E+00   0.0000000E+00   0.0000000E+00   0.0000000E+00   0.0000000E+00   0.0000000E+00   0.0000000E+00   0.0000000E+00   0.0000000E+00   0.0000000E+00   0.0000000E+00   0.0000000E+00   0.0000000E+00   0.0000000E+00   0.0000000E+00   0.0000000E+00   0.0000000E+00   0.0000000E+00   0.0000000E+00   0.0000000E+00   0.0000000E+00   0.0000000E+00   0.0000000E+00   0.0000000E+00   0.0000000E+00   0.0000000E+00   0.0000000E+00   0.0000000E+00   0.0000000E+00   0.0000000E+00   0.0000000E+00   0.0000000E+00   0.0000000E+00   0.0000000E+00   0.0000000E+00   0.0000000E+00   0.0000000E+00   0.0000000E+00   0.0000000E+00   0.0000000E+00   0.0000000E+00   0.0000000E+00   0.0000000E+00   0.0000000E+00   0.0000000E+00   0.0000000E+00   0.0000000E+00   0.0000000E+00   0.0000000E+00   0.0000000E+00   0.0000000E+00   0.0000000E+00   0.0000000E+00   0.0000000E+00   0.0000000E+00   0.0000000E+00   0.0000000E+00   0.0000000E+00   0.0000000E+00   0.0000000E+00   0.0000000E+00   0.0000000E+00   0.0000000E+00   0.0000000E+00   0.0000000E+00   0.0000000E+00   0.0000000E+00   0.0000000E+00   0.0000000E+00   0.0000000E+00   0.0000000E+00   0.0000000E+00   0.0000000E+00   0.0000000E+00   0.0000000E+00   0.0000000E+00   0.0000000E+00   0.0000000E+00   0.0000000E+00   0.0000000E+00   0.0000000E+00   0.0000000E+00   0.0000000E+00   0.0000000E+00   0.0000000E+00   0.0000000E+00   0.0000000E+00   0.0000000E+00   0.0000000E+00   0.0000000E+00   0.0000000E+00   0.0000000E+00   0.0000000E+00   0.0000000E+00   0.0000000E+00   0.0000000E+00   0.0000000E+00   0.0000000E+00   0.0000000E+00   0.0000000E+00   0.0000000E+00   0.0000000E+00   0.0000000E+00   0.0000000E+00   0.0000000E+00   0.0000000E+00   0.0000000E+00   0.0000000E+00   0.0000000E+00   0.0000000E+00   0.0000000E+00   0.0000000E+00   0.0000000E+00   0.0000000E+00   0.0000000E+00   0.0000000E+00   0.0000000E+00   0.0000000E+00   0.0000000E+00   0.0000000E+00   0.0000000E+00   0.0000000E+00   0.0000000E+00   0.0000000E+00   0.0000000E+00   0.0000000E+00   0.0000000E+00   0.0000000E+00   0.0000000E+00   0.0000000E+00   0.0000000E+00   0.0000000E+00   0.0000000E+00   0.0000000E+00   0.0000000E+00   0.0000000E+00   0.0000000E+00   0.0000000E+00   0.0000000E+00   0.0000000E+00   0.0000000E+00   0.0000000E+00   0.0000000E+00   0.0000000E+00   0.0000000E+00   0.0000000E+00   0.0000000E+00   0.0000000E+00   0.0000000E+00   0.0000000E+00   0.0000000E+00   0.0000000E+00   0.0000000E+00   0.0000000E+00   0.0000000E+00   0.0000000E+00   0.0000000E+00   0.0000000E+00   0.0000000E+00   0.0000000E+00   0.0000000E+00   0.0000000E+00   0.0000000E+00   0.0000000E+00   0.0000000E+00   0.0000000E+00   0.0000000E+00   0.0000000E+00   0.0000000E+00   0.0000000E+00   0.0000000E+00   0.0000000E+00   0.0000000E+00   0.0000000E+00   0.0000000E+00   0.0000000E+00   0.0000000E+00   0.0000000E+00   0.0000000E+00   0.0000000E+00   0.0000000E+00   0.0000000E+00   0.0000000E+00   0.0000000E+00   0.0000000E+00   0.0000000E+00   0.0000000E+00   0.0000000E+00   0.0000000E+00   0.0000000E+00   0.0000000E+00   0.0000000E+00   0.0000000E+00   0.0000000E+00  -4.0105035E-04   0.0000000E+00  -3.4754510E-05  -5.0256855E-04   0.0000000E+00  -1.6518623E-05  -5.8983930E-04   0.0000000E+00   1.6176955E-06  -6.5940357E-04   0.0000000E+00   1.5442401E-05  -7.1210851E-04   0.0000000E+00   2.3561739E-05  -3.9656076E-04   0.0000000E+00  -6.8455876E-05  -5.3652818E-04   0.0000000E+00  -4.9427221E-05  -6.6863693E-04   0.0000000E+00  -2.2512933E-05  -7.8109279E-04   0.0000000E+00   3.7125756E-06  -8.6958520E-04   0.0000000E+00   2.3472057E-05  -9.3557616E-04   0.0000000E+00   3.4942357E-05  -5.1937829E-04   0.0000000E+00  -9.4262170E-05  -7.0054212E-04   0.0000000E+00  -6.6452019E-05  -8.6974783E-04   0.0000000E+00  -2.8983010E-05  -1.0116674E-03   0.0000000E+00   6.8822246E-06  -1.1213399E-03   0.0000000E+00   3.3559765E-05  -1.2013916E-03   0.0000000E+00   4.8795315E-05  -6.7846384E-04   0.0000000E+00  -1.2471704E-04  -9.1224728E-04   0.0000000E+00  -8.6360604E-05  -1.1282088E-03   0.0000000E+00  -3.6010788E-05  -1.3064228E-03   0.0000000E+00   1.1447428E-05  -1.4412769E-03   0.0000000E+00   4.6234618E-05  -1.5372507E-03   0.0000000E+00   6.5688175E-05  -8.9673221E-04   0.0000000E+00  -1.6148484E-04  -1.1973880E-03   0.0000000E+00  -1.1001510E-04  -1.4715713E-03   0.0000000E+00  -4.3665117E-05  -1.6944993E-03   0.0000000E+00   1.7991111E-05  -1.8599513E-03   0.0000000E+00   6.2493215E-05  -1.9745259E-03   0.0000000E+00   8.6803215E-05  -1.2186371E-03   0.0000000E+00  -2.0707742E-04  -1.5997883E-03   0.0000000E+00  -1.3841591E-04  -1.9400199E-03   0.0000000E+00  -5.1446397E-05  -2.2121696E-03   0.0000000E+00   2.7997463E-05  -2.4115422E-03   0.0000000E+00   8.4265943E-05  -2.5471572E-03   0.0000000E+00   1.1420962E-04  -1.7232837E-03   0.0000000E+00  -2.6473452E-04  -2.1938665E-03   0.0000000E+00  -1.7191036E-04  -2.5958905E-03   0.0000000E+00  -5.6897698E-05  -2.9102077E-03   0.0000000E+00   4.5577515E-05  -3.1382693E-03   0.0000000E+00   1.1596871E-04  -3.2928064E-03   0.0000000E+00   1.5184894E-04  -2.5355746E-03   0.0000000E+00  -3.3806276E-04  -3.0886033E-03   0.0000000E+00  -2.0894517E-04  -3.5256899E-03   0.0000000E+00  -5.3432850E-05  -3.8557248E-03   0.0000000E+00   7.9989877E-05  -4.0939436E-03   0.0000000E+00   1.6694641E-04  -4.2569167E-03   0.0000000E+00   2.0749627E-04  -3.8176789E-03   0.0000000E+00  -4.3041073E-04  -4.4117374E-03   0.0000000E+00  -2.4355709E-04  -4.8258365E-03   0.0000000E+00  -2.6962342E-05  -5.1245005E-03   0.0000000E+00   1.4889604E-04  -5.3421026E-03   0.0000000E+00   2.5402557E-04  -5.4952013E-03   0.0000000E+00   2.9475751E-04  -5.6941081E-03   0.0000000E+00  -5.4367987E-04  -6.2530204E-03   0.0000000E+00  -2.6126840E-04  -6.5685273E-03   0.0000000E+00   4.9580296E-05  -6.7848014E-03   0.0000000E+00   2.8206699E-04  -6.9502909E-03   0.0000000E+00   4.0335982E-04  -7.0734760E-03   0.0000000E+00   4.3402213E-04  -8.1025735E-03   0.0000000E+00  -6.7225000E-04  -8.5840244E-03   0.0000000E+00  -2.3320061E-04  -8.7688584E-03   0.0000000E+00   2.2033375E-04  -8.8851983E-03   0.0000000E+00   5.2296079E-04  -8.9855744E-03   0.0000000E+00   6.5030932E-04  -9.0658218E-03   0.0000000E+00   6.5155118E-04  -1.0752768E-02   0.0000000E+00  -5.7026057E-04  -1.1280183E-02   0.0000000E+00  -3.8289494E-05  -1.1411809E-02   0.0000000E+00   5.6479324E-04  -1.1471390E-02   0.0000000E+00   9.2797959E-04  -1.1522228E-02   0.0000000E+00   1.0344690E-03  -1.1556887E-02   0.0000000E+00   9.7567233E-04  -1.3715543E-02   0.0000000E+00   3.7658331E-04  -1.4366980E-02   0.0000000E+00   6.3392770E-04  -1.4559966E-02   0.0000000E+00   1.2128886E-03  -1.4632059E-02   0.0000000E+00   1.5573729E-03  -1.4659690E-02   0.0000000E+00   1.5912242E-03  -1.4648431E-02   0.0000000E+00   1.4308840E-03  -1.7362760E-02   0.0000000E+00   2.0978458E-03  -1.8115336E-02   0.0000000E+00   1.9156167E-03  -1.8410539E-02   0.0000000E+00   2.2407384E-03  -1.8523220E-02   0.0000000E+00   2.4477795E-03  -1.8532325E-02   0.0000000E+00   2.3413124E-03  -1.8463273E-02   0.0000000E+00   2.0330702E-03  -2.2114990E-02   0.0000000E+00   4.1596163E-03  -2.2881603E-02   0.0000000E+00   3.6257938E-03  -2.3225844E-02   0.0000000E+00   3.6085746E-03  -2.3341522E-02   0.0000000E+00   3.5901289E-03  -2.3300804E-02   0.0000000E+00   3.2862644E-03  -2.3144335E-02   0.0000000E+00   2.7897870E-03  -2.8317781E-02   0.0000000E+00   6.3152993E-03  -2.8959140E-02   0.0000000E+00   5.5333227E-03  -2.9241784E-02   0.0000000E+00   5.2130958E-03  -2.9283868E-02   0.0000000E+00   4.9545243E-03  -2.9140847E-02   0.0000000E+00   4.4245757E-03  -2.8854690E-02   0.0000000E+00   3.7068743E-03  -3.6119681E-02   0.0000000E+00   8.5219517E-03  -3.6516741E-02   0.0000000E+00   7.5675976E-03  -3.6643852E-02   0.0000000E+00   7.0086620E-03  -3.6547005E-02   0.0000000E+00   6.5341904E-03  -3.6250263E-02   0.0000000E+00   5.7686521E-03  -3.5784490E-02   0.0000000E+00   4.7950987E-03  -4.5545887E-02   0.0000000E+00   1.0999916E-02  -4.5693297E-02   0.0000000E+00   9.8329457E-03  -4.5644335E-02   0.0000000E+00   9.0712300E-03  -4.5373760E-02   0.0000000E+00   8.3758580E-03  -4.4871677E-02   0.0000000E+00   7.3448503E-03  -4.4158664E-02   0.0000000E+00   6.0675596E-03  -5.6812976E-02   0.0000000E+00   1.3985883E-02  -5.6801654E-02   0.0000000E+00   1.2523050E-02  -5.6583997E-02   0.0000000E+00   1.1498834E-02  -5.6091953E-02   0.0000000E+00   1.0539596E-02  -5.5297907E-02   0.0000000E+00   9.1814334E-03  -5.4230146E-02   0.0000000E+00   7.5322422E-03  -7.0552081E-02   0.0000000E+00   1.7753240E-02  -7.0382461E-02   0.0000000E+00   1.5821351E-02  -6.9920197E-02   0.0000000E+00   1.4374699E-02  -6.9081470E-02   0.0000000E+00   1.3054159E-02  -6.7845292E-02   0.0000000E+00   1.1285749E-02  -6.6268891E-02   0.0000000E+00   9.1876918E-03  -8.7472126E-02   0.0000000E+00   2.2503670E-02  -8.6999699E-02   0.0000000E+00   1.9805415E-02  -8.6114593E-02   0.0000000E+00   1.7693939E-02  -8.4727205E-02   0.0000000E+00   1.5899055E-02  -8.2837433E-02   0.0000000E+00   1.3638777E-02  -8.0549337E-02   0.0000000E+00   1.1019077E-02  -1.0818885E-01   0.0000000E+00   2.8380072E-02  -1.0718412E-01   0.0000000E+00   2.4408840E-02  -1.0561427E-01   0.0000000E+00   2.1350618E-02  -1.0339741E-01   0.0000000E+00   1.8995119E-02  -1.0057576E-01   0.0000000E+00   1.6191971E-02  -9.7324595E-02   0.0000000E+00   1.3003906E-02  -1.3325500E-01   0.0000000E+00   3.5351343E-02  -1.3138621E-01   0.0000000E+00   2.9438285E-02  -1.2877227E-01   0.0000000E+00   2.5110498E-02  -1.2536174E-01   0.0000000E+00   2.2204079E-02  -1.2126872E-01   0.0000000E+00   1.8879050E-02  -1.1676636E-01   0.0000000E+00   1.5135828E-02  -1.6293581E-01   0.0000000E+00   4.3218486E-02  -1.5976736E-01   0.0000000E+00   3.4425858E-02  -1.5566161E-01   0.0000000E+00   2.8629869E-02  -1.5063009E-01   0.0000000E+00   2.5375141E-02  -1.4489138E-01   0.0000000E+00   2.1665508E-02  -1.3884200E-01   0.0000000E+00   1.7476728E-02  -1.9683114E-01   0.0000000E+00   5.1503398E-02  -1.9187109E-01   0.0000000E+00   3.8618974E-02  -1.8578938E-01   0.0000000E+00   3.1535503E-02  -1.7870319E-01   0.0000000E+00   2.8459482E-02  -1.7096598E-01   0.0000000E+00   2.4663148E-02  -1.6311364E-01   0.0000000E+00   2.0236202E-02  -2.3339574E-01   0.0000000E+00   5.9164461E-02  -2.2619963E-01   0.0000000E+00   4.1021224E-02  -2.1772787E-01   0.0000000E+00   3.3512458E-02  -2.0825289E-01   0.0000000E+00   3.1672843E-02  -1.9828139E-01   0.0000000E+00   2.8278539E-02  -1.8848175E-01   0.0000000E+00   2.3893613E-02  -2.6943886E-01   0.0000000E+00   6.4743176E-02  -2.5977004E-01   0.0000000E+00   4.0975060E-02  -2.4873066E-01   0.0000000E+00   3.4911543E-02  -2.3679169E-01   0.0000000E+00   3.5771273E-02  -2.2460471E-01   0.0000000E+00   3.3438828E-02  -2.1293084E-01   0.0000000E+00   2.9363427E-02  -2.9976571E-01   0.0000000E+00   6.6756606E-02  -2.8781718E-01   0.0000000E+00   3.8154360E-02  -2.7449811E-01   0.0000000E+00   3.6799125E-02  -2.6048663E-01   0.0000000E+00   4.2350639E-02  -2.4652331E-01   0.0000000E+00   4.1787911E-02  -2.3338279E-01   0.0000000E+00   3.8148474E-02  -3.1708556E-01   0.0000000E+00   6.4336054E-02  -3.0373025E-01   0.0000000E+00   3.3922620E-02  -2.8914127E-01   0.0000000E+00   4.1453280E-02  -2.7413481E-01   0.0000000E+00   5.3865265E-02  -2.5941679E-01   0.0000000E+00   5.5629756E-02  -2.4566004E-01   0.0000000E+00   5.2321080E-02  -3.1229746E-01   0.0000000E+00   5.8782887E-02  -2.9920733E-01   0.0000000E+00   3.1687450E-02  -2.8517041E-01   0.0000000E+00   5.2581508E-02  -2.7099779E-01   0.0000000E+00   7.2926916E-02  -2.5718832E-01   0.0000000E+00   7.7301279E-02  -2.4417169E-01   0.0000000E+00   7.4095756E-02  -2.7557799E-01   0.0000000E+00   5.4765228E-02  -2.6502597E-01   0.0000000E+00   4.0126998E-02  -2.5391549E-01   0.0000000E+00   7.4086495E-02  -2.4288316E-01   0.0000000E+00   1.0080574E-01  -2.3208387E-01   0.0000000E+00   1.0814518E-01  -2.2159827E-01   0.0000000E+00   1.0531966E-01  -1.9891210E-01   0.0000000E+00   6.2185198E-02  -1.9325989E-01   0.0000000E+00   6.8805419E-02  -1.8743747E-01   0.0000000E+00   1.0744978E-01  -1.8181697E-01   0.0000000E+00   1.3778266E-01  -1.7615199E-01   0.0000000E+00   1.4927284E-01  -1.7010497E-01   0.0000000E+00   1.4667387E-01  -8.0056243E-02   0.0000000E+00   9.4237491E-02  -8.1098042E-02   0.0000000E+00   1.3298543E-01  -8.2319319E-02   0.0000000E+00   1.7399241E-01  -8.3744489E-02   0.0000000E+00   1.9080411E-01  -8.4736362E-02   0.0000000E+00   2.0013557E-01  -8.4582478E-02   0.0000000E+00   1.9693811E-01   7.3332340E-02   0.0000000E+00   1.3945973E-01   6.4976357E-02   0.0000000E+00   2.3145944E-01   5.6129545E-02   0.0000000E+00   2.7640676E-01   4.7294937E-02   0.0000000E+00   2.6105273E-01   3.9366797E-02   0.0000000E+00   2.5893638E-01   3.3201762E-02   0.0000000E+00   2.5267574E-01   2.4128449E-01   0.0000000E+00   1.7227019E-01   2.2688571E-01   0.0000000E+00   3.1610447E-01   2.1164499E-01   0.0000000E+00   3.7853220E-01   1.9673811E-01   0.0000000E+00   3.3433646E-01   1.8307157E-01   0.0000000E+00   3.1803095E-01   1.7136891E-01   0.0000000E+00   3.0802801E-01   3.9371625E-01   0.0000000E+00   1.7841652E-01   3.7671369E-01   0.0000000E+00   3.5910454E-01   3.5832334E-01   0.0000000E+00   4.4813839E-01   3.4020892E-01   0.0000000E+00   3.9252803E-01   3.2312968E-01   0.0000000E+00   3.6847427E-01   3.0756375E-01   0.0000000E+00   3.5662884E-01   5.0112653E-01   0.0000000E+00   1.5675561E-01   4.8534715E-01   0.0000000E+00   3.5201380E-01   4.6775904E-01   0.0000000E+00   4.7375011E-01   4.4970787E-01   0.0000000E+00   4.2536163E-01   4.3175793E-01   0.0000000E+00   4.0414289E-01   4.1428539E-01   0.0000000E+00   3.9386156E-01   5.4914963E-01   0.0000000E+00   1.3083513E-01   5.3675264E-01   0.0000000E+00   3.3001021E-01   5.2248722E-01   0.0000000E+00   4.7080097E-01   5.0678366E-01   0.0000000E+00   4.3839669E-01   4.8990890E-01   0.0000000E+00   4.2563486E-01   4.7226703E-01   0.0000000E+00   4.1873074E-01   5.4401392E-01   0.0000000E+00   1.1396185E-01   5.3546792E-01   0.0000000E+00   3.1152114E-01   5.2510571E-01   0.0000000E+00   4.6327332E-01   5.1257956E-01   0.0000000E+00   4.4309977E-01   4.9782547E-01   0.0000000E+00   4.3707916E-01   4.8124564E-01   0.0000000E+00   4.3295446E-01   5.0559741E-01   0.0000000E+00   1.0769662E-01   5.0037283E-01   0.0000000E+00   3.0212474E-01   4.9333414E-01   0.0000000E+00   4.5755938E-01   4.8372141E-01   0.0000000E+00   4.4369465E-01   4.7125599E-01   0.0000000E+00   4.4145635E-01   4.5630682E-01   0.0000000E+00   4.3896210E-01   4.5566031E-01   0.0000000E+00   1.1087359E-01   4.5270962E-01   0.0000000E+00   3.0235568E-01   4.4790158E-01   0.0000000E+00   4.5542842E-01   4.4039351E-01   0.0000000E+00   4.4231880E-01   4.2982221E-01   0.0000000E+00   4.4101498E-01   4.1650647E-01   0.0000000E+00   4.3899256E-01   4.0865424E-01   0.0000000E+00   1.2022484E-01   4.0679055E-01   0.0000000E+00   3.0925024E-01   4.0306425E-01   0.0000000E+00   4.5625067E-01   3.9672476E-01   0.0000000E+00   4.3952355E-01   3.8740507E-01   0.0000000E+00   4.3687445E-01   3.7537012E-01   0.0000000E+00   4.3442488E-01   3.6861303E-01   0.0000000E+00   1.2715814E-01   3.6682016E-01   0.0000000E+00   3.1189263E-01   3.6322337E-01   0.0000000E+00   4.5230839E-01   3.5721195E-01   0.0000000E+00   4.3290895E-01   3.4844950E-01   0.0000000E+00   4.2886409E-01   3.3716965E-01   0.0000000E+00   4.2571136E-01   3.3184758E-01   0.0000000E+00   1.2994318E-01   3.2941940E-01   0.0000000E+00   3.0803573E-01   3.2525048E-01   0.0000000E+00   4.4192520E-01   3.1886297E-01   0.0000000E+00   4.2165965E-01   3.0998114E-01   0.0000000E+00   4.1668347E-01   2.9886210E-01   0.0000000E+00   4.1283038E-01   2.9268828E-01   0.0000000E+00   1.2984702E-01   2.8914019E-01   0.0000000E+00   2.9835144E-01   2.8383946E-01   0.0000000E+00   4.2480212E-01   2.7643117E-01   0.0000000E+00   4.0553862E-01   2.6675543E-01   0.0000000E+00   4.0017685E-01   2.5519681E-01   0.0000000E+00   3.9574653E-01   2.4862054E-01   0.0000000E+00   1.2793860E-01   2.4349713E-01   0.0000000E+00   2.8415635E-01   2.3650046E-01   0.0000000E+00   4.0153861E-01   2.2740537E-01   0.0000000E+00   3.8485259E-01   2.1627511E-01   0.0000000E+00   3.7956986E-01   2.0376009E-01   0.0000000E+00   3.7471515E-01   2.0210031E-01   0.0000000E+00   1.2472849E-01   1.9487467E-01   0.0000000E+00   2.6607087E-01   1.8554437E-01   0.0000000E+00   3.7338531E-01   1.7408226E-01   0.0000000E+00   3.6033961E-01   1.6093720E-01   0.0000000E+00   3.5551822E-01   1.4716905E-01   0.0000000E+00   3.5037848E-01   1.5890720E-01   0.0000000E+00   1.2080178E-01   1.4899892E-01   0.0000000E+00   2.4712889E-01   1.3670279E-01   0.0000000E+00   3.4338874E-01   1.2232605E-01   0.0000000E+00   3.3317471E-01   1.0687396E-01   0.0000000E+00   3.2905155E-01   9.1846816E-02   0.0000000E+00   3.2372886E-01   1.2469077E-01   0.0000000E+00   1.1722163E-01   1.1160073E-01   0.0000000E+00   2.2855690E-01   9.5950507E-02   0.0000000E+00   3.1374869E-01   7.8478247E-02   0.0000000E+00   3.0475548E-01   6.0734313E-02   0.0000000E+00   3.0139300E-01   4.4542942E-02   0.0000000E+00   2.9595843E-01   1.0170250E-01   0.0000000E+00   1.1167092E-01   8.5294470E-02   0.0000000E+00   2.1043779E-01   6.6363700E-02   0.0000000E+00   2.8535143E-01   4.6089694E-02   0.0000000E+00   2.7659628E-01   2.6393924E-02   0.0000000E+00   2.7400151E-01   9.2125162E-03   0.0000000E+00   2.6840031E-01   8.8292599E-02   0.0000000E+00   1.0219753E-01   6.8756521E-02   0.0000000E+00   1.9112024E-01   4.6984896E-02   0.0000000E+00   2.5794926E-01   2.4629228E-02   0.0000000E+00   2.5062567E-01   3.7683002E-03   0.0000000E+00   2.4842834E-01  -1.3883547E-02   0.0000000E+00   2.4251331E-01   8.0931462E-02   0.0000000E+00   8.9883380E-02   5.8124986E-02   0.0000000E+00   1.6960979E-01   3.3908248E-02   0.0000000E+00   2.3232920E-01   1.0543250E-02   0.0000000E+00   2.2851926E-01  -1.0129018E-02   0.0000000E+00   2.2620288E-01  -2.7163805E-02   0.0000000E+00   2.1960960E-01   7.9871207E-02   0.0000000E+00   8.4894493E-02   5.0459951E-02   0.0000000E+00   1.5195316E-01   2.2786306E-02   0.0000000E+00   2.1152569E-01  -5.0345063E-04   0.0000000E+00   2.1154732E-01  -1.9120097E-02   0.0000000E+00   2.0814618E-01  -3.3921059E-02   0.0000000E+00   2.0043975E-01   8.7535061E-02   0.0000000E+00   9.4141461E-02   4.4187501E-02   0.0000000E+00   1.4514644E-01   1.1268758E-02   0.0000000E+00   1.9768365E-01  -1.1444822E-02   0.0000000E+00   1.9994055E-01  -2.6157226E-02   0.0000000E+00   1.9419087E-01  -3.6973491E-02   0.0000000E+00   1.8520308E-01   1.0130028E-01   0.0000000E+00   1.0834068E-01   3.9958753E-02   0.0000000E+00   1.4404994E-01   4.4901465E-04   0.0000000E+00   1.8830441E-01  -2.2488711E-02   0.0000000E+00   1.9281743E-01  -3.2397240E-02   0.0000000E+00   1.8393059E-01  -3.7980042E-02   0.0000000E+00   1.7352532E-01   3.8926903E-02   0.0000000E+00   1.3765492E-01  -5.7099238E-03   0.0000000E+00   1.7601006E-01  -3.0329518E-02   0.0000000E+00   1.8643819E-01  -3.7388686E-02   0.0000000E+00   1.7675298E-01  -3.7536345E-02   0.0000000E+00   1.6456528E-01   4.3417003E-02   0.0000000E+00   1.2969734E-01  -3.4193529E-03   0.0000000E+00   1.6086933E-01  -3.0413784E-02   0.0000000E+00   1.7735301E-01  -3.8911782E-02   0.0000000E+00   1.7054792E-01  -3.5860080E-02   0.0000000E+00   1.5741862E-01   8.9643337E-03   0.0000000E+00   1.4691539E-01  -2.0145059E-02   0.0000000E+00   1.6636929E-01  -3.3666238E-02   0.0000000E+00   1.6438752E-01  -3.2332547E-02   0.0000000E+00   1.5129524E-01   2.9589353E-02   0.0000000E+00   1.3470843E-01   1.1375116E-03   0.0000000E+00   1.5524678E-01  -1.8055165E-02   0.0000000E+00   1.5815131E-01  -2.3924815E-02   0.0000000E+00   1.4653158E-01   2.8527411E-02   0.0000000E+00   1.4420411E-01   8.6945165E-03   0.0000000E+00   1.5179424E-01  -5.3418959E-03   0.0000000E+00   1.4335957E-01   4.0423278E-02   0.0000000E+00   1.4381577E-01   2.4684466E-02   0.0000000E+00   1.4094363E-01   5.9754808E-02   0.0000000E+00   1.3352253E-01   5.6616709E-02   0.0000000E+00   1.3674016E-01  -7.5093179E-04   0.0000000E+00   2.6735450E-05  -7.7921315E-04   0.0000000E+00   2.6740237E-05  -7.9964311E-04   0.0000000E+00   2.5227411E-05  -8.1416930E-04   0.0000000E+00   2.3137605E-05  -8.2430977E-04   0.0000000E+00   2.0951342E-05  -8.3124352E-04   0.0000000E+00   1.8934634E-05  -8.3584536E-04   0.0000000E+00   1.7245817E-05  -8.3873392E-04   0.0000000E+00   1.5979353E-05  -8.4031472E-04   0.0000000E+00   1.5195566E-05  -9.8333240E-04   0.0000000E+00   3.9308510E-05  -1.0174962E-03   0.0000000E+00   3.9164268E-05  -1.0417190E-03   0.0000000E+00   3.6903690E-05  -1.0585801E-03   0.0000000E+00   3.3853357E-05  -1.0700723E-03   0.0000000E+00   3.0656083E-05  -1.0777356E-03   0.0000000E+00   2.7698154E-05  -1.0826965E-03   0.0000000E+00   2.5216270E-05  -1.0857403E-03   0.0000000E+00   2.3353623E-05  -1.0873772E-03   0.0000000E+00   2.2200787E-05  -1.2579635E-03   0.0000000E+00   5.4369393E-05  -1.2974472E-03   0.0000000E+00   5.3909247E-05  -1.3247193E-03   0.0000000E+00   5.0697603E-05  -1.3431351E-03   0.0000000E+00   4.6478901E-05  -1.3552562E-03   0.0000000E+00   4.2057713E-05  -1.3630312E-03   0.0000000E+00   3.7958325E-05  -1.3678599E-03   0.0000000E+00   3.4512745E-05  -1.3707066E-03   0.0000000E+00   3.1925123E-05  -1.3721872E-03   0.0000000E+00   3.0323579E-05  -1.6031582E-03   0.0000000E+00   7.2429233E-05  -1.6477570E-03   0.0000000E+00   7.1406670E-05  -1.6775150E-03   0.0000000E+00   6.6969384E-05  -1.6967845E-03   0.0000000E+00   6.1297622E-05  -1.7088319E-03   0.0000000E+00   5.5365392E-05  -1.7160836E-03   0.0000000E+00   4.9856833E-05  -1.7202600E-03   0.0000000E+00   4.5219509E-05  -1.7225249E-03   0.0000000E+00   4.1734653E-05  -1.7236148E-03   0.0000000E+00   3.9577779E-05  -2.0506678E-03   0.0000000E+00   9.4681498E-05  -2.1003182E-03   0.0000000E+00   9.2764036E-05  -2.1320134E-03   0.0000000E+00   8.6693537E-05  -2.1513901E-03   0.0000000E+00   7.9125326E-05  -2.1625659E-03   0.0000000E+00   7.1237970E-05  -2.1685497E-03   0.0000000E+00   6.3908017E-05  -2.1714456E-03   0.0000000E+00   5.7729449E-05  -2.1726575E-03   0.0000000E+00   5.3083782E-05  -2.1730664E-03   0.0000000E+00   5.0208680E-05  -2.6343158E-03   0.0000000E+00   1.2316497E-04  -2.6886761E-03   0.0000000E+00   1.1986647E-04  -2.7214729E-03   0.0000000E+00   1.1151559E-04  -2.7399051E-03   0.0000000E+00   1.0134657E-04  -2.7491122E-03   0.0000000E+00   9.0796624E-05  -2.7528033E-03   0.0000000E+00   8.0991413E-05  -2.7535532E-03   0.0000000E+00   7.2720235E-05  -2.7530640E-03   0.0000000E+00   6.6500659E-05  -2.7523928E-03   0.0000000E+00   6.2652740E-05  -3.3903907E-03   0.0000000E+00   1.6125890E-04  -3.4483084E-03   0.0000000E+00   1.5558921E-04  -3.4806607E-03   0.0000000E+00   1.4383908E-04  -3.4964501E-03   0.0000000E+00   1.2993057E-04  -3.5020085E-03   0.0000000E+00   1.1560058E-04  -3.5018851E-03   0.0000000E+00   1.0230036E-04  -3.4992278E-03   0.0000000E+00   9.1087357E-05  -3.4960986E-03   0.0000000E+00   8.2662496E-05  -3.4937700E-03   0.0000000E+00   7.7455181E-05  -4.3600230E-03   0.0000000E+00   2.1480839E-04  -4.4187438E-03   0.0000000E+00   2.0432373E-04  -4.4478299E-03   0.0000000E+00   1.8705316E-04  -4.4581965E-03   0.0000000E+00   1.6749396E-04  -4.4575091E-03   0.0000000E+00   1.4762720E-04  -4.4513009E-03   0.0000000E+00   1.2928482E-04  -4.4433810E-03   0.0000000E+00   1.1386754E-04  -4.4362494E-03   0.0000000E+00   1.0231129E-04  -4.4314316E-03   0.0000000E+00   9.5181909E-05  -5.5936282E-03   0.0000000E+00   2.9364825E-04  -5.6472500E-03   0.0000000E+00   2.7285187E-04  -5.6683100E-03   0.0000000E+00   2.4593080E-04  -5.6688776E-03   0.0000000E+00   2.1743859E-04  -5.6580459E-03   0.0000000E+00   1.8928028E-04  -5.6424183E-03   0.0000000E+00   1.6360242E-04  -5.6265807E-03   0.0000000E+00   1.4216977E-04  -5.6135138E-03   0.0000000E+00   1.2618072E-04  -5.6050387E-03   0.0000000E+00   1.1634814E-04  -7.1537192E-03   0.0000000E+00   4.1245448E-04  -7.1927398E-03   0.0000000E+00   3.7105853E-04  -7.1983216E-03   0.0000000E+00   3.2701195E-04  -7.1825339E-03   0.0000000E+00   2.8409989E-04  -7.1558775E-03   0.0000000E+00   2.4341042E-04  -7.1261050E-03   0.0000000E+00   2.0708200E-04  -7.0986166E-03   0.0000000E+00   1.7712584E-04  -7.0769503E-03   0.0000000E+00   1.5495086E-04  -7.0632170E-03   0.0000000E+00   1.4138040E-04  -9.1144349E-03   0.0000000E+00   5.9001922E-04  -9.1263251E-03   0.0000000E+00   5.1173399E-04  -9.1055660E-03   0.0000000E+00   4.3857825E-04  -9.0640150E-03   0.0000000E+00   3.7271308E-04  -9.0135289E-03   0.0000000E+00   3.1325250E-04  -8.9630494E-03   0.0000000E+00   2.6166067E-04  -8.9188330E-03   0.0000000E+00   2.1984556E-04  -8.8849571E-03   0.0000000E+00   1.8922905E-04  -8.8638198E-03   0.0000000E+00   1.7061879E-04  -1.1561736E-02   0.0000000E+00   8.4667775E-04  -1.1531179E-02   0.0000000E+00   7.0906163E-04  -1.1469339E-02   0.0000000E+00   5.8989733E-04  -1.1389120E-02   0.0000000E+00   4.8901624E-04  -1.1303888E-02   0.0000000E+00   4.0219634E-04  -1.1223841E-02   0.0000000E+00   3.2925693E-04  -1.1156119E-02   0.0000000E+00   2.7137285E-04  -1.1105278E-02   0.0000000E+00   2.2957327E-04  -1.1073936E-02   0.0000000E+00   2.0438206E-04  -1.4595585E-02   0.0000000E+00   1.2006923E-03  -1.4503505E-02   0.0000000E+00   9.7633043E-04  -1.4381494E-02   0.0000000E+00   7.8984309E-04  -1.4245588E-02   0.0000000E+00   6.3848286E-04  -1.4111175E-02   0.0000000E+00   5.1341136E-04  -1.3989951E-02   0.0000000E+00   4.1163634E-04  -1.3889947E-02   0.0000000E+00   3.3271892E-04  -1.3816076E-02   0.0000000E+00   2.7664003E-04  -1.3770984E-02   0.0000000E+00   2.4318761E-04  -1.8331852E-02   0.0000000E+00   1.6654670E-03  -1.8153738E-02   0.0000000E+00   1.3238575E-03  -1.7947335E-02   0.0000000E+00   1.0454090E-03  -1.7733857E-02   0.0000000E+00   8.2543842E-04  -1.7531725E-02   0.0000000E+00   6.4945017E-04  -1.7354563E-02   0.0000000E+00   5.1038183E-04  -1.7211253E-02   0.0000000E+00   4.0508341E-04  -1.7106829E-02   0.0000000E+00   3.3157723E-04  -1.7043626E-02   0.0000000E+00   2.8824370E-04  -2.2903714E-02   0.0000000E+00   2.2493352E-03  -2.2608072E-02   0.0000000E+00   1.7580359E-03  -2.2286600E-02   0.0000000E+00   1.3607390E-03  -2.1967782E-02   0.0000000E+00   1.0524666E-03  -2.1674633E-02   0.0000000E+00   8.1210362E-04  -2.1423230E-02   0.0000000E+00   6.2716135E-04  -2.1223228E-02   0.0000000E+00   4.9044163E-04  -2.1079237E-02   0.0000000E+00   3.9682389E-04  -2.0992780E-02   0.0000000E+00   3.4237446E-04  -2.8464453E-02   0.0000000E+00   2.9576963E-03  -2.8010450E-02   0.0000000E+00   2.2815603E-03  -2.7534418E-02   0.0000000E+00   1.7370764E-03  -2.7075181E-02   0.0000000E+00   1.3204926E-03  -2.6662244E-02   0.0000000E+00   1.0028603E-03  -2.6314566E-02   0.0000000E+00   7.6459209E-04  -2.6042087E-02   0.0000000E+00   5.9273420E-04  -2.5848184E-02   0.0000000E+00   4.7752744E-04  -2.5732676E-02   0.0000000E+00   4.1156204E-04  -3.5191260E-02   0.0000000E+00   3.7948631E-03  -3.4523841E-02   0.0000000E+00   2.8945045E-03  -3.3841960E-02   0.0000000E+00   2.1736219E-03  -3.3198491E-02   0.0000000E+00   1.6298933E-03  -3.2630991E-02   0.0000000E+00   1.2244008E-03  -3.2161292E-02   0.0000000E+00   9.2807430E-04  -3.1798456E-02   0.0000000E+00   7.1997778E-04  -3.1543214E-02   0.0000000E+00   5.8382202E-04  -3.1392440E-02   0.0000000E+00   5.0731527E-04  -4.3285526E-02   0.0000000E+00   4.7632735E-03  -4.2330001E-02   0.0000000E+00   3.5953554E-03  -4.1376427E-02   0.0000000E+00   2.6693689E-03  -4.0495090E-02   0.0000000E+00   1.9830465E-03  -3.9732244E-02   0.0000000E+00   1.4836267E-03  -3.9111391E-02   0.0000000E+00   1.1290915E-03  -3.8638845E-02   0.0000000E+00   8.8764192E-04  -3.8310397E-02   0.0000000E+00   7.3421001E-04  -3.8118027E-02   0.0000000E+00   6.5002014E-04  -5.2968659E-02   0.0000000E+00   5.8628134E-03  -5.1627040E-02   0.0000000E+00   4.3823193E-03  -5.0320178E-02   0.0000000E+00   3.2264031E-03  -4.9137626E-02   0.0000000E+00   2.3889460E-03  -4.8133351E-02   0.0000000E+00   1.7968825E-03  -4.7329962E-02   0.0000000E+00   1.3904403E-03  -4.6727721E-02   0.0000000E+00   1.1236100E-03  -4.6314422E-02   0.0000000E+00   9.6017733E-04  -4.6074566E-02   0.0000000E+00   8.7328797E-04  -6.4475909E-02   0.0000000E+00   7.0898826E-03  -6.2626243E-02   0.0000000E+00   5.2566864E-03  -6.0869876E-02   0.0000000E+00   3.8562850E-03  -5.9314888E-02   0.0000000E+00   2.8710139E-03  -5.8019675E-02   0.0000000E+00   2.1979986E-03  -5.7001673E-02   0.0000000E+00   1.7537565E-03  -5.6250419E-02   0.0000000E+00   1.4747850E-03  -5.5741679E-02   0.0000000E+00   1.3118883E-03  -5.5449311E-02   0.0000000E+00   1.2290179E-03  -7.8047171E-02   0.0000000E+00   8.4402673E-03  -7.5546913E-02   0.0000000E+00   6.2312591E-03  -7.3234767E-02   0.0000000E+00   4.5916243E-03  -7.1232513E-02   0.0000000E+00   3.4794286E-03  -6.9596685E-02   0.0000000E+00   2.7496840E-03  -6.8333223E-02   0.0000000E+00   2.2891937E-03  -6.7415506E-02   0.0000000E+00   2.0149052E-03  -6.6802412E-02   0.0000000E+00   1.8643738E-03  -6.6453673E-02   0.0000000E+00   1.7925120E-03  -9.3906984E-02   0.0000000E+00   9.9221105E-03  -9.0602078E-02   0.0000000E+00   7.3478576E-03  -8.7626658E-02   0.0000000E+00   5.5049183E-03  -8.5105456E-02   0.0000000E+00   4.3085702E-03  -8.3083645E-02   0.0000000E+00   3.5580134E-03  -8.1547648E-02   0.0000000E+00   3.1064088E-03  -8.0448791E-02   0.0000000E+00   2.8523209E-03  -7.9724386E-02   0.0000000E+00   2.7228182E-03  -7.9316430E-02   0.0000000E+00   2.6661921E-03  -1.1221422E-01   0.0000000E+00   1.1584461E-02  -1.0795430E-01   0.0000000E+00   8.7066144E-03  -1.0421988E-01   0.0000000E+00   6.7350902E-03  -1.0112065E-01   0.0000000E+00   5.5185696E-03  -9.8676592E-02   0.0000000E+00   4.7881845E-03  -9.6847177E-02   0.0000000E+00   4.3649045E-03  -9.5555753E-02   0.0000000E+00   4.1358438E-03  -9.4714589E-02   0.0000000E+00   4.0251007E-03  -9.4245501E-02   0.0000000E+00   3.9801085E-03  -1.3294886E-01   0.0000000E+00   1.3564011E-02  -1.2760851E-01   0.0000000E+00   1.0505571E-02  -1.2304610E-01   0.0000000E+00   8.5179685E-03  -1.1933044E-01   0.0000000E+00   7.3561519E-03  -1.1644195E-01   0.0000000E+00   6.6769761E-03  -1.1430521E-01   0.0000000E+00   6.2796916E-03  -1.1281309E-01   0.0000000E+00   6.0554524E-03  -1.1185046E-01   0.0000000E+00   5.9392313E-03  -1.1131781E-01   0.0000000E+00   5.8875671E-03  -1.5572031E-01   0.0000000E+00   1.6147453E-02  -1.4922018E-01   0.0000000E+00   1.3083109E-02  -1.4379866E-01   0.0000000E+00   1.1211663E-02  -1.3945431E-01   0.0000000E+00   1.0167181E-02  -1.3611321E-01   0.0000000E+00   9.5356526E-03  -1.3366134E-01   0.0000000E+00   9.1177309E-03  -1.3196075E-01   0.0000000E+00   8.8344179E-03  -1.3087060E-01   0.0000000E+00   8.6528426E-03  -1.3027036E-01   0.0000000E+00   8.5532935E-03  -1.7952006E-01   0.0000000E+00   1.9846205E-02  -1.7184463E-01   0.0000000E+00   1.6955426E-02  -1.6557431E-01   0.0000000E+00   1.5307480E-02  -1.6061236E-01   0.0000000E+00   1.4392146E-02  -1.5682030E-01   0.0000000E+00   1.3738454E-02  -1.5404615E-01   0.0000000E+00   1.3182585E-02  -1.5212564E-01   0.0000000E+00   1.2711798E-02  -1.5089644E-01   0.0000000E+00   1.2354078E-02  -1.5022065E-01   0.0000000E+00   1.2133082E-02  -2.0248687E-01   0.0000000E+00   2.5498768E-02  -1.9371277E-01   0.0000000E+00   2.2855576E-02  -1.8664926E-01   0.0000000E+00   2.1426167E-02  -1.8109924E-01   0.0000000E+00   2.0543654E-02  -1.7686146E-01   0.0000000E+00   1.9695209E-02  -1.7375296E-01   0.0000000E+00   1.8788304E-02  -1.7159179E-01   0.0000000E+00   1.7917575E-02  -1.7020237E-01   0.0000000E+00   1.7207343E-02  -1.6943565E-01   0.0000000E+00   1.6749557E-02  -2.2177523E-01   0.0000000E+00   3.4385543E-02  -2.1211468E-01   0.0000000E+00   3.1793546E-02  -2.0438115E-01   0.0000000E+00   3.0325256E-02  -1.9830148E-01   0.0000000E+00   2.9184598E-02  -1.9363351E-01   0.0000000E+00   2.7822716E-02  -1.9017956E-01   0.0000000E+00   2.6232585E-02  -1.8775168E-01   0.0000000E+00   2.4649866E-02  -1.8617256E-01   0.0000000E+00   2.3333460E-02  -1.8529254E-01   0.0000000E+00   2.2474330E-02  -2.3351285E-01   0.0000000E+00   4.8243184E-02  -2.2337280E-01   0.0000000E+00   4.5089770E-02  -2.1520922E-01   0.0000000E+00   4.2924017E-02  -2.0872852E-01   0.0000000E+00   4.0931169E-02  -2.0369120E-01   0.0000000E+00   3.8533203E-02  -1.9990997E-01   0.0000000E+00   3.5783205E-02  -1.9720857E-01   0.0000000E+00   3.3064421E-02  -1.9542135E-01   0.0000000E+00   3.0803179E-02  -1.9441076E-01   0.0000000E+00   2.9324118E-02  -2.3248063E-01   0.0000000E+00   6.9031186E-02  -2.2253577E-01   0.0000000E+00   6.4263783E-02  -2.1437618E-01   0.0000000E+00   6.0270965E-02  -2.0776929E-01   0.0000000E+00   5.6447830E-02  -2.0253347E-01   0.0000000E+00   5.2231230E-02  -1.9852854E-01   0.0000000E+00   4.7673959E-02  -1.9561185E-01   0.0000000E+00   4.3273743E-02  -1.9364476E-01   0.0000000E+00   3.9641164E-02  -1.9251433E-01   0.0000000E+00   3.7268784E-02  -2.1175405E-01   0.0000000E+00   9.8424867E-02  -2.0299637E-01   0.0000000E+00   9.0668313E-02  -1.9553630E-01   0.0000000E+00   8.3327971E-02  -1.8929878E-01   0.0000000E+00   7.6338254E-02  -1.8421942E-01   0.0000000E+00   6.9259703E-02  -1.8024558E-01   0.0000000E+00   6.2079005E-02  -1.7729166E-01   0.0000000E+00   5.5339690E-02  -1.7526242E-01   0.0000000E+00   4.9831670E-02  -1.7407890E-01   0.0000000E+00   4.6244796E-02  -1.6371550E-01   0.0000000E+00   1.3708740E-01  -1.5739964E-01   0.0000000E+00   1.2488683E-01  -1.5158552E-01   0.0000000E+00   1.1253594E-01  -1.4645562E-01   0.0000000E+00   1.0087182E-01  -1.4211316E-01   0.0000000E+00   8.9740634E-02  -1.3861828E-01   0.0000000E+00   7.9023883E-02  -1.3596347E-01   0.0000000E+00   6.9228500E-02  -1.3410781E-01   0.0000000E+00   6.1303012E-02  -1.3301142E-01   0.0000000E+00   5.6158036E-02  -8.3035335E-02   0.0000000E+00   1.8391761E-01  -8.0410607E-02   0.0000000E+00   1.6608733E-01  -7.7298224E-02   0.0000000E+00   1.4731042E-01  -7.4172206E-02   0.0000000E+00   1.2962855E-01  -7.1326688E-02   0.0000000E+00   1.1334386E-01  -6.8931714E-02   0.0000000E+00   9.8236263E-02  -6.7057058E-02   0.0000000E+00   8.4717311E-02  -6.5718547E-02   0.0000000E+00   7.3872283E-02  -6.4916104E-02   0.0000000E+00   6.6850252E-02   2.9231941E-02   0.0000000E+00   2.3565437E-01   2.7306691E-02   0.0000000E+00   2.1166334E-01   2.6813354E-02   0.0000000E+00   1.8573368E-01   2.7074199E-02   0.0000000E+00   1.6125180E-01   2.7642932E-02   0.0000000E+00   1.3910134E-01   2.8273720E-02   0.0000000E+00   1.1901033E-01   2.8841950E-02   0.0000000E+00   1.0129049E-01   2.9284600E-02   0.0000000E+00   8.7161928E-02   2.9565142E-02   0.0000000E+00   7.8030080E-02   1.6212323E-01   0.0000000E+00   2.8727534E-01   1.5541413E-01   0.0000000E+00   2.5752518E-01   1.5080595E-01   0.0000000E+00   2.2469889E-01   1.4761125E-01   0.0000000E+00   1.9347677E-01   1.4533915E-01   0.0000000E+00   1.6538250E-01   1.4371932E-01   0.0000000E+00   1.4016813E-01   1.4259645E-01   0.0000000E+00   1.1809856E-01   1.4186846E-01   0.0000000E+00   1.0055850E-01   1.4146256E-01   0.0000000E+00   8.9231133E-02   2.9405198E-01   0.0000000E+00   3.3335546E-01   2.8299600E-01   0.0000000E+00   2.9913676E-01   2.7432433E-01   0.0000000E+00   2.6060700E-01   2.6755983E-01   0.0000000E+00   2.2356567E-01   2.6230475E-01   0.0000000E+00   1.9015293E-01   2.5831822E-01   0.0000000E+00   1.6021812E-01   2.5542516E-01   0.0000000E+00   1.3406268E-01   2.5347918E-01   0.0000000E+00   1.1328497E-01   2.5236312E-01   0.0000000E+00   9.9864222E-02   3.9796972E-01   0.0000000E+00   3.6986554E-01   3.8358203E-01   0.0000000E+00   3.3290973E-01   3.7150326E-01   0.0000000E+00   2.9041764E-01   3.6161786E-01   0.0000000E+00   2.4906640E-01   3.5373333E-01   0.0000000E+00   2.1150218E-01   3.4767964E-01   0.0000000E+00   1.7771100E-01   3.4326461E-01   0.0000000E+00   1.4811255E-01   3.4028780E-01   0.0000000E+00   1.2456033E-01   3.3857864E-01   0.0000000E+00   1.0933143E-01   4.5472726E-01   0.0000000E+00   3.9528432E-01   4.3838876E-01   0.0000000E+00   3.5716122E-01   4.2404169E-01   0.0000000E+00   3.1248325E-01   4.1196224E-01   0.0000000E+00   2.6849023E-01   4.0220723E-01   0.0000000E+00   2.2815691E-01   3.9469671E-01   0.0000000E+00   1.9160554E-01   3.8922855E-01   0.0000000E+00   1.5942787E-01   3.8555309E-01   0.0000000E+00   1.3374777E-01   3.8344765E-01   0.0000000E+00   1.1711681E-01   4.6385077E-01   0.0000000E+00   4.1040424E-01   4.4695351E-01   0.0000000E+00   3.7216124E-01   4.3162754E-01   0.0000000E+00   3.2671139E-01   4.1848078E-01   0.0000000E+00   2.8151304E-01   4.0778863E-01   0.0000000E+00   2.3968187E-01   3.9955118E-01   0.0000000E+00   2.0144647E-01   3.9356756E-01   0.0000000E+00   1.6758421E-01   3.8955981E-01   0.0000000E+00   1.4046913E-01   3.8727129E-01   0.0000000E+00   1.2287966E-01   4.3992266E-01   0.0000000E+00   4.1718593E-01   4.2349732E-01   0.0000000E+00   3.7935391E-01   4.0826288E-01   0.0000000E+00   3.3403417E-01   3.9504167E-01   0.0000000E+00   2.8864586E-01   3.8424727E-01   0.0000000E+00   2.4629310E-01   3.7592998E-01   0.0000000E+00   2.0727299E-01   3.6989948E-01   0.0000000E+00   1.7252405E-01   3.6587015E-01   0.0000000E+00   1.4461443E-01   3.6357552E-01   0.0000000E+00   1.2648357E-01   4.0145287E-01   0.0000000E+00   4.1766956E-01   3.8604128E-01   0.0000000E+00   3.8042113E-01   3.7156206E-01   0.0000000E+00   3.3570227E-01   3.5892412E-01   0.0000000E+00   2.9073948E-01   3.4858787E-01   0.0000000E+00   2.4853607E-01   3.4062105E-01   0.0000000E+00   2.0941868E-01   3.3484682E-01   0.0000000E+00   1.7443681E-01   3.3099291E-01   0.0000000E+00   1.4627671E-01   3.2879981E-01   0.0000000E+00   1.2796415E-01   3.6154971E-01   0.0000000E+00   4.1326913E-01   3.4726807E-01   0.0000000E+00   3.7664023E-01   3.3379644E-01   0.0000000E+00   3.3276469E-01   3.2202742E-01   0.0000000E+00   2.8860223E-01   3.1239739E-01   0.0000000E+00   2.4701157E-01   3.0496925E-01   0.0000000E+00   2.0832010E-01   2.9957861E-01   0.0000000E+00   1.7362966E-01   2.9597497E-01   0.0000000E+00   1.4566638E-01   2.9392183E-01   0.0000000E+00   1.2747104E-01   3.2423890E-01   0.0000000E+00   4.0462396E-01   3.1091660E-01   0.0000000E+00   3.6869976E-01   2.9840466E-01   0.0000000E+00   3.2588562E-01   2.8751054E-01   0.0000000E+00   2.8283224E-01   2.7860913E-01   0.0000000E+00   2.4223436E-01   2.7173781E-01   0.0000000E+00   2.0440051E-01   2.6673824E-01   0.0000000E+00   1.7043753E-01   2.6338378E-01   0.0000000E+00   1.4304481E-01   2.6146588E-01   0.0000000E+00   1.2521785E-01   2.8636703E-01   0.0000000E+00   3.9188963E-01   2.7370435E-01   0.0000000E+00   3.5688213E-01   2.6197305E-01   0.0000000E+00   3.1543314E-01   2.5185281E-01   0.0000000E+00   2.7384105E-01   2.4362424E-01   0.0000000E+00   2.3461610E-01   2.3727818E-01   0.0000000E+00   1.9803737E-01   2.3264851E-01   0.0000000E+00   1.6518904E-01   2.2952805E-01   0.0000000E+00   1.3869563E-01   2.2773586E-01   0.0000000E+00   1.2145713E-01   2.4269612E-01   0.0000000E+00   3.7514579E-01   2.3043019E-01   0.0000000E+00   3.4137681E-01   2.1935514E-01   0.0000000E+00   3.0169010E-01   2.0997310E-01   0.0000000E+00   2.6197305E-01   2.0242646E-01   0.0000000E+00   2.2452158E-01   1.9663231E-01   0.0000000E+00   1.8958373E-01   1.9240332E-01   0.0000000E+00   1.5821028E-01   1.8954316E-01   0.0000000E+00   1.3291696E-01   1.8789408E-01   0.0000000E+00   1.1646766E-01   1.9096641E-01   0.0000000E+00   3.5469377E-01   1.7902648E-01   0.0000000E+00   3.2252884E-01   1.6867985E-01   0.0000000E+00   2.8503418E-01   1.6017674E-01   0.0000000E+00   2.4761912E-01   1.5347284E-01   0.0000000E+00   2.1233737E-01   1.4838383E-01   0.0000000E+00   1.7940621E-01   1.4468686E-01   0.0000000E+00   1.4984015E-01   1.4218836E-01   0.0000000E+00   1.2602100E-01   1.4074659E-01   0.0000000E+00   1.1054253E-01   1.3407217E-01   0.0000000E+00   3.3116272E-01   1.2265502E-01   0.0000000E+00   3.0093530E-01   1.1333226E-01   0.0000000E+00   2.6601398E-01   1.0602814E-01   0.0000000E+00   2.3127568E-01   1.0047338E-01   0.0000000E+00   1.9851163E-01   9.6362084E-02   0.0000000E+00   1.6790751E-01   9.3425505E-02   0.0000000E+00   1.4043646E-01   9.1462046E-02   0.0000000E+00   1.1832560E-01   9.0336204E-02   0.0000000E+00   1.0397240E-01   7.8648269E-02   0.0000000E+00   3.0547649E-01   6.8059579E-02   0.0000000E+00   2.7742383E-01   6.0090851E-02   0.0000000E+00   2.4534158E-01   5.4297194E-02   0.0000000E+00   2.1354410E-01   5.0168626E-02   0.0000000E+00   1.8355475E-01   4.7274787E-02   0.0000000E+00   1.5552211E-01   4.5297775E-02   0.0000000E+00   1.3036534E-01   4.4021174E-02   0.0000000E+00   1.1013921E-01   4.3306708E-02   0.0000000E+00   9.7025216E-02   3.1351693E-02   0.0000000E+00   2.7875301E-01   2.1691112E-02   0.0000000E+00   2.5297508E-01   1.5160575E-02   0.0000000E+00   2.2383410E-01   1.0939471E-02   0.0000000E+00   1.9508968E-01   8.2789483E-03   0.0000000E+00   1.6800719E-01   6.6316156E-03   0.0000000E+00   1.4269125E-01   5.6370725E-03   0.0000000E+00   1.1998457E-01   5.0664912E-03   0.0000000E+00   1.0175165E-01   4.7771283E-03   0.0000000E+00   8.9945957E-02  -4.0759887E-03   0.0000000E+00   2.5221565E-01  -1.3046211E-02   0.0000000E+00   2.2864434E-01  -1.8406063E-02   0.0000000E+00   2.0235071E-01  -2.1319544E-02   0.0000000E+00   1.7658837E-01  -2.2758637E-02   0.0000000E+00   1.5239683E-01  -2.3375303E-02   0.0000000E+00   1.2982921E-01  -2.3563443E-02   0.0000000E+00   1.0962409E-01  -2.3557050E-02   0.0000000E+00   9.3430154E-02  -2.3499386E-02   0.0000000E+00   8.2961686E-02  -2.7257873E-02   0.0000000E+00   2.2710794E-01  -3.5964958E-02   0.0000000E+00   2.0547742E-01  -4.0695533E-02   0.0000000E+00   1.8172893E-01  -4.2824917E-02   0.0000000E+00   1.5868147E-01  -4.3506071E-02   0.0000000E+00   1.3720402E-01  -4.3477189E-02   0.0000000E+00   1.1729915E-01  -4.3159537E-02   0.0000000E+00   9.9565387E-02  -4.2793322E-02   0.0000000E+00   8.5399248E-02  -4.2521138E-02   0.0000000E+00   7.6259084E-02  -4.0186848E-02   0.0000000E+00   2.0459022E-01  -4.8904344E-02   0.0000000E+00   1.8442142E-01  -5.3645778E-02   0.0000000E+00   1.6272520E-01  -5.5632580E-02   0.0000000E+00   1.4194325E-01  -5.6106366E-02   0.0000000E+00   1.2284620E-01  -5.5869337E-02   0.0000000E+00   1.0539858E-01  -5.5376619E-02   0.0000000E+00   9.0021558E-02  -5.4884341E-02   0.0000000E+00   7.7813163E-02  -5.4538265E-02   0.0000000E+00   6.9957189E-02  -4.5681573E-02   0.0000000E+00   1.8552256E-01  -5.4289743E-02   0.0000000E+00   1.6624728E-01  -5.9549898E-02   0.0000000E+00   1.4597125E-01  -6.2025644E-02   0.0000000E+00   1.2686676E-01  -6.2826663E-02   0.0000000E+00   1.0967755E-01  -6.2788412E-02   0.0000000E+00   9.4357722E-02  -6.2418450E-02   0.0000000E+00   8.1127048E-02  -6.2006209E-02   0.0000000E+00   7.0744902E-02  -6.1708320E-02   0.0000000E+00   6.4097792E-02  -4.6172611E-02   0.0000000E+00   1.7026202E-01  -5.4094635E-02   0.0000000E+00   1.5144214E-01  -6.0054816E-02   0.0000000E+00   1.3194956E-01  -6.3563593E-02   0.0000000E+00   1.1386682E-01  -6.5183066E-02   0.0000000E+00   9.8006390E-02  -6.5711945E-02   0.0000000E+00   8.4362559E-02  -6.5719046E-02   0.0000000E+00   7.2961673E-02  -6.5552346E-02   0.0000000E+00   6.4204529E-02  -6.5396681E-02   0.0000000E+00   5.8656767E-02  -4.3331429E-02   0.0000000E+00   1.5860856E-01  -4.9632490E-02   0.0000000E+00   1.4013289E-01  -5.5952914E-02   0.0000000E+00   1.2097008E-01  -6.0814667E-02   0.0000000E+00   1.0329382E-01  -6.3723698E-02   0.0000000E+00   8.8134669E-02  -6.5208763E-02   0.0000000E+00   7.5612389E-02  -6.5859012E-02   0.0000000E+00   6.5609112E-02  -6.6095516E-02   0.0000000E+00   5.8186777E-02  -6.6162370E-02   0.0000000E+00   5.3579006E-02  -3.8186524E-02   0.0000000E+00   1.4987569E-01  -4.1792706E-02   0.0000000E+00   1.3199002E-01  -4.7637448E-02   0.0000000E+00   1.1309184E-01  -5.3645227E-02   0.0000000E+00   9.5428199E-02  -5.8231145E-02   0.0000000E+00   8.0392659E-02  -6.1131399E-02   0.0000000E+00   6.8383202E-02  -6.2793605E-02   0.0000000E+00   5.9238356E-02  -6.3671730E-02   0.0000000E+00   5.2752037E-02  -6.4084023E-02   0.0000000E+00   4.8850294E-02  -3.1766128E-02   0.0000000E+00   1.4305878E-01  -3.1719603E-02   0.0000000E+00   1.2624702E-01  -3.5829734E-02   0.0000000E+00   1.0798302E-01  -4.2015538E-02   0.0000000E+00   9.0358824E-02  -4.8079759E-02   0.0000000E+00   7.5110905E-02  -5.2753333E-02   0.0000000E+00   6.3048370E-02  -5.5863280E-02   0.0000000E+00   5.4164726E-02  -5.7735574E-02   0.0000000E+00   4.8119690E-02  -5.8709376E-02   0.0000000E+00   4.4607509E-02  -2.5166379E-02   0.0000000E+00   1.3721234E-01  -2.0992225E-02   0.0000000E+00   1.2182928E-01  -2.1988921E-02   0.0000000E+00   1.0484422E-01  -2.6787451E-02   0.0000000E+00   8.7752603E-02  -3.3114310E-02   0.0000000E+00   7.2409488E-02  -3.9093312E-02   0.0000000E+00   5.9999734E-02  -4.3759193E-02   0.0000000E+00   5.0847564E-02  -4.6893001E-02   0.0000000E+00   4.4716850E-02  -4.8641037E-02   0.0000000E+00   4.1226249E-02  -1.8657522E-02   0.0000000E+00   1.3200735E-01  -1.1277296E-02   0.0000000E+00   1.1777904E-01  -8.1065418E-03   0.0000000E+00   1.0256669E-01  -9.7807646E-03   0.0000000E+00   8.6765595E-02  -1.4511305E-02   0.0000000E+00   7.1897045E-02  -2.0251827E-02   0.0000000E+00   5.9326611E-02  -2.5512202E-02   0.0000000E+00   4.9722008E-02  -2.9521087E-02   0.0000000E+00   4.3125305E-02  -3.1963099E-02   0.0000000E+00   3.9321449E-02  -8.4020151E-03   0.0000000E+00   1.2878658E-01  -2.9201491E-03   0.0000000E+00   1.1421519E-01   3.7711479E-03   0.0000000E+00   1.0030682E-01   6.6141193E-03   0.0000000E+00   8.6317547E-02   5.4428112E-03   0.0000000E+00   7.2700769E-02   1.8955806E-03   0.0000000E+00   6.0583737E-02  -2.3306254E-03   0.0000000E+00   5.0821260E-02  -6.0535218E-03   0.0000000E+00   4.3776743E-02  -8.5400203E-03   0.0000000E+00   3.9550819E-02   1.3388606E-02   0.0000000E+00   1.2800679E-01   9.8747024E-03   0.0000000E+00   1.1319872E-01   1.3965378E-02   0.0000000E+00   9.8981492E-02   1.9893927E-02   0.0000000E+00   8.5994616E-02   2.3502793E-02   0.0000000E+00   7.3983058E-02   2.3997063E-02   0.0000000E+00   6.3024633E-02   2.2509655E-02   0.0000000E+00   5.3718369E-02   2.0419996E-02   0.0000000E+00   4.6630353E-02   1.8761685E-02   0.0000000E+00   4.2182866E-02   4.6579070E-02   0.0000000E+00   1.2825331E-01   3.8194839E-02   0.0000000E+00   1.1451728E-01   3.2481279E-02   0.0000000E+00   1.0067652E-01   3.2917593E-02   0.0000000E+00   8.7765768E-02   3.7394468E-02   0.0000000E+00   7.6193266E-02   4.1731231E-02   0.0000000E+00   6.6259615E-02   4.4197392E-02   0.0000000E+00   5.7847794E-02   4.5009561E-02   0.0000000E+00   5.1218104E-02   4.5024291E-02   0.0000000E+00   4.6894852E-02   6.6691294E-02   0.0000000E+00   1.2694684E-01   6.9209069E-02   0.0000000E+00   1.1684220E-01   6.8428949E-02   0.0000000E+00   1.0366452E-01   6.3601710E-02   0.0000000E+00   9.1586851E-02   5.9328791E-02   0.0000000E+00   8.0858313E-02   5.8478169E-02   0.0000000E+00   7.1342394E-02   6.0239568E-02   0.0000000E+00   6.3283511E-02   6.2521599E-02   0.0000000E+00   5.7034615E-02   6.4067923E-02   0.0000000E+00   5.2968644E-02   7.0604138E-02   0.0000000E+00   1.1821362E-01   8.5818902E-02   0.0000000E+00   1.0915325E-01   9.7163551E-02   0.0000000E+00   9.7407550E-02   9.9743918E-02   0.0000000E+00   8.6605750E-02   9.8172605E-02   0.0000000E+00   7.7101871E-02   9.6677892E-02   0.0000000E+00   6.9251232E-02   9.6421808E-02   0.0000000E+00   6.3328728E-02   9.6682146E-02   0.0000000E+00   5.9528701E-02   8.5061766E-02   0.0000000E+00   1.0698584E-01   1.0793458E-01   0.0000000E+00   9.5969014E-02   1.2294934E-01   0.0000000E+00   8.4643140E-02   1.3411219E-01   0.0000000E+00   7.5570323E-02   1.4094459E-01   0.0000000E+00   6.9439739E-02   1.4492097E-01   0.0000000E+00   6.5808371E-02   8.3650887E-02   0.0000000E+00   9.5746979E-02   1.0524839E-01   0.0000000E+00   8.2835898E-02   1.2167706E-01   0.0000000E+00   7.5217754E-02   1.3128637E-01   0.0000000E+00   7.1383610E-02  -8.4081735E-04   0.0000000E+00   1.4930260E-05  -8.4031490E-04   0.0000000E+00   1.5195568E-05  -8.3873409E-04   0.0000000E+00   1.5979362E-05  -8.3584554E-04   0.0000000E+00   1.7245824E-05  -8.3124335E-04   0.0000000E+00   1.8934647E-05  -8.2431000E-04   0.0000000E+00   2.0951353E-05  -8.1416924E-04   0.0000000E+00   2.3137609E-05  -7.9964288E-04   0.0000000E+00   2.5227413E-05  -1.0878922E-03   0.0000000E+00   2.1810605E-05  -1.0873772E-03   0.0000000E+00   2.2200784E-05  -1.0857403E-03   0.0000000E+00   2.3353618E-05  -1.0826965E-03   0.0000000E+00   2.5216275E-05  -1.0777360E-03   0.0000000E+00   2.7698155E-05  -1.0700724E-03   0.0000000E+00   3.0656094E-05  -1.0585805E-03   0.0000000E+00   3.3853383E-05  -1.0417191E-03   0.0000000E+00   3.6903693E-05  -1.3726443E-03   0.0000000E+00   2.9781613E-05  -1.3721866E-03   0.0000000E+00   3.0323581E-05  -1.3707059E-03   0.0000000E+00   3.1925116E-05  -1.3678597E-03   0.0000000E+00   3.4512745E-05  -1.3630306E-03   0.0000000E+00   3.7958340E-05  -1.3552564E-03   0.0000000E+00   4.2057716E-05  -1.3431353E-03   0.0000000E+00   4.6478890E-05  -1.3247193E-03   0.0000000E+00   5.0697628E-05  -1.7239354E-03   0.0000000E+00   3.8848033E-05  -1.7236148E-03   0.0000000E+00   3.9577793E-05  -1.7225249E-03   0.0000000E+00   4.1734656E-05  -1.7202594E-03   0.0000000E+00   4.5219509E-05  -1.7160837E-03   0.0000000E+00   4.9856826E-05  -1.7088319E-03   0.0000000E+00   5.5365377E-05  -1.6967852E-03   0.0000000E+00   6.1297629E-05  -1.6775155E-03   0.0000000E+00   6.6969362E-05  -2.1731530E-03   0.0000000E+00   4.9236121E-05  -2.1730675E-03   0.0000000E+00   5.0208688E-05  -2.1726568E-03   0.0000000E+00   5.3083819E-05  -2.1714449E-03   0.0000000E+00   5.7729438E-05  -2.1685502E-03   0.0000000E+00   6.3908003E-05  -2.1625662E-03   0.0000000E+00   7.1237948E-05  -2.1513912E-03   0.0000000E+00   7.9125333E-05  -2.1320153E-03   0.0000000E+00   8.6693493E-05  -2.7521106E-03   0.0000000E+00   6.1351602E-05  -2.7523935E-03   0.0000000E+00   6.2652776E-05  -2.7530636E-03   0.0000000E+00   6.6500696E-05  -2.7535534E-03   0.0000000E+00   7.2720286E-05  -2.7528026E-03   0.0000000E+00   8.0991369E-05  -2.7491115E-03   0.0000000E+00   9.0796595E-05  -2.7399054E-03   0.0000000E+00   1.0134652E-04  -2.7214736E-03   0.0000000E+00   1.1151563E-04  -3.4929216E-03   0.0000000E+00   7.5695454E-05  -3.4937703E-03   0.0000000E+00   7.7455239E-05  -3.4960988E-03   0.0000000E+00   8.2662584E-05  -3.4992273E-03   0.0000000E+00   9.1087371E-05  -3.5018858E-03   0.0000000E+00   1.0230039E-04  -3.5020092E-03   0.0000000E+00   1.1560055E-04  -3.4964515E-03   0.0000000E+00   1.2993050E-04  -3.4806605E-03   0.0000000E+00   1.4383905E-04  -4.4297404E-03   0.0000000E+00   9.2775263E-05  -4.4314312E-03   0.0000000E+00   9.5182011E-05  -4.4362480E-03   0.0000000E+00   1.0231134E-04  -4.4433796E-03   0.0000000E+00   1.1386759E-04  -4.4513000E-03   0.0000000E+00   1.2928488E-04  -4.4575077E-03   0.0000000E+00   1.4762716E-04  -4.4581969E-03   0.0000000E+00   1.6749384E-04  -4.4478313E-03   0.0000000E+00   1.8705304E-04  -5.6021148E-03   0.0000000E+00   1.1303445E-04  -5.6050401E-03   0.0000000E+00   1.1634824E-04  -5.6135142E-03   0.0000000E+00   1.2618081E-04  -5.6265783E-03   0.0000000E+00   1.4216985E-04  -5.6424192E-03   0.0000000E+00   1.6360240E-04  -5.6580459E-03   0.0000000E+00   1.8928037E-04  -5.6688758E-03   0.0000000E+00   2.1743859E-04  -5.6683132E-03   0.0000000E+00   2.4593083E-04  -7.0585259E-03   0.0000000E+00   1.3681805E-04  -7.0632175E-03   0.0000000E+00   1.4138051E-04  -7.0769507E-03   0.0000000E+00   1.5495095E-04  -7.0986180E-03   0.0000000E+00   1.7712600E-04  -7.1261046E-03   0.0000000E+00   2.0708200E-04  -7.1558766E-03   0.0000000E+00   2.4341047E-04  -7.1825348E-03   0.0000000E+00   2.8409981E-04  -7.1983286E-03   0.0000000E+00   3.2701201E-04  -8.8566542E-03   0.0000000E+00   1.6438223E-04  -8.8638226E-03   0.0000000E+00   1.7061889E-04  -8.8849589E-03   0.0000000E+00   1.8922918E-04  -8.9188404E-03   0.0000000E+00   2.1984552E-04  -8.9630531E-03   0.0000000E+00   2.6166072E-04  -9.0135317E-03   0.0000000E+00   3.1325236E-04  -9.0640169E-03   0.0000000E+00   3.7271294E-04  -9.1055688E-03   0.0000000E+00   4.3857790E-04  -1.1063363E-02   0.0000000E+00   1.9597472E-04  -1.1073935E-02   0.0000000E+00   2.0438206E-04  -1.1105276E-02   0.0000000E+00   2.2957333E-04  -1.1156115E-02   0.0000000E+00   2.7137293E-04  -1.1223838E-02   0.0000000E+00   3.2925705E-04  -1.1303886E-02   0.0000000E+00   4.0219634E-04  -1.1389124E-02   0.0000000E+00   4.8901606E-04  -1.1469337E-02   0.0000000E+00   5.8989739E-04  -1.3755840E-02   0.0000000E+00   2.3207859E-04  -1.3770983E-02   0.0000000E+00   2.4318763E-04  -1.3816084E-02   0.0000000E+00   2.7664000E-04  -1.3889952E-02   0.0000000E+00   3.3271895E-04  -1.3989955E-02   0.0000000E+00   4.1163617E-04  -1.4111177E-02   0.0000000E+00   5.1341159E-04  -1.4245591E-02   0.0000000E+00   6.3848292E-04  -1.4381495E-02   0.0000000E+00   7.8984309E-04  -1.7022494E-02   0.0000000E+00   2.7393852E-04  -1.7043626E-02   0.0000000E+00   2.8824390E-04  -1.7106837E-02   0.0000000E+00   3.3157735E-04  -1.7211260E-02   0.0000000E+00   4.0508379E-04  -1.7354570E-02   0.0000000E+00   5.1038177E-04  -1.7531732E-02   0.0000000E+00   6.4945058E-04  -1.7733857E-02   0.0000000E+00   8.2543830E-04  -1.7947339E-02   0.0000000E+00   1.0454083E-03  -2.0963997E-02   0.0000000E+00   3.2452529E-04  -2.0992776E-02   0.0000000E+00   3.4237464E-04  -2.1079227E-02   0.0000000E+00   3.9682424E-04  -2.1223227E-02   0.0000000E+00   4.9044169E-04  -2.1423232E-02   0.0000000E+00   6.2716176E-04  -2.1674640E-02   0.0000000E+00   8.1210304E-04  -2.1967791E-02   0.0000000E+00   1.0524663E-03  -2.2286613E-02   0.0000000E+00   1.3607393E-03  -2.5694368E-02   0.0000000E+00   3.9012026E-04  -2.5732685E-02   0.0000000E+00   4.1156236E-04  -2.5848178E-02   0.0000000E+00   4.7752779E-04  -2.6042083E-02   0.0000000E+00   5.9273478E-04  -2.6314558E-02   0.0000000E+00   7.6459220E-04  -2.6662247E-02   0.0000000E+00   1.0028607E-03  -2.7075177E-02   0.0000000E+00   1.3204928E-03  -2.7534422E-02   0.0000000E+00   1.7370771E-03  -3.1342641E-02   0.0000000E+00   4.8270705E-04  -3.1392436E-02   0.0000000E+00   5.0731527E-04  -3.1543225E-02   0.0000000E+00   5.8382167E-04  -3.1798456E-02   0.0000000E+00   7.1997801E-04  -3.2161288E-02   0.0000000E+00   9.2807465E-04  -3.2630991E-02   0.0000000E+00   1.2244008E-03  -3.3198468E-02   0.0000000E+00   1.6298940E-03  -3.3841956E-02   0.0000000E+00   2.1736219E-03  -3.8054783E-02   0.0000000E+00   6.2330870E-04  -3.8118009E-02   0.0000000E+00   6.5002026E-04  -3.8310390E-02   0.0000000E+00   7.3421060E-04  -3.8638823E-02   0.0000000E+00   8.8764203E-04  -3.9111391E-02   0.0000000E+00   1.1290911E-03  -3.9732233E-02   0.0000000E+00   1.4836265E-03  -4.0495045E-02   0.0000000E+00   1.9830468E-03  -4.1376416E-02   0.0000000E+00   2.6693712E-03  -4.5996096E-02   0.0000000E+00   8.4623555E-04  -4.6074584E-02   0.0000000E+00   8.7328802E-04  -4.6314456E-02   0.0000000E+00   9.6017733E-04  -4.6727721E-02   0.0000000E+00   1.1236096E-03  -4.7329970E-02   0.0000000E+00   1.3904398E-03  -4.8133351E-02   0.0000000E+00   1.7968825E-03  -4.9137626E-02   0.0000000E+00   2.3889453E-03  -5.0320163E-02   0.0000000E+00   3.2264043E-03  -5.5354178E-02   0.0000000E+00   1.2039244E-03  -5.5449322E-02   0.0000000E+00   1.2290177E-03  -5.5741679E-02   0.0000000E+00   1.3118882E-03  -5.6250427E-02   0.0000000E+00   1.4747845E-03  -5.7001665E-02   0.0000000E+00   1.7537551E-03  -5.8019698E-02   0.0000000E+00   2.1980000E-03  -5.9314892E-02   0.0000000E+00   2.8710163E-03  -6.0869906E-02   0.0000000E+00   3.8562862E-03  -6.6340797E-02   0.0000000E+00   1.7716885E-03  -6.6453651E-02   0.0000000E+00   1.7925117E-03  -6.6802412E-02   0.0000000E+00   1.8643726E-03  -6.7415491E-02   0.0000000E+00   2.0149036E-03  -6.8333253E-02   0.0000000E+00   2.2891937E-03  -6.9596693E-02   0.0000000E+00   2.7496857E-03  -7.1232490E-02   0.0000000E+00   3.4794300E-03  -7.3234789E-02   0.0000000E+00   4.5916280E-03  -7.9185210E-02   0.0000000E+00   2.6508882E-03  -7.9316437E-02   0.0000000E+00   2.6661919E-03  -7.9724379E-02   0.0000000E+00   2.7228205E-03  -8.0448799E-02   0.0000000E+00   2.8523202E-03  -8.1547685E-02   0.0000000E+00   3.1064085E-03  -8.3083622E-02   0.0000000E+00   3.5580127E-03  -8.5105479E-02   0.0000000E+00   4.3085725E-03  -8.7626658E-02   0.0000000E+00   5.5049220E-03  -9.4095312E-02   0.0000000E+00   3.9687618E-03  -9.4245501E-02   0.0000000E+00   3.9801076E-03  -9.4714604E-02   0.0000000E+00   4.0250984E-03  -9.5555797E-02   0.0000000E+00   4.1358434E-03  -9.6847177E-02   0.0000000E+00   4.3649031E-03  -9.8676622E-02   0.0000000E+00   4.7881855E-03  -1.0112058E-01   0.0000000E+00   5.5185696E-03  -1.0421991E-01   0.0000000E+00   6.7350953E-03  -1.1114813E-01   0.0000000E+00   5.8734720E-03  -1.1131783E-01   0.0000000E+00   5.8875647E-03  -1.1185042E-01   0.0000000E+00   5.9392294E-03  -1.1281302E-01   0.0000000E+00   6.0554538E-03  -1.1430519E-01   0.0000000E+00   6.2796930E-03  -1.1644196E-01   0.0000000E+00   6.6769808E-03  -1.1933048E-01   0.0000000E+00   7.3561566E-03  -1.2304605E-01   0.0000000E+00   8.5179722E-03  -1.3007978E-01   0.0000000E+00   8.5218884E-03  -1.3027036E-01   0.0000000E+00   8.5532973E-03  -1.3087058E-01   0.0000000E+00   8.6528454E-03  -1.3196070E-01   0.0000000E+00   8.8344198E-03  -1.3366139E-01   0.0000000E+00   9.1177328E-03  -1.3611327E-01   0.0000000E+00   9.5356544E-03  -1.3945436E-01   0.0000000E+00   1.0167183E-02  -1.4379862E-01   0.0000000E+00   1.1211664E-02  -1.5000629E-01   0.0000000E+00   1.2058729E-02  -1.5022063E-01   0.0000000E+00   1.2133081E-02  -1.5089643E-01   0.0000000E+00   1.2354072E-02  -1.5212560E-01   0.0000000E+00   1.2711802E-02  -1.5404619E-01   0.0000000E+00   1.3182594E-02  -1.5682046E-01   0.0000000E+00   1.3738457E-02  -1.6061242E-01   0.0000000E+00   1.4392155E-02  -1.6557425E-01   0.0000000E+00   1.5307479E-02  -1.6919187E-01   0.0000000E+00   1.6592301E-02  -1.6943567E-01   0.0000000E+00   1.6749570E-02  -1.7020234E-01   0.0000000E+00   1.7207351E-02  -1.7159191E-01   0.0000000E+00   1.7917583E-02  -1.7375302E-01   0.0000000E+00   1.8788302E-02  -1.7686146E-01   0.0000000E+00   1.9695222E-02  -1.8109924E-01   0.0000000E+00   2.0543661E-02  -1.8664928E-01   0.0000000E+00   2.1426184E-02  -1.8501101E-01   0.0000000E+00   2.2177288E-02  -1.8529251E-01   0.0000000E+00   2.2474311E-02  -1.8617266E-01   0.0000000E+00   2.3333475E-02  -1.8775171E-01   0.0000000E+00   2.4649864E-02  -1.9017939E-01   0.0000000E+00   2.6232598E-02  -1.9363341E-01   0.0000000E+00   2.7822725E-02  -1.9830149E-01   0.0000000E+00   2.9184615E-02  -2.0438118E-01   0.0000000E+00   3.0325245E-02  -1.9408448E-01   0.0000000E+00   2.8811900E-02  -1.9441068E-01   0.0000000E+00   2.9324133E-02  -1.9542135E-01   0.0000000E+00   3.0803176E-02  -1.9720848E-01   0.0000000E+00   3.3064440E-02  -1.9991000E-01   0.0000000E+00   3.5783194E-02  -2.0369120E-01   0.0000000E+00   3.8533214E-02  -2.0872860E-01   0.0000000E+00   4.0931188E-02  -2.1520910E-01   0.0000000E+00   4.2924009E-02  -1.9214609E-01   0.0000000E+00   3.6447197E-02  -1.9251442E-01   0.0000000E+00   3.7268776E-02  -1.9364478E-01   0.0000000E+00   3.9641187E-02  -1.9561176E-01   0.0000000E+00   4.3273766E-02  -1.9852859E-01   0.0000000E+00   4.7673963E-02  -2.0253341E-01   0.0000000E+00   5.2231241E-02  -2.0776927E-01   0.0000000E+00   5.6447815E-02  -2.1437603E-01   0.0000000E+00   6.0270969E-02  -1.7369008E-01   0.0000000E+00   4.5003328E-02  -1.7407894E-01   0.0000000E+00   4.6244774E-02  -1.7526241E-01   0.0000000E+00   4.9831655E-02  -1.7729156E-01   0.0000000E+00   5.5339672E-02  -1.8024562E-01   0.0000000E+00   6.2079031E-02  -1.8421941E-01   0.0000000E+00   6.9259703E-02  -1.8929888E-01   0.0000000E+00   7.6338269E-02  -1.9553624E-01   0.0000000E+00   8.3327904E-02  -1.3264881E-01   0.0000000E+00   5.4378632E-02  -1.3301152E-01   0.0000000E+00   5.6158036E-02  -1.3410766E-01   0.0000000E+00   6.1303016E-02  -1.3596343E-01   0.0000000E+00   6.9228470E-02  -1.3861829E-01   0.0000000E+00   7.9023883E-02  -1.4211310E-01   0.0000000E+00   8.9740701E-02  -1.4645559E-01   0.0000000E+00   1.0087177E-01  -1.5158558E-01   0.0000000E+00   1.1253592E-01  -6.4648606E-02   0.0000000E+00   6.4422853E-02  -6.4916074E-02   0.0000000E+00   6.6850260E-02  -6.5718532E-02   0.0000000E+00   7.3872253E-02  -6.7057058E-02   0.0000000E+00   8.4717333E-02  -6.8931699E-02   0.0000000E+00   9.8236278E-02  -7.1326695E-02   0.0000000E+00   1.1334381E-01  -7.4172206E-02   0.0000000E+00   1.2962860E-01  -7.7298239E-02   0.0000000E+00   1.4731044E-01   2.9661236E-02   0.0000000E+00   7.4874334E-02   2.9565139E-02   0.0000000E+00   7.8030072E-02   2.9284632E-02   0.0000000E+00   8.7161899E-02   2.8841943E-02   0.0000000E+00   1.0129049E-01   2.8273700E-02   0.0000000E+00   1.1901037E-01   2.7642984E-02   0.0000000E+00   1.3910143E-01   2.7074212E-02   0.0000000E+00   1.6125187E-01   2.6813360E-02   0.0000000E+00   1.8573360E-01   1.4133260E-01   0.0000000E+00   8.5317045E-02   1.4146259E-01   0.0000000E+00   8.9231156E-02   1.4186853E-01   0.0000000E+00   1.0055845E-01   1.4259653E-01   0.0000000E+00   1.1809859E-01   1.4371935E-01   0.0000000E+00   1.4016828E-01   1.4533916E-01   0.0000000E+00   1.6538249E-01   1.4761128E-01   0.0000000E+00   1.9347678E-01   1.5080595E-01   0.0000000E+00   2.2469877E-01   2.5200012E-01   0.0000000E+00   9.5225655E-02   2.5236320E-01   0.0000000E+00   9.9864244E-02   2.5347933E-01   0.0000000E+00   1.1328499E-01   2.5542524E-01   0.0000000E+00   1.3406272E-01   2.5831822E-01   0.0000000E+00   1.6021812E-01   2.6230478E-01   0.0000000E+00   1.9015302E-01   2.6755989E-01   0.0000000E+00   2.2356558E-01   2.7432436E-01   0.0000000E+00   2.6060694E-01   3.3802226E-01   0.0000000E+00   1.0406499E-01   3.3857873E-01   0.0000000E+00   1.0933141E-01   3.4028816E-01   0.0000000E+00   1.2456039E-01   3.4326455E-01   0.0000000E+00   1.4811257E-01   3.4767938E-01   0.0000000E+00   1.7771105E-01   3.5373345E-01   0.0000000E+00   2.1150216E-01   3.6161777E-01   0.0000000E+00   2.4906640E-01   3.7150326E-01   0.0000000E+00   2.9041764E-01   3.8276330E-01   0.0000000E+00   1.1136170E-01   3.8344777E-01   0.0000000E+00   1.1711687E-01   3.8555297E-01   0.0000000E+00   1.3374776E-01   3.8922846E-01   0.0000000E+00   1.5942794E-01   3.9469692E-01   0.0000000E+00   1.9160572E-01   4.0220740E-01   0.0000000E+00   2.2815686E-01   4.1196215E-01   0.0000000E+00   2.6849011E-01   4.2404160E-01   0.0000000E+00   3.1248334E-01   3.8652882E-01   0.0000000E+00   1.1678882E-01   3.8727140E-01   0.0000000E+00   1.2287966E-01   3.8955984E-01   0.0000000E+00   1.4046919E-01   3.9356753E-01   0.0000000E+00   1.6758424E-01   3.9955112E-01   0.0000000E+00   2.0144652E-01   4.0778869E-01   0.0000000E+00   2.3968183E-01   4.1848078E-01   0.0000000E+00   2.8151315E-01   4.3162757E-01   0.0000000E+00   3.2671124E-01   3.6283186E-01   0.0000000E+00   1.2020178E-01   3.6357525E-01   0.0000000E+00   1.2648357E-01   3.6586973E-01   0.0000000E+00   1.4461449E-01   3.6989903E-01   0.0000000E+00   1.7252405E-01   3.7593001E-01   0.0000000E+00   2.0727302E-01   3.8424754E-01   0.0000000E+00   2.4629313E-01   3.9504164E-01   0.0000000E+00   2.8864586E-01   4.0826291E-01   0.0000000E+00   3.3403441E-01   3.2808962E-01   0.0000000E+00   1.2161700E-01   3.2879966E-01   0.0000000E+00   1.2796423E-01   3.3099279E-01   0.0000000E+00   1.4627680E-01   3.3484703E-01   0.0000000E+00   1.7443691E-01   3.4062114E-01   0.0000000E+00   2.0941870E-01   3.4858775E-01   0.0000000E+00   2.4853611E-01   3.5892412E-01   0.0000000E+00   2.9073939E-01   3.7156239E-01   0.0000000E+00   3.3570212E-01   2.9325640E-01   0.0000000E+00   1.2116317E-01   2.9392174E-01   0.0000000E+00   1.2747101E-01   2.9597479E-01   0.0000000E+00   1.4566630E-01   2.9957861E-01   0.0000000E+00   1.7362967E-01   3.0496910E-01   0.0000000E+00   2.0832014E-01   3.1239742E-01   0.0000000E+00   2.4701154E-01   3.2202742E-01   0.0000000E+00   2.8860232E-01   3.3379662E-01   0.0000000E+00   3.3276463E-01   2.6084301E-01   0.0000000E+00   1.1903756E-01   2.6146603E-01   0.0000000E+00   1.2521785E-01   2.6338395E-01   0.0000000E+00   1.4304490E-01   2.6673815E-01   0.0000000E+00   1.7043754E-01   2.7173790E-01   0.0000000E+00   2.0440049E-01   2.7860910E-01   0.0000000E+00   2.4223441E-01   2.8751054E-01   0.0000000E+00   2.8283241E-01   2.9840451E-01   0.0000000E+00   3.2588556E-01   2.2715212E-01   0.0000000E+00   1.1548186E-01   2.2773586E-01   0.0000000E+00   1.2145715E-01   2.2952799E-01   0.0000000E+00   1.3869567E-01   2.3264855E-01   0.0000000E+00   1.6518901E-01   2.3727834E-01   0.0000000E+00   1.9803737E-01   2.4362437E-01   0.0000000E+00   2.3461607E-01   2.5185278E-01   0.0000000E+00   2.7384111E-01   2.6197299E-01   0.0000000E+00   3.1543300E-01   1.8735555E-01   0.0000000E+00   1.1076778E-01   1.8789402E-01   0.0000000E+00   1.1646765E-01   1.8954313E-01   0.0000000E+00   1.3291709E-01   1.9240336E-01   0.0000000E+00   1.5821019E-01   1.9663231E-01   0.0000000E+00   1.8958370E-01   2.0242651E-01   0.0000000E+00   2.2452150E-01   2.0997322E-01   0.0000000E+00   2.6197305E-01   2.1935521E-01   0.0000000E+00   3.0169022E-01   1.4027566E-01   0.0000000E+00   1.0518173E-01   1.4074661E-01   0.0000000E+00   1.1054257E-01   1.4218841E-01   0.0000000E+00   1.2602100E-01   1.4468694E-01   0.0000000E+00   1.4984022E-01   1.4838377E-01   0.0000000E+00   1.7940629E-01   1.5347283E-01   0.0000000E+00   2.1233742E-01   1.6017665E-01   0.0000000E+00   2.4761911E-01   1.6867967E-01   0.0000000E+00   2.8503418E-01   8.9969561E-02   0.0000000E+00   9.9004574E-02   9.0336181E-02   0.0000000E+00   1.0397234E-01   9.1462046E-02   0.0000000E+00   1.1832563E-01   9.3425468E-02   0.0000000E+00   1.4043643E-01   9.6362084E-02   0.0000000E+00   1.6790739E-01   1.0047338E-01   0.0000000E+00   1.9851166E-01   1.0602821E-01   0.0000000E+00   2.3127565E-01   1.1333229E-01   0.0000000E+00   2.6601413E-01   4.3076918E-02   0.0000000E+00   9.2489846E-02   4.3306679E-02   0.0000000E+00   9.7025193E-02   4.4021167E-02   0.0000000E+00   1.1013914E-01   4.5297757E-02   0.0000000E+00   1.3036536E-01   4.7274768E-02   0.0000000E+00   1.5552205E-01   5.0168622E-02   0.0000000E+00   1.8355468E-01   5.4297149E-02   0.0000000E+00   2.1354415E-01   6.0090818E-02   0.0000000E+00   2.4534152E-01   4.6893149E-03   0.0000000E+00   8.5866511E-02   4.7771288E-03   0.0000000E+00   8.9945942E-02   5.0664884E-03   0.0000000E+00   1.0175162E-01   5.6370664E-03   0.0000000E+00   1.1998458E-01   6.6316240E-03   0.0000000E+00   1.4269121E-01   8.2789399E-03   0.0000000E+00   1.6800724E-01   1.0939457E-02   0.0000000E+00   1.9508968E-01   1.5160565E-02   0.0000000E+00   2.2383420E-01  -2.3471443E-02   0.0000000E+00   7.9347283E-02  -2.3499381E-02   0.0000000E+00   8.2961611E-02  -2.3557048E-02   0.0000000E+00   9.3430109E-02  -2.3563448E-02   0.0000000E+00   1.0962404E-01  -2.3375306E-02   0.0000000E+00   1.2982912E-01  -2.2758646E-02   0.0000000E+00   1.5239680E-01  -2.1319561E-02   0.0000000E+00   1.7658815E-01  -1.8406071E-02   0.0000000E+00   2.0235077E-01  -4.2421877E-02   0.0000000E+00   7.3105961E-02  -4.2521141E-02   0.0000000E+00   7.6259084E-02  -4.2793326E-02   0.0000000E+00   8.5399203E-02  -4.3159522E-02   0.0000000E+00   9.9565335E-02  -4.3477181E-02   0.0000000E+00   1.1729912E-01  -4.3506093E-02   0.0000000E+00   1.3720404E-01  -4.2824928E-02   0.0000000E+00   1.5868135E-01  -4.0695529E-02   0.0000000E+00   1.8172880E-01  -5.4414831E-02   0.0000000E+00   6.7249425E-02  -5.4538246E-02   0.0000000E+00   6.9957212E-02  -5.4884344E-02   0.0000000E+00   7.7813134E-02  -5.5376623E-02   0.0000000E+00   9.0021528E-02  -5.5869341E-02   0.0000000E+00   1.0539854E-01  -5.6106355E-02   0.0000000E+00   1.2284611E-01  -5.5632584E-02   0.0000000E+00   1.4194313E-01  -5.3645771E-02   0.0000000E+00   1.6272518E-01  -6.1601266E-02   0.0000000E+00   6.1810400E-02  -6.1708268E-02   0.0000000E+00   6.4097762E-02  -6.2006228E-02   0.0000000E+00   7.0744857E-02  -6.2418461E-02   0.0000000E+00   8.1127033E-02  -6.2788405E-02   0.0000000E+00   9.4357692E-02  -6.2826678E-02   0.0000000E+00   1.0967754E-01  -6.2025644E-02   0.0000000E+00   1.2686674E-01  -5.9549898E-02   0.0000000E+00   1.4597128E-01  -6.5336712E-02   0.0000000E+00   5.6755401E-02  -6.5396726E-02   0.0000000E+00   5.8656793E-02  -6.5552346E-02   0.0000000E+00   6.4204492E-02  -6.5719061E-02   0.0000000E+00   7.2961614E-02  -6.5711945E-02   0.0000000E+00   8.4362596E-02  -6.5183096E-02   0.0000000E+00   9.8006375E-02  -6.3563578E-02   0.0000000E+00   1.1386678E-01  -6.0054783E-02   0.0000000E+00   1.3194954E-01  -6.6173911E-02   0.0000000E+00   5.2013498E-02  -6.6162385E-02   0.0000000E+00   5.3579047E-02  -6.6095486E-02   0.0000000E+00   5.8186758E-02  -6.5859079E-02   0.0000000E+00   6.5609097E-02  -6.5208748E-02   0.0000000E+00   7.5612351E-02  -6.3723698E-02   0.0000000E+00   8.8134684E-02  -6.0814712E-02   0.0000000E+00   1.0329378E-01  -5.5952899E-02   0.0000000E+00   1.2097009E-01  -6.4203687E-02   0.0000000E+00   4.7544867E-02  -6.4084031E-02   0.0000000E+00   4.8850320E-02  -6.3671730E-02   0.0000000E+00   5.2752025E-02  -6.2793612E-02   0.0000000E+00   5.9238348E-02  -6.1131380E-02   0.0000000E+00   6.8383202E-02  -5.8231127E-02   0.0000000E+00   8.0392644E-02  -5.3645235E-02   0.0000000E+00   9.5428146E-02  -4.7637451E-02   0.0000000E+00   1.1309181E-01  -5.9008468E-02   0.0000000E+00   4.3454487E-02  -5.8709353E-02   0.0000000E+00   4.4607509E-02  -5.7735547E-02   0.0000000E+00   4.8119694E-02  -5.5863276E-02   0.0000000E+00   5.4164726E-02  -5.2753374E-02   0.0000000E+00   6.3048355E-02  -4.8079755E-02   0.0000000E+00   7.5110920E-02  -4.2015553E-02   0.0000000E+00   9.0358846E-02  -3.5829734E-02   0.0000000E+00   1.0798303E-01  -4.9198020E-02   0.0000000E+00   4.0095184E-02  -4.8641037E-02   0.0000000E+00   4.1226242E-02  -4.6892993E-02   0.0000000E+00   4.4716820E-02  -4.3759190E-02   0.0000000E+00   5.0847556E-02  -3.9093297E-02   0.0000000E+00   5.9999738E-02  -3.3114299E-02   0.0000000E+00   7.2409458E-02  -2.6787452E-02   0.0000000E+00   8.7752596E-02  -2.1988923E-02   0.0000000E+00   1.0484418E-01  -3.2779630E-02   0.0000000E+00   3.8081657E-02  -3.1963132E-02   0.0000000E+00   3.9321434E-02  -2.9521087E-02   0.0000000E+00   4.3125309E-02  -2.5512213E-02   0.0000000E+00   4.9721986E-02  -2.0251829E-02   0.0000000E+00   5.9326604E-02  -1.4511304E-02   0.0000000E+00   7.1897030E-02  -9.7807553E-03   0.0000000E+00   8.6765587E-02  -8.1065288E-03   0.0000000E+00   1.0256675E-01  -9.4081676E-03   0.0000000E+00   3.8144935E-02  -8.5400166E-03   0.0000000E+00   3.9550822E-02  -6.0535106E-03   0.0000000E+00   4.3776758E-02  -2.3306224E-03   0.0000000E+00   5.0821260E-02   1.8955942E-03   0.0000000E+00   6.0583740E-02   5.4428237E-03   0.0000000E+00   7.2700769E-02   6.6141216E-03   0.0000000E+00   8.6317569E-02   3.7711586E-03   0.0000000E+00   1.0030682E-01   1.8147962E-02   0.0000000E+00   4.0674660E-02   1.8761693E-02   0.0000000E+00   4.2182863E-02   2.0420011E-02   0.0000000E+00   4.6630356E-02   2.2509677E-02   0.0000000E+00   5.3718381E-02   2.3997083E-02   0.0000000E+00   6.3024633E-02   2.3502802E-02   0.0000000E+00   7.3983036E-02   1.9893927E-02   0.0000000E+00   8.5994571E-02   1.3965385E-02   0.0000000E+00   9.8981529E-02   4.4951685E-02   0.0000000E+00   4.5398582E-02   4.5024298E-02   0.0000000E+00   4.6894848E-02   4.5009561E-02   0.0000000E+00   5.1218092E-02   4.4197399E-02   0.0000000E+00   5.7847779E-02   4.1731250E-02   0.0000000E+00   6.6259623E-02   3.7394486E-02   0.0000000E+00   7.6193295E-02   3.2917604E-02   0.0000000E+00   8.7765731E-02   3.2481331E-02   0.0000000E+00   1.0067651E-01   6.4581938E-02   0.0000000E+00   5.1551752E-02   6.4067945E-02   0.0000000E+00   5.2968636E-02   6.2521607E-02   0.0000000E+00   5.7034608E-02   6.0239572E-02   0.0000000E+00   6.3283540E-02   5.8478188E-02   0.0000000E+00   7.1342401E-02   5.9328821E-02   0.0000000E+00   8.0858290E-02   6.3601770E-02   0.0000000E+00   9.1586843E-02   6.8428911E-02   0.0000000E+00   1.0366449E-01   9.6842468E-02   0.0000000E+00   5.8205713E-02   9.6682161E-02   0.0000000E+00   5.9528667E-02   9.6421786E-02   0.0000000E+00   6.3328736E-02   9.6677959E-02   0.0000000E+00   6.9251224E-02   9.8172650E-02   0.0000000E+00   7.7101879E-02   9.9743925E-02   0.0000000E+00   8.6605757E-02   9.7163588E-02   0.0000000E+00   9.7407557E-02   8.5818879E-02   0.0000000E+00   1.0915324E-01   1.4620858E-01   0.0000000E+00   6.4579062E-02   1.4492092E-01   0.0000000E+00   6.5808356E-02   1.4094453E-01   0.0000000E+00   6.9439739E-02   1.3411218E-01   0.0000000E+00   7.5570315E-02   1.2294932E-01   0.0000000E+00   8.4643111E-02   1.0793462E-01   0.0000000E+00   9.5969029E-02   8.5061766E-02   0.0000000E+00   1.0698581E-01   1.3440087E-01   0.0000000E+00   7.0189901E-02   1.3128640E-01   0.0000000E+00   7.1383588E-02   1.2167709E-01   0.0000000E+00   7.5217776E-02   1.0524842E-01   0.0000000E+00   8.2835913E-02   8.3650909E-02   0.0000000E+00   9.5746987E-02  -7.7921315E-04   0.0000000E+00   2.6740254E-05  -7.5093191E-04   0.0000000E+00   2.6735472E-05  -7.1210845E-04   0.0000000E+00   2.3561754E-05  -6.5940351E-04   0.0000000E+00   1.5442409E-05  -5.8983936E-04   0.0000000E+00   1.6177055E-06  -5.0256861E-04   0.0000000E+00  -1.6518619E-05  -4.0105029E-04   0.0000000E+00  -3.4754514E-05  -1.0174962E-03   0.0000000E+00   3.9164290E-05  -9.8333252E-04   0.0000000E+00   3.9308532E-05  -9.3557645E-04   0.0000000E+00   3.4942386E-05  -8.6958538E-04   0.0000000E+00   2.3472086E-05  -7.8109303E-04   0.0000000E+00   3.7125956E-06  -6.6863681E-04   0.0000000E+00  -2.2512930E-05  -5.3652830E-04   0.0000000E+00  -4.9427221E-05  -3.9656088E-04   0.0000000E+00  -6.8455898E-05  -1.2974476E-03   0.0000000E+00   5.3909229E-05  -1.2579638E-03   0.0000000E+00   5.4369430E-05  -1.2013919E-03   0.0000000E+00   4.8795300E-05  -1.1213402E-03   0.0000000E+00   3.3559794E-05  -1.0116678E-03   0.0000000E+00   6.8822610E-06  -8.6974812E-04   0.0000000E+00  -2.8983002E-05  -7.0054212E-04   0.0000000E+00  -6.6451998E-05  -5.1937823E-04   0.0000000E+00  -9.4262148E-05  -1.6477579E-03   0.0000000E+00   7.1406670E-05  -1.6031587E-03   0.0000000E+00   7.2429255E-05  -1.5372514E-03   0.0000000E+00   6.5688240E-05  -1.4412774E-03   0.0000000E+00   4.6234622E-05  -1.3064233E-03   0.0000000E+00   1.1447471E-05  -1.1282093E-03   0.0000000E+00  -3.6010744E-05  -9.1224734E-04   0.0000000E+00  -8.6360582E-05  -6.7846390E-04   0.0000000E+00  -1.2471706E-04  -2.1003184E-03   0.0000000E+00   9.2764036E-05  -2.0506687E-03   0.0000000E+00   9.4681607E-05  -1.9745268E-03   0.0000000E+00   8.6803288E-05  -1.8599514E-03   0.0000000E+00   6.2493273E-05  -1.6944995E-03   0.0000000E+00   1.7991162E-05  -1.4715719E-03   0.0000000E+00  -4.3665059E-05  -1.1973880E-03   0.0000000E+00  -1.1001510E-04  -8.9673244E-04   0.0000000E+00  -1.6148482E-04  -2.6886761E-03   0.0000000E+00   1.1986646E-04  -2.6343162E-03   0.0000000E+00   1.2316497E-04  -2.5471570E-03   0.0000000E+00   1.1420967E-04  -2.4115425E-03   0.0000000E+00   8.4266023E-05  -2.2121693E-03   0.0000000E+00   2.7997514E-05  -1.9400204E-03   0.0000000E+00  -5.1446325E-05  -1.5997884E-03   0.0000000E+00  -1.3841591E-04  -1.2186373E-03   0.0000000E+00  -2.0707739E-04  -3.4483087E-03   0.0000000E+00   1.5558921E-04  -3.3903904E-03   0.0000000E+00   1.6125900E-04  -3.2928076E-03   0.0000000E+00   1.5184902E-04  -3.1382702E-03   0.0000000E+00   1.1596880E-04  -2.9102087E-03   0.0000000E+00   4.5577610E-05  -2.5958915E-03   0.0000000E+00  -5.6897603E-05  -2.1938672E-03   0.0000000E+00  -1.7191039E-04  -1.7232838E-03   0.0000000E+00  -2.6473447E-04  -4.4187433E-03   0.0000000E+00   2.0432365E-04  -4.3600234E-03   0.0000000E+00   2.1480845E-04  -4.2569176E-03   0.0000000E+00   2.0749633E-04  -4.0939436E-03   0.0000000E+00   1.6694653E-04  -3.8557267E-03   0.0000000E+00   7.9989957E-05  -3.5256904E-03   0.0000000E+00  -5.3432792E-05  -3.0886033E-03   0.0000000E+00  -2.0894512E-04  -2.5355744E-03   0.0000000E+00  -3.3806276E-04  -5.6472514E-03   0.0000000E+00   2.7285199E-04  -5.5936272E-03   0.0000000E+00   2.9364842E-04  -5.4951990E-03   0.0000000E+00   2.9475760E-04  -5.3421026E-03   0.0000000E+00   2.5402560E-04  -5.1245000E-03   0.0000000E+00   1.4889610E-04  -4.8258384E-03   0.0000000E+00  -2.6962167E-05  -4.4117374E-03   0.0000000E+00  -2.4355709E-04  -3.8176789E-03   0.0000000E+00  -4.3041067E-04  -7.1927384E-03   0.0000000E+00   3.7105870E-04  -7.1537215E-03   0.0000000E+00   4.1245457E-04  -7.0734797E-03   0.0000000E+00   4.3402216E-04  -6.9502904E-03   0.0000000E+00   4.0335994E-04  -6.7848023E-03   0.0000000E+00   2.8206708E-04  -6.5685282E-03   0.0000000E+00   4.9580529E-05  -6.2530213E-03   0.0000000E+00  -2.6126823E-04  -5.6941099E-03   0.0000000E+00  -5.4367993E-04  -9.1263233E-03   0.0000000E+00   5.1173370E-04  -9.1144359E-03   0.0000000E+00   5.9001957E-04  -9.0658208E-03   0.0000000E+00   6.5155129E-04  -8.9855753E-03   0.0000000E+00   6.5030996E-04  -8.8851983E-03   0.0000000E+00   5.2296103E-04  -8.7688584E-03   0.0000000E+00   2.2033395E-04  -8.5840272E-03   0.0000000E+00  -2.3320036E-04  -8.1025753E-03   0.0000000E+00  -6.7225011E-04  -1.1531179E-02   0.0000000E+00   7.0906227E-04  -1.1561736E-02   0.0000000E+00   8.4667781E-04  -1.1556890E-02   0.0000000E+00   9.7567326E-04  -1.1522233E-02   0.0000000E+00   1.0344690E-03  -1.1471396E-02   0.0000000E+00   9.2798012E-04  -1.1411811E-02   0.0000000E+00   5.6479347E-04  -1.1280189E-02   0.0000000E+00  -3.8289261E-05  -1.0752768E-02   0.0000000E+00  -5.7026057E-04  -1.4503512E-02   0.0000000E+00   9.7633066E-04  -1.4595591E-02   0.0000000E+00   1.2006925E-03  -1.4648430E-02   0.0000000E+00   1.4308839E-03  -1.4659690E-02   0.0000000E+00   1.5912246E-03  -1.4632065E-02   0.0000000E+00   1.5573737E-03  -1.4559976E-02   0.0000000E+00   1.2128893E-03  -1.4366990E-02   0.0000000E+00   6.3392828E-04  -1.3715546E-02   0.0000000E+00   3.7658412E-04  -1.8153753E-02   0.0000000E+00   1.3238575E-03  -1.8331857E-02   0.0000000E+00   1.6654672E-03  -1.8463276E-02   0.0000000E+00   2.0330702E-03  -1.8532330E-02   0.0000000E+00   2.3413117E-03  -1.8523220E-02   0.0000000E+00   2.4477793E-03  -1.8410547E-02   0.0000000E+00   2.2407395E-03  -1.8115336E-02   0.0000000E+00   1.9156168E-03  -1.7362764E-02   0.0000000E+00   2.0978462E-03  -2.2608077E-02   0.0000000E+00   1.7580360E-03  -2.2903718E-02   0.0000000E+00   2.2493359E-03  -2.3144346E-02   0.0000000E+00   2.7897879E-03  -2.3300821E-02   0.0000000E+00   3.2862644E-03  -2.3341525E-02   0.0000000E+00   3.5901293E-03  -2.3225853E-02   0.0000000E+00   3.6085730E-03  -2.2881616E-02   0.0000000E+00   3.6257929E-03  -2.2114990E-02   0.0000000E+00   4.1596144E-03  -2.8010443E-02   0.0000000E+00   2.2815613E-03  -2.8464461E-02   0.0000000E+00   2.9576973E-03  -2.8854696E-02   0.0000000E+00   3.7068741E-03  -2.9140847E-02   0.0000000E+00   4.4245748E-03  -2.9283877E-02   0.0000000E+00   4.9545257E-03  -2.9241797E-02   0.0000000E+00   5.2130935E-03  -2.8959151E-02   0.0000000E+00   5.5333227E-03  -2.8317802E-02   0.0000000E+00   6.3152988E-03  -3.4523852E-02   0.0000000E+00   2.8945040E-03  -3.5191264E-02   0.0000000E+00   3.7948631E-03  -3.5784513E-02   0.0000000E+00   4.7950959E-03  -3.6250275E-02   0.0000000E+00   5.7686539E-03  -3.6547005E-02   0.0000000E+00   6.5341932E-03  -3.6643859E-02   0.0000000E+00   7.0086634E-03  -3.6516741E-02   0.0000000E+00   7.5675994E-03  -3.6119699E-02   0.0000000E+00   8.5219480E-03  -4.2329989E-02   0.0000000E+00   3.5953557E-03  -4.3285526E-02   0.0000000E+00   4.7632735E-03  -4.4158664E-02   0.0000000E+00   6.0675596E-03  -4.4871666E-02   0.0000000E+00   7.3448513E-03  -4.5373797E-02   0.0000000E+00   8.3758570E-03  -4.5644350E-02   0.0000000E+00   9.0712346E-03  -4.5693316E-02   0.0000000E+00   9.8329475E-03  -4.5545891E-02   0.0000000E+00   1.0999912E-02  -5.1627021E-02   0.0000000E+00   4.3823207E-03  -5.2968670E-02   0.0000000E+00   5.8628111E-03  -5.4230142E-02   0.0000000E+00   7.5322427E-03  -5.5297907E-02   0.0000000E+00   9.1814334E-03  -5.6091953E-02   0.0000000E+00   1.0539598E-02  -5.6584030E-02   0.0000000E+00   1.1498840E-02  -5.6801654E-02   0.0000000E+00   1.2523054E-02  -5.6812976E-02   0.0000000E+00   1.3985885E-02  -6.2626265E-02   0.0000000E+00   5.2566892E-03  -6.4475924E-02   0.0000000E+00   7.0898882E-03  -6.6268899E-02   0.0000000E+00   9.1876928E-03  -6.7845307E-02   0.0000000E+00   1.1285749E-02  -6.9081463E-02   0.0000000E+00   1.3054163E-02  -6.9920205E-02   0.0000000E+00   1.4374697E-02  -7.0382468E-02   0.0000000E+00   1.5821358E-02  -7.0552096E-02   0.0000000E+00   1.7753240E-02  -7.5546913E-02   0.0000000E+00   6.2312633E-03  -7.8047208E-02   0.0000000E+00   8.4402692E-03  -8.0549352E-02   0.0000000E+00   1.1019074E-02  -8.2837418E-02   0.0000000E+00   1.3638781E-02  -8.4727228E-02   0.0000000E+00   1.5899047E-02  -8.6114652E-02   0.0000000E+00   1.7693950E-02  -8.6999692E-02   0.0000000E+00   1.9805411E-02  -8.7472118E-02   0.0000000E+00   2.2503678E-02  -9.0602055E-02   0.0000000E+00   7.3478636E-03  -9.3907058E-02   0.0000000E+00   9.9221105E-03  -9.7324662E-02   0.0000000E+00   1.3003906E-02  -1.0057578E-01   0.0000000E+00   1.6191971E-02  -1.0339741E-01   0.0000000E+00   1.8995121E-02  -1.0561435E-01   0.0000000E+00   2.1350628E-02  -1.0718411E-01   0.0000000E+00   2.4408851E-02  -1.0818882E-01   0.0000000E+00   2.8380075E-02  -1.0795433E-01   0.0000000E+00   8.7066162E-03  -1.1221417E-01   0.0000000E+00   1.1584455E-02  -1.1676635E-01   0.0000000E+00   1.5135826E-02  -1.2126872E-01   0.0000000E+00   1.8879050E-02  -1.2536179E-01   0.0000000E+00   2.2204075E-02  -1.2877227E-01   0.0000000E+00   2.5110492E-02  -1.3138616E-01   0.0000000E+00   2.9438289E-02  -1.3325498E-01   0.0000000E+00   3.5351351E-02  -1.2760848E-01   0.0000000E+00   1.0505566E-02  -1.3294888E-01   0.0000000E+00   1.3564010E-02  -1.3884197E-01   0.0000000E+00   1.7476724E-02  -1.4489134E-01   0.0000000E+00   2.1665502E-02  -1.5063012E-01   0.0000000E+00   2.5375130E-02  -1.5566157E-01   0.0000000E+00   2.8629871E-02  -1.5976739E-01   0.0000000E+00   3.4425870E-02  -1.6293584E-01   0.0000000E+00   4.3218486E-02  -1.4922020E-01   0.0000000E+00   1.3083108E-02  -1.5572031E-01   0.0000000E+00   1.6147461E-02  -1.6311358E-01   0.0000000E+00   2.0236209E-02  -1.7096600E-01   0.0000000E+00   2.4663156E-02  -1.7870310E-01   0.0000000E+00   2.8459480E-02  -1.8578935E-01   0.0000000E+00   3.1535503E-02  -1.9187115E-01   0.0000000E+00   3.8618986E-02  -1.9683118E-01   0.0000000E+00   5.1503398E-02  -1.7184474E-01   0.0000000E+00   1.6955424E-02  -1.7952006E-01   0.0000000E+00   1.9846212E-02  -1.8848184E-01   0.0000000E+00   2.3893615E-02  -1.9828133E-01   0.0000000E+00   2.8278554E-02  -2.0825286E-01   0.0000000E+00   3.1672843E-02  -2.1772783E-01   0.0000000E+00   3.3512492E-02  -2.2619970E-01   0.0000000E+00   4.1021246E-02  -2.3339574E-01   0.0000000E+00   5.9164435E-02  -1.9371273E-01   0.0000000E+00   2.2855585E-02  -2.0248681E-01   0.0000000E+00   2.5498765E-02  -2.1293068E-01   0.0000000E+00   2.9363427E-02  -2.2460473E-01   0.0000000E+00   3.3438828E-02  -2.3679176E-01   0.0000000E+00   3.5771247E-02  -2.4873067E-01   0.0000000E+00   3.4911547E-02  -2.5977007E-01   0.0000000E+00   4.0975094E-02  -2.6943892E-01   0.0000000E+00   6.4743191E-02  -2.1211463E-01   0.0000000E+00   3.1793538E-02  -2.2177531E-01   0.0000000E+00   3.4385536E-02  -2.3338282E-01   0.0000000E+00   3.8148481E-02  -2.4652326E-01   0.0000000E+00   4.1787904E-02  -2.6048669E-01   0.0000000E+00   4.2350646E-02  -2.7449816E-01   0.0000000E+00   3.6799103E-02  -2.8781718E-01   0.0000000E+00   3.8154345E-02  -2.9976571E-01   0.0000000E+00   6.6756584E-02  -2.2337303E-01   0.0000000E+00   4.5089770E-02  -2.3351283E-01   0.0000000E+00   4.8243187E-02  -2.4566005E-01   0.0000000E+00   5.2321080E-02  -2.5941667E-01   0.0000000E+00   5.5629738E-02  -2.7413487E-01   0.0000000E+00   5.3865261E-02  -2.8914133E-01   0.0000000E+00   4.1453268E-02  -3.0373025E-01   0.0000000E+00   3.3922613E-02  -3.1708568E-01   0.0000000E+00   6.4336099E-02  -2.2253594E-01   0.0000000E+00   6.4263791E-02  -2.3248067E-01   0.0000000E+00   6.9031224E-02  -2.4417163E-01   0.0000000E+00   7.4095748E-02  -2.5718844E-01   0.0000000E+00   7.7301256E-02  -2.7099791E-01   0.0000000E+00   7.2926953E-02  -2.8517041E-01   0.0000000E+00   5.2581504E-02  -2.9920736E-01   0.0000000E+00   3.1687487E-02  -3.1229740E-01   0.0000000E+00   5.8782879E-02  -2.0299637E-01   0.0000000E+00   9.0668246E-02  -2.1175423E-01   0.0000000E+00   9.8424844E-02  -2.2159812E-01   0.0000000E+00   1.0531963E-01  -2.3208371E-01   0.0000000E+00   1.0814523E-01  -2.4288316E-01   0.0000000E+00   1.0080578E-01  -2.5391555E-01   0.0000000E+00   7.4086480E-02  -2.6502606E-01   0.0000000E+00   4.0127002E-02  -2.7557799E-01   0.0000000E+00   5.4765273E-02  -1.5739955E-01   0.0000000E+00   1.2488684E-01  -1.6371547E-01   0.0000000E+00   1.3708735E-01  -1.7010504E-01   0.0000000E+00   1.4667384E-01  -1.7615201E-01   0.0000000E+00   1.4927286E-01  -1.8181700E-01   0.0000000E+00   1.3778263E-01  -1.8743750E-01   0.0000000E+00   1.0744982E-01  -1.9325987E-01   0.0000000E+00   6.8805456E-02  -1.9891211E-01   0.0000000E+00   6.2185142E-02  -8.0410592E-02   0.0000000E+00   1.6608736E-01  -8.3035350E-02   0.0000000E+00   1.8391760E-01  -8.4582478E-02   0.0000000E+00   1.9693811E-01  -8.4736392E-02   0.0000000E+00   2.0013562E-01  -8.3744533E-02   0.0000000E+00   1.9080412E-01  -8.2319260E-02   0.0000000E+00   1.7399250E-01  -8.1097990E-02   0.0000000E+00   1.3298552E-01  -8.0056235E-02   0.0000000E+00   9.4237529E-02   2.7306689E-02   0.0000000E+00   2.1166319E-01   2.9231954E-02   0.0000000E+00   2.3565446E-01   3.3201735E-02   0.0000000E+00   2.5267568E-01   3.9366800E-02   0.0000000E+00   2.5893649E-01   4.7294933E-02   0.0000000E+00   2.6105273E-01   5.6129593E-02   0.0000000E+00   2.7640671E-01   6.4976364E-02   0.0000000E+00   2.3145942E-01   7.3332407E-02   0.0000000E+00   1.3945962E-01   1.5541404E-01   0.0000000E+00   2.5752488E-01   1.6212314E-01   0.0000000E+00   2.8727537E-01   1.7136894E-01   0.0000000E+00   3.0802804E-01   1.8307166E-01   0.0000000E+00   3.1803092E-01   1.9673815E-01   0.0000000E+00   3.3433664E-01   2.1164507E-01   0.0000000E+00   3.7853256E-01   2.2688574E-01   0.0000000E+00   3.1610450E-01   2.4128440E-01   0.0000000E+00   1.7227010E-01   2.8299600E-01   0.0000000E+00   2.9913694E-01   2.9405212E-01   0.0000000E+00   3.3335546E-01   3.0756405E-01   0.0000000E+00   3.5662907E-01   3.2312998E-01   0.0000000E+00   3.6847433E-01   3.4020901E-01   0.0000000E+00   3.9252824E-01   3.5832322E-01   0.0000000E+00   4.4813871E-01   3.7671363E-01   0.0000000E+00   3.5910460E-01   3.9371625E-01   0.0000000E+00   1.7841657E-01   3.8358197E-01   0.0000000E+00   3.3290964E-01   3.9796972E-01   0.0000000E+00   3.6986536E-01   4.1428545E-01   0.0000000E+00   3.9386162E-01   4.3175799E-01   0.0000000E+00   4.0414310E-01   4.4970772E-01   0.0000000E+00   4.2536169E-01   4.6775916E-01   0.0000000E+00   4.7375047E-01   4.8534721E-01   0.0000000E+00   3.5201415E-01   5.0112653E-01   0.0000000E+00   1.5675578E-01   4.3838894E-01   0.0000000E+00   3.5716119E-01   4.5472732E-01   0.0000000E+00   3.9528415E-01   4.7226706E-01   0.0000000E+00   4.1873083E-01   4.8990905E-01   0.0000000E+00   4.2563465E-01   5.0678355E-01   0.0000000E+00   4.3839672E-01   5.2248734E-01   0.0000000E+00   4.7080138E-01   5.3675270E-01   0.0000000E+00   3.3001027E-01   5.4914957E-01   0.0000000E+00   1.3083519E-01   4.4695348E-01   0.0000000E+00   3.7216085E-01   4.6385080E-01   0.0000000E+00   4.1040421E-01   4.8124570E-01   0.0000000E+00   4.3295434E-01   4.9782535E-01   0.0000000E+00   4.3707937E-01   5.1257980E-01   0.0000000E+00   4.4309995E-01   5.2510607E-01   0.0000000E+00   4.6327335E-01   5.3546780E-01   0.0000000E+00   3.1152126E-01   5.4401398E-01   0.0000000E+00   1.1396181E-01   4.2349741E-01   0.0000000E+00   3.7935379E-01   4.3992290E-01   0.0000000E+00   4.1718554E-01   4.5630676E-01   0.0000000E+00   4.3896231E-01   4.7125578E-01   0.0000000E+00   4.4145635E-01   4.8372129E-01   0.0000000E+00   4.4369462E-01   4.9333405E-01   0.0000000E+00   4.5755926E-01   5.0037283E-01   0.0000000E+00   3.0212498E-01   5.0559753E-01   0.0000000E+00   1.0769682E-01   3.8604146E-01   0.0000000E+00   3.8042107E-01   4.0145290E-01   0.0000000E+00   4.1766980E-01   4.1650665E-01   0.0000000E+00   4.3899259E-01   4.2982200E-01   0.0000000E+00   4.4101492E-01   4.4039348E-01   0.0000000E+00   4.4231901E-01   4.4790179E-01   0.0000000E+00   4.5542821E-01   4.5270944E-01   0.0000000E+00   3.0235565E-01   4.5566025E-01   0.0000000E+00   1.1087340E-01   3.4726822E-01   0.0000000E+00   3.7663996E-01   3.6154962E-01   0.0000000E+00   4.1326892E-01   3.7537032E-01   0.0000000E+00   4.3442512E-01   3.8740498E-01   0.0000000E+00   4.3687442E-01   3.9672476E-01   0.0000000E+00   4.3952340E-01   4.0306431E-01   0.0000000E+00   4.5625058E-01   4.0679038E-01   0.0000000E+00   3.0925035E-01   4.0865421E-01   0.0000000E+00   1.2022499E-01   3.1091672E-01   0.0000000E+00   3.6869976E-01   3.2423890E-01   0.0000000E+00   4.0462378E-01   3.3716983E-01   0.0000000E+00   4.2571124E-01   3.4844971E-01   0.0000000E+00   4.2886379E-01   3.5721171E-01   0.0000000E+00   4.3290868E-01   3.6322343E-01   0.0000000E+00   4.5230818E-01   3.6682016E-01   0.0000000E+00   3.1189260E-01   3.6861300E-01   0.0000000E+00   1.2715816E-01   2.7370444E-01   0.0000000E+00   3.5688213E-01   2.8636706E-01   0.0000000E+00   3.9188930E-01   2.9886210E-01   0.0000000E+00   4.1283041E-01   3.0998108E-01   0.0000000E+00   4.1668350E-01   3.1886289E-01   0.0000000E+00   4.2165950E-01   3.2525057E-01   0.0000000E+00   4.4192526E-01   3.2941926E-01   0.0000000E+00   3.0803579E-01   3.3184767E-01   0.0000000E+00   1.2994333E-01   2.3043016E-01   0.0000000E+00   3.4137708E-01   2.4269621E-01   0.0000000E+00   3.7514579E-01   2.5519684E-01   0.0000000E+00   3.9574647E-01   2.6675543E-01   0.0000000E+00   4.0017679E-01   2.7643111E-01   0.0000000E+00   4.0553838E-01   2.8383958E-01   0.0000000E+00   4.2480177E-01   2.8914028E-01   0.0000000E+00   2.9835126E-01   2.9268825E-01   0.0000000E+00   1.2984695E-01   1.7902650E-01   0.0000000E+00   3.2252863E-01   1.9096646E-01   0.0000000E+00   3.5469371E-01   2.0376018E-01   0.0000000E+00   3.7471509E-01   2.1627496E-01   0.0000000E+00   3.7956986E-01   2.2740535E-01   0.0000000E+00   3.8485253E-01   2.3650053E-01   0.0000000E+00   4.0153873E-01   2.4349716E-01   0.0000000E+00   2.8415644E-01   2.4862066E-01   0.0000000E+00   1.2793866E-01   1.2265501E-01   0.0000000E+00   3.0093533E-01   1.3407226E-01   0.0000000E+00   3.3116272E-01   1.4716889E-01   0.0000000E+00   3.5037854E-01   1.6093725E-01   0.0000000E+00   3.5551813E-01   1.7408232E-01   0.0000000E+00   3.6033967E-01   1.8554454E-01   0.0000000E+00   3.7338537E-01   1.9487470E-01   0.0000000E+00   2.6607090E-01   2.0210040E-01   0.0000000E+00   1.2472864E-01   6.8059549E-02   0.0000000E+00   2.7742383E-01   7.8648262E-02   0.0000000E+00   3.0547675E-01   9.1846853E-02   0.0000000E+00   3.2372889E-01   1.0687406E-01   0.0000000E+00   3.2905167E-01   1.2232614E-01   0.0000000E+00   3.3317479E-01   1.3670295E-01   0.0000000E+00   3.4338871E-01   1.4899898E-01   0.0000000E+00   2.4712886E-01   1.5890737E-01   0.0000000E+00   1.2080167E-01   2.1691129E-02   0.0000000E+00   2.5297508E-01   3.1351723E-02   0.0000000E+00   2.7875295E-01   4.4542972E-02   0.0000000E+00   2.9595825E-01   6.0734380E-02   0.0000000E+00   3.0139303E-01   7.8478321E-02   0.0000000E+00   3.0475545E-01   9.5950596E-02   0.0000000E+00   3.1374881E-01   1.1160079E-01   0.0000000E+00   2.2855696E-01   1.2469088E-01   0.0000000E+00   1.1722162E-01  -1.3046214E-02   0.0000000E+00   2.2864445E-01  -4.0759849E-03   0.0000000E+00   2.5221556E-01   9.2125311E-03   0.0000000E+00   2.6840034E-01   2.6393950E-02   0.0000000E+00   2.7400163E-01   4.6089731E-02   0.0000000E+00   2.7659622E-01   6.6363752E-02   0.0000000E+00   2.8535154E-01   8.5294545E-02   0.0000000E+00   2.1043777E-01   1.0170256E-01   0.0000000E+00   1.1167087E-01  -3.5964951E-02   0.0000000E+00   2.0547745E-01  -2.7257886E-02   0.0000000E+00   2.2710800E-01  -1.3883528E-02   0.0000000E+00   2.4251325E-01   3.7683216E-03   0.0000000E+00   2.4842836E-01   2.4629230E-02   0.0000000E+00   2.5062564E-01   4.6984952E-02   0.0000000E+00   2.5794905E-01   6.8756528E-02   0.0000000E+00   1.9112027E-01   8.8292614E-02   0.0000000E+00   1.0219752E-01  -4.8904330E-02   0.0000000E+00   1.8442141E-01  -4.0186845E-02   0.0000000E+00   2.0459032E-01  -2.7163798E-02   0.0000000E+00   2.1960965E-01  -1.0129022E-02   0.0000000E+00   2.2620288E-01   1.0543244E-02   0.0000000E+00   2.2851935E-01   3.3908240E-02   0.0000000E+00   2.3232915E-01   5.8125000E-02   0.0000000E+00   1.6960981E-01   8.0931462E-02   0.0000000E+00   8.9883372E-02  -5.4289702E-02   0.0000000E+00   1.6624722E-01  -4.5681588E-02   0.0000000E+00   1.8552263E-01  -3.3921085E-02   0.0000000E+00   2.0043956E-01  -1.9120093E-02   0.0000000E+00   2.0814607E-01  -5.0345814E-04   0.0000000E+00   2.1154734E-01   2.2786295E-02   0.0000000E+00   2.1152557E-01   5.0459966E-02   0.0000000E+00   1.5195313E-01   7.9871155E-02   0.0000000E+00   8.4894419E-02  -5.4094639E-02   0.0000000E+00   1.5144219E-01  -4.6172619E-02   0.0000000E+00   1.7026199E-01  -3.6973502E-02   0.0000000E+00   1.8520319E-01  -2.6157239E-02   0.0000000E+00   1.9419093E-01  -1.1444847E-02   0.0000000E+00   1.9994050E-01   1.1268737E-02   0.0000000E+00   1.9768368E-01   4.4187509E-02   0.0000000E+00   1.4514644E-01   8.7534986E-02   0.0000000E+00   9.4141372E-02  -4.9632508E-02   0.0000000E+00   1.4013298E-01  -4.3331444E-02   0.0000000E+00   1.5860857E-01  -3.7980046E-02   0.0000000E+00   1.7352544E-01  -3.2397263E-02   0.0000000E+00   1.8393055E-01  -2.2488717E-02   0.0000000E+00   1.9281752E-01   4.4899713E-04   0.0000000E+00   1.8830432E-01   3.9958693E-02   0.0000000E+00   1.4404990E-01   1.0130008E-01   0.0000000E+00   1.0834059E-01  -4.1792709E-02   0.0000000E+00   1.3199002E-01  -3.8186532E-02   0.0000000E+00   1.4987563E-01  -3.7536353E-02   0.0000000E+00   1.6456522E-01  -3.7388712E-02   0.0000000E+00   1.7675312E-01  -3.0329527E-02   0.0000000E+00   1.8643814E-01  -5.7099420E-03   0.0000000E+00   1.7601007E-01   3.8926952E-02   0.0000000E+00   1.3765495E-01  -3.1719610E-02   0.0000000E+00   1.2624703E-01  -3.1766124E-02   0.0000000E+00   1.4305879E-01  -3.5860084E-02   0.0000000E+00   1.5741853E-01  -3.8911805E-02   0.0000000E+00   1.7054793E-01  -3.0413799E-02   0.0000000E+00   1.7735307E-01  -3.4194076E-03   0.0000000E+00   1.6086935E-01   4.3416928E-02   0.0000000E+00   1.2969734E-01  -2.0992231E-02   0.0000000E+00   1.2182932E-01  -2.5166389E-02   0.0000000E+00   1.3721217E-01  -3.2332554E-02   0.0000000E+00   1.5129521E-01  -3.3666279E-02   0.0000000E+00   1.6438746E-01  -2.0145077E-02   0.0000000E+00   1.6636933E-01   8.9643234E-03   0.0000000E+00   1.4691538E-01  -1.1277286E-02   0.0000000E+00   1.1777908E-01  -1.8657558E-02   0.0000000E+00   1.3200739E-01  -2.3924798E-02   0.0000000E+00   1.4653161E-01  -1.8055169E-02   0.0000000E+00   1.5815137E-01   1.1375088E-03   0.0000000E+00   1.5524676E-01   2.9589262E-02   0.0000000E+00   1.3470839E-01  -2.9201380E-03   0.0000000E+00   1.1421520E-01  -8.4020384E-03   0.0000000E+00   1.2878656E-01  -5.3418679E-03   0.0000000E+00   1.4335959E-01   8.6945007E-03   0.0000000E+00   1.5179427E-01   2.8527454E-02   0.0000000E+00   1.4420407E-01   9.8747220E-03   0.0000000E+00   1.1319867E-01   1.3388561E-02   0.0000000E+00   1.2800673E-01   2.4684450E-02   0.0000000E+00   1.4094363E-01   4.0423293E-02   0.0000000E+00   1.4381579E-01   3.8194820E-02   0.0000000E+00   1.1451729E-01   4.6579108E-02   0.0000000E+00   1.2825336E-01   5.6616828E-02   0.0000000E+00   1.3674013E-01   5.9754819E-02   0.0000000E+00   1.3352253E-01   6.9209144E-02   0.0000000E+00   1.1684224E-01   6.6691250E-02   0.0000000E+00   1.2694678E-01   7.0604086E-02   0.0000000E+00   1.1821363E-01 
Force 3 2975 float
0.0 0.0 0.0 0.0 0.0 0.0 0.0 0.0 0.0 0.0 0.0 0.0 0.0 0.0 0.0 0.0 0.0 0.0 0.0 0.0 0.0 0.0 0.0 0.0 0.0 0.0 0.0 0.0 0.0 0.0 0.0 0.0 0.0 0.0 0.0 0.0 0.0 0.0 0.0 0.0 0.0 0.0 0.0 0.0 0.0 0.0 0.0 0.0 0.0 0.0 0.0 0.0 0.0 0.0 0.0 0.0 0.0 0.0 0.0 0.0 0.0 0.0 0.0 0.0 0.0 0.0 0.0 0.0 0.0 0.0 0.0 0.0 0.0 0.0 0.0 0.0 0.0 0.0 0.0 0.0 0.0 0.0 0.0 0.0 0.0 0.0 0.0 0.0 0.0 0.0 0.0 0.0 0.0 0.0 0.0 0.0 0.0 0.0 0.0 0.0 0.0 0.0 0.0 0.0 0.0 0.0 0.0 0.0 0.0 0.0 0.0 0.0 0.0 0.0 0.0 0.0 0.0 0.0 0.0 0.0 0.0 0.0 0.0 0.0 0.0 0.0 0.0 0.0 0.0 0.0 0.0 0.0 0.0 0.0 0.0 0.0 0.0 0.0 0.0 0.0 0.0 0.0 0.0 0.0 0.0 0.0 0.0 0.0 0.0 0.0 0.0 0.0 0.0 0.0 0.0 0.0 0.0 0.0 0.0 0.0 0.0 0.0 0.0 0.0 0.0 0.0 0.0 0.0 0.0 0.0 0.0 0.0 0.0 0.0 0.0 0.0 0.0 0.0 0.0 0.0 0.0 0.0 0.0 0.0 0.0 0.0 0.0 0.0 0.0 0.0 0.0 0.0 0.0 0.0 0.0 0.0 0.0 0.0 0.0 0.0 0.0 0.0 0.0 0.0 0.0 0.0 0.0 0.0 0.0 0.0 0.0 0.0 0.0 0.0 0.0 0.0 0.0 0.0 0.0 0.0 0.0 0.0 0.0 0.0 0.0 0.0 0.0 0.0 0.0 0.0 0.0 0.0 0.0 0.0 0.0 0.0 0.0 0.0 0.0 0.0 0.0 0.0 0.0 0.0 0.0 0.0 0.0 0.0 0.0 0.0 0.0 0.0 0.0 0.0 0.0 0.0 0.0 0.0 0.0 0.0 0.0 0.0 0.0 0.0 0.0 0.0 0.0 0.0 0.0 0.0 0.0 0.0 0.0 0.0 0.0 0.0 0.0 0.0 0.0 0.0 0.0 0.0 0.0 0.0 0.0 0.0 0.0 0.0 0.0 0.0 0.0 0.0 0.0 0.0 0.0 0.0 0.0 0.0 0.0 0.0 0.0 0.0 0.0 0.0 0.0 0.0 0.0 0.0 0.0 0.0 0.0 0.0 0.0 0.0 0.0 0.0 0.0 0.0 0.0 0.0 0.0 0.0 0.0 0.0 0.0 0.0 0.0 0.0 0.0 0.0 0.0 0.0 0.0 0.0 0.0 0.0 0.0 0.0 0.0 0.0 0.0 0.0 0.0 0.0 0.0 0.0 0.0 0.0 0.0 0.0 0.0 0.0 0.0 0.0 0.0 0.0 0.0 0.0 0.0 0.0 0.0 0.0 0.0 0.0 0.0 0.0 0.0 0.0 0.0 0.0 0.0 0.0 0.0 0.0 0.0 0.0 0.0 0.0 0.0 0.0 0.0 0.0 0.0 0.0 0.0 0.0 0.0 0.0 0.0 0.0 0.0 0.0 0.0 0.0 0.0 0.0 0.0 0.0 0.0 0.0 0.0 0.0 0.0 0.0 0.0 0.0 0.0 0.0 0.0 0.0 0.0 0.0 0.0 0.0 0.0 0.0 0.0 0.0 0.0 0.0 0.0 0.0 0.0 0.0 0.0 0.0 0.0 0.0 0.0 0.0 0.0 0.0 0.0 0.0 0.0 0.0 0.0 0.0 0.0 0.0 0.0 0.0 0.0 0.0 0.0 0.0 0.0 0.0 0.0 0.0 0.0 0.0 0.0 0.0 0.0 0.0 0.0 0.0 0.0 0.0 0.0 0.0 0.0 0.0 0.0 0.0 0.0 0.0 0.0 0.0 0.0 0.0 0.0 0.0 0.0 0.0 0.0 0.0 0.0 0.0 0.0 0.0 0.0 0.0 0.0 0.0 0.0 0.0 0.0 0.0 0.0 0.0 0.0 0.0 0.0 0.0 0.0 0.0 0.0 0.0 0.0 0.0 0.0 0.0 0.0 0.0 0.0 0.0 0.0 0.0 0.0 0.0 0.0 0.0 0.0 0.0 0.0 0.0 0.0 0.0 0.0 0.0 0.0 0.0 0.0 0.0 0.0 0.0 0.0 0.0 0.0 0.0 0.0 0.0 0.0 0.0 0.0 0.0 0.0 0.0 0.0 0.0 0.0 0.0 0.0 0.0 0.0 0.0 0.0 0.0 0.0 0.0 0.0 0.0 0.0 0.0 0.0 0.0 0.0 0.0 0.0 0.0 0.0 0.0 0.0 0.0 0.0 0.0 0.0 0.0 0.0 0.0 0.0 0.0 0.0 0.0 0.0 0.0 0.0 0.0 0.0 0.0 0.0 0.0 0.0 0.0 0.0 0.0 0.0 0.0 0.0 0.0 0.0 0.0 0.0 0.0 0.0 0.0 0.0 0.0 0.0 0.0 0.0 0.0 0.0 0.0 0.0 0.0 0.0 0.0 0.0 0.0 0.0 0.0 0.0 0.0 0.0 0.0 0.0 0.0 0.0 0.0 0.0 0.0 0.0 0.0 0.0 0.0 0.0 0.0 0.0 0.0 0.0 0.0 0.0 0.0 0.0 0.0 0.0 0.0 0.0 0.0 0.0 0.0 0.0 0.0 0.0 0.0 0.0 0.0 0.0 0.0 0.0 0.0 0.0 0.0 0.0 0.0 0.0 0.0 0.0 0.0 0.0 0.0 0.0 0.0 0.0 0.0 0.0 0.0 0.0 0.0 0.0 0.0 0.0 0.0 0.0 0.0 0.0 0.0 0.0 0.0 0.0 0.0 0.0 0.0 0.0 0.0 0.0 0.0 0.0 0.0 0.0 0.0 0.0 0.0 0.0 0.0 0.0 0.0 0.0 0.0 0.0 0.0 0.0 0.0 0.0 0.0 0.0 0.0 0.0 0.0 0.0 0.0 0.0 0.0 0.0 0.0 0.0 0.0 0.0 0.0 0.0 0.0 0.0 0.0 0.0 0.0 0.0 0.0 0.0 0.0 0.0 0.0 0.0 0.0 0.0 0.0 0.0 0.0 0.0 0.0 0.0 0.0 0.0 0.0 0.0 0.0 0.0 0.0 0.0 0.0 0.0 0.0 0.0 0.0 0.0 0.0 0.0 0.0 0.0 0.0 0.0 0.0 0.0 0.0 0.0 0.0 0.0 0.0 0.0 0.0 0.0 0.0 0.0 0.0 0.0 0.0 0.0 0.0 0.0 0.0 0.0 0.0 0.0 0.0 0.0 0.0 0.0 0.0 0.0 0.0 0.0 0.0 0.0 0.0 0.0 0.0 0.0 0.0 0.0 0.0 0.0 0.0 0.0 0.0 0.0 0.0 0.0 0.0 0.0 0.0 0.0 0.0 0.0 0.0 0.0 0.0 0.0 0.0 0.0 0.0 0.0 0.0 0.0 0.0 0.0 0.0 0.0 0.0 0.0 0.0 0.0 0.0 0.0 0.0 0.0 0.0 0.0 0.0 0.0 0.0 0.0 0.0 0.0 0.0 0.0 0.0 0.0 0.0 0.0 0.0 0.0 0.0 0.0 0.0 0.0 0.0 0.0 0.0 0.0 0.0 0.0 0.0 0.0 0.0 0.0 0.0 0.0 0.0 0.0 0.0 0.0 0.0 0.0 0.0 0.0 0.0 0.0 0.0 0.0 0.0 0.0 0.0 0.0 0.0 0.0 0.0 0.0 0.0 0.0 0.0 0.0 0.0 0.0 0.0 0.0 0.0 0.0 0.0 0.0 0.0 0.0 0.0 0.0 0.0 0.0 0.0 0.0 0.0 0.0 0.0 0.0 0.0 0.0 0.0 0.0 0.0 0.0 0.0 0.0 0.0 0.0 0.0 0.0 0.0 0.0 0.0 0.0 0.0 0.0 0.0 0.0 0.0 0.0 0.0 0.0 0.0 0.0 0.0 0.0 0.0 0.0 0.0 0.0 0.0 0.0 0.0 0.0 0.0 0.0 0.0 0.0 0.0 0.0 0.0 0.0 0.0 0.0 0.0 0.0 0.0 0.0 0.0 0.0 0.0 0.0 0.0 0.0 0.0 0.0 0.0 0.0 0.0 0.0 0.0 0.0 0.0 0.0 0.0 0.0 0.0 0.0 0.0 0.0 0.0 0.0 0.0 0.0 0.0 0.0 0.0 0.0 0.0 0.0 0.0 0.0 0.0 0.0 0.0 0.0 0.0 0.0 0.0 0.0 0.0 0.0 0.0 0.0 0.0 0.0 0.0 0.0 0.0 0.0 0.0 0.0 0.0 0.0 0.0 0.0 0.0 0.0 0.0 0.0 0.0 0.0 0.0 0.0 0.0 0.0 0.0 0.0 0.0 0.0 0.0 0.0 0.0 0.0 0.0 0.0 0.0 0.0 0.0 0.0 0.0 0.0 0.0 0.0 0.0 0.0 0.0 0.0 0.0 0.0 0.0 0.0 0.0 0.0 0.0 0.0 0.0 0.0 0.0 0.0 0.0 0.0 0.0 0.0 0.0 0.0 0.0 0.0 0.0 0.0 0.0 0.0 0.0 0.0 0.0 0.0 0.0 0.0 0.0 0.0 0.0 0.0 0.0 0.0 0.0 0.0 0.0 0.0 0.0 0.0 0.0 0.0 0.0 0.0 0.0 0.0 0.0 0.0 0.0 0.0 0.0 0.0 0.0 0.0 0.0 0.0 0.0 0.0 0.0 0.0 0.0 0.0 0.0 0.0 0.0 0.0 0.0 0.0 0.0 0.0 0.0 0.0 0.0 0.0 0.0 0.0 0.0 0.0 0.0 0.0 0.0 0.0 0.0 0.0 0.0 0.0 0.0 0.0 0.0 0.0 0.0 0.0 0.0 0.0 0.0 0.0 0.0 0.0 0.0 0.0 0.0 0.0 0.0 0.0 0.0 0.0 0.0 0.0 0.0 0.0 0.0 0.0 0.0 0.0 0.0 0.0 0.0 0.0 0.0 0.0 0.0 0.0 0.0 0.0 0.0 0.0 0.0 0.0 0.0 0.0 0.0 0.0 0.0 0.0 0.0 0.0 0.0 0.0 0.0 0.0 0.0 0.0 0.0 0.0 0.0 0.0 0.0 0.0 0.0 0.0 0.0 0.0 0.0 0.0 0.0 0.0 0.0 0.0 0.0 0.0 0.0 0.0 0.0 0.0 0.0 0.0 0.0 0.0 0.0 0.0 0.0 0.0 0.0 0.0 0.0 0.0 0.0 0.0 0.0 0.0 0.0 0.0 0.0 0.0 0.0 0.0 0.0 0.0 0.0 0.0 0.0 0.0 0.0 0.0 0.0 0.0 0.0 0.0 0.0 0.0 0.0 0.0 0.0 0.0 0.0 0.0 0.0 0.0 0.0 0.0 0.0 0.0 0.0 0.0 0.0 0.0 0.0 0.0 0.0 0.0 0.0 0.0 0.0 0.0 0.0 0.0 0.0 0.0 0.0 0.0 0.0 0.0 0.0 0.0 0.0 0.0 0.0 0.0 0.0 0.0 0.0 0.0 0.0 0.0 0.0 0.0 0.0 0.0 0.0 0.0 0.0 0.0 0.0 0.0 0.0 0.0 0.0 0.0 0.0 0.0 0.0 0.0 0.0 0.0 0.0 0.0 0.0 0.0 0.0 0.0 0.0 0.0 0.0 0.0 0.0 0.0 0.0 0.0 0.0 0.0 0.0 0.0 0.0 0.0 0.0 0.0 0.0 0.0 0.0 0.0 0.0 0.0 0.0 0.0 0.0 0.0 0.0 0.0 0.0 0.0 0.0 0.0 0.0 0.0 0.0 0.0 0.0 0.0 0.0 0.0 0.0 0.0 0.0 0.0 0.0 0.0 0.0 0.0 0.0 0.0 0.0 0.0 0.0 0.0 0.0 0.0 0.0 0.0 0.0 0.0 0.0 0.0 0.0 0.0 0.0 0.0 0.0 0.0 0.0 0.0 0.0 0.0 0.0 0.0 0.0 0.0 0.0 0.0 0.0 0.0 0.0 0.0 0.0 0.0 0.0 0.0 0.0 0.0 0.0 0.0 0.0 0.0 0.0 0.0 0.0 0.0 0.0 0.0 0.0 0.0 0.0 0.0 0.0 0.0 0.0 0.0 0.0 0.0 0.0 0.0 0.0 0.0 0.0 0.0 0.0 0.0 0.0 0.0 0.0 0.0 0.0 0.0 0.0 0.0 0.0 0.0 0.0 0.0 0.0 0.0 0.0 0.0 0.0 0.0 0.0 0.0 0.0 0.0 0.0 0.0 0.0 0.0 0.0 0.0 0.0 0.0 0.0 0.0 0.0 0.0 0.0 0.0 0.0 0.0 0.0 0.0 0.0 0.0 0.0 0.0 0.0 0.0 0.0 0.0 0.0 0.0 0.0 0.0 0.0 0.0 0.0 0.0 0.0 0.0 0.0 0.0 0.0 0.0 0.0 0.0 0.0 0.0 0.0 0.0 0.0 0.0 0.0 0.0 0.0 0.0 0.0 0.0 0.0 0.0 0.0 0.0 0.0 0.0 0.0 0.0 0.0 0.0 0.0 0.0 0.0 0.0 0.0 0.0 0.0 0.0 0.0 0.0 0.0 0.0 0.0 0.0 0.0 0.0 0.0 0.0 0.0 0.0 0.0 0.0 0.0 0.0 0.0 0.0 0.0 0.0 0.0 0.0 0.0 0.0 0.0 0.0 0.0 0.0 0.0 0.0 0.0 0.0 0.0 0.0 0.0 0.0 0.0 0.0 0.0 0.0 0.0 0.0 0.0 0.0 0.0 0.0 0.0 0.0 0.0 0.0 0.0 0.0 0.0 0.0 0.0 0.0 0.0 0.0 0.0 0.0 0.0 0.0 0.0 0.0 0.0 0.0 0.0 0.0 0.0 0.0 0.0 0.0 0.0 0.0 0.0 0.0 0.0 0.0 0.0 0.0 0.0 0.0 0.0 0.0 0.0 0.0 0.0 0.0 0.0 0.0 0.0 0.0 0.0 0.0 0.0 0.0 0.0 0.0 0.0 0.0 0.0 0.0 0.0 0.0 0.0 0.0 0.0 0.0 0.0 0.0 0.0 0.0 0.0 0.0 0.0 0.0 0.0 0.0 0.0 0.0 0.0 0.0 0.0 0.0 0.0 0.0 0.0 0.0 0.0 0.0 0.0 0.0 0.0 0.0 0.0 0.0 0.0 0.0 0.0 0.0 0.0 0.0 0.0 0.0 0.0 0.0 0.0 0.0 0.0 0.0 0.0 0.0 0.0 0.0 0.0 0.0 0.0 0.0 0.0 0.0 0.0 0.0 0.0 0.0 0.0 0.0 0.0 0.0 0.0 0.0 0.0 0.0 0.0 0.0 0.0 0.0 0.0 0.0 0.0 0.0 0.0 0.0 0.0 0.0 0.0 0.0 0.0 0.0 0.0 0.0 0.0 0.0 0.0 0.0 0.0 0.0 0.0 0.0 0.0 0.0 0.0 0.0 0.0 0.0 0.0 0.0 0.0 0.0 0.0 0.0 0.0 0.0 0.0 0.0 0.0 0.0 0.0 0.0 0.0 0.0 0.0 0.0 0.0 0.0 0.0 0.0 0.0 0.0 0.0 0.0 0.0 0.0 0.0 0.0 0.0 0.0 0.0 0.0 0.0 0.0 0.0 0.0 0.0 0.0 0.0 0.0 0.0 0.0 0.0 0.0 0.0 0.0 0.0 0.0 0.0 0.0 0.0 0.0 0.0 0.0 0.0 0.0 0.0 0.0 0.0 0.0 0.0 0.0 0.0 0.0 0.0 0.0 0.0 0.0 0.0 0.0 0.0 0.0 0.0 0.0 0.0 0.0 0.0 0.0 0.0 0.0 0.0 0.0 0.0 0.0 0.0 0.0 0.0 0.0 0.0 0.0 0.0 0.0 0.0 0.0 0.0 0.0 0.0 0.0 0.0 0.0 0.0 0.0 0.0 0.0 0.0 0.0 0.0 0.0 0.0 0.0 0.0 0.0 0.0 0.0 0.0 0.0 0.0 0.0 0.0 0.0 0.0 0.0 0.0 0.0 0.0 0.0 0.0 0.0 0.0 0.0 0.0 0.0 0.0 0.0 0.0 0.0 0.0 0.0 0.0 0.0 0.0 0.0 0.0 0.0 0.0 0.0 0.0 0.0 0.0 0.0 0.0 0.0 0.0 0.0 0.0 0.0 0.0 0.0 0.0 0.0 0.0 0.0 0.0 0.0 0.0 0.0 0.0 0.0 0.0 0.0 0.0 0.0 0.0 0.0 0.0 0.0 0.0 0.0 0.0 0.0 0.0 0.0 0.0 0.0 0.0 0.0 0.0 0.0 0.0 0.0 0.0 0.0 0.0 0.0 0.0 0.0 0.0 0.0 0.0 0.0 0.0 0.0 0.0 0.0 0.0 0.0 0.0 0.0 0.0 0.0 0.0 0.0 0.0 0.0 0.0 0.0 0.0 0.0 0.0 0.0 0.0 0.0 0.0 0.0 0.0 0.0 0.0 0.0 0.0 0.0 0.0 0.0 0.0 0.0 0.0 0.0 0.0 0.0 0.0 0.0 0.0 0.0 0.0 0.0 0.0 0.0 0.0 0.0 0.0 0.0 0.0 0.0 0.0 0.0 0.0 0.0 0.0 0.0 0.0 0.0 0.0 0.0 0.0 0.0 0.0 0.0 0.0 0.0 0.0 0.0 0.0 0.0 0.0 0.0 0.0 0.0 0.0 0.0 0.0 0.0 0.0 0.0 0.0 0.0 0.0 0.0 0.0 0.0 0.0 0.0 0.0 0.0 0.0 0.0 0.0 0.0 0.0 0.0 0.0 0.0 0.0 0.0 0.0 0.0 0.0 0.0 0.0 0.0 0.0 0.0 0.0 0.0 0.0 0.0 0.0 0.0 0.0 0.0 0.0 0.0 0.0 0.0 0.0 0.0 0.0 0.0 0.0 0.0 0.0 0.0 0.0 0.0 0.0 0.0 0.0 0.0 0.0 0.0 0.0 0.0 0.0 0.0 0.0 0.0 0.0 0.0 0.0 0.0 0.0 0.0 0.0 0.0 0.0 0.0 0.0 0.0 0.0 0.0 0.0 0.0 0.0 0.0 0.0 0.0 0.0 0.0 0.0 0.0 0.0 0.0 0.0 0.0 0.0 0.0 0.0 0.0 0.0 0.0 0.0 0.0 0.0 0.0 0.0 0.0 0.0 0.0 0.0 0.0 0.0 0.0 0.0 0.0 0.0 0.0 0.0 0.0 0.0 0.0 0.0 0.0 0.0 0.0 0.0 0.0 0.0 0.0 0.0 0.0 0.0 0.0 0.0 0.0 0.0 0.0 0.0 0.0 0.0 0.0 0.0 0.0 0.0 0.0 0.0 0.0 0.0 0.0 0.0 0.0 0.0 0.0 0.0 0.0 0.0 0.0 0.0 0.0 0.0 0.0 0.0 0.0 0.0 0.0 0.0 0.0 0.0 0.0 0.0 0.0 0.0 0.0 0.0 0.0 0.0 0.0 0.0 0.0 0.0 0.0 0.0 0.0 0.0 0.0 0.0 0.0 0.0 0.0 0.0 0.0 0.0 0.0 0.0 0.0 0.0 0.0 0.0 0.0 0.0 0.0 0.0 0.0 0.0 0.0 0.0 0.0 0.0 0.0 0.0 0.0 0.0 0.0 0.0 0.0 0.0 0.0 0.0 0.0 0.0 0.0 0.0 0.0 0.0 0.0 0.0 0.0 0.0 0.0 0.0 0.0 0.0 0.0 0.0 0.0 0.0 0.0 0.0 0.0 0.0 0.0 0.0 0.0 0.0 0.0 0.0 0.0 0.0 0.0 0.0 0.0 0.0 0.0 0.0 0.0 0.0 0.0 0.0 0.0 0.0 0.0 0.0 0.0 0.0 0.0 0.0 0.0 0.0 0.0 0.0 0.0 0.0 0.0 0.0 0.0 0.0 0.0 0.0 0.0 0.0 0.0 0.0 0.0 0.0 0.0 0.0 0.0 0.0 0.0 0.0 0.0 0.0 0.0 0.0 0.0 0.0 0.0 0.0 0.0 0.0 0.0 0.0 0.0 0.0 0.0 0.0 0.0 0.0 0.0 0.0 0.0 0.0 0.0 0.0 0.0 0.0 0.0 0.0 0.0 0.0 0.0 0.0 0.0 0.0 0.0 0.0 0.0 0.0 0.0 0.0 0.0 0.0 0.0 0.0 0.0 0.0 0.0 0.0 0.0 0.0 0.0 0.0 0.0 0.0 0.0 0.0 0.0 0.0 0.0 0.0 0.0 0.0 0.0 0.0 0.0 0.0 0.0 0.0 0.0 0.0 0.0 0.0 0.0 0.0 0.0 0.0 0.0 0.0 0.0 0.0 0.0 0.0 0.0 0.0 0.0 0.0 0.0 0.0 0.0 0.0 0.0 0.0 0.0 0.0 0.0 0.0 0.0 0.0 0.0 0.0 0.0 0.0 0.0 0.0 0.0 0.0 0.0 0.0 0.0 0.0 0.0 0.0 0.0 0.0 0.0 0.0 0.0 0.0 0.0 0.0 0.0 0.0 0.0 0.0 0.0 0.0 0.0 0.0 0.0 0.0 0.0 0.0 0.0 0.0 0.0 0.0 0.0 0.0 0.0 0.0 0.0 0.0 0.0 0.0 0.0 0.0 0.0 0.0 0.0 0.0 0.0 0.0 0.0 0.0 0.0 0.0 0.0 0.0 0.0 0.0 0.0 0.0 0.0 0.0 0.0 0.0 0.0 0.0 0.0 0.0 0.0 0.0 0.0 0.0 0.0 0.0 0.0 0.0 0.0 0.0 0.0 0.0 0.0 0.0 0.0 0.0 0.0 0.0 0.0 0.0 0.0 0.0 0.0 0.0 0.0 0.0 0.0 0.0 0.0 0.0 0.0 0.0 0.0 0.0 0.0 0.0 0.0 0.0 0.0 0.0 0.0 0.0 0.0 0.0 0.0 0.0 0.0 0.0 0.0 0.0 0.0 0.0 0.0 0.0 0.0 0.0 0.0 0.0 0.0 0.0 0.0 0.0 0.0 0.0 0.0 0.0 0.0 0.0 0.0 0.0 0.0 0.0 0.0 0.0 0.0 0.0 0.0 0.0 0.0 0.0 0.0 0.0 0.0 0.0 0.0 0.0 0.0 0.0 0.0 0.0 0.0 0.0 0.0 0.0 0.0 0.0 0.0 0.0 0.0 0.0 0.0 0.0 0.0 0.0 0.0 0.0 0.0 0.0 0.0 0.0 0.0 0.0 0.0 0.0 0.0 0.0 0.0 0.0 0.0 0.0 0.0 0.0 0.0 0.0 0.0 0.0 0.0 0.0 0.0 0.0 0.0 0.0 0.0 0.0 0.0 0.0 0.0 0.0 0.0 0.0 0.0 0.0 0.0 0.0 0.0 0.0 0.0 0.0 0.0 0.0 0.0 0.0 0.0 0.0 0.0 0.0 0.0 0.0 0.0 0.0 0.0 0.0 0.0 0.0 0.0 0.0 0.0 0.0 0.0 0.0 0.0 0.0 0.0 0.0 0.0 0.0 0.0 0.0 0.0 0.0 0.0 0.0 0.0 0.0 0.0 0.0 0.0 0.0 0.0 0.0 0.0 0.0 0.0 0.0 0.0 0.0 0.0 0.0 0.0 0.0 0.0 0.0 0.0 0.0 0.0 0.0 0.0 0.0 0.0 0.0 0.0 0.0 0.0 0.0 0.0 0.0 0.0 0.0 0.0 0.0 0.0 0.0 0.0 0.0 0.0 0.0 0.0 0.0 0.0 0.0 0.0 0.0 0.0 0.0 0.0 0.0 0.0 0.0 0.0 0.0 0.0 0.0 0.0 0.0 0.0 0.0 0.0 0.0 0.0 0.0 0.0 0.0 0.0 0.0 0.0 0.0 0.0 0.0 0.0 0.0 0.0 0.0 0.0 0.0 0.0 0.0 0.0 0.0 0.0 0.0 0.0 0.0 0.0 0.0 0.0 0.0 0.0 0.0 0.0 0.0 0.0 0.0 0.0 0.0 0.0 0.0 0.0 0.0 0.0 0.0 0.0 0.0 0.0 0.0 0.0 0.0 0.0 0.0 0.0 0.0 0.0 0.0 0.0 0.0 0.0 0.0 0.0 0.0 0.0 0.0 0.0 0.0 0.0 0.0 0.0 0.0 0.0 0.0 0.0 0.0 0.0 0.0 0.0 0.0 0.0 0.0 0.0 0.0 0.0 0.0 0.0 0.0 0.0 0.0 0.0 0.0 0.0 0.0 0.0 0.0 0.0 0.0 0.0 0.0 0.0 0.0 0.0 0.0 0.0 0.0 0.0 0.0 0.0 0.0 0.0 0.0 0.0 0.0 0.0 0.0 0.0 0.0 0.0 0.0 0.0 0.0 0.0 0.0 0.0 0.0 0.0 0.0 0.0 0.0 0.0 0.0 0.0 0.0 0.0 0.0 0.0 0.0 0.0 0.0 0.0 0.0 0.0 0.0 0.0 0.0 0.0 0.0 0.0 0.0 0.0 0.0 0.0 0.0 0.0 0.0 0.0 0.0 0.0 0.0 0.0 0.0 0.0 0.0 0.0 0.0 0.0 0.0 0.0 0.0 0.0 0.0 0.0 0.0 0.0 0.0 0.0 0.0 0.0 0.0 0.0 0.0 0.0 0.0 0.0 0.0 0.0 0.0 0.0 0.0 0.0 0.0 0.0 0.0 0.0 0.0 0.0 0.0 0.0 0.0 0.0 0.0 0.0 0.0 0.0 0.0 0.0 0.0 0.0 0.0 0.0 0.0 0.0 0.0 0.0 0.0 0.0 0.0 0.0 0.0 0.0 0.0 0.0 0.0 0.0 0.0 0.0 0.0 0.0 0.0 0.0 0.0 0.0 0.0 0.0 0.0 0.0 0.0 0.0 0.0 0.0 0.0 0.0 0.0 0.0 0.0 0.0 0.0 0.0 0.0 0.0 0.0 0.0 0.0 0.0 0.0 0.0 0.0 0.0 0.0 0.0 0.0 0.0 0.0 0.0 0.0 0.0 0.0 0.0 0.0 0.0 0.0 0.0 0.0 0.0 0.0 0.0 0.0 0.0 0.0 0.0 0.0 0.0 0.0 0.0 0.0 0.0 0.0 0.0 0.0 0.0 0.0 0.0 0.0 0.0 0.0 0.0 0.0 0.0 0.0 0.0 0.0 0.0 0.0 0.0 0.0 0.0 0.0 0.0 0.0 0.0 0.0 0.0 0.0 0.0 0.0 0.0 0.0 0.0 0.0 0.0 0.0 0.0 0.0 0.0 0.0 0.0 0.0 0.0 0.0 0.0 0.0 0.0 0.0 0.0 0.0 0.0 0.0 0.0 0.0 0.0 0.0 0.0 0.0 0.0 0.0 0.0 0.0 0.0 0.0 0.0 0.0 0.0 0.0 0.0 0.0 0.0 0.0 0.0 0.0 0.0 0.0 0.0 0.0 0.0 0.0 0.0 0.0 0.0 0.0 0.0 -0.01465716116642902 0.0 -0.00557936653948416 -0.01746241803656044 0.0 -0.005312189732804741 -0.01980864169521603 0.0 -0.00482346332058658 -0.02167479134186977 0.0 -0.00426160970654024 -0.02313995697849891 0.0 -0.0036600136115003384 -0.01551511478787786 0.0 -0.00777440259436006 -0.02077267211931679 0.0 -0.00729613258240331 -0.02509522502738061 0.0 -0.007063961776599041 -0.028537312713432798 0.0 -0.00652274376306859 -0.031198407179960162 0.0 -0.0058323953458098805 -0.03324371963109297 0.0 -0.0050263121256578 -0.02219248335481207 0.0 -0.00949827303745682 -0.02952240193806003 0.0 -0.009170371429259281 -0.035511276887781905 0.0 -0.00878006181950154 -0.0402888690072217 0.0 -0.008086665002166621 -0.0439408650985216 0.0 -0.007247488581187211 -0.0467047331676183 0.0 -0.006256255756406391 -0.030979171974479282 0.0 -0.0115969122899228 -0.0409840290246007 0.0 -0.01116262707906567 -0.0489709372242734 0.0 -0.01067270946681773 -0.0552981973824549 0.0 -0.00977661944441548 -0.0600826655020666 0.0 -0.00873961261849031 -0.0636510735912768 0.0 -0.00753356458833911 -0.04239082905977071 0.0 -0.01429686275742156 -0.0557537813938445 0.0 -0.013528987938224692 -0.06617872965446821 0.0 -0.012841457521036432 -0.07431022585775561 0.0 -0.01168192509204812 -0.08036077400901931 0.0 -0.01040383586009589 -0.084797802119945 0.0 -0.00894075942351898 -0.0573427094335677 0.0 -0.017800808445020203 -0.0748870738721768 0.0 -0.01641556681038916 -0.08822621420565531 0.0 -0.01536889278422231 -0.09841699846042491 0.0 -0.01386616874665421 -0.10584765864619139 0.0 -0.012314909907872741 -0.1111956387798909 0.0 -0.01055444266386106 -0.077164961929124 0.0 -0.0223881725597043 -0.0998146784953669 0.0 -0.02004055450101385 -0.11655461891386541 0.0 -0.01840000806000019 -0.1290266792256669 0.0 -0.01644839401120984 -0.137916043447901 0.0 -0.014569781964244542 -0.14416922760423062 0.0 -0.01247203391180084 -0.1036968745924218 0.0 -0.02852225391305633 -0.1323379673084491 0.0 -0.02478646701966166 -0.1529390958234773 0.0 -0.02221174015529349 -0.16783382019584542 0.0 -0.01969216369230408 -0.17822268445556702 0.0 -0.01737208723430217 -0.1853204286330106 0.0 -0.0148803043720076 -0.139485243487131 0.0 -0.036425960910649 -0.17474114036852842 0.0 -0.03100047197501178 -0.19943850498596252 0.0 -0.02722608508065211 -0.2167761134194027 0.0 -0.02409802420245059 -0.22866585771664633 0.0 -0.02117565612939139 -0.23653905791347632 0.0 -0.01806748405168709 -0.1882126487053161 0.0 -0.045623949140598696 -0.2299584697489616 0.0 -0.038708962167724036 -0.2585154584628863 0.0 -0.03397627564940687 -0.2782896829572419 0.0 -0.03008360355209007 -0.2916149912903746 0.0 -0.0263070886576772 -0.3000447115011176 0.0 -0.02241604096040101 -0.25422051435551274 0.0 -0.056288721407218 -0.3018433155460827 0.0 -0.047960629199015704 -0.33353818433845445 0.0 -0.0425522330638058 -0.3554513768862842 0.0 -0.03785795654644889 -0.3697378252434454 0.0 -0.0334315368357884 -0.3784558854613969 0.0 -0.02829676950741922 -0.3367924764198117 0.0 -0.0887619502190487 -0.3934217778355442 0.0 -0.0681455137036378 -0.428212330705308 0.0 -0.0570785054269626 -0.45172601129315004 0.0 -0.0493693332342333 -0.46642561166064 0.0 -0.0429878050746951 -0.47476121186903003 0.0 -0.03622227410555683 -0.4544553713613841 0.0 -0.16804507220112672 -0.513491652837291 0.0 -0.1150878708771967 -0.548376133709403 0.0 -0.0858846261471156 -0.571909574297739 0.0 -0.0684203777105094 -0.585568094639202 0.0 -0.0571385334284633 -0.592542654813566 0.0 -0.0470912651772816 -0.619364175484104 0.0 -0.2649603906240096 -0.672214296805357 0.0 -0.1831007765775193 -0.702216977555424 0.0 -0.1292589472314736 -0.7216358180408949 0.0 -0.0972731264318281 -0.7317931382948281 0.0 -0.0777333979433349 -0.736002778400069 0.0 -0.061729057543226405 -0.8334358608358959 0.0 -0.3620869970521747 -0.8737235418430881 0.0 -0.2582005104550126 -0.8944321023608021 0.0 -0.1825959845648995 -0.9059224226480601 0.0 -0.1351512593787814 -0.9099325427483129 0.0 -0.10414495860362391 -0.909807142745178 0.0 -0.07998208199955201 -1.094232587355814 0.0 -0.45891673147291806 -1.1199044679976111 0.0 -0.3365925884148145 -1.127577908189447 0.0 -0.24160273804006832 -1.128742228218555 0.0 -0.17828606845715161 -1.12526122813153 0.0 -0.1361221954030548 -1.1192204679805111 0.0 -0.1018554465463861 -1.3998679549966981 0.0 -0.562264494056612 -1.411359435283985 0.0 -0.41889121047228006 -1.405800555145013 0.0 -0.3055585716389641 -1.39574883489372 0.0 -0.22581740164543493 -1.383298794582469 0.0 -0.1708237562705938 -1.369913994247849 0.0 -0.126884203172105 -1.755090203877254 0.0 -0.677944536948613 -1.754213203855329 0.0 -0.509315452732886 -1.735668603391714 0.0 -0.3757965653949139 -1.713676322841907 0.0 -0.27827726295693145 -1.6913031222825772 0.0 -0.2088298372207458 -1.6680473617011833 0.0 -0.15344049183601222 -2.171496814287419 0.0 -0.811432780285819 -2.159242893981071 0.0 -0.612011055300276 -2.1269102531727553 0.0 -0.454625371365634 -2.091650652291265 0.0 -0.33755396443884894 -2.056475891411896 0.0 -0.2504095862602395 -2.020975370524383 0.0 -0.1813393405334834 -2.666599146664977 0.0 -0.967174264179356 -2.640095386002383 0.0 -0.731180578279514 -2.5906429847660735 0.0 -0.543862493596562 -2.538655903466396 0.0 -0.40242865006071604 -2.487571022189274 0.0 -0.295085367377134 -2.4364426209110643 0.0 -0.2106773172669328 -3.255983801399593 0.0 -1.150900948772523 -3.210278000256948 0.0 -0.870448501761212 -3.138598318464956 0.0 -0.6452224561305611 -3.06535727663393 0.0 -0.47342077183551906 -2.9942413948560334 0.0 -0.3426166125654151 -2.9224444330611092 0.0 -0.2414619020365474 -3.956476698911915 0.0 -1.367146714178667 -3.884678737116966 0.0 -1.032594705814867 -3.783981414599533 0.0 -0.759717138992928 -3.6834214120855333 0.0 -0.550758333768958 -3.585536289638405 0.0 -0.3935841898396045 -3.4868016071700385 0.0 -0.2743900828597519 -4.7878057196951405 0.0 -1.623001120575027 -4.6806117170152906 0.0 -1.221727670543191 -4.54226891355672 0.0 -0.8868758621718961 -4.40571171014279 0.0 -0.633356535833913 -4.27209250680231 0.0 -0.4506832512670811 -4.13796090344902 0.0 -0.31366294384157345 -5.774422730813799 0.0 -1.92790460592737 -5.61906543572516 0.0 -1.441504509240239 -5.43150408098717 0.0 -1.024288925037666 -5.245898340978989 0.0 -0.7211568467805429 -5.06452657823098 0.0 -0.5153426651573481 -4.883198028635051 0.0 -0.3661302260571873 -6.9502384380013 0.0 -2.29753172943476 -6.72528382746051 0.0 -1.694040924530997 -6.47084312998624 0.0 -1.1750072200105601 -6.2171135221925 0.0 -0.81586537450333 -5.9728962389863 0.0 -0.5945421377168 -5.728350829511481 0.0 -0.445183414883208 -8.35144140970176 0.0 -2.73287427423003 -8.02710834547545 0.0 -1.980432844769325 -7.674663875502961 0.0 -1.33135165612638 -7.33050605147616 0.0 -0.9418515517867679 -7.00296379029462 0.0 -0.707285815549077 -6.67834179502392 0.0 -0.570179301934284 -10.025314618082 0.0 -3.2392819338054397 -9.55262233790973 0.0 -2.300420228206696 -9.063256307633461 0.0 -1.512645269003643 -8.59812359055884 0.0 -1.1026147681988319 -8.15607130417307 0.0 -0.8811170183116 -7.731574812181 0.0 -0.7779205519486501 -12.01215405461652 0.0 -3.8075985898236717 -11.31642979199544 0.0 -2.658850545262968 -10.64051629998336 0.0 -1.7410268833113238 -10.007134363337581 0.0 -1.3426271075412541 -9.4204238531868 0.0 -1.1612647456175702 -8.878001206611419 0.0 -1.110821532581904 -14.30215155093903 0.0 -4.429784082003 -13.3025336269435 0.0 -3.05154689232988 -12.37803304438484 0.0 -2.048607906793168 -11.531519753087379 0.0 -1.6973319866010939 -10.762024693954 0.0 -1.6203258363506001 -10.07483392468224 0.0 -1.66229522408964 -16.80238065227665 0.0 -5.0615237329232 -15.4302963338272 0.0 -3.503937171886536 -14.1873172195793 0.0 -2.48976728655667 -13.0445921744134 0.0 -2.34995748316909 -12.00104515457496 0.0 -2.5210769701044202 -11.2210712149066 0.0 -2.53063239026694 -19.32275671911145 0.0 -5.6727928063801505 -17.5198719620874 0.0 -4.016342925370079 -15.860482318081282 0.0 -3.300988204765069 -14.247636624968301 0.0 -3.4786111108033806 -13.19761797415389 0.0 -3.5557311806001177 -12.401331810944159 0.0 -3.4962590965763156 -21.60526126824192 0.0 -6.10417805410112 -19.29995584282845 0.0 -4.6915786868341 -16.98310344886 0.0 -4.49306755638375 -15.461593227548201 0.0 -4.62182082355672 -14.35538940456708 0.0 -4.71840625767304 -13.5293426146998 0.0 -4.61347506614995 -23.59068936595884 0.0 -6.00168424064136 -20.8648181965056 0.0 -4.746005811732481 -18.3493568609925 0.0 -5.3415186620775 -16.59522085245576 0.0 -5.87223169675101 -15.416057710272002 0.0 -6.0685244020377604 -14.53174607013504 0.0 -5.9509978783386 -24.975694428098848 0.0 -5.37178738566375 -22.161887329928398 0.0 -4.079481139143001 -19.04277498379308 0.0 -6.823588058027729 -17.08162875165258 0.0 -7.98403379146197 -15.918941754174032 0.0 -8.04515327711421 -15.10707189753567 0.0 -7.720727066488441 -25.29529524950688 0.0 -5.11537328046537 -22.469738714099996 0.0 -3.6812856771684 -18.81333387206784 0.0 -8.016702534249118 -17.10803426621382 0.0 -11.255755467531241 -16.277283583834322 0.0 -11.0933672219694 -15.558403193705342 0.0 -10.290277562053861 -21.831996849866357 0.0 -5.52385958888876 -20.62093546061736 0.0 -3.9464681157360135 -17.6394431942586 0.0 -9.5157552675328 -16.6564289391813 0.0 -14.6148603307176 -16.2264281833125 0.0 -14.22866965571875 -15.60057779961472 0.0 -13.0200258530496 -15.398791658831419 0.0 -6.1391238801286105 -14.981810162865841 0.0 -4.2376140692596795 -14.3855913333369 0.0 -10.7130579131712 -14.145880851617141 0.0 -16.93149843981235 -13.60598934919119 0.0 -16.35233969536083 -12.95480979022945 0.0 -14.927917841758902 -9.521329593078159 0.0 -6.6668270299888395 -9.324642912137401 0.0 -4.396080635253 -9.1131372119298 0.0 -10.731633488262261 -9.0687408766078 0.0 -17.35826028355194 -8.757179816496361 0.0 -17.04933945041976 -8.346953449931581 0.0 -15.757693229709899 -4.94684787118025 0.0 -7.20480301097994 -4.911676971510399 0.0 -4.5640487266836995 -4.88205942298824 0.0 -10.63890014051472 -4.92384856143282 0.0 -17.44658391408162 -4.808758323537 0.0 -17.33732511501 -4.61921176002447 0.0 -16.19275463836707 -1.606816493126914 0.0 -7.64142163495999 -1.650013297332592 0.0 -4.7373797468044 -1.6975540790028698 0.0 -10.5990529435269 -1.787190887495282 0.0 -17.37747306465506 -1.8000534237390362 0.0 -17.395487466788822 -1.76983229183427 0.0 -16.35267669162264 1.01263403777745 0.0 -7.90499266914378 0.93160889829777 0.0 -4.90501475247795 0.8473172387072849 0.0 -10.6661864446221 0.738300249547826 0.0 -17.28496040624353 0.639944137996745 0.0 -17.318709913253798 0.553533988073656 0.0 -16.31810730402668 3.467963452609458 0.0 -7.9281632604992405 3.3276821635618226 0.0 -5.01926718762894 3.180059705565792 0.0 -10.74881393199936 3.073938881732208 0.0 -17.17972326871368 2.901050223163345 0.0 -17.141927233787 2.714137928689942 0.0 -16.13123371424036 6.041416630909 0.0 -7.8478634454646 5.8005313778943295 0.0 -5.08319224229509 5.5063553307465 0.0 -10.74204901781 5.4434263399845 0.0 -16.908833046914758 5.186302094006599 0.0 -16.80495447919736 4.896376174139041 0.0 -15.78585874519776 8.69442051089336 0.0 -7.664376370522921 8.3496187869731 0.0 -5.100464741082 7.77475471332457 0.0 -10.50214328931177 7.83645970665631 0.0 -16.43243980031831 7.48197471140115 0.0 -16.28723011669617 7.0820120573748 0.0 -15.277167383736051 11.265274145407679 0.0 -7.41029294306736 10.77815091884667 0.0 -5.05107677976024 9.92232169428552 0.0 -10.11438366923112 10.1076471762624 0.0 -15.7468632443496 9.650837598273691 0.0 -15.58398946691751 9.139928899747519 0.0 -14.605220626107199 13.59931950751929 0.0 -7.252162095407639 12.90854838389634 0.0 -4.96154867063448 11.6760216111 0.0 -9.552832921236 12.0834076123034 0.0 -14.870571823112279 11.53108530741552 0.0 -14.707554498886479 10.91870401279548 0.0 -13.78148044907636 15.460571828375299 0.0 -7.01384990704299 14.60677056630306 0.0 -4.9004196655949 13.0105345931091 0.0 -8.8772878084293 13.554215382736 0.0 -13.756759163756799 12.976433627360489 0.0 -13.686920645957711 12.19012682245393 0.0 -12.833017284115 16.72965838164384 0.0 -6.68034215377848 15.70561524696288 0.0 -4.751373167689921 14.0372334940761 0.0 -8.2870412177553 14.51810715526332 0.0 -12.57632629715826 13.587976466996128 0.0 -12.57302775335832 12.52470387609 0.0 -11.80709807748744 17.6223521559036 0.0 -6.30657737395 16.5208377838364 0.0 -4.5939551211106 14.853891758863922 0.0 -7.8024895625009 14.87383274566644 0.0 -11.48222019098648 13.580890620316248 0.0 -11.41522733550675 12.456006982324501 0.0 -10.7378570648615 18.36522575330825 0.0 -5.885330740838 17.128722916959067 0.0 -4.37788403483405 15.5325664996854 0.0 -7.4131111991376 14.817757061091601 0.0 -10.27752507870844 13.4448912708936 0.0 -10.2616653175339 12.27352986761362 0.0 -9.68092657514063 19.10878752373356 0.0 -5.35988871357534 17.74918889218296 0.0 -4.134743214790591 16.09441314572655 0.0 -7.049378683582289 14.67312484570218 0.0 -9.11898763304958 13.203448333260122 0.0 -9.148137988462201 12.027616788022499 0.0 -8.684527906240861 20.08144527054221 0.0 -4.733470637761011 18.358319575974612 0.0 -3.7353578033446087 16.4588758531256 0.0 -6.518660838035 14.53828563788446 0.0 -8.064878537590799 12.96254794838612 0.0 -8.1710470950468 11.777173100898152 0.0 -7.783880941504031 21.59047867655822 0.0 -4.5259382924327 19.060214921424212 0.0 -3.737826886588817 16.617176059190502 0.0 -5.86312450654514 14.44582272530276 0.0 -7.208041848079841 12.76525713495444 0.0 -7.295870928718079 11.501990026159799 0.0 -6.9077909379047995 22.96166025387582 0.0 -5.497232551268221 19.58612549411021 0.0 -4.33219420073288 16.90543991891846 0.0 -5.40421551663539 14.46159099811552 0.0 -6.4640810872710395 12.67661051924085 0.0 -6.4976118357195505 11.22907578983136 0.0 -6.12919735351296 24.39187575488922 0.0 -6.101611355649901 20.49534022731876 0.0 -4.72380436989018 17.493795247120982 0.0 -4.8453279504896996 14.737256989499999 0.0 -5.7393774754799995 12.60368354590128 0.0 -5.8582641006489595 11.01730386246 0.0 -5.476225020659999 21.4013562830595 0.0 -4.9120622969848196 18.20343776332653 0.0 -4.35193803120492 15.40465937109111 0.0 -4.7550649840692 12.80442833356185 0.0 -5.183977878003421 10.925055015833701 0.0 -4.88956737694824 22.108299334703 0.0 -5.29880767966825 18.845771265937252 0.0 -4.299863221572751 16.02076572697888 0.0 -4.11501246680496 13.278898883042501 0.0 -4.36312117194075 11.0240706605064 0.0 -4.30143633471888 19.476284632051797 0.0 -4.561821342827 16.60608798902834 0.0 -3.940547702061916 13.88188613438065 0.0 -3.8356751228845107 11.34805461347426 0.0 -3.7304669948573363 20.032805074318162 0.0 -4.9768408656513605 17.27620434400162 0.0 -4.14447862737876 14.57578466312472 0.0 -3.6579481038596 11.96329071354025 0.0 -3.3883555915132755 17.85804296815195 0.0 -4.5013092095269505 15.3745581709948 0.0 -3.8294550259912348 12.815004344779 0.0 -3.3517964452443643 16.0483838251173 0.0 -4.1455824616696795 13.68991771586628 0.0 -3.605321252742498 16.27410732982272 0.0 -4.36517903279808 14.457405484540232 0.0 -4.00871867347632 -0.02425094020627349 0.0 -0.0030759258768981454 -0.025070581426764518 0.0 -0.002525005383125133 -0.02564891344122282 0.0 -0.002043017411075434 -0.02605160825129019 0.0 -0.001610721680268041 -0.026327291858182285 0.0 -0.0012318497907962442 -0.026512206262805142 0.0 -0.0009104767027619171 -0.026632431865810782 0.0 -0.000636745055918626 -0.02670602586765063 0.0 -0.00040183697004592405 -0.02674529906863246 0.0 -0.0001945464688636616 -0.03475782646894564 0.0 -0.00422976330574408 -0.03584331649608289 0.0 -0.003484765167119127 -0.03659072331476806 0.0 -0.002832798910819971 -0.03710177332754431 0.0 -0.0022399953359998823 -0.03744012213600303 0.0 -0.0017307430832685761 -0.03766004854150119 0.0 -0.001292701472317536 -0.03779915054497874 0.0 -0.000911182942779573 -0.03788144694703616 0.0 -0.000579662534491563 -0.03792446934811171 0.0 -0.00028159009103975215 -0.0487075732176893 0.0 -0.005282439732060991 -0.0501108892527722 0.0 -0.0043625001090624995 -0.051052033276300805 0.0 -0.003554691848867294 -0.05167240529181011 0.0 -0.0028269963906749082 -0.052066381301659505 0.0 -0.002198044254951105 -0.052308465307711605 0.0 -0.0016498264412456599 -0.0524515653112891 0.0 -0.001168882509222062 -0.0525306173132654 0.0 -0.0007469522986738071 -0.0525696213142405 0.0 -0.0003636224770905617 -0.06619281765482041 0.0 -0.006352846558821161 -0.0679315696982892 0.0 -0.005248006531200161 -0.0690611697265292 0.0 -0.004273490906837271 -0.06976854574421361 0.0 -0.0034075313251882814 -0.0701874617546865 0.0 -0.002656842826421069 -0.07042213376055331 0.0 -0.001996692129917302 -0.07054371376359281 0.0 -0.001417928675448216 -0.0706001297650032 0.0 -0.0009083630627090761 -0.0706231137655778 0.0 -0.000442337451058436 -0.0878908181972704 0.0 -0.00752404858810121 -0.0899435382485884 0.0 -0.00620931935523298 -0.0912251142806278 0.0 -0.00503796692594917 -0.0919746702993667 0.0 -0.00401352250033806 -0.0923733503093337 0.0 -0.003126929398173233 -0.0925600623140015 0.0 -0.002346516258662905 -0.0926273063156826 0.0 -0.0016665846416646151 -0.0926365023159125 0.0 -0.001068714586717864 -0.0926285783157144 0.0 -0.00051955441298886 -0.11482124687053111 0.0 -0.008865125021628121 -0.11713434692835861 0.0 -0.007308624982715621 -0.1185081269627031 0.0 -0.00589937374748434 -0.11923730698093261 0.0 -0.00468435491710887 -0.11955713498892831 0.0 -0.003635731050893274 -0.11964515899112892 0.0 -0.002716613987915348 -0.1196166669904166 0.0 -0.001925818488145461 -0.1195491589887289 0.0 -0.001232282950807073 -0.11949178298729451 0.0 -0.000598881374972034 -0.1482770357069258 0.0 -0.010463558261588951 -0.1507710477692761 0.0 -0.00862467021561675 -0.15214749980368739 0.0 -0.006924694973117371 -0.1527671718191792 0.0 -0.0054679877366996905 -0.15292787982319692 0.0 -0.0042180821054520505 -0.152850763821269 0.0 -0.003129775518244386 -0.15267318781682962 0.0 -0.002209504015237599 -0.1524908958122723 0.0 -0.001406236755155918 -0.1523605038090125 0.0 -0.000682586577064664 -0.18981912474547802 0.0 -0.01245724871143121 -0.19236797680919931 0.0 -0.01025832705645817 -0.1936109488402736 0.0 -0.00819297820482445 -0.1939943368498583 0.0 -0.006422386560559661 -0.1938884408472109 0.0 -0.0049063137226578405 -0.1935515328387882 0.0 -0.0036128868503221695 -0.1931509168287728 0.0 -0.002532464503311611 -0.1927996568199913 0.0 -0.001600435960010898 -0.1925640648141015 0.0 -0.0007740298993507471 -0.24127331403183272 0.0 -0.01506735277668381 -0.24369400209234993 0.0 -0.01236611990915299 -0.24461651411541271 0.0 -0.009806412645160311 -0.24458230211455742 0.0 -0.007618446990461171 -0.2440456941011422 0.0 -0.00575362334384058 -0.2433119820827994 0.0 -0.0041882841047071 -0.2425786300644656 0.0 -0.002903707592592688 -0.2419796540494912 0.0 -0.001817073365426833 -0.24159148203978692 0.0 -0.000873488501837212 -0.30477042761926054 0.0 -0.01861298566532463 -0.3068139636703489 0.0 -0.015147450778686261 -0.3071567596789188 0.0 -0.011888645897216141 -0.30645177966129433 0.0 -0.009123827028095671 -0.305252727631318 0.0 -0.006788580969714521 -0.3039264275981605 0.0 -0.00486271812156795 -0.3027073955676847 0.0 -0.0033201412030035285 -0.3017506435437659 0.0 -0.0020494625312365623 -0.3011436995285923 0.0 -0.0009769073844226842 -0.3827982055699549 0.0 -0.02340296258507405 -0.3841373776034342 0.0 -0.01878973886974346 -0.38354628958865705 0.0 -0.01456390636409765 -0.3818341575458537 0.0 -0.01099212627480315 -0.3796677454916934 0.0 -0.00801528340038208 -0.37748807343720164 0.0 -0.00561927254048181 -0.3755763373894082 0.0 -0.0037599340939983503 -0.3741134013528348 0.0 -0.00228123165703079 -0.3731981613299538 0.0 -0.0010744647468616181 -0.478246971956174 0.0 -0.02967917994197948 -0.47843261196081505 0.0 -0.02346428538660712 -0.4764505319112631 0.0 -0.01791762004794049 -0.47330661183266504 0.0 -0.013224251930606291 -0.46977721174443 0.0 -0.00941809143545228 -0.466407171660179 0.0 -0.0064284305607107605 -0.463531011588275 0.0 -0.00418615730465393 -0.46136681153417 0.0 -0.0024798805419970122 -0.460026651500666 0.0 -0.0011502204687555112 -0.594474614861865 0.0 -0.03777608054440199 -0.592863854821596 0.0 -0.029297388332434695 -0.588875694721892 0.0 -0.02196180734904517 -0.583736974593424 0.0 -0.01579029159475728 -0.5783332544583311 0.0 -0.01094280347357008 -0.573338934333473 0.0 -0.00721930498048262 -0.5691545342288631 0.0 -0.0045387801134695 -0.566037534150938 0.0 -0.002599063024976574 -0.5641219741030491 0.0 -0.001181289509532237 -0.7353401383835031 0.0 -0.0481008092025202 -0.731021818275545 0.0 -0.03637550570938763 -0.724186538104663 0.0 -0.026648662266216542 -0.7162860579071509 0.0 -0.018567768064194193 -0.708334857708371 0.0 -0.012446371911159292 -0.701159577528989 0.0 -0.00789773419744335 -0.695214497380362 0.0 -0.00473989011849725 -0.690822137270553 0.0 -0.0025841281446032024 -0.6881366972034171 0.0 -0.001136462788411569 -0.905264302631607 0.0 -0.06078252951956321 -0.896971742424293 0.0 -0.0446769651169241 -0.886146862153671 0.0 -0.0318704047967601 -0.874460901861522 0.0 -0.02147350533683762 -0.863069861576746 0.0 -0.01381574474539361 -0.8529666213241651 0.0 -0.008281784607044611 -0.844700541117513 0.0 -0.0046919881172997 -0.8386255409656381 0.0 -0.002369308699232716 -0.8349283408732081 0.0 -0.000977435904435897 -1.1089994677249861 0.0 -0.0752802258820056 -1.0951975073799372 0.0 -0.0539424893485622 -1.0789008269725202 0.0 -0.03741996093549901 -1.062098986552474 0.0 -0.02433630740840767 -1.046106066152651 0.0 -0.014900756372518902 -1.0321360658034011 0.0 -0.00832266740806668 -1.0208303855207592 0.0 -0.004311207307780181 -1.012567465314186 0.0 -0.001912122247803055 -1.007559145188978 0.0 -0.000685727337143183 -1.352139993803499 0.0 -0.0916990062924751 -1.330785593269639 0.0 -0.063949961598749 -1.30705083267627 0.0 -0.0428067890701697 -1.2833913120847822 0.0 -0.026767483869187078 -1.261382591534564 0.0 -0.01560090959002273 -1.242355551058888 0.0 -0.00798110899952772 -1.2271065906776641 0.0 -0.003549964448749109 -1.21604523040113 0.0 -0.0012294949507373732 -1.209359390233984 0.0 -0.0002785819869645495 -1.640673881016846 0.0 -0.1091081547277038 -1.609306760232668 0.0 -0.0743295338582383 -1.5757636393940901 0.0 -0.048083721202093005 -1.543063598576589 0.0 -0.02876709471917735 -1.5132489578312232 0.0 -0.01596071159901778 -1.4877138371928451 0.0 -0.007374189384354731 -1.467433956685848 0.0 -0.0026205441455136023 -1.452827316320682 0.0 -0.000459261371481534 -1.444026716100667 0.0 0.00016510823612770579 -1.9811592495289803 0.0 -0.1272155911803897 -1.936673008416824 0.0 -0.0847270621181765 -1.890489447262235 0.0 -0.0533033493325837 -1.846134406153359 0.0 -0.03085564437139109 -1.8062962051574043 0.0 -0.016313668007841692 -1.772560364314008 0.0 -0.006999011374975279 -1.7459816436495401 0.0 -0.0019857360496434 -1.7269586831739663 0.0 5.2665041316625995e-05 -1.715549522888737 0.0 0.00045653781141344503 -2.379933219498329 0.0 -0.14437931960948291 -2.318891217972279 0.0 -0.0960725264018131 -2.256627536415687 0.0 -0.059038165475954106 -2.1974768149369193 0.0 -0.03400590205014753 -2.1450852136271292 0.0 -0.01775407404385184 -2.101195972529898 0.0 -0.007951202598780061 -2.0668985716724633 0.0 -0.002604153625103839 -2.0425095310627372 0.0 -0.00039099758577493943 -2.027949770698743 0.0 0.00020942271723556783 -2.844473511111836 0.0 -0.16324578808114462 -2.7620011090500265 0.0 -0.1085709107142727 -2.6791416669785404 0.0 -0.0670812496770312 -2.6015904250397592 0.0 -0.0400081130002028 -2.533758983343973 0.0 -0.02272626976815673 -2.4775404619385104 0.0 -0.01219175350479383 -2.434000660850015 0.0 -0.00621085975527149 -2.4032549400813723 0.0 -0.003037002395925058 -2.384993059624825 0.0 -0.0012032399100809972 -3.381223764530592 0.0 -0.18624519665612982 -3.2710095217752366 0.0 -0.1256699951417498 -3.1624899590622473 0.0 -0.0812284380307109 -3.0623564365589093 0.0 -0.0527831973195799 -2.975881074397025 0.0 -0.03509829447745735 -2.905012792625318 0.0 -0.02316265897906646 -2.850705991267648 0.0 -0.015509151187728769 -2.812637790315943 0.0 -0.00976944304423607 -2.7901396297534893 0.0 -0.00474483971862099 -3.9962242999056055 0.0 -0.217973045449326 -3.851221936280546 0.0 -0.1541412518535312 -3.710558412763958 0.0 -0.1082201987055049 -3.583154769578867 0.0 -0.07893986197349649 -3.474641886866045 0.0 -0.0603696295092407 -3.3869305646732624 0.0 -0.0459388851484721 -3.3204361630109025 0.0 -0.0344327248608181 -3.2741726818543153 0.0 -0.023333892983347312 -3.246997521174936 0.0 -0.011828716295717901 -4.694544720905899 0.0 -0.268542253406539 -4.5067185800364 0.0 -0.20351456063580597 -4.32703909433168 0.0 -0.158841202956954 -4.167627038289471 0.0 -0.12832970587192 -4.03380312281527 0.0 -0.1071360963168162 -3.927188090850172 0.0 -0.0879181553447148 -3.8473427084042404 0.0 -0.068605601163336 -3.79229488421903 0.0 -0.047666815750084995 -3.7601383821116063 0.0 -0.0244216361478332 -5.48229276864102 0.0 -0.3507420880845195 -5.24131737222839 0.0 -0.28960213676351454 -5.016186062605479 0.0 -0.24693427412085248 -4.820065645123299 0.0 -0.21519001217643802 -4.65810723007413 0.0 -0.1870219508250247 -4.53106773470799 0.0 -0.15705902116137518 -4.437051048896961 0.0 -0.12355749653728 -4.37283216681115 0.0 -0.0856879552240327 -4.335544954954201 0.0 -0.043994134986580995 -6.36230036567814 0.0 -0.492851418171732 -6.05793890690604 0.0 -0.436297472364348 -5.7817369757920805 0.0 -0.3956669216741526 -5.54558817554682 0.0 -0.35745835971017065 -5.35356437222769 0.0 -0.3133706253529623 -5.205488427312 0.0 -0.26370061049646 -5.09710666768506 0.0 -0.206635688670798 -5.0236390251457195 0.0 -0.1423446704227548 -4.98116077359525 0.0 -0.0725403219021345 -7.3309864141083 0.0 -0.71999644979408 -6.95830705118276 0.0 -0.674741550367339 -6.6282205363076505 0.0 -0.630251897299195 -6.3499882959258995 0.0 -0.57275770532562 -6.12716658707266 0.0 -0.5006103539533621 -5.957456420118111 0.0 -0.41557522003315706 -5.83363546570987 0.0 -0.3230377252660922 -5.75050016238458 0.0 -0.2210812344269772 -5.70270665624596 0.0 -0.1125255985411544 -8.38141979599008 0.0 -1.087280532027774 -7.939129620129121 0.0 -1.0446563955530639 -7.554381920956501 0.0 -0.9741402264711001 -7.2362941382124895 0.0 -0.868252428591804 -6.982964703079021 0.0 -0.746214850666791 -6.79053294145632 0.0 -0.610920523883964 -6.6516156366156896 0.0 -0.46596468026561694 -6.55823941375986 0.0 -0.3138094671795513 -6.504316120269271 0.0 -0.15727870610869502 -9.48642792502356 0.0 -1.652903800910572 -8.98511104264088 0.0 -1.569802501115352 -8.555148430268162 0.0 -1.434937782257532 -8.196417489673271 0.0 -1.265135180651606 -7.911663050902959 0.0 -1.075215164490834 -7.69638670443641 0.0 -0.8701652420117321 -7.54159641898561 0.0 -0.6561765621025211 -7.4383609459 0.0 -0.4363356504332 -7.37878478447432 0.0 -0.2171961066242796 -10.62619972046505 0.0 -2.3996059222329302 -10.0809637014634 0.0 -2.228526137421115 -9.60381823684416 0.0 -2.0083721846248195 -9.2030670882466 0.0 -1.74990325991212 -8.886913508515049 0.0 -1.465981210402725 -8.64845419969926 0.0 -1.17412193405679 -8.4743225700254 0.0 -0.881733645847115 -8.358816107120358 0.0 -0.584019784657456 -8.29058120570915 0.0 -0.2956676649589805 -11.75696876513368 0.0 -3.303904866810772 -11.168177437805921 0.0 -3.05451521155333 -10.6465589373633 0.0 -2.722031157052424 -10.20591507934528 0.0 -2.3333198423968278 -9.86119772632964 0.0 -1.906790609222888 -9.59839116992434 0.0 -1.494340215758782 -9.40298850789406 0.0 -1.108193446916942 -9.26390522740494 0.0 -0.739345748313396 -9.1870932672848 0.0 -0.36927770031701923 -12.83101686320771 0.0 -4.37908364329872 -12.1993707207557 0.0 -4.03044179640334 -11.63116339243238 0.0 -3.5836144415576943 -11.16710753689342 0.0 -3.03430257886272 -10.78059837875364 0.0 -2.461716704136928 -10.484114001617499 0.0 -1.8976368947966247 -10.27739838058172 0.0 -1.380459149668652 -10.123569920045 0.0 -0.905824400922125 -10.03368142993399 0.0 -0.446913410155837 -13.78410629537688 0.0 -5.6485384800735 -13.085916288430079 0.0 -5.15942088079104 -12.50697494251134 0.0 -4.51880870479335 -12.012282387435869 0.0 -3.7711399021374237 -11.59343455910904 0.0 -3.0292331342154117 -11.25199792459833 0.0 -2.346183452853666 -11.01231503338548 0.0 -1.6956893466134522 -10.84446565988976 0.0 -1.104345080975508 -10.73751490990623 0.0 -0.546622677372333 -14.39891577596418 0.0 -7.2110843696307 -13.7543406672672 0.0 -6.541813640796209 -13.193119967390881 0.0 -5.67866580132984 -12.692381062991458 0.0 -4.7084252496417 -12.263265314339039 0.0 -3.735713363480388 -11.90248013847294 0.0 -2.84635073447298 -11.6274896323824 0.0 -2.0506651564593597 -11.4337577722887 0.0 -1.336939890010218 -11.32432977570426 0.0 -0.662380433962398 -14.880887895807449 0.0 -9.36564615556515 -14.213445427621652 0.0 -8.36889495021747 -13.617414761500442 0.0 -7.177002450396571 -13.09947047035347 0.0 -5.885038329013439 -12.647267994578248 0.0 -4.611442074075 -12.2711272456842 0.0 -3.470645938527684 -11.9934693230352 0.0 -2.48036310113592 -11.783667187025522 0.0 -1.6004985471103201 -11.66116034939856 0.0 -0.786272241090336 -14.875280982882959 0.0 -11.718932328583469 -14.189917575810599 0.0 -10.34013137203098 -13.590218149490399 0.0 -8.7564497830458 -13.06936715489916 0.0 -7.068409614405721 -12.61393386330816 0.0 -5.46755189204466 -12.24166396809315 0.0 -4.0634987690110504 -11.95132380931815 0.0 -2.87148370115853 -11.75145672496746 0.0 -1.8382120490743319 -11.63454456530184 0.0 -0.899321318916096 -12.248485144888578 0.0 -13.42520354002506 -11.566049704729611 0.0 -11.816640719177071 -10.95065785802598 0.0 -9.9622579577288 -10.42824467755838 0.0 -8.00322281237351 -10.009256632673761 0.0 -6.16850319671652 -9.687045423572622 0.0 -4.5665818349951905 -9.450164165397139 0.0 -3.212230781416524 -9.28781562210307 0.0 -2.050731096808076 -9.192616595063601 0.0 -1.002105191174036 -7.884630329377679 0.0 -14.275731722400359 -7.4189146545957305 0.0 -12.6166348821942 -6.98758317908835 0.0 -10.666735304518351 -6.615053985626401 0.0 -8.5900736257854 -6.31100104820724 0.0 -6.6344585221529995 -6.074062626717719 0.0 -4.92052124428146 -5.89766265403119 0.0 -3.4668078955873467 -5.77522082833479 0.0 -2.216112170841018 -5.7027175534886405 0.0 -1.0838537568211442 -4.37949079313847 0.0 -14.77201515777405 -4.1188206480555 0.0 -13.114994113813951 -3.8646178039562393 0.0 -11.124063463631998 -3.637944164766247 0.0 -8.98061107455666 -3.4488940893073665 0.0 -6.95013611569415 -3.298761318234368 0.0 -5.16416296403233 -3.184859878460398 0.0 -3.6447867855694205 -3.104311102095659 0.0 -2.3333193024078334 -3.055897680791962 0.0 -1.142261043900048 -1.702172293739985 0.0 -14.991791935734751 -1.6096387568712118 0.0 -13.358463097165918 -1.50850746160479 0.0 -11.3604282382716 -1.412616369437304 0.0 -9.18946599562866 -1.329265016650932 0.0 -7.123401744929221 -1.260419497678395 0.0 -5.3013265780631995 -1.205967066569919 0.0 -3.7475694400600346 -1.16589358881624 0.0 -2.402468950283715 -1.141107627207447 0.0 -1.177251231512313 0.486515096870038 0.0 -14.99754860241644 0.440204456656059 0.0 -13.392595343525961 0.410347472060686 0.0 -11.407861494799079 0.39174418777821113 0.0 -9.238906783097459 0.3812249215654964 0.0 -7.16947530022489 0.3769541932687693 0.0 -5.34194195589312 0.37721724774959237 0.0 -3.7811523673731737 0.37986612455281205 0.0 -2.42689468315152 0.38261035767147045 0.0 -1.190218282649768 2.529671232582082 0.0 -14.82954789781027 2.361026873858082 0.0 -13.25211198280204 2.21549560251684 0.0 -11.29492632198896 2.095898429703072 0.0 -9.15150345655216 2.002464670458444 0.0 -7.1052938453538 1.9332639223834762 0.0 -5.29796671393456 1.8850130051997083 0.0 -3.7534183025152883 1.853867196465988 0.0 -2.411239626890997 1.836532312777825 0.0 -1.18328018608579 4.59731593605279 0.0 -14.50296403442604 4.31318320973859 0.0 -12.957895313954909 4.06159967551455 0.0 -11.04245681956443 3.851188500991245 0.0 -8.945671910516639 3.683804769257664 0.0 -6.94562762371572 3.556867312775028 0.0 -5.180336628274921 3.4653457335683853 0.0 -3.6718790249485656 3.4039255325588575 0.0 -2.3601260644079307 3.368576088275472 0.0 -1.1586982650167519 6.6673844521913805 0.0 -14.02376888590731 6.27202741298728 0.0 -12.522179256178479 5.92181963762283 0.0 -10.66509198569817 5.62898452074642 0.0 -8.63541316036638 5.3954495920764005 0.0 -6.70221859178505 5.21709541530264 0.0 -4.99807790213742 5.08714548014862 0.0 -3.542966948575341 4.99888367672034 0.0 -2.277737948387748 4.9475217979422 0.0 -1.11844326008106 8.613394595208279 0.0 -13.397938472897032 8.1140681891948 0.0 -11.955470062443 7.67422478355008 0.0 -10.17512360736592 7.307950572858361 0.0 -8.232448365728839 7.0161283392199305 0.0 -6.384993626933531 6.792828004202039 0.0 -4.75898285803022 6.629396317501969 0.0 -3.3724319123156916 6.517765437002749 0.0 -2.167844492244291 6.45252688526248 0.0 -1.06447147967556 10.29177629855986 0.0 -12.63842914250878 9.7000055606488 0.0 -11.27209720229576 9.1808490681225 0.0 -9.586633907128972 8.74929513654455 0.0 -7.749245158101091 8.40469616882564 0.0 -6.00437160550954 8.13943768419108 0.0 -4.47128155765568 7.945001465841281 0.0 -3.166406859077952 7.81160479669006 0.0 -2.034656027306258 7.73354896185088 0.0 -0.9989767361542399 11.39413091099143 0.0 -11.770793874467621 10.65229508372205 0.0 -10.49210705313682 10.02577215184027 0.0 -8.91695085568155 9.5055639367936 0.0 -7.203443532885601 9.08087549174761 0.0 -5.578568094937631 8.74726854262646 0.0 -4.15559679692773 8.489929516278211 0.0 -2.9478921226289923 8.313292766213051 0.0 -1.8973563393526278 8.2103917993173 0.0 -0.932514564879125 11.59633690407441 0.0 -10.83179151323928 10.80221453584197 0.0 -9.645770774359589 10.13832216096 0.0 -8.19249027168 9.589798281462839 0.0 -6.6158397706832694 9.14293038345441 0.0 -5.12668244596704 8.7962008750812 0.0 -3.819997051014438 8.53960481284584 0.0 -2.714166756060972 8.3476628656611 0.0 -1.747998802300557 8.24190560678394 0.0 -0.860253849401436 11.522097268647851 0.0 -9.857875511363941 10.71878337296005 0.0 -8.77687862185725 10.04904752860905 0.0 -7.4501140377265 9.49760424881569 0.0 -6.01645545571308 9.0553094221472 0.0 -4.65880369128896 8.69155471483418 0.0 -3.479622170264688 8.42266061445168 0.0 -2.47315453563006 8.2412291699334 0.0 -1.5922338107597243 8.13387738262755 0.0 -0.7816929537362809 11.324328816281 0.0 -8.901816284262479 10.515614694479481 0.0 -7.91436135606638 9.84469058155792 0.0 -6.714236833274961 9.29932391046824 0.0 -5.42182842250808 8.84561616668938 0.0 -4.20752295574871 8.4873986336132 0.0 -3.14185766620824 8.22957636027124 0.0 -2.22672037034374 8.06198552885612 0.0 -1.423836022091786 7.9593645984657 0.0 -0.69453003643191 11.063410372563121 0.0 -7.98715281184128 10.24471305326247 0.0 -7.107336504412411 9.56311647838554 0.0 -6.03342533540448 9.0148598765619 0.0 -4.88592768716718 8.58216857361975 0.0 -3.787194662644275 8.2587742842156 0.0 -2.81195943081315 8.01918300313224 0.0 -1.983346860440295 7.8504019770066 0.0 -1.277498537252136 7.753631863055761 0.0 -0.632448301139424 10.77638911101685 0.0 -7.1374441209972295 9.94633892992413 0.0 -6.34854012106255 9.256968755493729 0.0 -5.3951128771787795 8.7161186597324 0.0 -4.36933019719854 8.29841013843436 0.0 -3.3826880865687 7.98118989576 0.0 -2.5219730409967998 7.748480498247719 0.0 -1.795092093911102 7.596564747734609 0.0 -1.1654021058600008 7.5053061014147895 0.0 -0.579121193683383 10.46441570404034 0.0 -6.35388301965893 9.61155372857936 0.0 -5.63461590296646 8.9220308066204 0.0 -4.80404284020192 8.37903447862832 0.0 -3.891131825830368 7.9732825891124 0.0 -3.031913843708386 7.6665491672385 0.0 -2.275584642701538 7.44617461797192 0.0 -1.627173728429518 7.297178194368099 0.0 -1.06096834268693 7.2019918530146985 0.0 -0.521724648240275 10.14749413905138 0.0 -5.61882968141667 9.2692442552122 0.0 -4.96957041060784 8.56355581506366 0.0 -4.246020380339011 8.02802949160536 0.0 -3.47583431029368 7.622116907140001 0.0 -2.728090838196028 7.32565676955365 0.0 -2.05707174198788 7.1125175443136905 0.0 -1.485773965153657 6.97795664654128 0.0 -0.965417130851752 6.892681887689309 0.0 -0.47308003927099196 9.839219760917189 0.0 -4.9489748199171 8.9327426714316 0.0 -4.38876710401059 8.215825901759999 0.0 -3.748066970937 7.67255693433 0.0 -3.1051163063489997 7.269043990068119 0.0 -2.458304630939979 6.96936559593204 0.0 -1.8696270502260541 6.782695280969399 0.0 -1.361205584461656 6.653670283859999 0.0 -0.8799652671870001 6.57740985008052 0.0 -0.42824182683009 9.59479870411125 0.0 -4.36396659879285 8.614231465795532 0.0 -3.8342983047831067 7.8878112267144 0.0 -3.314244234350067 7.330871797406431 0.0 -2.753217125613627 6.927460298663999 0.0 -2.21032660861064 6.63991298672625 0.0 -1.701769726893915 6.458841089271901 0.0 -1.241899043683095 6.33462698974776 0.0 -0.799781910630912 6.262990152548849 0.0 -0.39132338458383453 9.46709072509125 0.0 -3.846349843023 8.37060285242817 0.0 -3.3358079503152047 7.590836072814601 0.0 -2.867349388022979 7.031208571118429 0.0 -2.4198231822300746 6.611322866545599 0.0 -1.9555810596329282 6.338670508074509 0.0 -1.536912825402005 6.15422670377564 0.0 -1.123839682317986 6.032108397244159 0.0 -0.730975964679632 5.9633328920581095 0.0 -0.3567124187125319 9.47945421905197 0.0 -3.406600259884248 8.233426429695209 0.0 -2.915998667114103 7.37425868654272 0.0 -2.478403589902418 6.76901554698213 0.0 -2.079796740765054 6.3510873359674 0.0 -1.714046822123805 6.066502538074239 0.0 -1.355196431023808 5.87929927189626 0.0 -1.0068145595468712 5.758976940371199 0.0 -0.65885042465046 5.69196756396983 0.0 -0.3267023386453179 9.74119163764764 0.0 -3.062169878318848 8.24112613478564 0.0 -2.613241672251492 7.25243431456115 0.0 -2.161455169270254 6.58953722899092 0.0 -1.799230512129024 6.1366314764629 0.0 -1.46817770345085 5.83654321675192 0.0 -1.177807016929544 5.6429658006015995 0.0 -0.88195367476969 5.5193688528635 0.0 -0.58317251348633 5.45441660917326 0.0 -0.2913598510810789 10.4625906388692 0.0 -2.909323267497255 8.54568188418844 0.0 -2.458062813918688 7.29992319081325 0.0 -1.9859153887356051 6.5131920435775505 0.0 -1.5912445666929 6.00282506087344 0.0 -1.28012541997136 5.66364807070764 0.0 -1.000219969140374 5.44755201077219 0.0 -0.753323196363182 5.32159593720144 0.0 -0.503808190493042 5.25102688629146 0.0 -0.25071011939867227 11.4472358286384 0.0 -3.0619266413631 9.32874186234408 0.0 -2.572654923214926 7.68210158055438 0.0 -2.041140223640259 6.62197281767514 0.0 -1.540833257797962 5.98104080907183 0.0 -1.171165710084012 5.58333410608809 0.0 -0.894242328299067 5.3237009830032 0.0 -0.6480557299419001 5.172526318014991 0.0 -0.425110016293215 5.09678313132213 0.0 -0.20966940734406392 12.31037101371168 0.0 -3.513815174022048 10.3786841167988 0.0 -2.96668232285744 8.55749578811904 0.0 -2.4398901517233598 7.165853443607039 0.0 -1.8377583985535042 6.21266461396875 0.0 -1.3040966198043749 5.64255656851887 0.0 -0.913522533412203 5.3091279603936 0.0 -0.630841696005024 5.11795821062271 0.0 -0.40137299643265606 5.01724596271899 0.0 -0.1952292067411686 13.00147616378897 0.0 -3.8287500411530244 11.25970761221072 0.0 -3.4318302234791904 9.68070509876448 0.0 -2.942569989649972 8.30289669528176 0.0 -2.3755097567026757 7.072833943859901 0.0 -1.82495018097971 6.13763108802246 0.0 -1.303709750886816 5.5498890764131 0.0 -0.8499615393299159 5.2421345183448 0.0 -0.49785975400410004 5.10050699334345 0.0 -0.2297733912367647 11.8096778999784 0.0 -3.63122460060438 10.45899743982426 0.0 -3.3557244822961922 9.39744096608114 0.0 -2.845516586608611 8.4865510846968 0.0 -2.223459187556174 7.656461507450721 0.0 -1.6395263562551843 6.9960846613815 0.0 -1.108188564867434 6.5508782346852 0.0 -0.66336391525976 6.3032539847499205 0.0 -0.3059942032533008 9.89684012520173 0.0 -3.215625797256531 9.15725835933006 0.0 -2.75611726876465 8.61798587204236 0.0 -2.04108301068774 8.2790419004019 0.0 -1.36722889300203 7.995642684160039 0.0 -0.8054103619319919 7.8321588420858 0.0 -0.366420223821204 8.95376513795161 0.0 -2.5107447124823974 8.67396872498309 0.0 -1.6981702909670282 8.53336874736242 0.0 -0.986521505449686 8.44696241819526 0.0 -0.442473019857789 -0.02675771466894285 0.0 -5.019643325491081e-10 -0.026745284268632093 0.0 0.0001945430928635772 -0.02670603746765092 0.0 0.000401837650045941 -0.026632428665810705 0.0 0.000636741535918538 -0.02651218226280454 0.0 0.000910473542761838 -0.026327294658182353 0.0 0.001231849030796225 -0.0260515966512899 0.0 0.001610716640267915 -0.02564895224122379 0.0 0.0020430129710753233 -0.03793798774844967 0.0 -8.15853140396328e-09 -0.03792447254811179 0.0 0.000281589487039737 -0.037881458947036456 0.0 0.000579664974491624 -0.03779912974497822 0.0 0.0009111786627794661 -0.037660057341501414 0.0 0.0012926990323174749 -0.03744013093600325 0.0 0.001730745523268637 -0.03710178212754453 0.0 0.002239989535999737 -0.03659072331476806 0.0 0.002832797630819939 -0.0525814293145357 0.0 1.242959391073984e-08 -0.052569665314241606 0.0 0.0003636206610905163 -0.0525305893132647 0.0 0.0007469521386738031 -0.05245158931128971 0.0 0.001168885949222148 -0.052308465307711605 0.0 0.0016498245612456132 -0.0520663293016582 0.0 0.002198045214951129 -0.0516724372918109 0.0 0.002826997350674932 -0.05105205327630131 0.0 0.0035546877288671914 -0.0706291697657292 0.0 -1.8478264061956592e-08 -0.07062312576557811 0.0 0.000442335171058379 -0.0706000777650019 0.0 0.000908366222709155 -0.070543721763593 0.0 0.0014179253554481332 -0.070422121760553 0.0 0.0019966876499171904 -0.0701875337546883 0.0 0.0026568381864209532 -0.0697685657442141 0.0 0.003407524245188104 -0.06906122172653051 0.0 0.00427348850683721 -0.09262369431559231 0.0 8.24362340609058e-09 -0.0926285783157144 0.0 0.000519585812989645 -0.0926365263159131 0.0 0.0010687000267175 -0.0926272223156805 0.0 0.001666587081664676 -0.0925600983140024 0.0 0.00234650565866264 -0.0923733743093343 0.0 0.003126924918173121 -0.091974602299365 0.0 0.00401352050033801 -0.0912250942806273 0.0 0.00503797972594949 -0.11946970698674261 0.0 -2.6848224671205602e-08 -0.1194918069872951 0.0 0.0005989240149731 -0.1195492069887301 0.0 0.001232299990807499 -0.1196166189904154 0.0 0.0019258052481451301 -0.1196452189911304 0.0 0.002716593307914831 -0.11955702698892559 0.0 0.0036357113308927813 -0.1192372469809311 0.0 0.00468436691710917 -0.11850813896270342 0.0 0.0058993881474847 -0.1523132958078323 0.0 2.3719736192993392e-08 -0.1523604558090113 0.0 0.0006826116970652921 -0.15249085981227142 0.0 0.001406207795155194 -0.1526731158168278 0.0 0.0022094916952372914 -0.1528509278212731 0.0 0.003129774398244358 -0.1529279158231978 0.0 0.00421806530545163 -0.15276709181917722 0.0 0.00546801893670047 -0.1521474518036862 0.0 0.00692473297311832 -0.1924809488120236 0.0 1.5094627977365692e-08 -0.19256405281410122 0.0 0.000773966579349164 -0.19279960881999011 0.0 0.0016004240400106001 -0.19315084882877112 0.0 0.0025324220633105503 -0.1935515808387894 0.0 0.00361288609032215 -0.1938884408472109 0.0 0.0049063073226576805 -0.1939944328498607 0.0 0.006422362560559061 -0.19361085284027119 0.0 0.00819300580482514 -0.2414571820364294 0.0 -8.52844581321114e-10 -0.2415915300397881 0.0 0.000873461861836546 -0.24197960604948998 0.0 0.00181710724542768 -0.24257891806447282 0.0 0.002903675352591882 -0.2433118420827959 0.0 0.00418825930470648 -0.2440455741011392 0.0 0.00575365894384147 -0.2445822781145568 0.0 0.00761850139046253 -0.2446167061154175 0.0 0.0098063882451597 -0.3009364675234115 0.0 1.292295352307383e-08 -0.3011436995285923 0.0 0.000976864104421602 -0.3017504995437623 0.0 0.00204944205123605 -0.3027074155676852 0.0 0.0033201404830035097 -0.3039266915981671 0.0 0.00486275132156878 -0.3052527516313186 0.0 0.00678854376971359 -0.3064514956612872 0.0 0.00912383502809587 -0.3071567836789194 0.0 0.01188856629721415 -0.37288792932219805 0.0 -7.55438258885956e-08 -0.3731982333299556 0.0 0.001074426386860659 -0.3741133053528324 0.0 0.002281225897030646 -0.3755762653894064 0.0 0.003759931493998285 -0.3774880254372004 0.0 0.005619293340482331 -0.3796677934916946 0.0 0.00801531180038279 -0.38183446954586153 0.0 0.01099213027480325 -0.383546169588654 0.0 0.01456395276409881 -0.45957401148935 0.0 1.206349030158725e-07 -0.460026371500659 0.0 0.001150252988756324 -0.46136641153416 0.0 0.0024798980619974505 -0.46353161158829004 0.0 0.00418610570465264 -0.466407091660177 0.0 0.00642844736071118 -0.46977705174442597 0.0 0.00941806983545174 -0.47330661183266504 0.0 0.013224245930606142 -0.47645073191126797 0.0 0.0179176604479415 -0.563476574086914 0.0 1.409228875230721e-07 -0.564121774103044 0.0 0.0011812337095308421 -0.5660372941509321 0.0 0.002598952024973799 -0.5691545742288641 0.0 0.004538770113469251 -0.5733394943334871 0.0 0.00721930658048266 -0.578333494458337 0.0 0.01094280227357005 -0.583737334593433 0.0 0.015790211194755273 -0.588875974721899 0.0 0.02196187134904677 -0.6872338171808451 0.0 -2.055849171396228e-08 -0.688136137203403 0.0 0.0011365357084133921 -0.6908223372705581 0.0 0.0025841218246030443 -0.695214657380366 0.0 0.00473990371849759 -0.7011594975289871 0.0 0.00789767579744189 -0.708334337708358 0.0 0.01244630231115755 -0.716285897907147 0.0 0.01856788286419706 -0.724186458104661 0.0 0.02664900186622503 -0.833686660842166 0.0 -1.4594157164853922e-07 -0.8349278608731959 0.0 0.000977061264426531 -0.8386255409656381 0.0 0.002369239979230998 -0.844700941117523 0.0 0.00469200091730002 -0.8529666213241651 0.0 0.00828176620704415 -0.8630709015767721 0.0 0.013815725145393122 -0.8744616618615411 0.0 0.02147352013683799 -0.8861469421536731 0.0 0.03187046119676151 -1.0058832251470802 0.0 -3.575269249381729e-08 -1.00755922518898 0.0 0.0006857752171443801 -1.012568105314202 0.0 0.001911974927799372 -1.020831425520785 0.0 0.00431105450777636 -1.032135025803375 0.0 0.008322600608065011 -1.046106066152651 0.0 0.014900620772515511 -1.0620995865524891 0.0 0.0243361046084026 -1.078900746972518 0.0 0.03741993413549833 -1.207125510178137 0.0 6.621155365528881e-07 -1.209359670233991 0.0 0.00027865826296645643 -1.216045870401146 0.0 0.001229083390727084 -1.227106230677655 0.0 0.0035497558087438934 -1.242355951058898 0.0 0.007981026999525671 -1.261383191534579 0.0 0.01560086639002165 -1.2833895920847391 0.0 0.026767266269181644 -1.307052632676315 0.0 0.0428067090701677 -1.4410917560272931 0.0 1.4784136769603412e-07 -1.4440267961006692 0.0 -0.000165673444141836 -1.45282643632066 0.0 0.00045880461147011504 -1.467434156685853 0.0 0.0026206682255167043 -1.4877139571928482 0.0 0.007374144584353611 -1.513247797831194 0.0 0.015960592399014803 -1.543062998576574 0.0 0.028766772719169303 -1.575764119394102 0.0 0.048082793202069804 -1.71175484279387 0.0 -5.054574126364351e-07 -1.7155493228887322 0.0 -0.000455097531377438 -1.726957563173938 0.0 -5.23354853083871e-05 -1.7459814436495351 0.0 0.001985916929647922 -1.77255884431397 0.0 0.0069987841749696 -1.8062984851574613 0.0 0.01631380080784501 -1.8461338461533452 0.0 0.030855492371387294 -1.8904898072622442 0.0 0.053303361332584 -2.023121490578036 0.0 -4.08117370202934e-07 -2.0279501306987524 0.0 -0.00021016938125423441 -2.0425095310627372 0.0 0.0003901545977538647 -2.0668984116724594 0.0 0.002604134985103373 -2.101195972529898 0.0 0.007951259798781491 -2.1450848136271192 0.0 0.01775465804386644 -2.1974764549369104 0.0 0.034006360850159005 -2.2566271364156774 0.0 0.059038217475955404 -2.378947139473677 0.0 -2.54551566363789e-07 -2.38499245962481 0.0 0.001202841030071025 -2.403256660081415 0.0 0.003037305235932629 -2.434002380850058 0.0 0.00621040455526011 -2.4775421819385532 0.0 0.012191485104787122 -2.533758983343973 0.0 0.022726539368163472 -2.601590585039763 0.0 0.0400084330002108 -2.6791424269785593 0.0 0.0670806896770172 -2.782717589567938 0.0 -4.81840652046016e-07 -2.790139829753494 0.0 0.00474528971863224 -2.812636430315909 0.0 0.00976840584421014 -2.850708671267715 0.0 0.0155091123877278 -2.9050133526253323 0.0 0.02316237137905927 -2.975881474397035 0.0 0.035098711677467774 -3.062356276558905 0.0 0.052783985319599595 -3.162493199062328 0.0 0.08122763803069091 -3.2380456009511382 0.0 -1.852980166324503e-06 -3.246996401174908 0.0 0.011828568695714211 -3.274176121854401 0.0 0.023333554583338852 -3.3204338830108453 0.0 0.03443231086080775 -3.386930164673252 0.0 0.045938805148470103 -3.4746422868660556 0.0 0.060369261509231505 -3.583160089579 0.0 0.0789381459734536 -3.710555372763882 0.0 0.1082213307055332 -3.7495758533975274 0.0 5.39816205348002e-07 -3.760138742111903 0.0 0.024422810148801752 -3.79229220421702 0.0 0.047667075750279994 -3.8473469084067604 0.0 0.0686055891633288 -3.927186170848876 0.0 0.087918259344785 -4.033802722815 0.0 0.1071358683166623 -4.16762623828881 0.0 0.1283295738718111 -4.32703749433024 0.0 0.1588419669576416 -4.32332645171063 0.0 -1.0322137598914118e-06 -4.3355453549551 0.0 0.043991810981352 -4.37283056680743 0.0 0.08568995922869199 -4.437051048896961 0.0 0.123557256536704 -4.53106533470241 0.0 0.15705918916176578 -4.65810523006948 0.0 0.1870222988258338 -4.8200680451287 0.0 0.215191300179336 -5.01618646260641 0.0 0.2469341301205177 -4.9673418993192 0.0 2.6239576236964202e-06 -4.9811547735629995 0.0 0.07254022190159701 -5.02363782513936 0.0 0.1423449784243872 -5.09710866769521 0.0 0.2066345206648704 -5.205488427312 0.0 0.26370149450088004 -5.353564772229779 0.0 0.31337081735396544 -5.5455829755196495 0.0 0.3574566917014554 -5.7817373757941395 0.0 0.3956655856672722 -5.68716482661882 0.0 1.125909395065529e-06 -5.7027082562696005 0.0 0.1125278905750187 -5.7504989623668505 0.0 0.22108073441958973 -5.83363666572778 0.0 0.3230377972671668 -5.957460820183121 0.0 0.4155753800355211 -6.12715858695386 0.0 0.5006114339694 -6.3499902959556 0.0 0.572759345349974 -6.6282205363076505 0.0 0.63025153729393 -6.48654377609625 0.0 3.9164865065395794e-07 -6.50431452020715 0.0 0.1572752019726522 -6.558244213946221 0.0 0.3138098711952366 -6.651614836584509 0.0 0.46596380023131895 -6.79053494153412 0.0 0.610920523883964 -6.982963103016901 0.0 0.7462150506745561 -7.23628933802613 0.0 0.8682561487362331 -7.5543843210495 0.0 0.9741429065749501 -7.35907536634351 0.0 4.20779162518007e-06 -7.37878198418074 0.0 0.21719901892960278 -7.438364146236 0.0 0.43633697057180004 -7.54159401873379 0.0 0.6561757620185811 -7.69638430418495 0.0 0.8701659220829789 -7.911658650441621 0.0 1.07521592457052 -8.196412289128439 0.0 1.2651342205510219 -8.555142829681841 0.0 1.4349364621193281 -8.26806433094628 0.0 1.852134137062328e-06 -8.29057960526175 0.0 0.295665924472433 -8.35881250611344 0.0 0.58402250541824 -8.4743361738283 0.0 0.8817328856346 -8.64845059869288 0.0 1.174122014079154 -8.8869195101928 0.0 1.465980170111915 -9.2030670882466 0.0 1.749902099587755 -9.603815436061 0.0 2.0083721846248195 -9.16438964515508 0.0 -2.2436655825939182e-07 -9.18709486844296 0.0 0.36927956166338016 -9.26390002364092 0.0 0.7393513523669559 -9.402983304129 0.0 1.108194127409296 -9.598390369345259 0.0 1.49434109639577 -9.86120092864572 0.0 1.906791569917712 -10.20591427876632 0.0 2.333321163352112 -10.64655373359928 0.0 2.722025272796186 -10.0037289890353 0.0 -1.50570088151728e-06 -10.0336850361997 0.0 0.44691954080754404 -10.12357432770375 0.0 0.905818390478375 -10.2773947743152 0.0 1.380461633985588 -10.4841123988325 0.0 1.8976372954928749 -10.78061440660484 0.0 2.461719188453864 -11.167091509044619 0.0 3.034302218236122 -11.63116820078882 0.0 3.583614802184427 -10.705485514560001 0.0 -2.563355281062912e-06 -10.737508085406 0.0 0.546638092714029 -10.8444672656544 0.0 1.104345642993132 -11.01230620167996 0.0 1.6956912735310201 -11.252013982245929 0.0 2.3461803617565034 -11.59343054469684 0.0 3.029236586609904 -12.01229683931655 0.0 3.77114640548373 -12.5069725338642 0.0 4.51881031055811 -11.28659410576023 0.0 7.29239870004456e-06 -11.32433299471914 0.0 0.6623887631634 -11.43375535802754 0.0 1.336935302914014 -11.627492046643198 0.0 2.0506643919434397 -11.90247772421178 0.0 2.8463520623166176 -12.26326008343986 0.0 3.73571183444832 -12.69237663684567 0.0 4.70842887103371 -13.193136867221522 0.0 5.678669422722121 -11.62291540814766 0.0 8.4957480888552e-06 -11.66115873690768 0.0 0.786260631156 -11.78366275267626 0.0 1.6004920165232281 -11.99347899798048 0.0 2.480364834563616 -12.271118780107711 0.0 3.470649405382818 -12.6472788788925 0.0 4.611438849093 -13.09948457965182 0.0 5.88503429778534 -13.61740105532286 0.0 7.17698713172751 -11.595766049753339 0.0 6.75342993334611e-06 -11.63455828533408 0.0 0.8993167186699921 -11.7514474437678 0.0 1.838210475305694 -11.95130766810015 0.0 2.87147563054953 -12.241669213988999 0.0 4.06350119019375 -12.61394153038557 0.0 5.46755310263583 -13.06935504898296 0.0 7.068414456772199 -13.590220974204602 0.0 8.7564509936376 -9.16119608759098 0.0 2.254628026025778e-06 -9.19262951373624 0.0 1.00211798873412 -9.287820870313439 0.0 2.050724193392897 -9.45017425810939 0.0 3.2122236761471 -9.687037753109031 0.0 4.56657658678326 -10.00926430313678 0.0 6.168498352213559 -10.42825154060577 0.0 8.00323532734228 -10.95066875816412 0.0 9.962268857866942 -5.678630084320201 0.0 -7.06953938019735e-06 -5.702711900587681 0.0 1.0838482654316401 -5.77522446234228 0.0 2.2161275951839197 -5.89766103891675 0.0 3.46681366962147 -6.07405737759579 0.0 4.92053053118949 -6.3110155842426 0.0 6.63444883146276 -6.615041064703201 0.0 8.5900913920548 -6.9875803526364 0.0 10.666723594931701 -3.039706654570188 0.0 3.020639667994322e-06 -3.055888433654256 0.0 1.142260841997478 -3.104302824090904 0.0 2.333306784449423 -3.184862583954836 0.0 3.644797203742032 -3.298777107016515 0.0 5.16415569553927 -3.4488882745120537 0.0 6.9501462108249 -3.637943397536196 0.0 8.980605017477309 -3.86462822213556 0.0 11.124062252215799 -1.132674921088644 0.0 -7.677075448154041e-06 -1.141098743282067 0.0 1.177252766008515 -1.165902190072545 0.0 2.40247932832536 -1.205973608369517 0.0 3.747561363764235 -1.2604241011676849 0.0 5.3013229437295495 -1.329269256707802 0.0 7.1234122441176595 -1.412613502350591 0.0 9.18946761088878 -1.50851101517811 0.0 11.36041733526255 0.3837492759807429 0.0 -4.94266240839223e-06 0.38261779194685885 0.0 1.190214729058056 0.37986988005426003 0.0 2.426901992245736 0.37721893570640797 0.0 3.7811631492982882 0.37694603211931743 0.0 5.34194841697136 0.3812242471904551 0.0 7.1694668200597 0.3917468852789107 0.0 9.23889426475589 0.41034634137134995 0.0 11.407876839868639 1.8310005423142401 0.0 -7.274567770919681e-07 1.836539662177155 0.0 1.18326952541863 1.8538581510500838 0.0 2.411221899491078 1.885016276086952 0.0 3.7534210080639965 1.9332799133877803 0.0 5.29797357875964 2.002462166816356 0.0 7.105291826287601 2.0959055368182082 0.0 9.15150668705904 2.215489827984076 0.0 11.2949376287664 3.357033060195234 0.0 3.703096511590434e-06 3.3685776629063997 0.0 1.158688574980272 3.403923594551706 0.0 2.360121825017286 3.46534262468145 0.0 3.671872484173455 3.5568623062546925 0.0 5.180336628274921 3.683813248042104 0.0 6.94561954868292 3.8511869667346708 0.0 8.94568119680643 4.06158594795369 0.0 11.0424661058556 4.930633798898221 0.0 2.592980195523543e-06 4.947523412463 0.0 1.11844144374516 4.9988820621993 0.0 2.277746626438338 5.08714305836688 0.0 3.542970016165545 5.21710308427986 0.0 4.998071847681721 5.3954548392709505 0.0 6.70221617000295 5.62898573163783 0.0 8.635406298648391 5.92181116138296 0.0 10.66510651639509 6.43102501366914 0.0 -7.10929057963612e-06 6.45252970945616 0.0 1.064454050365992 6.51777996142847 0.0 2.167832348210564 6.6294007555215995 0.0 3.372433041993416 6.792823969638739 0.0 4.7589852787682 7.01613358415144 0.0 6.38500048569012 7.3079533970533 0.0 8.23243384129772 7.67424172872224 0.0 10.17513530760384 7.70771044368896 0.0 -8.93838420827767e-06 7.73355501043648 0.0 0.9989792362362879 7.811597135149441 0.0 2.0346571966993 7.94501517596864 0.0 3.166411294707392 8.13943163560638 0.0 4.47127631554894 8.40470221741079 0.0 6.00437120227053 8.74928182965326 0.0 7.74924596457935 9.18083818066437 0.0 9.586639955716821 8.17574117103868 0.0 -1.062300776895371e-06 8.21040268003245 0.0 0.9325126305297652 8.313298811055699 0.0 1.8973494482320068 8.48992588937262 0.0 2.9478921226289923 8.747274587469109 0.0 4.15559639393822 9.080878715664172 0.0 5.57856003514623 9.5055760264816 0.0 7.2034560255632005 10.02578907740725 0.0 8.916960930423802 8.209051903037361 0.0 -6.93895391395536e-06 8.24189956598484 0.0 0.8602628703280919 8.347668503739841 0.0 1.7479959429891962 8.53960481284584 0.0 2.714158137854898 8.79618718260324 0.0 3.819997051014438 9.14292514809558 0.0 5.126672377969291 9.589803919542419 0.0 6.61583211900384 10.138339075200001 0.0 8.19250758864 8.09730186470324 0.0 6.028591893980389e-06 8.133871346001 0.0 0.7816983464559989 8.24123762121309 0.0 1.5922261643638143 8.42264854119588 0.0 2.473147412409138 8.69156236122895 0.0 3.4796194739044273 9.05530861726336 0.0 4.6588065083824 9.4975949926536 0.0 6.01645867524772 10.049035052908598 0.0 7.4501108181908995 7.9221509627344 0.0 7.078551666896501e-06 7.9593839024385 0.0 0.69452895058344 8.0620128761448 0.0 1.4238435023795721 8.229600892399679 0.0 2.22672016926072 8.4874106985962 0.0 3.14186108462009 8.84561375369296 0.0 4.20752255358264 9.299329942960641 0.0 5.4218248030126395 9.844696211884159 0.0 6.71423200728104 7.735845651618 0.0 3.625109122980996e-06 7.75363748967984 0.0 0.632448140378736 7.850391929464349 0.0 1.277499421435854 8.01918380693562 0.0 1.9833458958762387 8.25877669562574 0.0 2.811955572556926 8.582173396440751 0.0 3.7871935373193746 9.01485826895514 0.0 4.88592165864183 9.563101206121319 0.0 6.03342935442138 7.4641510699133 0.0 -2.938949167607922e-06 7.505313732878219 0.0 0.579120952689801 7.5965555096473 0.0 1.165397607313137 7.74849576117344 0.0 1.7950979982534199 7.981180256016 0.0 2.5219732418248 8.298405318563079 0.0 3.38269190230013 8.71612026635616 0.0 4.3693305988544795 9.25697759192507 0.0 5.39510845896311 7.174293063164789 0.0 4.29779056650054e-06 7.20199386018295 0.0 0.521738698418025 7.2971765886335005 0.0 1.0609617993184348 7.44617301223708 0.0 1.627177140616053 7.66655759734452 0.0 2.2755876935970503 7.973277370475339 0.0 3.0319117562535616 8.37902444278632 0.0 3.8911325885543597 8.92203923672642 0.0 4.804046453104499 6.86667353418936 0.0 8.18833385768052e-06 6.892687505020049 0.0 0.47308637882997 6.97796427006252 0.0 0.965410149311248 7.11251433440977 0.0 1.4857762522102 7.32565235593576 0.0 2.057072704959056 7.62211931456776 0.0 2.7280889523776164 8.0280327015088 0.0 3.475831260885412 8.563563839823459 0.0 4.246020380339011 6.55191432407736 0.0 -2.3623854656397662e-06 6.5774074436608805 0.0 0.428245797422496 6.65366506995 0.0 0.879956563968 6.782688462781439 0.0 1.361204621893944 6.9693772269611705 0.0 1.869625726695153 7.26904038043893 0.0 2.458302505269456 7.672562148239999 0.0 3.105116105814 8.215825901759999 0.0 3.748068093933 6.239608873545721 0.0 2.702497944717541e-07 6.26299095440655 0.0 0.3913232643051795 6.3346241832456 0.0 0.799782512024232 6.45884950877775 0.0 1.241900968141575 6.6399266183071495 0.0 1.701769887265455 6.9274586949487995 0.0 2.21032737037536 7.330870594619941 0.0 2.7532163638488503 7.887803208136201 0.0 3.31424154812637 5.94301802624544 0.0 -1.149710608461632e-06 5.96333770181783 0.0 0.3567105348899749 6.0321023850449595 0.0 0.730975684110336 6.154222294828901 0.0 1.123843770614054 6.33866970644789 0.0 1.536914548899238 6.611328077118241 0.0 1.9555833442686241 7.03122139714435 0.0 2.41982298182342 7.59083126305416 0.0 2.8673507507884373 5.67160655413622 0.0 -9.201713814930219e-07 5.69196836541085 0.0 0.3266972775452766 5.7589753374888 0.0 0.6588549127211799 5.87929326108771 0.0 1.0068155212762389 6.06650454167664 0.0 1.355195268934416 6.3510821266015505 0.0 1.7140464214033548 6.7690115397764306 0.0 2.079798423791448 7.374255080057591 0.0 2.478400344065801 5.43377803956699 0.0 3.8398290126564055e-06 5.45440859621746 0.0 0.291361449665761 5.51937165739845 0.0 0.5831720727736951 5.642970608373999 0.0 0.88195235263228 5.836547623877281 0.0 1.177805494468056 6.1366242648043 0.0 1.46817826435763 6.58953522575182 0.0 1.79923263556247 7.2524226957717595 0.0 2.16145861484228 5.22604639207616 0.0 2.7688784677222563e-06 5.25103169339294 0.0 0.2507107162804394 5.32158632299848 0.0 0.503806027297376 5.44755681787367 0.0 0.753324037605941 5.66364807070764 0.0 1.000219808903646 6.00282826560752 0.0 1.2801245386694882 6.5131948477205 0.0 1.5912436052724601 7.299927997915451 0.0 1.985914988143755 5.071395168118499 0.0 1.72292450483979e-07 5.096788338469141 0.0 0.20966878649192042 5.17252872131325 0.0 0.425112019041765 5.3237025852024 0.0 0.6480569716462801 5.58333210333954 0.0 0.8942430092335739 5.9810412096216 0.0 1.171165149314334 6.62197281767514 0.0 1.540830654224652 7.682099177255761 0.0 2.0411396228156042 4.984812733098241 0.0 1.0949013091175039e-06 5.01724516168161 0.0 0.1952287421394882 5.1179530038787 0.0 0.401374318144597 5.30913036350592 0.0 0.6308420564718721 5.64255496644411 0.0 0.9135230140346311 6.21266421345 0.0 1.30409682006375 7.165855045681919 0.0 1.8377577977754238 8.5574969896752 0.0 2.439891273175776 5.05775478947376 0.0 -2.5449662546597077e-07 5.10050979681776 0.0 0.2297738678273974 5.2421373218189 0.0 0.49786055499670007 5.549888675916829 0.0 0.8499614592306619 6.13763188901512 0.0 1.303709951134981 7.0728363468377005 0.0 1.8249496202848903 8.30290110074172 0.0 2.375510157199036 9.68070910372808 0.0 2.9425705503448762 6.22517524062256 0.0 -1.471858775841118e-07 6.3032571885937605 0.0 0.305993938936184 6.5508758318016005 0.0 0.66336479631708 6.99608706426474 0.0 1.108188364627164 7.6564623084116805 0.0 1.639526556495424 8.48655428854112 0.0 2.2234584266431483 9.39744176704216 0.0 2.845516025935897 10.4589998427075 0.0 3.355726004122244 7.778666900264679 0.0 9.52649164801957e-07 7.832158041146901 0.0 0.3664205802390145 7.995643485099 0.0 0.8054112029179 8.27904710650475 0.0 1.36722849253258 8.61798587204236 0.0 2.041082249795728 9.15726156308614 0.0 2.7561191910182976 9.89683692144517 0.0 3.215624275472165 8.41711701411678 0.0 -3.8482412468175623e-07 8.44696241819526 0.0 0.44247326013500704 8.5333719510589 0.0 0.9865210248952141 8.67396632221091 0.0 1.698169730320186 8.95376754072379 0.0 2.5107447124823974 -0.025070602226765038 0.0 0.002525007983125198 -0.02425092220627304 0.0 0.0030759260768981503 -0.02313994217849854 0.0 0.0036600180915004506 -0.021674794541869852 0.0 0.00426161170654029 -0.019808632495215802 0.0 0.00482346372058659 -0.01746241803656044 0.0 0.00531218373280459 -0.0146571563664289 0.0 0.00557936893948422 -0.03584333729608341 0.0 0.003484759927118996 -0.03475782366894557 0.0 0.00422975730574393 -0.03324371963109297 0.0 0.00502631492565787 -0.03119838917995971 0.0 0.00583240134581003 -0.028537312713432798 0.0 0.00652274376306859 -0.02509521622738039 0.0 0.007063961776599041 -0.020772682519317052 0.0 0.007296133382403331 -0.01551510118787752 0.0 0.00777440099436002 -0.0501108732527718 0.0 0.00436251250906281 -0.048707581217689505 0.0 0.00528244253206106 -0.0467047571676189 0.0 0.006256255756406391 -0.0439408570985214 0.0 0.00724748698118717 -0.040288865007221605 0.0 0.00808665780216644 -0.03551125328778131 0.0 0.008780069019501721 -0.02952241073806025 0.0 0.00917037302925932 -0.022192471354811772 0.0 0.00949828063745701 -0.06793160169829 0.0 0.005247995331199881 -0.066192841654821 0.0 0.0063528545588213605 -0.06365114159127849 0.0 0.00753357498833937 -0.0600826655020666 0.0 0.00873960861849021 -0.05529820938245521 0.0 0.0097766202444155 -0.0489709812242745 0.0 0.01067270506681762 -0.040984045024601096 0.0 0.01116261067906526 -0.03097916317447906 0.0 0.01159691988992299 -0.0899435702485892 0.0 0.00620934375523359 -0.0878908181972704 0.0 0.00752405698810142 -0.0847978741199468 0.0 0.00894074982351874 -0.0803606780090169 0.0 0.01040383546009588 -0.07431024585775611 0.0 0.01168192269204806 -0.06617871765446791 0.0 0.01284146192103654 -0.055753785393844596 0.0 0.013528987938224692 -0.04239082905977071 0.0 0.01429687195742179 -0.1171344189283604 0.0 0.007308630182715751 -0.11482131887053292 0.0 0.008865143021628571 -0.1111956507798912 0.0 0.01055445106386127 -0.105847682646192 0.0 0.01231492470787311 -0.09841702246042551 0.0 0.01386616874665421 -0.08822621420565531 0.0 0.015368887984222191 -0.0748870498721762 0.0 0.01641556361038908 -0.0573427254335681 0.0 0.01780079964501998 -0.1507710237692755 0.0 0.008624713415617831 -0.1482771197069279 0.0 0.01046354066158851 -0.14416922760423062 0.0 0.012472038311800951 -0.13791597144789922 0.0 0.01456979556424488 -0.1290267392256684 0.0 0.016448396811209912 -0.116554642913866 0.0 0.01840001086000026 -0.09981461849536541 0.0 0.02004057530101437 -0.0771649539291238 0.0 0.02238816095970401 -0.19236791680919782 0.0 0.010258475056461871 -0.1898191127454777 0.0 0.01245727111143177 -0.1853204166330103 0.0 0.01488026717200667 -0.17822269645556732 0.0 0.01737210483430261 -0.167833844195846 0.0 0.019692154892303863 -0.1529391558234788 0.0 0.022211742955293563 -0.1323379073084476 0.0 0.02478643701966091 -0.10369680259241999 0.0 0.02852219991305498 -0.24369402609235052 0.0 0.012366137909153441 -0.2412734340318357 0.0 0.01506730197668254 -0.2365390379134758 0.0 0.018067455651686378 -0.2286658097166451 0.0 0.02117565492939136 -0.21677608941940213 0.0 0.024098013802450333 -0.1994383849859595 0.0 0.027226103080652563 -0.17474115236852872 0.0 0.031000453975011333 -0.13948521948713039 0.0 0.03642593731064841 -0.3068139156703477 0.0 0.01514742717868567 -0.30477042761926054 0.0 0.01861289206532229 -0.3000447595011188 0.0 0.02241600816040019 -0.2916150152903752 0.0 0.02630711545767787 -0.2782898029572449 0.0 0.030083618352090443 -0.2585154824628869 0.0 0.03397626964940672 -0.2299585417489634 0.0 0.03870891416772283 -0.1882127687053191 0.0 0.0456240651406016 -0.384137329603433 0.0 0.01878986126974652 -0.3827981335699531 0.0 0.02340308338507707 -0.3784557894613945 0.0 0.028296808307420193 -0.36973796924344904 0.0 0.03343148323578706 -0.35545156888628904 0.0 0.03785797454644934 -0.3335383483384585 0.0 0.0425521970638049 -0.30184326754608154 0.0 0.047960629199015704 -0.2542207063555175 0.0 0.056288769407219205 -0.478432531960813 0.0 0.02346414378660358 -0.47824717195617905 0.0 0.02967912634197814 -0.47476137186903405 0.0 0.036222184505554596 -0.46642577166064403 0.0 0.0429878370746959 -0.451726251293156 0.0 0.0493693852342346 -0.428212450705311 0.0 0.057078517426962905 -0.3934220658355514 0.0 0.0681455497036387 -0.33679259641981474 0.0 0.0887620222190505 -0.592864054821601 0.0 0.02929743913243596 -0.59447441486186 0.0 0.03777603894440095 -0.592542894813572 0.0 0.0470913011772825 -0.585568174639204 0.0 0.057138557428463896 -0.571909734297743 0.0 0.0684203657105091 -0.548375853709396 0.0 0.0858845661471141 -0.513491772837294 0.0 0.11508771487719281 -0.454455491361387 0.0 0.1680451202011279 -0.7310220582755511 0.0 0.03637540450938509 -0.735340298383507 0.0 0.048100689202517206 -0.736002738400068 0.0 0.06172931354323281 -0.731792978294824 0.0 0.0777333819433345 -0.721636058040901 0.0 0.09727305443182631 -0.7022167775554191 0.0 0.129258923231473 -0.672214336805358 0.0 0.1831007165775178 -0.6193646554841161 0.0 0.2649604146240102 -0.896972502424312 0.0 0.0446771891169297 -0.9052640226316001 0.0 0.0607825015195625 -0.909807342745183 0.0 0.0799824499995612 -0.9099331027483271 0.0 0.10414495860362391 -0.9059233826480841 0.0 0.13515129537878232 -0.8944315023607872 0.0 0.1825960085649001 -0.8737240218431 0.0 0.25820055845501383 -0.8334360208359001 0.0 0.3620869010521723 -1.0951968273799202 0.0 0.0539421093485527 -1.109000027725 0.0 0.0752803538820088 -1.119221027980525 0.0 0.10185501854637541 -1.1252613481315332 0.0 0.136122243403056 -1.1287434682185862 0.0 0.1782861164571528 -1.127577148189428 0.0 0.24160271404006772 -1.119904347997608 0.0 0.3365924204148103 -1.094232187355804 0.0 0.458916771472919 -1.3307850332696252 0.0 0.0639497335987433 -1.352139393803484 0.0 0.09169888229247201 -1.369915034247875 0.0 0.126883843172096 -1.383299474582486 0.0 0.17082369627059232 -1.395748154893703 0.0 0.22581751764543784 -1.405801035145025 0.0 0.3055584996389623 -1.4113601952840042 0.0 0.418891330472283 -1.399867874996696 0.0 0.562264494056612 -1.609306200232654 0.0 0.074329641858241 -1.640674241016855 0.0 0.10910769872769241 -1.668048521701212 0.0 0.1534410878360271 -1.691302162282553 0.0 0.2088297892207446 -1.7136766828419159 0.0 0.27827733095693313 -1.735668243391705 0.0 0.37579673339491815 -1.754213203855329 0.0 0.509315372732884 -1.7550903638772581 0.0 0.677944696948617 -1.936674368416858 0.0 0.08472743811818591 -1.9811592495289803 0.0 0.12721533918038339 -2.020974970524373 0.0 0.1813389365334733 -2.056475491411886 0.0 0.2504096822602419 -2.091651572291288 0.0 0.3375538684388465 -2.126911973172798 0.0 0.45462517136562897 -2.159243453981085 0.0 0.61201121530028 -2.171495854287395 0.0 0.811432660285816 -2.318891377972283 0.0 0.0960721464018036 -2.3799326594983152 0.0 0.14437985960949642 -2.436440700911016 0.0 0.21067710526692754 -2.487570822189269 0.0 0.2950855313771381 -2.538657063466425 0.0 0.402428530060713 -2.590642784766068 0.0 0.543862373596559 -2.640095586002388 0.0 0.731180938279523 -2.666599346664982 0.0 0.967174664179366 -2.762000549050012 0.0 0.10856915871422891 -2.844471431111784 0.0 0.1632466360811658 -2.9224438330610942 0.0 0.24146211803655282 -2.994241994856048 0.0 0.3426164965654122 -3.065357476633935 0.0 0.47342057183551406 -3.138598158464952 0.0 0.645222296130557 -3.2102772402569286 0.0 0.870448701761217 -3.2559845613996123 0.0 1.1509007887725191 -3.2710110417752745 0.0 0.1256702591417564 -3.381223364530582 0.0 0.1862453846561345 -3.4868000871700002 0.0 0.2743893948597347 -3.5855370496384245 0.0 0.3935842618396063 -3.6834191320854757 0.0 0.550758133768953 -3.783981814599543 0.0 0.759717378992934 -3.884680257117004 0.0 1.032594785814869 -3.956476698911915 0.0 1.367146714178667 -3.8512246162806134 0.0 0.1541420958535523 -3.9962227799055676 0.0 0.2179726654493165 -4.13796370344909 0.0 0.313664087841602 -4.27209130680228 0.0 0.45068321126708005 -4.40571331014283 0.0 0.633356535833913 -4.54226971355674 0.0 0.8868755421718881 -4.6806117170152906 0.0 1.221728270543206 -4.7878057196951405 0.0 1.6230003605750078 -4.5067173800355 0.0 0.20351551663652298 -4.694544720905899 0.0 0.268540917405537 -4.8831944286320805 0.0 0.3661302260571873 -5.06452377822867 0.0 0.515342705157381 -5.24589714097818 0.0 0.721156806780516 -5.43150088098453 0.0 1.024289125037831 -5.61906143572186 0.0 1.441504709240404 -5.7744211308126 0.0 1.9279038459267999 -5.24132017223532 0.0 0.2896053087713652 -5.48229676865092 0.0 0.35073991607914384 -5.72835242951484 0.0 0.44518405488455204 -5.9728938389809 0.0 0.5945409377141 -6.21711272219076 0.0 0.815865174502895 -6.47084072998048 0.0 1.1750075800114241 -6.72528702746747 0.0 1.694040924530997 -6.950243638013 0.0 2.29753096943305 -6.0579401069124 0.0 0.43629499235120406 -6.3623007656802 0.0 0.492851418171732 -6.67834179502392 0.0 0.570179461935132 -7.002962590288349 0.0 0.70728529554636 -7.330503651463441 0.0 0.9418511517846481 -7.674655475458441 0.0 1.331350336119384 -8.02711154549265 0.0 1.98043248476739 -8.351447009730599 0.0 2.732874074229 -6.958303851134999 0.0 0.674743030389428 -7.330984814084899 0.0 0.71999724980578 -7.731574812181 0.0 0.777920671950432 -8.15607370420853 0.0 0.8811186183352401 -8.59812599059412 0.0 1.102615928215884 -9.06325870766892 0.0 1.5126436689800031 -9.55262393793337 0.0 2.300418908187193 -10.02531581809955 0.0 3.23927961377151 -7.939125619973519 0.0 1.0446553155110518 -8.38142579622303 0.0 1.087281172052622 -8.87800040658024 0.0 1.1108218125928169 -9.4204178529525 0.0 1.161263225558214 -10.0071367634313 0.0 1.34262702753813 -10.64051549995224 0.0 1.741026683303544 -11.316441392446679 0.0 2.658849585225624 -12.01216005484992 0.0 3.807601629941928 -8.98512024360412 0.0 1.569799460797064 -9.48643152540048 0.0 1.6529049210278361 -10.074826323886521 0.0 1.6622954241105798 -10.762009492358 0.0 1.6203265964304001 -11.5315189530035 0.0 1.697331026500438 -12.37803464455236 0.0 2.048607506751288 -13.30253962757215 0.0 3.051545732208341 -14.302155951400039 0.0 4.42978328191918 -10.08096890291745 0.0 2.2285253772086 -10.62620132091245 0.0 2.399603241483535 -11.22108361837395 0.0 2.530632190211015 -12.00105235658772 0.0 2.5210769701044202 -13.044604177768898 0.0 2.34995748316909 -14.1873156191319 0.0 2.48976632628823 -15.43029953472176 0.0 3.503937171886536 -16.80238705406625 0.0 5.06152253258765 -11.16816582940926 0.0 3.0545154116981 -11.75697476947588 0.0 3.3039067882002753 -12.40133541355002 0.0 3.4962545332755597 -13.197627180813999 0.0 3.55573462309042 -14.247643029600459 0.0 3.478612271642959 -15.860482318081282 0.0 3.300988965315138 -17.519882769903358 0.0 4.01633972305424 -19.32275832026925 0.0 5.6727924060907 -12.199359100565319 0.0 4.03044620406176 -12.831010452068671 0.0 4.3790804377292 -13.52935784115958 0.0 4.61347626823888 -14.35538018855264 0.0 4.718411466724681 -15.46158240874864 0.0 4.62182002216416 -16.983106253733748 0.0 4.493066354295 -19.29993901359099 0.0 4.69157828613797 -21.60525806267264 0.0 6.104178855493441 -13.085916288430079 0.0 5.15943051538176 -13.7841215501421 0.0 5.64853245845565 -14.5317324211356 0.0 5.950991856721201 -15.416048477122562 0.0 6.06852640924416 -16.595236107225542 0.0 5.87223852125328 -18.3493568609925 0.0 5.34151585198875 -20.86481056912128 0.0 4.74600460740864 -23.5906957890174 0.0 6.001680226229761 -13.754326986448858 0.0 6.541795131453749 -14.39890370465478 0.0 7.211085174384659 -15.10706143573029 0.0 7.72072465222566 -15.9189308899899 0.0 8.04515448424578 -17.08163800632795 0.0 7.9840362057251095 -19.04278423847121 0.0 6.823589667536969 -22.161888939438 0.0 4.079481139143001 -24.97570529228622 0.0 5.37178899517299 -14.21344704011361 0.0 8.36888406589674 -14.8808818489617 0.0 9.3656360774889 -15.558401581212419 0.0 10.29028320577908 -16.277275924491242 0.0 11.09336641572276 -17.1080173350306 0.0 11.25575466128442 -18.813350803262402 0.0 8.01671583733056 -22.469737101604 0.0 3.6812833793615996 -25.29529202451576 0.0 5.11537448983704 -14.18992685701578 0.0 10.34012531907108 -14.87526887695686 0.0 11.718933942706949 -15.600580624332002 0.0 13.0200379589808 -16.22642213034375 0.0 14.22867449809375 -16.65643014977595 0.0 14.61487122606945 -17.6394201929517 0.0 9.5157593028498 -20.62091407341977 0.0 3.946467349025157 -21.832001288719677 0.0 5.52386120301724 -11.56605374181891 0.0 11.81665363786283 -12.248486759725019 0.0 13.42519425471553 -12.9548053494266 0.0 14.927917841758902 -13.60599096402931 0.0 16.352345751003778 -14.145897807424962 0.0 16.931492384166702 -14.385599003828801 0.0 10.7130680059237 -14.981804107208639 0.0 4.23761810636448 -15.398783988334388 0.0 6.1391226689975 -7.4189118281421 0.0 12.616646188008719 -7.88462185001364 0.0 14.275728895945681 -8.34694497056187 0.0 15.75770413175667 -8.7571806240558 0.0 17.04934550711556 -9.06874935598738 0.0 17.35826189867186 -9.11314649887831 0.0 10.731637929846329 -9.32461585883653 0.0 4.396079827691779 -9.521323940150879 0.0 6.666820165719999 -4.1188077262779 0.0 13.114981595841902 -4.37948635127544 0.0 14.772018388219887 -4.61920812576966 0.0 16.19274696605136 -4.80876357301968 0.0 17.33732955687996 -4.92385381091784 0.0 17.44658552930778 -4.88205942298824 0.0 10.63889933290104 -4.9116531468915 0.0 4.5640515533334 -4.94682768082975 0.0 7.204815125190241 -1.609653455749224 0.0 13.35843684916947 -1.7021644193387102 0.0 14.991777802194001 -1.7698001480981822 0.0 16.35268597938558 -1.800045347419436 0.0 17.39548908205274 -1.787177803849754 0.0 17.377474679919942 -1.69752904237677 0.0 10.5990553664262 -1.6500051806133038 0.0 4.7373797468044 -1.6068181487752609 0.0 7.64142203877666 0.440221457384176 0.0 13.39258605571725 0.486521032994344 0.0 14.9975514291423 0.553536774419788 0.0 16.31810568875356 0.63993804033664 0.0 17.318709913253798 0.738300451457191 0.0 17.28494950313782 0.847316350305375 0.0 10.66618442552685 0.93161245190805 0.0 4.90501636775535 1.012627495907382 0.0 7.90500559135626 2.361021705043234 0.0 13.25212127051622 2.529675472627717 0.0 14.829541436788352 2.714146206879812 0.0 16.1312260417717 2.901069121674925 0.0 17.14193652151705 3.073925232797376 0.0 17.17972488397224 3.180072991075344 0.0 10.74881393199936 3.327690239866023 0.0 5.019269610520199 3.467964260239578 0.0 7.92816931772514 4.31318361349062 0.0 12.957886027658219 4.5973078610073905 0.0 14.502962419416962 4.89636729158448 0.0 15.78584824763328 5.18632470415668 0.0 16.80494236661696 5.443426743737359 0.0 16.908823760598978 5.506364213318 0.0 10.742050632823 5.80053581918272 0.0 5.08318134095086 6.0414154196488 0.0 7.8478565816568 6.27201934037448 0.0 12.522169165412478 6.6673731505259 0.0 14.02376606049094 7.0820080210633005 0.0 15.277167383736051 7.48197350050716 0.0 16.28722123680691 7.836467375656141 0.0 16.43244302937087 7.77477005133335 0.0 10.502144096575389 8.3496002198965 0.0 5.1004748318845 8.69440234745516 0.0 7.66437273783528 8.114054875127 0.0 11.955453924179 8.61339217446742 0.0 13.39794008672427 9.13994584493984 0.0 14.605222239935038 9.650842843217161 0.0 15.58398502888842 10.107664928388001 0.0 15.7468604201478 9.92230918709868 0.0 10.11437358279012 10.778148901557119 0.0 5.05107234172323 11.26527253157664 0.0 7.41029294306736 9.700004754170239 0.0 11.272095589338639 10.29178315363068 0.0 12.63843156194554 10.91870199659728 0.0 13.78147117456464 11.531105066163759 0.0 14.70755570860576 12.08341083822244 0.0 14.870573436071801 11.6760260467422 0.0 9.5528438087214 12.908554432502042 0.0 4.9615482673941 13.599316684837259 0.0 7.25215927272561 10.652294277742511 0.0 10.49209979932096 11.394136149860001 0.0 11.77079548642718 12.19013044936456 0.0 12.83302413494619 12.976436448291821 0.0 13.686917825026383 13.554215382736 0.0 13.756760775718401 13.0105345931091 0.0 8.877297077211951 14.60674920779437 0.0 4.90042571045585 15.460587142020762 0.0 7.01384990704299 10.80220607872008 0.0 9.64577641244085 11.596328446950002 0.0 10.83179151323928 12.52471636042116 0.0 11.80709727204672 13.587967204424398 0.0 12.57303379416597 14.518125277688968 0.0 12.576331935246241 14.037227453264402 0.0 8.28703356606048 15.70563055035936 0.0 4.75136672415456 16.729681739452563 0.0 6.680342959220161 10.718791824241 0.0 8.77687942674115 11.52208761003673 0.0 9.857875511363941 12.4560102018625 0.0 10.737861089284 13.58089383985425 0.0 11.41522612818 14.87383274566644 0.0 11.48222019098648 14.85388531978328 0.0 7.80249237959868 16.5208132348378 0.0 4.5939523040124 17.6223509485758 0.0 6.306578581277799 10.51560021649556 0.0 7.914372214554319 11.324328816281 0.0 8.90181507776364 12.27353147627934 0.0 9.68093502063566 13.44487759723396 0.0 10.26166652403328 14.8177630935894 0.0 10.2775242743754 15.5325620758528 0.0 7.413115622970199 17.12871527579196 0.0 4.3778844370007395 18.36524586164575 0.0 5.885332349505 10.24472310080772 0.0 7.107332887296121 11.063399119311601 0.0 7.98714839092104 12.02762362035429 0.0 8.6845287100446 13.20346039032072 0.0 9.148137988462201 14.673127659016322 0.0 9.11898441783342 16.094406715292788 0.0 7.049377879778071 17.7491720122893 0.0 4.13473678435491 19.10877988759233 0.0 5.359884292651469 9.946339331580099 0.0 6.3485433343103095 10.77638228286434 0.0 7.137445325965319 11.7771791257395 0.0 7.78388415475275 12.962557186476879 0.0 8.17104468511008 14.538286842853 0.0 8.06488134918406 16.4588714349063 0.0 6.5186564198157 18.35831194450548 0.0 3.7353616190791734 20.081443663917373 0.0 4.733470637761011 9.61155975008546 0.0 5.63461309293028 10.464418915510981 0.0 6.3538814139236095 11.502012907886401 0.0 6.9077857192654 12.765255127785139 0.0 7.2958677172472 14.4458150980579 0.0 7.20804265094772 16.61717766492614 0.0 5.86312209794168 19.06022134436677 0.0 3.7378299374865334 21.59046944357875 0.0 4.525941102469931 9.2692342242617 0.0 4.96957241679794 10.14749895390726 0.0 5.61883088513064 11.2290910368784 0.0 6.12919614979872 12.67662416133659 0.0 6.497612638195769 14.461594208020161 0.0 6.4640818897472005 16.90543991891846 0.0 5.40421832530216 19.586129907730083 0.0 4.33219620692373 22.96165864892326 0.0 5.4972373661259 8.932747083201269 0.0 4.388771916850231 9.83921895877725 0.0 4.9489728145672505 11.01730386246 0.0 5.47622742708 12.60367432129404 0.0 5.8582632985092005 14.737244957399998 0.0 5.7393774754799995 17.4938044717296 0.0 4.84532554407006 20.49534504015948 0.0 4.72380436989018 24.39186813456036 0.0 6.101611355649901 8.614242290876101 0.0 3.834291809734764 9.5947942938939 0.0 4.36396980622365 10.92505822326522 0.0 4.88956737694824 12.804438356787601 0.0 5.18397747707439 15.404671398958412 0.0 4.75506458314029 18.20343295217889 0.0 4.351940837707709 21.401350269125402 0.0 4.91206269791376 8.37061126950894 0.0 3.33580414258819 9.467093129970749 0.0 3.846349482291075 11.02406544993376 0.0 4.3014339298392 13.2789004862955 0.0 4.36311876706125 16.02077494568432 0.0 4.11501206599168 18.845782087895 0.0 4.29986241994625 22.108292921691 0.0 5.2988064772285 8.23343484482718 0.0 2.9159969440156517 9.479459428419378 0.0 3.406599097794595 11.34805701779732 0.0 3.7304650713988887 13.881896953834419 0.0 3.835672077408635 16.6060895919105 0.0 3.9405488240794284 19.4762818270076 0.0 4.5618201406652 8.241121327011799 0.0 2.613241071279762 9.74119965060404 0.0 3.0621681555332216 11.96329311742735 0.0 3.388358235789085 14.575783060533682 0.0 3.6579481038596 17.276205946592782 0.0 4.144477024787601 20.03279906460176 0.0 4.97684006435584 8.54567347176022 0.0 2.458064336167604 10.462593843604001 0.0 2.9093215449523004 12.81499913708456 0.0 3.351801773116368 15.374562978097002 0.0 3.829453503742205 17.85804296815195 0.0 4.5013120136699 9.32873425189959 0.0 2.5726566055237083 11.4472334253396 0.0 3.06192455850414 13.68991170762018 0.0 3.6053216132372636 16.0483898333634 0.0 4.145578856722019 10.3786805121296 0.0 2.96668328410256 12.31036460541216 0.0 3.513812530598496 14.457399476758683 0.0 4.008720275551401 16.27410572774784 0.0 4.36518103539168 11.25970520923274 0.0 3.4318325063082713 13.00147496229998 0.0 3.8287489197633002 11.8096770990172 0.0 3.6312253615175205 
TENSORS Ellispoids float
0.01 0.0 0.0 0.0 0.01 0.0 0.0 0.0 0.01 0.01 0.0 0.0 0.0 0.01 0.0 0.0 0.0 0.01 0.01 0.0 0.0 0.0 0.01 0.0 0.0 0.0 0.01 0.01 0.0 0.0 0.0 0.01 0.0 0.0 0.0 0.01 0.01 0.0 0.0 0.0 0.01 0.0 0.0 0.0 0.01 0.01 0.0 0.0 0.0 0.01 0.0 0.0 0.0 0.01 0.01 0.0 0.0 0.0 0.01 0.0 0.0 0.0 0.01 0.01 0.0 0.0 0.0 0.01 0.0 0.0 0.0 0.01 0.01 0.0 0.0 0.0 0.01 0.0 0.0 0.0 0.01 0.01 0.0 0.0 0.0 0.01 0.0 0.0 0.0 0.01 0.01 0.0 0.0 0.0 0.01 0.0 0.0 0.0 0.01 0.01 0.0 0.0 0.0 0.01 0.0 0.0 0.0 0.01 0.01 0.0 0.0 0.0 0.01 0.0 0.0 0.0 0.01 0.01 0.0 0.0 0.0 0.01 0.0 0.0 0.0 0.01 0.01 0.0 0.0 0.0 0.01 0.0 0.0 0.0 0.01 0.01 0.0 0.0 0.0 0.01 0.0 0.0 0.0 0.01 0.01 0.0 0.0 0.0 0.01 0.0 0.0 0.0 0.01 0.01 0.0 0.0 0.0 0.01 0.0 0.0 0.0 0.01 0.01 0.0 0.0 0.0 0.01 0.0 0.0 0.0 0.01 0.01 0.0 0.0 0.0 0.01 0.0 0.0 0.0 0.01 0.01 0.0 0.0 0.0 0.01 0.0 0.0 0.0 0.01 0.01 0.0 0.0 0.0 0.01 0.0 0.0 0.0 0.01 0.01 0.0 0.0 0.0 0.01 0.0 0.0 0.0 0.01 0.01 0.0 0.0 0.0 0.01 0.0 0.0 0.0 0.01 0.01 0.0 0.0 0.0 0.01 0.0 0.0 0.0 0.01 0.01 0.0 0.0 0.0 0.01 0.0 0.0 0.0 0.01 0.01 0.0 0.0 0.0 0.01 0.0 0.0 0.0 0.01 0.01 0.0 0.0 0.0 0.01 0.0 0.0 0.0 0.01 0.01 0.0 0.0 0.0 0.01 0.0 0.0 0.0 0.01 0.01 0.0 0.0 0.0 0.01 0.0 0.0 0.0 0.01 0.01 0.0 0.0 0.0 0.01 0.0 0.0 0.0 0.01 0.01 0.0 0.0 0.0 0.01 0.0 0.0 0.0 0.01 0.01 0.0 0.0 0.0 0.01 0.0 0.0 0.0 0.01 0.01 0.0 0.0 0.0 0.01 0.0 0.0 0.0 0.01 0.01 0.0 0.0 0.0 0.01 0.0 0.0 0.0 0.01 0.01 0.0 0.0 0.0 0.01 0.0 0.0 0.0 0.01 0.01 0.0 0.0 0.0 0.01 0.0 0.0 0.0 0.01 0.01 0.0 0.0 0.0 0.01 0.0 0.0 0.0 0.01 0.01 0.0 0.0 0.0 0.01 0.0 0.0 0.0 0.01 0.01 0.0 0.0 0.0 0.01 0.0 0.0 0.0 0.01 0.01 0.0 0.0 0.0 0.01 0.0 0.0 0.0 0.01 0.01 0.0 0.0 0.0 0.01 0.0 0.0 0.0 0.01 0.01 0.0 0.0 0.0 0.01 0.0 0.0 0.0 0.01 0.01 0.0 0.0 0.0 0.01 0.0 0.0 0.0 0.01 0.01 0.0 0.0 0.0 0.01 0.0 0.0 0.0 0.01 0.01 0.0 0.0 0.0 0.01 0.0 0.0 0.0 0.01 0.01 0.0 0.0 0.0 0.01 0.0 0.0 0.0 0.01 0.01 0.0 0.0 0.0 0.01 0.0 0.0 0.0 0.01 0.01 0.0 0.0 0.0 0.01 0.0 0.0 0.0 0.01 0.01 0.0 0.0 0.0 0.01 0.0 0.0 0.0 0.01 0.01 0.0 0.0 0.0 0.01 0.0 0.0 0.0 0.01 0.01 0.0 0.0 0.0 0.01 0.0 0.0 0.0 0.01 0.01 0.0 0.0 0.0 0.01 0.0 0.0 0.0 0.01 0.01 0.0 0.0 0.0 0.01 0.0 0.0 0.0 0.01 0.01 0.0 0.0 0.0 0.01 0.0 0.0 0.0 0.01 0.01 0.0 0.0 0.0 0.01 0.0 0.0 0.0 0.01 0.01 0.0 0.0 0.0 0.01 0.0 0.0 0.0 0.01 0.01 0.0 0.0 0.0 0.01 0.0 0.0 0.0 0.01 0.01 0.0 0.0 0.0 0.01 0.0 0.0 0.0 0.01 0.01 0.0 0.0 0.0 0.01 0.0 0.0 0.0 0.01 0.01 0.0 0.0 0.0 0.01 0.0 0.0 0.0 0.01 0.01 0.0 0.0 0.0 0.01 0.0 0.0 0.0 0.01 0.01 0.0 0.0 0.0 0.01 0.0 0.0 0.0 0.01 0.01 0.0 0.0 0.0 0.01 0.0 0.0 0.0 0.01 0.01 0.0 0.0 0.0 0.01 0.0 0.0 0.0 0.01 0.01 0.0 0.0 0.0 0.01 0.0 0.0 0.0 0.01 0.01 0.0 0.0 0.0 0.01 0.0 0.0 0.0 0.01 0.01 0.0 0.0 0.0 0.01 0.0 0.0 0.0 0.01 0.01 0.0 0.0 0.0 0.01 0.0 0.0 0.0 0.01 0.01 0.0 0.0 0.0 0.01 0.0 0.0 0.0 0.01 0.01 0.0 0.0 0.0 0.01 0.0 0.0 0.0 0.01 0.01 0.0 0.0 0.0 0.01 0.0 0.0 0.0 0.01 0.01 0.0 0.0 0.0 0.01 0.0 0.0 0.0 0.01 0.01 0.0 0.0 0.0 0.01 0.0 0.0 0.0 0.01 0.01 0.0 0.0 0.0 0.01 0.0 0.0 0.0 0.01 0.01 0.0 0.0 0.0 0.01 0.0 0.0 0.0 0.01 0.01 0.0 0.0 0.0 0.01 0.0 0.0 0.0 0.01 0.01 0.0 0.0 0.0 0.01 0.0 0.0 0.0 0.01 0.01 0.0 0.0 0.0 0.01 0.0 0.0 0.0 0.01 0.01 0.0 0.0 0.0 0.01 0.0 0.0 0.0 0.01 0.01 0.0 0.0 0.0 0.01 0.0 0.0 0.0 0.01 0.01 0.0 0.0 0.0 0.01 0.0 0.0 0.0 0.01 0.01 0.0 0.0 0.0 0.01 0.0 0.0 0.0 0.01 0.01 0.0 0.0 0.0 0.01 0.0 0.0 0.0 0.01 0.01 0.0 0.0 0.0 0.01 0.0 0.0 0.0 0.01 0.01 0.0 0.0 0.0 0.01 0.0 0.0 0.0 0.01 0.01 0.0 0.0 0.0 0.01 0.0 0.0 0.0 0.01 0.01 0.0 0.0 0.0 0.01 0.0 0.0 0.0 0.01 0.01 0.0 0.0 0.0 0.01 0.0 0.0 0.0 0.01 0.01 0.0 0.0 0.0 0.01 0.0 0.0 0.0 0.01 0.01 0.0 0.0 0.0 0.01 0.0 0.0 0.0 0.01 0.01 0.0 0.0 0.0 0.01 0.0 0.0 0.0 0.01 0.01 0.0 0.0 0.0 0.01 0.0 0.0 0.0 0.01 0.01 0.0 0.0 0.0 0.01 0.0 0.0 0.0 0.01 0.01 0.0 0.0 0.0 0.01 0.0 0.0 0.0 0.01 0.01 0.0 0.0 0.0 0.01 0.0 0.0 0.0 0.01 0.01 0.0 0.0 0.0 0.01 0.0 0.0 0.0 0.01 0.01 0.0 0.0 0.0 0.01 0.0 0.0 0.0 0.01 0.01 0.0 0.0 0.0 0.01 0.0 0.0 0.0 0.01 0.01 0.0 0.0 0.0 0.01 0.0 0.0 0.0 0.01 0.01 0.0 0.0 0.0 0.01 0.0 0.0 0.0 0.01 0.01 0.0 0.0 0.0 0.01 0.0 0.0 0.0 0.01 0.01 0.0 0.0 0.0 0.01 0.0 0.0 0.0 0.01 0.01 0.0 0.0 0.0 0.01 0.0 0.0 0.0 0.01 0.01 0.0 0.0 0.0 0.01 0.0 0.0 0.0 0.01 0.01 0.0 0.0 0.0 0.01 0.0 0.0 0.0 0.01 0.01 0.0 0.0 0.0 0.01 0.0 0.0 0.0 0.01 0.01 0.0 0.0 0.0 0.01 0.0 0.0 0.0 0.01 0.01 0.0 0.0 0.0 0.01 0.0 0.0 0.0 0.01 0.01 0.0 0.0 0.0 0.01 0.0 0.0 0.0 0.01 0.01 0.0 0.0 0.0 0.01 0.0 0.0 0.0 0.01 0.01 0.0 0.0 0.0 0.01 0.0 0.0 0.0 0.01 0.01 0.0 0.0 0.0 0.01 0.0 0.0 0.0 0.01 0.01 0.0 0.0 0.0 0.01 0.0 0.0 0.0 0.01 0.01 0.0 0.0 0.0 0.01 0.0 0.0 0.0 0.01 0.01 0.0 0.0 0.0 0.01 0.0 0.0 0.0 0.01 0.01 0.0 0.0 0.0 0.01 0.0 0.0 0.0 0.01 0.01 0.0 0.0 0.0 0.01 0.0 0.0 0.0 0.01 0.01 0.0 0.0 0.0 0.01 0.0 0.0 0.0 0.01 0.01 0.0 0.0 0.0 0.01 0.0 0.0 0.0 0.01 0.01 0.0 0.0 0.0 0.01 0.0 0.0 0.0 0.01 0.01 0.0 0.0 0.0 0.01 0.0 0.0 0.0 0.01 0.01 0.0 0.0 0.0 0.01 0.0 0.0 0.0 0.01 0.01 0.0 0.0 0.0 0.01 0.0 0.0 0.0 0.01 0.01 0.0 0.0 0.0 0.01 0.0 0.0 0.0 0.01 0.01 0.0 0.0 0.0 0.01 0.0 0.0 0.0 0.01 0.01 0.0 0.0 0.0 0.01 0.0 0.0 0.0 0.01 0.01 0.0 0.0 0.0 0.01 0.0 0.0 0.0 0.01 0.01 0.0 0.0 0.0 0.01 0.0 0.0 0.0 0.01 0.01 0.0 0.0 0.0 0.01 0.0 0.0 0.0 0.01 0.01 0.0 0.0 0.0 0.01 0.0 0.0 0.0 0.01 0.01 0.0 0.0 0.0 0.01 0.0 0.0 0.0 0.01 0.01 0.0 0.0 0.0 0.01 0.0 0.0 0.0 0.01 0.01 0.0 0.0 0.0 0.01 0.0 0.0 0.0 0.01 0.01 0.0 0.0 0.0 0.01 0.0 0.0 0.0 0.01 0.01 0.0 0.0 0.0 0.01 0.0 0.0 0.0 0.01 0.01 0.0 0.0 0.0 0.01 0.0 0.0 0.0 0.01 0.01 0.0 0.0 0.0 0.01 0.0 0.0 0.0 0.01 0.01 0.0 0.0 0.0 0.01 0.0 0.0 0.0 0.01 0.01 0.0 0.0 0.0 0.01 0.0 0.0 0.0 0.01 0.01 0.0 0.0 0.0 0.01 0.0 0.0 0.0 0.01 0.01 0.0 0.0 0.0 0.01 0.0 0.0 0.0 0.01 0.01 0.0 0.0 0.0 0.01 0.0 0.0 0.0 0.01 0.01 0.0 0.0 0.0 0.01 0.0 0.0 0.0 0.01 0.01 0.0 0.0 0.0 0.01 0.0 0.0 0.0 0.01 0.01 0.0 0.0 0.0 0.01 0.0 0.0 0.0 0.01 0.01 0.0 0.0 0.0 0.01 0.0 0.0 0.0 0.01 0.01 0.0 0.0 0.0 0.01 0.0 0.0 0.0 0.01 0.01 0.0 0.0 0.0 0.01 0.0 0.0 0.0 0.01 0.01 0.0 0.0 0.0 0.01 0.0 0.0 0.0 0.01 0.01 0.0 0.0 0.0 0.01 0.0 0.0 0.0 0.01 0.01 0.0 0.0 0.0 0.01 0.0 0.0 0.0 0.01 0.01 0.0 0.0 0.0 0.01 0.0 0.0 0.0 0.01 0.01 0.0 0.0 0.0 0.01 0.0 0.0 0.0 0.01 0.01 0.0 0.0 0.0 0.01 0.0 0.0 0.0 0.01 0.01 0.0 0.0 0.0 0.01 0.0 0.0 0.0 0.01 0.01 0.0 0.0 0.0 0.01 0.0 0.0 0.0 0.01 0.01 0.0 0.0 0.0 0.01 0.0 0.0 0.0 0.01 0.01 0.0 0.0 0.0 0.01 0.0 0.0 0.0 0.01 0.01 0.0 0.0 0.0 0.01 0.0 0.0 0.0 0.01 0.01 0.0 0.0 0.0 0.01 0.0 0.0 0.0 0.01 0.01 0.0 0.0 0.0 0.01 0.0 0.0 0.0 0.01 0.01 0.0 0.0 0.0 0.01 0.0 0.0 0.0 0.01 0.01 0.0 0.0 0.0 0.01 0.0 0.0 0.0 0.01 0.01 0.0 0.0 0.0 0.01 0.0 0.0 0.0 0.01 0.01 0.0 0.0 0.0 0.01 0.0 0.0 0.0 0.01 0.01 0.0 0.0 0.0 0.01 0.0 0.0 0.0 0.01 0.01 0.0 0.0 0.0 0.01 0.0 0.0 0.0 0.01 0.01 0.0 0.0 0.0 0.01 0.0 0.0 0.0 0.01 0.01 0.0 0.0 0.0 0.01 0.0 0.0 0.0 0.01 0.01 0.0 0.0 0.0 0.01 0.0 0.0 0.0 0.01 0.01 0.0 0.0 0.0 0.01 0.0 0.0 0.0 0.01 0.01 0.0 0.0 0.0 0.01 0.0 0.0 0.0 0.01 0.01 0.0 0.0 0.0 0.01 0.0 0.0 0.0 0.01 0.01 0.0 0.0 0.0 0.01 0.0 0.0 0.0 0.01 0.01 0.0 0.0 0.0 0.01 0.0 0.0 0.0 0.01 0.01 0.0 0.0 0.0 0.01 0.0 0.0 0.0 0.01 0.01 0.0 0.0 0.0 0.01 0.0 0.0 0.0 0.01 0.01 0.0 0.0 0.0 0.01 0.0 0.0 0.0 0.01 0.01 0.0 0.0 0.0 0.01 0.0 0.0 0.0 0.01 0.01 0.0 0.0 0.0 0.01 0.0 0.0 0.0 0.01 0.01 0.0 0.0 0.0 0.01 0.0 0.0 0.0 0.01 0.01 0.0 0.0 0.0 0.01 0.0 0.0 0.0 0.01 0.01 0.0 0.0 0.0 0.01 0.0 0.0 0.0 0.01 0.01 0.0 0.0 0.0 0.01 0.0 0.0 0.0 0.01 0.01 0.0 0.0 0.0 0.01 0.0 0.0 0.0 0.01 0.01 0.0 0.0 0.0 0.01 0.0 0.0 0.0 0.01 0.01 0.0 0.0 0.0 0.01 0.0 0.0 0.0 0.01 0.01 0.0 0.0 0.0 0.01 0.0 0.0 0.0 0.01 0.01 0.0 0.0 0.0 0.01 0.0 0.0 0.0 0.01 0.01 0.0 0.0 0.0 0.01 0.0 0.0 0.0 0.01 0.01 0.0 0.0 0.0 0.01 0.0 0.0 0.0 0.01 0.01 0.0 0.0 0.0 0.01 0.0 0.0 0.0 0.01 0.01 0.0 0.0 0.0 0.01 0.0 0.0 0.0 0.01 0.01 0.0 0.0 0.0 0.01 0.0 0.0 0.0 0.01 0.01 0.0 0.0 0.0 0.01 0.0 0.0 0.0 0.01 0.01 0.0 0.0 0.0 0.01 0.0 0.0 0.0 0.01 0.01 0.0 0.0 0.0 0.01 0.0 0.0 0.0 0.01 0.01 0.0 0.0 0.0 0.01 0.0 0.0 0.0 0.01 0.01 0.0 0.0 0.0 0.01 0.0 0.0 0.0 0.01 0.01 0.0 0.0 0.0 0.01 0.0 0.0 0.0 0.01 0.01 0.0 0.0 0.0 0.01 0.0 0.0 0.0 0.01 0.01 0.0 0.0 0.0 0.01 0.0 0.0 0.0 0.01 0.01 0.0 0.0 0.0 0.01 0.0 0.0 0.0 0.01 0.01 0.0 0.0 0.0 0.01 0.0 0.0 0.0 0.01 0.01 0.0 0.0 0.0 0.01 0.0 0.0 0.0 0.01 0.01 0.0 0.0 0.0 0.01 0.0 0.0 0.0 0.01 0.01 0.0 0.0 0.0 0.01 0.0 0.0 0.0 0.01 0.01 0.0 0.0 0.0 0.01 0.0 0.0 0.0 0.01 0.01 0.0 0.0 0.0 0.01 0.0 0.0 0.0 0.01 0.01 0.0 0.0 0.0 0.01 0.0 0.0 0.0 0.01 0.01 0.0 0.0 0.0 0.01 0.0 0.0 0.0 0.01 0.01 0.0 0.0 0.0 0.01 0.0 0.0 0.0 0.01 0.01 0.0 0.0 0.0 0.01 0.0 0.0 0.0 0.01 0.01 0.0 0.0 0.0 0.01 0.0 0.0 0.0 0.01 0.01 0.0 0.0 0.0 0.01 0.0 0.0 0.0 0.01 0.01 0.0 0.0 0.0 0.01 0.0 0.0 0.0 0.01 0.01 0.0 0.0 0.0 0.01 0.0 0.0 0.0 0.01 0.01 0.0 0.0 0.0 0.01 0.0 0.0 0.0 0.01 0.01 0.0 0.0 0.0 0.01 0.0 0.0 0.0 0.01 0.01 0.0 0.0 0.0 0.01 0.0 0.0 0.0 0.01 0.01 0.0 0.0 0.0 0.01 0.0 0.0 0.0 0.01 0.01 0.0 0.0 0.0 0.01 0.0 0.0 0.0 0.01 0.01 0.0 0.0 0.0 0.01 0.0 0.0 0.0 0.01 0.01 0.0 0.0 0.0 0.01 0.0 0.0 0.0 0.01 0.01 0.0 0.0 0.0 0.01 0.0 0.0 0.0 0.01 0.01 0.0 0.0 0.0 0.01 0.0 0.0 0.0 0.01 0.01 0.0 0.0 0.0 0.01 0.0 0.0 0.0 0.01 0.01 0.0 0.0 0.0 0.01 0.0 0.0 0.0 0.01 0.01 0.0 0.0 0.0 0.01 0.0 0.0 0.0 0.01 0.01 0.0 0.0 0.0 0.01 0.0 0.0 0.0 0.01 0.01 0.0 0.0 0.0 0.01 0.0 0.0 0.0 0.01 0.01 0.0 0.0 0.0 0.01 0.0 0.0 0.0 0.01 0.01 0.0 0.0 0.0 0.01 0.0 0.0 0.0 0.01 0.01 0.0 0.0 0.0 0.01 0.0 0.0 0.0 0.01 0.01 0.0 0.0 0.0 0.01 0.0 0.0 0.0 0.01 0.01 0.0 0.0 0.0 0.01 0.0 0.0 0.0 0.01 0.01 0.0 0.0 0.0 0.01 0.0 0.0 0.0 0.01 0.01 0.0 0.0 0.0 0.01 0.0 0.0 0.0 0.01 0.01 0.0 0.0 0.0 0.01 0.0 0.0 0.0 0.01 0.01 0.0 0.0 0.0 0.01 0.0 0.0 0.0 0.01 0.01 0.0 0.0 0.0 0.01 0.0 0.0 0.0 0.01 0.01 0.0 0.0 0.0 0.01 0.0 0.0 0.0 0.01 0.01 0.0 0.0 0.0 0.01 0.0 0.0 0.0 0.01 0.01 0.0 0.0 0.0 0.01 0.0 0.0 0.0 0.01 0.01 0.0 0.0 0.0 0.01 0.0 0.0 0.0 0.01 0.01 0.0 0.0 0.0 0.01 0.0 0.0 0.0 0.01 0.01 0.0 0.0 0.0 0.01 0.0 0.0 0.0 0.01 0.01 0.0 0.0 0.0 0.01 0.0 0.0 0.0 0.01 0.01 0.0 0.0 0.0 0.01 0.0 0.0 0.0 0.01 0.01 0.0 0.0 0.0 0.01 0.0 0.0 0.0 0.01 0.01 0.0 0.0 0.0 0.01 0.0 0.0 0.0 0.01 0.01 0.0 0.0 0.0 0.01 0.0 0.0 0.0 0.01 0.01 0.0 0.0 0.0 0.01 0.0 0.0 0.0 0.01 0.01 0.0 0.0 0.0 0.01 0.0 0.0 0.0 0.01 0.01 0.0 0.0 0.0 0.01 0.0 0.0 0.0 0.01 0.01 0.0 0.0 0.0 0.01 0.0 0.0 0.0 0.01 0.01 0.0 0.0 0.0 0.01 0.0 0.0 0.0 0.01 0.01 0.0 0.0 0.0 0.01 0.0 0.0 0.0 0.01 0.01 0.0 0.0 0.0 0.01 0.0 0.0 0.0 0.01 0.01 0.0 0.0 0.0 0.01 0.0 0.0 0.0 0.01 0.01 0.0 0.0 0.0 0.01 0.0 0.0 0.0 0.01 0.01 0.0 0.0 0.0 0.01 0.0 0.0 0.0 0.01 0.01 0.0 0.0 0.0 0.01 0.0 0.0 0.0 0.01 0.01 0.0 0.0 0.0 0.01 0.0 0.0 0.0 0.01 0.01 0.0 0.0 0.0 0.01 0.0 0.0 0.0 0.01 0.01 0.0 0.0 0.0 0.01 0.0 0.0 0.0 0.01 0.01 0.0 0.0 0.0 0.01 0.0 0.0 0.0 0.01 0.01 0.0 0.0 0.0 0.01 0.0 0.0 0.0 0.01 0.01 0.0 0.0 0.0 0.01 0.0 0.0 0.0 0.01 0.01 0.0 0.0 0.0 0.01 0.0 0.0 0.0 0.01 0.01 0.0 0.0 0.0 0.01 0.0 0.0 0.0 0.01 0.01 0.0 0.0 0.0 0.01 0.0 0.0 0.0 0.01 0.01 0.0 0.0 0.0 0.01 0.0 0.0 0.0 0.01 0.01 0.0 0.0 0.0 0.01 0.0 0.0 0.0 0.01 0.01 0.0 0.0 0.0 0.01 0.0 0.0 0.0 0.01 0.01 0.0 0.0 0.0 0.01 0.0 0.0 0.0 0.01 0.01 0.0 0.0 0.0 0.01 0.0 0.0 0.0 0.01 0.01 0.0 0.0 0.0 0.01 0.0 0.0 0.0 0.01 0.01 0.0 0.0 0.0 0.01 0.0 0.0 0.0 0.01 0.01 0.0 0.0 0.0 0.01 0.0 0.0 0.0 0.01 0.01 0.0 0.0 0.0 0.01 0.0 0.0 0.0 0.01 0.01 0.0 0.0 0.0 0.01 0.0 0.0 0.0 0.01 0.01 0.0 0.0 0.0 0.01 0.0 0.0 0.0 0.01 0.01 0.0 0.0 0.0 0.01 0.0 0.0 0.0 0.01 0.01 0.0 0.0 0.0 0.01 0.0 0.0 0.0 0.01 0.01 0.0 0.0 0.0 0.01 0.0 0.0 0.0 0.01 0.01 0.0 0.0 0.0 0.01 0.0 0.0 0.0 0.01 0.01 0.0 0.0 0.0 0.01 0.0 0.0 0.0 0.01 0.01 0.0 0.0 0.0 0.01 0.0 0.0 0.0 0.01 0.01 0.0 0.0 0.0 0.01 0.0 0.0 0.0 0.01 0.01 0.0 0.0 0.0 0.01 0.0 0.0 0.0 0.01 0.01 0.0 0.0 0.0 0.01 0.0 0.0 0.0 0.01 0.01 0.0 0.0 0.0 0.01 0.0 0.0 0.0 0.01 0.01 0.0 0.0 0.0 0.01 0.0 0.0 0.0 0.01 0.01 0.0 0.0 0.0 0.01 0.0 0.0 0.0 0.01 0.01 0.0 0.0 0.0 0.01 0.0 0.0 0.0 0.01 0.01 0.0 0.0 0.0 0.01 0.0 0.0 0.0 0.01 0.01 0.0 0.0 0.0 0.01 0.0 0.0 0.0 0.01 0.01 0.0 0.0 0.0 0.01 0.0 0.0 0.0 0.01 0.01 0.0 0.0 0.0 0.01 0.0 0.0 0.0 0.01 0.01 0.0 0.0 0.0 0.01 0.0 0.0 0.0 0.01 0.01 0.0 0.0 0.0 0.01 0.0 0.0 0.0 0.01 0.01 0.0 0.0 0.0 0.01 0.0 0.0 0.0 0.01 0.01 0.0 0.0 0.0 0.01 0.0 0.0 0.0 0.01 0.01 0.0 0.0 0.0 0.01 0.0 0.0 0.0 0.01 0.01 0.0 0.0 0.0 0.01 0.0 0.0 0.0 0.01 0.01 0.0 0.0 0.0 0.01 0.0 0.0 0.0 0.01 0.01 0.0 0.0 0.0 0.01 0.0 0.0 0.0 0.01 0.01 0.0 0.0 0.0 0.01 0.0 0.0 0.0 0.01 0.01 0.0 0.0 0.0 0.01 0.0 0.0 0.0 0.01 0.01 0.0 0.0 0.0 0.01 0.0 0.0 0.0 0.01 0.01 0.0 0.0 0.0 0.01 0.0 0.0 0.0 0.01 0.01 0.0 0.0 0.0 0.01 0.0 0.0 0.0 0.01 0.01 0.0 0.0 0.0 0.01 0.0 0.0 0.0 0.01 0.01 0.0 0.0 0.0 0.01 0.0 0.0 0.0 0.01 0.01 0.0 0.0 0.0 0.01 0.0 0.0 0.0 0.01 0.01 0.0 0.0 0.0 0.01 0.0 0.0 0.0 0.01 0.01 0.0 0.0 0.0 0.01 0.0 0.0 0.0 0.01 0.01 0.0 0.0 0.0 0.01 0.0 0.0 0.0 0.01 0.01 0.0 0.0 0.0 0.01 0.0 0.0 0.0 0.01 0.01 0.0 0.0 0.0 0.01 0.0 0.0 0.0 0.01 0.01 0.0 0.0 0.0 0.01 0.0 0.0 0.0 0.01 0.01 0.0 0.0 0.0 0.01 0.0 0.0 0.0 0.01 0.01 0.0 0.0 0.0 0.01 0.0 0.0 0.0 0.01 0.01 0.0 0.0 0.0 0.01 0.0 0.0 0.0 0.01 0.01 0.0 0.0 0.0 0.01 0.0 0.0 0.0 0.01 0.01 0.0 0.0 0.0 0.01 0.0 0.0 0.0 0.01 0.01 0.0 0.0 0.0 0.01 0.0 0.0 0.0 0.01 0.01 0.0 0.0 0.0 0.01 0.0 0.0 0.0 0.01 0.01 0.0 0.0 0.0 0.01 0.0 0.0 0.0 0.01 0.01 0.0 0.0 0.0 0.01 0.0 0.0 0.0 0.01 0.01 0.0 0.0 0.0 0.01 0.0 0.0 0.0 0.01 0.01 0.0 0.0 0.0 0.01 0.0 0.0 0.0 0.01 0.01 0.0 0.0 0.0 0.01 0.0 0.0 0.0 0.01 0.01 0.0 0.0 0.0 0.01 0.0 0.0 0.0 0.01 0.01 0.0 0.0 0.0 0.01 0.0 0.0 0.0 0.01 0.01 0.0 0.0 0.0 0.01 0.0 0.0 0.0 0.01 0.01 0.0 0.0 0.0 0.01 0.0 0.0 0.0 0.01 0.01 0.0 0.0 0.0 0.01 0.0 0.0 0.0 0.01 0.01 0.0 0.0 0.0 0.01 0.0 0.0 0.0 0.01 0.01 0.0 0.0 0.0 0.01 0.0 0.0 0.0 0.01 0.01 0.0 0.0 0.0 0.01 0.0 0.0 0.0 0.01 0.01 0.0 0.0 0.0 0.01 0.0 0.0 0.0 0.01 0.01 0.0 0.0 0.0 0.01 0.0 0.0 0.0 0.01 0.01 0.0 0.0 0.0 0.01 0.0 0.0 0.0 0.01 0.01 0.0 0.0 0.0 0.01 0.0 0.0 0.0 0.01 0.01 0.0 0.0 0.0 0.01 0.0 0.0 0.0 0.01 0.01 0.0 0.0 0.0 0.01 0.0 0.0 0.0 0.01 0.01 0.0 0.0 0.0 0.01 0.0 0.0 0.0 0.01 0.01 0.0 0.0 0.0 0.01 0.0 0.0 0.0 0.01 0.01 0.0 0.0 0.0 0.01 0.0 0.0 0.0 0.01 0.01 0.0 0.0 0.0 0.01 0.0 0.0 0.0 0.01 0.01 0.0 0.0 0.0 0.01 0.0 0.0 0.0 0.01 0.01 0.0 0.0 0.0 0.01 0.0 0.0 0.0 0.01 0.01 0.0 0.0 0.0 0.01 0.0 0.0 0.0 0.01 0.01 0.0 0.0 0.0 0.01 0.0 0.0 0.0 0.01 0.01 0.0 0.0 0.0 0.01 0.0 0.0 0.0 0.01 0.01 0.0 0.0 0.0 0.01 0.0 0.0 0.0 0.01 0.01 0.0 0.0 0.0 0.01 0.0 0.0 0.0 0.01 0.01 0.0 0.0 0.0 0.01 0.0 0.0 0.0 0.01 0.01 0.0 0.0 0.0 0.01 0.0 0.0 0.0 0.01 0.01 0.0 0.0 0.0 0.01 0.0 0.0 0.0 0.01 0.01 0.0 0.0 0.0 0.01 0.0 0.0 0.0 0.01 0.01 0.0 0.0 0.0 0.01 0.0 0.0 0.0 0.01 0.01 0.0 0.0 0.0 0.01 0.0 0.0 0.0 0.01 0.01 0.0 0.0 0.0 0.01 0.0 0.0 0.0 0.01 0.01 0.0 0.0 0.0 0.01 0.0 0.0 0.0 0.01 0.01 0.0 0.0 0.0 0.01 0.0 0.0 0.0 0.01 0.01 0.0 0.0 0.0 0.01 0.0 0.0 0.0 0.01 0.01 0.0 0.0 0.0 0.01 0.0 0.0 0.0 0.01 0.01 0.0 0.0 0.0 0.01 0.0 0.0 0.0 0.01 0.01 0.0 0.0 0.0 0.01 0.0 0.0 0.0 0.01 0.01 0.0 0.0 0.0 0.01 0.0 0.0 0.0 0.01 0.01 0.0 0.0 0.0 0.01 0.0 0.0 0.0 0.01 0.01 0.0 0.0 0.0 0.01 0.0 0.0 0.0 0.01 0.01 0.0 0.0 0.0 0.01 0.0 0.0 0.0 0.01 0.01 0.0 0.0 0.0 0.01 0.0 0.0 0.0 0.01 0.01 0.0 0.0 0.0 0.01 0.0 0.0 0.0 0.01 0.01 0.0 0.0 0.0 0.01 0.0 0.0 0.0 0.01 0.01 0.0 0.0 0.0 0.01 0.0 0.0 0.0 0.01 0.01 0.0 0.0 0.0 0.01 0.0 0.0 0.0 0.01 0.01 0.0 0.0 0.0 0.01 0.0 0.0 0.0 0.01 0.01 0.0 0.0 0.0 0.01 0.0 0.0 0.0 0.01 0.01 0.0 0.0 0.0 0.01 0.0 0.0 0.0 0.01 0.01 0.0 0.0 0.0 0.01 0.0 0.0 0.0 0.01 0.01 0.0 0.0 0.0 0.01 0.0 0.0 0.0 0.01 0.01 0.0 0.0 0.0 0.01 0.0 0.0 0.0 0.01 0.01 0.0 0.0 0.0 0.01 0.0 0.0 0.0 0.01 0.01 0.0 0.0 0.0 0.01 0.0 0.0 0.0 0.01 0.01 0.0 0.0 0.0 0.01 0.0 0.0 0.0 0.01 0.01 0.0 0.0 0.0 0.01 0.0 0.0 0.0 0.01 0.01 0.0 0.0 0.0 0.01 0.0 0.0 0.0 0.01 0.01 0.0 0.0 0.0 0.01 0.0 0.0 0.0 0.01 0.01 0.0 0.0 0.0 0.01 0.0 0.0 0.0 0.01 0.01 0.0 0.0 0.0 0.01 0.0 0.0 0.0 0.01 0.01 0.0 0.0 0.0 0.01 0.0 0.0 0.0 0.01 0.01 0.0 0.0 0.0 0.01 0.0 0.0 0.0 0.01 0.01 0.0 0.0 0.0 0.01 0.0 0.0 0.0 0.01 0.01 0.0 0.0 0.0 0.01 0.0 0.0 0.0 0.01 0.01 0.0 0.0 0.0 0.01 0.0 0.0 0.0 0.01 0.01 0.0 0.0 0.0 0.01 0.0 0.0 0.0 0.01 0.01 0.0 0.0 0.0 0.01 0.0 0.0 0.0 0.01 0.01 0.0 0.0 0.0 0.01 0.0 0.0 0.0 0.01 0.01 0.0 0.0 0.0 0.01 0.0 0.0 0.0 0.01 0.01 0.0 0.0 0.0 0.01 0.0 0.0 0.0 0.01 0.01 0.0 0.0 0.0 0.01 0.0 0.0 0.0 0.01 0.01 0.0 0.0 0.0 0.01 0.0 0.0 0.0 0.01 0.01 0.0 0.0 0.0 0.01 0.0 0.0 0.0 0.01 0.01 0.0 0.0 0.0 0.01 0.0 0.0 0.0 0.01 0.01 0.0 0.0 0.0 0.01 0.0 0.0 0.0 0.01 0.01 0.0 0.0 0.0 0.01 0.0 0.0 0.0 0.01 0.01 0.0 0.0 0.0 0.01 0.0 0.0 0.0 0.01 0.01 0.0 0.0 0.0 0.01 0.0 0.0 0.0 0.01 0.01 0.0 0.0 0.0 0.01 0.0 0.0 0.0 0.01 0.01 0.0 0.0 0.0 0.01 0.0 0.0 0.0 0.01 0.01 0.0 0.0 0.0 0.01 0.0 0.0 0.0 0.01 0.01 0.0 0.0 0.0 0.01 0.0 0.0 0.0 0.01 0.01 0.0 0.0 0.0 0.01 0.0 0.0 0.0 0.01 0.01 0.0 0.0 0.0 0.01 0.0 0.0 0.0 0.01 0.01 0.0 0.0 0.0 0.01 0.0 0.0 0.0 0.01 0.01 0.0 0.0 0.0 0.01 0.0 0.0 0.0 0.01 0.01 0.0 0.0 0.0 0.01 0.0 0.0 0.0 0.01 0.01 0.0 0.0 0.0 0.01 0.0 0.0 0.0 0.01 0.01 0.0 0.0 0.0 0.01 0.0 0.0 0.0 0.01 0.01 0.0 0.0 0.0 0.01 0.0 0.0 0.0 0.01 0.01 0.0 0.0 0.0 0.01 0.0 0.0 0.0 0.01 0.01 0.0 0.0 0.0 0.01 0.0 0.0 0.0 0.01 0.01 0.0 0.0 0.0 0.01 0.0 0.0 0.0 0.01 0.01 0.0 0.0 0.0 0.01 0.0 0.0 0.0 0.01 0.01 0.0 0.0 0.0 0.01 0.0 0.0 0.0 0.01 0.01 0.0 0.0 0.0 0.01 0.0 0.0 0.0 0.01 0.01 0.0 0.0 0.0 0.01 0.0 0.0 0.0 0.01 0.01 0.0 0.0 0.0 0.01 0.0 0.0 0.0 0.01 0.01 0.0 0.0 0.0 0.01 0.0 0.0 0.0 0.01 0.01 0.0 0.0 0.0 0.01 0.0 0.0 0.0 0.01 0.01 0.0 0.0 0.0 0.01 0.0 0.0 0.0 0.01 0.01 0.0 0.0 0.0 0.01 0.0 0.0 0.0 0.01 0.01 0.0 0.0 0.0 0.01 0.0 0.0 0.0 0.01 0.01 0.0 0.0 0.0 0.01 0.0 0.0 0.0 0.01 0.01 0.0 0.0 0.0 0.01 0.0 0.0 0.0 0.01 0.01 0.0 0.0 0.0 0.01 0.0 0.0 0.0 0.01 0.01 0.0 0.0 0.0 0.01 0.0 0.0 0.0 0.01 0.01 0.0 0.0 0.0 0.01 0.0 0.0 0.0 0.01 0.01 0.0 0.0 0.0 0.01 0.0 0.0 0.0 0.01 0.01 0.0 0.0 0.0 0.01 0.0 0.0 0.0 0.01 0.01 0.0 0.0 0.0 0.01 0.0 0.0 0.0 0.01 0.01 0.0 0.0 0.0 0.01 0.0 0.0 0.0 0.01 0.01 0.0 0.0 0.0 0.01 0.0 0.0 0.0 0.01 0.01 0.0 0.0 0.0 0.01 0.0 0.0 0.0 0.01 0.01 0.0 0.0 0.0 0.01 0.0 0.0 0.0 0.01 0.01 0.0 0.0 0.0 0.01 0.0 0.0 0.0 0.01 0.01 0.0 0.0 0.0 0.01 0.0 0.0 0.0 0.01 0.01 0.0 0.0 0.0 0.01 0.0 0.0 0.0 0.01 0.01 0.0 0.0 0.0 0.01 0.0 0.0 0.0 0.01 0.01 0.0 0.0 0.0 0.01 0.0 0.0 0.0 0.01 0.01 0.0 0.0 0.0 0.01 0.0 0.0 0.0 0.01 0.01 0.0 0.0 0.0 0.01 0.0 0.0 0.0 0.01 0.01 0.0 0.0 0.0 0.01 0.0 0.0 0.0 0.01 0.01 0.0 0.0 0.0 0.01 0.0 0.0 0.0 0.01 0.01 0.0 0.0 0.0 0.01 0.0 0.0 0.0 0.01 0.01 0.0 0.0 0.0 0.01 0.0 0.0 0.0 0.01 0.01 0.0 0.0 0.0 0.01 0.0 0.0 0.0 0.01 0.01 0.0 0.0 0.0 0.01 0.0 0.0 0.0 0.01 0.01 0.0 0.0 0.0 0.01 0.0 0.0 0.0 0.01 0.01 0.0 0.0 0.0 0.01 0.0 0.0 0.0 0.01 0.01 0.0 0.0 0.0 0.01 0.0 0.0 0.0 0.01 0.01 0.0 0.0 0.0 0.01 0.0 0.0 0.0 0.01 0.01 0.0 0.0 0.0 0.01 0.0 0.0 0.0 0.01 0.01 0.0 0.0 0.0 0.01 0.0 0.0 0.0 0.01 0.01 0.0 0.0 0.0 0.01 0.0 0.0 0.0 0.01 0.01 0.0 0.0 0.0 0.01 0.0 0.0 0.0 0.01 0.01 0.0 0.0 0.0 0.01 0.0 0.0 0.0 0.01 0.01 0.0 0.0 0.0 0.01 0.0 0.0 0.0 0.01 0.01 0.0 0.0 0.0 0.01 0.0 0.0 0.0 0.01 0.01 0.0 0.0 0.0 0.01 0.0 0.0 0.0 0.01 0.01 0.0 0.0 0.0 0.01 0.0 0.0 0.0 0.01 0.01 0.0 0.0 0.0 0.01 0.0 0.0 0.0 0.01 0.01 0.0 0.0 0.0 0.01 0.0 0.0 0.0 0.01 0.01 0.0 0.0 0.0 0.01 0.0 0.0 0.0 0.01 0.01 0.0 0.0 0.0 0.01 0.0 0.0 0.0 0.01 0.01 0.0 0.0 0.0 0.01 0.0 0.0 0.0 0.01 0.01 0.0 0.0 0.0 0.01 0.0 0.0 0.0 0.01 0.01 0.0 0.0 0.0 0.01 0.0 0.0 0.0 0.01 0.01 0.0 0.0 0.0 0.01 0.0 0.0 0.0 0.01 0.01 0.0 0.0 0.0 0.01 0.0 0.0 0.0 0.01 0.01 0.0 0.0 0.0 0.01 0.0 0.0 0.0 0.01 0.01 0.0 0.0 0.0 0.01 0.0 0.0 0.0 0.01 0.01 0.0 0.0 0.0 0.01 0.0 0.0 0.0 0.01 0.01 0.0 0.0 0.0 0.01 0.0 0.0 0.0 0.01 0.01 0.0 0.0 0.0 0.01 0.0 0.0 0.0 0.01 0.01 0.0 0.0 0.0 0.01 0.0 0.0 0.0 0.01 0.01 0.0 0.0 0.0 0.01 0.0 0.0 0.0 0.01 0.01 0.0 0.0 0.0 0.01 0.0 0.0 0.0 0.01 0.01 0.0 0.0 0.0 0.01 0.0 0.0 0.0 0.01 0.01 0.0 0.0 0.0 0.01 0.0 0.0 0.0 0.01 0.01 0.0 0.0 0.0 0.01 0.0 0.0 0.0 0.01 0.01 0.0 0.0 0.0 0.01 0.0 0.0 0.0 0.01 0.01 0.0 0.0 0.0 0.01 0.0 0.0 0.0 0.01 0.01 0.0 0.0 0.0 0.01 0.0 0.0 0.0 0.01 0.01 0.0 0.0 0.0 0.01 0.0 0.0 0.0 0.01 0.01 0.0 0.0 0.0 0.01 0.0 0.0 0.0 0.01 0.01 0.0 0.0 0.0 0.01 0.0 0.0 0.0 0.01 0.01 0.0 0.0 0.0 0.01 0.0 0.0 0.0 0.01 0.01 0.0 0.0 0.0 0.01 0.0 0.0 0.0 0.01 0.01 0.0 0.0 0.0 0.01 0.0 0.0 0.0 0.01 0.01 0.0 0.0 0.0 0.01 0.0 0.0 0.0 0.01 0.01 0.0 0.0 0.0 0.01 0.0 0.0 0.0 0.01 0.01 0.0 0.0 0.0 0.01 0.0 0.0 0.0 0.01 0.01 0.0 0.0 0.0 0.01 0.0 0.0 0.0 0.01 0.01 0.0 0.0 0.0 0.01 0.0 0.0 0.0 0.01 0.01 0.0 0.0 0.0 0.01 0.0 0.0 0.0 0.01 0.01 0.0 0.0 0.0 0.01 0.0 0.0 0.0 0.01 0.01 0.0 0.0 0.0 0.01 0.0 0.0 0.0 0.01 0.01 0.0 0.0 0.0 0.01 0.0 0.0 0.0 0.01 0.01 0.0 0.0 0.0 0.01 0.0 0.0 0.0 0.01 0.01 0.0 0.0 0.0 0.01 0.0 0.0 0.0 0.01 0.01 0.0 0.0 0.0 0.01 0.0 0.0 0.0 0.01 0.01 0.0 0.0 0.0 0.01 0.0 0.0 0.0 0.01 0.01 0.0 0.0 0.0 0.01 0.0 0.0 0.0 0.01 0.01 0.0 0.0 0.0 0.01 0.0 0.0 0.0 0.01 0.01 0.0 0.0 0.0 0.01 0.0 0.0 0.0 0.01 0.01 0.0 0.0 0.0 0.01 0.0 0.0 0.0 0.01 0.01 0.0 0.0 0.0 0.01 0.0 0.0 0.0 0.01 0.01 0.0 0.0 0.0 0.01 0.0 0.0 0.0 0.01 0.01 0.0 0.0 0.0 0.01 0.0 0.0 0.0 0.01 0.01 0.0 0.0 0.0 0.01 0.0 0.0 0.0 0.01 0.01 0.0 0.0 0.0 0.01 0.0 0.0 0.0 0.01 0.01 0.0 0.0 0.0 0.01 0.0 0.0 0.0 0.01 0.01 0.0 0.0 0.0 0.01 0.0 0.0 0.0 0.01 0.01 0.0 0.0 0.0 0.01 0.0 0.0 0.0 0.01 0.01 0.0 0.0 0.0 0.01 0.0 0.0 0.0 0.01 0.01 0.0 0.0 0.0 0.01 0.0 0.0 0.0 0.01 0.01 0.0 0.0 0.0 0.01 0.0 0.0 0.0 0.01 0.01 0.0 0.0 0.0 0.01 0.0 0.0 0.0 0.01 0.01 0.0 0.0 0.0 0.01 0.0 0.0 0.0 0.01 0.01 0.0 0.0 0.0 0.01 0.0 0.0 0.0 0.01 0.01 0.0 0.0 0.0 0.01 0.0 0.0 0.0 0.01 0.01 0.0 0.0 0.0 0.01 0.0 0.0 0.0 0.01 0.01 0.0 0.0 0.0 0.01 0.0 0.0 0.0 0.01 0.01 0.0 0.0 0.0 0.01 0.0 0.0 0.0 0.01 0.01 0.0 0.0 0.0 0.01 0.0 0.0 0.0 0.01 0.01 0.0 0.0 0.0 0.01 0.0 0.0 0.0 0.01 0.01 0.0 0.0 0.0 0.01 0.0 0.0 0.0 0.01 0.01 0.0 0.0 0.0 0.01 0.0 0.0 0.0 0.01 0.01 0.0 0.0 0.0 0.01 0.0 0.0 0.0 0.01 0.01 0.0 0.0 0.0 0.01 0.0 0.0 0.0 0.01 0.01 0.0 0.0 0.0 0.01 0.0 0.0 0.0 0.01 0.01 0.0 0.0 0.0 0.01 0.0 0.0 0.0 0.01 0.01 0.0 0.0 0.0 0.01 0.0 0.0 0.0 0.01 0.01 0.0 0.0 0.0 0.01 0.0 0.0 0.0 0.01 0.01 0.0 0.0 0.0 0.01 0.0 0.0 0.0 0.01 0.01 0.0 0.0 0.0 0.01 0.0 0.0 0.0 0.01 0.01 0.0 0.0 0.0 0.01 0.0 0.0 0.0 0.01 0.01 0.0 0.0 0.0 0.01 0.0 0.0 0.0 0.01 0.01 0.0 0.0 0.0 0.01 0.0 0.0 0.0 0.01 0.01 0.0 0.0 0.0 0.01 0.0 0.0 0.0 0.01 0.01 0.0 0.0 0.0 0.01 0.0 0.0 0.0 0.01 0.01 0.0 0.0 0.0 0.01 0.0 0.0 0.0 0.01 0.01 0.0 0.0 0.0 0.01 0.0 0.0 0.0 0.01 0.01 0.0 0.0 0.0 0.01 0.0 0.0 0.0 0.01 0.01 0.0 0.0 0.0 0.01 0.0 0.0 0.0 0.01 0.01 0.0 0.0 0.0 0.01 0.0 0.0 0.0 0.01 0.01 0.0 0.0 0.0 0.01 0.0 0.0 0.0 0.01 0.01 0.0 0.0 0.0 0.01 0.0 0.0 0.0 0.01 0.01 0.0 0.0 0.0 0.01 0.0 0.0 0.0 0.01 0.01 0.0 0.0 0.0 0.01 0.0 0.0 0.0 0.01 0.01 0.0 0.0 0.0 0.01 0.0 0.0 0.0 0.01 0.01 0.0 0.0 0.0 0.01 0.0 0.0 0.0 0.01 0.01 0.0 0.0 0.0 0.01 0.0 0.0 0.0 0.01 0.01 0.0 0.0 0.0 0.01 0.0 0.0 0.0 0.01 0.01 0.0 0.0 0.0 0.01 0.0 0.0 0.0 0.01 0.01 0.0 0.0 0.0 0.01 0.0 0.0 0.0 0.01 0.01 0.0 0.0 0.0 0.01 0.0 0.0 0.0 0.01 0.01 0.0 0.0 0.0 0.01 0.0 0.0 0.0 0.01 0.01 0.0 0.0 0.0 0.01 0.0 0.0 0.0 0.01 0.01 0.0 0.0 0.0 0.01 0.0 0.0 0.0 0.01 0.01 0.0 0.0 0.0 0.01 0.0 0.0 0.0 0.01 0.01 0.0 0.0 0.0 0.01 0.0 0.0 0.0 0.01 0.01 0.0 0.0 0.0 0.01 0.0 0.0 0.0 0.01 0.01 0.0 0.0 0.0 0.01 0.0 0.0 0.0 0.01 0.01 0.0 0.0 0.0 0.01 0.0 0.0 0.0 0.01 0.01 0.0 0.0 0.0 0.01 0.0 0.0 0.0 0.01 0.01 0.0 0.0 0.0 0.01 0.0 0.0 0.0 0.01 0.01 0.0 0.0 0.0 0.01 0.0 0.0 0.0 0.01 0.01 0.0 0.0 0.0 0.01 0.0 0.0 0.0 0.01 0.01 0.0 0.0 0.0 0.01 0.0 0.0 0.0 0.01 0.01 0.0 0.0 0.0 0.01 0.0 0.0 0.0 0.01 0.01 0.0 0.0 0.0 0.01 0.0 0.0 0.0 0.01 0.01 0.0 0.0 0.0 0.01 0.0 0.0 0.0 0.01 0.01 0.0 0.0 0.0 0.01 0.0 0.0 0.0 0.01 0.01 0.0 0.0 0.0 0.01 0.0 0.0 0.0 0.01 0.01 0.0 0.0 0.0 0.01 0.0 0.0 0.0 0.01 0.01 0.0 0.0 0.0 0.01 0.0 0.0 0.0 0.01 0.01 0.0 0.0 0.0 0.01 0.0 0.0 0.0 0.01 0.01 0.0 0.0 0.0 0.01 0.0 0.0 0.0 0.01 0.01 0.0 0.0 0.0 0.01 0.0 0.0 0.0 0.01 0.01 0.0 0.0 0.0 0.01 0.0 0.0 0.0 0.01 0.01 0.0 0.0 0.0 0.01 0.0 0.0 0.0 0.01 0.01 0.0 0.0 0.0 0.01 0.0 0.0 0.0 0.01 0.01 0.0 0.0 0.0 0.01 0.0 0.0 0.0 0.01 0.01 0.0 0.0 0.0 0.01 0.0 0.0 0.0 0.01 0.01 0.0 0.0 0.0 0.01 0.0 0.0 0.0 0.01 0.01 0.0 0.0 0.0 0.01 0.0 0.0 0.0 0.01 0.01 0.0 0.0 0.0 0.01 0.0 0.0 0.0 0.01 0.01 0.0 0.0 0.0 0.01 0.0 0.0 0.0 0.01 0.01 0.0 0.0 0.0 0.01 0.0 0.0 0.0 0.01 0.01 0.0 0.0 0.0 0.01 0.0 0.0 0.0 0.01 0.01 0.0 0.0 0.0 0.01 0.0 0.0 0.0 0.01 0.01 0.0 0.0 0.0 0.01 0.0 0.0 0.0 0.01 0.01 0.0 0.0 0.0 0.01 0.0 0.0 0.0 0.01 0.01 0.0 0.0 0.0 0.01 0.0 0.0 0.0 0.01 0.01 0.0 0.0 0.0 0.01 0.0 0.0 0.0 0.01 0.01 0.0 0.0 0.0 0.01 0.0 0.0 0.0 0.01 0.01 0.0 0.0 0.0 0.01 0.0 0.0 0.0 0.01 0.01 0.0 0.0 0.0 0.01 0.0 0.0 0.0 0.01 0.01 0.0 0.0 0.0 0.01 0.0 0.0 0.0 0.01 0.01 0.0 0.0 0.0 0.01 0.0 0.0 0.0 0.01 0.01 0.0 0.0 0.0 0.01 0.0 0.0 0.0 0.01 0.01 0.0 0.0 0.0 0.01 0.0 0.0 0.0 0.01 0.01 0.0 0.0 0.0 0.01 0.0 0.0 0.0 0.01 0.01 0.0 0.0 0.0 0.01 0.0 0.0 0.0 0.01 0.01 0.0 0.0 0.0 0.01 0.0 0.0 0.0 0.01 0.01 0.0 0.0 0.0 0.01 0.0 0.0 0.0 0.01 0.01 0.0 0.0 0.0 0.01 0.0 0.0 0.0 0.01 0.01 0.0 0.0 0.0 0.01 0.0 0.0 0.0 0.01 0.01 0.0 0.0 0.0 0.01 0.0 0.0 0.0 0.01 0.01 0.0 0.0 0.0 0.01 0.0 0.0 0.0 0.01 0.01 0.0 0.0 0.0 0.01 0.0 0.0 0.0 0.01 0.01 0.0 0.0 0.0 0.01 0.0 0.0 0.0 0.01 0.01 0.0 0.0 0.0 0.01 0.0 0.0 0.0 0.01 0.01 0.0 0.0 0.0 0.01 0.0 0.0 0.0 0.01 0.01 0.0 0.0 0.0 0.01 0.0 0.0 0.0 0.01 0.01 0.0 0.0 0.0 0.01 0.0 0.0 0.0 0.01 0.01 0.0 0.0 0.0 0.01 0.0 0.0 0.0 0.01 0.01 0.0 0.0 0.0 0.01 0.0 0.0 0.0 0.01 0.01 0.0 0.0 0.0 0.01 0.0 0.0 0.0 0.01 0.01 0.0 0.0 0.0 0.01 0.0 0.0 0.0 0.01 0.01 0.0 0.0 0.0 0.01 0.0 0.0 0.0 0.01 0.01 0.0 0.0 0.0 0.01 0.0 0.0 0.0 0.01 0.01 0.0 0.0 0.0 0.01 0.0 0.0 0.0 0.01 0.01 0.0 0.0 0.0 0.01 0.0 0.0 0.0 0.01 0.01 0.0 0.0 0.0 0.01 0.0 0.0 0.0 0.01 0.01 0.0 0.0 0.0 0.01 0.0 0.0 0.0 0.01 0.01 0.0 0.0 0.0 0.01 0.0 0.0 0.0 0.01 0.01 0.0 0.0 0.0 0.01 0.0 0.0 0.0 0.01 0.01 0.0 0.0 0.0 0.01 0.0 0.0 0.0 0.01 0.01 0.0 0.0 0.0 0.01 0.0 0.0 0.0 0.01 0.01 0.0 0.0 0.0 0.01 0.0 0.0 0.0 0.01 0.01 0.0 0.0 0.0 0.01 0.0 0.0 0.0 0.01 0.01 0.0 0.0 0.0 0.01 0.0 0.0 0.0 0.01 0.01 0.0 0.0 0.0 0.01 0.0 0.0 0.0 0.01 0.01 0.0 0.0 0.0 0.01 0.0 0.0 0.0 0.01 0.01 0.0 0.0 0.0 0.01 0.0 0.0 0.0 0.01 0.01 0.0 0.0 0.0 0.01 0.0 0.0 0.0 0.01 0.01 0.0 0.0 0.0 0.01 0.0 0.0 0.0 0.01 0.01 0.0 0.0 0.0 0.01 0.0 0.0 0.0 0.01 0.01 0.0 0.0 0.0 0.01 0.0 0.0 0.0 0.01 0.01 0.0 0.0 0.0 0.01 0.0 0.0 0.0 0.01 0.01 0.0 0.0 0.0 0.01 0.0 0.0 0.0 0.01 0.01 0.0 0.0 0.0 0.01 0.0 0.0 0.0 0.01 0.01 0.0 0.0 0.0 0.01 0.0 0.0 0.0 0.01 0.01 0.0 0.0 0.0 0.01 0.0 0.0 0.0 0.01 0.01 0.0 0.0 0.0 0.01 0.0 0.0 0.0 0.01 0.01 0.0 0.0 0.0 0.01 0.0 0.0 0.0 0.01 0.01 0.0 0.0 0.0 0.01 0.0 0.0 0.0 0.01 0.01 0.0 0.0 0.0 0.01 0.0 0.0 0.0 0.01 0.01 0.0 0.0 0.0 0.01 0.0 0.0 0.0 0.01 0.01 0.0 0.0 0.0 0.01 0.0 0.0 0.0 0.01 0.01 0.0 0.0 0.0 0.01 0.0 0.0 0.0 0.01 0.01 0.0 0.0 0.0 0.01 0.0 0.0 0.0 0.01 0.01 0.0 0.0 0.0 0.01 0.0 0.0 0.0 0.01 0.01 0.0 0.0 0.0 0.01 0.0 0.0 0.0 0.01 0.01 0.0 0.0 0.0 0.01 0.0 0.0 0.0 0.01 0.01 0.0 0.0 0.0 0.01 0.0 0.0 0.0 0.01 0.01 0.0 0.0 0.0 0.01 0.0 0.0 0.0 0.01 0.01 0.0 0.0 0.0 0.01 0.0 0.0 0.0 0.01 0.01 0.0 0.0 0.0 0.01 0.0 0.0 0.0 0.01 0.01 0.0 0.0 0.0 0.01 0.0 0.0 0.0 0.01 0.01 0.0 0.0 0.0 0.01 0.0 0.0 0.0 0.01 0.01 0.0 0.0 0.0 0.01 0.0 0.0 0.0 0.01 0.01 0.0 0.0 0.0 0.01 0.0 0.0 0.0 0.01 0.01 0.0 0.0 0.0 0.01 0.0 0.0 0.0 0.01 0.01 0.0 0.0 0.0 0.01 0.0 0.0 0.0 0.01 0.01 0.0 0.0 0.0 0.01 0.0 0.0 0.0 0.01 0.01 0.0 0.0 0.0 0.01 0.0 0.0 0.0 0.01 0.01 0.0 0.0 0.0 0.01 0.0 0.0 0.0 0.01 0.01 0.0 0.0 0.0 0.01 0.0 0.0 0.0 0.01 0.01 0.0 0.0 0.0 0.01 0.0 0.0 0.0 0.01 0.01 0.0 0.0 0.0 0.01 0.0 0.0 0.0 0.01 0.01 0.0 0.0 0.0 0.01 0.0 0.0 0.0 0.01 0.01 0.0 0.0 0.0 0.01 0.0 0.0 0.0 0.01 0.01 0.0 0.0 0.0 0.01 0.0 0.0 0.0 0.01 0.01 0.0 0.0 0.0 0.01 0.0 0.0 0.0 0.01 0.01 0.0 0.0 0.0 0.01 0.0 0.0 0.0 0.01 0.01 0.0 0.0 0.0 0.01 0.0 0.0 0.0 0.01 0.01 0.0 0.0 0.0 0.01 0.0 0.0 0.0 0.01 0.01 0.0 0.0 0.0 0.01 0.0 0.0 0.0 0.01 0.01 0.0 0.0 0.0 0.01 0.0 0.0 0.0 0.01 0.01 0.0 0.0 0.0 0.01 0.0 0.0 0.0 0.01 0.01 0.0 0.0 0.0 0.01 0.0 0.0 0.0 0.01 0.01 0.0 0.0 0.0 0.01 0.0 0.0 0.0 0.01 0.01 0.0 0.0 0.0 0.01 0.0 0.0 0.0 0.01 0.01 0.0 0.0 0.0 0.01 0.0 0.0 0.0 0.01 0.01 0.0 0.0 0.0 0.01 0.0 0.0 0.0 0.01 0.01 0.0 0.0 0.0 0.01 0.0 0.0 0.0 0.01 0.01 0.0 0.0 0.0 0.01 0.0 0.0 0.0 0.01 0.01 0.0 0.0 0.0 0.01 0.0 0.0 0.0 0.01 0.01 0.0 0.0 0.0 0.01 0.0 0.0 0.0 0.01 0.01 0.0 0.0 0.0 0.01 0.0 0.0 0.0 0.01 0.01 0.0 0.0 0.0 0.01 0.0 0.0 0.0 0.01 0.01 0.0 0.0 0.0 0.01 0.0 0.0 0.0 0.01 0.01 0.0 0.0 0.0 0.01 0.0 0.0 0.0 0.01 0.01 0.0 0.0 0.0 0.01 0.0 0.0 0.0 0.01 0.01 0.0 0.0 0.0 0.01 0.0 0.0 0.0 0.01 0.01 0.0 0.0 0.0 0.01 0.0 0.0 0.0 0.01 0.01 0.0 0.0 0.0 0.01 0.0 0.0 0.0 0.01 0.01 0.0 0.0 0.0 0.01 0.0 0.0 0.0 0.01 0.01 0.0 0.0 0.0 0.01 0.0 0.0 0.0 0.01 0.01 0.0 0.0 0.0 0.01 0.0 0.0 0.0 0.01 0.01 0.0 0.0 0.0 0.01 0.0 0.0 0.0 0.01 0.01 0.0 0.0 0.0 0.01 0.0 0.0 0.0 0.01 0.01 0.0 0.0 0.0 0.01 0.0 0.0 0.0 0.01 0.01 0.0 0.0 0.0 0.01 0.0 0.0 0.0 0.01 0.01 0.0 0.0 0.0 0.01 0.0 0.0 0.0 0.01 0.01 0.0 0.0 0.0 0.01 0.0 0.0 0.0 0.01 0.01 0.0 0.0 0.0 0.01 0.0 0.0 0.0 0.01 0.01 0.0 0.0 0.0 0.01 0.0 0.0 0.0 0.01 0.01 0.0 0.0 0.0 0.01 0.0 0.0 0.0 0.01 0.01 0.0 0.0 0.0 0.01 0.0 0.0 0.0 0.01 0.01 0.0 0.0 0.0 0.01 0.0 0.0 0.0 0.01 0.01 0.0 0.0 0.0 0.01 0.0 0.0 0.0 0.01 0.01 0.0 0.0 0.0 0.01 0.0 0.0 0.0 0.01 0.01 0.0 0.0 0.0 0.01 0.0 0.0 0.0 0.01 0.01 0.0 0.0 0.0 0.01 0.0 0.0 0.0 0.01 0.01 0.0 0.0 0.0 0.01 0.0 0.0 0.0 0.01 0.01 0.0 0.0 0.0 0.01 0.0 0.0 0.0 0.01 0.01 0.0 0.0 0.0 0.01 0.0 0.0 0.0 0.01 0.01 0.0 0.0 0.0 0.01 0.0 0.0 0.0 0.01 0.01 0.0 0.0 0.0 0.01 0.0 0.0 0.0 0.01 0.01 0.0 0.0 0.0 0.01 0.0 0.0 0.0 0.01 0.01 0.0 0.0 0.0 0.01 0.0 0.0 0.0 0.01 0.01 0.0 0.0 0.0 0.01 0.0 0.0 0.0 0.01 0.01 0.0 0.0 0.0 0.01 0.0 0.0 0.0 0.01 0.01 0.0 0.0 0.0 0.01 0.0 0.0 0.0 0.01 0.01 0.0 0.0 0.0 0.01 0.0 0.0 0.0 0.01 0.01 0.0 0.0 0.0 0.01 0.0 0.0 0.0 0.01 0.01 0.0 0.0 0.0 0.01 0.0 0.0 0.0 0.01 0.01 0.0 0.0 0.0 0.01 0.0 0.0 0.0 0.01 0.01 0.0 0.0 0.0 0.01 0.0 0.0 0.0 0.01 0.01 0.0 0.0 0.0 0.01 0.0 0.0 0.0 0.01 0.01 0.0 0.0 0.0 0.01 0.0 0.0 0.0 0.01 0.01 0.0 0.0 0.0 0.01 0.0 0.0 0.0 0.01 0.01 0.0 0.0 0.0 0.01 0.0 0.0 0.0 0.01 0.01 0.0 0.0 0.0 0.01 0.0 0.0 0.0 0.01 0.01 0.0 0.0 0.0 0.01 0.0 0.0 0.0 0.01 0.01 0.0 0.0 0.0 0.01 0.0 0.0 0.0 0.01 0.01 0.0 0.0 0.0 0.01 0.0 0.0 0.0 0.01 0.01 0.0 0.0 0.0 0.01 0.0 0.0 0.0 0.01 0.01 0.0 0.0 0.0 0.01 0.0 0.0 0.0 0.01 0.01 0.0 0.0 0.0 0.01 0.0 0.0 0.0 0.01 0.01 0.0 0.0 0.0 0.01 0.0 0.0 0.0 0.01 0.01 0.0 0.0 0.0 0.01 0.0 0.0 0.0 0.01 0.01 0.0 0.0 0.0 0.01 0.0 0.0 0.0 0.01 0.01 0.0 0.0 0.0 0.01 0.0 0.0 0.0 0.01 0.01 0.0 0.0 0.0 0.01 0.0 0.0 0.0 0.01 0.01 0.0 0.0 0.0 0.01 0.0 0.0 0.0 0.01 0.01 0.0 0.0 0.0 0.01 0.0 0.0 0.0 0.01 0.01 0.0 0.0 0.0 0.01 0.0 0.0 0.0 0.01 0.01 0.0 0.0 0.0 0.01 0.0 0.0 0.0 0.01 0.01 0.0 0.0 0.0 0.01 0.0 0.0 0.0 0.01 0.01 0.0 0.0 0.0 0.01 0.0 0.0 0.0 0.01 0.01 0.0 0.0 0.0 0.01 0.0 0.0 0.0 0.01 0.01 0.0 0.0 0.0 0.01 0.0 0.0 0.0 0.01 0.01 0.0 0.0 0.0 0.01 0.0 0.0 0.0 0.01 0.01 0.0 0.0 0.0 0.01 0.0 0.0 0.0 0.01 0.01 0.0 0.0 0.0 0.01 0.0 0.0 0.0 0.01 0.01 0.0 0.0 0.0 0.01 0.0 0.0 0.0 0.01 0.01 0.0 0.0 0.0 0.01 0.0 0.0 0.0 0.01 0.01 0.0 0.0 0.0 0.01 0.0 0.0 0.0 0.01 0.01 0.0 0.0 0.0 0.01 0.0 0.0 0.0 0.01 0.01 0.0 0.0 0.0 0.01 0.0 0.0 0.0 0.01 0.01 0.0 0.0 0.0 0.01 0.0 0.0 0.0 0.01 0.01 0.0 0.0 0.0 0.01 0.0 0.0 0.0 0.01 0.01 0.0 0.0 0.0 0.01 0.0 0.0 0.0 0.01 0.01 0.0 0.0 0.0 0.01 0.0 0.0 0.0 0.01 0.01 0.0 0.0 0.0 0.01 0.0 0.0 0.0 0.01 0.01 0.0 0.0 0.0 0.01 0.0 0.0 0.0 0.01 0.01 0.0 0.0 0.0 0.01 0.0 0.0 0.0 0.01 0.01 0.0 0.0 0.0 0.01 0.0 0.0 0.0 0.01 0.01 0.0 0.0 0.0 0.01 0.0 0.0 0.0 0.01 0.01 0.0 0.0 0.0 0.01 0.0 0.0 0.0 0.01 0.01 0.0 0.0 0.0 0.01 0.0 0.0 0.0 0.01 0.01 0.0 0.0 0.0 0.01 0.0 0.0 0.0 0.01 0.01 0.0 0.0 0.0 0.01 0.0 0.0 0.0 0.01 0.01 0.0 0.0 0.0 0.01 0.0 0.0 0.0 0.01 0.01 0.0 0.0 0.0 0.01 0.0 0.0 0.0 0.01 0.01 0.0 0.0 0.0 0.01 0.0 0.0 0.0 0.01 0.01 0.0 0.0 0.0 0.01 0.0 0.0 0.0 0.01 0.01 0.0 0.0 0.0 0.01 0.0 0.0 0.0 0.01 0.01 0.0 0.0 0.0 0.01 0.0 0.0 0.0 0.01 0.01 0.0 0.0 0.0 0.01 0.0 0.0 0.0 0.01 0.01 0.0 0.0 0.0 0.01 0.0 0.0 0.0 0.01 0.01 0.0 0.0 0.0 0.01 0.0 0.0 0.0 0.01 0.01 0.0 0.0 0.0 0.01 0.0 0.0 0.0 0.01 0.01 0.0 0.0 0.0 0.01 0.0 0.0 0.0 0.01 0.01 0.0 0.0 0.0 0.01 0.0 0.0 0.0 0.01 0.01 0.0 0.0 0.0 0.01 0.0 0.0 0.0 0.01 0.01 0.0 0.0 0.0 0.01 0.0 0.0 0.0 0.01 0.01 0.0 0.0 0.0 0.01 0.0 0.0 0.0 0.01 0.01 0.0 0.0 0.0 0.01 0.0 0.0 0.0 0.01 0.01 0.0 0.0 0.0 0.01 0.0 0.0 0.0 0.01 0.01 0.0 0.0 0.0 0.01 0.0 0.0 0.0 0.01 0.01 0.0 0.0 0.0 0.01 0.0 0.0 0.0 0.01 0.01 0.0 0.0 0.0 0.01 0.0 0.0 0.0 0.01 0.01 0.0 0.0 0.0 0.01 0.0 0.0 0.0 0.01 0.01 0.0 0.0 0.0 0.01 0.0 0.0 0.0 0.01 0.01 0.0 0.0 0.0 0.01 0.0 0.0 0.0 0.01 0.01 0.0 0.0 0.0 0.01 0.0 0.0 0.0 0.01 0.01 0.0 0.0 0.0 0.01 0.0 0.0 0.0 0.01 0.01 0.0 0.0 0.0 0.01 0.0 0.0 0.0 0.01 0.01 0.0 0.0 0.0 0.01 0.0 0.0 0.0 0.01 0.01 0.0 0.0 0.0 0.01 0.0 0.0 0.0 0.01 0.01 0.0 0.0 0.0 0.01 0.0 0.0 0.0 0.01 0.01 0.0 0.0 0.0 0.01 0.0 0.0 0.0 0.01 0.01 0.0 0.0 0.0 0.01 0.0 0.0 0.0 0.01 0.01 0.0 0.0 0.0 0.01 0.0 0.0 0.0 0.01 0.01 0.0 0.0 0.0 0.01 0.0 0.0 0.0 0.01 0.01 0.0 0.0 0.0 0.01 0.0 0.0 0.0 0.01 0.01 0.0 0.0 0.0 0.01 0.0 0.0 0.0 0.01 0.01 0.0 0.0 0.0 0.01 0.0 0.0 0.0 0.01 0.01 0.0 0.0 0.0 0.01 0.0 0.0 0.0 0.01 0.01 0.0 0.0 0.0 0.01 0.0 0.0 0.0 0.01 0.01 0.0 0.0 0.0 0.01 0.0 0.0 0.0 0.01 0.01 0.0 0.0 0.0 0.01 0.0 0.0 0.0 0.01 0.01 0.0 0.0 0.0 0.01 0.0 0.0 0.0 0.01 0.01 0.0 0.0 0.0 0.01 0.0 0.0 0.0 0.01 0.01 0.0 0.0 0.0 0.01 0.0 0.0 0.0 0.01 0.01 0.0 0.0 0.0 0.01 0.0 0.0 0.0 0.01 0.01 0.0 0.0 0.0 0.01 0.0 0.0 0.0 0.01 0.01 0.0 0.0 0.0 0.01 0.0 0.0 0.0 0.01 0.01 0.0 0.0 0.0 0.01 0.0 0.0 0.0 0.01 0.01 0.0 0.0 0.0 0.01 0.0 0.0 0.0 0.01 0.01 0.0 0.0 0.0 0.01 0.0 0.0 0.0 0.01 0.01 0.0 0.0 0.0 0.01 0.0 0.0 0.0 0.01 0.01 0.0 0.0 0.0 0.01 0.0 0.0 0.0 0.01 0.01 0.0 0.0 0.0 0.01 0.0 0.0 0.0 0.01 0.01 0.0 0.0 0.0 0.01 0.0 0.0 0.0 0.01 0.01 0.0 0.0 0.0 0.01 0.0 0.0 0.0 0.01 0.01 0.0 0.0 0.0 0.01 0.0 0.0 0.0 0.01 0.01 0.0 0.0 0.0 0.01 0.0 0.0 0.0 0.01 0.01 0.0 0.0 0.0 0.01 0.0 0.0 0.0 0.01 0.01 0.0 0.0 0.0 0.01 0.0 0.0 0.0 0.01 0.01 0.0 0.0 0.0 0.01 0.0 0.0 0.0 0.01 0.01 0.0 0.0 0.0 0.01 0.0 0.0 0.0 0.01 0.01 0.0 0.0 0.0 0.01 0.0 0.0 0.0 0.01 0.01 0.0 0.0 0.0 0.01 0.0 0.0 0.0 0.01 0.01 0.0 0.0 0.0 0.01 0.0 0.0 0.0 0.01 0.01 0.0 0.0 0.0 0.01 0.0 0.0 0.0 0.01 0.01 0.0 0.0 0.0 0.01 0.0 0.0 0.0 0.01 0.01 0.0 0.0 0.0 0.01 0.0 0.0 0.0 0.01 0.01 0.0 0.0 0.0 0.01 0.0 0.0 0.0 0.01 0.01 0.0 0.0 0.0 0.01 0.0 0.0 0.0 0.01 0.01 0.0 0.0 0.0 0.01 0.0 0.0 0.0 0.01 0.01 0.0 0.0 0.0 0.01 0.0 0.0 0.0 0.01 0.01 0.0 0.0 0.0 0.01 0.0 0.0 0.0 0.01 0.01 0.0 0.0 0.0 0.01 0.0 0.0 0.0 0.01 0.01 0.0 0.0 0.0 0.01 0.0 0.0 0.0 0.01 0.01 0.0 0.0 0.0 0.01 0.0 0.0 0.0 0.01 0.01 0.0 0.0 0.0 0.01 0.0 0.0 0.0 0.01 0.01 0.0 0.0 0.0 0.01 0.0 0.0 0.0 0.01 0.01 0.0 0.0 0.0 0.01 0.0 0.0 0.0 0.01 0.01 0.0 0.0 0.0 0.01 0.0 0.0 0.0 0.01 0.01 0.0 0.0 0.0 0.01 0.0 0.0 0.0 0.01 0.01 0.0 0.0 0.0 0.01 0.0 0.0 0.0 0.01 0.01 0.0 0.0 0.0 0.01 0.0 0.0 0.0 0.01 0.01 0.0 0.0 0.0 0.01 0.0 0.0 0.0 0.01 0.01 0.0 0.0 0.0 0.01 0.0 0.0 0.0 0.01 0.01 0.0 0.0 0.0 0.01 0.0 0.0 0.0 0.01 0.01 0.0 0.0 0.0 0.01 0.0 0.0 0.0 0.01 0.01 0.0 0.0 0.0 0.01 0.0 0.0 0.0 0.01 0.01 0.0 0.0 0.0 0.01 0.0 0.0 0.0 0.01 0.01 0.0 0.0 0.0 0.01 0.0 0.0 0.0 0.01 0.01 0.0 0.0 0.0 0.01 0.0 0.0 0.0 0.01 0.01 0.0 0.0 0.0 0.01 0.0 0.0 0.0 0.01 0.01 0.0 0.0 0.0 0.01 0.0 0.0 0.0 0.01 0.01 0.0 0.0 0.0 0.01 0.0 0.0 0.0 0.01 0.01 0.0 0.0 0.0 0.01 0.0 0.0 0.0 0.01 0.01 0.0 0.0 0.0 0.01 0.0 0.0 0.0 0.01 0.01 0.0 0.0 0.0 0.01 0.0 0.0 0.0 0.01 0.01 0.0 0.0 0.0 0.01 0.0 0.0 0.0 0.01 0.01 0.0 0.0 0.0 0.01 0.0 0.0 0.0 0.01 0.01 0.0 0.0 0.0 0.01 0.0 0.0 0.0 0.01 0.01 0.0 0.0 0.0 0.01 0.0 0.0 0.0 0.01 0.01 0.0 0.0 0.0 0.01 0.0 0.0 0.0 0.01 0.01 0.0 0.0 0.0 0.01 0.0 0.0 0.0 0.01 0.01 0.0 0.0 0.0 0.01 0.0 0.0 0.0 0.01 0.01 0.0 0.0 0.0 0.01 0.0 0.0 0.0 0.01 0.01 0.0 0.0 0.0 0.01 0.0 0.0 0.0 0.01 0.01 0.0 0.0 0.0 0.01 0.0 0.0 0.0 0.01 0.01 0.0 0.0 0.0 0.01 0.0 0.0 0.0 0.01 0.01 0.0 0.0 0.0 0.01 0.0 0.0 0.0 0.01 0.01 0.0 0.0 0.0 0.01 0.0 0.0 0.0 0.01 0.01 0.0 0.0 0.0 0.01 0.0 0.0 0.0 0.01 0.01 0.0 0.0 0.0 0.01 0.0 0.0 0.0 0.01 0.01 0.0 0.0 0.0 0.01 0.0 0.0 0.0 0.01 0.01 0.0 0.0 0.0 0.01 0.0 0.0 0.0 0.01 0.01 0.0 0.0 0.0 0.01 0.0 0.0 0.0 0.01 0.01 0.0 0.0 0.0 0.01 0.0 0.0 0.0 0.01 0.01 0.0 0.0 0.0 0.01 0.0 0.0 0.0 0.01 0.01 0.0 0.0 0.0 0.01 0.0 0.0 0.0 0.01 0.01 0.0 0.0 0.0 0.01 0.0 0.0 0.0 0.01 0.01 0.0 0.0 0.0 0.01 0.0 0.0 0.0 0.01 0.01 0.0 0.0 0.0 0.01 0.0 0.0 0.0 0.01 0.01 0.0 0.0 0.0 0.01 0.0 0.0 0.0 0.01 0.01 0.0 0.0 0.0 0.01 0.0 0.0 0.0 0.01 0.01 0.0 0.0 0.0 0.01 0.0 0.0 0.0 0.01 0.01 0.0 0.0 0.0 0.01 0.0 0.0 0.0 0.01 0.01 0.0 0.0 0.0 0.01 0.0 0.0 0.0 0.01 0.01 0.0 0.0 0.0 0.01 0.0 0.0 0.0 0.01 0.01 0.0 0.0 0.0 0.01 0.0 0.0 0.0 0.01 0.01 0.0 0.0 0.0 0.01 0.0 0.0 0.0 0.01 0.01 0.0 0.0 0.0 0.01 0.0 0.0 0.0 0.01 0.01 0.0 0.0 0.0 0.01 0.0 0.0 0.0 0.01 0.01 0.0 0.0 0.0 0.01 0.0 0.0 0.0 0.01 0.01 0.0 0.0 0.0 0.01 0.0 0.0 0.0 0.01 0.01 0.0 0.0 0.0 0.01 0.0 0.0 0.0 0.01 0.01 0.0 0.0 0.0 0.01 0.0 0.0 0.0 0.01 0.01 0.0 0.0 0.0 0.01 0.0 0.0 0.0 0.01 0.01 0.0 0.0 0.0 0.01 0.0 0.0 0.0 0.01 0.01 0.0 0.0 0.0 0.01 0.0 0.0 0.0 0.01 0.01 0.0 0.0 0.0 0.01 0.0 0.0 0.0 0.01 0.01 0.0 0.0 0.0 0.01 0.0 0.0 0.0 0.01 0.01 0.0 0.0 0.0 0.01 0.0 0.0 0.0 0.01 0.01 0.0 0.0 0.0 0.01 0.0 0.0 0.0 0.01 0.01 0.0 0.0 0.0 0.01 0.0 0.0 0.0 0.01 0.01 0.0 0.0 0.0 0.01 0.0 0.0 0.0 0.01 0.01 0.0 0.0 0.0 0.01 0.0 0.0 0.0 0.01 0.01 0.0 0.0 0.0 0.01 0.0 0.0 0.0 0.01 0.01 0.0 0.0 0.0 0.01 0.0 0.0 0.0 0.01 0.01 0.0 0.0 0.0 0.01 0.0 0.0 0.0 0.01 0.01 0.0 0.0 0.0 0.01 0.0 0.0 0.0 0.01 0.01 0.0 0.0 0.0 0.01 0.0 0.0 0.0 0.01 0.01 0.0 0.0 0.0 0.01 0.0 0.0 0.0 0.01 0.01 0.0 0.0 0.0 0.01 0.0 0.0 0.0 0.01 0.01 0.0 0.0 0.0 0.01 0.0 0.0 0.0 0.01 0.01 0.0 0.0 0.0 0.01 0.0 0.0 0.0 0.01 0.01 0.0 0.0 0.0 0.01 0.0 0.0 0.0 0.01 0.01 0.0 0.0 0.0 0.01 0.0 0.0 0.0 0.01 0.01 0.0 0.0 0.0 0.01 0.0 0.0 0.0 0.01 0.01 0.0 0.0 0.0 0.01 0.0 0.0 0.0 0.01 0.01 0.0 0.0 0.0 0.01 0.0 0.0 0.0 0.01 0.01 0.0 0.0 0.0 0.01 0.0 0.0 0.0 0.01 0.01 0.0 0.0 0.0 0.01 0.0 0.0 0.0 0.01 0.01 0.0 0.0 0.0 0.01 0.0 0.0 0.0 0.01 0.01 0.0 0.0 0.0 0.01 0.0 0.0 0.0 0.01 0.01 0.0 0.0 0.0 0.01 0.0 0.0 0.0 0.01 0.01 0.0 0.0 0.0 0.01 0.0 0.0 0.0 0.01 0.01 0.0 0.0 0.0 0.01 0.0 0.0 0.0 0.01 0.01 0.0 0.0 0.0 0.01 0.0 0.0 0.0 0.01 0.01 0.0 0.0 0.0 0.01 0.0 0.0 0.0 0.01 0.01 0.0 0.0 0.0 0.01 0.0 0.0 0.0 0.01 0.01 0.0 0.0 0.0 0.01 0.0 0.0 0.0 0.01 0.01 0.0 0.0 0.0 0.01 0.0 0.0 0.0 0.01 0.01 0.0 0.0 0.0 0.01 0.0 0.0 0.0 0.01 0.01 0.0 0.0 0.0 0.01 0.0 0.0 0.0 0.01 0.01 0.0 0.0 0.0 0.01 0.0 0.0 0.0 0.01 0.01 0.0 0.0 0.0 0.01 0.0 0.0 0.0 0.01 0.01 0.0 0.0 0.0 0.01 0.0 0.0 0.0 0.01 0.01 0.0 0.0 0.0 0.01 0.0 0.0 0.0 0.01 0.01 0.0 0.0 0.0 0.01 0.0 0.0 0.0 0.01 0.01 0.0 0.0 0.0 0.01 0.0 0.0 0.0 0.01 0.01 0.0 0.0 0.0 0.01 0.0 0.0 0.0 0.01 0.01 0.0 0.0 0.0 0.01 0.0 0.0 0.0 0.01 0.01 0.0 0.0 0.0 0.01 0.0 0.0 0.0 0.01 0.01 0.0 0.0 0.0 0.01 0.0 0.0 0.0 0.01 0.01 0.0 0.0 0.0 0.01 0.0 0.0 0.0 0.01 0.01 0.0 0.0 0.0 0.01 0.0 0.0 0.0 0.01 0.01 0.0 0.0 0.0 0.01 0.0 0.0 0.0 0.01 0.01 0.0 0.0 0.0 0.01 0.0 0.0 0.0 0.01 0.01 0.0 0.0 0.0 0.01 0.0 0.0 0.0 0.01 0.01 0.0 0.0 0.0 0.01 0.0 0.0 0.0 0.01 0.01 0.0 0.0 0.0 0.01 0.0 0.0 0.0 0.01 0.01 0.0 0.0 0.0 0.01 0.0 0.0 0.0 0.01 0.01 0.0 0.0 0.0 0.01 0.0 0.0 0.0 0.01 0.01 0.0 0.0 0.0 0.01 0.0 0.0 0.0 0.01 0.01 0.0 0.0 0.0 0.01 0.0 0.0 0.0 0.01 0.01 0.0 0.0 0.0 0.01 0.0 0.0 0.0 0.01 0.01 0.0 0.0 0.0 0.01 0.0 0.0 0.0 0.01 0.01 0.0 0.0 0.0 0.01 0.0 0.0 0.0 0.01 0.01 0.0 0.0 0.0 0.01 0.0 0.0 0.0 0.01 0.01 0.0 0.0 0.0 0.01 0.0 0.0 0.0 0.01 0.01 0.0 0.0 0.0 0.01 0.0 0.0 0.0 0.01 0.01 0.0 0.0 0.0 0.01 0.0 0.0 0.0 0.01 0.01 0.0 0.0 0.0 0.01 0.0 0.0 0.0 0.01 0.01 0.0 0.0 0.0 0.01 0.0 0.0 0.0 0.01 0.01 0.0 0.0 0.0 0.01 0.0 0.0 0.0 0.01 0.01 0.0 0.0 0.0 0.01 0.0 0.0 0.0 0.01 0.01 0.0 0.0 0.0 0.01 0.0 0.0 0.0 0.01 0.01 0.0 0.0 0.0 0.01 0.0 0.0 0.0 0.01 0.01 0.0 0.0 0.0 0.01 0.0 0.0 0.0 0.01 0.01 0.0 0.0 0.0 0.01 0.0 0.0 0.0 0.01 0.01 0.0 0.0 0.0 0.01 0.0 0.0 0.0 0.01 0.01 0.0 0.0 0.0 0.01 0.0 0.0 0.0 0.01 0.01 0.0 0.0 0.0 0.01 0.0 0.0 0.0 0.01 0.01 0.0 0.0 0.0 0.01 0.0 0.0 0.0 0.01 0.01 0.0 0.0 0.0 0.01 0.0 0.0 0.0 0.01 0.01 0.0 0.0 0.0 0.01 0.0 0.0 0.0 0.01 0.01 0.0 0.0 0.0 0.01 0.0 0.0 0.0 0.01 0.01 0.0 0.0 0.0 0.01 0.0 0.0 0.0 0.01 0.01 0.0 0.0 0.0 0.01 0.0 0.0 0.0 0.01 0.01 0.0 0.0 0.0 0.01 0.0 0.0 0.0 0.01 0.01 0.0 0.0 0.0 0.01 0.0 0.0 0.0 0.01 0.01 0.0 0.0 0.0 0.01 0.0 0.0 0.0 0.01 0.01 0.0 0.0 0.0 0.01 0.0 0.0 0.0 0.01 0.01 0.0 0.0 0.0 0.01 0.0 0.0 0.0 0.01 0.01 0.0 0.0 0.0 0.01 0.0 0.0 0.0 0.01 0.01 0.0 0.0 0.0 0.01 0.0 0.0 0.0 0.01 0.01 0.0 0.0 0.0 0.01 0.0 0.0 0.0 0.01 0.01 0.0 0.0 0.0 0.01 0.0 0.0 0.0 0.01 0.01 0.0 0.0 0.0 0.01 0.0 0.0 0.0 0.01 0.01 0.0 0.0 0.0 0.01 0.0 0.0 0.0 0.01 0.01 0.0 0.0 0.0 0.01 0.0 0.0 0.0 0.01 0.01 0.0 0.0 0.0 0.01 0.0 0.0 0.0 0.01 0.01 0.0 0.0 0.0 0.01 0.0 0.0 0.0 0.01 0.01 0.0 0.0 0.0 0.01 0.0 0.0 0.0 0.01 0.01 0.0 0.0 0.0 0.01 0.0 0.0 0.0 0.01 0.01 0.0 0.0 0.0 0.01 0.0 0.0 0.0 0.01 0.01 0.0 0.0 0.0 0.01 0.0 0.0 0.0 0.01 0.01 0.0 0.0 0.0 0.01 0.0 0.0 0.0 0.01 0.01 0.0 0.0 0.0 0.01 0.0 0.0 0.0 0.01 0.0099999980000006 0.0 -9.182376998129303e-12 0.0 0.01 0.0 -9.182376998129303e-12 0.0 0.01 0.009999997000001351 0.0 8.637527609311795e-18 0.0 0.01 0.0 8.637527609311795e-18 0.0 0.01 0.009999996500001837 0.0 -5.708433507069825e-18 0.0 0.01 0.0 -5.708433507069825e-18 0.0 0.01 0.0099999960000024 0.0 -2.728634262730476e-17 0.0 0.01 0.0 -2.728634262730476e-17 0.0 0.01 0.0099999960000024 0.0 1.5376786277135486e-17 0.0 0.01 0.0 1.5376786277135486e-17 0.0 0.01 0.0099999980000006 0.0 1.6446828565100155e-17 0.0 0.01 0.0 1.6446828565100155e-17 0.0 0.01 0.009999997000001351 0.0 -4.596800667123764e-12 0.0 0.01 0.0 -4.596800667123764e-12 0.0 0.01 0.0099999960000024 0.0 1.7273318139337228e-17 0.0 0.01 0.0 1.7273318139337228e-17 0.0 0.01 0.009999995500003037 0.0 1.1021656063306824e-17 0.0 0.01 0.0 1.1021656063306824e-17 0.0 0.01 0.009999994500004536 0.0 -3.2408902769765845e-17 0.0 0.01 0.0 -3.2408902769765845e-17 0.0 0.01 0.009999994500004536 0.0 3.827176293397034e-18 0.0 0.01 0.0 3.827176293397034e-18 0.0 0.01 0.009999996500001837 0.0 -1.864216181368692e-17 0.0 0.01 0.0 -1.864216181368692e-17 0.0 0.009999999500000037 0.0099999960000024 0.0 2.7021309294842714e-18 0.0 0.01 0.0 2.7021309294842714e-18 0.0 0.01 0.009999994500004536 0.0 2.5587918899759985e-17 0.0 0.01 0.0 2.5587918899759985e-17 0.0 0.01 0.009999994500004536 0.0 7.643562272434034e-13 0.0 0.01 0.0 7.643562272434034e-13 0.0 0.01 0.00999999300000735 0.0 -2.4109185683362257e-17 0.0 0.01 0.0 -2.4109185683362257e-17 0.0 0.01 0.009999992500008438 0.0 -1.2726072181245791e-17 0.0 0.01 0.0 -1.2726072181245791e-17 0.0 0.01 0.0099999960000024 0.0 3.066553628891606e-14 0.0 0.01 0.0 3.066553628891606e-14 0.0 0.009999999500000037 0.00999999450000454 0.0 8.137012288426239e-15 0.0 0.01 0.0 8.1370122900806e-15 0.0 0.010000000000000004 0.00999999300000735 0.0 3.5618869600060716e-17 0.0 0.01 0.0 3.5618869600060716e-17 0.0 0.01 0.009999992000009601 0.0 3.1456962247121246e-17 0.0 0.01 0.0 3.1456962247121246e-17 0.0 0.01 0.009999990500013536 0.0 9.848448420931948e-13 0.0 0.01 0.0 9.848448420931948e-13 0.0 0.01 0.009999990500013536 0.0 3.033485827769e-17 0.0 0.01 0.0 3.033485827769e-17 0.0 0.01 0.009999994500004536 0.0 3.6199872699443523e-12 0.0 0.01 0.0 3.6199872716384182e-12 0.0 0.00999999900000015 0.009999992500008438 0.0 2.0714299136850834e-12 0.0 0.01 0.0 2.071429913261567e-12 0.0 0.009999999500000035 0.009999990500013538 0.0 7.418838428166754e-13 0.0 0.01 0.0 7.418838428166754e-13 0.0 0.010000000000000002 0.00999998950001654 0.0 8.395116778327419e-14 0.0 0.01 0.0 8.39511677700393e-14 0.0 0.010000000000000004 0.00999998900001815 0.0 5.4463445139815214e-17 0.0 0.01 0.0 5.4463445139815214e-17 0.0 0.01 0.0099999880000216 0.0 3.5100782820695994e-17 0.0 0.01 0.0 3.5100782820695994e-17 0.0 0.01 0.0099999920000096 0.0 3.585183261785264e-11 0.0 0.01 0.0 3.585183261785264e-11 0.0 0.009999999000000152 0.009999989500016538 0.0 2.324142565684681e-11 0.0 0.01 0.0 2.3241425653458677e-11 0.0 0.009999999500000039 0.009999987500023436 0.0 1.1109287668863914e-11 0.0 0.01 0.0 1.110928767055798e-11 0.0 0.01 0.009999985500031538 0.0 3.2257132840616274e-12 0.0 0.01 0.0 3.2257132840616274e-12 0.0 0.010000000000000004 0.00999998500003375 0.0 3.8703829417519866e-13 0.0 0.01 0.0 3.8703829417519866e-13 0.0 0.010000000000000004 0.009999983500040837 0.0 1.9183448960669267e-17 0.0 0.01 0.0 1.9183448960669267e-17 0.0 0.010000000500000038 0.00999998950001654 0.0 1.69772364488072e-10 0.0 0.01 0.0 1.6977236446096694e-10 0.0 0.009999998500000341 0.009999985500031538 0.0 1.1913208303692118e-10 0.0 0.01 0.0 1.1913208303692118e-10 0.0 0.009999999000000153 0.00999998300004335 0.0 6.212717157811883e-11 0.0 0.01 0.0 6.212717157811883e-11 0.0 0.009999999999999998 0.009999981000054151 0.0 2.2781658573568547e-11 0.0 0.01 0.0 2.2781658573568547e-11 0.0 0.01 0.009999979500063035 0.0 4.924168728190147e-12 0.0 0.01 0.0 4.924168728190147e-12 0.0 0.010000000500000036 0.00999997850006934 0.0 3.863037020988353e-13 0.0 0.01 0.0 3.8630370212530507e-13 0.0 0.010000001000000152 0.009999983000043398 0.0 5.611217507349789e-10 0.0 0.01 0.0 5.61121750789189e-10 0.0 0.009999998000000647 0.009999979500063065 0.0 4.047394946862619e-10 0.0 0.01 0.0 4.047394946862619e-10 0.0 0.009999999000000174 0.009999976500082842 0.0 2.1893739325282678e-10 0.0 0.01 0.0 2.189373932663793e-10 0.0 0.010000000000000005 0.009999974000101403 0.0 8.737046925787889e-11 0.0 0.01 0.0 8.737046925110263e-11 0.0 0.010000000000000002 0.009999972500113436 0.0 2.339750049489117e-11 0.0 0.01 0.0 2.3397500496585236e-11 0.0 0.01000000100000015 0.009999971000126145 0.0 3.3059436652432605e-12 0.0 0.01 0.0 3.3059436652432605e-12 0.0 0.010000001000000149 0.009999973500105659 0.0 1.4647677683407231e-09 0.0 0.01 0.0 1.4647677683407231e-09 0.0 0.00999999700000167 0.009999969500139705 0.0 1.0500462597953092e-09 0.0 0.01 0.0 1.0500462597953092e-09 0.0 0.009999998500000508 0.009999966500168385 0.0 5.698142367021111e-10 0.0 0.01 0.0 5.698142366750061e-10 0.0 0.010000000000000049 0.009999964500189045 0.0 2.337920301147614e-10 0.0 0.01 0.0 2.337920301147614e-10 0.0 0.010000001000000158 0.009999962500210938 0.0 6.861468896990396e-11 0.0 0.01 0.0 6.861468896990396e-11 0.0 0.010000001450000318 0.009999962000216599 0.0 1.2296480006505862e-11 0.0 0.01 0.0 1.2296480006505862e-11 0.0 0.010000001950000571 0.0099999610002296 0.0 3.113292102742936e-09 0.0 0.01 0.0 3.113292102742936e-09 0.0 0.009999996500003288 0.009999956500284549 0.0 2.182634467043018e-09 0.0 0.01 0.0 2.1826344672598585e-09 0.0 0.009999998500001049 0.0099999540003176 0.0 1.1648972122742067e-09 0.0 0.01 0.0 1.1648972122199966e-09 0.0 0.010000000000000205 0.009999952000345627 0.0 4.774560119963139e-10 0.0 0.01 0.0 4.774560120098664e-10 0.0 0.0100000019500006 0.009999950500367536 0.0 1.4485673267448582e-10 0.0 0.01 0.0 1.4485673267448582e-10 0.0 0.010000002450000904 0.009999950000374997 0.0 2.878466935192167e-11 0.0 0.01 0.0 2.878466935192167e-11 0.0 0.010000002950001308 0.009999944000474645 0.0 5.3212149118443686e-09 0.0 0.01 0.0 5.3212149118443686e-09 0.0 0.009999994500008788 0.009999938500569338 0.0 3.6540892188159993e-09 0.0 0.01 0.0 3.6540892188159993e-09 0.0 0.009999998500002343 0.009999936500605378 0.0 1.9063848063095162e-09 0.0 0.01 0.0 1.9063848063095162e-09 0.0 0.01000000145000086 0.009999935500624122 0.0 7.689414026980411e-10 0.0 0.01 0.0 7.689414026980411e-10 0.0 0.010000003400001827 0.009999934000653403 0.0 2.335796292509914e-10 0.0 0.01 0.0 2.3357962924421515e-10 0.0 0.010000004900003611 0.00999993400065339 0.0 4.800972599192029e-11 0.0 0.01 0.0 4.8009725991073255e-11 0.0 0.0100000049000036 0.009999923500885823 0.0 7.303039768194117e-09 0.0 0.01 0.0 7.303039768194117e-09 0.0 0.009999995500011037 0.009999919000987768 0.0 4.9197504251898005e-09 0.0 0.01 0.0 4.9197504251898005e-09 0.0 0.010000000000003631 0.009999917001034279 0.0 2.5075270101418065e-09 0.0 0.01 0.0 2.5075270101418065e-09 0.0 0.010000003400002674 0.009999914501096668 0.0 9.861676677770355e-10 0.0 0.01 0.0 9.86167667790588e-10 0.0 0.010000005850005279 0.009999913501122335 0.0 2.9331698739787013e-10 0.0 0.01 0.0 2.9331698739787013e-10 0.0 0.010000007800009139 0.00999991350112232 0.0 5.938456605036451e-11 0.0 0.01 0.0 5.938456605036451e-11 0.0 0.010000006350006047 0.009999898501555003 0.0 8.038627360550804e-09 0.0 0.01 0.0 8.038627360659224e-09 0.0 0.01000000145001001 0.009999893501705577 0.0 5.3355959851622385e-09 0.0 0.01 0.0 5.3355959851622385e-09 0.0 0.010000003400006004 0.00999989050179956 0.0 2.649803224877203e-09 0.0 0.01 0.0 2.649803224877203e-09 0.0 0.010000008800012672 0.009999888501864954 0.0 1.005556603573556e-09 0.0 0.01 0.0 1.005556603573556e-09 0.0 0.010000010750017484 0.00999988750189841 0.0 2.8630013182933236e-10 0.0 0.01 0.0 2.863001318327205e-10 0.0 0.010000011250018995 0.009999886001949362 0.0 5.433383443380726e-11 0.0 0.01 0.0 5.4333834432960225e-11 0.0 0.010000010250015758 0.00999986950256197 0.0 7.0653756253794345e-09 0.0 0.01 0.0 7.065375625487855e-09 0.0 0.010000012200029813 0.009999861502880495 0.0 4.636398459221484e-09 0.0 0.01 0.0 4.636398459275694e-09 0.0 0.01000001320002936 0.009999857503046612 0.0 2.2314349922415537e-09 0.0 0.01 0.0 2.2314349922415537e-09 0.0 0.010000016100039632 0.009999855003153773 0.0 8.040595741981961e-10 0.0 0.01 0.0 8.040595741914199e-10 0.0 0.01000001710004396 0.009999853003241277 0.0 2.1225094431360505e-10 0.0 0.01 0.0 2.1225094431360505e-10 0.0 0.010000017100043869 0.00999985350321926 0.0 3.515669919186635e-11 0.0 0.01 0.0 3.515669919186635e-11 0.0 0.010000014650032195 0.009999826504518899 0.0 4.961072563771773e-09 0.0 0.01 0.0 4.961072563825983e-09 0.0 0.010000027850120033 0.009999819004915526 0.0 3.186384819355275e-09 0.0 0.01 0.0 3.186384819355275e-09 0.0 0.010000025900102148 0.009999815005133911 0.0 1.4623968085482938e-09 0.0 0.01 0.0 1.4623968085482938e-09 0.0 0.010000026850108458 0.00999981250527331 0.0 4.860248181122278e-10 0.0 0.01 0.0 4.860248181088396e-10 0.0 0.010000026850108175 0.009999811505329671 0.0 1.1233940321328593e-10 0.0 0.01 0.0 1.123394032124389e-10 0.0 0.010000024900093005 0.009999811505329673 0.0 1.415924975116882e-11 0.0 0.01 0.0 1.4159249751380578e-11 0.0 0.010000021000066152 0.009999770507901323 0.0 2.697230930222066e-09 0.0 0.01 0.0 2.697230930222066e-09 0.0 0.01000004395029083 0.009999763508389917 0.0 1.6562907938138323e-09 0.0 0.01 0.0 1.6562907938138323e-09 0.0 0.010000040050241014 0.009999759508675765 0.0 6.986503387672533e-10 0.0 0.01 0.0 6.986503387672533e-10 0.0 0.010000039050228811 0.009999758008784256 0.0 2.0278492247007463e-10 0.0 0.01 0.0 2.0278492247007463e-10 0.0 0.010000037100206468 0.009999757508820581 0.0 3.635028956788791e-11 0.0 0.01 0.0 3.6350289567676155e-11 0.0 0.010000032700160396 0.00999975850874799 0.0 2.4479498000227743e-12 0.0 0.01 0.0 2.4479498000095394e-12 0.0 0.010000027850116349 0.009999697513725404 0.0 1.0169883390451315e-09 0.0 0.01 0.0 1.0169883390485196e-09 0.0 0.010000062500586101 0.009999692514182762 0.0 5.676995201242627e-10 0.0 0.01 0.0 5.676995201208746e-10 0.0 0.010000057600497719 0.009999689514460798 0.0 2.0659719749136017e-10 0.0 0.01 0.0 2.065971974922072e-10 0.0 0.010000054200440657 0.009999688014600841 0.0 4.548974530847097e-11 0.0 0.01 0.0 4.548974530825921e-11 0.0 0.01000005125039399 0.009999688514554086 0.0 4.347593692029372e-12 0.0 0.01 0.0 4.347593692002902e-12 0.0 0.010000044900302407 0.009999691014321412 0.0 1.2683457759928218e-15 0.0 0.01 0.0 1.2683457759928218e-15 0.0 0.010000036600200936 0.009999605023402214 0.0 1.8600470063607442e-10 0.0 0.01 0.0 1.8600470063607442e-10 0.0 0.010000084451069792 0.00999960252369937 0.0 8.7653729043381e-11 0.0 0.01 0.0 8.765372904295748e-11 0.0 0.010000075700859586 0.009999601023878563 0.0 2.2362473294602844e-11 0.0 0.01 0.0 2.2362473294549904e-11 0.0 0.010000071300762565 0.009999601023878561 0.0 1.8004609416563252e-12 0.0 0.01 0.0 1.8004609416629427e-12 0.0 0.010000065900651429 0.009999603523580277 0.0 -1.3457209414272429e-14 0.0 0.01 0.0 -1.3457209414272429e-14 0.0 0.010000057600497667 0.009999608522989338 0.0 1.045380592451836e-15 0.0 0.01 0.0 1.045380592451836e-15 0.0 0.010000048350350663 0.009999491038858855 0.0 2.642397444192484e-12 0.0 0.01 0.0 2.642397444192484e-12 0.0 0.010000110851843194 0.009999489539088214 0.0 1.0015245229715239e-13 0.0 0.01 0.0 1.0015245229715239e-13 0.0 0.010000100601518081 0.009999490538935233 0.0 -2.7070804780091717e-13 0.0 0.01 0.0 -2.707080477992628e-13 0.0 0.010000092751290405 0.009999492038706323 0.0 -9.71404181461151e-14 0.0 0.01 0.0 -9.71404181465287e-14 0.0 0.010000085451095271 0.00999949703794817 0.0 -1.8524757762805828e-14 0.0 0.01 0.0 -1.8524757762857527e-14 0.0 0.01000007375081587 0.009999503536973778 0.0 1.8977733021869026e-15 0.0 0.01 0.0 1.8977733021869026e-15 0.0 0.010000060550549951 0.00999934806375867 0.0 -7.152954075889073e-13 0.0 0.01 0.0 -7.152954075872529e-13 0.0 0.010000145503175616 0.009999348063758672 0.0 -7.077872194050422e-13 0.0 0.01 0.0 -7.077872194050422e-13 0.0 0.010000130352548726 0.009999350063368138 0.0 -3.925794114747989e-13 0.0 0.01 0.0 -3.925794114731445e-13 0.0 0.01000011865211172 0.009999356062203727 0.0 -1.3860334494833908e-13 0.0 0.01 0.0 -1.3860334494833908e-13 0.0 0.010000108401762619 0.00999936456057262 0.0 -2.5490159250640096e-14 0.0 0.01 0.0 -2.5490159250640096e-14 0.0 0.010000093251304352 0.009999375058587646 0.0 2.0898685504133635e-15 0.0 0.01 0.0 2.0898685504133635e-15 0.0 0.010000076150869834 0.009999166104318901 0.0 -9.839733097529463e-13 0.0 0.01 0.0 -9.839733097529463e-13 0.0 0.010000191405495268 0.009999169103569806 0.0 -1.0103255519774985e-12 0.0 0.01 0.0 -1.0103255519758441e-12 0.0 0.010000167504208554 0.009999175102079717 0.0 -5.601857331427326e-13 0.0 0.01 0.0 -5.601857331427326e-13 0.0 0.010000149403348141 0.009999185599498032 0.0 -1.9435940754404637e-13 0.0 0.01 0.0 -1.9435940754404637e-13 0.0 0.010000135752764275 0.009999199596107218 0.0 -3.722771659872934e-14 0.0 0.01 0.0 -3.7227716598781037e-14 0.0 0.010000115702008015 0.00999921709195135 0.0 1.923989400729716e-15 0.0 0.01 0.0 1.923989400729716e-15 0.0 0.010000092751290404 0.009998934170423125 0.0 -1.2730865168787696e-12 0.0 0.01 0.0 -1.2730865168787696e-12 0.0 0.010000247559192533 0.009998942667716377 0.0 -1.4056037569713572e-12 0.0 0.01 0.0 -1.4056037569713572e-12 0.0 0.010000209456580627 0.009998956663305436 0.0 -7.951109208581653e-13 0.0 0.01 0.0 -7.951109208589924e-13 0.0 0.010000185055136687 0.00999897565741316 0.0 -2.802186985831671e-13 0.0 0.01 0.0 -2.802186985831671e-13 0.0 0.010000167004183469 0.009998999650125007 0.0 -5.5488041497044436e-14 0.0 0.01 0.0 -5.5488041497044436e-14 0.0 0.010000141603007658 0.009999023643009563 0.0 -7.818093277261606e-16 0.0 0.01 0.0 -7.818093277261606e-16 0.0 0.010000113751940896 0.009998644275748082 0.0 -1.4803416254030214e-12 0.0 0.01 0.0 -1.4803416254030214e-12 0.0 0.010000316415017136 0.00999866376787517 0.0 -1.9361823335662962e-12 0.0 0.01 0.0 -1.9361823335662962e-12 0.0 0.010000258310008264 0.009998689257751834 0.0 -1.1519007975376926e-12 0.0 0.01 0.0 -1.151900797539347e-12 0.0 0.010000223157469663 0.009998720245707584 0.0 -4.2654703194640907e-13 0.0 0.01 0.0 -4.2654703194640907e-13 0.0 0.0100002011560694 0.009998756232082283 0.0 -9.759144590172943e-14 0.0 0.01 0.0 -9.759144590172943e-14 0.0 0.010000171854429992 0.009998792718664431 0.0 -1.093020260710118e-14 0.0 0.01 0.0 -1.093020260710118e-14 0.0 0.01000013770284426 0.00999829293720902 0.0 -1.5273613507804809e-12 0.0 0.01 0.0 -1.5273613507804809e-12 0.0 0.010000393573233766 0.009998326420224163 0.0 -2.7259056506779585e-12 0.0 0.01 0.0 -2.725905650679613e-12 0.0 0.010000308114239576 0.009998366900139402 0.0 -1.7608173009693578e-12 0.0 0.01 0.0 -1.7608173009726665e-12 0.0 0.010000264160466746 0.009998415376734232 0.0 -7.139452036694308e-13 0.0 0.01 0.0 -7.139452036686036e-13 0.0 0.010000241708763189 0.009998467852193485 0.0 -2.0108978597089947e-13 0.0 0.01 0.0 -2.0108978597069267e-13 0.0 0.010000208006489826 0.009998519828700935 0.0 -4.442857809076241e-14 0.0 0.01 0.0 -4.442857809076241e-14 0.0 0.010000168454256433 0.009997875677103949 0.0 -1.4030697115094309e-12 0.0 0.01 0.0 -1.4030697115086037e-12 0.0 0.010000476584067695 0.009997930142823715 0.0 -4.095705170785719e-12 0.0 0.01 0.0 -4.095705170785719e-12 0.0 0.010000354518851654 0.009997994103704453 0.0 -2.92595318341499e-12 0.0 0.01 0.0 -2.925953183416644e-12 0.0 0.010000307164151892 0.009998065061742833 0.0 -1.307323991174913e-12 0.0 0.01 0.0 -1.307323991174913e-12 0.0 0.01000029151274646 0.009998137520453754 0.0 -4.381714619602206e-13 0.0 0.01 0.0 -4.381714619602206e-13 0.0 0.010000255859819304 0.00999820748208329 0.0 -1.4026490576717437e-13 0.0 0.01 0.0 -1.4026490576707097e-13 0.0 0.010000210456643613 0.009997413004228453 0.0 -1.3753850312023555e-12 0.0 0.01 0.0 -1.37538503120401e-12 0.0 0.010000555246241336 0.009997493442739456 0.0 -6.9892060500332734e-12 0.0 0.01 0.0 -6.989206050036582e-12 0.0 0.01000039407329284 0.009997584375568209 0.0 -5.452413029445596e-12 0.0 0.01 0.0 -5.452413029445596e-12 0.0 0.010000360369478987 0.009997679308091681 0.0 -2.6110968168255688e-12 0.0 0.01 0.0 -2.6110968168255688e-12 0.0 0.010000360369478987 0.009997776741651502 0.0 -9.598533185707784e-13 0.0 0.01 0.0 -9.598533185699512e-13 0.0 0.010000324715815374 0.009997867182530646 0.0 -3.673472733302734e-13 0.0 0.01 0.0 -3.67347273330687e-13 0.0 0.010000272961175763 0.009996940404741517 0.0 -2.7241322300071324e-12 0.0 0.01 0.0 -2.7241322300071324e-12 0.0 0.01000062360832825 0.00999704980606038 0.0 -1.3872981905151337e-11 0.0 0.01 0.0 -1.3872981905157955e-11 0.0 0.010000430677820912 0.009997169702041588 0.0 -1.1385356342995126e-11 0.0 0.01 0.0 -1.1385356342995126e-11 0.0 0.010000440929161067 0.009997292100305375 0.0 -5.624779758039766e-12 0.0 0.01 0.0 -5.624779758039766e-12 0.0 0.01000047073323638 0.00999741350384054 0.0 -2.0785736346370877e-12 0.0 0.01 0.0 -2.0785736346370877e-12 0.0 0.010000435578457638 0.009997524419578291 0.0 -7.799058330097151e-13 0.0 0.01 0.0 -7.799058330093016e-13 0.0 0.010000371620714267 0.009996528808212729 0.0 -8.314385285972403e-12 0.0 0.01 0.0 -8.31438528597902e-12 0.0 0.010000676818706335 0.00999666217190851 0.0 -3.053697156678154e-11 0.0 0.01 0.0 -3.053697156678154e-11 0.0 0.010000482934981679 0.009996806030867748 0.0 -2.5828288244929262e-11 0.0 0.01 0.0 -2.5828288244916027e-11 0.0 0.010000582550900883 0.00999695239375191 0.0 -1.2819124421172605e-11 0.0 0.01 0.0 -1.2819124421172605e-11 0.0 0.010000659715277894 0.00999709426698351 0.0 -4.43265591964792e-12 0.0 0.01 0.0 -4.432655919646266e-12 0.0 0.010000619207507944 0.009997223157056893 0.0 -1.3682214100202381e-12 0.0 0.01 0.0 -1.3682214100210653e-12 0.0 0.010000531292337734 0.009996272085638469 0.0 -2.3243934904351314e-11 0.0 0.01 0.0 -2.3243934904357932e-11 0.0 0.010000741282416797 0.009996420922386843 0.0 -6.86832047037365e-11 0.0 0.01 0.0 -6.868320470376297e-11 0.0 0.010000600654113472 0.009996577258076648 0.0 -5.932904825979785e-11 0.0 0.01 0.0 -5.932904825974491e-11 0.0 0.010000836554961928 0.009996734100611793 0.0 -2.9369101380389075e-11 0.0 0.01 0.0 -2.936910138040231e-11 0.0 0.010000971841653074 0.009996885955195448 0.0 -9.326764244884986e-12 0.0 0.01 0.0 -9.326764244884986e-12 0.0 0.010000917626290249 0.0099970243287201 0.0 -1.8592388990976274e-12 0.0 0.01 0.0 -1.8592388990992817e-12 0.0 0.010000787192941155 0.009996297057783108 0.0 -5.456570031494904e-11 0.0 0.01 0.0 -5.456570031497551e-11 0.0 0.010000898070965235 0.009996437904183352 0.0 -1.4673118796683978e-10 0.0 0.01 0.0 -1.4673118796683978e-10 0.0 0.010000880016150638 0.009996587247826911 0.0 -1.285772551686901e-10 0.0 0.01 0.0 -1.285772551686901e-10 0.0 0.010001261938833262 0.009996735099632493 0.0 -6.363246940517996e-11 0.0 0.01 0.0 -6.363246940520643e-11 0.0 0.010001453416801667 0.00999687746314461 0.0 -1.8937245454562185e-11 0.0 0.01 0.0 -1.8937245454562185e-11 0.0 0.010001377734670636 0.009997011839898949 0.0 -1.841784350058608e-12 0.0 0.01 0.0 -1.841784350057781e-12 0.0 0.010001179408617897 0.009996728606003301 0.0 -1.0746262741887419e-10 0.0 0.01 0.0 -1.0746262741887419e-10 0.0 0.010001321561932737 0.009996836501791588 0.0 -2.796810031764868e-10 0.0 0.01 0.0 -2.796810031764868e-10 0.0 0.010001469073663227 0.009996949396495279 0.0 -2.476300469531517e-10 0.0 0.01 0.0 -2.4763004695325756e-10 0.0 0.010001915100000772 0.009997062295023822 0.0 -1.2347174730087443e-10 0.0 0.01 0.0 -1.2347174730076855e-10 0.0 0.010002144239467317 0.009997173199072451 0.0 -3.5680492120006355e-11 0.0 0.01 0.0 -3.568049212001959e-11 0.0 0.010002028917308819 0.009997283607219474 0.0 -1.0053959977002148e-12 0.0 0.01 0.0 -1.0053959977006284e-12 0.0 0.010001737752862826 0.009997654825234745 0.0 -1.7543960108519587e-10 0.0 0.01 0.0 -1.754396010852488e-10 0.0 0.010002356782902115 0.009997705290095795 0.0 -4.516914021077428e-10 0.0 0.01 0.0 -4.516914021077428e-10 0.0 0.010002640195226703 0.009997756255384493 0.0 -4.0445191628326705e-10 0.0 0.01 0.0 -4.0445191628337293e-10 0.0 0.010002942197970165 0.00999780922013782 0.0 -2.054233696874703e-10 0.0 0.01 0.0 -2.054233696874703e-10 0.0 0.010003072715657228 0.009997866183170502 0.0 -5.995439788523722e-11 0.0 0.01 0.0 -5.995439788526369e-11 0.0 0.010002885048045232 0.009997932141582656 0.0 -4.932961194412931e-14 0.0 0.01 0.0 -4.932961194412931e-14 0.0 0.010002469664585307 0.009999077127769708 0.0 -2.295834532828712e-10 0.0 0.01 0.0 -2.2958345328281827e-10 0.0 0.010004379325094397 0.009999052634642229 0.0 -5.991662979654229e-10 0.0 0.01 0.0 -5.991662979656347e-10 0.0 0.010004784681787603 0.009999028141694693 0.0 -5.489385876929528e-10 0.0 0.01 0.0 -5.489385876931646e-10 0.0 0.010004602275192101 0.009999005148479142 0.0 -2.8564452093123056e-10 0.0 0.01 0.0 -2.8564452093123056e-10 0.0 0.010004312337835651 0.009998993651930854 0.0 -8.616744471417644e-11 0.0 0.01 0.0 -8.616744471417644e-11 0.0 0.010003927112120744 0.009998997650725755 0.0 -5.173868641864939e-13 0.0 0.01 0.0 -5.173868641864939e-13 0.0 0.010003348831450003 0.010000870213577581 0.0 -2.2795229081947655e-10 0.0 0.01 0.0 -2.2795229081947655e-10 0.0 0.010007043083773065 0.010000771089177669 0.0 -6.345271519356186e-10 0.0 0.01 0.0 -6.345271519356186e-10 0.0 0.01000768068989621 0.01000066851703133 0.0 -6.009823118154934e-10 0.0 0.01 0.0 -6.009823118154934e-10 0.0 0.010006790109582345 0.01000057229912521 0.0 -3.211648117198585e-10 0.0 0.01 0.0 -3.2116481172007026e-10 0.0 0.01000579162755993 0.010000490736120932 0.0 -1.01842079850609e-10 0.0 0.01 0.0 -1.01842079850609e-10 0.0 0.010005090334088886 0.010000431177885558 0.0 -3.233896664750075e-12 0.0 0.01 0.0 -3.233896664750075e-12 0.0 0.010004309434083553 0.010002774604337334 0.0 -1.875842887279366e-10 0.0 0.01 0.0 -1.8758428872798954e-10 0.0 0.010009233974213194 0.010002618728301675 0.0 -5.23853860911643e-10 0.0 0.01 0.0 -5.23853860911643e-10 0.0 0.010010237399220408 0.010002456454829224 0.0 -5.15813647658133e-10 0.0 0.01 0.0 -5.15813647658133e-10 0.0 0.010008858908148472 0.010002304996706625 0.0 -2.8485114559534953e-10 0.0 0.01 0.0 -2.8485114559534953e-10 0.0 0.010007235395072542 0.01000216915558132 0.0 -9.568851418601313e-11 0.0 0.01 0.0 -9.568851418598667e-11 0.0 0.010006226009656392 0.01000205583379416 0.0 -6.283793342434849e-12 0.0 0.01 0.0 -6.283793342434849e-12 0.0 0.010005247277200039 0.010004438002632874 0.0 -1.6945270975982805e-10 0.0 0.01 0.0 -1.69452709759881e-10 0.0 0.010010345632699702 0.010004263975673621 0.0 -3.586852608160349e-10 0.0 0.01 0.0 -3.586852608160349e-10 0.0 0.010011770750014451 0.010004078193393372 0.0 -3.515473310957823e-10 0.0 0.01 0.0 -3.515473310957823e-10 0.0 0.010010327025118575 0.010003900731169085 0.0 -1.9928327413618642e-10 0.0 0.01 0.0 -1.9928327413613348e-10 0.0 0.010008400723979807 0.010003735992603688 0.0 -7.02134497947229e-11 0.0 0.01 0.0 -7.02134497947229e-11 0.0 0.010007200168906069 0.010003586378394345 0.0 -7.055216005722232e-12 0.0 0.01 0.0 -7.055216005722232e-12 0.0 0.010006068018662368 0.010005556377571261 0.0 -1.1636231649615246e-10 0.0 0.01 0.0 -1.1636231649612599e-10 0.0 0.010010649286974935 0.010005397416673379 0.0 -2.2897594825527397e-10 0.0 0.01 0.0 -2.289759482553269e-10 0.0 0.010012335788265483 0.010005225292701047 0.0 -2.0401156614168776e-10 0.0 0.01 0.0 -2.040115661417407e-10 0.0 0.010011109786717145 0.01000505117457877 0.0 -1.1420560917664535e-10 0.0 0.01 0.0 -1.1420560917664535e-10 0.0 0.010009181078369886 0.010004881972722963 0.0 -4.054808359939409e-11 0.0 0.01 0.0 -4.054808359936762e-11 0.0 0.010007927867707324 0.010004717185678027 0.0 -5.27899821966113e-12 0.0 0.01 0.0 -5.2789982196578214e-12 0.0 0.010006704987504963 0.01000600049657604 0.0 -3.693462269828394e-11 0.0 0.01 0.0 -3.693462269828394e-11 0.0 0.010010619943556908 0.01000587677641888 0.0 -1.0660318161083015e-10 0.0 0.01 0.0 -1.0660318161083015e-10 0.0 0.01001246958486431 0.01000573928713426 0.0 -9.340573546265382e-11 0.0 0.01 0.0 -9.340573546265382e-11 0.0 0.010011453748243328 0.010005588681515533 0.0 -5.010359056800066e-11 0.0 0.01 0.0 -5.010359056800066e-11 0.0 0.010009646741009001 0.010005430219892935 0.0 -1.7297625081732476e-11 0.0 0.01 0.0 -1.729762508174571e-11 0.0 0.010008411952248846 0.010005265856468212 0.0 -2.730568393922037e-12 0.0 0.01 0.0 -2.730568393922037e-12 0.0 0.010007142895861949 0.010005872368659886 0.0 1.0390224216265055e-11 0.0 0.01 0.0 1.0390224216271673e-11 0.0 0.010010524892718092 0.010005785767394868 0.0 -2.5654488231086413e-11 0.0 0.01 0.0 -2.5654488231079796e-11 0.0 0.010012462207342726 0.010005683040874748 0.0 -2.5886192087729405e-11 0.0 0.01 0.0 -2.5886192087722788e-11 0.0 0.010011599250224188 0.01000556373983801 0.0 -1.367653614360436e-11 0.0 0.01 0.0 -1.367653614360436e-11 0.0 0.010009903843512885 0.010005423358734835 0.0 -4.613537269059174e-12 0.0 0.01 0.0 -4.613537269059174e-12 0.0 0.010008695879611257 0.010005270764216706 0.0 -9.661874406573105e-13 0.0 0.01 0.0 -9.661874406573105e-13 0.0 0.01000740371413827 0.010005401322994047 0.0 1.5297503607166908e-11 0.0 0.01 0.0 1.529750360716029e-11 0.0 0.010010470020273938 0.010005346584840712 0.0 3.149253670322494e-12 0.0 0.01 0.0 3.149253670322494e-12 0.0 0.010012432797792929 0.010005275171180692 0.0 -6.07100046540249e-13 0.0 0.01 0.0 -6.071000465406626e-13 0.0 0.01001164430695155 0.010005179321028 0.0 -6.4343744483488e-13 0.0 0.01 0.0 -6.4343744483488e-13 0.0 0.01001001402203646 0.010005060989451172 0.0 -2.812597318863115e-13 0.0 0.01 0.0 -2.812597318862081e-13 0.0 0.010008823664834616 0.010004922081649695 0.0 -1.9746948289637323e-13 0.0 0.01 0.0 -1.9746948289637323e-13 0.0 0.010007522128858975 0.010004829195918899 0.0 4.008717360801213e-12 0.0 0.01 0.0 4.008717360800386e-12 0.0 0.010010476891819439 0.01000479544724291 0.0 2.3246570454871706e-12 0.0 0.01 0.0 2.3246570454871706e-12 0.0 0.01001241909684542 0.010004744073801277 0.0 6.826829026747779e-13 0.0 0.01 0.0 6.826829026747779e-13 0.0 0.010011632064306199 0.010004667315542903 0.0 1.0206639435706325e-15 0.0 0.01 0.0 1.0206639435706325e-15 0.0 0.01001001748241315 0.01000456512415209 0.0 -5.71194775919282e-14 0.0 0.01 0.0 -5.71194775919282e-14 0.0 0.010008834443333461 0.010004441457230031 0.0 6.6247445086323996e-15 0.0 0.01 0.0 6.6247445086323996e-15 0.0 0.010007533404284319 0.010004308432790316 0.0 -4.493779042418642e-12 0.0 0.01 0.0 -4.493779042417815e-12 0.0 0.010010534222126503 0.010004284501971406 0.0 -9.045754971748366e-12 0.0 0.01 0.0 -9.045754971746712e-12 0.0 0.010012424466807154 0.010004242448228716 0.0 -8.419765235824587e-12 0.0 0.01 0.0 -8.419765235822932e-12 0.0 0.010011576722088631 0.010004176464972722 0.0 -4.727634122439284e-12 0.0 0.01 0.0 -4.727634122440939e-12 0.0 0.010009935186600614 0.010004085502336248 0.0 -1.5404820412919602e-12 0.0 0.01 0.0 -1.5404820412923738e-12 0.0 0.010008751224199336 0.010003972115402321 0.0 -5.301068100984477e-14 0.0 0.01 0.0 -5.301068100984477e-14 0.0 0.0100074580350541 0.010003873349263517 0.0 -1.151030943412536e-11 0.0 0.01 0.0 -1.151030943412867e-11 0.0 0.01001043771918395 0.010003849872086596 0.0 -2.7462939655681616e-11 0.0 0.01 0.0 -2.7462939655675e-11 0.0 0.010012266683870764 0.01000380977605363 0.0 -2.4771133782466547e-11 0.0 0.01 0.0 -2.4771133782466547e-11 0.0 0.0100113895286973 0.01000374770574249 0.0 -1.3387158127451542e-11 0.0 0.01 0.0 -1.3387158127448233e-11 0.0 0.010009750592590384 0.01000366166018185 0.0 -4.362959521954256e-12 0.0 0.01 0.0 -4.362959521955911e-12 0.0 0.010008574966911779 0.010003556596507434 0.0 -3.5922693003461997e-13 0.0 0.01 0.0 -3.5922693003461997e-13 0.0 0.010007303393148636 0.010003476411976119 0.0 -2.4307906242028612e-11 0.0 0.01 0.0 -2.4307906242028612e-11 0.0 0.010010167836738262 0.010003449033554643 0.0 -5.5561830189597496e-11 0.0 0.01 0.0 -5.556183018958426e-11 0.0 0.010011928057893162 0.010003405538864654 0.0 -4.937013174457454e-11 0.0 0.01 0.0 -4.937013174457454e-11 0.0 0.010011055406314338 0.010003340072667885 0.0 -2.6545862817407607e-11 0.0 0.01 0.0 -2.6545862817407607e-11 0.0 0.010009456246197127 0.010003254037625286 0.0 -8.763225255022753e-12 0.0 0.01 0.0 -8.763225255022753e-12 0.0 0.010008310147316441 0.010003150888589437 0.0 -9.536156602507635e-13 0.0 0.01 0.0 -9.536156602507635e-13 0.0 0.01000707389893361 0.010003057051263187 0.0 -4.442231269675013e-11 0.0 0.01 0.0 -4.4422312696736896e-11 0.0 0.0100097432210775 0.010003021368748954 0.0 -9.246037675032826e-11 0.0 0.01 0.0 -9.246037675032826e-11 0.0 0.010011416019110288 0.010002966169202218 0.0 -8.091339284097817e-11 0.0 0.01 0.0 -8.091339284097817e-11 0.0 0.01001058071908317 0.010002893355241424 0.0 -4.333708807142927e-11 0.0 0.01 0.0 -4.333708807142927e-11 0.0 0.010009057691420707 0.010002800475960732 0.0 -1.440294681896568e-11 0.0 0.01 0.0 -1.4402946818968988e-11 0.0 0.010007959693431955 0.01000269153626528 0.0 -1.6985210436001445e-12 0.0 0.01 0.0 -1.6985210436009717e-12 0.0 0.010006768114911566 0.01000258545233903 0.0 -6.742452689984853e-11 0.0 0.01 0.0 -6.742452689986177e-11 0.0 0.0100091943147866 0.010002533662591732 0.0 -1.3210137197267903e-10 0.0 0.01 0.0 -1.3210137197265256e-10 0.0 0.010010760994963121 0.01000246431062482 0.0 -1.1410468064918376e-10 0.0 0.01 0.0 -1.1410468064918376e-10 0.0 0.010009981725360415 0.010002376346785304 0.0 -6.052518657225523e-11 0.0 0.01 0.0 -6.052518657226846e-11 0.0 0.0100085641892512 0.010002268371593083 0.0 -1.9981473523922483e-11 0.0 0.01 0.0 -1.9981473523915865e-11 0.0 0.010007526538798574 0.010002149642946104 0.0 -2.290907802973262e-12 0.0 0.01 0.0 -2.290907802974089e-12 0.0 0.010006395780673225 0.010002089504722088 0.0 -8.677319410174551e-11 0.0 0.01 0.0 -8.677319410177198e-11 0.0 0.010008553912909585 0.010002017210206434 0.0 -1.677373712721208e-10 0.0 0.01 0.0 -1.6773737127214728e-10 0.0 0.010009986138552368 0.010001924855617777 0.0 -1.413947441375298e-10 0.0 0.01 0.0 -1.4139474413747686e-10 0.0 0.010009283411276083 0.010001811041862122 0.0 -7.367375961654927e-11 0.0 0.01 0.0 -7.367375961654927e-11 0.0 0.010007992972939618 0.010001683525043078 0.0 -2.384082209357358e-11 0.0 0.01 0.0 -2.3840822093566963e-11 0.0 0.010007029855889025 0.010001549660142571 0.0 -2.495129355096039e-12 0.0 0.01 0.0 -2.495129355096039e-12 0.0 0.0100059696913305 0.010001635651215738 0.0 -9.812971974856185e-11 0.0 0.01 0.0 -9.812971974856185e-11 0.0 0.010007855947699918 0.01000153355269547 0.0 -2.1213929775998357e-10 0.0 0.01 0.0 -2.1213929776008945e-10 0.0 0.010009145330279592 0.010001408997735262 0.0 -1.615466916008059e-10 0.0 0.01 0.0 -1.615466916008059e-10 0.0 0.010008522131643651 0.010001263439401541 0.0 -7.900649068113608e-11 0.0 0.01 0.0 -7.900649068113608e-11 0.0 0.01000736653188114 0.010001108084150365 0.0 -2.4949187162308014e-11 0.0 0.01 0.0 -2.4949187162308014e-11 0.0 0.010006485303423162 0.010000958637830357 0.0 -2.3738201262471183e-12 0.0 0.01 0.0 -2.3738201262471183e-12 0.0 0.010005503540011264 0.010001286848354196 0.0 -9.620129506277993e-11 0.0 0.01 0.0 -9.620129506277993e-11 0.0 0.010007136031179878 0.010001148147706347 0.0 -9.574566628254229e-10 0.0 0.01 0.0 -9.574566628252111e-10 0.0 0.01000828959622999 0.010000982544790267 0.0 -8.128195047679773e-10 0.0 0.01 0.0 -8.128195047679773e-10 0.0 0.010007734564277546 0.010000799895964814 0.0 -3.126315624163202e-10 0.0 0.01 0.0 -3.126315624164261e-10 0.0 0.010006711851300027 0.01000061625696122 0.0 -4.4764923737579776e-11 0.0 0.01 0.0 -4.4764923737579776e-11 0.0 0.01000591834988685 0.010000449230269364 0.0 -2.0830540655701673e-12 0.0 0.01 0.0 -2.08305406556934e-12 0.0 0.01000501987734694 0.010001068021075992 0.0 -5.340969085605479e-11 0.0 0.01 0.0 -5.340969085605479e-11 0.0 0.010006406050368644 0.010000887818221333 0.0 -3.786277552178188e-09 0.0 0.01 0.0 -3.786277552178188e-09 0.0 0.01000743944357313 0.010000681719706951 0.0 -3.674139270850602e-09 0.0 0.01 0.0 -3.674139270851449e-09 0.0 0.010006956452108999 0.01000046148194335 0.0 -1.7870193719424945e-09 0.0 0.01 0.0 -1.7870193719424945e-09 0.0 0.010006060705373838 0.010000250009375421 0.0 -4.544176828824777e-10 0.0 0.01 0.0 -4.544176828824777e-10 0.0 0.010005355348894553 0.010000064450623077 0.0 -3.998633839209222e-11 0.0 0.01 0.0 -3.998633839209222e-11 0.0 0.010004543144149454 0.010000960088247787 0.0 6.744694417480941e-10 0.0 0.01 0.0 6.744694417480941e-10 0.0 0.010005665961833266 0.01000073738156344 0.0 -8.846126413673586e-09 0.0 0.01 0.0 -8.84612641367528e-09 0.0 0.010006607142397466 0.010000494186643678 0.0 -9.324173161841292e-09 0.0 0.01 0.0 -9.324173161837904e-09 0.0 0.010006215239595434 0.010000244158945341 0.0 -4.897650541490689e-09 0.0 0.01 0.0 -4.897650541490689e-09 0.0 0.010005445344543083 0.010000010750017633 0.0 -1.4081022215237404e-09 0.0 0.01 0.0 -1.4081022215237404e-09 0.0 0.010004822836721194 0.009999812505273278 0.0 -1.6827259317358558e-10 0.0 0.01 0.0 -1.6827259317358558e-10 0.0 0.010004091359514387 0.010000918076415 0.0 2.3503656386183913e-09 0.0 0.01 0.0 2.3503656386175442e-09 0.0 0.010004930894662865 0.010000650963582025 0.0 -1.2786782599953249e-08 0.0 0.01 0.0 -1.2786782599953249e-08 0.0 0.01000581316503162 0.010000373570964989 0.0 -1.4780399292307677e-08 0.0 0.01 0.0 -1.4780399292307677e-08 0.0 0.010005541703202468 0.010000105451676594 0.0 -7.57773897298343e-09 0.0 0.01 0.0 -7.57773897298343e-09 0.0 0.010004892237766773 0.009999866002693742 0.0 -1.6459421611638091e-09 0.0 0.01 0.0 -1.6459421611638091e-09 0.0 0.010004342176538466 0.009999665516782608 0.0 1.654792181205054e-10 0.0 0.01 0.0 1.6547921812045247e-10 0.0 0.010003686137139804 0.01000093813199729 0.0 6.016844595928902e-10 0.0 0.01 0.0 6.016844595928902e-10 0.0 0.010004269332524558 0.010000587451770324 0.0 -7.936176216512953e-09 0.0 0.01 0.0 -7.936176216506176e-09 0.0 0.010005095692276785 0.010000268060801409 0.0 -1.246842867970468e-08 0.0 0.01 0.0 -1.246842867970468e-08 0.0 0.010004963643242083 0.009999996000005767 0.0 -4.737447661513387e-09 0.0 0.01 0.0 -4.737447661515081e-09 0.0 0.010004420879903138 0.009999773507695688 0.0 2.071269598140166e-09 0.0 0.01 0.0 2.0712695981418602e-09 0.0 0.010003926161001849 0.009999593524785702 0.0 2.638024087893705e-09 0.0 0.01 0.0 2.638024087893705e-09 0.0 0.010003338120714902 0.01000105971848424 0.0 -1.95949519834999e-08 0.0 0.01 0.0 -1.9594951983513452e-08 0.0 0.010003688539853253 0.010000542044087351 0.0 1.1189144449730027e-08 0.0 0.01 0.0 1.1189144449726639e-08 0.0 0.010004487869357676 0.01000015135344189 0.0 6.21169150873497e-09 0.0 0.01 0.0 6.211691508733276e-09 0.0 0.010004499134517066 0.009999881502119456 0.0 9.3693451974412e-09 0.0 0.01 0.0 9.3693451974412e-09 0.0 0.010004035641659836 0.009999699013617238 0.0 1.3610827875145716e-08 0.0 0.01 0.0 1.3610827875152492e-08 0.0 0.01000357611740585 0.009999560528986208 0.0 9.764033963448912e-09 0.0 0.01 0.0 9.764033963442136e-09 0.0 0.010003048743673451 0.010001275645059876 0.0 -8.212240574460156e-08 0.0 0.01 0.0 -8.212240574454735e-08 0.0 0.010003195882407657 0.010000521991042371 0.0 3.4071955861225234e-08 0.0 0.01 0.0 3.407195586121168e-08 0.0 0.01000399018714298 0.010000037100477364 0.0 4.250915446630686e-08 0.0 0.01 0.0 4.250915446632041e-08 0.0 0.010004130958584424 0.00999976050881315 0.0 3.737730675639481e-08 0.0 0.01 0.0 3.737730675639481e-08 0.0 0.01000373449113179 0.009999632020498235 0.0 3.5210278164803295e-08 0.0 0.01 0.0 3.521027816477619e-08 0.0 0.010003288721828395 0.00999955552972064 0.0 2.3920400109571534e-08 0.0 0.01 0.0 2.392040010955798e-08 0.0 0.010002813687165739 0.010000523991314745 0.0 2.9739855353396708e-08 0.0 0.01 0.0 2.9739855353396708e-08 0.0 0.010003510647964932 0.00999996550119822 0.0 8.247008158158791e-08 0.0 0.01 0.0 8.247008158161501e-08 0.0 0.010003794659843369 0.009999669517260994 0.0 7.649722996572856e-08 0.0 0.01 0.0 7.649722996572856e-08 0.0 0.01000349548278317 0.009999584026604084 0.0 6.57143835327645e-08 0.0 0.01 0.0 6.57143835327645e-08 0.0 0.010003054599664326 0.009999570527986598 0.0 4.605484996863499e-08 0.0 0.01 0.0 4.6054849968662093e-08 0.0 0.01000262163089999 0.010000581100775662 0.0 -2.9205392049555393e-08 0.0 0.01 0.0 -2.9205392049568945e-08 0.0 0.010003015513577936 0.009999990501494489 0.0 9.938567362410009e-08 0.0 0.01 0.0 9.93856736241543e-08 0.0 0.010003425610898148 0.009999666018788734 0.0 1.1710938338760054e-07 0.0 0.01 0.0 1.1710938338760054e-07 0.0 0.010003282867931446 0.0099995765284347 0.0 1.01139132075833e-07 0.0 0.01 0.0 1.0113913207577879e-07 0.0 0.010002869386067419 0.009999609523715411 0.0 7.499566758258818e-08 0.0 0.01 0.0 7.499566758253397e-08 0.0 0.010002460858919177 0.010000143053631423 0.0 6.121413978447542e-08 0.0 0.01 0.0 6.121413978452963e-08 0.0 0.01000303067775624 0.009999792509358533 0.0 1.3908092082984443e-07 0.0 0.01 0.0 1.3908092082989864e-07 0.0 0.01000306195866393 0.009999650521086383 0.0 1.3579271358797954e-07 0.0 0.01 0.0 1.3579271358808796e-07 0.0 0.010002726217197997 0.009999677517328007 0.0 1.0734564919850356e-07 0.0 0.01 0.0 1.0734564919850356e-07 0.0 0.01000233091644998 0.010000413576086447 0.0 -5.362099537339058e-08 0.0 0.01 0.0 -5.362099537339058e-08 0.0 0.010002632389487415 0.01000006545251624 0.0 1.1178482567543576e-07 0.0 0.01 0.0 1.1178482567554418e-07 0.0 0.010002818593095325 0.00999985100701125 0.0 1.5668402037296615e-07 0.0 0.01 0.0 1.5668402037296615e-07 0.0 0.010002610875825046 0.009999803008680749 0.0 1.3809322580457615e-07 0.0 0.01 0.0 1.3809322580457615e-07 0.0 0.01000223950494161 0.010000428227505397 0.0 9.85433603289543e-10 0.0 0.01 0.0 9.85433603289543e-10 0.0 0.01000256103349819 0.01000019335822319 0.0 1.3206640375100585e-07 0.0 0.01 0.0 1.3206640375100585e-07 0.0 0.010002497037582629 0.010000048854020626 0.0 1.562846887277411e-07 0.0 0.01 0.0 1.562846887277411e-07 0.0 0.01000218677074744 0.010000608455581733 0.0 1.8891865913273857e-08 0.0 0.01 0.0 1.8891865913273857e-08 0.0 0.010002359735043199 0.01000044973291293 0.0 1.3106828301140926e-07 0.0 0.01 0.0 1.3106828301140926e-07 0.0 0.010002138388285372 0.010000925433566657 0.0 -1.8477345285392542e-07 0.0 0.01 0.0 -1.8477345285392542e-07 0.0 0.010002208736679749 0.01000088146658321 0.0 1.8153205492358725e-08 0.0 0.01 0.0 1.8153205492358725e-08 0.0 0.010002070442881992 0.0099999960000024 0.0 1.3698960787947006e-17 0.0 0.01 0.0 1.3698960787947006e-17 0.0 0.01 0.009999995500003037 0.0 3.278116688383879e-18 0.0 0.01 0.0 3.278116688383879e-18 0.0 0.01 0.009999995500003037 0.0 -1.8162678888859521e-12 0.0 0.01 0.0 -1.8162678888859521e-12 0.0 0.01 0.009999995500003037 0.0 1.3291396666645177e-13 0.0 0.01 0.0 1.3291396666645177e-13 0.0 0.01 0.009999995500003037 0.0 1.9758929999968053e-12 0.0 0.01 0.0 1.9758929999968053e-12 0.0 0.01 0.00999999500000375 0.0 -6.665153899854514e-14 0.0 0.01 0.0 -6.665153899854514e-14 0.0 0.01 0.009999994500004536 0.0 -1.7359876362970367e-12 0.0 0.01 0.0 -1.7359876362970367e-12 0.0 0.01 0.009999994500004536 0.0 -1.8124077272031958e-12 0.0 0.01 0.0 -1.8124077272031958e-12 0.0 0.01 0.009999994500004536 0.0 7.51404690880264e-13 0.0 0.01 0.0 7.51404690880264e-13 0.0 0.01 0.009999994500004536 0.0 5.602001880481466e-18 0.0 0.01 0.0 5.602001880481466e-18 0.0 0.01 0.0099999940000054 0.0 -9.94499155153499e-18 0.0 0.01 0.0 -9.94499155153499e-18 0.0 0.01 0.0099999940000054 0.0 2.1374609998885433e-12 0.0 0.01 0.0 2.1374609998885433e-12 0.0 0.01 0.0099999940000054 0.0 -2.3389803949401956e-18 0.0 0.01 0.0 -2.3389803949401956e-18 0.0 0.01 0.009999993500006337 0.0 1.9625592306440105e-12 0.0 0.01 0.0 1.9625592306440105e-12 0.0 0.01 0.009999993500006337 0.0 9.89723307629159e-13 0.0 0.01 0.0 9.89723307629159e-13 0.0 0.01 0.009999993500006337 0.0 -2.1003126921736827e-13 0.0 0.01 0.0 -2.1003126921736827e-13 0.0 0.01 0.009999993500006337 0.0 -4.118964153583345e-13 0.0 0.01 0.0 -4.118964153583345e-13 0.0 0.01 0.009999993500006337 0.0 -7.212472999539811e-14 0.0 0.01 0.0 -7.212472999539811e-14 0.0 0.01 0.009999992500008438 0.0 3.84872081991174e-18 0.0 0.01 0.0 3.84872081991174e-18 0.0 0.01 0.009999992500008438 0.0 4.6417335772717024e-18 0.0 0.01 0.0 4.6417335772717024e-18 0.0 0.01 0.009999992000009601 0.0 2.3931492281404773e-18 0.0 0.01 0.0 2.3931492281404773e-18 0.0 0.01 0.009999992000009601 0.0 -4.6976572123453075e-18 0.0 0.01 0.0 -4.6976572123453075e-18 0.0 0.01 0.009999991500010838 0.0 -2.3691890789743494e-18 0.0 0.01 0.0 -2.3691890789743494e-18 0.0 0.01 0.009999991500010838 0.0 -1.7623464117828086e-12 0.0 0.01 0.0 -1.7623464117828086e-12 0.0 0.01 0.009999991500010838 0.0 1.0299178235399912e-12 0.0 0.01 0.0 1.0299178235399912e-12 0.0 0.01 0.009999991500010838 0.0 8.590749411852949e-13 0.0 0.01 0.0 8.590749411852949e-13 0.0 0.01 0.009999991500010838 0.0 3.0555874706196224e-14 0.0 0.01 0.0 3.0555874706196224e-14 0.0 0.01 0.009999990000015 0.0 1.0965771051267036e-17 0.0 0.01 0.0 1.0965771051267036e-17 0.0 0.01 0.009999989500016538 0.0 -1.2168744285343264e-12 0.0 0.01 0.0 -1.2168744285343264e-12 0.0 0.01 0.009999989500016538 0.0 -2.915843507318593e-18 0.0 0.01 0.0 -2.915843507318593e-18 0.0 0.01 0.009999989500016538 0.0 -3.5046109998931454e-13 0.0 0.01 0.0 -3.5046109998931454e-13 0.0 0.01 0.009999989500016538 0.0 -2.758681954799207e-18 0.0 0.01 0.0 -2.758681954799207e-18 0.0 0.01 0.009999989500016538 0.0 -3.6063114760805207e-13 0.0 0.01 0.0 -3.6063114760805207e-13 0.0 0.01 0.009999989500016538 0.0 -2.3837413332606535e-13 0.0 0.01 0.0 -2.3837413332606535e-13 0.0 0.01 0.009999989500016538 0.0 9.863069999699278e-13 0.0 0.01 0.0 9.863069999699278e-13 0.0 0.01 0.009999989500016538 0.0 2.1830558094572487e-13 0.0 0.01 0.0 2.1830558094572487e-13 0.0 0.01 0.0099999880000216 0.0 3.882823102462008e-18 0.0 0.01 0.0 3.882823102462008e-18 0.0 0.010000000500000038 0.009999987500023438 0.0 1.3493105712650218e-17 0.0 0.01 0.0 1.3493105712650218e-17 0.0 0.010000000500000038 0.00999998700002535 0.0 6.628936073298969e-18 0.0 0.01 0.0 6.628936073298969e-18 0.0 0.01 0.009999986000029399 0.0 2.2737018253524074e-18 0.0 0.01 0.0 2.2737018253524074e-18 0.0 0.01 0.009999985500031538 0.0 -2.7100941723716364e-13 0.0 0.01 0.0 -2.7100941723716364e-13 0.0 0.01 0.009999985500031538 0.0 3.683940537324099e-18 0.0 0.01 0.0 3.683940537324099e-18 0.0 0.01 0.009999985500031538 0.0 3.005083763707564e-18 0.0 0.01 0.0 3.005083763707564e-18 0.0 0.01 0.009999985500031538 0.0 9.573116206747637e-13 0.0 0.01 0.0 9.573116206747637e-13 0.0 0.01 0.009999985500031538 0.0 7.117587241268592e-14 0.0 0.01 0.0 7.117587241268592e-14 0.0 0.01 0.00999998300004335 0.0 1.5349820510668097e-17 0.0 0.01 0.0 1.5349820510668097e-17 0.0 0.010000000500000038 0.009999982500045938 0.0 1.3161282439337944e-17 0.0 0.01 0.0 1.3161282439337944e-17 0.0 0.010000000500000038 0.009999982000048601 0.0 1.467568047519291e-17 0.0 0.01 0.0 1.467568047519291e-17 0.0 0.010000000500000038 0.009999982000048601 0.0 4.559283231729183e-18 0.0 0.01 0.0 4.559283231729183e-18 0.0 0.010000000500000038 0.009999982000048601 0.0 4.487310283789448e-18 0.0 0.01 0.0 4.487310283789448e-18 0.0 0.01 0.009999982000048601 0.0 4.972433611103071e-14 0.0 0.01 0.0 4.972433611103071e-14 0.0 0.01 0.009999982000048601 0.0 4.976798611103064e-13 0.0 0.01 0.0 4.976798611103064e-13 0.0 0.01 0.009999981500051337 0.0 1.859828243230077e-13 0.0 0.01 0.0 1.859828243230077e-13 0.0 0.01 0.009999981500051337 0.0 -1.4711502702598558e-13 0.0 0.01 0.0 -1.4711502702598558e-13 0.0 0.01 0.0099999780000726 0.0 2.01663659755373e-17 0.0 0.01 0.0 2.01663659755373e-17 0.0 0.01000000100000015 0.009999977500075937 0.0 5.084278603051991e-17 0.0 0.01 0.0 5.084278603051991e-17 0.0 0.01000000100000015 0.009999976500082837 0.0 2.5762853550169234e-17 0.0 0.01 0.0 2.5762853550169234e-17 0.0 0.01000000100000015 0.009999976500082837 0.0 -7.49050433275183e-13 0.0 0.01 0.0 -7.49050433275183e-13 0.0 0.010000000500000038 0.009999976500082837 0.0 -4.689471484406761e-13 0.0 0.01 0.0 -4.689471484406761e-13 0.0 0.010000000500000038 0.009999976000086399 0.0 3.3431889426090914e-13 0.0 0.01 0.0 3.3431889426090914e-13 0.0 0.010000000500000038 0.009999976000086399 0.0 1.7910221458078137e-13 0.0 0.01 0.0 1.7910221458078137e-13 0.0 0.01 0.009999976000086399 0.0 2.6075029131567414e-18 0.0 0.01 0.0 2.6075029131567414e-18 0.0 0.01 0.009999976000086399 0.0 3.376069583285229e-13 0.0 0.01 0.0 3.376069583285229e-13 0.0 0.01 0.009999969500139537 0.0 8.513662826790247e-14 0.0 0.01 0.0 8.513662827451991e-14 0.0 0.01000000100000015 0.009999969500139537 0.0 6.761498080659787e-17 0.0 0.01 0.0 6.761498080659787e-17 0.0 0.01000000100000015 0.009999969500139537 0.0 1.1905833316860923e-17 0.0 0.01 0.0 1.1905833316860923e-17 0.0 0.01000000100000015 0.009999969500139537 0.0 1.1453661318027174e-17 0.0 0.01 0.0 1.1453661318027174e-17 0.0 0.01000000100000015 0.00999996900014415 0.0 3.446095492607742e-18 0.0 0.01 0.0 3.446095492607742e-18 0.0 0.01000000100000015 0.00999996900014415 0.0 2.7364489307822375e-18 0.0 0.01 0.0 2.7364489307822375e-18 0.0 0.010000000500000038 0.00999996900014415 0.0 2.678782444535287e-18 0.0 0.01 0.0 2.678782444535287e-18 0.0 0.010000000500000038 0.009999968500148837 0.0 9.87019252471251e-14 0.0 0.01 0.0 9.87019252471251e-14 0.0 0.010000000500000038 0.009999968500148837 0.0 2.394313416493115e-18 0.0 0.01 0.0 2.394313416493115e-18 0.0 0.010000000500000038 0.00999996150022234 0.0 8.111037530959308e-13 0.0 0.01 0.0 8.111037530959308e-13 0.0 0.010000001950000571 0.00999996000024 0.0 1.42471781148474e-16 0.0 0.01 0.0 1.42471781148474e-16 0.0 0.010000001450000314 0.00999996000024 0.0 1.6358037409218767e-17 0.0 0.01 0.0 1.6358037409218767e-17 0.0 0.010000001450000314 0.00999996000024 0.0 -2.8433055084855985e-18 0.0 0.01 0.0 -2.8433055084855985e-18 0.0 0.010000001450000314 0.00999996000024 0.0 -2.0358288621111723e-13 0.0 0.01 0.0 -2.0358288621111723e-13 0.0 0.01000000100000015 0.009999959500246037 0.0 1.492741113119857e-13 0.0 0.01 0.0 1.492741113119857e-13 0.0 0.01000000100000015 0.009999959500246037 0.0 -1.5777270252323553e-13 0.0 0.01 0.0 -1.5777270252323553e-13 0.0 0.01000000100000015 0.00999996000024 0.0 4.908065669729368e-18 0.0 0.01 0.0 4.908065669729368e-18 0.0 0.010000000500000038 0.00999996000024 0.0 2.55248542657531e-18 0.0 0.01 0.0 2.55248542657531e-18 0.0 0.010000000500000038 0.009999948500397838 0.0 2.605882972687465e-12 0.0 0.01 0.0 2.605882972687465e-12 0.0 0.010000002950001308 0.009999948500397838 0.0 1.0143521369168058e-14 0.0 0.01 0.0 1.0143521369168058e-14 0.0 0.010000002450000904 0.009999948500397834 0.0 2.3344185994405848e-17 0.0 0.01 0.0 2.3344185994405848e-17 0.0 0.01000000195000057 0.009999948500397834 0.0 1.8957565904598753e-13 0.0 0.01 0.0 1.8957565904598753e-13 0.0 0.01000000195000057 0.009999948000405597 0.0 -4.694929300638898e-18 0.0 0.01 0.0 -4.694929300638898e-18 0.0 0.010000001450000314 0.009999948000405597 0.0 4.863531022250137e-18 0.0 0.01 0.0 4.863531022250137e-18 0.0 0.010000001450000314 0.009999948000405597 0.0 3.937312079600948e-18 0.0 0.01 0.0 3.937312079600948e-18 0.0 0.01000000100000015 0.009999948500397834 0.0 5.692607878704731e-18 0.0 0.01 0.0 5.692607878704731e-18 0.0 0.01000000100000015 0.009999948500397834 0.0 3.260473183203748e-13 0.0 0.01 0.0 3.260473183203748e-13 0.0 0.01000000100000015 0.009999932000693594 0.0 4.862677730709676e-12 0.0 0.01 0.0 4.862677730815555e-12 0.0 0.010000003400001733 0.00999993150070383 0.0 4.633311555696232e-14 0.0 0.01 0.0 4.633311555861668e-14 0.0 0.010000003400001733 0.00999993150070383 0.0 2.908093406105663e-17 0.0 0.01 0.0 2.908093406105663e-17 0.0 0.010000002950001304 0.00999993150070383 0.0 1.8459072116845996e-17 0.0 0.01 0.0 1.8459072116845996e-17 0.0 0.0100000024500009 0.00999993150070383 0.0 2.1402161022200806e-13 0.0 0.01 0.0 2.1402161022200806e-13 0.0 0.01000000195000057 0.00999993150070383 0.0 2.4449740596864665e-18 0.0 0.01 0.0 2.4449740596864665e-18 0.0 0.010000001450000314 0.00999993200069359 0.0 5.332276270675072e-18 0.0 0.01 0.0 5.332276270675072e-18 0.0 0.010000001450000314 0.00999993250068343 0.0 5.1499389769962106e-18 0.0 0.01 0.0 5.1499389769962106e-18 0.0 0.010000001450000314 0.009999933000673342 0.0 2.9545409501306487e-18 0.0 0.01 0.0 2.9545409501306487e-18 0.0 0.01000000100000015 0.009999912001161584 0.0 5.9315639083941905e-12 0.0 0.01 0.0 5.93156390850007e-12 0.0 0.010000005850005133 0.00999991150117482 0.0 5.5444928464152464e-14 0.0 0.01 0.0 5.5444928464152464e-14 0.0 0.010000005350004294 0.009999912001161583 0.0 2.6018776822255084e-17 0.0 0.01 0.0 2.6018776822255084e-17 0.0 0.010000003400001733 0.009999912001161583 0.0 1.7479678262692804e-13 0.0 0.01 0.0 1.7479678262692804e-13 0.0 0.010000003400001733 0.009999912501148421 0.0 -8.189222140235629e-18 0.0 0.01 0.0 -8.189222140235629e-18 0.0 0.010000002950001304 0.009999913001135332 0.0 1.1475436014337855e-13 0.0 0.01 0.0 1.1475436014337855e-13 0.0 0.0100000024500009 0.009999913001135332 0.0 7.507596158889954e-18 0.0 0.01 0.0 7.507596158889954e-18 0.0 0.010000001450000314 0.009999913501122322 0.0 9.636405563621939e-18 0.0 0.01 0.0 9.636405563621939e-18 0.0 0.010000001450000314 0.009999913501122322 0.0 3.951168743003969e-18 0.0 0.01 0.0 3.951168743003969e-18 0.0 0.010000001450000314 0.009999886001949366 0.0 4.711819801145283e-12 0.0 0.01 0.0 4.711819801145283e-12 0.0 0.010000009300012975 0.009999886001949366 0.0 1.7258573317923635e-14 0.0 0.01 0.0 1.7258573317923635e-14 0.0 0.01000000635000605 0.0099998865019323 0.0 3.649782091562937e-18 0.0 0.01 0.0 3.649782091562937e-18 0.0 0.010000005350004294 0.009999888001881565 0.0 -1.932999951480978e-17 0.0 0.01 0.0 -1.932999951480978e-17 0.0 0.010000004400002904 0.009999888001881565 0.0 -5.903255836178126e-18 0.0 0.01 0.0 -5.903255836178126e-18 0.0 0.010000003400001733 0.009999888501864803 0.0 1.6210944493889072e-13 0.0 0.01 0.0 1.6210944493889072e-13 0.0 0.010000002950001304 0.009999889501831503 0.0 1.7455705471909544e-13 0.0 0.01 0.0 1.7455705471909544e-13 0.0 0.0100000024500009 0.009999889001848117 0.0 1.0957605583086658e-17 0.0 0.01 0.0 1.0957605583086658e-17 0.0 0.0100000024500009 0.009999889001848117 0.0 3.151291316481673e-18 0.0 0.01 0.0 3.151291316481673e-18 0.0 0.010000001450000314 0.009999853503219256 0.0 2.1506857133424543e-12 0.0 0.01 0.0 2.150685713368924e-12 0.0 0.010000011700020534 0.009999854003197323 0.0 1.9652905018601994e-16 0.0 0.01 0.0 1.9652905018601994e-16 0.0 0.010000009300012973 0.009999854003197323 0.0 -1.2621660039953366e-13 0.0 0.01 0.0 -1.2621660039953366e-13 0.0 0.010000007800009127 0.009999855503131962 0.0 -3.1728311253001944e-17 0.0 0.01 0.0 -3.1728311253001944e-17 0.0 0.010000005350004294 0.009999856003110326 0.0 -2.4409440698511915e-17 0.0 0.01 0.0 -2.4409440698511915e-17 0.0 0.010000004900003601 0.009999857003067276 0.0 -4.70414359839405e-18 0.0 0.01 0.0 -4.70414359839405e-18 0.0 0.010000003900002281 0.009999857003067276 0.0 9.817250264714437e-18 0.0 0.01 0.0 9.817250264714437e-18 0.0 0.010000002950001304 0.009999858003024527 0.0 1.0113756794495063e-17 0.0 0.01 0.0 1.0113756794495063e-17 0.0 0.0100000024500009 0.009999858003024527 0.0 7.473251052141975e-15 0.0 0.01 0.0 7.473251052141975e-15 0.0 0.0100000024500009 0.00999981150532967 0.0 3.2598985440283423e-13 0.0 0.01 0.0 3.2598985440614295e-13 0.0 0.010000016600041335 0.009999812505273273 0.0 1.5402430305596126e-16 0.0 0.01 0.0 1.5402430305596126e-16 0.0 0.010000013200026137 0.009999814505161377 0.0 1.3377117444484268e-17 0.0 0.01 0.0 1.3377117444484268e-17 0.0 0.010000009300012973 0.009999816505050683 0.0 -3.0424310952485076e-17 0.0 0.01 0.0 -3.0424310952485076e-17 0.0 0.010000008300010334 0.009999817504995786 0.0 -4.261516011319994e-18 0.0 0.01 0.0 -4.261516011319994e-18 0.0 0.010000005350004294 0.009999818504941188 0.0 1.00618780152053e-14 0.0 0.01 0.0 1.00618780152053e-14 0.0 0.010000004400002904 0.009999820004859853 0.0 1.069138658808974e-17 0.0 0.01 0.0 1.069138658808974e-17 0.0 0.010000003900002281 0.009999820504832892 0.0 1.2497601377107919e-17 0.0 0.01 0.0 1.2497601377107919e-17 0.0 0.010000003400001733 0.009999821004806007 0.0 6.763078904518695e-18 0.0 0.01 0.0 6.763078904518695e-18 0.0 0.010000002950001304 0.00999975950867569 0.0 1.0342622721235386e-15 0.0 0.01 0.0 1.0342622721235386e-15 0.0 0.0100000224500756 0.009999761008567809 0.0 3.2859639774380467e-16 0.0 0.01 0.0 3.2859639774380467e-16 0.0 0.010000017100043862 0.00999976400835407 0.0 -1.8578720709608617e-17 0.0 0.01 0.0 -1.8578720709608617e-17 0.0 0.010000012700024194 0.009999766008213078 0.0 -2.8181260155894856e-17 0.0 0.01 0.0 -2.8181260155894856e-17 0.0 0.010000009300012973 0.009999768008073288 0.0 -8.503471186494777e-14 0.0 0.01 0.0 -8.503471186494777e-14 0.0 0.010000007800009127 0.009999770007934696 0.0 -1.430804742992626e-17 0.0 0.01 0.0 -1.430804742992626e-17 0.0 0.010000005850005133 0.009999772007797305 0.0 4.299892232243363e-18 0.0 0.01 0.0 4.299892232243363e-18 0.0 0.010000004400002904 0.00999977400766111 0.0 1.526096872775905e-17 0.0 0.01 0.0 1.526096872775905e-17 0.0 0.010000004400002904 0.00999977400766111 0.0 -5.076630492062532e-18 0.0 0.01 0.0 -5.076630492062532e-18 0.0 0.010000003400001733 0.009999693514090618 0.0 1.332534193840483e-15 0.0 0.01 0.0 1.332534193840483e-15 0.0 0.010000028800124417 0.009999697513725245 0.0 3.380432697722358e-16 0.0 0.01 0.0 3.380432697722358e-16 0.0 0.0100000224500756 0.009999701013409482 0.0 -2.453012991174816e-17 0.0 0.01 0.0 -2.453012991174816e-17 0.0 0.010000016600041335 0.009999705513008899 0.0 -4.868611440061512e-18 0.0 0.01 0.0 -4.868611440061512e-18 0.0 0.010000012200022326 0.009999708512745217 0.0 1.1729415497029704e-17 0.0 0.01 0.0 1.1729415497029704e-17 0.0 0.010000009300012973 0.009999711012527546 0.0 3.5140722773303506e-17 0.0 0.01 0.0 3.5140722773303506e-17 0.0 0.010000007800009127 0.009999712512397844 0.0 2.1380727326485933e-17 0.0 0.01 0.0 2.1380727326485933e-17 0.0 0.010000006350006049 0.009999714012268814 0.0 5.654203973509376e-18 0.0 0.01 0.0 5.654203973509376e-18 0.0 0.010000005350004294 0.009999715012183172 0.0 -6.5270432677634806e-18 0.0 0.01 0.0 -6.5270432677634806e-18 0.0 0.010000004900003601 0.009999612522521982 0.0 1.5650147938719152e-15 0.0 0.01 0.0 1.5650147938719152e-15 0.0 0.010000037100206463 0.009999617521944539 0.0 2.2403938679542425e-16 0.0 0.01 0.0 2.2403938679542425e-16 0.0 0.010000027850116345 0.009999623521261504 0.0 -2.3327310583067623e-17 0.0 0.01 0.0 -2.3327310583067623e-17 0.0 0.01000002100006615 0.009999629020644872 0.0 3.032136358219195e-17 0.0 0.01 0.0 3.032136358219195e-17 0.0 0.010000015600036504 0.009999634020092175 0.0 9.070505632107967e-17 0.0 0.01 0.0 9.070505632107967e-17 0.0 0.010000012200022326 0.009999637019764154 0.0 3.641690791544657e-17 0.0 0.01 0.0 3.641690791544657e-17 0.0 0.010000009300012973 0.009999640519384876 0.0 2.4821896530314357e-17 0.0 0.01 0.0 2.4821896530314357e-17 0.0 0.010000007800009127 0.009999642519169795 0.0 2.651442991693502e-17 0.0 0.01 0.0 2.651442991693502e-17 0.0 0.010000006850007037 0.009999643019116213 0.0 1.4076659608042857e-17 0.0 0.01 0.0 1.4076659608042857e-17 0.0 0.010000006350006049 0.009999510535938606 0.0 1.9837233878319404e-15 0.0 0.01 0.0 1.9837233878319404e-15 0.0 0.01000004685032924 0.009999519534629265 0.0 9.79865493433132e-17 0.0 0.01 0.0 9.79865493433132e-17 0.0 0.010000035150185329 0.009999528533344218 0.0 7.615502000034015e-17 0.0 0.01 0.0 7.615502000034015e-17 0.0 0.01000002635010415 0.009999535532361532 0.0 1.1425313454278653e-17 0.0 0.01 0.0 1.1425313454278653e-17 0.0 0.01000001955005733 0.0099995420314622 0.0 1.2471013090029814e-16 0.0 0.01 0.0 1.2471013090029814e-16 0.0 0.010000015150034429 0.009999547530711122 0.0 4.5456446357235584e-17 0.0 0.01 0.0 4.5456446357235584e-17 0.0 0.010000012200022326 0.009999551030237887 0.0 5.944329238245404e-18 0.0 0.01 0.0 5.944329238245404e-18 0.0 0.010000010750017335 0.009999552530036197 0.0 -3.844170724908147e-17 0.0 0.01 0.0 -3.844170724908147e-17 0.0 0.010000009300012973 0.009999554029835182 0.0 2.1843732000731604e-17 0.0 0.01 0.0 2.1843732000731604e-17 0.0 0.010000008800011615 0.009999387556267694 0.0 1.89396005142338e-15 0.0 0.01 0.0 1.89396005142338e-15 0.0 0.010000058100506347 0.0099994000539946 0.0 1.6766816530493591e-16 0.0 0.01 0.0 1.6766816530493591e-16 0.0 0.010000042950276707 0.009999411052033043 0.0 1.2294196296321165e-16 0.0 0.01 0.0 1.2294196296321165e-16 0.0 0.010000032250156011 0.009999422050107773 0.0 3.635667398243391e-16 0.0 0.01 0.0 3.635667398243391e-16 0.0 0.010000024400089305 0.00999943004873037 0.0 1.7049257303111171e-16 0.0 0.01 0.0 1.7049257303111171e-16 0.0 0.01000001955005733 0.009999436047709916 0.0 9.200327380092444e-17 0.0 0.01 0.0 9.200327380092444e-17 0.0 0.010000016100038882 0.00999944054695166 0.0 -6.932558405921779e-17 0.0 0.01 0.0 -6.932558405921779e-17 0.0 0.010000014150030033 0.009999444046366103 0.0 5.571313470910409e-17 0.0 0.01 0.0 5.571313470910409e-17 0.0 0.010000012700024194 0.00999944604603315 0.0 7.37255783887245e-18 0.0 0.01 0.0 7.37255783887245e-18 0.0 0.010000012200022326 0.009999235587657869 0.0 2.092149863616247e-15 0.0 0.01 0.0 2.092149863616247e-15 0.0 0.010000071300762562 0.009999253583578938 0.0 2.0218260581545103e-16 0.0 0.01 0.0 2.0218260581545103e-16 0.0 0.010000052750417389 0.009999268080363796 0.0 3.451214737586407e-16 0.0 0.01 0.0 3.451214737586407e-16 0.0 0.010000039550234633 0.009999282077319347 0.0 3.6023531486664836e-16 0.0 0.01 0.0 3.6023531486664836e-16 0.0 0.010000030750141836 0.009999293574862523 0.0 3.528748405764235e-16 0.0 0.01 0.0 3.528748405764235e-16 0.0 0.010000025900100622 0.009999300573386482 0.0 6.882723502156478e-17 0.0 0.01 0.0 6.882723502156478e-17 0.0 0.01000002195007227 0.009999306572133 0.0 3.048952628248935e-17 0.0 0.01 0.0 3.048952628248935e-17 0.0 0.01000001955005733 0.009999310071406788 0.0 -4.692511620012195e-17 0.0 0.01 0.0 -4.692511620012195e-17 0.0 0.010000017600046464 0.00999931207099346 0.0 -5.051651134268595e-17 0.0 0.01 0.0 -5.051651134268595e-17 0.0 0.010000017100043862 0.009999050635211141 0.0 7.149855408255013e-16 0.0 0.01 0.0 7.149855408255013e-16 0.0 0.010000086901132759 0.009999074628462721 0.0 -5.224724097076374e-16 0.0 0.01 0.0 -5.224724097076374e-16 0.0 0.010000064950632782 0.00999909562269954 0.0 3.127831640194149e-16 0.0 0.01 0.0 3.127831640194149e-16 0.0 0.010000050300379516 0.009999113117997905 0.0 3.4132687789540996e-16 0.0 0.01 0.0 3.4132687789540996e-16 0.0 0.010000040050240602 0.009999126114564712 0.0 2.3716068988485073e-16 0.0 0.01 0.0 2.3716068988485073e-16 0.0 0.010000033200165338 0.009999136111958278 0.0 2.805537349636007e-16 0.0 0.01 0.0 2.805537349636007e-16 0.0 0.010000030750141836 0.009999143610023133 0.0 9.929306090257552e-17 0.0 0.01 0.0 9.929306090257552e-17 0.0 0.010000027350112205 0.009999149108614746 0.0 8.290520502066941e-17 0.0 0.01 0.0 8.290520502066941e-17 0.0 0.01000002635010415 0.009999151108104853 0.0 5.614965339728865e-18 0.0 0.01 0.0 5.614965339728865e-18 0.0 0.010000025400096774 0.009998827706173148 0.0 -2.2898687746915314e-15 0.0 0.01 0.0 -2.2898687746915314e-15 0.0 0.01000010595168384 0.009998860194902967 0.0 -2.4701167383980844e-15 0.0 0.01 0.0 -2.4701167383980844e-15 0.0 0.010000081550997573 0.00999888818544723 0.0 -1.9493090052641117e-15 0.0 0.01 0.0 -1.9493090052641117e-15 0.0 0.010000064950632782 0.009998909178509692 0.0 -1.1056469543905512e-15 0.0 0.01 0.0 -1.1056469543905512e-15 0.0 0.01000005420044065 0.009998927172668471 0.0 -4.983865590325012e-16 0.0 0.01 0.0 -4.983865590325012e-16 0.0 0.01000004685032924 0.009998939668669226 0.0 -4.907597859923059e-16 0.0 0.01 0.0 -4.907597859923059e-16 0.0 0.010000042000264601 0.0099989481659765 0.0 -2.4226078163416084e-16 0.0 0.01 0.0 -2.4226078163416084e-16 0.0 0.010000038100217743 0.009998953664245691 0.0 -3.9789888037658624e-17 0.0 0.01 0.0 -3.9789888037658624e-17 0.0 0.010000037600212066 0.009998956663305436 0.0 1.3213325479473548e-16 0.0 0.01 0.0 1.3213325479473548e-16 0.0 0.010000036150196024 0.009998568307520208 0.0 -1.8167573529127393e-14 0.0 0.01 0.0 -1.8167573529127393e-14 0.0 0.010000133302665396 0.009998609290164884 0.0 -1.478798901203631e-14 0.0 0.01 0.0 -1.478798901203631e-14 0.0 0.01000010500165378 0.00999864377595145 0.0 -1.0516785257867176e-14 0.0 0.01 0.0 -1.0516785257867176e-14 0.0 0.010000085951108127 0.009998670265276198 0.0 -6.367884022498065e-15 0.0 0.01 0.0 -6.367884022498065e-15 0.0 0.010000074200825857 0.00999869125696609 0.0 -3.3649963662090555e-15 0.0 0.01 0.0 -3.3649963662090555e-15 0.0 0.010000065900651429 0.009998706750917245 0.0 -1.3442786926389812e-15 0.0 0.01 0.0 -1.3442786926389812e-15 0.0 0.010000060050540905 0.009998717246860564 0.0 -5.481347223034388e-16 0.0 0.01 0.0 -5.481347223034388e-16 0.0 0.010000056650481388 0.0099987232445573 0.0 -2.0663645437093745e-16 0.0 0.01 0.0 -2.0663645437093745e-16 0.0 0.010000053700432558 0.009998727243027788 0.0 6.899135719190615e-17 0.0 0.01 0.0 6.899135719190615e-17 0.0 0.010000052250409513 0.009998268449843748 0.0 -7.477895478520148e-14 0.0 0.01 0.0 -7.477895478520148e-14 0.0 0.01000017040435555 0.009998320922989638 0.0 -5.724279783497982e-14 0.0 0.01 0.0 -5.724279783503152e-14 0.0 0.01000013720282364 0.009998363401855713 0.0 -4.058477231846114e-14 0.0 0.01 0.0 -4.058477231843529e-14 0.0 0.010000117202060418 0.009998396385819262 0.0 -2.3890523573972645e-14 0.0 0.01 0.0 -2.3890523573972645e-14 0.0 0.010000103501606867 0.009998420874124551 0.0 -1.1124948437843652e-14 0.0 0.01 0.0 -1.1124948437843652e-14 0.0 0.010000094751346656 0.009998439365413083 0.0 -4.065218964887092e-15 0.0 0.01 0.0 -4.065218964887092e-15 0.0 0.010000087901158979 0.009998451359817258 0.0 -1.0681589386472445e-15 0.0 0.01 0.0 -1.0681589386472445e-15 0.0 0.010000081550997573 0.009998460355648718 0.0 -3.5672875686848727e-16 0.0 0.01 0.0 -3.5672875686848727e-16 0.0 0.010000077150892829 0.009998464353803827 0.0 6.479904204482446e-17 0.0 0.01 0.0 6.479904204482446e-17 0.0 0.010000074200825857 0.009997944633853206 0.0 -2.2316780120988098e-13 0.0 0.01 0.0 -2.2316780120988098e-13 0.0 0.01000022365750318 0.009998008595012063 0.0 -1.806980562675349e-13 0.0 0.01 0.0 -1.806980562673281e-13 0.0 0.01000018800530177 0.009998059564939394 0.0 -1.326644163026479e-13 0.0 0.01 0.0 -1.326644163028547e-13 0.0 0.010000165054086336 0.009998098542468642 0.0 -7.643201791649604e-14 0.0 0.01 0.0 -7.643201791649604e-14 0.0 0.010000149403348138 0.00999812852549365 0.0 -3.564792411313452e-14 0.0 0.01 0.0 -3.564792411313452e-14 0.0 0.010000136252784677 0.00999815001349417 0.0 -1.3567458546337651e-14 0.0 0.01 0.0 -1.3567458546337651e-14 0.0 0.010000124002306448 0.009998164005755036 0.0 -3.61407316624696e-15 0.0 0.01 0.0 -3.61407316624696e-15 0.0 0.01000011475197517 0.00999817400026305 0.0 -1.0186261257192475e-15 0.0 0.01 0.0 -1.0186261257192475e-15 0.0 0.010000106951715776 0.009998178497801437 0.0 9.510417425070791e-17 0.0 0.01 0.0 9.510417425070791e-17 0.0 0.010000103051592922 0.009997618351107984 0.0 -5.025140777472635e-13 0.0 0.01 0.0 -5.025140777472635e-13 0.0 0.010000309114332162 0.009997695796647712 0.0 -4.4753735418478186e-13 0.0 0.01 0.0 -4.4753735418498865e-13 0.0 0.010000263210391594 0.009997756255384465 0.0 -3.454604987573848e-13 0.0 0.01 0.0 -3.454604987573848e-13 0.0 0.010000232908136676 0.009997802724415233 0.0 -2.0740116210236237e-13 0.0 0.01 0.0 -2.0740116210215558e-13 0.0 0.01000021240676731 0.009997837201856766 0.0 -1.0124981101137266e-13 0.0 0.01 0.0 -1.0124981101137266e-13 0.0 0.010000192405552843 0.009997863185091882 0.0 -4.013936252104454e-14 0.0 0.01 0.0 -4.013936252104454e-14 0.0 0.01000017430455721 0.009997879174875718 0.0 -1.3013173396323355e-14 0.0 0.01 0.0 -1.3013173396323355e-14 0.0 0.010000158703777955 0.00999789016789661 0.0 -3.2388727343503344e-15 0.0 0.01 0.0 -3.2388727343503344e-15 0.0 0.010000146503219415 0.009997896164105105 0.0 -4.3068776410267655e-16 0.0 0.01 0.0 -4.3068776410267655e-16 0.0 0.010000140152946372 0.00999733306725904 0.0 -8.063950418093156e-13 0.0 0.01 0.0 -8.063950418093156e-13 0.0 0.010000443379486064 0.009997421997257507 0.0 -8.222901924192393e-13 0.0 0.01 0.0 -8.222901924192393e-13 0.0 0.010000375521151364 0.009997490944619842 0.0 -7.059709287717592e-13 0.0 0.01 0.0 -7.059709287721728e-13 0.0 0.010000330566390398 0.009997544904420199 0.0 -4.5101192578967073e-13 0.0 0.01 0.0 -4.5101192578967073e-13 0.0 0.010000297863307856 0.00999758537484385 0.0 -2.2997353287348523e-13 0.0 0.01 0.0 -2.2997353287338183e-13 0.0 0.010000268060778104 0.009997615353252306 0.0 -9.609666477652066e-14 0.0 0.01 0.0 -9.609666477652066e-14 0.0 0.010000240258658356 0.009997636338298687 0.0 -3.2678322200762303e-14 0.0 0.01 0.0 -3.2678322200762303e-14 0.0 0.010000215356956594 0.009997648329813088 0.0 -9.359925770240688e-15 0.0 0.01 0.0 -9.359925770240688e-15 0.0 0.010000197255836327 0.009997656324179996 0.0 -1.667928216389975e-15 0.0 0.01 0.0 -1.667928216389975e-15 0.0 0.010000185055136683 0.009997144223784636 0.0 -6.808847720151209e-13 0.0 0.01 0.0 -6.808847720151209e-13 0.0 0.010000651913743188 0.009997241641700964 0.0 -1.0514179531070697e-12 0.0 0.01 0.0 -1.0514179531070697e-12 0.0 0.010000543494304698 0.009997320577280774 0.0 -1.1065299693544674e-12 0.0 0.01 0.0 -1.1065299693544674e-12 0.0 0.010000466832687882 0.009997382028425254 0.0 -7.833725481654358e-13 0.0 0.01 0.0 -7.833725481654358e-13 0.0 0.01000041162541393 0.009997427493009426 0.0 -4.202008021054039e-13 0.0 0.01 0.0 -4.202008021054039e-13 0.0 0.010000365720061697 0.009997462466188567 0.0 -1.8069176430786575e-13 0.0 0.01 0.0 -1.8069176430796915e-13 0.0 0.010000323265674427 0.009997485948386228 0.0 -6.199126719768122e-14 0.0 0.01 0.0 -6.199126719762953e-14 0.0 0.01000028516219716 0.009997500437484349 0.0 -1.6880887402811056e-14 0.0 0.01 0.0 -1.6880887402811056e-14 0.0 0.01000025730993092 0.00999750893112288 0.0 -2.745371183177738e-15 0.0 0.01 0.0 -2.745371183177738e-15 0.0 0.010000237808482661 0.0099971312349443 0.0 7.593195598284265e-13 0.0 0.01 0.0 7.593195598280129e-13 0.0 0.010000964489518063 0.009997233648328786 0.0 -5.192521083693163e-13 0.0 0.01 0.0 -5.192521083693163e-13 0.0 0.010000784292257507 0.009997315081705167 0.0 -1.268756739736059e-12 0.0 0.01 0.0 -1.268756739736059e-12 0.0 0.010000655314409917 0.009997381528817883 0.0 -1.0700478374697673e-12 0.0 0.01 0.0 -1.0700478374689402e-12 0.0 0.010000562547465388 0.009997430990310828 0.0 -6.094227087505284e-13 0.0 0.01 0.0 -6.094227087505284e-13 0.0 0.010000490286054707 0.00999746846162756 0.0 -2.6201005348220706e-13 0.0 0.01 0.0 -2.6201005348231046e-13 0.0 0.010000425827197778 0.00999749444198783 0.0 -8.62252762311576e-14 0.0 0.01 0.0 -8.62252762311576e-14 0.0 0.010000370120547369 0.009997511928882825 0.0 -2.1524061191090902e-14 0.0 0.01 0.0 -2.1524061191090902e-14 0.0 0.010000326165956941 0.009997521921435451 0.0 -3.2609063795596336e-15 0.0 0.01 0.0 -3.2609063795596336e-15 0.0 0.010000299313437743 0.00999738802371953 0.0 4.442404910028287e-12 0.0 0.01 0.0 4.442404910028287e-12 0.0 0.01000140799731265 0.009997481451782376 0.0 1.4520524022330656e-12 0.0 0.01 0.0 1.4520524022322384e-12 0.0 0.010001119337909557 0.00999755989340869 0.0 -7.902615702620561e-13 0.0 0.01 0.0 -7.902615702628833e-13 0.0 0.010000906373211972 0.009997624346827433 0.0 -1.11743636152682e-12 0.0 0.01 0.0 -1.1174363615264065e-12 0.0 0.010000755935707184 0.00999767481122692 0.0 -7.083309676882988e-13 0.0 0.01 0.0 -7.083309676887124e-13 0.0 0.010000642161850481 0.009997712285285325 0.0 -3.020272358562848e-13 0.0 0.01 0.0 -3.02027235856078e-13 0.0 0.010000548395107282 0.00999774026619038 0.0 -8.930999490474731e-14 0.0 0.01 0.0 -8.930999490479901e-14 0.0 0.010000468782961559 0.009997758753702972 0.0 -1.574756170322233e-14 0.0 0.01 0.0 -1.574756170322233e-14 0.0 0.010000406274757534 0.009997768247330374 0.0 -1.4515076177948618e-15 0.0 0.01 0.0 -1.4515076177948618e-15 0.0 0.010000367220226614 0.009998003098301754 0.0 1.0141901750283068e-11 0.0 0.01 0.0 1.0141901750283068e-11 0.0 0.010001988392898757 0.009998073057109468 0.0 4.976086511757718e-12 0.0 0.01 0.0 4.976086511757718e-12 0.0 0.010001555062657784 0.00999813602129205 0.0 4.953215653394122e-13 0.0 0.01 0.0 4.953215653394122e-13 0.0 0.010001224824992695 0.009998190491266806 0.0 -8.011435252241013e-13 0.0 0.01 0.0 -8.011435252245149e-13 0.0 0.01000099329797653 0.009998235966881737 0.0 -6.428074100189367e-13 0.0 0.01 0.0 -6.428074100193503e-13 0.0 0.010000824301909843 0.009998269449324521 0.0 -2.6476614840233386e-13 0.0 0.01 0.0 -2.6476614840233386e-13 0.0 0.01000069002141286 0.009998293936697138 0.0 -5.860134035365855e-14 0.0 0.01 0.0 -5.860134035360685e-14 0.0 0.010000580150482287 0.009998310428294367 0.0 -1.741310790600266e-16 0.0 0.01 0.0 -1.741310790600266e-16 0.0 0.01000049418663065 0.009998321422737856 0.0 2.8763146552457187e-15 0.0 0.01 0.0 2.8763146552457187e-15 0.0 0.010000441429227243 0.009999019644183475 0.0 1.5539636634013262e-11 0.0 0.01 0.0 1.553963663401988e-11 0.0 0.01000268518114258 0.009999052134784305 0.0 8.776369709779345e-12 0.0 0.01 0.0 8.776369709782654e-12 0.0 0.010002075345880351 0.009999089124469254 0.0 2.1346532330020324e-12 0.0 0.01 0.0 2.1346532330036868e-12 0.0 0.0100016014346068 0.009999123115352492 0.0 -2.2749320714683656e-13 0.0 0.01 0.0 -2.2749320714725015e-13 0.0 0.010001270241986224 0.009999153607469178 0.0 -4.355010705030929e-13 0.0 0.01 0.0 -4.355010705035065e-13 0.0 0.01000103481060279 0.009999177101585417 0.0 -1.6399630181523411e-13 0.0 0.01 0.0 -1.6399630181523411e-13 0.0 0.010000850708543443 0.00999919509719071 0.0 -5.0225141788072286e-15 0.0 0.01 0.0 -5.0225141788072286e-15 0.0 0.010000703674266653 0.009999207594196 0.0 2.380514766366522e-14 0.0 0.01 0.0 2.380514766366522e-14 0.0 0.010000589902193588 0.009999214592539423 0.0 8.224087272198656e-15 0.0 0.01 0.0 8.224087272198656e-15 0.0 0.010000518590337602 0.010000396523583399 0.0 1.7322890343174022e-11 0.0 0.01 0.0 1.7322890343174022e-11 0.0 0.010003444629003258 0.01000038232192439 0.0 1.0587448379468058e-11 0.0 0.01 0.0 1.0587448379468058e-11 0.0 0.010002644598715554 0.010000382821981778 0.0 3.138186728655829e-12 0.0 0.01 0.0 3.1381867286591378e-12 0.0 0.010002016209601292 0.01000038867265879 0.0 2.394582055202363e-13 0.0 0.01 0.0 2.394582055202363e-13 0.0 0.010001572170680394 0.010000396523583397 0.0 -2.1310183727039863e-13 0.0 0.01 0.0 -2.1310183727081222e-13 0.0 0.010001260488284562 0.010000402874344854 0.0 -5.541212070096593e-14 0.0 0.01 0.0 -5.5412120700862535e-14 0.0 0.01000102310699077 0.010000409675173688 0.0 4.3841403299166195e-14 0.0 0.01 0.0 4.3841403299166195e-14 0.0 0.010000834104347904 0.010000413575655308 0.0 4.1911128024506356e-14 0.0 0.01 0.0 4.191112802471315e-14 0.0 0.010000689521309386 0.010000416025960199 0.0 1.2228167051814957e-14 0.0 0.01 0.0 1.2228167051918354e-14 0.0 0.010000598703762638 0.010001967880730808 0.0 1.4137524301969321e-11 0.0 0.01 0.0 1.4137524301969321e-11 0.0 0.010004194537646697 0.010001907295527704 0.0 9.106657944737619e-12 0.0 0.01 0.0 9.106657944724384e-12 0.0 0.010003209544515425 0.010001865772035925 0.0 2.8015804888075328e-12 0.0 0.01 0.0 2.8015804888075328e-12 0.0 0.010002429585145852 0.010001837406285245 0.0 2.9327499372378334e-13 0.0 0.01 0.0 2.9327499372378334e-13 0.0 0.010001877978888272 0.010001817895591533 0.0 -1.1482756455416859e-13 0.0 0.01 0.0 -1.14827564553755e-13 0.0 0.010001489582762431 0.010001805188688305 0.0 -2.9844655370649114e-15 0.0 0.01 0.0 -2.9844655370649114e-15 0.0 0.0100011970148924 0.010001794933152125 0.0 6.158391739989691e-14 0.0 0.01 0.0 6.158391739989691e-14 0.0 0.010000965489807591 0.010001788079469918 0.0 4.348935071359219e-14 0.0 0.01 0.0 4.348935071359219e-14 0.0 0.01000078914340227 0.01000178512788849 0.0 1.2741693395025389e-14 0.0 0.01 0.0 1.2741693395025389e-14 0.0 0.010000678769102872 0.010003459794698978 0.0 8.263426644344881e-12 0.0 0.01 0.0 8.263426644331646e-12 0.0 0.010004854582759301 0.010003356689348406 0.0 5.404559229563613e-12 0.0 0.01 0.0 5.404559229563613e-12 0.0 0.010003715469681899 0.010003277010115759 0.0 1.4501957599605765e-12 0.0 0.01 0.0 1.4501957599605765e-12 0.0 0.010002806380924191 0.010003215900637626 0.0 -2.0102132427982037e-14 0.0 0.01 0.0 -2.0102132427982037e-14 0.0 0.010002159399249436 0.010003169956656958 0.0 -1.6016569518982e-13 0.0 0.01 0.0 -1.6016569518982e-13 0.0 0.010001704535717273 0.010003134773404792 0.0 -1.8781342371701232e-14 0.0 0.01 0.0 -1.8781342371701232e-14 0.0 0.01000136112784993 0.0100031103505405 0.0 4.4638386653540564e-14 0.0 0.01 0.0 4.463838665356641e-14 0.0 0.01000108952803484 0.010003094685969657 0.0 3.419976801509694e-14 0.0 0.01 0.0 3.419976801509694e-14 0.0 0.010000882916917581 0.010003084926929178 0.0 9.751574507030783e-15 0.0 0.01 0.0 9.751574507030783e-15 0.0 0.010000753035050729 0.010004565624837208 0.0 3.1624095091977607e-12 0.0 0.01 0.0 3.1624095091977607e-12 0.0 0.010005375431184661 0.010004432645511017 0.0 1.8980838410312604e-12 0.0 0.01 0.0 1.89808384105773e-12 0.0 0.010004119744446437 0.01000432410306394 0.0 1.29714986425088e-13 0.0 0.01 0.0 1.297149864252948e-13 0.0 0.010003114254183026 0.010004236090149478 0.0 -3.4876532331148654e-13 0.0 0.01 0.0 -3.4876532331107295e-13 0.0 0.010002395860747337 0.01000416765395389 0.0 -2.281964163179096e-13 0.0 0.01 0.0 -2.281964163179096e-13 0.0 0.010001887734396668 0.010004115339009042 0.0 -5.736421281958826e-14 0.0 0.01 0.0 -5.73642128196141e-14 0.0 0.010001502788688213 0.010004079645168406 0.0 1.4487673979861882e-14 0.0 0.01 0.0 1.4487673979861882e-14 0.0 0.010001198465413481 0.010004055215382704 0.0 1.6776974342742122e-14 0.0 0.01 0.0 1.6776974342742122e-14 0.0 0.010000966940227932 0.010004040998130787 0.0 5.463643013728215e-15 0.0 0.01 0.0 5.463643013728215e-15 0.0 0.010000819900824583 0.010005105957960374 0.0 4.5299081694654304e-13 0.0 0.01 0.0 4.529908169481974e-13 0.0 0.010005740789718758 0.01000495828525246 0.0 -6.784672820115311e-15 0.0 0.01 0.0 -6.784672820115311e-15 0.0 0.01000440866373457 0.010004829646571185 0.0 -4.806716791024753e-13 0.0 0.01 0.0 -4.806716791020617e-13 0.0 0.010003340523118975 0.010004724045383469 0.0 -4.3275790586908986e-13 0.0 0.01 0.0 -4.327579058682627e-13 0.0 0.010002573743282306 0.010004641429431445 0.0 -2.2354893587765727e-13 0.0 0.01 0.0 -2.2354893587776067e-13 0.0 0.010002030418222358 0.010004579794257238 0.0 -7.018520123621797e-14 0.0 0.01 0.0 -7.018520123626967e-14 0.0 0.010001617592406146 0.010004534332161747 0.0 -6.896027086174575e-15 0.0 0.01 0.0 -6.896027086174575e-15 0.0 0.01000128684835419 0.010004505993768214 0.0 4.238369290371141e-15 0.0 0.01 0.0 4.238369290371141e-15 0.0 0.010001034810602789 0.01000448937135968 0.0 1.8380061931258605e-15 0.0 0.01 0.0 1.8380061931258605e-15 0.0 0.010000874614729259 0.010005112818465531 0.0 -3.270861505332473e-13 0.0 0.01 0.0 -3.270861505332473e-13 0.0 0.010005960875572753 0.010004962191058816 0.0 -4.585915706066463e-13 0.0 0.01 0.0 -4.585915706066463e-13 0.0 0.010004588105676504 0.010004827243093022 0.0 -4.583246429025107e-13 0.0 0.01 0.0 -4.583246429020971e-13 0.0 0.01000348472064575 0.010004715232917745 0.0 -3.0310810635743475e-13 0.0 0.01 0.0 -3.0310810635743475e-13 0.0 0.010002693938204578 0.01000462625836086 0.0 -1.483037413282123e-13 0.0 0.01 0.0 -1.483037413282123e-13 0.0 0.010002129580073588 0.010004558765457618 0.0 -5.313882710324973e-14 0.0 0.01 0.0 -5.313882710330143e-14 0.0 0.010001697231991704 0.010004510349654031 0.0 -1.336135303180943e-14 0.0 0.01 0.0 -1.336135303180943e-14 0.0 0.010001350373477038 0.010004480058841712 0.0 -1.497666223607455e-15 0.0 0.01 0.0 -1.497666223607455e-15 0.0 0.01000108417629025 0.010004461483950745 0.0 -3.1816333165737134e-17 0.0 0.01 0.0 -3.1816333165737134e-17 0.0 0.010000914675479382 0.01000477441708341 0.0 -2.4708368072510755e-13 0.0 0.01 0.0 -2.4708368072469396e-13 0.0 0.010006061657101844 0.010004628711763636 0.0 -2.6355842602614586e-13 0.0 0.01 0.0 -2.635584260195284e-13 0.0 0.010004674675847262 0.010004497181878675 0.0 -2.0812133288186689e-13 0.0 0.01 0.0 -2.0812133288186689e-13 0.0 0.010003560500672418 0.010004385683446715 0.0 -1.2576807137748315e-13 0.0 0.01 0.0 -1.2576807137748315e-13 0.0 0.010002759441757731 0.010004295265812214 0.0 -6.021214530145158e-14 0.0 0.01 0.0 -6.021214530134819e-14 0.0 0.010002186767083457 0.010004228730813067 0.0 -2.333873113694773e-14 0.0 0.01 0.0 -2.333873113694773e-14 0.0 0.010001745556939006 0.010004181321055551 0.0 -7.217816169621587e-15 0.0 0.01 0.0 -7.217816169621587e-15 0.0 0.010001389439527693 0.01000415103323174 0.0 -1.8703562221338228e-15 0.0 0.01 0.0 -1.8703562221338228e-15 0.0 0.010001114936434772 0.010004132910731515 0.0 -4.0472407794562797e-16 0.0 0.01 0.0 -4.0472407794562797e-16 0.0 0.010000940582687728 0.010004304527749561 0.0 1.5153794774781823e-14 0.0 0.01 0.0 1.5153794774781823e-14 0.0 0.010006074380235026 0.010004169105767891 0.0 -6.615333965124392e-15 0.0 0.01 0.0 -6.615333965124392e-15 0.0 0.010004687844323477 0.010004043951709824 0.0 -1.6865805620521522e-14 0.0 0.01 0.0 -1.6865805620521522e-14 0.0 0.01000357711845143 0.010003938375398973 0.0 -1.3785217671068454e-14 0.0 0.01 0.0 -1.3785217671068454e-14 0.0 0.010002779008003735 0.01000385427717329 0.0 -7.351009534255937e-15 0.0 0.01 0.0 -7.351009534255937e-15 0.0 0.010002206279935944 0.01000378975324638 0.0 -3.1336258178799603e-15 0.0 0.01 0.0 -3.1336258178799603e-15 0.0 0.010001762665939174 0.010003745252987797 0.0 -1.2674484965319836e-15 0.0 0.01 0.0 -1.2674484965319836e-15 0.0 0.010001403595456737 0.010003715920183705 0.0 -4.521969662376773e-16 0.0 0.01 0.0 -4.521969662376773e-16 0.0 0.010001128140876564 0.010003698851213397 0.0 -1.4597136019038451e-16 0.0 0.01 0.0 -1.4597136019038451e-16 0.0 0.010000951285724464 0.01000384696873718 0.0 2.38026456529176e-13 0.0 0.01 0.0 2.38026456529176e-13 0.0 0.010006012267761258 0.010003721326210113 0.0 1.4095419097101395e-13 0.0 0.01 0.0 1.4095419097122074e-13 0.0 0.010004641880058352 0.010003605949493434 0.0 4.581393421116223e-14 0.0 0.01 0.0 4.581393421116223e-14 0.0 0.010003544833986718 0.010003507694725555 0.0 9.821808644944434e-15 0.0 0.01 0.0 9.821808644944434e-15 0.0 0.01000275894134374 0.010003429012913404 0.0 1.1940707903860243e-15 0.0 0.01 0.0 1.1940707903860243e-15 0.0 0.010002191620269432 0.010003369402165918 0.0 3.5825356344925645e-16 0.0 0.01 0.0 3.5825356344925645e-16 0.0 0.010001753861296541 0.010003328310910936 0.0 3.409404599213406e-16 0.0 0.01 0.0 3.409404599213406e-16 0.0 0.010001397742998217 0.010003299982764505 0.0 3.3079613804065457e-16 0.0 0.01 0.0 3.3079613804065457e-16 0.0 0.010001122739053146 0.010003284817795617 0.0 8.07940516126387e-17 0.0 0.01 0.0 8.07940516126387e-17 0.0 0.010000947384613636 0.010003437821980739 0.0 4.1331164850919327e-13 0.0 0.01 0.0 4.1331164850940006e-13 0.0 0.01000588459018777 0.010003321454076033 0.0 2.098921922321804e-13 0.0 0.01 0.0 2.098921922323872e-13 0.0 0.010004543644831273 0.010003212997840157 0.0 2.291365326075611e-14 0.0 0.01 0.0 2.291365326075611e-14 0.0 0.010003473008430686 0.010003121561013375 0.0 -2.507449533662287e-14 0.0 0.01 0.0 -2.507449533662287e-14 0.0 0.01000270324573568 0.010003048243201737 0.0 -2.0152837567210133e-14 0.0 0.01 0.0 -2.0152837567235983e-14 0.0 0.010002149142623628 0.010002993043210097 0.0 -8.323174209797677e-15 0.0 0.01 0.0 -8.323174209797677e-15 0.0 0.010001721144248679 0.010002954408764109 0.0 -1.4529977446858742e-15 0.0 0.01 0.0 -1.4529977446858742e-15 0.0 0.010001372832648684 0.01000292803550691 0.0 1.2393309886928372e-16 0.0 0.01 0.0 1.2393309886928372e-16 0.0 0.010001103232541454 0.010002914373541082 0.0 -1.6036529985183608e-17 0.0 0.01 0.0 -1.6036529985183608e-17 0.0 0.01000093032981093 0.010003036032064126 0.0 6.214216333959827e-13 0.0 0.01 0.0 6.214216333963963e-13 0.0 0.010005696263418589 0.010002923131205044 0.0 2.876817487865915e-13 0.0 0.01 0.0 2.876817487865915e-13 0.0 0.010004396948273915 0.01000282099325161 0.0 -1.1648542907771429e-14 0.0 0.01 0.0 -1.1648542907745579e-14 0.0 0.010003360092775115 0.01000273502164247 0.0 -7.139124453435208e-14 0.0 0.01 0.0 -7.139124453435208e-14 0.0 0.010002616726730586 0.010002667066607341 0.0 -4.6002426481988773e-14 0.0 0.01 0.0 -4.6002426481988773e-14 0.0 0.01000208270046555 0.010002614324846917 0.0 -1.7519984826593158e-14 0.0 0.01 0.0 -1.7519984826644857e-14 0.0 0.010001667917199385 0.010002577646296643 0.0 -3.597067467974083e-15 0.0 0.01 0.0 -3.597067467974083e-15 0.0 0.010001331315813084 0.010002553727895947 0.0 4.505183027834282e-16 0.0 0.01 0.0 4.505183027834282e-16 0.0 0.01000106997170142 0.010002540017425635 0.0 4.758296626487154e-17 0.0 0.01 0.0 4.758296626487154e-17 0.0 0.010000903422411063 0.010002576695561963 0.0 9.076312495073309e-13 0.0 0.01 0.0 9.076312495073309e-13 0.0 0.010005446846991567 0.010002466262067362 0.0 4.4690953713249825e-13 0.0 0.01 0.0 4.4690953713332543e-13 0.0 0.010004203348736564 0.010002367540521882 0.0 -3.2599215838608825e-15 0.0 0.01 0.0 -3.2599215838608825e-15 0.0 0.010003212997840155 0.010002286934271108 0.0 -8.743563008911096e-14 0.0 0.01 0.0 -8.743563008828378e-14 0.0 0.010002502889354782 0.010002222440666899 0.0 -5.510680853539596e-14 0.0 0.01 0.0 -5.510680853539596e-14 0.0 0.010001992795526868 0.01000217500939415 0.0 -1.8797145141931762e-14 0.0 0.01 0.0 -1.8797145141880063e-14 0.0 0.01000159708251943 0.010002140837281456 0.0 -2.4053907551475108e-15 0.0 0.01 0.0 -2.4053907551475108e-15 0.0 0.010001274643666059 0.010002116871982379 0.0 6.896034966001296e-17 0.0 0.01 0.0 6.896034966001296e-17 0.0 0.010001026508036182 0.010002104664255336 0.0 2.503121138697299e-16 0.0 0.01 0.0 2.503121138697299e-16 0.0 0.010000868263069024 0.010002030418222358 0.0 1.320172399936628e-12 0.0 0.01 0.0 1.3201723999349736e-12 0.0 0.010005144567264423 0.010001920453079382 0.0 6.781184141102446e-13 0.0 0.01 0.0 6.781184141102446e-13 0.0 0.010003967710159956 0.010001827150649957 0.0 6.899621602710423e-14 0.0 0.01 0.0 6.899621602689744e-14 0.0 0.01000303262896817 0.010001751910270924 0.0 -6.361481903456682e-14 0.0 0.01 0.0 -6.361481903456682e-14 0.0 0.01000236508878223 0.01000169378023656 0.0 -3.698098266587721e-14 0.0 0.01 0.0 -3.698098266587721e-14 0.0 0.010001883331907293 0.010001649357967539 0.0 -7.456976492981762e-15 0.0 0.01 0.0 -7.456976492981762e-15 0.0 0.010001511092441061 0.010001619043110227 0.0 1.924172533001721e-15 0.0 0.01 0.0 1.924172533001721e-15 0.0 0.010001208719114972 0.0100015975327351 0.0 1.1150140228639919e-15 0.0 0.01 0.0 1.1150140228639919e-15 0.0 0.010000975742792522 0.010001585827147415 0.0 4.2809972200747987e-16 0.0 0.01 0.0 4.2809972200747987e-16 0.0 0.010000825302157306 0.010001425104580585 0.0 1.7127440352759126e-12 0.0 0.01 0.0 1.7127440352767398e-12 0.0 0.010004796398610403 0.010001317160190948 0.0 8.893768412488203e-13 0.0 0.01 0.0 8.893768412488203e-13 0.0 0.0100036983506584 0.01000123067714766 0.0 1.5086303674024285e-13 0.0 0.01 0.0 1.5086303674044964e-13 0.0 0.010002827348633172 0.010001163753116684 0.0 -1.7671599475571106e-14 0.0 0.01 0.0 -1.7671599475571106e-14 0.0 0.010002206279935947 0.010001114436267552 0.0 -9.915259930823176e-15 0.0 0.01 0.0 -9.915259930823176e-15 0.0 0.010001760714908405 0.010001078274376277 0.0 4.149126906783828e-15 0.0 0.01 0.0 4.149126906783828e-15 0.0 0.010001416300829399 0.01000105291627156 0.0 3.1862353113426613e-15 0.0 0.01 0.0 3.18623531139436e-15 0.0 0.010001134493031968 0.010001036311068839 0.0 -7.530010551868969e-16 0.0 0.01 0.0 -7.530010551868969e-16 0.0 0.010000918076414171 0.010001027508344317 0.0 -7.705502658486193e-16 0.0 0.01 0.0 -7.705502658486193e-16 0.0 0.010000779891225062 0.010000828703000921 0.0 1.8019216208827503e-12 0.0 0.01 0.0 1.8019216208819231e-12 0.0 0.010004417475390218 0.010000725178875035 0.0 8.990517689579732e-13 0.0 0.01 0.0 8.990517689579732e-13 0.0 0.01000340458789388 0.010000648513079928 0.0 1.7969566136282825e-13 0.0 0.01 0.0 1.7969566136282825e-13 0.0 0.010002604517173217 0.010000593302797057 0.0 1.4733021160605248e-14 0.0 0.01 0.0 1.4733021160605248e-14 0.0 0.010002036772097142 0.010000555696316329 0.0 9.469633662114352e-15 0.0 0.01 0.0 9.469633662114352e-15 0.0 0.010001627347152637 0.010000528841948115 0.0 8.786434691353032e-15 0.0 0.01 0.0 8.786434691353032e-15 0.0 0.010001312758454978 0.010000511289209825 0.0 -2.307595643014385e-15 0.0 0.01 0.0 -2.307595643014385e-15 0.0 0.010001055367046435 0.010000500037503128 0.0 -5.942333035379087e-15 0.0 0.01 0.0 -5.942333035379087e-15 0.0 0.010000856560041703 0.010000493186482539 0.0 -2.904535686684501e-15 0.0 0.01 0.0 -2.904535686684501e-15 0.0 0.010000732030372427 0.010000313014696114 0.0 1.3932267734449653e-12 0.0 0.01 0.0 1.3932267734457925e-12 0.0 0.010004027331604217 0.010000214856924327 0.0 6.175173005345962e-13 0.0 0.01 0.0 6.175173005345962e-13 0.0 0.010003102493222601 0.010000148953328 0.0 1.0809990468710772e-13 0.0 0.01 0.0 1.0809990468710772e-13 0.0 0.010002376346785304 0.010000106951715777 0.0 1.8976601861971485e-14 0.0 0.01 0.0 1.8976601861971485e-14 0.0 0.010001859418487021 0.01000008105098538 0.0 1.6840170333783143e-14 0.0 0.01 0.0 1.6840170333783143e-14 0.0 0.010001491033410812 0.010000066400661351 0.0 6.716127400470444e-15 0.0 0.01 0.0 6.716127400470444e-15 0.0 0.010001205768046433 0.010000056150472928 0.0 -6.630272631571173e-15 0.0 0.01 0.0 -6.630272631571173e-15 0.0 0.01000097474249992 0.010000050800387102 0.0 -9.83347943365916e-15 0.0 0.01 0.0 -9.83347943365916e-15 0.0 0.01000079499479246 0.010000048350350663 0.0 -3.7337258749140986e-15 0.0 0.01 0.0 -3.7337258749140986e-15 0.0 0.01000068221980723 0.009999923000889342 0.0 6.481694142352635e-13 0.0 0.01 0.0 6.481694142356771e-13 0.0 0.010003640186679581 0.009999825004593618 0.0 1.7995695409890837e-13 0.0 0.01 0.0 1.7995695409890837e-13 0.0 0.010002803428441155 0.009999768008073288 0.0 1.3106227949074148e-14 0.0 0.01 0.0 1.3106227949074148e-14 0.0 0.010002147641656642 0.009999737510335487 0.0 2.7395610171434025e-14 0.0 0.01 0.0 2.7395610171434025e-14 0.0 0.010001683525043078 0.009999721511633801 0.0 2.8329891668786397e-14 0.0 0.01 0.0 2.8329891668786397e-14 0.0 0.010001354275059476 0.009999714512225956 0.0 4.890132408111289e-15 0.0 0.01 0.0 4.890132408111289e-15 0.0 0.010001098831087933 0.009999712512397846 0.0 -1.1319664012296795e-14 0.0 0.01 0.0 -1.1319664012296795e-14 0.0 0.010000892719527999 0.009999712012441004 0.0 -1.2268141873933617e-14 0.0 0.01 0.0 -1.2268141873933617e-14 0.0 0.010000734931010603 0.009999711512484239 0.0 -4.299169409077576e-15 0.0 0.01 0.0 -4.299169409077576e-15 0.0 0.010000634810442529 0.009999661017237179 0.0 -1.771838413871262e-12 0.0 0.01 0.0 -1.771838413871262e-12 0.0 0.010003277961050152 0.009999563528577763 0.0 -8.117396902175692e-14 0.0 0.01 0.0 -8.117396902170522e-14 0.0 0.010002524405571886 0.009999508536232871 0.0 5.909049500698211e-14 0.0 0.01 0.0 5.909049500698211e-14 0.0 0.01000193316042193 0.009999482540167475 0.0 9.767933121975405e-14 0.0 0.01 0.0 9.767933121975405e-14 0.0 0.010001515944643564 0.009999473541576688 0.0 5.42724873315449e-14 0.0 0.01 0.0 5.42724873315449e-14 0.0 0.010001220923561756 0.009999472041813921 0.0 6.2954516213587e-15 0.0 0.01 0.0 6.2954516213587e-15 0.0 0.010000996248856996 0.00999947354157669 0.0 -1.570926055050788e-14 0.0 0.01 0.0 -1.570926055050788e-14 0.0 0.010000815549757364 0.009999475041340135 0.0 -1.4374396325715603e-14 0.0 0.01 0.0 -1.4374396325715603e-14 0.0 0.010000676818706335 0.009999476041182804 0.0 -4.665950424079005e-15 0.0 0.01 0.0 -4.665950424079005e-15 0.0 0.010000588902016754 0.009999513035572465 0.0 1.1144366374466478e-10 0.0 0.01 0.0 1.1144366374471772e-10 0.0 0.01000295490920744 0.009999409052386988 0.0 3.7490672795364575e-12 0.0 0.01 0.0 3.749067279538112e-12 0.0 0.01000227517622855 0.009999352562881649 0.0 4.1142721365757747e-13 0.0 0.01 0.0 4.1142721365778427e-13 0.0 0.010001741154637372 0.0099993265680327 0.0 2.9391860279050674e-13 0.0 0.01 0.0 2.9391860279029995e-13 0.0 0.010001365029444946 0.009999317569862989 0.0 1.1351252939830454e-13 0.0 0.01 0.0 1.1351252939851133e-13 0.0 0.010001098330923126 0.009999315070375716 0.0 1.0155310805076783e-14 0.0 0.01 0.0 1.0155310805076783e-14 0.0 0.010000898571099995 0.009999317569862992 0.0 -2.232959939470184e-14 0.0 0.01 0.0 -2.232959939470184e-14 0.0 0.010000741282416799 0.009999321069148326 0.0 -1.8087532457327826e-14 0.0 0.01 0.0 -1.8087532457327826e-14 0.0 0.01000062165796399 0.009999323068741595 0.0 -5.636303637171162e-15 0.0 0.01 0.0 -5.636303637171162e-15 0.0 0.010000546444787022 0.009999448545618761 0.0 8.968274653466589e-10 0.0 0.01 0.0 8.968274653458118e-10 0.0 0.01000268172836458 0.009999343064740263 0.0 7.851841941371945e-11 0.0 0.01 0.0 7.851841941377239e-11 0.0 0.010002068041342403 0.009999276078616916 0.0 1.2425039643555837e-12 0.0 0.01 0.0 1.2425039643547565e-12 0.0 0.010001578973895068 0.009999243085946507 0.0 6.85162629059442e-13 0.0 0.01 0.0 6.85162629059442e-13 0.0 0.010001232177701873 0.009999229089154696 0.0 2.2548898435815266e-13 0.0 0.01 0.0 2.2548898435815266e-13 0.0 0.010000988896668157 0.009999224590198382 0.0 1.8105036971795675e-14 0.0 0.01 0.0 1.8105036971795675e-14 0.0 0.010000810648562012 0.009999225090082116 0.0 -3.45651592341976e-14 0.0 0.01 0.0 -3.45651592340942e-14 0.0 0.010000672417815779 0.009999226589733769 0.0 -2.495802275620029e-14 0.0 0.01 0.0 -2.495802275614859e-14 0.0 0.010000568398457848 0.009999227589501915 0.0 -7.13889799745519e-15 0.0 0.01 0.0 -7.13889799745519e-15 0.0 0.010000505388310021 0.009999443546451443 0.0 3.5723235785674768e-09 0.0 0.01 0.0 3.5723235785657827e-09 0.0 0.010002463309887404 0.009999342064937519 0.0 5.160273604498363e-10 0.0 0.01 0.0 5.160273604494128e-10 0.0 0.010001905794669632 0.009999265081023825 0.0 1.004520780073597e-11 0.0 0.01 0.0 1.004520780073597e-11 0.0 0.010001453416801667 0.009999218591599409 0.0 1.3898916927852726e-12 0.0 0.01 0.0 1.3898916927860997e-12 0.0 0.010001123739390157 0.009999195597070024 0.0 4.5342474280161927e-13 0.0 0.01 0.0 4.5342474280203286e-13 0.0 0.010000894670050857 0.009999182600232283 0.0 5.243375113000642e-14 0.0 0.01 0.0 5.243375113000642e-14 0.0 0.010000730530043326 0.009999178601215478 0.0 -4.3872532920253696e-14 0.0 0.01 0.0 -4.3872532920305395e-14 0.0 0.010000609405701768 0.009999176601708881 0.0 -3.5352379924817286e-14 0.0 0.01 0.0 -3.535237992476559e-14 0.0 0.010000521540797886 0.009999177101585415 0.0 -1.0230946687530388e-14 0.0 0.01 0.0 -1.0230946687530388e-14 0.0 0.010000468282891275 0.00999948054049382 0.0 1.0096604464650174e-08 0.0 0.01 0.0 1.0096604464650174e-08 0.0 0.010002296190646943 0.009999394554989735 0.0 2.2314387739421195e-09 0.0 0.01 0.0 2.2314387739404254e-09 0.0 0.010001791481296566 0.009999312070993468 0.0 1.593461242089439e-10 0.0 0.01 0.0 1.5934612420883801e-10 0.0 0.010001366480039136 0.00999924958447697 0.0 2.5701458841622385e-12 0.0 0.01 0.0 2.570145884160584e-12 0.0 0.01000104606411463 0.009999208593958442 0.0 9.456541924445187e-13 0.0 0.01 0.0 9.45654192446173e-13 0.0 0.010000821401193906 0.00999918659925388 0.0 1.92787314726469e-13 0.0 0.01 0.0 1.9278731472688259e-13 0.0 0.010000665116351079 0.009999174102327316 0.0 -2.2544829609459098e-14 0.0 0.01 0.0 -2.2544829609459098e-14 0.0 0.010000554246074905 0.0099991671040689 0.0 -3.805205055016457e-14 0.0 0.01 0.0 -3.8052050550267964e-14 0.0 0.010000477584210821 0.009999164104819797 0.0 -1.2142649632450193e-14 0.0 0.01 0.0 -1.2142649632450193e-14 0.0 0.010000431677950271 0.0099995505303826 0.0 2.2709439800329932e-08 0.0 0.01 0.0 2.2709439800302827e-08 0.0 0.010002166253772373 0.00999949553818232 0.0 7.069275623467852e-09 0.0 0.01 0.0 7.069275623467852e-09 0.0 0.010001715291240183 0.009999416551066068 0.0 1.1486794898424947e-09 0.0 0.01 0.0 1.1486794898408006e-09 0.0 0.010001317160191144 0.009999337565828671 0.0 5.667077724024396e-11 0.0 0.01 0.0 5.667077724024396e-11 0.0 0.010001001600460432 0.009999277078399904 0.0 1.9159397819597792e-12 0.0 0.01 0.0 1.915939781958125e-12 0.0 0.010000773039629306 0.009999236587428713 0.0 5.890886070917218e-13 0.0 0.01 0.0 5.89088607092549e-13 0.0 0.010000615306785707 0.009999211593247584 0.0 1.0109067977415885e-13 0.0 0.01 0.0 1.0109067977426224e-13 0.0 0.01000050883883491 0.009999197096708408 0.0 -7.45042371613105e-15 0.0 0.01 0.0 -7.45042371613105e-15 0.0 0.010000438528844446 0.009999190598280278 0.0 -7.564463090898744e-15 0.0 0.01 0.0 -7.564463090898744e-15 0.0 0.010000397973756205 0.009999646019077097 0.0 4.327343291988736e-08 0.0 0.01 0.0 4.3273432919914466e-08 0.0 0.010002064589484244 0.009999632520305828 0.0 1.8008369633462748e-08 0.0 0.01 0.0 1.8008369633462748e-08 0.0 0.010001667416997843 0.009999571527543626 0.0 5.004675576641472e-09 0.0 0.01 0.0 5.00467557664486e-09 0.0 0.010001298602915395 0.009999487539395169 0.0 7.851912994899073e-10 0.0 0.01 0.0 7.851912994899073e-10 0.0 0.010000988446534766 0.009999407052742137 0.0 4.90495283714184e-11 0.0 0.01 0.0 4.904952837147134e-11 0.0 0.010000753035050729 0.009999344064543345 0.0 1.4376183864383145e-12 0.0 0.01 0.0 1.4376183864383145e-12 0.0 0.010000588451937277 0.009999302073072099 0.0 4.583401239545292e-13 0.0 0.01 0.0 4.583401239545292e-13 0.0 0.010000476584067691 0.009999276078616913 0.0 1.0766514538025253e-13 0.0 0.01 0.0 1.0766514538066612e-13 0.0 0.010000407274879573 0.00999926158179727 0.0 1.4467565979007197e-14 0.0 0.01 0.0 1.4467565979007197e-14 0.0 0.010000368670386678 0.009999754009843737 0.0 7.150364622886827e-08 0.0 0.01 0.0 7.150364622881406e-08 0.0 0.010001974685520009 0.00999978900689322 0.0 3.7890733808150154e-08 0.0 0.01 0.0 3.7890733808150154e-08 0.0 0.010001629298320734 0.009999761508567306 0.0 1.5342973361346388e-08 0.0 0.01 0.0 1.5342973361346388e-08 0.0 0.010001296652187743 0.00999969051437087 0.0 4.5274282188111515e-09 0.0 0.01 0.0 4.5274282188111515e-09 0.0 0.01000100015002808 0.009999605023402336 0.0 9.129301427931985e-10 0.0 0.01 0.0 9.129301427948926e-10 0.0 0.010000760836822218 0.009999525033841071 0.0 1.0842692212038003e-10 0.0 0.01 0.0 1.0842692212016828e-10 0.0 0.010000585501417773 0.009999463043251479 0.0 5.451460721456701e-12 0.0 0.01 0.0 5.451460721456701e-12 0.0 0.010000466332617888 0.009999420050455123 0.0 3.8643172869772896e-13 0.0 0.01 0.0 3.864317286969018e-13 0.0 0.010000390622886744 0.009999396554626344 0.0 7.727680153663624e-14 0.0 0.01 0.0 7.727680153663624e-14 0.0 0.010000349118281685 0.0099998690041789 0.0 1.034479093100062e-07 0.0 0.01 0.0 1.0344790930989778e-07 0.0 0.010001896540998199 0.009999942501159745 0.0 6.653081282371803e-08 0.0 0.01 0.0 6.653081282366382e-08 0.0 0.010001590229907941 0.009999962500398446 0.0 3.5359829744568624e-08 0.0 0.01 0.0 3.5359829744622834e-08 0.0 0.01000129710251508 0.009999926500845501 0.0 1.531480845745202e-08 0.0 0.01 0.0 1.531480845745202e-08 0.0 0.010001024107333068 0.009999857003071594 0.0 5.367467641246952e-09 0.0 0.01 0.0 5.367467641253728e-09 0.0 0.010000791593987556 0.00999977800739266 0.0 1.4954748964516023e-09 0.0 0.01 0.0 1.4954748964516023e-09 0.0 0.010000609405702104 0.009999708012788992 0.0 3.0528515934238545e-10 0.0 0.01 0.0 3.052851593432325e-10 0.0 0.010000479034418912 0.009999655017852726 0.0 4.11596964725377e-11 0.0 0.01 0.0 4.11596964725377e-11 0.0 0.010000394073292845 0.009999621521487985 0.0 1.7360264722553564e-12 0.0 0.01 0.0 1.7360264722553564e-12 0.0 0.01000034766813013 0.01000002880279286 0.0 1.3339398810866508e-07 0.0 0.01 0.0 1.3339398810855666e-07 0.0 0.010001846213817764 0.010000086452582026 0.0 9.870046402036224e-08 0.0 0.01 0.0 9.870046402025382e-08 0.0 0.01000155211274397 0.01000014695385357 0.0 6.400243615818646e-08 0.0 0.01 0.0 6.400243615818646e-08 0.0 0.010001289299915509 0.010000163104182783 0.0 3.581983409265809e-08 0.0 0.01 0.0 3.581983409265809e-08 0.0 0.010001046564464053 0.010000134302749817 0.0 1.7183122202673803e-08 0.0 0.01 0.0 1.7183122202673803e-08 0.0 0.010000830203418494 0.01000008055098058 0.0 6.986585546480285e-09 0.0 0.01 0.0 6.986585546480285e-09 0.0 0.010000651913750509 0.010000021950073068 0.0 2.304390378256966e-09 0.0 0.01 0.0 2.304390378256966e-09 0.0 0.010000517140113114 0.009999972000117641 0.0 5.632690458991268e-10 0.0 0.01 0.0 5.632690458991268e-10 0.0 0.010000423876949273 0.009999939500549036 0.0 7.4939655199092e-11 0.0 0.01 0.0 7.493965519888024e-11 0.0 0.010000369670497434 0.010000328619626585 0.0 1.5121302908622548e-07 0.0 0.01 0.0 1.5121302908644232e-07 0.0 0.010001829105149468 0.010000283214492011 0.0 1.281038803143536e-07 0.0 0.01 0.0 1.2810388031457044e-07 0.0 0.010001539407854018 0.01000031591630934 0.0 9.451081159155515e-08 0.0 0.01 0.0 9.451081159177199e-08 0.0 0.010001283948575598 0.010000367220808234 0.0 6.227325631351886e-08 0.0 0.01 0.0 6.227325631330202e-08 0.0 0.010001060719326462 0.010000393073371996 0.0 3.626319315924026e-08 0.0 0.01 0.0 3.626319315934868e-08 0.0 0.010000867813149076 0.010000386272429444 0.0 1.8193156466582427e-08 0.0 0.01 0.0 1.8193156466799268e-08 0.0 0.010000704174421894 0.010000361369595822 0.0 7.559174775169895e-09 0.0 0.01 0.0 7.559174775278316e-09 0.0 0.010000574249469147 0.010000331566490585 0.0 2.400722208078772e-09 0.0 0.01 0.0 2.400722208078772e-09 0.0 0.010000477584211687 0.010000308614285856 0.0 4.464385551031778e-10 0.0 0.01 0.0 4.4643855509640153e-10 0.0 0.010000418976329733 0.010000783294290489 0.0 1.2298059071276513e-07 0.0 0.01 0.0 1.2298059071254829e-07 0.0 0.010001822750509117 0.010000671920726317 0.0 1.417020585412366e-07 0.0 0.01 0.0 1.417020585412366e-07 0.0 0.010001548212480487 0.010000587453900594 0.0 1.1944443102846793e-07 0.0 0.01 0.0 1.1944443102846793e-07 0.0 0.010001303957140429 0.010000570349922513 0.0 8.686019981507705e-08 0.0 0.01 0.0 8.68601998148602e-08 0.0 0.010001091979968289 0.010000603555110761 0.0 5.6182882956839694e-08 0.0 0.01 0.0 5.6182882956839694e-08 0.0 0.01000091172514458 0.010000641161809636 0.0 3.17991057908161e-08 0.0 0.01 0.0 3.179910578994874e-08 0.0 0.010000761337087934 0.010000662165797893 0.0 1.5094044336465273e-08 0.0 0.01 0.0 1.5094044337332635e-08 0.0 0.010000640211509537 0.01000066606654538 0.0 5.5338072552047965e-09 0.0 0.01 0.0 5.5338072552047965e-09 0.0 0.010000549345268311 0.010000664616251551 0.0 1.1733063896542453e-09 0.0 0.01 0.0 1.1733063896677979e-09 0.0 0.010000491736268513 0.01000106166904735 0.0 8.426366662415264e-10 0.0 0.01 0.0 8.426366662432204e-10 0.0 0.01000182469930776 0.010001099282608799 0.0 9.566321554398474e-08 0.0 0.01 0.0 9.566321554420158e-08 0.0 0.010001579975741573 0.010001063171637669 0.0 1.186756601097988e-07 0.0 0.01 0.0 1.1867566011023248e-07 0.0 0.010001342572438255 0.010000979145341649 0.0 1.0172588868657961e-07 0.0 0.01 0.0 1.0172588868657961e-07 0.0 0.010001141296905613 0.010000913225846748 0.0 7.141648510414211e-08 0.0 0.01 0.0 7.141648510414211e-08 0.0 0.01000097279269519 0.010000892719802458 0.0 4.277738602492115e-08 0.0 0.01 0.0 4.277738602405379e-08 0.0 0.010000833104372261 0.01000090342248055 0.0 2.1523655545363507e-08 0.0 0.01 0.0 2.1523655545146667e-08 0.0 0.01000071832746121 0.010000923477916599 0.0 8.41939233500559e-09 0.0 0.01 0.0 8.41939233495138e-09 0.0 0.010000633360177317 0.01000093663157591 0.0 1.88916580733708e-09 0.0 0.01 0.0 1.889165807343856e-09 0.0 0.010000577700057283 0.010001132992774567 0.0 -4.1059501687534805e-08 0.0 0.01 0.0 -4.1059501687534805e-08 0.0 0.010001638102671897 0.010001331316148197 0.0 4.726963671397924e-08 0.0 0.01 0.0 4.726963671397924e-08 0.0 0.010001421203250375 0.01000142900716738 0.0 7.818825249489986e-08 0.0 0.01 0.0 7.818825249489986e-08 0.0 0.010001221924845101 0.010001428056569915 0.0 6.9603545847308e-08 0.0 0.01 0.0 6.960354584709116e-08 0.0 0.010001050966382688 0.010001390440263361 0.0 4.609069497417406e-08 0.0 0.01 0.0 4.60906949743909e-08 0.0 0.01000091077473 0.010001365979920962 0.0 2.40556034868198e-08 0.0 0.01 0.0 2.40556034868198e-08 0.0 0.010000799896051583 0.010001360627659467 0.0 9.557047444961253e-09 0.0 0.01 0.0 9.557047444934148e-09 0.0 0.010000717827297702 0.010001361628054865 0.0 2.168754572074729e-09 0.0 0.01 0.0 2.168754572081505e-09 0.0 0.010000667066741471 0.010001327414308925 0.0 -1.8513521591202037e-08 0.0 0.01 0.0 -1.8513521591202037e-08 0.0 0.010001364529291606 0.010001592180230454 0.0 1.9236963627405033e-08 0.0 0.01 0.0 1.9236963627350823e-08 0.0 0.01000117795816061 0.010001753861388178 0.0 2.471720356107864e-08 0.0 0.01 0.0 2.471720356102443e-08 0.0 0.010001012353799882 0.010001864271233526 0.0 1.5709941643334306e-08 0.0 0.01 0.0 1.570994164336141e-08 0.0 0.010000885367604491 0.01000193611214098 0.0 6.617689114497014e-09 0.0 0.01 0.0 6.6176891144902376e-09 0.0 0.0100008008962115 0.01000198203911652 0.0 1.5228092745699139e-09 0.0 0.01 0.0 1.5228092745699139e-09 0.0 0.010000751534712525 0.010001303004827444 0.0 -3.638158236046046e-08 0.0 0.01 0.0 -3.6381582360894144e-08 0.0 0.010001163753315197 0.010001571670462926 0.0 -1.1062632350136064e-08 0.0 0.01 0.0 -1.1062632350108959e-08 0.0 0.010000982544808523 0.010001770970340239 0.0 -2.4635945197617017e-09 0.0 0.01 0.0 -2.4635945197583136e-09 0.0 0.010000878515755839 0.010001887734396682 0.0 -3.368663305159902e-10 0.0 0.01 0.0 -3.3686633051556667e-10 0.0 0.010000825302157323 0.009999994500004536 0.0 6.996893363367933e-19 0.0 0.01 0.0 6.996893363367933e-19 0.0 0.01 0.009999994500004536 0.0 4.425152908921142e-13 0.0 0.01 0.0 4.425152908921142e-13 0.0 0.01 0.009999994500004536 0.0 1.4363302726721691e-12 0.0 0.01 0.0 1.4363302726721691e-12 0.0 0.01 0.009999994500004536 0.0 1.1318245454111239e-13 0.0 0.01 0.0 1.1318245454111239e-13 0.0 0.01 0.00999999500000375 0.0 -2.7526997999399144e-12 0.0 0.01 0.0 -2.7526997999399144e-12 0.0 0.01 0.009999995500003037 0.0 2.825289093176926e-18 0.0 0.01 0.0 2.825289093176926e-18 0.0 0.01 0.009999995500003037 0.0 6.35797470977959e-18 0.0 0.01 0.0 6.35797470977959e-18 0.0 0.01 0.009999995500003037 0.0 -4.393310436214299e-18 0.0 0.01 0.0 -4.393310436214299e-18 0.0 0.01 0.009999993500006337 0.0 -8.567022307145693e-19 0.0 0.01 0.0 -8.567022307145693e-19 0.0 0.01 0.009999993500006337 0.0 1.4352751537545768e-12 0.0 0.01 0.0 1.4352751537545768e-12 0.0 0.01 0.009999993500006337 0.0 5.062942230446192e-13 0.0 0.01 0.0 5.062942230446192e-13 0.0 0.01 0.009999993500006337 0.0 8.503933845611256e-13 0.0 0.01 0.0 8.503933845611256e-13 0.0 0.01 0.009999993500006337 0.0 8.528518460994302e-13 0.0 0.01 0.0 8.528518460994302e-13 0.0 0.01 0.009999993500006337 0.0 -8.554836922531086e-13 0.0 0.01 0.0 -8.554836922531086e-13 0.0 0.01 0.0099999940000054 0.0 3.566968138900351e-18 0.0 0.01 0.0 3.566968138900351e-18 0.0 0.01 0.0099999940000054 0.0 2.0905466665576564e-12 0.0 0.01 0.0 2.0905466665576564e-12 0.0 0.01 0.009999991500010838 0.0 -1.498334882368332e-18 0.0 0.01 0.0 -1.498334882368332e-18 0.0 0.01 0.009999991500010838 0.0 6.673322941245019e-13 0.0 0.01 0.0 6.673322941245019e-13 0.0 0.01 0.009999991500010838 0.0 2.407407000024729e-13 0.0 0.01 0.0 2.407407000024729e-13 0.0 0.01 0.009999991500010838 0.0 1.3545283529550902e-12 0.0 0.01 0.0 1.3545283529550902e-12 0.0 0.01 0.009999991500010838 0.0 6.657674705950741e-13 0.0 0.01 0.0 6.657674705950741e-13 0.0 0.01 0.009999991500010838 0.0 -2.958646677761798e-18 0.0 0.01 0.0 -2.958646677761798e-18 0.0 0.01 0.009999992000009601 0.0 -2.9792718742089047e-18 0.0 0.01 0.0 -2.9792718742089047e-18 0.0 0.01 0.009999992000009601 0.0 2.5430357500601346e-12 0.0 0.01 0.0 2.5430357500601346e-12 0.0 0.01 0.009999989500016538 0.0 -1.1360229047272676e-19 0.0 0.01 0.0 -1.1360229047272676e-19 0.0 0.01 0.009999989500016538 0.0 2.2723323332640507e-13 0.0 0.01 0.0 2.2723323332640507e-13 0.0 0.01 0.009999989500016538 0.0 -1.9214099047033214e-13 0.0 0.01 0.0 -1.9214099047033214e-13 0.0 0.01 0.009999989500016538 0.0 1.1955200475825966e-13 0.0 0.01 0.0 1.1955200475825966e-13 0.0 0.01 0.009999989500016538 0.0 -3.752638999885583e-13 0.0 0.01 0.0 -3.752638999885583e-13 0.0 0.01 0.009999989500016538 0.0 -2.0975991427931875e-12 0.0 0.01 0.0 -2.0975991427931875e-12 0.0 0.01 0.009999989500016538 0.0 -4.403271809389555e-13 0.0 0.01 0.0 -4.403271809389555e-13 0.0 0.01 0.009999989500016538 0.0 -1.0870427378508754e-17 0.0 0.01 0.0 -1.0870427378508754e-17 0.0 0.01 0.009999985500031538 0.0 -7.336603792989324e-18 0.0 0.01 0.0 -7.336603792989324e-18 0.0 0.01 0.009999985500031538 0.0 4.1975044826933264e-13 0.0 0.01 0.0 4.1975044826933264e-13 0.0 0.01 0.009999985500031538 0.0 9.056121034341887e-13 0.0 0.01 0.0 9.056121034341887e-13 0.0 0.01 0.009999985500031538 0.0 1.0829236206728097e-12 0.0 0.01 0.0 1.0829236206728097e-12 0.0 0.01 0.009999985500031538 0.0 4.416253744531877e-18 0.0 0.01 0.0 4.416253744531877e-18 0.0 0.01 0.009999985500031538 0.0 -2.530581795834315e-18 0.0 0.01 0.0 -2.530581795834315e-18 0.0 0.01 0.009999986000029399 0.0 3.6157585072407e-18 0.0 0.01 0.0 3.6157585072407e-18 0.0 0.01 0.00999998700002535 0.0 5.956918461575135e-13 0.0 0.01 0.0 5.956918461575135e-13 0.0 0.01 0.009999981500051337 0.0 9.395399189122676e-19 0.0 0.01 0.0 9.395399189122676e-19 0.0 0.01 0.009999981500051337 0.0 4.827543783749609e-13 0.0 0.01 0.0 4.827543783749609e-13 0.0 0.01 0.009999981500051337 0.0 -9.085730270205949e-13 0.0 0.01 0.0 -9.085730270205949e-13 0.0 0.01 0.009999982000048601 0.0 2.5026698926698076e-18 0.0 0.01 0.0 2.5026698926698076e-18 0.0 0.01 0.009999982000048601 0.0 2.9684835348498275e-18 0.0 0.01 0.0 2.9684835348498275e-18 0.0 0.01 0.009999982000048601 0.0 4.010289166660182e-13 0.0 0.01 0.0 4.010289166660182e-13 0.0 0.01 0.009999982000048601 0.0 1.3043852759073367e-17 0.0 0.01 0.0 1.3043852759073367e-17 0.0 0.010000000500000038 0.009999982000048601 0.0 -8.973324232386482e-14 0.0 0.01 0.0 -8.973324232386482e-14 0.0 0.010000000500000038 0.009999976000086399 0.0 3.982987708276581e-18 0.0 0.01 0.0 3.982987708276581e-18 0.0 0.01 0.009999976000086399 0.0 -1.1679107083166922e-13 0.0 0.01 0.0 -1.1679107083166922e-13 0.0 0.01 0.009999976000086399 0.0 -2.5658093749634407e-13 0.0 0.01 0.0 -2.5658093749634407e-13 0.0 0.01 0.009999976000086399 0.0 3.145223333288518e-13 0.0 0.01 0.0 3.145223333288518e-13 0.0 0.01 0.009999976000086399 0.0 4.042146901669485e-18 0.0 0.01 0.0 4.042146901669485e-18 0.0 0.010000000500000038 0.009999976500082837 0.0 2.2871833593688967e-18 0.0 0.01 0.0 2.2871833593688967e-18 0.0 0.010000000500000038 0.009999976500082837 0.0 8.204954192986134e-18 0.0 0.01 0.0 8.204954192986134e-18 0.0 0.010000000500000038 0.009999976500082837 0.0 -2.7158353840310307e-17 0.0 0.01 0.0 -2.7158353840310307e-17 0.0 0.01000000100000015 0.009999968500148837 0.0 3.010703588020808e-18 0.0 0.01 0.0 3.010703588020808e-18 0.0 0.010000000500000038 0.009999968500148837 0.0 -4.0061823877899955e-13 0.0 0.01 0.0 -4.0061823877899955e-13 0.0 0.010000000500000038 0.009999968500148837 0.0 1.3305247540198864e-13 0.0 0.01 0.0 1.3305247540198864e-13 0.0 0.010000000500000038 0.00999996900014415 0.0 5.624912820919093e-13 0.0 0.01 0.0 5.624912820919093e-13 0.0 0.010000000500000038 0.00999996900014415 0.0 4.623719896445228e-18 0.0 0.01 0.0 4.623719896445228e-18 0.0 0.010000000500000038 0.00999996900014415 0.0 3.938740425638629e-18 0.0 0.01 0.0 3.938740425638629e-18 0.0 0.01000000100000015 0.009999969500139537 0.0 1.0729135023912185e-17 0.0 0.01 0.0 1.0729135023912185e-17 0.0 0.01000000100000015 0.009999969500139537 0.0 -7.491972848179231e-18 0.0 0.01 0.0 -7.491972848179231e-18 0.0 0.01000000100000015 0.00999996000024 0.0 8.143549789880382e-18 0.0 0.01 0.0 8.143549789880382e-18 0.0 0.010000000500000038 0.00999996000024 0.0 -7.744906930442711e-14 0.0 0.01 0.0 -7.744906930442711e-14 0.0 0.010000000500000038 0.00999996000024 0.0 -5.412807060755065e-13 0.0 0.01 0.0 -5.412807060755065e-13 0.0 0.010000000500000038 0.009999959500246037 0.0 3.874965568194331e-13 0.0 0.01 0.0 3.874965568194331e-13 0.0 0.01000000100000015 0.009999959500246037 0.0 2.9963098469342846e-18 0.0 0.01 0.0 2.9963098469342846e-18 0.0 0.01000000100000015 0.00999996000024 0.0 -3.517423123044489e-18 0.0 0.01 0.0 -3.517423123044489e-18 0.0 0.01000000100000015 0.00999996000024 0.0 -1.2280625486736803e-17 0.0 0.01 0.0 -1.2280625486736803e-17 0.0 0.010000001450000314 0.00999996000024 0.0 2.476403530149721e-17 0.0 0.01 0.0 2.476403530149721e-17 0.0 0.010000001450000314 0.009999948500397834 0.0 3.9053233429295435e-18 0.0 0.01 0.0 3.9053233429295435e-18 0.0 0.01000000100000015 0.009999948500397834 0.0 -1.3055735591342192e-13 0.0 0.01 0.0 -1.3055735591342192e-13 0.0 0.01000000100000015 0.009999948500397834 0.0 2.8356963788195374e-13 0.0 0.01 0.0 2.8356963788195374e-13 0.0 0.01000000100000015 0.009999948000405597 0.0 5.797510149112727e-18 0.0 0.01 0.0 5.797510149112727e-18 0.0 0.01000000100000015 0.009999948000405597 0.0 6.257244554406327e-18 0.0 0.01 0.0 6.257244554406327e-18 0.0 0.010000001450000314 0.009999948000405597 0.0 -1.3216325583486883e-13 0.0 0.01 0.0 -1.3216325583486883e-13 0.0 0.010000001450000314 0.009999948500397834 0.0 1.3376774077086404e-17 0.0 0.01 0.0 1.3376774077086404e-17 0.0 0.01000000195000057 0.009999948500397834 0.0 -3.1493082928318223e-18 0.0 0.01 0.0 -3.1493082928318223e-18 0.0 0.01000000195000057 0.009999933000673342 0.0 1.4193334507524776e-18 0.0 0.01 0.0 1.4193334507524776e-18 0.0 0.01000000100000015 0.009999933000673342 0.0 -9.352575935228619e-14 0.0 0.01 0.0 -9.352575935228619e-14 0.0 0.01000000100000015 0.00999993250068343 0.0 7.770517442912157e-14 0.0 0.01 0.0 7.770517442912157e-14 0.0 0.010000001450000314 0.00999993200069359 0.0 7.227984846838996e-18 0.0 0.01 0.0 7.227984846838996e-18 0.0 0.010000001450000314 0.00999993150070383 0.0 7.79262712559872e-18 0.0 0.01 0.0 7.79262712559872e-18 0.0 0.010000001450000314 0.00999993150070383 0.0 1.3172160008584168e-17 0.0 0.01 0.0 1.3172160008584168e-17 0.0 0.01000000195000057 0.00999993150070383 0.0 8.159172163201624e-18 0.0 0.01 0.0 8.159172163201624e-18 0.0 0.0100000024500009 0.00999993150070383 0.0 6.324458814757767e-17 0.0 0.01 0.0 6.324458814757767e-17 0.0 0.010000002950001304 0.009999913501122322 0.0 7.058854349279865e-19 0.0 0.01 0.0 7.058854349279865e-19 0.0 0.010000001450000314 0.009999913501122322 0.0 -8.101808451615718e-14 0.0 0.01 0.0 -8.101808451615718e-14 0.0 0.010000001450000314 0.009999913501122322 0.0 -1.867513403249142e-13 0.0 0.01 0.0 -1.867513403249142e-13 0.0 0.010000001450000314 0.009999913001135332 0.0 4.197647333751093e-18 0.0 0.01 0.0 4.197647333751093e-18 0.0 0.010000001450000314 0.009999913001135332 0.0 3.7210734576221095e-18 0.0 0.01 0.0 3.7210734576221095e-18 0.0 0.0100000024500009 0.009999912501148421 0.0 3.922551202320859e-18 0.0 0.01 0.0 3.922551202320859e-18 0.0 0.010000002950001304 0.009999912001161583 0.0 2.1718295895429897e-17 0.0 0.01 0.0 2.1718295895429897e-17 0.0 0.010000003400001733 0.009999912001161583 0.0 3.133728883076134e-18 0.0 0.01 0.0 3.133728883076134e-18 0.0 0.010000003400001733 0.009999889001848117 0.0 1.1705404098389787e-18 0.0 0.01 0.0 1.1705404098389787e-18 0.0 0.010000001450000314 0.009999889001848117 0.0 1.2349034249521773e-14 0.0 0.01 0.0 1.2349034249521773e-14 0.0 0.010000001450000314 0.009999889001848117 0.0 6.262779526442578e-18 0.0 0.01 0.0 6.262779526442578e-18 0.0 0.0100000024500009 0.009999889501831503 0.0 5.6058721430531214e-18 0.0 0.01 0.0 5.6058721430531214e-18 0.0 0.0100000024500009 0.009999888501864803 0.0 1.8446157909938772e-13 0.0 0.01 0.0 1.8446157909938772e-13 0.0 0.010000002950001304 0.009999888001881565 0.0 -1.7365454344511406e-13 0.0 0.01 0.0 -1.7365454344511406e-13 0.0 0.010000003400001733 0.009999888001881565 0.0 -3.698306559494499e-17 0.0 0.01 0.0 -3.698306559494499e-17 0.0 0.010000004400002904 0.0099998865019323 0.0 4.464680121898754e-17 0.0 0.01 0.0 4.464680121898754e-17 0.0 0.010000005350004294 0.009999858503003266 0.0 -1.1913375275391864e-18 0.0 0.01 0.0 -1.1913375275391864e-18 0.0 0.01000000195000057 0.009999858003024527 0.0 -3.897809509344614e-18 0.0 0.01 0.0 -3.897809509344614e-18 0.0 0.0100000024500009 0.009999858003024527 0.0 3.923899888325946e-14 0.0 0.01 0.0 3.923899888325946e-14 0.0 0.0100000024500009 0.009999857003067276 0.0 4.565462941323127e-18 0.0 0.01 0.0 4.565462941323127e-18 0.0 0.010000002950001304 0.009999857003067276 0.0 -2.423045567184339e-14 0.0 0.01 0.0 -2.423045567184339e-14 0.0 0.010000003900002281 0.009999856003110326 0.0 -1.6171372585263808e-17 0.0 0.01 0.0 -1.6171372585263808e-17 0.0 0.010000004900003601 0.009999855503131962 0.0 -2.2562253570959246e-17 0.0 0.01 0.0 -2.2562253570959246e-17 0.0 0.010000005350004294 0.009999854003197323 0.0 1.1037992683202142e-17 0.0 0.01 0.0 1.1037992683202142e-17 0.0 0.010000007800009127 0.009999821004806007 0.0 -3.0448797760307753e-18 0.0 0.01 0.0 -3.0448797760307753e-18 0.0 0.0100000024500009 0.009999821004806007 0.0 -4.45863205902826e-18 0.0 0.01 0.0 -4.45863205902826e-18 0.0 0.010000002950001304 0.009999820504832892 0.0 -9.417974771286235e-14 0.0 0.01 0.0 -9.417974771286235e-14 0.0 0.010000003400001733 0.009999820004859853 0.0 7.513953718914755e-14 0.0 0.01 0.0 7.513953718914755e-14 0.0 0.010000003900002281 0.009999818504941188 0.0 4.19837072069055e-18 0.0 0.01 0.0 4.19837072069055e-18 0.0 0.010000004400002904 0.009999817504995786 0.0 1.9428489238367297e-17 0.0 0.01 0.0 1.9428489238367297e-17 0.0 0.010000005350004294 0.009999816505050683 0.0 -6.530984866484059e-18 0.0 0.01 0.0 -6.530984866484059e-18 0.0 0.010000008300010334 0.009999814505161377 0.0 -6.279730027544483e-17 0.0 0.01 0.0 -6.279730027544483e-17 0.0 0.010000009300012973 0.00999977400766111 0.0 1.0016411426536954e-18 0.0 0.01 0.0 1.0016411426536954e-18 0.0 0.010000003400001733 0.00999977400766111 0.0 -4.03299808878531e-18 0.0 0.01 0.0 -4.03299808878531e-18 0.0 0.010000003400001733 0.00999977400766111 0.0 9.623688110079853e-18 0.0 0.01 0.0 9.623688110079853e-18 0.0 0.010000004400002904 0.009999772007797305 0.0 -5.683235385080809e-18 0.0 0.01 0.0 -5.683235385080809e-18 0.0 0.010000004400002904 0.009999770007934696 0.0 -9.14964636749573e-18 0.0 0.01 0.0 -9.14964636749573e-18 0.0 0.010000005850005133 0.009999768008073288 0.0 2.0713372912877254e-17 0.0 0.01 0.0 2.0713372912877254e-17 0.0 0.010000007800009127 0.009999766008213078 0.0 -1.2197098399120596e-17 0.0 0.01 0.0 -1.2197098399120596e-17 0.0 0.010000009300012973 0.00999976400835407 0.0 -5.5370480376875796e-17 0.0 0.01 0.0 -5.5370480376875796e-17 0.0 0.010000012700024194 0.009999715512140463 0.0 8.720673761738548e-20 0.0 0.01 0.0 8.720673761738548e-20 0.0 0.010000004900003601 0.009999715012183172 0.0 2.2647502970385668e-18 0.0 0.01 0.0 2.2647502970385668e-18 0.0 0.010000004900003601 0.009999714012268814 0.0 1.9460630760664265e-17 0.0 0.01 0.0 1.9460630760664265e-17 0.0 0.010000005350004294 0.009999712512397844 0.0 -8.203676532457508e-18 0.0 0.01 0.0 -8.203676532457508e-18 0.0 0.010000006350006049 0.009999711012527546 0.0 1.8341087377690686e-17 0.0 0.01 0.0 1.8341087377690686e-17 0.0 0.010000007800009127 0.009999708512745217 0.0 5.031187031205393e-18 0.0 0.01 0.0 5.031187031205393e-18 0.0 0.010000009300012973 0.009999705513008899 0.0 6.082427441394191e-17 0.0 0.01 0.0 6.082427441394191e-17 0.0 0.010000012200022326 0.009999701013409482 0.0 -1.3751242001855687e-17 0.0 0.01 0.0 -1.3751242001855687e-17 0.0 0.010000016600041335 0.009999643019116213 0.0 5.80047066626173e-19 0.0 0.01 0.0 5.80047066626173e-19 0.0 0.010000005850005133 0.009999643019116213 0.0 2.935237364922237e-18 0.0 0.01 0.0 2.935237364922237e-18 0.0 0.010000006350006049 0.009999642519169795 0.0 2.0801326409851836e-17 0.0 0.01 0.0 2.0801326409851836e-17 0.0 0.010000006850007037 0.009999640519384876 0.0 -9.690891760688831e-18 0.0 0.01 0.0 -9.690891760688831e-18 0.0 0.010000007800009127 0.009999637019764154 0.0 6.03140650611411e-17 0.0 0.01 0.0 6.03140650611411e-17 0.0 0.010000009300012973 0.009999634020092175 0.0 9.58463434751603e-17 0.0 0.01 0.0 9.58463434751603e-17 0.0 0.010000012200022326 0.009999629020644872 0.0 8.518188399324466e-17 0.0 0.01 0.0 8.518188399324466e-17 0.0 0.010000015600036504 0.009999623521261504 0.0 -1.0138723857736544e-16 0.0 0.01 0.0 -1.0138723857736544e-16 0.0 0.01000002100006615 0.009999554029835182 0.0 -2.9247129712042417e-18 0.0 0.01 0.0 -2.9247129712042417e-18 0.0 0.010000008300010334 0.009999554029835182 0.0 -7.712964688206415e-18 0.0 0.01 0.0 -7.712964688206415e-18 0.0 0.010000008800011615 0.009999552530036197 0.0 -2.3009077626807144e-17 0.0 0.01 0.0 -2.3009077626807144e-17 0.0 0.010000009300012973 0.009999551030237887 0.0 -1.2922326026375679e-17 0.0 0.01 0.0 -1.2922326026375679e-17 0.0 0.010000010750017335 0.009999547530711122 0.0 5.962293724024608e-17 0.0 0.01 0.0 5.962293724024608e-17 0.0 0.010000012200022326 0.0099995420314622 0.0 8.771718322495202e-17 0.0 0.01 0.0 8.771718322495202e-17 0.0 0.010000015150034429 0.009999535532361532 0.0 1.2731248793801032e-16 0.0 0.01 0.0 1.2731248793801032e-16 0.0 0.01000001955005733 0.009999528533344218 0.0 1.9700026595858413e-16 0.0 0.01 0.0 1.9700026595858413e-16 0.0 0.01000002635010415 0.009999446545950098 0.0 9.408708667952772e-19 0.0 0.01 0.0 9.408708667952772e-19 0.0 0.010000012200022326 0.00999944604603315 0.0 3.705902224663329e-17 0.0 0.01 0.0 3.705902224663329e-17 0.0 0.010000012200022326 0.009999444046366103 0.0 -7.279332777434604e-18 0.0 0.01 0.0 -7.279332777434604e-18 0.0 0.010000012700024194 0.00999944054695166 0.0 1.1345544916735426e-17 0.0 0.01 0.0 1.1345544916735426e-17 0.0 0.010000014150030033 0.009999436047709916 0.0 1.3519120944267245e-16 0.0 0.01 0.0 1.3519120944267245e-16 0.0 0.010000016100038882 0.00999943004873037 0.0 2.2980295098316856e-16 0.0 0.01 0.0 2.2980295098316856e-16 0.0 0.01000001955005733 0.009999422050107773 0.0 1.3580577284062117e-16 0.0 0.01 0.0 1.3580577284062117e-16 0.0 0.010000024400089305 0.009999411052033043 0.0 2.5065981708555343e-18 0.0 0.01 0.0 2.5065981708555343e-18 0.0 0.010000032250156011 0.009999313070787245 0.0 3.2186904918936377e-18 0.0 0.01 0.0 3.2186904918936377e-18 0.0 0.010000017100043862 0.00999931207099346 0.0 -2.4891989529972152e-17 0.0 0.01 0.0 -2.4891989529972152e-17 0.0 0.010000017100043862 0.009999310071406788 0.0 -2.44852044574268e-17 0.0 0.01 0.0 -2.44852044574268e-17 0.0 0.010000017600046464 0.009999306572133 0.0 2.1878138316535144e-17 0.0 0.01 0.0 2.1878138316535144e-17 0.0 0.01000001955005733 0.009999300573386482 0.0 1.2362983538007085e-16 0.0 0.01 0.0 1.2362983538007085e-16 0.0 0.01000002195007227 0.009999293574862523 0.0 3.981124773397741e-16 0.0 0.01 0.0 3.981124773397741e-16 0.0 0.010000025900100622 0.009999282077319347 0.0 6.347970114640112e-17 0.0 0.01 0.0 6.347970114640112e-17 0.0 0.010000030750141836 0.009999268080363796 0.0 2.6012352212017425e-16 0.0 0.01 0.0 2.6012352212017425e-16 0.0 0.010000039550234633 0.009999152607723221 0.0 -5.2771189974463255e-19 0.0 0.01 0.0 -5.2771189974463255e-19 0.0 0.010000024900093002 0.009999151108104853 0.0 4.0340274952515435e-17 0.0 0.01 0.0 4.0340274952515435e-17 0.0 0.010000025400096774 0.009999149108614746 0.0 8.73986042086148e-17 0.0 0.01 0.0 8.73986042086148e-17 0.0 0.01000002635010415 0.009999143610023133 0.0 5.4045478353294853e-17 0.0 0.01 0.0 5.4045478353294853e-17 0.0 0.010000027350112205 0.009999136111958278 0.0 9.402871281204764e-17 0.0 0.01 0.0 9.402871281204764e-17 0.0 0.010000030750141836 0.009999126114564712 0.0 1.1075800647634748e-16 0.0 0.01 0.0 1.1075800647634748e-16 0.0 0.010000033200165338 0.009999113117997905 0.0 -5.475908341606304e-18 0.0 0.01 0.0 -5.475908341606304e-18 0.0 0.010000040050240602 0.00999909562269954 0.0 1.6586657800650145e-16 0.0 0.01 0.0 1.6586657800650145e-16 0.0 0.010000050300379516 0.00999895716314899 0.0 2.9807062763626676e-19 0.0 0.01 0.0 2.9807062763626676e-19 0.0 0.010000036150196024 0.009998956663305436 0.0 -3.0874887334760417e-17 0.0 0.01 0.0 -3.0874887334760417e-17 0.0 0.010000036150196024 0.009998953664245691 0.0 -9.251434466798778e-17 0.0 0.01 0.0 -9.251434466798778e-17 0.0 0.010000037600212066 0.0099989481659765 0.0 -2.4906766143414237e-16 0.0 0.01 0.0 -2.4906766143414237e-16 0.0 0.010000038100217743 0.009998939668669226 0.0 -4.736020821965217e-16 0.0 0.01 0.0 -4.736020821965217e-16 0.0 0.010000042000264601 0.009998927172668471 0.0 -7.610831551372109e-16 0.0 0.01 0.0 -7.610831551372109e-16 0.0 0.01000004685032924 0.009998909178509692 0.0 -1.0028992332881418e-15 0.0 0.01 0.0 -1.0028992332881418e-15 0.0 0.01000005420044065 0.00999888818544723 0.0 -1.4378106375939564e-15 0.0 0.01 0.0 -1.4378106375939564e-15 0.0 0.010000064950632782 0.009998728242646159 0.0 2.3574271939349653e-18 0.0 0.01 0.0 2.3574271939349653e-18 0.0 0.010000052250409513 0.009998727243027788 0.0 -3.7099833756598803e-17 0.0 0.01 0.0 -3.7099833756598803e-17 0.0 0.010000052250409513 0.0099987232445573 0.0 -8.728628887854011e-17 0.0 0.01 0.0 -8.728628887854011e-17 0.0 0.010000053700432558 0.009998717246860564 0.0 -5.014411114494202e-16 0.0 0.01 0.0 -5.014411114494202e-16 0.0 0.010000056650481388 0.009998706750917245 0.0 -1.1014004779642498e-15 0.0 0.01 0.0 -1.1014004779642498e-15 0.0 0.010000060050540905 0.00999869125696609 0.0 -3.646708638423239e-15 0.0 0.01 0.0 -3.646708638423239e-15 0.0 0.010000065900651429 0.009998670265276198 0.0 -6.251957858769777e-15 0.0 0.01 0.0 -6.251957858769777e-15 0.0 0.010000074200825857 0.00999864377595145 0.0 -1.0870459856126994e-14 0.0 0.01 0.0 -1.0870459856126994e-14 0.0 0.010000085951108127 0.009998465353343354 0.0 -4.431836004746731e-19 0.0 0.01 0.0 -4.431836004746731e-19 0.0 0.010000072750793895 0.009998464353803827 0.0 -1.0828069317934071e-17 0.0 0.01 0.0 -1.0828069317934071e-17 0.0 0.010000074200825857 0.009998460355648718 0.0 -3.821079631837919e-16 0.0 0.01 0.0 -3.821079631837919e-16 0.0 0.010000077150892829 0.009998451359817258 0.0 -1.0369785017415264e-15 0.0 0.01 0.0 -1.0369785017415264e-15 0.0 0.010000081550997573 0.009998439365413083 0.0 -4.163277098337622e-15 0.0 0.01 0.0 -4.163277098337622e-15 0.0 0.010000087901158979 0.009998420874124551 0.0 -1.046046392069462e-14 0.0 0.01 0.0 -1.046046392069462e-14 0.0 0.010000094751346656 0.009998396385819262 0.0 -2.3383239246054376e-14 0.0 0.01 0.0 -2.3383239246054376e-14 0.0 0.010000103501606867 0.009998363401855713 0.0 -4.170268797903456e-14 0.0 0.01 0.0 -4.170268797903456e-14 0.0 0.010000117202060418 0.009998178997528298 0.0 3.7710682715270484e-18 0.0 0.01 0.0 3.7710682715270484e-18 0.0 0.010000102551577501 0.009998178497801437 0.0 -1.7196311267831133e-16 0.0 0.01 0.0 -1.7196311267831133e-16 0.0 0.010000103051592922 0.00999817400026305 0.0 -1.0081700725476641e-15 0.0 0.01 0.0 -1.0081700725476641e-15 0.0 0.010000106951715776 0.009998164005755036 0.0 -3.7195819686178715e-15 0.0 0.01 0.0 -3.7195819686178715e-15 0.0 0.01000011475197517 0.00999815001349417 0.0 -1.355428995649754e-14 0.0 0.01 0.0 -1.355428995649754e-14 0.0 0.010000124002306448 0.00999812852549365 0.0 -3.530768419413881e-14 0.0 0.01 0.0 -3.530768419413881e-14 0.0 0.010000136252784677 0.009998098542468642 0.0 -7.686760341186404e-14 0.0 0.01 0.0 -7.686760341186404e-14 0.0 0.010000149403348138 0.009998059564939394 0.0 -1.324532425544469e-13 0.0 0.01 0.0 -1.324532425545503e-13 0.0 0.010000165054086336 0.00999789816284367 0.0 -5.845339619529487e-19 0.0 0.01 0.0 -5.845339619529487e-19 0.0 0.01000013770284426 0.009997896164105105 0.0 -3.9350139552655867e-16 0.0 0.01 0.0 -3.9350139552655867e-16 0.0 0.010000140152946372 0.00999789016789661 0.0 -2.788454269806706e-15 0.0 0.01 0.0 -2.788454269806706e-15 0.0 0.010000146503219415 0.009997879174875718 0.0 -1.2954793583458009e-14 0.0 0.01 0.0 -1.2954793583458009e-14 0.0 0.010000158703777955 0.009997863185091882 0.0 -3.9690399723110614e-14 0.0 0.01 0.0 -3.9690399723110614e-14 0.0 0.01000017430455721 0.009997837201856766 0.0 -1.0211396552848606e-13 0.0 0.01 0.0 -1.0211396552853776e-13 0.0 0.010000192405552843 0.009997802724415228 0.0 -2.0977629974235447e-13 0.0 0.01 0.0 -2.0977629974235447e-13 0.0 0.010000212406767305 0.009997756255384467 0.0 -3.4375610800088096e-13 0.0 0.01 0.0 -3.4375610800088096e-13 0.0 0.010000232908136678 0.009997658822423587 0.0 -1.190796158789212e-18 0.0 0.01 0.0 -1.190796158789212e-18 0.0 0.010000181154922448 0.009997656324179996 0.0 -1.7361492199482347e-15 0.0 0.01 0.0 -1.7361492199482347e-15 0.0 0.010000185055136683 0.009997648329813088 0.0 -8.897475263979919e-15 0.0 0.01 0.0 -8.897475263979919e-15 0.0 0.010000197255836327 0.009997636338298687 0.0 -3.2893408867966076e-14 0.0 0.01 0.0 -3.2893408867966076e-14 0.0 0.010000215356956594 0.009997615353252306 0.0 -9.580591832765083e-14 0.0 0.01 0.0 -9.580591832765083e-14 0.0 0.010000240258658356 0.009997585374843845 0.0 -2.326114832164737e-13 0.0 0.01 0.0 -2.326114832164737e-13 0.0 0.0100002680607781 0.009997544904420196 0.0 -4.485979171862063e-13 0.0 0.01 0.0 -4.485979171862063e-13 0.0 0.010000297863307852 0.00999749094461984 0.0 -7.051227060434806e-13 0.0 0.01 0.0 -7.051227060434806e-13 0.0 0.010000330566390396 0.009997511928882825 0.0 3.240092178890528e-18 0.0 0.01 0.0 3.240092178890528e-18 0.0 0.010000232908136676 0.00999750893112288 0.0 -2.6523137961119634e-15 0.0 0.01 0.0 -2.6523137961119634e-15 0.0 0.010000237808482661 0.009997500437484349 0.0 -1.7003185755360827e-14 0.0 0.01 0.0 -1.7003185755360827e-14 0.0 0.01000025730993092 0.009997485948386228 0.0 -6.21111521024959e-14 0.0 0.01 0.0 -6.21111521024959e-14 0.0 0.01000028516219716 0.009997462466188567 0.0 -1.8043000127979933e-13 0.0 0.01 0.0 -1.8043000128000613e-13 0.0 0.010000323265674427 0.009997427493009426 0.0 -4.2006968052442837e-13 0.0 0.01 0.0 -4.200696805242216e-13 0.0 0.010000365720061697 0.009997382028425254 0.0 -7.80743768477768e-13 0.0 0.01 0.0 -7.80743768477768e-13 0.0 0.01000041162541393 0.009997320577280772 0.0 -1.1115738447296693e-12 0.0 0.01 0.0 -1.1115738447304965e-12 0.0 0.010000466832687878 0.009997524919207081 0.0 -8.892477745392865e-19 0.0 0.01 0.0 -8.892477745392865e-19 0.0 0.010000290562663508 0.009997521921435451 0.0 -3.035872498666005e-15 0.0 0.01 0.0 -3.035872498666005e-15 0.0 0.010000299313437743 0.009997511928882825 0.0 -2.1454516251164976e-14 0.0 0.01 0.0 -2.1454516251164976e-14 0.0 0.010000326165956941 0.00999749444198783 0.0 -8.643981248824587e-14 0.0 0.01 0.0 -8.643981248829757e-14 0.0 0.010000370120547369 0.009997468461627558 0.0 -2.6292292504489467e-13 0.0 0.01 0.0 -2.6292292504510146e-13 0.0 0.010000425827197776 0.009997430990310828 0.0 -6.10320828608574e-13 0.0 0.01 0.0 -6.103208286094012e-13 0.0 0.010000490286054707 0.009997381528817885 0.0 -1.073649576323263e-12 0.0 0.01 0.0 -1.0736495763240901e-12 0.0 0.01000056254746539 0.009997315081705168 0.0 -1.2637659097338317e-12 0.0 0.01 0.0 -1.2637659097338317e-12 0.0 0.01000065531440992 0.009997771744989392 0.0 -1.7534907816019707e-18 0.0 0.01 0.0 -1.7534907816019707e-18 0.0 0.010000354018798509 0.009997768247330374 0.0 -7.737911696857842e-16 0.0 0.01 0.0 -7.737911696857842e-16 0.0 0.010000367220226614 0.009997758753702972 0.0 -1.6228903674692915e-14 0.0 0.01 0.0 -1.6228903674692915e-14 0.0 0.010000406274757534 0.00999774026619038 0.0 -8.907729243843538e-14 0.0 0.01 0.0 -8.907729243843538e-14 0.0 0.010000468782961559 0.009997712285285325 0.0 -3.0105921849284304e-13 0.0 0.01 0.0 -3.0105921849284304e-13 0.0 0.010000548395107282 0.00999767481122692 0.0 -7.083314675622283e-13 0.0 0.01 0.0 -7.083314675622283e-13 0.0 0.010000642161850481 0.00999762434682743 0.0 -1.116028203773979e-12 0.0 0.01 0.0 -1.116028203773979e-12 0.0 0.01000075593570718 0.00999755989340869 0.0 -7.894683528222915e-13 0.0 0.01 0.0 -7.894683528227051e-13 0.0 0.010000906373211972 0.009998323421731478 0.0 8.023083745019387e-19 0.0 0.01 0.0 8.023083745019387e-19 0.0 0.010000422876822209 0.009998321422737856 0.0 2.8796278402610185e-15 0.0 0.01 0.0 2.8796278402610185e-15 0.0 0.010000441429227243 0.009998310428294367 0.0 4.74812350957087e-16 0.0 0.01 0.0 4.74812350957087e-16 0.0 0.01000049418663065 0.009998293936697138 0.0 -5.874570596565956e-14 0.0 0.01 0.0 -5.874570596565956e-14 0.0 0.010000580150482287 0.009998269449324521 0.0 -2.6466676891783555e-13 0.0 0.01 0.0 -2.6466676891783555e-13 0.0 0.01000069002141286 0.009998235966881739 0.0 -6.422038451254905e-13 0.0 0.01 0.0 -6.422038451254905e-13 0.0 0.010000824301909846 0.009998190491266807 0.0 -8.001839927489245e-13 0.0 0.01 0.0 -8.001839927485109e-13 0.0 0.010000993297976535 0.00999813602129205 0.0 5.012784639124327e-13 0.0 0.01 0.0 5.012784639126395e-13 0.0 0.010001224824992695 0.00999921709195135 0.0 1.0518326038961696e-18 0.0 0.01 0.0 1.0518326038961696e-18 0.0 0.010000494686704818 0.009999214592539423 0.0 8.302933115834463e-15 0.0 0.01 0.0 8.302933115834463e-15 0.0 0.010000518590337602 0.009999207594196 0.0 2.2893289871099085e-14 0.0 0.01 0.0 2.2893289871099085e-14 0.0 0.010000589902193588 0.00999919509719071 0.0 -5.119769700932113e-15 0.0 0.01 0.0 -5.119769700932113e-15 0.0 0.010000703674266653 0.009999177101585415 0.0 -1.645678691914444e-13 0.0 0.01 0.0 -1.645678691914444e-13 0.0 0.010000850708543441 0.009999153607469178 0.0 -4.354138430394313e-13 0.0 0.01 0.0 -4.354138430398449e-13 0.0 0.01000103481060279 0.009999123115352494 0.0 -2.32442884070072e-13 0.0 0.01 0.0 -2.32442884070072e-13 0.0 0.010001270241986226 0.009999089124469255 0.0 2.1357344949610306e-12 0.0 0.01 0.0 2.1357344949610306e-12 0.0 0.010001601434606799 0.010000417026085165 0.0 -3.3901075862361487e-18 0.0 0.01 0.0 -3.3901075862361487e-18 0.0 0.010000567448295982 0.010000416025960197 0.0 1.203627884764545e-14 0.0 0.01 0.0 1.2036278847748848e-14 0.0 0.010000598703762636 0.010000413575655311 0.0 4.0928032375280453e-14 0.0 0.01 0.0 4.092803237548725e-14 0.0 0.01000068952130939 0.010000409675173688 0.0 4.4821300091657254e-14 0.0 0.01 0.0 4.482130009186405e-14 0.0 0.010000834104347904 0.010000402874344857 0.0 -5.6370765721257114e-14 0.0 0.01 0.0 -5.6370765721257114e-14 0.0 0.010001023106990773 0.010000396523583394 0.0 -2.1384503696050568e-13 0.0 0.01 0.0 -2.1384503696133286e-13 0.0 0.010001260488284558 0.010000388672658792 0.0 2.380010620297767e-13 0.0 0.01 0.0 2.380010620297767e-13 0.0 0.010001572170680395 0.01000038282198178 0.0 3.1221572619759154e-12 0.0 0.01 0.0 3.1221572619759154e-12 0.0 0.010002016209601294 0.010001784677647485 0.0 5.586829785736015e-18 0.0 0.01 0.0 5.586829785736015e-18 0.0 0.010000639711379362 0.01000178512788849 0.0 1.272347916509789e-14 0.0 0.01 0.0 1.272347916509789e-14 0.0 0.010000678769102872 0.010001788079469918 0.0 4.3378175246645144e-14 0.0 0.01 0.0 4.3378175246645144e-14 0.0 0.01000078914340227 0.01000179493315212 0.0 6.295721086893228e-14 0.0 0.01 0.0 6.295721086882889e-14 0.0 0.010000965489807586 0.010001805188688305 0.0 -2.5886618488064324e-15 0.0 0.01 0.0 -2.5886618488064324e-15 0.0 0.0100011970148924 0.010001817895591533 0.0 -1.152877277754962e-13 0.0 0.01 0.0 -1.1528772777466903e-13 0.0 0.010001489582762431 0.010001837406285246 0.0 2.9653433451051255e-13 0.0 0.01 0.0 2.9653433451051255e-13 0.0 0.010001877978888274 0.010001865772035927 0.0 2.8008055897617844e-12 0.0 0.01 0.0 2.8008055897485495e-12 0.0 0.010002429585145854 0.010003081974199484 0.0 -2.4476846102510354e-19 0.0 0.01 0.0 -2.4476846102510354e-19 0.0 0.010000707575092293 0.010003084926929178 0.0 9.793488626359173e-15 0.0 0.01 0.0 9.793488626359173e-15 0.0 0.010000753035050729 0.010003094685969657 0.0 3.311394795508826e-14 0.0 0.01 0.0 3.311394795508826e-14 0.0 0.010000882916917581 0.0100031103505405 0.0 4.447404116572078e-14 0.0 0.01 0.0 4.447404116572078e-14 0.0 0.01000108952803484 0.010003134773404792 0.0 -1.8729471407232655e-14 0.0 0.01 0.0 -1.8729471407232655e-14 0.0 0.01000136112784993 0.01000316995665696 0.0 -1.6133109687339815e-13 0.0 0.01 0.0 -1.6133109687319136e-13 0.0 0.010001704535717275 0.01000321590063763 0.0 -1.8702741720322212e-14 0.0 0.01 0.0 -1.8702741720322212e-14 0.0 0.010002159399249439 0.010003277010115762 0.0 1.453782931290396e-12 0.0 0.01 0.0 1.4537829313036308e-12 0.0 0.01000280638092419 0.010004037093403195 0.0 -4.056501572640061e-18 0.0 0.01 0.0 -4.056501572640061e-18 0.0 0.010000768638611716 0.010004040998130787 0.0 5.299785105759509e-15 0.0 0.01 0.0 5.299785105759509e-15 0.0 0.010000819900824583 0.010004055215382704 0.0 1.701921872794604e-14 0.0 0.01 0.0 1.701921872794604e-14 0.0 0.010000966940227932 0.010004079645168406 0.0 1.4352609108777722e-14 0.0 0.01 0.0 1.4352609108777722e-14 0.0 0.010001198465413481 0.010004115339009042 0.0 -5.804675766695886e-14 0.0 0.01 0.0 -5.804675766695886e-14 0.0 0.010001502788688213 0.010004167653953889 0.0 -2.2669737558989563e-13 0.0 0.01 0.0 -2.2669737558968883e-13 0.0 0.010001887734396666 0.010004236090149483 0.0 -3.4787438261270707e-13 0.0 0.01 0.0 -3.4787438261270707e-13 0.0 0.010002395860747342 0.010004324103063941 0.0 1.3576630814583013e-13 0.0 0.01 0.0 1.3576630814583013e-13 0.0 0.010003114254183028 0.010004483964088016 0.0 1.3543450466976304e-18 0.0 0.01 0.0 1.3543450466976304e-18 0.0 0.010000818950591026 0.01000448937135968 0.0 1.9656203578387133e-15 0.0 0.01 0.0 1.9656203578387133e-15 0.0 0.010000874614729259 0.010004505993768214 0.0 3.7655940531651014e-15 0.0 0.01 0.0 3.7655940531651014e-15 0.0 0.010001034810602789 0.010004534332161747 0.0 -7.747230860532085e-15 0.0 0.01 0.0 -7.747230860532085e-15 0.0 0.01000128684835419 0.010004579794257238 0.0 -7.162368256865146e-14 0.0 0.01 0.0 -7.162368256870316e-14 0.0 0.010001617592406146 0.010004641429431447 0.0 -2.2431140340299628e-13 0.0 0.01 0.0 -2.2431140340320308e-13 0.0 0.01000203041822236 0.010004724045383469 0.0 -4.333895017380104e-13 0.0 0.01 0.0 -4.3338950173759683e-13 0.0 0.010002573743282306 0.010004829646571184 0.0 -4.739281014985171e-13 0.0 0.01 0.0 -4.739281014985171e-13 0.0 0.010003340523118973 0.010004456577393047 0.0 5.00575267305426e-18 0.0 0.01 0.0 5.00575267305426e-18 0.0 0.0100008565600417 0.010004461483950745 0.0 9.225125784847146e-17 0.0 0.01 0.0 9.225125784847146e-17 0.0 0.010000914675479382 0.010004480058841712 0.0 -1.5086187092228544e-15 0.0 0.01 0.0 -1.5086187092228544e-15 0.0 0.01000108417629025 0.010004510349654031 0.0 -1.2884793853769951e-14 0.0 0.01 0.0 -1.2884793853769951e-14 0.0 0.010001350373477038 0.010004558765457618 0.0 -5.271776724512211e-14 0.0 0.01 0.0 -5.271776724517381e-14 0.0 0.010001697231991704 0.01000462625836086 0.0 -1.47370165933479e-13 0.0 0.01 0.0 -1.47370165933479e-13 0.0 0.010002129580073588 0.010004715232917743 0.0 -3.0495216924870516e-13 0.0 0.01 0.0 -3.0495216924911875e-13 0.0 0.010002693938204577 0.010004827243093024 0.0 -4.566401244138998e-13 0.0 0.01 0.0 -4.566401244138998e-13 0.0 0.010003484720645748 0.010004128054719182 0.0 -2.005878389137113e-18 0.0 0.01 0.0 -2.005878389137113e-18 0.0 0.010000880966401598 0.010004132910731515 0.0 -3.612971479791461e-16 0.0 0.01 0.0 -3.612971479791461e-16 0.0 0.010000940582687728 0.01000415103323174 0.0 -1.8310954283420196e-15 0.0 0.01 0.0 -1.8310954283420196e-15 0.0 0.010001114936434772 0.010004181321055551 0.0 -7.469760070461925e-15 0.0 0.01 0.0 -7.469760070461925e-15 0.0 0.010001389439527693 0.010004228730813067 0.0 -2.3448282748870943e-14 0.0 0.01 0.0 -2.3448282748870943e-14 0.0 0.010001745556939006 0.010004295265812214 0.0 -6.061880543391051e-14 0.0 0.01 0.0 -6.061880543385881e-14 0.0 0.010002186767083457 0.010004385683446717 0.0 -1.2693535152329874e-13 0.0 0.01 0.0 -1.2693535152309195e-13 0.0 0.010002759441757733 0.010004497181878675 0.0 -2.0736071430206592e-13 0.0 0.01 0.0 -2.0736071430206592e-13 0.0 0.010003560500672418 0.010003694446332015 0.0 3.7003152882189844e-18 0.0 0.01 0.0 3.7003152882189844e-18 0.0 0.010000890718992916 0.010003698851213397 0.0 -9.762635105105997e-17 0.0 0.01 0.0 -9.762635105105997e-17 0.0 0.010000951285724464 0.010003715920183705 0.0 -4.647924884067082e-16 0.0 0.01 0.0 -4.647924884067082e-16 0.0 0.010001128140876564 0.010003745252987797 0.0 -1.3138227929624796e-15 0.0 0.01 0.0 -1.3138227929624796e-15 0.0 0.010001403595456737 0.01000378975324638 0.0 -3.1381617434933216e-15 0.0 0.01 0.0 -3.1381617434933216e-15 0.0 0.010001762665939174 0.010003853776594964 0.0 -7.34198528499872e-15 0.0 0.01 0.0 -7.34198528499872e-15 0.0 0.010002206279935944 0.010003938375398973 0.0 -1.3708304725560234e-14 0.0 0.01 0.0 -1.3708304725560234e-14 0.0 0.010002779008003735 0.010004043951709824 0.0 -1.688808707242118e-14 0.0 0.01 0.0 -1.688808707242118e-14 0.0 0.01000357711845143 0.010003279912968956 0.0 6.910860137106065e-18 0.0 0.01 0.0 6.910860137106065e-18 0.0 0.010000886817952965 0.010003284817795617 0.0 1.333523866892384e-16 0.0 0.01 0.0 1.333523866892384e-16 0.0 0.010000947384613636 0.010003299982764505 0.0 2.544881188572043e-16 0.0 0.01 0.0 2.544881188572043e-16 0.0 0.010001122739053146 0.010003328310910936 0.0 3.042592893103124e-16 0.0 0.01 0.0 3.042592893103124e-16 0.0 0.010001397742998217 0.010003369402165918 0.0 2.621573986247693e-16 0.0 0.01 0.0 2.621573986247693e-16 0.0 0.010001753861296541 0.010003429012913404 0.0 9.007801096454682e-16 0.0 0.01 0.0 9.007801096454682e-16 0.0 0.010002191620269432 0.010003507694725555 0.0 9.188338560712656e-15 0.0 0.01 0.0 9.188338560712656e-15 0.0 0.01000275894134374 0.010003605949493432 0.0 4.576796243597282e-14 0.0 0.01 0.0 4.576796243597282e-14 0.0 0.010003544833986716 0.010002909469259311 0.0 9.33318241478197e-19 0.0 0.01 0.0 9.33318241478197e-19 0.0 0.01000087171396954 0.010002914373541082 0.0 1.7479466286280046e-16 0.0 0.01 0.0 1.7479466286280046e-16 0.0 0.01000093032981093 0.01000292803550691 0.0 -2.232892026682422e-17 0.0 0.01 0.0 -2.232892026682422e-17 0.0 0.010001103232541454 0.010002954408764109 0.0 -1.7140071857687577e-15 0.0 0.01 0.0 -1.7140071857687577e-15 0.0 0.010001372832648684 0.010002993043210097 0.0 -8.353839383550288e-15 0.0 0.01 0.0 -8.353839383550288e-15 0.0 0.010001721144248679 0.010003048243201737 0.0 -1.9992129843948476e-14 0.0 0.01 0.0 -1.9992129843974326e-14 0.0 0.010002149142623628 0.010003121561013375 0.0 -2.408832620249846e-14 0.0 0.01 0.0 -2.408832620249846e-14 0.0 0.01000270324573568 0.010003212997840155 0.0 2.3114953009509573e-14 0.0 0.01 0.0 2.311495300961297e-14 0.0 0.010003473008430684 0.010002535163732503 0.0 -7.023627539866076e-19 0.0 0.01 0.0 -7.023627539866076e-19 0.0 0.010000846307423315 0.010002540017425635 0.0 7.849587436558696e-17 0.0 0.01 0.0 7.849587436558696e-17 0.0 0.010000903422411063 0.010002553727895947 0.0 8.945520021767488e-17 0.0 0.01 0.0 8.945520021767488e-17 0.0 0.01000106997170142 0.010002577646296643 0.0 -3.821957077445565e-15 0.0 0.01 0.0 -3.821957077445565e-15 0.0 0.010001331315813084 0.010002614324846917 0.0 -1.761929158718147e-14 0.0 0.01 0.0 -1.761929158723317e-14 0.0 0.010001667917199385 0.010002667066607341 0.0 -4.6339186797443677e-14 0.0 0.01 0.0 -4.6339186797443677e-14 0.0 0.01000208270046555 0.010002735021642471 0.0 -7.00601015147473e-14 0.0 0.01 0.0 -7.00601015147473e-14 0.0 0.010002616726730588 0.010002820993251612 0.0 -1.422435112244451e-14 0.0 0.01 0.0 -1.422435112244451e-14 0.0 0.010003360092775117 0.010002098810566011 0.0 -2.2156337669114488e-18 0.0 0.01 0.0 -2.2156337669114488e-18 0.0 0.01000081259903685 0.010002104664255336 0.0 2.987697212184903e-16 0.0 0.01 0.0 2.987697212184903e-16 0.0 0.010000868263069024 0.010002116871982379 0.0 4.0616856372563575e-16 0.0 0.01 0.0 4.0616856372563575e-16 0.0 0.010001026508036182 0.010002140837281456 0.0 -2.2935724881530063e-15 0.0 0.01 0.0 -2.2935724881530063e-15 0.0 0.010001274643666059 0.01000217500939415 0.0 -1.828903325447467e-14 0.0 0.01 0.0 -1.828903325447467e-14 0.0 0.01000159708251943 0.010002222440666895 0.0 -5.578953503118964e-14 0.0 0.01 0.0 -5.578953503118964e-14 0.0 0.010001992795526864 0.01000228693427111 0.0 -8.995169194637993e-14 0.0 0.01 0.0 -8.995169194637993e-14 0.0 0.010002502889354784 0.010002367540521882 0.0 -5.613217075033227e-15 0.0 0.01 0.0 -5.613217075033227e-15 0.0 0.010003212997840155 0.010001583375982549 0.0 3.7414329288547365e-19 0.0 0.01 0.0 3.7414329288547365e-19 0.0 0.010000773539745305 0.010001585827147415 0.0 1.321085727281326e-16 0.0 0.01 0.0 1.321085727281326e-16 0.0 0.010000825302157306 0.0100015975327351 0.0 1.1541878396507842e-15 0.0 0.01 0.0 1.1541878396507842e-15 0.0 0.010000975742792522 0.010001619043110227 0.0 2.149637189840126e-15 0.0 0.01 0.0 2.149637189840126e-15 0.0 0.010001208719114972 0.010001649357967535 0.0 -7.005491026074463e-15 0.0 0.01 0.0 -7.005491026074463e-15 0.0 0.010001511092441058 0.010001693780236558 0.0 -3.784992724581419e-14 0.0 0.01 0.0 -3.7849927245400597e-14 0.0 0.010001883331907291 0.010001751910270926 0.0 -6.407136585823871e-14 0.0 0.01 0.0 -6.40713658584455e-14 0.0 0.010002365088782232 0.010001827150649957 0.0 6.584119726272641e-14 0.0 0.01 0.0 6.58411972628298e-14 0.0 0.01000303262896817 0.010001024107297885 0.0 1.814726418235167e-17 0.0 0.01 0.0 1.814726418235167e-17 0.0 0.01000073153026265 0.010001027508344317 0.0 -5.982012488161272e-16 0.0 0.01 0.0 -5.982012488161272e-16 0.0 0.010000779891225062 0.010001036311068839 0.0 -9.09147371791686e-16 0.0 0.01 0.0 -9.09147371791686e-16 0.0 0.010000918076414171 0.010001052916271558 0.0 3.4391460260980666e-15 0.0 0.01 0.0 3.4391460260980666e-15 0.0 0.010001134493031966 0.010001078274376277 0.0 3.928171549057537e-15 0.0 0.01 0.0 3.928171549057537e-15 0.0 0.010001416300829399 0.010001114436267552 0.0 -9.267198021124288e-15 0.0 0.01 0.0 -9.267198021124288e-15 0.0 0.010001760714908405 0.010001163753116682 0.0 -1.6792825405353626e-14 0.0 0.01 0.0 -1.6792825405353626e-14 0.0 0.010002206279935946 0.010001230677147664 0.0 1.5825858651959162e-13 0.0 0.01 0.0 1.582585865197984e-13 0.0 0.010002827348633175 0.010000491736268305 0.0 -2.2441646082656314e-17 0.0 0.01 0.0 -2.2441646082656314e-17 0.0 0.010000687570906563 0.010000493186482539 0.0 -2.438959582552099e-15 0.0 0.01 0.0 -2.438959582552099e-15 0.0 0.010000732030372427 0.010000500037503128 0.0 -6.2993886824225085e-15 0.0 0.01 0.0 -6.2993886824225085e-15 0.0 0.010000856560041703 0.010000511289209825 0.0 -1.6296543038228112e-15 0.0 0.01 0.0 -1.6296543038228112e-15 0.0 0.010001055367046435 0.010000528841948115 0.0 8.08417923813589e-15 0.0 0.01 0.0 8.08417923813589e-15 0.0 0.010001312758454978 0.010000555696316329 0.0 9.80034042865882e-15 0.0 0.01 0.0 9.80034042865882e-15 0.0 0.010001627347152637 0.010000593302797057 0.0 1.4615453792386012e-14 0.0 0.01 0.0 1.4615453792386012e-14 0.0 0.010002036772097142 0.010000648513079927 0.0 1.7556111462718294e-13 0.0 0.01 0.0 1.7556111462707954e-13 0.0 0.010002604517173216 0.010000046400322945 0.0 -1.638314690671398e-17 0.0 0.01 0.0 -1.638314690671398e-17 0.0 0.010000643112033645 0.010000048350350663 0.0 -3.721526738179885e-15 0.0 0.01 0.0 -3.721526738179885e-15 0.0 0.01000068221980723 0.010000050800387102 0.0 -1.0297972857321211e-14 0.0 0.01 0.0 -1.0297972857321211e-14 0.0 0.01000079499479246 0.010000056150472928 0.0 -7.442366192422746e-15 0.0 0.01 0.0 -7.442366192422746e-15 0.0 0.01000097474249992 0.010000066400661351 0.0 5.6793500890096225e-15 0.0 0.01 0.0 5.6793500890096225e-15 0.0 0.010001205768046433 0.01000008105098538 0.0 1.6900387030839838e-14 0.0 0.01 0.0 1.6900387030839838e-14 0.0 0.010001491033410812 0.010000106951715777 0.0 1.6917966306990048e-14 0.0 0.01 0.0 1.6917966306990048e-14 0.0 0.010001859418487021 0.010000148953327999 0.0 1.0658395563567279e-13 0.0 0.01 0.0 1.0658395563567279e-13 0.0 0.010002376346785302 0.009999711512484239 0.0 -6.487791241408817e-18 0.0 0.01 0.0 -6.487791241408817e-18 0.0 0.0100005991538435 0.009999711512484239 0.0 -4.795265927505497e-15 0.0 0.01 0.0 -4.795265927505497e-15 0.0 0.010000634810442529 0.009999712012441004 0.0 -1.2509277038015004e-14 0.0 0.01 0.0 -1.2509277038015004e-14 0.0 0.010000734931010603 0.009999712512397846 0.0 -1.1429044441001699e-14 0.0 0.01 0.0 -1.1429044441001699e-14 0.0 0.010000892719527999 0.009999714512225956 0.0 4.9009015217492124e-15 0.0 0.01 0.0 4.9009015217492124e-15 0.0 0.010001098831087933 0.009999721511633801 0.0 2.8220548027582144e-14 0.0 0.01 0.0 2.8220548027582144e-14 0.0 0.010001354275059476 0.009999737510335487 0.0 2.6552415981606735e-14 0.0 0.01 0.0 2.6552415981606735e-14 0.0 0.010001683525043078 0.009999768008073288 0.0 8.414202098386732e-15 0.0 0.01 0.0 8.414202098386732e-15 0.0 0.010002147641656642 0.009999477041025774 0.0 -7.153231070907606e-19 0.0 0.01 0.0 -7.153231070907606e-19 0.0 0.010000558146725689 0.009999476041182804 0.0 -4.5945606290813274e-15 0.0 0.01 0.0 -4.5945606290813274e-15 0.0 0.010000588902016754 0.009999475041340135 0.0 -1.3776668714576095e-14 0.0 0.01 0.0 -1.3776668714576095e-14 0.0 0.010000676818706335 0.00999947354157669 0.0 -1.561500446418939e-14 0.0 0.01 0.0 -1.561500446418939e-14 0.0 0.010000815549757364 0.009999472041813921 0.0 6.126874282391242e-15 0.0 0.01 0.0 6.126874282391242e-15 0.0 0.010000996248856996 0.009999473541576688 0.0 5.444557535820869e-14 0.0 0.01 0.0 5.444557535820869e-14 0.0 0.010001220923561756 0.009999482540167477 0.0 9.876791422100015e-14 0.0 0.01 0.0 9.876791422100015e-14 0.0 0.010001515944643566 0.009999508536232873 0.0 6.17315759926875e-14 0.0 0.01 0.0 6.17315759926875e-14 0.0 0.010001933160421932 0.009999323068741595 0.0 2.158860024913396e-18 0.0 0.01 0.0 2.158860024913396e-18 0.0 0.010000519590493338 0.009999323068741595 0.0 -5.522590363755059e-15 0.0 0.01 0.0 -5.522590363755059e-15 0.0 0.010000546444787022 0.009999321069148326 0.0 -1.7109684866277464e-14 0.0 0.01 0.0 -1.7109684866277464e-14 0.0 0.01000062165796399 0.009999317569862992 0.0 -2.2404663556592623e-14 0.0 0.01 0.0 -2.2404663556592623e-14 0.0 0.010000741282416799 0.009999315070375716 0.0 9.638003734170766e-15 0.0 0.01 0.0 9.638003734170766e-15 0.0 0.010000898571099995 0.00999931756986299 0.0 1.1436440252684214e-13 0.0 0.01 0.0 1.1436440252704893e-13 0.0 0.010001098330923127 0.009999326568032704 0.0 2.965153971082927e-13 0.0 0.01 0.0 2.965153971082927e-13 0.0 0.01000136502944495 0.00999935256288165 0.0 4.152960431888145e-13 0.0 0.01 0.0 4.152960431888145e-13 0.0 0.010001741154637374 0.009999227089617804 0.0 -3.018556391472369e-20 0.0 0.01 0.0 -3.018556391472369e-20 0.0 0.010000482934981677 0.009999227589501915 0.0 -7.375328525441794e-15 0.0 0.01 0.0 -7.375328525441794e-15 0.0 0.010000505388310021 0.009999226589733769 0.0 -2.4899541555154564e-14 0.0 0.01 0.0 -2.4899541555128715e-14 0.0 0.010000568398457848 0.009999225090082116 0.0 -3.4496137796046746e-14 0.0 0.01 0.0 -3.449613779599505e-14 0.0 0.010000672417815779 0.009999224590198382 0.0 1.7152304447819117e-14 0.0 0.01 0.0 1.7152304447819117e-14 0.0 0.010000810648562012 0.009999229089154698 0.0 2.2433346159378213e-13 0.0 0.01 0.0 2.2433346159378213e-13 0.0 0.010000988896668159 0.009999243085946505 0.0 6.887591853724554e-13 0.0 0.01 0.0 6.887591853732826e-13 0.0 0.010001232177701871 0.009999276078616913 0.0 1.2400812037076775e-12 0.0 0.01 0.0 1.2400812037076775e-12 0.0 0.010001578973895066 0.009999177101585415 0.0 -2.255406023492749e-18 0.0 0.01 0.0 -2.255406023492749e-18 0.0 0.010000449230269362 0.009999177101585415 0.0 -1.0595369299304399e-14 0.0 0.01 0.0 -1.0595369299304399e-14 0.0 0.010000468282891275 0.009999176601708881 0.0 -3.4955282908949075e-14 0.0 0.01 0.0 -3.4955282908949075e-14 0.0 0.010000521540797886 0.009999178601215478 0.0 -4.324421640695875e-14 0.0 0.01 0.0 -4.324421640695875e-14 0.0 0.010000609405701768 0.009999182600232283 0.0 5.314223688951566e-14 0.0 0.01 0.0 5.3142236889619057e-14 0.0 0.010000730530043326 0.009999195597070026 0.0 4.551764814952929e-13 0.0 0.01 0.0 4.551764814944657e-13 0.0 0.010000894670050858 0.009999218591599407 0.0 1.387819536422694e-12 0.0 0.01 0.0 1.3878195364218668e-12 0.0 0.010001123739390156 0.009999265081023825 0.0 1.0044050176013847e-11 0.0 0.01 0.0 1.0044050176000612e-11 0.0 0.010001453416801667 0.009999162605196255 0.0 -5.061361322235225e-18 0.0 0.01 0.0 -5.061361322235225e-18 0.0 0.010000417026085165 0.009999164104819797 0.0 -1.2348683637912393e-14 0.0 0.01 0.0 -1.2348683637912393e-14 0.0 0.010000431677950271 0.0099991671040689 0.0 -3.813463964760342e-14 0.0 0.01 0.0 -3.813463964770682e-14 0.0 0.010000477584210821 0.009999174102327316 0.0 -2.3203786751472942e-14 0.0 0.01 0.0 -2.3203786751472942e-14 0.0 0.010000554246074905 0.009999186599253878 0.0 1.9192966381280044e-13 0.0 0.01 0.0 1.9192966381280044e-13 0.0 0.010000665116351077 0.009999208593958444 0.0 9.458652433906233e-13 0.0 0.01 0.0 9.458652433914505e-13 0.0 0.010000821401193908 0.009999249584476969 0.0 2.569642661851879e-12 0.0 0.01 0.0 2.5696426618551875e-12 0.0 0.010001046064114628 0.009999312070993466 0.0 1.5934561415704328e-10 0.0 0.01 0.0 1.5934561415704328e-10 0.0 0.01000136648003914 0.009999188098888218 0.0 4.929059276089664e-18 0.0 0.01 0.0 4.929059276089664e-18 0.0 0.010000384322154393 0.009999190598280278 0.0 -7.432515235254384e-15 0.0 0.01 0.0 -7.432515235254384e-15 0.0 0.010000397973756205 0.009999197096708408 0.0 -7.465240406175737e-15 0.0 0.01 0.0 -7.465240406175737e-15 0.0 0.010000438528844446 0.009999211593247584 0.0 1.0074940408891331e-13 0.0 0.01 0.0 1.0074940408891331e-13 0.0 0.01000050883883491 0.009999236587428715 0.0 5.893397515110682e-13 0.0 0.01 0.0 5.893397515094138e-13 0.0 0.010000615306785709 0.009999277078399904 0.0 1.917103240692465e-12 0.0 0.01 0.0 1.917103240692465e-12 0.0 0.0100007730396293 0.009999337565828674 0.0 5.666476693453114e-11 0.0 0.01 0.0 5.666476693453114e-11 0.0 0.010001001600460432 0.00999941655106607 0.0 1.1486861405740959e-09 0.0 0.01 0.0 1.1486861405740959e-09 0.0 0.010001317160191148 0.009999257582685704 0.0 -5.044096720726825e-19 0.0 0.01 0.0 -5.044096720726825e-19 0.0 0.010000356469059623 0.00999926158179727 0.0 1.452483730215862e-14 0.0 0.01 0.0 1.452483730215862e-14 0.0 0.010000368670386678 0.009999276078616913 0.0 1.071089868005935e-13 0.0 0.01 0.0 1.071089868008003e-13 0.0 0.010000407274879573 0.009999302073072102 0.0 4.587918989519183e-13 0.0 0.01 0.0 4.587918989510912e-13 0.0 0.010000476584067695 0.009999344064543345 0.0 1.4385459270415563e-12 0.0 0.01 0.0 1.4385459270415563e-12 0.0 0.010000588451937277 0.009999407052742137 0.0 4.904717081487543e-11 0.0 0.01 0.0 4.904717081487543e-11 0.0 0.010000753035050729 0.009999487539395167 0.0 7.851919995406154e-10 0.0 0.01 0.0 7.851919995397684e-10 0.0 0.010000988446534765 0.009999571527543624 0.0 5.004679577161141e-09 0.0 0.01 0.0 5.004679577161141e-09 0.0 0.01000129860291539 0.009999389055992448 0.0 6.5719889294868146e-18 0.0 0.01 0.0 6.5719889294868146e-18 0.0 0.010000337417076774 0.009999396554626347 0.0 7.701376157279762e-14 0.0 0.01 0.0 7.701376157290102e-14 0.0 0.010000349118281689 0.009999420050455125 0.0 3.853686738922574e-13 0.0 0.01 0.0 3.853686738922574e-13 0.0 0.010000390622886745 0.009999463043251477 0.0 5.45032323351353e-12 0.0 0.01 0.0 5.45032323351353e-12 0.0 0.01000046633261789 0.009999525033841071 0.0 1.0842882215144127e-10 0.0 0.01 0.0 1.0842882215144127e-10 0.0 0.010000585501417771 0.009999605023402332 0.0 9.129317928828365e-10 0.0 0.01 0.0 9.129317928828365e-10 0.0 0.010000760836822215 0.009999690514370869 0.0 4.5274273187200604e-09 0.0 0.01 0.0 4.527427318713284e-09 0.0 0.01000100015002808 0.009999761508567304 0.0 1.5342988363750004e-08 0.0 0.01 0.0 1.5342988363736452e-08 0.0 0.010001296652187741 0.009999612022580139 0.0 4.785802412187564e-18 0.0 0.01 0.0 4.785802412187564e-18 0.0 0.010000332066539495 0.009999621521487981 0.0 1.7362034714363882e-12 0.0 0.01 0.0 1.7362034714363882e-12 0.0 0.010000347668130129 0.009999655017852724 0.0 4.115923446911041e-11 0.0 0.01 0.0 4.115923446921629e-11 0.0 0.01000039407329284 0.009999708012788993 0.0 3.0528475433188766e-10 0.0 0.01 0.0 3.0528475433188766e-10 0.0 0.010000479034418914 0.009999778007392664 0.0 1.495477546604242e-09 0.0 0.01 0.0 1.495477546604242e-09 0.0 0.010000609405702108 0.009999857003071598 0.0 5.367471641634484e-09 0.0 0.01 0.0 5.367471641648037e-09 0.0 0.010000791593987559 0.0099999265008455 0.0 1.5314812458022513e-08 0.0 0.01 0.0 1.5314812458022513e-08 0.0 0.010001024107333065 0.00999996250039845 0.0 3.535984124665263e-08 0.0 0.01 0.0 3.535984124665263e-08 0.0 0.01000129710251508 0.009999927500788429 0.0 -1.0743387884896448e-17 0.0 0.01 0.0 -1.0743387884896448e-17 0.0 0.010000352068591971 0.009999939500549032 0.0 7.493903517033933e-11 0.0 0.01 0.0 7.493903517033933e-11 0.0 0.01000036967049743 0.00999997200011765 0.0 5.632707459942018e-10 0.0 0.01 0.0 5.632707459925077e-10 0.0 0.010000423876949275 0.010000021950073067 0.0 2.304394778620232e-09 0.0 0.01 0.0 2.304394778620232e-09 0.0 0.010000517140113114 0.010000080550980579 0.0 6.986589046881209e-09 0.0 0.01 0.0 6.986589046881209e-09 0.0 0.010000651913750512 0.010000134302749814 0.0 1.7183114701566863e-08 0.0 0.01 0.0 1.7183114701621073e-08 0.0 0.01000083020341849 0.010000163104182785 0.0 3.581986009746404e-08 0.0 0.01 0.0 3.581986009746404e-08 0.0 0.010001046564464057 0.010000146953853569 0.0 6.400245116148454e-08 0.0 0.01 0.0 6.400245116148454e-08 0.0 0.010001289299915507 0.010000300313527692 0.0 -5.571078716829495e-17 0.0 0.01 0.0 -5.571078716829495e-17 0.0 0.010000400924109731 0.010000308614285858 0.0 4.4643861510699177e-10 0.0 0.01 0.0 4.4643861511376804e-10 0.0 0.010000418976329733 0.010000331566490588 0.0 2.4007224581500033e-09 0.0 0.01 0.0 2.4007224581228982e-09 0.0 0.010000477584211692 0.010000361369595824 0.0 7.559179775943996e-09 0.0 0.01 0.0 7.559179775889786e-09 0.0 0.01000057424946915 0.010000386272429444 0.0 1.8193165468062544e-08 0.0 0.01 0.0 1.8193165468170965e-08 0.0 0.010000704174421894 0.010000393073371996 0.0 3.6263189658568284e-08 0.0 0.01 0.0 3.6263189658568284e-08 0.0 0.010000867813149076 0.010000367220808232 0.0 6.227324631121172e-08 0.0 0.01 0.0 6.227324631132014e-08 0.0 0.010001060719326459 0.010000315916309337 0.0 9.451083659770248e-08 0.0 0.01 0.0 9.451083659770248e-08 0.0 0.010001283948575593 0.010000663165962532 0.0 3.242393213330403e-17 0.0 0.01 0.0 3.242393213330403e-17 0.0 0.010000472683512342 0.01000066461625155 0.0 1.1733055395177694e-09 0.0 0.01 0.0 1.1733055395177694e-09 0.0 0.01000049173626851 0.010000666066545382 0.0 5.533811755999065e-09 0.0 0.01 0.0 5.533811755999065e-09 0.0 0.010000549345268313 0.01000066216579789 0.0 1.5094051838276945e-08 0.0 0.01 0.0 1.5094051837409583e-08 0.0 0.010000640211509535 0.010000641161809638 0.0 3.1799120794005764e-08 0.0 0.01 0.0 3.179912079357208e-08 0.0 0.010000761337087936 0.010000603555110763 0.0 5.61828929594721e-08 0.0 0.01 0.0 5.6182892959038416e-08 0.0 0.010000911725144581 0.010000570349922511 0.0 8.686021981947449e-08 0.0 0.01 0.0 8.686021981969133e-08 0.0 0.010001091979968285 0.010000587453900598 0.0 1.1944448604413876e-07 0.0 0.01 0.0 1.1944448604392192e-07 0.0 0.010001303957140434 0.010000941532955955 0.0 1.5334996791594523e-17 0.0 0.01 0.0 1.5334996791594523e-17 0.0 0.010000560097052793 0.010000936631575913 0.0 1.889167207665501e-09 0.0 0.01 0.0 1.889167207672277e-09 0.0 0.010000577700057283 0.0100009234779166 0.0 8.419400836993766e-09 0.0 0.01 0.0 8.419400836939556e-09 0.0 0.010000633360177317 0.010000903422480546 0.0 2.152366104660533e-08 0.0 0.01 0.0 2.152366104682217e-08 0.0 0.010000718327461206 0.01000089271980246 0.0 4.2777404528349106e-08 0.0 0.01 0.0 4.2777404528349106e-08 0.0 0.010000833104372263 0.01000091322584675 0.0 7.141650010776546e-08 0.0 0.01 0.0 7.141650010776546e-08 0.0 0.010000972792695191 0.01000097914534165 0.0 1.0172591369435324e-07 0.0 0.01 0.0 1.0172591369435324e-07 0.0 0.010001141296905616 0.010001063171637667 0.0 1.1867564010279927e-07 0.0 0.01 0.0 1.1867564010279927e-07 0.0 0.010001342572438251 0.010001363578851393 0.0 -2.2048930153082114e-17 0.0 0.01 0.0 -2.2048930153082114e-17 0.0 0.010000649463264902 0.010001361628054869 0.0 2.1687613241334934e-09 0.0 0.01 0.0 2.1687613241334934e-09 0.0 0.010000667066741476 0.010001360627659467 0.0 9.557055947627055e-09 0.0 0.01 0.0 9.557055947627055e-09 0.0 0.010000717827297702 0.010001365979920967 0.0 2.4055629495312036e-08 0.0 0.01 0.0 2.4055629495312036e-08 0.0 0.010000799896051587 0.010001390440263363 0.0 4.60907249848902e-08 0.0 0.01 0.0 4.60907249848902e-08 0.0 0.010000910774729999 0.01000142805656992 0.0 6.960360086709881e-08 0.0 0.01 0.0 6.960360086731565e-08 0.0 0.010001050966382697 0.010001429007167384 0.0 7.818828250648335e-08 0.0 0.01 0.0 7.818828250691703e-08 0.0 0.010001221924845104 0.0100013313161482 0.0 4.726962921173389e-08 0.0 0.01 0.0 4.7269629210432845e-08 0.0 0.01000142120325038 0.010001995246992763 0.0 -2.3102165012153413e-17 0.0 0.01 0.0 -2.3102165012153413e-17 0.0 0.010000735431120886 0.010001982039116519 0.0 1.5228064734200988e-09 0.0 0.01 0.0 1.522806473421793e-09 0.0 0.010000751534712521 0.010001936112140982 0.0 6.617692615934706e-09 0.0 0.01 0.0 6.61769261592793e-09 0.0 0.010000800896211503 0.010001864271233524 0.0 1.5709956649505525e-08 0.0 0.01 0.0 1.5709956649505525e-08 0.0 0.010000885367604491 0.010001753861388178 0.0 2.471720356107864e-08 0.0 0.01 0.0 2.471720356102443e-08 0.0 0.010001012353799882 0.010001592180230452 0.0 1.9236971130517748e-08 0.0 0.01 0.0 1.9236971130517748e-08 0.0 0.010001177958160608 0.010001327414308923 0.0 -1.8513494081089793e-08 0.0 0.01 0.0 -1.851349408022243e-08 0.0 0.010001364529291606 0.01000192585619549 0.0 -5.2344300442452576e-17 0.0 0.01 0.0 -5.2344300442452576e-17 0.0 0.010000809648318945 0.010001887734396682 0.0 -3.368637094496149e-10 0.0 0.01 0.0 -3.368637094496149e-10 0.0 0.010000825302157323 0.010001770970340239 0.0 -2.4636015225456068e-09 0.0 0.01 0.0 -2.4636015225456068e-09 0.0 0.010000878515755839 0.010001571670462924 0.0 -1.1062649856775648e-08 0.0 0.01 0.0 -1.1062649856775648e-08 0.0 0.010000982544808528 0.01000130300482744 0.0 -3.6381589862705815e-08 0.0 0.01 0.0 -3.6381589862705815e-08 0.0 0.010001163753315197 0.009999995500003037 0.0 -6.63807802253791e-18 0.0 0.01 0.0 -6.63807802253791e-18 0.0 0.01 0.0099999960000024 0.0 6.014217393192871e-18 0.0 0.01 0.0 6.014217393192871e-18 0.0 0.01 0.0099999960000024 0.0 3.8236580000904175e-12 0.0 0.01 0.0 3.8236580000904175e-12 0.0 0.01 0.0099999960000024 0.0 -5.740891555702936e-18 0.0 0.01 0.0 -5.740891555702936e-18 0.0 0.01 0.009999996500001837 0.0 2.5623935715723954e-12 0.0 0.01 0.0 2.5623935715723954e-12 0.0 0.01 0.009999997000001351 0.0 -8.046131376241715e-18 0.0 0.01 0.0 -8.046131376241715e-18 0.0 0.01 0.0099999980000006 0.0 1.7161967746503646e-12 0.0 0.01 0.0 1.7161967746503646e-12 0.0 0.01 0.0099999940000054 0.0 5.345514688918221e-18 0.0 0.01 0.0 5.345514688918221e-18 0.0 0.01 0.009999994500004536 0.0 1.5004719626584393e-17 0.0 0.01 0.0 1.5004719626584393e-17 0.0 0.01 0.009999994500004536 0.0 5.109619286287432e-18 0.0 0.01 0.0 5.109619286287432e-18 0.0 0.01 0.009999994500004536 0.0 3.3709091816888597e-12 0.0 0.01 0.0 3.3709091816888597e-12 0.0 0.01 0.009999995500003037 0.0 1.1204579940727189e-17 0.0 0.01 0.0 1.1204579940727189e-17 0.0 0.01 0.0099999960000024 0.0 9.347734892458988e-18 0.0 0.01 0.0 9.347734892458988e-18 0.0 0.01 0.009999997000001351 0.0 -3.523725333683726e-12 0.0 0.01 0.0 -3.523725333683726e-12 0.0 0.01 0.009999998000000601 0.0 2.4220904231604574e-17 0.0 0.01 0.0 2.4220904231604574e-17 0.0 0.010000000000000002 0.009999992500008438 0.0 1.182872369202392e-17 0.0 0.01 0.0 1.182872369202392e-17 0.0 0.01 0.009999992500008438 0.0 1.8981107645217028e-17 0.0 0.01 0.0 1.8981107645217028e-17 0.0 0.01 0.009999992500008438 0.0 3.537752269914581e-18 0.0 0.01 0.0 3.537752269914581e-18 0.0 0.01 0.00999999300000735 0.0 -6.993889656398844e-18 0.0 0.01 0.0 -6.993889656398844e-18 0.0 0.01 0.009999994500004536 0.0 -5.10018329291998e-18 0.0 0.01 0.0 -5.10018329291998e-18 0.0 0.01 0.009999994500004536 0.0 3.370480970959314e-17 0.0 0.01 0.0 3.370480970959314e-17 0.0 0.01 0.0099999960000024 0.0 3.041769874875126e-17 0.0 0.01 0.0 3.041769874875126e-17 0.0 0.01 0.009999996500001837 0.0 2.6846592385189435e-17 0.0 0.01 0.0 2.6846592385189435e-17 0.0 0.009999999500000037 0.009999989500016538 0.0 -9.690949736891412e-18 0.0 0.01 0.0 -9.690949736891412e-18 0.0 0.01 0.009999990000015 0.0 -1.3897162499696654e-12 0.0 0.01 0.0 -1.3897162499696654e-12 0.0 0.01 0.009999990500013536 0.0 1.5420616529230185e-17 0.0 0.01 0.0 1.5420616529230185e-17 0.0 0.01 0.009999990500013536 0.0 -6.985345047076646e-18 0.0 0.01 0.0 -6.985345047076646e-18 0.0 0.01 0.009999992000009601 0.0 2.8154949711554755e-17 0.0 0.01 0.0 2.8154949711554755e-17 0.0 0.01 0.00999999300000735 0.0 2.914241139887982e-17 0.0 0.01 0.0 2.914241139887982e-17 0.0 0.01 0.00999999450000454 0.0 8.209189228139392e-15 0.0 0.01 0.0 8.209189228139392e-15 0.0 0.010000000000000004 0.009999996000002398 0.0 3.069616776638074e-14 0.0 0.01 0.0 3.069616777961563e-14 0.0 0.009999999500000035 0.009999987500023438 0.0 6.3020216572876575e-18 0.0 0.01 0.0 6.3020216572876575e-18 0.0 0.010000000500000038 0.0099999880000216 0.0 2.8550188250961272e-18 0.0 0.01 0.0 2.8550188250961272e-18 0.0 0.010000000500000038 0.0099999880000216 0.0 3.558747944644517e-17 0.0 0.01 0.0 3.558747944644517e-17 0.0 0.01 0.00999998900001815 0.0 1.0852772093675559e-17 0.0 0.01 0.0 1.0852772093675559e-17 0.0 0.01 0.00999998950001654 0.0 8.395027276061652e-14 0.0 0.01 0.0 8.395027276061652e-14 0.0 0.01 0.009999990500013541 0.0 7.419055427419928e-13 0.0 0.01 0.0 7.419055426361137e-13 0.0 0.010000000000000002 0.009999992500008438 0.0 2.07148696389518e-12 0.0 0.01 0.0 2.0714869634716633e-12 0.0 0.009999999500000033 0.009999994500004534 0.0 3.6200414190666044e-12 0.0 0.01 0.0 3.6200414190666044e-12 0.0 0.009999999000000146 0.009999982500045938 0.0 3.045314234586226e-17 0.0 0.01 0.0 3.045314234586226e-17 0.0 0.010000000500000038 0.00999998300004335 0.0 1.8265090794746888e-17 0.0 0.01 0.0 1.8265090794746888e-17 0.0 0.010000000500000038 0.009999983500040837 0.0 -9.000751626600636e-13 0.0 0.01 0.0 -9.000751626600636e-13 0.0 0.010000000500000038 0.009999985000033748 0.0 3.8701797422537095e-13 0.0 0.01 0.0 3.870179742783105e-13 0.0 0.009999999999999998 0.009999985500031536 0.0 3.2256996841006262e-12 0.0 0.01 0.0 3.2256996845241427e-12 0.0 0.01 0.009999987500023441 0.0 1.1109265169974769e-11 0.0 0.01 0.0 1.1109265168280703e-11 0.0 0.010000000000000002 0.009999989500016536 0.0 2.3241456654864547e-11 0.0 0.01 0.0 2.324145665825268e-11 0.0 0.009999999500000037 0.0099999920000096 0.0 3.585185060883244e-11 0.0 0.01 0.0 3.585185060883244e-11 0.0 0.00999999900000015 0.009999977500075937 0.0 -2.0422181139398394e-17 0.0 0.01 0.0 -2.0422181139398394e-17 0.0 0.01000000100000015 0.0099999780000726 0.0 5.551634012554685e-17 0.0 0.01 0.0 5.551634012554685e-17 0.0 0.01000000100000015 0.009999978500069341 0.0 3.862915071802052e-13 0.0 0.01 0.0 3.862915071802052e-13 0.0 0.010000001000000154 0.009999979500063037 0.0 4.924105528520854e-12 0.0 0.01 0.0 4.924105528520854e-12 0.0 0.01000000050000004 0.009999981000054151 0.0 2.2781635071792393e-11 0.0 0.01 0.0 2.278163507348646e-11 0.0 0.010000000000000002 0.009999983000043348 0.0 6.212725157868663e-11 0.0 0.01 0.0 6.212725157191037e-11 0.0 0.01 0.009999985500031538 0.0 1.1913206803427362e-10 0.0 0.01 0.0 1.1913206803427362e-10 0.0 0.009999999000000152 0.009999989500016543 0.0 1.6977231943947173e-10 0.0 0.01 0.0 1.6977231941236667e-10 0.0 0.009999998500000344 0.009999969500139537 0.0 -5.334030897055243e-18 0.0 0.01 0.0 -5.334030897055243e-18 0.0 0.01000000100000015 0.009999969500139537 0.0 8.511273837860454e-14 0.0 0.01 0.0 8.511273837860454e-14 0.0 0.01000000100000015 0.009999971000126147 0.0 3.305923865424602e-12 0.0 0.01 0.0 3.305923865424602e-12 0.0 0.01000000100000015 0.009999972500113436 0.0 2.339749499425921e-11 0.0 0.01 0.0 2.339749499425921e-11 0.0 0.010000001000000149 0.009999974000101403 0.0 8.737051425226905e-11 0.0 0.01 0.0 8.737051425226905e-11 0.0 0.010000000000000002 0.009999976500082842 0.0 2.1893739325282678e-10 0.0 0.01 0.0 2.189373932663793e-10 0.0 0.010000000000000005 0.009999979500063065 0.0 4.0473960969300733e-10 0.0 0.01 0.0 4.0473960969300733e-10 0.0 0.009999999000000174 0.009999983000043398 0.0 5.611219008969798e-10 0.0 0.01 0.0 5.611219008427697e-10 0.0 0.009999998000000648 0.00999996000024 0.0 4.5849305375698825e-17 0.0 0.01 0.0 4.5849305375698825e-17 0.0 0.010000001450000314 0.009999961500222337 0.0 8.110367535044871e-13 0.0 0.01 0.0 8.110367534780173e-13 0.0 0.010000001950000571 0.009999962000216599 0.0 1.2296388507042284e-11 0.0 0.01 0.0 1.2296388507465801e-11 0.0 0.010000001950000571 0.009999962500210935 0.0 6.861454396802778e-11 0.0 0.01 0.0 6.861454396802778e-11 0.0 0.010000001450000314 0.009999964500189045 0.0 2.337920301147614e-10 0.0 0.01 0.0 2.337920301147614e-10 0.0 0.010000001000000158 0.009999966500168385 0.0 5.698142867109363e-10 0.0 0.01 0.0 5.698142867380414e-10 0.0 0.01000000000000005 0.009999969500139701 0.0 1.0500465098123302e-09 0.0 0.01 0.0 1.05004650975812e-09 0.0 0.0099999985000005 0.009999973500105659 0.0 1.4647677683407231e-09 0.0 0.01 0.0 1.4647677683407231e-09 0.0 0.00999999700000167 0.009999948500397834 0.0 1.0061260974537972e-14 0.0 0.01 0.0 1.0061260974537972e-14 0.0 0.0100000024500009 0.009999948500397834 0.0 2.6058707226852236e-12 0.0 0.01 0.0 2.6058707227911027e-12 0.0 0.010000002950001304 0.009999950000374997 0.0 2.8784711352050358e-11 0.0 0.01 0.0 2.8784711352050358e-11 0.0 0.010000002950001306 0.009999950500367536 0.0 1.4485661267363411e-10 0.0 0.01 0.0 1.4485661267363411e-10 0.0 0.010000002450000902 0.009999952000345634 0.0 4.774559569730536e-10 0.0 0.01 0.0 4.774559569595011e-10 0.0 0.010000001950000607 0.0099999540003176 0.0 1.1648972122742067e-09 0.0 0.01 0.0 1.1648972122199966e-09 0.0 0.010000000000000205 0.009999956500284547 0.0 2.1826349672939005e-09 0.0 0.01 0.0 2.1826349674023207e-09 0.0 0.00999999850000105 0.0099999610002296 0.0 3.113292102742936e-09 0.0 0.01 0.0 3.113292102742936e-09 0.0 0.009999996500003288 0.009999931500703833 0.0 4.629856939596353e-14 0.0 0.01 0.0 4.629856939430917e-14 0.0 0.010000003400001737 0.009999932000693594 0.0 4.862494932529329e-12 0.0 0.01 0.0 4.86249493242345e-12 0.0 0.010000003400001733 0.009999934000653394 0.0 4.800936599614144e-11 0.0 0.01 0.0 4.800936599529441e-11 0.0 0.010000004900003603 0.009999934000653403 0.0 2.3357961424834385e-10 0.0 0.01 0.0 2.3357961424834385e-10 0.0 0.010000004900003611 0.009999935500624118 0.0 7.689417026696772e-10 0.0 0.01 0.0 7.689417026561247e-10 0.0 0.010000003400001824 0.009999936500605374 0.0 1.9063854563429287e-09 0.0 0.01 0.0 1.9063854563429287e-09 0.0 0.010000001450000857 0.009999938500569338 0.0 3.6540906188462646e-09 0.0 0.01 0.0 3.6540906188462646e-09 0.0 0.009999998500002341 0.009999944000474645 0.0 5.321215911478772e-09 0.0 0.01 0.0 5.321215911695612e-09 0.0 0.009999994500008784 0.009999911501174824 0.0 5.547132813523416e-14 0.0 0.01 0.0 5.547132813523416e-14 0.0 0.010000005350004297 0.009999912001161586 0.0 5.931503909133009e-12 0.0 0.01 0.0 5.931503909133009e-12 0.0 0.010000005850005133 0.009999913501122322 0.0 5.938441105265253e-11 0.0 0.01 0.0 5.938441105265253e-11 0.0 0.010000006350006049 0.009999913501122334 0.0 2.9331669740089404e-10 0.0 0.01 0.0 2.933166974076703e-10 0.0 0.010000007800009139 0.009999914501096668 0.0 9.861676677770355e-10 0.0 0.01 0.0 9.86167667790588e-10 0.0 0.010000005850005279 0.009999917001034279 0.0 2.5075270101418065e-09 0.0 0.01 0.0 2.5075270101418065e-09 0.0 0.010000003400002674 0.00999991900098777 0.0 4.919752325037267e-09 0.0 0.01 0.0 4.919752324928847e-09 0.0 0.010000000000003633 0.009999923500885828 0.0 7.3030417683302845e-09 0.0 0.01 0.0 7.3030417683302845e-09 0.0 0.009999995500011042 0.009999886001949366 0.0 1.726089678058315e-14 0.0 0.01 0.0 1.726089678058315e-14 0.0 0.01000000635000605 0.009999886001949362 0.0 4.711762052027126e-12 0.0 0.01 0.0 4.711762052133005e-12 0.0 0.010000009300012972 0.009999886001949364 0.0 5.433386443232612e-11 0.0 0.01 0.0 5.433386443232612e-11 0.0 0.01000001025001576 0.00999988750189841 0.0 2.863001618278512e-10 0.0 0.01 0.0 2.8630016183123935e-10 0.0 0.010000011250018995 0.009999888501864958 0.0 1.0055562536066473e-09 0.0 0.01 0.0 1.0055562535930948e-09 0.0 0.01000001075001749 0.009999890501799558 0.0 2.649804374809132e-09 0.0 0.01 0.0 2.649804374809132e-09 0.0 0.010000008800012665 0.009999893501705576 0.0 5.3355969852303224e-09 0.0 0.01 0.0 5.3355969852303224e-09 0.0 0.010000003400006004 0.009999898501555003 0.0 8.038630360429795e-09 0.0 0.01 0.0 8.038630360538215e-09 0.0 0.010000001450010006 0.009999854003197323 0.0 1.6400012719129573e-16 0.0 0.01 0.0 1.6400012719129573e-16 0.0 0.010000009300012973 0.00999985350321926 0.0 2.1505117668416946e-12 0.0 0.01 0.0 2.150511766894634e-12 0.0 0.010000011700020536 0.00999985350321926 0.0 3.515608820370809e-11 0.0 0.01 0.0 3.515608820413161e-11 0.0 0.010000014650032195 0.009999853003241278 0.0 2.1225073931638522e-10 0.0 0.01 0.0 2.1225073931469115e-10 0.0 0.01000001710004387 0.009999855003153773 0.0 8.040595741981961e-10 0.0 0.01 0.0 8.040595741914199e-10 0.0 0.01000001710004396 0.00999985750304661 0.0 2.2314354422125603e-09 0.0 0.01 0.0 2.2314354422125603e-09 0.0 0.010000016100039626 0.009999861502880498 0.0 4.6363989093280156e-09 0.0 0.01 0.0 4.6363989093280156e-09 0.0 0.010000013200029365 0.009999869502561971 0.0 7.065379625218089e-09 0.0 0.01 0.0 7.065379625218089e-09 0.0 0.010000012200029815 0.009999812505273273 0.0 1.8937915370871604e-16 0.0 0.01 0.0 1.8937915370871604e-16 0.0 0.010000013200026137 0.009999811505329671 0.0 3.2611297123067024e-13 0.0 0.01 0.0 3.2611297123067024e-13 0.0 0.010000016600041337 0.009999811505329671 0.0 1.4158727764362218e-11 0.0 0.01 0.0 1.4158727764362218e-11 0.0 0.010000021000066153 0.00999981150532967 0.0 1.1233939821325044e-10 0.0 0.01 0.0 1.1233939821325044e-10 0.0 0.010000024900093003 0.009999812505273308 0.0 4.860247881103208e-10 0.0 0.01 0.0 4.860247881069326e-10 0.0 0.010000026850108173 0.009999815005133913 0.0 1.462396458581385e-09 0.0 0.01 0.0 1.462396458581385e-09 0.0 0.01000002685010846 0.009999819004915523 0.0 3.1863871692821687e-09 0.0 0.01 0.0 3.1863871692821687e-09 0.0 0.010000025900102143 0.009999826504518902 0.0 4.961073963802038e-09 0.0 0.01 0.0 4.961073963747828e-09 0.0 0.010000027850120037 0.009999761008567809 0.0 3.5125945840883936e-16 0.0 0.01 0.0 3.5125945840883936e-16 0.0 0.010000017100043862 0.00999975950867569 0.0 1.056390198383855e-15 0.0 0.01 0.0 1.056390198383855e-15 0.0 0.0100000224500756 0.009999758508747987 0.0 2.4472906211558244e-12 0.0 0.01 0.0 2.4472906211425895e-12 0.0 0.010000027850116347 0.009999757508820583 0.0 3.635023506957633e-11 0.0 0.01 0.0 3.635023506936457e-11 0.0 0.010000032700160397 0.009999758008784254 0.0 2.0278481747356455e-10 0.0 0.01 0.0 2.0278481747356455e-10 0.0 0.01000003710020647 0.009999759508675763 0.0 6.986500887773374e-10 0.0 0.01 0.0 6.986500887773374e-10 0.0 0.010000039050228811 0.009999763508389915 0.0 1.6562906938097344e-09 0.0 0.01 0.0 1.6562906938097344e-09 0.0 0.010000040050241011 0.009999770507901325 0.0 2.69722998028478e-09 0.0 0.01 0.0 2.6972299802712277e-09 0.0 0.010000043950290832 0.009999697513725245 0.0 2.468318463020155e-16 0.0 0.01 0.0 2.468318463020155e-16 0.0 0.0100000224500756 0.009999693514090618 0.0 1.247184149070146e-15 0.0 0.01 0.0 1.247184149070146e-15 0.0 0.010000028800124417 0.009999691014321412 0.0 6.728241087256644e-16 0.0 0.01 0.0 6.728241087256644e-16 0.0 0.010000036600200936 0.009999688514554085 0.0 4.347288154222166e-12 0.0 0.01 0.0 4.347288154222166e-12 0.0 0.010000044900302407 0.009999688014600841 0.0 4.548930482550389e-11 0.0 0.01 0.0 4.548930482571565e-11 0.0 0.01000005125039399 0.009999689514460794 0.0 2.065971674928413e-10 0.0 0.01 0.0 2.0659716749199427e-10 0.0 0.010000054200440655 0.00999969251418276 0.0 5.676991201383644e-10 0.0 0.01 0.0 5.676991201383644e-10 0.0 0.010000057600497717 0.009999697513725396 0.0 1.0169882390579743e-09 0.0 0.01 0.0 1.0169882390545862e-09 0.0 0.010000062500586096 0.009999617521944539 0.0 2.6656263468987635e-16 0.0 0.01 0.0 2.6656263468987635e-16 0.0 0.010000027850116345 0.009999612522521982 0.0 1.688684593866733e-15 0.0 0.01 0.0 1.688684593866733e-15 0.0 0.010000037100206463 0.009999608522989338 0.0 1.2937482585380614e-15 0.0 0.01 0.0 1.2937482585380614e-15 0.0 0.010000048350350663 0.009999603523580277 0.0 -1.349882129896899e-14 0.0 0.01 0.0 -1.349882129896899e-14 0.0 0.010000057600497667 0.009999601023878563 0.0 1.8000378127995331e-12 0.0 0.01 0.0 1.8000378127995331e-12 0.0 0.01000006590065143 0.009999601023878564 0.0 2.23610983621355e-11 0.0 0.01 0.0 2.236109836208256e-11 0.0 0.010000071300762563 0.009999602523699368 0.0 8.765252410132056e-11 0.0 0.01 0.0 8.765252410132056e-11 0.0 0.010000075700859586 0.009999605023402212 0.0 1.860076255001336e-10 0.0 0.01 0.0 1.860076255001336e-10 0.0 0.01000008445106979 0.009999519534629265 0.0 -5.140768588516367e-17 0.0 0.01 0.0 -5.140768588516367e-17 0.0 0.010000035150185329 0.009999510535938606 0.0 1.7481651280632891e-15 0.0 0.01 0.0 1.7481651280632891e-15 0.0 0.01000004685032924 0.009999503536973778 0.0 1.436584159932828e-15 0.0 0.01 0.0 1.436584159932828e-15 0.0 0.010000060550549951 0.00999949703794817 0.0 -1.907196503026528e-14 0.0 0.01 0.0 -1.907196503031698e-14 0.0 0.01000007375081587 0.009999492038706325 0.0 -9.783383419687596e-14 0.0 0.01 0.0 -9.783383419687596e-14 0.0 0.010000085451095273 0.009999490538935233 0.0 -2.7136943645605804e-13 0.0 0.01 0.0 -2.7136943645605804e-13 0.0 0.010000092751290404 0.009999489539088212 0.0 1.0124315023730418e-13 0.0 0.01 0.0 1.0124315023730418e-13 0.0 0.01000010060151808 0.009999491038858853 0.0 2.6447035564739544e-12 0.0 0.01 0.0 2.6447035564739544e-12 0.0 0.010000110851843191 0.0099994000539946 0.0 -5.0660017047516007e-17 0.0 0.01 0.0 -5.0660017047516007e-17 0.0 0.010000042950276707 0.009999387556267694 0.0 2.1267788405970277e-15 0.0 0.01 0.0 2.1267788405970277e-15 0.0 0.010000058100506347 0.009999375058587646 0.0 1.5935934065359202e-15 0.0 0.01 0.0 1.5935934065359202e-15 0.0 0.010000076150869834 0.00999936456057262 0.0 -2.5576442232809135e-14 0.0 0.01 0.0 -2.5576442232809135e-14 0.0 0.010000093251304352 0.009999356062203724 0.0 -1.3805547896268156e-13 0.0 0.01 0.0 -1.3805547896226797e-13 0.0 0.010000108401762615 0.009999350063368138 0.0 -3.923051633318436e-13 0.0 0.01 0.0 -3.9230516333101643e-13 0.0 0.01000011865211172 0.009999348063758674 0.0 -7.051509256818955e-13 0.0 0.01 0.0 -7.051509256818955e-13 0.0 0.010000130352548727 0.009999348063758672 0.0 -7.158203177096972e-13 0.0 0.01 0.0 -7.158203177096972e-13 0.0 0.010000145503175618 0.009999253583578938 0.0 -4.951536841532701e-16 0.0 0.01 0.0 -4.951536841532701e-16 0.0 0.010000052750417389 0.009999235587657869 0.0 1.4737858595228865e-15 0.0 0.01 0.0 1.4737858595228865e-15 0.0 0.010000071300762562 0.00999921709195135 0.0 1.5190060804734224e-15 0.0 0.01 0.0 1.5190060804734224e-15 0.0 0.010000092751290404 0.009999199596107216 0.0 -3.708173659326775e-14 0.0 0.01 0.0 -3.7081736593371146e-14 0.0 0.010000115702008013 0.009999185599498028 0.0 -1.9520286667235339e-13 0.0 0.01 0.0 -1.9520286667276698e-13 0.0 0.010000135752764271 0.009999175102079719 0.0 -5.618159679429359e-13 0.0 0.01 0.0 -5.618159679421087e-13 0.0 0.010000149403348143 0.009999169103569806 0.0 -1.008561877499374e-12 0.0 0.01 0.0 -1.0085618774977197e-12 0.0 0.010000167504208556 0.009999166104318901 0.0 -9.819397557597131e-13 0.0 0.01 0.0 -9.819397557597131e-13 0.0 0.010000191405495271 0.009999074628462721 0.0 -9.851787839643899e-16 0.0 0.01 0.0 -9.851787839643899e-16 0.0 0.010000064950632782 0.009999050635211141 0.0 6.950782165562046e-16 0.0 0.01 0.0 6.950782165562046e-16 0.0 0.010000086901132759 0.009999023643009563 0.0 -1.5409969828726332e-15 0.0 0.01 0.0 -1.5409969828726332e-15 0.0 0.010000113751940896 0.009998999650125007 0.0 -5.6016148461211615e-14 0.0 0.01 0.0 -5.6016148461211615e-14 0.0 0.010000141603007658 0.009998975657413157 0.0 -2.7933716696500733e-13 0.0 0.01 0.0 -2.793371669654209e-13 0.0 0.010000167004183465 0.00999895666330544 0.0 -7.943563680153028e-13 0.0 0.01 0.0 -7.9435636801613e-13 0.0 0.010000185055136685 0.009998942667716377 0.0 -1.4060046559761898e-12 0.0 0.01 0.0 -1.4060046559761898e-12 0.0 0.010000209456580623 0.009998934170423123 0.0 -1.2738698207214337e-12 0.0 0.01 0.0 -1.2738698207214337e-12 0.0 0.01000024755919253 0.009998860194902967 0.0 -3.475273907259272e-15 0.0 0.01 0.0 -3.475273907259272e-15 0.0 0.010000081550997573 0.009998827706173148 0.0 -2.367731818432844e-15 0.0 0.01 0.0 -2.367731818432844e-15 0.0 0.01000010595168384 0.009998792718664431 0.0 -1.2347672155694948e-14 0.0 0.01 0.0 -1.2347672155694948e-14 0.0 0.01000013770284426 0.009998756232082281 0.0 -9.800363961507807e-14 0.0 0.01 0.0 -9.800363961518147e-14 0.0 0.01000017185442999 0.009998720245707587 0.0 -4.2640602476322695e-13 0.0 0.01 0.0 -4.2640602476364054e-13 0.0 0.010000201156069404 0.009998689257751835 0.0 -1.1521071138740245e-12 0.0 0.01 0.0 -1.1521071138756789e-12 0.0 0.010000223157469667 0.009998663767875168 0.0 -1.9410645940145688e-12 0.0 0.01 0.0 -1.941064594016223e-12 0.0 0.010000258310008265 0.009998644275748085 0.0 -1.4839942558608667e-12 0.0 0.01 0.0 -1.4839942558608667e-12 0.0 0.010000316415017137 0.009998609290164884 0.0 -1.4507901538726894e-14 0.0 0.01 0.0 -1.4507901538726894e-14 0.0 0.01000010500165378 0.009998568307520208 0.0 -1.733515718052067e-14 0.0 0.01 0.0 -1.733515718052067e-14 0.0 0.010000133302665396 0.009998519828700935 0.0 -4.5750872367271096e-14 0.0 0.01 0.0 -4.5750872367271096e-14 0.0 0.010000168454256433 0.009998467852193486 0.0 -1.9998645016248304e-13 0.0 0.01 0.0 -1.9998645016248304e-13 0.0 0.010000208006489828 0.00999841537673423 0.0 -7.125748297729347e-13 0.0 0.01 0.0 -7.125748297737619e-13 0.0 0.010000241708763185 0.009998366900139404 0.0 -1.7598332030911445e-12 0.0 0.01 0.0 -1.7598332030894901e-12 0.0 0.010000264160466748 0.00999832642022416 0.0 -2.722236602347587e-12 0.0 0.01 0.0 -2.722236602347587e-12 0.0 0.010000308114239574 0.009998292937209018 0.0 -1.5291676948022308e-12 0.0 0.01 0.0 -1.529167694803058e-12 0.0 0.010000393573233764 0.009998320922989638 0.0 -5.915323588706289e-14 0.0 0.01 0.0 -5.915323588711459e-14 0.0 0.01000013720282364 0.009998268449843747 0.0 -7.226537853138207e-14 0.0 0.01 0.0 -7.226537853138207e-14 0.0 0.010000170404355548 0.00999820748208329 0.0 -1.405104824753835e-13 0.0 0.01 0.0 -1.4051048247528011e-13 0.0 0.010000210456643613 0.00999813752045375 0.0 -4.351576934411882e-13 0.0 0.01 0.0 -4.351576934411882e-13 0.0 0.0100002558598193 0.009998065061742832 0.0 -1.3065827239561472e-12 0.0 0.01 0.0 -1.30658272395532e-12 0.0 0.01000029151274646 0.009997994103704453 0.0 -2.924717248430595e-12 0.0 0.01 0.0 -2.924717248430595e-12 0.0 0.010000307164151893 0.009997930142823715 0.0 -4.093451100923212e-12 0.0 0.01 0.0 -4.093451100923212e-12 0.0 0.010000354518851654 0.009997875677103947 0.0 -1.4044482706798614e-12 0.0 0.01 0.0 -1.4044482706806886e-12 0.0 0.010000476584067695 0.009998008595012061 0.0 -1.8419009638261468e-13 0.0 0.01 0.0 -1.841900963824079e-13 0.0 0.010000188005301768 0.009997944633853206 0.0 -2.220481089377931e-13 0.0 0.01 0.0 -2.220481089377931e-13 0.0 0.01000022365750318 0.009997867182530644 0.0 -3.6601046138012815e-13 0.0 0.01 0.0 -3.6601046138054174e-13 0.0 0.010000272961175762 0.0099977767416515 0.0 -9.591235264655181e-13 0.0 0.01 0.0 -9.591235264655181e-13 0.0 0.010000324715815372 0.009997679308091681 0.0 -2.6144175400600843e-12 0.0 0.01 0.0 -2.6144175400617386e-12 0.0 0.010000360369478987 0.00999758437556821 0.0 -5.447728973960864e-12 0.0 0.01 0.0 -5.447728973960864e-12 0.0 0.010000360369478987 0.009997493442739458 0.0 -6.9868308029425004e-12 0.0 0.01 0.0 -6.9868308029425004e-12 0.0 0.01000039407329284 0.009997413004228453 0.0 -1.3810755962985605e-12 0.0 0.01 0.0 -1.3810755962993877e-12 0.0 0.010000555246241334 0.00999769579664771 0.0 -4.535577004873946e-13 0.0 0.01 0.0 -4.535577004873946e-13 0.0 0.010000263210391592 0.009997618351107983 0.0 -4.983782838996362e-13 0.0 0.01 0.0 -4.983782839000498e-13 0.0 0.01000030911433216 0.00999752441957829 0.0 -7.833405486668955e-13 0.0 0.01 0.0 -7.833405486668955e-13 0.0 0.010000371620714267 0.00999741350384054 0.0 -2.078439278000506e-12 0.0 0.01 0.0 -2.078439278000506e-12 0.0 0.010000435578457638 0.009997292100305373 0.0 -5.62624226707656e-12 0.0 0.01 0.0 -5.6262422670732515e-12 0.0 0.010000470733236379 0.009997169702041592 0.0 -1.1385190902319813e-11 0.0 0.01 0.0 -1.1385190902313196e-11 0.0 0.010000440929161067 0.009997049806060383 0.0 -1.3874361883407184e-11 0.0 0.01 0.0 -1.3874361883413801e-11 0.0 0.010000430677820913 0.009996940404741517 0.0 -2.7244418168377944e-12 0.0 0.01 0.0 -2.7244418168369672e-12 0.0 0.010000623608328253 0.009997421997257503 0.0 -8.277225470872813e-13 0.0 0.01 0.0 -8.277225470881085e-13 0.0 0.01000037552115136 0.009997333067259036 0.0 -8.002027079158379e-13 0.0 0.01 0.0 -8.002027079158379e-13 0.0 0.01000044337948606 0.009997223157056897 0.0 -1.3655109733368323e-12 0.0 0.01 0.0 -1.3655109733376595e-12 0.0 0.010000531292337737 0.009997094266983515 0.0 -4.436769958039114e-12 0.0 0.01 0.0 -4.436769958039114e-12 0.0 0.010000619207507945 0.009996952393751911 0.0 -1.2816627815800273e-11 0.0 0.01 0.0 -1.2816627815800273e-11 0.0 0.010000659715277896 0.009996806030867745 0.0 -2.5831148124183973e-11 0.0 0.01 0.0 -2.5831148124170738e-11 0.0 0.010000582550900878 0.009996662171908506 0.0 -3.052414556183366e-11 0.0 0.01 0.0 -3.052414556183366e-11 0.0 0.010000482934981677 0.009996528808212729 0.0 -8.305404052338514e-12 0.0 0.01 0.0 -8.305404052341822e-12 0.0 0.010000676818706339 0.009997241641700965 0.0 -1.0494685510054162e-12 0.0 0.01 0.0 -1.0494685510054162e-12 0.0 0.010000543494304698 0.00999714422378464 0.0 -6.742732085504181e-13 0.0 0.01 0.0 -6.742732085495909e-13 0.0 0.010000651913743192 0.0099970243287201 0.0 -1.866631221352643e-12 0.0 0.01 0.0 -1.8666312213518156e-12 0.0 0.010000787192941153 0.00999688595519545 0.0 -9.336175642738683e-12 0.0 0.01 0.0 -9.336175642735375e-12 0.0 0.010000917626290252 0.009996734100611793 0.0 -2.937589704079661e-11 0.0 0.01 0.0 -2.9375897040809844e-11 0.0 0.010000971841653074 0.009996577258076643 0.0 -5.932060153808646e-11 0.0 0.01 0.0 -5.932060153811293e-11 0.0 0.010000836554961924 0.009996420922386843 0.0 -6.867325415149845e-11 0.0 0.01 0.0 -6.867325415147198e-11 0.0 0.010000600654113474 0.009996272085638467 0.0 -2.325060391510879e-11 0.0 0.01 0.0 -2.325060391510879e-11 0.0 0.010000741282416799 0.009997233648328786 0.0 -5.187402106236405e-13 0.0 0.01 0.0 -5.187402106234337e-13 0.0 0.010000784292257507 0.009997131234944301 0.0 7.635840411707503e-13 0.0 0.01 0.0 7.635840411707503e-13 0.0 0.010000964489518064 0.00999701183989895 0.0 -1.8324122441037435e-12 0.0 0.01 0.0 -1.8324122441045706e-12 0.0 0.010001179408617897 0.009996877463144607 0.0 -1.893894201029019e-11 0.0 0.01 0.0 -1.893894201029019e-11 0.0 0.010001377734670629 0.009996735099632495 0.0 -6.363371406683876e-11 0.0 0.01 0.0 -6.363371406681229e-11 0.0 0.010001453416801668 0.009996587247826911 0.0 -1.2860086754664817e-10 0.0 0.01 0.0 -1.2860086754659523e-10 0.0 0.010001261938833264 0.00999643790418335 0.0 -1.467307631378886e-10 0.0 0.01 0.0 -1.467307631378886e-10 0.0 0.010000880016150637 0.00999629705778311 0.0 -5.4552845726146436e-11 0.0 0.01 0.0 -5.4552845726146436e-11 0.0 0.010000898070965237 0.009997481451782378 0.0 1.4437370482676713e-12 0.0 0.01 0.0 1.4437370482676713e-12 0.0 0.010001119337909564 0.00999738802371953 0.0 4.444457289163337e-12 0.0 0.01 0.0 4.444457289164991e-12 0.0 0.01000140799731265 0.009997283607219474 0.0 -1.0053538538919072e-12 0.0 0.01 0.0 -1.0053538538919072e-12 0.0 0.010001737752862826 0.00999717319907245 0.0 -3.567392590671584e-11 0.0 0.01 0.0 -3.5673925906729075e-11 0.0 0.01000202891730882 0.009997062295023822 0.0 -1.2345924879007183e-10 0.0 0.01 0.0 -1.2345924879007183e-10 0.0 0.010002144239467317 0.009996949396495274 0.0 -2.476464591553349e-10 0.0 0.01 0.0 -2.4764645915544075e-10 0.0 0.01000191510000077 0.009996836501791586 0.0 -2.7968152804299366e-10 0.0 0.01 0.0 -2.7968152804309954e-10 0.0 0.010001469073663226 0.009996728606003301 0.0 -1.0748988944099107e-10 0.0 0.01 0.0 -1.0748988944104401e-10 0.0 0.010001321561932739 0.009998073057109471 0.0 4.97907719474367e-12 0.0 0.01 0.0 4.97907719474367e-12 0.0 0.010001555062657787 0.00999800309830176 0.0 1.015049073863581e-11 0.0 0.01 0.0 1.0150490738632502e-11 0.0 0.010001988392898759 0.009997932141582655 0.0 -3.2481008238321114e-14 0.0 0.01 0.0 -3.2481008238321114e-14 0.0 0.010002469664585305 0.00999786618317051 0.0 -5.997273494909369e-11 0.0 0.01 0.0 -5.997273494909369e-11 0.0 0.010002885048045237 0.00999780922013782 0.0 -2.0542049930822312e-10 0.0 0.01 0.0 -2.0542049930817018e-10 0.0 0.01000307271565723 0.00999775625538449 0.0 -4.0445340143843775e-10 0.0 0.01 0.0 -4.0445340143854363e-10 0.0 0.010002942197970164 0.009997705290095799 0.0 -4.516431446126232e-10 0.0 0.01 0.0 -4.516431446126232e-10 0.0 0.010002640195226701 0.009997654825234747 0.0 -1.754008810221378e-10 0.0 0.01 0.0 -1.754008810221378e-10 0.0 0.010002356782902119 0.009999052134784307 0.0 8.78947192480942e-12 0.0 0.01 0.0 8.789471924806111e-12 0.0 0.010002075345880357 0.009999019644183479 0.0 1.5556608472247754e-11 0.0 0.01 0.0 1.5556608472247754e-11 0.0 0.010002685181142586 0.009998997650725755 0.0 -5.366171793179557e-13 0.0 0.01 0.0 -5.366171793179557e-13 0.0 0.010003348831450005 0.009998993651930854 0.0 -8.61820861251355e-11 0.0 0.01 0.0 -8.618208612510903e-11 0.0 0.010003927112120743 0.009999005148479139 0.0 -2.856464418865467e-10 0.0 0.01 0.0 -2.856464418865467e-10 0.0 0.010004312337835653 0.00999902814169469 0.0 -5.489479928113741e-10 0.0 0.01 0.0 -5.489479928113741e-10 0.0 0.010004602275192098 0.00999905263464223 0.0 -5.99122923015439e-10 0.0 0.01 0.0 -5.991229230156508e-10 0.0 0.0100047846817876 0.009999077127769703 0.0 -2.2961130271307258e-10 0.0 0.01 0.0 -2.2961130271301964e-10 0.0 0.010004379325094391 0.010000382321924392 0.0 1.0576319328274257e-11 0.0 0.01 0.0 1.0576319328274257e-11 0.0 0.010002644598715556 0.010000396523583397 0.0 1.7313445904067213e-11 0.0 0.01 0.0 1.7313445904080448e-11 0.0 0.010003444629003256 0.010000431177885554 0.0 -3.2128223376535444e-12 0.0 0.01 0.0 -3.21282233765189e-12 0.0 0.010004309434083553 0.010000490736120932 0.0 -1.0183818158938938e-10 0.0 0.01 0.0 -1.0183818158938938e-10 0.0 0.010005090334088886 0.01000057229912521 0.0 -3.2115566299343993e-10 0.0 0.01 0.0 -3.211556629935458e-10 0.0 0.010005791627559933 0.010000668517031332 0.0 -6.009666943588077e-10 0.0 0.01 0.0 -6.009666943588077e-10 0.0 0.010006790109582343 0.010000771089177674 0.0 -6.345088787932623e-10 0.0 0.01 0.0 -6.345088787932623e-10 0.0 0.010007680689896208 0.010000870213577581 0.0 -2.2787134482838572e-10 0.0 0.01 0.0 -2.2787134482843866e-10 0.0 0.010007043083773063 0.0100019072955277 0.0 9.106511332268e-12 0.0 0.01 0.0 9.106511332268e-12 0.0 0.010003209544515423 0.010001967880730808 0.0 1.4125293003075636e-11 0.0 0.01 0.0 1.4125293003075636e-11 0.0 0.010004194537646697 0.010002055833794153 0.0 -6.291748550339223e-12 0.0 0.01 0.0 -6.291748550335914e-12 0.0 0.010005247277200036 0.01000216915558132 0.0 -9.569322010675343e-11 0.0 0.01 0.0 -9.569322010670049e-11 0.0 0.010006226009656392 0.01000230499670663 0.0 -2.8487139954966395e-10 0.0 0.01 0.0 -2.8487139954966395e-10 0.0 0.01000723539507254 0.010002456454829228 0.0 -5.158138980825768e-10 0.0 0.01 0.0 -5.158138980826827e-10 0.0 0.010008858908148472 0.010002618728301675 0.0 -5.238633792405705e-10 0.0 0.01 0.0 -5.238633792405705e-10 0.0 0.010010237399220408 0.010002774604337336 0.0 -1.8765706464584697e-10 0.0 0.01 0.0 -1.876570646458999e-10 0.0 0.010009233974213196 0.010003356689348406 0.0 5.412361000033704e-12 0.0 0.01 0.0 5.412361000033704e-12 0.0 0.0100037154696819 0.010003459794698976 0.0 8.27307416621824e-12 0.0 0.01 0.0 8.27307416621824e-12 0.0 0.0100048545827593 0.010003586378394345 0.0 -7.057134781675532e-12 0.0 0.01 0.0 -7.057134781678841e-12 0.0 0.010006068018662367 0.010003735992603685 0.0 -7.022095709596235e-11 0.0 0.01 0.0 -7.022095709596235e-11 0.0 0.01000720016890607 0.010003900731169085 0.0 -1.992786506156318e-10 0.0 0.01 0.0 -1.9927865061568474e-10 0.0 0.010008400723979806 0.010004078193393374 0.0 -3.5154765178775006e-10 0.0 0.01 0.0 -3.515476517876442e-10 0.0 0.010010327025118573 0.010004263975673616 0.0 -3.58676504792196e-10 0.0 0.01 0.0 -3.58676504792196e-10 0.0 0.010011770750014448 0.010004438002632876 0.0 -1.6942970883361997e-10 0.0 0.01 0.0 -1.6942970883361997e-10 0.0 0.010010345632699705 0.010004432645511015 0.0 1.895549342429041e-12 0.0 0.01 0.0 1.895549342429041e-12 0.0 0.010004119744446437 0.010004565624837206 0.0 3.181163947189024e-12 0.0 0.01 0.0 3.1811639471956416e-12 0.0 0.010005375431184658 0.010004717185678023 0.0 -5.264296059095426e-12 0.0 0.01 0.0 -5.2642960590987345e-12 0.0 0.01000670498750496 0.010004881972722968 0.0 -4.0555115092660324e-11 0.0 0.01 0.0 -4.0555115092633854e-11 0.0 0.010007927867707326 0.010005051174578772 0.0 -1.1420888616225334e-10 0.0 0.01 0.0 -1.1420888616225334e-10 0.0 0.010009181078369888 0.010005225292701045 0.0 -2.0400377708891444e-10 0.0 0.01 0.0 -2.0400377708896738e-10 0.0 0.010011109786717142 0.010005397416673377 0.0 -2.289896045131023e-10 0.0 0.01 0.0 -2.289896045131023e-10 0.0 0.010012335788265481 0.010005556377571265 0.0 -1.1640272957007256e-10 0.0 0.01 0.0 -1.1640272957007256e-10 0.0 0.010010649286974939 0.010004958285252458 0.0 -4.856000192628226e-15 0.0 0.01 0.0 -4.856000192628226e-15 0.0 0.010004408663734568 0.010005105957960374 0.0 4.615789798334186e-13 0.0 0.01 0.0 4.615789798317643e-13 0.0 0.010005740789718758 0.010005265856468212 0.0 -2.739472346263324e-12 0.0 0.01 0.0 -2.739472346263324e-12 0.0 0.01000714289586195 0.010005430219892935 0.0 -1.7296821415409665e-11 0.0 0.01 0.0 -1.7296821415416283e-11 0.0 0.010008411952248846 0.010005588681515538 0.0 -5.0097191466806455e-11 0.0 0.01 0.0 -5.0097191466806455e-11 0.0 0.010009646741009 0.010005739287134259 0.0 -9.340208105486111e-11 0.0 0.01 0.0 -9.340208105486111e-11 0.0 0.010011453748243328 0.010005876776418877 0.0 -1.066286465553524e-10 0.0 0.01 0.0 -1.0662864655529946e-10 0.0 0.010012469584864308 0.01000600049657604 0.0 -3.690247418637244e-11 0.0 0.01 0.0 -3.690247418637244e-11 0.0 0.010010619943556908 0.010004962191058817 0.0 -4.533477057101047e-13 0.0 0.01 0.0 -4.533477057101047e-13 0.0 0.010004588105676504 0.010005112818465531 0.0 -3.304459401391098e-13 0.0 0.01 0.0 -3.304459401391098e-13 0.0 0.010005960875572753 0.010005270764216707 0.0 -9.673336670456606e-13 0.0 0.01 0.0 -9.673336670456606e-13 0.0 0.010007403714138271 0.010005423358734833 0.0 -4.611283753220735e-12 0.0 0.01 0.0 -4.611283753220735e-12 0.0 0.010008695879611255 0.01000556373983801 0.0 -1.3675638564396112e-11 0.0 0.01 0.0 -1.3675638564402729e-11 0.0 0.010009903843512885 0.01000568304087475 0.0 -2.5881162572868073e-11 0.0 0.01 0.0 -2.5881162572868073e-11 0.0 0.01001159925022419 0.010005785767394868 0.0 -2.567225928136876e-11 0.0 0.01 0.0 -2.5672259281362143e-11 0.0 0.010012462207342726 0.010005872368659885 0.0 1.0403847668024279e-11 0.0 0.01 0.0 1.0403847668024279e-11 0.0 0.010010524892718092 0.010004628711763634 0.0 -2.649490198018135e-13 0.0 0.01 0.0 -2.649490198018135e-13 0.0 0.01000467467584726 0.01000477441708341 0.0 -2.474783865865078e-13 0.0 0.01 0.0 -2.474783865860942e-13 0.0 0.010006061657101845 0.010004922081649695 0.0 -1.9648935065788095e-13 0.0 0.01 0.0 -1.9648935065808774e-13 0.0 0.010007522128858975 0.010005060989451172 0.0 -2.7817253632470566e-13 0.0 0.01 0.0 -2.7817253632460227e-13 0.0 0.010008823664834616 0.010005179321028002 0.0 -6.444956527093778e-13 0.0 0.01 0.0 -6.444956527093778e-13 0.0 0.01001001402203646 0.01000527517118069 0.0 -6.01129119604425e-13 0.0 0.01 0.0 -6.011291196048386e-13 0.0 0.010011644306951548 0.010005346584840712 0.0 3.146825205938355e-12 0.0 0.01 0.0 3.146825205938355e-12 0.0 0.010012432797792929 0.010005401322994045 0.0 1.5288718372649056e-11 0.0 0.01 0.0 1.5288718372649056e-11 0.0 0.01001047052184612 0.010004169105767891 0.0 -6.570336737349001e-15 0.0 0.01 0.0 -6.570336737349001e-15 0.0 0.010004687844323477 0.010004304527749561 0.0 1.522189969198013e-14 0.0 0.01 0.0 1.522189969198013e-14 0.0 0.010006074380235026 0.010004441457230031 0.0 7.215717233054756e-15 0.0 0.01 0.0 7.215717233054756e-15 0.0 0.010007533404284319 0.01000456512415209 0.0 -5.651055038120227e-14 0.0 0.01 0.0 -5.651055038120227e-14 0.0 0.010008834443333461 0.010004667315542903 0.0 1.0681088413355558e-15 0.0 0.01 0.0 1.0681088413355558e-15 0.0 0.01001001748241315 0.010004744073801277 0.0 6.835504299967474e-13 0.0 0.01 0.0 6.835504299969542e-13 0.0 0.010011632064306199 0.010004795447242908 0.0 2.3230497026357958e-12 0.0 0.01 0.0 2.3230497026357958e-12 0.0 0.01001241909684542 0.010004829195918899 0.0 4.008456212184915e-12 0.0 0.01 0.0 4.0084562121840876e-12 0.0 0.010010476891819437 0.010003721326210113 0.0 1.399206204646794e-13 0.0 0.01 0.0 1.399206204646794e-13 0.0 0.010004641880058352 0.010003846968737178 0.0 2.3727187170151404e-13 0.0 0.01 0.0 2.3727187170151404e-13 0.0 0.010006012267761256 0.010003972115402323 0.0 -5.642718679008394e-14 0.0 0.01 0.0 -5.642718679008394e-14 0.0 0.010007458035054102 0.010004085502336248 0.0 -1.5429072047154981e-12 0.0 0.01 0.0 -1.5429072047154981e-12 0.0 0.010008751224199336 0.010004176464972724 0.0 -4.729285162075973e-12 0.0 0.01 0.0 -4.729285162075973e-12 0.0 0.010009935186600614 0.010004242448228715 0.0 -8.424660331614572e-12 0.0 0.01 0.0 -8.424660331612918e-12 0.0 0.01001157672208863 0.010004284501971406 0.0 -9.051275783900535e-12 0.0 0.01 0.0 -9.051275783898881e-12 0.0 0.010012424466807156 0.010004308432790314 0.0 -4.491866190330052e-12 0.0 0.01 0.0 -4.491866190330879e-12 0.0 0.010010534222126501 0.010003321454076033 0.0 2.0964698317245952e-13 0.0 0.01 0.0 2.0964698317266632e-13 0.0 0.010004543644831273 0.010003437821980739 0.0 4.164398486970307e-13 0.0 0.01 0.0 4.164398486966171e-13 0.0 0.01000588459018777 0.010003556596507434 0.0 -3.5872091166105673e-13 0.0 0.01 0.0 -3.5872091166105673e-13 0.0 0.010007303393148636 0.010003661660181849 0.0 -4.3526966587920194e-12 0.0 0.01 0.0 -4.3526966587920194e-12 0.0 0.010008574966911777 0.010003747705742493 0.0 -1.3387951731989086e-11 0.0 0.01 0.0 -1.3387951731985777e-11 0.0 0.010009750592590386 0.010003809776053633 0.0 -2.4768406073789557e-11 0.0 0.01 0.0 -2.4768406073796175e-11 0.0 0.010011389528697304 0.010003849872086594 0.0 -2.7462673513416492e-11 0.0 0.01 0.0 -2.7462673513416492e-11 0.0 0.010012266683870763 0.01000387334926352 0.0 -1.1508101702126675e-11 0.0 0.01 0.0 -1.1508101702126675e-11 0.0 0.010010437719183952 0.010002923131205045 0.0 2.8574552937054317e-13 0.0 0.01 0.0 2.8574552937137035e-13 0.0 0.010004396948273916 0.010003036032064124 0.0 6.163343258095995e-13 0.0 0.01 0.0 6.163343258091859e-13 0.0 0.01000569626341859 0.010003150888589437 0.0 -9.51425855306533e-13 0.0 0.01 0.0 -9.51425855306533e-13 0.0 0.01000707389893361 0.010003254037625291 0.0 -8.75828619812189e-12 0.0 0.01 0.0 -8.758286198125198e-12 0.0 0.010008310147316443 0.010003340072667883 0.0 -2.6540816143908694e-11 0.0 0.01 0.0 -2.6540816143915312e-11 0.0 0.010009456246197127 0.010003405538864652 0.0 -4.937340934291822e-11 0.0 0.01 0.0 -4.937340934291822e-11 0.0 0.010011055406314334 0.010003449033554645 0.0 -5.5562842520640595e-11 0.0 0.01 0.0 -5.5562842520640595e-11 0.0 0.010011928057893164 0.010003476411976119 0.0 -2.4325491680068786e-11 0.0 0.01 0.0 -2.4325491680075403e-11 0.0 0.010010167836738262 0.010002466262067364 0.0 4.455852982122721e-13 0.0 0.01 0.0 4.455852982118585e-13 0.0 0.010004203348736562 0.010002576695561961 0.0 9.130553220919418e-13 0.0 0.01 0.0 9.130553220911146e-13 0.0 0.010005446846991565 0.010002691536265283 0.0 -1.7052126290802021e-12 0.0 0.01 0.0 -1.705212629079375e-12 0.0 0.010006768114911566 0.01000280047596073 0.0 -1.4404051600048464e-11 0.0 0.01 0.0 -1.4404051600051773e-11 0.0 0.010007959693431956 0.010002893355241424 0.0 -4.332176664105904e-11 0.0 0.01 0.0 -4.3321766641072274e-11 0.0 0.010009057691420712 0.010002966169202218 0.0 -8.092207545799047e-11 0.0 0.01 0.0 -8.092207545797724e-11 0.0 0.010010580719083171 0.010003021368748958 0.0 -9.248619757842998e-11 0.0 0.01 0.0 -9.248619757841675e-11 0.0 0.01001141601911029 0.010003057051263187 0.0 -4.443626595019076e-11 0.0 0.01 0.0 -4.443626595020399e-11 0.0 0.0100097432210775 0.010001920453079382 0.0 6.769611926490089e-13 0.0 0.01 0.0 6.769611926490089e-13 0.0 0.010003967710159954 0.010002030418222353 0.0 1.3224244718758871e-12 0.0 0.01 0.0 1.3224244718767143e-12 0.0 0.01000514456726442 0.010002149642946104 0.0 -2.2935642048391958e-12 0.0 0.01 0.0 -2.2935642048383686e-12 0.0 0.010006395780673225 0.01000226837159308 0.0 -1.9974257933881747e-11 0.0 0.01 0.0 -1.9974257933881747e-11 0.0 0.010007526538798571 0.010002376346785306 0.0 -6.051235645803288e-11 0.0 0.01 0.0 -6.051235645803288e-11 0.0 0.010008563738094075 0.01000246431062482 0.0 -1.1410698494511558e-10 0.0 0.01 0.0 -1.141069849450891e-10 0.0 0.010009981725360419 0.010002533662591732 0.0 -1.3208509957084856e-10 0.0 0.01 0.0 -1.320850995708221e-10 0.0 0.010010760994963123 0.010002585452339034 0.0 -6.740067981766347e-11 0.0 0.01 0.0 -6.740067981766347e-11 0.0 0.010009194314786604 0.01000131716019095 0.0 8.842583925788494e-13 0.0 0.01 0.0 8.842583925788494e-13 0.0 0.010003698350658402 0.010001425104580585 0.0 1.723475142983692e-12 0.0 0.01 0.0 1.723475142983692e-12 0.0 0.010004796398610405 0.010001549660142573 0.0 -2.4848964730702886e-12 0.0 0.01 0.0 -2.4848964730702886e-12 0.0 0.010005969691330498 0.010001683525043074 0.0 -2.382692344573979e-11 0.0 0.01 0.0 -2.382692344573979e-11 0.0 0.010007029855889025 0.010001811041862126 0.0 -7.366607833296898e-11 0.0 0.01 0.0 -7.366607833296898e-11 0.0 0.010007992972939622 0.010001924855617777 0.0 -1.4139126329287604e-10 0.0 0.01 0.0 -1.4139126329284957e-10 0.0 0.010009283411276082 0.010002017210206432 0.0 -1.677575225045792e-10 0.0 0.01 0.0 -1.6775752250455272e-10 0.0 0.010009986138552368 0.010002089504722091 0.0 -8.680361260730752e-11 0.0 0.01 0.0 -8.680361260730752e-11 0.0 0.010008553912909586 0.010000725178875037 0.0 8.955446474417403e-13 0.0 0.01 0.0 8.955446474413267e-13 0.0 0.010003404587893882 0.010000828703000918 0.0 1.800751650760472e-12 0.0 0.01 0.0 1.800751650760472e-12 0.0 0.010004417475390217 0.010000958637830359 0.0 -2.3590253460589497e-12 0.0 0.01 0.0 -2.359025346059777e-12 0.0 0.010005503540011264 0.010001108084150365 0.0 -2.495563199652496e-11 0.0 0.01 0.0 -2.495563199652496e-11 0.0 0.010006485303423164 0.010001263439401544 0.0 -7.900001230332255e-11 0.0 0.01 0.0 -7.900001230334902e-11 0.0 0.010007366531881138 0.010001408997735264 0.0 -1.615435719589794e-10 0.0 0.01 0.0 -1.6154357195895293e-10 0.0 0.010008522131643651 0.010001533552695471 0.0 -2.1213769519619961e-10 0.0 0.01 0.0 -2.1213769519614667e-10 0.0 0.010009145330279594 0.010001635651215736 0.0 -9.816285186896008e-11 0.0 0.01 0.0 -9.816285186896008e-11 0.0 0.010007855947699915 0.010000214856924327 0.0 6.182485142370067e-13 0.0 0.01 0.0 6.182485142378338e-13 0.0 0.010003102493222601 0.010000313014696118 0.0 1.3909199223762298e-12 0.0 0.01 0.0 1.3909199223754026e-12 0.0 0.010004027331604215 0.010000449230269362 0.0 -2.08599457624032e-12 0.0 0.01 0.0 -2.085994576239493e-12 0.0 0.010005019877346937 0.01000061625696122 0.0 -4.4765896190007316e-11 0.0 0.01 0.0 -4.4765896190007316e-11 0.0 0.01000591834988685 0.010000799895964812 0.0 -3.126394863368028e-10 0.0 0.01 0.0 -3.1263948633669693e-10 0.0 0.01000671185130003 0.010000982544790269 0.0 -8.127998791331741e-10 0.0 0.01 0.0 -8.127998791329623e-10 0.0 0.010007734564277549 0.010001148147706343 0.0 -9.573987809761442e-10 0.0 0.01 0.0 -9.57398780976356e-10 0.0 0.010008289596229989 0.010001286848354194 0.0 -9.620094462047393e-11 0.0 0.01 0.0 -9.620094462047393e-11 0.0 0.010007136031179876 0.00999982500459362 0.0 1.843437380050876e-13 0.0 0.01 0.0 1.843437380050876e-13 0.0 0.010002803428441157 0.009999923000889342 0.0 6.445362733435832e-13 0.0 0.01 0.0 6.445362733435832e-13 0.0 0.010003640186679581 0.01000006445062308 0.0 -3.997936657653228e-11 0.0 0.01 0.0 -3.997936657651905e-11 0.0 0.010004543144149457 0.010000250009375421 0.0 -4.544189039083174e-10 0.0 0.01 0.0 -4.544189039083174e-10 0.0 0.010005355348894553 0.01000046148194335 0.0 -1.7870269293301156e-09 0.0 0.01 0.0 -1.7870269293305391e-09 0.0 0.010006060705373836 0.010000681719706955 0.0 -3.674144877267659e-09 0.0 0.01 0.0 -3.674144877267659e-09 0.0 0.010006956452109 0.010000887818221331 0.0 -3.7862784533043535e-09 0.0 0.01 0.0 -3.7862784533035065e-09 0.0 0.01000743944357313 0.010001068021075995 0.0 -5.3434949148651875e-11 0.0 0.01 0.0 -5.343494914863864e-11 0.0 0.010006406050368647 0.009999563528577763 0.0 -7.833845127517986e-14 0.0 0.01 0.0 -7.833845127517986e-14 0.0 0.010002524405571886 0.009999661017237175 0.0 -1.7692057537838015e-12 0.0 0.01 0.0 -1.7692057537838015e-12 0.0 0.010003277961050149 0.009999812505273277 0.0 -1.682824539446458e-10 0.0 0.01 0.0 -1.682824539446458e-10 0.0 0.010004091359514381 0.010000010750017633 0.0 -1.4081009706182841e-09 0.0 0.01 0.0 -1.408100970617437e-09 0.0 0.010004822836721198 0.010000244158945345 0.0 -4.897648239526189e-09 0.0 0.01 0.0 -4.897648239524495e-09 0.0 0.010005445344543083 0.010000494186643678 0.0 -9.324175664356089e-09 0.0 0.01 0.0 -9.324175664359477e-09 0.0 0.010006215239595434 0.010000737381563445 0.0 -8.84614993956985e-09 0.0 0.01 0.0 -8.846149939568157e-09 0.0 0.01000660714239747 0.010000960088247787 0.0 6.744629853360154e-10 0.0 0.01 0.0 6.744629853358036e-10 0.0 0.010005665961833266 0.009999409052386988 0.0 3.742673264725471e-12 0.0 0.01 0.0 3.742673264723817e-12 0.0 0.01000227517622855 0.009999513035572468 0.0 1.1144615466643942e-10 0.0 0.01 0.0 1.1144615466638648e-10 0.0 0.010002954909207445 0.009999665516782604 0.0 1.6547992847748685e-10 0.0 0.01 0.0 1.6547992847748685e-10 0.0 0.0100036861371398 0.009999866002693744 0.0 -1.6459440123314454e-09 0.0 0.01 0.0 -1.645944012331869e-09 0.0 0.010004342176538466 0.010000105451676592 0.0 -7.577733468865083e-09 0.0 0.01 0.0 -7.577733468865083e-09 0.0 0.010004892237766775 0.01000037357096499 0.0 -1.4780395789199636e-08 0.0 0.01 0.0 -1.4780395789199636e-08 0.0 0.010005541703202468 0.010000650963582021 0.0 -1.2786765583467914e-08 0.0 0.01 0.0 -1.2786765583467914e-08 0.0 0.010005813165031616 0.010000918076414997 0.0 2.3503432690051088e-09 0.0 0.01 0.0 2.3503432690051088e-09 0.0 0.010004930894662862 0.009999343064740263 0.0 7.85174392063347e-11 0.0 0.01 0.0 7.85174392063347e-11 0.0 0.010002068041342405 0.009999448545618765 0.0 8.968356679650157e-10 0.0 0.01 0.0 8.968356679654392e-10 0.0 0.010002681728364578 0.0099995935247857 0.0 2.6380194358498454e-09 0.0 0.01 0.0 2.6380194358498454e-09 0.0 0.010003338120714902 0.00999977350769569 0.0 2.07126984827916e-09 0.0 0.01 0.0 2.071269848278313e-09 0.0 0.010003926161001852 0.009999996000005765 0.0 -4.737446260585267e-09 0.0 0.01 0.0 -4.737446260586961e-09 0.0 0.010004420879903135 0.010000268060801405 0.0 -1.246841566949545e-08 0.0 0.01 0.0 -1.246841566949545e-08 0.0 0.010004963643242078 0.010000587451770324 0.0 -7.936177217363695e-09 0.0 0.01 0.0 -7.936177217363695e-09 0.0 0.010005095692276785 0.01000093813199729 0.0 6.016782547489616e-10 0.0 0.01 0.0 6.016782547487498e-10 0.0 0.010004269332524556 0.009999342064937517 0.0 5.160324614042174e-10 0.0 0.01 0.0 5.160324614046409e-10 0.0 0.010001905794669632 0.009999443546451445 0.0 3.572336882370184e-09 0.0 0.01 0.0 3.57233688236849e-09 0.0 0.010002463309887405 0.009999560528986212 0.0 9.764018957569072e-09 0.0 0.01 0.0 9.764018957565684e-09 0.0 0.010003048743673453 0.00999969901361724 0.0 1.3610833377844436e-08 0.0 0.01 0.0 1.3610833377851212e-08 0.0 0.010003576117405853 0.00999988150211946 0.0 9.369348199200604e-09 0.0 0.01 0.0 9.369348199197216e-09 0.0 0.010004035641659838 0.010000151353441896 0.0 6.211711522686946e-09 0.0 0.01 0.0 6.211711522685252e-09 0.0 0.010004499134517068 0.010000542044087348 0.0 1.11891694685964e-08 0.0 0.01 0.0 1.11891694685964e-08 0.0 0.010004487869357674 0.01000105971848424 0.0 -1.959496699418411e-08 0.0 0.01 0.0 -1.9594966994197663e-08 0.0 0.010003688539853253 0.009999394554989736 0.0 2.2314532265129328e-09 0.0 0.01 0.0 2.2314532265129328e-09 0.0 0.010001791481296565 0.009999480540493818 0.0 1.0096598963184734e-08 0.0 0.01 0.0 1.0096598963177958e-08 0.0 0.010002296190646942 0.009999555529720637 0.0 2.392040961294239e-08 0.0 0.01 0.0 2.3920409612928836e-08 0.0 0.010002813687165735 0.009999632020498235 0.0 3.5210278164803295e-08 0.0 0.01 0.0 3.521027816477619e-08 0.0 0.010003288721828395 0.009999760508813148 0.0 3.737733277003701e-08 0.0 0.01 0.0 3.737733277003701e-08 0.0 0.01000373449113179 0.01000003710047737 0.0 4.2509173478157873e-08 0.0 0.01 0.0 4.2509173478171426e-08 0.0 0.010004130958584424 0.010000521991042371 0.0 3.407192584091391e-08 0.0 0.01 0.0 3.407192584091391e-08 0.0 0.010003990187142982 0.010001275645059877 0.0 -8.21223957379034e-08 0.0 0.01 0.0 -8.21223957379034e-08 0.0 0.010003195882407659 0.00999949553818232 0.0 7.069284625103823e-09 0.0 0.01 0.0 7.0692846251105995e-09 0.0 0.010001715291240186 0.009999550530382604 0.0 2.2709434298898374e-08 0.0 0.01 0.0 2.2709434298911926e-08 0.0 0.010002166253772376 0.0099995705279866 0.0 4.6054853969991526e-08 0.0 0.01 0.0 4.6054853969991526e-08 0.0 0.010002621630899993 0.009999584026604086 0.0 6.571439853863756e-08 0.0 0.01 0.0 6.571439853866466e-08 0.0 0.010003054599664326 0.009999669517260992 0.0 7.649725997999545e-08 0.0 0.01 0.0 7.649725997999545e-08 0.0 0.010003495482783169 0.00999996550119822 0.0 8.247016162671642e-08 0.0 0.01 0.0 8.247016162671642e-08 0.0 0.010003794659843367 0.010000523991314745 0.0 2.973985135096952e-08 0.0 0.01 0.0 2.9739851350983073e-08 0.0 0.010003510647964932 0.00999963252030583 0.0 1.8008377134935607e-08 0.0 0.01 0.0 1.8008377134922054e-08 0.0 0.010001667416997845 0.009999646019077105 0.0 4.3273444422811625e-08 0.0 0.01 0.0 4.3273444422811625e-08 0.0 0.01000206458948425 0.009999609523715411 0.0 7.499566758258818e-08 0.0 0.01 0.0 7.499566758253397e-08 0.0 0.010002460858919177 0.009999576528434702 0.0 1.0113913707763709e-07 0.0 0.01 0.0 1.0113913707763709e-07 0.0 0.010002869386067419 0.009999666018788739 0.0 1.1710943841194499e-07 0.0 0.01 0.0 1.1710943841189078e-07 0.0 0.01000328286793145 0.009999990501494489 0.0 9.938570363947829e-08 0.0 0.01 0.0 9.938570363947829e-08 0.0 0.010003425610898148 0.010000581100775662 0.0 -2.920541055952922e-08 0.0 0.01 0.0 -2.920541055952922e-08 0.0 0.010003015513577936 0.009999789006893224 0.0 3.789076381452948e-08 0.0 0.01 0.0 3.7890763814502374e-08 0.0 0.010001629298320738 0.009999754009843735 0.0 7.150363122502808e-08 0.0 0.01 0.0 7.150363122497387e-08 0.0 0.010001974685520006 0.009999677517328004 0.0 1.0734563419390443e-07 0.0 0.01 0.0 1.0734563419385022e-07 0.0 0.010002330916449975 0.00999965052108638 0.0 1.357926535667099e-07 0.0 0.01 0.0 1.357926535666557e-07 0.0 0.010002726217197996 0.009999792509358533 0.0 1.3908092082984443e-07 0.0 0.01 0.0 1.3908092082989864e-07 0.0 0.01000306195866393 0.010000143053631418 0.0 6.121414978927622e-08 0.0 0.01 0.0 6.121414978927622e-08 0.0 0.010003030677756234 0.009999942501159745 0.0 6.653082282597096e-08 0.0 0.01 0.0 6.653082282597096e-08 0.0 0.01000159022990794 0.0099998690041789 0.0 1.0344792431373796e-07 0.0 0.01 0.0 1.0344792431373796e-07 0.0 0.010001896540998197 0.00999980300868075 0.0 1.380933308366616e-07 0.0 0.01 0.0 1.380933308366616e-07 0.0 0.010002239504941612 0.009999851007011252 0.0 1.5668400536739124e-07 0.0 0.01 0.0 1.5668400536728282e-07 0.0 0.010002610875825046 0.010000065452516244 0.0 1.1178485568837451e-07 0.0 0.01 0.0 1.1178485568826609e-07 0.0 0.010002818593095323 0.010000413576086447 0.0 -5.362097036201198e-08 0.0 0.01 0.0 -5.3620970361984875e-08 0.0 0.010002632389487415 0.010000086452582027 0.0 9.870048902650957e-08 0.0 0.01 0.0 9.870048902650957e-08 0.0 0.010001552112743976 0.010000028802792854 0.0 1.3339397310417438e-07 0.0 0.01 0.0 1.3339397310417438e-07 0.0 0.010001846213817757 0.010000048854020628 0.0 1.5628471873791513e-07 0.0 0.01 0.0 1.5628471873791513e-07 0.0 0.010002186770747441 0.010000193358223188 0.0 1.3206643376323986e-07 0.0 0.01 0.0 1.3206643376323986e-07 0.0 0.01000249703758263 0.010000428227505397 0.0 9.854164956219586e-10 0.0 0.01 0.0 9.854164956211116e-10 0.0 0.010002561033498192 0.010000283214492008 0.0 1.2810386531051342e-07 0.0 0.01 0.0 1.2810386531051342e-07 0.0 0.010001539407854018 0.010000328619626589 0.0 1.5121296906674478e-07 0.0 0.01 0.0 1.5121296906674478e-07 0.0 0.010001829105149468 0.01000044973291293 0.0 1.3106826800540067e-07 0.0 0.01 0.0 1.3106826800540067e-07 0.0 0.010002138388285368 0.010000608455581735 0.0 1.889187141574896e-08 0.0 0.01 0.0 1.8891871415762512e-08 0.0 0.0100023597350432 0.01000067192072631 0.0 1.4170204353609536e-07 0.0 0.01 0.0 1.4170204353587852e-07 0.0 0.01000154821248048 0.010000783294290496 0.0 1.229806957535242e-07 0.0 0.01 0.0 1.2298069575374104e-07 0.0 0.01000182275050912 0.01000088146658321 0.0 1.815318898505539e-08 0.0 0.01 0.0 1.815318898505539e-08 0.0 0.010002070442881993 0.010000925433566657 0.0 -1.8477345285392542e-07 0.0 0.01 0.0 -1.8477345285392542e-07 0.0 0.010002208736679749 0.010001099282608802 0.0 9.566327056594395e-08 0.0 0.01 0.0 9.56632705661608e-08 0.0 0.010001579975741574 0.010001061669047353 0.0 8.426266619133635e-10 0.0 0.01 0.0 8.426266619116694e-10 0.0 0.010001824699307762 0.010001132992774558 0.0 -4.1059490683208015e-08 0.0 0.01 0.0 -4.1059490683316435e-08 0.0 0.010001638102671894 
