# vtk DataFile Version 3.0
Test VTK file for Force data
ASCII
DATASET POLYDATA
POINTS 2975 float
 -2.2000000E-01   9.9999998E-03  -3.8000000E-01
 -2.2000000E-01   9.9999998E-03  -3.6000001E-01
 -2.0000000E-01   9.9999998E-03  -4.0000001E-01
 -2.0000000E-01   9.9999998E-03  -3.8000000E-01
 -2.0000000E-01   9.9999998E-03  -3.6000001E-01
 -1.8000001E-01   9.9999998E-03  -4.0000001E-01
 -1.8000001E-01   9.9999998E-03  -3.8000000E-01
 -1.8000001E-01   9.9999998E-03  -3.6000001E-01
 -1.6000000E-01   9.9999998E-03  -4.0000001E-01
 -1.6000000E-01   9.9999998E-03  -3.8000000E-01
 -1.6000000E-01   9.9999998E-03  -3.6000001E-01
 -1.4000000E-01   9.9999998E-03  -4.0000001E-01
 -1.4000000E-01   9.9999998E-03  -3.8000000E-01
 -1.4000000E-01   9.9999998E-03  -3.6000001E-01
 -1.2000000E-01   9.9999998E-03  -4.0000001E-01
 -1.2000000E-01   9.9999998E-03  -3.8000000E-01
 -1.2000000E-01   9.9999998E-03  -3.6000001E-01
 -1.0000000E-01   9.9999998E-03  -4.0000001E-01
 -1.0000000E-01   9.9999998E-03  -3.8000000E-01
 -1.0000000E-01   9.9999998E-03  -3.6000001E-01
 -7.9999998E-02   9.9999998E-03  -4.0000001E-01
 -7.9999998E-02   9.9999998E-03  -3.8000000E-01
 -7.9999998E-02   9.9999998E-03  -3.6000001E-01
 -5.9999999E-02   9.9999998E-03  -4.0000001E-01
 -5.9999999E-02   9.9999998E-03  -3.8000000E-01
 -5.9999999E-02   9.9999998E-03  -3.6000001E-01
 -3.9999999E-02   9.9999998E-03  -4.0000001E-01
 -3.9999999E-02   9.9999998E-03  -3.8000000E-01
 -3.9999999E-02   9.9999998E-03  -3.6000001E-01
 -2.0000000E-02   9.9999998E-03  -4.0000001E-01
 -2.0000000E-02   9.9999998E-03  -3.8000000E-01
 -2.0000000E-02   9.9999998E-03  -3.6000001E-01
  0.0000000E+00   9.9999998E-03  -4.0000001E-01
  0.0000000E+00   9.9999998E-03  -3.8000000E-01
  0.0000000E+00   9.9999998E-03  -3.6000001E-01
  2.0000000E-02   9.9999998E-03  -4.0000001E-01
  2.0000000E-02   9.9999998E-03  -3.8000000E-01
  2.0000000E-02   9.9999998E-03  -3.6000001E-01
  3.9999999E-02   9.9999998E-03  -4.0000001E-01
  3.9999999E-02   9.9999998E-03  -3.8000000E-01
  3.9999999E-02   9.9999998E-03  -3.6000001E-01
  5.9999999E-02   9.9999998E-03  -4.0000001E-01
  5.9999999E-02   9.9999998E-03  -3.8000000E-01
  5.9999999E-02   9.9999998E-03  -3.6000001E-01
  7.9999998E-02   9.9999998E-03  -4.0000001E-01
  7.9999998E-02   9.9999998E-03  -3.8000000E-01
  7.9999998E-02   9.9999998E-03  -3.6000001E-01
  1.0000000E-01   9.9999998E-03  -4.0000001E-01
  1.0000000E-01   9.9999998E-03  -3.8000000E-01
  1.0000000E-01   9.9999998E-03  -3.6000001E-01
  1.2000000E-01   9.9999998E-03  -4.0000001E-01
  1.2000000E-01   9.9999998E-03  -3.8000000E-01
  1.2000000E-01   9.9999998E-03  -3.6000001E-01
  1.4000000E-01   9.9999998E-03  -4.0000001E-01
  1.4000000E-01   9.9999998E-03  -3.8000000E-01
  1.4000000E-01   9.9999998E-03  -3.6000001E-01
  1.6000000E-01   9.9999998E-03  -4.0000001E-01
  1.6000000E-01   9.9999998E-03  -3.8000000E-01
  1.6000000E-01   9.9999998E-03  -3.6000001E-01
  1.8000001E-01   9.9999998E-03  -4.0000001E-01
  1.8000001E-01   9.9999998E-03  -3.8000000E-01
  1.8000001E-01   9.9999998E-03  -3.6000001E-01
  2.0000000E-01   9.9999998E-03  -3.8000000E-01
  2.0000000E-01   9.9999998E-03  -3.6000001E-01
 -2.2000000E-01   9.9999998E-03  -3.4000000E-01
 -2.2000000E-01   9.9999998E-03  -3.1999999E-01
 -2.2000000E-01   9.9999998E-03  -3.0000001E-01
 -2.2000000E-01   9.9999998E-03  -2.8000000E-01
 -2.2000000E-01   9.9999998E-03  -2.5999999E-01
 -2.2000000E-01   9.9999998E-03  -2.3999999E-01
 -2.2000000E-01   9.9999998E-03  -2.2000000E-01
 -2.2000000E-01   9.9999998E-03  -2.0000000E-01
 -2.0000000E-01   9.9999998E-03  -3.4000000E-01
 -2.0000000E-01   9.9999998E-03  -3.1999999E-01
 -2.0000000E-01   9.9999998E-03  -3.0000001E-01
 -2.0000000E-01   9.9999998E-03  -2.8000000E-01
 -2.0000000E-01   9.9999998E-03  -2.5999999E-01
 -2.0000000E-01   9.9999998E-03  -2.3999999E-01
 -2.0000000E-01   9.9999998E-03  -2.2000000E-01
 -2.0000000E-01   9.9999998E-03  -2.0000000E-01
 -1.8000001E-01   9.9999998E-03  -3.4000000E-01
 -1.8000001E-01   9.9999998E-03  -3.1999999E-01
 -1.8000001E-01   9.9999998E-03  -3.0000001E-01
 -1.8000001E-01   9.9999998E-03  -2.8000000E-01
 -1.8000001E-01   9.9999998E-03  -2.5999999E-01
 -1.8000001E-01   9.9999998E-03  -2.3999999E-01
 -1.8000001E-01   9.9999998E-03  -2.2000000E-01
 -1.8000001E-01   9.9999998E-03  -2.0000000E-01
 -1.6000000E-01   9.9999998E-03  -3.4000000E-01
 -1.6000000E-01   9.9999998E-03  -3.1999999E-01
 -1.6000000E-01   9.9999998E-03  -3.0000001E-01
 -1.6000000E-01   9.9999998E-03  -2.8000000E-01
 -1.6000000E-01   9.9999998E-03  -2.5999999E-01
 -1.6000000E-01   9.9999998E-03  -2.3999999E-01
 -1.6000000E-01   9.9999998E-03  -2.2000000E-01
 -1.6000000E-01   9.9999998E-03  -2.0000000E-01
 -1.4000000E-01   9.9999998E-03  -3.4000000E-01
 -1.4000000E-01   9.9999998E-03  -3.1999999E-01
 -1.4000000E-01   9.9999998E-03  -3.0000001E-01
 -1.4000000E-01   9.9999998E-03  -2.8000000E-01
 -1.4000000E-01   9.9999998E-03  -2.5999999E-01
 -1.4000000E-01   9.9999998E-03  -2.3999999E-01
 -1.4000000E-01   9.9999998E-03  -2.2000000E-01
 -1.4000000E-01   9.9999998E-03  -2.0000000E-01
 -1.2000000E-01   9.9999998E-03  -3.4000000E-01
 -1.2000000E-01   9.9999998E-03  -3.1999999E-01
 -1.2000000E-01   9.9999998E-03  -3.0000001E-01
 -1.2000000E-01   9.9999998E-03  -2.8000000E-01
 -1.2000000E-01   9.9999998E-03  -2.5999999E-01
 -1.2000000E-01   9.9999998E-03  -2.3999999E-01
 -1.2000000E-01   9.9999998E-03  -2.2000000E-01
 -1.2000000E-01   9.9999998E-03  -2.0000000E-01
 -1.0000000E-01   9.9999998E-03  -3.4000000E-01
 -1.0000000E-01   9.9999998E-03  -3.1999999E-01
 -1.0000000E-01   9.9999998E-03  -3.0000001E-01
 -1.0000000E-01   9.9999998E-03  -2.8000000E-01
 -1.0000000E-01   9.9999998E-03  -2.5999999E-01
 -1.0000000E-01   9.9999998E-03  -2.3999999E-01
 -1.0000000E-01   9.9999998E-03  -2.2000000E-01
 -1.0000000E-01   9.9999998E-03  -2.0000000E-01
 -7.9999998E-02   9.9999998E-03  -3.4000000E-01
 -7.9999998E-02   9.9999998E-03  -3.1999999E-01
 -7.9999998E-02   9.9999998E-03  -3.0000001E-01
 -7.9999998E-02   9.9999998E-03  -2.8000000E-01
 -7.9999998E-02   9.9999998E-03  -2.5999999E-01
 -7.9999998E-02   9.9999998E-03  -2.3999999E-01
 -7.9999998E-02   9.9999998E-03  -2.2000000E-01
 -7.9999998E-02   9.9999998E-03  -2.0000000E-01
 -5.9999999E-02   9.9999998E-03  -3.4000000E-01
 -5.9999999E-02   9.9999998E-03  -3.1999999E-01
 -5.9999999E-02   9.9999998E-03  -3.0000001E-01
 -5.9999999E-02   9.9999998E-03  -2.8000000E-01
 -5.9999999E-02   9.9999998E-03  -2.5999999E-01
 -5.9999999E-02   9.9999998E-03  -2.3999999E-01
 -5.9999999E-02   9.9999998E-03  -2.2000000E-01
 -5.9999999E-02   9.9999998E-03  -2.0000000E-01
 -3.9999999E-02   9.9999998E-03  -3.4000000E-01
 -3.9999999E-02   9.9999998E-03  -3.1999999E-01
 -3.9999999E-02   9.9999998E-03  -3.0000001E-01
 -3.9999999E-02   9.9999998E-03  -2.8000000E-01
 -3.9999999E-02   9.9999998E-03  -2.5999999E-01
 -3.9999999E-02   9.9999998E-03  -2.3999999E-01
 -3.9999999E-02   9.9999998E-03  -2.2000000E-01
 -3.9999999E-02   9.9999998E-03  -2.0000000E-01
 -2.0000000E-02   9.9999998E-03  -3.4000000E-01
 -2.0000000E-02   9.9999998E-03  -3.1999999E-01
 -2.0000000E-02   9.9999998E-03  -3.0000001E-01
 -2.0000000E-02   9.9999998E-03  -2.8000000E-01
 -2.0000000E-02   9.9999998E-03  -2.5999999E-01
 -2.0000000E-02   9.9999998E-03  -2.3999999E-01
 -2.0000000E-02   9.9999998E-03  -2.2000000E-01
 -2.0000000E-02   9.9999998E-03  -2.0000000E-01
  0.0000000E+00   9.9999998E-03  -3.4000000E-01
  0.0000000E+00   9.9999998E-03  -3.1999999E-01
  0.0000000E+00   9.9999998E-03  -3.0000001E-01
  2.0000000E-02   9.9999998E-03  -3.4000000E-01
  2.0000000E-02   9.9999998E-03  -3.1999999E-01
  3.9999999E-02   9.9999998E-03  -3.4000000E-01
  3.9999999E-02   9.9999998E-03  -3.1999999E-01
  5.9999999E-02   9.9999998E-03  -3.4000000E-01
  5.9999999E-02   9.9999998E-03  -3.1999999E-01
  7.9999998E-02   9.9999998E-03  -3.4000000E-01
  7.9999998E-02   9.9999998E-03  -3.1999999E-01
  1.0000000E-01   9.9999998E-03  -3.4000000E-01
  1.0000000E-01   9.9999998E-03  -3.1999999E-01
  1.2000000E-01   9.9999998E-03  -3.4000000E-01
  1.2000000E-01   9.9999998E-03  -3.1999999E-01
  1.4000000E-01   9.9999998E-03  -3.4000000E-01
  1.4000000E-01   9.9999998E-03  -3.1999999E-01
  1.6000000E-01   9.9999998E-03  -3.4000000E-01
  1.6000000E-01   9.9999998E-03  -3.1999999E-01
  1.8000001E-01   9.9999998E-03  -3.4000000E-01
  1.8000001E-01   9.9999998E-03  -3.1999999E-01
  2.0000000E-01   9.9999998E-03  -3.4000000E-01
  2.0000000E-01   9.9999998E-03  -3.1999999E-01
 -2.2000000E-01   9.9999998E-03  -1.8000001E-01
 -2.2000000E-01   9.9999998E-03  -1.6000000E-01
 -2.2000000E-01   9.9999998E-03  -1.4000000E-01
 -2.2000000E-01   9.9999998E-03  -1.2000000E-01
 -2.2000000E-01   9.9999998E-03  -1.0000000E-01
 -2.2000000E-01   9.9999998E-03  -7.9999998E-02
 -2.2000000E-01   9.9999998E-03  -5.9999999E-02
 -2.2000000E-01   9.9999998E-03  -3.9999999E-02
 -2.2000000E-01   9.9999998E-03  -2.0000000E-02
 -2.0000000E-01   9.9999998E-03  -1.8000001E-01
 -2.0000000E-01   9.9999998E-03  -1.6000000E-01
 -2.0000000E-01   9.9999998E-03  -1.4000000E-01
 -2.0000000E-01   9.9999998E-03  -1.2000000E-01
 -2.0000000E-01   9.9999998E-03  -1.0000000E-01
 -2.0000000E-01   9.9999998E-03  -7.9999998E-02
 -2.0000000E-01   9.9999998E-03  -5.9999999E-02
 -2.0000000E-01   9.9999998E-03  -3.9999999E-02
 -2.0000000E-01   9.9999998E-03  -2.0000000E-02
 -1.8000001E-01   9.9999998E-03  -1.8000001E-01
 -1.8000001E-01   9.9999998E-03  -1.6000000E-01
 -1.8000001E-01   9.9999998E-03  -1.4000000E-01
 -1.8000001E-01   9.9999998E-03  -1.2000000E-01
 -1.8000001E-01   9.9999998E-03  -1.0000000E-01
 -1.8000001E-01   9.9999998E-03  -7.9999998E-02
 -1.8000001E-01   9.9999998E-03  -5.9999999E-02
 -1.8000001E-01   9.9999998E-03  -3.9999999E-02
 -1.8000001E-01   9.9999998E-03  -2.0000000E-02
 -1.6000000E-01   9.9999998E-03  -1.8000001E-01
 -1.6000000E-01   9.9999998E-03  -1.6000000E-01
 -1.6000000E-01   9.9999998E-03  -1.4000000E-01
 -1.6000000E-01   9.9999998E-03  -1.2000000E-01
 -1.6000000E-01   9.9999998E-03  -1.0000000E-01
 -1.6000000E-01   9.9999998E-03  -7.9999998E-02
 -1.6000000E-01   9.9999998E-03  -5.9999999E-02
 -1.6000000E-01   9.9999998E-03  -3.9999999E-02
 -1.6000000E-01   9.9999998E-03  -2.0000000E-02
 -1.4000000E-01   9.9999998E-03  -1.8000001E-01
 -1.4000000E-01   9.9999998E-03  -1.6000000E-01
 -1.4000000E-01   9.9999998E-03  -1.4000000E-01
 -1.4000000E-01   9.9999998E-03  -1.2000000E-01
 -1.4000000E-01   9.9999998E-03  -1.0000000E-01
 -1.4000000E-01   9.9999998E-03  -7.9999998E-02
 -1.4000000E-01   9.9999998E-03  -5.9999999E-02
 -1.4000000E-01   9.9999998E-03  -3.9999999E-02
 -1.4000000E-01   9.9999998E-03  -2.0000000E-02
 -1.2000000E-01   9.9999998E-03  -1.8000001E-01
 -1.2000000E-01   9.9999998E-03  -1.6000000E-01
 -1.2000000E-01   9.9999998E-03  -1.4000000E-01
 -1.2000000E-01   9.9999998E-03  -1.2000000E-01
 -1.2000000E-01   9.9999998E-03  -1.0000000E-01
 -1.2000000E-01   9.9999998E-03  -7.9999998E-02
 -1.2000000E-01   9.9999998E-03  -5.9999999E-02
 -1.2000000E-01   9.9999998E-03  -3.9999999E-02
 -1.2000000E-01   9.9999998E-03  -2.0000000E-02
 -1.0000000E-01   9.9999998E-03  -1.8000001E-01
 -1.0000000E-01   9.9999998E-03  -1.6000000E-01
 -1.0000000E-01   9.9999998E-03  -1.4000000E-01
 -1.0000000E-01   9.9999998E-03  -1.2000000E-01
 -1.0000000E-01   9.9999998E-03  -1.0000000E-01
 -1.0000000E-01   9.9999998E-03  -7.9999998E-02
 -1.0000000E-01   9.9999998E-03  -5.9999999E-02
 -1.0000000E-01   9.9999998E-03  -3.9999999E-02
 -1.0000000E-01   9.9999998E-03  -2.0000000E-02
 -7.9999998E-02   9.9999998E-03  -1.8000001E-01
 -7.9999998E-02   9.9999998E-03  -1.6000000E-01
 -7.9999998E-02   9.9999998E-03  -1.4000000E-01
 -7.9999998E-02   9.9999998E-03  -1.2000000E-01
 -7.9999998E-02   9.9999998E-03  -1.0000000E-01
 -7.9999998E-02   9.9999998E-03  -7.9999998E-02
 -7.9999998E-02   9.9999998E-03  -5.9999999E-02
 -7.9999998E-02   9.9999998E-03  -3.9999999E-02
 -7.9999998E-02   9.9999998E-03  -2.0000000E-02
 -5.9999999E-02   9.9999998E-03  -1.8000001E-01
 -5.9999999E-02   9.9999998E-03  -1.6000000E-01
 -5.9999999E-02   9.9999998E-03  -1.4000000E-01
 -5.9999999E-02   9.9999998E-03  -1.2000000E-01
 -5.9999999E-02   9.9999998E-03  -1.0000000E-01
 -5.9999999E-02   9.9999998E-03  -7.9999998E-02
 -5.9999999E-02   9.9999998E-03  -5.9999999E-02
 -5.9999999E-02   9.9999998E-03  -3.9999999E-02
 -5.9999999E-02   9.9999998E-03  -2.0000000E-02
 -3.9999999E-02   9.9999998E-03  -1.8000001E-01
 -3.9999999E-02   9.9999998E-03  -1.6000000E-01
 -3.9999999E-02   9.9999998E-03  -1.4000000E-01
 -3.9999999E-02   9.9999998E-03  -1.2000000E-01
 -3.9999999E-02   9.9999998E-03  -1.0000000E-01
 -3.9999999E-02   9.9999998E-03  -7.9999998E-02
 -3.9999999E-02   9.9999998E-03  -5.9999999E-02
 -3.9999999E-02   9.9999998E-03  -3.9999999E-02
 -3.9999999E-02   9.9999998E-03  -2.0000000E-02
 -2.0000000E-02   9.9999998E-03  -1.8000001E-01
 -2.0000000E-02   9.9999998E-03  -1.6000000E-01
 -2.0000000E-02   9.9999998E-03  -1.4000000E-01
 -2.0000000E-02   9.9999998E-03  -1.2000000E-01
 -2.0000000E-02   9.9999998E-03  -1.0000000E-01
 -2.0000000E-02   9.9999998E-03  -7.9999998E-02
 -2.0000000E-02   9.9999998E-03  -5.9999999E-02
 -2.0000000E-02   9.9999998E-03  -3.9999999E-02
 -2.0000000E-02   9.9999998E-03  -2.0000000E-02
 -2.2000000E-01   9.9999998E-03   0.0000000E+00
 -2.2000000E-01   9.9999998E-03   2.0000000E-02
 -2.2000000E-01   9.9999998E-03   3.9999999E-02
 -2.2000000E-01   9.9999998E-03   5.9999999E-02
 -2.2000000E-01   9.9999998E-03   7.9999998E-02
 -2.2000000E-01   9.9999998E-03   1.0000000E-01
 -2.2000000E-01   9.9999998E-03   1.2000000E-01
 -2.2000000E-01   9.9999998E-03   1.4000000E-01
 -2.0000000E-01   9.9999998E-03   0.0000000E+00
 -2.0000000E-01   9.9999998E-03   2.0000000E-02
 -2.0000000E-01   9.9999998E-03   3.9999999E-02
 -2.0000000E-01   9.9999998E-03   5.9999999E-02
 -2.0000000E-01   9.9999998E-03   7.9999998E-02
 -2.0000000E-01   9.9999998E-03   1.0000000E-01
 -2.0000000E-01   9.9999998E-03   1.2000000E-01
 -2.0000000E-01   9.9999998E-03   1.4000000E-01
 -1.8000001E-01   9.9999998E-03   0.0000000E+00
 -1.8000001E-01   9.9999998E-03   2.0000000E-02
 -1.8000001E-01   9.9999998E-03   3.9999999E-02
 -1.8000001E-01   9.9999998E-03   5.9999999E-02
 -1.8000001E-01   9.9999998E-03   7.9999998E-02
 -1.8000001E-01   9.9999998E-03   1.0000000E-01
 -1.8000001E-01   9.9999998E-03   1.2000000E-01
 -1.8000001E-01   9.9999998E-03   1.4000000E-01
 -1.6000000E-01   9.9999998E-03   0.0000000E+00
 -1.6000000E-01   9.9999998E-03   2.0000000E-02
 -1.6000000E-01   9.9999998E-03   3.9999999E-02
 -1.6000000E-01   9.9999998E-03   5.9999999E-02
 -1.6000000E-01   9.9999998E-03   7.9999998E-02
 -1.6000000E-01   9.9999998E-03   1.0000000E-01
 -1.6000000E-01   9.9999998E-03   1.2000000E-01
 -1.6000000E-01   9.9999998E-03   1.4000000E-01
 -1.4000000E-01   9.9999998E-03   0.0000000E+00
 -1.4000000E-01   9.9999998E-03   2.0000000E-02
 -1.4000000E-01   9.9999998E-03   3.9999999E-02
 -1.4000000E-01   9.9999998E-03   5.9999999E-02
 -1.4000000E-01   9.9999998E-03   7.9999998E-02
 -1.4000000E-01   9.9999998E-03   1.0000000E-01
 -1.4000000E-01   9.9999998E-03   1.2000000E-01
 -1.4000000E-01   9.9999998E-03   1.4000000E-01
 -1.2000000E-01   9.9999998E-03   0.0000000E+00
 -1.2000000E-01   9.9999998E-03   2.0000000E-02
 -1.2000000E-01   9.9999998E-03   3.9999999E-02
 -1.2000000E-01   9.9999998E-03   5.9999999E-02
 -1.2000000E-01   9.9999998E-03   7.9999998E-02
 -1.2000000E-01   9.9999998E-03   1.0000000E-01
 -1.2000000E-01   9.9999998E-03   1.2000000E-01
 -1.2000000E-01   9.9999998E-03   1.4000000E-01
 -1.0000000E-01   9.9999998E-03   0.0000000E+00
 -1.0000000E-01   9.9999998E-03   2.0000000E-02
 -1.0000000E-01   9.9999998E-03   3.9999999E-02
 -1.0000000E-01   9.9999998E-03   5.9999999E-02
 -1.0000000E-01   9.9999998E-03   7.9999998E-02
 -1.0000000E-01   9.9999998E-03   1.0000000E-01
 -1.0000000E-01   9.9999998E-03   1.2000000E-01
 -1.0000000E-01   9.9999998E-03   1.4000000E-01
 -7.9999998E-02   9.9999998E-03   0.0000000E+00
 -7.9999998E-02   9.9999998E-03   2.0000000E-02
 -7.9999998E-02   9.9999998E-03   3.9999999E-02
 -7.9999998E-02   9.9999998E-03   5.9999999E-02
 -7.9999998E-02   9.9999998E-03   7.9999998E-02
 -7.9999998E-02   9.9999998E-03   1.0000000E-01
 -7.9999998E-02   9.9999998E-03   1.2000000E-01
 -7.9999998E-02   9.9999998E-03   1.4000000E-01
 -5.9999999E-02   9.9999998E-03   0.0000000E+00
 -5.9999999E-02   9.9999998E-03   2.0000000E-02
 -5.9999999E-02   9.9999998E-03   3.9999999E-02
 -5.9999999E-02   9.9999998E-03   5.9999999E-02
 -5.9999999E-02   9.9999998E-03   7.9999998E-02
 -5.9999999E-02   9.9999998E-03   1.0000000E-01
 -5.9999999E-02   9.9999998E-03   1.2000000E-01
 -5.9999999E-02   9.9999998E-03   1.4000000E-01
 -3.9999999E-02   9.9999998E-03   0.0000000E+00
 -3.9999999E-02   9.9999998E-03   2.0000000E-02
 -3.9999999E-02   9.9999998E-03   3.9999999E-02
 -3.9999999E-02   9.9999998E-03   5.9999999E-02
 -3.9999999E-02   9.9999998E-03   7.9999998E-02
 -3.9999999E-02   9.9999998E-03   1.0000000E-01
 -3.9999999E-02   9.9999998E-03   1.2000000E-01
 -3.9999999E-02   9.9999998E-03   1.4000000E-01
 -2.0000000E-02   9.9999998E-03   0.0000000E+00
 -2.0000000E-02   9.9999998E-03   2.0000000E-02
 -2.0000000E-02   9.9999998E-03   3.9999999E-02
 -2.0000000E-02   9.9999998E-03   5.9999999E-02
 -2.0000000E-02   9.9999998E-03   7.9999998E-02
 -2.0000000E-02   9.9999998E-03   1.0000000E-01
 -2.0000000E-02   9.9999998E-03   1.2000000E-01
 -2.0000000E-02   9.9999998E-03   1.4000000E-01
 -2.2000000E-01   9.9999998E-03   1.6000000E-01
 -2.2000000E-01   9.9999998E-03   1.8000001E-01
 -2.2000000E-01   9.9999998E-03   2.0000000E-01
 -2.2000000E-01   9.9999998E-03   2.2000000E-01
 -2.2000000E-01   9.9999998E-03   2.3999999E-01
 -2.2000000E-01   9.9999998E-03   2.5999999E-01
 -2.2000000E-01   9.9999998E-03   2.8000000E-01
 -2.2000000E-01   9.9999998E-03   3.0000001E-01
 -2.2000000E-01   9.9999998E-03   3.1999999E-01
 -2.0000000E-01   9.9999998E-03   1.6000000E-01
 -2.0000000E-01   9.9999998E-03   1.8000001E-01
 -2.0000000E-01   9.9999998E-03   2.0000000E-01
 -2.0000000E-01   9.9999998E-03   2.2000000E-01
 -2.0000000E-01   9.9999998E-03   2.3999999E-01
 -2.0000000E-01   9.9999998E-03   2.5999999E-01
 -2.0000000E-01   9.9999998E-03   2.8000000E-01
 -2.0000000E-01   9.9999998E-03   3.0000001E-01
 -2.0000000E-01   9.9999998E-03   3.1999999E-01
 -1.8000001E-01   9.9999998E-03   1.6000000E-01
 -1.8000001E-01   9.9999998E-03   1.8000001E-01
 -1.8000001E-01   9.9999998E-03   2.0000000E-01
 -1.8000001E-01   9.9999998E-03   2.2000000E-01
 -1.8000001E-01   9.9999998E-03   2.3999999E-01
 -1.8000001E-01   9.9999998E-03   2.5999999E-01
 -1.8000001E-01   9.9999998E-03   2.8000000E-01
 -1.8000001E-01   9.9999998E-03   3.0000001E-01
 -1.8000001E-01   9.9999998E-03   3.1999999E-01
 -1.6000000E-01   9.9999998E-03   1.6000000E-01
 -1.6000000E-01   9.9999998E-03   1.8000001E-01
 -1.6000000E-01   9.9999998E-03   2.0000000E-01
 -1.6000000E-01   9.9999998E-03   2.2000000E-01
 -1.6000000E-01   9.9999998E-03   2.3999999E-01
 -1.6000000E-01   9.9999998E-03   2.5999999E-01
 -1.6000000E-01   9.9999998E-03   2.8000000E-01
 -1.6000000E-01   9.9999998E-03   3.0000001E-01
 -1.6000000E-01   9.9999998E-03   3.1999999E-01
 -1.4000000E-01   9.9999998E-03   1.6000000E-01
 -1.4000000E-01   9.9999998E-03   1.8000001E-01
 -1.4000000E-01   9.9999998E-03   2.0000000E-01
 -1.4000000E-01   9.9999998E-03   2.2000000E-01
 -1.4000000E-01   9.9999998E-03   2.3999999E-01
 -1.4000000E-01   9.9999998E-03   2.5999999E-01
 -1.4000000E-01   9.9999998E-03   2.8000000E-01
 -1.4000000E-01   9.9999998E-03   3.0000001E-01
 -1.4000000E-01   9.9999998E-03   3.1999999E-01
 -1.2000000E-01   9.9999998E-03   1.6000000E-01
 -1.2000000E-01   9.9999998E-03   1.8000001E-01
 -1.2000000E-01   9.9999998E-03   2.0000000E-01
 -1.2000000E-01   9.9999998E-03   2.2000000E-01
 -1.2000000E-01   9.9999998E-03   2.3999999E-01
 -1.2000000E-01   9.9999998E-03   2.5999999E-01
 -1.2000000E-01   9.9999998E-03   2.8000000E-01
 -1.2000000E-01   9.9999998E-03   3.0000001E-01
 -1.2000000E-01   9.9999998E-03   3.1999999E-01
 -1.0000000E-01   9.9999998E-03   1.6000000E-01
 -1.0000000E-01   9.9999998E-03   1.8000001E-01
 -1.0000000E-01   9.9999998E-03   2.0000000E-01
 -1.0000000E-01   9.9999998E-03   2.2000000E-01
 -1.0000000E-01   9.9999998E-03   2.3999999E-01
 -1.0000000E-01   9.9999998E-03   2.5999999E-01
 -1.0000000E-01   9.9999998E-03   2.8000000E-01
 -1.0000000E-01   9.9999998E-03   3.0000001E-01
 -1.0000000E-01   9.9999998E-03   3.1999999E-01
 -7.9999998E-02   9.9999998E-03   1.6000000E-01
 -7.9999998E-02   9.9999998E-03   1.8000001E-01
 -7.9999998E-02   9.9999998E-03   2.0000000E-01
 -7.9999998E-02   9.9999998E-03   2.2000000E-01
 -7.9999998E-02   9.9999998E-03   2.3999999E-01
 -7.9999998E-02   9.9999998E-03   2.5999999E-01
 -7.9999998E-02   9.9999998E-03   2.8000000E-01
 -7.9999998E-02   9.9999998E-03   3.0000001E-01
 -7.9999998E-02   9.9999998E-03   3.1999999E-01
 -5.9999999E-02   9.9999998E-03   1.6000000E-01
 -5.9999999E-02   9.9999998E-03   1.8000001E-01
 -5.9999999E-02   9.9999998E-03   2.0000000E-01
 -5.9999999E-02   9.9999998E-03   2.2000000E-01
 -5.9999999E-02   9.9999998E-03   2.3999999E-01
 -5.9999999E-02   9.9999998E-03   2.5999999E-01
 -5.9999999E-02   9.9999998E-03   2.8000000E-01
 -5.9999999E-02   9.9999998E-03   3.0000001E-01
 -5.9999999E-02   9.9999998E-03   3.1999999E-01
 -3.9999999E-02   9.9999998E-03   1.6000000E-01
 -3.9999999E-02   9.9999998E-03   1.8000001E-01
 -3.9999999E-02   9.9999998E-03   2.0000000E-01
 -3.9999999E-02   9.9999998E-03   2.2000000E-01
 -3.9999999E-02   9.9999998E-03   2.3999999E-01
 -3.9999999E-02   9.9999998E-03   2.5999999E-01
 -3.9999999E-02   9.9999998E-03   2.8000000E-01
 -3.9999999E-02   9.9999998E-03   3.0000001E-01
 -3.9999999E-02   9.9999998E-03   3.1999999E-01
 -2.0000000E-02   9.9999998E-03   1.6000000E-01
 -2.0000000E-02   9.9999998E-03   1.8000001E-01
 -2.0000000E-02   9.9999998E-03   2.0000000E-01
 -2.0000000E-02   9.9999998E-03   2.2000000E-01
 -2.0000000E-02   9.9999998E-03   2.3999999E-01
 -2.0000000E-02   9.9999998E-03   2.5999999E-01
 -2.0000000E-02   9.9999998E-03   2.8000000E-01
 -2.0000000E-02   9.9999998E-03   3.0000001E-01
 -2.0000000E-02   9.9999998E-03   3.1999999E-01
  0.0000000E+00   9.9999998E-03   3.0000001E-01
  0.0000000E+00   9.9999998E-03   3.1999999E-01
  2.0000000E-02   9.9999998E-03   3.1999999E-01
  3.9999999E-02   9.9999998E-03   3.1999999E-01
  5.9999999E-02   9.9999998E-03   3.1999999E-01
  7.9999998E-02   9.9999998E-03   3.1999999E-01
  1.0000000E-01   9.9999998E-03   3.1999999E-01
  1.2000000E-01   9.9999998E-03   3.1999999E-01
  1.4000000E-01   9.9999998E-03   3.1999999E-01
  1.6000000E-01   9.9999998E-03   3.1999999E-01
  1.8000001E-01   9.9999998E-03   3.1999999E-01
  2.0000000E-01   9.9999998E-03   3.1999999E-01
 -2.2000000E-01   9.9999998E-03   3.4000000E-01
 -2.2000000E-01   9.9999998E-03   3.6000001E-01
 -2.2000000E-01   9.9999998E-03   3.8000000E-01
 -2.0000000E-01   9.9999998E-03   3.4000000E-01
 -2.0000000E-01   9.9999998E-03   3.6000001E-01
 -2.0000000E-01   9.9999998E-03   3.8000000E-01
 -2.0000000E-01   9.9999998E-03   4.0000001E-01
 -1.8000001E-01   9.9999998E-03   3.4000000E-01
 -1.8000001E-01   9.9999998E-03   3.6000001E-01
 -1.8000001E-01   9.9999998E-03   3.8000000E-01
 -1.8000001E-01   9.9999998E-03   4.0000001E-01
 -1.6000000E-01   9.9999998E-03   3.4000000E-01
 -1.6000000E-01   9.9999998E-03   3.6000001E-01
 -1.6000000E-01   9.9999998E-03   3.8000000E-01
 -1.6000000E-01   9.9999998E-03   4.0000001E-01
 -1.4000000E-01   9.9999998E-03   3.4000000E-01
 -1.4000000E-01   9.9999998E-03   3.6000001E-01
 -1.4000000E-01   9.9999998E-03   3.8000000E-01
 -1.4000000E-01   9.9999998E-03   4.0000001E-01
 -1.2000000E-01   9.9999998E-03   3.4000000E-01
 -1.2000000E-01   9.9999998E-03   3.6000001E-01
 -1.2000000E-01   9.9999998E-03   3.8000000E-01
 -1.2000000E-01   9.9999998E-03   4.0000001E-01
 -1.0000000E-01   9.9999998E-03   3.4000000E-01
 -1.0000000E-01   9.9999998E-03   3.6000001E-01
 -1.0000000E-01   9.9999998E-03   3.8000000E-01
 -1.0000000E-01   9.9999998E-03   4.0000001E-01
 -7.9999998E-02   9.9999998E-03   3.4000000E-01
 -7.9999998E-02   9.9999998E-03   3.6000001E-01
 -7.9999998E-02   9.9999998E-03   3.8000000E-01
 -7.9999998E-02   9.9999998E-03   4.0000001E-01
 -5.9999999E-02   9.9999998E-03   3.4000000E-01
 -5.9999999E-02   9.9999998E-03   3.6000001E-01
 -5.9999999E-02   9.9999998E-03   3.8000000E-01
 -5.9999999E-02   9.9999998E-03   4.0000001E-01
 -3.9999999E-02   9.9999998E-03   3.4000000E-01
 -3.9999999E-02   9.9999998E-03   3.6000001E-01
 -3.9999999E-02   9.9999998E-03   3.8000000E-01
 -3.9999999E-02   9.9999998E-03   4.0000001E-01
 -2.0000000E-02   9.9999998E-03   3.4000000E-01
 -2.0000000E-02   9.9999998E-03   3.6000001E-01
 -2.0000000E-02   9.9999998E-03   3.8000000E-01
 -2.0000000E-02   9.9999998E-03   4.0000001E-01
  0.0000000E+00   9.9999998E-03   3.4000000E-01
  0.0000000E+00   9.9999998E-03   3.6000001E-01
  0.0000000E+00   9.9999998E-03   3.8000000E-01
  0.0000000E+00   9.9999998E-03   4.0000001E-01
  2.0000000E-02   9.9999998E-03   3.4000000E-01
  2.0000000E-02   9.9999998E-03   3.6000001E-01
  2.0000000E-02   9.9999998E-03   3.8000000E-01
  2.0000000E-02   9.9999998E-03   4.0000001E-01
  3.9999999E-02   9.9999998E-03   3.4000000E-01
  3.9999999E-02   9.9999998E-03   3.6000001E-01
  3.9999999E-02   9.9999998E-03   3.8000000E-01
  3.9999999E-02   9.9999998E-03   4.0000001E-01
  5.9999999E-02   9.9999998E-03   3.4000000E-01
  5.9999999E-02   9.9999998E-03   3.6000001E-01
  5.9999999E-02   9.9999998E-03   3.8000000E-01
  5.9999999E-02   9.9999998E-03   4.0000001E-01
  7.9999998E-02   9.9999998E-03   3.4000000E-01
  7.9999998E-02   9.9999998E-03   3.6000001E-01
  7.9999998E-02   9.9999998E-03   3.8000000E-01
  7.9999998E-02   9.9999998E-03   4.0000001E-01
  1.0000000E-01   9.9999998E-03   3.4000000E-01
  1.0000000E-01   9.9999998E-03   3.6000001E-01
  1.0000000E-01   9.9999998E-03   3.8000000E-01
  1.0000000E-01   9.9999998E-03   4.0000001E-01
  1.2000000E-01   9.9999998E-03   3.4000000E-01
  1.2000000E-01   9.9999998E-03   3.6000001E-01
  1.2000000E-01   9.9999998E-03   3.8000000E-01
  1.2000000E-01   9.9999998E-03   4.0000001E-01
  1.4000000E-01   9.9999998E-03   3.4000000E-01
  1.4000000E-01   9.9999998E-03   3.6000001E-01
  1.4000000E-01   9.9999998E-03   3.8000000E-01
  1.4000000E-01   9.9999998E-03   4.0000001E-01
  1.6000000E-01   9.9999998E-03   3.4000000E-01
  1.6000000E-01   9.9999998E-03   3.6000001E-01
  1.6000000E-01   9.9999998E-03   3.8000000E-01
  1.6000000E-01   9.9999998E-03   4.0000001E-01
  1.8000001E-01   9.9999998E-03   3.4000000E-01
  1.8000001E-01   9.9999998E-03   3.6000001E-01
  1.8000001E-01   9.9999998E-03   3.8000000E-01
  1.8000001E-01   9.9999998E-03   4.0000001E-01
  2.0000000E-01   9.9999998E-03   3.4000000E-01
  2.0000000E-01   9.9999998E-03   3.6000001E-01
  2.0000000E-01   9.9999998E-03   3.8000000E-01
  1.9200000E+00   9.9999998E-03  -3.6000001E-01
  1.9200000E+00   9.9999998E-03  -3.4000000E-01
  1.9200000E+00   9.9999998E-03  -3.1999999E-01
  1.9400001E+00   9.9999998E-03  -3.8000000E-01
  1.9400001E+00   9.9999998E-03  -3.6000001E-01
  1.9400001E+00   9.9999998E-03  -3.4000000E-01
  1.9400001E+00   9.9999998E-03  -3.1999999E-01
  1.9400001E+00   9.9999998E-03  -3.0000001E-01
  1.9400001E+00   9.9999998E-03  -2.8000000E-01
  1.9400001E+00   9.9999998E-03  -2.5999999E-01
  1.9400001E+00   9.9999998E-03  -2.3999999E-01
  1.9400001E+00   9.9999998E-03  -2.2000000E-01
  1.9600000E+00   9.9999998E-03  -3.8000000E-01
  1.9600000E+00   9.9999998E-03  -3.6000001E-01
  1.9600000E+00   9.9999998E-03  -3.4000000E-01
  1.9600000E+00   9.9999998E-03  -3.1999999E-01
  1.9600000E+00   9.9999998E-03  -3.0000001E-01
  1.9600000E+00   9.9999998E-03  -2.8000000E-01
  1.9600000E+00   9.9999998E-03  -2.5999999E-01
  1.9600000E+00   9.9999998E-03  -2.3999999E-01
  1.9600000E+00   9.9999998E-03  -2.2000000E-01
  1.9600000E+00   9.9999998E-03  -2.0000000E-01
  1.9600000E+00   9.9999998E-03  -1.8000001E-01
  1.9600000E+00   9.9999998E-03  -1.6000000E-01
  1.9600000E+00   9.9999998E-03  -1.4000000E-01
  1.9600000E+00   9.9999998E-03  -1.2000000E-01
  1.9800000E+00   9.9999998E-03  -3.8000000E-01
  1.9800000E+00   9.9999998E-03  -3.6000001E-01
  1.9800000E+00   9.9999998E-03  -3.4000000E-01
  1.9800000E+00   9.9999998E-03  -3.1999999E-01
  1.9800000E+00   9.9999998E-03  -3.0000001E-01
  1.9800000E+00   9.9999998E-03  -2.8000000E-01
  1.9800000E+00   9.9999998E-03  -2.5999999E-01
  1.9800000E+00   9.9999998E-03  -2.3999999E-01
  1.9800000E+00   9.9999998E-03  -2.2000000E-01
  1.9800000E+00   9.9999998E-03  -2.0000000E-01
  1.9800000E+00   9.9999998E-03  -1.8000001E-01
  1.9800000E+00   9.9999998E-03  -1.6000000E-01
  1.9800000E+00   9.9999998E-03  -1.4000000E-01
  1.9800000E+00   9.9999998E-03  -1.2000000E-01
  1.9800000E+00   9.9999998E-03  -1.0000000E-01
  1.9800000E+00   9.9999998E-03  -7.9999998E-02
  1.9800000E+00   9.9999998E-03  -5.9999999E-02
  1.9800000E+00   9.9999998E-03  -3.9999999E-02
  1.9800000E+00   9.9999998E-03  -2.0000000E-02
  2.0000000E+00   9.9999998E-03  -3.8000000E-01
  2.0000000E+00   9.9999998E-03  -3.6000001E-01
  2.0000000E+00   9.9999998E-03  -3.4000000E-01
  2.0000000E+00   9.9999998E-03  -3.1999999E-01
  2.0000000E+00   9.9999998E-03  -3.0000001E-01
  2.0000000E+00   9.9999998E-03  -2.8000000E-01
  2.0000000E+00   9.9999998E-03  -2.5999999E-01
  2.0000000E+00   9.9999998E-03  -2.3999999E-01
  2.0000000E+00   9.9999998E-03  -2.2000000E-01
  2.0000000E+00   9.9999998E-03  -2.0000000E-01
  2.0000000E+00   9.9999998E-03  -1.8000001E-01
  2.0000000E+00   9.9999998E-03  -1.6000000E-01
  2.0000000E+00   9.9999998E-03  -1.4000000E-01
  2.0000000E+00   9.9999998E-03  -1.2000000E-01
  2.0000000E+00   9.9999998E-03  -1.0000000E-01
  2.0000000E+00   9.9999998E-03  -7.9999998E-02
  2.0000000E+00   9.9999998E-03  -5.9999999E-02
  2.0000000E+00   9.9999998E-03  -3.9999999E-02
  2.0000000E+00   9.9999998E-03  -2.0000000E-02
  2.0000000E+00   9.9999998E-03   0.0000000E+00
  2.0000000E+00   9.9999998E-03   2.0000000E-02
  2.0000000E+00   9.9999998E-03   3.9999999E-02
  2.0000000E+00   9.9999998E-03   5.9999999E-02
  2.0000000E+00   9.9999998E-03   7.9999998E-02
  2.0200000E+00   9.9999998E-03  -4.0000001E-01
  2.0200000E+00   9.9999998E-03  -3.8000000E-01
  2.0200000E+00   9.9999998E-03  -3.6000001E-01
  2.0200000E+00   9.9999998E-03  -3.4000000E-01
  2.0200000E+00   9.9999998E-03  -3.1999999E-01
  2.0200000E+00   9.9999998E-03  -3.0000001E-01
  2.0200000E+00   9.9999998E-03  -2.8000000E-01
  2.0200000E+00   9.9999998E-03  -2.5999999E-01
  2.0200000E+00   9.9999998E-03  -2.3999999E-01
  2.0200000E+00   9.9999998E-03  -2.2000000E-01
  2.0200000E+00   9.9999998E-03  -2.0000000E-01
  2.0200000E+00   9.9999998E-03  -1.8000001E-01
  2.0200000E+00   9.9999998E-03  -1.6000000E-01
  2.0200000E+00   9.9999998E-03  -1.4000000E-01
  2.0200000E+00   9.9999998E-03  -1.2000000E-01
  2.0200000E+00   9.9999998E-03  -1.0000000E-01
  2.0200000E+00   9.9999998E-03  -7.9999998E-02
  2.0200000E+00   9.9999998E-03  -5.9999999E-02
  2.0200000E+00   9.9999998E-03  -3.9999999E-02
  2.0200000E+00   9.9999998E-03  -2.0000000E-02
  2.0200000E+00   9.9999998E-03   0.0000000E+00
  2.0200000E+00   9.9999998E-03   2.0000000E-02
  2.0200000E+00   9.9999998E-03   3.9999999E-02
  2.0200000E+00   9.9999998E-03   5.9999999E-02
  2.0200000E+00   9.9999998E-03   7.9999998E-02
  2.0200000E+00   9.9999998E-03   1.0000000E-01
  2.0200000E+00   9.9999998E-03   1.2000000E-01
  2.0200000E+00   9.9999998E-03   1.4000000E-01
  2.0200000E+00   9.9999998E-03   1.6000000E-01
  2.0200000E+00   9.9999998E-03   1.8000001E-01
  2.0400000E+00   9.9999998E-03  -4.0000001E-01
  2.0400000E+00   9.9999998E-03  -3.8000000E-01
  2.0400000E+00   9.9999998E-03  -3.6000001E-01
  2.0400000E+00   9.9999998E-03  -3.4000000E-01
  2.0400000E+00   9.9999998E-03  -3.1999999E-01
  2.0400000E+00   9.9999998E-03  -3.0000001E-01
  2.0400000E+00   9.9999998E-03  -2.8000000E-01
  2.0400000E+00   9.9999998E-03  -2.5999999E-01
  2.0400000E+00   9.9999998E-03  -2.3999999E-01
  2.0400000E+00   9.9999998E-03  -2.2000000E-01
  2.0400000E+00   9.9999998E-03  -2.0000000E-01
  2.0400000E+00   9.9999998E-03  -1.8000001E-01
  2.0400000E+00   9.9999998E-03  -1.6000000E-01
  2.0400000E+00   9.9999998E-03  -1.4000000E-01
  2.0400000E+00   9.9999998E-03  -1.2000000E-01
  2.0400000E+00   9.9999998E-03  -1.0000000E-01
  2.0400000E+00   9.9999998E-03  -7.9999998E-02
  2.0400000E+00   9.9999998E-03  -5.9999999E-02
  2.0400000E+00   9.9999998E-03  -3.9999999E-02
  2.0400000E+00   9.9999998E-03  -2.0000000E-02
  2.0400000E+00   9.9999998E-03   0.0000000E+00
  2.0400000E+00   9.9999998E-03   2.0000000E-02
  2.0400000E+00   9.9999998E-03   3.9999999E-02
  2.0400000E+00   9.9999998E-03   5.9999999E-02
  2.0400000E+00   9.9999998E-03   7.9999998E-02
  2.0400000E+00   9.9999998E-03   1.0000000E-01
  2.0400000E+00   9.9999998E-03   1.2000000E-01
  2.0400000E+00   9.9999998E-03   1.4000000E-01
  2.0400000E+00   9.9999998E-03   1.6000000E-01
  2.0400000E+00   9.9999998E-03   1.8000001E-01
  2.0400000E+00   9.9999998E-03   2.0000000E-01
  2.0400000E+00   9.9999998E-03   2.2000000E-01
  2.0400000E+00   9.9999998E-03   2.3999999E-01
  2.0400000E+00   9.9999998E-03   2.5999999E-01
  2.0400000E+00   9.9999998E-03   2.8000000E-01
  2.0599999E+00   9.9999998E-03  -4.0000001E-01
  2.0599999E+00   9.9999998E-03  -3.8000000E-01
  2.0599999E+00   9.9999998E-03  -3.6000001E-01
  2.0599999E+00   9.9999998E-03  -3.4000000E-01
  2.0599999E+00   9.9999998E-03  -3.1999999E-01
  2.0599999E+00   9.9999998E-03  -3.0000001E-01
  2.0599999E+00   9.9999998E-03  -2.8000000E-01
  2.0599999E+00   9.9999998E-03  -2.5999999E-01
  2.0599999E+00   9.9999998E-03  -2.3999999E-01
  2.0599999E+00   9.9999998E-03  -2.2000000E-01
  2.0599999E+00   9.9999998E-03  -2.0000000E-01
  2.0599999E+00   9.9999998E-03  -1.8000001E-01
  2.0599999E+00   9.9999998E-03  -1.6000000E-01
  2.0599999E+00   9.9999998E-03  -1.4000000E-01
  2.0599999E+00   9.9999998E-03  -1.2000000E-01
  2.0599999E+00   9.9999998E-03  -1.0000000E-01
  2.0599999E+00   9.9999998E-03  -7.9999998E-02
  2.0599999E+00   9.9999998E-03  -5.9999999E-02
  2.0599999E+00   9.9999998E-03  -3.9999999E-02
  2.0599999E+00   9.9999998E-03  -2.0000000E-02
  2.0599999E+00   9.9999998E-03   0.0000000E+00
  2.0599999E+00   9.9999998E-03   2.0000000E-02
  2.0599999E+00   9.9999998E-03   3.9999999E-02
  2.0599999E+00   9.9999998E-03   5.9999999E-02
  2.0599999E+00   9.9999998E-03   7.9999998E-02
  2.0599999E+00   9.9999998E-03   1.0000000E-01
  2.0599999E+00   9.9999998E-03   1.2000000E-01
  2.0599999E+00   9.9999998E-03   1.4000000E-01
  2.0599999E+00   9.9999998E-03   1.6000000E-01
  2.0599999E+00   9.9999998E-03   1.8000001E-01
  2.0599999E+00   9.9999998E-03   2.0000000E-01
  2.0599999E+00   9.9999998E-03   2.2000000E-01
  2.0599999E+00   9.9999998E-03   2.3999999E-01
  2.0599999E+00   9.9999998E-03   2.5999999E-01
  2.0599999E+00   9.9999998E-03   2.8000000E-01
  2.0599999E+00   9.9999998E-03   3.0000001E-01
  2.0599999E+00   9.9999998E-03   3.1999999E-01
  2.0599999E+00   9.9999998E-03   3.4000000E-01
  2.0599999E+00   9.9999998E-03   3.6000001E-01
  2.0599999E+00   9.9999998E-03   3.8000000E-01
  2.0799999E+00   9.9999998E-03  -4.0000001E-01
  2.0799999E+00   9.9999998E-03  -3.8000000E-01
  2.0799999E+00   9.9999998E-03  -3.6000001E-01
  2.0799999E+00   9.9999998E-03  -3.4000000E-01
  2.0799999E+00   9.9999998E-03  -3.1999999E-01
  2.0799999E+00   9.9999998E-03  -3.0000001E-01
  2.0799999E+00   9.9999998E-03  -2.8000000E-01
  2.0799999E+00   9.9999998E-03  -2.5999999E-01
  2.0799999E+00   9.9999998E-03  -2.3999999E-01
  2.0799999E+00   9.9999998E-03  -2.2000000E-01
  2.0799999E+00   9.9999998E-03  -2.0000000E-01
  2.0799999E+00   9.9999998E-03  -1.8000001E-01
  2.0799999E+00   9.9999998E-03  -1.6000000E-01
  2.0799999E+00   9.9999998E-03  -1.4000000E-01
  2.0799999E+00   9.9999998E-03  -1.2000000E-01
  2.0799999E+00   9.9999998E-03  -1.0000000E-01
  2.0799999E+00   9.9999998E-03  -7.9999998E-02
  2.0799999E+00   9.9999998E-03  -5.9999999E-02
  2.0799999E+00   9.9999998E-03  -3.9999999E-02
  2.0799999E+00   9.9999998E-03  -2.0000000E-02
  2.0799999E+00   9.9999998E-03   0.0000000E+00
  2.0799999E+00   9.9999998E-03   2.0000000E-02
  2.0799999E+00   9.9999998E-03   3.9999999E-02
  2.0799999E+00   9.9999998E-03   5.9999999E-02
  2.0799999E+00   9.9999998E-03   7.9999998E-02
  2.0799999E+00   9.9999998E-03   1.0000000E-01
  2.0799999E+00   9.9999998E-03   1.2000000E-01
  2.0799999E+00   9.9999998E-03   1.4000000E-01
  2.0799999E+00   9.9999998E-03   1.6000000E-01
  2.0799999E+00   9.9999998E-03   1.8000001E-01
  2.0799999E+00   9.9999998E-03   2.0000000E-01
  2.0799999E+00   9.9999998E-03   2.2000000E-01
  2.0799999E+00   9.9999998E-03   2.3999999E-01
  2.0799999E+00   9.9999998E-03   2.5999999E-01
  2.0799999E+00   9.9999998E-03   2.8000000E-01
  2.0799999E+00   9.9999998E-03   3.0000001E-01
  2.0799999E+00   9.9999998E-03   3.1999999E-01
  2.0799999E+00   9.9999998E-03   3.4000000E-01
  2.0799999E+00   9.9999998E-03   3.6000001E-01
  2.0799999E+00   9.9999998E-03   3.8000000E-01
  2.0799999E+00   9.9999998E-03   4.0000001E-01
  2.0999999E+00   9.9999998E-03  -4.0000001E-01
  2.0999999E+00   9.9999998E-03  -3.8000000E-01
  2.0999999E+00   9.9999998E-03  -3.6000001E-01
  2.0999999E+00   9.9999998E-03  -3.4000000E-01
  2.0999999E+00   9.9999998E-03  -3.1999999E-01
  2.0999999E+00   9.9999998E-03  -3.0000001E-01
  2.0999999E+00   9.9999998E-03  -2.8000000E-01
  2.0999999E+00   9.9999998E-03  -2.5999999E-01
  2.0999999E+00   9.9999998E-03  -2.3999999E-01
  2.0999999E+00   9.9999998E-03  -2.2000000E-01
  2.0999999E+00   9.9999998E-03  -2.0000000E-01
  2.0999999E+00   9.9999998E-03  -1.8000001E-01
  2.0999999E+00   9.9999998E-03  -1.6000000E-01
  2.0999999E+00   9.9999998E-03  -1.4000000E-01
  2.0999999E+00   9.9999998E-03  -1.2000000E-01
  2.0999999E+00   9.9999998E-03  -1.0000000E-01
  2.0999999E+00   9.9999998E-03  -7.9999998E-02
  2.0999999E+00   9.9999998E-03  -5.9999999E-02
  2.0999999E+00   9.9999998E-03  -3.9999999E-02
  2.0999999E+00   9.9999998E-03  -2.0000000E-02
  2.0999999E+00   9.9999998E-03   0.0000000E+00
  2.0999999E+00   9.9999998E-03   2.0000000E-02
  2.0999999E+00   9.9999998E-03   3.9999999E-02
  2.0999999E+00   9.9999998E-03   5.9999999E-02
  2.0999999E+00   9.9999998E-03   7.9999998E-02
  2.0999999E+00   9.9999998E-03   1.0000000E-01
  2.0999999E+00   9.9999998E-03   1.2000000E-01
  2.0999999E+00   9.9999998E-03   1.4000000E-01
  2.0999999E+00   9.9999998E-03   1.6000000E-01
  2.0999999E+00   9.9999998E-03   1.8000001E-01
  2.0999999E+00   9.9999998E-03   2.0000000E-01
  2.0999999E+00   9.9999998E-03   2.2000000E-01
  2.0999999E+00   9.9999998E-03   2.3999999E-01
  2.0999999E+00   9.9999998E-03   2.5999999E-01
  2.0999999E+00   9.9999998E-03   2.8000000E-01
  2.0999999E+00   9.9999998E-03   3.0000001E-01
  2.0999999E+00   9.9999998E-03   3.1999999E-01
  2.0999999E+00   9.9999998E-03   3.4000000E-01
  2.0999999E+00   9.9999998E-03   3.6000001E-01
  2.0999999E+00   9.9999998E-03   3.8000000E-01
  2.0999999E+00   9.9999998E-03   4.0000001E-01
  2.1199999E+00   9.9999998E-03  -4.1999999E-01
  2.1199999E+00   9.9999998E-03  -4.0000001E-01
  2.1199999E+00   9.9999998E-03  -3.8000000E-01
  2.1199999E+00   9.9999998E-03  -3.6000001E-01
  2.1199999E+00   9.9999998E-03  -3.4000000E-01
  2.1199999E+00   9.9999998E-03  -3.1999999E-01
  2.1199999E+00   9.9999998E-03  -3.0000001E-01
  2.1199999E+00   9.9999998E-03  -2.8000000E-01
  2.1199999E+00   9.9999998E-03  -2.5999999E-01
  2.1199999E+00   9.9999998E-03  -2.3999999E-01
  2.1199999E+00   9.9999998E-03  -2.2000000E-01
  2.1199999E+00   9.9999998E-03  -2.0000000E-01
  2.1199999E+00   9.9999998E-03  -1.8000001E-01
  2.1199999E+00   9.9999998E-03  -1.6000000E-01
  2.1199999E+00   9.9999998E-03  -1.4000000E-01
  2.1199999E+00   9.9999998E-03  -1.2000000E-01
  2.1199999E+00   9.9999998E-03  -1.0000000E-01
  2.1199999E+00   9.9999998E-03  -7.9999998E-02
  2.1199999E+00   9.9999998E-03  -5.9999999E-02
  2.1199999E+00   9.9999998E-03  -3.9999999E-02
  2.1199999E+00   9.9999998E-03  -2.0000000E-02
  2.1199999E+00   9.9999998E-03   0.0000000E+00
  2.1199999E+00   9.9999998E-03   2.0000000E-02
  2.1199999E+00   9.9999998E-03   3.9999999E-02
  2.1199999E+00   9.9999998E-03   5.9999999E-02
  2.1199999E+00   9.9999998E-03   7.9999998E-02
  2.1199999E+00   9.9999998E-03   1.0000000E-01
  2.1199999E+00   9.9999998E-03   1.2000000E-01
  2.1199999E+00   9.9999998E-03   1.4000000E-01
  2.1199999E+00   9.9999998E-03   1.6000000E-01
  2.1199999E+00   9.9999998E-03   1.8000001E-01
  2.1199999E+00   9.9999998E-03   2.0000000E-01
  2.1199999E+00   9.9999998E-03   2.2000000E-01
  2.1199999E+00   9.9999998E-03   2.3999999E-01
  2.1199999E+00   9.9999998E-03   2.5999999E-01
  2.1199999E+00   9.9999998E-03   2.8000000E-01
  2.1199999E+00   9.9999998E-03   3.0000001E-01
  2.1199999E+00   9.9999998E-03   3.1999999E-01
  2.1199999E+00   9.9999998E-03   3.4000000E-01
  2.1199999E+00   9.9999998E-03   3.6000001E-01
  2.1199999E+00   9.9999998E-03   3.8000000E-01
  2.1199999E+00   9.9999998E-03   4.0000001E-01
  2.1400001E+00   9.9999998E-03  -3.8000000E-01
  2.1400001E+00   9.9999998E-03  -3.6000001E-01
  2.1400001E+00   9.9999998E-03  -3.4000000E-01
  2.1400001E+00   9.9999998E-03  -3.1999999E-01
  2.1400001E+00   9.9999998E-03  -3.0000001E-01
  2.1400001E+00   9.9999998E-03  -2.8000000E-01
  2.1400001E+00   9.9999998E-03  -2.5999999E-01
  2.1400001E+00   9.9999998E-03  -2.3999999E-01
  2.1400001E+00   9.9999998E-03  -2.2000000E-01
  2.1400001E+00   9.9999998E-03  -2.0000000E-01
  2.1400001E+00   9.9999998E-03  -1.8000001E-01
  2.1400001E+00   9.9999998E-03  -1.6000000E-01
  2.1400001E+00   9.9999998E-03  -1.4000000E-01
  2.1400001E+00   9.9999998E-03  -1.2000000E-01
  2.1400001E+00   9.9999998E-03  -1.0000000E-01
  2.1400001E+00   9.9999998E-03  -7.9999998E-02
  2.1400001E+00   9.9999998E-03  -5.9999999E-02
  2.1400001E+00   9.9999998E-03  -3.9999999E-02
  2.1400001E+00   9.9999998E-03  -2.0000000E-02
  2.1400001E+00   9.9999998E-03   0.0000000E+00
  2.1400001E+00   9.9999998E-03   2.0000000E-02
  2.1400001E+00   9.9999998E-03   3.9999999E-02
  2.1400001E+00   9.9999998E-03   5.9999999E-02
  2.1400001E+00   9.9999998E-03   7.9999998E-02
  2.1400001E+00   9.9999998E-03   1.0000000E-01
  2.1400001E+00   9.9999998E-03   1.2000000E-01
  2.1400001E+00   9.9999998E-03   1.4000000E-01
  2.1400001E+00   9.9999998E-03   1.6000000E-01
  2.1400001E+00   9.9999998E-03   1.8000001E-01
  2.1400001E+00   9.9999998E-03   2.0000000E-01
  2.1400001E+00   9.9999998E-03   2.2000000E-01
  2.1400001E+00   9.9999998E-03   2.3999999E-01
  2.1400001E+00   9.9999998E-03   2.5999999E-01
  2.1400001E+00   9.9999998E-03   2.8000000E-01
  2.1400001E+00   9.9999998E-03   3.0000001E-01
  2.1400001E+00   9.9999998E-03   3.1999999E-01
  2.1400001E+00   9.9999998E-03   3.4000000E-01
  2.1400001E+00   9.9999998E-03   3.6000001E-01
  2.1400001E+00   9.9999998E-03   3.8000000E-01
  2.1400001E+00   9.9999998E-03   4.0000001E-01
  2.1600001E+00   9.9999998E-03  -2.8000000E-01
  2.1600001E+00   9.9999998E-03  -2.5999999E-01
  2.1600001E+00   9.9999998E-03  -2.3999999E-01
  2.1600001E+00   9.9999998E-03  -2.2000000E-01
  2.1600001E+00   9.9999998E-03  -2.0000000E-01
  2.1600001E+00   9.9999998E-03  -1.8000001E-01
  2.1600001E+00   9.9999998E-03  -1.6000000E-01
  2.1600001E+00   9.9999998E-03  -1.4000000E-01
  2.1600001E+00   9.9999998E-03  -1.2000000E-01
  2.1600001E+00   9.9999998E-03  -1.0000000E-01
  2.1600001E+00   9.9999998E-03  -7.9999998E-02
  2.1600001E+00   9.9999998E-03  -5.9999999E-02
  2.1600001E+00   9.9999998E-03  -3.9999999E-02
  2.1600001E+00   9.9999998E-03  -2.0000000E-02
  2.1600001E+00   9.9999998E-03   0.0000000E+00
  2.1600001E+00   9.9999998E-03   2.0000000E-02
  2.1600001E+00   9.9999998E-03   3.9999999E-02
  2.1600001E+00   9.9999998E-03   5.9999999E-02
  2.1600001E+00   9.9999998E-03   7.9999998E-02
  2.1600001E+00   9.9999998E-03   1.0000000E-01
  2.1600001E+00   9.9999998E-03   1.2000000E-01
  2.1600001E+00   9.9999998E-03   1.4000000E-01
  2.1600001E+00   9.9999998E-03   1.6000000E-01
  2.1600001E+00   9.9999998E-03   1.8000001E-01
  2.1600001E+00   9.9999998E-03   2.0000000E-01
  2.1600001E+00   9.9999998E-03   2.2000000E-01
  2.1600001E+00   9.9999998E-03   2.3999999E-01
  2.1600001E+00   9.9999998E-03   2.5999999E-01
  2.1600001E+00   9.9999998E-03   2.8000000E-01
  2.1600001E+00   9.9999998E-03   3.0000001E-01
  2.1600001E+00   9.9999998E-03   3.1999999E-01
  2.1600001E+00   9.9999998E-03   3.4000000E-01
  2.1600001E+00   9.9999998E-03   3.6000001E-01
  2.1600001E+00   9.9999998E-03   3.8000000E-01
  2.1600001E+00   9.9999998E-03   4.0000001E-01
  2.1800001E+00   9.9999998E-03  -1.8000001E-01
  2.1800001E+00   9.9999998E-03  -1.6000000E-01
  2.1800001E+00   9.9999998E-03  -1.4000000E-01
  2.1800001E+00   9.9999998E-03  -1.2000000E-01
  2.1800001E+00   9.9999998E-03  -1.0000000E-01
  2.1800001E+00   9.9999998E-03  -7.9999998E-02
  2.1800001E+00   9.9999998E-03  -5.9999999E-02
  2.1800001E+00   9.9999998E-03  -3.9999999E-02
  2.1800001E+00   9.9999998E-03  -2.0000000E-02
  2.1800001E+00   9.9999998E-03   0.0000000E+00
  2.1800001E+00   9.9999998E-03   2.0000000E-02
  2.1800001E+00   9.9999998E-03   3.9999999E-02
  2.1800001E+00   9.9999998E-03   5.9999999E-02
  2.1800001E+00   9.9999998E-03   7.9999998E-02
  2.1800001E+00   9.9999998E-03   1.0000000E-01
  2.1800001E+00   9.9999998E-03   1.2000000E-01
  2.1800001E+00   9.9999998E-03   1.4000000E-01
  2.1800001E+00   9.9999998E-03   1.6000000E-01
  2.1800001E+00   9.9999998E-03   1.8000001E-01
  2.1800001E+00   9.9999998E-03   2.0000000E-01
  2.1800001E+00   9.9999998E-03   2.2000000E-01
  2.1800001E+00   9.9999998E-03   2.3999999E-01
  2.1800001E+00   9.9999998E-03   2.5999999E-01
  2.1800001E+00   9.9999998E-03   2.8000000E-01
  2.1800001E+00   9.9999998E-03   3.0000001E-01
  2.1800001E+00   9.9999998E-03   3.1999999E-01
  2.1800001E+00   9.9999998E-03   3.4000000E-01
  2.1800001E+00   9.9999998E-03   3.6000001E-01
  2.1800001E+00   9.9999998E-03   3.8000000E-01
  2.1800001E+00   9.9999998E-03   4.0000001E-01
  2.2000000E+00   9.9999998E-03  -7.9999998E-02
  2.2000000E+00   9.9999998E-03  -5.9999999E-02
  2.2000000E+00   9.9999998E-03  -3.9999999E-02
  2.2000000E+00   9.9999998E-03  -2.0000000E-02
  2.2000000E+00   9.9999998E-03   0.0000000E+00
  2.2000000E+00   9.9999998E-03   2.0000000E-02
  2.2000000E+00   9.9999998E-03   3.9999999E-02
  2.2000000E+00   9.9999998E-03   5.9999999E-02
  2.2000000E+00   9.9999998E-03   7.9999998E-02
  2.2000000E+00   9.9999998E-03   1.0000000E-01
  2.2000000E+00   9.9999998E-03   1.2000000E-01
  2.2000000E+00   9.9999998E-03   1.4000000E-01
  2.2000000E+00   9.9999998E-03   1.6000000E-01
  2.2000000E+00   9.9999998E-03   1.8000001E-01
  2.2000000E+00   9.9999998E-03   2.0000000E-01
  2.2000000E+00   9.9999998E-03   2.2000000E-01
  2.2000000E+00   9.9999998E-03   2.3999999E-01
  2.2000000E+00   9.9999998E-03   2.5999999E-01
  2.2000000E+00   9.9999998E-03   2.8000000E-01
  2.2000000E+00   9.9999998E-03   3.0000001E-01
  2.2000000E+00   9.9999998E-03   3.1999999E-01
  2.2000000E+00   9.9999998E-03   3.4000000E-01
  2.2000000E+00   9.9999998E-03   3.6000001E-01
  2.2000000E+00   9.9999998E-03   3.8000000E-01
  2.2200000E+00   9.9999998E-03   2.0000000E-02
  2.2200000E+00   9.9999998E-03   3.9999999E-02
  2.2200000E+00   9.9999998E-03   5.9999999E-02
  2.2200000E+00   9.9999998E-03   7.9999998E-02
  2.2200000E+00   9.9999998E-03   1.0000000E-01
  2.2200000E+00   9.9999998E-03   1.2000000E-01
  2.2200000E+00   9.9999998E-03   1.4000000E-01
  2.2200000E+00   9.9999998E-03   1.6000000E-01
  2.2200000E+00   9.9999998E-03   1.8000001E-01
  2.2200000E+00   9.9999998E-03   2.0000000E-01
  2.2200000E+00   9.9999998E-03   2.2000000E-01
  2.2200000E+00   9.9999998E-03   2.3999999E-01
  2.2200000E+00   9.9999998E-03   2.5999999E-01
  2.2200000E+00   9.9999998E-03   2.8000000E-01
  2.2200000E+00   9.9999998E-03   3.0000001E-01
  2.2200000E+00   9.9999998E-03   3.1999999E-01
  2.2200000E+00   9.9999998E-03   3.4000000E-01
  2.2200000E+00   9.9999998E-03   3.6000001E-01
  2.2200000E+00   9.9999998E-03   3.8000000E-01
  2.2400000E+00   9.9999998E-03   1.2000000E-01
  2.2400000E+00   9.9999998E-03   1.4000000E-01
  2.2400000E+00   9.9999998E-03   1.6000000E-01
  2.2400000E+00   9.9999998E-03   1.8000001E-01
  2.2400000E+00   9.9999998E-03   2.0000000E-01
  2.2400000E+00   9.9999998E-03   2.2000000E-01
  2.2400000E+00   9.9999998E-03   2.3999999E-01
  2.2400000E+00   9.9999998E-03   2.5999999E-01
  2.2400000E+00   9.9999998E-03   2.8000000E-01
  2.2400000E+00   9.9999998E-03   3.0000001E-01
  2.2400000E+00   9.9999998E-03   3.1999999E-01
  2.2400000E+00   9.9999998E-03   3.4000000E-01
  2.2400000E+00   9.9999998E-03   3.6000001E-01
  2.2400000E+00   9.9999998E-03   3.8000000E-01
  2.2600000E+00   9.9999998E-03   2.2000000E-01
  2.2600000E+00   9.9999998E-03   2.3999999E-01
  2.2600000E+00   9.9999998E-03   2.5999999E-01
  2.2600000E+00   9.9999998E-03   2.8000000E-01
  2.2600000E+00   9.9999998E-03   3.0000001E-01
  2.2600000E+00   9.9999998E-03   3.1999999E-01
  2.2600000E+00   9.9999998E-03   3.4000000E-01
  2.2600000E+00   9.9999998E-03   3.6000001E-01
  2.2600000E+00   9.9999998E-03   3.8000000E-01
  2.2800000E+00   9.9999998E-03   3.1999999E-01
  2.2800000E+00   9.9999998E-03   3.4000000E-01
  2.2800000E+00   9.9999998E-03   3.6000001E-01
 -2.4651511E-12   9.9999998E-03  -2.8000000E-01
 -3.0514046E-12   9.9999998E-03  -2.5999999E-01
 -3.5542550E-12   9.9999998E-03  -2.3999999E-01
 -3.9786395E-12   9.9999998E-03  -2.2000000E-01
 -4.3298503E-12   9.9999998E-03  -2.0000000E-01
  2.0000000E-02   9.9999998E-03  -3.0000001E-01
  2.0000000E-02   9.9999998E-03  -2.8000000E-01
  2.0000000E-02   9.9999998E-03  -2.5999999E-01
  2.0000000E-02   9.9999998E-03  -2.3999999E-01
  2.0000000E-02   9.9999998E-03  -2.2000000E-01
  2.0000000E-02   9.9999998E-03  -2.0000000E-01
  3.9999999E-02   9.9999998E-03  -3.0000001E-01
  3.9999999E-02   9.9999998E-03  -2.8000000E-01
  3.9999999E-02   9.9999998E-03  -2.5999999E-01
  3.9999999E-02   9.9999998E-03  -2.3999999E-01
  3.9999999E-02   9.9999998E-03  -2.2000000E-01
  3.9999999E-02   9.9999998E-03  -2.0000000E-01
  5.9999999E-02   9.9999998E-03  -3.0000001E-01
  5.9999999E-02   9.9999998E-03  -2.8000000E-01
  5.9999999E-02   9.9999998E-03  -2.5999999E-01
  5.9999999E-02   9.9999998E-03  -2.3999999E-01
  5.9999999E-02   9.9999998E-03  -2.2000000E-01
  5.9999999E-02   9.9999998E-03  -2.0000000E-01
  7.9999998E-02   9.9999998E-03  -3.0000001E-01
  7.9999998E-02   9.9999998E-03  -2.8000000E-01
  7.9999998E-02   9.9999998E-03  -2.5999999E-01
  7.9999998E-02   9.9999998E-03  -2.3999999E-01
  7.9999998E-02   9.9999998E-03  -2.2000000E-01
  7.9999998E-02   9.9999998E-03  -2.0000000E-01
  1.0000000E-01   9.9999998E-03  -3.0000001E-01
  1.0000000E-01   9.9999998E-03  -2.8000000E-01
  1.0000000E-01   9.9999998E-03  -2.5999999E-01
  1.0000000E-01   9.9999998E-03  -2.3999999E-01
  1.0000000E-01   9.9999998E-03  -2.2000000E-01
  1.0000000E-01   9.9999998E-03  -2.0000000E-01
  1.2000000E-01   9.9999998E-03  -3.0000001E-01
  1.2000000E-01   9.9999998E-03  -2.8000000E-01
  1.2000000E-01   9.9999998E-03  -2.5999999E-01
  1.2000000E-01   9.9999998E-03  -2.3999999E-01
  1.2000000E-01   9.9999998E-03  -2.2000000E-01
  1.2000000E-01   9.9999998E-03  -2.0000000E-01
  1.4000000E-01   9.9999998E-03  -3.0000001E-01
  1.4000000E-01   9.9999998E-03  -2.8000000E-01
  1.4000000E-01   9.9999998E-03  -2.5999999E-01
  1.4000000E-01   9.9999998E-03  -2.3999999E-01
  1.4000000E-01   9.9999998E-03  -2.2000000E-01
  1.4000000E-01   9.9999998E-03  -2.0000000E-01
  1.6000000E-01   9.9999998E-03  -3.0000001E-01
  1.6000000E-01   9.9999998E-03  -2.8000000E-01
  1.6000000E-01   9.9999998E-03  -2.5999999E-01
  1.6000000E-01   9.9999998E-03  -2.3999999E-01
  1.6000000E-01   9.9999998E-03  -2.2000000E-01
  1.6000000E-01   9.9999998E-03  -2.0000000E-01
  1.7999999E-01   9.9999998E-03  -3.0000001E-01
  1.7999999E-01   9.9999998E-03  -2.8000000E-01
  1.7999999E-01   9.9999998E-03  -2.5999999E-01
  1.7999999E-01   9.9999998E-03  -2.3999999E-01
  1.7999999E-01   9.9999998E-03  -2.2000000E-01
  1.7999999E-01   9.9999998E-03  -2.0000000E-01
  2.0000000E-01   9.9999998E-03  -3.0000001E-01
  2.0000000E-01   9.9999998E-03  -2.8000000E-01
  2.0000000E-01   9.9999998E-03  -2.5999999E-01
  2.0000000E-01   9.9999998E-03  -2.3999999E-01
  2.0000000E-01   9.9999998E-03  -2.2000000E-01
  2.0000000E-01   9.9999998E-03  -2.0000000E-01
  2.2000000E-01   9.9999998E-03  -3.0000001E-01
  2.2000000E-01   9.9999998E-03  -2.8000000E-01
  2.2000000E-01   9.9999998E-03  -2.5999999E-01
  2.2000000E-01   9.9999998E-03  -2.3999999E-01
  2.2000000E-01   9.9999998E-03  -2.2000000E-01
  2.2000000E-01   9.9999998E-03  -2.0000000E-01
  2.3999999E-01   9.9999998E-03  -3.0000001E-01
  2.3999999E-01   9.9999998E-03  -2.8000000E-01
  2.3999999E-01   9.9999998E-03  -2.5999999E-01
  2.3999999E-01   9.9999998E-03  -2.3999999E-01
  2.3999999E-01   9.9999998E-03  -2.2000000E-01
  2.3999999E-01   9.9999998E-03  -2.0000000E-01
  2.5999999E-01   9.9999998E-03  -3.0000001E-01
  2.5999999E-01   9.9999998E-03  -2.8000000E-01
  2.5999999E-01   9.9999998E-03  -2.5999999E-01
  2.5999999E-01   9.9999998E-03  -2.3999999E-01
  2.5999999E-01   9.9999998E-03  -2.2000000E-01
  2.5999999E-01   9.9999998E-03  -2.0000000E-01
  2.8000000E-01   9.9999998E-03  -3.0000001E-01
  2.8000000E-01   9.9999998E-03  -2.8000000E-01
  2.8000000E-01   9.9999998E-03  -2.5999999E-01
  2.8000000E-01   9.9999998E-03  -2.3999999E-01
  2.8000000E-01   9.9999998E-03  -2.2000000E-01
  2.8000000E-01   9.9999998E-03  -2.0000000E-01
  2.9999998E-01   9.9999998E-03  -3.0000001E-01
  2.9999998E-01   9.9999998E-03  -2.8000000E-01
  2.9999998E-01   9.9999998E-03  -2.5999999E-01
  2.9999998E-01   9.9999998E-03  -2.3999999E-01
  2.9999998E-01   9.9999998E-03  -2.2000000E-01
  2.9999998E-01   9.9999998E-03  -2.0000000E-01
  3.1999999E-01   9.9999998E-03  -3.0000001E-01
  3.1999999E-01   9.9999998E-03  -2.8000000E-01
  3.1999999E-01   9.9999998E-03  -2.5999999E-01
  3.1999999E-01   9.9999998E-03  -2.4000001E-01
  3.1999999E-01   9.9999998E-03  -2.2000000E-01
  3.1999999E-01   9.9999998E-03  -2.0000000E-01
  3.3999997E-01   9.9999998E-03  -3.0000001E-01
  3.3999997E-01   9.9999998E-03  -2.8000000E-01
  3.3999997E-01   9.9999998E-03  -2.6000002E-01
  3.3999997E-01   9.9999998E-03  -2.4000001E-01
  3.3999997E-01   9.9999998E-03  -2.2000000E-01
  3.3999997E-01   9.9999998E-03  -2.0000000E-01
  3.5999995E-01   9.9999998E-03  -3.0000001E-01
  3.5999995E-01   9.9999998E-03  -2.8000000E-01
  3.5999995E-01   9.9999998E-03  -2.6000002E-01
  3.5999995E-01   9.9999998E-03  -2.4000001E-01
  3.5999995E-01   9.9999998E-03  -2.2000000E-01
  3.5999995E-01   9.9999998E-03  -2.0000000E-01
  3.7999994E-01   9.9999998E-03  -3.0000001E-01
  3.7999994E-01   9.9999998E-03  -2.8000003E-01
  3.7999994E-01   9.9999998E-03  -2.6000002E-01
  3.7999994E-01   9.9999998E-03  -2.4000001E-01
  3.7999994E-01   9.9999998E-03  -2.2000001E-01
  3.7999994E-01   9.9999998E-03  -2.0000000E-01
  3.9999992E-01   9.9999998E-03  -3.0000004E-01
  3.9999992E-01   9.9999998E-03  -2.8000003E-01
  3.9999992E-01   9.9999998E-03  -2.6000002E-01
  3.9999989E-01   9.9999998E-03  -2.4000001E-01
  3.9999989E-01   9.9999998E-03  -2.2000001E-01
  3.9999989E-01   9.9999998E-03  -2.0000000E-01
  4.1999987E-01   9.9999998E-03  -3.0000004E-01
  4.1999987E-01   9.9999998E-03  -2.8000003E-01
  4.1999987E-01   9.9999998E-03  -2.6000002E-01
  4.1999984E-01   9.9999998E-03  -2.4000002E-01
  4.1999984E-01   9.9999998E-03  -2.2000001E-01
  4.1999984E-01   9.9999998E-03  -2.0000002E-01
  4.3999982E-01   9.9999998E-03  -3.0000007E-01
  4.3999979E-01   9.9999998E-03  -2.8000006E-01
  4.3999979E-01   9.9999998E-03  -2.6000005E-01
  4.3999979E-01   9.9999998E-03  -2.4000002E-01
  4.3999979E-01   9.9999998E-03  -2.2000003E-01
  4.3999976E-01   9.9999998E-03  -2.0000002E-01
  4.5999971E-01   9.9999998E-03  -3.0000013E-01
  4.5999968E-01   9.9999998E-03  -2.8000009E-01
  4.5999968E-01   9.9999998E-03  -2.6000005E-01
  4.5999968E-01   9.9999998E-03  -2.4000004E-01
  4.5999968E-01   9.9999998E-03  -2.2000003E-01
  4.5999968E-01   9.9999998E-03  -2.0000003E-01
  4.7999957E-01   9.9999998E-03  -3.0000019E-01
  4.7999954E-01   9.9999998E-03  -2.8000012E-01
  4.7999954E-01   9.9999998E-03  -2.6000008E-01
  4.7999951E-01   9.9999998E-03  -2.4000007E-01
  4.7999951E-01   9.9999998E-03  -2.2000006E-01
  4.7999951E-01   9.9999998E-03  -2.0000005E-01
  4.9999934E-01   9.9999998E-03  -3.0000028E-01
  4.9999931E-01   9.9999998E-03  -2.8000018E-01
  4.9999931E-01   9.9999998E-03  -2.6000014E-01
  4.9999931E-01   9.9999998E-03  -2.4000010E-01
  4.9999931E-01   9.9999998E-03  -2.2000009E-01
  4.9999931E-01   9.9999998E-03  -2.0000006E-01
  5.1999903E-01   9.9999998E-03  -3.0000043E-01
  5.1999903E-01   9.9999998E-03  -2.8000030E-01
  5.1999903E-01   9.9999998E-03  -2.6000020E-01
  5.1999903E-01   9.9999998E-03  -2.4000016E-01
  5.1999903E-01   9.9999998E-03  -2.2000013E-01
  5.1999903E-01   9.9999998E-03  -2.0000011E-01
  5.3999853E-01   9.9999998E-03  -3.0000070E-01
  5.3999859E-01   9.9999998E-03  -2.8000048E-01
  5.3999865E-01   9.9999998E-03  -2.6000035E-01
  5.3999871E-01   9.9999998E-03  -2.4000026E-01
  5.3999865E-01   9.9999998E-03  -2.2000019E-01
  5.3999865E-01   9.9999998E-03  -2.0000015E-01
  5.5999792E-01   9.9999998E-03  -3.0000111E-01
  5.5999810E-01   9.9999998E-03  -2.8000081E-01
  5.5999821E-01   9.9999998E-03  -2.6000056E-01
  5.5999821E-01   9.9999998E-03  -2.4000038E-01
  5.5999821E-01   9.9999998E-03  -2.2000028E-01
  5.5999821E-01   9.9999998E-03  -2.0000021E-01
  5.7999718E-01   9.9999998E-03  -3.0000183E-01
  5.7999754E-01   9.9999998E-03  -2.8000134E-01
  5.7999766E-01   9.9999998E-03  -2.6000085E-01
  5.7999772E-01   9.9999998E-03  -2.4000055E-01
  5.7999772E-01   9.9999998E-03  -2.2000037E-01
  5.7999772E-01   9.9999998E-03  -2.0000027E-01
  5.9999639E-01   9.9999998E-03  -3.0000302E-01
  5.9999686E-01   9.9999998E-03  -2.8000224E-01
  5.9999704E-01   9.9999998E-03  -2.6000136E-01
  5.9999716E-01   9.9999998E-03  -2.4000080E-01
  5.9999716E-01   9.9999998E-03  -2.2000049E-01
  5.9999716E-01   9.9999998E-03  -2.0000033E-01
  6.1999571E-01   9.9999998E-03  -3.0000508E-01
  6.1999625E-01   9.9999998E-03  -2.8000382E-01
  6.1999649E-01   9.9999998E-03  -2.6000234E-01
  6.1999655E-01   9.9999998E-03  -2.4000123E-01
  6.1999661E-01   9.9999998E-03  -2.2000065E-01
  6.1999667E-01   9.9999998E-03  -2.0000039E-01
  6.3999528E-01   9.9999998E-03  -3.0000821E-01
  6.3999581E-01   9.9999998E-03  -2.8000638E-01
  6.3999599E-01   9.9999998E-03  -2.6000392E-01
  6.3999605E-01   9.9999998E-03  -2.4000204E-01
  6.3999611E-01   9.9999998E-03  -2.2000098E-01
  6.3999617E-01   9.9999998E-03  -2.0000049E-01
  6.5999526E-01   9.9999998E-03  -3.0001196E-01
  6.5999568E-01   9.9999998E-03  -2.8000951E-01
  6.5999573E-01   9.9999998E-03  -2.6000592E-01
  6.5999573E-01   9.9999998E-03  -2.4000306E-01
  6.5999579E-01   9.9999998E-03  -2.2000143E-01
  6.5999591E-01   9.9999998E-03  -2.0000066E-01
  6.7999566E-01   9.9999998E-03  -3.0001521E-01
  6.7999595E-01   9.9999998E-03  -2.8001225E-01
  6.7999595E-01   9.9999998E-03  -2.6000768E-01
  6.7999589E-01   9.9999998E-03  -2.4000399E-01
  6.7999595E-01   9.9999998E-03  -2.2000183E-01
  6.7999601E-01   9.9999998E-03  -2.0000081E-01
  6.9999659E-01   9.9999998E-03  -3.0001736E-01
  6.9999665E-01   9.9999998E-03  -2.8001407E-01
  6.9999665E-01   9.9999998E-03  -2.6000887E-01
  6.9999659E-01   9.9999998E-03  -2.4000461E-01
  6.9999659E-01   9.9999998E-03  -2.2000213E-01
  6.9999665E-01   9.9999998E-03  -2.0000093E-01
  7.1999758E-01   9.9999998E-03  -3.0001864E-01
  7.1999758E-01   9.9999998E-03  -2.8001508E-01
  7.1999758E-01   9.9999998E-03  -2.6000953E-01
  7.1999758E-01   9.9999998E-03  -2.4000496E-01
  7.1999764E-01   9.9999998E-03  -2.2000229E-01
  7.1999764E-01   9.9999998E-03  -2.0000102E-01
  7.3999852E-01   9.9999998E-03  -3.0001932E-01
  7.3999852E-01   9.9999998E-03  -2.8001565E-01
  7.3999852E-01   9.9999998E-03  -2.6000988E-01
  7.3999852E-01   9.9999998E-03  -2.4000515E-01
  7.3999858E-01   9.9999998E-03  -2.2000238E-01
  7.3999858E-01   9.9999998E-03  -2.0000106E-01
  7.5999928E-01   9.9999998E-03  -3.0001968E-01
  7.5999928E-01   9.9999998E-03  -2.8001595E-01
  7.5999928E-01   9.9999998E-03  -2.6001006E-01
  7.5999928E-01   9.9999998E-03  -2.4000525E-01
  7.5999928E-01   9.9999998E-03  -2.2000244E-01
  7.5999928E-01   9.9999998E-03  -2.0000109E-01
  7.7999979E-01   9.9999998E-03  -3.0001983E-01
  7.7999979E-01   9.9999998E-03  -2.8001606E-01
  7.7999979E-01   9.9999998E-03  -2.6001015E-01
  7.7999979E-01   9.9999998E-03  -2.4000528E-01
  7.7999979E-01   9.9999998E-03  -2.2000246E-01
  7.7999979E-01   9.9999998E-03  -2.0000111E-01
  8.0000019E-01   9.9999998E-03  -3.0001983E-01
  8.0000019E-01   9.9999998E-03  -2.8001603E-01
  8.0000019E-01   9.9999998E-03  -2.6001012E-01
  8.0000019E-01   9.9999998E-03  -2.4000528E-01
  8.0000019E-01   9.9999998E-03  -2.2000246E-01
  8.0000019E-01   9.9999998E-03  -2.0000111E-01
  8.2000059E-01   9.9999998E-03  -3.0001974E-01
  8.2000059E-01   9.9999998E-03  -2.8001598E-01
  8.2000059E-01   9.9999998E-03  -2.6001006E-01
  8.2000059E-01   9.9999998E-03  -2.4000525E-01
  8.2000059E-01   9.9999998E-03  -2.2000244E-01
  8.2000053E-01   9.9999998E-03  -2.0000109E-01
  8.4000093E-01   9.9999998E-03  -3.0001938E-01
  8.4000093E-01   9.9999998E-03  -2.8001568E-01
  8.4000093E-01   9.9999998E-03  -2.6000988E-01
  8.4000093E-01   9.9999998E-03  -2.4000515E-01
  8.4000093E-01   9.9999998E-03  -2.2000240E-01
  8.4000093E-01   9.9999998E-03  -2.0000108E-01
  8.6000133E-01   9.9999998E-03  -3.0001876E-01
  8.6000133E-01   9.9999998E-03  -2.8001517E-01
  8.6000133E-01   9.9999998E-03  -2.6000956E-01
  8.6000133E-01   9.9999998E-03  -2.4000499E-01
  8.6000133E-01   9.9999998E-03  -2.2000231E-01
  8.6000133E-01   9.9999998E-03  -2.0000103E-01
  8.8000172E-01   9.9999998E-03  -3.0001789E-01
  8.8000172E-01   9.9999998E-03  -2.8001446E-01
  8.8000172E-01   9.9999998E-03  -2.6000911E-01
  8.8000172E-01   9.9999998E-03  -2.4000475E-01
  8.8000166E-01   9.9999998E-03  -2.2000220E-01
  8.8000166E-01   9.9999998E-03  -2.0000099E-01
  9.0000200E-01   9.9999998E-03  -3.0001682E-01
  9.0000200E-01   9.9999998E-03  -2.8001359E-01
  9.0000200E-01   9.9999998E-03  -2.6000857E-01
  9.0000200E-01   9.9999998E-03  -2.4000446E-01
  9.0000200E-01   9.9999998E-03  -2.2000207E-01
  9.0000200E-01   9.9999998E-03  -2.0000093E-01
  9.2000228E-01   9.9999998E-03  -3.0001557E-01
  9.2000228E-01   9.9999998E-03  -2.8001258E-01
  9.2000228E-01   9.9999998E-03  -2.6000795E-01
  9.2000228E-01   9.9999998E-03  -2.4000414E-01
  9.2000222E-01   9.9999998E-03  -2.2000192E-01
  9.2000222E-01   9.9999998E-03  -2.0000087E-01
  9.4000238E-01   9.9999998E-03  -3.0001426E-01
  9.4000238E-01   9.9999998E-03  -2.8001150E-01
  9.4000244E-01   9.9999998E-03  -2.6000723E-01
  9.4000238E-01   9.9999998E-03  -2.4000376E-01
  9.4000238E-01   9.9999998E-03  -2.2000176E-01
  9.4000232E-01   9.9999998E-03  -2.0000079E-01
  9.6000248E-01   9.9999998E-03  -3.0001286E-01
  9.6000248E-01   9.9999998E-03  -2.8001037E-01
  9.6000248E-01   9.9999998E-03  -2.6000655E-01
  9.6000248E-01   9.9999998E-03  -2.4000339E-01
  9.6000242E-01   9.9999998E-03  -2.2000158E-01
  9.6000236E-01   9.9999998E-03  -2.0000072E-01
  9.8000258E-01   9.9999998E-03  -3.0001149E-01
  9.8000252E-01   9.9999998E-03  -2.8000927E-01
  9.8000252E-01   9.9999998E-03  -2.6000583E-01
  9.8000246E-01   9.9999998E-03  -2.4000303E-01
  9.8000234E-01   9.9999998E-03  -2.2000141E-01
  9.8000228E-01   9.9999998E-03  -2.0000064E-01
  1.0000027E+00   9.9999998E-03  -3.0001014E-01
  1.0000026E+00   9.9999998E-03  -2.8000820E-01
  1.0000025E+00   9.9999998E-03  -2.6000518E-01
  1.0000024E+00   9.9999998E-03  -2.4000271E-01
  1.0000023E+00   9.9999998E-03  -2.2000127E-01
  1.0000021E+00   9.9999998E-03  -2.0000058E-01
  1.0200030E+00   9.9999998E-03  -3.0000889E-01
  1.0200027E+00   9.9999998E-03  -2.8000724E-01
  1.0200025E+00   9.9999998E-03  -2.6000461E-01
  1.0200024E+00   9.9999998E-03  -2.4000244E-01
  1.0200022E+00   9.9999998E-03  -2.2000115E-01
  1.0200021E+00   9.9999998E-03  -2.0000054E-01
  1.0400032E+00   9.9999998E-03  -3.0000773E-01
  1.0400029E+00   9.9999998E-03  -2.8000638E-01
  1.0400026E+00   9.9999998E-03  -2.6000416E-01
  1.0400023E+00   9.9999998E-03  -2.4000224E-01
  1.0400021E+00   9.9999998E-03  -2.2000109E-01
  1.0400020E+00   9.9999998E-03  -2.0000052E-01
  1.0600036E+00   9.9999998E-03  -3.0000669E-01
  1.0600032E+00   9.9999998E-03  -2.8000566E-01
  1.0600027E+00   9.9999998E-03  -2.6000383E-01
  1.0600023E+00   9.9999998E-03  -2.4000216E-01
  1.0600021E+00   9.9999998E-03  -2.2000107E-01
  1.0600019E+00   9.9999998E-03  -2.0000052E-01
  1.0800040E+00   9.9999998E-03  -3.0000579E-01
  1.0800034E+00   9.9999998E-03  -2.8000507E-01
  1.0800028E+00   9.9999998E-03  -2.6000363E-01
  1.0800023E+00   9.9999998E-03  -2.4000216E-01
  1.0800020E+00   9.9999998E-03  -2.2000113E-01
  1.0800018E+00   9.9999998E-03  -2.0000055E-01
  1.1000035E+00   9.9999998E-03  -2.8000456E-01
  1.1000029E+00   9.9999998E-03  -2.6000351E-01
  1.1000024E+00   9.9999998E-03  -2.4000224E-01
  1.1000019E+00   9.9999998E-03  -2.2000124E-01
  1.1000017E+00   9.9999998E-03  -2.0000063E-01
  1.1200036E+00   9.9999998E-03  -2.8000411E-01
  1.1200030E+00   9.9999998E-03  -2.6000339E-01
  1.1200025E+00   9.9999998E-03  -2.4000236E-01
  1.1200020E+00   9.9999998E-03  -2.2000141E-01
  1.1200017E+00   9.9999998E-03  -2.0000075E-01
  1.1400031E+00   9.9999998E-03  -2.6000327E-01
  1.1400025E+00   9.9999998E-03  -2.4000248E-01
  1.1400020E+00   9.9999998E-03  -2.2000162E-01
  1.1400017E+00   9.9999998E-03  -2.0000093E-01
  1.1600031E+00   9.9999998E-03  -2.6000309E-01
  1.1600027E+00   9.9999998E-03  -2.4000254E-01
  1.1600022E+00   9.9999998E-03  -2.2000183E-01
  1.1600018E+00   9.9999998E-03  -2.0000115E-01
  1.1800028E+00   9.9999998E-03  -2.4000254E-01
  1.1800023E+00   9.9999998E-03  -2.2000200E-01
  1.1800020E+00   9.9999998E-03  -2.0000137E-01
  1.2000026E+00   9.9999998E-03  -2.2000210E-01
  1.2000023E+00   9.9999998E-03  -2.0000157E-01
  1.2200027E+00   9.9999998E-03  -2.2000213E-01
  1.2200025E+00   9.9999998E-03  -2.0000170E-01
 -4.6160914E-12   9.9999998E-03  -1.8000001E-01
 -4.8451247E-12   9.9999998E-03  -1.6000000E-01
 -5.0247454E-12   9.9999998E-03  -1.4000000E-01
 -5.1633073E-12   9.9999998E-03  -1.2000000E-01
 -5.2679384E-12   9.9999998E-03  -1.0000000E-01
 -5.3450421E-12   9.9999998E-03  -7.9999998E-02
 -5.3997406E-12   9.9999998E-03  -5.9999999E-02
 -5.4360093E-12   9.9999998E-03  -3.9999999E-02
 -5.4566642E-12   9.9999998E-03  -2.0000000E-02
  2.0000000E-02   9.9999998E-03  -1.8000001E-01
  2.0000000E-02   9.9999998E-03  -1.6000000E-01
  2.0000000E-02   9.9999998E-03  -1.4000000E-01
  2.0000000E-02   9.9999998E-03  -1.2000000E-01
  2.0000000E-02   9.9999998E-03  -1.0000000E-01
  2.0000000E-02   9.9999998E-03  -7.9999998E-02
  2.0000000E-02   9.9999998E-03  -5.9999999E-02
  2.0000000E-02   9.9999998E-03  -3.9999999E-02
  2.0000000E-02   9.9999998E-03  -2.0000000E-02
  3.9999999E-02   9.9999998E-03  -1.8000001E-01
  3.9999999E-02   9.9999998E-03  -1.6000000E-01
  3.9999999E-02   9.9999998E-03  -1.4000000E-01
  3.9999999E-02   9.9999998E-03  -1.2000000E-01
  3.9999999E-02   9.9999998E-03  -1.0000000E-01
  3.9999999E-02   9.9999998E-03  -7.9999998E-02
  3.9999999E-02   9.9999998E-03  -5.9999999E-02
  3.9999999E-02   9.9999998E-03  -3.9999999E-02
  3.9999999E-02   9.9999998E-03  -2.0000000E-02
  5.9999999E-02   9.9999998E-03  -1.8000001E-01
  5.9999999E-02   9.9999998E-03  -1.6000000E-01
  5.9999999E-02   9.9999998E-03  -1.4000000E-01
  5.9999999E-02   9.9999998E-03  -1.2000000E-01
  5.9999999E-02   9.9999998E-03  -1.0000000E-01
  5.9999999E-02   9.9999998E-03  -7.9999998E-02
  5.9999999E-02   9.9999998E-03  -5.9999999E-02
  5.9999999E-02   9.9999998E-03  -3.9999999E-02
  5.9999999E-02   9.9999998E-03  -2.0000000E-02
  7.9999998E-02   9.9999998E-03  -1.8000001E-01
  7.9999998E-02   9.9999998E-03  -1.6000000E-01
  7.9999998E-02   9.9999998E-03  -1.4000000E-01
  7.9999998E-02   9.9999998E-03  -1.2000000E-01
  7.9999998E-02   9.9999998E-03  -1.0000000E-01
  7.9999998E-02   9.9999998E-03  -7.9999998E-02
  7.9999998E-02   9.9999998E-03  -5.9999999E-02
  7.9999998E-02   9.9999998E-03  -3.9999999E-02
  7.9999998E-02   9.9999998E-03  -2.0000000E-02
  1.0000000E-01   9.9999998E-03  -1.8000001E-01
  1.0000000E-01   9.9999998E-03  -1.6000000E-01
  1.0000000E-01   9.9999998E-03  -1.4000000E-01
  1.0000000E-01   9.9999998E-03  -1.2000000E-01
  1.0000000E-01   9.9999998E-03  -1.0000000E-01
  1.0000000E-01   9.9999998E-03  -7.9999998E-02
  1.0000000E-01   9.9999998E-03  -5.9999999E-02
  1.0000000E-01   9.9999998E-03  -3.9999999E-02
  1.0000000E-01   9.9999998E-03  -2.0000000E-02
  1.2000000E-01   9.9999998E-03  -1.8000001E-01
  1.2000000E-01   9.9999998E-03  -1.6000000E-01
  1.2000000E-01   9.9999998E-03  -1.4000000E-01
  1.2000000E-01   9.9999998E-03  -1.2000000E-01
  1.2000000E-01   9.9999998E-03  -1.0000000E-01
  1.2000000E-01   9.9999998E-03  -7.9999998E-02
  1.2000000E-01   9.9999998E-03  -5.9999999E-02
  1.2000000E-01   9.9999998E-03  -3.9999999E-02
  1.2000000E-01   9.9999998E-03  -2.0000000E-02
  1.4000000E-01   9.9999998E-03  -1.8000001E-01
  1.4000000E-01   9.9999998E-03  -1.6000000E-01
  1.4000000E-01   9.9999998E-03  -1.4000000E-01
  1.4000000E-01   9.9999998E-03  -1.2000000E-01
  1.4000000E-01   9.9999998E-03  -1.0000000E-01
  1.4000000E-01   9.9999998E-03  -7.9999998E-02
  1.4000000E-01   9.9999998E-03  -5.9999999E-02
  1.4000000E-01   9.9999998E-03  -3.9999999E-02
  1.4000000E-01   9.9999998E-03  -2.0000000E-02
  1.6000000E-01   9.9999998E-03  -1.8000001E-01
  1.6000000E-01   9.9999998E-03  -1.6000000E-01
  1.6000000E-01   9.9999998E-03  -1.4000000E-01
  1.6000000E-01   9.9999998E-03  -1.2000000E-01
  1.6000000E-01   9.9999998E-03  -1.0000000E-01
  1.6000000E-01   9.9999998E-03  -7.9999998E-02
  1.6000000E-01   9.9999998E-03  -5.9999999E-02
  1.6000000E-01   9.9999998E-03  -3.9999999E-02
  1.6000000E-01   9.9999998E-03  -2.0000000E-02
  1.7999999E-01   9.9999998E-03  -1.8000001E-01
  1.7999999E-01   9.9999998E-03  -1.6000000E-01
  1.7999999E-01   9.9999998E-03  -1.4000000E-01
  1.7999999E-01   9.9999998E-03  -1.2000000E-01
  1.7999999E-01   9.9999998E-03  -1.0000000E-01
  1.7999999E-01   9.9999998E-03  -7.9999998E-02
  1.7999999E-01   9.9999998E-03  -5.9999999E-02
  1.7999999E-01   9.9999998E-03  -3.9999999E-02
  1.7999999E-01   9.9999998E-03  -2.0000000E-02
  2.0000000E-01   9.9999998E-03  -1.8000001E-01
  2.0000000E-01   9.9999998E-03  -1.6000000E-01
  2.0000000E-01   9.9999998E-03  -1.4000000E-01
  2.0000000E-01   9.9999998E-03  -1.2000000E-01
  2.0000000E-01   9.9999998E-03  -1.0000000E-01
  2.0000000E-01   9.9999998E-03  -7.9999998E-02
  2.0000000E-01   9.9999998E-03  -5.9999999E-02
  2.0000000E-01   9.9999998E-03  -3.9999999E-02
  2.0000000E-01   9.9999998E-03  -2.0000000E-02
  2.2000000E-01   9.9999998E-03  -1.8000001E-01
  2.2000000E-01   9.9999998E-03  -1.6000000E-01
  2.2000000E-01   9.9999998E-03  -1.4000000E-01
  2.2000000E-01   9.9999998E-03  -1.2000000E-01
  2.2000000E-01   9.9999998E-03  -1.0000000E-01
  2.2000000E-01   9.9999998E-03  -7.9999998E-02
  2.2000000E-01   9.9999998E-03  -5.9999999E-02
  2.2000000E-01   9.9999998E-03  -3.9999999E-02
  2.2000000E-01   9.9999998E-03  -2.0000000E-02
  2.3999999E-01   9.9999998E-03  -1.8000001E-01
  2.3999999E-01   9.9999998E-03  -1.6000000E-01
  2.3999999E-01   9.9999998E-03  -1.4000000E-01
  2.3999999E-01   9.9999998E-03  -1.2000000E-01
  2.3999999E-01   9.9999998E-03  -1.0000000E-01
  2.3999999E-01   9.9999998E-03  -7.9999998E-02
  2.3999999E-01   9.9999998E-03  -5.9999999E-02
  2.3999999E-01   9.9999998E-03  -3.9999999E-02
  2.3999999E-01   9.9999998E-03  -2.0000000E-02
  2.5999999E-01   9.9999998E-03  -1.8000001E-01
  2.5999999E-01   9.9999998E-03  -1.6000000E-01
  2.5999999E-01   9.9999998E-03  -1.4000000E-01
  2.5999999E-01   9.9999998E-03  -1.2000000E-01
  2.5999999E-01   9.9999998E-03  -1.0000000E-01
  2.5999999E-01   9.9999998E-03  -7.9999998E-02
  2.5999999E-01   9.9999998E-03  -5.9999999E-02
  2.5999999E-01   9.9999998E-03  -3.9999999E-02
  2.5999999E-01   9.9999998E-03  -2.0000000E-02
  2.8000000E-01   9.9999998E-03  -1.8000001E-01
  2.8000000E-01   9.9999998E-03  -1.6000000E-01
  2.8000000E-01   9.9999998E-03  -1.4000000E-01
  2.8000000E-01   9.9999998E-03  -1.2000000E-01
  2.8000000E-01   9.9999998E-03  -1.0000000E-01
  2.8000000E-01   9.9999998E-03  -7.9999998E-02
  2.8000000E-01   9.9999998E-03  -5.9999999E-02
  2.8000000E-01   9.9999998E-03  -3.9999999E-02
  2.8000000E-01   9.9999998E-03  -2.0000000E-02
  2.9999998E-01   9.9999998E-03  -1.8000001E-01
  2.9999998E-01   9.9999998E-03  -1.6000000E-01
  2.9999998E-01   9.9999998E-03  -1.4000000E-01
  2.9999998E-01   9.9999998E-03  -1.2000000E-01
  2.9999998E-01   9.9999998E-03  -1.0000000E-01
  2.9999998E-01   9.9999998E-03  -7.9999998E-02
  2.9999998E-01   9.9999998E-03  -5.9999999E-02
  2.9999998E-01   9.9999998E-03  -3.9999999E-02
  2.9999998E-01   9.9999998E-03  -2.0000000E-02
  3.1999999E-01   9.9999998E-03  -1.8000001E-01
  3.1999999E-01   9.9999998E-03  -1.6000000E-01
  3.1999999E-01   9.9999998E-03  -1.4000000E-01
  3.1999996E-01   9.9999998E-03  -1.2000000E-01
  3.1999996E-01   9.9999998E-03  -1.0000000E-01
  3.1999996E-01   9.9999998E-03  -7.9999998E-02
  3.1999996E-01   9.9999998E-03  -5.9999999E-02
  3.1999996E-01   9.9999998E-03  -3.9999999E-02
  3.1999996E-01   9.9999998E-03  -2.0000000E-02
  3.3999997E-01   9.9999998E-03  -1.8000001E-01
  3.3999997E-01   9.9999998E-03  -1.6000000E-01
  3.3999997E-01   9.9999998E-03  -1.4000000E-01
  3.3999997E-01   9.9999998E-03  -1.2000000E-01
  3.3999997E-01   9.9999998E-03  -1.0000000E-01
  3.3999997E-01   9.9999998E-03  -7.9999998E-02
  3.3999997E-01   9.9999998E-03  -5.9999999E-02
  3.3999997E-01   9.9999998E-03  -3.9999999E-02
  3.3999997E-01   9.9999998E-03  -2.0000000E-02
  3.5999995E-01   9.9999998E-03  -1.8000001E-01
  3.5999995E-01   9.9999998E-03  -1.6000000E-01
  3.5999995E-01   9.9999998E-03  -1.4000000E-01
  3.5999995E-01   9.9999998E-03  -1.2000000E-01
  3.5999995E-01   9.9999998E-03  -1.0000000E-01
  3.5999995E-01   9.9999998E-03  -7.9999998E-02
  3.5999995E-01   9.9999998E-03  -6.0000002E-02
  3.5999995E-01   9.9999998E-03  -3.9999999E-02
  3.5999995E-01   9.9999998E-03  -2.0000000E-02
  3.7999994E-01   9.9999998E-03  -1.8000001E-01
  3.7999994E-01   9.9999998E-03  -1.6000000E-01
  3.7999994E-01   9.9999998E-03  -1.4000000E-01
  3.7999994E-01   9.9999998E-03  -1.2000000E-01
  3.7999994E-01   9.9999998E-03  -1.0000000E-01
  3.7999994E-01   9.9999998E-03  -7.9999998E-02
  3.7999994E-01   9.9999998E-03  -6.0000002E-02
  3.7999994E-01   9.9999998E-03  -3.9999999E-02
  3.7999994E-01   9.9999998E-03  -2.0000000E-02
  3.9999989E-01   9.9999998E-03  -1.8000001E-01
  3.9999989E-01   9.9999998E-03  -1.6000001E-01
  3.9999989E-01   9.9999998E-03  -1.4000000E-01
  3.9999989E-01   9.9999998E-03  -1.2000000E-01
  3.9999989E-01   9.9999998E-03  -1.0000000E-01
  3.9999989E-01   9.9999998E-03  -7.9999998E-02
  3.9999989E-01   9.9999998E-03  -6.0000002E-02
  3.9999989E-01   9.9999998E-03  -3.9999999E-02
  3.9999989E-01   9.9999998E-03  -2.0000000E-02
  4.1999984E-01   9.9999998E-03  -1.8000001E-01
  4.1999984E-01   9.9999998E-03  -1.6000001E-01
  4.1999984E-01   9.9999998E-03  -1.4000000E-01
  4.1999984E-01   9.9999998E-03  -1.2000000E-01
  4.1999984E-01   9.9999998E-03  -1.0000000E-01
  4.1999984E-01   9.9999998E-03  -8.0000006E-02
  4.1999984E-01   9.9999998E-03  -6.0000002E-02
  4.1999984E-01   9.9999998E-03  -4.0000003E-02
  4.1999984E-01   9.9999998E-03  -2.0000001E-02
  4.3999976E-01   9.9999998E-03  -1.8000002E-01
  4.3999976E-01   9.9999998E-03  -1.6000001E-01
  4.3999976E-01   9.9999998E-03  -1.4000002E-01
  4.3999976E-01   9.9999998E-03  -1.2000000E-01
  4.3999976E-01   9.9999998E-03  -1.0000001E-01
  4.3999976E-01   9.9999998E-03  -8.0000006E-02
  4.3999976E-01   9.9999998E-03  -6.0000002E-02
  4.3999976E-01   9.9999998E-03  -4.0000003E-02
  4.3999976E-01   9.9999998E-03  -2.0000001E-02
  4.5999965E-01   9.9999998E-03  -1.8000002E-01
  4.5999965E-01   9.9999998E-03  -1.6000001E-01
  4.5999965E-01   9.9999998E-03  -1.4000002E-01
  4.5999965E-01   9.9999998E-03  -1.2000001E-01
  4.5999965E-01   9.9999998E-03  -1.0000001E-01
  4.5999965E-01   9.9999998E-03  -8.0000006E-02
  4.5999965E-01   9.9999998E-03  -6.0000002E-02
  4.5999965E-01   9.9999998E-03  -4.0000003E-02
  4.5999965E-01   9.9999998E-03  -2.0000001E-02
  4.7999951E-01   9.9999998E-03  -1.8000004E-01
  4.7999951E-01   9.9999998E-03  -1.6000003E-01
  4.7999951E-01   9.9999998E-03  -1.4000002E-01
  4.7999951E-01   9.9999998E-03  -1.2000001E-01
  4.7999951E-01   9.9999998E-03  -1.0000001E-01
  4.7999951E-01   9.9999998E-03  -8.0000006E-02
  4.7999951E-01   9.9999998E-03  -6.0000006E-02
  4.7999951E-01   9.9999998E-03  -4.0000003E-02
  4.7999951E-01   9.9999998E-03  -2.0000001E-02
  4.9999928E-01   9.9999998E-03  -1.8000005E-01
  4.9999928E-01   9.9999998E-03  -1.6000004E-01
  4.9999928E-01   9.9999998E-03  -1.4000003E-01
  4.9999928E-01   9.9999998E-03  -1.2000002E-01
  4.9999928E-01   9.9999998E-03  -1.0000002E-01
  4.9999928E-01   9.9999998E-03  -8.0000013E-02
  4.9999928E-01   9.9999998E-03  -6.0000006E-02
  4.9999928E-01   9.9999998E-03  -4.0000003E-02
  4.9999928E-01   9.9999998E-03  -2.0000001E-02
  5.1999903E-01   9.9999998E-03  -1.8000008E-01
  5.1999897E-01   9.9999998E-03  -1.6000006E-01
  5.1999897E-01   9.9999998E-03  -1.4000005E-01
  5.1999897E-01   9.9999998E-03  -1.2000003E-01
  5.1999897E-01   9.9999998E-03  -1.0000002E-01
  5.1999897E-01   9.9999998E-03  -8.0000013E-02
  5.1999897E-01   9.9999998E-03  -6.0000010E-02
  5.1999897E-01   9.9999998E-03  -4.0000007E-02
  5.1999897E-01   9.9999998E-03  -2.0000003E-02
  5.3999865E-01   9.9999998E-03  -1.8000011E-01
  5.3999859E-01   9.9999998E-03  -1.6000009E-01
  5.3999859E-01   9.9999998E-03  -1.4000006E-01
  5.3999859E-01   9.9999998E-03  -1.2000004E-01
  5.3999859E-01   9.9999998E-03  -1.0000002E-01
  5.3999859E-01   9.9999998E-03  -8.0000021E-02
  5.3999859E-01   9.9999998E-03  -6.0000010E-02
  5.3999859E-01   9.9999998E-03  -4.0000007E-02
  5.3999859E-01   9.9999998E-03  -2.0000003E-02
  5.5999815E-01   9.9999998E-03  -1.8000016E-01
  5.5999815E-01   9.9999998E-03  -1.6000012E-01
  5.5999815E-01   9.9999998E-03  -1.4000008E-01
  5.5999815E-01   9.9999998E-03  -1.2000005E-01
  5.5999815E-01   9.9999998E-03  -1.0000003E-01
  5.5999815E-01   9.9999998E-03  -8.0000021E-02
  5.5999815E-01   9.9999998E-03  -6.0000014E-02
  5.5999815E-01   9.9999998E-03  -4.0000007E-02
  5.5999815E-01   9.9999998E-03  -2.0000003E-02
  5.7999772E-01   9.9999998E-03  -1.8000020E-01
  5.7999766E-01   9.9999998E-03  -1.6000015E-01
  5.7999766E-01   9.9999998E-03  -1.4000010E-01
  5.7999766E-01   9.9999998E-03  -1.2000006E-01
  5.7999766E-01   9.9999998E-03  -1.0000005E-01
  5.7999766E-01   9.9999998E-03  -8.0000028E-02
  5.7999766E-01   9.9999998E-03  -6.0000017E-02
  5.7999766E-01   9.9999998E-03  -4.0000010E-02
  5.7999766E-01   9.9999998E-03  -2.0000005E-02
  5.9999716E-01   9.9999998E-03  -1.8000023E-01
  5.9999716E-01   9.9999998E-03  -1.6000018E-01
  5.9999716E-01   9.9999998E-03  -1.4000012E-01
  5.9999722E-01   9.9999998E-03  -1.2000008E-01
  5.9999722E-01   9.9999998E-03  -1.0000005E-01
  5.9999722E-01   9.9999998E-03  -8.0000035E-02
  5.9999722E-01   9.9999998E-03  -6.0000021E-02
  5.9999722E-01   9.9999998E-03  -4.0000014E-02
  5.9999722E-01   9.9999998E-03  -2.0000005E-02
  6.1999667E-01   9.9999998E-03  -1.8000026E-01
  6.1999673E-01   9.9999998E-03  -1.6000019E-01
  6.1999673E-01   9.9999998E-03  -1.4000013E-01
  6.1999673E-01   9.9999998E-03  -1.2000009E-01
  6.1999673E-01   9.9999998E-03  -1.0000006E-01
  6.1999673E-01   9.9999998E-03  -8.0000043E-02
  6.1999673E-01   9.9999998E-03  -6.0000025E-02
  6.1999673E-01   9.9999998E-03  -4.0000014E-02
  6.1999673E-01   9.9999998E-03  -2.0000007E-02
  6.3999623E-01   9.9999998E-03  -1.8000029E-01
  6.3999629E-01   9.9999998E-03  -1.6000021E-01
  6.3999629E-01   9.9999998E-03  -1.4000015E-01
  6.3999635E-01   9.9999998E-03  -1.2000010E-01
  6.3999635E-01   9.9999998E-03  -1.0000007E-01
  6.3999635E-01   9.9999998E-03  -8.0000043E-02
  6.3999635E-01   9.9999998E-03  -6.0000025E-02
  6.3999635E-01   9.9999998E-03  -4.0000014E-02
  6.3999635E-01   9.9999998E-03  -2.0000007E-02
  6.5999597E-01   9.9999998E-03  -1.8000036E-01
  6.5999597E-01   9.9999998E-03  -1.6000025E-01
  6.5999603E-01   9.9999998E-03  -1.4000018E-01
  6.5999603E-01   9.9999998E-03  -1.2000012E-01
  6.5999609E-01   9.9999998E-03  -1.0000008E-01
  6.5999609E-01   9.9999998E-03  -8.0000050E-02
  6.5999609E-01   9.9999998E-03  -6.0000028E-02
  6.5999609E-01   9.9999998E-03  -4.0000014E-02
  6.5999609E-01   9.9999998E-03  -2.0000007E-02
  6.7999601E-01   9.9999998E-03  -1.8000041E-01
  6.7999607E-01   9.9999998E-03  -1.6000026E-01
  6.7999613E-01   9.9999998E-03  -1.4000019E-01
  6.7999613E-01   9.9999998E-03  -1.2000014E-01
  6.7999613E-01   9.9999998E-03  -1.0000008E-01
  6.7999613E-01   9.9999998E-03  -8.0000050E-02
  6.7999613E-01   9.9999998E-03  -6.0000028E-02
  6.7999613E-01   9.9999998E-03  -4.0000014E-02
  6.7999613E-01   9.9999998E-03  -2.0000005E-02
  6.9999671E-01   9.9999998E-03  -1.8000045E-01
  6.9999671E-01   9.9999998E-03  -1.6000029E-01
  6.9999671E-01   9.9999998E-03  -1.4000022E-01
  6.9999677E-01   9.9999998E-03  -1.2000015E-01
  6.9999677E-01   9.9999998E-03  -1.0000009E-01
  6.9999677E-01   9.9999998E-03  -8.0000058E-02
  6.9999677E-01   9.9999998E-03  -6.0000028E-02
  6.9999677E-01   9.9999998E-03  -4.0000014E-02
  6.9999677E-01   9.9999998E-03  -2.0000005E-02
  7.1999764E-01   9.9999998E-03  -1.8000050E-01
  7.1999770E-01   9.9999998E-03  -1.6000032E-01
  7.1999770E-01   9.9999998E-03  -1.4000024E-01
  7.1999770E-01   9.9999998E-03  -1.2000017E-01
  7.1999770E-01   9.9999998E-03  -1.0000011E-01
  7.1999776E-01   9.9999998E-03  -8.0000058E-02
  7.1999776E-01   9.9999998E-03  -6.0000032E-02
  7.1999776E-01   9.9999998E-03  -4.0000014E-02
  7.1999776E-01   9.9999998E-03  -2.0000005E-02
  7.3999858E-01   9.9999998E-03  -1.8000053E-01
  7.3999858E-01   9.9999998E-03  -1.6000035E-01
  7.3999864E-01   9.9999998E-03  -1.4000025E-01
  7.3999864E-01   9.9999998E-03  -1.2000018E-01
  7.3999864E-01   9.9999998E-03  -1.0000011E-01
  7.3999864E-01   9.9999998E-03  -8.0000065E-02
  7.3999864E-01   9.9999998E-03  -6.0000032E-02
  7.3999864E-01   9.9999998E-03  -4.0000014E-02
  7.3999864E-01   9.9999998E-03  -2.0000005E-02
  7.5999928E-01   9.9999998E-03  -1.8000054E-01
  7.5999928E-01   9.9999998E-03  -1.6000037E-01
  7.5999933E-01   9.9999998E-03  -1.4000027E-01
  7.5999933E-01   9.9999998E-03  -1.2000018E-01
  7.5999933E-01   9.9999998E-03  -1.0000011E-01
  7.5999933E-01   9.9999998E-03  -8.0000065E-02
  7.5999933E-01   9.9999998E-03  -6.0000036E-02
  7.5999933E-01   9.9999998E-03  -4.0000014E-02
  7.5999933E-01   9.9999998E-03  -2.0000005E-02
  7.7999979E-01   9.9999998E-03  -1.8000056E-01
  7.7999979E-01   9.9999998E-03  -1.6000037E-01
  7.7999979E-01   9.9999998E-03  -1.4000027E-01
  7.7999979E-01   9.9999998E-03  -1.2000019E-01
  7.7999979E-01   9.9999998E-03  -1.0000012E-01
  7.7999979E-01   9.9999998E-03  -8.0000065E-02
  7.7999979E-01   9.9999998E-03  -6.0000036E-02
  7.7999979E-01   9.9999998E-03  -4.0000018E-02
  7.7999979E-01   9.9999998E-03  -2.0000005E-02
  8.0000019E-01   9.9999998E-03  -1.8000056E-01
  8.0000019E-01   9.9999998E-03  -1.6000037E-01
  8.0000019E-01   9.9999998E-03  -1.4000028E-01
  8.0000019E-01   9.9999998E-03  -1.2000019E-01
  8.0000019E-01   9.9999998E-03  -1.0000012E-01
  8.0000019E-01   9.9999998E-03  -8.0000065E-02
  8.0000019E-01   9.9999998E-03  -6.0000036E-02
  8.0000019E-01   9.9999998E-03  -4.0000018E-02
  8.0000019E-01   9.9999998E-03  -2.0000007E-02
  8.2000053E-01   9.9999998E-03  -1.8000056E-01
  8.2000053E-01   9.9999998E-03  -1.6000037E-01
  8.2000053E-01   9.9999998E-03  -1.4000027E-01
  8.2000053E-01   9.9999998E-03  -1.2000019E-01
  8.2000053E-01   9.9999998E-03  -1.0000012E-01
  8.2000053E-01   9.9999998E-03  -8.0000065E-02
  8.2000053E-01   9.9999998E-03  -6.0000036E-02
  8.2000053E-01   9.9999998E-03  -4.0000018E-02
  8.2000053E-01   9.9999998E-03  -2.0000005E-02
  8.4000093E-01   9.9999998E-03  -1.8000054E-01
  8.4000093E-01   9.9999998E-03  -1.6000037E-01
  8.4000093E-01   9.9999998E-03  -1.4000027E-01
  8.4000093E-01   9.9999998E-03  -1.2000018E-01
  8.4000087E-01   9.9999998E-03  -1.0000011E-01
  8.4000087E-01   9.9999998E-03  -8.0000065E-02
  8.4000087E-01   9.9999998E-03  -6.0000036E-02
  8.4000087E-01   9.9999998E-03  -4.0000014E-02
  8.4000087E-01   9.9999998E-03  -2.0000005E-02
  8.6000127E-01   9.9999998E-03  -1.8000053E-01
  8.6000127E-01   9.9999998E-03  -1.6000035E-01
  8.6000127E-01   9.9999998E-03  -1.4000025E-01
  8.6000127E-01   9.9999998E-03  -1.2000018E-01
  8.6000127E-01   9.9999998E-03  -1.0000011E-01
  8.6000127E-01   9.9999998E-03  -8.0000065E-02
  8.6000127E-01   9.9999998E-03  -6.0000032E-02
  8.6000127E-01   9.9999998E-03  -4.0000014E-02
  8.6000127E-01   9.9999998E-03  -2.0000005E-02
  8.8000166E-01   9.9999998E-03  -1.8000050E-01
  8.8000166E-01   9.9999998E-03  -1.6000034E-01
  8.8000160E-01   9.9999998E-03  -1.4000025E-01
  8.8000160E-01   9.9999998E-03  -1.2000017E-01
  8.8000160E-01   9.9999998E-03  -1.0000011E-01
  8.8000160E-01   9.9999998E-03  -8.0000058E-02
  8.8000160E-01   9.9999998E-03  -6.0000032E-02
  8.8000160E-01   9.9999998E-03  -4.0000014E-02
  8.8000160E-01   9.9999998E-03  -2.0000005E-02
  9.0000194E-01   9.9999998E-03  -1.8000047E-01
  9.0000194E-01   9.9999998E-03  -1.6000032E-01
  9.0000194E-01   9.9999998E-03  -1.4000024E-01
  9.0000194E-01   9.9999998E-03  -1.2000016E-01
  9.0000188E-01   9.9999998E-03  -1.0000010E-01
  9.0000188E-01   9.9999998E-03  -8.0000058E-02
  9.0000188E-01   9.9999998E-03  -6.0000028E-02
  9.0000188E-01   9.9999998E-03  -4.0000014E-02
  9.0000188E-01   9.9999998E-03  -2.0000005E-02
  9.2000216E-01   9.9999998E-03  -1.8000044E-01
  9.2000216E-01   9.9999998E-03  -1.6000029E-01
  9.2000216E-01   9.9999998E-03  -1.4000022E-01
  9.2000210E-01   9.9999998E-03  -1.2000015E-01
  9.2000210E-01   9.9999998E-03  -1.0000010E-01
  9.2000210E-01   9.9999998E-03  -8.0000058E-02
  9.2000210E-01   9.9999998E-03  -6.0000028E-02
  9.2000210E-01   9.9999998E-03  -4.0000014E-02
  9.2000210E-01   9.9999998E-03  -2.0000005E-02
  9.4000226E-01   9.9999998E-03  -1.8000041E-01
  9.4000226E-01   9.9999998E-03  -1.6000028E-01
  9.4000220E-01   9.9999998E-03  -1.4000021E-01
  9.4000220E-01   9.9999998E-03  -1.2000015E-01
  9.4000220E-01   9.9999998E-03  -1.0000009E-01
  9.4000220E-01   9.9999998E-03  -8.0000058E-02
  9.4000214E-01   9.9999998E-03  -6.0000032E-02
  9.4000214E-01   9.9999998E-03  -4.0000014E-02
  9.4000214E-01   9.9999998E-03  -2.0000007E-02
  9.6000224E-01   9.9999998E-03  -1.8000038E-01
  9.6000224E-01   9.9999998E-03  -1.6000026E-01
  9.6000218E-01   9.9999998E-03  -1.4000019E-01
  9.6000218E-01   9.9999998E-03  -1.2000014E-01
  9.6000218E-01   9.9999998E-03  -1.0000009E-01
  9.6000212E-01   9.9999998E-03  -8.0000058E-02
  9.6000212E-01   9.9999998E-03  -6.0000032E-02
  9.6000212E-01   9.9999998E-03  -4.0000018E-02
  9.6000212E-01   9.9999998E-03  -2.0000007E-02
  9.8000222E-01   9.9999998E-03  -1.8000035E-01
  9.8000216E-01   9.9999998E-03  -1.6000025E-01
  9.8000211E-01   9.9999998E-03  -1.4000018E-01
  9.8000211E-01   9.9999998E-03  -1.2000013E-01
  9.8000211E-01   9.9999998E-03  -1.0000008E-01
  9.8000211E-01   9.9999998E-03  -8.0000050E-02
  9.8000211E-01   9.9999998E-03  -6.0000032E-02
  9.8000211E-01   9.9999998E-03  -4.0000018E-02
  9.8000211E-01   9.9999998E-03  -2.0000007E-02
  1.0000021E+00   9.9999998E-03  -1.8000033E-01
  1.0000020E+00   9.9999998E-03  -1.6000023E-01
  1.0000020E+00   9.9999998E-03  -1.4000018E-01
  1.0000020E+00   9.9999998E-03  -1.2000012E-01
  1.0000020E+00   9.9999998E-03  -1.0000008E-01
  1.0000020E+00   9.9999998E-03  -8.0000050E-02
  1.0000020E+00   9.9999998E-03  -6.0000032E-02
  1.0000020E+00   9.9999998E-03  -4.0000018E-02
  1.0000020E+00   9.9999998E-03  -2.0000009E-02
  1.0200020E+00   9.9999998E-03  -1.8000032E-01
  1.0200020E+00   9.9999998E-03  -1.6000023E-01
  1.0200019E+00   9.9999998E-03  -1.4000016E-01
  1.0200019E+00   9.9999998E-03  -1.2000012E-01
  1.0200019E+00   9.9999998E-03  -1.0000008E-01
  1.0200019E+00   9.9999998E-03  -8.0000050E-02
  1.0200019E+00   9.9999998E-03  -6.0000032E-02
  1.0200019E+00   9.9999998E-03  -4.0000018E-02
  1.0200019E+00   9.9999998E-03  -2.0000009E-02
  1.0400019E+00   9.9999998E-03  -1.8000031E-01
  1.0400019E+00   9.9999998E-03  -1.6000022E-01
  1.0400019E+00   9.9999998E-03  -1.4000016E-01
  1.0400017E+00   9.9999998E-03  -1.2000012E-01
  1.0400017E+00   9.9999998E-03  -1.0000008E-01
  1.0400017E+00   9.9999998E-03  -8.0000050E-02
  1.0400017E+00   9.9999998E-03  -6.0000032E-02
  1.0400017E+00   9.9999998E-03  -4.0000018E-02
  1.0400017E+00   9.9999998E-03  -2.0000009E-02
  1.0600017E+00   9.9999998E-03  -1.8000031E-01
  1.0600017E+00   9.9999998E-03  -1.6000021E-01
  1.0600017E+00   9.9999998E-03  -1.4000016E-01
  1.0600016E+00   9.9999998E-03  -1.2000012E-01
  1.0600016E+00   9.9999998E-03  -1.0000008E-01
  1.0600016E+00   9.9999998E-03  -8.0000050E-02
  1.0600016E+00   9.9999998E-03  -6.0000032E-02
  1.0600016E+00   9.9999998E-03  -4.0000018E-02
  1.0600016E+00   9.9999998E-03  -2.0000009E-02
  1.0800016E+00   9.9999998E-03  -1.8000031E-01
  1.0800016E+00   9.9999998E-03  -1.6000021E-01
  1.0800016E+00   9.9999998E-03  -1.4000015E-01
  1.0800015E+00   9.9999998E-03  -1.2000011E-01
  1.0800015E+00   9.9999998E-03  -1.0000008E-01
  1.0800015E+00   9.9999998E-03  -8.0000050E-02
  1.0800015E+00   9.9999998E-03  -6.0000036E-02
  1.0800015E+00   9.9999998E-03  -4.0000021E-02
  1.0800015E+00   9.9999998E-03  -2.0000009E-02
  1.1000016E+00   9.9999998E-03  -1.8000033E-01
  1.1000015E+00   9.9999998E-03  -1.6000021E-01
  1.1000015E+00   9.9999998E-03  -1.4000015E-01
  1.1000013E+00   9.9999998E-03  -1.2000011E-01
  1.1000013E+00   9.9999998E-03  -1.0000008E-01
  1.1000013E+00   9.9999998E-03  -8.0000058E-02
  1.1000013E+00   9.9999998E-03  -6.0000036E-02
  1.1000013E+00   9.9999998E-03  -4.0000021E-02
  1.1000013E+00   9.9999998E-03  -2.0000011E-02
  1.1200014E+00   9.9999998E-03  -1.8000039E-01
  1.1200013E+00   9.9999998E-03  -1.6000022E-01
  1.1200013E+00   9.9999998E-03  -1.4000013E-01
  1.1200012E+00   9.9999998E-03  -1.2000010E-01
  1.1200012E+00   9.9999998E-03  -1.0000008E-01
  1.1200012E+00   9.9999998E-03  -8.0000058E-02
  1.1200012E+00   9.9999998E-03  -6.0000040E-02
  1.1200012E+00   9.9999998E-03  -4.0000025E-02
  1.1200012E+00   9.9999998E-03  -2.0000011E-02
  1.1400014E+00   9.9999998E-03  -1.8000048E-01
  1.1400013E+00   9.9999998E-03  -1.6000026E-01
  1.1400012E+00   9.9999998E-03  -1.4000015E-01
  1.1400012E+00   9.9999998E-03  -1.2000009E-01
  1.1400011E+00   9.9999998E-03  -1.0000007E-01
  1.1400011E+00   9.9999998E-03  -8.0000050E-02
  1.1400011E+00   9.9999998E-03  -6.0000036E-02
  1.1400011E+00   9.9999998E-03  -4.0000025E-02
  1.1400011E+00   9.9999998E-03  -2.0000013E-02
  1.1600015E+00   9.9999998E-03  -1.8000065E-01
  1.1600013E+00   9.9999998E-03  -1.6000034E-01
  1.1600012E+00   9.9999998E-03  -1.4000018E-01
  1.1600010E+00   9.9999998E-03  -1.2000010E-01
  1.1600010E+00   9.9999998E-03  -1.0000006E-01
  1.1600010E+00   9.9999998E-03  -8.0000043E-02
  1.1600009E+00   9.9999998E-03  -6.0000032E-02
  1.1600009E+00   9.9999998E-03  -4.0000021E-02
  1.1600009E+00   9.9999998E-03  -2.0000011E-02
  1.1800016E+00   9.9999998E-03  -1.8000086E-01
  1.1800014E+00   9.9999998E-03  -1.6000049E-01
  1.1800011E+00   9.9999998E-03  -1.4000027E-01
  1.1800010E+00   9.9999998E-03  -1.2000015E-01
  1.1800009E+00   9.9999998E-03  -1.0000008E-01
  1.1800009E+00   9.9999998E-03  -8.0000043E-02
  1.1800009E+00   9.9999998E-03  -6.0000025E-02
  1.1800009E+00   9.9999998E-03  -4.0000014E-02
  1.1800009E+00   9.9999998E-03  -2.0000007E-02
  1.2000020E+00   9.9999998E-03  -1.8000108E-01
  1.2000016E+00   9.9999998E-03  -1.6000070E-01
  1.2000012E+00   9.9999998E-03  -1.4000042E-01
  1.2000011E+00   9.9999998E-03  -1.2000024E-01
  1.2000009E+00   9.9999998E-03  -1.0000014E-01
  1.2000009E+00   9.9999998E-03  -8.0000073E-02
  1.2000008E+00   9.9999998E-03  -6.0000036E-02
  1.2000008E+00   9.9999998E-03  -4.0000018E-02
  1.2000008E+00   9.9999998E-03  -2.0000007E-02
  1.2200022E+00   9.9999998E-03  -1.8000129E-01
  1.2200019E+00   9.9999998E-03  -1.6000091E-01
  1.2200016E+00   9.9999998E-03  -1.4000061E-01
  1.2200013E+00   9.9999998E-03  -1.2000040E-01
  1.2200011E+00   9.9999998E-03  -1.0000025E-01
  1.2200010E+00   9.9999998E-03  -8.0000155E-02
  1.2200009E+00   9.9999998E-03  -6.0000084E-02
  1.2200009E+00   9.9999998E-03  -4.0000040E-02
  1.2200007E+00   9.9999998E-03  -2.0000016E-02
  1.2400024E+00   9.9999998E-03  -1.8000145E-01
  1.2400023E+00   9.9999998E-03  -1.6000111E-01
  1.2400020E+00   9.9999998E-03  -1.4000082E-01
  1.2400017E+00   9.9999998E-03  -1.2000058E-01
  1.2400014E+00   9.9999998E-03  -1.0000040E-01
  1.2400013E+00   9.9999998E-03  -8.0000259E-02
  1.2400011E+00   9.9999998E-03  -6.0000159E-02
  1.2400011E+00   9.9999998E-03  -4.0000085E-02
  1.2400010E+00   9.9999998E-03  -2.0000037E-02
  1.2600024E+00   9.9999998E-03  -1.6000129E-01
  1.2600023E+00   9.9999998E-03  -1.4000101E-01
  1.2600021E+00   9.9999998E-03  -1.2000077E-01
  1.2600019E+00   9.9999998E-03  -1.0000057E-01
  1.2600018E+00   9.9999998E-03  -8.0000386E-02
  1.2600017E+00   9.9999998E-03  -6.0000241E-02
  1.2600015E+00   9.9999998E-03  -4.0000133E-02
  1.2600014E+00   9.9999998E-03  -2.0000057E-02
  1.2800022E+00   9.9999998E-03  -1.2000097E-01
  1.2800022E+00   9.9999998E-03  -1.0000075E-01
  1.2800021E+00   9.9999998E-03  -8.0000527E-02
  1.2800021E+00   9.9999998E-03  -6.0000334E-02
  1.2800020E+00   9.9999998E-03  -4.0000185E-02
  1.2800020E+00   9.9999998E-03  -2.0000082E-02
  1.3000022E+00   9.9999998E-03  -8.0000684E-02
  1.3000022E+00   9.9999998E-03  -6.0000438E-02
  1.3000022E+00   9.9999998E-03  -4.0000245E-02
  1.3000022E+00   9.9999998E-03  -2.0000106E-02
 -5.4633598E-12   9.9999998E-03   4.5478711E-19
 -5.4566581E-12   9.9999998E-03   2.0000000E-02
 -5.4360088E-12   9.9999998E-03   3.9999999E-02
 -5.3997375E-12   9.9999998E-03   5.9999999E-02
 -5.3450399E-12   9.9999998E-03   7.9999998E-02
 -5.2679384E-12   9.9999998E-03   1.0000000E-01
 -5.1633060E-12   9.9999998E-03   1.2000000E-01
 -5.0247462E-12   9.9999998E-03   1.4000000E-01
  2.0000000E-02   9.9999998E-03   3.4255555E-19
  2.0000000E-02   9.9999998E-03   2.0000000E-02
  2.0000000E-02   9.9999998E-03   3.9999999E-02
  2.0000000E-02   9.9999998E-03   5.9999999E-02
  2.0000000E-02   9.9999998E-03   7.9999998E-02
  2.0000000E-02   9.9999998E-03   1.0000000E-01
  2.0000000E-02   9.9999998E-03   1.2000000E-01
  2.0000000E-02   9.9999998E-03   1.4000000E-01
  3.9999999E-02   9.9999998E-03  -7.6220418E-19
  3.9999999E-02   9.9999998E-03   2.0000000E-02
  3.9999999E-02   9.9999998E-03   3.9999999E-02
  3.9999999E-02   9.9999998E-03   5.9999999E-02
  3.9999999E-02   9.9999998E-03   7.9999998E-02
  3.9999999E-02   9.9999998E-03   1.0000000E-01
  3.9999999E-02   9.9999998E-03   1.2000000E-01
  3.9999999E-02   9.9999998E-03   1.4000000E-01
  5.9999999E-02   9.9999998E-03   6.5076310E-19
  5.9999999E-02   9.9999998E-03   2.0000000E-02
  5.9999999E-02   9.9999998E-03   3.9999999E-02
  5.9999999E-02   9.9999998E-03   5.9999999E-02
  5.9999999E-02   9.9999998E-03   7.9999998E-02
  5.9999999E-02   9.9999998E-03   1.0000000E-01
  5.9999999E-02   9.9999998E-03   1.2000000E-01
  5.9999999E-02   9.9999998E-03   1.4000000E-01
  7.9999998E-02   9.9999998E-03   4.8384205E-18
  7.9999998E-02   9.9999998E-03   2.0000000E-02
  7.9999998E-02   9.9999998E-03   3.9999999E-02
  7.9999998E-02   9.9999998E-03   5.9999999E-02
  7.9999998E-02   9.9999998E-03   7.9999998E-02
  7.9999998E-02   9.9999998E-03   1.0000000E-01
  7.9999998E-02   9.9999998E-03   1.2000000E-01
  7.9999998E-02   9.9999998E-03   1.4000000E-01
  1.0000000E-01   9.9999998E-03   7.9365374E-18
  1.0000000E-01   9.9999998E-03   2.0000000E-02
  1.0000000E-01   9.9999998E-03   3.9999999E-02
  1.0000000E-01   9.9999998E-03   5.9999999E-02
  1.0000000E-01   9.9999998E-03   7.9999998E-02
  1.0000000E-01   9.9999998E-03   1.0000000E-01
  1.0000000E-01   9.9999998E-03   1.2000000E-01
  1.0000000E-01   9.9999998E-03   1.4000000E-01
  1.2000000E-01   9.9999998E-03  -9.2939466E-18
  1.2000000E-01   9.9999998E-03   2.0000000E-02
  1.2000000E-01   9.9999998E-03   3.9999999E-02
  1.2000000E-01   9.9999998E-03   5.9999999E-02
  1.2000000E-01   9.9999998E-03   7.9999998E-02
  1.2000000E-01   9.9999998E-03   1.0000000E-01
  1.2000000E-01   9.9999998E-03   1.2000000E-01
  1.2000000E-01   9.9999998E-03   1.4000000E-01
  1.4000000E-01   9.9999998E-03  -8.7100102E-19
  1.4000000E-01   9.9999998E-03   2.0000000E-02
  1.4000000E-01   9.9999998E-03   3.9999999E-02
  1.4000000E-01   9.9999998E-03   5.9999999E-02
  1.4000000E-01   9.9999998E-03   7.9999998E-02
  1.4000000E-01   9.9999998E-03   1.0000000E-01
  1.4000000E-01   9.9999998E-03   1.2000000E-01
  1.4000000E-01   9.9999998E-03   1.4000000E-01
  1.6000000E-01   9.9999998E-03  -4.3760944E-18
  1.6000000E-01   9.9999998E-03   2.0000000E-02
  1.6000000E-01   9.9999998E-03   3.9999999E-02
  1.6000000E-01   9.9999998E-03   5.9999999E-02
  1.6000000E-01   9.9999998E-03   7.9999998E-02
  1.6000000E-01   9.9999998E-03   1.0000000E-01
  1.6000000E-01   9.9999998E-03   1.2000000E-01
  1.6000000E-01   9.9999998E-03   1.4000000E-01
  1.7999999E-01   9.9999998E-03  -7.1352547E-17
  1.7999999E-01   9.9999998E-03   2.0000000E-02
  1.7999999E-01   9.9999998E-03   3.9999999E-02
  1.7999999E-01   9.9999998E-03   5.9999999E-02
  1.7999999E-01   9.9999998E-03   7.9999998E-02
  1.7999999E-01   9.9999998E-03   1.0000000E-01
  1.7999999E-01   9.9999998E-03   1.2000000E-01
  1.7999999E-01   9.9999998E-03   1.4000000E-01
  2.0000000E-01   9.9999998E-03  -1.0142367E-17
  2.0000000E-01   9.9999998E-03   2.0000000E-02
  2.0000000E-01   9.9999998E-03   3.9999999E-02
  2.0000000E-01   9.9999998E-03   5.9999999E-02
  2.0000000E-01   9.9999998E-03   7.9999998E-02
  2.0000000E-01   9.9999998E-03   1.0000000E-01
  2.0000000E-01   9.9999998E-03   1.2000000E-01
  2.0000000E-01   9.9999998E-03   1.4000000E-01
  2.2000000E-01   9.9999998E-03  -3.2483598E-17
  2.2000000E-01   9.9999998E-03   2.0000000E-02
  2.2000000E-01   9.9999998E-03   3.9999999E-02
  2.2000000E-01   9.9999998E-03   5.9999999E-02
  2.2000000E-01   9.9999998E-03   7.9999998E-02
  2.2000000E-01   9.9999998E-03   1.0000000E-01
  2.2000000E-01   9.9999998E-03   1.2000000E-01
  2.2000000E-01   9.9999998E-03   1.4000000E-01
  2.3999999E-01   9.9999998E-03   1.3279936E-16
  2.3999999E-01   9.9999998E-03   2.0000000E-02
  2.3999999E-01   9.9999998E-03   3.9999999E-02
  2.3999999E-01   9.9999998E-03   5.9999999E-02
  2.3999999E-01   9.9999998E-03   7.9999998E-02
  2.3999999E-01   9.9999998E-03   1.0000000E-01
  2.3999999E-01   9.9999998E-03   1.2000000E-01
  2.3999999E-01   9.9999998E-03   1.4000000E-01
  2.5999999E-01   9.9999998E-03  -2.0796611E-16
  2.5999999E-01   9.9999998E-03   2.0000000E-02
  2.5999999E-01   9.9999998E-03   3.9999999E-02
  2.5999999E-01   9.9999998E-03   5.9999999E-02
  2.5999999E-01   9.9999998E-03   7.9999998E-02
  2.5999999E-01   9.9999998E-03   1.0000000E-01
  2.5999999E-01   9.9999998E-03   1.2000000E-01
  2.5999999E-01   9.9999998E-03   1.4000000E-01
  2.8000000E-01   9.9999998E-03   2.1654906E-16
  2.8000000E-01   9.9999998E-03   2.0000000E-02
  2.8000000E-01   9.9999998E-03   3.9999999E-02
  2.8000000E-01   9.9999998E-03   5.9999999E-02
  2.8000000E-01   9.9999998E-03   7.9999998E-02
  2.8000000E-01   9.9999998E-03   1.0000000E-01
  2.8000000E-01   9.9999998E-03   1.2000000E-01
  2.8000000E-01   9.9999998E-03   1.4000000E-01
  2.9999998E-01   9.9999998E-03  -7.3637148E-16
  2.9999998E-01   9.9999998E-03   2.0000000E-02
  2.9999998E-01   9.9999998E-03   3.9999999E-02
  2.9999998E-01   9.9999998E-03   5.9999999E-02
  2.9999998E-01   9.9999998E-03   7.9999998E-02
  2.9999998E-01   9.9999998E-03   1.0000000E-01
  2.9999998E-01   9.9999998E-03   1.2000000E-01
  2.9999998E-01   9.9999998E-03   1.4000000E-01
  3.1999996E-01   9.9999998E-03  -8.0002246E-16
  3.1999996E-01   9.9999998E-03   2.0000000E-02
  3.1999996E-01   9.9999998E-03   3.9999999E-02
  3.1999996E-01   9.9999998E-03   5.9999999E-02
  3.1999996E-01   9.9999998E-03   7.9999998E-02
  3.1999996E-01   9.9999998E-03   1.0000000E-01
  3.1999996E-01   9.9999998E-03   1.2000000E-01
  3.1999999E-01   9.9999998E-03   1.4000000E-01
  3.3999997E-01   9.9999998E-03   2.0684966E-15
  3.3999997E-01   9.9999998E-03   2.0000000E-02
  3.3999997E-01   9.9999998E-03   3.9999999E-02
  3.3999997E-01   9.9999998E-03   5.9999999E-02
  3.3999997E-01   9.9999998E-03   7.9999998E-02
  3.3999997E-01   9.9999998E-03   1.0000000E-01
  3.3999997E-01   9.9999998E-03   1.2000000E-01
  3.3999997E-01   9.9999998E-03   1.4000000E-01
  3.5999995E-01   9.9999998E-03  -1.6827219E-16
  3.5999995E-01   9.9999998E-03   2.0000000E-02
  3.5999995E-01   9.9999998E-03   3.9999999E-02
  3.5999995E-01   9.9999998E-03   6.0000002E-02
  3.5999995E-01   9.9999998E-03   7.9999998E-02
  3.5999995E-01   9.9999998E-03   1.0000000E-01
  3.5999995E-01   9.9999998E-03   1.2000000E-01
  3.5999995E-01   9.9999998E-03   1.4000000E-01
  3.7999994E-01   9.9999998E-03  -1.7705657E-15
  3.7999994E-01   9.9999998E-03   2.0000000E-02
  3.7999994E-01   9.9999998E-03   3.9999999E-02
  3.7999994E-01   9.9999998E-03   6.0000002E-02
  3.7999994E-01   9.9999998E-03   7.9999998E-02
  3.7999994E-01   9.9999998E-03   1.0000000E-01
  3.7999994E-01   9.9999998E-03   1.2000000E-01
  3.7999994E-01   9.9999998E-03   1.4000000E-01
  3.9999989E-01   9.9999998E-03  -5.0627773E-16
  3.9999989E-01   9.9999998E-03   2.0000000E-02
  3.9999989E-01   9.9999998E-03   3.9999999E-02
  3.9999989E-01   9.9999998E-03   6.0000002E-02
  3.9999989E-01   9.9999998E-03   7.9999998E-02
  3.9999989E-01   9.9999998E-03   1.0000000E-01
  3.9999989E-01   9.9999998E-03   1.2000000E-01
  3.9999989E-01   9.9999998E-03   1.4000000E-01
  4.1999984E-01   9.9999998E-03  -5.3989677E-15
  4.1999984E-01   9.9999998E-03   2.0000001E-02
  4.1999984E-01   9.9999998E-03   4.0000003E-02
  4.1999984E-01   9.9999998E-03   6.0000002E-02
  4.1999984E-01   9.9999998E-03   8.0000006E-02
  4.1999984E-01   9.9999998E-03   1.0000000E-01
  4.1999984E-01   9.9999998E-03   1.2000000E-01
  4.1999984E-01   9.9999998E-03   1.4000000E-01
  4.3999976E-01   9.9999998E-03  -8.8305514E-15
  4.3999976E-01   9.9999998E-03   2.0000001E-02
  4.3999976E-01   9.9999998E-03   4.0000003E-02
  4.3999976E-01   9.9999998E-03   6.0000002E-02
  4.3999976E-01   9.9999998E-03   8.0000006E-02
  4.3999976E-01   9.9999998E-03   1.0000001E-01
  4.3999976E-01   9.9999998E-03   1.2000000E-01
  4.3999976E-01   9.9999998E-03   1.4000002E-01
  4.5999965E-01   9.9999998E-03   3.1315909E-14
  4.5999965E-01   9.9999998E-03   2.0000001E-02
  4.5999965E-01   9.9999998E-03   4.0000003E-02
  4.5999965E-01   9.9999998E-03   6.0000002E-02
  4.5999965E-01   9.9999998E-03   8.0000006E-02
  4.5999965E-01   9.9999998E-03   1.0000001E-01
  4.5999965E-01   9.9999998E-03   1.2000001E-01
  4.5999965E-01   9.9999998E-03   1.4000002E-01
  4.7999951E-01   9.9999998E-03  -2.0707235E-14
  4.7999951E-01   9.9999998E-03   2.0000001E-02
  4.7999951E-01   9.9999998E-03   4.0000003E-02
  4.7999951E-01   9.9999998E-03   6.0000006E-02
  4.7999951E-01   9.9999998E-03   8.0000006E-02
  4.7999951E-01   9.9999998E-03   1.0000001E-01
  4.7999951E-01   9.9999998E-03   1.2000001E-01
  4.7999951E-01   9.9999998E-03   1.4000002E-01
  4.9999928E-01   9.9999998E-03   6.4463824E-15
  4.9999928E-01   9.9999998E-03   2.0000001E-02
  4.9999928E-01   9.9999998E-03   4.0000003E-02
  4.9999928E-01   9.9999998E-03   6.0000006E-02
  4.9999928E-01   9.9999998E-03   8.0000013E-02
  4.9999928E-01   9.9999998E-03   1.0000002E-01
  4.9999928E-01   9.9999998E-03   1.2000002E-01
  4.9999928E-01   9.9999998E-03   1.4000003E-01
  5.1999897E-01   9.9999998E-03  -3.4913217E-14
  5.1999897E-01   9.9999998E-03   2.0000003E-02
  5.1999897E-01   9.9999998E-03   4.0000007E-02
  5.1999897E-01   9.9999998E-03   6.0000010E-02
  5.1999897E-01   9.9999998E-03   8.0000013E-02
  5.1999897E-01   9.9999998E-03   1.0000002E-01
  5.1999897E-01   9.9999998E-03   1.2000003E-01
  5.1999897E-01   9.9999998E-03   1.4000005E-01
  5.3999859E-01   9.9999998E-03   1.9686404E-14
  5.3999859E-01   9.9999998E-03   2.0000003E-02
  5.3999859E-01   9.9999998E-03   4.0000007E-02
  5.3999859E-01   9.9999998E-03   6.0000010E-02
  5.3999859E-01   9.9999998E-03   8.0000021E-02
  5.3999859E-01   9.9999998E-03   1.0000002E-01
  5.3999859E-01   9.9999998E-03   1.2000004E-01
  5.3999859E-01   9.9999998E-03   1.4000006E-01
  5.5999815E-01   9.9999998E-03  -1.6606110E-14
  5.5999815E-01   9.9999998E-03   2.0000003E-02
  5.5999815E-01   9.9999998E-03   4.0000007E-02
  5.5999815E-01   9.9999998E-03   6.0000014E-02
  5.5999815E-01   9.9999998E-03   8.0000021E-02
  5.5999815E-01   9.9999998E-03   1.0000003E-01
  5.5999815E-01   9.9999998E-03   1.2000005E-01
  5.5999815E-01   9.9999998E-03   1.4000008E-01
  5.7999766E-01   9.9999998E-03  -2.4107880E-13
  5.7999766E-01   9.9999998E-03   2.0000005E-02
  5.7999766E-01   9.9999998E-03   4.0000010E-02
  5.7999766E-01   9.9999998E-03   6.0000017E-02
  5.7999766E-01   9.9999998E-03   8.0000028E-02
  5.7999766E-01   9.9999998E-03   1.0000005E-01
  5.7999766E-01   9.9999998E-03   1.2000006E-01
  5.7999766E-01   9.9999998E-03   1.4000010E-01
  5.9999722E-01   9.9999998E-03  -7.4312518E-14
  5.9999722E-01   9.9999998E-03   2.0000005E-02
  5.9999722E-01   9.9999998E-03   4.0000014E-02
  5.9999722E-01   9.9999998E-03   6.0000021E-02
  5.9999722E-01   9.9999998E-03   8.0000035E-02
  5.9999722E-01   9.9999998E-03   1.0000005E-01
  5.9999722E-01   9.9999998E-03   1.2000008E-01
  5.9999716E-01   9.9999998E-03   1.4000012E-01
  6.1999673E-01   9.9999998E-03  -2.5100329E-13
  6.1999673E-01   9.9999998E-03   2.0000007E-02
  6.1999673E-01   9.9999998E-03   4.0000014E-02
  6.1999673E-01   9.9999998E-03   6.0000025E-02
  6.1999673E-01   9.9999998E-03   8.0000043E-02
  6.1999673E-01   9.9999998E-03   1.0000006E-01
  6.1999673E-01   9.9999998E-03   1.2000009E-01
  6.1999673E-01   9.9999998E-03   1.4000013E-01
  6.3999635E-01   9.9999998E-03   6.0526067E-14
  6.3999635E-01   9.9999998E-03   2.0000007E-02
  6.3999635E-01   9.9999998E-03   4.0000014E-02
  6.3999635E-01   9.9999998E-03   6.0000025E-02
  6.3999635E-01   9.9999998E-03   8.0000043E-02
  6.3999635E-01   9.9999998E-03   1.0000007E-01
  6.3999635E-01   9.9999998E-03   1.2000010E-01
  6.3999629E-01   9.9999998E-03   1.4000015E-01
  6.5999609E-01   9.9999998E-03  -2.7177006E-14
  6.5999609E-01   9.9999998E-03   2.0000007E-02
  6.5999609E-01   9.9999998E-03   4.0000014E-02
  6.5999609E-01   9.9999998E-03   6.0000028E-02
  6.5999609E-01   9.9999998E-03   8.0000050E-02
  6.5999609E-01   9.9999998E-03   1.0000008E-01
  6.5999603E-01   9.9999998E-03   1.2000012E-01
  6.5999603E-01   9.9999998E-03   1.4000018E-01
  6.7999613E-01   9.9999998E-03   4.4625601E-13
  6.7999613E-01   9.9999998E-03   2.0000005E-02
  6.7999613E-01   9.9999998E-03   4.0000014E-02
  6.7999613E-01   9.9999998E-03   6.0000028E-02
  6.7999613E-01   9.9999998E-03   8.0000050E-02
  6.7999613E-01   9.9999998E-03   1.0000008E-01
  6.7999613E-01   9.9999998E-03   1.2000014E-01
  6.7999613E-01   9.9999998E-03   1.4000019E-01
  6.9999677E-01   9.9999998E-03   1.1980676E-12
  6.9999677E-01   9.9999998E-03   2.0000005E-02
  6.9999677E-01   9.9999998E-03   4.0000014E-02
  6.9999677E-01   9.9999998E-03   6.0000028E-02
  6.9999677E-01   9.9999998E-03   8.0000058E-02
  6.9999677E-01   9.9999998E-03   1.0000009E-01
  6.9999677E-01   9.9999998E-03   1.2000015E-01
  6.9999671E-01   9.9999998E-03   1.4000022E-01
  7.1999776E-01   9.9999998E-03   2.3641652E-13
  7.1999776E-01   9.9999998E-03   2.0000005E-02
  7.1999776E-01   9.9999998E-03   4.0000014E-02
  7.1999776E-01   9.9999998E-03   6.0000032E-02
  7.1999776E-01   9.9999998E-03   8.0000058E-02
  7.1999770E-01   9.9999998E-03   1.0000011E-01
  7.1999770E-01   9.9999998E-03   1.2000017E-01
  7.1999770E-01   9.9999998E-03   1.4000024E-01
  7.3999864E-01   9.9999998E-03   1.7255591E-12
  7.3999864E-01   9.9999998E-03   2.0000005E-02
  7.3999864E-01   9.9999998E-03   4.0000014E-02
  7.3999864E-01   9.9999998E-03   6.0000032E-02
  7.3999864E-01   9.9999998E-03   8.0000065E-02
  7.3999864E-01   9.9999998E-03   1.0000011E-01
  7.3999864E-01   9.9999998E-03   1.2000018E-01
  7.3999864E-01   9.9999998E-03   1.4000025E-01
  7.5999933E-01   9.9999998E-03   1.3358071E-12
  7.5999933E-01   9.9999998E-03   2.0000005E-02
  7.5999933E-01   9.9999998E-03   4.0000014E-02
  7.5999933E-01   9.9999998E-03   6.0000036E-02
  7.5999933E-01   9.9999998E-03   8.0000065E-02
  7.5999933E-01   9.9999998E-03   1.0000011E-01
  7.5999933E-01   9.9999998E-03   1.2000018E-01
  7.5999933E-01   9.9999998E-03   1.4000027E-01
  7.7999979E-01   9.9999998E-03  -8.9654315E-13
  7.7999979E-01   9.9999998E-03   2.0000005E-02
  7.7999979E-01   9.9999998E-03   4.0000018E-02
  7.7999979E-01   9.9999998E-03   6.0000036E-02
  7.7999979E-01   9.9999998E-03   8.0000065E-02
  7.7999979E-01   9.9999998E-03   1.0000012E-01
  7.7999979E-01   9.9999998E-03   1.2000019E-01
  7.7999979E-01   9.9999998E-03   1.4000027E-01
  8.0000019E-01   9.9999998E-03  -9.7666634E-13
  8.0000019E-01   9.9999998E-03   2.0000007E-02
  8.0000019E-01   9.9999998E-03   4.0000018E-02
  8.0000019E-01   9.9999998E-03   6.0000036E-02
  8.0000019E-01   9.9999998E-03   8.0000065E-02
  8.0000019E-01   9.9999998E-03   1.0000012E-01
  8.0000019E-01   9.9999998E-03   1.2000019E-01
  8.0000019E-01   9.9999998E-03   1.4000028E-01
  8.2000053E-01   9.9999998E-03   1.0019173E-12
  8.2000053E-01   9.9999998E-03   2.0000005E-02
  8.2000053E-01   9.9999998E-03   4.0000018E-02
  8.2000053E-01   9.9999998E-03   6.0000036E-02
  8.2000053E-01   9.9999998E-03   8.0000065E-02
  8.2000053E-01   9.9999998E-03   1.0000012E-01
  8.2000053E-01   9.9999998E-03   1.2000019E-01
  8.2000053E-01   9.9999998E-03   1.4000027E-01
  8.4000087E-01   9.9999998E-03   9.0249070E-13
  8.4000087E-01   9.9999998E-03   2.0000005E-02
  8.4000087E-01   9.9999998E-03   4.0000014E-02
  8.4000087E-01   9.9999998E-03   6.0000036E-02
  8.4000087E-01   9.9999998E-03   8.0000065E-02
  8.4000087E-01   9.9999998E-03   1.0000011E-01
  8.4000093E-01   9.9999998E-03   1.2000018E-01
  8.4000093E-01   9.9999998E-03   1.4000027E-01
  8.6000127E-01   9.9999998E-03   1.6973216E-12
  8.6000127E-01   9.9999998E-03   2.0000005E-02
  8.6000127E-01   9.9999998E-03   4.0000014E-02
  8.6000127E-01   9.9999998E-03   6.0000032E-02
  8.6000127E-01   9.9999998E-03   8.0000065E-02
  8.6000127E-01   9.9999998E-03   1.0000011E-01
  8.6000127E-01   9.9999998E-03   1.2000018E-01
  8.6000127E-01   9.9999998E-03   1.4000025E-01
  8.8000160E-01   9.9999998E-03   1.7997710E-13
  8.8000160E-01   9.9999998E-03   2.0000005E-02
  8.8000160E-01   9.9999998E-03   4.0000014E-02
  8.8000160E-01   9.9999998E-03   6.0000032E-02
  8.8000160E-01   9.9999998E-03   8.0000058E-02
  8.8000160E-01   9.9999998E-03   1.0000011E-01
  8.8000160E-01   9.9999998E-03   1.2000017E-01
  8.8000160E-01   9.9999998E-03   1.4000025E-01
  9.0000188E-01   9.9999998E-03  -8.1752302E-13
  9.0000188E-01   9.9999998E-03   2.0000005E-02
  9.0000188E-01   9.9999998E-03   4.0000014E-02
  9.0000188E-01   9.9999998E-03   6.0000028E-02
  9.0000188E-01   9.9999998E-03   8.0000058E-02
  9.0000188E-01   9.9999998E-03   1.0000010E-01
  9.0000194E-01   9.9999998E-03   1.2000016E-01
  9.0000194E-01   9.9999998E-03   1.4000024E-01
  9.2000210E-01   9.9999998E-03   1.7356573E-12
  9.2000210E-01   9.9999998E-03   2.0000005E-02
  9.2000210E-01   9.9999998E-03   4.0000014E-02
  9.2000210E-01   9.9999998E-03   6.0000028E-02
  9.2000210E-01   9.9999998E-03   8.0000058E-02
  9.2000210E-01   9.9999998E-03   1.0000010E-01
  9.2000210E-01   9.9999998E-03   1.2000015E-01
  9.2000216E-01   9.9999998E-03   1.4000022E-01
  9.4000214E-01   9.9999998E-03  -1.8281959E-13
  9.4000214E-01   9.9999998E-03   2.0000007E-02
  9.4000214E-01   9.9999998E-03   4.0000014E-02
  9.4000214E-01   9.9999998E-03   6.0000032E-02
  9.4000220E-01   9.9999998E-03   8.0000058E-02
  9.4000220E-01   9.9999998E-03   1.0000009E-01
  9.4000220E-01   9.9999998E-03   1.2000015E-01
  9.4000220E-01   9.9999998E-03   1.4000021E-01
  9.6000212E-01   9.9999998E-03  -8.7263795E-13
  9.6000212E-01   9.9999998E-03   2.0000007E-02
  9.6000212E-01   9.9999998E-03   4.0000018E-02
  9.6000212E-01   9.9999998E-03   6.0000032E-02
  9.6000212E-01   9.9999998E-03   8.0000058E-02
  9.6000218E-01   9.9999998E-03   1.0000009E-01
  9.6000218E-01   9.9999998E-03   1.2000014E-01
  9.6000218E-01   9.9999998E-03   1.4000019E-01
  9.8000211E-01   9.9999998E-03  -7.4560312E-14
  9.8000211E-01   9.9999998E-03   2.0000007E-02
  9.8000211E-01   9.9999998E-03   4.0000018E-02
  9.8000211E-01   9.9999998E-03   6.0000032E-02
  9.8000211E-01   9.9999998E-03   8.0000050E-02
  9.8000211E-01   9.9999998E-03   1.0000008E-01
  9.8000211E-01   9.9999998E-03   1.2000013E-01
  9.8000211E-01   9.9999998E-03   1.4000018E-01
  1.0000020E+00   9.9999998E-03  -9.4972706E-13
  1.0000020E+00   9.9999998E-03   2.0000009E-02
  1.0000020E+00   9.9999998E-03   4.0000018E-02
  1.0000020E+00   9.9999998E-03   6.0000032E-02
  1.0000020E+00   9.9999998E-03   8.0000050E-02
  1.0000020E+00   9.9999998E-03   1.0000008E-01
  1.0000020E+00   9.9999998E-03   1.2000012E-01
  1.0000020E+00   9.9999998E-03   1.4000018E-01
  1.0200019E+00   9.9999998E-03  -5.8847859E-13
  1.0200019E+00   9.9999998E-03   2.0000009E-02
  1.0200019E+00   9.9999998E-03   4.0000018E-02
  1.0200019E+00   9.9999998E-03   6.0000032E-02
  1.0200019E+00   9.9999998E-03   8.0000050E-02
  1.0200019E+00   9.9999998E-03   1.0000008E-01
  1.0200019E+00   9.9999998E-03   1.2000012E-01
  1.0200019E+00   9.9999998E-03   1.4000016E-01
  1.0400017E+00   9.9999998E-03   1.3050463E-12
  1.0400017E+00   9.9999998E-03   2.0000009E-02
  1.0400017E+00   9.9999998E-03   4.0000018E-02
  1.0400017E+00   9.9999998E-03   6.0000032E-02
  1.0400017E+00   9.9999998E-03   8.0000050E-02
  1.0400017E+00   9.9999998E-03   1.0000008E-01
  1.0400017E+00   9.9999998E-03   1.2000012E-01
  1.0400019E+00   9.9999998E-03   1.4000016E-01
  1.0600016E+00   9.9999998E-03   8.3510179E-13
  1.0600016E+00   9.9999998E-03   2.0000009E-02
  1.0600016E+00   9.9999998E-03   4.0000018E-02
  1.0600016E+00   9.9999998E-03   6.0000032E-02
  1.0600016E+00   9.9999998E-03   8.0000050E-02
  1.0600016E+00   9.9999998E-03   1.0000008E-01
  1.0600016E+00   9.9999998E-03   1.2000012E-01
  1.0600017E+00   9.9999998E-03   1.4000016E-01
  1.0800015E+00   9.9999998E-03   2.9345122E-13
  1.0800015E+00   9.9999998E-03   2.0000009E-02
  1.0800015E+00   9.9999998E-03   4.0000021E-02
  1.0800015E+00   9.9999998E-03   6.0000036E-02
  1.0800015E+00   9.9999998E-03   8.0000050E-02
  1.0800015E+00   9.9999998E-03   1.0000008E-01
  1.0800015E+00   9.9999998E-03   1.2000011E-01
  1.0800016E+00   9.9999998E-03   1.4000015E-01
  1.1000013E+00   9.9999998E-03   2.2583121E-13
  1.1000013E+00   9.9999998E-03   2.0000011E-02
  1.1000013E+00   9.9999998E-03   4.0000021E-02
  1.1000013E+00   9.9999998E-03   6.0000036E-02
  1.1000013E+00   9.9999998E-03   8.0000058E-02
  1.1000013E+00   9.9999998E-03   1.0000008E-01
  1.1000013E+00   9.9999998E-03   1.2000011E-01
  1.1000015E+00   9.9999998E-03   1.4000015E-01
  1.1200012E+00   9.9999998E-03   1.2165525E-13
  1.1200012E+00   9.9999998E-03   2.0000011E-02
  1.1200012E+00   9.9999998E-03   4.0000025E-02
  1.1200012E+00   9.9999998E-03   6.0000040E-02
  1.1200012E+00   9.9999998E-03   8.0000058E-02
  1.1200012E+00   9.9999998E-03   1.0000008E-01
  1.1200012E+00   9.9999998E-03   1.2000010E-01
  1.1200013E+00   9.9999998E-03   1.4000013E-01
  1.1400011E+00   9.9999998E-03  -1.6700607E-13
  1.1400011E+00   9.9999998E-03   2.0000013E-02
  1.1400011E+00   9.9999998E-03   4.0000025E-02
  1.1400011E+00   9.9999998E-03   6.0000036E-02
  1.1400011E+00   9.9999998E-03   8.0000050E-02
  1.1400011E+00   9.9999998E-03   1.0000007E-01
  1.1400012E+00   9.9999998E-03   1.2000009E-01
  1.1400012E+00   9.9999998E-03   1.4000015E-01
  1.1600009E+00   9.9999998E-03   2.0557147E-13
  1.1600009E+00   9.9999998E-03   2.0000011E-02
  1.1600009E+00   9.9999998E-03   4.0000021E-02
  1.1600009E+00   9.9999998E-03   6.0000032E-02
  1.1600010E+00   9.9999998E-03   8.0000043E-02
  1.1600010E+00   9.9999998E-03   1.0000006E-01
  1.1600010E+00   9.9999998E-03   1.2000010E-01
  1.1600012E+00   9.9999998E-03   1.4000018E-01
  1.1800009E+00   9.9999998E-03   3.5848641E-13
  1.1800009E+00   9.9999998E-03   2.0000007E-02
  1.1800009E+00   9.9999998E-03   4.0000014E-02
  1.1800009E+00   9.9999998E-03   6.0000025E-02
  1.1800009E+00   9.9999998E-03   8.0000043E-02
  1.1800009E+00   9.9999998E-03   1.0000008E-01
  1.1800010E+00   9.9999998E-03   1.2000015E-01
  1.1800011E+00   9.9999998E-03   1.4000027E-01
  1.2000008E+00   9.9999998E-03   2.7559403E-13
  1.2000008E+00   9.9999998E-03   2.0000007E-02
  1.2000008E+00   9.9999998E-03   4.0000018E-02
  1.2000008E+00   9.9999998E-03   6.0000036E-02
  1.2000009E+00   9.9999998E-03   8.0000073E-02
  1.2000009E+00   9.9999998E-03   1.0000014E-01
  1.2000011E+00   9.9999998E-03   1.2000024E-01
  1.2000012E+00   9.9999998E-03   1.4000042E-01
  1.2200007E+00   9.9999998E-03  -2.1577359E-13
  1.2200007E+00   9.9999998E-03   2.0000016E-02
  1.2200009E+00   9.9999998E-03   4.0000040E-02
  1.2200009E+00   9.9999998E-03   6.0000084E-02
  1.2200010E+00   9.9999998E-03   8.0000155E-02
  1.2200011E+00   9.9999998E-03   1.0000025E-01
  1.2200013E+00   9.9999998E-03   1.2000040E-01
  1.2200016E+00   9.9999998E-03   1.4000061E-01
  1.2400010E+00   9.9999998E-03   2.2558080E-14
  1.2400010E+00   9.9999998E-03   2.0000037E-02
  1.2400011E+00   9.9999998E-03   4.0000085E-02
  1.2400011E+00   9.9999998E-03   6.0000159E-02
  1.2400013E+00   9.9999998E-03   8.0000259E-02
  1.2400014E+00   9.9999998E-03   1.0000040E-01
  1.2400017E+00   9.9999998E-03   1.2000058E-01
  1.2400020E+00   9.9999998E-03   1.4000082E-01
  1.2600014E+00   9.9999998E-03  -4.6208957E-14
  1.2600014E+00   9.9999998E-03   2.0000057E-02
  1.2600015E+00   9.9999998E-03   4.0000133E-02
  1.2600017E+00   9.9999998E-03   6.0000241E-02
  1.2600018E+00   9.9999998E-03   8.0000386E-02
  1.2600019E+00   9.9999998E-03   1.0000057E-01
  1.2600021E+00   9.9999998E-03   1.2000077E-01
  1.2600023E+00   9.9999998E-03   1.4000101E-01
  1.2800020E+00   9.9999998E-03   6.8180521E-14
  1.2800020E+00   9.9999998E-03   2.0000082E-02
  1.2800020E+00   9.9999998E-03   4.0000185E-02
  1.2800021E+00   9.9999998E-03   6.0000334E-02
  1.2800021E+00   9.9999998E-03   8.0000527E-02
  1.2800022E+00   9.9999998E-03   1.0000075E-01
  1.2800022E+00   9.9999998E-03   1.2000097E-01
  1.3000022E+00   9.9999998E-03   5.3072642E-14
  1.3000022E+00   9.9999998E-03   2.0000106E-02
  1.3000022E+00   9.9999998E-03   4.0000245E-02
  1.3000022E+00   9.9999998E-03   6.0000438E-02
  1.3000022E+00   9.9999998E-03   8.0000684E-02
 -4.8451243E-12   9.9999998E-03   1.6000000E-01
 -4.6160918E-12   9.9999998E-03   1.8000001E-01
 -4.3298511E-12   9.9999998E-03   2.0000000E-01
 -3.9786382E-12   9.9999998E-03   2.2000000E-01
 -3.5542567E-12   9.9999998E-03   2.3999999E-01
 -3.0514040E-12   9.9999998E-03   2.5999999E-01
 -2.4651516E-12   9.9999998E-03   2.8000000E-01
  2.0000000E-02   9.9999998E-03   1.6000000E-01
  2.0000000E-02   9.9999998E-03   1.8000001E-01
  2.0000000E-02   9.9999998E-03   2.0000000E-01
  2.0000000E-02   9.9999998E-03   2.2000000E-01
  2.0000000E-02   9.9999998E-03   2.3999999E-01
  2.0000000E-02   9.9999998E-03   2.5999999E-01
  2.0000000E-02   9.9999998E-03   2.8000000E-01
  2.0000000E-02   9.9999998E-03   3.0000001E-01
  3.9999999E-02   9.9999998E-03   1.6000000E-01
  3.9999999E-02   9.9999998E-03   1.8000001E-01
  3.9999999E-02   9.9999998E-03   2.0000000E-01
  3.9999999E-02   9.9999998E-03   2.2000000E-01
  3.9999999E-02   9.9999998E-03   2.3999999E-01
  3.9999999E-02   9.9999998E-03   2.5999999E-01
  3.9999999E-02   9.9999998E-03   2.8000000E-01
  3.9999999E-02   9.9999998E-03   3.0000001E-01
  5.9999999E-02   9.9999998E-03   1.6000000E-01
  5.9999999E-02   9.9999998E-03   1.8000001E-01
  5.9999999E-02   9.9999998E-03   2.0000000E-01
  5.9999999E-02   9.9999998E-03   2.2000000E-01
  5.9999999E-02   9.9999998E-03   2.3999999E-01
  5.9999999E-02   9.9999998E-03   2.5999999E-01
  5.9999999E-02   9.9999998E-03   2.8000000E-01
  5.9999999E-02   9.9999998E-03   3.0000001E-01
  7.9999998E-02   9.9999998E-03   1.6000000E-01
  7.9999998E-02   9.9999998E-03   1.8000001E-01
  7.9999998E-02   9.9999998E-03   2.0000000E-01
  7.9999998E-02   9.9999998E-03   2.2000000E-01
  7.9999998E-02   9.9999998E-03   2.3999999E-01
  7.9999998E-02   9.9999998E-03   2.5999999E-01
  7.9999998E-02   9.9999998E-03   2.8000000E-01
  7.9999998E-02   9.9999998E-03   3.0000001E-01
  1.0000000E-01   9.9999998E-03   1.6000000E-01
  1.0000000E-01   9.9999998E-03   1.8000001E-01
  1.0000000E-01   9.9999998E-03   2.0000000E-01
  1.0000000E-01   9.9999998E-03   2.2000000E-01
  1.0000000E-01   9.9999998E-03   2.3999999E-01
  1.0000000E-01   9.9999998E-03   2.5999999E-01
  1.0000000E-01   9.9999998E-03   2.8000000E-01
  1.0000000E-01   9.9999998E-03   3.0000001E-01
  1.2000000E-01   9.9999998E-03   1.6000000E-01
  1.2000000E-01   9.9999998E-03   1.8000001E-01
  1.2000000E-01   9.9999998E-03   2.0000000E-01
  1.2000000E-01   9.9999998E-03   2.2000000E-01
  1.2000000E-01   9.9999998E-03   2.3999999E-01
  1.2000000E-01   9.9999998E-03   2.5999999E-01
  1.2000000E-01   9.9999998E-03   2.8000000E-01
  1.2000000E-01   9.9999998E-03   3.0000001E-01
  1.4000000E-01   9.9999998E-03   1.6000000E-01
  1.4000000E-01   9.9999998E-03   1.8000001E-01
  1.4000000E-01   9.9999998E-03   2.0000000E-01
  1.4000000E-01   9.9999998E-03   2.2000000E-01
  1.4000000E-01   9.9999998E-03   2.3999999E-01
  1.4000000E-01   9.9999998E-03   2.5999999E-01
  1.4000000E-01   9.9999998E-03   2.8000000E-01
  1.4000000E-01   9.9999998E-03   3.0000001E-01
  1.6000000E-01   9.9999998E-03   1.6000000E-01
  1.6000000E-01   9.9999998E-03   1.8000001E-01
  1.6000000E-01   9.9999998E-03   2.0000000E-01
  1.6000000E-01   9.9999998E-03   2.2000000E-01
  1.6000000E-01   9.9999998E-03   2.3999999E-01
  1.6000000E-01   9.9999998E-03   2.5999999E-01
  1.6000000E-01   9.9999998E-03   2.8000000E-01
  1.6000000E-01   9.9999998E-03   3.0000001E-01
  1.7999999E-01   9.9999998E-03   1.6000000E-01
  1.7999999E-01   9.9999998E-03   1.8000001E-01
  1.7999999E-01   9.9999998E-03   2.0000000E-01
  1.7999999E-01   9.9999998E-03   2.2000000E-01
  1.7999999E-01   9.9999998E-03   2.3999999E-01
  1.7999999E-01   9.9999998E-03   2.5999999E-01
  1.7999999E-01   9.9999998E-03   2.8000000E-01
  1.7999999E-01   9.9999998E-03   3.0000001E-01
  2.0000000E-01   9.9999998E-03   1.6000000E-01
  2.0000000E-01   9.9999998E-03   1.8000001E-01
  2.0000000E-01   9.9999998E-03   2.0000000E-01
  2.0000000E-01   9.9999998E-03   2.2000000E-01
  2.0000000E-01   9.9999998E-03   2.3999999E-01
  2.0000000E-01   9.9999998E-03   2.5999999E-01
  2.0000000E-01   9.9999998E-03   2.8000000E-01
  2.0000000E-01   9.9999998E-03   3.0000001E-01
  2.2000000E-01   9.9999998E-03   1.6000000E-01
  2.2000000E-01   9.9999998E-03   1.8000001E-01
  2.2000000E-01   9.9999998E-03   2.0000000E-01
  2.2000000E-01   9.9999998E-03   2.2000000E-01
  2.2000000E-01   9.9999998E-03   2.3999999E-01
  2.2000000E-01   9.9999998E-03   2.5999999E-01
  2.2000000E-01   9.9999998E-03   2.8000000E-01
  2.2000000E-01   9.9999998E-03   3.0000001E-01
  2.3999999E-01   9.9999998E-03   1.6000000E-01
  2.3999999E-01   9.9999998E-03   1.8000001E-01
  2.3999999E-01   9.9999998E-03   2.0000000E-01
  2.3999999E-01   9.9999998E-03   2.2000000E-01
  2.3999999E-01   9.9999998E-03   2.3999999E-01
  2.3999999E-01   9.9999998E-03   2.5999999E-01
  2.3999999E-01   9.9999998E-03   2.8000000E-01
  2.3999999E-01   9.9999998E-03   3.0000001E-01
  2.5999999E-01   9.9999998E-03   1.6000000E-01
  2.5999999E-01   9.9999998E-03   1.8000001E-01
  2.5999999E-01   9.9999998E-03   2.0000000E-01
  2.5999999E-01   9.9999998E-03   2.2000000E-01
  2.5999999E-01   9.9999998E-03   2.3999999E-01
  2.5999999E-01   9.9999998E-03   2.5999999E-01
  2.5999999E-01   9.9999998E-03   2.8000000E-01
  2.5999999E-01   9.9999998E-03   3.0000001E-01
  2.8000000E-01   9.9999998E-03   1.6000000E-01
  2.8000000E-01   9.9999998E-03   1.8000001E-01
  2.8000000E-01   9.9999998E-03   2.0000000E-01
  2.8000000E-01   9.9999998E-03   2.2000000E-01
  2.8000000E-01   9.9999998E-03   2.3999999E-01
  2.8000000E-01   9.9999998E-03   2.5999999E-01
  2.8000000E-01   9.9999998E-03   2.8000000E-01
  2.8000000E-01   9.9999998E-03   3.0000001E-01
  2.9999998E-01   9.9999998E-03   1.6000000E-01
  2.9999998E-01   9.9999998E-03   1.8000001E-01
  2.9999998E-01   9.9999998E-03   2.0000000E-01
  2.9999998E-01   9.9999998E-03   2.2000000E-01
  2.9999998E-01   9.9999998E-03   2.3999999E-01
  2.9999998E-01   9.9999998E-03   2.5999999E-01
  2.9999998E-01   9.9999998E-03   2.8000000E-01
  2.9999998E-01   9.9999998E-03   3.0000001E-01
  3.1999999E-01   9.9999998E-03   1.6000000E-01
  3.1999999E-01   9.9999998E-03   1.8000001E-01
  3.1999999E-01   9.9999998E-03   2.0000000E-01
  3.1999999E-01   9.9999998E-03   2.2000000E-01
  3.1999999E-01   9.9999998E-03   2.4000001E-01
  3.1999999E-01   9.9999998E-03   2.5999999E-01
  3.1999999E-01   9.9999998E-03   2.8000000E-01
  3.1999999E-01   9.9999998E-03   3.0000001E-01
  3.3999997E-01   9.9999998E-03   1.6000000E-01
  3.3999997E-01   9.9999998E-03   1.8000001E-01
  3.3999997E-01   9.9999998E-03   2.0000000E-01
  3.3999997E-01   9.9999998E-03   2.2000000E-01
  3.3999997E-01   9.9999998E-03   2.4000001E-01
  3.3999997E-01   9.9999998E-03   2.6000002E-01
  3.3999997E-01   9.9999998E-03   2.8000000E-01
  3.3999997E-01   9.9999998E-03   3.0000001E-01
  3.5999995E-01   9.9999998E-03   1.6000000E-01
  3.5999995E-01   9.9999998E-03   1.8000001E-01
  3.5999995E-01   9.9999998E-03   2.0000000E-01
  3.5999995E-01   9.9999998E-03   2.2000000E-01
  3.5999995E-01   9.9999998E-03   2.4000001E-01
  3.5999995E-01   9.9999998E-03   2.6000002E-01
  3.5999995E-01   9.9999998E-03   2.8000000E-01
  3.5999995E-01   9.9999998E-03   3.0000001E-01
  3.7999994E-01   9.9999998E-03   1.6000000E-01
  3.7999994E-01   9.9999998E-03   1.8000001E-01
  3.7999994E-01   9.9999998E-03   2.0000000E-01
  3.7999994E-01   9.9999998E-03   2.2000001E-01
  3.7999994E-01   9.9999998E-03   2.4000001E-01
  3.7999994E-01   9.9999998E-03   2.6000002E-01
  3.7999994E-01   9.9999998E-03   2.8000003E-01
  3.7999994E-01   9.9999998E-03   3.0000001E-01
  3.9999989E-01   9.9999998E-03   1.6000001E-01
  3.9999989E-01   9.9999998E-03   1.8000001E-01
  3.9999989E-01   9.9999998E-03   2.0000000E-01
  3.9999989E-01   9.9999998E-03   2.2000001E-01
  3.9999989E-01   9.9999998E-03   2.4000001E-01
  3.9999992E-01   9.9999998E-03   2.6000002E-01
  3.9999992E-01   9.9999998E-03   2.8000003E-01
  3.9999992E-01   9.9999998E-03   3.0000004E-01
  4.1999984E-01   9.9999998E-03   1.6000001E-01
  4.1999984E-01   9.9999998E-03   1.8000001E-01
  4.1999984E-01   9.9999998E-03   2.0000002E-01
  4.1999984E-01   9.9999998E-03   2.2000001E-01
  4.1999984E-01   9.9999998E-03   2.4000002E-01
  4.1999987E-01   9.9999998E-03   2.6000002E-01
  4.1999987E-01   9.9999998E-03   2.8000003E-01
  4.1999987E-01   9.9999998E-03   3.0000004E-01
  4.3999976E-01   9.9999998E-03   1.6000001E-01
  4.3999976E-01   9.9999998E-03   1.8000002E-01
  4.3999976E-01   9.9999998E-03   2.0000002E-01
  4.3999979E-01   9.9999998E-03   2.2000003E-01
  4.3999979E-01   9.9999998E-03   2.4000002E-01
  4.3999979E-01   9.9999998E-03   2.6000005E-01
  4.3999979E-01   9.9999998E-03   2.8000006E-01
  4.3999982E-01   9.9999998E-03   3.0000007E-01
  4.5999965E-01   9.9999998E-03   1.6000001E-01
  4.5999965E-01   9.9999998E-03   1.8000002E-01
  4.5999968E-01   9.9999998E-03   2.0000003E-01
  4.5999968E-01   9.9999998E-03   2.2000003E-01
  4.5999968E-01   9.9999998E-03   2.4000004E-01
  4.5999968E-01   9.9999998E-03   2.6000005E-01
  4.5999968E-01   9.9999998E-03   2.8000009E-01
  4.5999971E-01   9.9999998E-03   3.0000013E-01
  4.7999951E-01   9.9999998E-03   1.6000003E-01
  4.7999951E-01   9.9999998E-03   1.8000004E-01
  4.7999951E-01   9.9999998E-03   2.0000005E-01
  4.7999951E-01   9.9999998E-03   2.2000006E-01
  4.7999951E-01   9.9999998E-03   2.4000007E-01
  4.7999954E-01   9.9999998E-03   2.6000008E-01
  4.7999954E-01   9.9999998E-03   2.8000012E-01
  4.7999957E-01   9.9999998E-03   3.0000019E-01
  4.9999928E-01   9.9999998E-03   1.6000004E-01
  4.9999928E-01   9.9999998E-03   1.8000005E-01
  4.9999931E-01   9.9999998E-03   2.0000006E-01
  4.9999931E-01   9.9999998E-03   2.2000009E-01
  4.9999931E-01   9.9999998E-03   2.4000010E-01
  4.9999931E-01   9.9999998E-03   2.6000014E-01
  4.9999931E-01   9.9999998E-03   2.8000018E-01
  4.9999934E-01   9.9999998E-03   3.0000028E-01
  5.1999897E-01   9.9999998E-03   1.6000006E-01
  5.1999903E-01   9.9999998E-03   1.8000008E-01
  5.1999903E-01   9.9999998E-03   2.0000011E-01
  5.1999903E-01   9.9999998E-03   2.2000013E-01
  5.1999903E-01   9.9999998E-03   2.4000016E-01
  5.1999903E-01   9.9999998E-03   2.6000020E-01
  5.1999903E-01   9.9999998E-03   2.8000030E-01
  5.1999903E-01   9.9999998E-03   3.0000043E-01
  5.3999859E-01   9.9999998E-03   1.6000009E-01
  5.3999865E-01   9.9999998E-03   1.8000011E-01
  5.3999865E-01   9.9999998E-03   2.0000015E-01
  5.3999865E-01   9.9999998E-03   2.2000019E-01
  5.3999871E-01   9.9999998E-03   2.4000026E-01
  5.3999865E-01   9.9999998E-03   2.6000035E-01
  5.3999859E-01   9.9999998E-03   2.8000048E-01
  5.3999853E-01   9.9999998E-03   3.0000070E-01
  5.5999815E-01   9.9999998E-03   1.6000012E-01
  5.5999815E-01   9.9999998E-03   1.8000016E-01
  5.5999821E-01   9.9999998E-03   2.0000021E-01
  5.5999821E-01   9.9999998E-03   2.2000028E-01
  5.5999821E-01   9.9999998E-03   2.4000038E-01
  5.5999821E-01   9.9999998E-03   2.6000056E-01
  5.5999810E-01   9.9999998E-03   2.8000081E-01
  5.5999792E-01   9.9999998E-03   3.0000111E-01
  5.7999766E-01   9.9999998E-03   1.6000015E-01
  5.7999772E-01   9.9999998E-03   1.8000020E-01
  5.7999772E-01   9.9999998E-03   2.0000027E-01
  5.7999772E-01   9.9999998E-03   2.2000037E-01
  5.7999772E-01   9.9999998E-03   2.4000055E-01
  5.7999766E-01   9.9999998E-03   2.6000085E-01
  5.7999754E-01   9.9999998E-03   2.8000134E-01
  5.7999718E-01   9.9999998E-03   3.0000183E-01
  5.9999716E-01   9.9999998E-03   1.6000018E-01
  5.9999716E-01   9.9999998E-03   1.8000023E-01
  5.9999716E-01   9.9999998E-03   2.0000033E-01
  5.9999716E-01   9.9999998E-03   2.2000049E-01
  5.9999716E-01   9.9999998E-03   2.4000080E-01
  5.9999704E-01   9.9999998E-03   2.6000136E-01
  5.9999686E-01   9.9999998E-03   2.8000224E-01
  5.9999639E-01   9.9999998E-03   3.0000302E-01
  6.1999673E-01   9.9999998E-03   1.6000019E-01
  6.1999667E-01   9.9999998E-03   1.8000026E-01
  6.1999667E-01   9.9999998E-03   2.0000039E-01
  6.1999661E-01   9.9999998E-03   2.2000065E-01
  6.1999655E-01   9.9999998E-03   2.4000123E-01
  6.1999649E-01   9.9999998E-03   2.6000234E-01
  6.1999625E-01   9.9999998E-03   2.8000382E-01
  6.1999571E-01   9.9999998E-03   3.0000508E-01
  6.3999629E-01   9.9999998E-03   1.6000021E-01
  6.3999623E-01   9.9999998E-03   1.8000029E-01
  6.3999617E-01   9.9999998E-03   2.0000049E-01
  6.3999611E-01   9.9999998E-03   2.2000098E-01
  6.3999605E-01   9.9999998E-03   2.4000204E-01
  6.3999599E-01   9.9999998E-03   2.6000392E-01
  6.3999581E-01   9.9999998E-03   2.8000638E-01
  6.3999528E-01   9.9999998E-03   3.0000821E-01
  6.5999597E-01   9.9999998E-03   1.6000025E-01
  6.5999597E-01   9.9999998E-03   1.8000036E-01
  6.5999591E-01   9.9999998E-03   2.0000066E-01
  6.5999579E-01   9.9999998E-03   2.2000143E-01
  6.5999573E-01   9.9999998E-03   2.4000306E-01
  6.5999573E-01   9.9999998E-03   2.6000592E-01
  6.5999568E-01   9.9999998E-03   2.8000951E-01
  6.5999526E-01   9.9999998E-03   3.0001196E-01
  6.7999607E-01   9.9999998E-03   1.6000026E-01
  6.7999601E-01   9.9999998E-03   1.8000041E-01
  6.7999601E-01   9.9999998E-03   2.0000081E-01
  6.7999595E-01   9.9999998E-03   2.2000183E-01
  6.7999589E-01   9.9999998E-03   2.4000399E-01
  6.7999595E-01   9.9999998E-03   2.6000768E-01
  6.7999595E-01   9.9999998E-03   2.8001225E-01
  6.7999566E-01   9.9999998E-03   3.0001521E-01
  6.9999671E-01   9.9999998E-03   1.6000029E-01
  6.9999671E-01   9.9999998E-03   1.8000045E-01
  6.9999665E-01   9.9999998E-03   2.0000093E-01
  6.9999659E-01   9.9999998E-03   2.2000213E-01
  6.9999659E-01   9.9999998E-03   2.4000461E-01
  6.9999665E-01   9.9999998E-03   2.6000887E-01
  6.9999665E-01   9.9999998E-03   2.8001407E-01
  6.9999659E-01   9.9999998E-03   3.0001736E-01
  7.1999770E-01   9.9999998E-03   1.6000032E-01
  7.1999764E-01   9.9999998E-03   1.8000050E-01
  7.1999764E-01   9.9999998E-03   2.0000102E-01
  7.1999764E-01   9.9999998E-03   2.2000229E-01
  7.1999758E-01   9.9999998E-03   2.4000496E-01
  7.1999758E-01   9.9999998E-03   2.6000953E-01
  7.1999758E-01   9.9999998E-03   2.8001508E-01
  7.1999758E-01   9.9999998E-03   3.0001864E-01
  7.3999858E-01   9.9999998E-03   1.6000035E-01
  7.3999858E-01   9.9999998E-03   1.8000053E-01
  7.3999858E-01   9.9999998E-03   2.0000106E-01
  7.3999858E-01   9.9999998E-03   2.2000238E-01
  7.3999852E-01   9.9999998E-03   2.4000515E-01
  7.3999852E-01   9.9999998E-03   2.6000988E-01
  7.3999852E-01   9.9999998E-03   2.8001565E-01
  7.3999852E-01   9.9999998E-03   3.0001932E-01
  7.5999928E-01   9.9999998E-03   1.6000037E-01
  7.5999928E-01   9.9999998E-03   1.8000054E-01
  7.5999928E-01   9.9999998E-03   2.0000109E-01
  7.5999928E-01   9.9999998E-03   2.2000244E-01
  7.5999928E-01   9.9999998E-03   2.4000525E-01
  7.5999928E-01   9.9999998E-03   2.6001006E-01
  7.5999928E-01   9.9999998E-03   2.8001595E-01
  7.5999928E-01   9.9999998E-03   3.0001968E-01
  7.7999979E-01   9.9999998E-03   1.6000037E-01
  7.7999979E-01   9.9999998E-03   1.8000056E-01
  7.7999979E-01   9.9999998E-03   2.0000111E-01
  7.7999979E-01   9.9999998E-03   2.2000246E-01
  7.7999979E-01   9.9999998E-03   2.4000528E-01
  7.7999979E-01   9.9999998E-03   2.6001015E-01
  7.7999979E-01   9.9999998E-03   2.8001606E-01
  7.7999979E-01   9.9999998E-03   3.0001983E-01
  8.0000019E-01   9.9999998E-03   1.6000037E-01
  8.0000019E-01   9.9999998E-03   1.8000056E-01
  8.0000019E-01   9.9999998E-03   2.0000111E-01
  8.0000019E-01   9.9999998E-03   2.2000246E-01
  8.0000019E-01   9.9999998E-03   2.4000528E-01
  8.0000019E-01   9.9999998E-03   2.6001012E-01
  8.0000019E-01   9.9999998E-03   2.8001603E-01
  8.0000019E-01   9.9999998E-03   3.0001983E-01
  8.2000053E-01   9.9999998E-03   1.6000037E-01
  8.2000053E-01   9.9999998E-03   1.8000056E-01
  8.2000053E-01   9.9999998E-03   2.0000109E-01
  8.2000059E-01   9.9999998E-03   2.2000244E-01
  8.2000059E-01   9.9999998E-03   2.4000525E-01
  8.2000059E-01   9.9999998E-03   2.6001006E-01
  8.2000059E-01   9.9999998E-03   2.8001598E-01
  8.2000059E-01   9.9999998E-03   3.0001974E-01
  8.4000093E-01   9.9999998E-03   1.6000037E-01
  8.4000093E-01   9.9999998E-03   1.8000054E-01
  8.4000093E-01   9.9999998E-03   2.0000108E-01
  8.4000093E-01   9.9999998E-03   2.2000240E-01
  8.4000093E-01   9.9999998E-03   2.4000515E-01
  8.4000093E-01   9.9999998E-03   2.6000988E-01
  8.4000093E-01   9.9999998E-03   2.8001568E-01
  8.4000093E-01   9.9999998E-03   3.0001938E-01
  8.6000127E-01   9.9999998E-03   1.6000035E-01
  8.6000127E-01   9.9999998E-03   1.8000053E-01
  8.6000133E-01   9.9999998E-03   2.0000103E-01
  8.6000133E-01   9.9999998E-03   2.2000231E-01
  8.6000133E-01   9.9999998E-03   2.4000499E-01
  8.6000133E-01   9.9999998E-03   2.6000956E-01
  8.6000133E-01   9.9999998E-03   2.8001517E-01
  8.6000133E-01   9.9999998E-03   3.0001876E-01
  8.8000166E-01   9.9999998E-03   1.6000034E-01
  8.8000166E-01   9.9999998E-03   1.8000050E-01
  8.8000166E-01   9.9999998E-03   2.0000099E-01
  8.8000166E-01   9.9999998E-03   2.2000220E-01
  8.8000172E-01   9.9999998E-03   2.4000475E-01
  8.8000172E-01   9.9999998E-03   2.6000911E-01
  8.8000172E-01   9.9999998E-03   2.8001446E-01
  8.8000172E-01   9.9999998E-03   3.0001789E-01
  9.0000194E-01   9.9999998E-03   1.6000032E-01
  9.0000194E-01   9.9999998E-03   1.8000047E-01
  9.0000200E-01   9.9999998E-03   2.0000093E-01
  9.0000200E-01   9.9999998E-03   2.2000207E-01
  9.0000200E-01   9.9999998E-03   2.4000446E-01
  9.0000200E-01   9.9999998E-03   2.6000857E-01
  9.0000200E-01   9.9999998E-03   2.8001359E-01
  9.0000200E-01   9.9999998E-03   3.0001682E-01
  9.2000216E-01   9.9999998E-03   1.6000029E-01
  9.2000216E-01   9.9999998E-03   1.8000044E-01
  9.2000222E-01   9.9999998E-03   2.0000087E-01
  9.2000222E-01   9.9999998E-03   2.2000192E-01
  9.2000228E-01   9.9999998E-03   2.4000414E-01
  9.2000228E-01   9.9999998E-03   2.6000795E-01
  9.2000228E-01   9.9999998E-03   2.8001258E-01
  9.2000228E-01   9.9999998E-03   3.0001557E-01
  9.4000226E-01   9.9999998E-03   1.6000028E-01
  9.4000226E-01   9.9999998E-03   1.8000041E-01
  9.4000232E-01   9.9999998E-03   2.0000079E-01
  9.4000238E-01   9.9999998E-03   2.2000176E-01
  9.4000238E-01   9.9999998E-03   2.4000376E-01
  9.4000244E-01   9.9999998E-03   2.6000723E-01
  9.4000238E-01   9.9999998E-03   2.8001150E-01
  9.4000238E-01   9.9999998E-03   3.0001426E-01
  9.6000224E-01   9.9999998E-03   1.6000026E-01
  9.6000224E-01   9.9999998E-03   1.8000038E-01
  9.6000236E-01   9.9999998E-03   2.0000072E-01
  9.6000242E-01   9.9999998E-03   2.2000158E-01
  9.6000248E-01   9.9999998E-03   2.4000339E-01
  9.6000248E-01   9.9999998E-03   2.6000655E-01
  9.6000248E-01   9.9999998E-03   2.8001037E-01
  9.6000248E-01   9.9999998E-03   3.0001286E-01
  9.8000216E-01   9.9999998E-03   1.6000025E-01
  9.8000222E-01   9.9999998E-03   1.8000035E-01
  9.8000228E-01   9.9999998E-03   2.0000064E-01
  9.8000234E-01   9.9999998E-03   2.2000141E-01
  9.8000246E-01   9.9999998E-03   2.4000303E-01
  9.8000252E-01   9.9999998E-03   2.6000583E-01
  9.8000252E-01   9.9999998E-03   2.8000927E-01
  9.8000258E-01   9.9999998E-03   3.0001149E-01
  1.0000020E+00   9.9999998E-03   1.6000023E-01
  1.0000021E+00   9.9999998E-03   1.8000033E-01
  1.0000021E+00   9.9999998E-03   2.0000058E-01
  1.0000023E+00   9.9999998E-03   2.2000127E-01
  1.0000024E+00   9.9999998E-03   2.4000271E-01
  1.0000025E+00   9.9999998E-03   2.6000518E-01
  1.0000026E+00   9.9999998E-03   2.8000820E-01
  1.0000027E+00   9.9999998E-03   3.0001014E-01
  1.0200020E+00   9.9999998E-03   1.6000023E-01
  1.0200020E+00   9.9999998E-03   1.8000032E-01
  1.0200021E+00   9.9999998E-03   2.0000054E-01
  1.0200022E+00   9.9999998E-03   2.2000115E-01
  1.0200024E+00   9.9999998E-03   2.4000244E-01
  1.0200025E+00   9.9999998E-03   2.6000461E-01
  1.0200027E+00   9.9999998E-03   2.8000724E-01
  1.0200030E+00   9.9999998E-03   3.0000889E-01
  1.0400019E+00   9.9999998E-03   1.6000022E-01
  1.0400019E+00   9.9999998E-03   1.8000031E-01
  1.0400020E+00   9.9999998E-03   2.0000052E-01
  1.0400021E+00   9.9999998E-03   2.2000109E-01
  1.0400023E+00   9.9999998E-03   2.4000224E-01
  1.0400026E+00   9.9999998E-03   2.6000416E-01
  1.0400029E+00   9.9999998E-03   2.8000638E-01
  1.0400032E+00   9.9999998E-03   3.0000773E-01
  1.0600017E+00   9.9999998E-03   1.6000021E-01
  1.0600017E+00   9.9999998E-03   1.8000031E-01
  1.0600019E+00   9.9999998E-03   2.0000052E-01
  1.0600021E+00   9.9999998E-03   2.2000107E-01
  1.0600023E+00   9.9999998E-03   2.4000216E-01
  1.0600027E+00   9.9999998E-03   2.6000383E-01
  1.0600032E+00   9.9999998E-03   2.8000566E-01
  1.0600036E+00   9.9999998E-03   3.0000669E-01
  1.0800016E+00   9.9999998E-03   1.6000021E-01
  1.0800016E+00   9.9999998E-03   1.8000031E-01
  1.0800018E+00   9.9999998E-03   2.0000055E-01
  1.0800020E+00   9.9999998E-03   2.2000113E-01
  1.0800023E+00   9.9999998E-03   2.4000216E-01
  1.0800028E+00   9.9999998E-03   2.6000363E-01
  1.0800034E+00   9.9999998E-03   2.8000507E-01
  1.0800040E+00   9.9999998E-03   3.0000579E-01
  1.1000015E+00   9.9999998E-03   1.6000021E-01
  1.1000016E+00   9.9999998E-03   1.8000033E-01
  1.1000017E+00   9.9999998E-03   2.0000063E-01
  1.1000019E+00   9.9999998E-03   2.2000124E-01
  1.1000024E+00   9.9999998E-03   2.4000224E-01
  1.1000029E+00   9.9999998E-03   2.6000351E-01
  1.1000035E+00   9.9999998E-03   2.8000456E-01
  1.1200013E+00   9.9999998E-03   1.6000022E-01
  1.1200014E+00   9.9999998E-03   1.8000039E-01
  1.1200017E+00   9.9999998E-03   2.0000075E-01
  1.1200020E+00   9.9999998E-03   2.2000141E-01
  1.1200025E+00   9.9999998E-03   2.4000236E-01
  1.1200030E+00   9.9999998E-03   2.6000339E-01
  1.1200036E+00   9.9999998E-03   2.8000411E-01
  1.1400013E+00   9.9999998E-03   1.6000026E-01
  1.1400014E+00   9.9999998E-03   1.8000048E-01
  1.1400017E+00   9.9999998E-03   2.0000093E-01
  1.1400020E+00   9.9999998E-03   2.2000162E-01
  1.1400025E+00   9.9999998E-03   2.4000248E-01
  1.1400031E+00   9.9999998E-03   2.6000327E-01
  1.1600013E+00   9.9999998E-03   1.6000034E-01
  1.1600015E+00   9.9999998E-03   1.8000065E-01
  1.1600018E+00   9.9999998E-03   2.0000115E-01
  1.1600022E+00   9.9999998E-03   2.2000183E-01
  1.1600027E+00   9.9999998E-03   2.4000254E-01
  1.1600031E+00   9.9999998E-03   2.6000309E-01
  1.1800014E+00   9.9999998E-03   1.6000049E-01
  1.1800016E+00   9.9999998E-03   1.8000086E-01
  1.1800020E+00   9.9999998E-03   2.0000137E-01
  1.1800023E+00   9.9999998E-03   2.2000200E-01
  1.1800028E+00   9.9999998E-03   2.4000254E-01
  1.2000016E+00   9.9999998E-03   1.6000070E-01
  1.2000020E+00   9.9999998E-03   1.8000108E-01
  1.2000023E+00   9.9999998E-03   2.0000157E-01
  1.2000026E+00   9.9999998E-03   2.2000210E-01
  1.2200019E+00   9.9999998E-03   1.6000091E-01
  1.2200022E+00   9.9999998E-03   1.8000129E-01
  1.2200025E+00   9.9999998E-03   2.0000170E-01
  1.2200027E+00   9.9999998E-03   2.2000213E-01
  1.2400023E+00   9.9999998E-03   1.6000111E-01
  1.2400024E+00   9.9999998E-03   1.8000145E-01
  1.2600024E+00   9.9999998E-03   1.6000129E-01
VERTICES 2975 5950
1 0
1 1
1 2
1 3
1 4
1 5
1 6
1 7
1 8
1 9
1 10
1 11
1 12
1 13
1 14
1 15
1 16
1 17
1 18
1 19
1 20
1 21
1 22
1 23
1 24
1 25
1 26
1 27
1 28
1 29
1 30
1 31
1 32
1 33
1 34
1 35
1 36
1 37
1 38
1 39
1 40
1 41
1 42
1 43
1 44
1 45
1 46
1 47
1 48
1 49
1 50
1 51
1 52
1 53
1 54
1 55
1 56
1 57
1 58
1 59
1 60
1 61
1 62
1 63
1 64
1 65
1 66
1 67
1 68
1 69
1 70
1 71
1 72
1 73
1 74
1 75
1 76
1 77
1 78
1 79
1 80
1 81
1 82
1 83
1 84
1 85
1 86
1 87
1 88
1 89
1 90
1 91
1 92
1 93
1 94
1 95
1 96
1 97
1 98
1 99
1 100
1 101
1 102
1 103
1 104
1 105
1 106
1 107
1 108
1 109
1 110
1 111
1 112
1 113
1 114
1 115
1 116
1 117
1 118
1 119
1 120
1 121
1 122
1 123
1 124
1 125
1 126
1 127
1 128
1 129
1 130
1 131
1 132
1 133
1 134
1 135
1 136
1 137
1 138
1 139
1 140
1 141
1 142
1 143
1 144
1 145
1 146
1 147
1 148
1 149
1 150
1 151
1 152
1 153
1 154
1 155
1 156
1 157
1 158
1 159
1 160
1 161
1 162
1 163
1 164
1 165
1 166
1 167
1 168
1 169
1 170
1 171
1 172
1 173
1 174
1 175
1 176
1 177
1 178
1 179
1 180
1 181
1 182
1 183
1 184
1 185
1 186
1 187
1 188
1 189
1 190
1 191
1 192
1 193
1 194
1 195
1 196
1 197
1 198
1 199
1 200
1 201
1 202
1 203
1 204
1 205
1 206
1 207
1 208
1 209
1 210
1 211
1 212
1 213
1 214
1 215
1 216
1 217
1 218
1 219
1 220
1 221
1 222
1 223
1 224
1 225
1 226
1 227
1 228
1 229
1 230
1 231
1 232
1 233
1 234
1 235
1 236
1 237
1 238
1 239
1 240
1 241
1 242
1 243
1 244
1 245
1 246
1 247
1 248
1 249
1 250
1 251
1 252
1 253
1 254
1 255
1 256
1 257
1 258
1 259
1 260
1 261
1 262
1 263
1 264
1 265
1 266
1 267
1 268
1 269
1 270
1 271
1 272
1 273
1 274
1 275
1 276
1 277
1 278
1 279
1 280
1 281
1 282
1 283
1 284
1 285
1 286
1 287
1 288
1 289
1 290
1 291
1 292
1 293
1 294
1 295
1 296
1 297
1 298
1 299
1 300
1 301
1 302
1 303
1 304
1 305
1 306
1 307
1 308
1 309
1 310
1 311
1 312
1 313
1 314
1 315
1 316
1 317
1 318
1 319
1 320
1 321
1 322
1 323
1 324
1 325
1 326
1 327
1 328
1 329
1 330
1 331
1 332
1 333
1 334
1 335
1 336
1 337
1 338
1 339
1 340
1 341
1 342
1 343
1 344
1 345
1 346
1 347
1 348
1 349
1 350
1 351
1 352
1 353
1 354
1 355
1 356
1 357
1 358
1 359
1 360
1 361
1 362
1 363
1 364
1 365
1 366
1 367
1 368
1 369
1 370
1 371
1 372
1 373
1 374
1 375
1 376
1 377
1 378
1 379
1 380
1 381
1 382
1 383
1 384
1 385
1 386
1 387
1 388
1 389
1 390
1 391
1 392
1 393
1 394
1 395
1 396
1 397
1 398
1 399
1 400
1 401
1 402
1 403
1 404
1 405
1 406
1 407
1 408
1 409
1 410
1 411
1 412
1 413
1 414
1 415
1 416
1 417
1 418
1 419
1 420
1 421
1 422
1 423
1 424
1 425
1 426
1 427
1 428
1 429
1 430
1 431
1 432
1 433
1 434
1 435
1 436
1 437
1 438
1 439
1 440
1 441
1 442
1 443
1 444
1 445
1 446
1 447
1 448
1 449
1 450
1 451
1 452
1 453
1 454
1 455
1 456
1 457
1 458
1 459
1 460
1 461
1 462
1 463
1 464
1 465
1 466
1 467
1 468
1 469
1 470
1 471
1 472
1 473
1 474
1 475
1 476
1 477
1 478
1 479
1 480
1 481
1 482
1 483
1 484
1 485
1 486
1 487
1 488
1 489
1 490
1 491
1 492
1 493
1 494
1 495
1 496
1 497
1 498
1 499
1 500
1 501
1 502
1 503
1 504
1 505
1 506
1 507
1 508
1 509
1 510
1 511
1 512
1 513
1 514
1 515
1 516
1 517
1 518
1 519
1 520
1 521
1 522
1 523
1 524
1 525
1 526
1 527
1 528
1 529
1 530
1 531
1 532
1 533
1 534
1 535
1 536
1 537
1 538
1 539
1 540
1 541
1 542
1 543
1 544
1 545
1 546
1 547
1 548
1 549
1 550
1 551
1 552
1 553
1 554
1 555
1 556
1 557
1 558
1 559
1 560
1 561
1 562
1 563
1 564
1 565
1 566
1 567
1 568
1 569
1 570
1 571
1 572
1 573
1 574
1 575
1 576
1 577
1 578
1 579
1 580
1 581
1 582
1 583
1 584
1 585
1 586
1 587
1 588
1 589
1 590
1 591
1 592
1 593
1 594
1 595
1 596
1 597
1 598
1 599
1 600
1 601
1 602
1 603
1 604
1 605
1 606
1 607
1 608
1 609
1 610
1 611
1 612
1 613
1 614
1 615
1 616
1 617
1 618
1 619
1 620
1 621
1 622
1 623
1 624
1 625
1 626
1 627
1 628
1 629
1 630
1 631
1 632
1 633
1 634
1 635
1 636
1 637
1 638
1 639
1 640
1 641
1 642
1 643
1 644
1 645
1 646
1 647
1 648
1 649
1 650
1 651
1 652
1 653
1 654
1 655
1 656
1 657
1 658
1 659
1 660
1 661
1 662
1 663
1 664
1 665
1 666
1 667
1 668
1 669
1 670
1 671
1 672
1 673
1 674
1 675
1 676
1 677
1 678
1 679
1 680
1 681
1 682
1 683
1 684
1 685
1 686
1 687
1 688
1 689
1 690
1 691
1 692
1 693
1 694
1 695
1 696
1 697
1 698
1 699
1 700
1 701
1 702
1 703
1 704
1 705
1 706
1 707
1 708
1 709
1 710
1 711
1 712
1 713
1 714
1 715
1 716
1 717
1 718
1 719
1 720
1 721
1 722
1 723
1 724
1 725
1 726
1 727
1 728
1 729
1 730
1 731
1 732
1 733
1 734
1 735
1 736
1 737
1 738
1 739
1 740
1 741
1 742
1 743
1 744
1 745
1 746
1 747
1 748
1 749
1 750
1 751
1 752
1 753
1 754
1 755
1 756
1 757
1 758
1 759
1 760
1 761
1 762
1 763
1 764
1 765
1 766
1 767
1 768
1 769
1 770
1 771
1 772
1 773
1 774
1 775
1 776
1 777
1 778
1 779
1 780
1 781
1 782
1 783
1 784
1 785
1 786
1 787
1 788
1 789
1 790
1 791
1 792
1 793
1 794
1 795
1 796
1 797
1 798
1 799
1 800
1 801
1 802
1 803
1 804
1 805
1 806
1 807
1 808
1 809
1 810
1 811
1 812
1 813
1 814
1 815
1 816
1 817
1 818
1 819
1 820
1 821
1 822
1 823
1 824
1 825
1 826
1 827
1 828
1 829
1 830
1 831
1 832
1 833
1 834
1 835
1 836
1 837
1 838
1 839
1 840
1 841
1 842
1 843
1 844
1 845
1 846
1 847
1 848
1 849
1 850
1 851
1 852
1 853
1 854
1 855
1 856
1 857
1 858
1 859
1 860
1 861
1 862
1 863
1 864
1 865
1 866
1 867
1 868
1 869
1 870
1 871
1 872
1 873
1 874
1 875
1 876
1 877
1 878
1 879
1 880
1 881
1 882
1 883
1 884
1 885
1 886
1 887
1 888
1 889
1 890
1 891
1 892
1 893
1 894
1 895
1 896
1 897
1 898
1 899
1 900
1 901
1 902
1 903
1 904
1 905
1 906
1 907
1 908
1 909
1 910
1 911
1 912
1 913
1 914
1 915
1 916
1 917
1 918
1 919
1 920
1 921
1 922
1 923
1 924
1 925
1 926
1 927
1 928
1 929
1 930
1 931
1 932
1 933
1 934
1 935
1 936
1 937
1 938
1 939
1 940
1 941
1 942
1 943
1 944
1 945
1 946
1 947
1 948
1 949
1 950
1 951
1 952
1 953
1 954
1 955
1 956
1 957
1 958
1 959
1 960
1 961
1 962
1 963
1 964
1 965
1 966
1 967
1 968
1 969
1 970
1 971
1 972
1 973
1 974
1 975
1 976
1 977
1 978
1 979
1 980
1 981
1 982
1 983
1 984
1 985
1 986
1 987
1 988
1 989
1 990
1 991
1 992
1 993
1 994
1 995
1 996
1 997
1 998
1 999
1 1000
1 1001
1 1002
1 1003
1 1004
1 1005
1 1006
1 1007
1 1008
1 1009
1 1010
1 1011
1 1012
1 1013
1 1014
1 1015
1 1016
1 1017
1 1018
1 1019
1 1020
1 1021
1 1022
1 1023
1 1024
1 1025
1 1026
1 1027
1 1028
1 1029
1 1030
1 1031
1 1032
1 1033
1 1034
1 1035
1 1036
1 1037
1 1038
1 1039
1 1040
1 1041
1 1042
1 1043
1 1044
1 1045
1 1046
1 1047
1 1048
1 1049
1 1050
1 1051
1 1052
1 1053
1 1054
1 1055
1 1056
1 1057
1 1058
1 1059
1 1060
1 1061
1 1062
1 1063
1 1064
1 1065
1 1066
1 1067
1 1068
1 1069
1 1070
1 1071
1 1072
1 1073
1 1074
1 1075
1 1076
1 1077
1 1078
1 1079
1 1080
1 1081
1 1082
1 1083
1 1084
1 1085
1 1086
1 1087
1 1088
1 1089
1 1090
1 1091
1 1092
1 1093
1 1094
1 1095
1 1096
1 1097
1 1098
1 1099
1 1100
1 1101
1 1102
1 1103
1 1104
1 1105
1 1106
1 1107
1 1108
1 1109
1 1110
1 1111
1 1112
1 1113
1 1114
1 1115
1 1116
1 1117
1 1118
1 1119
1 1120
1 1121
1 1122
1 1123
1 1124
1 1125
1 1126
1 1127
1 1128
1 1129
1 1130
1 1131
1 1132
1 1133
1 1134
1 1135
1 1136
1 1137
1 1138
1 1139
1 1140
1 1141
1 1142
1 1143
1 1144
1 1145
1 1146
1 1147
1 1148
1 1149
1 1150
1 1151
1 1152
1 1153
1 1154
1 1155
1 1156
1 1157
1 1158
1 1159
1 1160
1 1161
1 1162
1 1163
1 1164
1 1165
1 1166
1 1167
1 1168
1 1169
1 1170
1 1171
1 1172
1 1173
1 1174
1 1175
1 1176
1 1177
1 1178
1 1179
1 1180
1 1181
1 1182
1 1183
1 1184
1 1185
1 1186
1 1187
1 1188
1 1189
1 1190
1 1191
1 1192
1 1193
1 1194
1 1195
1 1196
1 1197
1 1198
1 1199
1 1200
1 1201
1 1202
1 1203
1 1204
1 1205
1 1206
1 1207
1 1208
1 1209
1 1210
1 1211
1 1212
1 1213
1 1214
1 1215
1 1216
1 1217
1 1218
1 1219
1 1220
1 1221
1 1222
1 1223
1 1224
1 1225
1 1226
1 1227
1 1228
1 1229
1 1230
1 1231
1 1232
1 1233
1 1234
1 1235
1 1236
1 1237
1 1238
1 1239
1 1240
1 1241
1 1242
1 1243
1 1244
1 1245
1 1246
1 1247
1 1248
1 1249
1 1250
1 1251
1 1252
1 1253
1 1254
1 1255
1 1256
1 1257
1 1258
1 1259
1 1260
1 1261
1 1262
1 1263
1 1264
1 1265
1 1266
1 1267
1 1268
1 1269
1 1270
1 1271
1 1272
1 1273
1 1274
1 1275
1 1276
1 1277
1 1278
1 1279
1 1280
1 1281
1 1282
1 1283
1 1284
1 1285
1 1286
1 1287
1 1288
1 1289
1 1290
1 1291
1 1292
1 1293
1 1294
1 1295
1 1296
1 1297
1 1298
1 1299
1 1300
1 1301
1 1302
1 1303
1 1304
1 1305
1 1306
1 1307
1 1308
1 1309
1 1310
1 1311
1 1312
1 1313
1 1314
1 1315
1 1316
1 1317
1 1318
1 1319
1 1320
1 1321
1 1322
1 1323
1 1324
1 1325
1 1326
1 1327
1 1328
1 1329
1 1330
1 1331
1 1332
1 1333
1 1334
1 1335
1 1336
1 1337
1 1338
1 1339
1 1340
1 1341
1 1342
1 1343
1 1344
1 1345
1 1346
1 1347
1 1348
1 1349
1 1350
1 1351
1 1352
1 1353
1 1354
1 1355
1 1356
1 1357
1 1358
1 1359
1 1360
1 1361
1 1362
1 1363
1 1364
1 1365
1 1366
1 1367
1 1368
1 1369
1 1370
1 1371
1 1372
1 1373
1 1374
1 1375
1 1376
1 1377
1 1378
1 1379
1 1380
1 1381
1 1382
1 1383
1 1384
1 1385
1 1386
1 1387
1 1388
1 1389
1 1390
1 1391
1 1392
1 1393
1 1394
1 1395
1 1396
1 1397
1 1398
1 1399
1 1400
1 1401
1 1402
1 1403
1 1404
1 1405
1 1406
1 1407
1 1408
1 1409
1 1410
1 1411
1 1412
1 1413
1 1414
1 1415
1 1416
1 1417
1 1418
1 1419
1 1420
1 1421
1 1422
1 1423
1 1424
1 1425
1 1426
1 1427
1 1428
1 1429
1 1430
1 1431
1 1432
1 1433
1 1434
1 1435
1 1436
1 1437
1 1438
1 1439
1 1440
1 1441
1 1442
1 1443
1 1444
1 1445
1 1446
1 1447
1 1448
1 1449
1 1450
1 1451
1 1452
1 1453
1 1454
1 1455
1 1456
1 1457
1 1458
1 1459
1 1460
1 1461
1 1462
1 1463
1 1464
1 1465
1 1466
1 1467
1 1468
1 1469
1 1470
1 1471
1 1472
1 1473
1 1474
1 1475
1 1476
1 1477
1 1478
1 1479
1 1480
1 1481
1 1482
1 1483
1 1484
1 1485
1 1486
1 1487
1 1488
1 1489
1 1490
1 1491
1 1492
1 1493
1 1494
1 1495
1 1496
1 1497
1 1498
1 1499
1 1500
1 1501
1 1502
1 1503
1 1504
1 1505
1 1506
1 1507
1 1508
1 1509
1 1510
1 1511
1 1512
1 1513
1 1514
1 1515
1 1516
1 1517
1 1518
1 1519
1 1520
1 1521
1 1522
1 1523
1 1524
1 1525
1 1526
1 1527
1 1528
1 1529
1 1530
1 1531
1 1532
1 1533
1 1534
1 1535
1 1536
1 1537
1 1538
1 1539
1 1540
1 1541
1 1542
1 1543
1 1544
1 1545
1 1546
1 1547
1 1548
1 1549
1 1550
1 1551
1 1552
1 1553
1 1554
1 1555
1 1556
1 1557
1 1558
1 1559
1 1560
1 1561
1 1562
1 1563
1 1564
1 1565
1 1566
1 1567
1 1568
1 1569
1 1570
1 1571
1 1572
1 1573
1 1574
1 1575
1 1576
1 1577
1 1578
1 1579
1 1580
1 1581
1 1582
1 1583
1 1584
1 1585
1 1586
1 1587
1 1588
1 1589
1 1590
1 1591
1 1592
1 1593
1 1594
1 1595
1 1596
1 1597
1 1598
1 1599
1 1600
1 1601
1 1602
1 1603
1 1604
1 1605
1 1606
1 1607
1 1608
1 1609
1 1610
1 1611
1 1612
1 1613
1 1614
1 1615
1 1616
1 1617
1 1618
1 1619
1 1620
1 1621
1 1622
1 1623
1 1624
1 1625
1 1626
1 1627
1 1628
1 1629
1 1630
1 1631
1 1632
1 1633
1 1634
1 1635
1 1636
1 1637
1 1638
1 1639
1 1640
1 1641
1 1642
1 1643
1 1644
1 1645
1 1646
1 1647
1 1648
1 1649
1 1650
1 1651
1 1652
1 1653
1 1654
1 1655
1 1656
1 1657
1 1658
1 1659
1 1660
1 1661
1 1662
1 1663
1 1664
1 1665
1 1666
1 1667
1 1668
1 1669
1 1670
1 1671
1 1672
1 1673
1 1674
1 1675
1 1676
1 1677
1 1678
1 1679
1 1680
1 1681
1 1682
1 1683
1 1684
1 1685
1 1686
1 1687
1 1688
1 1689
1 1690
1 1691
1 1692
1 1693
1 1694
1 1695
1 1696
1 1697
1 1698
1 1699
1 1700
1 1701
1 1702
1 1703
1 1704
1 1705
1 1706
1 1707
1 1708
1 1709
1 1710
1 1711
1 1712
1 1713
1 1714
1 1715
1 1716
1 1717
1 1718
1 1719
1 1720
1 1721
1 1722
1 1723
1 1724
1 1725
1 1726
1 1727
1 1728
1 1729
1 1730
1 1731
1 1732
1 1733
1 1734
1 1735
1 1736
1 1737
1 1738
1 1739
1 1740
1 1741
1 1742
1 1743
1 1744
1 1745
1 1746
1 1747
1 1748
1 1749
1 1750
1 1751
1 1752
1 1753
1 1754
1 1755
1 1756
1 1757
1 1758
1 1759
1 1760
1 1761
1 1762
1 1763
1 1764
1 1765
1 1766
1 1767
1 1768
1 1769
1 1770
1 1771
1 1772
1 1773
1 1774
1 1775
1 1776
1 1777
1 1778
1 1779
1 1780
1 1781
1 1782
1 1783
1 1784
1 1785
1 1786
1 1787
1 1788
1 1789
1 1790
1 1791
1 1792
1 1793
1 1794
1 1795
1 1796
1 1797
1 1798
1 1799
1 1800
1 1801
1 1802
1 1803
1 1804
1 1805
1 1806
1 1807
1 1808
1 1809
1 1810
1 1811
1 1812
1 1813
1 1814
1 1815
1 1816
1 1817
1 1818
1 1819
1 1820
1 1821
1 1822
1 1823
1 1824
1 1825
1 1826
1 1827
1 1828
1 1829
1 1830
1 1831
1 1832
1 1833
1 1834
1 1835
1 1836
1 1837
1 1838
1 1839
1 1840
1 1841
1 1842
1 1843
1 1844
1 1845
1 1846
1 1847
1 1848
1 1849
1 1850
1 1851
1 1852
1 1853
1 1854
1 1855
1 1856
1 1857
1 1858
1 1859
1 1860
1 1861
1 1862
1 1863
1 1864
1 1865
1 1866
1 1867
1 1868
1 1869
1 1870
1 1871
1 1872
1 1873
1 1874
1 1875
1 1876
1 1877
1 1878
1 1879
1 1880
1 1881
1 1882
1 1883
1 1884
1 1885
1 1886
1 1887
1 1888
1 1889
1 1890
1 1891
1 1892
1 1893
1 1894
1 1895
1 1896
1 1897
1 1898
1 1899
1 1900
1 1901
1 1902
1 1903
1 1904
1 1905
1 1906
1 1907
1 1908
1 1909
1 1910
1 1911
1 1912
1 1913
1 1914
1 1915
1 1916
1 1917
1 1918
1 1919
1 1920
1 1921
1 1922
1 1923
1 1924
1 1925
1 1926
1 1927
1 1928
1 1929
1 1930
1 1931
1 1932
1 1933
1 1934
1 1935
1 1936
1 1937
1 1938
1 1939
1 1940
1 1941
1 1942
1 1943
1 1944
1 1945
1 1946
1 1947
1 1948
1 1949
1 1950
1 1951
1 1952
1 1953
1 1954
1 1955
1 1956
1 1957
1 1958
1 1959
1 1960
1 1961
1 1962
1 1963
1 1964
1 1965
1 1966
1 1967
1 1968
1 1969
1 1970
1 1971
1 1972
1 1973
1 1974
1 1975
1 1976
1 1977
1 1978
1 1979
1 1980
1 1981
1 1982
1 1983
1 1984
1 1985
1 1986
1 1987
1 1988
1 1989
1 1990
1 1991
1 1992
1 1993
1 1994
1 1995
1 1996
1 1997
1 1998
1 1999
1 2000
1 2001
1 2002
1 2003
1 2004
1 2005
1 2006
1 2007
1 2008
1 2009
1 2010
1 2011
1 2012
1 2013
1 2014
1 2015
1 2016
1 2017
1 2018
1 2019
1 2020
1 2021
1 2022
1 2023
1 2024
1 2025
1 2026
1 2027
1 2028
1 2029
1 2030
1 2031
1 2032
1 2033
1 2034
1 2035
1 2036
1 2037
1 2038
1 2039
1 2040
1 2041
1 2042
1 2043
1 2044
1 2045
1 2046
1 2047
1 2048
1 2049
1 2050
1 2051
1 2052
1 2053
1 2054
1 2055
1 2056
1 2057
1 2058
1 2059
1 2060
1 2061
1 2062
1 2063
1 2064
1 2065
1 2066
1 2067
1 2068
1 2069
1 2070
1 2071
1 2072
1 2073
1 2074
1 2075
1 2076
1 2077
1 2078
1 2079
1 2080
1 2081
1 2082
1 2083
1 2084
1 2085
1 2086
1 2087
1 2088
1 2089
1 2090
1 2091
1 2092
1 2093
1 2094
1 2095
1 2096
1 2097
1 2098
1 2099
1 2100
1 2101
1 2102
1 2103
1 2104
1 2105
1 2106
1 2107
1 2108
1 2109
1 2110
1 2111
1 2112
1 2113
1 2114
1 2115
1 2116
1 2117
1 2118
1 2119
1 2120
1 2121
1 2122
1 2123
1 2124
1 2125
1 2126
1 2127
1 2128
1 2129
1 2130
1 2131
1 2132
1 2133
1 2134
1 2135
1 2136
1 2137
1 2138
1 2139
1 2140
1 2141
1 2142
1 2143
1 2144
1 2145
1 2146
1 2147
1 2148
1 2149
1 2150
1 2151
1 2152
1 2153
1 2154
1 2155
1 2156
1 2157
1 2158
1 2159
1 2160
1 2161
1 2162
1 2163
1 2164
1 2165
1 2166
1 2167
1 2168
1 2169
1 2170
1 2171
1 2172
1 2173
1 2174
1 2175
1 2176
1 2177
1 2178
1 2179
1 2180
1 2181
1 2182
1 2183
1 2184
1 2185
1 2186
1 2187
1 2188
1 2189
1 2190
1 2191
1 2192
1 2193
1 2194
1 2195
1 2196
1 2197
1 2198
1 2199
1 2200
1 2201
1 2202
1 2203
1 2204
1 2205
1 2206
1 2207
1 2208
1 2209
1 2210
1 2211
1 2212
1 2213
1 2214
1 2215
1 2216
1 2217
1 2218
1 2219
1 2220
1 2221
1 2222
1 2223
1 2224
1 2225
1 2226
1 2227
1 2228
1 2229
1 2230
1 2231
1 2232
1 2233
1 2234
1 2235
1 2236
1 2237
1 2238
1 2239
1 2240
1 2241
1 2242
1 2243
1 2244
1 2245
1 2246
1 2247
1 2248
1 2249
1 2250
1 2251
1 2252
1 2253
1 2254
1 2255
1 2256
1 2257
1 2258
1 2259
1 2260
1 2261
1 2262
1 2263
1 2264
1 2265
1 2266
1 2267
1 2268
1 2269
1 2270
1 2271
1 2272
1 2273
1 2274
1 2275
1 2276
1 2277
1 2278
1 2279
1 2280
1 2281
1 2282
1 2283
1 2284
1 2285
1 2286
1 2287
1 2288
1 2289
1 2290
1 2291
1 2292
1 2293
1 2294
1 2295
1 2296
1 2297
1 2298
1 2299
1 2300
1 2301
1 2302
1 2303
1 2304
1 2305
1 2306
1 2307
1 2308
1 2309
1 2310
1 2311
1 2312
1 2313
1 2314
1 2315
1 2316
1 2317
1 2318
1 2319
1 2320
1 2321
1 2322
1 2323
1 2324
1 2325
1 2326
1 2327
1 2328
1 2329
1 2330
1 2331
1 2332
1 2333
1 2334
1 2335
1 2336
1 2337
1 2338
1 2339
1 2340
1 2341
1 2342
1 2343
1 2344
1 2345
1 2346
1 2347
1 2348
1 2349
1 2350
1 2351
1 2352
1 2353
1 2354
1 2355
1 2356
1 2357
1 2358
1 2359
1 2360
1 2361
1 2362
1 2363
1 2364
1 2365
1 2366
1 2367
1 2368
1 2369
1 2370
1 2371
1 2372
1 2373
1 2374
1 2375
1 2376
1 2377
1 2378
1 2379
1 2380
1 2381
1 2382
1 2383
1 2384
1 2385
1 2386
1 2387
1 2388
1 2389
1 2390
1 2391
1 2392
1 2393
1 2394
1 2395
1 2396
1 2397
1 2398
1 2399
1 2400
1 2401
1 2402
1 2403
1 2404
1 2405
1 2406
1 2407
1 2408
1 2409
1 2410
1 2411
1 2412
1 2413
1 2414
1 2415
1 2416
1 2417
1 2418
1 2419
1 2420
1 2421
1 2422
1 2423
1 2424
1 2425
1 2426
1 2427
1 2428
1 2429
1 2430
1 2431
1 2432
1 2433
1 2434
1 2435
1 2436
1 2437
1 2438
1 2439
1 2440
1 2441
1 2442
1 2443
1 2444
1 2445
1 2446
1 2447
1 2448
1 2449
1 2450
1 2451
1 2452
1 2453
1 2454
1 2455
1 2456
1 2457
1 2458
1 2459
1 2460
1 2461
1 2462
1 2463
1 2464
1 2465
1 2466
1 2467
1 2468
1 2469
1 2470
1 2471
1 2472
1 2473
1 2474
1 2475
1 2476
1 2477
1 2478
1 2479
1 2480
1 2481
1 2482
1 2483
1 2484
1 2485
1 2486
1 2487
1 2488
1 2489
1 2490
1 2491
1 2492
1 2493
1 2494
1 2495
1 2496
1 2497
1 2498
1 2499
1 2500
1 2501
1 2502
1 2503
1 2504
1 2505
1 2506
1 2507
1 2508
1 2509
1 2510
1 2511
1 2512
1 2513
1 2514
1 2515
1 2516
1 2517
1 2518
1 2519
1 2520
1 2521
1 2522
1 2523
1 2524
1 2525
1 2526
1 2527
1 2528
1 2529
1 2530
1 2531
1 2532
1 2533
1 2534
1 2535
1 2536
1 2537
1 2538
1 2539
1 2540
1 2541
1 2542
1 2543
1 2544
1 2545
1 2546
1 2547
1 2548
1 2549
1 2550
1 2551
1 2552
1 2553
1 2554
1 2555
1 2556
1 2557
1 2558
1 2559
1 2560
1 2561
1 2562
1 2563
1 2564
1 2565
1 2566
1 2567
1 2568
1 2569
1 2570
1 2571
1 2572
1 2573
1 2574
1 2575
1 2576
1 2577
1 2578
1 2579
1 2580
1 2581
1 2582
1 2583
1 2584
1 2585
1 2586
1 2587
1 2588
1 2589
1 2590
1 2591
1 2592
1 2593
1 2594
1 2595
1 2596
1 2597
1 2598
1 2599
1 2600
1 2601
1 2602
1 2603
1 2604
1 2605
1 2606
1 2607
1 2608
1 2609
1 2610
1 2611
1 2612
1 2613
1 2614
1 2615
1 2616
1 2617
1 2618
1 2619
1 2620
1 2621
1 2622
1 2623
1 2624
1 2625
1 2626
1 2627
1 2628
1 2629
1 2630
1 2631
1 2632
1 2633
1 2634
1 2635
1 2636
1 2637
1 2638
1 2639
1 2640
1 2641
1 2642
1 2643
1 2644
1 2645
1 2646
1 2647
1 2648
1 2649
1 2650
1 2651
1 2652
1 2653
1 2654
1 2655
1 2656
1 2657
1 2658
1 2659
1 2660
1 2661
1 2662
1 2663
1 2664
1 2665
1 2666
1 2667
1 2668
1 2669
1 2670
1 2671
1 2672
1 2673
1 2674
1 2675
1 2676
1 2677
1 2678
1 2679
1 2680
1 2681
1 2682
1 2683
1 2684
1 2685
1 2686
1 2687
1 2688
1 2689
1 2690
1 2691
1 2692
1 2693
1 2694
1 2695
1 2696
1 2697
1 2698
1 2699
1 2700
1 2701
1 2702
1 2703
1 2704
1 2705
1 2706
1 2707
1 2708
1 2709
1 2710
1 2711
1 2712
1 2713
1 2714
1 2715
1 2716
1 2717
1 2718
1 2719
1 2720
1 2721
1 2722
1 2723
1 2724
1 2725
1 2726
1 2727
1 2728
1 2729
1 2730
1 2731
1 2732
1 2733
1 2734
1 2735
1 2736
1 2737
1 2738
1 2739
1 2740
1 2741
1 2742
1 2743
1 2744
1 2745
1 2746
1 2747
1 2748
1 2749
1 2750
1 2751
1 2752
1 2753
1 2754
1 2755
1 2756
1 2757
1 2758
1 2759
1 2760
1 2761
1 2762
1 2763
1 2764
1 2765
1 2766
1 2767
1 2768
1 2769
1 2770
1 2771
1 2772
1 2773
1 2774
1 2775
1 2776
1 2777
1 2778
1 2779
1 2780
1 2781
1 2782
1 2783
1 2784
1 2785
1 2786
1 2787
1 2788
1 2789
1 2790
1 2791
1 2792
1 2793
1 2794
1 2795
1 2796
1 2797
1 2798
1 2799
1 2800
1 2801
1 2802
1 2803
1 2804
1 2805
1 2806
1 2807
1 2808
1 2809
1 2810
1 2811
1 2812
1 2813
1 2814
1 2815
1 2816
1 2817
1 2818
1 2819
1 2820
1 2821
1 2822
1 2823
1 2824
1 2825
1 2826
1 2827
1 2828
1 2829
1 2830
1 2831
1 2832
1 2833
1 2834
1 2835
1 2836
1 2837
1 2838
1 2839
1 2840
1 2841
1 2842
1 2843
1 2844
1 2845
1 2846
1 2847
1 2848
1 2849
1 2850
1 2851
1 2852
1 2853
1 2854
1 2855
1 2856
1 2857
1 2858
1 2859
1 2860
1 2861
1 2862
1 2863
1 2864
1 2865
1 2866
1 2867
1 2868
1 2869
1 2870
1 2871
1 2872
1 2873
1 2874
1 2875
1 2876
1 2877
1 2878
1 2879
1 2880
1 2881
1 2882
1 2883
1 2884
1 2885
1 2886
1 2887
1 2888
1 2889
1 2890
1 2891
1 2892
1 2893
1 2894
1 2895
1 2896
1 2897
1 2898
1 2899
1 2900
1 2901
1 2902
1 2903
1 2904
1 2905
1 2906
1 2907
1 2908
1 2909
1 2910
1 2911
1 2912
1 2913
1 2914
1 2915
1 2916
1 2917
1 2918
1 2919
1 2920
1 2921
1 2922
1 2923
1 2924
1 2925
1 2926
1 2927
1 2928
1 2929
1 2930
1 2931
1 2932
1 2933
1 2934
1 2935
1 2936
1 2937
1 2938
1 2939
1 2940
1 2941
1 2942
1 2943
1 2944
1 2945
1 2946
1 2947
1 2948
1 2949
1 2950
1 2951
1 2952
1 2953
1 2954
1 2955
1 2956
1 2957
1 2958
1 2959
1 2960
1 2961
1 2962
1 2963
1 2964
1 2965
1 2966
1 2967
1 2968
1 2969
1 2970
1 2971
1 2972
1 2973
1 2974
POINT_DATA 2975
SCALARS Idp unsigned_int
LOOKUP_TABLE default
0 1 39 40 41 80 81 82 121 122 123 162 163 164 203 204 205 244 245 246 285 286 287 326 327 328 367 368 369 408 409 410 449 450 451 461 462 463 471 472 473 481 482 483 491 492 493 501 502 503 511 512 513 521 522 523 531 532 533 541 542 543 551 552 2 3 4 5 6 7 8 9 42 43 44 45 46 47 48 49 83 84 85 86 87 88 89 90 124 125 126 127 128 129 130 131 165 166 167 168 169 170 171 172 206 207 208 209 210 211 212 213 247 248 249 250 251 252 253 254 288 289 290 291 292 293 294 295 329 330 331 332 333 334 335 336 370 371 372 373 374 375 376 377 411 412 413 414 415 416 417 418 452 453 454 464 465 474 475 484 485 494 495 504 505 514 515 524 525 534 535 544 545 553 554 10 11 12 13 14 15 16 17 18 50 51 52 53 54 55 56 57 58 91 92 93 94 95 96 97 98 99 132 133 134 135 136 137 138 139 140 173 174 175 176 177 178 179 180 181 214 215 216 217 218 219 220 221 222 255 256 257 258 259 260 261 262 263 296 297 298 299 300 301 302 303 304 337 338 339 340 341 342 343 344 345 378 379 380 381 382 383 384 385 386 419 420 421 422 423 424 425 426 427 19 20 21 22 23 24 25 26 59 60 61 62 63 64 65 66 100 101 102 103 104 105 106 107 141 142 143 144 145 146 147 148 182 183 184 185 186 187 188 189 223 224 225 226 227 228 229 230 264 265 266 267 268 269 270 271 305 306 307 308 309 310 311 312 346 347 348 349 350 351 352 353 387 388 389 390 391 392 393 394 428 429 430 431 432 433 434 435 27 28 29 30 31 32 33 34 35 67 68 69 70 71 72 73 74 75 108 109 110 111 112 113 114 115 116 149 150 151 152 153 154 155 156 157 190 191 192 193 194 195 196 197 198 231 232 233 234 235 236 237 238 239 272 273 274 275 276 277 278 279 280 313 314 315 316 317 318 319 320 321 354 355 356 357 358 359 360 361 362 395 396 397 398 399 400 401 402 403 436 437 438 439 440 441 442 443 444 455 456 466 476 486 496 506 516 526 536 546 555 36 37 38 76 77 78 79 117 118 119 120 158 159 160 161 199 200 201 202 240 241 242 243 281 282 283 284 322 323 324 325 363 364 365 366 404 405 406 407 445 446 447 448 457 458 459 460 467 468 469 470 477 478 479 480 487 488 489 490 497 498 499 500 507 508 509 510 517 518 519 520 527 528 529 530 537 538 539 540 547 548 549 550 556 557 558 559 560 561 562 563 564 565 566 567 568 569 570 571 572 573 574 575 576 577 578 579 580 581 582 583 584 585 586 587 588 589 590 591 592 593 594 595 596 597 598 599 600 601 602 603 604 605 606 607 608 609 610 611 612 613 614 615 616 617 618 619 620 621 622 623 624 625 626 627 628 629 630 631 632 633 634 635 636 637 638 639 640 641 642 643 644 645 646 647 648 649 650 651 652 653 654 655 656 657 658 659 660 661 662 663 664 665 666 667 668 669 670 671 672 673 674 675 676 677 678 679 680 681 682 683 684 685 686 687 688 689 690 691 692 693 694 695 696 697 698 699 700 701 702 703 704 705 706 707 708 709 710 711 712 713 714 715 716 717 718 719 720 721 722 723 724 725 726 727 728 729 730 731 732 733 734 735 736 737 738 739 740 741 742 743 744 745 746 747 748 749 750 751 752 753 754 755 756 757 758 759 760 761 762 763 764 765 766 767 768 769 770 771 772 773 774 775 776 777 778 779 780 781 782 783 784 785 786 787 788 789 790 791 792 793 794 795 796 797 798 799 800 801 802 803 804 805 806 807 808 809 810 811 812 813 814 815 816 817 818 819 820 821 822 823 824 825 826 827 828 829 830 831 832 833 834 835 836 837 838 839 840 841 842 843 844 845 846 847 848 849 850 851 852 853 854 855 856 857 858 859 860 861 862 863 864 865 866 867 868 869 870 871 872 873 874 875 876 877 878 879 880 881 882 883 884 885 886 887 888 889 890 891 892 893 894 895 896 897 898 899 900 901 902 903 904 905 906 907 908 909 910 911 912 913 914 915 916 917 918 919 920 921 922 923 924 925 926 927 928 929 930 931 932 933 934 935 936 937 938 939 940 941 942 943 944 945 946 947 948 949 950 951 952 953 954 955 956 957 958 959 960 961 962 963 964 965 966 967 968 969 970 971 972 973 974 975 976 977 978 979 980 981 982 983 984 985 986 987 988 989 990 991 992 993 994 995 996 997 998 999 1000 1001 1002 1003 1004 1005 1006 1007 1008 1009 1010 1011 1012 1013 1014 1015 1016 1017 1018 1019 1020 1021 1022 1023 1024 1025 1026 1027 1028 1029 1030 1031 1032 1033 1034 1035 1060 1061 1062 1063 1064 1065 1091 1092 1093 1094 1095 1096 1122 1123 1124 1125 1126 1127 1153 1154 1155 1156 1157 1158 1184 1185 1186 1187 1188 1189 1215 1216 1217 1218 1219 1220 1246 1247 1248 1249 1250 1251 1277 1278 1279 1280 1281 1282 1308 1309 1310 1311 1312 1313 1339 1340 1341 1342 1343 1344 1370 1371 1372 1373 1374 1375 1401 1402 1403 1404 1405 1406 1432 1433 1434 1435 1436 1437 1463 1464 1465 1466 1467 1468 1494 1495 1496 1497 1498 1499 1525 1526 1527 1528 1529 1530 1556 1557 1558 1559 1560 1561 1587 1588 1589 1590 1591 1592 1618 1619 1620 1621 1622 1623 1649 1650 1651 1652 1653 1654 1680 1681 1682 1683 1684 1685 1711 1712 1713 1714 1715 1716 1742 1743 1744 1745 1746 1747 1773 1774 1775 1776 1777 1778 1804 1805 1806 1807 1808 1809 1835 1836 1837 1838 1839 1840 1866 1867 1868 1869 1870 1871 1897 1898 1899 1900 1901 1902 1928 1929 1930 1931 1932 1933 1959 1960 1961 1962 1963 1964 1990 1991 1992 1993 1994 1995 2021 2022 2023 2024 2025 2026 2052 2053 2054 2055 2056 2057 2083 2084 2085 2086 2087 2088 2114 2115 2116 2117 2118 2119 2145 2146 2147 2148 2149 2150 2176 2177 2178 2179 2180 2181 2207 2208 2209 2210 2211 2212 2238 2239 2240 2241 2242 2243 2269 2270 2271 2272 2273 2274 2300 2301 2302 2303 2304 2305 2331 2332 2333 2334 2335 2336 2362 2363 2364 2365 2366 2367 2393 2394 2395 2396 2397 2398 2424 2425 2426 2427 2428 2429 2455 2456 2457 2458 2459 2460 2486 2487 2488 2489 2490 2491 2517 2518 2519 2520 2521 2522 2548 2549 2550 2551 2552 2553 2579 2580 2581 2582 2583 2584 2610 2611 2612 2613 2614 2615 2641 2642 2643 2644 2645 2646 2672 2673 2674 2675 2676 2677 2703 2704 2705 2706 2707 2708 2734 2735 2736 2737 2738 2763 2764 2765 2766 2767 2792 2793 2794 2795 2819 2820 2821 2822 2846 2847 2848 2871 2872 2894 2895 1036 1037 1038 1039 1040 1041 1042 1043 1044 1066 1067 1068 1069 1070 1071 1072 1073 1074 1097 1098 1099 1100 1101 1102 1103 1104 1105 1128 1129 1130 1131 1132 1133 1134 1135 1136 1159 1160 1161 1162 1163 1164 1165 1166 1167 1190 1191 1192 1193 1194 1195 1196 1197 1198 1221 1222 1223 1224 1225 1226 1227 1228 1229 1252 1253 1254 1255 1256 1257 1258 1259 1260 1283 1284 1285 1286 1287 1288 1289 1290 1291 1314 1315 1316 1317 1318 1319 1320 1321 1322 1345 1346 1347 1348 1349 1350 1351 1352 1353 1376 1377 1378 1379 1380 1381 1382 1383 1384 1407 1408 1409 1410 1411 1412 1413 1414 1415 1438 1439 1440 1441 1442 1443 1444 1445 1446 1469 1470 1471 1472 1473 1474 1475 1476 1477 1500 1501 1502 1503 1504 1505 1506 1507 1508 1531 1532 1533 1534 1535 1536 1537 1538 1539 1562 1563 1564 1565 1566 1567 1568 1569 1570 1593 1594 1595 1596 1597 1598 1599 1600 1601 1624 1625 1626 1627 1628 1629 1630 1631 1632 1655 1656 1657 1658 1659 1660 1661 1662 1663 1686 1687 1688 1689 1690 1691 1692 1693 1694 1717 1718 1719 1720 1721 1722 1723 1724 1725 1748 1749 1750 1751 1752 1753 1754 1755 1756 1779 1780 1781 1782 1783 1784 1785 1786 1787 1810 1811 1812 1813 1814 1815 1816 1817 1818 1841 1842 1843 1844 1845 1846 1847 1848 1849 1872 1873 1874 1875 1876 1877 1878 1879 1880 1903 1904 1905 1906 1907 1908 1909 1910 1911 1934 1935 1936 1937 1938 1939 1940 1941 1942 1965 1966 1967 1968 1969 1970 1971 1972 1973 1996 1997 1998 1999 2000 2001 2002 2003 2004 2027 2028 2029 2030 2031 2032 2033 2034 2035 2058 2059 2060 2061 2062 2063 2064 2065 2066 2089 2090 2091 2092 2093 2094 2095 2096 2097 2120 2121 2122 2123 2124 2125 2126 2127 2128 2151 2152 2153 2154 2155 2156 2157 2158 2159 2182 2183 2184 2185 2186 2187 2188 2189 2190 2213 2214 2215 2216 2217 2218 2219 2220 2221 2244 2245 2246 2247 2248 2249 2250 2251 2252 2275 2276 2277 2278 2279 2280 2281 2282 2283 2306 2307 2308 2309 2310 2311 2312 2313 2314 2337 2338 2339 2340 2341 2342 2343 2344 2345 2368 2369 2370 2371 2372 2373 2374 2375 2376 2399 2400 2401 2402 2403 2404 2405 2406 2407 2430 2431 2432 2433 2434 2435 2436 2437 2438 2461 2462 2463 2464 2465 2466 2467 2468 2469 2492 2493 2494 2495 2496 2497 2498 2499 2500 2523 2524 2525 2526 2527 2528 2529 2530 2531 2554 2555 2556 2557 2558 2559 2560 2561 2562 2585 2586 2587 2588 2589 2590 2591 2592 2593 2616 2617 2618 2619 2620 2621 2622 2623 2624 2647 2648 2649 2650 2651 2652 2653 2654 2655 2678 2679 2680 2681 2682 2683 2684 2685 2686 2709 2710 2711 2712 2713 2714 2715 2716 2717 2739 2740 2741 2742 2743 2744 2745 2746 2747 2768 2769 2770 2771 2772 2773 2774 2775 2776 2796 2797 2798 2799 2800 2801 2802 2803 2804 2823 2824 2825 2826 2827 2828 2829 2830 2831 2849 2850 2851 2852 2853 2854 2855 2856 2857 2873 2874 2875 2876 2877 2878 2879 2880 2881 2896 2897 2898 2899 2900 2901 2902 2903 2904 2917 2918 2919 2920 2921 2922 2923 2924 2925 2936 2937 2938 2939 2940 2941 2942 2943 2953 2954 2955 2956 2957 2958 2966 2967 2968 2969 1045 1046 1047 1048 1049 1050 1051 1052 1075 1076 1077 1078 1079 1080 1081 1082 1106 1107 1108 1109 1110 1111 1112 1113 1137 1138 1139 1140 1141 1142 1143 1144 1168 1169 1170 1171 1172 1173 1174 1175 1199 1200 1201 1202 1203 1204 1205 1206 1230 1231 1232 1233 1234 1235 1236 1237 1261 1262 1263 1264 1265 1266 1267 1268 1292 1293 1294 1295 1296 1297 1298 1299 1323 1324 1325 1326 1327 1328 1329 1330 1354 1355 1356 1357 1358 1359 1360 1361 1385 1386 1387 1388 1389 1390 1391 1392 1416 1417 1418 1419 1420 1421 1422 1423 1447 1448 1449 1450 1451 1452 1453 1454 1478 1479 1480 1481 1482 1483 1484 1485 1509 1510 1511 1512 1513 1514 1515 1516 1540 1541 1542 1543 1544 1545 1546 1547 1571 1572 1573 1574 1575 1576 1577 1578 1602 1603 1604 1605 1606 1607 1608 1609 1633 1634 1635 1636 1637 1638 1639 1640 1664 1665 1666 1667 1668 1669 1670 1671 1695 1696 1697 1698 1699 1700 1701 1702 1726 1727 1728 1729 1730 1731 1732 1733 1757 1758 1759 1760 1761 1762 1763 1764 1788 1789 1790 1791 1792 1793 1794 1795 1819 1820 1821 1822 1823 1824 1825 1826 1850 1851 1852 1853 1854 1855 1856 1857 1881 1882 1883 1884 1885 1886 1887 1888 1912 1913 1914 1915 1916 1917 1918 1919 1943 1944 1945 1946 1947 1948 1949 1950 1974 1975 1976 1977 1978 1979 1980 1981 2005 2006 2007 2008 2009 2010 2011 2012 2036 2037 2038 2039 2040 2041 2042 2043 2067 2068 2069 2070 2071 2072 2073 2074 2098 2099 2100 2101 2102 2103 2104 2105 2129 2130 2131 2132 2133 2134 2135 2136 2160 2161 2162 2163 2164 2165 2166 2167 2191 2192 2193 2194 2195 2196 2197 2198 2222 2223 2224 2225 2226 2227 2228 2229 2253 2254 2255 2256 2257 2258 2259 2260 2284 2285 2286 2287 2288 2289 2290 2291 2315 2316 2317 2318 2319 2320 2321 2322 2346 2347 2348 2349 2350 2351 2352 2353 2377 2378 2379 2380 2381 2382 2383 2384 2408 2409 2410 2411 2412 2413 2414 2415 2439 2440 2441 2442 2443 2444 2445 2446 2470 2471 2472 2473 2474 2475 2476 2477 2501 2502 2503 2504 2505 2506 2507 2508 2532 2533 2534 2535 2536 2537 2538 2539 2563 2564 2565 2566 2567 2568 2569 2570 2594 2595 2596 2597 2598 2599 2600 2601 2625 2626 2627 2628 2629 2630 2631 2632 2656 2657 2658 2659 2660 2661 2662 2663 2687 2688 2689 2690 2691 2692 2693 2694 2718 2719 2720 2721 2722 2723 2724 2725 2748 2749 2750 2751 2752 2753 2754 2755 2777 2778 2779 2780 2781 2782 2783 2784 2805 2806 2807 2808 2809 2810 2811 2812 2832 2833 2834 2835 2836 2837 2838 2839 2858 2859 2860 2861 2862 2863 2864 2865 2882 2883 2884 2885 2886 2887 2888 2889 2905 2906 2907 2908 2909 2910 2911 2912 2926 2927 2928 2929 2930 2931 2932 2933 2944 2945 2946 2947 2948 2949 2950 2951 2959 2960 2961 2962 2963 2964 2965 2970 2971 2972 2973 2974 1053 1054 1055 1056 1057 1058 1059 1083 1084 1085 1086 1087 1088 1089 1090 1114 1115 1116 1117 1118 1119 1120 1121 1145 1146 1147 1148 1149 1150 1151 1152 1176 1177 1178 1179 1180 1181 1182 1183 1207 1208 1209 1210 1211 1212 1213 1214 1238 1239 1240 1241 1242 1243 1244 1245 1269 1270 1271 1272 1273 1274 1275 1276 1300 1301 1302 1303 1304 1305 1306 1307 1331 1332 1333 1334 1335 1336 1337 1338 1362 1363 1364 1365 1366 1367 1368 1369 1393 1394 1395 1396 1397 1398 1399 1400 1424 1425 1426 1427 1428 1429 1430 1431 1455 1456 1457 1458 1459 1460 1461 1462 1486 1487 1488 1489 1490 1491 1492 1493 1517 1518 1519 1520 1521 1522 1523 1524 1548 1549 1550 1551 1552 1553 1554 1555 1579 1580 1581 1582 1583 1584 1585 1586 1610 1611 1612 1613 1614 1615 1616 1617 1641 1642 1643 1644 1645 1646 1647 1648 1672 1673 1674 1675 1676 1677 1678 1679 1703 1704 1705 1706 1707 1708 1709 1710 1734 1735 1736 1737 1738 1739 1740 1741 1765 1766 1767 1768 1769 1770 1771 1772 1796 1797 1798 1799 1800 1801 1802 1803 1827 1828 1829 1830 1831 1832 1833 1834 1858 1859 1860 1861 1862 1863 1864 1865 1889 1890 1891 1892 1893 1894 1895 1896 1920 1921 1922 1923 1924 1925 1926 1927 1951 1952 1953 1954 1955 1956 1957 1958 1982 1983 1984 1985 1986 1987 1988 1989 2013 2014 2015 2016 2017 2018 2019 2020 2044 2045 2046 2047 2048 2049 2050 2051 2075 2076 2077 2078 2079 2080 2081 2082 2106 2107 2108 2109 2110 2111 2112 2113 2137 2138 2139 2140 2141 2142 2143 2144 2168 2169 2170 2171 2172 2173 2174 2175 2199 2200 2201 2202 2203 2204 2205 2206 2230 2231 2232 2233 2234 2235 2236 2237 2261 2262 2263 2264 2265 2266 2267 2268 2292 2293 2294 2295 2296 2297 2298 2299 2323 2324 2325 2326 2327 2328 2329 2330 2354 2355 2356 2357 2358 2359 2360 2361 2385 2386 2387 2388 2389 2390 2391 2392 2416 2417 2418 2419 2420 2421 2422 2423 2447 2448 2449 2450 2451 2452 2453 2454 2478 2479 2480 2481 2482 2483 2484 2485 2509 2510 2511 2512 2513 2514 2515 2516 2540 2541 2542 2543 2544 2545 2546 2547 2571 2572 2573 2574 2575 2576 2577 2578 2602 2603 2604 2605 2606 2607 2608 2609 2633 2634 2635 2636 2637 2638 2639 2640 2664 2665 2666 2667 2668 2669 2670 2671 2695 2696 2697 2698 2699 2700 2701 2702 2726 2727 2728 2729 2730 2731 2732 2733 2756 2757 2758 2759 2760 2761 2762 2785 2786 2787 2788 2789 2790 2791 2813 2814 2815 2816 2817 2818 2840 2841 2842 2843 2844 2845 2866 2867 2868 2869 2870 2890 2891 2892 2893 2913 2914 2915 2916 2934 2935 2952 
FIELD FieldData 12
Idp 1 2975 float
0 1 39 40 41 80 81 82 121 122 123 162 163 164 203 204 205 244 245 246 285 286 287 326 327 328 367 368 369 408 409 410 449 450 451 461 462 463 471 472 473 481 482 483 491 492 493 501 502 503 511 512 513 521 522 523 531 532 533 541 542 543 551 552 2 3 4 5 6 7 8 9 42 43 44 45 46 47 48 49 83 84 85 86 87 88 89 90 124 125 126 127 128 129 130 131 165 166 167 168 169 170 171 172 206 207 208 209 210 211 212 213 247 248 249 250 251 252 253 254 288 289 290 291 292 293 294 295 329 330 331 332 333 334 335 336 370 371 372 373 374 375 376 377 411 412 413 414 415 416 417 418 452 453 454 464 465 474 475 484 485 494 495 504 505 514 515 524 525 534 535 544 545 553 554 10 11 12 13 14 15 16 17 18 50 51 52 53 54 55 56 57 58 91 92 93 94 95 96 97 98 99 132 133 134 135 136 137 138 139 140 173 174 175 176 177 178 179 180 181 214 215 216 217 218 219 220 221 222 255 256 257 258 259 260 261 262 263 296 297 298 299 300 301 302 303 304 337 338 339 340 341 342 343 344 345 378 379 380 381 382 383 384 385 386 419 420 421 422 423 424 425 426 427 19 20 21 22 23 24 25 26 59 60 61 62 63 64 65 66 100 101 102 103 104 105 106 107 141 142 143 144 145 146 147 148 182 183 184 185 186 187 188 189 223 224 225 226 227 228 229 230 264 265 266 267 268 269 270 271 305 306 307 308 309 310 311 312 346 347 348 349 350 351 352 353 387 388 389 390 391 392 393 394 428 429 430 431 432 433 434 435 27 28 29 30 31 32 33 34 35 67 68 69 70 71 72 73 74 75 108 109 110 111 112 113 114 115 116 149 150 151 152 153 154 155 156 157 190 191 192 193 194 195 196 197 198 231 232 233 234 235 236 237 238 239 272 273 274 275 276 277 278 279 280 313 314 315 316 317 318 319 320 321 354 355 356 357 358 359 360 361 362 395 396 397 398 399 400 401 402 403 436 437 438 439 440 441 442 443 444 455 456 466 476 486 496 506 516 526 536 546 555 36 37 38 76 77 78 79 117 118 119 120 158 159 160 161 199 200 201 202 240 241 242 243 281 282 283 284 322 323 324 325 363 364 365 366 404 405 406 407 445 446 447 448 457 458 459 460 467 468 469 470 477 478 479 480 487 488 489 490 497 498 499 500 507 508 509 510 517 518 519 520 527 528 529 530 537 538 539 540 547 548 549 550 556 557 558 559 560 561 562 563 564 565 566 567 568 569 570 571 572 573 574 575 576 577 578 579 580 581 582 583 584 585 586 587 588 589 590 591 592 593 594 595 596 597 598 599 600 601 602 603 604 605 606 607 608 609 610 611 612 613 614 615 616 617 618 619 620 621 622 623 624 625 626 627 628 629 630 631 632 633 634 635 636 637 638 639 640 641 642 643 644 645 646 647 648 649 650 651 652 653 654 655 656 657 658 659 660 661 662 663 664 665 666 667 668 669 670 671 672 673 674 675 676 677 678 679 680 681 682 683 684 685 686 687 688 689 690 691 692 693 694 695 696 697 698 699 700 701 702 703 704 705 706 707 708 709 710 711 712 713 714 715 716 717 718 719 720 721 722 723 724 725 726 727 728 729 730 731 732 733 734 735 736 737 738 739 740 741 742 743 744 745 746 747 748 749 750 751 752 753 754 755 756 757 758 759 760 761 762 763 764 765 766 767 768 769 770 771 772 773 774 775 776 777 778 779 780 781 782 783 784 785 786 787 788 789 790 791 792 793 794 795 796 797 798 799 800 801 802 803 804 805 806 807 808 809 810 811 812 813 814 815 816 817 818 819 820 821 822 823 824 825 826 827 828 829 830 831 832 833 834 835 836 837 838 839 840 841 842 843 844 845 846 847 848 849 850 851 852 853 854 855 856 857 858 859 860 861 862 863 864 865 866 867 868 869 870 871 872 873 874 875 876 877 878 879 880 881 882 883 884 885 886 887 888 889 890 891 892 893 894 895 896 897 898 899 900 901 902 903 904 905 906 907 908 909 910 911 912 913 914 915 916 917 918 919 920 921 922 923 924 925 926 927 928 929 930 931 932 933 934 935 936 937 938 939 940 941 942 943 944 945 946 947 948 949 950 951 952 953 954 955 956 957 958 959 960 961 962 963 964 965 966 967 968 969 970 971 972 973 974 975 976 977 978 979 980 981 982 983 984 985 986 987 988 989 990 991 992 993 994 995 996 997 998 999 1000 1001 1002 1003 1004 1005 1006 1007 1008 1009 1010 1011 1012 1013 1014 1015 1016 1017 1018 1019 1020 1021 1022 1023 1024 1025 1026 1027 1028 1029 1030 1031 1032 1033 1034 1035 1060 1061 1062 1063 1064 1065 1091 1092 1093 1094 1095 1096 1122 1123 1124 1125 1126 1127 1153 1154 1155 1156 1157 1158 1184 1185 1186 1187 1188 1189 1215 1216 1217 1218 1219 1220 1246 1247 1248 1249 1250 1251 1277 1278 1279 1280 1281 1282 1308 1309 1310 1311 1312 1313 1339 1340 1341 1342 1343 1344 1370 1371 1372 1373 1374 1375 1401 1402 1403 1404 1405 1406 1432 1433 1434 1435 1436 1437 1463 1464 1465 1466 1467 1468 1494 1495 1496 1497 1498 1499 1525 1526 1527 1528 1529 1530 1556 1557 1558 1559 1560 1561 1587 1588 1589 1590 1591 1592 1618 1619 1620 1621 1622 1623 1649 1650 1651 1652 1653 1654 1680 1681 1682 1683 1684 1685 1711 1712 1713 1714 1715 1716 1742 1743 1744 1745 1746 1747 1773 1774 1775 1776 1777 1778 1804 1805 1806 1807 1808 1809 1835 1836 1837 1838 1839 1840 1866 1867 1868 1869 1870 1871 1897 1898 1899 1900 1901 1902 1928 1929 1930 1931 1932 1933 1959 1960 1961 1962 1963 1964 1990 1991 1992 1993 1994 1995 2021 2022 2023 2024 2025 2026 2052 2053 2054 2055 2056 2057 2083 2084 2085 2086 2087 2088 2114 2115 2116 2117 2118 2119 2145 2146 2147 2148 2149 2150 2176 2177 2178 2179 2180 2181 2207 2208 2209 2210 2211 2212 2238 2239 2240 2241 2242 2243 2269 2270 2271 2272 2273 2274 2300 2301 2302 2303 2304 2305 2331 2332 2333 2334 2335 2336 2362 2363 2364 2365 2366 2367 2393 2394 2395 2396 2397 2398 2424 2425 2426 2427 2428 2429 2455 2456 2457 2458 2459 2460 2486 2487 2488 2489 2490 2491 2517 2518 2519 2520 2521 2522 2548 2549 2550 2551 2552 2553 2579 2580 2581 2582 2583 2584 2610 2611 2612 2613 2614 2615 2641 2642 2643 2644 2645 2646 2672 2673 2674 2675 2676 2677 2703 2704 2705 2706 2707 2708 2734 2735 2736 2737 2738 2763 2764 2765 2766 2767 2792 2793 2794 2795 2819 2820 2821 2822 2846 2847 2848 2871 2872 2894 2895 1036 1037 1038 1039 1040 1041 1042 1043 1044 1066 1067 1068 1069 1070 1071 1072 1073 1074 1097 1098 1099 1100 1101 1102 1103 1104 1105 1128 1129 1130 1131 1132 1133 1134 1135 1136 1159 1160 1161 1162 1163 1164 1165 1166 1167 1190 1191 1192 1193 1194 1195 1196 1197 1198 1221 1222 1223 1224 1225 1226 1227 1228 1229 1252 1253 1254 1255 1256 1257 1258 1259 1260 1283 1284 1285 1286 1287 1288 1289 1290 1291 1314 1315 1316 1317 1318 1319 1320 1321 1322 1345 1346 1347 1348 1349 1350 1351 1352 1353 1376 1377 1378 1379 1380 1381 1382 1383 1384 1407 1408 1409 1410 1411 1412 1413 1414 1415 1438 1439 1440 1441 1442 1443 1444 1445 1446 1469 1470 1471 1472 1473 1474 1475 1476 1477 1500 1501 1502 1503 1504 1505 1506 1507 1508 1531 1532 1533 1534 1535 1536 1537 1538 1539 1562 1563 1564 1565 1566 1567 1568 1569 1570 1593 1594 1595 1596 1597 1598 1599 1600 1601 1624 1625 1626 1627 1628 1629 1630 1631 1632 1655 1656 1657 1658 1659 1660 1661 1662 1663 1686 1687 1688 1689 1690 1691 1692 1693 1694 1717 1718 1719 1720 1721 1722 1723 1724 1725 1748 1749 1750 1751 1752 1753 1754 1755 1756 1779 1780 1781 1782 1783 1784 1785 1786 1787 1810 1811 1812 1813 1814 1815 1816 1817 1818 1841 1842 1843 1844 1845 1846 1847 1848 1849 1872 1873 1874 1875 1876 1877 1878 1879 1880 1903 1904 1905 1906 1907 1908 1909 1910 1911 1934 1935 1936 1937 1938 1939 1940 1941 1942 1965 1966 1967 1968 1969 1970 1971 1972 1973 1996 1997 1998 1999 2000 2001 2002 2003 2004 2027 2028 2029 2030 2031 2032 2033 2034 2035 2058 2059 2060 2061 2062 2063 2064 2065 2066 2089 2090 2091 2092 2093 2094 2095 2096 2097 2120 2121 2122 2123 2124 2125 2126 2127 2128 2151 2152 2153 2154 2155 2156 2157 2158 2159 2182 2183 2184 2185 2186 2187 2188 2189 2190 2213 2214 2215 2216 2217 2218 2219 2220 2221 2244 2245 2246 2247 2248 2249 2250 2251 2252 2275 2276 2277 2278 2279 2280 2281 2282 2283 2306 2307 2308 2309 2310 2311 2312 2313 2314 2337 2338 2339 2340 2341 2342 2343 2344 2345 2368 2369 2370 2371 2372 2373 2374 2375 2376 2399 2400 2401 2402 2403 2404 2405 2406 2407 2430 2431 2432 2433 2434 2435 2436 2437 2438 2461 2462 2463 2464 2465 2466 2467 2468 2469 2492 2493 2494 2495 2496 2497 2498 2499 2500 2523 2524 2525 2526 2527 2528 2529 2530 2531 2554 2555 2556 2557 2558 2559 2560 2561 2562 2585 2586 2587 2588 2589 2590 2591 2592 2593 2616 2617 2618 2619 2620 2621 2622 2623 2624 2647 2648 2649 2650 2651 2652 2653 2654 2655 2678 2679 2680 2681 2682 2683 2684 2685 2686 2709 2710 2711 2712 2713 2714 2715 2716 2717 2739 2740 2741 2742 2743 2744 2745 2746 2747 2768 2769 2770 2771 2772 2773 2774 2775 2776 2796 2797 2798 2799 2800 2801 2802 2803 2804 2823 2824 2825 2826 2827 2828 2829 2830 2831 2849 2850 2851 2852 2853 2854 2855 2856 2857 2873 2874 2875 2876 2877 2878 2879 2880 2881 2896 2897 2898 2899 2900 2901 2902 2903 2904 2917 2918 2919 2920 2921 2922 2923 2924 2925 2936 2937 2938 2939 2940 2941 2942 2943 2953 2954 2955 2956 2957 2958 2966 2967 2968 2969 1045 1046 1047 1048 1049 1050 1051 1052 1075 1076 1077 1078 1079 1080 1081 1082 1106 1107 1108 1109 1110 1111 1112 1113 1137 1138 1139 1140 1141 1142 1143 1144 1168 1169 1170 1171 1172 1173 1174 1175 1199 1200 1201 1202 1203 1204 1205 1206 1230 1231 1232 1233 1234 1235 1236 1237 1261 1262 1263 1264 1265 1266 1267 1268 1292 1293 1294 1295 1296 1297 1298 1299 1323 1324 1325 1326 1327 1328 1329 1330 1354 1355 1356 1357 1358 1359 1360 1361 1385 1386 1387 1388 1389 1390 1391 1392 1416 1417 1418 1419 1420 1421 1422 1423 1447 1448 1449 1450 1451 1452 1453 1454 1478 1479 1480 1481 1482 1483 1484 1485 1509 1510 1511 1512 1513 1514 1515 1516 1540 1541 1542 1543 1544 1545 1546 1547 1571 1572 1573 1574 1575 1576 1577 1578 1602 1603 1604 1605 1606 1607 1608 1609 1633 1634 1635 1636 1637 1638 1639 1640 1664 1665 1666 1667 1668 1669 1670 1671 1695 1696 1697 1698 1699 1700 1701 1702 1726 1727 1728 1729 1730 1731 1732 1733 1757 1758 1759 1760 1761 1762 1763 1764 1788 1789 1790 1791 1792 1793 1794 1795 1819 1820 1821 1822 1823 1824 1825 1826 1850 1851 1852 1853 1854 1855 1856 1857 1881 1882 1883 1884 1885 1886 1887 1888 1912 1913 1914 1915 1916 1917 1918 1919 1943 1944 1945 1946 1947 1948 1949 1950 1974 1975 1976 1977 1978 1979 1980 1981 2005 2006 2007 2008 2009 2010 2011 2012 2036 2037 2038 2039 2040 2041 2042 2043 2067 2068 2069 2070 2071 2072 2073 2074 2098 2099 2100 2101 2102 2103 2104 2105 2129 2130 2131 2132 2133 2134 2135 2136 2160 2161 2162 2163 2164 2165 2166 2167 2191 2192 2193 2194 2195 2196 2197 2198 2222 2223 2224 2225 2226 2227 2228 2229 2253 2254 2255 2256 2257 2258 2259 2260 2284 2285 2286 2287 2288 2289 2290 2291 2315 2316 2317 2318 2319 2320 2321 2322 2346 2347 2348 2349 2350 2351 2352 2353 2377 2378 2379 2380 2381 2382 2383 2384 2408 2409 2410 2411 2412 2413 2414 2415 2439 2440 2441 2442 2443 2444 2445 2446 2470 2471 2472 2473 2474 2475 2476 2477 2501 2502 2503 2504 2505 2506 2507 2508 2532 2533 2534 2535 2536 2537 2538 2539 2563 2564 2565 2566 2567 2568 2569 2570 2594 2595 2596 2597 2598 2599 2600 2601 2625 2626 2627 2628 2629 2630 2631 2632 2656 2657 2658 2659 2660 2661 2662 2663 2687 2688 2689 2690 2691 2692 2693 2694 2718 2719 2720 2721 2722 2723 2724 2725 2748 2749 2750 2751 2752 2753 2754 2755 2777 2778 2779 2780 2781 2782 2783 2784 2805 2806 2807 2808 2809 2810 2811 2812 2832 2833 2834 2835 2836 2837 2838 2839 2858 2859 2860 2861 2862 2863 2864 2865 2882 2883 2884 2885 2886 2887 2888 2889 2905 2906 2907 2908 2909 2910 2911 2912 2926 2927 2928 2929 2930 2931 2932 2933 2944 2945 2946 2947 2948 2949 2950 2951 2959 2960 2961 2962 2963 2964 2965 2970 2971 2972 2973 2974 1053 1054 1055 1056 1057 1058 1059 1083 1084 1085 1086 1087 1088 1089 1090 1114 1115 1116 1117 1118 1119 1120 1121 1145 1146 1147 1148 1149 1150 1151 1152 1176 1177 1178 1179 1180 1181 1182 1183 1207 1208 1209 1210 1211 1212 1213 1214 1238 1239 1240 1241 1242 1243 1244 1245 1269 1270 1271 1272 1273 1274 1275 1276 1300 1301 1302 1303 1304 1305 1306 1307 1331 1332 1333 1334 1335 1336 1337 1338 1362 1363 1364 1365 1366 1367 1368 1369 1393 1394 1395 1396 1397 1398 1399 1400 1424 1425 1426 1427 1428 1429 1430 1431 1455 1456 1457 1458 1459 1460 1461 1462 1486 1487 1488 1489 1490 1491 1492 1493 1517 1518 1519 1520 1521 1522 1523 1524 1548 1549 1550 1551 1552 1553 1554 1555 1579 1580 1581 1582 1583 1584 1585 1586 1610 1611 1612 1613 1614 1615 1616 1617 1641 1642 1643 1644 1645 1646 1647 1648 1672 1673 1674 1675 1676 1677 1678 1679 1703 1704 1705 1706 1707 1708 1709 1710 1734 1735 1736 1737 1738 1739 1740 1741 1765 1766 1767 1768 1769 1770 1771 1772 1796 1797 1798 1799 1800 1801 1802 1803 1827 1828 1829 1830 1831 1832 1833 1834 1858 1859 1860 1861 1862 1863 1864 1865 1889 1890 1891 1892 1893 1894 1895 1896 1920 1921 1922 1923 1924 1925 1926 1927 1951 1952 1953 1954 1955 1956 1957 1958 1982 1983 1984 1985 1986 1987 1988 1989 2013 2014 2015 2016 2017 2018 2019 2020 2044 2045 2046 2047 2048 2049 2050 2051 2075 2076 2077 2078 2079 2080 2081 2082 2106 2107 2108 2109 2110 2111 2112 2113 2137 2138 2139 2140 2141 2142 2143 2144 2168 2169 2170 2171 2172 2173 2174 2175 2199 2200 2201 2202 2203 2204 2205 2206 2230 2231 2232 2233 2234 2235 2236 2237 2261 2262 2263 2264 2265 2266 2267 2268 2292 2293 2294 2295 2296 2297 2298 2299 2323 2324 2325 2326 2327 2328 2329 2330 2354 2355 2356 2357 2358 2359 2360 2361 2385 2386 2387 2388 2389 2390 2391 2392 2416 2417 2418 2419 2420 2421 2422 2423 2447 2448 2449 2450 2451 2452 2453 2454 2478 2479 2480 2481 2482 2483 2484 2485 2509 2510 2511 2512 2513 2514 2515 2516 2540 2541 2542 2543 2544 2545 2546 2547 2571 2572 2573 2574 2575 2576 2577 2578 2602 2603 2604 2605 2606 2607 2608 2609 2633 2634 2635 2636 2637 2638 2639 2640 2664 2665 2666 2667 2668 2669 2670 2671 2695 2696 2697 2698 2699 2700 2701 2702 2726 2727 2728 2729 2730 2731 2732 2733 2756 2757 2758 2759 2760 2761 2762 2785 2786 2787 2788 2789 2790 2791 2813 2814 2815 2816 2817 2818 2840 2841 2842 2843 2844 2845 2866 2867 2868 2869 2870 2890 2891 2892 2893 2913 2914 2915 2916 2934 2935 2952 
Rhop 1 2975 float
  1.0000000E+03   1.0000000E+03   1.0000000E+03   1.0000000E+03   1.0000000E+03   1.0000000E+03   1.0000000E+03   1.0000000E+03   1.0000000E+03   1.0000000E+03   1.0000000E+03   1.0000000E+03   1.0000000E+03   1.0000000E+03   1.0000000E+03   1.0000000E+03   1.0000000E+03   1.0000000E+03   1.0000000E+03   1.0000000E+03   1.0000000E+03   1.0000000E+03   1.0000000E+03   1.0000000E+03   1.0000000E+03   1.0000000E+03   1.0000000E+03   1.0000000E+03   1.0000000E+03   1.0000000E+03   1.0000000E+03   1.0000000E+03   1.0000000E+03   1.0000000E+03   1.0000000E+03   1.0000000E+03   1.0000000E+03   1.0000000E+03   1.0000000E+03   1.0000000E+03   1.0000000E+03   1.0000000E+03   1.0000000E+03   1.0000000E+03   1.0000000E+03   1.0000000E+03   1.0000000E+03   1.0000000E+03   1.0000000E+03   1.0000000E+03   1.0000000E+03   1.0000000E+03   1.0000000E+03   1.0000000E+03   1.0000000E+03   1.0000000E+03   1.0000000E+03   1.0000000E+03   1.0000000E+03   1.0000000E+03   1.0000000E+03   1.0000000E+03   1.0000000E+03   1.0000000E+03   1.0000000E+03   1.0000000E+03   1.0000000E+03   1.0000000E+03   1.0000000E+03   1.0000000E+03   1.0000000E+03   1.0000000E+03   1.0000000E+03   1.0000000E+03   1.0000000E+03   1.0000000E+03   1.0000000E+03   1.0000000E+03   1.0000000E+03   1.0000000E+03   1.0000000E+03   1.0000000E+03   1.0000000E+03   1.0000000E+03   1.0000000E+03   1.0000000E+03   1.0000000E+03   1.0000000E+03   1.0000000E+03   1.0000000E+03   1.0000000E+03   1.0000000E+03   1.0000000E+03   1.0000000E+03   1.0000000E+03   1.0000000E+03   1.0000000E+03   1.0000000E+03   1.0000000E+03   1.0000000E+03   1.0000000E+03   1.0000000E+03   1.0000000E+03   1.0000000E+03   1.0000000E+03   1.0000000E+03   1.0000000E+03   1.0000000E+03   1.0000000E+03   1.0000000E+03   1.0000000E+03   1.0000000E+03   1.0000000E+03   1.0000000E+03   1.0000000E+03   1.0000000E+03   1.0000000E+03   1.0000000E+03   1.0000000E+03   1.0000000E+03   1.0000000E+03   1.0000000E+03   1.0000000E+03   1.0000000E+03   1.0000000E+03   1.0000000E+03   1.0000000E+03   1.0000000E+03   1.0000000E+03   1.0000000E+03   1.0000000E+03   1.0000000E+03   1.0000000E+03   1.0000000E+03   1.0000000E+03   1.0000000E+03   1.0000000E+03   1.0000000E+03   1.0000000E+03   1.0000000E+03   1.0000000E+03   1.0000000E+03   1.0000000E+03   1.0000000E+03   1.0000000E+03   1.0000000E+03   1.0000000E+03   1.0000000E+03   1.0000000E+03   1.0000000E+03   1.0000000E+03   1.0000000E+03   1.0000000E+03   1.0000000E+03   1.0000000E+03   1.0000000E+03   1.0000000E+03   1.0000000E+03   1.0000000E+03   1.0000000E+03   1.0000000E+03   1.0000000E+03   1.0000000E+03   1.0000000E+03   1.0000000E+03   1.0000000E+03   1.0000000E+03   1.0000000E+03   1.0000000E+03   1.0000000E+03   1.0000000E+03   1.0000000E+03   1.0000000E+03   1.0000000E+03   1.0000000E+03   1.0000000E+03   1.0000000E+03   1.0000000E+03   1.0000000E+03   1.0000000E+03   1.0000000E+03   1.0000000E+03   1.0000000E+03   1.0000000E+03   1.0000000E+03   1.0000000E+03   1.0000000E+03   1.0000000E+03   1.0000000E+03   1.0000000E+03   1.0000000E+03   1.0000000E+03   1.0000000E+03   1.0000000E+03   1.0000000E+03   1.0000000E+03   1.0000000E+03   1.0000000E+03   1.0000000E+03   1.0000000E+03   1.0000000E+03   1.0000000E+03   1.0000000E+03   1.0000000E+03   1.0000000E+03   1.0000000E+03   1.0000000E+03   1.0000000E+03   1.0000000E+03   1.0000000E+03   1.0000000E+03   1.0000000E+03   1.0000000E+03   1.0000000E+03   1.0000000E+03   1.0000000E+03   1.0000000E+03   1.0000000E+03   1.0000000E+03   1.0000000E+03   1.0000000E+03   1.0000000E+03   1.0000000E+03   1.0000000E+03   1.0000000E+03   1.0000000E+03   1.0000000E+03   1.0000000E+03   1.0000000E+03   1.0000000E+03   1.0000000E+03   1.0000000E+03   1.0000000E+03   1.0000000E+03   1.0000000E+03   1.0000000E+03   1.0000000E+03   1.0000000E+03   1.0000000E+03   1.0000000E+03   1.0000000E+03   1.0000000E+03   1.0000000E+03   1.0000000E+03   1.0000000E+03   1.0000000E+03   1.0000000E+03   1.0000000E+03   1.0000000E+03   1.0000000E+03   1.0000000E+03   1.0000000E+03   1.0000000E+03   1.0000000E+03   1.0000000E+03   1.0000000E+03   1.0000000E+03   1.0000000E+03   1.0000000E+03   1.0000000E+03   1.0000000E+03   1.0000000E+03   1.0000000E+03   1.0000000E+03   1.0000000E+03   1.0000000E+03   1.0000000E+03   1.0000000E+03   1.0000000E+03   1.0000000E+03   1.0000000E+03   1.0000000E+03   1.0000000E+03   1.0000000E+03   1.0000000E+03   1.0000000E+03   1.0000000E+03   1.0000000E+03   1.0000000E+03   1.0000000E+03   1.0000000E+03   1.0000000E+03   1.0000000E+03   1.0000000E+03   1.0000000E+03   1.0000000E+03   1.0000000E+03   1.0000000E+03   1.0000000E+03   1.0000000E+03   1.0000000E+03   1.0000000E+03   1.0000000E+03   1.0000000E+03   1.0000000E+03   1.0000000E+03   1.0000000E+03   1.0000000E+03   1.0000000E+03   1.0000000E+03   1.0000000E+03   1.0000000E+03   1.0000000E+03   1.0000000E+03   1.0000000E+03   1.0000000E+03   1.0000000E+03   1.0000000E+03   1.0000000E+03   1.0000000E+03   1.0000000E+03   1.0000000E+03   1.0000000E+03   1.0000000E+03   1.0000000E+03   1.0000000E+03   1.0000000E+03   1.0000000E+03   1.0000000E+03   1.0000000E+03   1.0000000E+03   1.0000000E+03   1.0000000E+03   1.0000000E+03   1.0000000E+03   1.0000000E+03   1.0000000E+03   1.0000000E+03   1.0000000E+03   1.0000000E+03   1.0000000E+03   1.0000000E+03   1.0000000E+03   1.0000000E+03   1.0000000E+03   1.0000000E+03   1.0000000E+03   1.0000000E+03   1.0000000E+03   1.0000000E+03   1.0000000E+03   1.0000000E+03   1.0000000E+03   1.0000000E+03   1.0000000E+03   1.0000000E+03   1.0000000E+03   1.0000000E+03   1.0000000E+03   1.0000000E+03   1.0000000E+03   1.0000000E+03   1.0000000E+03   1.0000000E+03   1.0000000E+03   1.0000000E+03   1.0000000E+03   1.0000000E+03   1.0000000E+03   1.0000000E+03   1.0000000E+03   1.0000000E+03   1.0000000E+03   1.0000000E+03   1.0000000E+03   1.0000000E+03   1.0000000E+03   1.0000000E+03   1.0000000E+03   1.0000000E+03   1.0000000E+03   1.0000000E+03   1.0000000E+03   1.0000000E+03   1.0000000E+03   1.0000000E+03   1.0000000E+03   1.0000000E+03   1.0000000E+03   1.0000000E+03   1.0000000E+03   1.0000000E+03   1.0000000E+03   1.0000000E+03   1.0000000E+03   1.0000000E+03   1.0000000E+03   1.0000000E+03   1.0000000E+03   1.0000000E+03   1.0000000E+03   1.0000000E+03   1.0000000E+03   1.0000000E+03   1.0000000E+03   1.0000000E+03   1.0000000E+03   1.0000000E+03   1.0000000E+03   1.0000000E+03   1.0000000E+03   1.0000000E+03   1.0000000E+03   1.0000000E+03   1.0000000E+03   1.0000000E+03   1.0000000E+03   1.0000000E+03   1.0000000E+03   1.0000000E+03   1.0000000E+03   1.0000000E+03   1.0000000E+03   1.0000000E+03   1.0000000E+03   1.0000000E+03   1.0000000E+03   1.0000000E+03   1.0000000E+03   1.0000000E+03   1.0000000E+03   1.0000000E+03   1.0000000E+03   1.0000000E+03   1.0000000E+03   1.0000000E+03   1.0000000E+03   1.0000000E+03   1.0000000E+03   1.0000000E+03   1.0000000E+03   1.0000000E+03   1.0000000E+03   1.0000000E+03   1.0000000E+03   1.0000000E+03   1.0000000E+03   1.0000000E+03   1.0000000E+03   1.0000000E+03   1.0000000E+03   1.0000000E+03   1.0000000E+03   1.0000000E+03   1.0000000E+03   1.0000000E+03   1.0000000E+03   1.0000000E+03   1.0000000E+03   1.0000000E+03   1.0000000E+03   1.0000000E+03   1.0000000E+03   1.0000000E+03   1.0000000E+03   1.0000000E+03   1.0000000E+03   1.0000000E+03   1.0000000E+03   1.0000000E+03   1.0000000E+03   1.0000000E+03   1.0000000E+03   1.0000000E+03   1.0000000E+03   1.0000000E+03   1.0000000E+03   1.0000000E+03   1.0000000E+03   1.0000000E+03   1.0000000E+03   1.0000000E+03   1.0000000E+03   1.0000000E+03   1.0000000E+03   1.0000000E+03   1.0000000E+03   1.0000000E+03   1.0000000E+03   1.0000000E+03   1.0000000E+03   1.0000000E+03   1.0000000E+03   1.0000000E+03   1.0000000E+03   1.0000000E+03   1.0000000E+03   1.0000000E+03   1.0000000E+03   1.0000000E+03   1.0000000E+03   1.0000000E+03   1.0000000E+03   1.0000000E+03   1.0000000E+03   1.0000000E+03   1.0000000E+03   1.0000000E+03   1.0000000E+03   1.0000000E+03   1.0000000E+03   1.0000000E+03   1.0000000E+03   1.0000000E+03   1.0000000E+03   1.0000000E+03   1.0000000E+03   1.0000000E+03   1.0000000E+03   1.0000000E+03   1.0000000E+03   1.0000000E+03   1.0000000E+03   1.0000000E+03   1.0000000E+03   1.0000000E+03   1.0000000E+03   1.0000000E+03   1.0000000E+03   1.0000000E+03   1.0000000E+03   1.0000000E+03   1.0000000E+03   1.0000000E+03   1.0000000E+03   1.0000000E+03   1.0000000E+03   1.0000000E+03   1.0000000E+03   1.0000000E+03   1.0000000E+03   1.0000000E+03   1.0000000E+03   1.0000000E+03   1.0000000E+03   1.0000000E+03   1.0000000E+03   1.0000000E+03   1.0000000E+03   1.0000000E+03   1.0000000E+03   1.0000000E+03   1.0000000E+03   1.0000000E+03   1.0000000E+03   1.0000000E+03   1.0000000E+03   1.0000000E+03   1.0000000E+03   1.0000000E+03   1.0000000E+03   1.0000000E+03   1.0000000E+03   1.0000000E+03   1.0000000E+03   1.0000000E+03   1.0000000E+03   1.0000000E+03   1.0000000E+03   1.0000000E+03   1.0000000E+03   1.0000000E+03   1.0000000E+03   1.0000000E+03   1.0000000E+03   1.0000000E+03   1.0000000E+03   1.0000000E+03   1.0000000E+03   1.0000000E+03   1.0000000E+03   1.0000000E+03   1.0000000E+03   1.0000000E+03   1.0000000E+03   1.0000000E+03   1.0000000E+03   1.0000000E+03   1.0000000E+03   1.0000000E+03   1.0000000E+03   1.0000000E+03   1.0000000E+03   1.0000000E+03   1.0000000E+03   1.0000000E+03   1.0000000E+03   1.0000000E+03   1.0000000E+03   1.0000000E+03   1.0000000E+03   1.0000000E+03   1.0000000E+03   1.0000000E+03   1.0000000E+03   1.0000000E+03   1.0000000E+03   1.0000000E+03   1.0000000E+03   1.0000000E+03   1.0000000E+03   1.0000000E+03   1.0000000E+03   1.0000000E+03   1.0000000E+03   1.0000000E+03   1.0000000E+03   1.0000000E+03   1.0000000E+03   1.0000000E+03   1.0000000E+03   1.0000000E+03   1.0000000E+03   1.0000000E+03   1.0000000E+03   1.0000000E+03   1.0000000E+03   1.0000000E+03   1.0000000E+03   1.0000000E+03   1.0000000E+03   1.0000000E+03   1.0000000E+03   1.0000000E+03   1.0000000E+03   1.0000000E+03   1.0000000E+03   1.0000000E+03   1.0000000E+03   1.0000000E+03   1.0000000E+03   1.0000000E+03   1.0000000E+03   1.0000000E+03   1.0000000E+03   1.0000000E+03   1.0000000E+03   1.0000000E+03   1.0000000E+03   1.0000000E+03   1.0000000E+03   1.0000000E+03   1.0000000E+03   1.0000000E+03   1.0000000E+03   1.0000000E+03   1.0000000E+03   1.0000000E+03   1.0000000E+03   1.0000000E+03   1.0000000E+03   1.0000000E+03   1.0000000E+03   1.0000000E+03   1.0000000E+03   1.0000000E+03   1.0000000E+03   1.0000000E+03   1.0000000E+03   1.0000000E+03   1.0000000E+03   1.0000000E+03   1.0000000E+03   1.0000000E+03   1.0000000E+03   1.0000000E+03   1.0000000E+03   1.0000000E+03   1.0000000E+03   1.0000000E+03   1.0000000E+03   1.0000000E+03   1.0000000E+03   1.0000000E+03   1.0000000E+03   1.0000000E+03   1.0000000E+03   1.0000000E+03   1.0000000E+03   1.0000000E+03   1.0000000E+03   1.0000000E+03   1.0000000E+03   1.0000000E+03   1.0000000E+03   1.0000000E+03   1.0000000E+03   1.0000000E+03   1.0000000E+03   1.0000000E+03   1.0000000E+03   1.0000000E+03   1.0000000E+03   1.0000000E+03   1.0000000E+03   1.0000000E+03   1.0000000E+03   1.0000000E+03   1.0000000E+03   1.0000000E+03   1.0000000E+03   1.0000000E+03   1.0000000E+03   1.0000000E+03   1.0000000E+03   1.0000000E+03   1.0000000E+03   1.0000000E+03   1.0000000E+03   1.0000000E+03   1.0000000E+03   1.0000000E+03   1.0000000E+03   1.0000000E+03   1.0000000E+03   1.0000000E+03   1.0000000E+03   1.0000000E+03   1.0000000E+03   1.0000000E+03   1.0000000E+03   1.0000000E+03   1.0000000E+03   1.0000000E+03   1.0000000E+03   1.0000000E+03   1.0000000E+03   1.0000000E+03   1.0000000E+03   1.0000000E+03   1.0000000E+03   1.0000000E+03   1.0000000E+03   1.0000000E+03   1.0000000E+03   1.0000000E+03   1.0000000E+03   1.0000000E+03   1.0000000E+03   1.0000000E+03   1.0000000E+03   1.0000000E+03   1.0000000E+03   1.0000000E+03   1.0000000E+03   1.0000000E+03   1.0000000E+03   1.0000000E+03   1.0000000E+03   1.0000000E+03   1.0000000E+03   1.0000000E+03   1.0000000E+03   1.0000000E+03   1.0000000E+03   1.0000000E+03   1.0000000E+03   1.0000000E+03   1.0000000E+03   1.0000000E+03   1.0000000E+03   1.0000000E+03   1.0000000E+03   1.0000000E+03   1.0000000E+03   1.0000000E+03   1.0000000E+03   1.0000000E+03   1.0000000E+03   1.0000000E+03   1.0000000E+03   1.0000000E+03   1.0000000E+03   1.0000000E+03   1.0000000E+03   1.0000000E+03   1.0000000E+03   1.0000000E+03   1.0000000E+03   1.0000000E+03   1.0000000E+03   1.0000000E+03   1.0000000E+03   1.0000000E+03   1.0000000E+03   1.0000000E+03   1.0000000E+03   1.0000000E+03   1.0000000E+03   1.0000000E+03   1.0000000E+03   1.0000000E+03   1.0000000E+03   1.0000000E+03   1.0000000E+03   1.0000000E+03   1.0000000E+03   1.0000000E+03   1.0000000E+03   1.0000000E+03   1.0000000E+03   1.0000000E+03   1.0000000E+03   1.0000000E+03   1.0000000E+03   1.0000000E+03   1.0000000E+03   1.0000000E+03   1.0000000E+03   1.0000000E+03   1.0000000E+03   1.0000000E+03   1.0000000E+03   1.0000000E+03   1.0000000E+03   1.0000000E+03   1.0000000E+03   1.0000000E+03   1.0000000E+03   1.0000000E+03   1.0000000E+03   1.0000000E+03   1.0000000E+03   1.0000000E+03   1.0000000E+03   1.0000000E+03   1.0000000E+03   1.0000000E+03   1.0000000E+03   1.0000000E+03   1.0000000E+03   1.0000000E+03   1.0000000E+03   1.0000000E+03   1.0000000E+03   1.0000000E+03   1.0000000E+03   1.0000000E+03   1.0000000E+03   1.0000000E+03   1.0000000E+03   1.0000000E+03   1.0000000E+03   1.0000000E+03   1.0000000E+03   1.0000000E+03   1.0000000E+03   1.0000000E+03   1.0000000E+03   1.0000000E+03   1.0000000E+03   1.0000000E+03   1.0000000E+03   1.0000000E+03   1.0000000E+03   1.0000000E+03   1.0000000E+03   1.0000000E+03   1.0000000E+03   1.0000000E+03   1.0000000E+03   1.0000000E+03   1.0000000E+03   1.0000000E+03   1.0000000E+03   1.0000000E+03   1.0000000E+03   1.0000000E+03   1.0000000E+03   1.0000000E+03   1.0000000E+03   1.0000000E+03   1.0000000E+03   1.0000000E+03   1.0000000E+03   1.0000000E+03   1.0000000E+03   1.0000000E+03   1.0000000E+03   1.0000000E+03   1.0000000E+03   1.0000000E+03   1.0000000E+03   1.0000000E+03   1.0000000E+03   1.0000000E+03   1.0000000E+03   1.0000000E+03   1.0000000E+03   1.0000000E+03   1.0000000E+03   1.0000000E+03   1.0000000E+03   1.0000000E+03   1.0000000E+03   1.0000000E+03   1.0000000E+03   1.0000000E+03   1.0000000E+03   1.0000000E+03   1.0000000E+03   1.0000000E+03   1.0000000E+03   1.0000000E+03   1.0000000E+03   1.0000000E+03   1.0000000E+03   1.0000000E+03   1.0000000E+03   1.0000000E+03   1.0000000E+03   1.0000000E+03   1.0000000E+03   1.0000000E+03   1.0000000E+03   1.0000000E+03   1.0000000E+03   1.0000000E+03   1.0000000E+03   1.0000000E+03   1.0000000E+03   1.0000000E+03   1.0000000E+03   1.0000000E+03   1.0000000E+03   1.0000000E+03   1.0000000E+03   1.0000000E+03   1.0000000E+03   1.0000000E+03   1.0000000E+03   1.0000000E+03   1.0000000E+03   1.0000000E+03   1.0000000E+03   1.0000000E+03   1.0000000E+03   1.0000000E+03   1.0000000E+03   1.0000000E+03   1.0000000E+03   1.0000000E+03   1.0000000E+03   1.0000000E+03   1.0000000E+03   1.0000000E+03   1.0000000E+03   1.0000000E+03   1.0000000E+03   1.0000000E+03   1.0000000E+03   1.0000000E+03   1.0000000E+03   1.0000000E+03   1.0000000E+03   1.0000000E+03   1.0000000E+03   1.0000000E+03   1.0000000E+03   1.0000000E+03   1.0000000E+03   1.0000000E+03   1.0000000E+03   1.0000000E+03   1.0000000E+03   1.0000000E+03   1.0000000E+03   1.0000000E+03   1.0000000E+03   1.0000000E+03   1.0000000E+03   1.0000000E+03   1.0000000E+03   1.0000000E+03   1.0000000E+03   1.0000000E+03   1.0000000E+03   1.0000000E+03   1.0000000E+03   1.0000000E+03   1.0000000E+03   1.0000000E+03   1.0000000E+03   1.0000000E+03   1.0000000E+03   1.0000000E+03   1.0000000E+03   1.0000000E+03   1.0000000E+03   1.0000000E+03   1.0000000E+03   1.0000000E+03   1.0000000E+03   1.0000000E+03   1.0000000E+03   1.0000000E+03   1.0000000E+03   1.0000000E+03   1.0000000E+03   1.0000000E+03   1.0000000E+03   1.0000000E+03   1.0000000E+03   1.0000000E+03   1.0000000E+03   1.0000000E+03   1.0000000E+03   1.0000000E+03   1.0000000E+03   1.0000000E+03   1.0000000E+03   1.0000000E+03   1.0000000E+03   1.0000000E+03   1.0000000E+03   1.0000000E+03   1.0000000E+03   1.0000000E+03   1.0000000E+03   1.0000000E+03   1.0000000E+03   1.0000000E+03   1.0000000E+03   1.0000000E+03   1.0000000E+03   1.0000000E+03   1.0000000E+03   1.0000000E+03   1.0000000E+03   1.0000000E+03   1.0000000E+03   1.0000000E+03   1.0000000E+03   1.0000000E+03   1.0000000E+03   1.0000000E+03   1.0000000E+03   1.0000000E+03   1.0000000E+03   1.0000000E+03   1.0000000E+03   1.0000000E+03   1.0000000E+03   1.0000000E+03   1.0000000E+03   1.0000000E+03   1.0000000E+03   1.0000000E+03   1.0000000E+03   1.0000000E+03   1.0000000E+03   1.0000000E+03   1.0000000E+03   1.0000000E+03   1.0000000E+03   1.0000000E+03   1.0000000E+03   1.0000000E+03   1.0000000E+03   1.0000000E+03   1.0000000E+03   1.0000000E+03   1.0000000E+03   1.0000000E+03   1.0000000E+03   1.0000000E+03   1.0000000E+03   1.0000000E+03   1.0000000E+03   1.0000000E+03   1.0000000E+03   1.0000000E+03   1.0000000E+03   1.0000000E+03   1.0000000E+03   1.0000000E+03   1.0000000E+03   1.0000000E+03   1.0000000E+03   1.0000000E+03   1.0000000E+03   1.0000000E+03   1.0000000E+03   1.0000000E+03   1.0000000E+03   1.0000000E+03   1.0000000E+03   1.0000000E+03   1.0000000E+03   1.0000000E+03   1.0000000E+03   1.0000000E+03   1.0000000E+03   1.0000000E+03   1.0000000E+03   1.0000001E+03   1.0000001E+03   1.0000001E+03   1.0000001E+03   1.0000001E+03   1.0000001E+03   1.0000001E+03   1.0000001E+03   1.0000001E+03   1.0000001E+03   1.0000001E+03   1.0000001E+03   1.0000001E+03   1.0000001E+03   1.0000001E+03   1.0000001E+03   1.0000001E+03   1.0000001E+03   1.0000002E+03   1.0000002E+03   1.0000002E+03   1.0000002E+03   1.0000002E+03   1.0000002E+03   1.0000002E+03   1.0000002E+03   1.0000002E+03   1.0000003E+03   1.0000003E+03   1.0000003E+03   1.0000003E+03   1.0000004E+03   1.0000004E+03   1.0000004E+03   1.0000004E+03   1.0000005E+03   1.0000005E+03   1.0000007E+03   1.0000007E+03   1.0000007E+03   1.0000007E+03   1.0000007E+03   1.0000008E+03   1.0000010E+03   1.0000010E+03   1.0000010E+03   1.0000011E+03   1.0000011E+03   1.0000011E+03   1.0000015E+03   1.0000015E+03   1.0000015E+03   1.0000016E+03   1.0000016E+03   1.0000016E+03   1.0000023E+03   1.0000023E+03   1.0000023E+03   1.0000023E+03   1.0000023E+03   1.0000024E+03   1.0000034E+03   1.0000034E+03   1.0000034E+03   1.0000034E+03   1.0000034E+03   1.0000035E+03   1.0000049E+03   1.0000048E+03   1.0000047E+03   1.0000047E+03   1.0000048E+03   1.0000048E+03   1.0000074E+03   1.0000071E+03   1.0000069E+03   1.0000068E+03   1.0000068E+03   1.0000070E+03   1.0000107E+03   1.0000104E+03   1.0000099E+03   1.0000096E+03   1.0000096E+03   1.0000099E+03   1.0000152E+03   1.0000145E+03   1.0000136E+03   1.0000132E+03   1.0000133E+03   1.0000136E+03   1.0000225E+03   1.0000212E+03   1.0000196E+03   1.0000190E+03   1.0000193E+03   1.0000200E+03   1.0000352E+03   1.0000328E+03   1.0000304E+03   1.0000296E+03   1.0000303E+03   1.0000316E+03   1.0000626E+03   1.0000588E+03   1.0000555E+03   1.0000548E+03   1.0000562E+03   1.0000584E+03   1.0001301E+03   1.0001249E+03   1.0001214E+03   1.0001211E+03   1.0001236E+03   1.0001274E+03   1.0003000E+03   1.0002948E+03   1.0002930E+03   1.0002938E+03   1.0002981E+03   1.0003043E+03   1.0006929E+03   1.0006905E+03   1.0006942E+03   1.0006985E+03   1.0007057E+03   1.0007148E+03   1.0014172E+03   1.0014223E+03   1.0014379E+03   1.0014489E+03   1.0014601E+03   1.0014730E+03   1.0023277E+03   1.0023427E+03   1.0023741E+03   1.0023940E+03   1.0024100E+03   1.0024268E+03   1.0030490E+03   1.0030709E+03   1.0031149E+03   1.0031419E+03   1.0031622E+03   1.0031825E+03   1.0034383E+03   1.0034616E+03   1.0035115E+03   1.0035425E+03   1.0035656E+03   1.0035891E+03   1.0036058E+03   1.0036279E+03   1.0036792E+03   1.0037115E+03   1.0037365E+03   1.0037621E+03   1.0036722E+03   1.0036921E+03   1.0037430E+03   1.0037756E+03   1.0038016E+03   1.0038289E+03   1.0036995E+03   1.0037177E+03   1.0037677E+03   1.0038002E+03   1.0038268E+03   1.0038550E+03   1.0037127E+03   1.0037297E+03   1.0037791E+03   1.0038114E+03   1.0038383E+03   1.0038669E+03   1.0037176E+03   1.0037342E+03   1.0037832E+03   1.0038153E+03   1.0038422E+03   1.0038710E+03   1.0037187E+03   1.0037357E+03   1.0037847E+03   1.0038170E+03   1.0038436E+03   1.0038721E+03   1.0036608E+03   1.0036778E+03   1.0037261E+03   1.0037578E+03   1.0037840E+03   1.0038118E+03   1.0035438E+03   1.0035604E+03   1.0036072E+03   1.0036378E+03   1.0036631E+03   1.0036901E+03   1.0033752E+03   1.0033908E+03   1.0034352E+03   1.0034645E+03   1.0034887E+03   1.0035145E+03   1.0031642E+03   1.0031786E+03   1.0032202E+03   1.0032475E+03   1.0032704E+03   1.0032950E+03   1.0029222E+03   1.0029351E+03   1.0029732E+03   1.0029986E+03   1.0030200E+03   1.0030430E+03   1.0026601E+03   1.0026715E+03   1.0027060E+03   1.0027291E+03   1.0027490E+03   1.0027703E+03   1.0023892E+03   1.0023991E+03   1.0024299E+03   1.0024509E+03   1.0024691E+03   1.0024887E+03   1.0021202E+03   1.0021285E+03   1.0021556E+03   1.0021744E+03   1.0021909E+03   1.0022089E+03   1.0018620E+03   1.0018682E+03   1.0018918E+03   1.0019085E+03   1.0019235E+03   1.0019398E+03   1.0016221E+03   1.0016262E+03   1.0016461E+03   1.0016611E+03   1.0016745E+03   1.0016891E+03   1.0014057E+03   1.0014070E+03   1.0014237E+03   1.0014370E+03   1.0014490E+03   1.0014618E+03   1.0012153E+03   1.0012143E+03   1.0012276E+03   1.0012397E+03   1.0012502E+03   1.0012614E+03   1.0010515E+03   1.0010487E+03   1.0010588E+03   1.0010702E+03   1.0010796E+03   1.0010889E+03   1.0009105E+03   1.0009175E+03   1.0009279E+03   1.0009364E+03   1.0009442E+03   1.0007985E+03   1.0008017E+03   1.0008105E+03   1.0008187E+03   1.0008251E+03   1.0007095E+03   1.0007158E+03   1.0007234E+03   1.0007293E+03   1.0006372E+03   1.0006409E+03   1.0006475E+03   1.0006534E+03   1.0005828E+03   1.0005880E+03   1.0005938E+03   1.0005423E+03   1.0005475E+03   1.0005080E+03   1.0005123E+03   1.0000000E+03   1.0000000E+03   1.0000000E+03   1.0000000E+03   1.0000000E+03   1.0000000E+03   1.0000000E+03   1.0000000E+03   1.0000000E+03   1.0000000E+03   1.0000000E+03   1.0000000E+03   1.0000000E+03   1.0000000E+03   1.0000000E+03   1.0000000E+03   1.0000000E+03   1.0000000E+03   1.0000000E+03   1.0000000E+03   1.0000000E+03   1.0000000E+03   1.0000000E+03   1.0000000E+03   1.0000000E+03   1.0000000E+03   1.0000000E+03   1.0000000E+03   1.0000000E+03   1.0000000E+03   1.0000000E+03   1.0000000E+03   1.0000000E+03   1.0000000E+03   1.0000000E+03   1.0000000E+03   1.0000000E+03   1.0000000E+03   1.0000000E+03   1.0000000E+03   1.0000000E+03   1.0000000E+03   1.0000000E+03   1.0000000E+03   1.0000000E+03   1.0000000E+03   1.0000000E+03   1.0000000E+03   1.0000000E+03   1.0000000E+03   1.0000000E+03   1.0000000E+03   1.0000000E+03   1.0000000E+03   1.0000000E+03   1.0000000E+03   1.0000000E+03   1.0000000E+03   1.0000000E+03   1.0000000E+03   1.0000000E+03   1.0000000E+03   1.0000000E+03   1.0000000E+03   1.0000000E+03   1.0000000E+03   1.0000000E+03   1.0000000E+03   1.0000000E+03   1.0000000E+03   1.0000000E+03   1.0000000E+03   1.0000000E+03   1.0000000E+03   1.0000000E+03   1.0000000E+03   1.0000000E+03   1.0000000E+03   1.0000000E+03   1.0000000E+03   1.0000000E+03   1.0000000E+03   1.0000000E+03   1.0000000E+03   1.0000000E+03   1.0000000E+03   1.0000000E+03   1.0000000E+03   1.0000000E+03   1.0000000E+03   1.0000001E+03   1.0000001E+03   1.0000001E+03   1.0000001E+03   1.0000001E+03   1.0000001E+03   1.0000001E+03   1.0000001E+03   1.0000001E+03   1.0000001E+03   1.0000001E+03   1.0000001E+03   1.0000001E+03   1.0000001E+03   1.0000001E+03   1.0000001E+03   1.0000001E+03   1.0000001E+03   1.0000001E+03   1.0000001E+03   1.0000001E+03   1.0000001E+03   1.0000001E+03   1.0000001E+03   1.0000001E+03   1.0000001E+03   1.0000001E+03   1.0000002E+03   1.0000002E+03   1.0000002E+03   1.0000002E+03   1.0000002E+03   1.0000002E+03   1.0000002E+03   1.0000002E+03   1.0000002E+03   1.0000002E+03   1.0000002E+03   1.0000002E+03   1.0000002E+03   1.0000002E+03   1.0000002E+03   1.0000002E+03   1.0000002E+03   1.0000002E+03   1.0000003E+03   1.0000003E+03   1.0000003E+03   1.0000003E+03   1.0000004E+03   1.0000004E+03   1.0000004E+03   1.0000004E+03   1.0000004E+03   1.0000005E+03   1.0000005E+03   1.0000005E+03   1.0000005E+03   1.0000005E+03   1.0000005E+03   1.0000005E+03   1.0000005E+03   1.0000005E+03   1.0000008E+03   1.0000009E+03   1.0000009E+03   1.0000009E+03   1.0000009E+03   1.0000009E+03   1.0000009E+03   1.0000009E+03   1.0000009E+03   1.0000012E+03   1.0000012E+03   1.0000012E+03   1.0000012E+03   1.0000012E+03   1.0000013E+03   1.0000013E+03   1.0000013E+03   1.0000013E+03   1.0000017E+03   1.0000017E+03   1.0000018E+03   1.0000018E+03   1.0000018E+03   1.0000018E+03   1.0000018E+03   1.0000018E+03   1.0000018E+03   1.0000025E+03   1.0000026E+03   1.0000026E+03   1.0000026E+03   1.0000026E+03   1.0000026E+03   1.0000027E+03   1.0000027E+03   1.0000027E+03   1.0000036E+03   1.0000036E+03   1.0000037E+03   1.0000037E+03   1.0000037E+03   1.0000038E+03   1.0000038E+03   1.0000038E+03   1.0000038E+03   1.0000049E+03   1.0000051E+03   1.0000051E+03   1.0000052E+03   1.0000052E+03   1.0000053E+03   1.0000053E+03   1.0000053E+03   1.0000053E+03   1.0000072E+03   1.0000073E+03   1.0000073E+03   1.0000074E+03   1.0000075E+03   1.0000076E+03   1.0000076E+03   1.0000076E+03   1.0000076E+03   1.0000101E+03   1.0000103E+03   1.0000104E+03   1.0000106E+03   1.0000107E+03   1.0000107E+03   1.0000107E+03   1.0000107E+03   1.0000107E+03   1.0000140E+03   1.0000143E+03   1.0000145E+03   1.0000147E+03   1.0000148E+03   1.0000149E+03   1.0000150E+03   1.0000150E+03   1.0000151E+03   1.0000207E+03   1.0000212E+03   1.0000216E+03   1.0000219E+03   1.0000220E+03   1.0000220E+03   1.0000222E+03   1.0000222E+03   1.0000223E+03   1.0000328E+03   1.0000338E+03   1.0000344E+03   1.0000347E+03   1.0000350E+03   1.0000351E+03   1.0000352E+03   1.0000353E+03   1.0000353E+03   1.0000607E+03   1.0000624E+03   1.0000635E+03   1.0000640E+03   1.0000643E+03   1.0000645E+03   1.0000647E+03   1.0000648E+03   1.0000648E+03   1.0001312E+03   1.0001342E+03   1.0001360E+03   1.0001370E+03   1.0001374E+03   1.0001376E+03   1.0001378E+03   1.0001379E+03   1.0001380E+03   1.0003103E+03   1.0003149E+03   1.0003179E+03   1.0003193E+03   1.0003201E+03   1.0003204E+03   1.0003206E+03   1.0003208E+03   1.0003209E+03   1.0007237E+03   1.0007306E+03   1.0007350E+03   1.0007374E+03   1.0007385E+03   1.0007391E+03   1.0007394E+03   1.0007396E+03   1.0007396E+03   1.0014852E+03   1.0014951E+03   1.0015013E+03   1.0015046E+03   1.0015062E+03   1.0015070E+03   1.0015073E+03   1.0015075E+03   1.0015077E+03   1.0024427E+03   1.0024555E+03   1.0024638E+03   1.0024682E+03   1.0024702E+03   1.0024712E+03   1.0024717E+03   1.0024719E+03   1.0024721E+03   1.0032019E+03   1.0032176E+03   1.0032278E+03   1.0032332E+03   1.0032359E+03   1.0032371E+03   1.0032376E+03   1.0032380E+03   1.0032381E+03   1.0036115E+03   1.0036295E+03   1.0036414E+03   1.0036478E+03   1.0036509E+03   1.0036522E+03   1.0036530E+03   1.0036533E+03   1.0036535E+03   1.0037868E+03   1.0038068E+03   1.0038199E+03   1.0038270E+03   1.0038304E+03   1.0038319E+03   1.0038327E+03   1.0038331E+03   1.0038334E+03   1.0038550E+03   1.0038763E+03   1.0038904E+03   1.0038979E+03   1.0039016E+03   1.0039031E+03   1.0039040E+03   1.0039044E+03   1.0039047E+03   1.0038823E+03   1.0039043E+03   1.0039188E+03   1.0039266E+03   1.0039304E+03   1.0039321E+03   1.0039329E+03   1.0039333E+03   1.0039336E+03   1.0038947E+03   1.0039171E+03   1.0039318E+03   1.0039398E+03   1.0039435E+03   1.0039453E+03   1.0039460E+03   1.0039465E+03   1.0039468E+03   1.0038987E+03   1.0039212E+03   1.0039359E+03   1.0039439E+03   1.0039476E+03   1.0039493E+03   1.0039502E+03   1.0039506E+03   1.0039509E+03   1.0038996E+03   1.0039218E+03   1.0039364E+03   1.0039443E+03   1.0039480E+03   1.0039498E+03   1.0039506E+03   1.0039510E+03   1.0039513E+03   1.0038388E+03   1.0038607E+03   1.0038749E+03   1.0038825E+03   1.0038862E+03   1.0038878E+03   1.0038887E+03   1.0038892E+03   1.0038894E+03   1.0037161E+03   1.0037372E+03   1.0037510E+03   1.0037586E+03   1.0037621E+03   1.0037637E+03   1.0037645E+03   1.0037650E+03   1.0037652E+03   1.0035396E+03   1.0035598E+03   1.0035729E+03   1.0035801E+03   1.0035835E+03   1.0035850E+03   1.0035858E+03   1.0035862E+03   1.0035864E+03   1.0033185E+03   1.0033377E+03   1.0033503E+03   1.0033569E+03   1.0033602E+03   1.0033616E+03   1.0033624E+03   1.0033628E+03   1.0033630E+03   1.0030651E+03   1.0030831E+03   1.0030947E+03   1.0031010E+03   1.0031040E+03   1.0031053E+03   1.0031060E+03   1.0031063E+03   1.0031066E+03   1.0027908E+03   1.0028074E+03   1.0028182E+03   1.0028240E+03   1.0028267E+03   1.0028280E+03   1.0028286E+03   1.0028290E+03   1.0028292E+03   1.0025076E+03   1.0025228E+03   1.0025326E+03   1.0025378E+03   1.0025405E+03   1.0025416E+03   1.0025421E+03   1.0025425E+03   1.0025427E+03   1.0022260E+03   1.0022399E+03   1.0022488E+03   1.0022537E+03   1.0022559E+03   1.0022570E+03   1.0022576E+03   1.0022578E+03   1.0022580E+03   1.0019553E+03   1.0019679E+03   1.0019761E+03   1.0019805E+03   1.0019826E+03   1.0019836E+03   1.0019841E+03   1.0019843E+03   1.0019845E+03   1.0017031E+03   1.0017145E+03   1.0017220E+03   1.0017261E+03   1.0017281E+03   1.0017289E+03   1.0017295E+03   1.0017297E+03   1.0017299E+03   1.0014742E+03   1.0014846E+03   1.0014915E+03   1.0014954E+03   1.0014974E+03   1.0014984E+03   1.0014989E+03   1.0014991E+03   1.0014992E+03   1.0012722E+03   1.0012815E+03   1.0012880E+03   1.0012919E+03   1.0012940E+03   1.0012950E+03   1.0012955E+03   1.0012958E+03   1.0012960E+03   1.0010981E+03   1.0011063E+03   1.0011124E+03   1.0011164E+03   1.0011187E+03   1.0011198E+03   1.0011204E+03   1.0011208E+03   1.0011209E+03   1.0009517E+03   1.0009587E+03   1.0009644E+03   1.0009685E+03   1.0009709E+03   1.0009725E+03   1.0009733E+03   1.0009738E+03   1.0009739E+03   1.0008311E+03   1.0008369E+03   1.0008420E+03   1.0008460E+03   1.0008489E+03   1.0008506E+03   1.0008517E+03   1.0008523E+03   1.0008526E+03   1.0007343E+03   1.0007388E+03   1.0007432E+03   1.0007469E+03   1.0007499E+03   1.0007520E+03   1.0007534E+03   1.0007542E+03   1.0007546E+03   1.0006577E+03   1.0006614E+03   1.0006650E+03   1.0006682E+03   1.0006711E+03   1.0006732E+03   1.0006749E+03   1.0006759E+03   1.0006765E+03   1.0005983E+03   1.0006017E+03   1.0006046E+03   1.0006072E+03   1.0006096E+03   1.0006116E+03   1.0006132E+03   1.0006143E+03   1.0006149E+03   1.0005524E+03   1.0005562E+03   1.0005590E+03   1.0005612E+03   1.0005630E+03   1.0005646E+03   1.0005659E+03   1.0005668E+03   1.0005674E+03   1.0005166E+03   1.0005208E+03   1.0005240E+03   1.0005264E+03   1.0005281E+03   1.0005292E+03   1.0005302E+03   1.0005309E+03   1.0005314E+03   1.0004904E+03   1.0004935E+03   1.0004966E+03   1.0004994E+03   1.0005013E+03   1.0005027E+03   1.0005037E+03   1.0005043E+03   1.0005046E+03   1.0004754E+03   1.0004769E+03   1.0004787E+03   1.0004805E+03   1.0004821E+03   1.0004832E+03   1.0004839E+03   1.0004842E+03   1.0004662E+03   1.0004664E+03   1.0004669E+03   1.0004673E+03   1.0004675E+03   1.0004677E+03   1.0004605E+03   1.0004601E+03   1.0004595E+03   1.0004592E+03   1.0000000E+03   1.0000000E+03   1.0000000E+03   1.0000000E+03   1.0000000E+03   1.0000000E+03   1.0000000E+03   1.0000000E+03   1.0000000E+03   1.0000000E+03   1.0000000E+03   1.0000000E+03   1.0000000E+03   1.0000000E+03   1.0000000E+03   1.0000000E+03   1.0000000E+03   1.0000000E+03   1.0000000E+03   1.0000000E+03   1.0000000E+03   1.0000000E+03   1.0000000E+03   1.0000000E+03   1.0000000E+03   1.0000000E+03   1.0000000E+03   1.0000000E+03   1.0000000E+03   1.0000000E+03   1.0000000E+03   1.0000000E+03   1.0000000E+03   1.0000000E+03   1.0000000E+03   1.0000000E+03   1.0000000E+03   1.0000000E+03   1.0000000E+03   1.0000000E+03   1.0000000E+03   1.0000000E+03   1.0000000E+03   1.0000000E+03   1.0000000E+03   1.0000000E+03   1.0000000E+03   1.0000000E+03   1.0000000E+03   1.0000000E+03   1.0000000E+03   1.0000000E+03   1.0000000E+03   1.0000000E+03   1.0000000E+03   1.0000000E+03   1.0000000E+03   1.0000000E+03   1.0000000E+03   1.0000000E+03   1.0000000E+03   1.0000000E+03   1.0000000E+03   1.0000000E+03   1.0000000E+03   1.0000000E+03   1.0000000E+03   1.0000000E+03   1.0000000E+03   1.0000000E+03   1.0000000E+03   1.0000000E+03   1.0000000E+03   1.0000000E+03   1.0000000E+03   1.0000000E+03   1.0000000E+03   1.0000000E+03   1.0000000E+03   1.0000000E+03   1.0000001E+03   1.0000001E+03   1.0000001E+03   1.0000001E+03   1.0000001E+03   1.0000001E+03   1.0000001E+03   1.0000001E+03   1.0000001E+03   1.0000001E+03   1.0000001E+03   1.0000001E+03   1.0000001E+03   1.0000001E+03   1.0000001E+03   1.0000001E+03   1.0000001E+03   1.0000001E+03   1.0000001E+03   1.0000001E+03   1.0000001E+03   1.0000001E+03   1.0000001E+03   1.0000001E+03   1.0000002E+03   1.0000002E+03   1.0000002E+03   1.0000002E+03   1.0000002E+03   1.0000002E+03   1.0000002E+03   1.0000002E+03   1.0000002E+03   1.0000002E+03   1.0000002E+03   1.0000002E+03   1.0000002E+03   1.0000002E+03   1.0000002E+03   1.0000002E+03   1.0000004E+03   1.0000004E+03   1.0000004E+03   1.0000004E+03   1.0000004E+03   1.0000004E+03   1.0000003E+03   1.0000003E+03   1.0000005E+03   1.0000005E+03   1.0000005E+03   1.0000005E+03   1.0000005E+03   1.0000005E+03   1.0000005E+03   1.0000005E+03   1.0000009E+03   1.0000009E+03   1.0000009E+03   1.0000009E+03   1.0000009E+03   1.0000009E+03   1.0000009E+03   1.0000009E+03   1.0000013E+03   1.0000013E+03   1.0000013E+03   1.0000013E+03   1.0000013E+03   1.0000012E+03   1.0000012E+03   1.0000012E+03   1.0000018E+03   1.0000018E+03   1.0000018E+03   1.0000018E+03   1.0000018E+03   1.0000018E+03   1.0000018E+03   1.0000018E+03   1.0000027E+03   1.0000027E+03   1.0000027E+03   1.0000027E+03   1.0000026E+03   1.0000026E+03   1.0000026E+03   1.0000026E+03   1.0000038E+03   1.0000038E+03   1.0000038E+03   1.0000038E+03   1.0000038E+03   1.0000037E+03   1.0000037E+03   1.0000037E+03   1.0000053E+03   1.0000053E+03   1.0000053E+03   1.0000053E+03   1.0000053E+03   1.0000052E+03   1.0000052E+03   1.0000051E+03   1.0000076E+03   1.0000076E+03   1.0000076E+03   1.0000076E+03   1.0000076E+03   1.0000075E+03   1.0000074E+03   1.0000073E+03   1.0000107E+03   1.0000107E+03   1.0000107E+03   1.0000107E+03   1.0000107E+03   1.0000107E+03   1.0000106E+03   1.0000104E+03   1.0000151E+03   1.0000151E+03   1.0000150E+03   1.0000150E+03   1.0000149E+03   1.0000148E+03   1.0000147E+03   1.0000145E+03   1.0000223E+03   1.0000223E+03   1.0000222E+03   1.0000222E+03   1.0000220E+03   1.0000220E+03   1.0000219E+03   1.0000216E+03   1.0000353E+03   1.0000353E+03   1.0000353E+03   1.0000352E+03   1.0000351E+03   1.0000350E+03   1.0000347E+03   1.0000344E+03   1.0000648E+03   1.0000648E+03   1.0000648E+03   1.0000647E+03   1.0000645E+03   1.0000643E+03   1.0000640E+03   1.0000635E+03   1.0001380E+03   1.0001380E+03   1.0001379E+03   1.0001378E+03   1.0001376E+03   1.0001374E+03   1.0001370E+03   1.0001360E+03   1.0003209E+03   1.0003209E+03   1.0003208E+03   1.0003206E+03   1.0003204E+03   1.0003201E+03   1.0003193E+03   1.0003179E+03   1.0007396E+03   1.0007396E+03   1.0007396E+03   1.0007394E+03   1.0007391E+03   1.0007385E+03   1.0007374E+03   1.0007350E+03   1.0015077E+03   1.0015077E+03   1.0015075E+03   1.0015073E+03   1.0015070E+03   1.0015062E+03   1.0015046E+03   1.0015013E+03   1.0024722E+03   1.0024721E+03   1.0024719E+03   1.0024717E+03   1.0024712E+03   1.0024702E+03   1.0024682E+03   1.0024638E+03   1.0032382E+03   1.0032381E+03   1.0032380E+03   1.0032376E+03   1.0032371E+03   1.0032359E+03   1.0032332E+03   1.0032278E+03   1.0036535E+03   1.0036535E+03   1.0036533E+03   1.0036530E+03   1.0036522E+03   1.0036509E+03   1.0036478E+03   1.0036414E+03   1.0038334E+03   1.0038334E+03   1.0038331E+03   1.0038327E+03   1.0038319E+03   1.0038304E+03   1.0038270E+03   1.0038199E+03   1.0039047E+03   1.0039047E+03   1.0039044E+03   1.0039040E+03   1.0039031E+03   1.0039016E+03   1.0038979E+03   1.0038904E+03   1.0039337E+03   1.0039336E+03   1.0039333E+03   1.0039329E+03   1.0039321E+03   1.0039304E+03   1.0039266E+03   1.0039188E+03   1.0039469E+03   1.0039468E+03   1.0039465E+03   1.0039460E+03   1.0039453E+03   1.0039435E+03   1.0039398E+03   1.0039318E+03   1.0039511E+03   1.0039509E+03   1.0039506E+03   1.0039502E+03   1.0039493E+03   1.0039476E+03   1.0039439E+03   1.0039359E+03   1.0039514E+03   1.0039513E+03   1.0039510E+03   1.0039506E+03   1.0039498E+03   1.0039480E+03   1.0039443E+03   1.0039364E+03   1.0038895E+03   1.0038894E+03   1.0038892E+03   1.0038887E+03   1.0038878E+03   1.0038862E+03   1.0038825E+03   1.0038749E+03   1.0037653E+03   1.0037652E+03   1.0037650E+03   1.0037645E+03   1.0037637E+03   1.0037621E+03   1.0037586E+03   1.0037510E+03   1.0035865E+03   1.0035864E+03   1.0035862E+03   1.0035858E+03   1.0035850E+03   1.0035835E+03   1.0035801E+03   1.0035729E+03   1.0033631E+03   1.0033630E+03   1.0033628E+03   1.0033624E+03   1.0033616E+03   1.0033602E+03   1.0033569E+03   1.0033503E+03   1.0031066E+03   1.0031066E+03   1.0031063E+03   1.0031060E+03   1.0031053E+03   1.0031040E+03   1.0031010E+03   1.0030947E+03   1.0028292E+03   1.0028292E+03   1.0028290E+03   1.0028286E+03   1.0028280E+03   1.0028267E+03   1.0028240E+03   1.0028182E+03   1.0025427E+03   1.0025427E+03   1.0025425E+03   1.0025421E+03   1.0025416E+03   1.0025405E+03   1.0025378E+03   1.0025326E+03   1.0022581E+03   1.0022580E+03   1.0022578E+03   1.0022576E+03   1.0022570E+03   1.0022559E+03   1.0022537E+03   1.0022488E+03   1.0019846E+03   1.0019845E+03   1.0019843E+03   1.0019841E+03   1.0019836E+03   1.0019826E+03   1.0019805E+03   1.0019761E+03   1.0017300E+03   1.0017299E+03   1.0017297E+03   1.0017295E+03   1.0017289E+03   1.0017281E+03   1.0017261E+03   1.0017220E+03   1.0014993E+03   1.0014992E+03   1.0014991E+03   1.0014989E+03   1.0014984E+03   1.0014974E+03   1.0014954E+03   1.0014915E+03   1.0012960E+03   1.0012960E+03   1.0012958E+03   1.0012955E+03   1.0012950E+03   1.0012940E+03   1.0012919E+03   1.0012880E+03   1.0011210E+03   1.0011209E+03   1.0011208E+03   1.0011204E+03   1.0011198E+03   1.0011187E+03   1.0011164E+03   1.0011124E+03   1.0009739E+03   1.0009739E+03   1.0009738E+03   1.0009733E+03   1.0009725E+03   1.0009709E+03   1.0009685E+03   1.0009644E+03   1.0008527E+03   1.0008526E+03   1.0008523E+03   1.0008517E+03   1.0008506E+03   1.0008489E+03   1.0008460E+03   1.0008420E+03   1.0007548E+03   1.0007546E+03   1.0007542E+03   1.0007534E+03   1.0007520E+03   1.0007499E+03   1.0007469E+03   1.0007432E+03   1.0006766E+03   1.0006765E+03   1.0006759E+03   1.0006749E+03   1.0006732E+03   1.0006711E+03   1.0006682E+03   1.0006650E+03   1.0006152E+03   1.0006149E+03   1.0006143E+03   1.0006132E+03   1.0006116E+03   1.0006096E+03   1.0006072E+03   1.0006046E+03   1.0005676E+03   1.0005674E+03   1.0005668E+03   1.0005659E+03   1.0005646E+03   1.0005630E+03   1.0005612E+03   1.0005590E+03   1.0005316E+03   1.0005314E+03   1.0005309E+03   1.0005302E+03   1.0005292E+03   1.0005281E+03   1.0005264E+03   1.0005240E+03   1.0005048E+03   1.0005046E+03   1.0005043E+03   1.0005037E+03   1.0005027E+03   1.0005013E+03   1.0004994E+03   1.0004966E+03   1.0004843E+03   1.0004842E+03   1.0004839E+03   1.0004832E+03   1.0004821E+03   1.0004805E+03   1.0004787E+03   1.0004769E+03   1.0004677E+03   1.0004677E+03   1.0004675E+03   1.0004673E+03   1.0004669E+03   1.0004664E+03   1.0004662E+03   1.0004590E+03   1.0004592E+03   1.0004595E+03   1.0004601E+03   1.0004605E+03   1.0000000E+03   1.0000000E+03   1.0000000E+03   1.0000000E+03   1.0000000E+03   1.0000000E+03   1.0000000E+03   1.0000000E+03   1.0000000E+03   1.0000000E+03   1.0000000E+03   1.0000000E+03   1.0000000E+03   1.0000000E+03   1.0000000E+03   1.0000000E+03   1.0000000E+03   1.0000000E+03   1.0000000E+03   1.0000000E+03   1.0000000E+03   1.0000000E+03   1.0000000E+03   1.0000000E+03   1.0000000E+03   1.0000000E+03   1.0000000E+03   1.0000000E+03   1.0000000E+03   1.0000000E+03   1.0000000E+03   1.0000000E+03   1.0000000E+03   1.0000000E+03   1.0000000E+03   1.0000000E+03   1.0000000E+03   1.0000000E+03   1.0000000E+03   1.0000000E+03   1.0000000E+03   1.0000000E+03   1.0000000E+03   1.0000000E+03   1.0000000E+03   1.0000000E+03   1.0000000E+03   1.0000000E+03   1.0000000E+03   1.0000000E+03   1.0000000E+03   1.0000000E+03   1.0000000E+03   1.0000000E+03   1.0000000E+03   1.0000000E+03   1.0000000E+03   1.0000000E+03   1.0000000E+03   1.0000000E+03   1.0000000E+03   1.0000000E+03   1.0000000E+03   1.0000000E+03   1.0000000E+03   1.0000000E+03   1.0000000E+03   1.0000000E+03   1.0000000E+03   1.0000000E+03   1.0000000E+03   1.0000000E+03   1.0000000E+03   1.0000000E+03   1.0000000E+03   1.0000000E+03   1.0000000E+03   1.0000000E+03   1.0000000E+03   1.0000001E+03   1.0000001E+03   1.0000001E+03   1.0000000E+03   1.0000000E+03   1.0000000E+03   1.0000000E+03   1.0000000E+03   1.0000001E+03   1.0000001E+03   1.0000001E+03   1.0000001E+03   1.0000001E+03   1.0000001E+03   1.0000001E+03   1.0000001E+03   1.0000001E+03   1.0000001E+03   1.0000001E+03   1.0000001E+03   1.0000001E+03   1.0000001E+03   1.0000001E+03   1.0000001E+03   1.0000002E+03   1.0000002E+03   1.0000002E+03   1.0000001E+03   1.0000001E+03   1.0000001E+03   1.0000001E+03   1.0000001E+03   1.0000002E+03   1.0000002E+03   1.0000002E+03   1.0000002E+03   1.0000002E+03   1.0000002E+03   1.0000002E+03   1.0000002E+03   1.0000003E+03   1.0000003E+03   1.0000003E+03   1.0000003E+03   1.0000003E+03   1.0000003E+03   1.0000002E+03   1.0000002E+03   1.0000005E+03   1.0000005E+03   1.0000005E+03   1.0000005E+03   1.0000004E+03   1.0000004E+03   1.0000004E+03   1.0000004E+03   1.0000009E+03   1.0000008E+03   1.0000008E+03   1.0000007E+03   1.0000007E+03   1.0000007E+03   1.0000007E+03   1.0000007E+03   1.0000012E+03   1.0000012E+03   1.0000011E+03   1.0000011E+03   1.0000011E+03   1.0000010E+03   1.0000010E+03   1.0000010E+03   1.0000017E+03   1.0000017E+03   1.0000016E+03   1.0000016E+03   1.0000016E+03   1.0000015E+03   1.0000015E+03   1.0000015E+03   1.0000026E+03   1.0000025E+03   1.0000024E+03   1.0000023E+03   1.0000023E+03   1.0000023E+03   1.0000023E+03   1.0000023E+03   1.0000036E+03   1.0000036E+03   1.0000035E+03   1.0000034E+03   1.0000034E+03   1.0000034E+03   1.0000034E+03   1.0000034E+03   1.0000051E+03   1.0000049E+03   1.0000048E+03   1.0000048E+03   1.0000047E+03   1.0000047E+03   1.0000048E+03   1.0000049E+03   1.0000073E+03   1.0000072E+03   1.0000070E+03   1.0000068E+03   1.0000068E+03   1.0000069E+03   1.0000071E+03   1.0000074E+03   1.0000103E+03   1.0000101E+03   1.0000099E+03   1.0000096E+03   1.0000096E+03   1.0000099E+03   1.0000104E+03   1.0000107E+03   1.0000143E+03   1.0000140E+03   1.0000136E+03   1.0000133E+03   1.0000132E+03   1.0000136E+03   1.0000145E+03   1.0000152E+03   1.0000212E+03   1.0000207E+03   1.0000200E+03   1.0000193E+03   1.0000190E+03   1.0000196E+03   1.0000212E+03   1.0000225E+03   1.0000338E+03   1.0000328E+03   1.0000316E+03   1.0000303E+03   1.0000296E+03   1.0000304E+03   1.0000328E+03   1.0000352E+03   1.0000624E+03   1.0000607E+03   1.0000584E+03   1.0000562E+03   1.0000548E+03   1.0000555E+03   1.0000588E+03   1.0000626E+03   1.0001342E+03   1.0001312E+03   1.0001274E+03   1.0001236E+03   1.0001211E+03   1.0001214E+03   1.0001249E+03   1.0001301E+03   1.0003149E+03   1.0003103E+03   1.0003043E+03   1.0002981E+03   1.0002938E+03   1.0002930E+03   1.0002948E+03   1.0003000E+03   1.0007306E+03   1.0007237E+03   1.0007148E+03   1.0007057E+03   1.0006985E+03   1.0006942E+03   1.0006905E+03   1.0006929E+03   1.0014951E+03   1.0014852E+03   1.0014730E+03   1.0014601E+03   1.0014489E+03   1.0014379E+03   1.0014223E+03   1.0014172E+03   1.0024555E+03   1.0024427E+03   1.0024268E+03   1.0024100E+03   1.0023940E+03   1.0023741E+03   1.0023427E+03   1.0023277E+03   1.0032176E+03   1.0032019E+03   1.0031825E+03   1.0031622E+03   1.0031419E+03   1.0031149E+03   1.0030709E+03   1.0030490E+03   1.0036295E+03   1.0036115E+03   1.0035891E+03   1.0035656E+03   1.0035425E+03   1.0035115E+03   1.0034616E+03   1.0034383E+03   1.0038068E+03   1.0037868E+03   1.0037621E+03   1.0037365E+03   1.0037115E+03   1.0036792E+03   1.0036279E+03   1.0036058E+03   1.0038763E+03   1.0038550E+03   1.0038289E+03   1.0038016E+03   1.0037756E+03   1.0037430E+03   1.0036921E+03   1.0036722E+03   1.0039043E+03   1.0038823E+03   1.0038550E+03   1.0038268E+03   1.0038002E+03   1.0037677E+03   1.0037177E+03   1.0036995E+03   1.0039171E+03   1.0038947E+03   1.0038669E+03   1.0038383E+03   1.0038114E+03   1.0037791E+03   1.0037297E+03   1.0037127E+03   1.0039212E+03   1.0038987E+03   1.0038710E+03   1.0038422E+03   1.0038153E+03   1.0037832E+03   1.0037342E+03   1.0037176E+03   1.0039218E+03   1.0038996E+03   1.0038721E+03   1.0038436E+03   1.0038170E+03   1.0037847E+03   1.0037357E+03   1.0037187E+03   1.0038607E+03   1.0038388E+03   1.0038118E+03   1.0037840E+03   1.0037578E+03   1.0037261E+03   1.0036778E+03   1.0036608E+03   1.0037372E+03   1.0037161E+03   1.0036901E+03   1.0036631E+03   1.0036378E+03   1.0036072E+03   1.0035604E+03   1.0035438E+03   1.0035598E+03   1.0035396E+03   1.0035145E+03   1.0034887E+03   1.0034645E+03   1.0034352E+03   1.0033908E+03   1.0033752E+03   1.0033377E+03   1.0033185E+03   1.0032950E+03   1.0032704E+03   1.0032475E+03   1.0032202E+03   1.0031786E+03   1.0031642E+03   1.0030831E+03   1.0030651E+03   1.0030430E+03   1.0030200E+03   1.0029986E+03   1.0029732E+03   1.0029351E+03   1.0029222E+03   1.0028074E+03   1.0027908E+03   1.0027703E+03   1.0027490E+03   1.0027291E+03   1.0027060E+03   1.0026715E+03   1.0026601E+03   1.0025228E+03   1.0025076E+03   1.0024887E+03   1.0024691E+03   1.0024509E+03   1.0024299E+03   1.0023991E+03   1.0023892E+03   1.0022399E+03   1.0022260E+03   1.0022089E+03   1.0021909E+03   1.0021744E+03   1.0021556E+03   1.0021285E+03   1.0021202E+03   1.0019679E+03   1.0019553E+03   1.0019398E+03   1.0019235E+03   1.0019085E+03   1.0018918E+03   1.0018682E+03   1.0018620E+03   1.0017145E+03   1.0017031E+03   1.0016891E+03   1.0016745E+03   1.0016611E+03   1.0016461E+03   1.0016262E+03   1.0016221E+03   1.0014846E+03   1.0014742E+03   1.0014618E+03   1.0014490E+03   1.0014370E+03   1.0014237E+03   1.0014070E+03   1.0014057E+03   1.0012815E+03   1.0012722E+03   1.0012614E+03   1.0012502E+03   1.0012397E+03   1.0012276E+03   1.0012143E+03   1.0012153E+03   1.0011063E+03   1.0010981E+03   1.0010889E+03   1.0010796E+03   1.0010702E+03   1.0010588E+03   1.0010487E+03   1.0010515E+03   1.0009587E+03   1.0009517E+03   1.0009442E+03   1.0009364E+03   1.0009279E+03   1.0009175E+03   1.0009105E+03   1.0008369E+03   1.0008311E+03   1.0008251E+03   1.0008187E+03   1.0008105E+03   1.0008017E+03   1.0007985E+03   1.0007388E+03   1.0007343E+03   1.0007293E+03   1.0007234E+03   1.0007158E+03   1.0007095E+03   1.0006614E+03   1.0006577E+03   1.0006534E+03   1.0006475E+03   1.0006409E+03   1.0006372E+03   1.0006017E+03   1.0005983E+03   1.0005938E+03   1.0005880E+03   1.0005828E+03   1.0005562E+03   1.0005524E+03   1.0005475E+03   1.0005423E+03   1.0005208E+03   1.0005166E+03   1.0005123E+03   1.0005080E+03   1.0004935E+03   1.0004904E+03   1.0004754E+03 
Mass 1 2975 float
  4.0000001E-01   4.0000001E-01   4.0000001E-01   4.0000001E-01   4.0000001E-01   4.0000001E-01   4.0000001E-01   4.0000001E-01   4.0000001E-01   4.0000001E-01   4.0000001E-01   4.0000001E-01   4.0000001E-01   4.0000001E-01   4.0000001E-01   4.0000001E-01   4.0000001E-01   4.0000001E-01   4.0000001E-01   4.0000001E-01   4.0000001E-01   4.0000001E-01   4.0000001E-01   4.0000001E-01   4.0000001E-01   4.0000001E-01   4.0000001E-01   4.0000001E-01   4.0000001E-01   4.0000001E-01   4.0000001E-01   4.0000001E-01   4.0000001E-01   4.0000001E-01   4.0000001E-01   4.0000001E-01   4.0000001E-01   4.0000001E-01   4.0000001E-01   4.0000001E-01   4.0000001E-01   4.0000001E-01   4.0000001E-01   4.0000001E-01   4.0000001E-01   4.0000001E-01   4.0000001E-01   4.0000001E-01   4.0000001E-01   4.0000001E-01   4.0000001E-01   4.0000001E-01   4.0000001E-01   4.0000001E-01   4.0000001E-01   4.0000001E-01   4.0000001E-01   4.0000001E-01   4.0000001E-01   4.0000001E-01   4.0000001E-01   4.0000001E-01   4.0000001E-01   4.0000001E-01   4.0000001E-01   4.0000001E-01   4.0000001E-01   4.0000001E-01   4.0000001E-01   4.0000001E-01   4.0000001E-01   4.0000001E-01   4.0000001E-01   4.0000001E-01   4.0000001E-01   4.0000001E-01   4.0000001E-01   4.0000001E-01   4.0000001E-01   4.0000001E-01   4.0000001E-01   4.0000001E-01   4.0000001E-01   4.0000001E-01   4.0000001E-01   4.0000001E-01   4.0000001E-01   4.0000001E-01   4.0000001E-01   4.0000001E-01   4.0000001E-01   4.0000001E-01   4.0000001E-01   4.0000001E-01   4.0000001E-01   4.0000001E-01   4.0000001E-01   4.0000001E-01   4.0000001E-01   4.0000001E-01   4.0000001E-01   4.0000001E-01   4.0000001E-01   4.0000001E-01   4.0000001E-01   4.0000001E-01   4.0000001E-01   4.0000001E-01   4.0000001E-01   4.0000001E-01   4.0000001E-01   4.0000001E-01   4.0000001E-01   4.0000001E-01   4.0000001E-01   4.0000001E-01   4.0000001E-01   4.0000001E-01   4.0000001E-01   4.0000001E-01   4.0000001E-01   4.0000001E-01   4.0000001E-01   4.0000001E-01   4.0000001E-01   4.0000001E-01   4.0000001E-01   4.0000001E-01   4.0000001E-01   4.0000001E-01   4.0000001E-01   4.0000001E-01   4.0000001E-01   4.0000001E-01   4.0000001E-01   4.0000001E-01   4.0000001E-01   4.0000001E-01   4.0000001E-01   4.0000001E-01   4.0000001E-01   4.0000001E-01   4.0000001E-01   4.0000001E-01   4.0000001E-01   4.0000001E-01   4.0000001E-01   4.0000001E-01   4.0000001E-01   4.0000001E-01   4.0000001E-01   4.0000001E-01   4.0000001E-01   4.0000001E-01   4.0000001E-01   4.0000001E-01   4.0000001E-01   4.0000001E-01   4.0000001E-01   4.0000001E-01   4.0000001E-01   4.0000001E-01   4.0000001E-01   4.0000001E-01   4.0000001E-01   4.0000001E-01   4.0000001E-01   4.0000001E-01   4.0000001E-01   4.0000001E-01   4.0000001E-01   4.0000001E-01   4.0000001E-01   4.0000001E-01   4.0000001E-01   4.0000001E-01   4.0000001E-01   4.0000001E-01   4.0000001E-01   4.0000001E-01   4.0000001E-01   4.0000001E-01   4.0000001E-01   4.0000001E-01   4.0000001E-01   4.0000001E-01   4.0000001E-01   4.0000001E-01   4.0000001E-01   4.0000001E-01   4.0000001E-01   4.0000001E-01   4.0000001E-01   4.0000001E-01   4.0000001E-01   4.0000001E-01   4.0000001E-01   4.0000001E-01   4.0000001E-01   4.0000001E-01   4.0000001E-01   4.0000001E-01   4.0000001E-01   4.0000001E-01   4.0000001E-01   4.0000001E-01   4.0000001E-01   4.0000001E-01   4.0000001E-01   4.0000001E-01   4.0000001E-01   4.0000001E-01   4.0000001E-01   4.0000001E-01   4.0000001E-01   4.0000001E-01   4.0000001E-01   4.0000001E-01   4.0000001E-01   4.0000001E-01   4.0000001E-01   4.0000001E-01   4.0000001E-01   4.0000001E-01   4.0000001E-01   4.0000001E-01   4.0000001E-01   4.0000001E-01   4.0000001E-01   4.0000001E-01   4.0000001E-01   4.0000001E-01   4.0000001E-01   4.0000001E-01   4.0000001E-01   4.0000001E-01   4.0000001E-01   4.0000001E-01   4.0000001E-01   4.0000001E-01   4.0000001E-01   4.0000001E-01   4.0000001E-01   4.0000001E-01   4.0000001E-01   4.0000001E-01   4.0000001E-01   4.0000001E-01   4.0000001E-01   4.0000001E-01   4.0000001E-01   4.0000001E-01   4.0000001E-01   4.0000001E-01   4.0000001E-01   4.0000001E-01   4.0000001E-01   4.0000001E-01   4.0000001E-01   4.0000001E-01   4.0000001E-01   4.0000001E-01   4.0000001E-01   4.0000001E-01   4.0000001E-01   4.0000001E-01   4.0000001E-01   4.0000001E-01   4.0000001E-01   4.0000001E-01   4.0000001E-01   4.0000001E-01   4.0000001E-01   4.0000001E-01   4.0000001E-01   4.0000001E-01   4.0000001E-01   4.0000001E-01   4.0000001E-01   4.0000001E-01   4.0000001E-01   4.0000001E-01   4.0000001E-01   4.0000001E-01   4.0000001E-01   4.0000001E-01   4.0000001E-01   4.0000001E-01   4.0000001E-01   4.0000001E-01   4.0000001E-01   4.0000001E-01   4.0000001E-01   4.0000001E-01   4.0000001E-01   4.0000001E-01   4.0000001E-01   4.0000001E-01   4.0000001E-01   4.0000001E-01   4.0000001E-01   4.0000001E-01   4.0000001E-01   4.0000001E-01   4.0000001E-01   4.0000001E-01   4.0000001E-01   4.0000001E-01   4.0000001E-01   4.0000001E-01   4.0000001E-01   4.0000001E-01   4.0000001E-01   4.0000001E-01   4.0000001E-01   4.0000001E-01   4.0000001E-01   4.0000001E-01   4.0000001E-01   4.0000001E-01   4.0000001E-01   4.0000001E-01   4.0000001E-01   4.0000001E-01   4.0000001E-01   4.0000001E-01   4.0000001E-01   4.0000001E-01   4.0000001E-01   4.0000001E-01   4.0000001E-01   4.0000001E-01   4.0000001E-01   4.0000001E-01   4.0000001E-01   4.0000001E-01   4.0000001E-01   4.0000001E-01   4.0000001E-01   4.0000001E-01   4.0000001E-01   4.0000001E-01   4.0000001E-01   4.0000001E-01   4.0000001E-01   4.0000001E-01   4.0000001E-01   4.0000001E-01   4.0000001E-01   4.0000001E-01   4.0000001E-01   4.0000001E-01   4.0000001E-01   4.0000001E-01   4.0000001E-01   4.0000001E-01   4.0000001E-01   4.0000001E-01   4.0000001E-01   4.0000001E-01   4.0000001E-01   4.0000001E-01   4.0000001E-01   4.0000001E-01   4.0000001E-01   4.0000001E-01   4.0000001E-01   4.0000001E-01   4.0000001E-01   4.0000001E-01   4.0000001E-01   4.0000001E-01   4.0000001E-01   4.0000001E-01   4.0000001E-01   4.0000001E-01   4.0000001E-01   4.0000001E-01   4.0000001E-01   4.0000001E-01   4.0000001E-01   4.0000001E-01   4.0000001E-01   4.0000001E-01   4.0000001E-01   4.0000001E-01   4.0000001E-01   4.0000001E-01   4.0000001E-01   4.0000001E-01   4.0000001E-01   4.0000001E-01   4.0000001E-01   4.0000001E-01   4.0000001E-01   4.0000001E-01   4.0000001E-01   4.0000001E-01   4.0000001E-01   4.0000001E-01   4.0000001E-01   4.0000001E-01   4.0000001E-01   4.0000001E-01   4.0000001E-01   4.0000001E-01   4.0000001E-01   4.0000001E-01   4.0000001E-01   4.0000001E-01   4.0000001E-01   4.0000001E-01   4.0000001E-01   4.0000001E-01   4.0000001E-01   4.0000001E-01   4.0000001E-01   4.0000001E-01   4.0000001E-01   4.0000001E-01   4.0000001E-01   4.0000001E-01   4.0000001E-01   4.0000001E-01   4.0000001E-01   4.0000001E-01   4.0000001E-01   4.0000001E-01   4.0000001E-01   4.0000001E-01   4.0000001E-01   4.0000001E-01   4.0000001E-01   4.0000001E-01   4.0000001E-01   4.0000001E-01   4.0000001E-01   4.0000001E-01   4.0000001E-01   4.0000001E-01   4.0000001E-01   4.0000001E-01   4.0000001E-01   4.0000001E-01   4.0000001E-01   4.0000001E-01   4.0000001E-01   4.0000001E-01   4.0000001E-01   4.0000001E-01   4.0000001E-01   4.0000001E-01   4.0000001E-01   4.0000001E-01   4.0000001E-01   4.0000001E-01   4.0000001E-01   4.0000001E-01   4.0000001E-01   4.0000001E-01   4.0000001E-01   4.0000001E-01   4.0000001E-01   4.0000001E-01   4.0000001E-01   4.0000001E-01   4.0000001E-01   4.0000001E-01   4.0000001E-01   4.0000001E-01   4.0000001E-01   4.0000001E-01   4.0000001E-01   4.0000001E-01   4.0000001E-01   4.0000001E-01   4.0000001E-01   4.0000001E-01   4.0000001E-01   4.0000001E-01   4.0000001E-01   4.0000001E-01   4.0000001E-01   4.0000001E-01   4.0000001E-01   4.0000001E-01   4.0000001E-01   4.0000001E-01   4.0000001E-01   4.0000001E-01   4.0000001E-01   4.0000001E-01   4.0000001E-01   4.0000001E-01   4.0000001E-01   4.0000001E-01   4.0000001E-01   4.0000001E-01   4.0000001E-01   4.0000001E-01   4.0000001E-01   4.0000001E-01   4.0000001E-01   4.0000001E-01   4.0000001E-01   4.0000001E-01   4.0000001E-01   4.0000001E-01   4.0000001E-01   4.0000001E-01   4.0000001E-01   4.0000001E-01   4.0000001E-01   4.0000001E-01   4.0000001E-01   4.0000001E-01   4.0000001E-01   4.0000001E-01   4.0000001E-01   4.0000001E-01   4.0000001E-01   4.0000001E-01   4.0000001E-01   4.0000001E-01   4.0000001E-01   4.0000001E-01   4.0000001E-01   4.0000001E-01   4.0000001E-01   4.0000001E-01   4.0000001E-01   4.0000001E-01   4.0000001E-01   4.0000001E-01   4.0000001E-01   4.0000001E-01   4.0000001E-01   4.0000001E-01   4.0000001E-01   4.0000001E-01   4.0000001E-01   4.0000001E-01   4.0000001E-01   4.0000001E-01   4.0000001E-01   4.0000001E-01   4.0000001E-01   4.0000001E-01   4.0000001E-01   4.0000001E-01   4.0000001E-01   4.0000001E-01   4.0000001E-01   4.0000001E-01   4.0000001E-01   4.0000001E-01   4.0000001E-01   4.0000001E-01   4.0000001E-01   4.0000001E-01   4.0000001E-01   4.0000001E-01   4.0000001E-01   4.0000001E-01   4.0000001E-01   4.0000001E-01   4.0000001E-01   4.0000001E-01   4.0000001E-01   4.0000001E-01   4.0000001E-01   4.0000001E-01   4.0000001E-01   4.0000001E-01   4.0000001E-01   4.0000001E-01   4.0000001E-01   4.0000001E-01   4.0000001E-01   4.0000001E-01   4.0000001E-01   4.0000001E-01   4.0000001E-01   4.0000001E-01   4.0000001E-01   4.0000001E-01   4.0000001E-01   4.0000001E-01   4.0000001E-01   4.0000001E-01   4.0000001E-01   4.0000001E-01   4.0000001E-01   4.0000001E-01   4.0000001E-01   4.0000001E-01   4.0000001E-01   4.0000001E-01   4.0000001E-01   4.0000001E-01   4.0000001E-01   4.0000001E-01   4.0000001E-01   4.0000001E-01   4.0000001E-01   4.0000001E-01   4.0000001E-01   4.0000001E-01   4.0000001E-01   4.0000001E-01   4.0000001E-01   4.0000001E-01   4.0000001E-01   4.0000001E-01   4.0000001E-01   4.0000001E-01   4.0000001E-01   4.0000001E-01   4.0000001E-01   4.0000001E-01   4.0000001E-01   4.0000001E-01   4.0000001E-01   4.0000001E-01   4.0000001E-01   4.0000001E-01   4.0000001E-01   4.0000001E-01   4.0000001E-01   4.0000001E-01   4.0000001E-01   4.0000001E-01   4.0000001E-01   4.0000001E-01   4.0000001E-01   4.0000001E-01   4.0000001E-01   4.0000001E-01   4.0000001E-01   4.0000001E-01   4.0000001E-01   4.0000001E-01   4.0000001E-01   4.0000001E-01   4.0000001E-01   4.0000001E-01   4.0000001E-01   4.0000001E-01   4.0000001E-01   4.0000001E-01   4.0000001E-01   4.0000001E-01   4.0000001E-01   4.0000001E-01   4.0000001E-01   4.0000001E-01   4.0000001E-01   4.0000001E-01   4.0000001E-01   4.0000001E-01   4.0000001E-01   4.0000001E-01   4.0000001E-01   4.0000001E-01   4.0000001E-01   4.0000001E-01   4.0000001E-01   4.0000001E-01   4.0000001E-01   4.0000001E-01   4.0000001E-01   4.0000001E-01   4.0000001E-01   4.0000001E-01   4.0000001E-01   4.0000001E-01   4.0000001E-01   4.0000001E-01   4.0000001E-01   4.0000001E-01   4.0000001E-01   4.0000001E-01   4.0000001E-01   4.0000001E-01   4.0000001E-01   4.0000001E-01   4.0000001E-01   4.0000001E-01   4.0000001E-01   4.0000001E-01   4.0000001E-01   4.0000001E-01   4.0000001E-01   4.0000001E-01   4.0000001E-01   4.0000001E-01   4.0000001E-01   4.0000001E-01   4.0000001E-01   4.0000001E-01   4.0000001E-01   4.0000001E-01   4.0000001E-01   4.0000001E-01   4.0000001E-01   4.0000001E-01   4.0000001E-01   4.0000001E-01   4.0000001E-01   4.0000001E-01   4.0000001E-01   4.0000001E-01   4.0000001E-01   4.0000001E-01   4.0000001E-01   4.0000001E-01   4.0000001E-01   4.0000001E-01   4.0000001E-01   4.0000001E-01   4.0000001E-01   4.0000001E-01   4.0000001E-01   4.0000001E-01   4.0000001E-01   4.0000001E-01   4.0000001E-01   4.0000001E-01   4.0000001E-01   4.0000001E-01   4.0000001E-01   4.0000001E-01   4.0000001E-01   4.0000001E-01   4.0000001E-01   4.0000001E-01   4.0000001E-01   4.0000001E-01   4.0000001E-01   4.0000001E-01   4.0000001E-01   4.0000001E-01   4.0000001E-01   4.0000001E-01   4.0000001E-01   4.0000001E-01   4.0000001E-01   4.0000001E-01   4.0000001E-01   4.0000001E-01   4.0000001E-01   4.0000001E-01   4.0000001E-01   4.0000001E-01   4.0000001E-01   4.0000001E-01   4.0000001E-01   4.0000001E-01   4.0000001E-01   4.0000001E-01   4.0000001E-01   4.0000001E-01   4.0000001E-01   4.0000001E-01   4.0000001E-01   4.0000001E-01   4.0000001E-01   4.0000001E-01   4.0000001E-01   4.0000001E-01   4.0000001E-01   4.0000001E-01   4.0000001E-01   4.0000001E-01   4.0000001E-01   4.0000001E-01   4.0000001E-01   4.0000001E-01   4.0000001E-01   4.0000001E-01   4.0000001E-01   4.0000001E-01   4.0000001E-01   4.0000001E-01   4.0000001E-01   4.0000001E-01   4.0000001E-01   4.0000001E-01   4.0000001E-01   4.0000001E-01   4.0000001E-01   4.0000001E-01   4.0000001E-01   4.0000001E-01   4.0000001E-01   4.0000001E-01   4.0000001E-01   4.0000001E-01   4.0000001E-01   4.0000001E-01   4.0000001E-01   4.0000001E-01   4.0000001E-01   4.0000001E-01   4.0000001E-01   4.0000001E-01   4.0000001E-01   4.0000001E-01   4.0000001E-01   4.0000001E-01   4.0000001E-01   4.0000001E-01   4.0000001E-01   4.0000001E-01   4.0000001E-01   4.0000001E-01   4.0000001E-01   4.0000001E-01   4.0000001E-01   4.0000001E-01   4.0000001E-01   4.0000001E-01   4.0000001E-01   4.0000001E-01   4.0000001E-01   4.0000001E-01   4.0000001E-01   4.0000001E-01   4.0000001E-01   4.0000001E-01   4.0000001E-01   4.0000001E-01   4.0000001E-01   4.0000001E-01   4.0000001E-01   4.0000001E-01   4.0000001E-01   4.0000001E-01   4.0000001E-01   4.0000001E-01   4.0000001E-01   4.0000001E-01   4.0000001E-01   4.0000001E-01   4.0000001E-01   4.0000001E-01   4.0000001E-01   4.0000001E-01   4.0000001E-01   4.0000001E-01   4.0000001E-01   4.0000001E-01   4.0000001E-01   4.0000001E-01   4.0000001E-01   4.0000001E-01   4.0000001E-01   4.0000001E-01   4.0000001E-01   4.0000001E-01   4.0000001E-01   4.0000001E-01   4.0000001E-01   4.0000001E-01   4.0000001E-01   4.0000001E-01   4.0000001E-01   4.0000001E-01   4.0000001E-01   4.0000001E-01   4.0000001E-01   4.0000001E-01   4.0000001E-01   4.0000001E-01   4.0000001E-01   4.0000001E-01   4.0000001E-01   4.0000001E-01   4.0000001E-01   4.0000001E-01   4.0000001E-01   4.0000001E-01   4.0000001E-01   4.0000001E-01   4.0000001E-01   4.0000001E-01   4.0000001E-01   4.0000001E-01   4.0000001E-01   4.0000001E-01   4.0000001E-01   4.0000001E-01   4.0000001E-01   4.0000001E-01   4.0000001E-01   4.0000001E-01   4.0000001E-01   4.0000001E-01   4.0000001E-01   4.0000001E-01   4.0000001E-01   4.0000001E-01   4.0000001E-01   4.0000001E-01   4.0000001E-01   4.0000001E-01   4.0000001E-01   4.0000001E-01   4.0000001E-01   4.0000001E-01   4.0000001E-01   4.0000001E-01   4.0000001E-01   4.0000001E-01   4.0000001E-01   4.0000001E-01   4.0000001E-01   4.0000001E-01   4.0000001E-01   4.0000001E-01   4.0000001E-01   4.0000001E-01   4.0000001E-01   4.0000001E-01   4.0000001E-01   4.0000001E-01   4.0000001E-01   4.0000001E-01   4.0000001E-01   4.0000001E-01   4.0000001E-01   4.0000001E-01   4.0000001E-01   4.0000001E-01   4.0000001E-01   4.0000001E-01   4.0000001E-01   4.0000001E-01   4.0000001E-01   4.0000001E-01   4.0000001E-01   4.0000001E-01   4.0000001E-01   4.0000001E-01   4.0000001E-01   4.0000001E-01   4.0000001E-01   4.0000001E-01   4.0000001E-01   4.0000001E-01   4.0000001E-01   4.0000001E-01   4.0000001E-01   4.0000001E-01   4.0000001E-01   4.0000001E-01   4.0000001E-01   4.0000001E-01   4.0000001E-01   4.0000001E-01   4.0000001E-01   4.0000001E-01   4.0000001E-01   4.0000001E-01   4.0000001E-01   4.0000001E-01   4.0000001E-01   4.0000001E-01   4.0000001E-01   4.0000001E-01   4.0000001E-01   4.0000001E-01   4.0000001E-01   4.0000001E-01   4.0000001E-01   4.0000001E-01   4.0000001E-01   4.0000001E-01   4.0000001E-01   4.0000001E-01   4.0000001E-01   4.0000001E-01   4.0000001E-01   4.0000001E-01   4.0000001E-01   4.0000001E-01   4.0000001E-01   4.0000001E-01   4.0000001E-01   4.0000001E-01   4.0000001E-01   4.0000001E-01   4.0000001E-01   4.0000001E-01   4.0000001E-01   4.0000001E-01   4.0000001E-01   4.0000001E-01   4.0000001E-01   4.0000001E-01   4.0000001E-01   4.0000001E-01   4.0000001E-01   4.0000001E-01   4.0000001E-01   4.0000001E-01   4.0000001E-01   4.0000001E-01   4.0000001E-01   4.0000001E-01   4.0000001E-01   4.0000001E-01   4.0000001E-01   4.0000001E-01   4.0000001E-01   4.0000001E-01   4.0000001E-01   4.0000001E-01   4.0000001E-01   4.0000001E-01   4.0000001E-01   4.0000001E-01   4.0000001E-01   4.0000001E-01   4.0000001E-01   4.0000001E-01   4.0000001E-01   4.0000001E-01   4.0000001E-01   4.0000001E-01   4.0000001E-01   4.0000001E-01   4.0000001E-01   4.0000001E-01   4.0000001E-01   4.0000001E-01   4.0000001E-01   4.0000001E-01   4.0000001E-01   4.0000001E-01   4.0000001E-01   4.0000001E-01   4.0000001E-01   4.0000001E-01   4.0000001E-01   4.0000001E-01   4.0000001E-01   4.0000001E-01   4.0000001E-01   4.0000001E-01   4.0000001E-01   4.0000001E-01   4.0000001E-01   4.0000001E-01   4.0000001E-01   4.0000001E-01   4.0000001E-01   4.0000001E-01   4.0000001E-01   4.0000001E-01   4.0000001E-01   4.0000001E-01   4.0000001E-01   4.0000001E-01   4.0000001E-01   4.0000001E-01   4.0000001E-01   4.0000001E-01   4.0000001E-01   4.0000001E-01   4.0000001E-01   4.0000001E-01   4.0000001E-01   4.0000001E-01   4.0000001E-01   4.0000001E-01   4.0000001E-01   4.0000001E-01   4.0000001E-01   4.0000001E-01   4.0000001E-01   4.0000001E-01   4.0000001E-01   4.0000001E-01   4.0000001E-01   4.0000001E-01   4.0000001E-01   4.0000001E-01   4.0000001E-01   4.0000001E-01   4.0000001E-01   4.0000001E-01   4.0000001E-01   4.0000001E-01   4.0000001E-01   4.0000001E-01   4.0000001E-01   4.0000001E-01   4.0000001E-01   4.0000001E-01   4.0000001E-01   4.0000001E-01   4.0000001E-01   4.0000001E-01   4.0000001E-01   4.0000001E-01   4.0000001E-01   4.0000001E-01   4.0000001E-01   4.0000001E-01   4.0000001E-01   4.0000001E-01   4.0000001E-01   4.0000001E-01   4.0000001E-01   4.0000001E-01   4.0000001E-01   4.0000001E-01   4.0000001E-01   4.0000001E-01   4.0000001E-01   4.0000001E-01   4.0000001E-01   4.0000001E-01   4.0000001E-01   4.0000001E-01   4.0000001E-01   4.0000001E-01   4.0000001E-01   4.0000001E-01   4.0000001E-01   4.0000001E-01   4.0000001E-01   4.0000001E-01   4.0000001E-01   4.0000001E-01   4.0000001E-01   4.0000001E-01   4.0000001E-01   4.0000001E-01   4.0000001E-01   4.0000001E-01   4.0000001E-01   4.0000001E-01   4.0000001E-01   4.0000001E-01   4.0000001E-01   4.0000001E-01   4.0000001E-01   4.0000001E-01   4.0000001E-01   4.0000001E-01   4.0000001E-01   4.0000001E-01   4.0000001E-01   4.0000001E-01   4.0000001E-01   4.0000001E-01   4.0000001E-01   4.0000001E-01   4.0000001E-01   4.0000001E-01   4.0000001E-01   4.0000001E-01   4.0000001E-01   4.0000001E-01   4.0000001E-01   4.0000001E-01   4.0000013E-01   4.0000013E-01   4.0000013E-01   4.0000013E-01   4.0000013E-01   4.0000013E-01   4.0000042E-01   4.0000042E-01   4.0000039E-01   4.0000042E-01   4.0000042E-01   4.0000036E-01   4.0000090E-01   4.0000090E-01   4.0000087E-01   4.0000090E-01   4.0000090E-01   4.0000087E-01   4.0000245E-01   4.0000251E-01   4.0000245E-01   4.0000245E-01   4.0000245E-01   4.0000251E-01   4.0000647E-01   4.0000650E-01   4.0000650E-01   4.0000653E-01   4.0000653E-01   4.0000650E-01   4.0001747E-01   4.0001747E-01   4.0001747E-01   4.0001747E-01   4.0001747E-01   4.0001747E-01   4.0004665E-01   4.0004665E-01   4.0004665E-01   4.0004665E-01   4.0004665E-01   4.0004665E-01   4.0012076E-01   4.0012074E-01   4.0012076E-01   4.0012076E-01   4.0012074E-01   4.0012074E-01   4.0029040E-01   4.0029040E-01   4.0029034E-01   4.0029040E-01   4.0029043E-01   4.0029040E-01   4.0060100E-01   4.0060097E-01   4.0060097E-01   4.0060094E-01   4.0060094E-01   4.0060091E-01   4.0099090E-01   4.0099090E-01   4.0099084E-01   4.0099087E-01   4.0099087E-01   4.0099084E-01   4.0130153E-01   4.0130159E-01   4.0130150E-01   4.0130150E-01   4.0130150E-01   4.0130147E-01   4.0147123E-01   4.0147120E-01   4.0147117E-01   4.0147117E-01   4.0147114E-01   4.0147111E-01   4.0154538E-01   4.0154535E-01   4.0154532E-01   4.0154529E-01   4.0154529E-01   4.0154529E-01   4.0157449E-01   4.0157449E-01   4.0157452E-01   4.0157446E-01   4.0157443E-01   4.0157443E-01   4.0158552E-01   4.0158555E-01   4.0158552E-01   4.0158546E-01   4.0158549E-01   4.0158549E-01   4.0158960E-01   4.0158963E-01   4.0158957E-01   4.0158954E-01   4.0158951E-01   4.0158954E-01   4.0158993E-01   4.0158996E-01   4.0158990E-01   4.0158993E-01   4.0158987E-01   4.0158987E-01   4.0158898E-01   4.0158892E-01   4.0158892E-01   4.0158892E-01   4.0158886E-01   4.0158889E-01   4.0156326E-01   4.0156326E-01   4.0156329E-01   4.0156320E-01   4.0156323E-01   4.0156323E-01   4.0151274E-01   4.0151277E-01   4.0151274E-01   4.0151268E-01   4.0151268E-01   4.0151265E-01   4.0144026E-01   4.0144029E-01   4.0144023E-01   4.0144020E-01   4.0144017E-01   4.0144017E-01   4.0134969E-01   4.0134969E-01   4.0134966E-01   4.0134963E-01   4.0134966E-01   4.0134963E-01   4.0124577E-01   4.0124577E-01   4.0124580E-01   4.0124577E-01   4.0124577E-01   4.0124574E-01   4.0113345E-01   4.0113345E-01   4.0113348E-01   4.0113339E-01   4.0113342E-01   4.0113342E-01   4.0101761E-01   4.0101758E-01   4.0101758E-01   4.0101752E-01   4.0101755E-01   4.0101758E-01   4.0090272E-01   4.0090272E-01   4.0090263E-01   4.0090263E-01   4.0090266E-01   4.0090266E-01   4.0079248E-01   4.0079254E-01   4.0079251E-01   4.0079248E-01   4.0079248E-01   4.0079245E-01   4.0069005E-01   4.0069008E-01   4.0069011E-01   4.0069008E-01   4.0069005E-01   4.0069005E-01   4.0059745E-01   4.0059742E-01   4.0059742E-01   4.0059748E-01   4.0059745E-01   4.0059745E-01   4.0051588E-01   4.0051588E-01   4.0051585E-01   4.0051588E-01   4.0051588E-01   4.0051588E-01   4.0044582E-01   4.0044585E-01   4.0044582E-01   4.0044579E-01   4.0044579E-01   4.0044582E-01   4.0038714E-01   4.0038708E-01   4.0038708E-01   4.0038714E-01   4.0038714E-01   4.0033889E-01   4.0033889E-01   4.0033889E-01   4.0033889E-01   4.0033892E-01   4.0030029E-01   4.0030023E-01   4.0030026E-01   4.0030023E-01   4.0026996E-01   4.0026996E-01   4.0026993E-01   4.0026993E-01   4.0024659E-01   4.0024662E-01   4.0024659E-01   4.0022910E-01   4.0022910E-01   4.0021619E-01   4.0021622E-01   4.0000001E-01   4.0000001E-01   4.0000001E-01   4.0000001E-01   4.0000001E-01   4.0000001E-01   4.0000001E-01   4.0000001E-01   4.0000001E-01   4.0000001E-01   4.0000001E-01   4.0000001E-01   4.0000001E-01   4.0000001E-01   4.0000001E-01   4.0000001E-01   4.0000001E-01   4.0000001E-01   4.0000001E-01   4.0000001E-01   4.0000001E-01   4.0000001E-01   4.0000001E-01   4.0000001E-01   4.0000001E-01   4.0000001E-01   4.0000001E-01   4.0000001E-01   4.0000001E-01   4.0000001E-01   4.0000001E-01   4.0000001E-01   4.0000001E-01   4.0000001E-01   4.0000001E-01   4.0000001E-01   4.0000001E-01   4.0000001E-01   4.0000001E-01   4.0000001E-01   4.0000001E-01   4.0000001E-01   4.0000001E-01   4.0000001E-01   4.0000001E-01   4.0000001E-01   4.0000001E-01   4.0000001E-01   4.0000001E-01   4.0000001E-01   4.0000001E-01   4.0000001E-01   4.0000001E-01   4.0000001E-01   4.0000001E-01   4.0000001E-01   4.0000001E-01   4.0000001E-01   4.0000001E-01   4.0000001E-01   4.0000001E-01   4.0000001E-01   4.0000001E-01   4.0000001E-01   4.0000001E-01   4.0000001E-01   4.0000001E-01   4.0000001E-01   4.0000001E-01   4.0000001E-01   4.0000001E-01   4.0000001E-01   4.0000001E-01   4.0000001E-01   4.0000001E-01   4.0000001E-01   4.0000001E-01   4.0000001E-01   4.0000001E-01   4.0000001E-01   4.0000001E-01   4.0000001E-01   4.0000001E-01   4.0000001E-01   4.0000001E-01   4.0000001E-01   4.0000001E-01   4.0000001E-01   4.0000001E-01   4.0000001E-01   4.0000001E-01   4.0000001E-01   4.0000001E-01   4.0000001E-01   4.0000001E-01   4.0000001E-01   4.0000001E-01   4.0000001E-01   4.0000001E-01   4.0000001E-01   4.0000001E-01   4.0000001E-01   4.0000001E-01   4.0000001E-01   4.0000001E-01   4.0000001E-01   4.0000001E-01   4.0000001E-01   4.0000001E-01   4.0000001E-01   4.0000001E-01   4.0000001E-01   4.0000001E-01   4.0000001E-01   4.0000001E-01   4.0000001E-01   4.0000001E-01   4.0000001E-01   4.0000001E-01   4.0000001E-01   4.0000001E-01   4.0000001E-01   4.0000001E-01   4.0000001E-01   4.0000001E-01   4.0000001E-01   4.0000001E-01   4.0000001E-01   4.0000001E-01   4.0000001E-01   4.0000001E-01   4.0000001E-01   4.0000001E-01   4.0000001E-01   4.0000001E-01   4.0000001E-01   4.0000001E-01   4.0000001E-01   4.0000001E-01   4.0000001E-01   4.0000001E-01   4.0000001E-01   4.0000001E-01   4.0000001E-01   4.0000001E-01   4.0000001E-01   4.0000001E-01   4.0000001E-01   4.0000001E-01   4.0000001E-01   4.0000001E-01   4.0000001E-01   4.0000001E-01   4.0000001E-01   4.0000001E-01   4.0000001E-01   4.0000001E-01   4.0000001E-01   4.0000001E-01   4.0000001E-01   4.0000001E-01   4.0000001E-01   4.0000001E-01   4.0000001E-01   4.0000001E-01   4.0000001E-01   4.0000001E-01   4.0000001E-01   4.0000001E-01   4.0000001E-01   4.0000001E-01   4.0000001E-01   4.0000001E-01   4.0000001E-01   4.0000001E-01   4.0000001E-01   4.0000001E-01   4.0000001E-01   4.0000001E-01   4.0000001E-01   4.0000001E-01   4.0000001E-01   4.0000001E-01   4.0000001E-01   4.0000001E-01   4.0000001E-01   4.0000001E-01   4.0000001E-01   4.0000001E-01   4.0000001E-01   4.0000001E-01   4.0000001E-01   4.0000001E-01   4.0000001E-01   4.0000001E-01   4.0000001E-01   4.0000001E-01   4.0000001E-01   4.0000001E-01   4.0000001E-01   4.0000001E-01   4.0000001E-01   4.0000001E-01   4.0000001E-01   4.0000001E-01   4.0000001E-01   4.0000001E-01   4.0000015E-01   4.0000015E-01   4.0000015E-01   4.0000015E-01   4.0000013E-01   4.0000013E-01   4.0000013E-01   4.0000015E-01   4.0000015E-01   4.0000042E-01   4.0000045E-01   4.0000045E-01   4.0000039E-01   4.0000042E-01   4.0000042E-01   4.0000042E-01   4.0000042E-01   4.0000042E-01   4.0000087E-01   4.0000090E-01   4.0000087E-01   4.0000087E-01   4.0000087E-01   4.0000084E-01   4.0000084E-01   4.0000090E-01   4.0000090E-01   4.0000248E-01   4.0000245E-01   4.0000248E-01   4.0000251E-01   4.0000248E-01   4.0000248E-01   4.0000251E-01   4.0000251E-01   4.0000251E-01   4.0000647E-01   4.0000650E-01   4.0000647E-01   4.0000647E-01   4.0000650E-01   4.0000650E-01   4.0000650E-01   4.0000650E-01   4.0000653E-01   4.0001747E-01   4.0001747E-01   4.0001747E-01   4.0001747E-01   4.0001750E-01   4.0001747E-01   4.0001753E-01   4.0001753E-01   4.0001750E-01   4.0004665E-01   4.0004665E-01   4.0004662E-01   4.0004665E-01   4.0004665E-01   4.0004662E-01   4.0004665E-01   4.0004665E-01   4.0004665E-01   4.0012074E-01   4.0012074E-01   4.0012076E-01   4.0012074E-01   4.0012074E-01   4.0012079E-01   4.0012082E-01   4.0012076E-01   4.0012076E-01   4.0029037E-01   4.0029037E-01   4.0029040E-01   4.0029037E-01   4.0029040E-01   4.0029037E-01   4.0029037E-01   4.0029034E-01   4.0029034E-01   4.0060094E-01   4.0060097E-01   4.0060094E-01   4.0060091E-01   4.0060094E-01   4.0060091E-01   4.0060091E-01   4.0060091E-01   4.0060094E-01   4.0099087E-01   4.0099084E-01   4.0099087E-01   4.0099084E-01   4.0099084E-01   4.0099087E-01   4.0099078E-01   4.0099084E-01   4.0099084E-01   4.0130147E-01   4.0130150E-01   4.0130150E-01   4.0130147E-01   4.0130147E-01   4.0130144E-01   4.0130144E-01   4.0130144E-01   4.0130144E-01   4.0147114E-01   4.0147111E-01   4.0147114E-01   4.0147114E-01   4.0147108E-01   4.0147114E-01   4.0147117E-01   4.0147117E-01   4.0147111E-01   4.0154523E-01   4.0154523E-01   4.0154526E-01   4.0154526E-01   4.0154523E-01   4.0154523E-01   4.0154520E-01   4.0154523E-01   4.0154523E-01   4.0157437E-01   4.0157440E-01   4.0157440E-01   4.0157440E-01   4.0157440E-01   4.0157437E-01   4.0157434E-01   4.0157440E-01   4.0157440E-01   4.0158540E-01   4.0158540E-01   4.0158543E-01   4.0158540E-01   4.0158543E-01   4.0158537E-01   4.0158540E-01   4.0158543E-01   4.0158540E-01   4.0158945E-01   4.0158951E-01   4.0158948E-01   4.0158951E-01   4.0158951E-01   4.0158945E-01   4.0158945E-01   4.0158948E-01   4.0158945E-01   4.0158981E-01   4.0158987E-01   4.0158984E-01   4.0158978E-01   4.0158981E-01   4.0158981E-01   4.0158987E-01   4.0158984E-01   4.0158981E-01   4.0158883E-01   4.0158883E-01   4.0158883E-01   4.0158883E-01   4.0158880E-01   4.0158883E-01   4.0158883E-01   4.0158883E-01   4.0158883E-01   4.0156317E-01   4.0156320E-01   4.0156317E-01   4.0156320E-01   4.0156317E-01   4.0156314E-01   4.0156314E-01   4.0156314E-01   4.0156314E-01   4.0151268E-01   4.0151262E-01   4.0151262E-01   4.0151262E-01   4.0151262E-01   4.0151265E-01   4.0151262E-01   4.0151262E-01   4.0151262E-01   4.0144020E-01   4.0144017E-01   4.0144017E-01   4.0144017E-01   4.0144017E-01   4.0144020E-01   4.0144017E-01   4.0144017E-01   4.0144017E-01   4.0134963E-01   4.0134960E-01   4.0134969E-01   4.0134963E-01   4.0134960E-01   4.0134963E-01   4.0134966E-01   4.0134966E-01   4.0134966E-01   4.0124571E-01   4.0124571E-01   4.0124571E-01   4.0124568E-01   4.0124571E-01   4.0124571E-01   4.0124571E-01   4.0124574E-01   4.0124571E-01   4.0113339E-01   4.0113339E-01   4.0113342E-01   4.0113339E-01   4.0113336E-01   4.0113342E-01   4.0113336E-01   4.0113336E-01   4.0113342E-01   4.0101755E-01   4.0101752E-01   4.0101755E-01   4.0101755E-01   4.0101755E-01   4.0101755E-01   4.0101755E-01   4.0101755E-01   4.0101752E-01   4.0090266E-01   4.0090266E-01   4.0090272E-01   4.0090266E-01   4.0090263E-01   4.0090263E-01   4.0090263E-01   4.0090266E-01   4.0090266E-01   4.0079248E-01   4.0079248E-01   4.0079245E-01   4.0079245E-01   4.0079254E-01   4.0079251E-01   4.0079248E-01   4.0079248E-01   4.0079254E-01   4.0069005E-01   4.0069008E-01   4.0069005E-01   4.0069005E-01   4.0069002E-01   4.0069005E-01   4.0069005E-01   4.0069005E-01   4.0069005E-01   4.0059751E-01   4.0059745E-01   4.0059742E-01   4.0059742E-01   4.0059742E-01   4.0059742E-01   4.0059742E-01   4.0059742E-01   4.0059742E-01   4.0051588E-01   4.0051588E-01   4.0051588E-01   4.0051585E-01   4.0051588E-01   4.0051588E-01   4.0051588E-01   4.0051588E-01   4.0051582E-01   4.0044579E-01   4.0044582E-01   4.0044582E-01   4.0044582E-01   4.0044582E-01   4.0044582E-01   4.0044582E-01   4.0044582E-01   4.0044582E-01   4.0038708E-01   4.0038711E-01   4.0038714E-01   4.0038708E-01   4.0038702E-01   4.0038708E-01   4.0038708E-01   4.0038714E-01   4.0038711E-01   4.0033889E-01   4.0033892E-01   4.0033892E-01   4.0033889E-01   4.0033889E-01   4.0033889E-01   4.0033892E-01   4.0033889E-01   4.0033892E-01   4.0030029E-01   4.0030029E-01   4.0030029E-01   4.0030032E-01   4.0030026E-01   4.0030023E-01   4.0030032E-01   4.0030026E-01   4.0030023E-01   4.0026993E-01   4.0026993E-01   4.0026996E-01   4.0026996E-01   4.0026990E-01   4.0026993E-01   4.0026990E-01   4.0026996E-01   4.0026990E-01   4.0024659E-01   4.0024656E-01   4.0024659E-01   4.0024659E-01   4.0024656E-01   4.0024662E-01   4.0024656E-01   4.0024659E-01   4.0024659E-01   4.0022916E-01   4.0022907E-01   4.0022913E-01   4.0022916E-01   4.0022916E-01   4.0022910E-01   4.0022916E-01   4.0022910E-01   4.0022913E-01   4.0021616E-01   4.0021622E-01   4.0021622E-01   4.0021622E-01   4.0021619E-01   4.0021619E-01   4.0021622E-01   4.0021622E-01   4.0021616E-01   4.0020674E-01   4.0020680E-01   4.0020680E-01   4.0020683E-01   4.0020680E-01   4.0020680E-01   4.0020680E-01   4.0020683E-01   4.0020680E-01   4.0020025E-01   4.0020022E-01   4.0020022E-01   4.0020022E-01   4.0020022E-01   4.0020022E-01   4.0020025E-01   4.0020019E-01   4.0019569E-01   4.0019572E-01   4.0019566E-01   4.0019566E-01   4.0019569E-01   4.0019569E-01   4.0019250E-01   4.0019253E-01   4.0019253E-01   4.0019250E-01   4.0000001E-01   4.0000001E-01   4.0000001E-01   4.0000001E-01   4.0000001E-01   4.0000001E-01   4.0000001E-01   4.0000001E-01   4.0000001E-01   4.0000001E-01   4.0000001E-01   4.0000001E-01   4.0000001E-01   4.0000001E-01   4.0000001E-01   4.0000001E-01   4.0000001E-01   4.0000001E-01   4.0000001E-01   4.0000001E-01   4.0000001E-01   4.0000001E-01   4.0000001E-01   4.0000001E-01   4.0000001E-01   4.0000001E-01   4.0000001E-01   4.0000001E-01   4.0000001E-01   4.0000001E-01   4.0000001E-01   4.0000001E-01   4.0000001E-01   4.0000001E-01   4.0000001E-01   4.0000001E-01   4.0000001E-01   4.0000001E-01   4.0000001E-01   4.0000001E-01   4.0000001E-01   4.0000001E-01   4.0000001E-01   4.0000001E-01   4.0000001E-01   4.0000001E-01   4.0000001E-01   4.0000001E-01   4.0000001E-01   4.0000001E-01   4.0000001E-01   4.0000001E-01   4.0000001E-01   4.0000001E-01   4.0000001E-01   4.0000001E-01   4.0000001E-01   4.0000001E-01   4.0000001E-01   4.0000001E-01   4.0000001E-01   4.0000001E-01   4.0000001E-01   4.0000001E-01   4.0000001E-01   4.0000001E-01   4.0000001E-01   4.0000001E-01   4.0000001E-01   4.0000001E-01   4.0000001E-01   4.0000001E-01   4.0000001E-01   4.0000001E-01   4.0000001E-01   4.0000001E-01   4.0000001E-01   4.0000001E-01   4.0000001E-01   4.0000001E-01   4.0000001E-01   4.0000001E-01   4.0000001E-01   4.0000001E-01   4.0000001E-01   4.0000001E-01   4.0000001E-01   4.0000001E-01   4.0000001E-01   4.0000001E-01   4.0000001E-01   4.0000001E-01   4.0000001E-01   4.0000001E-01   4.0000001E-01   4.0000001E-01   4.0000001E-01   4.0000001E-01   4.0000001E-01   4.0000001E-01   4.0000001E-01   4.0000001E-01   4.0000001E-01   4.0000001E-01   4.0000001E-01   4.0000001E-01   4.0000001E-01   4.0000001E-01   4.0000001E-01   4.0000001E-01   4.0000001E-01   4.0000001E-01   4.0000001E-01   4.0000001E-01   4.0000001E-01   4.0000001E-01   4.0000001E-01   4.0000001E-01   4.0000001E-01   4.0000001E-01   4.0000001E-01   4.0000001E-01   4.0000001E-01   4.0000001E-01   4.0000001E-01   4.0000001E-01   4.0000001E-01   4.0000001E-01   4.0000001E-01   4.0000001E-01   4.0000001E-01   4.0000001E-01   4.0000001E-01   4.0000001E-01   4.0000001E-01   4.0000001E-01   4.0000001E-01   4.0000001E-01   4.0000001E-01   4.0000001E-01   4.0000001E-01   4.0000001E-01   4.0000001E-01   4.0000001E-01   4.0000001E-01   4.0000001E-01   4.0000001E-01   4.0000001E-01   4.0000001E-01   4.0000001E-01   4.0000001E-01   4.0000001E-01   4.0000001E-01   4.0000001E-01   4.0000001E-01   4.0000001E-01   4.0000001E-01   4.0000001E-01   4.0000001E-01   4.0000001E-01   4.0000001E-01   4.0000001E-01   4.0000001E-01   4.0000001E-01   4.0000001E-01   4.0000001E-01   4.0000001E-01   4.0000001E-01   4.0000001E-01   4.0000001E-01   4.0000001E-01   4.0000001E-01   4.0000001E-01   4.0000001E-01   4.0000001E-01   4.0000001E-01   4.0000001E-01   4.0000001E-01   4.0000001E-01   4.0000001E-01   4.0000001E-01   4.0000001E-01   4.0000001E-01   4.0000001E-01   4.0000015E-01   4.0000015E-01   4.0000015E-01   4.0000013E-01   4.0000013E-01   4.0000013E-01   4.0000015E-01   4.0000015E-01   4.0000042E-01   4.0000042E-01   4.0000042E-01   4.0000042E-01   4.0000042E-01   4.0000042E-01   4.0000039E-01   4.0000045E-01   4.0000090E-01   4.0000090E-01   4.0000090E-01   4.0000084E-01   4.0000084E-01   4.0000087E-01   4.0000087E-01   4.0000087E-01   4.0000251E-01   4.0000251E-01   4.0000251E-01   4.0000251E-01   4.0000248E-01   4.0000248E-01   4.0000251E-01   4.0000248E-01   4.0000653E-01   4.0000653E-01   4.0000650E-01   4.0000650E-01   4.0000650E-01   4.0000650E-01   4.0000647E-01   4.0000647E-01   4.0001750E-01   4.0001750E-01   4.0001753E-01   4.0001753E-01   4.0001747E-01   4.0001750E-01   4.0001747E-01   4.0001747E-01   4.0004665E-01   4.0004665E-01   4.0004665E-01   4.0004665E-01   4.0004662E-01   4.0004665E-01   4.0004665E-01   4.0004662E-01   4.0012076E-01   4.0012076E-01   4.0012076E-01   4.0012082E-01   4.0012079E-01   4.0012074E-01   4.0012074E-01   4.0012076E-01   4.0029034E-01   4.0029034E-01   4.0029034E-01   4.0029037E-01   4.0029037E-01   4.0029040E-01   4.0029037E-01   4.0029040E-01   4.0060094E-01   4.0060094E-01   4.0060091E-01   4.0060091E-01   4.0060091E-01   4.0060094E-01   4.0060091E-01   4.0060094E-01   4.0099084E-01   4.0099084E-01   4.0099084E-01   4.0099078E-01   4.0099087E-01   4.0099084E-01   4.0099084E-01   4.0099087E-01   4.0130144E-01   4.0130144E-01   4.0130144E-01   4.0130144E-01   4.0130144E-01   4.0130147E-01   4.0130147E-01   4.0130150E-01   4.0147111E-01   4.0147111E-01   4.0147117E-01   4.0147117E-01   4.0147114E-01   4.0147108E-01   4.0147114E-01   4.0147114E-01   4.0154523E-01   4.0154523E-01   4.0154523E-01   4.0154520E-01   4.0154523E-01   4.0154523E-01   4.0154526E-01   4.0154526E-01   4.0157437E-01   4.0157440E-01   4.0157440E-01   4.0157434E-01   4.0157437E-01   4.0157440E-01   4.0157440E-01   4.0157440E-01   4.0158540E-01   4.0158540E-01   4.0158543E-01   4.0158540E-01   4.0158537E-01   4.0158543E-01   4.0158540E-01   4.0158543E-01   4.0158948E-01   4.0158945E-01   4.0158948E-01   4.0158945E-01   4.0158945E-01   4.0158951E-01   4.0158951E-01   4.0158948E-01   4.0158981E-01   4.0158981E-01   4.0158984E-01   4.0158987E-01   4.0158981E-01   4.0158981E-01   4.0158978E-01   4.0158984E-01   4.0158883E-01   4.0158883E-01   4.0158883E-01   4.0158883E-01   4.0158883E-01   4.0158880E-01   4.0158883E-01   4.0158883E-01   4.0156314E-01   4.0156314E-01   4.0156314E-01   4.0156314E-01   4.0156314E-01   4.0156317E-01   4.0156320E-01   4.0156317E-01   4.0151262E-01   4.0151262E-01   4.0151262E-01   4.0151262E-01   4.0151265E-01   4.0151262E-01   4.0151262E-01   4.0151262E-01   4.0144017E-01   4.0144017E-01   4.0144017E-01   4.0144017E-01   4.0144020E-01   4.0144017E-01   4.0144017E-01   4.0144017E-01   4.0134966E-01   4.0134966E-01   4.0134966E-01   4.0134966E-01   4.0134963E-01   4.0134960E-01   4.0134963E-01   4.0134969E-01   4.0124571E-01   4.0124571E-01   4.0124574E-01   4.0124571E-01   4.0124571E-01   4.0124571E-01   4.0124568E-01   4.0124571E-01   4.0113339E-01   4.0113342E-01   4.0113336E-01   4.0113336E-01   4.0113342E-01   4.0113336E-01   4.0113339E-01   4.0113342E-01   4.0101752E-01   4.0101752E-01   4.0101755E-01   4.0101755E-01   4.0101755E-01   4.0101755E-01   4.0101755E-01   4.0101755E-01   4.0090266E-01   4.0090266E-01   4.0090266E-01   4.0090263E-01   4.0090263E-01   4.0090263E-01   4.0090266E-01   4.0090272E-01   4.0079254E-01   4.0079254E-01   4.0079248E-01   4.0079248E-01   4.0079251E-01   4.0079254E-01   4.0079245E-01   4.0079245E-01   4.0069005E-01   4.0069005E-01   4.0069005E-01   4.0069005E-01   4.0069005E-01   4.0069002E-01   4.0069005E-01   4.0069005E-01   4.0059742E-01   4.0059742E-01   4.0059742E-01   4.0059742E-01   4.0059742E-01   4.0059742E-01   4.0059742E-01   4.0059742E-01   4.0051585E-01   4.0051582E-01   4.0051588E-01   4.0051588E-01   4.0051588E-01   4.0051588E-01   4.0051585E-01   4.0051588E-01   4.0044582E-01   4.0044582E-01   4.0044582E-01   4.0044582E-01   4.0044582E-01   4.0044582E-01   4.0044582E-01   4.0044582E-01   4.0038711E-01   4.0038711E-01   4.0038714E-01   4.0038708E-01   4.0038708E-01   4.0038702E-01   4.0038708E-01   4.0038714E-01   4.0033889E-01   4.0033892E-01   4.0033889E-01   4.0033892E-01   4.0033889E-01   4.0033889E-01   4.0033889E-01   4.0033892E-01   4.0030026E-01   4.0030023E-01   4.0030026E-01   4.0030032E-01   4.0030023E-01   4.0030026E-01   4.0030032E-01   4.0030029E-01   4.0026993E-01   4.0026990E-01   4.0026996E-01   4.0026990E-01   4.0026993E-01   4.0026990E-01   4.0026996E-01   4.0026996E-01   4.0024659E-01   4.0024659E-01   4.0024659E-01   4.0024656E-01   4.0024662E-01   4.0024656E-01   4.0024659E-01   4.0024659E-01   4.0022910E-01   4.0022913E-01   4.0022910E-01   4.0022916E-01   4.0022910E-01   4.0022916E-01   4.0022916E-01   4.0022913E-01   4.0021622E-01   4.0021616E-01   4.0021622E-01   4.0021622E-01   4.0021619E-01   4.0021619E-01   4.0021622E-01   4.0021622E-01   4.0020680E-01   4.0020680E-01   4.0020683E-01   4.0020680E-01   4.0020680E-01   4.0020680E-01   4.0020683E-01   4.0020680E-01   4.0020022E-01   4.0020019E-01   4.0020025E-01   4.0020022E-01   4.0020022E-01   4.0020022E-01   4.0020022E-01   4.0020022E-01   4.0019569E-01   4.0019569E-01   4.0019569E-01   4.0019566E-01   4.0019566E-01   4.0019572E-01   4.0019569E-01   4.0019253E-01   4.0019250E-01   4.0019253E-01   4.0019253E-01   4.0019250E-01   4.0000001E-01   4.0000001E-01   4.0000001E-01   4.0000001E-01   4.0000001E-01   4.0000001E-01   4.0000001E-01   4.0000001E-01   4.0000001E-01   4.0000001E-01   4.0000001E-01   4.0000001E-01   4.0000001E-01   4.0000001E-01   4.0000001E-01   4.0000001E-01   4.0000001E-01   4.0000001E-01   4.0000001E-01   4.0000001E-01   4.0000001E-01   4.0000001E-01   4.0000001E-01   4.0000001E-01   4.0000001E-01   4.0000001E-01   4.0000001E-01   4.0000001E-01   4.0000001E-01   4.0000001E-01   4.0000001E-01   4.0000001E-01   4.0000001E-01   4.0000001E-01   4.0000001E-01   4.0000001E-01   4.0000001E-01   4.0000001E-01   4.0000001E-01   4.0000001E-01   4.0000001E-01   4.0000001E-01   4.0000001E-01   4.0000001E-01   4.0000001E-01   4.0000001E-01   4.0000001E-01   4.0000001E-01   4.0000001E-01   4.0000001E-01   4.0000001E-01   4.0000001E-01   4.0000001E-01   4.0000001E-01   4.0000001E-01   4.0000001E-01   4.0000001E-01   4.0000001E-01   4.0000001E-01   4.0000001E-01   4.0000001E-01   4.0000001E-01   4.0000001E-01   4.0000001E-01   4.0000001E-01   4.0000001E-01   4.0000001E-01   4.0000001E-01   4.0000001E-01   4.0000001E-01   4.0000001E-01   4.0000001E-01   4.0000001E-01   4.0000001E-01   4.0000001E-01   4.0000001E-01   4.0000001E-01   4.0000001E-01   4.0000001E-01   4.0000001E-01   4.0000001E-01   4.0000001E-01   4.0000001E-01   4.0000001E-01   4.0000001E-01   4.0000001E-01   4.0000001E-01   4.0000001E-01   4.0000001E-01   4.0000001E-01   4.0000001E-01   4.0000001E-01   4.0000001E-01   4.0000001E-01   4.0000001E-01   4.0000001E-01   4.0000001E-01   4.0000001E-01   4.0000001E-01   4.0000001E-01   4.0000001E-01   4.0000001E-01   4.0000001E-01   4.0000001E-01   4.0000001E-01   4.0000001E-01   4.0000001E-01   4.0000001E-01   4.0000001E-01   4.0000001E-01   4.0000001E-01   4.0000001E-01   4.0000001E-01   4.0000001E-01   4.0000001E-01   4.0000001E-01   4.0000001E-01   4.0000001E-01   4.0000001E-01   4.0000001E-01   4.0000001E-01   4.0000001E-01   4.0000001E-01   4.0000001E-01   4.0000001E-01   4.0000001E-01   4.0000001E-01   4.0000001E-01   4.0000001E-01   4.0000001E-01   4.0000001E-01   4.0000001E-01   4.0000001E-01   4.0000001E-01   4.0000001E-01   4.0000001E-01   4.0000001E-01   4.0000001E-01   4.0000001E-01   4.0000001E-01   4.0000001E-01   4.0000001E-01   4.0000001E-01   4.0000001E-01   4.0000001E-01   4.0000001E-01   4.0000001E-01   4.0000001E-01   4.0000001E-01   4.0000001E-01   4.0000001E-01   4.0000001E-01   4.0000001E-01   4.0000001E-01   4.0000001E-01   4.0000001E-01   4.0000001E-01   4.0000001E-01   4.0000001E-01   4.0000001E-01   4.0000001E-01   4.0000001E-01   4.0000001E-01   4.0000001E-01   4.0000001E-01   4.0000001E-01   4.0000001E-01   4.0000001E-01   4.0000001E-01   4.0000001E-01   4.0000001E-01   4.0000001E-01   4.0000001E-01   4.0000001E-01   4.0000001E-01   4.0000001E-01   4.0000001E-01   4.0000001E-01   4.0000001E-01   4.0000001E-01   4.0000001E-01   4.0000001E-01   4.0000001E-01   4.0000015E-01   4.0000015E-01   4.0000013E-01   4.0000013E-01   4.0000013E-01   4.0000013E-01   4.0000013E-01   4.0000013E-01   4.0000045E-01   4.0000042E-01   4.0000036E-01   4.0000042E-01   4.0000042E-01   4.0000039E-01   4.0000042E-01   4.0000042E-01   4.0000090E-01   4.0000087E-01   4.0000087E-01   4.0000090E-01   4.0000090E-01   4.0000087E-01   4.0000090E-01   4.0000090E-01   4.0000245E-01   4.0000248E-01   4.0000251E-01   4.0000245E-01   4.0000245E-01   4.0000245E-01   4.0000251E-01   4.0000245E-01   4.0000650E-01   4.0000647E-01   4.0000650E-01   4.0000653E-01   4.0000653E-01   4.0000650E-01   4.0000650E-01   4.0000647E-01   4.0001747E-01   4.0001747E-01   4.0001747E-01   4.0001747E-01   4.0001747E-01   4.0001747E-01   4.0001747E-01   4.0001747E-01   4.0004665E-01   4.0004665E-01   4.0004665E-01   4.0004665E-01   4.0004665E-01   4.0004665E-01   4.0004665E-01   4.0004665E-01   4.0012074E-01   4.0012074E-01   4.0012074E-01   4.0012074E-01   4.0012076E-01   4.0012076E-01   4.0012074E-01   4.0012076E-01   4.0029037E-01   4.0029037E-01   4.0029040E-01   4.0029043E-01   4.0029040E-01   4.0029034E-01   4.0029040E-01   4.0029040E-01   4.0060097E-01   4.0060094E-01   4.0060091E-01   4.0060094E-01   4.0060094E-01   4.0060097E-01   4.0060097E-01   4.0060100E-01   4.0099084E-01   4.0099087E-01   4.0099084E-01   4.0099087E-01   4.0099087E-01   4.0099084E-01   4.0099090E-01   4.0099090E-01   4.0130150E-01   4.0130147E-01   4.0130147E-01   4.0130150E-01   4.0130150E-01   4.0130150E-01   4.0130159E-01   4.0130153E-01   4.0147111E-01   4.0147114E-01   4.0147111E-01   4.0147114E-01   4.0147117E-01   4.0147117E-01   4.0147120E-01   4.0147123E-01   4.0154523E-01   4.0154523E-01   4.0154529E-01   4.0154529E-01   4.0154529E-01   4.0154532E-01   4.0154535E-01   4.0154538E-01   4.0157440E-01   4.0157437E-01   4.0157443E-01   4.0157443E-01   4.0157446E-01   4.0157452E-01   4.0157449E-01   4.0157449E-01   4.0158540E-01   4.0158540E-01   4.0158549E-01   4.0158549E-01   4.0158546E-01   4.0158552E-01   4.0158555E-01   4.0158552E-01   4.0158951E-01   4.0158945E-01   4.0158954E-01   4.0158951E-01   4.0158954E-01   4.0158957E-01   4.0158963E-01   4.0158960E-01   4.0158987E-01   4.0158981E-01   4.0158987E-01   4.0158987E-01   4.0158993E-01   4.0158990E-01   4.0158996E-01   4.0158993E-01   4.0158883E-01   4.0158883E-01   4.0158889E-01   4.0158886E-01   4.0158892E-01   4.0158892E-01   4.0158892E-01   4.0158898E-01   4.0156320E-01   4.0156317E-01   4.0156323E-01   4.0156323E-01   4.0156320E-01   4.0156329E-01   4.0156326E-01   4.0156326E-01   4.0151262E-01   4.0151268E-01   4.0151265E-01   4.0151268E-01   4.0151268E-01   4.0151274E-01   4.0151277E-01   4.0151274E-01   4.0144017E-01   4.0144020E-01   4.0144017E-01   4.0144017E-01   4.0144020E-01   4.0144023E-01   4.0144029E-01   4.0144026E-01   4.0134960E-01   4.0134963E-01   4.0134963E-01   4.0134966E-01   4.0134963E-01   4.0134966E-01   4.0134969E-01   4.0134969E-01   4.0124571E-01   4.0124571E-01   4.0124574E-01   4.0124577E-01   4.0124577E-01   4.0124580E-01   4.0124577E-01   4.0124577E-01   4.0113339E-01   4.0113339E-01   4.0113342E-01   4.0113342E-01   4.0113339E-01   4.0113348E-01   4.0113345E-01   4.0113345E-01   4.0101752E-01   4.0101755E-01   4.0101758E-01   4.0101755E-01   4.0101752E-01   4.0101758E-01   4.0101758E-01   4.0101761E-01   4.0090266E-01   4.0090266E-01   4.0090266E-01   4.0090266E-01   4.0090263E-01   4.0090263E-01   4.0090272E-01   4.0090272E-01   4.0079248E-01   4.0079248E-01   4.0079245E-01   4.0079248E-01   4.0079248E-01   4.0079251E-01   4.0079254E-01   4.0079248E-01   4.0069008E-01   4.0069005E-01   4.0069005E-01   4.0069005E-01   4.0069008E-01   4.0069011E-01   4.0069008E-01   4.0069005E-01   4.0059745E-01   4.0059751E-01   4.0059745E-01   4.0059745E-01   4.0059748E-01   4.0059742E-01   4.0059742E-01   4.0059745E-01   4.0051588E-01   4.0051588E-01   4.0051588E-01   4.0051588E-01   4.0051588E-01   4.0051585E-01   4.0051588E-01   4.0051588E-01   4.0044582E-01   4.0044579E-01   4.0044582E-01   4.0044579E-01   4.0044579E-01   4.0044582E-01   4.0044585E-01   4.0044582E-01   4.0038711E-01   4.0038708E-01   4.0038714E-01   4.0038714E-01   4.0038708E-01   4.0038708E-01   4.0038714E-01   4.0033892E-01   4.0033889E-01   4.0033892E-01   4.0033889E-01   4.0033889E-01   4.0033889E-01   4.0033889E-01   4.0030029E-01   4.0030029E-01   4.0030023E-01   4.0030026E-01   4.0030023E-01   4.0030029E-01   4.0026993E-01   4.0026993E-01   4.0026993E-01   4.0026993E-01   4.0026996E-01   4.0026996E-01   4.0024656E-01   4.0024659E-01   4.0024659E-01   4.0024662E-01   4.0024659E-01   4.0022907E-01   4.0022916E-01   4.0022910E-01   4.0022910E-01   4.0021622E-01   4.0021616E-01   4.0021622E-01   4.0021619E-01   4.0020680E-01   4.0020674E-01   4.0020025E-01 
Press 1 2975 float
  0.0000000E+00   0.0000000E+00   0.0000000E+00   0.0000000E+00   0.0000000E+00   0.0000000E+00   0.0000000E+00   0.0000000E+00   0.0000000E+00   0.0000000E+00   0.0000000E+00   0.0000000E+00   0.0000000E+00   0.0000000E+00   0.0000000E+00   0.0000000E+00   0.0000000E+00   0.0000000E+00   0.0000000E+00   0.0000000E+00   0.0000000E+00   0.0000000E+00   0.0000000E+00   0.0000000E+00   0.0000000E+00   0.0000000E+00   0.0000000E+00   0.0000000E+00   0.0000000E+00   0.0000000E+00   0.0000000E+00   0.0000000E+00   0.0000000E+00   0.0000000E+00   0.0000000E+00   0.0000000E+00   0.0000000E+00   0.0000000E+00   0.0000000E+00   0.0000000E+00   0.0000000E+00   0.0000000E+00   0.0000000E+00   0.0000000E+00   0.0000000E+00   0.0000000E+00   0.0000000E+00   0.0000000E+00   0.0000000E+00   0.0000000E+00   0.0000000E+00   0.0000000E+00   0.0000000E+00   0.0000000E+00   0.0000000E+00   0.0000000E+00   0.0000000E+00   0.0000000E+00   0.0000000E+00   0.0000000E+00   0.0000000E+00   0.0000000E+00   0.0000000E+00   0.0000000E+00   0.0000000E+00   0.0000000E+00   0.0000000E+00   0.0000000E+00   0.0000000E+00   0.0000000E+00   0.0000000E+00   0.0000000E+00   0.0000000E+00   0.0000000E+00   0.0000000E+00   0.0000000E+00   0.0000000E+00   0.0000000E+00   0.0000000E+00   0.0000000E+00   0.0000000E+00   0.0000000E+00   0.0000000E+00   0.0000000E+00   0.0000000E+00   0.0000000E+00   0.0000000E+00   0.0000000E+00   0.0000000E+00   0.0000000E+00   0.0000000E+00   0.0000000E+00   0.0000000E+00   0.0000000E+00   0.0000000E+00   0.0000000E+00   0.0000000E+00   0.0000000E+00   0.0000000E+00   0.0000000E+00   0.0000000E+00   0.0000000E+00   0.0000000E+00   0.0000000E+00   0.0000000E+00   0.0000000E+00   0.0000000E+00   0.0000000E+00   0.0000000E+00   0.0000000E+00   0.0000000E+00   0.0000000E+00   0.0000000E+00   0.0000000E+00   0.0000000E+00   0.0000000E+00   0.0000000E+00   0.0000000E+00   0.0000000E+00   0.0000000E+00   0.0000000E+00   0.0000000E+00   0.0000000E+00   0.0000000E+00   0.0000000E+00   0.0000000E+00   0.0000000E+00   0.0000000E+00   0.0000000E+00   0.0000000E+00   0.0000000E+00   0.0000000E+00   0.0000000E+00   0.0000000E+00   0.0000000E+00   0.0000000E+00   0.0000000E+00   0.0000000E+00   0.0000000E+00   0.0000000E+00   0.0000000E+00   0.0000000E+00   0.0000000E+00   0.0000000E+00   0.0000000E+00   0.0000000E+00   0.0000000E+00   0.0000000E+00   0.0000000E+00   0.0000000E+00   0.0000000E+00   0.0000000E+00   0.0000000E+00   0.0000000E+00   0.0000000E+00   0.0000000E+00   0.0000000E+00   0.0000000E+00   0.0000000E+00   0.0000000E+00   0.0000000E+00   0.0000000E+00   0.0000000E+00   0.0000000E+00   0.0000000E+00   0.0000000E+00   0.0000000E+00   0.0000000E+00   0.0000000E+00   0.0000000E+00   0.0000000E+00   0.0000000E+00   0.0000000E+00   0.0000000E+00   0.0000000E+00   0.0000000E+00   0.0000000E+00   0.0000000E+00   0.0000000E+00   0.0000000E+00   0.0000000E+00   0.0000000E+00   0.0000000E+00   0.0000000E+00   0.0000000E+00   0.0000000E+00   0.0000000E+00   0.0000000E+00   0.0000000E+00   0.0000000E+00   0.0000000E+00   0.0000000E+00   0.0000000E+00   0.0000000E+00   0.0000000E+00   0.0000000E+00   0.0000000E+00   0.0000000E+00   0.0000000E+00   0.0000000E+00   0.0000000E+00   0.0000000E+00   0.0000000E+00   0.0000000E+00   0.0000000E+00   0.0000000E+00   0.0000000E+00   0.0000000E+00   0.0000000E+00   0.0000000E+00   0.0000000E+00   0.0000000E+00   0.0000000E+00   0.0000000E+00   0.0000000E+00   0.0000000E+00   0.0000000E+00   0.0000000E+00   0.0000000E+00   0.0000000E+00   0.0000000E+00   0.0000000E+00   0.0000000E+00   0.0000000E+00   0.0000000E+00   0.0000000E+00   0.0000000E+00   0.0000000E+00   0.0000000E+00   0.0000000E+00   0.0000000E+00   0.0000000E+00   0.0000000E+00   0.0000000E+00   0.0000000E+00   0.0000000E+00   0.0000000E+00   0.0000000E+00   0.0000000E+00   0.0000000E+00   0.0000000E+00   0.0000000E+00   0.0000000E+00   0.0000000E+00   0.0000000E+00   0.0000000E+00   0.0000000E+00   0.0000000E+00   0.0000000E+00   0.0000000E+00   0.0000000E+00   0.0000000E+00   0.0000000E+00   0.0000000E+00   0.0000000E+00   0.0000000E+00   0.0000000E+00   0.0000000E+00   0.0000000E+00   0.0000000E+00   0.0000000E+00   0.0000000E+00   0.0000000E+00   0.0000000E+00   0.0000000E+00   0.0000000E+00   0.0000000E+00   0.0000000E+00   0.0000000E+00   0.0000000E+00   0.0000000E+00   0.0000000E+00   0.0000000E+00   0.0000000E+00   0.0000000E+00   0.0000000E+00   0.0000000E+00   0.0000000E+00   0.0000000E+00   0.0000000E+00   0.0000000E+00   0.0000000E+00   0.0000000E+00   0.0000000E+00   0.0000000E+00   0.0000000E+00   0.0000000E+00   0.0000000E+00   0.0000000E+00   0.0000000E+00   0.0000000E+00   0.0000000E+00   0.0000000E+00   0.0000000E+00   0.0000000E+00   0.0000000E+00   0.0000000E+00   0.0000000E+00   0.0000000E+00   0.0000000E+00   0.0000000E+00   0.0000000E+00   0.0000000E+00   0.0000000E+00   0.0000000E+00   0.0000000E+00   0.0000000E+00   0.0000000E+00   0.0000000E+00   0.0000000E+00   0.0000000E+00   0.0000000E+00   0.0000000E+00   0.0000000E+00   0.0000000E+00   0.0000000E+00   0.0000000E+00   0.0000000E+00   0.0000000E+00   0.0000000E+00   0.0000000E+00   0.0000000E+00   0.0000000E+00   0.0000000E+00   0.0000000E+00   0.0000000E+00   0.0000000E+00   0.0000000E+00   0.0000000E+00   0.0000000E+00   0.0000000E+00   0.0000000E+00   0.0000000E+00   0.0000000E+00   0.0000000E+00   0.0000000E+00   0.0000000E+00   0.0000000E+00   0.0000000E+00   0.0000000E+00   0.0000000E+00   0.0000000E+00   0.0000000E+00   0.0000000E+00   0.0000000E+00   0.0000000E+00   0.0000000E+00   0.0000000E+00   0.0000000E+00   0.0000000E+00   0.0000000E+00   0.0000000E+00   0.0000000E+00   0.0000000E+00   0.0000000E+00   0.0000000E+00   0.0000000E+00   0.0000000E+00   0.0000000E+00   0.0000000E+00   0.0000000E+00   0.0000000E+00   0.0000000E+00   0.0000000E+00   0.0000000E+00   0.0000000E+00   0.0000000E+00   0.0000000E+00   0.0000000E+00   0.0000000E+00   0.0000000E+00   0.0000000E+00   0.0000000E+00   0.0000000E+00   0.0000000E+00   0.0000000E+00   0.0000000E+00   0.0000000E+00   0.0000000E+00   0.0000000E+00   0.0000000E+00   0.0000000E+00   0.0000000E+00   0.0000000E+00   0.0000000E+00   0.0000000E+00   0.0000000E+00   0.0000000E+00   0.0000000E+00   0.0000000E+00   0.0000000E+00   0.0000000E+00   0.0000000E+00   0.0000000E+00   0.0000000E+00   0.0000000E+00   0.0000000E+00   0.0000000E+00   0.0000000E+00   0.0000000E+00   0.0000000E+00   0.0000000E+00   0.0000000E+00   0.0000000E+00   0.0000000E+00   0.0000000E+00   0.0000000E+00   0.0000000E+00   0.0000000E+00   0.0000000E+00   0.0000000E+00   0.0000000E+00   0.0000000E+00   0.0000000E+00   0.0000000E+00   0.0000000E+00   0.0000000E+00   0.0000000E+00   0.0000000E+00   0.0000000E+00   0.0000000E+00   0.0000000E+00   0.0000000E+00   0.0000000E+00   0.0000000E+00   0.0000000E+00   0.0000000E+00   0.0000000E+00   0.0000000E+00   0.0000000E+00   0.0000000E+00   0.0000000E+00   0.0000000E+00   0.0000000E+00   0.0000000E+00   0.0000000E+00   0.0000000E+00   0.0000000E+00   0.0000000E+00   0.0000000E+00   0.0000000E+00   0.0000000E+00   0.0000000E+00   0.0000000E+00   0.0000000E+00   0.0000000E+00   0.0000000E+00   0.0000000E+00   0.0000000E+00   0.0000000E+00   0.0000000E+00   0.0000000E+00   0.0000000E+00   0.0000000E+00   0.0000000E+00   0.0000000E+00   0.0000000E+00   0.0000000E+00   0.0000000E+00   0.0000000E+00   0.0000000E+00   0.0000000E+00   0.0000000E+00   0.0000000E+00   0.0000000E+00   0.0000000E+00   0.0000000E+00   0.0000000E+00   0.0000000E+00   0.0000000E+00   0.0000000E+00   0.0000000E+00   0.0000000E+00   0.0000000E+00   0.0000000E+00   0.0000000E+00   0.0000000E+00   0.0000000E+00   0.0000000E+00   0.0000000E+00   0.0000000E+00   0.0000000E+00   0.0000000E+00   0.0000000E+00   0.0000000E+00   0.0000000E+00   0.0000000E+00   0.0000000E+00   0.0000000E+00   0.0000000E+00   0.0000000E+00   0.0000000E+00   0.0000000E+00   0.0000000E+00   0.0000000E+00   0.0000000E+00   0.0000000E+00   0.0000000E+00   0.0000000E+00   0.0000000E+00   0.0000000E+00   0.0000000E+00   0.0000000E+00   0.0000000E+00   0.0000000E+00   0.0000000E+00   0.0000000E+00   0.0000000E+00   0.0000000E+00   0.0000000E+00   0.0000000E+00   0.0000000E+00   0.0000000E+00   0.0000000E+00   0.0000000E+00   0.0000000E+00   0.0000000E+00   0.0000000E+00   0.0000000E+00   0.0000000E+00   0.0000000E+00   0.0000000E+00   0.0000000E+00   0.0000000E+00   0.0000000E+00   0.0000000E+00   0.0000000E+00   0.0000000E+00   0.0000000E+00   0.0000000E+00   0.0000000E+00   0.0000000E+00   0.0000000E+00   0.0000000E+00   0.0000000E+00   0.0000000E+00   0.0000000E+00   0.0000000E+00   0.0000000E+00   0.0000000E+00   0.0000000E+00   0.0000000E+00   0.0000000E+00   0.0000000E+00   0.0000000E+00   0.0000000E+00   0.0000000E+00   0.0000000E+00   0.0000000E+00   0.0000000E+00   0.0000000E+00   0.0000000E+00   0.0000000E+00   0.0000000E+00   0.0000000E+00   0.0000000E+00   0.0000000E+00   0.0000000E+00   0.0000000E+00   0.0000000E+00   0.0000000E+00   0.0000000E+00   0.0000000E+00   0.0000000E+00   0.0000000E+00   0.0000000E+00   0.0000000E+00   0.0000000E+00   0.0000000E+00   0.0000000E+00   0.0000000E+00   0.0000000E+00   0.0000000E+00   0.0000000E+00   0.0000000E+00   0.0000000E+00   0.0000000E+00   0.0000000E+00   0.0000000E+00   0.0000000E+00   0.0000000E+00   0.0000000E+00   0.0000000E+00   0.0000000E+00   0.0000000E+00   0.0000000E+00   0.0000000E+00   0.0000000E+00   0.0000000E+00   0.0000000E+00   0.0000000E+00   0.0000000E+00   0.0000000E+00   0.0000000E+00   0.0000000E+00   0.0000000E+00   0.0000000E+00   0.0000000E+00   0.0000000E+00   0.0000000E+00   0.0000000E+00   0.0000000E+00   0.0000000E+00   0.0000000E+00   0.0000000E+00   0.0000000E+00   0.0000000E+00   0.0000000E+00   0.0000000E+00   0.0000000E+00   0.0000000E+00   0.0000000E+00   0.0000000E+00   0.0000000E+00   0.0000000E+00   0.0000000E+00   0.0000000E+00   0.0000000E+00   0.0000000E+00   0.0000000E+00   0.0000000E+00   0.0000000E+00   0.0000000E+00   0.0000000E+00   0.0000000E+00   0.0000000E+00   0.0000000E+00   0.0000000E+00   0.0000000E+00   0.0000000E+00   0.0000000E+00   0.0000000E+00   0.0000000E+00   0.0000000E+00   0.0000000E+00   0.0000000E+00   0.0000000E+00   0.0000000E+00   0.0000000E+00   0.0000000E+00   0.0000000E+00   0.0000000E+00   0.0000000E+00   0.0000000E+00   0.0000000E+00   0.0000000E+00   0.0000000E+00   0.0000000E+00   0.0000000E+00   0.0000000E+00   0.0000000E+00   0.0000000E+00   0.0000000E+00   0.0000000E+00   0.0000000E+00   0.0000000E+00   0.0000000E+00   0.0000000E+00   0.0000000E+00   0.0000000E+00   0.0000000E+00   0.0000000E+00   0.0000000E+00   0.0000000E+00   0.0000000E+00   0.0000000E+00   0.0000000E+00   0.0000000E+00   0.0000000E+00   0.0000000E+00   0.0000000E+00   0.0000000E+00   0.0000000E+00   0.0000000E+00   0.0000000E+00   0.0000000E+00   0.0000000E+00   0.0000000E+00   0.0000000E+00   0.0000000E+00   0.0000000E+00   0.0000000E+00   0.0000000E+00   0.0000000E+00   0.0000000E+00   0.0000000E+00   0.0000000E+00   0.0000000E+00   0.0000000E+00   0.0000000E+00   0.0000000E+00   0.0000000E+00   0.0000000E+00   0.0000000E+00   0.0000000E+00   0.0000000E+00   0.0000000E+00   0.0000000E+00   0.0000000E+00   0.0000000E+00   0.0000000E+00   0.0000000E+00   0.0000000E+00   0.0000000E+00   0.0000000E+00   0.0000000E+00   0.0000000E+00   0.0000000E+00   0.0000000E+00   0.0000000E+00   0.0000000E+00   0.0000000E+00   0.0000000E+00   0.0000000E+00   0.0000000E+00   0.0000000E+00   0.0000000E+00   0.0000000E+00   0.0000000E+00   0.0000000E+00   0.0000000E+00   0.0000000E+00   0.0000000E+00   0.0000000E+00   0.0000000E+00   0.0000000E+00   0.0000000E+00   0.0000000E+00   0.0000000E+00   0.0000000E+00   0.0000000E+00   0.0000000E+00   0.0000000E+00   0.0000000E+00   0.0000000E+00   0.0000000E+00   0.0000000E+00   0.0000000E+00   0.0000000E+00   0.0000000E+00   0.0000000E+00   0.0000000E+00   0.0000000E+00   0.0000000E+00   0.0000000E+00   0.0000000E+00   0.0000000E+00   0.0000000E+00   0.0000000E+00   0.0000000E+00   0.0000000E+00   0.0000000E+00   0.0000000E+00   0.0000000E+00   0.0000000E+00   0.0000000E+00   0.0000000E+00   0.0000000E+00   0.0000000E+00   0.0000000E+00   0.0000000E+00   0.0000000E+00   0.0000000E+00   0.0000000E+00   0.0000000E+00   0.0000000E+00   0.0000000E+00   0.0000000E+00   0.0000000E+00   0.0000000E+00   0.0000000E+00   0.0000000E+00   0.0000000E+00   0.0000000E+00   0.0000000E+00   0.0000000E+00   0.0000000E+00   0.0000000E+00   0.0000000E+00   0.0000000E+00   0.0000000E+00   0.0000000E+00   0.0000000E+00   0.0000000E+00   0.0000000E+00   0.0000000E+00   0.0000000E+00   0.0000000E+00   0.0000000E+00   0.0000000E+00   0.0000000E+00   0.0000000E+00   0.0000000E+00   0.0000000E+00   0.0000000E+00   0.0000000E+00   0.0000000E+00   0.0000000E+00   0.0000000E+00   0.0000000E+00   0.0000000E+00   0.0000000E+00   0.0000000E+00   0.0000000E+00   0.0000000E+00   0.0000000E+00   0.0000000E+00   0.0000000E+00   0.0000000E+00   0.0000000E+00   0.0000000E+00   0.0000000E+00   0.0000000E+00   0.0000000E+00   0.0000000E+00   0.0000000E+00   0.0000000E+00   0.0000000E+00   0.0000000E+00   0.0000000E+00   0.0000000E+00   0.0000000E+00   0.0000000E+00   0.0000000E+00   0.0000000E+00   0.0000000E+00   0.0000000E+00   0.0000000E+00   0.0000000E+00   0.0000000E+00   0.0000000E+00   0.0000000E+00   0.0000000E+00   0.0000000E+00   0.0000000E+00   0.0000000E+00   0.0000000E+00   0.0000000E+00   0.0000000E+00   0.0000000E+00   0.0000000E+00   0.0000000E+00   0.0000000E+00   0.0000000E+00   0.0000000E+00   0.0000000E+00   0.0000000E+00   0.0000000E+00   0.0000000E+00   0.0000000E+00   0.0000000E+00   0.0000000E+00   0.0000000E+00   0.0000000E+00   0.0000000E+00   0.0000000E+00   0.0000000E+00   0.0000000E+00   0.0000000E+00   0.0000000E+00   0.0000000E+00   0.0000000E+00   0.0000000E+00   0.0000000E+00   0.0000000E+00   0.0000000E+00   0.0000000E+00   0.0000000E+00   0.0000000E+00   0.0000000E+00   0.0000000E+00   0.0000000E+00   0.0000000E+00   0.0000000E+00   0.0000000E+00   0.0000000E+00   0.0000000E+00   0.0000000E+00   0.0000000E+00   0.0000000E+00   0.0000000E+00   0.0000000E+00   0.0000000E+00   0.0000000E+00   0.0000000E+00   0.0000000E+00   0.0000000E+00   0.0000000E+00   0.0000000E+00   0.0000000E+00   0.0000000E+00   0.0000000E+00   0.0000000E+00   0.0000000E+00   0.0000000E+00   0.0000000E+00   0.0000000E+00   0.0000000E+00   0.0000000E+00   0.0000000E+00   0.0000000E+00   0.0000000E+00   0.0000000E+00   0.0000000E+00   0.0000000E+00   0.0000000E+00   0.0000000E+00   0.0000000E+00   0.0000000E+00   0.0000000E+00   0.0000000E+00   0.0000000E+00   0.0000000E+00   0.0000000E+00   0.0000000E+00   0.0000000E+00   0.0000000E+00   0.0000000E+00   0.0000000E+00   0.0000000E+00   0.0000000E+00   0.0000000E+00   0.0000000E+00   0.0000000E+00   0.0000000E+00   0.0000000E+00   0.0000000E+00   0.0000000E+00   0.0000000E+00   0.0000000E+00   0.0000000E+00   0.0000000E+00   0.0000000E+00   0.0000000E+00   0.0000000E+00   0.0000000E+00   0.0000000E+00   0.0000000E+00   0.0000000E+00   0.0000000E+00   0.0000000E+00   0.0000000E+00   0.0000000E+00   0.0000000E+00   0.0000000E+00   0.0000000E+00   0.0000000E+00   0.0000000E+00   0.0000000E+00   0.0000000E+00   0.0000000E+00   0.0000000E+00   0.0000000E+00   0.0000000E+00   0.0000000E+00   0.0000000E+00   0.0000000E+00   0.0000000E+00   0.0000000E+00   0.0000000E+00   0.0000000E+00   0.0000000E+00   0.0000000E+00   0.0000000E+00   0.0000000E+00   0.0000000E+00   0.0000000E+00   0.0000000E+00   0.0000000E+00   0.0000000E+00   0.0000000E+00   0.0000000E+00   0.0000000E+00   0.0000000E+00   0.0000000E+00   0.0000000E+00   0.0000000E+00   0.0000000E+00   0.0000000E+00   0.0000000E+00   0.0000000E+00   0.0000000E+00   0.0000000E+00   0.0000000E+00   0.0000000E+00   0.0000000E+00   0.0000000E+00   0.0000000E+00   0.0000000E+00   0.0000000E+00   0.0000000E+00   0.0000000E+00   0.0000000E+00   0.0000000E+00   0.0000000E+00   0.0000000E+00   0.0000000E+00   0.0000000E+00   0.0000000E+00   0.0000000E+00   0.0000000E+00   0.0000000E+00   0.0000000E+00   0.0000000E+00   0.0000000E+00   0.0000000E+00   0.0000000E+00   0.0000000E+00   0.0000000E+00   0.0000000E+00   0.0000000E+00   0.0000000E+00   0.0000000E+00   0.0000000E+00   0.0000000E+00   0.0000000E+00   0.0000000E+00   0.0000000E+00   0.0000000E+00   0.0000000E+00   0.0000000E+00   0.0000000E+00   0.0000000E+00   0.0000000E+00   0.0000000E+00   0.0000000E+00   0.0000000E+00   0.0000000E+00   0.0000000E+00   0.0000000E+00   0.0000000E+00   0.0000000E+00   0.0000000E+00   0.0000000E+00   0.0000000E+00   0.0000000E+00   0.0000000E+00   0.0000000E+00   0.0000000E+00   0.0000000E+00   0.0000000E+00   0.0000000E+00   0.0000000E+00   0.0000000E+00   0.0000000E+00   0.0000000E+00   0.0000000E+00   0.0000000E+00   0.0000000E+00   0.0000000E+00   0.0000000E+00   0.0000000E+00   0.0000000E+00   0.0000000E+00   0.0000000E+00   0.0000000E+00   0.0000000E+00   0.0000000E+00   0.0000000E+00   0.0000000E+00   0.0000000E+00   0.0000000E+00   0.0000000E+00   0.0000000E+00   0.0000000E+00   0.0000000E+00   0.0000000E+00   0.0000000E+00   0.0000000E+00   0.0000000E+00   0.0000000E+00   0.0000000E+00   0.0000000E+00   0.0000000E+00   0.0000000E+00   0.0000000E+00   0.0000000E+00   0.0000000E+00   0.0000000E+00   0.0000000E+00   0.0000000E+00   0.0000000E+00   0.0000000E+00   0.0000000E+00   0.0000000E+00   0.0000000E+00   0.0000000E+00   0.0000000E+00   0.0000000E+00   0.0000000E+00   0.0000000E+00   0.0000000E+00   0.0000000E+00   0.0000000E+00   0.0000000E+00   9.8762624E-02   9.8762624E-02   9.8762624E-02   9.8762624E-02   9.8762624E-02   9.8762624E-02   9.8762624E-02   9.8762624E-02   9.8762624E-02   9.8762624E-02   9.8762624E-02   9.8762624E-02   9.8762624E-02   9.8762617E-02   9.8762617E-02   9.8762617E-02   9.8762617E-02   9.8762617E-02   1.9752523E-01   1.9752523E-01   1.9752523E-01   1.9752523E-01   1.9752523E-01   1.9752523E-01   1.9752523E-01   1.9752520E-01   1.9752520E-01   2.9628780E-01   2.9628780E-01   2.9628780E-01   2.9628780E-01   3.9505041E-01   3.9505041E-01   3.9505041E-01   3.9505041E-01   3.9505041E-01   3.9505041E-01   5.9257555E-01   5.9257555E-01   5.9257555E-01   5.9257555E-01   5.9257555E-01   6.9133818E-01   8.8886321E-01   8.8886321E-01   8.8886321E-01   8.8886321E-01   8.8886321E-01   8.8886321E-01   1.2839134E+00   1.2839134E+00   1.2839134E+00   1.2839134E+00   1.2839134E+00   1.3826759E+00   1.8764883E+00   1.8764883E+00   1.8764883E+00   1.8764883E+00   1.8764883E+00   1.9752508E+00   2.8641129E+00   2.8641129E+00   2.7653503E+00   2.7653503E+00   2.8641129E+00   2.8641129E+00   4.0492616E+00   3.9504991E+00   3.8517365E+00   3.8517365E+00   3.9504991E+00   3.9504991E+00   6.1232696E+00   5.8269825E+00   5.7282200E+00   5.6294575E+00   5.6294575E+00   5.7282200E+00   8.8886108E+00   8.5923233E+00   8.1972742E+00   7.9009871E+00   7.9997497E+00   8.1972742E+00   1.2542805E+01   1.1950232E+01   1.1258896E+01   1.0962609E+01   1.1061371E+01   1.1258896E+01   1.8666039E+01   1.7579655E+01   1.6196985E+01   1.5801937E+01   1.5999462E+01   1.6592035E+01   2.9134768E+01   2.7159529E+01   2.5184290E+01   2.4492956E+01   2.5085529E+01   2.6171909E+01   5.1849884E+01   4.8689510E+01   4.5924183E+01   4.5430374E+01   4.6615517E+01   4.8393227E+01   1.0784740E+02   1.0350189E+02   1.0053905E+02   1.0034153E+02   1.0241552E+02   1.0557588E+02   2.4858119E+02   2.4423572E+02   2.4275430E+02   2.4334686E+02   2.4700102E+02   2.5203783E+02   5.7409363E+02   5.7201965E+02   5.7508124E+02   5.7873535E+02   5.8466095E+02   5.9216675E+02   1.1740527E+03   1.1782994E+03   1.1912369E+03   1.2003228E+03   1.2097050E+03   1.2202722E+03   1.9283562E+03   1.9407998E+03   1.9668719E+03   1.9833646E+03   1.9965983E+03   2.0104244E+03   2.5259053E+03   2.5439778E+03   2.5804192E+03   2.6028369E+03   2.6196255E+03   2.6365129E+03   2.8482891E+03   2.8676450E+03   2.9090232E+03   2.9346008E+03   2.9538579E+03   2.9733127E+03   2.9869575E+03   3.0053254E+03   3.0477888E+03   3.0745508E+03   3.0952888E+03   3.1165205E+03   3.0418501E+03   3.0583411E+03   3.1005068E+03   3.1275637E+03   3.1490911E+03   3.1717043E+03   3.0644097E+03   3.0794187E+03   3.1208911E+03   3.1478479E+03   3.1698679E+03   3.1931714E+03   3.0750642E+03   3.0891836E+03   3.1300608E+03   3.1568184E+03   3.1791331E+03   3.2028298E+03   3.0788328E+03   3.0926545E+03   3.1332319E+03   3.1597898E+03   3.1821023E+03   3.2058958E+03   3.0794426E+03   3.0934602E+03   3.1341311E+03   3.1607844E+03   3.1828967E+03   3.2063911E+03   3.0309653E+03   3.0450793E+03   3.0850527E+03   3.1112080E+03   3.1329219E+03   3.1560176E+03   2.9334866E+03   2.9471040E+03   2.9858843E+03   3.0112444E+03   3.0321641E+03   3.0545640E+03   2.7931155E+03   2.8059397E+03   2.8427354E+03   2.8669043E+03   2.8869297E+03   2.9083362E+03   2.6174465E+03   2.6292795E+03   2.6636938E+03   2.6862749E+03   2.7052075E+03   2.7255208E+03   2.4158523E+03   2.4265947E+03   2.4580334E+03   2.4790254E+03   2.4967651E+03   2.5156875E+03   2.1975122E+03   2.2069663E+03   2.2355259E+03   2.2546313E+03   2.2709792E+03   2.2886074E+03   1.9718053E+03   1.9799711E+03   2.0054525E+03   2.0227679E+03   2.0377223E+03   2.0539558E+03   1.7474200E+03   1.7542977E+03   1.7766992E+03   1.7921249E+03   1.8057820E+03   1.8205199E+03   1.5319546E+03   1.5370546E+03   1.5563756E+03   1.5702045E+03   1.5825620E+03   1.5959004E+03   1.3313217E+03   1.3346482E+03   1.3510854E+03   1.3634135E+03   1.3743718E+03   1.3863085E+03   1.1500338E+03   1.1511066E+03   1.1647605E+03   1.1755859E+03   1.1854362E+03   1.1958716E+03   9.8992682E+02   9.8915015E+02   1.0000264E+03   1.0099316E+03   1.0184772E+03   1.0275083E+03   8.5172241E+02   8.4940521E+02   8.5761267E+02   8.6678564E+02   8.7441370E+02   8.8194519E+02   7.3195367E+02   7.3751196E+02   7.4594531E+02   7.5274939E+02   7.5907428E+02   6.3554602E+02   6.3810815E+02   6.4512994E+02   6.5158234E+02   6.5670630E+02   5.5743457E+02   5.6249298E+02   5.6839447E+02   5.7307813E+02   4.9243802E+02   4.9529431E+02   5.0036166E+02   5.0496844E+02   4.4106317E+02   4.4494260E+02   4.4936340E+02   3.9980807E+02   4.0367538E+02   3.6279535E+02   3.6586063E+02   0.0000000E+00   0.0000000E+00   0.0000000E+00   0.0000000E+00   0.0000000E+00   0.0000000E+00   0.0000000E+00   0.0000000E+00   0.0000000E+00   0.0000000E+00   0.0000000E+00   0.0000000E+00   0.0000000E+00   0.0000000E+00   0.0000000E+00   0.0000000E+00   0.0000000E+00   0.0000000E+00   0.0000000E+00   0.0000000E+00   0.0000000E+00   0.0000000E+00   0.0000000E+00   0.0000000E+00   0.0000000E+00   0.0000000E+00   0.0000000E+00   0.0000000E+00   0.0000000E+00   0.0000000E+00   0.0000000E+00   0.0000000E+00   0.0000000E+00   0.0000000E+00   0.0000000E+00   0.0000000E+00   0.0000000E+00   0.0000000E+00   0.0000000E+00   0.0000000E+00   0.0000000E+00   0.0000000E+00   0.0000000E+00   0.0000000E+00   0.0000000E+00   0.0000000E+00   0.0000000E+00   0.0000000E+00   0.0000000E+00   0.0000000E+00   0.0000000E+00   0.0000000E+00   0.0000000E+00   0.0000000E+00   0.0000000E+00   0.0000000E+00   0.0000000E+00   0.0000000E+00   0.0000000E+00   0.0000000E+00   0.0000000E+00   0.0000000E+00   0.0000000E+00   0.0000000E+00   0.0000000E+00   0.0000000E+00   0.0000000E+00   0.0000000E+00   0.0000000E+00   0.0000000E+00   0.0000000E+00   0.0000000E+00   0.0000000E+00   0.0000000E+00   0.0000000E+00   0.0000000E+00   0.0000000E+00   0.0000000E+00   0.0000000E+00   0.0000000E+00   0.0000000E+00   0.0000000E+00   0.0000000E+00   0.0000000E+00   0.0000000E+00   0.0000000E+00   0.0000000E+00   0.0000000E+00   0.0000000E+00   0.0000000E+00   9.8762624E-02   9.8762624E-02   9.8762624E-02   9.8762624E-02   9.8762624E-02   9.8762624E-02   9.8762624E-02   9.8762624E-02   9.8762624E-02   9.8762624E-02   9.8762624E-02   9.8762624E-02   9.8762624E-02   9.8762624E-02   9.8762624E-02   9.8762624E-02   9.8762624E-02   9.8762624E-02   9.8762624E-02   9.8762624E-02   9.8762624E-02   9.8762624E-02   9.8762624E-02   9.8762624E-02   9.8762624E-02   9.8762624E-02   9.8762624E-02   1.9752523E-01   1.9752523E-01   1.9752523E-01   1.9752523E-01   1.9752523E-01   1.9752523E-01   1.9752523E-01   1.9752523E-01   1.9752523E-01   1.9752523E-01   1.9752523E-01   1.9752523E-01   1.9752523E-01   1.9752523E-01   1.9752523E-01   1.9752523E-01   1.9752523E-01   1.9752523E-01   2.9628780E-01   2.9628780E-01   2.9628780E-01   2.9628780E-01   3.9505041E-01   3.9505041E-01   3.9505041E-01   3.9505041E-01   3.9505041E-01   3.9505041E-01   3.9505041E-01   3.9505041E-01   3.9505041E-01   4.9381301E-01   4.9381301E-01   4.9381301E-01   4.9381301E-01   4.9381301E-01   6.9133818E-01   6.9133818E-01   6.9133818E-01   6.9133818E-01   6.9133818E-01   7.9010075E-01   7.9010075E-01   7.9010075E-01   7.9010075E-01   9.8762578E-01   9.8762578E-01   9.8762578E-01   9.8762578E-01   9.8762578E-01   1.0863883E+00   1.0863883E+00   1.0863883E+00   1.0863883E+00   1.3826759E+00   1.3826759E+00   1.4814385E+00   1.4814385E+00   1.4814385E+00   1.4814385E+00   1.4814385E+00   1.4814385E+00   1.4814385E+00   2.0740135E+00   2.1727760E+00   2.1727760E+00   2.1727760E+00   2.1727760E+00   2.1727760E+00   2.2715385E+00   2.2715385E+00   2.2715385E+00   2.9628754E+00   2.9628754E+00   3.0616379E+00   3.0616379E+00   3.0616379E+00   3.1604004E+00   3.1604004E+00   3.1604004E+00   3.1604004E+00   4.0492616E+00   4.1480241E+00   4.1480241E+00   4.3455491E+00   4.3455491E+00   4.4443111E+00   4.4443111E+00   4.4443111E+00   4.4443111E+00   5.9257450E+00   6.0245075E+00   6.0245075E+00   6.1232696E+00   6.2220321E+00   6.2220321E+00   6.2220321E+00   6.3207946E+00   6.3207946E+00   8.2960367E+00   8.5923233E+00   8.6910858E+00   8.7898483E+00   8.8886108E+00   8.8886108E+00   8.8886108E+00   8.8886108E+00   8.8886108E+00   1.1653945E+01   1.1851469E+01   1.2048994E+01   1.2147756E+01   1.2246518E+01   1.2345281E+01   1.2345281E+01   1.2444043E+01   1.2542805E+01   1.7184607E+01   1.7579655E+01   1.7875942E+01   1.8073465E+01   1.8172228E+01   1.8270990E+01   1.8369753E+01   1.8369753E+01   1.8468515E+01   2.7159529E+01   2.7949625E+01   2.8443434E+01   2.8739719E+01   2.8937244E+01   2.9036005E+01   2.9134768E+01   2.9233530E+01   2.9233530E+01   5.0269699E+01   5.1652363E+01   5.2541218E+01   5.3035027E+01   5.3331310E+01   5.3430073E+01   5.3627594E+01   5.3627594E+01   5.3726357E+01   1.0873624E+02   1.1110652E+02   1.1268670E+02   1.1347679E+02   1.1387183E+02   1.1406936E+02   1.1416812E+02   1.1426688E+02   1.1436565E+02   2.5707462E+02   2.6092630E+02   2.6329657E+02   2.6458044E+02   2.6517303E+02   2.6546930E+02   2.6566684E+02   2.6576559E+02   2.6586435E+02   5.9957379E+02   6.0530188E+02   6.0895599E+02   6.1093121E+02   6.1182007E+02   6.1231384E+02   6.1251135E+02   6.1270892E+02   6.1270892E+02   1.2304445E+03   1.2385427E+03   1.2437770E+03   1.2465422E+03   1.2478262E+03   1.2484187E+03   1.2487150E+03   1.2489125E+03   1.2490112E+03   2.0236581E+03   2.0342252E+03   2.0411383E+03   2.0447924E+03   2.0464712E+03   2.0472614E+03   2.0476564E+03   2.0478539E+03   2.0480513E+03   2.6526104E+03   2.6655476E+03   2.6740405E+03   2.6784846E+03   2.6807561E+03   2.6816450E+03   2.6821387E+03   2.6824351E+03   2.6825337E+03   2.9917798E+03   3.0067905E+03   3.0165674E+03   3.0219001E+03   3.0244678E+03   3.0255540E+03   3.0261465E+03   3.0264429E+03   3.0266404E+03   3.1369622E+03   3.1534539E+03   3.1644153E+03   3.1702417E+03   3.1731055E+03   3.1742905E+03   3.1749817E+03   3.1753767E+03   3.1755742E+03   3.1933303E+03   3.2110063E+03   3.2226587E+03   3.2288799E+03   3.2319412E+03   3.2332249E+03   3.2339160E+03   3.2343110E+03   3.2345085E+03   3.2157837E+03   3.2340513E+03   3.2459993E+03   3.2524175E+03   3.2555774E+03   3.2570583E+03   3.2576509E+03   3.2580459E+03   3.2582434E+03   3.2258357E+03   3.2443982E+03   3.2566416E+03   3.2632568E+03   3.2663179E+03   3.2677988E+03   3.2683911E+03   3.2687861E+03   3.2689836E+03   3.2288992E+03   3.2474602E+03   3.2597024E+03   3.2663171E+03   3.2693777E+03   3.2707600E+03   3.2715498E+03   3.2718459E+03   3.2721421E+03   3.2291946E+03   3.2476545E+03   3.2596978E+03   3.2662131E+03   3.2692732E+03   3.2707539E+03   3.2714451E+03   3.2717412E+03   3.2720374E+03   3.1783237E+03   3.1964846E+03   3.2082297E+03   3.2145466E+03   3.2176062E+03   3.2188894E+03   3.2196790E+03   3.2200737E+03   3.2202710E+03   3.0760757E+03   3.0935415E+03   3.1049880E+03   3.1112048E+03   3.1141650E+03   3.1154480E+03   3.1161387E+03   3.1165334E+03   3.1167307E+03   2.9290522E+03   2.9457239E+03   2.9566738E+03   2.9625925E+03   2.9654534E+03   2.9666372E+03   2.9672290E+03   2.9676235E+03   2.9678210E+03   2.7450452E+03   2.7609211E+03   2.7712749E+03   2.7767969E+03   2.7794592E+03   2.7806426E+03   2.7813330E+03   2.7816287E+03   2.7818259E+03   2.5340186E+03   2.5489001E+03   2.5584600E+03   2.5636833E+03   2.5661472E+03   2.5672312E+03   2.5678225E+03   2.5681182E+03   2.5683152E+03   2.3055461E+03   2.3192351E+03   2.3281968E+03   2.3329241E+03   2.3351890E+03   2.3362725E+03   2.3367646E+03   2.3370603E+03   2.3372571E+03   2.0695005E+03   2.0819954E+03   2.0901611E+03   2.0944900E+03   2.0966545E+03   2.0976382E+03   2.0980317E+03   2.0983269E+03   2.0984253E+03   1.8346682E+03   1.8460654E+03   1.8535327E+03   1.8574629E+03   1.8593297E+03   1.8602140E+03   1.8607052E+03   1.8609017E+03   1.8610000E+03   1.6086505E+03   1.6190466E+03   1.6258138E+03   1.6294427E+03   1.6311100E+03   1.6318947E+03   1.6323850E+03   1.6325812E+03   1.6326792E+03   1.3978536E+03   1.4071486E+03   1.4133125E+03   1.4166392E+03   1.4183024E+03   1.4189873E+03   1.4194764E+03   1.4196722E+03   1.4198679E+03   1.2061118E+03   1.2144991E+03   1.2201556E+03   1.2234716E+03   1.2250320E+03   1.2258123E+03   1.2262999E+03   1.2263975E+03   1.2264949E+03   1.0363453E+03   1.0439198E+03   1.0492607E+03   1.0524653E+03   1.0541162E+03   1.0549902E+03   1.0553787E+03   1.0555729E+03   1.0556699E+03   8.8947662E+02   8.9604242E+02   9.0106335E+02   9.0424976E+02   9.0608429E+02   9.0704987E+02   9.0753265E+02   9.0782233E+02   9.0791888E+02   7.6511169E+02   7.7066992E+02   7.7526978E+02   7.7852802E+02   7.8054047E+02   7.8178632E+02   7.8236133E+02   7.8274463E+02   7.8293628E+02   6.6154553E+02   6.6619507E+02   6.7027515E+02   6.7340637E+02   6.7568365E+02   6.7710699E+02   6.7786609E+02   6.7843542E+02   6.7862518E+02   5.7691876E+02   5.8047833E+02   5.8403784E+02   5.8694171E+02   5.8918982E+02   5.9087585E+02   5.9199994E+02   5.9265564E+02   5.9293665E+02   5.0828528E+02   5.1114145E+02   5.1390540E+02   5.1639301E+02   5.1860413E+02   5.2026251E+02   5.2155237E+02   5.2238153E+02   5.2275006E+02   4.5279178E+02   4.5531799E+02   4.5757346E+02   4.5955826E+02   4.6136261E+02   4.6289633E+02   4.6406912E+02   4.6488107E+02   4.6533215E+02   4.0727905E+02   4.1009171E+02   4.1211334E+02   4.1369547E+02   4.1510175E+02   4.1624438E+02   4.1721121E+02   4.1782645E+02   4.1835382E+02   3.6901108E+02   3.7190619E+02   3.7429037E+02   3.7599344E+02   3.7718558E+02   3.7803711E+02   3.7871832E+02   3.7914407E+02   3.7948468E+02   3.3738458E+02   3.3951694E+02   3.4164932E+02   3.4353571E+02   3.4493005E+02   3.4583231E+02   3.4648846E+02   3.4689859E+02   3.4714465E+02   3.1331882E+02   3.1434024E+02   3.1551883E+02   3.1669745E+02   3.1771890E+02   3.1842609E+02   3.1889758E+02   3.1913330E+02   2.9308142E+02   2.9315637E+02   2.9353113E+02   2.9375595E+02   2.9390588E+02   2.9398083E+02   2.7535840E+02   2.7514456E+02   2.7478815E+02   2.7457431E+02   0.0000000E+00   0.0000000E+00   0.0000000E+00   0.0000000E+00   0.0000000E+00   0.0000000E+00   0.0000000E+00   0.0000000E+00   0.0000000E+00   0.0000000E+00   0.0000000E+00   0.0000000E+00   0.0000000E+00   0.0000000E+00   0.0000000E+00   0.0000000E+00   0.0000000E+00   0.0000000E+00   0.0000000E+00   0.0000000E+00   0.0000000E+00   0.0000000E+00   0.0000000E+00   0.0000000E+00   0.0000000E+00   0.0000000E+00   0.0000000E+00   0.0000000E+00   0.0000000E+00   0.0000000E+00   0.0000000E+00   0.0000000E+00   0.0000000E+00   0.0000000E+00   0.0000000E+00   0.0000000E+00   0.0000000E+00   0.0000000E+00   0.0000000E+00   0.0000000E+00   0.0000000E+00   0.0000000E+00   0.0000000E+00   0.0000000E+00   0.0000000E+00   0.0000000E+00   0.0000000E+00   0.0000000E+00   0.0000000E+00   0.0000000E+00   0.0000000E+00   0.0000000E+00   0.0000000E+00   0.0000000E+00   0.0000000E+00   0.0000000E+00   0.0000000E+00   0.0000000E+00   0.0000000E+00   0.0000000E+00   0.0000000E+00   0.0000000E+00   0.0000000E+00   0.0000000E+00   0.0000000E+00   0.0000000E+00   0.0000000E+00   0.0000000E+00   0.0000000E+00   0.0000000E+00   0.0000000E+00   0.0000000E+00   0.0000000E+00   0.0000000E+00   0.0000000E+00   0.0000000E+00   0.0000000E+00   0.0000000E+00   0.0000000E+00   0.0000000E+00   9.8762624E-02   9.8762624E-02   9.8762624E-02   9.8762624E-02   9.8762624E-02   9.8762624E-02   9.8762624E-02   9.8762624E-02   9.8762624E-02   9.8762624E-02   9.8762624E-02   9.8762624E-02   9.8762624E-02   9.8762624E-02   9.8762624E-02   9.8762624E-02   9.8762624E-02   9.8762624E-02   9.8762624E-02   9.8762624E-02   9.8762624E-02   9.8762624E-02   9.8762624E-02   9.8762624E-02   1.9752523E-01   1.9752523E-01   1.9752523E-01   1.9752523E-01   1.9752523E-01   1.9752523E-01   1.9752523E-01   1.9752523E-01   1.9752523E-01   1.9752523E-01   1.9752523E-01   1.9752523E-01   1.9752523E-01   1.9752523E-01   1.9752523E-01   1.9752523E-01   3.9505041E-01   3.9505041E-01   3.9505041E-01   3.9505041E-01   3.9505041E-01   3.9505041E-01   2.9628780E-01   2.9628780E-01   4.9381301E-01   4.9381301E-01   4.9381301E-01   4.9381301E-01   4.9381301E-01   4.9381301E-01   3.9505041E-01   3.9505041E-01   7.9010075E-01   7.9010075E-01   7.9010075E-01   7.9010075E-01   7.9010075E-01   6.9133818E-01   6.9133818E-01   6.9133818E-01   1.0863883E+00   1.0863883E+00   1.0863883E+00   1.0863883E+00   1.0863883E+00   9.8762578E-01   9.8762578E-01   9.8762578E-01   1.4814385E+00   1.4814385E+00   1.4814385E+00   1.4814385E+00   1.4814385E+00   1.4814385E+00   1.4814385E+00   1.4814385E+00   2.2715385E+00   2.2715385E+00   2.2715385E+00   2.2715385E+00   2.1727760E+00   2.1727760E+00   2.1727760E+00   2.1727760E+00   3.1604004E+00   3.1604004E+00   3.1604004E+00   3.1604004E+00   3.1604004E+00   3.0616379E+00   3.0616379E+00   3.0616379E+00   4.4443111E+00   4.4443111E+00   4.4443111E+00   4.4443111E+00   4.4443111E+00   4.3455491E+00   4.3455491E+00   4.1480241E+00   6.3207946E+00   6.3207946E+00   6.3207946E+00   6.2220321E+00   6.2220321E+00   6.2220321E+00   6.1232696E+00   6.0245075E+00   8.8886108E+00   8.8886108E+00   8.8886108E+00   8.8886108E+00   8.8886108E+00   8.8886108E+00   8.7898483E+00   8.6910858E+00   1.2542805E+01   1.2542805E+01   1.2444043E+01   1.2345281E+01   1.2345281E+01   1.2246518E+01   1.2147756E+01   1.2048994E+01   1.8468515E+01   1.8468515E+01   1.8369753E+01   1.8369753E+01   1.8270990E+01   1.8172228E+01   1.8073465E+01   1.7875942E+01   2.9233530E+01   2.9233530E+01   2.9233530E+01   2.9134768E+01   2.9036005E+01   2.8937244E+01   2.8739719E+01   2.8443434E+01   5.3726357E+01   5.3726357E+01   5.3627594E+01   5.3627594E+01   5.3430073E+01   5.3331310E+01   5.3035027E+01   5.2541218E+01   1.1436565E+02   1.1436565E+02   1.1426688E+02   1.1416812E+02   1.1406936E+02   1.1387183E+02   1.1347679E+02   1.1268670E+02   2.6586435E+02   2.6586435E+02   2.6576559E+02   2.6566684E+02   2.6546930E+02   2.6517303E+02   2.6458044E+02   2.6329657E+02   6.1270892E+02   6.1270892E+02   6.1270892E+02   6.1251135E+02   6.1231384E+02   6.1182007E+02   6.1093121E+02   6.0895599E+02   1.2490112E+03   1.2490112E+03   1.2489125E+03   1.2487150E+03   1.2484187E+03   1.2478262E+03   1.2465422E+03   1.2437770E+03   2.0480513E+03   2.0480513E+03   2.0478539E+03   2.0476564E+03   2.0472614E+03   2.0464712E+03   2.0447924E+03   2.0411383E+03   2.6826326E+03   2.6825337E+03   2.6824351E+03   2.6821387E+03   2.6816450E+03   2.6807561E+03   2.6784846E+03   2.6740405E+03   3.0266404E+03   3.0266404E+03   3.0264429E+03   3.0261465E+03   3.0255540E+03   3.0244678E+03   3.0219001E+03   3.0165674E+03   3.1755742E+03   3.1755742E+03   3.1753767E+03   3.1749817E+03   3.1742905E+03   3.1731055E+03   3.1702417E+03   3.1644153E+03   3.2345085E+03   3.2345085E+03   3.2343110E+03   3.2339160E+03   3.2332249E+03   3.2319412E+03   3.2288799E+03   3.2226587E+03   3.2583420E+03   3.2582434E+03   3.2580459E+03   3.2576509E+03   3.2570583E+03   3.2555774E+03   3.2524175E+03   3.2459993E+03   3.2690823E+03   3.2689836E+03   3.2687861E+03   3.2683911E+03   3.2677988E+03   3.2663179E+03   3.2632568E+03   3.2566416E+03   3.2722410E+03   3.2721421E+03   3.2718459E+03   3.2715498E+03   3.2707600E+03   3.2693777E+03   3.2663171E+03   3.2597024E+03   3.2721360E+03   3.2720374E+03   3.2717412E+03   3.2714451E+03   3.2707539E+03   3.2692732E+03   3.2662131E+03   3.2596978E+03   3.2203699E+03   3.2202710E+03   3.2200737E+03   3.2196790E+03   3.2188894E+03   3.2176062E+03   3.2145466E+03   3.2082297E+03   3.1167307E+03   3.1167307E+03   3.1165334E+03   3.1161387E+03   3.1154480E+03   3.1141650E+03   3.1112048E+03   3.1049880E+03   2.9679197E+03   2.9678210E+03   2.9676235E+03   2.9672290E+03   2.9666372E+03   2.9654534E+03   2.9625925E+03   2.9566738E+03   2.7819246E+03   2.7818259E+03   2.7816287E+03   2.7813330E+03   2.7806426E+03   2.7794592E+03   2.7767969E+03   2.7712749E+03   2.5683152E+03   2.5683152E+03   2.5681182E+03   2.5678225E+03   2.5672312E+03   2.5661472E+03   2.5636833E+03   2.5584600E+03   2.3372571E+03   2.3372571E+03   2.3370603E+03   2.3367646E+03   2.3362725E+03   2.3351890E+03   2.3329241E+03   2.3281968E+03   2.0984253E+03   2.0984253E+03   2.0983269E+03   2.0980317E+03   2.0976382E+03   2.0966545E+03   2.0944900E+03   2.0901611E+03   1.8610983E+03   1.8610000E+03   1.8609017E+03   1.8607052E+03   1.8602140E+03   1.8593297E+03   1.8574629E+03   1.8535327E+03   1.6327773E+03   1.6326792E+03   1.6325812E+03   1.6323850E+03   1.6318947E+03   1.6311100E+03   1.6294427E+03   1.6258138E+03   1.4198679E+03   1.4198679E+03   1.4196722E+03   1.4194764E+03   1.4189873E+03   1.4183024E+03   1.4166392E+03   1.4133125E+03   1.2265924E+03   1.2264949E+03   1.2263975E+03   1.2262999E+03   1.2258123E+03   1.2250320E+03   1.2234716E+03   1.2201556E+03   1.0557671E+03   1.0556699E+03   1.0555729E+03   1.0553787E+03   1.0549902E+03   1.0541162E+03   1.0524653E+03   1.0492607E+03   9.0791888E+02   9.0791888E+02   9.0782233E+02   9.0753265E+02   9.0704987E+02   9.0608429E+02   9.0424976E+02   9.0106335E+02   7.8293628E+02   7.8293628E+02   7.8274463E+02   7.8236133E+02   7.8178632E+02   7.8054047E+02   7.7852802E+02   7.7526978E+02   6.7872009E+02   6.7862518E+02   6.7843542E+02   6.7786609E+02   6.7710699E+02   6.7568365E+02   6.7340637E+02   6.7027515E+02   5.9303033E+02   5.9293665E+02   5.9265564E+02   5.9199994E+02   5.9087585E+02   5.8918982E+02   5.8694171E+02   5.8403784E+02   5.2293433E+02   5.2275006E+02   5.2238153E+02   5.2155237E+02   5.2026251E+02   5.1860413E+02   5.1639301E+02   5.1390540E+02   4.6551257E+02   4.6533215E+02   4.6488107E+02   4.6406912E+02   4.6289633E+02   4.6136261E+02   4.5955826E+02   4.5757346E+02   4.1852957E+02   4.1835382E+02   4.1782645E+02   4.1721121E+02   4.1624438E+02   4.1510175E+02   4.1369547E+02   4.1211334E+02   3.7965497E+02   3.7948468E+02   3.7914407E+02   3.7871832E+02   3.7803711E+02   3.7718558E+02   3.7599344E+02   3.7429037E+02   3.4722665E+02   3.4714465E+02   3.4689859E+02   3.4648846E+02   3.4583231E+02   3.4493005E+02   3.4353571E+02   3.4164932E+02   3.1921188E+02   3.1913330E+02   3.1889758E+02   3.1842609E+02   3.1771890E+02   3.1669745E+02   3.1551883E+02   3.1434024E+02   2.9398087E+02   2.9398083E+02   2.9390588E+02   2.9375595E+02   2.9353113E+02   2.9315637E+02   2.9308142E+02   2.7443173E+02   2.7457431E+02   2.7478815E+02   2.7514456E+02   2.7535840E+02   0.0000000E+00   0.0000000E+00   0.0000000E+00   0.0000000E+00   0.0000000E+00   0.0000000E+00   0.0000000E+00   0.0000000E+00   0.0000000E+00   0.0000000E+00   0.0000000E+00   0.0000000E+00   0.0000000E+00   0.0000000E+00   0.0000000E+00   0.0000000E+00   0.0000000E+00   0.0000000E+00   0.0000000E+00   0.0000000E+00   0.0000000E+00   0.0000000E+00   0.0000000E+00   0.0000000E+00   0.0000000E+00   0.0000000E+00   0.0000000E+00   0.0000000E+00   0.0000000E+00   0.0000000E+00   0.0000000E+00   0.0000000E+00   0.0000000E+00   0.0000000E+00   0.0000000E+00   0.0000000E+00   0.0000000E+00   0.0000000E+00   0.0000000E+00   0.0000000E+00   0.0000000E+00   0.0000000E+00   0.0000000E+00   0.0000000E+00   0.0000000E+00   0.0000000E+00   0.0000000E+00   0.0000000E+00   0.0000000E+00   0.0000000E+00   0.0000000E+00   0.0000000E+00   0.0000000E+00   0.0000000E+00   0.0000000E+00   0.0000000E+00   0.0000000E+00   0.0000000E+00   0.0000000E+00   0.0000000E+00   0.0000000E+00   0.0000000E+00   0.0000000E+00   0.0000000E+00   0.0000000E+00   0.0000000E+00   0.0000000E+00   0.0000000E+00   0.0000000E+00   0.0000000E+00   0.0000000E+00   0.0000000E+00   0.0000000E+00   0.0000000E+00   0.0000000E+00   0.0000000E+00   0.0000000E+00   0.0000000E+00   0.0000000E+00   9.8762624E-02   9.8762624E-02   9.8762624E-02   0.0000000E+00   0.0000000E+00   0.0000000E+00   0.0000000E+00   0.0000000E+00   9.8762624E-02   9.8762624E-02   9.8762624E-02   9.8762624E-02   9.8762624E-02   9.8762624E-02   9.8762624E-02   9.8762624E-02   9.8762624E-02   9.8762624E-02   9.8762624E-02   9.8762624E-02   9.8762624E-02   9.8762624E-02   9.8762624E-02   9.8762624E-02   1.9752523E-01   1.9752523E-01   1.9752523E-01   9.8762617E-02   9.8762617E-02   9.8762617E-02   9.8762617E-02   9.8762617E-02   1.9752523E-01   1.9752523E-01   1.9752523E-01   1.9752523E-01   1.9752523E-01   1.9752523E-01   1.9752523E-01   1.9752523E-01   2.9628780E-01   2.9628780E-01   2.9628780E-01   2.9628780E-01   2.9628780E-01   2.9628780E-01   1.9752520E-01   1.9752520E-01   3.9505041E-01   3.9505041E-01   3.9505041E-01   3.9505041E-01   3.9505041E-01   3.9505041E-01   3.9505041E-01   3.9505041E-01   6.9133818E-01   6.9133818E-01   6.9133818E-01   5.9257555E-01   5.9257555E-01   5.9257555E-01   5.9257555E-01   5.9257555E-01   9.8762578E-01   9.8762578E-01   8.8886321E-01   8.8886321E-01   8.8886321E-01   8.8886321E-01   8.8886321E-01   8.8886321E-01   1.3826759E+00   1.3826759E+00   1.3826759E+00   1.2839134E+00   1.2839134E+00   1.2839134E+00   1.2839134E+00   1.2839134E+00   2.1727760E+00   2.0740135E+00   1.9752508E+00   1.8764883E+00   1.8764883E+00   1.8764883E+00   1.8764883E+00   1.8764883E+00   2.9628754E+00   2.9628754E+00   2.8641129E+00   2.8641129E+00   2.7653503E+00   2.7653503E+00   2.8641129E+00   2.8641129E+00   4.1480241E+00   4.0492616E+00   3.9504991E+00   3.9504991E+00   3.8517365E+00   3.8517365E+00   3.9504991E+00   4.0492616E+00   6.0245075E+00   5.9257450E+00   5.7282200E+00   5.6294575E+00   5.6294575E+00   5.7282200E+00   5.8269825E+00   6.1232696E+00   8.5923233E+00   8.2960367E+00   8.1972742E+00   7.9997497E+00   7.9009871E+00   8.1972742E+00   8.5923233E+00   8.8886108E+00   1.1851469E+01   1.1653945E+01   1.1258896E+01   1.1061371E+01   1.0962609E+01   1.1258896E+01   1.1950232E+01   1.2542805E+01   1.7579655E+01   1.7184607E+01   1.6592035E+01   1.5999462E+01   1.5801937E+01   1.6196985E+01   1.7579655E+01   1.8666039E+01   2.7949625E+01   2.7159529E+01   2.6171909E+01   2.5085529E+01   2.4492956E+01   2.5184290E+01   2.7159529E+01   2.9134768E+01   5.1652363E+01   5.0269699E+01   4.8393227E+01   4.6615517E+01   4.5430374E+01   4.5924183E+01   4.8689510E+01   5.1849884E+01   1.1110652E+02   1.0873624E+02   1.0557588E+02   1.0241552E+02   1.0034153E+02   1.0053905E+02   1.0350189E+02   1.0784740E+02   2.6092630E+02   2.5707462E+02   2.5203783E+02   2.4700102E+02   2.4334686E+02   2.4275430E+02   2.4423572E+02   2.4858119E+02   6.0530188E+02   5.9957379E+02   5.9216675E+02   5.8466095E+02   5.7873535E+02   5.7508124E+02   5.7201965E+02   5.7409363E+02   1.2385427E+03   1.2304445E+03   1.2202722E+03   1.2097050E+03   1.2003228E+03   1.1912369E+03   1.1782994E+03   1.1740527E+03   2.0342252E+03   2.0236581E+03   2.0104244E+03   1.9965983E+03   1.9833646E+03   1.9668719E+03   1.9407998E+03   1.9283562E+03   2.6655476E+03   2.6526104E+03   2.6365129E+03   2.6196255E+03   2.6028369E+03   2.5804192E+03   2.5439778E+03   2.5259053E+03   3.0067905E+03   2.9917798E+03   2.9733127E+03   2.9538579E+03   2.9346008E+03   2.9090232E+03   2.8676450E+03   2.8482891E+03   3.1534539E+03   3.1369622E+03   3.1165205E+03   3.0952888E+03   3.0745508E+03   3.0477888E+03   3.0053254E+03   2.9869575E+03   3.2110063E+03   3.1933303E+03   3.1717043E+03   3.1490911E+03   3.1275637E+03   3.1005068E+03   3.0583411E+03   3.0418501E+03   3.2340513E+03   3.2157837E+03   3.1931714E+03   3.1698679E+03   3.1478479E+03   3.1208911E+03   3.0794187E+03   3.0644097E+03   3.2443982E+03   3.2258357E+03   3.2028298E+03   3.1791331E+03   3.1568184E+03   3.1300608E+03   3.0891836E+03   3.0750642E+03   3.2474602E+03   3.2288992E+03   3.2058958E+03   3.1821023E+03   3.1597898E+03   3.1332319E+03   3.0926545E+03   3.0788328E+03   3.2476545E+03   3.2291946E+03   3.2063911E+03   3.1828967E+03   3.1607844E+03   3.1341311E+03   3.0934602E+03   3.0794426E+03   3.1964846E+03   3.1783237E+03   3.1560176E+03   3.1329219E+03   3.1112080E+03   3.0850527E+03   3.0450793E+03   3.0309653E+03   3.0935415E+03   3.0760757E+03   3.0545640E+03   3.0321641E+03   3.0112444E+03   2.9858843E+03   2.9471040E+03   2.9334866E+03   2.9457239E+03   2.9290522E+03   2.9083362E+03   2.8869297E+03   2.8669043E+03   2.8427354E+03   2.8059397E+03   2.7931155E+03   2.7609211E+03   2.7450452E+03   2.7255208E+03   2.7052075E+03   2.6862749E+03   2.6636938E+03   2.6292795E+03   2.6174465E+03   2.5489001E+03   2.5340186E+03   2.5156875E+03   2.4967651E+03   2.4790254E+03   2.4580334E+03   2.4265947E+03   2.4158523E+03   2.3192351E+03   2.3055461E+03   2.2886074E+03   2.2709792E+03   2.2546313E+03   2.2355259E+03   2.2069663E+03   2.1975122E+03   2.0819954E+03   2.0695005E+03   2.0539558E+03   2.0377223E+03   2.0227679E+03   2.0054525E+03   1.9799711E+03   1.9718053E+03   1.8460654E+03   1.8346682E+03   1.8205199E+03   1.8057820E+03   1.7921249E+03   1.7766992E+03   1.7542977E+03   1.7474200E+03   1.6190466E+03   1.6086505E+03   1.5959004E+03   1.5825620E+03   1.5702045E+03   1.5563756E+03   1.5370546E+03   1.5319546E+03   1.4071486E+03   1.3978536E+03   1.3863085E+03   1.3743718E+03   1.3634135E+03   1.3510854E+03   1.3346482E+03   1.3313217E+03   1.2144991E+03   1.2061118E+03   1.1958716E+03   1.1854362E+03   1.1755859E+03   1.1647605E+03   1.1511066E+03   1.1500338E+03   1.0439198E+03   1.0363453E+03   1.0275083E+03   1.0184772E+03   1.0099316E+03   1.0000264E+03   9.8915015E+02   9.8992682E+02   8.9604242E+02   8.8947662E+02   8.8194519E+02   8.7441370E+02   8.6678564E+02   8.5761267E+02   8.4940521E+02   8.5172241E+02   7.7066992E+02   7.6511169E+02   7.5907428E+02   7.5274939E+02   7.4594531E+02   7.3751196E+02   7.3195367E+02   6.6619507E+02   6.6154553E+02   6.5670630E+02   6.5158234E+02   6.4512994E+02   6.3810815E+02   6.3554602E+02   5.8047833E+02   5.7691876E+02   5.7307813E+02   5.6839447E+02   5.6249298E+02   5.5743457E+02   5.1114145E+02   5.0828528E+02   5.0496844E+02   5.0036166E+02   4.9529431E+02   4.9243802E+02   4.5531799E+02   4.5279178E+02   4.4936340E+02   4.4494260E+02   4.4106317E+02   4.1009171E+02   4.0727905E+02   4.0367538E+02   3.9980807E+02   3.7190619E+02   3.6901108E+02   3.6586063E+02   3.6279535E+02   3.3951694E+02   3.3738458E+02   3.1331882E+02 
Type 1 2975 float
0 0 0 0 0 0 0 0 0 0 0 0 0 0 0 0 0 0 0 0 0 0 0 0 0 0 0 0 0 0 0 0 0 0 0 0 0 0 0 0 0 0 0 0 0 0 0 0 0 0 0 0 0 0 0 0 0 0 0 0 0 0 0 0 0 0 0 0 0 0 0 0 0 0 0 0 0 0 0 0 0 0 0 0 0 0 0 0 0 0 0 0 0 0 0 0 0 0 0 0 0 0 0 0 0 0 0 0 0 0 0 0 0 0 0 0 0 0 0 0 0 0 0 0 0 0 0 0 0 0 0 0 0 0 0 0 0 0 0 0 0 0 0 0 0 0 0 0 0 0 0 0 0 0 0 0 0 0 0 0 0 0 0 0 0 0 0 0 0 0 0 0 0 0 0 0 0 0 0 0 0 0 0 0 0 0 0 0 0 0 0 0 0 0 0 0 0 0 0 0 0 0 0 0 0 0 0 0 0 0 0 0 0 0 0 0 0 0 0 0 0 0 0 0 0 0 0 0 0 0 0 0 0 0 0 0 0 0 0 0 0 0 0 0 0 0 0 0 0 0 0 0 0 0 0 0 0 0 0 0 0 0 0 0 0 0 0 0 0 0 0 0 0 0 0 0 0 0 0 0 0 0 0 0 0 0 0 0 0 0 0 0 0 0 0 0 0 0 0 0 0 0 0 0 0 0 0 0 0 0 0 0 0 0 0 0 0 0 0 0 0 0 0 0 0 0 0 0 0 0 0 0 0 0 0 0 0 0 0 0 0 0 0 0 0 0 0 0 0 0 0 0 0 0 0 0 0 0 0 0 0 0 0 0 0 0 0 0 0 0 0 0 0 0 0 0 0 0 0 0 0 0 0 0 0 0 0 0 0 0 0 0 0 0 0 0 0 0 0 0 0 0 0 0 0 0 0 0 0 0 0 0 0 0 0 0 0 0 0 0 0 0 0 0 0 0 0 0 0 0 0 0 0 0 0 0 0 0 0 0 0 0 0 0 0 0 0 0 0 0 0 0 0 0 0 0 0 0 0 0 0 0 0 0 0 0 0 0 0 0 0 0 0 0 0 0 0 0 0 0 0 0 0 0 0 0 0 0 0 0 0 0 0 0 0 0 0 0 0 0 0 0 0 0 0 0 0 0 0 0 0 0 0 0 0 0 0 0 0 0 0 0 0 0 0 0 0 0 0 0 0 0 0 0 0 0 0 0 0 0 0 0 0 0 0 0 0 0 0 0 0 0 0 0 0 0 0 0 0 0 0 0 0 0 0 0 0 0 0 0 0 0 0 0 0 0 0 0 0 0 0 0 0 0 0 0 0 0 0 0 0 0 0 0 0 0 0 0 0 0 0 0 0 0 0 0 0 0 0 0 0 0 0 0 0 0 0 0 0 0 0 0 0 0 0 0 0 0 0 0 0 0 0 0 0 0 0 0 0 0 0 0 0 0 0 0 0 0 0 0 0 0 0 0 0 0 0 0 0 0 0 0 0 0 0 0 0 0 0 0 0 0 0 0 0 0 0 0 0 0 0 0 0 0 0 0 0 0 0 0 0 0 0 0 0 0 0 0 0 0 0 0 0 0 0 0 0 0 0 0 0 0 0 0 0 0 0 0 0 0 0 0 0 0 0 0 0 0 0 0 0 0 0 0 0 0 0 0 0 0 0 0 0 0 0 0 0 0 0 0 0 0 0 0 0 0 0 0 0 0 0 0 0 0 0 0 0 0 0 0 0 0 0 0 0 0 0 0 0 0 0 0 0 0 0 0 0 0 0 0 0 0 0 0 0 0 0 0 0 0 0 0 0 0 0 0 0 0 0 0 0 0 0 0 0 0 0 0 0 0 0 0 0 0 0 0 0 0 0 0 0 0 0 0 0 0 0 0 0 0 0 0 0 0 0 0 0 0 0 0 0 0 0 0 0 0 0 0 0 0 0 0 0 0 0 0 0 0 0 0 0 0 0 0 0 0 0 0 0 0 0 0 0 0 0 0 0 0 0 0 0 0 0 0 0 0 0 0 0 0 0 0 0 0 0 0 0 0 0 0 0 0 0 0 0 0 0 0 0 0 0 0 0 0 0 0 0 0 0 0 0 0 0 0 0 0 0 0 0 0 0 0 0 0 0 0 0 0 0 0 0 0 0 0 0 0 0 0 0 0 0 0 0 0 0 0 0 0 0 0 0 0 0 0 0 0 0 0 0 0 0 0 0 0 0 0 0 0 0 0 0 0 0 0 0 0 0 0 0 0 0 0 0 0 0 0 0 0 0 0 0 0 0 0 0 0 0 0 0 0 0 0 0 0 0 0 0 0 0 0 0 3 3 3 3 3 3 3 3 3 3 3 3 3 3 3 3 3 3 3 3 3 3 3 3 3 3 3 3 3 3 3 3 3 3 3 3 3 3 3 3 3 3 3 3 3 3 3 3 3 3 3 3 3 3 3 3 3 3 3 3 3 3 3 3 3 3 3 3 3 3 3 3 3 3 3 3 3 3 3 3 3 3 3 3 3 3 3 3 3 3 3 3 3 3 3 3 3 3 3 3 3 3 3 3 3 3 3 3 3 3 3 3 3 3 3 3 3 3 3 3 3 3 3 3 3 3 3 3 3 3 3 3 3 3 3 3 3 3 3 3 3 3 3 3 3 3 3 3 3 3 3 3 3 3 3 3 3 3 3 3 3 3 3 3 3 3 3 3 3 3 3 3 3 3 3 3 3 3 3 3 3 3 3 3 3 3 3 3 3 3 3 3 3 3 3 3 3 3 3 3 3 3 3 3 3 3 3 3 3 3 3 3 3 3 3 3 3 3 3 3 3 3 3 3 3 3 3 3 3 3 3 3 3 3 3 3 3 3 3 3 3 3 3 3 3 3 3 3 3 3 3 3 3 3 3 3 3 3 3 3 3 3 3 3 3 3 3 3 3 3 3 3 3 3 3 3 3 3 3 3 3 3 3 3 3 3 3 3 3 3 3 3 3 3 3 3 3 3 3 3 3 3 3 3 3 3 3 3 3 3 3 3 3 3 3 3 3 3 3 3 3 3 3 3 3 3 3 3 3 3 3 3 3 3 3 3 3 3 3 3 3 3 3 3 3 3 3 3 3 3 3 3 3 3 3 3 3 3 3 3 3 3 3 3 3 3 3 3 3 3 3 3 3 3 3 3 3 3 3 3 3 3 3 3 3 3 3 3 3 3 3 3 3 3 3 3 3 3 3 3 3 3 3 3 3 3 3 3 3 3 3 3 3 3 3 3 3 3 3 3 3 3 3 3 3 3 3 3 3 3 3 3 3 3 3 3 3 3 3 3 3 3 3 3 3 3 3 3 3 3 3 3 3 3 3 3 3 3 3 3 3 3 3 3 3 3 3 3 3 3 3 3 3 3 3 3 3 3 3 3 3 3 3 3 3 3 3 3 3 3 3 3 3 3 3 3 3 3 3 3 3 3 3 3 3 3 3 3 3 3 3 3 3 3 3 3 3 3 3 3 3 3 3 3 3 3 3 3 3 3 3 3 3 3 3 3 3 3 3 3 3 3 3 3 3 3 3 3 3 3 3 3 3 3 3 3 3 3 3 3 3 3 3 3 3 3 3 3 3 3 3 3 3 3 3 3 3 3 3 3 3 3 3 3 3 3 3 3 3 3 3 3 3 3 3 3 3 3 3 3 3 3 3 3 3 3 3 3 3 3 3 3 3 3 3 3 3 3 3 3 3 3 3 3 3 3 3 3 3 3 3 3 3 3 3 3 3 3 3 3 3 3 3 3 3 3 3 3 3 3 3 3 3 3 3 3 3 3 3 3 3 3 3 3 3 3 3 3 3 3 3 3 3 3 3 3 3 3 3 3 3 3 3 3 3 3 3 3 3 3 3 3 3 3 3 3 3 3 3 3 3 3 3 3 3 3 3 3 3 3 3 3 3 3 3 3 3 3 3 3 3 3 3 3 3 3 3 3 3 3 3 3 3 3 3 3 3 3 3 3 3 3 3 3 3 3 3 3 3 3 3 3 3 3 3 3 3 3 3 3 3 3 3 3 3 3 3 3 3 3 3 3 3 3 3 3 3 3 3 3 3 3 3 3 3 3 3 3 3 3 3 3 3 3 3 3 3 3 3 3 3 3 3 3 3 3 3 3 3 3 3 3 3 3 3 3 3 3 3 3 3 3 3 3 3 3 3 3 3 3 3 3 3 3 3 3 3 3 3 3 3 3 3 3 3 3 3 3 3 3 3 3 3 3 3 3 3 3 3 3 3 3 3 3 3 3 3 3 3 3 3 3 3 3 3 3 3 3 3 3 3 3 3 3 3 3 3 3 3 3 3 3 3 3 3 3 3 3 3 3 3 3 3 3 3 3 3 3 3 3 3 3 3 3 3 3 3 3 3 3 3 3 3 3 3 3 3 3 3 3 3 3 3 3 3 3 3 3 3 3 3 3 3 3 3 3 3 3 3 3 3 3 3 3 3 3 3 3 3 3 3 3 3 3 3 3 3 3 3 3 3 3 3 3 3 3 3 3 3 3 3 3 3 3 3 3 3 3 3 3 3 3 3 3 3 3 3 3 3 3 3 3 3 3 3 3 3 3 3 3 3 3 3 3 3 3 3 3 3 3 3 3 3 3 3 3 3 3 3 3 3 3 3 3 3 3 3 3 3 3 3 3 3 3 3 3 3 3 3 3 3 3 3 3 3 3 3 3 3 3 3 3 3 3 3 3 3 3 3 3 3 3 3 3 3 3 3 3 3 3 3 3 3 3 3 3 3 3 3 3 3 3 3 3 3 3 3 3 3 3 3 3 3 3 3 3 3 3 3 3 3 3 3 3 3 3 3 3 3 3 3 3 3 3 3 3 3 3 3 3 3 3 3 3 3 3 3 3 3 3 3 3 3 3 3 3 3 3 3 3 3 3 3 3 3 3 3 3 3 3 3 3 3 3 3 3 3 3 3 3 3 3 3 3 3 3 3 3 3 3 3 3 3 3 3 3 3 3 3 3 3 3 3 3 3 3 3 3 3 3 3 3 3 3 3 3 3 3 3 3 3 3 3 3 3 3 3 3 3 3 3 3 3 3 3 3 3 3 3 3 3 3 3 3 3 3 3 3 3 3 3 3 3 3 3 3 3 3 3 3 3 3 3 3 3 3 3 3 3 3 3 3 3 3 3 3 3 3 3 3 3 3 3 3 3 3 3 3 3 3 3 3 3 3 3 3 3 3 3 3 3 3 3 3 3 3 3 3 3 3 3 3 3 3 3 3 3 3 3 3 3 3 3 3 3 3 3 3 3 3 3 3 3 3 3 3 3 3 3 3 3 3 3 3 3 3 3 3 3 3 3 3 3 3 3 3 3 3 3 3 3 3 3 3 3 3 3 3 3 3 3 3 3 3 3 3 3 3 3 3 3 3 3 3 3 3 3 3 3 3 3 3 3 3 3 3 3 3 3 3 3 3 3 3 3 3 3 3 3 3 3 3 3 3 3 3 3 3 3 3 3 3 3 3 3 3 3 3 3 3 3 3 3 3 3 3 3 3 3 3 3 3 3 3 3 3 3 3 3 3 3 3 3 3 3 3 3 3 3 3 3 3 3 3 3 3 3 3 3 3 3 3 3 3 3 3 3 3 3 3 3 3 3 3 3 3 3 3 3 3 3 3 3 3 3 3 3 3 3 3 3 3 3 3 3 3 3 3 3 3 3 3 3 3 3 3 3 3 3 3 3 3 3 3 3 3 3 3 3 3 3 3 3 3 3 3 3 3 3 3 3 3 3 3 3 3 3 3 3 3 3 3 3 3 3 3 3 3 3 3 3 3 3 3 3 3 3 3 3 3 3 3 3 3 3 3 3 3 3 3 3 3 3 3 3 3 3 3 3 3 3 3 3 3 3 3 3 3 3 3 3 3 3 3 3 3 3 3 3 3 3 3 3 3 3 3 3 3 3 3 3 3 3 3 3 3 3 3 3 3 3 3 3 3 3 3 3 3 3 3 3 3 3 3 3 3 3 3 3 3 3 3 3 3 3 3 3 3 3 3 3 3 3 3 3 3 3 3 3 3 3 3 3 3 3 3 3 3 3 3 3 3 3 3 3 3 3 3 3 3 3 3 3 3 3 3 3 3 3 3 3 3 3 3 3 3 3 3 3 3 3 3 3 3 3 3 3 3 3 3 3 3 3 3 3 3 3 3 3 3 3 3 3 3 3 3 3 3 3 3 3 3 3 3 3 3 3 3 3 3 3 3 3 3 3 3 3 3 3 3 3 3 3 3 3 3 3 3 3 3 3 3 3 3 3 3 3 3 3 3 3 3 3 3 3 3 3 3 3 3 3 3 3 3 3 3 3 3 3 3 3 3 3 3 3 3 3 3 3 3 3 3 3 3 3 3 3 3 3 3 3 3 3 3 3 3 3 3 3 3 3 3 3 3 3 3 3 3 3 3 3 3 3 3 3 3 3 3 3 3 3 3 3 3 3 3 3 3 3 3 3 3 3 3 3 3 3 3 3 3 3 3 3 3 3 3 3 3 3 3 3 3 3 3 3 3 3 3 3 3 3 3 3 3 3 3 3 3 3 3 3 3 3 3 3 3 3 3 3 3 3 3 3 3 3 3 3 3 3 3 3 3 3 3 3 3 3 3 3 3 3 3 3 3 3 3 3 3 3 3 3 3 3 3 3 3 3 3 3 3 3 3 3 3 
CellOffSpring 1 2975 float
0 0 0 0 0 0 0 0 0 0 0 0 0 0 0 0 0 0 0 0 0 0 0 0 0 0 0 0 0 0 0 0 0 0 0 0 0 0 0 0 0 0 0 0 0 0 0 0 0 0 0 0 0 0 0 0 0 0 0 0 0 0 0 0 0 0 0 0 0 0 0 0 0 0 0 0 0 0 0 0 0 0 0 0 0 0 0 0 0 0 0 0 0 0 0 0 0 0 0 0 0 0 0 0 0 0 0 0 0 0 0 0 0 0 0 0 0 0 0 0 0 0 0 0 0 0 0 0 0 0 0 0 0 0 0 0 0 0 0 0 0 0 0 0 0 0 0 0 0 0 0 0 0 0 0 0 0 0 0 0 0 0 0 0 0 0 0 0 0 0 0 0 0 0 0 0 0 0 0 0 0 0 0 0 0 0 0 0 0 0 0 0 0 0 0 0 0 0 0 0 0 0 0 0 0 0 0 0 0 0 0 0 0 0 0 0 0 0 0 0 0 0 0 0 0 0 0 0 0 0 0 0 0 0 0 0 0 0 0 0 0 0 0 0 0 0 0 0 0 0 0 0 0 0 0 0 0 0 0 0 0 0 0 0 0 0 0 0 0 0 0 0 0 0 0 0 0 0 0 0 0 0 0 0 0 0 0 0 0 0 0 0 0 0 0 0 0 0 0 0 0 0 0 0 0 0 0 0 0 0 0 0 0 0 0 0 0 0 0 0 0 0 0 0 0 0 0 0 0 0 0 0 0 0 0 0 0 0 0 0 0 0 0 0 0 0 0 0 0 0 0 0 0 0 0 0 0 0 0 0 0 0 0 0 0 0 0 0 0 0 0 0 0 0 0 0 0 0 0 0 0 0 0 0 0 0 0 0 0 0 0 0 0 0 0 0 0 0 0 0 0 0 0 0 0 0 0 0 0 0 0 0 0 0 0 0 0 0 0 0 0 0 0 0 0 0 0 0 0 0 0 0 0 0 0 0 0 0 0 0 0 0 0 0 0 0 0 0 0 0 0 0 0 0 0 0 0 0 0 0 0 0 0 0 0 0 0 0 0 0 0 0 0 0 0 0 0 0 0 0 0 0 0 0 0 0 0 0 0 0 0 0 0 0 0 0 0 0 0 0 0 0 0 0 0 0 0 0 0 0 0 0 0 0 0 0 0 0 0 0 0 0 0 0 0 0 0 0 0 0 0 0 0 0 0 0 0 0 0 0 0 0 0 0 0 0 0 0 0 0 0 0 0 0 0 0 0 0 0 0 0 0 0 0 0 0 0 0 0 0 0 0 0 0 0 0 0 0 0 0 0 0 0 0 0 0 0 0 0 0 0 0 0 0 0 0 0 0 0 0 0 0 0 0 0 0 0 0 0 0 0 0 0 0 0 0 0 0 0 0 0 0 0 0 0 0 0 0 0 0 0 0 0 0 0 0 0 0 0 0 0 0 0 0 0 0 0 0 0 0 0 0 0 0 0 0 0 0 0 0 0 0 0 0 0 0 0 0 0 0 0 0 0 0 0 0 0 0 0 0 0 0 0 0 0 0 0 0 0 0 0 0 0 0 0 0 0 0 0 0 0 0 0 0 0 0 0 0 0 0 0 0 0 0 0 0 0 0 0 0 0 0 0 0 0 0 0 0 0 0 0 0 0 0 0 0 0 0 0 0 0 0 0 0 0 0 0 0 0 0 0 0 0 0 0 0 0 0 0 0 0 0 0 0 0 0 0 0 0 0 0 0 0 0 0 0 0 0 0 0 0 0 0 0 0 0 0 0 0 0 0 0 0 0 0 0 0 0 0 0 0 0 0 0 0 0 0 0 0 0 0 0 0 0 0 0 0 0 0 0 0 0 0 0 0 0 0 0 0 0 0 0 0 0 0 0 0 0 0 0 0 0 0 0 0 0 0 0 0 0 0 0 0 0 0 0 0 0 0 0 0 0 0 0 0 0 0 0 0 0 0 0 0 0 0 0 0 0 0 0 0 0 0 0 0 0 0 0 0 0 0 0 0 0 0 0 0 0 0 0 0 0 0 0 0 0 0 0 0 0 0 0 0 0 0 0 0 0 0 0 0 0 0 0 0 0 0 0 0 0 0 0 0 0 0 0 0 0 0 0 0 0 0 0 0 0 0 0 0 0 0 0 0 0 0 0 0 0 0 0 0 0 0 0 0 0 0 0 0 0 0 0 0 0 0 0 0 0 0 0 0 0 0 0 0 0 0 0 0 0 0 0 0 0 0 0 0 0 0 0 0 0 0 0 0 0 0 0 0 0 0 0 0 0 0 0 0 0 0 0 0 0 0 0 0 0 0 0 0 0 0 0 0 0 0 0 0 0 0 0 0 0 0 0 0 0 0 0 0 0 0 0 0 0 0 0 0 0 0 0 0 0 0 0 0 0 0 0 0 0 0 0 0 0 0 0 0 0 0 0 0 0 0 0 0 0 0 0 0 0 0 0 0 0 0 0 0 0 0 0 0 0 0 0 0 0 0 0 0 0 0 0 0 0 0 0 0 0 0 0 0 0 0 0 0 0 0 0 0 0 0 0 0 0 0 0 0 0 0 0 0 0 0 0 0 0 0 0 0 0 0 0 0 0 0 0 0 0 0 0 0 0 0 0 0 0 0 0 0 0 0 0 0 0 0 0 0 0 0 0 0 0 0 0 0 0 0 0 0 0 0 0 0 0 0 0 0 0 0 0 0 0 0 0 0 0 0 0 0 0 0 0 0 0 0 0 0 0 0 0 0 0 0 0 0 0 0 0 0 0 0 0 0 0 0 0 0 0 0 0 0 0 0 0 0 0 0 0 0 0 0 0 0 0 0 0 0 0 0 0 0 0 0 0 0 0 0 0 0 0 0 0 0 0 0 0 0 0 0 0 0 0 0 0 0 0 0 0 0 0 0 0 0 0 0 0 0 0 0 0 0 0 0 0 0 0 0 0 0 0 0 0 0 0 0 0 0 0 0 0 0 0 0 0 0 0 0 0 0 0 0 0 0 0 0 0 0 0 0 0 0 0 0 0 0 0 0 0 0 0 0 0 0 0 0 0 0 0 0 0 0 0 0 0 0 0 0 0 0 0 0 0 0 0 0 0 0 0 0 0 0 0 0 0 0 0 0 0 0 0 0 0 0 0 0 0 0 0 0 0 0 0 0 0 0 0 0 0 0 0 0 0 0 0 0 0 0 0 0 0 0 0 0 0 0 0 0 0 0 0 0 0 0 0 0 0 0 0 0 0 0 0 0 0 0 0 0 0 0 0 0 0 0 0 0 0 0 0 0 0 0 0 0 0 0 0 0 0 0 0 0 0 0 0 0 0 0 0 0 0 0 0 0 0 0 0 0 0 0 0 0 0 0 0 0 0 0 0 0 0 0 0 0 0 0 0 0 0 0 0 0 0 0 0 0 0 0 0 0 0 0 0 0 0 0 0 0 0 0 0 0 0 0 0 0 0 0 0 0 0 0 0 0 0 0 0 0 0 0 0 0 0 0 0 0 0 0 0 0 0 0 0 0 0 0 0 0 0 0 0 0 0 0 0 0 0 0 0 0 0 0 0 0 0 0 0 0 0 0 0 0 0 0 0 0 0 0 0 0 0 0 0 0 0 0 0 0 0 0 0 0 0 0 0 0 0 0 0 0 0 0 0 0 0 0 0 0 0 0 0 0 0 0 0 0 0 0 0 0 0 0 0 0 0 0 0 0 0 0 0 0 0 0 0 0 0 0 0 0 0 0 0 0 0 0 0 0 0 0 0 0 0 0 0 0 0 0 0 0 0 0 0 0 0 0 0 0 0 0 0 0 0 0 0 0 0 0 0 0 0 0 0 0 0 0 0 0 0 0 0 0 0 0 0 0 0 0 0 0 0 0 0 0 0 0 0 0 0 0 0 0 0 0 0 0 0 0 0 0 0 0 0 0 0 0 0 0 0 0 0 0 0 0 0 0 0 0 0 0 0 0 0 0 0 0 0 0 0 0 0 0 0 0 0 0 0 0 0 0 0 0 0 0 0 0 0 0 0 0 0 0 0 0 0 0 0 0 0 0 0 0 0 0 0 0 0 0 0 0 0 0 0 0 0 0 0 0 0 0 0 0 0 0 0 0 0 0 0 0 0 0 0 0 0 0 0 0 0 0 0 0 0 0 0 0 0 0 0 0 0 0 0 0 0 0 0 0 0 0 0 0 0 0 0 0 0 0 0 0 0 0 0 0 0 0 0 0 0 0 0 0 0 0 0 0 0 0 0 0 0 0 0 0 0 0 0 0 0 0 0 0 0 0 0 0 0 0 0 0 0 0 0 0 0 0 0 0 0 0 0 0 0 0 0 0 0 0 0 0 0 0 0 0 0 0 0 0 0 0 0 0 0 0 0 0 0 0 0 0 0 0 0 0 0 0 0 0 0 0 0 0 0 0 0 0 0 0 0 0 0 0 0 0 0 0 0 0 0 0 0 0 0 0 0 0 0 0 0 0 0 0 0 0 0 0 0 0 0 0 0 0 0 0 0 0 0 0 0 0 0 0 0 0 0 0 0 0 0 0 0 0 0 0 0 0 0 0 0 0 0 0 0 0 0 0 0 0 0 0 0 0 0 0 0 0 0 0 0 0 0 0 0 0 0 0 0 0 0 0 0 0 0 0 0 0 0 0 0 0 0 0 0 0 0 0 0 0 0 0 0 0 0 0 0 0 0 0 0 0 0 0 0 0 0 0 0 0 0 0 0 0 0 0 0 0 0 0 0 0 0 0 0 0 0 0 0 0 0 0 0 0 0 0 0 0 0 0 0 0 0 0 0 0 0 0 0 0 0 0 0 0 0 0 0 0 0 0 0 0 0 0 0 0 0 0 0 0 0 0 0 0 0 0 0 0 0 0 0 0 0 0 0 0 0 0 0 0 0 0 0 0 0 0 0 0 0 0 0 0 0 0 0 0 0 0 0 0 0 0 0 0 0 0 0 0 0 0 0 0 0 0 0 0 0 0 0 0 0 0 0 0 0 0 0 0 0 0 0 0 0 0 0 0 0 0 0 0 0 0 0 0 0 0 0 0 0 0 0 0 0 0 0 0 0 0 0 0 0 0 0 0 0 0 0 0 0 0 0 0 0 0 0 0 0 0 0 0 0 0 0 0 0 0 0 0 0 0 0 0 0 0 0 0 0 0 0 0 0 0 0 0 0 0 0 0 0 0 0 0 0 0 0 0 0 0 0 0 0 0 0 0 0 0 0 0 0 0 0 0 0 0 0 0 0 0 0 0 0 0 0 0 0 0 0 0 0 0 0 0 0 0 0 0 0 0 0 0 0 0 0 0 0 0 0 0 0 0 0 0 0 0 0 0 0 0 0 0 0 0 0 0 0 0 0 0 0 0 0 0 0 0 0 0 0 0 0 0 0 0 0 0 0 0 0 0 0 0 0 0 0 0 0 0 0 0 0 0 0 0 0 0 0 0 0 0 0 0 0 0 0 0 0 0 0 0 0 0 0 0 0 0 0 0 0 0 0 0 0 0 0 0 0 0 0 0 0 0 0 0 0 0 0 0 0 0 0 0 0 0 0 0 0 0 0 0 0 0 0 0 0 0 0 0 0 0 0 0 0 0 0 0 0 0 0 0 0 0 0 0 0 0 0 0 0 0 0 0 0 0 0 0 0 0 0 0 0 0 0 0 0 0 0 0 0 0 0 0 0 0 0 0 0 0 0 0 0 0 0 0 0 0 0 0 0 0 0 0 0 0 0 0 0 0 0 0 0 0 0 0 0 0 0 0 0 0 0 0 0 0 0 0 0 0 0 0 0 0 0 0 0 0 0 0 0 0 0 0 0 0 0 0 0 0 0 0 0 0 0 0 0 0 0 0 0 0 0 0 0 0 0 0 0 0 0 0 0 0 0 0 0 0 0 0 0 0 0 0 0 0 0 0 0 0 0 0 0 0 0 0 0 0 0 0 0 0 0 0 0 0 0 0 0 0 0 0 0 0 0 0 0 0 0 0 0 0 0 0 0 0 0 0 0 0 0 0 0 0 0 0 0 0 0 0 0 0 0 0 0 0 0 0 0 0 0 0 0 0 0 0 0 0 0 0 0 0 0 0 0 0 0 0 0 0 0 0 0 0 0 0 0 0 0 0 0 0 0 0 0 0 0 0 0 0 0 0 0 0 0 0 0 0 0 0 0 0 0 0 0 0 0 0 0 0 0 0 0 0 0 0 0 0 0 0 0 0 0 0 0 0 0 0 0 0 0 0 0 0 0 0 0 0 0 0 0 0 0 0 0 0 0 0 0 0 0 0 0 0 0 0 0 0 0 0 0 0 0 0 0 0 0 0 0 0 0 0 0 0 0 0 0 0 0 0 0 0 0 0 0 0 0 0 0 0 0 0 0 0 0 0 0 0 0 0 0 0 0 0 0 0 0 0 0 0 0 0 0 0 0 0 0 0 0 0 0 0 0 0 0 0 0 0 0 0 0 0 0 0 0 0 0 0 0 0 0 0 0 0 0 0 0 0 0 0 0 0 0 0 0 0 0 0 0 0 0 0 0 0 0 0 0 0 0 0 0 0 0 0 0 0 0 0 0 0 0 0 0 0 0 0 0 0 0 0 0 0 0 0 0 0 0 0 0 0 0 0 0 0 0 0 0 0 0 0 0 0 0 0 0 0 0 0 0 0 0 0 0 0 0 0 0 0 0 0 0 0 
GradVel 1 2975 float
  0.0000000E+00   0.0000000E+00   0.0000000E+00   0.0000000E+00   0.0000000E+00   0.0000000E+00   0.0000000E+00   0.0000000E+00   0.0000000E+00   0.0000000E+00   0.0000000E+00   0.0000000E+00   0.0000000E+00  -1.9060272E-12   0.0000000E+00  -1.1060763E-11  -7.7307785E-11  -2.3369962E-11  -1.6873526E-10  -5.4860122E-10  -2.1820315E-10  -8.5620666E-10  -2.1519055E-09  -9.0731189E-10  -2.8126639E-09  -6.2634737E-09  -2.6362770E-09  -7.3074746E-09  -1.5258435E-08  -6.3043784E-09  -1.6514209E-08  -3.3257592E-08  -1.3470926E-08  -3.4258967E-08  -6.7521839E-08  -2.6934902E-08  -6.7371516E-08  -1.3093839E-07  -5.1722679E-08  -1.2797986E-07  -2.4623404E-07  -9.6853327E-08  -2.3754740E-07  -4.5316142E-07  -1.7905845E-07  -4.3576878E-07  -8.2523900E-07  -3.3165912E-07  -8.0144787E-07  -1.5084601E-06  -6.2511589E-07  -1.4974637E-06  -2.7999299E-06  -1.2156488E-06  -2.8611407E-06  -5.2915902E-06  -2.4484884E-06  -5.5410919E-06  -1.0043568E-05  -5.0242716E-06  -1.0572712E-05  -1.8550503E-05  -1.9395866E-05  -3.2554930E-05   0.0000000E+00   0.0000000E+00   0.0000000E+00   0.0000000E+00   0.0000000E+00   0.0000000E+00   0.0000000E+00   0.0000000E+00   0.0000000E+00   0.0000000E+00   0.0000000E+00   0.0000000E+00   0.0000000E+00   0.0000000E+00   0.0000000E+00   0.0000000E+00   0.0000000E+00   0.0000000E+00   0.0000000E+00   0.0000000E+00   0.0000000E+00   0.0000000E+00   0.0000000E+00   0.0000000E+00   0.0000000E+00  -3.5366512E-13  -2.2805217E-12  -5.4729945E-12  -8.3041143E-12  -9.9876080E-12  -1.1221669E-11  -1.2230600E-11  -1.6880620E-11  -5.6383887E-11  -1.2234054E-10  -2.0505625E-10  -2.8845629E-10  -3.5925574E-10  -4.1240245E-10  -4.5161364E-10  -2.3710361E-10  -5.1210314E-10  -8.9441071E-10  -1.3399241E-09  -1.7850171E-09  -2.1785529E-09  -2.4996016E-09  -2.7515572E-09  -1.2367655E-09  -2.2745439E-09  -3.6267829E-09  -5.1542215E-09  -6.6649877E-09  -8.0136804E-09  -9.1433972E-09  -1.0059874E-08  -4.2432489E-09  -7.2213240E-09  -1.0983154E-08  -1.5155505E-08  -1.9249180E-08  -2.2909420E-08  -2.6008522E-08  -2.8563488E-08  -1.1513672E-08  -1.8760186E-08  -2.7746353E-08  -3.7592631E-08  -4.7177419E-08  -5.5728499E-08  -6.3001117E-08  -6.9050458E-08  -2.6934657E-08  -4.2739163E-08  -6.2090919E-08  -8.3073012E-08  -1.0332236E-07  -1.2131645E-07  -1.3664567E-07  -1.4946411E-07  -5.7275699E-08  -8.9328942E-08  -1.2814249E-07  -1.6978171E-07  -2.0961026E-07  -2.4486272E-07  -2.7490361E-07  -3.0009645E-07  -1.1441868E-07  -1.7629289E-07  -2.5038489E-07  -2.1933208E-07  -3.3479969E-07  -4.0884328E-07  -6.1947992E-07  -7.4662466E-07  -1.1239199E-06  -1.3492177E-06  -2.0148364E-06  -2.4465512E-06  -3.6140900E-06  -4.4990575E-06  -6.5488343E-06  -8.4029643E-06  -1.2001001E-05  -1.5730282E-05  -2.2002250E-05  -2.8676068E-05  -3.9457744E-05  -4.9638576E-05  -6.7705594E-05   0.0000000E+00   0.0000000E+00   0.0000000E+00   0.0000000E+00   0.0000000E+00   0.0000000E+00   0.0000000E+00   0.0000000E+00   0.0000000E+00   0.0000000E+00   0.0000000E+00   0.0000000E+00   0.0000000E+00   0.0000000E+00   0.0000000E+00   0.0000000E+00   0.0000000E+00   0.0000000E+00   0.0000000E+00   0.0000000E+00   0.0000000E+00   0.0000000E+00   0.0000000E+00   0.0000000E+00   0.0000000E+00   0.0000000E+00   0.0000000E+00  -1.3035878E-11  -1.3663204E-11  -1.4139787E-11  -1.4492802E-11  -1.4747580E-11  -1.4926187E-11  -1.5046697E-11  -1.5123028E-11  -1.5164970E-11  -4.8265686E-10  -5.0713478E-10  -5.2598448E-10  -5.4015209E-10  -5.5052934E-10  -5.5791072E-10  -5.6296057E-10  -5.6619903E-10  -5.6799493E-10  -2.9474077E-09  -3.1015637E-09  -3.2214043E-09  -3.3124041E-09  -3.3797851E-09  -3.4282390E-09  -3.4617365E-09  -3.4834124E-09  -3.4955183E-09  -1.0790719E-08  -1.1367457E-08  -1.1818147E-08  -1.2163127E-08  -1.2420754E-08  -1.2607636E-08  -1.2737917E-08  -1.2822843E-08  -1.2870543E-08  -3.0635718E-08  -3.2290703E-08  -3.3590567E-08  -3.4591693E-08  -3.5344431E-08  -3.5894313E-08  -3.6280294E-08  -3.6533436E-08  -3.6676262E-08  -7.4008668E-08  -7.8006103E-08  -8.1166249E-08  -8.3612676E-08  -8.5462510E-08  -8.6821970E-08  -8.7781821E-08  -8.8414652E-08  -8.8773113E-08  -1.6004171E-07  -1.6862577E-07  -1.7544824E-07  -1.8075443E-07  -1.8478624E-07  -1.8776504E-07  -1.8987939E-07  -1.9128005E-07  -1.9207634E-07  -3.2097137E-07  -3.3798452E-07  -3.5155696E-07  -3.6215144E-07  -3.7023560E-07  -3.7623641E-07  -3.8051684E-07  -3.8336475E-07  -3.8498951E-07   0.0000000E+00   0.0000000E+00   0.0000000E+00   0.0000000E+00   0.0000000E+00   0.0000000E+00   0.0000000E+00   0.0000000E+00   0.0000000E+00   0.0000000E+00   0.0000000E+00   0.0000000E+00   0.0000000E+00   0.0000000E+00   0.0000000E+00   0.0000000E+00   0.0000000E+00   0.0000000E+00   0.0000000E+00   0.0000000E+00   0.0000000E+00   0.0000000E+00   0.0000000E+00   0.0000000E+00  -1.5178315E-11  -1.5164975E-11  -1.5123031E-11  -1.5046698E-11  -1.4926184E-11  -1.4747580E-11  -1.4492801E-11  -1.4139781E-11  -5.6856925E-10  -5.6799504E-10  -5.6619903E-10  -5.6296073E-10  -5.5791066E-10  -5.5052929E-10  -5.4015209E-10  -5.2598453E-10  -3.4994039E-09  -3.4955183E-09  -3.4834124E-09  -3.4617358E-09  -3.4282388E-09  -3.3797851E-09  -3.3124039E-09  -3.2214038E-09  -1.2885894E-08  -1.2870537E-08  -1.2822841E-08  -1.2737917E-08  -1.2607634E-08  -1.2420752E-08  -1.2163123E-08  -1.1818146E-08  -3.6722348E-08  -3.6676258E-08  -3.6533432E-08  -3.6280298E-08  -3.5894313E-08  -3.5344428E-08  -3.4591700E-08  -3.3590556E-08  -8.8889053E-08  -8.8773092E-08  -8.8414644E-08  -8.7781800E-08  -8.6821977E-08  -8.5462510E-08  -8.3612669E-08  -8.1166249E-08  -1.9233450E-07  -1.9207641E-07  -1.9128005E-07  -1.8987940E-07  -1.8776501E-07  -1.8478620E-07  -1.8075436E-07  -1.7544822E-07  -3.8551701E-07  -3.8498942E-07  -3.8336475E-07  -3.8051670E-07  -3.7623633E-07  -3.7023560E-07  -3.6215144E-07  -3.5155696E-07   0.0000000E+00   0.0000000E+00   0.0000000E+00   0.0000000E+00   0.0000000E+00   0.0000000E+00   0.0000000E+00   0.0000000E+00   0.0000000E+00   0.0000000E+00   0.0000000E+00   0.0000000E+00   0.0000000E+00   0.0000000E+00   0.0000000E+00   0.0000000E+00   0.0000000E+00   0.0000000E+00   0.0000000E+00   0.0000000E+00   0.0000000E+00   0.0000000E+00   0.0000000E+00   0.0000000E+00   0.0000000E+00   0.0000000E+00   0.0000000E+00  -1.3663201E-11  -1.3035880E-11  -1.2230603E-11  -1.1221667E-11  -9.9876045E-12  -8.3041152E-12  -5.4729940E-12  -2.2805215E-12  -3.5366515E-13  -5.0713467E-10  -4.8265691E-10  -4.5161364E-10  -4.1240239E-10  -3.5925571E-10  -2.8845623E-10  -2.0505622E-10  -1.2234057E-10  -5.6383873E-11  -3.1015637E-09  -2.9474079E-09  -2.7515570E-09  -2.4996007E-09  -2.1785524E-09  -1.7850166E-09  -1.3399242E-09  -8.9441060E-10  -5.1210319E-10  -1.1367455E-08  -1.0790719E-08  -1.0059868E-08  -9.1433963E-09  -8.0136777E-09  -6.6649877E-09  -5.1542210E-09  -3.6267831E-09  -2.2745443E-09  -3.2290703E-08  -3.0635714E-08  -2.8563486E-08  -2.6008520E-08  -2.2909415E-08  -1.9249173E-08  -1.5155504E-08  -1.0983152E-08  -7.2213231E-09  -7.8006089E-08  -7.4008661E-08  -6.9050465E-08  -6.3001103E-08  -5.5728485E-08  -4.7177419E-08  -3.7592624E-08  -2.7746349E-08  -1.8760183E-08  -1.6862576E-07  -1.6004168E-07  -1.4946410E-07  -1.3664567E-07  -1.2131643E-07  -1.0332237E-07  -8.3072983E-08  -6.2090905E-08  -4.2739167E-08  -3.3798455E-07  -3.2097142E-07  -3.0009642E-07  -2.7490356E-07  -2.4486272E-07  -2.0961031E-07  -1.6978170E-07  -1.2814253E-07  -8.9328942E-08  -2.5038489E-07  -1.7629289E-07  -3.3479972E-07  -6.1947981E-07  -1.1239204E-06  -2.0148366E-06  -3.6140905E-06  -6.5488357E-06  -1.2001005E-05  -2.2002256E-05  -3.9457758E-05  -6.7705609E-05   0.0000000E+00   0.0000000E+00   0.0000000E+00   0.0000000E+00   0.0000000E+00   0.0000000E+00   0.0000000E+00   0.0000000E+00   0.0000000E+00   0.0000000E+00   0.0000000E+00   0.0000000E+00   0.0000000E+00   0.0000000E+00   0.0000000E+00  -1.6880618E-11  -1.9060270E-12   0.0000000E+00   0.0000000E+00  -2.3710359E-10  -7.7307792E-11  -1.1060763E-11   0.0000000E+00  -1.2367655E-09  -5.4860128E-10  -1.6873522E-10  -2.3369962E-11  -4.2432498E-09  -2.1519053E-09  -8.5620655E-10  -2.1820318E-10  -1.1513674E-08  -6.2634746E-09  -2.8126630E-09  -9.0731189E-10  -2.6934663E-08  -1.5258436E-08  -7.3074751E-09  -2.6362776E-09  -5.7275710E-08  -3.3257596E-08  -1.6514210E-08  -6.3043792E-09  -1.1441870E-07  -6.7521853E-08  -3.4258960E-08  -1.3470927E-08  -2.1933212E-07  -1.3093840E-07  -6.7371502E-08  -2.6934906E-08  -4.0884328E-07  -2.4623409E-07  -1.2797987E-07  -5.1722687E-08  -7.4662501E-07  -4.5316153E-07  -2.3754737E-07  -9.6853341E-08  -1.3492178E-06  -8.2523911E-07  -4.3576881E-07  -1.7905845E-07  -2.4465514E-06  -1.5084603E-06  -8.0144798E-07  -3.3165909E-07  -4.4990566E-06  -2.7999304E-06  -1.4974639E-06  -6.2511594E-07  -8.4029625E-06  -5.2915907E-06  -2.8611410E-06  -1.2156487E-06  -1.5730286E-05  -1.0043569E-05  -5.5410928E-06  -2.4484880E-06  -2.8676073E-05  -1.8550505E-05  -1.0572712E-05  -5.0242725E-06  -4.9638580E-05  -3.2554926E-05  -1.9395866E-05   0.0000000E+00   0.0000000E+00   0.0000000E+00   0.0000000E+00   0.0000000E+00   0.0000000E+00   0.0000000E+00   0.0000000E+00   0.0000000E+00   0.0000000E+00   0.0000000E+00   0.0000000E+00   0.0000000E+00   0.0000000E+00   0.0000000E+00   0.0000000E+00   0.0000000E+00   0.0000000E+00   0.0000000E+00   0.0000000E+00   0.0000000E+00   0.0000000E+00   0.0000000E+00   0.0000000E+00   0.0000000E+00   0.0000000E+00   0.0000000E+00   0.0000000E+00   0.0000000E+00   0.0000000E+00   0.0000000E+00   0.0000000E+00   0.0000000E+00   0.0000000E+00   0.0000000E+00   0.0000000E+00   0.0000000E+00   0.0000000E+00   0.0000000E+00   0.0000000E+00   0.0000000E+00   0.0000000E+00   0.0000000E+00   0.0000000E+00   0.0000000E+00   0.0000000E+00   0.0000000E+00   0.0000000E+00   0.0000000E+00   0.0000000E+00   0.0000000E+00   0.0000000E+00   0.0000000E+00   0.0000000E+00   0.0000000E+00   0.0000000E+00   0.0000000E+00   0.0000000E+00   0.0000000E+00   0.0000000E+00   0.0000000E+00   0.0000000E+00   0.0000000E+00   0.0000000E+00   0.0000000E+00   0.0000000E+00   0.0000000E+00   0.0000000E+00   0.0000000E+00   0.0000000E+00   0.0000000E+00   0.0000000E+00   0.0000000E+00   0.0000000E+00   0.0000000E+00   0.0000000E+00   0.0000000E+00   0.0000000E+00   0.0000000E+00   0.0000000E+00   0.0000000E+00   0.0000000E+00   0.0000000E+00   0.0000000E+00   0.0000000E+00   0.0000000E+00   0.0000000E+00   0.0000000E+00   0.0000000E+00   0.0000000E+00   0.0000000E+00   0.0000000E+00   0.0000000E+00   0.0000000E+00   0.0000000E+00   0.0000000E+00   0.0000000E+00   0.0000000E+00   0.0000000E+00   0.0000000E+00   0.0000000E+00   0.0000000E+00   0.0000000E+00   0.0000000E+00   0.0000000E+00   0.0000000E+00   0.0000000E+00   0.0000000E+00   0.0000000E+00   0.0000000E+00   0.0000000E+00   0.0000000E+00   0.0000000E+00   0.0000000E+00   0.0000000E+00   0.0000000E+00   0.0000000E+00   0.0000000E+00   0.0000000E+00   0.0000000E+00   0.0000000E+00   0.0000000E+00   0.0000000E+00   0.0000000E+00   0.0000000E+00   0.0000000E+00   0.0000000E+00   0.0000000E+00   0.0000000E+00   0.0000000E+00   0.0000000E+00   0.0000000E+00   0.0000000E+00   0.0000000E+00   0.0000000E+00   0.0000000E+00   0.0000000E+00   0.0000000E+00   0.0000000E+00   0.0000000E+00   0.0000000E+00   0.0000000E+00   0.0000000E+00   0.0000000E+00   0.0000000E+00   0.0000000E+00   0.0000000E+00   0.0000000E+00   0.0000000E+00   0.0000000E+00   0.0000000E+00   0.0000000E+00   0.0000000E+00   0.0000000E+00   0.0000000E+00   0.0000000E+00   0.0000000E+00   0.0000000E+00   0.0000000E+00   0.0000000E+00   0.0000000E+00   0.0000000E+00   0.0000000E+00   0.0000000E+00   0.0000000E+00   0.0000000E+00   0.0000000E+00   0.0000000E+00   0.0000000E+00   0.0000000E+00   0.0000000E+00   0.0000000E+00   0.0000000E+00   0.0000000E+00   0.0000000E+00   0.0000000E+00   0.0000000E+00   0.0000000E+00   0.0000000E+00   0.0000000E+00   0.0000000E+00   0.0000000E+00   0.0000000E+00   0.0000000E+00   0.0000000E+00   0.0000000E+00   0.0000000E+00   0.0000000E+00   0.0000000E+00   0.0000000E+00   0.0000000E+00   0.0000000E+00   0.0000000E+00   0.0000000E+00   0.0000000E+00   0.0000000E+00   0.0000000E+00   0.0000000E+00   0.0000000E+00   0.0000000E+00   0.0000000E+00   0.0000000E+00   0.0000000E+00   0.0000000E+00   0.0000000E+00   0.0000000E+00   0.0000000E+00   0.0000000E+00   0.0000000E+00   0.0000000E+00   0.0000000E+00   0.0000000E+00   0.0000000E+00   0.0000000E+00   0.0000000E+00   0.0000000E+00   0.0000000E+00   0.0000000E+00   0.0000000E+00   0.0000000E+00   0.0000000E+00   0.0000000E+00   0.0000000E+00   0.0000000E+00   0.0000000E+00   0.0000000E+00   0.0000000E+00   0.0000000E+00   0.0000000E+00   0.0000000E+00   0.0000000E+00   0.0000000E+00   0.0000000E+00   0.0000000E+00   0.0000000E+00   0.0000000E+00   0.0000000E+00   0.0000000E+00   0.0000000E+00   0.0000000E+00   0.0000000E+00   0.0000000E+00   0.0000000E+00   0.0000000E+00   0.0000000E+00   0.0000000E+00   0.0000000E+00   0.0000000E+00   0.0000000E+00   0.0000000E+00   0.0000000E+00   0.0000000E+00   0.0000000E+00   0.0000000E+00   0.0000000E+00   0.0000000E+00   0.0000000E+00   0.0000000E+00   0.0000000E+00   0.0000000E+00   0.0000000E+00   0.0000000E+00   0.0000000E+00   0.0000000E+00   0.0000000E+00   0.0000000E+00   0.0000000E+00   0.0000000E+00   0.0000000E+00   0.0000000E+00   0.0000000E+00   0.0000000E+00   0.0000000E+00   0.0000000E+00   0.0000000E+00   0.0000000E+00   0.0000000E+00   0.0000000E+00   0.0000000E+00   0.0000000E+00   0.0000000E+00   0.0000000E+00   0.0000000E+00   0.0000000E+00   0.0000000E+00   0.0000000E+00   0.0000000E+00   0.0000000E+00   0.0000000E+00   0.0000000E+00   0.0000000E+00   0.0000000E+00   0.0000000E+00   0.0000000E+00   0.0000000E+00   0.0000000E+00   0.0000000E+00   0.0000000E+00   0.0000000E+00   0.0000000E+00   0.0000000E+00   0.0000000E+00   0.0000000E+00   0.0000000E+00   0.0000000E+00   0.0000000E+00   0.0000000E+00   0.0000000E+00   0.0000000E+00   0.0000000E+00   0.0000000E+00   0.0000000E+00   0.0000000E+00   0.0000000E+00   0.0000000E+00   0.0000000E+00   0.0000000E+00   0.0000000E+00   0.0000000E+00   0.0000000E+00   0.0000000E+00   0.0000000E+00   0.0000000E+00   0.0000000E+00   0.0000000E+00   0.0000000E+00   0.0000000E+00   0.0000000E+00   0.0000000E+00   0.0000000E+00   0.0000000E+00   0.0000000E+00   0.0000000E+00   0.0000000E+00   0.0000000E+00   0.0000000E+00   0.0000000E+00   0.0000000E+00   0.0000000E+00   0.0000000E+00   0.0000000E+00   0.0000000E+00   0.0000000E+00   0.0000000E+00   0.0000000E+00   0.0000000E+00   0.0000000E+00   0.0000000E+00   0.0000000E+00   0.0000000E+00   0.0000000E+00   0.0000000E+00   0.0000000E+00   0.0000000E+00   0.0000000E+00   0.0000000E+00   0.0000000E+00   0.0000000E+00   0.0000000E+00   0.0000000E+00   0.0000000E+00   0.0000000E+00   0.0000000E+00   0.0000000E+00   0.0000000E+00   0.0000000E+00   0.0000000E+00   0.0000000E+00   0.0000000E+00   0.0000000E+00   0.0000000E+00   0.0000000E+00   0.0000000E+00   0.0000000E+00   0.0000000E+00   0.0000000E+00   0.0000000E+00   0.0000000E+00   0.0000000E+00   0.0000000E+00   0.0000000E+00   0.0000000E+00   0.0000000E+00   0.0000000E+00   0.0000000E+00   0.0000000E+00   0.0000000E+00   0.0000000E+00   0.0000000E+00   0.0000000E+00   0.0000000E+00   0.0000000E+00   0.0000000E+00   0.0000000E+00   0.0000000E+00   0.0000000E+00   0.0000000E+00   0.0000000E+00   0.0000000E+00   0.0000000E+00   0.0000000E+00   0.0000000E+00   0.0000000E+00   0.0000000E+00   0.0000000E+00   0.0000000E+00   0.0000000E+00   0.0000000E+00   0.0000000E+00   0.0000000E+00   0.0000000E+00   0.0000000E+00   0.0000000E+00   0.0000000E+00   0.0000000E+00   0.0000000E+00   0.0000000E+00   0.0000000E+00   0.0000000E+00   0.0000000E+00   0.0000000E+00   0.0000000E+00   0.0000000E+00   0.0000000E+00   0.0000000E+00   0.0000000E+00   0.0000000E+00   0.0000000E+00   0.0000000E+00   0.0000000E+00   0.0000000E+00   0.0000000E+00   0.0000000E+00   0.0000000E+00   0.0000000E+00   0.0000000E+00   0.0000000E+00   0.0000000E+00   0.0000000E+00   0.0000000E+00   0.0000000E+00   0.0000000E+00   0.0000000E+00   0.0000000E+00   0.0000000E+00   0.0000000E+00   0.0000000E+00   0.0000000E+00   0.0000000E+00   0.0000000E+00   0.0000000E+00   0.0000000E+00   0.0000000E+00   0.0000000E+00   0.0000000E+00   0.0000000E+00   0.0000000E+00   0.0000000E+00   0.0000000E+00   0.0000000E+00   0.0000000E+00   0.0000000E+00   0.0000000E+00   0.0000000E+00   0.0000000E+00   0.0000000E+00   0.0000000E+00   0.0000000E+00   0.0000000E+00   0.0000000E+00   0.0000000E+00   0.0000000E+00  -3.2885387E-07  -4.0353262E-07  -4.6936390E-07  -5.2539718E-07  -5.7242283E-07  -4.7090165E-07  -6.1553914E-07  -7.5168339E-07  -8.7108879E-07  -9.7238944E-07  -1.0573001E-06  -8.6568946E-07  -1.1261327E-06  -1.3695545E-06  -1.5816338E-06  -1.7606635E-06  -1.9103147E-06  -1.5616423E-06  -2.0222396E-06  -2.4493393E-06  -2.8186282E-06  -3.1284364E-06  -3.3863876E-06  -2.7785211E-06  -3.5745379E-06  -4.3058940E-06  -4.9343089E-06  -5.4591660E-06  -5.8942073E-06  -4.9305331E-06  -6.2636241E-06  -7.4691611E-06  -8.4983531E-06  -9.3600538E-06  -1.0076970E-05  -8.8133065E-06  -1.0963517E-05  -1.2846450E-05  -1.4440393E-05  -1.5789232E-05  -1.6931594E-05  -1.5900734E-05  -1.9201285E-05  -2.1942133E-05  -2.4241550E-05  -2.6236887E-05  -2.7985730E-05  -2.8687678E-05  -3.3421235E-05  -3.7067952E-05  -4.0136641E-05  -4.2942644E-05  -4.5534664E-05  -5.0697832E-05  -5.7006713E-05  -6.1422455E-05  -6.5284665E-05  -6.9146918E-05  -7.2946685E-05  -8.5631385E-05  -9.3866387E-05  -9.9048906E-05  -1.0397457E-04  -1.0944029E-04  -1.1508507E-04  -1.3654353E-04  -1.4835622E-04  -1.5522512E-04  -1.6220800E-04  -1.7039594E-04  -1.7894016E-04  -2.0984121E-04  -2.2765783E-04  -2.3821402E-04  -2.4905510E-04  -2.6165659E-04  -2.7456612E-04  -3.2125512E-04  -3.4614422E-04  -3.6208244E-04  -3.7855431E-04  -3.9735710E-04  -4.1630585E-04  -4.9473962E-04  -5.2591553E-04  -5.4792373E-04  -5.7106162E-04  -5.9750176E-04  -6.2424433E-04  -7.7302154E-04  -8.0261042E-04  -8.2624354E-04  -8.5453788E-04  -8.8942662E-04  -9.2595565E-04  -1.1863853E-03  -1.2086504E-03  -1.2316512E-03  -1.2646399E-03  -1.3096783E-03  -1.3588271E-03  -1.7827190E-03  -1.7929046E-03  -1.8121528E-03  -1.8496956E-03  -1.9074293E-03  -1.9727566E-03  -2.6123025E-03  -2.6161252E-03  -2.6327886E-03  -2.6751391E-03  -2.7475946E-03  -2.8322919E-03  -3.7661600E-03  -3.7709572E-03  -3.7836260E-03  -3.8259809E-03  -3.9120968E-03  -4.0184474E-03  -5.3830533E-03  -5.3900899E-03  -5.3805420E-03  -5.4068239E-03  -5.5007813E-03  -5.6298617E-03  -7.6289135E-03  -7.6198364E-03  -7.5554443E-03  -7.5369021E-03  -7.6276949E-03  -7.7799377E-03  -1.0704519E-02  -1.0641353E-02  -1.0447864E-02  -1.0331767E-02  -1.0403123E-02  -1.0581877E-02  -1.4750699E-02  -1.4585086E-02  -1.4136350E-02  -1.3846079E-02  -1.3884615E-02  -1.4105950E-02  -1.9880181E-02  -1.9453244E-02  -1.8529909E-02  -1.7962018E-02  -1.7977023E-02  -1.8292818E-02  -2.5895847E-02  -2.4912367E-02  -2.3159944E-02  -2.2201341E-02  -2.2268271E-02  -2.2814011E-02  -3.1960979E-02  -2.9963737E-02  -2.6910627E-02  -2.5499290E-02  -2.5838448E-02  -2.6898634E-02  -3.6507916E-02  -3.2672577E-02  -2.7798992E-02  -2.6097264E-02  -2.7103562E-02  -2.9184794E-02  -3.6340322E-02  -2.9931046E-02  -2.3330959E-02  -2.1548538E-02  -2.3788156E-02  -2.7689416E-02  -2.6399095E-02  -1.7262101E-02  -1.0158412E-02  -8.9080706E-03  -1.3225973E-02  -2.0030759E-02   1.7268062E-03   1.0885384E-02   1.5367426E-02   1.4612619E-02   7.0177950E-03  -4.0006153E-03   5.9131302E-02   6.3560724E-02   5.8104627E-02   5.0899357E-02   3.8174145E-02   2.1564597E-02   1.5554520E-01   1.4742956E-01   1.1993386E-01   9.9914186E-02   7.9423122E-02   5.5929538E-02   2.7528119E-01   2.5087067E-01   1.9348705E-01   1.5646479E-01   1.2691602E-01   9.5936492E-02   3.7903109E-01   3.4362280E-01   2.6267606E-01   2.1180087E-01   1.7417745E-01   1.3623679E-01   4.4442439E-01   4.0764299E-01   3.1600058E-01   2.5762114E-01   2.1445385E-01   1.7084767E-01   4.7769666E-01   4.4409510E-01   3.5034552E-01   2.8943205E-01   2.4299936E-01   1.9523463E-01   4.8987922E-01   4.6045005E-01   3.6806121E-01   3.0689874E-01   2.5863346E-01   2.0804712E-01   4.8970804E-01   4.6378332E-01   3.7336949E-01   3.1264329E-01   2.6341033E-01   2.1110746E-01   4.8376173E-01   4.5990819E-01   3.7092659E-01   3.1065989E-01   2.6101628E-01   2.0788382E-01   4.7592500E-01   4.5275730E-01   3.6449242E-01   3.0456397E-01   2.5493035E-01   2.0168793E-01   4.6891624E-01   4.4494331E-01   3.5639092E-01   2.9653266E-01   2.4723558E-01   1.9448411E-01   4.5709780E-01   4.3301332E-01   3.4563389E-01   2.8670639E-01   2.3833464E-01   1.8665680E-01   4.3967056E-01   4.1626576E-01   3.3162099E-01   2.7453294E-01   2.2765493E-01   1.7758615E-01   4.1633180E-01   3.9428872E-01   3.1379583E-01   2.5936562E-01   2.1448593E-01   1.6650215E-01   3.8760373E-01   3.6741126E-01   2.9221547E-01   2.4110201E-01   1.9863251E-01   1.5313418E-01   3.5493183E-01   3.3681712E-01   2.6772723E-01   2.2038928E-01   1.8062872E-01   1.3792859E-01   3.2026476E-01   3.0428258E-01   2.4171989E-01   1.9843240E-01   1.6157885E-01   1.2189621E-01   2.8554678E-01   2.7177960E-01   2.1579754E-01   1.7663603E-01   1.4278957E-01   1.0624009E-01   2.5214675E-01   2.4075772E-01   1.9134921E-01   1.5620604E-01   1.2536536E-01   9.1968626E-02   2.2070253E-01   2.1207894E-01   1.6919658E-01   1.3782690E-01   1.0992975E-01   7.9662293E-02   1.9104065E-01   1.8604365E-01   1.4959447E-01   1.2163671E-01   9.6598752E-02   6.9463573E-02   1.6340153E-01   1.6260271E-01   1.3246322E-01   1.0741927E-01   8.5156567E-02   6.1209358E-02   1.3874133E-01   1.4184710E-01   1.1773358E-01   9.4938084E-02   7.5268634E-02   5.4609343E-02   1.1805660E-01   1.2386622E-01   1.0541666E-01   8.4232241E-02   6.6764168E-02   4.9394980E-02   1.0754349E-01   9.5149562E-02   7.5699933E-02   5.9743673E-02   4.5398392E-02   9.1786429E-02   8.6152583E-02   6.9733940E-02   5.4597627E-02   4.2519357E-02   7.7975988E-02   6.6250697E-02   5.1931385E-02   4.0887900E-02   7.1076527E-02   6.4561717E-02   5.2119106E-02   4.1009486E-02   6.4099506E-02   5.4755237E-02   4.3576665E-02   5.8462583E-02   4.8721477E-02   6.2342487E-02   5.4495748E-02  -6.1146983E-07  -6.4337405E-07  -6.6888464E-07  -6.8884856E-07  -7.0413239E-07  -7.1552188E-07  -7.2367988E-07  -7.2912940E-07  -7.3224800E-07  -1.1278346E-06  -1.1855328E-06  -1.2317203E-06  -1.2679166E-06  -1.2956889E-06  -1.3164407E-06  -1.3313509E-06  -1.3413409E-06  -1.3470718E-06  -2.0345306E-06  -2.1361573E-06  -2.2175336E-06  -2.2813458E-06  -2.3303696E-06  -2.3670661E-06  -2.3934772E-06  -2.4112073E-06  -2.4213928E-06  -3.6001327E-06  -3.7749305E-06  -3.9148667E-06  -4.0246191E-06  -4.1089970E-06  -4.1722183E-06  -4.2177735E-06  -4.2483803E-06  -4.2659744E-06  -6.2537811E-06  -6.5475501E-06  -6.7826099E-06  -6.9669477E-06  -7.1087406E-06  -7.2150424E-06  -7.2916887E-06  -7.3432066E-06  -7.3728297E-06  -1.0668938E-05  -1.1151828E-05  -1.1537881E-05  -1.1840549E-05  -1.2073439E-05  -1.2248137E-05  -1.2374158E-05  -1.2458883E-05  -1.2507601E-05  -1.7884915E-05  -1.8662693E-05  -1.9283669E-05  -1.9770257E-05  -2.0144747E-05  -2.0425858E-05  -2.0628762E-05  -2.0765252E-05  -2.0843756E-05  -2.9481385E-05  -3.0711308E-05  -3.1691739E-05  -3.2459149E-05  -3.3049924E-05  -3.3493699E-05  -3.3814362E-05  -3.4030250E-05  -3.4154524E-05  -4.7827067E-05  -4.9738122E-05  -5.1261093E-05  -5.2450825E-05  -5.3366450E-05  -5.4054904E-05  -5.4553097E-05  -5.4888995E-05  -5.5082535E-05  -7.6416014E-05  -7.9342099E-05  -8.1673083E-05  -8.3488449E-05  -8.4884181E-05  -8.5934531E-05  -8.6695858E-05  -8.7210232E-05  -8.7507113E-05  -1.2032241E-04  -1.2475146E-04  -1.2826701E-04  -1.3099340E-04  -1.3308581E-04  -1.3466099E-04  -1.3580499E-04  -1.3657974E-04  -1.3702788E-04  -1.8683016E-04  -1.9345376E-04  -1.9867279E-04  -2.0269828E-04  -2.0577938E-04  -2.0809927E-04  -2.0978738E-04  -2.1093385E-04  -2.1159867E-04  -2.8630506E-04  -2.9605089E-04  -3.0366264E-04  -3.0949645E-04  -3.1394677E-04  -3.1729758E-04  -3.1974108E-04  -3.2140571E-04  -3.2237353E-04  -4.3336221E-04  -4.4741656E-04  -4.5830765E-04  -4.6659639E-04  -4.7289734E-04  -4.7764147E-04  -4.8110948E-04  -4.8348002E-04  -4.8486207E-04  -6.4837624E-04  -6.6823722E-04  -6.8352115E-04  -6.9506792E-04  -7.0381793E-04  -7.1041001E-04  -7.1524316E-04  -7.1855832E-04  -7.2049722E-04  -9.5940422E-04  -9.8696549E-04  -1.0080192E-03  -1.0238168E-03  -1.0357619E-03  -1.0447778E-03  -1.0514121E-03  -1.0559825E-03  -1.0586646E-03  -1.4044896E-03  -1.4420806E-03  -1.4706003E-03  -1.4918856E-03  -1.5079770E-03  -1.5201689E-03  -1.5291874E-03  -1.5354300E-03  -1.5391064E-03  -2.0339957E-03  -2.0844073E-03  -2.1224848E-03  -2.1508245E-03  -2.1723183E-03  -2.1887089E-03  -2.2009166E-03  -2.2094152E-03  -2.2144401E-03  -2.9127470E-03  -2.9792874E-03  -3.0295108E-03  -3.0669430E-03  -3.0955356E-03  -3.1175453E-03  -3.1340832E-03  -3.1456714E-03  -3.1525493E-03  -4.1219885E-03  -4.2085941E-03  -4.2742556E-03  -4.3234951E-03  -4.3615215E-03  -4.3911370E-03  -4.4136131E-03  -4.4294689E-03  -4.4389199E-03  -5.7607689E-03  -5.8724205E-03  -5.9579401E-03  -6.0227537E-03  -6.0734753E-03  -6.1134589E-03  -6.1440831E-03  -6.1658304E-03  -6.1788401E-03  -7.9441182E-03  -8.0880309E-03  -8.1998343E-03  -8.2856324E-03  -8.3536515E-03  -8.4078098E-03  -8.4495703E-03  -8.4793577E-03  -8.4972270E-03  -1.0790261E-02  -1.0978386E-02  -1.1126540E-02  -1.1241306E-02  -1.1333080E-02  -1.1406592E-02  -1.1463461E-02  -1.1504092E-02  -1.1528505E-02  -1.4382660E-02  -1.4636967E-02  -1.4837855E-02  -1.4993290E-02  -1.5117668E-02  -1.5217386E-02  -1.5294550E-02  -1.5349679E-02  -1.5382800E-02  -1.8692425E-02  -1.9055609E-02  -1.9337080E-02  -1.9550297E-02  -1.9718744E-02  -1.9853216E-02  -1.9957196E-02  -2.0031441E-02  -2.0076049E-02  -2.3458816E-02  -2.4017923E-02  -2.4430702E-02  -2.4727996E-02  -2.4955126E-02  -2.5134128E-02  -2.5272330E-02  -2.5371194E-02  -2.5430640E-02  -2.8044388E-02  -2.8979665E-02  -2.9624462E-02  -3.0052206E-02  -3.0358654E-02  -3.0593237E-02  -3.0773407E-02  -3.0902697E-02  -3.0980708E-02  -3.1307891E-02  -3.2969356E-02  -3.4047514E-02  -3.4698043E-02  -3.5120308E-02  -3.5425570E-02  -3.5656184E-02  -3.5821997E-02  -3.5922553E-02  -3.1565279E-02  -3.4552488E-02  -3.6429346E-02  -3.7480220E-02  -3.8090587E-02  -3.8493954E-02  -3.8787518E-02  -3.8997509E-02  -3.9125364E-02  -2.6744017E-02  -3.1937916E-02  -3.5182837E-02  -3.6930211E-02  -3.7858970E-02  -3.8412210E-02  -3.8790677E-02  -3.9056703E-02  -3.9218776E-02  -1.4854023E-02  -2.3347881E-02  -2.8705321E-02  -3.1560451E-02  -3.3002611E-02  -3.3789232E-02  -3.4288999E-02  -3.4629505E-02  -3.4835815E-02   5.2647460E-03  -7.6551996E-03  -1.5925389E-02  -2.0352542E-02  -2.2542939E-02  -2.3671540E-02  -2.4342669E-02  -2.4783136E-02  -2.5047114E-02   3.3152178E-02   1.4911469E-02   3.0664662E-03  -3.3362238E-03  -6.4917491E-03  -8.0705471E-03  -8.9668976E-03  -9.5357150E-03  -9.8722801E-03   6.6233456E-02   4.2269837E-02   2.6527191E-02   1.7933914E-02   1.3685830E-02   1.1585845E-02   1.0424863E-02   9.7052082E-03   9.2838937E-03   9.9970467E-02   7.0519038E-02   5.1007561E-02   4.0275224E-02   3.4946375E-02   3.2321569E-02   3.0888971E-02   3.0012669E-02   2.9503005E-02   1.2900129E-01   9.4847590E-02   7.2103329E-02   5.9531078E-02   5.3267967E-02   5.0184373E-02   4.8509948E-02   4.7491536E-02   4.6900760E-02   1.4910419E-01   1.1133741E-01   8.6127676E-02   7.2158806E-02   6.5188035E-02   6.1754383E-02   5.9891202E-02   5.8758639E-02   5.8101594E-02   1.5894338E-01   1.1869523E-01   9.1819912E-02   7.6920033E-02   6.9481775E-02   6.5815002E-02   6.3821845E-02   6.2607296E-02   6.1901178E-02   1.6018941E-01   1.1846052E-01   9.0616770E-02   7.5188704E-02   6.7489780E-02   6.3691601E-02   6.1621159E-02   6.0354806E-02   5.9616651E-02   1.5610215E-01   1.1369523E-01   8.5427552E-02   6.9779754E-02   6.1976679E-02   5.8124736E-02   5.6019105E-02   5.4726597E-02   5.3971298E-02   1.4980195E-01   1.0733931E-01   7.9058275E-02   6.3417390E-02   5.5623002E-02   5.1773764E-02   4.9665015E-02   4.8366942E-02   4.7606960E-02   1.4311853E-01   1.0110356E-01   7.3135510E-02   5.7677582E-02   4.9977854E-02   4.6174135E-02   4.4087179E-02   4.2799920E-02   4.2045254E-02   1.3636518E-01   9.5240638E-02   6.7873076E-02   5.2751936E-02   4.5220897E-02   4.1498851E-02   3.9454110E-02   3.8191140E-02   3.7450068E-02   1.2887536E-01   8.9053556E-02   6.2558696E-02   4.7921278E-02   4.0629473E-02   3.7022557E-02   3.5038419E-02   3.3811618E-02   3.3091497E-02   1.1983267E-01   8.1698194E-02   5.6336001E-02   4.2325601E-02   3.5343129E-02   3.1885039E-02   2.9979851E-02   2.8800935E-02   2.8108992E-02   1.0890744E-01   7.2805449E-02   4.8815601E-02   3.5569098E-02   2.8966326E-02   2.5692906E-02   2.3886904E-02   2.2768835E-02   2.2112940E-02   9.6470408E-02   6.2689528E-02   4.0278219E-02   2.7918410E-02   2.1762908E-02   1.8711619E-02   1.7027363E-02   1.5984725E-02   1.5373627E-02   8.3438680E-02   5.2186333E-02   3.1503782E-02   2.0122763E-02   1.4468164E-02   1.1671063E-02   1.0128950E-02   9.1750398E-03   8.6165676E-03   7.0895478E-02   4.2264204E-02   2.3370607E-02   1.3002091E-02   7.8679780E-03   5.3377622E-03   3.9463774E-03   3.0867811E-03   2.5841049E-03   5.9721261E-02   3.3665054E-02   1.6504249E-02   7.0998855E-03   2.4537845E-03   1.7172890E-04  -1.0794725E-03  -1.8511270E-03  -2.3017316E-03   5.0426014E-02   2.6781021E-02   1.1181606E-02   2.6067994E-03  -1.6403035E-03  -3.7265478E-03  -4.8668245E-03  -5.5670892E-03  -5.9745498E-03   4.3155301E-02   2.1723695E-02   7.4317288E-03  -5.1978044E-04  -4.5062071E-03  -6.4777248E-03  -7.5505702E-03  -8.2017304E-03  -8.5769063E-03   3.7813287E-02   1.8443093E-02   5.1929047E-03  -2.3878412E-03  -6.2905056E-03  -8.2531013E-03  -9.3142241E-03  -9.9429525E-03  -1.0297452E-02   3.4198642E-02   1.6831901E-02   4.4250162E-03  -3.0513639E-03  -7.0760399E-03  -9.1622006E-03  -1.0285206E-02  -1.0927510E-02  -1.1276704E-02   3.2074034E-02   1.6754691E-02   5.1264009E-03  -2.4583610E-03  -6.8275323E-03  -9.2025315E-03  -1.0492893E-02  -1.1207378E-02  -1.1578922E-02   3.1190114E-02   1.8029021E-02   7.2644334E-03  -4.7552865E-04  -5.3846720E-03  -8.2409047E-03  -9.8470505E-03  -1.0731451E-02  -1.1178264E-02   3.1217745E-02   2.0316724E-02   1.0648399E-02   2.9491927E-03  -2.5136988E-03  -6.0149292E-03  -8.1089037E-03  -9.2977900E-03  -9.9024074E-03   3.1802207E-02   2.3112345E-02   1.4826667E-02   7.5753308E-03   1.8568449E-03  -2.2251159E-03  -4.9027056E-03  -6.5211486E-03  -7.3732054E-03   3.2830052E-02   2.5876604E-02   1.9158412E-02   1.2834650E-02   7.3817186E-03   3.1086309E-03   4.0315557E-05  -1.9758868E-03  -3.1049822E-03   3.4910765E-02   2.8497552E-02   2.3054846E-02   1.7989635E-02   1.3363660E-02   9.4476119E-03   6.4068185E-03   4.2569814E-03   2.9779044E-03   3.9351154E-02   3.2026280E-02   2.6661096E-02   2.2492323E-02   1.8947344E-02   1.5873196E-02   1.3326855E-02   1.1402495E-02   1.0195154E-02   4.6198256E-02   3.8198769E-02   3.1738274E-02   2.7095784E-02   2.3876283E-02   2.1533284E-02   1.9707359E-02   1.8296698E-02   1.7372172E-02   5.1458254E-02   4.5500755E-02   3.9480142E-02   3.4120440E-02   3.0066034E-02   2.7338397E-02   2.5562705E-02   2.4393231E-02   2.3683721E-02   4.8548214E-02   4.5757659E-02   4.2413734E-02   3.8815174E-02   3.5708793E-02   3.3541150E-02   3.2220025E-02   3.1497121E-02   4.4725984E-02   4.4372752E-02   4.3364778E-02   4.2507432E-02   4.2055756E-02   4.1845646E-02   4.0435717E-02   4.1232042E-02   4.2310987E-02   4.3114729E-02  -7.3326237E-07  -7.3224788E-07  -7.2912934E-07  -7.2367942E-07  -7.1552199E-07  -7.0413216E-07  -6.8884867E-07  -6.6888464E-07  -1.3489386E-06  -1.3470718E-06  -1.3413414E-06  -1.3313506E-06  -1.3164412E-06  -1.2956884E-06  -1.2679167E-06  -1.2317198E-06  -2.4247142E-06  -2.4213941E-06  -2.4112069E-06  -2.3934774E-06  -2.3670657E-06  -2.3303699E-06  -2.2813449E-06  -2.2175334E-06  -4.2717138E-06  -4.2659735E-06  -4.2483789E-06  -4.2177717E-06  -4.1722192E-06  -4.1089979E-06  -4.0246173E-06  -3.9148672E-06  -7.3824904E-06  -7.3728279E-06  -7.3432061E-06  -7.2916887E-06  -7.2150438E-06  -7.1087397E-06  -6.9669472E-06  -6.7826095E-06  -1.2523494E-05  -1.2507601E-05  -1.2458880E-05  -1.2374157E-05  -1.2248142E-05  -1.2073439E-05  -1.1840551E-05  -1.1537881E-05  -2.0869364E-05  -2.0843752E-05  -2.0765252E-05  -2.0628764E-05  -2.0425856E-05  -2.0144742E-05  -1.9770248E-05  -1.9283667E-05  -3.4195058E-05  -3.4154513E-05  -3.4030243E-05  -3.3814355E-05  -3.3493696E-05  -3.3049913E-05  -3.2459175E-05  -3.1691743E-05  -5.5145749E-05  -5.5082546E-05  -5.4888969E-05  -5.4553086E-05  -5.4054919E-05  -5.3366435E-05  -5.2450847E-05  -5.1261090E-05  -8.7604130E-05  -8.7507098E-05  -8.7210195E-05  -8.6695851E-05  -8.5934524E-05  -8.4884196E-05  -8.3488514E-05  -8.1673061E-05  -1.3717452E-04  -1.3702782E-04  -1.3657972E-04  -1.3580498E-04  -1.3466098E-04  -1.3308579E-04  -1.3099343E-04  -1.2826697E-04  -2.1181644E-04  -2.1159853E-04  -2.1093375E-04  -2.0978734E-04  -2.0809927E-04  -2.0577936E-04  -2.0269830E-04  -1.9867280E-04  -3.2269111E-04  -3.2237335E-04  -3.2140556E-04  -3.1974108E-04  -3.1729753E-04  -3.1394683E-04  -3.0949648E-04  -3.0366270E-04  -4.8531650E-04  -4.8486219E-04  -4.8347993E-04  -4.8110969E-04  -4.7764165E-04  -4.7289726E-04  -4.6659628E-04  -4.5830774E-04  -7.2113588E-04  -7.2049716E-04  -7.1855786E-04  -7.1524299E-04  -7.1041007E-04  -7.0381811E-04  -6.9506816E-04  -6.8352098E-04  -1.0595495E-03  -1.0586649E-03  -1.0559825E-03  -1.0514121E-03  -1.0447778E-03  -1.0357618E-03  -1.0238169E-03  -1.0080190E-03  -1.5403216E-03  -1.5391060E-03  -1.5354303E-03  -1.5291877E-03  -1.5201692E-03  -1.5079770E-03  -1.4918846E-03  -1.4706001E-03  -2.2161037E-03  -2.2144392E-03  -2.2094147E-03  -2.2009178E-03  -2.1887079E-03  -2.1723190E-03  -2.1508243E-03  -2.1224841E-03  -3.1548326E-03  -3.1525490E-03  -3.1456703E-03  -3.1340828E-03  -3.1175469E-03  -3.0955363E-03  -3.0669423E-03  -3.0295120E-03  -4.4420627E-03  -4.4389213E-03  -4.4294694E-03  -4.4136140E-03  -4.3911384E-03  -4.3615187E-03  -4.3234946E-03  -4.2742556E-03  -6.1831721E-03  -6.1788447E-03  -6.1658300E-03  -6.1440854E-03  -6.1134575E-03  -6.0734758E-03  -6.0227541E-03  -5.9579401E-03  -8.5031865E-03  -8.4972316E-03  -8.4793521E-03  -8.4495712E-03  -8.4078116E-03  -8.3536562E-03  -8.2856370E-03  -8.1998389E-03  -1.1536652E-02  -1.1528510E-02  -1.1504091E-02  -1.1463458E-02  -1.1406592E-02  -1.1333083E-02  -1.1241309E-02  -1.1126547E-02  -1.5393849E-02  -1.5382802E-02  -1.5349679E-02  -1.5294550E-02  -1.5217382E-02  -1.5117669E-02  -1.4993289E-02  -1.4837856E-02  -2.0090923E-02  -2.0076048E-02  -2.0031439E-02  -1.9957187E-02  -1.9853212E-02  -1.9718740E-02  -1.9550305E-02  -1.9337105E-02  -2.5450490E-02  -2.5430648E-02  -2.5371203E-02  -2.5272349E-02  -2.5134124E-02  -2.4955116E-02  -2.4727985E-02  -2.4430694E-02  -3.1006793E-02  -3.0980719E-02  -3.0902708E-02  -3.0773396E-02  -3.0593229E-02  -3.0358657E-02  -3.0052194E-02  -2.9624466E-02  -3.5956252E-02  -3.5922550E-02  -3.5822004E-02  -3.5656191E-02  -3.5425548E-02  -3.5120297E-02  -3.4698050E-02  -3.4047529E-02  -3.9168391E-02  -3.9125383E-02  -3.8997512E-02  -3.8787518E-02  -3.8493961E-02  -3.8090587E-02  -3.7480224E-02  -3.6429364E-02  -3.9273430E-02  -3.9218772E-02  -3.9056707E-02  -3.8790677E-02  -3.8412202E-02  -3.7858967E-02  -3.6930189E-02  -3.5182845E-02  -3.4905486E-02  -3.4835793E-02  -3.4629505E-02  -3.4288988E-02  -3.3789247E-02  -3.3002608E-02  -3.1560477E-02  -2.8705325E-02  -2.5136121E-02  -2.5047125E-02  -2.4783138E-02  -2.4342680E-02  -2.3671521E-02  -2.2542942E-02  -2.0352554E-02  -1.5925385E-02  -9.9854795E-03  -9.8722847E-03  -9.5357215E-03  -8.9668985E-03  -8.0705583E-03  -6.4917472E-03  -3.3362266E-03   3.0664587E-03   9.1425776E-03   9.2838928E-03   9.7052054E-03   1.0424867E-02   1.1585849E-02   1.3685836E-02   1.7933909E-02   2.6527179E-02   2.9332347E-02   2.9503008E-02   3.0012671E-02   3.0888973E-02   3.2321557E-02   3.4946375E-02   4.0275235E-02   5.1007550E-02   4.6703067E-02   4.6900760E-02   4.7491521E-02   4.8509941E-02   5.0184391E-02   5.3267948E-02   5.9531074E-02   7.2103329E-02   5.7881568E-02   5.8101568E-02   5.8758654E-02   5.9891205E-02   6.1754383E-02   6.5188043E-02   7.2158799E-02   8.6127669E-02   6.1664511E-02   6.1901167E-02   6.2607273E-02   6.3821808E-02   6.5815009E-02   6.9481783E-02   7.6920070E-02   9.1819949E-02   5.9368949E-02   5.9616636E-02   6.0354818E-02   6.1621148E-02   6.3691601E-02   6.7489773E-02   7.5188719E-02   9.0616770E-02   5.3717628E-02   5.3971272E-02   5.4726586E-02   5.6019109E-02   5.8124747E-02   6.1976679E-02   6.9779739E-02   8.5427538E-02   4.7351461E-02   4.7606934E-02   4.8366938E-02   4.9665041E-02   5.1773749E-02   5.5623010E-02   6.3417397E-02   7.9058304E-02   4.1791413E-02   4.2045236E-02   4.2799920E-02   4.4087183E-02   4.6174120E-02   4.9977850E-02   5.7677571E-02   7.3135532E-02   3.7200734E-02   3.7450057E-02   3.8191114E-02   3.9454088E-02   4.1498840E-02   4.5220897E-02   5.2751943E-02   6.7873076E-02   3.2849181E-02   3.3091493E-02   3.3811610E-02   3.5038393E-02   3.7022550E-02   4.0629454E-02   4.7921270E-02   6.2558696E-02   2.7876202E-02   2.8108981E-02   2.8800940E-02   2.9979842E-02   3.1885024E-02   3.5343103E-02   4.2325579E-02   5.6335993E-02   2.1892412E-02   2.2112943E-02   2.2768829E-02   2.3886906E-02   2.5692880E-02   2.8966304E-02   3.5569079E-02   4.8815615E-02   1.5168339E-02   1.5373625E-02   1.5984727E-02   1.7027358E-02   1.8711610E-02   2.1762902E-02   2.7918413E-02   4.0278208E-02   8.4291445E-03   8.6165722E-03   9.1750408E-03   1.0128947E-02   1.1671063E-02   1.4468159E-02   2.0122759E-02   3.1503782E-02   2.4155721E-03   2.5841051E-03   3.0867849E-03   3.9463784E-03   5.3377636E-03   7.8679733E-03   1.3002088E-02   2.3370605E-02  -2.4526445E-03  -2.3017263E-03  -1.8511247E-03  -1.0794683E-03   1.7173076E-04   2.4537845E-03   7.0998771E-03   1.6504234E-02  -6.1107362E-03  -5.9745456E-03  -5.5670831E-03  -4.8668240E-03  -3.7265469E-03  -1.6403021E-03   2.6067994E-03   1.1181610E-02  -8.7017044E-03  -8.5769035E-03  -8.2017295E-03  -7.5505646E-03  -6.4777238E-03  -4.5062131E-03  -5.1978789E-04   7.4317204E-03  -1.0414119E-02  -1.0297447E-02  -9.9429470E-03  -9.3142260E-03  -8.2530975E-03  -6.2905024E-03  -2.3878552E-03   5.1928945E-03  -1.1389424E-02  -1.1276710E-02  -1.0927510E-02  -1.0285198E-02  -9.1622053E-03  -7.0760432E-03  -3.0513797E-03   4.4250013E-03  -1.1695607E-02  -1.1578919E-02  -1.1207378E-02  -1.0492896E-02  -9.2025325E-03  -6.8275295E-03  -2.4583787E-03   5.1264018E-03  -1.1315368E-02  -1.1178271E-02  -1.0731451E-02  -9.8470431E-03  -8.2409037E-03  -5.3846743E-03  -4.7554169E-04   7.2644278E-03  -1.0087400E-02  -9.9024028E-03  -9.2977881E-03  -8.1089120E-03  -6.0149310E-03  -2.5137081E-03   2.9491903E-03   1.0648391E-02  -7.6379874E-03  -7.3732035E-03  -6.5211481E-03  -4.9027125E-03  -2.2251206E-03   1.8568486E-03   7.5753354E-03   1.4826652E-02  -3.4681663E-03  -3.1049796E-03  -1.9758868E-03   4.0315092E-05   3.1086307E-03   7.3817195E-03   1.2834655E-02   1.9158421E-02   2.5532651E-03   2.9779056E-03   4.2569842E-03   6.4068176E-03   9.4476137E-03   1.3363667E-02   1.7989647E-02   2.3054849E-02   9.7860703E-03   1.0195157E-02   1.1402493E-02   1.3326857E-02   1.5873199E-02   1.8947359E-02   2.2492331E-02   2.6661098E-02   1.7051348E-02   1.7372174E-02   1.8296702E-02   1.9707378E-02   2.1533286E-02   2.3876280E-02   2.7095800E-02   3.1738281E-02   2.3442566E-02   2.3683719E-02   2.4393240E-02   2.5562709E-02   2.7338408E-02   3.0066067E-02   3.4120478E-02   3.9480172E-02   3.1264320E-02   3.1497143E-02   3.2220043E-02   3.3541169E-02   3.5708804E-02   3.8815185E-02   4.2413764E-02   4.5757674E-02   4.1778725E-02   4.1845642E-02   4.2055767E-02   4.2507444E-02   4.3364782E-02   4.4372771E-02   4.4725962E-02   4.3395862E-02   4.3114737E-02   4.2311005E-02   4.1232027E-02   4.0435717E-02  -6.4337382E-07  -6.1146989E-07  -5.7242272E-07  -5.2539713E-07  -4.6936398E-07  -4.0353268E-07  -3.2885401E-07  -1.1855325E-06  -1.1278345E-06  -1.0573001E-06  -9.7238944E-07  -8.7108913E-07  -7.5168316E-07  -6.1553931E-07  -4.7090171E-07  -2.1361566E-06  -2.0345296E-06  -1.9103152E-06  -1.7606640E-06  -1.5816341E-06  -1.3695548E-06  -1.1261330E-06  -8.6568957E-07  -3.7749323E-06  -3.6001327E-06  -3.3863878E-06  -3.1284369E-06  -2.8186289E-06  -2.4493411E-06  -2.0222401E-06  -1.5616431E-06  -6.5475529E-06  -6.2537811E-06  -5.8942092E-06  -5.4591678E-06  -4.9343103E-06  -4.3058949E-06  -3.5745391E-06  -2.7785218E-06  -1.1151830E-05  -1.0668941E-05  -1.0076972E-05  -9.3600556E-06  -8.4983549E-06  -7.4691629E-06  -6.2636254E-06  -4.9305331E-06  -1.8662693E-05  -1.7884910E-05  -1.6931595E-05  -1.5789235E-05  -1.4440400E-05  -1.2846451E-05  -1.0963518E-05  -8.8133047E-06  -3.0711326E-05  -2.9481384E-05  -2.7985734E-05  -2.6236899E-05  -2.4241566E-05  -2.1942133E-05  -1.9201289E-05  -1.5900734E-05  -4.9738152E-05  -4.7827081E-05  -4.5534660E-05  -4.2942651E-05  -4.0136660E-05  -3.7067952E-05  -3.3421242E-05  -2.8687689E-05  -7.9342179E-05  -7.6416021E-05  -7.2946714E-05  -6.9146925E-05  -6.5284679E-05  -6.1422477E-05  -5.7006739E-05  -5.0697843E-05  -1.2475152E-04  -1.2032239E-04  -1.1508507E-04  -1.0944032E-04  -1.0397458E-04  -9.9048921E-05  -9.3866445E-05  -8.5631400E-05  -1.9345380E-04  -1.8683015E-04  -1.7894013E-04  -1.7039597E-04  -1.6220800E-04  -1.5522516E-04  -1.4835625E-04  -1.3654355E-04  -2.9605097E-04  -2.8630503E-04  -2.7456621E-04  -2.6165665E-04  -2.4905519E-04  -2.3821420E-04  -2.2765792E-04  -2.0984119E-04  -4.4741691E-04  -4.3336218E-04  -4.1630591E-04  -3.9735727E-04  -3.7855440E-04  -3.6208253E-04  -3.4614434E-04  -3.2125515E-04  -6.6823734E-04  -6.4837659E-04  -6.2424445E-04  -5.9750170E-04  -5.7106168E-04  -5.4792390E-04  -5.2591570E-04  -4.9473986E-04  -9.8696549E-04  -9.5940410E-04  -9.2595577E-04  -8.8942662E-04  -8.5453788E-04  -8.2624389E-04  -8.0261065E-04  -7.7302172E-04  -1.4420801E-03  -1.4044906E-03  -1.3588276E-03  -1.3096789E-03  -1.2646413E-03  -1.2316519E-03  -1.2086506E-03  -1.1863860E-03  -2.0844089E-03  -2.0339959E-03  -1.9727577E-03  -1.9074291E-03  -1.8496964E-03  -1.8121530E-03  -1.7929059E-03  -1.7827196E-03  -2.9792876E-03  -2.9127484E-03  -2.8322935E-03  -2.7475953E-03  -2.6751396E-03  -2.6327893E-03  -2.6161275E-03  -2.6123032E-03  -4.2085946E-03  -4.1219885E-03  -4.0184497E-03  -3.9120987E-03  -3.8259809E-03  -3.7836281E-03  -3.7709596E-03  -3.7661628E-03  -5.8724196E-03  -5.7607698E-03  -5.6298636E-03  -5.5007800E-03  -5.4068258E-03  -5.3805429E-03  -5.3900923E-03  -5.3830566E-03  -8.0880299E-03  -7.9441192E-03  -7.7799386E-03  -7.6276958E-03  -7.5369026E-03  -7.5554447E-03  -7.6198392E-03  -7.6289154E-03  -1.0978390E-02  -1.0790263E-02  -1.0581874E-02  -1.0403123E-02  -1.0331770E-02  -1.0447865E-02  -1.0641355E-02  -1.0704522E-02  -1.4636972E-02  -1.4382659E-02  -1.4105950E-02  -1.3884624E-02  -1.3846082E-02  -1.4136353E-02  -1.4585086E-02  -1.4750695E-02  -1.9055612E-02  -1.8692423E-02  -1.8292818E-02  -1.7977037E-02  -1.7962024E-02  -1.8529911E-02  -1.9453250E-02  -1.9880183E-02  -2.4017937E-02  -2.3458822E-02  -2.2814028E-02  -2.2268277E-02  -2.2201350E-02  -2.3159945E-02  -2.4912367E-02  -2.5895858E-02  -2.8979674E-02  -2.8044403E-02  -2.6898630E-02  -2.5838463E-02  -2.5499299E-02  -2.6910633E-02  -2.9963735E-02  -3.1960990E-02  -3.2969367E-02  -3.1307906E-02  -2.9184792E-02  -2.7103569E-02  -2.6097272E-02  -2.7798977E-02  -3.2672592E-02  -3.6507927E-02  -3.4552503E-02  -3.1565316E-02  -2.7689427E-02  -2.3788171E-02  -2.1548571E-02  -2.3330973E-02  -2.9931042E-02  -3.6340345E-02  -3.1937897E-02  -2.6744023E-02  -2.0030774E-02  -1.3225978E-02  -8.9080706E-03  -1.0158431E-02  -1.7262114E-02  -2.6399087E-02  -2.3347866E-02  -1.4854064E-02  -4.0006377E-03   7.0177801E-03   1.4612596E-02   1.5367419E-02   1.0885384E-02   1.7267913E-03  -7.6552089E-03   5.2647442E-03   2.1564579E-02   3.8174145E-02   5.0899312E-02   5.8104645E-02   6.3560724E-02   5.9131309E-02   1.4911449E-02   3.3152200E-02   5.5929542E-02   7.9423115E-02   9.9914134E-02   1.1993383E-01   1.4742951E-01   1.5554518E-01   4.2269845E-02   6.6233434E-02   9.5936492E-02   1.2691596E-01   1.5646474E-01   1.9348706E-01   2.5087070E-01   2.7528131E-01   7.0519015E-02   9.9970452E-02   1.3623677E-01   1.7417748E-01   2.1180074E-01   2.6267612E-01   3.4362280E-01   3.7903106E-01   9.4847575E-02   1.2900126E-01   1.7084765E-01   2.1445383E-01   2.5762117E-01   3.1600043E-01   4.0764302E-01   4.4442454E-01   1.1133744E-01   1.4910421E-01   1.9523461E-01   2.4299923E-01   2.8943196E-01   3.5034573E-01   4.4409496E-01   4.7769672E-01   1.1869521E-01   1.5894338E-01   2.0804718E-01   2.5863335E-01   3.0689868E-01   3.6806116E-01   4.6045008E-01   4.8987931E-01   1.1846051E-01   1.6018936E-01   2.1110743E-01   2.6341039E-01   3.1264329E-01   3.7336934E-01   4.6378338E-01   4.8970798E-01   1.1369524E-01   1.5610209E-01   2.0788375E-01   2.6101631E-01   3.1065983E-01   3.7092644E-01   4.5990810E-01   4.8376179E-01   1.0733930E-01   1.4980197E-01   2.0168787E-01   2.5493032E-01   3.0456394E-01   3.6449242E-01   4.5275742E-01   4.7592506E-01   1.0110356E-01   1.4311850E-01   1.9448410E-01   2.4723566E-01   2.9653263E-01   3.5639080E-01   4.4494316E-01   4.6891612E-01   9.5240645E-02   1.3636512E-01   1.8665677E-01   2.3833460E-01   2.8670633E-01   3.4563395E-01   4.3301332E-01   4.5709759E-01   8.9053601E-02   1.2887539E-01   1.7758620E-01   2.2765486E-01   2.7453303E-01   3.3162111E-01   4.1626564E-01   4.3967053E-01   8.1698246E-02   1.1983276E-01   1.6650212E-01   2.1448591E-01   2.5936568E-01   3.1379598E-01   3.9428869E-01   4.1633195E-01   7.2805464E-02   1.0890741E-01   1.5313424E-01   1.9863243E-01   2.4110202E-01   2.9221550E-01   3.6741132E-01   3.8760367E-01   6.2689520E-02   9.6470416E-02   1.3792859E-01   1.8062873E-01   2.2038929E-01   2.6772723E-01   3.3681715E-01   3.5493189E-01   5.2186362E-02   8.3438717E-02   1.2189621E-01   1.6157880E-01   1.9843236E-01   2.4172001E-01   3.0428258E-01   3.2026497E-01   4.2264182E-02   7.0895411E-02   1.0624007E-01   1.4278956E-01   1.7663604E-01   2.1579751E-01   2.7177954E-01   2.8554690E-01   3.3665076E-02   5.9721209E-02   9.1968633E-02   1.2536538E-01   1.5620591E-01   1.9134916E-01   2.4075767E-01   2.5214684E-01   2.6781023E-02   5.0426006E-02   7.9662263E-02   1.0992973E-01   1.3782687E-01   1.6919662E-01   2.1207885E-01   2.2070254E-01   2.1723680E-02   4.3155279E-02   6.9463536E-02   9.6598692E-02   1.2163670E-01   1.4959449E-01   1.8604362E-01   1.9104066E-01   1.8443085E-02   3.7813280E-02   6.1209355E-02   8.5156552E-02   1.0741926E-01   1.3246317E-01   1.6260271E-01   1.6340153E-01   1.6831882E-02   3.4198627E-02   5.4609340E-02   7.5268611E-02   9.4938055E-02   1.1773350E-01   1.4184710E-01   1.3874136E-01   1.6754679E-02   3.2074027E-02   4.9394939E-02   6.6764176E-02   8.4232233E-02   1.0541661E-01   1.2386615E-01   1.1805661E-01   1.8029027E-02   3.1190142E-02   4.5398403E-02   5.9743650E-02   7.5699896E-02   9.5149562E-02   1.0754357E-01   2.0316716E-02   3.1217732E-02   4.2519327E-02   5.4597624E-02   6.9733918E-02   8.6152613E-02   9.1786385E-02   2.3112336E-02   3.1802215E-02   4.0887903E-02   5.1931366E-02   6.6250712E-02   7.7976018E-02   2.5876606E-02   3.2830041E-02   4.1009475E-02   5.2119106E-02   6.4561695E-02   7.1076520E-02   2.8497558E-02   3.4910746E-02   4.3576676E-02   5.4755241E-02   6.4099491E-02   3.2026302E-02   3.9351180E-02   4.8721477E-02   5.8462597E-02   3.8198777E-02   4.6198279E-02   5.4495752E-02   6.2342506E-02   4.5500789E-02   5.1458225E-02   4.8548222E-02 
VonMises3D 1 2975 float
  0.0000000E+00   0.0000000E+00   0.0000000E+00   0.0000000E+00   0.0000000E+00   0.0000000E+00   0.0000000E+00   0.0000000E+00   0.0000000E+00   0.0000000E+00   0.0000000E+00   0.0000000E+00   0.0000000E+00   6.3543185E-11   0.0000000E+00   5.6044613E-10   3.1870999E-09   1.4851392E-09   1.0325536E-08   2.7098766E-08   1.6306691E-08   6.1595721E-08   1.2528187E-07   7.9539802E-08   2.3748429E-07   4.3035206E-07   2.7289784E-07   7.2845398E-07   1.2449080E-06   7.7472419E-07   1.9514594E-06   3.2318706E-06   1.9662559E-06   4.7971043E-06   7.8026369E-06   4.6511514E-06   1.1128345E-05   1.7887762E-05   1.0488346E-05   2.4745741E-05   3.9412833E-05   2.2801025E-05   5.3169504E-05   8.4009327E-05   4.8060399E-05   1.1086408E-04   1.7416039E-04   1.0084655E-04   2.2561946E-04   3.5484077E-04   2.5219651E-04   4.6575759E-04   7.2178571E-04   9.1244257E-04   1.1482753E-03   1.4790016E-03   3.6382431E-03   3.6943257E-03   2.9916351E-03   1.2876177E-02   1.1993804E-02   5.7245791E-03   3.2699216E-02   1.0886373E-02   0.0000000E+00   0.0000000E+00   0.0000000E+00   0.0000000E+00   0.0000000E+00   0.0000000E+00   0.0000000E+00   0.0000000E+00   0.0000000E+00   0.0000000E+00   0.0000000E+00   0.0000000E+00   0.0000000E+00   0.0000000E+00   0.0000000E+00   0.0000000E+00   0.0000000E+00   0.0000000E+00   0.0000000E+00   0.0000000E+00   0.0000000E+00   0.0000000E+00   0.0000000E+00   0.0000000E+00   0.0000000E+00   3.8929259E-12   1.1222623E-11   3.5619758E-12   1.6956842E-11   2.5143051E-11   2.7521747E-11   2.8925189E-11   3.9488068E-10   8.1608453E-10   9.0171859E-10   4.8559246E-10   2.6068717E-10   9.9635500E-10   1.4022673E-09   1.4797527E-09   6.7911508E-09   8.9026626E-09   7.9894997E-09   4.0893759E-09   1.5061372E-09   6.8029742E-09   1.0229780E-08   1.1581382E-08   4.2277453E-08   4.7355552E-08   3.9134740E-08   1.9106277E-08   6.9180146E-09   3.0626438E-08   4.5853120E-08   5.2117336E-08   1.7195741E-07   1.7939203E-07   1.4211831E-07   6.7374657E-08   2.4934097E-08   1.0731272E-07   1.5959920E-07   1.8044221E-07   5.5479774E-07   5.5804253E-07   4.3241522E-07   2.0209524E-07   7.4488362E-08   3.1803452E-07   4.7117925E-07   5.3042089E-07   1.5534625E-06   1.5332131E-06   1.1746990E-06   5.4617158E-07   1.9541021E-07   8.4131767E-07   1.2441660E-06   1.3964335E-06   3.9635074E-06   3.8734706E-06   2.9499988E-06   1.3697212E-06   4.7006344E-07   2.0570553E-06   3.0404426E-06   3.4060231E-06   9.4753441E-06   9.2117043E-06   6.9873372E-06   2.1578877E-05   2.0909751E-05   4.7286525E-05   4.5690653E-05   1.0028492E-04   9.6635857E-05   2.0712070E-04   1.9895074E-04   4.2988482E-04   4.2116371E-04   9.9890248E-04   1.1347933E-03   2.8175102E-03   3.8978008E-03   8.3924010E-03   1.2956666E-02   2.2308322E-02   3.6845420E-02   4.8641849E-02   8.5613444E-02   0.0000000E+00   0.0000000E+00   0.0000000E+00   0.0000000E+00   0.0000000E+00   0.0000000E+00   0.0000000E+00   0.0000000E+00   0.0000000E+00   0.0000000E+00   0.0000000E+00   0.0000000E+00   0.0000000E+00   0.0000000E+00   0.0000000E+00   0.0000000E+00   0.0000000E+00   0.0000000E+00   0.0000000E+00   0.0000000E+00   0.0000000E+00   0.0000000E+00   0.0000000E+00   0.0000000E+00   0.0000000E+00   0.0000000E+00   0.0000000E+00   2.9656947E-11   2.9921617E-11   2.9896207E-11   2.9725413E-11   2.9507875E-11   2.9301551E-11   2.9134375E-11   2.9015918E-11   2.8946526E-11   1.4604814E-09   1.4126368E-09   1.3525406E-09   1.2915906E-09   1.2371355E-09   1.1928775E-09   1.1598118E-09   1.1374063E-09   1.1245834E-09   1.1460032E-08   1.0842155E-08   1.0120033E-08   9.4088657E-09   8.7796357E-09   8.2683620E-09   7.8849274E-09   7.6237141E-09   7.4734787E-09   5.2134368E-08   4.8954778E-08   4.4971156E-08   4.1059135E-08   3.7592148E-08   3.4761133E-08   3.2624371E-08   3.1159420E-08   3.0312528E-08   1.7983965E-07   1.6845974E-07   1.5330964E-07   1.3832567E-07   1.2500226E-07   1.1407052E-07   1.0577324E-07   1.0005376E-07   9.6732968E-08   5.2579793E-07   4.9011572E-07   4.4354672E-07   3.9697488E-07   3.5544170E-07   3.2123134E-07   2.9514794E-07   2.7708802E-07   2.6656477E-07   1.3782274E-06   1.2783638E-06   1.1516369E-06   1.0247892E-06   9.1141044E-07   8.1773607E-07   7.4604986E-07   6.9622945E-07   6.6711004E-07   3.3510582E-06   3.0961598E-06   2.7789049E-06   2.4627950E-06   2.1798023E-06   1.9453992E-06   1.7654377E-06   1.6399445E-06   1.5663884E-06   0.0000000E+00   0.0000000E+00   0.0000000E+00   0.0000000E+00   0.0000000E+00   0.0000000E+00   0.0000000E+00   0.0000000E+00   0.0000000E+00   0.0000000E+00   0.0000000E+00   0.0000000E+00   0.0000000E+00   0.0000000E+00   0.0000000E+00   0.0000000E+00   0.0000000E+00   0.0000000E+00   0.0000000E+00   0.0000000E+00   0.0000000E+00   0.0000000E+00   0.0000000E+00   0.0000000E+00   2.8923811E-11   2.8946538E-11   2.9015925E-11   2.9134382E-11   2.9301544E-11   2.9507875E-11   2.9725424E-11   2.9896214E-11   1.1204260E-09   1.1245835E-09   1.1374062E-09   1.1598119E-09   1.1928775E-09   1.2371356E-09   1.2915917E-09   1.3525416E-09   7.4246218E-09   7.4734778E-09   7.6237132E-09   7.8849274E-09   8.2683647E-09   8.7796419E-09   9.4088701E-09   1.0120039E-08   3.0036322E-08   3.0312524E-08   3.1159427E-08   3.2624381E-08   3.4761143E-08   3.7592176E-08   4.1059167E-08   4.4971184E-08   9.5647344E-08   9.6733004E-08   1.0005378E-07   1.0577329E-07   1.1407059E-07   1.2500236E-07   1.3832575E-07   1.5330970E-07   2.6311750E-07   2.6656483E-07   2.7708813E-07   2.9514808E-07   3.2123157E-07   3.5544207E-07   3.9697511E-07   4.4354695E-07   6.5755461E-07   6.6711027E-07   6.9622956E-07   7.4605038E-07   8.1773641E-07   9.1141101E-07   1.0247899E-06   1.1516373E-06   1.5422115E-06   1.5663884E-06   1.6399447E-06   1.7654387E-06   1.9454012E-06   2.1798039E-06   2.4627968E-06   2.7789054E-06   0.0000000E+00   0.0000000E+00   0.0000000E+00   0.0000000E+00   0.0000000E+00   0.0000000E+00   0.0000000E+00   0.0000000E+00   0.0000000E+00   0.0000000E+00   0.0000000E+00   0.0000000E+00   0.0000000E+00   0.0000000E+00   0.0000000E+00   0.0000000E+00   0.0000000E+00   0.0000000E+00   0.0000000E+00   0.0000000E+00   0.0000000E+00   0.0000000E+00   0.0000000E+00   0.0000000E+00   0.0000000E+00   0.0000000E+00   0.0000000E+00   2.9921621E-11   2.9656947E-11   2.8925183E-11   2.7521742E-11   2.5143049E-11   1.6956851E-11   3.5619723E-12   1.1222624E-11   3.8929246E-12   1.4126372E-09   1.4604815E-09   1.4797522E-09   1.4022666E-09   9.9635489E-10   2.6068711E-10   4.8559262E-10   9.0171842E-10   8.1608409E-10   1.0842161E-08   1.1460034E-08   1.1581378E-08   1.0229777E-08   6.8029697E-09   1.5061360E-09   4.0893764E-09   7.9894988E-09   8.9026582E-09   4.8954785E-08   5.2134361E-08   5.2117315E-08   4.5853113E-08   3.0626428E-08   6.9180053E-09   1.9106283E-08   3.9134736E-08   4.7355552E-08   1.6845979E-07   1.7983965E-07   1.8044217E-07   1.5959914E-07   1.0731267E-07   2.4934060E-08   6.7374692E-08   1.4211832E-07   1.7939199E-07   4.9011584E-07   5.2579776E-07   5.3042078E-07   4.7117913E-07   3.1803435E-07   7.4488263E-08   2.0209532E-07   4.3241516E-07   5.5804242E-07   1.2783638E-06   1.3782270E-06   1.3964334E-06   1.2441657E-06   8.4131756E-07   1.9541004E-07   5.4617163E-07   1.1746988E-06   1.5332131E-06   3.0961605E-06   3.3510587E-06   3.4060231E-06   3.0404410E-06   2.0570542E-06   4.7006324E-07   1.3697213E-06   2.9499975E-06   3.8734697E-06   6.9873367E-06   9.2117007E-06   2.0909749E-05   4.5690645E-05   9.6635857E-05   1.9895071E-04   4.2116380E-04   1.1347935E-03   3.8978038E-03   1.2956672E-02   3.6845434E-02   8.5613489E-02   0.0000000E+00   0.0000000E+00   0.0000000E+00   0.0000000E+00   0.0000000E+00   0.0000000E+00   0.0000000E+00   0.0000000E+00   0.0000000E+00   0.0000000E+00   0.0000000E+00   0.0000000E+00   0.0000000E+00   0.0000000E+00   0.0000000E+00   3.9488054E-10   6.3543185E-11   0.0000000E+00   0.0000000E+00   6.7911503E-09   3.1870990E-09   5.6044597E-10   0.0000000E+00   4.2277438E-08   2.7098766E-08   1.0325535E-08   1.4851387E-09   1.7195740E-07   1.2528186E-07   6.1595706E-08   1.6306691E-08   5.5479774E-07   4.3035206E-07   2.3748416E-07   7.9539788E-08   1.5534622E-06   1.2449080E-06   7.2845398E-07   2.7289781E-07   3.9635065E-06   3.2318706E-06   1.9514591E-06   7.7472396E-07   9.4753404E-06   7.8026360E-06   4.7971034E-06   1.9662550E-06   2.1578877E-05   1.7887762E-05   1.1128341E-05   4.6511514E-06   4.7286514E-05   3.9412836E-05   2.4745741E-05   1.0488344E-05   1.0028495E-04   8.4009298E-05   5.3169493E-05   2.2801023E-05   2.0712064E-04   1.7416035E-04   1.1086404E-04   4.8060399E-05   4.2988482E-04   3.5484071E-04   2.2561943E-04   1.0084656E-04   9.9890248E-04   7.2178571E-04   4.6575771E-04   2.5219657E-04   2.8175095E-03   1.4790015E-03   1.1482752E-03   9.1244245E-04   8.3924020E-03   2.9916342E-03   3.6943264E-03   3.6382438E-03   2.2308320E-02   5.7245786E-03   1.1993804E-02   1.2876183E-02   4.8641846E-02   1.0886373E-02   3.2699227E-02   0.0000000E+00   0.0000000E+00   0.0000000E+00   0.0000000E+00   0.0000000E+00   0.0000000E+00   0.0000000E+00   0.0000000E+00   0.0000000E+00   0.0000000E+00   0.0000000E+00   0.0000000E+00   0.0000000E+00   0.0000000E+00   0.0000000E+00   0.0000000E+00   0.0000000E+00   0.0000000E+00   0.0000000E+00   0.0000000E+00   0.0000000E+00   0.0000000E+00   0.0000000E+00   0.0000000E+00   0.0000000E+00   0.0000000E+00   0.0000000E+00   0.0000000E+00   0.0000000E+00   0.0000000E+00   0.0000000E+00   0.0000000E+00   0.0000000E+00   0.0000000E+00   0.0000000E+00   0.0000000E+00   0.0000000E+00   0.0000000E+00   0.0000000E+00   0.0000000E+00   0.0000000E+00   0.0000000E+00   0.0000000E+00   0.0000000E+00   0.0000000E+00   0.0000000E+00   0.0000000E+00   0.0000000E+00   0.0000000E+00   0.0000000E+00   0.0000000E+00   0.0000000E+00   0.0000000E+00   0.0000000E+00   0.0000000E+00   0.0000000E+00   0.0000000E+00   0.0000000E+00   0.0000000E+00   0.0000000E+00   0.0000000E+00   0.0000000E+00   0.0000000E+00   0.0000000E+00   0.0000000E+00   0.0000000E+00   0.0000000E+00   0.0000000E+00   0.0000000E+00   0.0000000E+00   0.0000000E+00   0.0000000E+00   0.0000000E+00   0.0000000E+00   0.0000000E+00   0.0000000E+00   0.0000000E+00   0.0000000E+00   0.0000000E+00   0.0000000E+00   0.0000000E+00   0.0000000E+00   0.0000000E+00   0.0000000E+00   0.0000000E+00   0.0000000E+00   0.0000000E+00   0.0000000E+00   0.0000000E+00   0.0000000E+00   0.0000000E+00   0.0000000E+00   0.0000000E+00   0.0000000E+00   0.0000000E+00   0.0000000E+00   0.0000000E+00   0.0000000E+00   0.0000000E+00   0.0000000E+00   0.0000000E+00   0.0000000E+00   0.0000000E+00   0.0000000E+00   0.0000000E+00   0.0000000E+00   0.0000000E+00   0.0000000E+00   0.0000000E+00   0.0000000E+00   0.0000000E+00   0.0000000E+00   0.0000000E+00   0.0000000E+00   0.0000000E+00   0.0000000E+00   0.0000000E+00   0.0000000E+00   0.0000000E+00   0.0000000E+00   0.0000000E+00   0.0000000E+00   0.0000000E+00   0.0000000E+00   0.0000000E+00   0.0000000E+00   0.0000000E+00   0.0000000E+00   0.0000000E+00   0.0000000E+00   0.0000000E+00   0.0000000E+00   0.0000000E+00   0.0000000E+00   0.0000000E+00   0.0000000E+00   0.0000000E+00   0.0000000E+00   0.0000000E+00   0.0000000E+00   0.0000000E+00   0.0000000E+00   0.0000000E+00   0.0000000E+00   0.0000000E+00   0.0000000E+00   0.0000000E+00   0.0000000E+00   0.0000000E+00   0.0000000E+00   0.0000000E+00   0.0000000E+00   0.0000000E+00   0.0000000E+00   0.0000000E+00   0.0000000E+00   0.0000000E+00   0.0000000E+00   0.0000000E+00   0.0000000E+00   0.0000000E+00   0.0000000E+00   0.0000000E+00   0.0000000E+00   0.0000000E+00   0.0000000E+00   0.0000000E+00   0.0000000E+00   0.0000000E+00   0.0000000E+00   0.0000000E+00   0.0000000E+00   0.0000000E+00   0.0000000E+00   0.0000000E+00   0.0000000E+00   0.0000000E+00   0.0000000E+00   0.0000000E+00   0.0000000E+00   0.0000000E+00   0.0000000E+00   0.0000000E+00   0.0000000E+00   0.0000000E+00   0.0000000E+00   0.0000000E+00   0.0000000E+00   0.0000000E+00   0.0000000E+00   0.0000000E+00   0.0000000E+00   0.0000000E+00   0.0000000E+00   0.0000000E+00   0.0000000E+00   0.0000000E+00   0.0000000E+00   0.0000000E+00   0.0000000E+00   0.0000000E+00   0.0000000E+00   0.0000000E+00   0.0000000E+00   0.0000000E+00   0.0000000E+00   0.0000000E+00   0.0000000E+00   0.0000000E+00   0.0000000E+00   0.0000000E+00   0.0000000E+00   0.0000000E+00   0.0000000E+00   0.0000000E+00   0.0000000E+00   0.0000000E+00   0.0000000E+00   0.0000000E+00   0.0000000E+00   0.0000000E+00   0.0000000E+00   0.0000000E+00   0.0000000E+00   0.0000000E+00   0.0000000E+00   0.0000000E+00   0.0000000E+00   0.0000000E+00   0.0000000E+00   0.0000000E+00   0.0000000E+00   0.0000000E+00   0.0000000E+00   0.0000000E+00   0.0000000E+00   0.0000000E+00   0.0000000E+00   0.0000000E+00   0.0000000E+00   0.0000000E+00   0.0000000E+00   0.0000000E+00   0.0000000E+00   0.0000000E+00   0.0000000E+00   0.0000000E+00   0.0000000E+00   0.0000000E+00   0.0000000E+00   0.0000000E+00   0.0000000E+00   0.0000000E+00   0.0000000E+00   0.0000000E+00   0.0000000E+00   0.0000000E+00   0.0000000E+00   0.0000000E+00   0.0000000E+00   0.0000000E+00   0.0000000E+00   0.0000000E+00   0.0000000E+00   0.0000000E+00   0.0000000E+00   0.0000000E+00   0.0000000E+00   0.0000000E+00   0.0000000E+00   0.0000000E+00   0.0000000E+00   0.0000000E+00   0.0000000E+00   0.0000000E+00   0.0000000E+00   0.0000000E+00   0.0000000E+00   0.0000000E+00   0.0000000E+00   0.0000000E+00   0.0000000E+00   0.0000000E+00   0.0000000E+00   0.0000000E+00   0.0000000E+00   0.0000000E+00   0.0000000E+00   0.0000000E+00   0.0000000E+00   0.0000000E+00   0.0000000E+00   0.0000000E+00   0.0000000E+00   0.0000000E+00   0.0000000E+00   0.0000000E+00   0.0000000E+00   0.0000000E+00   0.0000000E+00   0.0000000E+00   0.0000000E+00   0.0000000E+00   0.0000000E+00   0.0000000E+00   0.0000000E+00   0.0000000E+00   0.0000000E+00   0.0000000E+00   0.0000000E+00   0.0000000E+00   0.0000000E+00   0.0000000E+00   0.0000000E+00   0.0000000E+00   0.0000000E+00   0.0000000E+00   0.0000000E+00   0.0000000E+00   0.0000000E+00   0.0000000E+00   0.0000000E+00   0.0000000E+00   0.0000000E+00   0.0000000E+00   0.0000000E+00   0.0000000E+00   0.0000000E+00   0.0000000E+00   0.0000000E+00   0.0000000E+00   0.0000000E+00   0.0000000E+00   0.0000000E+00   0.0000000E+00   0.0000000E+00   0.0000000E+00   0.0000000E+00   0.0000000E+00   0.0000000E+00   0.0000000E+00   0.0000000E+00   0.0000000E+00   0.0000000E+00   0.0000000E+00   0.0000000E+00   0.0000000E+00   0.0000000E+00   0.0000000E+00   0.0000000E+00   0.0000000E+00   0.0000000E+00   0.0000000E+00   0.0000000E+00   0.0000000E+00   0.0000000E+00   0.0000000E+00   0.0000000E+00   0.0000000E+00   0.0000000E+00   0.0000000E+00   0.0000000E+00   0.0000000E+00   0.0000000E+00   0.0000000E+00   0.0000000E+00   0.0000000E+00   0.0000000E+00   0.0000000E+00   0.0000000E+00   0.0000000E+00   0.0000000E+00   0.0000000E+00   0.0000000E+00   0.0000000E+00   0.0000000E+00   0.0000000E+00   0.0000000E+00   0.0000000E+00   0.0000000E+00   0.0000000E+00   0.0000000E+00   0.0000000E+00   0.0000000E+00   0.0000000E+00   0.0000000E+00   0.0000000E+00   0.0000000E+00   0.0000000E+00   0.0000000E+00   0.0000000E+00   0.0000000E+00   0.0000000E+00   0.0000000E+00   0.0000000E+00   0.0000000E+00   0.0000000E+00   0.0000000E+00   0.0000000E+00   0.0000000E+00   0.0000000E+00   0.0000000E+00   0.0000000E+00   0.0000000E+00   0.0000000E+00   0.0000000E+00   0.0000000E+00   0.0000000E+00   0.0000000E+00   0.0000000E+00   0.0000000E+00   0.0000000E+00   0.0000000E+00   0.0000000E+00   0.0000000E+00   0.0000000E+00   0.0000000E+00   0.0000000E+00   0.0000000E+00   0.0000000E+00   0.0000000E+00   0.0000000E+00   0.0000000E+00   0.0000000E+00   0.0000000E+00   0.0000000E+00   0.0000000E+00   0.0000000E+00   0.0000000E+00   0.0000000E+00   0.0000000E+00   0.0000000E+00   0.0000000E+00   0.0000000E+00   0.0000000E+00   0.0000000E+00   0.0000000E+00   0.0000000E+00   0.0000000E+00   0.0000000E+00   0.0000000E+00   0.0000000E+00   0.0000000E+00   0.0000000E+00   0.0000000E+00   0.0000000E+00   0.0000000E+00   0.0000000E+00   0.0000000E+00   0.0000000E+00   0.0000000E+00   0.0000000E+00   0.0000000E+00   0.0000000E+00   0.0000000E+00   0.0000000E+00   0.0000000E+00   0.0000000E+00   0.0000000E+00   0.0000000E+00   0.0000000E+00   0.0000000E+00   0.0000000E+00   0.0000000E+00   0.0000000E+00   0.0000000E+00   0.0000000E+00   0.0000000E+00   0.0000000E+00   0.0000000E+00   0.0000000E+00   0.0000000E+00   3.2304615E-06   1.0609490E-06   4.7475610E-06   7.0232231E-06   7.8599269E-06   1.5612546E-05   7.3208735E-06   2.2760794E-06   1.0490505E-05   1.5549791E-05   1.7395292E-05   3.4017368E-05   1.6030737E-05   4.7021276E-06   2.2398850E-05   3.3275410E-05   3.7212369E-05   7.1737159E-05   3.3956010E-05   9.4771012E-06   4.6446181E-05   6.9105503E-05   7.7230558E-05   1.4695915E-04   6.9681373E-05   1.9043269E-05   9.3911891E-05   1.3963890E-04   1.5581396E-04   3.1570563E-04   1.5942780E-04   5.6167137E-05   1.8687946E-04   2.7561537E-04   3.0633251E-04   9.8163250E-04   6.4217550E-04   3.3170584E-04   3.8758843E-04   5.3553242E-04   5.8925286E-04   3.8022499E-03   2.7976125E-03   1.5799192E-03   9.7946310E-04   1.0438041E-03   1.1148304E-03   1.3071997E-02   9.7972956E-03   5.6034485E-03   2.8119835E-03   2.0989995E-03   2.0852706E-03   3.7225336E-02   2.7580202E-02   1.5558486E-02   7.2949240E-03   4.2999308E-03   3.8647240E-03   8.5982837E-02   6.2745310E-02   3.4609631E-02   1.5725372E-02   8.4434031E-03   7.0669283E-03   1.5867163E-01   1.1499711E-01   6.2106200E-02   2.7898323E-02   1.5297576E-02   1.2660463E-02   2.3623037E-01   1.7025799E-01   9.0243846E-02   4.1595824E-02   2.5999349E-02   2.2167573E-02   2.8853559E-01   2.0408823E-01   1.0699622E-01   5.6143329E-02   4.3376978E-02   3.7981741E-02   2.8502420E-01   1.9533926E-01   1.0899445E-01   7.9677261E-02   7.2635092E-02   6.3718185E-02   2.1473572E-01   1.5027586E-01   1.2284328E-01   1.2702037E-01   1.2070720E-01   1.0473436E-01   1.1878381E-01   1.4346424E-01   1.9019605E-01   2.0979567E-01   1.9708827E-01   1.6912360E-01   1.2099998E-01   2.3271208E-01   3.1486869E-01   3.4096384E-01   3.1636360E-01   2.6926249E-01   2.2600350E-01   3.9092305E-01   5.1104957E-01   5.4567432E-01   5.0191331E-01   4.2448616E-01   4.2018437E-01   6.4838415E-01   8.1967390E-01   8.6589772E-01   7.9129851E-01   6.6599858E-01   7.6605129E-01   1.0587238E+00   1.3050057E+00   1.3714609E+00   1.2480856E+00   1.0460958E+00   1.2762923E+00   1.6775948E+00   2.0708256E+00   2.1847107E+00   1.9837718E+00   1.6545773E+00   1.9599512E+00   2.6193337E+00   3.3175476E+00   3.5319293E+00   3.1984174E+00   2.6460612E+00   3.0945642E+00   4.1537066E+00   5.4365139E+00   5.8340912E+00   5.2501140E+00   4.2849689E+00   4.7302847E+00   6.7349730E+00   9.1544790E+00   9.8580933E+00   8.7734690E+00   7.0202909E+00   7.2363062E+00   1.1271756E+01   1.5809960E+01   1.6963734E+01   1.4875377E+01   1.1615328E+01   1.1954861E+01   1.9742758E+01   2.7793831E+01   2.9421268E+01   2.5356932E+01   1.9335928E+01   2.1157654E+01   3.5660004E+01   4.8767952E+01   5.0371258E+01   4.2876984E+01   3.2111580E+01   4.0508587E+01   6.4712837E+01   8.2665718E+01   8.3697769E+01   7.0816811E+01   5.2468594E+01   8.1893776E+01   1.1601357E+02   1.3523796E+02   1.3357986E+02   1.1258421E+02   8.3027847E+01   1.6909630E+02   2.0420012E+02   2.1319582E+02   2.0359004E+02   1.7058595E+02   1.2560878E+02   3.4099554E+02   3.5690555E+02   3.2865900E+02   2.9617899E+02   2.4495233E+02   1.8014310E+02   6.3328949E+02   5.9685760E+02   4.8768335E+02   4.1086325E+02   3.3282205E+02   2.4395450E+02   9.9531689E+02   8.8855334E+02   6.7063361E+02   5.3573871E+02   4.2662384E+02   3.1174460E+02   1.2964387E+03   1.1395745E+03   8.3589996E+02   6.5334430E+02   5.1614789E+02   3.7671063E+02   1.4740453E+03   1.3043621E+03   9.5950665E+02   7.5033124E+02   5.9300763E+02   4.3300613E+02   1.5610690E+03   1.3984751E+03   1.0427450E+03   8.2295380E+02   6.5273944E+02   4.7708755E+02   1.5990570E+03   1.4491455E+03   1.0953960E+03   8.7275446E+02   6.9466138E+02   5.0808633E+02   1.6126332E+03   1.4741276E+03   1.1255500E+03   9.0299091E+02   7.2045319E+02   5.2711792E+02   1.6147328E+03   1.4832495E+03   1.1389878E+03   9.1729608E+02   7.3277655E+02   5.3616461E+02   1.6092338E+03   1.4805417E+03   1.1391392E+03   9.1862042E+02   7.3408783E+02   5.3708801E+02   1.6017228E+03   1.4704990E+03   1.1288912E+03   9.0905994E+02   7.2604767E+02   5.3110370E+02   1.5701324E+03   1.4398820E+03   1.1040540E+03   8.8834229E+02   7.0926404E+02   5.1876672E+02   1.5143855E+03   1.3888009E+03   1.0649481E+03   8.5689441E+02   6.8412012E+02   5.0034521E+02   1.4362537E+03   1.3186123E+03   1.0124321E+03   8.1533124E+02   6.5108344E+02   4.7616724E+02   1.3388475E+03   1.2317355E+03   9.4805426E+02   7.6472858E+02   6.1097717E+02   4.4683289E+02   1.2265031E+03   1.1316151E+03   8.7404401E+02   7.0669464E+02   5.6505383E+02   4.1328143E+02   1.1038948E+03   1.0221558E+03   7.9301288E+02   6.4322009E+02   5.1493622E+02   3.7675793E+02   9.7567615E+02   9.0783783E+02   7.0804285E+02   5.7660077E+02   4.6248508E+02   3.3870746E+02   8.4605072E+02   7.9297150E+02   6.2268134E+02   5.0941525E+02   4.0968613E+02   3.0063773E+02   7.1867676E+02   6.8162476E+02   5.4029077E+02   4.4411844E+02   3.5838843E+02   2.6394086E+02   5.9576447E+02   5.7714362E+02   4.6371414E+02   3.8269440E+02   3.1001852E+02   2.2967560E+02   4.7988239E+02   4.8148795E+02   3.9475598E+02   3.2636768E+02   2.6539218E+02   1.9838173E+02   3.7342963E+02   3.9531863E+02   3.3385886E+02   2.7568280E+02   2.2476924E+02   1.7013237E+02   2.7944904E+02   3.1848669E+02   2.8032797E+02   2.3086772E+02   1.8831352E+02   1.4477686E+02   2.4909303E+02   2.3285876E+02   1.9237888E+02   1.5644586E+02   1.2229900E+02   1.8529922E+02   1.8917372E+02   1.6040863E+02   1.2980978E+02   1.0287669E+02   1.4675792E+02   1.3304373E+02   1.0856139E+02   8.6683212E+01   1.0822925E+02   1.0586749E+02   9.1013344E+01   7.3395096E+01   7.9234024E+01   7.3198616E+01   6.1684490E+01   5.4386482E+01   4.8601795E+01   5.0082394E+01   3.4553596E+01   7.7161530E-06   7.1086697E-06   6.3624225E-06   5.6226691E-06   4.9599576E-06   4.4098633E-06   3.9862853E-06   3.6899755E-06   3.5158307E-06   1.7049004E-05   1.5671561E-05   1.3996878E-05   1.2344894E-05   1.0865254E-05   9.6350559E-06   8.6853188E-06   8.0190111E-06   7.6264355E-06   3.6415171E-05   3.3404580E-05   2.9780811E-05   2.6225112E-05   2.3044313E-05   2.0397551E-05   1.8350029E-05   1.6909977E-05   1.6059657E-05   7.5444848E-05   6.9059352E-05   6.1456383E-05   5.4042190E-05   4.7425488E-05   4.1920481E-05   3.7656446E-05   3.4651839E-05   3.2874494E-05   1.5187780E-04   1.3868956E-04   1.2318199E-04   1.0816969E-04   9.4818810E-05   8.3723680E-05   7.5126431E-05   6.9061454E-05   6.5469183E-05   2.9758585E-04   2.7092770E-04   2.4009976E-04   2.1053226E-04   1.8436128E-04   1.6265856E-04   1.4585108E-04   1.3398989E-04   1.2695970E-04   5.6901784E-04   5.1578146E-04   4.5577832E-04   3.9898322E-04   3.4904986E-04   3.0777938E-04   2.7586397E-04   2.5335094E-04   2.4000710E-04   1.0654045E-03   9.5933641E-04   8.4428885E-04   7.3748676E-04   6.4451300E-04   5.6804734E-04   5.0905353E-04   4.6748412E-04   4.4285716E-04   1.9595784E-03   1.7478042E-03   1.5295505E-03   1.3321873E-03   1.1627553E-03   1.0243698E-03   9.1794936E-04   8.4306870E-04   7.9873524E-04   3.5470487E-03   3.1252452E-03   2.7154833E-03   2.3563199E-03   2.0533800E-03   1.8081480E-03   1.6203125E-03   1.4883468E-03   1.4102530E-03   6.3211797E-03   5.4912195E-03   4.7318381E-03   4.0881136E-03   3.5559270E-03   3.1295288E-03   2.8043468E-03   2.5761880E-03   2.4411823E-03   1.1080673E-02   9.4854375E-03   8.1023918E-03   6.9676703E-03   6.0486509E-03   5.3200377E-03   4.7666305E-03   4.3786177E-03   4.1489163E-03   1.9076021E-02   1.6107129E-02   1.3643841E-02   1.1681191E-02   1.0121550E-02   8.8965055E-03   7.9686707E-03   7.3178913E-03   6.9321357E-03   3.2212358E-02   2.6884109E-02   2.2608874E-02   1.9285627E-02   1.6685603E-02   1.4656568E-02   1.3120654E-02   1.2041164E-02   1.1399786E-02   5.3354971E-02   4.4124164E-02   3.6900636E-02   3.1397123E-02   2.7137913E-02   2.3821687E-02   2.1304749E-02   1.9528501E-02   1.8469442E-02   8.6814716E-02   7.1303762E-02   5.9408762E-02   5.0485216E-02   4.3615248E-02   3.8251426E-02   3.4155041E-02   3.1246347E-02   2.9504389E-02   1.3911478E-01   1.1369637E-01   9.4549045E-02   8.0336183E-02   6.9382608E-02   6.0760979E-02   5.4114651E-02   4.9359903E-02   4.6498772E-02   2.2021542E-01   1.7941880E-01   1.4913981E-01   1.2677658E-01   1.0941318E-01   9.5575169E-02   8.4788553E-02   7.7013947E-02   7.2316103E-02   3.4570968E-01   2.8119692E-01   2.3380953E-01   1.9877043E-01   1.7121924E-01   1.4894384E-01   1.3139990E-01   1.1868321E-01   1.1097990E-01   5.4070187E-01   4.3928316E-01   3.6516878E-01   3.0998680E-01   2.6595399E-01   2.2990763E-01   2.0132974E-01   1.8057202E-01   1.6799910E-01   8.4641361E-01   6.8600160E-01   5.6884724E-01   4.8080030E-01   4.0968671E-01   3.5110861E-01   3.0464563E-01   2.7098569E-01   2.5066289E-01   1.3309083E+00   1.0721115E+00   8.8309336E-01   7.4029285E-01   6.2450105E-01   5.2934068E-01   4.5437533E-01   4.0046832E-01   3.6812052E-01   2.1051137E+00   1.6747290E+00   1.3619237E+00   1.1271363E+00   9.3848437E-01   7.8524953E-01   6.6604435E-01   5.8129328E-01   5.3086174E-01   3.3462811E+00   2.6060073E+00   2.0761464E+00   1.6876998E+00   1.3832506E+00   1.1410350E+00   9.5574492E-01   8.2571566E-01   7.4905515E-01   5.3355284E+00   4.0248151E+00   3.1115270E+00   2.4698038E+00   1.9875571E+00   1.6152371E+00   1.3358897E+00   1.1424335E+00   1.0293375E+00   8.5277138E+00   6.1619663E+00   4.5693970E+00   3.5140448E+00   2.7672982E+00   2.2142639E+00   1.8087236E+00   1.5312456E+00   1.3701564E+00   1.3672267E+01   9.3795090E+00   6.5842962E+00   4.8513641E+00   3.7169902E+00   2.9235785E+00   2.3588293E+00   1.9771262E+00   1.7565811E+00   2.1946426E+01   1.4255857E+01   9.3668280E+00   6.5177302E+00   4.8107505E+00   3.7042513E+00   2.9487865E+00   2.4459999E+00   2.1564951E+00   3.4961468E+01   2.1624146E+01   1.3240455E+01   8.5794039E+00   6.0152454E+00   4.4981389E+00   3.5210536E+00   2.8850994E+00   2.5203233E+00   5.4480198E+01   3.2453735E+01   1.8613976E+01   1.1142040E+01   7.3066087E+00   5.2417135E+00   4.0075612E+00   3.2301092E+00   2.7868266E+00   8.1786537E+01   4.7515465E+01   2.5845032E+01   1.4317186E+01   8.6779766E+00   5.8840232E+00   4.3470893E+00   3.4203243E+00   2.8969884E+00   1.1692924E+02   6.6920349E+01   3.5019531E+01   1.8143696E+01   1.0128677E+01   6.4010072E+00   4.5056357E+00   3.4190712E+00   2.8138466E+00   1.5815916E+02   8.9755913E+01   4.5759834E+01   2.2504147E+01   1.1639982E+01   6.7996359E+00   4.4917574E+00   3.2324843E+00   2.5421386E+00   2.0199788E+02   1.1409501E+02   5.7201309E+01   2.7099344E+01   1.3159424E+01   7.1135430E+00   4.3608975E+00   2.9188221E+00   2.1397469E+00   2.4409064E+02   1.3749394E+02   6.8218941E+01   3.1527504E+01   1.4615690E+01   7.3970618E+00   4.2063613E+00   2.5811541E+00   1.7121446E+00   2.8057513E+02   1.5776735E+02   7.7803673E+01   3.5430546E+01   1.5953286E+01   7.7144008E+00   4.1332836E+00   2.3375888E+00   1.3820673E+00   3.0909058E+02   1.7359251E+02   8.5346176E+01   3.8592636E+01   1.7140219E+01   8.1086216E+00   4.2131581E+00   2.2711959E+00   1.2379534E+00   3.2906091E+02   1.8466879E+02   9.0702263E+01   4.0949669E+01   1.8149683E+01   8.5706396E+00   4.4471345E+00   2.3902428E+00   1.2927997E+00   3.4126038E+02   1.9145332E+02   9.4065056E+01   4.2539646E+01   1.8946871E+01   9.0397940E+00   4.7700667E+00   2.6322653E+00   1.4873629E+00   3.4703326E+02   1.9469926E+02   9.5752655E+01   4.3435009E+01   1.9490496E+01   9.4327087E+00   5.0878401E+00   2.9030001E+00   1.7289703E+00   3.4760110E+02   1.9506447E+02   9.6036102E+01   4.3695248E+01   1.9744280E+01   9.6779547E+00   5.3195701E+00   3.1203110E+00   1.9357333E+00   3.4372635E+02   1.9294232E+02   9.5074554E+01   4.3357189E+01   1.9692184E+01   9.7407827E+00   5.4251657E+00   3.2426205E+00   2.0654242E+00   3.3574789E+02   1.8850174E+02   9.2941948E+01   4.2451275E+01   1.9348034E+01   9.6293983E+00   5.4103947E+00   3.2739449E+00   2.1207986E+00   3.2381992E+02   1.8182483E+02   8.9690796E+01   4.1020416E+01   1.8752726E+01   9.3835306E+00   5.3129187E+00   3.2495701E+00   2.1354117E+00   3.0814899E+02   1.7303688E+02   8.5403229E+01   3.9128262E+01   1.7962215E+01   9.0546732E+00   5.1804051E+00   3.2138598E+00   2.1514382E+00   2.8913458E+02   1.6237985E+02   8.0218613E+01   3.6859634E+01   1.7035500E+01   8.6895275E+00   5.0525856E+00   3.2019873E+00   2.2012970E+00   2.6741406E+02   1.5023491E+02   7.4340988E+01   3.4318478E+01   1.6027729E+01   8.3210955E+00   4.9519086E+00   3.2305396E+00   2.2982559E+00   2.4383997E+02   1.3711035E+02   6.8032997E+01   3.1624966E+01   1.4988092E+01   7.9670215E+00   4.8822627E+00   3.2966652E+00   2.4358439E+00   2.1941435E+02   1.2360935E+02   6.1605400E+01   2.8915421E+01   1.3964305E+01   7.6357737E+00   4.8360829E+00   3.3859205E+00   2.5963008E+00   1.9519960E+02   1.1038548E+02   5.5403469E+01   2.6344719E+01   1.3011178E+01   7.3370457E+00   4.8054314E+00   3.4840250E+00   2.7630219E+00   1.7220021E+02   9.8080658E+01   4.9780827E+01   2.4080988E+01   1.2193927E+01   7.0872688E+00   4.7875752E+00   3.5823874E+00   2.9261270E+00   1.5117189E+02   8.7229576E+01   4.5051880E+01   2.2285397E+01   1.1582024E+01   6.9084692E+00   4.7843223E+00   3.6766939E+00   3.0804775E+00   1.3247719E+02   7.8107399E+01   4.1427940E+01   2.1084286E+01   1.1241641E+01   6.8280072E+00   4.8019753E+00   3.7641103E+00   3.2204666E+00   1.1605691E+02   7.0641861E+01   3.8947361E+01   2.0538218E+01   1.1227597E+01   6.8809648E+00   4.8547859E+00   3.8437943E+00   3.3371723E+00   1.0153731E+02   6.4424141E+01   3.7384609E+01   2.0604677E+01   1.1564998E+01   7.1070814E+00   4.9693332E+00   3.9229503E+00   3.4235916E+00   8.8513504E+01   5.8856579E+01   3.6235752E+01   2.1088213E+01   1.2215600E+01   7.5302930E+00   5.1792607E+00   4.0222759E+00   3.4855516E+00   7.6828735E+01   5.3436485E+01   3.4876331E+01   2.1567295E+01   1.3032495E+01   8.1219511E+00   5.5004544E+00   4.1653562E+00   3.5415604E+00   6.6583946E+01   4.8121468E+01   3.2913395E+01   2.1524252E+01   1.3684093E+01   8.7508545E+00   5.8929281E+00   4.3473663E+00   3.5983412E+00   5.7709351E+01   4.3216732E+01   3.0587002E+01   2.0783876E+01   1.3796184E+01   9.1324749E+00   6.2124224E+00   4.5015883E+00   3.6211324E+00   4.9734085E+01   3.8651096E+01   2.8396854E+01   1.9820677E+01   1.3435534E+01   9.0702362E+00   6.2429190E+00   4.4960790E+00   3.5409868E+00   4.1747322E+01   3.3881985E+01   2.6080910E+01   1.8912266E+01   1.3040895E+01   8.7647800E+00   5.9519925E+00   4.2275543E+00   3.2787924E+00   3.1739403E+01   2.8090654E+01   2.2847618E+01   1.7365742E+01   1.2359761E+01   8.3137817E+00   5.4728713E+00   3.7340209E+00   2.8188956E+00   2.1872963E+01   1.9647375E+01   1.7858973E+01   1.4544571E+01   1.0703826E+01   7.2575278E+00   4.6661177E+00   3.0212383E+00   2.1736279E+00   1.4553071E+01   1.0866611E+01   9.8412485E+00   7.8139720E+00   5.2912192E+00   3.1455247E+00   1.7139679E+00   9.6352792E-01   6.7878857E+00   4.1397390E+00   2.5544033E+00   1.1755128E+00   6.6790032E-01   1.0475816E+00   3.5810971E+00   9.1144854E-01   7.3874301E-01   1.4684240E+00   3.4585041E-06   3.5158314E-06   3.6899762E-06   3.9862871E-06   4.4098665E-06   4.9599630E-06   5.6226727E-06   6.3624257E-06   7.4970130E-06   7.6264355E-06   8.0190130E-06   8.6853242E-06   9.6350605E-06   1.0865258E-05   1.2344899E-05   1.3996880E-05   1.5778973E-05   1.6059657E-05   1.6909979E-05   1.8350034E-05   2.0397560E-05   2.3044320E-05   2.6225125E-05   2.9780824E-05   3.2287178E-05   3.2874501E-05   3.4651839E-05   3.7656457E-05   4.1920492E-05   4.7425514E-05   5.4042204E-05   6.1456398E-05   6.4281128E-05   6.5469190E-05   6.9061462E-05   7.5126445E-05   8.3723702E-05   9.4818824E-05   1.0816970E-04   1.2318199E-04   1.2463350E-04   1.2695973E-04   1.3398989E-04   1.4585111E-04   1.6265865E-04   1.8436131E-04   2.1053228E-04   2.4009979E-04   2.3559130E-04   2.4000724E-04   2.5335100E-04   2.7586403E-04   3.0777938E-04   3.4905004E-04   3.9898342E-04   4.5577838E-04   4.3470899E-04   4.4285733E-04   4.6748412E-04   5.0905376E-04   5.6804763E-04   6.4451335E-04   7.3748699E-04   8.4428908E-04   7.8407070E-04   7.9873553E-04   8.4306870E-04   9.1794936E-04   1.0243698E-03   1.1627552E-03   1.3321876E-03   1.5295515E-03   1.3844224E-03   1.4102530E-03   1.4883473E-03   1.6203127E-03   1.8081488E-03   2.0533802E-03   2.3563199E-03   2.7154835E-03   2.3965205E-03   2.4411827E-03   2.5761884E-03   2.8043475E-03   3.1295291E-03   3.5559274E-03   4.0881136E-03   4.7318414E-03   4.0728920E-03   4.1489182E-03   4.3786196E-03   4.7666319E-03   5.3200386E-03   6.0486514E-03   6.9676703E-03   8.1023974E-03   6.8043433E-03   6.9321375E-03   7.3178909E-03   7.9686707E-03   8.8965027E-03   1.0121550E-02   1.1681191E-02   1.3643843E-02   1.1187012E-02   1.1399787E-02   1.2041164E-02   1.3120654E-02   1.4656570E-02   1.6685603E-02   1.9285621E-02   2.2608880E-02   1.8117420E-02   1.8469444E-02   1.9528506E-02   2.1304753E-02   2.3821687E-02   2.7137913E-02   3.1397115E-02   3.6900647E-02   2.8924074E-02   2.9504389E-02   3.1246355E-02   3.4155041E-02   3.8251430E-02   4.3615252E-02   5.0485212E-02   5.9408773E-02   4.5543496E-02   4.6498772E-02   4.9359892E-02   5.4114647E-02   6.0760982E-02   6.9382593E-02   8.0336161E-02   9.4549045E-02   7.0744842E-02   7.2316095E-02   7.7013925E-02   8.4788553E-02   9.5575131E-02   1.0941318E-01   1.2677652E-01   1.4913979E-01   1.0840121E-01   1.1097988E-01   1.1868320E-01   1.3139988E-01   1.4894378E-01   1.7121923E-01   1.9877043E-01   2.3380955E-01   1.6379218E-01   1.6799910E-01   1.8057197E-01   2.0132972E-01   2.2990759E-01   2.6595387E-01   3.0998668E-01   3.6516884E-01   2.4387662E-01   2.5066286E-01   2.7098578E-01   3.0464563E-01   3.5110855E-01   4.0968660E-01   4.8080015E-01   5.6884736E-01   3.5735643E-01   3.6812058E-01   4.0046847E-01   4.5437542E-01   5.2934068E-01   6.2450099E-01   7.4029261E-01   8.8309336E-01   5.1415592E-01   5.3086185E-01   5.8129340E-01   6.6604459E-01   7.8524953E-01   9.3848419E-01   1.1271361E+00   1.3619238E+00   7.2378647E-01   7.4905527E-01   8.2571566E-01   9.5574474E-01   1.1410347E+00   1.3832502E+00   1.6876993E+00   2.0761464E+00   9.9221975E-01   1.0293376E+00   1.1424334E+00   1.3358893E+00   1.6152365E+00   1.9875562E+00   2.4698033E+00   3.1115260E+00   1.3174512E+00   1.3701562E+00   1.5312452E+00   1.8087229E+00   2.2142627E+00   2.7672977E+00   3.5140431E+00   4.5693955E+00   1.6845571E+00   1.7565806E+00   1.9771254E+00   2.3588288E+00   2.9235773E+00   3.7169888E+00   4.8513622E+00   6.5842934E+00   2.0619898E+00   2.1564951E+00   2.4459994E+00   2.9487860E+00   3.7042501E+00   4.8107471E+00   6.5177264E+00   9.3668261E+00   2.4011467E+00   2.5203228E+00   2.8850989E+00   3.5210533E+00   4.4981365E+00   6.0152431E+00   8.5794001E+00   1.3240452E+01   2.6417935E+00   2.7868278E+00   3.2301099E+00   4.0075617E+00   5.2417121E+00   7.3066068E+00   1.1142035E+01   1.8613974E+01   2.7255206E+00   2.8969903E+00   3.4203277E+00   4.3470912E+00   5.8840222E+00   8.6779766E+00   1.4317180E+01   2.5845030E+01   2.6153896E+00   2.8138492E+00   3.4190736E+00   4.5056381E+00   6.4010077E+00   1.0128678E+01   1.8143692E+01   3.5019531E+01   2.3157759E+00   2.5421388E+00   3.2324853E+00   4.4917607E+00   6.7996397E+00   1.1639988E+01   2.2504139E+01   4.5759838E+01   1.8843974E+00   2.1397443E+00   2.9188194E+00   4.3608961E+00   7.1135392E+00   1.3159424E+01   2.7099342E+01   5.7201298E+01   1.4272989E+00   1.7121384E+00   2.5811453E+00   4.2063541E+00   7.3970618E+00   1.4615697E+01   3.1527502E+01   6.8218933E+01   1.0685529E+00   1.3820575E+00   2.3375745E+00   4.1332717E+00   7.7143955E+00   1.5953279E+01   3.5430546E+01   7.7803658E+01   8.9835531E-01   1.2379402E+00   2.2711763E+00   4.2131410E+00   8.1086092E+00   1.7140205E+01   3.8592625E+01   8.5346123E+01   9.3138814E-01   1.2927840E+00   2.3902235E+00   4.4471183E+00   8.5706234E+00   1.8149673E+01   4.0949642E+01   9.0702225E+01   1.1096566E+00   1.4873480E+00   2.6322436E+00   4.7700491E+00   9.0397854E+00   1.8946861E+01   4.2539635E+01   9.4064995E+01   1.3411516E+00   1.7289577E+00   2.9029832E+00   5.0878243E+00   9.4327068E+00   1.9490499E+01   4.3435005E+01   9.5752640E+01   1.5441177E+00   1.9357275E+00   3.1203036E+00   5.3195710E+00   9.6779585E+00   1.9744287E+01   4.3695244E+01   9.6036095E+01   1.6760806E+00   2.0654202E+00   3.2426233E+00   5.4251733E+00   9.7407923E+00   1.9692192E+01   4.3357193E+01   9.5074532E+01   1.7393391E+00   2.1207981E+00   3.2739534E+00   5.4104104E+00   9.6294174E+00   1.9348049E+01   4.2451267E+01   9.2941986E+01   1.7668439E+00   2.1354139E+00   3.2495790E+00   5.3129325E+00   9.3835449E+00   1.8752739E+01   4.1020409E+01   8.9690773E+01   1.8000154E+00   2.1514418E+00   3.2138689E+00   5.1804171E+00   9.0546827E+00   1.7962214E+01   3.9128254E+01   8.5403206E+01   1.8703477E+00   2.2012999E+00   3.2019932E+00   5.0525904E+00   8.6895323E+00   1.7035494E+01   3.6859623E+01   8.0218658E+01   1.9900007E+00   2.2982583E+00   3.2305393E+00   4.9519048E+00   8.3210907E+00   1.6027718E+01   3.4318459E+01   7.4340988E+01   2.1512828E+00   2.4358420E+00   3.2966614E+00   4.8822551E+00   7.9670105E+00   1.4988076E+01   3.1624943E+01   6.8032967E+01   2.3353388E+00   2.5962975E+00   3.3859129E+00   4.8360715E+00   7.6357608E+00   1.3964293E+01   2.8915409E+01   6.1605400E+01   2.5249166E+00   2.7630184E+00   3.4840162E+00   4.8054190E+00   7.3370304E+00   1.3011166E+01   2.6344696E+01   5.5403461E+01   2.7099738E+00   2.9261220E+00   3.5823760E+00   4.7875609E+00   7.0872531E+00   1.2193911E+01   2.4080969E+01   4.9780819E+01   2.8855259E+00   3.0804696E+00   3.6766803E+00   4.7843065E+00   6.9084516E+00   1.1582011E+01   2.2285379E+01   4.5051868E+01   3.0455029E+00   3.2204595E+00   3.7640967E+00   4.8019605E+00   6.8279910E+00   1.1241629E+01   2.1084278E+01   4.1427929E+01   3.1785715E+00   3.3371654E+00   3.8437810E+00   4.8547721E+00   6.8809505E+00   1.1227583E+01   2.0538198E+01   3.8947353E+01   3.2727528E+00   3.4235859E+00   3.9229391E+00   4.9693203E+00   7.1070681E+00   1.1564986E+01   2.0604662E+01   3.7384590E+01   3.3278797E+00   3.4855466E+00   4.0222683E+00   5.1792517E+00   7.5302820E+00   1.2215594E+01   2.1088207E+01   3.6235760E+01   3.3591564E+00   3.5415571E+00   4.1653495E+00   5.5004463E+00   8.1219454E+00   1.3032490E+01   2.1567289E+01   3.4876331E+01   3.3755667E+00   3.5983398E+00   4.3473630E+00   5.8929238E+00   8.7508526E+00   1.3684089E+01   2.1524250E+01   3.2913391E+01   3.3504071E+00   3.6211290E+00   4.5015874E+00   6.2124186E+00   9.1324759E+00   1.3796178E+01   2.0783876E+01   3.0587002E+01   3.2368338E+00   3.5409851E+00   4.4960771E+00   6.2429171E+00   9.0702333E+00   1.3435532E+01   1.9820677E+01   2.8396852E+01   2.9748557E+00   3.2787919E+00   4.2275538E+00   5.9519916E+00   8.7647810E+00   1.3040893E+01   1.8912275E+01   2.6080914E+01   2.5362790E+00   2.8188956E+00   3.7340205E+00   5.4728727E+00   8.3137827E+00   1.2359761E+01   1.7365747E+01   2.2847622E+01   1.9246677E+00   2.1736279E+00   3.0212390E+00   4.6661196E+00   7.2575269E+00   1.0703828E+01   1.4544571E+01   1.7858982E+01   7.5370014E-01   9.6352482E-01   1.7139634E+00   3.1455250E+00   5.2912188E+00   7.8139753E+00   9.8412533E+00   1.0866609E+01   1.2277719E+00   1.0475831E+00   6.6790390E-01   1.1755115E+00   2.5544019E+00   4.1397371E+00   6.7878900E+00   1.7040321E+00   1.4684255E+00   7.3874354E-01   9.1144884E-01   3.5811017E+00   7.1086702E-06   7.7161521E-06   7.8599269E-06   7.0232200E-06   4.7475601E-06   1.0609491E-06   3.2304602E-06   1.5671561E-05   1.7049000E-05   1.7395292E-05   1.5549787E-05   1.0490501E-05   2.2760785E-06   7.3208730E-06   1.5612537E-05   3.3404576E-05   3.6415164E-05   3.7212354E-05   3.3275399E-05   2.2398846E-05   4.7021313E-06   1.6030730E-05   3.4017365E-05   6.9059359E-05   7.5444834E-05   7.7230485E-05   6.9105481E-05   4.6446163E-05   9.4771103E-06   3.3956003E-05   7.1737159E-05   1.3868957E-04   1.5187776E-04   1.5581393E-04   1.3963890E-04   9.3911891E-05   1.9043277E-05   6.9681359E-05   1.4695909E-04   2.7092773E-04   2.9758582E-04   3.0633248E-04   2.7561517E-04   1.8687941E-04   5.6167144E-05   1.5942786E-04   3.1570584E-04   5.1578134E-04   5.6901778E-04   5.8925280E-04   5.3553231E-04   3.8758840E-04   3.3170561E-04   6.4217602E-04   9.8163250E-04   9.5933629E-04   1.0654047E-03   1.1148304E-03   1.0438041E-03   9.7946299E-04   1.5799185E-03   2.7976136E-03   3.8022515E-03   1.7478038E-03   1.9595781E-03   2.0852708E-03   2.0989990E-03   2.8119830E-03   5.6034462E-03   9.7972956E-03   1.3072003E-02   3.1252459E-03   3.5470496E-03   3.8647247E-03   4.2999284E-03   7.2949259E-03   1.5558481E-02   2.7580205E-02   3.7225351E-02   5.4912199E-03   6.3211806E-03   7.0669283E-03   8.4434040E-03   1.5725367E-02   3.4609631E-02   6.2745355E-02   8.5982859E-02   9.4854347E-03   1.1080679E-02   1.2660463E-02   1.5297577E-02   2.7898312E-02   6.2106185E-02   1.1499709E-01   1.5867169E-01   1.6107133E-02   1.9076027E-02   2.2167576E-02   2.5999350E-02   4.1595802E-02   9.0243831E-02   1.7025805E-01   2.3623042E-01   2.6884114E-02   3.2212362E-02   3.7981734E-02   4.3376967E-02   5.6143310E-02   1.0699619E-01   2.0408824E-01   2.8853565E-01   4.4124175E-02   5.3354986E-02   6.3718170E-02   7.2635077E-02   7.9677202E-02   1.0899442E-01   1.9533931E-01   2.8502432E-01   7.1303777E-02   8.6814724E-02   1.0473437E-01   1.2070717E-01   1.2702033E-01   1.2284319E-01   1.5027586E-01   2.1473579E-01   1.1369637E-01   1.3911483E-01   1.6912360E-01   1.9708830E-01   2.0979555E-01   1.9019593E-01   1.4346416E-01   1.1878426E-01   1.7941880E-01   2.2021542E-01   2.6926249E-01   3.1636357E-01   3.4096372E-01   3.1486866E-01   2.3271200E-01   1.2100014E-01   2.8119695E-01   3.4570977E-01   4.2448625E-01   5.0191325E-01   5.4567438E-01   5.1104945E-01   3.9092302E-01   2.2600378E-01   4.3928325E-01   5.4070187E-01   6.6599864E-01   7.9129869E-01   8.6589795E-01   8.1967413E-01   6.4838409E-01   4.2018473E-01   6.8600142E-01   8.4641385E-01   1.0460957E+00   1.2480857E+00   1.3714610E+00   1.3050057E+00   1.0587242E+00   7.6605165E-01   1.0721118E+00   1.3309083E+00   1.6545779E+00   1.9837722E+00   2.1847117E+00   2.0708256E+00   1.6775945E+00   1.2762934E+00   1.6747290E+00   2.1051145E+00   2.6460617E+00   3.1984181E+00   3.5319288E+00   3.3175483E+00   2.6193347E+00   1.9599527E+00   2.6060073E+00   3.3462825E+00   4.2849698E+00   5.2501149E+00   5.8340921E+00   5.4365139E+00   4.1537075E+00   3.0945656E+00   4.0248156E+00   5.3355293E+00   7.0202918E+00   8.7734671E+00   9.8580942E+00   9.1544809E+00   6.7349715E+00   4.7302866E+00   6.1619654E+00   8.5277138E+00   1.1615328E+01   1.4875377E+01   1.6963734E+01   1.5809962E+01   1.1271753E+01   7.2363143E+00   9.3795071E+00   1.3672263E+01   1.9335928E+01   2.5356934E+01   2.9421268E+01   2.7793829E+01   1.9742750E+01   1.1954867E+01   1.4255850E+01   2.1946424E+01   3.2111576E+01   4.2876980E+01   5.0371250E+01   4.8767960E+01   3.5660000E+01   2.1157667E+01   2.1624140E+01   3.4961464E+01   5.2468594E+01   7.0816811E+01   8.3697792E+01   8.2665710E+01   6.4712852E+01   4.0508587E+01   3.2453728E+01   5.4480190E+01   8.3027824E+01   1.1258416E+02   1.3357982E+02   1.3523790E+02   1.1601357E+02   8.1893791E+01   4.7515461E+01   8.1786537E+01   1.2560876E+02   1.7058597E+02   2.0359006E+02   2.1319576E+02   2.0420023E+02   1.6909636E+02   6.6920341E+01   1.1692920E+02   1.8014308E+02   2.4495230E+02   2.9617886E+02   3.2865900E+02   3.5690546E+02   3.4099564E+02   8.9755928E+01   1.5815915E+02   2.4395445E+02   3.3282199E+02   4.1086313E+02   4.8768314E+02   5.9685754E+02   6.3328937E+02   1.1409496E+02   2.0199789E+02   3.1174445E+02   4.2662381E+02   5.3573853E+02   6.7063324E+02   8.8855304E+02   9.9531732E+02   1.3749391E+02   2.4409056E+02   3.7671045E+02   5.1614777E+02   6.5334412E+02   8.3589990E+02   1.1395740E+03   1.2964387E+03   1.5776727E+02   2.8057498E+02   4.3300589E+02   5.9300745E+02   7.5033087E+02   9.5950623E+02   1.3043616E+03   1.4740457E+03   1.7359238E+02   3.0909042E+02   4.7708749E+02   6.5273926E+02   8.2295343E+02   1.0427443E+03   1.3984753E+03   1.5610692E+03   1.8466873E+02   3.2906091E+02   5.0808624E+02   6.9466083E+02   8.7275409E+02   1.0953956E+03   1.4491451E+03   1.5990570E+03   1.9145319E+02   3.4126035E+02   5.2711768E+02   7.2045276E+02   9.0299060E+02   1.1255499E+03   1.4741271E+03   1.6126333E+03   1.9469914E+02   3.4703314E+02   5.3616461E+02   7.3277600E+02   9.1729578E+02   1.1389875E+03   1.4832484E+03   1.6147327E+03   1.9506438E+02   3.4760095E+02   5.3708789E+02   7.3408734E+02   9.1862000E+02   1.1391389E+03   1.4805416E+03   1.6092340E+03   1.9294225E+02   3.4372620E+02   5.3110358E+02   7.2604718E+02   9.0905951E+02   1.1288910E+03   1.4704977E+03   1.6017224E+03   1.8850162E+02   3.3574777E+02   5.1876654E+02   7.0926392E+02   8.8834192E+02   1.1040536E+03   1.4398813E+03   1.5701323E+03   1.8182486E+02   3.2381973E+02   5.0034515E+02   6.8411987E+02   8.5689404E+02   1.0649475E+03   1.3888004E+03   1.5143859E+03   1.7303685E+02   3.0814890E+02   4.7616702E+02   6.5108313E+02   8.1533075E+02   1.0124318E+03   1.3186116E+03   1.4362540E+03   1.6237985E+02   2.8913467E+02   4.4683267E+02   6.1097693E+02   7.6472845E+02   9.4805383E+02   1.2317350E+03   1.3388478E+03   1.5023492E+02   2.6741400E+02   4.1328131E+02   5.6505365E+02   7.0669440E+02   8.7404388E+02   1.1316150E+03   1.2265028E+03   1.3711035E+02   2.4383997E+02   3.7675784E+02   5.1493585E+02   6.4321960E+02   7.9301263E+02   1.0221558E+03   1.1038951E+03   1.2360938E+02   2.1941432E+02   3.3870737E+02   4.6248468E+02   5.7660065E+02   7.0804279E+02   9.0783752E+02   9.7567670E+02   1.1038554E+02   1.9519963E+02   3.0063770E+02   4.0968604E+02   5.0941516E+02   6.2268109E+02   7.9297113E+02   8.4605078E+02   9.8080650E+01   1.7220020E+02   2.6394077E+02   3.5838837E+02   4.4411807E+02   5.4029059E+02   6.8162439E+02   7.1867712E+02   8.7229568E+01   1.5117194E+02   2.2967554E+02   3.1001843E+02   3.8269431E+02   4.6371414E+02   5.7714362E+02   5.9576471E+02   7.8107399E+01   1.3247716E+02   1.9838162E+02   2.6539206E+02   3.2636752E+02   3.9475586E+02   4.8148779E+02   4.7988239E+02   7.0641876E+01   1.1605689E+02   1.7013235E+02   2.2476921E+02   2.7568271E+02   3.3385870E+02   3.9531866E+02   3.7342972E+02   6.4424149E+01   1.0153732E+02   1.4477686E+02   1.8831351E+02   2.3086765E+02   2.8032788E+02   3.1848669E+02   2.7944904E+02   5.8856579E+01   8.8513496E+01   1.2229897E+02   1.5644585E+02   1.9237885E+02   2.3285880E+02   2.4909311E+02   5.3436497E+01   7.6828735E+01   1.0287666E+02   1.2980978E+02   1.6040865E+02   1.8917375E+02   1.8529916E+02   4.8121468E+01   6.6583931E+01   8.6683197E+01   1.0856138E+02   1.3304375E+02   1.4675793E+02   4.3216732E+01   5.7709339E+01   7.3395103E+01   9.1013306E+01   1.0586747E+02   1.0822925E+02   3.8651081E+01   4.9734081E+01   6.1684502E+01   7.3198578E+01   7.9234024E+01   3.3881985E+01   4.1747337E+01   4.8601799E+01   5.4386482E+01   2.8090652E+01   3.1739408E+01   3.4553612E+01   5.0082375E+01   1.9647375E+01   2.1872963E+01   1.4553072E+01 
Vel 3 2975 float
  0.0000000E+00   0.0000000E+00   0.0000000E+00   0.0000000E+00   0.0000000E+00   0.0000000E+00   0.0000000E+00   0.0000000E+00   0.0000000E+00   0.0000000E+00   0.0000000E+00   0.0000000E+00   0.0000000E+00   0.0000000E+00   0.0000000E+00   0.0000000E+00   0.0000000E+00   0.0000000E+00   0.0000000E+00   0.0000000E+00   0.0000000E+00   0.0000000E+00   0.0000000E+00   0.0000000E+00   0.0000000E+00   0.0000000E+00   0.0000000E+00   0.0000000E+00   0.0000000E+00   0.0000000E+00   0.0000000E+00   0.0000000E+00   0.0000000E+00   0.0000000E+00   0.0000000E+00   0.0000000E+00   0.0000000E+00   0.0000000E+00   0.0000000E+00   0.0000000E+00   0.0000000E+00   0.0000000E+00   0.0000000E+00   0.0000000E+00   0.0000000E+00   0.0000000E+00   0.0000000E+00   0.0000000E+00   0.0000000E+00   0.0000000E+00   0.0000000E+00   0.0000000E+00   0.0000000E+00   0.0000000E+00   0.0000000E+00   0.0000000E+00   0.0000000E+00   0.0000000E+00   0.0000000E+00   0.0000000E+00   0.0000000E+00   0.0000000E+00   0.0000000E+00   0.0000000E+00   0.0000000E+00   0.0000000E+00   0.0000000E+00   0.0000000E+00   0.0000000E+00   0.0000000E+00   0.0000000E+00   0.0000000E+00   0.0000000E+00   0.0000000E+00   0.0000000E+00   0.0000000E+00   0.0000000E+00   0.0000000E+00   0.0000000E+00   0.0000000E+00   0.0000000E+00   0.0000000E+00   0.0000000E+00   0.0000000E+00   0.0000000E+00   0.0000000E+00   0.0000000E+00   0.0000000E+00   0.0000000E+00   0.0000000E+00   0.0000000E+00   0.0000000E+00   0.0000000E+00   0.0000000E+00   0.0000000E+00   0.0000000E+00   0.0000000E+00   0.0000000E+00   0.0000000E+00   0.0000000E+00   0.0000000E+00   0.0000000E+00   0.0000000E+00   0.0000000E+00   0.0000000E+00   0.0000000E+00   0.0000000E+00   0.0000000E+00   0.0000000E+00   0.0000000E+00   0.0000000E+00   0.0000000E+00   0.0000000E+00   0.0000000E+00   0.0000000E+00   0.0000000E+00   0.0000000E+00   0.0000000E+00   0.0000000E+00   0.0000000E+00   0.0000000E+00   0.0000000E+00   0.0000000E+00   0.0000000E+00   0.0000000E+00   0.0000000E+00   0.0000000E+00   0.0000000E+00   0.0000000E+00   0.0000000E+00   0.0000000E+00   0.0000000E+00   0.0000000E+00   0.0000000E+00   0.0000000E+00   0.0000000E+00   0.0000000E+00   0.0000000E+00   0.0000000E+00   0.0000000E+00   0.0000000E+00   0.0000000E+00   0.0000000E+00   0.0000000E+00   0.0000000E+00   0.0000000E+00   0.0000000E+00   0.0000000E+00   0.0000000E+00   0.0000000E+00   0.0000000E+00   0.0000000E+00   0.0000000E+00   0.0000000E+00   0.0000000E+00   0.0000000E+00   0.0000000E+00   0.0000000E+00   0.0000000E+00   0.0000000E+00   0.0000000E+00   0.0000000E+00   0.0000000E+00   0.0000000E+00   0.0000000E+00   0.0000000E+00   0.0000000E+00   0.0000000E+00   0.0000000E+00   0.0000000E+00   0.0000000E+00   0.0000000E+00   0.0000000E+00   0.0000000E+00   0.0000000E+00   0.0000000E+00   0.0000000E+00   0.0000000E+00   0.0000000E+00   0.0000000E+00   0.0000000E+00   0.0000000E+00   0.0000000E+00   0.0000000E+00   0.0000000E+00   0.0000000E+00   0.0000000E+00   0.0000000E+00   0.0000000E+00   0.0000000E+00   0.0000000E+00   0.0000000E+00   0.0000000E+00   0.0000000E+00   0.0000000E+00   0.0000000E+00   0.0000000E+00   0.0000000E+00   0.0000000E+00   0.0000000E+00   0.0000000E+00   0.0000000E+00   0.0000000E+00   0.0000000E+00   0.0000000E+00   0.0000000E+00   0.0000000E+00   0.0000000E+00   0.0000000E+00   0.0000000E+00   0.0000000E+00   0.0000000E+00   0.0000000E+00   0.0000000E+00   0.0000000E+00   0.0000000E+00   0.0000000E+00   0.0000000E+00   0.0000000E+00   0.0000000E+00   0.0000000E+00   0.0000000E+00   0.0000000E+00   0.0000000E+00   0.0000000E+00   0.0000000E+00   0.0000000E+00   0.0000000E+00   0.0000000E+00   0.0000000E+00   0.0000000E+00   0.0000000E+00   0.0000000E+00   0.0000000E+00   0.0000000E+00   0.0000000E+00   0.0000000E+00   0.0000000E+00   0.0000000E+00   0.0000000E+00   0.0000000E+00   0.0000000E+00   0.0000000E+00   0.0000000E+00   0.0000000E+00   0.0000000E+00   0.0000000E+00   0.0000000E+00   0.0000000E+00   0.0000000E+00   0.0000000E+00   0.0000000E+00   0.0000000E+00   0.0000000E+00   0.0000000E+00   0.0000000E+00   0.0000000E+00   0.0000000E+00   0.0000000E+00   0.0000000E+00   0.0000000E+00   0.0000000E+00   0.0000000E+00   0.0000000E+00   0.0000000E+00   0.0000000E+00   0.0000000E+00   0.0000000E+00   0.0000000E+00   0.0000000E+00   0.0000000E+00   0.0000000E+00   0.0000000E+00   0.0000000E+00   0.0000000E+00   0.0000000E+00   0.0000000E+00   0.0000000E+00   0.0000000E+00   0.0000000E+00   0.0000000E+00   0.0000000E+00   0.0000000E+00   0.0000000E+00   0.0000000E+00   0.0000000E+00   0.0000000E+00   0.0000000E+00   0.0000000E+00   0.0000000E+00   0.0000000E+00   0.0000000E+00   0.0000000E+00   0.0000000E+00   0.0000000E+00   0.0000000E+00   0.0000000E+00   0.0000000E+00   0.0000000E+00   0.0000000E+00   0.0000000E+00   0.0000000E+00   0.0000000E+00   0.0000000E+00   0.0000000E+00   0.0000000E+00   0.0000000E+00   0.0000000E+00   0.0000000E+00   0.0000000E+00   0.0000000E+00   0.0000000E+00   0.0000000E+00   0.0000000E+00   0.0000000E+00   0.0000000E+00   0.0000000E+00   0.0000000E+00   0.0000000E+00   0.0000000E+00   0.0000000E+00   0.0000000E+00   0.0000000E+00   0.0000000E+00   0.0000000E+00   0.0000000E+00   0.0000000E+00   0.0000000E+00   0.0000000E+00   0.0000000E+00   0.0000000E+00   0.0000000E+00   0.0000000E+00   0.0000000E+00   0.0000000E+00   0.0000000E+00   0.0000000E+00   0.0000000E+00   0.0000000E+00   0.0000000E+00   0.0000000E+00   0.0000000E+00   0.0000000E+00   0.0000000E+00   0.0000000E+00   0.0000000E+00   0.0000000E+00   0.0000000E+00   0.0000000E+00   0.0000000E+00   0.0000000E+00   0.0000000E+00   0.0000000E+00   0.0000000E+00   0.0000000E+00   0.0000000E+00   0.0000000E+00   0.0000000E+00   0.0000000E+00   0.0000000E+00   0.0000000E+00   0.0000000E+00   0.0000000E+00   0.0000000E+00   0.0000000E+00   0.0000000E+00   0.0000000E+00   0.0000000E+00   0.0000000E+00   0.0000000E+00   0.0000000E+00   0.0000000E+00   0.0000000E+00   0.0000000E+00   0.0000000E+00   0.0000000E+00   0.0000000E+00   0.0000000E+00   0.0000000E+00   0.0000000E+00   0.0000000E+00   0.0000000E+00   0.0000000E+00   0.0000000E+00   0.0000000E+00   0.0000000E+00   0.0000000E+00   0.0000000E+00   0.0000000E+00   0.0000000E+00   0.0000000E+00   0.0000000E+00   0.0000000E+00   0.0000000E+00   0.0000000E+00   0.0000000E+00   0.0000000E+00   0.0000000E+00   0.0000000E+00   0.0000000E+00   0.0000000E+00   0.0000000E+00   0.0000000E+00   0.0000000E+00   0.0000000E+00   0.0000000E+00   0.0000000E+00   0.0000000E+00   0.0000000E+00   0.0000000E+00   0.0000000E+00   0.0000000E+00   0.0000000E+00   0.0000000E+00   0.0000000E+00   0.0000000E+00   0.0000000E+00   0.0000000E+00   0.0000000E+00   0.0000000E+00   0.0000000E+00   0.0000000E+00   0.0000000E+00   0.0000000E+00   0.0000000E+00   0.0000000E+00   0.0000000E+00   0.0000000E+00   0.0000000E+00   0.0000000E+00   0.0000000E+00   0.0000000E+00   0.0000000E+00   0.0000000E+00   0.0000000E+00   0.0000000E+00   0.0000000E+00   0.0000000E+00   0.0000000E+00   0.0000000E+00   0.0000000E+00   0.0000000E+00   0.0000000E+00   0.0000000E+00   0.0000000E+00   0.0000000E+00   0.0000000E+00   0.0000000E+00   0.0000000E+00   0.0000000E+00   0.0000000E+00   0.0000000E+00   0.0000000E+00   0.0000000E+00   0.0000000E+00   0.0000000E+00   0.0000000E+00   0.0000000E+00   0.0000000E+00   0.0000000E+00   0.0000000E+00   0.0000000E+00   0.0000000E+00   0.0000000E+00   0.0000000E+00   0.0000000E+00   0.0000000E+00   0.0000000E+00   0.0000000E+00   0.0000000E+00   0.0000000E+00   0.0000000E+00   0.0000000E+00   0.0000000E+00   0.0000000E+00   0.0000000E+00   0.0000000E+00   0.0000000E+00   0.0000000E+00   0.0000000E+00   0.0000000E+00   0.0000000E+00   0.0000000E+00   0.0000000E+00   0.0000000E+00   0.0000000E+00   0.0000000E+00   0.0000000E+00   0.0000000E+00   0.0000000E+00   0.0000000E+00   0.0000000E+00   0.0000000E+00   0.0000000E+00   0.0000000E+00   0.0000000E+00   0.0000000E+00   0.0000000E+00   0.0000000E+00   0.0000000E+00   0.0000000E+00   0.0000000E+00   0.0000000E+00   0.0000000E+00   0.0000000E+00   0.0000000E+00   0.0000000E+00   0.0000000E+00   0.0000000E+00   0.0000000E+00   0.0000000E+00   0.0000000E+00   0.0000000E+00   0.0000000E+00   0.0000000E+00   0.0000000E+00   0.0000000E+00   0.0000000E+00   0.0000000E+00   0.0000000E+00   0.0000000E+00   0.0000000E+00   0.0000000E+00   0.0000000E+00   0.0000000E+00   0.0000000E+00   0.0000000E+00   0.0000000E+00   0.0000000E+00   0.0000000E+00   0.0000000E+00   0.0000000E+00   0.0000000E+00   0.0000000E+00   0.0000000E+00   0.0000000E+00   0.0000000E+00   0.0000000E+00   0.0000000E+00   0.0000000E+00   0.0000000E+00   0.0000000E+00   0.0000000E+00   0.0000000E+00   0.0000000E+00   0.0000000E+00   0.0000000E+00   0.0000000E+00   0.0000000E+00   0.0000000E+00   0.0000000E+00   0.0000000E+00   0.0000000E+00   0.0000000E+00   0.0000000E+00   0.0000000E+00   0.0000000E+00   0.0000000E+00   0.0000000E+00   0.0000000E+00   0.0000000E+00   0.0000000E+00   0.0000000E+00   0.0000000E+00   0.0000000E+00   0.0000000E+00   0.0000000E+00   0.0000000E+00   0.0000000E+00   0.0000000E+00   0.0000000E+00   0.0000000E+00   0.0000000E+00   0.0000000E+00   0.0000000E+00   0.0000000E+00   0.0000000E+00   0.0000000E+00   0.0000000E+00   0.0000000E+00   0.0000000E+00   0.0000000E+00   0.0000000E+00   0.0000000E+00   0.0000000E+00   0.0000000E+00   0.0000000E+00   0.0000000E+00   0.0000000E+00   0.0000000E+00   0.0000000E+00   0.0000000E+00   0.0000000E+00   0.0000000E+00   0.0000000E+00   0.0000000E+00   0.0000000E+00   0.0000000E+00   0.0000000E+00   0.0000000E+00   0.0000000E+00   0.0000000E+00   0.0000000E+00   0.0000000E+00   0.0000000E+00   0.0000000E+00   0.0000000E+00   0.0000000E+00   0.0000000E+00   0.0000000E+00   0.0000000E+00   0.0000000E+00   0.0000000E+00   0.0000000E+00   0.0000000E+00   0.0000000E+00   0.0000000E+00   0.0000000E+00   0.0000000E+00   0.0000000E+00   0.0000000E+00   0.0000000E+00   0.0000000E+00   0.0000000E+00   0.0000000E+00   0.0000000E+00   0.0000000E+00   0.0000000E+00   0.0000000E+00   0.0000000E+00   0.0000000E+00   0.0000000E+00   0.0000000E+00   0.0000000E+00   0.0000000E+00   0.0000000E+00   0.0000000E+00   0.0000000E+00   0.0000000E+00   0.0000000E+00   0.0000000E+00   0.0000000E+00   0.0000000E+00   0.0000000E+00   0.0000000E+00   0.0000000E+00   0.0000000E+00   0.0000000E+00   0.0000000E+00   0.0000000E+00   0.0000000E+00   0.0000000E+00   0.0000000E+00   0.0000000E+00   0.0000000E+00   0.0000000E+00   0.0000000E+00   0.0000000E+00   0.0000000E+00   0.0000000E+00   0.0000000E+00   0.0000000E+00   0.0000000E+00   0.0000000E+00   0.0000000E+00   0.0000000E+00   0.0000000E+00   0.0000000E+00   0.0000000E+00   0.0000000E+00   0.0000000E+00   0.0000000E+00   0.0000000E+00   0.0000000E+00   0.0000000E+00   0.0000000E+00   0.0000000E+00   0.0000000E+00   0.0000000E+00   0.0000000E+00   0.0000000E+00   0.0000000E+00   0.0000000E+00   0.0000000E+00   0.0000000E+00   0.0000000E+00   0.0000000E+00   0.0000000E+00   0.0000000E+00   0.0000000E+00   0.0000000E+00   0.0000000E+00   0.0000000E+00   0.0000000E+00   0.0000000E+00   0.0000000E+00   0.0000000E+00   0.0000000E+00   0.0000000E+00   0.0000000E+00   0.0000000E+00   0.0000000E+00   0.0000000E+00   0.0000000E+00   0.0000000E+00   0.0000000E+00   0.0000000E+00   0.0000000E+00   0.0000000E+00   0.0000000E+00   0.0000000E+00   0.0000000E+00   0.0000000E+00   0.0000000E+00   0.0000000E+00   0.0000000E+00   0.0000000E+00   0.0000000E+00   0.0000000E+00   0.0000000E+00   0.0000000E+00   0.0000000E+00   0.0000000E+00   0.0000000E+00   0.0000000E+00   0.0000000E+00   0.0000000E+00   0.0000000E+00   0.0000000E+00   0.0000000E+00   0.0000000E+00   0.0000000E+00   0.0000000E+00   0.0000000E+00   0.0000000E+00   0.0000000E+00   0.0000000E+00   0.0000000E+00   0.0000000E+00   0.0000000E+00   0.0000000E+00   0.0000000E+00   0.0000000E+00   0.0000000E+00   0.0000000E+00   0.0000000E+00   0.0000000E+00   0.0000000E+00   0.0000000E+00   0.0000000E+00   0.0000000E+00   0.0000000E+00   0.0000000E+00   0.0000000E+00   0.0000000E+00   0.0000000E+00   0.0000000E+00   0.0000000E+00   0.0000000E+00   0.0000000E+00   0.0000000E+00   0.0000000E+00   0.0000000E+00   0.0000000E+00   0.0000000E+00   0.0000000E+00   0.0000000E+00   0.0000000E+00   0.0000000E+00   0.0000000E+00   0.0000000E+00   0.0000000E+00   0.0000000E+00   0.0000000E+00   0.0000000E+00   0.0000000E+00   0.0000000E+00   0.0000000E+00   0.0000000E+00   0.0000000E+00   0.0000000E+00   0.0000000E+00   0.0000000E+00   0.0000000E+00   0.0000000E+00   0.0000000E+00   0.0000000E+00   0.0000000E+00   0.0000000E+00   0.0000000E+00   0.0000000E+00   0.0000000E+00   0.0000000E+00   0.0000000E+00   0.0000000E+00   0.0000000E+00   0.0000000E+00   0.0000000E+00   0.0000000E+00   0.0000000E+00   0.0000000E+00   0.0000000E+00   0.0000000E+00   0.0000000E+00   0.0000000E+00   0.0000000E+00   0.0000000E+00   0.0000000E+00   0.0000000E+00   0.0000000E+00   0.0000000E+00   0.0000000E+00   0.0000000E+00   0.0000000E+00   0.0000000E+00   0.0000000E+00   0.0000000E+00   0.0000000E+00   0.0000000E+00   0.0000000E+00   0.0000000E+00   0.0000000E+00   0.0000000E+00   0.0000000E+00   0.0000000E+00   0.0000000E+00   0.0000000E+00   0.0000000E+00   0.0000000E+00   0.0000000E+00   0.0000000E+00   0.0000000E+00   0.0000000E+00   0.0000000E+00   0.0000000E+00   0.0000000E+00   0.0000000E+00   0.0000000E+00   0.0000000E+00   0.0000000E+00   0.0000000E+00   0.0000000E+00   0.0000000E+00   0.0000000E+00   0.0000000E+00   0.0000000E+00   0.0000000E+00   0.0000000E+00   0.0000000E+00   0.0000000E+00   0.0000000E+00   0.0000000E+00   0.0000000E+00   0.0000000E+00   0.0000000E+00   0.0000000E+00   0.0000000E+00   0.0000000E+00   0.0000000E+00   0.0000000E+00   0.0000000E+00   0.0000000E+00   0.0000000E+00   0.0000000E+00   0.0000000E+00   0.0000000E+00   0.0000000E+00   0.0000000E+00   0.0000000E+00   0.0000000E+00   0.0000000E+00   0.0000000E+00   0.0000000E+00   0.0000000E+00   0.0000000E+00   0.0000000E+00   0.0000000E+00   0.0000000E+00   0.0000000E+00   0.0000000E+00   0.0000000E+00   0.0000000E+00   0.0000000E+00   0.0000000E+00   0.0000000E+00   0.0000000E+00   0.0000000E+00   0.0000000E+00   0.0000000E+00   0.0000000E+00   0.0000000E+00   0.0000000E+00   0.0000000E+00   0.0000000E+00   0.0000000E+00   0.0000000E+00   0.0000000E+00   0.0000000E+00   0.0000000E+00   0.0000000E+00   0.0000000E+00   0.0000000E+00   0.0000000E+00   0.0000000E+00   0.0000000E+00   0.0000000E+00   0.0000000E+00   0.0000000E+00   0.0000000E+00   0.0000000E+00   0.0000000E+00   0.0000000E+00   0.0000000E+00   0.0000000E+00   0.0000000E+00   0.0000000E+00   0.0000000E+00   0.0000000E+00   0.0000000E+00   0.0000000E+00   0.0000000E+00   0.0000000E+00   0.0000000E+00   0.0000000E+00   0.0000000E+00   0.0000000E+00   0.0000000E+00   0.0000000E+00   0.0000000E+00   0.0000000E+00   0.0000000E+00   0.0000000E+00   0.0000000E+00   0.0000000E+00   0.0000000E+00   0.0000000E+00   0.0000000E+00   0.0000000E+00   0.0000000E+00   0.0000000E+00   0.0000000E+00   0.0000000E+00   0.0000000E+00   0.0000000E+00   0.0000000E+00   0.0000000E+00   0.0000000E+00   0.0000000E+00   0.0000000E+00   0.0000000E+00   0.0000000E+00   0.0000000E+00   0.0000000E+00   0.0000000E+00   0.0000000E+00   0.0000000E+00   0.0000000E+00   0.0000000E+00   0.0000000E+00   0.0000000E+00   0.0000000E+00   0.0000000E+00   0.0000000E+00   0.0000000E+00   0.0000000E+00   0.0000000E+00   0.0000000E+00   0.0000000E+00   0.0000000E+00   0.0000000E+00   0.0000000E+00   0.0000000E+00   0.0000000E+00   0.0000000E+00   0.0000000E+00   0.0000000E+00   0.0000000E+00   0.0000000E+00   0.0000000E+00   0.0000000E+00   0.0000000E+00   0.0000000E+00   0.0000000E+00   0.0000000E+00   0.0000000E+00   0.0000000E+00   0.0000000E+00   0.0000000E+00   0.0000000E+00   0.0000000E+00   0.0000000E+00   0.0000000E+00   0.0000000E+00   0.0000000E+00   0.0000000E+00   0.0000000E+00   0.0000000E+00   0.0000000E+00   0.0000000E+00   0.0000000E+00   0.0000000E+00   0.0000000E+00   0.0000000E+00   0.0000000E+00   0.0000000E+00   0.0000000E+00   0.0000000E+00   0.0000000E+00   0.0000000E+00   0.0000000E+00   0.0000000E+00   0.0000000E+00   0.0000000E+00   0.0000000E+00   0.0000000E+00   0.0000000E+00   0.0000000E+00   0.0000000E+00   0.0000000E+00   0.0000000E+00   0.0000000E+00   0.0000000E+00   0.0000000E+00   0.0000000E+00   0.0000000E+00   0.0000000E+00   0.0000000E+00   0.0000000E+00   0.0000000E+00   0.0000000E+00   0.0000000E+00   0.0000000E+00   0.0000000E+00   0.0000000E+00   0.0000000E+00   0.0000000E+00   0.0000000E+00   0.0000000E+00   0.0000000E+00   0.0000000E+00   0.0000000E+00   0.0000000E+00   0.0000000E+00   0.0000000E+00   0.0000000E+00   0.0000000E+00   0.0000000E+00   0.0000000E+00   0.0000000E+00   0.0000000E+00   0.0000000E+00   0.0000000E+00   0.0000000E+00   0.0000000E+00   0.0000000E+00   0.0000000E+00   0.0000000E+00   0.0000000E+00   0.0000000E+00   0.0000000E+00   0.0000000E+00   0.0000000E+00   0.0000000E+00   0.0000000E+00   0.0000000E+00   0.0000000E+00   0.0000000E+00   0.0000000E+00   0.0000000E+00   0.0000000E+00   0.0000000E+00   0.0000000E+00   0.0000000E+00   0.0000000E+00   0.0000000E+00   0.0000000E+00   0.0000000E+00   0.0000000E+00   0.0000000E+00   0.0000000E+00   0.0000000E+00   0.0000000E+00   0.0000000E+00   0.0000000E+00   0.0000000E+00   0.0000000E+00   0.0000000E+00   0.0000000E+00   0.0000000E+00   0.0000000E+00   0.0000000E+00   0.0000000E+00   0.0000000E+00   0.0000000E+00   0.0000000E+00   0.0000000E+00   0.0000000E+00   0.0000000E+00   0.0000000E+00   0.0000000E+00   0.0000000E+00   0.0000000E+00   0.0000000E+00   0.0000000E+00   0.0000000E+00   0.0000000E+00   0.0000000E+00   0.0000000E+00   0.0000000E+00   0.0000000E+00   0.0000000E+00   0.0000000E+00   0.0000000E+00   0.0000000E+00   0.0000000E+00   0.0000000E+00   0.0000000E+00   0.0000000E+00   0.0000000E+00   0.0000000E+00   0.0000000E+00   0.0000000E+00   0.0000000E+00   0.0000000E+00   0.0000000E+00   0.0000000E+00   0.0000000E+00   0.0000000E+00   0.0000000E+00   0.0000000E+00   0.0000000E+00   0.0000000E+00   0.0000000E+00   0.0000000E+00   0.0000000E+00   0.0000000E+00   0.0000000E+00   0.0000000E+00   0.0000000E+00   0.0000000E+00   0.0000000E+00   0.0000000E+00   0.0000000E+00   0.0000000E+00   0.0000000E+00   0.0000000E+00   0.0000000E+00   0.0000000E+00   0.0000000E+00   0.0000000E+00   0.0000000E+00   0.0000000E+00   0.0000000E+00   0.0000000E+00   0.0000000E+00   0.0000000E+00   0.0000000E+00   0.0000000E+00   0.0000000E+00   0.0000000E+00   0.0000000E+00   0.0000000E+00   0.0000000E+00   0.0000000E+00   0.0000000E+00   0.0000000E+00   0.0000000E+00   0.0000000E+00   0.0000000E+00   0.0000000E+00   0.0000000E+00   0.0000000E+00   0.0000000E+00   0.0000000E+00   0.0000000E+00   0.0000000E+00   0.0000000E+00   0.0000000E+00   0.0000000E+00   0.0000000E+00   0.0000000E+00   0.0000000E+00   0.0000000E+00   0.0000000E+00   0.0000000E+00   0.0000000E+00   0.0000000E+00   0.0000000E+00   0.0000000E+00   0.0000000E+00   0.0000000E+00   0.0000000E+00   0.0000000E+00   0.0000000E+00   0.0000000E+00   0.0000000E+00   0.0000000E+00   0.0000000E+00   0.0000000E+00   0.0000000E+00   0.0000000E+00   0.0000000E+00   0.0000000E+00   0.0000000E+00   0.0000000E+00   0.0000000E+00   0.0000000E+00   0.0000000E+00   0.0000000E+00   0.0000000E+00   0.0000000E+00   0.0000000E+00   0.0000000E+00   0.0000000E+00   0.0000000E+00   0.0000000E+00   0.0000000E+00   0.0000000E+00   0.0000000E+00   0.0000000E+00   0.0000000E+00   0.0000000E+00   0.0000000E+00   0.0000000E+00   0.0000000E+00   0.0000000E+00   0.0000000E+00   0.0000000E+00   0.0000000E+00   0.0000000E+00   0.0000000E+00   0.0000000E+00   0.0000000E+00   0.0000000E+00   0.0000000E+00   0.0000000E+00   0.0000000E+00   0.0000000E+00   0.0000000E+00   0.0000000E+00   0.0000000E+00   0.0000000E+00   0.0000000E+00   0.0000000E+00   0.0000000E+00   0.0000000E+00   0.0000000E+00   0.0000000E+00   0.0000000E+00   0.0000000E+00   0.0000000E+00   0.0000000E+00   0.0000000E+00   0.0000000E+00   0.0000000E+00   0.0000000E+00   0.0000000E+00   0.0000000E+00   0.0000000E+00   0.0000000E+00   0.0000000E+00   0.0000000E+00   0.0000000E+00   0.0000000E+00   0.0000000E+00   0.0000000E+00   0.0000000E+00   0.0000000E+00   0.0000000E+00   0.0000000E+00   0.0000000E+00   0.0000000E+00   0.0000000E+00   0.0000000E+00   0.0000000E+00   0.0000000E+00   0.0000000E+00   0.0000000E+00   0.0000000E+00   0.0000000E+00   0.0000000E+00   0.0000000E+00   0.0000000E+00   0.0000000E+00   0.0000000E+00   0.0000000E+00   0.0000000E+00   0.0000000E+00   0.0000000E+00   0.0000000E+00   0.0000000E+00   0.0000000E+00   0.0000000E+00   0.0000000E+00   0.0000000E+00   0.0000000E+00   0.0000000E+00   0.0000000E+00   0.0000000E+00   0.0000000E+00   0.0000000E+00   0.0000000E+00   0.0000000E+00   0.0000000E+00   0.0000000E+00   0.0000000E+00   0.0000000E+00   0.0000000E+00   0.0000000E+00   0.0000000E+00   0.0000000E+00   0.0000000E+00   0.0000000E+00   0.0000000E+00   0.0000000E+00   0.0000000E+00   0.0000000E+00   0.0000000E+00   0.0000000E+00   0.0000000E+00   0.0000000E+00   0.0000000E+00   0.0000000E+00   0.0000000E+00   0.0000000E+00   0.0000000E+00   0.0000000E+00   0.0000000E+00   0.0000000E+00   0.0000000E+00   0.0000000E+00   0.0000000E+00   0.0000000E+00   0.0000000E+00   0.0000000E+00   0.0000000E+00   0.0000000E+00   0.0000000E+00   0.0000000E+00   0.0000000E+00   0.0000000E+00   0.0000000E+00   0.0000000E+00   0.0000000E+00   0.0000000E+00   0.0000000E+00   0.0000000E+00   0.0000000E+00   0.0000000E+00   0.0000000E+00   0.0000000E+00   0.0000000E+00   0.0000000E+00   0.0000000E+00   0.0000000E+00   0.0000000E+00   0.0000000E+00   0.0000000E+00   0.0000000E+00   0.0000000E+00   0.0000000E+00   0.0000000E+00   0.0000000E+00   0.0000000E+00   0.0000000E+00   0.0000000E+00   0.0000000E+00   0.0000000E+00   0.0000000E+00   0.0000000E+00   0.0000000E+00   0.0000000E+00   0.0000000E+00   0.0000000E+00   0.0000000E+00   0.0000000E+00   0.0000000E+00   0.0000000E+00   0.0000000E+00   0.0000000E+00   0.0000000E+00   0.0000000E+00   0.0000000E+00   0.0000000E+00   0.0000000E+00   0.0000000E+00   0.0000000E+00   0.0000000E+00   0.0000000E+00   0.0000000E+00   0.0000000E+00   0.0000000E+00   0.0000000E+00   0.0000000E+00   0.0000000E+00   0.0000000E+00   0.0000000E+00   0.0000000E+00   0.0000000E+00   0.0000000E+00   0.0000000E+00   0.0000000E+00   0.0000000E+00   0.0000000E+00   0.0000000E+00   0.0000000E+00   0.0000000E+00   0.0000000E+00   0.0000000E+00   0.0000000E+00   0.0000000E+00   0.0000000E+00   0.0000000E+00   0.0000000E+00   0.0000000E+00   0.0000000E+00   0.0000000E+00   0.0000000E+00   0.0000000E+00   0.0000000E+00   0.0000000E+00   0.0000000E+00   0.0000000E+00   0.0000000E+00   0.0000000E+00   0.0000000E+00   0.0000000E+00   0.0000000E+00   0.0000000E+00   0.0000000E+00   0.0000000E+00   0.0000000E+00   0.0000000E+00   0.0000000E+00   0.0000000E+00   0.0000000E+00   0.0000000E+00   0.0000000E+00   0.0000000E+00   0.0000000E+00   0.0000000E+00   0.0000000E+00   0.0000000E+00   0.0000000E+00   0.0000000E+00   0.0000000E+00   0.0000000E+00   0.0000000E+00   0.0000000E+00   0.0000000E+00   0.0000000E+00   0.0000000E+00   0.0000000E+00   0.0000000E+00   0.0000000E+00   0.0000000E+00   0.0000000E+00   0.0000000E+00   0.0000000E+00   0.0000000E+00   0.0000000E+00   0.0000000E+00   0.0000000E+00   0.0000000E+00   0.0000000E+00   0.0000000E+00   0.0000000E+00   0.0000000E+00   0.0000000E+00   0.0000000E+00   0.0000000E+00   0.0000000E+00   0.0000000E+00   0.0000000E+00   0.0000000E+00   0.0000000E+00   0.0000000E+00   0.0000000E+00   0.0000000E+00   0.0000000E+00   0.0000000E+00   0.0000000E+00   0.0000000E+00   0.0000000E+00   0.0000000E+00   0.0000000E+00   0.0000000E+00   0.0000000E+00   0.0000000E+00   0.0000000E+00   0.0000000E+00   0.0000000E+00   0.0000000E+00   0.0000000E+00   0.0000000E+00   0.0000000E+00   0.0000000E+00   0.0000000E+00   0.0000000E+00   0.0000000E+00   0.0000000E+00   0.0000000E+00   0.0000000E+00   0.0000000E+00   0.0000000E+00   0.0000000E+00   0.0000000E+00   0.0000000E+00   0.0000000E+00   0.0000000E+00   0.0000000E+00   0.0000000E+00   0.0000000E+00   0.0000000E+00   0.0000000E+00   0.0000000E+00   0.0000000E+00   0.0000000E+00   0.0000000E+00   0.0000000E+00   0.0000000E+00   0.0000000E+00   0.0000000E+00   0.0000000E+00   0.0000000E+00   0.0000000E+00   0.0000000E+00   0.0000000E+00   0.0000000E+00   0.0000000E+00   0.0000000E+00   0.0000000E+00   0.0000000E+00   0.0000000E+00   0.0000000E+00   0.0000000E+00   0.0000000E+00   0.0000000E+00   0.0000000E+00   0.0000000E+00   0.0000000E+00   0.0000000E+00   0.0000000E+00   0.0000000E+00   0.0000000E+00   0.0000000E+00   0.0000000E+00   0.0000000E+00   0.0000000E+00   0.0000000E+00   0.0000000E+00   0.0000000E+00   0.0000000E+00   0.0000000E+00   0.0000000E+00   0.0000000E+00   0.0000000E+00   0.0000000E+00   0.0000000E+00   0.0000000E+00   0.0000000E+00   0.0000000E+00   0.0000000E+00   0.0000000E+00   0.0000000E+00   0.0000000E+00   0.0000000E+00   0.0000000E+00   0.0000000E+00   0.0000000E+00   0.0000000E+00   0.0000000E+00   0.0000000E+00   0.0000000E+00   0.0000000E+00   0.0000000E+00   0.0000000E+00   0.0000000E+00   0.0000000E+00   0.0000000E+00   0.0000000E+00   0.0000000E+00   0.0000000E+00   0.0000000E+00   0.0000000E+00   0.0000000E+00   0.0000000E+00   0.0000000E+00   0.0000000E+00   0.0000000E+00   0.0000000E+00   0.0000000E+00   0.0000000E+00   0.0000000E+00   0.0000000E+00   0.0000000E+00   0.0000000E+00   0.0000000E+00   0.0000000E+00   0.0000000E+00   0.0000000E+00   0.0000000E+00   0.0000000E+00   0.0000000E+00   0.0000000E+00   0.0000000E+00   0.0000000E+00   0.0000000E+00   0.0000000E+00   0.0000000E+00   0.0000000E+00   0.0000000E+00   0.0000000E+00   0.0000000E+00   0.0000000E+00   0.0000000E+00   0.0000000E+00   0.0000000E+00   0.0000000E+00   0.0000000E+00   0.0000000E+00   0.0000000E+00   0.0000000E+00   0.0000000E+00   0.0000000E+00   0.0000000E+00   0.0000000E+00   0.0000000E+00   0.0000000E+00   0.0000000E+00   0.0000000E+00   0.0000000E+00   0.0000000E+00   0.0000000E+00   0.0000000E+00   0.0000000E+00   0.0000000E+00   0.0000000E+00   0.0000000E+00   0.0000000E+00   0.0000000E+00   0.0000000E+00   0.0000000E+00   0.0000000E+00   0.0000000E+00   0.0000000E+00   0.0000000E+00   0.0000000E+00   0.0000000E+00   0.0000000E+00   0.0000000E+00   0.0000000E+00   0.0000000E+00   0.0000000E+00   0.0000000E+00   0.0000000E+00   0.0000000E+00   0.0000000E+00   0.0000000E+00   0.0000000E+00   0.0000000E+00   0.0000000E+00   0.0000000E+00   0.0000000E+00   0.0000000E+00   0.0000000E+00   0.0000000E+00   0.0000000E+00   0.0000000E+00   0.0000000E+00   0.0000000E+00   0.0000000E+00   0.0000000E+00   0.0000000E+00   0.0000000E+00   0.0000000E+00   0.0000000E+00   0.0000000E+00   0.0000000E+00   0.0000000E+00   0.0000000E+00   0.0000000E+00   0.0000000E+00   0.0000000E+00   0.0000000E+00   0.0000000E+00   0.0000000E+00   0.0000000E+00   0.0000000E+00   0.0000000E+00   0.0000000E+00   0.0000000E+00   0.0000000E+00   0.0000000E+00   0.0000000E+00   0.0000000E+00   0.0000000E+00   0.0000000E+00   0.0000000E+00   0.0000000E+00   0.0000000E+00   0.0000000E+00   0.0000000E+00   0.0000000E+00   0.0000000E+00   0.0000000E+00   0.0000000E+00   0.0000000E+00   0.0000000E+00   0.0000000E+00   0.0000000E+00   0.0000000E+00   0.0000000E+00   0.0000000E+00   0.0000000E+00   0.0000000E+00   0.0000000E+00   0.0000000E+00   0.0000000E+00   0.0000000E+00   0.0000000E+00   0.0000000E+00   0.0000000E+00   0.0000000E+00   0.0000000E+00   0.0000000E+00   0.0000000E+00   0.0000000E+00   0.0000000E+00   0.0000000E+00   0.0000000E+00   0.0000000E+00   0.0000000E+00   0.0000000E+00   0.0000000E+00   0.0000000E+00   0.0000000E+00   0.0000000E+00   0.0000000E+00   0.0000000E+00   0.0000000E+00   0.0000000E+00   0.0000000E+00   0.0000000E+00   0.0000000E+00   0.0000000E+00   0.0000000E+00   0.0000000E+00   0.0000000E+00   0.0000000E+00   0.0000000E+00   0.0000000E+00   0.0000000E+00   0.0000000E+00   0.0000000E+00   0.0000000E+00   0.0000000E+00   0.0000000E+00   0.0000000E+00   0.0000000E+00   0.0000000E+00   0.0000000E+00   0.0000000E+00   0.0000000E+00   0.0000000E+00   0.0000000E+00   0.0000000E+00   0.0000000E+00   0.0000000E+00   0.0000000E+00   0.0000000E+00   0.0000000E+00   0.0000000E+00   0.0000000E+00   0.0000000E+00   0.0000000E+00   0.0000000E+00   0.0000000E+00   0.0000000E+00   0.0000000E+00   0.0000000E+00   0.0000000E+00   0.0000000E+00   0.0000000E+00   0.0000000E+00   0.0000000E+00   0.0000000E+00   0.0000000E+00   0.0000000E+00   0.0000000E+00   0.0000000E+00   0.0000000E+00   0.0000000E+00   0.0000000E+00   0.0000000E+00   0.0000000E+00   0.0000000E+00   0.0000000E+00   0.0000000E+00   0.0000000E+00   0.0000000E+00   0.0000000E+00   0.0000000E+00   0.0000000E+00   0.0000000E+00   0.0000000E+00   0.0000000E+00   0.0000000E+00   0.0000000E+00   0.0000000E+00   0.0000000E+00   0.0000000E+00   0.0000000E+00   0.0000000E+00   0.0000000E+00   0.0000000E+00   0.0000000E+00   0.0000000E+00   0.0000000E+00   0.0000000E+00   0.0000000E+00   0.0000000E+00   0.0000000E+00   0.0000000E+00   0.0000000E+00   0.0000000E+00   0.0000000E+00   0.0000000E+00   0.0000000E+00   0.0000000E+00   0.0000000E+00   0.0000000E+00   0.0000000E+00   0.0000000E+00   0.0000000E+00   0.0000000E+00   0.0000000E+00   0.0000000E+00   0.0000000E+00   0.0000000E+00   0.0000000E+00   0.0000000E+00   0.0000000E+00   0.0000000E+00   0.0000000E+00   0.0000000E+00   0.0000000E+00   0.0000000E+00   0.0000000E+00   0.0000000E+00   0.0000000E+00   0.0000000E+00   0.0000000E+00   0.0000000E+00   0.0000000E+00   0.0000000E+00   0.0000000E+00   0.0000000E+00   0.0000000E+00   0.0000000E+00   0.0000000E+00   0.0000000E+00   0.0000000E+00   0.0000000E+00   0.0000000E+00   0.0000000E+00   0.0000000E+00   0.0000000E+00   0.0000000E+00   0.0000000E+00   0.0000000E+00   0.0000000E+00   0.0000000E+00   0.0000000E+00   0.0000000E+00   0.0000000E+00   0.0000000E+00   0.0000000E+00   0.0000000E+00   0.0000000E+00   0.0000000E+00   0.0000000E+00   0.0000000E+00   0.0000000E+00   0.0000000E+00   0.0000000E+00   0.0000000E+00   0.0000000E+00   0.0000000E+00   0.0000000E+00   0.0000000E+00   0.0000000E+00   0.0000000E+00   0.0000000E+00   0.0000000E+00   0.0000000E+00   0.0000000E+00   0.0000000E+00   0.0000000E+00   0.0000000E+00   0.0000000E+00   0.0000000E+00   0.0000000E+00   0.0000000E+00   0.0000000E+00   0.0000000E+00   0.0000000E+00   0.0000000E+00   0.0000000E+00   0.0000000E+00   0.0000000E+00   0.0000000E+00   0.0000000E+00   0.0000000E+00   0.0000000E+00   0.0000000E+00   0.0000000E+00   0.0000000E+00   0.0000000E+00   0.0000000E+00   0.0000000E+00   0.0000000E+00   0.0000000E+00   0.0000000E+00   0.0000000E+00   0.0000000E+00   0.0000000E+00   0.0000000E+00   0.0000000E+00   0.0000000E+00   0.0000000E+00   0.0000000E+00   0.0000000E+00   0.0000000E+00   0.0000000E+00   0.0000000E+00   0.0000000E+00   0.0000000E+00   0.0000000E+00   0.0000000E+00   0.0000000E+00   0.0000000E+00   0.0000000E+00   0.0000000E+00   0.0000000E+00   0.0000000E+00   0.0000000E+00   0.0000000E+00   0.0000000E+00   0.0000000E+00   0.0000000E+00   0.0000000E+00   0.0000000E+00   0.0000000E+00   0.0000000E+00   0.0000000E+00   0.0000000E+00   0.0000000E+00   0.0000000E+00   0.0000000E+00   0.0000000E+00   0.0000000E+00   0.0000000E+00   0.0000000E+00   0.0000000E+00   0.0000000E+00   0.0000000E+00   0.0000000E+00   0.0000000E+00   0.0000000E+00   0.0000000E+00   0.0000000E+00   0.0000000E+00   0.0000000E+00   0.0000000E+00   0.0000000E+00   0.0000000E+00   0.0000000E+00   0.0000000E+00   0.0000000E+00   0.0000000E+00   0.0000000E+00   0.0000000E+00   0.0000000E+00   0.0000000E+00   0.0000000E+00   0.0000000E+00   0.0000000E+00   0.0000000E+00   0.0000000E+00   0.0000000E+00   0.0000000E+00   0.0000000E+00   0.0000000E+00   0.0000000E+00   0.0000000E+00   0.0000000E+00   0.0000000E+00   0.0000000E+00   0.0000000E+00   0.0000000E+00   0.0000000E+00   0.0000000E+00   0.0000000E+00   0.0000000E+00   0.0000000E+00   0.0000000E+00   0.0000000E+00   0.0000000E+00   0.0000000E+00   0.0000000E+00   0.0000000E+00   0.0000000E+00   0.0000000E+00   0.0000000E+00   0.0000000E+00   0.0000000E+00   0.0000000E+00   0.0000000E+00   0.0000000E+00   0.0000000E+00   0.0000000E+00   0.0000000E+00   0.0000000E+00   0.0000000E+00   0.0000000E+00   0.0000000E+00   0.0000000E+00   0.0000000E+00   0.0000000E+00   0.0000000E+00   0.0000000E+00   0.0000000E+00   0.0000000E+00   0.0000000E+00   0.0000000E+00   0.0000000E+00   0.0000000E+00   0.0000000E+00   0.0000000E+00   0.0000000E+00   0.0000000E+00   0.0000000E+00   0.0000000E+00   0.0000000E+00   0.0000000E+00   0.0000000E+00   0.0000000E+00   0.0000000E+00   0.0000000E+00   0.0000000E+00   0.0000000E+00   0.0000000E+00   0.0000000E+00   0.0000000E+00   0.0000000E+00   0.0000000E+00   0.0000000E+00   0.0000000E+00   0.0000000E+00   0.0000000E+00   0.0000000E+00   0.0000000E+00   0.0000000E+00   0.0000000E+00   0.0000000E+00   0.0000000E+00   0.0000000E+00   0.0000000E+00   0.0000000E+00   0.0000000E+00   0.0000000E+00   0.0000000E+00   0.0000000E+00   0.0000000E+00   0.0000000E+00   0.0000000E+00   0.0000000E+00   0.0000000E+00   0.0000000E+00   0.0000000E+00   0.0000000E+00   0.0000000E+00   0.0000000E+00   0.0000000E+00   0.0000000E+00   0.0000000E+00   0.0000000E+00   0.0000000E+00   0.0000000E+00   0.0000000E+00   0.0000000E+00   0.0000000E+00   0.0000000E+00   0.0000000E+00   0.0000000E+00   0.0000000E+00   0.0000000E+00   0.0000000E+00   0.0000000E+00   0.0000000E+00   0.0000000E+00   0.0000000E+00   0.0000000E+00   0.0000000E+00   0.0000000E+00   0.0000000E+00   0.0000000E+00   0.0000000E+00   0.0000000E+00   0.0000000E+00   0.0000000E+00   0.0000000E+00   0.0000000E+00   0.0000000E+00   0.0000000E+00   0.0000000E+00   0.0000000E+00   0.0000000E+00   0.0000000E+00   0.0000000E+00   0.0000000E+00   0.0000000E+00   0.0000000E+00   0.0000000E+00   0.0000000E+00   0.0000000E+00   0.0000000E+00   0.0000000E+00   0.0000000E+00   0.0000000E+00   0.0000000E+00   0.0000000E+00   0.0000000E+00   0.0000000E+00   0.0000000E+00   0.0000000E+00   0.0000000E+00   0.0000000E+00   0.0000000E+00   0.0000000E+00   0.0000000E+00   0.0000000E+00   0.0000000E+00   0.0000000E+00   0.0000000E+00   0.0000000E+00   0.0000000E+00   0.0000000E+00   0.0000000E+00   0.0000000E+00   0.0000000E+00   0.0000000E+00   0.0000000E+00   0.0000000E+00   0.0000000E+00   0.0000000E+00   0.0000000E+00   0.0000000E+00   0.0000000E+00   0.0000000E+00   0.0000000E+00   0.0000000E+00   0.0000000E+00   0.0000000E+00   0.0000000E+00   0.0000000E+00   0.0000000E+00   0.0000000E+00   0.0000000E+00   0.0000000E+00   0.0000000E+00   0.0000000E+00   0.0000000E+00   0.0000000E+00   0.0000000E+00   0.0000000E+00   0.0000000E+00   0.0000000E+00   0.0000000E+00   0.0000000E+00   0.0000000E+00   0.0000000E+00   0.0000000E+00   0.0000000E+00   0.0000000E+00   0.0000000E+00   0.0000000E+00   0.0000000E+00   0.0000000E+00   0.0000000E+00   0.0000000E+00   0.0000000E+00   0.0000000E+00   0.0000000E+00   0.0000000E+00   0.0000000E+00   0.0000000E+00   0.0000000E+00   0.0000000E+00   0.0000000E+00   0.0000000E+00   0.0000000E+00   0.0000000E+00   0.0000000E+00   0.0000000E+00   0.0000000E+00   0.0000000E+00   0.0000000E+00   0.0000000E+00   0.0000000E+00   0.0000000E+00   0.0000000E+00   0.0000000E+00   0.0000000E+00   0.0000000E+00   0.0000000E+00   0.0000000E+00   0.0000000E+00   0.0000000E+00   0.0000000E+00   0.0000000E+00   0.0000000E+00   0.0000000E+00   0.0000000E+00   0.0000000E+00   0.0000000E+00   0.0000000E+00   0.0000000E+00   0.0000000E+00   0.0000000E+00   0.0000000E+00   0.0000000E+00   0.0000000E+00   0.0000000E+00   0.0000000E+00   0.0000000E+00   0.0000000E+00   0.0000000E+00   0.0000000E+00   0.0000000E+00   0.0000000E+00   0.0000000E+00   0.0000000E+00   0.0000000E+00   0.0000000E+00   0.0000000E+00   0.0000000E+00   0.0000000E+00   0.0000000E+00   0.0000000E+00   0.0000000E+00   0.0000000E+00   0.0000000E+00   0.0000000E+00   0.0000000E+00   0.0000000E+00   0.0000000E+00   0.0000000E+00   0.0000000E+00   0.0000000E+00   0.0000000E+00   0.0000000E+00   0.0000000E+00   0.0000000E+00   0.0000000E+00   0.0000000E+00   0.0000000E+00   0.0000000E+00   0.0000000E+00   0.0000000E+00   0.0000000E+00   0.0000000E+00   0.0000000E+00   0.0000000E+00   0.0000000E+00   0.0000000E+00   0.0000000E+00   0.0000000E+00   0.0000000E+00   0.0000000E+00   0.0000000E+00   0.0000000E+00   0.0000000E+00   0.0000000E+00   0.0000000E+00   0.0000000E+00   0.0000000E+00   0.0000000E+00   0.0000000E+00   0.0000000E+00   0.0000000E+00   0.0000000E+00   0.0000000E+00   0.0000000E+00   0.0000000E+00   0.0000000E+00   0.0000000E+00   0.0000000E+00   0.0000000E+00   0.0000000E+00   0.0000000E+00   0.0000000E+00   0.0000000E+00   0.0000000E+00   0.0000000E+00   0.0000000E+00   0.0000000E+00   0.0000000E+00   0.0000000E+00   0.0000000E+00   0.0000000E+00   0.0000000E+00   0.0000000E+00   0.0000000E+00   0.0000000E+00   0.0000000E+00   0.0000000E+00   0.0000000E+00   0.0000000E+00   0.0000000E+00   0.0000000E+00   0.0000000E+00   0.0000000E+00   0.0000000E+00   0.0000000E+00   0.0000000E+00   0.0000000E+00   0.0000000E+00   0.0000000E+00   0.0000000E+00   0.0000000E+00   0.0000000E+00   0.0000000E+00   0.0000000E+00   0.0000000E+00   0.0000000E+00   0.0000000E+00   0.0000000E+00   0.0000000E+00   0.0000000E+00   0.0000000E+00   0.0000000E+00   0.0000000E+00   0.0000000E+00   0.0000000E+00   0.0000000E+00   0.0000000E+00   0.0000000E+00   0.0000000E+00   0.0000000E+00   0.0000000E+00   0.0000000E+00   0.0000000E+00   0.0000000E+00   0.0000000E+00   0.0000000E+00   0.0000000E+00   0.0000000E+00   0.0000000E+00   0.0000000E+00   0.0000000E+00   0.0000000E+00   0.0000000E+00   0.0000000E+00   0.0000000E+00   0.0000000E+00   0.0000000E+00   0.0000000E+00   0.0000000E+00   0.0000000E+00   0.0000000E+00   0.0000000E+00   0.0000000E+00   0.0000000E+00   0.0000000E+00   0.0000000E+00   0.0000000E+00   0.0000000E+00   0.0000000E+00   0.0000000E+00   0.0000000E+00   0.0000000E+00   0.0000000E+00   0.0000000E+00   0.0000000E+00   0.0000000E+00   0.0000000E+00   0.0000000E+00   0.0000000E+00   0.0000000E+00   0.0000000E+00   0.0000000E+00   0.0000000E+00   0.0000000E+00   0.0000000E+00   0.0000000E+00   0.0000000E+00   0.0000000E+00   0.0000000E+00   0.0000000E+00   0.0000000E+00   0.0000000E+00   0.0000000E+00   0.0000000E+00   0.0000000E+00   0.0000000E+00   0.0000000E+00   0.0000000E+00   0.0000000E+00   0.0000000E+00   0.0000000E+00   0.0000000E+00   0.0000000E+00   0.0000000E+00   0.0000000E+00   0.0000000E+00   0.0000000E+00   0.0000000E+00   0.0000000E+00   0.0000000E+00   0.0000000E+00   0.0000000E+00   0.0000000E+00   0.0000000E+00   0.0000000E+00   0.0000000E+00   0.0000000E+00   0.0000000E+00   0.0000000E+00   0.0000000E+00   0.0000000E+00   0.0000000E+00   0.0000000E+00   0.0000000E+00   0.0000000E+00   0.0000000E+00   0.0000000E+00   0.0000000E+00   0.0000000E+00   0.0000000E+00   0.0000000E+00   0.0000000E+00   0.0000000E+00   0.0000000E+00   0.0000000E+00   0.0000000E+00   0.0000000E+00   0.0000000E+00   0.0000000E+00   0.0000000E+00   0.0000000E+00   0.0000000E+00   0.0000000E+00   0.0000000E+00   0.0000000E+00   0.0000000E+00   0.0000000E+00   0.0000000E+00   0.0000000E+00   0.0000000E+00   0.0000000E+00   0.0000000E+00   0.0000000E+00   0.0000000E+00   0.0000000E+00   0.0000000E+00   0.0000000E+00   0.0000000E+00   0.0000000E+00   0.0000000E+00   0.0000000E+00   0.0000000E+00   0.0000000E+00   0.0000000E+00   0.0000000E+00   0.0000000E+00   0.0000000E+00   0.0000000E+00   0.0000000E+00   0.0000000E+00   0.0000000E+00   0.0000000E+00   0.0000000E+00   0.0000000E+00   0.0000000E+00   0.0000000E+00   0.0000000E+00   0.0000000E+00   0.0000000E+00   0.0000000E+00   0.0000000E+00   0.0000000E+00   0.0000000E+00   0.0000000E+00   0.0000000E+00   0.0000000E+00   0.0000000E+00   0.0000000E+00   0.0000000E+00   0.0000000E+00   0.0000000E+00   0.0000000E+00   0.0000000E+00   0.0000000E+00   0.0000000E+00   0.0000000E+00   0.0000000E+00   0.0000000E+00   0.0000000E+00   0.0000000E+00   0.0000000E+00   0.0000000E+00   0.0000000E+00   0.0000000E+00   0.0000000E+00   0.0000000E+00   0.0000000E+00   0.0000000E+00   0.0000000E+00   0.0000000E+00   0.0000000E+00   0.0000000E+00   0.0000000E+00   0.0000000E+00   0.0000000E+00   0.0000000E+00   0.0000000E+00   0.0000000E+00   0.0000000E+00   0.0000000E+00   0.0000000E+00   0.0000000E+00   0.0000000E+00   0.0000000E+00   0.0000000E+00   0.0000000E+00   0.0000000E+00   0.0000000E+00   0.0000000E+00   0.0000000E+00   0.0000000E+00   0.0000000E+00   0.0000000E+00   0.0000000E+00   0.0000000E+00   0.0000000E+00   0.0000000E+00   0.0000000E+00   0.0000000E+00   0.0000000E+00   0.0000000E+00   0.0000000E+00   0.0000000E+00   0.0000000E+00   0.0000000E+00   0.0000000E+00   0.0000000E+00   0.0000000E+00   0.0000000E+00   0.0000000E+00   0.0000000E+00   0.0000000E+00   0.0000000E+00   0.0000000E+00   0.0000000E+00   0.0000000E+00   0.0000000E+00   0.0000000E+00   0.0000000E+00   0.0000000E+00   0.0000000E+00   0.0000000E+00   0.0000000E+00   0.0000000E+00   0.0000000E+00   0.0000000E+00   0.0000000E+00   0.0000000E+00   0.0000000E+00   0.0000000E+00   0.0000000E+00   0.0000000E+00   0.0000000E+00   0.0000000E+00   0.0000000E+00   0.0000000E+00   0.0000000E+00   0.0000000E+00   0.0000000E+00   0.0000000E+00   0.0000000E+00   0.0000000E+00   0.0000000E+00   0.0000000E+00   0.0000000E+00   0.0000000E+00   0.0000000E+00   0.0000000E+00   0.0000000E+00   0.0000000E+00   0.0000000E+00   0.0000000E+00   0.0000000E+00   0.0000000E+00   0.0000000E+00   0.0000000E+00   0.0000000E+00   0.0000000E+00   0.0000000E+00   0.0000000E+00   0.0000000E+00   0.0000000E+00   0.0000000E+00   0.0000000E+00   0.0000000E+00   0.0000000E+00   0.0000000E+00   0.0000000E+00   0.0000000E+00   0.0000000E+00   0.0000000E+00   0.0000000E+00   0.0000000E+00   0.0000000E+00   0.0000000E+00   0.0000000E+00   0.0000000E+00   0.0000000E+00   0.0000000E+00   0.0000000E+00   0.0000000E+00   0.0000000E+00   0.0000000E+00   0.0000000E+00   0.0000000E+00   0.0000000E+00   0.0000000E+00   0.0000000E+00   0.0000000E+00   0.0000000E+00   0.0000000E+00   0.0000000E+00   0.0000000E+00   0.0000000E+00   0.0000000E+00   0.0000000E+00   0.0000000E+00   0.0000000E+00   0.0000000E+00   0.0000000E+00   0.0000000E+00   0.0000000E+00   0.0000000E+00   0.0000000E+00   0.0000000E+00   0.0000000E+00   0.0000000E+00   0.0000000E+00   0.0000000E+00   0.0000000E+00   0.0000000E+00   0.0000000E+00   0.0000000E+00   0.0000000E+00   0.0000000E+00   0.0000000E+00   0.0000000E+00   0.0000000E+00   0.0000000E+00   0.0000000E+00   0.0000000E+00   0.0000000E+00   0.0000000E+00   0.0000000E+00   0.0000000E+00   0.0000000E+00   0.0000000E+00   0.0000000E+00   0.0000000E+00   0.0000000E+00   0.0000000E+00   0.0000000E+00   0.0000000E+00   0.0000000E+00   0.0000000E+00   0.0000000E+00   0.0000000E+00   0.0000000E+00   0.0000000E+00   0.0000000E+00   0.0000000E+00   0.0000000E+00   0.0000000E+00   0.0000000E+00   0.0000000E+00   0.0000000E+00   0.0000000E+00   0.0000000E+00   0.0000000E+00   0.0000000E+00   0.0000000E+00   0.0000000E+00   0.0000000E+00   0.0000000E+00   0.0000000E+00   0.0000000E+00   0.0000000E+00   0.0000000E+00   0.0000000E+00   0.0000000E+00   0.0000000E+00   0.0000000E+00   0.0000000E+00   0.0000000E+00   0.0000000E+00   0.0000000E+00   0.0000000E+00   0.0000000E+00   0.0000000E+00   0.0000000E+00   0.0000000E+00   0.0000000E+00   0.0000000E+00   0.0000000E+00   0.0000000E+00   0.0000000E+00   0.0000000E+00   0.0000000E+00   0.0000000E+00   0.0000000E+00   0.0000000E+00   0.0000000E+00   0.0000000E+00   0.0000000E+00   0.0000000E+00   0.0000000E+00   0.0000000E+00   0.0000000E+00   0.0000000E+00   0.0000000E+00   0.0000000E+00   0.0000000E+00   0.0000000E+00   0.0000000E+00   0.0000000E+00   0.0000000E+00   0.0000000E+00   0.0000000E+00   0.0000000E+00   0.0000000E+00   0.0000000E+00   0.0000000E+00   0.0000000E+00   0.0000000E+00   0.0000000E+00   0.0000000E+00   0.0000000E+00   0.0000000E+00   0.0000000E+00   0.0000000E+00   0.0000000E+00   0.0000000E+00   0.0000000E+00   0.0000000E+00   0.0000000E+00   0.0000000E+00   0.0000000E+00   0.0000000E+00   0.0000000E+00   0.0000000E+00   0.0000000E+00   0.0000000E+00   0.0000000E+00   0.0000000E+00   0.0000000E+00   0.0000000E+00   0.0000000E+00   0.0000000E+00   0.0000000E+00   0.0000000E+00   0.0000000E+00   0.0000000E+00   0.0000000E+00   0.0000000E+00   0.0000000E+00   0.0000000E+00   0.0000000E+00   0.0000000E+00   0.0000000E+00   0.0000000E+00   0.0000000E+00   0.0000000E+00   0.0000000E+00   0.0000000E+00   0.0000000E+00   0.0000000E+00   0.0000000E+00   0.0000000E+00   0.0000000E+00   0.0000000E+00   0.0000000E+00   0.0000000E+00   0.0000000E+00   0.0000000E+00   0.0000000E+00   0.0000000E+00   0.0000000E+00   0.0000000E+00   0.0000000E+00   0.0000000E+00   0.0000000E+00   0.0000000E+00   0.0000000E+00   0.0000000E+00   0.0000000E+00   0.0000000E+00   0.0000000E+00   0.0000000E+00   0.0000000E+00   0.0000000E+00   0.0000000E+00   0.0000000E+00   0.0000000E+00   0.0000000E+00   0.0000000E+00   0.0000000E+00   0.0000000E+00   0.0000000E+00   0.0000000E+00   0.0000000E+00   0.0000000E+00   0.0000000E+00   0.0000000E+00   0.0000000E+00   0.0000000E+00   0.0000000E+00   0.0000000E+00   0.0000000E+00   0.0000000E+00   0.0000000E+00   0.0000000E+00   0.0000000E+00   0.0000000E+00   0.0000000E+00   0.0000000E+00   0.0000000E+00   0.0000000E+00   0.0000000E+00   0.0000000E+00   0.0000000E+00   0.0000000E+00   0.0000000E+00   0.0000000E+00   0.0000000E+00   0.0000000E+00   0.0000000E+00   0.0000000E+00   0.0000000E+00   0.0000000E+00   0.0000000E+00   0.0000000E+00   0.0000000E+00   0.0000000E+00   0.0000000E+00   0.0000000E+00   0.0000000E+00   0.0000000E+00   0.0000000E+00   0.0000000E+00   0.0000000E+00   0.0000000E+00   0.0000000E+00   0.0000000E+00   0.0000000E+00   0.0000000E+00   0.0000000E+00   0.0000000E+00   0.0000000E+00   0.0000000E+00   0.0000000E+00   0.0000000E+00   0.0000000E+00   0.0000000E+00   0.0000000E+00   0.0000000E+00   0.0000000E+00   0.0000000E+00   0.0000000E+00   0.0000000E+00   0.0000000E+00   0.0000000E+00   0.0000000E+00   0.0000000E+00   0.0000000E+00   0.0000000E+00   0.0000000E+00   0.0000000E+00   0.0000000E+00   0.0000000E+00   0.0000000E+00   0.0000000E+00   0.0000000E+00   0.0000000E+00   0.0000000E+00   0.0000000E+00   0.0000000E+00   0.0000000E+00   0.0000000E+00   0.0000000E+00   0.0000000E+00   0.0000000E+00   0.0000000E+00   0.0000000E+00   0.0000000E+00   0.0000000E+00   0.0000000E+00   0.0000000E+00   0.0000000E+00   0.0000000E+00   0.0000000E+00   0.0000000E+00   0.0000000E+00   0.0000000E+00   0.0000000E+00   0.0000000E+00   0.0000000E+00   0.0000000E+00   0.0000000E+00   0.0000000E+00   0.0000000E+00   0.0000000E+00   0.0000000E+00   0.0000000E+00   0.0000000E+00   0.0000000E+00   0.0000000E+00   0.0000000E+00   0.0000000E+00   0.0000000E+00   0.0000000E+00   0.0000000E+00   0.0000000E+00   0.0000000E+00   0.0000000E+00   0.0000000E+00   0.0000000E+00   0.0000000E+00   0.0000000E+00   0.0000000E+00   0.0000000E+00   0.0000000E+00   0.0000000E+00   0.0000000E+00   0.0000000E+00   0.0000000E+00   0.0000000E+00   0.0000000E+00   0.0000000E+00   0.0000000E+00   0.0000000E+00   0.0000000E+00   0.0000000E+00   0.0000000E+00   0.0000000E+00   0.0000000E+00   0.0000000E+00   0.0000000E+00   0.0000000E+00   0.0000000E+00   0.0000000E+00   0.0000000E+00   0.0000000E+00   0.0000000E+00   0.0000000E+00   0.0000000E+00   0.0000000E+00   0.0000000E+00   0.0000000E+00   0.0000000E+00   0.0000000E+00   0.0000000E+00   0.0000000E+00   0.0000000E+00   0.0000000E+00   0.0000000E+00   0.0000000E+00   0.0000000E+00   0.0000000E+00   0.0000000E+00   0.0000000E+00   0.0000000E+00   0.0000000E+00   0.0000000E+00   0.0000000E+00   0.0000000E+00   0.0000000E+00   0.0000000E+00   0.0000000E+00   0.0000000E+00   0.0000000E+00   0.0000000E+00   0.0000000E+00   0.0000000E+00   0.0000000E+00   0.0000000E+00   0.0000000E+00   0.0000000E+00   0.0000000E+00   0.0000000E+00   0.0000000E+00   0.0000000E+00   0.0000000E+00   0.0000000E+00   0.0000000E+00   0.0000000E+00   0.0000000E+00   0.0000000E+00   0.0000000E+00   0.0000000E+00   0.0000000E+00   0.0000000E+00   0.0000000E+00   0.0000000E+00   0.0000000E+00   0.0000000E+00   0.0000000E+00   0.0000000E+00   0.0000000E+00   0.0000000E+00   0.0000000E+00   0.0000000E+00   0.0000000E+00   0.0000000E+00   0.0000000E+00   0.0000000E+00   0.0000000E+00   0.0000000E+00   0.0000000E+00   0.0000000E+00   0.0000000E+00   0.0000000E+00   0.0000000E+00   0.0000000E+00   0.0000000E+00   0.0000000E+00   0.0000000E+00   0.0000000E+00   0.0000000E+00   0.0000000E+00   0.0000000E+00   0.0000000E+00   0.0000000E+00   0.0000000E+00   0.0000000E+00   0.0000000E+00   0.0000000E+00   0.0000000E+00   0.0000000E+00   0.0000000E+00   0.0000000E+00   0.0000000E+00   0.0000000E+00   0.0000000E+00   0.0000000E+00   0.0000000E+00   0.0000000E+00   0.0000000E+00   0.0000000E+00   0.0000000E+00   0.0000000E+00   0.0000000E+00   0.0000000E+00   0.0000000E+00   0.0000000E+00   0.0000000E+00   0.0000000E+00   0.0000000E+00   0.0000000E+00   0.0000000E+00   0.0000000E+00   0.0000000E+00   0.0000000E+00   0.0000000E+00   0.0000000E+00   0.0000000E+00   0.0000000E+00   0.0000000E+00   0.0000000E+00   0.0000000E+00   0.0000000E+00   0.0000000E+00   0.0000000E+00  -1.7562510E-08   0.0000000E+00  -5.4960720E-09  -2.1722222E-08   0.0000000E+00  -5.1256452E-09  -2.5294437E-08   0.0000000E+00  -4.6044835E-09  -2.8317881E-08   0.0000000E+00  -4.0000265E-09  -3.0828588E-08   0.0000000E+00  -3.3923901E-09  -2.4238052E-08   0.0000000E+00  -1.0449721E-08  -3.3058416E-08   0.0000000E+00  -1.0286153E-08  -4.0879481E-08   0.0000000E+00  -9.5896109E-09  -4.7510472E-08   0.0000000E+00  -8.6181302E-09  -5.3075549E-08   0.0000000E+00  -7.4930826E-09  -5.7668835E-08   0.0000000E+00  -6.3634138E-09  -4.4894112E-08   0.0000000E+00  -1.9037579E-08  -6.0934731E-08   0.0000000E+00  -1.8809731E-08  -7.5045783E-08   0.0000000E+00  -1.7469263E-08  -8.6959936E-08   0.0000000E+00  -1.5665231E-08  -9.6899342E-08   0.0000000E+00  -1.3608912E-08  -1.0505852E-07   0.0000000E+00  -1.1554073E-08  -8.1171542E-08   0.0000000E+00  -3.4034439E-08  -1.0976901E-07   0.0000000E+00  -3.3567080E-08  -1.3467486E-07   0.0000000E+00  -3.1104772E-08  -1.5554403E-07   0.0000000E+00  -2.7831920E-08  -1.7282936E-07   0.0000000E+00  -2.4154314E-08  -1.8693977E-07   0.0000000E+00  -2.0488223E-08  -1.4401918E-07   0.0000000E+00  -5.9798154E-08  -1.9405255E-07   0.0000000E+00  -5.8737260E-08  -2.3720676E-07   0.0000000E+00  -5.4258340E-08  -2.7304901E-07   0.0000000E+00  -4.8427268E-08  -3.0247620E-07   0.0000000E+00  -4.1980691E-08  -3.2634597E-07   0.0000000E+00  -3.5569567E-08  -2.5176493E-07   0.0000000E+00  -1.0351064E-07  -3.3781575E-07   0.0000000E+00  -1.0110247E-07  -4.1128095E-07   0.0000000E+00  -9.2988735E-08  -4.7172551E-07   0.0000000E+00  -8.2733209E-08  -5.2090348E-07   0.0000000E+00  -7.1592574E-08  -5.6050953E-07   0.0000000E+00  -6.0573136E-08  -4.3471888E-07   0.0000000E+00  -1.7702749E-07  -5.8047192E-07   0.0000000E+00  -1.7171723E-07  -7.0355765E-07   0.0000000E+00  -1.5707992E-07  -8.0380249E-07   0.0000000E+00  -1.3920260E-07  -8.8459376E-07   0.0000000E+00  -1.2007631E-07  -9.4907682E-07   0.0000000E+00  -1.0133422E-07  -7.4306996E-07   0.0000000E+00  -2.9952054E-07  -9.8576095E-07   0.0000000E+00  -2.8817479E-07  -1.1880943E-06   0.0000000E+00  -2.6196119E-07  -1.3511939E-06   0.0000000E+00  -2.3113478E-07  -1.4816175E-06   0.0000000E+00  -1.9854477E-07  -1.5848756E-06   0.0000000E+00  -1.6690929E-07  -1.2575091E-06   0.0000000E+00  -5.0013966E-07  -1.6531618E-06   0.0000000E+00  -4.7687047E-07  -1.9784065E-06   0.0000000E+00  -4.3085257E-07  -2.2381851E-06   0.0000000E+00  -3.7870899E-07  -2.4447668E-06   0.0000000E+00  -3.2400948E-07  -2.6073731E-06   0.0000000E+00  -2.7119199E-07  -2.1055869E-06   0.0000000E+00  -8.2169385E-07  -2.7365857E-06   0.0000000E+00  -7.7603687E-07  -3.2475243E-06   0.0000000E+00  -6.9768510E-07  -3.6529248E-06   0.0000000E+00  -6.1089344E-07  -3.9731999E-06   0.0000000E+00  -5.2139433E-07  -4.2245902E-06   0.0000000E+00  -4.3457311E-07  -3.4837462E-06   0.0000000E+00  -1.3331429E-06  -4.4705334E-06   0.0000000E+00  -1.2435352E-06  -5.2573168E-06   0.0000000E+00  -1.1104333E-06  -5.8773458E-06   0.0000000E+00  -9.6836516E-07  -6.3630300E-06   0.0000000E+00  -8.2591532E-07  -6.7439078E-06   0.0000000E+00  -6.8543687E-07  -5.6694885E-06   0.0000000E+00  -2.3055441E-06  -7.1977893E-06   0.0000000E+00  -2.0574994E-06  -8.3918476E-06   0.0000000E+00  -1.7826090E-06  -9.3228837E-06   0.0000000E+00  -1.5272553E-06  -1.0044509E-05   0.0000000E+00  -1.2923433E-06  -1.0609624E-05   0.0000000E+00  -1.0640912E-06  -9.3208118E-06   0.0000000E+00  -4.1594094E-06  -1.1516599E-05   0.0000000E+00  -3.5279124E-06  -1.3249132E-05   0.0000000E+00  -2.9081866E-06  -1.4605024E-05   0.0000000E+00  -2.4074891E-06  -1.5648262E-05   0.0000000E+00  -2.0012369E-06  -1.6466813E-05   0.0000000E+00  -1.6270038E-06  -1.5241756E-05   0.0000000E+00  -7.1554919E-06  -1.8317005E-05   0.0000000E+00  -5.9335084E-06  -2.0737501E-05   0.0000000E+00  -4.7006292E-06  -2.2631117E-05   0.0000000E+00  -3.8437443E-06  -2.4104740E-05   0.0000000E+00  -3.0895183E-06  -2.5263282E-05   0.0000000E+00  -2.4577284E-06  -2.4444631E-05   0.0000000E+00  -1.2014943E-05  -2.8793203E-05   0.0000000E+00  -9.7950006E-06  -3.2140812E-05   0.0000000E+00  -7.5214407E-06  -3.4764471E-05   0.0000000E+00  -5.8282753E-06  -3.6795438E-05   0.0000000E+00  -4.6207010E-06  -3.8398794E-05   0.0000000E+00  -3.6495096E-06  -3.8531634E-05   0.0000000E+00  -1.8727149E-05  -4.4675828E-05   0.0000000E+00  -1.5140544E-05  -4.9310918E-05   0.0000000E+00  -1.1467194E-05  -5.2918193E-05   0.0000000E+00  -8.7551616E-06  -5.5702229E-05   0.0000000E+00  -6.8515083E-06  -5.7891251E-05   0.0000000E+00  -5.3644421E-06  -5.9579517E-05   0.0000000E+00  -2.9207353E-05  -6.8320012E-05   0.0000000E+00  -2.3352059E-05  -7.4796619E-05   0.0000000E+00  -1.7399982E-05  -7.9777332E-05   0.0000000E+00  -1.3059556E-05  -8.3576939E-05   0.0000000E+00  -1.0080756E-05  -8.6543558E-05   0.0000000E+00  -7.8151497E-06  -9.0704612E-05   0.0000000E+00  -4.4152977E-05  -1.0314699E-04   0.0000000E+00  -3.4888471E-05  -1.1220127E-04   0.0000000E+00  -2.5659721E-05  -1.1903061E-04   0.0000000E+00  -1.9066270E-05  -1.2416470E-04   0.0000000E+00  -1.4601373E-05  -1.2811020E-04   0.0000000E+00  -1.1274678E-05  -1.3643815E-04   0.0000000E+00  -6.5052693E-05  -1.5399620E-04   0.0000000E+00  -5.0760609E-05  -1.6645598E-04   0.0000000E+00  -3.6950209E-05  -1.7559099E-04   0.0000000E+00  -2.7319855E-05  -1.8230919E-04   0.0000000E+00  -2.0884223E-05  -1.8737275E-04   0.0000000E+00  -1.6171829E-05  -2.0329653E-04   0.0000000E+00  -9.5938674E-05  -2.2753004E-04   0.0000000E+00  -7.3673385E-05  -2.4408549E-04   0.0000000E+00  -5.2863848E-05  -2.5574572E-04   0.0000000E+00  -3.8811559E-05  -2.6408129E-04   0.0000000E+00  -2.9637213E-05  -2.7025305E-04   0.0000000E+00  -2.3105917E-05  -3.0053683E-04   0.0000000E+00  -1.3939921E-04  -3.3296860E-04   0.0000000E+00  -1.0480882E-04  -3.5391597E-04   0.0000000E+00  -7.4140313E-05  -3.6782798E-04   0.0000000E+00  -5.4271102E-05  -3.7740869E-04   0.0000000E+00  -4.1674841E-05  -3.8442318E-04   0.0000000E+00  -3.2919994E-05  -4.4141107E-04   0.0000000E+00  -2.0091640E-04  -4.8330548E-04   0.0000000E+00  -1.4788227E-04  -5.0823623E-04   0.0000000E+00  -1.0288339E-04  -5.2341231E-04   0.0000000E+00  -7.5294149E-05  -5.3335715E-04   0.0000000E+00  -5.8259553E-05  -5.4061052E-04   0.0000000E+00  -4.6975980E-05  -6.4537709E-04   0.0000000E+00  -2.8650233E-04  -6.9705828E-04   0.0000000E+00  -2.0563114E-04  -7.2438404E-04   0.0000000E+00  -1.4122015E-04  -7.3886837E-04   0.0000000E+00  -1.0421993E-04  -7.4783259E-04   0.0000000E+00  -8.1993108E-05  -7.5457018E-04   0.0000000E+00  -6.7483466E-05  -9.4042765E-04   0.0000000E+00  -4.0722627E-04  -9.9979003E-04   0.0000000E+00  -2.8446622E-04  -1.0256188E-03   0.0000000E+00  -1.9405391E-04  -1.0362328E-03   0.0000000E+00  -1.4597125E-04  -1.0427189E-03   0.0000000E+00  -1.1735418E-04  -1.0484986E-03   0.0000000E+00  -9.8249031E-05  -1.3665650E-03   0.0000000E+00  -5.7863735E-04  -1.4248028E-03   0.0000000E+00  -3.9464107E-04  -1.4405739E-03   0.0000000E+00  -2.7017423E-04  -1.4421715E-03   0.0000000E+00  -2.0931878E-04  -1.4451166E-03   0.0000000E+00  -1.7256242E-04  -1.4506161E-03   0.0000000E+00  -1.4557513E-04  -1.9783992E-03   0.0000000E+00  -8.2515058E-04  -2.0115902E-03   0.0000000E+00  -5.5435958E-04  -1.9993612E-03   0.0000000E+00  -3.8669689E-04  -1.9838214E-03   0.0000000E+00  -3.1000123E-04  -1.9829888E-03   0.0000000E+00  -2.6119011E-04  -1.9913679E-03   0.0000000E+00  -2.1764009E-04  -2.8437967E-03   0.0000000E+00  -1.1975103E-03  -2.7994448E-03   0.0000000E+00  -8.0272765E-04  -2.7253532E-03   0.0000000E+00  -5.7737052E-04  -2.6813934E-03   0.0000000E+00  -4.7420859E-04  -2.6788348E-03   0.0000000E+00  -3.9899049E-04  -2.6962692E-03   0.0000000E+00  -3.2257775E-04  -4.0290416E-03   0.0000000E+00  -1.7751042E-03  -3.8122968E-03   0.0000000E+00  -1.2155616E-03  -3.6222381E-03   0.0000000E+00  -9.0216851E-04  -3.5500827E-03   0.0000000E+00  -7.2135282E-04  -3.5550292E-03   0.0000000E+00  -5.8147672E-04  -3.5798158E-03   0.0000000E+00  -4.6279925E-04  -5.5662831E-03   0.0000000E+00  -2.7191250E-03  -5.0353650E-03   0.0000000E+00  -1.9192818E-03  -4.7075436E-03   0.0000000E+00  -1.4027157E-03  -4.6097762E-03   0.0000000E+00  -1.0494650E-03  -4.6104095E-03   0.0000000E+00  -8.1017253E-04  -4.6313568E-03   0.0000000E+00  -6.3345645E-04  -7.3943501E-03   0.0000000E+00  -4.2878217E-03  -6.4391545E-03   0.0000000E+00  -3.1326371E-03  -5.9856535E-03   0.0000000E+00  -2.1426626E-03  -5.8485158E-03   0.0000000E+00  -1.4813353E-03  -5.8086496E-03   0.0000000E+00  -1.0843511E-03  -5.8028884E-03   0.0000000E+00  -8.2412176E-04  -9.2955083E-03   0.0000000E+00  -6.9729993E-03  -8.0544073E-03   0.0000000E+00  -5.1628500E-03  -7.4789925E-03   0.0000000E+00  -3.3217787E-03  -7.1898182E-03   0.0000000E+00  -2.1044698E-03  -7.0730913E-03   0.0000000E+00  -1.4197357E-03  -7.0184558E-03   0.0000000E+00  -1.0279664E-03  -1.0956842E-02   0.0000000E+00  -1.1443197E-02  -9.5106456E-03   0.0000000E+00  -8.7421080E-03  -8.8783288E-03   0.0000000E+00  -5.5517699E-03  -8.5786441E-03   0.0000000E+00  -3.1787015E-03  -8.3504329E-03   0.0000000E+00  -1.8963033E-03  -8.2002059E-03   0.0000000E+00  -1.2536942E-03  -1.1997947E-02   0.0000000E+00  -1.8348908E-02  -1.0500485E-02   0.0000000E+00  -1.4561594E-02  -1.0005552E-02   0.0000000E+00  -9.3489280E-03  -9.7906068E-03   0.0000000E+00  -5.1625087E-03  -9.5467260E-03   0.0000000E+00  -2.7483660E-03  -9.3090655E-03   0.0000000E+00  -1.5978462E-03  -1.2158190E-02   0.0000000E+00  -2.6696756E-02  -1.0917337E-02   0.0000000E+00  -2.1836130E-02  -1.0610522E-02   0.0000000E+00  -1.4213845E-02  -1.0528293E-02   0.0000000E+00  -7.7529862E-03  -1.0317477E-02   0.0000000E+00  -3.9593712E-03  -1.0062413E-02   0.0000000E+00  -2.1253268E-03  -1.1153543E-02   0.0000000E+00  -3.3970445E-02  -1.0357630E-02   0.0000000E+00  -2.8219018E-02  -1.0243398E-02   0.0000000E+00  -1.8532803E-02  -1.0310949E-02   0.0000000E+00  -1.0138593E-02  -1.0199248E-02   0.0000000E+00  -5.0880499E-03  -9.9853296E-03   0.0000000E+00  -2.5980957E-03  -8.8719977E-03   0.0000000E+00  -3.8752984E-02  -8.6736875E-03   0.0000000E+00  -3.2427885E-02  -8.6804936E-03   0.0000000E+00  -2.1441581E-02  -8.7228641E-03   0.0000000E+00  -1.1772937E-02  -8.6583346E-03   0.0000000E+00  -5.9086308E-03  -8.5321087E-03   0.0000000E+00  -2.9843657E-03  -6.1957040E-03   0.0000000E+00  -4.1551095E-02  -6.2333257E-03   0.0000000E+00  -3.4805555E-02  -6.2449933E-03   0.0000000E+00  -2.3059029E-02  -6.2187519E-03   0.0000000E+00  -1.2691217E-02  -6.1397497E-03   0.0000000E+00  -6.3983463E-03  -6.0369107E-03   0.0000000E+00  -3.2532995E-03  -3.7921064E-03   0.0000000E+00  -4.3105010E-02  -3.8354190E-03   0.0000000E+00  -3.6074888E-02  -3.8474344E-03   0.0000000E+00  -2.3906445E-02  -3.8208489E-03   0.0000000E+00  -1.3183627E-02  -3.7628238E-03   0.0000000E+00  -6.6777072E-03  -3.6891494E-03   0.0000000E+00  -3.4234042E-03  -1.9221046E-03   0.0000000E+00  -4.3904841E-02  -1.9521344E-03   0.0000000E+00  -3.6710426E-02  -1.9614592E-03   0.0000000E+00  -2.4323385E-02  -1.9465836E-03   0.0000000E+00  -1.3431175E-02  -1.9124129E-03   0.0000000E+00  -6.8270178E-03  -1.8688650E-03   0.0000000E+00  -3.5231824E-03  -5.5137154E-04   0.0000000E+00  -4.4241261E-02  -5.6749710E-04   0.0000000E+00  -3.6964044E-02  -5.7384989E-04   0.0000000E+00  -2.4483150E-02  -5.6984264E-04   0.0000000E+00  -1.3527229E-02  -5.5770739E-04   0.0000000E+00  -6.8897526E-03  -5.4133980E-04   0.0000000E+00  -3.5704528E-03   5.1458372E-04   0.0000000E+00  -4.4247098E-02   5.1100925E-04   0.0000000E+00  -3.6950503E-02   5.0701300E-04   0.0000000E+00  -2.4464630E-02   5.0148153E-04   0.0000000E+00  -1.3516737E-02   4.9483741E-04   0.0000000E+00  -6.8886867E-03   4.8822456E-04   0.0000000E+00  -3.5760882E-03   1.4839502E-03   0.0000000E+00  -4.4030331E-02   1.4908337E-03   0.0000000E+00  -3.6764450E-02   1.4880609E-03   0.0000000E+00  -2.4331599E-02   1.4741183E-03   0.0000000E+00  -1.3434244E-02   1.4516978E-03   0.0000000E+00  -6.8403510E-03   1.4256445E-03   0.0000000E+00  -3.5473970E-03   2.4703927E-03   0.0000000E+00  -4.3234881E-02   2.4858762E-03   0.0000000E+00  -3.6094118E-02   2.4832203E-03   0.0000000E+00  -2.3879420E-02   2.4614618E-03   0.0000000E+00  -1.3177604E-02   2.4251700E-03   0.0000000E+00  -6.7050979E-03   2.3819085E-03   0.0000000E+00  -3.4742411E-03   3.4731014E-03   0.0000000E+00  -4.1859828E-02   3.4956126E-03   0.0000000E+00  -3.4937132E-02   3.4925365E-03   0.0000000E+00  -2.3105588E-02   3.4634490E-03   0.0000000E+00  -1.2746131E-02   3.4145056E-03   0.0000000E+00  -6.4827600E-03   3.3555112E-03   0.0000000E+00  -3.3576260E-03   4.4256272E-03   0.0000000E+00  -3.9949220E-02   4.4537419E-03   0.0000000E+00  -3.3328958E-02   4.4500045E-03   0.0000000E+00  -2.2032181E-02   4.4141212E-03   0.0000000E+00  -1.2150633E-02   4.3535829E-03   0.0000000E+00  -6.1788387E-03   4.2802086E-03   0.0000000E+00  -3.2003357E-03   5.2468744E-03   0.0000000E+00  -3.7579563E-02   5.2787769E-03   0.0000000E+00  -3.1333014E-02   5.2746665E-03   0.0000000E+00  -2.0700490E-02   5.2326098E-03   0.0000000E+00  -1.1412471E-02   5.1617133E-03   0.0000000E+00  -5.8034980E-03   5.0756177E-03   0.0000000E+00  -3.0074783E-03   5.8728317E-03   0.0000000E+00  -3.4857024E-02   5.8929618E-03   0.0000000E+00  -2.9035527E-02   5.9024403E-03   0.0000000E+00  -1.9168979E-02   5.8549861E-03   0.0000000E+00  -1.0563688E-02   5.7722828E-03   0.0000000E+00  -5.3721024E-03   5.6622881E-03   0.0000000E+00  -2.7876238E-03   6.2722103E-03   0.0000000E+00  -3.1901490E-02   6.2839696E-03   0.0000000E+00  -2.6541110E-02   6.2990692E-03   0.0000000E+00  -1.7504076E-02   6.2433095E-03   0.0000000E+00  -9.6397074E-03   6.1150356E-03   0.0000000E+00  -4.9039158E-03   5.9371260E-03   0.0000000E+00  -2.5576658E-03   6.5041338E-03   0.0000000E+00  -2.8835708E-02   6.5114186E-03   0.0000000E+00  -2.3966527E-02   6.4845295E-03   0.0000000E+00  -1.5781745E-02   6.3785543E-03   0.0000000E+00  -8.6822063E-03   6.1819614E-03   0.0000000E+00  -4.4202381E-03   5.9459265E-03   0.0000000E+00  -2.3256328E-03   6.7024636E-03   0.0000000E+00  -2.5777334E-02   6.6403933E-03   0.0000000E+00  -2.1408722E-02   6.5377620E-03   0.0000000E+00  -1.4088615E-02   6.3599944E-03   0.0000000E+00  -7.7449833E-03   6.0866526E-03   0.0000000E+00  -3.9474536E-03   5.8077727E-03   0.0000000E+00  -2.1001322E-03   7.0364764E-03   0.0000000E+00  -2.2829263E-02   6.8035200E-03   0.0000000E+00  -1.8967928E-02   6.5609594E-03   0.0000000E+00  -1.2510944E-02   6.2882057E-03   0.0000000E+00  -6.8898308E-03   5.9170160E-03   0.0000000E+00  -3.5193253E-03   5.5907168E-03   0.0000000E+00  -1.8901639E-03   7.5811874E-03   0.0000000E+00  -2.0051034E-02   7.1077105E-03   0.0000000E+00  -1.6730992E-02   6.6391611E-03   0.0000000E+00  -1.1131914E-02   6.2101125E-03   0.0000000E+00  -6.1810706E-03   5.7114358E-03   0.0000000E+00  -3.1778810E-03   5.3354166E-03   0.0000000E+00  -1.7276392E-03   8.3932951E-03   0.0000000E+00  -1.7501447E-02   7.5905947E-03   0.0000000E+00  -1.4758673E-02   6.8133222E-03   0.0000000E+00  -1.0017564E-02   6.1462624E-03   0.0000000E+00  -5.6713154E-03   5.5055479E-03   0.0000000E+00  -2.9634333E-03   5.0709331E-03   0.0000000E+00  -1.6183965E-03   9.4120568E-03   0.0000000E+00  -1.5213046E-02   8.2122181E-03   0.0000000E+00  -1.3088046E-02   7.0831752E-03   0.0000000E+00  -9.2049204E-03   6.1160829E-03   0.0000000E+00  -5.3958562E-03   5.3260042E-03   0.0000000E+00  -2.8887982E-03   4.8149698E-03   0.0000000E+00  -1.5761685E-03   1.0347026E-02   0.0000000E+00  -1.3194122E-02   8.8084918E-03   0.0000000E+00  -1.1715924E-02   7.3803086E-03   0.0000000E+00  -8.6772637E-03   6.1388817E-03   0.0000000E+00  -5.3539579E-03   5.1926337E-03   0.0000000E+00  -2.9661704E-03   4.5873630E-03   0.0000000E+00  -1.6120669E-03   9.1238609E-03   0.0000000E+00  -1.0570316E-02   7.6035121E-03   0.0000000E+00  -8.3361138E-03   6.2144664E-03   0.0000000E+00  -5.5047651E-03   5.1258691E-03   0.0000000E+00  -3.1895612E-03   4.4152676E-03   0.0000000E+00  -1.7473649E-03   9.1673192E-03   0.0000000E+00  -9.5242439E-03   7.7321609E-03   0.0000000E+00  -8.0393832E-03   6.3396934E-03   0.0000000E+00  -5.7564531E-03   5.1541119E-03   0.0000000E+00  -3.5470538E-03   4.3220338E-03   0.0000000E+00  -1.9904335E-03   7.7800215E-03   0.0000000E+00  -7.6938001E-03   6.5189945E-03   0.0000000E+00  -5.9892614E-03   5.3160139E-03   0.0000000E+00  -4.0045381E-03   4.3563503E-03   0.0000000E+00  -2.3681025E-03   7.8259325E-03   0.0000000E+00  -7.2532371E-03   6.7555560E-03   0.0000000E+00  -6.0959840E-03   5.6302552E-03   0.0000000E+00  -4.4695190E-03   4.5899902E-03   0.0000000E+00  -2.8678975E-03   6.9782636E-03   0.0000000E+00  -6.0633901E-03   6.0428535E-03   0.0000000E+00  -4.8357164E-03   5.0543225E-03   0.0000000E+00  -3.3967202E-03   6.4312923E-03   0.0000000E+00  -5.0400314E-03   5.6840959E-03   0.0000000E+00  -3.8314885E-03   6.7155822E-03   0.0000000E+00  -5.0984379E-03   6.2109358E-03   0.0000000E+00  -4.1302936E-03  -3.2883303E-08   0.0000000E+00  -2.8067244E-09  -3.4534953E-08   0.0000000E+00  -2.2646571E-09  -3.5836536E-08   0.0000000E+00  -1.7901636E-09  -3.6845577E-08   0.0000000E+00  -1.3796759E-09  -3.7611123E-08   0.0000000E+00  -1.0371782E-09  -3.8177710E-08   0.0000000E+00  -7.5333628E-10  -3.8581156E-08   0.0000000E+00  -5.1975496E-10  -3.8849461E-08   0.0000000E+00  -3.2471409E-10  -3.9002572E-08   0.0000000E+00  -1.5575778E-10  -6.1411647E-08   0.0000000E+00  -5.2749130E-09  -6.4410997E-08   0.0000000E+00  -4.2659676E-09  -6.6770269E-08   0.0000000E+00  -3.3825998E-09  -6.8598595E-08   0.0000000E+00  -2.6153451E-09  -6.9986051E-08   0.0000000E+00  -1.9745143E-09  -7.1014483E-08   0.0000000E+00  -1.4401070E-09  -7.1748268E-08   0.0000000E+00  -9.9800002E-10  -7.2237505E-08   0.0000000E+00  -6.2576155E-10  -7.2517203E-08   0.0000000E+00  -3.0094352E-10  -1.1167802E-07   0.0000000E+00  -9.5820063E-09  -1.1696494E-07   0.0000000E+00  -7.7569844E-09  -1.2111525E-07   0.0000000E+00  -6.1593592E-09  -1.2432625E-07   0.0000000E+00  -4.7759747E-09  -1.2676226E-07   0.0000000E+00  -3.6165499E-09  -1.2856837E-07   0.0000000E+00  -2.6466864E-09  -1.2985807E-07   0.0000000E+00  -1.8407580E-09  -1.3071923E-07   0.0000000E+00  -1.1575783E-09  -1.3121205E-07   0.0000000E+00  -5.5793153E-10  -1.9833625E-07   0.0000000E+00  -1.6978777E-08  -2.0739969E-07   0.0000000E+00  -1.3756177E-08  -2.1449939E-07   0.0000000E+00  -1.0928085E-08  -2.1997911E-07   0.0000000E+00  -8.4892422E-09  -2.2413212E-07   0.0000000E+00  -6.4381731E-09  -2.2720808E-07   0.0000000E+00  -4.7228079E-09  -2.2940424E-07   0.0000000E+00  -3.2926968E-09  -2.3087073E-07   0.0000000E+00  -2.0747231E-09  -2.3171052E-07   0.0000000E+00  -1.0015252E-09  -3.4552582E-07   0.0000000E+00  -2.9444003E-08  -3.6070728E-07   0.0000000E+00  -2.3862944E-08  -3.7256848E-07   0.0000000E+00  -1.8951880E-08  -3.8169597E-07   0.0000000E+00  -1.4735244E-08  -3.8860114E-07   0.0000000E+00  -1.1179575E-08  -3.9370542E-07   0.0000000E+00  -8.2106615E-09  -3.9734533E-07   0.0000000E+00  -5.7303371E-09  -3.9977380E-07   0.0000000E+00  -3.6150292E-09  -4.0116285E-07   0.0000000E+00  -1.7466661E-09  -5.9215154E-07   0.0000000E+00  -5.0077016E-08  -6.1707397E-07   0.0000000E+00  -4.0576762E-08  -6.3649117E-07   0.0000000E+00  -3.2199189E-08  -6.5138306E-07   0.0000000E+00  -2.5037044E-08  -6.6262510E-07   0.0000000E+00  -1.8986144E-08  -6.7091503E-07   0.0000000E+00  -1.3946817E-08  -6.7681515E-07   0.0000000E+00  -9.7330428E-09  -6.8074354E-07   0.0000000E+00  -6.1424417E-09  -6.8298880E-07   0.0000000E+00  -2.9686882E-09  -1.0001795E-06   0.0000000E+00  -8.3617337E-08  -1.0401978E-06   0.0000000E+00  -6.7721501E-08  -1.0713371E-06   0.0000000E+00  -5.3689625E-08  -1.0951860E-06   0.0000000E+00  -4.1734229E-08  -1.1131619E-06   0.0000000E+00  -3.1615581E-08  -1.1263866E-06   0.0000000E+00  -2.3214392E-08  -1.1357814E-06   0.0000000E+00  -1.6188743E-08  -1.1420249E-06   0.0000000E+00  -1.0214021E-08  -1.1455893E-06   0.0000000E+00  -4.9357221E-09  -1.6660559E-06   0.0000000E+00  -1.3724579E-07  -1.7291190E-06   0.0000000E+00  -1.1095205E-07  -1.7779666E-06   0.0000000E+00  -8.7906898E-08  -1.8153839E-06   0.0000000E+00  -6.8343880E-08  -1.8436566E-06   0.0000000E+00  -5.1732165E-08  -1.8644448E-06   0.0000000E+00  -3.7968015E-08  -1.8791943E-06   0.0000000E+00  -2.6454526E-08  -1.8889851E-06   0.0000000E+00  -1.6684726E-08  -1.8945677E-06   0.0000000E+00  -8.0595335E-09  -2.7343963E-06   0.0000000E+00  -2.2204246E-07  -2.8325117E-06   0.0000000E+00  -1.7893143E-07  -2.9082489E-06   0.0000000E+00  -1.4159272E-07  -2.9662517E-06   0.0000000E+00  -1.1018968E-07  -3.0102881E-06   0.0000000E+00  -8.3479719E-08  -3.0428214E-06   0.0000000E+00  -6.1267407E-08  -3.0659126E-06   0.0000000E+00  -4.2640846E-08  -3.0811839E-06   0.0000000E+00  -2.6872497E-08  -3.0898600E-06   0.0000000E+00  -1.2974629E-08  -4.4200674E-06   0.0000000E+00  -3.5457691E-07  -4.5707534E-06   0.0000000E+00  -2.8498977E-07  -4.6870327E-06   0.0000000E+00  -2.2529262E-07  -4.7761923E-06   0.0000000E+00  -1.7559529E-07  -4.8441725E-06   0.0000000E+00  -1.3337849E-07  -4.8947459E-06   0.0000000E+00  -9.8078253E-08  -4.9308733E-06   0.0000000E+00  -6.8243295E-08  -4.9548044E-06   0.0000000E+00  -4.2941654E-08  -4.9683608E-06   0.0000000E+00  -2.0683460E-08  -7.0383821E-06   0.0000000E+00  -5.5831066E-07  -7.2652192E-06   0.0000000E+00  -4.4814956E-07  -7.4403565E-06   0.0000000E+00  -3.5418034E-07  -7.5748444E-06   0.0000000E+00  -2.7666840E-07  -7.6778424E-06   0.0000000E+00  -2.1091741E-07  -7.7549821E-06   0.0000000E+00  -1.5568187E-07  -7.8105377E-06   0.0000000E+00  -1.0855546E-07  -7.8475905E-06   0.0000000E+00  -6.8325114E-08  -7.8686935E-06   0.0000000E+00  -3.2865941E-08  -1.1043276E-05   0.0000000E+00  -8.6470396E-07  -1.1376579E-05   0.0000000E+00  -6.9373823E-07  -1.1633747E-05   0.0000000E+00  -5.4839563E-07  -1.1831081E-05   0.0000000E+00  -4.2952723E-07  -1.1982624E-05   0.0000000E+00  -3.2876906E-07  -1.2096722E-05   0.0000000E+00  -2.4385992E-07  -1.2179545E-05   0.0000000E+00  -1.7073853E-07  -1.2235272E-05   0.0000000E+00  -1.0775332E-07  -1.2267291E-05   0.0000000E+00  -5.1925337E-08  -1.7090972E-05   0.0000000E+00  -1.3162878E-06  -1.7569095E-05   0.0000000E+00  -1.0545625E-06  -1.7936585E-05   0.0000000E+00  -8.3425095E-07  -1.8217903E-05   0.0000000E+00  -6.5507595E-07  -1.8433951E-05   0.0000000E+00  -5.0313412E-07  -1.8596755E-05   0.0000000E+00  -3.7490324E-07  -1.8715415E-05   0.0000000E+00  -2.6372709E-07  -1.8795807E-05   0.0000000E+00  -1.6716575E-07  -1.8842342E-05   0.0000000E+00  -8.0824918E-08  -2.6143480E-05   0.0000000E+00  -1.9705899E-06  -2.6812155E-05   0.0000000E+00  -1.5752236E-06  -2.7323134E-05   0.0000000E+00  -1.2461317E-06  -2.7712431E-05   0.0000000E+00  -9.8033195E-07  -2.8010920E-05   0.0000000E+00  -7.5502300E-07  -2.8235627E-05   0.0000000E+00  -5.6433169E-07  -2.8399427E-05   0.0000000E+00  -3.9846307E-07  -2.8510687E-05   0.0000000E+00  -2.5362419E-07  -2.8575361E-05   0.0000000E+00  -1.2303592E-07  -3.9612660E-05   0.0000000E+00  -2.9080315E-06  -4.0527189E-05   0.0000000E+00  -2.3175487E-06  -4.1219573E-05   0.0000000E+00  -1.8320919E-06  -4.1743420E-05   0.0000000E+00  -1.4421400E-06  -4.2143842E-05   0.0000000E+00  -1.1123085E-06  -4.2444728E-05   0.0000000E+00  -8.3271249E-07  -4.2664255E-05   0.0000000E+00  -5.8945659E-07  -4.2813746E-05   0.0000000E+00  -3.7634811E-07  -4.2900800E-05   0.0000000E+00  -1.8305853E-07  -5.9536324E-05   0.0000000E+00  -4.2479451E-06  -6.0763672E-05   0.0000000E+00  -3.3736640E-06  -6.1684674E-05   0.0000000E+00  -2.6606003E-06  -6.2374820E-05   0.0000000E+00  -2.0916227E-06  -6.2898755E-05   0.0000000E+00  -1.6135301E-06  -6.3292508E-05   0.0000000E+00  -1.2088610E-06  -6.3581014E-05   0.0000000E+00  -8.5746990E-07  -6.3778309E-05   0.0000000E+00  -5.4875824E-07  -6.3893604E-05   0.0000000E+00  -2.6735958E-07  -8.8745823E-05   0.0000000E+00  -6.1526348E-06  -9.0371374E-05   0.0000000E+00  -4.8708198E-06  -9.1582900E-05   0.0000000E+00  -3.8358726E-06  -9.2485883E-05   0.0000000E+00  -3.0082231E-06  -9.3168856E-05   0.0000000E+00  -2.3185523E-06  -9.3682567E-05   0.0000000E+00  -1.7376752E-06  -9.4060175E-05   0.0000000E+00  -1.2342798E-06  -9.4319315E-05   0.0000000E+00  -7.9098027E-07  -9.4471019E-05   0.0000000E+00  -3.8567214E-07  -1.3100763E-04   0.0000000E+00  -8.8685601E-06  -1.3313364E-04   0.0000000E+00  -7.0142064E-06  -1.3471484E-04   0.0000000E+00  -5.5272826E-06  -1.3589773E-04   0.0000000E+00  -4.3266300E-06  -1.3679586E-04   0.0000000E+00  -3.3302351E-06  -1.3747354E-04   0.0000000E+00  -2.4929766E-06  -1.3797193E-04   0.0000000E+00  -1.7701362E-06  -1.3831415E-04   0.0000000E+00  -1.1340363E-06  -1.3851466E-04   0.0000000E+00  -5.5279133E-07  -1.9107168E-04   0.0000000E+00  -1.2766819E-05  -1.9379181E-04   0.0000000E+00  -1.0128852E-05  -1.9582841E-04   0.0000000E+00  -8.0032924E-06  -1.9737562E-04   0.0000000E+00  -6.2600238E-06  -1.9856395E-04   0.0000000E+00  -4.8103238E-06  -1.9946820E-04   0.0000000E+00  -3.5904150E-06  -2.0013447E-04   0.0000000E+00  -2.5426161E-06  -2.0059178E-04   0.0000000E+00  -1.6251731E-06  -2.0085930E-04   0.0000000E+00  -7.9103694E-07  -2.7477543E-04   0.0000000E+00  -1.8379034E-05  -2.7814583E-04   0.0000000E+00  -1.4680229E-05  -2.8071378E-04   0.0000000E+00  -1.1655603E-05  -2.8271673E-04   0.0000000E+00  -9.1204038E-06  -2.8428668E-04   0.0000000E+00  -6.9931775E-06  -2.8549795E-04   0.0000000E+00  -5.1978095E-06  -2.8639581E-04   0.0000000E+00  -3.6638708E-06  -2.8701185E-04   0.0000000E+00  -2.3321938E-06  -2.8737134E-04   0.0000000E+00  -1.1320975E-06  -3.8964002E-04   0.0000000E+00  -2.6504178E-05  -3.9363551E-04   0.0000000E+00  -2.1366577E-05  -3.9677482E-04   0.0000000E+00  -1.7053506E-05  -3.9930621E-04   0.0000000E+00  -1.3348053E-05  -4.0134101E-04   0.0000000E+00  -1.0199720E-05  -4.0293796E-04   0.0000000E+00  -7.5409262E-06  -4.0413332E-04   0.0000000E+00  -5.2826654E-06  -4.0495640E-04   0.0000000E+00  -3.3447884E-06  -4.0543632E-04   0.0000000E+00  -1.6176665E-06  -5.4622750E-04   0.0000000E+00  -3.8361144E-05  -5.5070192E-04   0.0000000E+00  -3.1207157E-05  -5.5435597E-04   0.0000000E+00  -2.4982588E-05  -5.5740296E-04   0.0000000E+00  -1.9522529E-05  -5.5992254E-04   0.0000000E+00  -1.4827630E-05  -5.6194054E-04   0.0000000E+00  -1.0887415E-05  -5.6347472E-04   0.0000000E+00  -7.5745784E-06  -5.6454277E-04   0.0000000E+00  -4.7659646E-06  -5.6516903E-04   0.0000000E+00  -2.2975314E-06  -7.6019199E-04   0.0000000E+00  -5.5830507E-05  -7.6489005E-04   0.0000000E+00  -4.5649507E-05  -7.6884899E-04   0.0000000E+00  -3.6447607E-05  -7.7221898E-04   0.0000000E+00  -2.8343682E-05  -7.7509938E-04   0.0000000E+00  -2.1328655E-05  -7.7747327E-04   0.0000000E+00  -1.5516200E-05  -7.7932159E-04   0.0000000E+00  -1.0728489E-05  -7.8063883E-04   0.0000000E+00  -6.7081482E-06  -7.8142021E-04   0.0000000E+00  -3.2250334E-06  -1.0540517E-03   0.0000000E+00  -8.1732564E-05  -1.0587435E-03   0.0000000E+00  -6.6678011E-05  -1.0626576E-03   0.0000000E+00  -5.2685471E-05  -1.0659496E-03   0.0000000E+00  -4.0478586E-05  -1.0688194E-03   0.0000000E+00  -3.0187392E-05  -1.0713114E-03   0.0000000E+00  -2.1734122E-05  -1.0733411E-03   0.0000000E+00  -1.4931541E-05  -1.0748493E-03   0.0000000E+00  -9.2783484E-06  -1.0757665E-03   0.0000000E+00  -4.4498825E-06  -1.4569325E-03   0.0000000E+00  -1.2007354E-04  -1.4616353E-03   0.0000000E+00  -9.6937474E-05  -1.4650861E-03   0.0000000E+00  -7.5231721E-05  -1.4676675E-03   0.0000000E+00  -5.6861401E-05  -1.4699200E-03   0.0000000E+00  -4.1965443E-05  -1.4721137E-03   0.0000000E+00  -2.9862300E-05  -1.4740706E-03   0.0000000E+00  -2.0335316E-05  -1.4756323E-03   0.0000000E+00  -1.2581433E-05  -1.4766279E-03   0.0000000E+00  -6.0138063E-06  -2.0004418E-03   0.0000000E+00  -1.7617813E-04  -2.0060851E-03   0.0000000E+00  -1.3843784E-04  -2.0083981E-03   0.0000000E+00  -1.0607156E-04  -2.0094838E-03   0.0000000E+00  -7.8756537E-05  -2.0103839E-03   0.0000000E+00  -5.7289777E-05  -2.0116949E-03   0.0000000E+00  -4.0369192E-05  -2.0132372E-03   0.0000000E+00  -2.7204271E-05  -2.0146570E-03   0.0000000E+00  -1.6731989E-05  -2.0156463E-03   0.0000000E+00  -7.9590482E-06  -2.7117538E-03   0.0000000E+00  -2.5373767E-04  -2.7184174E-03   0.0000000E+00  -1.9613940E-04  -2.7194668E-03   0.0000000E+00  -1.4779154E-04  -2.7183150E-03   0.0000000E+00  -1.0801815E-04  -2.7170824E-03   0.0000000E+00  -7.7313322E-05  -2.7168884E-03   0.0000000E+00  -5.3802109E-05  -2.7176307E-03   0.0000000E+00  -3.5826561E-05  -2.7186919E-03   0.0000000E+00  -2.1881497E-05  -2.7195716E-03   0.0000000E+00  -1.0343772E-05  -3.5991655E-03   0.0000000E+00  -3.6031505E-04  -3.6084652E-03   0.0000000E+00  -2.7322932E-04  -3.6079059E-03   0.0000000E+00  -2.0264603E-04  -3.6035879E-03   0.0000000E+00  -1.4622565E-04  -3.5994449E-03   0.0000000E+00  -1.0304832E-04  -3.5971343E-03   0.0000000E+00  -7.0811373E-05  -3.5966490E-03   0.0000000E+00  -4.6552475E-05  -3.5971403E-03   0.0000000E+00  -2.8187938E-05  -3.5978032E-03   0.0000000E+00  -1.3222739E-05  -4.6506710E-03   0.0000000E+00  -4.8753983E-04  -4.6545258E-03   0.0000000E+00  -3.7058874E-04  -4.6505635E-03   0.0000000E+00  -2.7247667E-04  -4.6422500E-03   0.0000000E+00  -1.9414703E-04  -4.6342523E-03   0.0000000E+00  -1.3496510E-04  -4.6291444E-03   0.0000000E+00  -9.1663591E-05  -4.6270359E-03   0.0000000E+00  -5.9564842E-05  -4.6267197E-03   0.0000000E+00  -3.5716745E-05  -4.6270778E-03   0.0000000E+00  -1.6657847E-05  -5.7983985E-03   0.0000000E+00  -6.4009399E-04  -5.7958090E-03   0.0000000E+00  -4.7718987E-04  -5.7807928E-03   0.0000000E+00  -3.5253810E-04  -5.7648942E-03   0.0000000E+00  -2.5137028E-04  -5.7518990E-03   0.0000000E+00  -1.7305365E-04  -5.7433392E-03   0.0000000E+00  -1.1595226E-04  -5.7392051E-03   0.0000000E+00  -7.4776348E-05  -5.7379291E-03   0.0000000E+00  -4.4277120E-05  -5.7378891E-03   0.0000000E+00  -2.0584150E-05  -6.9763088E-03   0.0000000E+00  -7.7181432E-04  -6.9352570E-03   0.0000000E+00  -5.9267791E-04  -6.9041569E-03   0.0000000E+00  -4.3249791E-04  -6.8744132E-03   0.0000000E+00  -3.0953580E-04  -6.8526291E-03   0.0000000E+00  -2.1435760E-04  -6.8395524E-03   0.0000000E+00  -1.4287936E-04  -6.8329941E-03   0.0000000E+00  -9.1317597E-05  -6.8306495E-03   0.0000000E+00  -5.3586667E-05  -6.8301363E-03   0.0000000E+00  -2.4705823E-05  -8.1099067E-03   0.0000000E+00  -9.0673630E-04  -8.0267843E-03   0.0000000E+00  -6.8167114E-04  -7.9610478E-03   0.0000000E+00  -5.0956616E-04  -7.9143923E-03   0.0000000E+00  -3.6273125E-04  -7.8800404E-03   0.0000000E+00  -2.5140692E-04  -7.8597171E-03   0.0000000E+00  -1.6713046E-04  -7.8492397E-03   0.0000000E+00  -1.0563255E-04  -7.8444751E-03   0.0000000E+00  -6.1369763E-05  -7.8428406E-03   0.0000000E+00  -2.8072478E-05  -9.1296295E-03   0.0000000E+00  -1.0802385E-03  -9.0054292E-03   0.0000000E+00  -7.9570845E-04  -8.9095086E-03   0.0000000E+00  -5.8730837E-04  -8.8392291E-03   0.0000000E+00  -4.1696083E-04  -8.7929498E-03   0.0000000E+00  -2.8100546E-04  -8.7650772E-03   0.0000000E+00  -1.8057600E-04  -8.7485127E-03   0.0000000E+00  -1.1056574E-04  -8.7399203E-03   0.0000000E+00  -6.3281565E-05  -8.7360265E-03   0.0000000E+00  -2.8201359E-05  -9.8373070E-03   0.0000000E+00  -1.3266536E-03  -9.6776895E-03   0.0000000E+00  -9.5721969E-04  -9.5655601E-03   0.0000000E+00  -7.0379011E-04  -9.4865598E-03   0.0000000E+00  -4.9272686E-04  -9.4312020E-03   0.0000000E+00  -3.2371841E-04  -9.3936790E-03   0.0000000E+00  -2.0052477E-04  -9.3697878E-03   0.0000000E+00  -1.1708139E-04  -9.3558952E-03   0.0000000E+00  -6.3599618E-05  -9.3484605E-03   0.0000000E+00  -2.7331977E-05  -9.7834021E-03   0.0000000E+00  -1.5398533E-03  -9.6348887E-03   0.0000000E+00  -1.0933352E-03  -9.5275203E-03   0.0000000E+00  -8.0656819E-04  -9.4512012E-03   0.0000000E+00  -5.5768515E-04  -9.3983579E-03   0.0000000E+00  -3.5896938E-04  -9.3633244E-03   0.0000000E+00  -2.1465866E-04  -9.3417410E-03   0.0000000E+00  -1.1975582E-04  -9.3291225E-03   0.0000000E+00  -6.1136532E-05  -9.3227290E-03   0.0000000E+00  -2.5303912E-05  -8.3978288E-03   0.0000000E+00  -1.7306271E-03  -8.2843844E-03   0.0000000E+00  -1.2202809E-03  -8.1976829E-03   0.0000000E+00  -9.0110436E-04  -8.1359278E-03   0.0000000E+00  -6.1966729E-04  -8.0948919E-03   0.0000000E+00  -3.9172155E-04  -8.0698272E-03   0.0000000E+00  -2.2611713E-04  -8.0558565E-03   0.0000000E+00  -1.1885448E-04  -8.0487924E-03   0.0000000E+00  -5.6296700E-05  -8.0456696E-03   0.0000000E+00  -2.1708889E-05  -5.9333062E-03   0.0000000E+00  -1.8982021E-03  -5.8441726E-03   0.0000000E+00  -1.3426095E-03  -5.7747886E-03   0.0000000E+00  -9.9210127E-04  -5.7247449E-03   0.0000000E+00  -6.8210025E-04  -5.6915781E-03   0.0000000E+00  -4.3073366E-04  -5.6715752E-03   0.0000000E+00  -2.4807069E-04  -5.6606564E-03   0.0000000E+00  -1.2991972E-04  -5.6553008E-03   0.0000000E+00  -6.1225481E-05  -5.6530093E-03   0.0000000E+00  -2.3492927E-05  -3.6158010E-03   0.0000000E+00  -2.0170428E-03  -3.5526420E-03   0.0000000E+00  -1.4342342E-03  -3.5027722E-03   0.0000000E+00  -1.0610970E-03  -3.4664245E-03   0.0000000E+00  -7.2992127E-04  -3.4422411E-03   0.0000000E+00  -4.6093503E-04  -3.4276512E-03   0.0000000E+00  -2.6535249E-04  -3.4196966E-03   0.0000000E+00  -1.3884660E-04  -3.4157925E-03   0.0000000E+00  -6.5346190E-05  -3.4141270E-03   0.0000000E+00  -2.5046749E-05  -1.8252244E-03   0.0000000E+00  -2.0931466E-03  -1.7868835E-03   0.0000000E+00  -1.4955836E-03  -1.7559172E-03   0.0000000E+00  -1.1080592E-03  -1.7330862E-03   0.0000000E+00  -7.6266157E-04  -1.7178445E-03   0.0000000E+00  -4.8160757E-04  -1.7086631E-03   0.0000000E+00  -2.7713898E-04  -1.7036644E-03   0.0000000E+00  -1.4491245E-04  -1.7012171E-03   0.0000000E+00  -6.8149937E-05  -1.7001707E-03   0.0000000E+00  -2.6099498E-05  -5.2401202E-04   0.0000000E+00  -2.1329075E-03  -5.0778128E-04   0.0000000E+00  -1.5291813E-03  -4.9406127E-04   0.0000000E+00  -1.1342604E-03  -4.8376221E-04   0.0000000E+00  -7.8101252E-04  -4.7688035E-04   0.0000000E+00  -4.9315795E-04  -4.7275014E-04   0.0000000E+00  -2.8367719E-04  -4.7051886E-04   0.0000000E+00  -1.4825702E-04  -4.6943245E-04   0.0000000E+00  -6.9682159E-05  -4.6896926E-04   0.0000000E+00  -2.6666141E-05   4.8304096E-04   0.0000000E+00  -2.1416226E-03   4.7986375E-04   0.0000000E+00  -1.5381444E-03   4.7815652E-04   0.0000000E+00  -1.1417294E-03   4.7716094E-04   0.0000000E+00  -7.8629964E-04   4.7650535E-04   0.0000000E+00  -4.9642386E-04   4.7606902E-04   0.0000000E+00  -2.8546283E-04   4.7580147E-04   0.0000000E+00  -1.4913161E-04   4.7566797E-04   0.0000000E+00  -7.0071801E-05   4.7561032E-04   0.0000000E+00  -2.6813697E-05   1.4008621E-03   0.0000000E+00  -2.1232683E-03   1.3803745E-03   0.0000000E+00  -1.5252641E-03   1.3648289E-03   0.0000000E+00  -1.1325147E-03   1.3537299E-03   0.0000000E+00  -7.7996281E-04   1.3463466E-03   0.0000000E+00  -4.9233949E-04   1.3418454E-03   0.0000000E+00  -2.8304092E-04   1.3393622E-03   0.0000000E+00  -1.4782205E-04   1.3381309E-03   0.0000000E+00  -6.9439418E-05   1.3376054E-03   0.0000000E+00  -2.6575648E-05   2.3394504E-03   0.0000000E+00  -2.0781143E-03   2.3031805E-03   0.0000000E+00  -1.4927267E-03   2.2751060E-03   0.0000000E+00  -1.1084764E-03   2.2549357E-03   0.0000000E+00  -7.6335383E-04   2.2415584E-03   0.0000000E+00  -4.8177200E-04   2.2334387E-03   0.0000000E+00  -2.7690938E-04   2.2289758E-03   0.0000000E+00  -1.4459316E-04   2.2267606E-03   0.0000000E+00  -6.7915338E-05   2.2258107E-03   0.0000000E+00  -2.5987147E-05   3.2968081E-03   0.0000000E+00  -2.0078418E-03   3.2460792E-03   0.0000000E+00  -1.4423477E-03   3.2066642E-03   0.0000000E+00  -1.0711746E-03   3.1783823E-03   0.0000000E+00  -7.3762116E-04   3.1596485E-03   0.0000000E+00  -4.6546260E-04   3.1483162E-03   0.0000000E+00  -2.6749546E-04   3.1420889E-03   0.0000000E+00  -1.3966158E-04   3.1389953E-03   0.0000000E+00  -6.5594329E-05   3.1376544E-03   0.0000000E+00  -2.5103078E-05   4.2067301E-03   0.0000000E+00  -1.9145362E-03   4.1430229E-03   0.0000000E+00  -1.3759679E-03   4.0935655E-03   0.0000000E+00  -1.0221069E-03   4.0581650E-03   0.0000000E+00  -7.0386421E-04   4.0347585E-03   0.0000000E+00  -4.4413257E-04   4.0206099E-03   0.0000000E+00  -2.5521737E-04   4.0128385E-03   0.0000000E+00  -1.3325275E-04   4.0089800E-03   0.0000000E+00  -6.2589919E-05   4.0073046E-03   0.0000000E+00  -2.3953149E-05   4.9889330E-03   0.0000000E+00  -1.8011758E-03   4.9138274E-03   0.0000000E+00  -1.2958200E-03   4.8557119E-03   0.0000000E+00  -9.6305500E-04   4.8141615E-03   0.0000000E+00  -6.6334277E-04   4.7867335E-03   0.0000000E+00  -4.1860918E-04   4.7700778E-03   0.0000000E+00  -2.4058449E-04   4.7608903E-03   0.0000000E+00  -1.2565781E-04   4.7562891E-03   0.0000000E+00  -5.9052290E-05   4.7542853E-03   0.0000000E+00  -2.2617154E-05   5.5454778E-03   0.0000000E+00  -1.6758820E-03   5.4487335E-03   0.0000000E+00  -1.2099972E-03   5.3748488E-03   0.0000000E+00  -9.0077659E-04   5.3211180E-03   0.0000000E+00  -6.2239805E-04   5.2836081E-03   0.0000000E+00  -3.9494119E-04   5.2594715E-03   0.0000000E+00  -2.2934876E-04   5.2444683E-03   0.0000000E+00  -1.2201944E-04   5.2359449E-03   0.0000000E+00  -5.8861177E-05   5.2319621E-03   0.0000000E+00  -2.3260665E-05   5.7604453E-03   0.0000000E+00  -1.5590776E-03   5.6267874E-03   0.0000000E+00  -1.1361660E-03   5.5307825E-03   0.0000000E+00  -8.4812386E-04   5.4609133E-03   0.0000000E+00  -5.8937451E-04   5.4110200E-03   0.0000000E+00  -3.7995755E-04   5.3776726E-03   0.0000000E+00  -2.2741167E-04   5.3555449E-03   0.0000000E+00  -1.2791311E-04   5.3416253E-03   0.0000000E+00  -6.6127031E-05   5.3339526E-03   0.0000000E+00  -2.7718879E-05   5.7317680E-03   0.0000000E+00  -1.4431204E-03   5.5801827E-03   0.0000000E+00  -1.0590384E-03   5.4741725E-03   0.0000000E+00  -7.9259649E-04   5.3975000E-03   0.0000000E+00  -5.5503316E-04   5.3441706E-03   0.0000000E+00  -3.6332189E-04   5.3058942E-03   0.0000000E+00  -2.2130529E-04   5.2807936E-03   0.0000000E+00  -1.2677812E-04   5.2669537E-03   0.0000000E+00  -6.7734531E-05   5.2593858E-03   0.0000000E+00  -2.9233828E-05   5.5782185E-03   0.0000000E+00  -1.3226777E-03   5.4211109E-03   0.0000000E+00  -9.8130561E-04   5.3125792E-03   0.0000000E+00  -7.3452236E-04   5.2332832E-03   0.0000000E+00  -5.1752501E-04   5.1784613E-03   0.0000000E+00  -3.4080862E-04   5.1442357E-03   0.0000000E+00  -2.1233845E-04   5.1236711E-03   0.0000000E+00  -1.2604953E-04   5.1118587E-03   0.0000000E+00  -6.9643029E-05   5.1059360E-03   0.0000000E+00  -3.1395273E-05   5.3557958E-03   0.0000000E+00  -1.2148232E-03   5.2118269E-03   0.0000000E+00  -9.0872648E-04   5.1023271E-03   0.0000000E+00  -6.8177871E-04   5.0243740E-03   0.0000000E+00  -4.8281770E-04   4.9725790E-03   0.0000000E+00  -3.2441696E-04   4.9415589E-03   0.0000000E+00  -2.0940276E-04   4.9232896E-03   0.0000000E+00  -1.2884253E-04   4.9132579E-03   0.0000000E+00  -7.4103285E-05   4.9086059E-03   0.0000000E+00  -3.3180895E-05   5.1112119E-03   0.0000000E+00  -1.1239401E-03   4.9640243E-03   0.0000000E+00  -8.4936974E-04   4.8575574E-03   0.0000000E+00  -6.3660933E-04   4.7790017E-03   0.0000000E+00  -4.5470276E-04   4.7277636E-03   0.0000000E+00  -3.1247770E-04   4.6957345E-03   0.0000000E+00  -2.0631865E-04   4.6780165E-03   0.0000000E+00  -1.3036010E-04   4.6684626E-03   0.0000000E+00  -7.5444179E-05   4.6637114E-03   0.0000000E+00  -3.4342014E-05   4.8363972E-03   0.0000000E+00  -1.0590798E-03   4.6834061E-03   0.0000000E+00  -7.9168600E-04   4.5731929E-03   0.0000000E+00  -5.9684512E-04   4.4941530E-03   0.0000000E+00  -4.3264843E-04   4.4394769E-03   0.0000000E+00  -3.0111038E-04   4.4058496E-03   0.0000000E+00  -2.0164307E-04   4.3864935E-03   0.0000000E+00  -1.2893125E-04   4.3758820E-03   0.0000000E+00  -7.5838565E-05   4.3707849E-03   0.0000000E+00  -3.5078050E-05   4.5395028E-03   0.0000000E+00  -1.0137262E-03   4.3750606E-03   0.0000000E+00  -7.3905906E-04   4.2628497E-03   0.0000000E+00  -5.6075258E-04   4.1762232E-03   0.0000000E+00  -4.1140447E-04   4.1171662E-03   0.0000000E+00  -2.9036435E-04   4.0797982E-03   0.0000000E+00  -1.9766204E-04   4.0569329E-03   0.0000000E+00  -1.2832331E-04   4.0443703E-03   0.0000000E+00  -7.6091899E-05   4.0379860E-03   0.0000000E+00  -3.5769997E-05   4.2468188E-03   0.0000000E+00  -9.9142233E-04   4.0676259E-03   0.0000000E+00  -6.9980917E-04   3.9388477E-03   0.0000000E+00  -5.2238698E-04   3.8478915E-03   0.0000000E+00  -3.8967939E-04   3.7829832E-03   0.0000000E+00  -2.8168585E-04   3.7385670E-03   0.0000000E+00  -1.9527064E-04   3.7107680E-03   0.0000000E+00  -1.2822266E-04   3.6946174E-03   0.0000000E+00  -7.7223776E-05   3.6862250E-03   0.0000000E+00  -3.6308262E-05   3.9945929E-03   0.0000000E+00  -1.0166755E-03   3.7657965E-03   0.0000000E+00  -6.6876295E-04   3.6281417E-03   0.0000000E+00  -4.8885308E-04   3.5276262E-03   0.0000000E+00  -3.6733638E-04   3.4551760E-03   0.0000000E+00  -2.6981111E-04   3.4047458E-03   0.0000000E+00  -1.9330364E-04   3.3702396E-03   0.0000000E+00  -1.2992223E-04   3.3488164E-03   0.0000000E+00  -7.9566053E-05   3.3373730E-03   0.0000000E+00  -3.7522677E-05   3.8044907E-03   0.0000000E+00  -1.1145574E-03   3.5100211E-03   0.0000000E+00  -6.6981057E-04   3.3406906E-03   0.0000000E+00  -4.5828236E-04   3.2299419E-03   0.0000000E+00  -3.3985396E-04   3.1512850E-03   0.0000000E+00  -2.5535517E-04   3.0945356E-03   0.0000000E+00  -1.8700864E-04   3.0547888E-03   0.0000000E+00  -1.3018811E-04   3.0281798E-03   0.0000000E+00  -8.1733713E-05   3.0134721E-03   0.0000000E+00  -3.9007638E-05   3.7102660E-03   0.0000000E+00  -1.3153690E-03   3.3270835E-03   0.0000000E+00  -7.3966064E-04   3.1016783E-03   0.0000000E+00  -4.5159081E-04   2.9654920E-03   0.0000000E+00  -3.1448077E-04   2.8797893E-03   0.0000000E+00  -2.3234963E-04   2.8165299E-03   0.0000000E+00  -1.7205483E-04   2.7741841E-03   0.0000000E+00  -1.2307943E-04   2.7459431E-03   0.0000000E+00  -7.9576886E-05   2.7291859E-03   0.0000000E+00  -3.8617964E-05   3.7820856E-03   0.0000000E+00  -1.6612634E-03   3.2578351E-03   0.0000000E+00  -9.1713434E-04   2.9480597E-03   0.0000000E+00  -5.1430339E-04   2.7619647E-03   0.0000000E+00  -3.1462367E-04   2.6459116E-03   0.0000000E+00  -2.1041493E-04   2.5762303E-03   0.0000000E+00  -1.5142688E-04   2.5268332E-03   0.0000000E+00  -1.0478671E-04   2.4972677E-03   0.0000000E+00  -6.8558809E-05   2.4804045E-03   0.0000000E+00  -3.3434964E-05   4.1380073E-03   0.0000000E+00  -2.1510927E-03   3.4151303E-03   0.0000000E+00  -1.2611330E-03   2.9384859E-03   0.0000000E+00  -7.0444652E-04   2.6557548E-03   0.0000000E+00  -3.9322101E-04   2.4841223E-03   0.0000000E+00  -2.2947074E-04   2.3792647E-03   0.0000000E+00  -1.4029794E-04   2.3167797E-03   0.0000000E+00  -8.7777255E-05   2.2803068E-03   0.0000000E+00  -5.3142048E-05   2.2611867E-03   0.0000000E+00  -2.5055586E-05   4.8232866E-03   0.0000000E+00  -2.6689337E-03   3.9541940E-03   0.0000000E+00  -1.7433179E-03   3.2401555E-03   0.0000000E+00  -1.0786867E-03   2.7572042E-03   0.0000000E+00  -6.2711671E-04   2.4562902E-03   0.0000000E+00  -3.5387481E-04   2.2823154E-03   0.0000000E+00  -1.9550965E-04   2.1793162E-03   0.0000000E+00  -1.0434476E-04   2.1223463E-03   0.0000000E+00  -5.2531446E-05   2.0942225E-03   0.0000000E+00  -2.1636275E-05   5.5763996E-03   0.0000000E+00  -3.1455813E-03   4.8114266E-03   0.0000000E+00  -2.2515007E-03   4.0142760E-03   0.0000000E+00  -1.5401050E-03   3.3046470E-03   0.0000000E+00  -1.0216241E-03   2.7725995E-03   0.0000000E+00  -6.4646965E-04   2.4295037E-03   0.0000000E+00  -3.8139991E-04   2.2266395E-03   0.0000000E+00  -2.0676083E-04   2.1146825E-03   0.0000000E+00  -1.0183568E-04   2.0603777E-03   0.0000000E+00  -4.0965995E-05   5.9958291E-03   0.0000000E+00  -3.5429248E-03   5.5401330E-03   0.0000000E+00  -2.7384069E-03   4.9594040E-03   0.0000000E+00  -2.0244343E-03   4.3047001E-03   0.0000000E+00  -1.4499468E-03   3.6799358E-03   0.0000000E+00  -1.0028592E-03   3.1690253E-03   0.0000000E+00  -6.5965240E-04   2.8050330E-03   0.0000000E+00  -4.0093434E-04   2.5784275E-03   0.0000000E+00  -2.1779224E-04   2.4597454E-03   0.0000000E+00  -9.3668270E-05   5.7930849E-03   0.0000000E+00  -3.1525269E-03   5.5610174E-03   0.0000000E+00  -2.4904781E-03   5.2011986E-03   0.0000000E+00  -1.9117297E-03   4.7653234E-03   0.0000000E+00  -1.3993960E-03   4.3335357E-03   0.0000000E+00  -9.6044305E-04   3.9835521E-03   0.0000000E+00  -6.0134026E-04   3.7467713E-03   0.0000000E+00  -3.3463509E-04   3.6147938E-03   0.0000000E+00  -1.4614753E-04   5.4974100E-03   0.0000000E+00  -2.3716581E-03   5.3977249E-03   0.0000000E+00  -1.8274389E-03   5.2357959E-03   0.0000000E+00  -1.3048775E-03   5.0801234E-03   0.0000000E+00  -8.3008868E-04   4.9658213E-03   0.0000000E+00  -4.6447583E-04   4.8986827E-03   0.0000000E+00  -2.0315708E-04   5.3422730E-03   0.0000000E+00  -1.6738432E-03   5.3950269E-03   0.0000000E+00  -1.0735261E-03   5.4268874E-03   0.0000000E+00  -6.0114334E-04   5.4421099E-03   0.0000000E+00  -2.6225802E-04  -3.9052257E-08   0.0000000E+00   3.4889509E-15  -3.9002526E-08   0.0000000E+00   1.5575952E-10  -3.8849457E-08   0.0000000E+00   3.2471392E-10  -3.8581131E-08   0.0000000E+00   5.1975535E-10  -3.8177696E-08   0.0000000E+00   7.5333523E-10  -3.7611123E-08   0.0000000E+00   1.0371775E-09  -3.6845567E-08   0.0000000E+00   1.3796770E-09  -3.5836543E-08   0.0000000E+00   1.7901644E-09  -7.2608096E-08   0.0000000E+00   2.4525687E-15  -7.2517167E-08   0.0000000E+00   3.0094727E-10  -7.2237420E-08   0.0000000E+00   6.2576011E-10  -7.1748268E-08   0.0000000E+00   9.9800035E-10  -7.1014519E-08   0.0000000E+00   1.4401054E-09  -6.9986029E-08   0.0000000E+00   1.9745161E-09  -6.8598609E-08   0.0000000E+00   2.6153466E-09  -6.6770276E-08   0.0000000E+00   3.3825962E-09  -1.3137245E-07   0.0000000E+00  -5.4985029E-15  -1.3121205E-07   0.0000000E+00   5.5792865E-10  -1.3071909E-07   0.0000000E+00   1.1575757E-09  -1.2985804E-07   0.0000000E+00   1.8407552E-09  -1.2856833E-07   0.0000000E+00   2.6466822E-09  -1.2676225E-07   0.0000000E+00   3.6165524E-09  -1.2432626E-07   0.0000000E+00   4.7759920E-09  -1.2111522E-07   0.0000000E+00   6.1593579E-09  -2.3198376E-07   0.0000000E+00   6.3280519E-15  -2.3171052E-07   0.0000000E+00   1.0015447E-09  -2.3087080E-07   0.0000000E+00   2.0747213E-09  -2.2940429E-07   0.0000000E+00   3.2926817E-09  -2.2720813E-07   0.0000000E+00   4.7228017E-09  -2.2413207E-07   0.0000000E+00   6.4381740E-09  -2.1997909E-07   0.0000000E+00   8.4892715E-09  -2.1449938E-07   0.0000000E+00   1.0928084E-08  -4.0161507E-07   0.0000000E+00   3.8348302E-14  -4.0116296E-07   0.0000000E+00   1.7466629E-09  -3.9977351E-07   0.0000000E+00   3.6150070E-09  -3.9734525E-07   0.0000000E+00   5.7303549E-09  -3.9370539E-07   0.0000000E+00   8.2106633E-09  -3.8860099E-07   0.0000000E+00   1.1179576E-08  -3.8169594E-07   0.0000000E+00   1.4735291E-08  -3.7256876E-07   0.0000000E+00   1.8951898E-08  -6.8371918E-07   0.0000000E+00   5.9909421E-14  -6.8298903E-07   0.0000000E+00   2.9686871E-09  -6.8074343E-07   0.0000000E+00   6.1424301E-09  -6.7681538E-07   0.0000000E+00   9.7330428E-09  -6.7091526E-07   0.0000000E+00   1.3946808E-08  -6.6262498E-07   0.0000000E+00   1.8986118E-08  -6.5138312E-07   0.0000000E+00   2.5037078E-08  -6.3649111E-07   0.0000000E+00   3.2199207E-08  -1.1467469E-06   0.0000000E+00  -9.1800387E-14  -1.1455892E-06   0.0000000E+00   4.9356279E-09  -1.1420252E-06   0.0000000E+00   1.0214045E-08  -1.1357810E-06   0.0000000E+00   1.6188723E-08  -1.1263866E-06   0.0000000E+00   2.3214382E-08  -1.1131619E-06   0.0000000E+00   3.1615553E-08  -1.0951861E-06   0.0000000E+00   4.1734197E-08  -1.0713375E-06   0.0000000E+00   5.3689543E-08  -1.8963815E-06   0.0000000E+00  -2.7685562E-14  -1.8945682E-06   0.0000000E+00   8.0592848E-09  -1.8889851E-06   0.0000000E+00   1.6684766E-08  -1.8791932E-06   0.0000000E+00   2.6454527E-08  -1.8644445E-06   0.0000000E+00   3.7967975E-08  -1.8436569E-06   0.0000000E+00   5.1732197E-08  -1.8153842E-06   0.0000000E+00   6.8343716E-08  -1.7779674E-06   0.0000000E+00   8.7906642E-08  -3.0926740E-06   0.0000000E+00  -5.2742739E-14  -3.0898593E-06   0.0000000E+00   1.2974374E-08  -3.0811846E-06   0.0000000E+00   2.6872421E-08  -3.0659146E-06   0.0000000E+00   4.2640835E-08  -3.0428205E-06   0.0000000E+00   6.1267372E-08  -3.0102894E-06   0.0000000E+00   8.3479399E-08  -2.9662535E-06   0.0000000E+00   1.1018938E-07  -2.9082466E-06   0.0000000E+00   1.4159218E-07  -4.9727273E-06   0.0000000E+00  -4.1821516E-13  -4.9683595E-06   0.0000000E+00   2.0683689E-08  -4.9548021E-06   0.0000000E+00   4.2941920E-08  -4.9308724E-06   0.0000000E+00   6.8243438E-08  -4.8947445E-06   0.0000000E+00   9.8078196E-08  -4.8441721E-06   0.0000000E+00   1.3337825E-07  -4.7761910E-06   0.0000000E+00   1.7559523E-07  -4.6870332E-06   0.0000000E+00   2.2529257E-07  -7.8755293E-06   0.0000000E+00   1.5478500E-13  -7.8686971E-06   0.0000000E+00   3.2866108E-08  -7.8475896E-06   0.0000000E+00   6.8325001E-08  -7.8105359E-06   0.0000000E+00   1.0855523E-07  -7.7549848E-06   0.0000000E+00   1.5568180E-07  -7.6778406E-06   0.0000000E+00   2.1091745E-07  -7.5748494E-06   0.0000000E+00   2.7666860E-07  -7.4403579E-06   0.0000000E+00   3.5417963E-07  -1.2277716E-05   0.0000000E+00  -5.1708746E-13  -1.2267294E-05   0.0000000E+00   5.1926385E-08  -1.2235281E-05   0.0000000E+00   1.0775418E-07  -1.2179541E-05   0.0000000E+00   1.7073828E-07  -1.2096718E-05   0.0000000E+00   2.4385983E-07  -1.1982629E-05   0.0000000E+00   3.2876940E-07  -1.1831076E-05   0.0000000E+00   4.2952550E-07  -1.1633748E-05   0.0000000E+00   5.4839472E-07  -1.8857565E-05   0.0000000E+00  -8.8341247E-14  -1.8842346E-05   0.0000000E+00   8.0825117E-08  -1.8795801E-05   0.0000000E+00   1.6716585E-07  -1.8715411E-05   0.0000000E+00   2.6372683E-07  -1.8596751E-05   0.0000000E+00   3.7490321E-07  -1.8433953E-05   0.0000000E+00   5.0313452E-07  -1.8217890E-05   0.0000000E+00   6.5507709E-07  -1.7936592E-05   0.0000000E+00   8.3425124E-07  -2.8596589E-05   0.0000000E+00  -1.0918489E-12  -2.8575361E-05   0.0000000E+00   1.2303362E-07  -2.8510700E-05   0.0000000E+00   2.5362243E-07  -2.8399430E-05   0.0000000E+00   3.9846296E-07  -2.8235625E-05   0.0000000E+00   5.6433151E-07  -2.8010934E-05   0.0000000E+00   7.5502567E-07  -2.7712418E-05   0.0000000E+00   9.8032979E-07  -2.7323134E-05   0.0000000E+00   1.2461328E-06  -4.2929401E-05   0.0000000E+00   1.2432112E-12  -4.2900789E-05   0.0000000E+00   1.8305555E-07  -4.2813735E-05   0.0000000E+00   3.7634462E-07  -4.2664258E-05   0.0000000E+00   5.8945415E-07  -4.2444728E-05   0.0000000E+00   8.3271112E-07  -4.2143838E-05   0.0000000E+00   1.1123092E-06  -4.1743417E-05   0.0000000E+00   1.4421385E-06  -4.1219555E-05   0.0000000E+00   1.8320916E-06  -6.3931446E-05   0.0000000E+00  -3.5032229E-12  -6.3893589E-05   0.0000000E+00   2.6735225E-07  -6.3778352E-05   0.0000000E+00   5.4874886E-07  -6.3580999E-05   0.0000000E+00   8.5746763E-07  -6.3292500E-05   0.0000000E+00   1.2088624E-06  -6.2898725E-05   0.0000000E+00   1.6135343E-06  -6.2374798E-05   0.0000000E+00   2.0916191E-06  -6.1684637E-05   0.0000000E+00   2.6605990E-06  -9.4520939E-05   0.0000000E+00  -4.3572051E-12  -9.4471026E-05   0.0000000E+00   3.8566952E-07  -9.4319294E-05   0.0000000E+00   7.9099561E-07  -9.4060197E-05   0.0000000E+00   1.2342761E-06  -9.3682560E-05   0.0000000E+00   1.7376717E-06  -9.3168848E-05   0.0000000E+00   2.3185523E-06  -9.2485920E-05   0.0000000E+00   3.0082217E-06  -9.1582937E-05   0.0000000E+00   3.8358630E-06  -1.3858058E-04   0.0000000E+00   1.4405010E-11  -1.3851465E-04   0.0000000E+00   5.5280822E-07  -1.3831415E-04   0.0000000E+00   1.1340413E-06  -1.3797196E-04   0.0000000E+00   1.7701290E-06  -1.3747351E-04   0.0000000E+00   2.4929745E-06  -1.3679586E-04   0.0000000E+00   3.3302390E-06  -1.3589778E-04   0.0000000E+00   4.3266341E-06  -1.3471482E-04   0.0000000E+00   5.5272894E-06  -2.0094719E-04   0.0000000E+00  -3.2950122E-11  -2.0085931E-04   0.0000000E+00   7.9100909E-07  -2.0059179E-04   0.0000000E+00   1.6251396E-06  -2.0013450E-04   0.0000000E+00   2.5426184E-06  -1.9946824E-04   0.0000000E+00   3.5904170E-06  -1.9856397E-04   0.0000000E+00   4.8103157E-06  -1.9737567E-04   0.0000000E+00   6.2600234E-06  -1.9582838E-04   0.0000000E+00   8.0032869E-06  -2.8748941E-04   0.0000000E+00  -1.4298389E-12  -2.8737140E-04   0.0000000E+00   1.1321387E-06  -2.8701188E-04   0.0000000E+00   2.3321988E-06  -2.8639581E-04   0.0000000E+00   3.6638608E-06  -2.8549795E-04   0.0000000E+00   5.1978031E-06  -2.8428674E-04   0.0000000E+00   6.9931821E-06  -2.8271676E-04   0.0000000E+00   9.1204147E-06  -2.8071387E-04   0.0000000E+00   1.1655609E-05  -4.0559366E-04   0.0000000E+00  -1.8686384E-11  -4.0543638E-04   0.0000000E+00   1.6176713E-06  -4.0495628E-04   0.0000000E+00   3.3447807E-06  -4.0413335E-04   0.0000000E+00   5.2826204E-06  -4.0293791E-04   0.0000000E+00   7.5409275E-06  -4.0134109E-04   0.0000000E+00   1.0199708E-05  -3.9930621E-04   0.0000000E+00   1.3348007E-05  -3.9677470E-04   0.0000000E+00   1.7053515E-05  -5.6537479E-04   0.0000000E+00  -7.2070067E-12  -5.6516880E-04   0.0000000E+00   2.2975698E-06  -5.6454295E-04   0.0000000E+00   4.7659960E-06  -5.6347472E-04   0.0000000E+00   7.5745706E-06  -5.6194083E-04   0.0000000E+00   1.0887400E-05  -5.5992260E-04   0.0000000E+00   1.4827609E-05  -5.5740273E-04   0.0000000E+00   1.9522518E-05  -5.5435614E-04   0.0000000E+00   2.4982639E-05  -7.8167993E-04   0.0000000E+00  -3.6693943E-11  -7.8142044E-04   0.0000000E+00   3.2250246E-06  -7.8063871E-04   0.0000000E+00   6.7082256E-06  -7.7932188E-04   0.0000000E+00   1.0728462E-05  -7.7747315E-04   0.0000000E+00   1.5516185E-05  -7.7509956E-04   0.0000000E+00   2.1328651E-05  -7.7221880E-04   0.0000000E+00   2.8343713E-05  -7.6884928E-04   0.0000000E+00   3.6447593E-05  -1.0760757E-03   0.0000000E+00   1.2762606E-10  -1.0757663E-03   0.0000000E+00   4.4497469E-06  -1.0748492E-03   0.0000000E+00   9.2783130E-06  -1.0733414E-03   0.0000000E+00   1.4931553E-05  -1.0713116E-03   0.0000000E+00   2.1734166E-05  -1.0688194E-03   0.0000000E+00   3.0187386E-05  -1.0659499E-03   0.0000000E+00   4.0478477E-05  -1.0626576E-03   0.0000000E+00   5.2685496E-05  -1.4769715E-03   0.0000000E+00  -1.2114747E-11  -1.4766280E-03   0.0000000E+00   6.0135076E-06  -1.4756323E-03   0.0000000E+00   1.2581467E-05  -1.4740701E-03   0.0000000E+00   2.0335330E-05  -1.4721132E-03   0.0000000E+00   2.9862285E-05  -1.4699193E-03   0.0000000E+00   4.1965341E-05  -1.4676669E-03   0.0000000E+00   5.6861230E-05  -1.4650855E-03   0.0000000E+00   7.5231779E-05  -2.0159988E-03   0.0000000E+00   1.7020120E-10  -2.0156458E-03   0.0000000E+00   7.9591064E-06  -2.0146575E-03   0.0000000E+00   1.6732036E-05  -2.0132372E-03   0.0000000E+00   2.7204524E-05  -2.0116954E-03   0.0000000E+00   4.0369170E-05  -2.0103834E-03   0.0000000E+00   5.7289551E-05  -2.0094838E-03   0.0000000E+00   7.8756457E-05  -2.0083978E-03   0.0000000E+00   1.0607154E-04  -2.7199036E-03   0.0000000E+00  -5.9414015E-11  -2.7195709E-03   0.0000000E+00   1.0343560E-05  -2.7186919E-03   0.0000000E+00   2.1881573E-05  -2.7176302E-03   0.0000000E+00   3.5826597E-05  -2.7168898E-03   0.0000000E+00   5.3802061E-05  -2.7170824E-03   0.0000000E+00   7.7313183E-05  -2.7183148E-03   0.0000000E+00   1.0801783E-04  -2.7194673E-03   0.0000000E+00   1.4779158E-04  -3.5980823E-03   0.0000000E+00  -2.5610625E-10  -3.5978041E-03   0.0000000E+00   1.3222172E-05  -3.5971403E-03   0.0000000E+00   2.8188162E-05  -3.5966488E-03   0.0000000E+00   4.6552541E-05  -3.5971354E-03   0.0000000E+00   7.0811147E-05  -3.5994437E-03   0.0000000E+00   1.0304808E-04  -3.6035876E-03   0.0000000E+00   1.4622552E-04  -3.6079073E-03   0.0000000E+00   2.0264555E-04  -4.6272762E-03   0.0000000E+00   2.7726019E-10  -4.6270788E-03   0.0000000E+00   1.6658918E-05  -4.6267188E-03   0.0000000E+00   3.5716785E-05  -4.6270373E-03   0.0000000E+00   5.9564740E-05  -4.6291440E-03   0.0000000E+00   9.1663438E-05  -4.6342532E-03   0.0000000E+00   1.3496513E-04  -4.6422505E-03   0.0000000E+00   1.9414694E-04  -4.6505639E-03   0.0000000E+00   2.7247664E-04  -5.7379925E-03   0.0000000E+00  -1.1592460E-10  -5.7378900E-03   0.0000000E+00   2.0584312E-05  -5.7379296E-03   0.0000000E+00   4.4277382E-05  -5.7392074E-03   0.0000000E+00   7.4775773E-05  -5.7433387E-03   0.0000000E+00   1.1595197E-04  -5.7519018E-03   0.0000000E+00   1.7305357E-04  -5.7648933E-03   0.0000000E+00   2.5137037E-04  -5.7807919E-03   0.0000000E+00   3.5253828E-04  -6.8301405E-03   0.0000000E+00   7.3719564E-10  -6.8301372E-03   0.0000000E+00   2.4703841E-05  -6.8306471E-03   0.0000000E+00   5.3585169E-05  -6.8329950E-03   0.0000000E+00   9.1317910E-05  -6.8395520E-03   0.0000000E+00   1.4287888E-04  -6.8526291E-03   0.0000000E+00   2.1435796E-04  -6.8744132E-03   0.0000000E+00   3.0953519E-04  -6.9041564E-03   0.0000000E+00   4.3249756E-04  -7.8424364E-03   0.0000000E+00  -2.0982331E-10  -7.8428416E-03   0.0000000E+00   2.8071127E-05  -7.8444751E-03   0.0000000E+00   6.1369450E-05  -7.8492388E-03   0.0000000E+00   1.0563278E-04  -7.8597143E-03   0.0000000E+00   1.6712955E-04  -7.8800414E-03   0.0000000E+00   2.5140715E-04  -7.9143932E-03   0.0000000E+00   3.6273152E-04  -7.9610478E-03   0.0000000E+00   5.0956663E-04  -8.7348642E-03   0.0000000E+00   7.5770779E-10  -8.7360283E-03   0.0000000E+00   2.8201601E-05  -8.7399203E-03   0.0000000E+00   6.3280611E-05  -8.7485118E-03   0.0000000E+00   1.1056630E-04  -8.7650772E-03   0.0000000E+00   1.8057584E-04  -8.7929498E-03   0.0000000E+00   2.8100662E-04  -8.8392291E-03   0.0000000E+00   4.1696290E-04  -8.9095095E-03   0.0000000E+00   5.8730977E-04  -9.3463045E-03   0.0000000E+00   2.1046118E-09  -9.3484595E-03   0.0000000E+00   2.7328790E-05  -9.3558980E-03   0.0000000E+00   6.3598818E-05  -9.3697868E-03   0.0000000E+00   1.1707809E-04  -9.3936799E-03   0.0000000E+00   2.0052434E-04  -9.4311982E-03   0.0000000E+00   3.2371888E-04  -9.4865579E-03   0.0000000E+00   4.9272383E-04  -9.5655601E-03   0.0000000E+00   7.0379011E-04  -9.3207862E-03   0.0000000E+00   9.9706292E-11  -9.3227327E-03   0.0000000E+00   2.5308451E-05  -9.3291188E-03   0.0000000E+00   6.1132174E-05  -9.3417410E-03   0.0000000E+00   1.1975782E-04  -9.3633253E-03   0.0000000E+00   2.1465730E-04  -9.3983561E-03   0.0000000E+00   3.5896801E-04  -9.4512040E-03   0.0000000E+00   5.5768673E-04  -9.5275193E-03   0.0000000E+00   8.0657110E-04  -8.0448044E-03   0.0000000E+00   2.3220506E-10  -8.0456696E-03   0.0000000E+00   2.1708909E-05  -8.0487924E-03   0.0000000E+00   5.6295583E-05  -8.0558555E-03   0.0000000E+00   1.1885566E-04  -8.0698319E-03   0.0000000E+00   2.2611801E-04  -8.0948891E-03   0.0000000E+00   3.9172321E-04  -8.1359260E-03   0.0000000E+00   6.1967713E-04  -8.1976848E-03   0.0000000E+00   9.0110116E-04  -5.6523914E-03   0.0000000E+00   1.0404955E-09  -5.6530111E-03   0.0000000E+00   2.3496070E-05  -5.6553022E-03   0.0000000E+00   6.1221785E-05  -5.6606564E-03   0.0000000E+00   1.2991911E-04  -5.6715775E-03   0.0000000E+00   2.4807316E-04  -5.6915800E-03   0.0000000E+00   4.3073049E-04  -5.7247430E-03   0.0000000E+00   6.8209931E-04  -5.7747886E-03   0.0000000E+00   9.9210546E-04  -3.4136747E-03   0.0000000E+00   2.0462114E-09  -3.4141247E-03   0.0000000E+00   2.5048934E-05  -3.4157890E-03   0.0000000E+00   6.5349835E-05  -3.4196940E-03   0.0000000E+00   1.3884871E-04  -3.4276508E-03   0.0000000E+00   2.6534987E-04  -3.4422390E-03   0.0000000E+00   4.6093538E-04  -3.4664243E-03   0.0000000E+00   7.2992453E-04  -3.5027759E-03   0.0000000E+00   1.0611069E-03  -1.6998888E-03   0.0000000E+00  -3.0925551E-10  -1.7001706E-03   0.0000000E+00   2.6101403E-05  -1.7012183E-03   0.0000000E+00   6.8148118E-05  -1.7036651E-03   0.0000000E+00   1.4491561E-04  -1.7086599E-03   0.0000000E+00   2.7713875E-04  -1.7178418E-03   0.0000000E+00   4.8161071E-04  -1.7330839E-03   0.0000000E+00   7.6266122E-04  -1.7559195E-03   0.0000000E+00   1.1080590E-03  -4.6884007E-04   0.0000000E+00  -5.9121441E-10  -4.6896856E-04   0.0000000E+00   2.6671414E-05  -4.6942916E-04   0.0000000E+00   6.9682006E-05  -4.7051921E-04   0.0000000E+00   1.4825669E-04  -4.7274990E-04   0.0000000E+00   2.8367547E-04  -4.7687962E-04   0.0000000E+00   4.9315917E-04  -4.8376614E-04   0.0000000E+00   7.8101549E-04  -4.9406092E-04   0.0000000E+00   1.1342590E-03   4.7559678E-04   0.0000000E+00  -4.7810360E-09   4.7560968E-04   0.0000000E+00   2.6816640E-05   4.7566849E-04   0.0000000E+00   7.0071386E-05   4.7580388E-04   0.0000000E+00   1.4913044E-04   4.7606896E-04   0.0000000E+00   2.8546277E-04   4.7650692E-04   0.0000000E+00   4.9642456E-04   4.7716251E-04   0.0000000E+00   7.8629761E-04   4.7815766E-04   0.0000000E+00   1.1417258E-03   1.3374644E-03   0.0000000E+00   6.3993494E-10   1.3376066E-03   0.0000000E+00   2.6568325E-05   1.3381358E-03   0.0000000E+00   6.9437345E-05   1.3393590E-03   0.0000000E+00   1.4782476E-04   1.3418460E-03   0.0000000E+00   2.8304072E-04   1.3463461E-03   0.0000000E+00   4.9234158E-04   1.3537279E-03   0.0000000E+00   7.7996316E-04   1.3648260E-03   0.0000000E+00   1.1325087E-03   2.2255511E-03   0.0000000E+00   3.3264407E-09   2.2258062E-03   0.0000000E+00   2.5983632E-05   2.2267641E-03   0.0000000E+00   6.7908157E-05   2.2289783E-03   0.0000000E+00   1.4459193E-04   2.2334401E-03   0.0000000E+00   2.7690694E-04   2.2415568E-03   0.0000000E+00   4.8176755E-04   2.2549401E-03   0.0000000E+00   7.6335151E-04   2.2751049E-03   0.0000000E+00   1.1084741E-03   3.1372893E-03   0.0000000E+00   5.4958056E-09   3.1376567E-03   0.0000000E+00   2.5090940E-05   3.1389934E-03   0.0000000E+00   6.5592270E-05   3.1420898E-03   0.0000000E+00   1.3966372E-04   3.1483150E-03   0.0000000E+00   2.6749657E-04   3.1596506E-03   0.0000000E+00   4.6546140E-04   3.1783774E-03   0.0000000E+00   7.3761959E-04   3.2066666E-03   0.0000000E+00   1.0711717E-03   4.0068473E-03   0.0000000E+00   4.9204979E-10   4.0073055E-03   0.0000000E+00   2.3944864E-05   4.0089795E-03   0.0000000E+00   6.2583676E-05   4.0128385E-03   0.0000000E+00   1.3325051E-04   4.0206108E-03   0.0000000E+00   2.5521562E-04   4.0347581E-03   0.0000000E+00   4.4413315E-04   4.0581604E-03   0.0000000E+00   7.0385879E-04   4.0935627E-03   0.0000000E+00   1.0221078E-03   4.7537354E-03   0.0000000E+00  -6.2399761E-09   4.7542844E-03   0.0000000E+00   2.2614868E-05   4.7562863E-03   0.0000000E+00   5.9051552E-05   4.7608917E-03   0.0000000E+00   1.2565458E-04   4.7700778E-03   0.0000000E+00   2.4058425E-04   4.7867312E-03   0.0000000E+00   4.1861006E-04   4.8141619E-03   0.0000000E+00   6.6334172E-04   4.8557073E-03   0.0000000E+00   9.6305087E-04   5.2305292E-03   0.0000000E+00   2.7667757E-09   5.2319653E-03   0.0000000E+00   2.3260833E-05   5.2359435E-03   0.0000000E+00   5.8860191E-05   5.2444688E-03   0.0000000E+00   1.2201841E-04   5.2594710E-03   0.0000000E+00   2.2934841E-04   5.2836062E-03   0.0000000E+00   3.9494294E-04   5.3211199E-03   0.0000000E+00   6.2239746E-04   5.3748470E-03   0.0000000E+00   9.0077356E-04   5.3315251E-03   0.0000000E+00  -1.7547754E-09   5.3339517E-03   0.0000000E+00   2.7717264E-05   5.3416248E-03   0.0000000E+00   6.6130422E-05   5.3555444E-03   0.0000000E+00   1.2791369E-04   5.3776735E-03   0.0000000E+00   2.2741324E-04   5.4110182E-03   0.0000000E+00   3.7995749E-04   5.4609147E-03   0.0000000E+00   5.8937346E-04   5.5307811E-03   0.0000000E+00   8.4812415E-04   5.2571604E-03   0.0000000E+00  -2.5470843E-09   5.2593881E-03   0.0000000E+00   2.9233590E-05   5.2669523E-03   0.0000000E+00   6.7739238E-05   5.2807955E-03   0.0000000E+00   1.2677808E-04   5.3058979E-03   0.0000000E+00   2.2130432E-04   5.3441725E-03   0.0000000E+00   3.6332602E-04   5.3974986E-03   0.0000000E+00   5.5503350E-04   5.4741744E-03   0.0000000E+00   7.9259975E-04   5.1041404E-03   0.0000000E+00  -5.8467620E-11   5.1059355E-03   0.0000000E+00   3.1396154E-05   5.1118582E-03   0.0000000E+00   6.9649235E-05   5.1236707E-03   0.0000000E+00   1.2605033E-04   5.1442352E-03   0.0000000E+00   2.1233859E-04   5.1784632E-03   0.0000000E+00   3.4080891E-04   5.2332832E-03   0.0000000E+00   5.1752431E-04   5.3125811E-03   0.0000000E+00   7.3451933E-04   4.9071237E-03   0.0000000E+00  -3.3401952E-09   4.9086036E-03   0.0000000E+00   3.3182609E-05   4.9132574E-03   0.0000000E+00   7.4103242E-05   4.9232906E-03   0.0000000E+00   1.2884187E-04   4.9415561E-03   0.0000000E+00   2.0940242E-04   4.9725766E-03   0.0000000E+00   3.2441449E-04   5.0243735E-03   0.0000000E+00   4.8281526E-04   5.1023280E-03   0.0000000E+00   6.8177702E-04   4.6625347E-03   0.0000000E+00  -1.4564566E-09   4.6637119E-03   0.0000000E+00   3.4346471E-05   4.6684635E-03   0.0000000E+00   7.5443051E-05   4.6780179E-03   0.0000000E+00   1.3035820E-04   4.6957335E-03   0.0000000E+00   2.0632007E-04   4.7277645E-03   0.0000000E+00   3.1247741E-04   4.7790012E-03   0.0000000E+00   4.5469965E-04   4.8575597E-03   0.0000000E+00   6.3660828E-04   4.3692770E-03   0.0000000E+00   2.0227149E-09   4.3707839E-03   0.0000000E+00   3.5078443E-05   4.3758820E-03   0.0000000E+00   7.5838565E-05   4.3864916E-03   0.0000000E+00   1.2893045E-04   4.4058487E-03   0.0000000E+00   2.0164320E-04   4.4394745E-03   0.0000000E+00   3.0111097E-04   4.4941567E-03   0.0000000E+00   4.3264995E-04   4.5731957E-03   0.0000000E+00   5.9684378E-04   4.0362757E-03   0.0000000E+00   1.3293571E-11   4.0379879E-03   0.0000000E+00   3.5770736E-05   4.0443707E-03   0.0000000E+00   7.6090750E-05   4.0569343E-03   0.0000000E+00   1.2832538E-04   4.0797982E-03   0.0000000E+00   1.9766249E-04   4.1171657E-03   0.0000000E+00   2.9036435E-04   4.1762250E-03   0.0000000E+00   4.1140348E-04   4.2628497E-03   0.0000000E+00   5.6075247E-04   3.6838730E-03   0.0000000E+00   1.4826996E-09   3.6862255E-03   0.0000000E+00   3.6311314E-05   3.6946167E-03   0.0000000E+00   7.7224082E-05   3.7107673E-03   0.0000000E+00   1.2822298E-04   3.7385675E-03   0.0000000E+00   1.9527036E-04   3.7829855E-03   0.0000000E+00   2.8168588E-04   3.8478926E-03   0.0000000E+00   3.8968006E-04   3.9388482E-03   0.0000000E+00   5.2238756E-04   3.3339371E-03   0.0000000E+00   9.8354647E-10   3.3373719E-03   0.0000000E+00   3.7524274E-05   3.3488164E-03   0.0000000E+00   7.9566169E-05   3.3702396E-03   0.0000000E+00   1.2992093E-04   3.4047428E-03   0.0000000E+00   1.9330371E-04   3.4551756E-03   0.0000000E+00   2.6981105E-04   3.5276245E-03   0.0000000E+00   3.6733516E-04   3.6281438E-03   0.0000000E+00   4.8885192E-04   3.0087794E-03   0.0000000E+00  -1.0008814E-09   3.0134728E-03   0.0000000E+00   3.9008355E-05   3.0281777E-03   0.0000000E+00   8.1734128E-05   3.0547881E-03   0.0000000E+00   1.3018896E-04   3.0945365E-03   0.0000000E+00   1.8700839E-04   3.1512859E-03   0.0000000E+00   2.5535526E-04   3.2299410E-03   0.0000000E+00   3.3985436E-04   3.3406909E-03   0.0000000E+00   4.5828038E-04   2.7236836E-03   0.0000000E+00  -4.1756046E-10   2.7291856E-03   0.0000000E+00   3.8619099E-05   2.7459424E-03   0.0000000E+00   7.9576675E-05   2.7741864E-03   0.0000000E+00   1.2307895E-04   2.8165290E-03   0.0000000E+00   1.7205485E-04   2.8797877E-03   0.0000000E+00   2.3235074E-04   2.9654934E-03   0.0000000E+00   3.1448065E-04   3.1016786E-03   0.0000000E+00   4.5158903E-04   2.4751974E-03   0.0000000E+00  -2.4612853E-11   2.4804051E-03   0.0000000E+00   3.3436936E-05   2.4972688E-03   0.0000000E+00   6.8558387E-05   2.5268339E-03   0.0000000E+00   1.0478641E-04   2.5762320E-03   0.0000000E+00   1.5142660E-04   2.6459114E-03   0.0000000E+00   2.1041450E-04   2.7619649E-03   0.0000000E+00   3.1462382E-04   2.9480597E-03   0.0000000E+00   5.1430357E-04   2.2560209E-03   0.0000000E+00   2.6112196E-10   2.2611869E-03   0.0000000E+00   2.5055100E-05   2.2803082E-03   0.0000000E+00   5.3142558E-05   2.3167792E-03   0.0000000E+00   8.7776818E-05   2.3792647E-03   0.0000000E+00   1.4029843E-04   2.4841223E-03   0.0000000E+00   2.2947062E-04   2.6557546E-03   0.0000000E+00   3.9322104E-04   2.9384855E-03   0.0000000E+00   7.0444593E-04   2.0851961E-03   0.0000000E+00   4.9342258E-10   2.0942232E-03   0.0000000E+00   2.1636552E-05   2.1223461E-03   0.0000000E+00   5.2532385E-05   2.1793162E-03   0.0000000E+00   1.0434461E-04   2.2823159E-03   0.0000000E+00   1.9550975E-04   2.4562909E-03   0.0000000E+00   3.5387470E-04   2.7572052E-03   0.0000000E+00   6.2711653E-04   3.2401562E-03   0.0000000E+00   1.0786877E-03   2.0440514E-03   0.0000000E+00  -4.9372381E-11   2.0603780E-03   0.0000000E+00   4.0966024E-05   2.1146829E-03   0.0000000E+00   1.0183550E-04   2.2266407E-03   0.0000000E+00   2.0676092E-04   2.4295046E-03   0.0000000E+00   3.8139985E-04   2.7726002E-03   0.0000000E+00   6.4647017E-04   3.3046475E-03   0.0000000E+00   1.0216243E-03   4.0142769E-03   0.0000000E+00   1.5401058E-03   2.4231181E-03   0.0000000E+00  -3.2854960E-10   2.4597454E-03   0.0000000E+00   9.3667702E-05   2.5784278E-03   0.0000000E+00   2.1779278E-04   2.8050330E-03   0.0000000E+00   4.0093425E-04   3.1690265E-03   0.0000000E+00   6.5965235E-04   3.6799375E-03   0.0000000E+00   1.0028596E-03   4.3047019E-03   0.0000000E+00   1.4499468E-03   4.9594063E-03   0.0000000E+00   2.0244340E-03   3.5730200E-03   0.0000000E+00  -2.8226371E-10   3.6147952E-03   0.0000000E+00   1.4614778E-04   3.7467727E-03   0.0000000E+00   3.3463494E-04   3.9835530E-03   0.0000000E+00   6.0134073E-04   4.3335361E-03   0.0000000E+00   9.6044276E-04   4.7653238E-03   0.0000000E+00   1.3993955E-03   5.2012000E-03   0.0000000E+00   1.9117299E-03   5.5610193E-03   0.0000000E+00   2.4904786E-03   4.8766714E-03   0.0000000E+00  -3.3691199E-11   4.8986827E-03   0.0000000E+00   2.0315709E-04   4.9658231E-03   0.0000000E+00   4.6447627E-04   5.0801258E-03   0.0000000E+00   8.3008839E-04   5.2357968E-03   0.0000000E+00   1.3048773E-03   5.3977272E-03   0.0000000E+00   1.8274386E-03   5.4974090E-03   0.0000000E+00   2.3716581E-03   5.4466128E-03   0.0000000E+00   1.7534445E-10   5.4421108E-03   0.0000000E+00   2.6225793E-04   5.4268888E-03   0.0000000E+00   6.0114387E-04   5.3950269E-03   0.0000000E+00   1.0735263E-03   5.3422735E-03   0.0000000E+00   1.6738434E-03  -3.4534949E-08   0.0000000E+00   2.2646576E-09  -3.2883307E-08   0.0000000E+00   2.8067262E-09  -3.0828595E-08   0.0000000E+00   3.3923906E-09  -2.8317872E-08   0.0000000E+00   4.0000256E-09  -2.5294451E-08   0.0000000E+00   4.6044817E-09  -2.1722217E-08   0.0000000E+00   5.1256452E-09  -1.7562513E-08   0.0000000E+00   5.4960734E-09  -6.4410983E-08   0.0000000E+00   4.2659654E-09  -6.1411654E-08   0.0000000E+00   5.2749161E-09  -5.7668839E-08   0.0000000E+00   6.3634142E-09  -5.3075549E-08   0.0000000E+00   7.4930755E-09  -4.7510461E-08   0.0000000E+00   8.6181231E-09  -4.0879485E-08   0.0000000E+00   9.5896073E-09  -3.3058409E-08   0.0000000E+00   1.0286151E-08  -2.4238053E-08   0.0000000E+00   1.0449718E-08  -1.1696489E-07   0.0000000E+00   7.7569853E-09  -1.1167805E-07   0.0000000E+00   9.5819912E-09  -1.0505855E-07   0.0000000E+00   1.1554070E-08  -9.6899342E-08   0.0000000E+00   1.3608904E-08  -8.6959943E-08   0.0000000E+00   1.5665231E-08  -7.5045783E-08   0.0000000E+00   1.7469262E-08  -6.0934745E-08   0.0000000E+00   1.8809724E-08  -4.4894119E-08   0.0000000E+00   1.9037579E-08  -2.0739974E-07   0.0000000E+00   1.3756196E-08  -1.9833627E-07   0.0000000E+00   1.6978762E-08  -1.8693983E-07   0.0000000E+00   2.0488219E-08  -1.7282942E-07   0.0000000E+00   2.4154314E-08  -1.5554404E-07   0.0000000E+00   2.7831911E-08  -1.3467485E-07   0.0000000E+00   3.1104779E-08  -1.0976901E-07   0.0000000E+00   3.3567083E-08  -8.1171549E-08   0.0000000E+00   3.4034457E-08  -3.6070713E-07   0.0000000E+00   2.3862981E-08  -3.4552579E-07   0.0000000E+00   2.9444001E-08  -3.2634583E-07   0.0000000E+00   3.5569574E-08  -3.0247625E-07   0.0000000E+00   4.1980663E-08  -2.7304904E-07   0.0000000E+00   4.8427257E-08  -2.3720683E-07   0.0000000E+00   5.4258326E-08  -1.9405256E-07   0.0000000E+00   5.8737267E-08  -1.4401927E-07   0.0000000E+00   5.9798154E-08  -6.1707419E-07   0.0000000E+00   4.0576783E-08  -5.9215154E-07   0.0000000E+00   5.0076970E-08  -5.6050948E-07   0.0000000E+00   6.0573122E-08  -5.2090348E-07   0.0000000E+00   7.1592581E-08  -4.7172560E-07   0.0000000E+00   8.2733166E-08  -4.1128101E-07   0.0000000E+00   9.2988699E-08  -3.3781583E-07   0.0000000E+00   1.0110249E-07  -2.5176496E-07   0.0000000E+00   1.0351066E-07  -1.0401980E-06   0.0000000E+00   6.7721352E-08  -1.0001794E-06   0.0000000E+00   8.3617202E-08  -9.4907688E-07   0.0000000E+00   1.0133418E-07  -8.8459387E-07   0.0000000E+00   1.2007631E-07  -8.0380272E-07   0.0000000E+00   1.3920257E-07  -7.0355748E-07   0.0000000E+00   1.5707985E-07  -5.8047226E-07   0.0000000E+00   1.7171725E-07  -4.3471897E-07   0.0000000E+00   1.7702750E-07  -1.7291195E-06   0.0000000E+00   1.1095218E-07  -1.6660558E-06   0.0000000E+00   1.3724588E-07  -1.5848756E-06   0.0000000E+00   1.6690913E-07  -1.4816176E-06   0.0000000E+00   1.9854471E-07  -1.3511941E-06   0.0000000E+00   2.3113479E-07  -1.1880946E-06   0.0000000E+00   2.6196113E-07  -9.8576118E-07   0.0000000E+00   2.8817487E-07  -7.4307002E-07   0.0000000E+00   2.9952048E-07  -2.8325107E-06   0.0000000E+00   1.7893132E-07  -2.7343963E-06   0.0000000E+00   2.2204196E-07  -2.6073737E-06   0.0000000E+00   2.7119185E-07  -2.4447675E-06   0.0000000E+00   3.2400948E-07  -2.2381857E-06   0.0000000E+00   3.7870885E-07  -1.9784070E-06   0.0000000E+00   4.3085257E-07  -1.6531617E-06   0.0000000E+00   4.7687075E-07  -1.2575097E-06   0.0000000E+00   5.0013989E-07  -4.5707538E-06   0.0000000E+00   2.8498872E-07  -4.4200692E-06   0.0000000E+00   3.5457703E-07  -4.2245902E-06   0.0000000E+00   4.3457263E-07  -3.9732017E-06   0.0000000E+00   5.2139421E-07  -3.6529252E-06   0.0000000E+00   6.1089321E-07  -3.2475257E-06   0.0000000E+00   6.9768521E-07  -2.7365857E-06   0.0000000E+00   7.7603681E-07  -2.1055876E-06   0.0000000E+00   8.2169419E-07  -7.2652206E-06   0.0000000E+00   4.4814965E-07  -7.0383844E-06   0.0000000E+00   5.5831111E-07  -6.7439078E-06   0.0000000E+00   6.8543625E-07  -6.3630305E-06   0.0000000E+00   8.2591509E-07  -5.8773485E-06   0.0000000E+00   9.6836538E-07  -5.2573191E-06   0.0000000E+00   1.1104330E-06  -4.4705343E-06   0.0000000E+00   1.2435349E-06  -3.4837460E-06   0.0000000E+00   1.3331435E-06  -1.1376585E-05   0.0000000E+00   6.9373732E-07  -1.1043282E-05   0.0000000E+00   8.6470453E-07  -1.0609628E-05   0.0000000E+00   1.0640913E-06  -1.0044508E-05   0.0000000E+00   1.2923433E-06  -9.3228837E-06   0.0000000E+00   1.5272552E-06  -8.3918458E-06   0.0000000E+00   1.7826090E-06  -7.1977920E-06   0.0000000E+00   2.0575003E-06  -5.6694898E-06   0.0000000E+00   2.3055443E-06  -1.7569097E-05   0.0000000E+00   1.0545610E-06  -1.7090975E-05   0.0000000E+00   1.3162868E-06  -1.6466818E-05   0.0000000E+00   1.6270041E-06  -1.5648266E-05   0.0000000E+00   2.0012369E-06  -1.4605024E-05   0.0000000E+00   2.4074905E-06  -1.3249133E-05   0.0000000E+00   2.9081880E-06  -1.1516605E-05   0.0000000E+00   3.5279127E-06  -9.3208200E-06   0.0000000E+00   4.1594099E-06  -2.6812138E-05   0.0000000E+00   1.5752233E-06  -2.6143478E-05   0.0000000E+00   1.9705917E-06  -2.5263285E-05   0.0000000E+00   2.4577296E-06  -2.4104756E-05   0.0000000E+00   3.0895173E-06  -2.2631119E-05   0.0000000E+00   3.8437443E-06  -2.0737500E-05   0.0000000E+00   4.7006283E-06  -1.8317005E-05   0.0000000E+00   5.9335080E-06  -1.5241760E-05   0.0000000E+00   7.1554919E-06  -4.0527175E-05   0.0000000E+00   2.3175469E-06  -3.9612671E-05   0.0000000E+00   2.9080243E-06  -3.8398783E-05   0.0000000E+00   3.6495048E-06  -3.6795420E-05   0.0000000E+00   4.6206992E-06  -3.4764475E-05   0.0000000E+00   5.8282749E-06  -3.2140815E-05   0.0000000E+00   7.5214407E-06  -2.8793202E-05   0.0000000E+00   9.7950006E-06  -2.4444631E-05   0.0000000E+00   1.2014946E-05  -6.0763672E-05   0.0000000E+00   3.3736717E-06  -5.9536331E-05   0.0000000E+00   4.2479428E-06  -5.7891288E-05   0.0000000E+00   5.3644462E-06  -5.5702210E-05   0.0000000E+00   6.8515096E-06  -5.2918200E-05   0.0000000E+00   8.7551634E-06  -4.9310922E-05   0.0000000E+00   1.1467194E-05  -4.4675828E-05   0.0000000E+00   1.5140547E-05  -3.8531649E-05   0.0000000E+00   1.8727149E-05  -9.0371395E-05   0.0000000E+00   4.8708121E-06  -8.8745830E-05   0.0000000E+00   6.1526339E-06  -8.6543616E-05   0.0000000E+00   7.8151434E-06  -8.3576946E-05   0.0000000E+00   1.0080747E-05  -7.9777317E-05   0.0000000E+00   1.3059559E-05  -7.4796641E-05   0.0000000E+00   1.7399983E-05  -6.8320005E-05   0.0000000E+00   2.3352057E-05  -5.9579528E-05   0.0000000E+00   2.9207351E-05  -1.3313365E-04   0.0000000E+00   7.0142059E-06  -1.3100766E-04   0.0000000E+00   8.8685829E-06  -1.2811022E-04   0.0000000E+00   1.1274697E-05  -1.2416471E-04   0.0000000E+00   1.4601367E-05  -1.1903067E-04   0.0000000E+00   1.9066272E-05  -1.1220128E-04   0.0000000E+00   2.5659732E-05  -1.0314699E-04   0.0000000E+00   3.4888468E-05  -9.0704627E-05   0.0000000E+00   4.4152977E-05  -1.9379187E-04   0.0000000E+00   1.0128879E-05  -1.9107165E-04   0.0000000E+00   1.2766837E-05  -1.8737279E-04   0.0000000E+00   1.6171822E-05  -1.8230919E-04   0.0000000E+00   2.0884218E-05  -1.7559098E-04   0.0000000E+00   2.7319848E-05  -1.6645601E-04   0.0000000E+00   3.6950201E-05  -1.5399622E-04   0.0000000E+00   5.0760624E-05  -1.3643818E-04   0.0000000E+00   6.5052693E-05  -2.7814589E-04   0.0000000E+00   1.4680181E-05  -2.7477546E-04   0.0000000E+00   1.8378980E-05  -2.7025316E-04   0.0000000E+00   2.3105915E-05  -2.6408129E-04   0.0000000E+00   2.9637209E-05  -2.5574578E-04   0.0000000E+00   3.8811562E-05  -2.4408555E-04   0.0000000E+00   5.2863837E-05  -2.2753009E-04   0.0000000E+00   7.3673407E-05  -2.0329656E-04   0.0000000E+00   9.5938682E-05  -3.9363554E-04   0.0000000E+00   2.1366472E-05  -3.8963996E-04   0.0000000E+00   2.6504094E-05  -3.8442333E-04   0.0000000E+00   3.2919983E-05  -3.7740887E-04   0.0000000E+00   4.1674833E-05  -3.6782803E-04   0.0000000E+00   5.4271091E-05  -3.5391594E-04   0.0000000E+00   7.4140320E-05  -3.3296863E-04   0.0000000E+00   1.0480883E-04  -3.0053686E-04   0.0000000E+00   1.3939929E-04  -5.5070192E-04   0.0000000E+00   3.1207066E-05  -5.4622744E-04   0.0000000E+00   3.8361057E-05  -5.4061046E-04   0.0000000E+00   4.6975896E-05  -5.3335726E-04   0.0000000E+00   5.8259582E-05  -5.2341254E-04   0.0000000E+00   7.5294149E-05  -5.0823629E-04   0.0000000E+00   1.0288336E-04  -4.8330560E-04   0.0000000E+00   1.4788227E-04  -4.4141110E-04   0.0000000E+00   2.0091643E-04  -7.6489011E-04   0.0000000E+00   4.5649369E-05  -7.6019223E-04   0.0000000E+00   5.5830496E-05  -7.5457012E-04   0.0000000E+00   6.7483576E-05  -7.4783247E-04   0.0000000E+00   8.1993116E-05  -7.3886832E-04   0.0000000E+00   1.0421994E-04  -7.2438410E-04   0.0000000E+00   1.4122020E-04  -6.9705845E-04   0.0000000E+00   2.0563115E-04  -6.4537727E-04   0.0000000E+00   2.8650239E-04  -1.0587435E-03   0.0000000E+00   6.6678069E-05  -1.0540516E-03   0.0000000E+00   8.1732542E-05  -1.0484983E-03   0.0000000E+00   9.8249053E-05  -1.0427190E-03   0.0000000E+00   1.1735409E-04  -1.0362327E-03   0.0000000E+00   1.4597125E-04  -1.0256189E-03   0.0000000E+00   1.9405388E-04  -9.9979015E-04   0.0000000E+00   2.8446628E-04  -9.4042765E-04   0.0000000E+00   4.0722633E-04  -1.4616353E-03   0.0000000E+00   9.6937270E-05  -1.4569325E-03   0.0000000E+00   1.2007350E-04  -1.4506164E-03   0.0000000E+00   1.4557510E-04  -1.4451168E-03   0.0000000E+00   1.7256232E-04  -1.4421716E-03   0.0000000E+00   2.0931881E-04  -1.4405743E-03   0.0000000E+00   2.7017423E-04  -1.4248032E-03   0.0000000E+00   3.9464099E-04  -1.3665649E-03   0.0000000E+00   5.7863741E-04  -2.0060854E-03   0.0000000E+00   1.3843772E-04  -2.0004418E-03   0.0000000E+00   1.7617809E-04  -1.9913684E-03   0.0000000E+00   2.1763994E-04  -1.9829888E-03   0.0000000E+00   2.6119006E-04  -1.9838216E-03   0.0000000E+00   3.1000123E-04  -1.9993617E-03   0.0000000E+00   3.8669704E-04  -2.0115902E-03   0.0000000E+00   5.5435952E-04  -1.9783995E-03   0.0000000E+00   8.2515046E-04  -2.7184172E-03   0.0000000E+00   1.9613846E-04  -2.7117555E-03   0.0000000E+00   2.5373779E-04  -2.6962690E-03   0.0000000E+00   3.2257772E-04  -2.6788351E-03   0.0000000E+00   3.9899044E-04  -2.6813929E-03   0.0000000E+00   4.7420865E-04  -2.7253544E-03   0.0000000E+00   5.7737058E-04  -2.7994455E-03   0.0000000E+00   8.0272777E-04  -2.8437967E-03   0.0000000E+00   1.1975103E-03  -3.6084652E-03   0.0000000E+00   2.7322950E-04  -3.5991659E-03   0.0000000E+00   3.6031401E-04  -3.5798161E-03   0.0000000E+00   4.6279936E-04  -3.5550303E-03   0.0000000E+00   5.8147666E-04  -3.5500827E-03   0.0000000E+00   7.2135282E-04  -3.6222378E-03   0.0000000E+00   9.0216863E-04  -3.8122968E-03   0.0000000E+00   1.2155618E-03  -4.0290421E-03   0.0000000E+00   1.7751043E-03  -4.6545267E-03   0.0000000E+00   3.7058970E-04  -4.6506720E-03   0.0000000E+00   4.8753995E-04  -4.6313582E-03   0.0000000E+00   6.3345610E-04  -4.6104095E-03   0.0000000E+00   8.1017270E-04  -4.6097776E-03   0.0000000E+00   1.0494653E-03  -4.7075446E-03   0.0000000E+00   1.4027159E-03  -5.0353650E-03   0.0000000E+00   1.9192816E-03  -5.5662836E-03   0.0000000E+00   2.7191252E-03  -5.7958099E-03   0.0000000E+00   4.7718955E-04  -5.7983985E-03   0.0000000E+00   6.4009428E-04  -5.8028894E-03   0.0000000E+00   8.2412123E-04  -5.8086501E-03   0.0000000E+00   1.0843510E-03  -5.8485162E-03   0.0000000E+00   1.4813353E-03  -5.9856544E-03   0.0000000E+00   2.1426629E-03  -6.4391559E-03   0.0000000E+00   3.1326381E-03  -7.3943506E-03   0.0000000E+00   4.2878212E-03  -6.9352561E-03   0.0000000E+00   5.9267838E-04  -6.9763097E-03   0.0000000E+00   7.7181472E-04  -7.0184562E-03   0.0000000E+00   1.0279652E-03  -7.0730918E-03   0.0000000E+00   1.4197351E-03  -7.1898191E-03   0.0000000E+00   2.1044696E-03  -7.4789952E-03   0.0000000E+00   3.3217792E-03  -8.0544082E-03   0.0000000E+00   5.1628500E-03  -9.2955073E-03   0.0000000E+00   6.9729979E-03  -8.0267852E-03   0.0000000E+00   6.8167155E-04  -8.1099058E-03   0.0000000E+00   9.0673612E-04  -8.2002059E-03   0.0000000E+00   1.2536935E-03  -8.3504347E-03   0.0000000E+00   1.8963021E-03  -8.5786460E-03   0.0000000E+00   3.1787017E-03  -8.8783307E-03   0.0000000E+00   5.5517694E-03  -9.5106456E-03   0.0000000E+00   8.7421080E-03  -1.0956844E-02   0.0000000E+00   1.1443199E-02  -9.0054311E-03   0.0000000E+00   7.9570839E-04  -9.1296323E-03   0.0000000E+00   1.0802400E-03  -9.3090683E-03   0.0000000E+00   1.5978449E-03  -9.5467269E-03   0.0000000E+00   2.7483650E-03  -9.7906068E-03   0.0000000E+00   5.1625092E-03  -1.0005553E-02   0.0000000E+00   9.3489261E-03  -1.0500487E-02   0.0000000E+00   1.4561591E-02  -1.1997948E-02   0.0000000E+00   1.8348906E-02  -9.6776914E-03   0.0000000E+00   9.5722033E-04  -9.8373061E-03   0.0000000E+00   1.3266552E-03  -1.0062412E-02   0.0000000E+00   2.1253226E-03  -1.0317476E-02   0.0000000E+00   3.9593698E-03  -1.0528294E-02   0.0000000E+00   7.7529848E-03  -1.0610525E-02   0.0000000E+00   1.4213844E-02  -1.0917334E-02   0.0000000E+00   2.1836130E-02  -1.2158190E-02   0.0000000E+00   2.6696758E-02  -9.6348887E-03   0.0000000E+00   1.0933398E-03  -9.7834049E-03   0.0000000E+00   1.5398546E-03  -9.9853314E-03   0.0000000E+00   2.5980955E-03  -1.0199253E-02   0.0000000E+00   5.0880495E-03  -1.0310950E-02   0.0000000E+00   1.0138589E-02  -1.0243398E-02   0.0000000E+00   1.8532803E-02  -1.0357628E-02   0.0000000E+00   2.8219018E-02  -1.1153542E-02   0.0000000E+00   3.3970445E-02  -8.2843881E-03   0.0000000E+00   1.2202767E-03  -8.3978297E-03   0.0000000E+00   1.7306283E-03  -8.5321097E-03   0.0000000E+00   2.9843668E-03  -8.6583374E-03   0.0000000E+00   5.9086313E-03  -8.7228622E-03   0.0000000E+00   1.1772937E-02  -8.6804936E-03   0.0000000E+00   2.1441577E-02  -8.6736893E-03   0.0000000E+00   3.2427885E-02  -8.8720014E-03   0.0000000E+00   3.8752981E-02  -5.8441730E-03   0.0000000E+00   1.3426086E-03  -5.9333076E-03   0.0000000E+00   1.8981989E-03  -6.0369107E-03   0.0000000E+00   3.2532976E-03  -6.1397469E-03   0.0000000E+00   6.3983453E-03  -6.2187514E-03   0.0000000E+00   1.2691215E-02  -6.2449928E-03   0.0000000E+00   2.3059031E-02  -6.2333238E-03   0.0000000E+00   3.4805544E-02  -6.1957040E-03   0.0000000E+00   4.1551087E-02  -3.5526452E-03   0.0000000E+00   1.4342312E-03  -3.6158015E-03   0.0000000E+00   2.0170428E-03  -3.6891466E-03   0.0000000E+00   3.4233974E-03  -3.7628212E-03   0.0000000E+00   6.6777058E-03  -3.8208493E-03   0.0000000E+00   1.3183626E-02  -3.8474349E-03   0.0000000E+00   2.3906443E-02  -3.8354222E-03   0.0000000E+00   3.6074895E-02  -3.7921078E-03   0.0000000E+00   4.3105010E-02  -1.7868823E-03   0.0000000E+00   1.4955822E-03  -1.8252264E-03   0.0000000E+00   2.0931477E-03  -1.8688679E-03   0.0000000E+00   3.5231786E-03  -1.9124125E-03   0.0000000E+00   6.8270178E-03  -1.9465878E-03   0.0000000E+00   1.3431175E-02  -1.9614620E-03   0.0000000E+00   2.4323391E-02  -1.9521355E-03   0.0000000E+00   3.6710430E-02  -1.9220996E-03   0.0000000E+00   4.3904841E-02  -5.0778064E-04   0.0000000E+00   1.5291842E-03  -5.2401121E-04   0.0000000E+00   2.1329024E-03  -5.4134481E-04   0.0000000E+00   3.5704519E-03  -5.5770430E-04   0.0000000E+00   6.8897502E-03  -5.6984311E-04   0.0000000E+00   1.3527229E-02  -5.7385286E-04   0.0000000E+00   2.4483144E-02  -5.6749611E-04   0.0000000E+00   3.6964044E-02  -5.5137137E-04   0.0000000E+00   4.4241257E-02   4.7986538E-04   0.0000000E+00   1.5381433E-03   4.8304329E-04   0.0000000E+00   2.1416228E-03   4.8822211E-04   0.0000000E+00   3.5760859E-03   4.9483776E-04   0.0000000E+00   6.8886853E-03   5.0148030E-04   0.0000000E+00   1.3516731E-02   5.0701160E-04   0.0000000E+00   2.4464628E-02   5.1101285E-04   0.0000000E+00   3.6950510E-02   5.1458454E-04   0.0000000E+00   4.4247098E-02   1.3803735E-03   0.0000000E+00   1.5252614E-03   1.4008613E-03   0.0000000E+00   2.1232630E-03   1.4256460E-03   0.0000000E+00   3.5473944E-03   1.4516995E-03   0.0000000E+00   6.8403473E-03   1.4741233E-03   0.0000000E+00   1.3434241E-02   1.4880638E-03   0.0000000E+00   2.4331592E-02   1.4908337E-03   0.0000000E+00   3.6764447E-02   1.4839547E-03   0.0000000E+00   4.4030327E-02   2.3031824E-03   0.0000000E+00   1.4927242E-03   2.3394495E-03   0.0000000E+00   2.0781183E-03   2.3819066E-03   0.0000000E+00   3.4742490E-03   2.4251689E-03   0.0000000E+00   6.7050960E-03   2.4614604E-03   0.0000000E+00   1.3177602E-02   2.4832180E-03   0.0000000E+00   2.3879420E-02   2.4858746E-03   0.0000000E+00   3.6094118E-02   2.4703902E-03   0.0000000E+00   4.3234877E-02   3.2460869E-03   0.0000000E+00   1.4423465E-03   3.2968030E-03   0.0000000E+00   2.0078376E-03   3.3555152E-03   0.0000000E+00   3.3576288E-03   3.4145052E-03   0.0000000E+00   6.4827539E-03   3.4634478E-03   0.0000000E+00   1.2746128E-02   3.4925351E-03   0.0000000E+00   2.3105584E-02   3.4956094E-03   0.0000000E+00   3.4937125E-02   3.4730958E-03   0.0000000E+00   4.1859828E-02   4.1430220E-03   0.0000000E+00   1.3759626E-03   4.2067342E-03   0.0000000E+00   1.9145350E-03   4.2802086E-03   0.0000000E+00   3.2003417E-03   4.3535833E-03   0.0000000E+00   6.1788387E-03   4.4141212E-03   0.0000000E+00   1.2150632E-02   4.4499999E-03   0.0000000E+00   2.2032175E-02   4.4537378E-03   0.0000000E+00   3.3328958E-02   4.4256230E-03   0.0000000E+00   3.9949223E-02   4.9138311E-03   0.0000000E+00   1.2958146E-03   4.9889307E-03   0.0000000E+00   1.8011752E-03   5.0756200E-03   0.0000000E+00   3.0074765E-03   5.1617147E-03   0.0000000E+00   5.8035008E-03   5.2326126E-03   0.0000000E+00   1.1412473E-02   5.2746655E-03   0.0000000E+00   2.0700492E-02   5.2787750E-03   0.0000000E+00   3.1333003E-02   5.2468716E-03   0.0000000E+00   3.7579559E-02   5.4487372E-03   0.0000000E+00   1.2099950E-03   5.5454769E-03   0.0000000E+00   1.6758781E-03   5.6622894E-03   0.0000000E+00   2.7876240E-03   5.7722847E-03   0.0000000E+00   5.3720991E-03   5.8549866E-03   0.0000000E+00   1.0563689E-02   5.9024384E-03   0.0000000E+00   1.9168973E-02   5.8929618E-03   0.0000000E+00   2.9035525E-02   5.8728280E-03   0.0000000E+00   3.4857020E-02   5.6267912E-03   0.0000000E+00   1.1361695E-03   5.7604457E-03   0.0000000E+00   1.5590782E-03   5.9371302E-03   0.0000000E+00   2.5576630E-03   6.1150379E-03   0.0000000E+00   4.9039144E-03   6.2433053E-03   0.0000000E+00   9.6397065E-03   6.2990710E-03   0.0000000E+00   1.7504076E-02   6.2839673E-03   0.0000000E+00   2.6541105E-02   6.2722140E-03   0.0000000E+00   3.1901494E-02   5.5801836E-03   0.0000000E+00   1.0590444E-03   5.7317684E-03   0.0000000E+00   1.4431172E-03   5.9459312E-03   0.0000000E+00   2.3256319E-03   6.1819688E-03   0.0000000E+00   4.4202353E-03   6.3785557E-03   0.0000000E+00   8.6822035E-03   6.4845271E-03   0.0000000E+00   1.5781742E-02   6.5114191E-03   0.0000000E+00   2.3966525E-02   6.5041315E-03   0.0000000E+00   2.8835706E-02   5.4211100E-03   0.0000000E+00   9.8131050E-04   5.5782194E-03   0.0000000E+00   1.3226767E-03   5.8077751E-03   0.0000000E+00   2.1001331E-03   6.0866536E-03   0.0000000E+00   3.9474550E-03   6.3599972E-03   0.0000000E+00   7.7449814E-03   6.5377662E-03   0.0000000E+00   1.4088614E-02   6.6403910E-03   0.0000000E+00   2.1408720E-02   6.7024641E-03   0.0000000E+00   2.5777342E-02   5.2118301E-03   0.0000000E+00   9.0872496E-04   5.3557972E-03   0.0000000E+00   1.2148226E-03   5.5907168E-03   0.0000000E+00   1.8901622E-03   5.9170192E-03   0.0000000E+00   3.5193269E-03   6.2882090E-03   0.0000000E+00   6.8898294E-03   6.5609599E-03   0.0000000E+00   1.2510943E-02   6.8035224E-03   0.0000000E+00   1.8967928E-02   7.0364745E-03   0.0000000E+00   2.2829263E-02   4.9640317E-03   0.0000000E+00   8.4936380E-04   5.1112147E-03   0.0000000E+00   1.1239382E-03   5.3354143E-03   0.0000000E+00   1.7276409E-03   5.7114367E-03   0.0000000E+00   3.1778810E-03   6.2101134E-03   0.0000000E+00   6.1810706E-03   6.6391588E-03   0.0000000E+00   1.1131916E-02   7.1077100E-03   0.0000000E+00   1.6730990E-02   7.5811883E-03   0.0000000E+00   2.0051034E-02   4.6834070E-03   0.0000000E+00   7.9168502E-04   4.8364000E-03   0.0000000E+00   1.0590800E-03   5.0709364E-03   0.0000000E+00   1.6183961E-03   5.5055479E-03   0.0000000E+00   2.9634328E-03   6.1462643E-03   0.0000000E+00   5.6713140E-03   6.8133231E-03   0.0000000E+00   1.0017565E-02   7.5905970E-03   0.0000000E+00   1.4758672E-02   8.3932979E-03   0.0000000E+00   1.7501445E-02   4.3750620E-03   0.0000000E+00   7.3906139E-04   4.5395060E-03   0.0000000E+00   1.0137281E-03   4.8149722E-03   0.0000000E+00   1.5761680E-03   5.3260005E-03   0.0000000E+00   2.8887975E-03   6.1160843E-03   0.0000000E+00   5.3958562E-03   7.0831762E-03   0.0000000E+00   9.2049194E-03   8.2122181E-03   0.0000000E+00   1.3088048E-02   9.4120549E-03   0.0000000E+00   1.5213046E-02   4.0676296E-03   0.0000000E+00   6.9980876E-04   4.2468170E-03   0.0000000E+00   9.9142047E-04   4.5873607E-03   0.0000000E+00   1.6120643E-03   5.1926342E-03   0.0000000E+00   2.9661714E-03   6.1388826E-03   0.0000000E+00   5.3539565E-03   7.3803081E-03   0.0000000E+00   8.6772610E-03   8.8084908E-03   0.0000000E+00   1.1715923E-02   1.0347026E-02   0.0000000E+00   1.3194121E-02   3.7657968E-03   0.0000000E+00   6.6876196E-04   3.9945915E-03   0.0000000E+00   1.0166755E-03   4.4152676E-03   0.0000000E+00   1.7473642E-03   5.1258686E-03   0.0000000E+00   3.1895605E-03   6.2144659E-03   0.0000000E+00   5.5047655E-03   7.6035126E-03   0.0000000E+00   8.3361138E-03   9.1238618E-03   0.0000000E+00   1.0570318E-02   3.5100214E-03   0.0000000E+00   6.6981051E-04   3.8044921E-03   0.0000000E+00   1.1145563E-03   4.3220324E-03   0.0000000E+00   1.9904322E-03   5.1541147E-03   0.0000000E+00   3.5470538E-03   6.3396962E-03   0.0000000E+00   5.7564513E-03   7.7321595E-03   0.0000000E+00   8.0393851E-03   9.1673182E-03   0.0000000E+00   9.5242430E-03   3.3270849E-03   0.0000000E+00   7.3966151E-04   3.7102655E-03   0.0000000E+00   1.3153689E-03   4.3563521E-03   0.0000000E+00   2.3681032E-03   5.3160121E-03   0.0000000E+00   4.0045376E-03   6.5189959E-03   0.0000000E+00   5.9892610E-03   7.7800234E-03   0.0000000E+00   7.6938020E-03   3.2578346E-03   0.0000000E+00   9.1713545E-04   3.7820865E-03   0.0000000E+00   1.6612631E-03   4.5899902E-03   0.0000000E+00   2.8678970E-03   5.6302552E-03   0.0000000E+00   4.4695185E-03   6.7555569E-03   0.0000000E+00   6.0959822E-03   7.8259325E-03   0.0000000E+00   7.2532371E-03   3.4151294E-03   0.0000000E+00   1.2611323E-03   4.1380068E-03   0.0000000E+00   2.1510923E-03   5.0543249E-03   0.0000000E+00   3.3967197E-03   6.0428549E-03   0.0000000E+00   4.8357155E-03   6.9782631E-03   0.0000000E+00   6.0633896E-03   3.9541945E-03   0.0000000E+00   1.7433189E-03   4.8232879E-03   0.0000000E+00   2.6689337E-03   5.6840959E-03   0.0000000E+00   3.8314890E-03   6.4312918E-03   0.0000000E+00   5.0400323E-03   4.8114280E-03   0.0000000E+00   2.2515005E-03   5.5764015E-03   0.0000000E+00   3.1455813E-03   6.2109367E-03   0.0000000E+00   4.1302936E-03   6.7155818E-03   0.0000000E+00   5.0984379E-03   5.5401362E-03   0.0000000E+00   2.7384069E-03   5.9958263E-03   0.0000000E+00   3.5429245E-03   5.7930863E-03   0.0000000E+00   3.1525278E-03 
Acec 3 2975 float
  0.0000000E+00   0.0000000E+00   0.0000000E+00   0.0000000E+00   0.0000000E+00   0.0000000E+00   0.0000000E+00   0.0000000E+00   0.0000000E+00   0.0000000E+00   0.0000000E+00   0.0000000E+00   0.0000000E+00   0.0000000E+00   0.0000000E+00   0.0000000E+00   0.0000000E+00   0.0000000E+00   0.0000000E+00   0.0000000E+00   0.0000000E+00   0.0000000E+00   0.0000000E+00   0.0000000E+00   0.0000000E+00   0.0000000E+00   0.0000000E+00   0.0000000E+00   0.0000000E+00   0.0000000E+00   0.0000000E+00   0.0000000E+00   0.0000000E+00   0.0000000E+00   0.0000000E+00   0.0000000E+00   0.0000000E+00   0.0000000E+00   0.0000000E+00   0.0000000E+00   0.0000000E+00   0.0000000E+00   0.0000000E+00   0.0000000E+00   0.0000000E+00   0.0000000E+00   0.0000000E+00   0.0000000E+00   0.0000000E+00   0.0000000E+00   0.0000000E+00   0.0000000E+00   0.0000000E+00   0.0000000E+00   0.0000000E+00   0.0000000E+00   0.0000000E+00   0.0000000E+00   0.0000000E+00   0.0000000E+00   0.0000000E+00   0.0000000E+00   0.0000000E+00   0.0000000E+00   0.0000000E+00   0.0000000E+00   0.0000000E+00   0.0000000E+00   0.0000000E+00   0.0000000E+00   0.0000000E+00   0.0000000E+00   0.0000000E+00   0.0000000E+00   0.0000000E+00   0.0000000E+00   0.0000000E+00   0.0000000E+00   0.0000000E+00   0.0000000E+00   0.0000000E+00   0.0000000E+00   0.0000000E+00   0.0000000E+00   0.0000000E+00   0.0000000E+00   0.0000000E+00   0.0000000E+00   0.0000000E+00   0.0000000E+00   0.0000000E+00   0.0000000E+00   0.0000000E+00   0.0000000E+00   0.0000000E+00   0.0000000E+00   0.0000000E+00   0.0000000E+00   0.0000000E+00   0.0000000E+00   0.0000000E+00   0.0000000E+00   0.0000000E+00   0.0000000E+00   0.0000000E+00   0.0000000E+00   0.0000000E+00   0.0000000E+00   0.0000000E+00   0.0000000E+00   0.0000000E+00   0.0000000E+00   0.0000000E+00   0.0000000E+00   0.0000000E+00   0.0000000E+00   0.0000000E+00   0.0000000E+00   0.0000000E+00   0.0000000E+00   0.0000000E+00   0.0000000E+00   0.0000000E+00   0.0000000E+00   0.0000000E+00   0.0000000E+00   0.0000000E+00   0.0000000E+00   0.0000000E+00   0.0000000E+00   0.0000000E+00   0.0000000E+00   0.0000000E+00   0.0000000E+00   0.0000000E+00   0.0000000E+00   0.0000000E+00   0.0000000E+00   0.0000000E+00   0.0000000E+00   0.0000000E+00   0.0000000E+00   0.0000000E+00   0.0000000E+00   0.0000000E+00   0.0000000E+00   0.0000000E+00   0.0000000E+00   0.0000000E+00   0.0000000E+00   0.0000000E+00   0.0000000E+00   0.0000000E+00   0.0000000E+00   0.0000000E+00   0.0000000E+00   0.0000000E+00   0.0000000E+00   0.0000000E+00   0.0000000E+00   0.0000000E+00   0.0000000E+00   0.0000000E+00   0.0000000E+00   0.0000000E+00   0.0000000E+00   0.0000000E+00   0.0000000E+00   0.0000000E+00   0.0000000E+00   0.0000000E+00   0.0000000E+00   0.0000000E+00   0.0000000E+00   0.0000000E+00   0.0000000E+00   0.0000000E+00   0.0000000E+00   0.0000000E+00   0.0000000E+00   0.0000000E+00   0.0000000E+00   0.0000000E+00   0.0000000E+00   0.0000000E+00   0.0000000E+00   0.0000000E+00   0.0000000E+00   0.0000000E+00   0.0000000E+00   0.0000000E+00   0.0000000E+00   0.0000000E+00   0.0000000E+00   0.0000000E+00   0.0000000E+00   0.0000000E+00   0.0000000E+00   0.0000000E+00   0.0000000E+00   0.0000000E+00   0.0000000E+00   0.0000000E+00   0.0000000E+00   0.0000000E+00   0.0000000E+00   0.0000000E+00   0.0000000E+00   0.0000000E+00   0.0000000E+00   0.0000000E+00   0.0000000E+00   0.0000000E+00   0.0000000E+00   0.0000000E+00   0.0000000E+00   0.0000000E+00   0.0000000E+00   0.0000000E+00   0.0000000E+00   0.0000000E+00   0.0000000E+00   0.0000000E+00   0.0000000E+00   0.0000000E+00   0.0000000E+00   0.0000000E+00   0.0000000E+00   0.0000000E+00   0.0000000E+00   0.0000000E+00   0.0000000E+00   0.0000000E+00   0.0000000E+00   0.0000000E+00   0.0000000E+00   0.0000000E+00   0.0000000E+00   0.0000000E+00   0.0000000E+00   0.0000000E+00   0.0000000E+00   0.0000000E+00   0.0000000E+00   0.0000000E+00   0.0000000E+00   0.0000000E+00   0.0000000E+00   0.0000000E+00   0.0000000E+00   0.0000000E+00   0.0000000E+00   0.0000000E+00   0.0000000E+00   0.0000000E+00   0.0000000E+00   0.0000000E+00   0.0000000E+00   0.0000000E+00   0.0000000E+00   0.0000000E+00   0.0000000E+00   0.0000000E+00   0.0000000E+00   0.0000000E+00   0.0000000E+00   0.0000000E+00   0.0000000E+00   0.0000000E+00   0.0000000E+00   0.0000000E+00   0.0000000E+00   0.0000000E+00   0.0000000E+00   0.0000000E+00   0.0000000E+00   0.0000000E+00   0.0000000E+00   0.0000000E+00   0.0000000E+00   0.0000000E+00   0.0000000E+00   0.0000000E+00   0.0000000E+00   0.0000000E+00   0.0000000E+00   0.0000000E+00   0.0000000E+00   0.0000000E+00   0.0000000E+00   0.0000000E+00   0.0000000E+00   0.0000000E+00   0.0000000E+00   0.0000000E+00   0.0000000E+00   0.0000000E+00   0.0000000E+00   0.0000000E+00   0.0000000E+00   0.0000000E+00   0.0000000E+00   0.0000000E+00   0.0000000E+00   0.0000000E+00   0.0000000E+00   0.0000000E+00   0.0000000E+00   0.0000000E+00   0.0000000E+00   0.0000000E+00   0.0000000E+00   0.0000000E+00   0.0000000E+00   0.0000000E+00   0.0000000E+00   0.0000000E+00   0.0000000E+00   0.0000000E+00   0.0000000E+00   0.0000000E+00   0.0000000E+00   0.0000000E+00   0.0000000E+00   0.0000000E+00   0.0000000E+00   0.0000000E+00   0.0000000E+00   0.0000000E+00   0.0000000E+00   0.0000000E+00   0.0000000E+00   0.0000000E+00   0.0000000E+00   0.0000000E+00   0.0000000E+00   0.0000000E+00   0.0000000E+00   0.0000000E+00   0.0000000E+00   0.0000000E+00   0.0000000E+00   0.0000000E+00   0.0000000E+00   0.0000000E+00   0.0000000E+00   0.0000000E+00   0.0000000E+00   0.0000000E+00   0.0000000E+00   0.0000000E+00   0.0000000E+00   0.0000000E+00   0.0000000E+00   0.0000000E+00   0.0000000E+00   0.0000000E+00   0.0000000E+00   0.0000000E+00   0.0000000E+00   0.0000000E+00   0.0000000E+00   0.0000000E+00   0.0000000E+00   0.0000000E+00   0.0000000E+00   0.0000000E+00   0.0000000E+00   0.0000000E+00   0.0000000E+00   0.0000000E+00   0.0000000E+00   0.0000000E+00   0.0000000E+00   0.0000000E+00   0.0000000E+00   0.0000000E+00   0.0000000E+00   0.0000000E+00   0.0000000E+00   0.0000000E+00   0.0000000E+00   0.0000000E+00   0.0000000E+00   0.0000000E+00   0.0000000E+00   0.0000000E+00   0.0000000E+00   0.0000000E+00   0.0000000E+00   0.0000000E+00   0.0000000E+00   0.0000000E+00   0.0000000E+00   0.0000000E+00   0.0000000E+00   0.0000000E+00   0.0000000E+00   0.0000000E+00   0.0000000E+00   0.0000000E+00   0.0000000E+00   0.0000000E+00   0.0000000E+00   0.0000000E+00   0.0000000E+00   0.0000000E+00   0.0000000E+00   0.0000000E+00   0.0000000E+00   0.0000000E+00   0.0000000E+00   0.0000000E+00   0.0000000E+00   0.0000000E+00   0.0000000E+00   0.0000000E+00   0.0000000E+00   0.0000000E+00   0.0000000E+00   0.0000000E+00   0.0000000E+00   0.0000000E+00   0.0000000E+00   0.0000000E+00   0.0000000E+00   0.0000000E+00   0.0000000E+00   0.0000000E+00   0.0000000E+00   0.0000000E+00   0.0000000E+00   0.0000000E+00   0.0000000E+00   0.0000000E+00   0.0000000E+00   0.0000000E+00   0.0000000E+00   0.0000000E+00   0.0000000E+00   0.0000000E+00   0.0000000E+00   0.0000000E+00   0.0000000E+00   0.0000000E+00   0.0000000E+00   0.0000000E+00   0.0000000E+00   0.0000000E+00   0.0000000E+00   0.0000000E+00   0.0000000E+00   0.0000000E+00   0.0000000E+00   0.0000000E+00   0.0000000E+00   0.0000000E+00   0.0000000E+00   0.0000000E+00   0.0000000E+00   0.0000000E+00   0.0000000E+00   0.0000000E+00   0.0000000E+00   0.0000000E+00   0.0000000E+00   0.0000000E+00   0.0000000E+00   0.0000000E+00   0.0000000E+00   0.0000000E+00   0.0000000E+00   0.0000000E+00   0.0000000E+00   0.0000000E+00   0.0000000E+00   0.0000000E+00   0.0000000E+00   0.0000000E+00   0.0000000E+00   0.0000000E+00   0.0000000E+00   0.0000000E+00   0.0000000E+00   0.0000000E+00   0.0000000E+00   0.0000000E+00   0.0000000E+00   0.0000000E+00   0.0000000E+00   0.0000000E+00   0.0000000E+00   0.0000000E+00   0.0000000E+00   0.0000000E+00   0.0000000E+00   0.0000000E+00   0.0000000E+00   0.0000000E+00   0.0000000E+00   0.0000000E+00   0.0000000E+00   0.0000000E+00   0.0000000E+00   0.0000000E+00   0.0000000E+00   0.0000000E+00   0.0000000E+00   0.0000000E+00   0.0000000E+00   0.0000000E+00   0.0000000E+00   0.0000000E+00   0.0000000E+00   0.0000000E+00   0.0000000E+00   0.0000000E+00   0.0000000E+00   0.0000000E+00   0.0000000E+00   0.0000000E+00   0.0000000E+00   0.0000000E+00   0.0000000E+00   0.0000000E+00   0.0000000E+00   0.0000000E+00   0.0000000E+00   0.0000000E+00   0.0000000E+00   0.0000000E+00   0.0000000E+00   0.0000000E+00   0.0000000E+00   0.0000000E+00   0.0000000E+00   0.0000000E+00   0.0000000E+00   0.0000000E+00   0.0000000E+00   0.0000000E+00   0.0000000E+00   0.0000000E+00   0.0000000E+00   0.0000000E+00   0.0000000E+00   0.0000000E+00   0.0000000E+00   0.0000000E+00   0.0000000E+00   0.0000000E+00   0.0000000E+00   0.0000000E+00   0.0000000E+00   0.0000000E+00   0.0000000E+00   0.0000000E+00   0.0000000E+00   0.0000000E+00   0.0000000E+00   0.0000000E+00   0.0000000E+00   0.0000000E+00   0.0000000E+00   0.0000000E+00   0.0000000E+00   0.0000000E+00   0.0000000E+00   0.0000000E+00   0.0000000E+00   0.0000000E+00   0.0000000E+00   0.0000000E+00   0.0000000E+00   0.0000000E+00   0.0000000E+00   0.0000000E+00   0.0000000E+00   0.0000000E+00   0.0000000E+00   0.0000000E+00   0.0000000E+00   0.0000000E+00   0.0000000E+00   0.0000000E+00   0.0000000E+00   0.0000000E+00   0.0000000E+00   0.0000000E+00   0.0000000E+00   0.0000000E+00   0.0000000E+00   0.0000000E+00   0.0000000E+00   0.0000000E+00   0.0000000E+00   0.0000000E+00   0.0000000E+00   0.0000000E+00   0.0000000E+00   0.0000000E+00   0.0000000E+00   0.0000000E+00   0.0000000E+00   0.0000000E+00   0.0000000E+00   0.0000000E+00   0.0000000E+00   0.0000000E+00   0.0000000E+00   0.0000000E+00   0.0000000E+00   0.0000000E+00   0.0000000E+00   0.0000000E+00   0.0000000E+00   0.0000000E+00   0.0000000E+00   0.0000000E+00   0.0000000E+00   0.0000000E+00   0.0000000E+00   0.0000000E+00   0.0000000E+00   0.0000000E+00   0.0000000E+00   0.0000000E+00   0.0000000E+00   0.0000000E+00   0.0000000E+00   0.0000000E+00   0.0000000E+00   0.0000000E+00   0.0000000E+00   0.0000000E+00   0.0000000E+00   0.0000000E+00   0.0000000E+00   0.0000000E+00   0.0000000E+00   0.0000000E+00   0.0000000E+00   0.0000000E+00   0.0000000E+00   0.0000000E+00   0.0000000E+00   0.0000000E+00   0.0000000E+00   0.0000000E+00   0.0000000E+00   0.0000000E+00   0.0000000E+00   0.0000000E+00   0.0000000E+00   0.0000000E+00   0.0000000E+00   0.0000000E+00   0.0000000E+00   0.0000000E+00   0.0000000E+00   0.0000000E+00   0.0000000E+00   0.0000000E+00   0.0000000E+00   0.0000000E+00   0.0000000E+00   0.0000000E+00   0.0000000E+00   0.0000000E+00   0.0000000E+00   0.0000000E+00   0.0000000E+00   0.0000000E+00   0.0000000E+00   0.0000000E+00   0.0000000E+00   0.0000000E+00   0.0000000E+00   0.0000000E+00   0.0000000E+00   0.0000000E+00   0.0000000E+00   0.0000000E+00   0.0000000E+00   0.0000000E+00   0.0000000E+00   0.0000000E+00   0.0000000E+00   0.0000000E+00   0.0000000E+00   0.0000000E+00   0.0000000E+00   0.0000000E+00   0.0000000E+00   0.0000000E+00   0.0000000E+00   0.0000000E+00   0.0000000E+00   0.0000000E+00   0.0000000E+00   0.0000000E+00   0.0000000E+00   0.0000000E+00   0.0000000E+00   0.0000000E+00   0.0000000E+00   0.0000000E+00   0.0000000E+00   0.0000000E+00   0.0000000E+00   0.0000000E+00   0.0000000E+00   0.0000000E+00   0.0000000E+00   0.0000000E+00   0.0000000E+00   0.0000000E+00   0.0000000E+00   0.0000000E+00   0.0000000E+00   0.0000000E+00   0.0000000E+00   0.0000000E+00   0.0000000E+00   0.0000000E+00   0.0000000E+00   0.0000000E+00   0.0000000E+00   0.0000000E+00   0.0000000E+00   0.0000000E+00   0.0000000E+00   0.0000000E+00   0.0000000E+00   0.0000000E+00   0.0000000E+00   0.0000000E+00   0.0000000E+00   0.0000000E+00   0.0000000E+00   0.0000000E+00   0.0000000E+00   0.0000000E+00   0.0000000E+00   0.0000000E+00   0.0000000E+00   0.0000000E+00   0.0000000E+00   0.0000000E+00   0.0000000E+00   0.0000000E+00   0.0000000E+00   0.0000000E+00   0.0000000E+00   0.0000000E+00   0.0000000E+00   0.0000000E+00   0.0000000E+00   0.0000000E+00   0.0000000E+00   0.0000000E+00   0.0000000E+00   0.0000000E+00   0.0000000E+00   0.0000000E+00   0.0000000E+00   0.0000000E+00   0.0000000E+00   0.0000000E+00   0.0000000E+00   0.0000000E+00   0.0000000E+00   0.0000000E+00   0.0000000E+00   0.0000000E+00   0.0000000E+00   0.0000000E+00   0.0000000E+00   0.0000000E+00   0.0000000E+00   0.0000000E+00   0.0000000E+00   0.0000000E+00   0.0000000E+00   0.0000000E+00   0.0000000E+00   0.0000000E+00   0.0000000E+00   0.0000000E+00   0.0000000E+00   0.0000000E+00   0.0000000E+00   0.0000000E+00   0.0000000E+00   0.0000000E+00   0.0000000E+00   0.0000000E+00   0.0000000E+00   0.0000000E+00   0.0000000E+00   0.0000000E+00   0.0000000E+00   0.0000000E+00   0.0000000E+00   0.0000000E+00   0.0000000E+00   0.0000000E+00   0.0000000E+00   0.0000000E+00   0.0000000E+00   0.0000000E+00   0.0000000E+00   0.0000000E+00   0.0000000E+00   0.0000000E+00   0.0000000E+00   0.0000000E+00   0.0000000E+00   0.0000000E+00   0.0000000E+00   0.0000000E+00   0.0000000E+00   0.0000000E+00   0.0000000E+00   0.0000000E+00   0.0000000E+00   0.0000000E+00   0.0000000E+00   0.0000000E+00   0.0000000E+00   0.0000000E+00   0.0000000E+00   0.0000000E+00   0.0000000E+00   0.0000000E+00   0.0000000E+00   0.0000000E+00   0.0000000E+00   0.0000000E+00   0.0000000E+00   0.0000000E+00   0.0000000E+00   0.0000000E+00   0.0000000E+00   0.0000000E+00   0.0000000E+00   0.0000000E+00   0.0000000E+00   0.0000000E+00   0.0000000E+00   0.0000000E+00   0.0000000E+00   0.0000000E+00   0.0000000E+00   0.0000000E+00   0.0000000E+00   0.0000000E+00   0.0000000E+00   0.0000000E+00   0.0000000E+00   0.0000000E+00   0.0000000E+00   0.0000000E+00   0.0000000E+00   0.0000000E+00   0.0000000E+00   0.0000000E+00   0.0000000E+00   0.0000000E+00   0.0000000E+00   0.0000000E+00   0.0000000E+00   0.0000000E+00   0.0000000E+00   0.0000000E+00   0.0000000E+00   0.0000000E+00   0.0000000E+00   0.0000000E+00   0.0000000E+00   0.0000000E+00   0.0000000E+00   0.0000000E+00   0.0000000E+00   0.0000000E+00   0.0000000E+00   0.0000000E+00   0.0000000E+00   0.0000000E+00   0.0000000E+00   0.0000000E+00   0.0000000E+00   0.0000000E+00   0.0000000E+00   0.0000000E+00   0.0000000E+00   0.0000000E+00   0.0000000E+00   0.0000000E+00   0.0000000E+00   0.0000000E+00   0.0000000E+00   0.0000000E+00   0.0000000E+00   0.0000000E+00   0.0000000E+00   0.0000000E+00   0.0000000E+00   0.0000000E+00   0.0000000E+00   0.0000000E+00   0.0000000E+00   0.0000000E+00   0.0000000E+00   0.0000000E+00   0.0000000E+00   0.0000000E+00   0.0000000E+00   0.0000000E+00   0.0000000E+00   0.0000000E+00   0.0000000E+00   0.0000000E+00   0.0000000E+00   0.0000000E+00   0.0000000E+00   0.0000000E+00   0.0000000E+00   0.0000000E+00   0.0000000E+00   0.0000000E+00   0.0000000E+00   0.0000000E+00   0.0000000E+00   0.0000000E+00   0.0000000E+00   0.0000000E+00   0.0000000E+00   0.0000000E+00   0.0000000E+00   0.0000000E+00   0.0000000E+00   0.0000000E+00   0.0000000E+00   0.0000000E+00   0.0000000E+00   0.0000000E+00   0.0000000E+00   0.0000000E+00   0.0000000E+00   0.0000000E+00   0.0000000E+00   0.0000000E+00   0.0000000E+00   0.0000000E+00   0.0000000E+00   0.0000000E+00   0.0000000E+00   0.0000000E+00   0.0000000E+00   0.0000000E+00   0.0000000E+00   0.0000000E+00   0.0000000E+00   0.0000000E+00   0.0000000E+00   0.0000000E+00   0.0000000E+00   0.0000000E+00   0.0000000E+00   0.0000000E+00   0.0000000E+00   0.0000000E+00   0.0000000E+00   0.0000000E+00   0.0000000E+00   0.0000000E+00   0.0000000E+00   0.0000000E+00   0.0000000E+00   0.0000000E+00   0.0000000E+00   0.0000000E+00   0.0000000E+00   0.0000000E+00   0.0000000E+00   0.0000000E+00   0.0000000E+00   0.0000000E+00   0.0000000E+00   0.0000000E+00   0.0000000E+00   0.0000000E+00   0.0000000E+00   0.0000000E+00   0.0000000E+00   0.0000000E+00   0.0000000E+00   0.0000000E+00   0.0000000E+00   0.0000000E+00   0.0000000E+00   0.0000000E+00   0.0000000E+00   0.0000000E+00   0.0000000E+00   0.0000000E+00   0.0000000E+00   0.0000000E+00   0.0000000E+00   0.0000000E+00   0.0000000E+00   0.0000000E+00   0.0000000E+00   0.0000000E+00   0.0000000E+00   0.0000000E+00   0.0000000E+00   0.0000000E+00   0.0000000E+00   0.0000000E+00   0.0000000E+00   0.0000000E+00   0.0000000E+00   0.0000000E+00   0.0000000E+00   0.0000000E+00   0.0000000E+00   0.0000000E+00   0.0000000E+00   0.0000000E+00   0.0000000E+00   0.0000000E+00   0.0000000E+00   0.0000000E+00   0.0000000E+00   0.0000000E+00   0.0000000E+00   0.0000000E+00   0.0000000E+00   0.0000000E+00   0.0000000E+00   0.0000000E+00   0.0000000E+00   0.0000000E+00   0.0000000E+00   0.0000000E+00   0.0000000E+00   0.0000000E+00   0.0000000E+00   0.0000000E+00   0.0000000E+00   0.0000000E+00   0.0000000E+00   0.0000000E+00   0.0000000E+00   0.0000000E+00   0.0000000E+00   0.0000000E+00   0.0000000E+00   0.0000000E+00   0.0000000E+00   0.0000000E+00   0.0000000E+00   0.0000000E+00   0.0000000E+00   0.0000000E+00   0.0000000E+00   0.0000000E+00   0.0000000E+00   0.0000000E+00   0.0000000E+00   0.0000000E+00   0.0000000E+00   0.0000000E+00   0.0000000E+00   0.0000000E+00   0.0000000E+00   0.0000000E+00   0.0000000E+00   0.0000000E+00   0.0000000E+00   0.0000000E+00   0.0000000E+00   0.0000000E+00   0.0000000E+00   0.0000000E+00   0.0000000E+00   0.0000000E+00   0.0000000E+00   0.0000000E+00   0.0000000E+00   0.0000000E+00   0.0000000E+00   0.0000000E+00   0.0000000E+00   0.0000000E+00   0.0000000E+00   0.0000000E+00   0.0000000E+00   0.0000000E+00   0.0000000E+00   0.0000000E+00   0.0000000E+00   0.0000000E+00   0.0000000E+00   0.0000000E+00   0.0000000E+00   0.0000000E+00   0.0000000E+00   0.0000000E+00   0.0000000E+00   0.0000000E+00   0.0000000E+00   0.0000000E+00   0.0000000E+00   0.0000000E+00   0.0000000E+00   0.0000000E+00   0.0000000E+00   0.0000000E+00   0.0000000E+00   0.0000000E+00   0.0000000E+00   0.0000000E+00   0.0000000E+00   0.0000000E+00   0.0000000E+00   0.0000000E+00   0.0000000E+00   0.0000000E+00   0.0000000E+00   0.0000000E+00   0.0000000E+00   0.0000000E+00   0.0000000E+00   0.0000000E+00   0.0000000E+00   0.0000000E+00   0.0000000E+00   0.0000000E+00   0.0000000E+00   0.0000000E+00   0.0000000E+00   0.0000000E+00   0.0000000E+00   0.0000000E+00   0.0000000E+00   0.0000000E+00   0.0000000E+00   0.0000000E+00   0.0000000E+00   0.0000000E+00   0.0000000E+00   0.0000000E+00   0.0000000E+00   0.0000000E+00   0.0000000E+00   0.0000000E+00   0.0000000E+00   0.0000000E+00   0.0000000E+00   0.0000000E+00   0.0000000E+00   0.0000000E+00   0.0000000E+00   0.0000000E+00   0.0000000E+00   0.0000000E+00   0.0000000E+00   0.0000000E+00   0.0000000E+00   0.0000000E+00   0.0000000E+00   0.0000000E+00   0.0000000E+00   0.0000000E+00   0.0000000E+00   0.0000000E+00   0.0000000E+00   0.0000000E+00   0.0000000E+00   0.0000000E+00   0.0000000E+00   0.0000000E+00   0.0000000E+00   0.0000000E+00   0.0000000E+00   0.0000000E+00   0.0000000E+00   0.0000000E+00   0.0000000E+00   0.0000000E+00   0.0000000E+00   0.0000000E+00   0.0000000E+00   0.0000000E+00   0.0000000E+00   0.0000000E+00   0.0000000E+00   0.0000000E+00   0.0000000E+00   0.0000000E+00   0.0000000E+00   0.0000000E+00   0.0000000E+00   0.0000000E+00   0.0000000E+00   0.0000000E+00   0.0000000E+00   0.0000000E+00   0.0000000E+00   0.0000000E+00   0.0000000E+00   0.0000000E+00   0.0000000E+00   0.0000000E+00   0.0000000E+00   0.0000000E+00   0.0000000E+00   0.0000000E+00   0.0000000E+00   0.0000000E+00   0.0000000E+00   0.0000000E+00   0.0000000E+00   0.0000000E+00   0.0000000E+00   0.0000000E+00   0.0000000E+00   0.0000000E+00   0.0000000E+00   0.0000000E+00   0.0000000E+00   0.0000000E+00   0.0000000E+00   0.0000000E+00   0.0000000E+00   0.0000000E+00   0.0000000E+00   0.0000000E+00   0.0000000E+00   0.0000000E+00   0.0000000E+00   0.0000000E+00   0.0000000E+00   0.0000000E+00   0.0000000E+00   0.0000000E+00   0.0000000E+00   0.0000000E+00   0.0000000E+00   0.0000000E+00   0.0000000E+00   0.0000000E+00   0.0000000E+00   0.0000000E+00   0.0000000E+00   0.0000000E+00   0.0000000E+00   0.0000000E+00   0.0000000E+00   0.0000000E+00   0.0000000E+00   0.0000000E+00   0.0000000E+00   0.0000000E+00   0.0000000E+00   0.0000000E+00   0.0000000E+00   0.0000000E+00   0.0000000E+00   0.0000000E+00   0.0000000E+00   0.0000000E+00   0.0000000E+00   0.0000000E+00   0.0000000E+00   0.0000000E+00   0.0000000E+00   0.0000000E+00   0.0000000E+00   0.0000000E+00   0.0000000E+00   0.0000000E+00   0.0000000E+00   0.0000000E+00   0.0000000E+00   0.0000000E+00   0.0000000E+00   0.0000000E+00   0.0000000E+00   0.0000000E+00   0.0000000E+00   0.0000000E+00   0.0000000E+00   0.0000000E+00   0.0000000E+00   0.0000000E+00   0.0000000E+00   0.0000000E+00   0.0000000E+00   0.0000000E+00   0.0000000E+00   0.0000000E+00   0.0000000E+00   0.0000000E+00   0.0000000E+00   0.0000000E+00   0.0000000E+00   0.0000000E+00   0.0000000E+00   0.0000000E+00   0.0000000E+00   0.0000000E+00   0.0000000E+00   0.0000000E+00   0.0000000E+00   0.0000000E+00   0.0000000E+00   0.0000000E+00   0.0000000E+00   0.0000000E+00   0.0000000E+00   0.0000000E+00   0.0000000E+00   0.0000000E+00   0.0000000E+00   0.0000000E+00   0.0000000E+00   0.0000000E+00   0.0000000E+00   0.0000000E+00   0.0000000E+00   0.0000000E+00   0.0000000E+00   0.0000000E+00   0.0000000E+00   0.0000000E+00   0.0000000E+00   0.0000000E+00   0.0000000E+00   0.0000000E+00   0.0000000E+00   0.0000000E+00   0.0000000E+00   0.0000000E+00   0.0000000E+00   0.0000000E+00   0.0000000E+00   0.0000000E+00   0.0000000E+00   0.0000000E+00   0.0000000E+00   0.0000000E+00   0.0000000E+00   0.0000000E+00   0.0000000E+00   0.0000000E+00   0.0000000E+00   0.0000000E+00   0.0000000E+00   0.0000000E+00   0.0000000E+00   0.0000000E+00   0.0000000E+00   0.0000000E+00   0.0000000E+00   0.0000000E+00   0.0000000E+00   0.0000000E+00   0.0000000E+00   0.0000000E+00   0.0000000E+00   0.0000000E+00   0.0000000E+00   0.0000000E+00   0.0000000E+00   0.0000000E+00   0.0000000E+00   0.0000000E+00   0.0000000E+00   0.0000000E+00   0.0000000E+00   0.0000000E+00   0.0000000E+00   0.0000000E+00   0.0000000E+00   0.0000000E+00   0.0000000E+00   0.0000000E+00   0.0000000E+00   0.0000000E+00   0.0000000E+00   0.0000000E+00   0.0000000E+00   0.0000000E+00   0.0000000E+00   0.0000000E+00   0.0000000E+00   0.0000000E+00   0.0000000E+00   0.0000000E+00   0.0000000E+00   0.0000000E+00   0.0000000E+00   0.0000000E+00   0.0000000E+00   0.0000000E+00   0.0000000E+00   0.0000000E+00   0.0000000E+00   0.0000000E+00   0.0000000E+00   0.0000000E+00   0.0000000E+00   0.0000000E+00   0.0000000E+00   0.0000000E+00   0.0000000E+00   0.0000000E+00   0.0000000E+00   0.0000000E+00   0.0000000E+00   0.0000000E+00   0.0000000E+00   0.0000000E+00   0.0000000E+00   0.0000000E+00   0.0000000E+00   0.0000000E+00   0.0000000E+00   0.0000000E+00   0.0000000E+00   0.0000000E+00   0.0000000E+00   0.0000000E+00   0.0000000E+00   0.0000000E+00   0.0000000E+00   0.0000000E+00   0.0000000E+00   0.0000000E+00   0.0000000E+00   0.0000000E+00   0.0000000E+00   0.0000000E+00   0.0000000E+00   0.0000000E+00   0.0000000E+00   0.0000000E+00   0.0000000E+00   0.0000000E+00   0.0000000E+00   0.0000000E+00   0.0000000E+00   0.0000000E+00   0.0000000E+00   0.0000000E+00   0.0000000E+00   0.0000000E+00   0.0000000E+00   0.0000000E+00   0.0000000E+00   0.0000000E+00   0.0000000E+00   0.0000000E+00   0.0000000E+00   0.0000000E+00   0.0000000E+00   0.0000000E+00   0.0000000E+00   0.0000000E+00   0.0000000E+00   0.0000000E+00   0.0000000E+00   0.0000000E+00   0.0000000E+00   0.0000000E+00   0.0000000E+00   0.0000000E+00   0.0000000E+00   0.0000000E+00   0.0000000E+00   0.0000000E+00   0.0000000E+00   0.0000000E+00   0.0000000E+00   0.0000000E+00   0.0000000E+00   0.0000000E+00   0.0000000E+00   0.0000000E+00   0.0000000E+00   0.0000000E+00   0.0000000E+00   0.0000000E+00   0.0000000E+00   0.0000000E+00   0.0000000E+00   0.0000000E+00   0.0000000E+00   0.0000000E+00   0.0000000E+00   0.0000000E+00   0.0000000E+00   0.0000000E+00   0.0000000E+00   0.0000000E+00   0.0000000E+00   0.0000000E+00   0.0000000E+00   0.0000000E+00   0.0000000E+00   0.0000000E+00   0.0000000E+00   0.0000000E+00   0.0000000E+00   0.0000000E+00   0.0000000E+00   0.0000000E+00   0.0000000E+00   0.0000000E+00   0.0000000E+00   0.0000000E+00   0.0000000E+00   0.0000000E+00   0.0000000E+00   0.0000000E+00   0.0000000E+00   0.0000000E+00   0.0000000E+00   0.0000000E+00   0.0000000E+00   0.0000000E+00   0.0000000E+00   0.0000000E+00   0.0000000E+00   0.0000000E+00   0.0000000E+00   0.0000000E+00   0.0000000E+00   0.0000000E+00   0.0000000E+00   0.0000000E+00   0.0000000E+00   0.0000000E+00   0.0000000E+00   0.0000000E+00   0.0000000E+00   0.0000000E+00   0.0000000E+00   0.0000000E+00   0.0000000E+00   0.0000000E+00   0.0000000E+00   0.0000000E+00   0.0000000E+00   0.0000000E+00   0.0000000E+00   0.0000000E+00   0.0000000E+00   0.0000000E+00   0.0000000E+00   0.0000000E+00   0.0000000E+00   0.0000000E+00   0.0000000E+00   0.0000000E+00   0.0000000E+00   0.0000000E+00   0.0000000E+00   0.0000000E+00   0.0000000E+00   0.0000000E+00   0.0000000E+00   0.0000000E+00   0.0000000E+00   0.0000000E+00   0.0000000E+00   0.0000000E+00   0.0000000E+00   0.0000000E+00   0.0000000E+00   0.0000000E+00   0.0000000E+00   0.0000000E+00   0.0000000E+00   0.0000000E+00   0.0000000E+00   0.0000000E+00   0.0000000E+00   0.0000000E+00   0.0000000E+00   0.0000000E+00   0.0000000E+00   0.0000000E+00   0.0000000E+00   0.0000000E+00   0.0000000E+00   0.0000000E+00   0.0000000E+00   0.0000000E+00   0.0000000E+00   0.0000000E+00   0.0000000E+00   0.0000000E+00   0.0000000E+00   0.0000000E+00   0.0000000E+00   0.0000000E+00   0.0000000E+00   0.0000000E+00   0.0000000E+00   0.0000000E+00   0.0000000E+00   0.0000000E+00   0.0000000E+00   0.0000000E+00   0.0000000E+00   0.0000000E+00   0.0000000E+00   0.0000000E+00   0.0000000E+00   0.0000000E+00   0.0000000E+00   0.0000000E+00   0.0000000E+00   0.0000000E+00   0.0000000E+00   0.0000000E+00   0.0000000E+00   0.0000000E+00   0.0000000E+00   0.0000000E+00   0.0000000E+00   0.0000000E+00   0.0000000E+00   0.0000000E+00   0.0000000E+00   0.0000000E+00   0.0000000E+00   0.0000000E+00   0.0000000E+00   0.0000000E+00   0.0000000E+00   0.0000000E+00   0.0000000E+00   0.0000000E+00   0.0000000E+00   0.0000000E+00   0.0000000E+00   0.0000000E+00   0.0000000E+00   0.0000000E+00   0.0000000E+00   0.0000000E+00   0.0000000E+00   0.0000000E+00   0.0000000E+00   0.0000000E+00   0.0000000E+00   0.0000000E+00   0.0000000E+00   0.0000000E+00   0.0000000E+00   0.0000000E+00   0.0000000E+00   0.0000000E+00   0.0000000E+00   0.0000000E+00   0.0000000E+00   0.0000000E+00   0.0000000E+00   0.0000000E+00   0.0000000E+00   0.0000000E+00   0.0000000E+00   0.0000000E+00   0.0000000E+00   0.0000000E+00   0.0000000E+00   0.0000000E+00   0.0000000E+00   0.0000000E+00   0.0000000E+00   0.0000000E+00   0.0000000E+00   0.0000000E+00   0.0000000E+00   0.0000000E+00   0.0000000E+00   0.0000000E+00   0.0000000E+00   0.0000000E+00   0.0000000E+00   0.0000000E+00   0.0000000E+00   0.0000000E+00   0.0000000E+00   0.0000000E+00   0.0000000E+00   0.0000000E+00   0.0000000E+00   0.0000000E+00   0.0000000E+00   0.0000000E+00   0.0000000E+00   0.0000000E+00   0.0000000E+00   0.0000000E+00   0.0000000E+00   0.0000000E+00   0.0000000E+00   0.0000000E+00   0.0000000E+00   0.0000000E+00   0.0000000E+00   0.0000000E+00   0.0000000E+00   0.0000000E+00   0.0000000E+00   0.0000000E+00   0.0000000E+00   0.0000000E+00   0.0000000E+00   0.0000000E+00   0.0000000E+00   0.0000000E+00   0.0000000E+00   0.0000000E+00   0.0000000E+00   0.0000000E+00   0.0000000E+00   0.0000000E+00   0.0000000E+00   0.0000000E+00   0.0000000E+00   0.0000000E+00   0.0000000E+00   0.0000000E+00   0.0000000E+00   0.0000000E+00   0.0000000E+00   0.0000000E+00   0.0000000E+00   0.0000000E+00   0.0000000E+00   0.0000000E+00   0.0000000E+00   0.0000000E+00   0.0000000E+00   0.0000000E+00   0.0000000E+00   0.0000000E+00   0.0000000E+00   0.0000000E+00   0.0000000E+00   0.0000000E+00   0.0000000E+00   0.0000000E+00   0.0000000E+00   0.0000000E+00   0.0000000E+00   0.0000000E+00   0.0000000E+00   0.0000000E+00   0.0000000E+00   0.0000000E+00   0.0000000E+00   0.0000000E+00   0.0000000E+00   0.0000000E+00   0.0000000E+00   0.0000000E+00   0.0000000E+00   0.0000000E+00   0.0000000E+00   0.0000000E+00   0.0000000E+00   0.0000000E+00   0.0000000E+00   0.0000000E+00   0.0000000E+00   0.0000000E+00   0.0000000E+00   0.0000000E+00   0.0000000E+00   0.0000000E+00   0.0000000E+00   0.0000000E+00   0.0000000E+00   0.0000000E+00   0.0000000E+00   0.0000000E+00   0.0000000E+00   0.0000000E+00   0.0000000E+00   0.0000000E+00   0.0000000E+00   0.0000000E+00   0.0000000E+00   0.0000000E+00   0.0000000E+00   0.0000000E+00   0.0000000E+00   0.0000000E+00   0.0000000E+00   0.0000000E+00   0.0000000E+00   0.0000000E+00   0.0000000E+00   0.0000000E+00   0.0000000E+00   0.0000000E+00   0.0000000E+00   0.0000000E+00   0.0000000E+00   0.0000000E+00   0.0000000E+00   0.0000000E+00   0.0000000E+00   0.0000000E+00   0.0000000E+00   0.0000000E+00   0.0000000E+00   0.0000000E+00   0.0000000E+00   0.0000000E+00   0.0000000E+00   0.0000000E+00   0.0000000E+00   0.0000000E+00   0.0000000E+00   0.0000000E+00   0.0000000E+00   0.0000000E+00   0.0000000E+00   0.0000000E+00   0.0000000E+00   0.0000000E+00   0.0000000E+00   0.0000000E+00   0.0000000E+00   0.0000000E+00   0.0000000E+00   0.0000000E+00   0.0000000E+00   0.0000000E+00   0.0000000E+00   0.0000000E+00   0.0000000E+00   0.0000000E+00   0.0000000E+00   0.0000000E+00   0.0000000E+00   0.0000000E+00   0.0000000E+00   0.0000000E+00   0.0000000E+00   0.0000000E+00   0.0000000E+00   0.0000000E+00   0.0000000E+00   0.0000000E+00   0.0000000E+00   0.0000000E+00   0.0000000E+00   0.0000000E+00   0.0000000E+00   0.0000000E+00   0.0000000E+00   0.0000000E+00   0.0000000E+00   0.0000000E+00   0.0000000E+00   0.0000000E+00   0.0000000E+00   0.0000000E+00   0.0000000E+00   0.0000000E+00   0.0000000E+00   0.0000000E+00   0.0000000E+00   0.0000000E+00   0.0000000E+00   0.0000000E+00   0.0000000E+00   0.0000000E+00   0.0000000E+00   0.0000000E+00   0.0000000E+00   0.0000000E+00   0.0000000E+00   0.0000000E+00   0.0000000E+00   0.0000000E+00   0.0000000E+00   0.0000000E+00   0.0000000E+00   0.0000000E+00   0.0000000E+00   0.0000000E+00   0.0000000E+00   0.0000000E+00   0.0000000E+00   0.0000000E+00   0.0000000E+00   0.0000000E+00   0.0000000E+00   0.0000000E+00   0.0000000E+00   0.0000000E+00   0.0000000E+00   0.0000000E+00   0.0000000E+00   0.0000000E+00   0.0000000E+00   0.0000000E+00   0.0000000E+00   0.0000000E+00   0.0000000E+00   0.0000000E+00   0.0000000E+00   0.0000000E+00   0.0000000E+00   0.0000000E+00   0.0000000E+00   0.0000000E+00   0.0000000E+00   0.0000000E+00   0.0000000E+00   0.0000000E+00   0.0000000E+00   0.0000000E+00   0.0000000E+00   0.0000000E+00   0.0000000E+00   0.0000000E+00   0.0000000E+00   0.0000000E+00   0.0000000E+00   0.0000000E+00   0.0000000E+00   0.0000000E+00   0.0000000E+00   0.0000000E+00   0.0000000E+00   0.0000000E+00   0.0000000E+00   0.0000000E+00   0.0000000E+00   0.0000000E+00   0.0000000E+00   0.0000000E+00   0.0000000E+00   0.0000000E+00   0.0000000E+00   0.0000000E+00   0.0000000E+00   0.0000000E+00   0.0000000E+00   0.0000000E+00   0.0000000E+00   0.0000000E+00   0.0000000E+00   0.0000000E+00   0.0000000E+00   0.0000000E+00   0.0000000E+00   0.0000000E+00   0.0000000E+00   0.0000000E+00   0.0000000E+00   0.0000000E+00   0.0000000E+00   0.0000000E+00   0.0000000E+00   0.0000000E+00   0.0000000E+00   0.0000000E+00   0.0000000E+00   0.0000000E+00   0.0000000E+00   0.0000000E+00   0.0000000E+00   0.0000000E+00   0.0000000E+00   0.0000000E+00   0.0000000E+00   0.0000000E+00   0.0000000E+00   0.0000000E+00   0.0000000E+00   0.0000000E+00   0.0000000E+00   0.0000000E+00   0.0000000E+00   0.0000000E+00   0.0000000E+00   0.0000000E+00   0.0000000E+00   0.0000000E+00   0.0000000E+00   0.0000000E+00   0.0000000E+00   0.0000000E+00   0.0000000E+00   0.0000000E+00   0.0000000E+00   0.0000000E+00   0.0000000E+00   0.0000000E+00   0.0000000E+00   0.0000000E+00   0.0000000E+00   0.0000000E+00   0.0000000E+00   0.0000000E+00   0.0000000E+00   0.0000000E+00   0.0000000E+00   0.0000000E+00   0.0000000E+00   0.0000000E+00   0.0000000E+00   0.0000000E+00   0.0000000E+00   0.0000000E+00   0.0000000E+00   0.0000000E+00   0.0000000E+00   0.0000000E+00   0.0000000E+00   0.0000000E+00   0.0000000E+00   0.0000000E+00   0.0000000E+00   0.0000000E+00   0.0000000E+00   0.0000000E+00   0.0000000E+00   0.0000000E+00   0.0000000E+00   0.0000000E+00   0.0000000E+00   0.0000000E+00   0.0000000E+00   0.0000000E+00   0.0000000E+00   0.0000000E+00   0.0000000E+00   0.0000000E+00   0.0000000E+00   0.0000000E+00   0.0000000E+00   0.0000000E+00   0.0000000E+00   0.0000000E+00   0.0000000E+00   0.0000000E+00   0.0000000E+00   0.0000000E+00   0.0000000E+00   0.0000000E+00   0.0000000E+00   0.0000000E+00   0.0000000E+00   0.0000000E+00   0.0000000E+00   0.0000000E+00   0.0000000E+00   0.0000000E+00   0.0000000E+00   0.0000000E+00   0.0000000E+00   0.0000000E+00   0.0000000E+00   0.0000000E+00   0.0000000E+00   0.0000000E+00   0.0000000E+00   0.0000000E+00   0.0000000E+00   0.0000000E+00   0.0000000E+00   0.0000000E+00   0.0000000E+00   0.0000000E+00   0.0000000E+00   0.0000000E+00   0.0000000E+00   0.0000000E+00   0.0000000E+00   0.0000000E+00   0.0000000E+00   0.0000000E+00   0.0000000E+00   0.0000000E+00   0.0000000E+00   0.0000000E+00   0.0000000E+00   0.0000000E+00   0.0000000E+00   0.0000000E+00   0.0000000E+00   0.0000000E+00   0.0000000E+00   0.0000000E+00   0.0000000E+00   0.0000000E+00   0.0000000E+00   0.0000000E+00   0.0000000E+00   0.0000000E+00   0.0000000E+00   0.0000000E+00   0.0000000E+00   0.0000000E+00   0.0000000E+00   0.0000000E+00   0.0000000E+00   0.0000000E+00   0.0000000E+00   0.0000000E+00   0.0000000E+00   0.0000000E+00   0.0000000E+00   0.0000000E+00   0.0000000E+00   0.0000000E+00   0.0000000E+00   0.0000000E+00   0.0000000E+00   0.0000000E+00   0.0000000E+00   0.0000000E+00   0.0000000E+00   0.0000000E+00   0.0000000E+00   0.0000000E+00   0.0000000E+00   0.0000000E+00   0.0000000E+00   0.0000000E+00   0.0000000E+00   0.0000000E+00   0.0000000E+00   0.0000000E+00   0.0000000E+00   0.0000000E+00   0.0000000E+00   0.0000000E+00   0.0000000E+00   0.0000000E+00   0.0000000E+00   0.0000000E+00   0.0000000E+00   0.0000000E+00   0.0000000E+00   0.0000000E+00   0.0000000E+00   0.0000000E+00   0.0000000E+00   0.0000000E+00   0.0000000E+00   0.0000000E+00   0.0000000E+00   0.0000000E+00   0.0000000E+00   0.0000000E+00   0.0000000E+00   0.0000000E+00   0.0000000E+00   0.0000000E+00   0.0000000E+00   0.0000000E+00   0.0000000E+00   0.0000000E+00   0.0000000E+00   0.0000000E+00   0.0000000E+00   0.0000000E+00   0.0000000E+00   0.0000000E+00   0.0000000E+00   0.0000000E+00   0.0000000E+00   0.0000000E+00   0.0000000E+00   0.0000000E+00   0.0000000E+00   0.0000000E+00   0.0000000E+00   0.0000000E+00   0.0000000E+00   0.0000000E+00   0.0000000E+00   0.0000000E+00   0.0000000E+00   0.0000000E+00   0.0000000E+00   0.0000000E+00   0.0000000E+00   0.0000000E+00   0.0000000E+00   0.0000000E+00   0.0000000E+00   0.0000000E+00   0.0000000E+00   0.0000000E+00   0.0000000E+00   0.0000000E+00   0.0000000E+00   0.0000000E+00   0.0000000E+00   0.0000000E+00   0.0000000E+00   0.0000000E+00   0.0000000E+00   0.0000000E+00   0.0000000E+00   0.0000000E+00   0.0000000E+00   0.0000000E+00   0.0000000E+00   0.0000000E+00   0.0000000E+00   0.0000000E+00   0.0000000E+00   0.0000000E+00   0.0000000E+00   0.0000000E+00   0.0000000E+00   0.0000000E+00   0.0000000E+00   0.0000000E+00   0.0000000E+00   0.0000000E+00   0.0000000E+00   0.0000000E+00   0.0000000E+00   0.0000000E+00   0.0000000E+00   0.0000000E+00   0.0000000E+00   0.0000000E+00   0.0000000E+00   0.0000000E+00   0.0000000E+00   0.0000000E+00   0.0000000E+00   0.0000000E+00   0.0000000E+00   0.0000000E+00   0.0000000E+00   0.0000000E+00   0.0000000E+00   0.0000000E+00   0.0000000E+00   0.0000000E+00   0.0000000E+00   0.0000000E+00   0.0000000E+00   0.0000000E+00   0.0000000E+00   0.0000000E+00   0.0000000E+00   0.0000000E+00   0.0000000E+00   0.0000000E+00   0.0000000E+00   0.0000000E+00   0.0000000E+00   0.0000000E+00   0.0000000E+00   0.0000000E+00   0.0000000E+00   0.0000000E+00   0.0000000E+00   0.0000000E+00   0.0000000E+00   0.0000000E+00   0.0000000E+00   0.0000000E+00   0.0000000E+00   0.0000000E+00   0.0000000E+00   0.0000000E+00   0.0000000E+00   0.0000000E+00   0.0000000E+00   0.0000000E+00   0.0000000E+00   0.0000000E+00   0.0000000E+00   0.0000000E+00   0.0000000E+00   0.0000000E+00   0.0000000E+00   0.0000000E+00   0.0000000E+00   0.0000000E+00   0.0000000E+00   0.0000000E+00   0.0000000E+00   0.0000000E+00   0.0000000E+00   0.0000000E+00   0.0000000E+00   0.0000000E+00   0.0000000E+00   0.0000000E+00   0.0000000E+00   0.0000000E+00   0.0000000E+00   0.0000000E+00   0.0000000E+00   0.0000000E+00   0.0000000E+00   0.0000000E+00   0.0000000E+00   0.0000000E+00   0.0000000E+00   0.0000000E+00   0.0000000E+00   0.0000000E+00   0.0000000E+00   0.0000000E+00   0.0000000E+00   0.0000000E+00   0.0000000E+00   0.0000000E+00   0.0000000E+00   0.0000000E+00   0.0000000E+00   0.0000000E+00   0.0000000E+00   0.0000000E+00   0.0000000E+00   0.0000000E+00   0.0000000E+00   0.0000000E+00   0.0000000E+00   0.0000000E+00   0.0000000E+00   0.0000000E+00   0.0000000E+00   0.0000000E+00   0.0000000E+00   0.0000000E+00   0.0000000E+00   0.0000000E+00   0.0000000E+00   0.0000000E+00   0.0000000E+00   0.0000000E+00   0.0000000E+00   0.0000000E+00   0.0000000E+00   0.0000000E+00   0.0000000E+00   0.0000000E+00   0.0000000E+00   0.0000000E+00   0.0000000E+00   0.0000000E+00   0.0000000E+00   0.0000000E+00   0.0000000E+00   0.0000000E+00   0.0000000E+00   0.0000000E+00   0.0000000E+00   0.0000000E+00   0.0000000E+00   0.0000000E+00   0.0000000E+00   0.0000000E+00   0.0000000E+00   0.0000000E+00   0.0000000E+00   0.0000000E+00   0.0000000E+00   0.0000000E+00   0.0000000E+00   0.0000000E+00   0.0000000E+00   0.0000000E+00   0.0000000E+00   0.0000000E+00   0.0000000E+00   0.0000000E+00   0.0000000E+00   0.0000000E+00   0.0000000E+00   0.0000000E+00   0.0000000E+00   0.0000000E+00   0.0000000E+00   0.0000000E+00   0.0000000E+00   0.0000000E+00   0.0000000E+00   0.0000000E+00   0.0000000E+00   0.0000000E+00   0.0000000E+00   0.0000000E+00   0.0000000E+00   0.0000000E+00   0.0000000E+00   0.0000000E+00   0.0000000E+00   0.0000000E+00   0.0000000E+00   0.0000000E+00   0.0000000E+00   0.0000000E+00   0.0000000E+00   0.0000000E+00   0.0000000E+00   0.0000000E+00   0.0000000E+00   0.0000000E+00   0.0000000E+00   0.0000000E+00   0.0000000E+00   0.0000000E+00   0.0000000E+00   0.0000000E+00   0.0000000E+00   0.0000000E+00   0.0000000E+00   0.0000000E+00   0.0000000E+00   0.0000000E+00   0.0000000E+00   0.0000000E+00   0.0000000E+00   0.0000000E+00   0.0000000E+00   0.0000000E+00   0.0000000E+00   0.0000000E+00   0.0000000E+00   0.0000000E+00   0.0000000E+00   0.0000000E+00   0.0000000E+00   0.0000000E+00   0.0000000E+00   0.0000000E+00   0.0000000E+00   0.0000000E+00   0.0000000E+00   0.0000000E+00   0.0000000E+00   0.0000000E+00   0.0000000E+00   0.0000000E+00   0.0000000E+00   0.0000000E+00   0.0000000E+00   0.0000000E+00   0.0000000E+00   0.0000000E+00   0.0000000E+00   0.0000000E+00   0.0000000E+00   0.0000000E+00   0.0000000E+00   0.0000000E+00   0.0000000E+00   0.0000000E+00   0.0000000E+00   0.0000000E+00   0.0000000E+00   0.0000000E+00   0.0000000E+00   0.0000000E+00   0.0000000E+00   0.0000000E+00   0.0000000E+00   0.0000000E+00   0.0000000E+00   0.0000000E+00   0.0000000E+00   0.0000000E+00   0.0000000E+00   0.0000000E+00   0.0000000E+00   0.0000000E+00   0.0000000E+00   0.0000000E+00   0.0000000E+00   0.0000000E+00   0.0000000E+00   0.0000000E+00   0.0000000E+00   0.0000000E+00   0.0000000E+00   0.0000000E+00   0.0000000E+00   0.0000000E+00   0.0000000E+00   0.0000000E+00   0.0000000E+00   0.0000000E+00   0.0000000E+00   0.0000000E+00   0.0000000E+00   0.0000000E+00   0.0000000E+00   0.0000000E+00   0.0000000E+00   0.0000000E+00   0.0000000E+00   0.0000000E+00   0.0000000E+00   0.0000000E+00   0.0000000E+00   0.0000000E+00   0.0000000E+00   0.0000000E+00   0.0000000E+00   0.0000000E+00   0.0000000E+00   0.0000000E+00   0.0000000E+00   0.0000000E+00   0.0000000E+00   0.0000000E+00   0.0000000E+00   0.0000000E+00   0.0000000E+00   0.0000000E+00   0.0000000E+00   0.0000000E+00   0.0000000E+00   0.0000000E+00   0.0000000E+00   0.0000000E+00   0.0000000E+00   0.0000000E+00   0.0000000E+00   0.0000000E+00   0.0000000E+00   0.0000000E+00   0.0000000E+00   0.0000000E+00   0.0000000E+00   0.0000000E+00   0.0000000E+00   0.0000000E+00   0.0000000E+00   0.0000000E+00   0.0000000E+00   0.0000000E+00   0.0000000E+00   0.0000000E+00   0.0000000E+00   0.0000000E+00   0.0000000E+00   0.0000000E+00   0.0000000E+00   0.0000000E+00   0.0000000E+00   0.0000000E+00   0.0000000E+00   0.0000000E+00   0.0000000E+00   0.0000000E+00   0.0000000E+00   0.0000000E+00   0.0000000E+00   0.0000000E+00   0.0000000E+00   0.0000000E+00   0.0000000E+00   0.0000000E+00   0.0000000E+00   0.0000000E+00   0.0000000E+00   0.0000000E+00   0.0000000E+00   0.0000000E+00   0.0000000E+00   0.0000000E+00   0.0000000E+00   0.0000000E+00   0.0000000E+00   0.0000000E+00   0.0000000E+00   0.0000000E+00   0.0000000E+00   0.0000000E+00   0.0000000E+00   0.0000000E+00   0.0000000E+00   0.0000000E+00   0.0000000E+00   0.0000000E+00   0.0000000E+00   0.0000000E+00   0.0000000E+00   0.0000000E+00   0.0000000E+00   0.0000000E+00   0.0000000E+00   0.0000000E+00   0.0000000E+00   0.0000000E+00   0.0000000E+00   0.0000000E+00   0.0000000E+00   0.0000000E+00   0.0000000E+00   0.0000000E+00   0.0000000E+00   0.0000000E+00   0.0000000E+00   0.0000000E+00   0.0000000E+00   0.0000000E+00   0.0000000E+00   0.0000000E+00   0.0000000E+00   0.0000000E+00   0.0000000E+00   0.0000000E+00   0.0000000E+00   0.0000000E+00   0.0000000E+00   0.0000000E+00   0.0000000E+00   0.0000000E+00   0.0000000E+00   0.0000000E+00   0.0000000E+00   0.0000000E+00   0.0000000E+00   0.0000000E+00   0.0000000E+00   0.0000000E+00   0.0000000E+00   0.0000000E+00   0.0000000E+00   0.0000000E+00   0.0000000E+00   0.0000000E+00   0.0000000E+00   0.0000000E+00   0.0000000E+00   0.0000000E+00   0.0000000E+00   0.0000000E+00   0.0000000E+00   0.0000000E+00   0.0000000E+00   0.0000000E+00   0.0000000E+00   0.0000000E+00   0.0000000E+00   0.0000000E+00   0.0000000E+00   0.0000000E+00   0.0000000E+00   0.0000000E+00   0.0000000E+00   0.0000000E+00   0.0000000E+00   0.0000000E+00   0.0000000E+00   0.0000000E+00   0.0000000E+00   0.0000000E+00   0.0000000E+00   0.0000000E+00   0.0000000E+00   0.0000000E+00   0.0000000E+00   0.0000000E+00   0.0000000E+00   0.0000000E+00   0.0000000E+00   0.0000000E+00   0.0000000E+00   0.0000000E+00   0.0000000E+00   0.0000000E+00   0.0000000E+00   0.0000000E+00   0.0000000E+00   0.0000000E+00   0.0000000E+00   0.0000000E+00   0.0000000E+00   0.0000000E+00   0.0000000E+00   0.0000000E+00   0.0000000E+00   0.0000000E+00   0.0000000E+00   0.0000000E+00   0.0000000E+00   0.0000000E+00   0.0000000E+00   0.0000000E+00   0.0000000E+00   0.0000000E+00   0.0000000E+00   0.0000000E+00   0.0000000E+00   0.0000000E+00   0.0000000E+00   0.0000000E+00   0.0000000E+00   0.0000000E+00   0.0000000E+00   0.0000000E+00   0.0000000E+00   0.0000000E+00   0.0000000E+00   0.0000000E+00   0.0000000E+00   0.0000000E+00   0.0000000E+00   0.0000000E+00   0.0000000E+00   0.0000000E+00   0.0000000E+00   0.0000000E+00   0.0000000E+00   0.0000000E+00   0.0000000E+00   0.0000000E+00   0.0000000E+00   0.0000000E+00   0.0000000E+00   0.0000000E+00   0.0000000E+00   0.0000000E+00   0.0000000E+00   0.0000000E+00   0.0000000E+00   0.0000000E+00   0.0000000E+00   0.0000000E+00   0.0000000E+00   0.0000000E+00   0.0000000E+00   0.0000000E+00   0.0000000E+00   0.0000000E+00   0.0000000E+00   0.0000000E+00   0.0000000E+00   0.0000000E+00   0.0000000E+00   0.0000000E+00   0.0000000E+00   0.0000000E+00   0.0000000E+00   0.0000000E+00   0.0000000E+00   0.0000000E+00   0.0000000E+00   0.0000000E+00   0.0000000E+00   0.0000000E+00   0.0000000E+00   0.0000000E+00   0.0000000E+00   0.0000000E+00   0.0000000E+00   0.0000000E+00   0.0000000E+00   0.0000000E+00   0.0000000E+00   0.0000000E+00   0.0000000E+00   0.0000000E+00   0.0000000E+00   0.0000000E+00   0.0000000E+00   0.0000000E+00   0.0000000E+00   0.0000000E+00   0.0000000E+00   0.0000000E+00   0.0000000E+00   0.0000000E+00   0.0000000E+00   0.0000000E+00   0.0000000E+00   0.0000000E+00   0.0000000E+00   0.0000000E+00   0.0000000E+00   0.0000000E+00   0.0000000E+00   0.0000000E+00   0.0000000E+00   0.0000000E+00   0.0000000E+00   0.0000000E+00   0.0000000E+00   0.0000000E+00   0.0000000E+00   0.0000000E+00   0.0000000E+00   0.0000000E+00   0.0000000E+00   0.0000000E+00   0.0000000E+00   0.0000000E+00   0.0000000E+00   0.0000000E+00   0.0000000E+00   0.0000000E+00   0.0000000E+00   0.0000000E+00   0.0000000E+00   0.0000000E+00   0.0000000E+00   0.0000000E+00   0.0000000E+00   0.0000000E+00   0.0000000E+00   0.0000000E+00   0.0000000E+00   0.0000000E+00   0.0000000E+00   0.0000000E+00   0.0000000E+00   0.0000000E+00   0.0000000E+00   0.0000000E+00   0.0000000E+00   0.0000000E+00   0.0000000E+00   0.0000000E+00   0.0000000E+00   0.0000000E+00   0.0000000E+00   0.0000000E+00   0.0000000E+00   0.0000000E+00   0.0000000E+00   0.0000000E+00   0.0000000E+00   0.0000000E+00   0.0000000E+00   0.0000000E+00   0.0000000E+00   0.0000000E+00   0.0000000E+00   0.0000000E+00   0.0000000E+00   0.0000000E+00   0.0000000E+00   0.0000000E+00   0.0000000E+00   0.0000000E+00   0.0000000E+00   0.0000000E+00   0.0000000E+00   0.0000000E+00   0.0000000E+00   0.0000000E+00   0.0000000E+00   0.0000000E+00   0.0000000E+00   0.0000000E+00   0.0000000E+00   0.0000000E+00   0.0000000E+00   0.0000000E+00   0.0000000E+00   0.0000000E+00   0.0000000E+00   0.0000000E+00   0.0000000E+00   0.0000000E+00   0.0000000E+00   0.0000000E+00   0.0000000E+00   0.0000000E+00   0.0000000E+00   0.0000000E+00   0.0000000E+00   0.0000000E+00   0.0000000E+00   0.0000000E+00   0.0000000E+00   0.0000000E+00   0.0000000E+00   0.0000000E+00   0.0000000E+00   0.0000000E+00   0.0000000E+00   0.0000000E+00   0.0000000E+00   0.0000000E+00   0.0000000E+00   0.0000000E+00   0.0000000E+00   0.0000000E+00   0.0000000E+00   0.0000000E+00   0.0000000E+00   0.0000000E+00   0.0000000E+00   0.0000000E+00   0.0000000E+00   0.0000000E+00   0.0000000E+00   0.0000000E+00   0.0000000E+00   0.0000000E+00   0.0000000E+00   0.0000000E+00   0.0000000E+00   0.0000000E+00   0.0000000E+00   0.0000000E+00   0.0000000E+00   0.0000000E+00   0.0000000E+00   0.0000000E+00   0.0000000E+00   0.0000000E+00   0.0000000E+00   0.0000000E+00   0.0000000E+00   0.0000000E+00   0.0000000E+00   0.0000000E+00   0.0000000E+00   0.0000000E+00   0.0000000E+00   0.0000000E+00   0.0000000E+00   0.0000000E+00   0.0000000E+00   0.0000000E+00   0.0000000E+00   0.0000000E+00   0.0000000E+00   0.0000000E+00   0.0000000E+00   0.0000000E+00   0.0000000E+00   0.0000000E+00   0.0000000E+00   0.0000000E+00   0.0000000E+00   0.0000000E+00   0.0000000E+00   0.0000000E+00   0.0000000E+00   0.0000000E+00   0.0000000E+00   0.0000000E+00   0.0000000E+00   0.0000000E+00   0.0000000E+00   0.0000000E+00   0.0000000E+00   0.0000000E+00   0.0000000E+00   0.0000000E+00   0.0000000E+00   0.0000000E+00   0.0000000E+00   0.0000000E+00   0.0000000E+00   0.0000000E+00   0.0000000E+00   0.0000000E+00   0.0000000E+00   0.0000000E+00   0.0000000E+00   0.0000000E+00   0.0000000E+00   0.0000000E+00   0.0000000E+00   0.0000000E+00   0.0000000E+00   0.0000000E+00   0.0000000E+00   0.0000000E+00   0.0000000E+00   0.0000000E+00   0.0000000E+00   0.0000000E+00   0.0000000E+00   0.0000000E+00   0.0000000E+00   0.0000000E+00   0.0000000E+00   0.0000000E+00   0.0000000E+00   0.0000000E+00   0.0000000E+00   0.0000000E+00   0.0000000E+00   0.0000000E+00   0.0000000E+00   0.0000000E+00   0.0000000E+00   0.0000000E+00   0.0000000E+00   0.0000000E+00   0.0000000E+00   0.0000000E+00   0.0000000E+00   0.0000000E+00   0.0000000E+00   0.0000000E+00   0.0000000E+00   0.0000000E+00   0.0000000E+00   0.0000000E+00   0.0000000E+00   0.0000000E+00   0.0000000E+00   0.0000000E+00   0.0000000E+00   0.0000000E+00   0.0000000E+00   0.0000000E+00   0.0000000E+00   0.0000000E+00   0.0000000E+00   0.0000000E+00   0.0000000E+00   0.0000000E+00   0.0000000E+00   0.0000000E+00   0.0000000E+00   0.0000000E+00   0.0000000E+00   0.0000000E+00   0.0000000E+00   0.0000000E+00   0.0000000E+00   0.0000000E+00   0.0000000E+00   0.0000000E+00   0.0000000E+00   0.0000000E+00   0.0000000E+00   0.0000000E+00   0.0000000E+00   0.0000000E+00   0.0000000E+00   0.0000000E+00   0.0000000E+00   0.0000000E+00   0.0000000E+00   0.0000000E+00   0.0000000E+00   0.0000000E+00   0.0000000E+00   0.0000000E+00   0.0000000E+00   0.0000000E+00   0.0000000E+00   0.0000000E+00   0.0000000E+00   0.0000000E+00   0.0000000E+00   0.0000000E+00   0.0000000E+00   0.0000000E+00   0.0000000E+00   0.0000000E+00   0.0000000E+00   0.0000000E+00   0.0000000E+00   0.0000000E+00   0.0000000E+00   0.0000000E+00   0.0000000E+00   0.0000000E+00   0.0000000E+00   0.0000000E+00   0.0000000E+00   0.0000000E+00   0.0000000E+00   0.0000000E+00  -6.4435590E-05   0.0000000E+00  -2.0261559E-05  -7.9641635E-05   0.0000000E+00  -1.8907489E-05  -9.2705443E-05   0.0000000E+00  -1.7005181E-05  -1.0378029E-04   0.0000000E+00  -1.4793116E-05  -1.1299604E-04   0.0000000E+00  -1.2565890E-05  -8.8256696E-05   0.0000000E+00  -3.8242844E-05  -1.2021810E-04   0.0000000E+00  -3.7625003E-05  -1.4851576E-04   0.0000000E+00  -3.5103367E-05  -1.7250987E-04   0.0000000E+00  -3.1595217E-05  -1.9268539E-04   0.0000000E+00  -2.7519860E-05  -2.0938148E-04   0.0000000E+00  -2.3420005E-05  -1.6175906E-04   0.0000000E+00  -6.8973954E-05  -2.1914361E-04   0.0000000E+00  -6.8106354E-05  -2.6950784E-04   0.0000000E+00  -6.3303356E-05  -3.1202889E-04   0.0000000E+00  -5.6872246E-05  -3.4758265E-04   0.0000000E+00  -4.9519633E-05  -3.7686361E-04   0.0000000E+00  -4.2156691E-05  -2.8869879E-04   0.0000000E+00  -1.2175512E-04  -3.8941781E-04   0.0000000E+00  -1.1997797E-04  -4.7683131E-04   0.0000000E+00  -1.1127628E-04  -5.5004534E-04   0.0000000E+00  -9.9791745E-05  -6.1084121E-04   0.0000000E+00  -8.6852473E-05  -6.6066498E-04   0.0000000E+00  -7.3921576E-05  -5.0437188E-04   0.0000000E+00  -2.1063515E-04  -6.7737018E-04   0.0000000E+00  -2.0663820E-04  -8.2586420E-04   0.0000000E+00  -1.9106400E-04  -9.4906881E-04   0.0000000E+00  -1.7098036E-04  -1.0504856E-03   0.0000000E+00  -1.4873694E-04  -1.1331220E-03   0.0000000E+00  -1.2654715E-04  -8.6622982E-04   0.0000000E+00  -3.5798986E-04  -1.1575916E-03   0.0000000E+00  -3.4904771E-04  -1.4047548E-03   0.0000000E+00  -3.2134543E-04  -1.6077333E-03   0.0000000E+00  -2.8676397E-04  -1.7732743E-03   0.0000000E+00  -2.4918569E-04  -1.9072582E-03   0.0000000E+00  -2.1186656E-04  -1.4667974E-03   0.0000000E+00  -5.9961784E-04  -1.9491217E-03   0.0000000E+00  -5.8026292E-04  -2.3531625E-03   0.0000000E+00  -5.3128955E-04  -2.6812856E-03   0.0000000E+00  -4.7238034E-04  -2.9462329E-03   0.0000000E+00  -4.0943178E-04  -3.1587617E-03   0.0000000E+00  -3.4744141E-04  -2.4562397E-03   0.0000000E+00  -9.9175726E-04  -3.2399164E-03   0.0000000E+00  -9.5130858E-04  -3.8868089E-03   0.0000000E+00  -8.6550007E-04  -4.4062552E-03   0.0000000E+00  -7.6636206E-04  -4.8222328E-03   0.0000000E+00  -6.6178694E-04  -5.1532146E-03   0.0000000E+00  -5.5965118E-04  -4.0709325E-03   0.0000000E+00  -1.6170086E-03  -5.3154938E-03   0.0000000E+00  -1.5361144E-03  -6.3265618E-03   0.0000000E+00  -1.3890445E-03  -7.1305279E-03   0.0000000E+00  -1.2256082E-03  -7.7708084E-03   0.0000000E+00  -1.0545286E-03  -8.2774926E-03   0.0000000E+00  -8.8797527E-04  -6.6729756E-03   0.0000000E+00  -2.5921981E-03  -8.6022001E-03   0.0000000E+00  -2.4381096E-03  -1.0143587E-02   0.0000000E+00  -2.1945173E-03  -1.1361944E-02   0.0000000E+00  -1.9293125E-03  -1.2326205E-02   0.0000000E+00  -1.6567524E-03  -1.3088144E-02   0.0000000E+00  -1.3889559E-03  -1.0803039E-02   0.0000000E+00  -4.1040834E-03  -1.3730049E-02   0.0000000E+00  -3.8109994E-03  -1.6029721E-02   0.0000000E+00  -3.4083594E-03  -1.7837515E-02   0.0000000E+00  -2.9849338E-03  -1.9256527E-02   0.0000000E+00  -2.5636370E-03  -2.0380028E-02   0.0000000E+00  -2.1389602E-03  -1.7192580E-02   0.0000000E+00  -6.9847098E-03  -2.1591868E-02   0.0000000E+00  -6.1817230E-03  -2.4970319E-02   0.0000000E+00  -5.3535672E-03  -2.7599899E-02   0.0000000E+00  -4.6013766E-03  -2.9641815E-02   0.0000000E+00  -3.9217477E-03  -3.1261545E-02   0.0000000E+00  -3.2434883E-03  -2.7679365E-02   0.0000000E+00  -1.2459643E-02  -3.3744127E-02   0.0000000E+00  -1.0435118E-02  -3.8454950E-02   0.0000000E+00  -8.5645337E-03  -4.2145144E-02   0.0000000E+00  -7.0948154E-03  -4.4990234E-02   0.0000000E+00  -5.9353039E-03  -4.7259819E-02   0.0000000E+00  -4.8415139E-03  -4.4303797E-02   0.0000000E+00  -2.1092730E-02  -5.2379198E-02   0.0000000E+00  -1.7242134E-02  -5.8639910E-02   0.0000000E+00  -1.3554410E-02  -6.3543566E-02   0.0000000E+00  -1.1138021E-02  -6.7393430E-02   0.0000000E+00  -8.9655481E-03  -7.0480965E-02   0.0000000E+00  -7.1320594E-03  -6.9363169E-02   0.0000000E+00  -3.4948956E-02  -8.0192171E-02   0.0000000E+00  -2.8033130E-02  -8.8356614E-02   0.0000000E+00  -2.1276560E-02  -9.4784416E-02   0.0000000E+00  -1.6391376E-02  -9.9803850E-02   0.0000000E+00  -1.3018772E-02  -1.0386836E-01   0.0000000E+00  -1.0292358E-02  -1.0655116E-01   0.0000000E+00  -5.2983038E-02  -1.2095119E-01   0.0000000E+00  -4.2117316E-02  -1.3152033E-01   0.0000000E+00  -3.1497363E-02  -1.3977961E-01   0.0000000E+00  -2.3902245E-02  -1.4624012E-01   0.0000000E+00  -1.8725388E-02  -1.5147127E-01   0.0000000E+00  -1.4668392E-02  -1.6016747E-01   0.0000000E+00  -7.9281881E-02  -1.7941591E-01   0.0000000E+00  -6.2240608E-02  -1.9317515E-01   0.0000000E+00  -4.5863759E-02  -2.0381136E-01   0.0000000E+00  -3.4305993E-02  -2.1204259E-01   0.0000000E+00  -2.6574640E-02  -2.1869652E-01   0.0000000E+00  -2.0625558E-02  -2.3657633E-01   0.0000000E+00  -1.1766231E-01  -2.6232168E-01   0.0000000E+00  -9.1284916E-02  -2.8031233E-01   0.0000000E+00  -6.6216543E-02  -2.9394001E-01   0.0000000E+00  -4.8788581E-02  -3.0430165E-01   0.0000000E+00  -3.7338644E-02  -3.1256244E-01   0.0000000E+00  -2.8739177E-02  -3.4476453E-01   0.0000000E+00  -1.6809244E-01  -3.7904227E-01   0.0000000E+00  -1.2864837E-01  -4.0230966E-01   0.0000000E+00  -9.2208378E-02  -4.1935170E-01   0.0000000E+00  -6.7498676E-02  -4.3194288E-01   0.0000000E+00  -5.1506914E-02  -4.4175076E-01   0.0000000E+00  -3.9685905E-02  -4.9736127E-01   0.0000000E+00  -2.3960136E-01  -5.4210281E-01   0.0000000E+00  -1.8033041E-01  -5.7106906E-01   0.0000000E+00  -1.2739907E-01  -5.9122610E-01   0.0000000E+00  -9.2597894E-02  -6.0550529E-01   0.0000000E+00  -7.0546269E-02  -6.1633784E-01   0.0000000E+00  -5.4663867E-02  -7.1140140E-01   0.0000000E+00  -3.3454785E-01  -7.6762670E-01   0.0000000E+00  -2.4750297E-01  -8.0140448E-01   0.0000000E+00  -1.7266689E-01  -8.2304156E-01   0.0000000E+00  -1.2518679E-01  -8.3732885E-01   0.0000000E+00  -9.5798634E-02  -8.4791064E-01   0.0000000E+00  -7.5238094E-02  -1.0094019E+00   0.0000000E+00  -4.6653306E-01  -1.0764487E+00   0.0000000E+00  -3.3727881E-01  -1.1120174E+00   0.0000000E+00  -2.3119104E-01  -1.1314440E+00   0.0000000E+00  -1.6775148E-01  -1.1425627E+00   0.0000000E+00  -1.2947710E-01  -1.1505506E+00   0.0000000E+00  -1.0402250E-01  -1.4224941E+00   0.0000000E+00  -6.4138514E-01  -1.4963568E+00   0.0000000E+00  -4.5066825E-01  -1.5271312E+00   0.0000000E+00  -3.0547655E-01  -1.5377424E+00   0.0000000E+00  -2.2389382E-01  -1.5408345E+00   0.0000000E+00  -1.7578924E-01  -1.5429840E+00   0.0000000E+00  -1.4495495E-01  -1.9936643E+00   0.0000000E+00  -8.7019593E-01  -2.0635033E+00   0.0000000E+00  -5.9478450E-01  -2.0770199E+00   0.0000000E+00  -4.0076268E-01  -2.0685365E+00   0.0000000E+00  -3.0066288E-01  -2.0573606E+00   0.0000000E+00  -2.4209352E-01  -2.0499625E+00   0.0000000E+00  -2.0475671E-01  -2.7821977E+00   0.0000000E+00  -1.1744968E+00  -2.8228121E+00   0.0000000E+00  -7.8009170E-01  -2.7971675E+00   0.0000000E+00  -5.2776343E-01  -2.7543149E+00   0.0000000E+00  -4.1045704E-01  -2.7221959E+00   0.0000000E+00  -3.4205624E-01  -2.7021112E+00   0.0000000E+00  -2.9512593E-01  -3.8658848E+00   0.0000000E+00  -1.5815749E+00  -3.8258159E+00   0.0000000E+00  -1.0262336E+00  -3.7230229E+00   0.0000000E+00  -7.1009529E-01  -3.6246941E+00   0.0000000E+00  -5.7753307E-01  -3.5657814E+00   0.0000000E+00  -4.9745125E-01  -3.5323405E+00   0.0000000E+00  -4.3020767E-01  -5.3411140E+00   0.0000000E+00  -2.1456437E+00  -5.1230283E+00   0.0000000E+00  -1.3770965E+00  -4.8804498E+00   0.0000000E+00  -9.9252135E-01  -4.7001386E+00   0.0000000E+00  -8.4390509E-01  -4.6048388E+00   0.0000000E+00  -7.4574471E-01  -4.5685396E+00   0.0000000E+00  -6.2560773E-01  -7.3017497E+00   0.0000000E+00  -2.9691164E+00  -6.7420316E+00   0.0000000E+00  -1.9330648E+00  -6.2697411E+00   0.0000000E+00  -1.4630262E+00  -5.9871273E+00   0.0000000E+00  -1.2524732E+00  -5.8734722E+00   0.0000000E+00  -1.0692528E+00  -5.8277655E+00   0.0000000E+00  -8.8544542E-01  -9.7935009E+00   0.0000000E+00  -4.2752109E+00  -8.6493330E+00   0.0000000E+00  -2.8715780E+00  -7.8613601E+00   0.0000000E+00  -2.2168574E+00  -7.5157413E+00   0.0000000E+00  -1.7922615E+00  -7.3792233E+00   0.0000000E+00  -1.4753251E+00  -7.3003049E+00   0.0000000E+00  -1.2092446E+00  -1.2725042E+01   0.0000000E+00  -6.3820882E+00  -1.0757468E+01   0.0000000E+00  -4.5061455E+00  -9.7383919E+00   0.0000000E+00  -3.2503581E+00  -9.2953529E+00   0.0000000E+00  -2.4828892E+00  -9.0627203E+00   0.0000000E+00  -1.9802101E+00  -8.9226971E+00   0.0000000E+00  -1.5982319E+00  -1.5760420E+01   0.0000000E+00  -9.9574480E+00  -1.3223580E+01   0.0000000E+00  -7.1747627E+00  -1.1918760E+01   0.0000000E+00  -4.8533468E+00  -1.1196057E+01   0.0000000E+00  -3.4569154E+00  -1.0827201E+01   0.0000000E+00  -2.6096623E+00  -1.0597013E+01   0.0000000E+00  -2.0468383E+00  -1.8437971E+01   0.0000000E+00  -1.5859105E+01  -1.5427962E+01   0.0000000E+00  -1.1927835E+01  -1.3923289E+01   0.0000000E+00  -7.9411054E+00  -1.3125919E+01   0.0000000E+00  -5.0507207E+00  -1.2553699E+01   0.0000000E+00  -3.4732077E+00  -1.2180833E+01   0.0000000E+00  -2.5603812E+00  -2.0140533E+01   0.0000000E+00  -2.5045801E+01  -1.6870483E+01   0.0000000E+00  -1.9866276E+01  -1.5479813E+01   0.0000000E+00  -1.3356271E+01  -1.4772485E+01   0.0000000E+00  -8.0199432E+00  -1.4164519E+01   0.0000000E+00  -4.8703961E+00  -1.3652967E+01   0.0000000E+00  -3.2801080E+00  -2.0482290E+01   0.0000000E+00  -3.6250660E+01  -1.7557590E+01   0.0000000E+00  -3.0001808E+01  -1.6456966E+01   0.0000000E+00  -2.0527916E+01  -1.5947397E+01   0.0000000E+00  -1.2062469E+01  -1.5348579E+01   0.0000000E+00  -6.9321427E+00  -1.4765557E+01   0.0000000E+00  -4.3145561E+00  -1.8959909E+01   0.0000000E+00  -4.6122974E+01  -1.6897892E+01   0.0000000E+00  -3.9024212E+01  -1.6157795E+01   0.0000000E+00  -2.6980375E+01  -1.5938250E+01   0.0000000E+00  -1.5847277E+01  -1.5522489E+01   0.0000000E+00  -8.8955984E+00  -1.4984600E+01   0.0000000E+00  -5.2811685E+00  -1.5165544E+01   0.0000000E+00  -5.2593216E+01  -1.4385921E+01   0.0000000E+00  -4.4947163E+01  -1.4034059E+01   0.0000000E+00  -3.1381050E+01  -1.3869243E+01   0.0000000E+00  -1.8516697E+01  -1.3583467E+01   0.0000000E+00  -1.0376158E+01  -1.3234961E+01   0.0000000E+00  -6.0920057E+00  -1.0638775E+01   0.0000000E+00  -5.6363304E+01  -1.0445774E+01   0.0000000E+00  -4.8213799E+01  -1.0234976E+01   0.0000000E+00  -3.3763088E+01  -1.0016648E+01   0.0000000E+00  -1.9999689E+01  -9.7498732E+00   0.0000000E+00  -1.1276817E+01  -9.4708681E+00   0.0000000E+00  -6.6654491E+00  -6.5535059E+00   0.0000000E+00  -5.8448364E+01  -6.4725323E+00   0.0000000E+00  -4.9907619E+01  -6.3595066E+00   0.0000000E+00  -3.4968151E+01  -6.2076731E+00   0.0000000E+00  -2.0786705E+01  -6.0254722E+00   0.0000000E+00  -1.1799898E+01  -5.8325887E+00   0.0000000E+00  -7.0374956E+00  -3.3548822E+00   0.0000000E+00  -5.9527252E+01  -3.3318202E+00   0.0000000E+00  -5.0739552E+01  -3.2832446E+00   0.0000000E+00  -3.5545372E+01  -3.2055650E+00   0.0000000E+00  -2.1182356E+01  -3.1047750E+00   0.0000000E+00  -1.2086849E+01  -2.9940174E+00   0.0000000E+00  -7.2611103E+00  -9.9037170E-01   0.0000000E+00  -5.9991634E+01  -1.0013735E+00   0.0000000E+00  -5.1064785E+01  -9.9758476E-01   0.0000000E+00  -3.5758476E+01  -9.7816008E-01   0.0000000E+00  -2.1334646E+01  -9.4570994E-01   0.0000000E+00  -1.2210381E+01  -9.0570164E-01   0.0000000E+00  -7.3691754E+00   8.6158818E-01   0.0000000E+00  -6.0035591E+01   8.2819730E-01   0.0000000E+00  -5.1057705E+01   7.9799098E-01   0.0000000E+00  -3.5731354E+01   7.7054197E-01   0.0000000E+00  -2.1319344E+01   7.4666458E-01   0.0000000E+00  -1.2212685E+01   7.2747982E-01   0.0000000E+00  -7.3843937E+00   2.5466826E+00   0.0000000E+00  -5.9756310E+01   2.4916003E+00   0.0000000E+00  -5.0809681E+01   2.4292314E+00   0.0000000E+00  -3.5534088E+01   2.3599060E+00   0.0000000E+00  -2.1179741E+01   2.2872875E+00   0.0000000E+00  -1.2118506E+01   2.2169447E+00   0.0000000E+00  -7.3207855E+00   4.2540908E+00   0.0000000E+00  -5.8712902E+01   4.1728740E+00   0.0000000E+00  -4.9907349E+01   4.0755634E+00   0.0000000E+00  -3.4879974E+01   3.9650211E+00   0.0000000E+00  -2.0771980E+01   3.8470049E+00   0.0000000E+00  -1.1873771E+01   3.7298796E+00   0.0000000E+00  -7.1667595E+00   5.9828954E+00   0.0000000E+00  -5.6885868E+01   5.8714542E+00   0.0000000E+00  -4.8331017E+01   5.7372389E+00   0.0000000E+00  -3.3756237E+01   5.5856404E+00   0.0000000E+00  -2.0091013E+01   5.4241943E+00   0.0000000E+00  -1.1477620E+01   5.2631717E+00   0.0000000E+00  -6.9247971E+00   7.6224484E+00   0.0000000E+00  -5.4337440E+01   7.4799085E+00   0.0000000E+00  -4.6130627E+01   7.3097119E+00   0.0000000E+00  -3.2193523E+01   7.1190987E+00   0.0000000E+00  -1.9152328E+01   6.9170218E+00   0.0000000E+00  -1.0939344E+01   6.7154503E+00   0.0000000E+00  -6.6007133E+00   9.0371265E+00   0.0000000E+00  -5.1171574E+01   8.8664417E+00   0.0000000E+00  -4.3394756E+01   8.6642923E+00   0.0000000E+00  -3.0252275E+01   8.4391069E+00   0.0000000E+00  -1.7989346E+01   8.2011051E+00   0.0000000E+00  -1.0276005E+01   7.9638767E+00   0.0000000E+00  -6.2044983E+00   1.0119232E+01   0.0000000E+00  -4.7531761E+01   9.8937769E+00   0.0000000E+00  -4.0238850E+01   9.6984749E+00   0.0000000E+00  -2.8016521E+01   9.4453440E+00   0.0000000E+00  -1.6650648E+01   9.1714220E+00   0.0000000E+00  -9.5135164E+00   8.8759975E+00   0.0000000E+00  -5.7529097E+00   1.0815381E+01   0.0000000E+00  -4.3581562E+01   1.0555595E+01   0.0000000E+00  -3.6812996E+01   1.0356723E+01   0.0000000E+00  -2.5585257E+01   1.0076511E+01   0.0000000E+00  -1.5191675E+01   9.6989059E+00   0.0000000E+00  -8.6853342E+00   9.2602797E+00   0.0000000E+00  -5.2788815E+00   1.1226476E+01   0.0000000E+00  -3.9486771E+01   1.0955057E+01   0.0000000E+00  -3.3282661E+01   1.0670975E+01   0.0000000E+00  -2.3067278E+01   1.0291357E+01   0.0000000E+00  -1.3676950E+01   9.7779903E+00   0.0000000E+00  -7.8283496E+00   9.2397175E+00   0.0000000E+00  -4.7943444E+00   1.1586897E+01   0.0000000E+00  -3.5415524E+01   1.1187584E+01   0.0000000E+00  -2.9774368E+01   1.0769654E+01   0.0000000E+00  -2.0588638E+01   1.0265606E+01   0.0000000E+00  -1.2188199E+01   9.6234322E+00   0.0000000E+00  -6.9851737E+00   9.0253611E+00   0.0000000E+00  -4.3199167E+00   1.2180182E+01   0.0000000E+00  -3.1513765E+01   1.1476692E+01   0.0000000E+00  -2.6431686E+01   1.0820120E+01   0.0000000E+00  -1.8272327E+01   1.0164020E+01   0.0000000E+00  -1.0818757E+01   9.3704977E+00   0.0000000E+00  -6.2086277E+00   8.7078648E+00   0.0000000E+00  -3.8685944E+00   1.3123378E+01   0.0000000E+00  -2.7866457E+01   1.2005206E+01   0.0000000E+00  -2.3379215E+01   1.0962993E+01   0.0000000E+00  -1.6242216E+01   1.0056618E+01   0.0000000E+00  -9.6653128E+00   9.0697260E+00   0.0000000E+00  -5.5639901E+00   8.3409348E+00   0.0000000E+00  -3.4915872E+00   1.4528751E+01   0.0000000E+00  -2.4562943E+01   1.2837989E+01   0.0000000E+00  -2.0709591E+01   1.1267809E+01   0.0000000E+00  -1.4596714E+01   9.9701309E+00   0.0000000E+00  -8.8090086E+00   8.7708549E+00   0.0000000E+00  -5.1157069E+00   7.9650373E+00   0.0000000E+00  -3.1971257E+00   1.6289953E+01   0.0000000E+00  -2.1645666E+01   1.3911181E+01   0.0000000E+00  -1.8485477E+01   1.1737392E+01   0.0000000E+00  -1.3395832E+01   9.9370451E+00   0.0000000E+00  -8.3043385E+00   8.5155745E+00   0.0000000E+00  -4.8792758E+00   7.6059155E+00   0.0000000E+00  -3.0063066E+00   1.7906473E+01   0.0000000E+00  -1.9101854E+01   1.4952545E+01   0.0000000E+00  -1.6706970E+01   1.2262753E+01   0.0000000E+00  -1.2626731E+01   9.9930191E+00   0.0000000E+00  -8.1530104E+00   8.3346338E+00   0.0000000E+00  -4.8728633E+00   7.2920246E+00   0.0000000E+00  -2.9394255E+00   1.5533919E+01   0.0000000E+00  -1.5285731E+01   1.2677907E+01   0.0000000E+00  -1.2161008E+01   1.0149542E+01   0.0000000E+00  -8.3030643E+00   8.2630911E+00   0.0000000E+00  -5.0894675E+00   7.0595956E+00   0.0000000E+00  -3.0292962E+00   1.5658961E+01   0.0000000E+00  -1.4037675E+01   1.2948203E+01   0.0000000E+00  -1.1812529E+01   1.0405250E+01   0.0000000E+00  -8.6289577E+00   8.3440542E+00   0.0000000E+00  -5.5193954E+00   6.9424958E+00   0.0000000E+00  -3.2859066E+00   1.3092942E+01   0.0000000E+00  -1.1450202E+01   1.0746458E+01   0.0000000E+00  -8.9774036E+00   8.6353035E+00   0.0000000E+00  -6.1322703E+00   7.0146871E+00   0.0000000E+00  -3.7574925E+00   1.3235870E+01   0.0000000E+00  -1.0986717E+01   1.1196893E+01   0.0000000E+00  -9.2025919E+00   9.1677628E+00   0.0000000E+00  -6.8094125E+00   7.3869758E+00   0.0000000E+00  -4.4523187E+00   1.1637804E+01   0.0000000E+00  -9.2768030E+00   9.8798075E+00   0.0000000E+00  -7.3945079E+00   8.1290998E+00   0.0000000E+00  -5.2375708E+00   1.0590878E+01   0.0000000E+00  -7.7915001E+00   9.1886473E+00   0.0000000E+00  -5.9215026E+00   1.1143819E+01   0.0000000E+00  -7.9973044E+00   1.0127570E+01   0.0000000E+00  -6.4546590E+00  -1.2055614E-04   0.0000000E+00  -1.0414288E-05  -1.2664846E-04   0.0000000E+00  -8.4176845E-06  -1.3146148E-04   0.0000000E+00  -6.6657835E-06  -1.3520195E-04   0.0000000E+00  -5.1459001E-06  -1.3804639E-04   0.0000000E+00  -3.8744515E-06  -1.4015607E-04   0.0000000E+00  -2.8179472E-06  -1.4166102E-04   0.0000000E+00  -1.9463776E-06  -1.4266331E-04   0.0000000E+00  -1.2170013E-06  -1.4323583E-04   0.0000000E+00  -5.8406744E-07  -2.2302860E-04   0.0000000E+00  -1.9458010E-05  -2.3400053E-04   0.0000000E+00  -1.5772854E-05  -2.4265885E-04   0.0000000E+00  -1.2536309E-05  -2.4939052E-04   0.0000000E+00  -9.7144475E-06  -2.5451474E-04   0.0000000E+00  -7.3494407E-06  -2.5832388E-04   0.0000000E+00  -5.3700619E-06  -2.6104841E-04   0.0000000E+00  -3.7270986E-06  -2.6286853E-04   0.0000000E+00  -2.3395837E-06  -2.6391051E-04   0.0000000E+00  -1.1259464E-06  -4.0071242E-04   0.0000000E+00  -3.5065143E-05  -4.1983832E-04   0.0000000E+00  -2.8472950E-05  -4.3491373E-04   0.0000000E+00  -2.2679109E-05  -4.4662584E-04   0.0000000E+00  -1.7637660E-05  -4.5554707E-04   0.0000000E+00  -1.3393050E-05  -4.6218646E-04   0.0000000E+00  -9.8253395E-06  -4.6694308E-04   0.0000000E+00  -6.8474224E-06  -4.7012771E-04   0.0000000E+00  -4.3126356E-06  -4.7195356E-04   0.0000000E+00  -2.0805826E-06  -7.0109830E-04   0.0000000E+00  -6.1489576E-05  -7.3341327E-04   0.0000000E+00  -5.0013110E-05  -7.5885316E-04   0.0000000E+00  -3.9889965E-05  -7.7858975E-04   0.0000000E+00  -3.1107120E-05  -7.9362426E-04   0.0000000E+00  -2.3676768E-05  -8.0481364E-04   0.0000000E+00  -1.7424310E-05  -8.1283692E-04   0.0000000E+00  -1.2180943E-05  -8.1821339E-04   0.0000000E+00  -7.6907872E-06  -8.2129985E-04   0.0000000E+00  -3.7172736E-06  -1.1998914E-03   0.0000000E+00  -1.0523691E-04  -1.2530417E-03   0.0000000E+00  -8.5703570E-05  -1.2948122E-03   0.0000000E+00  -6.8404079E-05  -1.3271529E-03   0.0000000E+00  -5.3442916E-05  -1.3517715E-03   0.0000000E+00  -4.0732302E-05  -1.3700782E-03   0.0000000E+00  -3.0038593E-05  -1.3832033E-03   0.0000000E+00  -2.1037580E-05  -1.3919994E-03   0.0000000E+00  -1.3306872E-05  -1.3970467E-03   0.0000000E+00  -6.4401684E-06  -2.0149597E-03   0.0000000E+00  -1.7611595E-04  -2.1003201E-03   0.0000000E+00  -1.4353839E-04  -2.1672668E-03   0.0000000E+00  -1.1458370E-04  -2.2189678E-03   0.0000000E+00  -8.9622263E-05  -2.2582789E-03   0.0000000E+00  -6.8341426E-05  -2.2874698E-03   0.0000000E+00  -5.0458922E-05  -2.3083799E-03   0.0000000E+00  -3.5367138E-05  -2.3223779E-03   0.0000000E+00  -2.2394557E-05  -2.3304098E-03   0.0000000E+00  -1.0846416E-05  -3.3282440E-03   0.0000000E+00  -2.8849934E-04  -3.4618308E-03   0.0000000E+00  -2.3524575E-04  -3.5665499E-03   0.0000000E+00  -1.8779805E-04  -3.6473670E-03   0.0000000E+00  -1.4698852E-04  -3.7087686E-03   0.0000000E+00  -1.1207849E-04  -3.7542910E-03   0.0000000E+00  -8.2797917E-05  -3.7868673E-03   0.0000000E+00  -5.8041591E-05  -3.8086504E-03   0.0000000E+00  -3.6769343E-05  -3.8211441E-03   0.0000000E+00  -1.7814187E-05  -5.4150061E-03   0.0000000E+00  -4.6329782E-04  -5.6196013E-03   0.0000000E+00  -3.7737461E-04  -5.7792678E-03   0.0000000E+00  -3.0133437E-04  -5.9025898E-03   0.0000000E+00  -2.3611188E-04  -5.9965984E-03   0.0000000E+00  -1.8004327E-04  -6.0662879E-03   0.0000000E+00  -1.3306031E-04  -6.1161169E-03   0.0000000E+00  -9.3266812E-05  -6.1494145E-03   0.0000000E+00  -5.9101574E-05  -6.1684949E-03   0.0000000E+00  -2.8635763E-05  -8.6756293E-03   0.0000000E+00  -7.3201559E-04  -8.9848181E-03   0.0000000E+00  -5.9462758E-04  -9.2252493E-03   0.0000000E+00  -4.7449244E-04  -9.4109429E-03   0.0000000E+00  -3.7245356E-04  -9.5532956E-03   0.0000000E+00  -2.8447219E-04  -9.6593881E-03   0.0000000E+00  -2.1036543E-04  -9.7352648E-03   0.0000000E+00  -1.4735965E-04  -9.7857509E-03   0.0000000E+00  -9.3349714E-05  -9.8145623E-03   0.0000000E+00  -4.5222998E-05  -1.3684122E-02   0.0000000E+00  -1.1409702E-03  -1.4146011E-02   0.0000000E+00  -9.2460436E-04  -1.4505125E-02   0.0000000E+00  -7.3725055E-04  -1.4782812E-02   0.0000000E+00  -5.7993818E-04  -1.4996679E-02   0.0000000E+00  -4.4439238E-04  -1.5157263E-02   0.0000000E+00  -3.2940335E-04  -1.5272876E-02   0.0000000E+00  -2.3071773E-04  -1.5349865E-02   0.0000000E+00  -1.4593560E-04  -1.5393620E-02   0.0000000E+00  -7.0521317E-05  -2.1253694E-02   0.0000000E+00  -1.7543262E-03  -2.1930836E-02   0.0000000E+00  -1.4199390E-03  -2.2457812E-02   0.0000000E+00  -1.1319506E-03  -2.2865836E-02   0.0000000E+00  -8.9285796E-04  -2.3181578E-02   0.0000000E+00  -6.8694033E-04  -2.3420300E-02   0.0000000E+00  -5.1125995E-04  -2.3593586E-02   0.0000000E+00  -3.5884642E-04  -2.3709744E-02   0.0000000E+00  -2.2698176E-04  -2.3776093E-02   0.0000000E+00  -1.0949928E-04  -3.2511529E-02   0.0000000E+00  -2.6543094E-03  -3.3479139E-02   0.0000000E+00  -2.1478764E-03  -3.4232326E-02   0.0000000E+00  -1.7125746E-03  -3.4815058E-02   0.0000000E+00  -1.3551773E-03  -3.5267480E-02   0.0000000E+00  -1.0470486E-03  -3.5611339E-02   0.0000000E+00  -7.8322861E-04  -3.5862930E-02   0.0000000E+00  -5.5195729E-04  -3.6033109E-02   0.0000000E+00  -3.4997868E-04  -3.6131199E-02   0.0000000E+00  -1.6910133E-04  -4.8999954E-02   0.0000000E+00  -3.9449125E-03  -5.0343659E-02   0.0000000E+00  -3.1886839E-03  -5.1385876E-02   0.0000000E+00  -2.5447283E-03  -5.2190296E-02   0.0000000E+00  -2.0204589E-03  -5.2815743E-02   0.0000000E+00  -1.5669324E-03  -5.3291809E-02   0.0000000E+00  -1.1777339E-03  -5.3641673E-02   0.0000000E+00  -8.3381520E-04  -5.3879961E-02   0.0000000E+00  -5.3094263E-04  -5.4018401E-02   0.0000000E+00  -2.5738194E-04  -7.2840407E-02   0.0000000E+00  -5.7549947E-03  -7.4646272E-02   0.0000000E+00  -4.6429415E-03  -7.6039217E-02   0.0000000E+00  -3.7057311E-03  -7.7108480E-02   0.0000000E+00  -2.9511009E-03  -7.7939734E-02   0.0000000E+00  -2.2966363E-03  -7.8572564E-02   0.0000000E+00  -1.7326275E-03  -7.9038359E-02   0.0000000E+00  -1.2314006E-03  -7.9356685E-02   0.0000000E+00  -7.8741205E-04  -7.9542540E-02   0.0000000E+00  -3.8299413E-04  -1.0696928E-01   0.0000000E+00  -8.2525210E-03  -1.0932172E-01   0.0000000E+00  -6.6401549E-03  -1.1111924E-01   0.0000000E+00  -5.2983812E-03  -1.1248896E-01   0.0000000E+00  -4.2268750E-03  -1.1355229E-01   0.0000000E+00  -3.2972728E-03  -1.1436126E-01   0.0000000E+00  -2.4941275E-03  -1.1495878E-01   0.0000000E+00  -1.7783629E-03  -1.1536925E-01   0.0000000E+00  -1.1412540E-03  -1.1560977E-01   0.0000000E+00  -5.5672094E-04  -1.5543528E-01   0.0000000E+00  -1.1682657E-02  -1.5841135E-01   0.0000000E+00  -9.3692699E-03  -1.6066529E-01   0.0000000E+00  -7.4616037E-03  -1.6236471E-01   0.0000000E+00  -5.9521450E-03  -1.6367728E-01   0.0000000E+00  -4.6496615E-03  -1.6467936E-01   0.0000000E+00  -3.5250706E-03  -1.6542642E-01   0.0000000E+00  -2.5221601E-03  -1.6594410E-01   0.0000000E+00  -1.6243634E-03  -1.6624965E-01   0.0000000E+00  -7.9427264E-04  -2.2366156E-01   0.0000000E+00  -1.6338741E-02  -2.2734073E-01   0.0000000E+00  -1.3069496E-02  -2.3010764E-01   0.0000000E+00  -1.0401514E-02  -2.3218052E-01   0.0000000E+00  -8.2879672E-03  -2.3378062E-01   0.0000000E+00  -6.4807576E-03  -2.3501074E-01   0.0000000E+00  -4.9260990E-03  -2.3593742E-01   0.0000000E+00  -3.5369601E-03  -2.3658583E-01   0.0000000E+00  -2.2852491E-03  -2.3697080E-01   0.0000000E+00  -1.1195971E-03  -3.1863123E-01   0.0000000E+00  -2.2708183E-02  -3.2308212E-01   0.0000000E+00  -1.8136777E-02  -3.2641113E-01   0.0000000E+00  -1.4462039E-02  -3.2891655E-01   0.0000000E+00  -1.1518718E-02  -3.3086944E-01   0.0000000E+00  -9.0178316E-03  -3.3238819E-01   0.0000000E+00  -6.8653072E-03  -3.3354211E-01   0.0000000E+00  -4.9409796E-03  -3.3435583E-01   0.0000000E+00  -3.1986681E-03  -3.3484215E-01   0.0000000E+00  -1.5689057E-03  -4.4886029E-01   0.0000000E+00  -3.1459883E-02  -4.5405251E-01   0.0000000E+00  -2.5208320E-02  -4.5793745E-01   0.0000000E+00  -2.0186896E-02  -4.6092084E-01   0.0000000E+00  -1.6093541E-02  -4.6329400E-01   0.0000000E+00  -1.2614158E-02  -4.6517655E-01   0.0000000E+00  -9.6031716E-03  -4.6662402E-01   0.0000000E+00  -6.9139125E-03  -4.6765369E-01   0.0000000E+00  -4.4768341E-03  -4.6827182E-01   0.0000000E+00  -2.1960873E-03  -6.2410706E-01   0.0000000E+00  -4.3656226E-02  -6.2981910E-01   0.0000000E+00  -3.5212874E-02  -6.3415110E-01   0.0000000E+00  -2.8369104E-02  -6.3760710E-01   0.0000000E+00  -2.2664096E-02  -6.4045596E-01   0.0000000E+00  -1.7768884E-02  -6.4278227E-01   0.0000000E+00  -1.3509360E-02  -6.4460564E-01   0.0000000E+00  -9.7091980E-03  -6.4591420E-01   0.0000000E+00  -6.2766639E-03  -6.4670330E-01   0.0000000E+00  -3.0756064E-03  -8.5546988E-01   0.0000000E+00  -6.0840372E-02  -8.6117125E-01   0.0000000E+00  -4.9549252E-02  -8.6567408E-01   0.0000000E+00  -4.0172826E-02  -8.6948651E-01   0.0000000E+00  -3.2156520E-02  -8.7279975E-01   0.0000000E+00  -2.5163144E-02  -8.7560773E-01   0.0000000E+00  -1.9077776E-02  -8.7786555E-01   0.0000000E+00  -1.3657004E-02  -8.7950891E-01   0.0000000E+00  -8.8029997E-03  -8.8050622E-01   0.0000000E+00  -4.3038926E-03  -1.1564535E+00   0.0000000E+00  -8.5392669E-02  -1.1612104E+00   0.0000000E+00  -7.0304230E-02  -1.1653184E+00   0.0000000E+00  -5.7229578E-02  -1.1691302E+00   0.0000000E+00  -4.5820702E-02  -1.1727268E+00   0.0000000E+00  -3.5670474E-02  -1.1759411E+00   0.0000000E+00  -2.6893420E-02  -1.1786252E+00   0.0000000E+00  -1.9151019E-02  -1.1806288E+00   0.0000000E+00  -1.2286839E-02  -1.1818620E+00   0.0000000E+00  -5.9970808E-03  -1.5451351E+00   0.0000000E+00  -1.2099052E-01  -1.5475502E+00   0.0000000E+00  -1.0049613E-01  -1.5502653E+00   0.0000000E+00  -8.1749395E-02  -1.5533079E+00   0.0000000E+00  -6.5226577E-02  -1.5567007E+00   0.0000000E+00  -5.0342649E-02  -1.5600595E+00   0.0000000E+00  -3.7583321E-02  -1.5630314E+00   0.0000000E+00  -2.6657578E-02  -1.5653650E+00   0.0000000E+00  -1.7003054E-02  -1.5668302E+00   0.0000000E+00  -8.2877809E-03  -2.0463440E+00   0.0000000E+00  -1.7304359E-01  -2.0446327E+00   0.0000000E+00  -1.4430597E-01  -2.0444663E+00   0.0000000E+00  -1.1660074E-01  -2.0455837E+00   0.0000000E+00  -9.1788165E-02  -2.0477464E+00   0.0000000E+00  -7.0410788E-02  -2.0506649E+00   0.0000000E+00  -5.1966645E-02  -2.0535975E+00   0.0000000E+00  -3.6692172E-02  -2.0561216E+00   0.0000000E+00  -2.3251165E-02  -2.0577714E+00   0.0000000E+00  -1.1320283E-02  -2.6914399E+00   0.0000000E+00  -2.4956310E-01  -2.6838648E+00   0.0000000E+00  -2.0724343E-01  -2.6789553E+00   0.0000000E+00  -1.6519356E-01  -2.6763401E+00   0.0000000E+00  -1.2801625E-01  -2.6758053E+00   0.0000000E+00  -9.7388953E-02  -2.6773407E+00   0.0000000E+00  -7.1062945E-02  -2.6797111E+00   0.0000000E+00  -4.9697738E-02  -2.6821425E+00   0.0000000E+00  -3.1371642E-02  -2.6838689E+00   0.0000000E+00  -1.5230223E-02  -3.5144308E+00   0.0000000E+00  -3.6037746E-01  -3.5003252E+00   0.0000000E+00  -2.9251567E-01  -3.4876862E+00   0.0000000E+00  -2.3189697E-01  -3.4789331E+00   0.0000000E+00  -1.7716929E-01  -3.4740210E+00   0.0000000E+00  -1.3274378E-01  -3.4728439E+00   0.0000000E+00  -9.6175745E-02  -3.4739735E+00   0.0000000E+00  -6.6504873E-02  -3.4759393E+00   0.0000000E+00  -4.1758236E-02  -3.4775987E+00   0.0000000E+00  -2.0172782E-02  -4.5452251E+00   0.0000000E+00  -5.1210243E-01  -4.5214114E+00   0.0000000E+00  -4.1083586E-01  -4.4988370E+00   0.0000000E+00  -3.2166043E-01  -4.4813366E+00   0.0000000E+00  -2.4326667E-01  -4.4700136E+00   0.0000000E+00  -1.7962356E-01  -4.4647441E+00   0.0000000E+00  -1.2876192E-01  -4.4638996E+00   0.0000000E+00  -8.7967344E-02  -4.4650135E+00   0.0000000E+00  -5.4899078E-02  -4.4664421E+00   0.0000000E+00  -2.6341693E-02  -5.7918434E+00   0.0000000E+00  -7.1960229E-01  -5.7571921E+00   0.0000000E+00  -5.6948733E-01  -5.7217765E+00   0.0000000E+00  -4.4061396E-01  -5.6926031E+00   0.0000000E+00  -3.2997626E-01  -5.6728601E+00   0.0000000E+00  -2.4055444E-01  -5.6622453E+00   0.0000000E+00  -1.7056699E-01  -5.6585155E+00   0.0000000E+00  -1.1508492E-01  -5.6584244E+00   0.0000000E+00  -7.1248241E-02  -5.6594481E+00   0.0000000E+00  -3.3892266E-02  -7.2418499E+00   0.0000000E+00  -9.7627044E-01  -7.1836782E+00   0.0000000E+00  -7.6974076E-01  -7.1306343E+00   0.0000000E+00  -5.9174788E-01  -7.0865431E+00   0.0000000E+00  -4.3967915E-01  -7.0560336E+00   0.0000000E+00  -3.1625634E-01  -7.0384412E+00   0.0000000E+00  -2.2239456E-01  -7.0310864E+00   0.0000000E+00  -1.4828745E-01  -7.0293045E+00   0.0000000E+00  -9.0913840E-02  -7.0297608E+00   0.0000000E+00  -4.2994928E-02  -8.8151951E+00   0.0000000E+00  -1.2914460E+00  -8.7285471E+00   0.0000000E+00  -1.0041304E+00  -8.6456499E+00   0.0000000E+00  -7.6991385E-01  -8.5816755E+00   0.0000000E+00  -5.7246578E-01  -8.5383005E+00   0.0000000E+00  -4.0755552E-01  -8.5123377E+00   0.0000000E+00  -2.8259385E-01  -8.5005159E+00   0.0000000E+00  -1.8716714E-01  -8.4967346E+00   0.0000000E+00  -1.1319224E-01  -8.4964046E+00   0.0000000E+00  -5.3391427E-02  -1.0420918E+01   0.0000000E+00  -1.6103853E+00  -1.0269828E+01   0.0000000E+00  -1.2790229E+00  -1.0154697E+01   0.0000000E+00  -9.6158260E-01  -1.0060894E+01   0.0000000E+00  -7.1281523E-01  -9.9989567E+00   0.0000000E+00  -5.0946444E-01  -9.9634552E+00   0.0000000E+00  -3.4915072E-01  -9.9462538E+00   0.0000000E+00  -2.2925887E-01  -9.9403105E+00   0.0000000E+00  -1.3723817E-01  -9.9390039E+00   0.0000000E+00  -6.4082332E-02  -1.1923964E+01   0.0000000E+00  -1.9796079E+00  -1.1708785E+01   0.0000000E+00  -1.5299104E+00  -1.1536392E+01   0.0000000E+00  -1.1703140E+00  -1.1414213E+01   0.0000000E+00  -8.5021859E-01  -1.1326435E+01   0.0000000E+00  -6.0395694E-01  -1.1276808E+01   0.0000000E+00  -4.0921393E-01  -1.1251163E+01   0.0000000E+00  -2.6419547E-01  -1.1239468E+01   0.0000000E+00  -1.5648499E-01  -1.1235513E+01   0.0000000E+00  -7.2616674E-02  -1.3261804E+01   0.0000000E+00  -2.4350932E+00  -1.2985985E+01   0.0000000E+00  -1.8599061E+00  -1.2767698E+01   0.0000000E+00  -1.3917774E+00  -1.2601194E+01   0.0000000E+00  -1.0013119E+00  -1.2492167E+01   0.0000000E+00  -6.8417490E-01  -1.2426506E+01   0.0000000E+00  -4.4435230E-01  -1.2386722E+01   0.0000000E+00  -2.7716291E-01  -1.2366383E+01   0.0000000E+00  -1.6172387E-01  -1.2357109E+01   0.0000000E+00  -7.2820403E-02  -1.4279116E+01   0.0000000E+00  -3.0146134E+00  -1.3930432E+01   0.0000000E+00  -2.2673020E+00  -1.3676425E+01   0.0000000E+00  -1.6852390E+00  -1.3493901E+01   0.0000000E+00  -1.1958518E+00  -1.3362407E+01   0.0000000E+00  -7.9351848E-01  -1.3271539E+01   0.0000000E+00  -4.9718922E-01  -1.3213362E+01   0.0000000E+00  -2.9531446E-01  -1.3179522E+01   0.0000000E+00  -1.6393004E-01  -1.3161001E+01   0.0000000E+00  -7.1247578E-02  -1.4503519E+01   0.0000000E+00  -3.5660343E+00  -1.4152361E+01   0.0000000E+00  -2.6567478E+00  -1.3898112E+01   0.0000000E+00  -1.9750425E+00  -1.3712188E+01   0.0000000E+00  -1.3742409E+00  -1.3581045E+01   0.0000000E+00  -8.9266759E-01  -1.3493949E+01   0.0000000E+00  -5.4177827E-01  -1.3439575E+01   0.0000000E+00  -3.0847016E-01  -1.3406795E+01   0.0000000E+00  -1.6067380E-01  -1.3390346E+01   0.0000000E+00  -6.7900702E-02  -1.2898725E+01   0.0000000E+00  -4.0397220E+00  -1.2620126E+01   0.0000000E+00  -2.9958503E+00  -1.2406713E+01   0.0000000E+00  -2.2223790E+00  -1.2254158E+01   0.0000000E+00  -1.5343752E+00  -1.2152247E+01   0.0000000E+00  -9.7567439E-01  -1.2089551E+01   0.0000000E+00  -5.6825483E-01  -1.2054211E+01   0.0000000E+00  -3.0270731E-01  -1.2036087E+01   0.0000000E+00  -1.4598551E-01  -1.2027940E+01   0.0000000E+00  -5.7315242E-02  -9.2108011E+00   0.0000000E+00  -4.4402857E+00  -8.9911766E+00   0.0000000E+00  -3.2992561E+00  -8.8200655E+00   0.0000000E+00  -2.4487181E+00  -8.6961889E+00   0.0000000E+00  -1.6900022E+00  -8.6137094E+00   0.0000000E+00  -1.0732720E+00  -8.5636349E+00   0.0000000E+00  -6.2352121E-01  -8.5360107E+00   0.0000000E+00  -3.3083922E-01  -8.5222473E+00   0.0000000E+00  -1.5870297E-01  -8.5162430E+00   0.0000000E+00  -6.2010903E-02  -5.6509237E+00   0.0000000E+00  -4.7257462E+00  -5.4956369E+00   0.0000000E+00  -3.5250640E+00  -5.3726101E+00   0.0000000E+00  -2.6193757E+00  -5.2826262E+00   0.0000000E+00  -1.8087807E+00  -5.2224894E+00   0.0000000E+00  -1.1487399E+00  -5.1859698E+00   0.0000000E+00  -6.6709214E-01  -5.1658578E+00   0.0000000E+00  -3.5366195E-01  -5.1558323E+00   0.0000000E+00  -1.6943085E-01  -5.1514740E+00   0.0000000E+00  -6.6128597E-02  -2.8869221E+00   0.0000000E+00  -4.9097672E+00  -2.7927980E+00   0.0000000E+00  -3.6761539E+00  -2.7164302E+00   0.0000000E+00  -2.7355030E+00  -2.6599369E+00   0.0000000E+00  -1.8901279E+00  -2.6220720E+00   0.0000000E+00  -1.2004585E+00  -2.5991275E+00   0.0000000E+00  -6.9689476E-01  -2.5865200E+00   0.0000000E+00  -3.6924046E-01  -2.5802550E+00   0.0000000E+00  -1.7679068E-01  -2.5775237E+00   0.0000000E+00  -6.8971165E-02  -8.6356777E-01   0.0000000E+00  -5.0062399E+00  -8.2375330E-01   0.0000000E+00  -3.7588255E+00  -7.8995335E-01   0.0000000E+00  -2.8002789E+00  -7.6449579E-01   0.0000000E+00  -1.9357681E+00  -7.4744898E-01   0.0000000E+00  -1.2294320E+00  -7.3718387E-01   0.0000000E+00  -7.1351653E-01  -7.3158562E-01   0.0000000E+00  -3.7790120E-01  -7.2883803E-01   0.0000000E+00  -1.8086733E-01  -7.2763473E-01   0.0000000E+00  -7.0516586E-02   7.1410215E-01   0.0000000E+00  -5.0277195E+00   7.0623332E-01   0.0000000E+00  -3.7808318E+00   7.0199347E-01   0.0000000E+00  -2.8187673E+00   6.9947457E-01   0.0000000E+00  -1.9489843E+00   6.9775409E-01   0.0000000E+00  -1.2377274E+00   6.9659728E-01   0.0000000E+00  -7.1816337E-01   6.9584852E-01   0.0000000E+00  -3.8027668E-01   6.9545615E-01   0.0000000E+00  -1.8198764E-01   6.9528913E-01   0.0000000E+00  -7.0949599E-02   2.1547308E+00   0.0000000E+00  -4.9835591E+00   2.1042566E+00   0.0000000E+00  -3.7491047E+00   2.0658884E+00   0.0000000E+00  -2.7960598E+00   2.0383627E+00   0.0000000E+00  -1.9333634E+00   2.0199428E+00   0.0000000E+00  -1.2276502E+00   2.0085907E+00   0.0000000E+00  -7.1219015E-01   2.0022302E+00   0.0000000E+00  -3.7706009E-01   1.9990278E+00   0.0000000E+00  -1.8042341E-01   1.9976109E+00   0.0000000E+00  -7.0354432E-02   3.6230054E+00   0.0000000E+00  -4.8767929E+00   3.5335631E+00   0.0000000E+00  -3.6691325E+00   3.4643357E+00   0.0000000E+00  -2.7367547E+00   3.4143746E+00   0.0000000E+00  -1.8922607E+00   3.3810556E+00   0.0000000E+00  -1.2013811E+00   3.3606627E+00   0.0000000E+00  -6.9685572E-01   3.3492947E+00   0.0000000E+00  -3.6890909E-01   3.3435411E+00   0.0000000E+00  -1.7652567E-01   3.3410110E+00   0.0000000E+00  -6.8848833E-02   5.1148391E+00   0.0000000E+00  -4.7116408E+00   4.9896388E+00   0.0000000E+00  -3.5453641E+00   4.8924661E+00   0.0000000E+00  -2.6447055E+00   4.8224769E+00   0.0000000E+00  -1.8285139E+00   4.7758722E+00   0.0000000E+00  -1.1607590E+00   4.7474332E+00   0.0000000E+00  -6.7321986E-01   4.7316108E+00   0.0000000E+00  -3.5639027E-01   4.7236142E+00   0.0000000E+00  -1.7053735E-01   4.7200570E+00   0.0000000E+00  -6.6534773E-02   6.5292926E+00   0.0000000E+00  -4.4929833E+00   6.3719850E+00   0.0000000E+00  -3.3822694E+00   6.2500854E+00   0.0000000E+00  -2.5235763E+00   6.1625266E+00   0.0000000E+00  -1.7448174E+00   6.1043334E+00   0.0000000E+00  -1.1075594E+00   6.0688949E+00   0.0000000E+00  -6.4232326E-01   6.0491905E+00   0.0000000E+00  -3.4004921E-01   6.0392303E+00   0.0000000E+00  -1.6274309E-01   6.0348063E+00   0.0000000E+00  -6.3476592E-02   7.7441568E+00   0.0000000E+00  -4.2276220E+00   7.5587506E+00   0.0000000E+00  -3.1852880E+00   7.4155760E+00   0.0000000E+00  -2.3776970E+00   7.3128586E+00   0.0000000E+00  -1.6442671E+00   7.2447300E+00   0.0000000E+00  -1.0438139E+00   7.2029576E+00   0.0000000E+00  -6.0542792E-01   7.1796274E+00   0.0000000E+00  -3.2064208E-01   7.1677070E+00   0.0000000E+00  -1.5354881E-01   7.1624088E+00   0.0000000E+00  -5.9950110E-02   8.5876999E+00   0.0000000E+00  -3.9326975E+00   8.3531513E+00   0.0000000E+00  -2.9711742E+00   8.1728907E+00   0.0000000E+00  -2.2212636E+00   8.0402632E+00   0.0000000E+00  -1.5410062E+00   7.9466124E+00   0.0000000E+00  -9.8396641E-01   7.8854618E+00   0.0000000E+00  -5.7706517E-01   7.8463187E+00   0.0000000E+00  -3.1182623E-01   7.8237596E+00   0.0000000E+00  -1.5359601E-01   7.8133531E+00   0.0000000E+00  -6.2064786E-02   8.8593597E+00   0.0000000E+00  -3.6443539E+00   8.5553083E+00   0.0000000E+00  -2.7687633E+00   8.3336315E+00   0.0000000E+00  -2.0759392E+00   8.1700649E+00   0.0000000E+00  -1.4474584E+00   8.0496473E+00   0.0000000E+00  -9.3793386E-01   7.9700170E+00   0.0000000E+00  -5.6618929E-01   7.9166832E+00   0.0000000E+00  -3.2314673E-01   7.8820033E+00   0.0000000E+00  -1.6948594E-01   7.8632765E+00   0.0000000E+00  -7.2252452E-02   8.7827425E+00   0.0000000E+00  -3.3469224E+00   8.4581566E+00   0.0000000E+00  -2.5485880E+00   8.2205429E+00   0.0000000E+00  -1.9163295E+00   8.0479546E+00   0.0000000E+00  -1.3501682E+00   7.9268308E+00   0.0000000E+00  -8.9158237E-01   7.8357811E+00   0.0000000E+00  -5.4553246E-01   7.7759604E+00   0.0000000E+00  -3.1519979E-01   7.7436533E+00   0.0000000E+00  -1.7032769E-01   7.7262392E+00   0.0000000E+00  -7.4714415E-02   8.5541620E+00   0.0000000E+00  -3.0410473E+00   8.2197351E+00   0.0000000E+00  -2.3360388E+00   7.9801817E+00   0.0000000E+00  -1.7647067E+00   7.8046837E+00   0.0000000E+00  -1.2516425E+00   7.6780996E+00   0.0000000E+00  -8.2627600E-01   7.6004596E+00   0.0000000E+00  -5.1784283E-01   7.5536928E+00   0.0000000E+00  -3.0756319E-01   7.5265164E+00   0.0000000E+00  -1.7195080E-01   7.5130539E+00   0.0000000E+00  -7.8132100E-02   8.2355738E+00   0.0000000E+00  -2.7598755E+00   7.9197893E+00   0.0000000E+00  -2.1304252E+00   7.6796265E+00   0.0000000E+00  -1.6140262E+00   7.5075974E+00   0.0000000E+00  -1.1490512E+00   7.3920021E+00   0.0000000E+00  -7.7469999E-01   7.3226066E+00   0.0000000E+00  -5.0219786E-01   7.2809744E+00   0.0000000E+00  -3.1174099E-01   7.2580729E+00   0.0000000E+00  -1.8122637E-01   7.2476606E+00   0.0000000E+00  -8.1017427E-02   7.8865018E+00   0.0000000E+00  -2.5025477E+00   7.5642648E+00   0.0000000E+00  -1.9465446E+00   7.3328214E+00   0.0000000E+00  -1.4727163E+00   7.1618977E+00   0.0000000E+00  -1.0603646E+00   7.0496898E+00   0.0000000E+00  -7.3576313E-01   6.9795938E+00   0.0000000E+00  -4.9116945E-01   6.9417849E+00   0.0000000E+00  -3.1511509E-01   6.9214358E+00   0.0000000E+00  -1.8231104E-01   6.9111547E+00   0.0000000E+00  -8.3805606E-02   7.4962387E+00   0.0000000E+00  -2.2951517E+00   7.1730485E+00   0.0000000E+00  -1.7713400E+00   6.9399729E+00   0.0000000E+00  -1.3515012E+00   6.7711792E+00   0.0000000E+00  -9.8994774E-01   6.6535606E+00   0.0000000E+00  -6.9803709E-01   6.5845447E+00   0.0000000E+00  -4.7469252E-01   6.5457091E+00   0.0000000E+00  -3.0710396E-01   6.5237894E+00   0.0000000E+00  -1.8212467E-01   6.5136189E+00   0.0000000E+00  -8.5083373E-02   7.0825930E+00   0.0000000E+00  -2.1277864E+00   6.7471304E+00   0.0000000E+00  -1.6160246E+00   6.5153213E+00   0.0000000E+00  -1.2420168E+00   6.3357224E+00   0.0000000E+00  -9.2150110E-01   6.2182746E+00   0.0000000E+00  -6.6036141E-01   6.1459751E+00   0.0000000E+00  -4.5715049E-01   6.1018701E+00   0.0000000E+00  -3.0027807E-01   6.0778198E+00   0.0000000E+00  -1.7970866E-01   6.0656147E+00   0.0000000E+00  -8.5699596E-02   6.6794772E+00   0.0000000E+00  -2.0013018E+00   6.3309717E+00   0.0000000E+00  -1.4881318E+00   6.0771036E+00   0.0000000E+00  -1.1334212E+00   5.8954926E+00   0.0000000E+00  -8.5672641E-01   5.7703385E+00   0.0000000E+00  -6.2478775E-01   5.6884460E+00   0.0000000E+00  -4.3953428E-01   5.6387954E+00   0.0000000E+00  -2.9223359E-01   5.6100550E+00   0.0000000E+00  -1.7807911E-01   5.5951023E+00   0.0000000E+00  -8.4666640E-02   6.3378391E+00   0.0000000E+00  -1.9456699E+00   5.9216652E+00   0.0000000E+00  -1.3750461E+00   5.6599994E+00   0.0000000E+00  -1.0364507E+00   5.4652267E+00   0.0000000E+00  -7.9055613E-01   5.3321838E+00   0.0000000E+00  -5.8383173E-01   5.2430978E+00   0.0000000E+00  -4.2306495E-01   5.1831117E+00   0.0000000E+00  -2.8622353E-01   5.1469941E+00   0.0000000E+00  -1.7701377E-01   5.1281867E+00   0.0000000E+00  -8.4004007E-02   6.0831327E+00   0.0000000E+00  -1.9993982E+00   5.5780654E+00   0.0000000E+00  -1.3125783E+00   5.2776265E+00   0.0000000E+00  -9.4703346E-01   5.0705352E+00   0.0000000E+00  -7.1940821E-01   4.9261580E+00   0.0000000E+00  -5.4095358E-01   4.8262081E+00   0.0000000E+00  -3.9676350E-01   4.7599397E+00   0.0000000E+00  -2.7807429E-01   4.7153606E+00   0.0000000E+00  -1.7468777E-01   4.6920390E+00   0.0000000E+00  -8.3300903E-02   5.9584990E+00   0.0000000E+00  -2.2109377E+00   5.3312945E+00   0.0000000E+00  -1.3492147E+00   4.9562397E+00   0.0000000E+00  -8.8755149E-01   4.7198095E+00   0.0000000E+00  -6.5070921E-01   4.5684891E+00   0.0000000E+00  -4.8789504E-01   4.4559383E+00   0.0000000E+00  -3.6191773E-01   4.3820848E+00   0.0000000E+00  -2.5812933E-01   4.3345261E+00   0.0000000E+00  -1.6659507E-01   4.3072104E+00   0.0000000E+00  -8.0085814E-02   6.0610809E+00   0.0000000E+00  -2.6558402E+00   5.2323961E+00   0.0000000E+00  -1.5441355E+00   4.7481518E+00   0.0000000E+00  -9.3133616E-01   4.4520373E+00   0.0000000E+00  -6.1100531E-01   4.2572408E+00   0.0000000E+00  -4.3242326E-01   4.1404729E+00   0.0000000E+00  -3.1896591E-01   4.0555530E+00   0.0000000E+00  -2.2165787E-01   4.0029159E+00   0.0000000E+00  -1.4423545E-01   3.9747624E+00   0.0000000E+00  -6.9952928E-02   6.5952387E+00   0.0000000E+00  -3.3640883E+00   5.4382510E+00   0.0000000E+00  -2.0112123E+00   4.7114434E+00   0.0000000E+00  -1.1617088E+00   4.2963758E+00   0.0000000E+00  -6.8191379E-01   4.0367117E+00   0.0000000E+00  -4.2778280E-01   3.8750260E+00   0.0000000E+00  -2.8016439E-01   3.7770779E+00   0.0000000E+00  -1.8506049E-01   3.7159886E+00   0.0000000E+00  -1.1617630E-01   3.6822755E+00   0.0000000E+00  -5.6032415E-02   7.6816640E+00   0.0000000E+00  -4.1462593E+00   6.2366090E+00   0.0000000E+00  -2.7340100E+00   5.1116080E+00   0.0000000E+00  -1.7050803E+00   4.3910656E+00   0.0000000E+00  -9.9530548E-01   3.9604623E+00   0.0000000E+00  -5.7298851E-01   3.7218955E+00   0.0000000E+00  -3.3039829E-01   3.5769875E+00   0.0000000E+00  -1.8753180E-01   3.4965215E+00   0.0000000E+00  -1.0043826E-01   3.4563668E+00   0.0000000E+00  -4.3172989E-02   8.9454718E+00   0.0000000E+00  -4.9017944E+00   7.6174874E+00   0.0000000E+00  -3.5106571E+00   6.2928643E+00   0.0000000E+00  -2.4109974E+00   5.1539278E+00   0.0000000E+00  -1.6058909E+00   4.3416805E+00   0.0000000E+00  -1.0112654E+00   3.8532033E+00   0.0000000E+00  -5.8768803E-01   3.5752993E+00   0.0000000E+00  -3.1598839E-01   3.4269676E+00   0.0000000E+00  -1.5640919E-01   3.3553715E+00   0.0000000E+00  -6.4477362E-02   9.7281208E+00   0.0000000E+00  -5.5896950E+00   8.8559790E+00   0.0000000E+00  -4.2972813E+00   7.8326144E+00   0.0000000E+00  -3.1661463E+00   6.7353063E+00   0.0000000E+00  -2.2649603E+00   5.7181740E+00   0.0000000E+00  -1.5682020E+00   4.9015670E+00   0.0000000E+00  -1.0342802E+00   4.3303785E+00   0.0000000E+00  -6.3071746E-01   3.9823656E+00   0.0000000E+00  -3.4376866E-01   3.8034661E+00   0.0000000E+00  -1.4886603E-01   9.3915596E+00   0.0000000E+00  -5.0187445E+00   8.8930864E+00   0.0000000E+00  -3.9380641E+00   8.2234898E+00   0.0000000E+00  -3.0048277E+00   7.4675851E+00   0.0000000E+00  -2.1910191E+00   6.7451043E+00   0.0000000E+00  -1.5011640E+00   6.1713977E+00   0.0000000E+00  -9.4062543E-01   5.7879119E+00   0.0000000E+00  -5.2481049E-01   5.5748496E+00   0.0000000E+00  -2.2979702E-01   8.8351326E+00   0.0000000E+00  -3.7848911E+00   8.5813923E+00   0.0000000E+00  -2.8979132E+00   8.2542248E+00   0.0000000E+00  -2.0602746E+00   7.9589663E+00   0.0000000E+00  -1.3079187E+00   7.7489362E+00   0.0000000E+00  -7.3182738E-01   7.6268525E+00   0.0000000E+00  -3.2031825E-01   8.5890045E+00   0.0000000E+00  -2.6892164E+00   8.6132889E+00   0.0000000E+00  -1.7200613E+00   8.6238985E+00   0.0000000E+00  -9.6205842E-01   8.6249838E+00   0.0000000E+00  -4.1961068E-01  -1.4342171E-04   0.0000000E+00   1.3258460E-11  -1.4323565E-04   0.0000000E+00   5.8407403E-07  -1.4266330E-04   0.0000000E+00   1.2170008E-06  -1.4166093E-04   0.0000000E+00   1.9463791E-06  -1.4015603E-04   0.0000000E+00   2.8179434E-06  -1.3804639E-04   0.0000000E+00   3.8744488E-06  -1.3520190E-04   0.0000000E+00   5.1459042E-06  -1.3146151E-04   0.0000000E+00   6.6657863E-06  -2.6424936E-04   0.0000000E+00   9.0080617E-12  -2.6391036E-04   0.0000000E+00   1.1259602E-06  -2.6286821E-04   0.0000000E+00   2.3395787E-06  -2.6104841E-04   0.0000000E+00   3.7270997E-06  -2.5832403E-04   0.0000000E+00   5.3700555E-06  -2.5451466E-04   0.0000000E+00   7.3494475E-06  -2.4939055E-04   0.0000000E+00   9.7144539E-06  -2.4265889E-04   0.0000000E+00   1.2536296E-05  -4.7254845E-04   0.0000000E+00  -2.0272867E-11  -4.7195359E-04   0.0000000E+00   2.0805735E-06  -4.7012721E-04   0.0000000E+00   4.3126274E-06  -4.6694296E-04   0.0000000E+00   6.8474124E-06  -4.6218629E-04   0.0000000E+00   9.8253240E-06  -4.5554701E-04   0.0000000E+00   1.3393059E-05  -4.4662590E-04   0.0000000E+00   1.7637723E-05  -4.3491364E-04   0.0000000E+00   2.2679103E-05  -8.2230545E-04   0.0000000E+00   2.6501551E-11  -8.2129985E-04   0.0000000E+00   3.7173472E-06  -8.1821362E-04   0.0000000E+00   7.6907845E-06  -8.1283710E-04   0.0000000E+00   1.2180891E-05  -8.0481381E-04   0.0000000E+00   1.7424289E-05  -7.9362403E-04   0.0000000E+00   2.3676772E-05  -7.7858957E-04   0.0000000E+00   3.1107233E-05  -7.5885310E-04   0.0000000E+00   3.9889961E-05  -1.3986926E-03   0.0000000E+00   1.4808185E-10  -1.3970472E-03   0.0000000E+00   6.4401584E-06  -1.3919984E-03   0.0000000E+00   1.3306782E-05  -1.3832031E-03   0.0000000E+00   2.1037657E-05  -1.3700781E-03   0.0000000E+00   3.0038607E-05  -1.3517711E-03   0.0000000E+00   4.0732313E-05  -1.3271528E-03   0.0000000E+00   5.3443095E-05  -1.2948132E-03   0.0000000E+00   6.8404137E-05  -2.3330282E-03   0.0000000E+00   2.2580315E-10  -2.3304105E-03   0.0000000E+00   1.0846421E-05  -2.3223774E-03   0.0000000E+00   2.2394530E-05  -2.3083808E-03   0.0000000E+00   3.5367149E-05  -2.2874707E-03   0.0000000E+00   5.0458890E-05  -2.2582784E-03   0.0000000E+00   6.8341331E-05  -2.2189680E-03   0.0000000E+00   8.9622379E-05  -2.1672668E-03   0.0000000E+00   1.1458375E-04  -3.8252114E-03   0.0000000E+00  -3.8687631E-10  -3.8211434E-03   0.0000000E+00   1.7813880E-05  -3.8086518E-03   0.0000000E+00   3.6769467E-05  -3.7868656E-03   0.0000000E+00   5.8041544E-05  -3.7542910E-03   0.0000000E+00   8.2797880E-05  -3.7087686E-03   0.0000000E+00   1.1207839E-04  -3.6473675E-03   0.0000000E+00   1.4698837E-04  -3.5665513E-03   0.0000000E+00   1.8779778E-04  -6.1747110E-03   0.0000000E+00  -1.4493251E-10  -6.1684968E-03   0.0000000E+00   2.8634857E-05  -6.1494149E-03   0.0000000E+00   5.9101760E-05  -6.1161127E-03   0.0000000E+00   9.3266855E-05  -6.0662865E-03   0.0000000E+00   1.3306015E-04  -5.9965998E-03   0.0000000E+00   1.8004335E-04  -5.9025907E-03   0.0000000E+00   2.3611129E-04  -5.7792710E-03   0.0000000E+00   3.0133332E-04  -9.8239304E-03   0.0000000E+00  -2.3993119E-10  -9.8145595E-03   0.0000000E+00   4.5221881E-05  -9.7857527E-03   0.0000000E+00   9.3349394E-05  -9.7352723E-03   0.0000000E+00   1.4735961E-04  -9.6593844E-03   0.0000000E+00   2.1036531E-04  -9.5533011E-03   0.0000000E+00   2.8447094E-04  -9.4109504E-03   0.0000000E+00   3.7245275E-04  -9.2252418E-03   0.0000000E+00   4.7449049E-04  -1.5407729E-02   0.0000000E+00  -1.3587775E-09  -1.5393614E-02   0.0000000E+00   7.0522401E-05  -1.5349856E-02   0.0000000E+00   1.4593668E-04  -1.5272873E-02   0.0000000E+00   2.3071810E-04  -1.5157261E-02   0.0000000E+00   3.2940300E-04  -1.4996676E-02   0.0000000E+00   4.4439142E-04  -1.4782807E-02   0.0000000E+00   5.7993806E-04  -1.4505127E-02   0.0000000E+00   7.3725008E-04  -2.3797618E-02   0.0000000E+00   1.0292718E-09  -2.3776112E-02   0.0000000E+00   1.0950021E-04  -2.3709740E-02   0.0000000E+00   2.2698090E-04  -2.3593577E-02   0.0000000E+00   3.5884514E-04  -2.3420310E-02   0.0000000E+00   5.1125942E-04  -2.3181574E-02   0.0000000E+00   6.8694050E-04  -2.2865854E-02   0.0000000E+00   8.9285924E-04  -2.2457814E-02   0.0000000E+00   1.1319476E-03  -3.6163192E-02   0.0000000E+00  -2.5238167E-09  -3.6131211E-02   0.0000000E+00   1.6910632E-04  -3.6033139E-02   0.0000000E+00   3.4998302E-04  -3.5862926E-02   0.0000000E+00   5.5195647E-04  -3.5611324E-02   0.0000000E+00   7.8322843E-04  -3.5267502E-02   0.0000000E+00   1.0470499E-03  -3.4815039E-02   0.0000000E+00   1.3551709E-03  -3.4232326E-02   0.0000000E+00   1.7125716E-03  -5.4063778E-02   0.0000000E+00  -2.4315021E-09  -5.4018416E-02   0.0000000E+00   2.5738354E-04  -5.3879932E-02   0.0000000E+00   5.3094333E-04  -5.3641655E-02   0.0000000E+00   8.3381415E-04  -5.3291801E-02   0.0000000E+00   1.1777336E-03  -5.2815750E-02   0.0000000E+00   1.5669343E-03  -5.2190248E-02   0.0000000E+00   2.0204643E-03  -5.1385902E-02   0.0000000E+00   2.5447323E-03  -7.9603665E-02   0.0000000E+00  -3.5182310E-09  -7.9542533E-02   0.0000000E+00   3.8298557E-04  -7.9356737E-02   0.0000000E+00   7.8740763E-04  -7.9038367E-02   0.0000000E+00   1.2313988E-03  -7.8572556E-02   0.0000000E+00   1.7326266E-03  -7.7939786E-02   0.0000000E+00   2.2966471E-03  -7.7108428E-02   0.0000000E+00   2.9510907E-03  -7.6039217E-02   0.0000000E+00   3.7057374E-03  -1.1568900E-01   0.0000000E+00   3.6243790E-09  -1.1560972E-01   0.0000000E+00   5.5671536E-04  -1.1536925E-01   0.0000000E+00   1.1412425E-03  -1.1495880E-01   0.0000000E+00   1.7783551E-03  -1.1436128E-01   0.0000000E+00   2.4941217E-03  -1.1355229E-01   0.0000000E+00   3.2972782E-03  -1.1248896E-01   0.0000000E+00   4.2268732E-03  -1.1111919E-01   0.0000000E+00   5.2983859E-03  -1.6635033E-01   0.0000000E+00  -9.8881472E-09  -1.6624962E-01   0.0000000E+00   7.9425838E-04  -1.6594429E-01   0.0000000E+00   1.6243227E-03  -1.6542637E-01   0.0000000E+00   2.5221505E-03  -1.6467933E-01   0.0000000E+00   3.5250755E-03  -1.6367717E-01   0.0000000E+00   4.6496768E-03  -1.6236459E-01   0.0000000E+00   5.9521329E-03  -1.6066517E-01   0.0000000E+00   7.4616042E-03  -2.3709846E-01   0.0000000E+00  -1.5246634E-08  -2.3697090E-01   0.0000000E+00   1.1195856E-03  -2.3658574E-01   0.0000000E+00   2.2853049E-03  -2.3593752E-01   0.0000000E+00   3.5369394E-03  -2.3501071E-01   0.0000000E+00   4.9260808E-03  -2.3378058E-01   0.0000000E+00   6.4807567E-03  -2.3218073E-01   0.0000000E+00   8.2879746E-03  -2.3010781E-01   0.0000000E+00   1.0401505E-02  -3.3500355E-01   0.0000000E+00   5.7419356E-08  -3.3484218E-01   0.0000000E+00   1.5689856E-03  -3.3435580E-01   0.0000000E+00   3.1986847E-03  -3.3354220E-01   0.0000000E+00   4.9409471E-03  -3.3238801E-01   0.0000000E+00   6.8652965E-03  -3.3086947E-01   0.0000000E+00   9.0178493E-03  -3.2891676E-01   0.0000000E+00   1.1518737E-02  -3.2641110E-01   0.0000000E+00   1.4462060E-02  -4.6847746E-01   0.0000000E+00  -1.7809356E-07  -4.6827188E-01   0.0000000E+00   2.1959378E-03  -4.6765363E-01   0.0000000E+00   4.4767344E-03  -4.6662408E-01   0.0000000E+00   6.9139111E-03  -4.6517655E-01   0.0000000E+00   9.6031670E-03  -4.6329409E-01   0.0000000E+00   1.2614113E-02  -4.6092096E-01   0.0000000E+00   1.6093528E-02  -4.5793733E-01   0.0000000E+00   2.0186858E-02  -6.4696652E-01   0.0000000E+00   2.5132977E-08  -6.4670342E-01   0.0000000E+00   3.0757906E-03  -6.4591414E-01   0.0000000E+00   6.2767277E-03  -6.4460540E-01   0.0000000E+00   9.7091328E-03  -6.4278209E-01   0.0000000E+00   1.3509316E-02  -6.4045584E-01   0.0000000E+00   1.7768882E-02  -6.3760722E-01   0.0000000E+00   2.2664148E-02  -6.3415158E-01   0.0000000E+00   2.8369186E-02  -8.8083982E-01   0.0000000E+00  -7.9496090E-08  -8.8050622E-01   0.0000000E+00   4.3040537E-03  -8.7950873E-01   0.0000000E+00   8.8029578E-03  -8.7786579E-01   0.0000000E+00   1.3656862E-02  -8.7560743E-01   0.0000000E+00   1.9077793E-02  -8.7279999E-01   0.0000000E+00   2.5163079E-02  -8.6948639E-01   0.0000000E+00   3.2156389E-02  -8.6567378E-01   0.0000000E+00   4.0172819E-02  -1.1822772E+00   0.0000000E+00   9.4486268E-09  -1.1818609E+00   0.0000000E+00   5.9972410E-03  -1.1806295E+00   0.0000000E+00   1.2286922E-02  -1.1786252E+00   0.0000000E+00   1.9151038E-02  -1.1759421E+00   0.0000000E+00   2.6893366E-02  -1.1727270E+00   0.0000000E+00   3.5670411E-02  -1.1691294E+00   0.0000000E+00   4.5820709E-02  -1.1653192E+00   0.0000000E+00   5.7229847E-02  -1.5673325E+00   0.0000000E+00  -1.0899453E-07  -1.5668303E+00   0.0000000E+00   8.2877660E-03  -1.5653642E+00   0.0000000E+00   1.7003331E-02  -1.5630322E+00   0.0000000E+00   2.6657498E-02  -1.5600592E+00   0.0000000E+00   3.7583303E-02  -1.5567012E+00   0.0000000E+00   5.0342627E-02  -1.5533072E+00   0.0000000E+00   6.5226696E-02  -1.5502660E+00   0.0000000E+00   8.1749305E-02  -2.0583515E+00   0.0000000E+00   2.6741702E-07  -2.0577707E+00   0.0000000E+00   1.1319627E-02  -2.0561218E+00   0.0000000E+00   2.3251003E-02  -2.0535979E+00   0.0000000E+00   3.6692303E-02  -2.0506661E+00   0.0000000E+00   5.1966794E-02  -2.0477462E+00   0.0000000E+00   7.0410885E-02  -2.0455847E+00   0.0000000E+00   9.1787785E-02  -2.0444667E+00   0.0000000E+00   1.1660072E-01  -2.6845002E+00   0.0000000E+00   1.2344992E-07  -2.6838686E+00   0.0000000E+00   1.5229817E-02  -2.6821420E+00   0.0000000E+00   3.1371992E-02  -2.6797101E+00   0.0000000E+00   4.9697910E-02  -2.6773388E+00   0.0000000E+00   7.1063116E-02  -2.6758037E+00   0.0000000E+00   9.7388856E-02  -2.6763382E+00   0.0000000E+00   1.2801588E-01  -2.6789544E+00   0.0000000E+00   1.6519400E-01  -3.4782364E+00   0.0000000E+00   7.2742853E-07  -3.4775984E+00   0.0000000E+00   2.0173591E-02  -3.4759407E+00   0.0000000E+00   4.1758098E-02  -3.4739735E+00   0.0000000E+00   6.6505745E-02  -3.4728458E+00   0.0000000E+00   9.6175700E-02  -3.4740202E+00   0.0000000E+00   1.3274300E-01  -3.4789314E+00   0.0000000E+00   1.7716874E-01  -3.4876859E+00   0.0000000E+00   2.3189680E-01  -4.4670401E+00   0.0000000E+00  -2.0689060E-07  -4.4664388E+00   0.0000000E+00   2.6340595E-02  -4.4650126E+00   0.0000000E+00   5.4899290E-02  -4.4638968E+00   0.0000000E+00   8.7967336E-02  -4.4647508E+00   0.0000000E+00   1.2876193E-01  -4.4700136E+00   0.0000000E+00   1.7962329E-01  -4.4813366E+00   0.0000000E+00   2.4326572E-01  -4.4988379E+00   0.0000000E+00   3.2166135E-01  -5.6599569E+00   0.0000000E+00  -1.5221091E-06  -5.6594477E+00   0.0000000E+00   3.3889972E-02  -5.6584229E+00   0.0000000E+00   7.1249314E-02  -5.6585121E+00   0.0000000E+00   1.1508515E-01  -5.6622467E+00   0.0000000E+00   1.7056669E-01  -5.6728587E+00   0.0000000E+00   2.4055414E-01  -5.6926041E+00   0.0000000E+00   3.2997602E-01  -5.7217808E+00   0.0000000E+00   4.4061333E-01  -7.0301213E+00   0.0000000E+00   1.8044536E-06  -7.0297637E+00   0.0000000E+00   4.2996958E-02  -7.0293040E+00   0.0000000E+00   9.0912513E-02  -7.0310912E+00   0.0000000E+00   1.4828740E-01  -7.0384378E+00   0.0000000E+00   2.2239372E-01  -7.0560346E+00   0.0000000E+00   3.1625620E-01  -7.0865493E+00   0.0000000E+00   4.3967938E-01  -7.1306367E+00   0.0000000E+00   5.9174830E-01  -8.4965954E+00   0.0000000E+00   2.2524910E-06  -8.4964056E+00   0.0000000E+00   5.3392243E-02  -8.4967365E+00   0.0000000E+00   1.1319427E-01  -8.5005207E+00   0.0000000E+00   1.8716602E-01  -8.5123329E+00   0.0000000E+00   2.8259316E-01  -8.5383072E+00   0.0000000E+00   4.0755588E-01  -8.5816774E+00   0.0000000E+00   5.7246631E-01  -8.6456442E+00   0.0000000E+00   7.6991642E-01  -9.9390116E+00   0.0000000E+00   6.1009487E-06  -9.9390030E+00   0.0000000E+00   6.4076416E-02  -9.9403000E+00   0.0000000E+00   1.3723625E-01  -9.9462481E+00   0.0000000E+00   2.2926083E-01  -9.9634533E+00   0.0000000E+00   3.4915027E-01  -9.9989634E+00   0.0000000E+00   5.0946712E-01  -1.0060896E+01   0.0000000E+00   7.1281582E-01  -1.0154699E+01   0.0000000E+00   9.6158129E-01  -1.1234511E+01   0.0000000E+00  -2.4650653E-06  -1.1235517E+01   0.0000000E+00   7.2615638E-02  -1.1239454E+01   0.0000000E+00   1.5648505E-01  -1.1251161E+01   0.0000000E+00   2.6419029E-01  -1.1276798E+01   0.0000000E+00   4.0921080E-01  -1.1326434E+01   0.0000000E+00   6.0395992E-01  -1.1414217E+01   0.0000000E+00   8.5021907E-01  -1.1536391E+01   0.0000000E+00   1.1703193E+00  -1.2354346E+01   0.0000000E+00  -6.3798507E-07  -1.2357113E+01   0.0000000E+00   7.2831295E-02  -1.2366386E+01   0.0000000E+00   1.6172332E-01  -1.2386720E+01   0.0000000E+00   2.7716243E-01  -1.2426508E+01   0.0000000E+00   4.4434869E-01  -1.2492170E+01   0.0000000E+00   6.8417656E-01  -1.2601185E+01   0.0000000E+00   1.0013210E+00  -1.2767697E+01   0.0000000E+00   1.3917873E+00  -1.3155749E+01   0.0000000E+00   1.3019308E-05  -1.3161002E+01   0.0000000E+00   7.1231581E-02  -1.3179533E+01   0.0000000E+00   1.6392601E-01  -1.3213359E+01   0.0000000E+00   2.9530838E-01  -1.3271544E+01   0.0000000E+00   4.9718529E-01  -1.3362398E+01   0.0000000E+00   7.9352486E-01  -1.3493894E+01   0.0000000E+00   1.1958472E+00  -1.3676425E+01   0.0000000E+00   1.6852341E+00  -1.3385159E+01   0.0000000E+00  -2.5422778E-06  -1.3390358E+01   0.0000000E+00   6.7910001E-02  -1.3406787E+01   0.0000000E+00   1.6066326E-01  -1.3439574E+01   0.0000000E+00   3.0848154E-01  -1.3493952E+01   0.0000000E+00   5.4177278E-01  -1.3581039E+01   0.0000000E+00   8.9266187E-01  -1.3712188E+01   0.0000000E+00   1.3742502E+00  -1.3898101E+01   0.0000000E+00   1.9750550E+00  -1.2025656E+01   0.0000000E+00  -1.1748023E-05  -1.2027938E+01   0.0000000E+00   5.7326492E-02  -1.2036085E+01   0.0000000E+00   1.4597532E-01  -1.2054207E+01   0.0000000E+00   3.0270490E-01  -1.2089554E+01   0.0000000E+00   5.6825471E-01  -1.2152246E+01   0.0000000E+00   9.7567904E-01  -1.2254154E+01   0.0000000E+00   1.5343831E+00  -1.2406716E+01   0.0000000E+00   2.2223637E+00  -8.5145969E+00   0.0000000E+00   6.1898318E-06  -8.5162449E+00   0.0000000E+00   6.2025502E-02  -8.5222502E+00   0.0000000E+00   1.5869501E-01  -8.5360117E+00   0.0000000E+00   3.3084324E-01  -8.5636330E+00   0.0000000E+00   6.2352622E-01  -8.6137123E+00   0.0000000E+00   1.0732713E+00  -8.6961889E+00   0.0000000E+00   1.6899970E+00  -8.8200665E+00   0.0000000E+00   2.4487190E+00  -5.1502614E+00   0.0000000E+00  -4.1218591E-06  -5.1514673E+00   0.0000000E+00   6.6141658E-02  -5.1558270E+00   0.0000000E+00   1.6943458E-01  -5.1658497E+00   0.0000000E+00   3.5366383E-01  -5.1859708E+00   0.0000000E+00   6.6708404E-01  -5.2224870E+00   0.0000000E+00   1.1487446E+00  -5.2826266E+00   0.0000000E+00   1.8087757E+00  -5.3726144E+00   0.0000000E+00   2.6194119E+00  -2.5767691E+00   0.0000000E+00  -9.3916024E-06  -2.5775228E+00   0.0000000E+00   6.8961509E-02  -2.5802591E+00   0.0000000E+00   1.7678183E-01  -2.5865195E+00   0.0000000E+00   3.6924767E-01  -2.5991206E+00   0.0000000E+00   6.9689345E-01  -2.6220701E+00   0.0000000E+00   1.2004682E+00  -2.6599360E+00   0.0000000E+00   1.8901252E+00  -2.7164371E+00   0.0000000E+00   2.7355072E+00  -7.2730464E-01   0.0000000E+00   6.6838693E-06  -7.2763819E-01   0.0000000E+00   7.0518032E-02  -7.2882676E-01   0.0000000E+00   1.8086031E-01  -7.3159003E-01   0.0000000E+00   3.7790880E-01  -7.3717988E-01   0.0000000E+00   7.1351290E-01  -7.4744266E-01   0.0000000E+00   1.2294357E+00  -7.6451510E-01   0.0000000E+00   1.9357688E+00  -7.8994447E-01   0.0000000E+00   2.8002846E+00   6.9524807E-01   0.0000000E+00  -9.1614784E-06   6.9528657E-01   0.0000000E+00   7.0953593E-02   6.9546044E-01   0.0000000E+00   1.8197586E-01   6.9585490E-01   0.0000000E+00   3.8027972E-01   6.9659609E-01   0.0000000E+00   7.1816534E-01   6.9776392E-01   0.0000000E+00   1.2377305E+00   6.9947511E-01   0.0000000E+00   1.9489820E+00   7.0199418E-01   0.0000000E+00   2.8187737E+00   1.9972222E+00   0.0000000E+00  -1.2885052E-05   1.9976201E+00   0.0000000E+00   7.0342317E-02   1.9990351E+00   0.0000000E+00   1.8042009E-01   2.0022302E+00   0.0000000E+00   3.7707278E-01   2.0085895E+00   0.0000000E+00   7.1218908E-01   2.0199370E+00   0.0000000E+00   1.2276534E+00   2.0383623E+00   0.0000000E+00   1.9333470E+00   2.0658870E+00   0.0000000E+00   2.7960391E+00   3.3403151E+00   0.0000000E+00   6.8276131E-06   3.3410046E+00   0.0000000E+00   6.8842568E-02   3.3435509E+00   0.0000000E+00   1.7651938E-01   3.3492970E+00   0.0000000E+00   3.6891466E-01   3.3606625E+00   0.0000000E+00   6.9684899E-01   3.3810501E+00   0.0000000E+00   1.2013713E+00   3.4143920E+00   0.0000000E+00   1.8922541E+00   3.4643223E+00   0.0000000E+00   2.7367465E+00   4.7190776E+00   0.0000000E+00   1.1087250E-05   4.7200632E+00   0.0000000E+00   6.6496968E-02   4.7236028E+00   0.0000000E+00   1.7053808E-01   4.7316098E+00   0.0000000E+00   3.5639566E-01   4.7474375E+00   0.0000000E+00   6.7322409E-01   4.7758703E+00   0.0000000E+00   1.1607593E+00   4.8224711E+00   0.0000000E+00   1.8285137E+00   4.8924704E+00   0.0000000E+00   2.6447055E+00   6.0335793E+00   0.0000000E+00   1.2005912E-06   6.0348101E+00   0.0000000E+00   6.3458301E-02   6.0392241E+00   0.0000000E+00   1.6273317E-01   6.0491843E+00   0.0000000E+00   3.4004024E-01   6.0688992E+00   0.0000000E+00   6.4231861E-01   6.1043358E+00   0.0000000E+00   1.1075594E+00   6.1625137E+00   0.0000000E+00   1.7448078E+00   6.2500768E+00   0.0000000E+00   2.5235839E+00   7.1609249E+00   0.0000000E+00  -2.3083820E-05   7.1624093E+00   0.0000000E+00   5.9947673E-02   7.1677012E+00   0.0000000E+00   1.5354501E-01   7.1796265E+00   0.0000000E+00   3.2063428E-01   7.2029581E+00   0.0000000E+00   6.0542899E-01   7.2447195E+00   0.0000000E+00   1.0438155E+00   7.3128653E+00   0.0000000E+00   1.6442693E+00   7.4155684E+00   0.0000000E+00   2.3776927E+00   7.8092947E+00   0.0000000E+00   1.5495752E-06   7.8133717E+00   0.0000000E+00   6.2075287E-02   7.8237495E+00   0.0000000E+00   1.5360083E-01   7.8463240E+00   0.0000000E+00   3.1182501E-01   7.8854661E+00   0.0000000E+00   5.7706434E-01   7.9466128E+00   0.0000000E+00   9.8397195E-01   8.0402718E+00   0.0000000E+00   1.5410094E+00   8.1728859E+00   0.0000000E+00   2.2212582E+00   7.8571196E+00   0.0000000E+00  -5.4036209E-06   7.8632755E+00   0.0000000E+00   7.2240293E-02   7.8820062E+00   0.0000000E+00   1.6948892E-01   7.9166822E+00   0.0000000E+00   3.2314736E-01   7.9700246E+00   0.0000000E+00   5.6619239E-01   8.0496426E+00   0.0000000E+00   9.3793625E-01   8.1700668E+00   0.0000000E+00   1.4474528E+00   8.3336191E+00   0.0000000E+00   2.0759304E+00   7.7210517E+00   0.0000000E+00  -1.3572280E-06   7.7262483E+00   0.0000000E+00   7.4713565E-02   7.7436590E+00   0.0000000E+00   1.7034212E-01   7.7759643E+00   0.0000000E+00   3.1520185E-01   7.8357987E+00   0.0000000E+00   5.4552758E-01   7.9268279E+00   0.0000000E+00   8.9159793E-01   8.0479612E+00   0.0000000E+00   1.3501681E+00   8.2205477E+00   0.0000000E+00   1.9163389E+00   7.5093040E+00   0.0000000E+00   8.7710214E-07   7.5130434E+00   0.0000000E+00   7.8139037E-02   7.5265241E+00   0.0000000E+00   1.7197330E-01   7.5536928E+00   0.0000000E+00   3.0756369E-01   7.6004605E+00   0.0000000E+00   5.1783681E-01   7.6781068E+00   0.0000000E+00   8.2627594E-01   7.8046870E+00   0.0000000E+00   1.2516392E+00   7.9801869E+00   0.0000000E+00   1.7647090E+00   7.2441802E+00   0.0000000E+00  -2.4466281E-06   7.2476559E+00   0.0000000E+00   8.1014492E-02   7.2580709E+00   0.0000000E+00   1.8122856E-01   7.2809749E+00   0.0000000E+00   3.1173944E-01   7.3225927E+00   0.0000000E+00   5.0219798E-01   7.3919868E+00   0.0000000E+00   7.7469504E-01   7.5075898E+00   0.0000000E+00   1.1490366E+00   7.6796284E+00   0.0000000E+00   1.6140205E+00   6.9089127E+00   0.0000000E+00  -1.0076183E-06   6.9111466E+00   0.0000000E+00   8.3806351E-02   6.9214334E+00   0.0000000E+00   1.8230726E-01   6.9417801E+00   0.0000000E+00   3.1511298E-01   6.9795957E+00   0.0000000E+00   4.9117285E-01   7.0496941E+00   0.0000000E+00   7.3576224E-01   7.1618891E+00   0.0000000E+00   1.0603592E+00   7.3328195E+00   0.0000000E+00   1.4727150E+00   6.5105519E+00   0.0000000E+00   1.4256802E-06   6.5136127E+00   0.0000000E+00   8.5089497E-02   6.5237942E+00   0.0000000E+00   1.8212694E-01   6.5456977E+00   0.0000000E+00   3.0710170E-01   6.5845418E+00   0.0000000E+00   4.7469246E-01   6.6535592E+00   0.0000000E+00   6.9803697E-01   6.7711911E+00   0.0000000E+00   9.8994803E-01   6.9399815E+00   0.0000000E+00   1.3514951E+00   6.0625234E+00   0.0000000E+00  -7.4945274E-06   6.0656147E+00   0.0000000E+00   8.5692413E-02   6.0778170E+00   0.0000000E+00   1.7971164E-01   6.1018753E+00   0.0000000E+00   3.0028370E-01   6.1459708E+00   0.0000000E+00   4.5715228E-01   6.2182779E+00   0.0000000E+00   6.6036171E-01   6.3357186E+00   0.0000000E+00   9.2149615E-01   6.5153174E+00   0.0000000E+00   1.2420176E+00   5.5912008E+00   0.0000000E+00   3.0887240E-06   5.5951023E+00   0.0000000E+00   8.4674887E-02   5.6100531E+00   0.0000000E+00   1.7808525E-01   5.6387873E+00   0.0000000E+00   2.9223081E-01   5.6884451E+00   0.0000000E+00   4.3953252E-01   5.7703404E+00   0.0000000E+00   6.2478483E-01   5.8955016E+00   0.0000000E+00   8.5673308E-01   6.0770984E+00   0.0000000E+00   1.1334215E+00   5.1229062E+00   0.0000000E+00   2.6076377E-06   5.1281824E+00   0.0000000E+00   8.4013328E-02   5.1469936E+00   0.0000000E+00   1.7701006E-01   5.1831093E+00   0.0000000E+00   2.8621912E-01   5.2430840E+00   0.0000000E+00   4.2306542E-01   5.3321824E+00   0.0000000E+00   5.8382964E-01   5.4652233E+00   0.0000000E+00   7.9055643E-01   5.6600022E+00   0.0000000E+00   1.0364463E+00   4.6846552E+00   0.0000000E+00  -7.1801187E-06   4.6920381E+00   0.0000000E+00   8.3303504E-02   4.7153559E+00   0.0000000E+00   1.7468932E-01   4.7599349E+00   0.0000000E+00   2.7807656E-01   4.8262062E+00   0.0000000E+00   3.9676183E-01   4.9261560E+00   0.0000000E+00   5.4095542E-01   5.0705333E+00   0.0000000E+00   7.1940625E-01   5.2776308E+00   0.0000000E+00   9.4703001E-01   4.2983804E+00   0.0000000E+00  -4.6843343E-07   4.3072081E+00   0.0000000E+00   8.0090418E-02   4.3345165E+00   0.0000000E+00   1.6659348E-01   4.3820901E+00   0.0000000E+00   2.5812933E-01   4.4559355E+00   0.0000000E+00   3.6191645E-01   4.5684843E+00   0.0000000E+00   4.8790091E-01   4.7198124E+00   0.0000000E+00   6.5070742E-01   4.9562392E+00   0.0000000E+00   8.8754970E-01   3.9665225E+00   0.0000000E+00  -2.7952519E-06   3.9747627E+00   0.0000000E+00   6.9956444E-02   4.0029159E+00   0.0000000E+00   1.4423421E-01   4.0555539E+00   0.0000000E+00   2.2165827E-01   4.1404791E+00   0.0000000E+00   3.1896505E-01   4.2572432E+00   0.0000000E+00   4.3242183E-01   4.4520359E+00   0.0000000E+00   6.1100423E-01   4.7481518E+00   0.0000000E+00   9.3133616E-01   3.6748426E+00   0.0000000E+00  -1.6664490E-06   3.6822751E+00   0.0000000E+00   5.6031220E-02   3.7159939E+00   0.0000000E+00   1.1617975E-01   3.7770791E+00   0.0000000E+00   1.8505889E-01   3.8750274E+00   0.0000000E+00   2.8016603E-01   4.0367112E+00   0.0000000E+00   4.2778316E-01   4.2963748E+00   0.0000000E+00   6.8191350E-01   4.7114406E+00   0.0000000E+00   1.1617080E+00   3.4420552E+00   0.0000000E+00  -6.6235225E-07   3.4563694E+00   0.0000000E+00   4.3175798E-02   3.4965219E+00   0.0000000E+00   1.0044013E-01   3.5769863E+00   0.0000000E+00   1.8753064E-01   3.7218945E+00   0.0000000E+00   3.3039835E-01   3.9604628E+00   0.0000000E+00   5.7298714E-01   4.3910656E+00   0.0000000E+00   9.9530631E-01   5.1116095E+00   0.0000000E+00   1.7050824E+00   3.3327832E+00   0.0000000E+00   2.1935302E-06   3.3553743E+00   0.0000000E+00   6.4477965E-02   3.4269667E+00   0.0000000E+00   1.5640841E-01   3.5753038E+00   0.0000000E+00   3.1598759E-01   3.8532059E+00   0.0000000E+00   5.8768761E-01   4.3416820E+00   0.0000000E+00   1.0112664E+00   5.1539278E+00   0.0000000E+00   1.6058919E+00   6.2928634E+00   0.0000000E+00   2.4109976E+00   3.7481024E+00   0.0000000E+00  -1.4021498E-06   3.8034651E+00   0.0000000E+00   1.4886436E-01   3.9823670E+00   0.0000000E+00   3.4376985E-01   4.3303790E+00   0.0000000E+00   6.3071656E-01   4.9015689E+00   0.0000000E+00   1.0342796E+00   5.7181778E+00   0.0000000E+00   1.5682021E+00   6.7353120E+00   0.0000000E+00   2.2649610E+00   7.8326178E+00   0.0000000E+00   3.1661451E+00   5.5079465E+00   0.0000000E+00  -4.7095818E-07   5.5748520E+00   0.0000000E+00   2.2979711E-01   5.7879138E+00   0.0000000E+00   5.2481043E-01   6.1714005E+00   0.0000000E+00   9.4062656E-01   6.7451062E+00   0.0000000E+00   1.5011635E+00   7.4675841E+00   0.0000000E+00   2.1910179E+00   8.2234898E+00   0.0000000E+00   3.0048277E+00   8.8930874E+00   0.0000000E+00   3.9380643E+00   7.5872855E+00   0.0000000E+00  -5.9301965E-07   7.6268525E+00   0.0000000E+00   3.2031855E-01   7.7489429E+00   0.0000000E+00   7.3182786E-01   7.9589710E+00   0.0000000E+00   1.3079181E+00   8.2542267E+00   0.0000000E+00   2.0602744E+00   8.5813999E+00   0.0000000E+00   2.8979120E+00   8.8351307E+00   0.0000000E+00   3.7848902E+00   8.6258249E+00   0.0000000E+00   2.9893272E-07   8.6249857E+00   0.0000000E+00   4.1961065E-01   8.6238995E+00   0.0000000E+00   9.6205920E-01   8.6132879E+00   0.0000000E+00   1.7200617E+00   8.5890074E+00   0.0000000E+00   2.6892159E+00  -1.2664845E-04   0.0000000E+00   8.4176863E-06  -1.2055616E-04   0.0000000E+00   1.0414295E-05  -1.1299605E-04   0.0000000E+00   1.2565892E-05  -1.0378026E-04   0.0000000E+00   1.4793112E-05  -9.2705493E-05   0.0000000E+00   1.7005174E-05  -7.9641613E-05   0.0000000E+00   1.8907489E-05  -6.4435604E-05   0.0000000E+00   2.0261563E-05  -2.3400046E-04   0.0000000E+00   1.5772846E-05  -2.2302862E-04   0.0000000E+00   1.9458021E-05  -2.0938150E-04   0.0000000E+00   2.3420007E-05  -1.9268539E-04   0.0000000E+00   2.7519834E-05  -1.7250983E-04   0.0000000E+00   3.1595187E-05  -1.4851577E-04   0.0000000E+00   3.5103352E-05  -1.2021808E-04   0.0000000E+00   3.7624995E-05  -8.8256704E-05   0.0000000E+00   3.8242833E-05  -4.1983812E-04   0.0000000E+00   2.8472954E-05  -4.0071254E-04   0.0000000E+00   3.5065084E-05  -3.7686370E-04   0.0000000E+00   4.2156676E-05  -3.4758265E-04   0.0000000E+00   4.9519604E-05  -3.1202892E-04   0.0000000E+00   5.6872246E-05  -2.6950784E-04   0.0000000E+00   6.3303349E-05  -2.1914367E-04   0.0000000E+00   6.8106325E-05  -1.6175909E-04   0.0000000E+00   6.8973954E-05  -7.3341338E-04   0.0000000E+00   5.0013183E-05  -7.0109835E-04   0.0000000E+00   6.1489518E-05  -6.6066522E-04   0.0000000E+00   7.3921568E-05  -6.1084144E-04   0.0000000E+00   8.6852473E-05  -5.5004540E-04   0.0000000E+00   9.9791716E-05  -4.7683128E-04   0.0000000E+00   1.1127631E-04  -3.8941781E-04   0.0000000E+00   1.1997799E-04  -2.8869882E-04   0.0000000E+00   1.2175518E-04  -1.2530412E-03   0.0000000E+00   8.5703708E-05  -1.1998913E-03   0.0000000E+00   1.0523691E-04  -1.1331216E-03   0.0000000E+00   1.2654718E-04  -1.0504859E-03   0.0000000E+00   1.4873684E-04  -9.4906893E-04   0.0000000E+00   1.7098033E-04  -8.2586450E-04   0.0000000E+00   1.9106394E-04  -6.7737023E-04   0.0000000E+00   2.0663823E-04  -5.0437218E-04   0.0000000E+00   2.1063515E-04  -2.1003210E-03   0.0000000E+00   1.4353848E-04  -2.0149597E-03   0.0000000E+00   1.7611578E-04  -1.9072578E-03   0.0000000E+00   2.1186651E-04  -1.7732743E-03   0.0000000E+00   2.4918569E-04  -1.6077337E-03   0.0000000E+00   2.8676382E-04  -1.4047551E-03   0.0000000E+00   3.2134529E-04  -1.1575919E-03   0.0000000E+00   3.4904774E-04  -8.6622994E-04   0.0000000E+00   3.5798992E-04  -3.4618312E-03   0.0000000E+00   2.3524521E-04  -3.3282437E-03   0.0000000E+00   2.8849879E-04  -3.1587619E-03   0.0000000E+00   3.4744127E-04  -2.9462334E-03   0.0000000E+00   4.0943178E-04  -2.6812865E-03   0.0000000E+00   4.7238028E-04  -2.3531618E-03   0.0000000E+00   5.3128932E-04  -1.9491229E-03   0.0000000E+00   5.8026297E-04  -1.4667977E-03   0.0000000E+00   5.9961790E-04  -5.6196027E-03   0.0000000E+00   3.7737525E-04  -5.4150061E-03   0.0000000E+00   4.6329814E-04  -5.1532141E-03   0.0000000E+00   5.5965059E-04  -4.8222332E-03   0.0000000E+00   6.6178676E-04  -4.4062561E-03   0.0000000E+00   7.6636218E-04  -3.8868103E-03   0.0000000E+00   8.6549995E-04  -3.2399171E-03   0.0000000E+00   9.5130887E-04  -2.4562399E-03   0.0000000E+00   9.9175703E-04  -8.9848144E-03   0.0000000E+00   5.9462700E-04  -8.6756302E-03   0.0000000E+00   7.3201349E-04  -8.2774945E-03   0.0000000E+00   8.8797486E-04  -7.7708107E-03   0.0000000E+00   1.0545286E-03  -7.1305311E-03   0.0000000E+00   1.2256078E-03  -6.3265632E-03   0.0000000E+00   1.3890446E-03  -5.3154933E-03   0.0000000E+00   1.5361155E-03  -4.0709344E-03   0.0000000E+00   1.6170095E-03  -1.4146013E-02   0.0000000E+00   9.2460046E-04  -1.3684129E-02   0.0000000E+00   1.1409700E-03  -1.3088145E-02   0.0000000E+00   1.3889540E-03  -1.2326212E-02   0.0000000E+00   1.6567523E-03  -1.1361947E-02   0.0000000E+00   1.9293118E-03  -1.0143594E-02   0.0000000E+00   2.1945178E-03  -8.6021991E-03   0.0000000E+00   2.4381094E-03  -6.6729779E-03   0.0000000E+00   2.5921995E-03  -2.1930840E-02   0.0000000E+00   1.4199389E-03  -2.1253703E-02   0.0000000E+00   1.7543287E-03  -2.0380026E-02   0.0000000E+00   2.1389574E-03  -1.9256528E-02   0.0000000E+00   2.5636365E-03  -1.7837524E-02   0.0000000E+00   2.9849350E-03  -1.6029729E-02   0.0000000E+00   3.4083577E-03  -1.3730053E-02   0.0000000E+00   3.8109990E-03  -1.0803039E-02   0.0000000E+00   4.1040853E-03  -3.3479162E-02   0.0000000E+00   2.1478715E-03  -3.2511551E-02   0.0000000E+00   2.6543129E-03  -3.1261552E-02   0.0000000E+00   3.2434885E-03  -2.9641811E-02   0.0000000E+00   3.9217481E-03  -2.7599899E-02   0.0000000E+00   4.6013766E-03  -2.4970310E-02   0.0000000E+00   5.3535672E-03  -2.1591879E-02   0.0000000E+00   6.1817262E-03  -1.7192584E-02   0.0000000E+00   6.9847098E-03  -5.0343670E-02   0.0000000E+00   3.1886778E-03  -4.8999958E-02   0.0000000E+00   3.9449073E-03  -4.7259830E-02   0.0000000E+00   4.8415135E-03  -4.4990238E-02   0.0000000E+00   5.9353043E-03  -4.2145152E-02   0.0000000E+00   7.0948210E-03  -3.8454954E-02   0.0000000E+00   8.5645393E-03  -3.3744141E-02   0.0000000E+00   1.0435117E-02  -2.7679393E-02   0.0000000E+00   1.2459644E-02  -7.4646220E-02   0.0000000E+00   4.6429434E-03  -7.2840400E-02   0.0000000E+00   5.7550003E-03  -7.0480980E-02   0.0000000E+00   7.1320636E-03  -6.7393489E-02   0.0000000E+00   8.9655444E-03  -6.3543566E-02   0.0000000E+00   1.1138020E-02  -5.8639906E-02   0.0000000E+00   1.3554407E-02  -5.2379195E-02   0.0000000E+00   1.7242132E-02  -4.4303805E-02   0.0000000E+00   2.1092728E-02  -1.0932168E-01   0.0000000E+00   6.6401442E-03  -1.0696931E-01   0.0000000E+00   8.2524912E-03  -1.0386830E-01   0.0000000E+00   1.0292336E-02  -9.9803761E-02   0.0000000E+00   1.3018762E-02  -9.4784416E-02   0.0000000E+00   1.6391374E-02  -8.8356622E-02   0.0000000E+00   2.1276560E-02  -8.0192164E-02   0.0000000E+00   2.8033128E-02  -6.9363169E-02   0.0000000E+00   3.4948967E-02  -1.5841138E-01   0.0000000E+00   9.3692942E-03  -1.5543531E-01   0.0000000E+00   1.1682645E-02  -1.5147139E-01   0.0000000E+00   1.4668402E-02  -1.4624004E-01   0.0000000E+00   1.8725391E-02  -1.3977961E-01   0.0000000E+00   2.3902250E-02  -1.3152033E-01   0.0000000E+00   3.1497367E-02  -1.2095117E-01   0.0000000E+00   4.2117324E-02  -1.0655119E-01   0.0000000E+00   5.2983031E-02  -2.2734086E-01   0.0000000E+00   1.3069469E-02  -2.2366159E-01   0.0000000E+00   1.6338743E-02  -2.1869668E-01   0.0000000E+00   2.0625528E-02  -2.1204256E-01   0.0000000E+00   2.6574610E-02  -2.0381127E-01   0.0000000E+00   3.4306001E-02  -1.9317524E-01   0.0000000E+00   4.5863770E-02  -1.7941591E-01   0.0000000E+00   6.2240593E-02  -1.6016752E-01   0.0000000E+00   7.9281881E-02  -3.2308224E-01   0.0000000E+00   1.8136775E-02  -3.1863132E-01   0.0000000E+00   2.2708230E-02  -3.1256250E-01   0.0000000E+00   2.8739253E-02  -3.0430168E-01   0.0000000E+00   3.7338622E-02  -2.9394016E-01   0.0000000E+00   4.8788581E-02  -2.8031233E-01   0.0000000E+00   6.6216581E-02  -2.6232171E-01   0.0000000E+00   9.1284908E-02  -2.3657636E-01   0.0000000E+00   1.1766230E-01  -4.5405272E-01   0.0000000E+00   2.5208432E-02  -4.4886023E-01   0.0000000E+00   3.1459905E-02  -4.4175091E-01   0.0000000E+00   3.9685901E-02  -4.3194282E-01   0.0000000E+00   5.1506896E-02  -4.1935158E-01   0.0000000E+00   6.7498654E-02  -4.0230978E-01   0.0000000E+00   9.2208356E-02  -3.7904227E-01   0.0000000E+00   1.2864842E-01  -3.4476456E-01   0.0000000E+00   1.6809240E-01  -6.2981921E-01   0.0000000E+00   3.5212744E-02  -6.2410718E-01   0.0000000E+00   4.3656033E-02  -6.1633831E-01   0.0000000E+00   5.4663785E-02  -6.0550535E-01   0.0000000E+00   7.0546269E-02  -5.9122634E-01   0.0000000E+00   9.2597894E-02  -5.7106918E-01   0.0000000E+00   1.2739903E-01  -5.4210293E-01   0.0000000E+00   1.8033046E-01  -4.9736133E-01   0.0000000E+00   2.3960134E-01  -8.6117113E-01   0.0000000E+00   4.9548868E-02  -8.5546964E-01   0.0000000E+00   6.0840063E-02  -8.4791088E-01   0.0000000E+00   7.5238071E-02  -8.3732945E-01   0.0000000E+00   9.5798604E-02  -8.2304174E-01   0.0000000E+00   1.2518676E-01  -8.0140430E-01   0.0000000E+00   1.7266697E-01  -7.6762676E-01   0.0000000E+00   2.4750297E-01  -7.1140158E-01   0.0000000E+00   3.3454815E-01  -1.1612099E+00   0.0000000E+00   7.0304126E-02  -1.1564534E+00   0.0000000E+00   8.5392386E-02  -1.1505501E+00   0.0000000E+00   1.0402221E-01  -1.1425629E+00   0.0000000E+00   1.2947720E-01  -1.1314448E+00   0.0000000E+00   1.6775143E-01  -1.1120175E+00   0.0000000E+00   2.3119096E-01  -1.0764489E+00   0.0000000E+00   3.3727881E-01  -1.0094018E+00   0.0000000E+00   4.6653312E-01  -1.5475500E+00   0.0000000E+00   1.0049564E-01  -1.5451359E+00   0.0000000E+00   1.2099045E-01  -1.5429837E+00   0.0000000E+00   1.4495550E-01  -1.5408341E+00   0.0000000E+00   1.7578919E-01  -1.5377423E+00   0.0000000E+00   2.2389390E-01  -1.5271313E+00   0.0000000E+00   3.0547675E-01  -1.4963570E+00   0.0000000E+00   4.5066825E-01  -1.4224944E+00   0.0000000E+00   6.4138520E-01  -2.0446327E+00   0.0000000E+00   1.4430617E-01  -2.0463438E+00   0.0000000E+00   1.7304352E-01  -2.0499623E+00   0.0000000E+00   2.0475677E-01  -2.0573604E+00   0.0000000E+00   2.4209322E-01  -2.0685358E+00   0.0000000E+00   3.0066296E-01  -2.0770197E+00   0.0000000E+00   4.0076268E-01  -2.0635033E+00   0.0000000E+00   5.9478486E-01  -1.9936645E+00   0.0000000E+00   8.7019610E-01  -2.6838646E+00   0.0000000E+00   2.0724288E-01  -2.6914399E+00   0.0000000E+00   2.4956293E-01  -2.7021124E+00   0.0000000E+00   2.9512602E-01  -2.7221956E+00   0.0000000E+00   3.4205583E-01  -2.7543144E+00   0.0000000E+00   4.1045699E-01  -2.7971692E+00   0.0000000E+00   5.2776355E-01  -2.8228130E+00   0.0000000E+00   7.8009158E-01  -2.7821972E+00   0.0000000E+00   1.1744969E+00  -3.5003252E+00   0.0000000E+00   2.9251567E-01  -3.5144291E+00   0.0000000E+00   3.6037734E-01  -3.5323424E+00   0.0000000E+00   4.3020731E-01  -3.5657816E+00   0.0000000E+00   4.9745101E-01  -3.6246943E+00   0.0000000E+00   5.7753295E-01  -3.7230244E+00   0.0000000E+00   7.1009594E-01  -3.8258157E+00   0.0000000E+00   1.0262332E+00  -3.8658850E+00   0.0000000E+00   1.5815742E+00  -4.5214114E+00   0.0000000E+00   4.1083363E-01  -4.5452294E+00   0.0000000E+00   5.1210290E-01  -4.5685382E+00   0.0000000E+00   6.2560767E-01  -4.6048403E+00   0.0000000E+00   7.4574447E-01  -4.7001367E+00   0.0000000E+00   8.4390509E-01  -4.8804526E+00   0.0000000E+00   9.9252176E-01  -5.1230292E+00   0.0000000E+00   1.3770971E+00  -5.3411131E+00   0.0000000E+00   2.1456437E+00  -5.7571945E+00   0.0000000E+00   5.6948781E-01  -5.7918420E+00   0.0000000E+00   7.1959835E-01  -5.8277645E+00   0.0000000E+00   8.8544708E-01  -5.8734760E+00   0.0000000E+00   1.0692526E+00  -5.9871264E+00   0.0000000E+00   1.2524735E+00  -6.2697411E+00   0.0000000E+00   1.4630269E+00  -6.7420316E+00   0.0000000E+00   1.9330653E+00  -7.3017492E+00   0.0000000E+00   2.9691155E+00  -7.1836810E+00   0.0000000E+00   7.6974285E-01  -7.2418509E+00   0.0000000E+00   9.7627097E-01  -7.3003106E+00   0.0000000E+00   1.2092435E+00  -7.3792224E+00   0.0000000E+00   1.4753252E+00  -7.5157413E+00   0.0000000E+00   1.7922611E+00  -7.8613639E+00   0.0000000E+00   2.2168584E+00  -8.6493320E+00   0.0000000E+00   2.8715763E+00  -9.7935019E+00   0.0000000E+00   4.2752118E+00  -8.7285461E+00   0.0000000E+00   1.0041295E+00  -8.8151922E+00   0.0000000E+00   1.2914478E+00  -8.9227009E+00   0.0000000E+00   1.5982310E+00  -9.0627232E+00   0.0000000E+00   1.9802108E+00  -9.2953548E+00   0.0000000E+00   2.4828889E+00  -9.7383919E+00   0.0000000E+00   3.2503583E+00  -1.0757476E+01   0.0000000E+00   4.5061483E+00  -1.2725042E+01   0.0000000E+00   6.3820891E+00  -1.0269827E+01   0.0000000E+00   1.2790215E+00  -1.0420917E+01   0.0000000E+00   1.6103823E+00  -1.0597013E+01   0.0000000E+00   2.0468328E+00  -1.0827201E+01   0.0000000E+00   2.6096599E+00  -1.1196059E+01   0.0000000E+00   3.4569137E+00  -1.1918766E+01   0.0000000E+00   4.8533497E+00  -1.3223582E+01   0.0000000E+00   7.1747622E+00  -1.5760416E+01   0.0000000E+00   9.9574461E+00  -1.1708793E+01   0.0000000E+00   1.5299104E+00  -1.1923961E+01   0.0000000E+00   1.9796112E+00  -1.2180836E+01   0.0000000E+00   2.5603809E+00  -1.2553708E+01   0.0000000E+00   3.4732089E+00  -1.3125924E+01   0.0000000E+00   5.0507207E+00  -1.3923291E+01   0.0000000E+00   7.9411044E+00  -1.5427964E+01   0.0000000E+00   1.1927838E+01  -1.8437979E+01   0.0000000E+00   1.5859104E+01  -1.2985985E+01   0.0000000E+00   1.8599072E+00  -1.3261816E+01   0.0000000E+00   2.4351044E+00  -1.3652967E+01   0.0000000E+00   3.2801006E+00  -1.4164518E+01   0.0000000E+00   4.8704004E+00  -1.4772482E+01   0.0000000E+00   8.0199432E+00  -1.5479812E+01   0.0000000E+00   1.3356272E+01  -1.6870481E+01   0.0000000E+00   1.9866266E+01  -2.0140533E+01   0.0000000E+00   2.5045805E+01  -1.3930434E+01   0.0000000E+00   2.2672956E+00  -1.4279105E+01   0.0000000E+00   3.0146184E+00  -1.4765556E+01   0.0000000E+00   4.3145542E+00  -1.5348573E+01   0.0000000E+00   6.9321394E+00  -1.5947407E+01   0.0000000E+00   1.2062469E+01  -1.6456964E+01   0.0000000E+00   2.0527933E+01  -1.7557575E+01   0.0000000E+00   3.0001812E+01  -2.0482294E+01   0.0000000E+00   3.6250660E+01  -1.4152363E+01   0.0000000E+00   2.6567662E+00  -1.4503523E+01   0.0000000E+00   3.5660233E+00  -1.4984602E+01   0.0000000E+00   5.2811656E+00  -1.5522500E+01   0.0000000E+00   8.8955965E+00  -1.5938258E+01   0.0000000E+00   1.5847268E+01  -1.6157797E+01   0.0000000E+00   2.6980379E+01  -1.6897892E+01   0.0000000E+00   3.9024208E+01  -1.8959908E+01   0.0000000E+00   4.6122971E+01  -1.2620139E+01   0.0000000E+00   2.9958465E+00  -1.2898726E+01   0.0000000E+00   4.0397153E+00  -1.3234963E+01   0.0000000E+00   6.0920057E+00  -1.3583474E+01   0.0000000E+00   1.0376160E+01  -1.3869235E+01   0.0000000E+00   1.8516693E+01  -1.4034056E+01   0.0000000E+00   3.1381058E+01  -1.4385925E+01   0.0000000E+00   4.4947159E+01  -1.5165557E+01   0.0000000E+00   5.2593204E+01  -8.9911795E+00   0.0000000E+00   3.2992644E+00  -9.2108021E+00   0.0000000E+00   4.4402771E+00  -9.4708700E+00   0.0000000E+00   6.6654358E+00  -9.7498655E+00   0.0000000E+00   1.1276802E+01  -1.0016649E+01   0.0000000E+00   1.9999689E+01  -1.0234975E+01   0.0000000E+00   3.3763115E+01  -1.0445771E+01   0.0000000E+00   4.8213779E+01  -1.0638776E+01   0.0000000E+00   5.6363281E+01  -5.4956403E+00   0.0000000E+00   3.5250556E+00  -5.6509223E+00   0.0000000E+00   4.7257528E+00  -5.8325849E+00   0.0000000E+00   7.0374827E+00  -6.0254693E+00   0.0000000E+00   1.1799895E+01  -6.2076716E+00   0.0000000E+00   2.0786697E+01  -6.3595085E+00   0.0000000E+00   3.4968143E+01  -6.4725418E+00   0.0000000E+00   4.9907646E+01  -6.5535097E+00   0.0000000E+00   5.8448364E+01  -2.7927895E+00   0.0000000E+00   3.6761513E+00  -2.8869267E+00   0.0000000E+00   4.9097648E+00  -2.9940243E+00   0.0000000E+00   7.2611046E+00  -3.1047707E+00   0.0000000E+00   1.2086849E+01  -3.2055790E+00   0.0000000E+00   2.1182362E+01  -3.2832408E+00   0.0000000E+00   3.5545399E+01  -3.3318229E+00   0.0000000E+00   5.0739559E+01  -3.3548741E+00   0.0000000E+00   5.9527252E+01  -8.2375431E-01   0.0000000E+00   3.7588234E+00  -8.6356926E-01   0.0000000E+00   5.0062280E+00  -9.0571535E-01   0.0000000E+00   7.3691812E+00  -9.4570136E-01   0.0000000E+00   1.2210383E+01  -9.7815710E-01   0.0000000E+00   2.1334646E+01  -9.9759579E-01   0.0000000E+00   3.5758453E+01  -1.0013604E+00   0.0000000E+00   5.1064789E+01  -9.9036604E-01   0.0000000E+00   5.9991631E+01   7.0623481E-01   0.0000000E+00   3.7808230E+00   7.1410072E-01   0.0000000E+00   5.0277152E+00   7.2747457E-01   0.0000000E+00   7.3843818E+00   7.4666852E-01   0.0000000E+00   1.2212686E+01   7.7053851E-01   0.0000000E+00   2.1319342E+01   7.9799211E-01   0.0000000E+00   3.5731350E+01   8.2820302E-01   0.0000000E+00   5.1057724E+01   8.6158806E-01   0.0000000E+00   6.0035595E+01   2.1042466E+00   0.0000000E+00   3.7490978E+00   2.1547232E+00   0.0000000E+00   4.9835491E+00   2.2169499E+00   0.0000000E+00   7.3207803E+00   2.2872834E+00   0.0000000E+00   1.2118505E+01   2.3599198E+00   0.0000000E+00   2.1179745E+01   2.4292297E+00   0.0000000E+00   3.5534073E+01   2.4915953E+00   0.0000000E+00   5.0809700E+01   2.5466964E+00   0.0000000E+00   5.9756306E+01   3.5335717E+00   0.0000000E+00   3.6691277E+00   3.6230016E+00   0.0000000E+00   4.8767953E+00   3.7298770E+00   0.0000000E+00   7.1667771E+00   3.8470016E+00   0.0000000E+00   1.1873768E+01   3.9650202E+00   0.0000000E+00   2.0771975E+01   4.0755639E+00   0.0000000E+00   3.4879974E+01   4.1728592E+00   0.0000000E+00   4.9907356E+01   4.2540951E+00   0.0000000E+00   5.8712921E+01   4.9896564E+00   0.0000000E+00   3.5453539E+00   5.1148276E+00   0.0000000E+00   4.7116199E+00   5.2631769E+00   0.0000000E+00   6.9248061E+00   5.4241972E+00   0.0000000E+00   1.1477611E+01   5.5856476E+00   0.0000000E+00   2.0091015E+01   5.7372298E+00   0.0000000E+00   3.3756245E+01   5.8714490E+00   0.0000000E+00   4.8331020E+01   5.9828806E+00   0.0000000E+00   5.6885868E+01   6.3719835E+00   0.0000000E+00   3.3822663E+00   6.5292997E+00   0.0000000E+00   4.4929776E+00   6.7154474E+00   0.0000000E+00   6.6007261E+00   6.9170222E+00   0.0000000E+00   1.0939340E+01   7.1190929E+00   0.0000000E+00   1.9152332E+01   7.3097024E+00   0.0000000E+00   3.2193531E+01   7.4798985E+00   0.0000000E+00   4.6130634E+01   7.6224365E+00   0.0000000E+00   5.4337452E+01   7.5587559E+00   0.0000000E+00   3.1852810E+00   7.7441454E+00   0.0000000E+00   4.2276306E+00   7.9638796E+00   0.0000000E+00   6.2044992E+00   8.2011089E+00   0.0000000E+00   1.0276005E+01   8.4391155E+00   0.0000000E+00   1.7989349E+01   8.6642885E+00   0.0000000E+00   3.0252287E+01   8.8664351E+00   0.0000000E+00   4.3394753E+01   9.0371199E+00   0.0000000E+00   5.1171570E+01   8.3531599E+00   0.0000000E+00   2.9711738E+00   8.5876951E+00   0.0000000E+00   3.9326856E+00   8.8760004E+00   0.0000000E+00   5.7529106E+00   9.1714296E+00   0.0000000E+00   9.5135145E+00   9.4453506E+00   0.0000000E+00   1.6650650E+01   9.6984739E+00   0.0000000E+00   2.8016516E+01   9.8937712E+00   0.0000000E+00   4.0238846E+01   1.0119223E+01   0.0000000E+00   4.7531754E+01   8.5553160E+00   0.0000000E+00   2.7687664E+00   8.8593559E+00   0.0000000E+00   3.6443658E+00   9.2602882E+00   0.0000000E+00   5.2788792E+00   9.6989069E+00   0.0000000E+00   8.6853266E+00   1.0076489E+01   0.0000000E+00   1.5191678E+01   1.0356717E+01   0.0000000E+00   2.5585258E+01   1.0555585E+01   0.0000000E+00   3.6812969E+01   1.0815390E+01   0.0000000E+00   4.3581570E+01   8.4581575E+00   0.0000000E+00   2.5486042E+00   8.7827368E+00   0.0000000E+00   3.3469195E+00   9.2397280E+00   0.0000000E+00   4.7943382E+00   9.7780104E+00   0.0000000E+00   7.8283505E+00   1.0291358E+01   0.0000000E+00   1.3676951E+01   1.0670966E+01   0.0000000E+00   2.3067280E+01   1.0955061E+01   0.0000000E+00   3.3282677E+01   1.1226473E+01   0.0000000E+00   3.9486755E+01   8.2197285E+00   0.0000000E+00   2.3360441E+00   8.5541735E+00   0.0000000E+00   3.0410452E+00   9.0253677E+00   0.0000000E+00   4.3199196E+00   9.6234388E+00   0.0000000E+00   6.9851780E+00   1.0265614E+01   0.0000000E+00   1.2188198E+01   1.0769667E+01   0.0000000E+00   2.0588644E+01   1.1187578E+01   0.0000000E+00   2.9774370E+01   1.1586896E+01   0.0000000E+00   3.5415531E+01   7.9197993E+00   0.0000000E+00   2.1304245E+00   8.2355671E+00   0.0000000E+00   2.7598760E+00   8.7078648E+00   0.0000000E+00   3.8685915E+00   9.3705053E+00   0.0000000E+00   6.2086287E+00   1.0164032E+01   0.0000000E+00   1.0818753E+01   1.0820122E+01   0.0000000E+00   1.8272329E+01   1.1476693E+01   0.0000000E+00   2.6431698E+01   1.2180174E+01   0.0000000E+00   3.1513760E+01   7.5642843E+00   0.0000000E+00   1.9465327E+00   7.8865085E+00   0.0000000E+00   2.5025449E+00   8.3409252E+00   0.0000000E+00   3.4915900E+00   9.0697298E+00   0.0000000E+00   5.5639939E+00   1.0056623E+01   0.0000000E+00   9.6653118E+00   1.0962984E+01   0.0000000E+00   1.6242214E+01   1.2005206E+01   0.0000000E+00   2.3379210E+01   1.3123372E+01   0.0000000E+00   2.7866451E+01   7.1730509E+00   0.0000000E+00   1.7713419E+00   7.4962406E+00   0.0000000E+00   2.2951560E+00   7.9650512E+00   0.0000000E+00   3.1971252E+00   8.7708521E+00   0.0000000E+00   5.1157088E+00   9.9701376E+00   0.0000000E+00   8.8090076E+00   1.1267805E+01   0.0000000E+00   1.4596716E+01   1.2837997E+01   0.0000000E+00   2.0709591E+01   1.4528758E+01   0.0000000E+00   2.4562943E+01   6.7471399E+00   0.0000000E+00   1.6160305E+00   7.0826058E+00   0.0000000E+00   2.1277926E+00   7.6059203E+00   0.0000000E+00   3.0063059E+00   8.5155649E+00   0.0000000E+00   4.8792772E+00   9.9370470E+00   0.0000000E+00   8.3043385E+00   1.1737396E+01   0.0000000E+00   1.3395830E+01   1.3911180E+01   0.0000000E+00   1.8485476E+01   1.6289959E+01   0.0000000E+00   2.1645666E+01   6.3309832E+00   0.0000000E+00   1.4881335E+00   6.6794720E+00   0.0000000E+00   2.0012932E+00   7.2920179E+00   0.0000000E+00   2.9394155E+00   8.3346319E+00   0.0000000E+00   4.8728657E+00   9.9930201E+00   0.0000000E+00   8.1530085E+00   1.2262749E+01   0.0000000E+00   1.2626727E+01   1.4952547E+01   0.0000000E+00   1.6706968E+01   1.7906473E+01   0.0000000E+00   1.9101860E+01   5.9216666E+00   0.0000000E+00   1.3750439E+00   6.3378353E+00   0.0000000E+00   1.9456705E+00   7.0595984E+00   0.0000000E+00   3.0292912E+00   8.2630863E+00   0.0000000E+00   5.0894637E+00   1.0149543E+01   0.0000000E+00   8.3030672E+00   1.2677903E+01   0.0000000E+00   1.2161007E+01   1.5533920E+01   0.0000000E+00   1.5285734E+01   5.5780606E+00   0.0000000E+00   1.3125812E+00   6.0831351E+00   0.0000000E+00   1.9993948E+00   6.9424973E+00   0.0000000E+00   3.2859056E+00   8.3440619E+00   0.0000000E+00   5.5193949E+00   1.0405252E+01   0.0000000E+00   8.6289530E+00   1.2948199E+01   0.0000000E+00   1.1812531E+01   1.5658959E+01   0.0000000E+00   1.4037672E+01   5.3312979E+00   0.0000000E+00   1.3492148E+00   5.9584947E+00   0.0000000E+00   2.2109363E+00   7.0146928E+00   0.0000000E+00   3.7574914E+00   8.6353025E+00   0.0000000E+00   6.1322703E+00   1.0746460E+01   0.0000000E+00   8.9774017E+00   1.3092942E+01   0.0000000E+00   1.1450204E+01   5.2323937E+00   0.0000000E+00   1.5441346E+00   6.0610795E+00   0.0000000E+00   2.6558380E+00   7.3869767E+00   0.0000000E+00   4.4523177E+00   9.1677637E+00   0.0000000E+00   6.8094134E+00   1.1196896E+01   0.0000000E+00   9.2025881E+00   1.3235868E+01   0.0000000E+00   1.0986719E+01   5.4382443E+00   0.0000000E+00   2.0112126E+00   6.5952373E+00   0.0000000E+00   3.3640890E+00   8.1291056E+00   0.0000000E+00   5.2375684E+00   9.8798113E+00   0.0000000E+00   7.3945055E+00   1.1637804E+01   0.0000000E+00   9.2768040E+00   6.2366090E+00   0.0000000E+00   2.7340117E+00   7.6816664E+00   0.0000000E+00   4.1462579E+00   9.1886435E+00   0.0000000E+00   5.9215031E+00   1.0590878E+01   0.0000000E+00   7.7915030E+00   7.6174879E+00   0.0000000E+00   3.5106564E+00   8.9454765E+00   0.0000000E+00   4.9017940E+00   1.0127571E+01   0.0000000E+00   6.4546580E+00   1.1143819E+01   0.0000000E+00   7.9973059E+00   8.8559818E+00   0.0000000E+00   4.2972784E+00   9.7281179E+00   0.0000000E+00   5.5896945E+00   9.3915644E+00   0.0000000E+00   5.0187478E+00 
StrainDot 3 2975 float
  0.0000000E+00   0.0000000E+00   0.0000000E+00   0.0000000E+00   0.0000000E+00   0.0000000E+00   0.0000000E+00   0.0000000E+00   0.0000000E+00   0.0000000E+00   0.0000000E+00   0.0000000E+00   0.0000000E+00   0.0000000E+00   0.0000000E+00   0.0000000E+00   0.0000000E+00   0.0000000E+00   0.0000000E+00   0.0000000E+00   0.0000000E+00   0.0000000E+00   0.0000000E+00   0.0000000E+00   0.0000000E+00   0.0000000E+00   0.0000000E+00   0.0000000E+00   0.0000000E+00   0.0000000E+00   0.0000000E+00   0.0000000E+00   0.0000000E+00   0.0000000E+00   0.0000000E+00   0.0000000E+00   0.0000000E+00   0.0000000E+00   0.0000000E+00  -1.5912358E-12   0.0000000E+00  -3.1479130E-13   0.0000000E+00   0.0000000E+00   0.0000000E+00  -8.4520871E-12   0.0000000E+00  -2.6086761E-12  -6.2379893E-11   0.0000000E+00  -1.4927889E-11  -1.6851435E-11   0.0000000E+00  -6.5185275E-12  -1.2316989E-10   0.0000000E+00  -4.5565367E-11  -4.2849829E-10   0.0000000E+00  -1.2010293E-10  -1.4961472E-10   0.0000000E+00  -6.8588420E-11  -5.9972788E-10   0.0000000E+00  -2.5647878E-10  -1.6306543E-09   0.0000000E+00  -5.2125132E-10  -5.9251465E-10   0.0000000E+00  -3.1479722E-10  -1.8915181E-09   0.0000000E+00  -9.2114583E-10  -4.6057393E-09   0.0000000E+00  -1.6577344E-09  -1.6370207E-09   0.0000000E+00  -9.9925634E-10  -4.7142081E-09   0.0000000E+00  -2.5932665E-09  -1.0879899E-08   0.0000000E+00  -4.3785353E-09  -3.7233452E-09   0.0000000E+00  -2.5810329E-09  -1.0231218E-08   0.0000000E+00  -6.2829915E-09  -2.3015728E-08   0.0000000E+00  -1.0241864E-08  -7.6007227E-09   0.0000000E+00  -5.8702034E-09  -2.0469864E-08   0.0000000E+00  -1.3789105E-08  -4.5493362E-08   0.0000000E+00  -2.2028473E-08  -1.4636688E-08   0.0000000E+00  -1.2298214E-08  -3.9080408E-08   0.0000000E+00  -2.8291105E-08  -8.6303316E-08   0.0000000E+00  -4.4635069E-08  -2.7325656E-08   0.0000000E+00  -2.4397025E-08  -7.2598091E-08   0.0000000E+00  -5.5381772E-08  -1.5960545E-07   0.0000000E+00  -8.6628603E-08  -5.0253256E-08   0.0000000E+00  -4.6600075E-08  -1.3276295E-07   0.0000000E+00  -1.0478444E-07  -2.9031952E-07   0.0000000E+00  -1.6284190E-07  -9.2495952E-08   0.0000000E+00  -8.6562494E-08  -2.4255203E-07   0.0000000E+00  -1.9321675E-07  -5.2640746E-07   0.0000000E+00  -2.9883151E-07  -1.7386157E-07   0.0000000E+00  -1.5779754E-07  -4.5123525E-07   0.0000000E+00  -3.5021264E-07  -9.6862664E-07   0.0000000E+00  -5.3983342E-07  -3.3872988E-07   0.0000000E+00  -2.8638601E-07  -8.6616438E-07   0.0000000E+00  -6.3129926E-07  -1.8304005E-06   0.0000000E+00  -9.6952954E-07  -6.8645215E-07   0.0000000E+00  -5.2919660E-07  -1.7142103E-06   0.0000000E+00  -1.1469306E-06  -3.5441328E-06   0.0000000E+00  -1.7474573E-06  -1.4231879E-06   0.0000000E+00  -1.0253004E-06  -3.4131224E-06   0.0000000E+00  -2.1279698E-06  -6.8607828E-06   0.0000000E+00  -3.1827853E-06  -2.8849365E-06   0.0000000E+00  -2.1393350E-06  -6.5038571E-06   0.0000000E+00  -4.0688551E-06  -1.2682528E-05   0.0000000E+00  -5.8679748E-06  -1.1414458E-05   0.0000000E+00  -7.9814090E-06  -2.1654612E-05   0.0000000E+00  -1.0900318E-05   0.0000000E+00   0.0000000E+00   0.0000000E+00   0.0000000E+00   0.0000000E+00   0.0000000E+00   0.0000000E+00   0.0000000E+00   0.0000000E+00   0.0000000E+00   0.0000000E+00   0.0000000E+00   0.0000000E+00   0.0000000E+00   0.0000000E+00   0.0000000E+00   0.0000000E+00   0.0000000E+00   0.0000000E+00   0.0000000E+00   0.0000000E+00   0.0000000E+00   0.0000000E+00   0.0000000E+00   0.0000000E+00   0.0000000E+00   0.0000000E+00   0.0000000E+00   0.0000000E+00   0.0000000E+00   0.0000000E+00   0.0000000E+00   0.0000000E+00   0.0000000E+00   0.0000000E+00   0.0000000E+00   0.0000000E+00   0.0000000E+00   0.0000000E+00   0.0000000E+00   0.0000000E+00   0.0000000E+00   0.0000000E+00   0.0000000E+00   0.0000000E+00   0.0000000E+00   0.0000000E+00   0.0000000E+00   0.0000000E+00   0.0000000E+00   0.0000000E+00   0.0000000E+00   0.0000000E+00   0.0000000E+00   0.0000000E+00   0.0000000E+00   0.0000000E+00   0.0000000E+00   0.0000000E+00   0.0000000E+00   0.0000000E+00   0.0000000E+00   0.0000000E+00   0.0000000E+00   0.0000000E+00   0.0000000E+00   0.0000000E+00   0.0000000E+00   0.0000000E+00   0.0000000E+00   0.0000000E+00   0.0000000E+00   0.0000000E+00   0.0000000E+00   0.0000000E+00  -3.3232751E-13   0.0000000E+00  -2.1337622E-14  -2.2092543E-12   0.0000000E+00  -7.1267340E-14  -5.4113146E-12   0.0000000E+00  -6.1679787E-14  -8.3017360E-12   0.0000000E+00  -2.3782644E-15  -1.0007887E-11   0.0000000E+00   2.0278501E-14  -1.1242955E-11   0.0000000E+00   2.1286932E-14  -1.2251063E-11   0.0000000E+00   2.0463205E-14  -1.4878428E-11   0.0000000E+00  -2.0021912E-12  -5.2082439E-11   0.0000000E+00  -4.3014472E-12  -1.1690400E-10   0.0000000E+00  -5.4365444E-12  -2.0057106E-10   0.0000000E+00  -4.4851909E-12  -2.8654895E-10   0.0000000E+00  -1.9073334E-12  -3.6011447E-10   0.0000000E+00   8.5873377E-13  -4.1475565E-10   0.0000000E+00   2.3531886E-12  -4.5412463E-10   0.0000000E+00   2.5109897E-12  -2.0460834E-10   0.0000000E+00  -3.2495267E-11  -4.6694160E-10   0.0000000E+00  -4.5161555E-11  -8.4820867E-10   0.0000000E+00  -4.6202018E-11  -1.3053766E-09   0.0000000E+00  -3.4547469E-11  -1.7704137E-09   0.0000000E+00  -1.4603464E-11  -2.1841704E-09   0.0000000E+00   5.6176010E-12  -2.5187474E-09   0.0000000E+00   1.9145848E-11  -2.7759990E-09   0.0000000E+00   2.4441702E-11  -1.0449306E-09   0.0000000E+00  -1.9183485E-10  -2.0476141E-09   0.0000000E+00  -2.2692989E-10  -3.4152658E-09   0.0000000E+00  -2.1151704E-10  -5.0057265E-09   0.0000000E+00  -1.4849487E-10  -6.6078827E-09   0.0000000E+00  -5.7104890E-11  -8.0452063E-09   0.0000000E+00   3.1525775E-11  -9.2348182E-09   0.0000000E+00   9.1420788E-11  -1.0177455E-08   0.0000000E+00   1.1758150E-10  -3.5144891E-09   0.0000000E+00  -7.2875966E-10  -6.4230745E-09   0.0000000E+00  -7.9824936E-10  -1.0274850E-08   0.0000000E+00  -7.0830330E-10  -1.4678273E-08   0.0000000E+00  -4.7723309E-10  -1.9082206E-08   0.0000000E+00  -1.6697378E-10  -2.3036032E-08   0.0000000E+00   1.2661154E-10  -2.6332899E-08   0.0000000E+00   3.2437614E-10  -2.8974801E-08   0.0000000E+00   4.1131401E-10  -9.3476578E-09   0.0000000E+00  -2.1660143E-09  -1.6483797E-08   0.0000000E+00  -2.2763880E-09  -2.5784139E-08   0.0000000E+00  -1.9622137E-09  -3.6308215E-08   0.0000000E+00  -1.2844150E-09  -4.6764985E-08   0.0000000E+00  -4.1243481E-10  -5.6126897E-08   0.0000000E+00   3.9839843E-10  -6.3942409E-08   0.0000000E+00   9.4129060E-10  -7.0228687E-08   0.0000000E+00   1.1782266E-09  -2.1419945E-08   0.0000000E+00  -5.5147114E-09  -3.7077154E-08   0.0000000E+00  -5.6620091E-09  -5.7298529E-08   0.0000000E+00  -4.7923900E-09  -8.0005485E-08   0.0000000E+00  -3.0675262E-09  -1.0241268E-07   0.0000000E+00  -9.0968327E-10  -1.2238129E-07   0.0000000E+00   1.0648533E-09  -1.3902117E-07   0.0000000E+00   2.3755060E-09  -1.5240531E-07   0.0000000E+00   2.9411955E-09  -4.4636241E-08   0.0000000E+00  -1.2639457E-08  -7.6525538E-08   0.0000000E+00  -1.2803402E-08  -1.1744109E-07   0.0000000E+00  -1.0701405E-08  -1.6306203E-07   0.0000000E+00  -6.7196928E-09  -2.0776172E-07   0.0000000E+00  -1.8485516E-09  -2.4739992E-07   0.0000000E+00   2.5371942E-09  -2.8032483E-07   0.0000000E+00   5.4212106E-09  -3.0674735E-07   0.0000000E+00   6.6509069E-09  -8.7547818E-08   0.0000000E+00  -2.6870861E-08  -1.4929009E-07   0.0000000E+00  -2.7002800E-08  -2.2804875E-07   0.0000000E+00  -2.2336145E-08  -1.6528874E-07   0.0000000E+00  -5.4043340E-08  -2.8077389E-07   0.0000000E+00  -5.4025811E-08  -3.0453404E-07   0.0000000E+00  -1.0430922E-07  -5.1564160E-07   0.0000000E+00  -1.0383830E-07  -5.5142954E-07   0.0000000E+00  -1.9519516E-07  -9.3028541E-07   0.0000000E+00  -1.9363453E-07  -9.9232591E-07   0.0000000E+00  -3.5689169E-07  -1.6620273E-06   0.0000000E+00  -3.5280908E-07  -1.8037188E-06   0.0000000E+00  -6.4283239E-07  -2.9811151E-06   0.0000000E+00  -6.3297477E-07  -3.3476488E-06   0.0000000E+00  -1.1514086E-06  -5.4202237E-06   0.0000000E+00  -1.1286107E-06  -6.3329326E-06   0.0000000E+00  -2.0700315E-06  -9.9803647E-06   0.0000000E+00  -2.0206367E-06  -1.1968524E-05   0.0000000E+00  -3.7617590E-06  -1.8336004E-05   0.0000000E+00  -3.6662466E-06  -2.1762316E-05   0.0000000E+00  -6.9137509E-06  -3.2695996E-05   0.0000000E+00  -6.7617457E-06  -3.6898109E-05   0.0000000E+00  -1.2740468E-05  -5.5152799E-05   0.0000000E+00  -1.2552798E-05   0.0000000E+00   0.0000000E+00   0.0000000E+00   0.0000000E+00   0.0000000E+00   0.0000000E+00   0.0000000E+00   0.0000000E+00   0.0000000E+00   0.0000000E+00   0.0000000E+00   0.0000000E+00   0.0000000E+00   0.0000000E+00   0.0000000E+00   0.0000000E+00   0.0000000E+00   0.0000000E+00   0.0000000E+00   0.0000000E+00   0.0000000E+00   0.0000000E+00   0.0000000E+00   0.0000000E+00   0.0000000E+00   0.0000000E+00   0.0000000E+00   0.0000000E+00   0.0000000E+00   0.0000000E+00   0.0000000E+00   0.0000000E+00   0.0000000E+00   0.0000000E+00   0.0000000E+00   0.0000000E+00   0.0000000E+00   0.0000000E+00   0.0000000E+00   0.0000000E+00   0.0000000E+00   0.0000000E+00   0.0000000E+00   0.0000000E+00   0.0000000E+00   0.0000000E+00   0.0000000E+00   0.0000000E+00   0.0000000E+00   0.0000000E+00   0.0000000E+00   0.0000000E+00   0.0000000E+00   0.0000000E+00   0.0000000E+00   0.0000000E+00   0.0000000E+00   0.0000000E+00   0.0000000E+00   0.0000000E+00   0.0000000E+00   0.0000000E+00   0.0000000E+00   0.0000000E+00   0.0000000E+00   0.0000000E+00   0.0000000E+00   0.0000000E+00   0.0000000E+00   0.0000000E+00   0.0000000E+00   0.0000000E+00   0.0000000E+00   0.0000000E+00   0.0000000E+00   0.0000000E+00   0.0000000E+00   0.0000000E+00   0.0000000E+00   0.0000000E+00   0.0000000E+00  -1.3054487E-11   0.0000000E+00   1.8609399E-14  -1.3679341E-11   0.0000000E+00   1.6136596E-14  -1.4153193E-11   0.0000000E+00   1.3406537E-14  -1.4503540E-11   0.0000000E+00   1.0737708E-14  -1.4755926E-11   0.0000000E+00   8.3461028E-15  -1.4932529E-11   0.0000000E+00   6.3423862E-15  -1.5051477E-11   0.0000000E+00   4.7814260E-15  -1.5126705E-11   0.0000000E+00   3.6772800E-15  -1.5167992E-11   0.0000000E+00   3.0224425E-15  -4.8496940E-10   0.0000000E+00   2.3125436E-12  -5.0916243E-10   0.0000000E+00   2.0276300E-12  -5.2769045E-10   0.0000000E+00   1.7059686E-12  -5.4153654E-10   0.0000000E+00   1.3844720E-12  -5.5161969E-10   0.0000000E+00   1.0903494E-12  -5.5875127E-10   0.0000000E+00   8.4054302E-13  -5.6360433E-10   0.0000000E+00   6.4374043E-13  -5.6670219E-10   0.0000000E+00   5.0316760E-13  -5.6841420E-10   0.0000000E+00   4.1925396E-13  -2.9711020E-09   0.0000000E+00   2.3694390E-11  -3.1225256E-09   0.0000000E+00   2.0961852E-11  -3.2391942E-09   0.0000000E+00   1.7789900E-11  -3.3269780E-09   0.0000000E+00   1.4573924E-11  -3.3913801E-09   0.0000000E+00   1.1594886E-11  -3.4372767E-09   0.0000000E+00   9.0377133E-12  -3.4687422E-09   0.0000000E+00   7.0057241E-12  -3.4889573E-09   0.0000000E+00   5.5449425E-12  -3.5001870E-09   0.0000000E+00   4.6687636E-12  -1.0909632E-08   0.0000000E+00   1.1891386E-10  -1.1474458E-08   0.0000000E+00   1.0700093E-10  -1.1909564E-08   0.0000000E+00   9.1416243E-11  -1.2238553E-08   0.0000000E+00   7.5426609E-11  -1.2481243E-08   0.0000000E+00   6.0488274E-11  -1.2655205E-08   0.0000000E+00   4.7568699E-11  -1.2775155E-08   0.0000000E+00   3.7237945E-11  -1.2852618E-08   0.0000000E+00   2.9774735E-11  -1.2895826E-08   0.0000000E+00   2.5282979E-11  -3.1053517E-08   0.0000000E+00   4.1780090E-10  -3.2671959E-08   0.0000000E+00   3.8125680E-10  -3.3918223E-08   0.0000000E+00   3.2765762E-10  -3.4863529E-08   0.0000000E+00   2.7183464E-10  -3.5563811E-08   0.0000000E+00   2.1938006E-10  -3.6068101E-08   0.0000000E+00   1.7378654E-10  -3.6417465E-08   0.0000000E+00   1.3716926E-10  -3.6644060E-08   0.0000000E+00   1.1062328E-10  -3.6770867E-08   0.0000000E+00   9.4606573E-11  -7.5201811E-08   0.0000000E+00   1.1931399E-09  -7.9098129E-08   0.0000000E+00   1.0920268E-09  -8.2109928E-08   0.0000000E+00   9.4368102E-10  -8.4398948E-08   0.0000000E+00   7.8626933E-10  -8.6100357E-08   0.0000000E+00   6.3784455E-10  -8.7330413E-08   0.0000000E+00   5.0844184E-10  -8.8186042E-08   0.0000000E+00   4.0422141E-10  -8.8743143E-08   0.0000000E+00   3.2848890E-10  -8.9055831E-08   0.0000000E+00   2.8271641E-10  -1.6300834E-07   0.0000000E+00   2.9666258E-09  -1.7133866E-07   0.0000000E+00   2.7128830E-09  -1.7779917E-07   0.0000000E+00   2.3509354E-09  -1.8271989E-07   0.0000000E+00   1.9654656E-09  -1.8638771E-07   0.0000000E+00   1.6014570E-09  -1.8904871E-07   0.0000000E+00   1.2836608E-09  -1.9090670E-07   0.0000000E+00   1.0273200E-09  -1.9212084E-07   0.0000000E+00   8.4078761E-10  -1.9280428E-07   0.0000000E+00   7.2793083E-10  -3.2765467E-07   0.0000000E+00   6.6833192E-09  -3.4408578E-07   0.0000000E+00   6.1012728E-09  -3.5684943E-07   0.0000000E+00   5.2924585E-09  -3.6658841E-07   0.0000000E+00   4.4369646E-09  -3.7386494E-07   0.0000000E+00   3.6293457E-09  -3.7916070E-07   0.0000000E+00   2.9242850E-09  -3.8287217E-07   0.0000000E+00   2.3553270E-09  -3.8530581E-07   0.0000000E+00   1.9410606E-09  -3.8667980E-07   0.0000000E+00   1.6902891E-09   0.0000000E+00   0.0000000E+00   0.0000000E+00   0.0000000E+00   0.0000000E+00   0.0000000E+00   0.0000000E+00   0.0000000E+00   0.0000000E+00   0.0000000E+00   0.0000000E+00   0.0000000E+00   0.0000000E+00   0.0000000E+00   0.0000000E+00   0.0000000E+00   0.0000000E+00   0.0000000E+00   0.0000000E+00   0.0000000E+00   0.0000000E+00   0.0000000E+00   0.0000000E+00   0.0000000E+00   0.0000000E+00   0.0000000E+00   0.0000000E+00   0.0000000E+00   0.0000000E+00   0.0000000E+00   0.0000000E+00   0.0000000E+00   0.0000000E+00   0.0000000E+00   0.0000000E+00   0.0000000E+00   0.0000000E+00   0.0000000E+00   0.0000000E+00   0.0000000E+00   0.0000000E+00   0.0000000E+00   0.0000000E+00   0.0000000E+00   0.0000000E+00   0.0000000E+00   0.0000000E+00   0.0000000E+00   0.0000000E+00   0.0000000E+00   0.0000000E+00   0.0000000E+00   0.0000000E+00   0.0000000E+00   0.0000000E+00   0.0000000E+00   0.0000000E+00   0.0000000E+00   0.0000000E+00   0.0000000E+00   0.0000000E+00   0.0000000E+00   0.0000000E+00   0.0000000E+00   0.0000000E+00   0.0000000E+00   0.0000000E+00   0.0000000E+00   0.0000000E+00   0.0000000E+00   0.0000000E+00   0.0000000E+00  -1.5181120E-11   0.0000000E+00   2.8058379E-15  -1.5167997E-11   0.0000000E+00   3.0224732E-15  -1.5126709E-11   0.0000000E+00   3.6773080E-15  -1.5051479E-11   0.0000000E+00   4.7814209E-15  -1.4932526E-11   0.0000000E+00   6.3423688E-15  -1.4755926E-11   0.0000000E+00   8.3461036E-15  -1.4503539E-11   0.0000000E+00   1.0737723E-14  -1.4153188E-11   0.0000000E+00   1.3406533E-14  -5.6896066E-10   0.0000000E+00   3.9139810E-13  -5.6841432E-10   0.0000000E+00   4.1925559E-13  -5.6670219E-10   0.0000000E+00   5.0316939E-13  -5.6360450E-10   0.0000000E+00   6.4374092E-13  -5.5875121E-10   0.0000000E+00   8.4054275E-13  -5.5161964E-10   0.0000000E+00   1.0903493E-12  -5.4153654E-10   0.0000000E+00   1.3844714E-12  -5.2769050E-10   0.0000000E+00   1.7059682E-12  -3.5037810E-09   0.0000000E+00   4.3771753E-12  -3.5001870E-09   0.0000000E+00   4.6687740E-12  -3.4889573E-09   0.0000000E+00   5.5449569E-12  -3.4687415E-09   0.0000000E+00   7.0057341E-12  -3.4372765E-09   0.0000000E+00   9.0377159E-12  -3.3913801E-09   0.0000000E+00   1.1594885E-11  -3.3269778E-09   0.0000000E+00   1.4573918E-11  -3.2391938E-09   0.0000000E+00   1.7789896E-11  -1.2909680E-08   0.0000000E+00   2.3785394E-11  -1.2895820E-08   0.0000000E+00   2.5283017E-11  -1.2852615E-08   0.0000000E+00   2.9774787E-11  -1.2775155E-08   0.0000000E+00   3.7238008E-11  -1.2655203E-08   0.0000000E+00   4.7568730E-11  -1.2481241E-08   0.0000000E+00   6.0488295E-11  -1.2238550E-08   0.0000000E+00   7.5426582E-11  -1.1909563E-08   0.0000000E+00   9.1416229E-11  -3.6811606E-08   0.0000000E+00   8.9259621E-11  -3.6770864E-08   0.0000000E+00   9.4606684E-11  -3.6644057E-08   0.0000000E+00   1.1062347E-10  -3.6417468E-08   0.0000000E+00   1.3716941E-10  -3.6068101E-08   0.0000000E+00   1.7378668E-10  -3.5563808E-08   0.0000000E+00   2.1938007E-10  -3.4863536E-08   0.0000000E+00   2.7183467E-10  -3.3918212E-08   0.0000000E+00   3.2765757E-10  -8.9156472E-08   0.0000000E+00   2.6742203E-10  -8.9055810E-08   0.0000000E+00   2.8271666E-10  -8.8743136E-08   0.0000000E+00   3.2848918E-10  -8.8186020E-08   0.0000000E+00   4.0422188E-10  -8.7330420E-08   0.0000000E+00   5.0844234E-10  -8.6100357E-08   0.0000000E+00   6.3784472E-10  -8.4398941E-08   0.0000000E+00   7.8626955E-10  -8.2109928E-08   0.0000000E+00   9.4368091E-10  -1.9302469E-07   0.0000000E+00   6.9019951E-10  -1.9280435E-07   0.0000000E+00   7.2793144E-10  -1.9212084E-07   0.0000000E+00   8.4078838E-10  -1.9090672E-07   0.0000000E+00   1.0273205E-09  -1.8904868E-07   0.0000000E+00   1.2836616E-09  -1.8638767E-07   0.0000000E+00   1.6014573E-09  -1.8271982E-07   0.0000000E+00   1.9654653E-09  -1.7779915E-07   0.0000000E+00   2.3509350E-09  -3.8712344E-07   0.0000000E+00   1.6064239E-09  -3.8667972E-07   0.0000000E+00   1.6902902E-09  -3.8530581E-07   0.0000000E+00   1.9410629E-09  -3.8287203E-07   0.0000000E+00   2.3553284E-09  -3.7916061E-07   0.0000000E+00   2.9242853E-09  -3.7386494E-07   0.0000000E+00   3.6293453E-09  -3.6658841E-07   0.0000000E+00   4.4369632E-09  -3.5684943E-07   0.0000000E+00   5.2924571E-09   0.0000000E+00   0.0000000E+00   0.0000000E+00   0.0000000E+00   0.0000000E+00   0.0000000E+00   0.0000000E+00   0.0000000E+00   0.0000000E+00   0.0000000E+00   0.0000000E+00   0.0000000E+00   0.0000000E+00   0.0000000E+00   0.0000000E+00   0.0000000E+00   0.0000000E+00   0.0000000E+00   0.0000000E+00   0.0000000E+00   0.0000000E+00   0.0000000E+00   0.0000000E+00   0.0000000E+00   0.0000000E+00   0.0000000E+00   0.0000000E+00   0.0000000E+00   0.0000000E+00   0.0000000E+00   0.0000000E+00   0.0000000E+00   0.0000000E+00   0.0000000E+00   0.0000000E+00   0.0000000E+00   0.0000000E+00   0.0000000E+00   0.0000000E+00   0.0000000E+00   0.0000000E+00   0.0000000E+00   0.0000000E+00   0.0000000E+00   0.0000000E+00   0.0000000E+00   0.0000000E+00   0.0000000E+00   0.0000000E+00   0.0000000E+00   0.0000000E+00   0.0000000E+00   0.0000000E+00   0.0000000E+00   0.0000000E+00   0.0000000E+00   0.0000000E+00   0.0000000E+00   0.0000000E+00   0.0000000E+00   0.0000000E+00   0.0000000E+00   0.0000000E+00   0.0000000E+00   0.0000000E+00   0.0000000E+00   0.0000000E+00   0.0000000E+00   0.0000000E+00   0.0000000E+00   0.0000000E+00   0.0000000E+00   0.0000000E+00   0.0000000E+00   0.0000000E+00   0.0000000E+00   0.0000000E+00   0.0000000E+00   0.0000000E+00   0.0000000E+00   0.0000000E+00  -1.3679337E-11   0.0000000E+00   1.6136574E-14  -1.3054489E-11   0.0000000E+00   1.8609399E-14  -1.2251066E-11   0.0000000E+00   2.0463223E-14  -1.1242954E-11   0.0000000E+00   2.1286932E-14  -1.0007883E-11   0.0000000E+00   2.0278492E-14  -8.3017369E-12   0.0000000E+00  -2.3782889E-15  -5.4113142E-12   0.0000000E+00  -6.1679801E-14  -2.2092543E-12   0.0000000E+00  -7.1267306E-14  -3.3232754E-13   0.0000000E+00  -2.1337605E-14  -5.0916232E-10   0.0000000E+00   2.0276289E-12  -4.8496945E-10   0.0000000E+00   2.3125440E-12  -4.5412463E-10   0.0000000E+00   2.5109897E-12  -4.1475559E-10   0.0000000E+00   2.3531882E-12  -3.6011444E-10   0.0000000E+00   8.5873263E-13  -2.8654890E-10   0.0000000E+00  -1.9073337E-12  -2.0057103E-10   0.0000000E+00  -4.4851917E-12  -1.1690403E-10   0.0000000E+00  -5.4365427E-12  -5.2082429E-11   0.0000000E+00  -4.3014455E-12  -3.1225256E-09   0.0000000E+00   2.0961849E-11  -2.9711023E-09   0.0000000E+00   2.3694392E-11  -2.7759988E-09   0.0000000E+00   2.4441690E-11  -2.5187465E-09   0.0000000E+00   1.9145843E-11  -2.1841700E-09   0.0000000E+00   5.6175971E-12  -1.7704131E-09   0.0000000E+00  -1.4603468E-11  -1.3053767E-09   0.0000000E+00  -3.4547473E-11  -8.4820861E-10   0.0000000E+00  -4.6202001E-11  -4.6694165E-10   0.0000000E+00  -4.5161545E-11  -1.1474456E-08   0.0000000E+00   1.0700092E-10  -1.0909632E-08   0.0000000E+00   1.1891384E-10  -1.0177450E-08   0.0000000E+00   1.1758143E-10  -9.2348174E-09   0.0000000E+00   9.1420781E-11  -8.0452036E-09   0.0000000E+00   3.1525751E-11  -6.6078827E-09   0.0000000E+00  -5.7104911E-11  -5.0057261E-09   0.0000000E+00  -1.4849488E-10  -3.4152661E-09   0.0000000E+00  -2.1151704E-10  -2.0476145E-09   0.0000000E+00  -2.2692988E-10  -3.2671959E-08   0.0000000E+00   3.8125667E-10  -3.1053514E-08   0.0000000E+00   4.1780088E-10  -2.8974799E-08   0.0000000E+00   4.1131376E-10  -2.6332895E-08   0.0000000E+00   3.2437594E-10  -2.3036026E-08   0.0000000E+00   1.2661147E-10  -1.9082199E-08   0.0000000E+00  -1.6697382E-10  -1.4678271E-08   0.0000000E+00  -4.7723309E-10  -1.0274849E-08   0.0000000E+00  -7.0830308E-10  -6.4230741E-09   0.0000000E+00  -7.9824919E-10  -7.9098115E-08   0.0000000E+00   1.0920264E-09  -7.5201797E-08   0.0000000E+00   1.1931394E-09  -7.0228694E-08   0.0000000E+00   1.1782265E-09  -6.3942394E-08   0.0000000E+00   9.4129082E-10  -5.6126883E-08   0.0000000E+00   3.9839826E-10  -4.6764985E-08   0.0000000E+00  -4.1243489E-10  -3.6308208E-08   0.0000000E+00  -1.2844152E-09  -2.5784136E-08   0.0000000E+00  -1.9622137E-09  -1.6483796E-08   0.0000000E+00  -2.2763877E-09  -1.7133864E-07   0.0000000E+00   2.7128835E-09  -1.6300831E-07   0.0000000E+00   2.9666247E-09  -1.5240529E-07   0.0000000E+00   2.9411964E-09  -1.3902117E-07   0.0000000E+00   2.3755069E-09  -1.2238128E-07   0.0000000E+00   1.0648535E-09  -1.0241268E-07   0.0000000E+00  -9.0968344E-10  -8.0005456E-08   0.0000000E+00  -3.0675269E-09  -5.7298518E-08   0.0000000E+00  -4.7923905E-09  -3.7077157E-08   0.0000000E+00  -5.6620086E-09  -3.4408581E-07   0.0000000E+00   6.1012737E-09  -3.2765473E-07   0.0000000E+00   6.6833197E-09  -3.0674732E-07   0.0000000E+00   6.6509100E-09  -2.8032477E-07   0.0000000E+00   5.4212079E-09  -2.4739992E-07   0.0000000E+00   2.5371945E-09  -2.0776176E-07   0.0000000E+00  -1.8485521E-09  -1.6306201E-07   0.0000000E+00  -6.7196946E-09  -1.1744113E-07   0.0000000E+00  -1.0701402E-08  -7.6525538E-08   0.0000000E+00  -1.2803402E-08  -2.2804875E-07   0.0000000E+00  -2.2336145E-08  -1.4929009E-07   0.0000000E+00  -2.7002800E-08  -2.8077392E-07   0.0000000E+00  -5.4025811E-08  -5.1564149E-07   0.0000000E+00  -1.0383832E-07  -9.3028581E-07   0.0000000E+00  -1.9363458E-07  -1.6620274E-06   0.0000000E+00  -3.5280911E-07  -2.9811154E-06   0.0000000E+00  -6.3297506E-07  -5.4202246E-06   0.0000000E+00  -1.1286112E-06  -9.9803665E-06   0.0000000E+00  -2.0206378E-06  -1.8336008E-05   0.0000000E+00  -3.6662479E-06  -3.2696011E-05   0.0000000E+00  -6.7617475E-06  -5.5152814E-05   0.0000000E+00  -1.2552797E-05   0.0000000E+00   0.0000000E+00   0.0000000E+00   0.0000000E+00   0.0000000E+00   0.0000000E+00   0.0000000E+00   0.0000000E+00   0.0000000E+00   0.0000000E+00   0.0000000E+00   0.0000000E+00   0.0000000E+00   0.0000000E+00   0.0000000E+00   0.0000000E+00   0.0000000E+00   0.0000000E+00   0.0000000E+00   0.0000000E+00   0.0000000E+00   0.0000000E+00   0.0000000E+00   0.0000000E+00   0.0000000E+00   0.0000000E+00   0.0000000E+00   0.0000000E+00   0.0000000E+00   0.0000000E+00   0.0000000E+00   0.0000000E+00   0.0000000E+00   0.0000000E+00   0.0000000E+00   0.0000000E+00   0.0000000E+00   0.0000000E+00   0.0000000E+00   0.0000000E+00   0.0000000E+00   0.0000000E+00   0.0000000E+00   0.0000000E+00   0.0000000E+00  -1.4878428E-11   0.0000000E+00  -2.0021894E-12  -1.5912360E-12   0.0000000E+00  -3.1479100E-13   0.0000000E+00   0.0000000E+00   0.0000000E+00   0.0000000E+00   0.0000000E+00   0.0000000E+00  -2.0460834E-10   0.0000000E+00  -3.2495253E-11  -6.2379914E-11   0.0000000E+00  -1.4927877E-11  -8.4520880E-12   0.0000000E+00  -2.6086746E-12   0.0000000E+00   0.0000000E+00   0.0000000E+00  -1.0449307E-09   0.0000000E+00  -1.9183477E-10  -4.2849840E-10   0.0000000E+00  -1.2010289E-10  -1.2316988E-10   0.0000000E+00  -4.5565347E-11  -1.6851437E-11   0.0000000E+00  -6.5185244E-12  -3.5144903E-09   0.0000000E+00  -7.2875961E-10  -1.6306543E-09   0.0000000E+00  -5.2125115E-10  -5.9972782E-10   0.0000000E+00  -2.5647870E-10  -1.4961478E-10   0.0000000E+00  -6.8588399E-11  -9.3476595E-09   0.0000000E+00  -2.1660138E-09  -4.6057402E-09   0.0000000E+00  -1.6577344E-09  -1.8915176E-09   0.0000000E+00  -9.2114533E-10  -5.9251476E-10   0.0000000E+00  -3.1479713E-10  -2.1419952E-08   0.0000000E+00  -5.5147100E-09  -1.0879901E-08   0.0000000E+00  -4.3785358E-09  -4.7142086E-09   0.0000000E+00  -2.5932665E-09  -1.6370215E-09   0.0000000E+00  -9.9925612E-10  -4.4636252E-08   0.0000000E+00  -1.2639457E-08  -2.3015730E-08   0.0000000E+00  -1.0241865E-08  -1.0231219E-08   0.0000000E+00  -6.2829901E-09  -3.7233463E-09   0.0000000E+00  -2.5810327E-09  -8.7547839E-08   0.0000000E+00  -2.6870858E-08  -4.5493376E-08   0.0000000E+00  -2.2028473E-08  -2.0469862E-08   0.0000000E+00  -1.3789100E-08  -7.6007245E-09   0.0000000E+00  -5.8702021E-09  -1.6528878E-07   0.0000000E+00  -5.4043340E-08  -8.6303331E-08   0.0000000E+00  -4.4635069E-08  -3.9080408E-08   0.0000000E+00  -2.8291096E-08  -1.4636694E-08   0.0000000E+00  -1.2298212E-08  -3.0453407E-07   0.0000000E+00  -1.0430922E-07  -1.5960546E-07   0.0000000E+00  -8.6628624E-08  -7.2598105E-08   0.0000000E+00  -5.5381772E-08  -2.7325667E-08   0.0000000E+00  -2.4397020E-08  -5.5142988E-07   0.0000000E+00  -1.9519514E-07  -2.9031963E-07   0.0000000E+00  -1.6284189E-07  -1.3276295E-07   0.0000000E+00  -1.0478442E-07  -5.0253274E-08   0.0000000E+00  -4.6600071E-08  -9.9232602E-07   0.0000000E+00  -3.5689172E-07  -5.2640763E-07   0.0000000E+00  -2.9883148E-07  -2.4255209E-07   0.0000000E+00  -1.9321671E-07  -9.2495966E-08   0.0000000E+00  -8.6562487E-08  -1.8037190E-06   0.0000000E+00  -6.4283245E-07  -9.6862686E-07   0.0000000E+00  -5.3983342E-07  -4.5123537E-07   0.0000000E+00  -3.5021264E-07  -1.7386159E-07   0.0000000E+00  -1.5779750E-07  -3.3476483E-06   0.0000000E+00  -1.1514082E-06  -1.8304007E-06   0.0000000E+00  -9.6952965E-07  -8.6616456E-07   0.0000000E+00  -6.3129932E-07  -3.3872993E-07   0.0000000E+00  -2.8638601E-07  -6.3329312E-06   0.0000000E+00  -2.0700313E-06  -3.5441331E-06   0.0000000E+00  -1.7474575E-06  -1.7142103E-06   0.0000000E+00  -1.1469307E-06  -6.8645215E-07   0.0000000E+00  -5.2919654E-07  -1.1968526E-05   0.0000000E+00  -3.7617599E-06  -6.8607842E-06   0.0000000E+00  -3.1827851E-06  -3.4131226E-06   0.0000000E+00  -2.1279702E-06  -1.4231878E-06   0.0000000E+00  -1.0253003E-06  -2.1762320E-05   0.0000000E+00  -6.9137523E-06  -1.2682529E-05   0.0000000E+00  -5.8679752E-06  -6.5038566E-06   0.0000000E+00  -4.0688551E-06  -2.8849367E-06   0.0000000E+00  -2.1393355E-06  -3.6898109E-05   0.0000000E+00  -1.2740472E-05  -2.1654609E-05   0.0000000E+00  -1.0900318E-05  -1.1414458E-05   0.0000000E+00  -7.9814090E-06   0.0000000E+00   0.0000000E+00   0.0000000E+00   0.0000000E+00   0.0000000E+00   0.0000000E+00   0.0000000E+00   0.0000000E+00   0.0000000E+00   0.0000000E+00   0.0000000E+00   0.0000000E+00   0.0000000E+00   0.0000000E+00   0.0000000E+00   0.0000000E+00   0.0000000E+00   0.0000000E+00   0.0000000E+00   0.0000000E+00   0.0000000E+00   0.0000000E+00   0.0000000E+00   0.0000000E+00   0.0000000E+00   0.0000000E+00   0.0000000E+00   0.0000000E+00   0.0000000E+00   0.0000000E+00   0.0000000E+00   0.0000000E+00   0.0000000E+00   0.0000000E+00   0.0000000E+00   0.0000000E+00   0.0000000E+00   0.0000000E+00   0.0000000E+00   0.0000000E+00   0.0000000E+00   0.0000000E+00   0.0000000E+00   0.0000000E+00   0.0000000E+00   0.0000000E+00   0.0000000E+00   0.0000000E+00   0.0000000E+00   0.0000000E+00   0.0000000E+00   0.0000000E+00   0.0000000E+00   0.0000000E+00   0.0000000E+00   0.0000000E+00   0.0000000E+00   0.0000000E+00   0.0000000E+00   0.0000000E+00   0.0000000E+00   0.0000000E+00   0.0000000E+00   0.0000000E+00   0.0000000E+00   0.0000000E+00   0.0000000E+00   0.0000000E+00   0.0000000E+00   0.0000000E+00   0.0000000E+00   0.0000000E+00   0.0000000E+00   0.0000000E+00   0.0000000E+00   0.0000000E+00   0.0000000E+00   0.0000000E+00   0.0000000E+00   0.0000000E+00   0.0000000E+00   0.0000000E+00   0.0000000E+00   0.0000000E+00   0.0000000E+00   0.0000000E+00   0.0000000E+00   0.0000000E+00   0.0000000E+00   0.0000000E+00   0.0000000E+00   0.0000000E+00   0.0000000E+00   0.0000000E+00   0.0000000E+00   0.0000000E+00   0.0000000E+00   0.0000000E+00   0.0000000E+00   0.0000000E+00   0.0000000E+00   0.0000000E+00   0.0000000E+00   0.0000000E+00   0.0000000E+00   0.0000000E+00   0.0000000E+00   0.0000000E+00   0.0000000E+00   0.0000000E+00   0.0000000E+00   0.0000000E+00   0.0000000E+00   0.0000000E+00   0.0000000E+00   0.0000000E+00   0.0000000E+00   0.0000000E+00   0.0000000E+00   0.0000000E+00   0.0000000E+00   0.0000000E+00   0.0000000E+00   0.0000000E+00   0.0000000E+00   0.0000000E+00   0.0000000E+00   0.0000000E+00   0.0000000E+00   0.0000000E+00   0.0000000E+00   0.0000000E+00   0.0000000E+00   0.0000000E+00   0.0000000E+00   0.0000000E+00   0.0000000E+00   0.0000000E+00   0.0000000E+00   0.0000000E+00   0.0000000E+00   0.0000000E+00   0.0000000E+00   0.0000000E+00   0.0000000E+00   0.0000000E+00   0.0000000E+00   0.0000000E+00   0.0000000E+00   0.0000000E+00   0.0000000E+00   0.0000000E+00   0.0000000E+00   0.0000000E+00   0.0000000E+00   0.0000000E+00   0.0000000E+00   0.0000000E+00   0.0000000E+00   0.0000000E+00   0.0000000E+00   0.0000000E+00   0.0000000E+00   0.0000000E+00   0.0000000E+00   0.0000000E+00   0.0000000E+00   0.0000000E+00   0.0000000E+00   0.0000000E+00   0.0000000E+00   0.0000000E+00   0.0000000E+00   0.0000000E+00   0.0000000E+00   0.0000000E+00   0.0000000E+00   0.0000000E+00   0.0000000E+00   0.0000000E+00   0.0000000E+00   0.0000000E+00   0.0000000E+00   0.0000000E+00   0.0000000E+00   0.0000000E+00   0.0000000E+00   0.0000000E+00   0.0000000E+00   0.0000000E+00   0.0000000E+00   0.0000000E+00   0.0000000E+00   0.0000000E+00   0.0000000E+00   0.0000000E+00   0.0000000E+00   0.0000000E+00   0.0000000E+00   0.0000000E+00   0.0000000E+00   0.0000000E+00   0.0000000E+00   0.0000000E+00   0.0000000E+00   0.0000000E+00   0.0000000E+00   0.0000000E+00   0.0000000E+00   0.0000000E+00   0.0000000E+00   0.0000000E+00   0.0000000E+00   0.0000000E+00   0.0000000E+00   0.0000000E+00   0.0000000E+00   0.0000000E+00   0.0000000E+00   0.0000000E+00   0.0000000E+00   0.0000000E+00   0.0000000E+00   0.0000000E+00   0.0000000E+00   0.0000000E+00   0.0000000E+00   0.0000000E+00   0.0000000E+00   0.0000000E+00   0.0000000E+00   0.0000000E+00   0.0000000E+00   0.0000000E+00   0.0000000E+00   0.0000000E+00   0.0000000E+00   0.0000000E+00   0.0000000E+00   0.0000000E+00   0.0000000E+00   0.0000000E+00   0.0000000E+00   0.0000000E+00   0.0000000E+00   0.0000000E+00   0.0000000E+00   0.0000000E+00   0.0000000E+00   0.0000000E+00   0.0000000E+00   0.0000000E+00   0.0000000E+00   0.0000000E+00   0.0000000E+00   0.0000000E+00   0.0000000E+00   0.0000000E+00   0.0000000E+00   0.0000000E+00   0.0000000E+00   0.0000000E+00   0.0000000E+00   0.0000000E+00   0.0000000E+00   0.0000000E+00   0.0000000E+00   0.0000000E+00   0.0000000E+00   0.0000000E+00   0.0000000E+00   0.0000000E+00   0.0000000E+00   0.0000000E+00   0.0000000E+00   0.0000000E+00   0.0000000E+00   0.0000000E+00   0.0000000E+00   0.0000000E+00   0.0000000E+00   0.0000000E+00   0.0000000E+00   0.0000000E+00   0.0000000E+00   0.0000000E+00   0.0000000E+00   0.0000000E+00   0.0000000E+00   0.0000000E+00   0.0000000E+00   0.0000000E+00   0.0000000E+00   0.0000000E+00   0.0000000E+00   0.0000000E+00   0.0000000E+00   0.0000000E+00   0.0000000E+00   0.0000000E+00   0.0000000E+00   0.0000000E+00   0.0000000E+00   0.0000000E+00   0.0000000E+00   0.0000000E+00   0.0000000E+00   0.0000000E+00   0.0000000E+00   0.0000000E+00   0.0000000E+00   0.0000000E+00   0.0000000E+00   0.0000000E+00   0.0000000E+00   0.0000000E+00   0.0000000E+00   0.0000000E+00   0.0000000E+00   0.0000000E+00   0.0000000E+00   0.0000000E+00   0.0000000E+00   0.0000000E+00   0.0000000E+00   0.0000000E+00   0.0000000E+00   0.0000000E+00   0.0000000E+00   0.0000000E+00   0.0000000E+00   0.0000000E+00   0.0000000E+00   0.0000000E+00   0.0000000E+00   0.0000000E+00   0.0000000E+00   0.0000000E+00   0.0000000E+00   0.0000000E+00   0.0000000E+00   0.0000000E+00   0.0000000E+00   0.0000000E+00   0.0000000E+00   0.0000000E+00   0.0000000E+00   0.0000000E+00   0.0000000E+00   0.0000000E+00   0.0000000E+00   0.0000000E+00   0.0000000E+00   0.0000000E+00   0.0000000E+00   0.0000000E+00   0.0000000E+00   0.0000000E+00   0.0000000E+00   0.0000000E+00   0.0000000E+00   0.0000000E+00   0.0000000E+00   0.0000000E+00   0.0000000E+00   0.0000000E+00   0.0000000E+00   0.0000000E+00   0.0000000E+00   0.0000000E+00   0.0000000E+00   0.0000000E+00   0.0000000E+00   0.0000000E+00   0.0000000E+00   0.0000000E+00   0.0000000E+00   0.0000000E+00   0.0000000E+00   0.0000000E+00   0.0000000E+00   0.0000000E+00   0.0000000E+00   0.0000000E+00   0.0000000E+00   0.0000000E+00   0.0000000E+00   0.0000000E+00   0.0000000E+00   0.0000000E+00   0.0000000E+00   0.0000000E+00   0.0000000E+00   0.0000000E+00   0.0000000E+00   0.0000000E+00   0.0000000E+00   0.0000000E+00   0.0000000E+00   0.0000000E+00   0.0000000E+00   0.0000000E+00   0.0000000E+00   0.0000000E+00   0.0000000E+00   0.0000000E+00   0.0000000E+00   0.0000000E+00   0.0000000E+00   0.0000000E+00   0.0000000E+00   0.0000000E+00   0.0000000E+00   0.0000000E+00   0.0000000E+00   0.0000000E+00   0.0000000E+00   0.0000000E+00   0.0000000E+00   0.0000000E+00   0.0000000E+00   0.0000000E+00   0.0000000E+00   0.0000000E+00   0.0000000E+00   0.0000000E+00   0.0000000E+00   0.0000000E+00   0.0000000E+00   0.0000000E+00   0.0000000E+00   0.0000000E+00   0.0000000E+00   0.0000000E+00   0.0000000E+00   0.0000000E+00   0.0000000E+00   0.0000000E+00   0.0000000E+00   0.0000000E+00   0.0000000E+00   0.0000000E+00   0.0000000E+00   0.0000000E+00   0.0000000E+00   0.0000000E+00   0.0000000E+00   0.0000000E+00   0.0000000E+00   0.0000000E+00   0.0000000E+00   0.0000000E+00   0.0000000E+00   0.0000000E+00   0.0000000E+00   0.0000000E+00   0.0000000E+00   0.0000000E+00   0.0000000E+00   0.0000000E+00   0.0000000E+00   0.0000000E+00   0.0000000E+00   0.0000000E+00   0.0000000E+00   0.0000000E+00   0.0000000E+00   0.0000000E+00   0.0000000E+00   0.0000000E+00   0.0000000E+00   0.0000000E+00   0.0000000E+00   0.0000000E+00   0.0000000E+00   0.0000000E+00   0.0000000E+00   0.0000000E+00   0.0000000E+00   0.0000000E+00   0.0000000E+00   0.0000000E+00   0.0000000E+00   0.0000000E+00   0.0000000E+00   0.0000000E+00   0.0000000E+00   0.0000000E+00   0.0000000E+00   0.0000000E+00   0.0000000E+00   0.0000000E+00   0.0000000E+00   0.0000000E+00   0.0000000E+00   0.0000000E+00   0.0000000E+00   0.0000000E+00   0.0000000E+00   0.0000000E+00   0.0000000E+00   0.0000000E+00   0.0000000E+00   0.0000000E+00   0.0000000E+00   0.0000000E+00   0.0000000E+00   0.0000000E+00   0.0000000E+00   0.0000000E+00   0.0000000E+00   0.0000000E+00   0.0000000E+00   0.0000000E+00   0.0000000E+00   0.0000000E+00   0.0000000E+00   0.0000000E+00   0.0000000E+00   0.0000000E+00   0.0000000E+00   0.0000000E+00   0.0000000E+00   0.0000000E+00   0.0000000E+00   0.0000000E+00   0.0000000E+00   0.0000000E+00   0.0000000E+00   0.0000000E+00   0.0000000E+00   0.0000000E+00   0.0000000E+00   0.0000000E+00   0.0000000E+00   0.0000000E+00   0.0000000E+00   0.0000000E+00   0.0000000E+00   0.0000000E+00   0.0000000E+00   0.0000000E+00   0.0000000E+00   0.0000000E+00   0.0000000E+00   0.0000000E+00   0.0000000E+00   0.0000000E+00   0.0000000E+00   0.0000000E+00   0.0000000E+00   0.0000000E+00   0.0000000E+00   0.0000000E+00   0.0000000E+00   0.0000000E+00   0.0000000E+00   0.0000000E+00   0.0000000E+00   0.0000000E+00   0.0000000E+00   0.0000000E+00   0.0000000E+00   0.0000000E+00   0.0000000E+00   0.0000000E+00   0.0000000E+00   0.0000000E+00   0.0000000E+00   0.0000000E+00   0.0000000E+00   0.0000000E+00   0.0000000E+00   0.0000000E+00   0.0000000E+00   0.0000000E+00   0.0000000E+00   0.0000000E+00   0.0000000E+00   0.0000000E+00   0.0000000E+00   0.0000000E+00   0.0000000E+00   0.0000000E+00   0.0000000E+00   0.0000000E+00   0.0000000E+00   0.0000000E+00   0.0000000E+00   0.0000000E+00   0.0000000E+00   0.0000000E+00   0.0000000E+00   0.0000000E+00   0.0000000E+00   0.0000000E+00   0.0000000E+00   0.0000000E+00   0.0000000E+00   0.0000000E+00   0.0000000E+00   0.0000000E+00   0.0000000E+00   0.0000000E+00   0.0000000E+00   0.0000000E+00   0.0000000E+00   0.0000000E+00   0.0000000E+00   0.0000000E+00   0.0000000E+00   0.0000000E+00   0.0000000E+00   0.0000000E+00   0.0000000E+00   0.0000000E+00   0.0000000E+00   0.0000000E+00   0.0000000E+00   0.0000000E+00   0.0000000E+00   0.0000000E+00   0.0000000E+00   0.0000000E+00   0.0000000E+00   0.0000000E+00   0.0000000E+00   0.0000000E+00   0.0000000E+00   0.0000000E+00   0.0000000E+00   0.0000000E+00   0.0000000E+00   0.0000000E+00   0.0000000E+00   0.0000000E+00   0.0000000E+00   0.0000000E+00   0.0000000E+00   0.0000000E+00   0.0000000E+00   0.0000000E+00   0.0000000E+00   0.0000000E+00   0.0000000E+00   0.0000000E+00   0.0000000E+00   0.0000000E+00   0.0000000E+00   0.0000000E+00   0.0000000E+00   0.0000000E+00   0.0000000E+00   0.0000000E+00   0.0000000E+00   0.0000000E+00   0.0000000E+00   0.0000000E+00   0.0000000E+00   0.0000000E+00   0.0000000E+00   0.0000000E+00   0.0000000E+00   0.0000000E+00   0.0000000E+00   0.0000000E+00   0.0000000E+00   0.0000000E+00   0.0000000E+00   0.0000000E+00   0.0000000E+00   0.0000000E+00   0.0000000E+00   0.0000000E+00   0.0000000E+00   0.0000000E+00   0.0000000E+00   0.0000000E+00   0.0000000E+00   0.0000000E+00   0.0000000E+00   0.0000000E+00   0.0000000E+00   0.0000000E+00   0.0000000E+00   0.0000000E+00   0.0000000E+00   0.0000000E+00   0.0000000E+00   0.0000000E+00   0.0000000E+00   0.0000000E+00   0.0000000E+00   0.0000000E+00   0.0000000E+00   0.0000000E+00   0.0000000E+00   0.0000000E+00   0.0000000E+00   0.0000000E+00   0.0000000E+00   0.0000000E+00   0.0000000E+00   0.0000000E+00   0.0000000E+00   0.0000000E+00   0.0000000E+00   0.0000000E+00   0.0000000E+00   0.0000000E+00   0.0000000E+00   0.0000000E+00   0.0000000E+00   0.0000000E+00   0.0000000E+00   0.0000000E+00   0.0000000E+00   0.0000000E+00   0.0000000E+00   0.0000000E+00   0.0000000E+00   0.0000000E+00   0.0000000E+00   0.0000000E+00   0.0000000E+00   0.0000000E+00   0.0000000E+00   0.0000000E+00   0.0000000E+00   0.0000000E+00   0.0000000E+00   0.0000000E+00   0.0000000E+00   0.0000000E+00   0.0000000E+00   0.0000000E+00   0.0000000E+00   0.0000000E+00   0.0000000E+00   0.0000000E+00   0.0000000E+00   0.0000000E+00   0.0000000E+00   0.0000000E+00   0.0000000E+00   0.0000000E+00   0.0000000E+00   0.0000000E+00   0.0000000E+00   0.0000000E+00   0.0000000E+00   0.0000000E+00   0.0000000E+00   0.0000000E+00   0.0000000E+00   0.0000000E+00   0.0000000E+00   0.0000000E+00   0.0000000E+00   0.0000000E+00   0.0000000E+00   0.0000000E+00   0.0000000E+00   0.0000000E+00   0.0000000E+00   0.0000000E+00   0.0000000E+00   0.0000000E+00   0.0000000E+00   0.0000000E+00   0.0000000E+00   0.0000000E+00   0.0000000E+00   0.0000000E+00   0.0000000E+00   0.0000000E+00   0.0000000E+00   0.0000000E+00   0.0000000E+00   0.0000000E+00   0.0000000E+00   0.0000000E+00   0.0000000E+00   0.0000000E+00   0.0000000E+00   0.0000000E+00   0.0000000E+00   0.0000000E+00   0.0000000E+00   0.0000000E+00   0.0000000E+00   0.0000000E+00   0.0000000E+00   0.0000000E+00   0.0000000E+00   0.0000000E+00   0.0000000E+00   0.0000000E+00   0.0000000E+00   0.0000000E+00   0.0000000E+00   0.0000000E+00   0.0000000E+00   0.0000000E+00   0.0000000E+00   0.0000000E+00   0.0000000E+00   0.0000000E+00   0.0000000E+00   0.0000000E+00   0.0000000E+00   0.0000000E+00   0.0000000E+00   0.0000000E+00   0.0000000E+00   0.0000000E+00   0.0000000E+00   0.0000000E+00   0.0000000E+00   0.0000000E+00   0.0000000E+00   0.0000000E+00   0.0000000E+00   0.0000000E+00   0.0000000E+00   0.0000000E+00   0.0000000E+00   0.0000000E+00   0.0000000E+00   0.0000000E+00   0.0000000E+00   0.0000000E+00   0.0000000E+00   0.0000000E+00   0.0000000E+00   0.0000000E+00   0.0000000E+00   0.0000000E+00   0.0000000E+00   0.0000000E+00   0.0000000E+00   0.0000000E+00   0.0000000E+00   0.0000000E+00   0.0000000E+00   0.0000000E+00   0.0000000E+00   0.0000000E+00   0.0000000E+00   0.0000000E+00   0.0000000E+00   0.0000000E+00   0.0000000E+00   0.0000000E+00   0.0000000E+00   0.0000000E+00   0.0000000E+00   0.0000000E+00   0.0000000E+00   0.0000000E+00   0.0000000E+00   0.0000000E+00   0.0000000E+00   0.0000000E+00   0.0000000E+00   0.0000000E+00   0.0000000E+00   0.0000000E+00   0.0000000E+00   0.0000000E+00   0.0000000E+00   0.0000000E+00   0.0000000E+00   0.0000000E+00   0.0000000E+00   0.0000000E+00   0.0000000E+00   0.0000000E+00   0.0000000E+00   0.0000000E+00   0.0000000E+00   0.0000000E+00   0.0000000E+00   0.0000000E+00   0.0000000E+00   0.0000000E+00   0.0000000E+00   0.0000000E+00   0.0000000E+00   0.0000000E+00   0.0000000E+00   0.0000000E+00   0.0000000E+00   0.0000000E+00   0.0000000E+00   0.0000000E+00   0.0000000E+00   0.0000000E+00   0.0000000E+00   0.0000000E+00   0.0000000E+00   0.0000000E+00   0.0000000E+00   0.0000000E+00   0.0000000E+00   0.0000000E+00   0.0000000E+00   0.0000000E+00   0.0000000E+00   0.0000000E+00   0.0000000E+00   0.0000000E+00   0.0000000E+00   0.0000000E+00   0.0000000E+00   0.0000000E+00   0.0000000E+00   0.0000000E+00   0.0000000E+00   0.0000000E+00   0.0000000E+00   0.0000000E+00   0.0000000E+00   0.0000000E+00   0.0000000E+00   0.0000000E+00   0.0000000E+00   0.0000000E+00   0.0000000E+00   0.0000000E+00   0.0000000E+00   0.0000000E+00   0.0000000E+00   0.0000000E+00   0.0000000E+00   0.0000000E+00   0.0000000E+00   0.0000000E+00   0.0000000E+00   0.0000000E+00   0.0000000E+00   0.0000000E+00   0.0000000E+00   0.0000000E+00   0.0000000E+00   0.0000000E+00   0.0000000E+00   0.0000000E+00   0.0000000E+00   0.0000000E+00   0.0000000E+00   0.0000000E+00   0.0000000E+00   0.0000000E+00   0.0000000E+00   0.0000000E+00   0.0000000E+00   0.0000000E+00   0.0000000E+00   0.0000000E+00   0.0000000E+00   0.0000000E+00   0.0000000E+00   0.0000000E+00   0.0000000E+00   0.0000000E+00   0.0000000E+00   0.0000000E+00   0.0000000E+00   0.0000000E+00   0.0000000E+00   0.0000000E+00   0.0000000E+00   0.0000000E+00   0.0000000E+00   0.0000000E+00   0.0000000E+00   0.0000000E+00   0.0000000E+00   0.0000000E+00   0.0000000E+00   0.0000000E+00   0.0000000E+00   0.0000000E+00   0.0000000E+00   0.0000000E+00   0.0000000E+00   0.0000000E+00   0.0000000E+00   0.0000000E+00   0.0000000E+00   0.0000000E+00   0.0000000E+00   0.0000000E+00   0.0000000E+00   0.0000000E+00   0.0000000E+00   0.0000000E+00   0.0000000E+00   0.0000000E+00   0.0000000E+00   0.0000000E+00   0.0000000E+00   0.0000000E+00   0.0000000E+00   0.0000000E+00   0.0000000E+00   0.0000000E+00   0.0000000E+00   0.0000000E+00   0.0000000E+00   0.0000000E+00   0.0000000E+00   0.0000000E+00   0.0000000E+00   0.0000000E+00   0.0000000E+00   0.0000000E+00   0.0000000E+00   0.0000000E+00   0.0000000E+00   0.0000000E+00   0.0000000E+00   0.0000000E+00   0.0000000E+00   0.0000000E+00   0.0000000E+00   0.0000000E+00   0.0000000E+00   0.0000000E+00   0.0000000E+00   0.0000000E+00   0.0000000E+00   0.0000000E+00   0.0000000E+00   0.0000000E+00   0.0000000E+00   0.0000000E+00   0.0000000E+00   0.0000000E+00   0.0000000E+00   0.0000000E+00   0.0000000E+00   0.0000000E+00   0.0000000E+00   0.0000000E+00   0.0000000E+00   0.0000000E+00   0.0000000E+00   0.0000000E+00   0.0000000E+00   0.0000000E+00   0.0000000E+00   0.0000000E+00   0.0000000E+00   0.0000000E+00   0.0000000E+00   0.0000000E+00   0.0000000E+00   0.0000000E+00   0.0000000E+00   0.0000000E+00   0.0000000E+00   0.0000000E+00   0.0000000E+00   0.0000000E+00   0.0000000E+00   0.0000000E+00   0.0000000E+00   0.0000000E+00   0.0000000E+00   0.0000000E+00   0.0000000E+00   0.0000000E+00   0.0000000E+00   0.0000000E+00   0.0000000E+00   0.0000000E+00   0.0000000E+00   0.0000000E+00   0.0000000E+00   0.0000000E+00   0.0000000E+00   0.0000000E+00   0.0000000E+00   0.0000000E+00   0.0000000E+00   0.0000000E+00   0.0000000E+00   0.0000000E+00   0.0000000E+00   0.0000000E+00   0.0000000E+00   0.0000000E+00   0.0000000E+00   0.0000000E+00   0.0000000E+00   0.0000000E+00   0.0000000E+00   0.0000000E+00   0.0000000E+00   0.0000000E+00   0.0000000E+00   0.0000000E+00   0.0000000E+00   0.0000000E+00   0.0000000E+00   0.0000000E+00   0.0000000E+00   0.0000000E+00   0.0000000E+00   0.0000000E+00   0.0000000E+00   0.0000000E+00   0.0000000E+00   0.0000000E+00   0.0000000E+00   0.0000000E+00   0.0000000E+00   0.0000000E+00   0.0000000E+00   0.0000000E+00   0.0000000E+00   0.0000000E+00   0.0000000E+00   0.0000000E+00   0.0000000E+00   0.0000000E+00   0.0000000E+00   0.0000000E+00   0.0000000E+00   0.0000000E+00   0.0000000E+00   0.0000000E+00   0.0000000E+00   0.0000000E+00   0.0000000E+00   0.0000000E+00   0.0000000E+00   0.0000000E+00   0.0000000E+00   0.0000000E+00   0.0000000E+00   0.0000000E+00   0.0000000E+00   0.0000000E+00   0.0000000E+00   0.0000000E+00   0.0000000E+00   0.0000000E+00   0.0000000E+00   0.0000000E+00   0.0000000E+00   0.0000000E+00   0.0000000E+00   0.0000000E+00   0.0000000E+00   0.0000000E+00   0.0000000E+00   0.0000000E+00   0.0000000E+00   0.0000000E+00   0.0000000E+00   0.0000000E+00   0.0000000E+00   0.0000000E+00   0.0000000E+00   0.0000000E+00   0.0000000E+00   0.0000000E+00   0.0000000E+00   0.0000000E+00   0.0000000E+00   0.0000000E+00   0.0000000E+00   0.0000000E+00   0.0000000E+00   0.0000000E+00   0.0000000E+00   0.0000000E+00   0.0000000E+00   0.0000000E+00   0.0000000E+00   0.0000000E+00   0.0000000E+00   0.0000000E+00   0.0000000E+00   0.0000000E+00   0.0000000E+00   0.0000000E+00   0.0000000E+00   0.0000000E+00   0.0000000E+00   0.0000000E+00   0.0000000E+00   0.0000000E+00   0.0000000E+00   0.0000000E+00   0.0000000E+00   0.0000000E+00   0.0000000E+00   0.0000000E+00   0.0000000E+00   0.0000000E+00   0.0000000E+00   0.0000000E+00   0.0000000E+00   0.0000000E+00   0.0000000E+00   0.0000000E+00   0.0000000E+00   0.0000000E+00   0.0000000E+00   0.0000000E+00   0.0000000E+00   0.0000000E+00   0.0000000E+00   0.0000000E+00   0.0000000E+00   0.0000000E+00   0.0000000E+00   0.0000000E+00   0.0000000E+00   0.0000000E+00   0.0000000E+00   0.0000000E+00   0.0000000E+00   0.0000000E+00   0.0000000E+00   0.0000000E+00   0.0000000E+00   0.0000000E+00   0.0000000E+00   0.0000000E+00   0.0000000E+00   0.0000000E+00   0.0000000E+00   0.0000000E+00   0.0000000E+00   0.0000000E+00   0.0000000E+00   0.0000000E+00   0.0000000E+00   0.0000000E+00   0.0000000E+00   0.0000000E+00   0.0000000E+00   0.0000000E+00   0.0000000E+00   0.0000000E+00   0.0000000E+00   0.0000000E+00   0.0000000E+00   0.0000000E+00   0.0000000E+00   0.0000000E+00   0.0000000E+00   0.0000000E+00   0.0000000E+00   0.0000000E+00   0.0000000E+00   0.0000000E+00   0.0000000E+00   0.0000000E+00   0.0000000E+00   0.0000000E+00   0.0000000E+00   0.0000000E+00   0.0000000E+00   0.0000000E+00   0.0000000E+00   0.0000000E+00   0.0000000E+00   0.0000000E+00   0.0000000E+00   0.0000000E+00   0.0000000E+00   0.0000000E+00   0.0000000E+00   0.0000000E+00   0.0000000E+00   0.0000000E+00   0.0000000E+00   0.0000000E+00   0.0000000E+00   0.0000000E+00   0.0000000E+00   0.0000000E+00   0.0000000E+00   0.0000000E+00   0.0000000E+00   0.0000000E+00   0.0000000E+00   0.0000000E+00   0.0000000E+00   0.0000000E+00   0.0000000E+00   0.0000000E+00   0.0000000E+00   0.0000000E+00   0.0000000E+00   0.0000000E+00   0.0000000E+00   0.0000000E+00   0.0000000E+00   0.0000000E+00   0.0000000E+00   0.0000000E+00   0.0000000E+00   0.0000000E+00   0.0000000E+00   0.0000000E+00   0.0000000E+00   0.0000000E+00   0.0000000E+00   0.0000000E+00   0.0000000E+00   0.0000000E+00   0.0000000E+00   0.0000000E+00   0.0000000E+00   0.0000000E+00   0.0000000E+00   0.0000000E+00   0.0000000E+00   0.0000000E+00   0.0000000E+00   0.0000000E+00   0.0000000E+00   0.0000000E+00   0.0000000E+00   0.0000000E+00   0.0000000E+00   0.0000000E+00   0.0000000E+00   0.0000000E+00   0.0000000E+00   0.0000000E+00   0.0000000E+00   0.0000000E+00   0.0000000E+00   0.0000000E+00   0.0000000E+00   0.0000000E+00   0.0000000E+00   0.0000000E+00   0.0000000E+00   0.0000000E+00   0.0000000E+00   0.0000000E+00   0.0000000E+00   0.0000000E+00   0.0000000E+00   0.0000000E+00   0.0000000E+00   0.0000000E+00   0.0000000E+00   0.0000000E+00   0.0000000E+00   0.0000000E+00   0.0000000E+00   0.0000000E+00   0.0000000E+00   0.0000000E+00   0.0000000E+00   0.0000000E+00   0.0000000E+00   0.0000000E+00   0.0000000E+00   0.0000000E+00   0.0000000E+00   0.0000000E+00   0.0000000E+00   0.0000000E+00   0.0000000E+00   0.0000000E+00   0.0000000E+00   0.0000000E+00   0.0000000E+00   0.0000000E+00   0.0000000E+00   0.0000000E+00   0.0000000E+00   0.0000000E+00   0.0000000E+00   0.0000000E+00   0.0000000E+00   0.0000000E+00   0.0000000E+00   0.0000000E+00   0.0000000E+00   0.0000000E+00   0.0000000E+00   0.0000000E+00   0.0000000E+00   0.0000000E+00   0.0000000E+00   0.0000000E+00   0.0000000E+00   0.0000000E+00   0.0000000E+00   0.0000000E+00   0.0000000E+00   0.0000000E+00   0.0000000E+00   0.0000000E+00   0.0000000E+00   0.0000000E+00   0.0000000E+00   0.0000000E+00   0.0000000E+00   0.0000000E+00   0.0000000E+00   0.0000000E+00   0.0000000E+00   0.0000000E+00  -3.1513565E-07   0.0000000E+00  -1.3718234E-08  -3.9998605E-07   0.0000000E+00  -3.5465775E-09  -4.7490741E-07   0.0000000E+00   5.5435141E-09  -5.3687580E-07   0.0000000E+00   1.1478608E-08  -5.8640461E-07   0.0000000E+00   1.3981769E-08  -4.2742639E-07   0.0000000E+00  -4.3475257E-08  -5.8872951E-07   0.0000000E+00  -2.6809655E-08  -7.4509569E-07   0.0000000E+00  -6.5876997E-09  -8.8243394E-07   0.0000000E+00   1.1345160E-08  -9.9538477E-07   0.0000000E+00   2.2995302E-08  -1.0851636E-06   0.0000000E+00   2.7863511E-08  -7.8275076E-07   0.0000000E+00  -8.2938698E-08  -1.0754003E-06   0.0000000E+00  -5.0732453E-08  -1.3575676E-06   0.0000000E+00  -1.1986901E-08  -1.6038118E-06   0.0000000E+00   2.2177986E-08  -1.8049394E-06   0.0000000E+00   4.4275851E-08  -1.9637446E-06   0.0000000E+00   5.3429837E-08  -1.4079349E-06   0.0000000E+00  -1.5370740E-07  -1.9287750E-06   0.0000000E+00  -9.3464564E-08  -2.4280218E-06   0.0000000E+00  -2.1317387E-08  -2.8606298E-06   0.0000000E+00   4.2001567E-08  -3.2112114E-06   0.0000000E+00   8.2774967E-08  -3.4858992E-06   0.0000000E+00   9.9511794E-08  -2.5004522E-06   0.0000000E+00  -2.7806885E-07  -3.4066138E-06   0.0000000E+00  -1.6792410E-07  -4.2692577E-06   0.0000000E+00  -3.6636241E-08  -5.0122376E-06   0.0000000E+00   7.7928476E-08  -5.6104259E-06   0.0000000E+00   1.5125981E-07  -6.0752213E-06   0.0000000E+00   1.8101395E-07  -4.4376952E-06   0.0000000E+00  -4.9283790E-07  -5.9695521E-06   0.0000000E+00  -2.9407204E-07  -7.4100071E-06   0.0000000E+00  -5.9153827E-08  -8.6421587E-06   0.0000000E+00   1.4380592E-07  -9.6322192E-06   0.0000000E+00   2.7216524E-07  -1.0400076E-05   0.0000000E+00   3.2310660E-07  -7.9551110E-06   0.0000000E+00  -8.5819590E-07  -1.0462871E-05   0.0000000E+00  -5.0064551E-07  -1.2762100E-05   0.0000000E+00  -8.4350319E-08  -1.4709439E-05   0.0000000E+00   2.6904598E-07  -1.6276366E-05   0.0000000E+00   4.8713514E-07  -1.7500983E-05   0.0000000E+00   5.6938927E-07  -1.4429781E-05   0.0000000E+00  -1.4709526E-06  -1.8377263E-05   0.0000000E+00  -8.2402238E-07  -2.1853761E-05   0.0000000E+00  -8.8371422E-08  -2.4759638E-05   0.0000000E+00   5.1808786E-07  -2.7113121E-05   0.0000000E+00   8.7623391E-07  -2.8983239E-05   0.0000000E+00   9.9750889E-07  -2.6207872E-05   0.0000000E+00  -2.4798064E-06  -3.2124855E-05   0.0000000E+00  -1.2963789E-06  -3.7072296E-05   0.0000000E+00   4.3430646E-09  -4.1166033E-05   0.0000000E+00   1.0293902E-06  -4.4535649E-05   0.0000000E+00   1.5930038E-06  -4.7280642E-05   0.0000000E+00   1.7459777E-06  -4.6616289E-05   0.0000000E+00  -4.0815412E-06  -5.5105844E-05   0.0000000E+00  -1.9008689E-06  -6.1813000E-05   0.0000000E+00   3.9054669E-07  -6.7367866E-05   0.0000000E+00   2.0831981E-06  -7.2064060E-05   0.0000000E+00   2.9171429E-06  -7.5998738E-05   0.0000000E+00   3.0520564E-06  -7.9209123E-05   0.0000000E+00  -6.4222622E-06  -9.1413393E-05   0.0000000E+00  -2.4529911E-06  -1.0056177E-04   0.0000000E+00   1.5128653E-06  -1.0817881E-04   0.0000000E+00   4.2042352E-06  -1.1476596E-04   0.0000000E+00   5.3256631E-06  -1.2038299E-04   0.0000000E+00   5.2979203E-06  -1.2763850E-04   0.0000000E+00  -8.9050263E-06  -1.4613505E-04   0.0000000E+00  -2.2211784E-06  -1.5949317E-04   0.0000000E+00   4.2680467E-06  -1.7048897E-04   0.0000000E+00   8.2809720E-06  -1.7996020E-04   0.0000000E+00   9.5642636E-06  -1.8799817E-04   0.0000000E+00   9.0580161E-06  -2.0041529E-04   0.0000000E+00  -9.4259167E-06  -2.2826112E-04   0.0000000E+00   6.0329967E-07  -2.4843664E-04   0.0000000E+00   1.0222616E-05  -2.6470624E-04   0.0000000E+00   1.5651145E-05  -2.7835157E-04   0.0000000E+00   1.6694989E-05  -2.8970480E-04   0.0000000E+00   1.5138683E-05  -3.1550805E-04   0.0000000E+00  -5.7470652E-06  -3.5464726E-04   0.0000000E+00   8.5030442E-06  -3.8360493E-04   0.0000000E+00   2.1522501E-05  -4.0663881E-04   0.0000000E+00   2.8084491E-05  -4.2548025E-04   0.0000000E+00   2.8123155E-05  -4.4093322E-04   0.0000000E+00   2.4627361E-05  -5.0224108E-04   0.0000000E+00   7.5014705E-06  -5.5177341E-04   0.0000000E+00   2.5857884E-05  -5.8918499E-04   0.0000000E+00   4.1261235E-05  -6.1894319E-04   0.0000000E+00   4.7881560E-05  -6.4319238E-04   0.0000000E+00   4.5690649E-05  -6.6322408E-04   0.0000000E+00   3.8979750E-05  -7.9979887E-04   0.0000000E+00   2.6777303E-05  -8.5440505E-04   0.0000000E+00   5.1794650E-05  -8.9712237E-04   0.0000000E+00   7.0878858E-05  -9.3198847E-04   0.0000000E+00   7.7450612E-05  -9.6122938E-04   0.0000000E+00   7.1802780E-05  -9.8617293E-04   0.0000000E+00   6.0217302E-05  -1.2502675E-03   0.0000000E+00   6.3882217E-05  -1.3028533E-03   0.0000000E+00   9.4202893E-05  -1.3471352E-03   0.0000000E+00   1.1548398E-04  -1.3856133E-03   0.0000000E+00   1.2097340E-04  -1.4196733E-03   0.0000000E+00   1.0999502E-04  -1.4500309E-03   0.0000000E+00   9.1203889E-05  -1.8980355E-03   0.0000000E+00   1.1531653E-04  -1.9461917E-03   0.0000000E+00   1.5328705E-04  -1.9914194E-03   0.0000000E+00   1.7926662E-04  -2.0335470E-03   0.0000000E+00   1.8385141E-04  -2.0726861E-03   0.0000000E+00   1.6525682E-04  -2.1087504E-03   0.0000000E+00   1.3599380E-04  -2.8086237E-03   0.0000000E+00   1.9632113E-04  -2.8566727E-03   0.0000000E+00   2.4054751E-04  -2.9041592E-03   0.0000000E+00   2.7137069E-04  -2.9494294E-03   0.0000000E+00   2.7429042E-04  -2.9922661E-03   0.0000000E+00   2.4467157E-04  -3.0326867E-03   0.0000000E+00   2.0039473E-04  -4.0957984E-03   0.0000000E+00   3.2963839E-04  -4.1427719E-03   0.0000000E+00   3.7181465E-04  -4.1877679E-03   0.0000000E+00   4.0414176E-04  -4.2298869E-03   0.0000000E+00   4.0390593E-04  -4.2706621E-03   0.0000000E+00   3.5856545E-04  -4.3116044E-03   0.0000000E+00   2.9315727E-04  -5.9120702E-03   0.0000000E+00   5.2901701E-04  -5.9438087E-03   0.0000000E+00   5.5371871E-04  -5.9714410E-03   0.0000000E+00   5.9089909E-04  -5.9965262E-03   0.0000000E+00   5.8970228E-04  -6.0240650E-03   0.0000000E+00   5.2328379E-04  -6.0581504E-03   0.0000000E+00   4.2828851E-04  -8.4392680E-03   0.0000000E+00   8.1035460E-04  -8.4298719E-03   0.0000000E+00   8.1003556E-04  -8.4143057E-03   0.0000000E+00   8.5886137E-04  -8.3989399E-03   0.0000000E+00   8.6203800E-04  -8.3946008E-03   0.0000000E+00   7.6690596E-04  -8.4092747E-03   0.0000000E+00   6.2933710E-04  -1.1888004E-02   0.0000000E+00   1.1834846E-03  -1.1796858E-02   0.0000000E+00   1.1555054E-03  -1.1698493E-02   0.0000000E+00   1.2506281E-03  -1.1607343E-02   0.0000000E+00   1.2755767E-03  -1.1542970E-02   0.0000000E+00   1.1398477E-03  -1.1518604E-02   0.0000000E+00   9.3672692E-04  -1.6461762E-02   0.0000000E+00   1.7110630E-03  -1.6232638E-02   0.0000000E+00   1.6475512E-03  -1.5997211E-02   0.0000000E+00   1.8608606E-03  -1.5782168E-02   0.0000000E+00   1.9360889E-03  -1.5618534E-02   0.0000000E+00   1.7339186E-03  -1.5525946E-02   0.0000000E+00   1.4199973E-03  -2.2270428E-02   0.0000000E+00   2.3902473E-03  -2.1836134E-02   0.0000000E+00   2.3828889E-03  -2.1399474E-02   0.0000000E+00   2.8695655E-03  -2.1003736E-02   0.0000000E+00   3.0417179E-03  -2.0692457E-02   0.0000000E+00   2.7154328E-03  -2.0491429E-02   0.0000000E+00   2.1986112E-03  -2.9183358E-02   0.0000000E+00   3.2875114E-03  -2.8482068E-02   0.0000000E+00   3.5697019E-03  -2.7785709E-02   0.0000000E+00   4.6257647E-03  -2.7157223E-02   0.0000000E+00   4.9558822E-03  -2.6649846E-02   0.0000000E+00   4.3815742E-03  -2.6292829E-02   0.0000000E+00   3.4788169E-03  -3.6655959E-02   0.0000000E+00   4.6949801E-03  -3.5661884E-02   0.0000000E+00   5.6981468E-03  -3.4681287E-02   0.0000000E+00   7.7706594E-03  -3.3796299E-02   0.0000000E+00   8.2970094E-03  -3.3062182E-02   0.0000000E+00   7.2237346E-03  -3.2507554E-02   0.0000000E+00   5.6089200E-03  -4.3592781E-02   0.0000000E+00   7.0848665E-03  -4.2353611E-02   0.0000000E+00   9.6810348E-03  -4.1133307E-02   0.0000000E+00   1.3334315E-02  -4.0025566E-02   0.0000000E+00   1.3928303E-02  -3.9077982E-02   0.0000000E+00   1.1974420E-02  -3.8314525E-02   0.0000000E+00   9.1297310E-03  -4.8326369E-02   0.0000000E+00   1.1986048E-02  -4.6989843E-02   0.0000000E+00   1.7058797E-02  -4.5668133E-02   0.0000000E+00   2.2337174E-02  -4.4453684E-02   0.0000000E+00   2.2905147E-02  -4.3377507E-02   0.0000000E+00   1.9589351E-02  -4.2454336E-02   0.0000000E+00   1.4764919E-02  -4.8821155E-02   0.0000000E+00   2.2422060E-02  -4.7626749E-02   0.0000000E+00   3.0364648E-02  -4.6432447E-02   0.0000000E+00   3.6274035E-02  -4.5312092E-02   0.0000000E+00   3.6404021E-02  -4.4273235E-02   0.0000000E+00   3.1047262E-02  -4.3316279E-02   0.0000000E+00   2.3285519E-02  -4.3192532E-02   0.0000000E+00   4.4919338E-02  -4.2410452E-02   0.0000000E+00   5.3295836E-02  -4.1616295E-02   0.0000000E+00   5.6983721E-02  -4.0842045E-02   0.0000000E+00   5.5454664E-02  -4.0059857E-02   0.0000000E+00   4.7077652E-02  -3.9253298E-02   0.0000000E+00   3.5252683E-02  -3.0479947E-02   0.0000000E+00   8.9611247E-02  -3.0322015E-02   0.0000000E+00   9.3882740E-02  -3.0148512E-02   0.0000000E+00   8.8253140E-02  -2.9931428E-02   0.0000000E+00   8.0830783E-02  -2.9604631E-02   0.0000000E+00   6.7778774E-02  -2.9135639E-02   0.0000000E+00   5.0700236E-02  -1.1347274E-02   0.0000000E+00   1.6689248E-01  -1.1878171E-02   0.0000000E+00   1.5930773E-01  -1.2385902E-02   0.0000000E+00   1.3231976E-01  -1.2787581E-02   0.0000000E+00   1.1270177E-01  -1.2999804E-02   0.0000000E+00   9.2422925E-02  -1.2982998E-02   0.0000000E+00   6.8912536E-02   1.1669235E-02   0.0000000E+00   2.6361194E-01   1.0581912E-02   0.0000000E+00   2.4028875E-01   9.5298821E-03   0.0000000E+00   1.8395716E-01   8.6309873E-03   0.0000000E+00   1.4783379E-01   7.9573756E-03   0.0000000E+00   1.1895865E-01   7.5389012E-03   0.0000000E+00   8.8397592E-02   3.4547005E-02   0.0000000E+00   3.4448409E-01   3.3184394E-02   0.0000000E+00   3.1043842E-01   3.1864770E-02   0.0000000E+00   2.3081130E-01   3.0718928E-02   0.0000000E+00   1.8108195E-01   2.9786583E-02   0.0000000E+00   1.4439087E-01   2.9074958E-02   0.0000000E+00   1.0716183E-01   5.2915350E-02   0.0000000E+00   3.9150903E-01   5.1588990E-02   0.0000000E+00   3.5605401E-01   5.0300114E-02   0.0000000E+00   2.6570046E-01   4.9165990E-02   0.0000000E+00   2.0845515E-01   4.8196815E-02   0.0000000E+00   1.6625704E-01   4.7379106E-02   0.0000000E+00   1.2346856E-01   6.3735560E-02   0.0000000E+00   4.1396111E-01   6.2657453E-02   0.0000000E+00   3.8143766E-01   6.1599489E-02   0.0000000E+00   2.8874603E-01   6.0639866E-02   0.0000000E+00   2.2879219E-01   5.9776191E-02   0.0000000E+00   1.8322317E-01   5.8989301E-02   0.0000000E+00   1.3624533E-01   6.6496052E-02   0.0000000E+00   4.2338318E-01   6.5730244E-02   0.0000000E+00   3.9471981E-01   6.4967044E-02   0.0000000E+00   3.0309418E-01   6.4233549E-02   0.0000000E+00   2.4266519E-01   6.3521922E-02   0.0000000E+00   1.9511154E-01   6.2822193E-02   0.0000000E+00   1.4522493E-01   6.3070528E-02   0.0000000E+00   4.2663750E-01   6.2583268E-02   0.0000000E+00   4.0120006E-01   6.2079344E-02   0.0000000E+00   3.1129014E-01   6.1544582E-02   0.0000000E+00   2.5109872E-01   6.0969293E-02   0.0000000E+00   2.0244104E-01   6.0359679E-02   0.0000000E+00   1.5074778E-01   5.6492519E-02   0.0000000E+00   4.2726922E-01   5.6206077E-02   0.0000000E+00   4.0370211E-01   5.5879015E-02   0.0000000E+00   3.1504756E-01   5.5478748E-02   0.0000000E+00   2.5518113E-01   5.4999169E-02   0.0000000E+00   2.0601712E-01   5.4461282E-02   0.0000000E+00   1.5342253E-01   4.9500324E-02   0.0000000E+00   4.2642468E-01   4.9328733E-02   0.0000000E+00   4.0342855E-01   4.9094517E-02   0.0000000E+00   3.1539789E-01   4.8767034E-02   0.0000000E+00   2.5579694E-01   4.8346404E-02   0.0000000E+00   2.0658393E-01   4.7861572E-02   0.0000000E+00   1.5382636E-01   4.3603618E-02   0.0000000E+00   4.2531261E-01   4.3476738E-02   0.0000000E+00   4.0146658E-01   4.3274682E-02   0.0000000E+00   3.1311625E-01   4.2978365E-02   0.0000000E+00   2.5355428E-01   4.2592008E-02   0.0000000E+00   2.0464358E-01   4.2144336E-02   0.0000000E+00   1.5233977E-01   3.8955200E-02   0.0000000E+00   4.1814259E-01   3.8826585E-02   0.0000000E+00   3.9418674E-01   3.8619667E-02   0.0000000E+00   3.0701423E-01   3.8326152E-02   0.0000000E+00   2.4838023E-01   3.7951197E-02   0.0000000E+00   2.0038344E-01   3.7518770E-02   0.0000000E+00   1.4913803E-01   3.4870759E-02   0.0000000E+00   4.0479979E-01   3.4708224E-02   0.0000000E+00   3.8155752E-01   3.4465861E-02   0.0000000E+00   2.9715514E-01   3.4141619E-02   0.0000000E+00   2.4039133E-01   3.3740878E-02   0.0000000E+00   1.9391406E-01   3.3285096E-02   0.0000000E+00   1.4430106E-01   3.0570675E-02   0.0000000E+00   3.8576111E-01   3.0338176E-02   0.0000000E+00   3.6395055E-01   3.0016787E-02   0.0000000E+00   2.8377905E-01   2.9607283E-02   0.0000000E+00   2.2975834E-01   2.9119482E-02   0.0000000E+00   1.8536645E-01   2.8581372E-02   0.0000000E+00   1.3792078E-01   2.5725367E-02   0.0000000E+00   3.6187837E-01   2.5365632E-02   0.0000000E+00   3.4204563E-01   2.4895614E-02   0.0000000E+00   2.6731986E-01   2.4319462E-02   0.0000000E+00   2.1678254E-01   2.3660712E-02   0.0000000E+00   1.7497180E-01   2.2967219E-02   0.0000000E+00   1.3016696E-01   2.0621145E-02   0.0000000E+00   3.3431068E-01   2.0044532E-02   0.0000000E+00   3.1677258E-01   1.9323593E-02   0.0000000E+00   2.4840364E-01   1.8473322E-02   0.0000000E+00   2.0191595E-01   1.7544296E-02   0.0000000E+00   1.6308442E-01   1.6619056E-02   0.0000000E+00   1.2130953E-01   1.5984837E-02   0.0000000E+00   3.0427992E-01   1.5070060E-02   0.0000000E+00   2.8921252E-01   1.3967609E-02   0.0000000E+00   2.2775228E-01   1.2717575E-02   0.0000000E+00   1.8571483E-01   1.1414260E-02   0.0000000E+00   1.5016459E-01   1.0187394E-02   0.0000000E+00   1.1170881E-01   1.2561439E-02   0.0000000E+00   2.7298534E-01   1.1185233E-02   0.0000000E+00   2.6059437E-01   9.5784329E-03   0.0000000E+00   2.0621911E-01   7.8185163E-03   0.0000000E+00   1.6881751E-01   6.0506496E-03   0.0000000E+00   1.3673893E-01   4.4574616E-03   0.0000000E+00   1.0178263E-01   1.0667912E-02   0.0000000E+00   2.4147883E-01   8.7562175E-03   0.0000000E+00   2.3200150E-01   6.5802336E-03   0.0000000E+00   1.8476897E-01   4.2635794E-03   0.0000000E+00   1.5194246E-01   1.9958338E-03   0.0000000E+00   1.2336953E-01  -9.9499431E-08   0.0000000E+00   9.1968723E-02   1.0089090E-02   0.0000000E+00   2.1061344E-01   7.6107993E-03   0.0000000E+00   2.0446815E-01   4.8793769E-03   0.0000000E+00   1.6431721E-01   2.0572578E-03   0.0000000E+00   1.3576965E-01  -6.5131002E-04   0.0000000E+00   1.1058106E-01  -3.0144288E-03   0.0000000E+00   8.2676724E-02   1.0343296E-02   0.0000000E+00   1.8069735E-01   7.2067413E-03   0.0000000E+00   1.7883691E-01   3.9701629E-03   0.0000000E+00   1.4562431E-01   7.9569494E-04   0.0000000E+00   1.2084102E-01  -2.1787421E-03   0.0000000E+00   9.8777495E-02  -4.7649089E-03   0.0000000E+00   7.4228480E-02   1.1243617E-02   0.0000000E+00   1.5215792E-01   7.0394767E-03   0.0000000E+00   1.5556324E-01   3.2591601E-03   0.0000000E+00   1.2920405E-01  -6.8882975E-05   0.0000000E+00   1.0748815E-01  -3.0278300E-03   0.0000000E+00   8.8184394E-02  -5.5830684E-03   0.0000000E+00   6.6792428E-02   1.3379914E-02   0.0000000E+00   1.2536141E-01   7.0552034E-03   0.0000000E+00   1.3479190E-01   2.4330204E-03   0.0000000E+00   1.1530056E-01  -9.4317592E-04   0.0000000E+00   9.5881261E-02  -3.5712016E-03   0.0000000E+00   7.8839839E-02  -5.7753385E-03   0.0000000E+00   6.0384683E-02   1.7326880E-02   0.0000000E+00   1.0072971E-01   7.6176454E-03   0.0000000E+00   1.1624858E-01   1.6543494E-03   0.0000000E+00   1.0376231E-01  -1.8496064E-03   0.0000000E+00   8.6081848E-02  -3.9396989E-03   0.0000000E+00   7.0703864E-02  -5.5029802E-03   0.0000000E+00   5.4897960E-02   8.6451396E-03   0.0000000E+00   9.8898351E-02   1.3826947E-03   0.0000000E+00   9.3766868E-02  -2.4104004E-03   0.0000000E+00   7.8110330E-02  -4.0052887E-03   0.0000000E+00   6.3748963E-02  -4.7865184E-03   0.0000000E+00   5.0184909E-02   1.0192410E-02   0.0000000E+00   8.1594020E-02   2.1704144E-03   0.0000000E+00   8.3982170E-02  -2.0369245E-03   0.0000000E+00   7.1770862E-02  -3.4798591E-03   0.0000000E+00   5.8077488E-02  -3.6104789E-03   0.0000000E+00   4.6129838E-02   4.4218116E-03   0.0000000E+00   7.3554181E-02  -9.4133618E-05   0.0000000E+00   6.6344827E-02  -1.9287660E-03   0.0000000E+00   5.3860150E-02  -1.9149189E-03   0.0000000E+00   4.2802818E-02   8.5705323E-03   0.0000000E+00   6.2505998E-02   3.8279882E-03   0.0000000E+00   6.0733728E-02   1.2302556E-03   0.0000000E+00   5.0888851E-02   5.9162144E-04   0.0000000E+00   4.0417865E-02   9.3429377E-03   0.0000000E+00   5.4756567E-02   6.3446085E-03   0.0000000E+00   4.8410628E-02   4.6399352E-03   0.0000000E+00   3.8936730E-02   1.2715054E-02   0.0000000E+00   4.5747530E-02   1.0926203E-02   0.0000000E+00   3.7795275E-02   1.8948400E-02   0.0000000E+00   4.3394089E-02   1.7821871E-02   0.0000000E+00   3.6673877E-02  -6.2547525E-07   0.0000000E+00   1.4005449E-08  -6.5613813E-07   0.0000000E+00   1.2764058E-08  -6.7995967E-07   0.0000000E+00   1.1075012E-08  -6.9815388E-07   0.0000000E+00   9.3052988E-09  -7.1177084E-07   0.0000000E+00   7.6384312E-09  -7.2170712E-07   0.0000000E+00   6.1852568E-09  -7.2869329E-07   0.0000000E+00   5.0134470E-09  -7.3328982E-07   0.0000000E+00   4.1604271E-09  -7.3589206E-07   0.0000000E+00   3.6440426E-09  -1.1556739E-06   0.0000000E+00   2.7839349E-08  -1.2108663E-06   0.0000000E+00   2.5333485E-08  -1.2537016E-06   0.0000000E+00   2.1981370E-08  -1.2864170E-06   0.0000000E+00   1.8500534E-08  -1.3109221E-06   0.0000000E+00   1.5233288E-08  -1.3288329E-06   0.0000000E+00   1.2392154E-08  -1.3414566E-06   0.0000000E+00   1.0105726E-08  -1.3497845E-06   0.0000000E+00   8.4436262E-09  -1.3545100E-06   0.0000000E+00   7.4382283E-09  -2.0877953E-06   0.0000000E+00   5.3264895E-08  -2.1845590E-06   0.0000000E+00   4.8401727E-08  -2.2595227E-06   0.0000000E+00   4.1989189E-08  -2.3167286E-06   0.0000000E+00   3.5382676E-08  -2.3595755E-06   0.0000000E+00   2.9205884E-08  -2.3909186E-06   0.0000000E+00   2.3852435E-08  -2.4130347E-06   0.0000000E+00   1.9557563E-08  -2.4276512E-06   0.0000000E+00   1.6443860E-08  -2.4359567E-06   0.0000000E+00   1.4564052E-08  -3.6991200E-06   0.0000000E+00   9.8987321E-08  -3.8647463E-06   0.0000000E+00   8.9815678E-08  -3.9927472E-06   0.0000000E+00   7.7880706E-08  -4.0902905E-06   0.0000000E+00   6.5671450E-08  -4.1633002E-06   0.0000000E+00   5.4303140E-08  -4.2167053E-06   0.0000000E+00   4.4486814E-08  -4.2544148E-06   0.0000000E+00   3.6641165E-08  -4.2793540E-06   0.0000000E+00   3.0973801E-08  -4.2935367E-06   0.0000000E+00   2.7562413E-08  -6.4333713E-06   0.0000000E+00   1.7959019E-07  -6.7102064E-06   0.0000000E+00   1.6265636E-07  -6.9235316E-06   0.0000000E+00   1.4092187E-07  -7.0857927E-06   0.0000000E+00   1.1884489E-07  -7.2071189E-06   0.0000000E+00   9.8378280E-08  -7.2958173E-06   0.0000000E+00   8.0774996E-08  -7.3584515E-06   0.0000000E+00   6.6762695E-08  -7.3998881E-06   0.0000000E+00   5.6681500E-08  -7.4234636E-06   0.0000000E+00   5.0633815E-08  -1.0988133E-05   0.0000000E+00   3.1919518E-07  -1.1440128E-05   0.0000000E+00   2.8830004E-07  -1.1787270E-05   0.0000000E+00   2.4938893E-07  -1.2050765E-05   0.0000000E+00   2.1021576E-07  -1.2247530E-05   0.0000000E+00   1.7409057E-07  -1.2391289E-05   0.0000000E+00   1.4315214E-07  -1.2492785E-05   0.0000000E+00   1.1862663E-07  -1.2559935E-05   0.0000000E+00   1.0105187E-07  -1.2598144E-05   0.0000000E+00   9.0543367E-08  -1.8442764E-05   0.0000000E+00   5.5785034E-07  -1.9164021E-05   0.0000000E+00   5.0132758E-07  -1.9716070E-05   0.0000000E+00   4.3240169E-07  -2.0134245E-05   0.0000000E+00   3.6398686E-07  -2.0446127E-05   0.0000000E+00   3.0137866E-07  -2.0673899E-05   0.0000000E+00   2.4804052E-07  -2.0834703E-05   0.0000000E+00   2.0593987E-07  -2.0941134E-05   0.0000000E+00   1.7588208E-07  -2.1001717E-05   0.0000000E+00   1.5796095E-07  -3.0444162E-05   0.0000000E+00   9.6277620E-07  -3.1568827E-05   0.0000000E+00   8.5751753E-07  -3.2427521E-05   0.0000000E+00   7.3578218E-07  -3.3076900E-05   0.0000000E+00   6.1774938E-07  -3.3560962E-05   0.0000000E+00   5.1103814E-07  -3.3914486E-05   0.0000000E+00   4.2078767E-07  -3.4164263E-05   0.0000000E+00   3.4990012E-07  -3.4329714E-05   0.0000000E+00   2.9946392E-07  -3.4423985E-05   0.0000000E+00   2.6946287E-07  -4.9474260E-05   0.0000000E+00   1.6471931E-06  -5.1184619E-05   0.0000000E+00   1.4464968E-06  -5.2491934E-05   0.0000000E+00   1.2308425E-06  -5.3479795E-05   0.0000000E+00   1.0289707E-06  -5.4216300E-05   0.0000000E+00   8.4985112E-07  -5.4754808E-05   0.0000000E+00   6.9990193E-07  -5.5135926E-05   0.0000000E+00   5.8283086E-07  -5.5388820E-05   0.0000000E+00   4.9982435E-07  -5.5533077E-05   0.0000000E+00   4.5054352E-07  -7.9212572E-05   0.0000000E+00   2.7965593E-06  -8.1751758E-05   0.0000000E+00   2.4096603E-06  -8.3700004E-05   0.0000000E+00   2.0269222E-06  -8.5172622E-05   0.0000000E+00   1.6841726E-06  -8.6271961E-05   0.0000000E+00   1.3877809E-06  -8.7077635E-05   0.0000000E+00   1.1431006E-06  -8.7649321E-05   0.0000000E+00   9.5346439E-07  -8.8029738E-05   0.0000000E+00   8.1950856E-07  -8.8247223E-05   0.0000000E+00   7.4010825E-07  -1.2502252E-04   0.0000000E+00   4.7001090E-06  -1.2871395E-04   0.0000000E+00   3.9624897E-06  -1.3155463E-04   0.0000000E+00   3.2876137E-06  -1.3370474E-04   0.0000000E+00   2.7113440E-06  -1.3531381E-04   0.0000000E+00   2.2280060E-06  -1.3649683E-04   0.0000000E+00   1.8358350E-06  -1.3733952E-04   0.0000000E+00   1.5345327E-06  -1.3790226E-04   0.0000000E+00   1.3225224E-06  -1.3822492E-04   0.0000000E+00   1.1970340E-06  -1.9461478E-04   0.0000000E+00   7.7846225E-06  -1.9987412E-04   0.0000000E+00   6.4203659E-06  -2.0392361E-04   0.0000000E+00   5.2508221E-06  -2.0699452E-04   0.0000000E+00   4.2962392E-06  -2.0930012E-04   0.0000000E+00   3.5207449E-06  -2.1100261E-04   0.0000000E+00   2.9033420E-06  -2.1222090E-04   0.0000000E+00   2.4335106E-06  -2.1303803E-04   0.0000000E+00   2.1041776E-06  -2.1350813E-04   0.0000000E+00   1.9094548E-06  -2.9895510E-04   0.0000000E+00   1.2650047E-05  -3.0627934E-04   0.0000000E+00   1.0228452E-05  -3.1191646E-04   0.0000000E+00   8.2538227E-06  -3.1620060E-04   0.0000000E+00   6.7041542E-06  -3.1942924E-04   0.0000000E+00   5.4824704E-06  -3.2182527E-04   0.0000000E+00   4.5276870E-06  -3.2354885E-04   0.0000000E+00   3.8077585E-06  -3.2471048E-04   0.0000000E+00   3.3047609E-06  -3.2538100E-04   0.0000000E+00   3.0074843E-06  -4.5347930E-04   0.0000000E+00   2.0117091E-05  -4.6341951E-04   0.0000000E+00   1.6002939E-05  -4.7107626E-04   0.0000000E+00   1.2768612E-05  -4.7690811E-04   0.0000000E+00   1.0311726E-05  -4.8132174E-04   0.0000000E+00   8.4244020E-06  -4.8461417E-04   0.0000000E+00   6.9726980E-06  -4.8699553E-04   0.0000000E+00   5.8860501E-06  -4.8860826E-04   0.0000000E+00   5.1282509E-06  -4.8954220E-04   0.0000000E+00   4.6801342E-06  -6.7968591E-04   0.0000000E+00   3.1309683E-05  -6.9283409E-04   0.0000000E+00   2.4596888E-05  -7.0297974E-04   0.0000000E+00   1.9458581E-05  -7.1072602E-04   0.0000000E+00   1.5658106E-05  -7.1661553E-04   0.0000000E+00   1.2797586E-05  -7.2103215E-04   0.0000000E+00   1.0622118E-05  -7.2424312E-04   0.0000000E+00   8.9999594E-06  -7.2642643E-04   0.0000000E+00   7.8681314E-06  -7.2769471E-04   0.0000000E+00   7.1974982E-06  -1.0071989E-03   0.0000000E+00   4.7794703E-05  -1.0241736E-03   0.0000000E+00   3.7208123E-05  -1.0372949E-03   0.0000000E+00   2.9275670E-05  -1.0473487E-03   0.0000000E+00   2.3531968E-05  -1.0550295E-03   0.0000000E+00   1.9267547E-05  -1.0608180E-03   0.0000000E+00   1.6040223E-05  -1.0650430E-03   0.0000000E+00   1.3630909E-05  -1.0679261E-03   0.0000000E+00   1.1943542E-05  -1.0696047E-03   0.0000000E+00   1.0939965E-05  -1.4762820E-03   0.0000000E+00   7.1792361E-05  -1.4976424E-03   0.0000000E+00   5.5561810E-05  -1.5142271E-03   0.0000000E+00   4.3626886E-05  -1.5270045E-03   0.0000000E+00   3.5118937E-05  -1.5368140E-03   0.0000000E+00   2.8836976E-05  -1.5442362E-03   0.0000000E+00   2.4067374E-05  -1.5496681E-03   0.0000000E+00   2.0480691E-05  -1.5533802E-03   0.0000000E+00   1.7950153E-05  -1.5555433E-03   0.0000000E+00   1.6436859E-05  -2.1404803E-03   0.0000000E+00   1.0648466E-04  -2.1666242E-03   0.0000000E+00   8.2217011E-05  -2.1871382E-03   0.0000000E+00   6.4653352E-05  -2.2030666E-03   0.0000000E+00   5.2242143E-05  -2.2153568E-03   0.0000000E+00   4.3038603E-05  -2.2246731E-03   0.0000000E+00   3.5964116E-05  -2.2314896E-03   0.0000000E+00   3.0573025E-05  -2.2361451E-03   0.0000000E+00   2.6729953E-05  -2.2388569E-03   0.0000000E+00   2.4416770E-05  -3.0693344E-03   0.0000000E+00   1.5658740E-04  -3.1003708E-03   0.0000000E+00   1.2108325E-04  -3.1251914E-03   0.0000000E+00   9.5680480E-05  -3.1446731E-03   0.0000000E+00   7.7730132E-05  -3.1597514E-03   0.0000000E+00   6.4215965E-05  -3.1711569E-03   0.0000000E+00   5.3611566E-05  -3.1794717E-03   0.0000000E+00   4.5388530E-05  -3.1851314E-03   0.0000000E+00   3.9459959E-05  -3.1884185E-03   0.0000000E+00   3.5869281E-05  -4.3513672E-03   0.0000000E+00   2.2937874E-04  -4.3868665E-03   0.0000000E+00   1.7827257E-04  -4.4161552E-03   0.0000000E+00   1.4189957E-04  -4.4394243E-03   0.0000000E+00   1.1592905E-04  -4.4574067E-03   0.0000000E+00   9.5885407E-05  -4.4708918E-03   0.0000000E+00   7.9754580E-05  -4.4806353E-03   0.0000000E+00   6.7021960E-05  -4.4872207E-03   0.0000000E+00   5.7751553E-05  -4.4910321E-03   0.0000000E+00   5.2112347E-05  -6.0972366E-03   0.0000000E+00   3.3646793E-04  -6.1358316E-03   0.0000000E+00   2.6341109E-04  -6.1692405E-03   0.0000000E+00   2.1130052E-04  -6.1960872E-03   0.0000000E+00   1.7333339E-04  -6.2166112E-03   0.0000000E+00   1.4313596E-04  -6.2317052E-03   0.0000000E+00   1.1824629E-04  -6.2424107E-03   0.0000000E+00   9.8327735E-05  -6.2495689E-03   0.0000000E+00   8.3738443E-05  -6.2536891E-03   0.0000000E+00   7.4848991E-05  -8.4408289E-03   0.0000000E+00   4.9671094E-04  -8.4794862E-03   0.0000000E+00   3.9145519E-04  -8.5155861E-03   0.0000000E+00   3.1575223E-04  -8.5448455E-03   0.0000000E+00   2.5921309E-04  -8.5666263E-03   0.0000000E+00   2.1297474E-04  -8.5820248E-03   0.0000000E+00   1.7421495E-04  -8.5925702E-03   0.0000000E+00   1.4300032E-04  -8.5994722E-03   0.0000000E+00   1.2011491E-04  -8.6034145E-03   0.0000000E+00   1.0618756E-04  -1.1530869E-02   0.0000000E+00   7.4060768E-04  -1.1563356E-02   0.0000000E+00   5.8497058E-04  -1.1598527E-02   0.0000000E+00   4.7198744E-04  -1.1627262E-02   0.0000000E+00   3.8595719E-04  -1.1647501E-02   0.0000000E+00   3.1442076E-04  -1.1660664E-02   0.0000000E+00   2.5407251E-04  -1.1668990E-02   0.0000000E+00   2.0553019E-04  -1.1674176E-02   0.0000000E+00   1.7008344E-04  -1.1677097E-02   0.0000000E+00   1.4859201E-04  -1.5499411E-02   0.0000000E+00   1.1167509E-03  -1.5513615E-02   0.0000000E+00   8.7664759E-04  -1.5539957E-02   0.0000000E+00   7.0210197E-04  -1.5562098E-02   0.0000000E+00   5.6880823E-04  -1.5575754E-02   0.0000000E+00   4.5808713E-04  -1.5582558E-02   0.0000000E+00   3.6517199E-04  -1.5585532E-02   0.0000000E+00   2.9098263E-04  -1.5586865E-02   0.0000000E+00   2.3718682E-04  -1.5587542E-02   0.0000000E+00   2.0474206E-04  -2.0394713E-02   0.0000000E+00   1.7022884E-03  -2.0368317E-02   0.0000000E+00   1.3127081E-03  -2.0370491E-02   0.0000000E+00   1.0334111E-03  -2.0374941E-02   0.0000000E+00   8.2464423E-04  -2.0373758E-02   0.0000000E+00   6.5501395E-04  -2.0368205E-02   0.0000000E+00   5.1498885E-04  -2.0361656E-02   0.0000000E+00   4.0446050E-04  -2.0356422E-02   0.0000000E+00   3.2498184E-04  -2.0353349E-02   0.0000000E+00   2.7729952E-04  -2.6081678E-02   0.0000000E+00   2.6228609E-03  -2.5978269E-02   0.0000000E+00   1.9603455E-03  -2.5929870E-02   0.0000000E+00   1.4991683E-03  -2.5898326E-02   0.0000000E+00   1.1703304E-03  -2.5869882E-02   0.0000000E+00   9.1475627E-04  -2.5843799E-02   0.0000000E+00   7.0967217E-04  -2.5822535E-02   0.0000000E+00   5.5020547E-04  -2.5807634E-02   0.0000000E+00   4.3644008E-04  -2.5799142E-02   0.0000000E+00   3.6850129E-04  -3.2133017E-02   0.0000000E+00   4.0886286E-03  -3.1905558E-02   0.0000000E+00   2.9258926E-03  -3.1769015E-02   0.0000000E+00   2.1445518E-03  -3.1675160E-02   0.0000000E+00   1.6229548E-03  -3.1602599E-02   0.0000000E+00   1.2439449E-03  -3.1545736E-02   0.0000000E+00   9.5249829E-04  -3.1503759E-02   0.0000000E+00   7.3035277E-04  -3.1475797E-02   0.0000000E+00   5.7310075E-04  -3.1460177E-02   0.0000000E+00   4.7946841E-04  -3.7744738E-02   0.0000000E+00   6.4368458E-03  -3.7351791E-02   0.0000000E+00   4.3824352E-03  -3.7088428E-02   0.0000000E+00   3.0409121E-03  -3.6903080E-02   0.0000000E+00   2.2050354E-03  -3.6767572E-02   0.0000000E+00   1.6472645E-03  -3.6669049E-02   0.0000000E+00   1.2434806E-03  -3.6600370E-02   0.0000000E+00   9.4418414E-04  -3.6556214E-02   0.0000000E+00   7.3421712E-04  -3.6531959E-02   0.0000000E+00   6.0940621E-04  -4.1704696E-02   0.0000000E+00   1.0139416E-02  -4.1137308E-02   0.0000000E+00   6.5848189E-03  -4.0727980E-02   0.0000000E+00   4.2986358E-03  -4.0432915E-02   0.0000000E+00   2.9526956E-03  -4.0221773E-02   0.0000000E+00   2.1311848E-03  -4.0074553E-02   0.0000000E+00   1.5805992E-03  -3.9975859E-02   0.0000000E+00   1.1883433E-03  -3.9914005E-02   0.0000000E+00   9.1649673E-04  -3.9880451E-02   0.0000000E+00   7.5508741E-04  -4.2470429E-02   0.0000000E+00   1.5726412E-02  -4.1775413E-02   0.0000000E+00   9.8374961E-03  -4.1242413E-02   0.0000000E+00   6.0595749E-03  -4.0847737E-02   0.0000000E+00   3.9175274E-03  -4.0566325E-02   0.0000000E+00   2.7073561E-03  -4.0374208E-02   0.0000000E+00   1.9619996E-03  -4.0248536E-02   0.0000000E+00   1.4578606E-03  -4.0171251E-02   0.0000000E+00   1.1145481E-03  -4.0129770E-02   0.0000000E+00   9.1099308E-04  -3.8457830E-02   0.0000000E+00   2.3603806E-02  -3.7742384E-02   0.0000000E+00   1.4394502E-02  -3.7158616E-02   0.0000000E+00   8.4532937E-03  -3.6713097E-02   0.0000000E+00   5.1526478E-03  -3.6393244E-02   0.0000000E+00   3.3906342E-03  -3.6176428E-02   0.0000000E+00   2.3871954E-03  -3.6036514E-02   0.0000000E+00   1.7475137E-03  -3.5951458E-02   0.0000000E+00   1.3219527E-03  -3.5906110E-02   0.0000000E+00   1.0702960E-03  -2.8561829E-02   0.0000000E+00   3.3826575E-02  -2.7971191E-02   0.0000000E+00   2.0315992E-02  -2.7448744E-02   0.0000000E+00   1.1523354E-02  -2.7034163E-02   0.0000000E+00   6.6816206E-03  -2.6732083E-02   0.0000000E+00   4.1891439E-03  -2.6526939E-02   0.0000000E+00   2.8553999E-03  -2.6395233E-02   0.0000000E+00   2.0525639E-03  -2.6315721E-02   0.0000000E+00   1.5325848E-03  -2.6273523E-02   0.0000000E+00   1.2264076E-03  -1.2766538E-02   0.0000000E+00   4.5918718E-02  -1.2436679E-02   0.0000000E+00   2.7348148E-02  -1.2092779E-02   0.0000000E+00   1.5159246E-02  -1.1800230E-02   0.0000000E+00   8.4640058E-03  -1.1581164E-02   0.0000000E+00   5.0894148E-03  -1.1431171E-02   0.0000000E+00   3.3606237E-03  -1.1335077E-02   0.0000000E+00   2.3681789E-03  -1.1277405E-02   0.0000000E+00   1.7416895E-03  -1.1246959E-02   0.0000000E+00   1.3746788E-03   7.3596076E-03   0.0000000E+00   5.8873847E-02   7.3584071E-03   0.0000000E+00   3.4911431E-02   7.4479613E-03   0.0000000E+00   1.9079229E-02   7.5531956E-03   0.0000000E+00   1.0380719E-02   7.6394742E-03   0.0000000E+00   6.0463557E-03   7.6995580E-03   0.0000000E+00   3.8862864E-03   7.7373637E-03   0.0000000E+00   2.6874992E-03   7.7593150E-03   0.0000000E+00   1.9458935E-03   7.7705667E-03   0.0000000E+00   1.5133271E-03   2.8579941E-02   0.0000000E+00   7.1390525E-02   2.8276781E-02   0.0000000E+00   4.2242259E-02   2.8110851E-02   0.0000000E+00   2.2896709E-02   2.8016739E-02   0.0000000E+00   1.2258484E-02   2.7957132E-02   0.0000000E+00   6.9892425E-03   2.7916718E-02   0.0000000E+00   4.4048508E-03   2.7888875E-02   0.0000000E+00   3.0000946E-03   2.7870590E-02   0.0000000E+00   2.1420785E-03   2.7860248E-02   0.0000000E+00   1.6427557E-03   4.6716008E-02   0.0000000E+00   8.2285278E-02   4.6214517E-02   0.0000000E+00   4.8633069E-02   4.5857839E-02   0.0000000E+00   2.6245488E-02   4.5604166E-02   0.0000000E+00   1.3926910E-02   4.5424026E-02   0.0000000E+00   7.8439415E-03   4.5299586E-02   0.0000000E+00   4.8847855E-03   4.5216937E-02   0.0000000E+00   3.2930113E-03   4.5165338E-02   0.0000000E+00   2.3261970E-03   4.5137256E-02   0.0000000E+00   1.7635055E-03   5.8288142E-02   0.0000000E+00   9.0816051E-02   5.7700552E-02   0.0000000E+00   5.3636853E-02   5.7239372E-02   0.0000000E+00   2.8888306E-02   5.6889139E-02   0.0000000E+00   1.5269666E-02   5.6633394E-02   0.0000000E+00   8.5546421E-03   5.6455784E-02   0.0000000E+00   5.2986005E-03   5.6338612E-02   0.0000000E+00   3.5525903E-03   5.6266330E-02   0.0000000E+00   2.4923082E-03   5.6227595E-02   0.0000000E+00   1.8740003E-03   6.2154230E-02   0.0000000E+00   9.6789151E-02   6.1558217E-02   0.0000000E+00   5.7137016E-02   6.1063625E-02   0.0000000E+00   3.0756291E-02   6.0675208E-02   0.0000000E+00   1.6244825E-02   6.0387697E-02   0.0000000E+00   9.0940753E-03   6.0187273E-02   0.0000000E+00   5.6277304E-03   6.0055446E-02   0.0000000E+00   3.7663977E-03   5.9974700E-02   0.0000000E+00   2.6325965E-03   5.9931688E-02   0.0000000E+00   1.9694888E-03   5.9749339E-02   0.0000000E+00   1.0044007E-01   5.9185091E-02   0.0000000E+00   5.9275430E-02   5.8702402E-02   0.0000000E+00   3.1914368E-02   5.8316726E-02   0.0000000E+00   1.6871976E-02   5.8029108E-02   0.0000000E+00   9.4606737E-03   5.7828028E-02   0.0000000E+00   5.8635706E-03   5.7695899E-02   0.0000000E+00   3.9252602E-03   5.7615370E-02   0.0000000E+00   2.7394358E-03   5.7572804E-02   0.0000000E+00   2.0438479E-03   5.3908981E-02   0.0000000E+00   1.0219317E-01   5.3390838E-02   0.0000000E+00   6.0304388E-02   5.2941680E-02   0.0000000E+00   3.2485876E-02   5.2580118E-02   0.0000000E+00   1.7199634E-02   5.2309349E-02   0.0000000E+00   9.6673286E-03   5.2119538E-02   0.0000000E+00   6.0051992E-03   5.1994838E-02   0.0000000E+00   4.0242686E-03   5.1919173E-02   0.0000000E+00   2.8074221E-03   5.1879387E-02   0.0000000E+00   2.0919109E-03   4.7359269E-02   0.0000000E+00   1.0244268E-01   4.6885900E-02   0.0000000E+00   6.0453411E-02   4.6474293E-02   0.0000000E+00   3.2583982E-02   4.6142332E-02   0.0000000E+00   1.7275058E-02   4.5892954E-02   0.0000000E+00   9.7300466E-03   4.5717645E-02   0.0000000E+00   6.0561174E-03   4.5602359E-02   0.0000000E+00   4.0626554E-03   4.5532547E-02   0.0000000E+00   2.8343936E-03   4.5495976E-02   0.0000000E+00   2.1109853E-03   4.1678645E-02   0.0000000E+00   1.0143988E-01   4.1238673E-02   0.0000000E+00   5.9864882E-02   4.0856197E-02   0.0000000E+00   3.2279316E-02   4.0547732E-02   0.0000000E+00   1.7129850E-02   4.0315598E-02   0.0000000E+00   9.6622556E-03   4.0151887E-02   0.0000000E+00   6.0222484E-03   4.0043913E-02   0.0000000E+00   4.0432680E-03   3.9978243E-02   0.0000000E+00   2.8216755E-03   3.9943725E-02   0.0000000E+00   2.1015280E-03   3.7067458E-02   0.0000000E+00   9.9297717E-02   3.6639880E-02   0.0000000E+00   5.8600757E-02   3.6268886E-02   0.0000000E+00   3.1604193E-02   3.5970528E-02   0.0000000E+00   1.6781408E-02   3.5746068E-02   0.0000000E+00   9.4748298E-03   3.5587389E-02   0.0000000E+00   5.9114634E-03   3.5482015E-02   0.0000000E+00   3.9720936E-03   3.5417303E-02   0.0000000E+00   2.7738372E-03   3.5382904E-02   0.0000000E+00   2.0671645E-03   3.2812085E-02   0.0000000E+00   9.6063279E-02   3.2366671E-02   0.0000000E+00   5.6686882E-02   3.1983968E-02   0.0000000E+00   3.0574726E-02   3.1678818E-02   0.0000000E+00   1.6242458E-02   3.1450365E-02   0.0000000E+00   9.1791088E-03   3.1288747E-02   0.0000000E+00   5.7338113E-03   3.1180713E-02   0.0000000E+00   3.8577074E-03   3.1113541E-02   0.0000000E+00   2.6980762E-03   3.1077353E-02   0.0000000E+00   2.0141420E-03   2.8038263E-02   0.0000000E+00   9.1794409E-02   2.7540218E-02   0.0000000E+00   5.4157976E-02   2.7122436E-02   0.0000000E+00   2.9213564E-02   2.6795527E-02   0.0000000E+00   1.5530073E-02   2.6553731E-02   0.0000000E+00   8.7893987E-03   2.6383439E-02   0.0000000E+00   5.5015991E-03   2.6269253E-02   0.0000000E+00   3.7105982E-03   2.6197603E-02   0.0000000E+00   2.6033313E-03   2.6158584E-02   0.0000000E+00   1.9504082E-03   2.2301564E-02   0.0000000E+00   8.6605877E-02   2.1720197E-02   0.0000000E+00   5.1085256E-02   2.1252383E-02   0.0000000E+00   2.7563216E-02   2.0898079E-02   0.0000000E+00   1.4671017E-02   2.0641899E-02   0.0000000E+00   8.3244285E-03   2.0463727E-02   0.0000000E+00   5.2291784E-03   2.0344645E-02   0.0000000E+00   3.5422603E-03   2.0269714E-02   0.0000000E+00   2.4991205E-03   2.0228678E-02   0.0000000E+00   1.8842602E-03   1.5785689E-02   0.0000000E+00   8.0684721E-02   1.5104152E-02   0.0000000E+00   4.7585372E-02   1.4587538E-02   0.0000000E+00   2.5690679E-02   1.4215040E-02   0.0000000E+00   1.3703369E-02   1.3955599E-02   0.0000000E+00   7.8073097E-03   1.3779565E-02   0.0000000E+00   4.9320539E-03   1.3663435E-02   0.0000000E+00   3.3639269E-03   1.3590774E-02   0.0000000E+00   2.3939507E-03   1.3551048E-02   0.0000000E+00   1.8225792E-03   9.1537405E-03   0.0000000E+00   7.4284941E-02   8.3693787E-03   0.0000000E+00   4.3816954E-02   7.8183804E-03   0.0000000E+00   2.3685399E-02   7.4477158E-03   0.0000000E+00   1.2675046E-02   7.2040590E-03   0.0000000E+00   7.2641051E-03   7.0456690E-03   0.0000000E+00   4.6253940E-03   6.9440147E-03   0.0000000E+00   3.1849353E-03   6.8814247E-03   0.0000000E+00   2.2936151E-03   6.8475334E-03   0.0000000E+00   1.7690345E-03   3.1898068E-03   0.0000000E+00   6.7705669E-02   2.2946752E-03   0.0000000E+00   3.9969530E-02   1.7168071E-03   0.0000000E+00   2.1653799E-02   1.3609587E-03   0.0000000E+00   1.1641133E-02   1.1456793E-03   0.0000000E+00   6.7222985E-03   1.0147785E-03   0.0000000E+00   4.3229838E-03   9.3430461E-04   0.0000000E+00   3.0120728E-03   8.8592607E-04   0.0000000E+00   2.2008549E-03   8.6010405E-04   0.0000000E+00   1.7240008E-03  -1.5450435E-03   0.0000000E+00   6.1266303E-02  -2.5846430E-03   0.0000000E+00   3.6249697E-02  -3.2095797E-03   0.0000000E+00   1.9713828E-02  -3.5622052E-03   0.0000000E+00   1.0662091E-02  -3.7566028E-03   0.0000000E+00   6.2103872E-03  -3.8657733E-03   0.0000000E+00   4.0375022E-03  -3.9298916E-03   0.0000000E+00   2.8504191E-03  -3.9679278E-03   0.0000000E+00   2.1168008E-03  -3.9882241E-03   0.0000000E+00   1.6864926E-03  -4.8499438E-03   0.0000000E+00   5.5275958E-02  -6.0848095E-03   0.0000000E+00   3.2865830E-02  -6.8068807E-03   0.0000000E+00   1.7988486E-02  -7.1957908E-03   0.0000000E+00   9.8025901E-03  -7.3988927E-03   0.0000000E+00   5.7585891E-03  -7.5079068E-03   0.0000000E+00   3.7813589E-03  -7.5709154E-03   0.0000000E+00   2.7040907E-03  -7.6088854E-03   0.0000000E+00   2.0417962E-03  -7.6296921E-03   0.0000000E+00   1.6551424E-03  -6.8281111E-03   0.0000000E+00   4.9983412E-02  -8.2827825E-03   0.0000000E+00   3.0006478E-02  -9.1654006E-03   0.0000000E+00   1.6597129E-02  -9.6485624E-03   0.0000000E+00   9.1287820E-03  -9.9048754E-03   0.0000000E+00   5.3986683E-03  -1.0044759E-02   0.0000000E+00   3.5670344E-03  -1.0126884E-02   0.0000000E+00   2.5763141E-03  -1.0177176E-02   0.0000000E+00   1.9754453E-03  -1.0205261E-02   0.0000000E+00   1.6283549E-03  -7.7211005E-03   0.0000000E+00   4.5534387E-02  -9.3587348E-03   0.0000000E+00   2.7801828E-02  -1.0450653E-02   0.0000000E+00   1.5643558E-02  -1.1093210E-02   0.0000000E+00   8.7053692E-03  -1.1455498E-02   0.0000000E+00   5.1649921E-03  -1.1662246E-02   0.0000000E+00   3.4091440E-03  -1.1785408E-02   0.0000000E+00   2.4711832E-03  -1.1860287E-02   0.0000000E+00   1.9173340E-03  -1.1901729E-02   0.0000000E+00   1.6042771E-03  -7.7526341E-03   0.0000000E+00   4.1951276E-02  -9.4636651E-03   0.0000000E+00   2.6295565E-02  -1.0776584E-02   0.0000000E+00   1.5201600E-02  -1.1645021E-02   0.0000000E+00   8.5936571E-03  -1.2174740E-02   0.0000000E+00   5.0987005E-03  -1.2492211E-02   0.0000000E+00   3.3300102E-03  -1.2682932E-02   0.0000000E+00   2.3977265E-03  -1.2796497E-02   0.0000000E+00   1.8689873E-03  -1.2857811E-02   0.0000000E+00   1.5811067E-03  -7.0616589E-03   0.0000000E+00   3.9135695E-02  -8.6769965E-03   0.0000000E+00   2.5431687E-02  -1.0158764E-02   0.0000000E+00   1.5285165E-02  -1.1305558E-02   0.0000000E+00   8.8471975E-03  -1.2078448E-02   0.0000000E+00   5.2509159E-03  -1.2569064E-02   0.0000000E+00   3.3665325E-03  -1.2869582E-02   0.0000000E+00   2.3766891E-03  -1.3046190E-02   0.0000000E+00   1.8388113E-03  -1.3139140E-02   0.0000000E+00   1.5602179E-03  -5.7136132E-03   0.0000000E+00   3.6903728E-02  -7.0311353E-03   0.0000000E+00   2.5060156E-02  -8.5560977E-03   0.0000000E+00   1.5820531E-02  -9.9707358E-03   0.0000000E+00   9.4952071E-03  -1.1064498E-02   0.0000000E+00   5.6798258E-03  -1.1814580E-02   0.0000000E+00   3.5736756E-03  -1.2295119E-02   0.0000000E+00   2.4480685E-03  -1.2582326E-02   0.0000000E+00   1.8508756E-03  -1.2732929E-02   0.0000000E+00   1.5546640E-03  -3.8121694E-03   0.0000000E+00   3.5029914E-02  -4.6336288E-03   0.0000000E+00   2.4950352E-02  -5.9936075E-03   0.0000000E+00   1.6642006E-02  -7.5412388E-03   0.0000000E+00   1.0490431E-02  -8.9485683E-03   0.0000000E+00   6.4348695E-03  -1.0036113E-02   0.0000000E+00   4.0211836E-03  -1.0783977E-02   0.0000000E+00   2.6750730E-03  -1.1251858E-02   0.0000000E+00   1.9540680E-03  -1.1503647E-02   0.0000000E+00   1.6012399E-03  -1.5328981E-03   0.0000000E+00   3.3335105E-02  -1.7310664E-03   0.0000000E+00   2.4843412E-02  -2.6811257E-03   0.0000000E+00   1.7507793E-02  -4.1043940E-03   0.0000000E+00   1.1679725E-02  -5.6371489E-03   0.0000000E+00   7.4939937E-03  -6.9971378E-03   0.0000000E+00   4.7720219E-03  -8.0432417E-03   0.0000000E+00   3.1405361E-03  -8.7474762E-03   0.0000000E+00   2.2263278E-03  -9.1425795E-03   0.0000000E+00   1.7693740E-03   9.9631341E-04   0.0000000E+00   3.1833738E-02   1.3262578E-03   0.0000000E+00   2.4550347E-02   9.8782789E-04   0.0000000E+00   1.8170584E-02  -2.3513517E-06   0.0000000E+00   1.2837002E-02  -1.3361815E-03   0.0000000E+00   8.7179001E-03  -2.6977141E-03   0.0000000E+00   5.8063450E-03  -3.8692555E-03   0.0000000E+00   3.9095711E-03  -4.7395737E-03   0.0000000E+00   2.7636869E-03  -5.2650236E-03   0.0000000E+00   2.1600414E-03   4.1501895E-03   0.0000000E+00   3.0760575E-02   4.3634796E-03   0.0000000E+00   2.4134073E-02   4.5441566E-03   0.0000000E+00   1.8510690E-02   4.2362791E-03   0.0000000E+00   1.3753357E-02   3.4568112E-03   0.0000000E+00   9.9068489E-03   2.4489546E-03   0.0000000E+00   6.9986568E-03   1.4534489E-03   0.0000000E+00   4.9533695E-03   6.3650153E-04   0.0000000E+00   3.6204800E-03   1.0661240E-04   0.0000000E+00   2.8712919E-03   9.2164082E-03   0.0000000E+00   3.0134747E-02   8.1686340E-03   0.0000000E+00   2.3857646E-02   7.9581533E-03   0.0000000E+00   1.8702943E-02   8.0813700E-03   0.0000000E+00   1.4410952E-02   8.0171097E-03   0.0000000E+00   1.0930235E-02   7.6732743E-03   0.0000000E+00   8.1999218E-03   7.1591046E-03   0.0000000E+00   6.1677508E-03   6.6437824E-03   0.0000000E+00   4.7587133E-03   6.2730429E-03   0.0000000E+00   3.9221109E-03   1.6271330E-02   0.0000000E+00   2.9926926E-02   1.4298577E-02   0.0000000E+00   2.3900192E-02   1.2749846E-02   0.0000000E+00   1.8988427E-02   1.2046445E-02   0.0000000E+00   1.5049339E-02   1.1997947E-02   0.0000000E+00   1.1878335E-02   1.2164508E-02   0.0000000E+00   9.3687754E-03   1.2252354E-02   0.0000000E+00   7.4550044E-03   1.2217114E-02   0.0000000E+00   6.0795848E-03   1.2140160E-02   0.0000000E+00   5.2320110E-03   2.1135362E-02   0.0000000E+00   3.0322893E-02   2.0990659E-02   0.0000000E+00   2.4510099E-02   1.9817367E-02   0.0000000E+00   1.9662773E-02   1.8261148E-02   0.0000000E+00   1.5859295E-02   1.7183846E-02   0.0000000E+00   1.2882188E-02   1.6779047E-02   0.0000000E+00   1.0559349E-02   1.6782720E-02   0.0000000E+00   8.7799858E-03   1.6911225E-02   0.0000000E+00   7.4820044E-03   1.7015204E-02   0.0000000E+00   6.6685178E-03   2.2533344E-02   0.0000000E+00   2.6014870E-02   2.4672300E-02   0.0000000E+00   2.1085359E-02   2.5166752E-02   0.0000000E+00   1.7246982E-02   2.4619922E-02   0.0000000E+00   1.4195253E-02   2.3865890E-02   0.0000000E+00   1.1842903E-02   2.3443123E-02   0.0000000E+00   1.0098028E-02   2.3358103E-02   0.0000000E+00   8.8619227E-03   2.3401527E-02   0.0000000E+00   8.0955932E-03   2.4949906E-02   0.0000000E+00   1.9776080E-02   2.8102549E-02   0.0000000E+00   1.6270204E-02   2.9880920E-02   0.0000000E+00   1.3483860E-02   3.1040115E-02   0.0000000E+00   1.1467319E-02   3.1889498E-02   0.0000000E+00   1.0166258E-02   3.2431263E-02   0.0000000E+00   9.4143823E-03   2.4499221E-02   0.0000000E+00   1.5936494E-02   2.8205695E-02   0.0000000E+00   1.3026346E-02   3.0924367E-02   0.0000000E+00   1.1386621E-02   3.2546725E-02   0.0000000E+00   1.0568004E-02  -7.3673368E-07   0.0000000E+00   3.4713379E-09  -7.3589194E-07   0.0000000E+00   3.6440451E-09  -7.3328977E-07   0.0000000E+00   4.1604307E-09  -7.2869290E-07   0.0000000E+00   5.0134488E-09  -7.2170724E-07   0.0000000E+00   6.1852554E-09  -7.1177061E-07   0.0000000E+00   7.6384294E-09  -6.9815394E-07   0.0000000E+00   9.3052961E-09  -6.7995967E-07   0.0000000E+00   1.1075007E-08  -1.3560406E-06   0.0000000E+00   7.1020656E-09  -1.3545100E-06   0.0000000E+00   7.4382314E-09  -1.3497851E-06   0.0000000E+00   8.4436325E-09  -1.3414564E-06   0.0000000E+00   1.0105727E-08  -1.3288333E-06   0.0000000E+00   1.2392147E-08  -1.3109217E-06   0.0000000E+00   1.5233287E-08  -1.2864172E-06   0.0000000E+00   1.8500520E-08  -1.2537012E-06   0.0000000E+00   2.1981364E-08  -2.4386504E-06   0.0000000E+00   1.3936137E-08  -2.4359581E-06   0.0000000E+00   1.4564050E-08  -2.4276508E-06   0.0000000E+00   1.6443854E-08  -2.4130350E-06   0.0000000E+00   1.9557557E-08  -2.3909181E-06   0.0000000E+00   2.3852415E-08  -2.3595758E-06   0.0000000E+00   2.9205854E-08  -2.3167277E-06   0.0000000E+00   3.5382666E-08  -2.2595225E-06   0.0000000E+00   4.1989178E-08  -4.2981387E-06   0.0000000E+00   2.6424795E-08  -4.2935358E-06   0.0000000E+00   2.7562423E-08  -4.2793527E-06   0.0000000E+00   3.0973801E-08  -4.2544129E-06   0.0000000E+00   3.6641143E-08  -4.2167057E-06   0.0000000E+00   4.4486768E-08  -4.1633011E-06   0.0000000E+00   5.4303126E-08  -4.0902887E-06   0.0000000E+00   6.5671450E-08  -3.9927477E-06   0.0000000E+00   7.7880671E-08  -7.4311115E-06   0.0000000E+00   4.8620983E-08  -7.4234617E-06   0.0000000E+00   5.0633815E-08  -7.3998876E-06   0.0000000E+00   5.6681490E-08  -7.3584515E-06   0.0000000E+00   6.6762659E-08  -7.2958187E-06   0.0000000E+00   8.0774960E-08  -7.2071180E-06   0.0000000E+00   9.8378187E-08  -7.0857923E-06   0.0000000E+00   1.1884485E-07  -6.9235311E-06   0.0000000E+00   1.4092183E-07  -1.2610546E-05   0.0000000E+00   8.7052470E-08  -1.2598145E-05   0.0000000E+00   9.0543402E-08  -1.2559932E-05   0.0000000E+00   1.0105187E-07  -1.2492784E-05   0.0000000E+00   1.1862658E-07  -1.2391293E-05   0.0000000E+00   1.4315206E-07  -1.2247530E-05   0.0000000E+00   1.7409054E-07  -1.2050768E-05   0.0000000E+00   2.1021573E-07  -1.1787270E-05   0.0000000E+00   2.4938896E-07  -2.1021380E-05   0.0000000E+00   1.5201704E-07  -2.1001713E-05   0.0000000E+00   1.5796095E-07  -2.0941134E-05   0.0000000E+00   1.7588202E-07  -2.0834705E-05   0.0000000E+00   2.0593983E-07  -2.0673897E-05   0.0000000E+00   2.4804049E-07  -2.0446121E-05   0.0000000E+00   3.0137880E-07  -2.0134235E-05   0.0000000E+00   3.6398686E-07  -1.9716068E-05   0.0000000E+00   4.3240178E-07  -3.4454584E-05   0.0000000E+00   2.5952454E-07  -3.4423974E-05   0.0000000E+00   2.6946282E-07  -3.4329707E-05   0.0000000E+00   2.9946392E-07  -3.4164255E-05   0.0000000E+00   3.4989984E-07  -3.3914483E-05   0.0000000E+00   4.2078753E-07  -3.3560951E-05   0.0000000E+00   5.1103802E-07  -3.3076925E-05   0.0000000E+00   6.1774944E-07  -3.2427524E-05   0.0000000E+00   7.3578263E-07  -5.5579982E-05   0.0000000E+00   4.3423233E-07  -5.5533088E-05   0.0000000E+00   4.5054327E-07  -5.5388795E-05   0.0000000E+00   4.9982413E-07  -5.5135915E-05   0.0000000E+00   5.8283024E-07  -5.4754819E-05   0.0000000E+00   6.9990136E-07  -5.4216285E-05   0.0000000E+00   8.4985084E-07  -5.3479816E-05   0.0000000E+00   1.0289709E-06  -5.2491931E-05   0.0000000E+00   1.2308424E-06  -8.8317975E-05   0.0000000E+00   7.1384312E-07  -8.8247209E-05   0.0000000E+00   7.4010779E-07  -8.8029701E-05   0.0000000E+00   8.1950833E-07  -8.7649314E-05   0.0000000E+00   9.5346400E-07  -8.7077620E-05   0.0000000E+00   1.1431000E-06  -8.6271975E-05   0.0000000E+00   1.3877802E-06  -8.5172687E-05   0.0000000E+00   1.6841724E-06  -8.3699982E-05   0.0000000E+00   2.0269226E-06  -1.3833006E-04   0.0000000E+00   1.1555377E-06  -1.3822486E-04   0.0000000E+00   1.1970334E-06  -1.3790224E-04   0.0000000E+00   1.3225217E-06  -1.3733951E-04   0.0000000E+00   1.5345317E-06  -1.3649682E-04   0.0000000E+00   1.8358346E-06  -1.3531379E-04   0.0000000E+00   2.2280062E-06  -1.3370477E-04   0.0000000E+00   2.7113426E-06  -1.3155458E-04   0.0000000E+00   3.2876128E-06  -2.1366151E-04   0.0000000E+00   1.8450702E-06  -2.1350798E-04   0.0000000E+00   1.9094543E-06  -2.1303793E-04   0.0000000E+00   2.1041783E-06  -2.1222085E-04   0.0000000E+00   2.4335100E-06  -2.1100261E-04   0.0000000E+00   2.9033422E-06  -2.0930011E-04   0.0000000E+00   3.5207449E-06  -2.0699453E-04   0.0000000E+00   4.2962388E-06  -2.0392363E-04   0.0000000E+00   5.2508203E-06  -3.2560027E-04   0.0000000E+00   2.9091634E-06  -3.2538082E-04   0.0000000E+00   3.0074841E-06  -3.2471033E-04   0.0000000E+00   3.3047609E-06  -3.2354885E-04   0.0000000E+00   3.8077594E-06  -3.2182521E-04   0.0000000E+00   4.5276911E-06  -3.1942929E-04   0.0000000E+00   5.4824709E-06  -3.1620063E-04   0.0000000E+00   6.7041556E-06  -3.1191652E-04   0.0000000E+00   8.2538227E-06  -4.8984832E-04   0.0000000E+00   4.5318079E-06  -4.8954232E-04   0.0000000E+00   4.6801374E-06  -4.8860820E-04   0.0000000E+00   5.1282555E-06  -4.8699573E-04   0.0000000E+00   5.8860519E-06  -4.8461434E-04   0.0000000E+00   6.9727007E-06  -4.8132165E-04   0.0000000E+00   8.4244066E-06  -4.7690800E-04   0.0000000E+00   1.0311731E-05  -4.7107635E-04   0.0000000E+00   1.2768612E-05  -7.2811107E-04   0.0000000E+00   6.9751968E-06  -7.2769466E-04   0.0000000E+00   7.1975028E-06  -7.2642602E-04   0.0000000E+00   7.8681369E-06  -7.2424294E-04   0.0000000E+00   8.9999676E-06  -7.2103221E-04   0.0000000E+00   1.0622123E-05  -7.1661570E-04   0.0000000E+00   1.2797594E-05  -7.1072625E-04   0.0000000E+00   1.5658105E-05  -7.0297957E-04   0.0000000E+00   1.9458586E-05  -1.0701561E-03   0.0000000E+00   1.0606560E-05  -1.0696049E-03   0.0000000E+00   1.0939972E-05  -1.0679261E-03   0.0000000E+00   1.1943553E-05  -1.0650430E-03   0.0000000E+00   1.3630920E-05  -1.0608181E-03   0.0000000E+00   1.6040234E-05  -1.0550293E-03   0.0000000E+00   1.9267560E-05  -1.0473488E-03   0.0000000E+00   2.3531975E-05  -1.0372946E-03   0.0000000E+00   2.9275681E-05  -1.5562543E-03   0.0000000E+00   1.5932716E-05  -1.5555429E-03   0.0000000E+00   1.6436867E-05  -1.5533805E-03   0.0000000E+00   1.7950171E-05  -1.5496684E-03   0.0000000E+00   2.0480707E-05  -1.5442366E-03   0.0000000E+00   2.4067383E-05  -1.5368140E-03   0.0000000E+00   2.8836981E-05  -1.5270035E-03   0.0000000E+00   3.5118930E-05  -1.5142270E-03   0.0000000E+00   4.3626900E-05  -2.2397474E-03   0.0000000E+00   2.3643786E-05  -2.2388559E-03   0.0000000E+00   2.4416768E-05  -2.2361446E-03   0.0000000E+00   2.6729962E-05  -2.2314908E-03   0.0000000E+00   3.0573039E-05  -2.2246721E-03   0.0000000E+00   3.5964113E-05  -2.2153575E-03   0.0000000E+00   4.3038621E-05  -2.2030664E-03   0.0000000E+00   5.2242143E-05  -2.1871375E-03   0.0000000E+00   6.4653388E-05  -3.1894988E-03   0.0000000E+00   3.4666165E-05  -3.1884182E-03   0.0000000E+00   3.5869296E-05  -3.1851302E-03   0.0000000E+00   3.9459970E-05  -3.1794712E-03   0.0000000E+00   4.5388555E-05  -3.1711585E-03   0.0000000E+00   5.3611584E-05  -3.1597521E-03   0.0000000E+00   6.4215928E-05  -3.1446724E-03   0.0000000E+00   7.7730139E-05  -3.1251924E-03   0.0000000E+00   9.5680422E-05  -4.4922824E-03   0.0000000E+00   5.0219744E-05  -4.4910335E-03   0.0000000E+00   5.2112358E-05  -4.4872211E-03   0.0000000E+00   5.7751600E-05  -4.4806362E-03   0.0000000E+00   6.7021967E-05  -4.4708932E-03   0.0000000E+00   7.9754616E-05  -4.4574039E-03   0.0000000E+00   9.5885327E-05  -4.4394238E-03   0.0000000E+00   1.1592900E-04  -4.4161552E-03   0.0000000E+00   1.4189963E-04  -6.2550376E-03   0.0000000E+00   7.1865594E-05  -6.2536937E-03   0.0000000E+00   7.4849006E-05  -6.2495684E-03   0.0000000E+00   8.3738480E-05  -6.2424131E-03   0.0000000E+00   9.8327735E-05  -6.2317038E-03   0.0000000E+00   1.1824634E-04  -6.2166117E-03   0.0000000E+00   1.4313591E-04  -6.1960872E-03   0.0000000E+00   1.7333332E-04  -6.1692405E-03   0.0000000E+00   2.1130050E-04  -8.6047063E-03   0.0000000E+00   1.0151949E-04  -8.6034192E-03   0.0000000E+00   1.0618759E-04  -8.5994666E-03   0.0000000E+00   1.2011495E-04  -8.5925711E-03   0.0000000E+00   1.4300038E-04  -8.5820267E-03   0.0000000E+00   1.7421506E-04  -8.5666310E-03   0.0000000E+00   2.1297479E-04  -8.5448502E-03   0.0000000E+00   2.5921303E-04  -8.5155908E-03   0.0000000E+00   3.1575214E-04  -1.1678057E-02   0.0000000E+00   1.4140418E-04  -1.1677102E-02   0.0000000E+00   1.4859212E-04  -1.1674175E-02   0.0000000E+00   1.7008353E-04  -1.1668989E-02   0.0000000E+00   2.0553035E-04  -1.1660664E-02   0.0000000E+00   2.5407248E-04  -1.1647504E-02   0.0000000E+00   3.1442064E-04  -1.1627266E-02   0.0000000E+00   3.8595698E-04  -1.1598535E-02   0.0000000E+00   4.7198732E-04  -1.5587769E-02   0.0000000E+00   1.9392025E-04  -1.5587544E-02   0.0000000E+00   2.0474204E-04  -1.5586865E-02   0.0000000E+00   2.3718688E-04  -1.5585532E-02   0.0000000E+00   2.9098272E-04  -1.5582553E-02   0.0000000E+00   3.6517184E-04  -1.5575756E-02   0.0000000E+00   4.5808704E-04  -1.5562098E-02   0.0000000E+00   5.6880794E-04  -1.5539958E-02   0.0000000E+00   7.0210174E-04  -2.0352358E-02   0.0000000E+00   2.6143563E-04  -2.0353347E-02   0.0000000E+00   2.7729970E-04  -2.0356420E-02   0.0000000E+00   3.2498216E-04  -2.0361647E-02   0.0000000E+00   4.0446056E-04  -2.0368202E-02   0.0000000E+00   5.1498885E-04  -2.0373754E-02   0.0000000E+00   6.5501424E-04  -2.0374948E-02   0.0000000E+00   8.2464365E-04  -2.0370515E-02   0.0000000E+00   1.0334107E-03  -2.5796434E-02   0.0000000E+00   3.4594274E-04  -2.5799150E-02   0.0000000E+00   3.6850153E-04  -2.5807643E-02   0.0000000E+00   4.3644043E-04  -2.5822556E-02   0.0000000E+00   5.5020588E-04  -2.5843795E-02   0.0000000E+00   7.0967234E-04  -2.5869872E-02   0.0000000E+00   9.1475650E-04  -2.5898317E-02   0.0000000E+00   1.1703307E-03  -2.5929863E-02   0.0000000E+00   1.4991679E-03  -3.1455215E-02   0.0000000E+00   4.4842163E-04  -3.1460188E-02   0.0000000E+00   4.7946878E-04  -3.1475808E-02   0.0000000E+00   5.7310116E-04  -3.1503748E-02   0.0000000E+00   7.3035329E-04  -3.1545728E-02   0.0000000E+00   9.5249852E-04  -3.1602602E-02   0.0000000E+00   1.2439454E-03  -3.1675149E-02   0.0000000E+00   1.6229547E-03  -3.1769019E-02   0.0000000E+00   2.1445525E-03  -3.6524277E-02   0.0000000E+00   5.6802633E-04  -3.6531955E-02   0.0000000E+00   6.0940685E-04  -3.6556222E-02   0.0000000E+00   7.3421828E-04  -3.6600377E-02   0.0000000E+00   9.4418536E-04  -3.6669031E-02   0.0000000E+00   1.2434816E-03  -3.6767561E-02   0.0000000E+00   1.6472643E-03  -3.6903083E-02   0.0000000E+00   2.2050340E-03  -3.7088443E-02   0.0000000E+00   3.0409126E-03  -3.9869908E-02   0.0000000E+00   7.0151628E-04  -3.9880469E-02   0.0000000E+00   7.5508811E-04  -3.9914012E-02   0.0000000E+00   9.1649842E-04  -3.9975863E-02   0.0000000E+00   1.1883449E-03  -4.0074561E-02   0.0000000E+00   1.5806009E-03  -4.0221773E-02   0.0000000E+00   2.1311853E-03  -4.0432919E-02   0.0000000E+00   2.9526951E-03  -4.0727999E-02   0.0000000E+00   4.2986362E-03  -4.0116746E-02   0.0000000E+00   8.4331480E-04  -4.0129766E-02   0.0000000E+00   9.1099390E-04  -4.0171258E-02   0.0000000E+00   1.1145495E-03  -4.0248539E-02   0.0000000E+00   1.4578622E-03  -4.0374205E-02   0.0000000E+00   1.9620019E-03  -4.0566325E-02   0.0000000E+00   2.7073575E-03  -4.0847719E-02   0.0000000E+00   3.9175306E-03  -4.1242421E-02   0.0000000E+00   6.0595744E-03  -3.5891939E-02   0.0000000E+00   9.8645338E-04  -3.5906091E-02   0.0000000E+00   1.0702967E-03  -3.5951458E-02   0.0000000E+00   1.3219542E-03  -3.6036503E-02   0.0000000E+00   1.7475161E-03  -3.6176447E-02   0.0000000E+00   2.3871979E-03  -3.6393244E-02   0.0000000E+00   3.3906365E-03  -3.6713127E-02   0.0000000E+00   5.1526506E-03  -3.7158616E-02   0.0000000E+00   8.4532918E-03  -2.6260328E-02   0.0000000E+00   1.1242061E-03  -2.6273534E-02   0.0000000E+00   1.2264079E-03  -2.6315726E-02   0.0000000E+00   1.5325873E-03  -2.6395246E-02   0.0000000E+00   2.0525667E-03  -2.6526922E-02   0.0000000E+00   2.8554017E-03  -2.6732085E-02   0.0000000E+00   4.1891434E-03  -2.7034171E-02   0.0000000E+00   6.6816178E-03  -2.7448744E-02   0.0000000E+00   1.1523359E-02  -1.1237473E-02   0.0000000E+00   1.2519934E-03  -1.1246963E-02   0.0000000E+00   1.3746785E-03  -1.1277412E-02   0.0000000E+00   1.7416904E-03  -1.1335080E-02   0.0000000E+00   2.3681822E-03  -1.1431184E-02   0.0000000E+00   3.3606249E-03  -1.1581165E-02   0.0000000E+00   5.0894176E-03  -1.1800235E-02   0.0000000E+00   8.4640086E-03  -1.2092783E-02   0.0000000E+00   1.5159242E-02   7.7740196E-03   0.0000000E+00   1.3685583E-03   7.7705663E-03   0.0000000E+00   1.5133268E-03   7.7593103E-03   0.0000000E+00   1.9458950E-03   7.7373651E-03   0.0000000E+00   2.6875027E-03   7.6995604E-03   0.0000000E+00   3.8862887E-03   7.6394780E-03   0.0000000E+00   6.0463585E-03   7.5531937E-03   0.0000000E+00   1.0380715E-02   7.4479617E-03   0.0000000E+00   1.9079218E-02   2.7856916E-02   0.0000000E+00   1.4754302E-03   2.7860254E-02   0.0000000E+00   1.6427543E-03   2.7870594E-02   0.0000000E+00   2.1420773E-03   2.7888877E-02   0.0000000E+00   3.0000953E-03   2.7916709E-02   0.0000000E+00   4.4048503E-03   2.7957128E-02   0.0000000E+00   6.9892458E-03   2.8016752E-02   0.0000000E+00   1.2258483E-02   2.8110854E-02   0.0000000E+00   2.2896696E-02   4.5128401E-02   0.0000000E+00   1.5746650E-03   4.5137256E-02   0.0000000E+00   1.7635028E-03   4.5165326E-02   0.0000000E+00   2.3261937E-03   4.5216933E-02   0.0000000E+00   3.2930095E-03   4.5299605E-02   0.0000000E+00   4.8847883E-03   4.5424011E-02   0.0000000E+00   7.8439359E-03   4.5604166E-02   0.0000000E+00   1.3926909E-02   4.5857850E-02   0.0000000E+00   2.6245480E-02   5.6215405E-02   0.0000000E+00   1.6661626E-03   5.6227572E-02   0.0000000E+00   1.8739973E-03   5.6266349E-02   0.0000000E+00   2.4923042E-03   5.6338616E-02   0.0000000E+00   3.5525882E-03   5.6455784E-02   0.0000000E+00   5.2985977E-03   5.6633417E-02   0.0000000E+00   8.5546291E-03   5.6889147E-02   0.0000000E+00   1.5269652E-02   5.7239376E-02   0.0000000E+00   2.8888289E-02   5.9918258E-02   0.0000000E+00   1.7462536E-03   5.9931684E-02   0.0000000E+00   1.9694841E-03   5.9974682E-02   0.0000000E+00   2.6325912E-03   6.0055420E-02   0.0000000E+00   3.7663898E-03   6.0187280E-02   0.0000000E+00   5.6277257E-03   6.0387712E-02   0.0000000E+00   9.0940725E-03   6.0675245E-02   0.0000000E+00   1.6244823E-02   6.1063673E-02   0.0000000E+00   3.0756276E-02   5.7559568E-02   0.0000000E+00   1.8093821E-03   5.7572793E-02   0.0000000E+00   2.0438428E-03   5.7615392E-02   0.0000000E+00   2.7394274E-03   5.7695895E-02   0.0000000E+00   3.9252527E-03   5.7828035E-02   0.0000000E+00   5.8635655E-03   5.8029108E-02   0.0000000E+00   9.4606653E-03   5.8316745E-02   0.0000000E+00   1.6871972E-02   5.8702409E-02   0.0000000E+00   3.1914361E-02   5.1867113E-02   0.0000000E+00   1.8505143E-03   5.1879365E-02   0.0000000E+00   2.0919070E-03   5.1919173E-02   0.0000000E+00   2.8074121E-03   5.1994845E-02   0.0000000E+00   4.0242621E-03   5.2119557E-02   0.0000000E+00   6.0051894E-03   5.2309364E-02   0.0000000E+00   9.6673146E-03   5.2580111E-02   0.0000000E+00   1.7199632E-02   5.2941658E-02   0.0000000E+00   3.2485880E-02   4.5484673E-02   0.0000000E+00   1.8667871E-03   4.5495953E-02   0.0000000E+00   2.1109795E-03   4.5532554E-02   0.0000000E+00   2.8343843E-03   4.5602392E-02   0.0000000E+00   4.0626489E-03   4.5717638E-02   0.0000000E+00   6.0561099E-03   4.5892965E-02   0.0000000E+00   9.7300448E-03   4.6142332E-02   0.0000000E+00   1.7275063E-02   4.6474326E-02   0.0000000E+00   3.2583978E-02   3.9933056E-02   0.0000000E+00   1.8583590E-03   3.9943714E-02   0.0000000E+00   2.1015222E-03   3.9978251E-02   0.0000000E+00   2.8216694E-03   4.0043917E-02   0.0000000E+00   4.0432652E-03   4.0151875E-02   0.0000000E+00   6.0222447E-03   4.0315602E-02   0.0000000E+00   9.6622491E-03   4.0547714E-02   0.0000000E+00   1.7129857E-02   4.0856212E-02   0.0000000E+00   3.2279320E-02   3.5372213E-02   0.0000000E+00   1.8285207E-03   3.5382897E-02   0.0000000E+00   2.0671603E-03   3.5417277E-02   0.0000000E+00   2.7738349E-03   3.5481997E-02   0.0000000E+00   3.9720922E-03   3.5587378E-02   0.0000000E+00   5.9114629E-03   3.5746064E-02   0.0000000E+00   9.4748326E-03   3.5970539E-02   0.0000000E+00   1.6781405E-02   3.6268901E-02   0.0000000E+00   3.1604171E-02   3.1065986E-02   0.0000000E+00   1.7831948E-03   3.1077353E-02   0.0000000E+00   2.0141411E-03   3.1113535E-02   0.0000000E+00   2.6980750E-03   3.1180685E-02   0.0000000E+00   3.8577083E-03   3.1288739E-02   0.0000000E+00   5.7338094E-03   3.1450346E-02   0.0000000E+00   9.1791078E-03   3.1678818E-02   0.0000000E+00   1.6242452E-02   3.1983968E-02   0.0000000E+00   3.0574726E-02   2.6146216E-02   0.0000000E+00   1.7299850E-03   2.6158573E-02   0.0000000E+00   1.9504077E-03   2.6197609E-02   0.0000000E+00   2.6033323E-03   2.6269246E-02   0.0000000E+00   3.7105966E-03   2.6383432E-02   0.0000000E+00   5.5015921E-03   2.6553715E-02   0.0000000E+00   8.7893903E-03   2.6795520E-02   0.0000000E+00   1.5530061E-02   2.7122432E-02   0.0000000E+00   2.9213559E-02   2.0215629E-02   0.0000000E+00   1.6767830E-03   2.0228682E-02   0.0000000E+00   1.8842610E-03   2.0269709E-02   0.0000000E+00   2.4991203E-03   2.0344647E-02   0.0000000E+00   3.5422598E-03   2.0463705E-02   0.0000000E+00   5.2291742E-03   2.0641880E-02   0.0000000E+00   8.3244229E-03   2.0898072E-02   0.0000000E+00   1.4671007E-02   2.1252407E-02   0.0000000E+00   2.7563207E-02   1.3538424E-02   0.0000000E+00   1.6299154E-03   1.3551046E-02   0.0000000E+00   1.8225791E-03   1.3590776E-02   0.0000000E+00   2.3939514E-03   1.3663434E-02   0.0000000E+00   3.3639239E-03   1.3779560E-02   0.0000000E+00   4.9320497E-03   1.3955599E-02   0.0000000E+00   7.8073037E-03   1.4215054E-02   0.0000000E+00   1.3703360E-02   1.4587545E-02   0.0000000E+00   2.5690664E-02   6.8368241E-03   0.0000000E+00   1.5923206E-03   6.8475390E-03   0.0000000E+00   1.7690329E-03   6.8814275E-03   0.0000000E+00   2.2936133E-03   6.9440147E-03   0.0000000E+00   3.1849323E-03   7.0456755E-03   0.0000000E+00   4.6253880E-03   7.2040614E-03   0.0000000E+00   7.2640972E-03   7.4477182E-03   0.0000000E+00   1.2675040E-02   7.8183934E-03   0.0000000E+00   2.3685388E-02   8.5200917E-04   0.0000000E+00   1.5635629E-03   8.6010655E-04   0.0000000E+00   1.7239986E-03   8.8593189E-04   0.0000000E+00   2.2008528E-03   9.3431148E-04   0.0000000E+00   3.0120669E-03   1.0147862E-03   0.0000000E+00   4.3229773E-03   1.1456847E-03   0.0000000E+00   6.7222887E-03   1.3609653E-03   0.0000000E+00   1.1641123E-02   1.7168118E-03   0.0000000E+00   2.1653794E-02  -3.9945929E-03   0.0000000E+00   1.5419485E-03  -3.9882185E-03   0.0000000E+00   1.6864922E-03  -3.9679222E-03   0.0000000E+00   2.1167975E-03  -3.9298842E-03   0.0000000E+00   2.8504159E-03  -3.8657668E-03   0.0000000E+00   4.0374976E-03  -3.7565958E-03   0.0000000E+00   6.2103802E-03  -3.5622015E-03   0.0000000E+00   1.0662079E-02  -3.2095776E-03   0.0000000E+00   1.9713812E-02  -7.6363385E-03   0.0000000E+00   1.5256022E-03  -7.6296865E-03   0.0000000E+00   1.6551409E-03  -7.6088766E-03   0.0000000E+00   2.0417932E-03  -7.5709103E-03   0.0000000E+00   2.7040862E-03  -7.5079002E-03   0.0000000E+00   3.7813534E-03  -7.3988861E-03   0.0000000E+00   5.7585840E-03  -7.1957880E-03   0.0000000E+00   9.8025873E-03  -6.8068826E-03   0.0000000E+00   1.7988492E-02  -1.0214367E-02   0.0000000E+00   1.5126630E-03  -1.0205257E-02   0.0000000E+00   1.6283534E-03  -1.0177171E-02   0.0000000E+00   1.9754414E-03  -1.0126876E-02   0.0000000E+00   2.5763114E-03  -1.0044754E-02   0.0000000E+00   3.5670300E-03  -9.9048745E-03   0.0000000E+00   5.3986614E-03  -9.6485624E-03   0.0000000E+00   9.1287745E-03  -9.1653997E-03   0.0000000E+00   1.6597120E-02  -1.1915118E-02   0.0000000E+00   1.5009997E-03  -1.1901723E-02   0.0000000E+00   1.6042761E-03  -1.1860278E-02   0.0000000E+00   1.9173315E-03  -1.1785408E-02   0.0000000E+00   2.4711816E-03  -1.1662238E-02   0.0000000E+00   3.4091412E-03  -1.1455494E-02   0.0000000E+00   5.1649916E-03  -1.1093219E-02   0.0000000E+00   8.7053636E-03  -1.0450659E-02   0.0000000E+00   1.5643554E-02  -1.2877349E-02   0.0000000E+00   1.4879248E-03  -1.2857815E-02   0.0000000E+00   1.5811053E-03  -1.2796494E-02   0.0000000E+00   1.8689843E-03  -1.2682921E-02   0.0000000E+00   2.3977233E-03  -1.2492212E-02   0.0000000E+00   3.3300074E-03  -1.2174740E-02   0.0000000E+00   5.0986963E-03  -1.1645030E-02   0.0000000E+00   8.5936505E-03  -1.0776589E-02   0.0000000E+00   1.5201590E-02  -1.3168220E-02   0.0000000E+00   1.4726137E-03  -1.3139136E-02   0.0000000E+00   1.5602163E-03  -1.3046187E-02   0.0000000E+00   1.8388091E-03  -1.2869583E-02   0.0000000E+00   2.3766868E-03  -1.2569063E-02   0.0000000E+00   3.3665306E-03  -1.2078446E-02   0.0000000E+00   5.2509168E-03  -1.1305569E-02   0.0000000E+00   8.8471901E-03  -1.0158760E-02   0.0000000E+00   1.5285162E-02  -1.2779655E-02   0.0000000E+00   1.4642871E-03  -1.2732933E-02   0.0000000E+00   1.5546625E-03  -1.2582324E-02   0.0000000E+00   1.8508733E-03  -1.2295110E-02   0.0000000E+00   2.4480673E-03  -1.1814578E-02   0.0000000E+00   3.5736735E-03  -1.1064500E-02   0.0000000E+00   5.6798253E-03  -9.9707413E-03   0.0000000E+00   9.4951997E-03  -8.5561015E-03   0.0000000E+00   1.5820529E-02  -1.1582563E-02   0.0000000E+00   1.4951628E-03  -1.1503641E-02   0.0000000E+00   1.6012383E-03  -1.1251854E-02   0.0000000E+00   1.9540661E-03  -1.0783982E-02   0.0000000E+00   2.6750707E-03  -1.0036114E-02   0.0000000E+00   4.0211827E-03  -8.9485748E-03   0.0000000E+00   6.4348667E-03  -7.5412458E-03   0.0000000E+00   1.0490436E-02  -5.9936093E-03   0.0000000E+00   1.6642001E-02  -9.2689665E-03   0.0000000E+00   1.6309791E-03  -9.1425776E-03   0.0000000E+00   1.7693740E-03  -8.7474734E-03   0.0000000E+00   2.2263252E-03  -8.0432473E-03   0.0000000E+00   3.1405347E-03  -6.9971401E-03   0.0000000E+00   4.7720196E-03  -5.6371461E-03   0.0000000E+00   7.4939947E-03  -4.1043949E-03   0.0000000E+00   1.1679730E-02  -2.6811282E-03   0.0000000E+00   1.7507780E-02  -5.4401713E-03   0.0000000E+00   1.9720050E-03  -5.2650203E-03   0.0000000E+00   2.1600407E-03  -4.7395718E-03   0.0000000E+00   2.7636851E-03  -3.8692546E-03   0.0000000E+00   3.9095697E-03  -2.6977162E-03   0.0000000E+00   5.8063469E-03  -1.3361778E-03   0.0000000E+00   8.7178973E-03  -2.3465836E-06   0.0000000E+00   1.2837002E-02   9.8783185E-04   0.0000000E+00   1.8170590E-02  -7.6653116E-05   0.0000000E+00   2.6299183E-03   1.0661310E-04   0.0000000E+00   2.8712924E-03   6.3650316E-04   0.0000000E+00   3.6204809E-03   1.4534496E-03   0.0000000E+00   4.9533681E-03   2.4489574E-03   0.0000000E+00   6.9986563E-03   3.4568142E-03   0.0000000E+00   9.9068526E-03   4.2362870E-03   0.0000000E+00   1.3753360E-02   4.5441622E-03   0.0000000E+00   1.8510688E-02   6.1397525E-03   0.0000000E+00   3.6463181E-03   6.2730443E-03   0.0000000E+00   3.9221123E-03   6.6437805E-03   0.0000000E+00   4.7587133E-03   7.1591050E-03   0.0000000E+00   6.1677517E-03   7.6732808E-03   0.0000000E+00   8.1999181E-03   8.0171227E-03   0.0000000E+00   1.0930236E-02   8.0813775E-03   0.0000000E+00   1.4410952E-02   7.9581579E-03   0.0000000E+00   1.8702941E-02   1.2104384E-02   0.0000000E+00   4.9469653E-03   1.2140163E-02   0.0000000E+00   5.2320114E-03   1.2217117E-02   0.0000000E+00   6.0795839E-03   1.2252370E-02   0.0000000E+00   7.4550072E-03   1.2164513E-02   0.0000000E+00   9.3687735E-03   1.1997952E-02   0.0000000E+00   1.1878327E-02   1.2046462E-02   0.0000000E+00   1.5049338E-02   1.2749857E-02   0.0000000E+00   1.8988425E-02   1.7051298E-02   0.0000000E+00   6.3912687E-03   1.7015204E-02   0.0000000E+00   6.6685164E-03   1.6911233E-02   0.0000000E+00   7.4820076E-03   1.6782725E-02   0.0000000E+00   8.7799840E-03   1.6779058E-02   0.0000000E+00   1.0559351E-02   1.7183874E-02   0.0000000E+00   1.2882194E-02   1.8261183E-02   0.0000000E+00   1.5859293E-02   1.9817401E-02   0.0000000E+00   1.9662773E-02   2.3430534E-02   0.0000000E+00   7.8337882E-03   2.3401545E-02   0.0000000E+00   8.0955969E-03   2.3358123E-02   0.0000000E+00   8.8619189E-03   2.3443136E-02   0.0000000E+00   1.0098033E-02   2.3865901E-02   0.0000000E+00   1.1842903E-02   2.4619937E-02   0.0000000E+00   1.4195249E-02   2.5166780E-02   0.0000000E+00   1.7246984E-02   2.4672311E-02   0.0000000E+00   2.1085361E-02   3.2614850E-02   0.0000000E+00   9.1638751E-03   3.2431256E-02   0.0000000E+00   9.4143879E-03   3.1889509E-02   0.0000000E+00   1.0166259E-02   3.1040125E-02   0.0000000E+00   1.1467319E-02   2.9880930E-02   0.0000000E+00   1.3483853E-02   2.8102579E-02   0.0000000E+00   1.6270192E-02   2.4949882E-02   0.0000000E+00   1.9776082E-02   3.3080574E-02   0.0000000E+00   1.0315288E-02   3.2546736E-02   0.0000000E+00   1.0568002E-02   3.0924380E-02   0.0000000E+00   1.1386625E-02   2.8205674E-02   0.0000000E+00   1.3026351E-02   2.4499223E-02   0.0000000E+00   1.5936496E-02  -6.5613790E-07   0.0000000E+00   1.2764059E-08  -6.2547537E-07   0.0000000E+00   1.4005451E-08  -5.8640450E-07   0.0000000E+00   1.3981776E-08  -5.3687575E-07   0.0000000E+00   1.1478612E-08  -4.7490749E-07   0.0000000E+00   5.5435141E-09  -3.9998611E-07   0.0000000E+00  -3.5465766E-09  -3.1513579E-07   0.0000000E+00  -1.3718235E-08  -1.2108660E-06   0.0000000E+00   2.5333481E-08  -1.1556738E-06   0.0000000E+00   2.7839345E-08  -1.0851636E-06   0.0000000E+00   2.7863527E-08  -9.9538477E-07   0.0000000E+00   2.2995295E-08  -8.8243428E-07   0.0000000E+00   1.1345170E-08  -7.4509546E-07   0.0000000E+00  -6.5876975E-09  -5.8872968E-07   0.0000000E+00  -2.6809655E-08  -4.2742647E-07   0.0000000E+00  -4.3475243E-08  -2.1845583E-06   0.0000000E+00   4.8401745E-08  -2.0877947E-06   0.0000000E+00   5.3264920E-08  -1.9637450E-06   0.0000000E+00   5.3429858E-08  -1.8049398E-06   0.0000000E+00   4.4275847E-08  -1.6038122E-06   0.0000000E+00   2.2177982E-08  -1.3575678E-06   0.0000000E+00  -1.1986899E-08  -1.0754006E-06   0.0000000E+00  -5.0732453E-08  -7.8275087E-07   0.0000000E+00  -8.2938712E-08  -3.8647481E-06   0.0000000E+00   8.9815693E-08  -3.6991200E-06   0.0000000E+00   9.8987371E-08  -3.4858997E-06   0.0000000E+00   9.9511801E-08  -3.2112118E-06   0.0000000E+00   8.2774946E-08  -2.8606305E-06   0.0000000E+00   4.2001574E-08  -2.4280237E-06   0.0000000E+00  -2.1317382E-08  -1.9287754E-06   0.0000000E+00  -9.3464564E-08  -1.4079357E-06   0.0000000E+00  -1.5370742E-07  -6.7102092E-06   0.0000000E+00   1.6265642E-07  -6.4333713E-06   0.0000000E+00   1.7959030E-07  -6.0752232E-06   0.0000000E+00   1.8101396E-07  -5.6104277E-06   0.0000000E+00   1.5125987E-07  -5.0122389E-06   0.0000000E+00   7.7928483E-08  -4.2692586E-06   0.0000000E+00  -3.6636205E-08  -3.4066150E-06   0.0000000E+00  -1.6792410E-07  -2.5004529E-06   0.0000000E+00  -2.7806882E-07  -1.1440130E-05   0.0000000E+00   2.8830013E-07  -1.0988137E-05   0.0000000E+00   3.1919518E-07  -1.0400079E-05   0.0000000E+00   3.2310672E-07  -9.6322210E-06   0.0000000E+00   2.7216521E-07  -8.6421605E-06   0.0000000E+00   1.4380598E-07  -7.4100089E-06   0.0000000E+00  -5.9153798E-08  -5.9695535E-06   0.0000000E+00  -2.9407209E-07  -4.4376952E-06   0.0000000E+00  -4.9283784E-07  -1.9164021E-05   0.0000000E+00   5.0132741E-07  -1.8442761E-05   0.0000000E+00   5.5785046E-07  -1.7500985E-05   0.0000000E+00   5.6938939E-07  -1.6276370E-05   0.0000000E+00   4.8713514E-07  -1.4709446E-05   0.0000000E+00   2.6904621E-07  -1.2762101E-05   0.0000000E+00  -8.4350233E-08  -1.0462873E-05   0.0000000E+00  -5.0064563E-07  -7.9551091E-06   0.0000000E+00  -8.5819585E-07  -3.1568845E-05   0.0000000E+00   8.5751788E-07  -3.0444160E-05   0.0000000E+00   9.6277677E-07  -2.8983242E-05   0.0000000E+00   9.9750832E-07  -2.7113134E-05   0.0000000E+00   8.7623437E-07  -2.4759654E-05   0.0000000E+00   5.1808792E-07  -2.1853761E-05   0.0000000E+00  -8.8371223E-08  -1.8377266E-05   0.0000000E+00  -8.2402215E-07  -1.4429782E-05   0.0000000E+00  -1.4709528E-06  -5.1184648E-05   0.0000000E+00   1.4464972E-06  -4.9474274E-05   0.0000000E+00   1.6471938E-06  -4.7280639E-05   0.0000000E+00   1.7459786E-06  -4.4535656E-05   0.0000000E+00   1.5930045E-06  -4.1166051E-05   0.0000000E+00   1.0293907E-06  -3.7072296E-05   0.0000000E+00   4.3433488E-09  -3.2124863E-05   0.0000000E+00  -1.2963789E-06  -2.6207883E-05   0.0000000E+00  -2.4798069E-06  -8.1751838E-05   0.0000000E+00   2.4096601E-06  -7.9212579E-05   0.0000000E+00   2.7965598E-06  -7.5998774E-05   0.0000000E+00   3.0520569E-06  -7.2064067E-05   0.0000000E+00   2.9171433E-06  -6.7367881E-05   0.0000000E+00   2.0831988E-06  -6.1813022E-05   0.0000000E+00   3.9054726E-07  -5.5105869E-05   0.0000000E+00  -1.9008685E-06  -4.6616300E-05   0.0000000E+00  -4.0815421E-06  -1.2871400E-04   0.0000000E+00   3.9624915E-06  -1.2502250E-04   0.0000000E+00   4.7001108E-06  -1.2038299E-04   0.0000000E+00   5.2979217E-06  -1.1476599E-04   0.0000000E+00   5.3256640E-06  -1.0817881E-04   0.0000000E+00   4.2042352E-06  -1.0056179E-04   0.0000000E+00   1.5128683E-06  -9.1413451E-05   0.0000000E+00  -2.4529916E-06  -7.9209138E-05   0.0000000E+00  -6.4222613E-06  -1.9987416E-04   0.0000000E+00   6.4203655E-06  -1.9461477E-04   0.0000000E+00   7.7846225E-06  -1.8799814E-04   0.0000000E+00   9.0580143E-06  -1.7996023E-04   0.0000000E+00   9.5642599E-06  -1.7048897E-04   0.0000000E+00   8.2809674E-06  -1.5949321E-04   0.0000000E+00   4.2680485E-06  -1.4613508E-04   0.0000000E+00  -2.2211771E-06  -1.2763852E-04   0.0000000E+00  -8.9050300E-06  -3.0627943E-04   0.0000000E+00   1.0228454E-05  -2.9895507E-04   0.0000000E+00   1.2650048E-05  -2.8970488E-04   0.0000000E+00   1.5138679E-05  -2.7835162E-04   0.0000000E+00   1.6694981E-05  -2.6470632E-04   0.0000000E+00   1.5651138E-05  -2.4843682E-04   0.0000000E+00   1.0222618E-05  -2.2826123E-04   0.0000000E+00   6.0330422E-07  -2.0041528E-04   0.0000000E+00  -9.4259112E-06  -4.6341986E-04   0.0000000E+00   1.6002939E-05  -4.5347927E-04   0.0000000E+00   2.0117090E-05  -4.4093325E-04   0.0000000E+00   2.4627356E-05  -4.2548042E-04   0.0000000E+00   2.8123155E-05  -4.0663886E-04   0.0000000E+00   2.8084472E-05  -3.8360502E-04   0.0000000E+00   2.1522499E-05  -3.5464737E-04   0.0000000E+00   8.5030388E-06  -3.1550811E-04   0.0000000E+00  -5.7470570E-06  -6.9283420E-04   0.0000000E+00   2.4596868E-05  -6.7968626E-04   0.0000000E+00   3.1309672E-05  -6.6322420E-04   0.0000000E+00   3.8979742E-05  -6.4319232E-04   0.0000000E+00   4.5690649E-05  -6.1894325E-04   0.0000000E+00   4.7881553E-05  -5.8918510E-04   0.0000000E+00   4.1261210E-05  -5.5177358E-04   0.0000000E+00   2.5857877E-05  -5.0224131E-04   0.0000000E+00   7.5014818E-06  -1.0241736E-03   0.0000000E+00   3.7208130E-05  -1.0071988E-03   0.0000000E+00   4.7794696E-05  -9.8617305E-04   0.0000000E+00   6.0217288E-05  -9.6122938E-04   0.0000000E+00   7.1802744E-05  -9.3198847E-04   0.0000000E+00   7.7450590E-05  -8.9712272E-04   0.0000000E+00   7.0878821E-05  -8.5440528E-04   0.0000000E+00   5.1794636E-05  -7.9979905E-04   0.0000000E+00   2.6777319E-05  -1.4976420E-03   0.0000000E+00   5.5561832E-05  -1.4762830E-03   0.0000000E+00   7.1792369E-05  -1.4500314E-03   0.0000000E+00   9.1203809E-05  -1.4196739E-03   0.0000000E+00   1.0999502E-04  -1.3856146E-03   0.0000000E+00   1.2097334E-04  -1.3471358E-03   0.0000000E+00   1.1548390E-04  -1.3028536E-03   0.0000000E+00   9.4202907E-05  -1.2502681E-03   0.0000000E+00   6.3882129E-05  -2.1666258E-03   0.0000000E+00   8.2217033E-05  -2.1404806E-03   0.0000000E+00   1.0648466E-04  -2.1087516E-03   0.0000000E+00   1.3599376E-04  -2.0726859E-03   0.0000000E+00   1.6525683E-04  -2.0335477E-03   0.0000000E+00   1.8385134E-04  -1.9914196E-03   0.0000000E+00   1.7926659E-04  -1.9461928E-03   0.0000000E+00   1.5328698E-04  -1.8980361E-03   0.0000000E+00   1.1531652E-04  -3.1003710E-03   0.0000000E+00   1.2108326E-04  -3.0693358E-03   0.0000000E+00   1.5658741E-04  -3.0326883E-03   0.0000000E+00   2.0039474E-04  -2.9922670E-03   0.0000000E+00   2.4467160E-04  -2.9494299E-03   0.0000000E+00   2.7429027E-04  -2.9041599E-03   0.0000000E+00   2.7137069E-04  -2.8566748E-03   0.0000000E+00   2.4054747E-04  -2.8086244E-03   0.0000000E+00   1.9632121E-04  -4.3868669E-03   0.0000000E+00   1.7827259E-04  -4.3513672E-03   0.0000000E+00   2.2937875E-04  -4.3116072E-03   0.0000000E+00   2.9315738E-04  -4.2706640E-03   0.0000000E+00   3.5856542E-04  -4.2298869E-03   0.0000000E+00   4.0390604E-04  -4.1877697E-03   0.0000000E+00   4.0414164E-04  -4.1427743E-03   0.0000000E+00   3.7181459E-04  -4.0958012E-03   0.0000000E+00   3.2963837E-04  -6.1358307E-03   0.0000000E+00   2.6341100E-04  -6.0972376E-03   0.0000000E+00   3.3646775E-04  -6.0581523E-03   0.0000000E+00   4.2828868E-04  -6.0240636E-03   0.0000000E+00   5.2328373E-04  -5.9965281E-03   0.0000000E+00   5.8970222E-04  -5.9714420E-03   0.0000000E+00   5.9089926E-04  -5.9438110E-03   0.0000000E+00   5.5371865E-04  -5.9120734E-03   0.0000000E+00   5.2901689E-04  -8.4794853E-03   0.0000000E+00   3.9145522E-04  -8.4408307E-03   0.0000000E+00   4.9671117E-04  -8.4092757E-03   0.0000000E+00   6.2933686E-04  -8.3946018E-03   0.0000000E+00   7.6690613E-04  -8.3989408E-03   0.0000000E+00   8.6203835E-04  -8.4143067E-03   0.0000000E+00   8.5886184E-04  -8.4298747E-03   0.0000000E+00   8.1003545E-04  -8.4392698E-03   0.0000000E+00   8.1035466E-04  -1.1563360E-02   0.0000000E+00   5.8497052E-04  -1.1530872E-02   0.0000000E+00   7.4060803E-04  -1.1518601E-02   0.0000000E+00   9.3672710E-04  -1.1542970E-02   0.0000000E+00   1.1398480E-03  -1.1607348E-02   0.0000000E+00   1.2755772E-03  -1.1698494E-02   0.0000000E+00   1.2506285E-03  -1.1796860E-02   0.0000000E+00   1.1555054E-03  -1.1888007E-02   0.0000000E+00   1.1834848E-03  -1.5513619E-02   0.0000000E+00   8.7664725E-04  -1.5499410E-02   0.0000000E+00   1.1167513E-03  -1.5525946E-02   0.0000000E+00   1.4199971E-03  -1.5618542E-02   0.0000000E+00   1.7339187E-03  -1.5782170E-02   0.0000000E+00   1.9360884E-03  -1.5997214E-02   0.0000000E+00   1.8608613E-03  -1.6232638E-02   0.0000000E+00   1.6475513E-03  -1.6461758E-02   0.0000000E+00   1.7110636E-03  -2.0368321E-02   0.0000000E+00   1.3127084E-03  -2.0394713E-02   0.0000000E+00   1.7022897E-03  -2.0491431E-02   0.0000000E+00   2.1986121E-03  -2.0692471E-02   0.0000000E+00   2.7154342E-03  -2.1003742E-02   0.0000000E+00   3.0417182E-03  -2.1399477E-02   0.0000000E+00   2.8695662E-03  -2.1836137E-02   0.0000000E+00   2.3828880E-03  -2.2270432E-02   0.0000000E+00   2.3902478E-03  -2.5978284E-02   0.0000000E+00   1.9603455E-03  -2.6081683E-02   0.0000000E+00   2.6228619E-03  -2.6292846E-02   0.0000000E+00   3.4788181E-03  -2.6649853E-02   0.0000000E+00   4.3815756E-03  -2.7157236E-02   0.0000000E+00   4.9558855E-03  -2.7785711E-02   0.0000000E+00   4.6257656E-03  -2.8482068E-02   0.0000000E+00   3.5697010E-03  -2.9183371E-02   0.0000000E+00   3.2875123E-03  -3.1905569E-02   0.0000000E+00   2.9258952E-03  -3.2133035E-02   0.0000000E+00   4.0886318E-03  -3.2507550E-02   0.0000000E+00   5.6089205E-03  -3.3062197E-02   0.0000000E+00   7.2237351E-03  -3.3796314E-02   0.0000000E+00   8.2970159E-03  -3.4681298E-02   0.0000000E+00   7.7706645E-03  -3.5661884E-02   0.0000000E+00   5.6981472E-03  -3.6655970E-02   0.0000000E+00   4.6949810E-03  -3.7351798E-02   0.0000000E+00   4.3824320E-03  -3.7744753E-02   0.0000000E+00   6.4368485E-03  -3.8314521E-02   0.0000000E+00   9.1297301E-03  -3.9077993E-02   0.0000000E+00   1.1974425E-02  -4.0025573E-02   0.0000000E+00   1.3928302E-02  -4.1133299E-02   0.0000000E+00   1.3334324E-02  -4.2353623E-02   0.0000000E+00   9.6810311E-03  -4.3592803E-02   0.0000000E+00   7.0848754E-03  -4.1137323E-02   0.0000000E+00   6.5848203E-03  -4.1704729E-02   0.0000000E+00   1.0139415E-02  -4.2454358E-02   0.0000000E+00   1.4764932E-02  -4.3377522E-02   0.0000000E+00   1.9589351E-02  -4.4453714E-02   0.0000000E+00   2.2905143E-02  -4.5668140E-02   0.0000000E+00   2.2337167E-02  -4.6989840E-02   0.0000000E+00   1.7058797E-02  -4.8326392E-02   0.0000000E+00   1.1986046E-02  -4.1775398E-02   0.0000000E+00   9.8374998E-03  -4.2470429E-02   0.0000000E+00   1.5726406E-02  -4.3316286E-02   0.0000000E+00   2.3285512E-02  -4.4273239E-02   0.0000000E+00   3.1047260E-02  -4.5312092E-02   0.0000000E+00   3.6404021E-02  -4.6432462E-02   0.0000000E+00   3.6274031E-02  -4.7626771E-02   0.0000000E+00   3.0364657E-02  -4.8821151E-02   0.0000000E+00   2.2422064E-02  -3.7742365E-02   0.0000000E+00   1.4394500E-02  -3.8457859E-02   0.0000000E+00   2.3603795E-02  -3.9253328E-02   0.0000000E+00   3.5252690E-02  -4.0059853E-02   0.0000000E+00   4.7077633E-02  -4.0842053E-02   0.0000000E+00   5.5454649E-02  -4.1616321E-02   0.0000000E+00   5.6983739E-02  -4.2410467E-02   0.0000000E+00   5.3295851E-02  -4.3192532E-02   0.0000000E+00   4.4919323E-02  -2.7971195E-02   0.0000000E+00   2.0315986E-02  -2.8561827E-02   0.0000000E+00   3.3826571E-02  -2.9135643E-02   0.0000000E+00   5.0700221E-02  -2.9604636E-02   0.0000000E+00   6.7778781E-02  -2.9931435E-02   0.0000000E+00   8.0830745E-02  -3.0148517E-02   0.0000000E+00   8.8253163E-02  -3.0322019E-02   0.0000000E+00   9.3882740E-02  -3.0479973E-02   0.0000000E+00   8.9611284E-02  -1.2436692E-02   0.0000000E+00   2.7348140E-02  -1.2766543E-02   0.0000000E+00   4.5918744E-02  -1.2983000E-02   0.0000000E+00   6.8912543E-02  -1.2999812E-02   0.0000000E+00   9.2422925E-02  -1.2787572E-02   0.0000000E+00   1.1270171E-01  -1.2385903E-02   0.0000000E+00   1.3231973E-01  -1.1878165E-02   0.0000000E+00   1.5930767E-01  -1.1347259E-02   0.0000000E+00   1.6689244E-01   7.3584118E-03   0.0000000E+00   3.4911431E-02   7.3596044E-03   0.0000000E+00   5.8873829E-02   7.5389035E-03   0.0000000E+00   8.8397585E-02   7.9573812E-03   0.0000000E+00   1.1895858E-01   8.6309901E-03   0.0000000E+00   1.4783375E-01   9.5298849E-03   0.0000000E+00   1.8395717E-01   1.0581913E-02   0.0000000E+00   2.4028878E-01   1.1669244E-02   0.0000000E+00   2.6361206E-01   2.8276779E-02   0.0000000E+00   4.2242233E-02   2.8579948E-02   0.0000000E+00   7.1390502E-02   2.9074972E-02   0.0000000E+00   1.0716181E-01   2.9786602E-02   0.0000000E+00   1.4439088E-01   3.0718932E-02   0.0000000E+00   1.8108180E-01   3.1864773E-02   0.0000000E+00   2.3081136E-01   3.3184394E-02   0.0000000E+00   3.1043842E-01   3.4547016E-02   0.0000000E+00   3.4448406E-01   4.6214528E-02   0.0000000E+00   4.8633046E-02   4.6715997E-02   0.0000000E+00   8.2285255E-02   4.7379114E-02   0.0000000E+00   1.2346854E-01   4.8196822E-02   0.0000000E+00   1.6625701E-01   4.9165998E-02   0.0000000E+00   2.0845516E-01   5.0300132E-02   0.0000000E+00   2.6570031E-01   5.1589016E-02   0.0000000E+00   3.5605401E-01   5.2915372E-02   0.0000000E+00   3.9150918E-01   5.7700593E-02   0.0000000E+00   5.3636841E-02   5.8288164E-02   0.0000000E+00   9.0816043E-02   5.8989331E-02   0.0000000E+00   1.3624528E-01   5.9776191E-02   0.0000000E+00   1.8322304E-01   6.0639884E-02   0.0000000E+00   2.2879209E-01   6.1599482E-02   0.0000000E+00   2.8874624E-01   6.2657431E-02   0.0000000E+00   3.8143754E-01   6.3735560E-02   0.0000000E+00   4.1396114E-01   6.1558202E-02   0.0000000E+00   5.7137016E-02   6.2154237E-02   0.0000000E+00   9.6789151E-02   6.2822245E-02   0.0000000E+00   1.4522494E-01   6.3521929E-02   0.0000000E+00   1.9511142E-01   6.4233549E-02   0.0000000E+00   2.4266514E-01   6.4967029E-02   0.0000000E+00   3.0309412E-01   6.5730244E-02   0.0000000E+00   3.9471984E-01   6.6496059E-02   0.0000000E+00   4.2338324E-01   5.9185103E-02   0.0000000E+00   5.9275407E-02   5.9749350E-02   0.0000000E+00   1.0044000E-01   6.0359735E-02   0.0000000E+00   1.5074770E-01   6.0969293E-02   0.0000000E+00   2.0244110E-01   6.1544586E-02   0.0000000E+00   2.5109869E-01   6.2079336E-02   0.0000000E+00   3.1129000E-01   6.2583290E-02   0.0000000E+00   4.0120009E-01   6.3070558E-02   0.0000000E+00   4.2663741E-01   5.3390846E-02   0.0000000E+00   6.0304396E-02   5.3909030E-02   0.0000000E+00   1.0219306E-01   5.4461297E-02   0.0000000E+00   1.5342245E-01   5.4999184E-02   0.0000000E+00   2.0601712E-01   5.5478748E-02   0.0000000E+00   2.5518107E-01   5.5879023E-02   0.0000000E+00   3.1504741E-01   5.6206077E-02   0.0000000E+00   4.0370202E-01   5.6492537E-02   0.0000000E+00   4.2726925E-01   4.6885915E-02   0.0000000E+00   6.0453385E-02   4.7359250E-02   0.0000000E+00   1.0244271E-01   4.7861576E-02   0.0000000E+00   1.5382630E-01   4.8346408E-02   0.0000000E+00   2.0658390E-01   4.8767056E-02   0.0000000E+00   2.5579688E-01   4.9094513E-02   0.0000000E+00   3.1539789E-01   4.9328733E-02   0.0000000E+00   4.0342867E-01   4.9500339E-02   0.0000000E+00   4.2642471E-01   4.1238695E-02   0.0000000E+00   5.9864864E-02   4.1678637E-02   0.0000000E+00   1.0143986E-01   4.2144347E-02   0.0000000E+00   1.5233976E-01   4.2592037E-02   0.0000000E+00   2.0464362E-01   4.2978369E-02   0.0000000E+00   2.5355425E-01   4.3274675E-02   0.0000000E+00   3.1311613E-01   4.3476742E-02   0.0000000E+00   4.0146643E-01   4.3603640E-02   0.0000000E+00   4.2531249E-01   3.6639895E-02   0.0000000E+00   5.8600750E-02   3.7067454E-02   0.0000000E+00   9.9297658E-02   3.7518788E-02   0.0000000E+00   1.4913799E-01   3.7951231E-02   0.0000000E+00   2.0038337E-01   3.8326140E-02   0.0000000E+00   2.4838018E-01   3.8619664E-02   0.0000000E+00   3.0701429E-01   3.8826600E-02   0.0000000E+00   3.9418671E-01   3.8955215E-02   0.0000000E+00   4.1814238E-01   3.2366700E-02   0.0000000E+00   5.6686904E-02   3.2812100E-02   0.0000000E+00   9.6063286E-02   3.3285093E-02   0.0000000E+00   1.4430110E-01   3.3740893E-02   0.0000000E+00   1.9391397E-01   3.4141615E-02   0.0000000E+00   2.4039140E-01   3.4465868E-02   0.0000000E+00   2.9715523E-01   3.4708239E-02   0.0000000E+00   3.8155740E-01   3.4870766E-02   0.0000000E+00   4.0479976E-01   2.7540231E-02   0.0000000E+00   5.4158013E-02   2.8038276E-02   0.0000000E+00   9.1794483E-02   2.8581394E-02   0.0000000E+00   1.3792072E-01   2.9119490E-02   0.0000000E+00   1.8536642E-01   2.9607279E-02   0.0000000E+00   2.2975841E-01   3.0016799E-02   0.0000000E+00   2.8377917E-01   3.0338177E-02   0.0000000E+00   3.6395052E-01   3.0570671E-02   0.0000000E+00   3.8576126E-01   2.1720212E-02   0.0000000E+00   5.1085252E-02   2.2301570E-02   0.0000000E+00   8.6605839E-02   2.2967234E-02   0.0000000E+00   1.3016701E-01   2.3660729E-02   0.0000000E+00   1.7497170E-01   2.4319472E-02   0.0000000E+00   2.1678255E-01   2.4895612E-02   0.0000000E+00   2.6731989E-01   2.5365645E-02   0.0000000E+00   3.4204566E-01   2.5725385E-02   0.0000000E+00   3.6187828E-01   1.5104158E-02   0.0000000E+00   4.7585364E-02   1.5785698E-02   0.0000000E+00   8.0684721E-02   1.6619049E-02   0.0000000E+00   1.2130954E-01   1.7544298E-02   0.0000000E+00   1.6308443E-01   1.8473323E-02   0.0000000E+00   2.0191596E-01   1.9323604E-02   0.0000000E+00   2.4840361E-01   2.0044537E-02   0.0000000E+00   3.1677261E-01   2.0621145E-02   0.0000000E+00   3.3431074E-01   8.3693936E-03   0.0000000E+00   4.3816969E-02   9.1537414E-03   0.0000000E+00   7.4284978E-02   1.0187399E-02   0.0000000E+00   1.1170880E-01   1.1414265E-02   0.0000000E+00   1.5016454E-01   1.2717576E-02   0.0000000E+00   1.8571478E-01   1.3967617E-02   0.0000000E+00   2.2775239E-01   1.5070065E-02   0.0000000E+00   2.8921252E-01   1.5984844E-02   0.0000000E+00   3.0428013E-01   2.2946782E-03   0.0000000E+00   3.9969504E-02   3.1898087E-03   0.0000000E+00   6.7705601E-02   4.4574598E-03   0.0000000E+00   1.0178261E-01   6.0506561E-03   0.0000000E+00   1.3673890E-01   7.8185117E-03   0.0000000E+00   1.6881754E-01   9.5784385E-03   0.0000000E+00   2.0621908E-01   1.1185233E-02   0.0000000E+00   2.6059431E-01   1.2561441E-02   0.0000000E+00   2.7298546E-01  -2.5846432E-03   0.0000000E+00   3.6249720E-02  -1.5450468E-03   0.0000000E+00   6.1266255E-02  -1.0426084E-07   0.0000000E+00   9.1968738E-02   1.9958292E-03   0.0000000E+00   1.2336955E-01   4.2635803E-03   0.0000000E+00   1.5194233E-01   6.5802308E-03   0.0000000E+00   1.8476893E-01   8.7562185E-03   0.0000000E+00   2.3200145E-01   1.0667916E-02   0.0000000E+00   2.4147893E-01  -6.0848119E-03   0.0000000E+00   3.2865833E-02  -4.8499475E-03   0.0000000E+00   5.5275954E-02  -3.0144325E-03   0.0000000E+00   8.2676694E-02  -6.5131421E-04   0.0000000E+00   1.1058104E-01   2.0572520E-03   0.0000000E+00   1.3576962E-01   4.8793713E-03   0.0000000E+00   1.6431725E-01   7.6107946E-03   0.0000000E+00   2.0446806E-01   1.0089086E-02   0.0000000E+00   2.1061346E-01  -8.2827918E-03   0.0000000E+00   3.0006472E-02  -6.8281149E-03   0.0000000E+00   4.9983393E-02  -4.7649145E-03   0.0000000E+00   7.4228451E-02  -2.1787474E-03   0.0000000E+00   9.8777443E-02   7.9568930E-04   0.0000000E+00   1.2084101E-01   3.9701597E-03   0.0000000E+00   1.4562432E-01   7.2067352E-03   0.0000000E+00   1.7883688E-01   1.0343291E-02   0.0000000E+00   1.8069738E-01  -9.3587413E-03   0.0000000E+00   2.7801827E-02  -7.7211070E-03   0.0000000E+00   4.5534387E-02  -5.5830735E-03   0.0000000E+00   6.6792428E-02  -3.0278352E-03   0.0000000E+00   8.8184386E-02  -6.8887581E-05   0.0000000E+00   1.0748815E-01   3.2591580E-03   0.0000000E+00   1.2920402E-01   7.0394748E-03   0.0000000E+00   1.5556324E-01   1.1243613E-02   0.0000000E+00   1.5215792E-01  -9.4636744E-03   0.0000000E+00   2.6295558E-02  -7.7526388E-03   0.0000000E+00   4.1951265E-02  -5.7753427E-03   0.0000000E+00   6.0384683E-02  -3.5712067E-03   0.0000000E+00   7.8839816E-02  -9.4317843E-04   0.0000000E+00   9.5881231E-02   2.4330183E-03   0.0000000E+00   1.1530048E-01   7.0551960E-03   0.0000000E+00   1.3479191E-01   1.3379914E-02   0.0000000E+00   1.2536144E-01  -8.6770020E-03   0.0000000E+00   2.5431681E-02  -7.0616635E-03   0.0000000E+00   3.9135691E-02  -5.5029844E-03   0.0000000E+00   5.4897923E-02  -3.9397045E-03   0.0000000E+00   7.0703879E-02  -1.8496083E-03   0.0000000E+00   8.6081840E-02   1.6543486E-03   0.0000000E+00   1.0376226E-01   7.6176389E-03   0.0000000E+00   1.1624851E-01   1.7326890E-02   0.0000000E+00   1.0072972E-01  -7.0311390E-03   0.0000000E+00   2.5060166E-02  -5.7136165E-03   0.0000000E+00   3.6903758E-02  -4.7865217E-03   0.0000000E+00   5.0184924E-02  -4.0052887E-03   0.0000000E+00   6.3748941E-02  -2.4104062E-03   0.0000000E+00   7.8110300E-02   1.3827062E-03   0.0000000E+00   9.3766853E-02   8.6451517E-03   0.0000000E+00   9.8898418E-02  -4.6336269E-03   0.0000000E+00   2.4950342E-02  -3.8121706E-03   0.0000000E+00   3.5029903E-02  -3.6104848E-03   0.0000000E+00   4.6129812E-02  -3.4798605E-03   0.0000000E+00   5.8077484E-02  -2.0369194E-03   0.0000000E+00   7.1770839E-02   2.1704054E-03   0.0000000E+00   8.3982207E-02   1.0192407E-02   0.0000000E+00   8.1593975E-02  -1.7310649E-03   0.0000000E+00   2.4843400E-02  -1.5328941E-03   0.0000000E+00   3.3335108E-02  -1.9149173E-03   0.0000000E+00   4.2802822E-02  -1.9287725E-03   0.0000000E+00   5.3860139E-02  -9.4125491E-05   0.0000000E+00   6.6344835E-02   4.4218278E-03   0.0000000E+00   7.3554188E-02   1.3262621E-03   0.0000000E+00   2.4550343E-02   9.9631806E-04   0.0000000E+00   3.1833723E-02   5.9162657E-04   0.0000000E+00   4.0417846E-02   1.2302571E-03   0.0000000E+00   5.0888848E-02   3.8279884E-03   0.0000000E+00   6.0733706E-02   8.5705388E-03   0.0000000E+00   6.2505983E-02   4.3634856E-03   0.0000000E+00   2.4134073E-02   4.1501885E-03   0.0000000E+00   3.0760556E-02   4.6399492E-03   0.0000000E+00   3.8936727E-02   6.3446187E-03   0.0000000E+00   4.8410621E-02   9.3429284E-03   0.0000000E+00   5.4756559E-02   8.1686424E-03   0.0000000E+00   2.3857659E-02   9.2164241E-03   0.0000000E+00   3.0134756E-02   1.0926211E-02   0.0000000E+00   3.7795268E-02   1.2715054E-02   0.0000000E+00   4.5747545E-02   1.4298590E-02   0.0000000E+00   2.3900185E-02   1.6271347E-02   0.0000000E+00   2.9926931E-02   1.7821880E-02   0.0000000E+00   3.6673870E-02   1.8948406E-02   0.0000000E+00   4.3394100E-02   2.0990698E-02   0.0000000E+00   2.4510091E-02   2.1135340E-02   0.0000000E+00   3.0322887E-02   2.2533350E-02   0.0000000E+00   2.6014872E-02 
Force 3 2975 float
0.0 0.0 0.0 0.0 0.0 0.0 0.0 0.0 0.0 0.0 0.0 0.0 0.0 0.0 0.0 0.0 0.0 0.0 0.0 0.0 0.0 0.0 0.0 0.0 0.0 0.0 0.0 0.0 0.0 0.0 0.0 0.0 0.0 0.0 0.0 0.0 0.0 0.0 0.0 0.0 0.0 0.0 0.0 0.0 0.0 0.0 0.0 0.0 0.0 0.0 0.0 0.0 0.0 0.0 0.0 0.0 0.0 0.0 0.0 0.0 0.0 0.0 0.0 0.0 0.0 0.0 0.0 0.0 0.0 0.0 0.0 0.0 0.0 0.0 0.0 0.0 0.0 0.0 0.0 0.0 0.0 0.0 0.0 0.0 0.0 0.0 0.0 0.0 0.0 0.0 0.0 0.0 0.0 0.0 0.0 0.0 0.0 0.0 0.0 0.0 0.0 0.0 0.0 0.0 0.0 0.0 0.0 0.0 0.0 0.0 0.0 0.0 0.0 0.0 0.0 0.0 0.0 0.0 0.0 0.0 0.0 0.0 0.0 0.0 0.0 0.0 0.0 0.0 0.0 0.0 0.0 0.0 0.0 0.0 0.0 0.0 0.0 0.0 0.0 0.0 0.0 0.0 0.0 0.0 0.0 0.0 0.0 0.0 0.0 0.0 0.0 0.0 0.0 0.0 0.0 0.0 0.0 0.0 0.0 0.0 0.0 0.0 0.0 0.0 0.0 0.0 0.0 0.0 0.0 0.0 0.0 0.0 0.0 0.0 0.0 0.0 0.0 0.0 0.0 0.0 0.0 0.0 0.0 0.0 0.0 0.0 0.0 0.0 0.0 0.0 0.0 0.0 0.0 0.0 0.0 0.0 0.0 0.0 0.0 0.0 0.0 0.0 0.0 0.0 0.0 0.0 0.0 0.0 0.0 0.0 0.0 0.0 0.0 0.0 0.0 0.0 0.0 0.0 0.0 0.0 0.0 0.0 0.0 0.0 0.0 0.0 0.0 0.0 0.0 0.0 0.0 0.0 0.0 0.0 0.0 0.0 0.0 0.0 0.0 0.0 0.0 0.0 0.0 0.0 0.0 0.0 0.0 0.0 0.0 0.0 0.0 0.0 0.0 0.0 0.0 0.0 0.0 0.0 0.0 0.0 0.0 0.0 0.0 0.0 0.0 0.0 0.0 0.0 0.0 0.0 0.0 0.0 0.0 0.0 0.0 0.0 0.0 0.0 0.0 0.0 0.0 0.0 0.0 0.0 0.0 0.0 0.0 0.0 0.0 0.0 0.0 0.0 0.0 0.0 0.0 0.0 0.0 0.0 0.0 0.0 0.0 0.0 0.0 0.0 0.0 0.0 0.0 0.0 0.0 0.0 0.0 0.0 0.0 0.0 0.0 0.0 0.0 0.0 0.0 0.0 0.0 0.0 0.0 0.0 0.0 0.0 0.0 0.0 0.0 0.0 0.0 0.0 0.0 0.0 0.0 0.0 0.0 0.0 0.0 0.0 0.0 0.0 0.0 0.0 0.0 0.0 0.0 0.0 0.0 0.0 0.0 0.0 0.0 0.0 0.0 0.0 0.0 0.0 0.0 0.0 0.0 0.0 0.0 0.0 0.0 0.0 0.0 0.0 0.0 0.0 0.0 0.0 0.0 0.0 0.0 0.0 0.0 0.0 0.0 0.0 0.0 0.0 0.0 0.0 0.0 0.0 0.0 0.0 0.0 0.0 0.0 0.0 0.0 0.0 0.0 0.0 0.0 0.0 0.0 0.0 0.0 0.0 0.0 0.0 0.0 0.0 0.0 0.0 0.0 0.0 0.0 0.0 0.0 0.0 0.0 0.0 0.0 0.0 0.0 0.0 0.0 0.0 0.0 0.0 0.0 0.0 0.0 0.0 0.0 0.0 0.0 0.0 0.0 0.0 0.0 0.0 0.0 0.0 0.0 0.0 0.0 0.0 0.0 0.0 0.0 0.0 0.0 0.0 0.0 0.0 0.0 0.0 0.0 0.0 0.0 0.0 0.0 0.0 0.0 0.0 0.0 0.0 0.0 0.0 0.0 0.0 0.0 0.0 0.0 0.0 0.0 0.0 0.0 0.0 0.0 0.0 0.0 0.0 0.0 0.0 0.0 0.0 0.0 0.0 0.0 0.0 0.0 0.0 0.0 0.0 0.0 0.0 0.0 0.0 0.0 0.0 0.0 0.0 0.0 0.0 0.0 0.0 0.0 0.0 0.0 0.0 0.0 0.0 0.0 0.0 0.0 0.0 0.0 0.0 0.0 0.0 0.0 0.0 0.0 0.0 0.0 0.0 0.0 0.0 0.0 0.0 0.0 0.0 0.0 0.0 0.0 0.0 0.0 0.0 0.0 0.0 0.0 0.0 0.0 0.0 0.0 0.0 0.0 0.0 0.0 0.0 0.0 0.0 0.0 0.0 0.0 0.0 0.0 0.0 0.0 0.0 0.0 0.0 0.0 0.0 0.0 0.0 0.0 0.0 0.0 0.0 0.0 0.0 0.0 0.0 0.0 0.0 0.0 0.0 0.0 0.0 0.0 0.0 0.0 0.0 0.0 0.0 0.0 0.0 0.0 0.0 0.0 0.0 0.0 0.0 0.0 0.0 0.0 0.0 0.0 0.0 0.0 0.0 0.0 0.0 0.0 0.0 0.0 0.0 0.0 0.0 0.0 0.0 0.0 0.0 0.0 0.0 0.0 0.0 0.0 0.0 0.0 0.0 0.0 0.0 0.0 0.0 0.0 0.0 0.0 0.0 0.0 0.0 0.0 0.0 0.0 0.0 0.0 0.0 0.0 0.0 0.0 0.0 0.0 0.0 0.0 0.0 0.0 0.0 0.0 0.0 0.0 0.0 0.0 0.0 0.0 0.0 0.0 0.0 0.0 0.0 0.0 0.0 0.0 0.0 0.0 0.0 0.0 0.0 0.0 0.0 0.0 0.0 0.0 0.0 0.0 0.0 0.0 0.0 0.0 0.0 0.0 0.0 0.0 0.0 0.0 0.0 0.0 0.0 0.0 0.0 0.0 0.0 0.0 0.0 0.0 0.0 0.0 0.0 0.0 0.0 0.0 0.0 0.0 0.0 0.0 0.0 0.0 0.0 0.0 0.0 0.0 0.0 0.0 0.0 0.0 0.0 0.0 0.0 0.0 0.0 0.0 0.0 0.0 0.0 0.0 0.0 0.0 0.0 0.0 0.0 0.0 0.0 0.0 0.0 0.0 0.0 0.0 0.0 0.0 0.0 0.0 0.0 0.0 0.0 0.0 0.0 0.0 0.0 0.0 0.0 0.0 0.0 0.0 0.0 0.0 0.0 0.0 0.0 0.0 0.0 0.0 0.0 0.0 0.0 0.0 0.0 0.0 0.0 0.0 0.0 0.0 0.0 0.0 0.0 0.0 0.0 0.0 0.0 0.0 0.0 0.0 0.0 0.0 0.0 0.0 0.0 0.0 0.0 0.0 0.0 0.0 0.0 0.0 0.0 0.0 0.0 0.0 0.0 0.0 0.0 0.0 0.0 0.0 0.0 0.0 0.0 0.0 0.0 0.0 0.0 0.0 0.0 0.0 0.0 0.0 0.0 0.0 0.0 0.0 0.0 0.0 0.0 0.0 0.0 0.0 0.0 0.0 0.0 0.0 0.0 0.0 0.0 0.0 0.0 0.0 0.0 0.0 0.0 0.0 0.0 0.0 0.0 0.0 0.0 0.0 0.0 0.0 0.0 0.0 0.0 0.0 0.0 0.0 0.0 0.0 0.0 0.0 0.0 0.0 0.0 0.0 0.0 0.0 0.0 0.0 0.0 0.0 0.0 0.0 0.0 0.0 0.0 0.0 0.0 0.0 0.0 0.0 0.0 0.0 0.0 0.0 0.0 0.0 0.0 0.0 0.0 0.0 0.0 0.0 0.0 0.0 0.0 0.0 0.0 0.0 0.0 0.0 0.0 0.0 0.0 0.0 0.0 0.0 0.0 0.0 0.0 0.0 0.0 0.0 0.0 0.0 0.0 0.0 0.0 0.0 0.0 0.0 0.0 0.0 0.0 0.0 0.0 0.0 0.0 0.0 0.0 0.0 0.0 0.0 0.0 0.0 0.0 0.0 0.0 0.0 0.0 0.0 0.0 0.0 0.0 0.0 0.0 0.0 0.0 0.0 0.0 0.0 0.0 0.0 0.0 0.0 0.0 0.0 0.0 0.0 0.0 0.0 0.0 0.0 0.0 0.0 0.0 0.0 0.0 0.0 0.0 0.0 0.0 0.0 0.0 0.0 0.0 0.0 0.0 0.0 0.0 0.0 0.0 0.0 0.0 0.0 0.0 0.0 0.0 0.0 0.0 0.0 0.0 0.0 0.0 0.0 0.0 0.0 0.0 0.0 0.0 0.0 0.0 0.0 0.0 0.0 0.0 0.0 0.0 0.0 0.0 0.0 0.0 0.0 0.0 0.0 0.0 0.0 0.0 0.0 0.0 0.0 0.0 0.0 0.0 0.0 0.0 0.0 0.0 0.0 0.0 0.0 0.0 0.0 0.0 0.0 0.0 0.0 0.0 0.0 0.0 0.0 0.0 0.0 0.0 0.0 0.0 0.0 0.0 0.0 0.0 0.0 0.0 0.0 0.0 0.0 0.0 0.0 0.0 0.0 0.0 0.0 0.0 0.0 0.0 0.0 0.0 0.0 0.0 0.0 0.0 0.0 0.0 0.0 0.0 0.0 0.0 0.0 0.0 0.0 0.0 0.0 0.0 0.0 0.0 0.0 0.0 0.0 0.0 0.0 0.0 0.0 0.0 0.0 0.0 0.0 0.0 0.0 0.0 0.0 0.0 0.0 0.0 0.0 0.0 0.0 0.0 0.0 0.0 0.0 0.0 0.0 0.0 0.0 0.0 0.0 0.0 0.0 0.0 0.0 0.0 0.0 0.0 0.0 0.0 0.0 0.0 0.0 0.0 0.0 0.0 0.0 0.0 0.0 0.0 0.0 0.0 0.0 0.0 0.0 0.0 0.0 0.0 0.0 0.0 0.0 0.0 0.0 0.0 0.0 0.0 0.0 0.0 0.0 0.0 0.0 0.0 0.0 0.0 0.0 0.0 0.0 0.0 0.0 0.0 0.0 0.0 0.0 0.0 0.0 0.0 0.0 0.0 0.0 0.0 0.0 0.0 0.0 0.0 0.0 0.0 0.0 0.0 0.0 0.0 0.0 0.0 0.0 0.0 0.0 0.0 0.0 0.0 0.0 0.0 0.0 0.0 0.0 0.0 0.0 0.0 0.0 0.0 0.0 0.0 0.0 0.0 0.0 0.0 0.0 0.0 0.0 0.0 0.0 0.0 0.0 0.0 0.0 0.0 0.0 0.0 0.0 0.0 0.0 0.0 0.0 0.0 0.0 0.0 0.0 0.0 0.0 0.0 0.0 0.0 0.0 0.0 0.0 0.0 0.0 0.0 0.0 0.0 0.0 0.0 0.0 0.0 0.0 0.0 0.0 0.0 0.0 0.0 0.0 0.0 0.0 0.0 0.0 0.0 0.0 0.0 0.0 0.0 0.0 0.0 0.0 0.0 0.0 0.0 0.0 0.0 0.0 0.0 0.0 0.0 0.0 0.0 0.0 0.0 0.0 0.0 0.0 0.0 0.0 0.0 0.0 0.0 0.0 0.0 0.0 0.0 0.0 0.0 0.0 0.0 0.0 0.0 0.0 0.0 0.0 0.0 0.0 0.0 0.0 0.0 0.0 0.0 0.0 0.0 0.0 0.0 0.0 0.0 0.0 0.0 0.0 0.0 0.0 0.0 0.0 0.0 0.0 0.0 0.0 0.0 0.0 0.0 0.0 0.0 0.0 0.0 0.0 0.0 0.0 0.0 0.0 0.0 0.0 0.0 0.0 0.0 0.0 0.0 0.0 0.0 0.0 0.0 0.0 0.0 0.0 0.0 0.0 0.0 0.0 0.0 0.0 0.0 0.0 0.0 0.0 0.0 0.0 0.0 0.0 0.0 0.0 0.0 0.0 0.0 0.0 0.0 0.0 0.0 0.0 0.0 0.0 0.0 0.0 0.0 0.0 0.0 0.0 0.0 0.0 0.0 0.0 0.0 0.0 0.0 0.0 0.0 0.0 0.0 0.0 0.0 0.0 0.0 0.0 0.0 0.0 0.0 0.0 0.0 0.0 0.0 0.0 0.0 0.0 0.0 0.0 0.0 0.0 0.0 0.0 0.0 0.0 0.0 0.0 0.0 0.0 0.0 0.0 0.0 0.0 0.0 0.0 0.0 0.0 0.0 0.0 0.0 0.0 0.0 0.0 0.0 0.0 0.0 0.0 0.0 0.0 0.0 0.0 0.0 0.0 0.0 0.0 0.0 0.0 0.0 0.0 0.0 0.0 0.0 0.0 0.0 0.0 0.0 0.0 0.0 0.0 0.0 0.0 0.0 0.0 0.0 0.0 0.0 0.0 0.0 0.0 0.0 0.0 0.0 0.0 0.0 0.0 0.0 0.0 0.0 0.0 0.0 0.0 0.0 0.0 0.0 0.0 0.0 0.0 0.0 0.0 0.0 0.0 0.0 0.0 0.0 0.0 0.0 0.0 0.0 0.0 0.0 0.0 0.0 0.0 0.0 0.0 0.0 0.0 0.0 0.0 0.0 0.0 0.0 0.0 0.0 0.0 0.0 0.0 0.0 0.0 0.0 0.0 0.0 0.0 0.0 0.0 0.0 0.0 0.0 0.0 0.0 0.0 0.0 0.0 0.0 0.0 0.0 0.0 0.0 0.0 0.0 0.0 0.0 0.0 0.0 0.0 0.0 0.0 0.0 0.0 0.0 0.0 0.0 0.0 0.0 0.0 0.0 0.0 0.0 0.0 0.0 0.0 0.0 0.0 0.0 0.0 0.0 0.0 0.0 0.0 0.0 0.0 0.0 0.0 0.0 0.0 0.0 0.0 0.0 0.0 0.0 0.0 0.0 0.0 0.0 0.0 0.0 0.0 0.0 0.0 0.0 0.0 0.0 0.0 0.0 0.0 0.0 0.0 0.0 0.0 0.0 0.0 0.0 0.0 0.0 0.0 0.0 0.0 0.0 0.0 0.0 0.0 0.0 0.0 0.0 0.0 0.0 0.0 0.0 0.0 0.0 0.0 0.0 0.0 0.0 0.0 0.0 0.0 0.0 0.0 0.0 0.0 0.0 0.0 0.0 0.0 0.0 0.0 0.0 0.0 0.0 0.0 0.0 0.0 0.0 0.0 0.0 0.0 0.0 0.0 0.0 0.0 0.0 0.0 0.0 0.0 0.0 0.0 0.0 0.0 0.0 0.0 0.0 0.0 0.0 0.0 0.0 0.0 0.0 0.0 0.0 0.0 0.0 0.0 0.0 0.0 0.0 0.0 0.0 0.0 0.0 0.0 0.0 0.0 0.0 0.0 0.0 0.0 0.0 0.0 0.0 0.0 0.0 0.0 0.0 0.0 0.0 0.0 0.0 0.0 0.0 0.0 0.0 0.0 0.0 0.0 0.0 0.0 0.0 0.0 0.0 0.0 0.0 0.0 0.0 0.0 0.0 0.0 0.0 0.0 0.0 0.0 0.0 0.0 0.0 0.0 0.0 0.0 0.0 0.0 0.0 0.0 0.0 0.0 0.0 0.0 0.0 0.0 0.0 0.0 0.0 0.0 0.0 0.0 0.0 0.0 0.0 0.0 0.0 0.0 0.0 0.0 0.0 0.0 0.0 0.0 0.0 0.0 0.0 0.0 0.0 0.0 0.0 0.0 0.0 0.0 0.0 0.0 0.0 0.0 0.0 0.0 0.0 0.0 0.0 0.0 0.0 0.0 0.0 0.0 0.0 0.0 0.0 0.0 0.0 0.0 0.0 0.0 0.0 0.0 0.0 0.0 0.0 0.0 0.0 0.0 0.0 0.0 0.0 0.0 0.0 0.0 0.0 0.0 0.0 0.0 0.0 0.0 0.0 0.0 0.0 0.0 0.0 0.0 0.0 0.0 0.0 0.0 0.0 0.0 0.0 0.0 0.0 0.0 0.0 0.0 0.0 0.0 0.0 0.0 0.0 0.0 0.0 0.0 0.0 0.0 0.0 0.0 0.0 0.0 0.0 0.0 0.0 0.0 0.0 0.0 0.0 0.0 0.0 0.0 0.0 0.0 0.0 0.0 0.0 0.0 0.0 0.0 0.0 0.0 0.0 0.0 0.0 0.0 0.0 0.0 0.0 0.0 0.0 0.0 0.0 0.0 0.0 0.0 0.0 0.0 0.0 0.0 0.0 0.0 0.0 0.0 0.0 0.0 0.0 0.0 0.0 0.0 0.0 0.0 0.0 0.0 0.0 0.0 0.0 0.0 0.0 0.0 0.0 0.0 0.0 0.0 0.0 0.0 0.0 0.0 0.0 0.0 0.0 0.0 0.0 0.0 0.0 0.0 0.0 0.0 0.0 0.0 0.0 0.0 0.0 0.0 0.0 0.0 0.0 0.0 0.0 0.0 0.0 0.0 0.0 0.0 0.0 0.0 0.0 0.0 0.0 0.0 0.0 0.0 0.0 0.0 0.0 0.0 0.0 0.0 0.0 0.0 0.0 0.0 0.0 0.0 0.0 0.0 0.0 0.0 0.0 0.0 0.0 0.0 0.0 0.0 0.0 0.0 0.0 0.0 0.0 0.0 0.0 0.0 0.0 0.0 0.0 0.0 0.0 0.0 0.0 0.0 0.0 0.0 0.0 0.0 0.0 0.0 0.0 0.0 0.0 0.0 0.0 0.0 0.0 0.0 0.0 0.0 0.0 0.0 0.0 0.0 0.0 0.0 0.0 0.0 0.0 0.0 0.0 0.0 0.0 0.0 0.0 0.0 0.0 0.0 0.0 0.0 0.0 0.0 0.0 0.0 0.0 0.0 0.0 0.0 0.0 0.0 0.0 0.0 0.0 0.0 0.0 0.0 0.0 0.0 0.0 0.0 0.0 0.0 0.0 0.0 0.0 0.0 0.0 0.0 0.0 0.0 0.0 0.0 0.0 0.0 0.0 0.0 0.0 0.0 0.0 0.0 0.0 0.0 0.0 0.0 0.0 0.0 0.0 0.0 0.0 0.0 0.0 0.0 0.0 0.0 0.0 0.0 0.0 0.0 0.0 0.0 0.0 0.0 0.0 0.0 0.0 0.0 0.0 0.0 0.0 0.0 0.0 0.0 0.0 0.0 0.0 0.0 0.0 0.0 0.0 0.0 0.0 0.0 0.0 0.0 0.0 0.0 0.0 0.0 0.0 0.0 0.0 0.0 0.0 0.0 0.0 0.0 0.0 0.0 0.0 0.0 0.0 0.0 0.0 0.0 0.0 0.0 0.0 0.0 0.0 0.0 0.0 0.0 0.0 0.0 0.0 0.0 0.0 0.0 0.0 0.0 0.0 0.0 0.0 0.0 0.0 0.0 0.0 0.0 0.0 0.0 0.0 0.0 0.0 0.0 0.0 0.0 0.0 0.0 0.0 0.0 0.0 0.0 0.0 0.0 0.0 0.0 0.0 0.0 0.0 0.0 0.0 0.0 0.0 0.0 0.0 0.0 0.0 0.0 0.0 0.0 0.0 0.0 0.0 0.0 0.0 0.0 0.0 0.0 0.0 0.0 0.0 0.0 0.0 0.0 0.0 0.0 0.0 0.0 0.0 0.0 0.0 0.0 0.0 0.0 0.0 0.0 0.0 0.0 0.0 0.0 0.0 0.0 0.0 0.0 0.0 0.0 0.0 0.0 0.0 0.0 0.0 0.0 0.0 0.0 0.0 0.0 0.0 0.0 0.0 0.0 0.0 0.0 0.0 0.0 0.0 0.0 0.0 0.0 0.0 0.0 0.0 0.0 0.0 0.0 0.0 0.0 0.0 0.0 0.0 0.0 0.0 0.0 0.0 0.0 0.0 0.0 0.0 0.0 0.0 0.0 0.0 0.0 0.0 0.0 0.0 0.0 0.0 0.0 0.0 0.0 0.0 0.0 0.0 0.0 0.0 0.0 0.0 0.0 0.0 0.0 0.0 0.0 0.0 0.0 0.0 0.0 0.0 0.0 0.0 0.0 0.0 0.0 0.0 0.0 0.0 0.0 0.0 0.0 0.0 0.0 0.0 0.0 0.0 0.0 0.0 0.0 0.0 0.0 0.0 0.0 0.0 0.0 0.0 0.0 0.0 0.0 0.0 0.0 0.0 0.0 0.0 0.0 0.0 0.0 0.0 0.0 0.0 0.0 0.0 0.0 0.0 0.0 0.0 0.0 0.0 0.0 0.0 0.0 0.0 0.0 0.0 0.0 0.0 0.0 0.0 0.0 0.0 0.0 0.0 0.0 0.0 0.0 0.0 0.0 0.0 0.0 0.0 0.0 0.0 0.0 0.0 0.0 0.0 0.0 0.0 0.0 0.0 0.0 0.0 0.0 0.0 0.0 0.0 0.0 0.0 0.0 0.0 0.0 0.0 0.0 0.0 0.0 0.0 0.0 0.0 0.0 0.0 0.0 0.0 0.0 0.0 0.0 0.0 0.0 0.0 0.0 0.0 0.0 0.0 0.0 0.0 0.0 0.0 0.0 0.0 0.0 0.0 0.0 0.0 0.0 0.0 0.0 0.0 0.0 0.0 0.0 0.0 0.0 0.0 0.0 0.0 0.0 0.0 0.0 0.0 0.0 0.0 0.0 0.0 0.0 0.0 0.0 0.0 0.0 0.0 0.0 0.0 0.0 0.0 0.0 0.0 0.0 0.0 0.0 0.0 0.0 0.0 0.0 0.0 0.0 0.0 0.0 0.0 0.0 0.0 0.0 0.0 0.0 0.0 0.0 0.0 0.0 0.0 0.0 0.0 0.0 0.0 0.0 0.0 0.0 0.0 0.0 0.0 0.0 0.0 0.0 0.0 0.0 0.0 0.0 0.0 0.0 0.0 0.0 0.0 0.0 0.0 0.0 0.0 0.0 0.0 0.0 0.0 0.0 0.0 0.0 0.0 0.0 0.0 0.0 0.0 0.0 0.0 0.0 0.0 0.0 0.0 0.0 0.0 0.0 0.0 0.0 0.0 0.0 0.0 0.0 0.0 0.0 0.0 0.0 0.0 0.0 0.0 0.0 0.0 0.0 0.0 0.0 0.0 0.0 0.0 0.0 0.0 0.0 0.0 0.0 0.0 0.0 0.0 0.0 0.0 0.0 0.0 0.0 0.0 0.0 0.0 0.0 0.0 0.0 0.0 0.0 0.0 0.0 0.0 0.0 0.0 0.0 0.0 0.0 0.0 0.0 0.0 0.0 0.0 0.0 0.0 0.0 0.0 0.0 0.0 0.0 0.0 0.0 0.0 0.0 0.0 0.0 0.0 0.0 0.0 0.0 0.0 0.0 0.0 0.0 0.0 0.0 0.0 0.0 0.0 0.0 0.0 0.0 0.0 0.0 0.0 0.0 0.0 0.0 0.0 0.0 0.0 0.0 0.0 0.0 0.0 0.0 0.0 0.0 0.0 0.0 0.0 0.0 0.0 0.0 0.0 0.0 0.0 0.0 0.0 0.0 0.0 0.0 0.0 0.0 0.0 0.0 0.0 0.0 0.0 0.0 0.0 0.0 0.0 0.0 0.0 0.0 0.0 0.0 0.0 0.0 0.0 0.0 0.0 0.0 0.0 0.0 0.0 0.0 0.0 0.0 0.0 0.0 0.0 0.0 0.0 0.0 0.0 0.0 0.0 0.0 0.0 0.0 0.0 0.0 0.0 0.0 0.0 0.0 0.0 0.0 0.0 0.0 0.0 0.0 0.0 0.0 0.0 0.0 0.0 0.0 0.0 0.0 0.0 0.0 0.0 0.0 0.0 0.0 0.0 0.0 0.0 0.0 0.0 0.0 0.0 0.0 0.0 0.0 0.0 0.0 0.0 0.0 0.0 0.0 0.0 0.0 0.0 0.0 0.0 0.0 0.0 0.0 0.0 0.0 0.0 0.0 0.0 0.0 0.0 0.0 0.0 0.0 0.0 0.0 0.0 0.0 0.0 0.0 0.0 0.0 0.0 0.0 0.0 0.0 0.0 0.0 0.0 0.0 0.0 0.0 0.0 0.0 0.0 0.0 0.0 0.0 0.0 0.0 0.0 0.0 0.0 0.0 0.0 0.0 0.0 0.0 0.0 0.0 0.0 0.0 0.0 0.0 0.0 0.0 0.0 0.0 0.0 0.0 0.0 0.0 0.0 0.0 0.0 0.0 0.0 0.0 0.0 0.0 0.0 0.0 0.0 0.0 0.0 0.0 0.0 0.0 0.0 0.0 0.0 0.0 0.0 0.0 0.0 0.0 0.0 0.0 0.0 0.0 0.0 0.0 0.0 0.0 0.0 0.0 0.0 0.0 0.0 0.0 0.0 0.0 0.0 0.0 0.0 0.0 0.0 0.0 0.0 0.0 0.0 0.0 0.0 0.0 0.0 0.0 0.0 0.0 0.0 0.0 0.0 0.0 0.0 0.0 0.0 0.0 0.0 0.0 0.0 0.0 0.0 0.0 0.0 0.0 0.0 0.0 0.0 0.0 0.0 0.0 0.0 0.0 0.0 0.0 0.0 0.0 0.0 0.0 0.0 0.0 0.0 0.0 0.0 0.0 0.0 0.0 0.0 0.0 0.0 0.0 0.0 0.0 0.0 0.0 0.0 0.0 0.0 0.0 0.0 0.0 0.0 0.0 0.0 0.0 0.0 0.0 0.0 0.0 0.0 0.0 0.0 0.0 0.0 0.0 0.0 0.0 0.0 0.0 0.0 0.0 0.0 0.0 0.0 0.0 0.0 0.0 0.0 0.0 0.0 0.0 0.0 0.0 0.0 0.0 0.0 0.0 0.0 0.0 0.0 0.0 0.0 0.0 0.0 0.0 0.0 0.0 0.0 0.0 0.0 0.0 0.0 0.0 0.0 0.0 0.0 0.0 0.0 0.0 0.0 0.0 0.0 0.0 0.0 0.0 0.0 0.0 0.0 0.0 0.0 0.0 0.0 0.0 0.0 0.0 0.0 0.0 0.0 0.0 0.0 0.0 0.0 0.0 0.0 0.0 0.0 0.0 0.0 0.0 0.0 0.0 0.0 0.0 0.0 0.0 0.0 0.0 0.0 0.0 0.0 0.0 0.0 0.0 0.0 0.0 0.0 0.0 0.0 0.0 0.0 0.0 0.0 0.0 0.0 0.0 0.0 0.0 0.0 0.0 0.0 0.0 0.0 0.0 0.0 0.0 0.0 0.0 0.0 0.0 0.0 0.0 0.0 0.0 0.0 0.0 0.0 0.0 0.0 0.0 0.0 0.0 0.0 0.0 0.0 0.0 0.0 0.0 0.0 0.0 0.0 0.0 0.0 0.0 0.0 0.0 0.0 0.0 0.0 0.0 0.0 0.0 0.0 0.0 0.0 0.0 0.0 0.0 0.0 0.0 0.0 0.0 0.0 0.0 0.0 0.0 0.0 0.0 0.0 0.0 0.0 0.0 0.0 0.0 0.0 0.0 0.0 0.0 0.0 0.0 0.0 0.0 0.0 0.0 0.0 0.0 0.0 0.0 0.0 0.0 0.0 0.0 0.0 0.0 0.0 0.0 0.0 0.0 0.0 0.0 0.0 0.0 0.0 0.0 0.0 0.0 0.0 0.0 0.0 0.0 0.0 0.0 0.0 0.0 0.0 0.0 0.0 0.0 0.0 0.0 -2.5774236644355903e-05 0.0 -8.10462380261559e-06 -3.185665479641635e-05 0.0 -7.5629957890748905e-06 -3.7082178127054436e-05 0.0 -6.80207257005181e-06 -4.15121170378029e-05 0.0 -5.91724654793116e-06 -4.5198417129960405e-05 0.0 -5.0263561256589e-06 -3.5302679282566965e-05 0.0 -1.529713798242844e-05 -4.8087241202181e-05 0.0 -1.5050001576250032e-05 -5.9406305485157603e-05 0.0 -1.4041347151033671e-05 -6.90039497250987e-05 0.0 -1.263808711595217e-05 -7.70741579268539e-05 0.0 -1.1007944275198601e-05 -8.37525940938148e-05 0.0 -9.36800223420005e-06 -6.47036256175906e-05 0.0 -2.758958228973954e-05 -8.76574461914361e-05 0.0 -2.724254228106354e-05 -0.00010780313869507841 0.0 -2.5321343033033562e-05 -0.00012481155912028892 0.0 -2.274889896872246e-05 -0.0001390330634758265 0.0 -1.980785369519633e-05 -0.00015074544776863611 0.0 -1.686267682156691e-05 -0.0001154795188869879 0.0 -4.87020492175512e-05 -0.0001557671278941781 0.0 -4.79911891997797e-05 -0.00019073252876831311 0.0 -4.45105131127628e-05 -0.0002200181415004534 0.0 -3.991669899791745e-05 -0.00024433649010841213 0.0 -3.474099006852473e-05 -0.0002642659986066498 0.0 -2.9568631139215762e-05 -0.00020174875704371883 0.0 -8.42540621063515e-05 -0.00027094807877370183 0.0 -8.2655282066382e-05 -0.00033034568825864204 0.0 -7.642560191064001e-05 -0.0003796275334906881 0.0 -6.83921457098036e-05 -0.00042019425050485604 0.0 -5.94947774873694e-05 -0.00045324881133122004 0.0 -5.06188612654715e-05 -0.0003464919366622982 0.0 -0.0001431959475798986 -0.000463036651575916 0.0 -0.0001396190874904771 -0.000561901934047548 0.0 -0.00012853817521345432 -0.000643093336077333 0.0 -0.00011470559086763971 -0.000709309737732743 0.0 -9.967427849185689e-05 -0.000762903299072582 0.0 -8.47466261186656e-05 -0.000586718974667974 0.0 -0.00023984714199617842 -0.0007796486994912171 0.0 -0.00023210517380262922 -0.000941265023531625 0.0 -0.0002125158253128955 -0.001072514266812856 0.0 -0.0001889521407238034 -0.001178493189462329 0.0 -0.0001637727160943178 -0.001263504711587617 0.0 -0.0001389765674744141 -0.000982495904562397 0.0 -0.0003967029139175726 -0.001295966592399164 0.0 -0.0003805234415130858 -0.001554723598868089 0.0 -0.0003462000366550007 -0.0017625021240625519 0.0 -0.00030654483166362063 -0.0019288931682223283 0.0 -0.0002647147826178694 -0.0020612858915321462 0.0 -0.00022386047759651183 -0.001628373040709325 0.0 -0.000646803456170086 -0.0021261975731549383 0.0 -0.000614445775361144 -0.002530624783265618 0.0 -0.0005556178138904451 -0.002852211231305279 0.0 -0.0004902432922560821 -0.0031083234377080843 0.0 -0.00042181145054528605 -0.003310997122774926 0.0 -0.0003551901168797527 -0.002669190306729756 0.0 -0.0010368792659219811 -0.0034408801260220013 0.0 -0.0009752438643810961 -0.004057434901435871 0.0 -0.0008778069419451731 -0.00454477771361944 0.0 -0.0007717250192931251 -0.00493048212326205 0.0 -0.000662700976567524 -0.00523525773088144 0.0 -0.0005555823738895591 -0.00432121570803039 0.0 -0.001641633401040834 -0.00549201973730049 0.0 -0.001524399798109994 -0.006411888560297211 0.0 -0.001363343794083594 -0.007135006178375151 0.0 -0.0011939735498493382 -0.00770261099256527 0.0 -0.0010254548256363701 -0.00815201140380028 0.0 -0.0008555841013896021 -0.0068770321719258 0.0 -0.002793883989847098 -0.00863674741591868 0.0 -0.00247268926181723 -0.009988127849703191 0.0 -0.002141426933535672 -0.01103995987599899 0.0 -0.001840550686013766 -0.01185672629641815 0.0 -0.0015686991192174773 -0.012504618312615451 0.0 -0.0012973953524348832 -0.01107174627679365 0.0 -0.00498385732459643 -0.01349765113744127 0.0 -0.00417404730435118 -0.015381980384549502 0.0 -0.003425813565645337 -0.01685805802145144 0.0 -0.002837926230948154 -0.01799609404990234 0.0 -0.002374121619353039 -0.018903928072598192 0.0 -0.0019366056084151391 -0.01772151924303797 0.0 -0.0084370922109273 -0.020951679723791982 0.0 -0.00689685377242134 -0.023455964586399102 0.0 -0.0054217641355441 -0.02541742703543566 0.0 -0.00445520851138021 -0.026957372673934304 0.0 -0.003586219329655481 -0.028192386704809655 0.0 -0.002852823831320594 -0.027745268293631692 0.0 -0.013979582749489562 -0.032076869201921716 0.0 -0.0112132522803313 -0.035342646483566144 0.0 -0.0085106242127656 -0.03791376734784416 0.0 -0.00655655056391376 -0.039921540998038504 0.0 -0.00520750893018772 -0.041547345038683604 0.0 -0.00411694330292358 -0.042620465065511606 0.0 -0.02119321572983038 -0.0483804772095119 0.0 -0.016846926821173162 -0.052608133315203295 0.0 -0.01259894551497363 -0.0559118453977961 0.0 -0.00956089823902245 -0.0584960494624012 0.0 -0.00749015538725388 -0.0605885095147127 0.0 -0.00586735694668392 -0.0640669896016747 0.0 -0.03171275319281881 -0.07176636579415911 0.0 -0.024896243822406083 -0.0772700619317515 0.0 -0.01834550405863759 -0.0815245460381136 0.0 -0.013722397543059931 -0.0848170381204259 0.0 -0.0106298562657464 -0.0874786101869652 0.0 -0.00825022340625558 -0.09463053436576331 0.0 -0.047064925176623106 -0.10492867462321681 0.0 -0.03651396731284916 -0.1121249348031233 0.0 -0.026486617862165433 -0.1175760069394001 0.0 -0.01951543288788581 -0.1217206630430165 0.0 -0.01493545797338644 -0.1250249791256244 0.0 -0.011495671087391772 -0.13790581544764532 0.0 -0.0672369776809244 -0.15161691179042272 0.0 -0.051459349286483706 -0.1609238680230966 0.0 -0.03688335212208378 -0.167740684193517 0.0 -0.026999471074986757 -0.1727771563194288 0.0 -0.02060276611506914 -0.1767003084175076 0.0 -0.015874362396859052 -0.1989445129736127 0.0 -0.09584054639601361 -0.21684112942102812 0.0 -0.0721321658033041 -0.2284276297106906 0.0 -0.050959629273990704 -0.236490445912261 0.0 -0.037039158525978944 -0.2422021220550529 0.0 -0.02821850830546269 -0.24653514216337843 0.0 -0.02186554734663867 -0.284560567114014 0.0 -0.1338191433454785 -0.30705068767626703 0.0 -0.0990011904750297 -0.32056180001404483 0.0 -0.0690667577266689 -0.3292166322304156 0.0 -0.0500747172518679 -0.33493154837328853 0.0 -0.03831945455798634 -0.3391642644791064 0.0 -0.030095238352380944 -0.40376077009401906 0.0 -0.18661322866533062 -0.43057949076448704 0.0 -0.1349115273727881 -0.44480697112017403 0.0 -0.0924764183119104 -0.45257761131443996 0.0 -0.06710059367751481 -0.45702509142562703 0.0 -0.051790841294771 -0.46022025150550605 0.0 -0.041609001040225004 -0.568997654224941 0.0 -0.2565540624138514 -0.598542734963568 0.0 -0.1802673045066825 -0.610852495271312 0.0 -0.12219062305476551 -0.615096975377424 0.0 -0.0895575302389382 -0.6163338154083451 0.0 -0.07031569775789241 -0.61719361542984 0.0 -0.057981981449549504 -0.7974659791763591 0.0 -0.3480784851254709 -0.825401588255429 0.0 -0.23791387732198502 -0.830808230012587 0.0 -0.1603051240991484 -0.827414868909745 0.0 -0.12026519108617441 -0.822944507456878 0.0 -0.0968374394721576 -0.8199852664951249 0.0 -0.0819027106183723 -1.1128802485230342 0.0 -0.46979921328865604 -1.1291260255810822 0.0 -0.31203700763851405 -1.118868090895325 0.0 -0.2111055778277377 -1.101727116812258 0.0 -0.1641829883919568 -1.088879503322278 0.0 -0.13682263966362082 -1.080845452760032 0.0 -0.1180504782453348 -1.54635739929632 0.0 -0.63263138341741 -1.53032980323431 0.0 -0.41049436361024 -1.489212399029923 0.0 -0.28403873378290234 -1.4498809022246901 0.0 -0.231013747779763 -1.42631576920326 0.0 -0.198980947706125 -1.4129392731362351 0.0 -0.1720834422806729 -2.1364586857293 0.0 -0.858262736827065 -2.049224178801033 0.0 -0.550842056512215 -1.9521918771020101 0.0 -0.3970109716773075 -1.88006695533957 0.0 -0.3375641035674705 -1.8419468018550598 0.0 -0.2982997110745395 -1.827427307034396 0.0 -0.2502446622754023 -2.920747122320559 0.0 -1.187665770183108 -2.6968564632053997 0.0 -0.7732384849212 -2.50793719331715 0.0 -0.5852199896703 -2.3948900159412694 0.0 -0.500997458649996 -2.3494272337734663 0.0 -0.427708102220784 -2.3311440804757497 0.0 -0.35418392339523 -3.917571452460723 0.0 -1.710159047934423 -3.45988430384751 0.0 -1.1486813664676598 -3.144681377960947 0.0 -0.8867816884987779 -3.006427820000511 0.0 -0.7169359108084049 -2.951818235031051 0.0 -0.590155813929497 -2.920249496326603 0.0 -0.48371896550316196 -5.0906104232093 0.0 -2.55313300441453 -4.3034890358822 0.0 -1.8026684116875749 -3.895811055982135 0.0 -1.300294869205365 -3.7185747882127846 0.0 -0.9932715067811799 -3.625510895901995 0.0 -0.792176416801165 -3.5694950838197155 0.0 -0.639367317518135 -6.3060712283192 0.0 -3.98418166142048 -5.2910286150492 0.0 -2.870771360848398 -4.7689433094576 0.0 -1.941924810159568 -4.47977483584332 0.0 -1.3831836171037042 -4.33218767624874 0.0 -1.0441800106261019 -4.24008468334962 0.0 -0.818982455256342 -7.3805427867784 0.0 -6.348247484092 -6.1756650801648005 0.0 -4.774597843284 -5.573358087728261 0.0 -3.178747780541836 -5.2541793668776 0.0 -2.02175500929128 -5.0251255708005695 0.0 -1.3902918037123109 -4.8758705139032 0.0 -1.02489601470048 -8.068317660333 0.0 -10.033372926401 -6.75833185416851 0.0 -7.95844943588772 -6.20122810321861 0.0 -5.3505351181828695 -5.9178713771359 0.0 -3.212796784666608 -5.67431962604786 0.0 -1.951085255832334 -5.46939100439997 0.0 -1.3140142496982798 -8.213211901161 0.0 -14.536184778994 -7.040433815931 0.0 -12.0304519915472 -6.599092620191441 0.0 -8.231506280289441 -6.39476059726539 0.0 -4.83693993865803 -6.15464004647373 0.0 -2.779725932237149 -5.92085310449788 0.0 -1.730097474766124 -7.60864049036077 0.0 -18.50922003435022 -6.781150927248279 0.0 -15.66047832409708 -6.4841473701925 0.0 -10.827264958062498 -6.396043632375 0.0 -6.3595360310155 -6.2291981194335 0.0 -3.5698169813176 -6.013342007362 0.0 -2.119340682367695 -6.08852960329912 0.0 -21.11466311717568 -5.7755329669752 0.0 -18.0449914662056 -5.634270086579029 0.0 -12.598586859328499 -5.56810121422431 0.0 -7.43392000912549 -5.45336998164238 0.0 -4.16572798108012 -5.31345448347671 0.0 -2.445764290505327 -4.271950950109501 0.0 -22.63242432273552 -4.1944519768509005 0.0 -19.36002679428465 -4.109806713112319 0.0 -13.557409975148161 -4.02213782598792 0.0 -8.03078091941481 -3.915015661557228 0.0 -4.52815275254193 -3.8029824777662493 0.0 -2.676479691839739 -2.631720789504491 0.0 -23.47137196463436 -2.599203857381027 0.0 -20.04162664703931 -2.5538158103318316 0.0 -14.04231845311252 -2.4928429729890262 0.0 -8.3474098355543 -2.419675564195846 0.0 -4.73853731340814 -2.3422184826269405 0.0 -2.8260782841975076 -1.3472721128257439 0.0 -23.905282448591038 -1.33801084751811 0.0 -20.376270896673603 -1.318503489978192 0.0 -14.27450669821344 -1.2873082950849 0.0 -8.50652617814376 -1.24683258971475 0.0 -4.85390317822101 -1.202353944647526 0.0 -2.915956537769547 -0.39772297485431996 0.0 -24.0920163014064 -0.4021412133568049 0.0 -20.50708811417955 -0.4006196348069532 0.0 -14.360231000695322 -0.3928188565735632 0.0 -8.56777067320284 -0.3797871914067294 0.0 -4.90356092270331 -0.3637203049848456 0.0 -2.959383759065316 0.3460051368950274 0.0 -24.10968878719863 0.332595720579108 0.0 -20.5042617086418 0.32046511785910203 0.0 -14.349350879724602 0.3094418957943621 0.0 -8.56163386460592 0.2998529316158046 0.0 -4.9044905815009505 0.2921485263414234 0.0 -2.9654977060118193 1.022719667717748 0.0 -23.9974755814638 1.000599073548676 0.0 -20.40460491833452 0.975552414356088 0.0 -14.270096023104959 0.9477121018415201 0.0 -8.50554931406972 0.91854917961725 0.0 -4.86665700944316 0.890300361264383 0.0 -2.939946122873095 1.708286569984008 0.0 -23.576944331180517 1.6756728870092399 0.0 -20.040957762397742 1.6365966475075862 0.0 -14.006517114554459 1.59220656098352 0.0 -8.341262759136 1.544815713469827 0.0 -4.76806983504033 1.4977824996871079 0.0 -2.877907093453185 2.402208725187396 0.0 -22.84040072795832 2.357463839770134 0.0 -19.405520512587092 2.303574510773586 0.0 -13.55355920995938 2.2427054465202723 0.0 -8.06679647354484 2.177882790233724 0.0 -4.6084099662216005 2.1132300166720053 0.0 -2.7803936343333153 3.0599576675325837 0.0 -21.8132360413344 3.0027366374134647 0.0 -18.51869228076183 2.934412426369737 0.0 -12.92377527763029 2.8578924059477404 0.0 -7.688514382785601 2.7767704072857056 0.0 -4.39149211504848 2.6958515100585507 0.0 -2.6497914692732607 3.6270479192657845 0.0 -20.53769536171206 3.5585436276980724 0.0 -17.41647186822564 3.4774107687456177 0.0 -12.1417402854765 3.3870324318454474 0.0 -7.220017361041981 3.291510743509266 0.0 -4.1242711129083 3.196298966910621 0.0 -2.4901730970406293 4.06029903564864 0.0 -19.07191804190097 3.969836130448713 0.0 -16.1456683521645 3.89147232003042 0.0 -11.2415113818618 3.7899043261948804 0.0 -6.6810020777589605 3.67999428238494 0.0 -3.817258213325628 3.5614561851256505 0.0 -2.3083305097296782 4.33841109359445 0.0 -17.4820223214489 4.23420223915275 0.0 -14.7669240903162 4.15442833838604 0.0 -10.263103177104359 4.04202501680229 0.0 -6.09388809252825 3.890555293925178 0.0 -3.483977811488964 3.714607666217574 0.0 -2.11753578986973 4.50201457424236 0.0 -15.83489053303731 4.39317044690206 0.0 -13.346932170180379 4.2792485707405 0.0 -9.25038400074724 4.12701446157464 0.0 -5.484696570164 3.921145714029765 0.0 -3.13930557713548 3.7052891517336497 0.0 -1.922616388974552 4.64521852365984 0.0 -14.198179901825279 4.485132855828479 0.0 -11.93662511748096 4.317582612790019 0.0 -8.25403912231794 4.11550844394378 0.0 -4.886281034063369 3.858059567309652 0.0 -2.800374716892042 3.618291272450526 0.0 -1.7318660960084222 4.88172535063136 0.0 -12.6304800284872 4.59977253747768 0.0 -10.59362256842244 4.336623053301199 0.0 -7.32341180187077 4.073662782569601 0.0 -4.33607644854736 3.755625012017296 0.0 -2.488371293279696 3.49004646746076 0.0 -1.5505034276322802 5.2584069869889 0.0 -11.165812048652851 4.81036695255648 0.0 -9.3678195286872 4.39276287109923 0.0 -6.508095315683759 4.02958707094944 0.0 -3.8727949590570243 3.6341489644263 0.0 -2.229435471368505 3.34212958205874 0.0 -1.39904424974736 5.8201806022849505 0.0 -9.83985233029535 5.14286527138838 0.0 -8.29620872385522 4.5138552144527795 0.0 -5.84740596887788 3.994009313810132 0.0 -3.528866646458328 3.5135821072600053 0.0 -2.0493391390874054 3.190773631534885 0.0 -1.280760402749465 6.52438486095364 0.0 -8.66943296617608 5.57164890005428 0.0 -7.40372708787476 4.7010115336632 0.0 -5.365243039937201 3.9799443628261884 0.0 -3.32601944214538 3.4106228145730597 0.0 -1.954227440799704 3.04628993968814 0.0 -1.204073533448808 7.1705722637928595 0.0 -7.64925758855028 5.98768459218825 0.0 -6.690236802574499 4.91056818054246 0.0 -5.05632164921442 4.001662427984589 0.0 -3.264838690506216 3.3375690164017024 0.0 -1.951317593730507 2.920060770407172 0.0 -1.17708065467641 6.219581401401659 0.0 -6.120210117899339 5.0760701642415595 0.0 -4.86911048297664 4.06374548471736 0.0 -3.3244396701292445 3.308435413088454 0.0 -2.0377573364479495 2.8265712918405836 0.0 -1.212891241730868 6.26889106529329 0.0 -5.61982722768075 5.183669216514669 0.0 -4.72901474795281 4.165626235172501 0.0 -3.4545073474749532 3.340449396527838 0.0 -2.209628627907106 2.779351270676536 0.0 -1.315476299464872 5.24110847955318 0.0 -4.5835191811585805 4.30180960908534 0.0 -3.5936567258828283 3.4567142362289096 0.0 -2.454749395480278 2.807980859508033 0.0 -1.504125111973275 5.2979211554651995 0.0 -4.39765277412132 4.48177991323428 0.0 -3.683521091709324 3.669579774212604 0.0 -2.725603064716125 2.956784286377694 0.0 -1.782129294386691 4.65799136608836 0.0 -3.71300876685177 3.95435955812565 0.0 -2.959626793538298 3.253644474719682 0.0 -2.096319852583572 4.2387775701498 0.0 -3.1183850726729103 3.67756403909643 0.0 -2.36995765624566 4.459936782229611 0.0 -3.200650697238236 4.0532177831854 0.0 -2.5832592263689804 -4.82224572055614e-05 0.0 -4.16571530414288e-06 -5.06593852664846e-05 0.0 -3.3670738841768453e-06 -5.2584593314614795e-05 0.0 -2.666313466657835e-06 -5.40807813520195e-05 0.0 -2.058360091459001e-06 -5.52185573804639e-05 0.0 -1.5497806387445149e-06 -5.60624294015607e-05 0.0 -1.127178908179472e-06 -5.6664409416610204e-05 0.0 -7.785510594637761e-07 -5.70653254266331e-05 0.0 -4.86800532170013e-07 -5.7294333432358307e-05 0.0 -2.3362698184067442e-07 -8.9211442230286e-05 0.0 -7.7832041945801e-06 -9.36002143400053e-05 0.0 -6.309141757728541e-06 -9.70635424265885e-05 0.0 -5.01452372536309e-06 -9.97562104939052e-05 0.0 -3.885779097144475e-06 -0.00010180589854514739 0.0 -2.939776353494407e-06 -0.0001033295545832388 0.0 -2.148024813700619e-06 -0.0001044193666104841 0.0 -1.490839477270986e-06 -0.0001051474146286853 0.0 -9.358335033958371e-07 -0.0001055642066391051 0.0 -4.50378571259464e-07 -0.00016028497200712422 0.0 -1.4026057550651432e-05 -0.0001679353321983832 0.0 -1.13891802847295e-05 -0.00017396549634913732 0.0 -9.07164382679109e-06 -0.0001786503404662584 0.0 -7.0550641763766e-06 -0.00018221883255547071 0.0 -5.357220133930501e-06 -0.00018487458862186462 0.0 -3.930135898253395e-06 -0.0001867772366694308 0.0 -2.738969028474224e-06 -0.00018805108870127712 0.0 -1.7250542831263562e-06 -0.0001887814287195356 0.0 -8.322330608058261e-07 -0.000280439327010983 0.0 -2.459583101489576e-05 -0.00029336531533413274 0.0 -2.00052445001311e-05 -0.0003035412715885316 0.0 -1.595598639889965e-05 -0.00031143590778589755 0.0 -1.24428483110712e-05 -0.00031744971193624263 0.0 -9.47070743676768e-06 -0.0003219254640481364 0.0 -6.9697241742431e-06 -0.0003251347761283692 0.0 -4.87237732180943e-06 -0.0003272853641821339 0.0 -3.076314956907872e-06 -0.0003285199482129985 0.0 -1.486909477172736e-06 -0.00047995657199891397 0.0 -4.2094765052369106e-05 -0.000501216692530417 0.0 -3.4281428857035705e-05 -0.000517924892948122 0.0 -2.7361632284040793e-05 -0.0005308611732715289 0.0 -2.1377166934429163e-05 -0.000540708613517715 0.0 -1.6292921207323022e-05 -0.0005480312937007819 0.0 -1.2015437500385931e-05 -0.0005532813338320331 0.0 -8.4150322103758e-06 -0.000556799773919994 0.0 -5.32274893306872e-06 -0.000558818693970467 0.0 -2.5760674244016844e-06 -0.000805983900149597 0.0 -7.044638176115949e-05 -0.0008401280610032011 0.0 -5.741535743538391e-05 -0.000866906741672668 0.0 -4.5833481145837005e-05 -0.000887587142189678 0.0 -3.584890609622263e-05 -0.0009033115825827892 0.0 -2.733657108341426e-05 -0.000914987942874698 0.0 -2.0183569304589222e-05 -0.000923351983083799 0.0 -1.414685555367138e-05 -0.000928951183223779 0.0 -8.957823023945571e-06 -0.0009321639433040981 0.0 -4.33856650846416e-06 -0.0013312976332824401 0.0 -0.0001153997388849934 -0.001384732354618308 0.0 -9.40983023524575e-05 -0.0014266199956654991 0.0 -7.51192218779805e-05 -0.00145894683647367 0.0 -5.8795409469885206e-05 -0.001483507477087686 0.0 -4.4831397120784904e-05 -0.00150171643754291 0.0 -3.311916762797917e-05 -0.001514746957868673 0.0 -2.321663698041591e-05 -0.001523460198086504 0.0 -1.470773756769343e-05 -0.001528457678211441 0.0 -7.12567497814187e-06 -0.002166002494150061 0.0 -0.00018531913263297823 -0.002247840576196013 0.0 -0.0001509498477737461 -0.002311707177792678 0.0 -0.0001205337510133437 -0.002361035979025898 0.0 -9.444475436111881e-05 -0.002398639419965984 0.0 -7.20173098004327e-05 -0.002426515220662879 0.0 -5.3224125330603105e-05 -0.002446446821161169 0.0 -3.7306725732668126e-05 -0.002459765861494145 0.0 -2.364063019101574e-05 -0.002467398021684949 0.0 -1.1454305486357631e-05 -0.003470251806756293 0.0 -0.0002928062433201559 -0.003593927329848181 0.0 -0.0002378510379462758 -0.003690099812252493 0.0 -0.0001897969807449244 -0.0037643772541094294 0.0 -0.0001489814277245356 -0.003821318335532956 0.0 -0.00011378887884472192 -0.0038637553365938808 0.0 -8.414617410365431e-05 -0.0038941060173526484 0.0 -5.89438614735965e-05 -0.003914300457857509 0.0 -3.733988653349714e-05 -0.003925825018145623 0.0 -1.808919965222998e-05 -0.00547364893684122 0.0 -0.000456388091409702 -0.00565840454146011 0.0 -0.0003698417532460436 -0.00580205014505125 0.0 -0.00029490022737250555 -0.00591312494782812 0.0 -0.00023197527779938182 -0.005998671749966791 0.0 -0.0001777569564439238 -0.006062905351572631 0.0 -0.0001317613432940335 -0.00610915055272876 0.0 -9.228709430717731e-05 -0.006139946153498651 0.0 -5.8374241459356e-05 -0.0061574481539362 0.0 -2.8208527505213174e-05 -0.00850147781253694 0.0 -0.000701730497543262 -0.00877233461930836 0.0 -0.00056797561419939 -0.00898312502457812 0.0 -0.000452780251319506 -0.00914633462865836 0.0 -0.0003571431929285796 -0.009272631431815781 0.0 -0.0002747761388694033 -0.009368120234203001 0.0 -0.00020450398511259952 -0.009437434635935861 0.0 -0.00014353857158846422 -0.009483897837097442 0.0 -9.079270626981761e-05 -0.009510437437760932 0.0 -4.37997130949928e-05 -0.01300461192511529 0.0 -0.001061723786543094 -0.013391655934791389 0.0 -0.000859150581478764 -0.013692930742323261 0.0 -0.000685029857125746 -0.013926023548150581 0.0 -0.0005420709335517731 -0.0141069923526748 0.0 -0.000418819450470486 -0.01424453595611339 0.0 -0.0003132914518322861 -0.014345172358629301 0.0 -0.0002207829215195729 -0.014413243960331092 0.0 -0.00013999147549978682 -0.014452479961311993 0.0 -6.76405336910133e-05 -0.01959998208999954 0.0 -0.001577965039449125 -0.02013746410343659 0.0 -0.001275473591886839 -0.02055435091385876 0.0 -0.0010178913454472831 -0.02087611892190296 0.0 -0.0008081835802045891 -0.02112629772815743 0.0 -0.000626772975669324 -0.021316724132918092 0.0 -0.000471093571777339 -0.02145666973641673 0.0 -0.000333526088338152 -0.02155198493879961 0.0 -0.00021237705730942633 -0.02160736094018401 0.0 -0.0001029527785738194 -0.02913616352840407 0.0 -0.002301997937549947 -0.02985850954646272 0.0 -0.001857176646429415 -0.030415687560392174 0.0 -0.001482292477057311 -0.030843392771084797 0.0 -0.0011804403895110092 -0.03117589437939734 0.0 -0.000918654542966363 -0.03142902638572564 0.0 -0.000693051017326275 -0.03161534439038359 0.0 -0.000492560252314006 -0.03174267479356685 0.0 -0.00031496482787412054 -0.0318170167954254 0.0 -0.00015319765582994132 -0.042787713069692805 0.0 -0.00330100848252521 -0.0437286890932172 0.0 -0.002656062026401549 -0.0444476971111924 0.0 -0.002119352532983812 -0.0449955851248896 0.0 -0.00169075004226875 -0.045420917135522904 0.0 -0.001318909152972728 -0.045744505143612606 0.0 -0.000997651024941275 -0.0459835131495878 0.0 -0.000711345177783629 -0.0461477011536925 0.0 -0.00045650161141254 -0.046243909156097704 0.0 -0.00022268838156720938 -0.0621741135543528 0.0 -0.004673062916826571 -0.0633645415841135 0.0 -0.003747708053692699 -0.06426611760665289 0.0 -0.002984641554616037 -0.0649458856236471 0.0 -0.00238085805952145 -0.0654709136367728 0.0 -0.001859864646496615 -0.0658717456467936 0.0 -0.0014100282752507061 -0.0661705696542642 0.0 -0.001008864065221601 -0.066377641659441 0.0 -0.000649745376243634 -0.0664998616624965 0.0 -0.0003177090639427264 -0.08946462623661561 0.0 -0.0065354965633874105 -0.0909362942734073 0.0 -0.00522779853069496 -0.09204305830107641 0.0 -0.004160605704015141 -0.0928722103218052 0.0 -0.0033151869628796717 -0.0935122503378062 0.0 -0.0025923031048075765 -0.0940042983501074 0.0 -0.00197043964926099 -0.09437497035937421 0.0 -0.001414784075369601 -0.0946343343658583 0.0 -0.000914099662852491 -0.09478832236970801 0.0 -0.000447838851195971 -0.1274524951863123 0.0 -0.009083273427081831 -0.1292328512308212 0.0 -0.00725471098136777 -0.1305644552641113 0.0 -0.00578481574462039 -0.1315666232891655 0.0 -0.0046074873151871806 -0.1323477793086944 0.0 -0.003607132730178316 -0.1329552793238819 0.0 -0.002746122948653072 -0.1334168473354211 0.0 -0.001976391889409796 -0.1337423353435583 0.0 -0.001279467271986681 -0.1339368633484215 0.0 -0.000627562295689057 -0.1795441204886029 0.0 -0.01258395351459883 -0.18162100854052513 0.0 -0.0100833282520832 -0.1831749845793745 0.0 -0.00807475860186896 -0.1843683406092084 0.0 -0.00643741656093541 -0.18531760463294 0.0 -0.0050456633261415805 -0.18607062465176552 0.0 -0.003841268736031716 -0.1866496126662402 0.0 -0.002765565069139125 -0.1870614806765369 0.0 -0.0017907336847683413 -0.18730873268271822 0.0 -0.000878434941960873 -0.24964283024107062 0.0 -0.01746249083656226 -0.251927646298191 0.0 -0.01408514995212874 -0.25366044634151097 0.0 -0.01134764188369104 -0.255042846376071 0.0 -0.00906563862664096 -0.25618239040455965 0.0 -0.0071075537776888395 -0.2571129144278227 0.0 -0.0054037441350936 -0.2578422624460564 0.0 -0.0038836792970919805 -0.258365686459142 0.0 -0.002510665622766639 -0.258681326467033 0.0 -0.001230242590756064 -0.3421879605546988 0.0 -0.02433614940840372 -0.3444685086117125 0.0 -0.01981970129549252 -0.3462696406567408 0.0 -0.01606913080172826 -0.3477946126948651 0.0 -0.012862608321565201 -0.34911990872799753 0.0 -0.01006525785163144 -0.35024310075607734 0.0 -0.007631110590777761 -0.35114622877865553 0.0 -0.00546280173657004 -0.3518035727950891 0.0 -0.003521199968029997 -0.3522024968050622 0.0 -0.0017215570830389263 -0.462581411564535 0.0 -0.034157068453926694 -0.46448417161210404 0.0 -0.028121692703042298 -0.4661273716531841 0.0 -0.02289183177229578 -0.46765209169130195 0.0 -0.01832828125820702 -0.469090731727268 0.0 -0.01426818995670474 -0.470376451759411 0.0 -0.010757368268934201 -0.47145009178625197 0.0 -0.00766040779151019 -0.47225153180628804 0.0 -0.004914735722868391 -0.47274481181862 0.0 -0.0023988323799708083 -0.6180540554513511 0.0 -0.04839620920990521 -0.6190200954755021 0.0 -0.040198453004961304 -0.620106135502653 0.0 -0.03269975881749395 -0.621323175533079 0.0 -0.02609063145226577 -0.622680295567007 0.0 -0.02013706010342649 -0.6240238156005949 0.0 -0.015033328775833212 -0.6252125756303141 0.0 -0.010663031466575781 -0.62614601565365 0.0 -0.006801221770030541 -0.626732095668302 0.0 -0.003315112442877809 -0.8185379069516 0.0 -0.0692174619565385 -0.817853386694905 0.0 -0.0577224096458955 -0.817786826669945 0.0 -0.046640313490110996 -0.818233786837555 0.0 -0.03671527976822475 -0.819098826207032 0.0 -0.02816432435340244 -0.8202662265864371 0.0 -0.02078666475566385 -0.821439266967675 0.0 -0.014676873569982362 -0.82244894841824 0.0 -0.00930046948767475 -0.82310886866571 0.0 -0.00452811489804245 -1.0765770904047582 0.0 -0.09982534481650202 -1.07354712773916 0.0 -0.0828974652595435 -1.071583325529885 0.0 -0.066077498337102 -1.070537083772639 0.0 -0.0512065499263375 -1.070323243838226 0.0 -0.03895562210336026 -1.070937404483094 0.0 -0.028425207846436904 -1.071885565478662 0.0 -0.01987911607304996 -1.07285812649985 0.0 -0.01254866997608964 -1.073548687224938 0.0 -0.00609209559669366 -1.405775377554796 0.0 -0.1441512975283902 -1.4001332302926799 0.0 -0.117006531264103 -1.395077514286994 0.0 -0.09275898975036391 -1.391576266671797 0.0 -0.07086787013728231 -1.38961142239827 0.0 -0.0530976274870886 -1.389140477188876 0.0 -0.038470378787625804 -1.38959231813774 0.0 -0.026602005064093322 -1.3903788483453698 0.0 -0.0167033319824124 -1.39104260983883 0.0 -0.0080691309555038 -1.8181013121582479 0.0 -0.2048422420140264 -1.80857563745793 0.0 -0.164335350547857 -1.79954595711576 0.0 -0.1286649697178664 -1.7925458881548657 0.0 -0.09730727859934168 -1.788016525633728 0.0 -0.0718498694664288 -1.7859087125653679 0.0 -0.0515050873295616 -1.785571044387996 0.0 -0.03518715839803344 -1.786016607183885 0.0 -0.021959768996685777 -1.786588050769671 0.0 -0.010536743317649429 -2.3167748332267983 0.0 -0.2878455718268163 -2.3029142617486498 0.0 -0.22779863366764497 -2.288747619893955 0.0 -0.17624843477232122 -2.277078071142057 0.0 -0.1319926389464022 -2.26918091359065 0.0 -0.09622333960386 -2.26493492459445 0.0 -0.06822790468543499 -2.26344298035075 0.0 -0.04603471605197999 -2.2634065397586003 0.0 -0.0284997595135665 -2.263816196196093 0.0 -0.01355712771649698 -2.896866475117753 0.0 -0.3905252314445868 -2.873596778858154 0.0 -0.3079097513710772 -2.852378292181221 0.0 -0.23670948983546358 -2.834741041907957 0.0 -0.1758793411947505 -2.8225369205880004 0.0 -0.12650807048595003 -2.815499441567764 0.0 -0.08896170923296319 -2.8125578149445922 0.0 -0.059317579478998496 -2.8118450237078854 0.0 -0.0363671297196152 -2.812027340814 0.0 -0.017198723611240002 -3.526489268851415 0.0 -0.5166386459559 -3.491826026722215 0.0 -0.40169900268316 -3.458663020198338 0.0 -0.308001433383687 -3.433070535162075 0.0 -0.229013017528637 -3.415718511718325 0.0 -0.163041220465008 -3.405331925183574 0.0 -0.11305071452528699 -3.400602909066735 0.0 -0.07487558734708101 -3.39909021266909 0.0 -0.045282176417996 -3.39895819727459 0.0 -0.02135906151006955 -4.16962542163932 0.0 -0.6443485579211219 -4.10917117903272 0.0 -0.5117635892249459 -4.06310508120972 0.0 -0.384749160714776 -4.02557235234156 0.0 -0.2852121573108702 -4.0007899540319585 0.0 -0.20384728873648558 -3.9865855657536082 0.0 -0.1397024619154688 -3.9797032263841157 0.0 -0.0917312470566734 -3.9773245918959805 0.0 -0.0549118408814092 -3.976801794110964 0.0 -0.025640671382412324 -4.77304796142668 0.0 -0.792417978745923 -4.68691387990045 0.0 -0.6124084000828479 -4.6179069682368 0.0 -0.4684654591856 -4.56899954502881 0.0 -0.34033431397197833 -4.533863196724 0.0 -0.24175816509537598 -4.51399764673896 0.0 -0.1638043954488541 -4.50373220020031 0.0 -0.1057549024386239 -4.499050467139121 0.0 -0.0626394298519966 -4.49746731884442 0.0 -0.029067753125129166 -5.31269114849576 0.0 -0.975500624907608 -5.2021981874054495 0.0 -0.7450801877689169 -5.11475182043612 0.0 -0.557547334710756 -5.048049783486539 0.0 -0.40112645833382893 -5.00437384283698 0.0 -0.274081108064406 -4.97806961172046 0.0 -0.17800793574059298 -4.96213210511702 0.0 -0.11103171396424809 -4.95398428320853 0.0 -0.06478672949072169 -4.95026948108246 0.0 -0.029171921892978823 -5.72579514767092 0.0 -1.208832449979658 -5.58597562924288 0.0 -0.90916733351368 -5.48412155923975 0.0 -0.67576545276793 -5.41093069686684 0.0 -0.479525617797512 -5.35820280735188 0.0 -0.31819364185072324 -5.32176596984893 0.0 -0.1993683378824214 -5.29843633480236 0.0 -0.1184183756606788 -5.28486759757848 0.0 -0.06573444444083361 -5.27744084623084 0.0 -0.028569626150185524 -5.82028349487293 0.0 -1.431054806660421 -5.6793636978415 0.0 -1.0661568772617 -5.577333192767999 0.0 -0.7925875178137499 -5.502721201316359 0.0 -0.551484893304123 -5.45009332263615 0.0 -0.35822881608835727 -5.415141164986561 0.0 -0.2174163999117088 -5.3933208004879996 0.0 -0.1237895194050304 -5.380166139284801 0.0 -0.064478627310272 -5.37356513189824 0.0 -0.02724864948961088 -5.1784658302965 0.0 -1.6218317966230802 -5.066615993559861 0.0 -1.202747345334833 -4.98093721176282 0.0 -0.89222103064206 -4.91969078200012 0.0 -0.616007360731728 -4.87877572751676 0.0 -0.39170505108164116 -4.85360582205814 0.0 -0.22813791441060619 -4.83941819359687 0.0 -0.1215282579132527 -4.83214193011179 0.0 -0.0586089735027467 -4.8288704228134 0.0 -0.02301041382565862 -3.6985532461837525 0.0 -1.7829755426722107 -3.6103640758176176 0.0 -1.324800549503403 -3.54165549441453 0.0 -0.9832711461312059 -3.4919134328596138 0.0 -0.678612372799572 -3.4587939221761617 0.0 -0.43096725209256 -3.438686745556527 0.0 -0.2503719676793283 -3.4275941237336403 0.0 -0.132846900762744 -3.4220677521953786 0.0 -0.0637264205903331 -3.4196567541708895 0.0 -0.02490018230764269 -2.269266124745569 0.0 -1.897738553044894 -2.20690709073536 0.0 -1.4155754607616 -2.15750267734144 0.0 -1.05187422510208 -2.12136744668928 0.0 -0.72636002433408 -2.09721804731136 0.0 -0.46130453609856004 -2.082552555274026 0.0 -0.2678871058524518 -2.074475936568852 0.0 -0.14202156415436298 -2.0704502623731202 0.0 -0.06803909193023999 -2.0687000806656 0.0 -0.026555551663116798 -1.1593457662973399 0.0 -1.97169082491888 -1.1215469019492 0.0 -1.4762897343930599 -1.090878789931986 0.0 -1.0985381485212902 -1.06819182396126 0.0 -0.75904776877266 -1.0529859116109601 0.0 -0.4820866429196551 -1.0437715787646749 0.0 -0.2798627400456612 -1.038708668808 0.0 -0.14828157782528398 -1.03619281368465 0.0 -0.07099656124779241 -1.0350958860739798 0.0 -0.027697812884991 -0.3467997057920265 0.0 -2.010453128009055 -0.330810684107883 0.0 -1.5095048907205049 -0.317236955050758 0.0 -1.124562547305972 -0.3070134897031629 0.0 -0.777384162752631 -0.3001676696281998 0.0 -0.49372699445832 -0.2960452649021715 0.0 -0.28654071084860855 -0.29379706676370904 0.0 -0.15176113506234 -0.2926936854719244 0.0 -0.0726344170036884 -0.2922104310215985 0.0 -0.028318716987617704 0.28677614673909146 0.0 -2.019080918738295 0.28361614716846845 0.0 -1.518343751053866 0.2819134452983448 0.0 -1.131988309004232 0.2809018386818946 0.0 -0.7826921762604541 0.28021093242982287 0.0 -0.497058711397794 0.2797463693217168 0.0 -0.28840709130725967 0.2794457166864924 0.0 -0.1527152624852316 0.279288124005516 0.0 -0.0730843872295776 0.2792210296117653 0.0 -0.02849263598198619 0.8653158209369639 0.0 -2.001341668204853 0.8450459460137779 0.0 -1.505598570020501 0.829637705466572 0.0 -1.122866383692034 0.818583691808641 0.0 -0.776417145770822 0.81118640512064 0.0 -0.49301057063776005 0.806627589161881 0.0 -0.2860076090760245 0.804073283408666 0.0 -0.1514231203827947 0.8027872353394739 0.0 -0.07245602612651031 0.802218224126247 0.0 -0.02825355403219456 1.454865533351118 0.0 -1.9583404163574931 1.4189489058379199 0.0 -1.473388587924 1.391149625636169 0.0 -1.098979892844399 1.37108719037472 0.0 -0.7598622619262401 1.357707404682252 0.0 -0.48243040289408706 1.349518266292878 0.0 -0.27983157105016077 1.344953296517358 0.0 -0.1481402925549426 1.342642862835054 0.0 -0.0708862023358038 1.34162686793454 0.0 -0.02764715356481562 2.053672754809788 0.0 -1.8917835248053438 2.0034029474416557 0.0 -1.423508428644942 1.964386882072182 0.0 -1.06188263443341 1.9362853350084779 0.0 -0.7341714066954179 1.917572959807164 0.0 -0.46605938727858004 1.90615448482998 0.0 -0.270306290021229 1.8998014491282962 0.0 -0.1430951910502074 1.8965907133112039 0.0 -0.068472898206357 1.8951624526193398 0.0 -0.02671455102833526 2.62112052720252 0.0 -1.80366411454866 2.5579707416374498 0.0 -1.357778802921798 2.509035345490518 0.0 -1.013064898879971 2.473885725933522 0.0 -0.700439793674958 2.450524637832678 0.0 -0.44461883382109796 2.43629838243498 0.0 -0.257854377959052 2.428388062682385 0.0 -0.1365094126707657 2.4243896383011507 0.0 -0.0653316137159253 2.4226136669890708 0.0 -0.02548205388350064 3.108114466341984 0.0 -1.6967545254798602 3.03370152980976 0.0 -1.2784140646848 2.97623912877144 0.0 -0.95428795386393 2.935013093352318 0.0 -0.659925992206173 2.9076694876079996 0.0 -0.41893429123944 2.890904367665688 0.0 -0.2429882716836696 2.881541015916684 0.0 -0.1286895897896928 2.87675676742962 0.0 -0.061626762686904604 2.8746303366610078 0.0 -0.0240609562654626 3.445777743642429 0.0 -1.577978000602725 3.351666124105923 0.0 -1.192170901412682 3.2793373316738967 0.0 -0.8912724902791559 3.226120875062976 0.0 -0.618322080603216 3.188544134532804 0.0 -0.39481230079660107 3.164007718618878 0.0 -0.2315449238529207 3.1483017176677768 0.0 -0.12511893705297328 3.139250210284104 0.0 -0.061629744693497406 3.1350744120902005 0.0 -0.024903229124568056 3.5537849896903833 0.0 -1.4618720342667209 3.431819820874137 0.0 -1.1106434086365868 3.3428981046147297 0.0 -0.8327285910080641 3.2772858298570107 0.0 -0.580623894875976 3.228982068263928 0.0 -0.3762365607195696 3.1970401766681404 0.0 -0.2271174462650718 3.1756457320715517 0.0 -0.1296249335779128 3.161734467260088 0.0 -0.0679864645849584 3.15422299485063 0.0 -0.02898287317414584 3.5220338796308748 0.0 -1.34217462088812 3.3918689835036324 0.0 -1.02202843926176 3.296581973427895 0.0 -0.768481761082725 3.2273710362032304 0.0 -0.54144114365191 3.1787982666805403 0.0 -0.3575401776405935 3.142285739058305 0.0 -0.218768090554673 3.11829658850502 0.0 -0.1264006475463145 3.105340874415415 0.0 -0.0683043929409595 3.098357282910784 0.0 -0.029961789411550803 3.42938629987092 0.0 -1.219163951755818 3.295313666085366 0.0 -0.936524168783208 3.199276549624224 0.0 -0.707475716032224 3.128918455788642 0.0 -0.50178680761905 3.078170323041948 0.0 -0.33125622150587997 3.047044242848748 0.0 -0.20760455247364287 3.028295309732064 0.0 -0.12330289176218968 3.017400445293624 0.0 -0.06893553310912799 3.012003293233374 0.0 -0.031323366721386 3.3007560475250237 0.0 -1.10613734613624 3.174191994624464 0.0 -0.853858399362496 3.0779363200199255 0.0 -0.6468895150621901 3.00898835555963 0.0 -0.46053104562344 2.962659297344334 0.0 -0.31049397673007456 2.934845878956566 0.0 -0.2012771408260286 2.918159786592512 0.0 -0.1249434444997552 2.908981037611792 0.0 -0.0726341662736976 2.904808300931924 0.0 -0.03247118035159458 3.16004280056709 0.0 -1.002745963040385 3.0309258678531843 0.0 -0.779961111497568 2.93818857340707 0.0 -0.590102767882815 2.869701147507885 0.0 -0.42487754459223004 2.824740346955796 0.0 -0.2948129432749626 2.7966537887016902 0.0 -0.19680671147897252 2.781504138670245 0.0 -0.1262634811678545 2.77335045677379 0.0 -0.07305021973315201 2.769230922300735 0.0 -0.033580072458420304 3.002974557585637 0.0 -0.919432056092267 2.873504937826325 0.0 -0.709594287083 2.7801352386099176 0.0 -0.5414078938469039 2.7125169178776636 0.0 -0.39657051057883075 2.6653992101736517 0.0 -0.2796318573183078 2.637751618694674 0.0 -0.1901605988052984 2.6221941775305218 0.0 -0.1230250540477832 2.613413202263348 0.0 -0.0729586729203514 2.609338926203238 0.0 -0.03408417970869766 2.83669096807684 0.0 -0.8522122424480321 2.7023328696307516 0.0 -0.647243514770648 2.609489643952244 0.0 -0.497447451626784 2.53755724240004 0.0 -0.369075796342435 2.490517723500648 0.0 -0.2644852312441908 2.461560625634588 0.0 -0.1830960307947812 2.4438958727471882 0.0 -0.1202661354507516 2.434263345678424 0.0 -0.0719761721035208 2.4293746453745544 0.0 -0.03432404396560872 2.674768524140988 0.0 -0.8014128803294219 2.535211153803294 0.0 -0.595916158919076 2.433550734326952 0.0 -0.453873781839384 2.360825368510932 0.0 -0.3430725097681062 2.3107079323100703 0.0 -0.25019364287470497 2.2779144229957202 0.0 -0.1760096651727096 2.2580320477652283 0.0 -0.1170237195790938 2.2465230747201 0.0 -0.07131103522882021 2.240535328507386 0.0 -0.0339044020814448 2.537588890758828 0.0 -0.7790210899048919 2.3709584158155717 0.0 -0.550550734095771 2.266190972167716 0.0 -0.41498153152399797 2.188206159951036 0.0 -0.3165284604668004 2.134937181774276 0.0 -0.2337586465561446 2.099268618296424 0.0 -0.169389739980846 2.075250958876836 0.0 -0.1146002034039924 2.060790247295874 0.0 -0.07087403711091779 2.053259852353437 0.0 -0.03363412159114977 2.435314592840703 0.0 -0.800436856055998 2.2331166779253677 0.0 -0.5254761790374359 2.11283929317338 0.0 -0.3791343525802632 2.029932433673928 0.0 -0.2880070842482869 1.97213262568462 0.0 -0.21656475575872622 1.9321187936630089 0.0 -0.158839859182515 1.905589118763124 0.0 -0.1113239609383668 1.8877422285537342 0.0 -0.0699343079383753 1.87840582585788 0.0 -0.03334859354204476 2.38518887766471 0.0 -0.885039002481933 2.1341187344254053 0.0 -0.540091035682263 1.9839841892195131 0.0 -0.3552871188369321 1.8893412531890401 0.0 -0.2604791049899472 1.828767374537166 0.0 -0.19530451136471041 1.7837131263558088 0.0 -0.1448757505600779 1.754149947707136 0.0 -0.1033292534003856 1.7351119248067859 0.0 -0.0666880498357182 1.7241773137783918 0.0 -0.03205836976393722 2.426068427567337 0.0 -1.0630529709451861 2.094370820679273 0.0 -0.618071008495515 1.9005425310599278 0.0 -0.37278588750975356 1.7820167919895078 0.0 -0.2445670709934876 1.70404534929192 0.0 -0.173086015037874 1.657306797849897 0.0 -0.1276724624680863 1.6233157937547 0.0 -0.08872297345911301 1.6022469871763638 0.0 -0.05773311780208199 1.59097774837176 0.0 -0.0280000514952672 2.639721799911033 0.0 -1.346464870533897 2.17664125516656 0.0 -0.8049808045046879 1.8857391548280062 0.0 -0.46496998577299203 1.7196097633085219 0.0 -0.2729336691214761 1.6156799716367518 0.0 -0.171218594127168 1.55096605891212 0.0 -0.1121348501418618 1.511762436327024 0.0 -0.07406982451441439 1.4873117656288741 0.0 -0.046499167913817 1.473818212315545 0.0 -0.022426783033214853 3.0744259301222394 0.0 -1.6594538767811877 2.49607222002363 0.0 -1.0942302796707 2.04581442274104 0.0 -0.682422805049139 1.757432496592896 0.0 -0.39835027620379676 1.5850924995406679 0.0 -0.22932671004695157 1.48961088625905 0.0 -0.132235010248239 1.4316147024555 0.0 -0.07505569478728799 1.3994096530756501 0.0 -0.040198314405366004 1.383338677324884 0.0 -0.01727908782696957 3.5801223731842877 0.0 -1.961777331877504 3.048642013125628 0.0 -1.405021914278162 2.518506363118946 0.0 -0.964920265857828 2.062685502268916 0.0 -0.642703585730398 1.737610827907295 0.0 -0.40472478546682605 1.542114344021427 0.0 -0.2352022642752057 1.4308927712146462 0.0 -0.1264636790096858 1.3715280189344718 0.0 -0.0625974947950618 1.34287389710344 0.0 -0.025804882226569917 3.893259511694192 0.0 -2.2370336135443 3.5442230164571997 0.0 -1.7198011977728398 3.1346655446579197 0.0 -1.2671132790548398 2.6955155834020292 0.0 -0.9064525817388489 2.2884521183832 0.0 -0.6276051041736 1.9616404440556 0.0 -0.41392596914535995 1.7330469222737999 0.0 -0.25241741637072795 1.5937699126770482 0.0 -0.13757856567194782 1.52217299678948 0.0 -0.059577197495004 3.7585044998099 0.0 -2.008502803586125 3.559015133759008 0.0 -1.576014119194102 3.291042427127756 0.0 -1.2025327066020939 2.988529199888722 0.0 -0.8768463258442021 2.699392224782946 0.0 -0.60076616305608 2.469794717247494 0.0 -0.3764385040235946 2.316323789357975 0.0 -0.2100292893006225 2.231055869141424 0.0 -0.0919648110654338 3.5357819870984937 0.0 -1.514697105339359 3.4342364701009553 0.0 -1.159732459571504 3.3033049416243676 0.0 -0.824512953328236 3.185143771346258 0.0 -0.523423387372842 3.101090869324978 0.0 -0.2928741632999922 3.052233498765725 0.0 -0.1281899830783425 3.43725518336625 0.0 -1.076204234157 3.446973876511917 0.0 -0.688355683402089 3.451219759178205 0.0 -0.3850085931076026 3.4516538293815002 0.0 -0.1679250470559 -5.7368685434217106e-05 0.0 5.3033841325846e-12 -5.72942614323565e-05 0.0 2.336296178407403e-07 -5.706532142663301e-05 0.0 4.868003321700081e-07 -5.66643734166093e-05 0.0 7.785516594637911e-07 -5.60624134015603e-05 0.0 1.127177388179434e-06 -5.52185573804639e-05 0.0 1.5497795587444879e-06 -5.4080761352019004e-05 0.0 2.058361731459042e-06 -5.2584605314615106e-05 0.0 2.666314586657863e-06 -0.0001056997466424936 0.0 3.603224770080617e-12 -0.0001055641466391036 0.0 4.50384091259602e-07 -0.00010514728662868211 0.0 9.35831503395787e-07 -0.0001044193666104841 0.0 1.490839917270997e-06 -0.0001033296145832403 0.0 2.1480222537005553e-06 -0.0001018058665451466 0.0 2.9397790734944754e-06 -9.975622249390551e-05 0.0 3.885781657144539e-06 -9.706355842658891e-05 0.0 5.01451852536296e-06 -0.0001890193847254845 0.0 -8.10914700272867e-12 -0.0001887814407195359 0.0 8.322294208057351e-07 -0.00018805088870127212 0.0 1.7250510031262742e-06 -0.0001867771886694296 0.0 2.7389650284741243e-06 -0.00018487452062186291 0.0 3.93012969825324e-06 -0.0001822188085554701 0.0 5.35722373393059e-06 -0.00017865036446625902 0.0 7.0550893763772295e-06 -0.0001739654603491364 0.0 9.07164142679103e-06 -0.00032892218822305454 0.0 1.060062066501551e-11 -0.0003285199482129985 0.0 1.486938917173472e-06 -0.00032728545618213625 0.0 3.0763138769078453e-06 -0.000325134848128371 0.0 4.87235652180891e-06 -0.0003219255320481381 0.0 6.9697157742428894e-06 -0.00031744961993624034 0.0 9.47070903676772e-06 -0.0003114358357858957 0.0 1.2442893511072331e-05 -0.000303541247588531 0.0 1.595598479889961e-05 -0.000559477053986926 0.0 5.92327414808185e-11 -0.0005588188939704721 0.0 2.576063424401584e-06 -0.000556799373919984 0.0 5.32271293306782e-06 -0.000553281253832031 0.0 8.41506301037657e-06 -0.000548031253700781 0.0 1.201544310038607e-05 -0.000540708453517711 0.0 1.629292560732313e-05 -0.000530861133271528 0.0 2.1377238534430952e-05 -0.000517925292948132 0.0 2.736165548404137e-05 -0.0009332113033302821 0.0 9.03212622580315e-11 -0.000932164223304105 0.0 4.3385685084642104e-06 -0.0009289509832237741 0.0 8.9578122239453e-06 -0.000923352343083808 0.0 1.4146859953671491e-05 -0.000914988302874707 0.0 2.01835565045889e-05 -0.000903311382582784 0.0 2.733653308341331e-05 -0.0008875872221896801 0.0 3.584895249622379e-05 -0.000866906741672668 0.0 4.58335011458375e-05 -0.001530084598252114 0.0 -1.5475052786876312e-10 -0.001528457398211434 0.0 7.125552178138801e-06 -0.001523460758086518 0.0 1.470778716769467e-05 -0.0015147462778686562 0.0 2.321661818041544e-05 -0.00150171643754291 0.0 3.31191528279788e-05 -0.001483507477087686 0.0 4.48313571207839e-05 -0.0014589470364736751 0.0 5.8795349469883704e-05 -0.0014266205556655131 0.0 7.51191138779778e-05 -0.00246988446174711 0.0 -5.79730054493251e-11 -0.002467398781684968 0.0 1.1453943086348571e-05 -0.002459766021494149 0.0 2.36407045910176e-05 -0.002446445141161127 0.0 3.730674293266855e-05 -0.0024265146606628654 0.0 5.3224061330601504e-05 -0.0023986399799659983 0.0 7.20173418004335e-05 -0.002361036339025907 0.0 9.444451836111291e-05 -0.00231170845779271 0.0 0.0001205333310133332 -0.003929572258239304 0.0 -9.59724783993119e-11 -0.003925823898145595 0.0 1.8088752852218812e-05 -0.0039143011778575276 0.0 3.733975853349394e-05 -0.003894109017352723 0.0 5.894384547359611e-05 -0.003863753856593844 0.0 8.41461261036531e-05 -0.003821320535533011 0.0 0.00011378837884470939 -0.003764380254109504 0.0 0.0001489811037245275 -0.0036900968122524185 0.0 0.0001897962007449049 -0.00616309175407729 0.0 -5.43511013587775e-10 -0.00615744575393614 0.0 2.820896110522401e-05 -0.00613994255349856 0.0 5.83746734593668e-05 -0.00610914935272873 0.0 9.2287242307181e-05 -0.0060629045515726105 0.0 0.00013176120329403 -0.005998670549966761 0.0 0.0001777565724439142 -0.00591312294782807 0.0 0.0002319752297993806 -0.00580205094505127 0.0 0.00029490003937250077 -0.00951904743797618 0.0 4.11708730292718e-10 -0.00951044503776112 0.0 4.3800085095002104e-05 -0.009483896237097401 0.0 9.079236226980901e-05 -0.009437431035935771 0.0 0.0001435380595884514 -0.0093681242342031 0.0 0.00020450377311259418 -0.00927262983181574 0.0 0.00027477620686940503 -0.009146341828658542 0.0 0.0003571437049285924 -0.00898312582457814 0.0 0.00045277905131947606 -0.01446527716163192 0.0 -1.009526705238167e-09 -0.014452484761312112 0.0 6.76425296910632e-05 -0.01441325596033139 0.0 0.0001399932114998302 -0.014345170758629263 0.0 0.0002207825935195647 -0.014244529956113241 0.0 0.0003132913798322843 -0.01410700115267502 0.0 0.00041881997047049906 -0.01392601594815039 0.0 0.000542068373551709 -0.013692930742323261 0.0 0.000685028657125716 -0.02162551174063778 0.0 -9.72600864315021e-10 -0.02160736694018416 0.0 0.0001029534185738354 -0.02155197333879932 0.0 0.0002123773373094333 -0.02145666253641655 0.0 0.00033352566833814155 -0.02131672093291801 0.0 0.00047109345177733604 -0.0211263005281575 0.0 0.000626773735669343 -0.02087609972190248 0.0 0.0008081857402046431 -0.02055436131385902 0.0 0.0010178929454473231 -0.03184146679603665 0.0 -1.40729243518231e-09 -0.03181701399542533 0.0 0.0001531942318298557 -0.03174269559356737 0.0 0.0003149630598740763 -0.03161534759038367 0.0 0.000492559532313988 -0.03142902318572556 0.0 0.000693050657326266 -0.03117591517939786 0.0 0.000918658862966471 -0.030843371971084284 0.0 0.0011804363095109071 -0.030415687560392174 0.0 0.001482294997057374 -0.04627560115689 0.0 1.44975163624379e-09 -0.0462438891560972 0.0 0.00022268614956715363 -0.0461477011536925 0.0 0.000456497011412425 -0.045983521149588 0.0 0.000711342057783551 -0.0457445131436128 0.0 0.000997648704941217 -0.045420917135522904 0.0 0.001318911312972782 -0.0449955851248896 0.0 0.0016907493222687322 -0.04444767711119191 0.0 0.002119354412983859 -0.0665401336635033 0.0 -3.955258978881472e-09 -0.0664998496624962 0.0 0.00031770335994258384 -0.0663777176594429 0.0 0.000649729096243227 -0.0661705496542637 0.0 0.0010088602252215052 -0.0658717336467933 0.0 0.0014100302352507551 -0.0654708696367717 0.0 0.0018598707664967682 -0.0649458376236459 0.0 0.002380853219521329 -0.0642660696066517 0.0 0.002984641754616042 -0.0948393863709846 0.0 -6.09865375246634e-09 -0.09478836236970901 0.0 0.000447834251195856 -0.0946342983658574 0.0 0.000914121982853049 -0.0943750103593752 0.0 0.001414775795369394 -0.0940042863501071 0.0 0.001970432369260808 -0.0935122343378058 0.0 0.002592302744807567 -0.09287229432180731 0.0 0.003315189922879746 -0.0920431263010781 0.0 0.00416060210401505 -0.1340014233500355 0.0 2.296774297419356e-08 -0.1339368753484218 0.0 0.000627594255689856 -0.133742323343558 0.0 0.001279473911986847 -0.133416883335422 0.0 0.001976378889409471 -0.1329552073238801 0.0 0.002746118668652965 -0.1323477913086947 0.0 0.0036071398101784934 -0.13156670728916758 0.0 0.00460749491518737 -0.130564443264111 0.0 0.0057848241446206 -0.1873909886847746 0.0 -7.12374257809356e-08 -0.1873087566827188 0.0 0.0008783751419593781 -0.18706145667653631 0.0 0.001790693804767344 -0.18664963666624082 0.0 0.002765564509139111 -0.18607062465176552 0.0 0.0038412668960316697 -0.1853176406329409 0.0 0.00504564532614113 -0.1843683886092096 0.0 0.00643741136093528 -0.1831749365793733 0.0 0.008074743401868579 -0.2587866144696652 0.0 1.005319105132977e-08 -0.2586813744670342 0.0 0.001230316270757906 -0.25836566245914144 0.0 0.002510691142767277 -0.257842166446054 0.0 0.0038836532170913284 -0.2571128424278209 0.0 0.00540372653509316 -0.2561823424045584 0.0 0.00710755297768882 -0.25504289437607225 0.0 0.00906565942664148 -0.2536606383415158 0.0 0.01134767468369186 -0.35233593680839825 0.0 -3.17984367949609e-08 -0.3522024968050622 0.0 0.001721621523040537 -0.3518035007950873 0.0 0.003521183208029578 -0.3511463247786579 0.0 0.005462744936568621 -0.3502429807560743 0.0 0.00763111739077793 -0.3491200047279999 0.0 0.010065231851630791 -0.3477945646948639 0.0 0.01286255592156389 -0.3462695206567378 0.0 0.01606912800172819 -0.47291089182277196 0.0 3.779450814486268e-09 -0.472744371818609 0.0 0.00239889645997241 -0.472251811806295 0.0 0.00491476892286922 -0.47145009178625197 0.0 0.00766041539151038 -0.47037685175942107 0.0 0.01075734666893366 -0.4690908117272701 0.0 0.01426816475670411 -0.46765177169129407 0.0 0.018328284058207092 -0.46612769165319207 0.0 0.02289193937229847 -0.626933015673325 0.0 -4.3597813089945305e-08 -0.626732135668303 0.0 0.00331510648287766 -0.6261456956536421 0.0 0.006801332570033311 -0.6252128956303221 0.0 0.010662999466574981 -0.624023695600592 0.0 0.01503332157583303 -0.622680495567012 0.0 0.02013705130342627 -0.6213228955330721 0.0 0.02609067905226696 -0.62010641550266 0.0 0.032699722817493046 -0.823340908752725 0.0 1.06966848112553e-07 -0.8231085886656049 0.0 0.00452785249794405 -0.8224490284182701 0.0 0.00930040468765045 -0.8214394269677271 0.0 0.014676925969999392 -0.820266706586593 0.0 0.02078672435568322 -0.8190987462070061 0.0 0.028164363153415053 -0.818234186837705 0.0 0.03671512776816775 -0.817786986670005 0.0 0.046640305490108 -1.073801207490084 0.0 4.9380019848966405e-08 -1.073548567224812 0.0 0.0060919331965231405 -1.07285792649964 0.0 0.012548809976236641 -1.071885165478242 0.0 0.0198791848731222 -1.070936644482296 0.0 0.02842527624650872 -1.070322603837554 0.0 0.03895558330331952 -1.070536323771898 0.0 0.0512064019261932 -1.07158296552948 0.0 0.06607767433730001 -1.39129769041276 0.0 2.90972066685677e-07 -1.39104248983856 0.0 0.008069454556231901 -1.39037940834663 0.0 0.0167032767822882 -1.38959231813774 0.0 0.026602353864825803 -1.3891412371904721 0.0 0.038470360787588004 -1.3896111023975741 0.0 0.05309731548641 -1.391575586670318 0.0 0.0708676501368038 -1.395077394286733 0.0 0.092758921750216 -1.786827252270651 0.0 -8.2756759295406e-08 -1.7865867307613879 0.0 0.01053630411489345 -1.7860162471816257 0.0 0.0219598537972179 -1.7855699243809677 0.0 0.03518715519801335 -1.785911392581984 0.0 0.051505091329586396 -1.788016525633728 0.0 0.0718497614657592 -1.7925458881548657 0.0 0.0973068985969572 -1.799546317117992 0.0 0.12866533772014802 -2.264019719518557 0.0 -6.08853579372423e-07 -2.2638160361934814 0.0 0.01355621010151716 -2.26340593974885 0.0 0.028500188720540998 -2.26344162032865 0.0 0.046034808053475 -2.2649354846035497 0.0 0.06822778468348499 -2.26918035358155 0.0 0.09622321960190999 -2.277078471148527 0.0 0.13199254294484938 -2.288749339921776 0.0 0.1762481827682451 -2.8121715471227504 0.0 7.218130179380001e-07 -2.8120285008647503 0.0 0.017199535646765 -2.81184482369912 0.0 0.03636659889635289 -2.812559735028736 0.0 0.059317559478122006 -2.8154980815083657 0.0 0.0889613732182884 -2.8225373206055004 0.0 0.1265080144835 -2.8347435220162707 0.0 0.1758794331987686 -2.852379252223149 0.0 0.23670965784280099 -3.3990345261754102 0.0 9.0110147870515e-07 -3.3989585973212395 0.0 0.02135938794813595 -3.399090972757725 0.0 0.0452829885126955 -3.4006048292906548 0.0 0.074875139294833 -3.4053300049597985 0.0 0.11305043849311922 -3.41572119203088 0.0 0.16304136448180198 -3.43307129525071 0.0 0.2290132295533615 -3.458660739932604 0.0 0.3080024615035004 -3.9768048750408163 0.0 2.441116230565012e-06 -3.97680143400228 0.0 0.02563830426799616 -3.9773203906280004 0.0 0.05491107264955 -3.9797009456954417 0.0 0.09173203129348059 -3.9865848055241067 0.0 0.1397022818611133 -4.0007926348409155 0.0 0.20384836106006882 -4.025573152583039 0.0 0.2852123933821068 -4.06310588145124 0.0 0.3847486365565804 -4.49706622792374 0.0 -9.86741827059202e-07 -4.4974689200057805 0.0 0.02906733842433692 -4.49904486307436 0.0 0.062639453869417 -4.50373139961957 0.0 0.1057528289345073 -4.51399364383526 0.0 0.163803142539996 -4.5338627964336 0.0 0.241759357960768 -4.56900114619029 0.0 0.3403345061113559 -4.6179065679464 0.0 0.46846758072472 -4.94916262068524 0.0 -2.555774187479658e-07 -4.9502710834862205 0.0 0.029176285238417303 -4.95398548501126 0.0 0.0647865091602212 -4.9621313039152 0.0 0.1110315216758113 -4.97807041292228 0.0 0.17800648957130788 -5.0043750446398 0.0 0.2740817730619664 -5.04804617807835 0.0 0.40113010380210995 -5.11475141983518 0.0 0.5575513006600621 -5.27533484233916 0.0 5.22062325113872e-06 -5.27744124722168 0.0 0.028563211499718043 -5.28487200847772 0.0 0.0657328284477484 -5.29843513183002 0.0 0.11841593763673638 -5.32176797480328 0.0 0.1993667619883023 -5.3581991984343205 0.0 0.3181962001722824 -5.41092788993096 0.0 0.479523773239648 -5.48412155923975 0.0 0.6757634879126669 -5.37148358132896 0.0 -1.0202197420200321e-06 -5.37356994751552 0.0 0.02725238119170144 -5.38016292887328 0.0 0.0644743975930944 -5.39332039918656 0.0 0.1237940862154176 -5.41514236889088 0.0 0.21741419676680318 -5.45009091482733 0.0 0.3582265206439489 -5.502721201316359 0.0 0.551488625407794 -5.5773287784515 0.0 0.7925925340825 -4.82795346279816 0.0 -4.71649183411553e-06 -4.82886961987118 0.0 0.02301493037564612 -4.83214112716945 0.0 0.058604882511524396 -4.83941658771219 0.0 0.12152729036773299 -4.85360702647156 0.0 0.22813786623406943 -4.878775326045679 0.0 0.3917069179221632 -4.91968917611556 0.0 0.616010532353734 -4.98093841617624 0.0 0.8922148881336179 -3.418995770567787 0.0 2.485497433792314e-06 -3.419657517106827 0.0 0.02490604446645546 -3.4220689166765457 0.0 0.06372322429030229 -3.4275945252788396 0.0 0.132848514974448 -3.4386859826205893 0.0 0.2503739794209306 -3.4587950866573287 0.0 0.430966971010899 -3.4919134328596138 0.0 0.67861028476422 -3.54165589595979 0.0 0.98327150752194 -2.068212977040318 0.0 -1.655232971311267e-06 -2.06869739011712 0.0 0.0265607966263552 -2.0704481340288003 0.0 0.068040589802752 -2.074472683816698 0.0 0.1420223191141222 -2.082552956848396 0.0 0.2678838531000548 -2.0972170835328 0.0 0.46130642349823997 -2.12136760731904 0.0 0.72635801646208 -2.15750440411136 0.0 1.0518887620953599 -1.0347928497311398 0.0 -3.7715304064449597e-06 -1.03509552464712 0.0 0.0276939351763686 -1.0361944601849131 0.0 0.0709930072167369 -1.0387084680153 0.0 0.14828447325601798 -1.043768807825622 0.0 0.2798622139688265 -1.0529851485986432 0.0 0.48209053829832604 -1.0681914625344 0.0 0.7590466844920799 -1.090881560871453 0.0 1.098539835180096 -0.29207789217918717 0.0 2.684171596574964e-06 -0.2922118205210955 0.0 0.028319297685962398 -0.2926891595584848 0.0 0.0726315978455388 -0.2937988377731835 0.0 0.15176418714216 -0.29604366256026604 0.0 0.286539253078905 -0.3001651315824966 0.0 0.493728480339507 -0.307021244396601 0.0 0.7773844438652879 -0.3172333889361756 0.0 1.124564836366008 0.2792045403341667 0.0 -3.6791563699751038e-06 0.2792200015418517 0.0 0.02849423993168733 0.27928984682592956 0.0 0.07307965650126239 0.279448278829863 0.0 0.1527164833184364 0.2797458914298429 0.0 0.2884078824391854 0.2802148800576552 0.0 0.49705995632620503 0.2809020555403758 0.0 0.78269125260396 0.2819137304271312 0.0 1.131990879179208 0.802062126548026 0.0 -5.17449295716916e-06 0.802221918743483 0.0 0.02824868878351911 0.802790166937933 0.0 0.0724546928515947 0.804073283408666 0.0 0.1514282165450474 0.806627107255285 0.0 0.2860071793759764 0.8111840759056 0.0 0.49301185572191997 0.8185835311731091 0.0 0.77641055971401 0.82963714324221 0.0 1.1228580708032532 1.341347420145414 0.0 2.741717755141134e-06 1.341624297930444 0.0 0.027644637771743523 1.342646798153826 0.0 0.0708836765036532 1.34495422011258 0.0 0.1481425292616324 1.34951818598025 0.0 0.2798288685302286 1.357705196084817 0.0 0.482426467575021 1.3710941775743999 0.0 0.75985961160912 1.3911442446896911 0.0 1.0989766000264052 1.894769211159312 0.0 4.4516707960949994e-06 1.895164941997584 0.0 0.02669937184373616 1.896586136067336 0.0 0.0684731913105696 1.899801047615676 0.0 0.1430973552032292 1.9061562113343753 0.0 0.2703079884197385 1.917572196933186 0.0 0.466059507732366 1.9362830062352818 0.0 0.734171326392894 1.9643886085764477 0.0 1.06188263443341 2.422121099900481 0.0 4.81965535428504e-07 2.4226151924617167 0.0 0.025474711141351167 2.424387149372097 0.0 0.0653276314294389 2.428385573753331 0.0 0.13650581175244078 2.43630010862784 0.0 0.257852511262122 2.450525601289086 0.0 0.44461883382109796 2.473880547355329 0.0 0.700435939849326 2.509031893105056 0.0 1.013067949825263 2.8740347739005343 0.0 -9.2646833085012e-06 2.874630537335838 0.0 0.02405997817634118 2.876754439601592 0.0 0.061625237558196606 2.88154065470199 0.0 0.1286864592623448 2.890904568340503 0.0 0.24298870112777368 2.9076652734372 0.0 0.4189349333988 2.935015782394839 0.0 0.659926875175359 2.9762360785137956 0.0 0.9542862280602629 3.1334459965007366 0.0 6.217604013223919e-07 3.135081875260407 0.0 0.024907442605768767 3.13924615770213 0.0 0.0616316786979642 3.14830384427004 0.0 0.1251184475332071 3.164009443975431 0.0 0.23154459081898138 3.188544295031088 0.0 0.3948145236978345 3.2261243257758236 0.0 0.6183233645893921 3.2793354056944892 0.0 0.8912703235523219 3.1517530207834437 0.0 -2.167572769891851e-06 3.1542225937172104 0.0 0.02897799579289206 3.161735630546832 0.0 0.06798765996237119 3.1756453309381922 0.0 0.1296251862919296 3.1970432252821324 0.0 0.2271186897786738 3.228980182937136 0.0 0.3762375194283 3.277286592010452 0.0 0.580621648528992 3.3428931305603222 0.0 0.8327250610339679 3.0962770045257844 0.0 -5.4427220663456e-07 3.098360932170216 0.0 0.0299614485466588 3.10534316021545 0.0 0.068310179624206 3.118298152473465 0.0 0.1264014736424675 3.142292796967185 0.0 0.218766133589029 3.178797103729645 0.0 0.3575464174736715 3.22737368291906 0.0 0.5414411035501551 3.2965838983121345 0.0 0.768485530647695 3.0104999483486403 0.0 3.516325810176924e-07 3.0119990837554442 0.0 0.03132614778313842 3.017403532244106 0.0 0.068944553418978 3.028295309732064 0.0 0.12330309221350469 3.0470446036611145 0.0 0.2076021390398103 3.078173209540884 0.0 0.3312561974517222 3.12891977876742 0.0 0.5017854846402721 3.1992786343183677 0.0 0.70747663810848 2.9034133825757076 0.0 -9.805902906343738e-07 2.9048064172069856 0.0 0.03247000402548968 2.908980236026832 0.0 0.07263504400922881 2.9181599869887522 0.0 0.1249428232714112 2.9348403079406773 0.0 0.2012771889211298 2.9626531652184718 0.0 0.31049199280700157 3.0089853095370103 0.0 0.46052519405367004 3.0779370815255804 0.0 0.6468872305452251 2.7683325752086354 0.0 -4.0374262700791503e-07 2.7692276767113304 0.0 0.03358037097250755 2.77334949511767 0.0 0.073048705124763 2.781502215358005 0.0 0.126262635711849 2.7966545500127853 0.0 0.1968080738251425 2.824742069922882 0.0 0.2948125866608448 2.8696977015734553 0.0 0.42487538086596 2.9381878120959755 0.0 0.59010224698575 2.608110293916098 0.0 5.71123809865084e-07 2.609336442499234 0.0 0.03408663296729774 2.613415125130964 0.0 0.0729595822764948 2.622189610719934 0.0 0.12302414869761398 2.637750456962156 0.0 0.1901605747694532 2.665398649337264 0.0 0.2796318092466174 2.712521684986962 0.0 0.3965706267520826 2.78013868374773 0.0 0.541405450202642 2.42813671269589 0.0 -3.0016770119592904e-06 2.4293746453745544 0.0 0.03432116706047366 2.4342622242339598 0.0 0.0719773656408432 2.443897955429764 0.0 0.12026839035515599 2.4615589034163037 0.0 0.18309674771820642 2.490519045203052 0.0 0.2644853513989548 2.53755572043981 0.0 0.36907381378897747 2.6094880819403117 0.0 0.49744777203948803 2.238972989140656 0.0 1.23686661493368e-06 2.240535328507386 0.0 0.033907704558122344 2.246522313873042 0.0 0.071313493966155 2.258028804154086 0.0 0.1170226063397142 2.277914062594482 0.0 0.1760089603880664 2.310708693157128 0.0 0.2501924735729106 2.3608289725233123 0.0 0.3430751807417256 2.433548652008688 0.0 0.45387390197313005 2.0511456082190818 0.0 1.044064522630047e-06 2.0532581306888638 0.0 0.03363785359940208 2.0607900471023037 0.0 0.0708725516746284 2.075249997947844 0.0 0.1145984376969696 2.09926309295472 0.0 0.16938992816277362 2.134936621232448 0.0 0.2337578097472728 2.188204798634964 0.0 0.3165285805829244 2.266192093251708 0.0 0.41497976982058193 1.875449662800728 0.0 -2.874480750426243e-06 1.8784054655528521 0.0 0.033349634823575676 1.8877403469609508 0.0 0.0699349284636548 1.905587197136308 0.0 0.11132486970771518 1.9321180330191179 0.0 0.1588391906165687 1.9721318250068398 0.0 0.2165654923822838 2.029931673030037 0.0 0.2880062995840625 2.1128410146307357 0.0 0.3791329714109892 1.7206427916989042 0.0 -1.875140238216918e-07 1.724176393087863 0.0 0.03206021274619614 1.7351080819242901 0.0 0.0666874133583048 1.754152069298832 0.0 0.1033292534003856 1.7837120055151647 0.0 0.1448752381757835 1.8287654530959179 0.0 0.1953068611272366 1.8893424140599682 0.0 0.2604783884523744 1.983983989069368 0.0 0.355286402299413 1.587679683418425 0.0 -1.118855282345367e-06 1.59097786845273 0.0 0.028001458844235605 1.6022469871763638 0.0 0.057732621467331595 1.62331615399761 0.0 0.088723133567073 1.6573092795234632 0.0 0.1276721182359465 1.7040463099396799 0.0 0.173085442651917 1.782016231611564 0.0 0.2445666387019308 1.9005425310599278 0.0 0.37278588750975356 1.470843219436734 0.0 -6.6699052965891e-07 1.473818052216909 0.0 0.0224263047385398 1.4873138869358011 0.0 0.0465005487645525 1.5117629166228959 0.0 0.07406918411991839 1.550966619257388 0.0 0.1121355065463186 1.6156797715134719 0.0 0.1712187382159296 1.719609363061932 0.0 0.27293355304996497 1.8857380341375543 0.0 0.46496966557572 1.37761065484632 0.0 -2.65092644900475e-07 1.383339717920622 0.0 0.01728021207059574 1.3994098131672899 0.0 0.040199062833783 1.431614222180508 0.0 0.07505523052146239 1.48961048602995 0.0 0.132235034261985 1.585092699655248 0.0 0.22932616173300235 1.757432496592896 0.0 0.3983506083939996 2.045815023084735 0.0 0.682423645530312 1.3338338943835042 0.0 8.778863650998441e-07 1.342875017708688 0.0 0.0258051235569144 1.371527658739874 0.0 0.0625971826264102 1.430894572187636 0.0 0.1264633588367098 1.5421153845835212 0.0 0.23520209618440593 1.73761142823158 0.0 0.404725185683016 2.062685502268916 0.0 0.642703985946618 2.5185060029243482 0.0 0.964920345901072 1.50001606757632 0.0 -5.611498845786399e-07 1.5221725965826798 0.0 0.059576529149648 1.59377047296661 0.0 0.1375790419180755 1.7330471223771997 0.0 0.25241705618460797 1.9616412044485199 0.0 0.41392572902128 2.28845363916904 0.0 0.6276051441942799 2.6955178645809603 0.0 0.9064528618836301 3.13466690536104 0.0 1.26711279880668 2.20428140104823 0.0 -1.8847756724679959e-07 2.2310568296218802 0.0 0.0919648470834509 2.31632454973845 0.0 0.21002926528860752 2.46979583780811 0.0 0.3764389562498432 2.6993929851633642 0.0 0.6007659629559701 2.9885287996885017 0.0 0.876845845603938 3.291042427127756 0.0 1.2025327066020939 3.5590155339592284 0.0 1.576014199234146 3.036398955899495 0.0 -2.373239080153085e-07 3.052233498765725 0.0 0.12819010313704948 3.1010935506361013 0.0 0.29287435539392337 3.18514565226586 0.0 0.523423147255446 3.303305701996122 0.0 0.8245128732891039 3.4342395115884274 0.0 1.1597319793366399 3.5357812267266833 0.0 1.514696745163238 3.451990690067997 0.0 1.1963064151658161e-07 3.45165458974725 0.0 0.167925035050125 3.451220159370735 0.0 0.385008905257776 3.446973476319387 0.0 0.688355843479101 3.4372563439245 0.0 1.0762040340607502 -5.06593812664845e-05 0.0 3.3670746041768636e-06 -4.82224652055616e-05 0.0 4.16571810414295e-06 -4.5198421129960504e-05 0.0 5.02635692565892e-06 -4.1512105037802605e-05 0.0 5.91724494793112e-06 -3.708219812705493e-05 0.0 6.80206977005174e-06 -3.185664599641613e-05 0.0 7.5629957890748905e-06 -2.5774242244356042e-05 0.0 8.104625402615631e-06 -9.360018634000461e-05 0.0 6.309138557728461e-06 -8.92114502302862e-05 0.0 7.78320859458021e-06 -8.3752602093815e-05 0.0 9.36800303420007e-06 -7.70741579268539e-05 0.0 1.100793387519834e-05 -6.90039337250983e-05 0.0 1.2638075115951872e-05 -5.940630948515771e-05 0.0 1.4041341151033521e-05 -4.80872332021808e-05 0.0 1.5049998376249951e-05 -3.530268248256704e-05 0.0 1.529713358242833e-05 -0.0001679352521983812 0.0 1.1389181884729541e-05 -0.0001602850200071254 0.0 1.4026033950650841e-05 -0.000150745483768637 0.0 1.686267082156676e-05 -0.0001390330634758265 0.0 1.980784209519604e-05 -0.0001248115711202892 0.0 2.274889896872246e-05 -0.00010780313869507841 0.0 2.5321340233033492e-05 -8.765747019143671e-05 0.0 2.7242530681063252e-05 -6.470363761759091e-05 0.0 2.758958228973954e-05 -0.0002933653593341338 0.0 2.000527370013183e-05 -0.00028043934701098354 0.0 2.459580781489518e-05 -0.00026426609460665224 0.0 2.9568627939215682e-05 -0.0002443365821084144 0.0 3.474099006852473e-05 -0.00022001816550045402 0.0 3.991668739791717e-05 -0.0001907325167683128 0.0 4.4510525112763106e-05 -0.0001557671278941781 0.0 4.79911971997799e-05 -0.00011547953088698822 0.0 4.87020732175518e-05 -0.000501216492530412 0.0 3.428148405703708e-05 -0.000479956531998913 0.0 4.2094765052369106e-05 -0.000453248651331216 0.0 5.0618873265471805e-05 -0.000420194370504859 0.0 5.9494737487368405e-05 -0.0003796275814906893 0.0 6.83921337098033e-05 -0.000330345808258645 0.0 7.64255779106394e-05 -0.0002709480987737023 0.0 8.26552940663823e-05 -0.00020174887704372182 0.0 8.42540621063515e-05 -0.00084012842100321 0.0 5.74153934353848e-05 -0.000805983900149597 0.0 7.04463137611578e-05 -0.000762903139072578 0.0 8.474660611866511e-05 -0.000709309737732743 0.0 9.967427849185689e-05 -0.000643093496077337 0.0 0.00011470553086763821 -0.000561902054047551 0.0 0.0001285381192134529 -0.00046303677157591904 0.0 0.00013961909949047739 -0.0003464919846622994 0.0 0.0001431959715798992 -0.001384732514618312 0.0 9.40980863524521e-05 -0.0013312975132824371 0.0 0.0001153995188849879 -0.001263504791587619 0.0 0.0001389765114744127 -0.001178493389462334 0.0 0.0001637727160943178 -0.001072514626812865 0.0 0.0001889521167238028 -0.0009412647435316181 0.0 0.00021251573331289322 -0.000779649179491229 0.0 0.00023210519380262973 -0.000586719094667977 0.0 0.000239847165996179 -0.002247841136196027 0.0 0.00015095010377375249 -0.002166002494150061 0.0 0.0001853192606329814 -0.002061285691532141 0.0 0.00022386024159650592 -0.001928893328222332 0.0 0.00026471471061786765 -0.0017625024840625613 0.0 0.0003065448796636218 -0.001554724158868103 0.0 0.00034619998865499955 -0.001295966872399171 0.0 0.0003805235575130887 -0.0009824959845623992 0.0 0.00039670282191757027 -0.0035939258498481445 0.0 0.00023785080594627002 -0.003470252166756302 0.0 0.0002928054033201349 -0.003310997882774945 0.0 0.0003551899528797486 -0.003108324357708107 0.0 0.00042181145054528605 -0.0028522125113053113 0.0 0.000490243132256078 -0.0025306253432656324 0.0 0.0005556178538904461 -0.002126197373154933 0.0 0.0006144462153611551 -0.0016283738007093441 0.0 0.000646803816170095 -0.00565840534146013 0.0 0.0003698401932460046 -0.00547365173684129 0.0 0.0004563880114097 -0.00523525813088145 0.0 0.00055558161388954 -0.00493048492326212 0.0 0.000662700936567523 -0.00454477891361947 0.0 0.000771724739293118 -0.00405743770143594 0.0 0.0008778071419451779 -0.0034408797260219908 0.0 0.000975243784381094 -0.002669191226729779 0.0 0.0010368798259219952 -0.0087723362193084 0.0 0.0005679755741993891 -0.00850148141253703 0.0 0.000701731497543287 -0.00815201060380026 0.0 0.000855582981389574 -0.00770261139256528 0.0 0.001025454625636365 -0.0071350097783752404 0.0 0.0011939740298493502 -0.00641189176029729 0.0 0.0013633431140835772 -0.00549202133730053 0.0 0.00152439963810999 -0.00432121570803039 0.0 0.001641634161040853 -0.013391665134791621 0.0 0.0008591486214787151 -0.01300462072511551 0.0 0.0010617251865431292 -0.01250462111261552 0.0 0.001297395432434885 -0.011856724696418111 0.0 0.001568699279217481 -0.01103995987599899 0.0 0.001840550686013766 -0.0099881242497031 0.0 0.002141426933535672 -0.00863675181591879 0.0 0.002472690541817262 -0.00687703377192584 0.0 0.002793883989847098 -0.0201374685034367 0.0 0.001275471151886778 -0.019599983689999583 0.0 0.001577962959449073 -0.018903932472598303 0.0 0.0019366054484151352 -0.017996095649902382 0.0 0.0023741217793530433 -0.01685806122145152 0.0 0.00283792847094821 -0.01538198198454954 0.0 0.0034258158056453933 -0.01349765673744141 0.0 0.00417404690435117 -0.01107175747679393 0.0 0.0049838577245964405 -0.0298584887464622 0.0 0.0018571774064294342 -0.029136160728404 0.0 0.002302000177550003 -0.0281923927048098 0.0 0.0028528255113206362 -0.02695739627393489 0.0 0.0035862178496554446 -0.02541742703543566 0.0 0.004455208111380201 -0.02345596298639906 0.0 0.00542176293554407 -0.020951678523791952 0.0 0.006896852972421321 -0.01772152244303805 0.0 0.00843709141092728 -0.043728673093216805 0.0 0.002656057746401442 -0.042787725069693104 0.0 0.003300996562524912 -0.041547321038683 0.0 0.00411693450292336 -0.03992150539803761 0.0 0.0052075049301876205 -0.03791376734784416 0.0 0.0065565497639137405 -0.03534264968356622 0.0 0.0085106242127656 -0.03207686640192164 0.0 0.01121325148033128 -0.027745268293631692 0.0 0.013979587149489669 -0.0633645535841138 0.0 0.003747717773692942 -0.0621741255543531 0.0 0.00467305811682645 -0.060588557514713905 0.0 0.0058673609466840205 -0.0584960174624004 0.0 0.007490156587253911 -0.0559118453977961 0.0 0.0095609002390225 -0.052608133315203295 0.0 0.01259894711497367 -0.0483804692095117 0.0 0.01684693002117324 -0.042620477065511905 0.0 0.02119321292983031 -0.0909363462734086 0.0 0.00522778773069469 -0.0894646382366159 0.0 0.00653549736338743 -0.08747867418696681 0.0 0.00825021140625528 -0.0848170261204256 0.0 0.0106298442657461 -0.0815245100381127 0.0 0.013722400743060012 -0.07727009793175241 0.0 0.0183455084586377 -0.07176636579415911 0.0 0.02489623782240593 -0.0640670096016752 0.0 0.03171275319281881 -0.1292328992308224 0.0 0.007254710181367751 -0.1274525311863132 0.0 0.0090832922270823 -0.125025003125625 0.0 0.01149570148739253 -0.12172067504301681 0.0 0.014935449173386222 -0.1175760669394016 0.0 0.01951543288788581 -0.1121249348031233 0.0 0.02648663306216581 -0.1049286866232171 0.0 0.03651396411284908 -0.09463054636576361 0.0 0.047064921176623004 -0.18162109254052722 0.0 0.010083373052084321 -0.1795440964886023 0.0 0.012583962314599052 -0.1767003684175091 0.0 0.015874360796859013 -0.1727771323194282 0.0 0.020602758915068964 -0.1677406361935158 0.0 0.026999462274986542 -0.1609239160230978 0.0 0.03688334332208356 -0.15161691179042272 0.0 0.05145936928648421 -0.1379058274476456 0.0 0.06723696168092401 -0.2519276902981921 0.0 0.014085097952127439 -0.24964287824107181 0.0 0.01746241363656033 -0.24653533016338308 0.0 0.021865514546637852 -0.24220214605505352 0.0 0.02821850830546269 -0.2364905419122634 0.0 0.037039158525978944 -0.22842767771069178 0.0 0.050959613273990303 -0.2168411774210293 0.0 0.0721321858033046 -0.1989445369736133 0.0 0.0958405383960134 -0.3444684606117113 0.0 0.01981954769548868 -0.3421878645546964 0.0 0.024336025808400632 -0.3391643604791088 0.0 0.030095229152380713 -0.3349317883732945 0.0 0.03831944255798604 -0.3292167042304174 0.0 0.05007470525186761 -0.320561728014043 0.0 0.0690667897266697 -0.3070507116762676 0.0 0.0990011904750297 -0.2845606391140158 0.0 0.1338192633454815 -0.46448397161209903 0.0 0.02812165110304126 -0.462581371564534 0.0 0.034156955253923864 -0.46022005150550105 0.0 0.0416088850402221 -0.457025171425629 0.0 0.051790881294771995 -0.452577931314448 0.0 0.0671005736775143 -0.44480701112017507 0.0 0.0924763863119096 -0.430579570764489 0.0 0.1349115273727881 -0.403760730094018 0.0 0.18661325266533121 -0.6190200154755 0.0 0.0401982570049564 -0.618054375451359 0.0 0.0483961812099045 -0.617193495429837 0.0 0.057982201449554994 -0.6163336554083411 0.0 0.07031567775789191 -0.6150969353774229 0.0 0.089557562238939 -0.610852535271313 0.0 0.12219070305476751 -0.59854281496357 0.0 0.1802673045066825 -0.568997774224944 0.0 0.256554086413852 -0.817853386694905 0.0 0.0577224896459255 -0.81853782695157 0.0 0.069217433956528 -0.8199851864950989 0.0 0.0819027346183801 -0.8229444274568519 0.0 0.0968373194721186 -0.8274145889096539 0.0 0.1202652230861848 -0.830808150012561 0.0 0.1603051240991484 -0.825401588255429 0.0 0.2379140213220318 -0.797466059176385 0.0 0.348078553125493 -1.07354704773907 0.0 0.082897245259296 -1.0765770904047582 0.0 0.0998252768164306 -1.080845932760464 0.0 0.1180505142453672 -1.0888793833221522 0.0 0.1368224756634486 -1.101726916812048 0.0 0.16418296839193583 -1.118868770895988 0.0 0.21110562582778447 -1.1291263855814602 0.0 0.3120369596384636 -1.112880048522824 0.0 0.46979925328869804 -1.4001332302926799 0.0 0.117006531264103 -1.405774697553317 0.0 0.1441512495282858 -1.412940033137888 0.0 0.1720832982803597 -1.42631584920344 0.0 0.198980851705909 -1.44988098222487 0.0 0.23101369977965502 -1.489212999031228 0.0 0.2840389937834678 -1.53032972323413 0.0 0.41049420360988004 -1.5463574792965 0.0 0.63263110341678 -1.80857563745793 0.0 0.1643344585423935 -1.818103032168912 0.0 0.204842430015192 -1.8274267470308818 0.0 0.2502446382752517 -1.8419474018587352 0.0 0.29829961507395153 -1.880066195334915 0.0 0.3375641035674705 -1.95219299710887 0.0 0.39701113567831203 -2.049224538803292 0.0 0.550842296513721 -2.1364583257270953 0.0 0.858262736827065 -2.3029152217642497 0.0 0.227798825670765 -2.31677427321774 0.0 0.2878439958013245 -2.33114368046925 0.0 0.35418458740602 -2.3494287537982803 0.0 0.427708022219478 -2.3948896559353923 0.0 0.500997578651955 -2.50793719331715 0.0 0.58522026967485 -2.6968564632053997 0.0 0.7732386849244499 -2.9207469223173237 0.0 1.187665410177285 -2.87359789890707 0.0 0.3079105874075895 -2.896866875135223 0.0 0.3905254434538459 -2.920251776426182 0.0 0.48371852548394495 -2.951817875015328 0.0 0.5901558539312439 -3.006427820000511 0.0 0.7169357508014169 -3.144682898027333 0.0 0.886782088516248 -3.4598839038300397 0.0 1.148680686437961 -3.917571852478193 0.0 1.710159407950146 -3.491825626675565 0.0 0.40169864264117494 -3.52648810871613 0.0 0.51663936603987 -3.5694966039969853 0.0 0.63936695747615 -3.62551205603728 0.0 0.7921766968338201 -3.7185755483014202 0.0 0.993271386767185 -3.895811055982135 0.0 1.300294949214695 -4.3034922362554004 0.0 1.8026695318181951 -5.0906104232093 0.0 2.553133364456515 -4.109170778911979 0.0 0.51176302905591 -4.16962502151858 0.0 0.6443473575589019 -4.24008468334962 0.0 0.8189802545922719 -4.33218767624874 0.0 1.044179050336326 -4.47977563608484 0.0 1.383182936898412 -4.76894571018216 0.0 1.941925970509772 -5.29102941529068 0.0 2.8707711607880277 -6.30606962783616 0.0 3.9841809011910363 -4.68691708222341 0.0 0.6124084000828479 -4.77304676055557 0.0 0.7924192997041439 -4.8758717147744 0.0 1.02489589461336 -5.02512917341444 0.0 1.390292284060827 -5.2541813683296 0.0 2.02175500929128 -5.573358888308941 0.0 3.1787473802514965 -6.1756658807455995 0.0 4.7745990441552 -7.380545989101599 0.0 6.3482470838016 -5.2021981874054495 0.0 0.745080628429984 -5.31269595570704 0.0 0.9755051116381361 -5.46939100439997 0.0 1.314011285251546 -5.67431922544692 0.0 1.9510869784163762 -5.91787017533308 0.0 3.212796784666608 -6.20122770261764 0.0 5.350535518783841 -6.758331052966571 0.0 7.95844542987802 -8.068317660333 0.0 10.033374528805 -5.585976431224561 0.0 0.9091647671723041 -5.72579073677135 0.0 1.208834454934008 -5.92085270350704 0.0 1.730096712883528 -6.15463764052851 0.0 2.779724608967278 -6.39476460717409 0.0 4.83693993865803 -6.59909181820976 0.0 8.231513097133721 -7.0404278010675 0.0 12.0304535955108 -8.2132135051246 0.0 14.536184778994 -5.6793645004445 0.0 1.0661642612092999 -5.820285100078809 0.0 1.431050392344251 -6.01334280996494 0.0 2.119339518593432 -6.22920253375 0.0 3.5698162188447498 -6.396046842786999 0.0 6.359532419301999 -6.484148172795499 0.0 10.827266563268498 -6.781150927248279 0.0 15.66047671889072 -7.608640089059239 0.0 18.50921883044563 -5.06662121268429 0.0 1.202745819744615 -5.17846623176764 0.0 1.621829106766442 -5.313455286418931 0.0 2.445764290505327 -5.45337279194036 0.0 4.1657287840224 -5.56809800245495 0.0 7.43391840324081 -5.63426888216552 0.0 12.59859007109786 -5.77553457286 0.0 18.044989860320797 -6.08853482242511 0.0 21.114658299520922 -3.6103652402987847 0.0 1.324803882328812 -3.698553647728983 0.0 1.782972089383233 -3.8029832407022996 0.0 2.676474351287382 -3.915012569658495 0.0 4.52814672936258 -4.02213822753321 0.0 8.03078091941481 -4.109806311567 0.0 13.5574208168718 -4.19445077221485 0.0 19.360018763377653 -4.27195135165488 0.0 22.63241508719178 -2.20690845608832 0.0 1.41557208753664 -2.269265562541451 0.0 1.8977412034357362 -2.3422169566441067 0.0 2.826073103887361 -2.419674399629999 0.0 4.738536108684849 -2.4928423706273364 0.0 8.347406622958621 -2.5538165733234197 0.0 14.04231524051636 -2.599207672338682 0.0 20.04163748955054 -2.6317223154875533 0.0 23.47137196463436 -1.1215434884733 0.0 1.47628869027102 -1.15934761359018 0.0 1.9716898611139198 -1.2023567155874069 0.0 2.915954248732254 -1.246830862897143 0.0 4.85390317822101 -1.2873139172813401 0.0 8.50652858765652 -1.318501963953216 0.0 14.27451754102248 -1.338011931799095 0.0 20.37627370777245 -1.3472688599830318 0.0 23.905282448591038 -0.3308110897132881 0.0 1.5095040473825339 -0.346800304160307 0.0 2.0104483490946 -0.36372581077743904 0.0 2.9593860882846483 -0.3797837457687336 0.0 4.90356172588233 -0.392817659836734 0.0 8.56777067320284 -0.4006240643399103 0.0 14.360221764135211 -0.402135952532652 0.0 20.50708972053807 -0.39772070185718394 0.0 24.0920150966376 0.2836167455373747 0.0 1.51834021706301 0.2867755724656632 0.0 2.019079191902112 0.29214641799460594 0.0 2.9654929270923662 0.29985451387989237 0.0 4.90449098309082 0.30944050629320424 0.0 8.56163306142606 0.320465571655689 0.0 14.349349273365 0.33259801767367925 0.0 20.504269338851042 0.3460050887042358 0.0 24.10969039355835 0.8450419301254781 0.0 1.505595799057574 0.8653127688618559 0.0 2.001337652316553 0.8903024495266109 0.0 2.9399440346108667 0.918547533102924 0.0 4.8666566078543 0.9477176437686161 0.0 8.505550920425401 0.975551731654924 0.0 14.27008999927116 1.0005970656040761 0.0 20.404612548524 1.022725209645672 0.0 23.99747397510788 1.41895235928144 0.0 1.47338666042064 1.454864007411072 0.0 1.9583413801091012 1.49778145562271 0.0 2.877914160966033 1.544814388311168 0.0 4.76806863035064 1.5922061995766401 0.0 8.34126075132 1.636596848289231 0.0 14.006517114554459 1.675666943872992 0.0 20.04096057334056 1.7082882967060258 0.0 23.57695196088246 2.003410014063768 0.0 1.4235043332162178 2.053668137413968 0.0 1.8917751331903319 2.113232104537785 0.0 2.7803972479471653 2.177883954620496 0.0 4.60840635260748 2.242708337411568 0.0 8.066797276570199 2.3035708570076516 0.0 13.5535624220613 2.35746175190373 0.0 19.405521717125403 2.402202782798844 0.0 22.84040072795832 2.5579701394771948 0.0 1.3577775584572709 2.6211233774279403 0.0 1.8036618263395199 2.695850345882058 0.0 2.649796607707437 2.776770567861774 0.0 4.3914905092878 2.8578900775945804 0.0 7.688515988546401 2.934408612687552 0.0 12.92377848915213 3.002732623010565 0.0 18.51869509084386 3.05995289039349 0.0 21.81324085861752 3.03370365696264 0.0 1.2784112552376 3.108109890956202 0.0 1.6967579770866783 3.196300130824548 0.0 2.490173458255296 3.2915122686379736 0.0 4.1242711129083 3.387035883452265 0.0 7.220018565090871 3.47740924361691 0.0 12.14174510167242 3.558540978790119 0.0 17.41647066417657 3.627045270357831 0.0 20.5376937563133 3.3516695748190286 0.0 1.1921707409143978 3.4457758176630207 0.0 1.577973225778776 3.5614573487382963 0.0 2.308330870850844 3.679997331852792 0.0 3.8172574509586648 3.7899069744169616 0.0 6.6810028802504995 3.8914719187846196 0.0 11.2415093756328 3.969833843347824 0.0 16.14566674718142 4.06029542443671 0.0 19.07191523318058 3.4318229096012396 0.0 1.110644652150096 3.553783465383501 0.0 1.461876807754062 3.714611075851644 0.0 2.117534867262864 3.8905556950585987 0.0 3.483974762874972 4.0420161918677096 0.0 6.093889295928419 4.15442593158516 0.0 10.263103578237839 4.234198227818251 0.0 14.766913259713052 4.3384147037955 0.0 17.4820255305165 3.3918693444194004 0.0 1.022034935745584 3.52203159383084 0.0 1.3421734579372249 3.7052933624182396 0.0 1.922613902665556 3.92115377448252 0.0 3.139305938051275 4.12701486259216 0.0 5.4846969711815206 4.27924496158228 0.0 9.2503848027824 4.39317205097238 0.0 13.34693858646166 4.5020133711895305 0.0 15.834884116755552 3.2953110201278104 0.0 0.9365262935673061 3.42939091025151 0.0 1.219163109860232 3.6182939184080825 0.0 1.7318672586261363 3.8580622132672087 0.0 2.8003764407734804 4.1155116511648195 0.0 4.88628063316074 4.317587824524209 0.0 8.254041527733719 4.48513045041216 0.0 11.9366259192864 4.64521812275712 0.0 14.198182708144321 3.174196002549264 0.0 0.8538581188077601 3.300753362215408 0.0 1.10613754653248 3.49004646746076 0.0 1.5505022653341751 3.755628058040144 0.0 2.488371694072176 4.07366759207936 0.0 4.33607484537744 4.33662385488622 0.0 7.32341260345579 4.5997729382702195 0.0 10.59362737793292 4.88172214429152 0.0 12.6304780245248 3.030933681309744 0.0 0.7799563432856159 3.160045485190425 0.0 1.0027448411082451 3.34212573543426 0.0 1.3990453716795002 3.63415048704849 0.0 2.229436993990695 4.02958907439984 0.0 3.872794558366944 4.39275926488824 0.0 6.50809451430354 4.81036695255648 0.0 9.3678175252368 5.2584045828486 0.0 11.165809644512551 2.873505899260205 0.0 0.709595048218155 3.002975318720906 0.0 0.91943377866156 3.19077919983944 0.0 1.28076020245074 3.5135809855871454 0.0 2.0493399002225603 3.9940119978132476 0.0 3.528866245860848 4.5138536120631 0.0 5.84740677007272 5.14286847616774 0.0 8.29620872385522 5.8201834064671 0.0 9.83985233029535 2.7023366745316117 0.0 0.64724587781434 2.8366960946801036 0.0 0.8522147256464879 3.046291862164364 0.0 1.204073253087692 3.4106189696206117 0.0 1.9542280015219358 3.9799451238063597 0.0 3.32601944214538 4.7010131357266 0.0 5.3652422389055 5.5716484995384 0.0 7.403726687358879 6.5243872640489196 0.0 8.66943296617608 2.535215758930224 0.0 0.59591683967697 2.67476644182288 0.0 0.8014094364956281 2.9200580874201782 0.0 1.17707665021821 3.337568255554701 0.0 1.9513185548004033 4.00166282843038 0.0 3.2648379296592154 4.9105665787591795 0.0 5.05632004743114 5.98768539307995 0.0 6.6902360016828 7.1705722637928595 0.0 7.6492599912251995 2.370958976357526 0.0 0.550549853244129 2.537587369287924 0.0 0.77902133013714 2.8265724129245755 0.0 1.2128892397951678 3.3084334912301814 0.0 2.037755814976818 4.0637458851044395 0.0 3.324440831251776 5.076068562693241 0.0 4.86911008258956 6.2195818017888 0.0 6.120211319060759 2.233114756298552 0.0 0.5254773400203039 2.4353155536540387 0.0 0.800435494903772 2.779351871184916 0.0 1.3154758991259519 3.340452479137291 0.0 2.209628427737661 4.165627035850281 0.0 3.45450546588217 5.18366761515911 0.0 4.72901554863059 6.26889026461551 0.0 5.6198260266640805 2.134120095446391 0.0 0.540091075712292 2.3851871563734632 0.0 0.885038442061527 2.807983141219344 0.0 1.5041246716430219 3.45671383592865 0.0 2.454749395480278 4.3018104096858005 0.0 3.5936559653123905 5.24110847955318 0.0 4.58351998175916 2.094369860031441 0.0 0.618070648252578 2.426067867189435 0.0 1.06305209035134 2.956784646620631 0.0 1.782128894116761 3.669580134455541 0.0 2.725603424959062 4.48178111404416 0.0 3.6835195706834756 5.29792035492528 0.0 4.39765357466124 2.176638573514608 0.0 0.8049809245786559 2.639721239565807 0.0 1.34646515070651 3.2536467961499045 0.0 2.096318891991756 3.954361079062806 0.0 2.95962583294641 4.65799136608836 0.0 3.71300916709836 2.49607222002363 0.0 1.094230960060119 3.074426890672224 0.0 1.659453316460364 3.67756251822585 0.0 2.3699578563602097 4.2387775701498 0.0 3.1183862333373 3.0486422132337383 0.0 1.405021634126808 3.5801242542002396 0.0 1.96177717179104 4.05321818340162 0.0 2.5832588261527603 4.459936782229611 0.0 3.200651297562521 3.54422413703624 0.0 1.7198000371731197 3.8932583510946466 0.0 2.23703341344093 3.7585064207711 0.0 2.00850412424695 
TENSORS Ellispoids float
0.01 0.0 0.0 0.0 0.01 0.0 0.0 0.0 0.01 0.01 0.0 0.0 0.0 0.01 0.0 0.0 0.0 0.01 0.01 0.0 0.0 0.0 0.01 0.0 0.0 0.0 0.01 0.01 0.0 0.0 0.0 0.01 0.0 0.0 0.0 0.01 0.01 0.0 0.0 0.0 0.01 0.0 0.0 0.0 0.01 0.01 0.0 0.0 0.0 0.01 0.0 0.0 0.0 0.01 0.01 0.0 0.0 0.0 0.01 0.0 0.0 0.0 0.01 0.01 0.0 0.0 0.0 0.01 0.0 0.0 0.0 0.01 0.01 0.0 0.0 0.0 0.01 0.0 0.0 0.0 0.01 0.01 0.0 0.0 0.0 0.01 0.0 0.0 0.0 0.01 0.01 0.0 0.0 0.0 0.01 0.0 0.0 0.0 0.01 0.01 0.0 0.0 0.0 0.01 0.0 0.0 0.0 0.01 0.01 0.0 0.0 0.0 0.01 0.0 0.0 0.0 0.01 0.01 0.0 0.0 0.0 0.01 0.0 0.0 0.0 0.01 0.01 0.0 0.0 0.0 0.01 0.0 0.0 0.0 0.01 0.01 0.0 0.0 0.0 0.01 0.0 0.0 0.0 0.01 0.01 0.0 0.0 0.0 0.01 0.0 0.0 0.0 0.01 0.01 0.0 0.0 0.0 0.01 0.0 0.0 0.0 0.01 0.01 0.0 0.0 0.0 0.01 0.0 0.0 0.0 0.01 0.01 0.0 0.0 0.0 0.01 0.0 0.0 0.0 0.01 0.01 0.0 0.0 0.0 0.01 0.0 0.0 0.0 0.01 0.01 0.0 0.0 0.0 0.01 0.0 0.0 0.0 0.01 0.01 0.0 0.0 0.0 0.01 0.0 0.0 0.0 0.01 0.01 0.0 0.0 0.0 0.01 0.0 0.0 0.0 0.01 0.01 0.0 0.0 0.0 0.01 0.0 0.0 0.0 0.01 0.01 0.0 0.0 0.0 0.01 0.0 0.0 0.0 0.01 0.01 0.0 0.0 0.0 0.01 0.0 0.0 0.0 0.01 0.01 0.0 0.0 0.0 0.01 0.0 0.0 0.0 0.01 0.01 0.0 0.0 0.0 0.01 0.0 0.0 0.0 0.01 0.01 0.0 0.0 0.0 0.01 0.0 0.0 0.0 0.01 0.01 0.0 0.0 0.0 0.01 0.0 0.0 0.0 0.01 0.01 0.0 0.0 0.0 0.01 0.0 0.0 0.0 0.01 0.01 0.0 0.0 0.0 0.01 0.0 0.0 0.0 0.01 0.01 0.0 0.0 0.0 0.01 0.0 0.0 0.0 0.01 0.01 0.0 0.0 0.0 0.01 0.0 0.0 0.0 0.01 0.01 0.0 0.0 0.0 0.01 0.0 0.0 0.0 0.01 0.01 0.0 0.0 0.0 0.01 0.0 0.0 0.0 0.01 0.01 0.0 0.0 0.0 0.01 0.0 0.0 0.0 0.01 0.01 0.0 0.0 0.0 0.01 0.0 0.0 0.0 0.01 0.01 0.0 0.0 0.0 0.01 0.0 0.0 0.0 0.01 0.01 0.0 0.0 0.0 0.01 0.0 0.0 0.0 0.01 0.01 0.0 0.0 0.0 0.01 0.0 0.0 0.0 0.01 0.01 0.0 0.0 0.0 0.01 0.0 0.0 0.0 0.01 0.01 0.0 0.0 0.0 0.01 0.0 0.0 0.0 0.01 0.01 0.0 0.0 0.0 0.01 0.0 0.0 0.0 0.01 0.01 0.0 0.0 0.0 0.01 0.0 0.0 0.0 0.01 0.01 0.0 0.0 0.0 0.01 0.0 0.0 0.0 0.01 0.01 0.0 0.0 0.0 0.01 0.0 0.0 0.0 0.01 0.01 0.0 0.0 0.0 0.01 0.0 0.0 0.0 0.01 0.01 0.0 0.0 0.0 0.01 0.0 0.0 0.0 0.01 0.01 0.0 0.0 0.0 0.01 0.0 0.0 0.0 0.01 0.01 0.0 0.0 0.0 0.01 0.0 0.0 0.0 0.01 0.01 0.0 0.0 0.0 0.01 0.0 0.0 0.0 0.01 0.01 0.0 0.0 0.0 0.01 0.0 0.0 0.0 0.01 0.01 0.0 0.0 0.0 0.01 0.0 0.0 0.0 0.01 0.01 0.0 0.0 0.0 0.01 0.0 0.0 0.0 0.01 0.01 0.0 0.0 0.0 0.01 0.0 0.0 0.0 0.01 0.01 0.0 0.0 0.0 0.01 0.0 0.0 0.0 0.01 0.01 0.0 0.0 0.0 0.01 0.0 0.0 0.0 0.01 0.01 0.0 0.0 0.0 0.01 0.0 0.0 0.0 0.01 0.01 0.0 0.0 0.0 0.01 0.0 0.0 0.0 0.01 0.01 0.0 0.0 0.0 0.01 0.0 0.0 0.0 0.01 0.01 0.0 0.0 0.0 0.01 0.0 0.0 0.0 0.01 0.01 0.0 0.0 0.0 0.01 0.0 0.0 0.0 0.01 0.01 0.0 0.0 0.0 0.01 0.0 0.0 0.0 0.01 0.01 0.0 0.0 0.0 0.01 0.0 0.0 0.0 0.01 0.01 0.0 0.0 0.0 0.01 0.0 0.0 0.0 0.01 0.01 0.0 0.0 0.0 0.01 0.0 0.0 0.0 0.01 0.01 0.0 0.0 0.0 0.01 0.0 0.0 0.0 0.01 0.01 0.0 0.0 0.0 0.01 0.0 0.0 0.0 0.01 0.01 0.0 0.0 0.0 0.01 0.0 0.0 0.0 0.01 0.01 0.0 0.0 0.0 0.01 0.0 0.0 0.0 0.01 0.01 0.0 0.0 0.0 0.01 0.0 0.0 0.0 0.01 0.01 0.0 0.0 0.0 0.01 0.0 0.0 0.0 0.01 0.01 0.0 0.0 0.0 0.01 0.0 0.0 0.0 0.01 0.01 0.0 0.0 0.0 0.01 0.0 0.0 0.0 0.01 0.01 0.0 0.0 0.0 0.01 0.0 0.0 0.0 0.01 0.01 0.0 0.0 0.0 0.01 0.0 0.0 0.0 0.01 0.01 0.0 0.0 0.0 0.01 0.0 0.0 0.0 0.01 0.01 0.0 0.0 0.0 0.01 0.0 0.0 0.0 0.01 0.01 0.0 0.0 0.0 0.01 0.0 0.0 0.0 0.01 0.01 0.0 0.0 0.0 0.01 0.0 0.0 0.0 0.01 0.01 0.0 0.0 0.0 0.01 0.0 0.0 0.0 0.01 0.01 0.0 0.0 0.0 0.01 0.0 0.0 0.0 0.01 0.01 0.0 0.0 0.0 0.01 0.0 0.0 0.0 0.01 0.01 0.0 0.0 0.0 0.01 0.0 0.0 0.0 0.01 0.01 0.0 0.0 0.0 0.01 0.0 0.0 0.0 0.01 0.01 0.0 0.0 0.0 0.01 0.0 0.0 0.0 0.01 0.01 0.0 0.0 0.0 0.01 0.0 0.0 0.0 0.01 0.01 0.0 0.0 0.0 0.01 0.0 0.0 0.0 0.01 0.01 0.0 0.0 0.0 0.01 0.0 0.0 0.0 0.01 0.01 0.0 0.0 0.0 0.01 0.0 0.0 0.0 0.01 0.01 0.0 0.0 0.0 0.01 0.0 0.0 0.0 0.01 0.01 0.0 0.0 0.0 0.01 0.0 0.0 0.0 0.01 0.01 0.0 0.0 0.0 0.01 0.0 0.0 0.0 0.01 0.01 0.0 0.0 0.0 0.01 0.0 0.0 0.0 0.01 0.01 0.0 0.0 0.0 0.01 0.0 0.0 0.0 0.01 0.01 0.0 0.0 0.0 0.01 0.0 0.0 0.0 0.01 0.01 0.0 0.0 0.0 0.01 0.0 0.0 0.0 0.01 0.01 0.0 0.0 0.0 0.01 0.0 0.0 0.0 0.01 0.01 0.0 0.0 0.0 0.01 0.0 0.0 0.0 0.01 0.01 0.0 0.0 0.0 0.01 0.0 0.0 0.0 0.01 0.01 0.0 0.0 0.0 0.01 0.0 0.0 0.0 0.01 0.01 0.0 0.0 0.0 0.01 0.0 0.0 0.0 0.01 0.01 0.0 0.0 0.0 0.01 0.0 0.0 0.0 0.01 0.01 0.0 0.0 0.0 0.01 0.0 0.0 0.0 0.01 0.01 0.0 0.0 0.0 0.01 0.0 0.0 0.0 0.01 0.01 0.0 0.0 0.0 0.01 0.0 0.0 0.0 0.01 0.01 0.0 0.0 0.0 0.01 0.0 0.0 0.0 0.01 0.01 0.0 0.0 0.0 0.01 0.0 0.0 0.0 0.01 0.01 0.0 0.0 0.0 0.01 0.0 0.0 0.0 0.01 0.01 0.0 0.0 0.0 0.01 0.0 0.0 0.0 0.01 0.01 0.0 0.0 0.0 0.01 0.0 0.0 0.0 0.01 0.01 0.0 0.0 0.0 0.01 0.0 0.0 0.0 0.01 0.01 0.0 0.0 0.0 0.01 0.0 0.0 0.0 0.01 0.01 0.0 0.0 0.0 0.01 0.0 0.0 0.0 0.01 0.01 0.0 0.0 0.0 0.01 0.0 0.0 0.0 0.01 0.01 0.0 0.0 0.0 0.01 0.0 0.0 0.0 0.01 0.01 0.0 0.0 0.0 0.01 0.0 0.0 0.0 0.01 0.01 0.0 0.0 0.0 0.01 0.0 0.0 0.0 0.01 0.01 0.0 0.0 0.0 0.01 0.0 0.0 0.0 0.01 0.01 0.0 0.0 0.0 0.01 0.0 0.0 0.0 0.01 0.01 0.0 0.0 0.0 0.01 0.0 0.0 0.0 0.01 0.01 0.0 0.0 0.0 0.01 0.0 0.0 0.0 0.01 0.01 0.0 0.0 0.0 0.01 0.0 0.0 0.0 0.01 0.01 0.0 0.0 0.0 0.01 0.0 0.0 0.0 0.01 0.01 0.0 0.0 0.0 0.01 0.0 0.0 0.0 0.01 0.01 0.0 0.0 0.0 0.01 0.0 0.0 0.0 0.01 0.01 0.0 0.0 0.0 0.01 0.0 0.0 0.0 0.01 0.01 0.0 0.0 0.0 0.01 0.0 0.0 0.0 0.01 0.01 0.0 0.0 0.0 0.01 0.0 0.0 0.0 0.01 0.01 0.0 0.0 0.0 0.01 0.0 0.0 0.0 0.01 0.01 0.0 0.0 0.0 0.01 0.0 0.0 0.0 0.01 0.01 0.0 0.0 0.0 0.01 0.0 0.0 0.0 0.01 0.01 0.0 0.0 0.0 0.01 0.0 0.0 0.0 0.01 0.01 0.0 0.0 0.0 0.01 0.0 0.0 0.0 0.01 0.01 0.0 0.0 0.0 0.01 0.0 0.0 0.0 0.01 0.01 0.0 0.0 0.0 0.01 0.0 0.0 0.0 0.01 0.01 0.0 0.0 0.0 0.01 0.0 0.0 0.0 0.01 0.01 0.0 0.0 0.0 0.01 0.0 0.0 0.0 0.01 0.01 0.0 0.0 0.0 0.01 0.0 0.0 0.0 0.01 0.01 0.0 0.0 0.0 0.01 0.0 0.0 0.0 0.01 0.01 0.0 0.0 0.0 0.01 0.0 0.0 0.0 0.01 0.01 0.0 0.0 0.0 0.01 0.0 0.0 0.0 0.01 0.01 0.0 0.0 0.0 0.01 0.0 0.0 0.0 0.01 0.01 0.0 0.0 0.0 0.01 0.0 0.0 0.0 0.01 0.01 0.0 0.0 0.0 0.01 0.0 0.0 0.0 0.01 0.01 0.0 0.0 0.0 0.01 0.0 0.0 0.0 0.01 0.01 0.0 0.0 0.0 0.01 0.0 0.0 0.0 0.01 0.01 0.0 0.0 0.0 0.01 0.0 0.0 0.0 0.01 0.01 0.0 0.0 0.0 0.01 0.0 0.0 0.0 0.01 0.01 0.0 0.0 0.0 0.01 0.0 0.0 0.0 0.01 0.01 0.0 0.0 0.0 0.01 0.0 0.0 0.0 0.01 0.01 0.0 0.0 0.0 0.01 0.0 0.0 0.0 0.01 0.01 0.0 0.0 0.0 0.01 0.0 0.0 0.0 0.01 0.01 0.0 0.0 0.0 0.01 0.0 0.0 0.0 0.01 0.01 0.0 0.0 0.0 0.01 0.0 0.0 0.0 0.01 0.01 0.0 0.0 0.0 0.01 0.0 0.0 0.0 0.01 0.01 0.0 0.0 0.0 0.01 0.0 0.0 0.0 0.01 0.01 0.0 0.0 0.0 0.01 0.0 0.0 0.0 0.01 0.01 0.0 0.0 0.0 0.01 0.0 0.0 0.0 0.01 0.01 0.0 0.0 0.0 0.01 0.0 0.0 0.0 0.01 0.01 0.0 0.0 0.0 0.01 0.0 0.0 0.0 0.01 0.01 0.0 0.0 0.0 0.01 0.0 0.0 0.0 0.01 0.01 0.0 0.0 0.0 0.01 0.0 0.0 0.0 0.01 0.01 0.0 0.0 0.0 0.01 0.0 0.0 0.0 0.01 0.01 0.0 0.0 0.0 0.01 0.0 0.0 0.0 0.01 0.01 0.0 0.0 0.0 0.01 0.0 0.0 0.0 0.01 0.01 0.0 0.0 0.0 0.01 0.0 0.0 0.0 0.01 0.01 0.0 0.0 0.0 0.01 0.0 0.0 0.0 0.01 0.01 0.0 0.0 0.0 0.01 0.0 0.0 0.0 0.01 0.01 0.0 0.0 0.0 0.01 0.0 0.0 0.0 0.01 0.01 0.0 0.0 0.0 0.01 0.0 0.0 0.0 0.01 0.01 0.0 0.0 0.0 0.01 0.0 0.0 0.0 0.01 0.01 0.0 0.0 0.0 0.01 0.0 0.0 0.0 0.01 0.01 0.0 0.0 0.0 0.01 0.0 0.0 0.0 0.01 0.01 0.0 0.0 0.0 0.01 0.0 0.0 0.0 0.01 0.01 0.0 0.0 0.0 0.01 0.0 0.0 0.0 0.01 0.01 0.0 0.0 0.0 0.01 0.0 0.0 0.0 0.01 0.01 0.0 0.0 0.0 0.01 0.0 0.0 0.0 0.01 0.01 0.0 0.0 0.0 0.01 0.0 0.0 0.0 0.01 0.01 0.0 0.0 0.0 0.01 0.0 0.0 0.0 0.01 0.01 0.0 0.0 0.0 0.01 0.0 0.0 0.0 0.01 0.01 0.0 0.0 0.0 0.01 0.0 0.0 0.0 0.01 0.01 0.0 0.0 0.0 0.01 0.0 0.0 0.0 0.01 0.01 0.0 0.0 0.0 0.01 0.0 0.0 0.0 0.01 0.01 0.0 0.0 0.0 0.01 0.0 0.0 0.0 0.01 0.01 0.0 0.0 0.0 0.01 0.0 0.0 0.0 0.01 0.01 0.0 0.0 0.0 0.01 0.0 0.0 0.0 0.01 0.01 0.0 0.0 0.0 0.01 0.0 0.0 0.0 0.01 0.01 0.0 0.0 0.0 0.01 0.0 0.0 0.0 0.01 0.01 0.0 0.0 0.0 0.01 0.0 0.0 0.0 0.01 0.01 0.0 0.0 0.0 0.01 0.0 0.0 0.0 0.01 0.01 0.0 0.0 0.0 0.01 0.0 0.0 0.0 0.01 0.01 0.0 0.0 0.0 0.01 0.0 0.0 0.0 0.01 0.01 0.0 0.0 0.0 0.01 0.0 0.0 0.0 0.01 0.01 0.0 0.0 0.0 0.01 0.0 0.0 0.0 0.01 0.01 0.0 0.0 0.0 0.01 0.0 0.0 0.0 0.01 0.01 0.0 0.0 0.0 0.01 0.0 0.0 0.0 0.01 0.01 0.0 0.0 0.0 0.01 0.0 0.0 0.0 0.01 0.01 0.0 0.0 0.0 0.01 0.0 0.0 0.0 0.01 0.01 0.0 0.0 0.0 0.01 0.0 0.0 0.0 0.01 0.01 0.0 0.0 0.0 0.01 0.0 0.0 0.0 0.01 0.01 0.0 0.0 0.0 0.01 0.0 0.0 0.0 0.01 0.01 0.0 0.0 0.0 0.01 0.0 0.0 0.0 0.01 0.01 0.0 0.0 0.0 0.01 0.0 0.0 0.0 0.01 0.01 0.0 0.0 0.0 0.01 0.0 0.0 0.0 0.01 0.01 0.0 0.0 0.0 0.01 0.0 0.0 0.0 0.01 0.01 0.0 0.0 0.0 0.01 0.0 0.0 0.0 0.01 0.01 0.0 0.0 0.0 0.01 0.0 0.0 0.0 0.01 0.01 0.0 0.0 0.0 0.01 0.0 0.0 0.0 0.01 0.01 0.0 0.0 0.0 0.01 0.0 0.0 0.0 0.01 0.01 0.0 0.0 0.0 0.01 0.0 0.0 0.0 0.01 0.01 0.0 0.0 0.0 0.01 0.0 0.0 0.0 0.01 0.01 0.0 0.0 0.0 0.01 0.0 0.0 0.0 0.01 0.01 0.0 0.0 0.0 0.01 0.0 0.0 0.0 0.01 0.01 0.0 0.0 0.0 0.01 0.0 0.0 0.0 0.01 0.01 0.0 0.0 0.0 0.01 0.0 0.0 0.0 0.01 0.01 0.0 0.0 0.0 0.01 0.0 0.0 0.0 0.01 0.01 0.0 0.0 0.0 0.01 0.0 0.0 0.0 0.01 0.01 0.0 0.0 0.0 0.01 0.0 0.0 0.0 0.01 0.01 0.0 0.0 0.0 0.01 0.0 0.0 0.0 0.01 0.01 0.0 0.0 0.0 0.01 0.0 0.0 0.0 0.01 0.01 0.0 0.0 0.0 0.01 0.0 0.0 0.0 0.01 0.01 0.0 0.0 0.0 0.01 0.0 0.0 0.0 0.01 0.01 0.0 0.0 0.0 0.01 0.0 0.0 0.0 0.01 0.01 0.0 0.0 0.0 0.01 0.0 0.0 0.0 0.01 0.01 0.0 0.0 0.0 0.01 0.0 0.0 0.0 0.01 0.01 0.0 0.0 0.0 0.01 0.0 0.0 0.0 0.01 0.01 0.0 0.0 0.0 0.01 0.0 0.0 0.0 0.01 0.01 0.0 0.0 0.0 0.01 0.0 0.0 0.0 0.01 0.01 0.0 0.0 0.0 0.01 0.0 0.0 0.0 0.01 0.01 0.0 0.0 0.0 0.01 0.0 0.0 0.0 0.01 0.01 0.0 0.0 0.0 0.01 0.0 0.0 0.0 0.01 0.01 0.0 0.0 0.0 0.01 0.0 0.0 0.0 0.01 0.01 0.0 0.0 0.0 0.01 0.0 0.0 0.0 0.01 0.01 0.0 0.0 0.0 0.01 0.0 0.0 0.0 0.01 0.01 0.0 0.0 0.0 0.01 0.0 0.0 0.0 0.01 0.01 0.0 0.0 0.0 0.01 0.0 0.0 0.0 0.01 0.01 0.0 0.0 0.0 0.01 0.0 0.0 0.0 0.01 0.01 0.0 0.0 0.0 0.01 0.0 0.0 0.0 0.01 0.01 0.0 0.0 0.0 0.01 0.0 0.0 0.0 0.01 0.01 0.0 0.0 0.0 0.01 0.0 0.0 0.0 0.01 0.01 0.0 0.0 0.0 0.01 0.0 0.0 0.0 0.01 0.01 0.0 0.0 0.0 0.01 0.0 0.0 0.0 0.01 0.01 0.0 0.0 0.0 0.01 0.0 0.0 0.0 0.01 0.01 0.0 0.0 0.0 0.01 0.0 0.0 0.0 0.01 0.01 0.0 0.0 0.0 0.01 0.0 0.0 0.0 0.01 0.01 0.0 0.0 0.0 0.01 0.0 0.0 0.0 0.01 0.01 0.0 0.0 0.0 0.01 0.0 0.0 0.0 0.01 0.01 0.0 0.0 0.0 0.01 0.0 0.0 0.0 0.01 0.01 0.0 0.0 0.0 0.01 0.0 0.0 0.0 0.01 0.01 0.0 0.0 0.0 0.01 0.0 0.0 0.0 0.01 0.01 0.0 0.0 0.0 0.01 0.0 0.0 0.0 0.01 0.01 0.0 0.0 0.0 0.01 0.0 0.0 0.0 0.01 0.01 0.0 0.0 0.0 0.01 0.0 0.0 0.0 0.01 0.01 0.0 0.0 0.0 0.01 0.0 0.0 0.0 0.01 0.01 0.0 0.0 0.0 0.01 0.0 0.0 0.0 0.01 0.01 0.0 0.0 0.0 0.01 0.0 0.0 0.0 0.01 0.01 0.0 0.0 0.0 0.01 0.0 0.0 0.0 0.01 0.01 0.0 0.0 0.0 0.01 0.0 0.0 0.0 0.01 0.01 0.0 0.0 0.0 0.01 0.0 0.0 0.0 0.01 0.01 0.0 0.0 0.0 0.01 0.0 0.0 0.0 0.01 0.01 0.0 0.0 0.0 0.01 0.0 0.0 0.0 0.01 0.01 0.0 0.0 0.0 0.01 0.0 0.0 0.0 0.01 0.01 0.0 0.0 0.0 0.01 0.0 0.0 0.0 0.01 0.01 0.0 0.0 0.0 0.01 0.0 0.0 0.0 0.01 0.01 0.0 0.0 0.0 0.01 0.0 0.0 0.0 0.01 0.01 0.0 0.0 0.0 0.01 0.0 0.0 0.0 0.01 0.01 0.0 0.0 0.0 0.01 0.0 0.0 0.0 0.01 0.01 0.0 0.0 0.0 0.01 0.0 0.0 0.0 0.01 0.01 0.0 0.0 0.0 0.01 0.0 0.0 0.0 0.01 0.01 0.0 0.0 0.0 0.01 0.0 0.0 0.0 0.01 0.01 0.0 0.0 0.0 0.01 0.0 0.0 0.0 0.01 0.01 0.0 0.0 0.0 0.01 0.0 0.0 0.0 0.01 0.01 0.0 0.0 0.0 0.01 0.0 0.0 0.0 0.01 0.01 0.0 0.0 0.0 0.01 0.0 0.0 0.0 0.01 0.01 0.0 0.0 0.0 0.01 0.0 0.0 0.0 0.01 0.01 0.0 0.0 0.0 0.01 0.0 0.0 0.0 0.01 0.01 0.0 0.0 0.0 0.01 0.0 0.0 0.0 0.01 0.01 0.0 0.0 0.0 0.01 0.0 0.0 0.0 0.01 0.01 0.0 0.0 0.0 0.01 0.0 0.0 0.0 0.01 0.01 0.0 0.0 0.0 0.01 0.0 0.0 0.0 0.01 0.01 0.0 0.0 0.0 0.01 0.0 0.0 0.0 0.01 0.01 0.0 0.0 0.0 0.01 0.0 0.0 0.0 0.01 0.01 0.0 0.0 0.0 0.01 0.0 0.0 0.0 0.01 0.01 0.0 0.0 0.0 0.01 0.0 0.0 0.0 0.01 0.01 0.0 0.0 0.0 0.01 0.0 0.0 0.0 0.01 0.01 0.0 0.0 0.0 0.01 0.0 0.0 0.0 0.01 0.01 0.0 0.0 0.0 0.01 0.0 0.0 0.0 0.01 0.01 0.0 0.0 0.0 0.01 0.0 0.0 0.0 0.01 0.01 0.0 0.0 0.0 0.01 0.0 0.0 0.0 0.01 0.01 0.0 0.0 0.0 0.01 0.0 0.0 0.0 0.01 0.01 0.0 0.0 0.0 0.01 0.0 0.0 0.0 0.01 0.01 0.0 0.0 0.0 0.01 0.0 0.0 0.0 0.01 0.01 0.0 0.0 0.0 0.01 0.0 0.0 0.0 0.01 0.01 0.0 0.0 0.0 0.01 0.0 0.0 0.0 0.01 0.01 0.0 0.0 0.0 0.01 0.0 0.0 0.0 0.01 0.01 0.0 0.0 0.0 0.01 0.0 0.0 0.0 0.01 0.01 0.0 0.0 0.0 0.01 0.0 0.0 0.0 0.01 0.01 0.0 0.0 0.0 0.01 0.0 0.0 0.0 0.01 0.01 0.0 0.0 0.0 0.01 0.0 0.0 0.0 0.01 0.01 0.0 0.0 0.0 0.01 0.0 0.0 0.0 0.01 0.01 0.0 0.0 0.0 0.01 0.0 0.0 0.0 0.01 0.01 0.0 0.0 0.0 0.01 0.0 0.0 0.0 0.01 0.01 0.0 0.0 0.0 0.01 0.0 0.0 0.0 0.01 0.01 0.0 0.0 0.0 0.01 0.0 0.0 0.0 0.01 0.01 0.0 0.0 0.0 0.01 0.0 0.0 0.0 0.01 0.01 0.0 0.0 0.0 0.01 0.0 0.0 0.0 0.01 0.01 0.0 0.0 0.0 0.01 0.0 0.0 0.0 0.01 0.01 0.0 0.0 0.0 0.01 0.0 0.0 0.0 0.01 0.01 0.0 0.0 0.0 0.01 0.0 0.0 0.0 0.01 0.01 0.0 0.0 0.0 0.01 0.0 0.0 0.0 0.01 0.01 0.0 0.0 0.0 0.01 0.0 0.0 0.0 0.01 0.01 0.0 0.0 0.0 0.01 0.0 0.0 0.0 0.01 0.01 0.0 0.0 0.0 0.01 0.0 0.0 0.0 0.01 0.01 0.0 0.0 0.0 0.01 0.0 0.0 0.0 0.01 0.01 0.0 0.0 0.0 0.01 0.0 0.0 0.0 0.01 0.01 0.0 0.0 0.0 0.01 0.0 0.0 0.0 0.01 0.01 0.0 0.0 0.0 0.01 0.0 0.0 0.0 0.01 0.01 0.0 0.0 0.0 0.01 0.0 0.0 0.0 0.01 0.01 0.0 0.0 0.0 0.01 0.0 0.0 0.0 0.01 0.01 0.0 0.0 0.0 0.01 0.0 0.0 0.0 0.01 0.01 0.0 0.0 0.0 0.01 0.0 0.0 0.0 0.01 0.01 0.0 0.0 0.0 0.01 0.0 0.0 0.0 0.01 0.01 0.0 0.0 0.0 0.01 0.0 0.0 0.0 0.01 0.01 0.0 0.0 0.0 0.01 0.0 0.0 0.0 0.01 0.01 0.0 0.0 0.0 0.01 0.0 0.0 0.0 0.01 0.01 0.0 0.0 0.0 0.01 0.0 0.0 0.0 0.01 0.01 0.0 0.0 0.0 0.01 0.0 0.0 0.0 0.01 0.01 0.0 0.0 0.0 0.01 0.0 0.0 0.0 0.01 0.01 0.0 0.0 0.0 0.01 0.0 0.0 0.0 0.01 0.01 0.0 0.0 0.0 0.01 0.0 0.0 0.0 0.01 0.01 0.0 0.0 0.0 0.01 0.0 0.0 0.0 0.01 0.01 0.0 0.0 0.0 0.01 0.0 0.0 0.0 0.01 0.01 0.0 0.0 0.0 0.01 0.0 0.0 0.0 0.01 0.01 0.0 0.0 0.0 0.01 0.0 0.0 0.0 0.01 0.01 0.0 0.0 0.0 0.01 0.0 0.0 0.0 0.01 0.01 0.0 0.0 0.0 0.01 0.0 0.0 0.0 0.01 0.01 0.0 0.0 0.0 0.01 0.0 0.0 0.0 0.01 0.01 0.0 0.0 0.0 0.01 0.0 0.0 0.0 0.01 0.01 0.0 0.0 0.0 0.01 0.0 0.0 0.0 0.01 0.01 0.0 0.0 0.0 0.01 0.0 0.0 0.0 0.01 0.01 0.0 0.0 0.0 0.01 0.0 0.0 0.0 0.01 0.01 0.0 0.0 0.0 0.01 0.0 0.0 0.0 0.01 0.01 0.0 0.0 0.0 0.01 0.0 0.0 0.0 0.01 0.01 0.0 0.0 0.0 0.01 0.0 0.0 0.0 0.01 0.01 0.0 0.0 0.0 0.01 0.0 0.0 0.0 0.01 0.01 0.0 0.0 0.0 0.01 0.0 0.0 0.0 0.01 0.01 0.0 0.0 0.0 0.01 0.0 0.0 0.0 0.01 0.01 0.0 0.0 0.0 0.01 0.0 0.0 0.0 0.01 0.01 0.0 0.0 0.0 0.01 0.0 0.0 0.0 0.01 0.01 0.0 0.0 0.0 0.01 0.0 0.0 0.0 0.01 0.01 0.0 0.0 0.0 0.01 0.0 0.0 0.0 0.01 0.01 0.0 0.0 0.0 0.01 0.0 0.0 0.0 0.01 0.01 0.0 0.0 0.0 0.01 0.0 0.0 0.0 0.01 0.01 0.0 0.0 0.0 0.01 0.0 0.0 0.0 0.01 0.01 0.0 0.0 0.0 0.01 0.0 0.0 0.0 0.01 0.01 0.0 0.0 0.0 0.01 0.0 0.0 0.0 0.01 0.01 0.0 0.0 0.0 0.01 0.0 0.0 0.0 0.01 0.01 0.0 0.0 0.0 0.01 0.0 0.0 0.0 0.01 0.01 0.0 0.0 0.0 0.01 0.0 0.0 0.0 0.01 0.01 0.0 0.0 0.0 0.01 0.0 0.0 0.0 0.01 0.01 0.0 0.0 0.0 0.01 0.0 0.0 0.0 0.01 0.01 0.0 0.0 0.0 0.01 0.0 0.0 0.0 0.01 0.01 0.0 0.0 0.0 0.01 0.0 0.0 0.0 0.01 0.01 0.0 0.0 0.0 0.01 0.0 0.0 0.0 0.01 0.01 0.0 0.0 0.0 0.01 0.0 0.0 0.0 0.01 0.01 0.0 0.0 0.0 0.01 0.0 0.0 0.0 0.01 0.01 0.0 0.0 0.0 0.01 0.0 0.0 0.0 0.01 0.01 0.0 0.0 0.0 0.01 0.0 0.0 0.0 0.01 0.01 0.0 0.0 0.0 0.01 0.0 0.0 0.0 0.01 0.01 0.0 0.0 0.0 0.01 0.0 0.0 0.0 0.01 0.01 0.0 0.0 0.0 0.01 0.0 0.0 0.0 0.01 0.01 0.0 0.0 0.0 0.01 0.0 0.0 0.0 0.01 0.01 0.0 0.0 0.0 0.01 0.0 0.0 0.0 0.01 0.01 0.0 0.0 0.0 0.01 0.0 0.0 0.0 0.01 0.01 0.0 0.0 0.0 0.01 0.0 0.0 0.0 0.01 0.01 0.0 0.0 0.0 0.01 0.0 0.0 0.0 0.01 0.01 0.0 0.0 0.0 0.01 0.0 0.0 0.0 0.01 0.01 0.0 0.0 0.0 0.01 0.0 0.0 0.0 0.01 0.01 0.0 0.0 0.0 0.01 0.0 0.0 0.0 0.01 0.01 0.0 0.0 0.0 0.01 0.0 0.0 0.0 0.01 0.01 0.0 0.0 0.0 0.01 0.0 0.0 0.0 0.01 0.01 0.0 0.0 0.0 0.01 0.0 0.0 0.0 0.01 0.01 0.0 0.0 0.0 0.01 0.0 0.0 0.0 0.01 0.01 0.0 0.0 0.0 0.01 0.0 0.0 0.0 0.01 0.01 0.0 0.0 0.0 0.01 0.0 0.0 0.0 0.01 0.01 0.0 0.0 0.0 0.01 0.0 0.0 0.0 0.01 0.01 0.0 0.0 0.0 0.01 0.0 0.0 0.0 0.01 0.01 0.0 0.0 0.0 0.01 0.0 0.0 0.0 0.01 0.01 0.0 0.0 0.0 0.01 0.0 0.0 0.0 0.01 0.01 0.0 0.0 0.0 0.01 0.0 0.0 0.0 0.01 0.01 0.0 0.0 0.0 0.01 0.0 0.0 0.0 0.01 0.01 0.0 0.0 0.0 0.01 0.0 0.0 0.0 0.01 0.01 0.0 0.0 0.0 0.01 0.0 0.0 0.0 0.01 0.01 0.0 0.0 0.0 0.01 0.0 0.0 0.0 0.01 0.01 0.0 0.0 0.0 0.01 0.0 0.0 0.0 0.01 0.01 0.0 0.0 0.0 0.01 0.0 0.0 0.0 0.01 0.01 0.0 0.0 0.0 0.01 0.0 0.0 0.0 0.01 0.01 0.0 0.0 0.0 0.01 0.0 0.0 0.0 0.01 0.01 0.0 0.0 0.0 0.01 0.0 0.0 0.0 0.01 0.01 0.0 0.0 0.0 0.01 0.0 0.0 0.0 0.01 0.01 0.0 0.0 0.0 0.01 0.0 0.0 0.0 0.01 0.01 0.0 0.0 0.0 0.01 0.0 0.0 0.0 0.01 0.01 0.0 0.0 0.0 0.01 0.0 0.0 0.0 0.01 0.01 0.0 0.0 0.0 0.01 0.0 0.0 0.0 0.01 0.01 0.0 0.0 0.0 0.01 0.0 0.0 0.0 0.01 0.01 0.0 0.0 0.0 0.01 0.0 0.0 0.0 0.01 0.01 0.0 0.0 0.0 0.01 0.0 0.0 0.0 0.01 0.01 0.0 0.0 0.0 0.01 0.0 0.0 0.0 0.01 0.01 0.0 0.0 0.0 0.01 0.0 0.0 0.0 0.01 0.01 0.0 0.0 0.0 0.01 0.0 0.0 0.0 0.01 0.01 0.0 0.0 0.0 0.01 0.0 0.0 0.0 0.01 0.01 0.0 0.0 0.0 0.01 0.0 0.0 0.0 0.01 0.01 0.0 0.0 0.0 0.01 0.0 0.0 0.0 0.01 0.01 0.0 0.0 0.0 0.01 0.0 0.0 0.0 0.01 0.01 0.0 0.0 0.0 0.01 0.0 0.0 0.0 0.01 0.01 0.0 0.0 0.0 0.01 0.0 0.0 0.0 0.01 0.01 0.0 0.0 0.0 0.01 0.0 0.0 0.0 0.01 0.01 0.0 0.0 0.0 0.01 0.0 0.0 0.0 0.01 0.01 0.0 0.0 0.0 0.01 0.0 0.0 0.0 0.01 0.01 0.0 0.0 0.0 0.01 0.0 0.0 0.0 0.01 0.01 0.0 0.0 0.0 0.01 0.0 0.0 0.0 0.01 0.01 0.0 0.0 0.0 0.01 0.0 0.0 0.0 0.01 0.01 0.0 0.0 0.0 0.01 0.0 0.0 0.0 0.01 0.01 0.0 0.0 0.0 0.01 0.0 0.0 0.0 0.01 0.01 0.0 0.0 0.0 0.01 0.0 0.0 0.0 0.01 0.01 0.0 0.0 0.0 0.01 0.0 0.0 0.0 0.01 0.01 0.0 0.0 0.0 0.01 0.0 0.0 0.0 0.01 0.01 0.0 0.0 0.0 0.01 0.0 0.0 0.0 0.01 0.01 0.0 0.0 0.0 0.01 0.0 0.0 0.0 0.01 0.01 0.0 0.0 0.0 0.01 0.0 0.0 0.0 0.01 0.01 0.0 0.0 0.0 0.01 0.0 0.0 0.0 0.01 0.01 0.0 0.0 0.0 0.01 0.0 0.0 0.0 0.01 0.01 0.0 0.0 0.0 0.01 0.0 0.0 0.0 0.01 0.01 0.0 0.0 0.0 0.01 0.0 0.0 0.0 0.01 0.01 0.0 0.0 0.0 0.01 0.0 0.0 0.0 0.01 0.01 0.0 0.0 0.0 0.01 0.0 0.0 0.0 0.01 0.01 0.0 0.0 0.0 0.01 0.0 0.0 0.0 0.01 0.01 0.0 0.0 0.0 0.01 0.0 0.0 0.0 0.01 0.01 0.0 0.0 0.0 0.01 0.0 0.0 0.0 0.01 0.01 0.0 0.0 0.0 0.01 0.0 0.0 0.0 0.01 0.01 0.0 0.0 0.0 0.01 0.0 0.0 0.0 0.01 0.01 0.0 0.0 0.0 0.01 0.0 0.0 0.0 0.01 0.01 0.0 0.0 0.0 0.01 0.0 0.0 0.0 0.01 0.01 0.0 0.0 0.0 0.01 0.0 0.0 0.0 0.01 0.01 0.0 0.0 0.0 0.01 0.0 0.0 0.0 0.01 0.01 0.0 0.0 0.0 0.01 0.0 0.0 0.0 0.01 0.01 0.0 0.0 0.0 0.01 0.0 0.0 0.0 0.01 0.01 0.0 0.0 0.0 0.01 0.0 0.0 0.0 0.01 0.01 0.0 0.0 0.0 0.01 0.0 0.0 0.0 0.01 0.01 0.0 0.0 0.0 0.01 0.0 0.0 0.0 0.01 0.01 0.0 0.0 0.0 0.01 0.0 0.0 0.0 0.01 0.01 0.0 0.0 0.0 0.01 0.0 0.0 0.0 0.01 0.01 0.0 0.0 0.0 0.01 0.0 0.0 0.0 0.01 0.01 0.0 0.0 0.0 0.01 0.0 0.0 0.0 0.01 0.01 0.0 0.0 0.0 0.01 0.0 0.0 0.0 0.01 0.01 0.0 0.0 0.0 0.01 0.0 0.0 0.0 0.01 0.01 0.0 0.0 0.0 0.01 0.0 0.0 0.0 0.01 0.01 0.0 0.0 0.0 0.01 0.0 0.0 0.0 0.01 0.01 0.0 0.0 0.0 0.01 0.0 0.0 0.0 0.01 0.01 0.0 0.0 0.0 0.01 0.0 0.0 0.0 0.01 0.01 0.0 0.0 0.0 0.01 0.0 0.0 0.0 0.01 0.01 0.0 0.0 0.0 0.01 0.0 0.0 0.0 0.01 0.01 0.0 0.0 0.0 0.01 0.0 0.0 0.0 0.01 0.01 0.0 0.0 0.0 0.01 0.0 0.0 0.0 0.01 0.01 0.0 0.0 0.0 0.01 0.0 0.0 0.0 0.01 0.01 0.0 0.0 0.0 0.01 0.0 0.0 0.0 0.01 0.01 0.0 0.0 0.0 0.01 0.0 0.0 0.0 0.01 0.01 0.0 0.0 0.0 0.01 0.0 0.0 0.0 0.01 0.01 0.0 0.0 0.0 0.01 0.0 0.0 0.0 0.01 0.01 0.0 0.0 0.0 0.01 0.0 0.0 0.0 0.01 0.01 0.0 0.0 0.0 0.01 0.0 0.0 0.0 0.01 0.01 0.0 0.0 0.0 0.01 0.0 0.0 0.0 0.01 0.01 0.0 0.0 0.0 0.01 0.0 0.0 0.0 0.01 0.01 0.0 0.0 0.0 0.01 0.0 0.0 0.0 0.01 0.01 0.0 0.0 0.0 0.01 0.0 0.0 0.0 0.01 0.01 0.0 0.0 0.0 0.01 0.0 0.0 0.0 0.01 0.01 0.0 0.0 0.0 0.01 0.0 0.0 0.0 0.01 0.01 0.0 0.0 0.0 0.01 0.0 0.0 0.0 0.01 0.01 0.0 0.0 0.0 0.01 0.0 0.0 0.0 0.01 0.01 0.0 0.0 0.0 0.01 0.0 0.0 0.0 0.01 0.01 0.0 0.0 0.0 0.01 0.0 0.0 0.0 0.01 0.01 0.0 0.0 0.0 0.01 0.0 0.0 0.0 0.01 0.01 0.0 0.0 0.0 0.01 0.0 0.0 0.0 0.01 0.01 0.0 0.0 0.0 0.01 0.0 0.0 0.0 0.01 0.01 0.0 0.0 0.0 0.01 0.0 0.0 0.0 0.01 0.01 0.0 0.0 0.0 0.01 0.0 0.0 0.0 0.01 0.01 0.0 0.0 0.0 0.01 0.0 0.0 0.0 0.01 0.01 0.0 0.0 0.0 0.01 0.0 0.0 0.0 0.01 0.01 0.0 0.0 0.0 0.01 0.0 0.0 0.0 0.01 0.01 0.0 0.0 0.0 0.01 0.0 0.0 0.0 0.01 0.01 0.0 0.0 0.0 0.01 0.0 0.0 0.0 0.01 0.01 0.0 0.0 0.0 0.01 0.0 0.0 0.0 0.01 0.01 0.0 0.0 0.0 0.01 0.0 0.0 0.0 0.01 0.01 0.0 0.0 0.0 0.01 0.0 0.0 0.0 0.01 0.01 0.0 0.0 0.0 0.01 0.0 0.0 0.0 0.01 0.01 0.0 0.0 0.0 0.01 0.0 0.0 0.0 0.01 0.01 0.0 0.0 0.0 0.01 0.0 0.0 0.0 0.01 0.01 0.0 0.0 0.0 0.01 0.0 0.0 0.0 0.01 0.01 0.0 0.0 0.0 0.01 0.0 0.0 0.0 0.01 0.01 0.0 0.0 0.0 0.01 0.0 0.0 0.0 0.01 0.01 0.0 0.0 0.0 0.01 0.0 0.0 0.0 0.01 0.01 0.0 0.0 0.0 0.01 0.0 0.0 0.0 0.01 0.01 0.0 0.0 0.0 0.01 0.0 0.0 0.0 0.01 0.01 0.0 0.0 0.0 0.01 0.0 0.0 0.0 0.01 0.01 0.0 0.0 0.0 0.01 0.0 0.0 0.0 0.01 0.01 0.0 0.0 0.0 0.01 0.0 0.0 0.0 0.01 0.01 0.0 0.0 0.0 0.01 0.0 0.0 0.0 0.01 0.01 0.0 0.0 0.0 0.01 0.0 0.0 0.0 0.01 0.01 0.0 0.0 0.0 0.01 0.0 0.0 0.0 0.01 0.01 0.0 0.0 0.0 0.01 0.0 0.0 0.0 0.01 0.01 0.0 0.0 0.0 0.01 0.0 0.0 0.0 0.01 0.01 0.0 0.0 0.0 0.01 0.0 0.0 0.0 0.01 0.01 0.0 0.0 0.0 0.01 0.0 0.0 0.0 0.01 0.01 0.0 0.0 0.0 0.01 0.0 0.0 0.0 0.01 0.01 0.0 0.0 0.0 0.01 0.0 0.0 0.0 0.01 0.01 0.0 0.0 0.0 0.01 0.0 0.0 0.0 0.01 0.01 0.0 0.0 0.0 0.01 0.0 0.0 0.0 0.01 0.01 0.0 0.0 0.0 0.01 0.0 0.0 0.0 0.01 0.01 0.0 0.0 0.0 0.01 0.0 0.0 0.0 0.01 0.01 0.0 0.0 0.0 0.01 0.0 0.0 0.0 0.01 0.01 0.0 0.0 0.0 0.01 0.0 0.0 0.0 0.01 0.01 0.0 0.0 0.0 0.01 0.0 0.0 0.0 0.01 0.01 0.0 0.0 0.0 0.01 0.0 0.0 0.0 0.01 0.01 0.0 0.0 0.0 0.01 0.0 0.0 0.0 0.01 0.01 0.0 0.0 0.0 0.01 0.0 0.0 0.0 0.01 0.01 0.0 0.0 0.0 0.01 0.0 0.0 0.0 0.01 0.01 0.0 0.0 0.0 0.01 0.0 0.0 0.0 0.01 0.01 0.0 0.0 0.0 0.01 0.0 0.0 0.0 0.01 0.01 0.0 0.0 0.0 0.01 0.0 0.0 0.0 0.01 0.01 0.0 0.0 0.0 0.01 0.0 0.0 0.0 0.01 0.01 0.0 0.0 0.0 0.01 0.0 0.0 0.0 0.01 0.01 0.0 0.0 0.0 0.01 0.0 0.0 0.0 0.01 0.01 0.0 0.0 0.0 0.01 0.0 0.0 0.0 0.01 0.01 0.0 0.0 0.0 0.01 0.0 0.0 0.0 0.01 0.01 0.0 0.0 0.0 0.01 0.0 0.0 0.0 0.01 0.01 0.0 0.0 0.0 0.01 0.0 0.0 0.0 0.01 0.01 0.0 0.0 0.0 0.01 0.0 0.0 0.0 0.01 0.01 0.0 0.0 0.0 0.01 0.0 0.0 0.0 0.01 0.01 0.0 0.0 0.0 0.01 0.0 0.0 0.0 0.01 0.01 0.0 0.0 0.0 0.01 0.0 0.0 0.0 0.01 0.01 0.0 0.0 0.0 0.01 0.0 0.0 0.0 0.01 0.01 0.0 0.0 0.0 0.01 0.0 0.0 0.0 0.01 0.01 0.0 0.0 0.0 0.01 0.0 0.0 0.0 0.01 0.01 0.0 0.0 0.0 0.01 0.0 0.0 0.0 0.01 0.01 0.0 0.0 0.0 0.01 0.0 0.0 0.0 0.01 0.01 0.0 0.0 0.0 0.01 0.0 0.0 0.0 0.01 0.01 0.0 0.0 0.0 0.01 0.0 0.0 0.0 0.01 0.01 0.0 0.0 0.0 0.01 0.0 0.0 0.0 0.01 0.01 0.0 0.0 0.0 0.01 0.0 0.0 0.0 0.01 0.01 0.0 0.0 0.0 0.01 0.0 0.0 0.0 0.01 0.01 0.0 0.0 0.0 0.01 0.0 0.0 0.0 0.01 0.01 0.0 0.0 0.0 0.01 0.0 0.0 0.0 0.01 0.01 0.0 0.0 0.0 0.01 0.0 0.0 0.0 0.01 0.01 0.0 0.0 0.0 0.01 0.0 0.0 0.0 0.01 0.01 0.0 0.0 0.0 0.01 0.0 0.0 0.0 0.01 0.01 0.0 0.0 0.0 0.01 0.0 0.0 0.0 0.01 0.01 0.0 0.0 0.0 0.01 0.0 0.0 0.0 0.01 0.01 0.0 0.0 0.0 0.01 0.0 0.0 0.0 0.01 0.01 0.0 0.0 0.0 0.01 0.0 0.0 0.0 0.01 0.01 0.0 0.0 0.0 0.01 0.0 0.0 0.0 0.01 0.01 0.0 0.0 0.0 0.01 0.0 0.0 0.0 0.01 0.01 0.0 0.0 0.0 0.01 0.0 0.0 0.0 0.01 0.01 0.0 0.0 0.0 0.01 0.0 0.0 0.0 0.01 0.01 0.0 0.0 0.0 0.01 0.0 0.0 0.0 0.01 0.01 0.0 0.0 0.0 0.01 0.0 0.0 0.0 0.01 0.01 0.0 0.0 0.0 0.01 0.0 0.0 0.0 0.01 0.01 0.0 0.0 0.0 0.01 0.0 0.0 0.0 0.01 0.01 0.0 0.0 0.0 0.01 0.0 0.0 0.0 0.01 0.01 0.0 0.0 0.0 0.01 0.0 0.0 0.0 0.01 0.01 0.0 0.0 0.0 0.01 0.0 0.0 0.0 0.01 0.01 0.0 0.0 0.0 0.01 0.0 0.0 0.0 0.01 0.01 0.0 0.0 0.0 0.01 0.0 0.0 0.0 0.01 0.01 0.0 0.0 0.0 0.01 0.0 0.0 0.0 0.01 0.01 0.0 0.0 0.0 0.01 0.0 0.0 0.0 0.01 0.01 0.0 0.0 0.0 0.01 0.0 0.0 0.0 0.01 0.01 0.0 0.0 0.0 0.01 0.0 0.0 0.0 0.01 0.01 0.0 0.0 0.0 0.01 0.0 0.0 0.0 0.01 0.01 0.0 0.0 0.0 0.01 0.0 0.0 0.0 0.01 0.01 0.0 0.0 0.0 0.01 0.0 0.0 0.0 0.01 0.01 0.0 0.0 0.0 0.01 0.0 0.0 0.0 0.01 0.01 0.0 0.0 0.0 0.01 0.0 0.0 0.0 0.01 0.01 0.0 0.0 0.0 0.01 0.0 0.0 0.0 0.01 0.01 0.0 0.0 0.0 0.01 0.0 0.0 0.0 0.01 0.01 0.0 0.0 0.0 0.01 0.0 0.0 0.0 0.01 0.01 0.0 0.0 0.0 0.01 0.0 0.0 0.0 0.01 0.01 0.0 0.0 0.0 0.01 0.0 0.0 0.0 0.01 0.01 0.0 0.0 0.0 0.01 0.0 0.0 0.0 0.01 0.01 0.0 0.0 0.0 0.01 0.0 0.0 0.0 0.01 0.01 0.0 0.0 0.0 0.01 0.0 0.0 0.0 0.01 0.01 0.0 0.0 0.0 0.01 0.0 0.0 0.0 0.01 0.01 0.0 0.0 0.0 0.01 0.0 0.0 0.0 0.01 0.01 0.0 0.0 0.0 0.01 0.0 0.0 0.0 0.01 0.01 0.0 0.0 0.0 0.01 0.0 0.0 0.0 0.01 0.01 0.0 0.0 0.0 0.01 0.0 0.0 0.0 0.01 0.01 0.0 0.0 0.0 0.01 0.0 0.0 0.0 0.01 0.01 0.0 0.0 0.0 0.01 0.0 0.0 0.0 0.01 0.01 0.0 0.0 0.0 0.01 0.0 0.0 0.0 0.01 0.01 0.0 0.0 0.0 0.01 0.0 0.0 0.0 0.01 0.01 0.0 0.0 0.0 0.01 0.0 0.0 0.0 0.01 0.01 0.0 0.0 0.0 0.01 0.0 0.0 0.0 0.01 0.01 0.0 0.0 0.0 0.01 0.0 0.0 0.0 0.01 0.01 0.0 0.0 0.0 0.01 0.0 0.0 0.0 0.01 0.01 0.0 0.0 0.0 0.01 0.0 0.0 0.0 0.01 0.01 0.0 0.0 0.0 0.01 0.0 0.0 0.0 0.01 0.01 0.0 0.0 0.0 0.01 0.0 0.0 0.0 0.01 0.01 0.0 0.0 0.0 0.01 0.0 0.0 0.0 0.01 0.01 0.0 0.0 0.0 0.01 0.0 0.0 0.0 0.01 0.01 0.0 0.0 0.0 0.01 0.0 0.0 0.0 0.01 0.01 0.0 0.0 0.0 0.01 0.0 0.0 0.0 0.01 0.01 0.0 0.0 0.0 0.01 0.0 0.0 0.0 0.01 0.01 0.0 0.0 0.0 0.01 0.0 0.0 0.0 0.01 0.01 0.0 0.0 0.0 0.01 0.0 0.0 0.0 0.01 0.01 0.0 0.0 0.0 0.01 0.0 0.0 0.0 0.01 0.01 0.0 0.0 0.0 0.01 0.0 0.0 0.0 0.01 0.01 0.0 0.0 0.0 0.01 0.0 0.0 0.0 0.01 0.01 0.0 0.0 0.0 0.01 0.0 0.0 0.0 0.01 0.01 0.0 0.0 0.0 0.01 0.0 0.0 0.0 0.01 0.01 0.0 0.0 0.0 0.01 0.0 0.0 0.0 0.01 0.01 0.0 0.0 0.0 0.01 0.0 0.0 0.0 0.01 0.01 0.0 0.0 0.0 0.01 0.0 0.0 0.0 0.01 0.01 0.0 0.0 0.0 0.01 0.0 0.0 0.0 0.01 0.01 0.0 0.0 0.0 0.01 0.0 0.0 0.0 0.01 0.01 0.0 0.0 0.0 0.01 0.0 0.0 0.0 0.01 0.01 0.0 0.0 0.0 0.01 0.0 0.0 0.0 0.01 0.01 0.0 0.0 0.0 0.01 0.0 0.0 0.0 0.01 0.01 0.0 0.0 0.0 0.01 0.0 0.0 0.0 0.01 0.01 0.0 0.0 0.0 0.01 0.0 0.0 0.0 0.01 0.01 0.0 0.0 0.0 0.01 0.0 0.0 0.0 0.01 0.01 0.0 0.0 0.0 0.01 0.0 0.0 0.0 0.01 0.01 0.0 0.0 0.0 0.01 0.0 0.0 0.0 0.01 0.01 0.0 0.0 0.0 0.01 0.0 0.0 0.0 0.01 0.01 0.0 0.0 0.0 0.01 0.0 0.0 0.0 0.01 0.01 0.0 0.0 0.0 0.01 0.0 0.0 0.0 0.01 0.01 0.0 0.0 0.0 0.01 0.0 0.0 0.0 0.01 0.01 0.0 0.0 0.0 0.01 0.0 0.0 0.0 0.01 0.01 0.0 0.0 0.0 0.01 0.0 0.0 0.0 0.01 0.01 0.0 0.0 0.0 0.01 0.0 0.0 0.0 0.01 0.01 0.0 0.0 0.0 0.01 0.0 0.0 0.0 0.01 0.01 0.0 0.0 0.0 0.01 0.0 0.0 0.0 0.01 0.01 0.0 0.0 0.0 0.01 0.0 0.0 0.0 0.01 0.01 0.0 0.0 0.0 0.01 0.0 0.0 0.0 0.01 0.01 0.0 0.0 0.0 0.01 0.0 0.0 0.0 0.01 0.01 0.0 0.0 0.0 0.01 0.0 0.0 0.0 0.01 0.01 0.0 0.0 0.0 0.01 0.0 0.0 0.0 0.01 0.01 0.0 0.0 0.0 0.01 0.0 0.0 0.0 0.01 0.01 0.0 0.0 0.0 0.01 0.0 0.0 0.0 0.01 0.01 0.0 0.0 0.0 0.01 0.0 0.0 0.0 0.01 0.01 0.0 0.0 0.0 0.01 0.0 0.0 0.0 0.01 0.01 0.0 0.0 0.0 0.01 0.0 0.0 0.0 0.01 0.01 0.0 0.0 0.0 0.01 0.0 0.0 0.0 0.01 0.01 0.0 0.0 0.0 0.01 0.0 0.0 0.0 0.01 0.01 0.0 0.0 0.0 0.01 0.0 0.0 0.0 0.01 0.01 0.0 0.0 0.0 0.01 0.0 0.0 0.0 0.01 0.01 0.0 0.0 0.0 0.01 0.0 0.0 0.0 0.01 0.01 0.0 0.0 0.0 0.01 0.0 0.0 0.0 0.01 0.01 0.0 0.0 0.0 0.01 0.0 0.0 0.0 0.01 0.01 0.0 0.0 0.0 0.01 0.0 0.0 0.0 0.01 0.01 0.0 0.0 0.0 0.01 0.0 0.0 0.0 0.01 0.01 0.0 0.0 0.0 0.01 0.0 0.0 0.0 0.01 0.01 0.0 0.0 0.0 0.01 0.0 0.0 0.0 0.01 0.01 0.0 0.0 0.0 0.01 0.0 0.0 0.0 0.01 0.01 0.0 0.0 0.0 0.01 0.0 0.0 0.0 0.01 0.01 0.0 0.0 0.0 0.01 0.0 0.0 0.0 0.01 0.01 0.0 0.0 0.0 0.01 0.0 0.0 0.0 0.01 0.01 0.0 0.0 0.0 0.01 0.0 0.0 0.0 0.01 0.01 0.0 0.0 0.0 0.01 0.0 0.0 0.0 0.01 0.01 0.0 0.0 0.0 0.01 0.0 0.0 0.0 0.01 0.01 0.0 0.0 0.0 0.01 0.0 0.0 0.0 0.01 0.01 0.0 0.0 0.0 0.01 0.0 0.0 0.0 0.01 0.01 0.0 0.0 0.0 0.01 0.0 0.0 0.0 0.01 0.01 0.0 0.0 0.0 0.01 0.0 0.0 0.0 0.01 0.01 0.0 0.0 0.0 0.01 0.0 0.0 0.0 0.01 0.01 0.0 0.0 0.0 0.01 0.0 0.0 0.0 0.01 0.01 0.0 0.0 0.0 0.01 0.0 0.0 0.0 0.01 0.01 0.0 0.0 0.0 0.01 0.0 0.0 0.0 0.01 0.01 0.0 0.0 0.0 0.01 0.0 0.0 0.0 0.01 0.01 0.0 0.0 0.0 0.01 0.0 0.0 0.0 0.01 0.01 0.0 0.0 0.0 0.01 0.0 0.0 0.0 0.01 0.01 0.0 0.0 0.0 0.01 0.0 0.0 0.0 0.01 0.01 0.0 0.0 0.0 0.01 0.0 0.0 0.0 0.01 0.01 0.0 0.0 0.0 0.01 0.0 0.0 0.0 0.01 0.01 0.0 0.0 0.0 0.01 0.0 0.0 0.0 0.01 0.01 0.0 0.0 0.0 0.01 0.0 0.0 0.0 0.01 0.01 0.0 0.0 0.0 0.01 0.0 0.0 0.0 0.01 0.01 0.0 0.0 0.0 0.01 0.0 0.0 0.0 0.01 0.01 0.0 0.0 0.0 0.01 0.0 0.0 0.0 0.01 0.01 0.0 0.0 0.0 0.01 0.0 0.0 0.0 0.01 0.01 0.0 0.0 0.0 0.01 0.0 0.0 0.0 0.01 0.01 0.0 0.0 0.0 0.01 0.0 0.0 0.0 0.01 0.01 0.0 0.0 0.0 0.01 0.0 0.0 0.0 0.01 0.01 0.0 0.0 0.0 0.01 0.0 0.0 0.0 0.01 0.01 0.0 0.0 0.0 0.01 0.0 0.0 0.0 0.01 0.01 0.0 0.0 0.0 0.01 0.0 0.0 0.0 0.01 0.01 0.0 0.0 0.0 0.01 0.0 0.0 0.0 0.01 0.01 0.0 0.0 0.0 0.01 0.0 0.0 0.0 0.01 0.01 0.0 0.0 0.0 0.01 0.0 0.0 0.0 0.01 0.01 0.0 0.0 0.0 0.01 0.0 0.0 0.0 0.01 0.01 0.0 0.0 0.0 0.01 0.0 0.0 0.0 0.01 0.01 0.0 0.0 0.0 0.01 0.0 0.0 0.0 0.01 0.01 0.0 0.0 0.0 0.01 0.0 0.0 0.0 0.01 0.01 0.0 0.0 0.0 0.01 0.0 0.0 0.0 0.01 0.01 0.0 0.0 0.0 0.01 0.0 0.0 0.0 0.01 0.01 0.0 0.0 0.0 0.01 0.0 0.0 0.0 0.01 0.01 0.0 0.0 0.0 0.01 0.0 0.0 0.0 0.01 0.01 0.0 0.0 0.0 0.01 0.0 0.0 0.0 0.01 0.01 0.0 0.0 0.0 0.01 0.0 0.0 0.0 0.01 0.01 0.0 0.0 0.0 0.01 0.0 0.0 0.0 0.01 0.01 0.0 0.0 0.0 0.01 0.0 0.0 0.0 0.01 0.01 0.0 0.0 0.0 0.01 0.0 0.0 0.0 0.01 0.01 0.0 0.0 0.0 0.01 0.0 0.0 0.0 0.01 0.01 0.0 0.0 0.0 0.01 0.0 0.0 0.0 0.01 0.01 0.0 0.0 0.0 0.01 0.0 0.0 0.0 0.01 0.01 0.0 0.0 0.0 0.01 0.0 0.0 0.0 0.01 0.01 0.0 0.0 0.0 0.01 0.0 0.0 0.0 0.01 0.01 0.0 0.0 0.0 0.01 0.0 0.0 0.0 0.01 0.01 0.0 0.0 0.0 0.01 0.0 0.0 0.0 0.01 0.01 0.0 0.0 0.0 0.01 0.0 0.0 0.0 0.01 0.01 0.0 0.0 0.0 0.01 0.0 0.0 0.0 0.01 0.01 0.0 0.0 0.0 0.01 0.0 0.0 0.0 0.01 0.01 0.0 0.0 0.0 0.01 0.0 0.0 0.0 0.01 0.01 0.0 0.0 0.0 0.01 0.0 0.0 0.0 0.01 0.01 0.0 0.0 0.0 0.01 0.0 0.0 0.0 0.01 0.01 0.0 0.0 0.0 0.01 0.0 0.0 0.0 0.01 0.01 0.0 0.0 0.0 0.01 0.0 0.0 0.0 0.01 0.01 0.0 0.0 0.0 0.01 0.0 0.0 0.0 0.01 0.01 0.0 0.0 0.0 0.01 0.0 0.0 0.0 0.01 0.01 0.0 0.0 0.0 0.01 0.0 0.0 0.0 0.01 0.01 0.0 0.0 0.0 0.01 0.0 0.0 0.0 0.01 0.01 0.0 0.0 0.0 0.01 0.0 0.0 0.0 0.01 0.01 0.0 0.0 0.0 0.01 0.0 0.0 0.0 0.01 0.01 0.0 0.0 0.0 0.01 0.0 0.0 0.0 0.01 0.01 0.0 0.0 0.0 0.01 0.0 0.0 0.0 0.01 0.01 0.0 0.0 0.0 0.01 0.0 0.0 0.0 0.01 0.01 0.0 0.0 0.0 0.01 0.0 0.0 0.0 0.01 0.01 0.0 0.0 0.0 0.01 0.0 0.0 0.0 0.01 0.01 0.0 0.0 0.0 0.01 0.0 0.0 0.0 0.01 0.01 0.0 0.0 0.0 0.01 0.0 0.0 0.0 0.01 0.01 0.0 0.0 0.0 0.01 0.0 0.0 0.0 0.01 0.01 0.0 0.0 0.0 0.01 0.0 0.0 0.0 0.01 0.01 0.0 0.0 0.0 0.01 0.0 0.0 0.0 0.01 0.01 0.0 0.0 0.0 0.01 0.0 0.0 0.0 0.01 0.01 0.0 0.0 0.0 0.01 0.0 0.0 0.0 0.01 0.01 0.0 0.0 0.0 0.01 0.0 0.0 0.0 0.01 0.01 0.0 0.0 0.0 0.01 0.0 0.0 0.0 0.01 0.01 0.0 0.0 0.0 0.01 0.0 0.0 0.0 0.01 0.01 0.0 0.0 0.0 0.01 0.0 0.0 0.0 0.01 0.01 0.0 0.0 0.0 0.01 0.0 0.0 0.0 0.01 0.01 0.0 0.0 0.0 0.01 0.0 0.0 0.0 0.01 0.01 0.0 0.0 0.0 0.01 0.0 0.0 0.0 0.01 0.01 0.0 0.0 0.0 0.01 0.0 0.0 0.0 0.01 0.01 0.0 0.0 0.0 0.01 0.0 0.0 0.0 0.01 0.01 0.0 0.0 0.0 0.01 0.0 0.0 0.0 0.01 0.01 0.0 0.0 0.0 0.01 0.0 0.0 0.0 0.01 0.01 0.0 0.0 0.0 0.01 0.0 0.0 0.0 0.01 0.01 0.0 0.0 0.0 0.01 0.0 0.0 0.0 0.01 0.01 0.0 0.0 0.0 0.01 0.0 0.0 0.0 0.01 0.01 0.0 0.0 0.0 0.01 0.0 0.0 0.0 0.01 0.01 0.0 0.0 0.0 0.01 0.0 0.0 0.0 0.01 0.01 0.0 0.0 0.0 0.01 0.0 0.0 0.0 0.01 0.01 0.0 0.0 0.0 0.01 0.0 0.0 0.0 0.01 0.01 0.0 0.0 0.0 0.01 0.0 0.0 0.0 0.01 0.01 0.0 0.0 0.0 0.01 0.0 0.0 0.0 0.01 0.01 0.0 0.0 0.0 0.01 0.0 0.0 0.0 0.01 0.01 0.0 0.0 0.0 0.01 0.0 0.0 0.0 0.01 0.01 0.0 0.0 0.0 0.01 0.0 0.0 0.0 0.01 0.01 0.0 0.0 0.0 0.01 0.0 0.0 0.0 0.01 0.01 0.0 0.0 0.0 0.01 0.0 0.0 0.0 0.01 0.01 0.0 0.0 0.0 0.01 0.0 0.0 0.0 0.01 0.01 0.0 0.0 0.0 0.01 0.0 0.0 0.0 0.01 0.01 0.0 0.0 0.0 0.01 0.0 0.0 0.0 0.01 0.01 0.0 0.0 0.0 0.01 0.0 0.0 0.0 0.01 0.01 0.0 0.0 0.0 0.01 0.0 0.0 0.0 0.01 0.01 0.0 0.0 0.0 0.01 0.0 0.0 0.0 0.01 0.01 0.0 0.0 0.0 0.01 0.0 0.0 0.0 0.01 0.01 0.0 0.0 0.0 0.01 0.0 0.0 0.0 0.01 0.01 0.0 0.0 0.0 0.01 0.0 0.0 0.0 0.01 0.01 0.0 0.0 0.0 0.01 0.0 0.0 0.0 0.01 0.01 0.0 0.0 0.0 0.01 0.0 0.0 0.0 0.01 0.01 0.0 0.0 0.0 0.01 0.0 0.0 0.0 0.01 0.01 0.0 0.0 0.0 0.01 0.0 0.0 0.0 0.01 0.01 0.0 0.0 0.0 0.01 0.0 0.0 0.0 0.01 0.01 0.0 0.0 0.0 0.01 0.0 0.0 0.0 0.01 0.01 0.0 0.0 0.0 0.01 0.0 0.0 0.0 0.01 0.01 0.0 0.0 0.0 0.01 0.0 0.0 0.0 0.01 0.01 0.0 0.0 0.0 0.01 0.0 0.0 0.0 0.01 0.01 0.0 0.0 0.0 0.01 0.0 0.0 0.0 0.01 0.01 0.0 0.0 0.0 0.01 0.0 0.0 0.0 0.01 0.01 0.0 0.0 0.0 0.01 0.0 0.0 0.0 0.01 0.01 0.0 0.0 0.0 0.01 0.0 0.0 0.0 0.01 0.01 0.0 0.0 0.0 0.01 0.0 0.0 0.0 0.01 0.01 0.0 0.0 0.0 0.01 0.0 0.0 0.0 0.01 0.01 0.0 0.0 0.0 0.01 0.0 0.0 0.0 0.01 0.01 0.0 0.0 0.0 0.01 0.0 0.0 0.0 0.01 0.01 0.0 0.0 0.0 0.01 0.0 0.0 0.0 0.01 0.01 0.0 0.0 0.0 0.01 0.0 0.0 0.0 0.01 0.01 0.0 0.0 0.0 0.01 0.0 0.0 0.0 0.01 0.01 0.0 0.0 0.0 0.01 0.0 0.0 0.0 0.01 0.01 0.0 0.0 0.0 0.01 0.0 0.0 0.0 0.01 0.01 0.0 0.0 0.0 0.01 0.0 0.0 0.0 0.01 0.01 0.0 0.0 0.0 0.01 0.0 0.0 0.0 0.01 0.01 0.0 0.0 0.0 0.01 0.0 0.0 0.0 0.01 0.01 0.0 0.0 0.0 0.01 0.0 0.0 0.0 0.01 0.01 0.0 0.0 0.0 0.01 0.0 0.0 0.0 0.01 0.01 0.0 0.0 0.0 0.01 0.0 0.0 0.0 0.01 0.01 0.0 0.0 0.0 0.01 0.0 0.0 0.0 0.01 0.01 0.0 0.0 0.0 0.01 0.0 0.0 0.0 0.01 0.01 0.0 0.0 0.0 0.01 0.0 0.0 0.0 0.01 0.01 0.0 0.0 0.0 0.01 0.0 0.0 0.0 0.01 0.01 0.0 0.0 0.0 0.01 0.0 0.0 0.0 0.01 0.01 0.0 0.0 0.0 0.01 0.0 0.0 0.0 0.01 0.01 0.0 0.0 0.0 0.01 0.0 0.0 0.0 0.01 0.01 0.0 0.0 0.0 0.01 0.0 0.0 0.0 0.01 0.01 0.0 0.0 0.0 0.01 0.0 0.0 0.0 0.01 0.01 0.0 0.0 0.0 0.01 0.0 0.0 0.0 0.01 0.01 0.0 0.0 0.0 0.01 0.0 0.0 0.0 0.01 0.01 0.0 0.0 0.0 0.01 0.0 0.0 0.0 0.01 0.01 0.0 0.0 0.0 0.01 0.0 0.0 0.0 0.01 0.01 0.0 0.0 0.0 0.01 0.0 0.0 0.0 0.01 0.01 0.0 0.0 0.0 0.01 0.0 0.0 0.0 0.01 0.01 0.0 0.0 0.0 0.01 0.0 0.0 0.0 0.01 0.01 0.0 0.0 0.0 0.01 0.0 0.0 0.0 0.01 0.01 0.0 0.0 0.0 0.01 0.0 0.0 0.0 0.01 0.01 0.0 0.0 0.0 0.01 0.0 0.0 0.0 0.01 0.01 0.0 0.0 0.0 0.01 0.0 0.0 0.0 0.01 0.01 0.0 0.0 0.0 0.01 0.0 0.0 0.0 0.01 0.01 0.0 0.0 0.0 0.01 0.0 0.0 0.0 0.01 0.01 0.0 0.0 0.0 0.01 0.0 0.0 0.0 0.01 0.01 0.0 0.0 0.0 0.01 0.0 0.0 0.0 0.01 0.01 0.0 0.0 0.0 0.01 0.0 0.0 0.0 0.01 0.01 0.0 0.0 0.0 0.01 0.0 0.0 0.0 0.01 0.01 0.0 0.0 0.0 0.01 0.0 0.0 0.0 0.01 0.01 0.0 0.0 0.0 0.01 0.0 0.0 0.0 0.01 0.01 0.0 0.0 0.0 0.01 0.0 0.0 0.0 0.01 0.01 0.0 0.0 0.0 0.01 0.0 0.0 0.0 0.01 0.01 0.0 0.0 0.0 0.01 0.0 0.0 0.0 0.01 0.01 0.0 0.0 0.0 0.01 0.0 0.0 0.0 0.01 0.01 0.0 0.0 0.0 0.01 0.0 0.0 0.0 0.01 0.01 0.0 0.0 0.0 0.01 0.0 0.0 0.0 0.01 0.01 0.0 0.0 0.0 0.01 0.0 0.0 0.0 0.01 0.01 0.0 0.0 0.0 0.01 0.0 0.0 0.0 0.01 0.01 0.0 0.0 0.0 0.01 0.0 0.0 0.0 0.01 0.01 0.0 0.0 0.0 0.01 0.0 0.0 0.0 0.01 0.01 0.0 0.0 0.0 0.01 0.0 0.0 0.0 0.01 0.01 0.0 0.0 0.0 0.01 0.0 0.0 0.0 0.01 0.01 0.0 0.0 0.0 0.01 0.0 0.0 0.0 0.01 0.01 0.0 0.0 0.0 0.01 0.0 0.0 0.0 0.01 0.01 0.0 0.0 0.0 0.01 0.0 0.0 0.0 0.01 0.01 0.0 0.0 0.0 0.01 0.0 0.0 0.0 0.01 0.01 0.0 0.0 0.0 0.01 0.0 0.0 0.0 0.01 0.01 0.0 0.0 0.0 0.01 0.0 0.0 0.0 0.01 0.01 0.0 0.0 0.0 0.01 0.0 0.0 0.0 0.01 0.01 0.0 0.0 0.0 0.01 0.0 0.0 0.0 0.01 0.01 0.0 0.0 0.0 0.01 0.0 0.0 0.0 0.01 0.01 0.0 0.0 0.0 0.01 0.0 0.0 0.0 0.01 0.01 0.0 0.0 0.0 0.01 0.0 0.0 0.0 0.01 0.01 0.0 0.0 0.0 0.01 0.0 0.0 0.0 0.01 0.01 0.0 0.0 0.0 0.01 0.0 0.0 0.0 0.01 0.01 0.0 0.0 0.0 0.01 0.0 0.0 0.0 0.01 0.01 0.0 0.0 0.0 0.01 0.0 0.0 0.0 0.01 0.01 0.0 0.0 0.0 0.01 0.0 0.0 0.0 0.01 0.01 0.0 0.0 0.0 0.01 0.0 0.0 0.0 0.01 0.01 0.0 0.0 0.0 0.01 0.0 0.0 0.0 0.01 0.01 0.0 0.0 0.0 0.01 0.0 0.0 0.0 0.01 0.01 0.0 0.0 0.0 0.01 0.0 0.0 0.0 0.01 0.01 0.0 0.0 0.0 0.01 0.0 0.0 0.0 0.01 0.01 0.0 0.0 0.0 0.01 0.0 0.0 0.0 0.01 0.01 0.0 0.0 0.0 0.01 0.0 0.0 0.0 0.01 0.01 0.0 0.0 0.0 0.01 0.0 0.0 0.0 0.01 0.01 0.0 0.0 0.0 0.01 0.0 0.0 0.0 0.01 0.01 0.0 0.0 0.0 0.01 0.0 0.0 0.0 0.01 0.01 0.0 0.0 0.0 0.01 0.0 0.0 0.0 0.01 0.01 0.0 0.0 0.0 0.01 0.0 0.0 0.0 0.01 0.01 0.0 0.0 0.0 0.01 0.0 0.0 0.0 0.01 0.01 0.0 0.0 0.0 0.01 0.0 0.0 0.0 0.01 0.01 0.0 0.0 0.0 0.01 0.0 0.0 0.0 0.01 0.01 0.0 0.0 0.0 0.01 0.0 0.0 0.0 0.01 0.01 0.0 0.0 0.0 0.01 0.0 0.0 0.0 0.01 0.01 0.0 0.0 0.0 0.01 0.0 0.0 0.0 0.01 0.01 0.0 0.0 0.0 0.01 0.0 0.0 0.0 0.01 0.01 0.0 0.0 0.0 0.01 0.0 0.0 0.0 0.01 0.01 0.0 0.0 0.0 0.01 0.0 0.0 0.0 0.01 0.01 0.0 0.0 0.0 0.01 0.0 0.0 0.0 0.01 0.01 0.0 0.0 0.0 0.01 0.0 0.0 0.0 0.01 0.01 0.0 0.0 0.0 0.01 0.0 0.0 0.0 0.01 0.01 0.0 0.0 0.0 0.01 0.0 0.0 0.0 0.01 0.01 0.0 0.0 0.0 0.01 0.0 0.0 0.0 0.01 0.01 0.0 0.0 0.0 0.01 0.0 0.0 0.0 0.01 0.01 0.0 0.0 0.0 0.01 0.0 0.0 0.0 0.01 0.01 0.0 0.0 0.0 0.01 0.0 0.0 0.0 0.01 0.01 0.0 0.0 0.0 0.01 0.0 0.0 0.0 0.01 0.01 0.0 0.0 0.0 0.01 0.0 0.0 0.0 0.01 0.01 0.0 0.0 0.0 0.01 0.0 0.0 0.0 0.01 0.01 0.0 0.0 0.0 0.01 0.0 0.0 0.0 0.01 0.01 0.0 0.0 0.0 0.01 0.0 0.0 0.0 0.01 0.01 0.0 0.0 0.0 0.01 0.0 0.0 0.0 0.01 0.01 0.0 0.0 0.0 0.01 0.0 0.0 0.0 0.01 0.01 0.0 0.0 0.0 0.01 0.0 0.0 0.0 0.01 0.01 0.0 0.0 0.0 0.01 0.0 0.0 0.0 0.01 0.01 0.0 0.0 0.0 0.01 0.0 0.0 0.0 0.01 0.01 0.0 0.0 0.0 0.01 0.0 0.0 0.0 0.01 0.01 0.0 0.0 0.0 0.01 0.0 0.0 0.0 0.01 0.01 0.0 0.0 0.0 0.01 0.0 0.0 0.0 0.01 0.01 0.0 0.0 0.0 0.01 0.0 0.0 0.0 0.01 0.01 0.0 0.0 0.0 0.01 0.0 0.0 0.0 0.01 0.01 0.0 0.0 0.0 0.01 0.0 0.0 0.0 0.01 0.01 0.0 0.0 0.0 0.01 0.0 0.0 0.0 0.01 0.01 0.0 0.0 0.0 0.01 0.0 0.0 0.0 0.01 0.01 0.0 0.0 0.0 0.01 0.0 0.0 0.0 0.01 0.01 0.0 0.0 0.0 0.01 0.0 0.0 0.0 0.01 0.01 0.0 0.0 0.0 0.01 0.0 0.0 0.0 0.01 0.01 0.0 0.0 0.0 0.01 0.0 0.0 0.0 0.01 0.01 0.0 0.0 0.0 0.01 0.0 0.0 0.0 0.01 0.01 0.0 0.0 0.0 0.01 0.0 0.0 0.0 0.01 0.01 0.0 0.0 0.0 0.01 0.0 0.0 0.0 0.01 0.01 0.0 0.0 0.0 0.01 0.0 0.0 0.0 0.01 0.01 0.0 0.0 0.0 0.01 0.0 0.0 0.0 0.01 0.01 0.0 0.0 0.0 0.01 0.0 0.0 0.0 0.01 0.01 0.0 0.0 0.0 0.01 0.0 0.0 0.0 0.01 0.01 0.0 0.0 0.0 0.01 0.0 0.0 0.0 0.01 0.01 0.0 0.0 0.0 0.01 0.0 0.0 0.0 0.01 0.01 0.0 0.0 0.0 0.01 0.0 0.0 0.0 0.01 0.01 0.0 0.0 0.0 0.01 0.0 0.0 0.0 0.01 0.01 0.0 0.0 0.0 0.01 0.0 0.0 0.0 0.01 0.01 0.0 0.0 0.0 0.01 0.0 0.0 0.0 0.01 0.01 0.0 0.0 0.0 0.01 0.0 0.0 0.0 0.01 0.01 0.0 0.0 0.0 0.01 0.0 0.0 0.0 0.01 0.01 0.0 0.0 0.0 0.01 0.0 0.0 0.0 0.01 0.01 0.0 0.0 0.0 0.01 0.0 0.0 0.0 0.01 0.01 0.0 0.0 0.0 0.01 0.0 0.0 0.0 0.01 0.01 0.0 0.0 0.0 0.01 0.0 0.0 0.0 0.01 0.01 0.0 0.0 0.0 0.01 0.0 0.0 0.0 0.01 0.01 0.0 0.0 0.0 0.01 0.0 0.0 0.0 0.01 0.01 0.0 0.0 0.0 0.01 0.0 0.0 0.0 0.01 0.01 0.0 0.0 0.0 0.01 0.0 0.0 0.0 0.01 0.01 0.0 0.0 0.0 0.01 0.0 0.0 0.0 0.01 0.01 0.0 0.0 0.0 0.01 0.0 0.0 0.0 0.01 0.01 0.0 0.0 0.0 0.01 0.0 0.0 0.0 0.01 0.01 0.0 0.0 0.0 0.01 0.0 0.0 0.0 0.01 0.01 0.0 0.0 0.0 0.01 0.0 0.0 0.0 0.01 0.01 0.0 0.0 0.0 0.01 0.0 0.0 0.0 0.01 0.01 0.0 0.0 0.0 0.01 0.0 0.0 0.0 0.01 0.01 0.0 0.0 0.0 0.01 0.0 0.0 0.0 0.01 0.01 0.0 0.0 0.0 0.01 0.0 0.0 0.0 0.01 0.01 0.0 0.0 0.0 0.01 0.0 0.0 0.0 0.01 0.01 0.0 0.0 0.0 0.01 0.0 0.0 0.0 0.01 0.01 0.0 0.0 0.0 0.01 0.0 0.0 0.0 0.01 0.01 0.0 0.0 0.0 0.01 0.0 0.0 0.0 0.01 0.01 0.0 0.0 0.0 0.01 0.0 0.0 0.0 0.01 0.01 0.0 0.0 0.0 0.01 0.0 0.0 0.0 0.01 0.01 0.0 0.0 0.0 0.01 0.0 0.0 0.0 0.01 0.01 0.0 0.0 0.0 0.01 0.0 0.0 0.0 0.01 0.01 0.0 0.0 0.0 0.01 0.0 0.0 0.0 0.01 0.01 0.0 0.0 0.0 0.01 0.0 0.0 0.0 0.01 0.01 0.0 0.0 0.0 0.01 0.0 0.0 0.0 0.01 0.01 0.0 0.0 0.0 0.01 0.0 0.0 0.0 0.01 0.01 0.0 0.0 0.0 0.01 0.0 0.0 0.0 0.01 0.01 0.0 0.0 0.0 0.01 0.0 0.0 0.0 0.01 0.01 0.0 0.0 0.0 0.01 0.0 0.0 0.0 0.01 0.01 0.0 0.0 0.0 0.01 0.0 0.0 0.0 0.01 0.01 0.0 0.0 0.0 0.01 0.0 0.0 0.0 0.01 0.01 0.0 0.0 0.0 0.01 0.0 0.0 0.0 0.01 0.01 0.0 0.0 0.0 0.01 0.0 0.0 0.0 0.01 0.01 0.0 0.0 0.0 0.01 0.0 0.0 0.0 0.01 0.01 0.0 0.0 0.0 0.01 0.0 0.0 0.0 0.01 0.01 0.0 0.0 0.0 0.01 0.0 0.0 0.0 0.01 0.01 0.0 0.0 0.0 0.01 0.0 0.0 0.0 0.01 0.01 0.0 0.0 0.0 0.01 0.0 0.0 0.0 0.01 0.01 0.0 0.0 0.0 0.01 0.0 0.0 0.0 0.01 0.01 0.0 0.0 0.0 0.01 0.0 0.0 0.0 0.01 0.01 0.0 0.0 0.0 0.01 0.0 0.0 0.0 0.01 0.01 0.0 0.0 0.0 0.01 0.0 0.0 0.0 0.01 0.01 0.0 0.0 0.0 0.01 0.0 0.0 0.0 0.01 0.01 0.0 0.0 0.0 0.01 0.0 0.0 0.0 0.01 0.01 0.0 0.0 0.0 0.01 0.0 0.0 0.0 0.01 0.01 0.0 0.0 0.0 0.01 0.0 0.0 0.0 0.01 0.01 0.0 0.0 0.0 0.01 0.0 0.0 0.0 0.01 0.01 0.0 0.0 0.0 0.01 0.0 0.0 0.0 0.01 0.01 0.0 0.0 0.0 0.01 0.0 0.0 0.0 0.01 0.01 0.0 0.0 0.0 0.01 0.0 0.0 0.0 0.01 0.01 0.0 0.0 0.0 0.01 0.0 0.0 0.0 0.01 0.01 0.0 0.0 0.0 0.01 0.0 0.0 0.0 0.01 0.01 0.0 0.0 0.0 0.01 0.0 0.0 0.0 0.01 0.01 0.0 0.0 0.0 0.01 0.0 0.0 0.0 0.01 0.01 0.0 0.0 0.0 0.01 0.0 0.0 0.0 0.01 0.01 0.0 0.0 0.0 0.01 0.0 0.0 0.0 0.01 0.01 0.0 0.0 0.0 0.01 0.0 0.0 0.0 0.01 0.01 0.0 0.0 0.0 0.01 0.0 0.0 0.0 0.01 0.01 0.0 0.0 0.0 0.01 0.0 0.0 0.0 0.01 0.01 0.0 0.0 0.0 0.01 0.0 0.0 0.0 0.01 0.01 0.0 0.0 0.0 0.01 0.0 0.0 0.0 0.01 0.01 0.0 0.0 0.0 0.01 0.0 0.0 0.0 0.01 0.01 0.0 0.0 0.0 0.01 0.0 0.0 0.0 0.01 0.01 0.0 0.0 0.0 0.01 0.0 0.0 0.0 0.01 0.01 0.0 0.0 0.0 0.01 0.0 0.0 0.0 0.01 0.01 0.0 0.0 0.0 0.01 0.0 0.0 0.0 0.01 0.01 0.0 0.0 0.0 0.01 0.0 0.0 0.0 0.01 0.01 0.0 0.0 0.0 0.01 0.0 0.0 0.0 0.01 0.01 0.0 0.0 0.0 0.01 0.0 0.0 0.0 0.01 0.01 0.0 0.0 0.0 0.01 0.0 0.0 0.0 0.01 0.01 0.0 0.0 0.0 0.01 0.0 0.0 0.0 0.01 0.01 0.0 0.0 0.0 0.01 0.0 0.0 0.0 0.01 0.01 0.0 0.0 0.0 0.01 0.0 0.0 0.0 0.01 0.01 0.0 0.0 0.0 0.01 0.0 0.0 0.0 0.01 0.01 0.0 0.0 0.0 0.01 0.0 0.0 0.0 0.01 0.01 0.0 0.0 0.0 0.01 0.0 0.0 0.0 0.01 0.01 0.0 0.0 0.0 0.01 0.0 0.0 0.0 0.01 0.01 0.0 0.0 0.0 0.01 0.0 0.0 0.0 0.01 0.01 0.0 0.0 0.0 0.01 0.0 0.0 0.0 0.01 0.01 0.0 0.0 0.0 0.01 0.0 0.0 0.0 0.01 0.01 0.0 0.0 0.0 0.01 0.0 0.0 0.0 0.01 0.01 0.0 0.0 0.0 0.01 0.0 0.0 0.0 0.01 0.01 0.0 0.0 0.0 0.01 0.0 0.0 0.0 0.01 0.01 0.0 0.0 0.0 0.01 0.0 0.0 0.0 0.01 0.01 0.0 0.0 0.0 0.01 0.0 0.0 0.0 0.01 0.01 0.0 0.0 0.0 0.01 0.0 0.0 0.0 0.01 0.01 0.0 0.0 0.0 0.01 0.0 0.0 0.0 0.01 0.01 0.0 0.0 0.0 0.01 0.0 0.0 0.0 0.01 0.01 0.0 0.0 0.0 0.01 0.0 0.0 0.0 0.01 0.01 0.0 0.0 0.0 0.01 0.0 0.0 0.0 0.01 0.01 0.0 0.0 0.0 0.01 0.0 0.0 0.0 0.01 0.01 0.0 0.0 0.0 0.01 0.0 0.0 0.0 0.01 0.01 0.0 0.0 0.0 0.01 0.0 0.0 0.0 0.01 0.01 0.0 0.0 0.0 0.01 0.0 0.0 0.0 0.01 0.01 0.0 0.0 0.0 0.01 0.0 0.0 0.0 0.01 0.01 0.0 0.0 0.0 0.01 0.0 0.0 0.0 0.01 0.01 0.0 0.0 0.0 0.01 0.0 0.0 0.0 0.01 0.01 0.0 0.0 0.0 0.01 0.0 0.0 0.0 0.01 0.01 0.0 0.0 0.0 0.01 0.0 0.0 0.0 0.01 0.009999999999999998 0.0 0.0 0.0 0.01 0.0 0.0 0.0 0.009999999999999998 0.009999999999999998 0.0 0.0 0.0 0.01 0.0 0.0 0.0 0.009999999999999998 0.009999999999999998 0.0 0.0 0.0 0.01 0.0 0.0 0.0 0.009999999999999998 0.009999999999999998 0.0 0.0 0.0 0.01 0.0 0.0 0.0 0.009999999999999998 0.01 0.0 0.0 0.0 0.01 0.0 0.0 0.0 0.01 0.009999999999999998 0.0 0.0 0.0 0.01 0.0 0.0 0.0 0.009999999999999998 0.009999999999999998 0.0 0.0 0.0 0.01 0.0 0.0 0.0 0.009999999999999998 0.009999999999999998 0.0 0.0 0.0 0.01 0.0 0.0 0.0 0.009999999999999998 0.009999999999999998 0.0 0.0 0.0 0.01 0.0 0.0 0.0 0.009999999999999998 0.01 0.0 0.0 0.0 0.01 0.0 0.0 0.0 0.01 0.01 0.0 0.0 0.0 0.01 0.0 0.0 0.0 0.01 0.009999999999999998 0.0 0.0 0.0 0.01 0.0 0.0 0.0 0.009999999999999998 0.01 0.0 0.0 0.0 0.01 0.0 0.0 0.0 0.01 0.01 0.0 0.0 0.0 0.01 0.0 0.0 0.0 0.01 0.009999999999999998 0.0 0.0 0.0 0.01 0.0 0.0 0.0 0.009999999999999998 0.01 0.0 0.0 0.0 0.01 0.0 0.0 0.0 0.01 0.01 0.0 0.0 0.0 0.01 0.0 0.0 0.0 0.01 0.01 0.0 2.0816681711721685e-17 0.0 0.01 0.0 2.0816681711721685e-17 0.0 0.01 0.01 0.0 5.204170427930421e-18 0.0 0.01 0.0 5.204170427930421e-18 0.0 0.01 0.01 0.0 0.0 0.0 0.01 0.0 0.0 0.0 0.01 0.009999999999999998 0.0 0.0 0.0 0.01 0.0 0.0 0.0 0.009999999999999998 0.01 0.0 0.0 0.0 0.01 0.0 0.0 0.0 0.01 0.009999999999999998 0.0 0.0 0.0 0.01 0.0 0.0 0.0 0.009999999999999998 0.009999999999999998 0.0 3.196228004487267e-15 0.0 0.01 0.0 3.196228004487267e-15 0.0 0.009999999999999998 0.009999999999999998 0.0 1.889113865338743e-15 0.0 0.01 0.0 1.889113865338743e-15 0.0 0.009999999999999998 0.009999999999999998 0.0 7.034303695085953e-16 0.0 0.01 0.0 7.034303695085953e-16 0.0 0.009999999999999998 0.009999999999999998 0.0 8.239936510889834e-17 0.0 0.01 0.0 8.239936510889834e-17 0.0 0.009999999999999998 0.009999999999999998 0.0 0.0 0.0 0.01 0.0 0.0 0.0 0.009999999999999998 0.009999999999999998 0.0 0.0 0.0 0.01 0.0 0.0 0.0 0.009999999999999998 0.009999999999999998 0.0 4.1272540940440194e-14 0.0 0.01 0.0 4.1272540940440194e-14 0.0 0.009999999999999998 0.009999999999999998 0.0 2.7712207528729493e-14 0.0 0.01 0.0 2.7712207528729493e-14 0.0 0.009999999999999998 0.009999999999999998 0.0 1.3824011380059176e-14 0.0 0.01 0.0 1.3824011380059176e-14 0.0 0.009999999999999998 0.009999999999999998 0.0 4.208439152719734e-15 0.0 0.01 0.0 4.208439152719734e-15 0.0 0.01 0.009999999999999998 0.0 5.299580219109146e-16 0.0 0.01 0.0 5.299580219109146e-16 0.0 0.009999999999999998 0.009999999999999998 0.0 0.0 0.0 0.01 0.0 0.0 0.0 0.009999999999999998 0.01 0.0 2.519703196091072e-13 0.0 0.01 0.0 2.519703196091072e-13 0.0 0.01 0.009999999999999998 0.0 1.8371502236158577e-13 0.0 0.01 0.0 1.8371502236158577e-13 0.0 0.009999999999999998 0.009999999999999998 0.0 1.0028783359317117e-13 0.0 0.01 0.0 1.0028783359317117e-13 0.0 0.009999999999999998 0.009999999999999998 0.0 3.869300713166268e-14 0.0 0.01 0.0 3.869300713166268e-14 0.0 0.009999999999999998 0.009999999999999998 0.0 8.833211939673902e-15 0.0 0.01 0.0 8.833211939673902e-15 0.0 0.01 0.01 0.0 7.337880303381894e-16 0.0 0.01 0.0 7.337880303381894e-16 0.0 0.01 0.009999999999999998 0.0 1.0629015029239852e-12 0.0 0.01 0.0 1.0629015029239852e-12 0.0 0.009999999999999998 0.009999999999999998 0.0 7.997595641295874e-13 0.0 0.01 0.0 7.997595641295874e-13 0.0 0.009999999999999998 0.01 0.0 4.539198877884232e-13 0.0 0.01 0.0 4.539198877884232e-13 0.0 0.01 0.009999999999999998 0.0 1.9105203530322967e-13 0.0 0.01 0.0 1.9105203530322967e-13 0.0 0.009999999999999998 0.009999999999999998 0.0 5.422051696513108e-14 0.0 0.01 0.0 5.422051696513108e-14 0.0 0.009999999999999998 0.009999999999999998 0.0 8.146261443187086e-15 0.0 0.01 0.0 8.146261443187086e-15 0.0 0.01 0.009999999999999998 0.0 3.516423263683066e-12 0.0 0.01 0.0 3.516423263683066e-12 0.0 0.009999999999999998 0.01 0.0 2.6423568194600122e-12 0.0 0.01 0.0 2.6423568194600122e-12 0.0 0.01 0.01 0.0 1.50742959781347e-12 0.0 0.01 0.0 1.50742959781347e-12 0.0 0.009999999999999998 0.009999999999999998 0.0 6.529403753785523e-13 0.0 0.01 0.0 6.529403753785523e-13 0.0 0.009999999999999998 0.009999999999999998 0.0 2.0341714423999235e-13 0.0 0.01 0.0 2.0341714423999235e-13 0.0 0.009999999999999998 0.009999999999999998 0.0 3.891765382180168e-14 0.0 0.01 0.0 3.891765382180168e-14 0.0 0.009999999999999998 0.01 0.0 9.454109370365948e-12 0.0 0.01 0.0 9.454109370365948e-12 0.0 0.01 0.009999999999999998 0.0 6.982435463154246e-12 0.0 0.01 0.0 6.982435463154246e-12 0.0 0.009999999999999998 0.009999999999999998 0.0 3.921385785532472e-12 0.0 0.01 0.0 3.921385785532472e-12 0.0 0.009999999999999998 0.01 0.0 1.695917711819206e-12 0.0 0.01 0.0 1.695917711819206e-12 0.0 0.01 0.01 0.0 5.461013585783547e-13 0.0 0.01 0.0 5.461013585783547e-13 0.0 0.01 0.009999999999999998 0.0 1.1610851169407965e-13 0.0 0.01 0.0 1.1610851169407965e-13 0.0 0.009999999999999998 0.009999999999999998 0.0 2.0540238780675235e-11 0.0 0.01 0.0 2.0540238780675235e-11 0.0 0.009999999999999998 0.009999999999999998 0.0 1.4908117275391763e-11 0.0 0.01 0.0 1.4908117275391763e-11 0.0 0.009999999999999998 0.009999999500000037 0.0 8.17684884645703e-12 0.0 0.01 0.0 8.17684884645703e-12 0.0 0.009999999999999997 0.009999999500000035 0.0 3.4726239895796485e-12 0.0 0.01 0.0 3.4726239895796485e-12 0.0 0.009999999999999998 0.009999999500000035 0.0 1.1174972148271685e-12 0.0 0.01 0.0 1.1174972182153003e-12 0.0 0.009999999999999997 0.009999999500000037 0.0 2.4593820581545476e-13 0.0 0.01 0.0 2.4593820581545476e-13 0.0 0.009999999999999998 0.009999999500000035 0.0 3.56597128128161e-11 0.0 0.01 0.0 3.5659712704395885e-11 0.0 0.009999999999999997 0.009999999500000035 0.0 2.5660505079301565e-11 0.0 0.01 0.0 2.5660505187721783e-11 0.0 0.01 0.009999999500000035 0.0 1.3745133991497488e-11 0.0 0.01 0.0 1.3745133991497488e-11 0.0 0.01 0.00999999950000004 0.0 5.675180066015174e-12 0.0 0.01 0.0 5.675180066015174e-12 0.0 0.010000000000000002 0.009999999500000039 0.0 1.7828800705200175e-12 0.0 0.01 0.0 1.7828800705200175e-12 0.0 0.010000000000000004 0.009999999500000035 0.0 3.8647351716992497e-13 0.0 0.01 0.0 3.8647351716992497e-13 0.0 0.009999999999999998 0.009999999500000037 0.0 4.992747925161578e-11 0.0 0.01 0.0 4.992747925161578e-11 0.0 0.01 0.009999999500000035 0.0 3.57064901734469e-11 0.0 0.01 0.0 3.57064901734469e-11 0.0 0.009999999999999997 0.009999999500000035 0.0 1.8633064112916903e-11 0.0 0.01 0.0 1.8633064058706794e-11 0.0 0.009999999999999998 0.009999999500000037 0.0 7.396914976148458e-12 0.0 0.01 0.0 7.396914976148458e-12 0.0 0.01 0.009999999000000148 0.0 2.2165646630710554e-12 0.0 0.01 0.0 2.2165646630710554e-12 0.0 0.009999999999999997 0.009999999000000152 0.0 4.5054851708736625e-13 0.0 0.01 0.0 4.5054851708736625e-13 0.0 0.010000000000000002 0.00999999900000015 0.0 5.734962136259847e-11 0.0 0.01 0.0 5.734962136259847e-11 0.0 0.01 0.009999998500000341 0.0 4.023981993971082e-11 0.0 0.01 0.0 4.023981988550071e-11 0.0 0.010000000000000004 0.00999999850000034 0.0 2.0217533485029915e-11 0.0 0.01 0.0 2.021753345792486e-11 0.0 0.010000000000000002 0.009999998500000336 0.0 7.574116301593131e-12 0.0 0.01 0.0 7.574116301593131e-12 0.0 0.009999999999999998 0.00999999850000034 0.0 2.0971919760835256e-12 0.0 0.01 0.0 2.0971919760835256e-12 0.0 0.010000000000000002 0.00999999850000034 0.0 3.729664409547729e-13 0.0 0.01 0.0 3.729664409547729e-13 0.0 0.010000000000000004 0.009999998000000598 0.0 5.351114397509488e-11 0.0 0.01 0.0 5.3511144029304986e-11 0.0 0.01 0.009999998000000603 0.0 3.605264665366287e-11 0.0 0.01 0.0 3.605264668076792e-11 0.0 0.010000000000000002 0.009999998000000601 0.0 1.705399191277105e-11 0.0 0.01 0.0 1.7053991885665996e-11 0.0 0.010000000000000004 0.0099999980000006 0.0 5.848442749241487e-12 0.0 0.01 0.0 5.848442752629619e-12 0.0 0.01 0.009999998000000601 0.0 1.416243475439857e-12 0.0 0.01 0.0 1.416243474592824e-12 0.0 0.010000000000000002 0.009999997500000938 0.0 1.9296501760410998e-13 0.0 0.01 0.0 1.9296501749823086e-13 0.0 0.01 0.00999999750000094 0.0 3.8191832644552184e-11 0.0 0.01 0.0 3.819183267165724e-11 0.0 0.010000000000000002 0.009999997000001353 0.0 2.4121040139769324e-11 0.0 0.01 0.0 2.4121040139769324e-11 0.0 0.01 0.00999999650000184 0.0 1.0366672554022391e-11 0.0 0.01 0.0 1.0366672550634259e-11 0.0 0.010000000000000002 0.009999996500001837 0.0 3.09213962723339e-12 0.0 0.01 0.0 3.092139625539324e-12 0.0 0.01 0.009999996500001839 0.0 5.830963441716451e-13 0.0 0.01 0.0 5.830963439598869e-13 0.0 0.010000000000000002 0.009999996500001839 0.0 4.300755545164372e-14 0.0 0.01 0.0 4.300755545164372e-14 0.0 0.010000000000000004 0.009999995500003038 0.0 1.8337489119941812e-11 0.0 0.01 0.0 1.8337489119941812e-11 0.0 0.01 0.009999995500003038 0.0 1.0394863264015551e-11 0.0 0.01 0.0 1.0394863264015551e-11 0.0 0.01000000050000004 0.009999995000003748 0.0 3.83412831292954e-12 0.0 0.01 0.0 3.8341283120825074e-12 0.0 0.010000000500000036 0.009999994500004536 0.0 8.70101347471685e-13 0.0 0.01 0.0 8.701013478952014e-13 0.0 0.010000000500000038 0.009999994000005402 0.0 8.856135692604279e-14 0.0 0.01 0.0 8.856135692604279e-14 0.0 0.01000000050000004 0.0099999940000054 0.0 -4.306049024052237e-18 0.0 0.01 0.0 -4.306049024052237e-18 0.0 0.01 0.00999999250000844 0.0 4.131780061284709e-12 0.0 0.01 0.0 4.131780061284709e-12 0.0 0.01000000050000004 0.009999992000009601 0.0 1.975094678448628e-12 0.0 0.01 0.0 1.9750946780251115e-12 0.0 0.010000000500000042 0.0099999920000096 0.0 5.143044714573124e-13 0.0 0.01 0.0 5.143044713514332e-13 0.0 0.010000000500000036 0.009999992000009603 0.0 4.431215914395526e-14 0.0 0.01 0.0 4.431215914395526e-14 0.0 0.01000000050000004 0.009999992000009601 0.0 2.0968219409870855e-17 0.0 0.01 0.0 2.0968219409870855e-17 0.0 0.010000000500000038 0.009999992000009601 0.0 1.479154885609026e-17 0.0 0.01 0.0 1.479154885609026e-17 0.0 0.010000000500000038 0.009999989500016541 0.0 8.282097075560582e-14 0.0 0.01 0.0 8.282097075560582e-14 0.0 0.010000000500000042 0.00999998850001984 0.0 1.5316380728722037e-14 0.0 0.01 0.0 1.5316380728722037e-14 0.0 0.01000000050000004 0.009999988500019841 0.0 -2.091701698811496e-16 0.0 0.01 0.0 -2.091701698811496e-16 0.0 0.010000000500000042 0.009999988500019838 0.0 -8.564973367628289e-17 0.0 0.01 0.0 -8.564973367628289e-17 0.0 0.010000000500000038 0.0099999880000216 0.0 -2.0139528759722567e-17 0.0 0.01 0.0 -2.0139528759722567e-17 0.0 0.010000000500000038 0.0099999880000216 0.0 -1.2276746822708154e-17 0.0 0.01 0.0 -1.2276746822708154e-17 0.0 0.010000000500000038 0.009999983500040837 0.0 -9.097856348213365e-16 0.0 0.01 0.0 -9.097856348213365e-16 0.0 0.01000000100000015 0.009999983000043348 0.0 -6.512883808503549e-16 0.0 0.01 0.0 -6.512883808503549e-16 0.0 0.010000001450000313 0.009999982500045938 0.0 -3.6249763228520176e-16 0.0 0.01 0.0 -3.6249763225935237e-16 0.0 0.010000001450000314 0.009999982500045938 0.0 -9.318884563956311e-17 0.0 0.01 0.0 -9.318884563956311e-17 0.0 0.010000001450000314 0.009999982500045938 0.0 2.4597119280169326e-17 0.0 0.01 0.0 2.4597119280169326e-17 0.0 0.010000001450000314 0.009999982500045938 0.0 3.419389167865968e-17 0.0 0.01 0.0 3.419389167865968e-17 0.0 0.010000001450000314 0.009999975500090035 0.0 -1.3581791058721888e-15 0.0 0.01 0.0 -1.3581791058721888e-15 0.0 0.010000001950000567 0.00999997550009004 0.0 -1.3105997668906326e-15 0.0 0.01 0.0 -1.3105997668906326e-15 0.0 0.010000001950000573 0.009999975000093751 0.0 -6.211466023991627e-16 0.0 0.01 0.0 -6.211466023733133e-16 0.0 0.010000001950000571 0.0099999740001014 0.0 -1.5439906300335565e-16 0.0 0.01 0.0 -1.5439906300335565e-16 0.0 0.01000000195000057 0.0099999740001014 0.0 3.2336033347469694e-18 0.0 0.01 0.0 3.2336033347469694e-18 0.0 0.01000000195000057 0.0099999740001014 0.0 1.7524894463809116e-17 0.0 0.01 0.0 1.7524894463809116e-17 0.0 0.010000001450000314 0.009999963500199837 0.0 -2.3580903560184853e-15 0.0 0.01 0.0 -2.3580903562252804e-15 0.0 0.010000002450000902 0.00999996300020535 0.0 -2.4025399487917867e-15 0.0 0.01 0.0 -2.4025399487917867e-15 0.0 0.010000002450000902 0.009999963000205348 0.0 -1.3309941417769755e-15 0.0 0.01 0.0 -1.3309941417769755e-15 0.0 0.010000003400001733 0.00999996300020535 0.0 -3.9934382226572054e-16 0.0 0.01 0.0 -3.9934382226572054e-16 0.0 0.010000003900002283 0.009999963000205348 0.0 4.9079468825544375e-17 0.0 0.01 0.0 4.9079468825544375e-17 0.0 0.010000002950001304 0.009999963000205348 0.0 1.3244965864312066e-16 0.0 0.01 0.0 1.3244965864312066e-16 0.0 0.01000000195000057 0.009999946500429334 0.0 -2.158506640750154e-15 0.0 0.01 0.0 -2.158506640750154e-15 0.0 0.010000003900002281 0.009999947000421344 0.0 -4.90828205045824e-15 0.0 0.01 0.0 -4.908282050665035e-15 0.0 0.01000000390000228 0.009999947000421349 0.0 -2.884788431114585e-15 0.0 0.01 0.0 -2.8847884310111875e-15 0.0 0.010000005350004297 0.009999947500413437 0.0 -9.757302491849897e-16 0.0 0.01 0.0 -9.757302491849897e-16 0.0 0.010000005350004297 0.009999947500413433 0.0 -2.1387667792443364e-16 0.0 0.01 0.0 -2.1387667792443364e-16 0.0 0.010000004900003601 0.009999947000421346 0.0 7.80236153584282e-17 0.0 0.01 0.0 7.80236153584282e-17 0.0 0.010000003900002281 0.009999924000866392 0.0 -3.704866065667906e-15 0.0 0.01 0.0 -3.704866065667906e-15 0.0 0.010000005850005137 0.009999925000843743 0.0 -1.0455348120349672e-14 0.0 0.01 0.0 -1.0455348120349672e-14 0.0 0.010000006850007041 0.009999925500832531 0.0 -7.138913610928691e-15 0.0 0.01 0.0 -7.138913610721896e-15 0.0 0.010000008300010339 0.009999926000821393 0.0 -2.814424924938403e-15 0.0 0.01 0.0 -2.8144249249901018e-15 0.0 0.010000008800011617 0.009999926500810326 0.0 -6.92353076886316e-16 0.0 0.01 0.0 -6.92353076886316e-16 0.0 0.010000007800009127 0.00999992700079934 0.0 -9.113773385432207e-17 0.0 0.01 0.0 -9.113773385432207e-17 0.0 0.010000006350006049 0.009999893001717318 0.0 -8.345516945130776e-15 0.0 0.01 0.0 -8.345516944923981e-15 0.0 0.010000008300010334 0.009999895001653722 0.0 -2.4613932175743828e-14 0.0 0.01 0.0 -2.4613932175743828e-14 0.0 0.010000010250015762 0.009999897001591321 0.0 -1.7686938951569444e-14 0.0 0.01 0.0 -1.768693895177624e-14 0.0 0.010000013650027947 0.009999898501545309 0.0 -7.675838579126422e-15 0.0 0.01 0.0 -7.67583857922982e-15 0.0 0.010000015150034427 0.009999900001499975 0.0 -2.1777484958675882e-15 0.0 0.01 0.0 -2.1777484958158895e-15 0.0 0.010000013200026137 0.009999900501485012 0.0 -6.487416163513085e-16 0.0 0.01 0.0 -6.487416163513085e-16 0.0 0.01000000975001426 0.009999857003067278 0.0 -1.751491817256392e-14 0.0 0.01 0.0 -1.751491817256392e-14 0.0 0.010000012700024196 0.009999860002939932 0.0 -6.314801113713942e-14 0.0 0.01 0.0 -6.314801113631224e-14 0.0 0.010000016600041337 0.009999863002815287 0.0 -4.641790042989412e-14 0.0 0.01 0.0 -4.641790042906694e-14 0.0 0.010000022450075603 0.009999864502753978 0.0 -2.0364991619666187e-14 0.0 0.01 0.0 -2.0364991619872982e-14 0.0 0.010000024400089309 0.009999867002653292 0.0 -5.847217705893524e-15 0.0 0.01 0.0 -5.847217705893524e-15 0.0 0.010000021500069338 0.009999868502593781 0.0 -2.0496644242323163e-15 0.0 0.01 0.0 -2.0496644242323163e-15 0.0 0.010000016600041337 0.009999816505050683 0.0 -6.156570095485728e-14 0.0 0.01 0.0 -6.156570095485728e-14 0.0 0.01000001955005733 0.009999821004806009 0.0 -1.6942763011984678e-13 0.0 0.01 0.0 -1.6942763011819242e-13 0.0 0.010000028300120136 0.00999982500459362 0.0 -1.2455438005286348e-13 0.0 0.01 0.0 -1.2455438005286348e-13 0.0 0.010000039050228742 0.009999828004437479 0.0 -5.30502945097525e-14 0.0 0.01 0.0 -5.305029450933891e-14 0.0 0.010000042500270943 0.009999831504258719 0.0 -1.512523972920756e-14 0.0 0.01 0.0 -1.512523972920756e-14 0.0 0.010000036150196026 0.009999833504158222 0.0 -3.706060695883481e-15 0.0 0.01 0.0 -3.7060606958576314e-15 0.0 0.010000027350112205 0.009999779007325883 0.0 -2.0704555254828565e-13 0.0 0.01 0.0 -2.0704555254994e-13 0.0 0.010000031750151211 0.009999784006998146 0.0 -4.5205359326861616e-13 0.0 0.01 0.0 -4.520535932719249e-13 0.0 0.0100000508003871 0.009999789506646305 0.0 -3.2513729311306994e-13 0.0 0.01 0.0 -3.2513729311306994e-13 0.0 0.010000069800730817 0.009999793506396118 0.0 -1.3188443423172516e-13 0.0 0.01 0.0 -1.3188443423172516e-13 0.0 0.010000072250783018 0.009999797506150732 0.0 -3.321899643007181e-14 0.0 0.01 0.0 -3.32189964302786e-14 0.0 0.010000061500567346 0.009999800505969842 0.0 -5.487652977610761e-15 0.0 0.01 0.0 -5.4876529775590626e-15 0.0 0.010000046400322947 0.00999975200922522 0.0 -5.758894392427908e-13 0.0 0.01 0.0 -5.75889439239482e-13 0.0 0.010000058600515097 0.009999758008784247 0.0 -1.1231096285600168e-12 0.0 0.01 0.0 -1.1231096285533993e-12 0.0 0.010000090801236717 0.009999763008425021 0.0 -7.957690140116837e-13 0.0 0.01 0.0 -7.957690140116837e-13 0.0 0.010000118152093958 0.009999767508108126 0.0 -3.1468062971412815e-13 0.0 0.01 0.0 -3.1468062971412815e-13 0.0 0.010000120102163647 0.009999772507763148 0.0 -6.846043165318667e-14 0.0 0.01 0.0 -6.846043165318667e-14 0.0 0.01000010155154689 0.009999776007526119 0.0 -7.695284322089786e-16 0.0 0.01 0.0 -7.695284322089786e-16 0.0 0.010000075700859585 0.009999748009525201 0.0 -1.3779109430709377e-12 0.0 0.01 0.0 -1.3779109430643203e-12 0.0 0.010000117702078037 0.009999753009150973 0.0 -2.474079204371231e-12 0.0 0.01 0.0 -2.474079204357996e-12 0.0 0.010000164554061617 0.009999758008784247 0.0 -1.7311100491005472e-12 0.0 0.01 0.0 -1.7311100491005472e-12 0.0 0.010000193855636857 0.009999762508460604 0.0 -6.803245483847613e-13 0.0 0.01 0.0 -6.803245483847613e-13 0.0 0.010000192405552845 0.00999976650817802 0.0 -1.3242849168324826e-13 0.0 0.01 0.0 -1.3242849168283466e-13 0.0 0.010000163103990352 0.009999770507900236 0.0 1.337123909040001e-14 0.0 0.01 0.0 1.337123909040001e-14 0.0 0.010000120602181698 0.009999776507492562 0.0 -2.732651163834919e-12 0.0 0.01 0.0 -2.7326511638216843e-12 0.0 0.010000241708763187 0.00999978050722677 0.0 -4.623689646497777e-12 0.0 0.01 0.0 -4.623689646524247e-12 0.0 0.010000291012702764 0.009999783007063097 0.0 -3.231509026402736e-12 0.0 0.01 0.0 -3.231509026415971e-12 0.0 0.010000305664014001 0.009999786006869153 0.0 -1.280369506871329e-12 0.0 0.01 0.0 -1.280369506871329e-12 0.0 0.010000293962961627 0.009999789006677914 0.0 -2.445824745882712e-13 0.0 0.01 0.0 -2.445824745882712e-13 0.0 0.010000248059229703 0.009999792506458218 0.0 4.2571379422110256e-14 0.0 0.01 0.0 4.257137942231705e-14 0.0 0.010000183605056502 0.009999843003697254 0.0 -4.458229577108438e-12 0.0 0.01 0.0 -4.458229577095203e-12 0.0 0.010000487835695227 0.009999843503673741 0.0 -7.2490896715776884e-12 0.0 0.01 0.0 -7.2490896715644535e-12 0.0 0.01000051028905658 0.009999843503673745 0.0 -5.060807386350874e-12 0.0 0.01 0.0 -5.0608073863376394e-12 0.0 0.01000047318358329 0.009999844503626946 0.0 -2.0323504919228283e-12 0.0 0.01 0.0 -2.0323504919228283e-12 0.0 0.010000429227633877 0.009999845503580448 0.0 -3.994665814317232e-13 0.0 0.01 0.0 -3.9946658143006886e-13 0.0 0.010000356469059625 0.009999847503488353 0.0 6.882853261482537e-14 0.0 0.01 0.0 6.882853261482537e-14 0.0 0.01000026366042716 0.00999994150051333 0.0 -5.884816509092209e-12 0.0 0.01 0.0 -5.884816509092209e-12 0.0 0.010000908823879114 0.009999939500549037 0.0 -9.350258445166898e-12 0.0 0.01 0.0 -9.350258445166898e-12 0.0 0.010000859460788233 0.009999937000595347 0.0 -6.499271917471851e-12 0.0 0.01 0.0 -6.499271917471851e-12 0.0 0.010000706124784795 0.009999935500624033 0.0 -2.6470227449390446e-12 0.0 0.01 0.0 -2.6470227449258097e-12 0.0 0.010000597203493547 0.00999993450064353 0.0 -5.377692680293987e-13 0.0 0.01 0.0 -5.377692680277443e-13 0.0 0.01000048538533755 0.009999934500643536 0.0 8.682543474459003e-14 0.0 0.01 0.0 8.682543474500362e-14 0.0 0.010000358419268739 0.010000059550531936 0.0 -6.183883768503752e-12 0.0 0.01 0.0 -6.183883768516987e-12 0.0 0.010001431457301849 0.010000055200457063 0.0 -9.627290561147976e-12 0.0 0.01 0.0 -9.627290561147976e-12 0.0 0.010001286398180476 0.010000051250393991 0.0 -6.72293202573407e-12 0.0 0.01 0.0 -6.72293202573407e-12 0.0 0.010000975742792526 0.01000004685032924 0.0 -2.781998718187772e-12 0.0 0.01 0.0 -2.7819987181943894e-12 0.0 0.010000781341564655 0.01000004445029637 0.0 -5.937319768046703e-13 0.0 0.01 0.0 -5.937319768063246e-13 0.0 0.010000624558506126 0.010000042500270938 0.0 7.922738523942844e-14 0.0 0.01 0.0 7.922738523901485e-14 0.0 0.010000459481666571 0.010000175804635981 0.0 -5.221225272912202e-12 0.0 0.01 0.0 -5.22122527291882e-12 0.0 0.010001866722567905 0.010000169904330024 0.0 -7.993951895398045e-12 0.0 0.01 0.0 -7.993951895398045e-12 0.0 0.01000165471061949 0.010000164054036973 0.0 -5.612212304535594e-12 0.0 0.01 0.0 -5.612212304535594e-12 0.0 0.010001220423378636 0.010000159653823323 0.0 -2.347650354828815e-12 0.0 0.01 0.0 -2.347650354825506e-12 0.0 0.01000095523685419 0.010000156253662207 0.0 -5.199548151567938e-13 0.0 0.01 0.0 -5.199548151584482e-13 0.0 0.010000756935934127 0.010000152853504557 0.0 5.099254801332727e-14 0.0 0.01 0.0 5.0992548013120474e-14 0.0 0.010000556196399724 0.010000266110621851 0.0 -3.5868041124924023e-12 0.0 0.01 0.0 -3.5868041124990197e-12 0.0 0.010002123726340519 0.010000260760199029 0.0 -5.403073958025139e-12 0.0 0.01 0.0 -5.403073958025139e-12 0.0 0.010001896539392853 0.01000025535978096 0.0 -3.804758228876477e-12 0.0 0.01 0.0 -3.80475822886986e-12 0.0 0.010001402144846402 0.010000251009450548 0.0 -1.595713074708704e-12 0.0 0.01 0.0 -1.595713074708704e-12 0.0 0.010001098330923127 0.010000247559192533 0.0 -3.568931699742638e-13 0.0 0.01 0.0 -3.568931699734366e-13 0.0 0.010000871213838813 0.01000024365890516 0.0 2.6561023935993727e-14 0.0 0.01 0.0 2.6561023936097124e-14 0.0 0.010000640661561826 0.010000318365202815 0.0 -1.8642992381537906e-12 0.0 0.01 0.0 -1.8642992381537906e-12 0.0 0.010002248308006098 0.01000031351474311 0.0 -2.9567114490510512e-12 0.0 0.01 0.0 -2.9567114490477425e-12 0.0 0.010002033319990443 0.010000309564373921 0.0 -2.083896916688464e-12 0.0 0.01 0.0 -2.083896916688464e-12 0.0 0.010001524298452046 0.010000305664014005 0.0 -8.65067282028414e-13 0.0 0.01 0.0 -8.65067282028414e-13 0.0 0.010001205317883665 0.01000030276374933 0.0 -1.8733605272008654e-13 0.0 0.01 0.0 -1.8733605272008654e-13 0.0 0.010000959588103731 0.010000299313437743 0.0 1.2937090380200563e-14 0.0 0.01 0.0 1.2937090380252262e-14 0.0 0.010000706624890755 0.010000329116246912 0.0 -6.428751933983388e-13 0.0 0.01 0.0 -6.428751933983388e-13 0.0 0.010002303045358448 0.010000326165956943 0.0 -1.2278088780833234e-12 0.0 0.01 0.0 -1.2278088780824962e-12 0.0 0.010002106115171376 0.010000323765722957 0.0 -8.733732570982499e-13 0.0 0.01 0.0 -8.733732570990771e-13 0.0 0.010001601434606797 0.010000320315389633 0.0 -3.5312712499480315e-13 0.0 0.01 0.0 -3.5312712499563033e-13 0.0 0.010001278545159864 0.0100003178651551 0.0 -7.20111468185459e-14 0.0 0.01 0.0 -7.20111468185459e-14 0.0 0.010001022106683962 0.010000315464927093 0.0 5.4526829212120765e-15 0.0 0.01 0.0 5.4526829212120765e-15 0.0 0.010000752534937804 0.010000310564466944 0.0 -8.42738356756469e-14 0.0 0.01 0.0 -8.42738356756469e-14 0.0 0.010002322608926318 0.01000030861428583 0.0 -3.2623237916096493e-13 0.0 0.01 0.0 -3.2623237916096493e-13 0.0 0.010002142788534684 0.010000306664105861 0.0 -2.422891969805651e-13 0.0 0.01 0.0 -2.422891969801515e-13 0.0 0.010001645906261961 0.010000304713927023 0.0 -9.494371421489578e-14 0.0 0.01 0.0 -9.494371421489578e-14 0.0 0.010001323512706526 0.01000030226370395 0.0 -1.712589131702251e-14 0.0 0.01 0.0 -1.712589131699666e-14 0.0 0.010001060718744775 0.010000300313527692 0.0 2.1494016464707005e-15 0.0 0.01 0.0 2.1494016464707005e-15 0.0 0.010000781341564657 0.010000276361455928 0.0 4.361685996940649e-14 0.0 0.01 0.0 4.361685996935479e-14 0.0 0.010002326961960871 0.01000027491133602 0.0 -1.4562227035350157e-14 0.0 0.01 0.0 -1.4562227035350157e-14 0.0 0.010002157447986486 0.010000274411294823 0.0 -1.8418406324217574e-14 0.0 0.01 0.0 -1.8418406324217574e-14 0.0 0.010001666416449038 0.010000272461134855 0.0 -6.89766018192707e-15 0.0 0.01 0.0 -6.89766018192707e-15 0.0 0.010001345471495325 0.010000271011016647 0.0 -8.430952371105894e-16 0.0 0.01 0.0 -8.430952371105894e-16 0.0 0.010001079274699943 0.010000269060858671 0.0 2.102350314052675e-16 0.0 0.01 0.0 2.102350314052675e-16 0.0 0.010000794994792459 0.010000241208726968 0.0 6.811483680528356e-16 0.0 0.01 0.0 6.811483680528356e-16 0.0 0.010002322108577886 0.010000240708690822 0.0 -4.0231725820477044e-15 0.0 0.01 0.0 -4.0231725820477044e-15 0.0 0.010002155496724677 0.010000240258658356 0.0 -5.124225586730253e-15 0.0 0.01 0.0 -5.124225586730253e-15 0.0 0.010001668867674956 0.010000238758550576 0.0 -2.989197002462364e-15 0.0 0.01 0.0 -2.989197002462364e-15 0.0 0.010001348922889862 0.010000237308447027 0.0 -8.017383643693583e-16 0.0 0.01 0.0 -8.017383643693583e-16 0.0 0.010001082225656509 0.010000235858344112 0.0 8.991894871197304e-17 0.0 0.01 0.0 8.991894871197304e-17 0.0 0.01000079694525814 0.010000212406767307 0.0 -9.160733203458901e-14 0.0 0.01 0.0 -9.160733203469241e-14 0.0 0.010002315253811891 0.01000021190673548 0.0 -1.4040870526829299e-13 0.0 0.01 0.0 -1.404087052681896e-13 0.0 0.010002145240110873 0.01000021095667522 0.0 -1.0022793683869282e-13 0.0 0.01 0.0 -1.0022793683879622e-13 0.0 0.010001656661588226 0.010000209456580625 0.0 -4.2233575289404926e-14 0.0 0.01 0.0 -4.2233575289404926e-14 0.0 0.01000133671797448 0.010000208506521066 0.0 -8.1097164658309e-15 0.0 0.01 0.0 -8.1097164658309e-15 0.0 0.010001072422488837 0.010000207056430678 0.0 1.4338653037611324e-15 0.0 0.01 0.0 1.4338653037611324e-15 0.0 0.01000079014363918 0.010000189955412325 0.0 -2.432145691821503e-13 0.0 0.01 0.0 -2.432145691817367e-13 0.0 0.010002275676569947 0.010000188955355484 0.0 -3.9755298127696977e-13 0.0 0.01 0.0 -3.975529812765562e-13 0.0 0.010002105664887018 0.01000018800530177 0.0 -2.832886480178504e-13 0.0 0.01 0.0 -2.832886480174368e-13 0.0 0.010001624395713511 0.010000187005245513 0.0 -1.1616905501759253e-13 0.0 0.01 0.0 -1.1616905501759253e-13 0.0 0.010001309357117521 0.010000185555164477 0.0 -2.4101613563829383e-14 0.0 0.01 0.0 -2.410161356388108e-14 0.0 0.010001049965340932 0.010000184105084079 0.0 2.936167805182425e-15 0.0 0.01 0.0 2.936167805182425e-15 0.0 0.0100007730396293 0.010000169454307116 0.0 -4.826695809594891e-13 0.0 0.01 0.0 -4.826695809603163e-13 0.0 0.01000220237735631 0.010000168954281739 0.0 -7.874768938796184e-13 0.0 0.01 0.0 -7.874768938796184e-13 0.0 0.010002038222983635 0.010000167954231198 0.0 -5.552310533775926e-13 0.0 0.01 0.0 -5.552310533784197e-13 0.0 0.010001571670444569 0.010000166504158454 0.0 -2.287747906998654e-13 0.0 0.01 0.0 -2.2877479070027897e-13 0.0 0.010001267340882235 0.010000165054086338 0.0 -4.787598795222192e-14 0.0 0.01 0.0 -4.787598795222192e-14 0.0 0.010001015304605586 0.01000016405403697 0.0 4.468257120195502e-15 0.0 0.01 0.0 4.468257120195502e-15 0.0 0.010000748133947288 0.010000148953327997 0.0 -8.222639870226914e-13 0.0 0.01 0.0 -8.222639870226914e-13 0.0 0.010002097809936387 0.01000014795328346 0.0 -1.2781478075003484e-12 0.0 0.01 0.0 -1.2781478075011756e-12 0.0 0.010001943416383321 0.010000146953239225 0.0 -8.96235126524457e-13 0.0 0.01 0.0 -8.962351265236298e-13 0.0 0.010001500837809516 0.010000145003153826 0.0 -3.7234897013779756e-13 0.0 0.01 0.0 -3.7234897013779756e-13 0.0 0.010001210669822727 0.010000143053069569 0.0 -7.985282637236001e-14 0.0 0.01 0.0 -7.985282637236001e-14 0.0 0.010000971341507322 0.010000141102986453 0.0 5.83375706909433e-15 0.0 0.01 0.0 5.83375706909433e-15 0.0 0.010000714426553505 0.01000012550236259 0.0 -1.1907374126692699e-12 0.0 0.01 0.0 -1.1907374126692699e-12 0.0 0.010001967380435605 0.01000012355228974 0.0 -1.8025930343126154e-12 0.0 0.01 0.0 -1.8025930343142698e-12 0.0 0.010001826650375871 0.010000121602218028 0.0 -1.2545352022752407e-12 0.0 0.01 0.0 -1.2545352022735864e-12 0.0 0.010001413399598301 0.01000011915212955 0.0 -5.216426776971526e-13 0.0 0.01 0.0 -5.216426776979797e-13 0.0 0.010001142795867512 0.010000116702042873 0.0 -1.1550663121725937e-13 0.0 0.01 0.0 -1.1550663121705258e-13 0.0 0.010000916626015087 0.010000113751940898 0.0 6.735775716760497e-15 0.0 0.01 0.0 6.735775716760497e-15 0.0 0.01000067436820974 0.01000010060151808 0.0 -1.5113532466089867e-12 0.0 0.01 0.0 -1.5113532466089867e-12 0.0 0.010001816895046214 0.01000009765143035 0.0 -2.256435971018937e-12 0.0 0.01 0.0 -2.256435971018937e-12 0.0 0.01000169132899232 0.010000094251332482 0.0 -1.5647885102007531e-12 0.0 0.01 0.0 -1.5647885102007531e-12 0.0 0.010001313258651955 0.010000090351224488 0.0 -6.446262127501091e-13 0.0 0.01 0.0 -6.446262127509363e-13 0.0 0.010001064619988228 0.010000086451121059 0.0 -1.4057377598583595e-13 0.0 0.01 0.0 -1.4057377598583595e-13 0.0 0.010000854609541142 0.010000082501020953 0.0 8.070144164829731e-15 0.0 0.01 0.0 8.070144164829731e-15 0.0 0.010000628959333503 0.01000007765090444 0.0 -1.7134624508312002e-12 0.0 0.01 0.0 -1.7134624508312002e-12 0.0 0.010001652759651893 0.010000073250804842 0.0 -5.240006747275317e-12 0.0 0.01 0.0 -5.240006747275317e-12 0.0 0.010001543807427633 0.01000006835070077 0.0 -2.420235617616876e-12 0.0 0.01 0.0 -2.420235617616876e-12 0.0 0.010001203817341545 0.010000062500585946 0.0 -7.172349970905588e-13 0.0 0.01 0.0 -7.172349970922132e-13 0.0 0.010000978643642763 0.010000056150472928 0.0 -1.5689791896368288e-13 0.0 0.01 0.0 -1.568979189632693e-13 0.0 0.010000786692823104 0.010000050800387102 0.0 7.424490004832291e-15 0.0 0.01 0.0 7.424490004832291e-15 0.0 0.01000057915030838 0.010000061050559075 0.0 -1.746786250121749e-12 0.0 0.01 0.0 -1.746786250121749e-12 0.0 0.010001482279507758 0.010000054700448817 0.0 -9.407838103482566e-11 0.0 0.01 0.0 -9.407838103503742e-11 0.0 0.010001390890132496 0.010000046400322949 0.0 -7.658629258232083e-11 0.0 0.01 0.0 -7.65862925824267e-11 0.0 0.01000108952803484 0.010000038100217743 0.0 -2.5838418334667856e-11 0.0 0.01 0.0 -2.5838418334667856e-11 0.0 0.010000889268605736 0.010000029800133209 0.0 -2.2992940050052706e-12 0.0 0.01 0.0 -2.2992940050052706e-12 0.0 0.010000715876864616 0.010000022450075603 0.0 5.8998355621489865e-15 0.0 0.01 0.0 5.8998355621489865e-15 0.0 0.010000527391718372 0.010000051750401712 0.0 1.757077041513702e-12 0.0 0.01 0.0 1.757077041513702e-12 0.0 0.010001309807294342 0.010000042950276738 0.0 -4.4897240710797364e-10 0.0 0.01 0.0 -4.4897240710797364e-10 0.0 0.010001237029498474 0.010000031750151238 0.0 -4.218543607486871e-10 0.0 0.01 0.0 -4.218543607486871e-10 0.0 0.010000977193217356 0.010000020000060004 0.0 -1.938557582307129e-10 0.0 0.01 0.0 -1.938557582307129e-10 0.0 0.010000800396084834 0.010000009750014261 0.0 -4.6377004822466563e-11 0.0 0.01 0.0 -4.6377004822254805e-11 0.0 0.010000645562507264 0.009999999999999998 0.0 -3.89245248637343e-12 0.0 0.01 0.0 -3.89245248637343e-12 0.0 0.010000477084139219 0.01000004930036458 0.0 9.860697747266598e-11 0.0 0.01 0.0 9.860697747277186e-11 0.0 0.01000114129535354 0.010000036600201137 0.0 -1.1607469680983057e-09 0.0 0.01 0.0 -1.1607469680983057e-09 0.0 0.010001090528362084 0.010000023450082699 0.0 -1.1966681839258665e-09 0.0 0.01 0.0 -1.1966681839241725e-09 0.0 0.010000868763199524 0.010000009300013029 0.0 -6.094741990229918e-10 0.0 0.01 0.0 -6.094741990212977e-10 0.0 0.010000715426768055 0.009999996000002408 0.0 -1.7489940785241656e-10 0.0 0.01 0.0 -1.7489940785241656e-10 0.0 0.010000579150308385 0.00999998450003604 0.0 -2.3208421971816144e-11 0.0 0.01 0.0 -2.3208421971922023e-11 0.0 0.01000042872756953 0.010000050800387123 0.0 4.003889365551794e-10 0.0 0.01 0.0 4.003889365560264e-10 0.0 0.01000097769336398 0.010000034650180711 0.0 -2.0266372249076845e-09 0.0 0.01 0.0 -2.0266372249042963e-09 0.0 0.010000953236282206 0.010000019550058125 0.0 -2.3018236080759626e-09 0.0 0.01 0.0 -2.3018236080691863e-09 0.0 0.010000769638843271 0.010000003400001957 0.0 -1.215176303162493e-09 0.0 0.01 0.0 -1.215176303162493e-09 0.0 0.010000635810633356 0.009999988500019858 0.0 -3.4289378033278275e-10 0.0 0.01 0.0 -3.428937803319357e-10 0.0 0.010000517140112335 0.00999997450009754 0.0 -3.384113813354188e-11 0.0 0.01 0.0 -3.384113813364776e-11 0.0 0.01000038477220631 0.010000055650464626 0.0 7.610253162156376e-10 0.0 0.01 0.0 7.610253162156376e-10 0.0 0.010000822351428245 0.010000034200176344 0.0 -2.4473733418811042e-09 0.0 0.01 0.0 -2.447373341874328e-09 0.0 0.010000828703001816 0.010000016100040456 0.0 -3.236776014884724e-09 0.0 0.01 0.0 -3.236776014884724e-09 0.0 0.010000682219808805 0.009999999000000585 0.0 -1.7089259072243772e-09 0.0 0.01 0.0 -1.7089259072243772e-09 0.0 0.010000565948041388 0.009999984000038415 0.0 -3.569384999826852e-10 0.0 0.01 0.0 -3.569384999826852e-10 0.0 0.01000046148194289 0.009999970500130536 0.0 6.842396064666449e-11 0.0 0.01 0.0 6.842396064645273e-11 0.0 0.010000346718031175 0.010000066400661372 0.0 3.4755993893778153e-10 0.0 0.01 0.0 3.4755993893608746e-10 0.0 0.010000675868513585 0.010000035150185764 0.0 -1.7017891929023833e-09 0.0 0.01 0.0 -1.7017891929023833e-09 0.0 0.010000717827284442 0.010000012200023863 0.0 -3.1995699104764037e-09 0.0 0.01 0.0 -3.199569910489956e-09 0.0 0.010000607955438516 0.009999995000004161 0.0 -1.6552609225910795e-09 0.0 0.01 0.0 -1.6552609225910795e-09 0.0 0.010000503938090892 0.009999982000048598 0.0 4.177401936203041e-11 0.0 0.01 0.0 4.1774019362242167e-11 0.0 0.01000041162541393 0.009999969500139564 0.0 4.5150094368964614e-10 0.0 0.01 0.0 4.515009436879521e-10 0.0 0.010000312514649229 0.01000008690113374 0.0 -2.5597587743639923e-09 0.0 0.01 0.0 -2.559758774377545e-09 0.0 0.010000542044069565 0.01000003855022292 0.0 8.898695072489144e-11 0.0 0.01 0.0 8.898695072489144e-11 0.0 0.010000619707600867 0.010000009300013329 0.0 -1.5511099984762014e-09 0.0 0.01 0.0 -1.5511099984829777e-09 0.0 0.010000546894861186 0.00999999100001222 0.0 -6.730070863887524e-10 0.0 0.01 0.0 -6.730070863870583e-10 0.0 0.010000451680600531 0.009999980000060162 0.0 1.0362235201200238e-09 0.0 0.01 0.0 1.036223520123412e-09 0.0 0.010000369170442176 0.009999972000117843 0.0 1.2800912943712476e-09 0.0 0.01 0.0 1.2800912943712476e-09 0.0 0.010000284212116262 0.010000044450296525 0.0 1.0088223255932136e-09 0.0 0.01 0.0 1.0088223255932136e-09 0.0 0.010000526391560445 0.010000008800011909 0.0 1.3984241964624098e-09 0.0 0.01 0.0 1.3984241964624098e-09 0.0 0.010000493686556849 0.009999989500016824 0.0 1.3812738505877744e-09 0.0 0.01 0.0 1.3812738505877744e-09 0.0 0.010000408224996073 0.00999998100005518 0.0 2.620892075022303e-09 0.0 0.01 0.0 2.620892075022303e-09 0.0 0.010000331566490751 0.009999975500091064 0.0 2.616671109932807e-09 0.0 0.01 0.0 2.6166711099192544e-09 0.0 0.010000259310086933 0.010000053200424831 0.0 -1.3915103063951231e-09 0.0 0.01 0.0 -1.3915103063951231e-09 0.0 0.010000434578327395 0.010000013200028421 0.0 3.903030291798888e-09 0.0 0.01 0.0 3.903030291825993e-09 0.0 0.010000441929295781 0.009999992000012234 0.0 4.190439356865612e-09 0.0 0.01 0.0 4.19043935685206e-09 0.0 0.010000374020985343 0.009999984000041602 0.0 4.619655761444255e-09 0.0 0.01 0.0 4.619655761498465e-09 0.0 0.010000301763661847 0.009999983000046194 0.0 4.35545112416379e-09 0.0 0.01 0.0 4.355451124190895e-09 0.0 0.01000023875855342 0.010000024400090804 0.0 3.158981586108252e-09 0.0 0.01 0.0 3.158981586108252e-09 0.0 0.010000387222491526 0.01000000195000712 0.0 6.60905914777422e-09 0.0 0.01 0.0 6.60905914777422e-09 0.0 0.010000345717933855 0.009999992500015348 0.0 6.7877482381540136e-09 0.0 0.01 0.0 6.7877482381540136e-09 0.0 0.01000027931170873 0.009999992500014281 0.0 6.2425546378734424e-09 0.0 0.01 0.0 6.2425546378734424e-09 0.0 0.010000220707312386 0.010000046850330789 0.0 -3.215516889754945e-09 0.0 0.01 0.0 -3.2155168897684975e-09 0.0 0.010000328616199127 0.01000002245008152 0.0 6.280405717972457e-09 0.0 0.01 0.0 6.280405717999562e-09 0.0 0.010000316415023053 0.010000009300023888 0.0 8.530601549585834e-09 0.0 0.01 0.0 8.530601549640044e-09 0.0 0.010000262710363063 0.010000005350013899 0.0 8.001936982492998e-09 0.0 0.01 0.0 8.001936982492998e-09 0.0 0.010000207506468267 0.0100000508003871 0.0 5.989476874995167e-11 0.0 0.01 0.0 5.989476875037519e-11 0.0 0.01000028466215442 0.010000035150194675 0.0 7.89315501777436e-09 0.0 0.01 0.0 7.89315501777436e-09 0.0 0.01000024950934727 0.010000026850120884 0.0 9.217196414532808e-09 0.0 0.01 0.0 9.217196414641228e-09 0.0 0.010000200206024951 0.010000067850690783 0.0 1.2424934947553e-09 0.0 0.01 0.0 1.2424934947553e-09 0.0 0.01000023635837976 0.010000058600525113 0.0 8.171500320472945e-09 0.0 0.01 0.0 8.171500320364525e-09 0.0 0.010000193355617828 0.010000100601546534 0.0 -1.3773745412238789e-08 0.0 0.01 0.0 -1.3773745412238789e-08 0.0 0.010000225107629244 0.01000009325130458 0.0 1.2248005709961877e-09 0.0 0.01 0.0 1.2248005709961877e-09 0.0 0.010000188005301993 0.009999999999999998 0.0 0.0 0.0 0.01 0.0 0.0 0.0 0.009999999999999998 0.01 0.0 0.0 0.0 0.01 0.0 0.0 0.0 0.01 0.009999999999999998 0.0 0.0 0.0 0.01 0.0 0.0 0.0 0.009999999999999998 0.009999999999999998 0.0 0.0 0.0 0.01 0.0 0.0 0.0 0.009999999999999998 0.009999999999999998 0.0 0.0 0.0 0.01 0.0 0.0 0.0 0.009999999999999998 0.009999999999999998 0.0 0.0 0.0 0.01 0.0 0.0 0.0 0.009999999999999998 0.01 0.0 0.0 0.0 0.01 0.0 0.0 0.0 0.01 0.009999999999999998 0.0 0.0 0.0 0.01 0.0 0.0 0.0 0.009999999999999998 0.009999999999999998 0.0 0.0 0.0 0.01 0.0 0.0 0.0 0.009999999999999998 0.009999999999999998 0.0 0.0 0.0 0.01 0.0 0.0 0.0 0.009999999999999998 0.01 0.0 0.0 0.0 0.01 0.0 0.0 0.0 0.01 0.01 0.0 0.0 0.0 0.01 0.0 0.0 0.0 0.01 0.009999999999999998 0.0 0.0 0.0 0.01 0.0 0.0 0.0 0.009999999999999998 0.009999999999999998 0.0 0.0 0.0 0.01 0.0 0.0 0.0 0.009999999999999998 0.01 0.0 0.0 0.0 0.01 0.0 0.0 0.0 0.01 0.009999999999999998 0.0 0.0 0.0 0.01 0.0 0.0 0.0 0.009999999999999998 0.009999999999999998 0.0 0.0 0.0 0.01 0.0 0.0 0.0 0.009999999999999998 0.009999999999999998 0.0 0.0 0.0 0.01 0.0 0.0 0.0 0.009999999999999998 0.009999999999999998 0.0 0.0 0.0 0.01 0.0 0.0 0.0 0.009999999999999998 0.009999999999999998 0.0 0.0 0.0 0.01 0.0 0.0 0.0 0.009999999999999998 0.01 0.0 0.0 0.0 0.01 0.0 0.0 0.0 0.01 0.009999999999999998 0.0 0.0 0.0 0.01 0.0 0.0 0.0 0.009999999999999998 0.009999999999999998 0.0 0.0 0.0 0.01 0.0 0.0 0.0 0.009999999999999998 0.009999999999999998 0.0 0.0 0.0 0.01 0.0 0.0 0.0 0.009999999999999998 0.009999999999999998 0.0 0.0 0.0 0.01 0.0 0.0 0.0 0.009999999999999998 0.009999999999999998 0.0 0.0 0.0 0.01 0.0 0.0 0.0 0.009999999999999998 0.009999999999999998 0.0 0.0 0.0 0.01 0.0 0.0 0.0 0.009999999999999998 0.009999999999999998 0.0 0.0 0.0 0.01 0.0 0.0 0.0 0.009999999999999998 0.009999999999999998 0.0 0.0 0.0 0.01 0.0 0.0 0.0 0.009999999999999998 0.009999999999999998 0.0 0.0 0.0 0.01 0.0 0.0 0.0 0.009999999999999998 0.009999999999999998 0.0 0.0 0.0 0.01 0.0 0.0 0.0 0.009999999999999998 0.01 0.0 0.0 0.0 0.01 0.0 0.0 0.0 0.01 0.009999999999999998 0.0 0.0 0.0 0.01 0.0 0.0 0.0 0.009999999999999998 0.009999999999999998 0.0 0.0 0.0 0.01 0.0 0.0 0.0 0.009999999999999998 0.009999999999999998 0.0 0.0 0.0 0.01 0.0 0.0 0.0 0.009999999999999998 0.009999999999999998 0.0 0.0 0.0 0.01 0.0 0.0 0.0 0.009999999999999998 0.009999999999999998 0.0 0.0 0.0 0.01 0.0 0.0 0.0 0.009999999999999998 0.009999999999999998 0.0 0.0 0.0 0.01 0.0 0.0 0.0 0.009999999999999998 0.01 0.0 0.0 0.0 0.01 0.0 0.0 0.0 0.01 0.01 0.0 0.0 0.0 0.01 0.0 0.0 0.0 0.01 0.009999999999999998 0.0 0.0 0.0 0.01 0.0 0.0 0.0 0.009999999999999998 0.009999999999999998 0.0 0.0 0.0 0.01 0.0 0.0 0.0 0.009999999999999998 0.01 0.0 0.0 0.0 0.01 0.0 0.0 0.0 0.01 0.009999999999999998 0.0 0.0 0.0 0.01 0.0 0.0 0.0 0.009999999999999998 0.01 0.0 0.0 0.0 0.01 0.0 0.0 0.0 0.01 0.009999999999999998 0.0 0.0 0.0 0.01 0.0 0.0 0.0 0.009999999999999998 0.01 0.0 0.0 0.0 0.01 0.0 0.0 0.0 0.01 0.009999999999999998 0.0 0.0 0.0 0.01 0.0 0.0 0.0 0.009999999999999998 0.009999999999999998 0.0 0.0 0.0 0.01 0.0 0.0 0.0 0.009999999999999998 0.009999999999999998 0.0 0.0 0.0 0.01 0.0 0.0 0.0 0.009999999999999998 0.01 0.0 0.0 0.0 0.01 0.0 0.0 0.0 0.01 0.009999999999999998 0.0 0.0 0.0 0.01 0.0 0.0 0.0 0.009999999999999998 0.009999999999999998 0.0 0.0 0.0 0.01 0.0 0.0 0.0 0.009999999999999998 0.01 0.0 0.0 0.0 0.01 0.0 0.0 0.0 0.01 0.009999999999999998 0.0 0.0 0.0 0.01 0.0 0.0 0.0 0.009999999999999998 0.009999999999999998 0.0 0.0 0.0 0.01 0.0 0.0 0.0 0.009999999999999998 0.009999999999999998 0.0 0.0 0.0 0.01 0.0 0.0 0.0 0.009999999999999998 0.009999999999999998 0.0 0.0 0.0 0.01 0.0 0.0 0.0 0.009999999999999998 0.01 0.0 0.0 0.0 0.01 0.0 0.0 0.0 0.01 0.009999999999999998 0.0 0.0 0.0 0.01 0.0 0.0 0.0 0.009999999999999998 0.009999999999999998 0.0 0.0 0.0 0.01 0.0 0.0 0.0 0.009999999999999998 0.01 0.0 0.0 0.0 0.01 0.0 0.0 0.0 0.01 0.009999999999999998 0.0 0.0 0.0 0.01 0.0 0.0 0.0 0.009999999999999998 0.009999999999999998 0.0 2.220446049250313e-16 0.0 0.01 0.0 2.220446049250313e-16 0.0 0.009999999999999998 0.009999999999999998 0.0 0.0 0.0 0.01 0.0 0.0 0.0 0.009999999999999998 0.01 0.0 0.0 0.0 0.01 0.0 0.0 0.0 0.01 0.009999999999999998 0.0 0.0 0.0 0.01 0.0 0.0 0.0 0.009999999999999998 0.009999999999999998 0.0 0.0 0.0 0.01 0.0 0.0 0.0 0.009999999999999998 0.009999999999999998 0.0 0.0 0.0 0.01 0.0 0.0 0.0 0.009999999999999998 0.01 0.0 0.0 0.0 0.01 0.0 0.0 0.0 0.01 0.01 0.0 0.0 0.0 0.01 0.0 0.0 0.0 0.01 0.009999999999999998 0.0 0.0 0.0 0.01 0.0 0.0 0.0 0.009999999999999998 0.009999999999999998 0.0 2.742597815519332e-15 0.0 0.01 0.0 2.742597815519332e-15 0.0 0.009999999999999998 0.009999999999999998 0.0 0.0 0.0 0.01 0.0 0.0 0.0 0.009999999999999998 0.01 0.0 0.0 0.0 0.01 0.0 0.0 0.0 0.01 0.009999999999999998 0.0 0.0 0.0 0.01 0.0 0.0 0.0 0.009999999999999998 0.01 0.0 0.0 0.0 0.01 0.0 0.0 0.0 0.01 0.009999999999999998 0.0 0.0 0.0 0.01 0.0 0.0 0.0 0.009999999999999998 0.01 0.0 0.0 0.0 0.01 0.0 0.0 0.0 0.01 0.01 0.0 0.0 0.0 0.01 0.0 0.0 0.0 0.01 0.01 0.0 0.0 0.0 0.01 0.0 0.0 0.0 0.01 0.009999999999999998 0.0 1.1310397063368782e-14 0.0 0.01 0.0 1.1310397063368782e-14 0.0 0.009999999999999998 0.01 0.0 4.683753385137379e-17 0.0 0.01 0.0 4.683753385137379e-17 0.0 0.009999999999999998 0.01 0.0 0.0 0.0 0.01 0.0 0.0 0.0 0.01 0.009999999999999998 0.0 0.0 0.0 0.01 0.0 0.0 0.0 0.009999999999999998 0.01 0.0 0.0 0.0 0.01 0.0 0.0 0.0 0.01 0.01 0.0 0.0 0.0 0.01 0.0 0.0 0.0 0.01 0.009999999999999998 0.0 0.0 0.0 0.01 0.0 0.0 0.0 0.009999999999999998 0.01 0.0 0.0 0.0 0.01 0.0 0.0 0.0 0.01 0.01 0.0 0.0 0.0 0.01 0.0 0.0 0.0 0.01 0.009999999500000039 0.0 2.6965879916761033e-14 0.0 0.01 0.0 2.696588002264015e-14 0.0 0.01 0.00999999950000004 0.0 2.7986813459559745e-16 0.0 0.01 0.0 2.7986813376841684e-16 0.0 0.010000000000000004 0.009999999500000037 0.0 1.137341899768293e-12 0.0 0.01 0.0 1.137341899768293e-12 0.0 0.01 0.009999999500000037 0.0 -1.129934399769802e-13 0.0 0.01 0.0 -1.129934399769802e-13 0.0 0.01 0.009999999500000037 0.0 -1.115410399772761e-12 0.0 0.01 0.0 -1.115410399772761e-12 0.0 0.01 0.009999999500000037 0.0 -1.4186366997109856e-13 0.0 0.01 0.0 -1.4186366997109856e-13 0.0 0.01 0.009999999500000037 0.0 -1.6221638996695218e-12 0.0 0.01 0.0 -1.6221638996695218e-12 0.0 0.01 0.009999999500000037 0.0 2.143149699563383e-13 0.0 0.01 0.0 2.143149699563383e-13 0.0 0.01 0.009999999500000037 0.0 1.1135773997731344e-14 0.0 0.01 0.0 1.1135773997731344e-14 0.0 0.01 0.00999999950000004 0.0 4.2044135862862606e-14 0.0 0.01 0.0 4.2044135862862606e-14 0.0 0.010000000000000004 0.00999999950000004 0.0 4.34628439127467e-16 0.0 0.01 0.0 4.3462843747310577e-16 0.0 0.010000000000000004 0.009999999500000037 0.0 1.4775215996989891e-12 0.0 0.01 0.0 1.4775215996989891e-12 0.0 0.01 0.009999999500000037 0.0 -1.6913716996554222e-12 0.0 0.01 0.0 -1.6913716996554222e-12 0.0 0.01 0.009999999500000037 0.0 -3.5503535992766978e-12 0.0 0.01 0.0 -3.5503535992766978e-12 0.0 0.01 0.009999999500000037 0.0 -2.7641943994368596e-14 0.0 0.01 0.0 -2.7641943994368596e-14 0.0 0.01 0.009999999500000037 0.0 -2.782952599433038e-12 0.0 0.01 0.0 -2.782952599433038e-12 0.0 0.01 0.009999999500000037 0.0 1.169273599761788e-12 0.0 0.01 0.0 1.169273599761788e-12 0.0 0.01 0.009999999500000037 0.0 2.8917206994108793e-13 0.0 0.01 0.0 2.8917206994108793e-13 0.0 0.01 0.009999999000000152 0.0 4.287750659219417e-14 0.0 0.01 0.0 4.287750653925461e-14 0.0 0.010000000000000004 0.00999999900000015 0.0 1.7676111845151804e-16 0.0 0.01 0.0 1.767611186583132e-16 0.0 0.01 0.00999999900000015 0.0 2.1639646495591425e-12 0.0 0.01 0.0 2.1639646495591425e-12 0.0 0.01 0.00999999900000015 0.0 -2.30185714953105e-12 0.0 0.01 0.0 -2.30185714953105e-12 0.0 0.01 0.00999999900000015 0.0 -2.123888499567307e-12 0.0 0.01 0.0 -2.123888499567307e-12 0.0 0.01 0.00999999900000015 0.0 -4.174602899149521e-13 0.0 0.01 0.0 -4.174602899149521e-13 0.0 0.01 0.00999999900000015 0.0 -1.56704984968075e-12 0.0 0.01 0.0 -1.56704984968075e-12 0.0 0.01 0.00999999900000015 0.0 7.971395998376013e-13 0.0 0.01 0.0 7.971395998376013e-13 0.0 0.01 0.00999999900000015 0.0 -1.0283604997904954e-13 0.0 0.01 0.0 -1.0283604997904954e-13 0.0 0.01 0.00999999850000034 0.0 2.5307984790789694e-14 0.0 0.01 0.0 2.5307984790789694e-14 0.0 0.010000000000000002 0.0099999980000006 0.0 2.477738874495218e-12 0.0 0.01 0.0 2.477738874495218e-12 0.0 0.01 0.0099999980000006 0.0 2.3870212495136998e-12 0.0 0.01 0.0 2.3870212495136998e-12 0.0 0.01 0.0099999980000006 0.0 -2.313176499528744e-12 0.0 0.01 0.0 -2.313176499528744e-12 0.0 0.01 0.0099999980000006 0.0 -8.052039498359584e-13 0.0 0.01 0.0 -8.052039498359584e-13 0.0 0.01 0.0099999980000006 0.0 -3.457585749295597e-13 0.0 0.01 0.0 -3.457585749295597e-13 0.0 0.01 0.0099999980000006 0.0 -3.3762727493121627e-13 0.0 0.01 0.0 -3.3762727493121627e-13 0.0 0.01 0.0099999980000006 0.0 2.4455960495017664e-13 0.0 0.01 0.0 2.4455960495017664e-13 0.0 0.01 0.0099999980000006 0.0 1.0009754997960745e-13 0.0 0.01 0.0 1.0009754997960745e-13 0.0 0.01 0.00999999750000094 0.0 5.003101621179742e-15 0.0 0.01 0.0 5.003101624488465e-15 0.0 0.010000000000000002 0.009999997500000938 0.0 3.404341000544937e-12 0.0 0.01 0.0 3.404341000544937e-12 0.0 0.01 0.009999997500000938 0.0 2.58166800041325e-12 0.0 0.01 0.0 2.58166800041325e-12 0.0 0.01 0.009999997500000938 0.0 -1.4995361802400322e-12 0.0 0.01 0.0 -1.4995361802400322e-12 0.0 0.01 0.009999997500000938 0.0 -1.7874301202861159e-12 0.0 0.01 0.0 -1.7874301202861159e-12 0.0 0.01 0.009999997500000938 0.0 2.0922682003349117e-13 0.0 0.01 0.0 2.0922682003349117e-13 0.0 0.01 0.009999997500000938 0.0 1.942812200310988e-14 0.0 0.01 0.0 1.942812200310988e-14 0.0 0.01 0.009999997500000938 0.0 1.3925766402229114e-13 0.0 0.01 0.0 1.3925766402229114e-13 0.0 0.01 0.009999997500000938 0.0 4.2466274006797625e-13 0.0 0.01 0.0 4.2466274006797625e-13 0.0 0.01 0.009999996500001837 0.0 3.1680917144635356e-12 0.0 0.01 0.0 3.1680917144635356e-12 0.0 0.01 0.0099999960000024 0.0 2.8664184810181915e-18 0.0 0.01 0.0 2.8664184810181915e-18 0.0 0.01 0.0099999960000024 0.0 8.268848125195533e-13 0.0 0.01 0.0 8.268848125195533e-13 0.0 0.01 0.0099999960000024 0.0 -7.186416625169937e-13 0.0 0.01 0.0 -7.186416625169937e-13 0.0 0.01 0.0099999960000024 0.0 -1.868867250044193e-12 0.0 0.01 0.0 -1.868867250044193e-12 0.0 0.01 0.0099999960000024 0.0 -1.7973805000425027e-13 0.0 0.01 0.0 -1.7973805000425027e-13 0.0 0.01 0.0099999960000024 0.0 -8.431249125199374e-14 0.0 0.01 0.0 -8.431249125199374e-14 0.0 0.01 0.0099999960000024 0.0 -1.8460328750436527e-14 0.0 0.01 0.0 -1.8460328750436527e-14 0.0 0.01 0.0099999960000024 0.0 -3.4811576250823183e-14 0.0 0.01 0.0 -3.4811576250823183e-14 0.0 0.01 0.0099999940000054 0.0 -2.8057912498536943e-12 0.0 0.01 0.0 -2.8057912498536943e-12 0.0 0.01 0.0099999940000054 0.0 -2.8469081665182166e-12 0.0 0.01 0.0 -2.8469081665182166e-12 0.0 0.01 0.0099999940000054 0.0 -2.3409381665446002e-12 0.0 0.01 0.0 -2.3409381665446002e-12 0.0 0.01 0.0099999940000054 0.0 8.806810832874107e-13 0.0 0.01 0.0 8.806810832874107e-13 0.0 0.01 0.0099999940000054 0.0 -2.331622833211752e-12 0.0 0.01 0.0 -2.331622833211752e-12 0.0 0.01 0.0099999940000054 0.0 -8.61245999955091e-13 0.0 0.01 0.0 -8.61245999955091e-13 0.0 0.01 0.0099999940000054 0.0 2.1370929998885624e-13 0.0 0.01 0.0 2.1370929998885624e-13 0.0 0.01 0.0099999940000054 0.0 4.777711666417536e-13 0.0 0.01 0.0 4.777711666417536e-13 0.0 0.01 0.0099999940000054 0.0 -9.827210832820899e-14 0.0 0.01 0.0 -9.827210832820899e-14 0.0 0.01 0.009999991500010838 0.0 -4.1012877287100764e-18 0.0 0.01 0.0 -4.1012877287100764e-18 0.0 0.010000000500000038 0.00999999100001215 0.0 1.198856681505129e-17 0.0 0.01 0.0 1.198856681505129e-17 0.0 0.01 0.00999999100001215 0.0 2.438961107714821e-18 0.0 0.01 0.0 2.438961107714821e-18 0.0 0.01 0.00999999100001215 0.0 -1.4426168888865564e-12 0.0 0.01 0.0 -1.4426168888865564e-12 0.0 0.01 0.00999999100001215 0.0 -1.2563212222201908e-12 0.0 0.01 0.0 -1.2563212222201908e-12 0.0 0.01 0.00999999100001215 0.0 -7.045114999988609e-13 0.0 0.01 0.0 -7.045114999988609e-13 0.0 0.01 0.00999999100001215 0.0 7.945736666653819e-13 0.0 0.01 0.0 7.945736666653819e-13 0.0 0.01 0.00999999100001215 0.0 2.658131444440147e-16 0.0 0.01 0.0 2.658131444440147e-16 0.0 0.01 0.00999999100001215 0.0 3.7334727777717415e-13 0.0 0.01 0.0 3.7334727777717415e-13 0.0 0.01 0.009999987500023438 0.0 8.422997839232375e-18 0.0 0.01 0.0 8.422997839232375e-18 0.0 0.010000000500000038 0.009999987500023438 0.0 -1.3392650894118145e-17 0.0 0.01 0.0 -1.3392650894118145e-17 0.0 0.010000000500000038 0.009999987500023438 0.0 -7.184057569649229e-18 0.0 0.01 0.0 -7.184057569649229e-18 0.0 0.010000000500000038 0.009999987500023438 0.0 -5.804124617495805e-18 0.0 0.01 0.0 -5.804124617495805e-18 0.0 0.01 0.009999987500023438 0.0 -3.2527817012239962e-18 0.0 0.01 0.0 -3.2527817012239962e-18 0.0 0.01 0.009999987500023438 0.0 -9.64193920014031e-13 0.0 0.01 0.0 -9.64193920014031e-13 0.0 0.01 0.009999987500023438 0.0 -6.49740760009455e-13 0.0 0.01 0.0 -6.49740760009455e-13 0.0 0.01 0.009999987500023438 0.0 -2.74601436003996e-13 0.0 0.01 0.0 -2.74601436003996e-13 0.0 0.01 0.009999987500023438 0.0 2.9579123600430433e-13 0.0 0.01 0.0 2.9579123600430433e-13 0.0 0.01 0.009999982000048601 0.0 2.703649452627836e-17 0.0 0.01 0.0 2.703649452627836e-17 0.0 0.010000000500000038 0.009999982000048601 0.0 -1.1002428118297678e-17 0.0 0.01 0.0 -1.1002428118297678e-17 0.0 0.010000000500000038 0.009999981500051337 0.0 1.1511273996475282e-12 0.0 0.01 0.0 1.1511273996475282e-12 0.0 0.010000000500000038 0.009999981500051337 0.0 -8.485850588582753e-18 0.0 0.01 0.0 -8.485850588582753e-18 0.0 0.010000000500000038 0.009999981500051337 0.0 -4.941599308017668e-18 0.0 0.01 0.0 -4.941599308017668e-18 0.0 0.010000000500000038 0.009999981500051337 0.0 -6.905201621572738e-13 0.0 0.01 0.0 -6.905201621572738e-13 0.0 0.01 0.009999981500051337 0.0 1.1740044324241215e-13 0.0 0.01 0.0 1.1740044324241215e-13 0.0 0.01 0.009999981500051337 0.0 -4.3150962161856687e-13 0.0 0.01 0.0 -4.3150962161856687e-13 0.0 0.01 0.009999981500051337 0.0 5.227088648611644e-13 0.0 0.01 0.0 5.227088648611644e-13 0.0 0.01 0.0099999740001014 0.0 2.629195317956494e-17 0.0 0.01 0.0 2.629195317956494e-17 0.0 0.010000001450000314 0.0099999740001014 0.0 7.193754423067551e-13 0.0 0.01 0.0 7.193754423067551e-13 0.0 0.01000000100000015 0.009999973000109349 0.0 -1.8284901318053135e-17 0.0 0.01 0.0 -1.8284901318053135e-17 0.0 0.010000000500000038 0.009999973000109349 0.0 -6.5391745069276724e-18 0.0 0.01 0.0 -6.5391745069276724e-18 0.0 0.010000000500000038 0.009999973000109349 0.0 -6.71418331117078e-18 0.0 0.01 0.0 -6.71418331117078e-18 0.0 0.010000000500000038 0.009999973000109349 0.0 -2.9741108759625377e-13 0.0 0.01 0.0 -2.9741108759625377e-13 0.0 0.010000000500000038 0.009999973000109349 0.0 4.1025147505585795e-13 0.0 0.01 0.0 4.1025147505585795e-13 0.0 0.010000000500000038 0.009999973000109349 0.0 2.5254791217955574e-18 0.0 0.01 0.0 2.5254791217955574e-18 0.0 0.01 0.009999973000109349 0.0 1.8897881481450923e-13 0.0 0.01 0.0 1.8897881481450923e-13 0.0 0.01 0.009999962500210936 0.0 5.622093618457645e-13 0.0 0.01 0.0 5.622093618457645e-13 0.0 0.01000000195000057 0.009999962500210936 0.0 3.368558034367511e-17 0.0 0.01 0.0 3.368558034367511e-17 0.0 0.010000001450000314 0.009999962000216599 0.0 -2.2438089483142254e-18 0.0 0.01 0.0 -2.2438089483142254e-18 0.0 0.010000001450000314 0.009999962000216599 0.0 -5.4372718232666436e-18 0.0 0.01 0.0 -5.4372718232666436e-18 0.0 0.01000000100000015 0.009999961500222337 0.0 -5.370336389101485e-18 0.0 0.01 0.0 -5.370336389101485e-18 0.0 0.010000000500000038 0.009999961500222337 0.0 -3.960030582641299e-13 0.0 0.01 0.0 -3.960030582641299e-13 0.0 0.010000000500000038 0.009999961500222337 0.0 -8.060761428728734e-14 0.0 0.01 0.0 -8.060761428728734e-14 0.0 0.010000000500000038 0.009999961500222337 0.0 9.158010799573536e-18 0.0 0.01 0.0 9.158010799573536e-18 0.0 0.010000000500000038 0.009999961500222337 0.0 4.760703058577289e-13 0.0 0.01 0.0 4.760703058577289e-13 0.0 0.010000000500000038 0.009999947000421346 0.0 8.715601656303435e-17 0.0 0.01 0.0 8.715601656303435e-17 0.0 0.010000003400001733 0.009999947000421346 0.0 -1.744726389774755e-17 0.0 0.01 0.0 -1.744726389774755e-17 0.0 0.01000000195000057 0.009999947000421346 0.0 -4.091735517435913e-17 0.0 0.01 0.0 -4.091735517435913e-17 0.0 0.01000000195000057 0.009999946500429334 0.0 -2.587974394340955e-17 0.0 0.01 0.0 -2.587974394340955e-17 0.0 0.010000001450000314 0.009999946500429334 0.0 3.1662387795354424e-18 0.0 0.01 0.0 3.1662387795354424e-18 0.0 0.010000001450000314 0.009999946500429334 0.0 -8.119998946033534e-18 0.0 0.01 0.0 -8.119998946033534e-18 0.0 0.010000000500000038 0.009999946500429334 0.0 2.747233509559338e-18 0.0 0.01 0.0 2.747233509559338e-18 0.0 0.010000000500000038 0.009999946500429334 0.0 8.164776090112337e-18 0.0 0.01 0.0 8.164776090112337e-18 0.0 0.010000000500000038 0.009999946500429334 0.0 4.9986895603781926e-18 0.0 0.01 0.0 4.9986895603781926e-18 0.0 0.010000000500000038 0.00999992700079934 0.0 -3.1561177603201396e-17 0.0 0.01 0.0 -3.1561177603201396e-17 0.0 0.010000004900003601 0.00999992700079934 0.0 -1.775306348980092e-16 0.0 0.01 0.0 -1.775306348980092e-16 0.0 0.010000003900002281 0.00999992700079934 0.0 -1.4066035200906715e-16 0.0 0.01 0.0 -1.4066035200906715e-16 0.0 0.010000002950001304 0.00999992600082139 0.0 -6.195246044733512e-17 0.0 0.01 0.0 -6.195246044733512e-17 0.0 0.01000000195000057 0.00999992600082139 0.0 -2.576628059862503e-17 0.0 0.01 0.0 -2.576628059862503e-17 0.0 0.010000001450000314 0.00999992600082139 0.0 -1.2030767075235262e-17 0.0 0.01 0.0 -1.2030767075235262e-17 0.0 0.010000001450000314 0.00999992600082139 0.0 -6.612577538570025e-18 0.0 0.01 0.0 -6.612577538570025e-18 0.0 0.010000001450000314 0.00999992600082139 0.0 5.702214133145669e-18 0.0 0.01 0.0 5.702214133145669e-18 0.0 0.010000000500000038 0.00999992600082139 0.0 3.071515686561415e-18 0.0 0.01 0.0 3.071515686561415e-18 0.0 0.010000000500000038 0.009999900501485012 0.0 -4.092365659749147e-16 0.0 0.01 0.0 -4.092365659749147e-16 0.0 0.010000007800009127 0.009999900001499975 0.0 -4.738603273892247e-16 0.0 0.01 0.0 -4.738603273892247e-16 0.0 0.010000005350004294 0.009999900001499975 0.0 -3.7526312873454714e-16 0.0 0.01 0.0 -3.7526312873454714e-16 0.0 0.010000004400002904 0.009999900001499975 0.0 -1.85481939849485e-16 0.0 0.01 0.0 -1.85481939849485e-16 0.0 0.010000002950001304 0.009999900001499975 0.0 -9.109445206336318e-17 0.0 0.01 0.0 -9.109445206336318e-17 0.0 0.0100000024500009 0.009999900001499975 0.0 -1.7638379583880924e-17 0.0 0.01 0.0 -1.7638379583880924e-17 0.0 0.01000000195000057 0.009999900001499975 0.0 1.604049715089127e-14 0.0 0.01 0.0 1.604049715089127e-14 0.0 0.010000001450000314 0.009999900001499975 0.0 9.915521423869469e-18 0.0 0.01 0.0 9.915521423869469e-18 0.0 0.010000001450000314 0.009999900001499975 0.0 8.506266692163074e-14 0.0 0.01 0.0 8.506266692163074e-14 0.0 0.01000000100000015 0.009999869002574095 0.0 -1.467435340335755e-15 0.0 0.01 0.0 -1.467435340335755e-15 0.0 0.010000011700020534 0.009999869002574095 0.0 -1.555977579030348e-15 0.0 0.01 0.0 -1.555977579030348e-15 0.0 0.010000008800011617 0.009999869002574093 0.0 -1.0047657134525073e-15 0.0 0.01 0.0 -1.0047657134525073e-15 0.0 0.010000006350006049 0.009999869002574093 0.0 -5.01274718415458e-16 0.0 0.01 0.0 -5.01274718415458e-16 0.0 0.010000004900003601 0.00999986850259378 0.0 -2.3549900990058633e-16 0.0 0.01 0.0 -2.3549900990058633e-16 0.0 0.010000003400001733 0.009999869002574093 0.0 -6.859588730324934e-17 0.0 0.01 0.0 -6.859588730324934e-17 0.0 0.0100000024500009 0.009999869002574093 0.0 -7.425137768228379e-18 0.0 0.01 0.0 -7.425137768228379e-18 0.0 0.01000000195000057 0.009999869002574093 0.0 -2.899365258188873e-18 0.0 0.01 0.0 -2.899365258188873e-18 0.0 0.010000001450000314 0.009999869002574093 0.0 3.278068599069687e-18 0.0 0.01 0.0 3.278068599069687e-18 0.0 0.010000001450000314 0.009999834504108426 0.0 -2.8458665472567737e-15 0.0 0.01 0.0 -2.8458665472567737e-15 0.0 0.010000019550057332 0.009999836004034294 0.0 -3.005288870698163e-15 0.0 0.01 0.0 -3.005288870698163e-15 0.0 0.01000001320002614 0.009999836004034292 0.0 -2.1957474978974947e-15 0.0 0.01 0.0 -2.1957474978974947e-15 0.0 0.010000009300012975 0.00999983650400973 0.0 -1.1273167109754385e-15 0.0 0.01 0.0 -1.1273167109754385e-15 0.0 0.010000006850007037 0.00999983650400973 0.0 -4.692795275539811e-16 0.0 0.01 0.0 -4.692795275539811e-16 0.0 0.010000005350004294 0.00999983650400973 0.0 -1.467735102443954e-16 0.0 0.01 0.0 -1.467735102443954e-16 0.0 0.010000003400001733 0.00999983650400973 0.0 -4.593827124925081e-17 0.0 0.01 0.0 -4.593827124925081e-17 0.0 0.0100000024500009 0.00999983650400973 0.0 -8.994718536047031e-18 0.0 0.01 0.0 -8.994718536047031e-18 0.0 0.01000000195000057 0.00999983650400973 0.0 4.788751613784584e-14 0.0 0.01 0.0 4.788751613784584e-14 0.0 0.01000000195000057 0.00999980200588041 0.0 -3.730894461668895e-15 0.0 0.01 0.0 -3.730894461668895e-15 0.0 0.010000031750151215 0.00999980350579165 0.0 -5.027007787867011e-15 0.0 0.01 0.0 -5.027007787867011e-15 0.0 0.010000020500063038 0.009999804005762211 0.0 -3.856103226559864e-15 0.0 0.01 0.0 -3.8561032265081655e-15 0.0 0.010000013650027948 0.009999804505732852 0.0 -2.1510065726811387e-15 0.0 0.01 0.0 -2.1510065726811387e-15 0.0 0.010000009300012975 0.009999805005703565 0.0 -9.247338018122695e-16 0.0 0.01 0.0 -9.247338018122695e-16 0.0 0.010000006850007037 0.009999806005645217 0.0 -2.9398718108680695e-16 0.0 0.01 0.0 -2.9398718108680695e-16 0.0 0.010000004900003601 0.009999806005645217 0.0 -7.512883707411915e-17 0.0 0.01 0.0 -7.512883707411915e-17 0.0 0.010000003400001733 0.009999806005645217 0.0 -1.6602717464098366e-17 0.0 0.01 0.0 -1.6602717464098366e-17 0.0 0.0100000024500009 0.009999806505616157 0.0 1.9543923995239437e-14 0.0 0.01 0.0 1.9543923995239437e-14 0.0 0.01000000195000057 0.009999778507359067 0.0 5.802568427293643e-16 0.0 0.01 0.0 5.802568427293643e-16 0.0 0.0100000508003871 0.009999780507226774 0.0 -5.222634918922404e-15 0.0 0.01 0.0 -5.222634918896555e-15 0.0 0.010000031750151211 0.009999782007128342 0.0 -5.1049286572167766e-15 0.0 0.01 0.0 -5.1049286572167766e-15 0.0 0.010000019050054437 0.009999783007063097 0.0 -2.9996316518202254e-15 0.0 0.01 0.0 -2.9996316518202254e-15 0.0 0.010000012200022328 0.009999783507030584 0.0 -1.360610960366319e-15 0.0 0.01 0.0 -1.360610960366319e-15 0.0 0.010000008800011615 0.009999784506965788 0.0 -4.755840848058051e-16 0.0 0.01 0.0 -4.755840848058051e-16 0.0 0.010000006350006049 0.00999978550690129 0.0 -1.3895026557933824e-16 0.0 0.01 0.0 -1.3895026557933824e-16 0.0 0.010000003900002281 0.00999978550690129 0.0 -3.5978684239594575e-17 0.0 0.01 0.0 -3.5978684239594575e-17 0.0 0.010000003400001733 0.00999978550690129 0.0 -7.07987280784166e-18 0.0 0.01 0.0 -7.07987280784166e-18 0.0 0.0100000024500009 0.009999773507695051 0.0 1.3728624467041833e-14 0.0 0.01 0.0 1.3728624466938436e-14 0.0 0.010000079100938537 0.009999776507492559 0.0 -2.2856805573890254e-15 0.0 0.01 0.0 -2.2856805573890254e-15 0.0 0.010000047350336307 0.009999778507359069 0.0 -5.562636003526608e-15 0.0 0.01 0.0 -5.562636003474909e-15 0.0 0.010000027350112206 0.009999780507226776 0.0 -3.572278260450175e-15 0.0 0.01 0.0 -3.572278260450175e-15 0.0 0.010000016100038884 0.009999781007193887 0.0 -1.6355611321020073e-15 0.0 0.01 0.0 -1.6355611321020073e-15 0.0 0.010000011250018984 0.009999781507161076 0.0 -5.841037394908174e-16 0.0 0.01 0.0 -5.841037394908174e-16 0.0 0.010000007800009127 0.00999978200712834 0.0 -1.71895801978293e-16 0.0 0.01 0.0 -1.71895801978293e-16 0.0 0.010000005350004294 0.00999978250709568 0.0 -5.3423268325804634e-17 0.0 0.01 0.0 -5.3423268325804634e-17 0.0 0.010000003900002281 0.00999978250709568 0.0 -8.584447732124906e-18 0.0 0.01 0.0 -8.584447732124906e-18 0.0 0.010000002950001304 0.009999796006242193 0.0 3.947643804912122e-14 0.0 0.01 0.0 3.947643804912122e-14 0.0 0.010000119652147465 0.009999798506090134 0.0 5.722799877585045e-15 0.0 0.01 0.0 5.7227998775591956e-15 0.0 0.010000070300741324 0.009999801505910141 0.0 -4.541531779117079e-15 0.0 0.01 0.0 -4.541531779117079e-15 0.0 0.010000039050228738 0.009999803005821161 0.0 -3.553196802607002e-15 0.0 0.01 0.0 -3.553196802607002e-15 0.0 0.010000021950072274 0.009999803505791648 0.0 -1.5916261384690388e-15 0.0 0.01 0.0 -1.5916261384690388e-15 0.0 0.010000013200026137 0.00999980450573285 0.0 -5.641152443369776e-16 0.0 0.01 0.0 -5.641152443369776e-16 0.0 0.010000009300012973 0.009999805005703565 0.0 -1.4931852467806596e-16 0.0 0.01 0.0 -1.4931852467806596e-16 0.0 0.010000006350006049 0.009999805505674354 0.0 -3.5019671918056506e-17 0.0 0.01 0.0 -3.5019671918056506e-17 0.0 0.010000004400002904 0.009999805505674354 0.0 -3.2038878011881023e-18 0.0 0.01 0.0 -3.2038878011881023e-18 0.0 0.010000003900002281 0.009999850503352456 0.0 7.503776224038077e-14 0.0 0.01 0.0 7.503776224038077e-14 0.0 0.010000172354455808 0.009999852503263356 0.0 1.6334305094228002e-14 0.0 0.01 0.0 1.63343050943314e-14 0.0 0.010000100601518078 0.009999854503175462 0.0 -2.800561846909271e-15 0.0 0.01 0.0 -2.800561846909271e-15 0.0 0.010000054200440651 0.009999856503088767 0.0 -3.0797509633122867e-15 0.0 0.01 0.0 -3.0797509633122867e-15 0.0 0.010000028800124421 0.009999858003024527 0.0 -1.3483055385231144e-15 0.0 0.01 0.0 -1.3483055385231144e-15 0.0 0.010000016600041335 0.009999858503003266 0.0 -4.158748386918581e-16 0.0 0.01 0.0 -4.158748386918581e-16 0.0 0.010000010750017335 0.009999859502960968 0.0 -1.2902716172441224e-16 0.0 0.01 0.0 -1.2902716172441224e-16 0.0 0.010000007800009127 0.009999859502960968 0.0 -2.683319771422494e-17 0.0 0.01 0.0 -2.683319771422494e-17 0.0 0.010000004900003601 0.009999859502960968 0.0 -1.8279405903504324e-14 0.0 0.01 0.0 -1.8279405903504324e-14 0.0 0.010000004400002904 0.009999935500624033 0.0 1.0186477030555581e-13 0.0 0.01 0.0 1.0186477030514222e-13 0.0 0.010000234358238312 0.009999936500604831 0.0 2.654448018198459e-14 0.0 0.01 0.0 2.654448018198459e-14 0.0 0.010000135752764273 0.009999938000576594 0.0 -6.560908161180855e-16 0.0 0.01 0.0 -6.560908161180855e-16 0.0 0.010000070800751906 0.009999939000558148 0.0 -2.5386814990152446e-15 0.0 0.01 0.0 -2.538681498963546e-15 0.0 0.010000037100206466 0.009999940500531034 0.0 -9.892137873066224e-16 0.0 0.01 0.0 -9.892137873066224e-16 0.0 0.010000021000066152 0.009999941000522145 0.0 -2.5428721991229774e-16 0.0 0.01 0.0 -2.5428721991229774e-16 0.0 0.010000012200022326 0.009999941500513332 0.0 -3.6124261194278125e-17 0.0 0.01 0.0 -3.6124261194278125e-17 0.0 0.010000008800011615 0.009999942000504594 0.0 -1.0957548285077264e-17 0.0 0.01 0.0 -1.0957548285077264e-17 0.0 0.010000005850005133 0.009999942000504594 0.0 -1.1874194327249247e-13 0.0 0.01 0.0 -1.1874194327249247e-13 0.0 0.010000004400002904 0.01000004150025834 0.0 1.0165930969542576e-13 0.0 0.01 0.0 1.0165930969542576e-13 0.0 0.010000300813572777 0.010000041500258338 0.0 2.8060236809909144e-14 0.0 0.01 0.0 2.8060236809495554e-14 0.0 0.010000173354507662 0.010000042000264601 0.0 -3.24372139593936e-16 0.0 0.01 0.0 -3.24372139593936e-16 0.0 0.010000090351224488 0.010000042950276705 0.0 -2.1035325780457233e-15 0.0 0.01 0.0 -2.1035325780457233e-15 0.0 0.010000045400309176 0.01000004345028319 0.0 -7.184558659702313e-16 0.0 0.01 0.0 -7.184558659702313e-16 0.0 0.010000024900093003 0.010000043450283188 0.0 -1.2508361071945554e-16 0.0 0.01 0.0 -1.2508361071945554e-16 0.0 0.010000014150030033 0.010000043950289743 0.0 1.4632310862533e-17 0.0 0.01 0.0 1.4632310862533e-17 0.0 0.01000000975001426 0.010000043950289743 0.0 7.504941687937632e-18 0.0 0.01 0.0 7.504941687937632e-18 0.0 0.010000006850007037 0.010000043950289743 0.0 2.5221603907680763e-13 0.0 0.01 0.0 2.5221603907680763e-13 0.0 0.010000004900003601 0.010000150903415708 0.0 8.162712359510752e-14 0.0 0.01 0.0 8.16271235959347e-14 0.0 0.010000364769957597 0.010000150403393113 0.0 2.0865897344339215e-14 0.0 0.01 0.0 2.0865897344339215e-14 0.0 0.010000209956612086 0.01000014940334814 0.0 -6.1154115230736e-16 0.0 0.01 0.0 -6.1154115230736e-16 0.0 0.010000107901746394 0.010000148953327997 0.0 -1.9176067840396855e-15 0.0 0.01 0.0 -1.9176067840913843e-15 0.0 0.01000005420044065 0.010000148953327997 0.0 -5.356967928162494e-16 0.0 0.01 0.0 -5.356967928162494e-16 0.0 0.010000028300120135 0.010000148953327997 0.0 -5.911142288381123e-17 0.0 0.01 0.0 -5.911142288381123e-17 0.0 0.010000016600041335 0.010000148953327997 0.0 1.7704545112622754e-17 0.0 0.01 0.0 1.7704545112622754e-17 0.0 0.010000010750017335 0.010000148453305692 0.0 7.257031542647266e-18 0.0 0.01 0.0 7.257031542647266e-18 0.0 0.010000007300007994 0.010000148453305692 0.0 -1.382071039903922e-13 0.0 0.01 0.0 -1.382071039903922e-13 0.0 0.010000005350004294 0.010000241708763187 0.0 4.751441305415304e-14 0.0 0.01 0.0 4.751441305415304e-14 0.0 0.01000041947639259 0.010000239758622352 0.0 9.842729576073659e-15 0.0 0.01 0.0 9.842729589308549e-15 0.0 0.010000241208726966 0.010000238308518376 0.0 -1.9419314791205417e-15 0.0 0.01 0.0 -1.9419314791205417e-15 0.0 0.010000124502325089 0.010000237808482661 0.0 -1.5029903765242673e-15 0.0 0.01 0.0 -1.5029903765242673e-15 0.0 0.010000061500567344 0.010000237308447027 0.0 -4.113297502340617e-16 0.0 0.01 0.0 -4.113297502340617e-16 0.0 0.010000031750151211 0.010000236358379528 0.0 -6.373228680772322e-17 0.0 0.01 0.0 -6.373228680772322e-17 0.0 0.010000018550051615 0.010000236358379528 0.0 1.545619458772034e-17 0.0 0.01 0.0 1.545619458772034e-17 0.0 0.010000011700020532 0.010000235858344112 0.0 9.262533523428315e-18 0.0 0.01 0.0 9.262533523428315e-18 0.0 0.010000007800009127 0.010000235858344112 0.0 4.423535157500355e-18 0.0 0.01 0.0 4.423535157500355e-18 0.0 0.010000006350006049 0.01000029686321864 0.0 2.0413630847603882e-14 0.0 0.01 0.0 2.0413630848017472e-14 0.0 0.01000046293214394 0.010000294463005762 0.0 2.1562258366737064e-15 0.0 0.01 0.0 2.1562258366737064e-15 0.0 0.010000265610581975 0.01000029346291757 0.0 -2.3246872433896454e-15 0.0 0.01 0.0 -2.3246872433896454e-15 0.0 0.010000136702803098 0.010000292012790223 0.0 -1.1629744457535152e-15 0.0 0.01 0.0 -1.1629744457535152e-15 0.0 0.010000067400681422 0.010000291512746456 0.0 -3.207130534409307e-16 0.0 0.01 0.0 -3.207130534409307e-16 0.0 0.010000034200175447 0.010000290562663508 0.0 -6.023299674356093e-17 0.0 0.01 0.0 -6.023299674356093e-17 0.0 0.01000001955005733 0.01000029006261996 0.0 4.09610621497844e-18 0.0 0.01 0.0 4.09610621497844e-18 0.0 0.010000012700024194 0.01000029006261996 0.0 4.9412496816349666e-14 0.0 0.01 0.0 4.9412496816349666e-14 0.0 0.010000008800011615 0.010000289562576488 0.0 -4.646004539184385e-14 0.0 0.01 0.0 -4.646004539184385e-14 0.0 0.010000006350006049 0.010000313514743108 0.0 5.744271460469903e-15 0.0 0.01 0.0 5.744271460469903e-15 0.0 0.010000493686556557 0.01000031106451357 0.0 -9.534252847022676e-16 0.0 0.01 0.0 -9.534252846505688e-16 0.0 0.010000283212030905 0.010000309114332162 0.0 -1.5758008029064948e-15 0.0 0.01 0.0 -1.5758008029064948e-15 0.0 0.010000145503175616 0.01000030761419339 0.0 -6.99512856680753e-16 0.0 0.01 0.0 -6.99512856680753e-16 0.0 0.010000071300762562 0.010000306664105856 0.0 -2.1457187329148615e-16 0.0 0.01 0.0 -2.1457187329148615e-16 0.0 0.010000036150196024 0.010000305664014003 0.0 -4.519981018248725e-17 0.0 0.01 0.0 -4.519981018248725e-17 0.0 0.01000002100006615 0.010000305213972766 0.0 -1.324807823020034e-17 0.0 0.01 0.0 -1.324807823020034e-17 0.0 0.010000013200026137 0.010000305213972766 0.0 3.4443381789255657e-18 0.0 0.01 0.0 3.4443381789255657e-18 0.0 0.010000008800011615 0.010000305213972766 0.0 -2.92278590886553e-18 0.0 0.01 0.0 -2.92278590886553e-18 0.0 0.010000006850007037 0.010000298363352571 0.0 5.063960177924939e-16 0.0 0.01 0.0 5.063960177924939e-16 0.0 0.010000512239355686 0.0100002964131786 0.0 -1.1893720199129747e-15 0.0 0.01 0.0 -1.189372021567336e-15 0.0 0.01000029396296163 0.010000294463005759 0.0 -8.273890590882484e-16 0.0 0.01 0.0 -8.273890590882484e-16 0.0 0.01000015040339311 0.010000293462917568 0.0 -3.5023631094304517e-16 0.0 0.01 0.0 -3.5023631094304517e-16 0.0 0.01000007375081587 0.010000292012790223 0.0 -9.818455924421398e-17 0.0 0.01 0.0 -9.818455924421398e-17 0.0 0.010000037600212066 0.010000291512746456 0.0 -2.270141283324827e-17 0.0 0.01 0.0 -2.270141283324827e-17 0.0 0.010000021500069338 0.010000291012702767 0.0 -6.449227214476999e-18 0.0 0.01 0.0 -6.449227214476999e-18 0.0 0.010000013650027948 0.010000291012702767 0.0 -4.8174826485172675e-14 0.0 0.01 0.0 -4.8174826485172675e-14 0.0 0.010000009300012973 0.010000291012702767 0.0 2.63655978598045e-14 0.0 0.01 0.0 2.63655978598045e-14 0.0 0.010000006850007037 0.010000267610741943 0.0 -4.474643661382557e-16 0.0 0.01 0.0 -4.474643661382557e-16 0.0 0.010000520540641563 0.010000265160546145 0.0 -3.6191375249049276e-16 0.0 0.01 0.0 -3.6191375249049276e-16 0.0 0.010000298863397369 0.010000263660427156 0.0 -2.2077539771778482e-16 0.0 0.01 0.0 -2.2077539771778482e-16 0.0 0.010000153303525224 0.010000262710352148 0.0 -7.21740481280313e-17 0.0 0.01 0.0 -7.21740481280313e-17 0.0 0.010000075200848266 0.01000026126023818 0.0 -2.4710549085970792e-17 0.0 0.01 0.0 -2.4710549085970792e-17 0.0 0.010000039050228738 0.010000260760199027 0.0 -8.96139950866804e-18 0.0 0.01 0.0 -8.96139950866804e-18 0.0 0.01000002195007227 0.01000026026015995 0.0 -4.600800469383253e-18 0.0 0.01 0.0 -4.600800469383253e-18 0.0 0.010000014150030033 0.01000026026015995 0.0 6.63753655743588e-15 0.0 0.01 0.0 6.63753655743588e-15 0.0 0.010000009300012973 0.010000259760120948 0.0 -5.056329284060974e-14 0.0 0.01 0.0 -5.056329284060974e-14 0.0 0.010000006850007037 0.010000233908206702 0.0 3.149820799907986e-16 0.0 0.01 0.0 3.149820799907986e-16 0.0 0.010000522490946665 0.010000232408101778 0.0 1.3722677937944794e-16 0.0 0.01 0.0 1.3722677937944794e-16 0.0 0.010000299313437743 0.010000230457966386 0.0 3.439792709312596e-17 0.0 0.01 0.0 3.439792709312596e-17 0.0 0.010000153803548257 0.010000230007935302 0.0 4.0513089219532355e-18 0.0 0.01 0.0 4.0513089219532355e-18 0.0 0.010000075700859585 0.01000022900786645 0.0 -3.3470822991271257e-15 0.0 0.01 0.0 -3.3470822991271257e-15 0.0 0.010000039050228738 0.010000228057801316 0.0 5.61845216756329e-15 0.0 0.01 0.0 5.61845216756329e-15 0.0 0.01000002195007227 0.010000228057801316 0.0 -6.310026226503823e-15 0.0 0.01 0.0 -6.310026226503823e-15 0.0 0.010000014150030033 0.010000227557767144 0.0 -1.2617620898201758e-15 0.0 0.01 0.0 -1.2617620898201758e-15 0.0 0.010000009300012973 0.010000227557767144 0.0 1.0259607843427448e-15 0.0 0.01 0.0 1.0259607843427448e-15 0.0 0.010000006850007037 0.010000205106310117 0.0 1.7569998334261704e-15 0.0 0.01 0.0 1.7569998334261704e-15 0.0 0.010000517140112318 0.010000204106248734 0.0 3.709161662087156e-16 0.0 0.01 0.0 3.709161662087156e-16 0.0 0.010000296413178596 0.010000202656160261 0.0 -3.8444099246901257e-17 0.0 0.01 0.0 -3.8444099246901257e-17 0.0 0.010000151853458851 0.010000201656099612 0.0 -3.754966283652456e-17 0.0 0.01 0.0 -3.754966283652456e-17 0.0 0.010000075200848266 0.010000200706042276 0.0 -1.135380295901783e-17 0.0 0.01 0.0 -1.135380295901783e-17 0.0 0.010000038550222917 0.010000200206012206 0.0 -4.002279616025553e-18 0.0 0.01 0.0 -4.002279616025553e-18 0.0 0.01000002195007227 0.010000200206012206 0.0 -2.785651715780541e-18 0.0 0.01 0.0 -2.785651715780541e-18 0.0 0.010000014150030033 0.010000199705982213 0.0 -3.879640425285832e-15 0.0 0.01 0.0 -3.879640425285832e-15 0.0 0.010000009300012973 0.010000199705982213 0.0 2.3088674617882004e-14 0.0 0.01 0.0 2.3088674617882004e-14 0.0 0.010000006850007037 0.010000182154976946 0.0 3.1829539772948952e-15 0.0 0.01 0.0 3.1829539772948952e-15 0.0 0.010000505888385872 0.010000181154922448 0.0 5.156323831713861e-16 0.0 0.01 0.0 5.156323831713861e-16 0.0 0.010000290562663508 0.010000179704843957 0.0 -2.5181986597990275e-16 0.0 0.01 0.0 -2.5181986597990275e-16 0.0 0.010000149403348138 0.010000178704790197 0.0 -1.6880753462714817e-16 0.0 0.01 0.0 -1.6880753462714817e-16 0.0 0.010000073250804846 0.0100001777547394 0.0 -5.54748278120509e-17 0.0 0.01 0.0 -5.54748278120509e-17 0.0 0.010000037100206463 0.010000177254712774 0.0 -7.35118265714089e-18 0.0 0.01 0.0 -7.35118265714089e-18 0.0 0.010000021500069338 0.010000177254712774 0.0 -7.731679242000746e-14 0.0 0.01 0.0 -7.731679242000746e-14 0.0 0.010000014150030033 0.010000176754686223 0.0 -9.310282770246741e-14 0.0 0.01 0.0 -9.310282770246741e-14 0.0 0.010000009300012973 0.010000176754686223 0.0 -4.953553128327147e-14 0.0 0.01 0.0 -4.953553128327147e-14 0.0 0.010000006850007037 0.010000162103941569 0.0 6.099681405990352e-15 0.0 0.01 0.0 6.099681405938653e-15 0.0 0.010000489785981196 0.010000160153847306 0.0 9.354835176124645e-16 0.0 0.01 0.0 9.354835176124645e-16 0.0 0.010000280761823637 0.010000158703777955 0.0 -4.760348478688708e-16 0.0 0.01 0.0 -4.760348477654733e-16 0.0 0.010000144053112635 0.010000157703730491 0.0 -2.855586774849498e-16 0.0 0.01 0.0 -2.855586774849498e-16 0.0 0.010000070800751906 0.010000157253709232 0.0 -7.373469901635322e-17 0.0 0.01 0.0 -7.373469901635322e-17 0.0 0.010000036600200936 0.010000156253662204 0.0 9.193916534583441e-14 0.0 0.01 0.0 9.193916534583441e-14 0.0 0.01000002100006615 0.010000155753638804 0.0 3.991897484219178e-18 0.0 0.01 0.0 3.991897484219178e-18 0.0 0.010000013650027948 0.010000155753638804 0.0 1.8311101699845232e-14 0.0 0.01 0.0 1.8311101699845232e-14 0.0 0.010000009300012973 0.010000155753638804 0.0 1.3226125245245787e-14 0.0 0.01 0.0 1.3226125245245787e-14 0.0 0.010000006850007037 0.010000139152904479 0.0 8.989136493835206e-15 0.0 0.01 0.0 8.989136493835206e-15 0.0 0.010000468282891278 0.010000137202823643 0.0 1.552804156729323e-15 0.0 0.01 0.0 1.552804156729323e-15 0.0 0.01000026856081835 0.010000135252743946 0.0 -5.691124933697912e-16 0.0 0.01 0.0 -5.691124933697912e-16 0.0 0.010000138202864951 0.010000134752723697 0.0 -3.267143988148865e-16 0.0 0.01 0.0 -3.267143988148865e-16 0.0 0.01000006785069055 0.010000133302665394 0.0 -5.077214788309358e-17 0.0 0.01 0.0 -5.077214788309358e-17 0.0 0.010000035150185329 0.010000132802645435 0.0 2.4077994867349642e-17 0.0 0.01 0.0 2.4077994867349642e-17 0.0 0.01000002000006 0.010000132802645435 0.0 1.9985574684240834e-17 0.0 0.01 0.0 1.9985574684240834e-17 0.0 0.010000013200026137 0.01000013185260772 0.0 4.5021690346002855e-18 0.0 0.01 0.0 4.5021690346002855e-18 0.0 0.010000008800011615 0.01000013185260772 0.0 3.6016353821234344e-18 0.0 0.01 0.0 3.6016353821234344e-18 0.0 0.010000006850007037 0.010000110851843194 0.0 1.2794793342391132e-14 0.0 0.01 0.0 1.2794793342391132e-14 0.0 0.0100004419292935 0.010000108901778916 0.0 2.0582957073356305e-15 0.0 0.01 0.0 2.0582957073356305e-15 0.0 0.010000253409632143 0.010000106951715776 0.0 -7.249289537399958e-16 0.0 0.01 0.0 -7.249289537399958e-16 0.0 0.010000130352548724 0.01000010595168384 0.0 -2.3682575824370327e-16 0.0 0.01 0.0 -2.3682575824370327e-16 0.0 0.010000064450623077 0.010000104501638067 0.0 7.012472342207504e-17 0.0 0.01 0.0 7.012472342207504e-17 0.0 0.010000033200165338 0.010000103501606865 0.0 9.314514723876559e-17 0.0 0.01 0.0 9.314514723876559e-17 0.0 0.010000019050054435 0.010000103501606865 0.0 4.5751360514758715e-17 0.0 0.01 0.0 4.5751360514758715e-17 0.0 0.010000012200022326 0.010000103051592922 0.0 2.157336744751931e-17 0.0 0.01 0.0 2.157336744751931e-17 0.0 0.010000008800011615 0.010000103051592922 0.0 7.139974666989822e-18 0.0 0.01 0.0 7.139974666989822e-18 0.0 0.010000006350006049 0.010000079100938536 0.0 1.5545531225597278e-14 0.0 0.01 0.0 1.5545531225597278e-14 0.0 0.01000041162541393 0.010000076150869836 0.0 2.347720148912646e-15 0.0 0.01 0.0 2.347720148912646e-15 0.0 0.01000023635837953 0.010000074200825859 0.0 -4.438502507998563e-16 0.0 0.01 0.0 -4.438502507998563e-16 0.0 0.01000012160221803 0.010000072750793895 0.0 -7.510958555284696e-18 0.0 0.01 0.0 -7.510958555284696e-18 0.0 0.010000059550531935 0.010000071800773296 0.0 2.6146595161656515e-16 0.0 0.01 0.0 2.6146595161656515e-16 0.0 0.010000031250146485 0.010000071300762562 0.0 1.943688796065598e-16 0.0 0.01 0.0 1.943688796065598e-16 0.0 0.010000018550051615 0.010000070800751906 0.0 8.176174680352738e-17 0.0 0.01 0.0 8.176174680352738e-17 0.0 0.010000011700020532 0.010000070800751906 0.0 1.3505998248632182e-17 0.0 0.01 0.0 1.3505998248632182e-17 0.0 0.010000008300010334 0.010000070800751906 0.0 7.232188694428419e-18 0.0 0.01 0.0 7.232188694428419e-18 0.0 0.010000006350006049 0.010000046400322947 0.0 1.4806907106968854e-14 0.0 0.01 0.0 1.4806907106865457e-14 0.0 0.010000378921536143 0.010000042000264603 0.0 2.3239172886311336e-15 0.0 0.01 0.0 2.3239172886311336e-15 0.0 0.010000217307083151 0.010000040050240602 0.0 -3.5661275772842965e-16 0.0 0.01 0.0 -3.5661275772842965e-16 0.0 0.01000011180187492 0.01000003855022292 0.0 2.98200208550569e-16 0.0 0.01 0.0 2.98200208550569e-16 0.0 0.010000055650464546 0.010000038100217747 0.0 4.58036706339446e-16 0.0 0.01 0.0 4.58036706339446e-16 0.0 0.010000028800124421 0.010000036600200938 0.0 2.843790356722147e-16 0.0 0.01 0.0 2.843790356722147e-16 0.0 0.010000017100043864 0.010000036600200936 0.0 1.1641629557695975e-16 0.0 0.01 0.0 1.1641629557695975e-16 0.0 0.010000011250018984 0.010000036150196024 0.0 1.2797814909634534e-17 0.0 0.01 0.0 1.2797814909634534e-17 0.0 0.010000007300007994 0.010000036150196024 0.0 1.229908140687425e-17 0.0 0.01 0.0 1.229908140687425e-17 0.0 0.010000006350006049 0.010000016100038884 0.0 1.3144029828947921e-14 0.0 0.01 0.0 1.3144029828947921e-14 0.0 0.010000345717927309 0.010000012200022326 0.0 1.6216374911266737e-15 0.0 0.01 0.0 1.6216374911266737e-15 0.0 0.010000198255895654 0.010000009300012973 0.0 -8.261072100090183e-18 0.0 0.01 0.0 -8.261072100090183e-18 0.0 0.010000102551577501 0.010000007800009128 0.0 5.948242784950014e-16 0.0 0.01 0.0 5.948242784950014e-16 0.0 0.010000050800387102 0.010000006850007037 0.0 6.871990253317002e-16 0.0 0.01 0.0 6.87199025383399e-16 0.0 0.010000027350112205 0.01000000685000704 0.0 3.6970120772585704e-16 0.0 0.01 0.0 3.6970120772585704e-16 0.0 0.010000016100038884 0.010000005850005132 0.0 1.391738264831117e-16 0.0 0.01 0.0 1.391738265348105e-16 0.0 0.010000010750017333 0.010000005850005132 0.0 5.11717809180551e-17 0.0 0.01 0.0 5.11717809180551e-17 0.0 0.010000007300007992 0.010000005850005132 0.0 1.5612511283791264e-17 0.0 0.01 0.0 1.5612511283791264e-17 0.0 0.010000005850005132 0.009999992500008442 0.0 8.072922838525418e-15 0.0 0.01 0.0 8.07292283847372e-15 0.0 0.010000312514649203 0.00999998700002535 0.0 3.9445039828413825e-16 0.0 0.01 0.0 3.9445039828413825e-16 0.0 0.010000179704843957 0.009999984500036037 0.0 5.239124601530767e-16 0.0 0.01 0.0 5.239124601530767e-16 0.0 0.010000093251304354 0.009999982500045941 0.0 1.137909659648114e-15 0.0 0.01 0.0 1.137909659648114e-15 0.0 0.010000046850329243 0.009999981500051337 0.0 8.609651411349961e-16 0.0 0.01 0.0 8.609651410832973e-16 0.0 0.010000025400096774 0.009999981000054153 0.0 4.387689366098482e-16 0.0 0.01 0.0 4.387689366098482e-16 0.0 0.01000001515003443 0.009999981000054151 0.0 1.6089268382576678e-16 0.0 0.01 0.0 1.6089268382576678e-16 0.0 0.01000001025001576 0.009999980500057038 0.0 8.456581524613454e-17 0.0 0.01 0.0 8.456581524613454e-17 0.0 0.010000007300007994 0.009999980500057038 0.0 1.8219765194782942e-17 0.0 0.01 0.0 1.8219765194782942e-17 0.0 0.010000005850005133 0.009999975000093751 0.0 -5.903073844146097e-13 0.0 0.01 0.0 -5.903073844146097e-13 0.0 0.010000281761908019 0.00999996900014415 0.0 -3.37550396399829e-16 0.0 0.01 0.0 -3.37550396399829e-16 0.0 0.0100001635540124 0.009999965000183752 0.0 1.7389178593905606e-15 0.0 0.01 0.0 1.7389178593905606e-15 0.0 0.010000085451095273 0.00999996300020535 0.0 1.9630799021080663e-15 0.0 0.01 0.0 1.9630799021080663e-15 0.0 0.010000042950276709 0.009999962000216599 0.0 1.1317495800206693e-15 0.0 0.01 0.0 1.1317495799689705e-15 0.0 0.010000023450082485 0.009999961500222337 0.0 4.70290787537722e-16 0.0 0.01 0.0 4.70290787537722e-16 0.0 0.010000014650032193 0.009999961500222337 0.0 9.285596152003994e-17 0.0 0.01 0.0 9.285596152003994e-17 0.0 0.01000001025001576 0.009999961000228149 0.0 4.5091653088645056e-17 0.0 0.01 0.0 4.5091653088645056e-17 0.0 0.010000007300007994 0.009999960500234035 0.0 1.5028895142401198e-17 0.0 0.01 0.0 1.5028895142401198e-17 0.0 0.010000005850005133 0.00999996450018904 0.0 4.004546561686668e-12 0.0 0.01 0.0 4.004546561686668e-12 0.0 0.010000255859819307 0.009999956500283838 0.0 2.2226952579080178e-13 0.0 0.01 0.0 2.2226952579245614e-13 0.0 0.01000014940334814 0.009999952000345598 0.0 4.421742277902138e-15 0.0 0.01 0.0 4.421742277902138e-15 0.0 0.010000079100938536 0.009999950000374996 0.0 3.2477259156823856e-15 0.0 0.01 0.0 3.2477259156823856e-15 0.0 0.01000004100025215 0.009999948000405597 0.0 1.511461450485211e-15 0.0 0.01 0.0 1.5114614504593616e-15 0.0 0.0100000224500756 0.009999947000421346 0.0 4.829473294176055e-16 0.0 0.01 0.0 4.829473294176055e-16 0.0 0.010000013650027948 0.009999947000421346 0.0 8.567241920313297e-17 0.0 0.01 0.0 8.567241920313297e-17 0.0 0.01000000975001426 0.009999947000421346 0.0 2.1843633762431573e-17 0.0 0.01 0.0 2.1843633762431573e-17 0.0 0.010000007300007994 0.009999947000421346 0.0 1.2048868784557901e-17 0.0 0.01 0.0 1.2048868784557901e-17 0.0 0.010000005850005133 0.009999959500246033 0.0 4.893367124179183e-11 0.0 0.01 0.0 4.893367124179183e-11 0.0 0.010000232908136676 0.009999950500367538 0.0 4.996061635481767e-12 0.0 0.01 0.0 4.9960616354288275e-12 0.0 0.010000139152904477 0.009999945000453748 0.0 9.27047209041955e-15 0.0 0.01 0.0 9.270472090316153e-15 0.0 0.010000075200848267 0.009999941500513334 0.0 5.6247175120658785e-15 0.0 0.01 0.0 5.6247175120658785e-15 0.0 0.010000039550234634 0.009999939500549036 0.0 2.1094011025117336e-15 0.0 0.01 0.0 2.109401102408336e-15 0.0 0.010000021950072274 0.009999938000576594 0.0 5.252274907978079e-16 0.0 0.01 0.0 5.252274907978079e-16 0.0 0.010000013650027948 0.00999993750058593 0.0 5.039265786815619e-17 0.0 0.01 0.0 5.039265786815619e-17 0.0 0.010000009300012973 0.00999993750058593 0.0 -1.9293712946135637e-17 0.0 0.01 0.0 -1.9293712946135637e-17 0.0 0.010000006850007037 0.009999937000595344 0.0 9.430897653766418e-18 0.0 0.01 0.0 9.430897653766418e-18 0.0 0.010000005850005133 0.009999959500246042 0.0 2.1670170235541376e-10 0.0 0.01 0.0 2.167017023537197e-10 0.0 0.010000214856924332 0.009999950000375 0.0 3.413952259356027e-11 0.0 0.01 0.0 3.413952259356027e-11 0.0 0.010000131352587982 0.009999942500495936 0.0 5.282892877543035e-13 0.0 0.01 0.0 5.28289287747686e-13 0.0 0.01000007375081587 0.009999938000576592 0.0 9.572935263669966e-15 0.0 0.01 0.0 9.572935263876761e-15 0.0 0.010000039550234631 0.009999935500624032 0.0 3.4723408879426852e-15 0.0 0.01 0.0 3.4723408879426852e-15 0.0 0.010000021950072272 0.009999933000673344 0.0 7.638743355630372e-16 0.0 0.01 0.0 7.638743355630372e-16 0.0 0.010000013200026138 0.00999993250068343 0.0 2.1080404468591607e-17 0.0 0.01 0.0 2.1080404468591607e-17 0.0 0.010000009300012973 0.00999993150070383 0.0 -8.679684234789492e-17 0.0 0.01 0.0 -8.679684234789492e-17 0.0 0.010000006850007037 0.00999993150070383 0.0 -7.89682138231285e-18 0.0 0.01 0.0 -7.89682138231285e-18 0.0 0.010000006350006049 0.009999963500199896 0.0 6.428108325881902e-10 0.0 0.01 0.0 6.428108325881902e-10 0.0 0.010000200706042335 0.009999954000317399 0.0 1.5131551007065808e-10 0.0 0.01 0.0 1.5131551007065808e-10 0.0 0.010000127952455735 0.009999946000437396 0.0 1.0764657925513068e-11 0.0 0.01 0.0 1.076465792540719e-11 0.0 0.010000074700837027 0.009999940000539996 0.0 1.6552070827744158e-14 0.0 0.01 0.0 1.6552070827744158e-14 0.0 0.010000041000252154 0.00999993550062403 0.0 6.16174055948243e-15 0.0 0.01 0.0 6.1617405592756345e-15 0.0 0.010000023450082485 0.009999933000673342 0.0 1.5921595588117407e-15 0.0 0.01 0.0 1.592159558760042e-15 0.0 0.010000013650027948 0.00999993150070383 0.0 1.0160553774527668e-16 0.0 0.01 0.0 1.0160553774527668e-16 0.0 0.010000009300012973 0.00999993000073499 0.0 -9.530022370558708e-17 0.0 0.01 0.0 -9.530022370558708e-17 0.0 0.010000007300007994 0.00999993000073499 0.0 -2.120429746230117e-17 0.0 0.01 0.0 -2.120429746230117e-17 0.0 0.010000005850005133 0.009999970000135326 0.0 1.4798656841104188e-09 0.0 0.01 0.0 1.4798656841104188e-09 0.0 0.010000188505330332 0.009999963500199868 0.0 4.862972786128406e-10 0.0 0.01 0.0 4.862972786128406e-10 0.0 0.010000126002381485 0.009999955000303746 0.0 8.013374787253796e-11 0.0 0.01 0.0 8.013374787253796e-11 0.0 0.010000078100914954 0.009999947500413435 0.0 3.707841101387754e-12 0.0 0.01 0.0 3.7078411013348146e-12 0.0 0.010000045400309177 0.009999941500513332 0.0 1.1642732067701862e-14 0.0 0.01 0.0 1.1642732067495067e-14 0.0 0.010000025900100622 0.009999937500585932 0.0 3.672678762904033e-15 0.0 0.01 0.0 3.672678762800635e-15 0.0 0.010000015600036506 0.009999934500643534 0.0 7.656709470768581e-16 0.0 0.01 0.0 7.656709470768581e-16 0.0 0.010000009750014261 0.009999933000673342 0.0 2.08041026998101e-17 0.0 0.01 0.0 2.08041026998101e-17 0.0 0.010000007300007994 0.00999993250068343 0.0 2.1581058978123663e-13 0.0 0.01 0.0 2.1581058978123663e-13 0.0 0.010000005850005133 0.009999981000055353 0.0 2.834082003393178e-09 0.0 0.01 0.0 2.834082003393178e-09 0.0 0.010000179204818242 0.00999997600008663 0.0 1.2430774531198199e-09 0.0 0.01 0.0 1.2430774531333724e-09 0.0 0.010000126452398722 0.009999968500148856 0.0 3.526173989910485e-10 0.0 0.01 0.0 3.526173989910485e-10 0.0 0.010000083001033383 0.009999960500234037 0.0 5.547940404167738e-11 0.0 0.01 0.0 5.547940404167738e-11 0.0 0.010000050800387104 0.00999995300033135 0.0 3.283412450515228e-12 0.0 0.01 0.0 3.283412450515228e-12 0.0 0.01000003025013726 0.009999947000421349 0.0 8.342597390065665e-15 0.0 0.01 0.0 8.342597389652074e-15 0.0 0.010000018550051618 0.009999943000487347 0.0 2.708268364570696e-15 0.0 0.01 0.0 2.7082683646223948e-15 0.0 0.010000011250018986 0.009999941000522147 0.0 6.920304352305614e-16 0.0 0.01 0.0 6.920304352305614e-16 0.0 0.010000007800009128 0.009999939000558145 0.0 1.6031505582335337e-16 0.0 0.01 0.0 1.6031505582335337e-16 0.0 0.010000006350006049 0.009999993500009552 0.0 4.630212434221948e-09 0.0 0.01 0.0 4.630212434276158e-09 0.0 0.010000170404358764 0.009999992000010612 0.0 2.5938747617360904e-09 0.0 0.01 0.0 2.5938747617631954e-09 0.0 0.010000126002382462 0.009999986500027515 0.0 1.0794560658202758e-09 0.0 0.01 0.0 1.0794560658202758e-09 0.0 0.010000087401146008 0.009999979000066163 0.0 3.232938530802593e-10 0.0 0.01 0.0 3.232938530802593e-10 0.0 0.010000057150489938 0.009999970500130538 0.0 6.576605560254501e-11 0.0 0.01 0.0 6.576605560085094e-11 0.0 0.010000036150196023 0.009999963500199837 0.0 7.775006530981579e-12 0.0 0.01 0.0 7.775006531405095e-12 0.0 0.010000021950072272 0.009999958000264599 0.0 3.264384263095645e-13 0.0 0.01 0.0 3.264384263095645e-13 0.0 0.010000014150030032 0.009999953500324335 0.0 2.3135636965335722e-15 0.0 0.01 0.0 2.3135636964818734e-15 0.0 0.01000000975001426 0.009999952000345598 0.0 5.395656559663296e-16 0.0 0.01 0.0 5.395656559663296e-16 0.0 0.010000007300007996 0.010000006850013472 0.0 6.548563439505006e-09 0.0 0.01 0.0 6.548563439559216e-09 0.0 0.010000163103996783 0.010000008300013328 0.0 4.4671368503151204e-09 0.0 0.01 0.0 4.4671368503693305e-09 0.0 0.010000124002309438 0.010000005850006042 0.0 2.459144885934208e-09 0.0 0.01 0.0 2.459144885934208e-09 0.0 0.010000091301251282 0.010000001000000326 0.0 1.0896270921678143e-09 0.0 0.01 0.0 1.0896270921407093e-09 0.0 0.01000006350060502 0.009999994000005421 0.0 3.885448422963171e-10 0.0 0.01 0.0 3.885448422827646e-10 0.0 0.010000042500270962 0.00999998650002734 0.0 1.0989843397766759e-10 0.0 0.01 0.0 1.0989843397766759e-10 0.0 0.010000028300120138 0.009999981000054147 0.0 2.270989926364856e-11 0.0 0.01 0.0 2.270989926364856e-11 0.0 0.010000018050048869 0.009999975500090038 0.0 3.0691160676696836e-12 0.0 0.01 0.0 3.0691160675638045e-12 0.0 0.010000012700024194 0.00999997250011344 0.0 1.202955047071113e-13 0.0 0.01 0.0 1.202955047071113e-13 0.0 0.01000000975001426 0.010000023950096209 0.0 8.234212688215323e-09 0.0 0.01 0.0 8.234212688323743e-09 0.0 0.010000156753695848 0.010000024900099264 0.0 6.459987878610837e-09 0.0 0.01 0.0 6.459987878502417e-09 0.0 0.01000012255225908 0.010000024900095866 0.0 4.3679140378401204e-09 0.0 0.01 0.0 4.3679140378401204e-09 0.0 0.010000093751321241 0.010000023450083434 0.0 2.5159173327581746e-09 0.0 0.01 0.0 2.5159173327581746e-09 0.0 0.010000068850712005 0.01000001905005467 0.0 1.2334807628425204e-09 0.0 0.01 0.0 1.2334807628425204e-09 0.0 0.01000004885035818 0.010000014150030075 0.0 5.104992024267986e-10 0.0 0.01 0.0 5.104992024267986e-10 0.0 0.01000003420017549 0.01000000880001162 0.0 1.7088295944825242e-10 0.0 0.01 0.0 1.708829594346999e-10 0.0 0.010000023950086043 0.010000004400002906 0.0 4.2243815237053613e-11 0.0 0.01 0.0 4.2243815237053613e-11 0.0 0.010000017100043864 0.010000001950000571 0.0 5.658917741547436e-12 0.0 0.01 0.0 5.658917741547436e-12 0.0 0.010000013650027948 0.010000049800385043 0.0 9.32261771187555e-09 0.0 0.01 0.0 9.32261771187555e-09 0.0 0.010000153803561292 0.010000044900312413 0.0 8.1684053930553e-09 0.0 0.01 0.0 8.16840539283846e-09 0.0 0.010000121102209837 0.010000043450289148 0.0 6.304614694457172e-09 0.0 0.01 0.0 6.304614694457172e-09 0.0 0.010000094751352618 0.010000043950292522 0.0 4.302949200077344e-09 0.0 0.01 0.0 4.3029491998605035e-09 0.0 0.010000072250785795 0.010000043450284175 0.0 2.5655238710363404e-09 0.0 0.01 0.0 2.5655238706026595e-09 0.0 0.010000054700449802 0.010000041500258598 0.0 1.3104490166615523e-09 0.0 0.01 0.0 1.3104490166615523e-09 0.0 0.01000004100025241 0.010000039050228783 0.0 5.523609833413268e-10 0.0 0.01 0.0 5.523609832329066e-10 0.0 0.01000003075014188 0.010000036150196028 0.0 1.7731127514592632e-10 0.0 0.01 0.0 1.7731127514592632e-10 0.0 0.010000023450082489 0.01000003420017545 0.0 3.320048169085056e-11 0.0 0.01 0.0 3.320048169423869e-11 0.0 0.010000019050054439 0.01000008545110465 0.0 7.907840164590382e-09 0.0 0.01 0.0 7.907840164373542e-09 0.0 0.01000015285351394 0.010000075700871764 0.0 9.010567990743248e-09 0.0 0.01 0.0 9.010567990526408e-09 0.0 0.010000121102212003 0.010000067850699621 0.0 7.776340772702728e-09 0.0 0.01 0.0 7.776340772269047e-09 0.0 0.010000095701382864 0.010000064450628236 0.0 5.864702290643564e-09 0.0 0.01 0.0 5.864702290643564e-09 0.0 0.010000075700864745 0.010000064450625373 0.0 3.912942180342438e-09 0.0 0.01 0.0 3.9129421820771615e-09 0.0 0.010000059550534231 0.010000064950633549 0.0 2.2599090983982384e-09 0.0 0.01 0.0 2.2599090983982384e-09 0.0 0.010000046850330008 0.010000065450642743 0.0 1.0868807004036328e-09 0.0 0.01 0.0 1.0868807004036328e-09 0.0 0.010000037600212246 0.010000064950632806 0.0 4.020457390673058e-10 0.0 0.01 0.0 4.0204573908085833e-10 0.0 0.010000029800133231 0.010000064950632786 0.0 8.57496685487927e-11 0.0 0.01 0.0 8.57496685487927e-11 0.0 0.010000025900100627 0.010000110851843193 0.0 5.731681891734948e-11 0.0 0.01 0.0 5.731681891734948e-11 0.0 0.01000015480359455 0.010000109851816218 0.0 6.392929746776993e-09 0.0 0.01 0.0 6.392929746776993e-09 0.0 0.01000012400231258 0.01000010350161599 0.0 7.798460079089242e-09 0.0 0.01 0.0 7.79846007822188e-09 0.0 0.010000099601497173 0.010000096201394979 0.0 6.7273809006146434e-09 0.0 0.01 0.0 6.727380901048324e-09 0.0 0.010000079600957227 0.010000090801240204 0.0 4.822226797344606e-09 0.0 0.01 0.0 4.8222267971277655e-09 0.0 0.010000064450626565 0.010000088851185479 0.0 2.959510259472123e-09 0.0 0.01 0.0 2.9595102596889633e-09 0.0 0.010000053200425851 0.01000008885118451 0.0 1.5192858141260118e-09 0.0 0.01 0.0 1.5192858141260118e-09 0.0 0.010000043950290088 0.01000009035122454 0.0 6.021567568436628e-10 0.0 0.01 0.0 6.021567568301103e-10 0.0 0.01000003760021212 0.010000090351224492 0.0 1.361153073459469e-10 0.0 0.01 0.0 1.361153073459469e-10 0.0 0.010000032700160399 0.010000117702079408 0.0 -3.024098953023635e-09 0.0 0.01 0.0 -3.024098953023635e-09 0.0 0.010000132302626925 0.010000128402474684 0.0 3.312236429792517e-09 0.0 0.01 0.0 3.3122364295756768e-09 0.0 0.010000106951717424 0.010000130852572597 0.0 5.3430125154969865e-09 0.0 0.01 0.0 5.3430125154969865e-09 0.0 0.010000086901137037 0.010000127952459054 0.0 4.704859565959549e-09 0.0 0.01 0.0 4.7048595658511286e-09 0.0 0.010000071300765884 0.010000124502326544 0.0 3.1205637400283023e-09 0.0 0.01 0.0 3.1205637400283023e-09 0.0 0.010000059100525387 0.010000122552253228 0.0 1.645006850788805e-09 0.0 0.01 0.0 1.645006850788805e-09 0.0 0.010000050300379924 0.010000122552252888 0.0 6.614384193761062e-10 0.0 0.01 0.0 6.614384193761062e-10 0.0 0.010000043950289809 0.010000122552252825 0.0 1.5147271576544967e-10 0.0 0.01 0.0 1.514727157688378e-10 0.0 0.010000040550246652 0.010000130352549007 0.0 -1.3755572461789621e-09 0.0 0.01 0.0 -1.375557246124752e-09 0.0 0.01000009960148833 0.010000146003197763 0.0 1.3800538579478768e-09 0.0 0.01 0.0 1.3800538579207718e-09 0.0 0.010000082051010129 0.010000154303571818 0.0 1.7404127947032253e-09 0.0 0.01 0.0 1.7404127947032253e-09 0.0 0.010000067850691003 0.010000160653871548 0.0 1.0948606928706936e-09 0.0 0.01 0.0 1.094860692884246e-09 0.0 0.01000005760049785 0.010000164554061648 0.0 4.6092191889802623e-10 0.0 0.01 0.0 4.609219188844737e-10 0.0 0.010000050800387128 0.010000167504208558 0.0 1.0638945567788716e-10 0.0 0.01 0.0 1.063894556761931e-10 0.0 0.010000046850329245 0.010000127952456875 0.0 -2.7596134635245184e-09 0.0 0.01 0.0 -2.7596134635245184e-09 0.0 0.01000008105098652 0.010000146003197579 0.0 -8.247118133401137e-10 0.0 0.01 0.0 -8.247118133401137e-10 0.0 0.010000065900651533 0.01000016015384731 0.0 -1.8274393152553246e-10 0.0 0.01 0.0 -1.8274393152214433e-10 0.0 0.01000005715048992 0.010000168454256433 0.0 -2.5009074486788418e-11 0.0 0.01 0.0 -2.5009074486364902e-11 0.0 0.010000053200424542 0.009999999999999998 0.0 0.0 0.0 0.01 0.0 0.0 0.0 0.009999999999999998 0.009999999999999998 0.0 0.0 0.0 0.01 0.0 0.0 0.0 0.009999999999999998 0.009999999999999998 0.0 0.0 0.0 0.01 0.0 0.0 0.0 0.009999999999999998 0.009999999999999998 0.0 0.0 0.0 0.01 0.0 0.0 0.0 0.009999999999999998 0.009999999999999998 0.0 0.0 0.0 0.01 0.0 0.0 0.0 0.009999999999999998 0.009999999999999998 0.0 0.0 0.0 0.01 0.0 0.0 0.0 0.009999999999999998 0.009999999999999998 0.0 0.0 0.0 0.01 0.0 0.0 0.0 0.009999999999999998 0.009999999999999998 0.0 0.0 0.0 0.01 0.0 0.0 0.0 0.009999999999999998 0.009999999999999998 0.0 0.0 0.0 0.01 0.0 0.0 0.0 0.009999999999999998 0.009999999999999998 0.0 0.0 0.0 0.01 0.0 0.0 0.0 0.009999999999999998 0.009999999999999998 0.0 0.0 0.0 0.01 0.0 0.0 0.0 0.009999999999999998 0.009999999999999998 0.0 0.0 0.0 0.01 0.0 0.0 0.0 0.009999999999999998 0.009999999999999998 0.0 0.0 0.0 0.01 0.0 0.0 0.0 0.009999999999999998 0.01 0.0 0.0 0.0 0.01 0.0 0.0 0.0 0.01 0.009999999999999998 0.0 0.0 0.0 0.01 0.0 0.0 0.0 0.009999999999999998 0.009999999999999998 0.0 0.0 0.0 0.01 0.0 0.0 0.0 0.009999999999999998 0.009999999999999998 0.0 0.0 0.0 0.01 0.0 0.0 0.0 0.009999999999999998 0.009999999999999998 0.0 0.0 0.0 0.01 0.0 0.0 0.0 0.009999999999999998 0.009999999999999998 0.0 0.0 0.0 0.01 0.0 0.0 0.0 0.009999999999999998 0.009999999999999998 0.0 0.0 0.0 0.01 0.0 0.0 0.0 0.009999999999999998 0.01 0.0 0.0 0.0 0.01 0.0 0.0 0.0 0.01 0.009999999999999998 0.0 0.0 0.0 0.01 0.0 0.0 0.0 0.009999999999999998 0.01 0.0 0.0 0.0 0.01 0.0 0.0 0.0 0.01 0.01 0.0 0.0 0.0 0.01 0.0 0.0 0.0 0.01 0.009999999999999998 0.0 0.0 0.0 0.01 0.0 0.0 0.0 0.009999999999999998 0.009999999999999998 0.0 0.0 0.0 0.01 0.0 0.0 0.0 0.009999999999999998 0.009999999999999998 0.0 0.0 0.0 0.01 0.0 0.0 0.0 0.009999999999999998 0.009999999999999998 0.0 0.0 0.0 0.01 0.0 0.0 0.0 0.009999999999999998 0.009999999999999998 0.0 0.0 0.0 0.01 0.0 0.0 0.0 0.009999999999999998 0.009999999999999998 0.0 0.0 0.0 0.01 0.0 0.0 0.0 0.009999999999999998 0.009999999999999998 0.0 0.0 0.0 0.01 0.0 0.0 0.0 0.009999999999999998 0.009999999999999998 0.0 0.0 0.0 0.01 0.0 0.0 0.0 0.009999999999999998 0.009999999999999998 0.0 0.0 0.0 0.01 0.0 0.0 0.0 0.009999999999999998 0.01 0.0 0.0 0.0 0.01 0.0 0.0 0.0 0.01 0.009999999999999998 0.0 0.0 0.0 0.01 0.0 0.0 0.0 0.009999999999999998 0.009999999999999998 0.0 0.0 0.0 0.01 0.0 0.0 0.0 0.009999999999999998 0.009999999999999998 0.0 0.0 0.0 0.01 0.0 0.0 0.0 0.009999999999999998 0.01 0.0 0.0 0.0 0.01 0.0 0.0 0.0 0.01 0.01 0.0 0.0 0.0 0.01 0.0 0.0 0.0 0.01 0.009999999999999998 0.0 0.0 0.0 0.01 0.0 0.0 0.0 0.009999999999999998 0.009999999999999998 0.0 0.0 0.0 0.01 0.0 0.0 0.0 0.009999999999999998 0.009999999999999998 0.0 0.0 0.0 0.01 0.0 0.0 0.0 0.009999999999999998 0.009999999999999998 0.0 0.0 0.0 0.01 0.0 0.0 0.0 0.009999999999999998 0.009999999999999998 0.0 0.0 0.0 0.01 0.0 0.0 0.0 0.009999999999999998 0.01 0.0 0.0 0.0 0.01 0.0 0.0 0.0 0.01 0.009999999999999998 0.0 0.0 0.0 0.01 0.0 0.0 0.0 0.009999999999999998 0.01 0.0 0.0 0.0 0.01 0.0 0.0 0.0 0.01 0.01 0.0 0.0 0.0 0.01 0.0 0.0 0.0 0.01 0.009999999999999998 0.0 0.0 0.0 0.01 0.0 0.0 0.0 0.009999999999999998 0.01 0.0 0.0 0.0 0.01 0.0 0.0 0.0 0.01 0.01 0.0 0.0 0.0 0.01 0.0 0.0 0.0 0.01 0.009999999999999998 0.0 0.0 0.0 0.01 0.0 0.0 0.0 0.009999999999999998 0.01 0.0 0.0 0.0 0.01 0.0 0.0 0.0 0.01 0.01 0.0 0.0 0.0 0.01 0.0 0.0 0.0 0.01 0.009999999999999998 0.0 0.0 0.0 0.01 0.0 0.0 0.0 0.009999999999999998 0.01 0.0 0.0 0.0 0.01 0.0 0.0 0.0 0.01 0.009999999999999998 0.0 0.0 0.0 0.01 0.0 0.0 0.0 0.009999999999999998 0.009999999999999998 0.0 0.0 0.0 0.01 0.0 0.0 0.0 0.009999999999999998 0.01 0.0 0.0 0.0 0.01 0.0 0.0 0.0 0.01 0.009999999999999998 0.0 0.0 0.0 0.01 0.0 0.0 0.0 0.009999999999999998 0.009999999999999998 0.0 0.0 0.0 0.01 0.0 0.0 0.0 0.009999999999999998 0.009999999999999998 0.0 0.0 0.0 0.01 0.0 0.0 0.0 0.009999999999999998 0.01 0.0 0.0 0.0 0.01 0.0 0.0 0.0 0.01 0.01 0.0 0.0 0.0 0.01 0.0 0.0 0.0 0.01 0.009999999999999998 0.0 0.0 0.0 0.01 0.0 0.0 0.0 0.009999999999999998 0.009999999999999998 0.0 0.0 0.0 0.01 0.0 0.0 0.0 0.009999999999999998 0.009999999999999998 0.0 0.0 0.0 0.01 0.0 0.0 0.0 0.009999999999999998 0.009999999999999998 0.0 0.0 0.0 0.01 0.0 0.0 0.0 0.009999999999999998 0.009999999999999998 0.0 0.0 0.0 0.01 0.0 0.0 0.0 0.009999999999999998 0.01 0.0 0.0 0.0 0.01 0.0 0.0 0.0 0.01 0.009999999999999998 0.0 0.0 0.0 0.01 0.0 0.0 0.0 0.009999999999999998 0.009999999999999998 0.0 0.0 0.0 0.01 0.0 0.0 0.0 0.009999999999999998 0.009999999999999998 0.0 0.0 0.0 0.01 0.0 0.0 0.0 0.009999999999999998 0.01 0.0 0.0 0.0 0.01 0.0 0.0 0.0 0.01 0.01 0.0 0.0 0.0 0.01 0.0 0.0 0.0 0.01 0.01 0.0 0.0 0.0 0.01 0.0 0.0 0.0 0.01 0.009999999999999998 0.0 0.0 0.0 0.01 0.0 0.0 0.0 0.009999999999999998 0.01 0.0 0.0 0.0 0.01 0.0 0.0 0.0 0.01 0.009999999999999998 0.0 0.0 0.0 0.01 0.0 0.0 0.0 0.009999999999999998 0.009999999999999998 0.0 0.0 0.0 0.01 0.0 0.0 0.0 0.009999999999999998 0.009999999500000037 0.0 -5.262968598927792e-19 0.0 0.01 0.0 -5.262968598927792e-19 0.0 0.01 0.009999999500000037 0.0 6.673262298640478e-13 0.0 0.01 0.0 6.673262298640478e-13 0.0 0.01 0.009999999500000037 0.0 -2.2986539995317027e-13 0.0 0.01 0.0 -2.2986539995317027e-13 0.0 0.01 0.009999999500000037 0.0 1.4937444996956841e-13 0.0 0.01 0.0 1.4937444996956841e-13 0.0 0.01 0.009999999500000037 0.0 5.774539098823572e-14 0.0 0.01 0.0 5.774539098823572e-14 0.0 0.01 0.009999999500000037 0.0 1.6697932996598183e-12 0.0 0.01 0.0 1.6697932996598183e-12 0.0 0.01 0.009999999500000037 0.0 6.89177559859596e-12 0.0 0.01 0.0 6.89177559859596e-12 0.0 0.01 0.009999999500000037 0.0 4.687146899045103e-12 0.0 0.01 0.0 4.687146899045103e-12 0.0 0.01 0.009999999500000037 0.0 -3.062871799376011e-19 0.0 0.01 0.0 -3.062871799376011e-19 0.0 0.01 0.009999999500000037 0.0 1.862380999620583e-13 0.0 0.01 0.0 1.862380999620583e-13 0.0 0.01 0.009999999500000037 0.0 -2.644885299461166e-13 0.0 0.01 0.0 -2.644885299461166e-13 0.0 0.01 0.009999999500000037 0.0 1.6885184996560035e-13 0.0 0.01 0.0 1.6885184996560035e-13 0.0 0.01 0.009999999500000037 0.0 -1.7070479996522284e-12 0.0 0.01 0.0 -1.7070479996522284e-12 0.0 0.01 0.009999999500000037 0.0 2.385848699513939e-12 0.0 0.01 0.0 2.385848699513939e-12 0.0 0.01 0.009999999500000037 0.0 5.887191998800621e-13 0.0 0.01 0.0 5.887191998800621e-13 0.0 0.01 0.009999999500000037 0.0 -2.1449196995630224e-13 0.0 0.01 0.0 -2.1449196995630224e-13 0.0 0.01 0.00999999900000015 0.0 -2.107538199570638e-18 0.0 0.01 0.0 -2.107538199570638e-18 0.0 0.01 0.00999999900000015 0.0 1.140061449767739e-13 0.0 0.01 0.0 1.140061449767739e-13 0.0 0.01 0.00999999900000015 0.0 -6.575749998660343e-13 0.0 0.01 0.0 -6.575749998660343e-13 0.0 0.01 0.00999999900000015 0.0 3.6110074992643416e-13 0.0 0.01 0.0 3.6110074992643416e-13 0.0 0.01 0.00999999900000015 0.0 -2.2522111495411644e-12 0.0 0.01 0.0 -2.2522111495411644e-12 0.0 0.01 0.00999999900000015 0.0 1.1253187997707425e-12 0.0 0.01 0.0 1.1253187997707425e-12 0.0 0.01 0.00999999900000015 0.0 2.0931282995735737e-12 0.0 0.01 0.0 2.0931282995735737e-12 0.0 0.01 0.00999999900000015 0.0 8.636821498240449e-12 0.0 0.01 0.0 8.636821498240449e-12 0.0 0.01 0.0099999980000006 0.0 1.5920604746756545e-19 0.0 0.01 0.0 1.5920604746756545e-19 0.0 0.01 0.0099999980000006 0.0 4.238438999136516e-13 0.0 0.01 0.0 4.238438999136516e-13 0.0 0.01 0.0099999980000006 0.0 -6.939592498586219e-13 0.0 0.01 0.0 -6.939592498586219e-13 0.0 0.01 0.0099999980000006 0.0 4.0838822491680037e-13 0.0 0.01 0.0 4.0838822491680037e-13 0.0 0.01 0.0099999980000006 0.0 -1.5777636746785673e-12 0.0 0.01 0.0 -1.5777636746785673e-12 0.0 0.01 0.0099999980000006 0.0 -5.399118498900055e-13 0.0 0.01 0.0 -5.399118498900055e-13 0.0 0.01 0.0099999980000006 0.0 4.847795249012375e-12 0.0 0.01 0.0 4.847795249012375e-12 0.0 0.01 0.0099999980000006 0.0 4.910131998999675e-12 0.0 0.01 0.0 4.910131998999675e-12 0.0 0.01 0.009999997500000938 0.0 -3.810796800609999e-19 0.0 0.01 0.0 -3.810796800609999e-19 0.0 0.01 0.009999997500000938 0.0 2.3288386003727796e-13 0.0 0.01 0.0 2.3288386003727796e-13 0.0 0.01 0.009999997500000938 0.0 -2.92588920046835e-13 0.0 0.01 0.0 -2.92588920046835e-13 0.0 0.01 0.009999997500000938 0.0 1.7466098602795819e-13 0.0 0.01 0.0 1.7466098602795819e-13 0.0 0.01 0.009999997500000938 0.0 -6.341083201015024e-13 0.0 0.01 0.0 -6.341083201015024e-13 0.0 0.01 0.009999997500000938 0.0 -3.261330400522045e-12 0.0 0.01 0.0 -3.261330400522045e-12 0.0 0.01 0.009999997500000938 0.0 2.3256414003722682e-12 0.0 0.01 0.0 2.3256414003722682e-12 0.0 0.01 0.009999997500000938 0.0 3.2984652005279887e-12 0.0 0.01 0.0 3.2984652005279887e-12 0.0 0.01 0.0099999960000024 0.0 -5.000585000118248e-18 0.0 0.01 0.0 -5.000585000118248e-18 0.0 0.01 0.0099999960000024 0.0 4.514557250106756e-13 0.0 0.01 0.0 4.514557250106756e-13 0.0 0.01 0.0099999960000024 0.0 3.2157216250760416e-13 0.0 0.01 0.0 3.2157216250760416e-13 0.0 0.01 0.0099999960000024 0.0 -2.2539433750532986e-13 0.0 0.01 0.0 -2.2539433750532986e-13 0.0 0.01 0.0099999960000024 0.0 8.123157125192088e-13 0.0 0.01 0.0 8.123157125192088e-13 0.0 0.01 0.0099999960000024 0.0 -3.066340375072509e-12 0.0 0.01 0.0 -3.066340375072509e-12 0.0 0.01 0.0099999960000024 0.0 3.348083250079172e-12 0.0 0.01 0.0 3.348083250079172e-12 0.0 0.01 0.0099999960000024 0.0 5.456777625129035e-12 0.0 0.01 0.0 5.456777625129035e-12 0.0 0.01 0.0099999940000054 0.0 -6.00270666635366e-19 0.0 0.01 0.0 -6.00270666635366e-19 0.0 0.01 0.0099999940000054 0.0 3.0840649998391834e-13 0.0 0.01 0.0 3.0840649998391834e-13 0.0 0.01 0.0099999940000054 0.0 -5.414108583051019e-13 0.0 0.01 0.0 -5.414108583051019e-13 0.0 0.01 0.0099999940000054 0.0 6.448247249663761e-13 0.0 0.01 0.0 6.448247249663761e-13 0.0 0.01 0.0099999940000054 0.0 -1.7881802499067567e-12 0.0 0.01 0.0 -1.7881802499067567e-12 0.0 0.01 0.0099999940000054 0.0 -2.544906659468451e-18 0.0 0.01 0.0 -2.544906659468451e-18 0.0 0.01 0.0099999940000054 0.0 -1.796855416572971e-13 0.0 0.01 0.0 -1.796855416572971e-13 0.0 0.01 0.0099999940000054 0.0 -4.2016187682260925e-18 0.0 0.01 0.0 -4.2016187682260925e-18 0.0 0.01 0.00999999100001215 0.0 8.30369166665324e-19 0.0 0.01 0.0 8.30369166665324e-19 0.0 0.01 0.00999999100001215 0.0 1.8347221666637e-13 0.0 0.01 0.0 1.8347221666637e-13 0.0 0.01 0.00999999100001215 0.0 -3.2613991111058377e-13 0.0 0.01 0.0 -3.2613991111058377e-13 0.0 0.01 0.00999999100001215 0.0 -7.454174444432393e-13 0.0 0.01 0.0 -7.454174444432393e-13 0.0 0.01 0.00999999100001215 0.0 4.339614444437428e-14 0.0 0.01 0.0 4.339614444437428e-14 0.0 0.01 0.00999999100001215 0.0 -1.861658388885879e-12 0.0 0.01 0.0 -1.861658388885879e-12 0.0 0.01 0.00999999100001215 0.0 1.92284388888578e-12 0.0 0.01 0.0 1.92284388888578e-12 0.0 0.01 0.00999999100001215 0.0 1.1254299444426248e-12 0.0 0.01 0.0 1.1254299444426248e-12 0.0 0.01 0.009999987500023438 0.0 7.530486000109583e-19 0.0 0.01 0.0 7.530486000109583e-19 0.0 0.01 0.009999987500023438 0.0 2.7114346000394567e-13 0.0 0.01 0.0 2.7114346000394567e-13 0.0 0.01 0.009999987500023438 0.0 7.571797600110184e-15 0.0 0.01 0.0 7.571797600110184e-15 0.0 0.01 0.009999987500023438 0.0 -7.768966800113055e-13 0.0 0.01 0.0 -7.768966800113055e-13 0.0 0.01 0.009999987500023438 0.0 1.3551528400197202e-14 0.0 0.01 0.0 1.3551528400197202e-14 0.0 0.01 0.009999987500023438 0.0 -7.18017553671751e-18 0.0 0.01 0.0 -7.18017553671751e-18 0.0 0.01 0.009999987500023438 0.0 -6.265332252664943e-18 0.0 0.01 0.0 -6.265332252664943e-18 0.0 0.01 0.009999987500023438 0.0 -1.5593390932846267e-17 0.0 0.01 0.0 -1.5593390932846267e-17 0.0 0.010000000500000038 0.009999981500051337 0.0 -4.127172432403214e-18 0.0 0.01 0.0 -4.127172432403214e-18 0.0 0.01 0.009999981500051337 0.0 1.4100374594494773e-13 0.0 0.01 0.0 1.4100374594494773e-13 0.0 0.01 0.009999981500051337 0.0 -6.496952702656709e-13 0.0 0.01 0.0 -6.496952702656709e-13 0.0 0.01 0.009999981500051337 0.0 -5.633805135095251e-13 0.0 0.01 0.0 -5.633805135095251e-13 0.0 0.01 0.009999981500051337 0.0 -5.246653513476371e-13 0.0 0.01 0.0 -5.246653513476371e-13 0.0 0.01 0.009999981500051337 0.0 -6.540526340980125e-18 0.0 0.01 0.0 -6.540526340980125e-18 0.0 0.010000000500000038 0.009999981500051337 0.0 -8.0323683130405e-18 0.0 0.01 0.0 -8.0323683130405e-18 0.0 0.010000000500000038 0.009999981500051337 0.0 -6.671317487854626e-18 0.0 0.01 0.0 -6.671317487854626e-18 0.0 0.010000000500000038 0.009999973000109349 0.0 -7.029039259247894e-19 0.0 0.01 0.0 -7.029039259247894e-19 0.0 0.01 0.009999973000109349 0.0 -2.9991157407358915e-13 0.0 0.01 0.0 -2.9991157407358915e-13 0.0 0.01 0.009999973000109349 0.0 -4.3907609259188267e-13 0.0 0.01 0.0 -4.3907609259188267e-13 0.0 0.01 0.009999973000109349 0.0 6.522981235205463e-13 0.0 0.01 0.0 6.522981235205463e-13 0.0 0.010000000500000038 0.009999973000109349 0.0 -6.6139848761188e-13 0.0 0.01 0.0 -6.6139848761188e-13 0.0 0.010000000500000038 0.009999973000109349 0.0 -7.259014145941539e-18 0.0 0.01 0.0 -7.259014145941539e-18 0.0 0.010000000500000038 0.009999973000109349 0.0 -1.623676845980611e-17 0.0 0.01 0.0 -1.623676845980611e-17 0.0 0.010000000500000038 0.009999973000109349 0.0 -2.531492387312276e-17 0.0 0.01 0.0 -2.531492387312276e-17 0.0 0.010000000500000038 0.009999961500222337 0.0 -9.990418576505527e-19 0.0 0.01 0.0 -9.990418576505527e-19 0.0 0.010000000500000038 0.009999961500222337 0.0 -2.990423482872922e-13 0.0 0.01 0.0 -2.990423482872922e-13 0.0 0.010000000500000038 0.009999961500222337 0.0 3.7635103164038194e-13 0.0 0.01 0.0 3.7635103164038194e-13 0.0 0.010000000500000038 0.009999961500222337 0.0 3.38939350282388e-13 0.0 0.01 0.0 3.38939350282388e-13 0.0 0.010000000500000038 0.009999961500222337 0.0 4.9538706129823005e-18 0.0 0.01 0.0 4.9538706129823005e-18 0.0 0.010000000500000038 0.009999961500222337 0.0 1.4130381475836856e-13 0.0 0.01 0.0 1.4130381475836856e-13 0.0 0.010000000500000038 0.009999962000216599 0.0 -7.984566686045577e-18 0.0 0.01 0.0 -7.984566686045577e-18 0.0 0.01000000100000015 0.009999962000216599 0.0 -2.6261940518352812e-17 0.0 0.01 0.0 -2.6261940518352812e-17 0.0 0.010000001450000314 0.009999946500429334 0.0 2.034713990621301e-18 0.0 0.01 0.0 2.034713990621301e-18 0.0 0.010000000500000038 0.009999946500429334 0.0 -3.146810990668799e-13 0.0 0.01 0.0 -3.146810990668799e-13 0.0 0.010000000500000038 0.009999946500429334 0.0 -1.843455832910554e-13 0.0 0.01 0.0 -1.843455832910554e-13 0.0 0.010000000500000038 0.009999946500429334 0.0 -1.9146162068388284e-13 0.0 0.01 0.0 -1.9146162068388284e-13 0.0 0.010000000500000038 0.009999946500429334 0.0 -2.288534406176031e-18 0.0 0.01 0.0 -2.288534406176031e-18 0.0 0.010000000500000038 0.009999946500429334 0.0 4.549374830687335e-18 0.0 0.01 0.0 4.549374830687335e-18 0.0 0.010000001450000314 0.009999946500429334 0.0 -1.5206427275643183e-17 0.0 0.01 0.0 -1.5206427275643183e-17 0.0 0.010000001450000314 0.009999947000421346 0.0 -7.727893323752986e-17 0.0 0.01 0.0 -7.727893323752986e-17 0.0 0.01000000195000057 0.00999992600082139 0.0 1.021487366514502e-18 0.0 0.01 0.0 1.021487366514502e-18 0.0 0.010000000500000038 0.00999992600082139 0.0 -1.393481613303551e-13 0.0 0.01 0.0 -1.393481613303551e-13 0.0 0.010000000500000038 0.00999992600082139 0.0 -5.197038702770214e-18 0.0 0.01 0.0 -5.197038702770214e-18 0.0 0.010000000500000038 0.00999992600082139 0.0 -3.590321378320322e-18 0.0 0.01 0.0 -3.590321378320322e-18 0.0 0.010000001450000314 0.00999992600082139 0.0 -8.950812092762124e-18 0.0 0.01 0.0 -8.950812092762124e-18 0.0 0.010000001450000314 0.00999992600082139 0.0 -2.4708553109048173e-17 0.0 0.01 0.0 -2.4708553109048173e-17 0.0 0.010000001450000314 0.00999992600082139 0.0 -7.798948212849858e-17 0.0 0.01 0.0 -7.798948212849858e-17 0.0 0.01000000195000057 0.00999992700079934 0.0 -1.5485320787803354e-16 0.0 0.01 0.0 -1.5485320787803354e-16 0.0 0.010000002950001304 0.009999900001499975 0.0 4.698433518482002e-18 0.0 0.01 0.0 4.698433518482002e-18 0.0 0.010000000500000038 0.009999900001499975 0.0 2.8541974652420692e-18 0.0 0.01 0.0 2.8541974652420692e-18 0.0 0.01000000100000015 0.009999900001499975 0.0 -2.1383216506161226e-14 0.0 0.01 0.0 -2.1383216506161226e-14 0.0 0.010000001450000314 0.009999900001499975 0.0 -1.640375053032456e-13 0.0 0.01 0.0 -1.640375053032456e-13 0.0 0.010000001450000314 0.009999900001499975 0.0 -1.5321234163286985e-17 0.0 0.01 0.0 -1.5321234163286985e-17 0.0 0.01000000195000057 0.009999900001499975 0.0 -7.372660619789508e-17 0.0 0.01 0.0 -7.372660619789508e-17 0.0 0.0100000024500009 0.009999900001499975 0.0 -2.1881037967264248e-16 0.0 0.01 0.0 -2.1881037967264248e-16 0.0 0.010000002950001304 0.009999900001499975 0.0 -3.3833100834332656e-16 0.0 0.01 0.0 -3.3833100834332656e-16 0.0 0.010000004400002904 0.009999869002574093 0.0 1.1480755156587924e-18 0.0 0.01 0.0 1.1480755156587924e-18 0.0 0.010000001450000314 0.009999869002574093 0.0 -2.374699453746974e-18 0.0 0.01 0.0 -2.374699453746974e-18 0.0 0.010000001450000314 0.009999869002574093 0.0 -4.741211566586184e-18 0.0 0.01 0.0 -4.741211566586184e-18 0.0 0.010000001450000314 0.009999869002574093 0.0 -1.084602554851993e-17 0.0 0.01 0.0 -1.084602554851993e-17 0.0 0.01000000195000057 0.009999869002574093 0.0 -5.73274595859807e-17 0.0 0.01 0.0 -5.73274595859807e-17 0.0 0.0100000024500009 0.00999986850259378 0.0 -2.2019278401024504e-16 0.0 0.01 0.0 -2.2019278401024504e-16 0.0 0.010000003400001733 0.009999869002574093 0.0 -4.443450402376013e-16 0.0 0.01 0.0 -4.443450402376013e-16 0.0 0.010000004900003601 0.009999869002574093 0.0 -9.483412184565121e-16 0.0 0.01 0.0 -9.483412184565121e-16 0.0 0.010000006350006049 0.00999983650400973 0.0 -3.4448398447703204e-18 0.0 0.01 0.0 -3.4448398447703204e-18 0.0 0.010000001450000314 0.00999983650400973 0.0 2.3864142713641678e-18 0.0 0.01 0.0 2.3864142713641678e-18 0.0 0.01000000195000057 0.00999983650400973 0.0 -5.051408092014566e-18 0.0 0.01 0.0 -5.051408092014566e-18 0.0 0.01000000195000057 0.00999983650400973 0.0 -3.291518035358307e-17 0.0 0.01 0.0 -3.291518035358307e-17 0.0 0.0100000024500009 0.00999983650400973 0.0 -1.5187554271896178e-16 0.0 0.01 0.0 -1.5187554271896178e-16 0.0 0.010000003400001733 0.00999983650400973 0.0 -4.615188366552959e-16 0.0 0.01 0.0 -4.615188366552959e-16 0.0 0.010000005350004294 0.00999983650400973 0.0 -1.0568210174341119e-15 0.0 0.01 0.0 -1.0568210174341119e-15 0.0 0.010000006850007037 0.009999836004034292 0.0 -1.9969617607029402e-15 0.0 0.01 0.0 -1.9969617607029402e-15 0.0 0.010000009300012975 0.009999806505616157 0.0 9.177080837873177e-20 0.0 0.01 0.0 9.177080837873177e-20 0.0 0.01000000195000057 0.009999806505616157 0.0 -8.581552453646374e-14 0.0 0.01 0.0 -8.581552453646374e-14 0.0 0.01000000195000057 0.009999806005645217 0.0 -1.4123286204126477e-17 0.0 0.01 0.0 -1.4123286204126477e-17 0.0 0.0100000024500009 0.009999806005645217 0.0 -7.552460575955793e-17 0.0 0.01 0.0 -7.552460575955793e-17 0.0 0.010000003400001733 0.009999806005645217 0.0 -2.877679724937604e-16 0.0 0.01 0.0 -2.877679724937604e-16 0.0 0.010000004900003601 0.009999805005703565 0.0 -8.89419448460199e-16 0.0 0.01 0.0 -8.89419448460199e-16 0.0 0.010000006850007037 0.009999804505732852 0.0 -1.9990013181611977e-15 0.0 0.01 0.0 -1.9990013181611977e-15 0.0 0.010000009300012975 0.009999804005762215 0.0 -3.777990063127634e-15 0.0 0.01 0.0 -3.777990063127634e-15 0.0 0.010000013650027952 0.00999978550690129 0.0 -2.603114719348838e-18 0.0 0.01 0.0 -2.603114719348838e-18 0.0 0.0100000024500009 0.00999978550690129 0.0 -4.071020161523115e-18 0.0 0.01 0.0 -4.071020161523115e-18 0.0 0.0100000024500009 0.00999978550690129 0.0 -3.345034579918287e-17 0.0 0.01 0.0 -3.345034579918287e-17 0.0 0.010000003400001733 0.00999978550690129 0.0 -1.363576274804423e-16 0.0 0.01 0.0 -1.363576274804423e-16 0.0 0.010000003900002281 0.009999784506965788 0.0 -4.863871608899425e-16 0.0 0.01 0.0 -4.863871608899425e-16 0.0 0.010000006350006049 0.009999783507030584 0.0 -1.3858846229728384e-15 0.0 0.01 0.0 -1.3858846229728384e-15 0.0 0.010000008800011615 0.009999783007063097 0.0 -2.9951433896946968e-15 0.0 0.01 0.0 -2.9951433896946968e-15 0.0 0.010000012200022328 0.009999782007128342 0.0 -5.173094123001947e-15 0.0 0.01 0.0 -5.173094123001947e-15 0.0 0.010000019050054437 0.00999978250709568 0.0 2.753410202142947e-18 0.0 0.01 0.0 2.753410202142947e-18 0.0 0.010000002950001304 0.00999978250709568 0.0 -7.649127832933021e-18 0.0 0.01 0.0 -7.649127832933021e-18 0.0 0.010000002950001304 0.00999978250709568 0.0 -4.1268821252838315e-17 0.0 0.01 0.0 -4.1268821252838315e-17 0.0 0.010000003900002281 0.00999978200712834 0.0 -1.8331397276963413e-16 0.0 0.01 0.0 -1.8331397276963413e-16 0.0 0.010000005350004294 0.009999781507161076 0.0 -5.916848998912982e-16 0.0 0.01 0.0 -5.916848998912982e-16 0.0 0.010000007800009127 0.009999781007193887 0.0 -1.6169558118917525e-15 0.0 0.01 0.0 -1.6169558118917525e-15 0.0 0.010000011250018984 0.009999780507226776 0.0 -3.5987894016157405e-15 0.0 0.01 0.0 -3.5987894016157405e-15 0.0 0.010000016100038884 0.009999778507359069 0.0 -5.532203389793759e-15 0.0 0.01 0.0 -5.53220338974206e-15 0.0 0.010000027350112206 0.009999805505674354 0.0 -1.99581292100432e-18 0.0 0.01 0.0 -1.99581292100432e-18 0.0 0.010000002950001304 0.009999805505674354 0.0 -1.0680383649079977e-17 0.0 0.01 0.0 -1.0680383649079977e-17 0.0 0.010000003900002281 0.009999805505674354 0.0 -3.9121034468241824e-17 0.0 0.01 0.0 -3.9121034468241824e-17 0.0 0.010000004400002904 0.009999805005703565 0.0 -1.7562325032277318e-16 0.0 0.01 0.0 -1.7562325032277318e-16 0.0 0.010000006350006049 0.00999980450573285 0.0 -5.675821475049837e-16 0.0 0.01 0.0 -5.675821475049837e-16 0.0 0.010000009300012973 0.009999803505791648 0.0 -1.5418701065084306e-15 0.0 0.01 0.0 -1.5418701065084306e-15 0.0 0.010000013200026137 0.009999803005821161 0.0 -3.5443045861032413e-15 0.0 0.01 0.0 -3.5443045861032413e-15 0.0 0.010000021950072274 0.009999801505910141 0.0 -4.648133279522688e-15 0.0 0.01 0.0 -4.648133279470989e-15 0.0 0.010000039050228738 0.009999859502960968 0.0 -1.572473120188402e-18 0.0 0.01 0.0 -1.572473120188402e-18 0.0 0.010000003900002281 0.009999859502960968 0.0 -3.493329583885906e-18 0.0 0.01 0.0 -3.493329583885906e-18 0.0 0.010000004400002904 0.009999859502960968 0.0 -1.7674670498282508e-17 0.0 0.01 0.0 -1.7674670498282508e-17 0.0 0.010000004900003601 0.009999859502960968 0.0 -1.1078332986561122e-16 0.0 0.01 0.0 -1.1078332986561122e-16 0.0 0.010000007800009127 0.009999858503003266 0.0 -4.2352831358670787e-16 0.0 0.01 0.0 -4.2352831358670787e-16 0.0 0.010000010750017335 0.009999858003024527 0.0 -1.339023263127423e-15 0.0 0.01 0.0 -1.339023263127423e-15 0.0 0.010000016600041335 0.009999856503088767 0.0 -3.1028889652340397e-15 0.0 0.01 0.0 -3.1028889652340397e-15 0.0 0.010000028800124421 0.009999854503175462 0.0 -2.8210525162947147e-15 0.0 0.01 0.0 -2.8210525162947147e-15 0.0 0.010000054200440651 0.009999942000504594 0.0 -2.3608487150633668e-17 0.0 0.01 0.0 -2.3608487150633668e-17 0.0 0.010000004400002904 0.009999942000504594 0.0 -3.1034431924484423e-13 0.0 0.01 0.0 -3.1034431924484423e-13 0.0 0.010000004400002904 0.009999942000504594 0.0 -8.931095636814798e-18 0.0 0.01 0.0 -8.931095636814798e-18 0.0 0.010000005850005133 0.009999941500513332 0.0 -5.097235500228739e-17 0.0 0.01 0.0 -5.097235500228739e-17 0.0 0.010000008800011615 0.009999941000522145 0.0 -2.483128768477747e-16 0.0 0.01 0.0 -2.483128768477747e-16 0.0 0.010000012200022326 0.009999940500531034 0.0 -9.514700552960055e-16 0.0 0.01 0.0 -9.514700552960055e-16 0.0 0.010000021000066152 0.009999939000558148 0.0 -2.5395487958712537e-15 0.0 0.01 0.0 -2.5395487958712537e-15 0.0 0.010000037100206466 0.009999938000576594 0.0 -7.869768889052084e-16 0.0 0.01 0.0 -7.869768889052084e-16 0.0 0.010000070800751906 0.010000043950289743 0.0 6.979458823101246e-17 0.0 0.01 0.0 6.979458823101246e-17 0.0 0.010000004400002904 0.010000043950289743 0.0 1.5745023079852648e-13 0.0 0.01 0.0 1.5745023079852648e-13 0.0 0.010000004900003601 0.010000043950289743 0.0 1.130567864949199e-17 0.0 0.01 0.0 1.130567864949199e-17 0.0 0.010000006850007037 0.010000043950289743 0.0 -4.360839485731649e-13 0.0 0.01 0.0 -4.360839485731649e-13 0.0 0.01000000975001426 0.010000043450283188 0.0 -1.2609125442465477e-16 0.0 0.01 0.0 -1.2609125442465477e-16 0.0 0.010000014150030033 0.01000004345028319 0.0 -7.358519943420316e-16 0.0 0.01 0.0 -7.358519942903328e-16 0.0 0.010000024900093003 0.010000042950276707 0.0 -2.212239969241895e-15 0.0 0.01 0.0 -2.212239969241895e-15 0.0 0.010000045400309177 0.010000042000264601 0.0 -6.575685043759562e-17 0.0 0.01 0.0 -6.575685043759562e-17 0.0 0.010000090351224488 0.010000148453305692 0.0 1.0471480226828249e-17 0.0 0.01 0.0 1.0471480226828249e-17 0.0 0.010000004900003601 0.010000148453305692 0.0 2.9931149512561925e-18 0.0 0.01 0.0 2.9931149512561925e-18 0.0 0.010000005350004294 0.010000148453305692 0.0 5.5236040453318534e-18 0.0 0.01 0.0 5.5236040453318534e-18 0.0 0.010000007300007994 0.010000148953327997 0.0 2.6512171099535742e-17 0.0 0.01 0.0 2.6512171099535742e-17 0.0 0.010000010750017335 0.010000148953327997 0.0 -6.011503780664481e-17 0.0 0.01 0.0 -6.011503780664481e-17 0.0 0.010000016600041335 0.010000148953327997 0.0 -5.619553909651266e-16 0.0 0.01 0.0 -5.619553909651266e-16 0.0 0.010000028300120135 0.010000148953327997 0.0 -1.8844236228716266e-15 0.0 0.01 0.0 -1.8844236229233253e-15 0.0 0.01000005420044065 0.010000149403348138 0.0 -1.3703893898991322e-15 0.0 0.01 0.0 -1.3703893898991322e-15 0.0 0.010000107901746392 0.010000235858344112 0.0 -6.5223948127020404e-18 0.0 0.01 0.0 -6.5223948127020404e-18 0.0 0.010000005350004294 0.010000235858344112 0.0 5.563349117085008e-18 0.0 0.01 0.0 5.563349117085008e-18 0.0 0.010000006350006049 0.010000235858344112 0.0 1.2094308517977843e-17 0.0 0.01 0.0 1.2094308517977843e-17 0.0 0.010000007800009127 0.010000236358379528 0.0 2.4308529961694554e-17 0.0 0.01 0.0 2.4308529961694554e-17 0.0 0.010000011700020532 0.010000236358379528 0.0 -5.6393046191316e-17 0.0 0.01 0.0 -5.6393046191316e-17 0.0 0.010000018550051615 0.010000237308447027 0.0 -4.264797416494993e-16 0.0 0.01 0.0 -4.264797416494993e-16 0.0 0.010000031750151211 0.010000237808482661 0.0 -1.5577317341421365e-15 0.0 0.01 0.0 -1.5577317341421365e-15 0.0 0.010000061500567344 0.010000238308518376 0.0 -1.9833446328219073e-15 0.0 0.01 0.0 -1.9833446328219073e-15 0.0 0.010000124502325089 0.010000289562576488 0.0 3.200263675546954e-18 0.0 0.01 0.0 3.200263675546954e-18 0.0 0.010000005350004294 0.010000289562576488 0.0 -4.373650905788527e-14 0.0 0.01 0.0 -4.373650905788527e-14 0.0 0.010000006350006049 0.01000029006261996 0.0 -3.1638426064049407e-14 0.0 0.01 0.0 -3.1638426064049407e-14 0.0 0.010000008800011615 0.01000029006261996 0.0 1.4895633483931745e-14 0.0 0.01 0.0 1.4895633483931745e-14 0.0 0.010000012700024194 0.010000290562663508 0.0 -5.439802532954173e-17 0.0 0.01 0.0 -5.439802532954173e-17 0.0 0.01000001955005733 0.010000291512746456 0.0 -3.212691906108678e-16 0.0 0.01 0.0 -3.212691906108678e-16 0.0 0.010000034200175447 0.010000292012790223 0.0 -1.0760746109940706e-15 0.0 0.01 0.0 -1.0760746109940706e-15 0.0 0.010000067400681422 0.01000029346291757 0.0 -2.141308711444717e-15 0.0 0.01 0.0 -2.141308711444717e-15 0.0 0.010000136702803098 0.010000305213972766 0.0 -2.759976560300344e-19 0.0 0.01 0.0 -2.759976560300344e-19 0.0 0.010000005850005133 0.010000305213972766 0.0 -5.884477132929008e-14 0.0 0.01 0.0 -5.884477132929008e-14 0.0 0.010000006850007037 0.010000305213972766 0.0 3.536326861620155e-18 0.0 0.01 0.0 3.536326861620155e-18 0.0 0.010000008800011615 0.010000305213972766 0.0 -8.683480224296959e-18 0.0 0.01 0.0 -8.683480224296959e-18 0.0 0.010000013200026137 0.010000305664014003 0.0 -4.789008199962835e-17 0.0 0.01 0.0 -4.789008199962835e-17 0.0 0.01000002100006615 0.010000306664105856 0.0 -2.0178573582626834e-16 0.0 0.01 0.0 -2.0178573582626834e-16 0.0 0.010000036150196024 0.01000030761419339 0.0 -7.598959885383759e-16 0.0 0.01 0.0 -7.598959885383759e-16 0.0 0.010000071300762562 0.010000309114332162 0.0 -1.6604626259367129e-15 0.0 0.01 0.0 -1.6604626259367129e-15 0.0 0.010000145503175616 0.010000291012702767 0.0 5.010721256628753e-19 0.0 0.01 0.0 5.010721256628753e-19 0.0 0.010000006350006049 0.010000291012702767 0.0 -2.7504166297649662e-14 0.0 0.01 0.0 -2.7504166297649662e-14 0.0 0.010000006850007037 0.010000291012702767 0.0 3.963945806586855e-18 0.0 0.01 0.0 3.963945806586855e-18 0.0 0.010000009300012973 0.010000291012702767 0.0 -2.6310764339822905e-18 0.0 0.01 0.0 -2.6310764339822905e-18 0.0 0.010000013650027948 0.010000291512746456 0.0 -2.1366079639158955e-17 0.0 0.01 0.0 -2.1366079639158955e-17 0.0 0.010000021500069338 0.010000292012790223 0.0 -1.0718717433325613e-16 0.0 0.01 0.0 -1.0718717433325613e-16 0.0 0.010000037600212066 0.010000293462917568 0.0 -3.5259314075661533e-16 0.0 0.01 0.0 -3.5259314075661533e-16 0.0 0.01000007375081587 0.010000294463005759 0.0 -8.408228054800365e-16 0.0 0.01 0.0 -8.408228054800365e-16 0.0 0.01000015040339311 0.010000259760120948 0.0 -5.9121983082999206e-18 0.0 0.01 0.0 -5.9121983082999206e-18 0.0 0.010000006350006049 0.010000259760120948 0.0 -5.079776117045707e-14 0.0 0.01 0.0 -5.079776117045707e-14 0.0 0.010000006850007037 0.01000026026015995 0.0 -6.3336610008732e-14 0.0 0.01 0.0 -6.3336610008732e-14 0.0 0.010000009300012973 0.01000026026015995 0.0 2.891355777574212e-14 0.0 0.01 0.0 2.891355777574212e-14 0.0 0.010000014150030033 0.010000260760199027 0.0 -8.573907577039905e-18 0.0 0.01 0.0 -8.573907577039905e-18 0.0 0.01000002195007227 0.01000026126023818 0.0 -2.233955378441777e-17 0.0 0.01 0.0 -2.233955378441777e-17 0.0 0.010000039050228738 0.010000262710352148 0.0 -6.785365914934746e-17 0.0 0.01 0.0 -6.785365914934746e-17 0.0 0.010000075200848266 0.010000263660427156 0.0 -2.321783908838745e-16 0.0 0.01 0.0 -2.321783908838745e-16 0.0 0.010000153303525224 0.010000227557767144 0.0 -1.4573246821829675e-17 0.0 0.01 0.0 -1.4573246821829675e-17 0.0 0.010000006350006049 0.010000227557767144 0.0 2.421529977735279e-15 0.0 0.01 0.0 2.421529977735279e-15 0.0 0.010000006850007037 0.010000227557767144 0.0 -3.366081710069556e-16 0.0 0.01 0.0 -3.366081710069556e-16 0.0 0.010000009300012973 0.010000228057801316 0.0 -1.7943548531815965e-14 0.0 0.01 0.0 -1.7943548531815965e-14 0.0 0.010000014150030033 0.010000228057801316 0.0 4.444638091763086e-15 0.0 0.01 0.0 4.444638091763086e-15 0.0 0.01000002195007227 0.01000022900786645 0.0 -1.6865080335765512e-14 0.0 0.01 0.0 -1.6865080335765512e-14 0.0 0.010000039050228738 0.010000230007935302 0.0 3.337915209385133e-18 0.0 0.01 0.0 3.337915209385133e-18 0.0 0.010000075700859585 0.010000230457966386 0.0 3.534310406928665e-17 0.0 0.01 0.0 3.534310406928665e-17 0.0 0.010000153803548257 0.010000199705982213 0.0 -2.4051517987944195e-17 0.0 0.01 0.0 -2.4051517987944195e-17 0.0 0.010000006350006049 0.010000199705982213 0.0 -3.464643285901347e-14 0.0 0.01 0.0 -3.464643285901347e-14 0.0 0.010000006850007037 0.010000199705982213 0.0 5.077144690223248e-14 0.0 0.01 0.0 5.077144690223248e-14 0.0 0.010000009300012973 0.010000200206012206 0.0 8.004022344232265e-14 0.0 0.01 0.0 8.004022344232265e-14 0.0 0.010000014150030033 0.010000200206012206 0.0 -4.836065399838305e-18 0.0 0.01 0.0 -4.836065399838305e-18 0.0 0.01000002195007227 0.010000200706042276 0.0 -1.2528176104315102e-17 0.0 0.01 0.0 -1.2528176104315102e-17 0.0 0.010000038550222917 0.010000201656099612 0.0 -4.2180401138929917e-17 0.0 0.01 0.0 -4.2180401138929917e-17 0.0 0.010000075200848266 0.010000202656160261 0.0 7.546810298173326e-18 0.0 0.01 0.0 7.546810298173326e-18 0.0 0.010000151853458851 0.010000176754686223 0.0 -3.6153388567743545e-18 0.0 0.01 0.0 -3.6153388567743545e-18 0.0 0.010000006350006049 0.010000176754686223 0.0 -7.945887138055383e-14 0.0 0.01 0.0 -7.945887138055383e-14 0.0 0.010000006850007037 0.010000176754686223 0.0 -2.402618537811611e-14 0.0 0.01 0.0 -2.402618537811611e-14 0.0 0.010000009300012973 0.010000177254712774 0.0 5.884350447768405e-14 0.0 0.01 0.0 5.884350447768405e-14 0.0 0.010000014150030033 0.010000177254712774 0.0 -1.4631180692285977e-17 0.0 0.01 0.0 -1.4631180692285977e-17 0.0 0.010000021500069338 0.0100001777547394 0.0 -5.685984244813114e-17 0.0 0.01 0.0 -5.685984244813114e-17 0.0 0.010000037100206463 0.010000178704790197 0.0 -1.8417963557881075e-16 0.0 0.01 0.0 -1.8417963557881075e-16 0.0 0.010000073250804846 0.010000179704843959 0.0 -2.867508453195502e-16 0.0 0.01 0.0 -2.867508453195502e-16 0.0 0.01000014940334814 0.010000155753638804 0.0 -8.797103979722875e-18 0.0 0.01 0.0 -8.797103979722875e-18 0.0 0.010000006350006049 0.010000155753638804 0.0 -6.794122182511561e-14 0.0 0.01 0.0 -6.794122182511561e-14 0.0 0.010000006850007037 0.010000155753638804 0.0 2.9363252961737597e-18 0.0 0.01 0.0 2.9363252961737597e-18 0.0 0.010000009300012973 0.010000155753638804 0.0 2.9377011470396734e-18 0.0 0.01 0.0 2.9377011470396734e-18 0.0 0.010000013650027948 0.010000156253662204 0.0 -6.0694473713867005e-18 0.0 0.01 0.0 -6.0694473713867005e-18 0.0 0.01000002100006615 0.010000157253709232 0.0 -8.865866796695358e-17 0.0 0.01 0.0 -8.865866796695358e-17 0.0 0.010000036600200936 0.010000157703730491 0.0 -2.585648172691591e-16 0.0 0.01 0.0 -2.585648172691591e-16 0.0 0.010000070800751906 0.010000158703777955 0.0 -5.595331096519452e-16 0.0 0.01 0.0 -5.595331096519452e-16 0.0 0.010000144053112635 0.01000013185260772 0.0 -3.82470244149153e-19 0.0 0.01 0.0 -3.82470244149153e-19 0.0 0.010000005350004294 0.01000013185260772 0.0 -1.1463052652193754e-13 0.0 0.01 0.0 -1.1463052652193754e-13 0.0 0.010000006850007037 0.01000013185260772 0.0 3.4536971644487564e-18 0.0 0.01 0.0 3.4536971644487564e-18 0.0 0.010000008800011615 0.010000132802645435 0.0 1.775703937925744e-17 0.0 0.01 0.0 1.775703937925744e-17 0.0 0.010000013200026137 0.010000132802645435 0.0 2.466098972945671e-17 0.0 0.01 0.0 2.466098972945671e-17 0.0 0.01000002000006 0.010000133302665394 0.0 -5.296930340006848e-17 0.0 0.01 0.0 -5.296930340006848e-17 0.0 0.010000035150185329 0.010000134752723697 0.0 -3.164373914992946e-16 0.0 0.01 0.0 -3.164373914992946e-16 0.0 0.01000006785069055 0.010000135252743948 0.0 -5.790698516333753e-16 0.0 0.01 0.0 -5.790698516333753e-16 0.0 0.010000138202864953 0.010000103051592922 0.0 3.0592107973945904e-17 0.0 0.01 0.0 3.0592107973945904e-17 0.0 0.010000005350004294 0.010000103051592922 0.0 2.3880343876703725e-18 0.0 0.01 0.0 2.3880343876703725e-18 0.0 0.010000006350006049 0.010000103051592922 0.0 1.5894585671417967e-17 0.0 0.01 0.0 1.5894585671417967e-17 0.0 0.010000008800011615 0.010000103501606865 0.0 5.0766646055231275e-17 0.0 0.01 0.0 5.0766646055231275e-17 0.0 0.010000012200022326 0.010000103501606865 0.0 1.0047634200425602e-16 0.0 0.01 0.0 1.0047634200425602e-16 0.0 0.010000019050054435 0.010000104501638067 0.0 8.507493721811941e-17 0.0 0.01 0.0 8.507493721811941e-17 0.0 0.010000033200165338 0.01000010595168384 0.0 -2.143998550375787e-16 0.0 0.01 0.0 -2.143998550375787e-16 0.0 0.010000064450623077 0.010000106951715779 0.0 -6.303381868110931e-16 0.0 0.01 0.0 -6.303381867593943e-16 0.0 0.010000130352548727 0.010000070300741322 0.0 1.4479663635777997e-17 0.0 0.01 0.0 1.4479663635777997e-17 0.0 0.010000005350004294 0.010000070800751906 0.0 -8.071953147318823e-14 0.0 0.01 0.0 -8.071953147318823e-14 0.0 0.010000006350006049 0.010000070800751906 0.0 2.111043697527219e-17 0.0 0.01 0.0 2.111043697527219e-17 0.0 0.010000008300010334 0.010000070800751906 0.0 9.085201429701284e-17 0.0 0.01 0.0 9.085201429701284e-17 0.0 0.010000011700020532 0.010000071300762562 0.0 2.002682691151307e-16 0.0 0.01 0.0 2.002682691151307e-16 0.0 0.010000018550051615 0.010000071800773296 0.0 2.6013738107210694e-16 0.0 0.01 0.0 2.6013738107210694e-16 0.0 0.010000031250146485 0.010000072750793895 0.0 -4.7748371569047826e-17 0.0 0.01 0.0 -4.7748371569047826e-17 0.0 0.010000059550531935 0.010000074200825859 0.0 -4.714389110872442e-16 0.0 0.01 0.0 -4.714389110872442e-16 0.0 0.01000012160221803 0.010000036150196024 0.0 6.674338635805892e-19 0.0 0.01 0.0 6.674338635805892e-19 0.0 0.010000005350004294 0.010000036150196024 0.0 4.3278694900221346e-18 0.0 0.01 0.0 4.3278694900221346e-18 0.0 0.010000006350006049 0.010000036150196024 0.0 2.3616743420688607e-17 0.0 0.01 0.0 2.3616743420688607e-17 0.0 0.010000007300007994 0.010000036600200936 0.0 1.0564852829180525e-16 0.0 0.01 0.0 1.0564852829180525e-16 0.0 0.010000011250018984 0.010000036600200938 0.0 2.891240289138832e-16 0.0 0.01 0.0 2.891240289138832e-16 0.0 0.010000017100043864 0.010000038100217741 0.0 4.808093898890255e-16 0.0 0.01 0.0 4.808093898890255e-16 0.0 0.010000028800124416 0.01000003855022292 0.0 3.0534317949212165e-16 0.0 0.01 0.0 3.0534317949212165e-16 0.0 0.010000055650464546 0.010000040050240602 0.0 -3.301874058229496e-16 0.0 0.01 0.0 -3.301874058229496e-16 0.0 0.01000011180187492 0.010000005850005133 0.0 1.8530632771091943e-16 0.0 0.01 0.0 1.8530632771091943e-16 0.0 0.010000004900003601 0.010000005850005132 0.0 -2.6020852139652106e-18 0.0 0.01 0.0 -2.6020852139652106e-18 0.0 0.010000005850005132 0.010000005850005135 0.0 3.4950059953611325e-17 0.0 0.01 0.0 3.4950059953611325e-17 0.0 0.010000007300007996 0.010000005850005137 0.0 1.2594677359818174e-16 0.0 0.01 0.0 1.2594677359818174e-16 0.0 0.010000010750017338 0.01000000685000704 0.0 3.7269765806939817e-16 0.0 0.01 0.0 3.7269765806939817e-16 0.0 0.010000016100038884 0.010000006850007037 0.0 6.773895250339232e-16 0.0 0.01 0.0 6.773895250339232e-16 0.0 0.010000027350112205 0.010000007800009128 0.0 6.713466511348624e-16 0.0 0.01 0.0 6.713466511348624e-16 0.0 0.010000050800387102 0.010000009300012973 0.0 -1.0222881514443521e-16 0.0 0.01 0.0 -1.0222881514443521e-16 0.0 0.010000102551577501 0.009999980500057038 0.0 -1.424268218369301e-17 0.0 0.01 0.0 -1.424268218369301e-17 0.0 0.010000004900003601 0.009999980500057038 0.0 7.61022391798428e-18 0.0 0.01 0.0 7.61022391798428e-18 0.0 0.010000005850005133 0.009999980500057038 0.0 6.625841874486067e-17 0.0 0.01 0.0 6.625841874486067e-17 0.0 0.010000007300007994 0.009999981000054151 0.0 1.5063576229075464e-16 0.0 0.01 0.0 1.5063576229075464e-16 0.0 0.01000001025001576 0.009999981000054153 0.0 4.313674158921814e-16 0.0 0.01 0.0 4.313674158921814e-16 0.0 0.01000001515003443 0.009999981500051339 0.0 9.1506554712773e-16 0.0 0.01 0.0 9.150655470760312e-16 0.0 0.010000025400096776 0.009999982500045938 0.0 1.2084111200600268e-15 0.0 0.01 0.0 1.208411120008328e-15 0.0 0.01000004685032924 0.009999984500036037 0.0 5.195812596378279e-16 0.0 0.01 0.0 5.195812596378279e-16 0.0 0.010000093251304354 0.009999960500234035 0.0 1.4369073482364054e-17 0.0 0.01 0.0 1.4369073482364054e-17 0.0 0.010000004900003601 0.009999960500234035 0.0 2.902385450307514e-18 0.0 0.01 0.0 2.902385450307514e-18 0.0 0.010000005850005133 0.009999961000228149 0.0 1.451459648350369e-17 0.0 0.01 0.0 1.451459648350369e-17 0.0 0.010000007300007994 0.009999961500222337 0.0 1.44414328047101e-16 0.0 0.01 0.0 1.44414328047101e-16 0.0 0.01000001025001576 0.009999961500222337 0.0 4.516585941809945e-16 0.0 0.01 0.0 4.516585941809945e-16 0.0 0.010000014650032193 0.009999962000216602 0.0 1.1103961265922952e-15 0.0 0.01 0.0 1.1103961265922952e-15 0.0 0.010000023450082489 0.009999963000205352 0.0 1.985356121986954e-15 0.0 0.01 0.0 1.985356121986954e-15 0.0 0.01000004295027671 0.009999965000183752 0.0 1.5853165470057003e-15 0.0 0.01 0.0 1.5853165470057003e-15 0.0 0.010000085451095273 0.009999946500429334 0.0 7.480473271610978e-18 0.0 0.01 0.0 7.480473271610978e-18 0.0 0.010000004900003601 0.009999947000421346 0.0 -1.916343856848679e-13 0.0 0.01 0.0 -1.916343856848679e-13 0.0 0.010000005850005133 0.009999947000421346 0.0 -1.4604456887052973e-17 0.0 0.01 0.0 -1.4604456887052973e-17 0.0 0.010000007300007994 0.009999947000421346 0.0 9.720926935804392e-17 0.0 0.01 0.0 9.720926935804392e-17 0.0 0.01000000975001426 0.009999947000421346 0.0 4.572683809845693e-16 0.0 0.01 0.0 4.572683809845693e-16 0.0 0.010000013650027948 0.009999948000405599 0.0 1.5527745673931375e-15 0.0 0.01 0.0 1.5527745673414387e-15 0.0 0.010000022450075603 0.009999950000374996 0.0 3.2678619885332077e-15 0.0 0.01 0.0 3.2678619885332077e-15 0.0 0.01000004100025215 0.009999952000345596 0.0 3.973974839007454e-15 0.0 0.01 0.0 3.9739748390591525e-15 0.0 0.010000079100938534 0.009999936500604831 0.0 1.424966267065848e-17 0.0 0.01 0.0 1.424966267065848e-17 0.0 0.010000005350004294 0.009999937000595344 0.0 -2.1100959112752474e-17 0.0 0.01 0.0 -2.1100959112752474e-17 0.0 0.010000005850005133 0.00999993750058593 0.0 -5.2282808570730394e-17 0.0 0.01 0.0 -5.2282808570730394e-17 0.0 0.010000006850007037 0.00999993750058593 0.0 2.2921077590623738e-17 0.0 0.01 0.0 2.2921077590623738e-17 0.0 0.010000009300012973 0.009999938000576594 0.0 5.282984185191493e-16 0.0 0.01 0.0 5.282984185191493e-16 0.0 0.010000013650027948 0.009999939500549036 0.0 2.142938758548747e-15 0.0 0.01 0.0 2.142938758548747e-15 0.0 0.010000021950072274 0.009999941500513334 0.0 5.6947303131010825e-15 0.0 0.01 0.0 5.6947303131010825e-15 0.0 0.010000039550234634 0.009999945000453744 0.0 9.828078279887723e-15 0.0 0.01 0.0 9.828078280094518e-15 0.0 0.010000075200848264 0.00999993150070383 0.0 -2.0541044164629212e-17 0.0 0.01 0.0 -2.0541044164629212e-17 0.0 0.010000005350004294 0.00999993150070383 0.0 -3.3524987964649417e-17 0.0 0.01 0.0 -3.3524987964649417e-17 0.0 0.010000006350006049 0.00999993150070383 0.0 -1.0790370216243277e-16 0.0 0.01 0.0 -1.0790370216243277e-16 0.0 0.010000006850007037 0.00999993250068343 0.0 2.913809712530395e-17 0.0 0.01 0.0 2.913809712530395e-17 0.0 0.010000009300012973 0.009999933000673344 0.0 7.721170690429967e-16 0.0 0.01 0.0 7.721170690429967e-16 0.0 0.010000013200026138 0.009999935500624032 0.0 3.499759262916318e-15 0.0 0.01 0.0 3.4997592629680166e-15 0.0 0.010000021950072272 0.009999938000576594 0.0 9.658271976085362e-15 0.0 0.01 0.0 9.658271976498952e-15 0.0 0.010000039550234633 0.009999942500495932 0.0 5.285324883504275e-13 0.0 0.01 0.0 5.285324883504275e-13 0.0 0.010000073750815866 0.00999992950074553 0.0 7.027536527671417e-18 0.0 0.01 0.0 7.027536527671417e-18 0.0 0.010000005850005133 0.00999993000073499 0.0 -4.186372716801102e-17 0.0 0.01 0.0 -4.186372716801102e-17 0.0 0.010000005850005133 0.00999993000073499 0.0 -1.2191868835838406e-16 0.0 0.01 0.0 -1.2191868835838406e-16 0.0 0.010000007300007994 0.00999993150070383 0.0 1.219387371872549e-16 0.0 0.01 0.0 1.219387371872549e-16 0.0 0.010000009300012973 0.009999933000673342 0.0 1.5787873658180025e-15 0.0 0.01 0.0 1.578787365792153e-15 0.0 0.010000013650027948 0.00999993550062403 0.0 6.151744120967408e-15 0.0 0.01 0.0 6.15174412086401e-15 0.0 0.010000023450082485 0.009999940000539997 0.0 1.671250037032091e-14 0.0 0.01 0.0 1.6712500370527705e-14 0.0 0.010000041000252155 0.009999946000437398 0.0 1.0765237427339097e-11 0.0 0.01 0.0 1.0765237427339097e-11 0.0 0.010000074700837027 0.00999993200069359 0.0 -1.0303090658351286e-17 0.0 0.01 0.0 -1.0303090658351286e-17 0.0 0.010000005850005133 0.00999993250068343 0.0 -3.407271391298486e-17 0.0 0.01 0.0 -3.407271391298486e-17 0.0 0.010000005850005133 0.009999933000673342 0.0 4.2099481499996656e-17 0.0 0.01 0.0 4.2099481499996656e-17 0.0 0.010000007300007994 0.009999934500643534 0.0 8.039306771323955e-16 0.0 0.01 0.0 8.039306771323955e-16 0.0 0.010000009750014261 0.009999937500585932 0.0 3.689479394750472e-15 0.0 0.01 0.0 3.689479394647074e-15 0.0 0.010000015600036506 0.009999941500513334 0.0 1.1819159704773912e-14 0.0 0.01 0.0 1.1819159704773912e-14 0.0 0.010000025900100623 0.009999947500413438 0.0 3.708603250516386e-12 0.0 0.01 0.0 3.7086032504634465e-12 0.0 0.010000045400309177 0.009999955000303746 0.0 8.013380787211678e-11 0.0 0.01 0.0 8.013380787211678e-11 0.0 0.010000078100914954 0.009999939000558145 0.0 3.3038560838780017e-18 0.0 0.01 0.0 3.3038560838780017e-18 0.0 0.010000005850005133 0.009999939000558145 0.0 9.611479210147006e-17 0.0 0.01 0.0 9.611479210147006e-17 0.0 0.010000006350006049 0.009999941000522147 0.0 6.382203484880292e-16 0.0 0.01 0.0 6.382203484880292e-16 0.0 0.010000007800009128 0.009999943000487347 0.0 2.750334425862373e-15 0.0 0.01 0.0 2.7503344259657707e-15 0.0 0.010000011250018986 0.009999947000421346 0.0 8.423037474082564e-15 0.0 0.01 0.0 8.42303747428936e-15 0.0 0.010000018550051615 0.009999953000331348 0.0 3.2837489496530573e-12 0.0 0.01 0.0 3.2837489497589364e-12 0.0 0.010000030250137262 0.009999960500234039 0.0 5.548016404283634e-11 0.0 0.01 0.0 5.5480164041142273e-11 0.0 0.010000050800387104 0.009999968500148856 0.0 3.526177489986148e-10 0.0 0.01 0.0 3.526177489986148e-10 0.0 0.010000083001033382 0.009999951500352836 0.0 8.916032123803096e-18 0.0 0.01 0.0 8.916032123803096e-18 0.0 0.010000006850007037 0.009999952000345596 0.0 4.328573274335067e-16 0.0 0.01 0.0 4.328573274335067e-16 0.0 0.010000007300007994 0.009999953500324336 0.0 2.2421995898818492e-15 0.0 0.01 0.0 2.242199589933548e-15 0.0 0.010000009750014261 0.009999958000264599 0.0 3.2649936105907915e-13 0.0 0.01 0.0 3.264993610524617e-13 0.0 0.010000014150030037 0.00999996350019984 0.0 7.774838531525612e-12 0.0 0.01 0.0 7.77483853173737e-12 0.0 0.010000021950072276 0.009999970500130536 0.0 6.576591060405697e-11 0.0 0.01 0.0 6.57659106023629e-11 0.0 0.010000036150196024 0.009999979000066161 0.0 3.232939430758159e-10 0.0 0.01 0.0 3.2329394308259216e-10 0.0 0.010000057150489936 0.009999986500027513 0.0 1.0794563658325694e-09 0.0 0.01 0.0 1.0794563658054644e-09 0.0 0.010000087401146007 0.0099999720001176 0.0 5.085490616557767e-19 0.0 0.01 0.0 5.085490616557767e-19 0.0 0.010000008800011615 0.00999997250011344 0.0 1.2015530008806028e-13 0.0 0.01 0.0 1.2015530008806028e-13 0.0 0.010000009750014263 0.00999997550009004 0.0 3.0689234679417084e-12 0.0 0.01 0.0 3.0689234678358293e-12 0.0 0.010000012700024196 0.00999998100005415 0.0 2.2709759265196006e-11 0.0 0.01 0.0 2.270975926350194e-11 0.0 0.010000018050048869 0.00999998650002734 0.0 1.0989858397365002e-10 0.0 0.01 0.0 1.0989858397703815e-10 0.0 0.010000028300120135 0.009999994000005424 0.0 3.8854504729184287e-10 0.0 0.01 0.0 3.8854504729184287e-10 0.0 0.010000042500270962 0.010000001000000328 0.0 1.0896290921142467e-09 0.0 0.01 0.0 1.0896290921413518e-09 0.0 0.01000006350060502 0.010000005850006037 0.0 2.459144685898907e-09 0.0 0.01 0.0 2.459144685898907e-09 0.0 0.010000091301251275 0.01000000100000015 0.0 8.124239822353082e-19 0.0 0.01 0.0 8.124239822353082e-19 0.0 0.010000012200022326 0.010000001950000567 0.0 5.658845742052853e-12 0.0 0.01 0.0 5.658845742052853e-12 0.0 0.010000013650027947 0.010000004400002907 0.0 4.224383673136168e-11 0.0 0.01 0.0 4.2243836738137946e-11 0.0 0.010000017100043864 0.010000008800011617 0.0 1.7088291948184984e-10 0.0 0.01 0.0 1.708829194682973e-10 0.0 0.010000023950086043 0.010000014150030073 0.0 5.104994023536792e-10 0.0 0.01 0.0 5.104994022994691e-10 0.0 0.010000034200175485 0.010000019050054659 0.0 1.2334816630555842e-09 0.0 0.01 0.0 1.2334816630555842e-09 0.0 0.010000048850358177 0.010000023450083434 0.0 2.5159182328628182e-09 0.0 0.01 0.0 2.5159182328628182e-09 0.0 0.010000068850712005 0.010000024900095867 0.0 4.367916337866609e-09 0.0 0.01 0.0 4.367916337975029e-09 0.0 0.010000093751321245 0.010000033200165338 0.0 1.4237719098280623e-16 0.0 0.01 0.0 1.4237719098280623e-16 0.0 0.01000001805004887 0.010000034200175447 0.0 3.320041618809868e-11 0.0 0.01 0.0 3.320041619148681e-11 0.0 0.010000019050054433 0.01000003615019603 0.0 1.7731110015569568e-10 0.0 0.01 0.0 1.7731110018280073e-10 0.0 0.01000002345008249 0.01000003905022878 0.0 5.523608830526258e-10 0.0 0.01 0.0 5.523608830526258e-10 0.0 0.010000030750141881 0.010000041500258596 0.0 1.3104493670756945e-09 0.0 0.01 0.0 1.3104493670756945e-09 0.0 0.01000004100025241 0.010000043450284173 0.0 2.565525070597624e-09 0.0 0.01 0.0 2.565525070597624e-09 0.0 0.010000054700449804 0.010000043950292517 0.0 4.3029515504108135e-09 0.0 0.01 0.0 4.3029515504108135e-09 0.0 0.010000072250785795 0.010000043450289148 0.0 6.304617694444584e-09 0.0 0.01 0.0 6.304617694227743e-09 0.0 0.010000094751352617 0.010000064950632782 0.0 -9.026028966813143e-18 0.0 0.01 0.0 -9.026028966813143e-18 0.0 0.010000024900093002 0.010000064950632784 0.0 8.574963354939132e-11 0.0 0.01 0.0 8.574963354939132e-11 0.0 0.010000025900100625 0.010000064950632806 0.0 4.0204657905293893e-10 0.0 0.01 0.0 4.0204657905293893e-10 0.0 0.010000029800133233 0.010000065450642736 0.0 1.0868814003645554e-09 0.0 0.01 0.0 1.0868814003103452e-09 0.0 0.01000003760021224 0.010000064950633547 0.0 2.259910498536924e-09 0.0 0.01 0.0 2.259910498536924e-09 0.0 0.010000046850330005 0.010000064450625377 0.0 3.912943530824664e-09 0.0 0.01 0.0 3.912943529957302e-09 0.0 0.010000059550534233 0.010000064450628236 0.0 5.864705790448177e-09 0.0 0.01 0.0 5.864705791315539e-09 0.0 0.010000075700864744 0.010000067850699623 0.0 7.776341272303089e-09 0.0 0.01 0.0 7.77634127273677e-09 0.0 0.010000095701382865 0.010000090801236714 0.0 1.0865415912121274e-16 0.0 0.01 0.0 1.0865415912121274e-16 0.0 0.010000032250156011 0.01000009035122449 0.0 1.3611574235157541e-10 0.0 0.01 0.0 1.3611574235157541e-10 0.0 0.010000032700160397 0.010000090351224546 0.0 6.021577068758164e-10 0.0 0.01 0.0 6.02157706889369e-10 0.0 0.010000037600212123 0.01000008885118451 0.0 1.5192880641165703e-09 0.0 0.01 0.0 1.5192880640623602e-09 0.0 0.010000043950290088 0.01000008885118548 0.0 2.959512609697172e-09 0.0 0.01 0.0 2.959512609588752e-09 0.0 0.010000053200425855 0.010000090801240202 0.0 4.822231897431625e-09 0.0 0.01 0.0 4.822231897431625e-09 0.0 0.010000064450626565 0.010000096201394975 0.0 6.727383900818895e-09 0.0 0.01 0.0 6.727383899951533e-09 0.0 0.010000079600957223 0.010000103501615985 0.0 7.798467078698468e-09 0.0 0.01 0.0 7.798467077831106e-09 0.0 0.010000099601497168 0.010000122552252822 0.0 -7.670944796512286e-19 0.0 0.01 0.0 -7.670944796512286e-19 0.0 0.010000039550234633 0.010000122552252827 0.0 1.5147280077367625e-10 0.0 0.01 0.0 1.5147280077706438e-10 0.0 0.010000040550246652 0.010000122552252886 0.0 6.614397694246514e-10 0.0 0.01 0.0 6.614397694110988e-10 0.0 0.010000043950289809 0.010000122552253226 0.0 1.645009200878329e-09 0.0 0.01 0.0 1.645009200905434e-09 0.0 0.010000050300379919 0.010000124502326548 0.0 3.12056579003777e-09 0.0 0.01 0.0 3.12056579003777e-09 0.0 0.010000059100525389 0.010000127952459052 0.0 4.704864215994246e-09 0.0 0.01 0.0 4.704864215994246e-09 0.0 0.010000071300765882 0.010000130852572595 0.0 5.343017515403725e-09 0.0 0.01 0.0 5.343017515186885e-09 0.0 0.01000008690113704 0.010000128402474683 0.0 3.3122394796532284e-09 0.0 0.01 0.0 3.312239479436388e-09 0.0 0.010000106951717422 0.01000016845425643 0.0 4.287981738183269e-17 0.0 0.01 0.0 4.287981738183269e-17 0.0 0.010000045900316024 0.010000167504208556 0.0 1.0638887065933555e-10 0.0 0.01 0.0 1.0638887065764148e-10 0.0 0.010000046850329243 0.010000164554061651 0.0 4.6092267890342035e-10 0.0 0.01 0.0 4.6092267890342035e-10 0.0 0.010000050800387135 0.010000160653871545 0.0 1.0948618929198682e-09 0.0 0.01 0.0 1.0948618929334207e-09 0.0 0.010000057600497847 0.010000154303571823 0.0 1.7404138446446091e-09 0.0 0.01 0.0 1.7404138446988193e-09 0.0 0.01000006785069101 0.010000146003197763 0.0 1.3800550579970514e-09 0.0 0.01 0.0 1.3800550579970514e-09 0.0 0.010000082051010132 0.010000130352549009 0.0 -1.3755539460843895e-09 0.0 0.01 0.0 -1.3755539460843895e-09 0.0 0.010000099601488332 0.010000170904381147 0.0 -4.0633199366582094e-17 0.0 0.01 0.0 -4.0633199366582094e-17 0.0 0.010000051750401712 0.010000168454256431 0.0 -2.500954550232863e-11 0.0 0.01 0.0 -2.5009545501905112e-11 0.0 0.010000053200424542 0.01000016015384731 0.0 -1.827430414870284e-10 0.0 0.01 0.0 -1.827430414870284e-10 0.0 0.01000005715048993 0.010000146003197579 0.0 -8.247122133700577e-10 0.0 0.01 0.0 -8.247122133700577e-10 0.0 0.01000006590065153 0.010000127952456875 0.0 -2.759614613646183e-09 0.0 0.01 0.0 -2.759614613646183e-09 0.0 0.01000008105098652 0.01 0.0 0.0 0.0 0.01 0.0 0.0 0.0 0.01 0.01 0.0 0.0 0.0 0.01 0.0 0.0 0.0 0.01 0.009999999999999998 0.0 0.0 0.0 0.01 0.0 0.0 0.0 0.009999999999999998 0.01 0.0 0.0 0.0 0.01 0.0 0.0 0.0 0.01 0.009999999999999998 0.0 0.0 0.0 0.01 0.0 0.0 0.0 0.009999999999999998 0.009999999999999998 0.0 0.0 0.0 0.01 0.0 0.0 0.0 0.009999999999999998 0.01 0.0 0.0 0.0 0.01 0.0 0.0 0.0 0.01 0.009999999999999998 0.0 0.0 0.0 0.01 0.0 0.0 0.0 0.009999999999999998 0.009999999999999998 0.0 0.0 0.0 0.01 0.0 0.0 0.0 0.009999999999999998 0.009999999999999998 0.0 0.0 0.0 0.01 0.0 0.0 0.0 0.009999999999999998 0.009999999999999998 0.0 0.0 0.0 0.01 0.0 0.0 0.0 0.009999999999999998 0.01 0.0 0.0 0.0 0.01 0.0 0.0 0.0 0.01 0.009999999999999998 0.0 0.0 0.0 0.01 0.0 0.0 0.0 0.009999999999999998 0.01 0.0 0.0 0.0 0.01 0.0 0.0 0.0 0.01 0.009999999999999998 0.0 0.0 0.0 0.01 0.0 0.0 0.0 0.009999999999999998 0.01 0.0 0.0 0.0 0.01 0.0 0.0 0.0 0.01 0.009999999999999998 0.0 0.0 0.0 0.01 0.0 0.0 0.0 0.009999999999999998 0.01 0.0 0.0 0.0 0.01 0.0 0.0 0.0 0.01 0.009999999999999998 0.0 0.0 0.0 0.01 0.0 0.0 0.0 0.009999999999999998 0.009999999999999998 0.0 0.0 0.0 0.01 0.0 0.0 0.0 0.009999999999999998 0.009999999999999998 0.0 0.0 0.0 0.01 0.0 0.0 0.0 0.009999999999999998 0.009999999999999998 0.0 0.0 0.0 0.01 0.0 0.0 0.0 0.009999999999999998 0.009999999999999998 0.0 0.0 0.0 0.01 0.0 0.0 0.0 0.009999999999999998 0.009999999999999998 0.0 0.0 0.0 0.01 0.0 0.0 0.0 0.009999999999999998 0.01 0.0 0.0 0.0 0.01 0.0 0.0 0.0 0.01 0.009999999999999998 0.0 0.0 0.0 0.01 0.0 0.0 0.0 0.009999999999999998 0.009999999999999998 0.0 0.0 0.0 0.01 0.0 0.0 0.0 0.009999999999999998 0.009999999999999998 0.0 0.0 0.0 0.01 0.0 0.0 0.0 0.009999999999999998 0.009999999999999998 0.0 0.0 0.0 0.01 0.0 0.0 0.0 0.009999999999999998 0.01 0.0 5.204170427930421e-18 0.0 0.01 0.0 5.204170427930421e-18 0.0 0.01 0.01 0.0 2.0816681711721685e-17 0.0 0.01 0.0 2.0816681711721685e-17 0.0 0.01 0.01 0.0 0.0 0.0 0.01 0.0 0.0 0.0 0.01 0.009999999999999998 0.0 0.0 0.0 0.01 0.0 0.0 0.0 0.009999999999999998 0.01 0.0 0.0 0.0 0.01 0.0 0.0 0.0 0.01 0.009999999999999998 0.0 0.0 0.0 0.01 0.0 0.0 0.0 0.009999999999999998 0.009999999999999998 0.0 8.239936510889834e-17 0.0 0.01 0.0 8.239936510889834e-17 0.0 0.009999999999999998 0.009999999999999998 0.0 7.034303695085953e-16 0.0 0.01 0.0 7.034303695085953e-16 0.0 0.009999999999999998 0.01 0.0 1.889113865338743e-15 0.0 0.01 0.0 1.889113865338743e-15 0.0 0.01 0.009999999999999998 0.0 3.196228004487267e-15 0.0 0.01 0.0 3.196228004487267e-15 0.0 0.009999999999999998 0.01 0.0 0.0 0.0 0.01 0.0 0.0 0.0 0.01 0.01 0.0 0.0 0.0 0.01 0.0 0.0 0.0 0.01 0.01 0.0 0.0 0.0 0.01 0.0 0.0 0.0 0.01 0.009999999999999998 0.0 5.299580219109146e-16 0.0 0.01 0.0 5.299580219109146e-16 0.0 0.009999999999999998 0.009999999999999998 0.0 4.208439152719734e-15 0.0 0.01 0.0 4.208439152719734e-15 0.0 0.01 0.009999999999999998 0.0 1.3824011380059176e-14 0.0 0.01 0.0 1.3824011380059176e-14 0.0 0.009999999999999998 0.01 0.0 2.7712207528729493e-14 0.0 0.01 0.0 2.7712207528729493e-14 0.0 0.01 0.009999999999999998 0.0 4.1272540940440194e-14 0.0 0.01 0.0 4.1272540940440194e-14 0.0 0.009999999999999998 0.01 0.0 0.0 0.0 0.01 0.0 0.0 0.0 0.01 0.009999999999999998 0.0 0.0 0.0 0.01 0.0 0.0 0.0 0.009999999999999998 0.009999999999999998 0.0 7.337880303381894e-16 0.0 0.01 0.0 7.337880303381894e-16 0.0 0.009999999999999998 0.009999999999999998 0.0 8.833211939673902e-15 0.0 0.01 0.0 8.833211939673902e-15 0.0 0.01 0.01 0.0 3.869300713166268e-14 0.0 0.01 0.0 3.869300713166268e-14 0.0 0.01 0.01 0.0 1.0028783359317117e-13 0.0 0.01 0.0 1.0028783359317117e-13 0.0 0.01 0.01 0.0 1.8371588972332376e-13 0.0 0.01 0.0 1.8371588972332376e-13 0.0 0.01 0.009999999999999998 0.0 2.519703196091072e-13 0.0 0.01 0.0 2.519703196091072e-13 0.0 0.009999999999999998 0.009999999999999998 0.0 0.0 0.0 0.01 0.0 0.0 0.0 0.009999999999999998 0.009999999999999998 0.0 2.229119666630197e-16 0.0 0.01 0.0 2.229119666630197e-16 0.0 0.009999999999999998 0.009999999999999998 0.0 8.147128804925075e-15 0.0 0.01 0.0 8.147128804925075e-15 0.0 0.009999999999999998 0.009999999999999998 0.0 5.422051696513108e-14 0.0 0.01 0.0 5.422051696513108e-14 0.0 0.009999999999999998 0.009999999999999998 0.0 1.9105203530322967e-13 0.0 0.01 0.0 1.9105203530322967e-13 0.0 0.009999999999999998 0.01 0.0 4.539198877884232e-13 0.0 0.01 0.0 4.539198877884232e-13 0.0 0.01 0.01 0.0 7.997595641295874e-13 0.0 0.01 0.0 7.997595641295874e-13 0.0 0.009999999999999998 0.01 0.0 1.0629015029239852e-12 0.0 0.01 0.0 1.0629015029239852e-12 0.0 0.01 0.01 0.0 0.0 0.0 0.01 0.0 0.0 0.0 0.01 0.009999999999999998 0.0 2.742597815519332e-15 0.0 0.01 0.0 2.742597815519332e-15 0.0 0.009999999999999998 0.009999999999999998 0.0 3.891765382180168e-14 0.0 0.01 0.0 3.891765382180168e-14 0.0 0.009999999999999998 0.01 0.0 2.0341714423999235e-13 0.0 0.01 0.0 2.0341714423999235e-13 0.0 0.01 0.009999999999999998 0.0 6.529403753785523e-13 0.0 0.01 0.0 6.529403753785523e-13 0.0 0.009999999999999998 0.01 0.0 1.50742959781347e-12 0.0 0.01 0.0 1.50742959781347e-12 0.0 0.009999999999999998 0.01 0.0 2.6423568194600122e-12 0.0 0.01 0.0 2.6423568194600122e-12 0.0 0.01 0.009999999999999998 0.0 3.516424998406542e-12 0.0 0.01 0.0 3.516424998406542e-12 0.0 0.009999999999999998 0.01 0.0 4.683753385137379e-17 0.0 0.01 0.0 4.683753385137379e-17 0.0 0.009999999999999998 0.01 0.0 1.1310397063368782e-14 0.0 0.01 0.0 1.1310397063368782e-14 0.0 0.01 0.009999999999999998 0.0 1.1610851169407965e-13 0.0 0.01 0.0 1.1610851169407965e-13 0.0 0.009999999999999998 0.009999999999999998 0.0 5.461030933018307e-13 0.0 0.01 0.0 5.461030933018307e-13 0.0 0.009999999999999998 0.01 0.0 1.69591597709573e-12 0.0 0.01 0.0 1.69591597709573e-12 0.0 0.009999999999999998 0.01 0.0 3.921389254979424e-12 0.0 0.01 0.0 3.921389254979424e-12 0.0 0.01 0.01 0.0 6.982437197877722e-12 0.0 0.01 0.0 6.982437197877722e-12 0.0 0.01 0.01 0.0 9.454114574536376e-12 0.0 0.01 0.0 9.454114574536376e-12 0.0 0.01 0.009999999500000039 0.0 2.80069809500744e-16 0.0 0.01 0.0 2.800698086735634e-16 0.0 0.010000000000000002 0.00999999950000004 0.0 2.696648745114245e-14 0.0 0.01 0.0 2.696648745114245e-14 0.0 0.01 0.009999999500000037 0.0 2.459383210119356e-13 0.0 0.01 0.0 2.459383210119356e-13 0.0 0.009999999999999998 0.009999999500000035 0.0 1.1174982143260462e-12 0.0 0.01 0.0 1.1174982143260462e-12 0.0 0.009999999999999997 0.009999999500000039 0.0 3.472623095112856e-12 0.0 0.01 0.0 3.472623095112856e-12 0.0 0.010000000000000004 0.009999999500000037 0.0 8.176850364340071e-12 0.0 0.01 0.0 8.176850364340071e-12 0.0 0.009999999999999997 0.009999999999999998 0.0 1.490812334692393e-11 0.0 0.01 0.0 1.490812334692393e-11 0.0 0.01 0.009999999999999998 0.0 2.0540243117483925e-11 0.0 0.01 0.0 2.0540243117483925e-11 0.0 0.009999999999999998 0.009999999500000039 0.0 4.3457342665364854e-16 0.0 0.01 0.0 4.3457342665364854e-16 0.0 0.010000000000000002 0.009999999500000037 0.0 4.2044664834938166e-14 0.0 0.01 0.0 4.2044664940817285e-14 0.0 0.01 0.009999999500000039 0.0 3.8647459628989977e-13 0.0 0.01 0.0 3.8647459628989977e-13 0.0 0.010000000000000002 0.009999999500000039 0.0 1.7828812157085622e-12 0.0 0.01 0.0 1.7828812224848258e-12 0.0 0.010000000000000002 0.009999999500000039 0.0 5.675179063128165e-12 0.0 0.01 0.0 5.675179049575638e-12 0.0 0.009999999999999998 0.00999999950000004 0.0 1.3745135997271507e-11 0.0 0.01 0.0 1.3745135997271507e-11 0.0 0.010000000000000004 0.009999999500000035 0.0 2.566050724770591e-11 0.0 0.01 0.0 2.566050724770591e-11 0.0 0.01 0.009999999500000035 0.0 3.56597128128161e-11 0.0 0.01 0.0 3.5659712704395885e-11 0.0 0.009999999999999997 0.009999999000000148 0.0 1.7731879845062246e-16 0.0 0.01 0.0 1.7731879845062246e-16 0.0 0.009999999999999998 0.009999999000000152 0.0 4.287908403223975e-14 0.0 0.01 0.0 4.287908403223975e-14 0.0 0.01 0.00999999900000015 0.0 4.505503915712785e-13 0.0 0.01 0.0 4.5055039241831147e-13 0.0 0.009999999999999998 0.009999999000000152 0.0 2.2165633145946034e-12 0.0 0.01 0.0 2.2165633145946034e-12 0.0 0.010000000000000002 0.009999999500000039 0.0 7.396912970374439e-12 0.0 0.01 0.0 7.396912943269385e-12 0.0 0.010000000000000002 0.009999999500000039 0.0 1.8633060155578973e-11 0.0 0.01 0.0 1.8633060155578973e-11 0.0 0.010000000000000002 0.009999999500000035 0.0 3.57064901734469e-11 0.0 0.01 0.0 3.57064901734469e-11 0.0 0.009999999999999997 0.009999999500000037 0.0 4.992750093565923e-11 0.0 0.01 0.0 4.992750093565923e-11 0.0 0.009999999999999998 0.0099999980000006 0.0 -6.072805998762807e-14 0.0 0.01 0.0 -6.072805998762807e-14 0.0 0.01 0.009999998500000343 0.0 2.5310787808100615e-14 0.0 0.01 0.0 2.5310787781630836e-14 0.0 0.010000000000000004 0.00999999850000034 0.0 3.729685458316468e-13 0.0 0.01 0.0 3.729685462551633e-13 0.0 0.010000000000000002 0.00999999850000034 0.0 2.0971890250207374e-12 0.0 0.01 0.0 2.0971890250207374e-12 0.0 0.01 0.009999998500000334 0.0 7.57411230359762e-12 0.0 0.01 0.0 7.574112296821357e-12 0.0 0.009999999999999998 0.009999998500000338 0.0 2.0217527955598835e-11 0.0 0.01 0.0 2.0217527955598835e-11 0.0 0.009999999999999998 0.009999998500000341 0.0 4.023981647026387e-11 0.0 0.01 0.0 4.023981641605376e-11 0.0 0.010000000000000002 0.009999999000000148 0.0 5.734964651608887e-11 0.0 0.01 0.0 5.734964640766865e-11 0.0 0.01 0.009999997500000938 0.0 7.911325601266375e-13 0.0 0.01 0.0 7.911325601266375e-13 0.0 0.01 0.009999997500000938 0.0 5.0058461204254096e-15 0.0 0.01 0.0 5.005846123734132e-15 0.0 0.01 0.009999997500000942 0.0 1.9296548738975835e-13 0.0 0.01 0.0 1.9296548749563747e-13 0.0 0.009999999999999998 0.0099999980000006 0.0 1.416245175434982e-12 0.0 0.01 0.0 1.4162451745879491e-12 0.0 0.01 0.009999998000000601 0.0 5.848434749862333e-12 0.0 0.01 0.0 5.8484347464742015e-12 0.0 0.010000000000000002 0.0099999980000006 0.0 1.7053982900340492e-11 0.0 0.01 0.0 1.7053982900340492e-11 0.0 0.010000000000000002 0.0099999980000006 0.0 3.6052650150214874e-11 0.0 0.01 0.0 3.605265017731993e-11 0.0 0.01 0.0099999980000006 0.0 5.3511168911744844e-11 0.0 0.01 0.0 5.3511168911744844e-11 0.0 0.009999999999999998 0.0099999960000024 0.0 4.267684340390001e-18 0.0 0.01 0.0 4.267684340390001e-18 0.0 0.01 0.009999996500001837 0.0 7.437512095751417e-18 0.0 0.01 0.0 7.437512095751417e-18 0.0 0.01 0.009999996500001837 0.0 4.3012635955261353e-14 0.0 0.01 0.0 4.3012635928791574e-14 0.0 0.01 0.009999996500001836 0.0 5.830952938507905e-13 0.0 0.01 0.0 5.830952940625488e-13 0.0 0.009999999999999998 0.009999996500001834 0.0 3.092132578225203e-12 0.0 0.01 0.0 3.092132576531137e-12 0.0 0.009999999999999998 0.009999996500001843 0.0 1.0366660549871462e-11 0.0 0.01 0.0 1.0366660549871462e-11 0.0 0.010000000000000002 0.009999997000001348 0.0 2.4121038133995305e-11 0.0 0.01 0.0 2.4121038133995305e-11 0.0 0.009999999999999997 0.009999997500000942 0.0 3.8191858177513346e-11 0.0 0.01 0.0 3.8191858177513346e-11 0.0 0.010000000000000004 0.0099999940000054 0.0 -3.801583678250432e-18 0.0 0.01 0.0 -3.801583678250432e-18 0.0 0.01 0.0099999940000054 0.0 4.339466694284376e-18 0.0 0.01 0.0 4.339466694284376e-18 0.0 0.01 0.0099999940000054 0.0 -3.228335583164994e-12 0.0 0.01 0.0 -3.228335583164994e-12 0.0 0.01 0.009999994000005398 0.0 8.855758196489468e-14 0.0 0.01 0.0 8.85575819384249e-14 0.0 0.010000000500000038 0.009999994500004538 0.0 8.70094847552606e-13 0.0 0.01 0.0 8.700948473408477e-13 0.0 0.010000000500000038 0.009999995000003748 0.0 3.834134212514018e-12 0.0 0.01 0.0 3.834134212514018e-12 0.0 0.010000000500000036 0.009999995500003037 0.0 1.039487176483821e-11 0.0 0.01 0.0 1.0394871758061947e-11 0.0 0.010000000500000036 0.00999999550000304 0.0 1.83375401181015e-11 0.0 0.01 0.0 1.8337540111325237e-11 0.0 0.010000000000000002 0.00999999100001215 0.0 2.149268499996525e-13 0.0 0.01 0.0 2.149268499996525e-13 0.0 0.01 0.009999991500010838 0.0 9.598659981027346e-18 0.0 0.01 0.0 9.598659981027346e-18 0.0 0.010000000500000038 0.009999992000009601 0.0 1.0009153240695517e-17 0.0 0.01 0.0 1.0009153240695517e-17 0.0 0.010000000500000038 0.009999992000009601 0.0 1.3524578784659821e-17 0.0 0.01 0.0 1.3524578784659821e-17 0.0 0.010000000500000038 0.009999992000009603 0.0 4.428488517936204e-14 0.0 0.01 0.0 4.4284885172744596e-14 0.0 0.010000000500000038 0.009999992000009603 0.0 5.143228213673234e-13 0.0 0.01 0.0 5.143228213673234e-13 0.0 0.01000000050000004 0.009999992000009603 0.0 1.9751074284120665e-12 0.0 0.01 0.0 1.97510742798855e-12 0.0 0.010000000500000038 0.009999992500008438 0.0 4.1318473614405005e-12 0.0 0.01 0.0 4.1318473614405005e-12 0.0 0.010000000500000038 0.009999987500023438 0.0 -9.666110867980452e-13 0.0 0.01 0.0 -9.666110867980452e-13 0.0 0.010000000500000038 0.009999987500023438 0.0 4.656337218745676e-18 0.0 0.01 0.0 4.656337218745676e-18 0.0 0.010000000500000038 0.0099999880000216 0.0 -1.1213978156820689e-17 0.0 0.01 0.0 -1.1213978156820689e-17 0.0 0.010000000500000038 0.0099999880000216 0.0 -4.7012222906689295e-17 0.0 0.01 0.0 -4.7012222906689295e-17 0.0 0.010000000500000038 0.009999988500019838 0.0 -7.606755448863208e-17 0.0 0.01 0.0 -7.606755448863208e-17 0.0 0.010000000500000038 0.009999988500019841 0.0 -2.1179630053758808e-16 0.0 0.01 0.0 -2.1179630053758808e-16 0.0 0.010000000500000042 0.009999988500019841 0.0 1.5362679652189353e-14 0.0 0.01 0.0 1.5362679652189353e-14 0.0 0.010000000500000042 0.009999989500016541 0.0 8.298553050341848e-14 0.0 0.01 0.0 8.298553050341848e-14 0.0 0.010000000500000038 0.009999982000048601 0.0 -1.0844279533724053e-17 0.0 0.01 0.0 -1.0844279533724053e-17 0.0 0.010000000500000038 0.009999982000048601 0.0 2.27653737399661e-17 0.0 0.01 0.0 2.27653737399661e-17 0.0 0.010000000500000038 0.009999982500045938 0.0 2.865080802174751e-17 0.0 0.01 0.0 2.865080802174751e-17 0.0 0.010000001450000314 0.009999982500045938 0.0 -1.167338089601014e-17 0.0 0.01 0.0 -1.167338089601014e-17 0.0 0.010000001450000314 0.009999982500045938 0.0 -1.2926900376562518e-16 0.0 0.01 0.0 -1.2926900376562518e-16 0.0 0.010000001450000314 0.009999982500045941 0.0 -3.2596172024691816e-16 0.0 0.01 0.0 -3.2596172024691816e-16 0.0 0.010000001450000318 0.009999983000043348 0.0 -5.282171178964971e-16 0.0 0.01 0.0 -5.282171179998947e-16 0.0 0.010000001450000313 0.009999983500040839 0.0 -8.319526157490873e-16 0.0 0.01 0.0 -8.319526157490873e-16 0.0 0.010000001000000152 0.0099999740001014 0.0 -2.4829746388802342e-17 0.0 0.01 0.0 -2.4829746388802342e-17 0.0 0.01000000100000015 0.0099999740001014 0.0 -1.6443182348077555e-13 0.0 0.01 0.0 -1.6443182348077555e-13 0.0 0.010000001450000314 0.0099999740001014 0.0 3.920873111271151e-17 0.0 0.01 0.0 3.920873111271151e-17 0.0 0.010000001450000314 0.0099999740001014 0.0 -5.684686492297631e-17 0.0 0.01 0.0 -5.684686492297631e-17 0.0 0.01000000195000057 0.0099999740001014 0.0 -2.0157276781842186e-16 0.0 0.01 0.0 -2.0157276781842186e-16 0.0 0.01000000195000057 0.009999975000093751 0.0 -5.756707096309654e-16 0.0 0.01 0.0 -5.75670709605116e-16 0.0 0.010000001950000571 0.00999997550009004 0.0 -1.2899223367957336e-15 0.0 0.01 0.0 -1.2899223367957336e-15 0.0 0.010000001950000573 0.00999997550009004 0.0 -1.6307333841446426e-15 0.0 0.01 0.0 -1.6307333839378475e-15 0.0 0.010000001950000573 0.009999962500210936 0.0 -7.500083942966824e-18 0.0 0.01 0.0 -7.500083942966824e-18 0.0 0.010000001450000314 0.009999962500210936 0.0 7.81242883991612e-18 0.0 0.01 0.0 7.81242883991612e-18 0.0 0.01000000195000057 0.009999963000205348 0.0 1.143587837563789e-16 0.0 0.01 0.0 1.143587837563789e-16 0.0 0.01000000195000057 0.009999963000205348 0.0 -2.5678499845881358e-17 0.0 0.01 0.0 -2.5678499845881358e-17 0.0 0.010000002950001304 0.00999996300020535 0.0 -4.2616365410439827e-16 0.0 0.01 0.0 -4.2616365410439827e-16 0.0 0.010000003900002283 0.00999996300020535 0.0 -1.3909293396810927e-15 0.0 0.01 0.0 -1.3909293397327915e-15 0.0 0.010000003400001735 0.009999963000205347 0.0 -2.502941528467446e-15 0.0 0.01 0.0 -2.5029415285708437e-15 0.0 0.010000002450000899 0.009999963500199834 0.0 -2.1391483743596157e-15 0.0 0.01 0.0 -2.1391483743596157e-15 0.0 0.010000002450000899 0.009999947000421346 0.0 -3.8650637032970117e-17 0.0 0.01 0.0 -3.8650637032970117e-17 0.0 0.01000000195000057 0.009999947000421346 0.0 -5.86364637465824e-17 0.0 0.01 0.0 -5.86364637465824e-17 0.0 0.010000003400001733 0.009999947000421346 0.0 -5.0814195755646474e-17 0.0 0.01 0.0 -5.0814195755646474e-17 0.0 0.010000003900002281 0.009999947500413433 0.0 -1.4898712123607306e-16 0.0 0.01 0.0 -1.4898712123607306e-16 0.0 0.010000004900003601 0.009999947500413437 0.0 -1.0522030083071915e-15 0.0 0.01 0.0 -1.0522030083071915e-15 0.0 0.010000005350004297 0.009999947000421344 0.0 -2.9639736650816416e-15 0.0 0.01 0.0 -2.9639736650816416e-15 0.0 0.010000005350004292 0.009999947000421346 0.0 -4.47534398924052e-15 0.0 0.01 0.0 -4.4753439891371226e-15 0.0 0.010000003900002281 0.009999946500429336 0.0 -2.001878206035392e-15 0.0 0.01 0.0 -2.001878206035392e-15 0.0 0.010000003900002283 0.00999992700079934 0.0 -1.7137541369650525e-16 0.0 0.01 0.0 -1.7137541369650525e-16 0.0 0.010000003900002281 0.00999992700079934 0.0 -2.3331115672753323e-18 0.0 0.01 0.0 -2.3331115672753323e-18 0.0 0.010000004900003601 0.00999992700079934 0.0 -2.3505545504124357e-16 0.0 0.01 0.0 -2.3505545504124357e-16 0.0 0.010000006350006049 0.009999926500810328 0.0 -8.021011953221881e-16 0.0 0.01 0.0 -8.021011953221881e-16 0.0 0.010000007800009128 0.009999926000821389 0.0 -2.9530910688035724e-15 0.0 0.01 0.0 -2.9530910688035724e-15 0.0 0.010000008800011614 0.00999992550083253 0.0 -6.899811985183662e-15 0.0 0.01 0.0 -6.899811985080264e-15 0.0 0.010000008300010337 0.00999992500084374 0.0 -9.754765782080163e-15 0.0 0.01 0.0 -9.754765782080163e-15 0.0 0.010000006850007037 0.009999924000866387 0.0 -4.193098178257867e-15 0.0 0.01 0.0 -4.193098178257867e-15 0.0 0.010000005850005132 0.009999900001499975 0.0 -3.6753231197744104e-16 0.0 0.01 0.0 -3.6753231197744104e-16 0.0 0.010000005350004294 0.009999900501485012 0.0 -4.939272660548003e-16 0.0 0.01 0.0 -4.939272660548003e-16 0.0 0.010000007800009127 0.009999900501485012 0.0 -9.68813307400844e-16 0.0 0.01 0.0 -9.68813307400844e-16 0.0 0.01000000975001426 0.009999900001499976 0.0 -2.5560944698182923e-15 0.0 0.01 0.0 -2.5560944697665935e-15 0.0 0.010000013200026138 0.009999898501545309 0.0 -7.688501415114059e-15 0.0 0.01 0.0 -7.688501415217457e-15 0.0 0.010000015150034427 0.009999897001591325 0.0 -1.7467460893077335e-14 0.0 0.01 0.0 -1.746746089328413e-14 0.0 0.01000001365002795 0.009999895001653722 0.0 -2.3349708143381615e-14 0.0 0.01 0.0 -2.3349708143795205e-14 0.0 0.010000010250015762 0.00999989300171732 0.0 -6.884180080030024e-15 0.0 0.01 0.0 -6.884180080030024e-15 0.0 0.010000008300010335 0.009999869002574095 0.0 -1.7159442468718013e-15 0.0 0.01 0.0 -1.7159442468718013e-15 0.0 0.010000008800011617 0.009999869002574095 0.0 -1.5810251076601672e-15 0.0 0.01 0.0 -1.5810251076601672e-15 0.0 0.010000011700020534 0.009999868502593783 0.0 -2.4858027074206305e-15 0.0 0.01 0.0 -2.4858027074206305e-15 0.0 0.010000016600041338 0.009999867002653292 0.0 -6.5699546181889546e-15 0.0 0.01 0.0 -6.5699546181889546e-15 0.0 0.010000021500069338 0.009999864502753978 0.0 -2.0585310948345018e-14 0.0 0.01 0.0 -2.0585310948345018e-14 0.0 0.010000024400089309 0.009999863002815286 0.0 -4.656964132211733e-14 0.0 0.01 0.0 -4.6569641322530923e-14 0.0 0.0100000224500756 0.009999860002939934 0.0 -6.158876999809179e-14 0.0 0.01 0.0 -6.158876999809179e-14 0.0 0.010000016600041338 0.009999857003067275 0.0 -1.698618500661685e-14 0.0 0.01 0.0 -1.698618500661685e-14 0.0 0.010000012700024192 0.009999836004034292 0.0 -2.8358589031844876e-15 0.0 0.01 0.0 -2.8358589031844876e-15 0.0 0.010000013200026138 0.009999834504108428 0.0 -3.3081439268900818e-15 0.0 0.01 0.0 -3.3081439268900818e-15 0.0 0.010000019550057334 0.009999833504158223 0.0 -4.297718646598776e-15 0.0 0.01 0.0 -4.2977186465729265e-15 0.0 0.010000027350112206 0.00999983150425872 0.0 -1.5229879151926916e-14 0.0 0.01 0.0 -1.5229879151823518e-14 0.0 0.010000036150196028 0.009999828004437477 0.0 -5.281912900028469e-14 0.0 0.01 0.0 -5.28191289998711e-14 0.0 0.010000042500270942 0.009999825004593616 0.0 -1.2405662520203912e-13 0.0 0.01 0.0 -1.240566252028663e-13 0.0 0.010000039050228738 0.009999821004806009 0.0 -1.6779518201924364e-13 0.0 0.01 0.0 -1.6779518202255236e-13 0.0 0.010000028300120136 0.009999816505050685 0.0 -6.210855260452194e-14 0.0 0.01 0.0 -6.210855260493553e-14 0.0 0.010000019550057332 0.00999980350579165 0.0 -4.811010690163995e-15 0.0 0.01 0.0 -4.811010690112296e-15 0.0 0.010000020500063038 0.00999980200588041 0.0 -3.873373408644242e-15 0.0 0.01 0.0 -3.873373408644242e-15 0.0 0.010000031750151215 0.009999800505969842 0.0 -5.79384044608525e-15 0.0 0.01 0.0 -5.7938404460335516e-15 0.0 0.010000046400322947 0.009999797506150734 0.0 -3.231090313605981e-14 0.0 0.01 0.0 -3.231090313605981e-14 0.0 0.010000061500567347 0.00999979350639612 0.0 -1.3231531555508547e-13 0.0 0.01 0.0 -1.3231531555508547e-13 0.0 0.01000007225078302 0.009999789506646307 0.0 -3.244054535579498e-13 0.0 0.01 0.0 -3.244054535579498e-13 0.0 0.010000069800730815 0.009999784006998148 0.0 -4.50588634572834e-13 0.0 0.01 0.0 -4.5058863456621657e-13 0.0 0.010000050800387102 0.009999779007325885 0.0 -2.0836110020406073e-13 0.0 0.01 0.0 -2.0836110020406073e-13 0.0 0.010000031750151215 0.009999780507226774 0.0 -5.006999991704042e-15 0.0 0.01 0.0 -5.006999991652343e-15 0.0 0.010000031750151211 0.009999778507359067 0.0 1.1277309748506873e-16 0.0 0.01 0.0 1.1277309748506873e-16 0.0 0.0100000508003871 0.009999776007526119 0.0 -1.0480735361084e-15 0.0 0.01 0.0 -1.0480735361084e-15 0.0 0.010000075700859585 0.009999772507763146 0.0 -6.809697851952785e-14 0.0 0.01 0.0 -6.809697851952785e-14 0.0 0.010000101551546889 0.009999767508108125 0.0 -3.1589355926547765e-13 0.0 0.01 0.0 -3.1589355926547765e-13 0.0 0.010000120102163647 0.00999976300842502 0.0 -7.952604730788777e-13 0.0 0.01 0.0 -7.952604730788777e-13 0.0 0.010000118152093956 0.00999975800878425 0.0 -1.1254101763776542e-12 0.0 0.01 0.0 -1.1254101763842717e-12 0.0 0.010000090801236717 0.009999752009225222 0.0 -5.816722749557616e-13 0.0 0.01 0.0 -5.816722749557616e-13 0.0 0.010000058600515102 0.009999776507492559 0.0 -2.0477804432267853e-15 0.0 0.01 0.0 -2.0477804432267853e-15 0.0 0.010000047350336307 0.009999773507695047 0.0 1.4079516708984952e-14 0.0 0.01 0.0 1.4079516708933254e-14 0.0 0.010000079100938534 0.009999770507900237 0.0 1.3920131624620204e-14 0.0 0.01 0.0 1.3920131624723602e-14 0.0 0.0100001206021817 0.009999766508178024 0.0 -1.3364758381081139e-13 0.0 0.01 0.0 -1.336475838103978e-13 0.0 0.010000163103990356 0.009999762508460604 0.0 -6.81598389766105e-13 0.0 0.01 0.0 -6.815983897694138e-13 0.0 0.010000192405552845 0.009999758008784247 0.0 -1.7351777197286488e-12 0.0 0.01 0.0 -1.7351777197220313e-12 0.0 0.010000193855636857 0.009999753009150975 0.0 -2.473494861606325e-12 0.0 0.01 0.0 -2.473494861606325e-12 0.0 0.01000016455406162 0.009999748009525203 0.0 -1.3855524891328332e-12 0.0 0.01 0.0 -1.3855524891394507e-12 0.0 0.010000117702078036 0.009999798506090132 0.0 5.323944226905041e-15 0.0 0.01 0.0 5.323944226879192e-15 0.0 0.010000070300741322 0.009999796006242189 0.0 3.9900566182899886e-14 0.0 0.01 0.0 3.990056618310668e-14 0.0 0.010000119652147461 0.009999792506458213 0.0 4.2714407909420684e-14 0.0 0.01 0.0 4.2714407909420684e-14 0.0 0.010000183605056497 0.009999789006677915 0.0 -2.455146847716547e-13 0.0 0.01 0.0 -2.4551468477000036e-13 0.0 0.010000248059229704 0.009999786006869158 0.0 -1.2807987620163349e-12 0.0 0.01 0.0 -1.2807987620163349e-12 0.0 0.01000029396296163 0.009999783007063097 0.0 -3.2308937682322743e-12 0.0 0.01 0.0 -3.2308937682190394e-12 0.0 0.010000305664014003 0.009999780507226776 0.0 -4.621936577717531e-12 0.0 0.01 0.0 -4.621936577704296e-12 0.0 0.010000291012702769 0.009999776507492559 0.0 -2.735935572806568e-12 0.0 0.01 0.0 -2.7359355727999504e-12 0.0 0.010000241708763189 0.00999985250326336 0.0 1.6215572429517643e-14 0.0 0.01 0.0 1.6215572429517643e-14 0.0 0.010000100601518081 0.009999850503352458 0.0 7.54121035239049e-14 0.0 0.01 0.0 7.541210352307772e-14 0.0 0.01000017235445581 0.009999847503488351 0.0 7.20983521344466e-14 0.0 0.01 0.0 7.20983521344466e-14 0.0 0.010000263660427158 0.00999984550358045 0.0 -3.983475525301557e-13 0.0 0.01 0.0 -3.9834755253181004e-13 0.0 0.010000356469059626 0.009999844503626943 0.0 -2.0313263498787824e-12 0.0 0.01 0.0 -2.0313263498787824e-12 0.0 0.010000429227633873 0.009999843503673743 0.0 -5.0599038434152555e-12 0.0 0.01 0.0 -5.05990384342849e-12 0.0 0.010000473183583289 0.009999843503673743 0.0 -7.2532533925126955e-12 0.0 0.01 0.0 -7.2532533925126955e-12 0.0 0.010000510289056581 0.009999843003697256 0.0 -4.449737205694555e-12 0.0 0.01 0.0 -4.449737205694555e-12 0.0 0.01000048783569523 0.00999993650060483 0.0 2.5877878957430638e-14 0.0 0.01 0.0 2.5877878957430638e-14 0.0 0.010000135752764271 0.00999993550062403 0.0 1.0114984209079114e-13 0.0 0.01 0.0 1.0114984208996396e-13 0.0 0.010000234358238309 0.009999934500643534 0.0 8.806541422404051e-14 0.0 0.01 0.0 8.806541422404051e-14 0.0 0.010000358419268737 0.00999993450064353 0.0 -5.409029653849632e-13 0.0 0.01 0.0 -5.409029653849632e-13 0.0 0.010000485385337552 0.00999993550062403 0.0 -2.6474586797627114e-12 0.0 0.01 0.0 -2.6474586797627114e-12 0.0 0.010000597203493543 0.009999937000595344 0.0 -6.496537153692007e-12 0.0 0.01 0.0 -6.496537153678772e-12 0.0 0.010000706124784793 0.009999939500549036 0.0 -9.345534879142127e-12 0.0 0.01 0.0 -9.345534879155362e-12 0.0 0.010000859460788235 0.009999941500513334 0.0 -5.879820371914888e-12 0.0 0.01 0.0 -5.879820371928123e-12 0.0 0.010000908823879115 0.010000041500258341 0.0 2.7833340997486643e-14 0.0 0.01 0.0 2.7833340997486643e-14 0.0 0.010000173354507666 0.010000041500258343 0.0 1.0289300303938579e-13 0.0 0.01 0.0 1.0289300303938579e-13 0.0 0.01000030081357278 0.010000042500270938 0.0 7.771320623290882e-14 0.0 0.01 0.0 7.771320623290882e-14 0.0 0.010000459481666571 0.010000044450296371 0.0 -5.929831016600492e-13 0.0 0.01 0.0 -5.929831016617036e-13 0.0 0.010000624558506126 0.010000046850329243 0.0 -2.7785897447361885e-12 0.0 0.01 0.0 -2.778589744742806e-12 0.0 0.010000781341564655 0.010000051250393991 0.0 -6.719489995557788e-12 0.0 0.01 0.0 -6.719489995557788e-12 0.0 0.010000975742792524 0.01000005520045706 0.0 -9.634061423488073e-12 0.0 0.01 0.0 -9.634061423488073e-12 0.0 0.010001286398180476 0.01000005955053194 0.0 -6.178278015017438e-12 0.0 0.01 0.0 -6.17827801501082e-12 0.0 0.010001431457301852 0.01000015040339311 0.0 2.0693306015231436e-14 0.0 0.01 0.0 2.0693306015231436e-14 0.0 0.010000209956612082 0.010000150903415706 0.0 8.062062574614283e-14 0.0 0.01 0.0 8.062062574614283e-14 0.0 0.010000364769957595 0.010000152853504555 0.0 5.2277009614532043e-14 0.0 0.01 0.0 5.2277009614532043e-14 0.0 0.010000556196399722 0.010000156253662204 0.0 -5.175892411607718e-13 0.0 0.01 0.0 -5.175892411591174e-13 0.0 0.010000756935934128 0.010000159653823325 0.0 -2.347889594834535e-12 0.0 0.01 0.0 -2.3478895948279177e-12 0.0 0.010000955236854191 0.010000164054036973 0.0 -5.6103224121212454e-12 0.0 0.01 0.0 -5.610322412127863e-12 0.0 0.010001220423378636 0.010000169904330024 0.0 -8.007951226041339e-12 0.0 0.01 0.0 -8.007951226047956e-12 0.0 0.010001654710619487 0.010000175804635983 0.0 -5.22290228659088e-12 0.0 0.01 0.0 -5.22290228659088e-12 0.0 0.01000186672256791 0.010000239758622355 0.0 9.90461103710809e-15 0.0 0.01 0.0 9.90461105034298e-15 0.0 0.01000024120872697 0.010000241708763189 0.0 4.698971751973042e-14 0.0 0.01 0.0 4.698971751973042e-14 0.0 0.010000419476392592 0.01000024365890516 0.0 2.885026457081796e-14 0.0 0.01 0.0 2.8850264570611165e-14 0.0 0.010000640661561826 0.01000024755919253 0.0 -3.555227000156288e-13 0.0 0.01 0.0 -3.555227000156288e-13 0.0 0.010000871213838807 0.010000251009450544 0.0 -1.5961680167697275e-12 0.0 0.01 0.0 -1.596168016776345e-12 0.0 0.010001098330923124 0.010000255359780963 0.0 -3.802598091910561e-12 0.0 0.01 0.0 -3.802598091910561e-12 0.0 0.010001402144846405 0.010000260760199029 0.0 -5.405227154614844e-12 0.0 0.01 0.0 -5.405227154608226e-12 0.0 0.010001896539392853 0.010000266110621853 0.0 -3.5923876634882373e-12 0.0 0.01 0.0 -3.5923876634882373e-12 0.0 0.01000212372634052 0.010000294463005762 0.0 2.469540657032777e-15 0.0 0.01 0.0 2.469540657032777e-15 0.0 0.010000265610581975 0.01000029686321864 0.0 2.035662485134518e-14 0.0 0.01 0.0 2.0356624851551975e-14 0.0 0.01000046293214394 0.010000299313437743 0.0 1.350274622336097e-14 0.0 0.01 0.0 1.350274622341267e-14 0.0 0.010000706624890755 0.010000302763749329 0.0 -1.8641797390334508e-13 0.0 0.01 0.0 -1.8641797390334508e-13 0.0 0.01000095958810373 0.010000305664014005 0.0 -8.652385708425333e-13 0.0 0.01 0.0 -8.652385708441877e-13 0.0 0.010001205317883661 0.010000309564373923 0.0 -2.0833697216979532e-12 0.0 0.01 0.0 -2.083369721701262e-12 0.0 0.010001524298452047 0.010000313514743108 0.0 -2.9590780819358647e-12 0.0 0.01 0.0 -2.959078081932556e-12 0.0 0.01000203331999044 0.010000318365202815 0.0 -1.8700429988306975e-12 0.0 0.01 0.0 -1.8700429988340062e-12 0.0 0.010002248308006096 0.010000311064513568 0.0 -1.005567532423136e-15 0.0 0.01 0.0 -1.005567532423136e-15 0.0 0.010000283212030904 0.010000313514743108 0.0 5.7062218537933216e-15 0.0 0.01 0.0 5.7062218537933216e-15 0.0 0.010000493686556557 0.010000315464927093 0.0 5.647277591767414e-15 0.0 0.01 0.0 5.647277591767414e-15 0.0 0.010000752534937804 0.010000317865155098 0.0 -7.142529408196048e-14 0.0 0.01 0.0 -7.142529408196048e-14 0.0 0.01000102210668396 0.010000320315389638 0.0 -3.542178165278207e-13 0.0 0.01 0.0 -3.542178165282343e-13 0.0 0.01000127854515987 0.01000032376572296 0.0 -8.758620756619556e-13 0.0 0.01 0.0 -8.758620756611284e-13 0.0 0.010001601434606799 0.01000032616595694 0.0 -1.2257444751178912e-12 0.0 0.01 0.0 -1.225744475117064e-12 0.0 0.010002106115171374 0.010000329116246914 0.0 -6.392866269878845e-13 0.0 0.01 0.0 -6.392866269882981e-13 0.0 0.010002303045358452 0.010000296413178594 0.0 -1.0755922463584258e-15 0.0 0.01 0.0 -1.0755922447040645e-15 0.0 0.010000293962961624 0.010000298363352571 0.0 4.467812798132604e-16 0.0 0.01 0.0 4.467812798132604e-16 0.0 0.010000512239355686 0.010000300313527692 0.0 1.811282743599099e-15 0.0 0.01 0.0 1.811282743599099e-15 0.0 0.010000781341564657 0.01000030226370395 0.0 -1.6532361989750612e-14 0.0 0.01 0.0 -1.6532361989724762e-14 0.0 0.010001060718744775 0.010000304713927021 0.0 -9.440063660140806e-14 0.0 0.01 0.0 -9.440063660140806e-14 0.0 0.010001323512706524 0.01000030666410586 0.0 -2.42081001016705e-13 0.0 0.01 0.0 -2.4208100101629143e-13 0.0 0.01000164590626196 0.010000308614285832 0.0 -3.281174021018071e-13 0.0 0.01 0.0 -3.281174021018071e-13 0.0 0.010002142788534684 0.010000310564466944 0.0 -8.472166750284915e-14 0.0 0.01 0.0 -8.472166750284915e-14 0.0 0.010002322608926318 0.010000265160546145 0.0 -4.3614296720193037e-16 0.0 0.01 0.0 -4.3614296720193037e-16 0.0 0.010000298863397369 0.010000267610741943 0.0 -4.155442627649043e-16 0.0 0.01 0.0 -4.155442627649043e-16 0.0 0.010000520540641563 0.010000269060858671 0.0 -9.959609953972273e-18 0.0 0.01 0.0 -9.959609953972273e-18 0.0 0.010000794994792459 0.010000271011016647 0.0 -7.003758346846123e-16 0.0 0.01 0.0 -7.003758346846123e-16 0.0 0.010001079274699943 0.010000272461134855 0.0 -6.718171129827045e-15 0.0 0.01 0.0 -6.718171129827045e-15 0.0 0.010001345471495325 0.010000274411294823 0.0 -1.7959396725807608e-14 0.0 0.01 0.0 -1.7959396725807608e-14 0.0 0.010001666416449038 0.01000027491133602 0.0 -1.4938474270585293e-14 0.0 0.01 0.0 -1.4938474270585293e-14 0.0 0.010002157447986486 0.010000276361455928 0.0 4.421351188790359e-14 0.0 0.01 0.0 4.421351188785189e-14 0.0 0.010002326961960871 0.010000232408101778 0.0 1.5167224146363985e-16 0.0 0.01 0.0 1.5167224146363985e-16 0.0 0.010000299313437743 0.010000233908206702 0.0 2.9695959032411067e-16 0.0 0.01 0.0 2.9695959032411067e-16 0.0 0.010000522490946665 0.010000235858344112 0.0 2.387559190004224e-16 0.0 0.01 0.0 2.387559190004224e-16 0.0 0.01000079694525814 0.010000237308447027 0.0 -8.342885060573685e-16 0.0 0.01 0.0 -8.342885060573685e-16 0.0 0.010001082225656509 0.010000238758550576 0.0 -3.084950552170981e-15 0.0 0.01 0.0 -3.084950552170981e-15 0.0 0.010001348922889862 0.010000240258658356 0.0 -5.089346600732736e-15 0.0 0.01 0.0 -5.089346600732736e-15 0.0 0.010001668867674956 0.010000240708690822 0.0 -3.939284188732671e-15 0.0 0.01 0.0 -3.939284188732671e-15 0.0 0.010002155496724677 0.010000241208726968 0.0 8.824373389882495e-16 0.0 0.01 0.0 8.824373389882495e-16 0.0 0.010002322108577886 0.010000204106248734 0.0 4.176182623210396e-16 0.0 0.01 0.0 4.176182623210396e-16 0.0 0.010000296413178596 0.010000205106310117 0.0 1.5466129424953733e-15 0.0 0.01 0.0 1.5466129424953733e-15 0.0 0.010000517140112318 0.010000207056430678 0.0 1.6019718963551746e-15 0.0 0.01 0.0 1.6019718963551746e-15 0.0 0.01000079014363918 0.010000208506521066 0.0 -8.352917187363258e-15 0.0 0.01 0.0 -8.352917187363258e-15 0.0 0.010001072422488837 0.010000209456580625 0.0 -4.2180719533006764e-14 0.0 0.01 0.0 -4.2180719533006764e-14 0.0 0.01000133671797448 0.01000021095667522 0.0 -1.0008785260388924e-13 0.0 0.01 0.0 -1.0008785260388924e-13 0.0 0.010001656661588226 0.01000021190673548 0.0 -1.40071476067886e-13 0.0 0.01 0.0 -1.400714760677826e-13 0.0 0.010002145240110873 0.010000212406767307 0.0 -9.21630926852625e-14 0.0 0.01 0.0 -9.21630926852108e-14 0.0 0.010002315253811891 0.010000181154922448 0.0 6.360259015182324e-16 0.0 0.01 0.0 6.360259015182324e-16 0.0 0.010000290562663508 0.010000182154976946 0.0 3.3789078995058874e-15 0.0 0.01 0.0 3.3789078995058874e-15 0.0 0.010000505888385872 0.010000184105084079 0.0 3.1123724004469253e-15 0.0 0.01 0.0 3.1123724004469253e-15 0.0 0.0100007730396293 0.010000185555164484 0.0 -2.3340809585762977e-14 0.0 0.01 0.0 -2.3340809585762977e-14 0.0 0.010001049965340939 0.010000187005245513 0.0 -1.1636093807897337e-13 0.0 0.01 0.0 -1.1636093807897337e-13 0.0 0.010001309357117521 0.010000188005301768 0.0 -2.827187481188478e-13 0.0 0.01 0.0 -2.8271874811843423e-13 0.0 0.01000162439571351 0.010000188955355484 0.0 -3.9732425257210337e-13 0.0 0.01 0.0 -3.9732425257210337e-13 0.0 0.010002105664887018 0.010000189955412325 0.0 -2.4194549996664703e-13 0.0 0.01 0.0 -2.4194549996644024e-13 0.0 0.010002275676569947 0.010000160153847306 0.0 1.0414801776346634e-15 0.0 0.01 0.0 1.0414801776346634e-15 0.0 0.010000280761823637 0.010000162103941569 0.0 6.126535031620871e-15 0.0 0.01 0.0 6.126535031595022e-15 0.0 0.010000489785981196 0.01000016405403697 0.0 5.03496735410714e-15 0.0 0.01 0.0 5.03496735410714e-15 0.0 0.010000748133947288 0.010000165054086338 0.0 -4.7286509597191696e-14 0.0 0.01 0.0 -4.728650959739849e-14 0.0 0.010001015304605586 0.010000166504158452 0.0 -2.2839043304825354e-13 0.0 0.01 0.0 -2.2839043304825354e-13 0.0 0.010001267340882233 0.010000167954231197 0.0 -5.549804880086632e-13 0.0 0.01 0.0 -5.549804880086632e-13 0.0 0.010001571670444567 0.010000168954281735 0.0 -7.866432179454562e-13 0.0 0.01 0.0 -7.866432179454562e-13 0.0 0.010002038222983631 0.010000169454307121 0.0 -4.860544448532096e-13 0.0 0.01 0.0 -4.860544448540368e-13 0.0 0.010002202377356315 0.010000137202823643 0.0 1.419760009396407e-15 0.0 0.01 0.0 1.419760009396407e-15 0.0 0.01000026856081835 0.010000139152904479 0.0 9.135351315399979e-15 0.0 0.01 0.0 9.135351315399979e-15 0.0 0.010000468282891278 0.010000141102986453 0.0 6.992151210532563e-15 0.0 0.01 0.0 6.992151210532563e-15 0.0 0.010000714426553505 0.010000143053069569 0.0 -7.989336814812887e-14 0.0 0.01 0.0 -7.989336814812887e-14 0.0 0.010000971341507322 0.01000014500315383 0.0 -3.7071006691987176e-13 0.0 0.01 0.0 -3.7071006691987176e-13 0.0 0.01000121066982273 0.010000146953239227 0.0 -8.941248550374825e-13 0.0 0.01 0.0 -8.941248550374825e-13 0.0 0.01000150083780952 0.01000014795328346 0.0 -1.280901471115591e-12 0.0 0.01 0.0 -1.280901471115591e-12 0.0 0.010001943416383323 0.010000148953327999 0.0 -8.225545349134726e-13 0.0 0.01 0.0 -8.225545349134726e-13 0.0 0.010002097809936389 0.010000108901778916 0.0 1.969363124320097e-15 0.0 0.01 0.0 1.969363124320097e-15 0.0 0.010000253409632143 0.010000110851843193 0.0 1.2576156214734899e-14 0.0 0.01 0.0 1.2576156214734899e-14 0.0 0.010000441929293499 0.010000113751940898 0.0 7.762917632239712e-15 0.0 0.01 0.0 7.762917632239712e-15 0.0 0.01000067436820974 0.010000116702042875 0.0 -1.1485935590242704e-13 0.0 0.01 0.0 -1.1485935590242704e-13 0.0 0.010000916626015089 0.010000119152129552 0.0 -5.213624746644239e-13 0.0 0.01 0.0 -5.213624746652511e-13 0.0 0.010001142795867512 0.01000012160221803 0.0 -1.2567952725571965e-12 0.0 0.01 0.0 -1.2567952725571965e-12 0.0 0.010001413399598305 0.010000123552289736 0.0 -1.8048888557443099e-12 0.0 0.01 0.0 -1.8048888557443099e-12 0.0 0.010001826650375868 0.01000012550236259 0.0 -1.178997077969061e-12 0.0 0.01 0.0 -1.1789970779682339e-12 0.0 0.01000196738043561 0.010000076150869838 0.0 2.6473467438340925e-15 0.0 0.01 0.0 2.6473467438340925e-15 0.0 0.010000236358379532 0.010000079100938536 0.0 1.555451488681436e-14 0.0 0.01 0.0 1.555451488671096e-14 0.0 0.01000041162541393 0.010000082501020953 0.0 8.232691010239271e-15 0.0 0.01 0.0 8.232691010239271e-15 0.0 0.010000628959333503 0.010000086451121055 0.0 -1.421456928505165e-13 0.0 0.01 0.0 -1.421456928507233e-13 0.0 0.010000854609541138 0.010000090351224488 0.0 -6.443336620747395e-13 0.0 0.01 0.0 -6.443336620747395e-13 0.0 0.010001064619988226 0.010000094251332482 0.0 -1.5650742705231773e-12 0.0 0.01 0.0 -1.565074270521523e-12 0.0 0.01000131325865195 0.01000009765143035 0.0 -2.257964131001978e-12 0.0 0.01 0.0 -2.2579641310036322e-12 0.0 0.01000169132899232 0.01000010060151808 0.0 -1.5109873914052811e-12 0.0 0.01 0.0 -1.5109873914069355e-12 0.0 0.010001816895046214 0.010000042000264603 0.0 2.4866103665707273e-15 0.0 0.01 0.0 2.4866103665707273e-15 0.0 0.010000217307083151 0.010000046400322947 0.0 1.4843366432809914e-14 0.0 0.01 0.0 1.4843366432809914e-14 0.0 0.010000378921536143 0.010000050800387102 0.0 8.111232391853524e-15 0.0 0.01 0.0 8.111232391853524e-15 0.0 0.01000057915030838 0.010000056150472928 0.0 -1.558845608617023e-13 0.0 0.01 0.0 -1.558845608621159e-13 0.0 0.010000786692823104 0.010000062500585943 0.0 -7.166761598293815e-13 0.0 0.01 0.0 -7.166761598293815e-13 0.0 0.010000978643642765 0.010000068350700764 0.0 -2.419463320269221e-12 0.0 0.01 0.0 -2.4194633202659122e-12 0.0 0.010001203817341545 0.010000073250804844 0.0 -5.242679395422604e-12 0.0 0.01 0.0 -5.2426793954159865e-12 0.0 0.010001543807427633 0.010000077650904441 0.0 -1.718333864984533e-12 0.0 0.01 0.0 -1.718333864984533e-12 0.0 0.010001652759651895 0.010000012200022326 0.0 1.6172662031318822e-15 0.0 0.01 0.0 1.6172662031318822e-15 0.0 0.010000198255895654 0.010000016100038884 0.0 1.309645724720479e-14 0.0 0.01 0.0 1.309645724720479e-14 0.0 0.010000345717927309 0.010000022450075603 0.0 6.6980828939684204e-15 0.0 0.01 0.0 6.6980828939684204e-15 0.0 0.010000527391718372 0.01000002980013321 0.0 -2.2990320257085583e-12 0.0 0.01 0.0 -2.299032025701941e-12 0.0 0.01000071587686462 0.010000038100217745 0.0 -2.5837274175585837e-11 0.0 0.01 0.0 -2.5837274175532897e-11 0.0 0.010000889268605737 0.01000004640032295 0.0 -7.658669765147565e-11 0.0 0.01 0.0 -7.658669765136977e-11 0.0 0.010001089528034841 0.01000005470044882 0.0 -9.408009140578677e-11 0.0 0.01 0.0 -9.408009140578677e-11 0.0 0.010001390890132496 0.010000061050559075 0.0 -1.7365020197973745e-12 0.0 0.01 0.0 -1.7365020197973745e-12 0.0 0.010001482279507758 0.00999998700002535 0.0 5.055851922208616e-16 0.0 0.01 0.0 5.055851922208616e-16 0.0 0.010000179704843957 0.009999992500008442 0.0 7.9695276081507e-15 0.0 0.01 0.0 7.9695276081507e-15 0.0 0.010000312514649203 0.010000000000000004 0.0 -3.8922123692088445e-12 0.0 0.01 0.0 -3.89221236919561e-12 0.0 0.010000477084139222 0.010000009750014261 0.0 -4.637747386844341e-11 0.0 0.01 0.0 -4.637747386844341e-11 0.0 0.010000645562507264 0.010000020000060008 0.0 -1.9385677335523096e-10 0.0 0.01 0.0 -1.9385677335523096e-10 0.0 0.010000800396084836 0.010000031750151238 0.0 -4.2185657108201e-10 0.0 0.01 0.0 -4.2185657108201e-10 0.0 0.010000977193217355 0.010000042950276736 0.0 -4.4897196702353557e-10 0.0 0.01 0.0 -4.4897196702353557e-10 0.0 0.010001237029498473 0.010000051750401714 0.0 1.7496281204584212e-12 0.0 0.01 0.0 1.7496281204584212e-12 0.0 0.01000130980729434 0.00999996900014415 0.0 -3.80940164107001e-16 0.0 0.01 0.0 -3.80940164107001e-16 0.0 0.0100001635540124 0.009999975000093753 0.0 -5.905994456596185e-13 0.0 0.01 0.0 -5.905994456596185e-13 0.0 0.01000028176190802 0.00999998450003604 0.0 -2.320737040667015e-11 0.0 0.01 0.0 -2.320737040667015e-11 0.0 0.01000042872756953 0.009999996000002407 0.0 -1.748985927826811e-10 0.0 0.01 0.0 -1.7489859278225757e-10 0.0 0.010000579150308386 0.01000000930001303 0.0 -6.094724488310002e-10 0.0 0.01 0.0 -6.094724488310002e-10 0.0 0.010000715426768055 0.010000023450082702 0.0 -1.1966657335984635e-09 0.0 0.01 0.0 -1.1966657335984635e-09 0.0 0.01000086876319953 0.010000036600201136 0.0 -1.1607517189011248e-09 0.0 0.01 0.0 -1.1607517188994308e-09 0.0 0.010001090528362082 0.01000004930036458 0.0 9.861512892800932e-11 0.0 0.01 0.0 9.86151289281152e-11 0.0 0.010001141295353537 0.009999956500283838 0.0 2.2229252115871349e-13 0.0 0.01 0.0 2.2229252115871349e-13 0.0 0.01000014940334814 0.009999964500189038 0.0 4.004543411597607e-12 0.0 0.01 0.0 4.004543411571137e-12 0.0 0.010000255859819304 0.00999997450009754 0.0 -3.384098912562338e-11 0.0 0.01 0.0 -3.38409891255175e-11 0.0 0.01000038477220631 0.009999988500019858 0.0 -3.4289325529348116e-10 0.0 0.01 0.0 -3.428932552943282e-10 0.0 0.010000517140112339 0.010000003400001954 0.0 -1.215174052951706e-09 0.0 0.01 0.0 -1.215174052951706e-09 0.0 0.010000635810633356 0.010000019550058126 0.0 -2.301825008234977e-09 0.0 0.01 0.0 -2.301825008234977e-09 0.0 0.01000076963884327 0.010000034650180713 0.0 -2.026636074735198e-09 0.0 0.01 0.0 -2.026636074738586e-09 0.0 0.010000953236282209 0.010000050800387123 0.0 4.003907718392539e-10 0.0 0.01 0.0 4.0039077183840686e-10 0.0 0.010000977693363982 0.009999950500367536 0.0 4.995448177216614e-12 0.0 0.01 0.0 4.995448177216614e-12 0.0 0.010000139152904477 0.009999959500246035 0.0 4.8934002751640905e-11 0.0 0.01 0.0 4.893400275121739e-11 0.0 0.010000232908136678 0.009999970500130538 0.0 6.84245556748162e-11 0.0 0.01 0.0 6.842455567502796e-11 0.0 0.010000346718031176 0.009999984000038417 0.0 -3.5693826496492365e-10 0.0 0.01 0.0 -3.5693826496492365e-10 0.0 0.010000461481942889 0.009999999000000587 0.0 -1.7089257072094052e-09 0.0 0.01 0.0 -1.7089257072094052e-09 0.0 0.010000565948041388 0.010000016100040452 0.0 -3.2367727145326533e-09 0.0 0.01 0.0 -3.2367727145394295e-09 0.0 0.010000682219808802 0.010000034200176344 0.0 -2.4473737919469786e-09 0.0 0.01 0.0 -2.4473737919402023e-09 0.0 0.010000828703001818 0.010000055650464627 0.0 7.610284666344062e-10 0.0 0.01 0.0 7.610284666310181e-10 0.0 0.010000822351428247 0.009999950000374996 0.0 3.413974809638896e-11 0.0 0.01 0.0 3.4139748095965444e-11 0.0 0.010000131352587977 0.009999959500246042 0.0 2.167023673728391e-10 0.0 0.01 0.0 2.167023673728391e-10 0.0 0.010000214856924334 0.009999969500139564 0.0 4.515008236803241e-10 0.0 0.01 0.0 4.515008236803241e-10 0.0 0.010000312514649229 0.0099999820000486 0.0 4.1774128368606215e-11 0.0 0.01 0.0 4.177412836881797e-11 0.0 0.01000041162541393 0.00999999500000416 0.0 -1.655260472545534e-09 0.0 0.01 0.0 -1.6552604725523102e-09 0.0 0.010000503938090889 0.010000012200023863 0.0 -3.1995687603682916e-09 0.0 0.01 0.0 -3.199568760375068e-09 0.0 0.010000607955438515 0.010000035150185762 0.0 -1.7017903430342123e-09 0.0 0.01 0.0 -1.7017903430308241e-09 0.0 0.01000071782728444 0.010000066400661372 0.0 3.4756174413778685e-10 0.0 0.01 0.0 3.475617441369398e-10 0.0 0.010000675868513583 0.009999954000317397 0.0 1.5131609507735124e-10 0.0 0.01 0.0 1.5131609507735124e-10 0.0 0.010000127952455733 0.009999963500199898 0.0 6.428108825970154e-10 0.0 0.01 0.0 6.428108825936273e-10 0.0 0.01000020070604234 0.009999972000117848 0.0 1.280090944356905e-09 0.0 0.01 0.0 1.2800909443501287e-09 0.0 0.010000284212116264 0.009999980000060159 0.0 1.0362252702154537e-09 0.0 0.01 0.0 1.0362252702120656e-09 0.0 0.010000369170442178 0.00999999100001222 0.0 -6.730064863489185e-10 0.0 0.01 0.0 -6.730064863472244e-10 0.0 0.010000451680600531 0.010000009300013333 0.0 -1.5511071982360998e-09 0.0 0.01 0.0 -1.551107198242876e-09 0.0 0.010000546894861186 0.010000038550222919 0.0 8.898630566144474e-11 0.0 0.01 0.0 8.898630566123298e-11 0.0 0.010000619707600867 0.010000086901133739 0.0 -2.5597603745040973e-09 0.0 0.01 0.0 -2.5597603745040973e-09 0.0 0.010000542044069562 0.009999963500199868 0.0 4.862972536118161e-10 0.0 0.01 0.0 4.862972536118161e-10 0.0 0.010000126002381485 0.009999970000135326 0.0 1.4798656841104188e-09 0.0 0.01 0.0 1.4798656841104188e-09 0.0 0.010000188505330332 0.009999975500091062 0.0 2.616671359949828e-09 0.0 0.01 0.0 2.616671359949828e-09 0.0 0.010000259310086934 0.009999981000055181 0.0 2.620894425111827e-09 0.0 0.01 0.0 2.620894425111827e-09 0.0 0.010000331566490753 0.00999998950001682 0.0 1.3812750006620051e-09 0.0 0.01 0.0 1.3812750006620051e-09 0.0 0.010000408224996071 0.010000008800011909 0.0 1.3984325971013996e-09 0.0 0.01 0.0 1.3984325970980115e-09 0.0 0.01000049368655685 0.010000044450296525 0.0 1.0088252758496264e-09 0.0 0.01 0.0 1.0088252758530146e-09 0.0 0.010000526391560446 0.009999976000086631 0.0 1.2430759530990092e-09 0.0 0.01 0.0 1.2430759530854566e-09 0.0 0.010000126452398724 0.009999981000055355 0.0 2.8340831534335274e-09 0.0 0.01 0.0 2.8340831534335274e-09 0.0 0.010000179204818245 0.009999983000046198 0.0 4.355449274108308e-09 0.0 0.01 0.0 4.355449274081203e-09 0.0 0.010000238758553423 0.0099999840000416 0.0 4.6196576116081575e-09 0.0 0.01 0.0 4.6196576116081575e-09 0.0 0.010000301763661849 0.009999992000012229 0.0 4.190440756936535e-09 0.0 0.01 0.0 4.190440756950088e-09 0.0 0.010000374020985338 0.010000013200028421 0.0 3.903031441879895e-09 0.0 0.01 0.0 3.9030314418934476e-09 0.0 0.010000441929295783 0.01000005320042483 0.0 -1.3915142566857386e-09 0.0 0.01 0.0 -1.3915142566857386e-09 0.0 0.010000434578327399 0.00999999200001061 0.0 2.593873561714021e-09 0.0 0.01 0.0 2.593873561714021e-09 0.0 0.010000126002382459 0.009999993500009555 0.0 4.630211934242116e-09 0.0 0.01 0.0 4.630211934133696e-09 0.0 0.010000170404358764 0.009999992500014283 0.0 6.242556137921358e-09 0.0 0.01 0.0 6.242556137921358e-09 0.0 0.010000220707312385 0.009999992500015346 0.0 6.787744737997035e-09 0.0 0.01 0.0 6.78774473796993e-09 0.0 0.010000279311708729 0.010000001950007123 0.0 6.609060647849241e-09 0.0 0.01 0.0 6.609060647849241e-09 0.0 0.010000345717933859 0.0100000244000908 0.0 3.1589876365255808e-09 0.0 0.01 0.0 3.1589876365120282e-09 0.0 0.010000387222491525 0.010000008300013328 0.0 4.4671368503151204e-09 0.0 0.01 0.0 4.4671368503693305e-09 0.0 0.010000124002309438 0.01000000685001347 0.0 6.548562439545342e-09 0.0 0.01 0.0 6.548562439545342e-09 0.0 0.010000163103996783 0.0100000053500139 0.0 8.001937982615292e-09 0.0 0.01 0.0 8.001937982561082e-09 0.0 0.010000207506468267 0.010000009300023888 0.0 8.530601549585834e-09 0.0 0.01 0.0 8.530601549640044e-09 0.0 0.010000262710363063 0.010000022450081518 0.0 6.280404717958583e-09 0.0 0.01 0.0 6.280404717931478e-09 0.0 0.010000316415023053 0.010000046850330789 0.0 -3.215515689719323e-09 0.0 0.01 0.0 -3.2155156897328754e-09 0.0 0.010000328616199131 0.010000024900099262 0.0 6.459980878567931e-09 0.0 0.01 0.0 6.4599808784595106e-09 0.0 0.01000012255225908 0.010000023950096207 0.0 8.23420418807029e-09 0.0 0.01 0.0 8.23420418796187e-09 0.0 0.01000015675369585 0.01000002685012088 0.0 9.217205414928722e-09 0.0 0.01 0.0 9.217205414928722e-09 0.0 0.01000020020602495 0.010000035150194674 0.0 7.893150517739034e-09 0.0 0.01 0.0 7.893150517684824e-09 0.0 0.01000024950934727 0.010000050800387099 0.0 5.989367369516955e-11 0.0 0.01 0.0 5.989367369516955e-11 0.0 0.010000284662154421 0.010000044900312411 0.0 8.168408892643073e-09 0.0 0.01 0.0 8.168408892643073e-09 0.0 0.010000121102209833 0.010000049800385043 0.0 9.322626212129002e-09 0.0 0.01 0.0 9.322626212237423e-09 0.0 0.010000153803561293 0.010000058600525113 0.0 8.171500320472945e-09 0.0 0.01 0.0 8.171500320364525e-09 0.0 0.010000193355617828 0.010000067850690781 0.0 1.2424900446071467e-09 0.0 0.01 0.0 1.2424900446071467e-09 0.0 0.010000236358379757 0.010000075700871766 0.0 9.010566990892005e-09 0.0 0.01 0.0 9.010566990458324e-09 0.0 0.010000121102212007 0.010000085451104652 0.0 7.907843664611836e-09 0.0 0.01 0.0 7.907843664394995e-09 0.0 0.01000015285351394 0.01000009325130458 0.0 1.2248023210340193e-09 0.0 0.01 0.0 1.2248023210340193e-09 0.0 0.01000018800530199 0.010000100601546534 0.0 -1.3773736911876916e-08 0.0 0.01 0.0 -1.3773736911876916e-08 0.0 0.010000225107629244 0.010000109851816218 0.0 6.392934746250051e-09 0.0 0.01 0.0 6.392934746250051e-09 0.0 0.010000124002312578 0.010000110851843191 0.0 5.732066407254145e-11 0.0 0.01 0.0 5.7320664070847384e-11 0.0 0.010000154803594547 0.010000117702079406 0.0 -3.024097303084769e-09 0.0 0.01 0.0 -3.024097303084769e-09 0.0 0.010000132302626925 
