# vtk DataFile Version 3.0
Test VTK file for Force data
ASCII
DATASET POLYDATA
POINTS 2975 float
 -2.2000000E-01   9.9999998E-03  -3.8000000E-01
 -2.2000000E-01   9.9999998E-03  -3.6000001E-01
 -2.0000000E-01   9.9999998E-03  -4.0000001E-01
 -2.0000000E-01   9.9999998E-03  -3.8000000E-01
 -2.0000000E-01   9.9999998E-03  -3.6000001E-01
 -1.8000001E-01   9.9999998E-03  -4.0000001E-01
 -1.8000001E-01   9.9999998E-03  -3.8000000E-01
 -1.8000001E-01   9.9999998E-03  -3.6000001E-01
 -1.6000000E-01   9.9999998E-03  -4.0000001E-01
 -1.6000000E-01   9.9999998E-03  -3.8000000E-01
 -1.6000000E-01   9.9999998E-03  -3.6000001E-01
 -1.4000000E-01   9.9999998E-03  -4.0000001E-01
 -1.4000000E-01   9.9999998E-03  -3.8000000E-01
 -1.4000000E-01   9.9999998E-03  -3.6000001E-01
 -1.2000000E-01   9.9999998E-03  -4.0000001E-01
 -1.2000000E-01   9.9999998E-03  -3.8000000E-01
 -1.2000000E-01   9.9999998E-03  -3.6000001E-01
 -1.0000000E-01   9.9999998E-03  -4.0000001E-01
 -1.0000000E-01   9.9999998E-03  -3.8000000E-01
 -1.0000000E-01   9.9999998E-03  -3.6000001E-01
 -7.9999998E-02   9.9999998E-03  -4.0000001E-01
 -7.9999998E-02   9.9999998E-03  -3.8000000E-01
 -7.9999998E-02   9.9999998E-03  -3.6000001E-01
 -5.9999999E-02   9.9999998E-03  -4.0000001E-01
 -5.9999999E-02   9.9999998E-03  -3.8000000E-01
 -5.9999999E-02   9.9999998E-03  -3.6000001E-01
 -3.9999999E-02   9.9999998E-03  -4.0000001E-01
 -3.9999999E-02   9.9999998E-03  -3.8000000E-01
 -3.9999999E-02   9.9999998E-03  -3.6000001E-01
 -2.0000000E-02   9.9999998E-03  -4.0000001E-01
 -2.0000000E-02   9.9999998E-03  -3.8000000E-01
 -2.0000000E-02   9.9999998E-03  -3.6000001E-01
  0.0000000E+00   9.9999998E-03  -4.0000001E-01
  0.0000000E+00   9.9999998E-03  -3.8000000E-01
  0.0000000E+00   9.9999998E-03  -3.6000001E-01
  2.0000000E-02   9.9999998E-03  -4.0000001E-01
  2.0000000E-02   9.9999998E-03  -3.8000000E-01
  2.0000000E-02   9.9999998E-03  -3.6000001E-01
  3.9999999E-02   9.9999998E-03  -4.0000001E-01
  3.9999999E-02   9.9999998E-03  -3.8000000E-01
  3.9999999E-02   9.9999998E-03  -3.6000001E-01
  5.9999999E-02   9.9999998E-03  -4.0000001E-01
  5.9999999E-02   9.9999998E-03  -3.8000000E-01
  5.9999999E-02   9.9999998E-03  -3.6000001E-01
  7.9999998E-02   9.9999998E-03  -4.0000001E-01
  7.9999998E-02   9.9999998E-03  -3.8000000E-01
  7.9999998E-02   9.9999998E-03  -3.6000001E-01
  1.0000000E-01   9.9999998E-03  -4.0000001E-01
  1.0000000E-01   9.9999998E-03  -3.8000000E-01
  1.0000000E-01   9.9999998E-03  -3.6000001E-01
  1.2000000E-01   9.9999998E-03  -4.0000001E-01
  1.2000000E-01   9.9999998E-03  -3.8000000E-01
  1.2000000E-01   9.9999998E-03  -3.6000001E-01
  1.4000000E-01   9.9999998E-03  -4.0000001E-01
  1.4000000E-01   9.9999998E-03  -3.8000000E-01
  1.4000000E-01   9.9999998E-03  -3.6000001E-01
  1.6000000E-01   9.9999998E-03  -4.0000001E-01
  1.6000000E-01   9.9999998E-03  -3.8000000E-01
  1.6000000E-01   9.9999998E-03  -3.6000001E-01
  1.8000001E-01   9.9999998E-03  -4.0000001E-01
  1.8000001E-01   9.9999998E-03  -3.8000000E-01
  1.8000001E-01   9.9999998E-03  -3.6000001E-01
  2.0000000E-01   9.9999998E-03  -3.8000000E-01
  2.0000000E-01   9.9999998E-03  -3.6000001E-01
 -2.2000000E-01   9.9999998E-03  -3.4000000E-01
 -2.2000000E-01   9.9999998E-03  -3.1999999E-01
 -2.2000000E-01   9.9999998E-03  -3.0000001E-01
 -2.2000000E-01   9.9999998E-03  -2.8000000E-01
 -2.2000000E-01   9.9999998E-03  -2.5999999E-01
 -2.2000000E-01   9.9999998E-03  -2.3999999E-01
 -2.2000000E-01   9.9999998E-03  -2.2000000E-01
 -2.2000000E-01   9.9999998E-03  -2.0000000E-01
 -2.0000000E-01   9.9999998E-03  -3.4000000E-01
 -2.0000000E-01   9.9999998E-03  -3.1999999E-01
 -2.0000000E-01   9.9999998E-03  -3.0000001E-01
 -2.0000000E-01   9.9999998E-03  -2.8000000E-01
 -2.0000000E-01   9.9999998E-03  -2.5999999E-01
 -2.0000000E-01   9.9999998E-03  -2.3999999E-01
 -2.0000000E-01   9.9999998E-03  -2.2000000E-01
 -2.0000000E-01   9.9999998E-03  -2.0000000E-01
 -1.8000001E-01   9.9999998E-03  -3.4000000E-01
 -1.8000001E-01   9.9999998E-03  -3.1999999E-01
 -1.8000001E-01   9.9999998E-03  -3.0000001E-01
 -1.8000001E-01   9.9999998E-03  -2.8000000E-01
 -1.8000001E-01   9.9999998E-03  -2.5999999E-01
 -1.8000001E-01   9.9999998E-03  -2.3999999E-01
 -1.8000001E-01   9.9999998E-03  -2.2000000E-01
 -1.8000001E-01   9.9999998E-03  -2.0000000E-01
 -1.6000000E-01   9.9999998E-03  -3.4000000E-01
 -1.6000000E-01   9.9999998E-03  -3.1999999E-01
 -1.6000000E-01   9.9999998E-03  -3.0000001E-01
 -1.6000000E-01   9.9999998E-03  -2.8000000E-01
 -1.6000000E-01   9.9999998E-03  -2.5999999E-01
 -1.6000000E-01   9.9999998E-03  -2.3999999E-01
 -1.6000000E-01   9.9999998E-03  -2.2000000E-01
 -1.6000000E-01   9.9999998E-03  -2.0000000E-01
 -1.4000000E-01   9.9999998E-03  -3.4000000E-01
 -1.4000000E-01   9.9999998E-03  -3.1999999E-01
 -1.4000000E-01   9.9999998E-03  -3.0000001E-01
 -1.4000000E-01   9.9999998E-03  -2.8000000E-01
 -1.4000000E-01   9.9999998E-03  -2.5999999E-01
 -1.4000000E-01   9.9999998E-03  -2.3999999E-01
 -1.4000000E-01   9.9999998E-03  -2.2000000E-01
 -1.4000000E-01   9.9999998E-03  -2.0000000E-01
 -1.2000000E-01   9.9999998E-03  -3.4000000E-01
 -1.2000000E-01   9.9999998E-03  -3.1999999E-01
 -1.2000000E-01   9.9999998E-03  -3.0000001E-01
 -1.2000000E-01   9.9999998E-03  -2.8000000E-01
 -1.2000000E-01   9.9999998E-03  -2.5999999E-01
 -1.2000000E-01   9.9999998E-03  -2.3999999E-01
 -1.2000000E-01   9.9999998E-03  -2.2000000E-01
 -1.2000000E-01   9.9999998E-03  -2.0000000E-01
 -1.0000000E-01   9.9999998E-03  -3.4000000E-01
 -1.0000000E-01   9.9999998E-03  -3.1999999E-01
 -1.0000000E-01   9.9999998E-03  -3.0000001E-01
 -1.0000000E-01   9.9999998E-03  -2.8000000E-01
 -1.0000000E-01   9.9999998E-03  -2.5999999E-01
 -1.0000000E-01   9.9999998E-03  -2.3999999E-01
 -1.0000000E-01   9.9999998E-03  -2.2000000E-01
 -1.0000000E-01   9.9999998E-03  -2.0000000E-01
 -7.9999998E-02   9.9999998E-03  -3.4000000E-01
 -7.9999998E-02   9.9999998E-03  -3.1999999E-01
 -7.9999998E-02   9.9999998E-03  -3.0000001E-01
 -7.9999998E-02   9.9999998E-03  -2.8000000E-01
 -7.9999998E-02   9.9999998E-03  -2.5999999E-01
 -7.9999998E-02   9.9999998E-03  -2.3999999E-01
 -7.9999998E-02   9.9999998E-03  -2.2000000E-01
 -7.9999998E-02   9.9999998E-03  -2.0000000E-01
 -5.9999999E-02   9.9999998E-03  -3.4000000E-01
 -5.9999999E-02   9.9999998E-03  -3.1999999E-01
 -5.9999999E-02   9.9999998E-03  -3.0000001E-01
 -5.9999999E-02   9.9999998E-03  -2.8000000E-01
 -5.9999999E-02   9.9999998E-03  -2.5999999E-01
 -5.9999999E-02   9.9999998E-03  -2.3999999E-01
 -5.9999999E-02   9.9999998E-03  -2.2000000E-01
 -5.9999999E-02   9.9999998E-03  -2.0000000E-01
 -3.9999999E-02   9.9999998E-03  -3.4000000E-01
 -3.9999999E-02   9.9999998E-03  -3.1999999E-01
 -3.9999999E-02   9.9999998E-03  -3.0000001E-01
 -3.9999999E-02   9.9999998E-03  -2.8000000E-01
 -3.9999999E-02   9.9999998E-03  -2.5999999E-01
 -3.9999999E-02   9.9999998E-03  -2.3999999E-01
 -3.9999999E-02   9.9999998E-03  -2.2000000E-01
 -3.9999999E-02   9.9999998E-03  -2.0000000E-01
 -2.0000000E-02   9.9999998E-03  -3.4000000E-01
 -2.0000000E-02   9.9999998E-03  -3.1999999E-01
 -2.0000000E-02   9.9999998E-03  -3.0000001E-01
 -2.0000000E-02   9.9999998E-03  -2.8000000E-01
 -2.0000000E-02   9.9999998E-03  -2.5999999E-01
 -2.0000000E-02   9.9999998E-03  -2.3999999E-01
 -2.0000000E-02   9.9999998E-03  -2.2000000E-01
 -2.0000000E-02   9.9999998E-03  -2.0000000E-01
  0.0000000E+00   9.9999998E-03  -3.4000000E-01
  0.0000000E+00   9.9999998E-03  -3.1999999E-01
  0.0000000E+00   9.9999998E-03  -3.0000001E-01
  2.0000000E-02   9.9999998E-03  -3.4000000E-01
  2.0000000E-02   9.9999998E-03  -3.1999999E-01
  3.9999999E-02   9.9999998E-03  -3.4000000E-01
  3.9999999E-02   9.9999998E-03  -3.1999999E-01
  5.9999999E-02   9.9999998E-03  -3.4000000E-01
  5.9999999E-02   9.9999998E-03  -3.1999999E-01
  7.9999998E-02   9.9999998E-03  -3.4000000E-01
  7.9999998E-02   9.9999998E-03  -3.1999999E-01
  1.0000000E-01   9.9999998E-03  -3.4000000E-01
  1.0000000E-01   9.9999998E-03  -3.1999999E-01
  1.2000000E-01   9.9999998E-03  -3.4000000E-01
  1.2000000E-01   9.9999998E-03  -3.1999999E-01
  1.4000000E-01   9.9999998E-03  -3.4000000E-01
  1.4000000E-01   9.9999998E-03  -3.1999999E-01
  1.6000000E-01   9.9999998E-03  -3.4000000E-01
  1.6000000E-01   9.9999998E-03  -3.1999999E-01
  1.8000001E-01   9.9999998E-03  -3.4000000E-01
  1.8000001E-01   9.9999998E-03  -3.1999999E-01
  2.0000000E-01   9.9999998E-03  -3.4000000E-01
  2.0000000E-01   9.9999998E-03  -3.1999999E-01
 -2.2000000E-01   9.9999998E-03  -1.8000001E-01
 -2.2000000E-01   9.9999998E-03  -1.6000000E-01
 -2.2000000E-01   9.9999998E-03  -1.4000000E-01
 -2.2000000E-01   9.9999998E-03  -1.2000000E-01
 -2.2000000E-01   9.9999998E-03  -1.0000000E-01
 -2.2000000E-01   9.9999998E-03  -7.9999998E-02
 -2.2000000E-01   9.9999998E-03  -5.9999999E-02
 -2.2000000E-01   9.9999998E-03  -3.9999999E-02
 -2.2000000E-01   9.9999998E-03  -2.0000000E-02
 -2.0000000E-01   9.9999998E-03  -1.8000001E-01
 -2.0000000E-01   9.9999998E-03  -1.6000000E-01
 -2.0000000E-01   9.9999998E-03  -1.4000000E-01
 -2.0000000E-01   9.9999998E-03  -1.2000000E-01
 -2.0000000E-01   9.9999998E-03  -1.0000000E-01
 -2.0000000E-01   9.9999998E-03  -7.9999998E-02
 -2.0000000E-01   9.9999998E-03  -5.9999999E-02
 -2.0000000E-01   9.9999998E-03  -3.9999999E-02
 -2.0000000E-01   9.9999998E-03  -2.0000000E-02
 -1.8000001E-01   9.9999998E-03  -1.8000001E-01
 -1.8000001E-01   9.9999998E-03  -1.6000000E-01
 -1.8000001E-01   9.9999998E-03  -1.4000000E-01
 -1.8000001E-01   9.9999998E-03  -1.2000000E-01
 -1.8000001E-01   9.9999998E-03  -1.0000000E-01
 -1.8000001E-01   9.9999998E-03  -7.9999998E-02
 -1.8000001E-01   9.9999998E-03  -5.9999999E-02
 -1.8000001E-01   9.9999998E-03  -3.9999999E-02
 -1.8000001E-01   9.9999998E-03  -2.0000000E-02
 -1.6000000E-01   9.9999998E-03  -1.8000001E-01
 -1.6000000E-01   9.9999998E-03  -1.6000000E-01
 -1.6000000E-01   9.9999998E-03  -1.4000000E-01
 -1.6000000E-01   9.9999998E-03  -1.2000000E-01
 -1.6000000E-01   9.9999998E-03  -1.0000000E-01
 -1.6000000E-01   9.9999998E-03  -7.9999998E-02
 -1.6000000E-01   9.9999998E-03  -5.9999999E-02
 -1.6000000E-01   9.9999998E-03  -3.9999999E-02
 -1.6000000E-01   9.9999998E-03  -2.0000000E-02
 -1.4000000E-01   9.9999998E-03  -1.8000001E-01
 -1.4000000E-01   9.9999998E-03  -1.6000000E-01
 -1.4000000E-01   9.9999998E-03  -1.4000000E-01
 -1.4000000E-01   9.9999998E-03  -1.2000000E-01
 -1.4000000E-01   9.9999998E-03  -1.0000000E-01
 -1.4000000E-01   9.9999998E-03  -7.9999998E-02
 -1.4000000E-01   9.9999998E-03  -5.9999999E-02
 -1.4000000E-01   9.9999998E-03  -3.9999999E-02
 -1.4000000E-01   9.9999998E-03  -2.0000000E-02
 -1.2000000E-01   9.9999998E-03  -1.8000001E-01
 -1.2000000E-01   9.9999998E-03  -1.6000000E-01
 -1.2000000E-01   9.9999998E-03  -1.4000000E-01
 -1.2000000E-01   9.9999998E-03  -1.2000000E-01
 -1.2000000E-01   9.9999998E-03  -1.0000000E-01
 -1.2000000E-01   9.9999998E-03  -7.9999998E-02
 -1.2000000E-01   9.9999998E-03  -5.9999999E-02
 -1.2000000E-01   9.9999998E-03  -3.9999999E-02
 -1.2000000E-01   9.9999998E-03  -2.0000000E-02
 -1.0000000E-01   9.9999998E-03  -1.8000001E-01
 -1.0000000E-01   9.9999998E-03  -1.6000000E-01
 -1.0000000E-01   9.9999998E-03  -1.4000000E-01
 -1.0000000E-01   9.9999998E-03  -1.2000000E-01
 -1.0000000E-01   9.9999998E-03  -1.0000000E-01
 -1.0000000E-01   9.9999998E-03  -7.9999998E-02
 -1.0000000E-01   9.9999998E-03  -5.9999999E-02
 -1.0000000E-01   9.9999998E-03  -3.9999999E-02
 -1.0000000E-01   9.9999998E-03  -2.0000000E-02
 -7.9999998E-02   9.9999998E-03  -1.8000001E-01
 -7.9999998E-02   9.9999998E-03  -1.6000000E-01
 -7.9999998E-02   9.9999998E-03  -1.4000000E-01
 -7.9999998E-02   9.9999998E-03  -1.2000000E-01
 -7.9999998E-02   9.9999998E-03  -1.0000000E-01
 -7.9999998E-02   9.9999998E-03  -7.9999998E-02
 -7.9999998E-02   9.9999998E-03  -5.9999999E-02
 -7.9999998E-02   9.9999998E-03  -3.9999999E-02
 -7.9999998E-02   9.9999998E-03  -2.0000000E-02
 -5.9999999E-02   9.9999998E-03  -1.8000001E-01
 -5.9999999E-02   9.9999998E-03  -1.6000000E-01
 -5.9999999E-02   9.9999998E-03  -1.4000000E-01
 -5.9999999E-02   9.9999998E-03  -1.2000000E-01
 -5.9999999E-02   9.9999998E-03  -1.0000000E-01
 -5.9999999E-02   9.9999998E-03  -7.9999998E-02
 -5.9999999E-02   9.9999998E-03  -5.9999999E-02
 -5.9999999E-02   9.9999998E-03  -3.9999999E-02
 -5.9999999E-02   9.9999998E-03  -2.0000000E-02
 -3.9999999E-02   9.9999998E-03  -1.8000001E-01
 -3.9999999E-02   9.9999998E-03  -1.6000000E-01
 -3.9999999E-02   9.9999998E-03  -1.4000000E-01
 -3.9999999E-02   9.9999998E-03  -1.2000000E-01
 -3.9999999E-02   9.9999998E-03  -1.0000000E-01
 -3.9999999E-02   9.9999998E-03  -7.9999998E-02
 -3.9999999E-02   9.9999998E-03  -5.9999999E-02
 -3.9999999E-02   9.9999998E-03  -3.9999999E-02
 -3.9999999E-02   9.9999998E-03  -2.0000000E-02
 -2.0000000E-02   9.9999998E-03  -1.8000001E-01
 -2.0000000E-02   9.9999998E-03  -1.6000000E-01
 -2.0000000E-02   9.9999998E-03  -1.4000000E-01
 -2.0000000E-02   9.9999998E-03  -1.2000000E-01
 -2.0000000E-02   9.9999998E-03  -1.0000000E-01
 -2.0000000E-02   9.9999998E-03  -7.9999998E-02
 -2.0000000E-02   9.9999998E-03  -5.9999999E-02
 -2.0000000E-02   9.9999998E-03  -3.9999999E-02
 -2.0000000E-02   9.9999998E-03  -2.0000000E-02
 -2.2000000E-01   9.9999998E-03   0.0000000E+00
 -2.2000000E-01   9.9999998E-03   2.0000000E-02
 -2.2000000E-01   9.9999998E-03   3.9999999E-02
 -2.2000000E-01   9.9999998E-03   5.9999999E-02
 -2.2000000E-01   9.9999998E-03   7.9999998E-02
 -2.2000000E-01   9.9999998E-03   1.0000000E-01
 -2.2000000E-01   9.9999998E-03   1.2000000E-01
 -2.2000000E-01   9.9999998E-03   1.4000000E-01
 -2.0000000E-01   9.9999998E-03   0.0000000E+00
 -2.0000000E-01   9.9999998E-03   2.0000000E-02
 -2.0000000E-01   9.9999998E-03   3.9999999E-02
 -2.0000000E-01   9.9999998E-03   5.9999999E-02
 -2.0000000E-01   9.9999998E-03   7.9999998E-02
 -2.0000000E-01   9.9999998E-03   1.0000000E-01
 -2.0000000E-01   9.9999998E-03   1.2000000E-01
 -2.0000000E-01   9.9999998E-03   1.4000000E-01
 -1.8000001E-01   9.9999998E-03   0.0000000E+00
 -1.8000001E-01   9.9999998E-03   2.0000000E-02
 -1.8000001E-01   9.9999998E-03   3.9999999E-02
 -1.8000001E-01   9.9999998E-03   5.9999999E-02
 -1.8000001E-01   9.9999998E-03   7.9999998E-02
 -1.8000001E-01   9.9999998E-03   1.0000000E-01
 -1.8000001E-01   9.9999998E-03   1.2000000E-01
 -1.8000001E-01   9.9999998E-03   1.4000000E-01
 -1.6000000E-01   9.9999998E-03   0.0000000E+00
 -1.6000000E-01   9.9999998E-03   2.0000000E-02
 -1.6000000E-01   9.9999998E-03   3.9999999E-02
 -1.6000000E-01   9.9999998E-03   5.9999999E-02
 -1.6000000E-01   9.9999998E-03   7.9999998E-02
 -1.6000000E-01   9.9999998E-03   1.0000000E-01
 -1.6000000E-01   9.9999998E-03   1.2000000E-01
 -1.6000000E-01   9.9999998E-03   1.4000000E-01
 -1.4000000E-01   9.9999998E-03   0.0000000E+00
 -1.4000000E-01   9.9999998E-03   2.0000000E-02
 -1.4000000E-01   9.9999998E-03   3.9999999E-02
 -1.4000000E-01   9.9999998E-03   5.9999999E-02
 -1.4000000E-01   9.9999998E-03   7.9999998E-02
 -1.4000000E-01   9.9999998E-03   1.0000000E-01
 -1.4000000E-01   9.9999998E-03   1.2000000E-01
 -1.4000000E-01   9.9999998E-03   1.4000000E-01
 -1.2000000E-01   9.9999998E-03   0.0000000E+00
 -1.2000000E-01   9.9999998E-03   2.0000000E-02
 -1.2000000E-01   9.9999998E-03   3.9999999E-02
 -1.2000000E-01   9.9999998E-03   5.9999999E-02
 -1.2000000E-01   9.9999998E-03   7.9999998E-02
 -1.2000000E-01   9.9999998E-03   1.0000000E-01
 -1.2000000E-01   9.9999998E-03   1.2000000E-01
 -1.2000000E-01   9.9999998E-03   1.4000000E-01
 -1.0000000E-01   9.9999998E-03   0.0000000E+00
 -1.0000000E-01   9.9999998E-03   2.0000000E-02
 -1.0000000E-01   9.9999998E-03   3.9999999E-02
 -1.0000000E-01   9.9999998E-03   5.9999999E-02
 -1.0000000E-01   9.9999998E-03   7.9999998E-02
 -1.0000000E-01   9.9999998E-03   1.0000000E-01
 -1.0000000E-01   9.9999998E-03   1.2000000E-01
 -1.0000000E-01   9.9999998E-03   1.4000000E-01
 -7.9999998E-02   9.9999998E-03   0.0000000E+00
 -7.9999998E-02   9.9999998E-03   2.0000000E-02
 -7.9999998E-02   9.9999998E-03   3.9999999E-02
 -7.9999998E-02   9.9999998E-03   5.9999999E-02
 -7.9999998E-02   9.9999998E-03   7.9999998E-02
 -7.9999998E-02   9.9999998E-03   1.0000000E-01
 -7.9999998E-02   9.9999998E-03   1.2000000E-01
 -7.9999998E-02   9.9999998E-03   1.4000000E-01
 -5.9999999E-02   9.9999998E-03   0.0000000E+00
 -5.9999999E-02   9.9999998E-03   2.0000000E-02
 -5.9999999E-02   9.9999998E-03   3.9999999E-02
 -5.9999999E-02   9.9999998E-03   5.9999999E-02
 -5.9999999E-02   9.9999998E-03   7.9999998E-02
 -5.9999999E-02   9.9999998E-03   1.0000000E-01
 -5.9999999E-02   9.9999998E-03   1.2000000E-01
 -5.9999999E-02   9.9999998E-03   1.4000000E-01
 -3.9999999E-02   9.9999998E-03   0.0000000E+00
 -3.9999999E-02   9.9999998E-03   2.0000000E-02
 -3.9999999E-02   9.9999998E-03   3.9999999E-02
 -3.9999999E-02   9.9999998E-03   5.9999999E-02
 -3.9999999E-02   9.9999998E-03   7.9999998E-02
 -3.9999999E-02   9.9999998E-03   1.0000000E-01
 -3.9999999E-02   9.9999998E-03   1.2000000E-01
 -3.9999999E-02   9.9999998E-03   1.4000000E-01
 -2.0000000E-02   9.9999998E-03   0.0000000E+00
 -2.0000000E-02   9.9999998E-03   2.0000000E-02
 -2.0000000E-02   9.9999998E-03   3.9999999E-02
 -2.0000000E-02   9.9999998E-03   5.9999999E-02
 -2.0000000E-02   9.9999998E-03   7.9999998E-02
 -2.0000000E-02   9.9999998E-03   1.0000000E-01
 -2.0000000E-02   9.9999998E-03   1.2000000E-01
 -2.0000000E-02   9.9999998E-03   1.4000000E-01
 -2.2000000E-01   9.9999998E-03   1.6000000E-01
 -2.2000000E-01   9.9999998E-03   1.8000001E-01
 -2.2000000E-01   9.9999998E-03   2.0000000E-01
 -2.2000000E-01   9.9999998E-03   2.2000000E-01
 -2.2000000E-01   9.9999998E-03   2.3999999E-01
 -2.2000000E-01   9.9999998E-03   2.5999999E-01
 -2.2000000E-01   9.9999998E-03   2.8000000E-01
 -2.2000000E-01   9.9999998E-03   3.0000001E-01
 -2.2000000E-01   9.9999998E-03   3.1999999E-01
 -2.0000000E-01   9.9999998E-03   1.6000000E-01
 -2.0000000E-01   9.9999998E-03   1.8000001E-01
 -2.0000000E-01   9.9999998E-03   2.0000000E-01
 -2.0000000E-01   9.9999998E-03   2.2000000E-01
 -2.0000000E-01   9.9999998E-03   2.3999999E-01
 -2.0000000E-01   9.9999998E-03   2.5999999E-01
 -2.0000000E-01   9.9999998E-03   2.8000000E-01
 -2.0000000E-01   9.9999998E-03   3.0000001E-01
 -2.0000000E-01   9.9999998E-03   3.1999999E-01
 -1.8000001E-01   9.9999998E-03   1.6000000E-01
 -1.8000001E-01   9.9999998E-03   1.8000001E-01
 -1.8000001E-01   9.9999998E-03   2.0000000E-01
 -1.8000001E-01   9.9999998E-03   2.2000000E-01
 -1.8000001E-01   9.9999998E-03   2.3999999E-01
 -1.8000001E-01   9.9999998E-03   2.5999999E-01
 -1.8000001E-01   9.9999998E-03   2.8000000E-01
 -1.8000001E-01   9.9999998E-03   3.0000001E-01
 -1.8000001E-01   9.9999998E-03   3.1999999E-01
 -1.6000000E-01   9.9999998E-03   1.6000000E-01
 -1.6000000E-01   9.9999998E-03   1.8000001E-01
 -1.6000000E-01   9.9999998E-03   2.0000000E-01
 -1.6000000E-01   9.9999998E-03   2.2000000E-01
 -1.6000000E-01   9.9999998E-03   2.3999999E-01
 -1.6000000E-01   9.9999998E-03   2.5999999E-01
 -1.6000000E-01   9.9999998E-03   2.8000000E-01
 -1.6000000E-01   9.9999998E-03   3.0000001E-01
 -1.6000000E-01   9.9999998E-03   3.1999999E-01
 -1.4000000E-01   9.9999998E-03   1.6000000E-01
 -1.4000000E-01   9.9999998E-03   1.8000001E-01
 -1.4000000E-01   9.9999998E-03   2.0000000E-01
 -1.4000000E-01   9.9999998E-03   2.2000000E-01
 -1.4000000E-01   9.9999998E-03   2.3999999E-01
 -1.4000000E-01   9.9999998E-03   2.5999999E-01
 -1.4000000E-01   9.9999998E-03   2.8000000E-01
 -1.4000000E-01   9.9999998E-03   3.0000001E-01
 -1.4000000E-01   9.9999998E-03   3.1999999E-01
 -1.2000000E-01   9.9999998E-03   1.6000000E-01
 -1.2000000E-01   9.9999998E-03   1.8000001E-01
 -1.2000000E-01   9.9999998E-03   2.0000000E-01
 -1.2000000E-01   9.9999998E-03   2.2000000E-01
 -1.2000000E-01   9.9999998E-03   2.3999999E-01
 -1.2000000E-01   9.9999998E-03   2.5999999E-01
 -1.2000000E-01   9.9999998E-03   2.8000000E-01
 -1.2000000E-01   9.9999998E-03   3.0000001E-01
 -1.2000000E-01   9.9999998E-03   3.1999999E-01
 -1.0000000E-01   9.9999998E-03   1.6000000E-01
 -1.0000000E-01   9.9999998E-03   1.8000001E-01
 -1.0000000E-01   9.9999998E-03   2.0000000E-01
 -1.0000000E-01   9.9999998E-03   2.2000000E-01
 -1.0000000E-01   9.9999998E-03   2.3999999E-01
 -1.0000000E-01   9.9999998E-03   2.5999999E-01
 -1.0000000E-01   9.9999998E-03   2.8000000E-01
 -1.0000000E-01   9.9999998E-03   3.0000001E-01
 -1.0000000E-01   9.9999998E-03   3.1999999E-01
 -7.9999998E-02   9.9999998E-03   1.6000000E-01
 -7.9999998E-02   9.9999998E-03   1.8000001E-01
 -7.9999998E-02   9.9999998E-03   2.0000000E-01
 -7.9999998E-02   9.9999998E-03   2.2000000E-01
 -7.9999998E-02   9.9999998E-03   2.3999999E-01
 -7.9999998E-02   9.9999998E-03   2.5999999E-01
 -7.9999998E-02   9.9999998E-03   2.8000000E-01
 -7.9999998E-02   9.9999998E-03   3.0000001E-01
 -7.9999998E-02   9.9999998E-03   3.1999999E-01
 -5.9999999E-02   9.9999998E-03   1.6000000E-01
 -5.9999999E-02   9.9999998E-03   1.8000001E-01
 -5.9999999E-02   9.9999998E-03   2.0000000E-01
 -5.9999999E-02   9.9999998E-03   2.2000000E-01
 -5.9999999E-02   9.9999998E-03   2.3999999E-01
 -5.9999999E-02   9.9999998E-03   2.5999999E-01
 -5.9999999E-02   9.9999998E-03   2.8000000E-01
 -5.9999999E-02   9.9999998E-03   3.0000001E-01
 -5.9999999E-02   9.9999998E-03   3.1999999E-01
 -3.9999999E-02   9.9999998E-03   1.6000000E-01
 -3.9999999E-02   9.9999998E-03   1.8000001E-01
 -3.9999999E-02   9.9999998E-03   2.0000000E-01
 -3.9999999E-02   9.9999998E-03   2.2000000E-01
 -3.9999999E-02   9.9999998E-03   2.3999999E-01
 -3.9999999E-02   9.9999998E-03   2.5999999E-01
 -3.9999999E-02   9.9999998E-03   2.8000000E-01
 -3.9999999E-02   9.9999998E-03   3.0000001E-01
 -3.9999999E-02   9.9999998E-03   3.1999999E-01
 -2.0000000E-02   9.9999998E-03   1.6000000E-01
 -2.0000000E-02   9.9999998E-03   1.8000001E-01
 -2.0000000E-02   9.9999998E-03   2.0000000E-01
 -2.0000000E-02   9.9999998E-03   2.2000000E-01
 -2.0000000E-02   9.9999998E-03   2.3999999E-01
 -2.0000000E-02   9.9999998E-03   2.5999999E-01
 -2.0000000E-02   9.9999998E-03   2.8000000E-01
 -2.0000000E-02   9.9999998E-03   3.0000001E-01
 -2.0000000E-02   9.9999998E-03   3.1999999E-01
  0.0000000E+00   9.9999998E-03   3.0000001E-01
  0.0000000E+00   9.9999998E-03   3.1999999E-01
  2.0000000E-02   9.9999998E-03   3.1999999E-01
  3.9999999E-02   9.9999998E-03   3.1999999E-01
  5.9999999E-02   9.9999998E-03   3.1999999E-01
  7.9999998E-02   9.9999998E-03   3.1999999E-01
  1.0000000E-01   9.9999998E-03   3.1999999E-01
  1.2000000E-01   9.9999998E-03   3.1999999E-01
  1.4000000E-01   9.9999998E-03   3.1999999E-01
  1.6000000E-01   9.9999998E-03   3.1999999E-01
  1.8000001E-01   9.9999998E-03   3.1999999E-01
  2.0000000E-01   9.9999998E-03   3.1999999E-01
 -2.2000000E-01   9.9999998E-03   3.4000000E-01
 -2.2000000E-01   9.9999998E-03   3.6000001E-01
 -2.2000000E-01   9.9999998E-03   3.8000000E-01
 -2.0000000E-01   9.9999998E-03   3.4000000E-01
 -2.0000000E-01   9.9999998E-03   3.6000001E-01
 -2.0000000E-01   9.9999998E-03   3.8000000E-01
 -2.0000000E-01   9.9999998E-03   4.0000001E-01
 -1.8000001E-01   9.9999998E-03   3.4000000E-01
 -1.8000001E-01   9.9999998E-03   3.6000001E-01
 -1.8000001E-01   9.9999998E-03   3.8000000E-01
 -1.8000001E-01   9.9999998E-03   4.0000001E-01
 -1.6000000E-01   9.9999998E-03   3.4000000E-01
 -1.6000000E-01   9.9999998E-03   3.6000001E-01
 -1.6000000E-01   9.9999998E-03   3.8000000E-01
 -1.6000000E-01   9.9999998E-03   4.0000001E-01
 -1.4000000E-01   9.9999998E-03   3.4000000E-01
 -1.4000000E-01   9.9999998E-03   3.6000001E-01
 -1.4000000E-01   9.9999998E-03   3.8000000E-01
 -1.4000000E-01   9.9999998E-03   4.0000001E-01
 -1.2000000E-01   9.9999998E-03   3.4000000E-01
 -1.2000000E-01   9.9999998E-03   3.6000001E-01
 -1.2000000E-01   9.9999998E-03   3.8000000E-01
 -1.2000000E-01   9.9999998E-03   4.0000001E-01
 -1.0000000E-01   9.9999998E-03   3.4000000E-01
 -1.0000000E-01   9.9999998E-03   3.6000001E-01
 -1.0000000E-01   9.9999998E-03   3.8000000E-01
 -1.0000000E-01   9.9999998E-03   4.0000001E-01
 -7.9999998E-02   9.9999998E-03   3.4000000E-01
 -7.9999998E-02   9.9999998E-03   3.6000001E-01
 -7.9999998E-02   9.9999998E-03   3.8000000E-01
 -7.9999998E-02   9.9999998E-03   4.0000001E-01
 -5.9999999E-02   9.9999998E-03   3.4000000E-01
 -5.9999999E-02   9.9999998E-03   3.6000001E-01
 -5.9999999E-02   9.9999998E-03   3.8000000E-01
 -5.9999999E-02   9.9999998E-03   4.0000001E-01
 -3.9999999E-02   9.9999998E-03   3.4000000E-01
 -3.9999999E-02   9.9999998E-03   3.6000001E-01
 -3.9999999E-02   9.9999998E-03   3.8000000E-01
 -3.9999999E-02   9.9999998E-03   4.0000001E-01
 -2.0000000E-02   9.9999998E-03   3.4000000E-01
 -2.0000000E-02   9.9999998E-03   3.6000001E-01
 -2.0000000E-02   9.9999998E-03   3.8000000E-01
 -2.0000000E-02   9.9999998E-03   4.0000001E-01
  0.0000000E+00   9.9999998E-03   3.4000000E-01
  0.0000000E+00   9.9999998E-03   3.6000001E-01
  0.0000000E+00   9.9999998E-03   3.8000000E-01
  0.0000000E+00   9.9999998E-03   4.0000001E-01
  2.0000000E-02   9.9999998E-03   3.4000000E-01
  2.0000000E-02   9.9999998E-03   3.6000001E-01
  2.0000000E-02   9.9999998E-03   3.8000000E-01
  2.0000000E-02   9.9999998E-03   4.0000001E-01
  3.9999999E-02   9.9999998E-03   3.4000000E-01
  3.9999999E-02   9.9999998E-03   3.6000001E-01
  3.9999999E-02   9.9999998E-03   3.8000000E-01
  3.9999999E-02   9.9999998E-03   4.0000001E-01
  5.9999999E-02   9.9999998E-03   3.4000000E-01
  5.9999999E-02   9.9999998E-03   3.6000001E-01
  5.9999999E-02   9.9999998E-03   3.8000000E-01
  5.9999999E-02   9.9999998E-03   4.0000001E-01
  7.9999998E-02   9.9999998E-03   3.4000000E-01
  7.9999998E-02   9.9999998E-03   3.6000001E-01
  7.9999998E-02   9.9999998E-03   3.8000000E-01
  7.9999998E-02   9.9999998E-03   4.0000001E-01
  1.0000000E-01   9.9999998E-03   3.4000000E-01
  1.0000000E-01   9.9999998E-03   3.6000001E-01
  1.0000000E-01   9.9999998E-03   3.8000000E-01
  1.0000000E-01   9.9999998E-03   4.0000001E-01
  1.2000000E-01   9.9999998E-03   3.4000000E-01
  1.2000000E-01   9.9999998E-03   3.6000001E-01
  1.2000000E-01   9.9999998E-03   3.8000000E-01
  1.2000000E-01   9.9999998E-03   4.0000001E-01
  1.4000000E-01   9.9999998E-03   3.4000000E-01
  1.4000000E-01   9.9999998E-03   3.6000001E-01
  1.4000000E-01   9.9999998E-03   3.8000000E-01
  1.4000000E-01   9.9999998E-03   4.0000001E-01
  1.6000000E-01   9.9999998E-03   3.4000000E-01
  1.6000000E-01   9.9999998E-03   3.6000001E-01
  1.6000000E-01   9.9999998E-03   3.8000000E-01
  1.6000000E-01   9.9999998E-03   4.0000001E-01
  1.8000001E-01   9.9999998E-03   3.4000000E-01
  1.8000001E-01   9.9999998E-03   3.6000001E-01
  1.8000001E-01   9.9999998E-03   3.8000000E-01
  1.8000001E-01   9.9999998E-03   4.0000001E-01
  2.0000000E-01   9.9999998E-03   3.4000000E-01
  2.0000000E-01   9.9999998E-03   3.6000001E-01
  2.0000000E-01   9.9999998E-03   3.8000000E-01
  1.9200000E+00   9.9999998E-03  -3.6000001E-01
  1.9200000E+00   9.9999998E-03  -3.4000000E-01
  1.9200000E+00   9.9999998E-03  -3.1999999E-01
  1.9400001E+00   9.9999998E-03  -3.8000000E-01
  1.9400001E+00   9.9999998E-03  -3.6000001E-01
  1.9400001E+00   9.9999998E-03  -3.4000000E-01
  1.9400001E+00   9.9999998E-03  -3.1999999E-01
  1.9400001E+00   9.9999998E-03  -3.0000001E-01
  1.9400001E+00   9.9999998E-03  -2.8000000E-01
  1.9400001E+00   9.9999998E-03  -2.5999999E-01
  1.9400001E+00   9.9999998E-03  -2.3999999E-01
  1.9400001E+00   9.9999998E-03  -2.2000000E-01
  1.9600000E+00   9.9999998E-03  -3.8000000E-01
  1.9600000E+00   9.9999998E-03  -3.6000001E-01
  1.9600000E+00   9.9999998E-03  -3.4000000E-01
  1.9600000E+00   9.9999998E-03  -3.1999999E-01
  1.9600000E+00   9.9999998E-03  -3.0000001E-01
  1.9600000E+00   9.9999998E-03  -2.8000000E-01
  1.9600000E+00   9.9999998E-03  -2.5999999E-01
  1.9600000E+00   9.9999998E-03  -2.3999999E-01
  1.9600000E+00   9.9999998E-03  -2.2000000E-01
  1.9600000E+00   9.9999998E-03  -2.0000000E-01
  1.9600000E+00   9.9999998E-03  -1.8000001E-01
  1.9600000E+00   9.9999998E-03  -1.6000000E-01
  1.9600000E+00   9.9999998E-03  -1.4000000E-01
  1.9600000E+00   9.9999998E-03  -1.2000000E-01
  1.9800000E+00   9.9999998E-03  -3.8000000E-01
  1.9800000E+00   9.9999998E-03  -3.6000001E-01
  1.9800000E+00   9.9999998E-03  -3.4000000E-01
  1.9800000E+00   9.9999998E-03  -3.1999999E-01
  1.9800000E+00   9.9999998E-03  -3.0000001E-01
  1.9800000E+00   9.9999998E-03  -2.8000000E-01
  1.9800000E+00   9.9999998E-03  -2.5999999E-01
  1.9800000E+00   9.9999998E-03  -2.3999999E-01
  1.9800000E+00   9.9999998E-03  -2.2000000E-01
  1.9800000E+00   9.9999998E-03  -2.0000000E-01
  1.9800000E+00   9.9999998E-03  -1.8000001E-01
  1.9800000E+00   9.9999998E-03  -1.6000000E-01
  1.9800000E+00   9.9999998E-03  -1.4000000E-01
  1.9800000E+00   9.9999998E-03  -1.2000000E-01
  1.9800000E+00   9.9999998E-03  -1.0000000E-01
  1.9800000E+00   9.9999998E-03  -7.9999998E-02
  1.9800000E+00   9.9999998E-03  -5.9999999E-02
  1.9800000E+00   9.9999998E-03  -3.9999999E-02
  1.9800000E+00   9.9999998E-03  -2.0000000E-02
  2.0000000E+00   9.9999998E-03  -3.8000000E-01
  2.0000000E+00   9.9999998E-03  -3.6000001E-01
  2.0000000E+00   9.9999998E-03  -3.4000000E-01
  2.0000000E+00   9.9999998E-03  -3.1999999E-01
  2.0000000E+00   9.9999998E-03  -3.0000001E-01
  2.0000000E+00   9.9999998E-03  -2.8000000E-01
  2.0000000E+00   9.9999998E-03  -2.5999999E-01
  2.0000000E+00   9.9999998E-03  -2.3999999E-01
  2.0000000E+00   9.9999998E-03  -2.2000000E-01
  2.0000000E+00   9.9999998E-03  -2.0000000E-01
  2.0000000E+00   9.9999998E-03  -1.8000001E-01
  2.0000000E+00   9.9999998E-03  -1.6000000E-01
  2.0000000E+00   9.9999998E-03  -1.4000000E-01
  2.0000000E+00   9.9999998E-03  -1.2000000E-01
  2.0000000E+00   9.9999998E-03  -1.0000000E-01
  2.0000000E+00   9.9999998E-03  -7.9999998E-02
  2.0000000E+00   9.9999998E-03  -5.9999999E-02
  2.0000000E+00   9.9999998E-03  -3.9999999E-02
  2.0000000E+00   9.9999998E-03  -2.0000000E-02
  2.0000000E+00   9.9999998E-03   0.0000000E+00
  2.0000000E+00   9.9999998E-03   2.0000000E-02
  2.0000000E+00   9.9999998E-03   3.9999999E-02
  2.0000000E+00   9.9999998E-03   5.9999999E-02
  2.0000000E+00   9.9999998E-03   7.9999998E-02
  2.0200000E+00   9.9999998E-03  -4.0000001E-01
  2.0200000E+00   9.9999998E-03  -3.8000000E-01
  2.0200000E+00   9.9999998E-03  -3.6000001E-01
  2.0200000E+00   9.9999998E-03  -3.4000000E-01
  2.0200000E+00   9.9999998E-03  -3.1999999E-01
  2.0200000E+00   9.9999998E-03  -3.0000001E-01
  2.0200000E+00   9.9999998E-03  -2.8000000E-01
  2.0200000E+00   9.9999998E-03  -2.5999999E-01
  2.0200000E+00   9.9999998E-03  -2.3999999E-01
  2.0200000E+00   9.9999998E-03  -2.2000000E-01
  2.0200000E+00   9.9999998E-03  -2.0000000E-01
  2.0200000E+00   9.9999998E-03  -1.8000001E-01
  2.0200000E+00   9.9999998E-03  -1.6000000E-01
  2.0200000E+00   9.9999998E-03  -1.4000000E-01
  2.0200000E+00   9.9999998E-03  -1.2000000E-01
  2.0200000E+00   9.9999998E-03  -1.0000000E-01
  2.0200000E+00   9.9999998E-03  -7.9999998E-02
  2.0200000E+00   9.9999998E-03  -5.9999999E-02
  2.0200000E+00   9.9999998E-03  -3.9999999E-02
  2.0200000E+00   9.9999998E-03  -2.0000000E-02
  2.0200000E+00   9.9999998E-03   0.0000000E+00
  2.0200000E+00   9.9999998E-03   2.0000000E-02
  2.0200000E+00   9.9999998E-03   3.9999999E-02
  2.0200000E+00   9.9999998E-03   5.9999999E-02
  2.0200000E+00   9.9999998E-03   7.9999998E-02
  2.0200000E+00   9.9999998E-03   1.0000000E-01
  2.0200000E+00   9.9999998E-03   1.2000000E-01
  2.0200000E+00   9.9999998E-03   1.4000000E-01
  2.0200000E+00   9.9999998E-03   1.6000000E-01
  2.0200000E+00   9.9999998E-03   1.8000001E-01
  2.0400000E+00   9.9999998E-03  -4.0000001E-01
  2.0400000E+00   9.9999998E-03  -3.8000000E-01
  2.0400000E+00   9.9999998E-03  -3.6000001E-01
  2.0400000E+00   9.9999998E-03  -3.4000000E-01
  2.0400000E+00   9.9999998E-03  -3.1999999E-01
  2.0400000E+00   9.9999998E-03  -3.0000001E-01
  2.0400000E+00   9.9999998E-03  -2.8000000E-01
  2.0400000E+00   9.9999998E-03  -2.5999999E-01
  2.0400000E+00   9.9999998E-03  -2.3999999E-01
  2.0400000E+00   9.9999998E-03  -2.2000000E-01
  2.0400000E+00   9.9999998E-03  -2.0000000E-01
  2.0400000E+00   9.9999998E-03  -1.8000001E-01
  2.0400000E+00   9.9999998E-03  -1.6000000E-01
  2.0400000E+00   9.9999998E-03  -1.4000000E-01
  2.0400000E+00   9.9999998E-03  -1.2000000E-01
  2.0400000E+00   9.9999998E-03  -1.0000000E-01
  2.0400000E+00   9.9999998E-03  -7.9999998E-02
  2.0400000E+00   9.9999998E-03  -5.9999999E-02
  2.0400000E+00   9.9999998E-03  -3.9999999E-02
  2.0400000E+00   9.9999998E-03  -2.0000000E-02
  2.0400000E+00   9.9999998E-03   0.0000000E+00
  2.0400000E+00   9.9999998E-03   2.0000000E-02
  2.0400000E+00   9.9999998E-03   3.9999999E-02
  2.0400000E+00   9.9999998E-03   5.9999999E-02
  2.0400000E+00   9.9999998E-03   7.9999998E-02
  2.0400000E+00   9.9999998E-03   1.0000000E-01
  2.0400000E+00   9.9999998E-03   1.2000000E-01
  2.0400000E+00   9.9999998E-03   1.4000000E-01
  2.0400000E+00   9.9999998E-03   1.6000000E-01
  2.0400000E+00   9.9999998E-03   1.8000001E-01
  2.0400000E+00   9.9999998E-03   2.0000000E-01
  2.0400000E+00   9.9999998E-03   2.2000000E-01
  2.0400000E+00   9.9999998E-03   2.3999999E-01
  2.0400000E+00   9.9999998E-03   2.5999999E-01
  2.0400000E+00   9.9999998E-03   2.8000000E-01
  2.0599999E+00   9.9999998E-03  -4.0000001E-01
  2.0599999E+00   9.9999998E-03  -3.8000000E-01
  2.0599999E+00   9.9999998E-03  -3.6000001E-01
  2.0599999E+00   9.9999998E-03  -3.4000000E-01
  2.0599999E+00   9.9999998E-03  -3.1999999E-01
  2.0599999E+00   9.9999998E-03  -3.0000001E-01
  2.0599999E+00   9.9999998E-03  -2.8000000E-01
  2.0599999E+00   9.9999998E-03  -2.5999999E-01
  2.0599999E+00   9.9999998E-03  -2.3999999E-01
  2.0599999E+00   9.9999998E-03  -2.2000000E-01
  2.0599999E+00   9.9999998E-03  -2.0000000E-01
  2.0599999E+00   9.9999998E-03  -1.8000001E-01
  2.0599999E+00   9.9999998E-03  -1.6000000E-01
  2.0599999E+00   9.9999998E-03  -1.4000000E-01
  2.0599999E+00   9.9999998E-03  -1.2000000E-01
  2.0599999E+00   9.9999998E-03  -1.0000000E-01
  2.0599999E+00   9.9999998E-03  -7.9999998E-02
  2.0599999E+00   9.9999998E-03  -5.9999999E-02
  2.0599999E+00   9.9999998E-03  -3.9999999E-02
  2.0599999E+00   9.9999998E-03  -2.0000000E-02
  2.0599999E+00   9.9999998E-03   0.0000000E+00
  2.0599999E+00   9.9999998E-03   2.0000000E-02
  2.0599999E+00   9.9999998E-03   3.9999999E-02
  2.0599999E+00   9.9999998E-03   5.9999999E-02
  2.0599999E+00   9.9999998E-03   7.9999998E-02
  2.0599999E+00   9.9999998E-03   1.0000000E-01
  2.0599999E+00   9.9999998E-03   1.2000000E-01
  2.0599999E+00   9.9999998E-03   1.4000000E-01
  2.0599999E+00   9.9999998E-03   1.6000000E-01
  2.0599999E+00   9.9999998E-03   1.8000001E-01
  2.0599999E+00   9.9999998E-03   2.0000000E-01
  2.0599999E+00   9.9999998E-03   2.2000000E-01
  2.0599999E+00   9.9999998E-03   2.3999999E-01
  2.0599999E+00   9.9999998E-03   2.5999999E-01
  2.0599999E+00   9.9999998E-03   2.8000000E-01
  2.0599999E+00   9.9999998E-03   3.0000001E-01
  2.0599999E+00   9.9999998E-03   3.1999999E-01
  2.0599999E+00   9.9999998E-03   3.4000000E-01
  2.0599999E+00   9.9999998E-03   3.6000001E-01
  2.0599999E+00   9.9999998E-03   3.8000000E-01
  2.0799999E+00   9.9999998E-03  -4.0000001E-01
  2.0799999E+00   9.9999998E-03  -3.8000000E-01
  2.0799999E+00   9.9999998E-03  -3.6000001E-01
  2.0799999E+00   9.9999998E-03  -3.4000000E-01
  2.0799999E+00   9.9999998E-03  -3.1999999E-01
  2.0799999E+00   9.9999998E-03  -3.0000001E-01
  2.0799999E+00   9.9999998E-03  -2.8000000E-01
  2.0799999E+00   9.9999998E-03  -2.5999999E-01
  2.0799999E+00   9.9999998E-03  -2.3999999E-01
  2.0799999E+00   9.9999998E-03  -2.2000000E-01
  2.0799999E+00   9.9999998E-03  -2.0000000E-01
  2.0799999E+00   9.9999998E-03  -1.8000001E-01
  2.0799999E+00   9.9999998E-03  -1.6000000E-01
  2.0799999E+00   9.9999998E-03  -1.4000000E-01
  2.0799999E+00   9.9999998E-03  -1.2000000E-01
  2.0799999E+00   9.9999998E-03  -1.0000000E-01
  2.0799999E+00   9.9999998E-03  -7.9999998E-02
  2.0799999E+00   9.9999998E-03  -5.9999999E-02
  2.0799999E+00   9.9999998E-03  -3.9999999E-02
  2.0799999E+00   9.9999998E-03  -2.0000000E-02
  2.0799999E+00   9.9999998E-03   0.0000000E+00
  2.0799999E+00   9.9999998E-03   2.0000000E-02
  2.0799999E+00   9.9999998E-03   3.9999999E-02
  2.0799999E+00   9.9999998E-03   5.9999999E-02
  2.0799999E+00   9.9999998E-03   7.9999998E-02
  2.0799999E+00   9.9999998E-03   1.0000000E-01
  2.0799999E+00   9.9999998E-03   1.2000000E-01
  2.0799999E+00   9.9999998E-03   1.4000000E-01
  2.0799999E+00   9.9999998E-03   1.6000000E-01
  2.0799999E+00   9.9999998E-03   1.8000001E-01
  2.0799999E+00   9.9999998E-03   2.0000000E-01
  2.0799999E+00   9.9999998E-03   2.2000000E-01
  2.0799999E+00   9.9999998E-03   2.3999999E-01
  2.0799999E+00   9.9999998E-03   2.5999999E-01
  2.0799999E+00   9.9999998E-03   2.8000000E-01
  2.0799999E+00   9.9999998E-03   3.0000001E-01
  2.0799999E+00   9.9999998E-03   3.1999999E-01
  2.0799999E+00   9.9999998E-03   3.4000000E-01
  2.0799999E+00   9.9999998E-03   3.6000001E-01
  2.0799999E+00   9.9999998E-03   3.8000000E-01
  2.0799999E+00   9.9999998E-03   4.0000001E-01
  2.0999999E+00   9.9999998E-03  -4.0000001E-01
  2.0999999E+00   9.9999998E-03  -3.8000000E-01
  2.0999999E+00   9.9999998E-03  -3.6000001E-01
  2.0999999E+00   9.9999998E-03  -3.4000000E-01
  2.0999999E+00   9.9999998E-03  -3.1999999E-01
  2.0999999E+00   9.9999998E-03  -3.0000001E-01
  2.0999999E+00   9.9999998E-03  -2.8000000E-01
  2.0999999E+00   9.9999998E-03  -2.5999999E-01
  2.0999999E+00   9.9999998E-03  -2.3999999E-01
  2.0999999E+00   9.9999998E-03  -2.2000000E-01
  2.0999999E+00   9.9999998E-03  -2.0000000E-01
  2.0999999E+00   9.9999998E-03  -1.8000001E-01
  2.0999999E+00   9.9999998E-03  -1.6000000E-01
  2.0999999E+00   9.9999998E-03  -1.4000000E-01
  2.0999999E+00   9.9999998E-03  -1.2000000E-01
  2.0999999E+00   9.9999998E-03  -1.0000000E-01
  2.0999999E+00   9.9999998E-03  -7.9999998E-02
  2.0999999E+00   9.9999998E-03  -5.9999999E-02
  2.0999999E+00   9.9999998E-03  -3.9999999E-02
  2.0999999E+00   9.9999998E-03  -2.0000000E-02
  2.0999999E+00   9.9999998E-03   0.0000000E+00
  2.0999999E+00   9.9999998E-03   2.0000000E-02
  2.0999999E+00   9.9999998E-03   3.9999999E-02
  2.0999999E+00   9.9999998E-03   5.9999999E-02
  2.0999999E+00   9.9999998E-03   7.9999998E-02
  2.0999999E+00   9.9999998E-03   1.0000000E-01
  2.0999999E+00   9.9999998E-03   1.2000000E-01
  2.0999999E+00   9.9999998E-03   1.4000000E-01
  2.0999999E+00   9.9999998E-03   1.6000000E-01
  2.0999999E+00   9.9999998E-03   1.8000001E-01
  2.0999999E+00   9.9999998E-03   2.0000000E-01
  2.0999999E+00   9.9999998E-03   2.2000000E-01
  2.0999999E+00   9.9999998E-03   2.3999999E-01
  2.0999999E+00   9.9999998E-03   2.5999999E-01
  2.0999999E+00   9.9999998E-03   2.8000000E-01
  2.0999999E+00   9.9999998E-03   3.0000001E-01
  2.0999999E+00   9.9999998E-03   3.1999999E-01
  2.0999999E+00   9.9999998E-03   3.4000000E-01
  2.0999999E+00   9.9999998E-03   3.6000001E-01
  2.0999999E+00   9.9999998E-03   3.8000000E-01
  2.0999999E+00   9.9999998E-03   4.0000001E-01
  2.1199999E+00   9.9999998E-03  -4.1999999E-01
  2.1199999E+00   9.9999998E-03  -4.0000001E-01
  2.1199999E+00   9.9999998E-03  -3.8000000E-01
  2.1199999E+00   9.9999998E-03  -3.6000001E-01
  2.1199999E+00   9.9999998E-03  -3.4000000E-01
  2.1199999E+00   9.9999998E-03  -3.1999999E-01
  2.1199999E+00   9.9999998E-03  -3.0000001E-01
  2.1199999E+00   9.9999998E-03  -2.8000000E-01
  2.1199999E+00   9.9999998E-03  -2.5999999E-01
  2.1199999E+00   9.9999998E-03  -2.3999999E-01
  2.1199999E+00   9.9999998E-03  -2.2000000E-01
  2.1199999E+00   9.9999998E-03  -2.0000000E-01
  2.1199999E+00   9.9999998E-03  -1.8000001E-01
  2.1199999E+00   9.9999998E-03  -1.6000000E-01
  2.1199999E+00   9.9999998E-03  -1.4000000E-01
  2.1199999E+00   9.9999998E-03  -1.2000000E-01
  2.1199999E+00   9.9999998E-03  -1.0000000E-01
  2.1199999E+00   9.9999998E-03  -7.9999998E-02
  2.1199999E+00   9.9999998E-03  -5.9999999E-02
  2.1199999E+00   9.9999998E-03  -3.9999999E-02
  2.1199999E+00   9.9999998E-03  -2.0000000E-02
  2.1199999E+00   9.9999998E-03   0.0000000E+00
  2.1199999E+00   9.9999998E-03   2.0000000E-02
  2.1199999E+00   9.9999998E-03   3.9999999E-02
  2.1199999E+00   9.9999998E-03   5.9999999E-02
  2.1199999E+00   9.9999998E-03   7.9999998E-02
  2.1199999E+00   9.9999998E-03   1.0000000E-01
  2.1199999E+00   9.9999998E-03   1.2000000E-01
  2.1199999E+00   9.9999998E-03   1.4000000E-01
  2.1199999E+00   9.9999998E-03   1.6000000E-01
  2.1199999E+00   9.9999998E-03   1.8000001E-01
  2.1199999E+00   9.9999998E-03   2.0000000E-01
  2.1199999E+00   9.9999998E-03   2.2000000E-01
  2.1199999E+00   9.9999998E-03   2.3999999E-01
  2.1199999E+00   9.9999998E-03   2.5999999E-01
  2.1199999E+00   9.9999998E-03   2.8000000E-01
  2.1199999E+00   9.9999998E-03   3.0000001E-01
  2.1199999E+00   9.9999998E-03   3.1999999E-01
  2.1199999E+00   9.9999998E-03   3.4000000E-01
  2.1199999E+00   9.9999998E-03   3.6000001E-01
  2.1199999E+00   9.9999998E-03   3.8000000E-01
  2.1199999E+00   9.9999998E-03   4.0000001E-01
  2.1400001E+00   9.9999998E-03  -3.8000000E-01
  2.1400001E+00   9.9999998E-03  -3.6000001E-01
  2.1400001E+00   9.9999998E-03  -3.4000000E-01
  2.1400001E+00   9.9999998E-03  -3.1999999E-01
  2.1400001E+00   9.9999998E-03  -3.0000001E-01
  2.1400001E+00   9.9999998E-03  -2.8000000E-01
  2.1400001E+00   9.9999998E-03  -2.5999999E-01
  2.1400001E+00   9.9999998E-03  -2.3999999E-01
  2.1400001E+00   9.9999998E-03  -2.2000000E-01
  2.1400001E+00   9.9999998E-03  -2.0000000E-01
  2.1400001E+00   9.9999998E-03  -1.8000001E-01
  2.1400001E+00   9.9999998E-03  -1.6000000E-01
  2.1400001E+00   9.9999998E-03  -1.4000000E-01
  2.1400001E+00   9.9999998E-03  -1.2000000E-01
  2.1400001E+00   9.9999998E-03  -1.0000000E-01
  2.1400001E+00   9.9999998E-03  -7.9999998E-02
  2.1400001E+00   9.9999998E-03  -5.9999999E-02
  2.1400001E+00   9.9999998E-03  -3.9999999E-02
  2.1400001E+00   9.9999998E-03  -2.0000000E-02
  2.1400001E+00   9.9999998E-03   0.0000000E+00
  2.1400001E+00   9.9999998E-03   2.0000000E-02
  2.1400001E+00   9.9999998E-03   3.9999999E-02
  2.1400001E+00   9.9999998E-03   5.9999999E-02
  2.1400001E+00   9.9999998E-03   7.9999998E-02
  2.1400001E+00   9.9999998E-03   1.0000000E-01
  2.1400001E+00   9.9999998E-03   1.2000000E-01
  2.1400001E+00   9.9999998E-03   1.4000000E-01
  2.1400001E+00   9.9999998E-03   1.6000000E-01
  2.1400001E+00   9.9999998E-03   1.8000001E-01
  2.1400001E+00   9.9999998E-03   2.0000000E-01
  2.1400001E+00   9.9999998E-03   2.2000000E-01
  2.1400001E+00   9.9999998E-03   2.3999999E-01
  2.1400001E+00   9.9999998E-03   2.5999999E-01
  2.1400001E+00   9.9999998E-03   2.8000000E-01
  2.1400001E+00   9.9999998E-03   3.0000001E-01
  2.1400001E+00   9.9999998E-03   3.1999999E-01
  2.1400001E+00   9.9999998E-03   3.4000000E-01
  2.1400001E+00   9.9999998E-03   3.6000001E-01
  2.1400001E+00   9.9999998E-03   3.8000000E-01
  2.1400001E+00   9.9999998E-03   4.0000001E-01
  2.1600001E+00   9.9999998E-03  -2.8000000E-01
  2.1600001E+00   9.9999998E-03  -2.5999999E-01
  2.1600001E+00   9.9999998E-03  -2.3999999E-01
  2.1600001E+00   9.9999998E-03  -2.2000000E-01
  2.1600001E+00   9.9999998E-03  -2.0000000E-01
  2.1600001E+00   9.9999998E-03  -1.8000001E-01
  2.1600001E+00   9.9999998E-03  -1.6000000E-01
  2.1600001E+00   9.9999998E-03  -1.4000000E-01
  2.1600001E+00   9.9999998E-03  -1.2000000E-01
  2.1600001E+00   9.9999998E-03  -1.0000000E-01
  2.1600001E+00   9.9999998E-03  -7.9999998E-02
  2.1600001E+00   9.9999998E-03  -5.9999999E-02
  2.1600001E+00   9.9999998E-03  -3.9999999E-02
  2.1600001E+00   9.9999998E-03  -2.0000000E-02
  2.1600001E+00   9.9999998E-03   0.0000000E+00
  2.1600001E+00   9.9999998E-03   2.0000000E-02
  2.1600001E+00   9.9999998E-03   3.9999999E-02
  2.1600001E+00   9.9999998E-03   5.9999999E-02
  2.1600001E+00   9.9999998E-03   7.9999998E-02
  2.1600001E+00   9.9999998E-03   1.0000000E-01
  2.1600001E+00   9.9999998E-03   1.2000000E-01
  2.1600001E+00   9.9999998E-03   1.4000000E-01
  2.1600001E+00   9.9999998E-03   1.6000000E-01
  2.1600001E+00   9.9999998E-03   1.8000001E-01
  2.1600001E+00   9.9999998E-03   2.0000000E-01
  2.1600001E+00   9.9999998E-03   2.2000000E-01
  2.1600001E+00   9.9999998E-03   2.3999999E-01
  2.1600001E+00   9.9999998E-03   2.5999999E-01
  2.1600001E+00   9.9999998E-03   2.8000000E-01
  2.1600001E+00   9.9999998E-03   3.0000001E-01
  2.1600001E+00   9.9999998E-03   3.1999999E-01
  2.1600001E+00   9.9999998E-03   3.4000000E-01
  2.1600001E+00   9.9999998E-03   3.6000001E-01
  2.1600001E+00   9.9999998E-03   3.8000000E-01
  2.1600001E+00   9.9999998E-03   4.0000001E-01
  2.1800001E+00   9.9999998E-03  -1.8000001E-01
  2.1800001E+00   9.9999998E-03  -1.6000000E-01
  2.1800001E+00   9.9999998E-03  -1.4000000E-01
  2.1800001E+00   9.9999998E-03  -1.2000000E-01
  2.1800001E+00   9.9999998E-03  -1.0000000E-01
  2.1800001E+00   9.9999998E-03  -7.9999998E-02
  2.1800001E+00   9.9999998E-03  -5.9999999E-02
  2.1800001E+00   9.9999998E-03  -3.9999999E-02
  2.1800001E+00   9.9999998E-03  -2.0000000E-02
  2.1800001E+00   9.9999998E-03   0.0000000E+00
  2.1800001E+00   9.9999998E-03   2.0000000E-02
  2.1800001E+00   9.9999998E-03   3.9999999E-02
  2.1800001E+00   9.9999998E-03   5.9999999E-02
  2.1800001E+00   9.9999998E-03   7.9999998E-02
  2.1800001E+00   9.9999998E-03   1.0000000E-01
  2.1800001E+00   9.9999998E-03   1.2000000E-01
  2.1800001E+00   9.9999998E-03   1.4000000E-01
  2.1800001E+00   9.9999998E-03   1.6000000E-01
  2.1800001E+00   9.9999998E-03   1.8000001E-01
  2.1800001E+00   9.9999998E-03   2.0000000E-01
  2.1800001E+00   9.9999998E-03   2.2000000E-01
  2.1800001E+00   9.9999998E-03   2.3999999E-01
  2.1800001E+00   9.9999998E-03   2.5999999E-01
  2.1800001E+00   9.9999998E-03   2.8000000E-01
  2.1800001E+00   9.9999998E-03   3.0000001E-01
  2.1800001E+00   9.9999998E-03   3.1999999E-01
  2.1800001E+00   9.9999998E-03   3.4000000E-01
  2.1800001E+00   9.9999998E-03   3.6000001E-01
  2.1800001E+00   9.9999998E-03   3.8000000E-01
  2.1800001E+00   9.9999998E-03   4.0000001E-01
  2.2000000E+00   9.9999998E-03  -7.9999998E-02
  2.2000000E+00   9.9999998E-03  -5.9999999E-02
  2.2000000E+00   9.9999998E-03  -3.9999999E-02
  2.2000000E+00   9.9999998E-03  -2.0000000E-02
  2.2000000E+00   9.9999998E-03   0.0000000E+00
  2.2000000E+00   9.9999998E-03   2.0000000E-02
  2.2000000E+00   9.9999998E-03   3.9999999E-02
  2.2000000E+00   9.9999998E-03   5.9999999E-02
  2.2000000E+00   9.9999998E-03   7.9999998E-02
  2.2000000E+00   9.9999998E-03   1.0000000E-01
  2.2000000E+00   9.9999998E-03   1.2000000E-01
  2.2000000E+00   9.9999998E-03   1.4000000E-01
  2.2000000E+00   9.9999998E-03   1.6000000E-01
  2.2000000E+00   9.9999998E-03   1.8000001E-01
  2.2000000E+00   9.9999998E-03   2.0000000E-01
  2.2000000E+00   9.9999998E-03   2.2000000E-01
  2.2000000E+00   9.9999998E-03   2.3999999E-01
  2.2000000E+00   9.9999998E-03   2.5999999E-01
  2.2000000E+00   9.9999998E-03   2.8000000E-01
  2.2000000E+00   9.9999998E-03   3.0000001E-01
  2.2000000E+00   9.9999998E-03   3.1999999E-01
  2.2000000E+00   9.9999998E-03   3.4000000E-01
  2.2000000E+00   9.9999998E-03   3.6000001E-01
  2.2000000E+00   9.9999998E-03   3.8000000E-01
  2.2200000E+00   9.9999998E-03   2.0000000E-02
  2.2200000E+00   9.9999998E-03   3.9999999E-02
  2.2200000E+00   9.9999998E-03   5.9999999E-02
  2.2200000E+00   9.9999998E-03   7.9999998E-02
  2.2200000E+00   9.9999998E-03   1.0000000E-01
  2.2200000E+00   9.9999998E-03   1.2000000E-01
  2.2200000E+00   9.9999998E-03   1.4000000E-01
  2.2200000E+00   9.9999998E-03   1.6000000E-01
  2.2200000E+00   9.9999998E-03   1.8000001E-01
  2.2200000E+00   9.9999998E-03   2.0000000E-01
  2.2200000E+00   9.9999998E-03   2.2000000E-01
  2.2200000E+00   9.9999998E-03   2.3999999E-01
  2.2200000E+00   9.9999998E-03   2.5999999E-01
  2.2200000E+00   9.9999998E-03   2.8000000E-01
  2.2200000E+00   9.9999998E-03   3.0000001E-01
  2.2200000E+00   9.9999998E-03   3.1999999E-01
  2.2200000E+00   9.9999998E-03   3.4000000E-01
  2.2200000E+00   9.9999998E-03   3.6000001E-01
  2.2200000E+00   9.9999998E-03   3.8000000E-01
  2.2400000E+00   9.9999998E-03   1.2000000E-01
  2.2400000E+00   9.9999998E-03   1.4000000E-01
  2.2400000E+00   9.9999998E-03   1.6000000E-01
  2.2400000E+00   9.9999998E-03   1.8000001E-01
  2.2400000E+00   9.9999998E-03   2.0000000E-01
  2.2400000E+00   9.9999998E-03   2.2000000E-01
  2.2400000E+00   9.9999998E-03   2.3999999E-01
  2.2400000E+00   9.9999998E-03   2.5999999E-01
  2.2400000E+00   9.9999998E-03   2.8000000E-01
  2.2400000E+00   9.9999998E-03   3.0000001E-01
  2.2400000E+00   9.9999998E-03   3.1999999E-01
  2.2400000E+00   9.9999998E-03   3.4000000E-01
  2.2400000E+00   9.9999998E-03   3.6000001E-01
  2.2400000E+00   9.9999998E-03   3.8000000E-01
  2.2600000E+00   9.9999998E-03   2.2000000E-01
  2.2600000E+00   9.9999998E-03   2.3999999E-01
  2.2600000E+00   9.9999998E-03   2.5999999E-01
  2.2600000E+00   9.9999998E-03   2.8000000E-01
  2.2600000E+00   9.9999998E-03   3.0000001E-01
  2.2600000E+00   9.9999998E-03   3.1999999E-01
  2.2600000E+00   9.9999998E-03   3.4000000E-01
  2.2600000E+00   9.9999998E-03   3.6000001E-01
  2.2600000E+00   9.9999998E-03   3.8000000E-01
  2.2800000E+00   9.9999998E-03   3.1999999E-01
  2.2800000E+00   9.9999998E-03   3.4000000E-01
  2.2800000E+00   9.9999998E-03   3.6000001E-01
 -1.9276167E-06   9.9999998E-03  -2.8000075E-01
 -2.3446812E-06   9.9999998E-03  -2.6000071E-01
 -2.6968603E-06   9.9999998E-03  -2.4000065E-01
 -2.9711139E-06   9.9999998E-03  -2.2000055E-01
 -3.1737061E-06   9.9999998E-03  -2.0000046E-01
  1.9998077E-02   9.9999998E-03  -3.0000100E-01
  1.9997310E-02   9.9999998E-03  -2.8000093E-01
  1.9996654E-02   9.9999998E-03  -2.6000091E-01
  1.9996127E-02   9.9999998E-03  -2.4000084E-01
  1.9995729E-02   9.9999998E-03  -2.2000074E-01
  1.9995444E-02   9.9999998E-03  -2.0000061E-01
  3.9997302E-02   9.9999998E-03  -3.0000111E-01
  3.9996237E-02   9.9999998E-03  -2.8000107E-01
  3.9995324E-02   9.9999998E-03  -2.6000103E-01
  3.9994583E-02   9.9999998E-03  -2.4000096E-01
  3.9994039E-02   9.9999998E-03  -2.2000085E-01
  3.9993655E-02   9.9999998E-03  -2.0000072E-01
  5.9996333E-02   9.9999998E-03  -3.0000120E-01
  5.9994906E-02   9.9999998E-03  -2.8000116E-01
  5.9993707E-02   9.9999998E-03  -2.6000112E-01
  5.9992749E-02   9.9999998E-03  -2.4000104E-01
  5.9992041E-02   9.9999998E-03  -2.2000092E-01
  5.9991561E-02   9.9999998E-03  -2.0000078E-01
  7.9995163E-02   9.9999998E-03  -3.0000132E-01
  7.9993330E-02   9.9999998E-03  -2.8000122E-01
  7.9991810E-02   9.9999998E-03  -2.6000118E-01
  7.9990625E-02   9.9999998E-03  -2.4000108E-01
  7.9989761E-02   9.9999998E-03  -2.2000097E-01
  7.9989187E-02   9.9999998E-03  -2.0000081E-01
  9.9993750E-02   9.9999998E-03  -3.0000144E-01
  9.9991448E-02   9.9999998E-03  -2.8000128E-01
  9.9989593E-02   9.9999998E-03  -2.6000121E-01
  9.9988163E-02   9.9999998E-03  -2.4000111E-01
  9.9987149E-02   9.9999998E-03  -2.2000098E-01
  9.9986486E-02   9.9999998E-03  -2.0000082E-01
  1.1999203E-01   9.9999998E-03  -3.0000165E-01
  1.1998918E-01   9.9999998E-03  -2.8000134E-01
  1.1998696E-01   9.9999998E-03  -2.6000124E-01
  1.1998528E-01   9.9999998E-03  -2.4000111E-01
  1.1998413E-01   9.9999998E-03  -2.2000100E-01
  1.1998339E-01   9.9999998E-03  -2.0000082E-01
  1.3998987E-01   9.9999998E-03  -3.0000195E-01
  1.3998643E-01   9.9999998E-03  -2.8000149E-01
  1.3998382E-01   9.9999998E-03  -2.6000130E-01
  1.3998188E-01   9.9999998E-03  -2.4000114E-01
  1.3998058E-01   9.9999998E-03  -2.2000103E-01
  1.3997979E-01   9.9999998E-03  -2.0000087E-01
  1.5998712E-01   9.9999998E-03  -3.0000231E-01
  1.5998307E-01   9.9999998E-03  -2.8000170E-01
  1.5998006E-01   9.9999998E-03  -2.6000145E-01
  1.5997787E-01   9.9999998E-03  -2.4000126E-01
  1.5997644E-01   9.9999998E-03  -2.2000113E-01
  1.5997559E-01   9.9999998E-03  -2.0000097E-01
  1.7998350E-01   9.9999998E-03  -3.0000255E-01
  1.7997897E-01   9.9999998E-03  -2.8000194E-01
  1.7997557E-01   9.9999998E-03  -2.6000169E-01
  1.7997313E-01   9.9999998E-03  -2.4000150E-01
  1.7997156E-01   9.9999998E-03  -2.2000135E-01
  1.7997068E-01   9.9999998E-03  -2.0000118E-01
  1.9997875E-01   9.9999998E-03  -3.0000263E-01
  1.9997390E-01   9.9999998E-03  -2.8000224E-01
  1.9997020E-01   9.9999998E-03  -2.6000202E-01
  1.9996755E-01   9.9999998E-03  -2.4000189E-01
  1.9996586E-01   9.9999998E-03  -2.2000176E-01
  1.9996499E-01   9.9999998E-03  -2.0000157E-01
  2.1997319E-01   9.9999998E-03  -3.0000401E-01
  2.1996774E-01   9.9999998E-03  -2.8000307E-01
  2.1996380E-01   9.9999998E-03  -2.6000270E-01
  2.1996096E-01   9.9999998E-03  -2.4000251E-01
  2.1995923E-01   9.9999998E-03  -2.2000240E-01
  2.1995839E-01   9.9999998E-03  -2.0000218E-01
  2.3996609E-01   9.9999998E-03  -3.0000892E-01
  2.3996024E-01   9.9999998E-03  -2.8000605E-01
  2.3995613E-01   9.9999998E-03  -2.6000452E-01
  2.3995318E-01   9.9999998E-03  -2.4000378E-01
  2.3995151E-01   9.9999998E-03  -2.2000343E-01
  2.3995075E-01   9.9999998E-03  -2.0000307E-01
  2.5995657E-01   9.9999998E-03  -3.0001393E-01
  2.5995085E-01   9.9999998E-03  -2.8001019E-01
  2.5994676E-01   9.9999998E-03  -2.6000741E-01
  2.5994399E-01   9.9999998E-03  -2.4000585E-01
  2.5994250E-01   9.9999998E-03  -2.2000502E-01
  2.5994191E-01   9.9999998E-03  -2.0000434E-01
  2.7994478E-01   9.9999998E-03  -3.0001786E-01
  2.7993947E-01   9.9999998E-03  -2.8001410E-01
  2.7993572E-01   9.9999998E-03  -2.6001075E-01
  2.7993327E-01   9.9999998E-03  -2.4000852E-01
  2.7993205E-01   9.9999998E-03  -2.2000709E-01
  2.7993169E-01   9.9999998E-03  -2.0000596E-01
  2.9993144E-01   9.9999998E-03  -3.0002141E-01
  2.9992652E-01   9.9999998E-03  -2.8001761E-01
  2.9992309E-01   9.9999998E-03  -2.6001406E-01
  2.9992098E-01   9.9999998E-03  -2.4001141E-01
  2.9991999E-01   9.9999998E-03  -2.2000945E-01
  2.9991990E-01   9.9999998E-03  -2.0000787E-01
  3.1991696E-01   9.9999998E-03  -3.0002496E-01
  3.1991223E-01   9.9999998E-03  -2.8002104E-01
  3.1990892E-01   9.9999998E-03  -2.6001734E-01
  3.1990698E-01   9.9999998E-03  -2.4001436E-01
  3.1990620E-01   9.9999998E-03  -2.2001196E-01
  3.1990635E-01   9.9999998E-03  -2.0000999E-01
  3.3990139E-01   9.9999998E-03  -3.0002877E-01
  3.3989638E-01   9.9999998E-03  -2.8002459E-01
  3.3989298E-01   9.9999998E-03  -2.6002061E-01
  3.3989108E-01   9.9999998E-03  -2.4001738E-01
  3.3989048E-01   9.9999998E-03  -2.2001462E-01
  3.3989087E-01   9.9999998E-03  -2.0001224E-01
  3.5988420E-01   9.9999998E-03  -3.0003303E-01
  3.5987866E-01   9.9999998E-03  -2.8002843E-01
  3.5987493E-01   9.9999998E-03  -2.6002410E-01
  3.5987297E-01   9.9999998E-03  -2.4002056E-01
  3.5987249E-01   9.9999998E-03  -2.2001743E-01
  3.5987315E-01   9.9999998E-03  -2.0001464E-01
  3.7986478E-01   9.9999998E-03  -3.0003783E-01
  3.7985849E-01   9.9999998E-03  -2.8003269E-01
  3.7985441E-01   9.9999998E-03  -2.6002792E-01
  3.7985235E-01   9.9999998E-03  -2.4002397E-01
  3.7985200E-01   9.9999998E-03  -2.2002041E-01
  3.7985298E-01   9.9999998E-03  -2.0001717E-01
  3.9984262E-01   9.9999998E-03  -3.0004326E-01
  3.9983556E-01   9.9999998E-03  -2.8003749E-01
  3.9983106E-01   9.9999998E-03  -2.6003212E-01
  3.9982888E-01   9.9999998E-03  -2.4002768E-01
  3.9982873E-01   9.9999998E-03  -2.2002363E-01
  3.9983001E-01   9.9999998E-03  -2.0001990E-01
  4.1981733E-01   9.9999998E-03  -3.0004948E-01
  4.1980940E-01   9.9999998E-03  -2.8004295E-01
  4.1980448E-01   9.9999998E-03  -2.6003686E-01
  4.1980225E-01   9.9999998E-03  -2.4003179E-01
  4.1980228E-01   9.9999998E-03  -2.2002715E-01
  4.1980401E-01   9.9999998E-03  -2.0002285E-01
  4.3978843E-01   9.9999998E-03  -3.0005667E-01
  4.3977961E-01   9.9999998E-03  -2.8004920E-01
  4.3977425E-01   9.9999998E-03  -2.6004219E-01
  4.3977198E-01   9.9999998E-03  -2.4003631E-01
  4.3977231E-01   9.9999998E-03  -2.2003102E-01
  4.3977454E-01   9.9999998E-03  -2.0002614E-01
  4.5975527E-01   9.9999998E-03  -3.0006510E-01
  4.5974553E-01   9.9999998E-03  -2.8005645E-01
  4.5973977E-01   9.9999998E-03  -2.6004818E-01
  4.5973760E-01   9.9999998E-03  -2.4004133E-01
  4.5973831E-01   9.9999998E-03  -2.2003536E-01
  4.5974123E-01   9.9999998E-03  -2.0002995E-01
  4.7971699E-01   9.9999998E-03  -3.0007505E-01
  4.7970641E-01   9.9999998E-03  -2.8006488E-01
  4.7970045E-01   9.9999998E-03  -2.6005492E-01
  4.7969851E-01   9.9999998E-03  -2.4004696E-01
  4.7969985E-01   9.9999998E-03  -2.2004040E-01
  4.7970361E-01   9.9999998E-03  -2.0003462E-01
  4.9967229E-01   9.9999998E-03  -3.0008698E-01
  4.9966136E-01   9.9999998E-03  -2.8007475E-01
  4.9965557E-01   9.9999998E-03  -2.6006258E-01
  4.9965420E-01   9.9999998E-03  -2.4005355E-01
  4.9965644E-01   9.9999998E-03  -2.2004665E-01
  4.9966130E-01   9.9999998E-03  -2.0004074E-01
  5.1961970E-01   9.9999998E-03  -3.0010143E-01
  5.1960945E-01   9.9999998E-03  -2.8008652E-01
  5.1960456E-01   9.9999998E-03  -2.6007161E-01
  5.1960433E-01   9.9999998E-03  -2.4006185E-01
  5.1960784E-01   9.9999998E-03  -2.2005501E-01
  5.1961404E-01   9.9999998E-03  -2.0004922E-01
  5.3955781E-01   9.9999998E-03  -3.0011919E-01
  5.3955013E-01   9.9999998E-03  -2.8010094E-01
  5.3954744E-01   9.9999998E-03  -2.6008311E-01
  5.3954911E-01   9.9999998E-03  -2.4007310E-01
  5.3955430E-01   9.9999998E-03  -2.2006679E-01
  5.3956205E-01   9.9999998E-03  -2.0006125E-01
  5.5948651E-01   9.9999998E-03  -3.0014142E-01
  5.5948412E-01   9.9999998E-03  -2.8011942E-01
  5.5948526E-01   9.9999998E-03  -2.6009873E-01
  5.5948979E-01   9.9999998E-03  -2.4008897E-01
  5.5949712E-01   9.9999998E-03  -2.2008352E-01
  5.5950648E-01   9.9999998E-03  -2.0007798E-01
  5.7940871E-01   9.9999998E-03  -3.0017000E-01
  5.7941455E-01   9.9999998E-03  -2.8014448E-01
  5.7942098E-01   9.9999998E-03  -2.6012117E-01
  5.7942891E-01   9.9999998E-03  -2.4011134E-01
  5.7943869E-01   9.9999998E-03  -2.2010629E-01
  5.7944965E-01   9.9999998E-03  -2.0010017E-01
  5.9933108E-01   9.9999998E-03  -3.0020797E-01
  5.9934646E-01   9.9999998E-03  -2.8018007E-01
  5.9935892E-01   9.9999998E-03  -2.6015407E-01
  5.9937018E-01   9.9999998E-03  -2.4014167E-01
  5.9938198E-01   9.9999998E-03  -2.2013506E-01
  5.9939444E-01   9.9999998E-03  -2.0012712E-01
  6.1926252E-01   9.9999998E-03  -3.0025995E-01
  6.1928576E-01   9.9999998E-03  -2.8023180E-01
  6.1930150E-01   9.9999998E-03  -2.6020038E-01
  6.1931562E-01   9.9999998E-03  -2.4018131E-01
  6.1932975E-01   9.9999998E-03  -2.2016977E-01
  6.1934364E-01   9.9999998E-03  -2.0015804E-01
  6.3921171E-01   9.9999998E-03  -3.0032900E-01
  6.3923723E-01   9.9999998E-03  -2.8030312E-01
  6.3925457E-01   9.9999998E-03  -2.6026973E-01
  6.3926917E-01   9.9999998E-03  -2.4023670E-01
  6.3928419E-01   9.9999998E-03  -2.2021168E-01
  6.3930011E-01   9.9999998E-03  -2.0019357E-01
  6.5918469E-01   9.9999998E-03  -3.0040950E-01
  6.5920860E-01   9.9999998E-03  -2.8038713E-01
  6.5922689E-01   9.9999998E-03  -2.6036093E-01
  6.5924120E-01   9.9999998E-03  -2.4031803E-01
  6.5925437E-01   9.9999998E-03  -2.2027230E-01
  6.5926993E-01   9.9999998E-03  -2.0023967E-01
  6.7919481E-01   9.9999998E-03  -3.0048430E-01
  6.7920649E-01   9.9999998E-03  -2.8046519E-01
  6.7922378E-01   9.9999998E-03  -2.6045004E-01
  6.7923737E-01   9.9999998E-03  -2.4041303E-01
  6.7924678E-01   9.9999998E-03  -2.2035214E-01
  6.7925984E-01   9.9999998E-03  -2.0030311E-01
  6.9931072E-01   9.9999998E-03  -3.0054218E-01
  6.9926357E-01   9.9999998E-03  -2.8052571E-01
  6.9926202E-01   9.9999998E-03  -2.6052317E-01
  6.9927329E-01   9.9999998E-03  -2.4050109E-01
  6.9927758E-01   9.9999998E-03  -2.2044380E-01
  6.9928604E-01   9.9999998E-03  -2.0038600E-01
  7.1952671E-01   9.9999998E-03  -3.0058506E-01
  7.1946841E-01   9.9999998E-03  -2.8056833E-01
  7.1942329E-01   9.9999998E-03  -2.6057023E-01
  7.1939725E-01   9.9999998E-03  -2.4056233E-01
  7.1938819E-01   9.9999998E-03  -2.2052228E-01
  7.1939290E-01   9.9999998E-03  -2.0047189E-01
  7.3971373E-01   9.9999998E-03  -3.0061680E-01
  7.3967510E-01   9.9999998E-03  -2.8059667E-01
  7.3964363E-01   9.9999998E-03  -2.6058593E-01
  7.3962098E-01   9.9999998E-03  -2.4057461E-01
  7.3960942E-01   9.9999998E-03  -2.2053796E-01
  7.3960876E-01   9.9999998E-03  -2.0049138E-01
  7.5984919E-01   9.9999998E-03  -3.0063969E-01
  7.5982708E-01   9.9999998E-03  -2.8061718E-01
  7.5980937E-01   9.9999998E-03  -2.6059207E-01
  7.5979501E-01   9.9999998E-03  -2.4057466E-01
  7.5978619E-01   9.9999998E-03  -2.2053847E-01
  7.5978327E-01   9.9999998E-03  -2.0049439E-01
  7.7994257E-01   9.9999998E-03  -3.0065468E-01
  7.7993405E-01   9.9999998E-03  -2.8063059E-01
  7.7992749E-01   9.9999998E-03  -2.6059625E-01
  7.7992088E-01   9.9999998E-03  -2.4057318E-01
  7.7991551E-01   9.9999998E-03  -2.2053565E-01
  7.7991229E-01   9.9999998E-03  -2.0049210E-01
  8.0001640E-01   9.9999998E-03  -3.0066225E-01
  8.0001909E-01   9.9999998E-03  -2.8063762E-01
  8.0002129E-01   9.9999998E-03  -2.6059985E-01
  8.0002147E-01   9.9999998E-03  -2.4057323E-01
  8.0001968E-01   9.9999998E-03  -2.2053339E-01
  8.0001694E-01   9.9999998E-03  -2.0048775E-01
  8.2009095E-01   9.9999998E-03  -3.0066267E-01
  8.2010388E-01   9.9999998E-03  -2.8063831E-01
  8.2011265E-01   9.9999998E-03  -2.6060185E-01
  8.2011861E-01   9.9999998E-03  -2.4057443E-01
  8.2011992E-01   9.9999998E-03  -2.2053161E-01
  8.2011735E-01   9.9999998E-03  -2.0048213E-01
  8.4017533E-01   9.9999998E-03  -3.0065456E-01
  8.4019756E-01   9.9999998E-03  -2.8063059E-01
  8.4021205E-01   9.9999998E-03  -2.6059660E-01
  8.4022260E-01   9.9999998E-03  -2.4057026E-01
  8.4022623E-01   9.9999998E-03  -2.2052582E-01
  8.4022290E-01   9.9999998E-03  -2.0047408E-01
  8.6026663E-01   9.9999998E-03  -3.0063874E-01
  8.6029798E-01   9.9999998E-03  -2.8061512E-01
  8.6031747E-01   9.9999998E-03  -2.6058325E-01
  8.6033171E-01   9.9999998E-03  -2.4055845E-01
  8.6033696E-01   9.9999998E-03  -2.2051415E-01
  8.6033165E-01   9.9999998E-03  -2.0046221E-01
  8.8035691E-01   9.9999998E-03  -3.0061638E-01
  8.8039649E-01   9.9999998E-03  -2.8059307E-01
  8.8042015E-01   9.9999998E-03  -2.6056254E-01
  8.8043779E-01   9.9999998E-03  -2.4053885E-01
  8.8044399E-01   9.9999998E-03  -2.2049606E-01
  8.8043624E-01   9.9999998E-03  -2.0044550E-01
  9.0043825E-01   9.9999998E-03  -3.0058882E-01
  9.0048414E-01   9.9999998E-03  -2.8056559E-01
  9.0051061E-01   9.9999998E-03  -2.6053554E-01
  9.0053058E-01   9.9999998E-03  -2.4051175E-01
  9.0053791E-01   9.9999998E-03  -2.2047059E-01
  9.0052867E-01   9.9999998E-03  -2.0042367E-01
  9.2050463E-01   9.9999998E-03  -3.0055720E-01
  9.2055362E-01   9.9999998E-03  -2.8053382E-01
  9.2058253E-01   9.9999998E-03  -2.6050365E-01
  9.2060292E-01   9.9999998E-03  -2.4047829E-01
  9.2061138E-01   9.9999998E-03  -2.2043855E-01
  9.2059892E-01   9.9999998E-03  -2.0039739E-01
  9.4055289E-01   9.9999998E-03  -3.0052242E-01
  9.4060338E-01   9.9999998E-03  -2.8049856E-01
  9.4063407E-01   9.9999998E-03  -2.6046851E-01
  9.4065285E-01   9.9999998E-03  -2.4044089E-01
  9.4064808E-01   9.9999998E-03  -2.2040580E-01
  9.4062191E-01   9.9999998E-03  -2.0036921E-01
  9.6058810E-01   9.9999998E-03  -3.0048525E-01
  9.6063823E-01   9.9999998E-03  -2.8046119E-01
  9.6066850E-01   9.9999998E-03  -2.6043129E-01
  9.6067542E-01   9.9999998E-03  -2.4040572E-01
  9.6065396E-01   9.9999998E-03  -2.2037543E-01
  9.6062344E-01   9.9999998E-03  -2.0034026E-01
  9.8061907E-01   9.9999998E-03  -3.0044657E-01
  9.8066586E-01   9.9999998E-03  -2.8042260E-01
  9.8068905E-01   9.9999998E-03  -2.6039398E-01
  9.8067909E-01   9.9999998E-03  -2.4037270E-01
  9.8065144E-01   9.9999998E-03  -2.2034460E-01
  9.8061877E-01   9.9999998E-03  -2.0031179E-01
  1.0006530E+00   9.9999998E-03  -3.0040741E-01
  1.0006902E+00   9.9999998E-03  -2.8038359E-01
  1.0006980E+00   9.9999998E-03  -2.6035744E-01
  1.0006775E+00   9.9999998E-03  -2.4033980E-01
  1.0006450E+00   9.9999998E-03  -2.2031341E-01
  1.0006109E+00   9.9999998E-03  -2.0028530E-01
  1.0206956E+00   9.9999998E-03  -3.0036882E-01
  1.0207140E+00   9.9999998E-03  -2.8034544E-01
  1.0207028E+00   9.9999998E-03  -2.6032239E-01
  1.0206745E+00   9.9999998E-03  -2.4030760E-01
  1.0206378E+00   9.9999998E-03  -2.2028455E-01
  1.0206020E+00   9.9999998E-03  -2.0026112E-01
  1.0407542E+00   9.9999998E-03  -3.0033177E-01
  1.0407416E+00   9.9999998E-03  -2.8031024E-01
  1.0407084E+00   9.9999998E-03  -2.6029068E-01
  1.0406716E+00   9.9999998E-03  -2.4027771E-01
  1.0406307E+00   9.9999998E-03  -2.2025792E-01
  1.0405921E+00   9.9999998E-03  -2.0023711E-01
  1.0608112E+00   9.9999998E-03  -3.0029765E-01
  1.0607674E+00   9.9999998E-03  -2.8028062E-01
  1.0607176E+00   9.9999998E-03  -2.6026392E-01
  1.0606698E+00   9.9999998E-03  -2.4025136E-01
  1.0606247E+00   9.9999998E-03  -2.2023305E-01
  1.0605822E+00   9.9999998E-03  -2.0021404E-01
  1.0808392E+00   9.9999998E-03  -3.0026940E-01
  1.0807846E+00   9.9999998E-03  -2.8025556E-01
  1.0807252E+00   9.9999998E-03  -2.6023939E-01
  1.0806693E+00   9.9999998E-03  -2.4022673E-01
  1.0806198E+00   9.9999998E-03  -2.2021043E-01
  1.0805732E+00   9.9999998E-03  -2.0019193E-01
  1.1007905E+00   9.9999998E-03  -2.8023276E-01
  1.1007282E+00   9.9999998E-03  -2.6021555E-01
  1.1006700E+00   9.9999998E-03  -2.4020310E-01
  1.1006165E+00   9.9999998E-03  -2.2018865E-01
  1.1005661E+00   9.9999998E-03  -2.0017137E-01
  1.1207852E+00   9.9999998E-03  -2.8021336E-01
  1.1207291E+00   9.9999998E-03  -2.6019636E-01
  1.1206710E+00   9.9999998E-03  -2.4018167E-01
  1.1206152E+00   9.9999998E-03  -2.2016843E-01
  1.1205612E+00   9.9999998E-03  -2.0015211E-01
  1.1407272E+00   9.9999998E-03  -2.6018369E-01
  1.1406721E+00   9.9999998E-03  -2.4016656E-01
  1.1406175E+00   9.9999998E-03  -2.2015308E-01
  1.1405602E+00   9.9999998E-03  -2.0013651E-01
  1.1607186E+00   9.9999998E-03  -2.6017421E-01
  1.1606746E+00   9.9999998E-03  -2.4015975E-01
  1.1606220E+00   9.9999998E-03  -2.2014354E-01
  1.1605649E+00   9.9999998E-03  -2.0012711E-01
  1.1806706E+00   9.9999998E-03  -2.4015608E-01
  1.1806267E+00   9.9999998E-03  -2.2014059E-01
  1.1805743E+00   9.9999998E-03  -2.0012444E-01
  1.2006252E+00   9.9999998E-03  -2.2014000E-01
  1.2005841E+00   9.9999998E-03  -2.0012635E-01
  1.2206054E+00   9.9999998E-03  -2.2013235E-01
  1.2205836E+00   9.9999998E-03  -2.0012784E-01
 -3.3135466E-06   9.9999998E-03  -1.8000036E-01
 -3.4046848E-06   9.9999998E-03  -1.6000028E-01
 -3.4572881E-06   9.9999998E-03  -1.4000021E-01
 -3.4829952E-06   9.9999998E-03  -1.2000016E-01
 -3.4910354E-06   9.9999998E-03  -1.0000011E-01
 -3.4885779E-06   9.9999998E-03  -8.0000073E-02
 -3.4815425E-06   9.9999998E-03  -6.0000047E-02
 -3.4737934E-06   9.9999998E-03  -4.0000029E-02
 -3.4681411E-06   9.9999998E-03  -2.0000013E-02
  1.9995254E-02   9.9999998E-03  -1.8000050E-01
  1.9995136E-02   9.9999998E-03  -1.6000038E-01
  1.9995075E-02   9.9999998E-03  -1.4000030E-01
  1.9995047E-02   9.9999998E-03  -1.2000022E-01
  1.9995045E-02   9.9999998E-03  -1.0000016E-01
  1.9995054E-02   9.9999998E-03  -8.0000110E-02
  1.9995069E-02   9.9999998E-03  -6.0000069E-02
  1.9995084E-02   9.9999998E-03  -4.0000040E-02
  1.9995093E-02   9.9999998E-03  -2.0000018E-02
  3.9993405E-02   9.9999998E-03  -1.8000059E-01
  3.9993260E-02   9.9999998E-03  -1.6000046E-01
  3.9993189E-02   9.9999998E-03  -1.4000034E-01
  3.9993163E-02   9.9999998E-03  -1.2000026E-01
  3.9993167E-02   9.9999998E-03  -1.0000019E-01
  3.9993189E-02   9.9999998E-03  -8.0000125E-02
  3.9993215E-02   9.9999998E-03  -6.0000084E-02
  3.9993238E-02   9.9999998E-03  -4.0000051E-02
  3.9993256E-02   9.9999998E-03  -2.0000024E-02
  5.9991255E-02   9.9999998E-03  -1.8000063E-01
  5.9991084E-02   9.9999998E-03  -1.6000050E-01
  5.9991006E-02   9.9999998E-03  -1.4000037E-01
  5.9990987E-02   9.9999998E-03  -1.2000028E-01
  5.9991006E-02   9.9999998E-03  -1.0000020E-01
  5.9991043E-02   9.9999998E-03  -8.0000140E-02
  5.9991084E-02   9.9999998E-03  -6.0000092E-02
  5.9991118E-02   9.9999998E-03  -4.0000055E-02
  5.9991144E-02   9.9999998E-03  -2.0000026E-02
  7.9988830E-02   9.9999998E-03  -1.8000066E-01
  7.9988644E-02   9.9999998E-03  -1.6000052E-01
  7.9988569E-02   9.9999998E-03  -1.4000039E-01
  7.9988562E-02   9.9999998E-03  -1.2000029E-01
  7.9988599E-02   9.9999998E-03  -1.0000020E-01
  7.9988658E-02   9.9999998E-03  -8.0000140E-02
  7.9988718E-02   9.9999998E-03  -6.0000092E-02
  7.9988770E-02   9.9999998E-03  -4.0000055E-02
  7.9988800E-02   9.9999998E-03  -2.0000026E-02
  9.9986099E-02   9.9999998E-03  -1.8000066E-01
  9.9985912E-02   9.9999998E-03  -1.6000052E-01
  9.9985845E-02   9.9999998E-03  -1.4000039E-01
  9.9985860E-02   9.9999998E-03  -1.2000029E-01
  9.9985927E-02   9.9999998E-03  -1.0000020E-01
  9.9986009E-02   9.9999998E-03  -8.0000140E-02
  9.9986091E-02   9.9999998E-03  -6.0000092E-02
  9.9986158E-02   9.9999998E-03  -4.0000055E-02
  9.9986203E-02   9.9999998E-03  -2.0000026E-02
  1.1998298E-01   9.9999998E-03  -1.8000068E-01
  1.1998279E-01   9.9999998E-03  -1.6000053E-01
  1.1998276E-01   9.9999998E-03  -1.4000040E-01
  1.1998281E-01   9.9999998E-03  -1.2000030E-01
  1.1998291E-01   9.9999998E-03  -1.0000021E-01
  1.1998302E-01   9.9999998E-03  -8.0000147E-02
  1.1998314E-01   9.9999998E-03  -6.0000096E-02
  1.1998323E-01   9.9999998E-03  -4.0000055E-02
  1.1998329E-01   9.9999998E-03  -2.0000026E-02
  1.3997938E-01   9.9999998E-03  -1.8000071E-01
  1.3997921E-01   9.9999998E-03  -1.6000056E-01
  1.3997921E-01   9.9999998E-03  -1.4000043E-01
  1.3997932E-01   9.9999998E-03  -1.2000033E-01
  1.3997945E-01   9.9999998E-03  -1.0000023E-01
  1.3997962E-01   9.9999998E-03  -8.0000162E-02
  1.3997976E-01   9.9999998E-03  -6.0000107E-02
  1.3997988E-01   9.9999998E-03  -4.0000066E-02
  1.3997996E-01   9.9999998E-03  -2.0000031E-02
  1.5997517E-01   9.9999998E-03  -1.8000081E-01
  1.5997505E-01   9.9999998E-03  -1.6000065E-01
  1.5997511E-01   9.9999998E-03  -1.4000052E-01
  1.5997528E-01   9.9999998E-03  -1.2000040E-01
  1.5997548E-01   9.9999998E-03  -1.0000029E-01
  1.5997569E-01   9.9999998E-03  -8.0000207E-02
  1.5997589E-01   9.9999998E-03  -6.0000140E-02
  1.5997604E-01   9.9999998E-03  -4.0000089E-02
  1.5997612E-01   9.9999998E-03  -2.0000041E-02
  1.7997031E-01   9.9999998E-03  -1.8000102E-01
  1.7997025E-01   9.9999998E-03  -1.6000085E-01
  1.7997038E-01   9.9999998E-03  -1.4000069E-01
  1.7997061E-01   9.9999998E-03  -1.2000053E-01
  1.7997089E-01   9.9999998E-03  -1.0000040E-01
  1.7997117E-01   9.9999998E-03  -8.0000296E-02
  1.7997141E-01   9.9999998E-03  -6.0000204E-02
  1.7997159E-01   9.9999998E-03  -4.0000126E-02
  1.7997171E-01   9.9999998E-03  -2.0000061E-02
  1.9996467E-01   9.9999998E-03  -1.8000138E-01
  1.9996469E-01   9.9999998E-03  -1.6000116E-01
  1.9996491E-01   9.9999998E-03  -1.4000095E-01
  1.9996524E-01   9.9999998E-03  -1.2000075E-01
  1.9996561E-01   9.9999998E-03  -1.0000058E-01
  1.9996595E-01   9.9999998E-03  -8.0000430E-02
  1.9996627E-01   9.9999998E-03  -6.0000300E-02
  1.9996649E-01   9.9999998E-03  -4.0000189E-02
  1.9996664E-01   9.9999998E-03  -2.0000093E-02
  2.1995816E-01   9.9999998E-03  -1.8000193E-01
  2.1995828E-01   9.9999998E-03  -1.6000164E-01
  2.1995860E-01   9.9999998E-03  -1.4000134E-01
  2.1995905E-01   9.9999998E-03  -1.2000108E-01
  2.1995951E-01   9.9999998E-03  -1.0000084E-01
  2.1995996E-01   9.9999998E-03  -8.0000624E-02
  2.1996033E-01   9.9999998E-03  -6.0000442E-02
  2.1996062E-01   9.9999998E-03  -4.0000279E-02
  2.1996079E-01   9.9999998E-03  -2.0000136E-02
  2.3995063E-01   9.9999998E-03  -1.8000269E-01
  2.3995088E-01   9.9999998E-03  -1.6000229E-01
  2.3995134E-01   9.9999998E-03  -1.4000189E-01
  2.3995191E-01   9.9999998E-03  -1.2000152E-01
  2.3995249E-01   9.9999998E-03  -1.0000118E-01
  2.3995304E-01   9.9999998E-03  -8.0000885E-02
  2.3995350E-01   9.9999998E-03  -6.0000628E-02
  2.3995386E-01   9.9999998E-03  -4.0000401E-02
  2.3995407E-01   9.9999998E-03  -2.0000195E-02
  2.5994194E-01   9.9999998E-03  -1.8000372E-01
  2.5994235E-01   9.9999998E-03  -1.6000313E-01
  2.5994298E-01   9.9999998E-03  -1.4000258E-01
  2.5994369E-01   9.9999998E-03  -1.2000208E-01
  2.5994441E-01   9.9999998E-03  -1.0000162E-01
  2.5994509E-01   9.9999998E-03  -8.0001213E-02
  2.5994566E-01   9.9999998E-03  -6.0000863E-02
  2.5994608E-01   9.9999998E-03  -4.0000550E-02
  2.5994635E-01   9.9999998E-03  -2.0000268E-02
  2.7993190E-01   9.9999998E-03  -1.8000501E-01
  2.7993253E-01   9.9999998E-03  -1.6000418E-01
  2.7993333E-01   9.9999998E-03  -1.4000343E-01
  2.7993423E-01   9.9999998E-03  -1.2000275E-01
  2.7993515E-01   9.9999998E-03  -1.0000213E-01
  2.7993596E-01   9.9999998E-03  -8.0001608E-02
  2.7993664E-01   9.9999998E-03  -6.0001142E-02
  2.7993715E-01   9.9999998E-03  -4.0000729E-02
  2.7993745E-01   9.9999998E-03  -2.0000355E-02
  2.9992038E-01   9.9999998E-03  -1.8000655E-01
  2.9992121E-01   9.9999998E-03  -1.6000541E-01
  2.9992229E-01   9.9999998E-03  -1.4000441E-01
  2.9992339E-01   9.9999998E-03  -1.2000351E-01
  2.9992449E-01   9.9999998E-03  -1.0000273E-01
  2.9992548E-01   9.9999998E-03  -8.0002047E-02
  2.9992628E-01   9.9999998E-03  -6.0001455E-02
  2.9992691E-01   9.9999998E-03  -4.0000930E-02
  2.9992726E-01   9.9999998E-03  -2.0000454E-02
  3.1990713E-01   9.9999998E-03  -1.8000828E-01
  3.1990826E-01   9.9999998E-03  -1.6000679E-01
  3.1990960E-01   9.9999998E-03  -1.4000551E-01
  3.1991097E-01   9.9999998E-03  -1.2000438E-01
  3.1991228E-01   9.9999998E-03  -1.0000339E-01
  3.1991348E-01   9.9999998E-03  -8.0002539E-02
  3.1991443E-01   9.9999998E-03  -6.0001802E-02
  3.1991515E-01   9.9999998E-03  -4.0001154E-02
  3.1991559E-01   9.9999998E-03  -2.0000562E-02
  3.3989194E-01   9.9999998E-03  -1.8001014E-01
  3.3989340E-01   9.9999998E-03  -1.6000830E-01
  3.3989507E-01   9.9999998E-03  -1.4000671E-01
  3.3989674E-01   9.9999998E-03  -1.2000531E-01
  3.3989835E-01   9.9999998E-03  -1.0000411E-01
  3.3989975E-01   9.9999998E-03  -8.0003068E-02
  3.3990088E-01   9.9999998E-03  -6.0002174E-02
  3.3990175E-01   9.9999998E-03  -4.0001389E-02
  3.3990225E-01   9.9999998E-03  -2.0000676E-02
  3.5987458E-01   9.9999998E-03  -1.8001212E-01
  3.5987642E-01   9.9999998E-03  -1.6000991E-01
  3.5987848E-01   9.9999998E-03  -1.4000797E-01
  3.5988051E-01   9.9999998E-03  -1.2000630E-01
  3.5988241E-01   9.9999998E-03  -1.0000486E-01
  3.5988405E-01   9.9999998E-03  -8.0003627E-02
  3.5988542E-01   9.9999998E-03  -6.0002562E-02
  3.5988641E-01   9.9999998E-03  -4.0001631E-02
  3.5988700E-01   9.9999998E-03  -2.0000793E-02
  3.7985480E-01   9.9999998E-03  -1.8001422E-01
  3.7985709E-01   9.9999998E-03  -1.6001160E-01
  3.7985957E-01   9.9999998E-03  -1.4000933E-01
  3.7986201E-01   9.9999998E-03  -1.2000734E-01
  3.7986425E-01   9.9999998E-03  -1.0000565E-01
  3.7986621E-01   9.9999998E-03  -8.0004208E-02
  3.7986779E-01   9.9999998E-03  -6.0002971E-02
  3.7986895E-01   9.9999998E-03  -4.0001892E-02
  3.7986967E-01   9.9999998E-03  -2.0000920E-02
  3.9983231E-01   9.9999998E-03  -1.8001647E-01
  3.9983511E-01   9.9999998E-03  -1.6001344E-01
  3.9983809E-01   9.9999998E-03  -1.4001077E-01
  3.9984098E-01   9.9999998E-03  -1.2000847E-01
  3.9984366E-01   9.9999998E-03  -1.0000651E-01
  3.9984596E-01   9.9999998E-03  -8.0004849E-02
  3.9984781E-01   9.9999998E-03  -6.0003426E-02
  3.9984918E-01   9.9999998E-03  -4.0002182E-02
  3.9985001E-01   9.9999998E-03  -2.0001061E-02
  4.1980684E-01   9.9999998E-03  -1.8001893E-01
  4.1981024E-01   9.9999998E-03  -1.6001545E-01
  4.1981378E-01   9.9999998E-03  -1.4001240E-01
  4.1981724E-01   9.9999998E-03  -1.2000977E-01
  4.1982037E-01   9.9999998E-03  -1.0000751E-01
  4.1982308E-01   9.9999998E-03  -8.0005608E-02
  4.1982526E-01   9.9999998E-03  -6.0003974E-02
  4.1982684E-01   9.9999998E-03  -4.0002540E-02
  4.1982779E-01   9.9999998E-03  -2.0001238E-02
  4.3977803E-01   9.9999998E-03  -1.8002172E-01
  4.3978214E-01   9.9999998E-03  -1.6001780E-01
  4.3978640E-01   9.9999998E-03  -1.4001437E-01
  4.3979049E-01   9.9999998E-03  -1.2001137E-01
  4.3979418E-01   9.9999998E-03  -1.0000881E-01
  4.3979731E-01   9.9999998E-03  -8.0006614E-02
  4.3979985E-01   9.9999998E-03  -6.0004715E-02
  4.3980169E-01   9.9999998E-03  -4.0003031E-02
  4.3980280E-01   9.9999998E-03  -2.0001482E-02
  4.5974553E-01   9.9999998E-03  -1.8002509E-01
  4.5975047E-01   9.9999998E-03  -1.6002074E-01
  4.5975554E-01   9.9999998E-03  -1.4001691E-01
  4.5976037E-01   9.9999998E-03  -1.2001354E-01
  4.5976469E-01   9.9999998E-03  -1.0001060E-01
  4.5976838E-01   9.9999998E-03  -8.0008052E-02
  4.5977131E-01   9.9999998E-03  -6.0005795E-02
  4.5977345E-01   9.9999998E-03  -4.0003750E-02
  4.5977473E-01   9.9999998E-03  -2.0001844E-02
  4.7970888E-01   9.9999998E-03  -1.8002942E-01
  4.7971484E-01   9.9999998E-03  -1.6002472E-01
  4.7972086E-01   9.9999998E-03  -1.4002046E-01
  4.7972652E-01   9.9999998E-03  -1.2001663E-01
  4.7973159E-01   9.9999998E-03  -1.0001321E-01
  4.7973585E-01   9.9999998E-03  -8.0010161E-02
  4.7973925E-01   9.9999998E-03  -6.0007401E-02
  4.7974169E-01   9.9999998E-03  -4.0004835E-02
  4.7974321E-01   9.9999998E-03  -2.0002389E-02
  4.9966773E-01   9.9999998E-03  -1.8003537E-01
  4.9967483E-01   9.9999998E-03  -1.6003032E-01
  4.9968192E-01   9.9999998E-03  -1.4002559E-01
  4.9968854E-01   9.9999998E-03  -1.2002114E-01
  4.9969438E-01   9.9999998E-03  -1.0001704E-01
  4.9969929E-01   9.9999998E-03  -8.0013275E-02
  4.9970320E-01   9.9999998E-03  -6.0009763E-02
  4.9970603E-01   9.9999998E-03  -4.0006429E-02
  4.9970776E-01   9.9999998E-03  -2.0003194E-02
  5.1962179E-01   9.9999998E-03  -1.8004376E-01
  5.1963013E-01   9.9999998E-03  -1.6003832E-01
  5.1963836E-01   9.9999998E-03  -1.4003292E-01
  5.1964599E-01   9.9999998E-03  -1.2002762E-01
  5.1965272E-01   9.9999998E-03  -1.0002255E-01
  5.1965833E-01   9.9999998E-03  -8.0017738E-02
  5.1966280E-01   9.9999998E-03  -6.0013145E-02
  5.1966602E-01   9.9999998E-03  -4.0008705E-02
  5.1966798E-01   9.9999998E-03  -2.0004338E-02
  5.3957123E-01   9.9999998E-03  -1.8005553E-01
  5.3958082E-01   9.9999998E-03  -1.6004947E-01
  5.3959024E-01   9.9999998E-03  -1.4004311E-01
  5.3959894E-01   9.9999998E-03  -1.2003659E-01
  5.3960657E-01   9.9999998E-03  -1.0003014E-01
  5.3961295E-01   9.9999998E-03  -8.0023862E-02
  5.3961796E-01   9.9999998E-03  -6.0017783E-02
  5.3962165E-01   9.9999998E-03  -4.0011816E-02
  5.3962386E-01   9.9999998E-03  -2.0005899E-02
  5.5951703E-01   9.9999998E-03  -1.8007164E-01
  5.5952787E-01   9.9999998E-03  -1.6006453E-01
  5.5953836E-01   9.9999998E-03  -1.4005676E-01
  5.5954808E-01   9.9999998E-03  -1.2004855E-01
  5.5955660E-01   9.9999998E-03  -1.0004025E-01
  5.5956376E-01   9.9999998E-03  -8.0032028E-02
  5.5956942E-01   9.9999998E-03  -6.0023930E-02
  5.5957353E-01   9.9999998E-03  -4.0015925E-02
  5.5957603E-01   9.9999998E-03  -2.0007955E-02
  5.7946140E-01   9.9999998E-03  -1.8009268E-01
  5.7947332E-01   9.9999998E-03  -1.6008377E-01
  5.7948482E-01   9.9999998E-03  -1.4007393E-01
  5.7949543E-01   9.9999998E-03  -1.2006350E-01
  5.7950485E-01   9.9999998E-03  -1.0005278E-01
  5.7951272E-01   9.9999998E-03  -8.0042072E-02
  5.7951897E-01   9.9999998E-03  -6.0031474E-02
  5.7952350E-01   9.9999998E-03  -4.0020972E-02
  5.7952631E-01   9.9999998E-03  -2.0010494E-02
  5.9940737E-01   9.9999998E-03  -1.8011756E-01
  5.9942043E-01   9.9999998E-03  -1.6010669E-01
  5.9943300E-01   9.9999998E-03  -1.4009462E-01
  5.9944451E-01   9.9999998E-03  -1.2008151E-01
  5.9945464E-01   9.9999998E-03  -1.0006787E-01
  5.9946316E-01   9.9999998E-03  -8.0054156E-02
  5.9946996E-01   9.9999998E-03  -6.0040578E-02
  5.9947497E-01   9.9999998E-03  -4.0027104E-02
  5.9947801E-01   9.9999998E-03  -2.0013589E-02
  6.1935812E-01   9.9999998E-03  -1.8014598E-01
  6.1937261E-01   9.9999998E-03  -1.6013303E-01
  6.1938608E-01   9.9999998E-03  -1.4011833E-01
  6.1939830E-01   9.9999998E-03  -1.2010214E-01
  6.1940897E-01   9.9999998E-03  -1.0008529E-01
  6.1941803E-01   9.9999998E-03  -8.0068335E-02
  6.1942536E-01   9.9999998E-03  -6.0051341E-02
  6.1943078E-01   9.9999998E-03  -4.0034346E-02
  6.1943406E-01   9.9999998E-03  -2.0017257E-02
  6.3931650E-01   9.9999998E-03  -1.8017790E-01
  6.3933200E-01   9.9999998E-03  -1.6016199E-01
  6.3934606E-01   9.9999998E-03  -1.4014405E-01
  6.3935870E-01   9.9999998E-03  -1.2012430E-01
  6.3936996E-01   9.9999998E-03  -1.0010366E-01
  6.3937962E-01   9.9999998E-03  -8.0082968E-02
  6.3938743E-01   9.9999998E-03  -6.0062353E-02
  6.3939321E-01   9.9999998E-03  -4.0041789E-02
  6.3939667E-01   9.9999998E-03  -2.0021008E-02
  6.5928656E-01   9.9999998E-03  -1.8021628E-01
  6.5930235E-01   9.9999998E-03  -1.6019583E-01
  6.5931654E-01   9.9999998E-03  -1.4017396E-01
  6.5932918E-01   9.9999998E-03  -1.2014978E-01
  6.5934044E-01   9.9999998E-03  -1.0012474E-01
  6.5935034E-01   9.9999998E-03  -8.0099933E-02
  6.5935844E-01   9.9999998E-03  -6.0075410E-02
  6.5936434E-01   9.9999998E-03  -4.0050708E-02
  6.5936792E-01   9.9999998E-03  -2.0025512E-02
  6.7927563E-01   9.9999998E-03  -1.8026957E-01
  6.7929107E-01   9.9999998E-03  -1.6024265E-01
  6.7930466E-01   9.9999998E-03  -1.4021546E-01
  6.7931670E-01   9.9999998E-03  -1.2018602E-01
  6.7932761E-01   9.9999998E-03  -1.0015561E-01
  6.7933708E-01   9.9999998E-03  -8.0125451E-02
  6.7934483E-01   9.9999998E-03  -6.0095385E-02
  6.7935055E-01   9.9999998E-03  -4.0064756E-02
  6.7935401E-01   9.9999998E-03  -2.0032847E-02
  6.9929910E-01   9.9999998E-03  -1.8034266E-01
  6.9931263E-01   9.9999998E-03  -1.6030757E-01
  6.9932365E-01   9.9999998E-03  -1.4027162E-01
  6.9933289E-01   9.9999998E-03  -1.2023316E-01
  6.9934177E-01   9.9999998E-03  -1.0019433E-01
  6.9935018E-01   9.9999998E-03  -8.0156311E-02
  6.9935727E-01   9.9999998E-03  -6.0118597E-02
  6.9936258E-01   9.9999998E-03  -4.0080324E-02
  6.9936568E-01   9.9999998E-03  -2.0040728E-02
  7.1940386E-01   9.9999998E-03  -1.8042412E-01
  7.1941662E-01   9.9999998E-03  -1.6038319E-01
  7.1942860E-01   9.9999998E-03  -1.4033772E-01
  7.1943986E-01   9.9999998E-03  -1.2028734E-01
  7.1945065E-01   9.9999998E-03  -1.0023709E-01
  7.1946043E-01   9.9999998E-03  -8.0189012E-02
  7.1946865E-01   9.9999998E-03  -6.0142614E-02
  7.1947497E-01   9.9999998E-03  -4.0096279E-02
  7.1947896E-01   9.9999998E-03  -2.0048730E-02
  7.3961449E-01   9.9999998E-03  -1.8044628E-01
  7.3962218E-01   9.9999998E-03  -1.6040581E-01
  7.3963034E-01   9.9999998E-03  -1.4035897E-01
  7.3963839E-01   9.9999998E-03  -1.2030641E-01
  7.3964590E-01   9.9999998E-03  -1.0025392E-01
  7.3965269E-01   9.9999998E-03  -8.0203377E-02
  7.3965847E-01   9.9999998E-03  -6.0154080E-02
  7.3966300E-01   9.9999998E-03  -4.0104337E-02
  7.3966593E-01   9.9999998E-03  -2.0052901E-02
  7.5978434E-01   9.9999998E-03  -1.8045288E-01
  7.5978702E-01   9.9999998E-03  -1.6041480E-01
  7.5979054E-01   9.9999998E-03  -1.4036913E-01
  7.5979429E-01   9.9999998E-03  -1.2031681E-01
  7.5979805E-01   9.9999998E-03  -1.0026385E-01
  7.5980169E-01   9.9999998E-03  -8.0212265E-02
  7.5980490E-01   9.9999998E-03  -6.0161427E-02
  7.5980747E-01   9.9999998E-03  -4.0109623E-02
  7.5980920E-01   9.9999998E-03  -2.0055676E-02
  7.7991086E-01   9.9999998E-03  -1.8045282E-01
  7.7991045E-01   9.9999998E-03  -1.6041686E-01
  7.7991062E-01   9.9999998E-03  -1.4037256E-01
  7.7991122E-01   9.9999998E-03  -1.2032093E-01
  7.7991199E-01   9.9999998E-03  -1.0026819E-01
  7.7991301E-01   9.9999998E-03  -8.0216438E-02
  7.7991402E-01   9.9999998E-03  -6.0165066E-02
  7.7991498E-01   9.9999998E-03  -4.0112343E-02
  7.7991563E-01   9.9999998E-03  -2.0057138E-02
  8.0001420E-01   9.9999998E-03  -1.8044916E-01
  8.0001163E-01   9.9999998E-03  -1.6041441E-01
  8.0000943E-01   9.9999998E-03  -1.4037111E-01
  8.0000752E-01   9.9999998E-03  -1.2032023E-01
  8.0000597E-01   9.9999998E-03  -1.0026804E-01
  8.0000484E-01   9.9999998E-03  -8.0216706E-02
  8.0000412E-01   9.9999998E-03  -6.0165565E-02
  8.0000365E-01   9.9999998E-03  -4.0112853E-02
  8.0000347E-01   9.9999998E-03  -2.0057453E-02
  8.2011312E-01   9.9999998E-03  -1.8044320E-01
  8.2010853E-01   9.9999998E-03  -1.6040878E-01
  8.2010406E-01   9.9999998E-03  -1.4036603E-01
  8.2010007E-01   9.9999998E-03  -1.2031583E-01
  8.2009655E-01   9.9999998E-03  -1.0026440E-01
  8.2009369E-01   9.9999998E-03  -8.0213882E-02
  8.2009149E-01   9.9999998E-03  -6.0163539E-02
  8.2008994E-01   9.9999998E-03  -4.0111564E-02
  8.2008904E-01   9.9999998E-03  -2.0056831E-02
  8.4021634E-01   9.9999998E-03  -1.8043472E-01
  8.4020919E-01   9.9999998E-03  -1.6040029E-01
  8.4020233E-01   9.9999998E-03  -1.4035791E-01
  8.4019619E-01   9.9999998E-03  -1.2030843E-01
  8.4019089E-01   9.9999998E-03  -1.0025799E-01
  8.4018648E-01   9.9999998E-03  -8.0208614E-02
  8.4018308E-01   9.9999998E-03  -6.0159530E-02
  8.4018058E-01   9.9999998E-03  -4.0108860E-02
  8.4017903E-01   9.9999998E-03  -2.0055465E-02
  8.6032206E-01   9.9999998E-03  -1.8042289E-01
  8.6031175E-01   9.9999998E-03  -1.6038857E-01
  8.6030221E-01   9.9999998E-03  -1.4034675E-01
  8.6029381E-01   9.9999998E-03  -1.2029826E-01
  8.6028671E-01   9.9999998E-03  -1.0024913E-01
  8.6028093E-01   9.9999998E-03  -8.0201291E-02
  8.6027634E-01   9.9999998E-03  -6.0153864E-02
  8.6027306E-01   9.9999998E-03  -4.0104985E-02
  8.6027098E-01   9.9999998E-03  -2.0053493E-02
  8.8042319E-01   9.9999998E-03  -1.8040697E-01
  8.8040954E-01   9.9999998E-03  -1.6037323E-01
  8.8039720E-01   9.9999998E-03  -1.4033239E-01
  8.8038659E-01   9.9999998E-03  -1.2028536E-01
  8.8037777E-01   9.9999998E-03  -1.0023799E-01
  8.8037056E-01   9.9999998E-03  -8.0192074E-02
  8.8036495E-01   9.9999998E-03  -6.0146734E-02
  8.8036084E-01   9.9999998E-03  -4.0100090E-02
  8.8035834E-01   9.9999998E-03  -2.0050993E-02
  9.0051234E-01   9.9999998E-03  -1.8038669E-01
  9.0049553E-01   9.9999998E-03  -1.6035412E-01
  9.0048057E-01   9.9999998E-03  -1.4031482E-01
  9.0046781E-01   9.9999998E-03  -1.2026981E-01
  9.0045726E-01   9.9999998E-03  -1.0022467E-01
  9.0044874E-01   9.9999998E-03  -8.0181122E-02
  9.0044206E-01   9.9999998E-03  -6.0138270E-02
  9.0043718E-01   9.9999998E-03  -4.0094282E-02
  9.0043420E-01   9.9999998E-03  -2.0048030E-02
  9.2057610E-01   9.9999998E-03  -1.8036270E-01
  9.2055362E-01   9.9999998E-03  -1.6033170E-01
  9.2053413E-01   9.9999998E-03  -1.4029439E-01
  9.2051774E-01   9.9999998E-03  -1.2025192E-01
  9.2050403E-01   9.9999998E-03  -1.0020956E-01
  9.2049283E-01   9.9999998E-03  -8.0168881E-02
  9.2048401E-01   9.9999998E-03  -6.0128942E-02
  9.2047769E-01   9.9999998E-03  -4.0087949E-02
  9.2047387E-01   9.9999998E-03  -2.0044813E-02
  9.4059342E-01   9.9999998E-03  -1.8033691E-01
  9.4056815E-01   9.9999998E-03  -1.6030729E-01
  9.4054663E-01   9.9999998E-03  -1.4027213E-01
  9.4052851E-01   9.9999998E-03  -1.2023254E-01
  9.4051349E-01   9.9999998E-03  -1.0019327E-01
  9.4050127E-01   9.9999998E-03  -8.0155700E-02
  9.4049180E-01   9.9999998E-03  -6.0118865E-02
  9.4048506E-01   9.9999998E-03  -4.0081073E-02
  9.4048101E-01   9.9999998E-03  -2.0041298E-02
  9.6059388E-01   9.9999998E-03  -1.8031064E-01
  9.6056777E-01   9.9999998E-03  -1.6028246E-01
  9.6054566E-01   9.9999998E-03  -1.4024951E-01
  9.6052706E-01   9.9999998E-03  -1.2021286E-01
  9.6051157E-01   9.9999998E-03  -1.0017663E-01
  9.6049905E-01   9.9999998E-03  -8.0142029E-02
  9.6048933E-01   9.9999998E-03  -6.0108241E-02
  9.6048248E-01   9.9999998E-03  -4.0073730E-02
  9.6047843E-01   9.9999998E-03  -2.0037554E-02
  9.8058832E-01   9.9999998E-03  -1.8028523E-01
  9.8056161E-01   9.9999998E-03  -1.6025878E-01
  9.8053902E-01   9.9999998E-03  -1.4022797E-01
  9.8052007E-01   9.9999998E-03  -1.2019405E-01
  9.8050439E-01   9.9999998E-03  -1.0016064E-01
  9.8049176E-01   9.9999998E-03  -8.0128908E-02
  9.8048204E-01   9.9999998E-03  -6.0098052E-02
  9.8047513E-01   9.9999998E-03  -4.0066652E-02
  9.8047101E-01   9.9999998E-03  -2.0033866E-02
  1.0005798E+00   9.9999998E-03  -1.8026108E-01
  1.0005527E+00   9.9999998E-03  -1.6023706E-01
  1.0005292E+00   9.9999998E-03  -1.4020869E-01
  1.0005099E+00   9.9999998E-03  -1.2017763E-01
  1.0004941E+00   9.9999998E-03  -1.0014687E-01
  1.0004816E+00   9.9999998E-03  -8.0117568E-02
  1.0004718E+00   9.9999998E-03  -6.0089052E-02
  1.0004648E+00   9.9999998E-03  -4.0060293E-02
  1.0004605E+00   9.9999998E-03  -2.0030556E-02
  1.0205698E+00   9.9999998E-03  -1.8023871E-01
  1.0205418E+00   9.9999998E-03  -1.6021647E-01
  1.0205176E+00   9.9999998E-03  -1.4019065E-01
  1.0204979E+00   9.9999998E-03  -1.2016233E-01
  1.0204819E+00   9.9999998E-03  -1.0013393E-01
  1.0204693E+00   9.9999998E-03  -8.0106884E-02
  1.0204595E+00   9.9999998E-03  -6.0080767E-02
  1.0204524E+00   9.9999998E-03  -4.0054530E-02
  1.0204481E+00   9.9999998E-03  -2.0027567E-02
  1.0405585E+00   9.9999998E-03  -1.8021783E-01
  1.0405289E+00   9.9999998E-03  -1.6019696E-01
  1.0405042E+00   9.9999998E-03  -1.4017391E-01
  1.0404838E+00   9.9999998E-03  -1.2014819E-01
  1.0404676E+00   9.9999998E-03  -1.0012227E-01
  1.0404547E+00   9.9999998E-03  -8.0097318E-02
  1.0404449E+00   9.9999998E-03  -6.0073238E-02
  1.0404377E+00   9.9999998E-03  -4.0049203E-02
  1.0404334E+00   9.9999998E-03  -2.0024795E-02
  1.0605460E+00   9.9999998E-03  -1.8019712E-01
  1.0605149E+00   9.9999998E-03  -1.6017835E-01
  1.0604892E+00   9.9999998E-03  -1.4015782E-01
  1.0604681E+00   9.9999998E-03  -1.2013520E-01
  1.0604514E+00   9.9999998E-03  -1.0011166E-01
  1.0604384E+00   9.9999998E-03  -8.0088675E-02
  1.0604284E+00   9.9999998E-03  -6.0066331E-02
  1.0604212E+00   9.9999998E-03  -4.0044323E-02
  1.0604168E+00   9.9999998E-03  -2.0022228E-02
  1.0805335E+00   9.9999998E-03  -1.8017597E-01
  1.0805010E+00   9.9999998E-03  -1.6016053E-01
  1.0804734E+00   9.9999998E-03  -1.4014231E-01
  1.0804516E+00   9.9999998E-03  -1.2012295E-01
  1.0804343E+00   9.9999998E-03  -1.0010206E-01
  1.0804210E+00   9.9999998E-03  -8.0081038E-02
  1.0804108E+00   9.9999998E-03  -6.0060378E-02
  1.0804037E+00   9.9999998E-03  -4.0040094E-02
  1.0803993E+00   9.9999998E-03  -2.0020034E-02
  1.1005225E+00   9.9999998E-03  -1.8015562E-01
  1.1004870E+00   9.9999998E-03  -1.6014151E-01
  1.1004585E+00   9.9999998E-03  -1.4012729E-01
  1.1004354E+00   9.9999998E-03  -1.2011060E-01
  1.1004174E+00   9.9999998E-03  -1.0009292E-01
  1.1004034E+00   9.9999998E-03  -8.0073982E-02
  1.1003932E+00   9.9999998E-03  -6.0055103E-02
  1.1003859E+00   9.9999998E-03  -4.0036451E-02
  1.1003815E+00   9.9999998E-03  -2.0018123E-02
  1.1205142E+00   9.9999998E-03  -1.8013665E-01
  1.1204753E+00   9.9999998E-03  -1.6012309E-01
  1.1204445E+00   9.9999998E-03  -1.4011092E-01
  1.1204203E+00   9.9999998E-03  -1.2009814E-01
  1.1204013E+00   9.9999998E-03  -1.0008313E-01
  1.1203870E+00   9.9999998E-03  -8.0067113E-02
  1.1203761E+00   9.9999998E-03  -6.0050070E-02
  1.1203687E+00   9.9999998E-03  -4.0033195E-02
  1.1203643E+00   9.9999998E-03  -2.0016495E-02
  1.1405088E+00   9.9999998E-03  -1.8012013E-01
  1.1404665E+00   9.9999998E-03  -1.6010639E-01
  1.1404330E+00   9.9999998E-03  -1.4009492E-01
  1.1404068E+00   9.9999998E-03  -1.2008442E-01
  1.1403869E+00   9.9999998E-03  -1.0007304E-01
  1.1403717E+00   9.9999998E-03  -8.0059417E-02
  1.1403606E+00   9.9999998E-03  -6.0044974E-02
  1.1403530E+00   9.9999998E-03  -4.0029876E-02
  1.1403484E+00   9.9999998E-03  -2.0014914E-02
  1.1605085E+00   9.9999998E-03  -1.8010852E-01
  1.1604617E+00   9.9999998E-03  -1.6009292E-01
  1.1604247E+00   9.9999998E-03  -1.4008076E-01
  1.1603962E+00   9.9999998E-03  -1.2007093E-01
  1.1603745E+00   9.9999998E-03  -1.0006163E-01
  1.1603585E+00   9.9999998E-03  -8.0051348E-02
  1.1603467E+00   9.9999998E-03  -6.0039088E-02
  1.1603389E+00   9.9999998E-03  -4.0026262E-02
  1.1603343E+00   9.9999998E-03  -2.0013200E-02
  1.1805176E+00   9.9999998E-03  -1.8010545E-01
  1.1804636E+00   9.9999998E-03  -1.6008589E-01
  1.1804209E+00   9.9999998E-03  -1.4007072E-01
  1.1803889E+00   9.9999998E-03  -1.2005962E-01
  1.1803652E+00   9.9999998E-03  -1.0005084E-01
  1.1803476E+00   9.9999998E-03  -8.0042265E-02
  1.1803350E+00   9.9999998E-03  -6.0032800E-02
  1.1803268E+00   9.9999998E-03  -4.0022250E-02
  1.1803221E+00   9.9999998E-03  -2.0011162E-02
  1.2005322E+00   9.9999998E-03  -1.8010820E-01
  1.2004775E+00   9.9999998E-03  -1.6008893E-01
  1.2004262E+00   9.9999998E-03  -1.4006919E-01
  1.2003871E+00   9.9999998E-03  -1.2005369E-01
  1.2003596E+00   9.9999998E-03  -1.0004281E-01
  1.2003400E+00   9.9999998E-03  -8.0034599E-02
  1.2003261E+00   9.9999998E-03  -6.0026623E-02
  1.2003170E+00   9.9999998E-03  -4.0018067E-02
  1.2003119E+00   9.9999998E-03  -2.0009136E-02
  1.2205423E+00   9.9999998E-03  -1.8011233E-01
  1.2204956E+00   9.9999998E-03  -1.6009559E-01
  1.2204453E+00   9.9999998E-03  -1.4007753E-01
  1.2203984E+00   9.9999998E-03  -1.2005889E-01
  1.2203621E+00   9.9999998E-03  -1.0004273E-01
  1.2203374E+00   9.9999998E-03  -8.0031157E-02
  1.2203211E+00   9.9999998E-03  -6.0022708E-02
  1.2203107E+00   9.9999998E-03  -4.0015373E-02
  1.2203047E+00   9.9999998E-03  -2.0007806E-02
  1.2405354E+00   9.9999998E-03  -1.8011123E-01
  1.2405015E+00   9.9999998E-03  -1.6009864E-01
  1.2404634E+00   9.9999998E-03  -1.4008549E-01
  1.2404228E+00   9.9999998E-03  -1.2007067E-01
  1.2403829E+00   9.9999998E-03  -1.0005458E-01
  1.2403495E+00   9.9999998E-03  -8.0038942E-02
  1.2403259E+00   9.9999998E-03  -6.0025878E-02
  1.2403115E+00   9.9999998E-03  -4.0016185E-02
  1.2403038E+00   9.9999998E-03  -2.0008102E-02
  1.2604882E+00   9.9999998E-03  -1.6009578E-01
  1.2604624E+00   9.9999998E-03  -1.4008652E-01
  1.2604336E+00   9.9999998E-03  -1.2007573E-01
  1.2604049E+00   9.9999998E-03  -1.0006449E-01
  1.2603780E+00   9.9999998E-03  -8.0051102E-02
  1.2603550E+00   9.9999998E-03  -6.0036950E-02
  1.2603378E+00   9.9999998E-03  -4.0023312E-02
  1.2603278E+00   9.9999998E-03  -2.0011328E-02
  1.2804229E+00   9.9999998E-03  -1.2007456E-01
  1.2804031E+00   9.9999998E-03  -1.0006624E-01
  1.2803836E+00   9.9999998E-03  -8.0054402E-02
  1.2803687E+00   9.9999998E-03  -6.0040906E-02
  1.2803580E+00   9.9999998E-03  -4.0026382E-02
  1.2803519E+00   9.9999998E-03  -2.0012667E-02
  1.3003703E+00   9.9999998E-03  -8.0054216E-02
  1.3003579E+00   9.9999998E-03  -6.0040645E-02
  1.3003489E+00   9.9999998E-03  -4.0026106E-02
  1.3003435E+00   9.9999998E-03  -2.0012427E-02
 -3.4660798E-06   9.9999998E-03  -1.4750358E-13
 -3.4681409E-06   9.9999998E-03   2.0000013E-02
 -3.4737934E-06   9.9999998E-03   4.0000029E-02
 -3.4815434E-06   9.9999998E-03   6.0000047E-02
 -3.4885779E-06   9.9999998E-03   8.0000073E-02
 -3.4910368E-06   9.9999998E-03   1.0000011E-01
 -3.4829939E-06   9.9999998E-03   1.2000016E-01
 -3.4572879E-06   9.9999998E-03   1.4000021E-01
  1.9995097E-02   9.9999998E-03   1.8741473E-14
  1.9995093E-02   9.9999998E-03   2.0000018E-02
  1.9995084E-02   9.9999998E-03   4.0000040E-02
  1.9995069E-02   9.9999998E-03   6.0000069E-02
  1.9995054E-02   9.9999998E-03   8.0000110E-02
  1.9995045E-02   9.9999998E-03   1.0000016E-01
  1.9995047E-02   9.9999998E-03   1.2000022E-01
  1.9995075E-02   9.9999998E-03   1.4000030E-01
  3.9993260E-02   9.9999998E-03  -7.0639878E-14
  3.9993256E-02   9.9999998E-03   2.0000024E-02
  3.9993238E-02   9.9999998E-03   4.0000051E-02
  3.9993215E-02   9.9999998E-03   6.0000084E-02
  3.9993189E-02   9.9999998E-03   8.0000125E-02
  3.9993167E-02   9.9999998E-03   1.0000019E-01
  3.9993163E-02   9.9999998E-03   1.2000026E-01
  3.9993189E-02   9.9999998E-03   1.4000034E-01
  5.9991151E-02   9.9999998E-03  -4.0440234E-13
  5.9991144E-02   9.9999998E-03   2.0000026E-02
  5.9991118E-02   9.9999998E-03   4.0000055E-02
  5.9991084E-02   9.9999998E-03   6.0000092E-02
  5.9991043E-02   9.9999998E-03   8.0000140E-02
  5.9991006E-02   9.9999998E-03   1.0000020E-01
  5.9990987E-02   9.9999998E-03   1.2000028E-01
  5.9991006E-02   9.9999998E-03   1.4000037E-01
  7.9988815E-02   9.9999998E-03   1.5012868E-13
  7.9988800E-02   9.9999998E-03   2.0000026E-02
  7.9988770E-02   9.9999998E-03   4.0000055E-02
  7.9988718E-02   9.9999998E-03   6.0000092E-02
  7.9988658E-02   9.9999998E-03   8.0000140E-02
  7.9988599E-02   9.9999998E-03   1.0000020E-01
  7.9988562E-02   9.9999998E-03   1.2000029E-01
  7.9988569E-02   9.9999998E-03   1.4000039E-01
  9.9986218E-02   9.9999998E-03  -3.5526199E-13
  9.9986203E-02   9.9999998E-03   2.0000026E-02
  9.9986158E-02   9.9999998E-03   4.0000055E-02
  9.9986091E-02   9.9999998E-03   6.0000092E-02
  9.9986009E-02   9.9999998E-03   8.0000140E-02
  9.9985927E-02   9.9999998E-03   1.0000020E-01
  9.9985860E-02   9.9999998E-03   1.2000029E-01
  9.9985845E-02   9.9999998E-03   1.4000039E-01
  1.1998331E-01   9.9999998E-03  -7.1712054E-13
  1.1998329E-01   9.9999998E-03   2.0000026E-02
  1.1998323E-01   9.9999998E-03   4.0000055E-02
  1.1998314E-01   9.9999998E-03   6.0000096E-02
  1.1998302E-01   9.9999998E-03   8.0000147E-02
  1.1998291E-01   9.9999998E-03   1.0000021E-01
  1.1998281E-01   9.9999998E-03   1.2000030E-01
  1.1998276E-01   9.9999998E-03   1.4000040E-01
  1.3997997E-01   9.9999998E-03   7.2068640E-14
  1.3997996E-01   9.9999998E-03   2.0000031E-02
  1.3997988E-01   9.9999998E-03   4.0000066E-02
  1.3997976E-01   9.9999998E-03   6.0000107E-02
  1.3997962E-01   9.9999998E-03   8.0000162E-02
  1.3997945E-01   9.9999998E-03   1.0000023E-01
  1.3997932E-01   9.9999998E-03   1.2000033E-01
  1.3997921E-01   9.9999998E-03   1.4000043E-01
  1.5997615E-01   9.9999998E-03  -4.2497405E-13
  1.5997612E-01   9.9999998E-03   2.0000041E-02
  1.5997604E-01   9.9999998E-03   4.0000089E-02
  1.5997589E-01   9.9999998E-03   6.0000140E-02
  1.5997569E-01   9.9999998E-03   8.0000207E-02
  1.5997548E-01   9.9999998E-03   1.0000029E-01
  1.5997528E-01   9.9999998E-03   1.2000040E-01
  1.5997511E-01   9.9999998E-03   1.4000052E-01
  1.7997175E-01   9.9999998E-03   4.5213686E-13
  1.7997171E-01   9.9999998E-03   2.0000061E-02
  1.7997159E-01   9.9999998E-03   4.0000126E-02
  1.7997141E-01   9.9999998E-03   6.0000204E-02
  1.7997117E-01   9.9999998E-03   8.0000296E-02
  1.7997089E-01   9.9999998E-03   1.0000040E-01
  1.7997061E-01   9.9999998E-03   1.2000053E-01
  1.7997038E-01   9.9999998E-03   1.4000069E-01
  1.9996668E-01   9.9999998E-03  -9.2111507E-13
  1.9996664E-01   9.9999998E-03   2.0000093E-02
  1.9996649E-01   9.9999998E-03   4.0000189E-02
  1.9996627E-01   9.9999998E-03   6.0000300E-02
  1.9996595E-01   9.9999998E-03   8.0000430E-02
  1.9996561E-01   9.9999998E-03   1.0000058E-01
  1.9996524E-01   9.9999998E-03   1.2000075E-01
  1.9996491E-01   9.9999998E-03   1.4000095E-01
  2.1996085E-01   9.9999998E-03  -1.6170129E-12
  2.1996079E-01   9.9999998E-03   2.0000136E-02
  2.1996062E-01   9.9999998E-03   4.0000279E-02
  2.1996033E-01   9.9999998E-03   6.0000442E-02
  2.1995996E-01   9.9999998E-03   8.0000624E-02
  2.1995951E-01   9.9999998E-03   1.0000084E-01
  2.1995905E-01   9.9999998E-03   1.2000108E-01
  2.1995860E-01   9.9999998E-03   1.4000134E-01
  2.3995414E-01   9.9999998E-03  -7.3761960E-13
  2.3995407E-01   9.9999998E-03   2.0000195E-02
  2.3995386E-01   9.9999998E-03   4.0000401E-02
  2.3995350E-01   9.9999998E-03   6.0000628E-02
  2.3995304E-01   9.9999998E-03   8.0000885E-02
  2.3995249E-01   9.9999998E-03   1.0000118E-01
  2.3995191E-01   9.9999998E-03   1.2000152E-01
  2.3995134E-01   9.9999998E-03   1.4000189E-01
  2.5994644E-01   9.9999998E-03  -6.7315749E-13
  2.5994635E-01   9.9999998E-03   2.0000268E-02
  2.5994608E-01   9.9999998E-03   4.0000550E-02
  2.5994566E-01   9.9999998E-03   6.0000863E-02
  2.5994509E-01   9.9999998E-03   8.0001213E-02
  2.5994441E-01   9.9999998E-03   1.0000162E-01
  2.5994369E-01   9.9999998E-03   1.2000208E-01
  2.5994298E-01   9.9999998E-03   1.4000258E-01
  2.7993757E-01   9.9999998E-03  -6.5298559E-13
  2.7993745E-01   9.9999998E-03   2.0000355E-02
  2.7993715E-01   9.9999998E-03   4.0000729E-02
  2.7993664E-01   9.9999998E-03   6.0001142E-02
  2.7993596E-01   9.9999998E-03   8.0001608E-02
  2.7993515E-01   9.9999998E-03   1.0000213E-01
  2.7993423E-01   9.9999998E-03   1.2000275E-01
  2.7993333E-01   9.9999998E-03   1.4000343E-01
  2.9992738E-01   9.9999998E-03  -4.7818574E-13
  2.9992726E-01   9.9999998E-03   2.0000454E-02
  2.9992691E-01   9.9999998E-03   4.0000930E-02
  2.9992628E-01   9.9999998E-03   6.0001455E-02
  2.9992548E-01   9.9999998E-03   8.0002047E-02
  2.9992449E-01   9.9999998E-03   1.0000273E-01
  2.9992339E-01   9.9999998E-03   1.2000351E-01
  2.9992229E-01   9.9999998E-03   1.4000441E-01
  3.1991574E-01   9.9999998E-03  -2.2573033E-12
  3.1991559E-01   9.9999998E-03   2.0000562E-02
  3.1991515E-01   9.9999998E-03   4.0001154E-02
  3.1991443E-01   9.9999998E-03   6.0001802E-02
  3.1991348E-01   9.9999998E-03   8.0002539E-02
  3.1991228E-01   9.9999998E-03   1.0000339E-01
  3.1991097E-01   9.9999998E-03   1.2000438E-01
  3.1990960E-01   9.9999998E-03   1.4000551E-01
  3.3990243E-01   9.9999998E-03   7.3093075E-14
  3.3990225E-01   9.9999998E-03   2.0000676E-02
  3.3990175E-01   9.9999998E-03   4.0001389E-02
  3.3990088E-01   9.9999998E-03   6.0002174E-02
  3.3989975E-01   9.9999998E-03   8.0003068E-02
  3.3989835E-01   9.9999998E-03   1.0000411E-01
  3.3989674E-01   9.9999998E-03   1.2000531E-01
  3.3989507E-01   9.9999998E-03   1.4000671E-01
  3.5988721E-01   9.9999998E-03  -2.7919878E-12
  3.5988700E-01   9.9999998E-03   2.0000793E-02
  3.5988641E-01   9.9999998E-03   4.0001631E-02
  3.5988542E-01   9.9999998E-03   6.0002562E-02
  3.5988405E-01   9.9999998E-03   8.0003627E-02
  3.5988241E-01   9.9999998E-03   1.0000486E-01
  3.5988051E-01   9.9999998E-03   1.2000630E-01
  3.5987848E-01   9.9999998E-03   1.4000797E-01
  3.7986991E-01   9.9999998E-03  -2.5594343E-13
  3.7986967E-01   9.9999998E-03   2.0000920E-02
  3.7986895E-01   9.9999998E-03   4.0001892E-02
  3.7986779E-01   9.9999998E-03   6.0002971E-02
  3.7986621E-01   9.9999998E-03   8.0004208E-02
  3.7986425E-01   9.9999998E-03   1.0000565E-01
  3.7986201E-01   9.9999998E-03   1.2000734E-01
  3.7985957E-01   9.9999998E-03   1.4000933E-01
  3.9985028E-01   9.9999998E-03  -2.4876030E-12
  3.9985001E-01   9.9999998E-03   2.0001061E-02
  3.9984918E-01   9.9999998E-03   4.0002182E-02
  3.9984781E-01   9.9999998E-03   6.0003426E-02
  3.9984596E-01   9.9999998E-03   8.0004849E-02
  3.9984366E-01   9.9999998E-03   1.0000651E-01
  3.9984098E-01   9.9999998E-03   1.2000847E-01
  3.9983809E-01   9.9999998E-03   1.4001077E-01
  4.1982812E-01   9.9999998E-03  -2.7778060E-12
  4.1982779E-01   9.9999998E-03   2.0001238E-02
  4.1982684E-01   9.9999998E-03   4.0002540E-02
  4.1982526E-01   9.9999998E-03   6.0003974E-02
  4.1982308E-01   9.9999998E-03   8.0005608E-02
  4.1982037E-01   9.9999998E-03   1.0000751E-01
  4.1981724E-01   9.9999998E-03   1.2000977E-01
  4.1981378E-01   9.9999998E-03   1.4001240E-01
  4.3980318E-01   9.9999998E-03   1.0020727E-13
  4.3980280E-01   9.9999998E-03   2.0001482E-02
  4.3980169E-01   9.9999998E-03   4.0003031E-02
  4.3979985E-01   9.9999998E-03   6.0004715E-02
  4.3979731E-01   9.9999998E-03   8.0006614E-02
  4.3979418E-01   9.9999998E-03   1.0000881E-01
  4.3979049E-01   9.9999998E-03   1.2001137E-01
  4.3978640E-01   9.9999998E-03   1.4001437E-01
  4.5977518E-01   9.9999998E-03   7.6301196E-12
  4.5977473E-01   9.9999998E-03   2.0001844E-02
  4.5977345E-01   9.9999998E-03   4.0003750E-02
  4.5977131E-01   9.9999998E-03   6.0005795E-02
  4.5976838E-01   9.9999998E-03   8.0008052E-02
  4.5976469E-01   9.9999998E-03   1.0001060E-01
  4.5976037E-01   9.9999998E-03   1.2001354E-01
  4.5975554E-01   9.9999998E-03   1.4001691E-01
  4.7974372E-01   9.9999998E-03  -5.2319694E-13
  4.7974321E-01   9.9999998E-03   2.0002389E-02
  4.7974169E-01   9.9999998E-03   4.0004835E-02
  4.7973925E-01   9.9999998E-03   6.0007401E-02
  4.7973585E-01   9.9999998E-03   8.0010161E-02
  4.7973159E-01   9.9999998E-03   1.0001321E-01
  4.7972652E-01   9.9999998E-03   1.2001663E-01
  4.7972086E-01   9.9999998E-03   1.4002046E-01
  4.9970832E-01   9.9999998E-03   3.9687996E-13
  4.9970776E-01   9.9999998E-03   2.0003194E-02
  4.9970603E-01   9.9999998E-03   4.0006429E-02
  4.9970320E-01   9.9999998E-03   6.0009763E-02
  4.9969929E-01   9.9999998E-03   8.0013275E-02
  4.9969438E-01   9.9999998E-03   1.0001704E-01
  4.9968854E-01   9.9999998E-03   1.2002114E-01
  4.9968192E-01   9.9999998E-03   1.4002559E-01
  5.1966864E-01   9.9999998E-03   1.0588728E-13
  5.1966798E-01   9.9999998E-03   2.0004338E-02
  5.1966602E-01   9.9999998E-03   4.0008705E-02
  5.1966280E-01   9.9999998E-03   6.0013145E-02
  5.1965833E-01   9.9999998E-03   8.0017738E-02
  5.1965272E-01   9.9999998E-03   1.0002255E-01
  5.1964599E-01   9.9999998E-03   1.2002762E-01
  5.1963836E-01   9.9999998E-03   1.4003292E-01
  5.3962463E-01   9.9999998E-03   6.2366839E-12
  5.3962386E-01   9.9999998E-03   2.0005899E-02
  5.3962165E-01   9.9999998E-03   4.0011816E-02
  5.3961796E-01   9.9999998E-03   6.0017783E-02
  5.3961295E-01   9.9999998E-03   8.0023862E-02
  5.3960657E-01   9.9999998E-03   1.0003014E-01
  5.3959894E-01   9.9999998E-03   1.2003659E-01
  5.3959024E-01   9.9999998E-03   1.4004311E-01
  5.5957687E-01   9.9999998E-03  -4.0884644E-12
  5.5957603E-01   9.9999998E-03   2.0007955E-02
  5.5957353E-01   9.9999998E-03   4.0015925E-02
  5.5956942E-01   9.9999998E-03   6.0023930E-02
  5.5956376E-01   9.9999998E-03   8.0032028E-02
  5.5955660E-01   9.9999998E-03   1.0004025E-01
  5.5954808E-01   9.9999998E-03   1.2004855E-01
  5.5953836E-01   9.9999998E-03   1.4005676E-01
  5.7952726E-01   9.9999998E-03  -5.9381173E-13
  5.7952631E-01   9.9999998E-03   2.0010494E-02
  5.7952350E-01   9.9999998E-03   4.0020972E-02
  5.7951897E-01   9.9999998E-03   6.0031474E-02
  5.7951272E-01   9.9999998E-03   8.0042072E-02
  5.7950485E-01   9.9999998E-03   1.0005278E-01
  5.7949543E-01   9.9999998E-03   1.2006350E-01
  5.7948482E-01   9.9999998E-03   1.4007393E-01
  5.9947902E-01   9.9999998E-03   9.6781342E-12
  5.9947801E-01   9.9999998E-03   2.0013589E-02
  5.9947497E-01   9.9999998E-03   4.0027104E-02
  5.9946996E-01   9.9999998E-03   6.0040578E-02
  5.9946316E-01   9.9999998E-03   8.0054156E-02
  5.9945464E-01   9.9999998E-03   1.0006787E-01
  5.9944451E-01   9.9999998E-03   1.2008151E-01
  5.9943300E-01   9.9999998E-03   1.4009462E-01
  6.1943519E-01   9.9999998E-03  -2.0328038E-12
  6.1943406E-01   9.9999998E-03   2.0017257E-02
  6.1943078E-01   9.9999998E-03   4.0034346E-02
  6.1942536E-01   9.9999998E-03   6.0051341E-02
  6.1941803E-01   9.9999998E-03   8.0068335E-02
  6.1940897E-01   9.9999998E-03   1.0008529E-01
  6.1939830E-01   9.9999998E-03   1.2010214E-01
  6.1938608E-01   9.9999998E-03   1.4011833E-01
  6.3939780E-01   9.9999998E-03   2.6997274E-11
  6.3939667E-01   9.9999998E-03   2.0021008E-02
  6.3939321E-01   9.9999998E-03   4.0041789E-02
  6.3938743E-01   9.9999998E-03   6.0062353E-02
  6.3937962E-01   9.9999998E-03   8.0082968E-02
  6.3936996E-01   9.9999998E-03   1.0010366E-01
  6.3935870E-01   9.9999998E-03   1.2012430E-01
  6.3934606E-01   9.9999998E-03   1.4014405E-01
  6.5936905E-01   9.9999998E-03  -7.7281940E-12
  6.5936792E-01   9.9999998E-03   2.0025512E-02
  6.5936434E-01   9.9999998E-03   4.0050708E-02
  6.5935844E-01   9.9999998E-03   6.0075410E-02
  6.5935034E-01   9.9999998E-03   8.0099933E-02
  6.5934044E-01   9.9999998E-03   1.0012474E-01
  6.5932918E-01   9.9999998E-03   1.2014978E-01
  6.5931654E-01   9.9999998E-03   1.4017396E-01
  6.7935520E-01   9.9999998E-03   9.3903975E-13
  6.7935401E-01   9.9999998E-03   2.0032847E-02
  6.7935055E-01   9.9999998E-03   4.0064756E-02
  6.7934483E-01   9.9999998E-03   6.0095385E-02
  6.7933708E-01   9.9999998E-03   8.0125451E-02
  6.7932761E-01   9.9999998E-03   1.0015561E-01
  6.7931670E-01   9.9999998E-03   1.2018602E-01
  6.7930466E-01   9.9999998E-03   1.4021546E-01
  6.9936669E-01   9.9999998E-03   2.2355255E-11
  6.9936568E-01   9.9999998E-03   2.0040728E-02
  6.9936258E-01   9.9999998E-03   4.0080324E-02
  6.9935727E-01   9.9999998E-03   6.0118597E-02
  6.9935018E-01   9.9999998E-03   8.0156311E-02
  6.9934177E-01   9.9999998E-03   1.0019433E-01
  6.9933289E-01   9.9999998E-03   1.2023316E-01
  6.9932365E-01   9.9999998E-03   1.4027162E-01
  7.1948034E-01   9.9999998E-03  -1.7013540E-11
  7.1947896E-01   9.9999998E-03   2.0048730E-02
  7.1947497E-01   9.9999998E-03   4.0096279E-02
  7.1946865E-01   9.9999998E-03   6.0142614E-02
  7.1946043E-01   9.9999998E-03   8.0189012E-02
  7.1945065E-01   9.9999998E-03   1.0023709E-01
  7.1943986E-01   9.9999998E-03   1.2028734E-01
  7.1942860E-01   9.9999998E-03   1.4033772E-01
  7.3966688E-01   9.9999998E-03   5.0451525E-11
  7.3966593E-01   9.9999998E-03   2.0052901E-02
  7.3966300E-01   9.9999998E-03   4.0104337E-02
  7.3965847E-01   9.9999998E-03   6.0154080E-02
  7.3965269E-01   9.9999998E-03   8.0203377E-02
  7.3964590E-01   9.9999998E-03   1.0025392E-01
  7.3963839E-01   9.9999998E-03   1.2030641E-01
  7.3963034E-01   9.9999998E-03   1.4035897E-01
  7.5980979E-01   9.9999998E-03   1.2710631E-10
  7.5980920E-01   9.9999998E-03   2.0055676E-02
  7.5980747E-01   9.9999998E-03   4.0109623E-02
  7.5980490E-01   9.9999998E-03   6.0161427E-02
  7.5980169E-01   9.9999998E-03   8.0212265E-02
  7.5979805E-01   9.9999998E-03   1.0026385E-01
  7.5979429E-01   9.9999998E-03   1.2031681E-01
  7.5979054E-01   9.9999998E-03   1.4036913E-01
  7.7991587E-01   9.9999998E-03  -2.1832008E-11
  7.7991563E-01   9.9999998E-03   2.0057138E-02
  7.7991498E-01   9.9999998E-03   4.0112343E-02
  7.7991402E-01   9.9999998E-03   6.0165066E-02
  7.7991301E-01   9.9999998E-03   8.0216438E-02
  7.7991199E-01   9.9999998E-03   1.0026819E-01
  7.7991122E-01   9.9999998E-03   1.2032093E-01
  7.7991062E-01   9.9999998E-03   1.4037256E-01
  8.0000341E-01   9.9999998E-03  -1.4564000E-10
  8.0000347E-01   9.9999998E-03   2.0057453E-02
  8.0000365E-01   9.9999998E-03   4.0112853E-02
  8.0000412E-01   9.9999998E-03   6.0165565E-02
  8.0000484E-01   9.9999998E-03   8.0216706E-02
  8.0000597E-01   9.9999998E-03   1.0026804E-01
  8.0000752E-01   9.9999998E-03   1.2032023E-01
  8.0000943E-01   9.9999998E-03   1.4037111E-01
  8.2008874E-01   9.9999998E-03   2.6412558E-11
  8.2008904E-01   9.9999998E-03   2.0056831E-02
  8.2008994E-01   9.9999998E-03   4.0111564E-02
  8.2009149E-01   9.9999998E-03   6.0163543E-02
  8.2009369E-01   9.9999998E-03   8.0213882E-02
  8.2009655E-01   9.9999998E-03   1.0026440E-01
  8.2010007E-01   9.9999998E-03   1.2031583E-01
  8.2010406E-01   9.9999998E-03   1.4036603E-01
  8.4017855E-01   9.9999998E-03   1.3702017E-10
  8.4017903E-01   9.9999998E-03   2.0055465E-02
  8.4018058E-01   9.9999998E-03   4.0108860E-02
  8.4018308E-01   9.9999998E-03   6.0159530E-02
  8.4018648E-01   9.9999998E-03   8.0208614E-02
  8.4019089E-01   9.9999998E-03   1.0025799E-01
  8.4019619E-01   9.9999998E-03   1.2030843E-01
  8.4020233E-01   9.9999998E-03   1.4035791E-01
  8.6027032E-01   9.9999998E-03   8.4464359E-11
  8.6027098E-01   9.9999998E-03   2.0053493E-02
  8.6027306E-01   9.9999998E-03   4.0104982E-02
  8.6027634E-01   9.9999998E-03   6.0153864E-02
  8.6028093E-01   9.9999998E-03   8.0201291E-02
  8.6028671E-01   9.9999998E-03   1.0024913E-01
  8.6029381E-01   9.9999998E-03   1.2029826E-01
  8.6030221E-01   9.9999998E-03   1.4034675E-01
  8.8035750E-01   9.9999998E-03  -1.1396369E-10
  8.8035834E-01   9.9999998E-03   2.0050993E-02
  8.8036084E-01   9.9999998E-03   4.0100090E-02
  8.8036495E-01   9.9999998E-03   6.0146734E-02
  8.8037056E-01   9.9999998E-03   8.0192074E-02
  8.8037777E-01   9.9999998E-03   1.0023799E-01
  8.8038659E-01   9.9999998E-03   1.2028536E-01
  8.8039720E-01   9.9999998E-03   1.4033239E-01
  9.0043324E-01   9.9999998E-03  -1.2874272E-10
  9.0043420E-01   9.9999998E-03   2.0048030E-02
  9.0043718E-01   9.9999998E-03   4.0094282E-02
  9.0044206E-01   9.9999998E-03   6.0138270E-02
  9.0044874E-01   9.9999998E-03   8.0181122E-02
  9.0045726E-01   9.9999998E-03   1.0022467E-01
  9.0046781E-01   9.9999998E-03   1.2026981E-01
  9.0048057E-01   9.9999998E-03   1.4031482E-01
  9.2047262E-01   9.9999998E-03  -1.5609618E-11
  9.2047387E-01   9.9999998E-03   2.0044813E-02
  9.2047769E-01   9.9999998E-03   4.0087949E-02
  9.2048401E-01   9.9999998E-03   6.0128942E-02
  9.2049283E-01   9.9999998E-03   8.0168881E-02
  9.2050403E-01   9.9999998E-03   1.0020956E-01
  9.2051774E-01   9.9999998E-03   1.2025192E-01
  9.2053413E-01   9.9999998E-03   1.4029439E-01
  9.4047970E-01   9.9999998E-03   8.4625772E-11
  9.4048101E-01   9.9999998E-03   2.0041298E-02
  9.4048506E-01   9.9999998E-03   4.0081073E-02
  9.4049180E-01   9.9999998E-03   6.0118865E-02
  9.4050127E-01   9.9999998E-03   8.0155700E-02
  9.4051349E-01   9.9999998E-03   1.0019327E-01
  9.4052851E-01   9.9999998E-03   1.2023254E-01
  9.4054663E-01   9.9999998E-03   1.4027213E-01
  9.6047705E-01   9.9999998E-03   2.1900195E-11
  9.6047843E-01   9.9999998E-03   2.0037554E-02
  9.6048248E-01   9.9999998E-03   4.0073734E-02
  9.6048933E-01   9.9999998E-03   6.0108241E-02
  9.6049905E-01   9.9999998E-03   8.0142029E-02
  9.6051157E-01   9.9999998E-03   1.0017663E-01
  9.6052706E-01   9.9999998E-03   1.2021286E-01
  9.6054566E-01   9.9999998E-03   1.4024951E-01
  9.8046958E-01   9.9999998E-03  -2.8299764E-11
  9.8047101E-01   9.9999998E-03   2.0033866E-02
  9.8047513E-01   9.9999998E-03   4.0066652E-02
  9.8048204E-01   9.9999998E-03   6.0098052E-02
  9.8049176E-01   9.9999998E-03   8.0128908E-02
  9.8050439E-01   9.9999998E-03   1.0016064E-01
  9.8052007E-01   9.9999998E-03   1.2019405E-01
  9.8053902E-01   9.9999998E-03   1.4022797E-01
  1.0004591E+00   9.9999998E-03   5.9648653E-12
  1.0004605E+00   9.9999998E-03   2.0030556E-02
  1.0004648E+00   9.9999998E-03   4.0060293E-02
  1.0004718E+00   9.9999998E-03   6.0089052E-02
  1.0004816E+00   9.9999998E-03   8.0117568E-02
  1.0004941E+00   9.9999998E-03   1.0014687E-01
  1.0005099E+00   9.9999998E-03   1.2017763E-01
  1.0005292E+00   9.9999998E-03   1.4020869E-01
  1.0204467E+00   9.9999998E-03   2.1106682E-11
  1.0204481E+00   9.9999998E-03   2.0027567E-02
  1.0204524E+00   9.9999998E-03   4.0054530E-02
  1.0204595E+00   9.9999998E-03   6.0080767E-02
  1.0204693E+00   9.9999998E-03   8.0106884E-02
  1.0204819E+00   9.9999998E-03   1.0013393E-01
  1.0204979E+00   9.9999998E-03   1.2016233E-01
  1.0205176E+00   9.9999998E-03   1.4019065E-01
  1.0404319E+00   9.9999998E-03   1.5404882E-11
  1.0404334E+00   9.9999998E-03   2.0024795E-02
  1.0404377E+00   9.9999998E-03   4.0049203E-02
  1.0404449E+00   9.9999998E-03   6.0073238E-02
  1.0404547E+00   9.9999998E-03   8.0097318E-02
  1.0404676E+00   9.9999998E-03   1.0012227E-01
  1.0404838E+00   9.9999998E-03   1.2014819E-01
  1.0405042E+00   9.9999998E-03   1.4017391E-01
  1.0604154E+00   9.9999998E-03   3.6317373E-11
  1.0604168E+00   9.9999998E-03   2.0022228E-02
  1.0604212E+00   9.9999998E-03   4.0044323E-02
  1.0604284E+00   9.9999998E-03   6.0066331E-02
  1.0604384E+00   9.9999998E-03   8.0088675E-02
  1.0604514E+00   9.9999998E-03   1.0011166E-01
  1.0604681E+00   9.9999998E-03   1.2013520E-01
  1.0604892E+00   9.9999998E-03   1.4015782E-01
  1.0803978E+00   9.9999998E-03   1.0421226E-11
  1.0803993E+00   9.9999998E-03   2.0020034E-02
  1.0804037E+00   9.9999998E-03   4.0040094E-02
  1.0804108E+00   9.9999998E-03   6.0060378E-02
  1.0804210E+00   9.9999998E-03   8.0081038E-02
  1.0804343E+00   9.9999998E-03   1.0010206E-01
  1.0804516E+00   9.9999998E-03   1.2012295E-01
  1.0804734E+00   9.9999998E-03   1.4014231E-01
  1.1003801E+00   9.9999998E-03  -6.5548777E-12
  1.1003815E+00   9.9999998E-03   2.0018123E-02
  1.1003859E+00   9.9999998E-03   4.0036451E-02
  1.1003932E+00   9.9999998E-03   6.0055103E-02
  1.1004034E+00   9.9999998E-03   8.0073982E-02
  1.1004174E+00   9.9999998E-03   1.0009292E-01
  1.1004354E+00   9.9999998E-03   1.2011060E-01
  1.1004585E+00   9.9999998E-03   1.4012729E-01
  1.1203629E+00   9.9999998E-03  -1.7585568E-11
  1.1203643E+00   9.9999998E-03   2.0016495E-02
  1.1203687E+00   9.9999998E-03   4.0033195E-02
  1.1203761E+00   9.9999998E-03   6.0050070E-02
  1.1203870E+00   9.9999998E-03   8.0067113E-02
  1.1204013E+00   9.9999998E-03   1.0008313E-01
  1.1204203E+00   9.9999998E-03   1.2009814E-01
  1.1204445E+00   9.9999998E-03   1.4011092E-01
  1.1403470E+00   9.9999998E-03   8.7126816E-12
  1.1403484E+00   9.9999998E-03   2.0014914E-02
  1.1403530E+00   9.9999998E-03   4.0029876E-02
  1.1403606E+00   9.9999998E-03   6.0044974E-02
  1.1403717E+00   9.9999998E-03   8.0059417E-02
  1.1403869E+00   9.9999998E-03   1.0007304E-01
  1.1404068E+00   9.9999998E-03   1.2008442E-01
  1.1404330E+00   9.9999998E-03   1.4009492E-01
  1.1603328E+00   9.9999998E-03   1.1717787E-11
  1.1603343E+00   9.9999998E-03   2.0013200E-02
  1.1603389E+00   9.9999998E-03   4.0026262E-02
  1.1603467E+00   9.9999998E-03   6.0039088E-02
  1.1603585E+00   9.9999998E-03   8.0051348E-02
  1.1603745E+00   9.9999998E-03   1.0006163E-01
  1.1603962E+00   9.9999998E-03   1.2007093E-01
  1.1604247E+00   9.9999998E-03   1.4008076E-01
  1.1803205E+00   9.9999998E-03   5.3478051E-12
  1.1803221E+00   9.9999998E-03   2.0011162E-02
  1.1803268E+00   9.9999998E-03   4.0022250E-02
  1.1803350E+00   9.9999998E-03   6.0032800E-02
  1.1803476E+00   9.9999998E-03   8.0042265E-02
  1.1803652E+00   9.9999998E-03   1.0005084E-01
  1.1803889E+00   9.9999998E-03   1.2005962E-01
  1.1804209E+00   9.9999998E-03   1.4007072E-01
  1.2003103E+00   9.9999998E-03   9.0816365E-12
  1.2003119E+00   9.9999998E-03   2.0009136E-02
  1.2003170E+00   9.9999998E-03   4.0018067E-02
  1.2003261E+00   9.9999998E-03   6.0026623E-02
  1.2003400E+00   9.9999998E-03   8.0034599E-02
  1.2003596E+00   9.9999998E-03   1.0004281E-01
  1.2003871E+00   9.9999998E-03   1.2005369E-01
  1.2004262E+00   9.9999998E-03   1.4006919E-01
  1.2203028E+00   9.9999998E-03   9.2368621E-12
  1.2203047E+00   9.9999998E-03   2.0007806E-02
  1.2203107E+00   9.9999998E-03   4.0015373E-02
  1.2203211E+00   9.9999998E-03   6.0022708E-02
  1.2203374E+00   9.9999998E-03   8.0031157E-02
  1.2203621E+00   9.9999998E-03   1.0004273E-01
  1.2203984E+00   9.9999998E-03   1.2005889E-01
  1.2204453E+00   9.9999998E-03   1.4007753E-01
  1.2403014E+00   9.9999998E-03   1.1320597E-11
  1.2403038E+00   9.9999998E-03   2.0008102E-02
  1.2403115E+00   9.9999998E-03   4.0016185E-02
  1.2403259E+00   9.9999998E-03   6.0025878E-02
  1.2403495E+00   9.9999998E-03   8.0038942E-02
  1.2403829E+00   9.9999998E-03   1.0005458E-01
  1.2404228E+00   9.9999998E-03   1.2007067E-01
  1.2404634E+00   9.9999998E-03   1.4008549E-01
  1.2603245E+00   9.9999998E-03   9.9776723E-12
  1.2603278E+00   9.9999998E-03   2.0011328E-02
  1.2603378E+00   9.9999998E-03   4.0023312E-02
  1.2603550E+00   9.9999998E-03   6.0036950E-02
  1.2603780E+00   9.9999998E-03   8.0051102E-02
  1.2604049E+00   9.9999998E-03   1.0006449E-01
  1.2604336E+00   9.9999998E-03   1.2007573E-01
  1.2604624E+00   9.9999998E-03   1.4008652E-01
  1.2803499E+00   9.9999998E-03   1.6228503E-11
  1.2803519E+00   9.9999998E-03   2.0012667E-02
  1.2803580E+00   9.9999998E-03   4.0026382E-02
  1.2803687E+00   9.9999998E-03   6.0040906E-02
  1.2803836E+00   9.9999998E-03   8.0054402E-02
  1.2804031E+00   9.9999998E-03   1.0006624E-01
  1.2804229E+00   9.9999998E-03   1.2007456E-01
  1.3003418E+00   9.9999998E-03   1.2580530E-11
  1.3003435E+00   9.9999998E-03   2.0012427E-02
  1.3003489E+00   9.9999998E-03   4.0026106E-02
  1.3003579E+00   9.9999998E-03   6.0040645E-02
  1.3003703E+00   9.9999998E-03   8.0054216E-02
 -3.4046843E-06   9.9999998E-03   1.6000028E-01
 -3.3135479E-06   9.9999998E-03   1.8000036E-01
 -3.1737056E-06   9.9999998E-03   2.0000046E-01
 -2.9711141E-06   9.9999998E-03   2.2000055E-01
 -2.6968603E-06   9.9999998E-03   2.4000065E-01
 -2.3446805E-06   9.9999998E-03   2.6000071E-01
 -1.9276167E-06   9.9999998E-03   2.8000075E-01
  1.9995136E-02   9.9999998E-03   1.6000038E-01
  1.9995254E-02   9.9999998E-03   1.8000050E-01
  1.9995444E-02   9.9999998E-03   2.0000061E-01
  1.9995729E-02   9.9999998E-03   2.2000074E-01
  1.9996127E-02   9.9999998E-03   2.4000084E-01
  1.9996654E-02   9.9999998E-03   2.6000091E-01
  1.9997310E-02   9.9999998E-03   2.8000093E-01
  1.9998077E-02   9.9999998E-03   3.0000100E-01
  3.9993260E-02   9.9999998E-03   1.6000046E-01
  3.9993405E-02   9.9999998E-03   1.8000059E-01
  3.9993655E-02   9.9999998E-03   2.0000072E-01
  3.9994039E-02   9.9999998E-03   2.2000085E-01
  3.9994583E-02   9.9999998E-03   2.4000096E-01
  3.9995324E-02   9.9999998E-03   2.6000103E-01
  3.9996237E-02   9.9999998E-03   2.8000107E-01
  3.9997302E-02   9.9999998E-03   3.0000111E-01
  5.9991084E-02   9.9999998E-03   1.6000050E-01
  5.9991255E-02   9.9999998E-03   1.8000063E-01
  5.9991561E-02   9.9999998E-03   2.0000078E-01
  5.9992041E-02   9.9999998E-03   2.2000092E-01
  5.9992749E-02   9.9999998E-03   2.4000104E-01
  5.9993707E-02   9.9999998E-03   2.6000112E-01
  5.9994906E-02   9.9999998E-03   2.8000116E-01
  5.9996333E-02   9.9999998E-03   3.0000120E-01
  7.9988644E-02   9.9999998E-03   1.6000052E-01
  7.9988830E-02   9.9999998E-03   1.8000066E-01
  7.9989187E-02   9.9999998E-03   2.0000081E-01
  7.9989761E-02   9.9999998E-03   2.2000097E-01
  7.9990625E-02   9.9999998E-03   2.4000108E-01
  7.9991810E-02   9.9999998E-03   2.6000118E-01
  7.9993330E-02   9.9999998E-03   2.8000122E-01
  7.9995163E-02   9.9999998E-03   3.0000132E-01
  9.9985912E-02   9.9999998E-03   1.6000052E-01
  9.9986099E-02   9.9999998E-03   1.8000066E-01
  9.9986486E-02   9.9999998E-03   2.0000082E-01
  9.9987149E-02   9.9999998E-03   2.2000098E-01
  9.9988163E-02   9.9999998E-03   2.4000111E-01
  9.9989593E-02   9.9999998E-03   2.6000121E-01
  9.9991448E-02   9.9999998E-03   2.8000128E-01
  9.9993750E-02   9.9999998E-03   3.0000144E-01
  1.1998279E-01   9.9999998E-03   1.6000053E-01
  1.1998298E-01   9.9999998E-03   1.8000068E-01
  1.1998339E-01   9.9999998E-03   2.0000082E-01
  1.1998413E-01   9.9999998E-03   2.2000100E-01
  1.1998528E-01   9.9999998E-03   2.4000111E-01
  1.1998696E-01   9.9999998E-03   2.6000124E-01
  1.1998918E-01   9.9999998E-03   2.8000134E-01
  1.1999203E-01   9.9999998E-03   3.0000165E-01
  1.3997921E-01   9.9999998E-03   1.6000056E-01
  1.3997938E-01   9.9999998E-03   1.8000071E-01
  1.3997979E-01   9.9999998E-03   2.0000087E-01
  1.3998058E-01   9.9999998E-03   2.2000103E-01
  1.3998188E-01   9.9999998E-03   2.4000114E-01
  1.3998382E-01   9.9999998E-03   2.6000130E-01
  1.3998643E-01   9.9999998E-03   2.8000149E-01
  1.3998987E-01   9.9999998E-03   3.0000195E-01
  1.5997505E-01   9.9999998E-03   1.6000065E-01
  1.5997517E-01   9.9999998E-03   1.8000081E-01
  1.5997559E-01   9.9999998E-03   2.0000097E-01
  1.5997644E-01   9.9999998E-03   2.2000113E-01
  1.5997787E-01   9.9999998E-03   2.4000126E-01
  1.5998006E-01   9.9999998E-03   2.6000145E-01
  1.5998307E-01   9.9999998E-03   2.8000170E-01
  1.5998712E-01   9.9999998E-03   3.0000231E-01
  1.7997025E-01   9.9999998E-03   1.6000085E-01
  1.7997031E-01   9.9999998E-03   1.8000102E-01
  1.7997068E-01   9.9999998E-03   2.0000118E-01
  1.7997156E-01   9.9999998E-03   2.2000135E-01
  1.7997313E-01   9.9999998E-03   2.4000150E-01
  1.7997557E-01   9.9999998E-03   2.6000169E-01
  1.7997897E-01   9.9999998E-03   2.8000194E-01
  1.7998350E-01   9.9999998E-03   3.0000255E-01
  1.9996469E-01   9.9999998E-03   1.6000116E-01
  1.9996467E-01   9.9999998E-03   1.8000138E-01
  1.9996499E-01   9.9999998E-03   2.0000157E-01
  1.9996586E-01   9.9999998E-03   2.2000176E-01
  1.9996755E-01   9.9999998E-03   2.4000189E-01
  1.9997020E-01   9.9999998E-03   2.6000202E-01
  1.9997390E-01   9.9999998E-03   2.8000224E-01
  1.9997875E-01   9.9999998E-03   3.0000263E-01
  2.1995828E-01   9.9999998E-03   1.6000164E-01
  2.1995816E-01   9.9999998E-03   1.8000193E-01
  2.1995839E-01   9.9999998E-03   2.0000218E-01
  2.1995923E-01   9.9999998E-03   2.2000240E-01
  2.1996096E-01   9.9999998E-03   2.4000251E-01
  2.1996380E-01   9.9999998E-03   2.6000270E-01
  2.1996774E-01   9.9999998E-03   2.8000307E-01
  2.1997319E-01   9.9999998E-03   3.0000401E-01
  2.3995088E-01   9.9999998E-03   1.6000229E-01
  2.3995063E-01   9.9999998E-03   1.8000269E-01
  2.3995075E-01   9.9999998E-03   2.0000307E-01
  2.3995151E-01   9.9999998E-03   2.2000343E-01
  2.3995318E-01   9.9999998E-03   2.4000378E-01
  2.3995613E-01   9.9999998E-03   2.6000452E-01
  2.3996024E-01   9.9999998E-03   2.8000605E-01
  2.3996609E-01   9.9999998E-03   3.0000892E-01
  2.5994235E-01   9.9999998E-03   1.6000313E-01
  2.5994194E-01   9.9999998E-03   1.8000372E-01
  2.5994191E-01   9.9999998E-03   2.0000434E-01
  2.5994250E-01   9.9999998E-03   2.2000502E-01
  2.5994399E-01   9.9999998E-03   2.4000585E-01
  2.5994676E-01   9.9999998E-03   2.6000741E-01
  2.5995085E-01   9.9999998E-03   2.8001019E-01
  2.5995657E-01   9.9999998E-03   3.0001393E-01
  2.7993253E-01   9.9999998E-03   1.6000418E-01
  2.7993190E-01   9.9999998E-03   1.8000501E-01
  2.7993169E-01   9.9999998E-03   2.0000596E-01
  2.7993205E-01   9.9999998E-03   2.2000709E-01
  2.7993327E-01   9.9999998E-03   2.4000852E-01
  2.7993572E-01   9.9999998E-03   2.6001075E-01
  2.7993947E-01   9.9999998E-03   2.8001410E-01
  2.7994478E-01   9.9999998E-03   3.0001786E-01
  2.9992121E-01   9.9999998E-03   1.6000541E-01
  2.9992038E-01   9.9999998E-03   1.8000655E-01
  2.9991990E-01   9.9999998E-03   2.0000787E-01
  2.9991999E-01   9.9999998E-03   2.2000945E-01
  2.9992098E-01   9.9999998E-03   2.4001141E-01
  2.9992309E-01   9.9999998E-03   2.6001406E-01
  2.9992652E-01   9.9999998E-03   2.8001761E-01
  2.9993144E-01   9.9999998E-03   3.0002141E-01
  3.1990826E-01   9.9999998E-03   1.6000679E-01
  3.1990713E-01   9.9999998E-03   1.8000828E-01
  3.1990635E-01   9.9999998E-03   2.0000999E-01
  3.1990620E-01   9.9999998E-03   2.2001196E-01
  3.1990698E-01   9.9999998E-03   2.4001436E-01
  3.1990892E-01   9.9999998E-03   2.6001734E-01
  3.1991223E-01   9.9999998E-03   2.8002104E-01
  3.1991696E-01   9.9999998E-03   3.0002496E-01
  3.3989340E-01   9.9999998E-03   1.6000830E-01
  3.3989194E-01   9.9999998E-03   1.8001014E-01
  3.3989087E-01   9.9999998E-03   2.0001224E-01
  3.3989048E-01   9.9999998E-03   2.2001462E-01
  3.3989108E-01   9.9999998E-03   2.4001738E-01
  3.3989298E-01   9.9999998E-03   2.6002061E-01
  3.3989638E-01   9.9999998E-03   2.8002459E-01
  3.3990139E-01   9.9999998E-03   3.0002877E-01
  3.5987642E-01   9.9999998E-03   1.6000991E-01
  3.5987458E-01   9.9999998E-03   1.8001212E-01
  3.5987315E-01   9.9999998E-03   2.0001464E-01
  3.5987249E-01   9.9999998E-03   2.2001743E-01
  3.5987297E-01   9.9999998E-03   2.4002056E-01
  3.5987493E-01   9.9999998E-03   2.6002410E-01
  3.5987866E-01   9.9999998E-03   2.8002843E-01
  3.5988420E-01   9.9999998E-03   3.0003303E-01
  3.7985709E-01   9.9999998E-03   1.6001160E-01
  3.7985480E-01   9.9999998E-03   1.8001422E-01
  3.7985298E-01   9.9999998E-03   2.0001717E-01
  3.7985200E-01   9.9999998E-03   2.2002041E-01
  3.7985235E-01   9.9999998E-03   2.4002397E-01
  3.7985441E-01   9.9999998E-03   2.6002792E-01
  3.7985849E-01   9.9999998E-03   2.8003269E-01
  3.7986478E-01   9.9999998E-03   3.0003783E-01
  3.9983511E-01   9.9999998E-03   1.6001344E-01
  3.9983231E-01   9.9999998E-03   1.8001647E-01
  3.9983001E-01   9.9999998E-03   2.0001990E-01
  3.9982873E-01   9.9999998E-03   2.2002363E-01
  3.9982888E-01   9.9999998E-03   2.4002768E-01
  3.9983106E-01   9.9999998E-03   2.6003212E-01
  3.9983556E-01   9.9999998E-03   2.8003749E-01
  3.9984262E-01   9.9999998E-03   3.0004326E-01
  4.1981024E-01   9.9999998E-03   1.6001545E-01
  4.1980684E-01   9.9999998E-03   1.8001893E-01
  4.1980401E-01   9.9999998E-03   2.0002285E-01
  4.1980228E-01   9.9999998E-03   2.2002715E-01
  4.1980225E-01   9.9999998E-03   2.4003179E-01
  4.1980448E-01   9.9999998E-03   2.6003686E-01
  4.1980940E-01   9.9999998E-03   2.8004295E-01
  4.1981733E-01   9.9999998E-03   3.0004948E-01
  4.3978214E-01   9.9999998E-03   1.6001780E-01
  4.3977803E-01   9.9999998E-03   1.8002172E-01
  4.3977454E-01   9.9999998E-03   2.0002614E-01
  4.3977231E-01   9.9999998E-03   2.2003102E-01
  4.3977198E-01   9.9999998E-03   2.4003631E-01
  4.3977425E-01   9.9999998E-03   2.6004219E-01
  4.3977961E-01   9.9999998E-03   2.8004920E-01
  4.3978843E-01   9.9999998E-03   3.0005667E-01
  4.5975047E-01   9.9999998E-03   1.6002074E-01
  4.5974553E-01   9.9999998E-03   1.8002509E-01
  4.5974123E-01   9.9999998E-03   2.0002995E-01
  4.5973831E-01   9.9999998E-03   2.2003536E-01
  4.5973760E-01   9.9999998E-03   2.4004133E-01
  4.5973977E-01   9.9999998E-03   2.6004818E-01
  4.5974553E-01   9.9999998E-03   2.8005645E-01
  4.5975527E-01   9.9999998E-03   3.0006510E-01
  4.7971484E-01   9.9999998E-03   1.6002472E-01
  4.7970888E-01   9.9999998E-03   1.8002942E-01
  4.7970361E-01   9.9999998E-03   2.0003462E-01
  4.7969985E-01   9.9999998E-03   2.2004040E-01
  4.7969851E-01   9.9999998E-03   2.4004696E-01
  4.7970045E-01   9.9999998E-03   2.6005492E-01
  4.7970641E-01   9.9999998E-03   2.8006488E-01
  4.7971699E-01   9.9999998E-03   3.0007505E-01
  4.9967483E-01   9.9999998E-03   1.6003032E-01
  4.9966773E-01   9.9999998E-03   1.8003537E-01
  4.9966130E-01   9.9999998E-03   2.0004074E-01
  4.9965644E-01   9.9999998E-03   2.2004665E-01
  4.9965420E-01   9.9999998E-03   2.4005355E-01
  4.9965557E-01   9.9999998E-03   2.6006258E-01
  4.9966136E-01   9.9999998E-03   2.8007475E-01
  4.9967229E-01   9.9999998E-03   3.0008698E-01
  5.1963013E-01   9.9999998E-03   1.6003832E-01
  5.1962179E-01   9.9999998E-03   1.8004376E-01
  5.1961404E-01   9.9999998E-03   2.0004922E-01
  5.1960784E-01   9.9999998E-03   2.2005501E-01
  5.1960433E-01   9.9999998E-03   2.4006185E-01
  5.1960456E-01   9.9999998E-03   2.6007161E-01
  5.1960945E-01   9.9999998E-03   2.8008652E-01
  5.1961970E-01   9.9999998E-03   3.0010143E-01
  5.3958082E-01   9.9999998E-03   1.6004947E-01
  5.3957123E-01   9.9999998E-03   1.8005553E-01
  5.3956205E-01   9.9999998E-03   2.0006125E-01
  5.3955430E-01   9.9999998E-03   2.2006679E-01
  5.3954911E-01   9.9999998E-03   2.4007310E-01
  5.3954744E-01   9.9999998E-03   2.6008311E-01
  5.3955013E-01   9.9999998E-03   2.8010094E-01
  5.3955781E-01   9.9999998E-03   3.0011919E-01
  5.5952787E-01   9.9999998E-03   1.6006453E-01
  5.5951703E-01   9.9999998E-03   1.8007164E-01
  5.5950648E-01   9.9999998E-03   2.0007798E-01
  5.5949712E-01   9.9999998E-03   2.2008352E-01
  5.5948979E-01   9.9999998E-03   2.4008897E-01
  5.5948526E-01   9.9999998E-03   2.6009873E-01
  5.5948412E-01   9.9999998E-03   2.8011942E-01
  5.5948651E-01   9.9999998E-03   3.0014142E-01
  5.7947332E-01   9.9999998E-03   1.6008377E-01
  5.7946140E-01   9.9999998E-03   1.8009268E-01
  5.7944965E-01   9.9999998E-03   2.0010017E-01
  5.7943869E-01   9.9999998E-03   2.2010629E-01
  5.7942891E-01   9.9999998E-03   2.4011134E-01
  5.7942098E-01   9.9999998E-03   2.6012117E-01
  5.7941455E-01   9.9999998E-03   2.8014448E-01
  5.7940871E-01   9.9999998E-03   3.0017000E-01
  5.9942043E-01   9.9999998E-03   1.6010669E-01
  5.9940737E-01   9.9999998E-03   1.8011756E-01
  5.9939444E-01   9.9999998E-03   2.0012712E-01
  5.9938198E-01   9.9999998E-03   2.2013506E-01
  5.9937018E-01   9.9999998E-03   2.4014167E-01
  5.9935892E-01   9.9999998E-03   2.6015407E-01
  5.9934646E-01   9.9999998E-03   2.8018007E-01
  5.9933108E-01   9.9999998E-03   3.0020797E-01
  6.1937261E-01   9.9999998E-03   1.6013303E-01
  6.1935812E-01   9.9999998E-03   1.8014598E-01
  6.1934364E-01   9.9999998E-03   2.0015804E-01
  6.1932975E-01   9.9999998E-03   2.2016977E-01
  6.1931562E-01   9.9999998E-03   2.4018131E-01
  6.1930150E-01   9.9999998E-03   2.6020038E-01
  6.1928576E-01   9.9999998E-03   2.8023180E-01
  6.1926252E-01   9.9999998E-03   3.0025995E-01
  6.3933200E-01   9.9999998E-03   1.6016199E-01
  6.3931650E-01   9.9999998E-03   1.8017790E-01
  6.3930011E-01   9.9999998E-03   2.0019357E-01
  6.3928419E-01   9.9999998E-03   2.2021168E-01
  6.3926917E-01   9.9999998E-03   2.4023670E-01
  6.3925457E-01   9.9999998E-03   2.6026973E-01
  6.3923723E-01   9.9999998E-03   2.8030312E-01
  6.3921171E-01   9.9999998E-03   3.0032900E-01
  6.5930235E-01   9.9999998E-03   1.6019583E-01
  6.5928656E-01   9.9999998E-03   1.8021628E-01
  6.5926993E-01   9.9999998E-03   2.0023967E-01
  6.5925437E-01   9.9999998E-03   2.2027230E-01
  6.5924120E-01   9.9999998E-03   2.4031803E-01
  6.5922689E-01   9.9999998E-03   2.6036093E-01
  6.5920860E-01   9.9999998E-03   2.8038713E-01
  6.5918469E-01   9.9999998E-03   3.0040950E-01
  6.7929107E-01   9.9999998E-03   1.6024265E-01
  6.7927563E-01   9.9999998E-03   1.8026957E-01
  6.7925984E-01   9.9999998E-03   2.0030311E-01
  6.7924678E-01   9.9999998E-03   2.2035214E-01
  6.7923737E-01   9.9999998E-03   2.4041303E-01
  6.7922378E-01   9.9999998E-03   2.6045004E-01
  6.7920649E-01   9.9999998E-03   2.8046519E-01
  6.7919481E-01   9.9999998E-03   3.0048430E-01
  6.9931263E-01   9.9999998E-03   1.6030757E-01
  6.9929910E-01   9.9999998E-03   1.8034266E-01
  6.9928604E-01   9.9999998E-03   2.0038600E-01
  6.9927758E-01   9.9999998E-03   2.2044380E-01
  6.9927329E-01   9.9999998E-03   2.4050109E-01
  6.9926202E-01   9.9999998E-03   2.6052317E-01
  6.9926357E-01   9.9999998E-03   2.8052571E-01
  6.9931072E-01   9.9999998E-03   3.0054218E-01
  7.1941662E-01   9.9999998E-03   1.6038319E-01
  7.1940386E-01   9.9999998E-03   1.8042412E-01
  7.1939290E-01   9.9999998E-03   2.0047189E-01
  7.1938819E-01   9.9999998E-03   2.2052228E-01
  7.1939725E-01   9.9999998E-03   2.4056233E-01
  7.1942329E-01   9.9999998E-03   2.6057023E-01
  7.1946841E-01   9.9999998E-03   2.8056833E-01
  7.1952671E-01   9.9999998E-03   3.0058506E-01
  7.3962218E-01   9.9999998E-03   1.6040581E-01
  7.3961449E-01   9.9999998E-03   1.8044628E-01
  7.3960876E-01   9.9999998E-03   2.0049138E-01
  7.3960942E-01   9.9999998E-03   2.2053796E-01
  7.3962098E-01   9.9999998E-03   2.4057461E-01
  7.3964363E-01   9.9999998E-03   2.6058593E-01
  7.3967510E-01   9.9999998E-03   2.8059667E-01
  7.3971373E-01   9.9999998E-03   3.0061680E-01
  7.5978702E-01   9.9999998E-03   1.6041480E-01
  7.5978434E-01   9.9999998E-03   1.8045288E-01
  7.5978327E-01   9.9999998E-03   2.0049439E-01
  7.5978619E-01   9.9999998E-03   2.2053847E-01
  7.5979501E-01   9.9999998E-03   2.4057466E-01
  7.5980937E-01   9.9999998E-03   2.6059207E-01
  7.5982708E-01   9.9999998E-03   2.8061718E-01
  7.5984919E-01   9.9999998E-03   3.0063969E-01
  7.7991045E-01   9.9999998E-03   1.6041686E-01
  7.7991086E-01   9.9999998E-03   1.8045282E-01
  7.7991229E-01   9.9999998E-03   2.0049210E-01
  7.7991551E-01   9.9999998E-03   2.2053565E-01
  7.7992088E-01   9.9999998E-03   2.4057318E-01
  7.7992749E-01   9.9999998E-03   2.6059625E-01
  7.7993405E-01   9.9999998E-03   2.8063059E-01
  7.7994257E-01   9.9999998E-03   3.0065468E-01
  8.0001163E-01   9.9999998E-03   1.6041441E-01
  8.0001420E-01   9.9999998E-03   1.8044916E-01
  8.0001694E-01   9.9999998E-03   2.0048775E-01
  8.0001968E-01   9.9999998E-03   2.2053339E-01
  8.0002147E-01   9.9999998E-03   2.4057323E-01
  8.0002129E-01   9.9999998E-03   2.6059985E-01
  8.0001909E-01   9.9999998E-03   2.8063762E-01
  8.0001640E-01   9.9999998E-03   3.0066225E-01
  8.2010853E-01   9.9999998E-03   1.6040878E-01
  8.2011312E-01   9.9999998E-03   1.8044320E-01
  8.2011735E-01   9.9999998E-03   2.0048213E-01
  8.2011992E-01   9.9999998E-03   2.2053161E-01
  8.2011861E-01   9.9999998E-03   2.4057443E-01
  8.2011265E-01   9.9999998E-03   2.6060185E-01
  8.2010388E-01   9.9999998E-03   2.8063831E-01
  8.2009095E-01   9.9999998E-03   3.0066267E-01
  8.4020919E-01   9.9999998E-03   1.6040029E-01
  8.4021634E-01   9.9999998E-03   1.8043472E-01
  8.4022290E-01   9.9999998E-03   2.0047408E-01
  8.4022623E-01   9.9999998E-03   2.2052582E-01
  8.4022260E-01   9.9999998E-03   2.4057026E-01
  8.4021205E-01   9.9999998E-03   2.6059660E-01
  8.4019756E-01   9.9999998E-03   2.8063059E-01
  8.4017533E-01   9.9999998E-03   3.0065456E-01
  8.6031175E-01   9.9999998E-03   1.6038857E-01
  8.6032206E-01   9.9999998E-03   1.8042289E-01
  8.6033165E-01   9.9999998E-03   2.0046221E-01
  8.6033696E-01   9.9999998E-03   2.2051415E-01
  8.6033171E-01   9.9999998E-03   2.4055845E-01
  8.6031747E-01   9.9999998E-03   2.6058325E-01
  8.6029798E-01   9.9999998E-03   2.8061512E-01
  8.6026663E-01   9.9999998E-03   3.0063874E-01
  8.8040954E-01   9.9999998E-03   1.6037323E-01
  8.8042319E-01   9.9999998E-03   1.8040697E-01
  8.8043624E-01   9.9999998E-03   2.0044550E-01
  8.8044399E-01   9.9999998E-03   2.2049606E-01
  8.8043779E-01   9.9999998E-03   2.4053885E-01
  8.8042015E-01   9.9999998E-03   2.6056254E-01
  8.8039649E-01   9.9999998E-03   2.8059307E-01
  8.8035691E-01   9.9999998E-03   3.0061638E-01
  9.0049553E-01   9.9999998E-03   1.6035412E-01
  9.0051234E-01   9.9999998E-03   1.8038669E-01
  9.0052867E-01   9.9999998E-03   2.0042367E-01
  9.0053791E-01   9.9999998E-03   2.2047059E-01
  9.0053058E-01   9.9999998E-03   2.4051175E-01
  9.0051061E-01   9.9999998E-03   2.6053554E-01
  9.0048414E-01   9.9999998E-03   2.8056559E-01
  9.0043825E-01   9.9999998E-03   3.0058882E-01
  9.2055362E-01   9.9999998E-03   1.6033170E-01
  9.2057610E-01   9.9999998E-03   1.8036270E-01
  9.2059892E-01   9.9999998E-03   2.0039739E-01
  9.2061138E-01   9.9999998E-03   2.2043855E-01
  9.2060292E-01   9.9999998E-03   2.4047829E-01
  9.2058253E-01   9.9999998E-03   2.6050365E-01
  9.2055362E-01   9.9999998E-03   2.8053382E-01
  9.2050463E-01   9.9999998E-03   3.0055720E-01
  9.4056815E-01   9.9999998E-03   1.6030729E-01
  9.4059342E-01   9.9999998E-03   1.8033691E-01
  9.4062191E-01   9.9999998E-03   2.0036921E-01
  9.4064808E-01   9.9999998E-03   2.2040580E-01
  9.4065285E-01   9.9999998E-03   2.4044089E-01
  9.4063407E-01   9.9999998E-03   2.6046851E-01
  9.4060338E-01   9.9999998E-03   2.8049856E-01
  9.4055289E-01   9.9999998E-03   3.0052242E-01
  9.6056777E-01   9.9999998E-03   1.6028246E-01
  9.6059388E-01   9.9999998E-03   1.8031064E-01
  9.6062344E-01   9.9999998E-03   2.0034026E-01
  9.6065396E-01   9.9999998E-03   2.2037543E-01
  9.6067542E-01   9.9999998E-03   2.4040572E-01
  9.6066850E-01   9.9999998E-03   2.6043129E-01
  9.6063823E-01   9.9999998E-03   2.8046119E-01
  9.6058810E-01   9.9999998E-03   3.0048525E-01
  9.8056161E-01   9.9999998E-03   1.6025878E-01
  9.8058832E-01   9.9999998E-03   1.8028523E-01
  9.8061877E-01   9.9999998E-03   2.0031179E-01
  9.8065144E-01   9.9999998E-03   2.2034460E-01
  9.8067909E-01   9.9999998E-03   2.4037270E-01
  9.8068905E-01   9.9999998E-03   2.6039398E-01
  9.8066586E-01   9.9999998E-03   2.8042260E-01
  9.8061907E-01   9.9999998E-03   3.0044657E-01
  1.0005527E+00   9.9999998E-03   1.6023706E-01
  1.0005798E+00   9.9999998E-03   1.8026108E-01
  1.0006109E+00   9.9999998E-03   2.0028530E-01
  1.0006450E+00   9.9999998E-03   2.2031341E-01
  1.0006775E+00   9.9999998E-03   2.4033980E-01
  1.0006980E+00   9.9999998E-03   2.6035744E-01
  1.0006902E+00   9.9999998E-03   2.8038359E-01
  1.0006530E+00   9.9999998E-03   3.0040741E-01
  1.0205418E+00   9.9999998E-03   1.6021647E-01
  1.0205698E+00   9.9999998E-03   1.8023871E-01
  1.0206020E+00   9.9999998E-03   2.0026112E-01
  1.0206378E+00   9.9999998E-03   2.2028455E-01
  1.0206745E+00   9.9999998E-03   2.4030760E-01
  1.0207028E+00   9.9999998E-03   2.6032239E-01
  1.0207140E+00   9.9999998E-03   2.8034544E-01
  1.0206956E+00   9.9999998E-03   3.0036882E-01
  1.0405289E+00   9.9999998E-03   1.6019696E-01
  1.0405585E+00   9.9999998E-03   1.8021783E-01
  1.0405921E+00   9.9999998E-03   2.0023711E-01
  1.0406307E+00   9.9999998E-03   2.2025792E-01
  1.0406716E+00   9.9999998E-03   2.4027771E-01
  1.0407084E+00   9.9999998E-03   2.6029068E-01
  1.0407416E+00   9.9999998E-03   2.8031024E-01
  1.0407542E+00   9.9999998E-03   3.0033177E-01
  1.0605149E+00   9.9999998E-03   1.6017835E-01
  1.0605460E+00   9.9999998E-03   1.8019712E-01
  1.0605822E+00   9.9999998E-03   2.0021404E-01
  1.0606247E+00   9.9999998E-03   2.2023305E-01
  1.0606698E+00   9.9999998E-03   2.4025136E-01
  1.0607176E+00   9.9999998E-03   2.6026392E-01
  1.0607674E+00   9.9999998E-03   2.8028062E-01
  1.0608112E+00   9.9999998E-03   3.0029765E-01
  1.0805010E+00   9.9999998E-03   1.6016053E-01
  1.0805335E+00   9.9999998E-03   1.8017597E-01
  1.0805732E+00   9.9999998E-03   2.0019193E-01
  1.0806198E+00   9.9999998E-03   2.2021043E-01
  1.0806693E+00   9.9999998E-03   2.4022673E-01
  1.0807252E+00   9.9999998E-03   2.6023939E-01
  1.0807846E+00   9.9999998E-03   2.8025556E-01
  1.0808392E+00   9.9999998E-03   3.0026940E-01
  1.1004870E+00   9.9999998E-03   1.6014151E-01
  1.1005225E+00   9.9999998E-03   1.8015562E-01
  1.1005661E+00   9.9999998E-03   2.0017137E-01
  1.1006165E+00   9.9999998E-03   2.2018865E-01
  1.1006700E+00   9.9999998E-03   2.4020310E-01
  1.1007282E+00   9.9999998E-03   2.6021555E-01
  1.1007905E+00   9.9999998E-03   2.8023276E-01
  1.1204753E+00   9.9999998E-03   1.6012309E-01
  1.1205142E+00   9.9999998E-03   1.8013665E-01
  1.1205612E+00   9.9999998E-03   2.0015211E-01
  1.1206152E+00   9.9999998E-03   2.2016843E-01
  1.1206710E+00   9.9999998E-03   2.4018167E-01
  1.1207291E+00   9.9999998E-03   2.6019636E-01
  1.1207852E+00   9.9999998E-03   2.8021336E-01
  1.1404665E+00   9.9999998E-03   1.6010639E-01
  1.1405088E+00   9.9999998E-03   1.8012013E-01
  1.1405602E+00   9.9999998E-03   2.0013651E-01
  1.1406175E+00   9.9999998E-03   2.2015308E-01
  1.1406721E+00   9.9999998E-03   2.4016656E-01
  1.1407272E+00   9.9999998E-03   2.6018369E-01
  1.1604617E+00   9.9999998E-03   1.6009292E-01
  1.1605085E+00   9.9999998E-03   1.8010852E-01
  1.1605649E+00   9.9999998E-03   2.0012711E-01
  1.1606220E+00   9.9999998E-03   2.2014354E-01
  1.1606746E+00   9.9999998E-03   2.4015975E-01
  1.1607186E+00   9.9999998E-03   2.6017421E-01
  1.1804636E+00   9.9999998E-03   1.6008589E-01
  1.1805176E+00   9.9999998E-03   1.8010545E-01
  1.1805743E+00   9.9999998E-03   2.0012444E-01
  1.1806267E+00   9.9999998E-03   2.2014059E-01
  1.1806706E+00   9.9999998E-03   2.4015608E-01
  1.2004775E+00   9.9999998E-03   1.6008893E-01
  1.2005322E+00   9.9999998E-03   1.8010820E-01
  1.2005841E+00   9.9999998E-03   2.0012635E-01
  1.2006252E+00   9.9999998E-03   2.2014000E-01
  1.2204956E+00   9.9999998E-03   1.6009559E-01
  1.2205423E+00   9.9999998E-03   1.8011233E-01
  1.2205836E+00   9.9999998E-03   2.0012784E-01
  1.2206054E+00   9.9999998E-03   2.2013235E-01
  1.2405015E+00   9.9999998E-03   1.6009864E-01
  1.2405354E+00   9.9999998E-03   1.8011123E-01
  1.2604882E+00   9.9999998E-03   1.6009578E-01
VERTICES 2975 5950
1 0
1 1
1 2
1 3
1 4
1 5
1 6
1 7
1 8
1 9
1 10
1 11
1 12
1 13
1 14
1 15
1 16
1 17
1 18
1 19
1 20
1 21
1 22
1 23
1 24
1 25
1 26
1 27
1 28
1 29
1 30
1 31
1 32
1 33
1 34
1 35
1 36
1 37
1 38
1 39
1 40
1 41
1 42
1 43
1 44
1 45
1 46
1 47
1 48
1 49
1 50
1 51
1 52
1 53
1 54
1 55
1 56
1 57
1 58
1 59
1 60
1 61
1 62
1 63
1 64
1 65
1 66
1 67
1 68
1 69
1 70
1 71
1 72
1 73
1 74
1 75
1 76
1 77
1 78
1 79
1 80
1 81
1 82
1 83
1 84
1 85
1 86
1 87
1 88
1 89
1 90
1 91
1 92
1 93
1 94
1 95
1 96
1 97
1 98
1 99
1 100
1 101
1 102
1 103
1 104
1 105
1 106
1 107
1 108
1 109
1 110
1 111
1 112
1 113
1 114
1 115
1 116
1 117
1 118
1 119
1 120
1 121
1 122
1 123
1 124
1 125
1 126
1 127
1 128
1 129
1 130
1 131
1 132
1 133
1 134
1 135
1 136
1 137
1 138
1 139
1 140
1 141
1 142
1 143
1 144
1 145
1 146
1 147
1 148
1 149
1 150
1 151
1 152
1 153
1 154
1 155
1 156
1 157
1 158
1 159
1 160
1 161
1 162
1 163
1 164
1 165
1 166
1 167
1 168
1 169
1 170
1 171
1 172
1 173
1 174
1 175
1 176
1 177
1 178
1 179
1 180
1 181
1 182
1 183
1 184
1 185
1 186
1 187
1 188
1 189
1 190
1 191
1 192
1 193
1 194
1 195
1 196
1 197
1 198
1 199
1 200
1 201
1 202
1 203
1 204
1 205
1 206
1 207
1 208
1 209
1 210
1 211
1 212
1 213
1 214
1 215
1 216
1 217
1 218
1 219
1 220
1 221
1 222
1 223
1 224
1 225
1 226
1 227
1 228
1 229
1 230
1 231
1 232
1 233
1 234
1 235
1 236
1 237
1 238
1 239
1 240
1 241
1 242
1 243
1 244
1 245
1 246
1 247
1 248
1 249
1 250
1 251
1 252
1 253
1 254
1 255
1 256
1 257
1 258
1 259
1 260
1 261
1 262
1 263
1 264
1 265
1 266
1 267
1 268
1 269
1 270
1 271
1 272
1 273
1 274
1 275
1 276
1 277
1 278
1 279
1 280
1 281
1 282
1 283
1 284
1 285
1 286
1 287
1 288
1 289
1 290
1 291
1 292
1 293
1 294
1 295
1 296
1 297
1 298
1 299
1 300
1 301
1 302
1 303
1 304
1 305
1 306
1 307
1 308
1 309
1 310
1 311
1 312
1 313
1 314
1 315
1 316
1 317
1 318
1 319
1 320
1 321
1 322
1 323
1 324
1 325
1 326
1 327
1 328
1 329
1 330
1 331
1 332
1 333
1 334
1 335
1 336
1 337
1 338
1 339
1 340
1 341
1 342
1 343
1 344
1 345
1 346
1 347
1 348
1 349
1 350
1 351
1 352
1 353
1 354
1 355
1 356
1 357
1 358
1 359
1 360
1 361
1 362
1 363
1 364
1 365
1 366
1 367
1 368
1 369
1 370
1 371
1 372
1 373
1 374
1 375
1 376
1 377
1 378
1 379
1 380
1 381
1 382
1 383
1 384
1 385
1 386
1 387
1 388
1 389
1 390
1 391
1 392
1 393
1 394
1 395
1 396
1 397
1 398
1 399
1 400
1 401
1 402
1 403
1 404
1 405
1 406
1 407
1 408
1 409
1 410
1 411
1 412
1 413
1 414
1 415
1 416
1 417
1 418
1 419
1 420
1 421
1 422
1 423
1 424
1 425
1 426
1 427
1 428
1 429
1 430
1 431
1 432
1 433
1 434
1 435
1 436
1 437
1 438
1 439
1 440
1 441
1 442
1 443
1 444
1 445
1 446
1 447
1 448
1 449
1 450
1 451
1 452
1 453
1 454
1 455
1 456
1 457
1 458
1 459
1 460
1 461
1 462
1 463
1 464
1 465
1 466
1 467
1 468
1 469
1 470
1 471
1 472
1 473
1 474
1 475
1 476
1 477
1 478
1 479
1 480
1 481
1 482
1 483
1 484
1 485
1 486
1 487
1 488
1 489
1 490
1 491
1 492
1 493
1 494
1 495
1 496
1 497
1 498
1 499
1 500
1 501
1 502
1 503
1 504
1 505
1 506
1 507
1 508
1 509
1 510
1 511
1 512
1 513
1 514
1 515
1 516
1 517
1 518
1 519
1 520
1 521
1 522
1 523
1 524
1 525
1 526
1 527
1 528
1 529
1 530
1 531
1 532
1 533
1 534
1 535
1 536
1 537
1 538
1 539
1 540
1 541
1 542
1 543
1 544
1 545
1 546
1 547
1 548
1 549
1 550
1 551
1 552
1 553
1 554
1 555
1 556
1 557
1 558
1 559
1 560
1 561
1 562
1 563
1 564
1 565
1 566
1 567
1 568
1 569
1 570
1 571
1 572
1 573
1 574
1 575
1 576
1 577
1 578
1 579
1 580
1 581
1 582
1 583
1 584
1 585
1 586
1 587
1 588
1 589
1 590
1 591
1 592
1 593
1 594
1 595
1 596
1 597
1 598
1 599
1 600
1 601
1 602
1 603
1 604
1 605
1 606
1 607
1 608
1 609
1 610
1 611
1 612
1 613
1 614
1 615
1 616
1 617
1 618
1 619
1 620
1 621
1 622
1 623
1 624
1 625
1 626
1 627
1 628
1 629
1 630
1 631
1 632
1 633
1 634
1 635
1 636
1 637
1 638
1 639
1 640
1 641
1 642
1 643
1 644
1 645
1 646
1 647
1 648
1 649
1 650
1 651
1 652
1 653
1 654
1 655
1 656
1 657
1 658
1 659
1 660
1 661
1 662
1 663
1 664
1 665
1 666
1 667
1 668
1 669
1 670
1 671
1 672
1 673
1 674
1 675
1 676
1 677
1 678
1 679
1 680
1 681
1 682
1 683
1 684
1 685
1 686
1 687
1 688
1 689
1 690
1 691
1 692
1 693
1 694
1 695
1 696
1 697
1 698
1 699
1 700
1 701
1 702
1 703
1 704
1 705
1 706
1 707
1 708
1 709
1 710
1 711
1 712
1 713
1 714
1 715
1 716
1 717
1 718
1 719
1 720
1 721
1 722
1 723
1 724
1 725
1 726
1 727
1 728
1 729
1 730
1 731
1 732
1 733
1 734
1 735
1 736
1 737
1 738
1 739
1 740
1 741
1 742
1 743
1 744
1 745
1 746
1 747
1 748
1 749
1 750
1 751
1 752
1 753
1 754
1 755
1 756
1 757
1 758
1 759
1 760
1 761
1 762
1 763
1 764
1 765
1 766
1 767
1 768
1 769
1 770
1 771
1 772
1 773
1 774
1 775
1 776
1 777
1 778
1 779
1 780
1 781
1 782
1 783
1 784
1 785
1 786
1 787
1 788
1 789
1 790
1 791
1 792
1 793
1 794
1 795
1 796
1 797
1 798
1 799
1 800
1 801
1 802
1 803
1 804
1 805
1 806
1 807
1 808
1 809
1 810
1 811
1 812
1 813
1 814
1 815
1 816
1 817
1 818
1 819
1 820
1 821
1 822
1 823
1 824
1 825
1 826
1 827
1 828
1 829
1 830
1 831
1 832
1 833
1 834
1 835
1 836
1 837
1 838
1 839
1 840
1 841
1 842
1 843
1 844
1 845
1 846
1 847
1 848
1 849
1 850
1 851
1 852
1 853
1 854
1 855
1 856
1 857
1 858
1 859
1 860
1 861
1 862
1 863
1 864
1 865
1 866
1 867
1 868
1 869
1 870
1 871
1 872
1 873
1 874
1 875
1 876
1 877
1 878
1 879
1 880
1 881
1 882
1 883
1 884
1 885
1 886
1 887
1 888
1 889
1 890
1 891
1 892
1 893
1 894
1 895
1 896
1 897
1 898
1 899
1 900
1 901
1 902
1 903
1 904
1 905
1 906
1 907
1 908
1 909
1 910
1 911
1 912
1 913
1 914
1 915
1 916
1 917
1 918
1 919
1 920
1 921
1 922
1 923
1 924
1 925
1 926
1 927
1 928
1 929
1 930
1 931
1 932
1 933
1 934
1 935
1 936
1 937
1 938
1 939
1 940
1 941
1 942
1 943
1 944
1 945
1 946
1 947
1 948
1 949
1 950
1 951
1 952
1 953
1 954
1 955
1 956
1 957
1 958
1 959
1 960
1 961
1 962
1 963
1 964
1 965
1 966
1 967
1 968
1 969
1 970
1 971
1 972
1 973
1 974
1 975
1 976
1 977
1 978
1 979
1 980
1 981
1 982
1 983
1 984
1 985
1 986
1 987
1 988
1 989
1 990
1 991
1 992
1 993
1 994
1 995
1 996
1 997
1 998
1 999
1 1000
1 1001
1 1002
1 1003
1 1004
1 1005
1 1006
1 1007
1 1008
1 1009
1 1010
1 1011
1 1012
1 1013
1 1014
1 1015
1 1016
1 1017
1 1018
1 1019
1 1020
1 1021
1 1022
1 1023
1 1024
1 1025
1 1026
1 1027
1 1028
1 1029
1 1030
1 1031
1 1032
1 1033
1 1034
1 1035
1 1036
1 1037
1 1038
1 1039
1 1040
1 1041
1 1042
1 1043
1 1044
1 1045
1 1046
1 1047
1 1048
1 1049
1 1050
1 1051
1 1052
1 1053
1 1054
1 1055
1 1056
1 1057
1 1058
1 1059
1 1060
1 1061
1 1062
1 1063
1 1064
1 1065
1 1066
1 1067
1 1068
1 1069
1 1070
1 1071
1 1072
1 1073
1 1074
1 1075
1 1076
1 1077
1 1078
1 1079
1 1080
1 1081
1 1082
1 1083
1 1084
1 1085
1 1086
1 1087
1 1088
1 1089
1 1090
1 1091
1 1092
1 1093
1 1094
1 1095
1 1096
1 1097
1 1098
1 1099
1 1100
1 1101
1 1102
1 1103
1 1104
1 1105
1 1106
1 1107
1 1108
1 1109
1 1110
1 1111
1 1112
1 1113
1 1114
1 1115
1 1116
1 1117
1 1118
1 1119
1 1120
1 1121
1 1122
1 1123
1 1124
1 1125
1 1126
1 1127
1 1128
1 1129
1 1130
1 1131
1 1132
1 1133
1 1134
1 1135
1 1136
1 1137
1 1138
1 1139
1 1140
1 1141
1 1142
1 1143
1 1144
1 1145
1 1146
1 1147
1 1148
1 1149
1 1150
1 1151
1 1152
1 1153
1 1154
1 1155
1 1156
1 1157
1 1158
1 1159
1 1160
1 1161
1 1162
1 1163
1 1164
1 1165
1 1166
1 1167
1 1168
1 1169
1 1170
1 1171
1 1172
1 1173
1 1174
1 1175
1 1176
1 1177
1 1178
1 1179
1 1180
1 1181
1 1182
1 1183
1 1184
1 1185
1 1186
1 1187
1 1188
1 1189
1 1190
1 1191
1 1192
1 1193
1 1194
1 1195
1 1196
1 1197
1 1198
1 1199
1 1200
1 1201
1 1202
1 1203
1 1204
1 1205
1 1206
1 1207
1 1208
1 1209
1 1210
1 1211
1 1212
1 1213
1 1214
1 1215
1 1216
1 1217
1 1218
1 1219
1 1220
1 1221
1 1222
1 1223
1 1224
1 1225
1 1226
1 1227
1 1228
1 1229
1 1230
1 1231
1 1232
1 1233
1 1234
1 1235
1 1236
1 1237
1 1238
1 1239
1 1240
1 1241
1 1242
1 1243
1 1244
1 1245
1 1246
1 1247
1 1248
1 1249
1 1250
1 1251
1 1252
1 1253
1 1254
1 1255
1 1256
1 1257
1 1258
1 1259
1 1260
1 1261
1 1262
1 1263
1 1264
1 1265
1 1266
1 1267
1 1268
1 1269
1 1270
1 1271
1 1272
1 1273
1 1274
1 1275
1 1276
1 1277
1 1278
1 1279
1 1280
1 1281
1 1282
1 1283
1 1284
1 1285
1 1286
1 1287
1 1288
1 1289
1 1290
1 1291
1 1292
1 1293
1 1294
1 1295
1 1296
1 1297
1 1298
1 1299
1 1300
1 1301
1 1302
1 1303
1 1304
1 1305
1 1306
1 1307
1 1308
1 1309
1 1310
1 1311
1 1312
1 1313
1 1314
1 1315
1 1316
1 1317
1 1318
1 1319
1 1320
1 1321
1 1322
1 1323
1 1324
1 1325
1 1326
1 1327
1 1328
1 1329
1 1330
1 1331
1 1332
1 1333
1 1334
1 1335
1 1336
1 1337
1 1338
1 1339
1 1340
1 1341
1 1342
1 1343
1 1344
1 1345
1 1346
1 1347
1 1348
1 1349
1 1350
1 1351
1 1352
1 1353
1 1354
1 1355
1 1356
1 1357
1 1358
1 1359
1 1360
1 1361
1 1362
1 1363
1 1364
1 1365
1 1366
1 1367
1 1368
1 1369
1 1370
1 1371
1 1372
1 1373
1 1374
1 1375
1 1376
1 1377
1 1378
1 1379
1 1380
1 1381
1 1382
1 1383
1 1384
1 1385
1 1386
1 1387
1 1388
1 1389
1 1390
1 1391
1 1392
1 1393
1 1394
1 1395
1 1396
1 1397
1 1398
1 1399
1 1400
1 1401
1 1402
1 1403
1 1404
1 1405
1 1406
1 1407
1 1408
1 1409
1 1410
1 1411
1 1412
1 1413
1 1414
1 1415
1 1416
1 1417
1 1418
1 1419
1 1420
1 1421
1 1422
1 1423
1 1424
1 1425
1 1426
1 1427
1 1428
1 1429
1 1430
1 1431
1 1432
1 1433
1 1434
1 1435
1 1436
1 1437
1 1438
1 1439
1 1440
1 1441
1 1442
1 1443
1 1444
1 1445
1 1446
1 1447
1 1448
1 1449
1 1450
1 1451
1 1452
1 1453
1 1454
1 1455
1 1456
1 1457
1 1458
1 1459
1 1460
1 1461
1 1462
1 1463
1 1464
1 1465
1 1466
1 1467
1 1468
1 1469
1 1470
1 1471
1 1472
1 1473
1 1474
1 1475
1 1476
1 1477
1 1478
1 1479
1 1480
1 1481
1 1482
1 1483
1 1484
1 1485
1 1486
1 1487
1 1488
1 1489
1 1490
1 1491
1 1492
1 1493
1 1494
1 1495
1 1496
1 1497
1 1498
1 1499
1 1500
1 1501
1 1502
1 1503
1 1504
1 1505
1 1506
1 1507
1 1508
1 1509
1 1510
1 1511
1 1512
1 1513
1 1514
1 1515
1 1516
1 1517
1 1518
1 1519
1 1520
1 1521
1 1522
1 1523
1 1524
1 1525
1 1526
1 1527
1 1528
1 1529
1 1530
1 1531
1 1532
1 1533
1 1534
1 1535
1 1536
1 1537
1 1538
1 1539
1 1540
1 1541
1 1542
1 1543
1 1544
1 1545
1 1546
1 1547
1 1548
1 1549
1 1550
1 1551
1 1552
1 1553
1 1554
1 1555
1 1556
1 1557
1 1558
1 1559
1 1560
1 1561
1 1562
1 1563
1 1564
1 1565
1 1566
1 1567
1 1568
1 1569
1 1570
1 1571
1 1572
1 1573
1 1574
1 1575
1 1576
1 1577
1 1578
1 1579
1 1580
1 1581
1 1582
1 1583
1 1584
1 1585
1 1586
1 1587
1 1588
1 1589
1 1590
1 1591
1 1592
1 1593
1 1594
1 1595
1 1596
1 1597
1 1598
1 1599
1 1600
1 1601
1 1602
1 1603
1 1604
1 1605
1 1606
1 1607
1 1608
1 1609
1 1610
1 1611
1 1612
1 1613
1 1614
1 1615
1 1616
1 1617
1 1618
1 1619
1 1620
1 1621
1 1622
1 1623
1 1624
1 1625
1 1626
1 1627
1 1628
1 1629
1 1630
1 1631
1 1632
1 1633
1 1634
1 1635
1 1636
1 1637
1 1638
1 1639
1 1640
1 1641
1 1642
1 1643
1 1644
1 1645
1 1646
1 1647
1 1648
1 1649
1 1650
1 1651
1 1652
1 1653
1 1654
1 1655
1 1656
1 1657
1 1658
1 1659
1 1660
1 1661
1 1662
1 1663
1 1664
1 1665
1 1666
1 1667
1 1668
1 1669
1 1670
1 1671
1 1672
1 1673
1 1674
1 1675
1 1676
1 1677
1 1678
1 1679
1 1680
1 1681
1 1682
1 1683
1 1684
1 1685
1 1686
1 1687
1 1688
1 1689
1 1690
1 1691
1 1692
1 1693
1 1694
1 1695
1 1696
1 1697
1 1698
1 1699
1 1700
1 1701
1 1702
1 1703
1 1704
1 1705
1 1706
1 1707
1 1708
1 1709
1 1710
1 1711
1 1712
1 1713
1 1714
1 1715
1 1716
1 1717
1 1718
1 1719
1 1720
1 1721
1 1722
1 1723
1 1724
1 1725
1 1726
1 1727
1 1728
1 1729
1 1730
1 1731
1 1732
1 1733
1 1734
1 1735
1 1736
1 1737
1 1738
1 1739
1 1740
1 1741
1 1742
1 1743
1 1744
1 1745
1 1746
1 1747
1 1748
1 1749
1 1750
1 1751
1 1752
1 1753
1 1754
1 1755
1 1756
1 1757
1 1758
1 1759
1 1760
1 1761
1 1762
1 1763
1 1764
1 1765
1 1766
1 1767
1 1768
1 1769
1 1770
1 1771
1 1772
1 1773
1 1774
1 1775
1 1776
1 1777
1 1778
1 1779
1 1780
1 1781
1 1782
1 1783
1 1784
1 1785
1 1786
1 1787
1 1788
1 1789
1 1790
1 1791
1 1792
1 1793
1 1794
1 1795
1 1796
1 1797
1 1798
1 1799
1 1800
1 1801
1 1802
1 1803
1 1804
1 1805
1 1806
1 1807
1 1808
1 1809
1 1810
1 1811
1 1812
1 1813
1 1814
1 1815
1 1816
1 1817
1 1818
1 1819
1 1820
1 1821
1 1822
1 1823
1 1824
1 1825
1 1826
1 1827
1 1828
1 1829
1 1830
1 1831
1 1832
1 1833
1 1834
1 1835
1 1836
1 1837
1 1838
1 1839
1 1840
1 1841
1 1842
1 1843
1 1844
1 1845
1 1846
1 1847
1 1848
1 1849
1 1850
1 1851
1 1852
1 1853
1 1854
1 1855
1 1856
1 1857
1 1858
1 1859
1 1860
1 1861
1 1862
1 1863
1 1864
1 1865
1 1866
1 1867
1 1868
1 1869
1 1870
1 1871
1 1872
1 1873
1 1874
1 1875
1 1876
1 1877
1 1878
1 1879
1 1880
1 1881
1 1882
1 1883
1 1884
1 1885
1 1886
1 1887
1 1888
1 1889
1 1890
1 1891
1 1892
1 1893
1 1894
1 1895
1 1896
1 1897
1 1898
1 1899
1 1900
1 1901
1 1902
1 1903
1 1904
1 1905
1 1906
1 1907
1 1908
1 1909
1 1910
1 1911
1 1912
1 1913
1 1914
1 1915
1 1916
1 1917
1 1918
1 1919
1 1920
1 1921
1 1922
1 1923
1 1924
1 1925
1 1926
1 1927
1 1928
1 1929
1 1930
1 1931
1 1932
1 1933
1 1934
1 1935
1 1936
1 1937
1 1938
1 1939
1 1940
1 1941
1 1942
1 1943
1 1944
1 1945
1 1946
1 1947
1 1948
1 1949
1 1950
1 1951
1 1952
1 1953
1 1954
1 1955
1 1956
1 1957
1 1958
1 1959
1 1960
1 1961
1 1962
1 1963
1 1964
1 1965
1 1966
1 1967
1 1968
1 1969
1 1970
1 1971
1 1972
1 1973
1 1974
1 1975
1 1976
1 1977
1 1978
1 1979
1 1980
1 1981
1 1982
1 1983
1 1984
1 1985
1 1986
1 1987
1 1988
1 1989
1 1990
1 1991
1 1992
1 1993
1 1994
1 1995
1 1996
1 1997
1 1998
1 1999
1 2000
1 2001
1 2002
1 2003
1 2004
1 2005
1 2006
1 2007
1 2008
1 2009
1 2010
1 2011
1 2012
1 2013
1 2014
1 2015
1 2016
1 2017
1 2018
1 2019
1 2020
1 2021
1 2022
1 2023
1 2024
1 2025
1 2026
1 2027
1 2028
1 2029
1 2030
1 2031
1 2032
1 2033
1 2034
1 2035
1 2036
1 2037
1 2038
1 2039
1 2040
1 2041
1 2042
1 2043
1 2044
1 2045
1 2046
1 2047
1 2048
1 2049
1 2050
1 2051
1 2052
1 2053
1 2054
1 2055
1 2056
1 2057
1 2058
1 2059
1 2060
1 2061
1 2062
1 2063
1 2064
1 2065
1 2066
1 2067
1 2068
1 2069
1 2070
1 2071
1 2072
1 2073
1 2074
1 2075
1 2076
1 2077
1 2078
1 2079
1 2080
1 2081
1 2082
1 2083
1 2084
1 2085
1 2086
1 2087
1 2088
1 2089
1 2090
1 2091
1 2092
1 2093
1 2094
1 2095
1 2096
1 2097
1 2098
1 2099
1 2100
1 2101
1 2102
1 2103
1 2104
1 2105
1 2106
1 2107
1 2108
1 2109
1 2110
1 2111
1 2112
1 2113
1 2114
1 2115
1 2116
1 2117
1 2118
1 2119
1 2120
1 2121
1 2122
1 2123
1 2124
1 2125
1 2126
1 2127
1 2128
1 2129
1 2130
1 2131
1 2132
1 2133
1 2134
1 2135
1 2136
1 2137
1 2138
1 2139
1 2140
1 2141
1 2142
1 2143
1 2144
1 2145
1 2146
1 2147
1 2148
1 2149
1 2150
1 2151
1 2152
1 2153
1 2154
1 2155
1 2156
1 2157
1 2158
1 2159
1 2160
1 2161
1 2162
1 2163
1 2164
1 2165
1 2166
1 2167
1 2168
1 2169
1 2170
1 2171
1 2172
1 2173
1 2174
1 2175
1 2176
1 2177
1 2178
1 2179
1 2180
1 2181
1 2182
1 2183
1 2184
1 2185
1 2186
1 2187
1 2188
1 2189
1 2190
1 2191
1 2192
1 2193
1 2194
1 2195
1 2196
1 2197
1 2198
1 2199
1 2200
1 2201
1 2202
1 2203
1 2204
1 2205
1 2206
1 2207
1 2208
1 2209
1 2210
1 2211
1 2212
1 2213
1 2214
1 2215
1 2216
1 2217
1 2218
1 2219
1 2220
1 2221
1 2222
1 2223
1 2224
1 2225
1 2226
1 2227
1 2228
1 2229
1 2230
1 2231
1 2232
1 2233
1 2234
1 2235
1 2236
1 2237
1 2238
1 2239
1 2240
1 2241
1 2242
1 2243
1 2244
1 2245
1 2246
1 2247
1 2248
1 2249
1 2250
1 2251
1 2252
1 2253
1 2254
1 2255
1 2256
1 2257
1 2258
1 2259
1 2260
1 2261
1 2262
1 2263
1 2264
1 2265
1 2266
1 2267
1 2268
1 2269
1 2270
1 2271
1 2272
1 2273
1 2274
1 2275
1 2276
1 2277
1 2278
1 2279
1 2280
1 2281
1 2282
1 2283
1 2284
1 2285
1 2286
1 2287
1 2288
1 2289
1 2290
1 2291
1 2292
1 2293
1 2294
1 2295
1 2296
1 2297
1 2298
1 2299
1 2300
1 2301
1 2302
1 2303
1 2304
1 2305
1 2306
1 2307
1 2308
1 2309
1 2310
1 2311
1 2312
1 2313
1 2314
1 2315
1 2316
1 2317
1 2318
1 2319
1 2320
1 2321
1 2322
1 2323
1 2324
1 2325
1 2326
1 2327
1 2328
1 2329
1 2330
1 2331
1 2332
1 2333
1 2334
1 2335
1 2336
1 2337
1 2338
1 2339
1 2340
1 2341
1 2342
1 2343
1 2344
1 2345
1 2346
1 2347
1 2348
1 2349
1 2350
1 2351
1 2352
1 2353
1 2354
1 2355
1 2356
1 2357
1 2358
1 2359
1 2360
1 2361
1 2362
1 2363
1 2364
1 2365
1 2366
1 2367
1 2368
1 2369
1 2370
1 2371
1 2372
1 2373
1 2374
1 2375
1 2376
1 2377
1 2378
1 2379
1 2380
1 2381
1 2382
1 2383
1 2384
1 2385
1 2386
1 2387
1 2388
1 2389
1 2390
1 2391
1 2392
1 2393
1 2394
1 2395
1 2396
1 2397
1 2398
1 2399
1 2400
1 2401
1 2402
1 2403
1 2404
1 2405
1 2406
1 2407
1 2408
1 2409
1 2410
1 2411
1 2412
1 2413
1 2414
1 2415
1 2416
1 2417
1 2418
1 2419
1 2420
1 2421
1 2422
1 2423
1 2424
1 2425
1 2426
1 2427
1 2428
1 2429
1 2430
1 2431
1 2432
1 2433
1 2434
1 2435
1 2436
1 2437
1 2438
1 2439
1 2440
1 2441
1 2442
1 2443
1 2444
1 2445
1 2446
1 2447
1 2448
1 2449
1 2450
1 2451
1 2452
1 2453
1 2454
1 2455
1 2456
1 2457
1 2458
1 2459
1 2460
1 2461
1 2462
1 2463
1 2464
1 2465
1 2466
1 2467
1 2468
1 2469
1 2470
1 2471
1 2472
1 2473
1 2474
1 2475
1 2476
1 2477
1 2478
1 2479
1 2480
1 2481
1 2482
1 2483
1 2484
1 2485
1 2486
1 2487
1 2488
1 2489
1 2490
1 2491
1 2492
1 2493
1 2494
1 2495
1 2496
1 2497
1 2498
1 2499
1 2500
1 2501
1 2502
1 2503
1 2504
1 2505
1 2506
1 2507
1 2508
1 2509
1 2510
1 2511
1 2512
1 2513
1 2514
1 2515
1 2516
1 2517
1 2518
1 2519
1 2520
1 2521
1 2522
1 2523
1 2524
1 2525
1 2526
1 2527
1 2528
1 2529
1 2530
1 2531
1 2532
1 2533
1 2534
1 2535
1 2536
1 2537
1 2538
1 2539
1 2540
1 2541
1 2542
1 2543
1 2544
1 2545
1 2546
1 2547
1 2548
1 2549
1 2550
1 2551
1 2552
1 2553
1 2554
1 2555
1 2556
1 2557
1 2558
1 2559
1 2560
1 2561
1 2562
1 2563
1 2564
1 2565
1 2566
1 2567
1 2568
1 2569
1 2570
1 2571
1 2572
1 2573
1 2574
1 2575
1 2576
1 2577
1 2578
1 2579
1 2580
1 2581
1 2582
1 2583
1 2584
1 2585
1 2586
1 2587
1 2588
1 2589
1 2590
1 2591
1 2592
1 2593
1 2594
1 2595
1 2596
1 2597
1 2598
1 2599
1 2600
1 2601
1 2602
1 2603
1 2604
1 2605
1 2606
1 2607
1 2608
1 2609
1 2610
1 2611
1 2612
1 2613
1 2614
1 2615
1 2616
1 2617
1 2618
1 2619
1 2620
1 2621
1 2622
1 2623
1 2624
1 2625
1 2626
1 2627
1 2628
1 2629
1 2630
1 2631
1 2632
1 2633
1 2634
1 2635
1 2636
1 2637
1 2638
1 2639
1 2640
1 2641
1 2642
1 2643
1 2644
1 2645
1 2646
1 2647
1 2648
1 2649
1 2650
1 2651
1 2652
1 2653
1 2654
1 2655
1 2656
1 2657
1 2658
1 2659
1 2660
1 2661
1 2662
1 2663
1 2664
1 2665
1 2666
1 2667
1 2668
1 2669
1 2670
1 2671
1 2672
1 2673
1 2674
1 2675
1 2676
1 2677
1 2678
1 2679
1 2680
1 2681
1 2682
1 2683
1 2684
1 2685
1 2686
1 2687
1 2688
1 2689
1 2690
1 2691
1 2692
1 2693
1 2694
1 2695
1 2696
1 2697
1 2698
1 2699
1 2700
1 2701
1 2702
1 2703
1 2704
1 2705
1 2706
1 2707
1 2708
1 2709
1 2710
1 2711
1 2712
1 2713
1 2714
1 2715
1 2716
1 2717
1 2718
1 2719
1 2720
1 2721
1 2722
1 2723
1 2724
1 2725
1 2726
1 2727
1 2728
1 2729
1 2730
1 2731
1 2732
1 2733
1 2734
1 2735
1 2736
1 2737
1 2738
1 2739
1 2740
1 2741
1 2742
1 2743
1 2744
1 2745
1 2746
1 2747
1 2748
1 2749
1 2750
1 2751
1 2752
1 2753
1 2754
1 2755
1 2756
1 2757
1 2758
1 2759
1 2760
1 2761
1 2762
1 2763
1 2764
1 2765
1 2766
1 2767
1 2768
1 2769
1 2770
1 2771
1 2772
1 2773
1 2774
1 2775
1 2776
1 2777
1 2778
1 2779
1 2780
1 2781
1 2782
1 2783
1 2784
1 2785
1 2786
1 2787
1 2788
1 2789
1 2790
1 2791
1 2792
1 2793
1 2794
1 2795
1 2796
1 2797
1 2798
1 2799
1 2800
1 2801
1 2802
1 2803
1 2804
1 2805
1 2806
1 2807
1 2808
1 2809
1 2810
1 2811
1 2812
1 2813
1 2814
1 2815
1 2816
1 2817
1 2818
1 2819
1 2820
1 2821
1 2822
1 2823
1 2824
1 2825
1 2826
1 2827
1 2828
1 2829
1 2830
1 2831
1 2832
1 2833
1 2834
1 2835
1 2836
1 2837
1 2838
1 2839
1 2840
1 2841
1 2842
1 2843
1 2844
1 2845
1 2846
1 2847
1 2848
1 2849
1 2850
1 2851
1 2852
1 2853
1 2854
1 2855
1 2856
1 2857
1 2858
1 2859
1 2860
1 2861
1 2862
1 2863
1 2864
1 2865
1 2866
1 2867
1 2868
1 2869
1 2870
1 2871
1 2872
1 2873
1 2874
1 2875
1 2876
1 2877
1 2878
1 2879
1 2880
1 2881
1 2882
1 2883
1 2884
1 2885
1 2886
1 2887
1 2888
1 2889
1 2890
1 2891
1 2892
1 2893
1 2894
1 2895
1 2896
1 2897
1 2898
1 2899
1 2900
1 2901
1 2902
1 2903
1 2904
1 2905
1 2906
1 2907
1 2908
1 2909
1 2910
1 2911
1 2912
1 2913
1 2914
1 2915
1 2916
1 2917
1 2918
1 2919
1 2920
1 2921
1 2922
1 2923
1 2924
1 2925
1 2926
1 2927
1 2928
1 2929
1 2930
1 2931
1 2932
1 2933
1 2934
1 2935
1 2936
1 2937
1 2938
1 2939
1 2940
1 2941
1 2942
1 2943
1 2944
1 2945
1 2946
1 2947
1 2948
1 2949
1 2950
1 2951
1 2952
1 2953
1 2954
1 2955
1 2956
1 2957
1 2958
1 2959
1 2960
1 2961
1 2962
1 2963
1 2964
1 2965
1 2966
1 2967
1 2968
1 2969
1 2970
1 2971
1 2972
1 2973
1 2974
POINT_DATA 2975
SCALARS Idp unsigned_int
LOOKUP_TABLE default
0 1 39 40 41 80 81 82 121 122 123 162 163 164 203 204 205 244 245 246 285 286 287 326 327 328 367 368 369 408 409 410 449 450 451 461 462 463 471 472 473 481 482 483 491 492 493 501 502 503 511 512 513 521 522 523 531 532 533 541 542 543 551 552 2 3 4 5 6 7 8 9 42 43 44 45 46 47 48 49 83 84 85 86 87 88 89 90 124 125 126 127 128 129 130 131 165 166 167 168 169 170 171 172 206 207 208 209 210 211 212 213 247 248 249 250 251 252 253 254 288 289 290 291 292 293 294 295 329 330 331 332 333 334 335 336 370 371 372 373 374 375 376 377 411 412 413 414 415 416 417 418 452 453 454 464 465 474 475 484 485 494 495 504 505 514 515 524 525 534 535 544 545 553 554 10 11 12 13 14 15 16 17 18 50 51 52 53 54 55 56 57 58 91 92 93 94 95 96 97 98 99 132 133 134 135 136 137 138 139 140 173 174 175 176 177 178 179 180 181 214 215 216 217 218 219 220 221 222 255 256 257 258 259 260 261 262 263 296 297 298 299 300 301 302 303 304 337 338 339 340 341 342 343 344 345 378 379 380 381 382 383 384 385 386 419 420 421 422 423 424 425 426 427 19 20 21 22 23 24 25 26 59 60 61 62 63 64 65 66 100 101 102 103 104 105 106 107 141 142 143 144 145 146 147 148 182 183 184 185 186 187 188 189 223 224 225 226 227 228 229 230 264 265 266 267 268 269 270 271 305 306 307 308 309 310 311 312 346 347 348 349 350 351 352 353 387 388 389 390 391 392 393 394 428 429 430 431 432 433 434 435 27 28 29 30 31 32 33 34 35 67 68 69 70 71 72 73 74 75 108 109 110 111 112 113 114 115 116 149 150 151 152 153 154 155 156 157 190 191 192 193 194 195 196 197 198 231 232 233 234 235 236 237 238 239 272 273 274 275 276 277 278 279 280 313 314 315 316 317 318 319 320 321 354 355 356 357 358 359 360 361 362 395 396 397 398 399 400 401 402 403 436 437 438 439 440 441 442 443 444 455 456 466 476 486 496 506 516 526 536 546 555 36 37 38 76 77 78 79 117 118 119 120 158 159 160 161 199 200 201 202 240 241 242 243 281 282 283 284 322 323 324 325 363 364 365 366 404 405 406 407 445 446 447 448 457 458 459 460 467 468 469 470 477 478 479 480 487 488 489 490 497 498 499 500 507 508 509 510 517 518 519 520 527 528 529 530 537 538 539 540 547 548 549 550 556 557 558 559 560 561 562 563 564 565 566 567 568 569 570 571 572 573 574 575 576 577 578 579 580 581 582 583 584 585 586 587 588 589 590 591 592 593 594 595 596 597 598 599 600 601 602 603 604 605 606 607 608 609 610 611 612 613 614 615 616 617 618 619 620 621 622 623 624 625 626 627 628 629 630 631 632 633 634 635 636 637 638 639 640 641 642 643 644 645 646 647 648 649 650 651 652 653 654 655 656 657 658 659 660 661 662 663 664 665 666 667 668 669 670 671 672 673 674 675 676 677 678 679 680 681 682 683 684 685 686 687 688 689 690 691 692 693 694 695 696 697 698 699 700 701 702 703 704 705 706 707 708 709 710 711 712 713 714 715 716 717 718 719 720 721 722 723 724 725 726 727 728 729 730 731 732 733 734 735 736 737 738 739 740 741 742 743 744 745 746 747 748 749 750 751 752 753 754 755 756 757 758 759 760 761 762 763 764 765 766 767 768 769 770 771 772 773 774 775 776 777 778 779 780 781 782 783 784 785 786 787 788 789 790 791 792 793 794 795 796 797 798 799 800 801 802 803 804 805 806 807 808 809 810 811 812 813 814 815 816 817 818 819 820 821 822 823 824 825 826 827 828 829 830 831 832 833 834 835 836 837 838 839 840 841 842 843 844 845 846 847 848 849 850 851 852 853 854 855 856 857 858 859 860 861 862 863 864 865 866 867 868 869 870 871 872 873 874 875 876 877 878 879 880 881 882 883 884 885 886 887 888 889 890 891 892 893 894 895 896 897 898 899 900 901 902 903 904 905 906 907 908 909 910 911 912 913 914 915 916 917 918 919 920 921 922 923 924 925 926 927 928 929 930 931 932 933 934 935 936 937 938 939 940 941 942 943 944 945 946 947 948 949 950 951 952 953 954 955 956 957 958 959 960 961 962 963 964 965 966 967 968 969 970 971 972 973 974 975 976 977 978 979 980 981 982 983 984 985 986 987 988 989 990 991 992 993 994 995 996 997 998 999 1000 1001 1002 1003 1004 1005 1006 1007 1008 1009 1010 1011 1012 1013 1014 1015 1016 1017 1018 1019 1020 1021 1022 1023 1024 1025 1026 1027 1028 1029 1030 1031 1032 1033 1034 1035 1060 1061 1062 1063 1064 1065 1091 1092 1093 1094 1095 1096 1122 1123 1124 1125 1126 1127 1153 1154 1155 1156 1157 1158 1184 1185 1186 1187 1188 1189 1215 1216 1217 1218 1219 1220 1246 1247 1248 1249 1250 1251 1277 1278 1279 1280 1281 1282 1308 1309 1310 1311 1312 1313 1339 1340 1341 1342 1343 1344 1370 1371 1372 1373 1374 1375 1401 1402 1403 1404 1405 1406 1432 1433 1434 1435 1436 1437 1463 1464 1465 1466 1467 1468 1494 1495 1496 1497 1498 1499 1525 1526 1527 1528 1529 1530 1556 1557 1558 1559 1560 1561 1587 1588 1589 1590 1591 1592 1618 1619 1620 1621 1622 1623 1649 1650 1651 1652 1653 1654 1680 1681 1682 1683 1684 1685 1711 1712 1713 1714 1715 1716 1742 1743 1744 1745 1746 1747 1773 1774 1775 1776 1777 1778 1804 1805 1806 1807 1808 1809 1835 1836 1837 1838 1839 1840 1866 1867 1868 1869 1870 1871 1897 1898 1899 1900 1901 1902 1928 1929 1930 1931 1932 1933 1959 1960 1961 1962 1963 1964 1990 1991 1992 1993 1994 1995 2021 2022 2023 2024 2025 2026 2052 2053 2054 2055 2056 2057 2083 2084 2085 2086 2087 2088 2114 2115 2116 2117 2118 2119 2145 2146 2147 2148 2149 2150 2176 2177 2178 2179 2180 2181 2207 2208 2209 2210 2211 2212 2238 2239 2240 2241 2242 2243 2269 2270 2271 2272 2273 2274 2300 2301 2302 2303 2304 2305 2331 2332 2333 2334 2335 2336 2362 2363 2364 2365 2366 2367 2393 2394 2395 2396 2397 2398 2424 2425 2426 2427 2428 2429 2455 2456 2457 2458 2459 2460 2486 2487 2488 2489 2490 2491 2517 2518 2519 2520 2521 2522 2548 2549 2550 2551 2552 2553 2579 2580 2581 2582 2583 2584 2610 2611 2612 2613 2614 2615 2641 2642 2643 2644 2645 2646 2672 2673 2674 2675 2676 2677 2703 2704 2705 2706 2707 2708 2734 2735 2736 2737 2738 2763 2764 2765 2766 2767 2792 2793 2794 2795 2819 2820 2821 2822 2846 2847 2848 2871 2872 2894 2895 1036 1037 1038 1039 1040 1041 1042 1043 1044 1066 1067 1068 1069 1070 1071 1072 1073 1074 1097 1098 1099 1100 1101 1102 1103 1104 1105 1128 1129 1130 1131 1132 1133 1134 1135 1136 1159 1160 1161 1162 1163 1164 1165 1166 1167 1190 1191 1192 1193 1194 1195 1196 1197 1198 1221 1222 1223 1224 1225 1226 1227 1228 1229 1252 1253 1254 1255 1256 1257 1258 1259 1260 1283 1284 1285 1286 1287 1288 1289 1290 1291 1314 1315 1316 1317 1318 1319 1320 1321 1322 1345 1346 1347 1348 1349 1350 1351 1352 1353 1376 1377 1378 1379 1380 1381 1382 1383 1384 1407 1408 1409 1410 1411 1412 1413 1414 1415 1438 1439 1440 1441 1442 1443 1444 1445 1446 1469 1470 1471 1472 1473 1474 1475 1476 1477 1500 1501 1502 1503 1504 1505 1506 1507 1508 1531 1532 1533 1534 1535 1536 1537 1538 1539 1562 1563 1564 1565 1566 1567 1568 1569 1570 1593 1594 1595 1596 1597 1598 1599 1600 1601 1624 1625 1626 1627 1628 1629 1630 1631 1632 1655 1656 1657 1658 1659 1660 1661 1662 1663 1686 1687 1688 1689 1690 1691 1692 1693 1694 1717 1718 1719 1720 1721 1722 1723 1724 1725 1748 1749 1750 1751 1752 1753 1754 1755 1756 1779 1780 1781 1782 1783 1784 1785 1786 1787 1810 1811 1812 1813 1814 1815 1816 1817 1818 1841 1842 1843 1844 1845 1846 1847 1848 1849 1872 1873 1874 1875 1876 1877 1878 1879 1880 1903 1904 1905 1906 1907 1908 1909 1910 1911 1934 1935 1936 1937 1938 1939 1940 1941 1942 1965 1966 1967 1968 1969 1970 1971 1972 1973 1996 1997 1998 1999 2000 2001 2002 2003 2004 2027 2028 2029 2030 2031 2032 2033 2034 2035 2058 2059 2060 2061 2062 2063 2064 2065 2066 2089 2090 2091 2092 2093 2094 2095 2096 2097 2120 2121 2122 2123 2124 2125 2126 2127 2128 2151 2152 2153 2154 2155 2156 2157 2158 2159 2182 2183 2184 2185 2186 2187 2188 2189 2190 2213 2214 2215 2216 2217 2218 2219 2220 2221 2244 2245 2246 2247 2248 2249 2250 2251 2252 2275 2276 2277 2278 2279 2280 2281 2282 2283 2306 2307 2308 2309 2310 2311 2312 2313 2314 2337 2338 2339 2340 2341 2342 2343 2344 2345 2368 2369 2370 2371 2372 2373 2374 2375 2376 2399 2400 2401 2402 2403 2404 2405 2406 2407 2430 2431 2432 2433 2434 2435 2436 2437 2438 2461 2462 2463 2464 2465 2466 2467 2468 2469 2492 2493 2494 2495 2496 2497 2498 2499 2500 2523 2524 2525 2526 2527 2528 2529 2530 2531 2554 2555 2556 2557 2558 2559 2560 2561 2562 2585 2586 2587 2588 2589 2590 2591 2592 2593 2616 2617 2618 2619 2620 2621 2622 2623 2624 2647 2648 2649 2650 2651 2652 2653 2654 2655 2678 2679 2680 2681 2682 2683 2684 2685 2686 2709 2710 2711 2712 2713 2714 2715 2716 2717 2739 2740 2741 2742 2743 2744 2745 2746 2747 2768 2769 2770 2771 2772 2773 2774 2775 2776 2796 2797 2798 2799 2800 2801 2802 2803 2804 2823 2824 2825 2826 2827 2828 2829 2830 2831 2849 2850 2851 2852 2853 2854 2855 2856 2857 2873 2874 2875 2876 2877 2878 2879 2880 2881 2896 2897 2898 2899 2900 2901 2902 2903 2904 2917 2918 2919 2920 2921 2922 2923 2924 2925 2936 2937 2938 2939 2940 2941 2942 2943 2953 2954 2955 2956 2957 2958 2966 2967 2968 2969 1045 1046 1047 1048 1049 1050 1051 1052 1075 1076 1077 1078 1079 1080 1081 1082 1106 1107 1108 1109 1110 1111 1112 1113 1137 1138 1139 1140 1141 1142 1143 1144 1168 1169 1170 1171 1172 1173 1174 1175 1199 1200 1201 1202 1203 1204 1205 1206 1230 1231 1232 1233 1234 1235 1236 1237 1261 1262 1263 1264 1265 1266 1267 1268 1292 1293 1294 1295 1296 1297 1298 1299 1323 1324 1325 1326 1327 1328 1329 1330 1354 1355 1356 1357 1358 1359 1360 1361 1385 1386 1387 1388 1389 1390 1391 1392 1416 1417 1418 1419 1420 1421 1422 1423 1447 1448 1449 1450 1451 1452 1453 1454 1478 1479 1480 1481 1482 1483 1484 1485 1509 1510 1511 1512 1513 1514 1515 1516 1540 1541 1542 1543 1544 1545 1546 1547 1571 1572 1573 1574 1575 1576 1577 1578 1602 1603 1604 1605 1606 1607 1608 1609 1633 1634 1635 1636 1637 1638 1639 1640 1664 1665 1666 1667 1668 1669 1670 1671 1695 1696 1697 1698 1699 1700 1701 1702 1726 1727 1728 1729 1730 1731 1732 1733 1757 1758 1759 1760 1761 1762 1763 1764 1788 1789 1790 1791 1792 1793 1794 1795 1819 1820 1821 1822 1823 1824 1825 1826 1850 1851 1852 1853 1854 1855 1856 1857 1881 1882 1883 1884 1885 1886 1887 1888 1912 1913 1914 1915 1916 1917 1918 1919 1943 1944 1945 1946 1947 1948 1949 1950 1974 1975 1976 1977 1978 1979 1980 1981 2005 2006 2007 2008 2009 2010 2011 2012 2036 2037 2038 2039 2040 2041 2042 2043 2067 2068 2069 2070 2071 2072 2073 2074 2098 2099 2100 2101 2102 2103 2104 2105 2129 2130 2131 2132 2133 2134 2135 2136 2160 2161 2162 2163 2164 2165 2166 2167 2191 2192 2193 2194 2195 2196 2197 2198 2222 2223 2224 2225 2226 2227 2228 2229 2253 2254 2255 2256 2257 2258 2259 2260 2284 2285 2286 2287 2288 2289 2290 2291 2315 2316 2317 2318 2319 2320 2321 2322 2346 2347 2348 2349 2350 2351 2352 2353 2377 2378 2379 2380 2381 2382 2383 2384 2408 2409 2410 2411 2412 2413 2414 2415 2439 2440 2441 2442 2443 2444 2445 2446 2470 2471 2472 2473 2474 2475 2476 2477 2501 2502 2503 2504 2505 2506 2507 2508 2532 2533 2534 2535 2536 2537 2538 2539 2563 2564 2565 2566 2567 2568 2569 2570 2594 2595 2596 2597 2598 2599 2600 2601 2625 2626 2627 2628 2629 2630 2631 2632 2656 2657 2658 2659 2660 2661 2662 2663 2687 2688 2689 2690 2691 2692 2693 2694 2718 2719 2720 2721 2722 2723 2724 2725 2748 2749 2750 2751 2752 2753 2754 2755 2777 2778 2779 2780 2781 2782 2783 2784 2805 2806 2807 2808 2809 2810 2811 2812 2832 2833 2834 2835 2836 2837 2838 2839 2858 2859 2860 2861 2862 2863 2864 2865 2882 2883 2884 2885 2886 2887 2888 2889 2905 2906 2907 2908 2909 2910 2911 2912 2926 2927 2928 2929 2930 2931 2932 2933 2944 2945 2946 2947 2948 2949 2950 2951 2959 2960 2961 2962 2963 2964 2965 2970 2971 2972 2973 2974 1053 1054 1055 1056 1057 1058 1059 1083 1084 1085 1086 1087 1088 1089 1090 1114 1115 1116 1117 1118 1119 1120 1121 1145 1146 1147 1148 1149 1150 1151 1152 1176 1177 1178 1179 1180 1181 1182 1183 1207 1208 1209 1210 1211 1212 1213 1214 1238 1239 1240 1241 1242 1243 1244 1245 1269 1270 1271 1272 1273 1274 1275 1276 1300 1301 1302 1303 1304 1305 1306 1307 1331 1332 1333 1334 1335 1336 1337 1338 1362 1363 1364 1365 1366 1367 1368 1369 1393 1394 1395 1396 1397 1398 1399 1400 1424 1425 1426 1427 1428 1429 1430 1431 1455 1456 1457 1458 1459 1460 1461 1462 1486 1487 1488 1489 1490 1491 1492 1493 1517 1518 1519 1520 1521 1522 1523 1524 1548 1549 1550 1551 1552 1553 1554 1555 1579 1580 1581 1582 1583 1584 1585 1586 1610 1611 1612 1613 1614 1615 1616 1617 1641 1642 1643 1644 1645 1646 1647 1648 1672 1673 1674 1675 1676 1677 1678 1679 1703 1704 1705 1706 1707 1708 1709 1710 1734 1735 1736 1737 1738 1739 1740 1741 1765 1766 1767 1768 1769 1770 1771 1772 1796 1797 1798 1799 1800 1801 1802 1803 1827 1828 1829 1830 1831 1832 1833 1834 1858 1859 1860 1861 1862 1863 1864 1865 1889 1890 1891 1892 1893 1894 1895 1896 1920 1921 1922 1923 1924 1925 1926 1927 1951 1952 1953 1954 1955 1956 1957 1958 1982 1983 1984 1985 1986 1987 1988 1989 2013 2014 2015 2016 2017 2018 2019 2020 2044 2045 2046 2047 2048 2049 2050 2051 2075 2076 2077 2078 2079 2080 2081 2082 2106 2107 2108 2109 2110 2111 2112 2113 2137 2138 2139 2140 2141 2142 2143 2144 2168 2169 2170 2171 2172 2173 2174 2175 2199 2200 2201 2202 2203 2204 2205 2206 2230 2231 2232 2233 2234 2235 2236 2237 2261 2262 2263 2264 2265 2266 2267 2268 2292 2293 2294 2295 2296 2297 2298 2299 2323 2324 2325 2326 2327 2328 2329 2330 2354 2355 2356 2357 2358 2359 2360 2361 2385 2386 2387 2388 2389 2390 2391 2392 2416 2417 2418 2419 2420 2421 2422 2423 2447 2448 2449 2450 2451 2452 2453 2454 2478 2479 2480 2481 2482 2483 2484 2485 2509 2510 2511 2512 2513 2514 2515 2516 2540 2541 2542 2543 2544 2545 2546 2547 2571 2572 2573 2574 2575 2576 2577 2578 2602 2603 2604 2605 2606 2607 2608 2609 2633 2634 2635 2636 2637 2638 2639 2640 2664 2665 2666 2667 2668 2669 2670 2671 2695 2696 2697 2698 2699 2700 2701 2702 2726 2727 2728 2729 2730 2731 2732 2733 2756 2757 2758 2759 2760 2761 2762 2785 2786 2787 2788 2789 2790 2791 2813 2814 2815 2816 2817 2818 2840 2841 2842 2843 2844 2845 2866 2867 2868 2869 2870 2890 2891 2892 2893 2913 2914 2915 2916 2934 2935 2952 
FIELD FieldData 12
Idp 1 2975 float
0 1 39 40 41 80 81 82 121 122 123 162 163 164 203 204 205 244 245 246 285 286 287 326 327 328 367 368 369 408 409 410 449 450 451 461 462 463 471 472 473 481 482 483 491 492 493 501 502 503 511 512 513 521 522 523 531 532 533 541 542 543 551 552 2 3 4 5 6 7 8 9 42 43 44 45 46 47 48 49 83 84 85 86 87 88 89 90 124 125 126 127 128 129 130 131 165 166 167 168 169 170 171 172 206 207 208 209 210 211 212 213 247 248 249 250 251 252 253 254 288 289 290 291 292 293 294 295 329 330 331 332 333 334 335 336 370 371 372 373 374 375 376 377 411 412 413 414 415 416 417 418 452 453 454 464 465 474 475 484 485 494 495 504 505 514 515 524 525 534 535 544 545 553 554 10 11 12 13 14 15 16 17 18 50 51 52 53 54 55 56 57 58 91 92 93 94 95 96 97 98 99 132 133 134 135 136 137 138 139 140 173 174 175 176 177 178 179 180 181 214 215 216 217 218 219 220 221 222 255 256 257 258 259 260 261 262 263 296 297 298 299 300 301 302 303 304 337 338 339 340 341 342 343 344 345 378 379 380 381 382 383 384 385 386 419 420 421 422 423 424 425 426 427 19 20 21 22 23 24 25 26 59 60 61 62 63 64 65 66 100 101 102 103 104 105 106 107 141 142 143 144 145 146 147 148 182 183 184 185 186 187 188 189 223 224 225 226 227 228 229 230 264 265 266 267 268 269 270 271 305 306 307 308 309 310 311 312 346 347 348 349 350 351 352 353 387 388 389 390 391 392 393 394 428 429 430 431 432 433 434 435 27 28 29 30 31 32 33 34 35 67 68 69 70 71 72 73 74 75 108 109 110 111 112 113 114 115 116 149 150 151 152 153 154 155 156 157 190 191 192 193 194 195 196 197 198 231 232 233 234 235 236 237 238 239 272 273 274 275 276 277 278 279 280 313 314 315 316 317 318 319 320 321 354 355 356 357 358 359 360 361 362 395 396 397 398 399 400 401 402 403 436 437 438 439 440 441 442 443 444 455 456 466 476 486 496 506 516 526 536 546 555 36 37 38 76 77 78 79 117 118 119 120 158 159 160 161 199 200 201 202 240 241 242 243 281 282 283 284 322 323 324 325 363 364 365 366 404 405 406 407 445 446 447 448 457 458 459 460 467 468 469 470 477 478 479 480 487 488 489 490 497 498 499 500 507 508 509 510 517 518 519 520 527 528 529 530 537 538 539 540 547 548 549 550 556 557 558 559 560 561 562 563 564 565 566 567 568 569 570 571 572 573 574 575 576 577 578 579 580 581 582 583 584 585 586 587 588 589 590 591 592 593 594 595 596 597 598 599 600 601 602 603 604 605 606 607 608 609 610 611 612 613 614 615 616 617 618 619 620 621 622 623 624 625 626 627 628 629 630 631 632 633 634 635 636 637 638 639 640 641 642 643 644 645 646 647 648 649 650 651 652 653 654 655 656 657 658 659 660 661 662 663 664 665 666 667 668 669 670 671 672 673 674 675 676 677 678 679 680 681 682 683 684 685 686 687 688 689 690 691 692 693 694 695 696 697 698 699 700 701 702 703 704 705 706 707 708 709 710 711 712 713 714 715 716 717 718 719 720 721 722 723 724 725 726 727 728 729 730 731 732 733 734 735 736 737 738 739 740 741 742 743 744 745 746 747 748 749 750 751 752 753 754 755 756 757 758 759 760 761 762 763 764 765 766 767 768 769 770 771 772 773 774 775 776 777 778 779 780 781 782 783 784 785 786 787 788 789 790 791 792 793 794 795 796 797 798 799 800 801 802 803 804 805 806 807 808 809 810 811 812 813 814 815 816 817 818 819 820 821 822 823 824 825 826 827 828 829 830 831 832 833 834 835 836 837 838 839 840 841 842 843 844 845 846 847 848 849 850 851 852 853 854 855 856 857 858 859 860 861 862 863 864 865 866 867 868 869 870 871 872 873 874 875 876 877 878 879 880 881 882 883 884 885 886 887 888 889 890 891 892 893 894 895 896 897 898 899 900 901 902 903 904 905 906 907 908 909 910 911 912 913 914 915 916 917 918 919 920 921 922 923 924 925 926 927 928 929 930 931 932 933 934 935 936 937 938 939 940 941 942 943 944 945 946 947 948 949 950 951 952 953 954 955 956 957 958 959 960 961 962 963 964 965 966 967 968 969 970 971 972 973 974 975 976 977 978 979 980 981 982 983 984 985 986 987 988 989 990 991 992 993 994 995 996 997 998 999 1000 1001 1002 1003 1004 1005 1006 1007 1008 1009 1010 1011 1012 1013 1014 1015 1016 1017 1018 1019 1020 1021 1022 1023 1024 1025 1026 1027 1028 1029 1030 1031 1032 1033 1034 1035 1060 1061 1062 1063 1064 1065 1091 1092 1093 1094 1095 1096 1122 1123 1124 1125 1126 1127 1153 1154 1155 1156 1157 1158 1184 1185 1186 1187 1188 1189 1215 1216 1217 1218 1219 1220 1246 1247 1248 1249 1250 1251 1277 1278 1279 1280 1281 1282 1308 1309 1310 1311 1312 1313 1339 1340 1341 1342 1343 1344 1370 1371 1372 1373 1374 1375 1401 1402 1403 1404 1405 1406 1432 1433 1434 1435 1436 1437 1463 1464 1465 1466 1467 1468 1494 1495 1496 1497 1498 1499 1525 1526 1527 1528 1529 1530 1556 1557 1558 1559 1560 1561 1587 1588 1589 1590 1591 1592 1618 1619 1620 1621 1622 1623 1649 1650 1651 1652 1653 1654 1680 1681 1682 1683 1684 1685 1711 1712 1713 1714 1715 1716 1742 1743 1744 1745 1746 1747 1773 1774 1775 1776 1777 1778 1804 1805 1806 1807 1808 1809 1835 1836 1837 1838 1839 1840 1866 1867 1868 1869 1870 1871 1897 1898 1899 1900 1901 1902 1928 1929 1930 1931 1932 1933 1959 1960 1961 1962 1963 1964 1990 1991 1992 1993 1994 1995 2021 2022 2023 2024 2025 2026 2052 2053 2054 2055 2056 2057 2083 2084 2085 2086 2087 2088 2114 2115 2116 2117 2118 2119 2145 2146 2147 2148 2149 2150 2176 2177 2178 2179 2180 2181 2207 2208 2209 2210 2211 2212 2238 2239 2240 2241 2242 2243 2269 2270 2271 2272 2273 2274 2300 2301 2302 2303 2304 2305 2331 2332 2333 2334 2335 2336 2362 2363 2364 2365 2366 2367 2393 2394 2395 2396 2397 2398 2424 2425 2426 2427 2428 2429 2455 2456 2457 2458 2459 2460 2486 2487 2488 2489 2490 2491 2517 2518 2519 2520 2521 2522 2548 2549 2550 2551 2552 2553 2579 2580 2581 2582 2583 2584 2610 2611 2612 2613 2614 2615 2641 2642 2643 2644 2645 2646 2672 2673 2674 2675 2676 2677 2703 2704 2705 2706 2707 2708 2734 2735 2736 2737 2738 2763 2764 2765 2766 2767 2792 2793 2794 2795 2819 2820 2821 2822 2846 2847 2848 2871 2872 2894 2895 1036 1037 1038 1039 1040 1041 1042 1043 1044 1066 1067 1068 1069 1070 1071 1072 1073 1074 1097 1098 1099 1100 1101 1102 1103 1104 1105 1128 1129 1130 1131 1132 1133 1134 1135 1136 1159 1160 1161 1162 1163 1164 1165 1166 1167 1190 1191 1192 1193 1194 1195 1196 1197 1198 1221 1222 1223 1224 1225 1226 1227 1228 1229 1252 1253 1254 1255 1256 1257 1258 1259 1260 1283 1284 1285 1286 1287 1288 1289 1290 1291 1314 1315 1316 1317 1318 1319 1320 1321 1322 1345 1346 1347 1348 1349 1350 1351 1352 1353 1376 1377 1378 1379 1380 1381 1382 1383 1384 1407 1408 1409 1410 1411 1412 1413 1414 1415 1438 1439 1440 1441 1442 1443 1444 1445 1446 1469 1470 1471 1472 1473 1474 1475 1476 1477 1500 1501 1502 1503 1504 1505 1506 1507 1508 1531 1532 1533 1534 1535 1536 1537 1538 1539 1562 1563 1564 1565 1566 1567 1568 1569 1570 1593 1594 1595 1596 1597 1598 1599 1600 1601 1624 1625 1626 1627 1628 1629 1630 1631 1632 1655 1656 1657 1658 1659 1660 1661 1662 1663 1686 1687 1688 1689 1690 1691 1692 1693 1694 1717 1718 1719 1720 1721 1722 1723 1724 1725 1748 1749 1750 1751 1752 1753 1754 1755 1756 1779 1780 1781 1782 1783 1784 1785 1786 1787 1810 1811 1812 1813 1814 1815 1816 1817 1818 1841 1842 1843 1844 1845 1846 1847 1848 1849 1872 1873 1874 1875 1876 1877 1878 1879 1880 1903 1904 1905 1906 1907 1908 1909 1910 1911 1934 1935 1936 1937 1938 1939 1940 1941 1942 1965 1966 1967 1968 1969 1970 1971 1972 1973 1996 1997 1998 1999 2000 2001 2002 2003 2004 2027 2028 2029 2030 2031 2032 2033 2034 2035 2058 2059 2060 2061 2062 2063 2064 2065 2066 2089 2090 2091 2092 2093 2094 2095 2096 2097 2120 2121 2122 2123 2124 2125 2126 2127 2128 2151 2152 2153 2154 2155 2156 2157 2158 2159 2182 2183 2184 2185 2186 2187 2188 2189 2190 2213 2214 2215 2216 2217 2218 2219 2220 2221 2244 2245 2246 2247 2248 2249 2250 2251 2252 2275 2276 2277 2278 2279 2280 2281 2282 2283 2306 2307 2308 2309 2310 2311 2312 2313 2314 2337 2338 2339 2340 2341 2342 2343 2344 2345 2368 2369 2370 2371 2372 2373 2374 2375 2376 2399 2400 2401 2402 2403 2404 2405 2406 2407 2430 2431 2432 2433 2434 2435 2436 2437 2438 2461 2462 2463 2464 2465 2466 2467 2468 2469 2492 2493 2494 2495 2496 2497 2498 2499 2500 2523 2524 2525 2526 2527 2528 2529 2530 2531 2554 2555 2556 2557 2558 2559 2560 2561 2562 2585 2586 2587 2588 2589 2590 2591 2592 2593 2616 2617 2618 2619 2620 2621 2622 2623 2624 2647 2648 2649 2650 2651 2652 2653 2654 2655 2678 2679 2680 2681 2682 2683 2684 2685 2686 2709 2710 2711 2712 2713 2714 2715 2716 2717 2739 2740 2741 2742 2743 2744 2745 2746 2747 2768 2769 2770 2771 2772 2773 2774 2775 2776 2796 2797 2798 2799 2800 2801 2802 2803 2804 2823 2824 2825 2826 2827 2828 2829 2830 2831 2849 2850 2851 2852 2853 2854 2855 2856 2857 2873 2874 2875 2876 2877 2878 2879 2880 2881 2896 2897 2898 2899 2900 2901 2902 2903 2904 2917 2918 2919 2920 2921 2922 2923 2924 2925 2936 2937 2938 2939 2940 2941 2942 2943 2953 2954 2955 2956 2957 2958 2966 2967 2968 2969 1045 1046 1047 1048 1049 1050 1051 1052 1075 1076 1077 1078 1079 1080 1081 1082 1106 1107 1108 1109 1110 1111 1112 1113 1137 1138 1139 1140 1141 1142 1143 1144 1168 1169 1170 1171 1172 1173 1174 1175 1199 1200 1201 1202 1203 1204 1205 1206 1230 1231 1232 1233 1234 1235 1236 1237 1261 1262 1263 1264 1265 1266 1267 1268 1292 1293 1294 1295 1296 1297 1298 1299 1323 1324 1325 1326 1327 1328 1329 1330 1354 1355 1356 1357 1358 1359 1360 1361 1385 1386 1387 1388 1389 1390 1391 1392 1416 1417 1418 1419 1420 1421 1422 1423 1447 1448 1449 1450 1451 1452 1453 1454 1478 1479 1480 1481 1482 1483 1484 1485 1509 1510 1511 1512 1513 1514 1515 1516 1540 1541 1542 1543 1544 1545 1546 1547 1571 1572 1573 1574 1575 1576 1577 1578 1602 1603 1604 1605 1606 1607 1608 1609 1633 1634 1635 1636 1637 1638 1639 1640 1664 1665 1666 1667 1668 1669 1670 1671 1695 1696 1697 1698 1699 1700 1701 1702 1726 1727 1728 1729 1730 1731 1732 1733 1757 1758 1759 1760 1761 1762 1763 1764 1788 1789 1790 1791 1792 1793 1794 1795 1819 1820 1821 1822 1823 1824 1825 1826 1850 1851 1852 1853 1854 1855 1856 1857 1881 1882 1883 1884 1885 1886 1887 1888 1912 1913 1914 1915 1916 1917 1918 1919 1943 1944 1945 1946 1947 1948 1949 1950 1974 1975 1976 1977 1978 1979 1980 1981 2005 2006 2007 2008 2009 2010 2011 2012 2036 2037 2038 2039 2040 2041 2042 2043 2067 2068 2069 2070 2071 2072 2073 2074 2098 2099 2100 2101 2102 2103 2104 2105 2129 2130 2131 2132 2133 2134 2135 2136 2160 2161 2162 2163 2164 2165 2166 2167 2191 2192 2193 2194 2195 2196 2197 2198 2222 2223 2224 2225 2226 2227 2228 2229 2253 2254 2255 2256 2257 2258 2259 2260 2284 2285 2286 2287 2288 2289 2290 2291 2315 2316 2317 2318 2319 2320 2321 2322 2346 2347 2348 2349 2350 2351 2352 2353 2377 2378 2379 2380 2381 2382 2383 2384 2408 2409 2410 2411 2412 2413 2414 2415 2439 2440 2441 2442 2443 2444 2445 2446 2470 2471 2472 2473 2474 2475 2476 2477 2501 2502 2503 2504 2505 2506 2507 2508 2532 2533 2534 2535 2536 2537 2538 2539 2563 2564 2565 2566 2567 2568 2569 2570 2594 2595 2596 2597 2598 2599 2600 2601 2625 2626 2627 2628 2629 2630 2631 2632 2656 2657 2658 2659 2660 2661 2662 2663 2687 2688 2689 2690 2691 2692 2693 2694 2718 2719 2720 2721 2722 2723 2724 2725 2748 2749 2750 2751 2752 2753 2754 2755 2777 2778 2779 2780 2781 2782 2783 2784 2805 2806 2807 2808 2809 2810 2811 2812 2832 2833 2834 2835 2836 2837 2838 2839 2858 2859 2860 2861 2862 2863 2864 2865 2882 2883 2884 2885 2886 2887 2888 2889 2905 2906 2907 2908 2909 2910 2911 2912 2926 2927 2928 2929 2930 2931 2932 2933 2944 2945 2946 2947 2948 2949 2950 2951 2959 2960 2961 2962 2963 2964 2965 2970 2971 2972 2973 2974 1053 1054 1055 1056 1057 1058 1059 1083 1084 1085 1086 1087 1088 1089 1090 1114 1115 1116 1117 1118 1119 1120 1121 1145 1146 1147 1148 1149 1150 1151 1152 1176 1177 1178 1179 1180 1181 1182 1183 1207 1208 1209 1210 1211 1212 1213 1214 1238 1239 1240 1241 1242 1243 1244 1245 1269 1270 1271 1272 1273 1274 1275 1276 1300 1301 1302 1303 1304 1305 1306 1307 1331 1332 1333 1334 1335 1336 1337 1338 1362 1363 1364 1365 1366 1367 1368 1369 1393 1394 1395 1396 1397 1398 1399 1400 1424 1425 1426 1427 1428 1429 1430 1431 1455 1456 1457 1458 1459 1460 1461 1462 1486 1487 1488 1489 1490 1491 1492 1493 1517 1518 1519 1520 1521 1522 1523 1524 1548 1549 1550 1551 1552 1553 1554 1555 1579 1580 1581 1582 1583 1584 1585 1586 1610 1611 1612 1613 1614 1615 1616 1617 1641 1642 1643 1644 1645 1646 1647 1648 1672 1673 1674 1675 1676 1677 1678 1679 1703 1704 1705 1706 1707 1708 1709 1710 1734 1735 1736 1737 1738 1739 1740 1741 1765 1766 1767 1768 1769 1770 1771 1772 1796 1797 1798 1799 1800 1801 1802 1803 1827 1828 1829 1830 1831 1832 1833 1834 1858 1859 1860 1861 1862 1863 1864 1865 1889 1890 1891 1892 1893 1894 1895 1896 1920 1921 1922 1923 1924 1925 1926 1927 1951 1952 1953 1954 1955 1956 1957 1958 1982 1983 1984 1985 1986 1987 1988 1989 2013 2014 2015 2016 2017 2018 2019 2020 2044 2045 2046 2047 2048 2049 2050 2051 2075 2076 2077 2078 2079 2080 2081 2082 2106 2107 2108 2109 2110 2111 2112 2113 2137 2138 2139 2140 2141 2142 2143 2144 2168 2169 2170 2171 2172 2173 2174 2175 2199 2200 2201 2202 2203 2204 2205 2206 2230 2231 2232 2233 2234 2235 2236 2237 2261 2262 2263 2264 2265 2266 2267 2268 2292 2293 2294 2295 2296 2297 2298 2299 2323 2324 2325 2326 2327 2328 2329 2330 2354 2355 2356 2357 2358 2359 2360 2361 2385 2386 2387 2388 2389 2390 2391 2392 2416 2417 2418 2419 2420 2421 2422 2423 2447 2448 2449 2450 2451 2452 2453 2454 2478 2479 2480 2481 2482 2483 2484 2485 2509 2510 2511 2512 2513 2514 2515 2516 2540 2541 2542 2543 2544 2545 2546 2547 2571 2572 2573 2574 2575 2576 2577 2578 2602 2603 2604 2605 2606 2607 2608 2609 2633 2634 2635 2636 2637 2638 2639 2640 2664 2665 2666 2667 2668 2669 2670 2671 2695 2696 2697 2698 2699 2700 2701 2702 2726 2727 2728 2729 2730 2731 2732 2733 2756 2757 2758 2759 2760 2761 2762 2785 2786 2787 2788 2789 2790 2791 2813 2814 2815 2816 2817 2818 2840 2841 2842 2843 2844 2845 2866 2867 2868 2869 2870 2890 2891 2892 2893 2913 2914 2915 2916 2934 2935 2952 
Rhop 1 2975 float
  1.0000000E+03   1.0000000E+03   1.0000000E+03   1.0000000E+03   1.0000000E+03   1.0000000E+03   1.0000000E+03   1.0000000E+03   1.0000000E+03   1.0000000E+03   1.0000000E+03   1.0000000E+03   1.0000000E+03   1.0000000E+03   1.0000000E+03   1.0000000E+03   1.0000000E+03   1.0000000E+03   1.0000000E+03   1.0000002E+03   1.0000000E+03   1.0000004E+03   1.0000009E+03   1.0000003E+03   1.0000010E+03   1.0000023E+03   1.0000009E+03   1.0000022E+03   1.0000045E+03   1.0000015E+03   1.0000039E+03   1.0000072E+03   1.0000025E+03   1.0000057E+03   1.0000105E+03   1.0000034E+03   1.0000078E+03   1.0000137E+03   1.0000043E+03   1.0000096E+03   1.0000170E+03   1.0000052E+03   1.0000115E+03   1.0000201E+03   1.0000061E+03   1.0000135E+03   1.0000239E+03   1.0000076E+03   1.0000164E+03   1.0000287E+03   1.0000094E+03   1.0000206E+03   1.0000362E+03   1.0000125E+03   1.0000275E+03   1.0000483E+03   1.0000182E+03   1.0000386E+03   1.0000666E+03   1.0000279E+03   1.0000553E+03   1.0000922E+03   1.0000784E+03   1.0001245E+03   1.0000000E+03   1.0000000E+03   1.0000000E+03   1.0000000E+03   1.0000000E+03   1.0000000E+03   1.0000000E+03   1.0000000E+03   1.0000000E+03   1.0000000E+03   1.0000000E+03   1.0000000E+03   1.0000000E+03   1.0000000E+03   1.0000000E+03   1.0000000E+03   1.0000000E+03   1.0000000E+03   1.0000000E+03   1.0000000E+03   1.0000000E+03   1.0000000E+03   1.0000000E+03   1.0000000E+03   1.0000000E+03   1.0000000E+03   1.0000000E+03   1.0000000E+03   1.0000000E+03   1.0000000E+03   1.0000000E+03   1.0000000E+03   1.0000000E+03   1.0000000E+03   1.0000000E+03   1.0000000E+03   1.0000001E+03   1.0000001E+03   1.0000002E+03   1.0000002E+03   1.0000000E+03   1.0000002E+03   1.0000004E+03   1.0000007E+03   1.0000009E+03   1.0000011E+03   1.0000012E+03   1.0000014E+03   1.0000006E+03   1.0000010E+03   1.0000016E+03   1.0000024E+03   1.0000032E+03   1.0000038E+03   1.0000042E+03   1.0000046E+03   1.0000018E+03   1.0000030E+03   1.0000045E+03   1.0000060E+03   1.0000078E+03   1.0000089E+03   1.0000100E+03   1.0000109E+03   1.0000040E+03   1.0000064E+03   1.0000093E+03   1.0000123E+03   1.0000152E+03   1.0000178E+03   1.0000198E+03   1.0000212E+03   1.0000074E+03   1.0000112E+03   1.0000160E+03   1.0000210E+03   1.0000258E+03   1.0000296E+03   1.0000328E+03   1.0000353E+03   1.0000118E+03   1.0000177E+03   1.0000245E+03   1.0000316E+03   1.0000383E+03   1.0000438E+03   1.0000482E+03   1.0000515E+03   1.0000167E+03   1.0000244E+03   1.0000334E+03   1.0000215E+03   1.0000312E+03   1.0000263E+03   1.0000377E+03   1.0000311E+03   1.0000443E+03   1.0000366E+03   1.0000521E+03   1.0000443E+03   1.0000629E+03   1.0000559E+03   1.0000784E+03   1.0000737E+03   1.0001020E+03   1.0001003E+03   1.0001361E+03   1.0001370E+03   1.0001818E+03   1.0001814E+03   1.0002374E+03   1.0000000E+03   1.0000000E+03   1.0000000E+03   1.0000000E+03   1.0000000E+03   1.0000000E+03   1.0000000E+03   1.0000000E+03   1.0000000E+03   1.0000000E+03   1.0000000E+03   1.0000000E+03   1.0000000E+03   1.0000000E+03   1.0000000E+03   1.0000000E+03   1.0000000E+03   1.0000000E+03   1.0000000E+03   1.0000000E+03   1.0000000E+03   1.0000000E+03   1.0000000E+03   1.0000000E+03   1.0000000E+03   1.0000000E+03   1.0000000E+03   1.0000000E+03   1.0000000E+03   1.0000000E+03   1.0000000E+03   1.0000000E+03   1.0000000E+03   1.0000000E+03   1.0000000E+03   1.0000000E+03   1.0000002E+03   1.0000002E+03   1.0000002E+03   1.0000002E+03   1.0000002E+03   1.0000002E+03   1.0000002E+03   1.0000002E+03   1.0000002E+03   1.0000015E+03   1.0000015E+03   1.0000015E+03   1.0000016E+03   1.0000016E+03   1.0000016E+03   1.0000016E+03   1.0000016E+03   1.0000016E+03   1.0000047E+03   1.0000049E+03   1.0000050E+03   1.0000050E+03   1.0000051E+03   1.0000052E+03   1.0000052E+03   1.0000052E+03   1.0000052E+03   1.0000114E+03   1.0000120E+03   1.0000121E+03   1.0000124E+03   1.0000126E+03   1.0000126E+03   1.0000126E+03   1.0000127E+03   1.0000127E+03   1.0000223E+03   1.0000233E+03   1.0000238E+03   1.0000243E+03   1.0000244E+03   1.0000244E+03   1.0000245E+03   1.0000245E+03   1.0000245E+03   1.0000370E+03   1.0000385E+03   1.0000394E+03   1.0000400E+03   1.0000405E+03   1.0000406E+03   1.0000407E+03   1.0000407E+03   1.0000408E+03   1.0000541E+03   1.0000559E+03   1.0000570E+03   1.0000579E+03   1.0000585E+03   1.0000588E+03   1.0000589E+03   1.0000590E+03   1.0000590E+03   1.0000000E+03   1.0000000E+03   1.0000000E+03   1.0000000E+03   1.0000000E+03   1.0000000E+03   1.0000000E+03   1.0000000E+03   1.0000000E+03   1.0000000E+03   1.0000000E+03   1.0000000E+03   1.0000000E+03   1.0000000E+03   1.0000000E+03   1.0000000E+03   1.0000000E+03   1.0000000E+03   1.0000000E+03   1.0000000E+03   1.0000000E+03   1.0000000E+03   1.0000000E+03   1.0000000E+03   1.0000000E+03   1.0000000E+03   1.0000000E+03   1.0000000E+03   1.0000000E+03   1.0000000E+03   1.0000000E+03   1.0000000E+03   1.0000002E+03   1.0000002E+03   1.0000002E+03   1.0000002E+03   1.0000002E+03   1.0000002E+03   1.0000002E+03   1.0000002E+03   1.0000016E+03   1.0000016E+03   1.0000016E+03   1.0000016E+03   1.0000016E+03   1.0000016E+03   1.0000016E+03   1.0000015E+03   1.0000052E+03   1.0000052E+03   1.0000052E+03   1.0000052E+03   1.0000052E+03   1.0000051E+03   1.0000050E+03   1.0000050E+03   1.0000127E+03   1.0000127E+03   1.0000127E+03   1.0000126E+03   1.0000126E+03   1.0000126E+03   1.0000124E+03   1.0000121E+03   1.0000245E+03   1.0000245E+03   1.0000245E+03   1.0000245E+03   1.0000244E+03   1.0000244E+03   1.0000243E+03   1.0000238E+03   1.0000408E+03   1.0000408E+03   1.0000407E+03   1.0000407E+03   1.0000406E+03   1.0000405E+03   1.0000400E+03   1.0000394E+03   1.0000590E+03   1.0000590E+03   1.0000590E+03   1.0000589E+03   1.0000588E+03   1.0000585E+03   1.0000579E+03   1.0000570E+03   1.0000000E+03   1.0000000E+03   1.0000000E+03   1.0000000E+03   1.0000000E+03   1.0000000E+03   1.0000000E+03   1.0000000E+03   1.0000000E+03   1.0000000E+03   1.0000000E+03   1.0000000E+03   1.0000000E+03   1.0000000E+03   1.0000000E+03   1.0000000E+03   1.0000000E+03   1.0000000E+03   1.0000000E+03   1.0000000E+03   1.0000000E+03   1.0000000E+03   1.0000000E+03   1.0000000E+03   1.0000000E+03   1.0000000E+03   1.0000000E+03   1.0000000E+03   1.0000000E+03   1.0000000E+03   1.0000000E+03   1.0000000E+03   1.0000000E+03   1.0000000E+03   1.0000000E+03   1.0000000E+03   1.0000002E+03   1.0000002E+03   1.0000002E+03   1.0000002E+03   1.0000001E+03   1.0000001E+03   1.0000000E+03   1.0000000E+03   1.0000000E+03   1.0000015E+03   1.0000015E+03   1.0000014E+03   1.0000012E+03   1.0000011E+03   1.0000009E+03   1.0000007E+03   1.0000004E+03   1.0000002E+03   1.0000049E+03   1.0000047E+03   1.0000046E+03   1.0000042E+03   1.0000038E+03   1.0000032E+03   1.0000024E+03   1.0000016E+03   1.0000010E+03   1.0000120E+03   1.0000114E+03   1.0000109E+03   1.0000100E+03   1.0000089E+03   1.0000078E+03   1.0000060E+03   1.0000045E+03   1.0000030E+03   1.0000233E+03   1.0000223E+03   1.0000212E+03   1.0000198E+03   1.0000178E+03   1.0000152E+03   1.0000123E+03   1.0000093E+03   1.0000064E+03   1.0000385E+03   1.0000370E+03   1.0000353E+03   1.0000328E+03   1.0000296E+03   1.0000258E+03   1.0000210E+03   1.0000160E+03   1.0000112E+03   1.0000559E+03   1.0000541E+03   1.0000515E+03   1.0000482E+03   1.0000438E+03   1.0000383E+03   1.0000316E+03   1.0000245E+03   1.0000177E+03   1.0000334E+03   1.0000244E+03   1.0000312E+03   1.0000377E+03   1.0000443E+03   1.0000521E+03   1.0000629E+03   1.0000784E+03   1.0001020E+03   1.0001361E+03   1.0001818E+03   1.0002374E+03   1.0000000E+03   1.0000000E+03   1.0000000E+03   1.0000000E+03   1.0000000E+03   1.0000000E+03   1.0000000E+03   1.0000000E+03   1.0000000E+03   1.0000000E+03   1.0000000E+03   1.0000000E+03   1.0000000E+03   1.0000000E+03   1.0000000E+03   1.0000000E+03   1.0000000E+03   1.0000000E+03   1.0000000E+03   1.0000000E+03   1.0000000E+03   1.0000000E+03   1.0000000E+03   1.0000006E+03   1.0000002E+03   1.0000000E+03   1.0000000E+03   1.0000018E+03   1.0000009E+03   1.0000004E+03   1.0000000E+03   1.0000040E+03   1.0000023E+03   1.0000010E+03   1.0000003E+03   1.0000074E+03   1.0000045E+03   1.0000022E+03   1.0000009E+03   1.0000118E+03   1.0000072E+03   1.0000039E+03   1.0000015E+03   1.0000167E+03   1.0000105E+03   1.0000057E+03   1.0000025E+03   1.0000215E+03   1.0000137E+03   1.0000078E+03   1.0000034E+03   1.0000263E+03   1.0000170E+03   1.0000096E+03   1.0000043E+03   1.0000311E+03   1.0000201E+03   1.0000115E+03   1.0000052E+03   1.0000366E+03   1.0000239E+03   1.0000135E+03   1.0000061E+03   1.0000443E+03   1.0000287E+03   1.0000164E+03   1.0000076E+03   1.0000559E+03   1.0000362E+03   1.0000206E+03   1.0000094E+03   1.0000737E+03   1.0000483E+03   1.0000275E+03   1.0000125E+03   1.0001003E+03   1.0000666E+03   1.0000386E+03   1.0000182E+03   1.0001370E+03   1.0000922E+03   1.0000553E+03   1.0000279E+03   1.0001814E+03   1.0001245E+03   1.0000784E+03   1.0000000E+03   1.0000000E+03   1.0000000E+03   1.0000000E+03   1.0000000E+03   1.0000000E+03   1.0000000E+03   1.0000000E+03   1.0000000E+03   1.0000000E+03   1.0000000E+03   1.0000000E+03   1.0000000E+03   1.0000000E+03   1.0000000E+03   1.0000000E+03   1.0000000E+03   1.0000000E+03   1.0000000E+03   1.0000000E+03   1.0000000E+03   1.0000000E+03   1.0000000E+03   1.0000000E+03   1.0000000E+03   1.0000000E+03   1.0000000E+03   1.0000000E+03   1.0000000E+03   1.0000000E+03   1.0000000E+03   1.0000000E+03   1.0000000E+03   1.0000000E+03   1.0000000E+03   1.0000000E+03   1.0000000E+03   1.0000000E+03   1.0000000E+03   1.0000000E+03   1.0000000E+03   1.0000000E+03   1.0000000E+03   1.0000000E+03   1.0000000E+03   1.0000000E+03   1.0000000E+03   1.0000000E+03   1.0000000E+03   1.0000000E+03   1.0000000E+03   1.0000000E+03   1.0000000E+03   1.0000000E+03   1.0000000E+03   1.0000000E+03   1.0000000E+03   1.0000000E+03   1.0000000E+03   1.0000000E+03   1.0000000E+03   1.0000000E+03   1.0000000E+03   1.0000000E+03   1.0000000E+03   1.0000000E+03   1.0000000E+03   1.0000000E+03   1.0000000E+03   1.0000000E+03   1.0000000E+03   1.0000000E+03   1.0000000E+03   1.0000000E+03   1.0000000E+03   1.0000000E+03   1.0000000E+03   1.0000000E+03   1.0000000E+03   1.0000000E+03   1.0000000E+03   1.0000000E+03   1.0000000E+03   1.0000000E+03   1.0000000E+03   1.0000000E+03   1.0000000E+03   1.0000000E+03   1.0000000E+03   1.0000000E+03   1.0000000E+03   1.0000000E+03   1.0000000E+03   1.0000000E+03   1.0000000E+03   1.0000000E+03   1.0000000E+03   1.0000000E+03   1.0000000E+03   1.0000000E+03   1.0000000E+03   1.0000000E+03   1.0000000E+03   1.0000000E+03   1.0000000E+03   1.0000000E+03   1.0000000E+03   1.0000000E+03   1.0000000E+03   1.0000000E+03   1.0000000E+03   1.0000000E+03   1.0000000E+03   1.0000000E+03   1.0000000E+03   1.0000000E+03   1.0000000E+03   1.0000000E+03   1.0000000E+03   1.0000000E+03   1.0000000E+03   1.0000000E+03   1.0000000E+03   1.0000000E+03   1.0000000E+03   1.0000000E+03   1.0000000E+03   1.0000000E+03   1.0000000E+03   1.0000000E+03   1.0000000E+03   1.0000000E+03   1.0000000E+03   1.0000000E+03   1.0000000E+03   1.0000000E+03   1.0000000E+03   1.0000000E+03   1.0000000E+03   1.0000000E+03   1.0000000E+03   1.0000000E+03   1.0000000E+03   1.0000000E+03   1.0000000E+03   1.0000000E+03   1.0000000E+03   1.0000000E+03   1.0000000E+03   1.0000000E+03   1.0000000E+03   1.0000000E+03   1.0000000E+03   1.0000000E+03   1.0000000E+03   1.0000000E+03   1.0000000E+03   1.0000000E+03   1.0000000E+03   1.0000000E+03   1.0000000E+03   1.0000000E+03   1.0000000E+03   1.0000000E+03   1.0000000E+03   1.0000000E+03   1.0000000E+03   1.0000000E+03   1.0000000E+03   1.0000000E+03   1.0000000E+03   1.0000000E+03   1.0000000E+03   1.0000000E+03   1.0000000E+03   1.0000000E+03   1.0000000E+03   1.0000000E+03   1.0000000E+03   1.0000000E+03   1.0000000E+03   1.0000000E+03   1.0000000E+03   1.0000000E+03   1.0000000E+03   1.0000000E+03   1.0000000E+03   1.0000000E+03   1.0000000E+03   1.0000000E+03   1.0000000E+03   1.0000000E+03   1.0000000E+03   1.0000000E+03   1.0000000E+03   1.0000000E+03   1.0000000E+03   1.0000000E+03   1.0000000E+03   1.0000000E+03   1.0000000E+03   1.0000000E+03   1.0000000E+03   1.0000000E+03   1.0000000E+03   1.0000000E+03   1.0000000E+03   1.0000000E+03   1.0000000E+03   1.0000000E+03   1.0000000E+03   1.0000000E+03   1.0000000E+03   1.0000000E+03   1.0000000E+03   1.0000000E+03   1.0000000E+03   1.0000000E+03   1.0000000E+03   1.0000000E+03   1.0000000E+03   1.0000000E+03   1.0000000E+03   1.0000000E+03   1.0000000E+03   1.0000000E+03   1.0000000E+03   1.0000000E+03   1.0000000E+03   1.0000000E+03   1.0000000E+03   1.0000000E+03   1.0000000E+03   1.0000000E+03   1.0000000E+03   1.0000000E+03   1.0000000E+03   1.0000000E+03   1.0000000E+03   1.0000000E+03   1.0000000E+03   1.0000000E+03   1.0000000E+03   1.0000000E+03   1.0000000E+03   1.0000000E+03   1.0000000E+03   1.0000000E+03   1.0000000E+03   1.0000000E+03   1.0000000E+03   1.0000000E+03   1.0000000E+03   1.0000000E+03   1.0000000E+03   1.0000000E+03   1.0000000E+03   1.0000000E+03   1.0000000E+03   1.0000000E+03   1.0000000E+03   1.0000000E+03   1.0000000E+03   1.0000000E+03   1.0000000E+03   1.0000000E+03   1.0000000E+03   1.0000000E+03   1.0000000E+03   1.0000000E+03   1.0000000E+03   1.0000000E+03   1.0000000E+03   1.0000000E+03   1.0000000E+03   1.0000000E+03   1.0000000E+03   1.0000000E+03   1.0000000E+03   1.0000000E+03   1.0000000E+03   1.0000000E+03   1.0000000E+03   1.0000000E+03   1.0000000E+03   1.0000000E+03   1.0000000E+03   1.0000000E+03   1.0000000E+03   1.0000000E+03   1.0000000E+03   1.0000000E+03   1.0000000E+03   1.0000000E+03   1.0000000E+03   1.0000000E+03   1.0000000E+03   1.0000000E+03   1.0000000E+03   1.0000000E+03   1.0000000E+03   1.0000000E+03   1.0000000E+03   1.0000000E+03   1.0000000E+03   1.0000000E+03   1.0000000E+03   1.0000000E+03   1.0000000E+03   1.0000000E+03   1.0000000E+03   1.0000000E+03   1.0000000E+03   1.0000000E+03   1.0000000E+03   1.0000000E+03   1.0000000E+03   1.0000000E+03   1.0000000E+03   1.0000000E+03   1.0000000E+03   1.0000000E+03   1.0000000E+03   1.0000000E+03   1.0000000E+03   1.0000000E+03   1.0000000E+03   1.0000000E+03   1.0000000E+03   1.0000000E+03   1.0000000E+03   1.0000000E+03   1.0000000E+03   1.0000000E+03   1.0000000E+03   1.0000000E+03   1.0000000E+03   1.0000000E+03   1.0000000E+03   1.0000000E+03   1.0000000E+03   1.0000000E+03   1.0000000E+03   1.0000000E+03   1.0000000E+03   1.0000000E+03   1.0000000E+03   1.0000000E+03   1.0000000E+03   1.0000000E+03   1.0000000E+03   1.0000000E+03   1.0000000E+03   1.0000000E+03   1.0000000E+03   1.0000000E+03   1.0000000E+03   1.0000000E+03   1.0000000E+03   1.0000000E+03   1.0000000E+03   1.0000000E+03   1.0000000E+03   1.0000000E+03   1.0000000E+03   1.0000000E+03   1.0000000E+03   1.0000000E+03   1.0000000E+03   1.0000000E+03   1.0000000E+03   1.0000000E+03   1.0000000E+03   1.0000000E+03   1.0000000E+03   1.0000000E+03   1.0000000E+03   1.0000000E+03   1.0000000E+03   1.0000000E+03   1.0000000E+03   1.0000000E+03   1.0000000E+03   1.0000000E+03   1.0000000E+03   1.0000000E+03   1.0000000E+03   1.0000000E+03   1.0000000E+03   1.0000000E+03   1.0000000E+03   1.0000000E+03   1.0000000E+03   1.0000000E+03   1.0000000E+03   1.0000000E+03   1.0000000E+03   1.0000000E+03   1.0000000E+03   1.0000000E+03   1.0000000E+03   1.0000000E+03   1.0000000E+03   1.0000000E+03   1.0000000E+03   1.0000000E+03   1.0000000E+03   1.0000000E+03   1.0000000E+03   1.0000000E+03   1.0000000E+03   1.0000000E+03   1.0000000E+03   1.0000000E+03   1.0000000E+03   1.0000000E+03   1.0000000E+03   1.0000000E+03   1.0000000E+03   1.0000000E+03   1.0000000E+03   1.0000000E+03   1.0000000E+03   1.0000000E+03   1.0000000E+03   1.0000000E+03   1.0000000E+03   1.0000000E+03   1.0000000E+03   1.0000000E+03   1.0000000E+03   1.0000000E+03   1.0000000E+03   1.0000000E+03   1.0000000E+03   1.0000000E+03   1.0000000E+03   1.0000000E+03   1.0000000E+03   1.0000000E+03   1.0000000E+03   1.0000000E+03   1.0000000E+03   1.0000000E+03   1.0000000E+03   1.0000000E+03   1.0000000E+03   1.0000000E+03   1.0000000E+03   1.0000000E+03   1.0000000E+03   1.0000000E+03   1.0000000E+03   1.0000000E+03   1.0000000E+03   1.0000000E+03   1.0000000E+03   1.0000000E+03   1.0000000E+03   1.0000000E+03   1.0000000E+03   1.0000000E+03   1.0000000E+03   1.0000000E+03   1.0000000E+03   1.0000000E+03   1.0000000E+03   1.0000000E+03   1.0000000E+03   1.0000000E+03   1.0000000E+03   1.0000000E+03   1.0000425E+03   1.0000507E+03   1.0000576E+03   1.0000630E+03   1.0000670E+03   1.0000415E+03   1.0000527E+03   1.0000621E+03   1.0000698E+03   1.0000759E+03   1.0000804E+03   1.0000497E+03   1.0000623E+03   1.0000731E+03   1.0000817E+03   1.0000882E+03   1.0000930E+03   1.0000582E+03   1.0000728E+03   1.0000848E+03   1.0000944E+03   1.0001014E+03   1.0001063E+03   1.0000685E+03   1.0000851E+03   1.0000986E+03   1.0001092E+03   1.0001169E+03   1.0001217E+03   1.0000826E+03   1.0001016E+03   1.0001166E+03   1.0001277E+03   1.0001357E+03   1.0001407E+03   1.0001050E+03   1.0001252E+03   1.0001407E+03   1.0001514E+03   1.0001588E+03   1.0001639E+03   1.0001405E+03   1.0001608E+03   1.0001734E+03   1.0001818E+03   1.0001876E+03   1.0001913E+03   1.0001946E+03   1.0002115E+03   1.0002171E+03   1.0002198E+03   1.0002217E+03   1.0002236E+03   1.0002703E+03   1.0002767E+03   1.0002707E+03   1.0002643E+03   1.0002612E+03   1.0002602E+03   1.0003603E+03   1.0003503E+03   1.0003294E+03   1.0003132E+03   1.0003044E+03   1.0003010E+03   1.0004352E+03   1.0004186E+03   1.0003866E+03   1.0003631E+03   1.0003508E+03   1.0003455E+03   1.0004575E+03   1.0004617E+03   1.0004349E+03   1.0004118E+03   1.0003990E+03   1.0003937E+03   1.0004641E+03   1.0004857E+03   1.0004759E+03   1.0004598E+03   1.0004504E+03   1.0004467E+03   1.0004904E+03   1.0005150E+03   1.0005190E+03   1.0005120E+03   1.0005075E+03   1.0005056E+03   1.0005415E+03   1.0005638E+03   1.0005734E+03   1.0005731E+03   1.0005721E+03   1.0005720E+03   1.0006144E+03   1.0006333E+03   1.0006435E+03   1.0006457E+03   1.0006468E+03   1.0006476E+03   1.0007037E+03   1.0007194E+03   1.0007285E+03   1.0007307E+03   1.0007324E+03   1.0007336E+03   1.0008049E+03   1.0008194E+03   1.0008271E+03   1.0008287E+03   1.0008303E+03   1.0008314E+03   1.0009195E+03   1.0009341E+03   1.0009404E+03   1.0009407E+03   1.0009421E+03   1.0009427E+03   1.0010505E+03   1.0010654E+03   1.0010700E+03   1.0010688E+03   1.0010692E+03   1.0010687E+03   1.0012017E+03   1.0012157E+03   1.0012183E+03   1.0012148E+03   1.0012130E+03   1.0012104E+03   1.0013749E+03   1.0013873E+03   1.0013875E+03   1.0013802E+03   1.0013748E+03   1.0013685E+03   1.0015725E+03   1.0015825E+03   1.0015798E+03   1.0015668E+03   1.0015551E+03   1.0015436E+03   1.0017916E+03   1.0018000E+03   1.0017937E+03   1.0017705E+03   1.0017492E+03   1.0017302E+03   1.0020233E+03   1.0020317E+03   1.0020194E+03   1.0019800E+03   1.0019453E+03   1.0019160E+03   1.0022565E+03   1.0022677E+03   1.0022449E+03   1.0021803E+03   1.0021288E+03   1.0020891E+03   1.0024758E+03   1.0024905E+03   1.0024490E+03   1.0023513E+03   1.0022817E+03   1.0022332E+03   1.0026850E+03   1.0027020E+03   1.0026321E+03   1.0024973E+03   1.0024128E+03   1.0023618E+03   1.0029542E+03   1.0029694E+03   1.0028691E+03   1.0027039E+03   1.0026148E+03   1.0025712E+03   1.0035287E+03   1.0035381E+03   1.0034275E+03   1.0032595E+03   1.0031816E+03   1.0031597E+03   1.0049470E+03   1.0049593E+03   1.0049090E+03   1.0047834E+03   1.0047354E+03   1.0047477E+03   1.0077345E+03   1.0077761E+03   1.0078375E+03   1.0078468E+03   1.0078630E+03   1.0079163E+03   1.0111685E+03   1.0112626E+03   1.0114162E+03   1.0116091E+03   1.0117357E+03   1.0118374E+03   1.0134258E+03   1.0135589E+03   1.0137361E+03   1.0140299E+03   1.0142643E+03   1.0144099E+03   1.0140199E+03   1.0141269E+03   1.0142297E+03   1.0145245E+03   1.0148050E+03   1.0149755E+03   1.0138268E+03   1.0138828E+03   1.0138796E+03   1.0140773E+03   1.0143197E+03   1.0144772E+03   1.0136548E+03   1.0136764E+03   1.0136625E+03   1.0137225E+03   1.0138445E+03   1.0139280E+03   1.0137863E+03   1.0137599E+03   1.0137729E+03   1.0137230E+03   1.0137382E+03   1.0137515E+03   1.0141521E+03   1.0140850E+03   1.0141195E+03   1.0140140E+03   1.0139678E+03   1.0139384E+03   1.0145764E+03   1.0144790E+03   1.0145229E+03   1.0144111E+03   1.0143510E+03   1.0143104E+03   1.0149096E+03   1.0147977E+03   1.0148395E+03   1.0147540E+03   1.0147174E+03   1.0146921E+03   1.0148788E+03   1.0147672E+03   1.0148051E+03   1.0147486E+03   1.0147487E+03   1.0147526E+03   1.0145300E+03   1.0144328E+03   1.0144745E+03   1.0144481E+03   1.0144875E+03   1.0145274E+03   1.0139792E+03   1.0139080E+03   1.0139672E+03   1.0139761E+03   1.0140559E+03   1.0141346E+03   1.0133081E+03   1.0132766E+03   1.0133706E+03   1.0134230E+03   1.0135439E+03   1.0136614E+03   1.0125427E+03   1.0125649E+03   1.0127068E+03   1.0128129E+03   1.0129737E+03   1.0131233E+03   1.0116724E+03   1.0117622E+03   1.0119538E+03   1.0121152E+03   1.0123027E+03   1.0124796E+03   1.0106864E+03   1.0108430E+03   1.0110820E+03   1.0112758E+03   1.0114878E+03   1.0116835E+03   1.0096080E+03   1.0098168E+03   1.0100857E+03   1.0102934E+03   1.0105271E+03   1.0107311E+03   1.0084990E+03   1.0087389E+03   1.0090090E+03   1.0092211E+03   1.0094633E+03   1.0096663E+03   1.0074310E+03   1.0076791E+03   1.0079285E+03   1.0081299E+03   1.0083647E+03   1.0085593E+03   1.0064240E+03   1.0066832E+03   1.0069094E+03   1.0070912E+03   1.0073043E+03   1.0074825E+03   1.0054471E+03   1.0057558E+03   1.0059855E+03   1.0061549E+03   1.0063387E+03   1.0064906E+03   1.0045397E+03   1.0049286E+03   1.0051995E+03   1.0053555E+03   1.0054966E+03   1.0056146E+03   1.0042311E+03   1.0045635E+03   1.0046945E+03   1.0047881E+03   1.0048651E+03   1.0036378E+03   1.0039943E+03   1.0041482E+03   1.0042040E+03   1.0042431E+03   1.0034147E+03   1.0036425E+03   1.0037029E+03   1.0037356E+03   1.0028679E+03   1.0030795E+03   1.0032289E+03   1.0032966E+03   1.0025239E+03   1.0027122E+03   1.0028511E+03   1.0021964E+03   1.0023406E+03   1.0019984E+03   1.0018771E+03   1.0000701E+03   1.0000724E+03   1.0000737E+03   1.0000750E+03   1.0000754E+03   1.0000759E+03   1.0000760E+03   1.0000760E+03   1.0000760E+03   1.0000837E+03   1.0000863E+03   1.0000879E+03   1.0000891E+03   1.0000895E+03   1.0000900E+03   1.0000900E+03   1.0000900E+03   1.0000900E+03   1.0000964E+03   1.0000988E+03   1.0001006E+03   1.0001014E+03   1.0001021E+03   1.0001022E+03   1.0001022E+03   1.0001022E+03   1.0001021E+03   1.0001097E+03   1.0001120E+03   1.0001135E+03   1.0001141E+03   1.0001146E+03   1.0001146E+03   1.0001144E+03   1.0001142E+03   1.0001142E+03   1.0001251E+03   1.0001271E+03   1.0001283E+03   1.0001286E+03   1.0001286E+03   1.0001283E+03   1.0001281E+03   1.0001279E+03   1.0001276E+03   1.0001437E+03   1.0001454E+03   1.0001462E+03   1.0001461E+03   1.0001458E+03   1.0001454E+03   1.0001447E+03   1.0001443E+03   1.0001442E+03   1.0001666E+03   1.0001677E+03   1.0001678E+03   1.0001674E+03   1.0001664E+03   1.0001656E+03   1.0001647E+03   1.0001641E+03   1.0001636E+03   1.0001935E+03   1.0001938E+03   1.0001933E+03   1.0001922E+03   1.0001908E+03   1.0001895E+03   1.0001884E+03   1.0001876E+03   1.0001871E+03   1.0002243E+03   1.0002243E+03   1.0002230E+03   1.0002211E+03   1.0002192E+03   1.0002174E+03   1.0002157E+03   1.0002147E+03   1.0002141E+03   1.0002597E+03   1.0002586E+03   1.0002565E+03   1.0002538E+03   1.0002513E+03   1.0002490E+03   1.0002472E+03   1.0002457E+03   1.0002450E+03   1.0002993E+03   1.0002973E+03   1.0002943E+03   1.0002913E+03   1.0002880E+03   1.0002853E+03   1.0002831E+03   1.0002816E+03   1.0002806E+03   1.0003430E+03   1.0003405E+03   1.0003370E+03   1.0003331E+03   1.0003294E+03   1.0003262E+03   1.0003239E+03   1.0003221E+03   1.0003210E+03   1.0003912E+03   1.0003885E+03   1.0003847E+03   1.0003804E+03   1.0003764E+03   1.0003731E+03   1.0003703E+03   1.0003683E+03   1.0003671E+03   1.0004448E+03   1.0004420E+03   1.0004382E+03   1.0004339E+03   1.0004295E+03   1.0004258E+03   1.0004229E+03   1.0004208E+03   1.0004195E+03   1.0005043E+03   1.0005021E+03   1.0004984E+03   1.0004937E+03   1.0004893E+03   1.0004851E+03   1.0004823E+03   1.0004800E+03   1.0004788E+03   1.0005714E+03   1.0005692E+03   1.0005657E+03   1.0005612E+03   1.0005568E+03   1.0005528E+03   1.0005494E+03   1.0005471E+03   1.0005459E+03   1.0006472E+03   1.0006453E+03   1.0006418E+03   1.0006371E+03   1.0006325E+03   1.0006285E+03   1.0006251E+03   1.0006227E+03   1.0006215E+03   1.0007334E+03   1.0007315E+03   1.0007277E+03   1.0007231E+03   1.0007180E+03   1.0007139E+03   1.0007103E+03   1.0007077E+03   1.0007064E+03   1.0008311E+03   1.0008287E+03   1.0008245E+03   1.0008190E+03   1.0008137E+03   1.0008091E+03   1.0008054E+03   1.0008027E+03   1.0008011E+03   1.0009417E+03   1.0009383E+03   1.0009330E+03   1.0009266E+03   1.0009206E+03   1.0009153E+03   1.0009109E+03   1.0009080E+03   1.0009061E+03   1.0010663E+03   1.0010613E+03   1.0010544E+03   1.0010466E+03   1.0010389E+03   1.0010326E+03   1.0010274E+03   1.0010236E+03   1.0010215E+03   1.0012059E+03   1.0011984E+03   1.0011890E+03   1.0011786E+03   1.0011689E+03   1.0011608E+03   1.0011544E+03   1.0011497E+03   1.0011467E+03   1.0013602E+03   1.0013494E+03   1.0013362E+03   1.0013225E+03   1.0013098E+03   1.0012993E+03   1.0012910E+03   1.0012849E+03   1.0012811E+03   1.0015305E+03   1.0015143E+03   1.0014957E+03   1.0014772E+03   1.0014605E+03   1.0014465E+03   1.0014357E+03   1.0014278E+03   1.0014233E+03   1.0017096E+03   1.0016867E+03   1.0016616E+03   1.0016364E+03   1.0016144E+03   1.0015965E+03   1.0015826E+03   1.0015728E+03   1.0015669E+03   1.0018871E+03   1.0018553E+03   1.0018217E+03   1.0017896E+03   1.0017614E+03   1.0017386E+03   1.0017218E+03   1.0017094E+03   1.0017026E+03   1.0020511E+03   1.0020104E+03   1.0019676E+03   1.0019269E+03   1.0018922E+03   1.0018647E+03   1.0018441E+03   1.0018297E+03   1.0018215E+03   1.0021885E+03   1.0021406E+03   1.0020898E+03   1.0020414E+03   1.0020004E+03   1.0019683E+03   1.0019448E+03   1.0019283E+03   1.0019187E+03   1.0023164E+03   1.0022664E+03   1.0022114E+03   1.0021580E+03   1.0021124E+03   1.0020767E+03   1.0020505E+03   1.0020327E+03   1.0020222E+03   1.0025355E+03   1.0024921E+03   1.0024406E+03   1.0023877E+03   1.0023408E+03   1.0023037E+03   1.0022767E+03   1.0022585E+03   1.0022474E+03   1.0031459E+03   1.0031215E+03   1.0030829E+03   1.0030380E+03   1.0029956E+03   1.0029604E+03   1.0029343E+03   1.0029163E+03   1.0029055E+03   1.0047689E+03   1.0047745E+03   1.0047601E+03   1.0047322E+03   1.0047001E+03   1.0046712E+03   1.0046486E+03   1.0046323E+03   1.0046225E+03   1.0079792E+03   1.0080231E+03   1.0080399E+03   1.0080355E+03   1.0080201E+03   1.0080021E+03   1.0079855E+03   1.0079734E+03   1.0079654E+03   1.0119385E+03   1.0120189E+03   1.0120674E+03   1.0120883E+03   1.0120925E+03   1.0120886E+03   1.0120820E+03   1.0120751E+03   1.0120699E+03   1.0145350E+03   1.0146386E+03   1.0147103E+03   1.0147532E+03   1.0147770E+03   1.0147881E+03   1.0147926E+03   1.0147928E+03   1.0147913E+03   1.0151053E+03   1.0152130E+03   1.0152936E+03   1.0153503E+03   1.0153890E+03   1.0154150E+03   1.0154313E+03   1.0154398E+03   1.0154434E+03   1.0145917E+03   1.0146851E+03   1.0147610E+03   1.0148219E+03   1.0148707E+03   1.0149088E+03   1.0149363E+03   1.0149533E+03   1.0149618E+03   1.0139962E+03   1.0140613E+03   1.0141226E+03   1.0141790E+03   1.0142308E+03   1.0142753E+03   1.0143099E+03   1.0143325E+03   1.0143444E+03   1.0137750E+03   1.0138111E+03   1.0138535E+03   1.0138991E+03   1.0139459E+03   1.0139890E+03   1.0140240E+03   1.0140472E+03   1.0140596E+03   1.0139333E+03   1.0139492E+03   1.0139755E+03   1.0140088E+03   1.0140461E+03   1.0140823E+03   1.0141118E+03   1.0141315E+03   1.0141410E+03   1.0142974E+03   1.0143066E+03   1.0143254E+03   1.0143502E+03   1.0143786E+03   1.0144065E+03   1.0144283E+03   1.0144416E+03   1.0144473E+03   1.0146896E+03   1.0147060E+03   1.0147278E+03   1.0147510E+03   1.0147748E+03   1.0147966E+03   1.0148120E+03   1.0148198E+03   1.0148216E+03   1.0147728E+03   1.0148071E+03   1.0148398E+03   1.0148680E+03   1.0148930E+03   1.0149130E+03   1.0149254E+03   1.0149297E+03   1.0149290E+03   1.0145773E+03   1.0146340E+03   1.0146821E+03   1.0147201E+03   1.0147502E+03   1.0147723E+03   1.0147848E+03   1.0147888E+03   1.0147873E+03   1.0142165E+03   1.0142962E+03   1.0143599E+03   1.0144077E+03   1.0144440E+03   1.0144697E+03   1.0144844E+03   1.0144890E+03   1.0144884E+03   1.0137734E+03   1.0138725E+03   1.0139472E+03   1.0140008E+03   1.0140405E+03   1.0140681E+03   1.0140841E+03   1.0140903E+03   1.0140902E+03   1.0132597E+03   1.0133698E+03   1.0134469E+03   1.0134991E+03   1.0135369E+03   1.0135626E+03   1.0135776E+03   1.0135829E+03   1.0135827E+03   1.0126295E+03   1.0127401E+03   1.0128109E+03   1.0128552E+03   1.0128852E+03   1.0129058E+03   1.0129171E+03   1.0129210E+03   1.0129196E+03   1.0118370E+03   1.0119410E+03   1.0120005E+03   1.0120333E+03   1.0120538E+03   1.0120678E+03   1.0120751E+03   1.0120768E+03   1.0120750E+03   1.0108826E+03   1.0109776E+03   1.0110262E+03   1.0110487E+03   1.0110609E+03   1.0110696E+03   1.0110746E+03   1.0110750E+03   1.0110732E+03   1.0098138E+03   1.0099022E+03   1.0099439E+03   1.0099603E+03   1.0099686E+03   1.0099745E+03   1.0099784E+03   1.0099795E+03   1.0099785E+03   1.0087016E+03   1.0087885E+03   1.0088293E+03   1.0088465E+03   1.0088550E+03   1.0088613E+03   1.0088661E+03   1.0088684E+03   1.0088691E+03   1.0076164E+03   1.0077048E+03   1.0077529E+03   1.0077767E+03   1.0077899E+03   1.0077988E+03   1.0078055E+03   1.0078099E+03   1.0078117E+03   1.0066097E+03   1.0067000E+03   1.0067603E+03   1.0067969E+03   1.0068192E+03   1.0068332E+03   1.0068423E+03   1.0068484E+03   1.0068515E+03   1.0057111E+03   1.0057969E+03   1.0058699E+03   1.0059239E+03   1.0059598E+03   1.0059821E+03   1.0059957E+03   1.0060038E+03   1.0060081E+03   1.0049301E+03   1.0050024E+03   1.0050809E+03   1.0051526E+03   1.0052067E+03   1.0052424E+03   1.0052639E+03   1.0052759E+03   1.0052817E+03   1.0042719E+03   1.0043192E+03   1.0043904E+03   1.0044712E+03   1.0045437E+03   1.0045976E+03   1.0046323E+03   1.0046523E+03   1.0046622E+03   1.0037384E+03   1.0037527E+03   1.0038013E+03   1.0038754E+03   1.0039556E+03   1.0040255E+03   1.0040764E+03   1.0041089E+03   1.0041260E+03   1.0033177E+03   1.0033099E+03   1.0033242E+03   1.0033732E+03   1.0034434E+03   1.0035157E+03   1.0035768E+03   1.0036203E+03   1.0036458E+03   1.0029441E+03   1.0029747E+03   1.0029683E+03   1.0029795E+03   1.0030188E+03   1.0030743E+03   1.0031299E+03   1.0031751E+03   1.0032043E+03   1.0025314E+03   1.0026533E+03   1.0027045E+03   1.0027020E+03   1.0027001E+03   1.0027185E+03   1.0027503E+03   1.0027830E+03   1.0028067E+03   1.0020767E+03   1.0022577E+03   1.0024002E+03   1.0024732E+03   1.0024811E+03   1.0024658E+03   1.0024598E+03   1.0024654E+03   1.0024743E+03   1.0018127E+03   1.0019036E+03   1.0020145E+03   1.0021296E+03   1.0022188E+03   1.0022571E+03   1.0022560E+03   1.0022437E+03   1.0022366E+03   1.0018344E+03   1.0017997E+03   1.0018245E+03   1.0018582E+03   1.0019022E+03   1.0019371E+03   1.0019578E+03   1.0019655E+03   1.0018275E+03   1.0017476E+03   1.0017291E+03   1.0016931E+03   1.0016606E+03   1.0016345E+03   1.0018903E+03   1.0018510E+03   1.0018137E+03   1.0017816E+03   1.0000760E+03   1.0000760E+03   1.0000760E+03   1.0000760E+03   1.0000759E+03   1.0000754E+03   1.0000750E+03   1.0000737E+03   1.0000900E+03   1.0000900E+03   1.0000900E+03   1.0000900E+03   1.0000900E+03   1.0000895E+03   1.0000891E+03   1.0000879E+03   1.0001021E+03   1.0001021E+03   1.0001022E+03   1.0001022E+03   1.0001022E+03   1.0001021E+03   1.0001014E+03   1.0001006E+03   1.0001142E+03   1.0001142E+03   1.0001142E+03   1.0001144E+03   1.0001146E+03   1.0001146E+03   1.0001141E+03   1.0001135E+03   1.0001276E+03   1.0001276E+03   1.0001279E+03   1.0001281E+03   1.0001283E+03   1.0001286E+03   1.0001286E+03   1.0001283E+03   1.0001440E+03   1.0001442E+03   1.0001443E+03   1.0001447E+03   1.0001454E+03   1.0001458E+03   1.0001461E+03   1.0001462E+03   1.0001635E+03   1.0001636E+03   1.0001641E+03   1.0001647E+03   1.0001656E+03   1.0001664E+03   1.0001674E+03   1.0001678E+03   1.0001867E+03   1.0001871E+03   1.0001876E+03   1.0001884E+03   1.0001895E+03   1.0001908E+03   1.0001922E+03   1.0001933E+03   1.0002138E+03   1.0002141E+03   1.0002147E+03   1.0002157E+03   1.0002174E+03   1.0002192E+03   1.0002211E+03   1.0002230E+03   1.0002446E+03   1.0002450E+03   1.0002457E+03   1.0002472E+03   1.0002490E+03   1.0002513E+03   1.0002538E+03   1.0002565E+03   1.0002802E+03   1.0002806E+03   1.0002816E+03   1.0002831E+03   1.0002853E+03   1.0002880E+03   1.0002913E+03   1.0002943E+03   1.0003207E+03   1.0003210E+03   1.0003221E+03   1.0003239E+03   1.0003262E+03   1.0003294E+03   1.0003331E+03   1.0003370E+03   1.0003667E+03   1.0003671E+03   1.0003683E+03   1.0003703E+03   1.0003731E+03   1.0003764E+03   1.0003804E+03   1.0003847E+03   1.0004191E+03   1.0004195E+03   1.0004208E+03   1.0004229E+03   1.0004258E+03   1.0004295E+03   1.0004339E+03   1.0004382E+03   1.0004783E+03   1.0004788E+03   1.0004800E+03   1.0004823E+03   1.0004851E+03   1.0004893E+03   1.0004937E+03   1.0004984E+03   1.0005454E+03   1.0005459E+03   1.0005471E+03   1.0005494E+03   1.0005528E+03   1.0005568E+03   1.0005612E+03   1.0005657E+03   1.0006209E+03   1.0006215E+03   1.0006227E+03   1.0006251E+03   1.0006285E+03   1.0006325E+03   1.0006371E+03   1.0006418E+03   1.0007059E+03   1.0007064E+03   1.0007077E+03   1.0007103E+03   1.0007139E+03   1.0007180E+03   1.0007231E+03   1.0007277E+03   1.0008005E+03   1.0008011E+03   1.0008027E+03   1.0008054E+03   1.0008091E+03   1.0008137E+03   1.0008190E+03   1.0008245E+03   1.0009053E+03   1.0009061E+03   1.0009080E+03   1.0009109E+03   1.0009153E+03   1.0009206E+03   1.0009266E+03   1.0009330E+03   1.0010208E+03   1.0010215E+03   1.0010236E+03   1.0010274E+03   1.0010326E+03   1.0010389E+03   1.0010466E+03   1.0010544E+03   1.0011459E+03   1.0011467E+03   1.0011497E+03   1.0011544E+03   1.0011608E+03   1.0011689E+03   1.0011786E+03   1.0011890E+03   1.0012798E+03   1.0012811E+03   1.0012849E+03   1.0012910E+03   1.0012993E+03   1.0013098E+03   1.0013225E+03   1.0013362E+03   1.0014217E+03   1.0014233E+03   1.0014278E+03   1.0014357E+03   1.0014465E+03   1.0014605E+03   1.0014772E+03   1.0014957E+03   1.0015651E+03   1.0015669E+03   1.0015728E+03   1.0015826E+03   1.0015965E+03   1.0016144E+03   1.0016364E+03   1.0016616E+03   1.0017001E+03   1.0017026E+03   1.0017094E+03   1.0017218E+03   1.0017386E+03   1.0017614E+03   1.0017896E+03   1.0018217E+03   1.0018185E+03   1.0018215E+03   1.0018297E+03   1.0018441E+03   1.0018647E+03   1.0018922E+03   1.0019269E+03   1.0019676E+03   1.0019155E+03   1.0019187E+03   1.0019283E+03   1.0019448E+03   1.0019683E+03   1.0020004E+03   1.0020414E+03   1.0020898E+03   1.0020186E+03   1.0020222E+03   1.0020327E+03   1.0020505E+03   1.0020767E+03   1.0021124E+03   1.0021580E+03   1.0022114E+03   1.0022437E+03   1.0022474E+03   1.0022585E+03   1.0022767E+03   1.0023037E+03   1.0023408E+03   1.0023877E+03   1.0024406E+03   1.0029019E+03   1.0029055E+03   1.0029163E+03   1.0029343E+03   1.0029604E+03   1.0029956E+03   1.0030380E+03   1.0030829E+03   1.0046191E+03   1.0046225E+03   1.0046323E+03   1.0046486E+03   1.0046712E+03   1.0047001E+03   1.0047322E+03   1.0047601E+03   1.0079626E+03   1.0079654E+03   1.0079734E+03   1.0079855E+03   1.0080021E+03   1.0080201E+03   1.0080355E+03   1.0080399E+03   1.0120681E+03   1.0120699E+03   1.0120751E+03   1.0120820E+03   1.0120886E+03   1.0120925E+03   1.0120883E+03   1.0120674E+03   1.0147909E+03   1.0147913E+03   1.0147928E+03   1.0147926E+03   1.0147881E+03   1.0147770E+03   1.0147532E+03   1.0147103E+03   1.0154442E+03   1.0154434E+03   1.0154398E+03   1.0154313E+03   1.0154150E+03   1.0153890E+03   1.0153503E+03   1.0152936E+03   1.0149641E+03   1.0149618E+03   1.0149533E+03   1.0149363E+03   1.0149088E+03   1.0148707E+03   1.0148219E+03   1.0147610E+03   1.0143479E+03   1.0143444E+03   1.0143325E+03   1.0143099E+03   1.0142753E+03   1.0142308E+03   1.0141790E+03   1.0141226E+03   1.0140632E+03   1.0140596E+03   1.0140472E+03   1.0140240E+03   1.0139890E+03   1.0139459E+03   1.0138991E+03   1.0138535E+03   1.0141436E+03   1.0141410E+03   1.0141315E+03   1.0141118E+03   1.0140823E+03   1.0140461E+03   1.0140088E+03   1.0139755E+03   1.0144487E+03   1.0144473E+03   1.0144416E+03   1.0144283E+03   1.0144065E+03   1.0143786E+03   1.0143502E+03   1.0143254E+03   1.0148215E+03   1.0148216E+03   1.0148198E+03   1.0148120E+03   1.0147966E+03   1.0147748E+03   1.0147510E+03   1.0147278E+03   1.0149282E+03   1.0149290E+03   1.0149297E+03   1.0149254E+03   1.0149130E+03   1.0148930E+03   1.0148680E+03   1.0148398E+03   1.0147862E+03   1.0147873E+03   1.0147888E+03   1.0147848E+03   1.0147723E+03   1.0147502E+03   1.0147201E+03   1.0146821E+03   1.0144875E+03   1.0144883E+03   1.0144890E+03   1.0144844E+03   1.0144697E+03   1.0144440E+03   1.0144077E+03   1.0143599E+03   1.0140890E+03   1.0140902E+03   1.0140903E+03   1.0140841E+03   1.0140681E+03   1.0140405E+03   1.0140008E+03   1.0139472E+03   1.0135818E+03   1.0135827E+03   1.0135829E+03   1.0135776E+03   1.0135626E+03   1.0135369E+03   1.0134991E+03   1.0134469E+03   1.0129185E+03   1.0129196E+03   1.0129210E+03   1.0129171E+03   1.0129058E+03   1.0128852E+03   1.0128552E+03   1.0128109E+03   1.0120737E+03   1.0120750E+03   1.0120768E+03   1.0120751E+03   1.0120678E+03   1.0120538E+03   1.0120333E+03   1.0120005E+03   1.0110723E+03   1.0110732E+03   1.0110750E+03   1.0110746E+03   1.0110696E+03   1.0110609E+03   1.0110487E+03   1.0110262E+03   1.0099777E+03   1.0099785E+03   1.0099795E+03   1.0099784E+03   1.0099745E+03   1.0099686E+03   1.0099603E+03   1.0099439E+03   1.0088690E+03   1.0088691E+03   1.0088684E+03   1.0088661E+03   1.0088613E+03   1.0088550E+03   1.0088465E+03   1.0088293E+03   1.0078123E+03   1.0078117E+03   1.0078099E+03   1.0078055E+03   1.0077988E+03   1.0077899E+03   1.0077767E+03   1.0077529E+03   1.0068526E+03   1.0068515E+03   1.0068484E+03   1.0068423E+03   1.0068332E+03   1.0068192E+03   1.0067969E+03   1.0067603E+03   1.0060093E+03   1.0060081E+03   1.0060038E+03   1.0059957E+03   1.0059821E+03   1.0059598E+03   1.0059239E+03   1.0058699E+03   1.0052833E+03   1.0052817E+03   1.0052759E+03   1.0052639E+03   1.0052424E+03   1.0052067E+03   1.0051526E+03   1.0050809E+03   1.0046652E+03   1.0046622E+03   1.0046523E+03   1.0046323E+03   1.0045976E+03   1.0045437E+03   1.0044712E+03   1.0043904E+03   1.0041317E+03   1.0041260E+03   1.0041089E+03   1.0040764E+03   1.0040255E+03   1.0039556E+03   1.0038754E+03   1.0038013E+03   1.0036541E+03   1.0036458E+03   1.0036203E+03   1.0035768E+03   1.0035157E+03   1.0034434E+03   1.0033732E+03   1.0033242E+03   1.0032141E+03   1.0032043E+03   1.0031751E+03   1.0031299E+03   1.0030743E+03   1.0030188E+03   1.0029795E+03   1.0029683E+03   1.0028152E+03   1.0028067E+03   1.0027830E+03   1.0027503E+03   1.0027185E+03   1.0027001E+03   1.0027020E+03   1.0027045E+03   1.0024781E+03   1.0024743E+03   1.0024654E+03   1.0024598E+03   1.0024658E+03   1.0024811E+03   1.0024732E+03   1.0024002E+03   1.0022344E+03   1.0022366E+03   1.0022437E+03   1.0022560E+03   1.0022571E+03   1.0022188E+03   1.0021296E+03   1.0020145E+03   1.0019678E+03   1.0019655E+03   1.0019578E+03   1.0019371E+03   1.0019022E+03   1.0018582E+03   1.0018245E+03   1.0017997E+03   1.0016247E+03   1.0016345E+03   1.0016606E+03   1.0016931E+03   1.0017291E+03   1.0017476E+03   1.0018275E+03   1.0017689E+03   1.0017816E+03   1.0018137E+03   1.0018510E+03   1.0018903E+03   1.0000724E+03   1.0000701E+03   1.0000670E+03   1.0000630E+03   1.0000576E+03   1.0000507E+03   1.0000425E+03   1.0000863E+03   1.0000837E+03   1.0000804E+03   1.0000759E+03   1.0000698E+03   1.0000621E+03   1.0000527E+03   1.0000415E+03   1.0000988E+03   1.0000964E+03   1.0000930E+03   1.0000882E+03   1.0000817E+03   1.0000731E+03   1.0000623E+03   1.0000497E+03   1.0001120E+03   1.0001097E+03   1.0001063E+03   1.0001014E+03   1.0000944E+03   1.0000848E+03   1.0000728E+03   1.0000582E+03   1.0001271E+03   1.0001251E+03   1.0001217E+03   1.0001169E+03   1.0001092E+03   1.0000986E+03   1.0000851E+03   1.0000685E+03   1.0001454E+03   1.0001437E+03   1.0001407E+03   1.0001357E+03   1.0001277E+03   1.0001166E+03   1.0001016E+03   1.0000826E+03   1.0001677E+03   1.0001666E+03   1.0001639E+03   1.0001588E+03   1.0001514E+03   1.0001407E+03   1.0001252E+03   1.0001050E+03   1.0001938E+03   1.0001935E+03   1.0001913E+03   1.0001876E+03   1.0001818E+03   1.0001734E+03   1.0001608E+03   1.0001405E+03   1.0002243E+03   1.0002243E+03   1.0002236E+03   1.0002217E+03   1.0002198E+03   1.0002171E+03   1.0002115E+03   1.0001946E+03   1.0002586E+03   1.0002597E+03   1.0002602E+03   1.0002612E+03   1.0002643E+03   1.0002707E+03   1.0002767E+03   1.0002703E+03   1.0002973E+03   1.0002993E+03   1.0003010E+03   1.0003044E+03   1.0003132E+03   1.0003294E+03   1.0003503E+03   1.0003603E+03   1.0003405E+03   1.0003430E+03   1.0003455E+03   1.0003508E+03   1.0003631E+03   1.0003866E+03   1.0004186E+03   1.0004352E+03   1.0003885E+03   1.0003912E+03   1.0003937E+03   1.0003990E+03   1.0004118E+03   1.0004349E+03   1.0004617E+03   1.0004575E+03   1.0004420E+03   1.0004448E+03   1.0004467E+03   1.0004504E+03   1.0004598E+03   1.0004759E+03   1.0004857E+03   1.0004641E+03   1.0005021E+03   1.0005043E+03   1.0005056E+03   1.0005075E+03   1.0005120E+03   1.0005190E+03   1.0005150E+03   1.0004904E+03   1.0005692E+03   1.0005714E+03   1.0005720E+03   1.0005721E+03   1.0005731E+03   1.0005734E+03   1.0005638E+03   1.0005415E+03   1.0006453E+03   1.0006472E+03   1.0006476E+03   1.0006468E+03   1.0006457E+03   1.0006435E+03   1.0006333E+03   1.0006144E+03   1.0007315E+03   1.0007334E+03   1.0007336E+03   1.0007324E+03   1.0007307E+03   1.0007285E+03   1.0007194E+03   1.0007037E+03   1.0008287E+03   1.0008311E+03   1.0008314E+03   1.0008303E+03   1.0008287E+03   1.0008271E+03   1.0008194E+03   1.0008049E+03   1.0009383E+03   1.0009417E+03   1.0009427E+03   1.0009421E+03   1.0009407E+03   1.0009404E+03   1.0009341E+03   1.0009195E+03   1.0010613E+03   1.0010663E+03   1.0010687E+03   1.0010692E+03   1.0010688E+03   1.0010700E+03   1.0010654E+03   1.0010505E+03   1.0011984E+03   1.0012059E+03   1.0012104E+03   1.0012130E+03   1.0012148E+03   1.0012183E+03   1.0012157E+03   1.0012017E+03   1.0013494E+03   1.0013602E+03   1.0013685E+03   1.0013748E+03   1.0013802E+03   1.0013875E+03   1.0013873E+03   1.0013749E+03   1.0015143E+03   1.0015305E+03   1.0015436E+03   1.0015551E+03   1.0015668E+03   1.0015798E+03   1.0015825E+03   1.0015725E+03   1.0016867E+03   1.0017096E+03   1.0017302E+03   1.0017492E+03   1.0017705E+03   1.0017937E+03   1.0018000E+03   1.0017916E+03   1.0018553E+03   1.0018871E+03   1.0019160E+03   1.0019453E+03   1.0019800E+03   1.0020194E+03   1.0020317E+03   1.0020233E+03   1.0020104E+03   1.0020511E+03   1.0020891E+03   1.0021288E+03   1.0021803E+03   1.0022449E+03   1.0022677E+03   1.0022565E+03   1.0021406E+03   1.0021885E+03   1.0022332E+03   1.0022817E+03   1.0023513E+03   1.0024490E+03   1.0024905E+03   1.0024758E+03   1.0022664E+03   1.0023164E+03   1.0023618E+03   1.0024128E+03   1.0024973E+03   1.0026321E+03   1.0027020E+03   1.0026850E+03   1.0024921E+03   1.0025355E+03   1.0025712E+03   1.0026148E+03   1.0027039E+03   1.0028691E+03   1.0029694E+03   1.0029542E+03   1.0031215E+03   1.0031459E+03   1.0031597E+03   1.0031816E+03   1.0032595E+03   1.0034275E+03   1.0035381E+03   1.0035287E+03   1.0047745E+03   1.0047689E+03   1.0047477E+03   1.0047354E+03   1.0047834E+03   1.0049090E+03   1.0049593E+03   1.0049470E+03   1.0080231E+03   1.0079792E+03   1.0079163E+03   1.0078630E+03   1.0078468E+03   1.0078375E+03   1.0077761E+03   1.0077345E+03   1.0120189E+03   1.0119385E+03   1.0118374E+03   1.0117357E+03   1.0116091E+03   1.0114162E+03   1.0112626E+03   1.0111685E+03   1.0146386E+03   1.0145350E+03   1.0144099E+03   1.0142643E+03   1.0140299E+03   1.0137361E+03   1.0135589E+03   1.0134258E+03   1.0152130E+03   1.0151053E+03   1.0149755E+03   1.0148050E+03   1.0145245E+03   1.0142297E+03   1.0141269E+03   1.0140199E+03   1.0146851E+03   1.0145917E+03   1.0144772E+03   1.0143197E+03   1.0140773E+03   1.0138796E+03   1.0138828E+03   1.0138268E+03   1.0140613E+03   1.0139962E+03   1.0139280E+03   1.0138445E+03   1.0137225E+03   1.0136625E+03   1.0136764E+03   1.0136548E+03   1.0138111E+03   1.0137750E+03   1.0137515E+03   1.0137382E+03   1.0137230E+03   1.0137729E+03   1.0137599E+03   1.0137863E+03   1.0139492E+03   1.0139333E+03   1.0139384E+03   1.0139678E+03   1.0140140E+03   1.0141195E+03   1.0140850E+03   1.0141521E+03   1.0143066E+03   1.0142974E+03   1.0143104E+03   1.0143510E+03   1.0144111E+03   1.0145229E+03   1.0144790E+03   1.0145764E+03   1.0147060E+03   1.0146896E+03   1.0146921E+03   1.0147174E+03   1.0147540E+03   1.0148395E+03   1.0147977E+03   1.0149096E+03   1.0148071E+03   1.0147728E+03   1.0147526E+03   1.0147487E+03   1.0147486E+03   1.0148051E+03   1.0147672E+03   1.0148788E+03   1.0146340E+03   1.0145773E+03   1.0145273E+03   1.0144875E+03   1.0144481E+03   1.0144745E+03   1.0144328E+03   1.0145300E+03   1.0142962E+03   1.0142165E+03   1.0141346E+03   1.0140559E+03   1.0139761E+03   1.0139672E+03   1.0139080E+03   1.0139792E+03   1.0138725E+03   1.0137734E+03   1.0136614E+03   1.0135439E+03   1.0134230E+03   1.0133706E+03   1.0132766E+03   1.0133081E+03   1.0133698E+03   1.0132597E+03   1.0131233E+03   1.0129737E+03   1.0128129E+03   1.0127068E+03   1.0125649E+03   1.0125427E+03   1.0127401E+03   1.0126295E+03   1.0124796E+03   1.0123028E+03   1.0121152E+03   1.0119538E+03   1.0117622E+03   1.0116724E+03   1.0119410E+03   1.0118370E+03   1.0116835E+03   1.0114878E+03   1.0112758E+03   1.0110820E+03   1.0108430E+03   1.0106864E+03   1.0109776E+03   1.0108826E+03   1.0107311E+03   1.0105271E+03   1.0102934E+03   1.0100857E+03   1.0098168E+03   1.0096080E+03   1.0099022E+03   1.0098138E+03   1.0096663E+03   1.0094633E+03   1.0092211E+03   1.0090090E+03   1.0087389E+03   1.0084990E+03   1.0087885E+03   1.0087016E+03   1.0085593E+03   1.0083647E+03   1.0081299E+03   1.0079285E+03   1.0076791E+03   1.0074310E+03   1.0077048E+03   1.0076164E+03   1.0074825E+03   1.0073043E+03   1.0070912E+03   1.0069094E+03   1.0066832E+03   1.0064240E+03   1.0067000E+03   1.0066097E+03   1.0064906E+03   1.0063387E+03   1.0061549E+03   1.0059855E+03   1.0057558E+03   1.0054471E+03   1.0057969E+03   1.0057111E+03   1.0056146E+03   1.0054966E+03   1.0053555E+03   1.0051995E+03   1.0049286E+03   1.0045397E+03   1.0050024E+03   1.0049301E+03   1.0048651E+03   1.0047881E+03   1.0046945E+03   1.0045635E+03   1.0042311E+03   1.0043192E+03   1.0042719E+03   1.0042431E+03   1.0042040E+03   1.0041482E+03   1.0039943E+03   1.0036378E+03   1.0037527E+03   1.0037384E+03   1.0037356E+03   1.0037029E+03   1.0036425E+03   1.0034147E+03   1.0033099E+03   1.0033177E+03   1.0032966E+03   1.0032289E+03   1.0030795E+03   1.0028679E+03   1.0029747E+03   1.0029441E+03   1.0028511E+03   1.0027122E+03   1.0025239E+03   1.0026533E+03   1.0025314E+03   1.0023406E+03   1.0021964E+03   1.0022577E+03   1.0020767E+03   1.0018771E+03   1.0019984E+03   1.0019036E+03   1.0018127E+03   1.0018344E+03 
Mass 1 2975 float
  4.0000001E-01   4.0000001E-01   4.0000001E-01   4.0000001E-01   4.0000001E-01   4.0000001E-01   4.0000001E-01   4.0000001E-01   4.0000001E-01   4.0000001E-01   4.0000001E-01   4.0000001E-01   4.0000001E-01   4.0000001E-01   4.0000001E-01   4.0000001E-01   4.0000001E-01   4.0000001E-01   4.0000001E-01   4.0000001E-01   4.0000001E-01   4.0000001E-01   4.0000001E-01   4.0000001E-01   4.0000001E-01   4.0000001E-01   4.0000001E-01   4.0000001E-01   4.0000001E-01   4.0000001E-01   4.0000001E-01   4.0000001E-01   4.0000001E-01   4.0000001E-01   4.0000001E-01   4.0000001E-01   4.0000001E-01   4.0000001E-01   4.0000001E-01   4.0000001E-01   4.0000001E-01   4.0000001E-01   4.0000001E-01   4.0000001E-01   4.0000001E-01   4.0000001E-01   4.0000001E-01   4.0000001E-01   4.0000001E-01   4.0000001E-01   4.0000001E-01   4.0000001E-01   4.0000001E-01   4.0000001E-01   4.0000001E-01   4.0000001E-01   4.0000001E-01   4.0000001E-01   4.0000001E-01   4.0000001E-01   4.0000001E-01   4.0000001E-01   4.0000001E-01   4.0000001E-01   4.0000001E-01   4.0000001E-01   4.0000001E-01   4.0000001E-01   4.0000001E-01   4.0000001E-01   4.0000001E-01   4.0000001E-01   4.0000001E-01   4.0000001E-01   4.0000001E-01   4.0000001E-01   4.0000001E-01   4.0000001E-01   4.0000001E-01   4.0000001E-01   4.0000001E-01   4.0000001E-01   4.0000001E-01   4.0000001E-01   4.0000001E-01   4.0000001E-01   4.0000001E-01   4.0000001E-01   4.0000001E-01   4.0000001E-01   4.0000001E-01   4.0000001E-01   4.0000001E-01   4.0000001E-01   4.0000001E-01   4.0000001E-01   4.0000001E-01   4.0000001E-01   4.0000001E-01   4.0000001E-01   4.0000001E-01   4.0000001E-01   4.0000001E-01   4.0000001E-01   4.0000001E-01   4.0000001E-01   4.0000001E-01   4.0000001E-01   4.0000001E-01   4.0000001E-01   4.0000001E-01   4.0000001E-01   4.0000001E-01   4.0000001E-01   4.0000001E-01   4.0000001E-01   4.0000001E-01   4.0000001E-01   4.0000001E-01   4.0000001E-01   4.0000001E-01   4.0000001E-01   4.0000001E-01   4.0000001E-01   4.0000001E-01   4.0000001E-01   4.0000001E-01   4.0000001E-01   4.0000001E-01   4.0000001E-01   4.0000001E-01   4.0000001E-01   4.0000001E-01   4.0000001E-01   4.0000001E-01   4.0000001E-01   4.0000001E-01   4.0000001E-01   4.0000001E-01   4.0000001E-01   4.0000001E-01   4.0000001E-01   4.0000001E-01   4.0000001E-01   4.0000001E-01   4.0000001E-01   4.0000001E-01   4.0000001E-01   4.0000001E-01   4.0000001E-01   4.0000001E-01   4.0000001E-01   4.0000001E-01   4.0000001E-01   4.0000001E-01   4.0000001E-01   4.0000001E-01   4.0000001E-01   4.0000001E-01   4.0000001E-01   4.0000001E-01   4.0000001E-01   4.0000001E-01   4.0000001E-01   4.0000001E-01   4.0000001E-01   4.0000001E-01   4.0000001E-01   4.0000001E-01   4.0000001E-01   4.0000001E-01   4.0000001E-01   4.0000001E-01   4.0000001E-01   4.0000001E-01   4.0000001E-01   4.0000001E-01   4.0000001E-01   4.0000001E-01   4.0000001E-01   4.0000001E-01   4.0000001E-01   4.0000001E-01   4.0000001E-01   4.0000001E-01   4.0000001E-01   4.0000001E-01   4.0000001E-01   4.0000001E-01   4.0000001E-01   4.0000001E-01   4.0000001E-01   4.0000001E-01   4.0000001E-01   4.0000001E-01   4.0000001E-01   4.0000001E-01   4.0000001E-01   4.0000001E-01   4.0000001E-01   4.0000001E-01   4.0000001E-01   4.0000001E-01   4.0000001E-01   4.0000001E-01   4.0000001E-01   4.0000001E-01   4.0000001E-01   4.0000001E-01   4.0000001E-01   4.0000001E-01   4.0000001E-01   4.0000001E-01   4.0000001E-01   4.0000001E-01   4.0000001E-01   4.0000001E-01   4.0000001E-01   4.0000001E-01   4.0000001E-01   4.0000001E-01   4.0000001E-01   4.0000001E-01   4.0000001E-01   4.0000001E-01   4.0000001E-01   4.0000001E-01   4.0000001E-01   4.0000001E-01   4.0000001E-01   4.0000001E-01   4.0000001E-01   4.0000001E-01   4.0000001E-01   4.0000001E-01   4.0000001E-01   4.0000001E-01   4.0000001E-01   4.0000001E-01   4.0000001E-01   4.0000001E-01   4.0000001E-01   4.0000001E-01   4.0000001E-01   4.0000001E-01   4.0000001E-01   4.0000001E-01   4.0000001E-01   4.0000001E-01   4.0000001E-01   4.0000001E-01   4.0000001E-01   4.0000001E-01   4.0000001E-01   4.0000001E-01   4.0000001E-01   4.0000001E-01   4.0000001E-01   4.0000001E-01   4.0000001E-01   4.0000001E-01   4.0000001E-01   4.0000001E-01   4.0000001E-01   4.0000001E-01   4.0000001E-01   4.0000001E-01   4.0000001E-01   4.0000001E-01   4.0000001E-01   4.0000001E-01   4.0000001E-01   4.0000001E-01   4.0000001E-01   4.0000001E-01   4.0000001E-01   4.0000001E-01   4.0000001E-01   4.0000001E-01   4.0000001E-01   4.0000001E-01   4.0000001E-01   4.0000001E-01   4.0000001E-01   4.0000001E-01   4.0000001E-01   4.0000001E-01   4.0000001E-01   4.0000001E-01   4.0000001E-01   4.0000001E-01   4.0000001E-01   4.0000001E-01   4.0000001E-01   4.0000001E-01   4.0000001E-01   4.0000001E-01   4.0000001E-01   4.0000001E-01   4.0000001E-01   4.0000001E-01   4.0000001E-01   4.0000001E-01   4.0000001E-01   4.0000001E-01   4.0000001E-01   4.0000001E-01   4.0000001E-01   4.0000001E-01   4.0000001E-01   4.0000001E-01   4.0000001E-01   4.0000001E-01   4.0000001E-01   4.0000001E-01   4.0000001E-01   4.0000001E-01   4.0000001E-01   4.0000001E-01   4.0000001E-01   4.0000001E-01   4.0000001E-01   4.0000001E-01   4.0000001E-01   4.0000001E-01   4.0000001E-01   4.0000001E-01   4.0000001E-01   4.0000001E-01   4.0000001E-01   4.0000001E-01   4.0000001E-01   4.0000001E-01   4.0000001E-01   4.0000001E-01   4.0000001E-01   4.0000001E-01   4.0000001E-01   4.0000001E-01   4.0000001E-01   4.0000001E-01   4.0000001E-01   4.0000001E-01   4.0000001E-01   4.0000001E-01   4.0000001E-01   4.0000001E-01   4.0000001E-01   4.0000001E-01   4.0000001E-01   4.0000001E-01   4.0000001E-01   4.0000001E-01   4.0000001E-01   4.0000001E-01   4.0000001E-01   4.0000001E-01   4.0000001E-01   4.0000001E-01   4.0000001E-01   4.0000001E-01   4.0000001E-01   4.0000001E-01   4.0000001E-01   4.0000001E-01   4.0000001E-01   4.0000001E-01   4.0000001E-01   4.0000001E-01   4.0000001E-01   4.0000001E-01   4.0000001E-01   4.0000001E-01   4.0000001E-01   4.0000001E-01   4.0000001E-01   4.0000001E-01   4.0000001E-01   4.0000001E-01   4.0000001E-01   4.0000001E-01   4.0000001E-01   4.0000001E-01   4.0000001E-01   4.0000001E-01   4.0000001E-01   4.0000001E-01   4.0000001E-01   4.0000001E-01   4.0000001E-01   4.0000001E-01   4.0000001E-01   4.0000001E-01   4.0000001E-01   4.0000001E-01   4.0000001E-01   4.0000001E-01   4.0000001E-01   4.0000001E-01   4.0000001E-01   4.0000001E-01   4.0000001E-01   4.0000001E-01   4.0000001E-01   4.0000001E-01   4.0000001E-01   4.0000001E-01   4.0000001E-01   4.0000001E-01   4.0000001E-01   4.0000001E-01   4.0000001E-01   4.0000001E-01   4.0000001E-01   4.0000001E-01   4.0000001E-01   4.0000001E-01   4.0000001E-01   4.0000001E-01   4.0000001E-01   4.0000001E-01   4.0000001E-01   4.0000001E-01   4.0000001E-01   4.0000001E-01   4.0000001E-01   4.0000001E-01   4.0000001E-01   4.0000001E-01   4.0000001E-01   4.0000001E-01   4.0000001E-01   4.0000001E-01   4.0000001E-01   4.0000001E-01   4.0000001E-01   4.0000001E-01   4.0000001E-01   4.0000001E-01   4.0000001E-01   4.0000001E-01   4.0000001E-01   4.0000001E-01   4.0000001E-01   4.0000001E-01   4.0000001E-01   4.0000001E-01   4.0000001E-01   4.0000001E-01   4.0000001E-01   4.0000001E-01   4.0000001E-01   4.0000001E-01   4.0000001E-01   4.0000001E-01   4.0000001E-01   4.0000001E-01   4.0000001E-01   4.0000001E-01   4.0000001E-01   4.0000001E-01   4.0000001E-01   4.0000001E-01   4.0000001E-01   4.0000001E-01   4.0000001E-01   4.0000001E-01   4.0000001E-01   4.0000001E-01   4.0000001E-01   4.0000001E-01   4.0000001E-01   4.0000001E-01   4.0000001E-01   4.0000001E-01   4.0000001E-01   4.0000001E-01   4.0000001E-01   4.0000001E-01   4.0000001E-01   4.0000001E-01   4.0000001E-01   4.0000001E-01   4.0000001E-01   4.0000001E-01   4.0000001E-01   4.0000001E-01   4.0000001E-01   4.0000001E-01   4.0000001E-01   4.0000001E-01   4.0000001E-01   4.0000001E-01   4.0000001E-01   4.0000001E-01   4.0000001E-01   4.0000001E-01   4.0000001E-01   4.0000001E-01   4.0000001E-01   4.0000001E-01   4.0000001E-01   4.0000001E-01   4.0000001E-01   4.0000001E-01   4.0000001E-01   4.0000001E-01   4.0000001E-01   4.0000001E-01   4.0000001E-01   4.0000001E-01   4.0000001E-01   4.0000001E-01   4.0000001E-01   4.0000001E-01   4.0000001E-01   4.0000001E-01   4.0000001E-01   4.0000001E-01   4.0000001E-01   4.0000001E-01   4.0000001E-01   4.0000001E-01   4.0000001E-01   4.0000001E-01   4.0000001E-01   4.0000001E-01   4.0000001E-01   4.0000001E-01   4.0000001E-01   4.0000001E-01   4.0000001E-01   4.0000001E-01   4.0000001E-01   4.0000001E-01   4.0000001E-01   4.0000001E-01   4.0000001E-01   4.0000001E-01   4.0000001E-01   4.0000001E-01   4.0000001E-01   4.0000001E-01   4.0000001E-01   4.0000001E-01   4.0000001E-01   4.0000001E-01   4.0000001E-01   4.0000001E-01   4.0000001E-01   4.0000001E-01   4.0000001E-01   4.0000001E-01   4.0000001E-01   4.0000001E-01   4.0000001E-01   4.0000001E-01   4.0000001E-01   4.0000001E-01   4.0000001E-01   4.0000001E-01   4.0000001E-01   4.0000001E-01   4.0000001E-01   4.0000001E-01   4.0000001E-01   4.0000001E-01   4.0000001E-01   4.0000001E-01   4.0000001E-01   4.0000001E-01   4.0000001E-01   4.0000001E-01   4.0000001E-01   4.0000001E-01   4.0000001E-01   4.0000001E-01   4.0000001E-01   4.0000001E-01   4.0000001E-01   4.0000001E-01   4.0000001E-01   4.0000001E-01   4.0000001E-01   4.0000001E-01   4.0000001E-01   4.0000001E-01   4.0000001E-01   4.0000001E-01   4.0000001E-01   4.0000001E-01   4.0000001E-01   4.0000001E-01   4.0000001E-01   4.0000001E-01   4.0000001E-01   4.0000001E-01   4.0000001E-01   4.0000001E-01   4.0000001E-01   4.0000001E-01   4.0000001E-01   4.0000001E-01   4.0000001E-01   4.0000001E-01   4.0000001E-01   4.0000001E-01   4.0000001E-01   4.0000001E-01   4.0000001E-01   4.0000001E-01   4.0000001E-01   4.0000001E-01   4.0000001E-01   4.0000001E-01   4.0000001E-01   4.0000001E-01   4.0000001E-01   4.0000001E-01   4.0000001E-01   4.0000001E-01   4.0000001E-01   4.0000001E-01   4.0000001E-01   4.0000001E-01   4.0000001E-01   4.0000001E-01   4.0000001E-01   4.0000001E-01   4.0000001E-01   4.0000001E-01   4.0000001E-01   4.0000001E-01   4.0000001E-01   4.0000001E-01   4.0000001E-01   4.0000001E-01   4.0000001E-01   4.0000001E-01   4.0000001E-01   4.0000001E-01   4.0000001E-01   4.0000001E-01   4.0000001E-01   4.0000001E-01   4.0000001E-01   4.0000001E-01   4.0000001E-01   4.0000001E-01   4.0000001E-01   4.0000001E-01   4.0000001E-01   4.0000001E-01   4.0000001E-01   4.0000001E-01   4.0000001E-01   4.0000001E-01   4.0000001E-01   4.0000001E-01   4.0000001E-01   4.0000001E-01   4.0000001E-01   4.0000001E-01   4.0000001E-01   4.0000001E-01   4.0000001E-01   4.0000001E-01   4.0000001E-01   4.0000001E-01   4.0000001E-01   4.0000001E-01   4.0000001E-01   4.0000001E-01   4.0000001E-01   4.0000001E-01   4.0000001E-01   4.0000001E-01   4.0000001E-01   4.0000001E-01   4.0000001E-01   4.0000001E-01   4.0000001E-01   4.0000001E-01   4.0000001E-01   4.0000001E-01   4.0000001E-01   4.0000001E-01   4.0000001E-01   4.0000001E-01   4.0000001E-01   4.0000001E-01   4.0000001E-01   4.0000001E-01   4.0000001E-01   4.0000001E-01   4.0000001E-01   4.0000001E-01   4.0000001E-01   4.0000001E-01   4.0000001E-01   4.0000001E-01   4.0000001E-01   4.0000001E-01   4.0000001E-01   4.0000001E-01   4.0000001E-01   4.0000001E-01   4.0000001E-01   4.0000001E-01   4.0000001E-01   4.0000001E-01   4.0000001E-01   4.0000001E-01   4.0000001E-01   4.0000001E-01   4.0000001E-01   4.0000001E-01   4.0000001E-01   4.0000001E-01   4.0000001E-01   4.0000001E-01   4.0000001E-01   4.0000001E-01   4.0000001E-01   4.0000001E-01   4.0000001E-01   4.0000001E-01   4.0000001E-01   4.0000001E-01   4.0000001E-01   4.0000001E-01   4.0000001E-01   4.0000001E-01   4.0000001E-01   4.0000001E-01   4.0000001E-01   4.0000001E-01   4.0000001E-01   4.0000001E-01   4.0000001E-01   4.0000001E-01   4.0000001E-01   4.0000001E-01   4.0000001E-01   4.0000001E-01   4.0000001E-01   4.0000001E-01   4.0000001E-01   4.0000001E-01   4.0000001E-01   4.0000001E-01   4.0000001E-01   4.0000001E-01   4.0000001E-01   4.0000001E-01   4.0000001E-01   4.0000001E-01   4.0000001E-01   4.0000001E-01   4.0000001E-01   4.0000001E-01   4.0000001E-01   4.0000001E-01   4.0000001E-01   4.0000001E-01   4.0000001E-01   4.0000001E-01   4.0000001E-01   4.0000001E-01   4.0000001E-01   4.0000001E-01   4.0000001E-01   4.0000001E-01   4.0000001E-01   4.0000001E-01   4.0000001E-01   4.0000001E-01   4.0000001E-01   4.0000001E-01   4.0000001E-01   4.0000001E-01   4.0000001E-01   4.0000001E-01   4.0000001E-01   4.0000001E-01   4.0000001E-01   4.0000001E-01   4.0000001E-01   4.0000001E-01   4.0000001E-01   4.0000001E-01   4.0000001E-01   4.0000001E-01   4.0000001E-01   4.0000001E-01   4.0000001E-01   4.0000001E-01   4.0000001E-01   4.0000001E-01   4.0000001E-01   4.0000001E-01   4.0000001E-01   4.0000001E-01   4.0000001E-01   4.0000001E-01   4.0000001E-01   4.0000001E-01   4.0000001E-01   4.0000001E-01   4.0000001E-01   4.0000001E-01   4.0000001E-01   4.0000001E-01   4.0000001E-01   4.0000001E-01   4.0000001E-01   4.0000001E-01   4.0000001E-01   4.0000001E-01   4.0000001E-01   4.0000001E-01   4.0000001E-01   4.0000001E-01   4.0000001E-01   4.0000001E-01   4.0000001E-01   4.0000001E-01   4.0000001E-01   4.0000001E-01   4.0000001E-01   4.0000001E-01   4.0000001E-01   4.0000001E-01   4.0000001E-01   4.0000001E-01   4.0000001E-01   4.0000001E-01   4.0000001E-01   4.0000001E-01   4.0000001E-01   4.0000001E-01   4.0000001E-01   4.0000001E-01   4.0000001E-01   4.0000001E-01   4.0000001E-01   4.0000001E-01   4.0000001E-01   4.0000001E-01   4.0000001E-01   4.0000001E-01   4.0000001E-01   4.0000001E-01   4.0000001E-01   4.0000001E-01   4.0000001E-01   4.0000001E-01   4.0000001E-01   4.0000001E-01   4.0000001E-01   4.0000001E-01   4.0000001E-01   4.0000001E-01   4.0000001E-01   4.0000001E-01   4.0000001E-01   4.0000001E-01   4.0000001E-01   4.0000001E-01   4.0000001E-01   4.0000001E-01   4.0000001E-01   4.0000001E-01   4.0000001E-01   4.0000001E-01   4.0000001E-01   4.0000001E-01   4.0000001E-01   4.0000001E-01   4.0000001E-01   4.0000001E-01   4.0000001E-01   4.0000001E-01   4.0000001E-01   4.0000001E-01   4.0000001E-01   4.0000001E-01   4.0000001E-01   4.0000001E-01   4.0000001E-01   4.0000001E-01   4.0000001E-01   4.0000001E-01   4.0000001E-01   4.0000001E-01   4.0000001E-01   4.0000001E-01   4.0000001E-01   4.0000001E-01   4.0000001E-01   4.0000001E-01   4.0000001E-01   4.0000001E-01   4.0000001E-01   4.0000001E-01   4.0000001E-01   4.0000001E-01   4.0000001E-01   4.0000001E-01   4.0000001E-01   4.0000001E-01   4.0000001E-01   4.0000001E-01   4.0000001E-01   4.0000001E-01   4.0000001E-01   4.0000001E-01   4.0000001E-01   4.0000001E-01   4.0000001E-01   4.0000001E-01   4.0000001E-01   4.0000001E-01   4.0000001E-01   4.0000001E-01   4.0000001E-01   4.0000001E-01   4.0000001E-01   4.0000001E-01   4.0000001E-01   4.0000001E-01   4.0000001E-01   4.0000001E-01   4.0000001E-01   4.0000001E-01   4.0000001E-01   4.0000001E-01   4.0000001E-01   4.0000001E-01   4.0000001E-01   4.0000001E-01   4.0000001E-01   4.0000001E-01   4.0000001E-01   4.0000001E-01   4.0000001E-01   4.0000001E-01   4.0000001E-01   4.0000001E-01   4.0000001E-01   4.0000001E-01   4.0000001E-01   4.0000001E-01   4.0000001E-01   4.0000001E-01   4.0000001E-01   4.0000001E-01   4.0000001E-01   4.0000001E-01   4.0000001E-01   4.0000001E-01   4.0000001E-01   4.0000001E-01   4.0000001E-01   4.0000001E-01   4.0000001E-01   4.0000001E-01   4.0000001E-01   4.0000001E-01   4.0000001E-01   4.0000001E-01   4.0000001E-01   4.0000001E-01   4.0000001E-01   4.0000001E-01   4.0000001E-01   4.0000001E-01   4.0000001E-01   4.0000001E-01   4.0000001E-01   4.0000001E-01   4.0000001E-01   4.0000001E-01   4.0000001E-01   4.0000001E-01   4.0000001E-01   4.0000001E-01   4.0000001E-01   4.0000001E-01   4.0000001E-01   4.0000001E-01   4.0000001E-01   4.0000001E-01   4.0000001E-01   4.0000001E-01   4.0000001E-01   4.0000001E-01   4.0000001E-01   4.0000001E-01   4.0000001E-01   4.0000001E-01   4.0000001E-01   4.0000001E-01   4.0000001E-01   4.0000001E-01   4.0000001E-01   4.0000001E-01   4.0000001E-01   4.0000001E-01   4.0000001E-01   4.0000001E-01   4.0000001E-01   4.0000001E-01   4.0000001E-01   4.0000001E-01   4.0000001E-01   4.0000001E-01   4.0000001E-01   4.0000001E-01   4.0000001E-01   4.0000001E-01   4.0000001E-01   4.0000001E-01   4.0000001E-01   4.0000001E-01   4.0000001E-01   4.0000001E-01   4.0000001E-01   4.0000001E-01   4.0000001E-01   4.0000001E-01   4.0000001E-01   4.0000001E-01   4.0000001E-01   4.0000001E-01   4.0000001E-01   4.0000001E-01   4.0000001E-01   4.0000001E-01   4.0000001E-01   4.0000001E-01   4.0000001E-01   4.0000001E-01   4.0000001E-01   4.0000001E-01   4.0000001E-01   4.0000001E-01   4.0000001E-01   4.0000001E-01   4.0000001E-01   4.0000001E-01   4.0000001E-01   4.0000001E-01   4.0000001E-01   4.0000001E-01   4.0000001E-01   4.0000001E-01   4.0000001E-01   4.0000001E-01   4.0000001E-01   4.0000001E-01   4.0000001E-01   4.0000001E-01   4.0000001E-01   4.0000001E-01   4.0000001E-01   4.0000001E-01   4.0000001E-01   4.0000001E-01   4.0000001E-01   4.0000001E-01   4.0000001E-01   4.0000001E-01   4.0000001E-01   4.0000001E-01   4.0000001E-01   4.0000001E-01   4.0000001E-01   4.0000001E-01   4.0000001E-01   4.0000001E-01   4.0000001E-01   4.0000001E-01   4.0000001E-01   4.0000001E-01   4.0000001E-01   4.0000001E-01   4.0000001E-01   4.0000001E-01   4.0000001E-01   4.0000001E-01   4.0000001E-01   4.0000001E-01   4.0000001E-01   4.0000001E-01   4.0000001E-01   4.0000001E-01   4.0000001E-01   4.0000001E-01   4.0000001E-01   4.0000001E-01   4.0000001E-01   4.0000001E-01   4.0000001E-01   4.0000001E-01   4.0000001E-01   4.0000001E-01   4.0000001E-01   4.0000001E-01   4.0000001E-01   4.0000001E-01   4.0000001E-01   4.0000001E-01   4.0000001E-01   4.0000001E-01   4.0000001E-01   4.0000001E-01   4.0000001E-01   4.0000001E-01   4.0000001E-01   4.0000001E-01   4.0000001E-01   4.0000001E-01   4.0000001E-01   4.0000001E-01   4.0000001E-01   4.0000001E-01   4.0000001E-01   4.0000001E-01   4.0000001E-01   4.0000001E-01   4.0000001E-01   4.0000001E-01   4.0000001E-01   4.0000001E-01   4.0000001E-01   4.0000001E-01   4.0000001E-01   4.0000001E-01   4.0000001E-01   4.0000001E-01   4.0000001E-01   4.0000001E-01   4.0000001E-01   4.0000001E-01   4.0000001E-01   4.0000001E-01   4.0000001E-01   4.0000001E-01   4.0000001E-01   4.0000001E-01   4.0000001E-01   4.0000001E-01   4.0000001E-01   4.0000001E-01   4.0000001E-01   4.0000001E-01   4.0000001E-01   4.0000001E-01   4.0000001E-01   4.0000001E-01   4.0000001E-01   4.0000001E-01   4.0000001E-01   4.0000001E-01   4.0000001E-01   4.0000001E-01   4.0000001E-01   4.0000063E-01   4.0000075E-01   4.0000078E-01   4.0000063E-01   4.0000075E-01   4.0000075E-01   4.0000206E-01   4.0000203E-01   4.0000215E-01   4.0000200E-01   4.0000206E-01   4.0000206E-01   4.0000480E-01   4.0000492E-01   4.0000483E-01   4.0000489E-01   4.0000480E-01   4.0000492E-01   4.0001333E-01   4.0001333E-01   4.0001324E-01   4.0001333E-01   4.0001330E-01   4.0001333E-01   4.0003589E-01   4.0003586E-01   4.0003592E-01   4.0003595E-01   4.0003601E-01   4.0003598E-01   4.0009663E-01   4.0009665E-01   4.0009663E-01   4.0009671E-01   4.0009686E-01   4.0009677E-01   4.0025771E-01   4.0025786E-01   4.0025795E-01   4.0025797E-01   4.0025800E-01   4.0025815E-01   4.0066683E-01   4.0066713E-01   4.0066734E-01   4.0066761E-01   4.0066794E-01   4.0066788E-01   4.0160507E-01   4.0160576E-01   4.0160641E-01   4.0160692E-01   4.0160736E-01   4.0160757E-01   4.0333158E-01   4.0333286E-01   4.0333366E-01   4.0333432E-01   4.0333498E-01   4.0333539E-01   4.0551752E-01   4.0551880E-01   4.0551922E-01   4.0551934E-01   4.0551963E-01   4.0552002E-01   4.0727627E-01   4.0727672E-01   4.0727657E-01   4.0727586E-01   4.0727520E-01   4.0727508E-01   4.0824538E-01   4.0824515E-01   4.0824458E-01   4.0824339E-01   4.0824214E-01   4.0824148E-01   4.0867072E-01   4.0867075E-01   4.0867046E-01   4.0866894E-01   4.0866774E-01   4.0866709E-01   4.0883806E-01   4.0883827E-01   4.0883818E-01   4.0883714E-01   4.0883616E-01   4.0883541E-01   4.0890041E-01   4.0890065E-01   4.0890080E-01   4.0890011E-01   4.0889946E-01   4.0889877E-01   4.0892249E-01   4.0892291E-01   4.0892297E-01   4.0892240E-01   4.0892190E-01   4.0892133E-01   4.0892881E-01   4.0892923E-01   4.0892917E-01   4.0892869E-01   4.0892836E-01   4.0892774E-01   4.0891680E-01   4.0891725E-01   4.0891731E-01   4.0891686E-01   4.0891626E-01   4.0891570E-01   4.0877190E-01   4.0877229E-01   4.0877214E-01   4.0877163E-01   4.0877104E-01   4.0877044E-01   4.0848705E-01   4.0848732E-01   4.0848723E-01   4.0848660E-01   4.0848595E-01   4.0848544E-01   4.0807864E-01   4.0807867E-01   4.0807852E-01   4.0807787E-01   4.0807709E-01   4.0807655E-01   4.0756860E-01   4.0756851E-01   4.0756825E-01   4.0756750E-01   4.0756676E-01   4.0756634E-01   4.0698358E-01   4.0698332E-01   4.0698284E-01   4.0698218E-01   4.0698153E-01   4.0698102E-01   4.0635163E-01   4.0635121E-01   4.0635085E-01   4.0635011E-01   4.0634969E-01   4.0634936E-01   4.0570065E-01   4.0570015E-01   4.0569976E-01   4.0569919E-01   4.0569890E-01   4.0569869E-01   4.0505561E-01   4.0505505E-01   4.0505472E-01   4.0505430E-01   4.0505421E-01   4.0505391E-01   4.0443748E-01   4.0443715E-01   4.0443677E-01   4.0443662E-01   4.0443653E-01   4.0443638E-01   4.0386286E-01   4.0386280E-01   4.0386286E-01   4.0386277E-01   4.0386266E-01   4.0386271E-01   4.0334377E-01   4.0334380E-01   4.0334398E-01   4.0334409E-01   4.0334412E-01   4.0334412E-01   4.0288690E-01   4.0288699E-01   4.0288711E-01   4.0288725E-01   4.0288746E-01   4.0288755E-01   4.0249470E-01   4.0249494E-01   4.0249488E-01   4.0249521E-01   4.0249524E-01   4.0249550E-01   4.0216601E-01   4.0216601E-01   4.0216622E-01   4.0216643E-01   4.0216652E-01   4.0189636E-01   4.0189648E-01   4.0189660E-01   4.0189660E-01   4.0189686E-01   4.0168026E-01   4.0168026E-01   4.0168041E-01   4.0168053E-01   4.0151072E-01   4.0151072E-01   4.0151075E-01   4.0151092E-01   4.0138048E-01   4.0138051E-01   4.0138054E-01   4.0128261E-01   4.0128252E-01   4.0121025E-01   4.0121043E-01   4.0000001E-01   4.0000001E-01   4.0000001E-01   4.0000001E-01   4.0000001E-01   4.0000001E-01   4.0000001E-01   4.0000001E-01   4.0000001E-01   4.0000001E-01   4.0000001E-01   4.0000001E-01   4.0000001E-01   4.0000001E-01   4.0000001E-01   4.0000001E-01   4.0000001E-01   4.0000001E-01   4.0000001E-01   4.0000001E-01   4.0000001E-01   4.0000001E-01   4.0000001E-01   4.0000001E-01   4.0000001E-01   4.0000001E-01   4.0000001E-01   4.0000001E-01   4.0000001E-01   4.0000001E-01   4.0000001E-01   4.0000001E-01   4.0000001E-01   4.0000001E-01   4.0000001E-01   4.0000001E-01   4.0000001E-01   4.0000001E-01   4.0000001E-01   4.0000001E-01   4.0000001E-01   4.0000001E-01   4.0000001E-01   4.0000001E-01   4.0000001E-01   4.0000001E-01   4.0000001E-01   4.0000001E-01   4.0000001E-01   4.0000001E-01   4.0000001E-01   4.0000001E-01   4.0000001E-01   4.0000001E-01   4.0000001E-01   4.0000001E-01   4.0000001E-01   4.0000001E-01   4.0000001E-01   4.0000001E-01   4.0000001E-01   4.0000001E-01   4.0000001E-01   4.0000001E-01   4.0000001E-01   4.0000001E-01   4.0000001E-01   4.0000001E-01   4.0000001E-01   4.0000001E-01   4.0000001E-01   4.0000001E-01   4.0000001E-01   4.0000001E-01   4.0000001E-01   4.0000001E-01   4.0000001E-01   4.0000001E-01   4.0000001E-01   4.0000001E-01   4.0000001E-01   4.0000001E-01   4.0000001E-01   4.0000001E-01   4.0000001E-01   4.0000001E-01   4.0000001E-01   4.0000001E-01   4.0000001E-01   4.0000001E-01   4.0000001E-01   4.0000001E-01   4.0000001E-01   4.0000001E-01   4.0000001E-01   4.0000001E-01   4.0000001E-01   4.0000001E-01   4.0000001E-01   4.0000001E-01   4.0000001E-01   4.0000001E-01   4.0000001E-01   4.0000001E-01   4.0000001E-01   4.0000001E-01   4.0000001E-01   4.0000001E-01   4.0000001E-01   4.0000001E-01   4.0000001E-01   4.0000001E-01   4.0000001E-01   4.0000001E-01   4.0000001E-01   4.0000001E-01   4.0000001E-01   4.0000001E-01   4.0000001E-01   4.0000001E-01   4.0000001E-01   4.0000001E-01   4.0000001E-01   4.0000001E-01   4.0000001E-01   4.0000001E-01   4.0000001E-01   4.0000001E-01   4.0000001E-01   4.0000001E-01   4.0000001E-01   4.0000001E-01   4.0000001E-01   4.0000001E-01   4.0000001E-01   4.0000001E-01   4.0000001E-01   4.0000001E-01   4.0000001E-01   4.0000001E-01   4.0000001E-01   4.0000001E-01   4.0000001E-01   4.0000001E-01   4.0000001E-01   4.0000001E-01   4.0000001E-01   4.0000001E-01   4.0000001E-01   4.0000001E-01   4.0000001E-01   4.0000001E-01   4.0000001E-01   4.0000001E-01   4.0000001E-01   4.0000001E-01   4.0000001E-01   4.0000001E-01   4.0000001E-01   4.0000001E-01   4.0000001E-01   4.0000001E-01   4.0000001E-01   4.0000001E-01   4.0000001E-01   4.0000001E-01   4.0000001E-01   4.0000001E-01   4.0000001E-01   4.0000001E-01   4.0000001E-01   4.0000001E-01   4.0000001E-01   4.0000001E-01   4.0000001E-01   4.0000001E-01   4.0000001E-01   4.0000001E-01   4.0000001E-01   4.0000001E-01   4.0000001E-01   4.0000001E-01   4.0000001E-01   4.0000001E-01   4.0000001E-01   4.0000001E-01   4.0000001E-01   4.0000001E-01   4.0000001E-01   4.0000001E-01   4.0000001E-01   4.0000001E-01   4.0000001E-01   4.0000001E-01   4.0000001E-01   4.0000001E-01   4.0000001E-01   4.0000001E-01   4.0000001E-01   4.0000001E-01   4.0000001E-01   4.0000001E-01   4.0000001E-01   4.0000001E-01   4.0000001E-01   4.0000001E-01   4.0000001E-01   4.0000072E-01   4.0000069E-01   4.0000078E-01   4.0000078E-01   4.0000069E-01   4.0000066E-01   4.0000063E-01   4.0000063E-01   4.0000069E-01   4.0000212E-01   4.0000218E-01   4.0000209E-01   4.0000212E-01   4.0000218E-01   4.0000200E-01   4.0000215E-01   4.0000209E-01   4.0000203E-01   4.0000489E-01   4.0000474E-01   4.0000480E-01   4.0000474E-01   4.0000477E-01   4.0000480E-01   4.0000474E-01   4.0000486E-01   4.0000489E-01   4.0001333E-01   4.0001345E-01   4.0001342E-01   4.0001333E-01   4.0001336E-01   4.0001333E-01   4.0001345E-01   4.0001342E-01   4.0001333E-01   4.0003586E-01   4.0003607E-01   4.0003574E-01   4.0003586E-01   4.0003598E-01   4.0003601E-01   4.0003604E-01   4.0003604E-01   4.0003595E-01   4.0009671E-01   4.0009686E-01   4.0009680E-01   4.0009686E-01   4.0009686E-01   4.0009683E-01   4.0009695E-01   4.0009704E-01   4.0009695E-01   4.0025818E-01   4.0025809E-01   4.0025824E-01   4.0025827E-01   4.0025830E-01   4.0025830E-01   4.0025842E-01   4.0025848E-01   4.0025836E-01   4.0066791E-01   4.0066820E-01   4.0066829E-01   4.0066832E-01   4.0066841E-01   4.0066868E-01   4.0066880E-01   4.0066865E-01   4.0066874E-01   4.0160778E-01   4.0160823E-01   4.0160865E-01   4.0160868E-01   4.0160897E-01   4.0160912E-01   4.0160930E-01   4.0160936E-01   4.0160945E-01   4.0333599E-01   4.0333632E-01   4.0333676E-01   4.0333715E-01   4.0333757E-01   4.0333784E-01   4.0333796E-01   4.0333816E-01   4.0333822E-01   4.0552020E-01   4.0552068E-01   4.0552098E-01   4.0552106E-01   4.0552139E-01   4.0552169E-01   4.0552184E-01   4.0552199E-01   4.0552199E-01   4.0727481E-01   4.0727472E-01   4.0727460E-01   4.0727451E-01   4.0727451E-01   4.0727448E-01   4.0727451E-01   4.0727445E-01   4.0727440E-01   4.0824094E-01   4.0824023E-01   4.0823990E-01   4.0823954E-01   4.0823910E-01   4.0823901E-01   4.0823877E-01   4.0823862E-01   4.0823841E-01   4.0866625E-01   4.0866539E-01   4.0866488E-01   4.0866426E-01   4.0866369E-01   4.0866357E-01   4.0866303E-01   4.0866271E-01   4.0866259E-01   4.0883443E-01   4.0883386E-01   4.0883300E-01   4.0883240E-01   4.0883186E-01   4.0883142E-01   4.0883085E-01   4.0883058E-01   4.0883049E-01   4.0889782E-01   4.0889710E-01   4.0889645E-01   4.0889579E-01   4.0889513E-01   4.0889463E-01   4.0889412E-01   4.0889394E-01   4.0889367E-01   4.0892056E-01   4.0891987E-01   4.0891919E-01   4.0891847E-01   4.0891799E-01   4.0891737E-01   4.0891695E-01   4.0891674E-01   4.0891641E-01   4.0892705E-01   4.0892631E-01   4.0892562E-01   4.0892491E-01   4.0892437E-01   4.0892392E-01   4.0892348E-01   4.0892315E-01   4.0892282E-01   4.0891513E-01   4.0891427E-01   4.0891364E-01   4.0891305E-01   4.0891242E-01   4.0891206E-01   4.0891165E-01   4.0891129E-01   4.0891111E-01   4.0876985E-01   4.0876913E-01   4.0876842E-01   4.0876800E-01   4.0876743E-01   4.0876707E-01   4.0876651E-01   4.0876627E-01   4.0876609E-01   4.0848485E-01   4.0848407E-01   4.0848348E-01   4.0848300E-01   4.0848264E-01   4.0848222E-01   4.0848193E-01   4.0848154E-01   4.0848145E-01   4.0807599E-01   4.0807524E-01   4.0807503E-01   4.0807450E-01   4.0807411E-01   4.0807378E-01   4.0807348E-01   4.0807328E-01   4.0807313E-01   4.0756586E-01   4.0756521E-01   4.0756491E-01   4.0756464E-01   4.0756416E-01   4.0756389E-01   4.0756375E-01   4.0756357E-01   4.0756357E-01   4.0698060E-01   4.0698034E-01   4.0697998E-01   4.0697974E-01   4.0697959E-01   4.0697938E-01   4.0697908E-01   4.0697911E-01   4.0697894E-01   4.0634903E-01   4.0634882E-01   4.0634865E-01   4.0634844E-01   4.0634844E-01   4.0634826E-01   4.0634814E-01   4.0634814E-01   4.0634808E-01   4.0569854E-01   4.0569821E-01   4.0569821E-01   4.0569812E-01   4.0569803E-01   4.0569803E-01   4.0569797E-01   4.0569797E-01   4.0569782E-01   4.0505391E-01   4.0505376E-01   4.0505376E-01   4.0505373E-01   4.0505373E-01   4.0505382E-01   4.0505368E-01   4.0505365E-01   4.0505370E-01   4.0443632E-01   4.0443638E-01   4.0443632E-01   4.0443626E-01   4.0443644E-01   4.0443641E-01   4.0443641E-01   4.0443641E-01   4.0443653E-01   4.0386271E-01   4.0386263E-01   4.0386260E-01   4.0386271E-01   4.0386274E-01   4.0386289E-01   4.0386283E-01   4.0386280E-01   4.0386283E-01   4.0334427E-01   4.0334418E-01   4.0334409E-01   4.0334412E-01   4.0334421E-01   4.0334424E-01   4.0334433E-01   4.0334427E-01   4.0334427E-01   4.0288761E-01   4.0288764E-01   4.0288767E-01   4.0288770E-01   4.0288764E-01   4.0288776E-01   4.0288776E-01   4.0288773E-01   4.0288776E-01   4.0249559E-01   4.0249568E-01   4.0249574E-01   4.0249568E-01   4.0249556E-01   4.0249565E-01   4.0249565E-01   4.0249574E-01   4.0249565E-01   4.0216655E-01   4.0216678E-01   4.0216675E-01   4.0216666E-01   4.0216660E-01   4.0216672E-01   4.0216666E-01   4.0216672E-01   4.0216681E-01   4.0189689E-01   4.0189716E-01   4.0189704E-01   4.0189722E-01   4.0189710E-01   4.0189710E-01   4.0189725E-01   4.0189710E-01   4.0189704E-01   4.0168083E-01   4.0168071E-01   4.0168086E-01   4.0168083E-01   4.0168071E-01   4.0168083E-01   4.0168080E-01   4.0168080E-01   4.0168071E-01   4.0151098E-01   4.0151116E-01   4.0151131E-01   4.0151116E-01   4.0151110E-01   4.0151116E-01   4.0151104E-01   4.0151104E-01   4.0151104E-01   4.0138069E-01   4.0138054E-01   4.0138078E-01   4.0138078E-01   4.0138072E-01   4.0138075E-01   4.0138063E-01   4.0138078E-01   4.0138075E-01   4.0128249E-01   4.0128258E-01   4.0128255E-01   4.0128261E-01   4.0128264E-01   4.0128258E-01   4.0128264E-01   4.0128255E-01   4.0128258E-01   4.0121028E-01   4.0121028E-01   4.0121019E-01   4.0121028E-01   4.0121034E-01   4.0121028E-01   4.0121025E-01   4.0121031E-01   4.0121031E-01   4.0115827E-01   4.0115806E-01   4.0115818E-01   4.0115815E-01   4.0115818E-01   4.0115809E-01   4.0115803E-01   4.0115800E-01   4.0115812E-01   4.0112132E-01   4.0112120E-01   4.0112126E-01   4.0112132E-01   4.0112117E-01   4.0112129E-01   4.0112135E-01   4.0112126E-01   4.0109563E-01   4.0109563E-01   4.0109551E-01   4.0109563E-01   4.0109566E-01   4.0109560E-01   4.0107805E-01   4.0107813E-01   4.0107828E-01   4.0107816E-01   4.0000001E-01   4.0000001E-01   4.0000001E-01   4.0000001E-01   4.0000001E-01   4.0000001E-01   4.0000001E-01   4.0000001E-01   4.0000001E-01   4.0000001E-01   4.0000001E-01   4.0000001E-01   4.0000001E-01   4.0000001E-01   4.0000001E-01   4.0000001E-01   4.0000001E-01   4.0000001E-01   4.0000001E-01   4.0000001E-01   4.0000001E-01   4.0000001E-01   4.0000001E-01   4.0000001E-01   4.0000001E-01   4.0000001E-01   4.0000001E-01   4.0000001E-01   4.0000001E-01   4.0000001E-01   4.0000001E-01   4.0000001E-01   4.0000001E-01   4.0000001E-01   4.0000001E-01   4.0000001E-01   4.0000001E-01   4.0000001E-01   4.0000001E-01   4.0000001E-01   4.0000001E-01   4.0000001E-01   4.0000001E-01   4.0000001E-01   4.0000001E-01   4.0000001E-01   4.0000001E-01   4.0000001E-01   4.0000001E-01   4.0000001E-01   4.0000001E-01   4.0000001E-01   4.0000001E-01   4.0000001E-01   4.0000001E-01   4.0000001E-01   4.0000001E-01   4.0000001E-01   4.0000001E-01   4.0000001E-01   4.0000001E-01   4.0000001E-01   4.0000001E-01   4.0000001E-01   4.0000001E-01   4.0000001E-01   4.0000001E-01   4.0000001E-01   4.0000001E-01   4.0000001E-01   4.0000001E-01   4.0000001E-01   4.0000001E-01   4.0000001E-01   4.0000001E-01   4.0000001E-01   4.0000001E-01   4.0000001E-01   4.0000001E-01   4.0000001E-01   4.0000001E-01   4.0000001E-01   4.0000001E-01   4.0000001E-01   4.0000001E-01   4.0000001E-01   4.0000001E-01   4.0000001E-01   4.0000001E-01   4.0000001E-01   4.0000001E-01   4.0000001E-01   4.0000001E-01   4.0000001E-01   4.0000001E-01   4.0000001E-01   4.0000001E-01   4.0000001E-01   4.0000001E-01   4.0000001E-01   4.0000001E-01   4.0000001E-01   4.0000001E-01   4.0000001E-01   4.0000001E-01   4.0000001E-01   4.0000001E-01   4.0000001E-01   4.0000001E-01   4.0000001E-01   4.0000001E-01   4.0000001E-01   4.0000001E-01   4.0000001E-01   4.0000001E-01   4.0000001E-01   4.0000001E-01   4.0000001E-01   4.0000001E-01   4.0000001E-01   4.0000001E-01   4.0000001E-01   4.0000001E-01   4.0000001E-01   4.0000001E-01   4.0000001E-01   4.0000001E-01   4.0000001E-01   4.0000001E-01   4.0000001E-01   4.0000001E-01   4.0000001E-01   4.0000001E-01   4.0000001E-01   4.0000001E-01   4.0000001E-01   4.0000001E-01   4.0000001E-01   4.0000001E-01   4.0000001E-01   4.0000001E-01   4.0000001E-01   4.0000001E-01   4.0000001E-01   4.0000001E-01   4.0000001E-01   4.0000001E-01   4.0000001E-01   4.0000001E-01   4.0000001E-01   4.0000001E-01   4.0000001E-01   4.0000001E-01   4.0000001E-01   4.0000001E-01   4.0000001E-01   4.0000001E-01   4.0000001E-01   4.0000001E-01   4.0000001E-01   4.0000001E-01   4.0000001E-01   4.0000001E-01   4.0000001E-01   4.0000001E-01   4.0000001E-01   4.0000001E-01   4.0000001E-01   4.0000001E-01   4.0000001E-01   4.0000001E-01   4.0000001E-01   4.0000001E-01   4.0000001E-01   4.0000001E-01   4.0000001E-01   4.0000001E-01   4.0000001E-01   4.0000001E-01   4.0000001E-01   4.0000001E-01   4.0000001E-01   4.0000001E-01   4.0000001E-01   4.0000072E-01   4.0000069E-01   4.0000063E-01   4.0000063E-01   4.0000066E-01   4.0000069E-01   4.0000078E-01   4.0000078E-01   4.0000212E-01   4.0000203E-01   4.0000209E-01   4.0000215E-01   4.0000200E-01   4.0000218E-01   4.0000212E-01   4.0000209E-01   4.0000495E-01   4.0000489E-01   4.0000486E-01   4.0000474E-01   4.0000480E-01   4.0000477E-01   4.0000474E-01   4.0000480E-01   4.0001336E-01   4.0001333E-01   4.0001342E-01   4.0001345E-01   4.0001333E-01   4.0001336E-01   4.0001333E-01   4.0001342E-01   4.0003601E-01   4.0003595E-01   4.0003604E-01   4.0003604E-01   4.0003601E-01   4.0003598E-01   4.0003586E-01   4.0003574E-01   4.0009689E-01   4.0009695E-01   4.0009704E-01   4.0009695E-01   4.0009683E-01   4.0009686E-01   4.0009686E-01   4.0009680E-01   4.0025839E-01   4.0025836E-01   4.0025848E-01   4.0025842E-01   4.0025830E-01   4.0025830E-01   4.0025827E-01   4.0025824E-01   4.0066883E-01   4.0066874E-01   4.0066865E-01   4.0066880E-01   4.0066868E-01   4.0066841E-01   4.0066832E-01   4.0066829E-01   4.0160939E-01   4.0160945E-01   4.0160936E-01   4.0160930E-01   4.0160912E-01   4.0160897E-01   4.0160868E-01   4.0160865E-01   4.0333840E-01   4.0333822E-01   4.0333816E-01   4.0333796E-01   4.0333784E-01   4.0333757E-01   4.0333715E-01   4.0333676E-01   4.0552202E-01   4.0552199E-01   4.0552199E-01   4.0552184E-01   4.0552169E-01   4.0552139E-01   4.0552106E-01   4.0552098E-01   4.0727460E-01   4.0727440E-01   4.0727445E-01   4.0727451E-01   4.0727448E-01   4.0727451E-01   4.0727451E-01   4.0727460E-01   4.0823844E-01   4.0823841E-01   4.0823862E-01   4.0823877E-01   4.0823901E-01   4.0823910E-01   4.0823954E-01   4.0823990E-01   4.0866268E-01   4.0866259E-01   4.0866271E-01   4.0866303E-01   4.0866357E-01   4.0866369E-01   4.0866426E-01   4.0866488E-01   4.0883029E-01   4.0883049E-01   4.0883058E-01   4.0883085E-01   4.0883142E-01   4.0883186E-01   4.0883240E-01   4.0883300E-01   4.0889341E-01   4.0889367E-01   4.0889394E-01   4.0889412E-01   4.0889463E-01   4.0889513E-01   4.0889579E-01   4.0889645E-01   4.0891638E-01   4.0891641E-01   4.0891674E-01   4.0891695E-01   4.0891737E-01   4.0891799E-01   4.0891847E-01   4.0891919E-01   4.0892282E-01   4.0892282E-01   4.0892315E-01   4.0892348E-01   4.0892392E-01   4.0892437E-01   4.0892491E-01   4.0892562E-01   4.0891093E-01   4.0891111E-01   4.0891129E-01   4.0891165E-01   4.0891206E-01   4.0891242E-01   4.0891305E-01   4.0891364E-01   4.0876591E-01   4.0876609E-01   4.0876627E-01   4.0876651E-01   4.0876707E-01   4.0876743E-01   4.0876800E-01   4.0876842E-01   4.0848148E-01   4.0848145E-01   4.0848154E-01   4.0848193E-01   4.0848222E-01   4.0848264E-01   4.0848300E-01   4.0848348E-01   4.0807313E-01   4.0807310E-01   4.0807328E-01   4.0807348E-01   4.0807378E-01   4.0807411E-01   4.0807450E-01   4.0807503E-01   4.0756360E-01   4.0756357E-01   4.0756357E-01   4.0756375E-01   4.0756389E-01   4.0756416E-01   4.0756464E-01   4.0756491E-01   4.0697899E-01   4.0697894E-01   4.0697911E-01   4.0697908E-01   4.0697938E-01   4.0697959E-01   4.0697974E-01   4.0697998E-01   4.0634805E-01   4.0634808E-01   4.0634814E-01   4.0634814E-01   4.0634826E-01   4.0634844E-01   4.0634844E-01   4.0634865E-01   4.0569788E-01   4.0569782E-01   4.0569797E-01   4.0569797E-01   4.0569803E-01   4.0569803E-01   4.0569812E-01   4.0569821E-01   4.0505368E-01   4.0505370E-01   4.0505365E-01   4.0505368E-01   4.0505382E-01   4.0505373E-01   4.0505373E-01   4.0505376E-01   4.0443644E-01   4.0443653E-01   4.0443641E-01   4.0443641E-01   4.0443641E-01   4.0443644E-01   4.0443626E-01   4.0443632E-01   4.0386271E-01   4.0386283E-01   4.0386280E-01   4.0386283E-01   4.0386289E-01   4.0386274E-01   4.0386271E-01   4.0386260E-01   4.0334427E-01   4.0334427E-01   4.0334427E-01   4.0334433E-01   4.0334424E-01   4.0334421E-01   4.0334412E-01   4.0334409E-01   4.0288770E-01   4.0288776E-01   4.0288773E-01   4.0288776E-01   4.0288776E-01   4.0288764E-01   4.0288770E-01   4.0288767E-01   4.0249580E-01   4.0249565E-01   4.0249574E-01   4.0249565E-01   4.0249565E-01   4.0249556E-01   4.0249568E-01   4.0249574E-01   4.0216655E-01   4.0216681E-01   4.0216672E-01   4.0216666E-01   4.0216672E-01   4.0216660E-01   4.0216666E-01   4.0216675E-01   4.0189707E-01   4.0189704E-01   4.0189710E-01   4.0189725E-01   4.0189710E-01   4.0189710E-01   4.0189722E-01   4.0189704E-01   4.0168083E-01   4.0168071E-01   4.0168080E-01   4.0168080E-01   4.0168083E-01   4.0168071E-01   4.0168083E-01   4.0168086E-01   4.0151110E-01   4.0151104E-01   4.0151104E-01   4.0151104E-01   4.0151116E-01   4.0151110E-01   4.0151116E-01   4.0151131E-01   4.0138063E-01   4.0138075E-01   4.0138078E-01   4.0138063E-01   4.0138075E-01   4.0138072E-01   4.0138078E-01   4.0138078E-01   4.0128252E-01   4.0128258E-01   4.0128255E-01   4.0128264E-01   4.0128258E-01   4.0128264E-01   4.0128261E-01   4.0128255E-01   4.0121022E-01   4.0121031E-01   4.0121031E-01   4.0121025E-01   4.0121028E-01   4.0121034E-01   4.0121028E-01   4.0121019E-01   4.0115815E-01   4.0115812E-01   4.0115800E-01   4.0115806E-01   4.0115809E-01   4.0115818E-01   4.0115815E-01   4.0115818E-01   4.0112120E-01   4.0112126E-01   4.0112135E-01   4.0112129E-01   4.0112117E-01   4.0112132E-01   4.0112126E-01   4.0112120E-01   4.0109566E-01   4.0109560E-01   4.0109566E-01   4.0109563E-01   4.0109551E-01   4.0109563E-01   4.0109563E-01   4.0107825E-01   4.0107816E-01   4.0107828E-01   4.0107813E-01   4.0107805E-01   4.0000001E-01   4.0000001E-01   4.0000001E-01   4.0000001E-01   4.0000001E-01   4.0000001E-01   4.0000001E-01   4.0000001E-01   4.0000001E-01   4.0000001E-01   4.0000001E-01   4.0000001E-01   4.0000001E-01   4.0000001E-01   4.0000001E-01   4.0000001E-01   4.0000001E-01   4.0000001E-01   4.0000001E-01   4.0000001E-01   4.0000001E-01   4.0000001E-01   4.0000001E-01   4.0000001E-01   4.0000001E-01   4.0000001E-01   4.0000001E-01   4.0000001E-01   4.0000001E-01   4.0000001E-01   4.0000001E-01   4.0000001E-01   4.0000001E-01   4.0000001E-01   4.0000001E-01   4.0000001E-01   4.0000001E-01   4.0000001E-01   4.0000001E-01   4.0000001E-01   4.0000001E-01   4.0000001E-01   4.0000001E-01   4.0000001E-01   4.0000001E-01   4.0000001E-01   4.0000001E-01   4.0000001E-01   4.0000001E-01   4.0000001E-01   4.0000001E-01   4.0000001E-01   4.0000001E-01   4.0000001E-01   4.0000001E-01   4.0000001E-01   4.0000001E-01   4.0000001E-01   4.0000001E-01   4.0000001E-01   4.0000001E-01   4.0000001E-01   4.0000001E-01   4.0000001E-01   4.0000001E-01   4.0000001E-01   4.0000001E-01   4.0000001E-01   4.0000001E-01   4.0000001E-01   4.0000001E-01   4.0000001E-01   4.0000001E-01   4.0000001E-01   4.0000001E-01   4.0000001E-01   4.0000001E-01   4.0000001E-01   4.0000001E-01   4.0000001E-01   4.0000001E-01   4.0000001E-01   4.0000001E-01   4.0000001E-01   4.0000001E-01   4.0000001E-01   4.0000001E-01   4.0000001E-01   4.0000001E-01   4.0000001E-01   4.0000001E-01   4.0000001E-01   4.0000001E-01   4.0000001E-01   4.0000001E-01   4.0000001E-01   4.0000001E-01   4.0000001E-01   4.0000001E-01   4.0000001E-01   4.0000001E-01   4.0000001E-01   4.0000001E-01   4.0000001E-01   4.0000001E-01   4.0000001E-01   4.0000001E-01   4.0000001E-01   4.0000001E-01   4.0000001E-01   4.0000001E-01   4.0000001E-01   4.0000001E-01   4.0000001E-01   4.0000001E-01   4.0000001E-01   4.0000001E-01   4.0000001E-01   4.0000001E-01   4.0000001E-01   4.0000001E-01   4.0000001E-01   4.0000001E-01   4.0000001E-01   4.0000001E-01   4.0000001E-01   4.0000001E-01   4.0000001E-01   4.0000001E-01   4.0000001E-01   4.0000001E-01   4.0000001E-01   4.0000001E-01   4.0000001E-01   4.0000001E-01   4.0000001E-01   4.0000001E-01   4.0000001E-01   4.0000001E-01   4.0000001E-01   4.0000001E-01   4.0000001E-01   4.0000001E-01   4.0000001E-01   4.0000001E-01   4.0000001E-01   4.0000001E-01   4.0000001E-01   4.0000001E-01   4.0000001E-01   4.0000001E-01   4.0000001E-01   4.0000001E-01   4.0000001E-01   4.0000001E-01   4.0000001E-01   4.0000001E-01   4.0000001E-01   4.0000001E-01   4.0000001E-01   4.0000001E-01   4.0000001E-01   4.0000001E-01   4.0000001E-01   4.0000001E-01   4.0000001E-01   4.0000001E-01   4.0000001E-01   4.0000001E-01   4.0000001E-01   4.0000001E-01   4.0000001E-01   4.0000001E-01   4.0000001E-01   4.0000001E-01   4.0000001E-01   4.0000001E-01   4.0000001E-01   4.0000001E-01   4.0000001E-01   4.0000001E-01   4.0000001E-01   4.0000001E-01   4.0000069E-01   4.0000072E-01   4.0000075E-01   4.0000075E-01   4.0000063E-01   4.0000078E-01   4.0000075E-01   4.0000063E-01   4.0000218E-01   4.0000212E-01   4.0000206E-01   4.0000206E-01   4.0000200E-01   4.0000215E-01   4.0000203E-01   4.0000206E-01   4.0000474E-01   4.0000489E-01   4.0000492E-01   4.0000480E-01   4.0000489E-01   4.0000483E-01   4.0000492E-01   4.0000480E-01   4.0001345E-01   4.0001333E-01   4.0001333E-01   4.0001330E-01   4.0001333E-01   4.0001324E-01   4.0001333E-01   4.0001333E-01   4.0003607E-01   4.0003586E-01   4.0003598E-01   4.0003601E-01   4.0003595E-01   4.0003592E-01   4.0003586E-01   4.0003589E-01   4.0009686E-01   4.0009671E-01   4.0009677E-01   4.0009686E-01   4.0009671E-01   4.0009663E-01   4.0009665E-01   4.0009663E-01   4.0025809E-01   4.0025818E-01   4.0025815E-01   4.0025800E-01   4.0025797E-01   4.0025795E-01   4.0025786E-01   4.0025771E-01   4.0066820E-01   4.0066791E-01   4.0066788E-01   4.0066794E-01   4.0066761E-01   4.0066734E-01   4.0066713E-01   4.0066683E-01   4.0160823E-01   4.0160778E-01   4.0160757E-01   4.0160736E-01   4.0160692E-01   4.0160641E-01   4.0160576E-01   4.0160507E-01   4.0333632E-01   4.0333599E-01   4.0333539E-01   4.0333498E-01   4.0333432E-01   4.0333366E-01   4.0333286E-01   4.0333158E-01   4.0552068E-01   4.0552020E-01   4.0552002E-01   4.0551963E-01   4.0551934E-01   4.0551922E-01   4.0551880E-01   4.0551752E-01   4.0727472E-01   4.0727481E-01   4.0727508E-01   4.0727520E-01   4.0727586E-01   4.0727657E-01   4.0727672E-01   4.0727627E-01   4.0824023E-01   4.0824094E-01   4.0824148E-01   4.0824214E-01   4.0824339E-01   4.0824458E-01   4.0824515E-01   4.0824538E-01   4.0866539E-01   4.0866625E-01   4.0866709E-01   4.0866774E-01   4.0866894E-01   4.0867046E-01   4.0867075E-01   4.0867072E-01   4.0883386E-01   4.0883443E-01   4.0883541E-01   4.0883616E-01   4.0883714E-01   4.0883818E-01   4.0883827E-01   4.0883806E-01   4.0889710E-01   4.0889782E-01   4.0889877E-01   4.0889946E-01   4.0890011E-01   4.0890080E-01   4.0890065E-01   4.0890041E-01   4.0891987E-01   4.0892065E-01   4.0892133E-01   4.0892190E-01   4.0892240E-01   4.0892297E-01   4.0892291E-01   4.0892249E-01   4.0892631E-01   4.0892705E-01   4.0892774E-01   4.0892836E-01   4.0892869E-01   4.0892917E-01   4.0892923E-01   4.0892881E-01   4.0891427E-01   4.0891513E-01   4.0891570E-01   4.0891626E-01   4.0891686E-01   4.0891731E-01   4.0891725E-01   4.0891680E-01   4.0876913E-01   4.0876985E-01   4.0877044E-01   4.0877104E-01   4.0877163E-01   4.0877214E-01   4.0877229E-01   4.0877190E-01   4.0848407E-01   4.0848485E-01   4.0848544E-01   4.0848595E-01   4.0848660E-01   4.0848723E-01   4.0848732E-01   4.0848705E-01   4.0807524E-01   4.0807599E-01   4.0807655E-01   4.0807709E-01   4.0807787E-01   4.0807852E-01   4.0807867E-01   4.0807864E-01   4.0756521E-01   4.0756586E-01   4.0756634E-01   4.0756676E-01   4.0756750E-01   4.0756825E-01   4.0756851E-01   4.0756860E-01   4.0698034E-01   4.0698060E-01   4.0698102E-01   4.0698153E-01   4.0698218E-01   4.0698284E-01   4.0698332E-01   4.0698358E-01   4.0634882E-01   4.0634903E-01   4.0634936E-01   4.0634969E-01   4.0635011E-01   4.0635085E-01   4.0635121E-01   4.0635163E-01   4.0569821E-01   4.0569854E-01   4.0569869E-01   4.0569890E-01   4.0569919E-01   4.0569976E-01   4.0570015E-01   4.0570065E-01   4.0505376E-01   4.0505391E-01   4.0505391E-01   4.0505421E-01   4.0505430E-01   4.0505472E-01   4.0505505E-01   4.0505561E-01   4.0443638E-01   4.0443632E-01   4.0443638E-01   4.0443653E-01   4.0443662E-01   4.0443677E-01   4.0443715E-01   4.0443748E-01   4.0386263E-01   4.0386271E-01   4.0386271E-01   4.0386266E-01   4.0386277E-01   4.0386286E-01   4.0386280E-01   4.0386286E-01   4.0334418E-01   4.0334427E-01   4.0334412E-01   4.0334412E-01   4.0334409E-01   4.0334398E-01   4.0334380E-01   4.0334377E-01   4.0288764E-01   4.0288761E-01   4.0288755E-01   4.0288746E-01   4.0288725E-01   4.0288711E-01   4.0288699E-01   4.0288690E-01   4.0249568E-01   4.0249559E-01   4.0249550E-01   4.0249524E-01   4.0249521E-01   4.0249488E-01   4.0249494E-01   4.0249470E-01   4.0216678E-01   4.0216655E-01   4.0216652E-01   4.0216643E-01   4.0216622E-01   4.0216601E-01   4.0216601E-01   4.0189716E-01   4.0189689E-01   4.0189686E-01   4.0189660E-01   4.0189660E-01   4.0189648E-01   4.0189636E-01   4.0168071E-01   4.0168083E-01   4.0168053E-01   4.0168041E-01   4.0168026E-01   4.0168026E-01   4.0151116E-01   4.0151098E-01   4.0151092E-01   4.0151075E-01   4.0151072E-01   4.0151072E-01   4.0138054E-01   4.0138069E-01   4.0138054E-01   4.0138051E-01   4.0138048E-01   4.0128258E-01   4.0128249E-01   4.0128252E-01   4.0128261E-01   4.0121028E-01   4.0121028E-01   4.0121043E-01   4.0121025E-01   4.0115806E-01   4.0115827E-01   4.0112132E-01 
Press 1 2975 float
  0.0000000E+00   0.0000000E+00   0.0000000E+00   0.0000000E+00   0.0000000E+00   0.0000000E+00   0.0000000E+00   0.0000000E+00   0.0000000E+00   0.0000000E+00   0.0000000E+00   0.0000000E+00   0.0000000E+00   0.0000000E+00   0.0000000E+00   0.0000000E+00   0.0000000E+00   0.0000000E+00   0.0000000E+00   1.9752525E-01   0.0000000E+00   2.9628786E-01   6.9133836E-01   2.9628786E-01   8.8886362E-01   1.8764899E+00   6.9133836E-01   1.7777272E+00   3.6542170E+00   1.2839141E+00   3.2591665E+00   5.9257574E+00   2.0740151E+00   4.7406058E+00   8.6911106E+00   2.7653534E+00   6.4195704E+00   1.1357701E+01   3.5554545E+00   7.9010100E+00   1.4123055E+01   4.3455553E+00   9.4812117E+00   1.6690884E+01   5.0368938E+00   1.1258939E+01   1.9752525E+01   6.2220454E+00   1.3530479E+01   2.3801792E+01   7.8022475E+00   1.7085934E+01   3.0023838E+01   1.0370075E+01   2.2814167E+01   3.9998863E+01   1.5110682E+01   3.1999090E+01   5.5208305E+01   2.3110455E+01   4.5825859E+01   7.6343506E+01   6.4985809E+01   1.0310818E+02   0.0000000E+00   0.0000000E+00   0.0000000E+00   0.0000000E+00   0.0000000E+00   0.0000000E+00   0.0000000E+00   0.0000000E+00   0.0000000E+00   0.0000000E+00   0.0000000E+00   0.0000000E+00   0.0000000E+00   0.0000000E+00   0.0000000E+00   0.0000000E+00   0.0000000E+00   0.0000000E+00   0.0000000E+00   0.0000000E+00   0.0000000E+00   0.0000000E+00   0.0000000E+00   0.0000000E+00   0.0000000E+00   0.0000000E+00   0.0000000E+00   0.0000000E+00   0.0000000E+00   0.0000000E+00   0.0000000E+00   0.0000000E+00   0.0000000E+00   0.0000000E+00   0.0000000E+00   0.0000000E+00   9.8762624E-02   9.8762624E-02   1.9752525E-01   1.9752525E-01   0.0000000E+00   1.9752525E-01   3.9505050E-01   5.9257573E-01   6.9133836E-01   8.8886362E-01   9.8762625E-01   1.1851515E+00   4.9381313E-01   8.8886362E-01   1.3826767E+00   1.9752525E+00   2.6665909E+00   3.1604040E+00   3.4566917E+00   3.8517423E+00   1.4814394E+00   2.4690657E+00   3.7529798E+00   5.0368938E+00   6.4195704E+00   7.4071970E+00   8.2960606E+00   8.9873991E+00   3.3579292E+00   5.3331819E+00   7.7034845E+00   1.0172550E+01   1.2542853E+01   1.4715631E+01   1.6394596E+01   1.7579746E+01   6.1232829E+00   9.2836866E+00   1.3234192E+01   1.7382221E+01   2.1332727E+01   2.4493132E+01   2.7159721E+01   2.9233736E+01   9.7775002E+00   1.4616868E+01   2.0345100E+01   2.6172096E+01   3.1702803E+01   3.6245884E+01   3.9900101E+01   4.2665455E+01   1.3826767E+01   2.0246338E+01   2.7653534E+01   1.7777273E+01   2.5875807E+01   2.1826540E+01   3.1208990E+01   2.5777044E+01   3.6640934E+01   3.0320126E+01   4.3159267E+01   3.6640934E+01   5.2047901E+01   4.6319672E+01   6.4985809E+01   6.1035301E+01   8.4540810E+01   8.3158127E+01   1.1278692E+02   1.1347826E+02   1.5061301E+02   1.5031671E+02   1.9663638E+02   0.0000000E+00   0.0000000E+00   0.0000000E+00   0.0000000E+00   0.0000000E+00   0.0000000E+00   0.0000000E+00   0.0000000E+00   0.0000000E+00   0.0000000E+00   0.0000000E+00   0.0000000E+00   0.0000000E+00   0.0000000E+00   0.0000000E+00   0.0000000E+00   0.0000000E+00   0.0000000E+00   0.0000000E+00   0.0000000E+00   0.0000000E+00   0.0000000E+00   0.0000000E+00   0.0000000E+00   0.0000000E+00   0.0000000E+00   0.0000000E+00   0.0000000E+00   0.0000000E+00   0.0000000E+00   0.0000000E+00   0.0000000E+00   0.0000000E+00   0.0000000E+00   0.0000000E+00   0.0000000E+00   1.9752525E-01   1.9752525E-01   1.9752525E-01   1.9752525E-01   1.9752525E-01   1.9752525E-01   1.9752525E-01   1.9752525E-01   1.9752525E-01   1.1851515E+00   1.2839141E+00   1.2839141E+00   1.2839141E+00   1.2839141E+00   1.2839141E+00   1.2839141E+00   1.2839141E+00   1.2839141E+00   3.8517423E+00   4.0492678E+00   4.1480303E+00   4.1480303E+00   4.2467928E+00   4.3455553E+00   4.3455553E+00   4.3455553E+00   4.3455553E+00   9.4812117E+00   9.8762627E+00   9.9750252E+00   1.0271313E+01   1.0468838E+01   1.0468838E+01   1.0468838E+01   1.0468838E+01   1.0468838E+01   1.8468611E+01   1.9258711E+01   1.9752525E+01   2.0147575E+01   2.0147575E+01   2.0246338E+01   2.0345100E+01   2.0345100E+01   2.0345100E+01   3.0616413E+01   3.1900328E+01   3.2591667E+01   3.3184242E+01   3.3480530E+01   3.3579292E+01   3.3776817E+01   3.3776817E+01   3.3776817E+01   4.4838230E+01   4.6319672E+01   4.7208534E+01   4.7899872E+01   4.8393684E+01   4.8689972E+01   4.8788734E+01   4.8887501E+01   4.8887501E+01   0.0000000E+00   0.0000000E+00   0.0000000E+00   0.0000000E+00   0.0000000E+00   0.0000000E+00   0.0000000E+00   0.0000000E+00   0.0000000E+00   0.0000000E+00   0.0000000E+00   0.0000000E+00   0.0000000E+00   0.0000000E+00   0.0000000E+00   0.0000000E+00   0.0000000E+00   0.0000000E+00   0.0000000E+00   0.0000000E+00   0.0000000E+00   0.0000000E+00   0.0000000E+00   0.0000000E+00   0.0000000E+00   0.0000000E+00   0.0000000E+00   0.0000000E+00   0.0000000E+00   0.0000000E+00   0.0000000E+00   0.0000000E+00   1.9752525E-01   1.9752525E-01   1.9752525E-01   1.9752525E-01   1.9752525E-01   1.9752525E-01   1.9752525E-01   1.9752525E-01   1.2839141E+00   1.2839141E+00   1.2839141E+00   1.2839141E+00   1.2839141E+00   1.2839141E+00   1.2839141E+00   1.2839141E+00   4.3455553E+00   4.3455553E+00   4.3455553E+00   4.3455553E+00   4.3455553E+00   4.2467928E+00   4.1480303E+00   4.1480303E+00   1.0468838E+01   1.0468838E+01   1.0468838E+01   1.0468838E+01   1.0468838E+01   1.0468838E+01   1.0271313E+01   9.9750252E+00   2.0345100E+01   2.0345100E+01   2.0345100E+01   2.0345100E+01   2.0246338E+01   2.0147575E+01   2.0147575E+01   1.9752525E+01   3.3776817E+01   3.3776817E+01   3.3776817E+01   3.3776817E+01   3.3579292E+01   3.3480530E+01   3.3184242E+01   3.2591667E+01   4.8887501E+01   4.8887501E+01   4.8887501E+01   4.8788734E+01   4.8689972E+01   4.8393684E+01   4.7899872E+01   4.7208534E+01   0.0000000E+00   0.0000000E+00   0.0000000E+00   0.0000000E+00   0.0000000E+00   0.0000000E+00   0.0000000E+00   0.0000000E+00   0.0000000E+00   0.0000000E+00   0.0000000E+00   0.0000000E+00   0.0000000E+00   0.0000000E+00   0.0000000E+00   0.0000000E+00   0.0000000E+00   0.0000000E+00   0.0000000E+00   0.0000000E+00   0.0000000E+00   0.0000000E+00   0.0000000E+00   0.0000000E+00   0.0000000E+00   0.0000000E+00   0.0000000E+00   0.0000000E+00   0.0000000E+00   0.0000000E+00   0.0000000E+00   0.0000000E+00   0.0000000E+00   0.0000000E+00   0.0000000E+00   0.0000000E+00   1.9752525E-01   1.9752525E-01   1.9752525E-01   1.9752525E-01   9.8762624E-02   9.8762624E-02   0.0000000E+00   0.0000000E+00   0.0000000E+00   1.2839141E+00   1.1851515E+00   1.1851515E+00   9.8762625E-01   8.8886362E-01   6.9133836E-01   5.9257573E-01   3.9505050E-01   1.9752525E-01   4.0492678E+00   3.8517423E+00   3.8517423E+00   3.4566917E+00   3.1604040E+00   2.6665909E+00   1.9752525E+00   1.3826767E+00   8.8886362E-01   9.8762627E+00   9.4812117E+00   8.9873991E+00   8.2960606E+00   7.4071970E+00   6.4195704E+00   5.0368938E+00   3.7529798E+00   2.4690657E+00   1.9258711E+01   1.8468611E+01   1.7579746E+01   1.6394596E+01   1.4715631E+01   1.2542853E+01   1.0172550E+01   7.7034845E+00   5.3331819E+00   3.1900328E+01   3.0616413E+01   2.9233736E+01   2.7159721E+01   2.4493132E+01   2.1332727E+01   1.7382221E+01   1.3234192E+01   9.2836866E+00   4.6319672E+01   4.4838230E+01   4.2665455E+01   3.9900101E+01   3.6245884E+01   3.1702803E+01   2.6172096E+01   2.0345100E+01   1.4616868E+01   2.7653534E+01   2.0246338E+01   2.5875807E+01   3.1208990E+01   3.6640934E+01   4.3159267E+01   5.2047901E+01   6.4985809E+01   8.4540810E+01   1.1278692E+02   1.5061301E+02   1.9663638E+02   0.0000000E+00   0.0000000E+00   0.0000000E+00   0.0000000E+00   0.0000000E+00   0.0000000E+00   0.0000000E+00   0.0000000E+00   0.0000000E+00   0.0000000E+00   0.0000000E+00   0.0000000E+00   0.0000000E+00   0.0000000E+00   0.0000000E+00   0.0000000E+00   0.0000000E+00   0.0000000E+00   0.0000000E+00   0.0000000E+00   0.0000000E+00   0.0000000E+00   0.0000000E+00   4.9381313E-01   1.9752525E-01   0.0000000E+00   0.0000000E+00   1.4814394E+00   6.9133836E-01   2.9628786E-01   0.0000000E+00   3.3579292E+00   1.8764899E+00   8.8886362E-01   2.9628786E-01   6.1232829E+00   3.6542170E+00   1.7777272E+00   6.9133836E-01   9.7775002E+00   5.9257574E+00   3.2591665E+00   1.2839141E+00   1.3826767E+01   8.6911106E+00   4.7406058E+00   2.0740151E+00   1.7777273E+01   1.1357701E+01   6.4195704E+00   2.7653534E+00   2.1826540E+01   1.4123055E+01   7.9010100E+00   3.5554545E+00   2.5777044E+01   1.6690884E+01   9.4812117E+00   4.3455553E+00   3.0320126E+01   1.9752525E+01   1.1258939E+01   5.0368938E+00   3.6640934E+01   2.3801792E+01   1.3530479E+01   6.2220454E+00   4.6319672E+01   3.0023838E+01   1.7085934E+01   7.8022475E+00   6.1035301E+01   3.9998863E+01   2.2814167E+01   1.0370075E+01   8.3158127E+01   5.5208305E+01   3.1999090E+01   1.5110682E+01   1.1347826E+02   7.6343506E+01   4.5825859E+01   2.3110455E+01   1.5031671E+02   1.0310818E+02   6.4985809E+01   0.0000000E+00   0.0000000E+00   0.0000000E+00   0.0000000E+00   0.0000000E+00   0.0000000E+00   0.0000000E+00   0.0000000E+00   0.0000000E+00   0.0000000E+00   0.0000000E+00   0.0000000E+00   0.0000000E+00   0.0000000E+00   0.0000000E+00   0.0000000E+00   0.0000000E+00   0.0000000E+00   0.0000000E+00   0.0000000E+00   0.0000000E+00   0.0000000E+00   0.0000000E+00   0.0000000E+00   0.0000000E+00   0.0000000E+00   0.0000000E+00   0.0000000E+00   0.0000000E+00   0.0000000E+00   0.0000000E+00   0.0000000E+00   0.0000000E+00   0.0000000E+00   0.0000000E+00   0.0000000E+00   0.0000000E+00   0.0000000E+00   0.0000000E+00   0.0000000E+00   0.0000000E+00   0.0000000E+00   0.0000000E+00   0.0000000E+00   0.0000000E+00   0.0000000E+00   0.0000000E+00   0.0000000E+00   0.0000000E+00   0.0000000E+00   0.0000000E+00   0.0000000E+00   0.0000000E+00   0.0000000E+00   0.0000000E+00   0.0000000E+00   0.0000000E+00   0.0000000E+00   0.0000000E+00   0.0000000E+00   0.0000000E+00   0.0000000E+00   0.0000000E+00   0.0000000E+00   0.0000000E+00   0.0000000E+00   0.0000000E+00   0.0000000E+00   0.0000000E+00   0.0000000E+00   0.0000000E+00   0.0000000E+00   0.0000000E+00   0.0000000E+00   0.0000000E+00   0.0000000E+00   0.0000000E+00   0.0000000E+00   0.0000000E+00   0.0000000E+00   0.0000000E+00   0.0000000E+00   0.0000000E+00   0.0000000E+00   0.0000000E+00   0.0000000E+00   0.0000000E+00   0.0000000E+00   0.0000000E+00   0.0000000E+00   0.0000000E+00   0.0000000E+00   0.0000000E+00   0.0000000E+00   0.0000000E+00   0.0000000E+00   0.0000000E+00   0.0000000E+00   0.0000000E+00   0.0000000E+00   0.0000000E+00   0.0000000E+00   0.0000000E+00   0.0000000E+00   0.0000000E+00   0.0000000E+00   0.0000000E+00   0.0000000E+00   0.0000000E+00   0.0000000E+00   0.0000000E+00   0.0000000E+00   0.0000000E+00   0.0000000E+00   0.0000000E+00   0.0000000E+00   0.0000000E+00   0.0000000E+00   0.0000000E+00   0.0000000E+00   0.0000000E+00   0.0000000E+00   0.0000000E+00   0.0000000E+00   0.0000000E+00   0.0000000E+00   0.0000000E+00   0.0000000E+00   0.0000000E+00   0.0000000E+00   0.0000000E+00   0.0000000E+00   0.0000000E+00   0.0000000E+00   0.0000000E+00   0.0000000E+00   0.0000000E+00   0.0000000E+00   0.0000000E+00   0.0000000E+00   0.0000000E+00   0.0000000E+00   0.0000000E+00   0.0000000E+00   0.0000000E+00   0.0000000E+00   0.0000000E+00   0.0000000E+00   0.0000000E+00   0.0000000E+00   0.0000000E+00   0.0000000E+00   0.0000000E+00   0.0000000E+00   0.0000000E+00   0.0000000E+00   0.0000000E+00   0.0000000E+00   0.0000000E+00   0.0000000E+00   0.0000000E+00   0.0000000E+00   0.0000000E+00   0.0000000E+00   0.0000000E+00   0.0000000E+00   0.0000000E+00   0.0000000E+00   0.0000000E+00   0.0000000E+00   0.0000000E+00   0.0000000E+00   0.0000000E+00   0.0000000E+00   0.0000000E+00   0.0000000E+00   0.0000000E+00   0.0000000E+00   0.0000000E+00   0.0000000E+00   0.0000000E+00   0.0000000E+00   0.0000000E+00   0.0000000E+00   0.0000000E+00   0.0000000E+00   0.0000000E+00   0.0000000E+00   0.0000000E+00   0.0000000E+00   0.0000000E+00   0.0000000E+00   0.0000000E+00   0.0000000E+00   0.0000000E+00   0.0000000E+00   0.0000000E+00   0.0000000E+00   0.0000000E+00   0.0000000E+00   0.0000000E+00   0.0000000E+00   0.0000000E+00   0.0000000E+00   0.0000000E+00   0.0000000E+00   0.0000000E+00   0.0000000E+00   0.0000000E+00   0.0000000E+00   0.0000000E+00   0.0000000E+00   0.0000000E+00   0.0000000E+00   0.0000000E+00   0.0000000E+00   0.0000000E+00   0.0000000E+00   0.0000000E+00   0.0000000E+00   0.0000000E+00   0.0000000E+00   0.0000000E+00   0.0000000E+00   0.0000000E+00   0.0000000E+00   0.0000000E+00   0.0000000E+00   0.0000000E+00   0.0000000E+00   0.0000000E+00   0.0000000E+00   0.0000000E+00   0.0000000E+00   0.0000000E+00   0.0000000E+00   0.0000000E+00   0.0000000E+00   0.0000000E+00   0.0000000E+00   0.0000000E+00   0.0000000E+00   0.0000000E+00   0.0000000E+00   0.0000000E+00   0.0000000E+00   0.0000000E+00   0.0000000E+00   0.0000000E+00   0.0000000E+00   0.0000000E+00   0.0000000E+00   0.0000000E+00   0.0000000E+00   0.0000000E+00   0.0000000E+00   0.0000000E+00   0.0000000E+00   0.0000000E+00   0.0000000E+00   0.0000000E+00   0.0000000E+00   0.0000000E+00   0.0000000E+00   0.0000000E+00   0.0000000E+00   0.0000000E+00   0.0000000E+00   0.0000000E+00   0.0000000E+00   0.0000000E+00   0.0000000E+00   0.0000000E+00   0.0000000E+00   0.0000000E+00   0.0000000E+00   0.0000000E+00   0.0000000E+00   0.0000000E+00   0.0000000E+00   0.0000000E+00   0.0000000E+00   0.0000000E+00   0.0000000E+00   0.0000000E+00   0.0000000E+00   0.0000000E+00   0.0000000E+00   0.0000000E+00   0.0000000E+00   0.0000000E+00   0.0000000E+00   0.0000000E+00   0.0000000E+00   0.0000000E+00   0.0000000E+00   0.0000000E+00   0.0000000E+00   0.0000000E+00   0.0000000E+00   0.0000000E+00   0.0000000E+00   0.0000000E+00   0.0000000E+00   0.0000000E+00   0.0000000E+00   0.0000000E+00   0.0000000E+00   0.0000000E+00   0.0000000E+00   0.0000000E+00   0.0000000E+00   0.0000000E+00   0.0000000E+00   0.0000000E+00   0.0000000E+00   0.0000000E+00   0.0000000E+00   0.0000000E+00   0.0000000E+00   0.0000000E+00   0.0000000E+00   0.0000000E+00   0.0000000E+00   0.0000000E+00   0.0000000E+00   0.0000000E+00   0.0000000E+00   0.0000000E+00   0.0000000E+00   0.0000000E+00   0.0000000E+00   0.0000000E+00   0.0000000E+00   0.0000000E+00   0.0000000E+00   0.0000000E+00   0.0000000E+00   0.0000000E+00   0.0000000E+00   0.0000000E+00   0.0000000E+00   0.0000000E+00   0.0000000E+00   0.0000000E+00   0.0000000E+00   0.0000000E+00   0.0000000E+00   0.0000000E+00   0.0000000E+00   0.0000000E+00   0.0000000E+00   0.0000000E+00   0.0000000E+00   0.0000000E+00   0.0000000E+00   0.0000000E+00   0.0000000E+00   0.0000000E+00   0.0000000E+00   0.0000000E+00   0.0000000E+00   0.0000000E+00   0.0000000E+00   0.0000000E+00   0.0000000E+00   0.0000000E+00   0.0000000E+00   0.0000000E+00   0.0000000E+00   0.0000000E+00   0.0000000E+00   0.0000000E+00   0.0000000E+00   0.0000000E+00   0.0000000E+00   0.0000000E+00   0.0000000E+00   0.0000000E+00   0.0000000E+00   0.0000000E+00   0.0000000E+00   0.0000000E+00   0.0000000E+00   0.0000000E+00   0.0000000E+00   0.0000000E+00   0.0000000E+00   0.0000000E+00   0.0000000E+00   0.0000000E+00   0.0000000E+00   0.0000000E+00   0.0000000E+00   0.0000000E+00   0.0000000E+00   0.0000000E+00   0.0000000E+00   0.0000000E+00   0.0000000E+00   0.0000000E+00   0.0000000E+00   0.0000000E+00   0.0000000E+00   0.0000000E+00   0.0000000E+00   0.0000000E+00   0.0000000E+00   0.0000000E+00   0.0000000E+00   0.0000000E+00   0.0000000E+00   0.0000000E+00   0.0000000E+00   0.0000000E+00   0.0000000E+00   0.0000000E+00   0.0000000E+00   0.0000000E+00   0.0000000E+00   0.0000000E+00   0.0000000E+00   0.0000000E+00   0.0000000E+00   0.0000000E+00   0.0000000E+00   0.0000000E+00   0.0000000E+00   0.0000000E+00   0.0000000E+00   0.0000000E+00   0.0000000E+00   0.0000000E+00   0.0000000E+00   0.0000000E+00   0.0000000E+00   0.0000000E+00   0.0000000E+00   0.0000000E+00   0.0000000E+00   0.0000000E+00   0.0000000E+00   0.0000000E+00   0.0000000E+00   0.0000000E+00   0.0000000E+00   0.0000000E+00   0.0000000E+00   0.0000000E+00   0.0000000E+00   0.0000000E+00   0.0000000E+00   0.0000000E+00   0.0000000E+00   0.0000000E+00   0.0000000E+00   0.0000000E+00   0.0000000E+00   0.0000000E+00   0.0000000E+00   0.0000000E+00   0.0000000E+00   0.0000000E+00   0.0000000E+00   0.0000000E+00   0.0000000E+00   0.0000000E+00   0.0000000E+00   0.0000000E+00   0.0000000E+00   0.0000000E+00   0.0000000E+00   3.5258255E+01   4.1974113E+01   4.7702347E+01   5.2146664E+01   5.5504593E+01   3.4369392E+01   4.3653080E+01   5.1455326E+01   5.7776134E+01   6.2911793E+01   6.6664772E+01   4.1184013E+01   5.1554089E+01   6.0541489E+01   6.7751160E+01   7.3084343E+01   7.7034843E+01   4.8196159E+01   6.0245201E+01   7.0318985E+01   7.8220001E+01   8.3948227E+01   8.8096260E+01   5.6788509E+01   7.0516510E+01   8.1676689E+01   9.0466560E+01   9.6787369E+01   1.0083664E+02   6.8442497E+01   8.4145752E+01   9.6589844E+01   1.0577477E+02   1.1239187E+02   1.1653989E+02   8.7009872E+01   1.0370075E+02   1.1663866E+02   1.2542854E+02   1.3155182E+02   1.3579861E+02   1.1644113E+02   1.3323077E+02   1.4369962E+02   1.5061301E+02   1.5535361E+02   1.5851401E+02   1.6118060E+02   1.7530367E+02   1.7984674E+02   1.8211829E+02   1.8369849E+02   1.8527869E+02   2.2389487E+02   2.2922804E+02   2.2428992E+02   2.1895674E+02   2.1638892E+02   2.1559880E+02   2.9846066E+02   2.9016458E+02   2.7288113E+02   2.5954819E+02   2.5223975E+02   2.4937563E+02   3.6058234E+02   3.4675558E+02   3.2028720E+02   3.0083096E+02   2.9055963E+02   2.8621408E+02   3.7895218E+02   3.8250763E+02   3.6028604E+02   3.4112610E+02   3.3055850E+02   3.2611420E+02   3.8448288E+02   4.0235889E+02   3.9426038E+02   3.8092740E+02   3.7312515E+02   3.7006354E+02   4.0621063E+02   4.2665451E+02   4.3001242E+02   4.2418542E+02   4.2043246E+02   4.1885226E+02   4.4857974E+02   4.6704834E+02   4.7504813E+02   4.7475183E+02   4.7396173E+02   4.7386298E+02   5.0902246E+02   5.2472571E+02   5.3312054E+02   5.3489825E+02   5.3588586E+02   5.3647845E+02   5.8299561E+02   5.9603223E+02   6.0353821E+02   6.0531592E+02   6.0669861E+02   6.0778503E+02   6.6684497E+02   6.7889404E+02   6.8521484E+02   6.8649872E+02   6.8788141E+02   6.8877026E+02   7.6175568E+02   7.7390344E+02   7.7903912E+02   7.7933539E+02   7.8052057E+02   7.8101434E+02   8.7039429E+02   8.8264081E+02   8.8649255E+02   8.8550494E+02   8.8580127E+02   8.8540619E+02   9.9562488E+02   1.0071801E+03   1.0093529E+03   1.0064888E+03   1.0049086E+03   1.0028345E+03   1.1390276E+03   1.1492990E+03   1.1494965E+03   1.1434719E+03   1.1390276E+03   1.1337932E+03   1.3027750E+03   1.3110710E+03   1.3088983E+03   1.2981332E+03   1.2883557E+03   1.2788745E+03   1.4842992E+03   1.4913114E+03   1.4860769E+03   1.4668182E+03   1.4491398E+03   1.4334366E+03   1.6762917E+03   1.6832051E+03   1.6730326E+03   1.6403423E+03   1.6116024E+03   1.5874056E+03   1.8694680E+03   1.8787516E+03   1.8598881E+03   1.8063590E+03   1.7636937E+03   1.7307072E+03   2.0510879E+03   2.0633342E+03   2.0288663E+03   1.9479803E+03   1.8903033E+03   1.8502061E+03   2.2244097E+03   2.2385325E+03   2.1806582E+03   2.0688599E+03   1.9989366E+03   1.9566666E+03   2.4474053E+03   2.4600469E+03   2.3769885E+03   2.2401052E+03   2.1663306E+03   2.1301838E+03   2.9234224E+03   2.9312244E+03   2.8395742E+03   2.7003215E+03   2.6358306E+03   2.6176584E+03   4.0984551E+03   4.1086274E+03   4.0669507E+03   3.9628572E+03   3.9231555E+03   3.9333279E+03   6.4077158E+03   6.4421831E+03   6.4930439E+03   6.5007476E+03   6.5141787E+03   6.5583242E+03   9.2524824E+03   9.3304033E+03   9.4577021E+03   9.6174941E+03   9.7223750E+03   9.8066162E+03   1.1122409E+04   1.1232622E+04   1.1379473E+04   1.1622810E+04   1.1817065E+04   1.1937647E+04   1.1614282E+04   1.1702964E+04   1.1788189E+04   1.2032411E+04   1.2264683E+04   1.2405902E+04   1.1454085E+04   1.1500400E+04   1.1497834E+04   1.1661565E+04   1.1862329E+04   1.1992880E+04   1.1311168E+04   1.1329042E+04   1.1317489E+04   1.1367160E+04   1.1468279E+04   1.1537503E+04   1.1419421E+04   1.1397697E+04   1.1408362E+04   1.1367088E+04   1.1379728E+04   1.1390688E+04   1.1721679E+04   1.1666188E+04   1.1694724E+04   1.1607341E+04   1.1569131E+04   1.1544644E+04   1.2071989E+04   1.1991427E+04   1.2027759E+04   1.1935151E+04   1.1885393E+04   1.1851825E+04   1.2346521E+04   1.2253825E+04   1.2288475E+04   1.2217596E+04   1.2187389E+04   1.2166362E+04   1.2318915E+04   1.2226529E+04   1.2257914E+04   1.2211128E+04   1.2211227E+04   1.2214386E+04   1.2027528E+04   1.1947001E+04   1.1981536E+04   1.1959726E+04   1.1992288E+04   1.2025347E+04   1.1568044E+04   1.1509143E+04   1.1558166E+04   1.1565462E+04   1.1631555E+04   1.1696664E+04   1.1008168E+04   1.0982123E+04   1.1059918E+04   1.1103300E+04   1.1203286E+04   1.1300416E+04   1.0369307E+04   1.0387721E+04   1.0505087E+04   1.0592792E+04   1.0725640E+04   1.0849329E+04   9.6427236E+03   9.7169561E+03   9.8752012E+03   1.0008438E+04   1.0163447E+04   1.0309505E+04   8.8193955E+03   8.9486436E+03   9.1457861E+03   9.3057510E+03   9.4807842E+03   9.6423447E+03   7.9187998E+03   8.0909063E+03   8.3124453E+03   8.4836035E+03   8.6762910E+03   8.8444189E+03   6.9921572E+03   7.1894541E+03   7.4116821E+03   7.5861704E+03   7.7854814E+03   7.9524312E+03   6.0987373E+03   6.3023188E+03   6.5070024E+03   6.6723726E+03   6.8650488E+03   7.0247539E+03   5.2552378E+03   5.4671606E+03   5.6522881E+03   5.8011445E+03   5.9754604E+03   6.1212993E+03   4.4368057E+03   4.6882437E+03   4.8754141E+03   5.0134531E+03   5.1632417E+03   5.2870063E+03   3.6764902E+03   3.9914800E+03   4.2110049E+03   4.3373657E+03   4.4517490E+03   4.5474014E+03   3.4006968E+03   3.6680190E+03   3.7733198E+03   3.8486262E+03   3.9106116E+03   2.8948621E+03   3.1786057E+03   3.3012822E+03   3.3457869E+03   3.3770083E+03   2.6824988E+03   2.8614790E+03   2.9091699E+03   2.9348606E+03   2.2156658E+03   2.3793347E+03   2.4948643E+03   2.5473186E+03   1.9093682E+03   2.0519644E+03   2.1571665E+03   1.6186754E+03   1.7251727E+03   1.4266759E+03   1.3402562E+03   5.8072422E+01   5.9948914E+01   6.1035301E+01   6.2121689E+01   6.2417980E+01   6.2813030E+01   6.2911793E+01   6.2911793E+01   6.2911793E+01   6.9331360E+01   7.1504143E+01   7.2788055E+01   7.3775681E+01   7.4170731E+01   7.4565781E+01   7.4565781E+01   7.4565781E+01   7.4565781E+01   7.9898964E+01   8.1874214E+01   8.3355652E+01   8.4046989E+01   8.4639572E+01   8.4738335E+01   8.4738335E+01   8.4738335E+01   8.4639572E+01   9.0960373E+01   9.2836868E+01   9.4022018E+01   9.4515831E+01   9.5009644E+01   9.4910881E+01   9.4812119E+01   9.4614594E+01   9.4614594E+01   1.0370075E+02   1.0528096E+02   1.0626859E+02   1.0656487E+02   1.0656487E+02   1.0626859E+02   1.0607106E+02   1.0597230E+02   1.0577477E+02   1.1910773E+02   1.2049040E+02   1.2108298E+02   1.2108298E+02   1.2078669E+02   1.2049040E+02   1.1989783E+02   1.1960154E+02   1.1940401E+02   1.3797139E+02   1.3886024E+02   1.3905777E+02   1.3866272E+02   1.3787262E+02   1.3718129E+02   1.3639119E+02   1.3589737E+02   1.3560109E+02   1.6039050E+02   1.6058803E+02   1.6019298E+02   1.5920535E+02   1.5811896E+02   1.5703258E+02   1.5614371E+02   1.5535361E+02   1.5495856E+02   1.8587126E+02   1.8587126E+02   1.8468611E+02   1.8310591E+02   1.8162447E+02   1.8014302E+02   1.7866159E+02   1.7787149E+02   1.7737767E+02   2.1520375E+02   2.1421613E+02   2.1243840E+02   2.1026563E+02   2.0819160E+02   2.0621635E+02   2.0483368E+02   2.0354977E+02   2.0295720E+02   2.4799295E+02   2.4631398E+02   2.4384492E+02   2.4127708E+02   2.3861050E+02   2.3633896E+02   2.3456123E+02   2.3327731E+02   2.3248721E+02   2.8414008E+02   2.8206604E+02   2.7920193E+02   2.7594278E+02   2.7288113E+02   2.7031329E+02   2.6833804E+02   2.6685660E+02   2.6596774E+02   3.2413895E+02   3.2186740E+02   3.1870700E+02   3.1515152E+02   3.1189236E+02   3.0912701E+02   3.0675671E+02   3.0517651E+02   3.0418887E+02   3.6848334E+02   3.6621179E+02   3.6305139E+02   3.5949591E+02   3.5584171E+02   3.5278006E+02   3.5040976E+02   3.4863205E+02   3.4754565E+02   4.1776587E+02   4.1598813E+02   4.1282773E+02   4.0907477E+02   4.0542053E+02   4.0186508E+02   3.9959354E+02   3.9771707E+02   3.9663068E+02   4.7336914E+02   4.7149265E+02   4.6872729E+02   4.6487558E+02   4.6132010E+02   4.5796219E+02   4.5519684E+02   4.5332034E+02   4.5223395E+02   5.3618219E+02   5.3460199E+02   5.3173785E+02   5.2788611E+02   5.2403436E+02   5.2077521E+02   5.1791107E+02   5.1583710E+02   5.1484943E+02   6.0758746E+02   6.0600726E+02   6.0284686E+02   5.9909387E+02   5.9484711E+02   5.9148920E+02   5.8852631E+02   5.8635352E+02   5.8516840E+02   6.8857275E+02   6.8649872E+02   6.8314081E+02   6.7859772E+02   6.7405463E+02   6.7040045E+02   6.6724005E+02   6.6506726E+02   6.6368457E+02   7.8012549E+02   7.7736017E+02   7.7301459E+02   7.6768140E+02   7.6264453E+02   7.5829895E+02   7.5474353E+02   7.5227448E+02   7.5069427E+02   8.8343091E+02   8.7928290E+02   8.7355469E+02   8.6703638E+02   8.6071558E+02   8.5548114E+02   8.5113556E+02   8.4797516E+02   8.4629620E+02   9.9908154E+02   9.9285956E+02   9.8505731E+02   9.7646497E+02   9.6846521E+02   9.6165057E+02   9.5631738E+02   9.5246570E+02   9.4999658E+02   1.1268799E+03   1.1179912E+03   1.1070286E+03   1.0956709E+03   1.0851033E+03   1.0764122E+03   1.0694989E+03   1.0644619E+03   1.0613015E+03   1.2680106E+03   1.2545790E+03   1.2391720E+03   1.2237651E+03   1.2100371E+03   1.1983832E+03   1.1894945E+03   1.1828774E+03   1.1791245E+03   1.4163507E+03   1.3973883E+03   1.3765496E+03   1.3557107E+03   1.3375383E+03   1.3226252E+03   1.3111688E+03   1.3029716E+03   1.2981322E+03   1.5635052E+03   1.5371357E+03   1.5091859E+03   1.4826189E+03   1.4593110E+03   1.4404474E+03   1.4265220E+03   1.4162507E+03   1.4106212E+03   1.6993009E+03   1.6655242E+03   1.6300686E+03   1.5963907E+03   1.5676510E+03   1.5449357E+03   1.5277511E+03   1.5158997E+03   1.5090851E+03   1.8130715E+03   1.7733693E+03   1.7312966E+03   1.6911993E+03   1.6572252E+03   1.6306582E+03   1.6112021E+03   1.5975730E+03   1.5895732E+03   1.9190385E+03   1.8776573E+03   1.8321282E+03   1.7877842E+03   1.7500573E+03   1.7204287E+03   1.6987999E+03   1.6840844E+03   1.6753933E+03   2.1005554E+03   2.0646064E+03   2.0219414E+03   1.9780914E+03   1.9392782E+03   1.9085634E+03   1.8862433E+03   1.8711328E+03   1.8618492E+03   2.6063010E+03   2.5860549E+03   2.5541553E+03   2.5169224E+03   2.4817634E+03   2.4526289E+03   2.4310002E+03   2.4159888E+03   2.4071001E+03   3.9509072E+03   3.9555491E+03   3.9435991E+03   3.9203904E+03   3.8938237E+03   3.8699238E+03   3.8511594E+03   3.8377280E+03   3.8295308E+03   6.6104692E+03   6.6468130E+03   6.6606392E+03   6.6569849E+03   6.6443438E+03   6.6294312E+03   6.6157036E+03   6.6056299E+03   6.5990132E+03   9.8904619E+03   9.9570254E+03   9.9972197E+03   1.0014503E+04   1.0017958E+04   1.0014699E+04   1.0009267E+04   1.0003638E+04   9.9992920E+03   1.2041342E+04   1.2127162E+04   1.2186515E+04   1.2222065E+04   1.2241718E+04   1.2251001E+04   1.2254655E+04   1.2254853E+04   1.2253668E+04   1.2513545E+04   1.2602721E+04   1.2669479E+04   1.2716486E+04   1.2748581E+04   1.2770012E+04   1.2783541E+04   1.2790651E+04   1.2793613E+04   1.2087682E+04   1.2165104E+04   1.2227910E+04   1.2278371E+04   1.2318860E+04   1.2350362E+04   1.2373174E+04   1.2387196E+04   1.2394307E+04   1.1593986E+04   1.1647902E+04   1.1698659E+04   1.1745368E+04   1.1788323E+04   1.1825156E+04   1.1853793E+04   1.1872555E+04   1.1882430E+04   1.1410141E+04   1.1440061E+04   1.1475113E+04   1.1512933E+04   1.1551640E+04   1.1587386E+04   1.1616416E+04   1.1635671E+04   1.1645842E+04   1.1540497E+04   1.1553629E+04   1.1575450E+04   1.1602997E+04   1.1634001E+04   1.1663918E+04   1.1688307E+04   1.1704598E+04   1.1712497E+04   1.1840965E+04   1.1848567E+04   1.1864166E+04   1.1884703E+04   1.1908200E+04   1.1931303E+04   1.1949469E+04   1.1960427E+04   1.1965067E+04   1.2164290E+04   1.2177913E+04   1.2195978E+04   1.2215229E+04   1.2234873E+04   1.2252938E+04   1.2265672E+04   1.2272089E+04   1.2273668E+04   1.2231166E+04   1.2259593E+04   1.2286735E+04   1.2310029E+04   1.2330756E+04   1.2347240E+04   1.2357505E+04   1.2361060E+04   1.2360566E+04   1.2066596E+04   1.2113567E+04   1.2153336E+04   1.2184815E+04   1.2209782E+04   1.2228038E+04   1.2238399E+04   1.2241657E+04   1.2240473E+04   1.1764438E+04   1.1830338E+04   1.1883116E+04   1.1922677E+04   1.1952667E+04   1.1973878E+04   1.1986111E+04   1.1989960E+04   1.1989467E+04   1.1393111E+04   1.1475060E+04   1.1536891E+04   1.1581169E+04   1.1614008E+04   1.1636887E+04   1.1650103E+04   1.1655231E+04   1.1655134E+04   1.0962081E+04   1.1053152E+04   1.1116923E+04   1.1160096E+04   1.1191342E+04   1.1212534E+04   1.1224955E+04   1.1229393E+04   1.1229197E+04   1.0433405E+04   1.0524807E+04   1.0583314E+04   1.0619857E+04   1.0644683E+04   1.0661627E+04   1.0671086E+04   1.0674239E+04   1.0673158E+04   9.7689795E+03   9.8547842E+03   9.9039873E+03   9.9310537E+03   9.9479834E+03   9.9595020E+03   9.9655088E+03   9.9669883E+03   9.9654170E+03   8.9693164E+03   9.0476416E+03   9.0876445E+03   9.1062275E+03   9.1163584E+03   9.1234414E+03   9.1275742E+03   9.1279736E+03   9.1265029E+03   8.0738726E+03   8.1466670E+03   8.1810132E+03   8.1944658E+03   8.2013447E+03   8.2061611E+03   8.2094053E+03   8.2102939E+03   8.2094150E+03   7.1416045E+03   7.2129565E+03   7.2465396E+03   7.2606479E+03   7.2676108E+03   7.2728091E+03   7.2767324E+03   7.2786963E+03   7.2791895E+03   6.2308560E+03   6.3032529E+03   6.3425845E+03   6.3621128E+03   6.3729580E+03   6.3801895E+03   6.3856626E+03   6.3892793E+03   6.3907476E+03   5.3841582E+03   5.4576108E+03   5.5067817E+03   5.5367192E+03   5.5548037E+03   5.5662803E+03   5.5737715E+03   5.5787339E+03   5.5812642E+03   4.6255708E+03   4.6951377E+03   4.7543672E+03   4.7980430E+03   4.8272295E+03   4.8453071E+03   4.8563296E+03   4.8628110E+03   4.8662939E+03   3.9629094E+03   4.0212322E+03   4.0843362E+03   4.1419697E+03   4.1855078E+03   4.2142817E+03   4.2314541E+03   4.2412417E+03   4.2458501E+03   3.3999641E+03   3.4377065E+03   3.4944106E+03   3.5587891E+03   3.6165171E+03   3.6594346E+03   3.6870686E+03   3.7030247E+03   3.7109099E+03   2.9372188E+03   2.9485496E+03   2.9868376E+03   3.0450627E+03   3.1081467E+03   3.1630723E+03   3.2030955E+03   3.2286860E+03   3.2421855E+03   2.5637576E+03   2.5577900E+03   2.5690256E+03   2.6068665E+03   2.6611838E+03   2.7171477E+03   2.7643496E+03   2.7979983E+03   2.8177271E+03   2.2276663E+03   2.2509907E+03   2.2462322E+03   2.2547961E+03   2.2846304E+03   2.3266289E+03   2.3687954E+03   2.4030117E+03   2.4251294E+03   1.8658921E+03   1.9559365E+03   1.9937830E+03   1.9920497E+03   1.9907228E+03   2.0043146E+03   2.0278226E+03   2.0519329E+03   2.0694392E+03   1.4827543E+03   1.6121790E+03   1.7140529E+03   1.7663821E+03   1.7721130E+03   1.7612046E+03   1.7569968E+03   1.7610306E+03   1.7674351E+03   1.2466128E+03   1.3092540E+03   1.3856090E+03   1.4648522E+03   1.5263112E+03   1.5528223E+03   1.5521580E+03   1.5436730E+03   1.5388578E+03   1.2086420E+03   1.1858546E+03   1.2022715E+03   1.2245035E+03   1.2536467E+03   1.2766541E+03   1.2903750E+03   1.2955116E+03   1.1486473E+03   1.0984987E+03   1.0869364E+03   1.0642700E+03   1.0439139E+03   1.0275175E+03   1.1303025E+03   1.1068146E+03   1.0845990E+03   1.0653665E+03   6.2911793E+01   6.2911793E+01   6.2911793E+01   6.2911793E+01   6.2813030E+01   6.2417980E+01   6.2121689E+01   6.1035301E+01   7.4565781E+01   7.4565781E+01   7.4565781E+01   7.4565781E+01   7.4565781E+01   7.4170731E+01   7.3775681E+01   7.2788055E+01   8.4639572E+01   8.4639572E+01   8.4738335E+01   8.4738335E+01   8.4738335E+01   8.4639572E+01   8.4046989E+01   8.3355652E+01   9.4614594E+01   9.4614594E+01   9.4614594E+01   9.4812119E+01   9.4910881E+01   9.5009644E+01   9.4515831E+01   9.4022018E+01   1.0567601E+02   1.0577477E+02   1.0597230E+02   1.0607106E+02   1.0626859E+02   1.0656487E+02   1.0656487E+02   1.0626859E+02   1.1930525E+02   1.1940401E+02   1.1960154E+02   1.1989783E+02   1.2049040E+02   1.2078669E+02   1.2108298E+02   1.2108298E+02   1.3540356E+02   1.3560109E+02   1.3589737E+02   1.3639119E+02   1.3718129E+02   1.3787262E+02   1.3866272E+02   1.3905777E+02   1.5466226E+02   1.5495856E+02   1.5535361E+02   1.5614371E+02   1.5703258E+02   1.5811896E+02   1.5920535E+02   1.6019298E+02   1.7718015E+02   1.7737767E+02   1.7787149E+02   1.7866159E+02   1.8014302E+02   1.8162447E+02   1.8310591E+02   1.8468611E+02   2.0266090E+02   2.0295720E+02   2.0354977E+02   2.0483368E+02   2.0621635E+02   2.0819160E+02   2.1026563E+02   2.1243840E+02   2.3219093E+02   2.3248721E+02   2.3327731E+02   2.3456123E+02   2.3633896E+02   2.3861050E+02   2.4127708E+02   2.4384492E+02   2.6577023E+02   2.6596774E+02   2.6685660E+02   2.6833804E+02   2.7031329E+02   2.7288113E+02   2.7594278E+02   2.7920193E+02   3.0379382E+02   3.0418887E+02   3.0517651E+02   3.0675671E+02   3.0912701E+02   3.1189236E+02   3.1515152E+02   3.1870700E+02   3.4724936E+02   3.4754565E+02   3.4863205E+02   3.5040976E+02   3.5278006E+02   3.5584171E+02   3.5949591E+02   3.6305139E+02   3.9633438E+02   3.9663068E+02   3.9771707E+02   3.9959354E+02   4.0186508E+02   4.0542053E+02   4.0907477E+02   4.1282773E+02   4.5183890E+02   4.5223395E+02   4.5332034E+02   4.5519684E+02   4.5796219E+02   4.6132010E+02   4.6487558E+02   4.6872729E+02   5.1445441E+02   5.1484943E+02   5.1583710E+02   5.1791107E+02   5.2077521E+02   5.2403436E+02   5.2788611E+02   5.3173785E+02   5.8477332E+02   5.8516840E+02   5.8635352E+02   5.8852631E+02   5.9148920E+02   5.9484711E+02   5.9909387E+02   6.0284686E+02   6.6319080E+02   6.6368457E+02   6.6506726E+02   6.6724005E+02   6.7040045E+02   6.7405463E+02   6.7859772E+02   6.8314081E+02   7.5000293E+02   7.5069427E+02   7.5227448E+02   7.5474353E+02   7.5829895E+02   7.6264453E+02   7.6768140E+02   7.7301459E+02   8.4570367E+02   8.4629620E+02   8.4797516E+02   8.5113556E+02   8.5548114E+02   8.6071558E+02   8.6703638E+02   8.7355469E+02   9.4930530E+02   9.4999658E+02   9.5246570E+02   9.5631738E+02   9.6165057E+02   9.6846521E+02   9.7646497E+02   9.8505731E+02   1.0603140E+03   1.0613015E+03   1.0644619E+03   1.0694989E+03   1.0764122E+03   1.0851033E+03   1.0956709E+03   1.1070286E+03   1.1778406E+03   1.1791245E+03   1.1828774E+03   1.1894945E+03   1.1983832E+03   1.2100371E+03   1.2237651E+03   1.2391720E+03   1.2966508E+03   1.2981322E+03   1.3029716E+03   1.3111688E+03   1.3226252E+03   1.3375383E+03   1.3557107E+03   1.3765496E+03   1.4084485E+03   1.4106212E+03   1.4162507E+03   1.4265220E+03   1.4404474E+03   1.4593110E+03   1.4826189E+03   1.5091859E+03   1.5066160E+03   1.5090851E+03   1.5158997E+03   1.5277511E+03   1.5449357E+03   1.5676510E+03   1.5963907E+03   1.6300686E+03   1.5869067E+03   1.5895732E+03   1.5975730E+03   1.6112021E+03   1.6306582E+03   1.6572252E+03   1.6911993E+03   1.7312966E+03   1.6723318E+03   1.6753933E+03   1.6840844E+03   1.6987999E+03   1.7204287E+03   1.7500573E+03   1.7877842E+03   1.8321282E+03   1.8588864E+03   1.8618492E+03   1.8711328E+03   1.8862433E+03   1.9085634E+03   1.9392782E+03   1.9780914E+03   2.0219414E+03   2.4041375E+03   2.4071001E+03   2.4159888E+03   2.4310002E+03   2.4526289E+03   2.4817634E+03   2.5169224E+03   2.5541553E+03   3.8267656E+03   3.8295308E+03   3.8377280E+03   3.8511594E+03   3.8699238E+03   3.8938237E+03   3.9203904E+03   3.9435991E+03   6.5966426E+03   6.5990132E+03   6.6056299E+03   6.6157036E+03   6.6294312E+03   6.6443438E+03   6.6569849E+03   6.6606392E+03   9.9977119E+03   9.9992920E+03   1.0003638E+04   1.0009267E+04   1.0014699E+04   1.0017958E+04   1.0014503E+04   9.9972197E+03   1.2253272E+04   1.2253668E+04   1.2254853E+04   1.2254655E+04   1.2251001E+04   1.2241718E+04   1.2222065E+04   1.2186515E+04   1.2794206E+04   1.2793613E+04   1.2790651E+04   1.2783541E+04   1.2770012E+04   1.2748581E+04   1.2716486E+04   1.2669479E+04   1.2396183E+04   1.2394307E+04   1.2387196E+04   1.2373174E+04   1.2350362E+04   1.2318860E+04   1.2278371E+04   1.2227910E+04   1.1885294E+04   1.1882430E+04   1.1872555E+04   1.1853793E+04   1.1825156E+04   1.1788323E+04   1.1745368E+04   1.1698659E+04   1.1648902E+04   1.1645842E+04   1.1635671E+04   1.1616416E+04   1.1587386E+04   1.1551640E+04   1.1512933E+04   1.1475113E+04   1.1714669E+04   1.1712497E+04   1.1704598E+04   1.1688307E+04   1.1663918E+04   1.1634001E+04   1.1602997E+04   1.1575450E+04   1.1966252E+04   1.1965067E+04   1.1960427E+04   1.1949469E+04   1.1931303E+04   1.1908200E+04   1.1884703E+04   1.1864166E+04   1.2273569E+04   1.2273668E+04   1.2272089E+04   1.2265672E+04   1.2252938E+04   1.2234873E+04   1.2215229E+04   1.2195978E+04   1.2359875E+04   1.2360566E+04   1.2361060E+04   1.2357505E+04   1.2347240E+04   1.2330756E+04   1.2310029E+04   1.2286735E+04   1.2239585E+04   1.2240473E+04   1.2241657E+04   1.2238399E+04   1.2228038E+04   1.2209782E+04   1.2184815E+04   1.2153336E+04   1.1988679E+04   1.1989368E+04   1.1989960E+04   1.1986111E+04   1.1973878E+04   1.1952667E+04   1.1922677E+04   1.1883116E+04   1.1654147E+04   1.1655134E+04   1.1655231E+04   1.1650103E+04   1.1636887E+04   1.1614008E+04   1.1581169E+04   1.1536891E+04   1.1228408E+04   1.1229197E+04   1.1229393E+04   1.1224955E+04   1.1212534E+04   1.1191342E+04   1.1160096E+04   1.1116923E+04   1.0672175E+04   1.0673158E+04   1.0674239E+04   1.0671086E+04   1.0661627E+04   1.0644683E+04   1.0619857E+04   1.0583314E+04   9.9643350E+03   9.9654170E+03   9.9669883E+03   9.9655088E+03   9.9595020E+03   9.9479834E+03   9.9310537E+03   9.9039873E+03   9.1257178E+03   9.1265029E+03   9.1279736E+03   9.1275742E+03   9.1234414E+03   9.1163584E+03   9.1062275E+03   9.0876445E+03   8.2088281E+03   8.2094150E+03   8.2102939E+03   8.2094053E+03   8.2061611E+03   8.2013447E+03   8.1944658E+03   8.1810132E+03   7.2791914E+03   7.2791895E+03   7.2786963E+03   7.2767324E+03   7.2728091E+03   7.2676108E+03   7.2606479E+03   7.2465396E+03   6.3912373E+03   6.3907476E+03   6.3892793E+03   6.3856626E+03   6.3801895E+03   6.3729580E+03   6.3621128E+03   6.3425845E+03   5.5821401E+03   5.5812642E+03   5.5787339E+03   5.5737715E+03   5.5662803E+03   5.5548037E+03   5.5367192E+03   5.5067817E+03   4.8672617E+03   4.8662939E+03   4.8628110E+03   4.8563296E+03   4.8453071E+03   4.8272295E+03   4.7980430E+03   4.7543672E+03   4.2471938E+03   4.2458501E+03   4.2412417E+03   4.2314541E+03   4.2142817E+03   4.1855078E+03   4.1419697E+03   4.0843362E+03   3.7133799E+03   3.7109099E+03   3.7030247E+03   3.6870686E+03   3.6594346E+03   3.6165171E+03   3.5587891E+03   3.4944106E+03   3.2465916E+03   3.2421855E+03   3.2286860E+03   3.2030955E+03   3.1630723E+03   3.1081467E+03   3.0450627E+03   2.9868376E+03   2.8241804E+03   2.8177271E+03   2.7979983E+03   2.7643496E+03   2.7171477E+03   2.6611838E+03   2.6068665E+03   2.5690256E+03   2.4325317E+03   2.4251294E+03   2.4030117E+03   2.3687954E+03   2.3266289E+03   2.2846304E+03   2.2547961E+03   2.2462322E+03   2.0756848E+03   2.0694392E+03   2.0519329E+03   2.0278226E+03   2.0043146E+03   1.9907228E+03   1.9920497E+03   1.9937830E+03   1.7701660E+03   1.7674351E+03   1.7610306E+03   1.7569968E+03   1.7612046E+03   1.7721130E+03   1.7663821E+03   1.7140529E+03   1.5373889E+03   1.5388578E+03   1.5436730E+03   1.5521580E+03   1.5528223E+03   1.5263112E+03   1.4648522E+03   1.3856090E+03   1.2970142E+03   1.2955116E+03   1.2903750E+03   1.2766541E+03   1.2536467E+03   1.2245035E+03   1.2022715E+03   1.1858546E+03   1.0213775E+03   1.0275175E+03   1.0439139E+03   1.0642700E+03   1.0869364E+03   1.0984987E+03   1.1486473E+03   1.0577435E+03   1.0653665E+03   1.0845990E+03   1.1068146E+03   1.1303025E+03   5.9948914E+01   5.8072422E+01   5.5504593E+01   5.2146664E+01   4.7702347E+01   4.1974113E+01   3.5258255E+01   7.1504143E+01   6.9331360E+01   6.6664772E+01   6.2911793E+01   5.7776134E+01   5.1455326E+01   4.3653080E+01   3.4369392E+01   8.1874214E+01   7.9898964E+01   7.7034843E+01   7.3084343E+01   6.7751160E+01   6.0541489E+01   5.1554089E+01   4.1184013E+01   9.2836868E+01   9.0960373E+01   8.8096260E+01   8.3948227E+01   7.8220001E+01   7.0318985E+01   6.0245201E+01   4.8196159E+01   1.0528096E+02   1.0370075E+02   1.0083664E+02   9.6787369E+01   9.0466560E+01   8.1676689E+01   7.0516510E+01   5.6788509E+01   1.2049040E+02   1.1910773E+02   1.1653989E+02   1.1239187E+02   1.0577477E+02   9.6589844E+01   8.4145752E+01   6.8442497E+01   1.3886024E+02   1.3797139E+02   1.3579861E+02   1.3155182E+02   1.2542854E+02   1.1663866E+02   1.0370075E+02   8.7009872E+01   1.6058803E+02   1.6039050E+02   1.5851401E+02   1.5535361E+02   1.5061301E+02   1.4369962E+02   1.3323077E+02   1.1644113E+02   1.8587126E+02   1.8587126E+02   1.8527869E+02   1.8369849E+02   1.8211829E+02   1.7984674E+02   1.7530367E+02   1.6118060E+02   2.1421613E+02   2.1520375E+02   2.1559880E+02   2.1638892E+02   2.1895674E+02   2.2428992E+02   2.2922804E+02   2.2389487E+02   2.4631398E+02   2.4799295E+02   2.4937563E+02   2.5223975E+02   2.5954819E+02   2.7288113E+02   2.9016458E+02   2.9846066E+02   2.8206604E+02   2.8414008E+02   2.8621408E+02   2.9055963E+02   3.0083096E+02   3.2028720E+02   3.4675558E+02   3.6058234E+02   3.2186740E+02   3.2413895E+02   3.2611420E+02   3.3055850E+02   3.4112610E+02   3.6028604E+02   3.8250763E+02   3.7895218E+02   3.6621179E+02   3.6848334E+02   3.7006354E+02   3.7312515E+02   3.8092740E+02   3.9426038E+02   4.0235889E+02   3.8448288E+02   4.1598813E+02   4.1776587E+02   4.1885226E+02   4.2043246E+02   4.2418542E+02   4.3001242E+02   4.2665451E+02   4.0621063E+02   4.7149265E+02   4.7336914E+02   4.7386298E+02   4.7396173E+02   4.7475183E+02   4.7504813E+02   4.6704834E+02   4.4857974E+02   5.3460199E+02   5.3618219E+02   5.3647845E+02   5.3588586E+02   5.3489825E+02   5.3312054E+02   5.2472571E+02   5.0902246E+02   6.0600726E+02   6.0758746E+02   6.0778503E+02   6.0669861E+02   6.0531592E+02   6.0353821E+02   5.9603223E+02   5.8299561E+02   6.8649872E+02   6.8857275E+02   6.8877026E+02   6.8788141E+02   6.8649872E+02   6.8521484E+02   6.7889404E+02   6.6684497E+02   7.7736017E+02   7.8012549E+02   7.8101434E+02   7.8052057E+02   7.7933539E+02   7.7903912E+02   7.7390344E+02   7.6175568E+02   8.7928290E+02   8.8343091E+02   8.8540619E+02   8.8580127E+02   8.8550494E+02   8.8649255E+02   8.8264081E+02   8.7039429E+02   9.9285956E+02   9.9908154E+02   1.0028345E+03   1.0049086E+03   1.0064888E+03   1.0093529E+03   1.0071801E+03   9.9562488E+02   1.1179912E+03   1.1268799E+03   1.1337932E+03   1.1390276E+03   1.1434719E+03   1.1494965E+03   1.1492990E+03   1.1390276E+03   1.2545790E+03   1.2680106E+03   1.2788745E+03   1.2883557E+03   1.2981332E+03   1.3088983E+03   1.3110710E+03   1.3027750E+03   1.3973883E+03   1.4163507E+03   1.4334366E+03   1.4491398E+03   1.4668182E+03   1.4860769E+03   1.4913114E+03   1.4842992E+03   1.5371357E+03   1.5635052E+03   1.5874056E+03   1.6116024E+03   1.6403423E+03   1.6730326E+03   1.6832051E+03   1.6762917E+03   1.6655242E+03   1.6993009E+03   1.7307072E+03   1.7636937E+03   1.8063590E+03   1.8598881E+03   1.8787516E+03   1.8694680E+03   1.7733693E+03   1.8130715E+03   1.8502061E+03   1.8903033E+03   1.9479803E+03   2.0288663E+03   2.0633342E+03   2.0510879E+03   1.8776573E+03   1.9190385E+03   1.9566666E+03   1.9989366E+03   2.0688599E+03   2.1806582E+03   2.2385325E+03   2.2244097E+03   2.0646064E+03   2.1005554E+03   2.1301838E+03   2.1663306E+03   2.2401052E+03   2.3769885E+03   2.4600469E+03   2.4474053E+03   2.5860549E+03   2.6063010E+03   2.6176584E+03   2.6358306E+03   2.7003215E+03   2.8395742E+03   2.9312244E+03   2.9234224E+03   3.9555491E+03   3.9509072E+03   3.9333279E+03   3.9231555E+03   3.9628572E+03   4.0669507E+03   4.1086274E+03   4.0984551E+03   6.6468130E+03   6.6104692E+03   6.5583242E+03   6.5141787E+03   6.5007476E+03   6.4930439E+03   6.4421831E+03   6.4077158E+03   9.9570254E+03   9.8904619E+03   9.8066162E+03   9.7223750E+03   9.6174941E+03   9.4577021E+03   9.3304033E+03   9.2524824E+03   1.2127162E+04   1.2041342E+04   1.1937647E+04   1.1817065E+04   1.1622810E+04   1.1379473E+04   1.1232622E+04   1.1122409E+04   1.2602721E+04   1.2513545E+04   1.2405902E+04   1.2264683E+04   1.2032411E+04   1.1788189E+04   1.1702964E+04   1.1614282E+04   1.2165104E+04   1.2087682E+04   1.1992880E+04   1.1862329E+04   1.1661565E+04   1.1497834E+04   1.1500400E+04   1.1454085E+04   1.1647902E+04   1.1593986E+04   1.1537503E+04   1.1468279E+04   1.1367160E+04   1.1317489E+04   1.1329042E+04   1.1311168E+04   1.1440061E+04   1.1410141E+04   1.1390688E+04   1.1379728E+04   1.1367088E+04   1.1408362E+04   1.1397697E+04   1.1419421E+04   1.1553629E+04   1.1540497E+04   1.1544644E+04   1.1569131E+04   1.1607341E+04   1.1694724E+04   1.1666188E+04   1.1721679E+04   1.1848567E+04   1.1840965E+04   1.1851825E+04   1.1885393E+04   1.1935151E+04   1.2027759E+04   1.1991427E+04   1.2071989E+04   1.2177913E+04   1.2164290E+04   1.2166362E+04   1.2187389E+04   1.2217596E+04   1.2288475E+04   1.2253825E+04   1.2346521E+04   1.2259593E+04   1.2231166E+04   1.2214386E+04   1.2211227E+04   1.2211128E+04   1.2257914E+04   1.2226529E+04   1.2318915E+04   1.2113567E+04   1.2066596E+04   1.2025248E+04   1.1992288E+04   1.1959726E+04   1.1981536E+04   1.1947001E+04   1.2027528E+04   1.1830338E+04   1.1764438E+04   1.1696664E+04   1.1631555E+04   1.1565462E+04   1.1558166E+04   1.1509143E+04   1.1568044E+04   1.1475060E+04   1.1393111E+04   1.1300416E+04   1.1203286E+04   1.1103300E+04   1.1059918E+04   1.0982123E+04   1.1008168E+04   1.1053152E+04   1.0962081E+04   1.0849329E+04   1.0725640E+04   1.0592792E+04   1.0505087E+04   1.0387721E+04   1.0369307E+04   1.0524807E+04   1.0433405E+04   1.0309505E+04   1.0163447E+04   1.0008438E+04   9.8752012E+03   9.7169561E+03   9.6427236E+03   9.8547842E+03   9.7689795E+03   9.6423447E+03   9.4807842E+03   9.3057510E+03   9.1457861E+03   8.9486436E+03   8.8193955E+03   9.0476416E+03   8.9693164E+03   8.8444189E+03   8.6762910E+03   8.4836035E+03   8.3124453E+03   8.0909063E+03   7.9187998E+03   8.1466670E+03   8.0738726E+03   7.9524312E+03   7.7854814E+03   7.5861704E+03   7.4116821E+03   7.1894541E+03   6.9921572E+03   7.2129565E+03   7.1416045E+03   7.0247539E+03   6.8650488E+03   6.6723726E+03   6.5070024E+03   6.3023188E+03   6.0987373E+03   6.3032529E+03   6.2308560E+03   6.1212993E+03   5.9754604E+03   5.8011445E+03   5.6522881E+03   5.4671606E+03   5.2552378E+03   5.4576108E+03   5.3841582E+03   5.2870063E+03   5.1632417E+03   5.0134531E+03   4.8754141E+03   4.6882437E+03   4.4368057E+03   4.6951377E+03   4.6255708E+03   4.5474014E+03   4.4517490E+03   4.3373657E+03   4.2110049E+03   3.9914800E+03   3.6764902E+03   4.0212322E+03   3.9629094E+03   3.9106116E+03   3.8486262E+03   3.7733198E+03   3.6680190E+03   3.4006968E+03   3.4377065E+03   3.3999641E+03   3.3770083E+03   3.3457869E+03   3.3012822E+03   3.1786057E+03   2.8948621E+03   2.9485496E+03   2.9372188E+03   2.9348606E+03   2.9091699E+03   2.8614790E+03   2.6824988E+03   2.5577900E+03   2.5637576E+03   2.5473186E+03   2.4948643E+03   2.3793347E+03   2.2156658E+03   2.2509907E+03   2.2276663E+03   2.1571665E+03   2.0519644E+03   1.9093682E+03   1.9559365E+03   1.8658921E+03   1.7251727E+03   1.6186754E+03   1.6121790E+03   1.4827543E+03   1.3402562E+03   1.4266759E+03   1.3092540E+03   1.2466128E+03   1.2086420E+03 
Type 1 2975 float
0 0 0 0 0 0 0 0 0 0 0 0 0 0 0 0 0 0 0 0 0 0 0 0 0 0 0 0 0 0 0 0 0 0 0 0 0 0 0 0 0 0 0 0 0 0 0 0 0 0 0 0 0 0 0 0 0 0 0 0 0 0 0 0 0 0 0 0 0 0 0 0 0 0 0 0 0 0 0 0 0 0 0 0 0 0 0 0 0 0 0 0 0 0 0 0 0 0 0 0 0 0 0 0 0 0 0 0 0 0 0 0 0 0 0 0 0 0 0 0 0 0 0 0 0 0 0 0 0 0 0 0 0 0 0 0 0 0 0 0 0 0 0 0 0 0 0 0 0 0 0 0 0 0 0 0 0 0 0 0 0 0 0 0 0 0 0 0 0 0 0 0 0 0 0 0 0 0 0 0 0 0 0 0 0 0 0 0 0 0 0 0 0 0 0 0 0 0 0 0 0 0 0 0 0 0 0 0 0 0 0 0 0 0 0 0 0 0 0 0 0 0 0 0 0 0 0 0 0 0 0 0 0 0 0 0 0 0 0 0 0 0 0 0 0 0 0 0 0 0 0 0 0 0 0 0 0 0 0 0 0 0 0 0 0 0 0 0 0 0 0 0 0 0 0 0 0 0 0 0 0 0 0 0 0 0 0 0 0 0 0 0 0 0 0 0 0 0 0 0 0 0 0 0 0 0 0 0 0 0 0 0 0 0 0 0 0 0 0 0 0 0 0 0 0 0 0 0 0 0 0 0 0 0 0 0 0 0 0 0 0 0 0 0 0 0 0 0 0 0 0 0 0 0 0 0 0 0 0 0 0 0 0 0 0 0 0 0 0 0 0 0 0 0 0 0 0 0 0 0 0 0 0 0 0 0 0 0 0 0 0 0 0 0 0 0 0 0 0 0 0 0 0 0 0 0 0 0 0 0 0 0 0 0 0 0 0 0 0 0 0 0 0 0 0 0 0 0 0 0 0 0 0 0 0 0 0 0 0 0 0 0 0 0 0 0 0 0 0 0 0 0 0 0 0 0 0 0 0 0 0 0 0 0 0 0 0 0 0 0 0 0 0 0 0 0 0 0 0 0 0 0 0 0 0 0 0 0 0 0 0 0 0 0 0 0 0 0 0 0 0 0 0 0 0 0 0 0 0 0 0 0 0 0 0 0 0 0 0 0 0 0 0 0 0 0 0 0 0 0 0 0 0 0 0 0 0 0 0 0 0 0 0 0 0 0 0 0 0 0 0 0 0 0 0 0 0 0 0 0 0 0 0 0 0 0 0 0 0 0 0 0 0 0 0 0 0 0 0 0 0 0 0 0 0 0 0 0 0 0 0 0 0 0 0 0 0 0 0 0 0 0 0 0 0 0 0 0 0 0 0 0 0 0 0 0 0 0 0 0 0 0 0 0 0 0 0 0 0 0 0 0 0 0 0 0 0 0 0 0 0 0 0 0 0 0 0 0 0 0 0 0 0 0 0 0 0 0 0 0 0 0 0 0 0 0 0 0 0 0 0 0 0 0 0 0 0 0 0 0 0 0 0 0 0 0 0 0 0 0 0 0 0 0 0 0 0 0 0 0 0 0 0 0 0 0 0 0 0 0 0 0 0 0 0 0 0 0 0 0 0 0 0 0 0 0 0 0 0 0 0 0 0 0 0 0 0 0 0 0 0 0 0 0 0 0 0 0 0 0 0 0 0 0 0 0 0 0 0 0 0 0 0 0 0 0 0 0 0 0 0 0 0 0 0 0 0 0 0 0 0 0 0 0 0 0 0 0 0 0 0 0 0 0 0 0 0 0 0 0 0 0 0 0 0 0 0 0 0 0 0 0 0 0 0 0 0 0 0 0 0 0 0 0 0 0 0 0 0 0 0 0 0 0 0 0 0 0 0 0 0 0 0 0 0 0 0 0 0 0 0 0 0 0 0 0 0 0 0 0 0 0 0 0 0 0 0 0 0 0 0 0 0 0 0 0 0 0 0 0 0 0 0 0 0 0 0 0 0 0 0 0 0 0 0 0 0 0 0 0 0 0 0 0 0 0 0 0 0 0 0 0 0 0 0 0 0 0 0 0 0 0 0 0 0 0 0 0 0 0 0 0 0 0 0 0 0 0 0 0 0 0 0 0 0 0 0 0 0 0 0 0 0 0 0 0 0 0 0 0 0 0 0 0 0 0 0 0 0 0 0 0 0 0 0 0 0 0 0 0 0 0 0 0 0 0 0 0 0 0 0 0 0 0 0 0 0 0 0 0 0 0 0 0 0 0 0 0 0 0 0 0 0 0 0 0 0 0 0 0 0 0 0 0 0 0 0 0 0 0 0 3 3 3 3 3 3 3 3 3 3 3 3 3 3 3 3 3 3 3 3 3 3 3 3 3 3 3 3 3 3 3 3 3 3 3 3 3 3 3 3 3 3 3 3 3 3 3 3 3 3 3 3 3 3 3 3 3 3 3 3 3 3 3 3 3 3 3 3 3 3 3 3 3 3 3 3 3 3 3 3 3 3 3 3 3 3 3 3 3 3 3 3 3 3 3 3 3 3 3 3 3 3 3 3 3 3 3 3 3 3 3 3 3 3 3 3 3 3 3 3 3 3 3 3 3 3 3 3 3 3 3 3 3 3 3 3 3 3 3 3 3 3 3 3 3 3 3 3 3 3 3 3 3 3 3 3 3 3 3 3 3 3 3 3 3 3 3 3 3 3 3 3 3 3 3 3 3 3 3 3 3 3 3 3 3 3 3 3 3 3 3 3 3 3 3 3 3 3 3 3 3 3 3 3 3 3 3 3 3 3 3 3 3 3 3 3 3 3 3 3 3 3 3 3 3 3 3 3 3 3 3 3 3 3 3 3 3 3 3 3 3 3 3 3 3 3 3 3 3 3 3 3 3 3 3 3 3 3 3 3 3 3 3 3 3 3 3 3 3 3 3 3 3 3 3 3 3 3 3 3 3 3 3 3 3 3 3 3 3 3 3 3 3 3 3 3 3 3 3 3 3 3 3 3 3 3 3 3 3 3 3 3 3 3 3 3 3 3 3 3 3 3 3 3 3 3 3 3 3 3 3 3 3 3 3 3 3 3 3 3 3 3 3 3 3 3 3 3 3 3 3 3 3 3 3 3 3 3 3 3 3 3 3 3 3 3 3 3 3 3 3 3 3 3 3 3 3 3 3 3 3 3 3 3 3 3 3 3 3 3 3 3 3 3 3 3 3 3 3 3 3 3 3 3 3 3 3 3 3 3 3 3 3 3 3 3 3 3 3 3 3 3 3 3 3 3 3 3 3 3 3 3 3 3 3 3 3 3 3 3 3 3 3 3 3 3 3 3 3 3 3 3 3 3 3 3 3 3 3 3 3 3 3 3 3 3 3 3 3 3 3 3 3 3 3 3 3 3 3 3 3 3 3 3 3 3 3 3 3 3 3 3 3 3 3 3 3 3 3 3 3 3 3 3 3 3 3 3 3 3 3 3 3 3 3 3 3 3 3 3 3 3 3 3 3 3 3 3 3 3 3 3 3 3 3 3 3 3 3 3 3 3 3 3 3 3 3 3 3 3 3 3 3 3 3 3 3 3 3 3 3 3 3 3 3 3 3 3 3 3 3 3 3 3 3 3 3 3 3 3 3 3 3 3 3 3 3 3 3 3 3 3 3 3 3 3 3 3 3 3 3 3 3 3 3 3 3 3 3 3 3 3 3 3 3 3 3 3 3 3 3 3 3 3 3 3 3 3 3 3 3 3 3 3 3 3 3 3 3 3 3 3 3 3 3 3 3 3 3 3 3 3 3 3 3 3 3 3 3 3 3 3 3 3 3 3 3 3 3 3 3 3 3 3 3 3 3 3 3 3 3 3 3 3 3 3 3 3 3 3 3 3 3 3 3 3 3 3 3 3 3 3 3 3 3 3 3 3 3 3 3 3 3 3 3 3 3 3 3 3 3 3 3 3 3 3 3 3 3 3 3 3 3 3 3 3 3 3 3 3 3 3 3 3 3 3 3 3 3 3 3 3 3 3 3 3 3 3 3 3 3 3 3 3 3 3 3 3 3 3 3 3 3 3 3 3 3 3 3 3 3 3 3 3 3 3 3 3 3 3 3 3 3 3 3 3 3 3 3 3 3 3 3 3 3 3 3 3 3 3 3 3 3 3 3 3 3 3 3 3 3 3 3 3 3 3 3 3 3 3 3 3 3 3 3 3 3 3 3 3 3 3 3 3 3 3 3 3 3 3 3 3 3 3 3 3 3 3 3 3 3 3 3 3 3 3 3 3 3 3 3 3 3 3 3 3 3 3 3 3 3 3 3 3 3 3 3 3 3 3 3 3 3 3 3 3 3 3 3 3 3 3 3 3 3 3 3 3 3 3 3 3 3 3 3 3 3 3 3 3 3 3 3 3 3 3 3 3 3 3 3 3 3 3 3 3 3 3 3 3 3 3 3 3 3 3 3 3 3 3 3 3 3 3 3 3 3 3 3 3 3 3 3 3 3 3 3 3 3 3 3 3 3 3 3 3 3 3 3 3 3 3 3 3 3 3 3 3 3 3 3 3 3 3 3 3 3 3 3 3 3 3 3 3 3 3 3 3 3 3 3 3 3 3 3 3 3 3 3 3 3 3 3 3 3 3 3 3 3 3 3 3 3 3 3 3 3 3 3 3 3 3 3 3 3 3 3 3 3 3 3 3 3 3 3 3 3 3 3 3 3 3 3 3 3 3 3 3 3 3 3 3 3 3 3 3 3 3 3 3 3 3 3 3 3 3 3 3 3 3 3 3 3 3 3 3 3 3 3 3 3 3 3 3 3 3 3 3 3 3 3 3 3 3 3 3 3 3 3 3 3 3 3 3 3 3 3 3 3 3 3 3 3 3 3 3 3 3 3 3 3 3 3 3 3 3 3 3 3 3 3 3 3 3 3 3 3 3 3 3 3 3 3 3 3 3 3 3 3 3 3 3 3 3 3 3 3 3 3 3 3 3 3 3 3 3 3 3 3 3 3 3 3 3 3 3 3 3 3 3 3 3 3 3 3 3 3 3 3 3 3 3 3 3 3 3 3 3 3 3 3 3 3 3 3 3 3 3 3 3 3 3 3 3 3 3 3 3 3 3 3 3 3 3 3 3 3 3 3 3 3 3 3 3 3 3 3 3 3 3 3 3 3 3 3 3 3 3 3 3 3 3 3 3 3 3 3 3 3 3 3 3 3 3 3 3 3 3 3 3 3 3 3 3 3 3 3 3 3 3 3 3 3 3 3 3 3 3 3 3 3 3 3 3 3 3 3 3 3 3 3 3 3 3 3 3 3 3 3 3 3 3 3 3 3 3 3 3 3 3 3 3 3 3 3 3 3 3 3 3 3 3 3 3 3 3 3 3 3 3 3 3 3 3 3 3 3 3 3 3 3 3 3 3 3 3 3 3 3 3 3 3 3 3 3 3 3 3 3 3 3 3 3 3 3 3 3 3 3 3 3 3 3 3 3 3 3 3 3 3 3 3 3 3 3 3 3 3 3 3 3 3 3 3 3 3 3 3 3 3 3 3 3 3 3 3 3 3 3 3 3 3 3 3 3 3 3 3 3 3 3 3 3 3 3 3 3 3 3 3 3 3 3 3 3 3 3 3 3 3 3 3 3 3 3 3 3 3 3 3 3 3 3 3 3 3 3 3 3 3 3 3 3 3 3 3 3 3 3 3 3 3 3 3 3 3 3 3 3 3 3 3 3 3 3 3 3 3 3 3 3 3 3 3 3 3 3 3 3 3 3 3 3 3 3 3 3 3 3 3 3 3 3 3 3 3 3 3 3 3 3 3 3 3 3 3 3 3 3 3 3 3 3 3 3 3 3 3 3 3 3 3 3 3 3 3 3 3 3 3 3 3 3 3 3 3 3 3 3 3 3 3 3 3 3 3 3 3 3 3 3 3 3 3 3 3 3 3 3 3 3 3 3 3 3 3 3 3 3 3 3 3 3 3 3 3 3 3 3 3 3 3 3 3 3 3 3 3 3 3 3 3 3 3 3 3 3 3 3 3 3 3 3 3 3 3 3 3 3 3 3 3 3 3 3 3 3 3 3 3 3 3 3 3 3 3 3 3 3 3 3 3 3 3 3 3 3 3 3 3 3 3 3 3 3 3 3 3 3 3 3 3 3 3 3 3 3 3 3 3 3 3 3 3 3 3 3 3 3 3 3 3 3 3 3 3 3 3 3 3 3 3 3 3 3 3 3 3 3 3 3 3 3 3 3 3 3 3 3 3 3 3 3 3 3 3 3 3 3 3 3 3 3 3 3 3 3 3 3 3 3 3 3 3 3 3 3 3 3 3 3 3 3 3 3 3 3 3 3 3 3 3 3 3 3 3 3 3 3 3 3 3 3 3 3 3 3 3 3 3 3 3 3 3 3 3 3 3 3 3 3 3 3 3 3 3 3 3 3 3 3 3 3 3 3 3 3 3 3 3 3 3 3 3 3 3 3 3 3 3 3 3 3 3 3 3 3 3 3 3 3 3 3 3 3 3 3 3 3 3 3 3 3 3 3 3 3 3 3 3 3 3 3 3 3 3 3 3 3 3 3 3 3 3 3 3 3 3 3 3 3 3 3 3 3 3 3 3 3 3 3 3 3 3 3 3 3 3 3 3 3 3 3 3 3 3 3 3 3 3 3 3 3 3 3 3 3 3 3 3 3 3 3 3 
CellOffSpring 1 2975 float
0 0 0 0 0 0 0 0 0 0 0 0 0 0 0 0 0 0 0 0 0 0 0 0 0 0 0 0 0 0 0 0 0 0 0 0 0 0 0 0 0 0 0 0 0 0 0 0 0 0 0 0 0 0 0 0 0 0 0 0 0 0 0 0 0 0 0 0 0 0 0 0 0 0 0 0 0 0 0 0 0 0 0 0 0 0 0 0 0 0 0 0 0 0 0 0 0 0 0 0 0 0 0 0 0 0 0 0 0 0 0 0 0 0 0 0 0 0 0 0 0 0 0 0 0 0 0 0 0 0 0 0 0 0 0 0 0 0 0 0 0 0 0 0 0 0 0 0 0 0 0 0 0 0 0 0 0 0 0 0 0 0 0 0 0 0 0 0 0 0 0 0 0 0 0 0 0 0 0 0 0 0 0 0 0 0 0 0 0 0 0 0 0 0 0 0 0 0 0 0 0 0 0 0 0 0 0 0 0 0 0 0 0 0 0 0 0 0 0 0 0 0 0 0 0 0 0 0 0 0 0 0 0 0 0 0 0 0 0 0 0 0 0 0 0 0 0 0 0 0 0 0 0 0 0 0 0 0 0 0 0 0 0 0 0 0 0 0 0 0 0 0 0 0 0 0 0 0 0 0 0 0 0 0 0 0 0 0 0 0 0 0 0 0 0 0 0 0 0 0 0 0 0 0 0 0 0 0 0 0 0 0 0 0 0 0 0 0 0 0 0 0 0 0 0 0 0 0 0 0 0 0 0 0 0 0 0 0 0 0 0 0 0 0 0 0 0 0 0 0 0 0 0 0 0 0 0 0 0 0 0 0 0 0 0 0 0 0 0 0 0 0 0 0 0 0 0 0 0 0 0 0 0 0 0 0 0 0 0 0 0 0 0 0 0 0 0 0 0 0 0 0 0 0 0 0 0 0 0 0 0 0 0 0 0 0 0 0 0 0 0 0 0 0 0 0 0 0 0 0 0 0 0 0 0 0 0 0 0 0 0 0 0 0 0 0 0 0 0 0 0 0 0 0 0 0 0 0 0 0 0 0 0 0 0 0 0 0 0 0 0 0 0 0 0 0 0 0 0 0 0 0 0 0 0 0 0 0 0 0 0 0 0 0 0 0 0 0 0 0 0 0 0 0 0 0 0 0 0 0 0 0 0 0 0 0 0 0 0 0 0 0 0 0 0 0 0 0 0 0 0 0 0 0 0 0 0 0 0 0 0 0 0 0 0 0 0 0 0 0 0 0 0 0 0 0 0 0 0 0 0 0 0 0 0 0 0 0 0 0 0 0 0 0 0 0 0 0 0 0 0 0 0 0 0 0 0 0 0 0 0 0 0 0 0 0 0 0 0 0 0 0 0 0 0 0 0 0 0 0 0 0 0 0 0 0 0 0 0 0 0 0 0 0 0 0 0 0 0 0 0 0 0 0 0 0 0 0 0 0 0 0 0 0 0 0 0 0 0 0 0 0 0 0 0 0 0 0 0 0 0 0 0 0 0 0 0 0 0 0 0 0 0 0 0 0 0 0 0 0 0 0 0 0 0 0 0 0 0 0 0 0 0 0 0 0 0 0 0 0 0 0 0 0 0 0 0 0 0 0 0 0 0 0 0 0 0 0 0 0 0 0 0 0 0 0 0 0 0 0 0 0 0 0 0 0 0 0 0 0 0 0 0 0 0 0 0 0 0 0 0 0 0 0 0 0 0 0 0 0 0 0 0 0 0 0 0 0 0 0 0 0 0 0 0 0 0 0 0 0 0 0 0 0 0 0 0 0 0 0 0 0 0 0 0 0 0 0 0 0 0 0 0 0 0 0 0 0 0 0 0 0 0 0 0 0 0 0 0 0 0 0 0 0 0 0 0 0 0 0 0 0 0 0 0 0 0 0 0 0 0 0 0 0 0 0 0 0 0 0 0 0 0 0 0 0 0 0 0 0 0 0 0 0 0 0 0 0 0 0 0 0 0 0 0 0 0 0 0 0 0 0 0 0 0 0 0 0 0 0 0 0 0 0 0 0 0 0 0 0 0 0 0 0 0 0 0 0 0 0 0 0 0 0 0 0 0 0 0 0 0 0 0 0 0 0 0 0 0 0 0 0 0 0 0 0 0 0 0 0 0 0 0 0 0 0 0 0 0 0 0 0 0 0 0 0 0 0 0 0 0 0 0 0 0 0 0 0 0 0 0 0 0 0 0 0 0 0 0 0 0 0 0 0 0 0 0 0 0 0 0 0 0 0 0 0 0 0 0 0 0 0 0 0 0 0 0 0 0 0 0 0 0 0 0 0 0 0 0 0 0 0 0 0 0 0 0 0 0 0 0 0 0 0 0 0 0 0 0 0 0 0 0 0 0 0 0 0 0 0 0 0 0 0 0 0 0 0 0 0 0 0 0 0 0 0 0 0 0 0 0 0 0 0 0 0 0 0 0 0 0 0 0 0 0 0 0 0 0 0 0 0 0 0 0 0 0 0 0 0 0 0 0 0 0 0 0 0 0 0 0 0 0 0 0 0 0 0 0 0 0 0 0 0 0 0 0 0 0 0 0 0 0 0 0 0 0 0 0 0 0 0 0 0 0 0 0 0 0 0 0 0 0 0 0 0 0 0 0 0 0 0 0 0 0 0 0 0 0 0 0 0 0 0 0 0 0 0 0 0 0 0 0 0 0 0 0 0 0 0 0 0 0 0 0 0 0 0 0 0 0 0 0 0 0 0 0 0 0 0 0 0 0 0 0 0 0 0 0 0 0 0 0 0 0 0 0 0 0 0 0 0 0 0 0 0 0 0 0 0 0 0 0 0 0 0 0 0 0 0 0 0 0 0 0 0 0 0 0 0 0 0 0 0 0 0 0 0 0 0 0 0 0 0 0 0 0 0 0 0 0 0 0 0 0 0 0 0 0 0 0 0 0 0 0 0 0 0 0 0 0 0 0 0 0 0 0 0 0 0 0 0 0 0 0 0 0 0 0 0 0 0 0 0 0 0 0 0 0 0 0 0 0 0 0 0 0 0 0 0 0 0 0 0 0 0 0 0 0 0 0 0 0 0 0 0 0 0 0 0 0 0 0 0 0 0 0 0 0 0 0 0 0 0 0 0 0 0 0 0 0 0 0 0 0 0 0 0 0 0 0 0 0 0 0 0 0 0 0 0 0 0 0 0 0 0 0 0 0 0 0 0 0 0 0 0 0 0 0 0 0 0 0 0 0 0 0 0 0 0 0 0 0 0 0 0 0 0 0 0 0 0 0 0 0 0 0 0 0 0 0 0 0 0 0 0 0 0 0 0 0 0 0 0 0 0 0 0 0 0 0 0 0 0 0 0 0 0 0 0 0 0 0 0 0 0 0 0 0 0 0 0 0 0 0 0 0 0 0 0 0 0 0 0 0 0 0 0 0 0 0 0 0 0 0 0 0 0 0 0 0 0 0 0 0 0 0 0 0 0 0 0 0 0 0 0 0 0 0 0 0 0 0 0 0 0 0 0 0 0 0 0 0 0 0 0 0 0 0 0 0 0 0 0 0 0 0 0 0 0 0 0 0 0 0 0 0 0 0 0 0 0 0 0 0 0 0 0 0 0 0 0 0 0 0 0 0 0 0 0 0 0 0 0 0 0 0 0 0 0 0 0 0 0 0 0 0 0 0 0 0 0 0 0 0 0 0 0 0 0 0 0 0 0 0 0 0 0 0 0 0 0 0 0 0 0 0 0 0 0 0 0 0 0 0 0 0 0 0 0 0 0 0 0 0 0 0 0 0 0 0 0 0 0 0 0 0 0 0 0 0 0 0 0 0 0 0 0 0 0 0 0 0 0 0 0 0 0 0 0 0 0 0 0 0 0 0 0 0 0 0 0 0 0 0 0 0 0 0 0 0 0 0 0 0 0 0 0 0 0 0 0 0 0 0 0 0 0 0 0 0 0 0 0 0 0 0 0 0 0 0 0 0 0 0 0 0 0 0 0 0 0 0 0 0 0 0 0 0 0 0 0 0 0 0 0 0 0 0 0 0 0 0 0 0 0 0 0 0 0 0 0 0 0 0 0 0 0 0 0 0 0 0 0 0 0 0 0 0 0 0 0 0 0 0 0 0 0 0 0 0 0 0 0 0 0 0 0 0 0 0 0 0 0 0 0 0 0 0 0 0 0 0 0 0 0 0 0 0 0 0 0 0 0 0 0 0 0 0 0 0 0 0 0 0 0 0 0 0 0 0 0 0 0 0 0 0 0 0 0 0 0 0 0 0 0 0 0 0 0 0 0 0 0 0 0 0 0 0 0 0 0 0 0 0 0 0 0 0 0 0 0 0 0 0 0 0 0 0 0 0 0 0 0 0 0 0 0 0 0 0 0 0 0 0 0 0 0 0 0 0 0 0 0 0 0 0 0 0 0 0 0 0 0 0 0 0 0 0 0 0 0 0 0 0 0 0 0 0 0 0 0 0 0 0 0 0 0 0 0 0 0 0 0 0 0 0 0 0 0 0 0 0 0 0 0 0 0 0 0 0 0 0 0 0 0 0 0 0 0 0 0 0 0 0 0 0 0 0 0 0 0 0 0 0 0 0 0 0 0 0 0 0 0 0 0 0 0 0 0 0 0 0 0 0 0 0 0 0 0 0 0 0 0 0 0 0 0 0 0 0 0 0 0 0 0 0 0 0 0 0 0 0 0 0 0 0 0 0 0 0 0 0 0 0 0 0 0 0 0 0 0 0 0 0 0 0 0 0 0 0 0 0 0 0 0 0 0 0 0 0 0 0 0 0 0 0 0 0 0 0 0 0 0 0 0 0 0 0 0 0 0 0 0 0 0 0 0 0 0 0 0 0 0 0 0 0 0 0 0 0 0 0 0 0 0 0 0 0 0 0 0 0 0 0 0 0 0 0 0 0 0 0 0 0 0 0 0 0 0 0 0 0 0 0 0 0 0 0 0 0 0 0 0 0 0 0 0 0 0 0 0 0 0 0 0 0 0 0 0 0 0 0 0 0 0 0 0 0 0 0 0 0 0 0 0 0 0 0 0 0 0 0 0 0 0 0 0 0 0 0 0 0 0 0 0 0 0 0 0 0 0 0 0 0 0 0 0 0 0 0 0 0 0 0 0 0 0 0 0 0 0 0 0 0 0 0 0 0 0 0 0 0 0 0 0 0 0 0 0 0 0 0 0 0 0 0 0 0 0 0 0 0 0 0 0 0 0 0 0 0 0 0 0 0 0 0 0 0 0 0 0 0 0 0 0 0 0 0 0 0 0 0 0 0 0 0 0 0 0 0 0 0 0 0 0 0 0 0 0 0 0 0 0 0 0 0 0 0 0 0 0 0 0 0 0 0 0 0 0 0 0 0 0 0 0 0 0 0 0 0 0 0 0 0 0 0 0 0 0 0 0 0 0 0 0 0 0 0 0 0 0 0 0 0 0 0 0 0 0 0 0 0 0 0 0 0 0 0 0 0 0 0 0 0 0 0 0 0 0 0 0 0 0 0 0 0 0 0 0 0 0 0 0 0 0 0 0 0 0 0 0 0 0 0 0 0 0 0 0 0 0 0 0 0 0 0 0 0 0 0 0 0 0 0 0 0 0 0 0 0 0 0 0 0 0 0 0 0 0 0 0 0 0 0 0 0 0 0 0 0 0 0 0 0 0 0 0 0 0 0 0 0 0 0 0 0 0 0 0 0 0 0 0 0 0 0 0 0 0 0 0 0 0 0 0 0 0 0 0 0 0 0 0 0 0 0 0 0 0 0 0 0 0 0 0 0 0 0 0 0 0 0 0 0 0 0 0 0 0 0 0 0 0 0 0 0 0 0 0 0 0 0 0 0 0 0 0 0 0 0 0 0 0 0 0 0 0 0 0 0 0 0 0 0 0 0 0 0 0 0 0 0 0 0 0 0 0 0 0 0 0 0 0 0 0 0 0 0 0 0 0 0 0 0 0 0 0 0 0 0 0 0 0 0 0 0 0 0 0 0 0 0 0 0 0 0 0 0 0 0 0 0 0 0 0 0 0 0 0 0 0 0 0 0 0 0 0 0 0 0 0 0 0 0 0 0 0 0 0 0 0 0 0 0 0 0 0 0 0 0 0 0 0 0 0 0 0 0 0 0 0 0 0 0 0 0 0 0 0 0 0 0 0 0 0 0 0 0 0 0 0 0 0 0 0 0 0 0 0 0 0 0 0 0 0 0 0 0 0 0 0 0 0 0 0 0 0 0 0 0 0 0 0 0 0 0 0 0 0 0 0 0 0 0 0 0 0 0 0 0 0 0 0 0 0 0 0 0 0 0 0 0 0 0 0 0 0 0 0 0 0 0 0 0 0 0 0 0 0 0 0 0 0 0 0 0 0 0 0 0 0 0 0 0 0 0 0 0 0 0 0 0 0 0 0 0 0 0 0 0 0 0 0 0 0 0 0 0 0 0 0 0 0 0 0 0 0 0 0 0 0 0 0 0 0 0 0 0 0 0 0 0 0 0 0 0 0 0 0 0 0 0 0 0 0 0 0 0 0 0 0 0 0 0 0 0 0 0 0 0 0 0 0 0 0 0 0 0 0 0 0 0 0 0 0 0 0 0 0 0 0 0 0 0 0 0 0 0 0 0 0 0 0 0 0 0 0 0 0 0 0 0 0 0 0 0 0 0 0 0 0 0 0 0 0 0 0 0 0 0 0 0 0 0 0 0 0 0 0 0 0 0 0 0 
GradVel 1 2975 float
  0.0000000E+00   0.0000000E+00   0.0000000E+00   0.0000000E+00   0.0000000E+00   0.0000000E+00   0.0000000E+00   0.0000000E+00   0.0000000E+00   0.0000000E+00   0.0000000E+00   0.0000000E+00   0.0000000E+00  -8.8372059E-07  -9.2714233E-18  -4.6434889E-06  -3.1312342E-05  -8.4808107E-06  -6.1700543E-05  -1.9421830E-04  -7.1222959E-05  -2.7029062E-04  -6.4925011E-04  -2.5289916E-04  -7.3830341E-04  -1.5509247E-03  -5.9518137E-04  -1.5209297E-03  -2.9610461E-03  -1.0865282E-03  -2.5800825E-03  -4.7986740E-03  -1.6627752E-03  -3.7905048E-03  -6.8528051E-03  -2.2398797E-03  -4.9975086E-03  -8.8760704E-03  -2.7599777E-03  -6.0991333E-03  -1.0722142E-02  -3.2241126E-03  -7.1039367E-03  -1.2431633E-02  -3.6993069E-03  -8.1534926E-03  -1.4271178E-02  -4.3149125E-03  -9.5189353E-03  -1.6719580E-02  -5.2696341E-03  -1.1609890E-02  -2.0462789E-02  -6.8978174E-03  -1.5040930E-02  -2.6429888E-02  -9.7515387E-03  -2.0577561E-02  -3.5566445E-02  -1.4588585E-02  -2.8740142E-02  -4.8062071E-02  -3.9734777E-02  -6.3319229E-02   0.0000000E+00   0.0000000E+00   0.0000000E+00   0.0000000E+00   0.0000000E+00   0.0000000E+00   0.0000000E+00   0.0000000E+00   0.0000000E+00   0.0000000E+00   0.0000000E+00   0.0000000E+00   0.0000000E+00   0.0000000E+00   0.0000000E+00   0.0000000E+00   0.0000000E+00   0.0000000E+00   0.0000000E+00   0.0000000E+00   0.0000000E+00   0.0000000E+00   0.0000000E+00   0.0000000E+00   0.0000000E+00  -1.5818813E-07  -1.0053141E-06  -2.3744401E-06  -3.5428254E-06  -4.1885978E-06  -4.6292926E-06  -4.9608248E-06  -7.6001434E-06  -2.4657391E-05  -5.2449104E-05  -8.6619104E-05  -1.2015709E-04  -1.4735591E-04  -1.6639785E-04  -1.7918585E-04  -9.3633884E-05  -1.9800116E-04  -3.4061444E-04  -5.0456630E-04  -6.6509651E-04  -8.0186303E-04  -9.0692763E-04  -9.8251284E-04  -4.2449209E-04  -7.6201506E-04  -1.1948926E-03  -1.6781028E-03  -2.1473244E-03  -2.5519622E-03  -2.8724223E-03  -3.1122025E-03  -1.2311328E-03  -2.0353326E-03  -3.0357679E-03  -4.1325209E-03  -5.1881834E-03  -6.0990793E-03  -6.8283649E-03  -7.3842835E-03  -2.7199553E-03  -4.2850468E-03  -6.1974316E-03  -8.2663959E-03  -1.0235769E-02  -1.1924609E-02  -1.3279199E-02  -1.4320761E-02  -4.9515208E-03  -7.5639570E-03  -1.0715679E-02  -1.4078774E-02  -1.7230116E-02  -1.9903457E-02  -2.2041986E-02  -2.3692060E-02  -7.7814190E-03  -1.1633512E-02  -1.6213091E-02  -2.1009119E-02  -2.5408087E-02  -2.9096104E-02  -3.2034133E-02  -3.4300897E-02  -1.0879239E-02  -1.5991420E-02  -2.1918071E-02  -1.3874595E-02  -2.0099860E-02  -1.6587434E-02  -2.3775952E-02  -1.9137114E-02  -2.7298298E-02  -2.1958068E-02  -3.1263843E-02  -2.5774669E-02  -3.6608174E-02  -3.1562053E-02  -4.4516355E-02  -4.0547140E-02  -5.6359276E-02  -5.3880908E-02  -7.3338300E-02  -7.1642362E-02  -9.5559970E-02  -9.2569306E-02  -1.2164528E-01   0.0000000E+00   0.0000000E+00   0.0000000E+00   0.0000000E+00   0.0000000E+00   0.0000000E+00   0.0000000E+00   0.0000000E+00   0.0000000E+00   0.0000000E+00   0.0000000E+00   0.0000000E+00   0.0000000E+00   0.0000000E+00   0.0000000E+00   0.0000000E+00   0.0000000E+00   0.0000000E+00   0.0000000E+00   0.0000000E+00   0.0000000E+00   0.0000000E+00   0.0000000E+00   0.0000000E+00   0.0000000E+00   0.0000000E+00   0.0000000E+00  -5.1950396E-06  -5.3487338E-06  -5.4399893E-06  -5.4859797E-06  -5.5018809E-06  -5.4998777E-06  -5.4893967E-06  -5.4773318E-06  -5.4683082E-06  -1.8829986E-04  -1.9454505E-04  -1.9849636E-04  -2.0073108E-04  -2.0177435E-04  -2.0206794E-04  -2.0196129E-04  -2.0171155E-04  -2.0149413E-04  -1.0351808E-03  -1.0715752E-03  -1.0953892E-03  -1.1096011E-03  -1.1169908E-03  -1.1199448E-03  -1.1203757E-03  -1.1197153E-03  -1.1189418E-03  -3.2845284E-03  -3.4042932E-03  -3.4840761E-03  -3.5332823E-03  -3.5604038E-03  -3.5728388E-03  -3.5765942E-03  -3.5761921E-03  -3.5747460E-03  -7.7924533E-03  -8.0809016E-03  -8.2752649E-03  -8.3975261E-03  -8.4671816E-03  -8.5013518E-03  -8.5140234E-03  -8.5158125E-03  -8.5140457E-03  -1.5095371E-02  -1.5650107E-02  -1.6027804E-02  -1.6268153E-02  -1.6407626E-02  -1.6478468E-02  -1.6507147E-02  -1.6513811E-02  -1.6512396E-02  -2.4928089E-02  -2.5821069E-02  -2.6433436E-02  -2.6825525E-02  -2.7054919E-02  -2.7173273E-02  -2.7222956E-02  -2.7236264E-02  -2.7235562E-02  -3.6003422E-02  -3.7238732E-02  -3.8088348E-02  -3.8632616E-02  -3.8950976E-02  -3.9115310E-02  -3.9184503E-02  -3.9203241E-02  -3.9202433E-02   0.0000000E+00   0.0000000E+00   0.0000000E+00   0.0000000E+00   0.0000000E+00   0.0000000E+00   0.0000000E+00   0.0000000E+00   0.0000000E+00   0.0000000E+00   0.0000000E+00   0.0000000E+00   0.0000000E+00   0.0000000E+00   0.0000000E+00   0.0000000E+00   0.0000000E+00   0.0000000E+00   0.0000000E+00   0.0000000E+00   0.0000000E+00   0.0000000E+00   0.0000000E+00   0.0000000E+00  -5.4650068E-06  -5.4683078E-06  -5.4773304E-06  -5.4893962E-06  -5.4998786E-06  -5.5018822E-06  -5.4859802E-06  -5.4399907E-06  -2.0141072E-04  -2.0149416E-04  -2.0171152E-04  -2.0196129E-04  -2.0206791E-04  -2.0177431E-04  -2.0073107E-04  -1.9849632E-04  -1.1186218E-03  -1.1189418E-03  -1.1197157E-03  -1.1203757E-03  -1.1199448E-03  -1.1169906E-03  -1.1096011E-03  -1.0953891E-03  -3.5740661E-03  -3.5747460E-03  -3.5761914E-03  -3.5765937E-03  -3.5728395E-03  -3.5604045E-03  -3.5332832E-03  -3.4840761E-03  -8.5129878E-03  -8.5140495E-03  -8.5158134E-03  -8.5140262E-03  -8.5013546E-03  -8.4671844E-03  -8.3975242E-03  -8.2752667E-03  -1.6511034E-02  -1.6512392E-02  -1.6513817E-02  -1.6507147E-02  -1.6478468E-02  -1.6407624E-02  -1.6268156E-02  -1.6027808E-02  -2.7233910E-02  -2.7235558E-02  -2.7236262E-02  -2.7222959E-02  -2.7173273E-02  -2.7054913E-02  -2.6825510E-02  -2.6433427E-02  -3.9200220E-02  -3.9202441E-02  -3.9203223E-02  -3.9184503E-02  -3.9115328E-02  -3.8950976E-02  -3.8632609E-02  -3.8088344E-02   0.0000000E+00   0.0000000E+00   0.0000000E+00   0.0000000E+00   0.0000000E+00   0.0000000E+00   0.0000000E+00   0.0000000E+00   0.0000000E+00   0.0000000E+00   0.0000000E+00   0.0000000E+00   0.0000000E+00   0.0000000E+00   0.0000000E+00   0.0000000E+00   0.0000000E+00   0.0000000E+00   0.0000000E+00   0.0000000E+00   0.0000000E+00   0.0000000E+00   0.0000000E+00   0.0000000E+00   0.0000000E+00   0.0000000E+00   0.0000000E+00  -5.3487333E-06  -5.1950396E-06  -4.9608243E-06  -4.6292921E-06  -4.1885974E-06  -3.5428254E-06  -2.3744403E-06  -1.0053143E-06  -1.5818813E-07  -1.9454501E-04  -1.8829985E-04  -1.7918587E-04  -1.6639780E-04  -1.4735592E-04  -1.2015706E-04  -8.6619111E-05  -5.2449119E-05  -2.4657387E-05  -1.0715751E-03  -1.0351809E-03  -9.8251295E-04  -9.0692739E-04  -8.0186297E-04  -6.6509645E-04  -5.0456647E-04  -3.4061438E-04  -1.9800119E-04  -3.4042925E-03  -3.2845279E-03  -3.1122030E-03  -2.8724223E-03  -2.5519619E-03  -2.1473239E-03  -1.6781026E-03  -1.1948928E-03  -7.6201512E-04  -8.0809025E-03  -7.7924561E-03  -7.3842825E-03  -6.8283640E-03  -6.0990811E-03  -5.1881834E-03  -4.1325213E-03  -3.0357682E-03  -2.0353331E-03  -1.5650105E-02  -1.5095373E-02  -1.4320756E-02  -1.3279197E-02  -1.1924610E-02  -1.0235769E-02  -8.2663959E-03  -6.1974321E-03  -4.2850482E-03  -2.5821071E-02  -2.4928095E-02  -2.3692055E-02  -2.2041988E-02  -1.9903453E-02  -1.7230118E-02  -1.4078777E-02  -1.0715678E-02  -7.5639589E-03  -3.7238732E-02  -3.6003426E-02  -3.4300897E-02  -3.2034133E-02  -2.9096102E-02  -2.5408087E-02  -2.1009125E-02  -1.6213091E-02  -1.1633513E-02  -2.1918070E-02  -1.5991421E-02  -2.0099865E-02  -2.3775958E-02  -2.7298296E-02  -3.1263843E-02  -3.6608171E-02  -4.4516355E-02  -5.6359280E-02  -7.3338315E-02  -9.5559984E-02  -1.2164527E-01   0.0000000E+00   0.0000000E+00   0.0000000E+00   0.0000000E+00   0.0000000E+00   0.0000000E+00   0.0000000E+00   0.0000000E+00   0.0000000E+00   0.0000000E+00   0.0000000E+00   0.0000000E+00   0.0000000E+00   0.0000000E+00   0.0000000E+00  -7.6001434E-06  -8.8372059E-07   0.0000000E+00   0.0000000E+00  -9.3633891E-05  -3.1312331E-05  -4.6434893E-06  -9.2714216E-18  -4.2449211E-04  -1.9421827E-04  -6.1700535E-05  -8.4808125E-06  -1.2311330E-03  -6.4925005E-04  -2.7029056E-04  -7.1222967E-05  -2.7199565E-03  -1.5509245E-03  -7.3830341E-04  -2.5289913E-04  -4.9515213E-03  -2.9610461E-03  -1.5209299E-03  -5.9518137E-04  -7.7814218E-03  -4.7986740E-03  -2.5800818E-03  -1.0865282E-03  -1.0879238E-02  -6.8528065E-03  -3.7905043E-03  -1.6627755E-03  -1.3874597E-02  -8.8760704E-03  -4.9975091E-03  -2.2398797E-03  -1.6587432E-02  -1.0722142E-02  -6.0991338E-03  -2.7599782E-03  -1.9137112E-02  -1.2431631E-02  -7.1039349E-03  -3.2241123E-03  -2.1958068E-02  -1.4271179E-02  -8.1534935E-03  -3.6993069E-03  -2.5774667E-02  -1.6719580E-02  -9.5189363E-03  -4.3149134E-03  -3.1562056E-02  -2.0462789E-02  -1.1609890E-02  -5.2696345E-03  -4.0547147E-02  -2.6429895E-02  -1.5040930E-02  -6.8978178E-03  -5.3880908E-02  -3.5566445E-02  -2.0577567E-02  -9.7515378E-03  -7.1642369E-02  -4.8062075E-02  -2.8740138E-02  -1.4588587E-02  -9.2569329E-02  -6.3319214E-02  -3.9734781E-02   0.0000000E+00   0.0000000E+00   0.0000000E+00   0.0000000E+00   0.0000000E+00   0.0000000E+00   0.0000000E+00   0.0000000E+00   0.0000000E+00   0.0000000E+00   0.0000000E+00   0.0000000E+00   0.0000000E+00   0.0000000E+00   0.0000000E+00   0.0000000E+00   0.0000000E+00   0.0000000E+00   0.0000000E+00   0.0000000E+00   0.0000000E+00   0.0000000E+00   0.0000000E+00   0.0000000E+00   0.0000000E+00   0.0000000E+00   0.0000000E+00   0.0000000E+00   0.0000000E+00   0.0000000E+00   0.0000000E+00   0.0000000E+00   0.0000000E+00   0.0000000E+00   0.0000000E+00   0.0000000E+00   0.0000000E+00   0.0000000E+00   0.0000000E+00   0.0000000E+00   0.0000000E+00   0.0000000E+00   0.0000000E+00   0.0000000E+00   0.0000000E+00   0.0000000E+00   0.0000000E+00   0.0000000E+00   0.0000000E+00   0.0000000E+00   0.0000000E+00   0.0000000E+00   0.0000000E+00   0.0000000E+00   0.0000000E+00   0.0000000E+00   0.0000000E+00   0.0000000E+00   0.0000000E+00   0.0000000E+00   0.0000000E+00   0.0000000E+00   0.0000000E+00   0.0000000E+00   0.0000000E+00   0.0000000E+00   0.0000000E+00   0.0000000E+00   0.0000000E+00   0.0000000E+00   0.0000000E+00   0.0000000E+00   0.0000000E+00   0.0000000E+00   0.0000000E+00   0.0000000E+00   0.0000000E+00   0.0000000E+00   0.0000000E+00   0.0000000E+00   0.0000000E+00   0.0000000E+00   0.0000000E+00   0.0000000E+00   0.0000000E+00   0.0000000E+00   0.0000000E+00   0.0000000E+00   0.0000000E+00   0.0000000E+00   0.0000000E+00   0.0000000E+00   0.0000000E+00   0.0000000E+00   0.0000000E+00   0.0000000E+00   0.0000000E+00   0.0000000E+00   0.0000000E+00   0.0000000E+00   0.0000000E+00   0.0000000E+00   0.0000000E+00   0.0000000E+00   0.0000000E+00   0.0000000E+00   0.0000000E+00   0.0000000E+00   0.0000000E+00   0.0000000E+00   0.0000000E+00   0.0000000E+00   0.0000000E+00   0.0000000E+00   0.0000000E+00   0.0000000E+00   0.0000000E+00   0.0000000E+00   0.0000000E+00   0.0000000E+00   0.0000000E+00   0.0000000E+00   0.0000000E+00   0.0000000E+00   0.0000000E+00   0.0000000E+00   0.0000000E+00   0.0000000E+00   0.0000000E+00   0.0000000E+00   0.0000000E+00   0.0000000E+00   0.0000000E+00   0.0000000E+00   0.0000000E+00   0.0000000E+00   0.0000000E+00   0.0000000E+00   0.0000000E+00   0.0000000E+00   0.0000000E+00   0.0000000E+00   0.0000000E+00   0.0000000E+00   0.0000000E+00   0.0000000E+00   0.0000000E+00   0.0000000E+00   0.0000000E+00   0.0000000E+00   0.0000000E+00   0.0000000E+00   0.0000000E+00   0.0000000E+00   0.0000000E+00   0.0000000E+00   0.0000000E+00   0.0000000E+00   0.0000000E+00   0.0000000E+00   0.0000000E+00   0.0000000E+00   0.0000000E+00   0.0000000E+00   0.0000000E+00   0.0000000E+00   0.0000000E+00   0.0000000E+00   0.0000000E+00   0.0000000E+00   0.0000000E+00   0.0000000E+00   0.0000000E+00   0.0000000E+00   0.0000000E+00   0.0000000E+00   0.0000000E+00   0.0000000E+00   0.0000000E+00   0.0000000E+00   0.0000000E+00   0.0000000E+00   0.0000000E+00   0.0000000E+00   0.0000000E+00   0.0000000E+00   0.0000000E+00   0.0000000E+00   0.0000000E+00   0.0000000E+00   0.0000000E+00   0.0000000E+00   0.0000000E+00   0.0000000E+00   0.0000000E+00   0.0000000E+00   0.0000000E+00   0.0000000E+00   0.0000000E+00   0.0000000E+00   0.0000000E+00   0.0000000E+00   0.0000000E+00   0.0000000E+00   0.0000000E+00   0.0000000E+00   0.0000000E+00   0.0000000E+00   0.0000000E+00   0.0000000E+00   0.0000000E+00   0.0000000E+00   0.0000000E+00   0.0000000E+00   0.0000000E+00   0.0000000E+00   0.0000000E+00   0.0000000E+00   0.0000000E+00   0.0000000E+00   0.0000000E+00   0.0000000E+00   0.0000000E+00   0.0000000E+00   0.0000000E+00   0.0000000E+00   0.0000000E+00   0.0000000E+00   0.0000000E+00   0.0000000E+00   0.0000000E+00   0.0000000E+00   0.0000000E+00   0.0000000E+00   0.0000000E+00   0.0000000E+00   0.0000000E+00   0.0000000E+00   0.0000000E+00   0.0000000E+00   0.0000000E+00   0.0000000E+00   0.0000000E+00   0.0000000E+00   0.0000000E+00   0.0000000E+00   0.0000000E+00   0.0000000E+00   0.0000000E+00   0.0000000E+00   0.0000000E+00   0.0000000E+00   0.0000000E+00   0.0000000E+00   0.0000000E+00   0.0000000E+00   0.0000000E+00   0.0000000E+00   0.0000000E+00   0.0000000E+00   0.0000000E+00   0.0000000E+00   0.0000000E+00   0.0000000E+00   0.0000000E+00   0.0000000E+00   0.0000000E+00   0.0000000E+00   0.0000000E+00   0.0000000E+00   0.0000000E+00   0.0000000E+00   0.0000000E+00   0.0000000E+00   0.0000000E+00   0.0000000E+00   0.0000000E+00   0.0000000E+00   0.0000000E+00   0.0000000E+00   0.0000000E+00   0.0000000E+00   0.0000000E+00   0.0000000E+00   0.0000000E+00   0.0000000E+00   0.0000000E+00   0.0000000E+00   0.0000000E+00   0.0000000E+00   0.0000000E+00   0.0000000E+00   0.0000000E+00   0.0000000E+00   0.0000000E+00   0.0000000E+00   0.0000000E+00   0.0000000E+00   0.0000000E+00   0.0000000E+00   0.0000000E+00   0.0000000E+00   0.0000000E+00   0.0000000E+00   0.0000000E+00   0.0000000E+00   0.0000000E+00   0.0000000E+00   0.0000000E+00   0.0000000E+00   0.0000000E+00   0.0000000E+00   0.0000000E+00   0.0000000E+00   0.0000000E+00   0.0000000E+00   0.0000000E+00   0.0000000E+00   0.0000000E+00   0.0000000E+00   0.0000000E+00   0.0000000E+00   0.0000000E+00   0.0000000E+00   0.0000000E+00   0.0000000E+00   0.0000000E+00   0.0000000E+00   0.0000000E+00   0.0000000E+00   0.0000000E+00   0.0000000E+00   0.0000000E+00   0.0000000E+00   0.0000000E+00   0.0000000E+00   0.0000000E+00   0.0000000E+00   0.0000000E+00   0.0000000E+00   0.0000000E+00   0.0000000E+00   0.0000000E+00   0.0000000E+00   0.0000000E+00   0.0000000E+00   0.0000000E+00   0.0000000E+00   0.0000000E+00   0.0000000E+00   0.0000000E+00   0.0000000E+00   0.0000000E+00   0.0000000E+00   0.0000000E+00   0.0000000E+00   0.0000000E+00   0.0000000E+00   0.0000000E+00   0.0000000E+00   0.0000000E+00   0.0000000E+00   0.0000000E+00   0.0000000E+00   0.0000000E+00   0.0000000E+00   0.0000000E+00   0.0000000E+00   0.0000000E+00   0.0000000E+00   0.0000000E+00   0.0000000E+00   0.0000000E+00   0.0000000E+00   0.0000000E+00   0.0000000E+00   0.0000000E+00   0.0000000E+00   0.0000000E+00   0.0000000E+00   0.0000000E+00   0.0000000E+00   0.0000000E+00   0.0000000E+00   0.0000000E+00   0.0000000E+00   0.0000000E+00   0.0000000E+00   0.0000000E+00   0.0000000E+00   0.0000000E+00   0.0000000E+00   0.0000000E+00   0.0000000E+00   0.0000000E+00   0.0000000E+00   0.0000000E+00   0.0000000E+00   0.0000000E+00   0.0000000E+00   0.0000000E+00   0.0000000E+00   0.0000000E+00   0.0000000E+00   0.0000000E+00   0.0000000E+00   0.0000000E+00   0.0000000E+00   0.0000000E+00   0.0000000E+00   0.0000000E+00   0.0000000E+00   0.0000000E+00   0.0000000E+00   0.0000000E+00   0.0000000E+00   0.0000000E+00   0.0000000E+00   0.0000000E+00   0.0000000E+00   0.0000000E+00   0.0000000E+00   0.0000000E+00   0.0000000E+00   0.0000000E+00   0.0000000E+00   0.0000000E+00   0.0000000E+00   0.0000000E+00   0.0000000E+00   0.0000000E+00   0.0000000E+00   0.0000000E+00   0.0000000E+00   0.0000000E+00   0.0000000E+00   0.0000000E+00   0.0000000E+00   0.0000000E+00   0.0000000E+00   0.0000000E+00   0.0000000E+00   0.0000000E+00   0.0000000E+00   0.0000000E+00   0.0000000E+00   0.0000000E+00   0.0000000E+00   0.0000000E+00   0.0000000E+00   0.0000000E+00   0.0000000E+00   0.0000000E+00   0.0000000E+00   0.0000000E+00   0.0000000E+00   0.0000000E+00   0.0000000E+00   0.0000000E+00   0.0000000E+00   0.0000000E+00   0.0000000E+00   0.0000000E+00   0.0000000E+00   0.0000000E+00   0.0000000E+00   0.0000000E+00   0.0000000E+00   0.0000000E+00   0.0000000E+00   0.0000000E+00   0.0000000E+00  -2.7877284E-02  -3.3319883E-02  -3.7820064E-02  -4.1382026E-02  -4.4116300E-02  -2.6807198E-02  -3.3965286E-02  -4.0174294E-02  -4.5241695E-02  -4.9195118E-02  -5.2186821E-02  -3.1405684E-02  -3.9455239E-02  -4.6363138E-02  -5.1890381E-02  -5.6099910E-02  -5.9203222E-02  -3.5939224E-02  -4.4952076E-02  -5.2602008E-02  -5.8594950E-02  -6.3023165E-02  -6.6168875E-02  -4.1164100E-02  -5.1241472E-02  -5.9684020E-02  -6.6178747E-02  -7.0841737E-02  -7.4006513E-02  -4.8506867E-02  -5.9600048E-02  -6.8631418E-02  -7.5437717E-02  -8.0233455E-02  -8.3376110E-02  -6.0138367E-02  -7.1908273E-02  -8.0770396E-02  -8.7214291E-02  -9.1702387E-02  -9.4609588E-02  -7.8874700E-02  -9.0355977E-02  -9.7473852E-02  -1.0222837E-01  -1.0554981E-01  -1.0776965E-01  -1.0752093E-01  -1.1658142E-01  -1.1947916E-01  -1.2071628E-01  -1.2176393E-01  -1.2272564E-01  -1.4714643E-01  -1.5002270E-01  -1.4594930E-01  -1.4201748E-01  -1.3993208E-01  -1.3923097E-01  -1.9363749E-01  -1.8654081E-01  -1.7402065E-01  -1.6443589E-01  -1.5917532E-01  -1.5686876E-01  -2.3021518E-01  -2.1843649E-01  -1.9960080E-01  -1.8588541E-01  -1.7848703E-01  -1.7517242E-01  -2.3439527E-01  -2.3384203E-01  -2.1850477E-01  -2.0490396E-01  -1.9730285E-01  -1.9392279E-01  -2.2995369E-01  -2.3689733E-01  -2.3096183E-01  -2.2168756E-01  -2.1588524E-01  -2.1331441E-01  -2.3465323E-01  -2.4181286E-01  -2.4243066E-01  -2.3835540E-01  -2.3525165E-01  -2.3387744E-01  -2.4880178E-01  -2.5433058E-01  -2.5770983E-01  -2.5735715E-01  -2.5654703E-01  -2.5618848E-01  -2.7029246E-01  -2.7464369E-01  -2.7856946E-01  -2.7990994E-01  -2.8040111E-01  -2.8068623E-01  -2.9676291E-01  -3.0055508E-01  -3.0425614E-01  -3.0596071E-01  -3.0700248E-01  -3.0767053E-01  -3.2624829E-01  -3.3007428E-01  -3.3356440E-01  -3.3515206E-01  -3.3642948E-01  -3.3735532E-01  -3.5826612E-01  -3.6263236E-01  -3.6599475E-01  -3.6737281E-01  -3.6876190E-01  -3.6982191E-01  -3.9344701E-01  -3.9839149E-01  -4.0153080E-01  -4.0262082E-01  -4.0399659E-01  -4.0506601E-01  -4.3235335E-01  -4.3755293E-01  -4.4018614E-01  -4.4089285E-01  -4.4211328E-01  -4.4304091E-01  -4.7534069E-01  -4.8019853E-01  -4.8200858E-01  -4.8219132E-01  -4.8302871E-01  -4.8358777E-01  -5.2228498E-01  -5.2610373E-01  -5.2685142E-01  -5.2624041E-01  -5.2628505E-01  -5.2612793E-01  -5.7212430E-01  -5.7421803E-01  -5.7378960E-01  -5.7182920E-01  -5.7041031E-01  -5.6905478E-01  -6.2201762E-01  -6.2180746E-01  -6.2014621E-01  -6.1581188E-01  -6.1204338E-01  -6.0895711E-01  -6.6636670E-01  -6.6341263E-01  -6.6031039E-01  -6.5208364E-01  -6.4505357E-01  -6.3990641E-01  -6.9616020E-01  -6.9015086E-01  -6.8509531E-01  -6.7106092E-01  -6.6020030E-01  -6.5315920E-01  -6.9806111E-01  -6.8904203E-01  -6.8116391E-01  -6.5984267E-01  -6.4551020E-01  -6.3754040E-01  -6.5218794E-01  -6.4091468E-01  -6.2960094E-01  -6.0225594E-01  -5.8668673E-01  -5.7970172E-01  -5.3092897E-01  -5.1810533E-01  -5.0358135E-01  -4.7807723E-01  -4.6478748E-01  -4.6158925E-01  -2.9544589E-01  -2.8189981E-01  -2.8033662E-01  -2.6373178E-01  -2.5568411E-01  -2.5867200E-01   7.8400485E-02   9.1893524E-02   7.0067599E-02   6.4284042E-02   6.1539531E-02   5.2570432E-02   5.7165080E-01   5.9612262E-01   5.4644656E-01   5.1466435E-01   4.9377325E-01   4.7999227E-01   1.0854398E+00   1.1530421E+00   1.0891035E+00   1.0508068E+00   1.0150567E+00   1.0004245E+00   1.5821660E+00   1.6670604E+00   1.6100665E+00   1.5976824E+00   1.5631218E+00   1.5519552E+00   1.9150944E+00   2.0371807E+00   2.0256023E+00   2.0458486E+00   2.0373559E+00   2.0404415E+00   2.0325177E+00   2.2371993E+00   2.2215197E+00   2.2824981E+00   2.3203523E+00   2.3579888E+00   2.0004272E+00   2.2833428E+00   2.2461441E+00   2.3374085E+00   2.4139516E+00   2.4814172E+00   1.8951180E+00   2.2257242E+00   2.1870067E+00   2.2856023E+00   2.3819218E+00   2.4655719E+00   1.7859415E+00   2.1385834E+00   2.1109729E+00   2.2047958E+00   2.3028381E+00   2.3876936E+00   1.7116989E+00   2.0656528E+00   2.0511711E+00   2.1387599E+00   2.2248349E+00   2.2994313E+00   1.6630422E+00   2.0036027E+00   1.9982516E+00   2.0801928E+00   2.1499894E+00   2.2088578E+00   1.6110181E+00   1.9283116E+00   1.9248657E+00   1.9981863E+00   2.0503967E+00   2.0913100E+00   1.5251855E+00   1.8090342E+00   1.8011651E+00   1.8600447E+00   1.8933132E+00   1.9152796E+00   1.3971539E+00   1.6347523E+00   1.6167510E+00   1.6527176E+00   1.6645662E+00   1.6675276E+00   1.2374498E+00   1.4221876E+00   1.3829831E+00   1.3903267E+00   1.3800730E+00   1.3655697E+00   1.0700963E+00   1.1985123E+00   1.1302023E+00   1.1086397E+00   1.0813580E+00   1.0517657E+00   9.1965860E-01   9.9503720E-01   8.9513803E-01   8.5397732E-01   8.1114542E-01   7.6935279E-01   7.8729874E-01   8.2500803E-01   7.0216429E-01   6.4923871E-01   5.9215283E-01   5.4394811E-01   6.6870987E-01   6.8585670E-01   5.5155963E-01   4.9225271E-01   4.2922267E-01   3.7988621E-01   5.5267161E-01   5.6913030E-01   4.3222332E-01   3.7500328E-01   3.1338429E-01   2.6664281E-01   4.5165387E-01   4.5704448E-01   3.3848184E-01   2.8473887E-01   2.2966364E-01   1.8832403E-01   4.1899148E-01   3.6112320E-01   2.5888160E-01   2.1072246E-01   1.6543752E-01   1.3183749E-01   3.6650330E-01   2.8301799E-01   1.8403988E-01   1.4482692E-01   1.1396933E-01   8.8859215E-02   2.1795353E-01   1.1056507E-01   8.0832966E-02   6.9991343E-02   5.5892251E-02   1.7050731E-01   6.3795216E-02   2.2764213E-02   3.0890703E-02   2.9753432E-02   6.3551262E-02  -8.2108229E-03  -3.2305717E-04   9.5801950E-03   8.8256180E-02   1.7144151E-02  -1.2854785E-02  -2.2056848E-03   8.1148483E-02   2.2356056E-02   1.0132864E-02   9.5677175E-02   7.1406707E-02   8.8384502E-02   1.4521000E-01  -4.6164334E-02  -4.7649205E-02  -4.8668064E-02  -4.9316399E-02  -4.9692012E-02  -4.9882926E-02  -4.9960554E-02  -4.9978960E-02  -4.9975522E-02  -5.4400899E-02  -5.5989958E-02  -5.7065811E-02  -5.7735845E-02  -5.8112238E-02  -5.8293197E-02  -5.8356963E-02  -5.8362424E-02  -5.8350071E-02  -6.1441053E-02  -6.3004866E-02  -6.4026944E-02  -6.4630613E-02  -6.4942807E-02  -6.5068051E-02  -6.5087259E-02  -6.5060385E-02  -6.5028518E-02  -6.8342574E-02  -6.9785543E-02  -7.0660800E-02  -7.1118303E-02  -7.1303420E-02  -7.1325511E-02  -7.1266137E-02  -7.1184389E-02  -7.1120083E-02  -7.6063469E-02  -7.7315941E-02  -7.7969588E-02  -7.8214221E-02  -7.8216039E-02  -7.8090549E-02  -7.7919349E-02  -7.7759691E-02  -7.7649549E-02  -8.5265256E-02  -8.6262897E-02  -8.6631939E-02  -8.6607136E-02  -8.6377032E-02  -8.6064473E-02  -8.5751377E-02  -8.5492775E-02  -8.5324280E-02  -9.6238233E-02  -9.6907318E-02  -9.6932776E-02  -9.6588001E-02  -9.6084237E-02  -9.5551580E-02  -9.5071800E-02  -9.4696999E-02  -9.4459958E-02  -1.0894889E-01  -1.0921239E-01  -1.0883569E-01  -1.0812617E-01  -1.0731538E-01  -1.0653858E-01  -1.0587514E-01  -1.0537279E-01  -1.0506082E-01  -1.2321823E-01  -1.2299813E-01  -1.2217762E-01  -1.2107394E-01  -1.1993722E-01  -1.1890487E-01  -1.1805111E-01  -1.1741781E-01  -1.1702911E-01  -1.3887718E-01  -1.3813859E-01  -1.3687627E-01  -1.3538107E-01  -1.3392259E-01  -1.3264084E-01  -1.3160329E-01  -1.3084425E-01  -1.3038240E-01  -1.5572441E-01  -1.5452796E-01  -1.5288642E-01  -1.5104754E-01  -1.4930299E-01  -1.4779864E-01  -1.4659792E-01  -1.4572798E-01  -1.4520173E-01  -1.7354438E-01  -1.7205733E-01  -1.7015861E-01  -1.6807032E-01  -1.6610776E-01  -1.6442965E-01  -1.6310024E-01  -1.6214302E-01  -1.6156666E-01  -1.9225103E-01  -1.9069417E-01  -1.8869546E-01  -1.8648401E-01  -1.8439682E-01  -1.8261150E-01  -1.8120010E-01  -1.8018706E-01  -1.7957877E-01  -2.1196884E-01  -2.1053405E-01  -2.0858976E-01  -2.0638698E-01  -2.0427768E-01  -2.0246135E-01  -2.0102280E-01  -1.9999096E-01  -1.9937260E-01  -2.3300612E-01  -2.3180161E-01  -2.3002993E-01  -2.2794510E-01  -2.2590783E-01  -2.2413570E-01  -2.2272748E-01  -2.2171743E-01  -2.2111292E-01  -2.5575170E-01  -2.5481293E-01  -2.5327200E-01  -2.5137454E-01  -2.4948141E-01  -2.4782020E-01  -2.4649709E-01  -2.4554977E-01  -2.4498416E-01  -2.8058428E-01  -2.7989918E-01  -2.7858818E-01  -2.7690443E-01  -2.7520198E-01  -2.7370495E-01  -2.7251750E-01  -2.7167249E-01  -2.7117127E-01  -3.0782580E-01  -3.0733347E-01  -3.0621088E-01  -3.0473536E-01  -3.0324969E-01  -3.0195922E-01  -3.0095187E-01  -3.0024636E-01  -2.9983273E-01  -3.3767200E-01  -3.3728704E-01  -3.3629408E-01  -3.3500549E-01  -3.3374816E-01  -3.3269647E-01  -3.3190644E-01  -3.3137146E-01  -3.3106640E-01  -3.7019423E-01  -3.6982819E-01  -3.6890250E-01  -3.6777046E-01  -3.6674103E-01  -3.6594573E-01  -3.6539721E-01  -3.6505455E-01  -3.6487120E-01  -4.0538174E-01  -4.0494278E-01  -4.0401477E-01  -4.0299165E-01  -4.0216553E-01  -4.0162048E-01  -4.0131569E-01  -4.0117097E-01  -4.0111366E-01  -4.4316435E-01  -4.4253632E-01  -4.4150198E-01  -4.4050044E-01  -4.3981144E-01  -4.3947077E-01  -4.3938240E-01  -4.3941861E-01  -4.3947846E-01  -4.8332331E-01  -4.8232996E-01  -4.8102060E-01  -4.7988647E-01  -4.7920823E-01  -4.7897840E-01  -4.7903988E-01  -4.7921398E-01  -4.7936666E-01  -5.2518427E-01  -5.2355790E-01  -5.2171570E-01  -5.2021593E-01  -5.1935756E-01  -5.1909393E-01  -5.1920247E-01  -5.1944572E-01  -5.1965237E-01  -5.6704736E-01  -5.6442928E-01  -5.6170976E-01  -5.5953878E-01  -5.5825531E-01  -5.5777466E-01  -5.5779994E-01  -5.5802643E-01  -5.5823666E-01  -6.0547841E-01  -6.0147762E-01  -5.9749949E-01  -5.9431624E-01  -5.9233361E-01  -5.9143108E-01  -5.9122807E-01  -5.9133732E-01  -5.9149253E-01  -6.3473231E-01  -6.2909019E-01  -6.2355304E-01  -6.1905879E-01  -6.1611688E-01  -6.1458808E-01  -6.1399972E-01  -6.1388034E-01  -6.1391258E-01  -6.4655459E-01  -6.3942486E-01  -6.3234091E-01  -6.2643051E-01  -6.2236506E-01  -6.2003779E-01  -6.1890715E-01  -6.1843061E-01  -6.1825413E-01  -6.3048023E-01  -6.2271649E-01  -6.1471963E-01  -6.0774171E-01  -6.0264570E-01  -5.9945190E-01  -5.9763432E-01  -5.9664375E-01  -5.9614021E-01  -5.7393330E-01  -5.6714827E-01  -5.5963546E-01  -5.5256993E-01  -5.4691827E-01  -5.4292333E-01  -5.4024678E-01  -5.3848630E-01  -5.3744328E-01  -4.5958543E-01  -4.5592535E-01  -4.5072663E-01  -4.4494891E-01  -4.3947673E-01  -4.3478402E-01  -4.3094179E-01  -4.2795831E-01  -4.2600065E-01  -2.6272184E-01  -2.6424670E-01  -2.6301563E-01  -2.5971997E-01  -2.5504315E-01  -2.4961711E-01  -2.4408975E-01  -2.3919681E-01  -2.3576924E-01   4.2245075E-02   3.4958512E-02   3.1714827E-02   3.2237545E-02   3.6144286E-02   4.2737767E-02   5.0754219E-02   5.8482051E-02   6.4099133E-02   4.6662226E-01   4.5604920E-01   4.5009404E-01   4.4919860E-01   4.5346820E-01   4.6233237E-01   4.7402069E-01   4.8573089E-01   4.9439162E-01   9.9038517E-01   9.8239589E-01   9.7822464E-01   9.7921556E-01   9.8627985E-01   9.9925339E-01   1.0160933E+00   1.0329773E+00   1.0454981E+00   1.5520329E+00   1.5542028E+00   1.5580177E+00   1.5654464E+00   1.5784794E+00   1.5976450E+00   1.6209359E+00   1.6437893E+00   1.6606064E+00   2.0554731E+00   2.0736732E+00   2.0908158E+00   2.1087301E+00   2.1304247E+00   2.1572387E+00   2.1875224E+00   2.2163754E+00   2.2373619E+00   2.3984485E+00   2.4357371E+00   2.4675293E+00   2.4969835E+00   2.5280905E+00   2.5628736E+00   2.6000268E+00   2.6344655E+00   2.6591918E+00   2.5430074E+00   2.5953727E+00   2.6389389E+00   2.6782632E+00   2.7180152E+00   2.7604809E+00   2.8043275E+00   2.8441429E+00   2.8724093E+00   2.5377166E+00   2.5971534E+00   2.6466007E+00   2.6917419E+00   2.7374976E+00   2.7859607E+00   2.8353899E+00   2.8798132E+00   2.9111362E+00   2.4591649E+00   2.5167348E+00   2.5649462E+00   2.6103637E+00   2.6578870E+00   2.7091718E+00   2.7618287E+00   2.8091822E+00   2.8425422E+00   2.3614786E+00   2.4099107E+00   2.4506416E+00   2.4909031E+00   2.5355108E+00   2.5856776E+00   2.6383922E+00   2.6863241E+00   2.7202673E+00   2.2563910E+00   2.2914069E+00   2.3206897E+00   2.3518424E+00   2.3896306E+00   2.4350154E+00   2.4845862E+00   2.5306108E+00   2.5635505E+00   2.1223164E+00   2.1425362E+00   2.1589634E+00   2.1791508E+00   2.2078233E+00   2.2458739E+00   2.2898130E+00   2.3318470E+00   2.3623996E+00   1.9295133E+00   1.9355204E+00   1.9397867E+00   1.9492569E+00   1.9683945E+00   1.9981217E+00   2.0351305E+00   2.0719116E+00   2.0991743E+00   1.6657398E+00   1.6594703E+00   1.6539445E+00   1.6547818E+00   1.6658025E+00   1.6878872E+00   1.7180607E+00   1.7493708E+00   1.7730895E+00   1.3501253E+00   1.3350320E+00   1.3235290E+00   1.3192669E+00   1.3250279E+00   1.3415138E+00   1.3661411E+00   1.3926830E+00   1.4131689E+00   1.0266123E+00   1.0069990E+00   9.9371028E-01   9.8809689E-01   9.9166942E-01   1.0048561E+00   1.0255026E+00   1.0482240E+00   1.0659560E+00   7.3903155E-01   7.1878529E-01   7.0694965E-01   7.0265603E-01   7.0615786E-01   7.1762836E-01   7.3537892E-01   7.5493503E-01   7.7023375E-01   5.1231837E-01   4.9393624E-01   4.8517734E-01   4.8329893E-01   4.8753688E-01   4.9789509E-01   5.1317489E-01   5.2980906E-01   5.4278105E-01   3.4940955E-01   3.3389002E-01   3.2831377E-01   3.2864448E-01   3.3343041E-01   3.4261173E-01   3.5543987E-01   3.6917585E-01   3.7982583E-01   2.3886907E-01   2.2606167E-01   2.2270295E-01   2.2423913E-01   2.2888383E-01   2.3657866E-01   2.4689555E-01   2.5777560E-01   2.6615492E-01   1.6452225E-01   1.5379637E-01   1.5118881E-01   1.5263048E-01   1.5638596E-01   1.6237333E-01   1.7027013E-01   1.7850295E-01   1.8479371E-01   1.1287169E-01   1.0372904E-01   1.0048293E-01   1.0058632E-01   1.0285552E-01   1.0706991E-01   1.1280708E-01   1.1878593E-01   1.2332073E-01   7.5692654E-02   6.8461299E-02   6.4019233E-02   6.1834574E-02   6.2001452E-02   6.4291924E-02   6.8097740E-02   7.2257280E-02   7.5432390E-02   4.9142167E-02   4.5002744E-02   4.0181607E-02   3.5576552E-02   3.2912418E-02   3.2757282E-02   3.4490198E-02   3.6988199E-02   3.9054066E-02   3.0330628E-02   3.0897453E-02   2.7884558E-02   2.2235498E-02   1.6782224E-02   1.3466030E-02   1.2521923E-02   1.3022035E-02   1.3852477E-02   1.5936196E-02   2.2093907E-02   2.3388430E-02   1.9503608E-02   1.3077587E-02   7.0671141E-03   2.9733479E-03   8.7322295E-04   5.5402517E-05   4.2238683E-03   1.3616070E-02   2.0586982E-02   2.1387815E-02   1.7131850E-02   1.0705709E-02   4.6400428E-03   1.2791157E-04  -2.5271028E-03   3.7040859E-03   4.3377280E-03   1.3249904E-02   2.0159051E-02   2.1195263E-02   1.7685592E-02   1.2190625E-02   6.8751872E-03   3.1756014E-03   3.3145517E-02   1.1427492E-02   3.1469762E-03   1.0074839E-02   1.7340451E-02   1.9882977E-02   1.8124670E-02   1.4422938E-02   1.1137724E-02   9.1806844E-02   5.0299019E-02   1.8763497E-02   2.2448748E-03   3.8437247E-03   1.1238500E-02   1.5635431E-02   1.6048342E-02   1.4886200E-02   1.2277889E-01   9.0754703E-02   6.3530549E-02   3.1742446E-02   9.5715970E-03   2.0131618E-03   4.5431778E-03   8.3611459E-03   9.7815320E-03   8.1321239E-02   8.0378890E-02   5.5978321E-02   4.1220374E-02   2.3551226E-02   1.4338948E-02   6.8308562E-03   2.2073537E-03   3.2571591E-02   3.4424849E-02   1.9655675E-02   1.1718914E-02  -9.2568994E-04  -1.2999497E-02  -2.4676763E-02  -2.9979639E-02  -4.2812549E-02  -5.6526914E-02  -4.9971994E-02  -4.9975514E-02  -4.9978960E-02  -4.9960546E-02  -4.9882941E-02  -4.9692009E-02  -4.9316406E-02  -4.8668079E-02  -5.8343381E-02  -5.8350086E-02  -5.8362439E-02  -5.8356956E-02  -5.8293208E-02  -5.8112234E-02  -5.7735819E-02  -5.7065804E-02  -6.5015346E-02  -6.5028526E-02  -6.5060385E-02  -6.5087251E-02  -6.5068066E-02  -6.4942814E-02  -6.4630613E-02  -6.4026959E-02  -7.1096174E-02  -7.1120098E-02  -7.1184404E-02  -7.1266174E-02  -7.1325526E-02  -7.1303412E-02  -7.1118318E-02  -7.0660815E-02  -7.7610485E-02  -7.7649556E-02  -7.7759683E-02  -7.7919312E-02  -7.8090549E-02  -7.8216009E-02  -7.8214243E-02  -7.7969596E-02  -8.5265942E-02  -8.5324265E-02  -8.5492805E-02  -8.5751332E-02  -8.6064465E-02  -8.6377047E-02  -8.6607166E-02  -8.6631931E-02  -9.4379067E-02  -9.4459996E-02  -9.4696984E-02  -9.5071793E-02  -9.5551580E-02  -9.6084215E-02  -9.6587978E-02  -9.6932761E-02  -1.0495508E-01  -1.0506079E-01  -1.0537279E-01  -1.0587509E-01  -1.0653859E-01  -1.0731539E-01  -1.0812614E-01  -1.0883560E-01  -1.1689804E-01  -1.1702907E-01  -1.1741781E-01  -1.1805110E-01  -1.1890475E-01  -1.1993724E-01  -1.2107393E-01  -1.2217759E-01  -1.3022736E-01  -1.3038236E-01  -1.3084428E-01  -1.3160335E-01  -1.3264081E-01  -1.3392270E-01  -1.3538100E-01  -1.3687626E-01  -1.4502566E-01  -1.4520177E-01  -1.4572799E-01  -1.4659788E-01  -1.4779866E-01  -1.4930308E-01  -1.5104742E-01  -1.5288638E-01  -1.6137429E-01  -1.6156662E-01  -1.6214292E-01  -1.6310029E-01  -1.6442959E-01  -1.6610779E-01  -1.6807027E-01  -1.7015857E-01  -1.7937610E-01  -1.7957881E-01  -1.8018700E-01  -1.8120007E-01  -1.8261139E-01  -1.8439686E-01  -1.8648407E-01  -1.8869542E-01  -1.9916673E-01  -1.9937257E-01  -1.9999090E-01  -2.0102270E-01  -2.0246132E-01  -2.0427772E-01  -2.0638706E-01  -2.0858981E-01  -2.2091180E-01  -2.2111294E-01  -2.2171745E-01  -2.2272761E-01  -2.2413583E-01  -2.2590786E-01  -2.2794509E-01  -2.3002994E-01  -2.4479644E-01  -2.4498399E-01  -2.4554969E-01  -2.4649698E-01  -2.4782002E-01  -2.4948134E-01  -2.5137448E-01  -2.5327188E-01  -2.7100539E-01  -2.7117112E-01  -2.7167249E-01  -2.7251765E-01  -2.7370501E-01  -2.7520218E-01  -2.7690446E-01  -2.7858815E-01  -2.9969695E-01  -2.9983285E-01  -3.0024645E-01  -3.0095175E-01  -3.0195919E-01  -3.0324969E-01  -3.0473542E-01  -3.0621088E-01  -3.3096728E-01  -3.3106610E-01  -3.3137146E-01  -3.3190647E-01  -3.3269659E-01  -3.3374864E-01  -3.3500558E-01  -3.3629403E-01  -3.6481392E-01  -3.6487123E-01  -3.6505467E-01  -3.6539721E-01  -3.6594579E-01  -3.6674100E-01  -3.6777064E-01  -3.6890280E-01  -4.0109962E-01  -4.0111381E-01  -4.0117094E-01  -4.0131572E-01  -4.0162036E-01  -4.0216586E-01  -4.0299177E-01  -4.0401474E-01  -4.3950447E-01  -4.3947846E-01  -4.3941867E-01  -4.3938237E-01  -4.3947089E-01  -4.3981138E-01  -4.4050074E-01  -4.4150236E-01  -4.7942466E-01  -4.7936633E-01  -4.7921401E-01  -4.7903991E-01  -4.7897837E-01  -4.7920862E-01  -4.7988674E-01  -4.8102063E-01  -5.1972955E-01  -5.1965249E-01  -5.1944602E-01  -5.1920211E-01  -5.1909363E-01  -5.1935786E-01  -5.2021593E-01  -5.2171582E-01  -5.5831689E-01  -5.5823648E-01  -5.5802649E-01  -5.5780017E-01  -5.5777490E-01  -5.5825555E-01  -5.5953896E-01  -5.6171018E-01  -5.9155750E-01  -5.9149241E-01  -5.9133738E-01  -5.9122813E-01  -5.9143120E-01  -5.9233403E-01  -5.9431690E-01  -5.9749973E-01  -6.1393821E-01  -6.1391270E-01  -6.1388004E-01  -6.1399943E-01  -6.1458838E-01  -6.1611760E-01  -6.1905909E-01  -6.2355340E-01  -6.1821038E-01  -6.1825418E-01  -6.1843073E-01  -6.1890733E-01  -6.2003785E-01  -6.2236506E-01  -6.2643015E-01  -6.3234115E-01  -5.9598315E-01  -5.9613991E-01  -5.9664398E-01  -5.9763443E-01  -5.9945214E-01  -6.0264593E-01  -6.0774142E-01  -6.1471957E-01  -5.3709131E-01  -5.3744316E-01  -5.3848654E-01  -5.4024696E-01  -5.4292297E-01  -5.4691821E-01  -5.5256987E-01  -5.5963570E-01  -4.2530972E-01  -4.2600012E-01  -4.2795825E-01  -4.3094185E-01  -4.3478435E-01  -4.3947637E-01  -4.4494915E-01  -4.5072722E-01  -2.3453045E-01  -2.3576942E-01  -2.3919675E-01  -2.4408990E-01  -2.4961683E-01  -2.5504318E-01  -2.5972027E-01  -2.6301575E-01   6.6157460E-02   6.4099014E-02   5.8482021E-02   5.0753951E-02   4.2737573E-02   3.6144063E-02   3.2237500E-02   3.1714931E-02   4.9758595E-01   4.9439135E-01   4.8573074E-01   4.7402081E-01   4.6233243E-01   4.5346835E-01   4.4919848E-01   4.5009395E-01   1.0501245E+00   1.0454981E+00   1.0329773E+00   1.0160929E+00   9.9925327E-01   9.8627907E-01   9.7921526E-01   9.7822464E-01   1.6668017E+00   1.6606061E+00   1.6437898E+00   1.6209363E+00   1.5976456E+00   1.5784788E+00   1.5654470E+00   1.5580182E+00   2.2450628E+00   2.2373614E+00   2.2163754E+00   2.1875219E+00   2.1572387E+00   2.1304255E+00   2.1087294E+00   2.0908163E+00   2.6682169E+00   2.6591930E+00   2.6344657E+00   2.6000268E+00   2.5628743E+00   2.5280895E+00   2.4969831E+00   2.4675288E+00   2.8826742E+00   2.8724089E+00   2.8441446E+00   2.8043280E+00   2.7604828E+00   2.7180166E+00   2.6782637E+00   2.6389382E+00   2.9224761E+00   2.9111366E+00   2.8798137E+00   2.8353910E+00   2.7859612E+00   2.7374976E+00   2.6917424E+00   2.6466012E+00   2.8546143E+00   2.8425422E+00   2.8091817E+00   2.7618287E+00   2.7091720E+00   2.6578875E+00   2.6103656E+00   2.5649481E+00   2.7325761E+00   2.7202678E+00   2.6863239E+00   2.6383922E+00   2.5856767E+00   2.5355110E+00   2.4909048E+00   2.4506421E+00   2.5755501E+00   2.5635502E+00   2.5306120E+00   2.4845867E+00   2.4350157E+00   2.3896313E+00   2.3518414E+00   2.3206906E+00   2.3736045E+00   2.3623993E+00   2.3318458E+00   2.2898133E+00   2.2458735E+00   2.2078228E+00   2.1791511E+00   2.1589632E+00   2.1092587E+00   2.0991740E+00   2.0719104E+00   2.0351305E+00   1.9981216E+00   1.9683940E+00   1.9492569E+00   1.9397869E+00   1.7819448E+00   1.7730899E+00   1.7493708E+00   1.7180605E+00   1.6878867E+00   1.6658027E+00   1.6547824E+00   1.6539440E+00   1.4208772E+00   1.4131689E+00   1.3926828E+00   1.3661408E+00   1.3415129E+00   1.3250277E+00   1.3192667E+00   1.3235289E+00   1.0726609E+00   1.0659559E+00   1.0482237E+00   1.0255023E+00   1.0048562E+00   9.9166942E-01   9.8809695E-01   9.9370974E-01   7.7602863E-01   7.7023381E-01   7.5493461E-01   7.3537874E-01   7.1762806E-01   7.0615757E-01   7.0265603E-01   7.0694947E-01   5.4768986E-01   5.4278064E-01   5.2980876E-01   5.1317471E-01   4.9789497E-01   4.8753667E-01   4.8329863E-01   4.8517725E-01   3.8384876E-01   3.7982586E-01   3.6917543E-01   3.5544002E-01   3.4261179E-01   3.3343041E-01   3.2864445E-01   3.2831395E-01   2.6931196E-01   2.6615489E-01   2.5777537E-01   2.4689578E-01   2.3657842E-01   2.2888401E-01   2.2423926E-01   2.2270292E-01   1.8715405E-01   1.8479377E-01   1.7850311E-01   1.7027017E-01   1.6237330E-01   1.5638593E-01   1.5263027E-01   1.5118879E-01   1.2501264E-01   1.2332061E-01   1.1878604E-01   1.1280686E-01   1.0707022E-01   1.0285556E-01   1.0058644E-01   1.0048313E-01   7.6614946E-02   7.5432330E-02   7.2257310E-02   6.8097562E-02   6.4291909E-02   6.2001437E-02   6.1834753E-02   6.4019471E-02   3.9840490E-02   3.9053977E-02   3.6988080E-02   3.4490436E-02   3.2757163E-02   3.2912523E-02   3.5576478E-02   4.0181786E-02   1.4220893E-02   1.3852268E-02   1.3022214E-02   1.2522012E-02   1.3466164E-02   1.6782075E-02   2.2235468E-02   2.7884617E-02  -1.3852119E-04   5.5268407E-05   8.7328255E-04   2.9733330E-03   7.0670545E-03   1.3077408E-02   1.9503638E-02   2.3388356E-02  -3.4012049E-03  -2.5270879E-03   1.2773275E-04   4.6399087E-03   1.0705590E-02   1.7131850E-02   2.1387786E-02   2.0586789E-02   1.8463135E-03   3.1755567E-03   6.8750083E-03   1.2190416E-02   1.7685547E-02   2.1195129E-02   2.0158991E-02   1.3249844E-02   9.8784715E-03   1.1137649E-02   1.4422610E-02   1.8124491E-02   1.9882783E-02   1.7340302E-02   1.0074660E-02   3.1469911E-03   1.4215037E-02   1.4886200E-02   1.6048148E-02   1.5635207E-02   1.1238292E-02   3.8434714E-03   2.2446811E-03   1.8763483E-02   9.8695084E-03   9.7815022E-03   8.3609521E-03   4.5425519E-03   2.0128638E-03   9.5712841E-03   3.1742543E-02   6.3530572E-02  -2.8844178E-04   2.2071376E-03   6.8305507E-03   1.4338575E-02   2.3550719E-02   4.1220106E-02   5.5977702E-02   8.0378905E-02  -1.8784054E-02  -1.2999862E-02  -9.2604756E-04   1.1718266E-02   1.9655548E-02   3.4424260E-02   3.2571286E-02  -6.1441936E-02  -5.6527510E-02  -4.2813182E-02  -2.9980026E-02  -2.4677105E-02  -4.7649212E-02  -4.6164334E-02  -4.4116281E-02  -4.1382026E-02  -3.7820064E-02  -3.3319890E-02  -2.7877290E-02  -5.5989955E-02  -5.4400899E-02  -5.2186809E-02  -4.9195118E-02  -4.5241691E-02  -4.0174294E-02  -3.3965286E-02  -2.6807198E-02  -6.3004866E-02  -6.1441075E-02  -5.9203230E-02  -5.6099914E-02  -5.1890403E-02  -4.6363138E-02  -3.9455239E-02  -3.1405684E-02  -6.9785543E-02  -6.8342589E-02  -6.6168882E-02  -6.3023157E-02  -5.8594931E-02  -5.2601993E-02  -4.4952080E-02  -3.5939217E-02  -7.7315979E-02  -7.6063477E-02  -7.4006535E-02  -7.0841745E-02  -6.6178739E-02  -5.9684005E-02  -5.1241480E-02  -4.1164093E-02  -8.6262882E-02  -8.5265212E-02  -8.3376132E-02  -8.0233477E-02  -7.5437717E-02  -6.8631418E-02  -5.9600055E-02  -4.8506860E-02  -9.6907333E-02  -9.6238203E-02  -9.4609529E-02  -9.1702349E-02  -8.7214306E-02  -8.0770425E-02  -7.1908250E-02  -6.0138360E-02  -1.0921241E-01  -1.0894891E-01  -1.0776962E-01  -1.0554975E-01  -1.0222835E-01  -9.7473823E-02  -9.0355970E-02  -7.8874692E-02  -1.2299811E-01  -1.2321819E-01  -1.2272559E-01  -1.2176383E-01  -1.2071630E-01  -1.1947917E-01  -1.1658141E-01  -1.0752091E-01  -1.3813864E-01  -1.3887718E-01  -1.3923097E-01  -1.3993199E-01  -1.4201747E-01  -1.4594936E-01  -1.5002266E-01  -1.4714646E-01  -1.5452801E-01  -1.5572438E-01  -1.5686874E-01  -1.5917534E-01  -1.6443588E-01  -1.7402068E-01  -1.8654086E-01  -1.9363748E-01  -1.7205736E-01  -1.7354433E-01  -1.7517231E-01  -1.7848706E-01  -1.8588543E-01  -1.9960074E-01  -2.1843651E-01  -2.3021521E-01  -1.9069421E-01  -1.9225107E-01  -1.9392282E-01  -1.9730289E-01  -2.0490390E-01  -2.1850477E-01  -2.3384203E-01  -2.3439535E-01  -2.1053402E-01  -2.1196887E-01  -2.1331440E-01  -2.1588512E-01  -2.2168757E-01  -2.3096180E-01  -2.3689750E-01  -2.2995380E-01  -2.3180149E-01  -2.3300606E-01  -2.3387757E-01  -2.3525168E-01  -2.3835540E-01  -2.4243060E-01  -2.4181288E-01  -2.3465334E-01  -2.5481284E-01  -2.5575164E-01  -2.5618842E-01  -2.5654715E-01  -2.5735724E-01  -2.5770977E-01  -2.5433064E-01  -2.4880192E-01  -2.7989918E-01  -2.8058434E-01  -2.8068629E-01  -2.8040123E-01  -2.7990997E-01  -2.7856946E-01  -2.7464372E-01  -2.7029258E-01  -3.0733350E-01  -3.0782583E-01  -3.0767038E-01  -3.0700245E-01  -3.0596083E-01  -3.0425632E-01  -3.0055529E-01  -2.9676300E-01  -3.3728728E-01  -3.3767238E-01  -3.3735561E-01  -3.3642966E-01  -3.3515209E-01  -3.3356446E-01  -3.3007425E-01  -3.2624832E-01  -3.6982834E-01  -3.7019426E-01  -3.6982164E-01  -3.6876202E-01  -3.6737263E-01  -3.6599475E-01  -3.6263245E-01  -3.5826617E-01  -4.0494278E-01  -4.0538180E-01  -4.0506607E-01  -4.0399653E-01  -4.0262097E-01  -4.0153110E-01  -3.9839137E-01  -3.9344695E-01  -4.4253695E-01  -4.4316435E-01  -4.4304079E-01  -4.4211331E-01  -4.4089299E-01  -4.4018614E-01  -4.3755296E-01  -4.3235350E-01  -4.8233011E-01  -4.8332337E-01  -4.8358804E-01  -4.8302877E-01  -4.8219138E-01  -4.8200873E-01  -4.8019829E-01  -4.7534081E-01  -5.2355808E-01  -5.2518457E-01  -5.2612805E-01  -5.2628511E-01  -5.2624059E-01  -5.2685153E-01  -5.2610427E-01  -5.2228510E-01  -5.6442916E-01  -5.6704700E-01  -5.6905520E-01  -5.7041031E-01  -5.7182926E-01  -5.7378983E-01  -5.7421827E-01  -5.7212436E-01  -6.0147727E-01  -6.0547817E-01  -6.0895681E-01  -6.1204326E-01  -6.1581182E-01  -6.2014610E-01  -6.2180734E-01  -6.2201732E-01  -6.2909007E-01  -6.3473237E-01  -6.3990670E-01  -6.4505339E-01  -6.5208364E-01  -6.6031033E-01  -6.6341287E-01  -6.6636652E-01  -6.3942474E-01  -6.4655459E-01  -6.5315908E-01  -6.6020036E-01  -6.7106074E-01  -6.8509501E-01  -6.9015074E-01  -6.9616008E-01  -6.2271649E-01  -6.3048041E-01  -6.3754058E-01  -6.4551020E-01  -6.5984243E-01  -6.8116421E-01  -6.8904179E-01  -6.9806087E-01  -5.6714869E-01  -5.7393336E-01  -5.7970184E-01  -5.8668667E-01  -6.0225594E-01  -6.2960112E-01  -6.4091474E-01  -6.5218806E-01  -4.5592546E-01  -4.5958549E-01  -4.6158916E-01  -4.6478766E-01  -4.7807723E-01  -5.0358164E-01  -5.1810515E-01  -5.3092909E-01  -2.6424670E-01  -2.6272207E-01  -2.5867188E-01  -2.5568414E-01  -2.6373175E-01  -2.8033680E-01  -2.8189987E-01  -2.9544607E-01   3.4958586E-02   4.2244598E-02   5.2570254E-02   6.1539531E-02   6.4283878E-02   7.0067577E-02   9.1893524E-02   7.8399934E-02   4.5604891E-01   4.6662229E-01   4.7999212E-01   4.9377301E-01   5.1466429E-01   5.4644644E-01   5.9612250E-01   5.7165080E-01   9.8239553E-01   9.9038512E-01   1.0004246E+00   1.0150568E+00   1.0508064E+00   1.0891030E+00   1.1530426E+00   1.0854396E+00   1.5542024E+00   1.5520332E+00   1.5519550E+00   1.5631218E+00   1.5976827E+00   1.6100662E+00   1.6670599E+00   1.5821664E+00   2.0736742E+00   2.0554738E+00   2.0404415E+00   2.0373566E+00   2.0458491E+00   2.0256028E+00   2.0371809E+00   1.9150951E+00   2.4357381E+00   2.3984482E+00   2.3579898E+00   2.3203523E+00   2.2824986E+00   2.2215202E+00   2.2372000E+00   2.0325172E+00   2.5953736E+00   2.5430081E+00   2.4814167E+00   2.4139512E+00   2.3374095E+00   2.2461431E+00   2.2833424E+00   2.0004284E+00   2.5971534E+00   2.5377178E+00   2.4655733E+00   2.3819251E+00   2.2856038E+00   2.1870074E+00   2.2257247E+00   1.8951186E+00   2.5167363E+00   2.4591651E+00   2.3876941E+00   2.3028393E+00   2.2047970E+00   2.1109726E+00   2.1385834E+00   1.7859415E+00   2.4099109E+00   2.3614783E+00   2.2994320E+00   2.2248356E+00   2.1387594E+00   2.0511708E+00   2.0656531E+00   1.7116994E+00   2.2914076E+00   2.2563913E+00   2.2088580E+00   2.1499894E+00   2.0801926E+00   1.9982513E+00   2.0036027E+00   1.6630422E+00   2.1425362E+00   2.1223156E+00   2.0913100E+00   2.0503962E+00   1.9981859E+00   1.9248649E+00   1.9283111E+00   1.6110177E+00   1.9355187E+00   1.9295127E+00   1.9152778E+00   1.8933127E+00   1.8600450E+00   1.8011645E+00   1.8090341E+00   1.5251858E+00   1.6594696E+00   1.6657379E+00   1.6675266E+00   1.6645670E+00   1.6527171E+00   1.6167510E+00   1.6347514E+00   1.3971536E+00   1.3350317E+00   1.3501251E+00   1.3655690E+00   1.3800721E+00   1.3903266E+00   1.3829830E+00   1.4221873E+00   1.2374506E+00   1.0069987E+00   1.0266119E+00   1.0517652E+00   1.0813575E+00   1.1086392E+00   1.1302013E+00   1.1985121E+00   1.0700964E+00   7.1878499E-01   7.3903131E-01   7.6935291E-01   8.1114513E-01   8.5397726E-01   8.9513791E-01   9.9503708E-01   9.1965789E-01   4.9393621E-01   5.1231825E-01   5.4394805E-01   5.9215283E-01   6.4923871E-01   7.0216417E-01   8.2500827E-01   7.8729820E-01   3.3388990E-01   3.4940964E-01   3.7988624E-01   4.2922255E-01   4.9225274E-01   5.5155945E-01   6.8585658E-01   6.6870993E-01   2.2606170E-01   2.3886910E-01   2.6664293E-01   3.1338447E-01   3.7500337E-01   4.3222353E-01   5.6912994E-01   5.5267179E-01   1.5379646E-01   1.6452242E-01   1.8832411E-01   2.2966383E-01   2.8473914E-01   3.3848208E-01   4.5704502E-01   4.5165384E-01   1.0372923E-01   1.1287192E-01   1.3183752E-01   1.6543749E-01   2.1072266E-01   2.5888148E-01   3.6112341E-01   4.1899151E-01   6.8461359E-02   7.5692609E-02   8.8859312E-02   1.1396944E-01   1.4482707E-01   1.8403965E-01   2.8301817E-01   3.6650303E-01   4.5002788E-02   4.9142241E-02   5.5892333E-02   6.9991477E-02   8.0833085E-02   1.1056500E-01   2.1795383E-01   3.0897468E-02   3.0330613E-02   2.9753581E-02   3.0890584E-02   2.2764176E-02   6.3795194E-02   1.7050698E-01   2.2093892E-02   1.5936181E-02   9.5801651E-03  -3.2314658E-04  -8.2105622E-03   6.3550830E-02   1.3615981E-02   4.2238384E-03  -2.2056103E-03  -1.2854896E-02   1.7144337E-02   8.8255636E-02   4.3376684E-03   3.7041306E-03   1.0132656E-02   2.2356056E-02   8.1148773E-02   1.1427224E-02   3.3145599E-02   7.1406871E-02   9.5677018E-02   5.0298974E-02   9.1806874E-02   1.4520982E-01   8.8384703E-02   9.0754911E-02   1.2277903E-01   8.1321210E-02 
VonMises3D 1 2975 float
  0.0000000E+00   0.0000000E+00   0.0000000E+00   0.0000000E+00   0.0000000E+00   0.0000000E+00   0.0000000E+00   0.0000000E+00   0.0000000E+00   0.0000000E+00   0.0000000E+00   0.0000000E+00   0.0000000E+00   2.3859802E-03   8.5864501E-15   1.7586581E-02   9.8646112E-02   3.7312444E-02   2.6434055E-01   6.8760401E-01   3.4872872E-01   1.2686222E+00   2.5174539E+00   1.3508996E+00   3.7566421E+00   6.5378952E+00   3.4563117E+00   8.3793116E+00   1.3576193E+01   6.8541083E+00   1.5383693E+01   2.3929487E+01   1.1361248E+01   2.4379444E+01   3.7027279E+01   1.6459955E+01   3.4399654E+01   5.1455765E+01   2.1543930E+01   4.4335835E+01   6.5580437E+01   2.6229506E+01   5.3499714E+01   7.8435150E+01   3.0548161E+01   6.1928665E+01   9.0342102E+01   3.6672886E+01   7.0473770E+01   1.0398637E+02   6.7475883E+01   8.8123657E+01   1.2677867E+02   1.9497234E+02   1.7502975E+02   1.7044612E+02   5.5077374E+02   4.6096704E+02   2.3673233E+02   1.3466656E+03   1.0907864E+03   2.9962997E+02   2.1007637E+03   3.9081805E+02   0.0000000E+00   0.0000000E+00   0.0000000E+00   0.0000000E+00   0.0000000E+00   0.0000000E+00   0.0000000E+00   0.0000000E+00   0.0000000E+00   0.0000000E+00   0.0000000E+00   0.0000000E+00   0.0000000E+00   0.0000000E+00   0.0000000E+00   0.0000000E+00   0.0000000E+00   0.0000000E+00   0.0000000E+00   0.0000000E+00   0.0000000E+00   0.0000000E+00   0.0000000E+00   0.0000000E+00   0.0000000E+00   1.5168902E-04   4.7199501E-04   2.6670741E-04   3.4465338E-04   6.0770649E-04   6.8077788E-04   7.2062097E-04   1.4872346E-02   3.1516902E-02   3.8233582E-02   2.7965123E-02   4.4053900E-03   2.1010475E-02   3.6200266E-02   4.0083949E-02   2.1453725E-01   2.9735962E-01   3.0180988E-01   2.1707202E-01   6.5203272E-02   1.0114185E-01   2.2606087E-01   2.8706324E-01   1.0932002E+00   1.2989795E+00   1.2251661E+00   8.6445326E-01   2.9238921E-01   3.2530239E-01   8.0972397E-01   1.0796626E+00   3.4911127E+00   3.8534114E+00   3.4959862E+00   2.4325054E+00   8.5596848E-01   8.2447809E-01   2.1623623E+00   2.9419150E+00   8.4448709E+00   8.9595785E+00   7.9530058E+00   5.4756994E+00   1.9476861E+00   1.7585442E+00   4.7137737E+00   6.4676991E+00   1.6867052E+01   1.7520065E+01   1.5359371E+01   1.0463864E+01   3.6810966E+00   3.3011520E+00   8.8177948E+00   1.2103004E+01   2.9105156E+01   2.9895708E+01   2.5987875E+01   1.7448021E+01   5.9231405E+00   5.6001244E+00   1.4558495E+01   1.9861950E+01   4.4502316E+01   4.5391453E+01   3.8965946E+01   6.1295338E+01   6.2062092E+01   7.7375435E+01   7.7454498E+01   9.1614700E+01   9.0544205E+01   1.0466801E+02   1.0207978E+02   1.2497812E+02   1.2444051E+02   1.9940202E+02   2.3946532E+02   4.3183673E+02   6.0670032E+02   9.3647504E+02   1.4104482E+03   1.7559347E+03   2.7866768E+03   2.6877209E+03   4.5298428E+03   0.0000000E+00   0.0000000E+00   0.0000000E+00   0.0000000E+00   0.0000000E+00   0.0000000E+00   0.0000000E+00   0.0000000E+00   0.0000000E+00   0.0000000E+00   0.0000000E+00   0.0000000E+00   0.0000000E+00   0.0000000E+00   0.0000000E+00   0.0000000E+00   0.0000000E+00   0.0000000E+00   0.0000000E+00   0.0000000E+00   0.0000000E+00   0.0000000E+00   0.0000000E+00   0.0000000E+00   0.0000000E+00   0.0000000E+00   0.0000000E+00   7.3559745E-04   7.3338073E-04   7.2140875E-04   7.0541468E-04   6.8761385E-04   6.7040522E-04   6.5549935E-04   6.4396206E-04   6.3674821E-04   4.0201362E-02   3.8885139E-02   3.6805358E-02   3.4453556E-02   3.2138769E-02   3.0048573E-02   2.8301463E-02   2.6992198E-02   2.6182326E-02   2.9578564E-01   2.8351286E-01   2.6390001E-01   2.4155320E-01   2.1952711E-01   1.9970520E-01   1.8326929E-01   1.7099909E-01   1.6343051E-01   1.1585042E+00   1.1182989E+00   1.0338658E+00   9.3518108E-01   8.3679062E-01   7.4790442E-01   6.7418426E-01   6.1923236E-01   5.8536750E-01   3.2094805E+00   3.1371081E+00   2.8965185E+00   2.6042118E+00   2.3087862E+00   2.0401978E+00   1.8169426E+00   1.6504679E+00   1.5479032E+00   7.1037450E+00   6.9819994E+00   6.4572563E+00   5.7849321E+00   5.0970278E+00   4.4675698E+00   3.9428432E+00   3.5511773E+00   3.3098333E+00   1.3313686E+01   1.3098940E+01   1.2119444E+01   1.0827435E+01   9.4929218E+00   8.2653179E+00   7.2392521E+00   6.4725199E+00   5.9999032E+00   2.1802860E+01   2.1418703E+01   1.9788708E+01   1.7632933E+01   1.5391253E+01   1.3321303E+01   1.1587551E+01   1.0290759E+01   9.4911518E+00   0.0000000E+00   0.0000000E+00   0.0000000E+00   0.0000000E+00   0.0000000E+00   0.0000000E+00   0.0000000E+00   0.0000000E+00   0.0000000E+00   0.0000000E+00   0.0000000E+00   0.0000000E+00   0.0000000E+00   0.0000000E+00   0.0000000E+00   0.0000000E+00   0.0000000E+00   0.0000000E+00   0.0000000E+00   0.0000000E+00   0.0000000E+00   0.0000000E+00   0.0000000E+00   0.0000000E+00   6.3428690E-04   6.3674827E-04   6.4396206E-04   6.5549935E-04   6.7040534E-04   6.8761397E-04   7.0541480E-04   7.2140852E-04   2.5907720E-02   2.6182331E-02   2.6992200E-02   2.8301466E-02   3.0048583E-02   3.2138772E-02   3.4453556E-02   3.6805358E-02   1.6087534E-01   1.6343051E-01   1.7099914E-01   1.8326931E-01   1.9970523E-01   2.1952711E-01   2.4155317E-01   2.6389995E-01   5.7393551E-01   5.8536738E-01   6.1923254E-01   6.7418450E-01   7.4790466E-01   8.3679068E-01   9.3518108E-01   1.0338658E+00   1.5132747E+00   1.5479037E+00   1.6504682E+00   1.8169430E+00   2.0401986E+00   2.3087871E+00   2.6042125E+00   2.8965187E+00   3.2283390E+00   3.3098333E+00   3.5511777E+00   3.9428434E+00   4.4675703E+00   5.0970287E+00   5.7849326E+00   6.4572568E+00   5.8403182E+00   5.9999037E+00   6.4725199E+00   7.2392530E+00   8.2653189E+00   9.4929218E+00   1.0827435E+01   1.2119449E+01   9.2211542E+00   9.4911528E+00   1.0290761E+01   1.1587552E+01   1.3321305E+01   1.5391255E+01   1.7632935E+01   1.9788708E+01   0.0000000E+00   0.0000000E+00   0.0000000E+00   0.0000000E+00   0.0000000E+00   0.0000000E+00   0.0000000E+00   0.0000000E+00   0.0000000E+00   0.0000000E+00   0.0000000E+00   0.0000000E+00   0.0000000E+00   0.0000000E+00   0.0000000E+00   0.0000000E+00   0.0000000E+00   0.0000000E+00   0.0000000E+00   0.0000000E+00   0.0000000E+00   0.0000000E+00   0.0000000E+00   0.0000000E+00   0.0000000E+00   0.0000000E+00   0.0000000E+00   7.3338067E-04   7.3559757E-04   7.2062109E-04   6.8077783E-04   6.0770649E-04   3.4465347E-04   2.6670730E-04   4.7199489E-04   1.5168895E-04   3.8885128E-02   4.0201370E-02   4.0083963E-02   3.6200274E-02   2.1010481E-02   4.4053886E-03   2.7965128E-02   3.8233582E-02   3.1516895E-02   2.8351286E-01   2.9578567E-01   2.8706327E-01   2.2606096E-01   1.0114190E-01   6.5203264E-02   2.1707207E-01   3.0180988E-01   2.9735965E-01   1.1182990E+00   1.1585044E+00   1.0796624E+00   8.0972415E-01   3.2530260E-01   2.9238904E-01   8.6445349E-01   1.2251662E+00   1.2989796E+00   3.1371083E+00   3.2094810E+00   2.9419148E+00   2.1623631E+00   8.2447863E-01   8.5596812E-01   2.4325054E+00   3.4959855E+00   3.8534114E+00   6.9820013E+00   7.1037450E+00   6.4676995E+00   4.7137752E+00   1.7585459E+00   1.9476850E+00   5.4756999E+00   7.9530077E+00   8.9595795E+00   1.3098940E+01   1.3313687E+01   1.2103006E+01   8.8177977E+00   3.3011546E+00   3.6810951E+00   1.0463865E+01   1.5359374E+01   1.7520067E+01   2.1418709E+01   2.1802862E+01   1.9861956E+01   1.4558501E+01   5.6001287E+00   5.9231381E+00   1.7448021E+01   2.5987879E+01   2.9895708E+01   3.8965954E+01   4.5391453E+01   6.2062099E+01   7.7454498E+01   9.0544197E+01   1.0207978E+02   1.2444051E+02   2.3946533E+02   6.0670032E+02   1.4104487E+03   2.7866772E+03   4.5298433E+03   0.0000000E+00   0.0000000E+00   0.0000000E+00   0.0000000E+00   0.0000000E+00   0.0000000E+00   0.0000000E+00   0.0000000E+00   0.0000000E+00   0.0000000E+00   0.0000000E+00   0.0000000E+00   0.0000000E+00   0.0000000E+00   0.0000000E+00   1.4872340E-02   2.3859793E-03   0.0000000E+00   0.0000000E+00   2.1453720E-01   9.8646075E-02   1.7586580E-02   8.5864467E-15   1.0932000E+00   6.8760389E-01   2.6434055E-01   3.7312437E-02   3.4911122E+00   2.5174534E+00   1.2686219E+00   3.4872866E-01   8.4448719E+00   6.5378938E+00   3.7566414E+00   1.3508998E+00   1.6867054E+01   1.3576191E+01   8.3793097E+00   3.4563112E+00   2.9105156E+01   2.3929489E+01   1.5383694E+01   6.8541093E+00   4.4502319E+01   3.7027279E+01   2.4379442E+01   1.1361249E+01   6.1295349E+01   5.1455772E+01   3.4399658E+01   1.6459957E+01   7.7375450E+01   6.5580437E+01   4.4335835E+01   2.1543930E+01   9.1614723E+01   7.8435150E+01   5.3499718E+01   2.6229507E+01   1.0466801E+02   9.0342102E+01   6.1928669E+01   3.0548161E+01   1.2497814E+02   1.0398637E+02   7.0473770E+01   3.6672890E+01   1.9940204E+02   1.2677866E+02   8.8123672E+01   6.7475876E+01   4.3183682E+02   1.7044615E+02   1.7502974E+02   1.9497232E+02   9.3647522E+02   2.3673241E+02   4.6096713E+02   5.5077374E+02   1.7559347E+03   2.9963004E+02   1.0907861E+03   1.3466656E+03   2.6877207E+03   3.9081802E+02   2.1007637E+03   0.0000000E+00   0.0000000E+00   0.0000000E+00   0.0000000E+00   0.0000000E+00   0.0000000E+00   0.0000000E+00   0.0000000E+00   0.0000000E+00   0.0000000E+00   0.0000000E+00   0.0000000E+00   0.0000000E+00   0.0000000E+00   0.0000000E+00   0.0000000E+00   0.0000000E+00   0.0000000E+00   0.0000000E+00   0.0000000E+00   0.0000000E+00   0.0000000E+00   0.0000000E+00   0.0000000E+00   0.0000000E+00   0.0000000E+00   0.0000000E+00   0.0000000E+00   0.0000000E+00   0.0000000E+00   0.0000000E+00   0.0000000E+00   0.0000000E+00   0.0000000E+00   0.0000000E+00   0.0000000E+00   0.0000000E+00   0.0000000E+00   0.0000000E+00   0.0000000E+00   0.0000000E+00   0.0000000E+00   0.0000000E+00   0.0000000E+00   0.0000000E+00   0.0000000E+00   0.0000000E+00   0.0000000E+00   0.0000000E+00   0.0000000E+00   0.0000000E+00   0.0000000E+00   0.0000000E+00   0.0000000E+00   0.0000000E+00   0.0000000E+00   0.0000000E+00   0.0000000E+00   0.0000000E+00   0.0000000E+00   0.0000000E+00   0.0000000E+00   0.0000000E+00   0.0000000E+00   0.0000000E+00   0.0000000E+00   0.0000000E+00   0.0000000E+00   0.0000000E+00   0.0000000E+00   0.0000000E+00   0.0000000E+00   0.0000000E+00   0.0000000E+00   0.0000000E+00   0.0000000E+00   0.0000000E+00   0.0000000E+00   0.0000000E+00   0.0000000E+00   0.0000000E+00   0.0000000E+00   0.0000000E+00   0.0000000E+00   0.0000000E+00   0.0000000E+00   0.0000000E+00   0.0000000E+00   0.0000000E+00   0.0000000E+00   0.0000000E+00   0.0000000E+00   0.0000000E+00   0.0000000E+00   0.0000000E+00   0.0000000E+00   0.0000000E+00   0.0000000E+00   0.0000000E+00   0.0000000E+00   0.0000000E+00   0.0000000E+00   0.0000000E+00   0.0000000E+00   0.0000000E+00   0.0000000E+00   0.0000000E+00   0.0000000E+00   0.0000000E+00   0.0000000E+00   0.0000000E+00   0.0000000E+00   0.0000000E+00   0.0000000E+00   0.0000000E+00   0.0000000E+00   0.0000000E+00   0.0000000E+00   0.0000000E+00   0.0000000E+00   0.0000000E+00   0.0000000E+00   0.0000000E+00   0.0000000E+00   0.0000000E+00   0.0000000E+00   0.0000000E+00   0.0000000E+00   0.0000000E+00   0.0000000E+00   0.0000000E+00   0.0000000E+00   0.0000000E+00   0.0000000E+00   0.0000000E+00   0.0000000E+00   0.0000000E+00   0.0000000E+00   0.0000000E+00   0.0000000E+00   0.0000000E+00   0.0000000E+00   0.0000000E+00   0.0000000E+00   0.0000000E+00   0.0000000E+00   0.0000000E+00   0.0000000E+00   0.0000000E+00   0.0000000E+00   0.0000000E+00   0.0000000E+00   0.0000000E+00   0.0000000E+00   0.0000000E+00   0.0000000E+00   0.0000000E+00   0.0000000E+00   0.0000000E+00   0.0000000E+00   0.0000000E+00   0.0000000E+00   0.0000000E+00   0.0000000E+00   0.0000000E+00   0.0000000E+00   0.0000000E+00   0.0000000E+00   0.0000000E+00   0.0000000E+00   0.0000000E+00   0.0000000E+00   0.0000000E+00   0.0000000E+00   0.0000000E+00   0.0000000E+00   0.0000000E+00   0.0000000E+00   0.0000000E+00   0.0000000E+00   0.0000000E+00   0.0000000E+00   0.0000000E+00   0.0000000E+00   0.0000000E+00   0.0000000E+00   0.0000000E+00   0.0000000E+00   0.0000000E+00   0.0000000E+00   0.0000000E+00   0.0000000E+00   0.0000000E+00   0.0000000E+00   0.0000000E+00   0.0000000E+00   0.0000000E+00   0.0000000E+00   0.0000000E+00   0.0000000E+00   0.0000000E+00   0.0000000E+00   0.0000000E+00   0.0000000E+00   0.0000000E+00   0.0000000E+00   0.0000000E+00   0.0000000E+00   0.0000000E+00   0.0000000E+00   0.0000000E+00   0.0000000E+00   0.0000000E+00   0.0000000E+00   0.0000000E+00   0.0000000E+00   0.0000000E+00   0.0000000E+00   0.0000000E+00   0.0000000E+00   0.0000000E+00   0.0000000E+00   0.0000000E+00   0.0000000E+00   0.0000000E+00   0.0000000E+00   0.0000000E+00   0.0000000E+00   0.0000000E+00   0.0000000E+00   0.0000000E+00   0.0000000E+00   0.0000000E+00   0.0000000E+00   0.0000000E+00   0.0000000E+00   0.0000000E+00   0.0000000E+00   0.0000000E+00   0.0000000E+00   0.0000000E+00   0.0000000E+00   0.0000000E+00   0.0000000E+00   0.0000000E+00   0.0000000E+00   0.0000000E+00   0.0000000E+00   0.0000000E+00   0.0000000E+00   0.0000000E+00   0.0000000E+00   0.0000000E+00   0.0000000E+00   0.0000000E+00   0.0000000E+00   0.0000000E+00   0.0000000E+00   0.0000000E+00   0.0000000E+00   0.0000000E+00   0.0000000E+00   0.0000000E+00   0.0000000E+00   0.0000000E+00   0.0000000E+00   0.0000000E+00   0.0000000E+00   0.0000000E+00   0.0000000E+00   0.0000000E+00   0.0000000E+00   0.0000000E+00   0.0000000E+00   0.0000000E+00   0.0000000E+00   0.0000000E+00   0.0000000E+00   0.0000000E+00   0.0000000E+00   0.0000000E+00   0.0000000E+00   0.0000000E+00   0.0000000E+00   0.0000000E+00   0.0000000E+00   0.0000000E+00   0.0000000E+00   0.0000000E+00   0.0000000E+00   0.0000000E+00   0.0000000E+00   0.0000000E+00   0.0000000E+00   0.0000000E+00   0.0000000E+00   0.0000000E+00   0.0000000E+00   0.0000000E+00   0.0000000E+00   0.0000000E+00   0.0000000E+00   0.0000000E+00   0.0000000E+00   0.0000000E+00   0.0000000E+00   0.0000000E+00   0.0000000E+00   0.0000000E+00   0.0000000E+00   0.0000000E+00   0.0000000E+00   0.0000000E+00   0.0000000E+00   0.0000000E+00   0.0000000E+00   0.0000000E+00   0.0000000E+00   0.0000000E+00   0.0000000E+00   0.0000000E+00   0.0000000E+00   0.0000000E+00   0.0000000E+00   0.0000000E+00   0.0000000E+00   0.0000000E+00   0.0000000E+00   0.0000000E+00   0.0000000E+00   0.0000000E+00   0.0000000E+00   0.0000000E+00   0.0000000E+00   0.0000000E+00   0.0000000E+00   0.0000000E+00   0.0000000E+00   0.0000000E+00   0.0000000E+00   0.0000000E+00   0.0000000E+00   0.0000000E+00   0.0000000E+00   0.0000000E+00   0.0000000E+00   0.0000000E+00   0.0000000E+00   0.0000000E+00   0.0000000E+00   0.0000000E+00   0.0000000E+00   0.0000000E+00   0.0000000E+00   0.0000000E+00   0.0000000E+00   0.0000000E+00   0.0000000E+00   0.0000000E+00   0.0000000E+00   0.0000000E+00   0.0000000E+00   0.0000000E+00   0.0000000E+00   0.0000000E+00   0.0000000E+00   0.0000000E+00   0.0000000E+00   0.0000000E+00   0.0000000E+00   0.0000000E+00   0.0000000E+00   0.0000000E+00   0.0000000E+00   0.0000000E+00   0.0000000E+00   0.0000000E+00   0.0000000E+00   0.0000000E+00   0.0000000E+00   0.0000000E+00   0.0000000E+00   0.0000000E+00   0.0000000E+00   0.0000000E+00   0.0000000E+00   0.0000000E+00   0.0000000E+00   0.0000000E+00   0.0000000E+00   0.0000000E+00   0.0000000E+00   0.0000000E+00   0.0000000E+00   0.0000000E+00   0.0000000E+00   0.0000000E+00   0.0000000E+00   0.0000000E+00   0.0000000E+00   0.0000000E+00   0.0000000E+00   0.0000000E+00   0.0000000E+00   0.0000000E+00   0.0000000E+00   0.0000000E+00   0.0000000E+00   0.0000000E+00   0.0000000E+00   0.0000000E+00   0.0000000E+00   0.0000000E+00   0.0000000E+00   0.0000000E+00   0.0000000E+00   0.0000000E+00   0.0000000E+00   0.0000000E+00   0.0000000E+00   0.0000000E+00   0.0000000E+00   0.0000000E+00   0.0000000E+00   0.0000000E+00   0.0000000E+00   0.0000000E+00   0.0000000E+00   0.0000000E+00   0.0000000E+00   0.0000000E+00   0.0000000E+00   0.0000000E+00   0.0000000E+00   0.0000000E+00   0.0000000E+00   0.0000000E+00   0.0000000E+00   0.0000000E+00   0.0000000E+00   0.0000000E+00   0.0000000E+00   0.0000000E+00   0.0000000E+00   0.0000000E+00   0.0000000E+00   0.0000000E+00   0.0000000E+00   0.0000000E+00   0.0000000E+00   0.0000000E+00   0.0000000E+00   0.0000000E+00   0.0000000E+00   0.0000000E+00   0.0000000E+00   0.0000000E+00   0.0000000E+00   0.0000000E+00   0.0000000E+00   0.0000000E+00   0.0000000E+00   0.0000000E+00   0.0000000E+00   0.0000000E+00   0.0000000E+00   0.0000000E+00   0.0000000E+00   0.0000000E+00   0.0000000E+00   0.0000000E+00   0.0000000E+00   2.5056526E+01   8.1878357E+00   8.6202679E+00   2.1489750E+01   2.9031834E+01   4.8254856E+01   3.2488819E+01   9.8739967E+00   1.2151670E+01   2.8798546E+01   3.8425591E+01   5.9473133E+01   3.8598228E+01   1.0564860E+01   1.6105450E+01   3.5935219E+01   4.7167255E+01   6.8540825E+01   4.3001076E+01   1.0079294E+01   2.0495932E+01   4.2729828E+01   5.4930946E+01   7.5717896E+01   4.5788502E+01   8.4683285E+00   2.5357697E+01   4.9271015E+01   6.1864033E+01   9.1695549E+01   5.4244938E+01   1.3582417E+01   3.1041094E+01   5.5886539E+01   6.8479469E+01   2.0127626E+02   1.3312598E+02   6.2371410E+01   4.3547455E+01   6.3777420E+01   7.5881477E+01   5.4687366E+02   3.8156534E+02   1.9735960E+02   8.8783287E+01   7.7225685E+01   8.6460434E+01   1.2575679E+03   8.7476178E+02   4.5811108E+02   1.9045944E+02   1.0618952E+02   1.0451003E+02   2.3504297E+03   1.6014272E+03   8.2877234E+02   3.3937488E+02   1.5814383E+02   1.3606880E+02   3.4847947E+03   2.3387703E+03   1.1908390E+03   4.8784381E+02   2.2836861E+02   1.8750487E+02   4.1188501E+03   2.7160129E+03   1.3665176E+03   5.7550378E+02   3.1134091E+02   2.6420465E+02   3.9687969E+03   2.5393521E+03   1.2706469E+03   5.9827954E+02   4.1728326E+02   3.6958075E+02   3.0356584E+03   1.9329781E+03   1.0287813E+03   6.4865717E+02   5.6102466E+02   5.0274722E+02   2.0337114E+03   1.3900319E+03   9.4126715E+02   8.0084668E+02   7.3704730E+02   6.5770007E+02   1.6060872E+03   1.2939794E+03   1.0925635E+03   1.0088828E+03   9.2788824E+02   8.2728723E+02   1.6450327E+03   1.4487571E+03   1.3070554E+03   1.2210630E+03   1.1237458E+03   1.0075031E+03   1.7961759E+03   1.6334905E+03   1.5132528E+03   1.4309734E+03   1.3259344E+03   1.1980802E+03   1.9740811E+03   1.8245753E+03   1.7233916E+03   1.6500844E+03   1.5401844E+03   1.4010463E+03   2.1909619E+03   2.0449955E+03   1.9567076E+03   1.8890144E+03   1.7718446E+03   1.6191044E+03   2.4583152E+03   2.3070220E+03   2.2232085E+03   2.1539734E+03   2.0243566E+03   1.8537665E+03   2.7806118E+03   2.6165879E+03   2.5259458E+03   2.4458450E+03   2.2974319E+03   2.1040728E+03   3.1608354E+03   2.9732732E+03   2.8583362E+03   2.7585562E+03   2.5865466E+03   2.3667605E+03   3.6007288E+03   3.3660269E+03   3.2032097E+03   3.0805190E+03   2.8849678E+03   2.6385349E+03   4.0869736E+03   3.7681455E+03   3.5338855E+03   3.3993118E+03   3.1892805E+03   2.9209785E+03   4.5877925E+03   4.1367622E+03   3.8234299E+03   3.7143540E+03   3.5097749E+03   3.2285234E+03   5.0567827E+03   4.4330132E+03   4.0699624E+03   4.0563933E+03   3.8851570E+03   3.5993313E+03   5.4388345E+03   4.6364170E+03   4.3196729E+03   4.4989819E+03   4.3926582E+03   4.1047197E+03   5.7122446E+03   4.7983281E+03   4.6776089E+03   5.1534814E+03   5.1420640E+03   4.8457383E+03   5.9591270E+03   5.0907212E+03   5.3102192E+03   6.1381885E+03   6.2389351E+03   5.9282520E+03   6.4957700E+03   5.8785698E+03   6.4185811E+03   7.5074126E+03   7.7311577E+03   7.4159966E+03   8.0355034E+03   7.7754199E+03   8.1345083E+03   9.2355850E+03   9.5733457E+03   9.2910039E+03   1.1239052E+04   1.1213581E+04   1.1042910E+04   1.1381092E+04   1.1628381E+04   1.1433309E+04   1.5449373E+04   1.5443074E+04   1.4970979E+04   1.4091741E+04   1.3810657E+04   1.3643785E+04   1.8514842E+04   1.8468447E+04   1.8224787E+04   1.6792666E+04   1.5879779E+04   1.5679939E+04   1.9346650E+04   1.9566377E+04   2.0167563E+04   1.8833432E+04   1.7615502E+04   1.7343986E+04   1.9070338E+04   1.9358516E+04   2.0575119E+04   1.9860816E+04   1.8779211E+04   1.8521154E+04   1.8868150E+04   1.8769711E+04   1.9422559E+04   1.9393230E+04   1.8948084E+04   1.9057066E+04   1.9122941E+04   1.8795322E+04   1.8550633E+04   1.8926721E+04   1.8945561E+04   1.9309693E+04   1.9728746E+04   1.9301926E+04   1.8374406E+04   1.8824520E+04   1.9012836E+04   1.9446500E+04   2.0406865E+04   2.0022469E+04   1.8760084E+04   1.9053980E+04   1.9169357E+04   1.9528227E+04   2.0924893E+04   2.0657332E+04   1.9392908E+04   1.9436920E+04   1.9327619E+04   1.9537250E+04   2.0879375E+04   2.0764027E+04   1.9692211E+04   1.9622318E+04   1.9331785E+04   1.9412014E+04   2.0351525E+04   2.0373855E+04   1.9538238E+04   1.9469740E+04   1.9095055E+04   1.9093268E+04   1.9516350E+04   1.9634912E+04   1.8986279E+04   1.8966824E+04   1.8589238E+04   1.8549471E+04   1.8525676E+04   1.8674949E+04   1.8114332E+04   1.8136457E+04   1.7811820E+04   1.7780260E+04   1.7454334E+04   1.7546250E+04   1.7003473E+04   1.7023256E+04   1.6791344E+04   1.6808861E+04   1.6280794E+04   1.6214422E+04   1.5703636E+04   1.5695283E+04   1.5624551E+04   1.5676608E+04   1.4947973E+04   1.4727779E+04   1.4248767E+04   1.4356001E+04   1.4373158E+04   1.4420821E+04   1.3442690E+04   1.3122958E+04   1.2752685E+04   1.3024551E+04   1.3035245E+04   1.3082228E+04   1.1747693E+04   1.1401660E+04   1.1283427E+04   1.1675918E+04   1.1668975E+04   1.1718283E+04   9.8989912E+03   9.6602314E+03   9.8911504E+03   1.0384305E+04   1.0375085E+04   1.0395601E+04   7.9972202E+03   8.1029819E+03   8.6804473E+03   9.2356787E+03   9.2162881E+03   9.1681055E+03   6.3690454E+03   7.0727471E+03   7.8324927E+03   8.3462002E+03   8.2591709E+03   8.0942231E+03   6.7391782E+03   6.4381567E+03   7.3955791E+03   7.8233423E+03   7.6361987E+03   7.2450391E+03   5.3730889E+03   7.1257793E+03   7.7168960E+03   7.4304644E+03   6.7261230E+03   4.3972915E+03   6.4480625E+03   7.6709346E+03   7.5342681E+03   6.5977261E+03   4.6797329E+03   7.0875459E+03   7.6384497E+03   6.7640669E+03   3.7670767E+03   5.4079771E+03   7.1355718E+03   6.9041821E+03   3.0937559E+03   5.3653389E+03   6.4560366E+03   2.7145764E+03   4.7375000E+03   4.1193052E+03   2.2569194E+03   3.1729784E+01   3.1078569E+01   2.8643557E+01   2.5455635E+01   2.2128841E+01   1.9048582E+01   1.6464359E+01   1.4529987E+01   1.3336918E+01   4.1745811E+01   4.0738014E+01   3.7455486E+01   3.3219868E+01   2.8791666E+01   2.4682117E+01   2.1229029E+01   1.8642408E+01   1.7046526E+01   5.0819740E+01   4.9366203E+01   4.5295444E+01   4.0136265E+01   3.4738037E+01   2.9717232E+01   2.5491447E+01   2.2322901E+01   2.0367044E+01   5.8538860E+01   5.6545654E+01   5.1802212E+01   4.5917896E+01   3.9761654E+01   3.4022713E+01   2.9182322E+01   2.5547293E+01   2.3301546E+01   6.5099968E+01   6.2510963E+01   5.7235935E+01   5.0837757E+01   4.4149040E+01   3.7893589E+01   3.2599915E+01   2.8614033E+01   2.6147472E+01   7.1191086E+01   6.8050949E+01   6.2397022E+01   5.5678383E+01   4.8644386E+01   4.2026604E+01   3.6393120E+01   3.2132233E+01   2.9487707E+01   7.7993172E+01   7.4408630E+01   6.8519722E+01   6.1631031E+01   5.4361713E+01   4.7443714E+01   4.1495361E+01   3.6963390E+01   3.4137344E+01   8.7510490E+01   8.3350075E+01   7.7249840E+01   7.0223495E+01   6.2698185E+01   5.5406639E+01   4.9044960E+01   4.4147896E+01   4.1074543E+01   1.0307106E+02   9.7478317E+01   9.0749191E+01   8.3317444E+01   7.5280655E+01   6.7344894E+01   6.0309593E+01   5.4832241E+01   5.1370682E+01   1.2945297E+02   1.2045467E+02   1.1181513E+02   1.0313367E+02   9.3932091E+01   8.4793709E+01   7.6613686E+01   7.0194397E+01   6.6116554E+01   1.7225760E+02   1.5667334E+02   1.4373282E+02   1.3214607E+02   1.2056602E+02   1.0928333E+02   9.9225716E+01   9.1331497E+01   8.6311478E+01   2.3655241E+02   2.1031680E+02   1.8974480E+02   1.7277222E+02   1.5698128E+02   1.4218066E+02   1.2922369E+02   1.1913795E+02   1.1274774E+02   3.2523523E+02   2.8420920E+02   2.5231743E+02   2.2694273E+02   2.0460655E+02   1.8452698E+02   1.6737874E+02   1.5421217E+02   1.4592834E+02   4.3796915E+02   3.7903299E+02   3.3254224E+02   2.9571371E+02   2.6427243E+02   2.3690695E+02   2.1407869E+02   1.9680730E+02   1.8603043E+02   5.7155554E+02   4.9337051E+02   4.3000522E+02   3.7911475E+02   3.3611246E+02   2.9940817E+02   2.6932770E+02   2.4685480E+02   2.3294057E+02   7.2178357E+02   6.2458075E+02   5.4320392E+02   4.7633026E+02   4.1966336E+02   3.7171628E+02   3.3285706E+02   3.0409238E+02   2.8639328E+02   8.8542200E+02   7.7006366E+02   6.7029620E+02   5.8615289E+02   5.1416931E+02   4.5336487E+02   4.0437610E+02   3.6833185E+02   3.4625488E+02   1.0610249E+03   9.2815192E+02   8.0979510E+02   7.0752039E+02   6.1902759E+02   5.4415063E+02   4.8399283E+02   4.3990384E+02   4.1298999E+02   1.2488835E+03   1.0982444E+03   9.6092493E+02   8.3998688E+02   7.3432880E+02   6.4472144E+02   5.7284460E+02   5.2032227E+02   4.8834836E+02   1.4499540E+03   1.2803812E+03   1.1236981E+03   9.8415112E+02   8.6151147E+02   7.5736609E+02   6.7396106E+02   6.1318286E+02   5.7627740E+02   1.6646052E+03   1.4747511E+03   1.2990331E+03   1.1422048E+03   1.0041884E+03   8.8700684E+02   7.9332642E+02   7.2523859E+02   6.8399664E+02   1.8920203E+03   1.6817188E+03   1.4892983E+03   1.3188318E+03   1.1692330E+03   1.0423447E+03   9.4102289E+02   8.6751550E+02   8.2307782E+02   2.1308352E+03   1.9028308E+03   1.6995636E+03   1.5225383E+03   1.3680520E+03   1.2370013E+03   1.1322319E+03   1.0561991E+03   1.0102610E+03   2.3814233E+03   2.1429731E+03   1.9394924E+03   1.7671923E+03   1.6177268E+03   1.4902903E+03   1.3877108E+03   1.3129109E+03   1.2676147E+03   2.6499094E+03   2.4133484E+03   2.2252778E+03   2.0730591E+03   1.9413717E+03   1.8270828E+03   1.7333152E+03   1.6640057E+03   1.6217140E+03   2.9537075E+03   2.7346609E+03   2.5808250E+03   2.4665586E+03   2.3670173E+03   2.2762180E+03   2.1981667E+03   2.1386248E+03   2.1016460E+03   3.3286831E+03   3.1403906E+03   3.0379216E+03   2.9785208E+03   2.9248794E+03   2.8673533E+03   2.8113862E+03   2.7654465E+03   2.7358013E+03   3.8364221E+03   3.6806934E+03   3.6364458E+03   3.6418743E+03   3.6439646E+03   3.6273145E+03   3.5985359E+03   3.5693186E+03   3.5486887E+03   4.5641934E+03   4.4239663E+03   4.4255977E+03   4.4913970E+03   4.5507900E+03   4.5786592E+03   4.5804561E+03   4.5704727E+03   4.5604111E+03   5.6089546E+03   5.4497539E+03   5.4638936E+03   5.5670215E+03   5.6731021E+03   5.7430103E+03   5.7763281E+03   5.7874526E+03   5.7895571E+03   7.0430313E+03   6.8278989E+03   6.8108506E+03   6.9146816E+03   7.0447432E+03   7.1466567E+03   7.2087856E+03   7.2414663E+03   7.2569736E+03   8.8756475E+03   8.5862705E+03   8.5041387E+03   8.5731523E+03   8.6998447E+03   8.8180732E+03   8.9023936E+03   8.9549258E+03   8.9840781E+03   1.1022753E+04   1.0678759E+04   1.0528870E+04   1.0547632E+04   1.0652163E+04   1.0771878E+04   1.0870047E+04   1.0939145E+04   1.0981232E+04   1.3303081E+04   1.2969515E+04   1.2793996E+04   1.2781457E+04   1.2865892E+04   1.2981694E+04   1.3088231E+04   1.3170995E+04   1.3225120E+04   1.5473504E+04   1.5247685E+04   1.5129824E+04   1.5140271E+04   1.5231887E+04   1.5353019E+04   1.5469095E+04   1.5564888E+04   1.5630781E+04   1.7300398E+04   1.7275916E+04   1.7313135E+04   1.7419945E+04   1.7564213E+04   1.7713830E+04   1.7849436E+04   1.7962273E+04   1.8041564E+04   1.8637809E+04   1.8861607E+04   1.9122633E+04   1.9389807E+04   1.9635777E+04   1.9846531E+04   2.0021713E+04   2.0163443E+04   2.0262383E+04   1.9447170E+04   1.9923027E+04   2.0414613E+04   2.0868072E+04   2.1248381E+04   2.1550563E+04   2.1789199E+04   2.1976297E+04   2.2104344E+04   1.9867164E+04   2.0508406E+04   2.1178191E+04   2.1798102E+04   2.2314531E+04   2.2720266E+04   2.3036568E+04   2.3280568E+04   2.3444799E+04   2.0038949E+04   2.0738121E+04   2.1504074E+04   2.2236732E+04   2.2859770E+04   2.3356268E+04   2.3746434E+04   2.4046869E+04   2.4247504E+04   2.0060004E+04   2.0729311E+04   2.1510398E+04   2.2289314E+04   2.2970242E+04   2.3525113E+04   2.3968477E+04   2.4312260E+04   2.4541746E+04   1.9964139E+04   2.0553439E+04   2.1290564E+04   2.2056385E+04   2.2743719E+04   2.3316404E+04   2.3782709E+04   2.4148479E+04   2.4393775E+04   1.9734668E+04   2.0230799E+04   2.0893578E+04   2.1605801E+04   2.2257832E+04   2.2810699E+04   2.3268662E+04   2.3632793E+04   2.3878963E+04   1.9335635E+04   1.9749301E+04   2.0331176E+04   2.0969869E+04   2.1560215E+04   2.2065451E+04   2.2489439E+04   2.2831369E+04   2.3065039E+04   1.8739430E+04   1.9090104E+04   1.9598324E+04   2.0159367E+04   2.0676287E+04   2.1118021E+04   2.1491355E+04   2.1796695E+04   2.2008250E+04   1.7940785E+04   1.8247324E+04   1.8694266E+04   1.9182705E+04   1.9624988E+04   1.9997484E+04   2.0312107E+04   2.0572945E+04   2.0756715E+04   1.6957271E+04   1.7234900E+04   1.7633266E+04   1.8058059E+04   1.8430449E+04   1.8734639E+04   1.8988703E+04   1.9201895E+04   1.9355012E+04   1.5821198E+04   1.6080939E+04   1.6442076E+04   1.6813402E+04   1.7123752E+04   1.7364500E+04   1.7559863E+04   1.7724992E+04   1.7846102E+04   1.4568275E+04   1.4818683E+04   1.5152782E+04   1.5481481E+04   1.5739977E+04   1.5925294E+04   1.6066838E+04   1.6185702E+04   1.6274727E+04   1.3235341E+04   1.3482396E+04   1.3797816E+04   1.4094646E+04   1.4313375E+04   1.4454551E+04   1.4550689E+04   1.4627935E+04   1.4686685E+04   1.1863705E+04   1.2106123E+04   1.2406480E+04   1.2679878E+04   1.2871420E+04   1.2982376E+04   1.3045186E+04   1.3088986E+04   1.3121813E+04   1.0504532E+04   1.0725100E+04   1.1005517E+04   1.1258541E+04   1.1433189E+04   1.1528417E+04   1.1572465E+04   1.1594402E+04   1.1608452E+04   9.2112539E+03   9.3784717E+03   9.6218721E+03   9.8499980E+03   1.0012905E+04   1.0104441E+04   1.0144340E+04   1.0157820E+04   1.0162284E+04   8.0299326E+03   8.1084287E+03   8.2877266E+03   8.4784268E+03   8.6270059E+03   8.7204160E+03   8.7670645E+03   8.7844453E+03   8.7888994E+03   7.0013755E+03   6.9575098E+03   7.0440747E+03   7.1778071E+03   7.3008853E+03   7.3922041E+03   7.4486567E+03   7.4773257E+03   7.4889868E+03   6.1822729E+03   5.9604707E+03   5.9342896E+03   5.9898525E+03   6.0705879E+03   6.1469946E+03   6.2063545E+03   6.2451128E+03   6.2656978E+03   5.6748350E+03   5.1662900E+03   4.9907188E+03   4.9542451E+03   4.9753325E+03   5.0201851E+03   5.0683169E+03   5.1075557E+03   5.1321528E+03   5.5739941E+03   4.6841431E+03   4.2531167E+03   4.0949187E+03   4.0451003E+03   4.0438462E+03   4.0656819E+03   4.0925437E+03   4.1126030E+03   5.7761646E+03   4.6261807E+03   3.8299592E+03   3.4449446E+03   3.2927383E+03   3.2359905E+03   3.2213059E+03   3.2255466E+03   3.2336965E+03   5.9470078E+03   4.8483857E+03   3.8139800E+03   3.1082551E+03   2.7506489E+03   2.6014226E+03   2.5426274E+03   2.5207056E+03   2.5139165E+03   5.5025371E+03   4.9812651E+03   3.9940601E+03   3.0988740E+03   2.4846853E+03   2.1616145E+03   2.0263518E+03   1.9748245E+03   1.9549568E+03   3.7832144E+03   4.3908169E+03   3.9548726E+03   3.1423726E+03   2.4033691E+03   1.9109736E+03   1.6663563E+03   1.5732355E+03   1.5414503E+03   1.6729729E+03   2.5486042E+03   3.0835962E+03   2.8553552E+03   2.2719128E+03   1.7377786E+03   1.4237914E+03   1.2954420E+03   1.2540474E+03   1.3822085E+03   1.4406127E+03   1.7874781E+03   1.7300989E+03   1.4275861E+03   1.1596696E+03   1.0323566E+03   9.9395862E+02   1.0063591E+03   9.7373584E+02   9.4376410E+02   8.4300128E+02   7.5710059E+02   7.1289581E+02   9.1796057E+02   8.0952472E+02   7.4855316E+02   7.1417194E+02   1.2934058E+01   1.3336917E+01   1.4529991E+01   1.6464363E+01   1.9048584E+01   2.2128845E+01   2.5455637E+01   2.8643566E+01   1.6507639E+01   1.7046522E+01   1.8642410E+01   2.1229034E+01   2.4682125E+01   2.8791677E+01   3.3219868E+01   3.7455490E+01   1.9706499E+01   2.0367044E+01   2.2322905E+01   2.5491453E+01   2.9717237E+01   3.4738045E+01   4.0136272E+01   4.5295448E+01   2.2542791E+01   2.3301548E+01   2.5547295E+01   2.9182323E+01   3.4022724E+01   3.9761665E+01   4.5917896E+01   5.1802219E+01   2.5313482E+01   2.6147478E+01   2.8614035E+01   3.2599922E+01   3.7893600E+01   4.4149055E+01   5.0837769E+01   5.7235935E+01   2.8592358E+01   2.9487711E+01   3.2132236E+01   3.6393135E+01   4.2026608E+01   4.8644405E+01   5.5678383E+01   6.2397030E+01   3.3178356E+01   3.4137348E+01   3.6963398E+01   4.1495380E+01   4.7443722E+01   5.4361725E+01   6.1631035E+01   6.8519730E+01   4.0028351E+01   4.1074551E+01   4.4147900E+01   4.9044971E+01   5.5406654E+01   6.2698200E+01   7.0223518E+01   7.7249870E+01   5.0188477E+01   5.1370701E+01   5.4832253E+01   6.0309620E+01   6.7344917E+01   7.5280685E+01   8.3317482E+01   9.0749214E+01   6.4720520E+01   6.6116570E+01   7.0194420E+01   7.6613716E+01   8.4793762E+01   9.3932121E+01   1.0313371E+02   1.1181513E+02   8.4591629E+01   8.6311493E+01   9.1331520E+01   9.9225731E+01   1.0928335E+02   1.2056606E+02   1.3214612E+02   1.4373282E+02   1.1056123E+02   1.1274776E+02   1.1913799E+02   1.2922377E+02   1.4218071E+02   1.5698131E+02   1.7277223E+02   1.8974483E+02   1.4310193E+02   1.4592836E+02   1.5421222E+02   1.6737880E+02   1.8452705E+02   2.0460654E+02   2.2694270E+02   2.5231743E+02   1.8236676E+02   1.8603047E+02   1.9680734E+02   2.1407874E+02   2.3690697E+02   2.6427243E+02   2.9571371E+02   3.3254224E+02   2.2822745E+02   2.3294057E+02   2.4685490E+02   2.6932782E+02   2.9940823E+02   3.3611234E+02   3.7911462E+02   4.3000522E+02   2.8041681E+02   2.8639331E+02   3.0409250E+02   3.3285718E+02   3.7171625E+02   4.1966333E+02   4.7633008E+02   5.4320374E+02   3.3881839E+02   3.4625497E+02   3.6833194E+02   4.0437622E+02   4.5336487E+02   5.1416907E+02   5.8615259E+02   6.7029584E+02   4.0394125E+02   4.1299008E+02   4.3990390E+02   4.8399292E+02   5.4415063E+02   6.1902734E+02   7.0752008E+02   8.0979468E+02   4.7761542E+02   4.8834842E+02   5.2032251E+02   5.7284473E+02   6.4472131E+02   7.3432861E+02   8.3998633E+02   9.6092432E+02   5.6390778E+02   5.7627734E+02   6.1318292E+02   6.7396112E+02   7.5736597E+02   8.6151105E+02   9.8415063E+02   1.1236974E+03   6.7019373E+02   6.8399664E+02   7.2523895E+02   7.9332660E+02   8.8700684E+02   1.0041880E+03   1.1422041E+03   1.2990322E+03   8.0822430E+02   8.2307794E+02   8.6751556E+02   9.4102325E+02   1.0423447E+03   1.1692325E+03   1.3188311E+03   1.4892976E+03   9.9491571E+02   1.0102612E+03   1.0561995E+03   1.1322322E+03   1.2370015E+03   1.3680515E+03   1.5225378E+03   1.6995629E+03   1.2524735E+03   1.2676146E+03   1.3129113E+03   1.3877108E+03   1.4902899E+03   1.6177264E+03   1.7671917E+03   1.9394919E+03   1.6075320E+03   1.6217141E+03   1.6640060E+03   1.7333153E+03   1.8270828E+03   1.9413712E+03   2.0730588E+03   2.2252773E+03   2.0891523E+03   2.1016462E+03   2.1386252E+03   2.1981665E+03   2.2762180E+03   2.3670171E+03   2.4665581E+03   2.5808240E+03   2.7256262E+03   2.7358013E+03   2.7654463E+03   2.8113865E+03   2.8673528E+03   2.9248794E+03   2.9785208E+03   3.0379209E+03   3.5413650E+03   3.5486882E+03   3.5693186E+03   3.5985364E+03   3.6273149E+03   3.6439639E+03   3.6418743E+03   3.6364458E+03   4.5564761E+03   4.5604111E+03   4.5704722E+03   4.5804561E+03   4.5786592E+03   4.5507900E+03   4.4913975E+03   4.4255977E+03   5.7896299E+03   5.7895557E+03   5.7874517E+03   5.7763271E+03   5.7430103E+03   5.6731016E+03   5.5670220E+03   5.4638940E+03   7.2616401E+03   7.2569736E+03   7.2414648E+03   7.2087856E+03   7.1466572E+03   7.0447432E+03   6.9146807E+03   6.8108506E+03   8.9936563E+03   8.9840771E+03   8.9549258E+03   8.9023936E+03   8.8180732E+03   8.6998447E+03   8.5731514E+03   8.5041396E+03   1.0995711E+04   1.0981233E+04   1.0939145E+04   1.0870047E+04   1.0771878E+04   1.0652167E+04   1.0547635E+04   1.0528868E+04   1.3244381E+04   1.3225121E+04   1.3170996E+04   1.3088232E+04   1.2981694E+04   1.2865893E+04   1.2781458E+04   1.2793996E+04   1.5654828E+04   1.5630783E+04   1.5564892E+04   1.5469095E+04   1.5353017E+04   1.5231889E+04   1.5140272E+04   1.5129824E+04   1.8070857E+04   1.8041563E+04   1.7962277E+04   1.7849432E+04   1.7713832E+04   1.7564213E+04   1.7419941E+04   1.7313137E+04   2.0298875E+04   2.0262379E+04   2.0163441E+04   2.0021711E+04   1.9846531E+04   1.9635777E+04   1.9389809E+04   1.9122637E+04   2.2151094E+04   2.2104344E+04   2.1976297E+04   2.1789195E+04   2.1550566E+04   2.1248381E+04   2.0868072E+04   2.0414619E+04   2.3504178E+04   2.3444799E+04   2.3280564E+04   2.3036564E+04   2.2720266E+04   2.2314531E+04   2.1798100E+04   2.1178199E+04   2.4319613E+04   2.4247500E+04   2.4046871E+04   2.3746432E+04   2.3356268E+04   2.2859768E+04   2.2236734E+04   2.1504074E+04   2.4624080E+04   2.4541742E+04   2.4312260E+04   2.3968473E+04   2.3525107E+04   2.2970244E+04   2.2289318E+04   2.1510406E+04   2.4481893E+04   2.4393771E+04   2.4148475E+04   2.3782705E+04   2.3316402E+04   2.2743717E+04   2.2056387E+04   2.1290564E+04   2.3967709E+04   2.3878961E+04   2.3632793E+04   2.3268656E+04   2.2810699E+04   2.2257840E+04   2.1605799E+04   2.0893580E+04   2.3149750E+04   2.3065041E+04   2.2831365E+04   2.2489436E+04   2.2065451E+04   2.1560217E+04   2.0969871E+04   2.0331178E+04   2.2085531E+04   2.2008250E+04   2.1796693E+04   2.1491355E+04   2.1118023E+04   2.0676285E+04   2.0159371E+04   1.9598326E+04   2.0824500E+04   2.0756713E+04   2.0572941E+04   2.0312109E+04   1.9997482E+04   1.9624986E+04   1.9182709E+04   1.8694266E+04   1.9412160E+04   1.9355008E+04   1.9201896E+04   1.8988703E+04   1.8734643E+04   1.8430449E+04   1.8058061E+04   1.7633266E+04   1.7891934E+04   1.7846098E+04   1.7724994E+04   1.7559863E+04   1.7364498E+04   1.7123752E+04   1.6813402E+04   1.6442076E+04   1.6308967E+04   1.6274725E+04   1.6185700E+04   1.6066841E+04   1.5925294E+04   1.5739979E+04   1.5481480E+04   1.5152784E+04   1.4709689E+04   1.4686683E+04   1.4627938E+04   1.4550691E+04   1.4454551E+04   1.4313377E+04   1.4094646E+04   1.3797814E+04   1.3134931E+04   1.3121813E+04   1.3088989E+04   1.3045187E+04   1.2982376E+04   1.2871418E+04   1.2679878E+04   1.2406480E+04   1.1614058E+04   1.1608451E+04   1.1594405E+04   1.1572465E+04   1.1528417E+04   1.1433190E+04   1.1258539E+04   1.1005520E+04   1.0163619E+04   1.0162282E+04   1.0157818E+04   1.0144340E+04   1.0104441E+04   1.0012905E+04   9.8499980E+03   9.6218740E+03   8.7895547E+03   8.7888994E+03   8.7844453E+03   8.7670645E+03   8.7204160E+03   8.6270059E+03   8.4784258E+03   8.2877256E+03   7.4919175E+03   7.4889883E+03   7.4773276E+03   7.4486567E+03   7.3922041E+03   7.3008843E+03   7.1778071E+03   7.0440747E+03   6.2719937E+03   6.2656982E+03   6.2451128E+03   6.2063540E+03   6.1469946E+03   6.0705879E+03   5.9898525E+03   5.9342896E+03   5.1404194E+03   5.1321514E+03   5.1075537E+03   5.0683169E+03   5.0201851E+03   4.9753320E+03   4.9542451E+03   4.9907178E+03   4.1198916E+03   4.1126021E+03   4.0925430E+03   4.0656819E+03   4.0438462E+03   4.0451003E+03   4.0949185E+03   4.2531167E+03   3.2373105E+03   3.2336970E+03   3.2255459E+03   3.2213052E+03   3.2359897E+03   3.2927388E+03   3.4449443E+03   3.8299590E+03   2.5126243E+03   2.5139163E+03   2.5207051E+03   2.5426265E+03   2.6014226E+03   2.7506492E+03   3.1082551E+03   3.8139805E+03   1.9495543E+03   1.9549562E+03   1.9748240E+03   2.0263514E+03   2.1616143E+03   2.4846853E+03   3.0988740E+03   3.9940615E+03   1.5334886E+03   1.5414503E+03   1.5732349E+03   1.6663561E+03   1.9109736E+03   2.4033689E+03   3.1423730E+03   3.9548735E+03   1.2445642E+03   1.2540468E+03   1.2954413E+03   1.4237910E+03   1.7377783E+03   2.2719126E+03   2.8553552E+03   3.0835967E+03   9.8646051E+02   9.9395831E+02   1.0323563E+03   1.1596691E+03   1.4275857E+03   1.7300985E+03   1.7874783E+03   1.4406124E+03   7.0037506E+02   7.1289587E+02   7.5710004E+02   8.4300110E+02   9.4376379E+02   9.7373535E+02   1.0063588E+03   7.0290454E+02   7.1417206E+02   7.4855280E+02   8.0952441E+02   9.1796027E+02   3.1078573E+01   3.1729790E+01   2.9031839E+01   2.1489761E+01   8.6202793E+00   8.1878319E+00   2.5056528E+01   4.0738026E+01   4.1745823E+01   3.8425602E+01   2.8798559E+01   1.2151688E+01   9.8739796E+00   3.2488811E+01   4.8254856E+01   4.9366211E+01   5.0819748E+01   4.7167267E+01   3.5935234E+01   1.6105463E+01   1.0564842E+01   3.8598221E+01   5.9473114E+01   5.6545662E+01   5.8538879E+01   5.4930962E+01   4.2729851E+01   2.0495949E+01   1.0079271E+01   4.3001068E+01   6.8540810E+01   6.2510967E+01   6.5099983E+01   6.1864052E+01   4.9271030E+01   2.5357719E+01   8.4683104E+00   4.5788490E+01   7.5717880E+01   6.8050964E+01   7.1191093E+01   6.8479492E+01   5.5886566E+01   3.1041121E+01   1.3582420E+01   5.4244904E+01   9.1695541E+01   7.4408661E+01   7.7993195E+01   7.5881500E+01   6.3777454E+01   4.3547474E+01   6.2371441E+01   1.3312599E+02   2.0127634E+02   8.3350075E+01   8.7510513E+01   8.6460449E+01   7.7225716E+01   8.8783325E+01   1.9735962E+02   3.8156537E+02   5.4687366E+02   9.7478325E+01   1.0307108E+02   1.0451006E+02   1.0618954E+02   1.9045955E+02   4.5811118E+02   8.7476166E+02   1.2575677E+03   1.2045469E+02   1.2945299E+02   1.3606882E+02   1.5814384E+02   3.3937494E+02   8.2877246E+02   1.6014275E+03   2.3504309E+03   1.5667337E+02   1.7225763E+02   1.8750493E+02   2.2836859E+02   4.8784375E+02   1.1908389E+03   2.3387715E+03   3.4847957E+03   2.1031680E+02   2.3655241E+02   2.6420465E+02   3.1134091E+02   5.7550366E+02   1.3665177E+03   2.7160129E+03   4.1188506E+03   2.8420920E+02   3.2523511E+02   3.6958069E+02   4.1728311E+02   5.9827942E+02   1.2706467E+03   2.5393523E+03   3.9687969E+03   3.7903293E+02   4.3796912E+02   5.0274710E+02   5.6102460E+02   6.4865710E+02   1.0287813E+03   1.9329783E+03   3.0356592E+03   4.9337045E+02   5.7155548E+02   6.5769989E+02   7.3704724E+02   8.0084674E+02   9.4126715E+02   1.3900317E+03   2.0337114E+03   6.2458051E+02   7.2178351E+02   8.2728705E+02   9.2788837E+02   1.0088828E+03   1.0925635E+03   1.2939797E+03   1.6060873E+03   7.7006335E+02   8.8542169E+02   1.0075028E+03   1.1237457E+03   1.2210627E+03   1.3070554E+03   1.4487574E+03   1.6450327E+03   9.2815155E+02   1.0610247E+03   1.1980797E+03   1.3259342E+03   1.4309734E+03   1.5132531E+03   1.6334907E+03   1.7961761E+03   1.0982438E+03   1.2488831E+03   1.4010461E+03   1.5401841E+03   1.6500847E+03   1.7233920E+03   1.8245758E+03   1.9740811E+03   1.2803804E+03   1.4499534E+03   1.6191038E+03   1.7718445E+03   1.8890144E+03   1.9567081E+03   2.0449960E+03   2.1909622E+03   1.4747506E+03   1.6646044E+03   1.8537660E+03   2.0243563E+03   2.1539739E+03   2.2232085E+03   2.3070222E+03   2.4583159E+03   1.6817181E+03   1.8920197E+03   2.1040720E+03   2.2974319E+03   2.4458457E+03   2.5259460E+03   2.6165881E+03   2.7806125E+03   1.9028301E+03   2.1308345E+03   2.3667600E+03   2.5865466E+03   2.7585562E+03   2.8583369E+03   2.9732737E+03   3.1608357E+03   2.1429722E+03   2.3814221E+03   2.6385349E+03   2.8849678E+03   3.0805183E+03   3.2032100E+03   3.3660273E+03   3.6007297E+03   2.4133477E+03   2.6499092E+03   2.9209780E+03   3.1892805E+03   3.3993115E+03   3.5338860E+03   3.7681462E+03   4.0869741E+03   2.7346604E+03   2.9537078E+03   3.2285229E+03   3.5097747E+03   3.7143542E+03   3.8234299E+03   4.1367627E+03   4.5877920E+03   3.1403904E+03   3.3286831E+03   3.5993313E+03   3.8851563E+03   4.0563936E+03   4.0699619E+03   4.4330132E+03   5.0567832E+03   3.6806934E+03   3.8364216E+03   4.1047202E+03   4.3926587E+03   4.4989824E+03   4.3196729E+03   4.6364170E+03   5.4388345E+03   4.4239668E+03   4.5641929E+03   4.8457388E+03   5.1420640E+03   5.1534814E+03   4.6776104E+03   4.7983276E+03   5.7122446E+03   5.4497539E+03   5.6089556E+03   5.9282520E+03   6.2389351E+03   6.1381885E+03   5.3102202E+03   5.0907202E+03   5.9591270E+03   6.8278989E+03   7.0430313E+03   7.4159961E+03   7.7311567E+03   7.5074136E+03   6.4185806E+03   5.8785693E+03   6.4957700E+03   8.5862705E+03   8.8756475E+03   9.2910049E+03   9.5733457E+03   9.2355850E+03   8.1345098E+03   7.7754214E+03   8.0355044E+03   1.0678759E+04   1.1022753E+04   1.1433309E+04   1.1628384E+04   1.1381092E+04   1.1042910E+04   1.1213580E+04   1.1239054E+04   1.2969513E+04   1.3303083E+04   1.3643785E+04   1.3810657E+04   1.4091742E+04   1.4970977E+04   1.5443074E+04   1.5449374E+04   1.5247685E+04   1.5473506E+04   1.5679939E+04   1.5879780E+04   1.6792666E+04   1.8224787E+04   1.8468443E+04   1.8514840E+04   1.7275920E+04   1.7300402E+04   1.7343996E+04   1.7615508E+04   1.8833432E+04   2.0167563E+04   1.9566375E+04   1.9346648E+04   1.8861607E+04   1.8637809E+04   1.8521158E+04   1.8779211E+04   1.9860818E+04   2.0575121E+04   1.9358514E+04   1.9070334E+04   1.9923031E+04   1.9447176E+04   1.9057072E+04   1.8948084E+04   1.9393236E+04   1.9422561E+04   1.8769707E+04   1.8868150E+04   2.0508406E+04   1.9867166E+04   1.9309697E+04   1.8945564E+04   1.8926727E+04   1.8550629E+04   1.8795322E+04   1.9122939E+04   2.0738125E+04   2.0038951E+04   1.9446502E+04   1.9012840E+04   1.8824523E+04   1.8374410E+04   1.9301922E+04   1.9728740E+04   2.0729316E+04   2.0060014E+04   1.9528234E+04   1.9169361E+04   1.9053984E+04   1.8760086E+04   2.0022469E+04   2.0406867E+04   2.0553447E+04   1.9964143E+04   1.9537252E+04   1.9327621E+04   1.9436916E+04   1.9392904E+04   2.0657326E+04   2.0924893E+04   2.0230803E+04   1.9734672E+04   1.9412016E+04   1.9331785E+04   1.9622314E+04   1.9692203E+04   2.0764023E+04   2.0879373E+04   1.9749307E+04   1.9335635E+04   1.9093273E+04   1.9095047E+04   1.9469744E+04   1.9538236E+04   2.0373859E+04   2.0351521E+04   1.9090107E+04   1.8739426E+04   1.8549473E+04   1.8589238E+04   1.8966824E+04   1.8986277E+04   1.9634910E+04   1.9516348E+04   1.8247322E+04   1.7940781E+04   1.7780262E+04   1.7811820E+04   1.8136455E+04   1.8114332E+04   1.8674947E+04   1.8525670E+04   1.7234900E+04   1.6957270E+04   1.6808859E+04   1.6791344E+04   1.7023256E+04   1.7003471E+04   1.7546248E+04   1.7454336E+04   1.6080941E+04   1.5821200E+04   1.5676604E+04   1.5624549E+04   1.5695283E+04   1.5703632E+04   1.6214421E+04   1.6280795E+04   1.4818685E+04   1.4568275E+04   1.4420820E+04   1.4373156E+04   1.4355997E+04   1.4248767E+04   1.4727775E+04   1.4947976E+04   1.3482396E+04   1.3235340E+04   1.3082227E+04   1.3035244E+04   1.3024551E+04   1.2752686E+04   1.3122957E+04   1.3442693E+04   1.2106125E+04   1.1863707E+04   1.1718280E+04   1.1668975E+04   1.1675923E+04   1.1283427E+04   1.1401662E+04   1.1747693E+04   1.0725097E+04   1.0504531E+04   1.0395601E+04   1.0375085E+04   1.0384303E+04   9.8911523E+03   9.6602314E+03   9.8989912E+03   9.3784707E+03   9.2112539E+03   9.1681055E+03   9.2162881E+03   9.2356787E+03   8.6804482E+03   8.1029849E+03   7.9972202E+03   8.1084287E+03   8.0299326E+03   8.0942241E+03   8.2591699E+03   8.3462002E+03   7.8324917E+03   7.0727466E+03   6.3690459E+03   6.9575103E+03   7.0013755E+03   7.2450371E+03   7.6361992E+03   7.8233442E+03   7.3955771E+03   6.4381543E+03   6.7391797E+03   5.9604702E+03   6.1822729E+03   6.7261221E+03   7.4304653E+03   7.7168970E+03   7.1257808E+03   5.3730879E+03   5.1662896E+03   5.6748364E+03   6.5977251E+03   7.5342666E+03   7.6709351E+03   6.4480610E+03   4.3972896E+03   4.6841436E+03   5.5739932E+03   6.7640659E+03   7.6384487E+03   7.0875493E+03   4.6797314E+03   4.6261807E+03   5.7761655E+03   6.9041812E+03   7.1355713E+03   5.4079751E+03   3.7670747E+03   4.8483867E+03   5.9470078E+03   6.4560356E+03   5.3653394E+03   3.0937568E+03   4.9812651E+03   5.5025371E+03   4.7375010E+03   2.7145769E+03   4.3908174E+03   3.7832136E+03   2.2569199E+03   4.1193052E+03   2.5486045E+03   1.6729728E+03   1.3822083E+03 
Vel 3 2975 float
  0.0000000E+00   0.0000000E+00   0.0000000E+00   0.0000000E+00   0.0000000E+00   0.0000000E+00   0.0000000E+00   0.0000000E+00   0.0000000E+00   0.0000000E+00   0.0000000E+00   0.0000000E+00   0.0000000E+00   0.0000000E+00   0.0000000E+00   0.0000000E+00   0.0000000E+00   0.0000000E+00   0.0000000E+00   0.0000000E+00   0.0000000E+00   0.0000000E+00   0.0000000E+00   0.0000000E+00   0.0000000E+00   0.0000000E+00   0.0000000E+00   0.0000000E+00   0.0000000E+00   0.0000000E+00   0.0000000E+00   0.0000000E+00   0.0000000E+00   0.0000000E+00   0.0000000E+00   0.0000000E+00   0.0000000E+00   0.0000000E+00   0.0000000E+00   0.0000000E+00   0.0000000E+00   0.0000000E+00   0.0000000E+00   0.0000000E+00   0.0000000E+00   0.0000000E+00   0.0000000E+00   0.0000000E+00   0.0000000E+00   0.0000000E+00   0.0000000E+00   0.0000000E+00   0.0000000E+00   0.0000000E+00   0.0000000E+00   0.0000000E+00   0.0000000E+00   0.0000000E+00   0.0000000E+00   0.0000000E+00   0.0000000E+00   0.0000000E+00   0.0000000E+00   0.0000000E+00   0.0000000E+00   0.0000000E+00   0.0000000E+00   0.0000000E+00   0.0000000E+00   0.0000000E+00   0.0000000E+00   0.0000000E+00   0.0000000E+00   0.0000000E+00   0.0000000E+00   0.0000000E+00   0.0000000E+00   0.0000000E+00   0.0000000E+00   0.0000000E+00   0.0000000E+00   0.0000000E+00   0.0000000E+00   0.0000000E+00   0.0000000E+00   0.0000000E+00   0.0000000E+00   0.0000000E+00   0.0000000E+00   0.0000000E+00   0.0000000E+00   0.0000000E+00   0.0000000E+00   0.0000000E+00   0.0000000E+00   0.0000000E+00   0.0000000E+00   0.0000000E+00   0.0000000E+00   0.0000000E+00   0.0000000E+00   0.0000000E+00   0.0000000E+00   0.0000000E+00   0.0000000E+00   0.0000000E+00   0.0000000E+00   0.0000000E+00   0.0000000E+00   0.0000000E+00   0.0000000E+00   0.0000000E+00   0.0000000E+00   0.0000000E+00   0.0000000E+00   0.0000000E+00   0.0000000E+00   0.0000000E+00   0.0000000E+00   0.0000000E+00   0.0000000E+00   0.0000000E+00   0.0000000E+00   0.0000000E+00   0.0000000E+00   0.0000000E+00   0.0000000E+00   0.0000000E+00   0.0000000E+00   0.0000000E+00   0.0000000E+00   0.0000000E+00   0.0000000E+00   0.0000000E+00   0.0000000E+00   0.0000000E+00   0.0000000E+00   0.0000000E+00   0.0000000E+00   0.0000000E+00   0.0000000E+00   0.0000000E+00   0.0000000E+00   0.0000000E+00   0.0000000E+00   0.0000000E+00   0.0000000E+00   0.0000000E+00   0.0000000E+00   0.0000000E+00   0.0000000E+00   0.0000000E+00   0.0000000E+00   0.0000000E+00   0.0000000E+00   0.0000000E+00   0.0000000E+00   0.0000000E+00   0.0000000E+00   0.0000000E+00   0.0000000E+00   0.0000000E+00   0.0000000E+00   0.0000000E+00   0.0000000E+00   0.0000000E+00   0.0000000E+00   0.0000000E+00   0.0000000E+00   0.0000000E+00   0.0000000E+00   0.0000000E+00   0.0000000E+00   0.0000000E+00   0.0000000E+00   0.0000000E+00   0.0000000E+00   0.0000000E+00   0.0000000E+00   0.0000000E+00   0.0000000E+00   0.0000000E+00   0.0000000E+00   0.0000000E+00   0.0000000E+00   0.0000000E+00   0.0000000E+00   0.0000000E+00   0.0000000E+00   0.0000000E+00   0.0000000E+00   0.0000000E+00   0.0000000E+00   0.0000000E+00   0.0000000E+00   0.0000000E+00   0.0000000E+00   0.0000000E+00   0.0000000E+00   0.0000000E+00   0.0000000E+00   0.0000000E+00   0.0000000E+00   0.0000000E+00   0.0000000E+00   0.0000000E+00   0.0000000E+00   0.0000000E+00   0.0000000E+00   0.0000000E+00   0.0000000E+00   0.0000000E+00   0.0000000E+00   0.0000000E+00   0.0000000E+00   0.0000000E+00   0.0000000E+00   0.0000000E+00   0.0000000E+00   0.0000000E+00   0.0000000E+00   0.0000000E+00   0.0000000E+00   0.0000000E+00   0.0000000E+00   0.0000000E+00   0.0000000E+00   0.0000000E+00   0.0000000E+00   0.0000000E+00   0.0000000E+00   0.0000000E+00   0.0000000E+00   0.0000000E+00   0.0000000E+00   0.0000000E+00   0.0000000E+00   0.0000000E+00   0.0000000E+00   0.0000000E+00   0.0000000E+00   0.0000000E+00   0.0000000E+00   0.0000000E+00   0.0000000E+00   0.0000000E+00   0.0000000E+00   0.0000000E+00   0.0000000E+00   0.0000000E+00   0.0000000E+00   0.0000000E+00   0.0000000E+00   0.0000000E+00   0.0000000E+00   0.0000000E+00   0.0000000E+00   0.0000000E+00   0.0000000E+00   0.0000000E+00   0.0000000E+00   0.0000000E+00   0.0000000E+00   0.0000000E+00   0.0000000E+00   0.0000000E+00   0.0000000E+00   0.0000000E+00   0.0000000E+00   0.0000000E+00   0.0000000E+00   0.0000000E+00   0.0000000E+00   0.0000000E+00   0.0000000E+00   0.0000000E+00   0.0000000E+00   0.0000000E+00   0.0000000E+00   0.0000000E+00   0.0000000E+00   0.0000000E+00   0.0000000E+00   0.0000000E+00   0.0000000E+00   0.0000000E+00   0.0000000E+00   0.0000000E+00   0.0000000E+00   0.0000000E+00   0.0000000E+00   0.0000000E+00   0.0000000E+00   0.0000000E+00   0.0000000E+00   0.0000000E+00   0.0000000E+00   0.0000000E+00   0.0000000E+00   0.0000000E+00   0.0000000E+00   0.0000000E+00   0.0000000E+00   0.0000000E+00   0.0000000E+00   0.0000000E+00   0.0000000E+00   0.0000000E+00   0.0000000E+00   0.0000000E+00   0.0000000E+00   0.0000000E+00   0.0000000E+00   0.0000000E+00   0.0000000E+00   0.0000000E+00   0.0000000E+00   0.0000000E+00   0.0000000E+00   0.0000000E+00   0.0000000E+00   0.0000000E+00   0.0000000E+00   0.0000000E+00   0.0000000E+00   0.0000000E+00   0.0000000E+00   0.0000000E+00   0.0000000E+00   0.0000000E+00   0.0000000E+00   0.0000000E+00   0.0000000E+00   0.0000000E+00   0.0000000E+00   0.0000000E+00   0.0000000E+00   0.0000000E+00   0.0000000E+00   0.0000000E+00   0.0000000E+00   0.0000000E+00   0.0000000E+00   0.0000000E+00   0.0000000E+00   0.0000000E+00   0.0000000E+00   0.0000000E+00   0.0000000E+00   0.0000000E+00   0.0000000E+00   0.0000000E+00   0.0000000E+00   0.0000000E+00   0.0000000E+00   0.0000000E+00   0.0000000E+00   0.0000000E+00   0.0000000E+00   0.0000000E+00   0.0000000E+00   0.0000000E+00   0.0000000E+00   0.0000000E+00   0.0000000E+00   0.0000000E+00   0.0000000E+00   0.0000000E+00   0.0000000E+00   0.0000000E+00   0.0000000E+00   0.0000000E+00   0.0000000E+00   0.0000000E+00   0.0000000E+00   0.0000000E+00   0.0000000E+00   0.0000000E+00   0.0000000E+00   0.0000000E+00   0.0000000E+00   0.0000000E+00   0.0000000E+00   0.0000000E+00   0.0000000E+00   0.0000000E+00   0.0000000E+00   0.0000000E+00   0.0000000E+00   0.0000000E+00   0.0000000E+00   0.0000000E+00   0.0000000E+00   0.0000000E+00   0.0000000E+00   0.0000000E+00   0.0000000E+00   0.0000000E+00   0.0000000E+00   0.0000000E+00   0.0000000E+00   0.0000000E+00   0.0000000E+00   0.0000000E+00   0.0000000E+00   0.0000000E+00   0.0000000E+00   0.0000000E+00   0.0000000E+00   0.0000000E+00   0.0000000E+00   0.0000000E+00   0.0000000E+00   0.0000000E+00   0.0000000E+00   0.0000000E+00   0.0000000E+00   0.0000000E+00   0.0000000E+00   0.0000000E+00   0.0000000E+00   0.0000000E+00   0.0000000E+00   0.0000000E+00   0.0000000E+00   0.0000000E+00   0.0000000E+00   0.0000000E+00   0.0000000E+00   0.0000000E+00   0.0000000E+00   0.0000000E+00   0.0000000E+00   0.0000000E+00   0.0000000E+00   0.0000000E+00   0.0000000E+00   0.0000000E+00   0.0000000E+00   0.0000000E+00   0.0000000E+00   0.0000000E+00   0.0000000E+00   0.0000000E+00   0.0000000E+00   0.0000000E+00   0.0000000E+00   0.0000000E+00   0.0000000E+00   0.0000000E+00   0.0000000E+00   0.0000000E+00   0.0000000E+00   0.0000000E+00   0.0000000E+00   0.0000000E+00   0.0000000E+00   0.0000000E+00   0.0000000E+00   0.0000000E+00   0.0000000E+00   0.0000000E+00   0.0000000E+00   0.0000000E+00   0.0000000E+00   0.0000000E+00   0.0000000E+00   0.0000000E+00   0.0000000E+00   0.0000000E+00   0.0000000E+00   0.0000000E+00   0.0000000E+00   0.0000000E+00   0.0000000E+00   0.0000000E+00   0.0000000E+00   0.0000000E+00   0.0000000E+00   0.0000000E+00   0.0000000E+00   0.0000000E+00   0.0000000E+00   0.0000000E+00   0.0000000E+00   0.0000000E+00   0.0000000E+00   0.0000000E+00   0.0000000E+00   0.0000000E+00   0.0000000E+00   0.0000000E+00   0.0000000E+00   0.0000000E+00   0.0000000E+00   0.0000000E+00   0.0000000E+00   0.0000000E+00   0.0000000E+00   0.0000000E+00   0.0000000E+00   0.0000000E+00   0.0000000E+00   0.0000000E+00   0.0000000E+00   0.0000000E+00   0.0000000E+00   0.0000000E+00   0.0000000E+00   0.0000000E+00   0.0000000E+00   0.0000000E+00   0.0000000E+00   0.0000000E+00   0.0000000E+00   0.0000000E+00   0.0000000E+00   0.0000000E+00   0.0000000E+00   0.0000000E+00   0.0000000E+00   0.0000000E+00   0.0000000E+00   0.0000000E+00   0.0000000E+00   0.0000000E+00   0.0000000E+00   0.0000000E+00   0.0000000E+00   0.0000000E+00   0.0000000E+00   0.0000000E+00   0.0000000E+00   0.0000000E+00   0.0000000E+00   0.0000000E+00   0.0000000E+00   0.0000000E+00   0.0000000E+00   0.0000000E+00   0.0000000E+00   0.0000000E+00   0.0000000E+00   0.0000000E+00   0.0000000E+00   0.0000000E+00   0.0000000E+00   0.0000000E+00   0.0000000E+00   0.0000000E+00   0.0000000E+00   0.0000000E+00   0.0000000E+00   0.0000000E+00   0.0000000E+00   0.0000000E+00   0.0000000E+00   0.0000000E+00   0.0000000E+00   0.0000000E+00   0.0000000E+00   0.0000000E+00   0.0000000E+00   0.0000000E+00   0.0000000E+00   0.0000000E+00   0.0000000E+00   0.0000000E+00   0.0000000E+00   0.0000000E+00   0.0000000E+00   0.0000000E+00   0.0000000E+00   0.0000000E+00   0.0000000E+00   0.0000000E+00   0.0000000E+00   0.0000000E+00   0.0000000E+00   0.0000000E+00   0.0000000E+00   0.0000000E+00   0.0000000E+00   0.0000000E+00   0.0000000E+00   0.0000000E+00   0.0000000E+00   0.0000000E+00   0.0000000E+00   0.0000000E+00   0.0000000E+00   0.0000000E+00   0.0000000E+00   0.0000000E+00   0.0000000E+00   0.0000000E+00   0.0000000E+00   0.0000000E+00   0.0000000E+00   0.0000000E+00   0.0000000E+00   0.0000000E+00   0.0000000E+00   0.0000000E+00   0.0000000E+00   0.0000000E+00   0.0000000E+00   0.0000000E+00   0.0000000E+00   0.0000000E+00   0.0000000E+00   0.0000000E+00   0.0000000E+00   0.0000000E+00   0.0000000E+00   0.0000000E+00   0.0000000E+00   0.0000000E+00   0.0000000E+00   0.0000000E+00   0.0000000E+00   0.0000000E+00   0.0000000E+00   0.0000000E+00   0.0000000E+00   0.0000000E+00   0.0000000E+00   0.0000000E+00   0.0000000E+00   0.0000000E+00   0.0000000E+00   0.0000000E+00   0.0000000E+00   0.0000000E+00   0.0000000E+00   0.0000000E+00   0.0000000E+00   0.0000000E+00   0.0000000E+00   0.0000000E+00   0.0000000E+00   0.0000000E+00   0.0000000E+00   0.0000000E+00   0.0000000E+00   0.0000000E+00   0.0000000E+00   0.0000000E+00   0.0000000E+00   0.0000000E+00   0.0000000E+00   0.0000000E+00   0.0000000E+00   0.0000000E+00   0.0000000E+00   0.0000000E+00   0.0000000E+00   0.0000000E+00   0.0000000E+00   0.0000000E+00   0.0000000E+00   0.0000000E+00   0.0000000E+00   0.0000000E+00   0.0000000E+00   0.0000000E+00   0.0000000E+00   0.0000000E+00   0.0000000E+00   0.0000000E+00   0.0000000E+00   0.0000000E+00   0.0000000E+00   0.0000000E+00   0.0000000E+00   0.0000000E+00   0.0000000E+00   0.0000000E+00   0.0000000E+00   0.0000000E+00   0.0000000E+00   0.0000000E+00   0.0000000E+00   0.0000000E+00   0.0000000E+00   0.0000000E+00   0.0000000E+00   0.0000000E+00   0.0000000E+00   0.0000000E+00   0.0000000E+00   0.0000000E+00   0.0000000E+00   0.0000000E+00   0.0000000E+00   0.0000000E+00   0.0000000E+00   0.0000000E+00   0.0000000E+00   0.0000000E+00   0.0000000E+00   0.0000000E+00   0.0000000E+00   0.0000000E+00   0.0000000E+00   0.0000000E+00   0.0000000E+00   0.0000000E+00   0.0000000E+00   0.0000000E+00   0.0000000E+00   0.0000000E+00   0.0000000E+00   0.0000000E+00   0.0000000E+00   0.0000000E+00   0.0000000E+00   0.0000000E+00   0.0000000E+00   0.0000000E+00   0.0000000E+00   0.0000000E+00   0.0000000E+00   0.0000000E+00   0.0000000E+00   0.0000000E+00   0.0000000E+00   0.0000000E+00   0.0000000E+00   0.0000000E+00   0.0000000E+00   0.0000000E+00   0.0000000E+00   0.0000000E+00   0.0000000E+00   0.0000000E+00   0.0000000E+00   0.0000000E+00   0.0000000E+00   0.0000000E+00   0.0000000E+00   0.0000000E+00   0.0000000E+00   0.0000000E+00   0.0000000E+00   0.0000000E+00   0.0000000E+00   0.0000000E+00   0.0000000E+00   0.0000000E+00   0.0000000E+00   0.0000000E+00   0.0000000E+00   0.0000000E+00   0.0000000E+00   0.0000000E+00   0.0000000E+00   0.0000000E+00   0.0000000E+00   0.0000000E+00   0.0000000E+00   0.0000000E+00   0.0000000E+00   0.0000000E+00   0.0000000E+00   0.0000000E+00   0.0000000E+00   0.0000000E+00   0.0000000E+00   0.0000000E+00   0.0000000E+00   0.0000000E+00   0.0000000E+00   0.0000000E+00   0.0000000E+00   0.0000000E+00   0.0000000E+00   0.0000000E+00   0.0000000E+00   0.0000000E+00   0.0000000E+00   0.0000000E+00   0.0000000E+00   0.0000000E+00   0.0000000E+00   0.0000000E+00   0.0000000E+00   0.0000000E+00   0.0000000E+00   0.0000000E+00   0.0000000E+00   0.0000000E+00   0.0000000E+00   0.0000000E+00   0.0000000E+00   0.0000000E+00   0.0000000E+00   0.0000000E+00   0.0000000E+00   0.0000000E+00   0.0000000E+00   0.0000000E+00   0.0000000E+00   0.0000000E+00   0.0000000E+00   0.0000000E+00   0.0000000E+00   0.0000000E+00   0.0000000E+00   0.0000000E+00   0.0000000E+00   0.0000000E+00   0.0000000E+00   0.0000000E+00   0.0000000E+00   0.0000000E+00   0.0000000E+00   0.0000000E+00   0.0000000E+00   0.0000000E+00   0.0000000E+00   0.0000000E+00   0.0000000E+00   0.0000000E+00   0.0000000E+00   0.0000000E+00   0.0000000E+00   0.0000000E+00   0.0000000E+00   0.0000000E+00   0.0000000E+00   0.0000000E+00   0.0000000E+00   0.0000000E+00   0.0000000E+00   0.0000000E+00   0.0000000E+00   0.0000000E+00   0.0000000E+00   0.0000000E+00   0.0000000E+00   0.0000000E+00   0.0000000E+00   0.0000000E+00   0.0000000E+00   0.0000000E+00   0.0000000E+00   0.0000000E+00   0.0000000E+00   0.0000000E+00   0.0000000E+00   0.0000000E+00   0.0000000E+00   0.0000000E+00   0.0000000E+00   0.0000000E+00   0.0000000E+00   0.0000000E+00   0.0000000E+00   0.0000000E+00   0.0000000E+00   0.0000000E+00   0.0000000E+00   0.0000000E+00   0.0000000E+00   0.0000000E+00   0.0000000E+00   0.0000000E+00   0.0000000E+00   0.0000000E+00   0.0000000E+00   0.0000000E+00   0.0000000E+00   0.0000000E+00   0.0000000E+00   0.0000000E+00   0.0000000E+00   0.0000000E+00   0.0000000E+00   0.0000000E+00   0.0000000E+00   0.0000000E+00   0.0000000E+00   0.0000000E+00   0.0000000E+00   0.0000000E+00   0.0000000E+00   0.0000000E+00   0.0000000E+00   0.0000000E+00   0.0000000E+00   0.0000000E+00   0.0000000E+00   0.0000000E+00   0.0000000E+00   0.0000000E+00   0.0000000E+00   0.0000000E+00   0.0000000E+00   0.0000000E+00   0.0000000E+00   0.0000000E+00   0.0000000E+00   0.0000000E+00   0.0000000E+00   0.0000000E+00   0.0000000E+00   0.0000000E+00   0.0000000E+00   0.0000000E+00   0.0000000E+00   0.0000000E+00   0.0000000E+00   0.0000000E+00   0.0000000E+00   0.0000000E+00   0.0000000E+00   0.0000000E+00   0.0000000E+00   0.0000000E+00   0.0000000E+00   0.0000000E+00   0.0000000E+00   0.0000000E+00   0.0000000E+00   0.0000000E+00   0.0000000E+00   0.0000000E+00   0.0000000E+00   0.0000000E+00   0.0000000E+00   0.0000000E+00   0.0000000E+00   0.0000000E+00   0.0000000E+00   0.0000000E+00   0.0000000E+00   0.0000000E+00   0.0000000E+00   0.0000000E+00   0.0000000E+00   0.0000000E+00   0.0000000E+00   0.0000000E+00   0.0000000E+00   0.0000000E+00   0.0000000E+00   0.0000000E+00   0.0000000E+00   0.0000000E+00   0.0000000E+00   0.0000000E+00   0.0000000E+00   0.0000000E+00   0.0000000E+00   0.0000000E+00   0.0000000E+00   0.0000000E+00   0.0000000E+00   0.0000000E+00   0.0000000E+00   0.0000000E+00   0.0000000E+00   0.0000000E+00   0.0000000E+00   0.0000000E+00   0.0000000E+00   0.0000000E+00   0.0000000E+00   0.0000000E+00   0.0000000E+00   0.0000000E+00   0.0000000E+00   0.0000000E+00   0.0000000E+00   0.0000000E+00   0.0000000E+00   0.0000000E+00   0.0000000E+00   0.0000000E+00   0.0000000E+00   0.0000000E+00   0.0000000E+00   0.0000000E+00   0.0000000E+00   0.0000000E+00   0.0000000E+00   0.0000000E+00   0.0000000E+00   0.0000000E+00   0.0000000E+00   0.0000000E+00   0.0000000E+00   0.0000000E+00   0.0000000E+00   0.0000000E+00   0.0000000E+00   0.0000000E+00   0.0000000E+00   0.0000000E+00   0.0000000E+00   0.0000000E+00   0.0000000E+00   0.0000000E+00   0.0000000E+00   0.0000000E+00   0.0000000E+00   0.0000000E+00   0.0000000E+00   0.0000000E+00   0.0000000E+00   0.0000000E+00   0.0000000E+00   0.0000000E+00   0.0000000E+00   0.0000000E+00   0.0000000E+00   0.0000000E+00   0.0000000E+00   0.0000000E+00   0.0000000E+00   0.0000000E+00   0.0000000E+00   0.0000000E+00   0.0000000E+00   0.0000000E+00   0.0000000E+00   0.0000000E+00   0.0000000E+00   0.0000000E+00   0.0000000E+00   0.0000000E+00   0.0000000E+00   0.0000000E+00   0.0000000E+00   0.0000000E+00   0.0000000E+00   0.0000000E+00   0.0000000E+00   0.0000000E+00   0.0000000E+00   0.0000000E+00   0.0000000E+00   0.0000000E+00   0.0000000E+00   0.0000000E+00   0.0000000E+00   0.0000000E+00   0.0000000E+00   0.0000000E+00   0.0000000E+00   0.0000000E+00   0.0000000E+00   0.0000000E+00   0.0000000E+00   0.0000000E+00   0.0000000E+00   0.0000000E+00   0.0000000E+00   0.0000000E+00   0.0000000E+00   0.0000000E+00   0.0000000E+00   0.0000000E+00   0.0000000E+00   0.0000000E+00   0.0000000E+00   0.0000000E+00   0.0000000E+00   0.0000000E+00   0.0000000E+00   0.0000000E+00   0.0000000E+00   0.0000000E+00   0.0000000E+00   0.0000000E+00   0.0000000E+00   0.0000000E+00   0.0000000E+00   0.0000000E+00   0.0000000E+00   0.0000000E+00   0.0000000E+00   0.0000000E+00   0.0000000E+00   0.0000000E+00   0.0000000E+00   0.0000000E+00   0.0000000E+00   0.0000000E+00   0.0000000E+00   0.0000000E+00   0.0000000E+00   0.0000000E+00   0.0000000E+00   0.0000000E+00   0.0000000E+00   0.0000000E+00   0.0000000E+00   0.0000000E+00   0.0000000E+00   0.0000000E+00   0.0000000E+00   0.0000000E+00   0.0000000E+00   0.0000000E+00   0.0000000E+00   0.0000000E+00   0.0000000E+00   0.0000000E+00   0.0000000E+00   0.0000000E+00   0.0000000E+00   0.0000000E+00   0.0000000E+00   0.0000000E+00   0.0000000E+00   0.0000000E+00   0.0000000E+00   0.0000000E+00   0.0000000E+00   0.0000000E+00   0.0000000E+00   0.0000000E+00   0.0000000E+00   0.0000000E+00   0.0000000E+00   0.0000000E+00   0.0000000E+00   0.0000000E+00   0.0000000E+00   0.0000000E+00   0.0000000E+00   0.0000000E+00   0.0000000E+00   0.0000000E+00   0.0000000E+00   0.0000000E+00   0.0000000E+00   0.0000000E+00   0.0000000E+00   0.0000000E+00   0.0000000E+00   0.0000000E+00   0.0000000E+00   0.0000000E+00   0.0000000E+00   0.0000000E+00   0.0000000E+00   0.0000000E+00   0.0000000E+00   0.0000000E+00   0.0000000E+00   0.0000000E+00   0.0000000E+00   0.0000000E+00   0.0000000E+00   0.0000000E+00   0.0000000E+00   0.0000000E+00   0.0000000E+00   0.0000000E+00   0.0000000E+00   0.0000000E+00   0.0000000E+00   0.0000000E+00   0.0000000E+00   0.0000000E+00   0.0000000E+00   0.0000000E+00   0.0000000E+00   0.0000000E+00   0.0000000E+00   0.0000000E+00   0.0000000E+00   0.0000000E+00   0.0000000E+00   0.0000000E+00   0.0000000E+00   0.0000000E+00   0.0000000E+00   0.0000000E+00   0.0000000E+00   0.0000000E+00   0.0000000E+00   0.0000000E+00   0.0000000E+00   0.0000000E+00   0.0000000E+00   0.0000000E+00   0.0000000E+00   0.0000000E+00   0.0000000E+00   0.0000000E+00   0.0000000E+00   0.0000000E+00   0.0000000E+00   0.0000000E+00   0.0000000E+00   0.0000000E+00   0.0000000E+00   0.0000000E+00   0.0000000E+00   0.0000000E+00   0.0000000E+00   0.0000000E+00   0.0000000E+00   0.0000000E+00   0.0000000E+00   0.0000000E+00   0.0000000E+00   0.0000000E+00   0.0000000E+00   0.0000000E+00   0.0000000E+00   0.0000000E+00   0.0000000E+00   0.0000000E+00   0.0000000E+00   0.0000000E+00   0.0000000E+00   0.0000000E+00   0.0000000E+00   0.0000000E+00   0.0000000E+00   0.0000000E+00   0.0000000E+00   0.0000000E+00   0.0000000E+00   0.0000000E+00   0.0000000E+00   0.0000000E+00   0.0000000E+00   0.0000000E+00   0.0000000E+00   0.0000000E+00   0.0000000E+00   0.0000000E+00   0.0000000E+00   0.0000000E+00   0.0000000E+00   0.0000000E+00   0.0000000E+00   0.0000000E+00   0.0000000E+00   0.0000000E+00   0.0000000E+00   0.0000000E+00   0.0000000E+00   0.0000000E+00   0.0000000E+00   0.0000000E+00   0.0000000E+00   0.0000000E+00   0.0000000E+00   0.0000000E+00   0.0000000E+00   0.0000000E+00   0.0000000E+00   0.0000000E+00   0.0000000E+00   0.0000000E+00   0.0000000E+00   0.0000000E+00   0.0000000E+00   0.0000000E+00   0.0000000E+00   0.0000000E+00   0.0000000E+00   0.0000000E+00   0.0000000E+00   0.0000000E+00   0.0000000E+00   0.0000000E+00   0.0000000E+00   0.0000000E+00   0.0000000E+00   0.0000000E+00   0.0000000E+00   0.0000000E+00   0.0000000E+00   0.0000000E+00   0.0000000E+00   0.0000000E+00   0.0000000E+00   0.0000000E+00   0.0000000E+00   0.0000000E+00   0.0000000E+00   0.0000000E+00   0.0000000E+00   0.0000000E+00   0.0000000E+00   0.0000000E+00   0.0000000E+00   0.0000000E+00   0.0000000E+00   0.0000000E+00   0.0000000E+00   0.0000000E+00   0.0000000E+00   0.0000000E+00   0.0000000E+00   0.0000000E+00   0.0000000E+00   0.0000000E+00   0.0000000E+00   0.0000000E+00   0.0000000E+00   0.0000000E+00   0.0000000E+00   0.0000000E+00   0.0000000E+00   0.0000000E+00   0.0000000E+00   0.0000000E+00   0.0000000E+00   0.0000000E+00   0.0000000E+00   0.0000000E+00   0.0000000E+00   0.0000000E+00   0.0000000E+00   0.0000000E+00   0.0000000E+00   0.0000000E+00   0.0000000E+00   0.0000000E+00   0.0000000E+00   0.0000000E+00   0.0000000E+00   0.0000000E+00   0.0000000E+00   0.0000000E+00   0.0000000E+00   0.0000000E+00   0.0000000E+00   0.0000000E+00   0.0000000E+00   0.0000000E+00   0.0000000E+00   0.0000000E+00   0.0000000E+00   0.0000000E+00   0.0000000E+00   0.0000000E+00   0.0000000E+00   0.0000000E+00   0.0000000E+00   0.0000000E+00   0.0000000E+00   0.0000000E+00   0.0000000E+00   0.0000000E+00   0.0000000E+00   0.0000000E+00   0.0000000E+00   0.0000000E+00   0.0000000E+00   0.0000000E+00   0.0000000E+00   0.0000000E+00   0.0000000E+00   0.0000000E+00   0.0000000E+00   0.0000000E+00   0.0000000E+00   0.0000000E+00   0.0000000E+00   0.0000000E+00   0.0000000E+00   0.0000000E+00   0.0000000E+00   0.0000000E+00   0.0000000E+00   0.0000000E+00   0.0000000E+00   0.0000000E+00   0.0000000E+00   0.0000000E+00   0.0000000E+00   0.0000000E+00   0.0000000E+00   0.0000000E+00   0.0000000E+00   0.0000000E+00   0.0000000E+00   0.0000000E+00   0.0000000E+00   0.0000000E+00   0.0000000E+00   0.0000000E+00   0.0000000E+00   0.0000000E+00   0.0000000E+00   0.0000000E+00   0.0000000E+00   0.0000000E+00   0.0000000E+00   0.0000000E+00   0.0000000E+00   0.0000000E+00   0.0000000E+00   0.0000000E+00   0.0000000E+00   0.0000000E+00   0.0000000E+00   0.0000000E+00   0.0000000E+00   0.0000000E+00   0.0000000E+00   0.0000000E+00   0.0000000E+00   0.0000000E+00   0.0000000E+00   0.0000000E+00   0.0000000E+00   0.0000000E+00   0.0000000E+00   0.0000000E+00   0.0000000E+00   0.0000000E+00   0.0000000E+00   0.0000000E+00   0.0000000E+00   0.0000000E+00   0.0000000E+00   0.0000000E+00   0.0000000E+00   0.0000000E+00   0.0000000E+00   0.0000000E+00   0.0000000E+00   0.0000000E+00   0.0000000E+00   0.0000000E+00   0.0000000E+00   0.0000000E+00   0.0000000E+00   0.0000000E+00   0.0000000E+00   0.0000000E+00   0.0000000E+00   0.0000000E+00   0.0000000E+00   0.0000000E+00   0.0000000E+00   0.0000000E+00   0.0000000E+00   0.0000000E+00   0.0000000E+00   0.0000000E+00   0.0000000E+00   0.0000000E+00   0.0000000E+00   0.0000000E+00   0.0000000E+00   0.0000000E+00   0.0000000E+00   0.0000000E+00   0.0000000E+00   0.0000000E+00   0.0000000E+00   0.0000000E+00   0.0000000E+00   0.0000000E+00   0.0000000E+00   0.0000000E+00   0.0000000E+00   0.0000000E+00   0.0000000E+00   0.0000000E+00   0.0000000E+00   0.0000000E+00   0.0000000E+00   0.0000000E+00   0.0000000E+00   0.0000000E+00   0.0000000E+00   0.0000000E+00   0.0000000E+00   0.0000000E+00   0.0000000E+00   0.0000000E+00   0.0000000E+00   0.0000000E+00   0.0000000E+00   0.0000000E+00   0.0000000E+00   0.0000000E+00   0.0000000E+00   0.0000000E+00   0.0000000E+00   0.0000000E+00   0.0000000E+00   0.0000000E+00   0.0000000E+00   0.0000000E+00   0.0000000E+00   0.0000000E+00   0.0000000E+00   0.0000000E+00   0.0000000E+00   0.0000000E+00   0.0000000E+00   0.0000000E+00   0.0000000E+00   0.0000000E+00   0.0000000E+00   0.0000000E+00   0.0000000E+00   0.0000000E+00   0.0000000E+00   0.0000000E+00   0.0000000E+00   0.0000000E+00   0.0000000E+00   0.0000000E+00   0.0000000E+00   0.0000000E+00   0.0000000E+00   0.0000000E+00   0.0000000E+00   0.0000000E+00   0.0000000E+00   0.0000000E+00   0.0000000E+00   0.0000000E+00   0.0000000E+00   0.0000000E+00   0.0000000E+00   0.0000000E+00   0.0000000E+00   0.0000000E+00   0.0000000E+00   0.0000000E+00   0.0000000E+00   0.0000000E+00   0.0000000E+00   0.0000000E+00   0.0000000E+00   0.0000000E+00   0.0000000E+00   0.0000000E+00   0.0000000E+00   0.0000000E+00   0.0000000E+00   0.0000000E+00   0.0000000E+00   0.0000000E+00   0.0000000E+00   0.0000000E+00   0.0000000E+00   0.0000000E+00   0.0000000E+00   0.0000000E+00   0.0000000E+00   0.0000000E+00   0.0000000E+00   0.0000000E+00   0.0000000E+00   0.0000000E+00   0.0000000E+00   0.0000000E+00   0.0000000E+00   0.0000000E+00   0.0000000E+00   0.0000000E+00   0.0000000E+00   0.0000000E+00   0.0000000E+00   0.0000000E+00   0.0000000E+00   0.0000000E+00   0.0000000E+00   0.0000000E+00   0.0000000E+00   0.0000000E+00   0.0000000E+00   0.0000000E+00   0.0000000E+00   0.0000000E+00   0.0000000E+00   0.0000000E+00   0.0000000E+00   0.0000000E+00   0.0000000E+00   0.0000000E+00   0.0000000E+00   0.0000000E+00   0.0000000E+00   0.0000000E+00   0.0000000E+00   0.0000000E+00   0.0000000E+00   0.0000000E+00   0.0000000E+00   0.0000000E+00   0.0000000E+00   0.0000000E+00   0.0000000E+00   0.0000000E+00   0.0000000E+00   0.0000000E+00   0.0000000E+00   0.0000000E+00   0.0000000E+00   0.0000000E+00   0.0000000E+00   0.0000000E+00   0.0000000E+00   0.0000000E+00   0.0000000E+00   0.0000000E+00   0.0000000E+00   0.0000000E+00   0.0000000E+00   0.0000000E+00   0.0000000E+00   0.0000000E+00   0.0000000E+00   0.0000000E+00   0.0000000E+00   0.0000000E+00   0.0000000E+00   0.0000000E+00   0.0000000E+00   0.0000000E+00   0.0000000E+00   0.0000000E+00   0.0000000E+00   0.0000000E+00   0.0000000E+00   0.0000000E+00   0.0000000E+00   0.0000000E+00   0.0000000E+00   0.0000000E+00   0.0000000E+00   0.0000000E+00   0.0000000E+00   0.0000000E+00   0.0000000E+00   0.0000000E+00   0.0000000E+00   0.0000000E+00   0.0000000E+00   0.0000000E+00   0.0000000E+00   0.0000000E+00   0.0000000E+00   0.0000000E+00   0.0000000E+00   0.0000000E+00   0.0000000E+00   0.0000000E+00   0.0000000E+00   0.0000000E+00   0.0000000E+00   0.0000000E+00   0.0000000E+00   0.0000000E+00   0.0000000E+00   0.0000000E+00   0.0000000E+00   0.0000000E+00   0.0000000E+00   0.0000000E+00   0.0000000E+00   0.0000000E+00   0.0000000E+00   0.0000000E+00   0.0000000E+00   0.0000000E+00   0.0000000E+00   0.0000000E+00   0.0000000E+00   0.0000000E+00   0.0000000E+00   0.0000000E+00   0.0000000E+00   0.0000000E+00   0.0000000E+00   0.0000000E+00   0.0000000E+00   0.0000000E+00   0.0000000E+00   0.0000000E+00   0.0000000E+00   0.0000000E+00   0.0000000E+00   0.0000000E+00   0.0000000E+00   0.0000000E+00   0.0000000E+00   0.0000000E+00   0.0000000E+00   0.0000000E+00   0.0000000E+00   0.0000000E+00   0.0000000E+00   0.0000000E+00   0.0000000E+00   0.0000000E+00   0.0000000E+00   0.0000000E+00   0.0000000E+00   0.0000000E+00   0.0000000E+00   0.0000000E+00   0.0000000E+00   0.0000000E+00   0.0000000E+00   0.0000000E+00   0.0000000E+00   0.0000000E+00   0.0000000E+00   0.0000000E+00   0.0000000E+00   0.0000000E+00   0.0000000E+00   0.0000000E+00   0.0000000E+00   0.0000000E+00   0.0000000E+00   0.0000000E+00   0.0000000E+00   0.0000000E+00   0.0000000E+00   0.0000000E+00   0.0000000E+00   0.0000000E+00   0.0000000E+00   0.0000000E+00   0.0000000E+00   0.0000000E+00   0.0000000E+00   0.0000000E+00   0.0000000E+00   0.0000000E+00   0.0000000E+00   0.0000000E+00   0.0000000E+00   0.0000000E+00   0.0000000E+00   0.0000000E+00   0.0000000E+00   0.0000000E+00   0.0000000E+00   0.0000000E+00   0.0000000E+00   0.0000000E+00   0.0000000E+00   0.0000000E+00   0.0000000E+00   0.0000000E+00   0.0000000E+00   0.0000000E+00   0.0000000E+00   0.0000000E+00   0.0000000E+00   0.0000000E+00   0.0000000E+00   0.0000000E+00   0.0000000E+00   0.0000000E+00   0.0000000E+00   0.0000000E+00   0.0000000E+00   0.0000000E+00   0.0000000E+00   0.0000000E+00   0.0000000E+00   0.0000000E+00   0.0000000E+00   0.0000000E+00   0.0000000E+00   0.0000000E+00   0.0000000E+00   0.0000000E+00   0.0000000E+00   0.0000000E+00   0.0000000E+00   0.0000000E+00   0.0000000E+00   0.0000000E+00   0.0000000E+00   0.0000000E+00   0.0000000E+00   0.0000000E+00   0.0000000E+00   0.0000000E+00   0.0000000E+00   0.0000000E+00   0.0000000E+00   0.0000000E+00   0.0000000E+00   0.0000000E+00   0.0000000E+00   0.0000000E+00   0.0000000E+00   0.0000000E+00   0.0000000E+00   0.0000000E+00   0.0000000E+00   0.0000000E+00   0.0000000E+00   0.0000000E+00   0.0000000E+00   0.0000000E+00   0.0000000E+00   0.0000000E+00   0.0000000E+00   0.0000000E+00   0.0000000E+00   0.0000000E+00   0.0000000E+00   0.0000000E+00   0.0000000E+00   0.0000000E+00   0.0000000E+00   0.0000000E+00   0.0000000E+00   0.0000000E+00   0.0000000E+00   0.0000000E+00   0.0000000E+00   0.0000000E+00   0.0000000E+00   0.0000000E+00   0.0000000E+00   0.0000000E+00   0.0000000E+00   0.0000000E+00   0.0000000E+00   0.0000000E+00   0.0000000E+00   0.0000000E+00   0.0000000E+00   0.0000000E+00   0.0000000E+00   0.0000000E+00   0.0000000E+00   0.0000000E+00   0.0000000E+00   0.0000000E+00   0.0000000E+00   0.0000000E+00   0.0000000E+00   0.0000000E+00   0.0000000E+00   0.0000000E+00   0.0000000E+00   0.0000000E+00   0.0000000E+00   0.0000000E+00   0.0000000E+00   0.0000000E+00   0.0000000E+00   0.0000000E+00   0.0000000E+00   0.0000000E+00   0.0000000E+00   0.0000000E+00   0.0000000E+00   0.0000000E+00   0.0000000E+00   0.0000000E+00   0.0000000E+00   0.0000000E+00   0.0000000E+00   0.0000000E+00   0.0000000E+00   0.0000000E+00   0.0000000E+00   0.0000000E+00   0.0000000E+00   0.0000000E+00   0.0000000E+00   0.0000000E+00   0.0000000E+00   0.0000000E+00   0.0000000E+00   0.0000000E+00   0.0000000E+00   0.0000000E+00   0.0000000E+00   0.0000000E+00   0.0000000E+00   0.0000000E+00   0.0000000E+00   0.0000000E+00   0.0000000E+00   0.0000000E+00   0.0000000E+00   0.0000000E+00   0.0000000E+00   0.0000000E+00   0.0000000E+00   0.0000000E+00   0.0000000E+00   0.0000000E+00   0.0000000E+00   0.0000000E+00   0.0000000E+00   0.0000000E+00   0.0000000E+00   0.0000000E+00   0.0000000E+00   0.0000000E+00   0.0000000E+00   0.0000000E+00   0.0000000E+00   0.0000000E+00   0.0000000E+00   0.0000000E+00   0.0000000E+00   0.0000000E+00   0.0000000E+00   0.0000000E+00   0.0000000E+00   0.0000000E+00   0.0000000E+00   0.0000000E+00   0.0000000E+00   0.0000000E+00   0.0000000E+00   0.0000000E+00   0.0000000E+00   0.0000000E+00   0.0000000E+00   0.0000000E+00   0.0000000E+00   0.0000000E+00   0.0000000E+00   0.0000000E+00   0.0000000E+00   0.0000000E+00   0.0000000E+00   0.0000000E+00   0.0000000E+00   0.0000000E+00   0.0000000E+00   0.0000000E+00   0.0000000E+00   0.0000000E+00   0.0000000E+00   0.0000000E+00   0.0000000E+00   0.0000000E+00   0.0000000E+00   0.0000000E+00   0.0000000E+00   0.0000000E+00   0.0000000E+00   0.0000000E+00   0.0000000E+00   0.0000000E+00   0.0000000E+00   0.0000000E+00   0.0000000E+00   0.0000000E+00   0.0000000E+00   0.0000000E+00   0.0000000E+00   0.0000000E+00   0.0000000E+00   0.0000000E+00   0.0000000E+00   0.0000000E+00   0.0000000E+00   0.0000000E+00   0.0000000E+00   0.0000000E+00   0.0000000E+00   0.0000000E+00   0.0000000E+00   0.0000000E+00   0.0000000E+00   0.0000000E+00   0.0000000E+00   0.0000000E+00   0.0000000E+00   0.0000000E+00   0.0000000E+00   0.0000000E+00   0.0000000E+00   0.0000000E+00   0.0000000E+00   0.0000000E+00   0.0000000E+00   0.0000000E+00   0.0000000E+00   0.0000000E+00   0.0000000E+00   0.0000000E+00   0.0000000E+00   0.0000000E+00   0.0000000E+00   0.0000000E+00   0.0000000E+00   0.0000000E+00   0.0000000E+00   0.0000000E+00   0.0000000E+00   0.0000000E+00   0.0000000E+00   0.0000000E+00   0.0000000E+00   0.0000000E+00   0.0000000E+00   0.0000000E+00   0.0000000E+00   0.0000000E+00   0.0000000E+00   0.0000000E+00   0.0000000E+00   0.0000000E+00   0.0000000E+00   0.0000000E+00   0.0000000E+00   0.0000000E+00   0.0000000E+00   0.0000000E+00   0.0000000E+00   0.0000000E+00   0.0000000E+00   0.0000000E+00   0.0000000E+00   0.0000000E+00   0.0000000E+00   0.0000000E+00   0.0000000E+00   0.0000000E+00   0.0000000E+00   0.0000000E+00   0.0000000E+00   0.0000000E+00   0.0000000E+00   0.0000000E+00   0.0000000E+00   0.0000000E+00   0.0000000E+00   0.0000000E+00   0.0000000E+00   0.0000000E+00   0.0000000E+00   0.0000000E+00   0.0000000E+00   0.0000000E+00   0.0000000E+00   0.0000000E+00   0.0000000E+00   0.0000000E+00   0.0000000E+00   0.0000000E+00   0.0000000E+00   0.0000000E+00   0.0000000E+00   0.0000000E+00   0.0000000E+00   0.0000000E+00   0.0000000E+00   0.0000000E+00   0.0000000E+00   0.0000000E+00   0.0000000E+00   0.0000000E+00   0.0000000E+00   0.0000000E+00   0.0000000E+00   0.0000000E+00   0.0000000E+00   0.0000000E+00   0.0000000E+00   0.0000000E+00   0.0000000E+00   0.0000000E+00   0.0000000E+00   0.0000000E+00   0.0000000E+00   0.0000000E+00   0.0000000E+00   0.0000000E+00   0.0000000E+00   0.0000000E+00   0.0000000E+00   0.0000000E+00   0.0000000E+00   0.0000000E+00   0.0000000E+00   0.0000000E+00   0.0000000E+00   0.0000000E+00   0.0000000E+00   0.0000000E+00   0.0000000E+00   0.0000000E+00   0.0000000E+00   0.0000000E+00   0.0000000E+00   0.0000000E+00   0.0000000E+00   0.0000000E+00   0.0000000E+00   0.0000000E+00   0.0000000E+00   0.0000000E+00   0.0000000E+00   0.0000000E+00   0.0000000E+00   0.0000000E+00   0.0000000E+00   0.0000000E+00   0.0000000E+00   0.0000000E+00   0.0000000E+00   0.0000000E+00   0.0000000E+00   0.0000000E+00   0.0000000E+00   0.0000000E+00   0.0000000E+00   0.0000000E+00   0.0000000E+00   0.0000000E+00   0.0000000E+00   0.0000000E+00   0.0000000E+00   0.0000000E+00   0.0000000E+00   0.0000000E+00   0.0000000E+00   0.0000000E+00   0.0000000E+00   0.0000000E+00   0.0000000E+00   0.0000000E+00   0.0000000E+00   0.0000000E+00   0.0000000E+00   0.0000000E+00   0.0000000E+00   0.0000000E+00   0.0000000E+00   0.0000000E+00   0.0000000E+00   0.0000000E+00   0.0000000E+00   0.0000000E+00   0.0000000E+00   0.0000000E+00   0.0000000E+00   0.0000000E+00   0.0000000E+00   0.0000000E+00   0.0000000E+00   0.0000000E+00   0.0000000E+00   0.0000000E+00   0.0000000E+00   0.0000000E+00   0.0000000E+00   0.0000000E+00   0.0000000E+00   0.0000000E+00   0.0000000E+00   0.0000000E+00   0.0000000E+00   0.0000000E+00   0.0000000E+00   0.0000000E+00   0.0000000E+00   0.0000000E+00   0.0000000E+00   0.0000000E+00   0.0000000E+00   0.0000000E+00   0.0000000E+00   0.0000000E+00   0.0000000E+00   0.0000000E+00   0.0000000E+00   0.0000000E+00   0.0000000E+00   0.0000000E+00   0.0000000E+00   0.0000000E+00   0.0000000E+00   0.0000000E+00   0.0000000E+00   0.0000000E+00   0.0000000E+00   0.0000000E+00   0.0000000E+00   0.0000000E+00   0.0000000E+00   0.0000000E+00   0.0000000E+00   0.0000000E+00   0.0000000E+00   0.0000000E+00   0.0000000E+00   0.0000000E+00   0.0000000E+00   0.0000000E+00   0.0000000E+00   0.0000000E+00   0.0000000E+00   0.0000000E+00   0.0000000E+00   0.0000000E+00   0.0000000E+00   0.0000000E+00   0.0000000E+00   0.0000000E+00   0.0000000E+00   0.0000000E+00   0.0000000E+00   0.0000000E+00   0.0000000E+00   0.0000000E+00   0.0000000E+00   0.0000000E+00   0.0000000E+00   0.0000000E+00   0.0000000E+00   0.0000000E+00   0.0000000E+00   0.0000000E+00   0.0000000E+00   0.0000000E+00   0.0000000E+00   0.0000000E+00   0.0000000E+00   0.0000000E+00   0.0000000E+00   0.0000000E+00   0.0000000E+00   0.0000000E+00   0.0000000E+00   0.0000000E+00   0.0000000E+00   0.0000000E+00   0.0000000E+00   0.0000000E+00   0.0000000E+00   0.0000000E+00   0.0000000E+00   0.0000000E+00   0.0000000E+00   0.0000000E+00   0.0000000E+00   0.0000000E+00   0.0000000E+00   0.0000000E+00   0.0000000E+00   0.0000000E+00   0.0000000E+00   0.0000000E+00   0.0000000E+00   0.0000000E+00   0.0000000E+00   0.0000000E+00   0.0000000E+00   0.0000000E+00   0.0000000E+00   0.0000000E+00   0.0000000E+00   0.0000000E+00   0.0000000E+00   0.0000000E+00   0.0000000E+00   0.0000000E+00   0.0000000E+00   0.0000000E+00   0.0000000E+00   0.0000000E+00   0.0000000E+00   0.0000000E+00   0.0000000E+00   0.0000000E+00   0.0000000E+00   0.0000000E+00   0.0000000E+00   0.0000000E+00   0.0000000E+00   0.0000000E+00   0.0000000E+00   0.0000000E+00   0.0000000E+00   0.0000000E+00   0.0000000E+00   0.0000000E+00   0.0000000E+00   0.0000000E+00   0.0000000E+00   0.0000000E+00   0.0000000E+00   0.0000000E+00   0.0000000E+00   0.0000000E+00   0.0000000E+00   0.0000000E+00   0.0000000E+00   0.0000000E+00   0.0000000E+00   0.0000000E+00   0.0000000E+00   0.0000000E+00   0.0000000E+00   0.0000000E+00   0.0000000E+00   0.0000000E+00   0.0000000E+00   0.0000000E+00   0.0000000E+00   0.0000000E+00   0.0000000E+00   0.0000000E+00   0.0000000E+00   0.0000000E+00   0.0000000E+00   0.0000000E+00   0.0000000E+00   0.0000000E+00   0.0000000E+00   0.0000000E+00   0.0000000E+00   0.0000000E+00   0.0000000E+00   0.0000000E+00   0.0000000E+00   0.0000000E+00   0.0000000E+00   0.0000000E+00   0.0000000E+00   0.0000000E+00   0.0000000E+00   0.0000000E+00   0.0000000E+00   0.0000000E+00   0.0000000E+00   0.0000000E+00   0.0000000E+00   0.0000000E+00   0.0000000E+00   0.0000000E+00   0.0000000E+00   0.0000000E+00   0.0000000E+00   0.0000000E+00   0.0000000E+00   0.0000000E+00   0.0000000E+00   0.0000000E+00   0.0000000E+00   0.0000000E+00   0.0000000E+00   0.0000000E+00   0.0000000E+00   0.0000000E+00   0.0000000E+00   0.0000000E+00   0.0000000E+00   0.0000000E+00   0.0000000E+00   0.0000000E+00   0.0000000E+00   0.0000000E+00   0.0000000E+00   0.0000000E+00   0.0000000E+00   0.0000000E+00   0.0000000E+00   0.0000000E+00   0.0000000E+00   0.0000000E+00   0.0000000E+00   0.0000000E+00   0.0000000E+00   0.0000000E+00   0.0000000E+00   0.0000000E+00   0.0000000E+00   0.0000000E+00   0.0000000E+00   0.0000000E+00   0.0000000E+00   0.0000000E+00   0.0000000E+00   0.0000000E+00   0.0000000E+00   0.0000000E+00   0.0000000E+00   0.0000000E+00   0.0000000E+00   0.0000000E+00   0.0000000E+00   0.0000000E+00   0.0000000E+00   0.0000000E+00   0.0000000E+00   0.0000000E+00   0.0000000E+00   0.0000000E+00   0.0000000E+00   0.0000000E+00   0.0000000E+00   0.0000000E+00   0.0000000E+00   0.0000000E+00   0.0000000E+00   0.0000000E+00   0.0000000E+00   0.0000000E+00   0.0000000E+00   0.0000000E+00   0.0000000E+00   0.0000000E+00   0.0000000E+00   0.0000000E+00   0.0000000E+00   0.0000000E+00   0.0000000E+00   0.0000000E+00   0.0000000E+00   0.0000000E+00   0.0000000E+00   0.0000000E+00   0.0000000E+00   0.0000000E+00   0.0000000E+00   0.0000000E+00   0.0000000E+00   0.0000000E+00   0.0000000E+00   0.0000000E+00   0.0000000E+00   0.0000000E+00   0.0000000E+00   0.0000000E+00   0.0000000E+00   0.0000000E+00   0.0000000E+00   0.0000000E+00   0.0000000E+00   0.0000000E+00   0.0000000E+00   0.0000000E+00   0.0000000E+00   0.0000000E+00   0.0000000E+00   0.0000000E+00   0.0000000E+00   0.0000000E+00   0.0000000E+00   0.0000000E+00   0.0000000E+00   0.0000000E+00   0.0000000E+00   0.0000000E+00   0.0000000E+00   0.0000000E+00   0.0000000E+00   0.0000000E+00   0.0000000E+00   0.0000000E+00   0.0000000E+00   0.0000000E+00   0.0000000E+00   0.0000000E+00   0.0000000E+00   0.0000000E+00   0.0000000E+00   0.0000000E+00   0.0000000E+00   0.0000000E+00   0.0000000E+00   0.0000000E+00   0.0000000E+00   0.0000000E+00   0.0000000E+00   0.0000000E+00   0.0000000E+00   0.0000000E+00   0.0000000E+00   0.0000000E+00   0.0000000E+00   0.0000000E+00   0.0000000E+00   0.0000000E+00   0.0000000E+00   0.0000000E+00   0.0000000E+00   0.0000000E+00   0.0000000E+00   0.0000000E+00   0.0000000E+00   0.0000000E+00   0.0000000E+00   0.0000000E+00   0.0000000E+00   0.0000000E+00   0.0000000E+00   0.0000000E+00   0.0000000E+00   0.0000000E+00   0.0000000E+00   0.0000000E+00   0.0000000E+00   0.0000000E+00   0.0000000E+00   0.0000000E+00   0.0000000E+00   0.0000000E+00   0.0000000E+00   0.0000000E+00   0.0000000E+00   0.0000000E+00   0.0000000E+00   0.0000000E+00   0.0000000E+00   0.0000000E+00   0.0000000E+00   0.0000000E+00   0.0000000E+00   0.0000000E+00   0.0000000E+00   0.0000000E+00   0.0000000E+00   0.0000000E+00   0.0000000E+00   0.0000000E+00   0.0000000E+00   0.0000000E+00   0.0000000E+00   0.0000000E+00   0.0000000E+00   0.0000000E+00   0.0000000E+00   0.0000000E+00   0.0000000E+00   0.0000000E+00   0.0000000E+00   0.0000000E+00   0.0000000E+00   0.0000000E+00   0.0000000E+00   0.0000000E+00   0.0000000E+00   0.0000000E+00   0.0000000E+00   0.0000000E+00   0.0000000E+00   0.0000000E+00   0.0000000E+00   0.0000000E+00   0.0000000E+00   0.0000000E+00   0.0000000E+00   0.0000000E+00   0.0000000E+00   0.0000000E+00   0.0000000E+00   0.0000000E+00   0.0000000E+00   0.0000000E+00   0.0000000E+00   0.0000000E+00   0.0000000E+00   0.0000000E+00   0.0000000E+00   0.0000000E+00   0.0000000E+00   0.0000000E+00   0.0000000E+00   0.0000000E+00   0.0000000E+00   0.0000000E+00   0.0000000E+00   0.0000000E+00   0.0000000E+00   0.0000000E+00   0.0000000E+00   0.0000000E+00   0.0000000E+00   0.0000000E+00   0.0000000E+00   0.0000000E+00   0.0000000E+00   0.0000000E+00   0.0000000E+00   0.0000000E+00   0.0000000E+00   0.0000000E+00   0.0000000E+00   0.0000000E+00   0.0000000E+00   0.0000000E+00   0.0000000E+00   0.0000000E+00   0.0000000E+00   0.0000000E+00   0.0000000E+00   0.0000000E+00   0.0000000E+00   0.0000000E+00   0.0000000E+00   0.0000000E+00   0.0000000E+00   0.0000000E+00   0.0000000E+00   0.0000000E+00   0.0000000E+00   0.0000000E+00   0.0000000E+00   0.0000000E+00   0.0000000E+00   0.0000000E+00   0.0000000E+00   0.0000000E+00   0.0000000E+00   0.0000000E+00   0.0000000E+00   0.0000000E+00   0.0000000E+00   0.0000000E+00   0.0000000E+00   0.0000000E+00   0.0000000E+00   0.0000000E+00   0.0000000E+00   0.0000000E+00   0.0000000E+00   0.0000000E+00   0.0000000E+00   0.0000000E+00   0.0000000E+00   0.0000000E+00   0.0000000E+00   0.0000000E+00   0.0000000E+00   0.0000000E+00   0.0000000E+00   0.0000000E+00   0.0000000E+00   0.0000000E+00   0.0000000E+00   0.0000000E+00   0.0000000E+00   0.0000000E+00   0.0000000E+00   0.0000000E+00   0.0000000E+00   0.0000000E+00   0.0000000E+00   0.0000000E+00   0.0000000E+00   0.0000000E+00   0.0000000E+00   0.0000000E+00   0.0000000E+00   0.0000000E+00   0.0000000E+00   0.0000000E+00   0.0000000E+00   0.0000000E+00   0.0000000E+00   0.0000000E+00   0.0000000E+00   0.0000000E+00   0.0000000E+00   0.0000000E+00   0.0000000E+00   0.0000000E+00   0.0000000E+00   0.0000000E+00   0.0000000E+00   0.0000000E+00   0.0000000E+00   0.0000000E+00   0.0000000E+00   0.0000000E+00   0.0000000E+00   0.0000000E+00   0.0000000E+00   0.0000000E+00   0.0000000E+00   0.0000000E+00   0.0000000E+00   0.0000000E+00   0.0000000E+00   0.0000000E+00   0.0000000E+00   0.0000000E+00   0.0000000E+00   0.0000000E+00   0.0000000E+00   0.0000000E+00   0.0000000E+00   0.0000000E+00   0.0000000E+00   0.0000000E+00   0.0000000E+00   0.0000000E+00   0.0000000E+00   0.0000000E+00   0.0000000E+00   0.0000000E+00   0.0000000E+00   0.0000000E+00   0.0000000E+00   0.0000000E+00   0.0000000E+00   0.0000000E+00   0.0000000E+00   0.0000000E+00   0.0000000E+00   0.0000000E+00   0.0000000E+00   0.0000000E+00   0.0000000E+00   0.0000000E+00   0.0000000E+00   0.0000000E+00   0.0000000E+00   0.0000000E+00   0.0000000E+00   0.0000000E+00   0.0000000E+00   0.0000000E+00   0.0000000E+00   0.0000000E+00   0.0000000E+00   0.0000000E+00   0.0000000E+00   0.0000000E+00   0.0000000E+00   0.0000000E+00   0.0000000E+00   0.0000000E+00   0.0000000E+00   0.0000000E+00   0.0000000E+00   0.0000000E+00   0.0000000E+00   0.0000000E+00   0.0000000E+00   0.0000000E+00   0.0000000E+00   0.0000000E+00   0.0000000E+00   0.0000000E+00   0.0000000E+00   0.0000000E+00   0.0000000E+00   0.0000000E+00   0.0000000E+00   0.0000000E+00   0.0000000E+00   0.0000000E+00   0.0000000E+00   0.0000000E+00   0.0000000E+00   0.0000000E+00   0.0000000E+00   0.0000000E+00   0.0000000E+00   0.0000000E+00   0.0000000E+00   0.0000000E+00   0.0000000E+00   0.0000000E+00   0.0000000E+00   0.0000000E+00   0.0000000E+00   0.0000000E+00   0.0000000E+00   0.0000000E+00   0.0000000E+00   0.0000000E+00   0.0000000E+00   0.0000000E+00   0.0000000E+00   0.0000000E+00   0.0000000E+00   0.0000000E+00   0.0000000E+00   0.0000000E+00   0.0000000E+00   0.0000000E+00   0.0000000E+00   0.0000000E+00   0.0000000E+00   0.0000000E+00   0.0000000E+00   0.0000000E+00   0.0000000E+00   0.0000000E+00   0.0000000E+00   0.0000000E+00   0.0000000E+00   0.0000000E+00   0.0000000E+00   0.0000000E+00   0.0000000E+00   0.0000000E+00   0.0000000E+00   0.0000000E+00   0.0000000E+00   0.0000000E+00   0.0000000E+00   0.0000000E+00   0.0000000E+00   0.0000000E+00   0.0000000E+00   0.0000000E+00   0.0000000E+00   0.0000000E+00   0.0000000E+00   0.0000000E+00   0.0000000E+00   0.0000000E+00   0.0000000E+00   0.0000000E+00   0.0000000E+00   0.0000000E+00   0.0000000E+00   0.0000000E+00   0.0000000E+00   0.0000000E+00   0.0000000E+00   0.0000000E+00   0.0000000E+00   0.0000000E+00   0.0000000E+00   0.0000000E+00   0.0000000E+00   0.0000000E+00   0.0000000E+00   0.0000000E+00   0.0000000E+00   0.0000000E+00   0.0000000E+00   0.0000000E+00   0.0000000E+00   0.0000000E+00   0.0000000E+00   0.0000000E+00   0.0000000E+00   0.0000000E+00   0.0000000E+00   0.0000000E+00   0.0000000E+00   0.0000000E+00   0.0000000E+00   0.0000000E+00   0.0000000E+00   0.0000000E+00   0.0000000E+00   0.0000000E+00   0.0000000E+00   0.0000000E+00   0.0000000E+00   0.0000000E+00   0.0000000E+00   0.0000000E+00   0.0000000E+00   0.0000000E+00   0.0000000E+00   0.0000000E+00   0.0000000E+00   0.0000000E+00   0.0000000E+00   0.0000000E+00   0.0000000E+00   0.0000000E+00   0.0000000E+00   0.0000000E+00   0.0000000E+00   0.0000000E+00   0.0000000E+00   0.0000000E+00   0.0000000E+00   0.0000000E+00   0.0000000E+00   0.0000000E+00   0.0000000E+00   0.0000000E+00   0.0000000E+00   0.0000000E+00   0.0000000E+00   0.0000000E+00   0.0000000E+00   0.0000000E+00   0.0000000E+00   0.0000000E+00   0.0000000E+00   0.0000000E+00   0.0000000E+00   0.0000000E+00   0.0000000E+00   0.0000000E+00   0.0000000E+00   0.0000000E+00   0.0000000E+00   0.0000000E+00   0.0000000E+00   0.0000000E+00   0.0000000E+00   0.0000000E+00   0.0000000E+00   0.0000000E+00   0.0000000E+00   0.0000000E+00   0.0000000E+00   0.0000000E+00   0.0000000E+00   0.0000000E+00   0.0000000E+00   0.0000000E+00   0.0000000E+00   0.0000000E+00   0.0000000E+00   0.0000000E+00   0.0000000E+00   0.0000000E+00   0.0000000E+00   0.0000000E+00   0.0000000E+00   0.0000000E+00   0.0000000E+00   0.0000000E+00   0.0000000E+00   0.0000000E+00   0.0000000E+00   0.0000000E+00   0.0000000E+00   0.0000000E+00   0.0000000E+00   0.0000000E+00   0.0000000E+00   0.0000000E+00   0.0000000E+00   0.0000000E+00   0.0000000E+00   0.0000000E+00   0.0000000E+00   0.0000000E+00   0.0000000E+00   0.0000000E+00   0.0000000E+00   0.0000000E+00   0.0000000E+00   0.0000000E+00   0.0000000E+00   0.0000000E+00   0.0000000E+00   0.0000000E+00   0.0000000E+00   0.0000000E+00   0.0000000E+00   0.0000000E+00   0.0000000E+00   0.0000000E+00   0.0000000E+00   0.0000000E+00   0.0000000E+00   0.0000000E+00   0.0000000E+00   0.0000000E+00   0.0000000E+00   0.0000000E+00   0.0000000E+00   0.0000000E+00   0.0000000E+00   0.0000000E+00   0.0000000E+00   0.0000000E+00   0.0000000E+00   0.0000000E+00   0.0000000E+00   0.0000000E+00   0.0000000E+00   0.0000000E+00   0.0000000E+00   0.0000000E+00   0.0000000E+00   0.0000000E+00   0.0000000E+00   0.0000000E+00   0.0000000E+00   0.0000000E+00   0.0000000E+00   0.0000000E+00   0.0000000E+00   0.0000000E+00   0.0000000E+00   0.0000000E+00   0.0000000E+00   0.0000000E+00   0.0000000E+00   0.0000000E+00   0.0000000E+00   0.0000000E+00   0.0000000E+00   0.0000000E+00   0.0000000E+00   0.0000000E+00   0.0000000E+00   0.0000000E+00   0.0000000E+00   0.0000000E+00   0.0000000E+00   0.0000000E+00   0.0000000E+00   0.0000000E+00   0.0000000E+00   0.0000000E+00   0.0000000E+00   0.0000000E+00   0.0000000E+00   0.0000000E+00   0.0000000E+00   0.0000000E+00   0.0000000E+00   0.0000000E+00   0.0000000E+00   0.0000000E+00   0.0000000E+00   0.0000000E+00   0.0000000E+00   0.0000000E+00   0.0000000E+00   0.0000000E+00   0.0000000E+00   0.0000000E+00   0.0000000E+00   0.0000000E+00   0.0000000E+00   0.0000000E+00   0.0000000E+00   0.0000000E+00   0.0000000E+00   0.0000000E+00   0.0000000E+00   0.0000000E+00   0.0000000E+00   0.0000000E+00   0.0000000E+00   0.0000000E+00   0.0000000E+00   0.0000000E+00   0.0000000E+00   0.0000000E+00   0.0000000E+00   0.0000000E+00   0.0000000E+00   0.0000000E+00   0.0000000E+00   0.0000000E+00   0.0000000E+00   0.0000000E+00   0.0000000E+00   0.0000000E+00   0.0000000E+00   0.0000000E+00   0.0000000E+00   0.0000000E+00   0.0000000E+00   0.0000000E+00   0.0000000E+00   0.0000000E+00   0.0000000E+00   0.0000000E+00   0.0000000E+00   0.0000000E+00   0.0000000E+00   0.0000000E+00   0.0000000E+00   0.0000000E+00   0.0000000E+00   0.0000000E+00   0.0000000E+00   0.0000000E+00   0.0000000E+00   0.0000000E+00   0.0000000E+00   0.0000000E+00   0.0000000E+00   0.0000000E+00   0.0000000E+00  -1.3914356E-03   0.0000000E+00  -5.3831615E-04  -1.6976772E-03   0.0000000E+00  -5.1911589E-04  -1.9571295E-03   0.0000000E+00  -4.7033670E-04  -2.1601568E-03   0.0000000E+00  -4.0697501E-04  -2.3095836E-03   0.0000000E+00  -3.3831899E-04  -1.3644868E-03   0.0000000E+00  -7.0447871E-04  -1.9220955E-03   0.0000000E+00  -6.5506325E-04  -2.4000860E-03   0.0000000E+00  -6.5007235E-04  -2.7869244E-03   0.0000000E+00  -6.0473435E-04  -3.0792619E-03   0.0000000E+00  -5.3370674E-04  -3.2877587E-03   0.0000000E+00  -4.4912274E-04  -1.8975129E-03   0.0000000E+00  -7.6944736E-04  -2.6660590E-03   0.0000000E+00  -7.3571602E-04  -3.3271050E-03   0.0000000E+00  -7.2034117E-04  -3.8638629E-03   0.0000000E+00  -6.7181379E-04  -4.2625051E-03   0.0000000E+00  -6.0131692E-04  -4.5417096E-03   0.0000000E+00  -5.1021768E-04  -2.5545415E-03   0.0000000E+00  -8.1009511E-04  -3.5695373E-03   0.0000000E+00  -7.6544553E-04  -4.4272984E-03   0.0000000E+00  -7.5131870E-04  -5.1173619E-03   0.0000000E+00  -7.0373452E-04  -5.6262789E-03   0.0000000E+00  -6.3145900E-04  -5.9756362E-03   0.0000000E+00  -5.3765374E-04  -3.3271592E-03   0.0000000E+00  -8.4772188E-04  -4.6171341E-03   0.0000000E+00  -7.6972437E-04  -5.6846654E-03   0.0000000E+00  -7.5091014E-04  -6.5291151E-03   0.0000000E+00  -7.0300396E-04  -7.1427878E-03   0.0000000E+00  -6.3184212E-04  -7.5558908E-03   0.0000000E+00  -5.3765887E-04  -4.2365897E-03   0.0000000E+00  -8.9630368E-04  -5.8311452E-03   0.0000000E+00  -7.5985072E-04  -7.1179266E-03   0.0000000E+00  -7.2604610E-04  -8.1154639E-03   0.0000000E+00  -6.7602645E-04  -8.8257631E-03   0.0000000E+00  -6.0984434E-04  -9.2939958E-03   0.0000000E+00  -5.1873300E-04  -5.3214547E-03   0.0000000E+00  -9.7923307E-04  -7.2535551E-03   0.0000000E+00  -7.5519766E-04  -8.7677948E-03   0.0000000E+00  -6.9203088E-04  -9.9173095E-03   0.0000000E+00  -6.3643645E-04  -1.0717927E-02   0.0000000E+00  -5.7703943E-04  -1.1232391E-02   0.0000000E+00  -4.9409311E-04  -6.6363025E-03   0.0000000E+00  -1.1240247E-03  -8.9345947E-03   0.0000000E+00  -7.8368414E-04  -1.0679916E-02   0.0000000E+00  -6.7939638E-04  -1.1986432E-02   0.0000000E+00  -6.0571235E-04  -1.2870832E-02   0.0000000E+00  -5.5748387E-04  -1.3424128E-02   0.0000000E+00  -4.8436251E-04  -8.2742777E-03   0.0000000E+00  -1.2967625E-03  -1.0925694E-02   0.0000000E+00  -8.5788005E-04  -1.2898625E-02   0.0000000E+00  -7.1724388E-04  -1.4361786E-02   0.0000000E+00  -6.2631280E-04  -1.5330361E-02   0.0000000E+00  -5.8319047E-04  -1.5913179E-02   0.0000000E+00  -5.2048528E-04  -1.0407796E-02   0.0000000E+00  -1.3372722E-03  -1.3295419E-02   0.0000000E+00  -9.4550749E-04  -1.5476330E-02   0.0000000E+00  -8.0400705E-04  -1.7078834E-02   0.0000000E+00  -7.2802411E-04  -1.8130960E-02   0.0000000E+00  -6.8997702E-04  -1.8732021E-02   0.0000000E+00  -6.3714915E-04  -1.3193751E-02   0.0000000E+00  -1.2223272E-03  -1.6157964E-02   0.0000000E+00  -1.0218651E-03  -1.8480297E-02   0.0000000E+00  -9.3332422E-04  -2.0195076E-02   0.0000000E+00  -9.1419229E-04  -2.1303503E-02   0.0000000E+00  -9.1063936E-04  -2.1909358E-02   0.0000000E+00  -8.6740870E-04  -1.6340768E-02   0.0000000E+00  -1.8264576E-03  -1.9549495E-02   0.0000000E+00  -1.3936741E-03  -2.1954853E-02   0.0000000E+00  -1.2687107E-03  -2.3757787E-02   0.0000000E+00  -1.2563214E-03  -2.4892775E-02   0.0000000E+00  -1.2707592E-03  -2.5478521E-02   0.0000000E+00  -1.2390290E-03  -2.0129930E-02   0.0000000E+00  -4.5647193E-03  -2.3530344E-02   0.0000000E+00  -3.0975523E-03  -2.6007919E-02   0.0000000E+00  -2.2990713E-03  -2.7836265E-02   0.0000000E+00  -1.9830537E-03  -2.8941035E-02   0.0000000E+00  -1.8848899E-03  -2.9478882E-02   0.0000000E+00  -1.7981757E-03  -2.5095923E-02   0.0000000E+00  -7.0788916E-03  -2.8368577E-02   0.0000000E+00  -5.3679990E-03  -3.0797429E-02   0.0000000E+00  -3.9571207E-03  -3.2510575E-02   0.0000000E+00  -3.1979007E-03  -3.3506464E-02   0.0000000E+00  -2.8489809E-03  -3.3967454E-02   0.0000000E+00  -2.5948163E-03  -3.1058557E-02   0.0000000E+00  -8.8420305E-03  -3.4053341E-02   0.0000000E+00  -7.2950884E-03  -3.6267366E-02   0.0000000E+00  -5.7629566E-03  -3.7781607E-02   0.0000000E+00  -4.7197416E-03  -3.8632706E-02   0.0000000E+00  -4.0880460E-03  -3.8996179E-02   0.0000000E+00  -3.5932958E-03  -3.7544928E-02   0.0000000E+00  -1.0317958E-02  -4.0255200E-02   0.0000000E+00  -8.9215897E-03  -4.2262975E-02   0.0000000E+00  -7.4695460E-03  -4.3605421E-02   0.0000000E+00  -6.3081477E-03  -4.4339541E-02   0.0000000E+00  -5.4421923E-03  -4.4602506E-02   0.0000000E+00  -4.7474322E-03  -4.4253517E-02   0.0000000E+00  -1.1737074E-02  -4.6803322E-02   0.0000000E+00  -1.0406842E-02  -4.8710648E-02   0.0000000E+00  -9.0332460E-03  -4.9975693E-02   0.0000000E+00  -7.8380983E-03  -5.0644506E-02   0.0000000E+00  -6.8311440E-03  -5.0827671E-02   0.0000000E+00  -5.9830924E-03  -5.1100016E-02   0.0000000E+00  -1.3213300E-02  -5.3704094E-02   0.0000000E+00  -1.1878530E-02  -5.5660769E-02   0.0000000E+00  -1.0514566E-02  -5.6939401E-02   0.0000000E+00  -9.3059270E-03  -5.7588983E-02   0.0000000E+00  -8.2162702E-03  -5.7713944E-02   0.0000000E+00  -7.2509600E-03  -5.8279503E-02   0.0000000E+00  -1.4781615E-02  -6.1117493E-02   0.0000000E+00  -1.3393905E-02  -6.3227162E-02   0.0000000E+00  -1.1982245E-02  -6.4576849E-02   0.0000000E+00  -1.0751335E-02  -6.5227576E-02   0.0000000E+00  -9.6003488E-03  -6.5308481E-02   0.0000000E+00  -8.5256090E-03  -6.6059880E-02   0.0000000E+00  -1.6453024E-02  -6.9203697E-02   0.0000000E+00  -1.4970971E-02  -7.1507469E-02   0.0000000E+00  -1.3486385E-02  -7.2950840E-02   0.0000000E+00  -1.2217291E-02  -7.3611692E-02   0.0000000E+00  -1.1001468E-02  -7.3656268E-02   0.0000000E+00  -9.8224282E-03  -7.4571207E-02   0.0000000E+00  -1.8230692E-02  -7.8043506E-02   0.0000000E+00  -1.6632058E-02  -8.0558449E-02   0.0000000E+00  -1.5063060E-02  -8.2109332E-02   0.0000000E+00  -1.3738752E-02  -8.2792260E-02   0.0000000E+00  -1.2444239E-02  -8.2809627E-02   0.0000000E+00  -1.1153175E-02  -8.3864920E-02   0.0000000E+00  -2.0132892E-02  -8.7691441E-02   0.0000000E+00  -1.8399589E-02  -9.0433449E-02   0.0000000E+00  -1.6741162E-02  -9.2105322E-02   0.0000000E+00  -1.5340918E-02  -9.2823900E-02   0.0000000E+00  -1.3947050E-02  -9.2822827E-02   0.0000000E+00  -1.2523991E-02  -9.4006032E-02   0.0000000E+00  -2.2172591E-02  -9.8210432E-02   0.0000000E+00  -2.0298449E-02  -1.0119419E-01   0.0000000E+00  -1.8539883E-02  -1.0300133E-01   0.0000000E+00  -1.7030450E-02  -1.0376899E-01   0.0000000E+00  -1.5513104E-02  -1.0375687E-01   0.0000000E+00  -1.3940331E-02  -1.0507996E-01   0.0000000E+00  -2.4381902E-02  -1.0968400E-01   0.0000000E+00  -2.2358749E-02  -1.1292060E-01   0.0000000E+00  -2.0465232E-02  -1.1487564E-01   0.0000000E+00  -1.8797720E-02  -1.1570054E-01   0.0000000E+00  -1.7138405E-02  -1.1568078E-01   0.0000000E+00  -1.5413721E-02  -1.1722814E-01   0.0000000E+00  -2.6803868E-02  -1.2223241E-01   0.0000000E+00  -2.4611682E-02  -1.2571774E-01   0.0000000E+00  -2.2509025E-02  -1.2782182E-01   0.0000000E+00  -2.0627614E-02  -1.2869990E-01   0.0000000E+00  -1.8832596E-02  -1.2866814E-01   0.0000000E+00  -1.6982285E-02  -1.3068515E-01   0.0000000E+00  -2.9492097E-02  -1.3602316E-01   0.0000000E+00  -2.7092936E-02  -1.3971227E-01   0.0000000E+00  -2.4663791E-02  -1.4193840E-01   0.0000000E+00  -2.2533111E-02  -1.4284420E-01   0.0000000E+00  -2.0655183E-02  -1.4278252E-01   0.0000000E+00  -1.8733952E-02  -1.4578138E-01   0.0000000E+00  -3.2521617E-02  -1.5124707E-01   0.0000000E+00  -2.9859314E-02  -1.5501516E-01   0.0000000E+00  -2.6963484E-02  -1.5728530E-01   0.0000000E+00  -2.4602903E-02  -1.5817153E-01   0.0000000E+00  -2.2743052E-02  -1.5804482E-01   0.0000000E+00  -2.0829545E-02  -1.6282175E-01   0.0000000E+00  -3.6004990E-02  -1.6800666E-01   0.0000000E+00  -3.3015110E-02  -1.7161120E-01   0.0000000E+00  -2.9523976E-02  -1.7378405E-01   0.0000000E+00  -2.7038271E-02  -1.7457043E-01   0.0000000E+00  -2.5348203E-02  -1.7435573E-01   0.0000000E+00  -2.3525909E-02  -1.8177520E-01   0.0000000E+00  -4.0128529E-02  -1.8608361E-01   0.0000000E+00  -3.6761429E-02  -1.8918633E-01   0.0000000E+00  -3.2616377E-02  -1.9103153E-01   0.0000000E+00  -3.0220058E-02  -1.9164856E-01   0.0000000E+00  -2.8829806E-02  -1.9135539E-01   0.0000000E+00  -2.7077999E-02  -2.0185934E-01   0.0000000E+00  -4.5216192E-02  -2.0464407E-01   0.0000000E+00  -4.1472826E-02  -2.0691431E-01   0.0000000E+00  -3.6791861E-02  -2.0826375E-01   0.0000000E+00  -3.4573227E-02  -2.0861088E-01   0.0000000E+00  -3.3402991E-02  -2.0827486E-01   0.0000000E+00  -3.1659231E-02  -2.2143976E-01   0.0000000E+00  -5.1693767E-02  -2.2231735E-01   0.0000000E+00  -4.7779929E-02  -2.2341992E-01   0.0000000E+00  -4.3062832E-02  -2.2436067E-01   0.0000000E+00  -4.0352754E-02  -2.2465554E-01   0.0000000E+00  -3.8949426E-02  -2.2429453E-01   0.0000000E+00  -3.6995653E-02  -2.3844206E-01   0.0000000E+00  -6.0373668E-02  -2.3751785E-01   0.0000000E+00  -5.6980208E-02  -2.3826072E-01   0.0000000E+00  -5.1588025E-02  -2.3896106E-01   0.0000000E+00  -4.7580816E-02  -2.3895708E-01   0.0000000E+00  -4.5521952E-02  -2.3857559E-01   0.0000000E+00  -4.2865332E-02  -2.5069648E-01   0.0000000E+00  -7.1538843E-02  -2.4963130E-01   0.0000000E+00  -6.9492280E-02  -2.5043839E-01   0.0000000E+00  -6.3885234E-02  -2.5114956E-01   0.0000000E+00  -5.7733789E-02  -2.5101292E-01   0.0000000E+00  -5.3048063E-02  -2.5034952E-01   0.0000000E+00  -4.9254593E-02  -2.5675243E-01   0.0000000E+00  -8.4241062E-02  -2.5615528E-01   0.0000000E+00  -8.4985837E-02  -2.5738904E-01   0.0000000E+00  -8.0171563E-02  -2.5818941E-01   0.0000000E+00  -7.3440351E-02  -2.5877067E-01   0.0000000E+00  -6.4346649E-02  -2.5841767E-01   0.0000000E+00  -5.7342034E-02  -2.5219777E-01   0.0000000E+00  -9.4467461E-02  -2.5554377E-01   0.0000000E+00  -9.9735834E-02  -2.5807902E-01   0.0000000E+00  -9.6716970E-02  -2.5887206E-01   0.0000000E+00  -9.2884973E-02  -2.6050669E-01   0.0000000E+00  -8.1121236E-02  -2.6094961E-01   0.0000000E+00  -7.0391916E-02  -2.1432072E-01   0.0000000E+00  -1.0468887E-01  -2.3977351E-01   0.0000000E+00  -1.1175435E-01  -2.4870166E-01   0.0000000E+00  -1.1025726E-01  -2.4889149E-01   0.0000000E+00  -1.1331889E-01  -2.5125957E-01   0.0000000E+00  -1.0527450E-01  -2.5305915E-01   0.0000000E+00  -9.2896536E-02  -1.4268410E-01   0.0000000E+00  -1.1189736E-01  -1.7009388E-01   0.0000000E+00  -1.1980305E-01  -1.9524422E-01   0.0000000E+00  -1.2110238E-01  -2.1196926E-01   0.0000000E+00  -1.2839951E-01  -2.1988806E-01   0.0000000E+00  -1.2947252E-01  -2.2307448E-01   0.0000000E+00  -1.2398303E-01  -8.5291408E-02   0.0000000E+00  -1.1571324E-01  -1.0234132E-01   0.0000000E+00  -1.2703267E-01  -1.1848691E-01   0.0000000E+00  -1.2449905E-01  -1.3135143E-01   0.0000000E+00  -1.2948716E-01  -1.3994324E-01   0.0000000E+00  -1.3092211E-01  -1.4446442E-01   0.0000000E+00  -1.2652966E-01  -4.7671780E-02   0.0000000E+00  -1.1879682E-01  -5.6596331E-02   0.0000000E+00  -1.3341127E-01  -6.5005869E-02   0.0000000E+00  -1.2611800E-01  -7.2373666E-02   0.0000000E+00  -1.2771566E-01  -7.7860661E-02   0.0000000E+00  -1.2755343E-01  -8.1425838E-02   0.0000000E+00  -1.2242559E-01  -2.3790192E-02   0.0000000E+00  -1.2117343E-01  -2.6719840E-02   0.0000000E+00  -1.3745572E-01  -2.9349618E-02   0.0000000E+00  -1.2875091E-01  -3.2057296E-02   0.0000000E+00  -1.2654428E-01  -3.4526680E-02   0.0000000E+00  -1.2425871E-01  -3.6557056E-02   0.0000000E+00  -1.1842687E-01  -4.1129608E-03   0.0000000E+00  -1.2255005E-01  -2.4012350E-03   0.0000000E+00  -1.3928062E-01  -6.9093733E-04   0.0000000E+00  -1.3122638E-01   3.6442350E-04   0.0000000E+00  -1.2715007E-01   5.1040394E-04   0.0000000E+00  -1.2325184E-01   1.9874073E-05   0.0000000E+00  -1.1597440E-01   1.8866954E-02   0.0000000E+00  -1.2282898E-01   2.4793234E-02   0.0000000E+00  -1.3929029E-01   3.0052328E-02   0.0000000E+00  -1.3268070E-01   3.4131333E-02   0.0000000E+00  -1.2930089E-01   3.6312871E-02   0.0000000E+00  -1.2426325E-01   3.6850642E-02   0.0000000E+00  -1.1504012E-01   4.7601379E-02   0.0000000E+00  -1.2190697E-01   5.7805259E-02   0.0000000E+00  -1.3754587E-01   6.6421732E-02   0.0000000E+00  -1.3220648E-01   7.2981678E-02   0.0000000E+00  -1.3035749E-01   7.6634794E-02   0.0000000E+00  -1.2509558E-01   7.7448316E-02   0.0000000E+00  -1.1468540E-01   8.0125205E-02   0.0000000E+00  -1.1996566E-01   9.4795771E-02   0.0000000E+00  -1.3462913E-01   1.0666155E-01   0.0000000E+00  -1.3002720E-01   1.1545190E-01   0.0000000E+00  -1.2952130E-01   1.2015168E-01   0.0000000E+00  -1.2466867E-01   1.2059640E-01   0.0000000E+00  -1.1387531E-01   1.1294927E-01   0.0000000E+00  -1.1755542E-01   1.3167942E-01   0.0000000E+00  -1.3081446E-01   1.4676291E-01   0.0000000E+00  -1.2667066E-01   1.5769477E-01   0.0000000E+00  -1.2686385E-01   1.6317207E-01   0.0000000E+00  -1.2246694E-01   1.6296427E-01   0.0000000E+00  -1.1182514E-01   1.4314689E-01   0.0000000E+00  -1.1492779E-01   1.6470344E-01   0.0000000E+00  -1.2626396E-01   1.8293883E-01   0.0000000E+00  -1.2264407E-01   1.9549865E-01   0.0000000E+00  -1.2239689E-01   2.0181572E-01   0.0000000E+00  -1.1793358E-01   2.0130241E-01   0.0000000E+00  -1.0814267E-01   1.6885410E-01   0.0000000E+00  -1.1204424E-01   1.9170710E-01   0.0000000E+00  -1.2142137E-01   2.1229640E-01   0.0000000E+00  -1.1756144E-01   2.2591098E-01   0.0000000E+00  -1.1609482E-01   2.3326117E-01   0.0000000E+00  -1.1115055E-01   2.3221289E-01   0.0000000E+00  -1.0286823E-01   1.8899374E-01   0.0000000E+00  -1.0891142E-01   2.1191311E-01   0.0000000E+00  -1.1629070E-01   2.3396415E-01   0.0000000E+00  -1.1139363E-01   2.4818280E-01   0.0000000E+00  -1.0844992E-01   2.5167739E-01   0.0000000E+00  -1.0445461E-01   2.4545939E-01   0.0000000E+00  -9.7170398E-02   2.0496069E-01   0.0000000E+00  -1.0516914E-01   2.2739674E-01   0.0000000E+00  -1.1085069E-01   2.4980167E-01   0.0000000E+00  -1.0474418E-01   2.6027423E-01   0.0000000E+00  -1.0202798E-01   2.5672671E-01   0.0000000E+00  -9.9136271E-02   2.4857019E-01   0.0000000E+00  -9.1480158E-02   2.1949758E-01   0.0000000E+00  -1.0014453E-01   2.4092945E-01   0.0000000E+00  -1.0473420E-01   2.6108989E-01   0.0000000E+00  -9.8050952E-02   2.6413357E-01   0.0000000E+00  -9.6619926E-02   2.5759166E-01   0.0000000E+00  -9.3282014E-02   2.4868970E-01   0.0000000E+00  -8.5785754E-02   2.3456556E-01   0.0000000E+00  -9.3852691E-02   2.5336888E-01   0.0000000E+00  -9.7791076E-02   2.6743346E-01   0.0000000E+00  -9.0946652E-02   2.6496589E-01   0.0000000E+00  -9.0079330E-02   2.5700486E-01   0.0000000E+00  -8.6862028E-02   2.4762329E-01   0.0000000E+00  -8.0458753E-02   2.5137171E-01   0.0000000E+00  -8.6259134E-02   2.6618943E-01   0.0000000E+00  -9.0182468E-02   2.7047205E-01   0.0000000E+00  -8.3224885E-02   2.6478714E-01   0.0000000E+00  -8.2950331E-02   2.5583032E-01   0.0000000E+00  -8.0563717E-02   2.4595758E-01   0.0000000E+00  -7.5471170E-02   2.7278632E-01   0.0000000E+00  -7.7988379E-02   2.7881506E-01   0.0000000E+00  -8.1162296E-02   2.7253726E-01   0.0000000E+00  -7.6141156E-02   2.6440185E-01   0.0000000E+00  -7.5847894E-02   2.5454244E-01   0.0000000E+00  -7.4120857E-02   2.4394009E-01   0.0000000E+00  -6.9865122E-02   2.9273897E-01   0.0000000E+00  -7.2488680E-02   2.8617480E-01   0.0000000E+00  -7.2856486E-02   2.7478629E-01   0.0000000E+00  -6.9234528E-02   2.6401800E-01   0.0000000E+00  -6.8823285E-02   2.5322917E-01   0.0000000E+00  -6.7449011E-02   2.4172892E-01   0.0000000E+00  -6.4011395E-02   2.9865852E-01   0.0000000E+00  -6.5821290E-02   2.8943431E-01   0.0000000E+00  -6.5267526E-02   2.7570146E-01   0.0000000E+00  -6.2058255E-02   2.6338807E-01   0.0000000E+00  -6.1456949E-02   2.5198811E-01   0.0000000E+00  -6.0749944E-02   2.3957555E-01   0.0000000E+00  -5.7655267E-02   2.8932014E-01   0.0000000E+00  -5.8099668E-02   2.7480549E-01   0.0000000E+00  -5.4424860E-02   2.6223335E-01   0.0000000E+00  -5.3215835E-02   2.5064969E-01   0.0000000E+00  -5.3272575E-02   2.3764989E-01   0.0000000E+00  -5.1167753E-02   2.8621861E-01   0.0000000E+00  -5.1741749E-02   2.7326104E-01   0.0000000E+00  -4.8049249E-02   2.6043922E-01   0.0000000E+00  -4.5240406E-02   2.4907503E-01   0.0000000E+00  -4.5452867E-02   2.3589757E-01   0.0000000E+00  -4.4281248E-02   2.7136731E-01   0.0000000E+00  -4.3426014E-02   2.5840187E-01   0.0000000E+00  -3.9295241E-02   2.4726160E-01   0.0000000E+00  -3.8443740E-02   2.3436427E-01   0.0000000E+00  -3.7853342E-02   2.6766920E-01   0.0000000E+00  -3.9722394E-02   2.5722364E-01   0.0000000E+00  -3.6054358E-02   2.4544062E-01   0.0000000E+00  -3.3120431E-02   2.3314813E-01   0.0000000E+00  -3.2387864E-02   2.5477728E-01   0.0000000E+00  -3.4359396E-02   2.4428298E-01   0.0000000E+00  -3.0620305E-02   2.3273304E-01   0.0000000E+00  -2.8827244E-02   2.4188381E-01   0.0000000E+00  -2.9816367E-02   2.3286214E-01   0.0000000E+00  -2.7631123E-02   2.3375301E-01   0.0000000E+00  -2.7116518E-02   2.2986144E-01   0.0000000E+00  -2.7080312E-02  -2.4124067E-03   0.0000000E+00  -2.7306139E-04  -2.4789930E-03   0.0000000E+00  -2.1216346E-04  -2.5168676E-03   0.0000000E+00  -1.6118909E-04  -2.5345911E-03   0.0000000E+00  -1.1867367E-04  -2.5392366E-03   0.0000000E+00  -8.4122628E-05  -2.5361311E-03   0.0000000E+00  -5.7610665E-05  -2.5298055E-03   0.0000000E+00  -3.7051064E-05  -2.5231768E-03   0.0000000E+00  -2.1888141E-05  -2.5184327E-03   0.0000000E+00  -1.0017744E-05  -3.4270654E-03   0.0000000E+00  -3.6324901E-04  -3.5123071E-03   0.0000000E+00  -2.8493788E-04  -3.5571770E-03   0.0000000E+00  -2.1878816E-04  -3.5755092E-03   0.0000000E+00  -1.6170040E-04  -3.5762175E-03   0.0000000E+00  -1.1627093E-04  -3.5673925E-03   0.0000000E+00  -8.0442936E-05  -3.5550932E-03   0.0000000E+00  -5.2667026E-05  -3.5434542E-03   0.0000000E+00  -3.1488944E-05  -3.5354071E-03   0.0000000E+00  -1.4623447E-05  -4.7215857E-03   0.0000000E+00  -4.1745655E-04  -4.8271334E-03   0.0000000E+00  -3.3088258E-04  -4.8795762E-03   0.0000000E+00  -2.5489874E-04  -4.8965635E-03   0.0000000E+00  -1.9012523E-04  -4.8912456E-03   0.0000000E+00  -1.3790779E-04  -4.8745987E-03   0.0000000E+00  -9.5967880E-05  -4.8542027E-03   0.0000000E+00  -6.3585059E-05  -4.8359246E-03   0.0000000E+00  -3.8154252E-05  -4.8234952E-03   0.0000000E+00  -1.7903896E-05  -6.1950069E-03   0.0000000E+00  -4.4084588E-04  -6.3183918E-03   0.0000000E+00  -3.5146257E-04  -6.3757938E-03   0.0000000E+00  -2.7072805E-04  -6.3887211E-03   0.0000000E+00  -2.0296444E-04  -6.3748499E-03   0.0000000E+00  -1.4713714E-04  -6.3478164E-03   0.0000000E+00  -1.0284852E-04  -6.3174916E-03   0.0000000E+00  -6.8264788E-05  -6.2911063E-03   0.0000000E+00  -4.1128347E-05  -6.2734368E-03   0.0000000E+00  -1.9275678E-05  -7.8079584E-03   0.0000000E+00  -4.4119576E-04  -7.9438109E-03   0.0000000E+00  -3.5141403E-04  -8.0009783E-03   0.0000000E+00  -2.7036795E-04  -8.0057187E-03   0.0000000E+00  -2.0307544E-04  -7.9799136E-03   0.0000000E+00  -1.4696005E-04  -7.9397494E-03   0.0000000E+00  -1.0283837E-04  -7.8974077E-03   0.0000000E+00  -6.8065019E-05  -7.8614578E-03   0.0000000E+00  -4.1063442E-05  -7.8376932E-03   0.0000000E+00  -1.9231324E-05  -9.5699048E-03   0.0000000E+00  -4.2723981E-04  -9.7110569E-03   0.0000000E+00  -3.3963288E-04  -9.7612236E-03   0.0000000E+00  -2.6203526E-04  -9.7526303E-03   0.0000000E+00  -1.9651822E-04  -9.7104963E-03   0.0000000E+00  -1.4260726E-04  -9.6540134E-03   0.0000000E+00  -9.9649878E-05  -9.5972186E-03   0.0000000E+00  -6.6179025E-05  -9.5500741E-03   0.0000000E+00  -3.9962692E-05  -9.5192315E-03   0.0000000E+00  -1.8763931E-05  -1.1523422E-02   0.0000000E+00  -4.1209208E-04  -1.1661457E-02   0.0000000E+00  -3.2994690E-04  -1.1697336E-02   0.0000000E+00  -2.5731995E-04  -1.1669277E-02   0.0000000E+00  -1.9405385E-04  -1.1605958E-02   0.0000000E+00  -1.4229983E-04  -1.1529346E-02   0.0000000E+00  -1.0033628E-04  -1.1455270E-02   0.0000000E+00  -6.7317502E-05  -1.1394953E-02   0.0000000E+00  -4.1086911E-05  -1.1355878E-02   0.0000000E+00  -1.9392792E-05  -1.3721509E-02   0.0000000E+00  -4.1349287E-04  -1.3847426E-02   0.0000000E+00  -3.3870584E-04  -1.3861313E-02   0.0000000E+00  -2.7037523E-04  -1.3807016E-02   0.0000000E+00  -2.0892337E-04  -1.3717112E-02   0.0000000E+00  -1.5669108E-04  -1.3616068E-02   0.0000000E+00  -1.1332581E-04  -1.3521464E-02   0.0000000E+00  -7.7787277E-05  -1.3445674E-02   0.0000000E+00  -4.8407990E-05  -1.3397012E-02   0.0000000E+00  -2.3160668E-05  -1.6207766E-02   0.0000000E+00  -4.5667164E-04  -1.6312214E-02   0.0000000E+00  -3.8780388E-04  -1.6296281E-02   0.0000000E+00  -3.2068623E-04  -1.6209066E-02   0.0000000E+00  -2.5664011E-04  -1.6086921E-02   0.0000000E+00  -1.9870901E-04  -1.5956830E-02   0.0000000E+00  -1.4818480E-04  -1.5838100E-02   0.0000000E+00  -1.0457351E-04  -1.5744297E-02   0.0000000E+00  -6.6566077E-05  -1.5684510E-02   0.0000000E+00  -3.2343403E-05  -1.9011887E-02   0.0000000E+00  -5.7585863E-04  -1.9085731E-02   0.0000000E+00  -5.0468097E-04  -1.9032750E-02   0.0000000E+00  -4.2992004E-04  -1.8906355E-02   0.0000000E+00  -3.5408497E-04  -1.8746419E-02   0.0000000E+00  -2.8173052E-04  -1.8582577E-02   0.0000000E+00  -2.1519072E-04  -1.8435951E-02   0.0000000E+00  -1.5519219E-04  -1.8321412E-02   0.0000000E+00  -1.0041911E-04  -1.8248858E-02   0.0000000E+00  -4.9291099E-05  -2.2162445E-02   0.0000000E+00  -8.0171035E-04  -2.2197489E-02   0.0000000E+00  -7.1581308E-04  -2.2100888E-02   0.0000000E+00  -6.1969127E-04  -2.1929681E-02   0.0000000E+00  -5.1824382E-04  -2.1726767E-02   0.0000000E+00  -4.1855089E-04  -2.1524532E-02   0.0000000E+00  -3.2434094E-04  -2.1346252E-02   0.0000000E+00  -2.3653406E-04  -2.1208158E-02   0.0000000E+00  -1.5445388E-04  -2.1121135E-02   0.0000000E+00  -7.6267221E-05  -2.5692921E-02   0.0000000E+00  -1.1587809E-03  -2.5683239E-02   0.0000000E+00  -1.0380353E-03  -2.5537111E-02   0.0000000E+00  -9.0529199E-04  -2.5315920E-02   0.0000000E+00  -7.6304807E-04  -2.5065430E-02   0.0000000E+00  -6.1954540E-04  -2.4820421E-02   0.0000000E+00  -4.8307530E-04  -2.4606708E-02   0.0000000E+00  -3.5452849E-04  -2.4442276E-02   0.0000000E+00  -2.3260512E-04  -2.4339050E-02   0.0000000E+00  -1.1528833E-04  -2.9646730E-02   0.0000000E+00  -1.6555920E-03  -2.9583557E-02   0.0000000E+00  -1.4872461E-03  -2.9383553E-02   0.0000000E+00  -1.2952829E-03  -2.9108249E-02   0.0000000E+00  -1.0920248E-03  -2.8805189E-02   0.0000000E+00  -8.9204946E-04  -2.8513292E-02   0.0000000E+00  -6.9870800E-04  -2.8260769E-02   0.0000000E+00  -5.1390036E-04  -2.8067425E-02   0.0000000E+00  -3.3744812E-04  -2.7946463E-02   0.0000000E+00  -1.6714734E-04  -3.4071207E-02   0.0000000E+00  -2.3286005E-03  -3.3948258E-02   0.0000000E+00  -2.0630360E-03  -3.3686936E-02   0.0000000E+00  -1.7936395E-03  -3.3351935E-02   0.0000000E+00  -1.5118776E-03  -3.2992426E-02   0.0000000E+00  -1.2360550E-03  -3.2649789E-02   0.0000000E+00  -9.6949068E-04  -3.2355238E-02   0.0000000E+00  -7.1509462E-04  -3.2130640E-02   0.0000000E+00  -4.7123330E-04  -3.1990539E-02   0.0000000E+00  -2.3382534E-04  -3.9019499E-02   0.0000000E+00  -3.1711098E-03  -3.8826693E-02   0.0000000E+00  -2.7781089E-03  -3.8497809E-02   0.0000000E+00  -2.3976481E-03  -3.8095966E-02   0.0000000E+00  -2.0220960E-03  -3.7675496E-02   0.0000000E+00  -1.6513779E-03  -3.7278980E-02   0.0000000E+00  -1.2973335E-03  -3.6940206E-02   0.0000000E+00  -9.5805846E-04  -3.6682788E-02   0.0000000E+00  -6.3129258E-04  -3.6522523E-02   0.0000000E+00  -3.1366400E-04  -4.4543099E-02   0.0000000E+00  -4.1530994E-03  -4.4269789E-02   0.0000000E+00  -3.6086785E-03  -4.3864410E-02   0.0000000E+00  -3.0983228E-03  -4.3390170E-02   0.0000000E+00  -2.6100182E-03  -4.2904261E-02   0.0000000E+00  -2.1330195E-03  -4.2451270E-02   0.0000000E+00  -1.6760573E-03  -4.2066514E-02   0.0000000E+00  -1.2389640E-03  -4.1775443E-02   0.0000000E+00  -8.1707281E-04  -4.1594539E-02   0.0000000E+00  -4.0600877E-04  -5.0685216E-02   0.0000000E+00  -5.2212644E-03  -5.0326645E-02   0.0000000E+00  -4.5242761E-03  -4.9837884E-02   0.0000000E+00  -3.8750605E-03  -4.9286664E-02   0.0000000E+00  -3.2599822E-03  -4.8731878E-02   0.0000000E+00  -2.6689880E-03  -4.8221327E-02   0.0000000E+00  -2.0999881E-03  -4.7790319E-02   0.0000000E+00  -1.5543652E-03  -4.7465414E-02   0.0000000E+00  -1.0260475E-03  -4.7263939E-02   0.0000000E+00  -5.1008351E-04  -5.7492331E-02   0.0000000E+00  -6.3415566E-03  -5.7045866E-02   0.0000000E+00  -5.4954295E-03  -5.6470551E-02   0.0000000E+00  -4.7082342E-03  -5.5840377E-02   0.0000000E+00  -3.9618784E-03  -5.5216953E-02   0.0000000E+00  -3.2458056E-03  -5.4648239E-02   0.0000000E+00  -2.5578414E-03  -5.4171722E-02   0.0000000E+00  -1.8942223E-03  -5.3813640E-02   0.0000000E+00  -1.2510684E-03  -5.3591974E-02   0.0000000E+00  -6.2184816E-04  -6.5010920E-02   0.0000000E+00  -7.4914489E-03  -6.4478286E-02   0.0000000E+00  -6.5113446E-03  -6.3818417E-02   0.0000000E+00  -5.5838386E-03  -6.3110150E-02   0.0000000E+00  -4.6987291E-03  -6.2418643E-02   0.0000000E+00  -3.8494025E-03  -6.1793879E-02   0.0000000E+00  -3.0353211E-03  -6.1273538E-02   0.0000000E+00  -2.2476530E-03  -6.0883556E-02   0.0000000E+00  -1.4844950E-03  -6.0642458E-02   0.0000000E+00  -7.3779270E-04  -7.3290698E-02   0.0000000E+00  -8.6682392E-03  -7.2677337E-02   0.0000000E+00  -7.5522712E-03  -7.1937248E-02   0.0000000E+00  -6.4814161E-03  -7.1154565E-02   0.0000000E+00  -5.4526534E-03  -7.0397928E-02   0.0000000E+00  -4.4615506E-03  -6.9718838E-02   0.0000000E+00  -3.5134067E-03  -6.9156796E-02   0.0000000E+00  -2.6022908E-03  -6.8737023E-02   0.0000000E+00  -1.7189921E-03  -6.8477355E-02   0.0000000E+00  -8.5411884E-04  -8.2382992E-02   0.0000000E+00  -9.8662823E-03  -8.1695169E-02   0.0000000E+00  -8.6061107E-03  -8.0879867E-02   0.0000000E+00  -7.3826066E-03  -8.0026992E-02   0.0000000E+00  -6.2016845E-03  -7.9209246E-02   0.0000000E+00  -5.0682849E-03  -7.8480050E-02   0.0000000E+00  -3.9851293E-03  -7.7877142E-02   0.0000000E+00  -2.9474529E-03  -7.7428840E-02   0.0000000E+00  -1.9454336E-03  -7.7152289E-02   0.0000000E+00  -9.6796575E-04  -9.2341915E-02   0.0000000E+00  -1.1087962E-02  -9.1585197E-02   0.0000000E+00  -9.6682403E-03  -9.0697631E-02   0.0000000E+00  -8.2813604E-03  -8.9779057E-02   0.0000000E+00  -6.9446769E-03  -8.8903487E-02   0.0000000E+00  -5.6657204E-03  -8.8125579E-02   0.0000000E+00  -4.4477764E-03  -8.7483965E-02   0.0000000E+00  -3.2850830E-03  -8.7007761E-02   0.0000000E+00  -2.1658293E-03  -8.6713776E-02   0.0000000E+00  -1.0759847E-03  -1.0322608E-01   0.0000000E+00  -1.2341451E-02  -1.0240182E-01   0.0000000E+00  -1.0748644E-02  -1.0144393E-01   0.0000000E+00  -9.1908714E-03  -1.0046002E-01   0.0000000E+00  -7.6926867E-03  -9.9527299E-02   0.0000000E+00  -6.2648444E-03  -9.8701522E-02   0.0000000E+00  -4.9108015E-03  -9.8021425E-02   0.0000000E+00  -3.6230963E-03  -9.7516745E-02   0.0000000E+00  -2.3864429E-03  -9.7205319E-02   0.0000000E+00  -1.1847047E-03  -1.1510000E-01   0.0000000E+00  -1.3653313E-02  -1.1420596E-01   0.0000000E+00  -1.1885217E-02  -1.1317494E-01   0.0000000E+00  -1.0152263E-02  -1.1212293E-01   0.0000000E+00  -8.4844064E-03  -1.1113106E-01   0.0000000E+00  -6.8992367E-03  -1.1025566E-01   0.0000000E+00  -5.4012132E-03  -1.0953543E-01   0.0000000E+00  -3.9801910E-03  -1.0899898E-01   0.0000000E+00  -2.6220735E-03  -1.0866847E-01   0.0000000E+00  -1.3012507E-03  -1.2803186E-01   0.0000000E+00  -1.5085971E-02  -1.2706281E-01   0.0000000E+00  -1.3157421E-02  -1.2595274E-01   0.0000000E+00  -1.1246865E-02  -1.2482633E-01   0.0000000E+00  -9.3960762E-03  -1.2377058E-01   0.0000000E+00  -7.6306751E-03  -1.2283973E-01   0.0000000E+00  -5.9679239E-03  -1.2207419E-01   0.0000000E+00  -4.3958970E-03  -1.2150230E-01   0.0000000E+00  -2.8922642E-03  -1.2114841E-01   0.0000000E+00  -1.4370357E-03  -1.4208142E-01   0.0000000E+00  -1.6751161E-02  -1.4103292E-01   0.0000000E+00  -1.4689657E-02  -1.3983889E-01   0.0000000E+00  -1.2595317E-02  -1.3863234E-01   0.0000000E+00  -1.0532497E-02  -1.3750260E-01   0.0000000E+00  -8.5534835E-03  -1.3650845E-01   0.0000000E+00  -6.6835741E-03  -1.3568814E-01   0.0000000E+00  -4.9191988E-03  -1.3507414E-01   0.0000000E+00  -3.2353981E-03  -1.3469340E-01   0.0000000E+00  -1.6044045E-03  -1.5726954E-01   0.0000000E+00  -1.8811755E-02  -1.5614265E-01   0.0000000E+00  -1.6637744E-02  -1.5486859E-01   0.0000000E+00  -1.4346204E-02  -1.5357828E-01   0.0000000E+00  -1.2029111E-02  -1.5236686E-01   0.0000000E+00  -9.7766537E-03  -1.5129675E-01   0.0000000E+00  -7.6383958E-03  -1.5041035E-01   0.0000000E+00  -5.6191604E-03  -1.4974280E-01   0.0000000E+00  -3.6958547E-03  -1.4932641E-01   0.0000000E+00  -1.8340311E-03  -1.7350829E-01   0.0000000E+00  -2.1474695E-02  -1.7232123E-01   0.0000000E+00  -1.9155731E-02  -1.7098297E-01   0.0000000E+00  -1.6644198E-02  -1.6961488E-01   0.0000000E+00  -1.4017367E-02  -1.6831754E-01   0.0000000E+00  -1.1420316E-02  -1.6716109E-01   0.0000000E+00  -8.9332545E-03  -1.6619512E-01   0.0000000E+00  -6.5742224E-03  -1.6546305E-01   0.0000000E+00  -4.3230886E-03  -1.6500421E-01   0.0000000E+00  -2.1440764E-03  -1.9046339E-01   0.0000000E+00  -2.4950173E-02  -1.8925862E-01   0.0000000E+00  -2.2433219E-02  -1.8789929E-01   0.0000000E+00  -1.9603303E-02  -1.8648589E-01   0.0000000E+00  -1.6601304E-02  -1.8511392E-01   0.0000000E+00  -1.3579019E-02  -1.8386817E-01   0.0000000E+00  -1.0655628E-02  -1.8281202E-01   0.0000000E+00  -7.8653870E-03  -1.8200427E-01   0.0000000E+00  -5.1849512E-03  -1.8149558E-01   0.0000000E+00  -2.5737716E-03  -2.0744170E-01   0.0000000E+00  -2.9327651E-02  -2.0630717E-01   0.0000000E+00  -2.6469182E-02  -2.0498817E-01   0.0000000E+00  -2.3223344E-02  -2.0356767E-01   0.0000000E+00  -1.9768514E-02  -2.0214869E-01   0.0000000E+00  -1.6241351E-02  -2.0082256E-01   0.0000000E+00  -1.2794090E-02  -1.9967130E-01   0.0000000E+00  -9.4761252E-03  -1.9877650E-01   0.0000000E+00  -6.2717111E-03  -1.9820952E-01   0.0000000E+00  -3.1234731E-03  -2.2350745E-01   0.0000000E+00  -3.4406748E-02  -2.2241302E-01   0.0000000E+00  -3.1223807E-02  -2.2116047E-01   0.0000000E+00  -2.7550865E-02  -2.1976776E-01   0.0000000E+00  -2.3575090E-02  -2.1832953E-01   0.0000000E+00  -1.9486507E-02  -2.1694738E-01   0.0000000E+00  -1.5437194E-02  -2.1571785E-01   0.0000000E+00  -1.1493952E-02  -2.1474171E-01   0.0000000E+00  -7.6382682E-03  -2.1412183E-01   0.0000000E+00  -3.8120665E-03  -2.3768388E-01   0.0000000E+00  -3.9845128E-02  -2.3656993E-01   0.0000000E+00  -3.6333714E-02  -2.3537064E-01   0.0000000E+00  -3.2264475E-02  -2.3402356E-01   0.0000000E+00  -2.7831499E-02  -2.3259793E-01   0.0000000E+00  -2.3233555E-02  -2.3121424E-01   0.0000000E+00  -1.8610794E-02  -2.2996537E-01   0.0000000E+00  -1.3992071E-02  -2.2895074E-01   0.0000000E+00  -9.3552396E-03  -2.2828628E-01   0.0000000E+00  -4.6905880E-03  -2.4926062E-01   0.0000000E+00  -4.5477390E-02  -2.4815758E-01   0.0000000E+00  -4.1469540E-02  -2.4704258E-01   0.0000000E+00  -3.6988083E-02  -2.4580613E-01   0.0000000E+00  -3.2204628E-02  -2.4444276E-01   0.0000000E+00  -2.7149988E-02  -2.4305271E-01   0.0000000E+00  -2.1901594E-02  -2.4179953E-01   0.0000000E+00  -1.6550509E-02  -2.4075352E-01   0.0000000E+00  -1.1075568E-02  -2.4007459E-01   0.0000000E+00  -5.5475561E-03  -2.5749591E-01   0.0000000E+00  -5.1896907E-02  -2.5653556E-01   0.0000000E+00  -4.7007725E-02  -2.5554979E-01   0.0000000E+00  -4.1998979E-02  -2.5444049E-01   0.0000000E+00  -3.6646094E-02  -2.5322670E-01   0.0000000E+00  -3.0999150E-02  -2.5193805E-01   0.0000000E+00  -2.5170695E-02  -2.5075066E-01   0.0000000E+00  -1.9215990E-02  -2.4975380E-01   0.0000000E+00  -1.2984904E-02  -2.4911553E-01   0.0000000E+00  -6.5277717E-03  -2.6040754E-01   0.0000000E+00  -6.2664047E-02  -2.5968647E-01   0.0000000E+00  -5.6280173E-02  -2.5899586E-01   0.0000000E+00  -5.0432436E-02  -2.5821239E-01   0.0000000E+00  -4.4465702E-02  -2.5727153E-01   0.0000000E+00  -3.8220435E-02  -2.5625163E-01   0.0000000E+00  -3.1776428E-02  -2.5533614E-01   0.0000000E+00  -2.4878426E-02  -2.5462985E-01   0.0000000E+00  -1.7298544E-02  -2.5424695E-01   0.0000000E+00  -8.9522004E-03  -2.5350770E-01   0.0000000E+00  -8.2442380E-02  -2.5362521E-01   0.0000000E+00  -7.3846810E-02  -2.5398391E-01   0.0000000E+00  -6.5927692E-02  -2.5442249E-01   0.0000000E+00  -5.8315869E-02  -2.5442046E-01   0.0000000E+00  -5.0735772E-02  -2.5413173E-01   0.0000000E+00  -4.2866297E-02  -2.5379762E-01   0.0000000E+00  -3.3933770E-02  -2.5353357E-01   0.0000000E+00  -2.3699144E-02  -2.5344604E-01   0.0000000E+00  -1.2208926E-02  -2.2462200E-01   0.0000000E+00  -1.1361590E-01  -2.2532147E-01   0.0000000E+00  -1.0397083E-01  -2.2620490E-01   0.0000000E+00  -9.3615949E-02  -2.2684696E-01   0.0000000E+00  -8.2294963E-02  -2.2662075E-01   0.0000000E+00  -7.0548110E-02  -2.2572380E-01   0.0000000E+00  -5.8483142E-02  -2.2456124E-01   0.0000000E+00  -4.5695800E-02  -2.2342815E-01   0.0000000E+00  -3.1658325E-02  -2.2264732E-01   0.0000000E+00  -1.6276708E-02  -1.4661768E-01   0.0000000E+00  -1.1725660E-01  -1.4800219E-01   0.0000000E+00  -1.0833064E-01  -1.4899440E-01   0.0000000E+00  -9.7985394E-02  -1.4955829E-01   0.0000000E+00  -8.6334869E-02  -1.4967617E-01   0.0000000E+00  -7.4450947E-02  -1.4940821E-01   0.0000000E+00  -6.2208120E-02  -1.4888832E-01   0.0000000E+00  -4.8942540E-02  -1.4830440E-01   0.0000000E+00  -3.4090061E-02  -1.4785367E-01   0.0000000E+00  -1.7578386E-02  -8.3765902E-02   0.0000000E+00  -1.1449623E-01  -8.5659593E-02   0.0000000E+00  -1.0689516E-01  -8.7252572E-02   0.0000000E+00  -9.7660407E-02  -8.8497877E-02   0.0000000E+00  -8.6913548E-02  -8.9358769E-02   0.0000000E+00  -7.5669155E-02  -8.9846984E-02   0.0000000E+00  -6.3764773E-02  -9.0026148E-02   0.0000000E+00  -5.0515540E-02  -9.0009339E-02   0.0000000E+00  -3.5361294E-02  -8.9928523E-02   0.0000000E+00  -1.8287297E-02  -3.8234018E-02   0.0000000E+00  -1.1116732E-01  -3.9809242E-02   0.0000000E+00  -1.0447114E-01  -4.1303761E-02   0.0000000E+00  -9.6065119E-02  -4.2650353E-02   0.0000000E+00  -8.6032003E-02  -4.3777287E-02   0.0000000E+00  -7.5356245E-02  -4.4638563E-02   0.0000000E+00  -6.3858479E-02  -4.5225453E-02   0.0000000E+00  -5.0834935E-02  -4.5574121E-02   0.0000000E+00  -3.5715055E-02  -4.5746014E-02   0.0000000E+00  -1.8511510E-02  -7.9433282E-04   0.0000000E+00  -1.0859541E-01  -1.8037052E-03   0.0000000E+00  -1.0219392E-01  -2.9270935E-03   0.0000000E+00  -9.4140306E-02  -4.0828101E-03   0.0000000E+00  -8.4462464E-02  -5.1798332E-03   0.0000000E+00  -7.4138314E-02  -6.1351163E-03   0.0000000E+00  -6.2981412E-02  -6.8896529E-03   0.0000000E+00  -5.0263483E-02  -7.4214539E-03   0.0000000E+00  -3.5388753E-02  -7.7327765E-03   0.0000000E+00  -1.8367803E-02   3.6496338E-02   0.0000000E+00  -1.0708962E-01   3.5774063E-02   0.0000000E+00  -1.0046843E-01   3.4882531E-02   0.0000000E+00  -9.2336327E-02   3.3902142E-02   0.0000000E+00  -8.2675219E-02   3.2908753E-02   0.0000000E+00  -7.2475731E-02   3.1983916E-02   0.0000000E+00  -6.1549835E-02   3.1198652E-02   0.0000000E+00  -4.9141597E-02   3.0604117E-02   0.0000000E+00  -3.4622569E-02   3.0234028E-02   0.0000000E+00  -1.7980160E-02   7.6877028E-02   0.0000000E+00  -1.0613731E-01   7.5903185E-02   0.0000000E+00  -9.9080123E-02   7.4873209E-02   0.0000000E+00  -9.0635195E-02   7.3851898E-02   0.0000000E+00  -8.0800645E-02   7.2868042E-02   0.0000000E+00  -7.0590623E-02   7.1960971E-02   0.0000000E+00  -5.9819184E-02   7.1177855E-02   0.0000000E+00  -4.7708351E-02   7.0567533E-02   0.0000000E+00  -3.3599168E-02   7.0177026E-02   0.0000000E+00  -1.7446952E-02   1.1920837E-01   0.0000000E+00  -1.0493568E-01   1.1748029E-01   0.0000000E+00  -9.7472787E-02   1.1593174E-01   0.0000000E+00  -8.8707194E-02   1.1460762E-01   0.0000000E+00  -7.8695193E-02   1.1346945E-01   0.0000000E+00  -6.8471834E-02   1.1249037E-01   0.0000000E+00  -5.7856083E-02   1.1166975E-01   0.0000000E+00  -4.6060365E-02   1.1103361E-01   0.0000000E+00  -3.2406684E-02   1.1062478E-01   0.0000000E+00  -1.6819773E-02   1.6045015E-01   0.0000000E+00  -1.0276570E-01   1.5769459E-01   0.0000000E+00  -9.5080107E-02   1.5539637E-01   0.0000000E+00  -8.6151563E-02   1.5358169E-01   0.0000000E+00  -7.6103739E-02   1.5214328E-01   0.0000000E+00  -6.5977782E-02   1.5098558E-01   0.0000000E+00  -5.5599000E-02   1.5005653E-01   0.0000000E+00  -4.4185359E-02   1.4935257E-01   0.0000000E+00  -3.1054934E-02   1.4890450E-01   0.0000000E+00  -1.6109476E-02   1.9768594E-01   0.0000000E+00  -9.9216193E-02   1.9390374E-01   0.0000000E+00  -9.1544509E-02   1.9081098E-01   0.0000000E+00  -8.2682148E-02   1.8842025E-01   0.0000000E+00  -7.2808579E-02   1.8657413E-01   0.0000000E+00  -6.2951811E-02   1.8512759E-01   0.0000000E+00  -5.2944601E-02   1.8399511E-01   0.0000000E+00  -4.2023022E-02   1.8315373E-01   0.0000000E+00  -2.9513983E-02   1.8262523E-01   0.0000000E+00  -1.5304447E-02   2.2661322E-01   0.0000000E+00  -9.4318122E-02   2.2102971E-01   0.0000000E+00  -8.6826108E-02   2.1644253E-01   0.0000000E+00  -7.8214586E-02   2.1277748E-01   0.0000000E+00  -6.8715326E-02   2.0983110E-01   0.0000000E+00  -5.9313599E-02   2.0745845E-01   0.0000000E+00  -4.9837310E-02   2.0561038E-01   0.0000000E+00  -3.9540462E-02   2.0427154E-01   0.0000000E+00  -2.7765142E-02   2.0346829E-01   0.0000000E+00  -1.4396248E-02   2.3781759E-01   0.0000000E+00  -8.8950202E-02   2.3103790E-01   0.0000000E+00  -8.1483833E-02   2.2532520E-01   0.0000000E+00  -7.3126622E-02   2.2062290E-01   0.0000000E+00  -6.4082988E-02   2.1678805E-01   0.0000000E+00  -5.5208825E-02   2.1372049E-01   0.0000000E+00  -4.6309985E-02   2.1138057E-01   0.0000000E+00  -3.6686260E-02   2.0973910E-01   0.0000000E+00  -2.5731649E-02   2.0876628E-01   0.0000000E+00  -1.3328995E-02   2.4036995E-01   0.0000000E+00  -8.3630018E-02   2.3315655E-01   0.0000000E+00  -7.6175369E-02   2.2702666E-01   0.0000000E+00  -6.8042047E-02   2.2192444E-01   0.0000000E+00  -5.9442040E-02   2.1776499E-01   0.0000000E+00  -5.1058251E-02   2.1441622E-01   0.0000000E+00  -4.2684313E-02   2.1183655E-01   0.0000000E+00  -3.3717103E-02   2.1002397E-01   0.0000000E+00  -2.3610288E-02   2.0895760E-01   0.0000000E+00  -1.2237580E-02   2.4016440E-01   0.0000000E+00  -7.8644738E-02   2.3267215E-01   0.0000000E+00  -7.1423605E-02   2.2627960E-01   0.0000000E+00  -6.3521594E-02   2.2096187E-01   0.0000000E+00  -5.5274885E-02   2.1658540E-01   0.0000000E+00  -4.7250226E-02   2.1304150E-01   0.0000000E+00  -3.9328851E-02   2.1028987E-01   0.0000000E+00  -3.0949835E-02   2.0832565E-01   0.0000000E+00  -2.1591781E-02   2.0715070E-01   0.0000000E+00  -1.1144980E-02   2.3877420E-01   0.0000000E+00  -7.3668756E-02   2.3099512E-01   0.0000000E+00  -6.7059614E-02   2.2429505E-01   0.0000000E+00  -5.9671149E-02   2.1868086E-01   0.0000000E+00  -5.1910646E-02   2.1408165E-01   0.0000000E+00  -4.4267364E-02   2.1035793E-01   0.0000000E+00  -3.6702666E-02   2.0741576E-01   0.0000000E+00  -2.8684951E-02   2.0527208E-01   0.0000000E+00  -1.9871967E-02   2.0397188E-01   0.0000000E+00  -1.0216901E-02   2.3664178E-01   0.0000000E+00  -6.9263183E-02   2.2855614E-01   0.0000000E+00  -6.2837705E-02   2.2158520E-01   0.0000000E+00  -5.5904940E-02   2.1573776E-01   0.0000000E+00  -4.8652198E-02   2.1096024E-01   0.0000000E+00  -4.1345879E-02   2.0704406E-01   0.0000000E+00  -3.4075066E-02   2.0391926E-01   0.0000000E+00  -2.6524054E-02   2.0160733E-01   0.0000000E+00  -1.8327579E-02   2.0017783E-01   0.0000000E+00  -9.3958192E-03   2.3408751E-01   0.0000000E+00  -6.4716108E-02   2.2546564E-01   0.0000000E+00  -5.8851197E-02   2.1811512E-01   0.0000000E+00  -5.2541200E-02   2.1199098E-01   0.0000000E+00  -4.5650765E-02   2.0698191E-01   0.0000000E+00  -3.8647685E-02   2.0285404E-01   0.0000000E+00  -3.1635940E-02   1.9953044E-01   0.0000000E+00  -2.4451798E-02   1.9704217E-01   0.0000000E+00  -1.6783588E-02   1.9549251E-01   0.0000000E+00  -8.5728588E-03   2.3119810E-01   0.0000000E+00  -5.9750084E-02   2.2189143E-01   0.0000000E+00  -5.4664265E-02   2.1408845E-01   0.0000000E+00  -4.9045824E-02   2.0753154E-01   0.0000000E+00  -4.2886753E-02   2.0214680E-01   0.0000000E+00  -3.6247361E-02   1.9779491E-01   0.0000000E+00  -2.9415427E-02   1.9432798E-01   0.0000000E+00  -2.2429680E-02   1.9171174E-01   0.0000000E+00  -1.5252353E-02   1.9006926E-01   0.0000000E+00  -7.7356142E-03   2.2797042E-01   0.0000000E+00  -5.4121844E-02   2.1808802E-01   0.0000000E+00  -5.0237555E-02   2.0956981E-01   0.0000000E+00  -4.5333266E-02   2.0260321E-01   0.0000000E+00  -3.9919063E-02   1.9682245E-01   0.0000000E+00  -3.3871643E-02   1.9215882E-01   0.0000000E+00  -2.7462095E-02   1.8847205E-01   0.0000000E+00  -2.0788150E-02   1.8575884E-01   0.0000000E+00  -1.3950843E-02   1.8407112E-01   0.0000000E+00  -7.0212479E-03   2.2501346E-01   0.0000000E+00  -4.8166487E-02   2.1414438E-01   0.0000000E+00  -4.5007952E-02   2.0506594E-01   0.0000000E+00  -4.1334093E-02   1.9743787E-01   0.0000000E+00  -3.6711626E-02   1.9126198E-01   0.0000000E+00  -3.1404469E-02   1.8624555E-01   0.0000000E+00  -2.5432730E-02   1.8235233E-01   0.0000000E+00  -1.9208090E-02   1.7950100E-01   0.0000000E+00  -1.2828084E-02   1.7774998E-01   0.0000000E+00  -6.4105126E-03   2.2252052E-01   0.0000000E+00  -4.1947484E-02   2.1063283E-01   0.0000000E+00  -3.9321885E-02   2.0071116E-01   0.0000000E+00  -3.6594510E-02   1.9249116E-01   0.0000000E+00  -3.3094544E-02   1.8573214E-01   0.0000000E+00  -2.8637769E-02   1.8036999E-01   0.0000000E+00  -2.3409208E-02   1.7621183E-01   0.0000000E+00  -1.7628506E-02   1.7324086E-01   0.0000000E+00  -1.1732168E-02   1.7142779E-01   0.0000000E+00  -5.8207386E-03   2.2055562E-01   0.0000000E+00  -3.5830632E-02   2.0779359E-01   0.0000000E+00  -3.3581983E-02   1.9689542E-01   0.0000000E+00  -3.1253826E-02   1.8794699E-01   0.0000000E+00  -2.8758671E-02   1.8063815E-01   0.0000000E+00  -2.5403878E-02   1.7478268E-01   0.0000000E+00  -2.1048667E-02   1.7036927E-01   0.0000000E+00  -1.6032275E-02   1.6722776E-01   0.0000000E+00  -1.0632982E-02   1.6537419E-01   0.0000000E+00  -5.2546421E-03   2.1922845E-01   0.0000000E+00  -3.0501144E-02   2.0573606E-01   0.0000000E+00  -2.8182607E-02   1.9389232E-01   0.0000000E+00  -2.6020886E-02   1.8409759E-01   0.0000000E+00  -2.3824392E-02   1.7615415E-01   0.0000000E+00  -2.1446243E-02   1.6985199E-01   0.0000000E+00  -1.8252693E-02   1.6504037E-01   0.0000000E+00  -1.4074553E-02   1.6174166E-01   0.0000000E+00  -9.4522089E-03   1.5982004E-01   0.0000000E+00  -4.6775341E-03   2.1915923E-01   0.0000000E+00  -2.6843978E-02   2.0473340E-01   0.0000000E+00  -2.3994969E-02   1.9183041E-01   0.0000000E+00  -2.1413360E-02   1.8115368E-01   0.0000000E+00  -1.9194143E-02   1.7247902E-01   0.0000000E+00  -1.7055083E-02   1.6565256E-01   0.0000000E+00  -1.4755432E-02   1.6057061E-01   0.0000000E+00  -1.1774305E-02   1.5700358E-01   0.0000000E+00  -7.9818722E-03   1.5497813E-01   0.0000000E+00  -4.0017129E-03   2.2004305E-01   0.0000000E+00  -2.4907872E-02   2.0575623E-01   0.0000000E+00  -2.2107318E-02   1.9113742E-01   0.0000000E+00  -1.8505104E-02   1.7920937E-01   0.0000000E+00  -1.5547544E-02   1.6970503E-01   0.0000000E+00  -1.3144380E-02   1.6241571E-01   0.0000000E+00  -1.1063646E-02   1.5691932E-01   0.0000000E+00  -8.9261672E-03   1.5313192E-01   0.0000000E+00  -6.2732617E-03   1.5101112E-01   0.0000000E+00  -3.1932453E-03   2.1931320E-01   0.0000000E+00  -2.3962969E-02   2.0692655E-01   0.0000000E+00  -2.1193573E-02   1.9303454E-01   0.0000000E+00  -1.8186990E-02   1.7936456E-01   0.0000000E+00  -1.4328729E-02   1.6822743E-01   0.0000000E+00  -1.0827630E-02   1.6009718E-01   0.0000000E+00  -8.1991898E-03   1.5421957E-01   0.0000000E+00  -6.2384470E-03   1.5019347E-01   0.0000000E+00  -4.4247122E-03   1.4778170E-01   0.0000000E+00  -2.2994496E-03   2.1408814E-01   0.0000000E+00  -2.2361556E-02   2.0447370E-01   0.0000000E+00  -1.9630132E-02   1.9356440E-01   0.0000000E+00  -1.7624417E-02   1.8149209E-01   0.0000000E+00  -1.4985306E-02   1.6967285E-01   0.0000000E+00  -1.1605891E-02   1.5985391E-01   0.0000000E+00  -7.9380386E-03   1.5279862E-01   0.0000000E+00  -4.9977968E-03   1.4825064E-01   0.0000000E+00  -3.1039470E-03   1.4562489E-01   0.0000000E+00  -1.6888344E-03   1.9751251E-01   0.0000000E+00  -1.7411551E-02   1.8933596E-01   0.0000000E+00  -1.5450562E-02   1.7950474E-01   0.0000000E+00  -1.3247679E-02   1.7007256E-01   0.0000000E+00  -1.1651061E-02   1.6105777E-01   0.0000000E+00  -9.3500474E-03   1.5381438E-01   0.0000000E+00  -6.9032279E-03   1.4817925E-01   0.0000000E+00  -4.2608464E-03   1.4474386E-01   0.0000000E+00  -2.0683159E-03   1.7326082E-01   0.0000000E+00  -1.0653974E-02   1.6560096E-01   0.0000000E+00  -9.2396941E-03   1.5780810E-01   0.0000000E+00  -7.4151554E-03   1.5135004E-01   0.0000000E+00  -5.9981095E-03   1.4600238E-01   0.0000000E+00  -4.2761932E-03   1.4240272E-01   0.0000000E+00  -2.1689269E-03   1.5165226E-01   0.0000000E+00  -5.1200627E-03   1.4598791E-01   0.0000000E+00  -3.4323165E-03   1.4109112E-01   0.0000000E+00  -2.0339859E-03   1.3773747E-01   0.0000000E+00  -7.8484381E-04  -2.5167125E-03   0.0000000E+00  -1.0143246E-10  -2.5184336E-03   0.0000000E+00   1.0017658E-05  -2.5231764E-03   0.0000000E+00   2.1888312E-05  -2.5298053E-03   0.0000000E+00   3.7050959E-05  -2.5361311E-03   0.0000000E+00   5.7610370E-05  -2.5392368E-03   0.0000000E+00   8.4122446E-05  -2.5345902E-03   0.0000000E+00   1.1867379E-04  -2.5168667E-03   0.0000000E+00   1.6118951E-04  -3.5325324E-03   0.0000000E+00   9.5301586E-11  -3.5354057E-03   0.0000000E+00   1.4623086E-05  -3.5434561E-03   0.0000000E+00   3.1488969E-05  -3.5550951E-03   0.0000000E+00   5.2667270E-05  -3.5673943E-03   0.0000000E+00   8.0442871E-05  -3.5762154E-03   0.0000000E+00   1.1627081E-04  -3.5755092E-03   0.0000000E+00   1.6170042E-04  -3.5571773E-03   0.0000000E+00   2.1878844E-04  -4.8191142E-03   0.0000000E+00  -2.1164109E-10  -4.8234924E-03   0.0000000E+00   1.7904029E-05  -4.8359237E-03   0.0000000E+00   3.8154034E-05  -4.8542046E-03   0.0000000E+00   6.3584921E-05  -4.8746015E-03   0.0000000E+00   9.5967778E-05  -4.8912428E-03   0.0000000E+00   1.3790790E-04  -4.8965658E-03   0.0000000E+00   1.9012534E-04  -4.8795771E-03   0.0000000E+00   2.5489886E-04  -6.2672482E-03   0.0000000E+00  -8.2735846E-10  -6.2734378E-03   0.0000000E+00   1.9276296E-05  -6.2911073E-03   0.0000000E+00   4.1128496E-05  -6.3174940E-03   0.0000000E+00   6.8264730E-05  -6.3478164E-03   0.0000000E+00   1.0284871E-04  -6.3748485E-03   0.0000000E+00   1.4713728E-04  -6.3887201E-03   0.0000000E+00   2.0296406E-04  -6.3757948E-03   0.0000000E+00   2.7072817E-04  -7.8294063E-03   0.0000000E+00  -2.9219410E-10  -7.8376932E-03   0.0000000E+00   1.9230447E-05  -7.8614578E-03   0.0000000E+00   4.1062904E-05  -7.8974059E-03   0.0000000E+00   6.8065281E-05  -7.9397466E-03   0.0000000E+00   1.0283863E-04  -7.9799136E-03   0.0000000E+00   1.4696000E-04  -8.0057196E-03   0.0000000E+00   2.0307522E-04  -8.0009792E-03   0.0000000E+00   2.7036844E-04  -9.5085269E-03   0.0000000E+00  -2.7801950E-10  -9.5192296E-03   0.0000000E+00   1.8763161E-05  -9.5500732E-03   0.0000000E+00   3.9961473E-05  -9.5972205E-03   0.0000000E+00   6.6178960E-05  -9.6540162E-03   0.0000000E+00   9.9649653E-05  -9.7104954E-03   0.0000000E+00   1.4260723E-04  -9.7526312E-03   0.0000000E+00   1.9651887E-04  -9.7612236E-03   0.0000000E+00   2.6203485E-04  -1.1342379E-02   0.0000000E+00  -4.0034628E-10  -1.1355878E-02   0.0000000E+00   1.9392863E-05  -1.1394953E-02   0.0000000E+00   4.1085892E-05  -1.1455270E-02   0.0000000E+00   6.7317385E-05  -1.1529345E-02   0.0000000E+00   1.0033585E-04  -1.1605956E-02   0.0000000E+00   1.4229941E-04  -1.1669278E-02   0.0000000E+00   1.9405391E-04  -1.1697335E-02   0.0000000E+00   2.5731866E-04  -1.3380267E-02   0.0000000E+00   1.4845604E-09  -1.3397013E-02   0.0000000E+00   2.3161949E-05  -1.3445677E-02   0.0000000E+00   4.8406702E-05  -1.3521462E-02   0.0000000E+00   7.7787852E-05  -1.3616068E-02   0.0000000E+00   1.1332550E-04  -1.3717114E-02   0.0000000E+00   1.5669093E-04  -1.3807016E-02   0.0000000E+00   2.0892215E-04  -1.3861312E-02   0.0000000E+00   2.7037493E-04  -1.5664008E-02   0.0000000E+00  -2.1974487E-09  -1.5684508E-02   0.0000000E+00   3.2343189E-05  -1.5744297E-02   0.0000000E+00   6.6566230E-05  -1.5838098E-02   0.0000000E+00   1.0457349E-04  -1.5956828E-02   0.0000000E+00   1.4818460E-04  -1.6086923E-02   0.0000000E+00   1.9870905E-04  -1.6209064E-02   0.0000000E+00   2.5664055E-04  -1.6296281E-02   0.0000000E+00   3.2068547E-04  -1.8224040E-02   0.0000000E+00  -1.1180099E-10  -1.8248860E-02   0.0000000E+00   4.9292204E-05  -1.8321412E-02   0.0000000E+00   1.0041822E-04  -1.8435953E-02   0.0000000E+00   1.5519145E-04  -1.8582575E-02   0.0000000E+00   2.1519023E-04  -1.8746419E-02   0.0000000E+00   2.8172976E-04  -1.8906360E-02   0.0000000E+00   3.5408567E-04  -1.9032756E-02   0.0000000E+00   4.2992234E-04  -2.1091443E-02   0.0000000E+00  -1.8094646E-09  -2.1121131E-02   0.0000000E+00   7.6263379E-05  -2.1208160E-02   0.0000000E+00   1.5445327E-04  -2.1346245E-02   0.0000000E+00   2.3653339E-04  -2.1524534E-02   0.0000000E+00   3.2434106E-04  -2.1726770E-02   0.0000000E+00   4.1855089E-04  -2.1929679E-02   0.0000000E+00   5.1824586E-04  -2.2100888E-02   0.0000000E+00   6.1969156E-04  -2.4303915E-02   0.0000000E+00  -3.2776672E-09  -2.4339052E-02   0.0000000E+00   1.1528830E-04  -2.4442282E-02   0.0000000E+00   2.3260521E-04  -2.4606710E-02   0.0000000E+00   3.5452846E-04  -2.4820413E-02   0.0000000E+00   4.8307530E-04  -2.5065431E-02   0.0000000E+00   6.1954604E-04  -2.5315918E-02   0.0000000E+00   7.6304621E-04  -2.5537113E-02   0.0000000E+00   9.0529112E-04  -2.7905302E-02   0.0000000E+00  -1.9651800E-09  -2.7946455E-02   0.0000000E+00   1.6714535E-04  -2.8067425E-02   0.0000000E+00   3.3744751E-04  -2.8260769E-02   0.0000000E+00   5.1389990E-04  -2.8513288E-02   0.0000000E+00   6.9870759E-04  -2.8805183E-02   0.0000000E+00   8.9204841E-04  -2.9108247E-02   0.0000000E+00   1.0920248E-03  -2.9383553E-02   0.0000000E+00   1.2952812E-03  -3.1942952E-02   0.0000000E+00  -1.1770603E-09  -3.1990543E-02   0.0000000E+00   2.3382554E-04  -3.2130636E-02   0.0000000E+00   4.7123467E-04  -3.2355241E-02   0.0000000E+00   7.1509357E-04  -3.2649789E-02   0.0000000E+00   9.6949149E-04  -3.2992423E-02   0.0000000E+00   1.2360545E-03  -3.3351939E-02   0.0000000E+00   1.5118769E-03  -3.3686943E-02   0.0000000E+00   1.7936403E-03  -3.6468189E-02   0.0000000E+00   1.0521127E-11  -3.6522526E-02   0.0000000E+00   3.1366394E-04  -3.6682788E-02   0.0000000E+00   6.3129317E-04  -3.6940202E-02   0.0000000E+00   9.5805823E-04  -3.7278987E-02   0.0000000E+00   1.2973341E-03  -3.7675500E-02   0.0000000E+00   1.6513788E-03  -3.8095962E-02   0.0000000E+00   2.0220969E-03  -3.8497809E-02   0.0000000E+00   2.3976464E-03  -4.1533243E-02   0.0000000E+00  -3.3006894E-10  -4.1594531E-02   0.0000000E+00   4.0600551E-04  -4.1775439E-02   0.0000000E+00   8.1707351E-04  -4.2066514E-02   0.0000000E+00   1.2389646E-03  -4.2451259E-02   0.0000000E+00   1.6760571E-03  -4.2904261E-02   0.0000000E+00   2.1330190E-03  -4.3390170E-02   0.0000000E+00   2.6100178E-03  -4.3864407E-02   0.0000000E+00   3.0983204E-03  -4.7195729E-02   0.0000000E+00  -5.8448557E-09  -4.7263928E-02   0.0000000E+00   5.1008188E-04  -4.7465414E-02   0.0000000E+00   1.0260502E-03  -4.7790322E-02   0.0000000E+00   1.5543664E-03  -4.8221331E-02   0.0000000E+00   2.0999881E-03  -4.8731871E-02   0.0000000E+00   2.6689868E-03  -4.9286660E-02   0.0000000E+00   3.2599831E-03  -4.9837880E-02   0.0000000E+00   3.8750598E-03  -5.3516924E-02   0.0000000E+00   1.2758722E-09  -5.3591974E-02   0.0000000E+00   6.2184816E-04  -5.3813644E-02   0.0000000E+00   1.2510694E-03  -5.4171722E-02   0.0000000E+00   1.8942244E-03  -5.4648239E-02   0.0000000E+00   2.5578425E-03  -5.5216957E-02   0.0000000E+00   3.2458073E-03  -5.5840373E-02   0.0000000E+00   3.9618807E-03  -5.6470547E-02   0.0000000E+00   4.7082375E-03  -6.0560912E-02   0.0000000E+00  -3.7611989E-09  -6.0642458E-02   0.0000000E+00   7.3779636E-04  -6.0883544E-02   0.0000000E+00   1.4844959E-03  -6.1273545E-02   0.0000000E+00   2.2476551E-03  -6.1793886E-02   0.0000000E+00   3.0353237E-03  -6.2418643E-02   0.0000000E+00   3.8494032E-03  -6.3110150E-02   0.0000000E+00   4.6987301E-03  -6.3818417E-02   0.0000000E+00   5.5838386E-03  -6.8389535E-02   0.0000000E+00  -2.1373128E-09  -6.8477355E-02   0.0000000E+00   8.5411960E-04  -6.8737023E-02   0.0000000E+00   1.7189929E-03  -6.9156796E-02   0.0000000E+00   2.6022941E-03  -6.9718830E-02   0.0000000E+00   3.5134107E-03  -7.0397921E-02   0.0000000E+00   4.4615529E-03  -7.1154580E-02   0.0000000E+00   5.4526576E-03  -7.1937248E-02   0.0000000E+00   6.4814151E-03  -7.7058509E-02   0.0000000E+00  -1.2276117E-09  -7.7152275E-02   0.0000000E+00   9.6796622E-04  -7.7428818E-02   0.0000000E+00   1.9454376E-03  -7.7877127E-02   0.0000000E+00   2.9474595E-03  -7.8480057E-02   0.0000000E+00   3.9851354E-03  -7.9209231E-02   0.0000000E+00   5.0682896E-03  -8.0026984E-02   0.0000000E+00   6.2016882E-03  -8.0879837E-02   0.0000000E+00   7.3826024E-03  -8.6614825E-02   0.0000000E+00  -1.6370257E-09  -8.6713776E-02   0.0000000E+00   1.0759810E-03  -8.7007761E-02   0.0000000E+00   2.1658363E-03  -8.7483987E-02   0.0000000E+00   3.2850855E-03  -8.8125579E-02   0.0000000E+00   4.4477829E-03  -8.8903494E-02   0.0000000E+00   5.6657256E-03  -8.9779072E-02   0.0000000E+00   6.9446838E-03  -9.0697646E-02   0.0000000E+00   8.2813632E-03  -9.7100399E-02   0.0000000E+00  -1.8992294E-09  -9.7205326E-02   0.0000000E+00   1.1847033E-03  -9.7516753E-02   0.0000000E+00   2.3864454E-03  -9.8021403E-02   0.0000000E+00   3.6231009E-03  -9.8701537E-02   0.0000000E+00   4.9108048E-03  -9.9527314E-02   0.0000000E+00   6.2648482E-03  -1.0046002E-01   0.0000000E+00   7.6926886E-03  -1.0144393E-01   0.0000000E+00   9.1908704E-03  -1.0855726E-01   0.0000000E+00   2.7930183E-09  -1.0866847E-01   0.0000000E+00   1.3012466E-03  -1.0899897E-01   0.0000000E+00   2.6220751E-03  -1.0953543E-01   0.0000000E+00   3.9801947E-03  -1.1025567E-01   0.0000000E+00   5.4012164E-03  -1.1113107E-01   0.0000000E+00   6.8992381E-03  -1.1212292E-01   0.0000000E+00   8.4844064E-03  -1.1317494E-01   0.0000000E+00   1.0152263E-02  -1.2102957E-01   0.0000000E+00   1.6575910E-09  -1.2114841E-01   0.0000000E+00   1.4370311E-03  -1.2150232E-01   0.0000000E+00   2.8922688E-03  -1.2207421E-01   0.0000000E+00   4.3958980E-03  -1.2283976E-01   0.0000000E+00   5.9679262E-03  -1.2377059E-01   0.0000000E+00   7.6306779E-03  -1.2482634E-01   0.0000000E+00   9.3960790E-03  -1.2595275E-01   0.0000000E+00   1.1246878E-02  -1.3456316E-01   0.0000000E+00  -3.5804530E-09  -1.3469340E-01   0.0000000E+00   1.6044033E-03  -1.3507418E-01   0.0000000E+00   3.2353983E-03  -1.3568814E-01   0.0000000E+00   4.9191993E-03  -1.3650846E-01   0.0000000E+00   6.6835759E-03  -1.3750261E-01   0.0000000E+00   8.5534863E-03  -1.3863239E-01   0.0000000E+00   1.0532501E-02  -1.3983892E-01   0.0000000E+00   1.2595311E-02  -1.4918508E-01   0.0000000E+00   2.9549241E-09  -1.4932640E-01   0.0000000E+00   1.8340265E-03  -1.4974280E-01   0.0000000E+00   3.6958572E-03  -1.5041034E-01   0.0000000E+00   5.6191622E-03  -1.5129673E-01   0.0000000E+00   7.6383972E-03  -1.5236686E-01   0.0000000E+00   9.7766565E-03  -1.5357830E-01   0.0000000E+00   1.2029109E-02  -1.5486859E-01   0.0000000E+00   1.4346202E-02  -1.6484763E-01   0.0000000E+00   4.0881409E-09  -1.6500419E-01   0.0000000E+00   2.1440734E-03  -1.6546303E-01   0.0000000E+00   4.3230909E-03  -1.6619511E-01   0.0000000E+00   6.5742233E-03  -1.6716106E-01   0.0000000E+00   8.9332573E-03  -1.6831754E-01   0.0000000E+00   1.1420317E-02  -1.6961488E-01   0.0000000E+00   1.4017362E-02  -1.7098296E-01   0.0000000E+00   1.6644197E-02  -1.8132141E-01   0.0000000E+00   2.9520877E-09  -1.8149562E-01   0.0000000E+00   2.5737786E-03  -1.8200424E-01   0.0000000E+00   5.1849550E-03  -1.8281202E-01   0.0000000E+00   7.8653926E-03  -1.8386814E-01   0.0000000E+00   1.0655629E-02  -1.8511395E-01   0.0000000E+00   1.3579020E-02  -1.8648593E-01   0.0000000E+00   1.6601302E-02  -1.8789935E-01   0.0000000E+00   1.9603305E-02  -1.9801350E-01   0.0000000E+00   8.2258661E-10  -1.9820951E-01   0.0000000E+00   3.1234752E-03  -1.9877647E-01   0.0000000E+00   6.2717143E-03  -1.9967131E-01   0.0000000E+00   9.4761299E-03  -2.0082259E-01   0.0000000E+00   1.2794092E-02  -2.0214872E-01   0.0000000E+00   1.6241351E-02  -2.0356767E-01   0.0000000E+00   1.9768514E-02  -2.0498815E-01   0.0000000E+00   2.3223339E-02  -2.1390517E-01   0.0000000E+00   1.2027652E-09  -2.1412185E-01   0.0000000E+00   3.8120707E-03  -2.1474168E-01   0.0000000E+00   7.6382724E-03  -2.1571787E-01   0.0000000E+00   1.1493954E-02  -2.1694739E-01   0.0000000E+00   1.5437194E-02  -2.1832955E-01   0.0000000E+00   1.9486506E-02  -2.1976778E-01   0.0000000E+00   2.3575094E-02  -2.2116049E-01   0.0000000E+00   2.7550865E-02  -2.2805563E-01   0.0000000E+00   1.1543755E-09  -2.2828625E-01   0.0000000E+00   4.6905926E-03  -2.2895072E-01   0.0000000E+00   9.3552433E-03  -2.2996536E-01   0.0000000E+00   1.3992073E-02  -2.3121423E-01   0.0000000E+00   1.8610792E-02  -2.3259793E-01   0.0000000E+00   2.3233553E-02  -2.3402357E-01   0.0000000E+00   2.7831502E-02  -2.3537064E-01   0.0000000E+00   3.2264482E-02  -2.3985940E-01   0.0000000E+00   7.3606605E-09  -2.4007459E-01   0.0000000E+00   5.5475603E-03  -2.4075358E-01   0.0000000E+00   1.1075579E-02  -2.4179952E-01   0.0000000E+00   1.6550511E-02  -2.4305269E-01   0.0000000E+00   2.1901600E-02  -2.4444279E-01   0.0000000E+00   2.7149986E-02  -2.4580616E-01   0.0000000E+00   3.2204632E-02  -2.4704263E-01   0.0000000E+00   3.6988098E-02  -2.4891612E-01   0.0000000E+00  -7.8870537E-09  -2.4911556E-01   0.0000000E+00   6.5277866E-03  -2.4975383E-01   0.0000000E+00   1.2984916E-02  -2.5075069E-01   0.0000000E+00   1.9215999E-02  -2.5193805E-01   0.0000000E+00   2.5170697E-02  -2.5322673E-01   0.0000000E+00   3.0999156E-02  -2.5444049E-01   0.0000000E+00   3.6646109E-02  -2.5554979E-01   0.0000000E+00   4.1998986E-02  -2.5411627E-01   0.0000000E+00   4.5615911E-09  -2.5424698E-01   0.0000000E+00   8.9522097E-03  -2.5462985E-01   0.0000000E+00   1.7298557E-02  -2.5533611E-01   0.0000000E+00   2.4878437E-02  -2.5625166E-01   0.0000000E+00   3.1776432E-02  -2.5727156E-01   0.0000000E+00   3.8220443E-02  -2.5821239E-01   0.0000000E+00   4.4465698E-02  -2.5899589E-01   0.0000000E+00   5.0432432E-02  -2.5348753E-01   0.0000000E+00   4.7780535E-09  -2.5344601E-01   0.0000000E+00   1.2208920E-02  -2.5353360E-01   0.0000000E+00   2.3699129E-02  -2.5379759E-01   0.0000000E+00   3.3933785E-02  -2.5413179E-01   0.0000000E+00   4.2866305E-02  -2.5442049E-01   0.0000000E+00   5.0735757E-02  -2.5442249E-01   0.0000000E+00   5.8315892E-02  -2.5398391E-01   0.0000000E+00   6.5927699E-02  -2.2236797E-01   0.0000000E+00  -7.7341396E-09  -2.2264723E-01   0.0000000E+00   1.6276699E-02  -2.2342820E-01   0.0000000E+00   3.1658340E-02  -2.2456135E-01   0.0000000E+00   4.5695763E-02  -2.2572383E-01   0.0000000E+00   5.8483150E-02  -2.2662069E-01   0.0000000E+00   7.0548117E-02  -2.2684699E-01   0.0000000E+00   8.2294993E-02  -2.2620493E-01   0.0000000E+00   9.3615897E-02  -1.4768502E-01   0.0000000E+00   5.2416951E-09  -1.4785370E-01   0.0000000E+00   1.7578343E-02  -1.4830436E-01   0.0000000E+00   3.4090072E-02  -1.4888829E-01   0.0000000E+00   4.8942540E-02  -1.4940824E-01   0.0000000E+00   6.2208120E-02  -1.4967608E-01   0.0000000E+00   7.4450925E-02  -1.4955828E-01   0.0000000E+00   8.6334892E-02  -1.4899445E-01   0.0000000E+00   9.7985409E-02  -8.9888506E-02   0.0000000E+00   2.6001697E-08  -8.9928582E-02   0.0000000E+00   1.8287348E-02  -9.0009354E-02   0.0000000E+00   3.5361290E-02  -9.0026096E-02   0.0000000E+00   5.0515536E-02  -8.9846924E-02   0.0000000E+00   6.3764758E-02  -8.9358807E-02   0.0000000E+00   7.5669155E-02  -8.8497914E-02   0.0000000E+00   8.6913519E-02  -8.7252580E-02   0.0000000E+00   9.7660400E-02  -4.5796048E-02   0.0000000E+00  -1.6773420E-08  -4.5746025E-02   0.0000000E+00   1.8511493E-02  -4.5574084E-02   0.0000000E+00   3.5715044E-02  -4.5225464E-02   0.0000000E+00   5.0834917E-02  -4.4638522E-02   0.0000000E+00   6.3858472E-02  -4.3777321E-02   0.0000000E+00   7.5356208E-02  -4.2650383E-02   0.0000000E+00   8.6032026E-02  -4.1303821E-02   0.0000000E+00   9.6065097E-02  -7.8348238E-03   0.0000000E+00  -4.5096979E-08  -7.7326931E-03   0.0000000E+00   1.8367801E-02  -7.4214255E-03   0.0000000E+00   3.5388745E-02  -6.8896809E-03   0.0000000E+00   5.0263468E-02  -6.1350674E-03   0.0000000E+00   6.2981427E-02  -5.1798187E-03   0.0000000E+00   7.4138299E-02  -4.0827715E-03   0.0000000E+00   8.4462464E-02  -2.9271103E-03   0.0000000E+00   9.4140299E-02   3.0108485E-02   0.0000000E+00   4.9444377E-09   3.0234046E-02   0.0000000E+00   1.7980108E-02   3.0604165E-02   0.0000000E+00   3.4622565E-02   3.1198623E-02   0.0000000E+00   4.9141612E-02   3.1983927E-02   0.0000000E+00   6.1549775E-02   3.2908790E-02   0.0000000E+00   7.2475746E-02   3.3902105E-02   0.0000000E+00   8.2675159E-02   3.4882568E-02   0.0000000E+00   9.2336312E-02   7.0042372E-02   0.0000000E+00   3.7915736E-08   7.0177048E-02   0.0000000E+00   1.7446952E-02   7.0567481E-02   0.0000000E+00   3.3599168E-02   7.1177803E-02   0.0000000E+00   4.7708336E-02   7.1960963E-02   0.0000000E+00   5.9819181E-02   7.2867982E-02   0.0000000E+00   7.0590600E-02   7.3852018E-02   0.0000000E+00   8.0800630E-02   7.4873231E-02   0.0000000E+00   9.0635285E-02   1.1048296E-01   0.0000000E+00   3.4856686E-08   1.1062472E-01   0.0000000E+00   1.6819760E-02   1.1103363E-01   0.0000000E+00   3.2406695E-02   1.1166978E-01   0.0000000E+00   4.6060361E-02   1.1249045E-01   0.0000000E+00   5.7856072E-02   1.1346949E-01   0.0000000E+00   6.8471827E-02   1.1460771E-01   0.0000000E+00   7.8695178E-02   1.1593180E-01   0.0000000E+00   8.8707209E-02   1.4874972E-01   0.0000000E+00  -1.2243058E-08   1.4890453E-01   0.0000000E+00   1.6109476E-02   1.4935257E-01   0.0000000E+00   3.1054910E-02   1.5005650E-01   0.0000000E+00   4.4185344E-02   1.5098561E-01   0.0000000E+00   5.5598993E-02   1.5214334E-01   0.0000000E+00   6.5977797E-02   1.5358172E-01   0.0000000E+00   7.6103754E-02   1.5539648E-01   0.0000000E+00   8.6151600E-02   1.8244386E-01   0.0000000E+00  -6.1361147E-09   1.8262517E-01   0.0000000E+00   1.5304481E-02   1.8315372E-01   0.0000000E+00   2.9514028E-02   1.8399517E-01   0.0000000E+00   4.2023040E-02   1.8512763E-01   0.0000000E+00   5.2944589E-02   1.8657407E-01   0.0000000E+00   6.2951818E-02   1.8842021E-01   0.0000000E+00   7.2808594E-02   1.9081099E-01   0.0000000E+00   8.2682170E-02   2.0319739E-01   0.0000000E+00   5.1713398E-09   2.0346829E-01   0.0000000E+00   1.4396285E-02   2.0427151E-01   0.0000000E+00   2.7765131E-02   2.0561033E-01   0.0000000E+00   3.9540473E-02   2.0745844E-01   0.0000000E+00   4.9837284E-02   2.0983110E-01   0.0000000E+00   5.9313595E-02   2.1277753E-01   0.0000000E+00   6.8715379E-02   2.1644248E-01   0.0000000E+00   7.8214645E-02   2.0844355E-01   0.0000000E+00   3.1635171E-08   2.0876627E-01   0.0000000E+00   1.3329021E-02   2.0973907E-01   0.0000000E+00   2.5731659E-02   2.1138059E-01   0.0000000E+00   3.6686268E-02   2.1372049E-01   0.0000000E+00   4.6310008E-02   2.1678804E-01   0.0000000E+00   5.5208825E-02   2.2062287E-01   0.0000000E+00   6.4082950E-02   2.2532520E-01   0.0000000E+00   7.3126644E-02   2.0859684E-01   0.0000000E+00   1.4320890E-08   2.0895755E-01   0.0000000E+00   1.2237613E-02   2.1002391E-01   0.0000000E+00   2.3610299E-02   2.1183649E-01   0.0000000E+00   3.3717088E-02   2.1441616E-01   0.0000000E+00   4.2684313E-02   2.1776496E-01   0.0000000E+00   5.1058277E-02   2.2192439E-01   0.0000000E+00   5.9442028E-02   2.2702669E-01   0.0000000E+00   6.8042062E-02   2.0675814E-01   0.0000000E+00  -7.0863311E-09   2.0715065E-01   0.0000000E+00   1.1144957E-02   2.0832568E-01   0.0000000E+00   2.1591801E-02   2.1028985E-01   0.0000000E+00   3.0949838E-02   2.1304148E-01   0.0000000E+00   3.9328858E-02   2.1658540E-01   0.0000000E+00   4.7250226E-02   2.2096185E-01   0.0000000E+00   5.5274881E-02   2.2627959E-01   0.0000000E+00   6.3521594E-02   2.0353641E-01   0.0000000E+00   4.9482596E-09   2.0397186E-01   0.0000000E+00   1.0216911E-02   2.0527203E-01   0.0000000E+00   1.9871973E-02   2.0741577E-01   0.0000000E+00   2.8684957E-02   2.1035793E-01   0.0000000E+00   3.6702670E-02   2.1408163E-01   0.0000000E+00   4.4267379E-02   2.1868083E-01   0.0000000E+00   5.1910643E-02   2.2429505E-01   0.0000000E+00   5.9671156E-02   1.9969340E-01   0.0000000E+00   5.1150022E-09   2.0017782E-01   0.0000000E+00   9.3958229E-03   2.0160733E-01   0.0000000E+00   1.8327564E-02   2.0391928E-01   0.0000000E+00   2.6524058E-02   2.0704408E-01   0.0000000E+00   3.4075078E-02   2.1096021E-01   0.0000000E+00   4.1345872E-02   2.1573770E-01   0.0000000E+00   4.8652198E-02   2.2158521E-01   0.0000000E+00   5.5904947E-02   1.9496778E-01   0.0000000E+00   2.9863572E-09   1.9549249E-01   0.0000000E+00   8.5728746E-03   1.9704215E-01   0.0000000E+00   1.6783576E-02   1.9953042E-01   0.0000000E+00   2.4451800E-02   2.0285405E-01   0.0000000E+00   3.1635951E-02   2.0698190E-01   0.0000000E+00   3.8647681E-02   2.1199103E-01   0.0000000E+00   4.5650765E-02   2.1811514E-01   0.0000000E+00   5.2541181E-02   1.8950960E-01   0.0000000E+00   1.0884301E-08   1.9006930E-01   0.0000000E+00   7.7356161E-03   1.9171172E-01   0.0000000E+00   1.5252351E-02   1.9432798E-01   0.0000000E+00   2.2429679E-02   1.9779493E-01   0.0000000E+00   2.9415429E-02   2.0214683E-01   0.0000000E+00   3.6247369E-02   2.0753157E-01   0.0000000E+00   4.2886756E-02   2.1408847E-01   0.0000000E+00   4.9045820E-02   1.8348727E-01   0.0000000E+00   6.8746289E-09   1.8407112E-01   0.0000000E+00   7.0212497E-03   1.8575884E-01   0.0000000E+00   1.3950855E-02   1.8847199E-01   0.0000000E+00   2.0788146E-02   1.9215880E-01   0.0000000E+00   2.7462099E-02   1.9682243E-01   0.0000000E+00   3.3871643E-02   2.0260322E-01   0.0000000E+00   3.9919056E-02   2.0956981E-01   0.0000000E+00   4.5333259E-02   1.7715827E-01   0.0000000E+00   2.2241458E-09   1.7775002E-01   0.0000000E+00   6.4105201E-03   1.7950100E-01   0.0000000E+00   1.2828087E-02   1.8235232E-01   0.0000000E+00   1.9208089E-02   1.8624553E-01   0.0000000E+00   2.5432726E-02   1.9126193E-01   0.0000000E+00   3.1404473E-02   1.9743790E-01   0.0000000E+00   3.6711633E-02   2.0506598E-01   0.0000000E+00   4.1334089E-02   1.7082858E-01   0.0000000E+00  -2.1439436E-10   1.7142779E-01   0.0000000E+00   5.8207456E-03   1.7324089E-01   0.0000000E+00   1.1732166E-02   1.7621182E-01   0.0000000E+00   1.7628510E-02   1.8036996E-01   0.0000000E+00   2.3409206E-02   1.8573216E-01   0.0000000E+00   2.8637763E-02   1.9249117E-01   0.0000000E+00   3.3094548E-02   2.0071116E-01   0.0000000E+00   3.6594510E-02   1.6478409E-01   0.0000000E+00   2.4016489E-09   1.6537416E-01   0.0000000E+00   5.2546449E-03   1.6722776E-01   0.0000000E+00   1.0632988E-02   1.7036925E-01   0.0000000E+00   1.6032279E-02   1.7478266E-01   0.0000000E+00   2.1048667E-02   1.8063815E-01   0.0000000E+00   2.5403878E-02   1.8794703E-01   0.0000000E+00   2.8758673E-02   1.9689544E-01   0.0000000E+00   3.1253837E-02   1.5921612E-01   0.0000000E+00   2.8140941E-09   1.5982002E-01   0.0000000E+00   4.6775374E-03   1.6174166E-01   0.0000000E+00   9.4522107E-03   1.6504039E-01   0.0000000E+00   1.4074551E-02   1.6985202E-01   0.0000000E+00   1.8252693E-02   1.7615412E-01   0.0000000E+00   2.1446245E-02   1.8409757E-01   0.0000000E+00   2.3824394E-02   1.9389232E-01   0.0000000E+00   2.6020892E-02   1.5435073E-01   0.0000000E+00   2.3429707E-09   1.5497811E-01   0.0000000E+00   4.0017245E-03   1.5700355E-01   0.0000000E+00   7.9818778E-03   1.6057059E-01   0.0000000E+00   1.1774312E-02   1.6565257E-01   0.0000000E+00   1.4755436E-02   1.7247900E-01   0.0000000E+00   1.7055079E-02   1.8115368E-01   0.0000000E+00   1.9194143E-02   1.9183041E-01   0.0000000E+00   2.1413369E-02   1.5026473E-01   0.0000000E+00   3.6947270E-09   1.5101112E-01   0.0000000E+00   3.1932557E-03   1.5313192E-01   0.0000000E+00   6.2732766E-03   1.5691927E-01   0.0000000E+00   8.9261644E-03   1.6241567E-01   0.0000000E+00   1.1063658E-02   1.6970503E-01   0.0000000E+00   1.3144389E-02   1.7920938E-01   0.0000000E+00   1.5547557E-02   1.9113742E-01   0.0000000E+00   1.8505104E-02   1.4699832E-01   0.0000000E+00   7.1996813E-09   1.4778171E-01   0.0000000E+00   2.2994610E-03   1.5019347E-01   0.0000000E+00   4.4247247E-03   1.5421955E-01   0.0000000E+00   6.2384508E-03   1.6009718E-01   0.0000000E+00   8.1992019E-03   1.6822742E-01   0.0000000E+00   1.0827628E-02   1.7936455E-01   0.0000000E+00   1.4328735E-02   1.9303453E-01   0.0000000E+00   1.8186990E-02   1.4463051E-01   0.0000000E+00   9.5963397E-09   1.4562489E-01   0.0000000E+00   1.6888469E-03   1.4825064E-01   0.0000000E+00   3.1039550E-03   1.5279867E-01   0.0000000E+00   4.9977358E-03   1.5985388E-01   0.0000000E+00   7.9380414E-03   1.6967282E-01   0.0000000E+00   1.1605892E-02   1.8149211E-01   0.0000000E+00   1.4985314E-02   1.9356439E-01   0.0000000E+00   1.7624417E-02   1.4340964E-01   0.0000000E+00   5.6763989E-09   1.4474386E-01   0.0000000E+00   2.0683180E-03   1.4817926E-01   0.0000000E+00   4.2608487E-03   1.5381438E-01   0.0000000E+00   6.9032200E-03   1.6105776E-01   0.0000000E+00   9.3500298E-03   1.7007253E-01   0.0000000E+00   1.1651049E-02   1.7950472E-01   0.0000000E+00   1.3247662E-02   1.8933596E-01   0.0000000E+00   1.5450561E-02   1.4103353E-01   0.0000000E+00   5.9850769E-09   1.4240274E-01   0.0000000E+00   2.1689376E-03   1.4600238E-01   0.0000000E+00   4.2761895E-03   1.5135001E-01   0.0000000E+00   5.9980936E-03   1.5780810E-01   0.0000000E+00   7.4151442E-03   1.6560094E-01   0.0000000E+00   9.2396783E-03   1.7326081E-01   0.0000000E+00   1.0653965E-02   1.3666180E-01   0.0000000E+00   6.5113794E-09   1.3773745E-01   0.0000000E+00   7.8484527E-04   1.4109111E-01   0.0000000E+00   2.0339815E-03   1.4598793E-01   0.0000000E+00   3.4323034E-03   1.5165225E-01   0.0000000E+00   5.1200455E-03  -2.4789933E-03   0.0000000E+00   2.1216302E-04  -2.4124081E-03   0.0000000E+00   2.7306136E-04  -2.3095834E-03   0.0000000E+00   3.3831928E-04  -2.1601566E-03   0.0000000E+00   4.0697487E-04  -1.9571297E-03   0.0000000E+00   4.7033688E-04  -1.6976771E-03   0.0000000E+00   5.1911600E-04  -1.3914353E-03   0.0000000E+00   5.3831632E-04  -3.5123064E-03   0.0000000E+00   2.8493814E-04  -3.4270647E-03   0.0000000E+00   3.6324904E-04  -3.2877580E-03   0.0000000E+00   4.4912260E-04  -3.0792626E-03   0.0000000E+00   5.3370674E-04  -2.7869234E-03   0.0000000E+00   6.0473423E-04  -2.4000863E-03   0.0000000E+00   6.5007224E-04  -1.9220962E-03   0.0000000E+00   6.5506279E-04  -1.3644868E-03   0.0000000E+00   7.0447847E-04  -4.8271320E-03   0.0000000E+00   3.3088255E-04  -4.7215857E-03   0.0000000E+00   4.1745606E-04  -4.5417096E-03   0.0000000E+00   5.1021733E-04  -4.2625037E-03   0.0000000E+00   6.0131680E-04  -3.8638634E-03   0.0000000E+00   6.7181385E-04  -3.3271047E-03   0.0000000E+00   7.2034070E-04  -2.6660590E-03   0.0000000E+00   7.3571596E-04  -1.8975122E-03   0.0000000E+00   7.6944754E-04  -6.3183927E-03   0.0000000E+00   3.5146301E-04  -6.1950060E-03   0.0000000E+00   4.4084620E-04  -5.9756357E-03   0.0000000E+00   5.3765340E-04  -5.6262789E-03   0.0000000E+00   6.3145906E-04  -5.1173596E-03   0.0000000E+00   7.0373435E-04  -4.4272994E-03   0.0000000E+00   7.5131864E-04  -3.5695382E-03   0.0000000E+00   7.6544535E-04  -2.5545424E-03   0.0000000E+00   8.1009557E-04  -7.9438090E-03   0.0000000E+00   3.5141333E-04  -7.8079584E-03   0.0000000E+00   4.4119556E-04  -7.5558890E-03   0.0000000E+00   5.3765904E-04  -7.1427873E-03   0.0000000E+00   6.3184201E-04  -6.5291165E-03   0.0000000E+00   7.0300419E-04  -5.6846645E-03   0.0000000E+00   7.5090956E-04  -4.6171336E-03   0.0000000E+00   7.6972478E-04  -3.3271590E-03   0.0000000E+00   8.4772159E-04  -9.7110579E-03   0.0000000E+00   3.3963248E-04  -9.5699057E-03   0.0000000E+00   4.2724123E-04  -9.2939967E-03   0.0000000E+00   5.1873235E-04  -8.8257622E-03   0.0000000E+00   6.0984405E-04  -8.1154648E-03   0.0000000E+00   6.7602668E-04  -7.1179261E-03   0.0000000E+00   7.2604656E-04  -5.8311475E-03   0.0000000E+00   7.5985130E-04  -4.2365906E-03   0.0000000E+00   8.9630374E-04  -1.1661459E-02   0.0000000E+00   3.2994669E-04  -1.1523421E-02   0.0000000E+00   4.1209138E-04  -1.1232393E-02   0.0000000E+00   4.9409264E-04  -1.0717928E-02   0.0000000E+00   5.7703949E-04  -9.9173123E-03   0.0000000E+00   6.3643639E-04  -8.7677957E-03   0.0000000E+00   6.9203181E-04  -7.2535546E-03   0.0000000E+00   7.5519754E-04  -5.3214561E-03   0.0000000E+00   9.7923400E-04  -1.3847425E-02   0.0000000E+00   3.3870744E-04  -1.3721510E-02   0.0000000E+00   4.1349372E-04  -1.3424126E-02   0.0000000E+00   4.8436408E-04  -1.2870832E-02   0.0000000E+00   5.5748428E-04  -1.1986432E-02   0.0000000E+00   6.0571183E-04  -1.0679918E-02   0.0000000E+00   6.7939656E-04  -8.9345938E-03   0.0000000E+00   7.8368449E-04  -6.6363020E-03   0.0000000E+00   1.1240242E-03  -1.6312214E-02   0.0000000E+00   3.8780394E-04  -1.6207766E-02   0.0000000E+00   4.5667271E-04  -1.5913181E-02   0.0000000E+00   5.2048580E-04  -1.5330362E-02   0.0000000E+00   5.8318989E-04  -1.4361783E-02   0.0000000E+00   6.2631193E-04  -1.2898627E-02   0.0000000E+00   7.1724429E-04  -1.0925696E-02   0.0000000E+00   8.5787784E-04  -8.2742758E-03   0.0000000E+00   1.2967631E-03  -1.9085733E-02   0.0000000E+00   5.0467992E-04  -1.9011883E-02   0.0000000E+00   5.7586021E-04  -1.8732022E-02   0.0000000E+00   6.3714979E-04  -1.8130958E-02   0.0000000E+00   6.8997603E-04  -1.7078834E-02   0.0000000E+00   7.2802330E-04  -1.5476331E-02   0.0000000E+00   8.0400653E-04  -1.3295417E-02   0.0000000E+00   9.4550697E-04  -1.0407796E-02   0.0000000E+00   1.3372723E-03  -2.2197491E-02   0.0000000E+00   7.1581255E-04  -2.2162445E-02   0.0000000E+00   8.0170808E-04  -2.1909362E-02   0.0000000E+00   8.6740794E-04  -2.1303501E-02   0.0000000E+00   9.1063953E-04  -2.0195074E-02   0.0000000E+00   9.1419276E-04  -1.8480295E-02   0.0000000E+00   9.3332288E-04  -1.6157962E-02   0.0000000E+00   1.0218651E-03  -1.3193748E-02   0.0000000E+00   1.2223281E-03  -2.5683239E-02   0.0000000E+00   1.0380330E-03  -2.5692925E-02   0.0000000E+00   1.1587812E-03  -2.5478523E-02   0.0000000E+00   1.2390295E-03  -2.4892781E-02   0.0000000E+00   1.2707600E-03  -2.3757787E-02   0.0000000E+00   1.2563209E-03  -2.1954859E-02   0.0000000E+00   1.2687113E-03  -1.9549495E-02   0.0000000E+00   1.3936724E-03  -1.6340770E-02   0.0000000E+00   1.8264593E-03  -2.9583555E-02   0.0000000E+00   1.4872462E-03  -2.9646732E-02   0.0000000E+00   1.6555920E-03  -2.9478880E-02   0.0000000E+00   1.7981748E-03  -2.8941037E-02   0.0000000E+00   1.8848891E-03  -2.7836261E-02   0.0000000E+00   1.9830533E-03  -2.6007922E-02   0.0000000E+00   2.2990704E-03  -2.3530345E-02   0.0000000E+00   3.0975526E-03  -2.0129932E-02   0.0000000E+00   4.5647202E-03  -3.3948258E-02   0.0000000E+00   2.0630350E-03  -3.4071203E-02   0.0000000E+00   2.3285977E-03  -3.3967461E-02   0.0000000E+00   2.5948160E-03  -3.3506460E-02   0.0000000E+00   2.8489793E-03  -3.2510575E-02   0.0000000E+00   3.1978996E-03  -3.0797433E-02   0.0000000E+00   3.9571198E-03  -2.8368579E-02   0.0000000E+00   5.3679976E-03  -2.5095928E-02   0.0000000E+00   7.0788907E-03  -3.8826697E-02   0.0000000E+00   2.7781089E-03  -3.9019499E-02   0.0000000E+00   3.1711098E-03  -3.8996179E-02   0.0000000E+00   3.5932953E-03  -3.8632710E-02   0.0000000E+00   4.0880446E-03  -3.7781611E-02   0.0000000E+00   4.7197398E-03  -3.6267366E-02   0.0000000E+00   5.7629552E-03  -3.4053344E-02   0.0000000E+00   7.2950870E-03  -3.1058554E-02   0.0000000E+00   8.8420287E-03  -4.4269785E-02   0.0000000E+00   3.6086766E-03  -4.4543099E-02   0.0000000E+00   4.1530984E-03  -4.4602513E-02   0.0000000E+00   4.7474322E-03  -4.4339534E-02   0.0000000E+00   5.4421904E-03  -4.3605424E-02   0.0000000E+00   6.3081454E-03  -4.2262968E-02   0.0000000E+00   7.4695451E-03  -4.0255200E-02   0.0000000E+00   8.9215878E-03  -3.7544932E-02   0.0000000E+00   1.0317955E-02  -5.0326638E-02   0.0000000E+00   4.5242766E-03  -5.0685219E-02   0.0000000E+00   5.2212635E-03  -5.0827682E-02   0.0000000E+00   5.9830924E-03  -5.0644517E-02   0.0000000E+00   6.8311403E-03  -4.9975693E-02   0.0000000E+00   7.8380946E-03  -4.8710648E-02   0.0000000E+00   9.0332441E-03  -4.6803322E-02   0.0000000E+00   1.0406840E-02  -4.4253517E-02   0.0000000E+00   1.1737069E-02  -5.7045866E-02   0.0000000E+00   5.4954300E-03  -5.7492334E-02   0.0000000E+00   6.3415500E-03  -5.7713952E-02   0.0000000E+00   7.2509572E-03  -5.7588987E-02   0.0000000E+00   8.2162684E-03  -5.6939408E-02   0.0000000E+00   9.3059232E-03  -5.5660766E-02   0.0000000E+00   1.0514563E-02  -5.3704102E-02   0.0000000E+00   1.1878525E-02  -5.1100008E-02   0.0000000E+00   1.3213297E-02  -6.4478286E-02   0.0000000E+00   6.5113436E-03  -6.5010905E-02   0.0000000E+00   7.4914438E-03  -6.5308481E-02   0.0000000E+00   8.5256072E-03  -6.5227583E-02   0.0000000E+00   9.6003441E-03  -6.4576857E-02   0.0000000E+00   1.0751331E-02  -6.3227162E-02   0.0000000E+00   1.1982240E-02  -6.1117496E-02   0.0000000E+00   1.3393901E-02  -5.8279503E-02   0.0000000E+00   1.4781610E-02  -7.2677337E-02   0.0000000E+00   7.5522698E-03  -7.3290706E-02   0.0000000E+00   8.6682308E-03  -7.3656268E-02   0.0000000E+00   9.8224198E-03  -7.3611692E-02   0.0000000E+00   1.1001459E-02  -7.2950847E-02   0.0000000E+00   1.2217284E-02  -7.1507476E-02   0.0000000E+00   1.3486379E-02  -6.9203705E-02   0.0000000E+00   1.4970967E-02  -6.6059887E-02   0.0000000E+00   1.6453020E-02  -8.1695169E-02   0.0000000E+00   8.6061070E-03  -8.2382992E-02   0.0000000E+00   9.8662786E-03  -8.2809627E-02   0.0000000E+00   1.1153165E-02  -8.2792260E-02   0.0000000E+00   1.2444232E-02  -8.2109317E-02   0.0000000E+00   1.3738744E-02  -8.0558449E-02   0.0000000E+00   1.5063056E-02  -7.8043491E-02   0.0000000E+00   1.6632054E-02  -7.4571207E-02   0.0000000E+00   1.8230682E-02  -9.1585197E-02   0.0000000E+00   9.6682301E-03  -9.2341930E-02   0.0000000E+00   1.1087952E-02  -9.2822842E-02   0.0000000E+00   1.2523985E-02  -9.2823908E-02   0.0000000E+00   1.3947044E-02  -9.2105307E-02   0.0000000E+00   1.5340912E-02  -9.0433449E-02   0.0000000E+00   1.6741157E-02  -8.7691449E-02   0.0000000E+00   1.8399583E-02  -8.3864920E-02   0.0000000E+00   2.0132888E-02  -1.0240185E-01   0.0000000E+00   1.0748638E-02  -1.0322609E-01   0.0000000E+00   1.2341440E-02  -1.0375686E-01   0.0000000E+00   1.3940323E-02  -1.0376900E-01   0.0000000E+00   1.5513101E-02  -1.0300133E-01   0.0000000E+00   1.7030444E-02  -1.0119421E-01   0.0000000E+00   1.8539876E-02  -9.8210439E-02   0.0000000E+00   2.0298446E-02  -9.4006032E-02   0.0000000E+00   2.2172587E-02  -1.1420596E-01   0.0000000E+00   1.1885212E-02  -1.1510000E-01   0.0000000E+00   1.3653311E-02  -1.1568079E-01   0.0000000E+00   1.5413718E-02  -1.1570054E-01   0.0000000E+00   1.7138403E-02  -1.1487564E-01   0.0000000E+00   1.8797716E-02  -1.1292060E-01   0.0000000E+00   2.0465227E-02  -1.0968401E-01   0.0000000E+00   2.2358742E-02  -1.0507996E-01   0.0000000E+00   2.4381895E-02  -1.2706281E-01   0.0000000E+00   1.3157424E-02  -1.2803188E-01   0.0000000E+00   1.5085968E-02  -1.2866816E-01   0.0000000E+00   1.6982289E-02  -1.2869991E-01   0.0000000E+00   1.8832590E-02  -1.2782185E-01   0.0000000E+00   2.0627614E-02  -1.2571774E-01   0.0000000E+00   2.2509025E-02  -1.2223239E-01   0.0000000E+00   2.4611678E-02  -1.1722814E-01   0.0000000E+00   2.6803859E-02  -1.4103293E-01   0.0000000E+00   1.4689647E-02  -1.4208144E-01   0.0000000E+00   1.6751157E-02  -1.4278252E-01   0.0000000E+00   1.8733948E-02  -1.4284424E-01   0.0000000E+00   2.0655185E-02  -1.4193843E-01   0.0000000E+00   2.2533109E-02  -1.3971227E-01   0.0000000E+00   2.4663793E-02  -1.3602318E-01   0.0000000E+00   2.7092930E-02  -1.3068515E-01   0.0000000E+00   2.9492095E-02  -1.5614264E-01   0.0000000E+00   1.6637735E-02  -1.5726952E-01   0.0000000E+00   1.8811753E-02  -1.5804479E-01   0.0000000E+00   2.0829543E-02  -1.5817152E-01   0.0000000E+00   2.2743048E-02  -1.5728532E-01   0.0000000E+00   2.4602899E-02  -1.5501517E-01   0.0000000E+00   2.6963482E-02  -1.5124708E-01   0.0000000E+00   2.9859312E-02  -1.4578140E-01   0.0000000E+00   3.2521613E-02  -1.7232125E-01   0.0000000E+00   1.9155743E-02  -1.7350826E-01   0.0000000E+00   2.1474697E-02  -1.7435575E-01   0.0000000E+00   2.3525909E-02  -1.7457043E-01   0.0000000E+00   2.5348201E-02  -1.7378405E-01   0.0000000E+00   2.7038269E-02  -1.7161120E-01   0.0000000E+00   2.9523974E-02  -1.6800664E-01   0.0000000E+00   3.3015102E-02  -1.6282175E-01   0.0000000E+00   3.6004990E-02  -1.8925862E-01   0.0000000E+00   2.2433219E-02  -1.9046338E-01   0.0000000E+00   2.4950169E-02  -1.9135544E-01   0.0000000E+00   2.7078003E-02  -1.9164854E-01   0.0000000E+00   2.8829807E-02  -1.9103155E-01   0.0000000E+00   3.0220056E-02  -1.8918635E-01   0.0000000E+00   3.2616377E-02  -1.8608363E-01   0.0000000E+00   3.6761429E-02  -1.8177521E-01   0.0000000E+00   4.0128529E-02  -2.0630719E-01   0.0000000E+00   2.6469184E-02  -2.0744172E-01   0.0000000E+00   2.9327651E-02  -2.0827486E-01   0.0000000E+00   3.1659231E-02  -2.0861091E-01   0.0000000E+00   3.3402994E-02  -2.0826378E-01   0.0000000E+00   3.4573227E-02  -2.0691431E-01   0.0000000E+00   3.6791857E-02  -2.0464404E-01   0.0000000E+00   4.1472826E-02  -2.0185935E-01   0.0000000E+00   4.5216195E-02  -2.2241306E-01   0.0000000E+00   3.1223811E-02  -2.2350748E-01   0.0000000E+00   3.4406751E-02  -2.2429450E-01   0.0000000E+00   3.6995653E-02  -2.2465552E-01   0.0000000E+00   3.8949430E-02  -2.2436067E-01   0.0000000E+00   4.0352758E-02  -2.2341990E-01   0.0000000E+00   4.3062836E-02  -2.2231737E-01   0.0000000E+00   4.7779933E-02  -2.2143981E-01   0.0000000E+00   5.1693764E-02  -2.3656993E-01   0.0000000E+00   3.6333714E-02  -2.3768388E-01   0.0000000E+00   3.9845128E-02  -2.3857562E-01   0.0000000E+00   4.2865336E-02  -2.3895711E-01   0.0000000E+00   4.5521960E-02  -2.3896106E-01   0.0000000E+00   4.7580823E-02  -2.3826072E-01   0.0000000E+00   5.1588032E-02  -2.3751786E-01   0.0000000E+00   5.6980208E-02  -2.3844209E-01   0.0000000E+00   6.0373675E-02  -2.4815758E-01   0.0000000E+00   4.1469552E-02  -2.4926059E-01   0.0000000E+00   4.5477398E-02  -2.5034955E-01   0.0000000E+00   4.9254593E-02  -2.5101292E-01   0.0000000E+00   5.3048067E-02  -2.5114962E-01   0.0000000E+00   5.7733800E-02  -2.5043839E-01   0.0000000E+00   6.3885234E-02  -2.4963133E-01   0.0000000E+00   6.9492280E-02  -2.5069648E-01   0.0000000E+00   7.1538828E-02  -2.5653559E-01   0.0000000E+00   4.7007725E-02  -2.5749591E-01   0.0000000E+00   5.1896919E-02  -2.5841770E-01   0.0000000E+00   5.7342038E-02  -2.5877067E-01   0.0000000E+00   6.4346641E-02  -2.5818947E-01   0.0000000E+00   7.3440351E-02  -2.5738898E-01   0.0000000E+00   8.0171570E-02  -2.5615531E-01   0.0000000E+00   8.4985837E-02  -2.5675243E-01   0.0000000E+00   8.4241062E-02  -2.5968650E-01   0.0000000E+00   5.6280214E-02  -2.6040760E-01   0.0000000E+00   6.2664047E-02  -2.6094967E-01   0.0000000E+00   7.0391923E-02  -2.6050672E-01   0.0000000E+00   8.1121229E-02  -2.5887209E-01   0.0000000E+00   9.2884958E-02  -2.5807905E-01   0.0000000E+00   9.6716955E-02  -2.5554377E-01   0.0000000E+00   9.9735826E-02  -2.5219777E-01   0.0000000E+00   9.4467454E-02  -2.5362530E-01   0.0000000E+00   7.3846817E-02  -2.5350776E-01   0.0000000E+00   8.2442366E-02  -2.5305918E-01   0.0000000E+00   9.2896521E-02  -2.5125957E-01   0.0000000E+00   1.0527449E-01  -2.4889152E-01   0.0000000E+00   1.1331887E-01  -2.4870169E-01   0.0000000E+00   1.1025725E-01  -2.3977351E-01   0.0000000E+00   1.1175433E-01  -2.1432079E-01   0.0000000E+00   1.0468887E-01  -2.2532149E-01   0.0000000E+00   1.0397083E-01  -2.2462206E-01   0.0000000E+00   1.1361590E-01  -2.2307447E-01   0.0000000E+00   1.2398305E-01  -2.1988811E-01   0.0000000E+00   1.2947251E-01  -2.1196927E-01   0.0000000E+00   1.2839951E-01  -1.9524422E-01   0.0000000E+00   1.2110236E-01  -1.7009395E-01   0.0000000E+00   1.1980303E-01  -1.4268409E-01   0.0000000E+00   1.1189736E-01  -1.4800228E-01   0.0000000E+00   1.0833064E-01  -1.4661777E-01   0.0000000E+00   1.1725662E-01  -1.4446443E-01   0.0000000E+00   1.2652968E-01  -1.3994324E-01   0.0000000E+00   1.3092211E-01  -1.3135138E-01   0.0000000E+00   1.2948717E-01  -1.1848700E-01   0.0000000E+00   1.2449903E-01  -1.0234123E-01   0.0000000E+00   1.2703270E-01  -8.5291430E-02   0.0000000E+00   1.1571325E-01  -8.5659593E-02   0.0000000E+00   1.0689512E-01  -8.3765984E-02   0.0000000E+00   1.1449627E-01  -8.1425786E-02   0.0000000E+00   1.2242564E-01  -7.7860668E-02   0.0000000E+00   1.2755348E-01  -7.2373725E-02   0.0000000E+00   1.2771568E-01  -6.5005906E-02   0.0000000E+00   1.2611800E-01  -5.6596369E-02   0.0000000E+00   1.3341127E-01  -4.7671810E-02   0.0000000E+00   1.1879685E-01  -3.9809238E-02   0.0000000E+00   1.0447107E-01  -3.8234029E-02   0.0000000E+00   1.1116736E-01  -3.6556963E-02   0.0000000E+00   1.1842695E-01  -3.4526668E-02   0.0000000E+00   1.2425876E-01  -3.2057300E-02   0.0000000E+00   1.2654430E-01  -2.9349601E-02   0.0000000E+00   1.2875091E-01  -2.6719838E-02   0.0000000E+00   1.3745573E-01  -2.3790134E-02   0.0000000E+00   1.2117349E-01  -1.8036456E-03   0.0000000E+00   1.0219391E-01  -7.9424342E-04   0.0000000E+00   1.0859536E-01   1.9831648E-05   0.0000000E+00   1.1597443E-01   5.1049667E-04   0.0000000E+00   1.2325188E-01   3.6449757E-04   0.0000000E+00   1.2715009E-01  -6.9086574E-04   0.0000000E+00   1.3122638E-01  -2.4012439E-03   0.0000000E+00   1.3928065E-01  -4.1129333E-03   0.0000000E+00   1.2255005E-01   3.5774108E-02   0.0000000E+00   1.0046844E-01   3.6496527E-02   0.0000000E+00   1.0708962E-01   3.6850829E-02   0.0000000E+00   1.1504009E-01   3.6312953E-02   0.0000000E+00   1.2426320E-01   3.4131434E-02   0.0000000E+00   1.2930089E-01   3.0052442E-02   0.0000000E+00   1.3268065E-01   2.4793217E-02   0.0000000E+00   1.3929033E-01   1.8866945E-02   0.0000000E+00   1.2282901E-01   7.5903244E-02   0.0000000E+00   9.9080130E-02   7.6877162E-02   0.0000000E+00   1.0613729E-01   7.7448361E-02   0.0000000E+00   1.1468543E-01   7.6634862E-02   0.0000000E+00   1.2509553E-01   7.2981685E-02   0.0000000E+00   1.3035746E-01   6.6421740E-02   0.0000000E+00   1.3220645E-01   5.7805285E-02   0.0000000E+00   1.3754585E-01   4.7601391E-02   0.0000000E+00   1.2190693E-01   1.1748035E-01   0.0000000E+00   9.7472817E-02   1.1920849E-01   0.0000000E+00   1.0493570E-01   1.2059648E-01   0.0000000E+00   1.1387528E-01   1.2015167E-01   0.0000000E+00   1.2466861E-01   1.1545195E-01   0.0000000E+00   1.2952125E-01   1.0666152E-01   0.0000000E+00   1.3002716E-01   9.4795808E-02   0.0000000E+00   1.3462912E-01   8.0125161E-02   0.0000000E+00   1.1996569E-01   1.5769453E-01   0.0000000E+00   9.5080130E-02   1.6045021E-01   0.0000000E+00   1.0276570E-01   1.6296420E-01   0.0000000E+00   1.1182515E-01   1.6317211E-01   0.0000000E+00   1.2246690E-01   1.5769491E-01   0.0000000E+00   1.2686382E-01   1.4676291E-01   0.0000000E+00   1.2667063E-01   1.3167946E-01   0.0000000E+00   1.3081445E-01   1.1294925E-01   0.0000000E+00   1.1755542E-01   1.9390380E-01   0.0000000E+00   9.1544516E-02   1.9768602E-01   0.0000000E+00   9.9216163E-02   2.0130232E-01   0.0000000E+00   1.0814270E-01   2.0181571E-01   0.0000000E+00   1.1793356E-01   1.9549865E-01   0.0000000E+00   1.2239686E-01   1.8293884E-01   0.0000000E+00   1.2264405E-01   1.6470346E-01   0.0000000E+00   1.2626393E-01   1.4314683E-01   0.0000000E+00   1.1492781E-01   2.2102980E-01   0.0000000E+00   8.6826086E-02   2.2661328E-01   0.0000000E+00   9.4318181E-02   2.3221290E-01   0.0000000E+00   1.0286824E-01   2.3326123E-01   0.0000000E+00   1.1115053E-01   2.2591093E-01   0.0000000E+00   1.1609482E-01   2.1229649E-01   0.0000000E+00   1.1756143E-01   1.9170712E-01   0.0000000E+00   1.2142137E-01   1.6885412E-01   0.0000000E+00   1.1204424E-01   2.3103790E-01   0.0000000E+00   8.1483833E-02   2.3781762E-01   0.0000000E+00   8.8950232E-02   2.4545942E-01   0.0000000E+00   9.7170427E-02   2.5167739E-01   0.0000000E+00   1.0445461E-01   2.4818286E-01   0.0000000E+00   1.0844990E-01   2.3396417E-01   0.0000000E+00   1.1139364E-01   2.1191309E-01   0.0000000E+00   1.1629070E-01   1.8899371E-01   0.0000000E+00   1.0891143E-01   2.3315655E-01   0.0000000E+00   7.6175407E-02   2.4037005E-01   0.0000000E+00   8.3630063E-02   2.4857019E-01   0.0000000E+00   9.1480173E-02   2.5672668E-01   0.0000000E+00   9.9136285E-02   2.6027420E-01   0.0000000E+00   1.0202799E-01   2.4980164E-01   0.0000000E+00   1.0474419E-01   2.2739679E-01   0.0000000E+00   1.1085069E-01   2.0496070E-01   0.0000000E+00   1.0516912E-01   2.3267213E-01   0.0000000E+00   7.1423613E-02   2.4016441E-01   0.0000000E+00   7.8644775E-02   2.4868973E-01   0.0000000E+00   8.5785761E-02   2.5759166E-01   0.0000000E+00   9.3282014E-02   2.6413357E-01   0.0000000E+00   9.6619934E-02   2.6108986E-01   0.0000000E+00   9.8050967E-02   2.4092942E-01   0.0000000E+00   1.0473421E-01   2.1949759E-01   0.0000000E+00   1.0014451E-01   2.3099510E-01   0.0000000E+00   6.7059591E-02   2.3877421E-01   0.0000000E+00   7.3668763E-02   2.4762329E-01   0.0000000E+00   8.0458723E-02   2.5700486E-01   0.0000000E+00   8.6862013E-02   2.6496592E-01   0.0000000E+00   9.0079360E-02   2.6743346E-01   0.0000000E+00   9.0946667E-02   2.5336885E-01   0.0000000E+00   9.7791083E-02   2.3456554E-01   0.0000000E+00   9.3852706E-02   2.2855617E-01   0.0000000E+00   6.2837705E-02   2.3664176E-01   0.0000000E+00   6.9263175E-02   2.4595758E-01   0.0000000E+00   7.5471163E-02   2.5583035E-01   0.0000000E+00   8.0563717E-02   2.6478714E-01   0.0000000E+00   8.2950346E-02   2.7047208E-01   0.0000000E+00   8.3224908E-02   2.6618946E-01   0.0000000E+00   9.0182461E-02   2.5137174E-01   0.0000000E+00   8.6259142E-02   2.2546566E-01   0.0000000E+00   5.8851194E-02   2.3408748E-01   0.0000000E+00   6.4716108E-02   2.4394009E-01   0.0000000E+00   6.9865130E-02   2.5454247E-01   0.0000000E+00   7.4120864E-02   2.6440188E-01   0.0000000E+00   7.5847909E-02   2.7253726E-01   0.0000000E+00   7.6141156E-02   2.7881509E-01   0.0000000E+00   8.1162311E-02   2.7278629E-01   0.0000000E+00   7.7988379E-02   2.2189145E-01   0.0000000E+00   5.4664258E-02   2.3119813E-01   0.0000000E+00   5.9750095E-02   2.4172892E-01   0.0000000E+00   6.4011395E-02   2.5322914E-01   0.0000000E+00   6.7449011E-02   2.6401800E-01   0.0000000E+00   6.8823293E-02   2.7478626E-01   0.0000000E+00   6.9234528E-02   2.8617480E-01   0.0000000E+00   7.2856501E-02   2.9273897E-01   0.0000000E+00   7.2488680E-02   2.1808803E-01   0.0000000E+00   5.0237555E-02   2.2797047E-01   0.0000000E+00   5.4121848E-02   2.3957554E-01   0.0000000E+00   5.7655260E-02   2.5198811E-01   0.0000000E+00   6.0749959E-02   2.6338810E-01   0.0000000E+00   6.1456956E-02   2.7570146E-01   0.0000000E+00   6.2058240E-02   2.8943434E-01   0.0000000E+00   6.5267533E-02   2.9865852E-01   0.0000000E+00   6.5821275E-02   2.1414439E-01   0.0000000E+00   4.5007952E-02   2.2501348E-01   0.0000000E+00   4.8166495E-02   2.3764993E-01   0.0000000E+00   5.1167767E-02   2.5064969E-01   0.0000000E+00   5.3272579E-02   2.6223338E-01   0.0000000E+00   5.3215839E-02   2.7480549E-01   0.0000000E+00   5.4424848E-02   2.8932017E-01   0.0000000E+00   5.8099680E-02   2.1063283E-01   0.0000000E+00   3.9321870E-02   2.2252053E-01   0.0000000E+00   4.1947488E-02   2.3589759E-01   0.0000000E+00   4.4281252E-02   2.4907501E-01   0.0000000E+00   4.5452863E-02   2.6043922E-01   0.0000000E+00   4.5240402E-02   2.7326107E-01   0.0000000E+00   4.8049249E-02   2.8621858E-01   0.0000000E+00   5.1741745E-02   2.0779358E-01   0.0000000E+00   3.3581972E-02   2.2055560E-01   0.0000000E+00   3.5830632E-02   2.3436427E-01   0.0000000E+00   3.7853345E-02   2.4726158E-01   0.0000000E+00   3.8443744E-02   2.5840187E-01   0.0000000E+00   3.9295252E-02   2.7136731E-01   0.0000000E+00   4.3426000E-02   2.0573607E-01   0.0000000E+00   2.8182609E-02   2.1922843E-01   0.0000000E+00   3.0501150E-02   2.3314811E-01   0.0000000E+00   3.2387871E-02   2.4544059E-01   0.0000000E+00   3.3120424E-02   2.5722361E-01   0.0000000E+00   3.6054362E-02   2.6766920E-01   0.0000000E+00   3.9722383E-02   2.0473339E-01   0.0000000E+00   2.3994958E-02   2.1915923E-01   0.0000000E+00   2.6843980E-02   2.3273303E-01   0.0000000E+00   2.8827233E-02   2.4428298E-01   0.0000000E+00   3.0620305E-02   2.5477728E-01   0.0000000E+00   3.4359396E-02   2.0575623E-01   0.0000000E+00   2.2107307E-02   2.2004306E-01   0.0000000E+00   2.4907880E-02   2.3286217E-01   0.0000000E+00   2.7631123E-02   2.4188381E-01   0.0000000E+00   2.9816356E-02   2.0692655E-01   0.0000000E+00   2.1193573E-02   2.1931322E-01   0.0000000E+00   2.3962963E-02   2.2986144E-01   0.0000000E+00   2.7080301E-02   2.3375301E-01   0.0000000E+00   2.7116520E-02   2.0447373E-01   0.0000000E+00   1.9630127E-02   2.1408814E-01   0.0000000E+00   2.2361556E-02   1.9751252E-01   0.0000000E+00   1.7411543E-02 
Acec 3 2975 float
  0.0000000E+00   0.0000000E+00   0.0000000E+00   0.0000000E+00   0.0000000E+00   0.0000000E+00   0.0000000E+00   0.0000000E+00   0.0000000E+00   0.0000000E+00   0.0000000E+00   0.0000000E+00   0.0000000E+00   0.0000000E+00   0.0000000E+00   0.0000000E+00   0.0000000E+00   0.0000000E+00   0.0000000E+00   0.0000000E+00   0.0000000E+00   0.0000000E+00   0.0000000E+00   0.0000000E+00   0.0000000E+00   0.0000000E+00   0.0000000E+00   0.0000000E+00   0.0000000E+00   0.0000000E+00   0.0000000E+00   0.0000000E+00   0.0000000E+00   0.0000000E+00   0.0000000E+00   0.0000000E+00   0.0000000E+00   0.0000000E+00   0.0000000E+00   0.0000000E+00   0.0000000E+00   0.0000000E+00   0.0000000E+00   0.0000000E+00   0.0000000E+00   0.0000000E+00   0.0000000E+00   0.0000000E+00   0.0000000E+00   0.0000000E+00   0.0000000E+00   0.0000000E+00   0.0000000E+00   0.0000000E+00   0.0000000E+00   0.0000000E+00   0.0000000E+00   0.0000000E+00   0.0000000E+00   0.0000000E+00   0.0000000E+00   0.0000000E+00   0.0000000E+00   0.0000000E+00   0.0000000E+00   0.0000000E+00   0.0000000E+00   0.0000000E+00   0.0000000E+00   0.0000000E+00   0.0000000E+00   0.0000000E+00   0.0000000E+00   0.0000000E+00   0.0000000E+00   0.0000000E+00   0.0000000E+00   0.0000000E+00   0.0000000E+00   0.0000000E+00   0.0000000E+00   0.0000000E+00   0.0000000E+00   0.0000000E+00   0.0000000E+00   0.0000000E+00   0.0000000E+00   0.0000000E+00   0.0000000E+00   0.0000000E+00   0.0000000E+00   0.0000000E+00   0.0000000E+00   0.0000000E+00   0.0000000E+00   0.0000000E+00   0.0000000E+00   0.0000000E+00   0.0000000E+00   0.0000000E+00   0.0000000E+00   0.0000000E+00   0.0000000E+00   0.0000000E+00   0.0000000E+00   0.0000000E+00   0.0000000E+00   0.0000000E+00   0.0000000E+00   0.0000000E+00   0.0000000E+00   0.0000000E+00   0.0000000E+00   0.0000000E+00   0.0000000E+00   0.0000000E+00   0.0000000E+00   0.0000000E+00   0.0000000E+00   0.0000000E+00   0.0000000E+00   0.0000000E+00   0.0000000E+00   0.0000000E+00   0.0000000E+00   0.0000000E+00   0.0000000E+00   0.0000000E+00   0.0000000E+00   0.0000000E+00   0.0000000E+00   0.0000000E+00   0.0000000E+00   0.0000000E+00   0.0000000E+00   0.0000000E+00   0.0000000E+00   0.0000000E+00   0.0000000E+00   0.0000000E+00   0.0000000E+00   0.0000000E+00   0.0000000E+00   0.0000000E+00   0.0000000E+00   0.0000000E+00   0.0000000E+00   0.0000000E+00   0.0000000E+00   0.0000000E+00   0.0000000E+00   0.0000000E+00   0.0000000E+00   0.0000000E+00   0.0000000E+00   0.0000000E+00   0.0000000E+00   0.0000000E+00   0.0000000E+00   0.0000000E+00   0.0000000E+00   0.0000000E+00   0.0000000E+00   0.0000000E+00   0.0000000E+00   0.0000000E+00   0.0000000E+00   0.0000000E+00   0.0000000E+00   0.0000000E+00   0.0000000E+00   0.0000000E+00   0.0000000E+00   0.0000000E+00   0.0000000E+00   0.0000000E+00   0.0000000E+00   0.0000000E+00   0.0000000E+00   0.0000000E+00   0.0000000E+00   0.0000000E+00   0.0000000E+00   0.0000000E+00   0.0000000E+00   0.0000000E+00   0.0000000E+00   0.0000000E+00   0.0000000E+00   0.0000000E+00   0.0000000E+00   0.0000000E+00   0.0000000E+00   0.0000000E+00   0.0000000E+00   0.0000000E+00   0.0000000E+00   0.0000000E+00   0.0000000E+00   0.0000000E+00   0.0000000E+00   0.0000000E+00   0.0000000E+00   0.0000000E+00   0.0000000E+00   0.0000000E+00   0.0000000E+00   0.0000000E+00   0.0000000E+00   0.0000000E+00   0.0000000E+00   0.0000000E+00   0.0000000E+00   0.0000000E+00   0.0000000E+00   0.0000000E+00   0.0000000E+00   0.0000000E+00   0.0000000E+00   0.0000000E+00   0.0000000E+00   0.0000000E+00   0.0000000E+00   0.0000000E+00   0.0000000E+00   0.0000000E+00   0.0000000E+00   0.0000000E+00   0.0000000E+00   0.0000000E+00   0.0000000E+00   0.0000000E+00   0.0000000E+00   0.0000000E+00   0.0000000E+00   0.0000000E+00   0.0000000E+00   0.0000000E+00   0.0000000E+00   0.0000000E+00   0.0000000E+00   0.0000000E+00   0.0000000E+00   0.0000000E+00   0.0000000E+00   0.0000000E+00   0.0000000E+00   0.0000000E+00   0.0000000E+00   0.0000000E+00   0.0000000E+00   0.0000000E+00   0.0000000E+00   0.0000000E+00   0.0000000E+00   0.0000000E+00   0.0000000E+00   0.0000000E+00   0.0000000E+00   0.0000000E+00   0.0000000E+00   0.0000000E+00   0.0000000E+00   0.0000000E+00   0.0000000E+00   0.0000000E+00   0.0000000E+00   0.0000000E+00   0.0000000E+00   0.0000000E+00   0.0000000E+00   0.0000000E+00   0.0000000E+00   0.0000000E+00   0.0000000E+00   0.0000000E+00   0.0000000E+00   0.0000000E+00   0.0000000E+00   0.0000000E+00   0.0000000E+00   0.0000000E+00   0.0000000E+00   0.0000000E+00   0.0000000E+00   0.0000000E+00   0.0000000E+00   0.0000000E+00   0.0000000E+00   0.0000000E+00   0.0000000E+00   0.0000000E+00   0.0000000E+00   0.0000000E+00   0.0000000E+00   0.0000000E+00   0.0000000E+00   0.0000000E+00   0.0000000E+00   0.0000000E+00   0.0000000E+00   0.0000000E+00   0.0000000E+00   0.0000000E+00   0.0000000E+00   0.0000000E+00   0.0000000E+00   0.0000000E+00   0.0000000E+00   0.0000000E+00   0.0000000E+00   0.0000000E+00   0.0000000E+00   0.0000000E+00   0.0000000E+00   0.0000000E+00   0.0000000E+00   0.0000000E+00   0.0000000E+00   0.0000000E+00   0.0000000E+00   0.0000000E+00   0.0000000E+00   0.0000000E+00   0.0000000E+00   0.0000000E+00   0.0000000E+00   0.0000000E+00   0.0000000E+00   0.0000000E+00   0.0000000E+00   0.0000000E+00   0.0000000E+00   0.0000000E+00   0.0000000E+00   0.0000000E+00   0.0000000E+00   0.0000000E+00   0.0000000E+00   0.0000000E+00   0.0000000E+00   0.0000000E+00   0.0000000E+00   0.0000000E+00   0.0000000E+00   0.0000000E+00   0.0000000E+00   0.0000000E+00   0.0000000E+00   0.0000000E+00   0.0000000E+00   0.0000000E+00   0.0000000E+00   0.0000000E+00   0.0000000E+00   0.0000000E+00   0.0000000E+00   0.0000000E+00   0.0000000E+00   0.0000000E+00   0.0000000E+00   0.0000000E+00   0.0000000E+00   0.0000000E+00   0.0000000E+00   0.0000000E+00   0.0000000E+00   0.0000000E+00   0.0000000E+00   0.0000000E+00   0.0000000E+00   0.0000000E+00   0.0000000E+00   0.0000000E+00   0.0000000E+00   0.0000000E+00   0.0000000E+00   0.0000000E+00   0.0000000E+00   0.0000000E+00   0.0000000E+00   0.0000000E+00   0.0000000E+00   0.0000000E+00   0.0000000E+00   0.0000000E+00   0.0000000E+00   0.0000000E+00   0.0000000E+00   0.0000000E+00   0.0000000E+00   0.0000000E+00   0.0000000E+00   0.0000000E+00   0.0000000E+00   0.0000000E+00   0.0000000E+00   0.0000000E+00   0.0000000E+00   0.0000000E+00   0.0000000E+00   0.0000000E+00   0.0000000E+00   0.0000000E+00   0.0000000E+00   0.0000000E+00   0.0000000E+00   0.0000000E+00   0.0000000E+00   0.0000000E+00   0.0000000E+00   0.0000000E+00   0.0000000E+00   0.0000000E+00   0.0000000E+00   0.0000000E+00   0.0000000E+00   0.0000000E+00   0.0000000E+00   0.0000000E+00   0.0000000E+00   0.0000000E+00   0.0000000E+00   0.0000000E+00   0.0000000E+00   0.0000000E+00   0.0000000E+00   0.0000000E+00   0.0000000E+00   0.0000000E+00   0.0000000E+00   0.0000000E+00   0.0000000E+00   0.0000000E+00   0.0000000E+00   0.0000000E+00   0.0000000E+00   0.0000000E+00   0.0000000E+00   0.0000000E+00   0.0000000E+00   0.0000000E+00   0.0000000E+00   0.0000000E+00   0.0000000E+00   0.0000000E+00   0.0000000E+00   0.0000000E+00   0.0000000E+00   0.0000000E+00   0.0000000E+00   0.0000000E+00   0.0000000E+00   0.0000000E+00   0.0000000E+00   0.0000000E+00   0.0000000E+00   0.0000000E+00   0.0000000E+00   0.0000000E+00   0.0000000E+00   0.0000000E+00   0.0000000E+00   0.0000000E+00   0.0000000E+00   0.0000000E+00   0.0000000E+00   0.0000000E+00   0.0000000E+00   0.0000000E+00   0.0000000E+00   0.0000000E+00   0.0000000E+00   0.0000000E+00   0.0000000E+00   0.0000000E+00   0.0000000E+00   0.0000000E+00   0.0000000E+00   0.0000000E+00   0.0000000E+00   0.0000000E+00   0.0000000E+00   0.0000000E+00   0.0000000E+00   0.0000000E+00   0.0000000E+00   0.0000000E+00   0.0000000E+00   0.0000000E+00   0.0000000E+00   0.0000000E+00   0.0000000E+00   0.0000000E+00   0.0000000E+00   0.0000000E+00   0.0000000E+00   0.0000000E+00   0.0000000E+00   0.0000000E+00   0.0000000E+00   0.0000000E+00   0.0000000E+00   0.0000000E+00   0.0000000E+00   0.0000000E+00   0.0000000E+00   0.0000000E+00   0.0000000E+00   0.0000000E+00   0.0000000E+00   0.0000000E+00   0.0000000E+00   0.0000000E+00   0.0000000E+00   0.0000000E+00   0.0000000E+00   0.0000000E+00   0.0000000E+00   0.0000000E+00   0.0000000E+00   0.0000000E+00   0.0000000E+00   0.0000000E+00   0.0000000E+00   0.0000000E+00   0.0000000E+00   0.0000000E+00   0.0000000E+00   0.0000000E+00   0.0000000E+00   0.0000000E+00   0.0000000E+00   0.0000000E+00   0.0000000E+00   0.0000000E+00   0.0000000E+00   0.0000000E+00   0.0000000E+00   0.0000000E+00   0.0000000E+00   0.0000000E+00   0.0000000E+00   0.0000000E+00   0.0000000E+00   0.0000000E+00   0.0000000E+00   0.0000000E+00   0.0000000E+00   0.0000000E+00   0.0000000E+00   0.0000000E+00   0.0000000E+00   0.0000000E+00   0.0000000E+00   0.0000000E+00   0.0000000E+00   0.0000000E+00   0.0000000E+00   0.0000000E+00   0.0000000E+00   0.0000000E+00   0.0000000E+00   0.0000000E+00   0.0000000E+00   0.0000000E+00   0.0000000E+00   0.0000000E+00   0.0000000E+00   0.0000000E+00   0.0000000E+00   0.0000000E+00   0.0000000E+00   0.0000000E+00   0.0000000E+00   0.0000000E+00   0.0000000E+00   0.0000000E+00   0.0000000E+00   0.0000000E+00   0.0000000E+00   0.0000000E+00   0.0000000E+00   0.0000000E+00   0.0000000E+00   0.0000000E+00   0.0000000E+00   0.0000000E+00   0.0000000E+00   0.0000000E+00   0.0000000E+00   0.0000000E+00   0.0000000E+00   0.0000000E+00   0.0000000E+00   0.0000000E+00   0.0000000E+00   0.0000000E+00   0.0000000E+00   0.0000000E+00   0.0000000E+00   0.0000000E+00   0.0000000E+00   0.0000000E+00   0.0000000E+00   0.0000000E+00   0.0000000E+00   0.0000000E+00   0.0000000E+00   0.0000000E+00   0.0000000E+00   0.0000000E+00   0.0000000E+00   0.0000000E+00   0.0000000E+00   0.0000000E+00   0.0000000E+00   0.0000000E+00   0.0000000E+00   0.0000000E+00   0.0000000E+00   0.0000000E+00   0.0000000E+00   0.0000000E+00   0.0000000E+00   0.0000000E+00   0.0000000E+00   0.0000000E+00   0.0000000E+00   0.0000000E+00   0.0000000E+00   0.0000000E+00   0.0000000E+00   0.0000000E+00   0.0000000E+00   0.0000000E+00   0.0000000E+00   0.0000000E+00   0.0000000E+00   0.0000000E+00   0.0000000E+00   0.0000000E+00   0.0000000E+00   0.0000000E+00   0.0000000E+00   0.0000000E+00   0.0000000E+00   0.0000000E+00   0.0000000E+00   0.0000000E+00   0.0000000E+00   0.0000000E+00   0.0000000E+00   0.0000000E+00   0.0000000E+00   0.0000000E+00   0.0000000E+00   0.0000000E+00   0.0000000E+00   0.0000000E+00   0.0000000E+00   0.0000000E+00   0.0000000E+00   0.0000000E+00   0.0000000E+00   0.0000000E+00   0.0000000E+00   0.0000000E+00   0.0000000E+00   0.0000000E+00   0.0000000E+00   0.0000000E+00   0.0000000E+00   0.0000000E+00   0.0000000E+00   0.0000000E+00   0.0000000E+00   0.0000000E+00   0.0000000E+00   0.0000000E+00   0.0000000E+00   0.0000000E+00   0.0000000E+00   0.0000000E+00   0.0000000E+00   0.0000000E+00   0.0000000E+00   0.0000000E+00   0.0000000E+00   0.0000000E+00   0.0000000E+00   0.0000000E+00   0.0000000E+00   0.0000000E+00   0.0000000E+00   0.0000000E+00   0.0000000E+00   0.0000000E+00   0.0000000E+00   0.0000000E+00   0.0000000E+00   0.0000000E+00   0.0000000E+00   0.0000000E+00   0.0000000E+00   0.0000000E+00   0.0000000E+00   0.0000000E+00   0.0000000E+00   0.0000000E+00   0.0000000E+00   0.0000000E+00   0.0000000E+00   0.0000000E+00   0.0000000E+00   0.0000000E+00   0.0000000E+00   0.0000000E+00   0.0000000E+00   0.0000000E+00   0.0000000E+00   0.0000000E+00   0.0000000E+00   0.0000000E+00   0.0000000E+00   0.0000000E+00   0.0000000E+00   0.0000000E+00   0.0000000E+00   0.0000000E+00   0.0000000E+00   0.0000000E+00   0.0000000E+00   0.0000000E+00   0.0000000E+00   0.0000000E+00   0.0000000E+00   0.0000000E+00   0.0000000E+00   0.0000000E+00   0.0000000E+00   0.0000000E+00   0.0000000E+00   0.0000000E+00   0.0000000E+00   0.0000000E+00   0.0000000E+00   0.0000000E+00   0.0000000E+00   0.0000000E+00   0.0000000E+00   0.0000000E+00   0.0000000E+00   0.0000000E+00   0.0000000E+00   0.0000000E+00   0.0000000E+00   0.0000000E+00   0.0000000E+00   0.0000000E+00   0.0000000E+00   0.0000000E+00   0.0000000E+00   0.0000000E+00   0.0000000E+00   0.0000000E+00   0.0000000E+00   0.0000000E+00   0.0000000E+00   0.0000000E+00   0.0000000E+00   0.0000000E+00   0.0000000E+00   0.0000000E+00   0.0000000E+00   0.0000000E+00   0.0000000E+00   0.0000000E+00   0.0000000E+00   0.0000000E+00   0.0000000E+00   0.0000000E+00   0.0000000E+00   0.0000000E+00   0.0000000E+00   0.0000000E+00   0.0000000E+00   0.0000000E+00   0.0000000E+00   0.0000000E+00   0.0000000E+00   0.0000000E+00   0.0000000E+00   0.0000000E+00   0.0000000E+00   0.0000000E+00   0.0000000E+00   0.0000000E+00   0.0000000E+00   0.0000000E+00   0.0000000E+00   0.0000000E+00   0.0000000E+00   0.0000000E+00   0.0000000E+00   0.0000000E+00   0.0000000E+00   0.0000000E+00   0.0000000E+00   0.0000000E+00   0.0000000E+00   0.0000000E+00   0.0000000E+00   0.0000000E+00   0.0000000E+00   0.0000000E+00   0.0000000E+00   0.0000000E+00   0.0000000E+00   0.0000000E+00   0.0000000E+00   0.0000000E+00   0.0000000E+00   0.0000000E+00   0.0000000E+00   0.0000000E+00   0.0000000E+00   0.0000000E+00   0.0000000E+00   0.0000000E+00   0.0000000E+00   0.0000000E+00   0.0000000E+00   0.0000000E+00   0.0000000E+00   0.0000000E+00   0.0000000E+00   0.0000000E+00   0.0000000E+00   0.0000000E+00   0.0000000E+00   0.0000000E+00   0.0000000E+00   0.0000000E+00   0.0000000E+00   0.0000000E+00   0.0000000E+00   0.0000000E+00   0.0000000E+00   0.0000000E+00   0.0000000E+00   0.0000000E+00   0.0000000E+00   0.0000000E+00   0.0000000E+00   0.0000000E+00   0.0000000E+00   0.0000000E+00   0.0000000E+00   0.0000000E+00   0.0000000E+00   0.0000000E+00   0.0000000E+00   0.0000000E+00   0.0000000E+00   0.0000000E+00   0.0000000E+00   0.0000000E+00   0.0000000E+00   0.0000000E+00   0.0000000E+00   0.0000000E+00   0.0000000E+00   0.0000000E+00   0.0000000E+00   0.0000000E+00   0.0000000E+00   0.0000000E+00   0.0000000E+00   0.0000000E+00   0.0000000E+00   0.0000000E+00   0.0000000E+00   0.0000000E+00   0.0000000E+00   0.0000000E+00   0.0000000E+00   0.0000000E+00   0.0000000E+00   0.0000000E+00   0.0000000E+00   0.0000000E+00   0.0000000E+00   0.0000000E+00   0.0000000E+00   0.0000000E+00   0.0000000E+00   0.0000000E+00   0.0000000E+00   0.0000000E+00   0.0000000E+00   0.0000000E+00   0.0000000E+00   0.0000000E+00   0.0000000E+00   0.0000000E+00   0.0000000E+00   0.0000000E+00   0.0000000E+00   0.0000000E+00   0.0000000E+00   0.0000000E+00   0.0000000E+00   0.0000000E+00   0.0000000E+00   0.0000000E+00   0.0000000E+00   0.0000000E+00   0.0000000E+00   0.0000000E+00   0.0000000E+00   0.0000000E+00   0.0000000E+00   0.0000000E+00   0.0000000E+00   0.0000000E+00   0.0000000E+00   0.0000000E+00   0.0000000E+00   0.0000000E+00   0.0000000E+00   0.0000000E+00   0.0000000E+00   0.0000000E+00   0.0000000E+00   0.0000000E+00   0.0000000E+00   0.0000000E+00   0.0000000E+00   0.0000000E+00   0.0000000E+00   0.0000000E+00   0.0000000E+00   0.0000000E+00   0.0000000E+00   0.0000000E+00   0.0000000E+00   0.0000000E+00   0.0000000E+00   0.0000000E+00   0.0000000E+00   0.0000000E+00   0.0000000E+00   0.0000000E+00   0.0000000E+00   0.0000000E+00   0.0000000E+00   0.0000000E+00   0.0000000E+00   0.0000000E+00   0.0000000E+00   0.0000000E+00   0.0000000E+00   0.0000000E+00   0.0000000E+00   0.0000000E+00   0.0000000E+00   0.0000000E+00   0.0000000E+00   0.0000000E+00   0.0000000E+00   0.0000000E+00   0.0000000E+00   0.0000000E+00   0.0000000E+00   0.0000000E+00   0.0000000E+00   0.0000000E+00   0.0000000E+00   0.0000000E+00   0.0000000E+00   0.0000000E+00   0.0000000E+00   0.0000000E+00   0.0000000E+00   0.0000000E+00   0.0000000E+00   0.0000000E+00   0.0000000E+00   0.0000000E+00   0.0000000E+00   0.0000000E+00   0.0000000E+00   0.0000000E+00   0.0000000E+00   0.0000000E+00   0.0000000E+00   0.0000000E+00   0.0000000E+00   0.0000000E+00   0.0000000E+00   0.0000000E+00   0.0000000E+00   0.0000000E+00   0.0000000E+00   0.0000000E+00   0.0000000E+00   0.0000000E+00   0.0000000E+00   0.0000000E+00   0.0000000E+00   0.0000000E+00   0.0000000E+00   0.0000000E+00   0.0000000E+00   0.0000000E+00   0.0000000E+00   0.0000000E+00   0.0000000E+00   0.0000000E+00   0.0000000E+00   0.0000000E+00   0.0000000E+00   0.0000000E+00   0.0000000E+00   0.0000000E+00   0.0000000E+00   0.0000000E+00   0.0000000E+00   0.0000000E+00   0.0000000E+00   0.0000000E+00   0.0000000E+00   0.0000000E+00   0.0000000E+00   0.0000000E+00   0.0000000E+00   0.0000000E+00   0.0000000E+00   0.0000000E+00   0.0000000E+00   0.0000000E+00   0.0000000E+00   0.0000000E+00   0.0000000E+00   0.0000000E+00   0.0000000E+00   0.0000000E+00   0.0000000E+00   0.0000000E+00   0.0000000E+00   0.0000000E+00   0.0000000E+00   0.0000000E+00   0.0000000E+00   0.0000000E+00   0.0000000E+00   0.0000000E+00   0.0000000E+00   0.0000000E+00   0.0000000E+00   0.0000000E+00   0.0000000E+00   0.0000000E+00   0.0000000E+00   0.0000000E+00   0.0000000E+00   0.0000000E+00   0.0000000E+00   0.0000000E+00   0.0000000E+00   0.0000000E+00   0.0000000E+00   0.0000000E+00   0.0000000E+00   0.0000000E+00   0.0000000E+00   0.0000000E+00   0.0000000E+00   0.0000000E+00   0.0000000E+00   0.0000000E+00   0.0000000E+00   0.0000000E+00   0.0000000E+00   0.0000000E+00   0.0000000E+00   0.0000000E+00   0.0000000E+00   0.0000000E+00   0.0000000E+00   0.0000000E+00   0.0000000E+00   0.0000000E+00   0.0000000E+00   0.0000000E+00   0.0000000E+00   0.0000000E+00   0.0000000E+00   0.0000000E+00   0.0000000E+00   0.0000000E+00   0.0000000E+00   0.0000000E+00   0.0000000E+00   0.0000000E+00   0.0000000E+00   0.0000000E+00   0.0000000E+00   0.0000000E+00   0.0000000E+00   0.0000000E+00   0.0000000E+00   0.0000000E+00   0.0000000E+00   0.0000000E+00   0.0000000E+00   0.0000000E+00   0.0000000E+00   0.0000000E+00   0.0000000E+00   0.0000000E+00   0.0000000E+00   0.0000000E+00   0.0000000E+00   0.0000000E+00   0.0000000E+00   0.0000000E+00   0.0000000E+00   0.0000000E+00   0.0000000E+00   0.0000000E+00   0.0000000E+00   0.0000000E+00   0.0000000E+00   0.0000000E+00   0.0000000E+00   0.0000000E+00   0.0000000E+00   0.0000000E+00   0.0000000E+00   0.0000000E+00   0.0000000E+00   0.0000000E+00   0.0000000E+00   0.0000000E+00   0.0000000E+00   0.0000000E+00   0.0000000E+00   0.0000000E+00   0.0000000E+00   0.0000000E+00   0.0000000E+00   0.0000000E+00   0.0000000E+00   0.0000000E+00   0.0000000E+00   0.0000000E+00   0.0000000E+00   0.0000000E+00   0.0000000E+00   0.0000000E+00   0.0000000E+00   0.0000000E+00   0.0000000E+00   0.0000000E+00   0.0000000E+00   0.0000000E+00   0.0000000E+00   0.0000000E+00   0.0000000E+00   0.0000000E+00   0.0000000E+00   0.0000000E+00   0.0000000E+00   0.0000000E+00   0.0000000E+00   0.0000000E+00   0.0000000E+00   0.0000000E+00   0.0000000E+00   0.0000000E+00   0.0000000E+00   0.0000000E+00   0.0000000E+00   0.0000000E+00   0.0000000E+00   0.0000000E+00   0.0000000E+00   0.0000000E+00   0.0000000E+00   0.0000000E+00   0.0000000E+00   0.0000000E+00   0.0000000E+00   0.0000000E+00   0.0000000E+00   0.0000000E+00   0.0000000E+00   0.0000000E+00   0.0000000E+00   0.0000000E+00   0.0000000E+00   0.0000000E+00   0.0000000E+00   0.0000000E+00   0.0000000E+00   0.0000000E+00   0.0000000E+00   0.0000000E+00   0.0000000E+00   0.0000000E+00   0.0000000E+00   0.0000000E+00   0.0000000E+00   0.0000000E+00   0.0000000E+00   0.0000000E+00   0.0000000E+00   0.0000000E+00   0.0000000E+00   0.0000000E+00   0.0000000E+00   0.0000000E+00   0.0000000E+00   0.0000000E+00   0.0000000E+00   0.0000000E+00   0.0000000E+00   0.0000000E+00   0.0000000E+00   0.0000000E+00   0.0000000E+00   0.0000000E+00   0.0000000E+00   0.0000000E+00   0.0000000E+00   0.0000000E+00   0.0000000E+00   0.0000000E+00   0.0000000E+00   0.0000000E+00   0.0000000E+00   0.0000000E+00   0.0000000E+00   0.0000000E+00   0.0000000E+00   0.0000000E+00   0.0000000E+00   0.0000000E+00   0.0000000E+00   0.0000000E+00   0.0000000E+00   0.0000000E+00   0.0000000E+00   0.0000000E+00   0.0000000E+00   0.0000000E+00   0.0000000E+00   0.0000000E+00   0.0000000E+00   0.0000000E+00   0.0000000E+00   0.0000000E+00   0.0000000E+00   0.0000000E+00   0.0000000E+00   0.0000000E+00   0.0000000E+00   0.0000000E+00   0.0000000E+00   0.0000000E+00   0.0000000E+00   0.0000000E+00   0.0000000E+00   0.0000000E+00   0.0000000E+00   0.0000000E+00   0.0000000E+00   0.0000000E+00   0.0000000E+00   0.0000000E+00   0.0000000E+00   0.0000000E+00   0.0000000E+00   0.0000000E+00   0.0000000E+00   0.0000000E+00   0.0000000E+00   0.0000000E+00   0.0000000E+00   0.0000000E+00   0.0000000E+00   0.0000000E+00   0.0000000E+00   0.0000000E+00   0.0000000E+00   0.0000000E+00   0.0000000E+00   0.0000000E+00   0.0000000E+00   0.0000000E+00   0.0000000E+00   0.0000000E+00   0.0000000E+00   0.0000000E+00   0.0000000E+00   0.0000000E+00   0.0000000E+00   0.0000000E+00   0.0000000E+00   0.0000000E+00   0.0000000E+00   0.0000000E+00   0.0000000E+00   0.0000000E+00   0.0000000E+00   0.0000000E+00   0.0000000E+00   0.0000000E+00   0.0000000E+00   0.0000000E+00   0.0000000E+00   0.0000000E+00   0.0000000E+00   0.0000000E+00   0.0000000E+00   0.0000000E+00   0.0000000E+00   0.0000000E+00   0.0000000E+00   0.0000000E+00   0.0000000E+00   0.0000000E+00   0.0000000E+00   0.0000000E+00   0.0000000E+00   0.0000000E+00   0.0000000E+00   0.0000000E+00   0.0000000E+00   0.0000000E+00   0.0000000E+00   0.0000000E+00   0.0000000E+00   0.0000000E+00   0.0000000E+00   0.0000000E+00   0.0000000E+00   0.0000000E+00   0.0000000E+00   0.0000000E+00   0.0000000E+00   0.0000000E+00   0.0000000E+00   0.0000000E+00   0.0000000E+00   0.0000000E+00   0.0000000E+00   0.0000000E+00   0.0000000E+00   0.0000000E+00   0.0000000E+00   0.0000000E+00   0.0000000E+00   0.0000000E+00   0.0000000E+00   0.0000000E+00   0.0000000E+00   0.0000000E+00   0.0000000E+00   0.0000000E+00   0.0000000E+00   0.0000000E+00   0.0000000E+00   0.0000000E+00   0.0000000E+00   0.0000000E+00   0.0000000E+00   0.0000000E+00   0.0000000E+00   0.0000000E+00   0.0000000E+00   0.0000000E+00   0.0000000E+00   0.0000000E+00   0.0000000E+00   0.0000000E+00   0.0000000E+00   0.0000000E+00   0.0000000E+00   0.0000000E+00   0.0000000E+00   0.0000000E+00   0.0000000E+00   0.0000000E+00   0.0000000E+00   0.0000000E+00   0.0000000E+00   0.0000000E+00   0.0000000E+00   0.0000000E+00   0.0000000E+00   0.0000000E+00   0.0000000E+00   0.0000000E+00   0.0000000E+00   0.0000000E+00   0.0000000E+00   0.0000000E+00   0.0000000E+00   0.0000000E+00   0.0000000E+00   0.0000000E+00   0.0000000E+00   0.0000000E+00   0.0000000E+00   0.0000000E+00   0.0000000E+00   0.0000000E+00   0.0000000E+00   0.0000000E+00   0.0000000E+00   0.0000000E+00   0.0000000E+00   0.0000000E+00   0.0000000E+00   0.0000000E+00   0.0000000E+00   0.0000000E+00   0.0000000E+00   0.0000000E+00   0.0000000E+00   0.0000000E+00   0.0000000E+00   0.0000000E+00   0.0000000E+00   0.0000000E+00   0.0000000E+00   0.0000000E+00   0.0000000E+00   0.0000000E+00   0.0000000E+00   0.0000000E+00   0.0000000E+00   0.0000000E+00   0.0000000E+00   0.0000000E+00   0.0000000E+00   0.0000000E+00   0.0000000E+00   0.0000000E+00   0.0000000E+00   0.0000000E+00   0.0000000E+00   0.0000000E+00   0.0000000E+00   0.0000000E+00   0.0000000E+00   0.0000000E+00   0.0000000E+00   0.0000000E+00   0.0000000E+00   0.0000000E+00   0.0000000E+00   0.0000000E+00   0.0000000E+00   0.0000000E+00   0.0000000E+00   0.0000000E+00   0.0000000E+00   0.0000000E+00   0.0000000E+00   0.0000000E+00   0.0000000E+00   0.0000000E+00   0.0000000E+00   0.0000000E+00   0.0000000E+00   0.0000000E+00   0.0000000E+00   0.0000000E+00   0.0000000E+00   0.0000000E+00   0.0000000E+00   0.0000000E+00   0.0000000E+00   0.0000000E+00   0.0000000E+00   0.0000000E+00   0.0000000E+00   0.0000000E+00   0.0000000E+00   0.0000000E+00   0.0000000E+00   0.0000000E+00   0.0000000E+00   0.0000000E+00   0.0000000E+00   0.0000000E+00   0.0000000E+00   0.0000000E+00   0.0000000E+00   0.0000000E+00   0.0000000E+00   0.0000000E+00   0.0000000E+00   0.0000000E+00   0.0000000E+00   0.0000000E+00   0.0000000E+00   0.0000000E+00   0.0000000E+00   0.0000000E+00   0.0000000E+00   0.0000000E+00   0.0000000E+00   0.0000000E+00   0.0000000E+00   0.0000000E+00   0.0000000E+00   0.0000000E+00   0.0000000E+00   0.0000000E+00   0.0000000E+00   0.0000000E+00   0.0000000E+00   0.0000000E+00   0.0000000E+00   0.0000000E+00   0.0000000E+00   0.0000000E+00   0.0000000E+00   0.0000000E+00   0.0000000E+00   0.0000000E+00   0.0000000E+00   0.0000000E+00   0.0000000E+00   0.0000000E+00   0.0000000E+00   0.0000000E+00   0.0000000E+00   0.0000000E+00   0.0000000E+00   0.0000000E+00   0.0000000E+00   0.0000000E+00   0.0000000E+00   0.0000000E+00   0.0000000E+00   0.0000000E+00   0.0000000E+00   0.0000000E+00   0.0000000E+00   0.0000000E+00   0.0000000E+00   0.0000000E+00   0.0000000E+00   0.0000000E+00   0.0000000E+00   0.0000000E+00   0.0000000E+00   0.0000000E+00   0.0000000E+00   0.0000000E+00   0.0000000E+00   0.0000000E+00   0.0000000E+00   0.0000000E+00   0.0000000E+00   0.0000000E+00   0.0000000E+00   0.0000000E+00   0.0000000E+00   0.0000000E+00   0.0000000E+00   0.0000000E+00   0.0000000E+00   0.0000000E+00   0.0000000E+00   0.0000000E+00   0.0000000E+00   0.0000000E+00   0.0000000E+00   0.0000000E+00   0.0000000E+00   0.0000000E+00   0.0000000E+00   0.0000000E+00   0.0000000E+00   0.0000000E+00   0.0000000E+00   0.0000000E+00   0.0000000E+00   0.0000000E+00   0.0000000E+00   0.0000000E+00   0.0000000E+00   0.0000000E+00   0.0000000E+00   0.0000000E+00   0.0000000E+00   0.0000000E+00   0.0000000E+00   0.0000000E+00   0.0000000E+00   0.0000000E+00   0.0000000E+00   0.0000000E+00   0.0000000E+00   0.0000000E+00   0.0000000E+00   0.0000000E+00   0.0000000E+00   0.0000000E+00   0.0000000E+00   0.0000000E+00   0.0000000E+00   0.0000000E+00   0.0000000E+00   0.0000000E+00   0.0000000E+00   0.0000000E+00   0.0000000E+00   0.0000000E+00   0.0000000E+00   0.0000000E+00   0.0000000E+00   0.0000000E+00   0.0000000E+00   0.0000000E+00   0.0000000E+00   0.0000000E+00   0.0000000E+00   0.0000000E+00   0.0000000E+00   0.0000000E+00   0.0000000E+00   0.0000000E+00   0.0000000E+00   0.0000000E+00   0.0000000E+00   0.0000000E+00   0.0000000E+00   0.0000000E+00   0.0000000E+00   0.0000000E+00   0.0000000E+00   0.0000000E+00   0.0000000E+00   0.0000000E+00   0.0000000E+00   0.0000000E+00   0.0000000E+00   0.0000000E+00   0.0000000E+00   0.0000000E+00   0.0000000E+00   0.0000000E+00   0.0000000E+00   0.0000000E+00   0.0000000E+00   0.0000000E+00   0.0000000E+00   0.0000000E+00   0.0000000E+00   0.0000000E+00   0.0000000E+00   0.0000000E+00   0.0000000E+00   0.0000000E+00   0.0000000E+00   0.0000000E+00   0.0000000E+00   0.0000000E+00   0.0000000E+00   0.0000000E+00   0.0000000E+00   0.0000000E+00   0.0000000E+00   0.0000000E+00   0.0000000E+00   0.0000000E+00   0.0000000E+00   0.0000000E+00   0.0000000E+00   0.0000000E+00   0.0000000E+00   0.0000000E+00   0.0000000E+00   0.0000000E+00   0.0000000E+00   0.0000000E+00   0.0000000E+00   0.0000000E+00   0.0000000E+00   0.0000000E+00   0.0000000E+00   0.0000000E+00   0.0000000E+00   0.0000000E+00   0.0000000E+00   0.0000000E+00   0.0000000E+00   0.0000000E+00   0.0000000E+00   0.0000000E+00   0.0000000E+00   0.0000000E+00   0.0000000E+00   0.0000000E+00   0.0000000E+00   0.0000000E+00   0.0000000E+00   0.0000000E+00   0.0000000E+00   0.0000000E+00   0.0000000E+00   0.0000000E+00   0.0000000E+00   0.0000000E+00   0.0000000E+00   0.0000000E+00   0.0000000E+00   0.0000000E+00   0.0000000E+00   0.0000000E+00   0.0000000E+00   0.0000000E+00   0.0000000E+00   0.0000000E+00   0.0000000E+00   0.0000000E+00   0.0000000E+00   0.0000000E+00   0.0000000E+00   0.0000000E+00   0.0000000E+00   0.0000000E+00   0.0000000E+00   0.0000000E+00   0.0000000E+00   0.0000000E+00   0.0000000E+00   0.0000000E+00   0.0000000E+00   0.0000000E+00   0.0000000E+00   0.0000000E+00   0.0000000E+00   0.0000000E+00   0.0000000E+00   0.0000000E+00   0.0000000E+00   0.0000000E+00   0.0000000E+00   0.0000000E+00   0.0000000E+00   0.0000000E+00   0.0000000E+00   0.0000000E+00   0.0000000E+00   0.0000000E+00   0.0000000E+00   0.0000000E+00   0.0000000E+00   0.0000000E+00   0.0000000E+00   0.0000000E+00   0.0000000E+00   0.0000000E+00   0.0000000E+00   0.0000000E+00   0.0000000E+00   0.0000000E+00   0.0000000E+00   0.0000000E+00   0.0000000E+00   0.0000000E+00   0.0000000E+00   0.0000000E+00   0.0000000E+00   0.0000000E+00   0.0000000E+00   0.0000000E+00   0.0000000E+00   0.0000000E+00   0.0000000E+00   0.0000000E+00   0.0000000E+00   0.0000000E+00   0.0000000E+00   0.0000000E+00   0.0000000E+00   0.0000000E+00   0.0000000E+00   0.0000000E+00   0.0000000E+00   0.0000000E+00   0.0000000E+00   0.0000000E+00   0.0000000E+00   0.0000000E+00   0.0000000E+00   0.0000000E+00   0.0000000E+00   0.0000000E+00   0.0000000E+00   0.0000000E+00   0.0000000E+00   0.0000000E+00   0.0000000E+00   0.0000000E+00   0.0000000E+00   0.0000000E+00   0.0000000E+00   0.0000000E+00   0.0000000E+00   0.0000000E+00   0.0000000E+00   0.0000000E+00   0.0000000E+00   0.0000000E+00   0.0000000E+00   0.0000000E+00   0.0000000E+00   0.0000000E+00   0.0000000E+00   0.0000000E+00   0.0000000E+00   0.0000000E+00   0.0000000E+00   0.0000000E+00   0.0000000E+00   0.0000000E+00   0.0000000E+00   0.0000000E+00   0.0000000E+00   0.0000000E+00   0.0000000E+00   0.0000000E+00   0.0000000E+00   0.0000000E+00   0.0000000E+00   0.0000000E+00   0.0000000E+00   0.0000000E+00   0.0000000E+00   0.0000000E+00   0.0000000E+00   0.0000000E+00   0.0000000E+00   0.0000000E+00   0.0000000E+00   0.0000000E+00   0.0000000E+00   0.0000000E+00   0.0000000E+00   0.0000000E+00   0.0000000E+00   0.0000000E+00   0.0000000E+00   0.0000000E+00   0.0000000E+00   0.0000000E+00   0.0000000E+00   0.0000000E+00   0.0000000E+00   0.0000000E+00   0.0000000E+00   0.0000000E+00   0.0000000E+00   0.0000000E+00   0.0000000E+00   0.0000000E+00   0.0000000E+00   0.0000000E+00   0.0000000E+00   0.0000000E+00   0.0000000E+00   0.0000000E+00   0.0000000E+00   0.0000000E+00   0.0000000E+00   0.0000000E+00   0.0000000E+00   0.0000000E+00   0.0000000E+00   0.0000000E+00   0.0000000E+00   0.0000000E+00   0.0000000E+00   0.0000000E+00   0.0000000E+00   0.0000000E+00   0.0000000E+00   0.0000000E+00   0.0000000E+00   0.0000000E+00   0.0000000E+00   0.0000000E+00   0.0000000E+00   0.0000000E+00   0.0000000E+00   0.0000000E+00   0.0000000E+00   0.0000000E+00   0.0000000E+00   0.0000000E+00   0.0000000E+00   0.0000000E+00   0.0000000E+00   0.0000000E+00   0.0000000E+00   0.0000000E+00   0.0000000E+00   0.0000000E+00   0.0000000E+00   0.0000000E+00   0.0000000E+00   0.0000000E+00   0.0000000E+00   0.0000000E+00   0.0000000E+00   0.0000000E+00   0.0000000E+00   0.0000000E+00   0.0000000E+00   0.0000000E+00   0.0000000E+00   0.0000000E+00   0.0000000E+00   0.0000000E+00   0.0000000E+00   0.0000000E+00   0.0000000E+00   0.0000000E+00   0.0000000E+00   0.0000000E+00   0.0000000E+00   0.0000000E+00   0.0000000E+00   0.0000000E+00   0.0000000E+00   0.0000000E+00   0.0000000E+00   0.0000000E+00   0.0000000E+00   0.0000000E+00   0.0000000E+00   0.0000000E+00   0.0000000E+00   0.0000000E+00   0.0000000E+00   0.0000000E+00   0.0000000E+00   0.0000000E+00   0.0000000E+00   0.0000000E+00   0.0000000E+00   0.0000000E+00   0.0000000E+00   0.0000000E+00   0.0000000E+00   0.0000000E+00   0.0000000E+00   0.0000000E+00   0.0000000E+00   0.0000000E+00   0.0000000E+00   0.0000000E+00   0.0000000E+00   0.0000000E+00   0.0000000E+00   0.0000000E+00   0.0000000E+00   0.0000000E+00   0.0000000E+00   0.0000000E+00   0.0000000E+00   0.0000000E+00   0.0000000E+00   0.0000000E+00   0.0000000E+00   0.0000000E+00   0.0000000E+00   0.0000000E+00   0.0000000E+00   0.0000000E+00   0.0000000E+00   0.0000000E+00   0.0000000E+00   0.0000000E+00   0.0000000E+00   0.0000000E+00   0.0000000E+00   0.0000000E+00   0.0000000E+00   0.0000000E+00   0.0000000E+00   0.0000000E+00   0.0000000E+00   0.0000000E+00   0.0000000E+00   0.0000000E+00   0.0000000E+00   0.0000000E+00   0.0000000E+00   0.0000000E+00   0.0000000E+00   0.0000000E+00   0.0000000E+00   0.0000000E+00   0.0000000E+00   0.0000000E+00   0.0000000E+00   0.0000000E+00   0.0000000E+00   0.0000000E+00   0.0000000E+00   0.0000000E+00   0.0000000E+00   0.0000000E+00   0.0000000E+00   0.0000000E+00   0.0000000E+00   0.0000000E+00   0.0000000E+00   0.0000000E+00   0.0000000E+00   0.0000000E+00   0.0000000E+00   0.0000000E+00   0.0000000E+00   0.0000000E+00   0.0000000E+00   0.0000000E+00   0.0000000E+00   0.0000000E+00   0.0000000E+00   0.0000000E+00   0.0000000E+00   0.0000000E+00   0.0000000E+00   0.0000000E+00   0.0000000E+00   0.0000000E+00   0.0000000E+00   0.0000000E+00   0.0000000E+00   0.0000000E+00   0.0000000E+00   0.0000000E+00   0.0000000E+00   0.0000000E+00   0.0000000E+00   0.0000000E+00   0.0000000E+00   0.0000000E+00   0.0000000E+00   0.0000000E+00   0.0000000E+00   0.0000000E+00   0.0000000E+00   0.0000000E+00   0.0000000E+00   0.0000000E+00   0.0000000E+00   0.0000000E+00   0.0000000E+00   0.0000000E+00   0.0000000E+00   0.0000000E+00   0.0000000E+00   0.0000000E+00   0.0000000E+00   0.0000000E+00   0.0000000E+00   0.0000000E+00   0.0000000E+00   0.0000000E+00   0.0000000E+00   0.0000000E+00   0.0000000E+00   0.0000000E+00   0.0000000E+00   0.0000000E+00   0.0000000E+00   0.0000000E+00   0.0000000E+00   0.0000000E+00   0.0000000E+00   0.0000000E+00   0.0000000E+00   0.0000000E+00   0.0000000E+00   0.0000000E+00   0.0000000E+00   0.0000000E+00   0.0000000E+00   0.0000000E+00   0.0000000E+00   0.0000000E+00   0.0000000E+00   0.0000000E+00   0.0000000E+00   0.0000000E+00   0.0000000E+00   0.0000000E+00   0.0000000E+00   0.0000000E+00   0.0000000E+00   0.0000000E+00   0.0000000E+00   0.0000000E+00   0.0000000E+00   0.0000000E+00   0.0000000E+00   0.0000000E+00   0.0000000E+00   0.0000000E+00   0.0000000E+00   0.0000000E+00   0.0000000E+00   0.0000000E+00   0.0000000E+00   0.0000000E+00   0.0000000E+00   0.0000000E+00   0.0000000E+00   0.0000000E+00   0.0000000E+00   0.0000000E+00   0.0000000E+00   0.0000000E+00   0.0000000E+00   0.0000000E+00   0.0000000E+00   0.0000000E+00   0.0000000E+00   0.0000000E+00   0.0000000E+00   0.0000000E+00   0.0000000E+00   0.0000000E+00   0.0000000E+00   0.0000000E+00   0.0000000E+00   0.0000000E+00   0.0000000E+00   0.0000000E+00   0.0000000E+00   0.0000000E+00   0.0000000E+00   0.0000000E+00   0.0000000E+00   0.0000000E+00   0.0000000E+00   0.0000000E+00   0.0000000E+00   0.0000000E+00   0.0000000E+00   0.0000000E+00   0.0000000E+00   0.0000000E+00   0.0000000E+00   0.0000000E+00   0.0000000E+00   0.0000000E+00   0.0000000E+00   0.0000000E+00   0.0000000E+00   0.0000000E+00   0.0000000E+00   0.0000000E+00   0.0000000E+00   0.0000000E+00   0.0000000E+00   0.0000000E+00   0.0000000E+00   0.0000000E+00   0.0000000E+00   0.0000000E+00   0.0000000E+00   0.0000000E+00   0.0000000E+00   0.0000000E+00   0.0000000E+00   0.0000000E+00   0.0000000E+00   0.0000000E+00   0.0000000E+00   0.0000000E+00   0.0000000E+00   0.0000000E+00   0.0000000E+00   0.0000000E+00   0.0000000E+00   0.0000000E+00   0.0000000E+00   0.0000000E+00   0.0000000E+00   0.0000000E+00   0.0000000E+00   0.0000000E+00   0.0000000E+00   0.0000000E+00   0.0000000E+00   0.0000000E+00   0.0000000E+00   0.0000000E+00   0.0000000E+00   0.0000000E+00   0.0000000E+00   0.0000000E+00   0.0000000E+00   0.0000000E+00   0.0000000E+00   0.0000000E+00   0.0000000E+00   0.0000000E+00   0.0000000E+00   0.0000000E+00   0.0000000E+00   0.0000000E+00   0.0000000E+00   0.0000000E+00   0.0000000E+00   0.0000000E+00   0.0000000E+00   0.0000000E+00   0.0000000E+00   0.0000000E+00   0.0000000E+00   0.0000000E+00   0.0000000E+00   0.0000000E+00   0.0000000E+00   0.0000000E+00   0.0000000E+00   0.0000000E+00   0.0000000E+00   0.0000000E+00   0.0000000E+00   0.0000000E+00   0.0000000E+00   0.0000000E+00   0.0000000E+00   0.0000000E+00   0.0000000E+00   0.0000000E+00   0.0000000E+00   0.0000000E+00   0.0000000E+00   0.0000000E+00   0.0000000E+00   0.0000000E+00   0.0000000E+00   0.0000000E+00   0.0000000E+00   0.0000000E+00   0.0000000E+00   0.0000000E+00   0.0000000E+00   0.0000000E+00   0.0000000E+00   0.0000000E+00   0.0000000E+00   0.0000000E+00   0.0000000E+00   0.0000000E+00   0.0000000E+00   0.0000000E+00   0.0000000E+00   0.0000000E+00   0.0000000E+00   0.0000000E+00   0.0000000E+00   0.0000000E+00   0.0000000E+00   0.0000000E+00   0.0000000E+00   0.0000000E+00   0.0000000E+00   0.0000000E+00   0.0000000E+00   0.0000000E+00   0.0000000E+00   0.0000000E+00   0.0000000E+00   0.0000000E+00   0.0000000E+00   0.0000000E+00   0.0000000E+00   0.0000000E+00   0.0000000E+00   0.0000000E+00   0.0000000E+00   0.0000000E+00   0.0000000E+00   0.0000000E+00   0.0000000E+00   0.0000000E+00   0.0000000E+00   0.0000000E+00   0.0000000E+00   0.0000000E+00   0.0000000E+00   0.0000000E+00   0.0000000E+00   0.0000000E+00   0.0000000E+00   0.0000000E+00   0.0000000E+00   0.0000000E+00   0.0000000E+00   0.0000000E+00   0.0000000E+00   0.0000000E+00   0.0000000E+00   0.0000000E+00   0.0000000E+00   0.0000000E+00   0.0000000E+00   0.0000000E+00   0.0000000E+00   0.0000000E+00   0.0000000E+00   0.0000000E+00   0.0000000E+00   0.0000000E+00   0.0000000E+00   0.0000000E+00   0.0000000E+00   0.0000000E+00   0.0000000E+00   0.0000000E+00   0.0000000E+00   0.0000000E+00   0.0000000E+00   0.0000000E+00   0.0000000E+00   0.0000000E+00   0.0000000E+00   0.0000000E+00   0.0000000E+00   0.0000000E+00   0.0000000E+00   0.0000000E+00   0.0000000E+00   0.0000000E+00   0.0000000E+00   0.0000000E+00   0.0000000E+00   0.0000000E+00   0.0000000E+00   0.0000000E+00   0.0000000E+00   0.0000000E+00   0.0000000E+00   0.0000000E+00   0.0000000E+00   0.0000000E+00   0.0000000E+00   0.0000000E+00   0.0000000E+00   0.0000000E+00   0.0000000E+00   0.0000000E+00   0.0000000E+00   0.0000000E+00   0.0000000E+00   0.0000000E+00   0.0000000E+00   0.0000000E+00   0.0000000E+00   0.0000000E+00   0.0000000E+00   0.0000000E+00   0.0000000E+00   0.0000000E+00   0.0000000E+00   0.0000000E+00   0.0000000E+00   0.0000000E+00   0.0000000E+00   0.0000000E+00   0.0000000E+00   0.0000000E+00   0.0000000E+00   0.0000000E+00   0.0000000E+00   0.0000000E+00   0.0000000E+00   0.0000000E+00   0.0000000E+00   0.0000000E+00   0.0000000E+00   0.0000000E+00   0.0000000E+00   0.0000000E+00   0.0000000E+00   0.0000000E+00   0.0000000E+00   0.0000000E+00   0.0000000E+00   0.0000000E+00   0.0000000E+00   0.0000000E+00   0.0000000E+00   0.0000000E+00   0.0000000E+00   0.0000000E+00   0.0000000E+00   0.0000000E+00   0.0000000E+00   0.0000000E+00   0.0000000E+00   0.0000000E+00   0.0000000E+00   0.0000000E+00   0.0000000E+00   0.0000000E+00   0.0000000E+00   0.0000000E+00   0.0000000E+00   0.0000000E+00   0.0000000E+00   0.0000000E+00   0.0000000E+00   0.0000000E+00   0.0000000E+00   0.0000000E+00   0.0000000E+00   0.0000000E+00   0.0000000E+00   0.0000000E+00   0.0000000E+00   0.0000000E+00   0.0000000E+00   0.0000000E+00   0.0000000E+00   0.0000000E+00   0.0000000E+00   0.0000000E+00   0.0000000E+00   0.0000000E+00   0.0000000E+00   0.0000000E+00   0.0000000E+00   0.0000000E+00   0.0000000E+00   0.0000000E+00   0.0000000E+00   0.0000000E+00   0.0000000E+00   0.0000000E+00   0.0000000E+00   0.0000000E+00   0.0000000E+00   0.0000000E+00   0.0000000E+00   0.0000000E+00   0.0000000E+00   0.0000000E+00   0.0000000E+00   0.0000000E+00   0.0000000E+00   0.0000000E+00   0.0000000E+00   0.0000000E+00   0.0000000E+00   0.0000000E+00   0.0000000E+00   0.0000000E+00   0.0000000E+00   0.0000000E+00   0.0000000E+00   0.0000000E+00   0.0000000E+00   0.0000000E+00   0.0000000E+00   0.0000000E+00   0.0000000E+00   0.0000000E+00   0.0000000E+00   0.0000000E+00   0.0000000E+00   0.0000000E+00   0.0000000E+00   0.0000000E+00   0.0000000E+00   0.0000000E+00   0.0000000E+00   0.0000000E+00   0.0000000E+00   0.0000000E+00   0.0000000E+00   0.0000000E+00   0.0000000E+00   0.0000000E+00   0.0000000E+00   0.0000000E+00   0.0000000E+00   0.0000000E+00   0.0000000E+00   0.0000000E+00   0.0000000E+00   0.0000000E+00   0.0000000E+00   0.0000000E+00   0.0000000E+00   0.0000000E+00   0.0000000E+00   0.0000000E+00   0.0000000E+00   0.0000000E+00   0.0000000E+00   0.0000000E+00   0.0000000E+00   0.0000000E+00   0.0000000E+00   0.0000000E+00   0.0000000E+00   0.0000000E+00   0.0000000E+00   0.0000000E+00   0.0000000E+00   0.0000000E+00   0.0000000E+00   0.0000000E+00   0.0000000E+00   0.0000000E+00   0.0000000E+00   0.0000000E+00   0.0000000E+00   0.0000000E+00   0.0000000E+00   0.0000000E+00   0.0000000E+00   0.0000000E+00   0.0000000E+00   0.0000000E+00   0.0000000E+00   0.0000000E+00   0.0000000E+00   0.0000000E+00   0.0000000E+00   0.0000000E+00   0.0000000E+00   0.0000000E+00   0.0000000E+00   0.0000000E+00   0.0000000E+00   0.0000000E+00   0.0000000E+00   0.0000000E+00   0.0000000E+00   0.0000000E+00   0.0000000E+00   0.0000000E+00   0.0000000E+00   0.0000000E+00   0.0000000E+00   0.0000000E+00   0.0000000E+00   0.0000000E+00   0.0000000E+00   0.0000000E+00   0.0000000E+00   0.0000000E+00   0.0000000E+00   0.0000000E+00   0.0000000E+00   0.0000000E+00   0.0000000E+00   0.0000000E+00   0.0000000E+00   0.0000000E+00   0.0000000E+00   0.0000000E+00   0.0000000E+00   0.0000000E+00   0.0000000E+00   0.0000000E+00   0.0000000E+00   0.0000000E+00   0.0000000E+00   0.0000000E+00   0.0000000E+00   0.0000000E+00   0.0000000E+00   0.0000000E+00   0.0000000E+00   0.0000000E+00   0.0000000E+00   0.0000000E+00   0.0000000E+00   0.0000000E+00   0.0000000E+00   0.0000000E+00   0.0000000E+00   0.0000000E+00   0.0000000E+00   0.0000000E+00   0.0000000E+00   0.0000000E+00   0.0000000E+00   0.0000000E+00   0.0000000E+00   0.0000000E+00   0.0000000E+00   0.0000000E+00   0.0000000E+00   0.0000000E+00   0.0000000E+00   0.0000000E+00   0.0000000E+00   0.0000000E+00   0.0000000E+00   0.0000000E+00   0.0000000E+00   0.0000000E+00   0.0000000E+00   0.0000000E+00   0.0000000E+00   0.0000000E+00   0.0000000E+00   0.0000000E+00   0.0000000E+00   0.0000000E+00   0.0000000E+00   0.0000000E+00   0.0000000E+00   0.0000000E+00   0.0000000E+00   0.0000000E+00   0.0000000E+00   0.0000000E+00   0.0000000E+00   0.0000000E+00   0.0000000E+00   0.0000000E+00   0.0000000E+00   0.0000000E+00   0.0000000E+00   0.0000000E+00   0.0000000E+00   0.0000000E+00   0.0000000E+00   0.0000000E+00   0.0000000E+00   0.0000000E+00   0.0000000E+00   0.0000000E+00   0.0000000E+00   0.0000000E+00   0.0000000E+00   0.0000000E+00   0.0000000E+00   0.0000000E+00   0.0000000E+00   0.0000000E+00   0.0000000E+00   0.0000000E+00   0.0000000E+00   0.0000000E+00   0.0000000E+00   0.0000000E+00   0.0000000E+00   0.0000000E+00   0.0000000E+00   0.0000000E+00   0.0000000E+00   0.0000000E+00   0.0000000E+00   0.0000000E+00   0.0000000E+00   0.0000000E+00   0.0000000E+00   0.0000000E+00   0.0000000E+00   0.0000000E+00   0.0000000E+00   0.0000000E+00   0.0000000E+00   0.0000000E+00   0.0000000E+00   0.0000000E+00   0.0000000E+00   0.0000000E+00   0.0000000E+00   0.0000000E+00   0.0000000E+00   0.0000000E+00   0.0000000E+00   0.0000000E+00   0.0000000E+00   0.0000000E+00   0.0000000E+00   0.0000000E+00   0.0000000E+00   0.0000000E+00   0.0000000E+00   0.0000000E+00   0.0000000E+00   0.0000000E+00   0.0000000E+00   0.0000000E+00   0.0000000E+00   0.0000000E+00   0.0000000E+00   0.0000000E+00   0.0000000E+00   0.0000000E+00   0.0000000E+00   0.0000000E+00   0.0000000E+00   0.0000000E+00   0.0000000E+00   0.0000000E+00   0.0000000E+00   0.0000000E+00   0.0000000E+00   0.0000000E+00   0.0000000E+00   0.0000000E+00   0.0000000E+00   0.0000000E+00   0.0000000E+00   0.0000000E+00   0.0000000E+00   0.0000000E+00   0.0000000E+00   0.0000000E+00   0.0000000E+00   0.0000000E+00   0.0000000E+00   0.0000000E+00   0.0000000E+00   0.0000000E+00   0.0000000E+00   0.0000000E+00   0.0000000E+00   0.0000000E+00   0.0000000E+00   0.0000000E+00   0.0000000E+00   0.0000000E+00   0.0000000E+00   0.0000000E+00   0.0000000E+00   0.0000000E+00   0.0000000E+00   0.0000000E+00   0.0000000E+00   0.0000000E+00   0.0000000E+00   0.0000000E+00   0.0000000E+00   0.0000000E+00   0.0000000E+00   0.0000000E+00   0.0000000E+00   0.0000000E+00   0.0000000E+00   0.0000000E+00   0.0000000E+00   0.0000000E+00   0.0000000E+00   0.0000000E+00   0.0000000E+00   0.0000000E+00   0.0000000E+00   0.0000000E+00   0.0000000E+00   0.0000000E+00   0.0000000E+00   0.0000000E+00   0.0000000E+00   0.0000000E+00   0.0000000E+00   0.0000000E+00   0.0000000E+00   0.0000000E+00   0.0000000E+00   0.0000000E+00   0.0000000E+00   0.0000000E+00   0.0000000E+00   0.0000000E+00   0.0000000E+00   0.0000000E+00   0.0000000E+00   0.0000000E+00   0.0000000E+00   0.0000000E+00   0.0000000E+00   0.0000000E+00   0.0000000E+00   0.0000000E+00   0.0000000E+00   0.0000000E+00   0.0000000E+00   0.0000000E+00   0.0000000E+00   0.0000000E+00   0.0000000E+00   0.0000000E+00   0.0000000E+00   0.0000000E+00   0.0000000E+00   0.0000000E+00   0.0000000E+00   0.0000000E+00   0.0000000E+00   0.0000000E+00   0.0000000E+00   0.0000000E+00   0.0000000E+00   0.0000000E+00   0.0000000E+00   0.0000000E+00   0.0000000E+00   0.0000000E+00   0.0000000E+00   0.0000000E+00   0.0000000E+00   0.0000000E+00   0.0000000E+00   0.0000000E+00   0.0000000E+00   0.0000000E+00   0.0000000E+00   0.0000000E+00   0.0000000E+00   0.0000000E+00   0.0000000E+00   0.0000000E+00   0.0000000E+00   0.0000000E+00   0.0000000E+00   0.0000000E+00   0.0000000E+00   0.0000000E+00   0.0000000E+00   0.0000000E+00   0.0000000E+00   0.0000000E+00   0.0000000E+00   0.0000000E+00   0.0000000E+00   0.0000000E+00   0.0000000E+00   0.0000000E+00   0.0000000E+00   0.0000000E+00   0.0000000E+00   0.0000000E+00   0.0000000E+00   0.0000000E+00   0.0000000E+00   0.0000000E+00   0.0000000E+00   0.0000000E+00   0.0000000E+00   0.0000000E+00   0.0000000E+00   0.0000000E+00   0.0000000E+00   0.0000000E+00   0.0000000E+00   0.0000000E+00   0.0000000E+00   0.0000000E+00   0.0000000E+00   0.0000000E+00   0.0000000E+00   0.0000000E+00   0.0000000E+00   0.0000000E+00   0.0000000E+00   0.0000000E+00   0.0000000E+00   0.0000000E+00   0.0000000E+00   0.0000000E+00   0.0000000E+00   0.0000000E+00   0.0000000E+00   0.0000000E+00   0.0000000E+00   0.0000000E+00   0.0000000E+00   0.0000000E+00   0.0000000E+00   0.0000000E+00   0.0000000E+00   0.0000000E+00   0.0000000E+00   0.0000000E+00   0.0000000E+00   0.0000000E+00   0.0000000E+00   0.0000000E+00   0.0000000E+00   0.0000000E+00   0.0000000E+00   0.0000000E+00   0.0000000E+00   0.0000000E+00   0.0000000E+00   0.0000000E+00   0.0000000E+00   0.0000000E+00   0.0000000E+00   0.0000000E+00   0.0000000E+00   0.0000000E+00   0.0000000E+00   0.0000000E+00   0.0000000E+00   0.0000000E+00   0.0000000E+00   0.0000000E+00   0.0000000E+00   0.0000000E+00   0.0000000E+00   0.0000000E+00   0.0000000E+00   0.0000000E+00   0.0000000E+00   0.0000000E+00   0.0000000E+00   0.0000000E+00   0.0000000E+00   0.0000000E+00   0.0000000E+00   0.0000000E+00   0.0000000E+00   0.0000000E+00   0.0000000E+00   0.0000000E+00   0.0000000E+00   0.0000000E+00   0.0000000E+00   0.0000000E+00   0.0000000E+00   0.0000000E+00   0.0000000E+00   0.0000000E+00   0.0000000E+00   0.0000000E+00   0.0000000E+00   0.0000000E+00   0.0000000E+00   0.0000000E+00   0.0000000E+00   0.0000000E+00   0.0000000E+00   0.0000000E+00   0.0000000E+00   0.0000000E+00   0.0000000E+00   0.0000000E+00   0.0000000E+00   0.0000000E+00   0.0000000E+00   0.0000000E+00   0.0000000E+00   0.0000000E+00   0.0000000E+00   0.0000000E+00   0.0000000E+00   0.0000000E+00   0.0000000E+00   0.0000000E+00   0.0000000E+00   0.0000000E+00   0.0000000E+00   0.0000000E+00   0.0000000E+00   0.0000000E+00   0.0000000E+00   0.0000000E+00   0.0000000E+00   0.0000000E+00   0.0000000E+00   0.0000000E+00   0.0000000E+00   0.0000000E+00   0.0000000E+00   0.0000000E+00   0.0000000E+00   0.0000000E+00   0.0000000E+00   0.0000000E+00   0.0000000E+00   0.0000000E+00   0.0000000E+00   0.0000000E+00   0.0000000E+00   0.0000000E+00   0.0000000E+00   0.0000000E+00   0.0000000E+00   0.0000000E+00   0.0000000E+00   0.0000000E+00   0.0000000E+00   0.0000000E+00   0.0000000E+00   0.0000000E+00   0.0000000E+00   0.0000000E+00   0.0000000E+00   0.0000000E+00   0.0000000E+00   0.0000000E+00   0.0000000E+00   0.0000000E+00   0.0000000E+00   0.0000000E+00   0.0000000E+00   0.0000000E+00   0.0000000E+00   0.0000000E+00   0.0000000E+00   0.0000000E+00   0.0000000E+00   0.0000000E+00   0.0000000E+00   0.0000000E+00   0.0000000E+00   0.0000000E+00   0.0000000E+00   0.0000000E+00   0.0000000E+00   0.0000000E+00   0.0000000E+00   0.0000000E+00   0.0000000E+00   0.0000000E+00   0.0000000E+00   0.0000000E+00   0.0000000E+00   0.0000000E+00   0.0000000E+00   0.0000000E+00   0.0000000E+00   0.0000000E+00   0.0000000E+00   0.0000000E+00   0.0000000E+00   0.0000000E+00   0.0000000E+00   0.0000000E+00   0.0000000E+00   0.0000000E+00   0.0000000E+00   0.0000000E+00   0.0000000E+00   0.0000000E+00   0.0000000E+00   0.0000000E+00   0.0000000E+00   0.0000000E+00   0.0000000E+00   0.0000000E+00   0.0000000E+00   0.0000000E+00   0.0000000E+00   0.0000000E+00   0.0000000E+00   0.0000000E+00   0.0000000E+00   0.0000000E+00   0.0000000E+00   0.0000000E+00   0.0000000E+00   0.0000000E+00   0.0000000E+00   0.0000000E+00   0.0000000E+00   0.0000000E+00   0.0000000E+00   0.0000000E+00   0.0000000E+00   0.0000000E+00   0.0000000E+00   0.0000000E+00   0.0000000E+00  -1.0860441E+00   0.0000000E+00  -4.2485476E-01  -1.2724881E+00   0.0000000E+00  -3.9368427E-01  -1.4270425E+00   0.0000000E+00  -3.4835303E-01  -1.5519156E+00   0.0000000E+00  -2.9842049E-01  -1.6490698E+00   0.0000000E+00  -2.4922889E-01  -1.0509577E+00   0.0000000E+00  -5.5090284E-01  -1.3885169E+00   0.0000000E+00  -4.7629499E-01  -1.6426339E+00   0.0000000E+00  -4.4839406E-01  -1.8372583E+00   0.0000000E+00  -4.0474725E-01  -1.9892011E+00   0.0000000E+00  -3.5293388E-01  -2.1064835E+00   0.0000000E+00  -2.9895276E-01  -1.3882732E+00   0.0000000E+00  -5.6561136E-01  -1.8025546E+00   0.0000000E+00  -4.9390054E-01  -2.1048470E+00   0.0000000E+00  -4.5300102E-01  -2.3355508E+00   0.0000000E+00  -4.0748405E-01  -2.5136523E+00   0.0000000E+00  -3.6073565E-01  -2.6526632E+00   0.0000000E+00  -3.0920237E-01  -1.7981601E+00   0.0000000E+00  -5.6128407E-01  -2.2951922E+00   0.0000000E+00  -4.7588563E-01  -2.6379874E+00   0.0000000E+00  -4.3431520E-01  -2.8946602E+00   0.0000000E+00  -3.9253259E-01  -3.0968475E+00   0.0000000E+00  -3.4940130E-01  -3.2557421E+00   0.0000000E+00  -3.0239964E-01  -2.2786627E+00   0.0000000E+00  -5.5698633E-01  -2.8653612E+00   0.0000000E+00  -4.4553900E-01  -3.2485223E+00   0.0000000E+00  -4.0221047E-01  -3.5296836E+00   0.0000000E+00  -3.6321878E-01  -3.7504449E+00   0.0000000E+00  -3.2770425E-01  -3.9278553E+00   0.0000000E+00  -2.8597158E-01  -2.8443379E+00   0.0000000E+00  -5.6193542E-01  -3.5301712E+00   0.0000000E+00  -4.0969419E-01  -3.9528809E+00   0.0000000E+00  -3.6034513E-01  -4.2547221E+00   0.0000000E+00  -3.2516754E-01  -4.4918051E+00   0.0000000E+00  -2.9781163E-01  -4.6845698E+00   0.0000000E+00  -2.6344150E-01  -3.5146604E+00   0.0000000E+00  -5.9300184E-01  -4.3074889E+00   0.0000000E+00  -3.7917709E-01  -4.7642307E+00   0.0000000E+00  -3.1561542E-01  -5.0777655E+00   0.0000000E+00  -2.8596187E-01  -5.3294702E+00   0.0000000E+00  -2.6437306E-01  -5.5332260E+00   0.0000000E+00  -2.4006774E-01  -4.3120117E+00   0.0000000E+00  -6.7086983E-01  -5.2105107E+00   0.0000000E+00  -3.7189817E-01  -5.6878271E+00   0.0000000E+00  -2.8482199E-01  -6.0114026E+00   0.0000000E+00  -2.4841428E-01  -6.2638474E+00   0.0000000E+00  -2.4071163E-01  -6.4755855E+00   0.0000000E+00  -2.2489893E-01  -5.2901583E+00   0.0000000E+00  -7.6241875E-01  -6.2523942E+00   0.0000000E+00  -3.9253521E-01  -6.7209949E+00   0.0000000E+00  -2.8926373E-01  -7.0468683E+00   0.0000000E+00  -2.3981071E-01  -7.2999592E+00   0.0000000E+00  -2.3755896E-01  -7.5118337E+00   0.0000000E+00  -2.3329496E-01  -6.5634527E+00   0.0000000E+00  -7.3773479E-01  -7.4615808E+00   0.0000000E+00  -4.1309261E-01  -7.8894286E+00   0.0000000E+00  -3.1281328E-01  -8.1889553E+00   0.0000000E+00  -2.7091861E-01  -8.4331541E+00   0.0000000E+00  -2.8009760E-01  -8.6422300E+00   0.0000000E+00  -2.8385210E-01  -8.2246552E+00   0.0000000E+00  -5.8395576E-01  -8.8891649E+00   0.0000000E+00  -4.2317390E-01  -9.2118893E+00   0.0000000E+00  -3.5172462E-01  -9.4499397E+00   0.0000000E+00  -3.4692073E-01  -9.6697588E+00   0.0000000E+00  -3.7355113E-01  -9.8652735E+00   0.0000000E+00  -3.9244053E-01  -1.0041782E+01   0.0000000E+00  -8.6815643E-01  -1.0541780E+01   0.0000000E+00  -5.8765888E-01  -1.0684149E+01   0.0000000E+00  -4.9551535E-01  -1.0831671E+01   0.0000000E+00  -5.0343919E-01  -1.1010668E+01   0.0000000E+00  -5.3414023E-01  -1.1182030E+01   0.0000000E+00  -5.7073843E-01  -1.2091084E+01   0.0000000E+00  -2.4538059E+00  -1.2399329E+01   0.0000000E+00  -1.5011463E+00  -1.2354038E+01   0.0000000E+00  -9.8883820E-01  -1.2358274E+01   0.0000000E+00  -8.4137177E-01  -1.2456512E+01   0.0000000E+00  -8.1660688E-01  -1.2593342E+01   0.0000000E+00  -8.3677697E-01  -1.4709635E+01   0.0000000E+00  -3.7735558E+00  -1.4576530E+01   0.0000000E+00  -2.6518888E+00  -1.4238262E+01   0.0000000E+00  -1.8074846E+00  -1.4037041E+01   0.0000000E+00  -1.4029717E+00  -1.4012940E+01   0.0000000E+00  -1.2602553E+00  -1.4110054E+01   0.0000000E+00  -1.2012113E+00  -1.7781548E+01   0.0000000E+00  -4.6457205E+00  -1.7071487E+01   0.0000000E+00  -3.5141211E+00  -1.6311035E+01   0.0000000E+00  -2.6261511E+00  -1.5839994E+01   0.0000000E+00  -2.0886559E+00  -1.5685641E+01   0.0000000E+00  -1.8264471E+00  -1.5732173E+01   0.0000000E+00  -1.6555481E+00  -2.1006004E+01   0.0000000E+00  -5.3462925E+00  -1.9660212E+01   0.0000000E+00  -4.2233906E+00  -1.8464956E+01   0.0000000E+00  -3.3440545E+00  -1.7727430E+01   0.0000000E+00  -2.7526164E+00  -1.7444857E+01   0.0000000E+00  -2.4011135E+00  -1.7453869E+01   0.0000000E+00  -2.1695721E+00  -2.4191965E+01   0.0000000E+00  -6.0038867E+00  -2.2253002E+01   0.0000000E+00  -4.8424745E+00  -2.0651220E+01   0.0000000E+00  -3.9640961E+00  -1.9679235E+01   0.0000000E+00  -3.3498640E+00  -1.9294941E+01   0.0000000E+00  -2.9498272E+00  -1.9273664E+01   0.0000000E+00  -2.6781242E+00  -2.7277714E+01   0.0000000E+00  -6.6642900E+00  -2.4844362E+01   0.0000000E+00  -5.4170918E+00  -2.2879559E+01   0.0000000E+00  -4.5091176E+00  -2.1698215E+01   0.0000000E+00  -3.8695815E+00  -2.1223576E+01   0.0000000E+00  -3.4512837E+00  -2.1178696E+01   0.0000000E+00  -3.1747983E+00  -3.0364748E+01   0.0000000E+00  -7.3351197E+00  -2.7490965E+01   0.0000000E+00  -5.9896312E+00  -2.5185228E+01   0.0000000E+00  -4.9995813E+00  -2.3793037E+01   0.0000000E+00  -4.3264270E+00  -2.3230453E+01   0.0000000E+00  -3.8997669E+00  -2.3175396E+01   0.0000000E+00  -3.6091237E+00  -3.3581009E+01   0.0000000E+00  -8.0120153E+00  -3.0254330E+01   0.0000000E+00  -6.5364704E+00  -2.7588907E+01   0.0000000E+00  -5.4431653E+00  -2.5970240E+01   0.0000000E+00  -4.7365479E+00  -2.5312691E+01   0.0000000E+00  -4.2956786E+00  -2.5246321E+01   0.0000000E+00  -3.9929318E+00  -3.6977886E+01   0.0000000E+00  -8.6552057E+00  -3.3144817E+01   0.0000000E+00  -7.0519114E+00  -3.0084866E+01   0.0000000E+00  -5.8523855E+00  -2.8222965E+01   0.0000000E+00  -5.0988231E+00  -2.7458824E+01   0.0000000E+00  -4.6336393E+00  -2.7388031E+01   0.0000000E+00  -4.3448582E+00  -4.0536049E+01   0.0000000E+00  -9.2924643E+00  -3.6155838E+01   0.0000000E+00  -7.5278130E+00  -3.2665981E+01   0.0000000E+00  -6.2130685E+00  -3.0541559E+01   0.0000000E+00  -5.4105473E+00  -2.9662849E+01   0.0000000E+00  -4.9306726E+00  -2.9588926E+01   0.0000000E+00  -4.6474619E+00  -4.4257771E+01   0.0000000E+00  -9.8968954E+00  -3.9281071E+01   0.0000000E+00  -7.9467673E+00  -3.5322189E+01   0.0000000E+00  -6.5152059E+00  -3.2913876E+01   0.0000000E+00  -5.6593342E+00  -3.1914223E+01   0.0000000E+00  -5.1702552E+00  -3.1839249E+01   0.0000000E+00  -4.8863807E+00  -4.8144264E+01   0.0000000E+00  -1.0451853E+01  -4.2517109E+01   0.0000000E+00  -8.2920513E+00  -3.8045807E+01   0.0000000E+00  -6.7413664E+00  -3.5328106E+01   0.0000000E+00  -5.8293285E+00  -3.4200485E+01   0.0000000E+00  -5.3249450E+00  -3.4128944E+01   0.0000000E+00  -5.0401716E+00  -5.2213428E+01   0.0000000E+00  -1.0940495E+01  -4.5870476E+01   0.0000000E+00  -8.5362244E+00  -4.0835278E+01   0.0000000E+00  -6.8651114E+00  -3.7777607E+01   0.0000000E+00  -5.8940616E+00  -3.6513107E+01   0.0000000E+00  -5.3642550E+00  -3.6448441E+01   0.0000000E+00  -5.0818229E+00  -5.6523991E+01   0.0000000E+00  -1.1341734E+01  -4.9364891E+01   0.0000000E+00  -8.6516323E+00  -4.3697693E+01   0.0000000E+00  -6.8495178E+00  -4.0264278E+01   0.0000000E+00  -5.8104424E+00  -3.8853004E+01   0.0000000E+00  -5.2834477E+00  -3.8790390E+01   0.0000000E+00  -4.9845042E+00  -6.1173504E+01   0.0000000E+00  -1.1638328E+01  -5.3038532E+01   0.0000000E+00  -8.6091204E+00  -4.6645309E+01   0.0000000E+00  -6.6529255E+00  -4.2787235E+01   0.0000000E+00  -5.5361090E+00  -4.1212116E+01   0.0000000E+00  -5.0073714E+00  -4.1147598E+01   0.0000000E+00  -4.7349639E+00  -6.6258057E+01   0.0000000E+00  -1.1819855E+01  -5.6916336E+01   0.0000000E+00  -8.3949013E+00  -4.9666698E+01   0.0000000E+00  -6.2555799E+00  -4.5331833E+01   0.0000000E+00  -5.0498719E+00  -4.3562668E+01   0.0000000E+00  -4.5426412E+00  -4.3496719E+01   0.0000000E+00  -4.3307519E+00  -7.1765900E+01   0.0000000E+00  -1.1885474E+01  -6.0947803E+01   0.0000000E+00  -8.0047188E+00  -5.2708065E+01   0.0000000E+00  -5.6501532E+00  -4.7835960E+01   0.0000000E+00  -4.3724947E+00  -4.5826130E+01   0.0000000E+00  -3.9375598E+00  -4.5766430E+01   0.0000000E+00  -3.7644830E+00  -7.7455246E+01   0.0000000E+00  -1.1923814E+01  -6.4942932E+01   0.0000000E+00  -7.4697003E+00  -5.5645992E+01   0.0000000E+00  -4.8147931E+00  -5.0118492E+01   0.0000000E+00  -3.6252499E+00  -4.7827084E+01   0.0000000E+00  -3.2978656E+00  -4.7822517E+01   0.0000000E+00  -3.0816786E+00  -8.2939316E+01   0.0000000E+00  -1.2084052E+01  -6.8631371E+01   0.0000000E+00  -6.8338418E+00  -5.8260845E+01   0.0000000E+00  -3.9251969E+00  -5.1960945E+01   0.0000000E+00  -2.9342322E+00  -4.9556492E+01   0.0000000E+00  -2.3813322E+00  -4.9626537E+01   0.0000000E+00  -2.1399710E+00  -8.7547012E+01   0.0000000E+00  -1.2247764E+01  -7.1603233E+01   0.0000000E+00  -6.4486256E+00  -6.0042519E+01   0.0000000E+00  -3.7000268E+00  -5.3520256E+01   0.0000000E+00  -1.9687381E+00  -5.0998455E+01   0.0000000E+00  -1.2703469E+00  -5.1105408E+01   0.0000000E+00  -8.2520562E-01  -9.0756813E+01   0.0000000E+00  -1.2620660E+01  -7.4005280E+01   0.0000000E+00  -6.5563846E+00  -6.1659252E+01   0.0000000E+00  -3.5655875E+00  -5.4795082E+01   0.0000000E+00  -1.1706153E+00  -5.2045338E+01   0.0000000E+00   1.3940288E-02  -5.2209652E+01   0.0000000E+00   6.6925234E-01  -9.2353683E+01   0.0000000E+00  -1.2853758E+01  -7.4889648E+01   0.0000000E+00  -7.3710122E+00  -6.2094147E+01   0.0000000E+00  -4.2526259E+00  -5.5155403E+01   0.0000000E+00  -1.4708009E+00  -5.2569775E+01   0.0000000E+00   7.6752853E-01  -5.2847950E+01   0.0000000E+00   2.1179323E+00  -8.9021866E+01   0.0000000E+00  -1.1524236E+01  -7.3066917E+01   0.0000000E+00  -7.1916347E+00  -6.1093498E+01   0.0000000E+00  -5.2271624E+00  -5.4372505E+01   0.0000000E+00  -1.7941324E+00  -5.2250893E+01   0.0000000E+00   8.6607045E-01  -5.2794807E+01   0.0000000E+00   3.2491889E+00  -7.2279922E+01   0.0000000E+00  -1.2651440E+01  -6.7032875E+01   0.0000000E+00  -8.4012222E+00  -5.7803696E+01   0.0000000E+00  -5.3743582E+00  -5.1251320E+01   0.0000000E+00  -1.9382048E+00  -4.9881790E+01   0.0000000E+00  -2.4945837E-01  -5.1138920E+01   0.0000000E+00   2.4244325E+00  -4.5592216E+01   0.0000000E+00  -1.4104067E+01  -4.4717995E+01   0.0000000E+00  -7.4427872E+00  -4.4701847E+01   0.0000000E+00  -5.6752906E+00  -4.4346622E+01   0.0000000E+00  -1.8007318E+00  -4.3759220E+01   0.0000000E+00  -8.8303554E-01  -4.5089043E+01   0.0000000E+00  -9.4349831E-01  -2.6960167E+01   0.0000000E+00  -1.1670567E+01  -2.6283110E+01   0.0000000E+00  -5.1290531E+00  -2.6053493E+01   0.0000000E+00  -5.9448562E+00  -2.6073099E+01   0.0000000E+00  -1.8527222E+00  -2.7097658E+01   0.0000000E+00  -6.7547292E-01  -2.8791733E+01   0.0000000E+00   1.4115915E-01  -1.6980574E+01   0.0000000E+00  -9.1923437E+00  -1.6178465E+01   0.0000000E+00  -3.4978681E+00  -1.5559072E+01   0.0000000E+00  -6.5492849E+00  -1.5358109E+01   0.0000000E+00  -1.9389787E+00  -1.5776468E+01   0.0000000E+00   6.3561910E-01  -1.6811316E+01   0.0000000E+00   3.3401136E+00  -1.1770668E+01   0.0000000E+00  -8.0324545E+00  -1.0887138E+01   0.0000000E+00  -2.1128097E+00  -1.0051044E+01   0.0000000E+00  -8.2199917E+00  -9.5182076E+00   0.0000000E+00  -1.8765188E+00  -9.3728485E+00   0.0000000E+00   2.2483692E+00  -9.6289206E+00   0.0000000E+00   5.6782980E+00  -6.6918268E+00   0.0000000E+00  -7.9230738E+00  -5.9840708E+00   0.0000000E+00  -9.7483420E-01  -5.2351408E+00   0.0000000E+00  -8.8466177E+00  -4.5754805E+00   0.0000000E+00  -2.2129650E+00  -4.0705686E+00   0.0000000E+00   2.5917807E+00  -3.7530525E+00   0.0000000E+00   6.4174414E+00   1.2246343E+00   0.0000000E+00  -8.1246042E+00   1.5197059E+00   0.0000000E+00  -3.5411450E-01   1.8876745E+00   0.0000000E+00  -8.6413651E+00   2.3426349E+00   0.0000000E+00  -3.2219007E+00   2.8605359E+00   0.0000000E+00   1.6002214E+00   3.4113834E+00   0.0000000E+00   5.7629480E+00   1.2414412E+01   0.0000000E+00  -8.7347612E+00   1.2179960E+01   0.0000000E+00  -2.8139865E-01   1.2001708E+01   0.0000000E+00  -8.2185326E+00   1.1944159E+01   0.0000000E+00  -3.8414779E+00   1.2212750E+01   0.0000000E+00   6.2752485E-02   1.2638975E+01   0.0000000E+00   4.2868547E+00   2.5531284E+01   0.0000000E+00  -9.4728193E+00   2.4739332E+01   0.0000000E+00  -7.4889117E-01   2.3696970E+01   0.0000000E+00  -7.4474277E+00   2.3242386E+01   0.0000000E+00  -4.1474133E+00   2.3183836E+01   0.0000000E+00  -1.4480350E+00   2.3284184E+01   0.0000000E+00   2.5031240E+00   3.9212769E+01   0.0000000E+00  -1.1217145E+01   3.7181820E+01   0.0000000E+00  -1.5664771E+00   3.5717899E+01   0.0000000E+00  -7.3023539E+00   3.4982403E+01   0.0000000E+00  -4.7792916E+00   3.4533546E+01   0.0000000E+00  -2.7336526E+00   3.4267845E+01   0.0000000E+00   7.9023290E-01   5.2085030E+01   0.0000000E+00  -1.2834657E+01   4.8220089E+01   0.0000000E+00  -2.7300444E+00   4.6890450E+01   0.0000000E+00  -8.0211334E+00   4.5645214E+01   0.0000000E+00  -5.2863793E+00   4.5158489E+01   0.0000000E+00  -3.5846753E+00   4.4752827E+01   0.0000000E+00  -6.3236529E-01   6.3560268E+01   0.0000000E+00  -1.3948081E+01   5.7731625E+01   0.0000000E+00  -4.4730406E+00   5.5853905E+01   0.0000000E+00  -8.7302837E+00   5.4695889E+01   0.0000000E+00  -5.6889238E+00   5.4539360E+01   0.0000000E+00  -4.1578655E+00   5.4251049E+01   0.0000000E+00  -1.6386660E+00   7.3551048E+01   0.0000000E+00  -1.5581832E+01   6.5887741E+01   0.0000000E+00  -7.2994013E+00   6.2948532E+01   0.0000000E+00  -9.3734503E+00   6.2171795E+01   0.0000000E+00  -6.0091434E+00   6.2455524E+01   0.0000000E+00  -4.9046874E+00   6.1563293E+01   0.0000000E+00  -2.5200951E+00   8.2311409E+01   0.0000000E+00  -1.6851051E+01   7.3260704E+01   0.0000000E+00  -1.0377033E+01   6.9380775E+01   0.0000000E+00  -1.0361393E+01   6.8538422E+01   0.0000000E+00  -7.1134515E+00   6.6815239E+01   0.0000000E+00  -6.3213205E+00   6.4650024E+01   0.0000000E+00  -3.6413488E+00   9.0357979E+01   0.0000000E+00  -1.7312387E+01   8.0177681E+01   0.0000000E+00  -1.2501040E+01   7.5752640E+01   0.0000000E+00  -1.1478655E+01   7.2860886E+01   0.0000000E+00  -9.3345442E+00   6.8405281E+01   0.0000000E+00  -7.4981384E+00   6.5729118E+01   0.0000000E+00  -4.6411452E+00   9.8803452E+01   0.0000000E+00  -1.7368357E+01   8.6944153E+01   0.0000000E+00  -1.3569805E+01   8.1781395E+01   0.0000000E+00  -1.2833064E+01   7.4778961E+01   0.0000000E+00  -1.0344118E+01   6.9206070E+01   0.0000000E+00  -7.9535480E+00   6.6372345E+01   0.0000000E+00  -5.4036102E+00   1.0796037E+02   0.0000000E+00  -1.6905092E+01   9.5026878E+01   0.0000000E+00  -1.4568526E+01   8.5431099E+01   0.0000000E+00  -1.3355628E+01   7.5770226E+01   0.0000000E+00  -1.0398461E+01   6.9838249E+01   0.0000000E+00  -8.3574514E+00   6.6678146E+01   0.0000000E+00  -6.0334229E+00   1.1750478E+02   0.0000000E+00  -1.5027182E+01   1.0359399E+02   0.0000000E+00  -1.5066747E+01   8.8149117E+01   0.0000000E+00  -1.3383252E+01   7.6951767E+01   0.0000000E+00  -1.0274459E+01   7.0545052E+01   0.0000000E+00  -8.4027348E+00   6.6943451E+01   0.0000000E+00  -6.3640900E+00   1.2942667E+02   0.0000000E+00  -1.9543509E+01   1.0895315E+02   0.0000000E+00  -1.6233324E+01   9.1372986E+01   0.0000000E+00  -1.3033546E+01   7.8706863E+01   0.0000000E+00  -1.0017059E+01   7.1432236E+01   0.0000000E+00  -8.3551569E+00   6.7403137E+01   0.0000000E+00  -6.6348677E+00   1.3706325E+02   0.0000000E+00  -2.0992476E+01   1.1492467E+02   0.0000000E+00  -1.6321959E+01   9.5351357E+01   0.0000000E+00  -1.2498681E+01   8.1451111E+01   0.0000000E+00  -9.5741262E+00   7.2999199E+01   0.0000000E+00  -8.0619383E+00   6.8085403E+01   0.0000000E+00  -6.5488658E+00   1.2167459E+02   0.0000000E+00  -1.6315363E+01   1.0050515E+02   0.0000000E+00  -1.1965445E+01   8.5205238E+01   0.0000000E+00  -8.8211164E+00   7.5369904E+01   0.0000000E+00  -7.3964009E+00   6.9352386E+01   0.0000000E+00  -6.2358422E+00   1.2941257E+02   0.0000000E+00  -1.6435934E+01   1.0718343E+02   0.0000000E+00  -1.1964771E+01   9.0392303E+01   0.0000000E+00  -8.3600559E+00   7.8753616E+01   0.0000000E+00  -6.7282715E+00   7.1411522E+01   0.0000000E+00  -5.7726741E+00   1.1552950E+02   0.0000000E+00  -1.2025276E+01   9.6894882E+01   0.0000000E+00  -8.1356049E+00   8.3411377E+01   0.0000000E+00  -5.9510927E+00   7.4386292E+01   0.0000000E+00  -5.3013244E+00   1.2492942E+02   0.0000000E+00  -1.2237431E+01   1.0478215E+02   0.0000000E+00  -8.1360044E+00   8.9302422E+01   0.0000000E+00  -5.2363911E+00   7.8392319E+01   0.0000000E+00  -4.5178747E+00   1.1483966E+02   0.0000000E+00  -8.8495617E+00   9.7203400E+01   0.0000000E+00  -5.3525047E+00   8.4302383E+01   0.0000000E+00  -3.7507186E+00   1.0755752E+02   0.0000000E+00  -6.3650813E+00   9.3125908E+01   0.0000000E+00  -4.0085826E+00   1.1708327E+02   0.0000000E+00  -7.3604674E+00   1.0369631E+02   0.0000000E+00  -5.2478399E+00  -1.7204800E+00   0.0000000E+00  -2.0396864E-01  -1.7693243E+00   0.0000000E+00  -1.6165081E-01  -1.7984829E+00   0.0000000E+00  -1.2563238E-01  -1.8130388E+00   0.0000000E+00  -9.5238626E-02  -1.8180628E+00   0.0000000E+00  -6.9661245E-02  -1.8171959E+00   0.0000000E+00  -4.9442127E-02  -1.8137488E+00   0.0000000E+00  -3.2942269E-02  -1.8097372E+00   0.0000000E+00  -2.0131433E-02  -1.8067875E+00   0.0000000E+00  -9.4340751E-03  -2.1925297E+00   0.0000000E+00  -2.4584156E-01  -2.2494946E+00   0.0000000E+00  -1.9748469E-01  -2.2817640E+00   0.0000000E+00  -1.5615295E-01  -2.2969451E+00   0.0000000E+00  -1.1931606E-01  -2.3003998E+00   0.0000000E+00  -8.8967904E-02  -2.2971992E+00   0.0000000E+00  -6.4112246E-02  -2.2912416E+00   0.0000000E+00  -4.3607078E-02  -2.2851138E+00   0.0000000E+00  -2.7014818E-02  -2.2807717E+00   0.0000000E+00  -1.2851320E-02  -2.7537341E+00   0.0000000E+00  -2.5900871E-01  -2.8197155E+00   0.0000000E+00  -2.1167517E-01  -2.8562660E+00   0.0000000E+00  -1.6915959E-01  -2.8718143E+00   0.0000000E+00  -1.3142744E-01  -2.8736444E+00   0.0000000E+00  -9.9640898E-02  -2.8680515E+00   0.0000000E+00  -7.2596058E-02  -2.8593717E+00   0.0000000E+00  -5.0229736E-02  -2.8509612E+00   0.0000000E+00  -3.1369179E-02  -2.8450375E+00   0.0000000E+00  -1.5127307E-02  -3.3719869E+00   0.0000000E+00  -2.5586051E-01  -3.4467182E+00   0.0000000E+00  -2.1222809E-01  -3.4872632E+00   0.0000000E+00  -1.7097160E-01  -3.5030079E+00   0.0000000E+00  -1.3484678E-01  -3.5030880E+00   0.0000000E+00  -1.0313538E-01  -3.4947729E+00   0.0000000E+00  -7.6114282E-02  -3.4832544E+00   0.0000000E+00  -5.3281195E-02  -3.4724431E+00   0.0000000E+00  -3.3539757E-02  -3.4649138E+00   0.0000000E+00  -1.6179688E-02  -4.0576611E+00   0.0000000E+00  -2.4449703E-01  -4.1402168E+00   0.0000000E+00  -2.0435502E-01  -4.1833897E+00   0.0000000E+00  -1.6635756E-01  -4.1985121E+00   0.0000000E+00  -1.3275953E-01  -4.1962910E+00   0.0000000E+00  -1.0272294E-01  -4.1847205E+00   0.0000000E+00  -7.6688707E-02  -4.1700358E+00   0.0000000E+00  -5.4061245E-02  -4.1565590E+00   0.0000000E+00  -3.4384891E-02  -4.1473103E+00   0.0000000E+00  -1.6647682E-02  -4.8251486E+00   0.0000000E+00  -2.2884655E-01  -4.9135222E+00   0.0000000E+00  -1.9325665E-01  -4.9576244E+00   0.0000000E+00  -1.5965560E-01  -4.9708986E+00   0.0000000E+00  -1.2885359E-01  -4.9651790E+00   0.0000000E+00  -1.0101824E-01  -4.9496727E+00   0.0000000E+00  -7.6322258E-02  -4.9312172E+00   0.0000000E+00  -5.4502320E-02  -4.9147148E+00   0.0000000E+00  -3.4988634E-02  -4.9035149E+00   0.0000000E+00  -1.7109483E-02  -5.6815653E+00   0.0000000E+00  -2.1448334E-01  -5.7732892E+00   0.0000000E+00  -1.8498537E-01  -5.8164592E+00   0.0000000E+00  -1.5628578E-01  -5.8263035E+00   0.0000000E+00  -1.2816022E-01  -5.8159752E+00   0.0000000E+00  -1.0255421E-01  -5.7956085E+00   0.0000000E+00  -7.8784674E-02  -5.7726994E+00   0.0000000E+00  -5.7161178E-02  -5.7526784E+00   0.0000000E+00  -3.7159823E-02  -5.7392411E+00   0.0000000E+00  -1.8295612E-02  -6.6286254E+00   0.0000000E+00  -2.0932993E-01  -6.7211466E+00   0.0000000E+00  -1.8747294E-01  -6.7615929E+00   0.0000000E+00  -1.6322397E-01  -6.7664609E+00   0.0000000E+00  -1.3788128E-01  -6.7503672E+00   0.0000000E+00  -1.1275548E-01  -6.7242975E+00   0.0000000E+00  -8.8565730E-02  -6.6963744E+00   0.0000000E+00  -6.5450229E-02  -6.6723990E+00   0.0000000E+00  -4.3096285E-02  -6.6564379E+00   0.0000000E+00  -2.1395979E-02  -7.6663857E+00   0.0000000E+00  -2.2682139E-01  -7.7576194E+00   0.0000000E+00  -2.1203335E-01  -7.7939205E+00   0.0000000E+00  -1.9123182E-01  -7.7928457E+00   0.0000000E+00  -1.6625252E-01  -7.7701712E+00   0.0000000E+00  -1.3901345E-01  -7.7377687E+00   0.0000000E+00  -1.1114808E-01  -7.7042789E+00   0.0000000E+00  -8.3251059E-02  -7.6760120E+00   0.0000000E+00  -5.5419005E-02  -7.6573153E+00   0.0000000E+00  -2.7705349E-02  -8.7948008E+00   0.0000000E+00  -2.8439820E-01  -8.8833418E+00   0.0000000E+00  -2.7255210E-01  -8.9148932E+00   0.0000000E+00  -2.5133422E-01  -8.9075899E+00   0.0000000E+00  -2.2226201E-01  -8.8780632E+00   0.0000000E+00  -1.8848781E-01  -8.8390026E+00   0.0000000E+00  -1.5219106E-01  -8.7996702E+00   0.0000000E+00  -1.1482658E-01  -8.7668219E+00   0.0000000E+00  -7.6904595E-02  -8.7452173E+00   0.0000000E+00  -3.8539819E-02  -1.0013885E+01   0.0000000E+00  -3.9561152E-01  -1.0098964E+01   0.0000000E+00  -3.8275522E-01  -1.0126400E+01   0.0000000E+00  -3.5440207E-01  -1.0113502E+01   0.0000000E+00  -3.1480637E-01  -1.0077598E+01   0.0000000E+00  -2.6772586E-01  -1.0031968E+01   0.0000000E+00  -2.1728913E-01  -9.9867668E+00   0.0000000E+00  -1.6426115E-01  -9.9492970E+00   0.0000000E+00  -1.0992260E-01  -9.9247274E+00   0.0000000E+00  -5.5013675E-02  -1.1324914E+01   0.0000000E+00  -5.6990910E-01  -1.1407698E+01   0.0000000E+00  -5.4858178E-01  -1.1432345E+01   0.0000000E+00  -5.0755972E-01  -1.1415491E+01   0.0000000E+00  -4.5090607E-01  -1.1374553E+01   0.0000000E+00  -3.8268629E-01  -1.1323077E+01   0.0000000E+00  -3.0909666E-01  -1.1272356E+01   0.0000000E+00  -2.3374107E-01  -1.1230406E+01   0.0000000E+00  -1.5670718E-01  -1.1202852E+01   0.0000000E+00  -7.9206474E-02  -1.2730886E+01   0.0000000E+00  -8.1223285E-01  -1.2813346E+01   0.0000000E+00  -7.7694345E-01  -1.2838298E+01   0.0000000E+00  -7.1421337E-01  -1.2820874E+01   0.0000000E+00  -6.2784117E-01  -1.2776301E+01   0.0000000E+00  -5.3359497E-01  -1.2720138E+01   0.0000000E+00  -4.3480149E-01  -1.2664937E+01   0.0000000E+00  -3.2894844E-01  -1.2619153E+01   0.0000000E+00  -2.1990485E-01  -1.2589221E+01   0.0000000E+00  -1.0981295E-01  -1.4235512E+01   0.0000000E+00  -1.1423396E+00  -1.4323017E+01   0.0000000E+00  -1.0634905E+00  -1.4351650E+01   0.0000000E+00  -9.7159106E-01  -1.4335302E+01   0.0000000E+00  -8.5566223E-01  -1.4290324E+01   0.0000000E+00  -7.2559506E-01  -1.4231769E+01   0.0000000E+00  -5.8737206E-01  -1.4173545E+01   0.0000000E+00  -4.4386271E-01  -1.4124349E+01   0.0000000E+00  -3.0051437E-01  -1.4092498E+01   0.0000000E+00  -1.5115750E-01  -1.5847709E+01   0.0000000E+00  -1.5396692E+00  -1.5940818E+01   0.0000000E+00  -1.4165287E+00  -1.5978261E+01   0.0000000E+00  -1.2753949E+00  -1.5965441E+01   0.0000000E+00  -1.1274438E+00  -1.5923592E+01   0.0000000E+00  -9.5602500E-01  -1.5865995E+01   0.0000000E+00  -7.7580112E-01  -1.5807089E+01   0.0000000E+00  -5.8746982E-01  -1.5757633E+01   0.0000000E+00  -3.9371753E-01  -1.5725111E+01   0.0000000E+00  -1.9700266E-01  -1.7569525E+01   0.0000000E+00  -1.9850950E+00  -1.7671795E+01   0.0000000E+00  -1.8121375E+00  -1.7720003E+01   0.0000000E+00  -1.6257974E+00  -1.7717194E+01   0.0000000E+00  -1.4310607E+00  -1.7680347E+01   0.0000000E+00  -1.2248065E+00  -1.7627539E+01   0.0000000E+00  -9.9441963E-01  -1.7571316E+01   0.0000000E+00  -7.5609785E-01  -1.7523420E+01   0.0000000E+00  -5.0916225E-01  -1.7491688E+01   0.0000000E+00  -2.5588888E-01  -1.9393745E+01   0.0000000E+00  -2.4609027E+00  -1.9515638E+01   0.0000000E+00  -2.2355170E+00  -1.9580013E+01   0.0000000E+00  -2.0045271E+00  -1.9591572E+01   0.0000000E+00  -1.7636405E+00  -1.9566063E+01   0.0000000E+00  -1.5137912E+00  -1.9523739E+01   0.0000000E+00  -1.2354679E+00  -1.9475576E+01   0.0000000E+00  -9.4358575E-01  -1.9433256E+01   0.0000000E+00  -6.3747168E-01  -1.9404772E+01   0.0000000E+00  -3.2083347E-01  -2.1319441E+01   0.0000000E+00  -2.9210470E+00  -2.1467791E+01   0.0000000E+00  -2.6561539E+00  -2.1555923E+01   0.0000000E+00  -2.3922660E+00  -2.1589466E+01   0.0000000E+00  -2.1130967E+00  -2.1586357E+01   0.0000000E+00  -1.8136543E+00  -2.1559401E+01   0.0000000E+00  -1.4943975E+00  -2.1526386E+01   0.0000000E+00  -1.1446857E+00  -2.1494825E+01   0.0000000E+00  -7.7638340E-01  -2.1473106E+01   0.0000000E+00  -3.9216423E-01  -2.3337782E+01   0.0000000E+00  -3.3410199E+00  -2.3519026E+01   0.0000000E+00  -3.0731225E+00  -2.3645071E+01   0.0000000E+00  -2.7819445E+00  -2.3712034E+01   0.0000000E+00  -2.4750392E+00  -2.3739578E+01   0.0000000E+00  -2.1273382E+00  -2.3739136E+01   0.0000000E+00  -1.7637812E+00  -2.3729864E+01   0.0000000E+00  -1.3554924E+00  -2.3716127E+01   0.0000000E+00  -9.2150038E-01  -2.3705507E+01   0.0000000E+00  -4.6609429E-01  -2.5443199E+01   0.0000000E+00  -3.7388654E+00  -2.5668987E+01   0.0000000E+00  -3.4700968E+00  -2.5843451E+01   0.0000000E+00  -3.1634736E+00  -2.5960209E+01   0.0000000E+00  -2.8389542E+00  -2.6032253E+01   0.0000000E+00  -2.4544315E+00  -2.6069590E+01   0.0000000E+00  -2.0273731E+00  -2.6091337E+01   0.0000000E+00  -1.5621482E+00  -2.6104589E+01   0.0000000E+00  -1.0660422E+00  -2.6109949E+01   0.0000000E+00  -5.4017884E-01  -2.7625731E+01   0.0000000E+00  -4.0979624E+00  -2.7909363E+01   0.0000000E+00  -3.8328950E+00  -2.8148275E+01   0.0000000E+00  -3.5285318E+00  -2.8326168E+01   0.0000000E+00  -3.1690185E+00  -2.8459234E+01   0.0000000E+00  -2.7534063E+00  -2.8554333E+01   0.0000000E+00  -2.2820539E+00  -2.8616066E+01   0.0000000E+00  -1.7596165E+00  -2.8662445E+01   0.0000000E+00  -1.1944561E+00  -2.8691721E+01   0.0000000E+00  -6.1006820E-01  -2.9877518E+01   0.0000000E+00  -4.4076824E+00  -3.0235146E+01   0.0000000E+00  -4.1592145E+00  -3.0547899E+01   0.0000000E+00  -3.8387811E+00  -3.0807903E+01   0.0000000E+00  -3.4570522E+00  -3.1018055E+01   0.0000000E+00  -3.0140245E+00  -3.1184853E+01   0.0000000E+00  -2.5041041E+00  -3.1303736E+01   0.0000000E+00  -1.9346344E+00  -3.1394817E+01   0.0000000E+00  -1.3128518E+00  -3.1450155E+01   0.0000000E+00  -6.6361582E-01  -3.2189278E+01   0.0000000E+00  -4.6530099E+00  -3.2634609E+01   0.0000000E+00  -4.4086876E+00  -3.3039894E+01   0.0000000E+00  -4.0799298E+00  -3.3398098E+01   0.0000000E+00  -3.6802082E+00  -3.3703587E+01   0.0000000E+00  -3.2163823E+00  -3.3958317E+01   0.0000000E+00  -2.6758525E+00  -3.4150352E+01   0.0000000E+00  -2.0710845E+00  -3.4297222E+01   0.0000000E+00  -1.4071461E+00  -3.4387352E+01   0.0000000E+00  -7.0823503E-01  -3.4551720E+01   0.0000000E+00  -4.8124480E+00  -3.5097195E+01   0.0000000E+00  -4.5654063E+00  -3.5613117E+01   0.0000000E+00  -4.2328067E+00  -3.6086246E+01   0.0000000E+00  -3.8173757E+00  -3.6505096E+01   0.0000000E+00  -3.3373933E+00  -3.6864704E+01   0.0000000E+00  -2.7785439E+00  -3.7151386E+01   0.0000000E+00  -2.1410563E+00  -3.7360172E+01   0.0000000E+00  -1.4631536E+00  -3.7492378E+01   0.0000000E+00  -7.3359221E-01  -3.6954105E+01   0.0000000E+00  -4.8589039E+00  -3.7614204E+01   0.0000000E+00  -4.6116495E+00  -3.8256294E+01   0.0000000E+00  -4.2755718E+00  -3.8856602E+01   0.0000000E+00  -3.8590591E+00  -3.9410332E+01   0.0000000E+00  -3.3564754E+00  -3.9891335E+01   0.0000000E+00  -2.7923374E+00  -4.0285442E+01   0.0000000E+00  -2.1526015E+00  -4.0574532E+01   0.0000000E+00  -1.4526825E+00  -4.0750050E+01   0.0000000E+00  -7.3924065E-01  -3.9386337E+01   0.0000000E+00  -4.7667122E+00  -4.0174442E+01   0.0000000E+00  -4.5272446E+00  -4.0957844E+01   0.0000000E+00  -4.1880751E+00  -4.1704910E+01   0.0000000E+00  -3.7649281E+00  -4.2399292E+01   0.0000000E+00  -3.2615299E+00  -4.3018822E+01   0.0000000E+00  -2.6898773E+00  -4.3529484E+01   0.0000000E+00  -2.0706220E+00  -4.3911110E+01   0.0000000E+00  -1.4002178E+00  -4.4146938E+01   0.0000000E+00  -6.9731641E-01  -4.1839169E+01   0.0000000E+00  -4.5243349E+00  -4.2762428E+01   0.0000000E+00  -4.2747598E+00  -4.3706657E+01   0.0000000E+00  -3.9434476E+00  -4.4613525E+01   0.0000000E+00  -3.5135531E+00  -4.5463196E+01   0.0000000E+00  -3.0162470E+00  -4.6223225E+01   0.0000000E+00  -2.4670591E+00  -4.6857323E+01   0.0000000E+00  -1.8820672E+00  -4.7334038E+01   0.0000000E+00  -1.2700933E+00  -4.7627571E+01   0.0000000E+00  -6.4346391E-01  -4.4293819E+01   0.0000000E+00  -4.1283259E+00  -4.5370144E+01   0.0000000E+00  -3.8700678E+00  -4.6481880E+01   0.0000000E+00  -3.5178728E+00  -4.7562378E+01   0.0000000E+00  -3.0705342E+00  -4.8576607E+01   0.0000000E+00  -2.5740323E+00  -4.9485710E+01   0.0000000E+00  -2.0583699E+00  -5.0246017E+01   0.0000000E+00  -1.5368917E+00  -5.0818893E+01   0.0000000E+00  -1.0196177E+00  -5.1174835E+01   0.0000000E+00  -5.0850737E-01  -4.6686352E+01   0.0000000E+00  -3.5991256E+00  -4.7942181E+01   0.0000000E+00  -3.2922368E+00  -4.9237366E+01   0.0000000E+00  -2.8730216E+00  -5.0500523E+01   0.0000000E+00  -2.3972757E+00  -5.1682468E+01   0.0000000E+00  -1.9074107E+00  -5.2741638E+01   0.0000000E+00  -1.4449681E+00  -5.3629261E+01   0.0000000E+00  -1.0310040E+00  -5.4302834E+01   0.0000000E+00  -6.5006161E-01  -5.4717388E+01   0.0000000E+00  -3.1295362E-01  -4.8925320E+01   0.0000000E+00  -2.8312252E+00  -5.0393879E+01   0.0000000E+00  -2.4603248E+00  -5.1889648E+01   0.0000000E+00  -1.9853007E+00  -5.3336224E+01   0.0000000E+00  -1.4789690E+00  -5.4685932E+01   0.0000000E+00  -1.0087513E+00  -5.5885311E+01   0.0000000E+00  -6.1909187E-01  -5.6878048E+01   0.0000000E+00  -3.3660284E-01  -5.7632492E+01   0.0000000E+00  -1.8069418E-01  -5.8117294E+01   0.0000000E+00  -6.7402475E-02  -5.0901394E+01   0.0000000E+00  -1.8098832E+00  -5.2564964E+01   0.0000000E+00  -1.4011436E+00  -5.4276966E+01   0.0000000E+00  -8.3328164E-01  -5.5897804E+01   0.0000000E+00  -2.5833318E-01  -5.7400558E+01   0.0000000E+00   1.9152401E-01  -5.8709015E+01   0.0000000E+00   5.1576608E-01  -5.9780239E+01   0.0000000E+00   5.8195430E-01  -6.0586784E+01   0.0000000E+00   4.6051544E-01  -6.1134975E+01   0.0000000E+00   2.7791792E-01  -5.2518482E+01   0.0000000E+00  -4.7012648E-01  -5.4367119E+01   0.0000000E+00   3.4906343E-02  -5.6259617E+01   0.0000000E+00   6.5187478E-01  -5.8023239E+01   0.0000000E+00   1.2330956E+00  -5.9599358E+01   0.0000000E+00   1.6721790E+00  -6.0983738E+01   0.0000000E+00   1.9285026E+00  -6.2119915E+01   0.0000000E+00   1.8054249E+00  -6.2991455E+01   0.0000000E+00   1.3476918E+00  -6.3512787E+01   0.0000000E+00   7.3125666E-01  -5.3747292E+01   0.0000000E+00   1.1964611E+00  -5.5735508E+01   0.0000000E+00   1.8412633E+00  -5.7730038E+01   0.0000000E+00   2.5236075E+00  -5.9571583E+01   0.0000000E+00   3.0604029E+00  -6.1236931E+01   0.0000000E+00   3.3796241E+00  -6.2673374E+01   0.0000000E+00   3.4012394E+00  -6.3864029E+01   0.0000000E+00   2.9270213E+00  -6.4745712E+01   0.0000000E+00   2.1807301E+00  -6.5195717E+01   0.0000000E+00   1.2295573E+00  -5.4528385E+01   0.0000000E+00   3.0941138E+00  -5.6654060E+01   0.0000000E+00   3.9990246E+00  -5.8760014E+01   0.0000000E+00   4.8726182E+00  -6.0676029E+01   0.0000000E+00   5.4584394E+00  -6.2365879E+01   0.0000000E+00   5.5707273E+00  -6.3783909E+01   0.0000000E+00   5.3742042E+00  -6.4989876E+01   0.0000000E+00   4.6128817E+00  -6.5813828E+01   0.0000000E+00   3.4620266E+00  -6.6313133E+01   0.0000000E+00   1.8290905E+00  -5.4645531E+01   0.0000000E+00   4.8530850E+00  -5.7007656E+01   0.0000000E+00   6.2082353E+00  -5.9249290E+01   0.0000000E+00   7.3643475E+00  -6.1286381E+01   0.0000000E+00   8.0555363E+00  -6.3103268E+01   0.0000000E+00   8.1664648E+00  -6.4550713E+01   0.0000000E+00   7.7586708E+00  -6.5748459E+01   0.0000000E+00   6.5927367E+00  -6.6612686E+01   0.0000000E+00   4.8520532E+00  -6.7222443E+01   0.0000000E+00   2.5216522E+00  -5.3449600E+01   0.0000000E+00   5.0557380E+00  -5.6218159E+01   0.0000000E+00   7.2028456E+00  -5.8788620E+01   0.0000000E+00   8.8074236E+00  -6.0920456E+01   0.0000000E+00   9.5752621E+00  -6.2724209E+01   0.0000000E+00   9.3921413E+00  -6.4356857E+01   0.0000000E+00   8.3947153E+00  -6.5878723E+01   0.0000000E+00   6.8036408E+00  -6.7079933E+01   0.0000000E+00   4.7855606E+00  -6.7826897E+01   0.0000000E+00   2.5422869E+00  -4.7950325E+01   0.0000000E+00   6.6926253E-01  -5.0974579E+01   0.0000000E+00   3.1156836E+00  -5.4223969E+01   0.0000000E+00   4.8393869E+00  -5.7533287E+01   0.0000000E+00   5.5293970E+00  -6.0434357E+01   0.0000000E+00   5.5375276E+00  -6.2743412E+01   0.0000000E+00   5.0466394E+00  -6.4575836E+01   0.0000000E+00   4.1069636E+00  -6.5803497E+01   0.0000000E+00   2.9209864E+00  -6.6553650E+01   0.0000000E+00   1.5166186E+00  -3.0975248E+01   0.0000000E+00   2.6738994E+00  -3.3509430E+01   0.0000000E+00   5.1228366E+00  -3.6191902E+01   0.0000000E+00   6.7735219E+00  -3.8794140E+01   0.0000000E+00   7.4642992E+00  -4.1150311E+01   0.0000000E+00   7.2820110E+00  -4.3156231E+01   0.0000000E+00   6.4407110E+00  -4.4751213E+01   0.0000000E+00   5.1620412E+00  -4.5903740E+01   0.0000000E+00   3.5974274E+00  -4.6599453E+01   0.0000000E+00   1.8466583E+00  -1.8284557E+01   0.0000000E+00   6.1392131E+00  -2.0123018E+01   0.0000000E+00   8.3935280E+00  -2.2152134E+01   0.0000000E+00   9.7461472E+00  -2.4198132E+01   0.0000000E+00   1.0034759E+01  -2.6116264E+01   0.0000000E+00   9.4085550E+00  -2.7800962E+01   0.0000000E+00   8.1206913E+00  -2.9175543E+01   0.0000000E+00   6.4056373E+00  -3.0188139E+01   0.0000000E+00   4.4181833E+00  -3.0807182E+01   0.0000000E+00   2.2547455E+00  -1.0252885E+01   0.0000000E+00   8.5303555E+00  -1.1185363E+01   0.0000000E+00   1.0746189E+01  -1.2340093E+01   0.0000000E+00   1.1971986E+01  -1.3605031E+01   0.0000000E+00   1.2050980E+01  -1.4868993E+01   0.0000000E+00   1.1161461E+01  -1.6036236E+01   0.0000000E+00   9.5726738E+00  -1.7025745E+01   0.0000000E+00   7.5244575E+00  -1.7775089E+01   0.0000000E+00   5.1788721E+00  -1.8241396E+01   0.0000000E+00   2.6397800E+00  -3.6348388E+00   0.0000000E+00   9.4909821E+00  -3.7256234E+00   0.0000000E+00   1.1833502E+01  -4.0159321E+00   0.0000000E+00   1.3126429E+01  -4.4604096E+00   0.0000000E+00   1.3215232E+01  -4.9956441E+00   0.0000000E+00   1.2275134E+01  -5.5522943E+00   0.0000000E+00   1.0569859E+01  -6.0625486E+00   0.0000000E+00   8.3393917E+00  -6.4694805E+00   0.0000000E+00   5.7559414E+00  -6.7308712E+00   0.0000000E+00   2.9388986E+00   3.9567800E+00   0.0000000E+00   9.1160069E+00   4.4438539E+00   0.0000000E+00   1.1679527E+01   4.8243341E+00   0.0000000E+00   1.3177110E+01   5.0782523E+00   0.0000000E+00   1.3447887E+01   5.2116637E+00   0.0000000E+00   1.2637294E+01   5.2516789E+00   0.0000000E+00   1.0987435E+01   5.2335944E+00   0.0000000E+00   8.7346125E+00   5.1920838E+00   0.0000000E+00   6.0611520E+00   5.1548977E+00   0.0000000E+00   3.1046019E+00   1.3253160E+01   0.0000000E+00   7.8145962E+00   1.3991589E+01   0.0000000E+00   1.0587273E+01   1.4770706E+01   0.0000000E+00   1.2334015E+01   1.5514611E+01   0.0000000E+00   1.2869523E+01   1.6171591E+01   0.0000000E+00   1.2294079E+01   1.6715418E+01   0.0000000E+00   1.0821149E+01   1.7136196E+01   0.0000000E+00   8.6804857E+00   1.7432686E+01   0.0000000E+00   6.0614262E+00   1.7607929E+01   0.0000000E+00   3.1162179E+00   2.3702299E+01   0.0000000E+00   6.0723944E+00   2.4425377E+01   0.0000000E+00   8.9758825E+00   2.5356251E+01   0.0000000E+00   1.0930294E+01   2.6378801E+01   0.0000000E+00   1.1720978E+01   2.7390291E+01   0.0000000E+00   1.1403111E+01   2.8309834E+01   0.0000000E+00   1.0163862E+01   2.9077606E+01   0.0000000E+00   8.2250080E+00   2.9651785E+01   0.0000000E+00   5.7775002E+00   3.0005562E+01   0.0000000E+00   2.9805899E+00   3.4378044E+01   0.0000000E+00   4.3046656E+00   3.4943008E+01   0.0000000E+00   7.2387624E+00   3.5866848E+01   0.0000000E+00   9.3073635E+00   3.7008518E+01   0.0000000E+00   1.0278711E+01   3.8225437E+01   0.0000000E+00   1.0175887E+01   3.9391369E+01   0.0000000E+00   9.1687756E+00   4.0402023E+01   0.0000000E+00   7.4717507E+00   4.1178204E+01   0.0000000E+00   5.2721615E+00   4.1665226E+01   0.0000000E+00   2.7269979E+00   4.4587391E+01   0.0000000E+00   2.7805433E+00   4.4977074E+01   0.0000000E+00   5.6555743E+00   4.5831432E+01   0.0000000E+00   7.7327576E+00   4.6996086E+01   0.0000000E+00   8.7844706E+00   4.8304760E+01   0.0000000E+00   8.8204079E+00   4.9602222E+01   0.0000000E+00   8.0044785E+00   5.0753899E+01   0.0000000E+00   6.5469913E+00   5.1653324E+01   0.0000000E+00   4.6288295E+00   5.2224243E+01   0.0000000E+00   2.3967724E+00   5.3946182E+01   0.0000000E+00   1.6176444E+00   5.4213856E+01   0.0000000E+00   4.3665614E+00   5.4981518E+01   0.0000000E+00   6.3628235E+00   5.6051426E+01   0.0000000E+00   7.3992615E+00   5.7289757E+01   0.0000000E+00   7.4935074E+00   5.8493187E+01   0.0000000E+00   6.8137383E+00   5.9557388E+01   0.0000000E+00   5.5680861E+00   6.0371445E+01   0.0000000E+00   3.9333389E+00   6.0890202E+01   0.0000000E+00   2.0352983E+00   6.0853725E+01   0.0000000E+00   5.9509748E-01   6.0707100E+01   0.0000000E+00   3.1881316E+00   6.0958786E+01   0.0000000E+00   5.0635352E+00   6.1443180E+01   0.0000000E+00   6.0608182E+00   6.2043491E+01   0.0000000E+00   6.1824174E+00   6.2651546E+01   0.0000000E+00   5.6531892E+00   6.3250511E+01   0.0000000E+00   4.6362486E+00   6.3762810E+01   0.0000000E+00   3.2820292E+00   6.4112579E+01   0.0000000E+00   1.7007511E+00   6.3515045E+01   0.0000000E+00  -6.4944577E-01   6.3105858E+01   0.0000000E+00   1.8709221E+00   6.3029434E+01   0.0000000E+00   3.7025452E+00   6.3124783E+01   0.0000000E+00   4.6919651E+00   6.3454391E+01   0.0000000E+00   4.8772211E+00   6.3899754E+01   0.0000000E+00   4.4840655E+00   6.4310356E+01   0.0000000E+00   3.6802597E+00   6.4648582E+01   0.0000000E+00   2.6035864E+00   6.4879883E+01   0.0000000E+00   1.3437651E+00   6.4530151E+01   0.0000000E+00  -1.8930755E+00   6.4033142E+01   0.0000000E+00   4.9279517E-01   6.3794483E+01   0.0000000E+00   2.2594419E+00   6.3786411E+01   0.0000000E+00   3.2000256E+00   6.4036339E+01   0.0000000E+00   3.5064952E+00   6.4332573E+01   0.0000000E+00   3.3090632E+00   6.4657700E+01   0.0000000E+00   2.7508867E+00   6.4925934E+01   0.0000000E+00   1.9432851E+00   6.5114769E+01   0.0000000E+00   1.0042492E+00   6.4983139E+01   0.0000000E+00  -2.8762143E+00   6.4362862E+01   0.0000000E+00  -7.1217334E-01   6.4193039E+01   0.0000000E+00   8.8471711E-01   6.4161392E+01   0.0000000E+00   1.8640308E+00   6.4226456E+01   0.0000000E+00   2.2377307E+00   6.4404778E+01   0.0000000E+00   2.1391995E+00   6.4626083E+01   0.0000000E+00   1.7549980E+00   6.4801170E+01   0.0000000E+00   1.2609471E+00   6.4920830E+01   0.0000000E+00   6.5688705E-01   6.5210960E+01   0.0000000E+00  -3.7832565E+00   6.4447540E+01   0.0000000E+00  -1.7398297E+00   6.4275032E+01   0.0000000E+00  -1.7577764E-01   6.4196411E+01   0.0000000E+00   8.0008310E-01   6.4216255E+01   0.0000000E+00   1.1618530E+00   6.4335831E+01   0.0000000E+00   1.1729298E+00   6.4457993E+01   0.0000000E+00   9.7839946E-01   6.4564796E+01   0.0000000E+00   6.7768794E-01   6.4647293E+01   0.0000000E+00   3.4618473E-01   6.5227974E+01   0.0000000E+00  -4.4368367E+00   6.4521347E+01   0.0000000E+00  -2.7512538E+00   6.4125031E+01   0.0000000E+00  -1.3227515E+00   6.3949627E+01   0.0000000E+00  -3.8252047E-01   6.3997993E+01   0.0000000E+00   1.8496522E-01   6.4082596E+01   0.0000000E+00   4.2480889E-01   6.4129326E+01   0.0000000E+00   3.9607331E-01   6.4155518E+01   0.0000000E+00   2.6823142E-01   6.4145905E+01   0.0000000E+00   1.2105818E-01   6.5283333E+01   0.0000000E+00  -4.8518066E+00   6.4304276E+01   0.0000000E+00  -3.4011421E+00   6.3887302E+01   0.0000000E+00  -2.2316675E+00   6.3690250E+01   0.0000000E+00  -1.3614712E+00   6.3568001E+01   0.0000000E+00  -8.3135092E-01   6.3471008E+01   0.0000000E+00  -4.4799921E-01   6.3485611E+01   0.0000000E+00  -1.0674007E-01   6.3461559E+01   0.0000000E+00  -3.2857917E-02   6.3418434E+01   0.0000000E+00  -1.5491259E-02   6.5340324E+01   0.0000000E+00  -5.1234837E+00   6.4062805E+01   0.0000000E+00  -3.9396110E+00   6.3460732E+01   0.0000000E+00  -2.9023840E+00   6.3122879E+01   0.0000000E+00  -2.0537970E+00   6.2903149E+01   0.0000000E+00  -1.4283282E+00   6.2728813E+01   0.0000000E+00  -1.0020417E+00   6.2547108E+01   0.0000000E+00  -6.7987406E-01   6.2378635E+01   0.0000000E+00  -3.8366166E-01   6.2372082E+01   0.0000000E+00  -1.2461190E-01   6.5649956E+01   0.0000000E+00  -5.1292577E+00   6.3826145E+01   0.0000000E+00  -4.3033719E+00   6.2887684E+01   0.0000000E+00  -3.3703742E+00   6.2373047E+01   0.0000000E+00  -2.6512148E+00   6.1998009E+01   0.0000000E+00  -1.9720774E+00   6.1681141E+01   0.0000000E+00  -1.4072170E+00   6.1422092E+01   0.0000000E+00  -9.4170696E-01   6.1215061E+01   0.0000000E+00  -5.7470667E-01   6.1073982E+01   0.0000000E+00  -2.7312961E-01   6.6526787E+01   0.0000000E+00  -4.8964891E+00   6.3803211E+01   0.0000000E+00  -4.2307515E+00   6.2370449E+01   0.0000000E+00  -3.6900327E+00   6.1544804E+01   0.0000000E+00  -2.9737909E+00   6.0960903E+01   0.0000000E+00  -2.4061866E+00   6.0473228E+01   0.0000000E+00  -1.7631247E+00   6.0095051E+01   0.0000000E+00  -1.2006228E+00   5.9806881E+01   0.0000000E+00  -6.8120617E-01   5.9639931E+01   0.0000000E+00  -2.4135262E-01   6.8133141E+01   0.0000000E+00  -4.5566726E+00   6.4316818E+01   0.0000000E+00  -3.9690013E+00   6.2095158E+01   0.0000000E+00  -3.5466392E+00   6.0777992E+01   0.0000000E+00  -3.1465552E+00   5.9885796E+01   0.0000000E+00  -2.5130367E+00   5.9225231E+01   0.0000000E+00  -2.0191729E+00   5.8693264E+01   0.0000000E+00  -1.3968651E+00   5.8299755E+01   0.0000000E+00  -8.0681938E-01   5.8147999E+01   0.0000000E+00  -3.2833284E-01   7.0825813E+01   0.0000000E+00  -4.0797443E+00   6.5643951E+01   0.0000000E+00  -3.5873597E+00   6.2415932E+01   0.0000000E+00  -3.2360907E+00   6.0436699E+01   0.0000000E+00  -2.8608942E+00   5.9039532E+01   0.0000000E+00  -2.4958086E+00   5.8077587E+01   0.0000000E+00  -1.9733094E+00   5.7310280E+01   0.0000000E+00  -1.4741077E+00   5.6835213E+01   0.0000000E+00  -8.8126761E-01   5.6666222E+01   0.0000000E+00  -4.3275827E-01   7.4982162E+01   0.0000000E+00  -3.2402337E+00   6.8461258E+01   0.0000000E+00  -3.0191958E+00   6.3889374E+01   0.0000000E+00  -2.7364697E+00   6.0795521E+01   0.0000000E+00  -2.5131917E+00   5.8736015E+01   0.0000000E+00  -2.1159582E+00   5.7238403E+01   0.0000000E+00  -1.7578574E+00   5.6294247E+01   0.0000000E+00  -1.3664191E+00   5.5625340E+01   0.0000000E+00  -8.5594797E-01   5.5379520E+01   0.0000000E+00  -4.9258161E-01   8.1443504E+01   0.0000000E+00  -2.6653900E+00   7.2875839E+01   0.0000000E+00  -2.2134130E+00   6.6743332E+01   0.0000000E+00  -2.0265651E+00   6.2550865E+01   0.0000000E+00  -1.9297729E+00   5.9414413E+01   0.0000000E+00  -1.6959897E+00   5.7252304E+01   0.0000000E+00  -1.2957752E+00   5.5868389E+01   0.0000000E+00  -9.9631828E-01   5.4955280E+01   0.0000000E+00  -7.5701916E-01   5.4668369E+01   0.0000000E+00  -3.8278809E-01   9.0675240E+01   0.0000000E+00  -2.9898798E+00   8.0030876E+01   0.0000000E+00  -1.7374908E+00   7.2075180E+01   0.0000000E+00  -1.3121911E+00   6.5921127E+01   0.0000000E+00  -1.0359775E+00   6.1633114E+01   0.0000000E+00  -9.8128414E-01   5.8574097E+01   0.0000000E+00  -8.2439131E-01   5.6546974E+01   0.0000000E+00  -4.6982357E-01   5.5467445E+01   0.0000000E+00  -2.2630735E-01   5.4670547E+01   0.0000000E+00  -1.0733083E-01   1.0104860E+02   0.0000000E+00  -4.1392169E+00   8.9389221E+01   0.0000000E+00  -2.0450513E+00   7.9674683E+01   0.0000000E+00  -9.6280152E-01   7.1649612E+01   0.0000000E+00  -1.8323348E-01   6.5721947E+01   0.0000000E+00   1.2089051E-01   6.1481617E+01   0.0000000E+00   2.9133135E-01   5.8771000E+01   0.0000000E+00   2.5342205E-01   5.7256058E+01   0.0000000E+00   2.9367626E-01   5.6618309E+01   0.0000000E+00   2.9941985E-01   9.9271988E+01   0.0000000E+00  -2.8319778E+00   8.8931061E+01   0.0000000E+00  -1.1993418E+00   7.9611229E+01   0.0000000E+00   2.7605107E-01   7.2252769E+01   0.0000000E+00   1.0013926E+00   6.6377708E+01   0.0000000E+00   1.6043941E+00   6.2686489E+01   0.0000000E+00   1.6615360E+00   6.0361954E+01   0.0000000E+00   1.5032790E+00   5.9595631E+01   0.0000000E+00   1.2017694E+00   8.8577515E+01   0.0000000E+00   2.0913863E-01   8.0560661E+01   0.0000000E+00   1.2878039E+00   7.3994949E+01   0.0000000E+00   2.2251148E+00   6.9442375E+01   0.0000000E+00   2.5158944E+00   6.6307014E+01   0.0000000E+00   2.3438325E+00   6.4437302E+01   0.0000000E+00   1.6834135E+00   8.2258972E+01   0.0000000E+00   2.5782270E+00   7.7574272E+01   0.0000000E+00   3.2027879E+00   7.4449944E+01   0.0000000E+00   3.2083132E+00   7.3201988E+01   0.0000000E+00   2.1696086E+00  -1.8057060E+00   0.0000000E+00   1.1019438E-08  -1.8067923E+00   0.0000000E+00   9.4347512E-03  -1.8097315E+00   0.0000000E+00   2.0131340E-02  -1.8137488E+00   0.0000000E+00   3.2942001E-02  -1.8171988E+00   0.0000000E+00   4.9441822E-02  -1.8180571E+00   0.0000000E+00   6.9660828E-02  -1.8130374E+00   0.0000000E+00   9.5239162E-02  -1.7984838E+00   0.0000000E+00   1.2563398E-01  -2.2791758E+00   0.0000000E+00  -5.5263240E-07  -2.2807674E+00   0.0000000E+00   1.2851897E-02  -2.2851229E+00   0.0000000E+00   2.7016416E-02  -2.2912416E+00   0.0000000E+00   4.3608051E-02  -2.2971945E+00   0.0000000E+00   6.4112373E-02  -2.3003945E+00   0.0000000E+00   8.8968053E-02  -2.2969408E+00   0.0000000E+00   1.1931568E-01  -2.2817631E+00   0.0000000E+00   1.5615340E-01  -2.8429193E+00   0.0000000E+00   8.1672533E-07  -2.8450294E+00   0.0000000E+00   1.5127130E-02  -2.8509574E+00   0.0000000E+00   3.1369053E-02  -2.8593760E+00   0.0000000E+00   5.0230831E-02  -2.8680587E+00   0.0000000E+00   7.2595879E-02  -2.8736429E+00   0.0000000E+00   9.9641860E-02  -2.8718233E+00   0.0000000E+00   1.3142699E-01  -2.8562727E+00   0.0000000E+00   1.6915846E-01  -3.4622545E+00   0.0000000E+00  -5.4396060E-07  -3.4649115E+00   0.0000000E+00   1.6179930E-02  -3.4724445E+00   0.0000000E+00   3.3539504E-02  -3.4832554E+00   0.0000000E+00   5.3280734E-02  -3.4947739E+00   0.0000000E+00   7.6114967E-02  -3.5030832E+00   0.0000000E+00   1.0313657E-01  -3.5030088E+00   0.0000000E+00   1.3484675E-01  -3.4872656E+00   0.0000000E+00   1.7097281E-01  -4.1440535E+00   0.0000000E+00  -9.9526187E-07  -4.1473112E+00   0.0000000E+00   1.6642144E-02  -4.1565609E+00   0.0000000E+00   3.4383625E-02  -4.1700311E+00   0.0000000E+00   5.4061729E-02  -4.1847186E+00   0.0000000E+00   7.6689646E-02  -4.1962852E+00   0.0000000E+00   1.0272283E-01  -4.1985159E+00   0.0000000E+00   1.3275906E-01  -4.1833906E+00   0.0000000E+00   1.6636151E-01  -4.8995628E+00   0.0000000E+00  -1.7156930E-06  -4.9035149E+00   0.0000000E+00   1.7106760E-02  -4.9147072E+00   0.0000000E+00   3.4986373E-02  -4.9312196E+00   0.0000000E+00   5.4502733E-02  -4.9496779E+00   0.0000000E+00   7.6322310E-02  -4.9651747E+00   0.0000000E+00   1.0101693E-01  -4.9709029E+00   0.0000000E+00   1.2885579E-01  -4.9576235E+00   0.0000000E+00   1.5965414E-01  -5.7345214E+00   0.0000000E+00   1.2142982E-06  -5.7392468E+00   0.0000000E+00   1.8297583E-02  -5.7526836E+00   0.0000000E+00   3.7155103E-02  -5.7727084E+00   0.0000000E+00   5.7162628E-02  -5.7956100E+00   0.0000000E+00   7.8784019E-02  -5.8159738E+00   0.0000000E+00   1.0255367E-01  -5.8263011E+00   0.0000000E+00   1.2816033E-01  -5.8164477E+00   0.0000000E+00   1.5628031E-01  -6.6508532E+00   0.0000000E+00   3.0962101E-06  -6.6564322E+00   0.0000000E+00   2.1397874E-02  -6.6723962E+00   0.0000000E+00   4.3091860E-02  -6.6963744E+00   0.0000000E+00   6.5450139E-02  -6.7243071E+00   0.0000000E+00   8.8564016E-02  -6.7503667E+00   0.0000000E+00   1.1275520E-01  -6.7664609E+00   0.0000000E+00   1.3787881E-01  -6.7615957E+00   0.0000000E+00   1.6322851E-01  -7.6507983E+00   0.0000000E+00  -2.4414803E-06  -7.6573110E+00   0.0000000E+00   2.7703559E-02  -7.6760149E+00   0.0000000E+00   5.5417996E-02  -7.7042799E+00   0.0000000E+00   8.3253592E-02  -7.7377610E+00   0.0000000E+00   1.1114928E-01  -7.7701721E+00   0.0000000E+00   1.3901366E-01  -7.7928410E+00   0.0000000E+00   1.6625257E-01  -7.7939196E+00   0.0000000E+00   1.9123763E-01  -8.7377005E+00   0.0000000E+00   1.4089710E-06  -8.7452278E+00   0.0000000E+00   3.8538225E-02  -8.7668152E+00   0.0000000E+00   7.6900750E-02  -8.7996683E+00   0.0000000E+00   1.1482587E-01  -8.8389988E+00   0.0000000E+00   1.5219136E-01  -8.8780689E+00   0.0000000E+00   1.8848442E-01  -8.9075871E+00   0.0000000E+00   2.2226532E-01  -8.9149027E+00   0.0000000E+00   2.5134438E-01  -9.9162369E+00   0.0000000E+00  -3.3723140E-06  -9.9247227E+00   0.0000000E+00   5.5005252E-02  -9.9492874E+00   0.0000000E+00   1.0991601E-01  -9.9867477E+00   0.0000000E+00   1.6425958E-01  -1.0031974E+01   0.0000000E+00   2.1729027E-01  -1.0077610E+01   0.0000000E+00   2.6772729E-01  -1.0113503E+01   0.0000000E+00   3.1480983E-01  -1.0126386E+01   0.0000000E+00   3.5439721E-01  -1.1193374E+01   0.0000000E+00  -5.6517056E-06  -1.1202854E+01   0.0000000E+00   7.9214856E-02  -1.1230416E+01   0.0000000E+00   1.5670836E-01  -1.1272343E+01   0.0000000E+00   2.3374122E-01  -1.1323071E+01   0.0000000E+00   3.0909422E-01  -1.1374561E+01   0.0000000E+00   3.8268727E-01  -1.1415497E+01   0.0000000E+00   4.5090264E-01  -1.1432347E+01   0.0000000E+00   5.0755787E-01  -1.2578732E+01   0.0000000E+00  -8.3298974E-06  -1.2589228E+01   0.0000000E+00   1.0981506E-01  -1.2619148E+01   0.0000000E+00   2.1989809E-01  -1.2664942E+01   0.0000000E+00   3.2894707E-01  -1.2720140E+01   0.0000000E+00   4.3480161E-01  -1.2776298E+01   0.0000000E+00   5.3359240E-01  -1.2820869E+01   0.0000000E+00   6.2784296E-01  -1.2838292E+01   0.0000000E+00   7.1420544E-01  -1.4081486E+01   0.0000000E+00  -7.0598835E-06  -1.4092501E+01   0.0000000E+00   1.5115722E-01  -1.4124348E+01   0.0000000E+00   3.0051744E-01  -1.4173542E+01   0.0000000E+00   4.4385901E-01  -1.4231763E+01   0.0000000E+00   5.8737355E-01  -1.4290313E+01   0.0000000E+00   7.2559392E-01  -1.4335313E+01   0.0000000E+00   8.5565835E-01  -1.4351655E+01   0.0000000E+00   9.7159451E-01  -1.5714032E+01   0.0000000E+00   4.3713590E-06  -1.5725132E+01   0.0000000E+00   1.9699699E-01  -1.5757636E+01   0.0000000E+00   3.9371687E-01  -1.5807078E+01   0.0000000E+00   5.8746636E-01  -1.5866004E+01   0.0000000E+00   7.7580214E-01  -1.5923597E+01   0.0000000E+00   9.5602643E-01  -1.5965450E+01   0.0000000E+00   1.1274505E+00  -1.5978234E+01   0.0000000E+00   1.2753839E+00  -1.7480549E+01   0.0000000E+00  -6.3601547E-06  -1.7491686E+01   0.0000000E+00   2.5587723E-01  -1.7523420E+01   0.0000000E+00   5.0916553E-01  -1.7571327E+01   0.0000000E+00   7.5609595E-01  -1.7627520E+01   0.0000000E+00   9.9442047E-01  -1.7680332E+01   0.0000000E+00   1.2248050E+00  -1.7717207E+01   0.0000000E+00   1.4310659E+00  -1.7720009E+01   0.0000000E+00   1.6258011E+00  -1.9394684E+01   0.0000000E+00  -1.5462341E-05  -1.9404741E+01   0.0000000E+00   3.2083523E-01  -1.9433243E+01   0.0000000E+00   6.3747001E-01  -1.9475592E+01   0.0000000E+00   9.4359225E-01  -1.9523752E+01   0.0000000E+00   1.2354674E+00  -1.9566057E+01   0.0000000E+00   1.5137863E+00  -1.9591593E+01   0.0000000E+00   1.7636477E+00  -1.9580032E+01   0.0000000E+00   2.0045328E+00  -2.1465412E+01   0.0000000E+00  -2.4834644E-06  -2.1473095E+01   0.0000000E+00   3.9217290E-01  -2.1494825E+01   0.0000000E+00   7.7637649E-01  -2.1526398E+01   0.0000000E+00   1.1446820E+00  -2.1559399E+01   0.0000000E+00   1.4943888E+00  -2.1586411E+01   0.0000000E+00   1.8136452E+00  -2.1589476E+01   0.0000000E+00   2.1130929E+00  -2.1555927E+01   0.0000000E+00   2.3922703E+00  -2.3701488E+01   0.0000000E+00   5.9732538E-06  -2.3705511E+01   0.0000000E+00   4.6609247E-01  -2.3716122E+01   0.0000000E+00   9.2149508E-01  -2.3729851E+01   0.0000000E+00   1.3554859E+00  -2.3739136E+01   0.0000000E+00   1.7637737E+00  -2.3739613E+01   0.0000000E+00   2.1273205E+00  -2.3712044E+01   0.0000000E+00   2.4750390E+00  -2.3645103E+01   0.0000000E+00   2.7819524E+00  -2.6111374E+01   0.0000000E+00  -3.5145713E-06  -2.6109955E+01   0.0000000E+00   5.4016852E-01  -2.6104586E+01   0.0000000E+00   1.0660257E+00  -2.6091345E+01   0.0000000E+00   1.5621421E+00  -2.6069588E+01   0.0000000E+00   2.0273590E+00  -2.6032309E+01   0.0000000E+00   2.4544082E+00  -2.5960215E+01   0.0000000E+00   2.8389456E+00  -2.5843454E+01   0.0000000E+00   3.1634927E+00  -2.8700773E+01   0.0000000E+00   8.9235764E-06  -2.8691664E+01   0.0000000E+00   6.1007804E-01  -2.8662390E+01   0.0000000E+00   1.1944612E+00  -2.8616056E+01   0.0000000E+00   1.7596033E+00  -2.8554331E+01   0.0000000E+00   2.2820342E+00  -2.8459253E+01   0.0000000E+00   2.7533875E+00  -2.8326191E+01   0.0000000E+00   3.1690240E+00  -2.8148235E+01   0.0000000E+00   3.5285327E+00  -3.1471210E+01   0.0000000E+00  -1.3595161E-05  -3.1450115E+01   0.0000000E+00   6.6360229E-01  -3.1394836E+01   0.0000000E+00   1.3128469E+00  -3.1303728E+01   0.0000000E+00   1.9346223E+00  -3.1184864E+01   0.0000000E+00   2.5040841E+00  -3.1018028E+01   0.0000000E+00   3.0140018E+00  -3.0807962E+01   0.0000000E+00   3.4570494E+00  -3.0547873E+01   0.0000000E+00   3.8388042E+00  -3.4421314E+01   0.0000000E+00  -1.5722606E-05  -3.4387318E+01   0.0000000E+00   7.0823950E-01  -3.4297291E+01   0.0000000E+00   1.4071451E+00  -3.4150414E+01   0.0000000E+00   2.0710783E+00  -3.3958317E+01   0.0000000E+00   2.6758311E+00  -3.3703598E+01   0.0000000E+00   3.2163599E+00  -3.3398079E+01   0.0000000E+00   3.6801960E+00  -3.3039829E+01   0.0000000E+00   4.0799298E+00  -3.7542194E+01   0.0000000E+00  -3.0737883E-06  -3.7492332E+01   0.0000000E+00   7.3357838E-01  -3.7360134E+01   0.0000000E+00   1.4631350E+00  -3.7151379E+01   0.0000000E+00   2.1410463E+00  -3.6864697E+01   0.0000000E+00   2.7785251E+00  -3.6505127E+01   0.0000000E+00   3.3373761E+00  -3.6086208E+01   0.0000000E+00   3.8173673E+00  -3.5613083E+01   0.0000000E+00   4.2327929E+00  -4.0814533E+01   0.0000000E+00  -2.9546395E-06  -4.0750019E+01   0.0000000E+00   7.3922306E-01  -4.0574574E+01   0.0000000E+00   1.4526882E+00  -4.0285473E+01   0.0000000E+00   2.1525912E+00  -3.9891388E+01   0.0000000E+00   2.7923317E+00  -3.9410343E+01   0.0000000E+00   3.3564737E+00  -3.8856560E+01   0.0000000E+00   3.8590524E+00  -3.8256260E+01   0.0000000E+00   4.2755694E+00  -4.4223415E+01   0.0000000E+00  -7.5773733E-06  -4.4146954E+01   0.0000000E+00   6.9730848E-01  -4.3911179E+01   0.0000000E+00   1.4002281E+00  -4.3529442E+01   0.0000000E+00   2.0706198E+00  -4.3018780E+01   0.0000000E+00   2.6898704E+00  -4.2399269E+01   0.0000000E+00   3.2615249E+00  -4.1704990E+01   0.0000000E+00   3.7649283E+00  -4.0957878E+01   0.0000000E+00   4.1880784E+00  -4.7727512E+01   0.0000000E+00  -3.4776895E-07  -4.7627548E+01   0.0000000E+00   6.4343649E-01  -4.7333984E+01   0.0000000E+00   1.2700869E+00  -4.6857300E+01   0.0000000E+00   1.8820651E+00  -4.6223267E+01   0.0000000E+00   2.4670601E+00  -4.5463112E+01   0.0000000E+00   3.0162506E+00  -4.4613552E+01   0.0000000E+00   3.5135365E+00  -4.3706730E+01   0.0000000E+00   3.9434624E+00  -5.1295464E+01   0.0000000E+00  -6.0819875E-06  -5.1174835E+01   0.0000000E+00   5.0849932E-01  -5.0818882E+01   0.0000000E+00   1.0196224E+00  -5.0245972E+01   0.0000000E+00   1.5368896E+00  -4.9485630E+01   0.0000000E+00   2.0583744E+00  -4.8576641E+01   0.0000000E+00   2.5740318E+00  -4.7562439E+01   0.0000000E+00   3.0705245E+00  -4.6481701E+01   0.0000000E+00   3.5178759E+00  -5.4858063E+01   0.0000000E+00   1.3052457E-05  -5.4717377E+01   0.0000000E+00   3.1297019E-01  -5.4302784E+01   0.0000000E+00   6.5006202E-01  -5.3629162E+01   0.0000000E+00   1.0310082E+00  -5.2741543E+01   0.0000000E+00   1.4449556E+00  -5.1682442E+01   0.0000000E+00   1.9074057E+00  -5.0500587E+01   0.0000000E+00   2.3972757E+00  -4.9237408E+01   0.0000000E+00   2.8730102E+00  -5.8273422E+01   0.0000000E+00   2.1158048E-06  -5.8117287E+01   0.0000000E+00   6.7405216E-02  -5.7632431E+01   0.0000000E+00   1.8070240E-01  -5.6878132E+01   0.0000000E+00   3.3661532E-01  -5.5885384E+01   0.0000000E+00   6.1908871E-01  -5.4685871E+01   0.0000000E+00   1.0087428E+00  -5.3336246E+01   0.0000000E+00   1.4789754E+00  -5.1889618E+01   0.0000000E+00   1.9852939E+00  -6.1312943E+01   0.0000000E+00   6.5050699E-07  -6.1134968E+01   0.0000000E+00  -2.7792573E-01  -6.0586777E+01   0.0000000E+00  -4.6051365E-01  -5.9780258E+01   0.0000000E+00  -5.8195966E-01  -5.8708900E+01   0.0000000E+00  -5.1576197E-01  -5.7400517E+01   0.0000000E+00  -1.9152236E-01  -5.5897873E+01   0.0000000E+00   2.5833726E-01  -5.4277008E+01   0.0000000E+00   8.3328122E-01  -6.3681137E+01   0.0000000E+00   4.5266461E-06  -6.3512691E+01   0.0000000E+00  -7.3125947E-01  -6.2991283E+01   0.0000000E+00  -1.3476958E+00  -6.2119930E+01   0.0000000E+00  -1.8054215E+00  -6.0983696E+01   0.0000000E+00  -1.9284928E+00  -5.9599445E+01   0.0000000E+00  -1.6721728E+00  -5.8023144E+01   0.0000000E+00  -1.2330962E+00  -5.6259682E+01   0.0000000E+00  -6.5187514E-01  -6.5348045E+01   0.0000000E+00  -7.7338482E-06  -6.5195724E+01   0.0000000E+00  -1.2295549E+00  -6.4745789E+01   0.0000000E+00  -2.1807320E+00  -6.3863949E+01   0.0000000E+00  -2.9270217E+00  -6.2673321E+01   0.0000000E+00  -3.4012382E+00  -6.1236961E+01   0.0000000E+00  -3.3796146E+00  -5.9571609E+01   0.0000000E+00  -3.0604107E+00  -5.7730137E+01   0.0000000E+00  -2.5236068E+00  -6.6418488E+01   0.0000000E+00  -1.2428238E-05  -6.6313164E+01   0.0000000E+00  -1.8290926E+00  -6.5813843E+01   0.0000000E+00  -3.4620154E+00  -6.4989876E+01   0.0000000E+00  -4.6128778E+00  -6.3783878E+01   0.0000000E+00  -5.3741956E+00  -6.2365868E+01   0.0000000E+00  -5.5707321E+00  -6.0675995E+01   0.0000000E+00  -5.4584341E+00  -5.8760059E+01   0.0000000E+00  -4.8725915E+00  -6.7388031E+01   0.0000000E+00  -7.9245656E-06  -6.7222389E+01   0.0000000E+00  -2.5216656E+00  -6.6612633E+01   0.0000000E+00  -4.8520675E+00  -6.5748344E+01   0.0000000E+00  -6.5927348E+00  -6.4550743E+01   0.0000000E+00  -7.7586670E+00  -6.3103230E+01   0.0000000E+00  -8.1664534E+00  -6.1286430E+01   0.0000000E+00  -8.0555172E+00  -5.9249294E+01   0.0000000E+00  -7.3643560E+00  -6.8015701E+01   0.0000000E+00   5.5278724E-06  -6.7826866E+01   0.0000000E+00  -2.5422869E+00  -6.7079979E+01   0.0000000E+00  -4.7855554E+00  -6.5878731E+01   0.0000000E+00  -6.8036289E+00  -6.4357018E+01   0.0000000E+00  -8.3947029E+00  -6.2724247E+01   0.0000000E+00  -9.3921309E+00  -6.0920429E+01   0.0000000E+00  -9.5752535E+00  -5.8788563E+01   0.0000000E+00  -8.8073978E+00  -6.6810051E+01   0.0000000E+00  -3.8091202E-06  -6.6553635E+01   0.0000000E+00  -1.5166175E+00  -6.5803528E+01   0.0000000E+00  -2.9209831E+00  -6.4575836E+01   0.0000000E+00  -4.1069584E+00  -6.2743431E+01   0.0000000E+00  -5.0466275E+00  -6.0434418E+01   0.0000000E+00  -5.5375066E+00  -5.7533146E+01   0.0000000E+00  -5.5293875E+00  -5.4223991E+01   0.0000000E+00  -4.8393655E+00  -4.6832119E+01   0.0000000E+00  -7.0600508E-06  -4.6599598E+01   0.0000000E+00  -1.8466601E+00  -4.5903790E+01   0.0000000E+00  -3.5974233E+00  -4.4751244E+01   0.0000000E+00  -5.1620326E+00  -4.3156197E+01   0.0000000E+00  -6.4406967E+00  -4.1150322E+01   0.0000000E+00  -7.2819929E+00  -3.8794075E+01   0.0000000E+00  -7.4642773E+00  -3.6191952E+01   0.0000000E+00  -6.7735071E+00  -3.1015430E+01   0.0000000E+00  -1.6071222E-05  -3.0807215E+01   0.0000000E+00  -2.2547472E+00  -3.0188128E+01   0.0000000E+00  -4.4181905E+00  -2.9175465E+01   0.0000000E+00  -6.4056325E+00  -2.7800953E+01   0.0000000E+00  -8.1206741E+00  -2.6116320E+01   0.0000000E+00  -9.4085407E+00  -2.4198086E+01   0.0000000E+00  -1.0034737E+01  -2.2152098E+01   0.0000000E+00  -9.7461319E+00  -1.8399527E+01   0.0000000E+00  -7.3831325E-06  -1.8241425E+01   0.0000000E+00  -2.6398003E+00  -1.7775051E+01   0.0000000E+00  -5.1788740E+00  -1.7025698E+01   0.0000000E+00  -7.5244474E+00  -1.6036180E+01   0.0000000E+00  -9.5726528E+00  -1.4869114E+01   0.0000000E+00  -1.1161441E+01  -1.3604999E+01   0.0000000E+00  -1.2050967E+01  -1.2340017E+01   0.0000000E+00  -1.1971963E+01  -6.8209457E+00   0.0000000E+00  -2.3631699E-05  -6.7308979E+00   0.0000000E+00  -2.9388971E+00  -6.4694939E+00   0.0000000E+00  -5.7559366E+00  -6.0625024E+00   0.0000000E+00  -8.3393860E+00  -5.5522852E+00   0.0000000E+00  -1.0569846E+01  -4.9956813E+00   0.0000000E+00  -1.2275104E+01  -4.4605470E+00   0.0000000E+00  -1.3215186E+01  -4.0159378E+00   0.0000000E+00  -1.3126398E+01   5.1405201E+00   0.0000000E+00   1.6477403E-05   5.1549067E+00   0.0000000E+00  -3.1045954E+00   5.1921825E+00   0.0000000E+00  -6.0611529E+00   5.2336245E+00   0.0000000E+00  -8.7346048E+00   5.2517014E+00   0.0000000E+00  -1.0987423E+01   5.2116365E+00   0.0000000E+00  -1.2637265E+01   5.0781031E+00   0.0000000E+00  -1.3447857E+01   4.8243976E+00   0.0000000E+00  -1.3177078E+01   1.7665897E+01   0.0000000E+00   4.9429218E-06   1.7607977E+01   0.0000000E+00  -3.1162050E+00   1.7432638E+01   0.0000000E+00  -6.0614161E+00   1.7136143E+01   0.0000000E+00  -8.6804838E+00   1.6715410E+01   0.0000000E+00  -1.0821143E+01   1.6171568E+01   0.0000000E+00  -1.2294056E+01   1.5514625E+01   0.0000000E+00  -1.2869480E+01   1.4770665E+01   0.0000000E+00  -1.2333979E+01   3.0124916E+01   0.0000000E+00   2.4399298E-05   3.0005484E+01   0.0000000E+00  -2.9805691E+00   2.9651726E+01   0.0000000E+00  -5.7774930E+00   2.9077604E+01   0.0000000E+00  -8.2250118E+00   2.8309948E+01   0.0000000E+00  -1.0163862E+01   2.7390265E+01   0.0000000E+00  -1.1403091E+01   2.6378798E+01   0.0000000E+00  -1.1720951E+01   2.5356243E+01   0.0000000E+00  -1.0930264E+01   4.1831173E+01   0.0000000E+00   2.6714226E-05   4.1665192E+01   0.0000000E+00  -2.7269638E+00   4.1178192E+01   0.0000000E+00  -5.2721581E+00   4.0402004E+01   0.0000000E+00  -7.4717541E+00   3.9391384E+01   0.0000000E+00  -9.1687775E+00   3.8225376E+01   0.0000000E+00  -1.0175881E+01   3.7008617E+01   0.0000000E+00  -1.0278698E+01   3.5866772E+01   0.0000000E+00  -9.3073282E+00   5.2419743E+01   0.0000000E+00   2.1830579E-05   5.2224232E+01   0.0000000E+00  -2.3967392E+00   5.1653286E+01   0.0000000E+00  -4.6288257E+00   5.0753925E+01   0.0000000E+00  -6.5469961E+00   4.9602245E+01   0.0000000E+00  -8.0044813E+00   4.8304813E+01   0.0000000E+00  -8.8204050E+00   4.6995964E+01   0.0000000E+00  -8.7844648E+00   4.5831436E+01   0.0000000E+00  -7.7327390E+00   6.1059719E+01   0.0000000E+00   1.7037539E-05   6.0890282E+01   0.0000000E+00  -2.0352764E+00   6.0371372E+01   0.0000000E+00  -3.9333317E+00   5.9557251E+01   0.0000000E+00  -5.5680871E+00   5.8493191E+01   0.0000000E+00  -6.8137417E+00   5.7289745E+01   0.0000000E+00  -7.4935112E+00   5.6051422E+01   0.0000000E+00  -7.3992605E+00   5.4981434E+01   0.0000000E+00  -6.3628135E+00   6.4238533E+01   0.0000000E+00   7.5086864E-06   6.4112549E+01   0.0000000E+00  -1.7007375E+00   6.3762657E+01   0.0000000E+00  -3.2820237E+00   6.3250416E+01   0.0000000E+00  -4.6362491E+00   6.2651508E+01   0.0000000E+00  -5.6531997E+00   6.2043503E+01   0.0000000E+00  -6.1824188E+00   6.1443241E+01   0.0000000E+00  -6.0608211E+00   6.0958721E+01   0.0000000E+00  -5.0635290E+00   6.4962173E+01   0.0000000E+00   4.9576192E-06   6.4879814E+01   0.0000000E+00  -1.3437579E+00   6.4648453E+01   0.0000000E+00  -2.6035824E+00   6.4310219E+01   0.0000000E+00  -3.6802585E+00   6.3899734E+01   0.0000000E+00  -4.4840722E+00   6.3454327E+01   0.0000000E+00  -4.8772268E+00   6.3124825E+01   0.0000000E+00  -4.6919675E+00   6.3029404E+01   0.0000000E+00  -3.7025480E+00   6.5181961E+01   0.0000000E+00   9.4499046E-06   6.5114700E+01   0.0000000E+00  -1.0042411E+00   6.4926018E+01   0.0000000E+00  -1.9432862E+00   6.4657829E+01   0.0000000E+00  -2.7508864E+00   6.4332443E+01   0.0000000E+00  -3.3090718E+00   6.4036430E+01   0.0000000E+00  -3.5064993E+00   6.3786407E+01   0.0000000E+00  -3.2000384E+00   6.3794453E+01   0.0000000E+00  -2.2594492E+00   6.4970192E+01   0.0000000E+00   1.6626727E-06   6.4920753E+01   0.0000000E+00  -6.5688854E-01   6.4801186E+01   0.0000000E+00  -1.2609442E+00   6.4626167E+01   0.0000000E+00  -1.7550009E+00   6.4404793E+01   0.0000000E+00  -2.1392012E+00   6.4226318E+01   0.0000000E+00  -2.2377279E+00   6.4161369E+01   0.0000000E+00  -1.8640308E+00   6.4193031E+01   0.0000000E+00  -8.8471454E-01   6.4678169E+01   0.0000000E+00  -2.8015711E-06   6.4647247E+01   0.0000000E+00  -3.4617990E-01   6.4564857E+01   0.0000000E+00  -6.7767984E-01   6.4458061E+01   0.0000000E+00  -9.7840381E-01   6.4335876E+01   0.0000000E+00  -1.1729274E+00   6.4216301E+01   0.0000000E+00  -1.1618469E+00   6.4196289E+01   0.0000000E+00  -8.0008680E-01   6.4275070E+01   0.0000000E+00   1.7576739E-01   6.4154900E+01   0.0000000E+00  -4.7671820E-06   6.4145844E+01   0.0000000E+00  -1.2105228E-01   6.4155396E+01   0.0000000E+00  -2.6822436E-01   6.4129211E+01   0.0000000E+00  -3.9607358E-01   6.4082451E+01   0.0000000E+00  -4.2480671E-01   6.3997997E+01   0.0000000E+00  -1.8495910E-01   6.3949665E+01   0.0000000E+00   3.8252255E-01   6.4125099E+01   0.0000000E+00   1.3227540E+00   6.3406002E+01   0.0000000E+00   9.8334567E-09   6.3418468E+01   0.0000000E+00   1.5492587E-02   6.3461514E+01   0.0000000E+00   3.2865286E-02   6.3485710E+01   0.0000000E+00   1.0673331E-01   6.3471092E+01   0.0000000E+00   4.4799531E-01   6.3568108E+01   0.0000000E+00   8.3135325E-01   6.3690350E+01   0.0000000E+00   1.3614641E+00   6.3887333E+01   0.0000000E+00   2.2316527E+00   6.2342751E+01   0.0000000E+00   1.1074371E-06   6.2372078E+01   0.0000000E+00   1.2461814E-01   6.2378605E+01   0.0000000E+00   3.8365644E-01   6.2547024E+01   0.0000000E+00   6.7988551E-01   6.2728825E+01   0.0000000E+00   1.0020483E+00   6.2903233E+01   0.0000000E+00   1.4283271E+00   6.3122845E+01   0.0000000E+00   2.0538142E+00   6.3460743E+01   0.0000000E+00   2.9023740E+00   6.1042519E+01   0.0000000E+00   1.3229474E-06   6.1073982E+01   0.0000000E+00   2.7313033E-01   6.1215195E+01   0.0000000E+00   5.7470042E-01   6.1422138E+01   0.0000000E+00   9.4170672E-01   6.1681187E+01   0.0000000E+00   1.4072113E+00   6.1997944E+01   0.0000000E+00   1.9720808E+00   6.2373016E+01   0.0000000E+00   2.6512458E+00   6.2887722E+01   0.0000000E+00   3.3703856E+00   5.9705990E+01   0.0000000E+00   1.6505241E-05   5.9639965E+01   0.0000000E+00   2.4135111E-01   5.9806961E+01   0.0000000E+00   6.8120092E-01   6.0095013E+01   0.0000000E+00   1.2006307E+00   6.0473225E+01   0.0000000E+00   1.7631167E+00   6.0961010E+01   0.0000000E+00   2.4061730E+00   6.1544716E+01   0.0000000E+00   2.9737995E+00   6.2370464E+01   0.0000000E+00   3.6900446E+00   5.8147079E+01   0.0000000E+00  -6.1748651E-06   5.8147972E+01   0.0000000E+00   3.2832786E-01   5.8299770E+01   0.0000000E+00   8.0681062E-01   5.8693153E+01   0.0000000E+00   1.3968759E+00   5.9225216E+01   0.0000000E+00   2.0191770E+00   5.9885780E+01   0.0000000E+00   2.5130310E+00   6.0778046E+01   0.0000000E+00   3.1465573E+00   6.2095177E+01   0.0000000E+00   3.5466623E+00   5.6616749E+01   0.0000000E+00  -5.6983481E-06   5.6666210E+01   0.0000000E+00   4.3274224E-01   5.6835205E+01   0.0000000E+00   8.8126868E-01   5.7310276E+01   0.0000000E+00   1.4741071E+00   5.8077656E+01   0.0000000E+00   1.9733030E+00   5.9039558E+01   0.0000000E+00   2.4957886E+00   6.0436649E+01   0.0000000E+00   2.8608911E+00   6.2415874E+01   0.0000000E+00   3.2360988E+00   5.5279739E+01   0.0000000E+00   2.9148650E-06   5.5379490E+01   0.0000000E+00   4.9258074E-01   5.5625282E+01   0.0000000E+00   8.5593742E-01   5.6294292E+01   0.0000000E+00   1.3664113E+00   5.7238369E+01   0.0000000E+00   1.7578748E+00   5.8736034E+01   0.0000000E+00   2.1159575E+00   6.0795609E+01   0.0000000E+00   2.5131655E+00   6.3889359E+01   0.0000000E+00   2.7364624E+00   5.4340355E+01   0.0000000E+00  -1.4387188E-06   5.4668343E+01   0.0000000E+00   3.8277116E-01   5.4955280E+01   0.0000000E+00   7.5701839E-01   5.5868401E+01   0.0000000E+00   9.9631500E-01   5.7252270E+01   0.0000000E+00   1.2957871E+00   5.9414314E+01   0.0000000E+00   1.6960186E+00   6.2550861E+01   0.0000000E+00   1.9297888E+00   6.6743378E+01   0.0000000E+00   2.0265477E+00   5.4771141E+01   0.0000000E+00  -7.4862328E-08   5.4670544E+01   0.0000000E+00   1.0733178E-01   5.5467361E+01   0.0000000E+00   2.2630700E-01   5.6546959E+01   0.0000000E+00   4.6981466E-01   5.8574123E+01   0.0000000E+00   8.2439685E-01   6.1633137E+01   0.0000000E+00   9.8128486E-01   6.5921089E+01   0.0000000E+00   1.0359809E+00   7.2075142E+01   0.0000000E+00   1.3122070E+00   5.6127228E+01   0.0000000E+00  -1.9625877E-06   5.6618317E+01   0.0000000E+00  -2.9942816E-01   5.7256035E+01   0.0000000E+00  -2.9368395E-01   5.8771076E+01   0.0000000E+00  -2.5340468E-01   6.1481606E+01   0.0000000E+00  -2.9134256E-01   6.5721970E+01   0.0000000E+00  -1.2088537E-01   7.1649551E+01   0.0000000E+00   1.8325037E-01   7.9674644E+01   0.0000000E+00   9.6280313E-01   5.9087364E+01   0.0000000E+00  -1.0843796E-05   5.9595562E+01   0.0000000E+00  -1.2017831E+00   6.0361973E+01   0.0000000E+00  -1.5032710E+00   6.2686493E+01   0.0000000E+00  -1.6615398E+00   6.6377731E+01   0.0000000E+00  -1.6043811E+00   7.2252708E+01   0.0000000E+00  -1.0013735E+00   7.9611298E+01   0.0000000E+00  -2.7606350E-01   8.8931053E+01   0.0000000E+00   1.1993409E+00   6.3875473E+01   0.0000000E+00  -1.4026009E-05   6.4437378E+01   0.0000000E+00  -1.6834280E+00   6.6307022E+01   0.0000000E+00  -2.3438430E+00   6.9442345E+01   0.0000000E+00  -2.5159063E+00   7.3994888E+01   0.0000000E+00  -2.2250910E+00   8.0560677E+01   0.0000000E+00  -1.2878087E+00   8.8577522E+01   0.0000000E+00  -2.0913661E-01   7.3163643E+01   0.0000000E+00  -6.3819753E-06   7.3202065E+01   0.0000000E+00  -2.1696095E+00   7.4449982E+01   0.0000000E+00  -3.2083366E+00   7.7574303E+01   0.0000000E+00  -3.2027924E+00   8.2258926E+01   0.0000000E+00  -2.5782201E+00  -1.7693281E+00   0.0000000E+00   1.6164953E-01  -1.7204852E+00   0.0000000E+00   2.0396984E-01  -1.6490712E+00   0.0000000E+00   2.4922949E-01  -1.5519114E+00   0.0000000E+00   2.9842097E-01  -1.4270439E+00   0.0000000E+00   3.4835362E-01  -1.2724895E+00   0.0000000E+00   3.9368451E-01  -1.0860436E+00   0.0000000E+00   4.2485583E-01  -2.2494912E+00   0.0000000E+00   1.9748461E-01  -2.1925321E+00   0.0000000E+00   2.4584153E-01  -2.1064782E+00   0.0000000E+00   2.9895252E-01  -1.9892049E+00   0.0000000E+00   3.5293400E-01  -1.8372512E+00   0.0000000E+00   4.0474677E-01  -1.6426330E+00   0.0000000E+00   4.4839430E-01  -1.3885188E+00   0.0000000E+00   4.7629380E-01  -1.0509584E+00   0.0000000E+00   5.5090189E-01  -2.8197103E+00   0.0000000E+00   2.1167512E-01  -2.7537298E+00   0.0000000E+00   2.5900850E-01  -2.6526675E+00   0.0000000E+00   3.0920112E-01  -2.5136523E+00   0.0000000E+00   3.6073542E-01  -2.3355522E+00   0.0000000E+00   4.0748501E-01  -2.1048450E+00   0.0000000E+00   4.5299959E-01  -1.8025541E+00   0.0000000E+00   4.9390006E-01  -1.3882728E+00   0.0000000E+00   5.6561017E-01  -3.4467196E+00   0.0000000E+00   2.1223038E-01  -3.3719878E+00   0.0000000E+00   2.5586161E-01  -3.2557402E+00   0.0000000E+00   3.0239794E-01  -3.0968549E+00   0.0000000E+00   3.4940171E-01  -2.8946557E+00   0.0000000E+00   3.9253271E-01  -2.6379869E+00   0.0000000E+00   4.3431497E-01  -2.2951913E+00   0.0000000E+00   4.7588420E-01  -1.7981625E+00   0.0000000E+00   5.6128454E-01  -4.1402197E+00   0.0000000E+00   2.0435518E-01  -4.0576644E+00   0.0000000E+00   2.4449612E-01  -3.9278526E+00   0.0000000E+00   2.8597134E-01  -3.7504432E+00   0.0000000E+00   3.2770425E-01  -3.5296793E+00   0.0000000E+00   3.6321843E-01  -3.2485211E+00   0.0000000E+00   4.0221071E-01  -2.8653641E+00   0.0000000E+00   4.4553995E-01  -2.2786598E+00   0.0000000E+00   5.5698586E-01  -4.9135199E+00   0.0000000E+00   1.9325778E-01  -4.8251519E+00   0.0000000E+00   2.2885194E-01  -4.6845713E+00   0.0000000E+00   2.6344094E-01  -4.4918070E+00   0.0000000E+00   2.9780871E-01  -4.2547269E+00   0.0000000E+00   3.2516718E-01  -3.9528821E+00   0.0000000E+00   3.6034703E-01  -3.5301766E+00   0.0000000E+00   4.0969515E-01  -2.8443408E+00   0.0000000E+00   5.6193590E-01  -5.7732964E+00   0.0000000E+00   1.8498510E-01  -5.6815643E+00   0.0000000E+00   2.1447679E-01  -5.5332303E+00   0.0000000E+00   2.4006398E-01  -5.3294692E+00   0.0000000E+00   2.6437515E-01  -5.0777717E+00   0.0000000E+00   2.8596115E-01  -4.7642317E+00   0.0000000E+00   3.1561613E-01  -4.3074899E+00   0.0000000E+00   3.7917900E-01  -3.5146608E+00   0.0000000E+00   5.9300518E-01  -6.7211404E+00   0.0000000E+00   1.8747428E-01  -6.6286306E+00   0.0000000E+00   2.0933808E-01  -6.4755778E+00   0.0000000E+00   2.2490516E-01  -6.2638474E+00   0.0000000E+00   2.4071378E-01  -6.0113974E+00   0.0000000E+00   2.4841380E-01  -5.6878214E+00   0.0000000E+00   2.8482246E-01  -5.2105079E+00   0.0000000E+00   3.7189865E-01  -4.3120155E+00   0.0000000E+00   6.7086887E-01  -7.7576165E+00   0.0000000E+00   2.1203655E-01  -7.6663837E+00   0.0000000E+00   2.2682327E-01  -7.5118322E+00   0.0000000E+00   2.3329681E-01  -7.2999592E+00   0.0000000E+00   2.3756045E-01  -7.0468712E+00   0.0000000E+00   2.3981166E-01  -6.7209949E+00   0.0000000E+00   2.8926420E-01  -6.2523961E+00   0.0000000E+00   3.9252758E-01  -5.2901564E+00   0.0000000E+00   7.6241970E-01  -8.8833323E+00   0.0000000E+00   2.7254567E-01  -8.7948008E+00   0.0000000E+00   2.8440046E-01  -8.6422338E+00   0.0000000E+00   2.8385967E-01  -8.4331446E+00   0.0000000E+00   2.8009903E-01  -8.1889582E+00   0.0000000E+00   2.7091670E-01  -7.8894334E+00   0.0000000E+00   3.1281424E-01  -7.4615817E+00   0.0000000E+00   4.1308880E-01  -6.5634460E+00   0.0000000E+00   7.3773670E-01  -1.0098961E+01   0.0000000E+00   3.8275537E-01  -1.0013887E+01   0.0000000E+00   3.9560598E-01  -9.8652601E+00   0.0000000E+00   3.9243063E-01  -9.6697750E+00   0.0000000E+00   3.7354803E-01  -9.4499369E+00   0.0000000E+00   3.4692121E-01  -9.2118835E+00   0.0000000E+00   3.5172606E-01  -8.8891573E+00   0.0000000E+00   4.2317486E-01  -8.2246475E+00   0.0000000E+00   5.8395767E-01  -1.1407692E+01   0.0000000E+00   5.4856920E-01  -1.1324926E+01   0.0000000E+00   5.6992096E-01  -1.1182021E+01   0.0000000E+00   5.7074964E-01  -1.1010650E+01   0.0000000E+00   5.3414035E-01  -1.0831670E+01   0.0000000E+00   5.0343966E-01  -1.0684145E+01   0.0000000E+00   4.9551868E-01  -1.0541777E+01   0.0000000E+00   5.8764839E-01  -1.0041771E+01   0.0000000E+00   8.6815262E-01  -1.2813348E+01   0.0000000E+00   7.7694184E-01  -1.2730892E+01   0.0000000E+00   8.1223780E-01  -1.2593349E+01   0.0000000E+00   8.3678269E-01  -1.2456516E+01   0.0000000E+00   8.1660408E-01  -1.2358272E+01   0.0000000E+00   8.4136915E-01  -1.2354046E+01   0.0000000E+00   9.8883772E-01  -1.2399328E+01   0.0000000E+00   1.5011492E+00  -1.2091084E+01   0.0000000E+00   2.4538088E+00  -1.4323011E+01   0.0000000E+00   1.0634845E+00  -1.4235504E+01   0.0000000E+00   1.1423347E+00  -1.4110046E+01   0.0000000E+00   1.2012103E+00  -1.4012926E+01   0.0000000E+00   1.2602544E+00  -1.4037022E+01   0.0000000E+00   1.4029731E+00  -1.4238273E+01   0.0000000E+00   1.8074861E+00  -1.4576538E+01   0.0000000E+00   2.6518869E+00  -1.4709626E+01   0.0000000E+00   3.7735577E+00  -1.5940818E+01   0.0000000E+00   1.4165330E+00  -1.5847691E+01   0.0000000E+00   1.5396851E+00  -1.5732179E+01   0.0000000E+00   1.6555440E+00  -1.5685646E+01   0.0000000E+00   1.8264445E+00  -1.5840011E+01   0.0000000E+00   2.0886524E+00  -1.6311041E+01   0.0000000E+00   2.6261485E+00  -1.7071486E+01   0.0000000E+00   3.5141184E+00  -1.7781540E+01   0.0000000E+00   4.6457195E+00  -1.7671799E+01   0.0000000E+00   1.8121394E+00  -1.7569510E+01   0.0000000E+00   1.9850941E+00  -1.7453854E+01   0.0000000E+00   2.1695745E+00  -1.7444872E+01   0.0000000E+00   2.4011180E+00  -1.7727427E+01   0.0000000E+00   2.7526143E+00  -1.8464954E+01   0.0000000E+00   3.3440540E+00  -1.9660204E+01   0.0000000E+00   4.2233891E+00  -2.1006001E+01   0.0000000E+00   5.3462868E+00  -1.9515614E+01   0.0000000E+00   2.2355192E+00  -1.9393740E+01   0.0000000E+00   2.4609039E+00  -1.9273676E+01   0.0000000E+00   2.6781330E+00  -1.9294973E+01   0.0000000E+00   2.9498272E+00  -1.9679247E+01   0.0000000E+00   3.3498650E+00  -2.0651220E+01   0.0000000E+00   3.9640985E+00  -2.2253008E+01   0.0000000E+00   4.8424745E+00  -2.4191969E+01   0.0000000E+00   6.0038891E+00  -2.1467787E+01   0.0000000E+00   2.6561759E+00  -2.1319471E+01   0.0000000E+00   2.9210372E+00  -2.1178722E+01   0.0000000E+00   3.1747949E+00  -2.1223579E+01   0.0000000E+00   3.4512899E+00  -2.1698202E+01   0.0000000E+00   3.8695831E+00  -2.2879524E+01   0.0000000E+00   4.5091200E+00  -2.4844368E+01   0.0000000E+00   5.4170899E+00  -2.7277697E+01   0.0000000E+00   6.6642842E+00  -2.3519018E+01   0.0000000E+00   3.0731468E+00  -2.3337805E+01   0.0000000E+00   3.3410251E+00  -2.3175411E+01   0.0000000E+00   3.6091347E+00  -2.3230434E+01   0.0000000E+00   3.8997786E+00  -2.3793051E+01   0.0000000E+00   4.3264294E+00  -2.5185242E+01   0.0000000E+00   4.9995818E+00  -2.7490999E+01   0.0000000E+00   5.9896312E+00  -3.0364754E+01   0.0000000E+00   7.3351169E+00  -2.5668991E+01   0.0000000E+00   3.4701052E+00  -2.5443230E+01   0.0000000E+00   3.7388723E+00  -2.5246342E+01   0.0000000E+00   3.9929328E+00  -2.5312748E+01   0.0000000E+00   4.2956839E+00  -2.5970242E+01   0.0000000E+00   4.7365561E+00  -2.7588884E+01   0.0000000E+00   5.4431682E+00  -3.0254313E+01   0.0000000E+00   6.5364709E+00  -3.3581028E+01   0.0000000E+00   8.0120163E+00  -2.7909370E+01   0.0000000E+00   3.8329012E+00  -2.7625738E+01   0.0000000E+00   4.0980010E+00  -2.7388083E+01   0.0000000E+00   4.3448839E+00  -2.7458864E+01   0.0000000E+00   4.6336489E+00  -2.8222925E+01   0.0000000E+00   5.0988302E+00  -3.0084848E+01   0.0000000E+00   5.8523903E+00  -3.3144833E+01   0.0000000E+00   7.0519147E+00  -3.6977859E+01   0.0000000E+00   8.6551924E+00  -3.0235168E+01   0.0000000E+00   4.1592059E+00  -2.9877506E+01   0.0000000E+00   4.4077077E+00  -2.9588919E+01   0.0000000E+00   4.6474833E+00  -2.9662876E+01   0.0000000E+00   4.9306931E+00  -3.0541500E+01   0.0000000E+00   5.4105573E+00  -3.2665955E+01   0.0000000E+00   6.2130694E+00  -3.6155907E+01   0.0000000E+00   7.5278225E+00  -4.0536095E+01   0.0000000E+00   9.2924614E+00  -3.2634621E+01   0.0000000E+00   4.4086976E+00  -3.2189278E+01   0.0000000E+00   4.6529994E+00  -3.1839264E+01   0.0000000E+00   4.8863869E+00  -3.1914209E+01   0.0000000E+00   5.1702685E+00  -3.2913918E+01   0.0000000E+00   5.6593451E+00  -3.5322159E+01   0.0000000E+00   6.5152063E+00  -3.9281040E+01   0.0000000E+00   7.9467630E+00  -4.4257778E+01   0.0000000E+00   9.8968906E+00  -3.5097176E+01   0.0000000E+00   4.5654130E+00  -3.4551670E+01   0.0000000E+00   4.8124752E+00  -3.4128922E+01   0.0000000E+00   5.0401878E+00  -3.4200516E+01   0.0000000E+00   5.3249664E+00  -3.5328094E+01   0.0000000E+00   5.8293428E+00  -3.8045799E+01   0.0000000E+00   6.7413678E+00  -4.2517067E+01   0.0000000E+00   8.2920399E+00  -4.8144302E+01   0.0000000E+00   1.0451842E+01  -3.7614117E+01   0.0000000E+00   4.6116452E+00  -3.6954128E+01   0.0000000E+00   4.8588953E+00  -3.6448460E+01   0.0000000E+00   5.0818591E+00  -3.6513142E+01   0.0000000E+00   5.3642669E+00  -3.7777634E+01   0.0000000E+00   5.8940711E+00  -4.0835297E+01   0.0000000E+00   6.8651185E+00  -4.5870441E+01   0.0000000E+00   8.5362196E+00  -5.2213436E+01   0.0000000E+00   1.0940489E+01  -4.0174458E+01   0.0000000E+00   4.5272012E+00  -3.9386307E+01   0.0000000E+00   4.7667098E+00  -3.8790306E+01   0.0000000E+00   4.9845214E+00  -3.8853065E+01   0.0000000E+00   5.2834544E+00  -4.0264328E+01   0.0000000E+00   5.8104544E+00  -4.3697701E+01   0.0000000E+00   6.8495178E+00  -4.9364925E+01   0.0000000E+00   8.6516380E+00  -5.6523884E+01   0.0000000E+00   1.1341725E+01  -4.2762375E+01   0.0000000E+00   4.2747564E+00  -4.1839146E+01   0.0000000E+00   4.5243368E+00  -4.1147655E+01   0.0000000E+00   4.7349696E+00  -4.1212059E+01   0.0000000E+00   5.0073814E+00  -4.2787296E+01   0.0000000E+00   5.5361209E+00  -4.6645374E+01   0.0000000E+00   6.6529260E+00  -5.3038498E+01   0.0000000E+00   8.6091328E+00  -6.1173512E+01   0.0000000E+00   1.1638324E+01  -4.5370136E+01   0.0000000E+00   3.8701122E+00  -4.4293789E+01   0.0000000E+00   4.1283226E+00  -4.3496754E+01   0.0000000E+00   4.3307514E+00  -4.3562603E+01   0.0000000E+00   4.5426373E+00  -4.5331810E+01   0.0000000E+00   5.0498719E+00  -4.9666637E+01   0.0000000E+00   6.2555780E+00  -5.6916233E+01   0.0000000E+00   8.3949137E+00  -6.6258110E+01   0.0000000E+00   1.1819847E+01  -4.7942127E+01   0.0000000E+00   3.2922404E+00  -4.6686295E+01   0.0000000E+00   3.5991359E+00  -4.5766521E+01   0.0000000E+00   3.7644835E+00  -4.5826088E+01   0.0000000E+00   3.9375701E+00  -4.7835922E+01   0.0000000E+00   4.3724971E+00  -5.2708115E+01   0.0000000E+00   5.6501560E+00  -6.0947849E+01   0.0000000E+00   8.0047121E+00  -7.1765945E+01   0.0000000E+00   1.1885464E+01  -5.0393925E+01   0.0000000E+00   2.4603264E+00  -4.8925358E+01   0.0000000E+00   2.8312299E+00  -4.7822495E+01   0.0000000E+00   3.0816829E+00  -4.7827148E+01   0.0000000E+00   3.2978649E+00  -5.0118565E+01   0.0000000E+00   3.6252456E+00  -5.5646091E+01   0.0000000E+00   4.8147879E+00  -6.4942863E+01   0.0000000E+00   7.4696970E+00  -7.7455330E+01   0.0000000E+00   1.1923805E+01  -5.2565006E+01   0.0000000E+00   1.4011461E+00  -5.0901337E+01   0.0000000E+00   1.8098931E+00  -4.9626442E+01   0.0000000E+00   2.1399674E+00  -4.9556499E+01   0.0000000E+00   2.3813469E+00  -5.1960964E+01   0.0000000E+00   2.9342415E+00  -5.8260899E+01   0.0000000E+00   3.9251926E+00  -6.8631401E+01   0.0000000E+00   6.8338332E+00  -8.2939362E+01   0.0000000E+00   1.2084048E+01  -5.4367069E+01   0.0000000E+00  -3.4910716E-02  -5.2518383E+01   0.0000000E+00   4.7011459E-01  -5.1105434E+01   0.0000000E+00   8.2520479E-01  -5.0998516E+01   0.0000000E+00   1.2703439E+00  -5.3520187E+01   0.0000000E+00   1.9687194E+00  -6.0042507E+01   0.0000000E+00   3.7000141E+00  -7.1603294E+01   0.0000000E+00   6.4486074E+00  -8.7547081E+01   0.0000000E+00   1.2247757E+01  -5.5735481E+01   0.0000000E+00  -1.8412733E+00  -5.3747288E+01   0.0000000E+00  -1.1964619E+00  -5.2209606E+01   0.0000000E+00  -6.6925496E-01  -5.2045250E+01   0.0000000E+00  -1.3943747E-02  -5.4795155E+01   0.0000000E+00   1.1706226E+00  -6.1659309E+01   0.0000000E+00   3.5655975E+00  -7.4005249E+01   0.0000000E+00   6.5563745E+00  -9.0756790E+01   0.0000000E+00   1.2620638E+01  -5.6654068E+01   0.0000000E+00  -3.9990604E+00  -5.4528305E+01   0.0000000E+00  -3.0941331E+00  -5.2847904E+01   0.0000000E+00  -2.1179736E+00  -5.2569599E+01   0.0000000E+00  -7.6754415E-01  -5.5155487E+01   0.0000000E+00   1.4707859E+00  -6.2094112E+01   0.0000000E+00   4.2526436E+00  -7.4889740E+01   0.0000000E+00   7.3710036E+00  -9.2353691E+01   0.0000000E+00   1.2853727E+01  -5.7007679E+01   0.0000000E+00  -6.2082419E+00  -5.4645653E+01   0.0000000E+00  -4.8530836E+00  -5.2794880E+01   0.0000000E+00  -3.2491879E+00  -5.2250946E+01   0.0000000E+00  -8.6607289E-01  -5.4372490E+01   0.0000000E+00   1.7941176E+00  -6.1093536E+01   0.0000000E+00   5.2271624E+00  -7.3067024E+01   0.0000000E+00   7.1916513E+00  -8.9021942E+01   0.0000000E+00   1.1524247E+01  -5.6218231E+01   0.0000000E+00  -7.2028694E+00  -5.3449585E+01   0.0000000E+00  -5.0557356E+00  -5.1138912E+01   0.0000000E+00  -2.4244475E+00  -4.9881836E+01   0.0000000E+00   2.4944174E-01  -5.1251274E+01   0.0000000E+00   1.9381796E+00  -5.7803795E+01   0.0000000E+00   5.3743558E+00  -6.7032852E+01   0.0000000E+00   8.4012308E+00  -7.2280060E+01   0.0000000E+00   1.2651426E+01  -5.0974529E+01   0.0000000E+00  -3.1156898E+00  -4.7950302E+01   0.0000000E+00  -6.6926700E-01  -4.5089008E+01   0.0000000E+00   9.4347149E-01  -4.3759140E+01   0.0000000E+00   8.8299793E-01  -4.4346569E+01   0.0000000E+00   1.8007020E+00  -4.4701866E+01   0.0000000E+00   5.6752710E+00  -4.4718117E+01   0.0000000E+00   7.4427872E+00  -4.5592171E+01   0.0000000E+00   1.4104077E+01  -3.3509460E+01   0.0000000E+00  -5.1228232E+00  -3.0975254E+01   0.0000000E+00  -2.6738958E+00  -2.8791805E+01   0.0000000E+00  -1.4116798E-01  -2.7097630E+01   0.0000000E+00   6.7544645E-01  -2.6073116E+01   0.0000000E+00   1.8526716E+00  -2.6053387E+01   0.0000000E+00   5.9448295E+00  -2.6283056E+01   0.0000000E+00   5.1290445E+00  -2.6960091E+01   0.0000000E+00   1.1670567E+01  -2.0122934E+01   0.0000000E+00  -8.3935099E+00  -1.8284611E+01   0.0000000E+00  -6.1392069E+00  -1.6811338E+01   0.0000000E+00  -3.3401237E+00  -1.5776482E+01   0.0000000E+00  -6.3564724E-01  -1.5358065E+01   0.0000000E+00   1.9389253E+00  -1.5559169E+01   0.0000000E+00   6.5492811E+00  -1.6178553E+01   0.0000000E+00   3.4978497E+00  -1.6980648E+01   0.0000000E+00   9.1923170E+00  -1.1185317E+01   0.0000000E+00  -1.0746172E+01  -1.0252882E+01   0.0000000E+00  -8.5303469E+00  -9.6289349E+00   0.0000000E+00  -5.6783137E+00  -9.3728161E+00   0.0000000E+00  -2.2484007E+00  -9.5181808E+00   0.0000000E+00   1.8764724E+00  -1.0051037E+01   0.0000000E+00   8.2199373E+00  -1.0887121E+01   0.0000000E+00   2.1128092E+00  -1.1770676E+01   0.0000000E+00   8.0324678E+00  -3.7255666E+00   0.0000000E+00  -1.1833478E+01  -3.6347556E+00   0.0000000E+00  -9.4909735E+00  -3.7531176E+00   0.0000000E+00  -6.4174581E+00  -4.0706244E+00   0.0000000E+00  -2.5918195E+00  -4.5754666E+00   0.0000000E+00   2.2129042E+00  -5.2351179E+00   0.0000000E+00   8.8465500E+00  -5.9841003E+00   0.0000000E+00   9.7477627E-01  -6.6918182E+00   0.0000000E+00   7.9230556E+00   4.4439621E+00   0.0000000E+00  -1.1679495E+01   3.9568801E+00   0.0000000E+00  -9.1160021E+00   3.4114392E+00   0.0000000E+00  -5.7629676E+00   2.8606329E+00   0.0000000E+00  -1.6002640E+00   2.3427107E+00   0.0000000E+00   3.2218530E+00   1.8877499E+00   0.0000000E+00   8.6413383E+00   1.5196991E+00   0.0000000E+00   3.5411835E-01   1.2246125E+00   0.0000000E+00   8.1245575E+00   1.3991581E+01   0.0000000E+00  -1.0587251E+01   1.3253233E+01   0.0000000E+00  -7.8145823E+00   1.2639089E+01   0.0000000E+00  -4.2868705E+00   1.2212724E+01   0.0000000E+00  -6.2800996E-02   1.1944195E+01   0.0000000E+00   3.8414173E+00   1.2001782E+01   0.0000000E+00   8.2184954E+00   1.2179935E+01   0.0000000E+00   2.8137329E-01   1.2414389E+01   0.0000000E+00   8.7347555E+00   2.4425238E+01   0.0000000E+00  -8.9758501E+00   2.3702347E+01   0.0000000E+00  -6.0723720E+00   2.3284145E+01   0.0000000E+00  -2.5031822E+00   2.3183905E+01   0.0000000E+00   1.4479918E+00   2.3242439E+01   0.0000000E+00   4.1473494E+00   2.3696985E+01   0.0000000E+00   7.4473963E+00   2.4739353E+01   0.0000000E+00   7.4881142E-01   2.5531303E+01   0.0000000E+00   9.4727745E+00   3.4942913E+01   0.0000000E+00  -7.2387395E+00   3.4378056E+01   0.0000000E+00  -4.3046517E+00   3.4267765E+01   0.0000000E+00  -7.9024762E-01   3.4533558E+01   0.0000000E+00   2.7336111E+00   3.4982426E+01   0.0000000E+00   4.7792344E+00   3.5717911E+01   0.0000000E+00   7.3023133E+00   3.7181854E+01   0.0000000E+00   1.5664399E+00   3.9212776E+01   0.0000000E+00   1.1217134E+01   4.4977123E+01   0.0000000E+00  -5.6555552E+00   4.4587376E+01   0.0000000E+00  -2.7805326E+00   4.4752796E+01   0.0000000E+00   6.3235366E-01   4.5158417E+01   0.0000000E+00   3.5846441E+00   4.5645222E+01   0.0000000E+00   5.2863474E+00   4.6890373E+01   0.0000000E+00   8.0211020E+00   4.8220058E+01   0.0000000E+00   2.7300420E+00   5.2085014E+01   0.0000000E+00   1.2834701E+01   5.4213879E+01   0.0000000E+00  -4.3665538E+00   5.3946014E+01   0.0000000E+00  -1.6176442E+00   5.4251114E+01   0.0000000E+00   1.6386620E+00   5.4539364E+01   0.0000000E+00   4.1578484E+00   5.4695820E+01   0.0000000E+00   5.6889114E+00   5.5853943E+01   0.0000000E+00   8.7302647E+00   5.7731678E+01   0.0000000E+00   4.4730306E+00   6.3560196E+01   0.0000000E+00   1.3948049E+01   6.0707127E+01   0.0000000E+00  -3.1881328E+00   6.0853706E+01   0.0000000E+00  -5.9509099E-01   6.1563267E+01   0.0000000E+00   2.5200911E+00   6.2455482E+01   0.0000000E+00   4.9046721E+00   6.2171780E+01   0.0000000E+00   6.0091310E+00   6.2948475E+01   0.0000000E+00   9.3734531E+00   6.5887665E+01   0.0000000E+00   7.2994099E+00   7.3551132E+01   0.0000000E+00   1.5581834E+01   6.3105789E+01   0.0000000E+00  -1.8709265E+00   6.3515057E+01   0.0000000E+00   6.4944649E-01   6.4650085E+01   0.0000000E+00   3.6413434E+00   6.6815216E+01   0.0000000E+00   6.3213115E+00   6.8538391E+01   0.0000000E+00   7.1134443E+00   6.9380783E+01   0.0000000E+00   1.0361402E+01   7.3260742E+01   0.0000000E+00   1.0377052E+01   8.2311386E+01   0.0000000E+00   1.6851011E+01   6.4033066E+01   0.0000000E+00  -4.9279565E-01   6.4530067E+01   0.0000000E+00   1.8930737E+00   6.5729172E+01   0.0000000E+00   4.6411476E+00   6.8405251E+01   0.0000000E+00   7.4981322E+00   7.2860863E+01   0.0000000E+00   9.3345432E+00   7.5752640E+01   0.0000000E+00   1.1478673E+01   8.0177643E+01   0.0000000E+00   1.2501074E+01   9.0357948E+01   0.0000000E+00   1.7312366E+01   6.4362762E+01   0.0000000E+00   7.1217871E-01   6.4983185E+01   0.0000000E+00   2.8762145E+00   6.6372406E+01   0.0000000E+00   5.4036045E+00   6.9206192E+01   0.0000000E+00   7.9535332E+00   7.4779030E+01   0.0000000E+00   1.0344084E+01   8.1781418E+01   0.0000000E+00   1.2833060E+01   8.6944107E+01   0.0000000E+00   1.3569790E+01   9.8803497E+01   0.0000000E+00   1.7368332E+01   6.4447578E+01   0.0000000E+00   1.7398449E+00   6.5211021E+01   0.0000000E+00   3.7832425E+00   6.6678032E+01   0.0000000E+00   6.0334311E+00   6.9838310E+01   0.0000000E+00   8.3574371E+00   7.5770172E+01   0.0000000E+00   1.0398458E+01   8.5431076E+01   0.0000000E+00   1.3355621E+01   9.5026825E+01   0.0000000E+00   1.4568523E+01   1.0796043E+02   0.0000000E+00   1.6905075E+01   6.4521454E+01   0.0000000E+00   2.7512593E+00   6.5227768E+01   0.0000000E+00   4.4368677E+00   6.6943497E+01   0.0000000E+00   6.3640971E+00   7.0544998E+01   0.0000000E+00   8.4027386E+00   7.6951653E+01   0.0000000E+00   1.0274482E+01   8.8149178E+01   0.0000000E+00   1.3383254E+01   1.0359400E+02   0.0000000E+00   1.5066718E+01   1.1750477E+02   0.0000000E+00   1.5027190E+01   6.4304390E+01   0.0000000E+00   3.4011245E+00   6.5283257E+01   0.0000000E+00   4.8518343E+00   6.7403076E+01   0.0000000E+00   6.6348791E+00   7.1432175E+01   0.0000000E+00   8.3551464E+00   7.8706963E+01   0.0000000E+00   1.0017049E+01   9.1372986E+01   0.0000000E+00   1.3033532E+01   1.0895310E+02   0.0000000E+00   1.6233335E+01   1.2942667E+02   0.0000000E+00   1.9543493E+01   6.4062836E+01   0.0000000E+00   3.9396002E+00   6.5340248E+01   0.0000000E+00   5.1235003E+00   6.8085373E+01   0.0000000E+00   6.5488815E+00   7.2999222E+01   0.0000000E+00   8.0619440E+00   8.1451004E+01   0.0000000E+00   9.5741434E+00   9.5351410E+01   0.0000000E+00   1.2498666E+01   1.1492463E+02   0.0000000E+00   1.6321985E+01   1.3706328E+02   0.0000000E+00   2.0992477E+01   6.3826000E+01   0.0000000E+00   4.3033948E+00   6.5649902E+01   0.0000000E+00   5.1292591E+00   6.9352470E+01   0.0000000E+00   6.2358494E+00   7.5369896E+01   0.0000000E+00   7.3964043E+00   8.5205223E+01   0.0000000E+00   8.8211403E+00   1.0050512E+02   0.0000000E+00   1.1965427E+01   1.2167452E+02   0.0000000E+00   1.6315380E+01   6.3803230E+01   0.0000000E+00   4.2307453E+00   6.6526810E+01   0.0000000E+00   4.8964767E+00   7.1411522E+01   0.0000000E+00   5.7726851E+00   7.8753555E+01   0.0000000E+00   6.7282825E+00   9.0392296E+01   0.0000000E+00   8.3600512E+00   1.0718340E+02   0.0000000E+00   1.1964811E+01   1.2941266E+02   0.0000000E+00   1.6435919E+01   6.4316856E+01   0.0000000E+00   3.9689939E+00   6.8133118E+01   0.0000000E+00   4.5566692E+00   7.4386230E+01   0.0000000E+00   5.3013296E+00   8.3411324E+01   0.0000000E+00   5.9510875E+00   9.6894829E+01   0.0000000E+00   8.1356001E+00   1.1552961E+02   0.0000000E+00   1.2025250E+01   6.5643860E+01   0.0000000E+00   3.5873790E+00   7.0825821E+01   0.0000000E+00   4.0797315E+00   7.8392265E+01   0.0000000E+00   4.5178776E+00   8.9302376E+01   0.0000000E+00   5.2363977E+00   1.0478212E+02   0.0000000E+00   8.1360435E+00   1.2492950E+02   0.0000000E+00   1.2237427E+01   6.8461288E+01   0.0000000E+00   3.0191956E+00   7.4982132E+01   0.0000000E+00   3.2402511E+00   8.4302414E+01   0.0000000E+00   3.7506957E+00   9.7203430E+01   0.0000000E+00   5.3525095E+00   1.1483965E+02   0.0000000E+00   8.8495731E+00   7.2875900E+01   0.0000000E+00   2.2133973E+00   8.1443527E+01   0.0000000E+00   2.6654086E+00   9.3125923E+01   0.0000000E+00   4.0085688E+00   1.0755752E+02   0.0000000E+00   6.3650770E+00   8.0030899E+01   0.0000000E+00   1.7374830E+00   9.0675209E+01   0.0000000E+00   2.9898930E+00   1.0369631E+02   0.0000000E+00   5.2478361E+00   1.1708324E+02   0.0000000E+00   7.3604717E+00   8.9389214E+01   0.0000000E+00   2.0450675E+00   1.0104858E+02   0.0000000E+00   4.1392336E+00   9.9272018E+01   0.0000000E+00   2.8319731E+00 
StrainDot 3 2975 float
  0.0000000E+00   0.0000000E+00   0.0000000E+00   0.0000000E+00   0.0000000E+00   0.0000000E+00   0.0000000E+00   0.0000000E+00   0.0000000E+00   0.0000000E+00   0.0000000E+00   0.0000000E+00   0.0000000E+00   0.0000000E+00   0.0000000E+00   0.0000000E+00   0.0000000E+00   0.0000000E+00   0.0000000E+00   0.0000000E+00   0.0000000E+00   0.0000000E+00   0.0000000E+00   0.0000000E+00   0.0000000E+00   0.0000000E+00   0.0000000E+00   0.0000000E+00   0.0000000E+00   0.0000000E+00   0.0000000E+00   0.0000000E+00   0.0000000E+00   0.0000000E+00   0.0000000E+00   0.0000000E+00   0.0000000E+00   0.0000000E+00   0.0000000E+00  -6.9617698E-07   0.0000000E+00  -1.8754359E-07  -6.5142769E-18   0.0000000E+00  -2.7571466E-18  -3.2764460E-06   0.0000000E+00  -1.3670431E-06  -2.3602073E-05   0.0000000E+00  -7.7102686E-06  -5.6003510E-06   0.0000000E+00  -2.8804602E-06  -4.1275085E-05   0.0000000E+00  -2.0425459E-05  -1.4087031E-04   0.0000000E+00  -5.3347991E-05  -4.4457305E-05   0.0000000E+00  -2.6765652E-05  -1.7294601E-04   0.0000000E+00  -9.7344622E-05  -4.5530373E-04   0.0000000E+00  -1.9394640E-04  -1.4997696E-04   0.0000000E+00  -1.0292221E-04  -4.5235647E-04   0.0000000E+00  -2.8594697E-04  -1.0516408E-03   0.0000000E+00  -4.9928389E-04  -3.3423581E-04   0.0000000E+00  -2.6094556E-04  -8.8928634E-04   0.0000000E+00  -6.3164340E-04  -1.9349932E-03   0.0000000E+00  -1.0260527E-03  -5.7489378E-04   0.0000000E+00  -5.1163434E-04  -1.4342018E-03   0.0000000E+00  -1.1458808E-03  -3.0126674E-03   0.0000000E+00  -1.7860065E-03  -8.2677428E-04   0.0000000E+00  -8.3600084E-04  -2.0014232E-03   0.0000000E+00  -1.7890816E-03  -4.1314992E-03   0.0000000E+00  -2.7213059E-03  -1.0506515E-03   0.0000000E+00  -1.1892283E-03  -2.5202150E-03   0.0000000E+00  -2.4772936E-03  -5.1667523E-03   0.0000000E+00  -3.7093179E-03  -1.2392291E-03   0.0000000E+00  -1.5207486E-03  -2.9815044E-03   0.0000000E+00  -3.1176289E-03  -6.1086458E-03   0.0000000E+00  -4.6134964E-03  -1.4254890E-03   0.0000000E+00  -1.7986237E-03  -3.4520500E-03   0.0000000E+00  -3.6518867E-03  -7.0795515E-03   0.0000000E+00  -5.3520813E-03  -1.6777155E-03   0.0000000E+00  -2.0215914E-03  -4.0756813E-03   0.0000000E+00  -4.0778113E-03  -8.3415993E-03   0.0000000E+00  -5.9295790E-03  -2.0975703E-03   0.0000000E+00  -2.2173419E-03  -5.0694323E-03   0.0000000E+00  -4.4495030E-03  -1.0284591E-02   0.0000000E+00  -6.4349873E-03  -2.8252234E-03   0.0000000E+00  -2.4444107E-03  -6.7204670E-03   0.0000000E+00  -4.8894226E-03  -1.3406393E-02   0.0000000E+00  -7.0563965E-03  -4.0624877E-03   0.0000000E+00  -2.8353299E-03  -9.4027482E-03   0.0000000E+00  -5.6381822E-03  -1.8306492E-02   0.0000000E+00  -8.1233950E-03  -6.0586082E-03   0.0000000E+00  -3.6929303E-03  -1.3439965E-02   0.0000000E+00  -7.1375971E-03  -2.5394574E-02   0.0000000E+00  -1.0171873E-02  -8.9173475E-03   0.0000000E+00  -5.6712381E-03  -1.8586144E-02   0.0000000E+00  -1.0153998E-02  -3.4034062E-02   0.0000000E+00  -1.4028008E-02  -2.3864495E-02   0.0000000E+00  -1.5870282E-02  -4.2479951E-02   0.0000000E+00  -2.0839276E-02   0.0000000E+00   0.0000000E+00   0.0000000E+00   0.0000000E+00   0.0000000E+00   0.0000000E+00   0.0000000E+00   0.0000000E+00   0.0000000E+00   0.0000000E+00   0.0000000E+00   0.0000000E+00   0.0000000E+00   0.0000000E+00   0.0000000E+00   0.0000000E+00   0.0000000E+00   0.0000000E+00   0.0000000E+00   0.0000000E+00   0.0000000E+00   0.0000000E+00   0.0000000E+00   0.0000000E+00   0.0000000E+00   0.0000000E+00   0.0000000E+00   0.0000000E+00   0.0000000E+00   0.0000000E+00   0.0000000E+00   0.0000000E+00   0.0000000E+00   0.0000000E+00   0.0000000E+00   0.0000000E+00   0.0000000E+00   0.0000000E+00   0.0000000E+00   0.0000000E+00   0.0000000E+00   0.0000000E+00   0.0000000E+00   0.0000000E+00   0.0000000E+00   0.0000000E+00   0.0000000E+00   0.0000000E+00   0.0000000E+00   0.0000000E+00   0.0000000E+00   0.0000000E+00   0.0000000E+00   0.0000000E+00   0.0000000E+00   0.0000000E+00   0.0000000E+00   0.0000000E+00   0.0000000E+00   0.0000000E+00   0.0000000E+00   0.0000000E+00   0.0000000E+00   0.0000000E+00   0.0000000E+00   0.0000000E+00   0.0000000E+00   0.0000000E+00   0.0000000E+00   0.0000000E+00   0.0000000E+00   0.0000000E+00   0.0000000E+00   0.0000000E+00   0.0000000E+00  -1.4546947E-07   0.0000000E+00  -1.2718664E-08  -9.6237773E-07   0.0000000E+00  -4.2936300E-08  -2.3357763E-06   0.0000000E+00  -3.8663696E-08  -3.5388532E-06   0.0000000E+00  -3.9721204E-09  -4.1992243E-06   0.0000000E+00   1.0626588E-08  -4.6418018E-06   0.0000000E+00   1.2509265E-08  -4.9735731E-06   0.0000000E+00   1.2748524E-08  -6.4135370E-06   0.0000000E+00  -1.1866061E-06  -2.2092428E-05   0.0000000E+00  -2.5649617E-06  -4.9134909E-05   0.0000000E+00  -3.3141964E-06  -8.3768005E-05   0.0000000E+00  -2.8510963E-06  -1.1880156E-04   0.0000000E+00  -1.3555314E-06  -1.4769749E-04   0.0000000E+00   3.4157759E-07  -1.6773096E-04   0.0000000E+00   1.3331158E-06  -1.8070638E-04   0.0000000E+00   1.5205258E-06  -7.6710043E-05   0.0000000E+00  -1.6923841E-05  -1.7394288E-04   0.0000000E+00  -2.4058272E-05  -3.1492650E-04   0.0000000E+00  -2.5687945E-05  -4.8384038E-04   0.0000000E+00  -2.0725915E-05  -6.5447309E-04   0.0000000E+00  -1.0623417E-05  -8.0265850E-04   0.0000000E+00   7.9549113E-07  -9.1629464E-04   0.0000000E+00   9.3669860E-06  -9.9587103E-04   0.0000000E+00   1.3358250E-05  -3.3871140E-04   0.0000000E+00  -8.5780681E-05  -6.5781269E-04   0.0000000E+00  -1.0420237E-04  -1.0924471E-03   0.0000000E+00  -1.0244545E-04  -1.5985705E-03   0.0000000E+00  -7.9532227E-05  -2.1067704E-03   0.0000000E+00  -4.0553889E-05  -2.5544697E-03   0.0000000E+00   2.5076406E-06  -2.9087742E-03   0.0000000E+00   3.6351896E-05  -3.1669771E-03   0.0000000E+00   5.4774657E-05  -9.5944491E-04   0.0000000E+00  -2.7168781E-04  -1.7295879E-03   0.0000000E+00  -3.0574470E-04  -2.7479352E-03   0.0000000E+00  -2.8783272E-04  -3.9145085E-03   0.0000000E+00  -2.1801234E-04  -5.0788568E-03   0.0000000E+00  -1.0932669E-04  -6.1077769E-03   0.0000000E+00   8.6975706E-06  -6.9313501E-03   0.0000000E+00   1.0298511E-04  -7.5414269E-03   0.0000000E+00   1.5714344E-04  -2.0692102E-03   0.0000000E+00  -6.5074518E-04  -3.5823998E-03   0.0000000E+00  -7.0264703E-04  -5.5523911E-03   0.0000000E+00  -6.4504053E-04  -7.7866893E-03   0.0000000E+00  -4.7970624E-04  -1.0000656E-02   0.0000000E+00  -2.3511225E-04  -1.1950553E-02   0.0000000E+00   2.5944510E-05  -1.3514168E-02   0.0000000E+00   2.3496924E-04  -1.4678709E-02   0.0000000E+00   3.5794830E-04  -3.6664435E-03   0.0000000E+00  -1.2850775E-03  -6.2075662E-03   0.0000000E+00  -1.3563910E-03  -9.4894366E-03   0.0000000E+00  -1.2262424E-03  -1.3182072E-02   0.0000000E+00  -8.9670147E-04  -1.6804617E-02   0.0000000E+00  -4.2549983E-04  -1.9969599E-02   0.0000000E+00   6.6143024E-05  -2.2498297E-02   0.0000000E+00   4.5631008E-04  -2.4379650E-02   0.0000000E+00   6.8759080E-04  -5.5932719E-03   0.0000000E+00  -2.1881473E-03  -9.3525993E-03   0.0000000E+00  -2.2809124E-03  -1.4173394E-02   0.0000000E+00  -2.0396963E-03  -1.9546434E-02   0.0000000E+00  -1.4626841E-03  -2.4745047E-02   0.0000000E+00  -6.6304108E-04  -2.9241282E-02   0.0000000E+00   1.4517890E-04  -3.2810442E-02   0.0000000E+00   7.7630818E-04  -3.5450470E-02   0.0000000E+00   1.1495741E-03  -7.5867740E-03   0.0000000E+00  -3.2924649E-03  -1.2586954E-02   0.0000000E+00  -3.4044650E-03  -1.8917371E-02   0.0000000E+00  -3.0007008E-03  -9.4289733E-03   0.0000000E+00  -4.4456217E-03  -1.5540509E-02   0.0000000E+00  -4.5593497E-03  -1.1114286E-02   0.0000000E+00  -5.4731476E-03  -1.8230580E-02   0.0000000E+00  -5.5453726E-03  -1.2855945E-02   0.0000000E+00  -6.2811696E-03  -2.1019084E-02   0.0000000E+00  -6.2792134E-03  -1.5068829E-02   0.0000000E+00  -6.8892399E-03  -2.4467874E-02   0.0000000E+00  -6.7959675E-03  -1.8356161E-02   0.0000000E+00  -7.4185072E-03  -2.9379021E-02   0.0000000E+00  -7.2291531E-03  -2.3460886E-02   0.0000000E+00  -8.1011690E-03  -3.6698315E-02   0.0000000E+00  -7.8180386E-03  -3.1228203E-02   0.0000000E+00  -9.3189348E-03  -4.7418479E-02   0.0000000E+00  -8.9407964E-03  -4.2206381E-02   0.0000000E+00  -1.1674526E-02  -6.2146861E-02   0.0000000E+00  -1.1191438E-02  -5.5553354E-02   0.0000000E+00  -1.6089009E-02  -8.0048807E-02   0.0000000E+00  -1.5511164E-02  -6.8762131E-02   0.0000000E+00  -2.3807174E-02  -9.8399274E-02   0.0000000E+00  -2.3246007E-02   0.0000000E+00   0.0000000E+00   0.0000000E+00   0.0000000E+00   0.0000000E+00   0.0000000E+00   0.0000000E+00   0.0000000E+00   0.0000000E+00   0.0000000E+00   0.0000000E+00   0.0000000E+00   0.0000000E+00   0.0000000E+00   0.0000000E+00   0.0000000E+00   0.0000000E+00   0.0000000E+00   0.0000000E+00   0.0000000E+00   0.0000000E+00   0.0000000E+00   0.0000000E+00   0.0000000E+00   0.0000000E+00   0.0000000E+00   0.0000000E+00   0.0000000E+00   0.0000000E+00   0.0000000E+00   0.0000000E+00   0.0000000E+00   0.0000000E+00   0.0000000E+00   0.0000000E+00   0.0000000E+00   0.0000000E+00   0.0000000E+00   0.0000000E+00   0.0000000E+00   0.0000000E+00   0.0000000E+00   0.0000000E+00   0.0000000E+00   0.0000000E+00   0.0000000E+00   0.0000000E+00   0.0000000E+00   0.0000000E+00   0.0000000E+00   0.0000000E+00   0.0000000E+00   0.0000000E+00   0.0000000E+00   0.0000000E+00   0.0000000E+00   0.0000000E+00   0.0000000E+00   0.0000000E+00   0.0000000E+00   0.0000000E+00   0.0000000E+00   0.0000000E+00   0.0000000E+00   0.0000000E+00   0.0000000E+00   0.0000000E+00   0.0000000E+00   0.0000000E+00   0.0000000E+00   0.0000000E+00   0.0000000E+00   0.0000000E+00   0.0000000E+00   0.0000000E+00   0.0000000E+00   0.0000000E+00   0.0000000E+00   0.0000000E+00   0.0000000E+00   0.0000000E+00  -5.2069699E-06   0.0000000E+00   1.1930203E-08  -5.3592298E-06   0.0000000E+00   1.0495920E-08  -5.4488187E-06   0.0000000E+00   8.8294145E-09  -5.4932066E-06   0.0000000E+00   7.2269093E-09  -5.5076102E-06   0.0000000E+00   5.7293570E-09  -5.5042915E-06   0.0000000E+00   4.4136912E-09  -5.4927355E-06   0.0000000E+00   3.3386820E-09  -5.4798670E-06   0.0000000E+00   2.5352158E-09  -5.4703514E-06   0.0000000E+00   2.0433901E-09  -1.8975363E-04   0.0000000E+00   1.4537660E-06  -1.9584842E-04   0.0000000E+00   1.3033732E-06  -1.9961131E-04   0.0000000E+00   1.1149490E-06  -2.0165090E-04   0.0000000E+00   9.1981923E-07  -2.0251080E-04   0.0000000E+00   7.3643685E-07  -2.0264325E-04   0.0000000E+00   5.7531400E-07  -2.0240404E-04   0.0000000E+00   4.4275026E-07  -2.0205583E-04   0.0000000E+00   3.4428010E-07  -2.0177780E-04   0.0000000E+00   2.8367916E-07  -1.0487704E-03   0.0000000E+00   1.3589579E-05  -1.0839497E-03   0.0000000E+00   1.2374519E-05  -1.1061030E-03   0.0000000E+00   1.0713655E-05  -1.1185260E-03   0.0000000E+00   8.9248388E-06  -1.1242010E-03   0.0000000E+00   7.2101684E-06  -1.1256351E-03   0.0000000E+00   5.6902090E-06  -1.1248160E-03   0.0000000E+00   4.4402682E-06  -1.1232262E-03   0.0000000E+00   3.5109776E-06  -1.1218806E-03   0.0000000E+00   2.9388052E-06  -3.3439053E-03   0.0000000E+00   5.9376955E-05  -3.4597423E-03   0.0000000E+00   5.5449134E-05  -3.5326038E-03   0.0000000E+00   4.8527836E-05  -3.5740605E-03   0.0000000E+00   4.0778163E-05  -3.5936104E-03   0.0000000E+00   3.3206503E-05  -3.5992751E-03   0.0000000E+00   2.6436248E-05  -3.5974435E-03   0.0000000E+00   2.0849346E-05  -3.5928860E-03   0.0000000E+00   1.6693897E-05  -3.5888806E-03   0.0000000E+00   1.4134736E-05  -7.9666907E-03   0.0000000E+00   1.7423762E-04  -8.2477294E-03   0.0000000E+00   1.6682774E-04  -8.4228171E-03   0.0000000E+00   1.4755221E-04  -8.5224733E-03   0.0000000E+00   1.2494704E-04  -8.5696336E-03   0.0000000E+00   1.0245198E-04  -8.5835028E-03   0.0000000E+00   8.2151419E-05  -8.5793547E-03   0.0000000E+00   6.5331049E-05  -8.5686138E-03   0.0000000E+00   5.2801213E-05  -8.5591273E-03   0.0000000E+00   4.5081993E-05  -1.5495569E-02   0.0000000E+00   4.0019760E-04  -1.6037893E-02   0.0000000E+00   3.8778680E-04  -1.6374461E-02   0.0000000E+00   3.4665744E-04  -1.6563622E-02   0.0000000E+00   2.9546939E-04  -1.6651319E-02   0.0000000E+00   2.4369417E-04  -1.6675021E-02   0.0000000E+00   1.9655449E-04  -1.6664470E-02   0.0000000E+00   1.5732345E-04  -1.6641853E-02   0.0000000E+00   1.2804252E-04  -1.6622387E-02   0.0000000E+00   1.0999087E-04  -2.5697991E-02   0.0000000E+00   7.6990167E-04  -2.6570771E-02   0.0000000E+00   7.4970216E-04  -2.7108321E-02   0.0000000E+00   6.7488541E-04  -2.7403755E-02   0.0000000E+00   5.7822990E-04  -2.7534064E-02   0.0000000E+00   4.7914436E-04  -2.7561506E-02   0.0000000E+00   3.8823369E-04  -2.7535215E-02   0.0000000E+00   3.1226015E-04  -2.7491702E-02   0.0000000E+00   2.5543739E-04  -2.7455937E-02   0.0000000E+00   2.2037482E-04  -3.7287049E-02   0.0000000E+00   1.2836268E-03  -3.8490359E-02   0.0000000E+00   1.2516259E-03  -3.9219171E-02   0.0000000E+00   1.1308229E-03  -3.9605472E-02   0.0000000E+00   9.7285514E-04  -3.9760105E-02   0.0000000E+00   8.0913078E-04  -3.9773267E-02   0.0000000E+00   6.5795705E-04  -3.9715655E-02   0.0000000E+00   5.3115207E-04  -3.9639361E-02   0.0000000E+00   4.3612142E-04  -3.9579861E-02   0.0000000E+00   3.7742674E-04   0.0000000E+00   0.0000000E+00   0.0000000E+00   0.0000000E+00   0.0000000E+00   0.0000000E+00   0.0000000E+00   0.0000000E+00   0.0000000E+00   0.0000000E+00   0.0000000E+00   0.0000000E+00   0.0000000E+00   0.0000000E+00   0.0000000E+00   0.0000000E+00   0.0000000E+00   0.0000000E+00   0.0000000E+00   0.0000000E+00   0.0000000E+00   0.0000000E+00   0.0000000E+00   0.0000000E+00   0.0000000E+00   0.0000000E+00   0.0000000E+00   0.0000000E+00   0.0000000E+00   0.0000000E+00   0.0000000E+00   0.0000000E+00   0.0000000E+00   0.0000000E+00   0.0000000E+00   0.0000000E+00   0.0000000E+00   0.0000000E+00   0.0000000E+00   0.0000000E+00   0.0000000E+00   0.0000000E+00   0.0000000E+00   0.0000000E+00   0.0000000E+00   0.0000000E+00   0.0000000E+00   0.0000000E+00   0.0000000E+00   0.0000000E+00   0.0000000E+00   0.0000000E+00   0.0000000E+00   0.0000000E+00   0.0000000E+00   0.0000000E+00   0.0000000E+00   0.0000000E+00   0.0000000E+00   0.0000000E+00   0.0000000E+00   0.0000000E+00   0.0000000E+00   0.0000000E+00   0.0000000E+00   0.0000000E+00   0.0000000E+00   0.0000000E+00   0.0000000E+00   0.0000000E+00   0.0000000E+00   0.0000000E+00  -5.4668835E-06   0.0000000E+00   1.8766779E-09  -5.4703510E-06   0.0000000E+00   2.0434032E-09  -5.4798656E-06   0.0000000E+00   2.5352178E-09  -5.4927350E-06   0.0000000E+00   3.3386807E-09  -5.5042924E-06   0.0000000E+00   4.4136987E-09  -5.5076116E-06   0.0000000E+00   5.7293610E-09  -5.4932070E-06   0.0000000E+00   7.2269084E-09  -5.4488200E-06   0.0000000E+00   8.8294119E-09  -2.0167389E-04   0.0000000E+00   2.6317130E-07  -2.0177783E-04   0.0000000E+00   2.8367955E-07  -2.0205580E-04   0.0000000E+00   3.4428061E-07  -2.0240404E-04   0.0000000E+00   4.4275083E-07  -2.0264322E-04   0.0000000E+00   5.7531435E-07  -2.0251075E-04   0.0000000E+00   7.3643696E-07  -2.0165088E-04   0.0000000E+00   9.1981894E-07  -1.9961127E-04   0.0000000E+00   1.1149482E-06  -1.1213676E-03   0.0000000E+00   2.7457975E-06  -1.1218806E-03   0.0000000E+00   2.9388066E-06  -1.1232267E-03   0.0000000E+00   3.5109811E-06  -1.1248160E-03   0.0000000E+00   4.4402714E-06  -1.1256351E-03   0.0000000E+00   5.6902136E-06  -1.1242008E-03   0.0000000E+00   7.2101689E-06  -1.1185260E-03   0.0000000E+00   8.9248351E-06  -1.1061028E-03   0.0000000E+00   1.0713647E-05  -3.5873370E-03   0.0000000E+00   1.3270866E-05  -3.5888806E-03   0.0000000E+00   1.4134745E-05  -3.5928853E-03   0.0000000E+00   1.6693906E-05  -3.5974430E-03   0.0000000E+00   2.0849368E-05  -3.5992758E-03   0.0000000E+00   2.6436273E-05  -3.5936111E-03   0.0000000E+00   3.3206517E-05  -3.5740614E-03   0.0000000E+00   4.0778166E-05  -3.5326038E-03   0.0000000E+00   4.8527821E-05  -8.5554626E-03   0.0000000E+00   4.2475232E-05  -8.5591311E-03   0.0000000E+00   4.5082012E-05  -8.5686147E-03   0.0000000E+00   5.2801246E-05  -8.5793575E-03   0.0000000E+00   6.5331071E-05  -8.5835056E-03   0.0000000E+00   8.2151462E-05  -8.5696364E-03   0.0000000E+00   1.0245201E-04  -8.5224714E-03   0.0000000E+00   1.2494704E-04  -8.4228190E-03   0.0000000E+00   1.4755213E-04  -1.6614927E-02   0.0000000E+00   1.0389297E-04  -1.6622383E-02   0.0000000E+00   1.0999089E-04  -1.6641859E-02   0.0000000E+00   1.2804258E-04  -1.6664470E-02   0.0000000E+00   1.5732351E-04  -1.6675021E-02   0.0000000E+00   1.9655457E-04  -1.6651317E-02   0.0000000E+00   2.4369430E-04  -1.6563626E-02   0.0000000E+00   2.9546948E-04  -1.6374465E-02   0.0000000E+00   3.4665750E-04  -2.7442439E-02   0.0000000E+00   2.0852778E-04  -2.7455933E-02   0.0000000E+00   2.2037484E-04  -2.7491700E-02   0.0000000E+00   2.5543754E-04  -2.7535219E-02   0.0000000E+00   3.1226032E-04  -2.7561506E-02   0.0000000E+00   3.8823378E-04  -2.7534058E-02   0.0000000E+00   4.7914428E-04  -2.7403740E-02   0.0000000E+00   5.7822978E-04  -2.7108312E-02   0.0000000E+00   6.7488529E-04  -3.9557811E-02   0.0000000E+00   3.5758916E-04  -3.9579868E-02   0.0000000E+00   3.7742686E-04  -3.9639343E-02   0.0000000E+00   4.3612137E-04  -3.9715655E-02   0.0000000E+00   5.3115212E-04  -3.9773285E-02   0.0000000E+00   6.5795681E-04  -3.9760105E-02   0.0000000E+00   8.0913072E-04  -3.9605465E-02   0.0000000E+00   9.7285520E-04  -3.9219167E-02   0.0000000E+00   1.1308229E-03   0.0000000E+00   0.0000000E+00   0.0000000E+00   0.0000000E+00   0.0000000E+00   0.0000000E+00   0.0000000E+00   0.0000000E+00   0.0000000E+00   0.0000000E+00   0.0000000E+00   0.0000000E+00   0.0000000E+00   0.0000000E+00   0.0000000E+00   0.0000000E+00   0.0000000E+00   0.0000000E+00   0.0000000E+00   0.0000000E+00   0.0000000E+00   0.0000000E+00   0.0000000E+00   0.0000000E+00   0.0000000E+00   0.0000000E+00   0.0000000E+00   0.0000000E+00   0.0000000E+00   0.0000000E+00   0.0000000E+00   0.0000000E+00   0.0000000E+00   0.0000000E+00   0.0000000E+00   0.0000000E+00   0.0000000E+00   0.0000000E+00   0.0000000E+00   0.0000000E+00   0.0000000E+00   0.0000000E+00   0.0000000E+00   0.0000000E+00   0.0000000E+00   0.0000000E+00   0.0000000E+00   0.0000000E+00   0.0000000E+00   0.0000000E+00   0.0000000E+00   0.0000000E+00   0.0000000E+00   0.0000000E+00   0.0000000E+00   0.0000000E+00   0.0000000E+00   0.0000000E+00   0.0000000E+00   0.0000000E+00   0.0000000E+00   0.0000000E+00   0.0000000E+00   0.0000000E+00   0.0000000E+00   0.0000000E+00   0.0000000E+00   0.0000000E+00   0.0000000E+00   0.0000000E+00   0.0000000E+00   0.0000000E+00   0.0000000E+00   0.0000000E+00   0.0000000E+00   0.0000000E+00   0.0000000E+00   0.0000000E+00   0.0000000E+00   0.0000000E+00   0.0000000E+00  -5.3592294E-06   0.0000000E+00   1.0495911E-08  -5.2069699E-06   0.0000000E+00   1.1930203E-08  -4.9735727E-06   0.0000000E+00   1.2748526E-08  -4.6418013E-06   0.0000000E+00   1.2509259E-08  -4.1992239E-06   0.0000000E+00   1.0626594E-08  -3.5388532E-06   0.0000000E+00  -3.9721115E-09  -2.3357766E-06   0.0000000E+00  -3.8663700E-08  -9.6237795E-07   0.0000000E+00  -4.2936307E-08  -1.4546947E-07   0.0000000E+00  -1.2718661E-08  -1.9584838E-04   0.0000000E+00   1.3033724E-06  -1.8975361E-04   0.0000000E+00   1.4537655E-06  -1.8070640E-04   0.0000000E+00   1.5205255E-06  -1.6773092E-04   0.0000000E+00   1.3331154E-06  -1.4769750E-04   0.0000000E+00   3.4157802E-07  -1.1880153E-04   0.0000000E+00  -1.3555308E-06  -8.3768013E-05   0.0000000E+00  -2.8510960E-06  -4.9134924E-05   0.0000000E+00  -3.3141953E-06  -2.2092427E-05   0.0000000E+00  -2.5649613E-06  -1.0839496E-03   0.0000000E+00   1.2374509E-05  -1.0487704E-03   0.0000000E+00   1.3589566E-05  -9.9587115E-04   0.0000000E+00   1.3358243E-05  -9.1629440E-04   0.0000000E+00   9.3669869E-06  -8.0265844E-04   0.0000000E+00   7.9549358E-07  -6.5447303E-04   0.0000000E+00  -1.0623414E-05  -4.8384056E-04   0.0000000E+00  -2.0725909E-05  -3.1492644E-04   0.0000000E+00  -2.5687943E-05  -1.7394291E-04   0.0000000E+00  -2.4058272E-05  -3.4597416E-03   0.0000000E+00   5.5449123E-05  -3.3439049E-03   0.0000000E+00   5.9376896E-05  -3.1669775E-03   0.0000000E+00   5.4774660E-05  -2.9087742E-03   0.0000000E+00   3.6351896E-05  -2.5544695E-03   0.0000000E+00   2.5076451E-06  -2.1067702E-03   0.0000000E+00  -4.0553859E-05  -1.5985705E-03   0.0000000E+00  -7.9532190E-05  -1.0924473E-03   0.0000000E+00  -1.0244545E-04  -6.5781275E-04   0.0000000E+00  -1.0420234E-04  -8.2477303E-03   0.0000000E+00   1.6682774E-04  -7.9666935E-03   0.0000000E+00   1.7423760E-04  -7.5414260E-03   0.0000000E+00   1.5714332E-04  -6.9313492E-03   0.0000000E+00   1.0298503E-04  -6.1077788E-03   0.0000000E+00   8.6975970E-06  -5.0788568E-03   0.0000000E+00  -1.0932665E-04  -3.9145090E-03   0.0000000E+00  -2.1801228E-04  -2.7479355E-03   0.0000000E+00  -2.8783269E-04  -1.7295884E-03   0.0000000E+00  -3.0574473E-04  -1.6037891E-02   0.0000000E+00   3.8778674E-04  -1.5495570E-02   0.0000000E+00   4.0019752E-04  -1.4678705E-02   0.0000000E+00   3.5794807E-04  -1.3514166E-02   0.0000000E+00   2.3496927E-04  -1.1950555E-02   0.0000000E+00   2.5944597E-05  -1.0000656E-02   0.0000000E+00  -2.3511227E-04  -7.7866898E-03   0.0000000E+00  -4.7970653E-04  -5.5523915E-03   0.0000000E+00  -6.4504059E-04  -3.5824012E-03   0.0000000E+00  -7.0264691E-04  -2.6570773E-02   0.0000000E+00   7.4970227E-04  -2.5697997E-02   0.0000000E+00   7.6990161E-04  -2.4379645E-02   0.0000000E+00   6.8759022E-04  -2.2498298E-02   0.0000000E+00   4.5630999E-04  -1.9969596E-02   0.0000000E+00   6.6143075E-05  -1.6804617E-02   0.0000000E+00  -4.2549989E-04  -1.3182076E-02   0.0000000E+00  -8.9670153E-04  -9.4894366E-03   0.0000000E+00  -1.2262422E-03  -6.2075681E-03   0.0000000E+00  -1.3563907E-03  -3.8490359E-02   0.0000000E+00   1.2516261E-03  -3.7287053E-02   0.0000000E+00   1.2836270E-03  -3.5450470E-02   0.0000000E+00   1.1495737E-03  -3.2810442E-02   0.0000000E+00   7.7630806E-04  -2.9241281E-02   0.0000000E+00   1.4517887E-04  -2.4745047E-02   0.0000000E+00  -6.6304056E-04  -1.9546442E-02   0.0000000E+00  -1.4626835E-03  -1.4173395E-02   0.0000000E+00  -2.0396968E-03  -9.3526002E-03   0.0000000E+00  -2.2809133E-03  -1.8917369E-02   0.0000000E+00  -3.0006999E-03  -1.2586956E-02   0.0000000E+00  -3.4044648E-03  -1.5540515E-02   0.0000000E+00  -4.5593497E-03  -1.8230585E-02   0.0000000E+00  -5.5453721E-03  -2.1019083E-02   0.0000000E+00  -6.2792138E-03  -2.4467876E-02   0.0000000E+00  -6.7959656E-03  -2.9379021E-02   0.0000000E+00  -7.2291507E-03  -3.6698315E-02   0.0000000E+00  -7.8180386E-03  -4.7418486E-02   0.0000000E+00  -8.9407936E-03  -6.2146876E-02   0.0000000E+00  -1.1191440E-02  -8.0048822E-02   0.0000000E+00  -1.5511164E-02  -9.8399274E-02   0.0000000E+00  -2.3246001E-02   0.0000000E+00   0.0000000E+00   0.0000000E+00   0.0000000E+00   0.0000000E+00   0.0000000E+00   0.0000000E+00   0.0000000E+00   0.0000000E+00   0.0000000E+00   0.0000000E+00   0.0000000E+00   0.0000000E+00   0.0000000E+00   0.0000000E+00   0.0000000E+00   0.0000000E+00   0.0000000E+00   0.0000000E+00   0.0000000E+00   0.0000000E+00   0.0000000E+00   0.0000000E+00   0.0000000E+00   0.0000000E+00   0.0000000E+00   0.0000000E+00   0.0000000E+00   0.0000000E+00   0.0000000E+00   0.0000000E+00   0.0000000E+00   0.0000000E+00   0.0000000E+00   0.0000000E+00   0.0000000E+00   0.0000000E+00   0.0000000E+00   0.0000000E+00   0.0000000E+00   0.0000000E+00   0.0000000E+00   0.0000000E+00   0.0000000E+00   0.0000000E+00  -6.4135374E-06   0.0000000E+00  -1.1866058E-06  -6.9617704E-07   0.0000000E+00  -1.8754353E-07   0.0000000E+00   0.0000000E+00   0.0000000E+00   0.0000000E+00   0.0000000E+00   0.0000000E+00  -7.6710057E-05   0.0000000E+00  -1.6923836E-05  -2.3602068E-05   0.0000000E+00  -7.7102650E-06  -3.2764465E-06   0.0000000E+00  -1.3670427E-06  -6.5142765E-18   0.0000000E+00  -2.7571454E-18  -3.3871140E-04   0.0000000E+00  -8.5780717E-05  -1.4087030E-04   0.0000000E+00  -5.3347969E-05  -4.1275081E-05   0.0000000E+00  -2.0425456E-05  -5.6003519E-06   0.0000000E+00  -2.8804602E-06  -9.5944526E-04   0.0000000E+00  -2.7168775E-04  -4.5530370E-04   0.0000000E+00  -1.9394637E-04  -1.7294596E-04   0.0000000E+00  -9.7344600E-05  -4.4457309E-05   0.0000000E+00  -2.6765654E-05  -2.0692111E-03   0.0000000E+00  -6.5074535E-04  -1.0516408E-03   0.0000000E+00  -4.9928366E-04  -4.5235647E-04   0.0000000E+00  -2.8594691E-04  -1.4997693E-04   0.0000000E+00  -1.0292221E-04  -3.6664438E-03   0.0000000E+00  -1.2850774E-03  -1.9349935E-03   0.0000000E+00  -1.0260525E-03  -8.8928646E-04   0.0000000E+00  -6.3164334E-04  -3.3423587E-04   0.0000000E+00  -2.6094553E-04  -5.5932747E-03   0.0000000E+00  -2.1881473E-03  -3.0126676E-03   0.0000000E+00  -1.7860064E-03  -1.4342013E-03   0.0000000E+00  -1.1458806E-03  -5.7489378E-04   0.0000000E+00  -5.1163440E-04  -7.5867726E-03   0.0000000E+00  -3.2924656E-03  -4.1315006E-03   0.0000000E+00  -2.7213057E-03  -2.0014225E-03   0.0000000E+00  -1.7890818E-03  -8.2677451E-04   0.0000000E+00  -8.3600101E-04  -9.4289752E-03   0.0000000E+00  -4.4456217E-03  -5.1667518E-03   0.0000000E+00  -3.7093181E-03  -2.5202152E-03   0.0000000E+00  -2.4772938E-03  -1.0506514E-03   0.0000000E+00  -1.1892284E-03  -1.1114285E-02   0.0000000E+00  -5.4731471E-03  -6.1086453E-03   0.0000000E+00  -4.6134968E-03  -2.9815047E-03   0.0000000E+00  -3.1176293E-03  -1.2392292E-03   0.0000000E+00  -1.5207488E-03  -1.2855944E-02   0.0000000E+00  -6.2811687E-03  -7.0795505E-03   0.0000000E+00  -5.3520808E-03  -3.4520479E-03   0.0000000E+00  -3.6518872E-03  -1.4254885E-03   0.0000000E+00  -1.7986238E-03  -1.5068827E-02   0.0000000E+00  -6.8892417E-03  -8.3415993E-03   0.0000000E+00  -5.9295795E-03  -4.0756813E-03   0.0000000E+00  -4.0778122E-03  -1.6777158E-03   0.0000000E+00  -2.0215912E-03  -1.8356159E-02   0.0000000E+00  -7.4185077E-03  -1.0284593E-02   0.0000000E+00  -6.4349868E-03  -5.0694323E-03   0.0000000E+00  -4.4495035E-03  -2.0975710E-03   0.0000000E+00  -2.2173421E-03  -2.3460887E-02   0.0000000E+00  -8.1011681E-03  -1.3406392E-02   0.0000000E+00  -7.0563969E-03  -6.7204670E-03   0.0000000E+00  -4.8894221E-03  -2.8252236E-03   0.0000000E+00  -2.4444112E-03  -3.1228211E-02   0.0000000E+00  -9.3189357E-03  -1.8306497E-02   0.0000000E+00  -8.1233969E-03  -9.4027491E-03   0.0000000E+00  -5.6381817E-03  -4.0624877E-03   0.0000000E+00  -2.8353301E-03  -4.2206384E-02   0.0000000E+00  -1.1674524E-02  -2.5394572E-02   0.0000000E+00  -1.0171873E-02  -1.3439969E-02   0.0000000E+00  -7.1375975E-03  -6.0586077E-03   0.0000000E+00  -3.6929303E-03  -5.5553362E-02   0.0000000E+00  -1.6089007E-02  -3.4034066E-02   0.0000000E+00  -1.4028008E-02  -1.8586142E-02   0.0000000E+00  -1.0153995E-02  -8.9173485E-03   0.0000000E+00  -5.6712390E-03  -6.8762153E-02   0.0000000E+00  -2.3807174E-02  -4.2479943E-02   0.0000000E+00  -2.0839272E-02  -2.3864498E-02   0.0000000E+00  -1.5870281E-02   0.0000000E+00   0.0000000E+00   0.0000000E+00   0.0000000E+00   0.0000000E+00   0.0000000E+00   0.0000000E+00   0.0000000E+00   0.0000000E+00   0.0000000E+00   0.0000000E+00   0.0000000E+00   0.0000000E+00   0.0000000E+00   0.0000000E+00   0.0000000E+00   0.0000000E+00   0.0000000E+00   0.0000000E+00   0.0000000E+00   0.0000000E+00   0.0000000E+00   0.0000000E+00   0.0000000E+00   0.0000000E+00   0.0000000E+00   0.0000000E+00   0.0000000E+00   0.0000000E+00   0.0000000E+00   0.0000000E+00   0.0000000E+00   0.0000000E+00   0.0000000E+00   0.0000000E+00   0.0000000E+00   0.0000000E+00   0.0000000E+00   0.0000000E+00   0.0000000E+00   0.0000000E+00   0.0000000E+00   0.0000000E+00   0.0000000E+00   0.0000000E+00   0.0000000E+00   0.0000000E+00   0.0000000E+00   0.0000000E+00   0.0000000E+00   0.0000000E+00   0.0000000E+00   0.0000000E+00   0.0000000E+00   0.0000000E+00   0.0000000E+00   0.0000000E+00   0.0000000E+00   0.0000000E+00   0.0000000E+00   0.0000000E+00   0.0000000E+00   0.0000000E+00   0.0000000E+00   0.0000000E+00   0.0000000E+00   0.0000000E+00   0.0000000E+00   0.0000000E+00   0.0000000E+00   0.0000000E+00   0.0000000E+00   0.0000000E+00   0.0000000E+00   0.0000000E+00   0.0000000E+00   0.0000000E+00   0.0000000E+00   0.0000000E+00   0.0000000E+00   0.0000000E+00   0.0000000E+00   0.0000000E+00   0.0000000E+00   0.0000000E+00   0.0000000E+00   0.0000000E+00   0.0000000E+00   0.0000000E+00   0.0000000E+00   0.0000000E+00   0.0000000E+00   0.0000000E+00   0.0000000E+00   0.0000000E+00   0.0000000E+00   0.0000000E+00   0.0000000E+00   0.0000000E+00   0.0000000E+00   0.0000000E+00   0.0000000E+00   0.0000000E+00   0.0000000E+00   0.0000000E+00   0.0000000E+00   0.0000000E+00   0.0000000E+00   0.0000000E+00   0.0000000E+00   0.0000000E+00   0.0000000E+00   0.0000000E+00   0.0000000E+00   0.0000000E+00   0.0000000E+00   0.0000000E+00   0.0000000E+00   0.0000000E+00   0.0000000E+00   0.0000000E+00   0.0000000E+00   0.0000000E+00   0.0000000E+00   0.0000000E+00   0.0000000E+00   0.0000000E+00   0.0000000E+00   0.0000000E+00   0.0000000E+00   0.0000000E+00   0.0000000E+00   0.0000000E+00   0.0000000E+00   0.0000000E+00   0.0000000E+00   0.0000000E+00   0.0000000E+00   0.0000000E+00   0.0000000E+00   0.0000000E+00   0.0000000E+00   0.0000000E+00   0.0000000E+00   0.0000000E+00   0.0000000E+00   0.0000000E+00   0.0000000E+00   0.0000000E+00   0.0000000E+00   0.0000000E+00   0.0000000E+00   0.0000000E+00   0.0000000E+00   0.0000000E+00   0.0000000E+00   0.0000000E+00   0.0000000E+00   0.0000000E+00   0.0000000E+00   0.0000000E+00   0.0000000E+00   0.0000000E+00   0.0000000E+00   0.0000000E+00   0.0000000E+00   0.0000000E+00   0.0000000E+00   0.0000000E+00   0.0000000E+00   0.0000000E+00   0.0000000E+00   0.0000000E+00   0.0000000E+00   0.0000000E+00   0.0000000E+00   0.0000000E+00   0.0000000E+00   0.0000000E+00   0.0000000E+00   0.0000000E+00   0.0000000E+00   0.0000000E+00   0.0000000E+00   0.0000000E+00   0.0000000E+00   0.0000000E+00   0.0000000E+00   0.0000000E+00   0.0000000E+00   0.0000000E+00   0.0000000E+00   0.0000000E+00   0.0000000E+00   0.0000000E+00   0.0000000E+00   0.0000000E+00   0.0000000E+00   0.0000000E+00   0.0000000E+00   0.0000000E+00   0.0000000E+00   0.0000000E+00   0.0000000E+00   0.0000000E+00   0.0000000E+00   0.0000000E+00   0.0000000E+00   0.0000000E+00   0.0000000E+00   0.0000000E+00   0.0000000E+00   0.0000000E+00   0.0000000E+00   0.0000000E+00   0.0000000E+00   0.0000000E+00   0.0000000E+00   0.0000000E+00   0.0000000E+00   0.0000000E+00   0.0000000E+00   0.0000000E+00   0.0000000E+00   0.0000000E+00   0.0000000E+00   0.0000000E+00   0.0000000E+00   0.0000000E+00   0.0000000E+00   0.0000000E+00   0.0000000E+00   0.0000000E+00   0.0000000E+00   0.0000000E+00   0.0000000E+00   0.0000000E+00   0.0000000E+00   0.0000000E+00   0.0000000E+00   0.0000000E+00   0.0000000E+00   0.0000000E+00   0.0000000E+00   0.0000000E+00   0.0000000E+00   0.0000000E+00   0.0000000E+00   0.0000000E+00   0.0000000E+00   0.0000000E+00   0.0000000E+00   0.0000000E+00   0.0000000E+00   0.0000000E+00   0.0000000E+00   0.0000000E+00   0.0000000E+00   0.0000000E+00   0.0000000E+00   0.0000000E+00   0.0000000E+00   0.0000000E+00   0.0000000E+00   0.0000000E+00   0.0000000E+00   0.0000000E+00   0.0000000E+00   0.0000000E+00   0.0000000E+00   0.0000000E+00   0.0000000E+00   0.0000000E+00   0.0000000E+00   0.0000000E+00   0.0000000E+00   0.0000000E+00   0.0000000E+00   0.0000000E+00   0.0000000E+00   0.0000000E+00   0.0000000E+00   0.0000000E+00   0.0000000E+00   0.0000000E+00   0.0000000E+00   0.0000000E+00   0.0000000E+00   0.0000000E+00   0.0000000E+00   0.0000000E+00   0.0000000E+00   0.0000000E+00   0.0000000E+00   0.0000000E+00   0.0000000E+00   0.0000000E+00   0.0000000E+00   0.0000000E+00   0.0000000E+00   0.0000000E+00   0.0000000E+00   0.0000000E+00   0.0000000E+00   0.0000000E+00   0.0000000E+00   0.0000000E+00   0.0000000E+00   0.0000000E+00   0.0000000E+00   0.0000000E+00   0.0000000E+00   0.0000000E+00   0.0000000E+00   0.0000000E+00   0.0000000E+00   0.0000000E+00   0.0000000E+00   0.0000000E+00   0.0000000E+00   0.0000000E+00   0.0000000E+00   0.0000000E+00   0.0000000E+00   0.0000000E+00   0.0000000E+00   0.0000000E+00   0.0000000E+00   0.0000000E+00   0.0000000E+00   0.0000000E+00   0.0000000E+00   0.0000000E+00   0.0000000E+00   0.0000000E+00   0.0000000E+00   0.0000000E+00   0.0000000E+00   0.0000000E+00   0.0000000E+00   0.0000000E+00   0.0000000E+00   0.0000000E+00   0.0000000E+00   0.0000000E+00   0.0000000E+00   0.0000000E+00   0.0000000E+00   0.0000000E+00   0.0000000E+00   0.0000000E+00   0.0000000E+00   0.0000000E+00   0.0000000E+00   0.0000000E+00   0.0000000E+00   0.0000000E+00   0.0000000E+00   0.0000000E+00   0.0000000E+00   0.0000000E+00   0.0000000E+00   0.0000000E+00   0.0000000E+00   0.0000000E+00   0.0000000E+00   0.0000000E+00   0.0000000E+00   0.0000000E+00   0.0000000E+00   0.0000000E+00   0.0000000E+00   0.0000000E+00   0.0000000E+00   0.0000000E+00   0.0000000E+00   0.0000000E+00   0.0000000E+00   0.0000000E+00   0.0000000E+00   0.0000000E+00   0.0000000E+00   0.0000000E+00   0.0000000E+00   0.0000000E+00   0.0000000E+00   0.0000000E+00   0.0000000E+00   0.0000000E+00   0.0000000E+00   0.0000000E+00   0.0000000E+00   0.0000000E+00   0.0000000E+00   0.0000000E+00   0.0000000E+00   0.0000000E+00   0.0000000E+00   0.0000000E+00   0.0000000E+00   0.0000000E+00   0.0000000E+00   0.0000000E+00   0.0000000E+00   0.0000000E+00   0.0000000E+00   0.0000000E+00   0.0000000E+00   0.0000000E+00   0.0000000E+00   0.0000000E+00   0.0000000E+00   0.0000000E+00   0.0000000E+00   0.0000000E+00   0.0000000E+00   0.0000000E+00   0.0000000E+00   0.0000000E+00   0.0000000E+00   0.0000000E+00   0.0000000E+00   0.0000000E+00   0.0000000E+00   0.0000000E+00   0.0000000E+00   0.0000000E+00   0.0000000E+00   0.0000000E+00   0.0000000E+00   0.0000000E+00   0.0000000E+00   0.0000000E+00   0.0000000E+00   0.0000000E+00   0.0000000E+00   0.0000000E+00   0.0000000E+00   0.0000000E+00   0.0000000E+00   0.0000000E+00   0.0000000E+00   0.0000000E+00   0.0000000E+00   0.0000000E+00   0.0000000E+00   0.0000000E+00   0.0000000E+00   0.0000000E+00   0.0000000E+00   0.0000000E+00   0.0000000E+00   0.0000000E+00   0.0000000E+00   0.0000000E+00   0.0000000E+00   0.0000000E+00   0.0000000E+00   0.0000000E+00   0.0000000E+00   0.0000000E+00   0.0000000E+00   0.0000000E+00   0.0000000E+00   0.0000000E+00   0.0000000E+00   0.0000000E+00   0.0000000E+00   0.0000000E+00   0.0000000E+00   0.0000000E+00   0.0000000E+00   0.0000000E+00   0.0000000E+00   0.0000000E+00   0.0000000E+00   0.0000000E+00   0.0000000E+00   0.0000000E+00   0.0000000E+00   0.0000000E+00   0.0000000E+00   0.0000000E+00   0.0000000E+00   0.0000000E+00   0.0000000E+00   0.0000000E+00   0.0000000E+00   0.0000000E+00   0.0000000E+00   0.0000000E+00   0.0000000E+00   0.0000000E+00   0.0000000E+00   0.0000000E+00   0.0000000E+00   0.0000000E+00   0.0000000E+00   0.0000000E+00   0.0000000E+00   0.0000000E+00   0.0000000E+00   0.0000000E+00   0.0000000E+00   0.0000000E+00   0.0000000E+00   0.0000000E+00   0.0000000E+00   0.0000000E+00   0.0000000E+00   0.0000000E+00   0.0000000E+00   0.0000000E+00   0.0000000E+00   0.0000000E+00   0.0000000E+00   0.0000000E+00   0.0000000E+00   0.0000000E+00   0.0000000E+00   0.0000000E+00   0.0000000E+00   0.0000000E+00   0.0000000E+00   0.0000000E+00   0.0000000E+00   0.0000000E+00   0.0000000E+00   0.0000000E+00   0.0000000E+00   0.0000000E+00   0.0000000E+00   0.0000000E+00   0.0000000E+00   0.0000000E+00   0.0000000E+00   0.0000000E+00   0.0000000E+00   0.0000000E+00   0.0000000E+00   0.0000000E+00   0.0000000E+00   0.0000000E+00   0.0000000E+00   0.0000000E+00   0.0000000E+00   0.0000000E+00   0.0000000E+00   0.0000000E+00   0.0000000E+00   0.0000000E+00   0.0000000E+00   0.0000000E+00   0.0000000E+00   0.0000000E+00   0.0000000E+00   0.0000000E+00   0.0000000E+00   0.0000000E+00   0.0000000E+00   0.0000000E+00   0.0000000E+00   0.0000000E+00   0.0000000E+00   0.0000000E+00   0.0000000E+00   0.0000000E+00   0.0000000E+00   0.0000000E+00   0.0000000E+00   0.0000000E+00   0.0000000E+00   0.0000000E+00   0.0000000E+00   0.0000000E+00   0.0000000E+00   0.0000000E+00   0.0000000E+00   0.0000000E+00   0.0000000E+00   0.0000000E+00   0.0000000E+00   0.0000000E+00   0.0000000E+00   0.0000000E+00   0.0000000E+00   0.0000000E+00   0.0000000E+00   0.0000000E+00   0.0000000E+00   0.0000000E+00   0.0000000E+00   0.0000000E+00   0.0000000E+00   0.0000000E+00   0.0000000E+00   0.0000000E+00   0.0000000E+00   0.0000000E+00   0.0000000E+00   0.0000000E+00   0.0000000E+00   0.0000000E+00   0.0000000E+00   0.0000000E+00   0.0000000E+00   0.0000000E+00   0.0000000E+00   0.0000000E+00   0.0000000E+00   0.0000000E+00   0.0000000E+00   0.0000000E+00   0.0000000E+00   0.0000000E+00   0.0000000E+00   0.0000000E+00   0.0000000E+00   0.0000000E+00   0.0000000E+00   0.0000000E+00   0.0000000E+00   0.0000000E+00   0.0000000E+00   0.0000000E+00   0.0000000E+00   0.0000000E+00   0.0000000E+00   0.0000000E+00   0.0000000E+00   0.0000000E+00   0.0000000E+00   0.0000000E+00   0.0000000E+00   0.0000000E+00   0.0000000E+00   0.0000000E+00   0.0000000E+00   0.0000000E+00   0.0000000E+00   0.0000000E+00   0.0000000E+00   0.0000000E+00   0.0000000E+00   0.0000000E+00   0.0000000E+00   0.0000000E+00   0.0000000E+00   0.0000000E+00   0.0000000E+00   0.0000000E+00   0.0000000E+00   0.0000000E+00   0.0000000E+00   0.0000000E+00   0.0000000E+00   0.0000000E+00   0.0000000E+00   0.0000000E+00   0.0000000E+00   0.0000000E+00   0.0000000E+00   0.0000000E+00   0.0000000E+00   0.0000000E+00   0.0000000E+00   0.0000000E+00   0.0000000E+00   0.0000000E+00   0.0000000E+00   0.0000000E+00   0.0000000E+00   0.0000000E+00   0.0000000E+00   0.0000000E+00   0.0000000E+00   0.0000000E+00   0.0000000E+00   0.0000000E+00   0.0000000E+00   0.0000000E+00   0.0000000E+00   0.0000000E+00   0.0000000E+00   0.0000000E+00   0.0000000E+00   0.0000000E+00   0.0000000E+00   0.0000000E+00   0.0000000E+00   0.0000000E+00   0.0000000E+00   0.0000000E+00   0.0000000E+00   0.0000000E+00   0.0000000E+00   0.0000000E+00   0.0000000E+00   0.0000000E+00   0.0000000E+00   0.0000000E+00   0.0000000E+00   0.0000000E+00   0.0000000E+00   0.0000000E+00   0.0000000E+00   0.0000000E+00   0.0000000E+00   0.0000000E+00   0.0000000E+00   0.0000000E+00   0.0000000E+00   0.0000000E+00   0.0000000E+00   0.0000000E+00   0.0000000E+00   0.0000000E+00   0.0000000E+00   0.0000000E+00   0.0000000E+00   0.0000000E+00   0.0000000E+00   0.0000000E+00   0.0000000E+00   0.0000000E+00   0.0000000E+00   0.0000000E+00   0.0000000E+00   0.0000000E+00   0.0000000E+00   0.0000000E+00   0.0000000E+00   0.0000000E+00   0.0000000E+00   0.0000000E+00   0.0000000E+00   0.0000000E+00   0.0000000E+00   0.0000000E+00   0.0000000E+00   0.0000000E+00   0.0000000E+00   0.0000000E+00   0.0000000E+00   0.0000000E+00   0.0000000E+00   0.0000000E+00   0.0000000E+00   0.0000000E+00   0.0000000E+00   0.0000000E+00   0.0000000E+00   0.0000000E+00   0.0000000E+00   0.0000000E+00   0.0000000E+00   0.0000000E+00   0.0000000E+00   0.0000000E+00   0.0000000E+00   0.0000000E+00   0.0000000E+00   0.0000000E+00   0.0000000E+00   0.0000000E+00   0.0000000E+00   0.0000000E+00   0.0000000E+00   0.0000000E+00   0.0000000E+00   0.0000000E+00   0.0000000E+00   0.0000000E+00   0.0000000E+00   0.0000000E+00   0.0000000E+00   0.0000000E+00   0.0000000E+00   0.0000000E+00   0.0000000E+00   0.0000000E+00   0.0000000E+00   0.0000000E+00   0.0000000E+00   0.0000000E+00   0.0000000E+00   0.0000000E+00   0.0000000E+00   0.0000000E+00   0.0000000E+00   0.0000000E+00   0.0000000E+00   0.0000000E+00   0.0000000E+00   0.0000000E+00   0.0000000E+00   0.0000000E+00   0.0000000E+00   0.0000000E+00   0.0000000E+00   0.0000000E+00   0.0000000E+00   0.0000000E+00   0.0000000E+00   0.0000000E+00   0.0000000E+00   0.0000000E+00   0.0000000E+00   0.0000000E+00   0.0000000E+00   0.0000000E+00   0.0000000E+00   0.0000000E+00   0.0000000E+00   0.0000000E+00   0.0000000E+00   0.0000000E+00   0.0000000E+00   0.0000000E+00   0.0000000E+00   0.0000000E+00   0.0000000E+00   0.0000000E+00   0.0000000E+00   0.0000000E+00   0.0000000E+00   0.0000000E+00   0.0000000E+00   0.0000000E+00   0.0000000E+00   0.0000000E+00   0.0000000E+00   0.0000000E+00   0.0000000E+00   0.0000000E+00   0.0000000E+00   0.0000000E+00   0.0000000E+00   0.0000000E+00   0.0000000E+00   0.0000000E+00   0.0000000E+00   0.0000000E+00   0.0000000E+00   0.0000000E+00   0.0000000E+00   0.0000000E+00   0.0000000E+00   0.0000000E+00   0.0000000E+00   0.0000000E+00   0.0000000E+00   0.0000000E+00   0.0000000E+00   0.0000000E+00   0.0000000E+00   0.0000000E+00   0.0000000E+00   0.0000000E+00   0.0000000E+00   0.0000000E+00   0.0000000E+00   0.0000000E+00   0.0000000E+00   0.0000000E+00   0.0000000E+00   0.0000000E+00   0.0000000E+00   0.0000000E+00   0.0000000E+00   0.0000000E+00   0.0000000E+00   0.0000000E+00   0.0000000E+00   0.0000000E+00   0.0000000E+00   0.0000000E+00   0.0000000E+00   0.0000000E+00   0.0000000E+00   0.0000000E+00   0.0000000E+00   0.0000000E+00   0.0000000E+00   0.0000000E+00   0.0000000E+00   0.0000000E+00   0.0000000E+00   0.0000000E+00   0.0000000E+00   0.0000000E+00   0.0000000E+00   0.0000000E+00   0.0000000E+00   0.0000000E+00   0.0000000E+00   0.0000000E+00   0.0000000E+00   0.0000000E+00   0.0000000E+00   0.0000000E+00   0.0000000E+00   0.0000000E+00   0.0000000E+00   0.0000000E+00   0.0000000E+00   0.0000000E+00   0.0000000E+00   0.0000000E+00   0.0000000E+00   0.0000000E+00   0.0000000E+00   0.0000000E+00   0.0000000E+00   0.0000000E+00   0.0000000E+00   0.0000000E+00   0.0000000E+00   0.0000000E+00   0.0000000E+00   0.0000000E+00   0.0000000E+00   0.0000000E+00   0.0000000E+00   0.0000000E+00   0.0000000E+00   0.0000000E+00   0.0000000E+00   0.0000000E+00   0.0000000E+00   0.0000000E+00   0.0000000E+00   0.0000000E+00   0.0000000E+00   0.0000000E+00   0.0000000E+00   0.0000000E+00   0.0000000E+00   0.0000000E+00   0.0000000E+00   0.0000000E+00   0.0000000E+00   0.0000000E+00   0.0000000E+00   0.0000000E+00   0.0000000E+00   0.0000000E+00   0.0000000E+00   0.0000000E+00   0.0000000E+00   0.0000000E+00   0.0000000E+00   0.0000000E+00   0.0000000E+00   0.0000000E+00   0.0000000E+00   0.0000000E+00   0.0000000E+00   0.0000000E+00   0.0000000E+00   0.0000000E+00   0.0000000E+00   0.0000000E+00   0.0000000E+00   0.0000000E+00   0.0000000E+00   0.0000000E+00   0.0000000E+00   0.0000000E+00   0.0000000E+00   0.0000000E+00   0.0000000E+00   0.0000000E+00   0.0000000E+00   0.0000000E+00   0.0000000E+00   0.0000000E+00   0.0000000E+00   0.0000000E+00   0.0000000E+00   0.0000000E+00   0.0000000E+00   0.0000000E+00   0.0000000E+00   0.0000000E+00   0.0000000E+00   0.0000000E+00   0.0000000E+00   0.0000000E+00   0.0000000E+00   0.0000000E+00   0.0000000E+00   0.0000000E+00   0.0000000E+00   0.0000000E+00   0.0000000E+00   0.0000000E+00   0.0000000E+00   0.0000000E+00   0.0000000E+00   0.0000000E+00   0.0000000E+00   0.0000000E+00   0.0000000E+00   0.0000000E+00   0.0000000E+00   0.0000000E+00   0.0000000E+00   0.0000000E+00   0.0000000E+00   0.0000000E+00   0.0000000E+00   0.0000000E+00   0.0000000E+00   0.0000000E+00   0.0000000E+00   0.0000000E+00   0.0000000E+00   0.0000000E+00   0.0000000E+00   0.0000000E+00   0.0000000E+00   0.0000000E+00   0.0000000E+00   0.0000000E+00   0.0000000E+00   0.0000000E+00   0.0000000E+00   0.0000000E+00   0.0000000E+00   0.0000000E+00   0.0000000E+00   0.0000000E+00   0.0000000E+00   0.0000000E+00   0.0000000E+00   0.0000000E+00   0.0000000E+00   0.0000000E+00   0.0000000E+00   0.0000000E+00   0.0000000E+00   0.0000000E+00   0.0000000E+00   0.0000000E+00   0.0000000E+00   0.0000000E+00   0.0000000E+00   0.0000000E+00   0.0000000E+00   0.0000000E+00   0.0000000E+00   0.0000000E+00   0.0000000E+00   0.0000000E+00   0.0000000E+00   0.0000000E+00   0.0000000E+00   0.0000000E+00   0.0000000E+00   0.0000000E+00   0.0000000E+00   0.0000000E+00   0.0000000E+00   0.0000000E+00   0.0000000E+00   0.0000000E+00   0.0000000E+00   0.0000000E+00   0.0000000E+00   0.0000000E+00   0.0000000E+00   0.0000000E+00   0.0000000E+00   0.0000000E+00   0.0000000E+00   0.0000000E+00   0.0000000E+00   0.0000000E+00   0.0000000E+00   0.0000000E+00   0.0000000E+00   0.0000000E+00   0.0000000E+00   0.0000000E+00   0.0000000E+00   0.0000000E+00   0.0000000E+00   0.0000000E+00   0.0000000E+00   0.0000000E+00   0.0000000E+00   0.0000000E+00   0.0000000E+00   0.0000000E+00   0.0000000E+00   0.0000000E+00   0.0000000E+00   0.0000000E+00   0.0000000E+00   0.0000000E+00   0.0000000E+00   0.0000000E+00   0.0000000E+00   0.0000000E+00   0.0000000E+00   0.0000000E+00   0.0000000E+00   0.0000000E+00   0.0000000E+00   0.0000000E+00   0.0000000E+00   0.0000000E+00   0.0000000E+00   0.0000000E+00   0.0000000E+00   0.0000000E+00   0.0000000E+00   0.0000000E+00   0.0000000E+00   0.0000000E+00   0.0000000E+00   0.0000000E+00   0.0000000E+00   0.0000000E+00   0.0000000E+00   0.0000000E+00   0.0000000E+00   0.0000000E+00   0.0000000E+00   0.0000000E+00   0.0000000E+00   0.0000000E+00   0.0000000E+00   0.0000000E+00   0.0000000E+00   0.0000000E+00   0.0000000E+00   0.0000000E+00   0.0000000E+00   0.0000000E+00   0.0000000E+00   0.0000000E+00   0.0000000E+00   0.0000000E+00   0.0000000E+00   0.0000000E+00   0.0000000E+00   0.0000000E+00   0.0000000E+00   0.0000000E+00   0.0000000E+00   0.0000000E+00   0.0000000E+00   0.0000000E+00   0.0000000E+00   0.0000000E+00   0.0000000E+00   0.0000000E+00   0.0000000E+00   0.0000000E+00   0.0000000E+00   0.0000000E+00   0.0000000E+00   0.0000000E+00   0.0000000E+00   0.0000000E+00   0.0000000E+00   0.0000000E+00   0.0000000E+00   0.0000000E+00   0.0000000E+00   0.0000000E+00   0.0000000E+00   0.0000000E+00   0.0000000E+00   0.0000000E+00   0.0000000E+00   0.0000000E+00   0.0000000E+00   0.0000000E+00   0.0000000E+00   0.0000000E+00   0.0000000E+00   0.0000000E+00   0.0000000E+00   0.0000000E+00   0.0000000E+00   0.0000000E+00   0.0000000E+00   0.0000000E+00   0.0000000E+00   0.0000000E+00   0.0000000E+00   0.0000000E+00   0.0000000E+00   0.0000000E+00   0.0000000E+00   0.0000000E+00   0.0000000E+00   0.0000000E+00   0.0000000E+00   0.0000000E+00   0.0000000E+00   0.0000000E+00   0.0000000E+00   0.0000000E+00   0.0000000E+00   0.0000000E+00   0.0000000E+00   0.0000000E+00   0.0000000E+00   0.0000000E+00   0.0000000E+00   0.0000000E+00   0.0000000E+00   0.0000000E+00   0.0000000E+00   0.0000000E+00   0.0000000E+00   0.0000000E+00   0.0000000E+00   0.0000000E+00   0.0000000E+00   0.0000000E+00   0.0000000E+00   0.0000000E+00   0.0000000E+00   0.0000000E+00   0.0000000E+00   0.0000000E+00   0.0000000E+00   0.0000000E+00   0.0000000E+00   0.0000000E+00   0.0000000E+00   0.0000000E+00   0.0000000E+00   0.0000000E+00   0.0000000E+00   0.0000000E+00   0.0000000E+00   0.0000000E+00   0.0000000E+00   0.0000000E+00   0.0000000E+00   0.0000000E+00   0.0000000E+00   0.0000000E+00   0.0000000E+00   0.0000000E+00   0.0000000E+00   0.0000000E+00   0.0000000E+00   0.0000000E+00   0.0000000E+00   0.0000000E+00   0.0000000E+00   0.0000000E+00   0.0000000E+00   0.0000000E+00   0.0000000E+00   0.0000000E+00   0.0000000E+00   0.0000000E+00   0.0000000E+00   0.0000000E+00   0.0000000E+00   0.0000000E+00   0.0000000E+00   0.0000000E+00   0.0000000E+00   0.0000000E+00   0.0000000E+00   0.0000000E+00   0.0000000E+00   0.0000000E+00   0.0000000E+00   0.0000000E+00   0.0000000E+00   0.0000000E+00   0.0000000E+00   0.0000000E+00   0.0000000E+00   0.0000000E+00   0.0000000E+00   0.0000000E+00   0.0000000E+00   0.0000000E+00   0.0000000E+00   0.0000000E+00   0.0000000E+00   0.0000000E+00   0.0000000E+00   0.0000000E+00   0.0000000E+00   0.0000000E+00   0.0000000E+00   0.0000000E+00   0.0000000E+00   0.0000000E+00   0.0000000E+00   0.0000000E+00   0.0000000E+00   0.0000000E+00   0.0000000E+00   0.0000000E+00   0.0000000E+00   0.0000000E+00   0.0000000E+00   0.0000000E+00   0.0000000E+00   0.0000000E+00   0.0000000E+00   0.0000000E+00   0.0000000E+00   0.0000000E+00   0.0000000E+00   0.0000000E+00   0.0000000E+00   0.0000000E+00   0.0000000E+00   0.0000000E+00   0.0000000E+00   0.0000000E+00   0.0000000E+00   0.0000000E+00   0.0000000E+00   0.0000000E+00   0.0000000E+00   0.0000000E+00   0.0000000E+00   0.0000000E+00   0.0000000E+00   0.0000000E+00   0.0000000E+00   0.0000000E+00   0.0000000E+00   0.0000000E+00   0.0000000E+00   0.0000000E+00   0.0000000E+00   0.0000000E+00   0.0000000E+00   0.0000000E+00   0.0000000E+00   0.0000000E+00   0.0000000E+00   0.0000000E+00   0.0000000E+00   0.0000000E+00   0.0000000E+00   0.0000000E+00   0.0000000E+00   0.0000000E+00   0.0000000E+00   0.0000000E+00   0.0000000E+00   0.0000000E+00   0.0000000E+00   0.0000000E+00   0.0000000E+00   0.0000000E+00   0.0000000E+00   0.0000000E+00   0.0000000E+00   0.0000000E+00   0.0000000E+00   0.0000000E+00   0.0000000E+00   0.0000000E+00   0.0000000E+00   0.0000000E+00   0.0000000E+00   0.0000000E+00   0.0000000E+00   0.0000000E+00   0.0000000E+00   0.0000000E+00   0.0000000E+00   0.0000000E+00   0.0000000E+00   0.0000000E+00   0.0000000E+00   0.0000000E+00   0.0000000E+00   0.0000000E+00   0.0000000E+00   0.0000000E+00   0.0000000E+00   0.0000000E+00   0.0000000E+00   0.0000000E+00   0.0000000E+00   0.0000000E+00   0.0000000E+00   0.0000000E+00   0.0000000E+00   0.0000000E+00   0.0000000E+00   0.0000000E+00   0.0000000E+00   0.0000000E+00   0.0000000E+00   0.0000000E+00   0.0000000E+00   0.0000000E+00   0.0000000E+00   0.0000000E+00   0.0000000E+00   0.0000000E+00   0.0000000E+00   0.0000000E+00   0.0000000E+00   0.0000000E+00   0.0000000E+00  -2.5820587E-02   0.0000000E+00  -2.0566981E-03  -3.2422375E-02   0.0000000E+00  -8.9750899E-04  -3.8090605E-02   0.0000000E+00   2.7054222E-04  -4.2551361E-02   0.0000000E+00   1.1693351E-03  -4.5813959E-02   0.0000000E+00   1.6976612E-03  -2.3173168E-02   0.0000000E+00  -3.6340307E-03  -3.1359322E-02   0.0000000E+00  -2.6059642E-03  -3.9098520E-02   0.0000000E+00  -1.0757732E-03  -4.5670807E-02   0.0000000E+00   4.2911421E-04  -5.0768733E-02   0.0000000E+00   1.5736134E-03  -5.4427486E-02   0.0000000E+00   2.2406643E-03  -2.7043546E-02   0.0000000E+00  -4.3621366E-03  -3.6435060E-02   0.0000000E+00  -3.0201788E-03  -4.5193523E-02   0.0000000E+00  -1.1696141E-03  -5.2496012E-02   0.0000000E+00   6.0563092E-04  -5.8035497E-02   0.0000000E+00   1.9355858E-03  -6.1901838E-02   0.0000000E+00   2.6986154E-03  -3.1067286E-02   0.0000000E+00  -4.8719393E-03  -4.1678190E-02   0.0000000E+00  -3.2738841E-03  -5.1428799E-02   0.0000000E+00  -1.1732087E-03  -5.9384864E-02   0.0000000E+00   7.8991253E-04  -6.5252133E-02   0.0000000E+00   2.2289651E-03  -6.9201283E-02   0.0000000E+00   3.0324087E-03  -3.5988461E-02   0.0000000E+00  -5.1756399E-03  -4.7864884E-02   0.0000000E+00  -3.3765887E-03  -5.8585957E-02   0.0000000E+00  -1.0980638E-03  -6.7150190E-02   0.0000000E+00   9.7144512E-04  -7.3288403E-02   0.0000000E+00   2.4466633E-03  -7.7246018E-02   0.0000000E+00   3.2395043E-03  -4.3165457E-02   0.0000000E+00  -5.3414102E-03  -5.6222174E-02   0.0000000E+00  -3.3778725E-03  -6.7661561E-02   0.0000000E+00  -9.6985442E-04  -7.6579943E-02   0.0000000E+00   1.1422294E-03  -8.2829081E-02   0.0000000E+00   2.5956226E-03  -8.6719476E-02   0.0000000E+00   3.3433654E-03  -5.4669991E-02   0.0000000E+00  -5.4683741E-03  -6.8553343E-02   0.0000000E+00  -3.3549261E-03  -7.9958044E-02   0.0000000E+00  -8.1235426E-04  -8.8537678E-02   0.0000000E+00   1.3233902E-03  -9.4424471E-02   0.0000000E+00   2.7220831E-03  -9.8012291E-02   0.0000000E+00   3.4027016E-03  -7.3217042E-02   0.0000000E+00  -5.6576547E-03  -8.6954810E-02   0.0000000E+00  -3.4011705E-03  -9.6843548E-02   0.0000000E+00  -6.3030119E-04  -1.0381827E-01   0.0000000E+00   1.5898987E-03  -1.0849692E-01   0.0000000E+00   2.9471074E-03  -1.1131675E-01   0.0000000E+00   3.5470962E-03  -1.0146990E-01   0.0000000E+00  -6.0510351E-03  -1.1297768E-01   0.0000000E+00  -3.6037434E-03  -1.1910412E-01   0.0000000E+00  -3.7504709E-04  -1.2281666E-01   0.0000000E+00   2.1003790E-03  -1.2525149E-01   0.0000000E+00   3.4875609E-03  -1.2672395E-01   0.0000000E+00   3.9983089E-03  -1.3984026E-01   0.0000000E+00  -7.3061758E-03  -1.4593013E-01   0.0000000E+00  -4.0925737E-03  -1.4604411E-01   0.0000000E+00   9.4796065E-05  -1.4515974E-01   0.0000000E+00   3.1422600E-03  -1.4459768E-01   0.0000000E+00   4.6655987E-03  -1.4429466E-01   0.0000000E+00   5.0636972E-03  -1.8282390E-01   0.0000000E+00  -1.0813587E-02  -1.8138693E-01   0.0000000E+00  -5.1538851E-03  -1.7502518E-01   0.0000000E+00   1.0045371E-03  -1.6957182E-01   0.0000000E+00   5.1359283E-03  -1.6607089E-01   0.0000000E+00   6.8955766E-03  -1.6396889E-01   0.0000000E+00   7.1001346E-03  -2.1806569E-01   0.0000000E+00  -1.2149482E-02  -2.1287450E-01   0.0000000E+00  -5.5619883E-03  -2.0272678E-01   0.0000000E+00   3.1259768E-03  -1.9451413E-01   0.0000000E+00   8.6287055E-03  -1.8905723E-01   0.0000000E+00   1.0570194E-02  -1.8558472E-01   0.0000000E+00   1.0412303E-02  -2.4293694E-01   0.0000000E+00   8.5416688E-03  -2.3794265E-01   0.0000000E+00   4.1006152E-03  -2.2783385E-01   0.0000000E+00   9.3290778E-03  -2.1928406E-01   0.0000000E+00   1.4380105E-02  -2.1321931E-01   0.0000000E+00   1.5916470E-02  -2.0902795E-01   0.0000000E+00   1.5105153E-02  -2.6434368E-01   0.0000000E+00   3.4389988E-02  -2.5980574E-01   0.0000000E+00   2.2908406E-02  -2.5160277E-01   0.0000000E+00   2.0640947E-02  -2.4428317E-01   0.0000000E+00   2.2595620E-02  -2.3863362E-01   0.0000000E+00   2.2748385E-02  -2.3428878E-01   0.0000000E+00   2.0974375E-02  -2.8574747E-01   0.0000000E+00   5.1094241E-02  -2.8183958E-01   0.0000000E+00   4.0026724E-02  -2.7591085E-01   0.0000000E+00   3.3480205E-02  -2.7033931E-01   0.0000000E+00   3.1983908E-02  -2.6556632E-01   0.0000000E+00   3.0314673E-02  -2.6141006E-01   0.0000000E+00   2.7532617E-02  -3.0866960E-01   0.0000000E+00   5.9867814E-02  -3.0584559E-01   0.0000000E+00   5.1515017E-02  -3.0199951E-01   0.0000000E+00   4.4289682E-02  -2.9807824E-01   0.0000000E+00   4.0721092E-02  -2.9424545E-01   0.0000000E+00   3.7698407E-02  -2.9044735E-01   0.0000000E+00   3.4258861E-02  -3.3424532E-01   0.0000000E+00   6.3952848E-02  -3.3264345E-01   0.0000000E+00   5.7999760E-02  -3.3041972E-01   0.0000000E+00   5.1850274E-02  -3.2780984E-01   0.0000000E+00   4.7899898E-02  -3.2483679E-01   0.0000000E+00   4.4435665E-02  -3.2150310E-01   0.0000000E+00   4.0816873E-02  -3.6297834E-01   0.0000000E+00   6.6215433E-02  -3.6237225E-01   0.0000000E+00   6.1817158E-02  -3.6131868E-01   0.0000000E+00   5.7062551E-02  -3.5974163E-01   0.0000000E+00   5.3780898E-02  -3.5756820E-01   0.0000000E+00   5.0565716E-02  -3.5479739E-01   0.0000000E+00   4.7126874E-02  -3.9483756E-01   0.0000000E+00   6.8589255E-02  -3.9505225E-01   0.0000000E+00   6.4977966E-02  -3.9491889E-01   0.0000000E+00   6.1354496E-02  -3.9422041E-01   0.0000000E+00   5.9068359E-02  -3.9281040E-01   0.0000000E+00   5.6380916E-02  -3.9064294E-01   0.0000000E+00   5.3287610E-02  -4.3018591E-01   0.0000000E+00   7.1919814E-02  -4.3110108E-01   0.0000000E+00   6.8468720E-02  -4.3170297E-01   0.0000000E+00   6.5708235E-02  -4.3172318E-01   0.0000000E+00   6.4350367E-02  -4.3096104E-01   0.0000000E+00   6.2199149E-02  -4.2931986E-01   0.0000000E+00   5.9497938E-02  -4.6971223E-01   0.0000000E+00   7.6265216E-02  -4.7106805E-01   0.0000000E+00   7.2676584E-02  -4.7213575E-01   0.0000000E+00   7.0604935E-02  -4.7262171E-01   0.0000000E+00   7.0000894E-02  -4.7228983E-01   0.0000000E+00   6.8293251E-02  -4.7100386E-01   0.0000000E+00   6.5937832E-02  -5.1384073E-01   0.0000000E+00   8.1487387E-02  -5.1530218E-01   0.0000000E+00   7.7749267E-02  -5.1649004E-01   0.0000000E+00   7.6303907E-02  -5.1710576E-01   0.0000000E+00   7.6212913E-02  -5.1690388E-01   0.0000000E+00   7.4790590E-02  -5.1573282E-01   0.0000000E+00   7.2691932E-02  -5.6282741E-01   0.0000000E+00   8.7486714E-02  -5.6395692E-01   0.0000000E+00   8.3758391E-02  -5.6481606E-01   0.0000000E+00   8.2807489E-02  -5.6512541E-01   0.0000000E+00   8.2934082E-02  -5.6466526E-01   0.0000000E+00   8.1636563E-02  -5.6330156E-01   0.0000000E+00   7.9713784E-02  -6.1650747E-01   0.0000000E+00   9.4222479E-02  -6.1671937E-01   0.0000000E+00   9.0615623E-02  -6.1666149E-01   0.0000000E+00   8.9810066E-02  -6.1610818E-01   0.0000000E+00   8.9867748E-02  -6.1490917E-01   0.0000000E+00   8.8624142E-02  -6.1298317E-01   0.0000000E+00   8.6855203E-02  -6.7357290E-01   0.0000000E+00   1.0144859E-01  -6.7214847E-01   0.0000000E+00   9.7930454E-02  -6.7046046E-01   0.0000000E+00   9.6670873E-02  -6.6839480E-01   0.0000000E+00   9.6565627E-02  -6.6591436E-01   0.0000000E+00   9.5504053E-02  -6.6302454E-01   0.0000000E+00   9.3969777E-02  -7.3053610E-01   0.0000000E+00   1.0851845E-01  -7.2675031E-01   0.0000000E+00   1.0494288E-01  -7.2272086E-01   0.0000000E+00   1.0257463E-01  -7.1851802E-01   0.0000000E+00   1.0270616E-01  -7.1425956E-01   0.0000000E+00   1.0221617E-01  -7.1005696E-01   0.0000000E+00   1.0109986E-01  -7.8075212E-01   0.0000000E+00   1.1438540E-01  -7.7412802E-01   0.0000000E+00   1.1071541E-01  -7.6729703E-01   0.0000000E+00   1.0698666E-01  -7.6059341E-01   0.0000000E+00   1.0850981E-01  -7.5431007E-01   0.0000000E+00   1.0925648E-01  -7.4865347E-01   0.0000000E+00   1.0874708E-01  -8.1394345E-01   0.0000000E+00   1.1778323E-01  -8.0461597E-01   0.0000000E+00   1.1446515E-01  -7.9514951E-01   0.0000000E+00   1.1005421E-01  -7.8617579E-01   0.0000000E+00   1.1511485E-01  -7.7813941E-01   0.0000000E+00   1.1793914E-01  -7.7130097E-01   0.0000000E+00   1.1814175E-01  -8.1604409E-01   0.0000000E+00   1.1798295E-01  -8.0524653E-01   0.0000000E+00   1.1620449E-01  -7.9446918E-01   0.0000000E+00   1.1330527E-01  -7.8452915E-01   0.0000000E+00   1.2468646E-01  -7.7587360E-01   0.0000000E+00   1.3036342E-01  -7.6874256E-01   0.0000000E+00   1.3120216E-01  -7.6799601E-01   0.0000000E+00   1.1580805E-01  -7.5851512E-01   0.0000000E+00   1.1760047E-01  -7.4950379E-01   0.0000000E+00   1.1990283E-01  -7.4164289E-01   0.0000000E+00   1.3938697E-01  -7.3502630E-01   0.0000000E+00   1.4833958E-01  -7.2962052E-01   0.0000000E+00   1.4991878E-01  -6.4495617E-01   0.0000000E+00   1.1402719E-01  -6.4109117E-01   0.0000000E+00   1.2298585E-01  -6.3843292E-01   0.0000000E+00   1.3485156E-01  -6.3722211E-01   0.0000000E+00   1.5914488E-01  -6.3689572E-01   0.0000000E+00   1.7210822E-01  -6.3676912E-01   0.0000000E+00   1.7517987E-01  -4.1975319E-01   0.0000000E+00   1.2430731E-01  -4.2632368E-01   0.0000000E+00   1.4442387E-01  -4.3477917E-01   0.0000000E+00   1.5444253E-01  -4.4487840E-01   0.0000000E+00   1.8114664E-01  -4.5533755E-01   0.0000000E+00   1.9965345E-01  -4.6460059E-01   0.0000000E+00   2.0592858E-01  -7.3370852E-02   0.0000000E+00   1.5177134E-01  -9.4008073E-02   0.0000000E+00   1.8590160E-01  -1.1677690E-01   0.0000000E+00   1.8684450E-01  -1.4104174E-01   0.0000000E+00   2.0532578E-01  -1.6498718E-01   0.0000000E+00   2.2652671E-01  -1.8629949E-01   0.0000000E+00   2.3886992E-01   3.8909489E-01   0.0000000E+00   1.8255591E-01   3.5411641E-01   0.0000000E+00   2.4200620E-01   3.1720462E-01   0.0000000E+00   2.2924192E-01   2.7958456E-01   0.0000000E+00   2.3507978E-01   2.4321190E-01   0.0000000E+00   2.5056136E-01   2.1065210E-01   0.0000000E+00   2.6934019E-01   9.2273855E-01   0.0000000E+00   1.6270122E-01   8.7904412E-01   0.0000000E+00   2.7399802E-01   8.3342516E-01   0.0000000E+00   2.5567824E-01   7.8835505E-01   0.0000000E+00   2.6245177E-01   7.4555683E-01   0.0000000E+00   2.6949990E-01   7.0713687E-01   0.0000000E+00   2.9328766E-01   1.4367512E+00   0.0000000E+00   1.4541472E-01   1.3980223E+00   0.0000000E+00   2.6903805E-01   1.3561921E+00   0.0000000E+00   2.5387439E-01   1.3153589E+00   0.0000000E+00   2.8232351E-01   1.2770250E+00   0.0000000E+00   2.8609678E-01   1.2422276E+00   0.0000000E+00   3.0972761E-01   1.8152856E+00   0.0000000E+00   9.9808753E-02   1.7998711E+00   0.0000000E+00   2.3730963E-01   1.7803860E+00   0.0000000E+00   2.4521627E-01   1.7599511E+00   0.0000000E+00   2.8589752E-01   1.7398852E+00   0.0000000E+00   2.9747066E-01   1.7199043E+00   0.0000000E+00   3.2053715E-01   1.9896544E+00   0.0000000E+00   4.2863134E-02   2.0040436E+00   0.0000000E+00   2.3315570E-01   2.0181282E+00   0.0000000E+00   2.0339149E-01   2.0301352E+00   0.0000000E+00   2.5236300E-01   2.0382648E+00   0.0000000E+00   2.8208765E-01   2.0407076E+00   0.0000000E+00   3.1728113E-01   1.9848139E+00   0.0000000E+00   1.5613256E-02   2.0240679E+00   0.0000000E+00   2.5927499E-01   2.0669568E+00   0.0000000E+00   1.7918731E-01   2.1080136E+00   0.0000000E+00   2.2939497E-01   2.1424961E+00   0.0000000E+00   2.7145550E-01   2.1666923E+00   0.0000000E+00   3.1472504E-01   1.8835212E+00   0.0000000E+00   1.1596803E-02   1.9385437E+00   0.0000000E+00   2.8718042E-01   1.9990431E+00   0.0000000E+00   1.8796352E-01   2.0580385E+00   0.0000000E+00   2.2756393E-01   2.1092286E+00   0.0000000E+00   2.7269325E-01   2.1476657E+00   0.0000000E+00   3.1790611E-01   1.7699343E+00   0.0000000E+00   1.6007148E-02   1.8311983E+00   0.0000000E+00   3.0738500E-01   1.8976279E+00   0.0000000E+00   2.1334493E-01   1.9623272E+00   0.0000000E+00   2.4246866E-01   2.0186732E+00   0.0000000E+00   2.8416482E-01   2.0612812E+00   0.0000000E+00   3.2641247E-01   1.6900865E+00   0.0000000E+00   2.1612430E-02   1.7494137E+00   0.0000000E+00   3.1623900E-01   1.8124137E+00   0.0000000E+00   2.3875742E-01   1.8729064E+00   0.0000000E+00   2.6585349E-01   1.9245540E+00   0.0000000E+00   3.0028102E-01   1.9621280E+00   0.0000000E+00   3.3730334E-01   1.6420106E+00   0.0000000E+00   2.1031640E-02   1.6933552E+00   0.0000000E+00   3.1024754E-01   1.7465490E+00   0.0000000E+00   2.5170258E-01   1.7960720E+00   0.0000000E+00   2.8412074E-01   1.8360819E+00   0.0000000E+00   3.1390750E-01   1.8619270E+00   0.0000000E+00   3.4693083E-01   1.5916212E+00   0.0000000E+00   1.9396892E-02   1.6310966E+00   0.0000000E+00   2.9721504E-01   1.6704515E+00   0.0000000E+00   2.5441420E-01   1.7046747E+00   0.0000000E+00   2.9351160E-01   1.7286255E+00   0.0000000E+00   3.2177117E-01   1.7386742E+00   0.0000000E+00   3.5263586E-01   1.5013957E+00   0.0000000E+00   2.3789769E-02   1.5264429E+00   0.0000000E+00   2.8259137E-01   1.5490812E+00   0.0000000E+00   2.5208390E-01   1.5648718E+00   0.0000000E+00   2.9517290E-01   1.5698336E+00   0.0000000E+00   3.2347956E-01   1.5619247E+00   0.0000000E+00   3.5335496E-01   1.3554085E+00   0.0000000E+00   4.1745305E-02   1.3636371E+00   0.0000000E+00   2.7111518E-01   1.3668554E+00   0.0000000E+00   2.4989562E-01   1.3614521E+00   0.0000000E+00   2.9126555E-01   1.3451995E+00   0.0000000E+00   3.1936672E-01   1.3183172E+00   0.0000000E+00   3.4921041E-01   1.1662893E+00   0.0000000E+00   7.1160480E-02   1.1555252E+00   0.0000000E+00   2.6666239E-01   1.1370183E+00   0.0000000E+00   2.4596481E-01   1.1084644E+00   0.0000000E+00   2.8186244E-01   1.0699924E+00   0.0000000E+00   3.1008050E-01   1.0247828E+00   0.0000000E+00   3.4078690E-01   9.6417123E-01   0.0000000E+00   1.0592498E-01   9.3337154E-01   0.0000000E+00   2.6514080E-01   8.9245862E-01   0.0000000E+00   2.3774369E-01   8.4112155E-01   0.0000000E+00   2.6751813E-01   7.8261590E-01   0.0000000E+00   2.9874200E-01   7.2275513E-01   0.0000000E+00   3.2901049E-01   7.7973944E-01   0.0000000E+00   1.3991918E-01   7.2993910E-01   0.0000000E+00   2.6509812E-01   6.6848630E-01   0.0000000E+00   2.2665176E-01   5.9789050E-01   0.0000000E+00   2.5608683E-01   5.2449369E-01   0.0000000E+00   2.8665170E-01   4.5530641E-01   0.0000000E+00   3.1404638E-01   6.2912971E-01   0.0000000E+00   1.5816902E-01   5.6442261E-01   0.0000000E+00   2.6058546E-01   4.8744634E-01   0.0000000E+00   2.1471794E-01   4.0347439E-01   0.0000000E+00   2.4576430E-01   3.2143193E-01   0.0000000E+00   2.7072093E-01   2.4830212E-01   0.0000000E+00   2.9564601E-01   5.1170063E-01   0.0000000E+00   1.5700923E-01   4.3880072E-01   0.0000000E+00   2.4705599E-01   3.5278782E-01   0.0000000E+00   1.9877179E-01   2.6197514E-01   0.0000000E+00   2.3027755E-01   1.7773080E-01   0.0000000E+00   2.5149187E-01   1.0558357E-01   0.0000000E+00   2.7430263E-01   4.1837400E-01   0.0000000E+00   1.3429759E-01   3.4385499E-01   0.0000000E+00   2.2527531E-01   2.5305876E-01   0.0000000E+00   1.7916454E-01   1.6212757E-01   0.0000000E+00   2.1287572E-01   8.1923991E-02   0.0000000E+00   2.3146030E-01   1.5342377E-02   0.0000000E+00   2.5130042E-01   3.5123909E-01   0.0000000E+00   1.0041478E-01   2.6923260E-01   0.0000000E+00   1.8781187E-01   1.7211251E-01   0.0000000E+00   1.6636935E-01   8.7359883E-02   0.0000000E+00   1.9737899E-01   1.6957119E-02   0.0000000E+00   2.1270652E-01  -3.9871365E-02   0.0000000E+00   2.2819540E-01   3.1887636E-01   0.0000000E+00   1.0011511E-01   2.0302643E-01   0.0000000E+00   1.5809676E-01   1.0031338E-01   0.0000000E+00   1.5856822E-01   2.4847303E-02   0.0000000E+00   1.8587516E-01  -3.1536967E-02   0.0000000E+00   1.9697449E-01  -7.5364761E-02   0.0000000E+00   2.0720224E-01   2.7970561E-01   0.0000000E+00   8.6797684E-02   1.4382523E-01   0.0000000E+00   1.3919275E-01   3.5137799E-02   0.0000000E+00   1.4890207E-01  -3.0506823E-02   0.0000000E+00   1.7533374E-01  -7.1311794E-02   0.0000000E+00   1.8528113E-01  -1.0071506E-01   0.0000000E+00   1.8957427E-01   9.8163955E-02   0.0000000E+00   1.1978958E-01  -1.8436536E-02   0.0000000E+00   1.2900160E-01  -7.6565020E-02   0.0000000E+00   1.5739799E-01  -1.0391470E-01   0.0000000E+00   1.7390604E-01  -1.1994990E-01   0.0000000E+00   1.7584215E-01   7.0482276E-02   0.0000000E+00   1.0002503E-01  -4.6153493E-02   0.0000000E+00   1.0994871E-01  -1.0738928E-01   0.0000000E+00   1.3015349E-01  -1.2736610E-01   0.0000000E+00   1.5825680E-01  -1.3422015E-01   0.0000000E+00   1.6397358E-01  -3.7799533E-02   0.0000000E+00   1.0135079E-01  -1.1405186E-01   0.0000000E+00   1.0584104E-01  -1.3814792E-01   0.0000000E+00   1.3782486E-01  -1.4294806E-01   0.0000000E+00   1.5252826E-01  -7.1390700E-03   0.0000000E+00   9.5395252E-02  -8.3596624E-02   0.0000000E+00   1.0074078E-01  -1.2956068E-01   0.0000000E+00   1.1670589E-01  -1.4252172E-01   0.0000000E+00   1.4031604E-01  -2.7715923E-02   0.0000000E+00   1.0886440E-01  -8.8753030E-02   0.0000000E+00   1.1110909E-01  -1.2178782E-01   0.0000000E+00   1.3192068E-01  -2.3883430E-02   0.0000000E+00   1.1956061E-01  -6.4411566E-02   0.0000000E+00   1.3581827E-01  -1.3196315E-02   0.0000000E+00   1.0158081E-01   2.2149126E-03   0.0000000E+00   1.4299509E-01  -4.8050590E-02   0.0000000E+00   1.8862546E-03  -4.9487643E-02   0.0000000E+00   1.8384388E-03  -5.0332338E-02   0.0000000E+00   1.6642733E-03  -5.0752968E-02   0.0000000E+00   1.4365681E-03  -5.0890606E-02   0.0000000E+00   1.1985947E-03  -5.0860561E-02   0.0000000E+00   9.7763585E-04  -5.0752208E-02   0.0000000E+00   7.9165463E-04  -5.0630972E-02   0.0000000E+00   6.5201166E-04  -5.0541200E-02   0.0000000E+00   5.6567899E-04  -5.6875624E-02   0.0000000E+00   2.4747266E-03  -5.8398880E-02   0.0000000E+00   2.4089201E-03  -5.9249841E-02   0.0000000E+00   2.1840308E-03  -5.9627078E-02   0.0000000E+00   1.8912348E-03  -5.9695251E-02   0.0000000E+00   1.5830121E-03  -5.9588410E-02   0.0000000E+00   1.2952134E-03  -5.9409060E-02   0.0000000E+00   1.0520966E-03  -5.9231613E-02   0.0000000E+00   8.6918741E-04  -5.9106056E-02   0.0000000E+00   7.5598323E-04  -6.4398035E-02   0.0000000E+00   2.9569815E-03  -6.5876432E-02   0.0000000E+00   2.8715665E-03  -6.6634163E-02   0.0000000E+00   2.6072166E-03  -6.6896215E-02   0.0000000E+00   2.2656017E-03  -6.6846184E-02   0.0000000E+00   1.9033751E-03  -6.6631109E-02   0.0000000E+00   1.5630552E-03  -6.6361643E-02   0.0000000E+00   1.2743847E-03  -6.6117048E-02   0.0000000E+00   1.0566632E-03  -6.5950252E-02   0.0000000E+00   9.2173211E-04  -7.1629703E-02   0.0000000E+00   3.2871307E-03  -7.2965935E-02   0.0000000E+00   3.1803942E-03  -7.3553458E-02   0.0000000E+00   2.8926593E-03  -7.3643163E-02   0.0000000E+00   2.5248637E-03  -7.3435269E-02   0.0000000E+00   2.1318488E-03  -7.3085405E-02   0.0000000E+00   1.7598933E-03  -7.2708860E-02   0.0000000E+00   1.4427254E-03  -7.2387069E-02   0.0000000E+00   1.2026833E-03  -7.2173722E-02   0.0000000E+00   1.0536360E-03  -7.9530306E-02   0.0000000E+00   3.4668359E-03  -8.0656417E-02   0.0000000E+00   3.3404715E-03  -8.1017606E-02   0.0000000E+00   3.0480151E-03  -8.0892727E-02   0.0000000E+00   2.6785075E-03  -8.0496006E-02   0.0000000E+00   2.2799661E-03  -7.9989523E-02   0.0000000E+00   1.8989726E-03  -7.9490937E-02   0.0000000E+00   1.5715862E-03  -7.9082191E-02   0.0000000E+00   1.3224983E-03  -7.8816906E-02   0.0000000E+00   1.1673541E-03  -8.8800050E-02   0.0000000E+00   3.5347964E-03  -8.9662634E-02   0.0000000E+00   3.3997355E-03  -8.9755461E-02   0.0000000E+00   3.1235202E-03  -8.9384124E-02   0.0000000E+00   2.7769858E-03  -8.8774040E-02   0.0000000E+00   2.3970101E-03  -8.8092171E-02   0.0000000E+00   2.0276941E-03  -8.7457649E-02   0.0000000E+00   1.7062692E-03  -8.6952351E-02   0.0000000E+00   1.4595727E-03  -8.6629383E-02   0.0000000E+00   1.3051018E-03  -9.9800251E-02   0.0000000E+00   3.5620194E-03  -1.0034554E-01   0.0000000E+00   3.4382173E-03  -1.0013458E-01   0.0000000E+00   3.2018041E-03  -9.9490747E-02   0.0000000E+00   2.9027441E-03  -9.8646879E-02   0.0000000E+00   2.5626393E-03  -9.7773194E-02   0.0000000E+00   2.2216160E-03  -9.6989878E-02   0.0000000E+00   1.9180741E-03  -9.6378624E-02   0.0000000E+00   1.6816244E-03  -9.5992193E-02   0.0000000E+00   1.5322337E-03  -1.1261638E-01   0.0000000E+00   3.6674878E-03  -1.1277967E-01   0.0000000E+00   3.5672751E-03  -1.1222792E-01   0.0000000E+00   3.3922356E-03  -1.1128804E-01   0.0000000E+00   3.1618730E-03  -1.1019348E-01   0.0000000E+00   2.8780997E-03  -1.0911480E-01   0.0000000E+00   2.5762245E-03  -1.0817202E-01   0.0000000E+00   2.2968820E-03  -1.0744672E-01   0.0000000E+00   2.0739255E-03  -1.0699187E-01   0.0000000E+00   1.9310516E-03  -1.2726142E-01   0.0000000E+00   4.0431828E-03  -1.2694333E-01   0.0000000E+00   3.9452049E-03  -1.2601081E-01   0.0000000E+00   3.8331803E-03  -1.2475369E-01   0.0000000E+00   3.6797491E-03  -1.2339608E-01   0.0000000E+00   3.4588554E-03  -1.2210350E-01   0.0000000E+00   3.1986299E-03  -1.2099401E-01   0.0000000E+00   2.9428969E-03  -1.2014927E-01   0.0000000E+00   2.7314601E-03  -1.1962238E-01   0.0000000E+00   2.5932696E-03  -1.4383367E-01   0.0000000E+00   4.9564838E-03  -1.4292526E-01   0.0000000E+00   4.7866772E-03  -1.4157195E-01   0.0000000E+00   4.6956874E-03  -1.3997990E-01   0.0000000E+00   4.5988257E-03  -1.3835131E-01   0.0000000E+00   4.4287173E-03  -1.3684091E-01   0.0000000E+00   4.2000664E-03  -1.3556191E-01   0.0000000E+00   3.9586280E-03  -1.3459516E-01   0.0000000E+00   3.7509005E-03  -1.3399455E-01   0.0000000E+00   3.6121404E-03  -1.6243418E-01   0.0000000E+00   6.7097703E-03  -1.6086619E-01   0.0000000E+00   6.3382233E-03  -1.5905742E-01   0.0000000E+00   6.1710090E-03  -1.5711708E-01   0.0000000E+00   6.0695456E-03  -1.5521421E-01   0.0000000E+00   5.9112222E-03  -1.5348575E-01   0.0000000E+00   5.6871097E-03  -1.5203810E-01   0.0000000E+00   5.4401695E-03  -1.5095000E-01   0.0000000E+00   5.2220277E-03  -1.5027580E-01   0.0000000E+00   5.0740712E-03  -1.8310012E-01   0.0000000E+00   9.5557496E-03  -1.8087284E-01   0.0000000E+00   8.8155083E-03  -1.7859177E-01   0.0000000E+00   8.4331650E-03  -1.7629804E-01   0.0000000E+00   8.2277255E-03  -1.7412205E-01   0.0000000E+00   8.0142962E-03  -1.7217951E-01   0.0000000E+00   7.7498532E-03  -1.7056727E-01   0.0000000E+00   7.4670282E-03  -1.6936147E-01   0.0000000E+00   7.2184447E-03  -1.6861638E-01   0.0000000E+00   7.0497184E-03  -2.0584475E-01   0.0000000E+00   1.3593715E-02  -2.0302387E-01   0.0000000E+00   1.2329698E-02  -2.0028515E-01   0.0000000E+00   1.1589693E-02  -1.9764847E-01   0.0000000E+00   1.1164451E-02  -1.9520861E-01   0.0000000E+00   1.0811796E-02  -1.9306089E-01   0.0000000E+00   1.0449402E-02  -1.9129252E-01   0.0000000E+00   1.0092421E-02  -1.8997617E-01   0.0000000E+00   9.7891102E-03  -1.8916488E-01   0.0000000E+00   9.5861051E-03  -2.3067527E-01   0.0000000E+00   1.8706428E-02  -2.2737466E-01   0.0000000E+00   1.6840605E-02  -2.2423472E-01   0.0000000E+00   1.5644958E-02  -2.2128832E-01   0.0000000E+00   1.4901343E-02  -2.1860582E-01   0.0000000E+00   1.4328142E-02  -2.1626937E-01   0.0000000E+00   1.3808023E-02  -2.1435890E-01   0.0000000E+00   1.3336097E-02  -2.1294317E-01   0.0000000E+00   1.2952210E-02  -2.1207331E-01   0.0000000E+00   1.2700701E-02  -2.5759658E-01   0.0000000E+00   2.4590461E-02  -2.5396827E-01   0.0000000E+00   2.2166660E-02  -2.5052783E-01   0.0000000E+00   2.0497905E-02  -2.4732935E-01   0.0000000E+00   1.9384248E-02  -2.4444047E-01   0.0000000E+00   1.8532632E-02  -2.4194095E-01   0.0000000E+00   1.7805241E-02  -2.3990895E-01   0.0000000E+00   1.7181471E-02  -2.3840970E-01   0.0000000E+00   1.6692266E-02  -2.3749116E-01   0.0000000E+00   1.6378235E-02  -2.8663579E-01   0.0000000E+00   3.0884085E-02  -2.8286558E-01   0.0000000E+00   2.8052660E-02  -2.7925062E-01   0.0000000E+00   2.5978636E-02  -2.7587605E-01   0.0000000E+00   2.4501516E-02  -2.7282956E-01   0.0000000E+00   2.3348151E-02  -2.7020225E-01   0.0000000E+00   2.2382051E-02  -2.6807469E-01   0.0000000E+00   2.1577600E-02  -2.6651099E-01   0.0000000E+00   2.0961227E-02  -2.6555544E-01   0.0000000E+00   2.0571278E-02  -3.1788862E-01   0.0000000E+00   3.7304334E-02  -3.1416294E-01   0.0000000E+00   3.4263764E-02  -3.1049606E-01   0.0000000E+00   3.1907871E-02  -3.0702472E-01   0.0000000E+00   3.0120296E-02  -3.0387491E-01   0.0000000E+00   2.8672935E-02  -3.0115873E-01   0.0000000E+00   2.7453788E-02  -2.9896480E-01   0.0000000E+00   2.6447309E-02  -2.9735661E-01   0.0000000E+00   2.5684126E-02  -2.9637635E-01   0.0000000E+00   2.5205089E-02  -3.5153934E-01   0.0000000E+00   4.3713529E-02  -3.4798861E-01   0.0000000E+00   4.0655140E-02  -3.4436193E-01   0.0000000E+00   3.8151059E-02  -3.4086025E-01   0.0000000E+00   3.6124870E-02  -3.3765647E-01   0.0000000E+00   3.4406781E-02  -3.3488753E-01   0.0000000E+00   3.2928333E-02  -3.3265269E-01   0.0000000E+00   3.1700812E-02  -3.3101711E-01   0.0000000E+00   3.0770734E-02  -3.3002111E-01   0.0000000E+00   3.0188395E-02  -3.8779840E-01   0.0000000E+00   5.0126418E-02  -3.8447547E-01   0.0000000E+00   4.7188424E-02  -3.8093704E-01   0.0000000E+00   4.4642955E-02  -3.7744620E-01   0.0000000E+00   4.2440720E-02  -3.7422043E-01   0.0000000E+00   4.0472258E-02  -3.7142208E-01   0.0000000E+00   3.8725618E-02  -3.6916122E-01   0.0000000E+00   3.7254769E-02  -3.6750621E-01   0.0000000E+00   3.6134746E-02  -3.6649922E-01   0.0000000E+00   3.5432804E-02  -4.2684346E-01   0.0000000E+00   5.6649230E-02  -4.2373079E-01   0.0000000E+00   5.3902593E-02  -4.2028221E-01   0.0000000E+00   5.1379710E-02  -4.1681120E-01   0.0000000E+00   4.9040738E-02  -4.1357106E-01   0.0000000E+00   4.6830021E-02  -4.1074479E-01   0.0000000E+00   4.4799067E-02  -4.0845487E-01   0.0000000E+00   4.3057658E-02  -4.0677565E-01   0.0000000E+00   4.1721120E-02  -4.0575245E-01   0.0000000E+00   4.0881261E-02  -4.6877766E-01   0.0000000E+00   6.3395925E-02  -4.6580487E-01   0.0000000E+00   6.0862090E-02  -4.6240932E-01   0.0000000E+00   5.8394566E-02  -4.5893425E-01   0.0000000E+00   5.5942591E-02  -4.5565802E-01   0.0000000E+00   5.3492501E-02  -4.5278090E-01   0.0000000E+00   5.1160429E-02  -4.5043701E-01   0.0000000E+00   4.9121309E-02  -4.4871226E-01   0.0000000E+00   4.7541302E-02  -4.4765839E-01   0.0000000E+00   4.6544723E-02  -5.1358712E-01   0.0000000E+00   7.0422783E-02  -5.1064807E-01   0.0000000E+00   6.8111755E-02  -5.0723886E-01   0.0000000E+00   6.5736897E-02  -5.0371104E-01   0.0000000E+00   6.3210599E-02  -5.0035369E-01   0.0000000E+00   6.0542248E-02  -4.9737948E-01   0.0000000E+00   5.7908699E-02  -4.9493888E-01   0.0000000E+00   5.5556469E-02  -4.9313146E-01   0.0000000E+00   5.3712860E-02  -4.9202231E-01   0.0000000E+00   5.2543856E-02  -5.6102532E-01   0.0000000E+00   7.7702008E-02  -5.5799258E-01   0.0000000E+00   7.5662628E-02  -5.5449325E-01   0.0000000E+00   7.3472641E-02  -5.5085588E-01   0.0000000E+00   7.0969395E-02  -5.4736382E-01   0.0000000E+00   6.8155572E-02  -5.4423857E-01   0.0000000E+00   6.5260187E-02  -5.4164690E-01   0.0000000E+00   6.2607013E-02  -5.3971052E-01   0.0000000E+00   6.0496550E-02  -5.3851467E-01   0.0000000E+00   5.9148025E-02  -6.1033362E-01   0.0000000E+00   8.5149355E-02  -6.0707700E-01   0.0000000E+00   8.3519079E-02  -6.0342652E-01   0.0000000E+00   8.1710838E-02  -5.9964508E-01   0.0000000E+00   7.9429127E-02  -5.9598464E-01   0.0000000E+00   7.6627068E-02  -5.9266645E-01   0.0000000E+00   7.3572516E-02  -5.8987665E-01   0.0000000E+00   7.0674174E-02  -5.8776695E-01   0.0000000E+00   6.8321213E-02  -5.8645308E-01   0.0000000E+00   6.6800728E-02  -6.5975845E-01   0.0000000E+00   9.2711091E-02  -6.5617192E-01   0.0000000E+00   9.1742605E-02  -6.5235382E-01   0.0000000E+00   9.0644054E-02  -6.4844602E-01   0.0000000E+00   8.8907242E-02  -6.4463341E-01   0.0000000E+00   8.6378105E-02  -6.4112157E-01   0.0000000E+00   8.3346933E-02  -6.3811690E-01   0.0000000E+00   8.0316953E-02  -6.3581079E-01   0.0000000E+00   7.7784374E-02  -6.3435847E-01   0.0000000E+00   7.6121829E-02  -7.0598018E-01   0.0000000E+00   1.0050178E-01  -7.0201480E-01   0.0000000E+00   1.0053716E-01  -6.9808084E-01   0.0000000E+00   1.0058134E-01  -6.9413775E-01   0.0000000E+00   9.9821486E-02  -6.9026178E-01   0.0000000E+00   9.7928144E-02  -6.8662161E-01   0.0000000E+00   9.5190503E-02  -6.8344218E-01   0.0000000E+00   9.2214093E-02  -6.8095624E-01   0.0000000E+00   8.9618944E-02  -6.7937034E-01   0.0000000E+00   8.7877832E-02  -7.4372411E-01   0.0000000E+00   1.0899182E-01  -7.3943406E-01   0.0000000E+00   1.1034387E-01  -7.3551625E-01   0.0000000E+00   1.1196318E-01  -7.3170763E-01   0.0000000E+00   1.1264884E-01  -7.2793823E-01   0.0000000E+00   1.1182135E-01  -7.2431880E-01   0.0000000E+00   1.0973071E-01  -7.2107780E-01   0.0000000E+00   1.0707805E-01  -7.1849096E-01   0.0000000E+00   1.0461064E-01  -7.1681702E-01   0.0000000E+00   1.0290444E-01  -7.6576602E-01   0.0000000E+00   1.1921141E-01  -7.6138365E-01   0.0000000E+00   1.2195881E-01  -7.5772220E-01   0.0000000E+00   1.2538128E-01  -7.5430185E-01   0.0000000E+00   1.2787136E-01  -7.5089622E-01   0.0000000E+00   1.2853117E-01  -7.4754077E-01   0.0000000E+00   1.2750298E-01  -7.4444890E-01   0.0000000E+00   1.2554173E-01  -7.4192256E-01   0.0000000E+00   1.2349192E-01  -7.4026150E-01   0.0000000E+00   1.2200739E-01  -7.6328105E-01   0.0000000E+00   1.3280083E-01  -7.5932759E-01   0.0000000E+00   1.3661112E-01  -7.5635362E-01   0.0000000E+00   1.4163399E-01  -7.5372088E-01   0.0000000E+00   1.4597914E-01  -7.5107324E-01   0.0000000E+00   1.4842756E-01  -7.4836361E-01   0.0000000E+00   1.4891171E-01  -7.4576479E-01   0.0000000E+00   1.4813046E-01  -7.4357426E-01   0.0000000E+00   1.4693052E-01  -7.4210417E-01   0.0000000E+00   1.4596397E-01  -7.2559750E-01   0.0000000E+00   1.5166420E-01  -7.2301435E-01   0.0000000E+00   1.5586610E-01  -7.2145230E-01   0.0000000E+00   1.6181685E-01  -7.2022682E-01   0.0000000E+00   1.6765691E-01  -7.1890348E-01   0.0000000E+00   1.7198524E-01  -7.1736377E-01   0.0000000E+00   1.7444046E-01  -7.1572006E-01   0.0000000E+00   1.7547327E-01  -7.1422797E-01   0.0000000E+00   1.7574166E-01  -7.1318048E-01   0.0000000E+00   1.7573719E-01  -6.3672853E-01   0.0000000E+00   1.7714311E-01  -6.3712227E-01   0.0000000E+00   1.8119694E-01  -6.3803285E-01   0.0000000E+00   1.8730621E-01  -6.3902688E-01   0.0000000E+00   1.9407795E-01  -6.3970256E-01   0.0000000E+00   2.0022583E-01  -6.3990486E-01   0.0000000E+00   2.0512083E-01  -6.3968933E-01   0.0000000E+00   2.0874754E-01  -6.3925552E-01   0.0000000E+00   2.1129723E-01  -6.3885754E-01   0.0000000E+00   2.1285687E-01  -4.7187841E-01   0.0000000E+00   2.0915659E-01  -4.7753957E-01   0.0000000E+00   2.1329285E-01  -4.8234156E-01   0.0000000E+00   2.1932591E-01  -4.8649102E-01   0.0000000E+00   2.2677107E-01  -4.8985493E-01   0.0000000E+00   2.3481177E-01  -4.9232563E-01   0.0000000E+00   2.4270852E-01  -4.9394190E-01   0.0000000E+00   2.4985215E-01  -4.9486229E-01   0.0000000E+00   2.5566548E-01  -4.9529603E-01   0.0000000E+00   2.5952679E-01  -2.0342520E-01   0.0000000E+00   2.4567027E-01  -2.1641904E-01   0.0000000E+00   2.5137755E-01  -2.2649935E-01   0.0000000E+00   2.5821418E-01  -2.3467760E-01   0.0000000E+00   2.6691514E-01  -2.4129635E-01   0.0000000E+00   2.7744064E-01  -2.4642591E-01   0.0000000E+00   2.8916368E-01  -2.5014758E-01   0.0000000E+00   3.0090180E-01  -2.5260910E-01   0.0000000E+00   3.1109115E-01  -2.5398993E-01   0.0000000E+00   3.1808907E-01   1.8386522E-01   0.0000000E+00   2.8275704E-01   1.6320419E-01   0.0000000E+00   2.9284501E-01   1.4739220E-01   0.0000000E+00   3.0270183E-01   1.3485336E-01   0.0000000E+00   3.1434524E-01   1.2478308E-01   0.0000000E+00   3.2868513E-01   1.1689039E-01   0.0000000E+00   3.4544197E-01   1.1101342E-01   0.0000000E+00   3.6300728E-01   1.0698906E-01   0.0000000E+00   3.7874183E-01   1.0465340E-01   0.0000000E+00   3.8973823E-01   6.7474604E-01   0.0000000E+00   3.1563911E-01   6.4890474E-01   0.0000000E+00   3.3349115E-01   6.2869596E-01   0.0000000E+00   3.4952864E-01   6.1255598E-01   0.0000000E+00   3.6665958E-01   5.9953523E-01   0.0000000E+00   3.8674459E-01   5.8923221E-01   0.0000000E+00   4.1002122E-01   5.8145386E-01   0.0000000E+00   4.3463939E-01   5.7604671E-01   0.0000000E+00   4.5693067E-01   5.7286966E-01   0.0000000E+00   4.7262841E-01   1.2116451E+00   0.0000000E+00   3.4038785E-01   1.1857524E+00   0.0000000E+00   3.6845034E-01   1.1643510E+00   0.0000000E+00   3.9366668E-01   1.1465716E+00   0.0000000E+00   4.1887474E-01   1.1318178E+00   0.0000000E+00   4.4666156E-01   1.1198502E+00   0.0000000E+00   4.7779495E-01   1.1106002E+00   0.0000000E+00   5.1033568E-01   1.1040456E+00   0.0000000E+00   5.3974372E-01   1.1001422E+00   0.0000000E+00   5.6046420E-01   1.6996911E+00   0.0000000E+00   3.5578200E-01   1.6798775E+00   0.0000000E+00   3.9379582E-01   1.6613797E+00   0.0000000E+00   4.2943615E-01   1.6445622E+00   0.0000000E+00   4.6416777E-01   1.6295781E+00   0.0000000E+00   5.0084662E-01   1.6166826E+00   0.0000000E+00   5.4055613E-01   1.6062144E+00   0.0000000E+00   5.8130789E-01   1.5985057E+00   0.0000000E+00   6.1786956E-01   1.5937982E+00   0.0000000E+00   6.4356387E-01   2.0367272E+00   0.0000000E+00   3.6172116E-01   2.0273316E+00   0.0000000E+00   4.0840548E-01   2.0146754E+00   0.0000000E+00   4.5285401E-01   2.0006356E+00   0.0000000E+00   4.9634784E-01   1.9865037E+00   0.0000000E+00   5.4158688E-01   1.9732850E+00   0.0000000E+00   5.8958864E-01   1.9618857E+00   0.0000000E+00   6.3814116E-01   1.9531019E+00   0.0000000E+00   6.8136364E-01   1.9475629E+00   0.0000000E+00   7.1162891E-01   2.1790683E+00   0.0000000E+00   3.6393893E-01   2.1807821E+00   0.0000000E+00   4.1459072E-01   2.1748793E+00   0.0000000E+00   4.6405947E-01   2.1646271E+00   0.0000000E+00   5.1363623E-01   2.1524551E+00   0.0000000E+00   5.6556022E-01   2.1400728E+00   0.0000000E+00   6.2040812E-01   2.1288235E+00   0.0000000E+00   6.7550397E-01   2.1198387E+00   0.0000000E+00   7.2430420E-01   2.1140375E+00   0.0000000E+00   7.5837195E-01   2.1710932E+00   0.0000000E+00   3.6662346E-01   2.1805723E+00   0.0000000E+00   4.1658124E-01   2.1796775E+00   0.0000000E+00   4.6692324E-01   2.1726439E+00   0.0000000E+00   5.1909810E-01   2.1626506E+00   0.0000000E+00   5.7484692E-01   2.1518056E+00   0.0000000E+00   6.3415509E-01   2.1416183E+00   0.0000000E+00   6.9377154E-01   2.1333051E+00   0.0000000E+00   7.4650812E-01   2.1278570E+00   0.0000000E+00   7.8327906E-01   2.0876317E+00   0.0000000E+00   3.7153307E-01   2.0988705E+00   0.0000000E+00   4.1786438E-01   2.0990336E+00   0.0000000E+00   4.6591267E-01   2.0928853E+00   0.0000000E+00   5.1747847E-01   2.0838962E+00   0.0000000E+00   5.7399088E-01   2.0742006E+00   0.0000000E+00   6.3497114E-01   2.0651629E+00   0.0000000E+00   6.9666576E-01   2.0578122E+00   0.0000000E+00   7.5137001E-01   2.0529974E+00   0.0000000E+00   7.8954494E-01   1.9834044E+00   0.0000000E+00   3.7807408E-01   1.9900593E+00   0.0000000E+00   4.1985148E-01   1.9866681E+00   0.0000000E+00   4.6397364E-01   1.9782205E+00   0.0000000E+00   5.1268262E-01   1.9681206E+00   0.0000000E+00   5.6739026E-01   1.9582349E+00   0.0000000E+00   6.2744278E-01   1.9495735E+00   0.0000000E+00   6.8881869E-01   1.9427993E+00   0.0000000E+00   7.4352485E-01   1.9384638E+00   0.0000000E+00   7.8180361E-01   1.8721912E+00   0.0000000E+00   3.8419992E-01   1.8694407E+00   0.0000000E+00   4.2196622E-01   1.8587976E+00   0.0000000E+00   4.6189213E-01   1.8452349E+00   0.0000000E+00   5.0660765E-01   1.8318516E+00   0.0000000E+00   5.5777901E-01   1.8201243E+00   0.0000000E+00   6.1489123E-01   1.8106332E+00   0.0000000E+00   6.7395312E-01   1.8036307E+00   0.0000000E+00   7.2698015E-01   1.7993138E+00   0.0000000E+00   7.6423657E-01   1.7346126E+00   0.0000000E+00   3.8770381E-01   1.7199686E+00   0.0000000E+00   4.2256749E-01   1.7001762E+00   0.0000000E+00   4.5878723E-01   1.6799176E+00   0.0000000E+00   4.9923319E-01   1.6618587E+00   0.0000000E+00   5.4596472E-01   1.6470367E+00   0.0000000E+00   5.9883726E-01   1.6356412E+00   0.0000000E+00   6.5417171E-01   1.6275793E+00   0.0000000E+00   7.0426756E-01   1.6227585E+00   0.0000000E+00   7.3964107E-01   1.5423841E+00   0.0000000E+00   3.8712919E-01   1.5155206E+00   0.0000000E+00   4.1999981E-01   1.4866307E+00   0.0000000E+00   4.5315599E-01   1.4597431E+00   0.0000000E+00   4.8951370E-01   1.4368834E+00   0.0000000E+00   5.3151101E-01   1.4186329E+00   0.0000000E+00   5.7948881E-01   1.4048705E+00   0.0000000E+00   6.3025987E-01   1.3952892E+00   0.0000000E+00   6.7662233E-01   1.3896321E+00   0.0000000E+00   7.0954221E-01   1.2837301E+00   0.0000000E+00   3.8200963E-01   1.2461416E+00   0.0000000E+00   4.1332877E-01   1.2100435E+00   0.0000000E+00   4.4390088E-01   1.1782755E+00   0.0000000E+00   4.7650632E-01   1.1519570E+00   0.0000000E+00   5.1384538E-01   1.1311502E+00   0.0000000E+00   5.5673689E-01   1.1154987E+00   0.0000000E+00   6.0256207E-01   1.1046096E+00   0.0000000E+00   6.4476115E-01   1.0981892E+00   0.0000000E+00   6.7490029E-01   9.7749257E-01   0.0000000E+00   3.7263274E-01   9.3249446E-01   0.0000000E+00   4.0253758E-01   8.9267665E-01   0.0000000E+00   4.3085238E-01   8.5917389E-01   0.0000000E+00   4.6009302E-01   8.3197385E-01   0.0000000E+00   4.9305415E-01   8.1056470E-01   0.0000000E+00   5.3094906E-01   7.9440314E-01   0.0000000E+00   5.7173795E-01   7.8309560E-01   0.0000000E+00   6.0958743E-01   7.7639848E-01   0.0000000E+00   6.3677037E-01   6.6699660E-01   0.0000000E+00   3.5961565E-01   6.1882609E-01   0.0000000E+00   3.8817298E-01   5.7915366E-01   0.0000000E+00   4.1455662E-01   5.4720294E-01   0.0000000E+00   4.4089395E-01   5.2177256E-01   0.0000000E+00   4.6989682E-01   5.0180590E-01   0.0000000E+00   5.0305027E-01   4.8662865E-01   0.0000000E+00   5.3887391E-01   4.7590938E-01   0.0000000E+00   5.7231462E-01   4.6951261E-01   0.0000000E+00   5.9644336E-01   3.9572564E-01   0.0000000E+00   3.4330595E-01   3.4802926E-01   0.0000000E+00   3.7075606E-01   3.1125045E-01   0.0000000E+00   3.9569920E-01   2.8290698E-01   0.0000000E+00   4.1974905E-01   2.6078242E-01   0.0000000E+00   4.4537544E-01   2.4342324E-01   0.0000000E+00   4.7420511E-01   2.3010047E-01   0.0000000E+00   5.0527847E-01   2.2057877E-01   0.0000000E+00   5.3435624E-01   2.1484132E-01   0.0000000E+00   5.5539244E-01   1.8856241E-01   0.0000000E+00   3.2375595E-01   1.4338252E-01   0.0000000E+00   3.5055372E-01   1.1042937E-01   0.0000000E+00   3.7474796E-01   8.5989915E-02   0.0000000E+00   3.9730901E-01   6.7203164E-02   0.0000000E+00   4.2033371E-01   5.2435581E-02   0.0000000E+00   4.4545951E-01   4.0992618E-02   0.0000000E+00   4.7218224E-01   3.2727219E-02   0.0000000E+00   4.9708185E-01   2.7704969E-02   0.0000000E+00   5.1507610E-01   4.8331849E-02   0.0000000E+00   3.0107769E-01   6.2095118E-03   0.0000000E+00   3.2768050E-01  -2.3548029E-02   0.0000000E+00   3.5186180E-01  -4.5175251E-02   0.0000000E+00   3.7381974E-01  -6.1730020E-02   0.0000000E+00   3.9516044E-01  -7.4783124E-02   0.0000000E+00   4.1739485E-01  -8.4929116E-02   0.0000000E+00   4.4036898E-01  -9.2274800E-02   0.0000000E+00   4.6145067E-01  -9.6748061E-02   0.0000000E+00   4.7657388E-01  -3.7130114E-02   0.0000000E+00   2.7599919E-01  -7.6261550E-02   0.0000000E+00   3.0232322E-01  -1.0431180E-01   0.0000000E+00   3.2701474E-01  -1.2492348E-01   0.0000000E+00   3.4916261E-01  -1.4087084E-01   0.0000000E+00   3.6975467E-01  -1.5344475E-01   0.0000000E+00   3.9002341E-01  -1.6312325E-01   0.0000000E+00   4.1001880E-01  -1.7005181E-01   0.0000000E+00   4.2782742E-01  -1.7423737E-01   0.0000000E+00   4.4039229E-01  -8.5283503E-02   0.0000000E+00   2.4980575E-01  -1.2121228E-01   0.0000000E+00   2.7500865E-01  -1.4898463E-01   0.0000000E+00   3.0017343E-01  -1.7038599E-01   0.0000000E+00   3.2301646E-01  -1.8727949E-01   0.0000000E+00   3.4366545E-01  -2.0053139E-01   0.0000000E+00   3.6290473E-01  -2.1053232E-01   0.0000000E+00   3.8080245E-01  -2.1753645E-01   0.0000000E+00   3.9603940E-01  -2.2169617E-01   0.0000000E+00   4.0648988E-01  -1.1140938E-01   0.0000000E+00   2.2428107E-01  -1.4314348E-01   0.0000000E+00   2.4687251E-01  -1.7116554E-01   0.0000000E+00   2.7164847E-01  -1.9460148E-01   0.0000000E+00   2.9518780E-01  -2.1352421E-01   0.0000000E+00   3.1637973E-01  -2.2830057E-01   0.0000000E+00   3.3537048E-01  -2.3924641E-01   0.0000000E+00   3.5205349E-01  -2.4673529E-01   0.0000000E+00   3.6552122E-01  -2.5109369E-01   0.0000000E+00   3.7441441E-01  -1.2559609E-01   0.0000000E+00   2.0128874E-01  -1.5132383E-01   0.0000000E+00   2.1978512E-01  -1.7853539E-01   0.0000000E+00   2.4255462E-01  -2.0420653E-01   0.0000000E+00   2.6604110E-01  -2.2571151E-01   0.0000000E+00   2.8771296E-01  -2.4256322E-01   0.0000000E+00   3.0685514E-01  -2.5492778E-01   0.0000000E+00   3.2302552E-01  -2.6324287E-01   0.0000000E+00   3.3550015E-01  -2.6799902E-01   0.0000000E+00   3.4343141E-01  -1.3316163E-01   0.0000000E+00   1.8230380E-01  -1.5084791E-01   0.0000000E+00   1.9585066E-01  -1.7476723E-01   0.0000000E+00   2.1494883E-01  -2.0119894E-01   0.0000000E+00   2.3677549E-01  -2.2526483E-01   0.0000000E+00   2.5817725E-01  -2.4454650E-01   0.0000000E+00   2.7730379E-01  -2.5875169E-01   0.0000000E+00   2.9324189E-01  -2.6824963E-01   0.0000000E+00   3.0523783E-01  -2.7362460E-01   0.0000000E+00   3.1267866E-01  -1.3744898E-01   0.0000000E+00   1.6777961E-01  -1.4590283E-01   0.0000000E+00   1.7680028E-01  -1.6338073E-01   0.0000000E+00   1.9126529E-01  -1.8730147E-01   0.0000000E+00   2.0953697E-01  -2.1230118E-01   0.0000000E+00   2.2908340E-01  -2.3391157E-01   0.0000000E+00   2.4737760E-01  -2.5027746E-01   0.0000000E+00   2.6279938E-01  -2.6134667E-01   0.0000000E+00   2.7436870E-01  -2.6763105E-01   0.0000000E+00   2.8148353E-01  -1.4090684E-01   0.0000000E+00   1.5684304E-01  -1.4105694E-01   0.0000000E+00   1.6315085E-01  -1.4980933E-01   0.0000000E+00   1.7319776E-01  -1.6728204E-01   0.0000000E+00   1.8678565E-01  -1.8947431E-01   0.0000000E+00   2.0255190E-01  -2.1137294E-01   0.0000000E+00   2.1844006E-01  -2.2947563E-01   0.0000000E+00   2.3244898E-01  -2.4228953E-01   0.0000000E+00   2.4316275E-01  -2.4972700E-01   0.0000000E+00   2.4978240E-01  -1.4402971E-01   0.0000000E+00   1.4825357E-01  -1.4014854E-01   0.0000000E+00   1.5376461E-01  -1.4018138E-01   0.0000000E+00   1.6076836E-01  -1.4841482E-01   0.0000000E+00   1.6980264E-01  -1.6361342E-01   0.0000000E+00   1.8074527E-01  -1.8183394E-01   0.0000000E+00   1.9253965E-01  -1.9901834E-01   0.0000000E+00   2.0365839E-01  -2.1248773E-01   0.0000000E+00   2.1261564E-01  -2.2083458E-01   0.0000000E+00   2.1830748E-01  -1.3945304E-01   0.0000000E+00   1.4315712E-01  -1.4308472E-01   0.0000000E+00   1.4742245E-01  -1.3904500E-01   0.0000000E+00   1.5229490E-01  -1.3774514E-01   0.0000000E+00   1.5790419E-01  -1.4307927E-01   0.0000000E+00   1.6427453E-01  -1.5364318E-01   0.0000000E+00   1.7132877E-01  -1.6618516E-01   0.0000000E+00   1.7837578E-01  -1.7758380E-01   0.0000000E+00   1.8445899E-01  -1.8537721E-01   0.0000000E+00   1.8855281E-01  -1.1002263E-01   0.0000000E+00   1.4316815E-01  -1.3550439E-01   0.0000000E+00   1.4693189E-01  -1.4382310E-01   0.0000000E+00   1.4697008E-01  -1.3901033E-01   0.0000000E+00   1.4908516E-01  -1.3446276E-01   0.0000000E+00   1.5180321E-01  -1.3485797E-01   0.0000000E+00   1.5474094E-01  -1.3960806E-01   0.0000000E+00   1.5773273E-01  -1.4606050E-01   0.0000000E+00   1.6048343E-01  -1.5135561E-01   0.0000000E+00   1.6249333E-01  -5.3933725E-02   0.0000000E+00   1.4574057E-01  -9.9096864E-02   0.0000000E+00   1.4939588E-01  -1.2991104E-01   0.0000000E+00   1.4867453E-01  -1.4227323E-01   0.0000000E+00   1.4451811E-01  -1.3831107E-01   0.0000000E+00   1.4215480E-01  -1.3025522E-01   0.0000000E+00   1.4149372E-01  -1.2580469E-01   0.0000000E+00   1.4144012E-01  -1.2547480E-01   0.0000000E+00   1.4152314E-01  -1.2675251E-01   0.0000000E+00   1.4163871E-01  -1.5258878E-02   0.0000000E+00   1.3803777E-01  -5.2315306E-02   0.0000000E+00   1.4307001E-01  -8.5538164E-02   0.0000000E+00   1.4906871E-01  -1.1494014E-01   0.0000000E+00   1.4668259E-01  -1.3014190E-01   0.0000000E+00   1.3971350E-01  -1.3105482E-01   0.0000000E+00   1.3306798E-01  -1.2464999E-01   0.0000000E+00   1.2919317E-01  -1.1897939E-01   0.0000000E+00   1.2734054E-01  -1.1655167E-01   0.0000000E+00   1.2633321E-01  -4.4079453E-02   0.0000000E+00   1.2540069E-01  -5.4222081E-02   0.0000000E+00   1.3460097E-01  -8.1094645E-02   0.0000000E+00   1.3707297E-01  -9.6280657E-02   0.0000000E+00   1.3750103E-01  -1.0778582E-01   0.0000000E+00   1.3133705E-01  -1.1001898E-01   0.0000000E+00   1.2435793E-01  -1.1203102E-01   0.0000000E+00   1.1886188E-01  -1.1380490E-01   0.0000000E+00   1.1601225E-01  -8.2857795E-02   0.0000000E+00   1.1542939E-01  -8.6952753E-02   0.0000000E+00   1.2137760E-01  -1.0026331E-01   0.0000000E+00   1.1991898E-01  -1.0518593E-01   0.0000000E+00   1.1690485E-01  -1.1318880E-01   0.0000000E+00   1.1226311E-01  -1.2168752E-01   0.0000000E+00   1.0868803E-01  -1.2793057E-01   0.0000000E+00   1.0325380E-01  -1.3333690E-01   0.0000000E+00   1.0335726E-01  -1.4561386E-01   0.0000000E+00   1.0280132E-01  -1.5842117E-01   0.0000000E+00   1.0189426E-01  -5.0508484E-02   0.0000000E+00   5.3649000E-04  -5.0541192E-02   0.0000000E+00   5.6567870E-04  -5.0630972E-02   0.0000000E+00   6.5201166E-04  -5.0752200E-02   0.0000000E+00   7.9165434E-04  -5.0860576E-02   0.0000000E+00   9.7763620E-04  -5.0890602E-02   0.0000000E+00   1.1985945E-03  -5.0752975E-02   0.0000000E+00   1.4365683E-03  -5.0332353E-02   0.0000000E+00   1.6642730E-03  -5.9061076E-02   0.0000000E+00   7.1769574E-04  -5.9106071E-02   0.0000000E+00   7.5598311E-04  -5.9231628E-02   0.0000000E+00   8.6918729E-04  -5.9409052E-02   0.0000000E+00   1.0520964E-03  -5.9588421E-02   0.0000000E+00   1.2952123E-03  -5.9695248E-02   0.0000000E+00   1.5830119E-03  -5.9627052E-02   0.0000000E+00   1.8912347E-03  -5.9249833E-02   0.0000000E+00   2.1840313E-03  -6.5891415E-02   0.0000000E+00   8.7607052E-04  -6.5950260E-02   0.0000000E+00   9.2173193E-04  -6.6117048E-02   0.0000000E+00   1.0566622E-03  -6.6361636E-02   0.0000000E+00   1.2743837E-03  -6.6631123E-02   0.0000000E+00   1.5630551E-03  -6.6846192E-02   0.0000000E+00   1.9033749E-03  -6.6896215E-02   0.0000000E+00   2.2656007E-03  -6.6634178E-02   0.0000000E+00   2.6072178E-03  -7.2099328E-02   0.0000000E+00   1.0031527E-03  -7.2173737E-02   0.0000000E+00   1.0536350E-03  -7.2387084E-02   0.0000000E+00   1.2026823E-03  -7.2708897E-02   0.0000000E+00   1.4427251E-03  -7.3085420E-02   0.0000000E+00   1.7598923E-03  -7.3435262E-02   0.0000000E+00   2.1318479E-03  -7.3643178E-02   0.0000000E+00   2.5248628E-03  -7.3553473E-02   0.0000000E+00   2.8926595E-03  -7.8725219E-02   0.0000000E+00   1.1147343E-03  -7.8816913E-02   0.0000000E+00   1.1673539E-03  -7.9082184E-02   0.0000000E+00   1.3224967E-03  -7.9490900E-02   0.0000000E+00   1.5715851E-03  -7.9989523E-02   0.0000000E+00   1.8989713E-03  -8.0495976E-02   0.0000000E+00   2.2799645E-03  -8.0892749E-02   0.0000000E+00   2.6785063E-03  -8.1017606E-02   0.0000000E+00   3.0480139E-03  -8.6518534E-02   0.0000000E+00   1.2525887E-03  -8.6629368E-02   0.0000000E+00   1.3051014E-03  -8.6952373E-02   0.0000000E+00   1.4595716E-03  -8.7457597E-02   0.0000000E+00   1.7062675E-03  -8.8092156E-02   0.0000000E+00   2.0276918E-03  -8.8774055E-02   0.0000000E+00   2.3970094E-03  -8.9384153E-02   0.0000000E+00   2.7769851E-03  -8.9755446E-02   0.0000000E+00   3.1235171E-03  -9.5860302E-02   0.0000000E+00   1.4812363E-03  -9.5992230E-02   0.0000000E+00   1.5322330E-03  -9.6378610E-02   0.0000000E+00   1.6816228E-03  -9.6989870E-02   0.0000000E+00   1.9180740E-03  -9.7773194E-02   0.0000000E+00   2.2216144E-03  -9.8646849E-02   0.0000000E+00   2.5626379E-03  -9.9490725E-02   0.0000000E+00   2.9027427E-03  -1.0013457E-01   0.0000000E+00   3.2018053E-03  -1.0683703E-01   0.0000000E+00   1.8819586E-03  -1.0699183E-01   0.0000000E+00   1.9310514E-03  -1.0744672E-01   0.0000000E+00   2.0739245E-03  -1.0817197E-01   0.0000000E+00   2.2968815E-03  -1.0911481E-01   0.0000000E+00   2.5762226E-03  -1.1019349E-01   0.0000000E+00   2.8780981E-03  -1.1128801E-01   0.0000000E+00   3.1618718E-03  -1.1222783E-01   0.0000000E+00   3.3922365E-03  -1.1944340E-01   0.0000000E+00   2.5453623E-03  -1.1962234E-01   0.0000000E+00   2.5932700E-03  -1.2014927E-01   0.0000000E+00   2.7314611E-03  -1.2099400E-01   0.0000000E+00   2.9428971E-03  -1.2210339E-01   0.0000000E+00   3.1986297E-03  -1.2339609E-01   0.0000000E+00   3.4588536E-03  -1.2475368E-01   0.0000000E+00   3.6797479E-03  -1.2601078E-01   0.0000000E+00   3.8331787E-03  -1.3379093E-01   0.0000000E+00   3.5635645E-03  -1.3399450E-01   0.0000000E+00   3.6121416E-03  -1.3459519E-01   0.0000000E+00   3.7509005E-03  -1.3556197E-01   0.0000000E+00   3.9586294E-03  -1.3684088E-01   0.0000000E+00   4.2000669E-03  -1.3835141E-01   0.0000000E+00   4.4287145E-03  -1.3997982E-01   0.0000000E+00   4.5988243E-03  -1.4157194E-01   0.0000000E+00   4.6956865E-03  -1.5004754E-01   0.0000000E+00   5.0218878E-03  -1.5027584E-01   0.0000000E+00   5.0740703E-03  -1.5095001E-01   0.0000000E+00   5.2220267E-03  -1.5203805E-01   0.0000000E+00   5.4401727E-03  -1.5348577E-01   0.0000000E+00   5.6871106E-03  -1.5521429E-01   0.0000000E+00   5.9112157E-03  -1.5711696E-01   0.0000000E+00   6.0695433E-03  -1.5905738E-01   0.0000000E+00   6.1710058E-03  -1.6836442E-01   0.0000000E+00   6.9901310E-03  -1.6861634E-01   0.0000000E+00   7.0497189E-03  -1.6936135E-01   0.0000000E+00   7.2184424E-03  -1.7056732E-01   0.0000000E+00   7.4670264E-03  -1.7217945E-01   0.0000000E+00   7.7498499E-03  -1.7412208E-01   0.0000000E+00   8.0142980E-03  -1.7629799E-01   0.0000000E+00   8.2277209E-03  -1.7859171E-01   0.0000000E+00   8.4331557E-03  -1.8889086E-01   0.0000000E+00   9.5147695E-03  -1.8916492E-01   0.0000000E+00   9.5861061E-03  -1.8997613E-01   0.0000000E+00   9.7891176E-03  -1.9129249E-01   0.0000000E+00   1.0092421E-02  -1.9306079E-01   0.0000000E+00   1.0449399E-02  -1.9520865E-01   0.0000000E+00   1.0811794E-02  -1.9764851E-01   0.0000000E+00   1.1164437E-02  -2.0028511E-01   0.0000000E+00   1.1589686E-02  -2.1177983E-01   0.0000000E+00   1.2613096E-02  -2.1207327E-01   0.0000000E+00   1.2700691E-02  -2.1294311E-01   0.0000000E+00   1.2952212E-02  -2.1435879E-01   0.0000000E+00   1.3336098E-02  -2.1626934E-01   0.0000000E+00   1.3808023E-02  -2.1860586E-01   0.0000000E+00   1.4328131E-02  -2.2128838E-01   0.0000000E+00   1.4901332E-02  -2.2423476E-01   0.0000000E+00   1.5644949E-02  -2.3718165E-01   0.0000000E+00   1.6269846E-02  -2.3749116E-01   0.0000000E+00   1.6378229E-02  -2.3840971E-01   0.0000000E+00   1.6692270E-02  -2.3990908E-01   0.0000000E+00   1.7181465E-02  -2.4194106E-01   0.0000000E+00   1.7805239E-02  -2.4444048E-01   0.0000000E+00   1.8532611E-02  -2.4732932E-01   0.0000000E+00   1.9384228E-02  -2.5052783E-01   0.0000000E+00   2.0497892E-02  -2.6523405E-01   0.0000000E+00   2.0437609E-02  -2.6555526E-01   0.0000000E+00   2.0571275E-02  -2.6651093E-01   0.0000000E+00   2.0961238E-02  -2.6807457E-01   0.0000000E+00   2.1577589E-02  -2.7020207E-01   0.0000000E+00   2.2382047E-02  -2.7282947E-01   0.0000000E+00   2.3348138E-02  -2.7587596E-01   0.0000000E+00   2.4501488E-02  -2.7925050E-01   0.0000000E+00   2.5978616E-02  -2.9604694E-01   0.0000000E+00   2.5041537E-02  -2.9637620E-01   0.0000000E+00   2.5205085E-02  -2.9735664E-01   0.0000000E+00   2.5684133E-02  -2.9896498E-01   0.0000000E+00   2.6447313E-02  -3.0115879E-01   0.0000000E+00   2.7453784E-02  -3.0387509E-01   0.0000000E+00   2.8672906E-02  -3.0702472E-01   0.0000000E+00   3.0120250E-02  -3.1049597E-01   0.0000000E+00   3.1907838E-02  -3.2968688E-01   0.0000000E+00   2.9989924E-02  -3.3002123E-01   0.0000000E+00   3.0188393E-02  -3.3101720E-01   0.0000000E+00   3.0770756E-02  -3.3265254E-01   0.0000000E+00   3.1700801E-02  -3.3488750E-01   0.0000000E+00   3.2928329E-02  -3.3765644E-01   0.0000000E+00   3.4406748E-02  -3.4086022E-01   0.0000000E+00   3.6124803E-02  -3.4436187E-01   0.0000000E+00   3.8151003E-02  -3.6616090E-01   0.0000000E+00   3.5193633E-02  -3.6649889E-01   0.0000000E+00   3.5432793E-02  -3.6750621E-01   0.0000000E+00   3.6134753E-02  -3.6916122E-01   0.0000000E+00   3.7254747E-02  -3.7142220E-01   0.0000000E+00   3.8725603E-02  -3.7422085E-01   0.0000000E+00   4.0472224E-02  -3.7744623E-01   0.0000000E+00   4.2440668E-02  -3.8093692E-01   0.0000000E+00   4.4642888E-02  -4.0540883E-01   0.0000000E+00   4.0594902E-02  -4.0575248E-01   0.0000000E+00   4.0881254E-02  -4.0677577E-01   0.0000000E+00   4.1721106E-02  -4.0845487E-01   0.0000000E+00   4.3057643E-02  -4.1074485E-01   0.0000000E+00   4.4799048E-02  -4.1357097E-01   0.0000000E+00   4.6829972E-02  -4.1681129E-01   0.0000000E+00   4.9040653E-02  -4.2028245E-01   0.0000000E+00   5.1379643E-02  -4.4730425E-01   0.0000000E+00   4.6204615E-02  -4.4765851E-01   0.0000000E+00   4.6544716E-02  -4.4871226E-01   0.0000000E+00   4.7541309E-02  -4.5043704E-01   0.0000000E+00   4.9121317E-02  -4.5278078E-01   0.0000000E+00   5.1160429E-02  -4.5565832E-01   0.0000000E+00   5.3492457E-02  -4.5893431E-01   0.0000000E+00   5.5942550E-02  -4.6240923E-01   0.0000000E+00   5.8394488E-02  -4.9164870E-01   0.0000000E+00   5.2144229E-02  -4.9202234E-01   0.0000000E+00   5.2543879E-02  -4.9313152E-01   0.0000000E+00   5.3712834E-02  -4.9493882E-01   0.0000000E+00   5.5556457E-02  -4.9737954E-01   0.0000000E+00   5.7908662E-02  -5.0035357E-01   0.0000000E+00   6.0542189E-02  -5.0371128E-01   0.0000000E+00   6.3210540E-02  -5.0723916E-01   0.0000000E+00   6.5736808E-02  -5.3811026E-01   0.0000000E+00   5.8685616E-02  -5.3851438E-01   0.0000000E+00   5.9148040E-02  -5.3971058E-01   0.0000000E+00   6.0496584E-02  -5.4164690E-01   0.0000000E+00   6.2607005E-02  -5.4423851E-01   0.0000000E+00   6.5260150E-02  -5.4736412E-01   0.0000000E+00   6.8155490E-02  -5.5085605E-01   0.0000000E+00   7.0969321E-02  -5.5449319E-01   0.0000000E+00   7.3472552E-02  -5.8600634E-01   0.0000000E+00   6.6276774E-02  -5.8645326E-01   0.0000000E+00   6.6800743E-02  -5.8776724E-01   0.0000000E+00   6.8321221E-02  -5.8987629E-01   0.0000000E+00   7.0674203E-02  -5.9266615E-01   0.0000000E+00   7.3572524E-02  -5.9598488E-01   0.0000000E+00   7.6627009E-02  -5.9964502E-01   0.0000000E+00   7.9429090E-02  -6.0342658E-01   0.0000000E+00   8.1710748E-02  -6.3386172E-01   0.0000000E+00   7.5544827E-02  -6.3435835E-01   0.0000000E+00   7.6121889E-02  -6.3581091E-01   0.0000000E+00   7.7784412E-02  -6.3811707E-01   0.0000000E+00   8.0316886E-02  -6.4112180E-01   0.0000000E+00   8.3346888E-02  -6.4463365E-01   0.0000000E+00   8.6378075E-02  -6.4844614E-01   0.0000000E+00   8.8907160E-02  -6.5235418E-01   0.0000000E+00   9.0644024E-02  -6.7882538E-01   0.0000000E+00   8.7267876E-02  -6.7937028E-01   0.0000000E+00   8.7877899E-02  -6.8095636E-01   0.0000000E+00   8.9618959E-02  -6.8344223E-01   0.0000000E+00   9.2214085E-02  -6.8662167E-01   0.0000000E+00   9.5190458E-02  -6.9026214E-01   0.0000000E+00   9.7928092E-02  -6.9413835E-01   0.0000000E+00   9.9821433E-02  -6.9808108E-01   0.0000000E+00   1.0058136E-01  -7.1623743E-01   0.0000000E+00   1.0229924E-01  -7.1681714E-01   0.0000000E+00   1.0290442E-01  -7.1849072E-01   0.0000000E+00   1.0461069E-01  -7.2107744E-01   0.0000000E+00   1.0707802E-01  -7.2431904E-01   0.0000000E+00   1.0973064E-01  -7.2793883E-01   0.0000000E+00   1.1182126E-01  -7.3170793E-01   0.0000000E+00   1.1264881E-01  -7.3551655E-01   0.0000000E+00   1.1196313E-01  -7.3968208E-01   0.0000000E+00   1.2147171E-01  -7.4026161E-01   0.0000000E+00   1.2200743E-01  -7.4192262E-01   0.0000000E+00   1.2349185E-01  -7.4444902E-01   0.0000000E+00   1.2554170E-01  -7.4754077E-01   0.0000000E+00   1.2750292E-01  -7.5089616E-01   0.0000000E+00   1.2853110E-01  -7.5430149E-01   0.0000000E+00   1.2787132E-01  -7.5772238E-01   0.0000000E+00   1.2538125E-01  -7.4158639E-01   0.0000000E+00   1.4560322E-01  -7.4210382E-01   0.0000000E+00   1.4596394E-01  -7.4357444E-01   0.0000000E+00   1.4693044E-01  -7.4576491E-01   0.0000000E+00   1.4813046E-01  -7.4836373E-01   0.0000000E+00   1.4891161E-01  -7.5107336E-01   0.0000000E+00   1.4842744E-01  -7.5372058E-01   0.0000000E+00   1.4597915E-01  -7.5635350E-01   0.0000000E+00   1.4163393E-01  -7.1280372E-01   0.0000000E+00   1.7571242E-01  -7.1318036E-01   0.0000000E+00   1.7573722E-01  -7.1422821E-01   0.0000000E+00   1.7574167E-01  -7.1572012E-01   0.0000000E+00   1.7547315E-01  -7.1736342E-01   0.0000000E+00   1.7444046E-01  -7.1890348E-01   0.0000000E+00   1.7198528E-01  -7.2022676E-01   0.0000000E+00   1.6765687E-01  -7.2145247E-01   0.0000000E+00   1.6181679E-01  -6.3869894E-01   0.0000000E+00   2.1338922E-01  -6.3885707E-01   0.0000000E+00   2.1285695E-01  -6.3925552E-01   0.0000000E+00   2.1129729E-01  -6.3968933E-01   0.0000000E+00   2.0874748E-01  -6.3990510E-01   0.0000000E+00   2.0512076E-01  -6.3970214E-01   0.0000000E+00   2.0022579E-01  -6.3902700E-01   0.0000000E+00   1.9407786E-01  -6.3803339E-01   0.0000000E+00   1.8730615E-01  -4.9541935E-01   0.0000000E+00   2.6088890E-01  -4.9529624E-01   0.0000000E+00   2.5952682E-01  -4.9486202E-01   0.0000000E+00   2.5566527E-01  -4.9394187E-01   0.0000000E+00   2.4985197E-01  -4.9232554E-01   0.0000000E+00   2.4270871E-01  -4.8985493E-01   0.0000000E+00   2.3481175E-01  -4.8649120E-01   0.0000000E+00   2.2677094E-01  -4.8234165E-01   0.0000000E+00   2.1932589E-01  -2.5443336E-01   0.0000000E+00   3.2059082E-01  -2.5399005E-01   0.0000000E+00   3.1808907E-01  -2.5260904E-01   0.0000000E+00   3.1109107E-01  -2.5014758E-01   0.0000000E+00   3.0090153E-01  -2.4642605E-01   0.0000000E+00   2.8916362E-01  -2.4129646E-01   0.0000000E+00   2.7744052E-01  -2.3467758E-01   0.0000000E+00   2.6691508E-01  -2.2649954E-01   0.0000000E+00   2.5821447E-01   1.0388796E-01   0.0000000E+00   3.9369801E-01   1.0465346E-01   0.0000000E+00   3.8973790E-01   1.0698906E-01   0.0000000E+00   3.7874168E-01   1.1101352E-01   0.0000000E+00   3.6300728E-01   1.1689056E-01   0.0000000E+00   3.4544188E-01   1.2478315E-01   0.0000000E+00   3.2868519E-01   1.3485329E-01   0.0000000E+00   3.1434518E-01   1.4739212E-01   0.0000000E+00   3.0270183E-01   5.7182246E-01   0.0000000E+00   4.7830206E-01   5.7286966E-01   0.0000000E+00   4.7262847E-01   5.7604665E-01   0.0000000E+00   4.5693064E-01   5.8145350E-01   0.0000000E+00   4.3463936E-01   5.8923203E-01   0.0000000E+00   4.1002128E-01   5.9953457E-01   0.0000000E+00   3.8674450E-01   6.1255580E-01   0.0000000E+00   3.6665949E-01   6.2869585E-01   0.0000000E+00   3.4952876E-01   1.0988454E+00   0.0000000E+00   5.6795633E-01   1.1001419E+00   0.0000000E+00   5.6046420E-01   1.1040460E+00   0.0000000E+00   5.3974384E-01   1.1106005E+00   0.0000000E+00   5.1033580E-01   1.1198506E+00   0.0000000E+00   4.7779503E-01   1.1318173E+00   0.0000000E+00   4.4666144E-01   1.1465720E+00   0.0000000E+00   4.1887495E-01   1.1643515E+00   0.0000000E+00   3.9366677E-01   1.5922178E+00   0.0000000E+00   6.5284508E-01   1.5937976E+00   0.0000000E+00   6.4356381E-01   1.5985057E+00   0.0000000E+00   6.1786962E-01   1.6062138E+00   0.0000000E+00   5.8130813E-01   1.6166826E+00   0.0000000E+00   5.4055601E-01   1.6295792E+00   0.0000000E+00   5.0084633E-01   1.6445615E+00   0.0000000E+00   4.6416771E-01   1.6613797E+00   0.0000000E+00   4.2943656E-01   1.9456723E+00   0.0000000E+00   7.2254461E-01   1.9475644E+00   0.0000000E+00   7.1162856E-01   1.9531019E+00   0.0000000E+00   6.8136376E-01   1.9618862E+00   0.0000000E+00   6.3814068E-01   1.9732854E+00   0.0000000E+00   5.8958876E-01   1.9865028E+00   0.0000000E+00   5.4158688E-01   2.0006349E+00   0.0000000E+00   4.9634817E-01   2.0146749E+00   0.0000000E+00   4.5285395E-01   2.1120300E+00   0.0000000E+00   7.7064431E-01   2.1140368E+00   0.0000000E+00   7.5837207E-01   2.1198404E+00   0.0000000E+00   7.2430414E-01   2.1288238E+00   0.0000000E+00   6.7550415E-01   2.1400747E+00   0.0000000E+00   6.2040794E-01   2.1524565E+00   0.0000000E+00   5.6556016E-01   2.1646276E+00   0.0000000E+00   5.1363623E-01   2.1748786E+00   0.0000000E+00   4.6405953E-01   2.1259587E+00   0.0000000E+00   7.9651737E-01   2.1278579E+00   0.0000000E+00   7.8327882E-01   2.1333058E+00   0.0000000E+00   7.4650776E-01   2.1416199E+00   0.0000000E+00   6.9377124E-01   2.1518059E+00   0.0000000E+00   6.3415527E-01   2.1626506E+00   0.0000000E+00   5.7484692E-01   2.1726441E+00   0.0000000E+00   5.1909840E-01   2.1796780E+00   0.0000000E+00   4.6692333E-01   2.0513201E+00   0.0000000E+00   8.0329430E-01   2.0529971E+00   0.0000000E+00   7.8954494E-01   2.0578115E+00   0.0000000E+00   7.5137013E-01   2.0651627E+00   0.0000000E+00   6.9666606E-01   2.0742011E+00   0.0000000E+00   6.3497084E-01   2.0838966E+00   0.0000000E+00   5.7399088E-01   2.0928872E+00   0.0000000E+00   5.1747841E-01   2.0990353E+00   0.0000000E+00   4.6591282E-01   1.9369677E+00   0.0000000E+00   7.9560840E-01   1.9384638E+00   0.0000000E+00   7.8180391E-01   1.9427996E+00   0.0000000E+00   7.4352437E-01   1.9495738E+00   0.0000000E+00   6.8881845E-01   1.9582340E+00   0.0000000E+00   6.2744278E-01   1.9681212E+00   0.0000000E+00   5.6738991E-01   1.9782219E+00   0.0000000E+00   5.1268280E-01   1.9866681E+00   0.0000000E+00   4.6397391E-01   1.7978523E+00   0.0000000E+00   7.7769780E-01   1.7993139E+00   0.0000000E+00   7.6423633E-01   1.8036314E+00   0.0000000E+00   7.2698051E-01   1.8106334E+00   0.0000000E+00   6.7395341E-01   1.8201245E+00   0.0000000E+00   6.1489105E-01   1.8318520E+00   0.0000000E+00   5.5777919E-01   1.8452342E+00   0.0000000E+00   5.0660741E-01   1.8587984E+00   0.0000000E+00   4.6189219E-01   1.6211520E+00   0.0000000E+00   7.5245249E-01   1.6227586E+00   0.0000000E+00   7.3964077E-01   1.6275784E+00   0.0000000E+00   7.0426750E-01   1.6356416E+00   0.0000000E+00   6.5417165E-01   1.6470363E+00   0.0000000E+00   5.9883720E-01   1.6618582E+00   0.0000000E+00   5.4596466E-01   1.6799178E+00   0.0000000E+00   4.9923313E-01   1.7001762E+00   0.0000000E+00   4.5878708E-01   1.3877616E+00   0.0000000E+00   7.2149694E-01   1.3896319E+00   0.0000000E+00   7.0954216E-01   1.3952886E+00   0.0000000E+00   6.7662185E-01   1.4048705E+00   0.0000000E+00   6.3025993E-01   1.4186329E+00   0.0000000E+00   5.7948875E-01   1.4368830E+00   0.0000000E+00   5.3151113E-01   1.4597428E+00   0.0000000E+00   4.8951405E-01   1.4866310E+00   0.0000000E+00   4.5315591E-01   1.0960681E+00   0.0000000E+00   6.8587655E-01   1.0981899E+00   0.0000000E+00   6.7490000E-01   1.1046095E+00   0.0000000E+00   6.4476138E-01   1.1154982E+00   0.0000000E+00   6.0256225E-01   1.1311499E+00   0.0000000E+00   5.5673683E-01   1.1519575E+00   0.0000000E+00   5.1384526E-01   1.1782759E+00   0.0000000E+00   4.7650647E-01   1.2100434E+00   0.0000000E+00   4.4390056E-01   7.7418041E-01   0.0000000E+00   6.4669687E-01   7.7639842E-01   0.0000000E+00   6.3677049E-01   7.8309548E-01   0.0000000E+00   6.0958737E-01   7.9440284E-01   0.0000000E+00   5.7173800E-01   8.1056434E-01   0.0000000E+00   5.3094864E-01   8.3197337E-01   0.0000000E+00   4.9305433E-01   8.5917366E-01   0.0000000E+00   4.6009299E-01   8.9267665E-01   0.0000000E+00   4.3085220E-01   4.6738511E-01   0.0000000E+00   6.0527581E-01   4.6951246E-01   0.0000000E+00   5.9644347E-01   4.7590929E-01   0.0000000E+00   5.7231444E-01   4.8662847E-01   0.0000000E+00   5.3887385E-01   5.0180584E-01   0.0000000E+00   5.0305039E-01   5.2177244E-01   0.0000000E+00   4.6989697E-01   5.4720300E-01   0.0000000E+00   4.4089395E-01   5.7915318E-01   0.0000000E+00   4.1455656E-01   2.1292359E-01   0.0000000E+00   5.6310505E-01   2.1484131E-01   0.0000000E+00   5.5539250E-01   2.2057861E-01   0.0000000E+00   5.3435600E-01   2.3010036E-01   0.0000000E+00   5.0527841E-01   2.4342293E-01   0.0000000E+00   4.7420514E-01   2.6078215E-01   0.0000000E+00   4.4537544E-01   2.8290689E-01   0.0000000E+00   4.1974917E-01   3.1125036E-01   0.0000000E+00   3.9569908E-01   2.6018091E-02   0.0000000E+00   5.2167177E-01   2.7704960E-02   0.0000000E+00   5.1507568E-01   3.2727223E-02   0.0000000E+00   4.9708155E-01   4.0992577E-02   0.0000000E+00   4.7218212E-01   5.2435536E-02   0.0000000E+00   4.4545943E-01   6.7203090E-02   0.0000000E+00   4.2033359E-01   8.5989766E-02   0.0000000E+00   3.9730886E-01   1.1042919E-01   0.0000000E+00   3.7474805E-01  -9.8252706E-02   0.0000000E+00   4.8210147E-01  -9.6747987E-02   0.0000000E+00   4.7657385E-01  -9.2274770E-02   0.0000000E+00   4.6145019E-01  -8.4929012E-02   0.0000000E+00   4.4036904E-01  -7.4783072E-02   0.0000000E+00   4.1739488E-01  -6.1729975E-02   0.0000000E+00   3.9516038E-01  -4.5175247E-02   0.0000000E+00   3.7381971E-01  -2.3548055E-02   0.0000000E+00   3.5186201E-01  -1.7563964E-01   0.0000000E+00   4.4495162E-01  -1.7423739E-01   0.0000000E+00   4.4039229E-01  -1.7005186E-01   0.0000000E+00   4.2782721E-01  -1.6312312E-01   0.0000000E+00   4.1001889E-01  -1.5344481E-01   0.0000000E+00   3.9002323E-01  -1.4087075E-01   0.0000000E+00   3.6975476E-01  -1.2492346E-01   0.0000000E+00   3.4916273E-01  -1.0431171E-01   0.0000000E+00   3.2701463E-01  -2.2307745E-01   0.0000000E+00   4.1023150E-01  -2.2169608E-01   0.0000000E+00   4.0648985E-01  -2.1753632E-01   0.0000000E+00   3.9603943E-01  -2.1053228E-01   0.0000000E+00   3.8080245E-01  -2.0053148E-01   0.0000000E+00   3.6290479E-01  -1.8727943E-01   0.0000000E+00   3.4366536E-01  -1.7038593E-01   0.0000000E+00   3.2301620E-01  -1.4898461E-01   0.0000000E+00   3.0017340E-01  -2.5252479E-01   0.0000000E+00   3.7753743E-01  -2.5109378E-01   0.0000000E+00   3.7441438E-01  -2.4673527E-01   0.0000000E+00   3.6552131E-01  -2.3924646E-01   0.0000000E+00   3.5205331E-01  -2.2830044E-01   0.0000000E+00   3.3537066E-01  -2.1352422E-01   0.0000000E+00   3.1637979E-01  -1.9460151E-01   0.0000000E+00   2.9518795E-01  -1.7116536E-01   0.0000000E+00   2.7164850E-01  -2.6954389E-01   0.0000000E+00   3.4615883E-01  -2.6799890E-01   0.0000000E+00   3.4343123E-01  -2.6324287E-01   0.0000000E+00   3.3550018E-01  -2.5492778E-01   0.0000000E+00   3.2302535E-01  -2.4256320E-01   0.0000000E+00   3.0685511E-01  -2.2571149E-01   0.0000000E+00   2.8771293E-01  -2.0420650E-01   0.0000000E+00   2.6604125E-01  -1.7853536E-01   0.0000000E+00   2.4255483E-01  -2.7535674E-01   0.0000000E+00   3.1519723E-01  -2.7362472E-01   0.0000000E+00   3.1267869E-01  -2.6824966E-01   0.0000000E+00   3.0523774E-01  -2.5875157E-01   0.0000000E+00   2.9324201E-01  -2.4454662E-01   0.0000000E+00   2.7730379E-01  -2.2526470E-01   0.0000000E+00   2.5817722E-01  -2.0119897E-01   0.0000000E+00   2.3677544E-01  -1.7476712E-01   0.0000000E+00   2.1494891E-01  -2.6965421E-01   0.0000000E+00   2.8387511E-01  -2.6763108E-01   0.0000000E+00   2.8148335E-01  -2.6134646E-01   0.0000000E+00   2.7436867E-01  -2.5027740E-01   0.0000000E+00   2.6279941E-01  -2.3391141E-01   0.0000000E+00   2.4737757E-01  -2.1230125E-01   0.0000000E+00   2.2908333E-01  -1.8730149E-01   0.0000000E+00   2.0953695E-01  -1.6338086E-01   0.0000000E+00   1.9126548E-01  -2.5214589E-01   0.0000000E+00   2.5200737E-01  -2.4972710E-01   0.0000000E+00   2.4978237E-01  -2.4228945E-01   0.0000000E+00   2.4316274E-01  -2.2947566E-01   0.0000000E+00   2.3244900E-01  -2.1137290E-01   0.0000000E+00   2.1843995E-01  -1.8947437E-01   0.0000000E+00   2.0255178E-01  -1.6728202E-01   0.0000000E+00   1.8678565E-01  -1.4980939E-01   0.0000000E+00   1.7319775E-01  -2.2364463E-01   0.0000000E+00   2.2024342E-01  -2.2083460E-01   0.0000000E+00   2.1830751E-01  -2.1248771E-01   0.0000000E+00   2.1261545E-01  -1.9901833E-01   0.0000000E+00   2.0365824E-01  -1.8183403E-01   0.0000000E+00   1.9253962E-01  -1.6361347E-01   0.0000000E+00   1.8074532E-01  -1.4841489E-01   0.0000000E+00   1.6980268E-01  -1.4018142E-01   0.0000000E+00   1.6076821E-01  -1.8813758E-01   0.0000000E+00   1.8998389E-01  -1.8537723E-01   0.0000000E+00   1.8855278E-01  -1.7758383E-01   0.0000000E+00   1.8445884E-01  -1.6618526E-01   0.0000000E+00   1.7837568E-01  -1.5364324E-01   0.0000000E+00   1.7132878E-01  -1.4307940E-01   0.0000000E+00   1.6427453E-01  -1.3774519E-01   0.0000000E+00   1.5790418E-01  -1.3904507E-01   0.0000000E+00   1.5229492E-01  -1.5334766E-01   0.0000000E+00   1.6322613E-01  -1.5135558E-01   0.0000000E+00   1.6249323E-01  -1.4606068E-01   0.0000000E+00   1.6048329E-01  -1.3960811E-01   0.0000000E+00   1.5773261E-01  -1.3485806E-01   0.0000000E+00   1.5474084E-01  -1.3446282E-01   0.0000000E+00   1.5180312E-01  -1.3901043E-01   0.0000000E+00   1.4908509E-01  -1.4382319E-01   0.0000000E+00   1.4697018E-01  -1.2748778E-01   0.0000000E+00   1.4170282E-01  -1.2675247E-01   0.0000000E+00   1.4163867E-01  -1.2547484E-01   0.0000000E+00   1.4152299E-01  -1.2580478E-01   0.0000000E+00   1.4143999E-01  -1.3025528E-01   0.0000000E+00   1.4149357E-01  -1.3831113E-01   0.0000000E+00   1.4215460E-01  -1.4227335E-01   0.0000000E+00   1.4451803E-01  -1.2991108E-01   0.0000000E+00   1.4867456E-01  -1.1607661E-01   0.0000000E+00   1.2594612E-01  -1.1655165E-01   0.0000000E+00   1.2633315E-01  -1.1897944E-01   0.0000000E+00   1.2734039E-01  -1.2465037E-01   0.0000000E+00   1.2919292E-01  -1.3105498E-01   0.0000000E+00   1.3306785E-01  -1.3014212E-01   0.0000000E+00   1.3971341E-01  -1.1494005E-01   0.0000000E+00   1.4668259E-01  -8.5538186E-02   0.0000000E+00   1.4906876E-01  -1.1538678E-01   0.0000000E+00   1.1509834E-01  -1.1380496E-01   0.0000000E+00   1.1601210E-01  -1.1203110E-01   0.0000000E+00   1.1886165E-01  -1.1001913E-01   0.0000000E+00   1.2435771E-01  -1.0778613E-01   0.0000000E+00   1.3133685E-01  -9.6280791E-02   0.0000000E+00   1.3750090E-01  -8.1095204E-02   0.0000000E+00   1.3707291E-01  -5.4222148E-02   0.0000000E+00   1.3460106E-01  -1.2623324E-01   0.0000000E+00   1.0744918E-01  -1.2168776E-01   0.0000000E+00   1.0868790E-01  -1.1318891E-01   0.0000000E+00   1.1226287E-01  -1.0518630E-01   0.0000000E+00   1.1690456E-01  -1.0026322E-01   0.0000000E+00   1.1991876E-01  -8.6953133E-02   0.0000000E+00   1.2137739E-01  -8.2857959E-02   0.0000000E+00   1.1542924E-01  -1.6304113E-01   0.0000000E+00   1.0159919E-01  -1.5842164E-01   0.0000000E+00   1.0189413E-01  -1.4561428E-01   0.0000000E+00   1.0280110E-01  -1.3333699E-01   0.0000000E+00   1.0335696E-01  -1.2793066E-01   0.0000000E+00   1.0325355E-01  -4.9487650E-02   0.0000000E+00   1.8384389E-03  -4.8050590E-02   0.0000000E+00   1.8862548E-03  -4.5813940E-02   0.0000000E+00   1.6976610E-03  -4.2551361E-02   0.0000000E+00   1.1693352E-03  -3.8090605E-02   0.0000000E+00   2.7054222E-04  -3.2422382E-02   0.0000000E+00  -8.9750922E-04  -2.5820591E-02   0.0000000E+00  -2.0566983E-03  -5.8398876E-02   0.0000000E+00   2.4089213E-03  -5.6875624E-02   0.0000000E+00   2.4747271E-03  -5.4427475E-02   0.0000000E+00   2.2406634E-03  -5.0768733E-02   0.0000000E+00   1.5736131E-03  -4.5670807E-02   0.0000000E+00   4.2911479E-04  -3.9098524E-02   0.0000000E+00  -1.0757715E-03  -3.1359322E-02   0.0000000E+00  -2.6059640E-03  -2.3173170E-02   0.0000000E+00  -3.6340286E-03  -6.5876432E-02   0.0000000E+00   2.8715665E-03  -6.4398058E-02   0.0000000E+00   2.9569825E-03  -6.1901845E-02   0.0000000E+00   2.6986147E-03  -5.8035500E-02   0.0000000E+00   1.9355853E-03  -5.2496035E-02   0.0000000E+00   6.0563127E-04  -4.5193523E-02   0.0000000E+00  -1.1696132E-03  -3.6435060E-02   0.0000000E+00  -3.0201776E-03  -2.7043547E-02   0.0000000E+00  -4.3621371E-03  -7.2965935E-02   0.0000000E+00   3.1803953E-03  -7.1629718E-02   0.0000000E+00   3.2871319E-03  -6.9201291E-02   0.0000000E+00   3.0324105E-03  -6.5252125E-02   0.0000000E+00   2.2289660E-03  -5.9384845E-02   0.0000000E+00   7.8991253E-04  -5.1428784E-02   0.0000000E+00  -1.1732082E-03  -4.1678198E-02   0.0000000E+00  -3.2738838E-03  -3.1067278E-02   0.0000000E+00  -4.8719374E-03  -8.0656447E-02   0.0000000E+00   3.3404704E-03  -7.9530314E-02   0.0000000E+00   3.4668376E-03  -7.7246040E-02   0.0000000E+00   3.2395055E-03  -7.3288411E-02   0.0000000E+00   2.4466650E-03  -6.7150183E-02   0.0000000E+00   9.7144698E-04  -5.8585942E-02   0.0000000E+00  -1.0980624E-03  -4.7864892E-02   0.0000000E+00  -3.3765878E-03  -3.5988454E-02   0.0000000E+00  -5.1756371E-03  -8.9662619E-02   0.0000000E+00   3.3997344E-03  -8.8800013E-02   0.0000000E+00   3.5347990E-03  -8.6719498E-02   0.0000000E+00   3.3433666E-03  -8.2829103E-02   0.0000000E+00   2.5956247E-03  -7.6579951E-02   0.0000000E+00   1.1422316E-03  -6.7661561E-02   0.0000000E+00  -9.6985442E-04  -5.6222182E-02   0.0000000E+00  -3.3778730E-03  -4.3165453E-02   0.0000000E+00  -5.3414055E-03  -1.0034555E-01   0.0000000E+00   3.4382185E-03  -9.9800222E-02   0.0000000E+00   3.5620194E-03  -9.8012231E-02   0.0000000E+00   3.4027016E-03  -9.4424434E-02   0.0000000E+00   2.7220841E-03  -8.8537700E-02   0.0000000E+00   1.3233920E-03  -7.9958074E-02   0.0000000E+00  -8.1235194E-04  -6.8553321E-02   0.0000000E+00  -3.3549257E-03  -5.4669987E-02   0.0000000E+00  -5.4683709E-03  -1.1277968E-01   0.0000000E+00   3.5672749E-03  -1.1261640E-01   0.0000000E+00   3.6674880E-03  -1.1131672E-01   0.0000000E+00   3.5470964E-03  -1.0849686E-01   0.0000000E+00   2.9471091E-03  -1.0381825E-01   0.0000000E+00   1.5899009E-03  -9.6843526E-02   0.0000000E+00  -6.3029910E-04  -8.6954802E-02   0.0000000E+00  -3.4011698E-03  -7.3217042E-02   0.0000000E+00  -5.6576543E-03  -1.2694332E-01   0.0000000E+00   3.9452058E-03  -1.2726137E-01   0.0000000E+00   4.0431814E-03  -1.2672390E-01   0.0000000E+00   3.9983098E-03  -1.2525140E-01   0.0000000E+00   3.4875623E-03  -1.2281668E-01   0.0000000E+00   2.1003797E-03  -1.1910412E-01   0.0000000E+00  -3.7504407E-04  -1.1297767E-01   0.0000000E+00  -3.6037404E-03  -1.0146988E-01   0.0000000E+00  -6.0510300E-03  -1.4292531E-01   0.0000000E+00   4.7866753E-03  -1.4383367E-01   0.0000000E+00   4.9564843E-03  -1.4429466E-01   0.0000000E+00   5.0636972E-03  -1.4459759E-01   0.0000000E+00   4.6656020E-03  -1.4515974E-01   0.0000000E+00   3.1422647E-03  -1.4604416E-01   0.0000000E+00   9.4798161E-05  -1.4593010E-01   0.0000000E+00  -4.0925667E-03  -1.3984029E-01   0.0000000E+00  -7.3061706E-03  -1.6086623E-01   0.0000000E+00   6.3382210E-03  -1.6243415E-01   0.0000000E+00   6.7097661E-03  -1.6396888E-01   0.0000000E+00   7.1001374E-03  -1.6607092E-01   0.0000000E+00   6.8955799E-03  -1.6957182E-01   0.0000000E+00   5.1359343E-03  -1.7502522E-01   0.0000000E+00   1.0045404E-03  -1.8138698E-01   0.0000000E+00  -5.1538823E-03  -1.8282390E-01   0.0000000E+00  -1.0813581E-02  -1.8087287E-01   0.0000000E+00   8.8155046E-03  -1.8310007E-01   0.0000000E+00   9.5557487E-03  -1.8558460E-01   0.0000000E+00   1.0412296E-02  -1.8905726E-01   0.0000000E+00   1.0570196E-02  -1.9451413E-01   0.0000000E+00   8.6287018E-03  -2.0272672E-01   0.0000000E+00   3.1259784E-03  -2.1287453E-01   0.0000000E+00  -5.5619762E-03  -2.1806574E-01   0.0000000E+00  -1.2149462E-02  -2.0302390E-01   0.0000000E+00   1.2329686E-02  -2.0584477E-01   0.0000000E+00   1.3593704E-02  -2.0902795E-01   0.0000000E+00   1.5105134E-02  -2.1321937E-01   0.0000000E+00   1.5916483E-02  -2.1928403E-01   0.0000000E+00   1.4380120E-02  -2.2783385E-01   0.0000000E+00   9.3290806E-03  -2.3794265E-01   0.0000000E+00   4.1006180E-03  -2.4293701E-01   0.0000000E+00   8.5416641E-03  -2.2737461E-01   0.0000000E+00   1.6840592E-02  -2.3067528E-01   0.0000000E+00   1.8706409E-02  -2.3428875E-01   0.0000000E+00   2.0974357E-02  -2.3863350E-01   0.0000000E+00   2.2748381E-02  -2.4428318E-01   0.0000000E+00   2.2595610E-02  -2.5160274E-01   0.0000000E+00   2.0640945E-02  -2.5980592E-01   0.0000000E+00   2.2908416E-02  -2.6434377E-01   0.0000000E+00   3.4389973E-02  -2.5396815E-01   0.0000000E+00   2.2166651E-02  -2.5759649E-01   0.0000000E+00   2.4590433E-02  -2.6141018E-01   0.0000000E+00   2.7532615E-02  -2.6556635E-01   0.0000000E+00   3.0314667E-02  -2.7033928E-01   0.0000000E+00   3.1983882E-02  -2.7591082E-01   0.0000000E+00   3.3480227E-02  -2.8183964E-01   0.0000000E+00   4.0026747E-02  -2.8574756E-01   0.0000000E+00   5.1094223E-02  -2.8286546E-01   0.0000000E+00   2.8052619E-02  -2.8663573E-01   0.0000000E+00   3.0884087E-02  -2.9044726E-01   0.0000000E+00   3.4258846E-02  -2.9424554E-01   0.0000000E+00   3.7698384E-02  -2.9807833E-01   0.0000000E+00   4.0721104E-02  -3.0199945E-01   0.0000000E+00   4.4289671E-02  -3.0584565E-01   0.0000000E+00   5.1515006E-02  -3.0866975E-01   0.0000000E+00   5.9867829E-02  -3.1416291E-01   0.0000000E+00   3.4263719E-02  -3.1788865E-01   0.0000000E+00   3.7304301E-02  -3.2150313E-01   0.0000000E+00   4.0816832E-02  -3.2483685E-01   0.0000000E+00   4.4435620E-02  -3.2780987E-01   0.0000000E+00   4.7899902E-02  -3.3041975E-01   0.0000000E+00   5.1850297E-02  -3.3264348E-01   0.0000000E+00   5.7999756E-02  -3.3424538E-01   0.0000000E+00   6.3952804E-02  -3.4798858E-01   0.0000000E+00   4.0655080E-02  -3.5153934E-01   0.0000000E+00   4.3713499E-02  -3.5479724E-01   0.0000000E+00   4.7126848E-02  -3.5756814E-01   0.0000000E+00   5.0565694E-02  -3.5974175E-01   0.0000000E+00   5.3780898E-02  -3.6131886E-01   0.0000000E+00   5.7062529E-02  -3.6237246E-01   0.0000000E+00   6.1817158E-02  -3.6297846E-01   0.0000000E+00   6.6215470E-02  -3.8447562E-01   0.0000000E+00   4.7188349E-02  -3.8779876E-01   0.0000000E+00   5.0126366E-02  -3.9064321E-01   0.0000000E+00   5.3287584E-02  -3.9281055E-01   0.0000000E+00   5.6380913E-02  -3.9422044E-01   0.0000000E+00   5.9068356E-02  -3.9491895E-01   0.0000000E+00   6.1354481E-02  -3.9505216E-01   0.0000000E+00   6.4977929E-02  -3.9483759E-01   0.0000000E+00   6.8589263E-02  -4.2373091E-01   0.0000000E+00   5.3902555E-02  -4.2684346E-01   0.0000000E+00   5.6649197E-02  -4.2931956E-01   0.0000000E+00   5.9497919E-02  -4.3096116E-01   0.0000000E+00   6.2199160E-02  -4.3172300E-01   0.0000000E+00   6.4350359E-02  -4.3170306E-01   0.0000000E+00   6.5708295E-02  -4.3110114E-01   0.0000000E+00   6.8468705E-02  -4.3018597E-01   0.0000000E+00   7.1919799E-02  -4.6580482E-01   0.0000000E+00   6.0862042E-02  -4.6877766E-01   0.0000000E+00   6.3395858E-02  -4.7100389E-01   0.0000000E+00   6.5937802E-02  -4.7228977E-01   0.0000000E+00   6.8293244E-02  -4.7262189E-01   0.0000000E+00   7.0000902E-02  -4.7213605E-01   0.0000000E+00   7.0604935E-02  -4.7106797E-01   0.0000000E+00   7.2676592E-02  -4.6971217E-01   0.0000000E+00   7.6265223E-02  -5.1064861E-01   0.0000000E+00   6.8111643E-02  -5.1358706E-01   0.0000000E+00   7.0422709E-02  -5.1573265E-01   0.0000000E+00   7.2691865E-02  -5.1690388E-01   0.0000000E+00   7.4790560E-02  -5.1710594E-01   0.0000000E+00   7.6212958E-02  -5.1649004E-01   0.0000000E+00   7.6303884E-02  -5.1530218E-01   0.0000000E+00   7.7749230E-02  -5.1384091E-01   0.0000000E+00   8.1487432E-02  -5.5799264E-01   0.0000000E+00   7.5662531E-02  -5.6102532E-01   0.0000000E+00   7.7701963E-02  -5.6330180E-01   0.0000000E+00   7.9713754E-02  -5.6466532E-01   0.0000000E+00   8.1636563E-02  -5.6512547E-01   0.0000000E+00   8.2934089E-02  -5.6481618E-01   0.0000000E+00   8.2807451E-02  -5.6395674E-01   0.0000000E+00   8.3758444E-02  -5.6282759E-01   0.0000000E+00   8.7486766E-02  -6.0707706E-01   0.0000000E+00   8.3518974E-02  -6.1033392E-01   0.0000000E+00   8.5149325E-02  -6.1298323E-01   0.0000000E+00   8.6855151E-02  -6.1490923E-01   0.0000000E+00   8.8624135E-02  -6.1610830E-01   0.0000000E+00   8.9867733E-02  -6.1666161E-01   0.0000000E+00   8.9810103E-02  -6.1671984E-01   0.0000000E+00   9.0615585E-02  -6.1650759E-01   0.0000000E+00   9.4222493E-02  -6.5617168E-01   0.0000000E+00   9.1742508E-02  -6.5975809E-01   0.0000000E+00   9.2711084E-02  -6.6302490E-01   0.0000000E+00   9.3969733E-02  -6.6591436E-01   0.0000000E+00   9.5504031E-02  -6.6839492E-01   0.0000000E+00   9.6565671E-02  -6.7046070E-01   0.0000000E+00   9.6670896E-02  -6.7214864E-01   0.0000000E+00   9.7930379E-02  -6.7357290E-01   0.0000000E+00   1.0144854E-01  -7.0201439E-01   0.0000000E+00   1.0053713E-01  -7.0597994E-01   0.0000000E+00   1.0050179E-01  -7.1005672E-01   0.0000000E+00   1.0109988E-01  -7.1425945E-01   0.0000000E+00   1.0221620E-01  -7.1851802E-01   0.0000000E+00   1.0270619E-01  -7.2272074E-01   0.0000000E+00   1.0257465E-01  -7.2675020E-01   0.0000000E+00   1.0494286E-01  -7.3053581E-01   0.0000000E+00   1.0851848E-01  -7.3943388E-01   0.0000000E+00   1.1034382E-01  -7.4372417E-01   0.0000000E+00   1.0899181E-01  -7.4865377E-01   0.0000000E+00   1.0874708E-01  -7.5430995E-01   0.0000000E+00   1.0925654E-01  -7.6059341E-01   0.0000000E+00   1.0850980E-01  -7.6729709E-01   0.0000000E+00   1.0698675E-01  -7.7412826E-01   0.0000000E+00   1.1071540E-01  -7.8075188E-01   0.0000000E+00   1.1438538E-01  -7.6138353E-01   0.0000000E+00   1.2195877E-01  -7.6576602E-01   0.0000000E+00   1.1921144E-01  -7.7130085E-01   0.0000000E+00   1.1814176E-01  -7.7813941E-01   0.0000000E+00   1.1793908E-01  -7.8617555E-01   0.0000000E+00   1.1511479E-01  -7.9514921E-01   0.0000000E+00   1.1005422E-01  -8.0461580E-01   0.0000000E+00   1.1446506E-01  -8.1394333E-01   0.0000000E+00   1.1778322E-01  -7.5932759E-01   0.0000000E+00   1.3661109E-01  -7.6328117E-01   0.0000000E+00   1.3280076E-01  -7.6874268E-01   0.0000000E+00   1.3120212E-01  -7.7587366E-01   0.0000000E+00   1.3036343E-01  -7.8452885E-01   0.0000000E+00   1.2468644E-01  -7.9446942E-01   0.0000000E+00   1.1330519E-01  -8.0524629E-01   0.0000000E+00   1.1620452E-01  -8.1604379E-01   0.0000000E+00   1.1798292E-01  -7.2301477E-01   0.0000000E+00   1.5586610E-01  -7.2559762E-01   0.0000000E+00   1.5166423E-01  -7.2962064E-01   0.0000000E+00   1.4991881E-01  -7.3502636E-01   0.0000000E+00   1.4833969E-01  -7.4164289E-01   0.0000000E+00   1.3938698E-01  -7.4950397E-01   0.0000000E+00   1.1990288E-01  -7.5851518E-01   0.0000000E+00   1.1760046E-01  -7.6799607E-01   0.0000000E+00   1.1580804E-01  -6.3712239E-01   0.0000000E+00   1.8119693E-01  -6.3672858E-01   0.0000000E+00   1.7714308E-01  -6.3676894E-01   0.0000000E+00   1.7517976E-01  -6.3689584E-01   0.0000000E+00   1.7210816E-01  -6.3722205E-01   0.0000000E+00   1.5914483E-01  -6.3843328E-01   0.0000000E+00   1.3485163E-01  -6.4109111E-01   0.0000000E+00   1.2298593E-01  -6.4495617E-01   0.0000000E+00   1.1402711E-01  -4.7753957E-01   0.0000000E+00   2.1329288E-01  -4.7187853E-01   0.0000000E+00   2.0915645E-01  -4.6460041E-01   0.0000000E+00   2.0592852E-01  -4.5533755E-01   0.0000000E+00   1.9965343E-01  -4.4487840E-01   0.0000000E+00   1.8114665E-01  -4.3477938E-01   0.0000000E+00   1.5444259E-01  -4.2632374E-01   0.0000000E+00   1.4442386E-01  -4.1975331E-01   0.0000000E+00   1.2430725E-01  -2.1641906E-01   0.0000000E+00   2.5137764E-01  -2.0342553E-01   0.0000000E+00   2.4567012E-01  -1.8629974E-01   0.0000000E+00   2.3886999E-01  -1.6498713E-01   0.0000000E+00   2.2652666E-01  -1.4104193E-01   0.0000000E+00   2.0532581E-01  -1.1677685E-01   0.0000000E+00   1.8684442E-01  -9.4008207E-02   0.0000000E+00   1.8590173E-01  -7.3370911E-02   0.0000000E+00   1.5177085E-01   1.6320406E-01   0.0000000E+00   2.9284483E-01   1.8386520E-01   0.0000000E+00   2.8275707E-01   2.1065208E-01   0.0000000E+00   2.6934004E-01   2.4321178E-01   0.0000000E+00   2.5056124E-01   2.7958456E-01   0.0000000E+00   2.3507972E-01   3.1720454E-01   0.0000000E+00   2.2924188E-01   3.5411629E-01   0.0000000E+00   2.4200618E-01   3.8909486E-01   0.0000000E+00   1.8255593E-01   6.4890444E-01   0.0000000E+00   3.3349109E-01   6.7474598E-01   0.0000000E+00   3.1563914E-01   7.0713699E-01   0.0000000E+00   2.9328761E-01   7.4555683E-01   0.0000000E+00   2.6950002E-01   7.8835475E-01   0.0000000E+00   2.6245162E-01   8.3342510E-01   0.0000000E+00   2.5567785E-01   8.7904447E-01   0.0000000E+00   2.7399814E-01   9.2273843E-01   0.0000000E+00   1.6270110E-01   1.1857520E+00   0.0000000E+00   3.6845043E-01   1.2116452E+00   0.0000000E+00   3.4038788E-01   1.2422276E+00   0.0000000E+00   3.0972743E-01   1.2770249E+00   0.0000000E+00   2.8609690E-01   1.3153592E+00   0.0000000E+00   2.8232354E-01   1.3561919E+00   0.0000000E+00   2.5387424E-01   1.3980222E+00   0.0000000E+00   2.6903769E-01   1.4367518E+00   0.0000000E+00   1.4541458E-01   1.6798780E+00   0.0000000E+00   3.9379618E-01   1.6996913E+00   0.0000000E+00   3.5578251E-01   1.7199044E+00   0.0000000E+00   3.2053703E-01   1.7398858E+00   0.0000000E+00   2.9747081E-01   1.7599517E+00   0.0000000E+00   2.8589740E-01   1.7803866E+00   0.0000000E+00   2.4521619E-01   1.7998716E+00   0.0000000E+00   2.3730929E-01   1.8152864E+00   0.0000000E+00   9.9808738E-02   2.0273323E+00   0.0000000E+00   4.0840566E-01   2.0367272E+00   0.0000000E+00   3.6172113E-01   2.0407085E+00   0.0000000E+00   3.1728131E-01   2.0382648E+00   0.0000000E+00   2.8208759E-01   2.0301356E+00   0.0000000E+00   2.5236303E-01   2.0181289E+00   0.0000000E+00   2.0339134E-01   2.0040438E+00   0.0000000E+00   2.3315628E-01   1.9896539E+00   0.0000000E+00   4.2863213E-02   2.1807828E+00   0.0000000E+00   4.1459078E-01   2.1790688E+00   0.0000000E+00   3.6393920E-01   2.1666915E+00   0.0000000E+00   3.1472525E-01   2.1424956E+00   0.0000000E+00   2.7145559E-01   2.1080143E+00   0.0000000E+00   2.2939505E-01   2.0669558E+00   0.0000000E+00   1.7918727E-01   2.0240674E+00   0.0000000E+00   2.5927487E-01   1.9848146E+00   0.0000000E+00   1.5613807E-02   2.1805720E+00   0.0000000E+00   4.1658136E-01   2.1710942E+00   0.0000000E+00   3.6662358E-01   2.1476669E+00   0.0000000E+00   3.1790629E-01   2.1092317E+00   0.0000000E+00   2.7269343E-01   2.0580397E+00   0.0000000E+00   2.2756408E-01   1.9990438E+00   0.0000000E+00   1.8796360E-01   1.9385440E+00   0.0000000E+00   2.8718072E-01   1.8835210E+00   0.0000000E+00   1.1597631E-02   2.0988717E+00   0.0000000E+00   4.1786450E-01   2.0876317E+00   0.0000000E+00   3.7153327E-01   2.0612814E+00   0.0000000E+00   3.2641259E-01   2.0186744E+00   0.0000000E+00   2.8416494E-01   1.9623282E+00   0.0000000E+00   2.4246879E-01   1.8976277E+00   0.0000000E+00   2.1334493E-01   1.8311981E+00   0.0000000E+00   3.0738527E-01   1.7699344E+00   0.0000000E+00   1.6007014E-02   1.9900593E+00   0.0000000E+00   4.1985175E-01   1.9834043E+00   0.0000000E+00   3.7807417E-01   1.9621285E+00   0.0000000E+00   3.3730361E-01   1.9245546E+00   0.0000000E+00   3.0028114E-01   1.8729059E+00   0.0000000E+00   2.6585358E-01   1.8124137E+00   0.0000000E+00   2.3875709E-01   1.7494135E+00   0.0000000E+00   3.1623966E-01   1.6900862E+00   0.0000000E+00   2.1613162E-02   1.8694414E+00   0.0000000E+00   4.2196631E-01   1.8721915E+00   0.0000000E+00   3.8419977E-01   1.8619273E+00   0.0000000E+00   3.4693071E-01   1.8360817E+00   0.0000000E+00   3.1390753E-01   1.7960719E+00   0.0000000E+00   2.8412068E-01   1.7465488E+00   0.0000000E+00   2.5170255E-01   1.6933552E+00   0.0000000E+00   3.1024745E-01   1.6420107E+00   0.0000000E+00   2.1031449E-02   1.7199689E+00   0.0000000E+00   4.2256734E-01   1.7346117E+00   0.0000000E+00   3.8770381E-01   1.7386744E+00   0.0000000E+00   3.5263568E-01   1.7286251E+00   0.0000000E+00   3.2177114E-01   1.7046744E+00   0.0000000E+00   2.9351145E-01   1.6704510E+00   0.0000000E+00   2.5441387E-01   1.6310961E+00   0.0000000E+00   2.9721493E-01   1.5916204E+00   0.0000000E+00   1.9397290E-02   1.5155189E+00   0.0000000E+00   4.1999981E-01   1.5423836E+00   0.0000000E+00   3.8712916E-01   1.5619229E+00   0.0000000E+00   3.5335490E-01   1.5698333E+00   0.0000000E+00   3.2347938E-01   1.5648723E+00   0.0000000E+00   2.9517272E-01   1.5490808E+00   0.0000000E+00   2.5208366E-01   1.5264426E+00   0.0000000E+00   2.8259146E-01   1.5013958E+00   0.0000000E+00   2.3790047E-02   1.2461410E+00   0.0000000E+00   4.1332862E-01   1.2837284E+00   0.0000000E+00   3.8200954E-01   1.3183165E+00   0.0000000E+00   3.4921017E-01   1.3452005E+00   0.0000000E+00   3.1936648E-01   1.3614517E+00   0.0000000E+00   2.9126537E-01   1.3668554E+00   0.0000000E+00   2.4989563E-01   1.3636367E+00   0.0000000E+00   2.7111471E-01   1.3554081E+00   0.0000000E+00   4.1745573E-02   9.3249416E-01   0.0000000E+00   4.0253755E-01   9.7749239E-01   0.0000000E+00   3.7263268E-01   1.0247822E+00   0.0000000E+00   3.4078684E-01   1.0699917E+00   0.0000000E+00   3.1008035E-01   1.1084641E+00   0.0000000E+00   2.8186250E-01   1.1370183E+00   0.0000000E+00   2.4596469E-01   1.1555252E+00   0.0000000E+00   2.6666209E-01   1.1662900E+00   0.0000000E+00   7.1160555E-02   6.1882561E-01   0.0000000E+00   3.8817307E-01   6.6699636E-01   0.0000000E+00   3.5961556E-01   7.2275478E-01   0.0000000E+00   3.2901049E-01   7.8261566E-01   0.0000000E+00   2.9874179E-01   8.4112132E-01   0.0000000E+00   2.6751789E-01   8.9245778E-01   0.0000000E+00   2.3774362E-01   9.3337113E-01   0.0000000E+00   2.6514092E-01   9.6417123E-01   0.0000000E+00   1.0592510E-01   3.4802881E-01   0.0000000E+00   3.7075618E-01   3.9572540E-01   0.0000000E+00   3.4330595E-01   4.5530659E-01   0.0000000E+00   3.1404632E-01   5.2449369E-01   0.0000000E+00   2.8665143E-01   5.9789038E-01   0.0000000E+00   2.5608689E-01   6.6848606E-01   0.0000000E+00   2.2665183E-01   7.2993898E-01   0.0000000E+00   2.6509812E-01   7.7973896E-01   0.0000000E+00   1.3991891E-01   1.4338240E-01   0.0000000E+00   3.5055381E-01   1.8856241E-01   0.0000000E+00   3.2375586E-01   2.4830201E-01   0.0000000E+00   2.9564607E-01   3.2143176E-01   0.0000000E+00   2.7072108E-01   4.0347427E-01   0.0000000E+00   2.4576443E-01   4.8744613E-01   0.0000000E+00   2.1471803E-01   5.6442267E-01   0.0000000E+00   2.6058558E-01   6.2912941E-01   0.0000000E+00   1.5816882E-01   6.2094098E-03   0.0000000E+00   3.2768050E-01   4.8331868E-02   0.0000000E+00   3.0107778E-01   1.0558352E-01   0.0000000E+00   2.7430272E-01   1.7773077E-01   0.0000000E+00   2.5149179E-01   2.6197508E-01   0.0000000E+00   2.3027766E-01   3.5278770E-01   0.0000000E+00   1.9877177E-01   4.3880060E-01   0.0000000E+00   2.4705596E-01   5.1170057E-01   0.0000000E+00   1.5700936E-01  -7.6261543E-02   0.0000000E+00   3.0232325E-01  -3.7130084E-02   0.0000000E+00   2.7599919E-01   1.5342412E-02   0.0000000E+00   2.5130051E-01   8.1924111E-02   0.0000000E+00   2.3146038E-01   1.6212758E-01   0.0000000E+00   2.1287578E-01   2.5305891E-01   0.0000000E+00   1.7916462E-01   3.4385484E-01   0.0000000E+00   2.2527511E-01   4.1837421E-01   0.0000000E+00   1.3429759E-01  -1.2121219E-01   0.0000000E+00   2.7500865E-01  -8.5283414E-02   0.0000000E+00   2.4980584E-01  -3.9871320E-02   0.0000000E+00   2.2819543E-01   1.6957212E-02   0.0000000E+00   2.1270663E-01   8.7360024E-02   0.0000000E+00   1.9737911E-01   1.7211282E-01   0.0000000E+00   1.6636926E-01   2.6923290E-01   0.0000000E+00   1.8781212E-01   3.5123917E-01   0.0000000E+00   1.0041467E-01  -1.4314334E-01   0.0000000E+00   2.4687257E-01  -1.1140931E-01   0.0000000E+00   2.2428122E-01  -7.5364739E-02   0.0000000E+00   2.0720226E-01  -3.1536903E-02   0.0000000E+00   1.9697440E-01   2.4847358E-02   0.0000000E+00   1.8587530E-01   1.0031334E-01   0.0000000E+00   1.5856814E-01   2.0302667E-01   0.0000000E+00   1.5809675E-01   3.1887633E-01   0.0000000E+00   1.0011517E-01  -1.5132380E-01   0.0000000E+00   2.1978515E-01  -1.2559606E-01   0.0000000E+00   2.0128867E-01  -1.0071497E-01   0.0000000E+00   1.8957429E-01  -7.1311750E-02   0.0000000E+00   1.8528119E-01  -3.0506751E-02   0.0000000E+00   1.7533381E-01   3.5137720E-02   0.0000000E+00   1.4890192E-01   1.4382534E-01   0.0000000E+00   1.3919283E-01   2.7970561E-01   0.0000000E+00   8.6797409E-02  -1.5084799E-01   0.0000000E+00   1.9585077E-01  -1.3316165E-01   0.0000000E+00   1.8230389E-01  -1.1994992E-01   0.0000000E+00   1.7584226E-01  -1.0391466E-01   0.0000000E+00   1.7390613E-01  -7.6564945E-02   0.0000000E+00   1.5739803E-01  -1.8436560E-02   0.0000000E+00   1.2900156E-01   9.8164141E-02   0.0000000E+00   1.1978969E-01  -1.4590286E-01   0.0000000E+00   1.7680033E-01  -1.3744904E-01   0.0000000E+00   1.6777965E-01  -1.3422014E-01   0.0000000E+00   1.6397372E-01  -1.2736604E-01   0.0000000E+00   1.5825662E-01  -1.0738933E-01   0.0000000E+00   1.3015351E-01  -4.6153385E-02   0.0000000E+00   1.0994858E-01   7.0481963E-02   0.0000000E+00   1.0002501E-01  -1.4105693E-01   0.0000000E+00   1.6315082E-01  -1.4090686E-01   0.0000000E+00   1.5684304E-01  -1.4294812E-01   0.0000000E+00   1.5252829E-01  -1.3814789E-01   0.0000000E+00   1.3782474E-01  -1.1405178E-01   0.0000000E+00   1.0584122E-01  -3.7799828E-02   0.0000000E+00   1.0135066E-01  -1.4014859E-01   0.0000000E+00   1.5376458E-01  -1.4402972E-01   0.0000000E+00   1.4825356E-01  -1.4252168E-01   0.0000000E+00   1.4031607E-01  -1.2956077E-01   0.0000000E+00   1.1670587E-01  -8.3596438E-02   0.0000000E+00   1.0074078E-01  -7.1394225E-03   0.0000000E+00   9.5395058E-02  -1.4308475E-01   0.0000000E+00   1.4742242E-01  -1.3945302E-01   0.0000000E+00   1.4315715E-01  -1.2178795E-01   0.0000000E+00   1.3192061E-01  -8.8752992E-02   0.0000000E+00   1.1110905E-01  -2.7715696E-02   0.0000000E+00   1.0886447E-01  -1.3550463E-01   0.0000000E+00   1.4693186E-01  -1.1002257E-01   0.0000000E+00   1.4316817E-01  -6.4411491E-02   0.0000000E+00   1.3581836E-01  -2.3883481E-02   0.0000000E+00   1.1956050E-01  -9.9096939E-02   0.0000000E+00   1.4939591E-01  -5.3933639E-02   0.0000000E+00   1.4574051E-01   2.2147801E-03   0.0000000E+00   1.4299504E-01  -1.3196213E-02   0.0000000E+00   1.0158092E-01  -5.2315194E-02   0.0000000E+00   1.4307010E-01  -1.5258788E-02   0.0000000E+00   1.3803782E-01  -4.4079494E-02   0.0000000E+00   1.2540071E-01 
Force 3 2975 float
0.0 0.0 0.0 0.0 0.0 0.0 0.0 0.0 0.0 0.0 0.0 0.0 0.0 0.0 0.0 0.0 0.0 0.0 0.0 0.0 0.0 0.0 0.0 0.0 0.0 0.0 0.0 0.0 0.0 0.0 0.0 0.0 0.0 0.0 0.0 0.0 0.0 0.0 0.0 0.0 0.0 0.0 0.0 0.0 0.0 0.0 0.0 0.0 0.0 0.0 0.0 0.0 0.0 0.0 0.0 0.0 0.0 0.0 0.0 0.0 0.0 0.0 0.0 0.0 0.0 0.0 0.0 0.0 0.0 0.0 0.0 0.0 0.0 0.0 0.0 0.0 0.0 0.0 0.0 0.0 0.0 0.0 0.0 0.0 0.0 0.0 0.0 0.0 0.0 0.0 0.0 0.0 0.0 0.0 0.0 0.0 0.0 0.0 0.0 0.0 0.0 0.0 0.0 0.0 0.0 0.0 0.0 0.0 0.0 0.0 0.0 0.0 0.0 0.0 0.0 0.0 0.0 0.0 0.0 0.0 0.0 0.0 0.0 0.0 0.0 0.0 0.0 0.0 0.0 0.0 0.0 0.0 0.0 0.0 0.0 0.0 0.0 0.0 0.0 0.0 0.0 0.0 0.0 0.0 0.0 0.0 0.0 0.0 0.0 0.0 0.0 0.0 0.0 0.0 0.0 0.0 0.0 0.0 0.0 0.0 0.0 0.0 0.0 0.0 0.0 0.0 0.0 0.0 0.0 0.0 0.0 0.0 0.0 0.0 0.0 0.0 0.0 0.0 0.0 0.0 0.0 0.0 0.0 0.0 0.0 0.0 0.0 0.0 0.0 0.0 0.0 0.0 0.0 0.0 0.0 0.0 0.0 0.0 0.0 0.0 0.0 0.0 0.0 0.0 0.0 0.0 0.0 0.0 0.0 0.0 0.0 0.0 0.0 0.0 0.0 0.0 0.0 0.0 0.0 0.0 0.0 0.0 0.0 0.0 0.0 0.0 0.0 0.0 0.0 0.0 0.0 0.0 0.0 0.0 0.0 0.0 0.0 0.0 0.0 0.0 0.0 0.0 0.0 0.0 0.0 0.0 0.0 0.0 0.0 0.0 0.0 0.0 0.0 0.0 0.0 0.0 0.0 0.0 0.0 0.0 0.0 0.0 0.0 0.0 0.0 0.0 0.0 0.0 0.0 0.0 0.0 0.0 0.0 0.0 0.0 0.0 0.0 0.0 0.0 0.0 0.0 0.0 0.0 0.0 0.0 0.0 0.0 0.0 0.0 0.0 0.0 0.0 0.0 0.0 0.0 0.0 0.0 0.0 0.0 0.0 0.0 0.0 0.0 0.0 0.0 0.0 0.0 0.0 0.0 0.0 0.0 0.0 0.0 0.0 0.0 0.0 0.0 0.0 0.0 0.0 0.0 0.0 0.0 0.0 0.0 0.0 0.0 0.0 0.0 0.0 0.0 0.0 0.0 0.0 0.0 0.0 0.0 0.0 0.0 0.0 0.0 0.0 0.0 0.0 0.0 0.0 0.0 0.0 0.0 0.0 0.0 0.0 0.0 0.0 0.0 0.0 0.0 0.0 0.0 0.0 0.0 0.0 0.0 0.0 0.0 0.0 0.0 0.0 0.0 0.0 0.0 0.0 0.0 0.0 0.0 0.0 0.0 0.0 0.0 0.0 0.0 0.0 0.0 0.0 0.0 0.0 0.0 0.0 0.0 0.0 0.0 0.0 0.0 0.0 0.0 0.0 0.0 0.0 0.0 0.0 0.0 0.0 0.0 0.0 0.0 0.0 0.0 0.0 0.0 0.0 0.0 0.0 0.0 0.0 0.0 0.0 0.0 0.0 0.0 0.0 0.0 0.0 0.0 0.0 0.0 0.0 0.0 0.0 0.0 0.0 0.0 0.0 0.0 0.0 0.0 0.0 0.0 0.0 0.0 0.0 0.0 0.0 0.0 0.0 0.0 0.0 0.0 0.0 0.0 0.0 0.0 0.0 0.0 0.0 0.0 0.0 0.0 0.0 0.0 0.0 0.0 0.0 0.0 0.0 0.0 0.0 0.0 0.0 0.0 0.0 0.0 0.0 0.0 0.0 0.0 0.0 0.0 0.0 0.0 0.0 0.0 0.0 0.0 0.0 0.0 0.0 0.0 0.0 0.0 0.0 0.0 0.0 0.0 0.0 0.0 0.0 0.0 0.0 0.0 0.0 0.0 0.0 0.0 0.0 0.0 0.0 0.0 0.0 0.0 0.0 0.0 0.0 0.0 0.0 0.0 0.0 0.0 0.0 0.0 0.0 0.0 0.0 0.0 0.0 0.0 0.0 0.0 0.0 0.0 0.0 0.0 0.0 0.0 0.0 0.0 0.0 0.0 0.0 0.0 0.0 0.0 0.0 0.0 0.0 0.0 0.0 0.0 0.0 0.0 0.0 0.0 0.0 0.0 0.0 0.0 0.0 0.0 0.0 0.0 0.0 0.0 0.0 0.0 0.0 0.0 0.0 0.0 0.0 0.0 0.0 0.0 0.0 0.0 0.0 0.0 0.0 0.0 0.0 0.0 0.0 0.0 0.0 0.0 0.0 0.0 0.0 0.0 0.0 0.0 0.0 0.0 0.0 0.0 0.0 0.0 0.0 0.0 0.0 0.0 0.0 0.0 0.0 0.0 0.0 0.0 0.0 0.0 0.0 0.0 0.0 0.0 0.0 0.0 0.0 0.0 0.0 0.0 0.0 0.0 0.0 0.0 0.0 0.0 0.0 0.0 0.0 0.0 0.0 0.0 0.0 0.0 0.0 0.0 0.0 0.0 0.0 0.0 0.0 0.0 0.0 0.0 0.0 0.0 0.0 0.0 0.0 0.0 0.0 0.0 0.0 0.0 0.0 0.0 0.0 0.0 0.0 0.0 0.0 0.0 0.0 0.0 0.0 0.0 0.0 0.0 0.0 0.0 0.0 0.0 0.0 0.0 0.0 0.0 0.0 0.0 0.0 0.0 0.0 0.0 0.0 0.0 0.0 0.0 0.0 0.0 0.0 0.0 0.0 0.0 0.0 0.0 0.0 0.0 0.0 0.0 0.0 0.0 0.0 0.0 0.0 0.0 0.0 0.0 0.0 0.0 0.0 0.0 0.0 0.0 0.0 0.0 0.0 0.0 0.0 0.0 0.0 0.0 0.0 0.0 0.0 0.0 0.0 0.0 0.0 0.0 0.0 0.0 0.0 0.0 0.0 0.0 0.0 0.0 0.0 0.0 0.0 0.0 0.0 0.0 0.0 0.0 0.0 0.0 0.0 0.0 0.0 0.0 0.0 0.0 0.0 0.0 0.0 0.0 0.0 0.0 0.0 0.0 0.0 0.0 0.0 0.0 0.0 0.0 0.0 0.0 0.0 0.0 0.0 0.0 0.0 0.0 0.0 0.0 0.0 0.0 0.0 0.0 0.0 0.0 0.0 0.0 0.0 0.0 0.0 0.0 0.0 0.0 0.0 0.0 0.0 0.0 0.0 0.0 0.0 0.0 0.0 0.0 0.0 0.0 0.0 0.0 0.0 0.0 0.0 0.0 0.0 0.0 0.0 0.0 0.0 0.0 0.0 0.0 0.0 0.0 0.0 0.0 0.0 0.0 0.0 0.0 0.0 0.0 0.0 0.0 0.0 0.0 0.0 0.0 0.0 0.0 0.0 0.0 0.0 0.0 0.0 0.0 0.0 0.0 0.0 0.0 0.0 0.0 0.0 0.0 0.0 0.0 0.0 0.0 0.0 0.0 0.0 0.0 0.0 0.0 0.0 0.0 0.0 0.0 0.0 0.0 0.0 0.0 0.0 0.0 0.0 0.0 0.0 0.0 0.0 0.0 0.0 0.0 0.0 0.0 0.0 0.0 0.0 0.0 0.0 0.0 0.0 0.0 0.0 0.0 0.0 0.0 0.0 0.0 0.0 0.0 0.0 0.0 0.0 0.0 0.0 0.0 0.0 0.0 0.0 0.0 0.0 0.0 0.0 0.0 0.0 0.0 0.0 0.0 0.0 0.0 0.0 0.0 0.0 0.0 0.0 0.0 0.0 0.0 0.0 0.0 0.0 0.0 0.0 0.0 0.0 0.0 0.0 0.0 0.0 0.0 0.0 0.0 0.0 0.0 0.0 0.0 0.0 0.0 0.0 0.0 0.0 0.0 0.0 0.0 0.0 0.0 0.0 0.0 0.0 0.0 0.0 0.0 0.0 0.0 0.0 0.0 0.0 0.0 0.0 0.0 0.0 0.0 0.0 0.0 0.0 0.0 0.0 0.0 0.0 0.0 0.0 0.0 0.0 0.0 0.0 0.0 0.0 0.0 0.0 0.0 0.0 0.0 0.0 0.0 0.0 0.0 0.0 0.0 0.0 0.0 0.0 0.0 0.0 0.0 0.0 0.0 0.0 0.0 0.0 0.0 0.0 0.0 0.0 0.0 0.0 0.0 0.0 0.0 0.0 0.0 0.0 0.0 0.0 0.0 0.0 0.0 0.0 0.0 0.0 0.0 0.0 0.0 0.0 0.0 0.0 0.0 0.0 0.0 0.0 0.0 0.0 0.0 0.0 0.0 0.0 0.0 0.0 0.0 0.0 0.0 0.0 0.0 0.0 0.0 0.0 0.0 0.0 0.0 0.0 0.0 0.0 0.0 0.0 0.0 0.0 0.0 0.0 0.0 0.0 0.0 0.0 0.0 0.0 0.0 0.0 0.0 0.0 0.0 0.0 0.0 0.0 0.0 0.0 0.0 0.0 0.0 0.0 0.0 0.0 0.0 0.0 0.0 0.0 0.0 0.0 0.0 0.0 0.0 0.0 0.0 0.0 0.0 0.0 0.0 0.0 0.0 0.0 0.0 0.0 0.0 0.0 0.0 0.0 0.0 0.0 0.0 0.0 0.0 0.0 0.0 0.0 0.0 0.0 0.0 0.0 0.0 0.0 0.0 0.0 0.0 0.0 0.0 0.0 0.0 0.0 0.0 0.0 0.0 0.0 0.0 0.0 0.0 0.0 0.0 0.0 0.0 0.0 0.0 0.0 0.0 0.0 0.0 0.0 0.0 0.0 0.0 0.0 0.0 0.0 0.0 0.0 0.0 0.0 0.0 0.0 0.0 0.0 0.0 0.0 0.0 0.0 0.0 0.0 0.0 0.0 0.0 0.0 0.0 0.0 0.0 0.0 0.0 0.0 0.0 0.0 0.0 0.0 0.0 0.0 0.0 0.0 0.0 0.0 0.0 0.0 0.0 0.0 0.0 0.0 0.0 0.0 0.0 0.0 0.0 0.0 0.0 0.0 0.0 0.0 0.0 0.0 0.0 0.0 0.0 0.0 0.0 0.0 0.0 0.0 0.0 0.0 0.0 0.0 0.0 0.0 0.0 0.0 0.0 0.0 0.0 0.0 0.0 0.0 0.0 0.0 0.0 0.0 0.0 0.0 0.0 0.0 0.0 0.0 0.0 0.0 0.0 0.0 0.0 0.0 0.0 0.0 0.0 0.0 0.0 0.0 0.0 0.0 0.0 0.0 0.0 0.0 0.0 0.0 0.0 0.0 0.0 0.0 0.0 0.0 0.0 0.0 0.0 0.0 0.0 0.0 0.0 0.0 0.0 0.0 0.0 0.0 0.0 0.0 0.0 0.0 0.0 0.0 0.0 0.0 0.0 0.0 0.0 0.0 0.0 0.0 0.0 0.0 0.0 0.0 0.0 0.0 0.0 0.0 0.0 0.0 0.0 0.0 0.0 0.0 0.0 0.0 0.0 0.0 0.0 0.0 0.0 0.0 0.0 0.0 0.0 0.0 0.0 0.0 0.0 0.0 0.0 0.0 0.0 0.0 0.0 0.0 0.0 0.0 0.0 0.0 0.0 0.0 0.0 0.0 0.0 0.0 0.0 0.0 0.0 0.0 0.0 0.0 0.0 0.0 0.0 0.0 0.0 0.0 0.0 0.0 0.0 0.0 0.0 0.0 0.0 0.0 0.0 0.0 0.0 0.0 0.0 0.0 0.0 0.0 0.0 0.0 0.0 0.0 0.0 0.0 0.0 0.0 0.0 0.0 0.0 0.0 0.0 0.0 0.0 0.0 0.0 0.0 0.0 0.0 0.0 0.0 0.0 0.0 0.0 0.0 0.0 0.0 0.0 0.0 0.0 0.0 0.0 0.0 0.0 0.0 0.0 0.0 0.0 0.0 0.0 0.0 0.0 0.0 0.0 0.0 0.0 0.0 0.0 0.0 0.0 0.0 0.0 0.0 0.0 0.0 0.0 0.0 0.0 0.0 0.0 0.0 0.0 0.0 0.0 0.0 0.0 0.0 0.0 0.0 0.0 0.0 0.0 0.0 0.0 0.0 0.0 0.0 0.0 0.0 0.0 0.0 0.0 0.0 0.0 0.0 0.0 0.0 0.0 0.0 0.0 0.0 0.0 0.0 0.0 0.0 0.0 0.0 0.0 0.0 0.0 0.0 0.0 0.0 0.0 0.0 0.0 0.0 0.0 0.0 0.0 0.0 0.0 0.0 0.0 0.0 0.0 0.0 0.0 0.0 0.0 0.0 0.0 0.0 0.0 0.0 0.0 0.0 0.0 0.0 0.0 0.0 0.0 0.0 0.0 0.0 0.0 0.0 0.0 0.0 0.0 0.0 0.0 0.0 0.0 0.0 0.0 0.0 0.0 0.0 0.0 0.0 0.0 0.0 0.0 0.0 0.0 0.0 0.0 0.0 0.0 0.0 0.0 0.0 0.0 0.0 0.0 0.0 0.0 0.0 0.0 0.0 0.0 0.0 0.0 0.0 0.0 0.0 0.0 0.0 0.0 0.0 0.0 0.0 0.0 0.0 0.0 0.0 0.0 0.0 0.0 0.0 0.0 0.0 0.0 0.0 0.0 0.0 0.0 0.0 0.0 0.0 0.0 0.0 0.0 0.0 0.0 0.0 0.0 0.0 0.0 0.0 0.0 0.0 0.0 0.0 0.0 0.0 0.0 0.0 0.0 0.0 0.0 0.0 0.0 0.0 0.0 0.0 0.0 0.0 0.0 0.0 0.0 0.0 0.0 0.0 0.0 0.0 0.0 0.0 0.0 0.0 0.0 0.0 0.0 0.0 0.0 0.0 0.0 0.0 0.0 0.0 0.0 0.0 0.0 0.0 0.0 0.0 0.0 0.0 0.0 0.0 0.0 0.0 0.0 0.0 0.0 0.0 0.0 0.0 0.0 0.0 0.0 0.0 0.0 0.0 0.0 0.0 0.0 0.0 0.0 0.0 0.0 0.0 0.0 0.0 0.0 0.0 0.0 0.0 0.0 0.0 0.0 0.0 0.0 0.0 0.0 0.0 0.0 0.0 0.0 0.0 0.0 0.0 0.0 0.0 0.0 0.0 0.0 0.0 0.0 0.0 0.0 0.0 0.0 0.0 0.0 0.0 0.0 0.0 0.0 0.0 0.0 0.0 0.0 0.0 0.0 0.0 0.0 0.0 0.0 0.0 0.0 0.0 0.0 0.0 0.0 0.0 0.0 0.0 0.0 0.0 0.0 0.0 0.0 0.0 0.0 0.0 0.0 0.0 0.0 0.0 0.0 0.0 0.0 0.0 0.0 0.0 0.0 0.0 0.0 0.0 0.0 0.0 0.0 0.0 0.0 0.0 0.0 0.0 0.0 0.0 0.0 0.0 0.0 0.0 0.0 0.0 0.0 0.0 0.0 0.0 0.0 0.0 0.0 0.0 0.0 0.0 0.0 0.0 0.0 0.0 0.0 0.0 0.0 0.0 0.0 0.0 0.0 0.0 0.0 0.0 0.0 0.0 0.0 0.0 0.0 0.0 0.0 0.0 0.0 0.0 0.0 0.0 0.0 0.0 0.0 0.0 0.0 0.0 0.0 0.0 0.0 0.0 0.0 0.0 0.0 0.0 0.0 0.0 0.0 0.0 0.0 0.0 0.0 0.0 0.0 0.0 0.0 0.0 0.0 0.0 0.0 0.0 0.0 0.0 0.0 0.0 0.0 0.0 0.0 0.0 0.0 0.0 0.0 0.0 0.0 0.0 0.0 0.0 0.0 0.0 0.0 0.0 0.0 0.0 0.0 0.0 0.0 0.0 0.0 0.0 0.0 0.0 0.0 0.0 0.0 0.0 0.0 0.0 0.0 0.0 0.0 0.0 0.0 0.0 0.0 0.0 0.0 0.0 0.0 0.0 0.0 0.0 0.0 0.0 0.0 0.0 0.0 0.0 0.0 0.0 0.0 0.0 0.0 0.0 0.0 0.0 0.0 0.0 0.0 0.0 0.0 0.0 0.0 0.0 0.0 0.0 0.0 0.0 0.0 0.0 0.0 0.0 0.0 0.0 0.0 0.0 0.0 0.0 0.0 0.0 0.0 0.0 0.0 0.0 0.0 0.0 0.0 0.0 0.0 0.0 0.0 0.0 0.0 0.0 0.0 0.0 0.0 0.0 0.0 0.0 0.0 0.0 0.0 0.0 0.0 0.0 0.0 0.0 0.0 0.0 0.0 0.0 0.0 0.0 0.0 0.0 0.0 0.0 0.0 0.0 0.0 0.0 0.0 0.0 0.0 0.0 0.0 0.0 0.0 0.0 0.0 0.0 0.0 0.0 0.0 0.0 0.0 0.0 0.0 0.0 0.0 0.0 0.0 0.0 0.0 0.0 0.0 0.0 0.0 0.0 0.0 0.0 0.0 0.0 0.0 0.0 0.0 0.0 0.0 0.0 0.0 0.0 0.0 0.0 0.0 0.0 0.0 0.0 0.0 0.0 0.0 0.0 0.0 0.0 0.0 0.0 0.0 0.0 0.0 0.0 0.0 0.0 0.0 0.0 0.0 0.0 0.0 0.0 0.0 0.0 0.0 0.0 0.0 0.0 0.0 0.0 0.0 0.0 0.0 0.0 0.0 0.0 0.0 0.0 0.0 0.0 0.0 0.0 0.0 0.0 0.0 0.0 0.0 0.0 0.0 0.0 0.0 0.0 0.0 0.0 0.0 0.0 0.0 0.0 0.0 0.0 0.0 0.0 0.0 0.0 0.0 0.0 0.0 0.0 0.0 0.0 0.0 0.0 0.0 0.0 0.0 0.0 0.0 0.0 0.0 0.0 0.0 0.0 0.0 0.0 0.0 0.0 0.0 0.0 0.0 0.0 0.0 0.0 0.0 0.0 0.0 0.0 0.0 0.0 0.0 0.0 0.0 0.0 0.0 0.0 0.0 0.0 0.0 0.0 0.0 0.0 0.0 0.0 0.0 0.0 0.0 0.0 0.0 0.0 0.0 0.0 0.0 0.0 0.0 0.0 0.0 0.0 0.0 0.0 0.0 0.0 0.0 0.0 0.0 0.0 0.0 0.0 0.0 0.0 0.0 0.0 0.0 0.0 0.0 0.0 0.0 0.0 0.0 0.0 0.0 0.0 0.0 0.0 0.0 0.0 0.0 0.0 0.0 0.0 0.0 0.0 0.0 0.0 0.0 0.0 0.0 0.0 0.0 0.0 0.0 0.0 0.0 0.0 0.0 0.0 0.0 0.0 0.0 0.0 0.0 0.0 0.0 0.0 0.0 0.0 0.0 0.0 0.0 0.0 0.0 0.0 0.0 0.0 0.0 0.0 0.0 0.0 0.0 0.0 0.0 0.0 0.0 0.0 0.0 0.0 0.0 0.0 0.0 0.0 0.0 0.0 0.0 0.0 0.0 0.0 0.0 0.0 0.0 0.0 0.0 0.0 0.0 0.0 0.0 0.0 0.0 0.0 0.0 0.0 0.0 0.0 0.0 0.0 0.0 0.0 0.0 0.0 0.0 0.0 0.0 0.0 0.0 0.0 0.0 0.0 0.0 0.0 0.0 0.0 0.0 0.0 0.0 0.0 0.0 0.0 0.0 0.0 0.0 0.0 0.0 0.0 0.0 0.0 0.0 0.0 0.0 0.0 0.0 0.0 0.0 0.0 0.0 0.0 0.0 0.0 0.0 0.0 0.0 0.0 0.0 0.0 0.0 0.0 0.0 0.0 0.0 0.0 0.0 0.0 0.0 0.0 0.0 0.0 0.0 0.0 0.0 0.0 0.0 0.0 0.0 0.0 0.0 0.0 0.0 0.0 0.0 0.0 0.0 0.0 0.0 0.0 0.0 0.0 0.0 0.0 0.0 0.0 0.0 0.0 0.0 0.0 0.0 0.0 0.0 0.0 0.0 0.0 0.0 0.0 0.0 0.0 0.0 0.0 0.0 0.0 0.0 0.0 0.0 0.0 0.0 0.0 0.0 0.0 0.0 0.0 0.0 0.0 0.0 0.0 0.0 0.0 0.0 0.0 0.0 0.0 0.0 0.0 0.0 0.0 0.0 0.0 0.0 0.0 0.0 0.0 0.0 0.0 0.0 0.0 0.0 0.0 0.0 0.0 0.0 0.0 0.0 0.0 0.0 0.0 0.0 0.0 0.0 0.0 0.0 0.0 0.0 0.0 0.0 0.0 0.0 0.0 0.0 0.0 0.0 0.0 0.0 0.0 0.0 0.0 0.0 0.0 0.0 0.0 0.0 0.0 0.0 0.0 0.0 0.0 0.0 0.0 0.0 0.0 0.0 0.0 0.0 0.0 0.0 0.0 0.0 0.0 0.0 0.0 0.0 0.0 0.0 0.0 0.0 0.0 0.0 0.0 0.0 0.0 0.0 0.0 0.0 0.0 0.0 0.0 0.0 0.0 0.0 0.0 0.0 0.0 0.0 0.0 0.0 0.0 0.0 0.0 0.0 0.0 0.0 0.0 0.0 0.0 0.0 0.0 0.0 0.0 0.0 0.0 0.0 0.0 0.0 0.0 0.0 0.0 0.0 0.0 0.0 0.0 0.0 0.0 0.0 0.0 0.0 0.0 0.0 0.0 0.0 0.0 0.0 0.0 0.0 0.0 0.0 0.0 0.0 0.0 0.0 0.0 0.0 0.0 0.0 0.0 0.0 0.0 0.0 0.0 0.0 0.0 0.0 0.0 0.0 0.0 0.0 0.0 0.0 0.0 0.0 0.0 0.0 0.0 0.0 0.0 0.0 0.0 0.0 0.0 0.0 0.0 0.0 0.0 0.0 0.0 0.0 0.0 0.0 0.0 0.0 0.0 0.0 0.0 0.0 0.0 0.0 0.0 0.0 0.0 0.0 0.0 0.0 0.0 0.0 0.0 0.0 0.0 0.0 0.0 0.0 0.0 0.0 0.0 0.0 0.0 0.0 0.0 0.0 0.0 0.0 0.0 0.0 0.0 0.0 0.0 0.0 0.0 0.0 0.0 0.0 0.0 0.0 0.0 0.0 0.0 0.0 0.0 0.0 0.0 0.0 0.0 0.0 0.0 0.0 0.0 0.0 0.0 0.0 0.0 0.0 0.0 0.0 0.0 0.0 0.0 0.0 0.0 0.0 0.0 0.0 0.0 0.0 0.0 0.0 0.0 0.0 0.0 0.0 0.0 0.0 0.0 0.0 0.0 0.0 0.0 0.0 0.0 0.0 0.0 0.0 0.0 0.0 0.0 0.0 0.0 0.0 0.0 0.0 0.0 0.0 0.0 0.0 0.0 0.0 0.0 0.0 0.0 0.0 0.0 0.0 0.0 0.0 0.0 0.0 0.0 0.0 0.0 0.0 0.0 0.0 0.0 0.0 0.0 0.0 0.0 0.0 0.0 0.0 0.0 0.0 0.0 0.0 0.0 0.0 0.0 0.0 0.0 0.0 0.0 0.0 0.0 0.0 0.0 0.0 0.0 0.0 0.0 0.0 0.0 0.0 0.0 0.0 0.0 0.0 0.0 0.0 0.0 0.0 0.0 0.0 0.0 0.0 0.0 0.0 0.0 0.0 0.0 0.0 0.0 0.0 0.0 0.0 0.0 0.0 0.0 0.0 0.0 0.0 0.0 0.0 0.0 0.0 0.0 0.0 0.0 0.0 0.0 0.0 0.0 0.0 0.0 0.0 0.0 0.0 0.0 0.0 0.0 0.0 0.0 0.0 0.0 0.0 0.0 0.0 0.0 0.0 0.0 0.0 0.0 0.0 0.0 0.0 0.0 0.0 0.0 0.0 0.0 0.0 0.0 0.0 0.0 0.0 0.0 0.0 0.0 0.0 0.0 0.0 0.0 0.0 0.0 0.0 0.0 0.0 0.0 0.0 0.0 0.0 0.0 0.0 0.0 0.0 0.0 0.0 0.0 0.0 0.0 0.0 0.0 0.0 0.0 0.0 0.0 0.0 0.0 0.0 0.0 0.0 0.0 0.0 0.0 0.0 0.0 0.0 0.0 0.0 0.0 0.0 0.0 0.0 0.0 0.0 0.0 0.0 0.0 0.0 0.0 0.0 0.0 0.0 0.0 0.0 0.0 0.0 0.0 0.0 0.0 0.0 0.0 0.0 0.0 0.0 0.0 0.0 0.0 0.0 0.0 0.0 0.0 0.0 0.0 0.0 0.0 0.0 0.0 0.0 0.0 0.0 0.0 0.0 0.0 0.0 0.0 0.0 0.0 0.0 0.0 0.0 0.0 0.0 0.0 0.0 0.0 0.0 0.0 0.0 0.0 0.0 0.0 0.0 0.0 0.0 0.0 0.0 0.0 0.0 0.0 0.0 0.0 0.0 0.0 0.0 0.0 0.0 0.0 0.0 0.0 0.0 0.0 0.0 0.0 0.0 0.0 0.0 0.0 0.0 0.0 0.0 0.0 0.0 0.0 0.0 0.0 0.0 0.0 0.0 0.0 0.0 0.0 0.0 0.0 0.0 0.0 0.0 0.0 0.0 0.0 0.0 0.0 0.0 0.0 0.0 0.0 0.0 0.0 0.0 0.0 0.0 0.0 0.0 0.0 0.0 0.0 0.0 0.0 0.0 0.0 0.0 0.0 0.0 0.0 0.0 0.0 0.0 0.0 0.0 0.0 0.0 0.0 0.0 0.0 0.0 0.0 0.0 0.0 0.0 0.0 0.0 0.0 0.0 0.0 0.0 0.0 0.0 0.0 0.0 0.0 0.0 0.0 0.0 0.0 0.0 0.0 0.0 0.0 0.0 0.0 0.0 0.0 0.0 0.0 0.0 0.0 0.0 0.0 0.0 0.0 0.0 0.0 0.0 0.0 0.0 0.0 0.0 0.0 0.0 0.0 0.0 0.0 0.0 0.0 0.0 0.0 0.0 0.0 0.0 0.0 0.0 0.0 0.0 0.0 0.0 0.0 0.0 0.0 0.0 0.0 0.0 0.0 0.0 0.0 0.0 0.0 0.0 0.0 0.0 0.0 0.0 0.0 0.0 0.0 0.0 0.0 0.0 0.0 0.0 0.0 0.0 0.0 0.0 0.0 0.0 0.0 0.0 0.0 0.0 0.0 0.0 0.0 0.0 0.0 0.0 0.0 0.0 0.0 0.0 0.0 0.0 0.0 0.0 0.0 0.0 0.0 0.0 0.0 0.0 0.0 0.0 0.0 0.0 0.0 0.0 0.0 0.0 0.0 0.0 0.0 0.0 0.0 0.0 0.0 0.0 0.0 0.0 0.0 0.0 0.0 0.0 0.0 0.0 0.0 0.0 0.0 0.0 0.0 0.0 0.0 0.0 0.0 0.0 0.0 0.0 0.0 0.0 0.0 0.0 0.0 0.0 0.0 0.0 0.0 0.0 0.0 0.0 0.0 0.0 0.0 0.0 0.0 0.0 0.0 0.0 0.0 0.0 -0.43441765086044104 0.0 -0.1699419082485476 -0.508995252724881 0.0 -0.1574737119368427 -0.570817014270425 0.0 -0.13934121548353032 -0.6207662555191561 0.0 -0.11936819898420489 -0.659627936490698 0.0 -0.0996915584922889 -0.42038309050957706 0.0 -0.2203611415090284 -0.555406773885169 0.0 -0.1905180007629499 -0.6570535764263391 0.0 -0.1793576284839406 -0.734903338372583 0.0 -0.1618989040474725 -0.7956804598920111 0.0 -0.1411735555293388 -0.842593421064835 0.0 -0.1195811069895276 -0.555309293882732 0.0 -0.22624454965611362 -0.721021858025546 0.0 -0.1975602209390054 -0.84193882104847 0.0 -0.1812004125300102 -0.9342203433555081 0.0 -0.1629936240748405 -1.005460945136523 0.0 -0.1442942636073565 -1.061065306526632 0.0 -0.1236809510920237 -0.7192640579816011 0.0 -0.2245136336128407 -0.9180769029519219 0.0 -0.1903542567588563 -1.0551949863798742 0.0 -0.173726084343152 -1.1578641089466022 0.0 -0.15701303992532592 -1.2387390309684752 0.0 -0.13976052349401302 -1.302296872557421 0.0 -0.12095985902399642 -0.911465102786627 0.0 -0.2227945375698633 -1.1461445086536122 0.0 -0.17821560445539 -1.299408952485223 0.0 -0.1608841920221047 -1.411873475296836 0.0 -0.1452875156321878 -1.5001779975044491 0.0 -0.1310817032770425 -1.571142159278553 0.0 -0.1143886348597158 -1.137735188443379 0.0 -0.2247741736193542 -1.412068515301712 0.0 -0.16387768009694192 -1.581152399528809 0.0 -0.1441380556034513 -1.7018888825472211 0.0 -0.1300670192516754 -1.796722084918051 0.0 -0.1191246549781163 -1.873827966845698 0.0 -0.105376602634415 -1.405864195146604 0.0 -0.23720074193001842 -1.7229956030748892 0.0 -0.1516708397917709 -1.905692327642307 0.0 -0.1262461711561542 -2.031106250777655 0.0 -0.1143847508596187 -2.131788133294702 0.0 -0.1057492266437306 -2.21329045533226 0.0 -0.0960270984006774 -1.7248047231201171 0.0 -0.26834793870869833 -2.084204332105107 0.0 -0.1487592717189817 -2.275130896878271 0.0 -0.11392879884821991 -2.404561100114026 0.0 -0.0993657144841428 -2.5055390226384744 0.0 -0.09628465440711631 -2.590234264755855 0.0 -0.0899595742489893 -2.116063372901583 0.0 -0.3049675076241875 -2.5009577425239424 0.0 -0.15701408792535212 -2.6883980272099492 0.0 -0.1157054948926373 -2.8187473904686833 0.0 -0.09592428639810711 -2.9199837529995922 0.0 -0.09502358637558961 -3.0047335551183374 0.0 -0.0933179863329496 -2.625381145634527 0.0 -0.2950939233773479 -2.984632394615808 0.0 -0.16523704813092613 -3.155771518894286 0.0 -0.12512531512813282 -3.275582201889553 0.0 -0.1083674467091861 -3.373261724331541 0.0 -0.112039042800976 -3.4568920864223 0.0 -0.113540842838521 -3.2898621622465525 0.0 -0.23358230983955763 -3.5556660488916494 0.0 -0.169269564231739 -3.684755812118893 0.0 -0.1406898515172462 -3.779975974499397 0.0 -0.1387682954692073 -3.867903616697588 0.0 -0.1494204557355113 -3.9461094986527354 0.0 -0.1569762159244053 -4.01671290041782 0.0 -0.3472625806815643 -4.2167121054178 0.0 -0.2350635578765888 -4.27365970684149 0.0 -0.1982061449551535 -4.3326685083167105 0.0 -0.20137568103439193 -4.404267310106681 0.0 -0.2136560973414023 -4.4728121118203 0.0 -0.2282953777073843 -4.836433720910841 0.0 -0.981522384538059 -4.95973172399329 0.0 -0.6004585350114631 -4.94161532354038 0.0 -0.395535289888382 -4.94330972358274 0.0 -0.3365487164137177 -4.98260492456512 0.0 -0.3266427601660688 -5.03733692593342 0.0 -0.3347107963677697 -5.883854147096351 0.0 -1.509422357735558 -5.830612145765301 0.0 -1.060755546518888 -5.69530494238262 0.0 -0.7229938580748461 -5.61481654037041 0.0 -0.561188694029717 -5.605176140129401 0.0 -0.5041021326025531 -5.6440217411005404 0.0 -0.480484532012113 -7.112619377815481 0.0 -1.8582882464572053 -6.828594970714871 0.0 -1.405648475141211 -6.52441416311035 0.0 -1.0504604662615111 -6.335997758399941 0.0 -0.835462380886559 -6.27425655685641 0.0 -0.730578858264471 -6.29286935732173 0.0 -0.6622192565554811 -8.402401810060041 0.0 -2.138517053462925 -7.864084996602121 0.0 -1.689356282233906 -7.385982584649561 0.0 -1.337621833440545 -7.0909721772743 0.0 -1.1010465875261641 -6.9779429744485695 0.0 -0.9604454240111351 -6.981547774538691 0.0 -0.867828861695721 -9.67678624191965 0.0 -2.401554740038867 -8.901201022530019 0.0 -1.936989848424745 -8.2604882065122 0.0 -1.585638479640961 -7.87169419679235 0.0 -1.3399456334986402 -7.717976592949411 0.0 -1.1799309094982722 -7.709465792736641 0.0 -1.071249706781242 -10.911085872777141 0.0 -2.6657160666429003 -9.93774504844362 0.0 -2.166836774170918 -9.15182382879559 0.0 -1.8036470850911759 -8.67928621698215 0.0 -1.547832638695815 -8.489430612235761 0.0 -1.380513514512837 -8.47147861178696 0.0 -1.269919351747983 -12.14589950364748 0.0 -2.934047953351197 -10.99638627490965 0.0 -2.395852539896312 -10.07409145185228 0.0 -1.999832569995813 -9.517215037930372 0.0 -1.73057084326427 -9.292181432304531 0.0 -1.559906798997669 -9.27015863175396 0.0 -1.443649516091237 -13.432403935810092 0.0 -3.204806200120153 -12.1017323025433 0.0 -2.614588225364704 -11.03556307588907 0.0 -2.177266174431653 -10.388096259702401 0.0 -1.894619207365479 -10.12507665312691 0.0 -1.718271482956786 -10.09852865246321 0.0 -1.5971727599293182 -14.79115476977886 0.0 -3.4620823665520573 -13.257927131448172 0.0 -2.820764630519114 -12.033946700848661 0.0 -2.3409542585238547 -11.28918628222965 0.0 -2.0395292909882308 -10.98352987458824 0.0 -1.8534557663363929 -10.955212673880311 0.0 -1.7379433234485822 -16.21442000536049 0.0 -3.7169858129246434 -14.462335561558382 0.0 -3.0111252752781303 -13.066392726659812 0.0 -2.4852274621306853 -12.21662390541559 0.0 -2.164218974105473 -11.865139896628492 0.0 -1.9722690893067263 -11.835570695889261 0.0 -1.858984806474619 -17.70310884257771 0.0 -3.9587582589689543 -15.712428792810709 0.0 -3.178706999467673 -14.128875953221891 0.0 -2.606082425152059 -13.165550729138761 0.0 -2.263733736593342 -12.76568951914223 0.0 -2.068102131702552 -12.73569991839249 0.0 -1.9545523288638071 -19.25773593088632 0.0 -4.18074778466739 -17.00687548783175 0.0 -3.3168267390384756 -15.21835247572946 0.0 -2.6965518182657924 -14.13126465670678 0.0 -2.331735072476955 -13.680219650363751 0.0 -2.12998199370875 -13.651603196707999 0.0 -2.0160724201287 -20.88547875966168 0.0 -4.3762205374197 -18.348283517066278 0.0 -3.414507088535532 -16.3341989958477 0.0 -2.74605931998951 -15.111118355214002 0.0 -2.3576364281232 -14.60531801700042 0.0 -2.1457130503653 -14.57945148378846 0.0 -2.032739628555174 -22.6098677151568 0.0 -4.5367480403232 -19.74619927526372 0.0 -3.4606954860309154 -17.47928825985719 0.0 -2.739840203170974 -16.105908092319417 0.0 -2.3242053730633363 -15.541388094419199 0.0 -2.11340444054896 -15.5163468487188 0.0 -1.993826203760664 -24.470217042808322 0.0 -4.655486338912239 -21.21611980363156 0.0 -3.443762919574932 -18.65874118389116 0.0 -2.66125828473362 -17.11546435384255 0.0 -2.21451739633297 -16.4853945211428 0.0 -2.00301515803962 -16.45958769748134 0.0 -1.8940486770687872 -26.50560080166573 0.0 -4.72836621459595 -22.76857541980896 0.0 -3.3582615611606186 -19.86846322779216 0.0 -2.502456660430008 -18.13436287939635 0.0 -2.0201303028948048 -17.42663589167468 0.0 -1.817220060509612 -17.40025261194962 0.0 -1.732456580453362 -28.713294738917 0.0 -4.75533809335262 -24.38501180515995 0.0 -3.2026611760720196 -21.08831918032095 0.0 -2.260607254303716 -19.139010215691602 0.0 -1.749420743962437 -18.3348907189518 0.0 -1.575405312042228 -18.3110008174311 0.0 -1.5061574890199099 -31.00205939144666 0.0 -4.77259848610594 -25.99391898444552 0.0 -2.9898062569193584 -22.2727506836364 0.0 -1.927159215880145 -20.06032586738124 0.0 -1.451035165716703 -19.143172987672 0.0 -1.3199970893248 -19.141352182763548 0.0 -1.23346697533059 -33.23103282408828 0.0 -4.84167880839516 -27.498334446535228 0.0 -2.738095780880034 -23.3432177923023 0.0 -1.5726982008992458 -20.81906764649145 0.0 -1.175651802759042 -19.855697563266478 0.0 -0.9541234670296681 -19.883759371531557 0.0 -0.85741764383148 -35.15932388255084 0.0 -4.91876411856348 -28.75627080742208 0.0 -2.589805185043456 -24.11346050294679 0.0 -1.485954480051788 -21.49410516977152 0.0 -0.7906588446276519 -20.481354876628803 0.0 -0.510180664793184 -20.52431872073856 0.0 -0.3314088237985434 -36.60508878305454 0.0 -5.090310738442801 -29.8487612375008 0.0 -2.6444053519779565 -24.86925178202232 0.0 -1.4381214564252498 -22.100737137814242 0.0 -0.47214932600709597 -20.99170536132324 0.0 0.00562260578167424 -21.05800035118428 0.0 0.2699331535623126 -37.451036493026166 0.0 -5.21242406684016 -30.3691601893824 0.0 -2.98908402212936 -25.18037005800534 0.0 -1.724521537919798 -22.36658262199402 0.0 -0.596438210239406 -21.31807570718325 0.0 0.3112478855000439 -21.430901740958998 0.0 0.858863948654646 -36.25649353291982 0.0 -4.69354785267972 -29.75845429627224 0.0 -2.9289853920541837 -24.881950314741857 0.0 -2.1289007731049683 -22.144608734229298 0.0 -0.730706816163864 -21.2804928967536 0.0 0.35272901573784005 -21.50200924450956 0.0 1.323313669182612 -29.50794422326036 0.0 -5.164891930347199 -27.36584610930625 0.0 -3.42975821722233 -23.598045595967683 0.0 -2.194052606128556 -20.9230126187748 0.0 -0.791259298066272 -20.3638486966306 0.0 -0.1018394188097118 -20.877028386401598 0.0 0.9897539119601 -18.63220373911552 0.0 -5.76391921581824 -18.27493655514625 0.0 -3.0416494271144 -18.26832437633962 0.0 -2.3193236201356764 -18.12308700532068 0.0 -0.735903155930292 -17.8829815415628 0.0 -0.3608681384714796 -18.42640799369487 0.0 -0.3855767087676179 -11.02234237355602 0.0 -4.77137197138002 -10.7455412226197 0.0 -2.0969531961421373 -10.65166266076274 0.0 -2.430484189169716 -10.659651226096859 0.0 -0.757461645462508 -11.07850244171328 0.0 -0.2761577547967872 -11.77107996566553 0.0 0.05771085896550151 -6.94336367063534 0.0 -3.758753107790917 -6.615384854502249 0.0 -1.4302805397042648 -6.3621169880576005 0.0 -2.67800783503792 -6.27993245949199 0.0 -0.792848603717657 -6.450989245907279 0.0 0.259904306755686 -6.874126434481321 0.0 1.365768342700272 -4.81329086752332 0.0 -3.284651294951705 -4.45200015253158 0.0 -0.863976290800227 -4.11010276408068 0.0 -3.3613434193393488 -3.8922082954902404 0.0 -0.7673505713411201 -3.83276301703215 0.0 0.91940740516548 -3.9374710182163986 0.0 2.32197717029634 -2.736480770050108 0.0 -3.239973140576178 -2.4470614645094835 0.0 -0.39863819878366596 -2.140801782177136 0.0 -3.6176400333683087 -1.871045246985545 0.0 -0.90494487846585 -1.664570941865496 0.0 1.059852631130652 -1.5347272769263498 0.0 2.6242698082844362 0.50077353912624 0.0 -3.3222871507305602 0.621433957436775 0.0 -0.14480352752512501 0.771902778695595 0.0 -3.5336037714198807 0.957942907434414 0.0 -1.317489517475802 1.169719641823734 0.0 0.654356550059964 1.39496823097938 0.0 2.3565599154836 5.0746627806228 0.0 -3.57052493177028 4.9788301413084 0.0 -0.11502797056340848 4.9059638628151205 0.0 -3.359507158561764 4.88243334340917 0.0 -1.570287182791977 4.99221851876 0.0 0.025651398556034398 5.166439371899 0.0 1.7523394819350682 10.4291988838722 0.0 -3.869524011040065 10.10570342727024 0.0 -0.3059125470049644 9.6799096346931 0.0 -3.042179111798271 9.4942032330276 0.0 -1.69416275771178 9.4702712731042 0.0 -0.59150195260825 9.51125014628096 0.0 1.02248970851456 16.00189344415416 0.0 -4.5774772762828 15.1731076537794 0.0 -0.6392458915534569 14.575707361429481 0.0 -2.979933772028228 14.27554450372161 0.0 -1.9503231362368918 14.09234895906114 0.0 -1.115540998078934 13.98390396353475 0.0 0.322475515528495 21.228222758058003 0.0 -5.2310031849702 19.65298982579739 0.0 -1.1126801283418442 19.111058648212502 0.0 -3.26915930285455 18.603505756945 0.0 -2.15455639535275 18.40509904822564 0.0 -1.4609944976730278 18.239745905043183 0.0 -0.2577308067883386 25.867985416399442 0.0 -5.67663993950998 23.495808411495 0.0 -1.8204529138827918 22.7315808819902 0.0 -3.5530756542317077 22.26025214225802 0.0 -2.3152906099778843 22.1965121780208 0.0 -1.6921744627242148 22.079147258089982 0.0 -0.66690596011932 29.88758824300824 0.0 -6.331702831586161 26.773563279516612 0.0 -2.966120550530573 25.5791894844522 0.0 -3.808909496837755 25.26351573714745 0.0 -2.441816081595774 25.37878281618756 0.0 -1.993018204536906 25.01620471004248 0.0 -1.0240390310241358 33.39379213371585 0.0 -6.836482343883149 29.7218786019056 0.0 -4.2099638446549505 28.147763766114 0.0 -4.20361465336568 27.805982289278177 0.0 -2.885921511654285 27.1068689655371 0.0 -2.5645527733974496 26.22843004526856 0.0 -1.4772904379930718 36.60000630221219 0.0 -7.0124794768410705 32.476374586339055 0.0 -5.063609382252 30.683964384460797 0.0 -4.6494833870016 29.512615176109797 0.0 -3.7809972667500595 27.70784705528301 0.0 -3.0371525260826644 26.62383624675138 0.0 -1.8799140101377323 39.95981914218096 0.0 -7.02441453682036 35.163445448483955 0.0 -5.488133260255751 33.07540323989415 0.0 -5.19016295336328 30.24335023395182 0.0 -4.18354012080116 27.9894628057371 0.0 -3.21670535430844 26.843390943911096 0.0 -2.185416548219076 43.6011837948582 0.0 -6.82733880368312 38.3778210243384 0.0 -5.883685702232801 34.50244797508314 0.0 -5.393842121176079 30.600773355886016 0.0 -4.19955126319697 28.20506101088234 0.0 -3.375262553224724 26.92881674133566 0.0 -2.436674522970059 47.3948209582206 0.0 -6.06112024035614 41.783993583762 0.0 -6.0770789886186 35.55441568426566 0.0 -5.39805412702296 31.03804043450703 0.0 -4.14414231559731 28.453931919294238 0.0 -3.3891936734993755 27.001247333358116 0.0 -2.5669182806507997 52.144309853623 0.0 -7.8738237561321 43.895806654518495 0.0 -6.54019504405476 36.81299826161046 0.0 -5.25104768099206 31.709991590196747 0.0 -4.03574535359775 28.77915212416056 0.0 -3.3661879413424742 27.15588472824435 0.0 -2.673105592227135 55.167231689775 0.0 -8.4493603298772 46.25659815616981 0.0 -6.56950590838746 38.37843299355216 0.0 -5.03065510925328 32.783682026678306 0.0 -3.853539935435502 29.38183012131276 0.0 -3.244891790923692 27.4040683231865 0.0 -2.6358890146039 48.9333843786859 0.0 -6.561484439411631 40.4197551599515 0.0 -4.81209527352445 34.26666849066036 0.0 -3.547555038768008 30.311245221122725 0.0 -2.974584144801787 27.89120773131672 0.0 -2.507846956843144 52.0104408212452 0.0 -6.60554204780024 43.0766432313264 0.0 -4.80859934890608 36.3283592418698 0.0 -3.35987804201994 31.650810508105597 0.0 -2.7040694397269 28.700066459620924 0.0 -2.320019594593326 46.40591959767 0.0 -4.83031599025176 38.92076139442932 0.0 -3.267911891489274 33.50471611202457 0.0 -2.390437355684007 29.879525195294757 0.0 -2.129438794693932 50.160501373382395 0.0 -4.91345973176032 42.071156489648 0.0 -3.2666929845671677 35.8558824340365 0.0 -2.102467317854325 31.47537212262348 0.0 -1.813976027241724 46.094397853836796 0.0 -3.552041322935616 39.01555026573401 0.0 -2.148391066263397 33.83733601182682 0.0 -1.505465457056044 43.160962350727196 0.0 -2.5541964369261927 37.369799039528154 0.0 -1.608574127356152 46.9750080275175 0.0 -2.95309496567085 41.6040411245133 0.0 -2.105488102850157 -0.6881920172048 0.0 -0.08158745803968641 -0.7077297376932431 0.0 -0.0646603256165081 -0.719393177984829 0.0 -0.0502529532563238 -0.725215538130388 0.0 -0.03809545135238626 -0.7272251381806281 0.0 -0.02786449869661245 -0.726878378171959 0.0 -0.01977685129442127 -0.725499538137488 0.0 -0.013176907929422691 -0.7238948980973721 0.0 -0.008052573401314331 -0.7227150180678751 0.0 -0.0037736301343407512 -0.8770119019252971 0.0 -0.0983366264584156 -0.899797862494946 0.0 -0.0789938779748469 -0.91270562281764 0.0 -0.06246118156152951 -0.918778062969451 0.0 -0.0477264251931606 -0.9201599430039981 0.0 -0.03558716248967904 -0.9188797029719921 0.0 -0.025644899041122462 -0.9164966629124162 0.0 -0.017442831636070782 -0.914045542851138 0.0 -0.01080592747014818 -0.912308702807717 0.0 -0.0051405281285132 -1.101493667537341 0.0 -0.1036034865900871 -1.1278862281971551 0.0 -0.0846700701167517 -1.14250642856266 0.0 -0.0676638376915959 -1.148725748718143 0.0 -0.0525709773142744 -1.149457788736444 0.0 -0.03985636019640899 -1.147220628680515 0.0 -0.029038423925960583 -1.143748708593717 0.0 -0.02009189490229736 -1.140384508509612 0.0 -0.012547671913691789 -1.1380150284503752 0.0 -0.00605092295127307 -1.348794793719869 0.0 -0.1023442065586051 -1.378687314467182 0.0 -0.0848912381222809 -1.394905314872632 0.0 -0.06838864170971601 -1.4012031950300792 0.0 -0.0539387133484678 -1.40123523503088 0.0 -0.0412541530313538 -1.3979091949477291 0.0 -0.030445713561142822 -1.393301794832544 0.0 -0.021312478532811954 -1.388977274724431 0.0 -0.013415903135397571 -1.385965554649138 0.0 -0.006471875361796881 -1.623064480576611 0.0 -0.09779881444497031 -1.6560867614021682 0.0 -0.08174201004355021 -1.6733559218338971 0.0 -0.0665430256635756 -1.6794048819851213 0.0 -0.0531038133275953 -1.6785164419629102 0.0 -0.041089177027229404 -1.6738882418472052 0.0 -0.03067548356688707 -1.668014361700358 0.0 -0.02162449854061245 -1.66262364156559 0.0 -0.01375395674384891 -1.6589241614731032 0.0 -0.006659072966476821 -1.9300594882514863 0.0 -0.0915386222884655 -1.9654089291352221 0.0 -0.0773026619325665 -1.983049809576244 0.0 -0.06386224159655601 -1.988359489708986 0.0 -0.0515414372885359 -1.98607164965179 0.0 -0.0404072970101824 -1.979869129496727 0.0 -0.03052890396322258 -1.972486929312172 0.0 -0.0218009285450232 -1.965885969147148 0.0 -0.01399545394988634 -1.9614060090351493 0.0 -0.006843793371094831 -2.272626176815653 0.0 -0.0857933381448334 -2.309315737732892 0.0 -0.07399414984985371 -2.326583738164592 0.0 -0.0625143135628578 -2.330521458263035 0.0 -0.0512640892816022 -2.326390138159752 0.0 -0.041021685025542105 -2.3182434579560853 0.0 -0.03151387038784674 -2.3090798177269938 0.0 -0.022864471771611782 -2.301071417526784 0.0 -0.014863929571598232 -2.295696497392411 0.0 -0.00731824498295612 -2.651450226286254 0.0 -0.0837319740932993 -2.688458707211466 0.0 -0.0749891778747294 -2.704637227615929 0.0 -0.0652895896322397 -2.7065844276646094 0.0 -0.0551525133788128 -2.700146947503672 0.0 -0.045102193127554806 -2.689719067242975 0.0 -0.0354262928856573 -2.678549826963744 0.0 -0.02618009225450229 -2.6689596667239903 0.0 -0.01723851443096285 -2.662575226564379 0.0 -0.00855839181395979 -3.066554356663857 0.0 -0.09072855826821391 -3.1030478375761943 0.0 -0.08481334212033351 -3.117568277939205 0.0 -0.0764927299123182 -3.1171383579284573 0.0 -0.0665010096625252 -3.108068557701712 0.0 -0.0556053813901345 -3.095107557377687 0.0 -0.0444592331114808 -3.081711637042789 0.0 -0.03330042443251059 -3.07040487676012 0.0 -0.02216760255419005 -3.062926196573153 0.0 -0.01108213987705349 -3.5179204079480084 0.0 -0.113759282843982 -3.5533368088334183 0.0 -0.10902084272552101 -3.565957369148932 0.0 -0.1005336905133422 -3.563036049075899 0.0 -0.0889048062226201 -3.551225368780632 0.0 -0.07539512588487811 -3.5356011283900264 0.0 -0.060876425521910596 -3.519868167996702 0.0 -0.0459306331482658 -3.506728847668219 0.0 -0.030761838769045955 -3.498087007452173 0.0 -0.015415927985398191 -4.00555410013885 0.0 -0.1582446119561152 -4.03958570098964 0.0 -0.15310209182755222 -4.050560101264001 0.0 -0.14176083154402072 -4.045400901135021 0.0 -0.1259225511480637 -4.03103930077598 0.0 -0.1070903466772586 -4.012787300319681 0.0 -0.08691565417289131 -3.9947068198676683 0.0 -0.0657044616426115 -3.97971889949297 0.0 -0.043969041099226 -3.9698910592472743 0.0 -0.02200547055013675 -4.52996571324914 0.0 -0.227963645699091 -4.5630793140769805 0.0 -0.21943271748581783 -4.57293811432345 0.0 -0.20302389307559723 -4.56619651415491 0.0 -0.1803624325090607 -4.549821313745531 0.0 -0.1530745198268629 -4.52923091323077 0.0 -0.12363866709096662 -4.508942512723561 0.0 -0.0934964303374107 -4.49216251230406 0.0 -0.0626828735670718 -4.48114091202852 0.0 -0.03168259039206474 -5.09235452730886 0.0 -0.3248931481223285 -5.12533852813346 0.0 -0.31077738776943453 -5.13531932838298 0.0 -0.28568535514213367 -5.1283497282087405 0.0 -0.2511364742784117 -5.11052052776301 0.0 -0.2134379933359497 -5.08805532720138 0.0 -0.1739206003480149 -5.06597492664937 0.0 -0.1315793792894844 -5.04766132619153 0.0 -0.08796194219904852 -5.03568852589221 0.0 -0.043925181098129505 -5.69420494235512 0.0 -0.456935851423396 -5.72920694323017 0.0 -0.42539621063490496 -5.7406601435165 0.0 -0.3886364337159106 -5.7341209433530205 0.0 -0.3422649005566223 -5.71612974290324 0.0 -0.2902380312559506 -5.69270774231769 0.0 -0.2349488298737206 -5.66941814173545 0.0 -0.1775450884386271 -5.649739741243491 0.0 -0.12020575100514369 -5.636999340924981 0.0 -0.060463001511575 -6.3390837584770905 0.0 -0.6158676953966921 -6.37632735940818 0.0 -0.566611494165287 -6.39130455978261 0.0 -0.510157972753949 -6.386176559654411 0.0 -0.450977531274438 -6.36943695923592 0.0 -0.38241000956025 -6.34639815865995 0.0 -0.3103204557580112 -6.32283575807089 0.0 -0.2349879338746982 -6.303053357576331 0.0 -0.1574870159371753 -6.29004455725111 0.0 -0.0788010659700266 -7.02781017569525 0.0 -0.79403801985095 -7.06871817671795 0.0 -0.724855018121375 -7.08800137720003 0.0 -0.650318976257974 -7.08687777717194 0.0 -0.572424294310607 -7.072138976803471 0.0 -0.489922612248065 -7.05101577627539 0.0 -0.39776786194419633 -7.02852657571316 0.0 -0.3024391475609785 -7.009368175234201 0.0 -0.20366490509162252 -6.99667537491688 0.0 -0.1023555545588888 -7.75749819393745 0.0 -0.984361104609027 -7.80625539515638 0.0 -0.8942068223551701 -7.832005395800131 0.0 -0.8018108600452709 -7.83662899591572 0.0 -0.705456217636405 -7.82642539566063 0.0 -0.6055164951379121 -7.80949579523739 0.0 -0.494187172354679 -7.79023059475576 0.0 -0.37743430943585754 -7.77330259433256 0.0 -0.2549886783747168 -7.761908994047721 0.0 -0.1283333912083347 -8.52777661319441 0.0 -1.16841882921047 -8.58711661467791 0.0 -1.062461586561539 -8.62236941555923 0.0 -0.9569064239226599 -8.635786615894661 0.0 -0.845238701130967 -8.63454301586357 0.0 -0.725461738136543 -8.62376061559401 0.0 -0.5977590149439751 -8.61055461526386 0.0 -0.457874291446857 -8.59793021494825 0.0 -0.31055336776383397 -8.589242614731061 0.0 -0.15686569592164232 -9.335113033377821 0.0 -1.3364079934101991 -9.407610635190261 0.0 -1.2292490307312252 -9.458028636450711 0.0 -1.112777827819445 -9.48481383712034 0.0 -0.990015704750392 -9.49583143739578 0.0 -0.850935301273382 -9.49565463739136 0.0 -0.705512497637812 -9.49194583729864 0.0 -0.542196973554924 -9.48645103716127 0.0 -0.36860016121500383 -9.48220303705507 0.0 -0.1864377206609429 -10.17727985443199 0.0 -1.4955461973886541 -10.26759505668987 0.0 -1.388038754700968 -10.337380658434512 0.0 -1.265389471634736 -10.38408385960209 0.0 -1.135581708389542 -10.41290146032253 0.0 -0.9817726245443151 -10.427836260695901 0.0 -0.810949260273731 -10.43653506091337 0.0 -0.624859295621482 -10.44183586104589 0.0 -0.42641689066042204 -10.443979861099491 0.0 -0.21607154140178844 -11.05029267625731 0.0 -1.639185000979624 -11.16374547909363 0.0 -1.53315803832895 -11.259310281482751 0.0 -1.4114127552853182 -11.33046748326168 0.0 -1.267607431690185 -11.38369388459234 0.0 -1.101362547534063 -11.42173348554333 0.0 -0.9128215828205392 -11.44642668616066 0.0 -0.703846617596165 -11.46497828662445 0.0 -0.47778245194456104 -11.47668868691721 0.0 -0.244027286100682 -11.95100749877518 0.0 -1.7630730040768239 -12.094058702351461 0.0 -1.6636858415921452 -12.21915990547899 0.0 -1.535512478387811 -12.32316150807903 0.0 -1.3828209145705221 -12.40722231018055 0.0 -1.2056098301402451 -12.473941511848532 0.0 -1.0016416650410411 -12.521494713037361 0.0 -0.773853779346344 -12.557927113948171 0.0 -0.5251407331285181 -12.58006231450155 0.0 -0.2654463346361582 -12.87571152189278 0.0 -1.861204006530099 -13.05384392634609 0.0 -1.7634750840868763 -13.21595793039894 0.0 -1.6319719607992982 -13.359239533980979 0.0 -1.4720833168020822 -13.48143513703587 0.0 -1.286552952163823 -13.58332713958317 0.0 -1.070341026758525 -13.66014114150352 0.0 -0.828433820710845 -13.71888914297222 0.0 -0.5628584540714611 -13.75494114387352 0.0 -0.2832940190823503 -13.8207128772384 0.0 -1.9249826649625599 -14.03890221706455 0.0 -1.826165670130347 -14.24527457823126 0.0 -1.6931259815892261 -14.434526547271881 0.0 -1.526953257553046 -14.60206358851624 0.0 -1.334959622801377 -14.745905930704641 0.0 -1.111419393838974 -14.860577805373183 0.0 -0.856423868865469 -14.94409233690836 0.0 -0.585262361786768 -14.99697706974082 0.0 -0.29343739017862486 -14.7817203427026 0.0 -1.943571860876268 -15.04576359896472 0.0 -1.84466985339591 -15.302597555654458 0.0 -1.7102376559450618 -15.542723175996242 0.0 -1.5436318212052922 -15.764218714523759 0.0 -1.342597477116372 -15.95661378267 0.0 -1.1169405446748002 -16.1142634137003 0.0 -0.8610452280932249 -16.229897600771878 0.0 -0.581076036106425 -16.3001027226015 0.0 -0.29569776065851955 -15.75472739918793 0.0 -1.9067081892226578 -16.06996722685508 0.0 -1.8109192991394043 -16.3833341976512 0.0 -1.67525014276048 -16.6821616812734 0.0 -1.5059890857591942 -16.95991904462284 0.0 -1.3046275174976232 -17.2077352903456 0.0 -1.07596383141104 -17.41199992975416 0.0 -0.8282586147482801 -17.564657407994602 0.0 -0.5600939250585081 -17.65899107852682 0.0 -0.2789299738772449 -16.73622531612277 0.0 -1.809794269384217 -17.1055463546566 0.0 -1.70996141551931 -17.48324934333694 0.0 -1.577431961066792 -17.84600469828825 0.0 -1.405468075662823 -18.18588578829856 0.0 -1.20653909705992 -18.48990615558925 0.0 -0.986856525897803 -18.74355943099435 0.0 -0.75285219380384 -18.93425042278996 0.0 -0.5080543646520861 -19.05166327552143 0.0 -0.2573941413739203 -17.71911597634934 0.0 -1.651478401766774 -18.14969410109408 0.0 -1.5481667133455461 -18.594413262391196 0.0 -1.407274848773872 -19.026656786875083 0.0 -1.228323789356412 -19.432390586319862 0.0 -1.029705533682154 -19.796065980417097 0.0 -0.823422081900099 -20.10021766645268 0.0 -0.614812069576868 -20.32938871290372 0.0 -0.40788382702190795 -20.471773735318248 0.0 -0.20342122883995148 -18.67905583710192 0.0 -1.439998311436776 -19.181516079651658 0.0 -1.3172136060564479 -19.699712577028798 0.0 -1.14948674849088 -20.20510068065778 0.0 -0.9591424801243019 -20.67799316385048 0.0 -0.7631490318004021 -21.10176217280754 0.0 -0.5781271562611231 -21.45690375685395 0.0 -0.4125015558378 -21.72640314701136 0.0 -0.2600877259786344 -21.892260050766602 0.0 -0.125211788853459 -19.5827595391176 0.0 -1.1332210457221361 -20.17055775623111 0.0 -0.984764905227632 -20.76925918269952 0.0 -0.794632964052768 -21.348264746572482 0.0 -0.59196957332363 -21.8884981762356 0.0 -0.40376108046078996 -22.368559575831302 0.0 -0.247796659430021 -22.76591762516416 0.0 -0.1347281209059128 -23.067893646532163 0.0 -0.07232437783164641 -23.26193278407784 0.0 -0.026978404103441 -20.39455515006654 0.0 -0.725162119088112 -21.0611095089448 0.0 -0.56139368415352 -21.74705915360814 0.0 -0.3338695297871956 -22.396479220369283 0.0 -0.1035059212308576 -22.998590306972776 0.0 0.0767376205635241 -23.5228635441502 0.0 0.20665131446237442 -23.9520766238432 0.0 0.23317093103584 -24.2752249531216 0.0 0.18451409964895601 -24.4948734031815 0.0 0.1113530228298208 -21.09183096498996 0.0 -0.18880645195201443 -21.834282431789372 0.0 0.01401867462800289 -22.59434883288705 0.0 0.261798550364847 -23.302636424114517 0.0 0.495221896229808 -23.93563677904126 0.0 0.67156208584563 -24.49162535249056 0.0 0.774504232103712 -24.9479355792095 0.0 0.72507543029157 -25.297957928018803 0.0 0.541245641275248 -25.50733545503715 0.0 0.293679585031437 -21.67821722863908 0.0 0.482575822264989 -22.48015469005056 0.0 0.7426483635730561 -23.28464648159688 0.0 1.0178636725616999 -24.02743250820845 0.0 1.234374183537735 -24.69915494379767 0.0 1.363129372007437 -25.27854329467216 0.0 1.371848552918896 -25.75878717424084 0.0 1.180578800018548 -26.114416345969918 0.0 0.879571665990616 -26.295924446403742 0.0 0.495927452770006 -22.112361590877 0.0 1.25472564699876 -22.9743929359608 0.0 1.621687175128728 -23.82841846209372 0.0 1.9759489076298358 -24.60540759667074 0.0 2.2135121314337636 -25.29069794065181 0.0 2.2590490780069468 -25.86575857248621 0.0 2.1793563695890983 -26.35481409689184 0.0 1.8706242746863282 -26.68895450007772 0.0 1.403927916264934 -26.891433657294666 0.0 0.7417364194500949 -22.255748255374108 0.0 1.9765392712888499 -23.217777135256316 0.0 2.528457293501616 -24.130730885034 0.0 2.9993116823235 -24.96038079144831 0.0 3.280814599369713 -25.70035255409868 0.0 3.325992949852248 -26.28985807070424 0.0 3.159908615561184 -26.777671422480086 0.0 2.6850536090515167 -27.1296450536727 0.0 1.9761172984007402 -27.3779801393592 0.0 1.02700438676368 -21.820314946624 0.0 2.06395923351372 -22.950514160336567 0.0 2.9404913443984877 -23.999860349938 0.0 3.59554172972164 -24.87013893403024 0.0 3.909000595083434 -25.606474630371903 0.0 3.8342393113848305 -26.27297958839157 0.0 3.427050263303853 -26.894248846690704 0.0 2.777509951713816 -27.384619277612458 0.0 1.953650655270372 -27.689544586513772 0.0 1.037859161819829 -19.59567950403125 0.0 0.27350500840061254 -20.83154620712081 0.0 1.2732720535106041 -22.15943178450872 0.0 1.977687466762072 -23.51179815722262 0.0 2.25966693325122 -24.697327334397333 0.0 2.262986462492844 -25.640946741900837 0.0 2.062377673706658 -26.389756804543076 0.0 1.678364188875708 -26.891435411496865 0.0 1.1936982180971438 -27.197986982953502 0.0 0.619785285118174 -12.663747860188641 0.0 1.093182137076342 -13.699789613299801 0.0 2.094389061327276 -14.796443870366 0.0 2.7692392789427003 -15.860301362136 0.0 3.05164735625408 -16.82355818570846 0.0 2.97711810167046 -17.64362320157802 0.0 2.63316502393962 -18.29567644932105 0.0 2.11040169153102 -18.7668526483692 0.0 1.470738330449892 -19.05127720372197 0.0 0.754970217651567 -7.476515496965741 0.0 2.5103108531054423 -8.2282437034478 0.0 3.4320892579688 -9.0579289525243 0.0 3.98516499125744 -9.89451430066428 0.0 4.103170708764609 -10.67881316339432 0.0 3.8471123198371497 -11.367664070634058 0.0 3.3205070644577193 -11.92970798050716 0.0 2.6192274268226763 -12.34374709697766 0.0 1.806568377179202 -12.59686171033794 0.0 0.921951162410985 -4.192615475815599 0.0 3.4882377480590803 -4.57391718386281 0.0 4.39433020887543 -5.04610083408467 0.0 4.895574817811339 -5.56334846082257 0.0 4.927868303600599 -6.08019873088407 0.0 4.56412219758339 -6.55749544981932 0.0 3.914432594163906 -6.96211571687775 0.0 3.0768782113046247 -7.2685314470898605 0.0 2.1177274960089543 -7.459206165708361 0.0 1.0794493607898 -1.48638390770954 0.0 3.881119311755805 -1.5235054294116541 0.0 4.8390303072376195 -1.6422175238704018 0.0 5.36773311721098 -1.823972594243136 0.0 5.404037556229119 -2.0428406163367168 0.0 5.01960143761558 -2.270465950149656 0.0 4.322268176127279 -2.479118471181128 0.0 3.410173075047116 -2.6455203449235754 0.0 2.35373768850341 -2.7524068321607844 0.0 1.201782703206052 1.6179872080814002 0.0 3.7276731465943973 1.817155273505153 0.0 4.77592525715029 1.972736017407124 0.0 5.388300014780401 2.076563636662515 0.0 5.49901648922535 2.131114015793154 0.0 5.16754647179148 2.147474837457534 0.0 4.4928946799661 2.14007772153476 0.0 3.5716848094856255 2.1231016844461017 0.0 2.4784734832060797 2.107894940443447 0.0 1.269506209037109 5.417492225226 0.0 3.19437131648457 5.71932966284757 0.0 4.327750373282489 6.037798153904521 0.0 5.041755823806301 6.341876509248 0.0 5.260649177664 6.61041969208113 0.0 5.02541907704697 6.83271243968526 0.0 4.4233293707634305 7.004703033595961 0.0 3.548291844693907 7.12589403230122 0.0 2.477706578654274 7.1975242903276095 0.0 1.2738042065710111 9.68203005167015 0.0 2.48048111562484 9.97737740824439 0.0 3.6665050154417753 10.357609648233481 0.0 4.46484453054312 10.775291768883 0.0 4.787820256374 11.18845837804824 0.0 4.657972885493041 11.56406384015148 0.0 4.15175691353364 11.87767661865958 0.0 3.3597671421054405 12.112206800548899 0.0 2.360002179046308 12.256715473824901 0.0 1.2175156842073551 14.02885433956356 0.0 1.7566306763389439 14.259376375921919 0.0 2.953959703682976 14.63636507360544 0.0 3.7981026394834045 15.102232478591 0.0 4.1944798519695 15.59881118313607 0.0 4.15251603098557 16.074584847204818 0.0 3.741536917063768 16.48699412465004 0.0 3.049023309841436 16.80372477078912 0.0 2.15142823599472 17.00245918597738 0.0 1.112814568556427 18.17229835807126 0.0 1.133254521331738 18.33109060999554 0.0 2.305015327250103 18.67928345825112 0.0 3.151600655295816 19.15394287199904 0.0 3.580239597679584 19.6872889334016 0.0 3.5948821366208636 20.21607455096358 0.0 3.262336394881365 20.68544940356125 0.0 2.668316325445375 21.052013131806678 0.0 1.886542275941315 21.28469891762751 0.0 0.976837115821468 21.955049518069202 0.0 0.6583498884986401 22.06397354759104 0.0 1.777104643202876 22.37637709600964 0.0 2.5895417807735304 22.81179478010924 0.0 3.0113495214620096 23.31576181505963 0.0 3.0497045693139664 23.80552097948406 0.0 2.773050988816254 24.23861097544304 0.0 2.266094558338788 24.56991695551395 0.0 1.6007867648503789 24.781029866345882 0.0 0.828323544717802 24.727852125636748 0.0 0.24181728375344438 24.668258450621998 0.0 1.295493513664712 24.7705203967389 0.0 2.05756069274748 24.967340341639197 0.0 2.462804020693608 25.21127578000404 0.0 2.512215665918856 25.458346703409962 0.0 2.297163594870792 25.701727498899544 0.0 1.8839309951876042 25.9098992446734 0.0 1.3336464608456882 26.05202338049832 0.0 0.691096944042888 25.7679610245343 0.0 -0.2634792006981758 25.60193363111418 0.0 0.759029747019441 25.57092855111314 0.0 1.5021159600840919 25.60960578850796 0.0 1.9035214201756119 25.74332142354973 0.0 1.978678992144433 25.92400431528462 0.0 1.819176539740965 26.09058087917732 0.0 1.493073889362809 26.227798480778542 0.0 1.056269717199608 26.321627094955062 0.0 0.5451625716620819 26.13818997544041 0.0 -0.766797633200205 25.936864931713917 0.0 0.1996085365183392 25.84019520640608 0.0 0.915195437096544 25.836923698863032 0.0 1.296182305375488 25.93815796749447 0.0 1.420318959987096 26.05815444407886 0.0 1.340348689781424 26.189839325336003 0.0 1.1142567810980561 26.298486546359097 0.0 0.787134722745615 26.3749781080953 0.0 0.40677485418204007 26.281541599208477 0.0 -1.1632455270233761 26.030682913719563 0.0 -0.2880288075621092 25.96199646277648 0.0 0.3578117322094352 25.94919341687392 0.0 0.753881645276808 25.97551921845664 0.0 0.905019837986708 26.047637201166978 0.0 0.8651701660537952 26.13714100088203 0.0 0.7097850906771801 26.2079525585997 0.0 0.5099729183239111 26.2563552099199 0.0 0.26566911910393654 26.3362750273016 0.0 -1.527916222715115 26.027953001430202 0.0 -0.702652198394111 25.9582815386032 0.0 -0.070990014712264 25.92653651873381 0.0 0.323123728991201 25.9345526968387 0.0 0.46922913605722 25.982854638211588 0.0 0.47370281879512194 26.03218746910019 0.0 0.3951391747860718 26.0753192939888 0.0 0.27369294897463203 26.108638702819192 0.0 0.1398111447605859 26.309329556608983 0.0 -1.789572659870709 26.024309798210464 0.0 -1.109702207932884 25.864452274916793 0.0 -0.533524000063635 25.79370602664324 0.0 -0.1542873823541364 25.81321992817053 0.0 0.0746046505383762 25.847345980847038 0.0 0.17134421888229362 25.86620002882158 0.0 0.1597539238528323 25.876760574181862 0.0 0.1081896062909634 25.87288322571435 0.0 0.0488281232396286 26.30184600520413 0.0 -1.9547327652562259 25.90739799954864 0.0 -1.370278113973644 25.73940624536634 0.0 -0.8991113192897249 25.660018334925 0.0 -0.54852000038424 25.610761902407642 0.0 -0.3349410101706288 25.571692238062077 0.0 -0.18049339819866958 25.57757560802136 0.0 -0.0430042677045432 25.56788344777107 0.0 -0.013238051592658411 25.550510816967837 0.0 -0.00624123863808984 26.29919225917116 0.0 -2.0621795946868833 25.7850022611824 0.0 -1.5856764083804802 25.54267428728168 0.0 -1.16819719584416 25.406686106662722 0.0 -0.82664442009696 25.31823818251844 0.0 -0.574895758722792 25.24807436216345 0.0 -0.40331742536860493 25.1749388900802 0.0 -0.27364635169783896 25.1071348545149 0.0 -0.1544221837513284 25.1044916864433 0.0 -0.050155747688235 26.402216312171802 0.0 -2.062815873269935 25.668755214463097 0.0 -1.730673220165482 25.291335489307002 0.0 -1.3554524382978501 25.08435998601302 0.0 -1.066230201058568 24.9335284862994 0.0 -0.79310366289484 24.806102161827518 0.0 -0.5659358452182399 24.70191758985272 0.0 -0.3787231428019536 24.618660296969917 0.0 -0.23112789643602238 24.56192851493742 0.0 -0.1098436639702441 26.73690879699243 0.0 -1.9678837412088992 25.64232929978076 0.0 -1.70032701251574 25.066498836570958 0.0 -1.483013219633208 24.73468563304488 0.0 -1.195158295571298 24.5000101290813 0.0 -0.96703941659886 24.3040149608388 0.0 -0.7085947038683701 24.15203573550975 0.0 -0.4825270016073 24.036212033945098 0.0 -0.27377478422510704 23.96911173470424 0.0 -0.09699890357424479 27.367776627387027 0.0 -1.8303280320062578 25.834825119180778 0.0 -1.594271260174923 24.94243646727588 0.0 -1.424617083965712 24.413354272293358 0.0 -1.263910904376816 24.05496905619516 0.0 -1.009438365912057 23.78963994502173 0.0 -0.811063046385507 23.5759572381312 0.0 -0.56109389086008 23.417892228204 0.0 -0.324083854013904 23.356929523399288 0.0 -0.1318849682875164 28.43734158692674 0.0 -1.638062132042414 26.35677891299316 0.0 -1.4403649544842518 25.06070262219092 0.0 -1.299327016235817 24.266009122060836 0.0 -1.148680948879272 23.7050274368052 0.0 -1.0020948563754601 23.318799326370918 0.0 -0.792305746232904 23.010710125491197 0.0 -0.591870515699008 22.819965480251522 0.0 -0.35383867460941437 22.75211372809088 0.0 -0.17375722305630079 30.09639192125178 0.0 -1.300567238267253 27.47901670511932 0.0 -1.211846440569732 25.643966769831717 0.0 -1.098366342632366 24.40215363948638 0.0 -1.0087468448355261 23.575503990630803 0.0 -0.849304825805904 22.97439312494225 0.0 -0.7055701216050501 22.59542032623561 0.0 -0.5484541592020331 22.3269423569652 0.0 -0.3435610638380166 22.22827327224 0.0 -0.1977127760580075 32.68185207944496 0.0 -1.0695743360210999 29.243804693584618 0.0 -0.88820407924554 26.782934460456598 0.0 -0.813225211069005 25.100574364957648 0.0 -0.7743843060192689 23.84197250269032 0.0 -0.680571224228808 22.97435226006432 0.0 -0.519972015356016 22.41901463046696 0.0 -0.3998052296786592 22.052594894364002 0.0 -0.303778578923658 21.937464156712018 0.0 -0.1536061923484722 36.3798384294672 0.0 -1.199570511724344 32.10921016860528 0.0 -0.6970991703654239 28.9172966620842 0.0 -0.526464440547309 26.448233821585557 0.0 -0.41564482284869997 24.72784262319876 0.0 -0.3937013434460076 23.500529858117158 0.0 -0.33075426831466676 22.6872255752835 0.0 -0.1884980319755925 22.25411080335795 0.0 -0.0907968420487785 21.93438710973957 0.0 -0.0430622355768573 40.536481561921995 0.0 -1.660481090758763 35.85920648127126 0.0 -0.8203888121084779 31.96215082435694 0.0 -0.3862357054644336 28.7428257981378 0.0 -0.073505603854862 26.364896644576458 0.0 0.0484962169708718 24.663848045831532 0.0 0.11686992792312151 23.57645858113 0.0 0.1016622903365615 22.968725715164002 0.0 0.11781058110908 22.71289439601908 0.0 0.120114704116682 39.820110865584155 0.0 -1.135966673346696 35.6721339055932 0.0 -0.48108142202616 31.933756486628535 0.0 0.1107299530227482 28.98212607493508 0.0 0.40167992155023197 26.62550389487836 0.0 0.643556438533097 25.144885333250812 0.0 0.66647746370144 24.2124684771179 0.0 0.60299730190665 23.90507459721506 0.0 0.48205525595744403 35.52805418275945 0.0 0.08388459055718689 32.312529077011426 0.0 0.516532516586957 29.67904180657899 0.0 0.8924835555145479 27.85303314932125 0.0 1.009114249381472 26.59545554295924 0.0 0.94010104351695 25.845518308071203 0.0 0.6752097478306 32.9922680847646 0.0 1.0340702576173502 31.113343949871357 0.0 1.284568181718627 29.86025548561632 0.0 1.286784739957296 29.359718655382082 0.0 0.8701826252081761 -0.7222824180570601 0.0 4.40777531019438e-09 -0.722716938067923 0.0 0.0037739005743475124 -0.7238926180973151 0.0 0.0080525362013134 -0.725499538137488 0.0 0.01317680072942001 -0.726879538171988 0.0 0.019776729294418222 -0.7272228581805711 0.0 0.02786433189660828 -0.725214978130374 0.0 0.03809566575239162 -0.7193935379848381 0.0 0.0502535932563398 -0.9116703427917581 0.0 -2.21052965526324e-07 -0.912306982807674 0.0 0.00514075892851897 -0.9140491828512292 0.0 0.01080656667016416 -0.9164966629124162 0.0 0.017443220836080513 -0.918877822971945 0.0 0.02564494984112373 -0.920157823003945 0.0 0.035587222089680536 -0.9187763429694079 0.0 0.0477262731931568 -0.9127052628176311 0.0 0.062461361561534 -1.137167748429193 0.0 3.2669014016725333e-07 -1.138011788450294 0.0 0.006050852151271301 -1.140382988509574 0.0 0.012547621513690531 -1.14375042859376 0.0 0.02009233290230831 -1.147223508680587 0.0 0.02903835232595879 -1.149457188736429 0.0 0.0398567449964186 -1.148729348718233 0.0 0.0525707973142699 -1.142509108562727 0.0 0.0676633856915846 -1.384901834622545 0.0 -2.17584245439606e-07 -1.385964634649115 0.0 0.0064719721617993 -1.388977834724445 0.0 0.013415801935395039 -1.3933021948325541 0.0 0.02131229413280734 -1.3979095949477391 0.0 0.030445987561149673 -1.401233315030832 0.0 0.0412546290313657 -1.401203555030088 0.0 0.0539387013484675 -1.3949062748726562 0.0 0.0683891257097281 -1.657621441440535 0.0 -3.981047579526187e-07 -1.658924521473112 0.0 0.006656857766421441 -1.6626244015656089 0.0 0.013753450343836252 -1.668012481700311 0.0 0.021624692140617293 -1.673887481847186 0.0 0.03067585916689646 -1.678514121962852 0.0 0.0410891330272283 -1.6794064019851591 0.0 0.05310362532759061 -1.673356281833906 0.0 0.0665446056636151 -1.959825168995628 0.0 -6.8627721715693e-07 -1.9614060090351493 0.0 0.0068427041710676 -1.9658829291470719 0.0 0.013994549549863731 -1.9724878893121962 0.0 0.02180109374502733 -1.9798712094967792 0.0 0.0305289247632231 -1.9860699296517472 0.0 0.0404067730101693 -1.9883612097090289 0.0 0.051542317288557904 -1.9830494495762352 0.0 0.0638616575965414 -2.2938086173452144 0.0 4.85719292142982e-07 -2.295698777392468 0.0 0.00731903338297583 -2.3010734975268363 0.0 0.014862041571551032 -2.3090834177270843 0.0 0.02286505177162628 -2.3182440579561 0.0 0.03151360838784019 -2.326389578159738 0.0 0.0410214690255367 -2.330520498263011 0.0 0.0512641332816033 -2.3265791381644774 0.0 0.06251212556280311 -2.6603413465085324 0.0 1.238484070962101e-06 -2.6625729465643224 0.0 0.00855914981397874 -2.668958546723962 0.0 0.0172367444309186 -2.678549826963744 0.0 0.026180056254501392 -2.689722907243071 0.0 0.03542560728564016 -2.700146747503667 0.0 0.045102081127552 -2.7065844276646094 0.0 0.0551515253787881 -2.704638347615957 0.0 0.0652914056322851 -3.060319396507983 0.0 -9.76592144414803e-07 -3.06292447657311 0.0 0.01108142387703559 -3.0704060367601493 0.0 0.02216719895417996 -3.0817120370427995 0.0 0.03330143763253592 -3.09510447737761 0.0 0.044459713111492806 -3.108068917701721 0.0 0.0556054653901366 -3.11713647792841 0.0 0.0665010296625257 -3.117567917939196 0.0 0.0764950539123763 -3.4950802873770055 0.0 5.6358841408971e-07 -3.498091207452278 0.0 0.015415290385382252 -3.5067261676681523 0.0 0.030760300769007504 -3.519867407996683 0.0 0.0459303491482587 -3.5355996083899885 0.0 0.0608765455219136 -3.5512276487806895 0.0 0.07539376988484421 -3.5630349290758714 0.0 0.0889061302226532 -3.5659611691490274 0.0 0.1005377545134438 -3.9664948591623688 0.0 -1.34892563372314e-06 -3.969889179247227 0.0 0.02200210135005252 -3.979715059492874 0.0 0.0439664050991601 -3.994699179867477 0.0 0.0657038336425958 -4.012789700319741 0.0 0.08691611017290271 -4.0310441007761 0.0 0.10709091867727291 -4.04540130113503 0.0 0.1259239351480983 -4.050554501263861 0.0 0.14175888754397212 -4.477349711933741 0.0 -2.260682296517056e-06 -4.48114171202854 0.0 0.03168594319214856 -4.49216651230416 0.0 0.0626833455670836 -4.50893731272343 0.0 0.0934964903374122 -4.52922851323071 0.0 0.12363769109094219 -4.549824513745611 0.0 0.15307491182687272 -4.56619891415497 0.0 0.18036106050902642 -4.57293891432347 0.0 0.2030231530755787 -5.031492925787321 0.0 -3.331959043298974e-06 -5.03569132589228 0.0 0.043926025098150606 -5.0476593261914795 0.0 0.0879592381989809 -5.06597692664942 0.0 0.1315788312894707 -5.0880561272014 0.0 0.1739206483480161 -5.11051932776298 0.0 0.213436965335924 -5.1283477282086904 0.0 0.25113719027842957 -5.13531692838292 0.0 0.2856821831420544 -5.6325945408148606 0.0 -2.823953470598835e-06 -5.63700054092501 0.0 0.06046288951157221 -5.64973934124348 0.0 0.12020697900517441 -5.66941694173542 0.0 0.1775436084385901 -5.69270534231763 0.0 0.23494942587373552 -5.71612534290313 0.0 0.29023757525593924 -5.73412534335313 0.0 0.3422633485565835 -5.74066214351655 0.0 0.3886378137159451 -6.28561295714032 0.0 1.74854364371359e-06 -6.29005295725132 0.0 0.07879879796996991 -6.303054557576361 0.0 0.1574867519371687 -6.322831358070781 0.0 0.2349865498746636 -6.346401758660041 0.0 0.3103208637580214 -6.3694389592359695 0.0 0.3824105815602643 -6.386180159654501 0.0 0.450980211274505 -6.39129375978234 0.0 0.510153572753839 -6.99221977480549 0.0 -2.544061943601547e-06 -6.996674574916861 0.0 0.1023508945587723 -7.009368175234201 0.0 0.2036662170916553 -7.02853097571327 0.0 0.3024383875609595 -7.0510081762752 0.0 0.3977681979442047 -7.07213297680332 0.0 0.48992201224805 -7.08688297717207 0.0 0.572426374310659 -7.088003777200091 0.0 0.650320456258011 -7.757873793946841 0.0 -6.184936554623411e-06 -7.7618965940474105 0.0 0.12833409520835232 -7.773297394332431 0.0 0.25498801037470015 -7.79023699475592 0.0 0.3774369094359225 -7.809500995237521 0.0 0.49418697235467407 -7.826422995660571 0.0 0.605514535137863 -7.83663739591593 0.0 0.705459097636477 -7.83201299580032 0.0 0.801813140045328 -8.58616501465412 0.0 -9.93385784834644e-07 -8.589238214730951 0.0 0.156869163921729 -8.59793021494825 0.0 0.3105506037637649 -8.61055941526398 0.0 0.45787281144682 -8.62375981559399 0.0 0.597755534943888 -8.63456461586411 0.0 0.725458098136452 -8.635790615894761 0.0 0.8452371811309289 -8.62237101555927 0.0 0.956908143922703 -9.48059543701488 0.0 2.3893015797325383e-06 -9.48220463705511 0.0 0.1864369926609247 -9.48644903716122 0.0 0.3685980412149508 -9.49194063729851 0.0 0.542194373554859 -9.49565463739136 0.0 0.7055094976377371 -9.49584543739613 0.0 0.8509282212732051 -9.48481783712044 0.0 0.9900156247503902 -9.45804143645103 0.0 1.112780987819524 -10.44454986111374 0.0 -1.405828555145713e-06 -10.443982261099551 0.0 0.21606741340168523 -10.441834661045862 0.0 0.426410290660257 -10.436538260913451 0.0 0.624856855621421 -10.42783546069588 0.0 0.8109436202735901 -10.41292386032309 0.0 0.981763304544082 -10.384086259602151 0.0 1.1355782683894562 -10.337381858434542 0.0 1.265397111634927 -11.480309487007732 0.0 3.5694306492357638e-06 -11.47666588691664 0.0 0.2440312221007804 -11.4649562866239 0.0 0.477784491944612 -11.446422686160561 0.0 0.7038413375960331 -11.421732685543311 0.0 0.912813702820342 -11.38370148459253 0.0 1.101355027533875 -11.330476683261912 0.0 1.2676096316902399 -11.259294281482351 0.0 1.411413115285327 -12.588484314712101 0.0 -5.4380645359516105e-06 -12.58004631450115 0.0 0.2654409226360229 -12.557934713948361 0.0 0.525138773128469 -12.52149151303728 0.0 0.773848939346223 -12.473945911848642 0.0 1.001633665040841 -12.40721151018028 0.0 1.205600750140018 -12.32318510807962 0.0 1.382819794570494 -12.21914950547873 0.0 1.535521718388042 -13.768525944213142 0.0 -6.289042557226061e-06 -13.754927543873182 0.0 0.28329580708239505 -13.718916742972912 0.0 0.562858054071451 -13.66016594150414 0.0 0.8284313407107831 -13.58332713958317 0.0 1.070332466758311 -13.48143953703598 0.0 1.286543992163599 -13.35923193398079 0.0 1.4720784368019602 -13.21593193039829 0.0 1.6319719607992982 -15.01690463037968 0.0 -1.2295175331275759e-06 -14.996958669709079 0.0 0.2934318581690822 -14.944077136884422 0.0 0.5852549217750501 -14.860575005368771 0.0 0.8564198688591691 -14.74590313070002 0.0 1.111411873826566 -14.60207598853763 0.0 1.3349527427895092 -14.434511347242239 0.0 1.526949897546494 -14.245260978204742 0.0 1.6931204615784619 -16.32589972680996 0.0 -1.18186206383574e-06 -16.300090322538573 0.0 0.2956907246228118 -16.22991440085966 0.0 0.581078316118338 -16.11427581376695 0.0 0.8610411080710799 -15.956634982776 0.0 1.1169382646634 -15.764223114547738 0.0 1.342596797112666 -15.542706375907201 0.0 1.543629141191088 -15.302583955583398 0.0 1.710236695940046 -17.68958490590425 0.0 -3.030986827997835e-06 -17.65899747860506 0.0 0.2789268018384672 -17.56468500832994 0.0 0.5600980451085661 -17.411983129555082 0.0 0.8282577347378519 -17.207718490144 0.0 1.07596107137792 -16.959909844513128 0.0 1.304625517473773 -16.682193681652603 0.0 1.505989165760142 -16.3833477978144 0.0 1.67525146277632 -19.091642439560317 0.0 -1.3911222619317199e-07 -19.051654075214838 0.0 0.25738317300841174 -18.93422882206528 0.0 0.508051804566198 -18.743550230685 0.0 0.752851353775595 -18.48992295614911 0.0 0.9868569259111329 -18.18585218717632 0.0 1.2065405371080158 -17.84601549864816 0.0 1.405461435441545 -17.4832785443166 0.0 1.577437881265408 -20.52003274965864 0.0 -2.433014012369875e-06 -20.471773735318248 0.0 0.20341800855055397 -20.32938431250728 0.0 0.407885707191296 -20.10019966483088 0.0 0.614811229501184 -19.7960339775363 0.0 0.823423882062144 -19.43240418754318 0.0 1.0297053336641642 -19.02668118906254 0.0 1.22831990900857 -18.594341655993738 0.0 1.4072760888846658 -21.94854039772407 0.0 5.2222474525587295e-06 -21.89225564970015 0.0 0.1252184184599205 -21.726383142159364 0.0 0.2600878900184208 -21.4568641472559 0.0 0.41250323624499 -21.10172416360869 0.0 0.5781221550507479 -20.67798276133212 0.0 0.763147031316102 -20.20512628685682 0.0 0.9591424801243019 -19.6997293810944 0.0 1.14948218738736 -23.32442606951058 0.0 8.468686228022721e-07 -23.26192998226932 0.0 0.02697950121160576 -23.06786923076488 0.0 0.07232766795635201 -22.765951246871442 0.0 0.1347331161309944 -22.368588794687202 0.0 0.247795394613793 -21.8884737604793 0.0 0.40375767826524 -21.348273552254422 0.0 0.591972134976558 -20.76924717495232 0.0 0.794630242296736 -24.566185135666686 0.0 2.6063787459012166e-07 -24.49487059850032 0.0 -0.1113561520526802 -24.27522214844105 0.0 -0.1845133824520725 -23.9520842365504 0.0 -0.233173078620608 -23.522817467252 0.0 -0.2066496677140996 -22.998573879567967 0.0 -0.0767369594606476 -22.39650686648336 0.0 0.1035075559576032 -21.74707598167632 0.0 0.3338693615065138 -25.574942585076432 0.0 1.817943578966879e-06 -25.507296900529948 0.0 -0.2936807135539915 -25.29788885120888 0.0 -0.5412472477126881 -24.947941603348998 0.0 -0.72507406481995 -24.49160848490752 0.0 -0.7745002963343359 -23.935671719021652 0.0 -0.671559595870016 -23.30259827128992 0.0 -0.495222137195016 -22.5943749374493 0.0 -0.261798694943961 -26.357375913427997 0.0 -3.11935795883088e-06 -26.29592726977128 0.0 -0.495926484758278 -26.114447403008242 0.0 -0.87957243233312 -25.75875490720404 0.0 -1.180578961353732 -25.27852191776664 0.0 -1.371848068913488 -24.69916704392477 0.0 -1.363125540300522 -24.02744299497435 0.0 -1.234377329567505 -23.28468641193612 0.0 -1.0178633902259682 -26.934159419105757 0.0 -5.03992417880076e-06 -26.89144622847636 0.0 -0.7417372710462741 -26.688960582907573 0.0 -1.403923374418646 -26.35481409689184 0.0 -1.870622693151152 -25.86574600131382 0.0 -2.179352882102564 -25.29069347991652 0.0 -2.2590510245096187 -24.605393808954698 0.0 -2.213509982172146 -23.82843671053782 0.0 -1.97593808021967 -27.4454333703126 0.0 -3.2274742849137596e-06 -27.3779581465416 0.0 -1.02700984424064 -27.12962346812685 0.0 -1.9761231224253752 -26.77762458591144 0.0 -2.6850528352299476 -26.289870288938637 0.0 -3.15990706791816 -25.7003370776673 0.0 -3.325988306922834 -24.9604007478993 0.0 -3.280806820426572 -24.130732514132397 0.0 -2.9993151441576 -27.76662367174644 0.0 2.2566900050950557e-06 -27.689531931123057 0.0 -1.037859161819829 -27.384638056588976 0.0 -1.9536485324295478 -26.89425211260087 0.0 -2.7775050936724526 -26.273045314872178 0.0 -3.427045201140129 -25.6064901434577 0.0 -3.83423506569819 -24.870127911562662 0.0 -3.9089970842233903 -23.9998370802637 0.0 -3.59553119713222 -27.30277449259668 0.0 -1.556645269374136e-06 -27.19798085301465 0.0 -0.619784835589325 -26.891448080040877 0.0 -1.193696869510201 -26.389756804543076 0.0 -1.678362063827952 -25.64095450650867 0.0 -2.062372810610175 -24.697352262882422 0.0 -2.262977880555354 -23.511740535561962 0.0 -2.25966305094075 -22.15944077513608 0.0 -1.9776787213336402 -19.146388792084508 0.0 -2.8863626159787318e-06 -19.051336484143018 0.0 -0.7549709535464489 -18.7668730898982 0.0 -1.470736654244514 -18.295689123077402 0.0 -2.11039817558571 -17.64360930130974 0.0 -2.633159177650314 -16.82356268285892 0.0 -2.977110701813794 -15.860274788029999 0.0 -3.05163840282452 -14.796464312016 0.0 -2.7692332282142997 -12.6820049353163 0.0 -6.57141676644702e-06 -12.596875203829049 0.0 -0.921951857530224 -12.34374259914432 0.0 -1.8065713212155698 -11.9296760867658 0.0 -2.6192254641309 -11.367660390582389 0.0 -3.320500031470083 -10.6788360615216 0.0 -3.8471064726367907 -9.89449549145794 0.0 -4.103161713057229 -9.0579142322521 0.0 -3.9851587351417552 -7.52386797455226 0.0 -3.0190838149603503e-06 -7.45921802428425 0.0 -1.079457661792923 -7.2685159082537405 0.0 -2.1177282729507603 -6.9620964977811 0.0 -3.07687408124343 -6.557472550446601 0.0 -3.9144240068991363 -6.08024820996086 0.0 -4.56411401922359 -5.56333537543153 0.0 -4.92786298766049 -5.046069756226229 0.0 -4.89556541266997 -2.789240350710874 0.0 -9.66354099647118e-06 -2.7524177504000784 0.0 -1.201782089821822 -2.645525824493785 0.0 -2.35373572567229 -2.479099578916352 0.0 -3.41017074418328 -2.270462228941984 0.0 -4.32226286011632 -2.042855828323281 0.0 -5.01958916988448 -1.82402878052577 0.0 -5.404018745683259 -1.6422198547464357 0.0 -5.36772044051676 2.102014854774693 0.0 6.73779018471479e-06 2.107898620643437 0.0 -1.269503551114894 2.123142043990425 0.0 -2.4784738512262408 2.140090029775425 0.0 -3.57168166086592 2.147484037978884 0.0 -4.49288977302138 2.13110289337533 0.0 -5.167534613331299 2.076502626835455 0.0 -5.49900422183385 1.9727619834232641 0.0 -5.38828692954392 7.22121646317127 0.0 2.020497927635838e-06 7.197543911099931 0.0 -1.27379893348845 7.12587441152026 0.0 -2.477702450114947 7.004681368970931 0.0 -3.548291068037538 6.8327091695487 0.0 -4.42332691816101 6.61041029043024 0.0 -5.025409675396079 6.341882232000001 0.0 -5.26063160064 6.0377813943993 0.0 -5.04174110814318 12.305470272555679 0.0 9.96666135800104e-06 12.2566836122718 0.0 -1.2175071877931951 12.112182700138039 0.0 -2.3599992379792196 11.87767580169572 0.0 -3.359768694336774 11.56411040712456 0.0 -4.15175691353364 11.1884477574996 0.0 -4.65796471584024 10.775290543434 0.0 -4.787809227333 10.35760638036564 0.0 -4.46483227603872 17.07017769768149 0.0 1.090135781934738e-05 17.0024440615352 0.0 -1.11280057145378 16.80371987390976 0.0 -2.151426848545568 16.48698637125392 0.0 -3.049024697291268 16.074590968311522 0.0 -3.7415376924039494 15.598786290615358 0.0 -4.15251358254091 15.1022728779665 0.0 -4.1944745470010005 14.63633405990316 0.0 -3.798088234434846 21.3643791681548 0.0 8.8973493673244e-06 21.28469443442824 0.0 -0.9768235847109439 21.05199764439102 0.0 -1.886540727199749 20.68546000021875 0.0 -2.6683182817513753 20.216083924933052 0.0 -3.262337536060257 19.687310534302082 0.0 -3.5948809546848 19.15389314911296 0.0 -3.580237233804672 18.67928508851076 0.0 -3.1515930745884897 24.85002276830381 0.0 6.93392041430561e-06 24.78106242466108 0.0 -0.828314631879016 24.56988724603892 0.0 -1.600783834600787 24.23855521930908 0.0 -2.2660949653178677 23.80552260740158 0.0 -2.773052372546146 23.315756931304552 0.0 -3.049706115836408 22.81179315219028 0.0 -3.0113491144822695 22.37634290969132 0.0 -2.58953771097373 26.103202619410652 0.0 3.05114007670152e-06 26.05201119005592 0.0 -0.691091417709 25.90983707340798 0.0 -1.333644225930918 25.70168889582624 0.0 -1.883931198361674 25.45833126217608 0.0 -2.297167861527522 25.21128065618532 0.0 -2.512216234806672 24.967365128894038 0.0 -2.462805199104084 24.770493984076648 0.0 -2.05755817338585 26.355015866293243 0.0 2.011295599287296e-06 26.32159910180548 0.0 -0.5451596506377779 26.22774614574041 0.0 -1.056268094407728 26.090525298555434 0.0 -1.493073402525245 25.92399620132402 0.0 -1.819179257917766 25.74329545887581 0.0 -1.978681304623204 25.609622827829 0.0 -1.9035223938511 25.57091638016684 0.0 -1.5021170960390802 26.402193172666482 0.0 3.827718633878928e-06 26.37495015939 0.0 -0.40677157324707003 26.298520570865698 0.0 -0.7871351683046299 26.189891577260724 0.0 -1.114256659581952 26.05810178708226 0.0 -1.340352173244276 25.9381948273839 0.0 -1.420320620707389 25.836922078648108 0.0 -1.296187490063232 25.84018305479328 0.0 -0.915198393988992 26.27631315859648 0.0 6.724454276731881e-07 26.256324068307094 0.0 -0.2656697217143662 26.207959029582263 0.0 -0.509971745458322 26.13717497354047 0.0 -0.7097862635427691 26.04764326771313 0.0 -0.865170853595692 25.975463406227924 0.0 -0.905018705564676 25.949184114839937 0.0 -0.753881645276808 25.961993227285923 0.0 -0.35781069280809286 26.12110061017799 0.0 -1.1314500967036812e-06 26.108620125129008 0.0 -0.13980919410311698 26.075343929619603 0.0 -0.27368967768595204 26.032214931772632 0.0 -0.3951409315893823 25.982872812041638 0.0 -0.473701849524186 25.93457127452474 0.0 -0.469226672494506 25.926487247483188 0.0 -0.323125223283228 25.958296885382 0.0 0.070985875120614 25.876511307422998 0.0 -1.92281554374714e-06 25.872858621713878 0.0 -0.0488257435084356 25.87671136618092 0.0 -0.1081867586804172 25.866153644223626 0.0 -0.15975403275580138 25.847287495932243 0.0 -0.17134333959185039 25.813221541547367 0.0 -0.07460218207181099 25.7937213537198 0.0 0.154288221309906 25.864479702314913 0.0 0.53352500842386 25.5454983119754 0.0 3.96177875291259e-09 25.55052451515168 0.0 0.00624177367303512 25.56786531782322 0.0 0.01324102047234078 25.577615493909597 0.0 0.0430015441832856 25.57172608063392 0.0 0.18049182693640559 25.61080501138512 0.0 0.33494194889883 25.660058623695 0.0 0.54851713988157 25.739418734884108 0.0 0.899105356552209 25.0926954379458 0.0 4.4573878151418007e-07 25.1044900764607 0.0 0.050158259261091 25.1071227796427 0.0 0.15442008272356558 25.174905080445598 0.0 0.2736509602730315 25.24807919211125 0.0 0.403320081839895 25.31827199214548 0.0 0.574895315977676 25.4066724218096 0.0 0.8266513430226561 25.54267871473482 0.0 1.16819317088676 24.54925926953945 0.0 5.320451916894701e-07 24.56192851493742 0.0 0.10984395353034729 24.6187141873104 0.0 0.23112538289402237 24.70193608951908 0.0 0.3787230462819552 24.80612066149664 0.0 0.5659335528679359 24.933502345470398 0.0 0.79310503026128 25.08434751884656 0.0 1.066242668225028 25.2913507716435 0.0 1.3554570229988 23.9956624424493 0.0 6.6334079975438705e-06 23.969125399203598 0.0 0.0969982967097144 24.0362441857131 0.0 0.273772674265332 24.15202046341425 0.0 0.482530176595575 24.3040137551475 0.0 0.7085914886915701 24.500053132071002 0.0 0.9670339507983 24.73465026608952 0.0 1.19516175188739 25.06650486502656 0.0 1.4830180022079837 23.356566954795568 0.0 -2.480324938506033e-06 23.356918678020122 0.0 0.1318829679175806 23.417898253416002 0.0 0.324080335290096 23.5759126515624 0.0 0.56109822901272 23.78963391980928 0.0 0.81106469327691 24.054962629303798 0.0 1.0094360763320098 24.41337596305818 0.0 1.263911747906559 24.942444099212217 0.0 1.4246263627935778 22.7322531694139 0.0 -2.28795001381391e-06 22.752108909958398 0.0 0.1737507868343296 22.8199622681632 0.0 0.3538391042262272 23.01070851944704 0.0 0.591870274792384 23.318827030640957 0.0 0.79230317656148 23.7050378760938 0.0 1.0020868261534601 24.26598904650284 0.0 1.148679704194676 25.060679334534942 0.0 1.2993302684774282 22.18821646605557 0.0 1.16997035006495e-06 22.2282612308175 0.0 0.19771242685675502 22.32691907687996 0.0 0.34355682927078757 22.59543838836396 0.0 0.548451028433119 22.97437947799675 0.0 0.7055771056301 23.57551161686448 0.0 0.8493045448394 24.40218896099502 0.0 1.00873632865909 25.64396074912002 0.0 1.098363412552672 21.805834592094598 0.0 -5.77332705635376e-07 21.93745372336494 0.0 0.1535993986343928 22.052594894364002 0.0 0.3037782699360945 22.41901944585864 0.0 0.3998039134716 22.974338616456603 0.0 0.519976790618718 23.841932775708962 0.0 0.680582821297104 25.10057275982721 0.0 0.774390686412768 26.782952919453905 0.0 0.813218228752635 21.97474153026102 0.0 -3.003553108659216e-08 21.93438590610864 0.0 0.0430626167266518 22.25407710169191 0.0 0.09079670162517 22.68721955712975 0.0 0.18849445719226499 23.50054028958444 0.0 0.33075649101961796 24.72785185103658 0.0 0.3937016323174524 26.448218575594915 0.0 0.41564618696365196 28.91728141609698 0.0 0.52647081978933 22.5158949491082 0.0 -7.87308050944755e-07 22.712897605284038 0.0 -0.1201180377406592 22.96871648853 0.0 -0.11781366601410001 23.576490832272558 0.0 -0.10165532982372079 24.66384363309254 0.0 -0.1168744249053104 26.3649058712146 0.0 -0.0484941550178266 28.74280132749065 0.0 0.0735123794160155 31.962135179187918 0.0 0.38623635132910333 23.7011943525168 0.0 -4.3496764640752e-06 23.905046919848118 0.0 -0.482060751318706 24.212476098423547 0.0 -0.60299409293585 25.144886937735972 0.0 -0.666478987962342 26.62551312066527 0.0 -0.643551223957887 28.98210160653456 0.0 -0.40167226013302 31.93378416399548 0.0 -0.11073493896001001 35.672130696623604 0.0 0.48108106101708 25.62017500074718 0.0 -5.6257713370209404e-06 25.8455487913368 0.0 -0.6752155637167999 26.59545875172452 0.0 -0.9401052550213801 27.85302111645235 0.0 -1.009119022419469 29.679017339752882 0.0 -0.89247400944141 32.31253549454151 0.0 -0.516534441845981 35.52805699042886 0.0 -0.0838837803440143 29.34434589806475 0.0 -2.559671484867225e-06 29.359749538400404 0.0 -0.8701829861785201 29.86027072659096 0.0 -1.286794125189048 31.11335638329339 0.0 -1.2845699865702118 32.9922496351743 0.0 -1.034067490178805 -0.707731257693281 0.0 0.06465981361649531 -0.688194097204852 0.0 0.08158793803969841 -0.6596284964907121 0.0 0.0996917984922949 -0.620764575519114 0.0 0.1193683909842097 -0.570817574270439 0.0 0.1393414514835362 -0.508995812724895 0.0 0.1574738079368451 -0.43441745086043604 0.0 0.1699423362485583 -0.899796502494912 0.0 0.0789938459748461 -0.8770128619253211 0.0 0.09833661445841531 -0.8425913010647821 0.0 0.1195810109895252 -0.795681979892049 0.0 0.14117360352934002 -0.734900498372512 0.0 0.1618987120474677 -0.6570532164263301 0.0 0.17935772448394302 -0.555407533885188 0.0 0.190517524762938 -0.420383370509584 0.0 0.2203607615090189 -1.1278841481971031 0.0 0.0846700501167512 -1.101491947537298 0.0 0.10360340259008499 -1.061067026526675 0.0 0.1236804510920112 -1.005460945136523 0.0 0.1442941716073542 -0.934220903355522 0.0 0.1629940080748501 -0.8419380210484501 0.0 0.1811998405299959 -0.7210216580255411 0.0 0.1975600289390006 -0.5553091338827281 0.0 0.22624407365610172 -1.3786878744671962 0.0 0.0848921541223038 -1.348795153719878 0.0 0.10234464655861611 -1.302296112557402 0.0 0.1209591790239794 -1.238741990968549 0.0 0.1397606874940171 -1.157862308946557 0.0 0.15701308792532712 -1.055194786379869 0.0 0.17372599234314973 -0.918076542951913 0.0 0.190353684758842 -0.7192650179816251 0.0 0.22451382161284544 -1.656087921402197 0.0 0.0817420740435518 -1.623065800576644 0.0 0.0977984504449612 -1.571141079278526 0.0 0.11438853885971341 -1.500177317504432 0.0 0.1310817032770425 -1.4118717552967932 0.0 0.1452873756321843 -1.299408472485211 0.0 0.1608842880221071 -1.146145668653641 0.0 0.17821598445539952 -0.9114639427865979 0.0 0.22279434956985864 -1.965408009135199 0.0 0.0773031139325778 -1.930060808251519 0.0 0.0915407782885194 -1.873828566845713 0.0 0.1053763786344094 -1.7967228449180699 0.0 0.1191234869780871 -1.701890802547269 0.0 0.1300668752516718 -1.581152879528821 0.0 0.1441388156034703 -1.412070675301766 0.0 0.16387806409695152 -1.137736348443408 0.0 0.22477436561935904 -2.309318617732964 0.0 0.073994041849851 -2.272625776815643 0.0 0.08579071814476791 -2.213292175332303 0.0 0.0960255944006398 -2.131787733294692 0.0 0.1057500626437515 -2.031108730777717 0.0 0.1143844628596115 -1.905692727642317 0.0 0.1262464551561613 -1.7229960030748992 0.0 0.15167160379179 -1.4058643551466081 0.0 0.23720207793005182 -2.6884562272114043 0.0 0.0749897138747428 -2.651452306286306 0.0 0.08373523409338081 -2.590231184755778 0.0 0.0899620662490516 -2.5055390226384744 0.0 0.0962855144071378 -2.404559020113974 0.0 0.099365522484138 -2.275128616878214 0.0 0.11392898684822461 -2.084203212105079 0.0 0.14875946371898652 -1.7248062431201552 0.0 0.2683475547086887 -3.1030466775761654 0.0 0.0848146221203655 -3.066553556663837 0.0 0.09072931026823271 -3.004732955118322 0.0 0.0933187263329681 -2.9199837529995922 0.0 0.0950241823756045 -2.818748550468712 0.0 0.09592466639811661 -2.6883980272099492 0.0 0.11570568289264202 -2.5009585025239613 0.0 0.1570110359252758 -2.116062612901564 0.0 0.304967887624197 -3.553333008833323 0.0 0.10901827072545671 -3.5179204079480084 0.0 0.11376018684400462 -3.456893606422338 0.0 0.11354387083859671 -3.3732579243314462 0.0 0.11203961480099031 -3.275583361889582 0.0 0.10836668270916701 -3.155773438894334 0.0 0.12512569912814242 -2.9846327546158173 0.0 0.165235524130888 -2.62537846563446 0.0 0.29509468737736705 -4.039584500989609 0.0 0.1531021518275537 -4.00555490013887 0.0 0.15824239595605982 -3.9461041386526015 0.0 0.1569722559243063 -3.86791009669775 0.0 0.1494192157354803 -3.7799748544993697 0.0 0.1387684874692121 -3.6847534921188356 0.0 0.1406904275172606 -3.5556630088915733 0.0 0.1692699482317486 -3.289859082246475 0.0 0.23358307383957672 -4.5630769140769205 0.0 0.219427685485692 -4.5299705132492605 0.0 0.22796838969920963 -4.472808511820211 0.0 0.2282998617074964 -4.404260110106501 0.0 0.21365614534140354 -4.3326681083167005 0.0 0.20137586903439658 -4.27365810684145 0.0 0.1982074769551868 -4.21671090541777 0.0 0.2350593618764839 -4.01670850041771 0.0 0.34726105668152624 -5.12533932813348 0.0 0.3107767437694184 -5.092356927308921 0.0 0.32489512812237803 -5.03733972593349 0.0 0.33471308436782693 -4.982606524565161 0.0 0.3266416401660408 -4.94330892358272 0.0 0.3365476684136915 -4.94161852354046 0.0 0.3955350978883772 -4.959731323993281 0.0 0.600459695011492 -4.836433720910841 0.0 0.9815235445380881 -5.72920454323011 0.0 0.425393810634845 -5.69420174235504 0.0 0.456933891423347 -5.64401854110046 0.0 0.48048413201210305 -5.605170540129261 0.0 0.5041017726025441 -5.61480894037022 0.0 0.5611892540297311 -5.69530934238273 0.0 0.7229944580748611 -5.83061534576538 0.0 1.0607547865188691 -5.8838505470962605 0.0 1.509423117735577 -6.37632735940818 0.0 0.5666132141653301 -6.33907655847691 0.0 0.615874055396851 -6.29287175732179 0.0 0.66221761655544 -6.27425855685646 0.0 0.730577818264445 -6.33600455840011 0.0 0.835460980886524 -6.52441656311041 0.0 1.050459426261485 -6.82859457071486 0.0 1.405647395141184 -7.1126161778154 0.0 1.8582878464571952 -7.06871977671799 0.0 0.724855778121394 -7.027804175695101 0.0 0.794037659850941 -6.98154177453854 0.0 0.8678298216957451 -6.97794897444872 0.0 0.96044722401118 -7.09097097727427 0.0 1.101045747526143 -7.38598178464954 0.0 1.33762163344054 -7.86408179660204 0.0 1.689355682233891 -8.402400610060011 0.0 2.138514773462868 -7.80624579515614 0.0 0.8942077023551921 -7.757496193937401 0.0 0.984361584609039 -7.70947059273676 0.0 1.07125322678133 -7.71798939294973 0.0 1.1799309094982722 -7.87169899679247 0.0 1.33994603349865 -8.2604882065122 0.0 1.585639439640985 -8.901203422530081 0.0 1.936989848424745 -9.67678784191969 0.0 2.4015557000388914 -8.58711501467787 0.0 1.062470386561759 -8.52778861319471 0.0 1.168414909210372 -8.47148901178722 0.0 1.269917991747949 -8.489431812235791 0.0 1.380515994512899 -8.679281016982019 0.0 1.547833278695831 -9.15180982879524 0.0 1.8036480450912002 -9.93774744844368 0.0 2.166836014170899 -10.911079072776971 0.0 2.665713746642842 -9.40760743519018 0.0 1.229258750731468 -9.33512223337805 0.0 1.336410073410251 -9.27016463175411 0.0 1.443653916091347 -9.29217383230434 0.0 1.559911478997786 -9.51722063793051 0.0 1.7305718032642943 -10.07409705185242 0.0 1.9998327699958178 -10.99639987490999 0.0 2.395852539896312 -12.145901903647541 0.0 2.9340468333511693 -10.26759665668991 0.0 1.388042114701052 -10.1772922544323 0.0 1.495548957388723 -10.09853705246342 0.0 1.5971731599293282 -10.125099453127481 0.0 1.718273602956839 -10.38809705970242 0.0 1.8946224873655608 -11.03555387588884 0.0 2.177267334431682 -12.10172550254313 0.0 2.614588425364709 -13.432411535810282 0.0 3.2048066001201634 -11.1637482790937 0.0 1.533160518329012 -11.05029547625738 0.0 1.63920044098001 -10.955233473880831 0.0 1.7379536034488392 -10.98354587458864 0.0 1.853459606336489 -11.28917028222925 0.0 2.0395321309883023 -12.033939500848481 0.0 2.340956178523903 -13.25793353144833 0.0 2.820765950519147 -14.791143969778592 0.0 3.4620770465519244 -12.094067502351681 0.0 1.663682401592059 -11.95100269877506 0.0 1.7630831240770768 -11.835567895889191 0.0 1.8589933664748333 -11.865150696628762 0.0 1.9722772893069311 -12.216600305415 0.0 2.164222974105573 -13.06638232665955 0.0 2.4852278221306943 -14.46236316155907 0.0 3.0111290752782254 -16.21443840536095 0.0 3.7169846529246144 -13.053848726346212 0.0 1.763479084086976 -12.87571152189278 0.0 1.861199806529994 -12.735705918392641 0.0 1.954554808863869 -12.76568391914209 0.0 2.068107451702685 -13.165567529139182 0.0 2.263738096593451 -14.12886395322159 0.0 2.606082585152063 -15.7124163928104 0.0 3.1787052794676303 -17.70311164257778 0.0 3.9587563389689064 -14.038894617051438 0.0 1.8261683501349701 -13.820692877202399 0.0 1.9249935449821438 -13.651594396691502 0.0 2.01607890014085 -13.680232050387001 0.0 2.1299905537248 -14.13125985669922 0.0 2.3317407924859643 -15.21834927572322 0.0 2.696552378266884 -17.00685868780025 0.0 3.3168221790299253 -19.25775113091026 0.0 4.18074338466046 -15.045728798775059 0.0 1.8446681333865358 -14.781729542751359 0.0 1.9435684208580362 -14.579459083827599 0.0 2.032754108629746 -14.60533201707252 0.0 2.145717810389814 -15.111129155268001 0.0 2.3576402281422 -16.33420659588855 0.0 2.746062160004775 -18.34826951699523 0.0 3.4145051685257886 -20.88548195967816 0.0 4.3762181374073394 -16.06997362693092 0.0 1.8109019389336882 -15.754715399041231 0.0 1.906707229210922 -15.51631324830552 0.0 1.993833083845288 -15.541412494712 0.0 2.11340712058112 -16.10592809256392 0.0 2.324210173122016 -17.47929145989583 0.0 2.739840203170974 -19.746212875431 0.0 3.46069776605896 -22.6098249146432 0.0 4.53674444028 -17.10552515394375 0.0 1.70996005547358 -16.73621611581618 0.0 1.8097950294095442 -16.45961049824115 0.0 1.8940509571447681 -16.485371720384702 0.0 2.00301915817262 -17.11548875465568 0.0 2.214522156491597 -18.65876718475176 0.0 2.66125848474024 -21.216106203178338 0.0 3.4437678797402236 -24.470220242914962 0.0 4.65548473885892 -18.14969090080552 0.0 1.5481844749470541 -17.71910397527354 0.0 1.6514770816484359 -17.40026661320892 0.0 1.7324563804353719 -17.42660988933403 0.0 1.817218500369173 -18.134353678569497 0.0 2.0201303028948048 -19.86843882560104 0.0 2.5024559003617597 -22.76853421611538 0.0 3.358266521605282 -26.5056220035679 0.0 4.7283630143088295 -19.18149447442122 0.0 1.317215046405144 -18.67903303158945 0.0 1.440002432432889 -18.31103722623717 0.0 1.5061576890682948 -18.33487391488368 0.0 1.575409433039886 -19.13899501201662 0.0 1.7494217041945412 -21.08833918515245 0.0 2.26060837457428 -24.385030209605848 0.0 3.2026584954244655 -28.71331274326535 0.0 4.75533409238632 -20.170576168103253 0.0 0.9847655456405761 -19.582774748928443 0.0 1.133222926935582 -19.14134337708425 0.0 1.233468696440635 -19.143198604184 0.0 1.3199968091442 -20.06035508621305 0.0 1.451033444607432 -22.27279030917345 0.0 1.9271571345388048 -25.993891366653184 0.0 2.98980493606842 -31.0020930130943 0.0 4.7725948837865495 -21.0611263370092 0.0 0.56139468582402 -20.39453231199567 0.0 0.7251660857004211 -19.883721308082958 0.0 0.8574162014271121 -19.85570036794206 0.0 0.9541293568483861 -20.81907525917604 0.0 1.175655528967815 -23.34323942833866 0.0 1.572696478029684 -27.498346466549126 0.0 2.7380923351427158 -33.231051254762455 0.0 4.841677205727839 -21.83426235137787 0.0 -0.01402043086079268 -21.091791205819742 0.0 0.18880167683551022 -20.52432916253538 0.0 0.33140849046426035 -20.48137937467776 0.0 0.510179459971104 -21.49407745889404 0.0 0.7906513345782479 -24.113455683669873 0.0 1.485949379650381 -28.756295305373442 0.0 2.5897978758186238 -35.15935159330067 0.0 4.91876130732799 -22.480143799969923 0.0 -0.742652396936256 -21.67821561529512 0.0 -0.482576144933781 -21.05798179775634 0.0 -0.26993421030103437 -20.991669867845 0.0 -0.00562400091737006 -22.100766581219602 0.0 0.472152270347632 -24.86927477204094 0.0 1.4381254897618498 -29.848748734182145 0.0 2.6444012783160704 -36.6050795064282 0.0 5.0903018651480405 -22.97439618012624 0.0 -1.621701692769072 -22.112329149261 0.0 -1.25473347353862 -21.43088308703808 0.0 -0.8588806966314719 -21.318004335728368 0.0 -0.3112542197166645 -22.36661668561858 0.0 0.5964321274493061 -25.18035586483264 0.0 1.724528715609992 -30.369197497112 0.0 2.98908053466768 -37.45103973716632 0.0 5.21241149579704 -23.21778650257488 0.0 -2.528459981514768 -22.25579794290093 0.0 -1.9765387011041158 -21.502038975590402 0.0 -1.323313261907532 -21.2805144823392 0.0 -0.352730009489328 -22.144602625091398 0.0 0.7307007884811361 -24.88196579125152 0.0 2.1289007731049683 -29.75849787488128 0.0 2.928992152847736 -36.25652448591634 0.0 4.69355233271869 -22.950543553633132 0.0 -2.940501060515962 -21.8203088230099 0.0 -2.063958253735464 -20.87702512046976 0.0 -0.9897600355823 -20.363867475769037 0.0 0.10183262974292359 -20.92299383957886 0.0 0.791249010332844 -23.598086012181103 0.0 2.194051626341564 -27.3658367196678 0.0 3.4297617281306203 -29.508000561122802 0.0 5.16488621491188 -20.83152577385131 0.0 -1.273274587236022 -19.5956701047075 0.0 -0.27350683513874996 -18.42639369034672 0.0 0.3855657483162641 -17.882948848143602 0.0 0.3608527684777782 -18.12306534586686 0.0 0.73589097759588 -18.26833214107836 0.0 2.31931561019466 -18.27498641297775 0.0 3.0416494271144 -18.63218534893312 0.0 5.7639233025254395 -13.699801878315599 0.0 -2.0943835829535518 -12.663750313195221 0.0 -1.093180665272394 -11.77110940181505 0.0 -0.0577144689821718 -11.0784909943008 0.0 0.276146932903632 -10.65965817632824 0.0 0.757440958303224 -10.65161932391566 0.0 2.43047327319031 -10.74551914535312 0.0 2.096949680133015 -11.022311301863459 0.0 4.77137197138002 -8.228209356091401 0.0 -3.43208185693129 -7.476537577448021 0.0 -2.510308317938958 -6.87413543025426 0.0 -1.365772472577849 -6.450994970499719 0.0 -0.2599158131864904 -6.279914467887149 0.0 0.7928267684517829 -6.362156651435201 0.0 2.67800628121488 -6.61542083775945 0.0 1.430273015932305 -6.943393929265679 0.0 3.75874219014997 -4.57389837354879 0.0 -4.39432325723764 -4.1926151718133 0.0 -3.4882349990734847 -3.9374768657914174 0.0 -2.321983590361221 -3.8327497679625897 0.0 -0.91942028620533 -3.89219733636992 0.0 0.76733159734176 -4.110099901619891 0.0 3.361321173929781 -4.45199320084211 0.0 0.863976086338772 -4.81329413890324 0.0 3.284656733620822 -1.523482202397246 0.0 -4.8390204930061795 -1.48634988497898 0.0 -3.8811157949831756 -1.534753898122224 0.0 -2.624276637377694 -1.6645937600679839 0.0 -1.05986849755102 -1.871039562876754 0.0 0.904920015601498 -2.140792417699143 0.0 3.6176123488635 -2.4470735279217686 0.0 0.3986145095133721 -2.736477253262342 0.0 3.2399656980718357 1.8171995180291671 0.0 -4.77591217189365 1.618028140485913 0.0 -3.727671183801773 1.39499104847544 0.0 -2.3565679302313196 1.169759306700954 0.0 -0.65437396989264 0.957973903332402 0.0 1.3174700121415799 0.771933611060769 0.0 3.5335928124359723 0.621431176799475 0.0 0.14480510185653753 0.50076462474 0.0 3.3222680543160004 5.71932639269453 0.0 -4.32774138036163 5.41752206542505 0.0 -3.194365634583655 5.16648597172916 0.0 -1.7523459405080202 4.99220789071296 0.0 -0.025671228447955836 4.88244805918785 0.0 1.570262411231199 4.90599411195348 0.0 3.359491952238156 4.97881992200115 0.0 0.1150176040981341 5.0746533788691 0.0 3.5705226017704503 9.97732062895866 0.0 -3.666491780557907 9.68204965894295 0.0 -2.4804719655642 9.511234215348798 0.0 -1.022513482367168 9.470299458634749 0.0 0.59148430601521 9.4942248828174 0.0 1.6941366554180401 9.67991576200155 0.0 3.042166285299249 10.10571200550396 0.0 0.3058799701411944 10.42920664512615 0.0 3.869505710820225 14.25933760877412 0.0 -2.9539503587599802 14.02885923647544 0.0 -1.756625004082683 13.983871317410749 0.0 -0.32248152241531103 14.092353855986218 0.0 1.115524062879699 14.275553889512619 0.0 1.950299794182728 14.57571225837172 0.0 2.979917204040316 15.17312152845418 0.0 0.639230711026933 16.00189630070464 0.0 4.57747278741776 18.33111058069083 0.0 -2.305007542754592 18.17229224458336 0.0 -1.133250160377036 18.23973327048664 0.0 0.25772606679180443 18.405069703418917 0.0 1.460981781590116 18.603509017485 0.0 2.1545433939495005 19.11102726545725 0.0 3.2691465052115003 19.65297719117358 0.0 1.11267915017742 21.2282162369604 0.0 5.2310211179886 22.063982908138858 0.0 -1.777101550152292 21.9549811453284 0.0 -0.65834980710252 22.07917371185628 0.0 0.66690433219524 22.196513805946918 0.0 1.6921675033400518 22.2602240604876 0.0 2.3152855633988523 22.731596347338122 0.0 3.553067921557748 23.49582998161096 0.0 1.820448844049592 25.86795611358168 0.0 5.67662691603542 24.66826942204014 0.0 -1.295494001283296 24.727844405005182 0.0 -0.2418146465482397 25.016194144959123 0.0 1.024037405626696 25.37876574950058 0.0 1.993011987386649 25.263509641895798 0.0 2.4418110428544098 25.57916632245375 0.0 3.808910634620135 26.77353239682465 0.0 2.966124045150979 29.88762237654516 0.0 6.33170364428942 25.60190563793769 0.0 -0.7590315320915649 25.76796589291678 0.0 0.2634794928011246 26.22845479288865 0.0 1.4772882472201458 27.106859634462403 0.0 2.56454912210735 27.80596971260329 0.0 2.885918590620117 28.14776701171208 0.0 4.20361830466352 29.721894018511296 0.0 4.2099715529578 33.393782802600896 0.0 6.83646611585715 25.93683414762816 0.0 -0.19960873094414397 26.138155950911973 0.0 0.766796904103167 26.623858119662522 0.0 1.8799149822671162 27.707834903656714 0.0 3.037150014746562 29.512605859860898 0.0 3.78099686169576 30.683964384460797 0.0 4.64949067798656 32.47635919424715 0.0 5.0636231541237 36.59999374548828 0.0 7.01247097067326 26.03064247008156 0.0 0.2880309793854698 26.281560203279202 0.0 1.1632456079106401 26.84341561453028 0.0 2.18541424293171 27.98951214699376 0.0 3.216699368647796 30.243378140078605 0.0 4.1835263699560805 33.07541254193986 0.0 5.1901613356161995 35.16342684437505 0.0 5.4881271936985 39.95983734186756 0.0 7.024404425883359 26.027968348210138 0.0 0.702658337106087 26.336299662926912 0.0 1.527910568637175 26.92877070098672 0.0 2.436677834644281 28.205085646504603 0.0 3.375256777988686 30.60075154729644 0.0 4.19955005160866 34.50243868623736 0.0 5.393839294136059 38.37779961961 0.0 5.8836844906444 43.6012080266298 0.0 6.8273319380145 26.02435295603772 0.0 1.109704426325874 26.30924646768936 0.0 1.7895851635430788 27.001265887187635 0.0 2.566921144394052 28.453910138711763 0.0 3.3891952062070314 31.037994453280767 0.0 4.14415159251138 35.55444028824844 0.0 5.39805493371092 41.783997617199994 0.0 6.077067291648399 47.394816924782894 0.0 6.0611234671063 25.9074439287396 0.0 1.3702710231511799 26.301815385745773 0.0 1.9547439252430232 27.1558601521038 0.0 2.673110185145205 28.7791275480255 0.0 3.366183711024144 31.71003187892175 0.0 4.03574132472525 36.81299826161046 0.0 5.2510420405725196 43.895786510169 0.0 6.54019947581165 52.144309853623 0.0 7.873817309941701 25.785014738548483 0.0 1.5856720614271362 26.299161669506322 0.0 2.062186276113677 27.404056248321503 0.0 2.63589533378325 29.38183937870328 0.0 3.24489408514656 32.78363895969084 0.0 3.853546858353114 38.3784543257808 0.0 5.03064907183008 46.2565820563722 0.0 6.569516373255901 55.167243764615996 0.0 8.4493607323719 25.66869690028 0.0 1.730682429784744 26.4021945951781 0.0 2.062816436303105 27.8912415133044 0.0 2.5078498524420882 30.311242003791282 0.0 2.9745855121676494 34.26666245816706 0.0 3.547564650540666 40.4197430949712 0.0 4.81208803453627 48.933356227065204 0.0 6.5614912762338005 25.642336935826798 0.0 1.7003245207533477 26.7369180406209 0.0 1.967878757687463 28.700066459620924 0.0 2.3200240154587863 31.650785992413002 0.0 2.7040738605895 36.3283564285936 0.0 3.35987615310592 43.076631174432 0.0 4.8086154247652795 52.0104769919176 0.0 6.605536019354839 25.83484038304776 0.0 1.594268287737669 27.367767388727938 0.0 1.830326666291436 29.8795002911019 0.0 2.1294408834326877 33.50469482296284 0.0 2.390435266945875 38.92074010537554 0.0 3.267909963424026 46.4059637824986 0.0 4.830305546565 26.3567423754776 0.0 1.4403727036496399 28.437344799014582 0.0 1.6380569927018702 31.475350441033797 0.0 1.813977191623392 35.855863964542 0.0 2.102469967825275 42.0711444443264 0.0 3.2667086836363195 50.16053349424 0.0 4.91345812571744 27.47902874653552 0.0 1.211846360293624 30.096379879831076 0.0 1.300574222291259 33.83734845462356 0.0 1.505456265441678 39.0155623071493 0.0 2.1483929928898453 46.094393840032 0.0 3.552045898673088 29.243829171822 0.0 0.888197779109034 32.68186130894223 0.0 1.069581799875414 37.369805058765955 0.0 1.6085685896573758 43.160962350727196 0.0 2.55419471141097 32.10921939644172 0.0 0.69709604092524 36.379825991948515 0.0 1.1995758077000398 41.6040411245133 0.0 2.105486578250523 46.97499599121 0.0 2.9530966908749248 35.859203673164835 0.0 0.8203953108690499 40.536473538756596 0.0 1.660487790101872 39.82012289922376 0.0 1.135964788076492 
TENSORS Ellispoids float
0.01 0.0 0.0 0.0 0.01 0.0 0.0 0.0 0.01 0.01 0.0 0.0 0.0 0.01 0.0 0.0 0.0 0.01 0.01 0.0 0.0 0.0 0.01 0.0 0.0 0.0 0.01 0.01 0.0 0.0 0.0 0.01 0.0 0.0 0.0 0.01 0.01 0.0 0.0 0.0 0.01 0.0 0.0 0.0 0.01 0.01 0.0 0.0 0.0 0.01 0.0 0.0 0.0 0.01 0.01 0.0 0.0 0.0 0.01 0.0 0.0 0.0 0.01 0.01 0.0 0.0 0.0 0.01 0.0 0.0 0.0 0.01 0.01 0.0 0.0 0.0 0.01 0.0 0.0 0.0 0.01 0.01 0.0 0.0 0.0 0.01 0.0 0.0 0.0 0.01 0.01 0.0 0.0 0.0 0.01 0.0 0.0 0.0 0.01 0.01 0.0 0.0 0.0 0.01 0.0 0.0 0.0 0.01 0.01 0.0 0.0 0.0 0.01 0.0 0.0 0.0 0.01 0.01 0.0 0.0 0.0 0.01 0.0 0.0 0.0 0.01 0.01 0.0 0.0 0.0 0.01 0.0 0.0 0.0 0.01 0.01 0.0 0.0 0.0 0.01 0.0 0.0 0.0 0.01 0.01 0.0 0.0 0.0 0.01 0.0 0.0 0.0 0.01 0.01 0.0 0.0 0.0 0.01 0.0 0.0 0.0 0.01 0.01 0.0 0.0 0.0 0.01 0.0 0.0 0.0 0.01 0.01 0.0 0.0 0.0 0.01 0.0 0.0 0.0 0.01 0.01 0.0 0.0 0.0 0.01 0.0 0.0 0.0 0.01 0.01 0.0 0.0 0.0 0.01 0.0 0.0 0.0 0.01 0.01 0.0 0.0 0.0 0.01 0.0 0.0 0.0 0.01 0.01 0.0 0.0 0.0 0.01 0.0 0.0 0.0 0.01 0.01 0.0 0.0 0.0 0.01 0.0 0.0 0.0 0.01 0.01 0.0 0.0 0.0 0.01 0.0 0.0 0.0 0.01 0.01 0.0 0.0 0.0 0.01 0.0 0.0 0.0 0.01 0.01 0.0 0.0 0.0 0.01 0.0 0.0 0.0 0.01 0.01 0.0 0.0 0.0 0.01 0.0 0.0 0.0 0.01 0.01 0.0 0.0 0.0 0.01 0.0 0.0 0.0 0.01 0.01 0.0 0.0 0.0 0.01 0.0 0.0 0.0 0.01 0.01 0.0 0.0 0.0 0.01 0.0 0.0 0.0 0.01 0.01 0.0 0.0 0.0 0.01 0.0 0.0 0.0 0.01 0.01 0.0 0.0 0.0 0.01 0.0 0.0 0.0 0.01 0.01 0.0 0.0 0.0 0.01 0.0 0.0 0.0 0.01 0.01 0.0 0.0 0.0 0.01 0.0 0.0 0.0 0.01 0.01 0.0 0.0 0.0 0.01 0.0 0.0 0.0 0.01 0.01 0.0 0.0 0.0 0.01 0.0 0.0 0.0 0.01 0.01 0.0 0.0 0.0 0.01 0.0 0.0 0.0 0.01 0.01 0.0 0.0 0.0 0.01 0.0 0.0 0.0 0.01 0.01 0.0 0.0 0.0 0.01 0.0 0.0 0.0 0.01 0.01 0.0 0.0 0.0 0.01 0.0 0.0 0.0 0.01 0.01 0.0 0.0 0.0 0.01 0.0 0.0 0.0 0.01 0.01 0.0 0.0 0.0 0.01 0.0 0.0 0.0 0.01 0.01 0.0 0.0 0.0 0.01 0.0 0.0 0.0 0.01 0.01 0.0 0.0 0.0 0.01 0.0 0.0 0.0 0.01 0.01 0.0 0.0 0.0 0.01 0.0 0.0 0.0 0.01 0.01 0.0 0.0 0.0 0.01 0.0 0.0 0.0 0.01 0.01 0.0 0.0 0.0 0.01 0.0 0.0 0.0 0.01 0.01 0.0 0.0 0.0 0.01 0.0 0.0 0.0 0.01 0.01 0.0 0.0 0.0 0.01 0.0 0.0 0.0 0.01 0.01 0.0 0.0 0.0 0.01 0.0 0.0 0.0 0.01 0.01 0.0 0.0 0.0 0.01 0.0 0.0 0.0 0.01 0.01 0.0 0.0 0.0 0.01 0.0 0.0 0.0 0.01 0.01 0.0 0.0 0.0 0.01 0.0 0.0 0.0 0.01 0.01 0.0 0.0 0.0 0.01 0.0 0.0 0.0 0.01 0.01 0.0 0.0 0.0 0.01 0.0 0.0 0.0 0.01 0.01 0.0 0.0 0.0 0.01 0.0 0.0 0.0 0.01 0.01 0.0 0.0 0.0 0.01 0.0 0.0 0.0 0.01 0.01 0.0 0.0 0.0 0.01 0.0 0.0 0.0 0.01 0.01 0.0 0.0 0.0 0.01 0.0 0.0 0.0 0.01 0.01 0.0 0.0 0.0 0.01 0.0 0.0 0.0 0.01 0.01 0.0 0.0 0.0 0.01 0.0 0.0 0.0 0.01 0.01 0.0 0.0 0.0 0.01 0.0 0.0 0.0 0.01 0.01 0.0 0.0 0.0 0.01 0.0 0.0 0.0 0.01 0.01 0.0 0.0 0.0 0.01 0.0 0.0 0.0 0.01 0.01 0.0 0.0 0.0 0.01 0.0 0.0 0.0 0.01 0.01 0.0 0.0 0.0 0.01 0.0 0.0 0.0 0.01 0.01 0.0 0.0 0.0 0.01 0.0 0.0 0.0 0.01 0.01 0.0 0.0 0.0 0.01 0.0 0.0 0.0 0.01 0.01 0.0 0.0 0.0 0.01 0.0 0.0 0.0 0.01 0.01 0.0 0.0 0.0 0.01 0.0 0.0 0.0 0.01 0.01 0.0 0.0 0.0 0.01 0.0 0.0 0.0 0.01 0.01 0.0 0.0 0.0 0.01 0.0 0.0 0.0 0.01 0.01 0.0 0.0 0.0 0.01 0.0 0.0 0.0 0.01 0.01 0.0 0.0 0.0 0.01 0.0 0.0 0.0 0.01 0.01 0.0 0.0 0.0 0.01 0.0 0.0 0.0 0.01 0.01 0.0 0.0 0.0 0.01 0.0 0.0 0.0 0.01 0.01 0.0 0.0 0.0 0.01 0.0 0.0 0.0 0.01 0.01 0.0 0.0 0.0 0.01 0.0 0.0 0.0 0.01 0.01 0.0 0.0 0.0 0.01 0.0 0.0 0.0 0.01 0.01 0.0 0.0 0.0 0.01 0.0 0.0 0.0 0.01 0.01 0.0 0.0 0.0 0.01 0.0 0.0 0.0 0.01 0.01 0.0 0.0 0.0 0.01 0.0 0.0 0.0 0.01 0.01 0.0 0.0 0.0 0.01 0.0 0.0 0.0 0.01 0.01 0.0 0.0 0.0 0.01 0.0 0.0 0.0 0.01 0.01 0.0 0.0 0.0 0.01 0.0 0.0 0.0 0.01 0.01 0.0 0.0 0.0 0.01 0.0 0.0 0.0 0.01 0.01 0.0 0.0 0.0 0.01 0.0 0.0 0.0 0.01 0.01 0.0 0.0 0.0 0.01 0.0 0.0 0.0 0.01 0.01 0.0 0.0 0.0 0.01 0.0 0.0 0.0 0.01 0.01 0.0 0.0 0.0 0.01 0.0 0.0 0.0 0.01 0.01 0.0 0.0 0.0 0.01 0.0 0.0 0.0 0.01 0.01 0.0 0.0 0.0 0.01 0.0 0.0 0.0 0.01 0.01 0.0 0.0 0.0 0.01 0.0 0.0 0.0 0.01 0.01 0.0 0.0 0.0 0.01 0.0 0.0 0.0 0.01 0.01 0.0 0.0 0.0 0.01 0.0 0.0 0.0 0.01 0.01 0.0 0.0 0.0 0.01 0.0 0.0 0.0 0.01 0.01 0.0 0.0 0.0 0.01 0.0 0.0 0.0 0.01 0.01 0.0 0.0 0.0 0.01 0.0 0.0 0.0 0.01 0.01 0.0 0.0 0.0 0.01 0.0 0.0 0.0 0.01 0.01 0.0 0.0 0.0 0.01 0.0 0.0 0.0 0.01 0.01 0.0 0.0 0.0 0.01 0.0 0.0 0.0 0.01 0.01 0.0 0.0 0.0 0.01 0.0 0.0 0.0 0.01 0.01 0.0 0.0 0.0 0.01 0.0 0.0 0.0 0.01 0.01 0.0 0.0 0.0 0.01 0.0 0.0 0.0 0.01 0.01 0.0 0.0 0.0 0.01 0.0 0.0 0.0 0.01 0.01 0.0 0.0 0.0 0.01 0.0 0.0 0.0 0.01 0.01 0.0 0.0 0.0 0.01 0.0 0.0 0.0 0.01 0.01 0.0 0.0 0.0 0.01 0.0 0.0 0.0 0.01 0.01 0.0 0.0 0.0 0.01 0.0 0.0 0.0 0.01 0.01 0.0 0.0 0.0 0.01 0.0 0.0 0.0 0.01 0.01 0.0 0.0 0.0 0.01 0.0 0.0 0.0 0.01 0.01 0.0 0.0 0.0 0.01 0.0 0.0 0.0 0.01 0.01 0.0 0.0 0.0 0.01 0.0 0.0 0.0 0.01 0.01 0.0 0.0 0.0 0.01 0.0 0.0 0.0 0.01 0.01 0.0 0.0 0.0 0.01 0.0 0.0 0.0 0.01 0.01 0.0 0.0 0.0 0.01 0.0 0.0 0.0 0.01 0.01 0.0 0.0 0.0 0.01 0.0 0.0 0.0 0.01 0.01 0.0 0.0 0.0 0.01 0.0 0.0 0.0 0.01 0.01 0.0 0.0 0.0 0.01 0.0 0.0 0.0 0.01 0.01 0.0 0.0 0.0 0.01 0.0 0.0 0.0 0.01 0.01 0.0 0.0 0.0 0.01 0.0 0.0 0.0 0.01 0.01 0.0 0.0 0.0 0.01 0.0 0.0 0.0 0.01 0.01 0.0 0.0 0.0 0.01 0.0 0.0 0.0 0.01 0.01 0.0 0.0 0.0 0.01 0.0 0.0 0.0 0.01 0.01 0.0 0.0 0.0 0.01 0.0 0.0 0.0 0.01 0.01 0.0 0.0 0.0 0.01 0.0 0.0 0.0 0.01 0.01 0.0 0.0 0.0 0.01 0.0 0.0 0.0 0.01 0.01 0.0 0.0 0.0 0.01 0.0 0.0 0.0 0.01 0.01 0.0 0.0 0.0 0.01 0.0 0.0 0.0 0.01 0.01 0.0 0.0 0.0 0.01 0.0 0.0 0.0 0.01 0.01 0.0 0.0 0.0 0.01 0.0 0.0 0.0 0.01 0.01 0.0 0.0 0.0 0.01 0.0 0.0 0.0 0.01 0.01 0.0 0.0 0.0 0.01 0.0 0.0 0.0 0.01 0.01 0.0 0.0 0.0 0.01 0.0 0.0 0.0 0.01 0.01 0.0 0.0 0.0 0.01 0.0 0.0 0.0 0.01 0.01 0.0 0.0 0.0 0.01 0.0 0.0 0.0 0.01 0.01 0.0 0.0 0.0 0.01 0.0 0.0 0.0 0.01 0.01 0.0 0.0 0.0 0.01 0.0 0.0 0.0 0.01 0.01 0.0 0.0 0.0 0.01 0.0 0.0 0.0 0.01 0.01 0.0 0.0 0.0 0.01 0.0 0.0 0.0 0.01 0.01 0.0 0.0 0.0 0.01 0.0 0.0 0.0 0.01 0.01 0.0 0.0 0.0 0.01 0.0 0.0 0.0 0.01 0.01 0.0 0.0 0.0 0.01 0.0 0.0 0.0 0.01 0.01 0.0 0.0 0.0 0.01 0.0 0.0 0.0 0.01 0.01 0.0 0.0 0.0 0.01 0.0 0.0 0.0 0.01 0.01 0.0 0.0 0.0 0.01 0.0 0.0 0.0 0.01 0.01 0.0 0.0 0.0 0.01 0.0 0.0 0.0 0.01 0.01 0.0 0.0 0.0 0.01 0.0 0.0 0.0 0.01 0.01 0.0 0.0 0.0 0.01 0.0 0.0 0.0 0.01 0.01 0.0 0.0 0.0 0.01 0.0 0.0 0.0 0.01 0.01 0.0 0.0 0.0 0.01 0.0 0.0 0.0 0.01 0.01 0.0 0.0 0.0 0.01 0.0 0.0 0.0 0.01 0.01 0.0 0.0 0.0 0.01 0.0 0.0 0.0 0.01 0.01 0.0 0.0 0.0 0.01 0.0 0.0 0.0 0.01 0.01 0.0 0.0 0.0 0.01 0.0 0.0 0.0 0.01 0.01 0.0 0.0 0.0 0.01 0.0 0.0 0.0 0.01 0.01 0.0 0.0 0.0 0.01 0.0 0.0 0.0 0.01 0.01 0.0 0.0 0.0 0.01 0.0 0.0 0.0 0.01 0.01 0.0 0.0 0.0 0.01 0.0 0.0 0.0 0.01 0.01 0.0 0.0 0.0 0.01 0.0 0.0 0.0 0.01 0.01 0.0 0.0 0.0 0.01 0.0 0.0 0.0 0.01 0.01 0.0 0.0 0.0 0.01 0.0 0.0 0.0 0.01 0.01 0.0 0.0 0.0 0.01 0.0 0.0 0.0 0.01 0.01 0.0 0.0 0.0 0.01 0.0 0.0 0.0 0.01 0.01 0.0 0.0 0.0 0.01 0.0 0.0 0.0 0.01 0.01 0.0 0.0 0.0 0.01 0.0 0.0 0.0 0.01 0.01 0.0 0.0 0.0 0.01 0.0 0.0 0.0 0.01 0.01 0.0 0.0 0.0 0.01 0.0 0.0 0.0 0.01 0.01 0.0 0.0 0.0 0.01 0.0 0.0 0.0 0.01 0.01 0.0 0.0 0.0 0.01 0.0 0.0 0.0 0.01 0.01 0.0 0.0 0.0 0.01 0.0 0.0 0.0 0.01 0.01 0.0 0.0 0.0 0.01 0.0 0.0 0.0 0.01 0.01 0.0 0.0 0.0 0.01 0.0 0.0 0.0 0.01 0.01 0.0 0.0 0.0 0.01 0.0 0.0 0.0 0.01 0.01 0.0 0.0 0.0 0.01 0.0 0.0 0.0 0.01 0.01 0.0 0.0 0.0 0.01 0.0 0.0 0.0 0.01 0.01 0.0 0.0 0.0 0.01 0.0 0.0 0.0 0.01 0.01 0.0 0.0 0.0 0.01 0.0 0.0 0.0 0.01 0.01 0.0 0.0 0.0 0.01 0.0 0.0 0.0 0.01 0.01 0.0 0.0 0.0 0.01 0.0 0.0 0.0 0.01 0.01 0.0 0.0 0.0 0.01 0.0 0.0 0.0 0.01 0.01 0.0 0.0 0.0 0.01 0.0 0.0 0.0 0.01 0.01 0.0 0.0 0.0 0.01 0.0 0.0 0.0 0.01 0.01 0.0 0.0 0.0 0.01 0.0 0.0 0.0 0.01 0.01 0.0 0.0 0.0 0.01 0.0 0.0 0.0 0.01 0.01 0.0 0.0 0.0 0.01 0.0 0.0 0.0 0.01 0.01 0.0 0.0 0.0 0.01 0.0 0.0 0.0 0.01 0.01 0.0 0.0 0.0 0.01 0.0 0.0 0.0 0.01 0.01 0.0 0.0 0.0 0.01 0.0 0.0 0.0 0.01 0.01 0.0 0.0 0.0 0.01 0.0 0.0 0.0 0.01 0.01 0.0 0.0 0.0 0.01 0.0 0.0 0.0 0.01 0.01 0.0 0.0 0.0 0.01 0.0 0.0 0.0 0.01 0.01 0.0 0.0 0.0 0.01 0.0 0.0 0.0 0.01 0.01 0.0 0.0 0.0 0.01 0.0 0.0 0.0 0.01 0.01 0.0 0.0 0.0 0.01 0.0 0.0 0.0 0.01 0.01 0.0 0.0 0.0 0.01 0.0 0.0 0.0 0.01 0.01 0.0 0.0 0.0 0.01 0.0 0.0 0.0 0.01 0.01 0.0 0.0 0.0 0.01 0.0 0.0 0.0 0.01 0.01 0.0 0.0 0.0 0.01 0.0 0.0 0.0 0.01 0.01 0.0 0.0 0.0 0.01 0.0 0.0 0.0 0.01 0.01 0.0 0.0 0.0 0.01 0.0 0.0 0.0 0.01 0.01 0.0 0.0 0.0 0.01 0.0 0.0 0.0 0.01 0.01 0.0 0.0 0.0 0.01 0.0 0.0 0.0 0.01 0.01 0.0 0.0 0.0 0.01 0.0 0.0 0.0 0.01 0.01 0.0 0.0 0.0 0.01 0.0 0.0 0.0 0.01 0.01 0.0 0.0 0.0 0.01 0.0 0.0 0.0 0.01 0.01 0.0 0.0 0.0 0.01 0.0 0.0 0.0 0.01 0.01 0.0 0.0 0.0 0.01 0.0 0.0 0.0 0.01 0.01 0.0 0.0 0.0 0.01 0.0 0.0 0.0 0.01 0.01 0.0 0.0 0.0 0.01 0.0 0.0 0.0 0.01 0.01 0.0 0.0 0.0 0.01 0.0 0.0 0.0 0.01 0.01 0.0 0.0 0.0 0.01 0.0 0.0 0.0 0.01 0.01 0.0 0.0 0.0 0.01 0.0 0.0 0.0 0.01 0.01 0.0 0.0 0.0 0.01 0.0 0.0 0.0 0.01 0.01 0.0 0.0 0.0 0.01 0.0 0.0 0.0 0.01 0.01 0.0 0.0 0.0 0.01 0.0 0.0 0.0 0.01 0.01 0.0 0.0 0.0 0.01 0.0 0.0 0.0 0.01 0.01 0.0 0.0 0.0 0.01 0.0 0.0 0.0 0.01 0.01 0.0 0.0 0.0 0.01 0.0 0.0 0.0 0.01 0.01 0.0 0.0 0.0 0.01 0.0 0.0 0.0 0.01 0.01 0.0 0.0 0.0 0.01 0.0 0.0 0.0 0.01 0.01 0.0 0.0 0.0 0.01 0.0 0.0 0.0 0.01 0.01 0.0 0.0 0.0 0.01 0.0 0.0 0.0 0.01 0.01 0.0 0.0 0.0 0.01 0.0 0.0 0.0 0.01 0.01 0.0 0.0 0.0 0.01 0.0 0.0 0.0 0.01 0.01 0.0 0.0 0.0 0.01 0.0 0.0 0.0 0.01 0.01 0.0 0.0 0.0 0.01 0.0 0.0 0.0 0.01 0.01 0.0 0.0 0.0 0.01 0.0 0.0 0.0 0.01 0.01 0.0 0.0 0.0 0.01 0.0 0.0 0.0 0.01 0.01 0.0 0.0 0.0 0.01 0.0 0.0 0.0 0.01 0.01 0.0 0.0 0.0 0.01 0.0 0.0 0.0 0.01 0.01 0.0 0.0 0.0 0.01 0.0 0.0 0.0 0.01 0.01 0.0 0.0 0.0 0.01 0.0 0.0 0.0 0.01 0.01 0.0 0.0 0.0 0.01 0.0 0.0 0.0 0.01 0.01 0.0 0.0 0.0 0.01 0.0 0.0 0.0 0.01 0.01 0.0 0.0 0.0 0.01 0.0 0.0 0.0 0.01 0.01 0.0 0.0 0.0 0.01 0.0 0.0 0.0 0.01 0.01 0.0 0.0 0.0 0.01 0.0 0.0 0.0 0.01 0.01 0.0 0.0 0.0 0.01 0.0 0.0 0.0 0.01 0.01 0.0 0.0 0.0 0.01 0.0 0.0 0.0 0.01 0.01 0.0 0.0 0.0 0.01 0.0 0.0 0.0 0.01 0.01 0.0 0.0 0.0 0.01 0.0 0.0 0.0 0.01 0.01 0.0 0.0 0.0 0.01 0.0 0.0 0.0 0.01 0.01 0.0 0.0 0.0 0.01 0.0 0.0 0.0 0.01 0.01 0.0 0.0 0.0 0.01 0.0 0.0 0.0 0.01 0.01 0.0 0.0 0.0 0.01 0.0 0.0 0.0 0.01 0.01 0.0 0.0 0.0 0.01 0.0 0.0 0.0 0.01 0.01 0.0 0.0 0.0 0.01 0.0 0.0 0.0 0.01 0.01 0.0 0.0 0.0 0.01 0.0 0.0 0.0 0.01 0.01 0.0 0.0 0.0 0.01 0.0 0.0 0.0 0.01 0.01 0.0 0.0 0.0 0.01 0.0 0.0 0.0 0.01 0.01 0.0 0.0 0.0 0.01 0.0 0.0 0.0 0.01 0.01 0.0 0.0 0.0 0.01 0.0 0.0 0.0 0.01 0.01 0.0 0.0 0.0 0.01 0.0 0.0 0.0 0.01 0.01 0.0 0.0 0.0 0.01 0.0 0.0 0.0 0.01 0.01 0.0 0.0 0.0 0.01 0.0 0.0 0.0 0.01 0.01 0.0 0.0 0.0 0.01 0.0 0.0 0.0 0.01 0.01 0.0 0.0 0.0 0.01 0.0 0.0 0.0 0.01 0.01 0.0 0.0 0.0 0.01 0.0 0.0 0.0 0.01 0.01 0.0 0.0 0.0 0.01 0.0 0.0 0.0 0.01 0.01 0.0 0.0 0.0 0.01 0.0 0.0 0.0 0.01 0.01 0.0 0.0 0.0 0.01 0.0 0.0 0.0 0.01 0.01 0.0 0.0 0.0 0.01 0.0 0.0 0.0 0.01 0.01 0.0 0.0 0.0 0.01 0.0 0.0 0.0 0.01 0.01 0.0 0.0 0.0 0.01 0.0 0.0 0.0 0.01 0.01 0.0 0.0 0.0 0.01 0.0 0.0 0.0 0.01 0.01 0.0 0.0 0.0 0.01 0.0 0.0 0.0 0.01 0.01 0.0 0.0 0.0 0.01 0.0 0.0 0.0 0.01 0.01 0.0 0.0 0.0 0.01 0.0 0.0 0.0 0.01 0.01 0.0 0.0 0.0 0.01 0.0 0.0 0.0 0.01 0.01 0.0 0.0 0.0 0.01 0.0 0.0 0.0 0.01 0.01 0.0 0.0 0.0 0.01 0.0 0.0 0.0 0.01 0.01 0.0 0.0 0.0 0.01 0.0 0.0 0.0 0.01 0.01 0.0 0.0 0.0 0.01 0.0 0.0 0.0 0.01 0.01 0.0 0.0 0.0 0.01 0.0 0.0 0.0 0.01 0.01 0.0 0.0 0.0 0.01 0.0 0.0 0.0 0.01 0.01 0.0 0.0 0.0 0.01 0.0 0.0 0.0 0.01 0.01 0.0 0.0 0.0 0.01 0.0 0.0 0.0 0.01 0.01 0.0 0.0 0.0 0.01 0.0 0.0 0.0 0.01 0.01 0.0 0.0 0.0 0.01 0.0 0.0 0.0 0.01 0.01 0.0 0.0 0.0 0.01 0.0 0.0 0.0 0.01 0.01 0.0 0.0 0.0 0.01 0.0 0.0 0.0 0.01 0.01 0.0 0.0 0.0 0.01 0.0 0.0 0.0 0.01 0.01 0.0 0.0 0.0 0.01 0.0 0.0 0.0 0.01 0.01 0.0 0.0 0.0 0.01 0.0 0.0 0.0 0.01 0.01 0.0 0.0 0.0 0.01 0.0 0.0 0.0 0.01 0.01 0.0 0.0 0.0 0.01 0.0 0.0 0.0 0.01 0.01 0.0 0.0 0.0 0.01 0.0 0.0 0.0 0.01 0.01 0.0 0.0 0.0 0.01 0.0 0.0 0.0 0.01 0.01 0.0 0.0 0.0 0.01 0.0 0.0 0.0 0.01 0.01 0.0 0.0 0.0 0.01 0.0 0.0 0.0 0.01 0.01 0.0 0.0 0.0 0.01 0.0 0.0 0.0 0.01 0.01 0.0 0.0 0.0 0.01 0.0 0.0 0.0 0.01 0.01 0.0 0.0 0.0 0.01 0.0 0.0 0.0 0.01 0.01 0.0 0.0 0.0 0.01 0.0 0.0 0.0 0.01 0.01 0.0 0.0 0.0 0.01 0.0 0.0 0.0 0.01 0.01 0.0 0.0 0.0 0.01 0.0 0.0 0.0 0.01 0.01 0.0 0.0 0.0 0.01 0.0 0.0 0.0 0.01 0.01 0.0 0.0 0.0 0.01 0.0 0.0 0.0 0.01 0.01 0.0 0.0 0.0 0.01 0.0 0.0 0.0 0.01 0.01 0.0 0.0 0.0 0.01 0.0 0.0 0.0 0.01 0.01 0.0 0.0 0.0 0.01 0.0 0.0 0.0 0.01 0.01 0.0 0.0 0.0 0.01 0.0 0.0 0.0 0.01 0.01 0.0 0.0 0.0 0.01 0.0 0.0 0.0 0.01 0.01 0.0 0.0 0.0 0.01 0.0 0.0 0.0 0.01 0.01 0.0 0.0 0.0 0.01 0.0 0.0 0.0 0.01 0.01 0.0 0.0 0.0 0.01 0.0 0.0 0.0 0.01 0.01 0.0 0.0 0.0 0.01 0.0 0.0 0.0 0.01 0.01 0.0 0.0 0.0 0.01 0.0 0.0 0.0 0.01 0.01 0.0 0.0 0.0 0.01 0.0 0.0 0.0 0.01 0.01 0.0 0.0 0.0 0.01 0.0 0.0 0.0 0.01 0.01 0.0 0.0 0.0 0.01 0.0 0.0 0.0 0.01 0.01 0.0 0.0 0.0 0.01 0.0 0.0 0.0 0.01 0.01 0.0 0.0 0.0 0.01 0.0 0.0 0.0 0.01 0.01 0.0 0.0 0.0 0.01 0.0 0.0 0.0 0.01 0.01 0.0 0.0 0.0 0.01 0.0 0.0 0.0 0.01 0.01 0.0 0.0 0.0 0.01 0.0 0.0 0.0 0.01 0.01 0.0 0.0 0.0 0.01 0.0 0.0 0.0 0.01 0.01 0.0 0.0 0.0 0.01 0.0 0.0 0.0 0.01 0.01 0.0 0.0 0.0 0.01 0.0 0.0 0.0 0.01 0.01 0.0 0.0 0.0 0.01 0.0 0.0 0.0 0.01 0.01 0.0 0.0 0.0 0.01 0.0 0.0 0.0 0.01 0.01 0.0 0.0 0.0 0.01 0.0 0.0 0.0 0.01 0.01 0.0 0.0 0.0 0.01 0.0 0.0 0.0 0.01 0.01 0.0 0.0 0.0 0.01 0.0 0.0 0.0 0.01 0.01 0.0 0.0 0.0 0.01 0.0 0.0 0.0 0.01 0.01 0.0 0.0 0.0 0.01 0.0 0.0 0.0 0.01 0.01 0.0 0.0 0.0 0.01 0.0 0.0 0.0 0.01 0.01 0.0 0.0 0.0 0.01 0.0 0.0 0.0 0.01 0.01 0.0 0.0 0.0 0.01 0.0 0.0 0.0 0.01 0.01 0.0 0.0 0.0 0.01 0.0 0.0 0.0 0.01 0.01 0.0 0.0 0.0 0.01 0.0 0.0 0.0 0.01 0.01 0.0 0.0 0.0 0.01 0.0 0.0 0.0 0.01 0.01 0.0 0.0 0.0 0.01 0.0 0.0 0.0 0.01 0.01 0.0 0.0 0.0 0.01 0.0 0.0 0.0 0.01 0.01 0.0 0.0 0.0 0.01 0.0 0.0 0.0 0.01 0.01 0.0 0.0 0.0 0.01 0.0 0.0 0.0 0.01 0.01 0.0 0.0 0.0 0.01 0.0 0.0 0.0 0.01 0.01 0.0 0.0 0.0 0.01 0.0 0.0 0.0 0.01 0.01 0.0 0.0 0.0 0.01 0.0 0.0 0.0 0.01 0.01 0.0 0.0 0.0 0.01 0.0 0.0 0.0 0.01 0.01 0.0 0.0 0.0 0.01 0.0 0.0 0.0 0.01 0.01 0.0 0.0 0.0 0.01 0.0 0.0 0.0 0.01 0.01 0.0 0.0 0.0 0.01 0.0 0.0 0.0 0.01 0.01 0.0 0.0 0.0 0.01 0.0 0.0 0.0 0.01 0.01 0.0 0.0 0.0 0.01 0.0 0.0 0.0 0.01 0.01 0.0 0.0 0.0 0.01 0.0 0.0 0.0 0.01 0.01 0.0 0.0 0.0 0.01 0.0 0.0 0.0 0.01 0.01 0.0 0.0 0.0 0.01 0.0 0.0 0.0 0.01 0.01 0.0 0.0 0.0 0.01 0.0 0.0 0.0 0.01 0.01 0.0 0.0 0.0 0.01 0.0 0.0 0.0 0.01 0.01 0.0 0.0 0.0 0.01 0.0 0.0 0.0 0.01 0.01 0.0 0.0 0.0 0.01 0.0 0.0 0.0 0.01 0.01 0.0 0.0 0.0 0.01 0.0 0.0 0.0 0.01 0.01 0.0 0.0 0.0 0.01 0.0 0.0 0.0 0.01 0.01 0.0 0.0 0.0 0.01 0.0 0.0 0.0 0.01 0.01 0.0 0.0 0.0 0.01 0.0 0.0 0.0 0.01 0.01 0.0 0.0 0.0 0.01 0.0 0.0 0.0 0.01 0.01 0.0 0.0 0.0 0.01 0.0 0.0 0.0 0.01 0.01 0.0 0.0 0.0 0.01 0.0 0.0 0.0 0.01 0.01 0.0 0.0 0.0 0.01 0.0 0.0 0.0 0.01 0.01 0.0 0.0 0.0 0.01 0.0 0.0 0.0 0.01 0.01 0.0 0.0 0.0 0.01 0.0 0.0 0.0 0.01 0.01 0.0 0.0 0.0 0.01 0.0 0.0 0.0 0.01 0.01 0.0 0.0 0.0 0.01 0.0 0.0 0.0 0.01 0.01 0.0 0.0 0.0 0.01 0.0 0.0 0.0 0.01 0.01 0.0 0.0 0.0 0.01 0.0 0.0 0.0 0.01 0.01 0.0 0.0 0.0 0.01 0.0 0.0 0.0 0.01 0.01 0.0 0.0 0.0 0.01 0.0 0.0 0.0 0.01 0.01 0.0 0.0 0.0 0.01 0.0 0.0 0.0 0.01 0.01 0.0 0.0 0.0 0.01 0.0 0.0 0.0 0.01 0.01 0.0 0.0 0.0 0.01 0.0 0.0 0.0 0.01 0.01 0.0 0.0 0.0 0.01 0.0 0.0 0.0 0.01 0.01 0.0 0.0 0.0 0.01 0.0 0.0 0.0 0.01 0.01 0.0 0.0 0.0 0.01 0.0 0.0 0.0 0.01 0.01 0.0 0.0 0.0 0.01 0.0 0.0 0.0 0.01 0.01 0.0 0.0 0.0 0.01 0.0 0.0 0.0 0.01 0.01 0.0 0.0 0.0 0.01 0.0 0.0 0.0 0.01 0.01 0.0 0.0 0.0 0.01 0.0 0.0 0.0 0.01 0.01 0.0 0.0 0.0 0.01 0.0 0.0 0.0 0.01 0.01 0.0 0.0 0.0 0.01 0.0 0.0 0.0 0.01 0.01 0.0 0.0 0.0 0.01 0.0 0.0 0.0 0.01 0.01 0.0 0.0 0.0 0.01 0.0 0.0 0.0 0.01 0.01 0.0 0.0 0.0 0.01 0.0 0.0 0.0 0.01 0.01 0.0 0.0 0.0 0.01 0.0 0.0 0.0 0.01 0.01 0.0 0.0 0.0 0.01 0.0 0.0 0.0 0.01 0.01 0.0 0.0 0.0 0.01 0.0 0.0 0.0 0.01 0.01 0.0 0.0 0.0 0.01 0.0 0.0 0.0 0.01 0.01 0.0 0.0 0.0 0.01 0.0 0.0 0.0 0.01 0.01 0.0 0.0 0.0 0.01 0.0 0.0 0.0 0.01 0.01 0.0 0.0 0.0 0.01 0.0 0.0 0.0 0.01 0.01 0.0 0.0 0.0 0.01 0.0 0.0 0.0 0.01 0.01 0.0 0.0 0.0 0.01 0.0 0.0 0.0 0.01 0.01 0.0 0.0 0.0 0.01 0.0 0.0 0.0 0.01 0.01 0.0 0.0 0.0 0.01 0.0 0.0 0.0 0.01 0.01 0.0 0.0 0.0 0.01 0.0 0.0 0.0 0.01 0.01 0.0 0.0 0.0 0.01 0.0 0.0 0.0 0.01 0.01 0.0 0.0 0.0 0.01 0.0 0.0 0.0 0.01 0.01 0.0 0.0 0.0 0.01 0.0 0.0 0.0 0.01 0.01 0.0 0.0 0.0 0.01 0.0 0.0 0.0 0.01 0.01 0.0 0.0 0.0 0.01 0.0 0.0 0.0 0.01 0.01 0.0 0.0 0.0 0.01 0.0 0.0 0.0 0.01 0.01 0.0 0.0 0.0 0.01 0.0 0.0 0.0 0.01 0.01 0.0 0.0 0.0 0.01 0.0 0.0 0.0 0.01 0.01 0.0 0.0 0.0 0.01 0.0 0.0 0.0 0.01 0.01 0.0 0.0 0.0 0.01 0.0 0.0 0.0 0.01 0.01 0.0 0.0 0.0 0.01 0.0 0.0 0.0 0.01 0.01 0.0 0.0 0.0 0.01 0.0 0.0 0.0 0.01 0.01 0.0 0.0 0.0 0.01 0.0 0.0 0.0 0.01 0.01 0.0 0.0 0.0 0.01 0.0 0.0 0.0 0.01 0.01 0.0 0.0 0.0 0.01 0.0 0.0 0.0 0.01 0.01 0.0 0.0 0.0 0.01 0.0 0.0 0.0 0.01 0.01 0.0 0.0 0.0 0.01 0.0 0.0 0.0 0.01 0.01 0.0 0.0 0.0 0.01 0.0 0.0 0.0 0.01 0.01 0.0 0.0 0.0 0.01 0.0 0.0 0.0 0.01 0.01 0.0 0.0 0.0 0.01 0.0 0.0 0.0 0.01 0.01 0.0 0.0 0.0 0.01 0.0 0.0 0.0 0.01 0.01 0.0 0.0 0.0 0.01 0.0 0.0 0.0 0.01 0.01 0.0 0.0 0.0 0.01 0.0 0.0 0.0 0.01 0.01 0.0 0.0 0.0 0.01 0.0 0.0 0.0 0.01 0.01 0.0 0.0 0.0 0.01 0.0 0.0 0.0 0.01 0.01 0.0 0.0 0.0 0.01 0.0 0.0 0.0 0.01 0.01 0.0 0.0 0.0 0.01 0.0 0.0 0.0 0.01 0.01 0.0 0.0 0.0 0.01 0.0 0.0 0.0 0.01 0.01 0.0 0.0 0.0 0.01 0.0 0.0 0.0 0.01 0.01 0.0 0.0 0.0 0.01 0.0 0.0 0.0 0.01 0.01 0.0 0.0 0.0 0.01 0.0 0.0 0.0 0.01 0.01 0.0 0.0 0.0 0.01 0.0 0.0 0.0 0.01 0.01 0.0 0.0 0.0 0.01 0.0 0.0 0.0 0.01 0.01 0.0 0.0 0.0 0.01 0.0 0.0 0.0 0.01 0.01 0.0 0.0 0.0 0.01 0.0 0.0 0.0 0.01 0.01 0.0 0.0 0.0 0.01 0.0 0.0 0.0 0.01 0.01 0.0 0.0 0.0 0.01 0.0 0.0 0.0 0.01 0.01 0.0 0.0 0.0 0.01 0.0 0.0 0.0 0.01 0.01 0.0 0.0 0.0 0.01 0.0 0.0 0.0 0.01 0.01 0.0 0.0 0.0 0.01 0.0 0.0 0.0 0.01 0.01 0.0 0.0 0.0 0.01 0.0 0.0 0.0 0.01 0.01 0.0 0.0 0.0 0.01 0.0 0.0 0.0 0.01 0.01 0.0 0.0 0.0 0.01 0.0 0.0 0.0 0.01 0.01 0.0 0.0 0.0 0.01 0.0 0.0 0.0 0.01 0.01 0.0 0.0 0.0 0.01 0.0 0.0 0.0 0.01 0.01 0.0 0.0 0.0 0.01 0.0 0.0 0.0 0.01 0.01 0.0 0.0 0.0 0.01 0.0 0.0 0.0 0.01 0.01 0.0 0.0 0.0 0.01 0.0 0.0 0.0 0.01 0.01 0.0 0.0 0.0 0.01 0.0 0.0 0.0 0.01 0.01 0.0 0.0 0.0 0.01 0.0 0.0 0.0 0.01 0.01 0.0 0.0 0.0 0.01 0.0 0.0 0.0 0.01 0.01 0.0 0.0 0.0 0.01 0.0 0.0 0.0 0.01 0.01 0.0 0.0 0.0 0.01 0.0 0.0 0.0 0.01 0.01 0.0 0.0 0.0 0.01 0.0 0.0 0.0 0.01 0.01 0.0 0.0 0.0 0.01 0.0 0.0 0.0 0.01 0.01 0.0 0.0 0.0 0.01 0.0 0.0 0.0 0.01 0.01 0.0 0.0 0.0 0.01 0.0 0.0 0.0 0.01 0.01 0.0 0.0 0.0 0.01 0.0 0.0 0.0 0.01 0.01 0.0 0.0 0.0 0.01 0.0 0.0 0.0 0.01 0.01 0.0 0.0 0.0 0.01 0.0 0.0 0.0 0.01 0.01 0.0 0.0 0.0 0.01 0.0 0.0 0.0 0.01 0.01 0.0 0.0 0.0 0.01 0.0 0.0 0.0 0.01 0.01 0.0 0.0 0.0 0.01 0.0 0.0 0.0 0.01 0.01 0.0 0.0 0.0 0.01 0.0 0.0 0.0 0.01 0.01 0.0 0.0 0.0 0.01 0.0 0.0 0.0 0.01 0.01 0.0 0.0 0.0 0.01 0.0 0.0 0.0 0.01 0.01 0.0 0.0 0.0 0.01 0.0 0.0 0.0 0.01 0.01 0.0 0.0 0.0 0.01 0.0 0.0 0.0 0.01 0.01 0.0 0.0 0.0 0.01 0.0 0.0 0.0 0.01 0.01 0.0 0.0 0.0 0.01 0.0 0.0 0.0 0.01 0.01 0.0 0.0 0.0 0.01 0.0 0.0 0.0 0.01 0.01 0.0 0.0 0.0 0.01 0.0 0.0 0.0 0.01 0.01 0.0 0.0 0.0 0.01 0.0 0.0 0.0 0.01 0.01 0.0 0.0 0.0 0.01 0.0 0.0 0.0 0.01 0.01 0.0 0.0 0.0 0.01 0.0 0.0 0.0 0.01 0.01 0.0 0.0 0.0 0.01 0.0 0.0 0.0 0.01 0.01 0.0 0.0 0.0 0.01 0.0 0.0 0.0 0.01 0.01 0.0 0.0 0.0 0.01 0.0 0.0 0.0 0.01 0.01 0.0 0.0 0.0 0.01 0.0 0.0 0.0 0.01 0.01 0.0 0.0 0.0 0.01 0.0 0.0 0.0 0.01 0.01 0.0 0.0 0.0 0.01 0.0 0.0 0.0 0.01 0.01 0.0 0.0 0.0 0.01 0.0 0.0 0.0 0.01 0.01 0.0 0.0 0.0 0.01 0.0 0.0 0.0 0.01 0.01 0.0 0.0 0.0 0.01 0.0 0.0 0.0 0.01 0.01 0.0 0.0 0.0 0.01 0.0 0.0 0.0 0.01 0.01 0.0 0.0 0.0 0.01 0.0 0.0 0.0 0.01 0.01 0.0 0.0 0.0 0.01 0.0 0.0 0.0 0.01 0.01 0.0 0.0 0.0 0.01 0.0 0.0 0.0 0.01 0.01 0.0 0.0 0.0 0.01 0.0 0.0 0.0 0.01 0.01 0.0 0.0 0.0 0.01 0.0 0.0 0.0 0.01 0.01 0.0 0.0 0.0 0.01 0.0 0.0 0.0 0.01 0.01 0.0 0.0 0.0 0.01 0.0 0.0 0.0 0.01 0.01 0.0 0.0 0.0 0.01 0.0 0.0 0.0 0.01 0.01 0.0 0.0 0.0 0.01 0.0 0.0 0.0 0.01 0.01 0.0 0.0 0.0 0.01 0.0 0.0 0.0 0.01 0.01 0.0 0.0 0.0 0.01 0.0 0.0 0.0 0.01 0.01 0.0 0.0 0.0 0.01 0.0 0.0 0.0 0.01 0.01 0.0 0.0 0.0 0.01 0.0 0.0 0.0 0.01 0.01 0.0 0.0 0.0 0.01 0.0 0.0 0.0 0.01 0.01 0.0 0.0 0.0 0.01 0.0 0.0 0.0 0.01 0.01 0.0 0.0 0.0 0.01 0.0 0.0 0.0 0.01 0.01 0.0 0.0 0.0 0.01 0.0 0.0 0.0 0.01 0.01 0.0 0.0 0.0 0.01 0.0 0.0 0.0 0.01 0.01 0.0 0.0 0.0 0.01 0.0 0.0 0.0 0.01 0.01 0.0 0.0 0.0 0.01 0.0 0.0 0.0 0.01 0.01 0.0 0.0 0.0 0.01 0.0 0.0 0.0 0.01 0.01 0.0 0.0 0.0 0.01 0.0 0.0 0.0 0.01 0.01 0.0 0.0 0.0 0.01 0.0 0.0 0.0 0.01 0.01 0.0 0.0 0.0 0.01 0.0 0.0 0.0 0.01 0.01 0.0 0.0 0.0 0.01 0.0 0.0 0.0 0.01 0.01 0.0 0.0 0.0 0.01 0.0 0.0 0.0 0.01 0.01 0.0 0.0 0.0 0.01 0.0 0.0 0.0 0.01 0.01 0.0 0.0 0.0 0.01 0.0 0.0 0.0 0.01 0.01 0.0 0.0 0.0 0.01 0.0 0.0 0.0 0.01 0.01 0.0 0.0 0.0 0.01 0.0 0.0 0.0 0.01 0.01 0.0 0.0 0.0 0.01 0.0 0.0 0.0 0.01 0.01 0.0 0.0 0.0 0.01 0.0 0.0 0.0 0.01 0.01 0.0 0.0 0.0 0.01 0.0 0.0 0.0 0.01 0.01 0.0 0.0 0.0 0.01 0.0 0.0 0.0 0.01 0.01 0.0 0.0 0.0 0.01 0.0 0.0 0.0 0.01 0.01 0.0 0.0 0.0 0.01 0.0 0.0 0.0 0.01 0.01 0.0 0.0 0.0 0.01 0.0 0.0 0.0 0.01 0.01 0.0 0.0 0.0 0.01 0.0 0.0 0.0 0.01 0.01 0.0 0.0 0.0 0.01 0.0 0.0 0.0 0.01 0.01 0.0 0.0 0.0 0.01 0.0 0.0 0.0 0.01 0.01 0.0 0.0 0.0 0.01 0.0 0.0 0.0 0.01 0.01 0.0 0.0 0.0 0.01 0.0 0.0 0.0 0.01 0.01 0.0 0.0 0.0 0.01 0.0 0.0 0.0 0.01 0.01 0.0 0.0 0.0 0.01 0.0 0.0 0.0 0.01 0.01 0.0 0.0 0.0 0.01 0.0 0.0 0.0 0.01 0.01 0.0 0.0 0.0 0.01 0.0 0.0 0.0 0.01 0.01 0.0 0.0 0.0 0.01 0.0 0.0 0.0 0.01 0.01 0.0 0.0 0.0 0.01 0.0 0.0 0.0 0.01 0.01 0.0 0.0 0.0 0.01 0.0 0.0 0.0 0.01 0.01 0.0 0.0 0.0 0.01 0.0 0.0 0.0 0.01 0.01 0.0 0.0 0.0 0.01 0.0 0.0 0.0 0.01 0.01 0.0 0.0 0.0 0.01 0.0 0.0 0.0 0.01 0.01 0.0 0.0 0.0 0.01 0.0 0.0 0.0 0.01 0.01 0.0 0.0 0.0 0.01 0.0 0.0 0.0 0.01 0.01 0.0 0.0 0.0 0.01 0.0 0.0 0.0 0.01 0.01 0.0 0.0 0.0 0.01 0.0 0.0 0.0 0.01 0.01 0.0 0.0 0.0 0.01 0.0 0.0 0.0 0.01 0.01 0.0 0.0 0.0 0.01 0.0 0.0 0.0 0.01 0.01 0.0 0.0 0.0 0.01 0.0 0.0 0.0 0.01 0.01 0.0 0.0 0.0 0.01 0.0 0.0 0.0 0.01 0.01 0.0 0.0 0.0 0.01 0.0 0.0 0.0 0.01 0.01 0.0 0.0 0.0 0.01 0.0 0.0 0.0 0.01 0.01 0.0 0.0 0.0 0.01 0.0 0.0 0.0 0.01 0.01 0.0 0.0 0.0 0.01 0.0 0.0 0.0 0.01 0.01 0.0 0.0 0.0 0.01 0.0 0.0 0.0 0.01 0.01 0.0 0.0 0.0 0.01 0.0 0.0 0.0 0.01 0.01 0.0 0.0 0.0 0.01 0.0 0.0 0.0 0.01 0.01 0.0 0.0 0.0 0.01 0.0 0.0 0.0 0.01 0.01 0.0 0.0 0.0 0.01 0.0 0.0 0.0 0.01 0.01 0.0 0.0 0.0 0.01 0.0 0.0 0.0 0.01 0.01 0.0 0.0 0.0 0.01 0.0 0.0 0.0 0.01 0.01 0.0 0.0 0.0 0.01 0.0 0.0 0.0 0.01 0.01 0.0 0.0 0.0 0.01 0.0 0.0 0.0 0.01 0.01 0.0 0.0 0.0 0.01 0.0 0.0 0.0 0.01 0.01 0.0 0.0 0.0 0.01 0.0 0.0 0.0 0.01 0.01 0.0 0.0 0.0 0.01 0.0 0.0 0.0 0.01 0.01 0.0 0.0 0.0 0.01 0.0 0.0 0.0 0.01 0.01 0.0 0.0 0.0 0.01 0.0 0.0 0.0 0.01 0.01 0.0 0.0 0.0 0.01 0.0 0.0 0.0 0.01 0.01 0.0 0.0 0.0 0.01 0.0 0.0 0.0 0.01 0.01 0.0 0.0 0.0 0.01 0.0 0.0 0.0 0.01 0.01 0.0 0.0 0.0 0.01 0.0 0.0 0.0 0.01 0.01 0.0 0.0 0.0 0.01 0.0 0.0 0.0 0.01 0.01 0.0 0.0 0.0 0.01 0.0 0.0 0.0 0.01 0.01 0.0 0.0 0.0 0.01 0.0 0.0 0.0 0.01 0.01 0.0 0.0 0.0 0.01 0.0 0.0 0.0 0.01 0.01 0.0 0.0 0.0 0.01 0.0 0.0 0.0 0.01 0.01 0.0 0.0 0.0 0.01 0.0 0.0 0.0 0.01 0.01 0.0 0.0 0.0 0.01 0.0 0.0 0.0 0.01 0.01 0.0 0.0 0.0 0.01 0.0 0.0 0.0 0.01 0.01 0.0 0.0 0.0 0.01 0.0 0.0 0.0 0.01 0.01 0.0 0.0 0.0 0.01 0.0 0.0 0.0 0.01 0.01 0.0 0.0 0.0 0.01 0.0 0.0 0.0 0.01 0.01 0.0 0.0 0.0 0.01 0.0 0.0 0.0 0.01 0.01 0.0 0.0 0.0 0.01 0.0 0.0 0.0 0.01 0.01 0.0 0.0 0.0 0.01 0.0 0.0 0.0 0.01 0.01 0.0 0.0 0.0 0.01 0.0 0.0 0.0 0.01 0.01 0.0 0.0 0.0 0.01 0.0 0.0 0.0 0.01 0.01 0.0 0.0 0.0 0.01 0.0 0.0 0.0 0.01 0.01 0.0 0.0 0.0 0.01 0.0 0.0 0.0 0.01 0.01 0.0 0.0 0.0 0.01 0.0 0.0 0.0 0.01 0.01 0.0 0.0 0.0 0.01 0.0 0.0 0.0 0.01 0.01 0.0 0.0 0.0 0.01 0.0 0.0 0.0 0.01 0.01 0.0 0.0 0.0 0.01 0.0 0.0 0.0 0.01 0.01 0.0 0.0 0.0 0.01 0.0 0.0 0.0 0.01 0.01 0.0 0.0 0.0 0.01 0.0 0.0 0.0 0.01 0.01 0.0 0.0 0.0 0.01 0.0 0.0 0.0 0.01 0.01 0.0 0.0 0.0 0.01 0.0 0.0 0.0 0.01 0.01 0.0 0.0 0.0 0.01 0.0 0.0 0.0 0.01 0.01 0.0 0.0 0.0 0.01 0.0 0.0 0.0 0.01 0.01 0.0 0.0 0.0 0.01 0.0 0.0 0.0 0.01 0.01 0.0 0.0 0.0 0.01 0.0 0.0 0.0 0.01 0.01 0.0 0.0 0.0 0.01 0.0 0.0 0.0 0.01 0.01 0.0 0.0 0.0 0.01 0.0 0.0 0.0 0.01 0.01 0.0 0.0 0.0 0.01 0.0 0.0 0.0 0.01 0.01 0.0 0.0 0.0 0.01 0.0 0.0 0.0 0.01 0.01 0.0 0.0 0.0 0.01 0.0 0.0 0.0 0.01 0.01 0.0 0.0 0.0 0.01 0.0 0.0 0.0 0.01 0.01 0.0 0.0 0.0 0.01 0.0 0.0 0.0 0.01 0.01 0.0 0.0 0.0 0.01 0.0 0.0 0.0 0.01 0.01 0.0 0.0 0.0 0.01 0.0 0.0 0.0 0.01 0.01 0.0 0.0 0.0 0.01 0.0 0.0 0.0 0.01 0.01 0.0 0.0 0.0 0.01 0.0 0.0 0.0 0.01 0.01 0.0 0.0 0.0 0.01 0.0 0.0 0.0 0.01 0.01 0.0 0.0 0.0 0.01 0.0 0.0 0.0 0.01 0.01 0.0 0.0 0.0 0.01 0.0 0.0 0.0 0.01 0.01 0.0 0.0 0.0 0.01 0.0 0.0 0.0 0.01 0.01 0.0 0.0 0.0 0.01 0.0 0.0 0.0 0.01 0.01 0.0 0.0 0.0 0.01 0.0 0.0 0.0 0.01 0.01 0.0 0.0 0.0 0.01 0.0 0.0 0.0 0.01 0.01 0.0 0.0 0.0 0.01 0.0 0.0 0.0 0.01 0.01 0.0 0.0 0.0 0.01 0.0 0.0 0.0 0.01 0.01 0.0 0.0 0.0 0.01 0.0 0.0 0.0 0.01 0.01 0.0 0.0 0.0 0.01 0.0 0.0 0.0 0.01 0.01 0.0 0.0 0.0 0.01 0.0 0.0 0.0 0.01 0.01 0.0 0.0 0.0 0.01 0.0 0.0 0.0 0.01 0.01 0.0 0.0 0.0 0.01 0.0 0.0 0.0 0.01 0.01 0.0 0.0 0.0 0.01 0.0 0.0 0.0 0.01 0.01 0.0 0.0 0.0 0.01 0.0 0.0 0.0 0.01 0.01 0.0 0.0 0.0 0.01 0.0 0.0 0.0 0.01 0.01 0.0 0.0 0.0 0.01 0.0 0.0 0.0 0.01 0.01 0.0 0.0 0.0 0.01 0.0 0.0 0.0 0.01 0.01 0.0 0.0 0.0 0.01 0.0 0.0 0.0 0.01 0.01 0.0 0.0 0.0 0.01 0.0 0.0 0.0 0.01 0.01 0.0 0.0 0.0 0.01 0.0 0.0 0.0 0.01 0.01 0.0 0.0 0.0 0.01 0.0 0.0 0.0 0.01 0.01 0.0 0.0 0.0 0.01 0.0 0.0 0.0 0.01 0.01 0.0 0.0 0.0 0.01 0.0 0.0 0.0 0.01 0.01 0.0 0.0 0.0 0.01 0.0 0.0 0.0 0.01 0.01 0.0 0.0 0.0 0.01 0.0 0.0 0.0 0.01 0.01 0.0 0.0 0.0 0.01 0.0 0.0 0.0 0.01 0.01 0.0 0.0 0.0 0.01 0.0 0.0 0.0 0.01 0.01 0.0 0.0 0.0 0.01 0.0 0.0 0.0 0.01 0.01 0.0 0.0 0.0 0.01 0.0 0.0 0.0 0.01 0.01 0.0 0.0 0.0 0.01 0.0 0.0 0.0 0.01 0.01 0.0 0.0 0.0 0.01 0.0 0.0 0.0 0.01 0.01 0.0 0.0 0.0 0.01 0.0 0.0 0.0 0.01 0.01 0.0 0.0 0.0 0.01 0.0 0.0 0.0 0.01 0.01 0.0 0.0 0.0 0.01 0.0 0.0 0.0 0.01 0.01 0.0 0.0 0.0 0.01 0.0 0.0 0.0 0.01 0.01 0.0 0.0 0.0 0.01 0.0 0.0 0.0 0.01 0.01 0.0 0.0 0.0 0.01 0.0 0.0 0.0 0.01 0.01 0.0 0.0 0.0 0.01 0.0 0.0 0.0 0.01 0.01 0.0 0.0 0.0 0.01 0.0 0.0 0.0 0.01 0.01 0.0 0.0 0.0 0.01 0.0 0.0 0.0 0.01 0.01 0.0 0.0 0.0 0.01 0.0 0.0 0.0 0.01 0.01 0.0 0.0 0.0 0.01 0.0 0.0 0.0 0.01 0.01 0.0 0.0 0.0 0.01 0.0 0.0 0.0 0.01 0.01 0.0 0.0 0.0 0.01 0.0 0.0 0.0 0.01 0.01 0.0 0.0 0.0 0.01 0.0 0.0 0.0 0.01 0.01 0.0 0.0 0.0 0.01 0.0 0.0 0.0 0.01 0.01 0.0 0.0 0.0 0.01 0.0 0.0 0.0 0.01 0.01 0.0 0.0 0.0 0.01 0.0 0.0 0.0 0.01 0.01 0.0 0.0 0.0 0.01 0.0 0.0 0.0 0.01 0.01 0.0 0.0 0.0 0.01 0.0 0.0 0.0 0.01 0.01 0.0 0.0 0.0 0.01 0.0 0.0 0.0 0.01 0.01 0.0 0.0 0.0 0.01 0.0 0.0 0.0 0.01 0.01 0.0 0.0 0.0 0.01 0.0 0.0 0.0 0.01 0.01 0.0 0.0 0.0 0.01 0.0 0.0 0.0 0.01 0.01 0.0 0.0 0.0 0.01 0.0 0.0 0.0 0.01 0.01 0.0 0.0 0.0 0.01 0.0 0.0 0.0 0.01 0.01 0.0 0.0 0.0 0.01 0.0 0.0 0.0 0.01 0.01 0.0 0.0 0.0 0.01 0.0 0.0 0.0 0.01 0.01 0.0 0.0 0.0 0.01 0.0 0.0 0.0 0.01 0.01 0.0 0.0 0.0 0.01 0.0 0.0 0.0 0.01 0.01 0.0 0.0 0.0 0.01 0.0 0.0 0.0 0.01 0.01 0.0 0.0 0.0 0.01 0.0 0.0 0.0 0.01 0.01 0.0 0.0 0.0 0.01 0.0 0.0 0.0 0.01 0.01 0.0 0.0 0.0 0.01 0.0 0.0 0.0 0.01 0.01 0.0 0.0 0.0 0.01 0.0 0.0 0.0 0.01 0.01 0.0 0.0 0.0 0.01 0.0 0.0 0.0 0.01 0.01 0.0 0.0 0.0 0.01 0.0 0.0 0.0 0.01 0.01 0.0 0.0 0.0 0.01 0.0 0.0 0.0 0.01 0.01 0.0 0.0 0.0 0.01 0.0 0.0 0.0 0.01 0.01 0.0 0.0 0.0 0.01 0.0 0.0 0.0 0.01 0.01 0.0 0.0 0.0 0.01 0.0 0.0 0.0 0.01 0.01 0.0 0.0 0.0 0.01 0.0 0.0 0.0 0.01 0.01 0.0 0.0 0.0 0.01 0.0 0.0 0.0 0.01 0.01 0.0 0.0 0.0 0.01 0.0 0.0 0.0 0.01 0.01 0.0 0.0 0.0 0.01 0.0 0.0 0.0 0.01 0.01 0.0 0.0 0.0 0.01 0.0 0.0 0.0 0.01 0.01 0.0 0.0 0.0 0.01 0.0 0.0 0.0 0.01 0.01 0.0 0.0 0.0 0.01 0.0 0.0 0.0 0.01 0.01 0.0 0.0 0.0 0.01 0.0 0.0 0.0 0.01 0.01 0.0 0.0 0.0 0.01 0.0 0.0 0.0 0.01 0.01 0.0 0.0 0.0 0.01 0.0 0.0 0.0 0.01 0.01 0.0 0.0 0.0 0.01 0.0 0.0 0.0 0.01 0.01 0.0 0.0 0.0 0.01 0.0 0.0 0.0 0.01 0.01 0.0 0.0 0.0 0.01 0.0 0.0 0.0 0.01 0.01 0.0 0.0 0.0 0.01 0.0 0.0 0.0 0.01 0.01 0.0 0.0 0.0 0.01 0.0 0.0 0.0 0.01 0.01 0.0 0.0 0.0 0.01 0.0 0.0 0.0 0.01 0.01 0.0 0.0 0.0 0.01 0.0 0.0 0.0 0.01 0.01 0.0 0.0 0.0 0.01 0.0 0.0 0.0 0.01 0.01 0.0 0.0 0.0 0.01 0.0 0.0 0.0 0.01 0.01 0.0 0.0 0.0 0.01 0.0 0.0 0.0 0.01 0.01 0.0 0.0 0.0 0.01 0.0 0.0 0.0 0.01 0.01 0.0 0.0 0.0 0.01 0.0 0.0 0.0 0.01 0.01 0.0 0.0 0.0 0.01 0.0 0.0 0.0 0.01 0.01 0.0 0.0 0.0 0.01 0.0 0.0 0.0 0.01 0.01 0.0 0.0 0.0 0.01 0.0 0.0 0.0 0.01 0.01 0.0 0.0 0.0 0.01 0.0 0.0 0.0 0.01 0.01 0.0 0.0 0.0 0.01 0.0 0.0 0.0 0.01 0.01 0.0 0.0 0.0 0.01 0.0 0.0 0.0 0.01 0.01 0.0 0.0 0.0 0.01 0.0 0.0 0.0 0.01 0.01 0.0 0.0 0.0 0.01 0.0 0.0 0.0 0.01 0.01 0.0 0.0 0.0 0.01 0.0 0.0 0.0 0.01 0.01 0.0 0.0 0.0 0.01 0.0 0.0 0.0 0.01 0.01 0.0 0.0 0.0 0.01 0.0 0.0 0.0 0.01 0.01 0.0 0.0 0.0 0.01 0.0 0.0 0.0 0.01 0.01 0.0 0.0 0.0 0.01 0.0 0.0 0.0 0.01 0.01 0.0 0.0 0.0 0.01 0.0 0.0 0.0 0.01 0.01 0.0 0.0 0.0 0.01 0.0 0.0 0.0 0.01 0.01 0.0 0.0 0.0 0.01 0.0 0.0 0.0 0.01 0.01 0.0 0.0 0.0 0.01 0.0 0.0 0.0 0.01 0.01 0.0 0.0 0.0 0.01 0.0 0.0 0.0 0.01 0.01 0.0 0.0 0.0 0.01 0.0 0.0 0.0 0.01 0.01 0.0 0.0 0.0 0.01 0.0 0.0 0.0 0.01 0.01 0.0 0.0 0.0 0.01 0.0 0.0 0.0 0.01 0.01 0.0 0.0 0.0 0.01 0.0 0.0 0.0 0.01 0.01 0.0 0.0 0.0 0.01 0.0 0.0 0.0 0.01 0.01 0.0 0.0 0.0 0.01 0.0 0.0 0.0 0.01 0.01 0.0 0.0 0.0 0.01 0.0 0.0 0.0 0.01 0.01 0.0 0.0 0.0 0.01 0.0 0.0 0.0 0.01 0.01 0.0 0.0 0.0 0.01 0.0 0.0 0.0 0.01 0.01 0.0 0.0 0.0 0.01 0.0 0.0 0.0 0.01 0.01 0.0 0.0 0.0 0.01 0.0 0.0 0.0 0.01 0.01 0.0 0.0 0.0 0.01 0.0 0.0 0.0 0.01 0.01 0.0 0.0 0.0 0.01 0.0 0.0 0.0 0.01 0.01 0.0 0.0 0.0 0.01 0.0 0.0 0.0 0.01 0.01 0.0 0.0 0.0 0.01 0.0 0.0 0.0 0.01 0.01 0.0 0.0 0.0 0.01 0.0 0.0 0.0 0.01 0.01 0.0 0.0 0.0 0.01 0.0 0.0 0.0 0.01 0.01 0.0 0.0 0.0 0.01 0.0 0.0 0.0 0.01 0.01 0.0 0.0 0.0 0.01 0.0 0.0 0.0 0.01 0.01 0.0 0.0 0.0 0.01 0.0 0.0 0.0 0.01 0.01 0.0 0.0 0.0 0.01 0.0 0.0 0.0 0.01 0.01 0.0 0.0 0.0 0.01 0.0 0.0 0.0 0.01 0.01 0.0 0.0 0.0 0.01 0.0 0.0 0.0 0.01 0.01 0.0 0.0 0.0 0.01 0.0 0.0 0.0 0.01 0.01 0.0 0.0 0.0 0.01 0.0 0.0 0.0 0.01 0.01 0.0 0.0 0.0 0.01 0.0 0.0 0.0 0.01 0.01 0.0 0.0 0.0 0.01 0.0 0.0 0.0 0.01 0.01 0.0 0.0 0.0 0.01 0.0 0.0 0.0 0.01 0.01 0.0 0.0 0.0 0.01 0.0 0.0 0.0 0.01 0.01 0.0 0.0 0.0 0.01 0.0 0.0 0.0 0.01 0.01 0.0 0.0 0.0 0.01 0.0 0.0 0.0 0.01 0.01 0.0 0.0 0.0 0.01 0.0 0.0 0.0 0.01 0.01 0.0 0.0 0.0 0.01 0.0 0.0 0.0 0.01 0.01 0.0 0.0 0.0 0.01 0.0 0.0 0.0 0.01 0.01 0.0 0.0 0.0 0.01 0.0 0.0 0.0 0.01 0.01 0.0 0.0 0.0 0.01 0.0 0.0 0.0 0.01 0.01 0.0 0.0 0.0 0.01 0.0 0.0 0.0 0.01 0.01 0.0 0.0 0.0 0.01 0.0 0.0 0.0 0.01 0.01 0.0 0.0 0.0 0.01 0.0 0.0 0.0 0.01 0.01 0.0 0.0 0.0 0.01 0.0 0.0 0.0 0.01 0.01 0.0 0.0 0.0 0.01 0.0 0.0 0.0 0.01 0.01 0.0 0.0 0.0 0.01 0.0 0.0 0.0 0.01 0.01 0.0 0.0 0.0 0.01 0.0 0.0 0.0 0.01 0.01 0.0 0.0 0.0 0.01 0.0 0.0 0.0 0.01 0.01 0.0 0.0 0.0 0.01 0.0 0.0 0.0 0.01 0.01 0.0 0.0 0.0 0.01 0.0 0.0 0.0 0.01 0.01 0.0 0.0 0.0 0.01 0.0 0.0 0.0 0.01 0.01 0.0 0.0 0.0 0.01 0.0 0.0 0.0 0.01 0.01 0.0 0.0 0.0 0.01 0.0 0.0 0.0 0.01 0.01 0.0 0.0 0.0 0.01 0.0 0.0 0.0 0.01 0.01 0.0 0.0 0.0 0.01 0.0 0.0 0.0 0.01 0.01 0.0 0.0 0.0 0.01 0.0 0.0 0.0 0.01 0.01 0.0 0.0 0.0 0.01 0.0 0.0 0.0 0.01 0.01 0.0 0.0 0.0 0.01 0.0 0.0 0.0 0.01 0.01 0.0 0.0 0.0 0.01 0.0 0.0 0.0 0.01 0.01 0.0 0.0 0.0 0.01 0.0 0.0 0.0 0.01 0.01 0.0 0.0 0.0 0.01 0.0 0.0 0.0 0.01 0.01 0.0 0.0 0.0 0.01 0.0 0.0 0.0 0.01 0.01 0.0 0.0 0.0 0.01 0.0 0.0 0.0 0.01 0.01 0.0 0.0 0.0 0.01 0.0 0.0 0.0 0.01 0.01 0.0 0.0 0.0 0.01 0.0 0.0 0.0 0.01 0.01 0.0 0.0 0.0 0.01 0.0 0.0 0.0 0.01 0.01 0.0 0.0 0.0 0.01 0.0 0.0 0.0 0.01 0.01 0.0 0.0 0.0 0.01 0.0 0.0 0.0 0.01 0.01 0.0 0.0 0.0 0.01 0.0 0.0 0.0 0.01 0.01 0.0 0.0 0.0 0.01 0.0 0.0 0.0 0.01 0.01 0.0 0.0 0.0 0.01 0.0 0.0 0.0 0.01 0.01 0.0 0.0 0.0 0.01 0.0 0.0 0.0 0.01 0.01 0.0 0.0 0.0 0.01 0.0 0.0 0.0 0.01 0.01 0.0 0.0 0.0 0.01 0.0 0.0 0.0 0.01 0.01 0.0 0.0 0.0 0.01 0.0 0.0 0.0 0.01 0.01 0.0 0.0 0.0 0.01 0.0 0.0 0.0 0.01 0.01 0.0 0.0 0.0 0.01 0.0 0.0 0.0 0.01 0.01 0.0 0.0 0.0 0.01 0.0 0.0 0.0 0.01 0.01 0.0 0.0 0.0 0.01 0.0 0.0 0.0 0.01 0.01 0.0 0.0 0.0 0.01 0.0 0.0 0.0 0.01 0.01 0.0 0.0 0.0 0.01 0.0 0.0 0.0 0.01 0.01 0.0 0.0 0.0 0.01 0.0 0.0 0.0 0.01 0.01 0.0 0.0 0.0 0.01 0.0 0.0 0.0 0.01 0.01 0.0 0.0 0.0 0.01 0.0 0.0 0.0 0.01 0.01 0.0 0.0 0.0 0.01 0.0 0.0 0.0 0.01 0.01 0.0 0.0 0.0 0.01 0.0 0.0 0.0 0.01 0.01 0.0 0.0 0.0 0.01 0.0 0.0 0.0 0.01 0.01 0.0 0.0 0.0 0.01 0.0 0.0 0.0 0.01 0.01 0.0 0.0 0.0 0.01 0.0 0.0 0.0 0.01 0.01 0.0 0.0 0.0 0.01 0.0 0.0 0.0 0.01 0.01 0.0 0.0 0.0 0.01 0.0 0.0 0.0 0.01 0.01 0.0 0.0 0.0 0.01 0.0 0.0 0.0 0.01 0.01 0.0 0.0 0.0 0.01 0.0 0.0 0.0 0.01 0.01 0.0 0.0 0.0 0.01 0.0 0.0 0.0 0.01 0.01 0.0 0.0 0.0 0.01 0.0 0.0 0.0 0.01 0.01 0.0 0.0 0.0 0.01 0.0 0.0 0.0 0.01 0.01 0.0 0.0 0.0 0.01 0.0 0.0 0.0 0.01 0.01 0.0 0.0 0.0 0.01 0.0 0.0 0.0 0.01 0.01 0.0 0.0 0.0 0.01 0.0 0.0 0.0 0.01 0.01 0.0 0.0 0.0 0.01 0.0 0.0 0.0 0.01 0.01 0.0 0.0 0.0 0.01 0.0 0.0 0.0 0.01 0.01 0.0 0.0 0.0 0.01 0.0 0.0 0.0 0.01 0.01 0.0 0.0 0.0 0.01 0.0 0.0 0.0 0.01 0.01 0.0 0.0 0.0 0.01 0.0 0.0 0.0 0.01 0.01 0.0 0.0 0.0 0.01 0.0 0.0 0.0 0.01 0.01 0.0 0.0 0.0 0.01 0.0 0.0 0.0 0.01 0.01 0.0 0.0 0.0 0.01 0.0 0.0 0.0 0.01 0.01 0.0 0.0 0.0 0.01 0.0 0.0 0.0 0.01 0.01 0.0 0.0 0.0 0.01 0.0 0.0 0.0 0.01 0.01 0.0 0.0 0.0 0.01 0.0 0.0 0.0 0.01 0.01 0.0 0.0 0.0 0.01 0.0 0.0 0.0 0.01 0.01 0.0 0.0 0.0 0.01 0.0 0.0 0.0 0.01 0.01 0.0 0.0 0.0 0.01 0.0 0.0 0.0 0.01 0.01 0.0 0.0 0.0 0.01 0.0 0.0 0.0 0.01 0.01 0.0 0.0 0.0 0.01 0.0 0.0 0.0 0.01 0.01 0.0 0.0 0.0 0.01 0.0 0.0 0.0 0.01 0.01 0.0 0.0 0.0 0.01 0.0 0.0 0.0 0.01 0.01 0.0 0.0 0.0 0.01 0.0 0.0 0.0 0.01 0.01 0.0 0.0 0.0 0.01 0.0 0.0 0.0 0.01 0.01 0.0 0.0 0.0 0.01 0.0 0.0 0.0 0.01 0.01 0.0 0.0 0.0 0.01 0.0 0.0 0.0 0.01 0.01 0.0 0.0 0.0 0.01 0.0 0.0 0.0 0.01 0.01 0.0 0.0 0.0 0.01 0.0 0.0 0.0 0.01 0.01 0.0 0.0 0.0 0.01 0.0 0.0 0.0 0.01 0.01 0.0 0.0 0.0 0.01 0.0 0.0 0.0 0.01 0.01 0.0 0.0 0.0 0.01 0.0 0.0 0.0 0.01 0.01 0.0 0.0 0.0 0.01 0.0 0.0 0.0 0.01 0.01 0.0 0.0 0.0 0.01 0.0 0.0 0.0 0.01 0.01 0.0 0.0 0.0 0.01 0.0 0.0 0.0 0.01 0.01 0.0 0.0 0.0 0.01 0.0 0.0 0.0 0.01 0.01 0.0 0.0 0.0 0.01 0.0 0.0 0.0 0.01 0.01 0.0 0.0 0.0 0.01 0.0 0.0 0.0 0.01 0.01 0.0 0.0 0.0 0.01 0.0 0.0 0.0 0.01 0.01 0.0 0.0 0.0 0.01 0.0 0.0 0.0 0.01 0.01 0.0 0.0 0.0 0.01 0.0 0.0 0.0 0.01 0.01 0.0 0.0 0.0 0.01 0.0 0.0 0.0 0.01 0.01 0.0 0.0 0.0 0.01 0.0 0.0 0.0 0.01 0.01 0.0 0.0 0.0 0.01 0.0 0.0 0.0 0.01 0.01 0.0 0.0 0.0 0.01 0.0 0.0 0.0 0.01 0.01 0.0 0.0 0.0 0.01 0.0 0.0 0.0 0.01 0.01 0.0 0.0 0.0 0.01 0.0 0.0 0.0 0.01 0.01 0.0 0.0 0.0 0.01 0.0 0.0 0.0 0.01 0.01 0.0 0.0 0.0 0.01 0.0 0.0 0.0 0.01 0.01 0.0 0.0 0.0 0.01 0.0 0.0 0.0 0.01 0.01 0.0 0.0 0.0 0.01 0.0 0.0 0.0 0.01 0.01 0.0 0.0 0.0 0.01 0.0 0.0 0.0 0.01 0.01 0.0 0.0 0.0 0.01 0.0 0.0 0.0 0.01 0.01 0.0 0.0 0.0 0.01 0.0 0.0 0.0 0.01 0.01 0.0 0.0 0.0 0.01 0.0 0.0 0.0 0.01 0.01 0.0 0.0 0.0 0.01 0.0 0.0 0.0 0.01 0.01 0.0 0.0 0.0 0.01 0.0 0.0 0.0 0.01 0.01 0.0 0.0 0.0 0.01 0.0 0.0 0.0 0.01 0.01 0.0 0.0 0.0 0.01 0.0 0.0 0.0 0.01 0.01 0.0 0.0 0.0 0.01 0.0 0.0 0.0 0.01 0.01 0.0 0.0 0.0 0.01 0.0 0.0 0.0 0.01 0.01 0.0 0.0 0.0 0.01 0.0 0.0 0.0 0.01 0.01 0.0 0.0 0.0 0.01 0.0 0.0 0.0 0.01 0.01 0.0 0.0 0.0 0.01 0.0 0.0 0.0 0.01 0.01 0.0 0.0 0.0 0.01 0.0 0.0 0.0 0.01 0.01 0.0 0.0 0.0 0.01 0.0 0.0 0.0 0.01 0.01 0.0 0.0 0.0 0.01 0.0 0.0 0.0 0.01 0.01 0.0 0.0 0.0 0.01 0.0 0.0 0.0 0.01 0.01 0.0 0.0 0.0 0.01 0.0 0.0 0.0 0.01 0.01 0.0 0.0 0.0 0.01 0.0 0.0 0.0 0.01 0.01 0.0 0.0 0.0 0.01 0.0 0.0 0.0 0.01 0.01 0.0 0.0 0.0 0.01 0.0 0.0 0.0 0.01 0.01 0.0 0.0 0.0 0.01 0.0 0.0 0.0 0.01 0.01 0.0 0.0 0.0 0.01 0.0 0.0 0.0 0.01 0.01 0.0 0.0 0.0 0.01 0.0 0.0 0.0 0.01 0.01 0.0 0.0 0.0 0.01 0.0 0.0 0.0 0.01 0.01 0.0 0.0 0.0 0.01 0.0 0.0 0.0 0.01 0.01 0.0 0.0 0.0 0.01 0.0 0.0 0.0 0.01 0.01 0.0 0.0 0.0 0.01 0.0 0.0 0.0 0.01 0.01 0.0 0.0 0.0 0.01 0.0 0.0 0.0 0.01 0.01 0.0 0.0 0.0 0.01 0.0 0.0 0.0 0.01 0.01 0.0 0.0 0.0 0.01 0.0 0.0 0.0 0.01 0.01 0.0 0.0 0.0 0.01 0.0 0.0 0.0 0.01 0.01 0.0 0.0 0.0 0.01 0.0 0.0 0.0 0.01 0.01 0.0 0.0 0.0 0.01 0.0 0.0 0.0 0.01 0.01 0.0 0.0 0.0 0.01 0.0 0.0 0.0 0.01 0.01 0.0 0.0 0.0 0.01 0.0 0.0 0.0 0.01 0.01 0.0 0.0 0.0 0.01 0.0 0.0 0.0 0.01 0.01 0.0 0.0 0.0 0.01 0.0 0.0 0.0 0.01 0.01 0.0 0.0 0.0 0.01 0.0 0.0 0.0 0.01 0.01 0.0 0.0 0.0 0.01 0.0 0.0 0.0 0.01 0.01 0.0 0.0 0.0 0.01 0.0 0.0 0.0 0.01 0.01 0.0 0.0 0.0 0.01 0.0 0.0 0.0 0.01 0.01 0.0 0.0 0.0 0.01 0.0 0.0 0.0 0.01 0.01 0.0 0.0 0.0 0.01 0.0 0.0 0.0 0.01 0.01 0.0 0.0 0.0 0.01 0.0 0.0 0.0 0.01 0.01 0.0 0.0 0.0 0.01 0.0 0.0 0.0 0.01 0.01 0.0 0.0 0.0 0.01 0.0 0.0 0.0 0.01 0.01 0.0 0.0 0.0 0.01 0.0 0.0 0.0 0.01 0.01 0.0 0.0 0.0 0.01 0.0 0.0 0.0 0.01 0.01 0.0 0.0 0.0 0.01 0.0 0.0 0.0 0.01 0.01 0.0 0.0 0.0 0.01 0.0 0.0 0.0 0.01 0.01 0.0 0.0 0.0 0.01 0.0 0.0 0.0 0.01 0.01 0.0 0.0 0.0 0.01 0.0 0.0 0.0 0.01 0.01 0.0 0.0 0.0 0.01 0.0 0.0 0.0 0.01 0.01 0.0 0.0 0.0 0.01 0.0 0.0 0.0 0.01 0.01 0.0 0.0 0.0 0.01 0.0 0.0 0.0 0.01 0.01 0.0 0.0 0.0 0.01 0.0 0.0 0.0 0.01 0.01 0.0 0.0 0.0 0.01 0.0 0.0 0.0 0.01 0.01 0.0 0.0 0.0 0.01 0.0 0.0 0.0 0.01 0.01 0.0 0.0 0.0 0.01 0.0 0.0 0.0 0.01 0.01 0.0 0.0 0.0 0.01 0.0 0.0 0.0 0.01 0.01 0.0 0.0 0.0 0.01 0.0 0.0 0.0 0.01 0.01 0.0 0.0 0.0 0.01 0.0 0.0 0.0 0.01 0.01 0.0 0.0 0.0 0.01 0.0 0.0 0.0 0.01 0.01 0.0 0.0 0.0 0.01 0.0 0.0 0.0 0.01 0.01 0.0 0.0 0.0 0.01 0.0 0.0 0.0 0.01 0.01 0.0 0.0 0.0 0.01 0.0 0.0 0.0 0.01 0.01 0.0 0.0 0.0 0.01 0.0 0.0 0.0 0.01 0.01 0.0 0.0 0.0 0.01 0.0 0.0 0.0 0.01 0.01 0.0 0.0 0.0 0.01 0.0 0.0 0.0 0.01 0.01 0.0 0.0 0.0 0.01 0.0 0.0 0.0 0.01 0.01 0.0 0.0 0.0 0.01 0.0 0.0 0.0 0.01 0.01 0.0 0.0 0.0 0.01 0.0 0.0 0.0 0.01 0.01 0.0 0.0 0.0 0.01 0.0 0.0 0.0 0.01 0.01 0.0 0.0 0.0 0.01 0.0 0.0 0.0 0.01 0.01 0.0 0.0 0.0 0.01 0.0 0.0 0.0 0.01 0.01 0.0 0.0 0.0 0.01 0.0 0.0 0.0 0.01 0.01 0.0 0.0 0.0 0.01 0.0 0.0 0.0 0.01 0.01 0.0 0.0 0.0 0.01 0.0 0.0 0.0 0.01 0.01 0.0 0.0 0.0 0.01 0.0 0.0 0.0 0.01 0.01 0.0 0.0 0.0 0.01 0.0 0.0 0.0 0.01 0.01 0.0 0.0 0.0 0.01 0.0 0.0 0.0 0.01 0.01 0.0 0.0 0.0 0.01 0.0 0.0 0.0 0.01 0.01 0.0 0.0 0.0 0.01 0.0 0.0 0.0 0.01 0.01 0.0 0.0 0.0 0.01 0.0 0.0 0.0 0.01 0.01 0.0 0.0 0.0 0.01 0.0 0.0 0.0 0.01 0.01 0.0 0.0 0.0 0.01 0.0 0.0 0.0 0.01 0.01 0.0 0.0 0.0 0.01 0.0 0.0 0.0 0.01 0.01 0.0 0.0 0.0 0.01 0.0 0.0 0.0 0.01 0.01 0.0 0.0 0.0 0.01 0.0 0.0 0.0 0.01 0.01 0.0 0.0 0.0 0.01 0.0 0.0 0.0 0.01 0.01 0.0 0.0 0.0 0.01 0.0 0.0 0.0 0.01 0.01 0.0 0.0 0.0 0.01 0.0 0.0 0.0 0.01 0.01 0.0 0.0 0.0 0.01 0.0 0.0 0.0 0.01 0.01 0.0 0.0 0.0 0.01 0.0 0.0 0.0 0.01 0.01 0.0 0.0 0.0 0.01 0.0 0.0 0.0 0.01 0.01 0.0 0.0 0.0 0.01 0.0 0.0 0.0 0.01 0.01 0.0 0.0 0.0 0.01 0.0 0.0 0.0 0.01 0.01 0.0 0.0 0.0 0.01 0.0 0.0 0.0 0.01 0.01 0.0 0.0 0.0 0.01 0.0 0.0 0.0 0.01 0.01 0.0 0.0 0.0 0.01 0.0 0.0 0.0 0.01 0.01 0.0 0.0 0.0 0.01 0.0 0.0 0.0 0.01 0.01 0.0 0.0 0.0 0.01 0.0 0.0 0.0 0.01 0.01 0.0 0.0 0.0 0.01 0.0 0.0 0.0 0.01 0.01 0.0 0.0 0.0 0.01 0.0 0.0 0.0 0.01 0.01 0.0 0.0 0.0 0.01 0.0 0.0 0.0 0.01 0.01 0.0 0.0 0.0 0.01 0.0 0.0 0.0 0.01 0.01 0.0 0.0 0.0 0.01 0.0 0.0 0.0 0.01 0.01 0.0 0.0 0.0 0.01 0.0 0.0 0.0 0.01 0.01 0.0 0.0 0.0 0.01 0.0 0.0 0.0 0.01 0.01 0.0 0.0 0.0 0.01 0.0 0.0 0.0 0.01 0.01 0.0 0.0 0.0 0.01 0.0 0.0 0.0 0.01 0.01 0.0 0.0 0.0 0.01 0.0 0.0 0.0 0.01 0.01 0.0 0.0 0.0 0.01 0.0 0.0 0.0 0.01 0.01 0.0 0.0 0.0 0.01 0.0 0.0 0.0 0.01 0.01 0.0 0.0 0.0 0.01 0.0 0.0 0.0 0.01 0.01 0.0 0.0 0.0 0.01 0.0 0.0 0.0 0.01 0.01 0.0 0.0 0.0 0.01 0.0 0.0 0.0 0.01 0.01 0.0 0.0 0.0 0.01 0.0 0.0 0.0 0.01 0.01 0.0 0.0 0.0 0.01 0.0 0.0 0.0 0.01 0.01 0.0 0.0 0.0 0.01 0.0 0.0 0.0 0.01 0.01 0.0 0.0 0.0 0.01 0.0 0.0 0.0 0.01 0.01 0.0 0.0 0.0 0.01 0.0 0.0 0.0 0.01 0.01 0.0 0.0 0.0 0.01 0.0 0.0 0.0 0.01 0.01 0.0 0.0 0.0 0.01 0.0 0.0 0.0 0.01 0.01 0.0 0.0 0.0 0.01 0.0 0.0 0.0 0.01 0.01 0.0 0.0 0.0 0.01 0.0 0.0 0.0 0.01 0.01 0.0 0.0 0.0 0.01 0.0 0.0 0.0 0.01 0.01 0.0 0.0 0.0 0.01 0.0 0.0 0.0 0.01 0.01 0.0 0.0 0.0 0.01 0.0 0.0 0.0 0.01 0.01 0.0 0.0 0.0 0.01 0.0 0.0 0.0 0.01 0.01 0.0 0.0 0.0 0.01 0.0 0.0 0.0 0.01 0.01 0.0 0.0 0.0 0.01 0.0 0.0 0.0 0.01 0.01 0.0 0.0 0.0 0.01 0.0 0.0 0.0 0.01 0.01 0.0 0.0 0.0 0.01 0.0 0.0 0.0 0.01 0.01 0.0 0.0 0.0 0.01 0.0 0.0 0.0 0.01 0.01 0.0 0.0 0.0 0.01 0.0 0.0 0.0 0.01 0.01 0.0 0.0 0.0 0.01 0.0 0.0 0.0 0.01 0.01 0.0 0.0 0.0 0.01 0.0 0.0 0.0 0.01 0.01 0.0 0.0 0.0 0.01 0.0 0.0 0.0 0.01 0.01 0.0 0.0 0.0 0.01 0.0 0.0 0.0 0.01 0.01 0.0 0.0 0.0 0.01 0.0 0.0 0.0 0.01 0.01 0.0 0.0 0.0 0.01 0.0 0.0 0.0 0.01 0.01 0.0 0.0 0.0 0.01 0.0 0.0 0.0 0.01 0.01 0.0 0.0 0.0 0.01 0.0 0.0 0.0 0.01 0.01 0.0 0.0 0.0 0.01 0.0 0.0 0.0 0.01 0.01 0.0 0.0 0.0 0.01 0.0 0.0 0.0 0.01 0.01 0.0 0.0 0.0 0.01 0.0 0.0 0.0 0.01 0.01 0.0 0.0 0.0 0.01 0.0 0.0 0.0 0.01 0.01 0.0 0.0 0.0 0.01 0.0 0.0 0.0 0.01 0.01 0.0 0.0 0.0 0.01 0.0 0.0 0.0 0.01 0.01 0.0 0.0 0.0 0.01 0.0 0.0 0.0 0.01 0.01 0.0 0.0 0.0 0.01 0.0 0.0 0.0 0.01 0.01 0.0 0.0 0.0 0.01 0.0 0.0 0.0 0.01 0.01 0.0 0.0 0.0 0.01 0.0 0.0 0.0 0.01 0.01 0.0 0.0 0.0 0.01 0.0 0.0 0.0 0.01 0.01 0.0 0.0 0.0 0.01 0.0 0.0 0.0 0.01 0.01 0.0 0.0 0.0 0.01 0.0 0.0 0.0 0.01 0.01 0.0 0.0 0.0 0.01 0.0 0.0 0.0 0.01 0.01 0.0 0.0 0.0 0.01 0.0 0.0 0.0 0.01 0.01 0.0 0.0 0.0 0.01 0.0 0.0 0.0 0.01 0.01 0.0 0.0 0.0 0.01 0.0 0.0 0.0 0.01 0.01 0.0 0.0 0.0 0.01 0.0 0.0 0.0 0.01 0.01 0.0 0.0 0.0 0.01 0.0 0.0 0.0 0.01 0.01 0.0 0.0 0.0 0.01 0.0 0.0 0.0 0.01 0.01 0.0 0.0 0.0 0.01 0.0 0.0 0.0 0.01 0.01 0.0 0.0 0.0 0.01 0.0 0.0 0.0 0.01 0.01 0.0 0.0 0.0 0.01 0.0 0.0 0.0 0.01 0.01 0.0 0.0 0.0 0.01 0.0 0.0 0.0 0.01 0.01 0.0 0.0 0.0 0.01 0.0 0.0 0.0 0.01 0.01 0.0 0.0 0.0 0.01 0.0 0.0 0.0 0.01 0.009999606023283873 0.0 1.5136637906230854e-13 0.0 0.01 0.0 1.5136637906313572e-13 0.0 0.009999968500148839 0.009999504536824999 0.0 5.5883921672535733e-14 0.0 0.01 0.0 5.5883921672535733e-14 0.0 0.00999998750002344 0.009999419550542147 0.0 3.0015077022639454e-15 0.0 0.01 0.0 3.0015077022639454e-15 0.0 0.010000003900002281 0.0099993520629788 0.0 -8.093386246079974e-15 0.0 0.01 0.0 -8.093386246079974e-15 0.0 0.010000018050048872 0.009999303572758392 0.0 -1.890671128552487e-15 0.0 0.01 0.0 -1.890671128552487e-15 0.0 0.010000025400096774 0.009999641019330995 0.0 1.9936893436177165e-13 0.0 0.01 0.0 1.9936893436259883e-13 0.0 0.009999943000487347 0.009999513535499459 0.0 7.126700739356715e-14 0.0 0.01 0.0 7.126700739377394e-14 0.0 0.009999961000228149 0.00999939455498899 0.0 -4.3334682905895684e-14 0.0 0.01 0.0 -4.3334682905792286e-14 0.0 0.009999984500036039 0.009999294074756604 0.0 -8.676691651059073e-14 0.0 0.01 0.0 -8.676691651038394e-14 0.0 0.010000007300007996 0.009999215592303974 0.0 -7.54328659828935e-14 0.0 0.01 0.0 -7.54328659826867e-14 0.0 0.010000025400096778 0.009999159106077285 0.0 -4.283811543696168e-14 0.0 0.01 0.0 -4.283811543696168e-14 0.0 0.010000035150185332 0.009999572027475642 0.0 1.97744363470709e-13 0.0 0.01 0.0 1.977443634698818e-13 0.0 0.009999930000734993 0.009999424549675276 0.0 8.078353186106292e-14 0.0 0.01 0.0 8.078353186147651e-14 0.0 0.00999995300033135 0.009999286576353256 0.0 -4.4143183556031995e-14 0.0 0.01 0.0 -4.414318355623879e-14 0.0 0.009999983000043348 0.009999172602699273 0.0 -1.047288846003053e-13 0.0 0.01 0.0 -1.0472888460071889e-13 0.0 0.010000010750017335 0.009999085125564602 0.0 -9.93409913747091e-14 0.0 0.01 0.0 -9.93409913747091e-14 0.0 0.010000031250146485 0.009999026642132279 0.0 -6.324832158860174e-14 0.0 0.01 0.0 -6.324832158839494e-14 0.0 0.010000043450283191 0.009999498037797441 0.0 4.600638363519237e-12 0.0 0.01 0.0 4.600638363519237e-12 0.0 0.009999920000959988 0.009999327067931732 0.0 1.4153610301097208e-12 0.0 0.01 0.0 1.4153610301097208e-12 0.0 0.009999948000405597 0.009999170603196269 0.0 1.6672995219818604e-13 0.0 0.01 0.0 1.6672995219818604e-13 0.0 0.009999982500045936 0.009999042137642623 0.0 3.656475284751424e-14 0.0 0.01 0.0 3.656475284751424e-14 0.0 0.010000014150030033 0.0099989476661343 0.0 -2.8317040380349856e-14 0.0 0.01 0.0 -2.8317040380349856e-14 0.0 0.010000038100217747 0.009998885186449105 0.0 -3.923850317326242e-14 0.0 0.01 0.0 -3.923850317336582e-14 0.0 0.01000005125039399 0.00999940455318779 0.0 4.5710434102866847e-10 0.0 0.01 0.0 4.5710434102866847e-10 0.0 0.009999911501174854 0.009999205594672014 0.0 2.558613144792966e-10 0.0 0.01 0.0 2.5586131447887306e-10 0.0 0.009999943500478845 0.009999031140821407 0.0 8.869361904573759e-11 0.0 0.01 0.0 8.869361904573759e-11 0.0 0.009999983500040839 0.009998889185113874 0.0 9.821977794674866e-12 0.0 0.01 0.0 9.821977794661631e-12 0.0 0.010000018050048872 0.009998788720115396 0.0 1.7632625715070838e-13 0.0 0.01 0.0 1.7632625715070838e-13 0.0 0.010000043450283191 0.009998725743600792 0.0 4.8076359189548724e-14 0.0 0.01 0.0 4.8076359189548724e-14 0.0 0.010000056150472928 0.009999268080366323 0.0 4.104200573796721e-09 0.0 0.01 0.0 4.104200573810273e-09 0.0 0.009999905001356254 0.009999046136496709 0.0 2.5951311781649132e-09 0.0 0.01 0.0 2.595131178161525e-09 0.0 0.009999940500532042 0.009998849698509686 0.0 1.193737818779028e-09 0.0 0.01 0.0 1.1937378187773339e-09 0.0 0.009999984500036247 0.009998699253835128 0.0 3.274825911465984e-10 0.0 0.01 0.0 3.2748259114702194e-10 0.0 0.010000022450075616 0.009998595795823793 0.0 3.6407376149684966e-11 0.0 0.01 0.0 3.6407376149737906e-11 0.0 0.010000048350350663 0.009998529824276063 0.0 1.9991739390287183e-13 0.0 0.01 0.0 1.9991739390328542e-13 0.0 0.010000061500567344 0.009999052134830417 0.0 1.753374994042825e-08 0.0 0.01 0.0 1.753374994042825e-08 0.0 0.009999898001606692 0.009998808712930116 0.0 1.1988433698290491e-08 0.0 0.01 0.0 1.1988433698317596e-08 0.0 0.009999939000579706 0.009998608790378921 0.0 6.013519579783086e-09 0.0 0.01 0.0 6.013519579783086e-09 0.0 0.009999987500028862 0.009998458856342438 0.0 2.0803439772489133e-09 0.0 0.01 0.0 2.0803439772472193e-09 0.0 0.010000027850116994 0.00999835540579252 0.0 4.1236787617394965e-10 0.0 0.01 0.0 4.1236787617437317e-10 0.0 0.010000055200457086 0.009998295435929876 0.0 2.8697442472560605e-11 0.0 0.01 0.0 2.8697442472560605e-11 0.0 0.010000067850690552 0.00999870575170972 0.0 5.192390542611272e-08 0.0 0.01 0.0 5.192390542611272e-08 0.0 0.009999888002286047 0.009998456357697721 0.0 3.645315517660213e-08 0.0 0.01 0.0 3.645315517660213e-08 0.0 0.00999993500083311 0.009998273947045831 0.0 1.899417255295558e-08 0.0 0.01 0.0 1.899417255295558e-08 0.0 0.009999990500067668 0.009998146015723849 0.0 7.1692816317844746e-09 0.0 0.01 0.0 7.1692816317844746e-09 0.0 0.010000036150203733 0.009998061064067176 0.0 1.7658370336553537e-09 0.0 0.01 0.0 1.7658370336536596e-09 0.0 0.010000063950613916 0.009998010593818059 0.0 2.2015202715593598e-10 0.0 0.01 0.0 2.2015202715572422e-10 0.0 0.010000076150869838 0.00999817700079978 0.0 1.205149991016785e-07 0.0 0.01 0.0 1.2051499910189535e-07 0.0 0.00999987650446689 0.00999795612784032 0.0 8.394124547989219e-08 0.0 0.01 0.0 8.394124547989219e-08 0.0 0.009999931501761032 0.009997828707671802 0.0 4.399168822852382e-08 0.0 0.01 0.0 4.399168822852382e-08 0.0 0.009999999500290412 0.009997752258122926 0.0 1.7160630614736e-08 0.0 0.01 0.0 1.7160630614708895e-08 0.0 0.010000051750445901 0.009997700793199218 0.0 4.66806941292627e-09 0.0 0.01 0.0 4.66806941292627e-09 0.0 0.010000082501024223 0.009997673811924545 0.0 7.447423722135292e-10 0.0 0.01 0.0 7.447423722135292e-10 0.0 0.010000092751290487 0.009997447984857757 0.0 2.2513280214673994e-07 0.0 0.01 0.0 2.2513280214684836e-07 0.0 0.009999850010980181 0.009997306592093821 0.0 1.5347989741642566e-07 0.0 0.01 0.0 1.5347989741642566e-07 0.0 0.009999926504345 0.009997277613058407 0.0 7.939150391375778e-08 0.0 0.01 0.0 7.939150391375778e-08 0.0 0.010000015600982296 0.00999727561389234 0.0 3.116884133296416e-08 0.0 0.01 0.0 3.1168841332977716e-08 0.0 0.01000008250116673 0.009997274614575655 0.0 8.863671936137495e-09 0.0 0.01 0.0 8.863671936137495e-09 0.0 0.010000113751952687 0.009997278611297077 0.0 1.5913592757276567e-09 0.0 0.01 0.0 1.5913592757276567e-09 0.0 0.010000121102200204 0.009996604247087357 0.0 3.3284329567636814e-07 0.0 0.01 0.0 3.3284329567636814e-07 0.0 0.009999796022867305 0.009996578764037535 0.0 2.2362224118331695e-07 0.0 0.01 0.0 2.2362224118331695e-07 0.0 0.009999918008513025 0.009996656679358115 0.0 1.1371689939525254e-07 0.0 0.01 0.0 1.1371689939530675e-07 0.0 0.010000048852298549 0.009996732602376568 0.0 4.4369552963929035e-08 0.0 0.01 0.0 4.436955296390193e-08 0.0 0.010000133802980857 0.009996784052038308 0.0 1.2811363634677487e-08 0.0 0.01 0.0 1.2811363634677487e-08 0.0 0.01000017185445462 0.009996819517964476 0.0 2.4228127470918748e-09 0.0 0.01 0.0 2.4228127470910278e-09 0.0 0.010000172854482578 0.009995853603421017 0.0 3.9223872724423667e-07 0.0 0.01 0.0 3.9223872724423667e-07 0.0 0.009999798029210687 0.009995881056326247 0.0 2.590008922661452e-07 0.0 0.01 0.0 2.590008922661452e-07 0.0 0.009999936510672556 0.009996023375816834 0.0 1.2974063560549634e-07 0.0 0.01 0.0 1.2974063560549634e-07 0.0 0.01000011330445181 0.00999614572983017 0.0 4.995513067698179e-08 0.0 0.01 0.0 4.995513067695468e-08 0.0 0.010000224107907926 0.00999623362893265 0.0 1.4353610808098534e-08 0.0 0.01 0.0 1.4353610808091758e-08 0.0 0.010000259760151864 0.009996297057784221 0.0 2.7272522413825353e-09 0.0 0.01 0.0 2.7272522413825353e-09 0.0 0.01000024950933904 0.009995228438644333 0.0 3.765994864414566e-07 0.0 0.01 0.0 3.76599486441565e-07 0.0 0.010000197777153714 0.009995247898239383 0.0 2.4097393607923e-07 0.0 0.01 0.0 2.4097393607912156e-07 0.0 0.010000138661599468 0.009995388693671954 0.0 1.1790715475227588e-07 0.0 0.01 0.0 1.1790715475227588e-07 0.0 0.01000026366251377 0.009995521510622975 0.0 4.4353028661955635e-08 0.0 0.01 0.0 4.435302866196919e-08 0.0 0.010000362820040022 0.009995623874271633 0.0 1.2418104661660322e-08 0.0 0.01 0.0 1.2418104661653546e-08 0.0 0.010000386272402946 0.009995703770226119 0.0 2.256366228268889e-09 0.0 0.01 0.0 2.256366228268889e-09 0.0 0.010000358919323302 0.009994608874451394 0.0 2.7886302354801105e-07 0.0 0.01 0.0 2.7886302354806526e-07 0.0 0.010000753046724098 0.009994619350487377 0.0 1.7616286062153378e-07 0.0 0.01 0.0 1.7616286062153378e-07 0.0 0.010000527896455946 0.009994728672029364 0.0 8.41328808828866e-08 0.0 0.01 0.0 8.41328808828866e-08 0.0 0.010000515640942443 0.009994845488229657 0.0 3.054666686651687e-08 0.0 0.01 0.0 3.054666686652365e-08 0.0 0.010000559147033355 0.00999494583428225 0.0 8.086930954441591e-09 0.0 0.01 0.0 8.086930954439897e-09 0.0 0.010000550345438496 0.00999503869462683 0.0 1.3071436196914903e-09 0.0 0.01 0.0 1.3071436196910667e-09 0.0 0.010000496636995052 0.00999391556132791 0.0 1.5821746327269797e-07 0.0 0.01 0.0 1.5821746327269797e-07 0.0 0.010001184314113547 0.009993923544460393 0.0 9.901961134205087e-08 0.0 0.01 0.0 9.901961134207798e-08 0.0 0.010000929331003928 0.009994001901214538 0.0 4.594000850875269e-08 0.0 0.01 0.0 4.594000850875269e-08 0.0 0.010000812599353686 0.009994095234096816 0.0 1.5731299560325685e-08 0.0 0.01 0.0 1.5731299560322297e-08 0.0 0.010000787693096432 0.009994192063741745 0.0 3.7218324612450792e-09 0.0 0.01 0.0 3.7218324612442322e-09 0.0 0.010000738381775174 0.009994292390242774 0.0 4.6480672162035794e-10 0.0 0.01 0.0 4.648067216201462e-10 0.0 0.010000655314409952 0.009993116115412481 0.0 6.838152011655167e-08 0.0 0.01 0.0 6.838152011652456e-08 0.0 0.010001472976086652 0.009993124098471426 0.0 4.1676810340555005e-08 0.0 0.01 0.0 4.1676810340555005e-08 0.0 0.010001244382495333 0.009993176989428856 0.0 1.819604164343802e-08 0.0 0.01 0.0 1.8196041643441408e-08 0.0 0.010001091478722562 0.00999325483074381 0.0 5.561418078327691e-09 0.0 0.01 0.0 5.561418078327691e-09 0.0 0.010001018205494898 0.00999334864197479 0.0 1.0353507259148406e-09 0.0 0.01 0.0 1.0353507259150524e-09 0.0 0.010000932730481856 0.009993454432281933 0.0 6.804168033829344e-11 0.0 0.01 0.0 6.804168033829344e-11 0.0 0.010000828703000921 0.009992189160986443 0.0 2.0885589157270524e-08 0.0 0.01 0.0 2.0885589157273912e-08 0.0 0.010001671318968184 0.009992200634035157 0.0 1.1752142525559245e-08 0.0 0.01 0.0 1.1752142525560939e-08 0.0 0.010001474926267694 0.009992242536085666 0.0 4.492399639889958e-09 0.0 0.01 0.0 4.492399639889958e-09 0.0 0.010001327914459728 0.009992310877491669 0.0 1.0460038919383783e-09 0.0 0.01 0.0 1.0460038919381665e-09 0.0 0.010001237029498603 0.009992402666699613 0.0 9.772037141974731e-11 0.0 0.01 0.0 9.772037141973407e-11 0.0 0.010001133992861816 0.009992517406766956 0.0 -2.8189518044269596e-12 0.0 0.01 0.0 -2.8189518044261324e-12 0.0 0.010001011853556428 0.009991136797396263 0.0 3.202978324033121e-09 0.0 0.01 0.0 3.202978324033121e-09 0.0 0.010001834504689208 0.009991151757579593 0.0 1.4917137982146423e-09 0.0 0.01 0.0 1.4917137982146423e-09 0.0 0.010001661564027863 0.00999118816097568 0.0 3.706329385495225e-10 0.0 0.01 0.0 3.7063293854957546e-10 0.0 0.010001534052925589 0.009991252989927143 0.0 8.27947343038853e-12 0.0 0.01 0.0 8.279473430386876e-12 0.0 0.010001446113626224 0.009991346246093692 0.0 -1.1266359360445893e-11 0.0 0.01 0.0 -1.1266359360444238e-11 0.0 0.010001336717974483 0.009991468430584623 0.0 -2.5657260501163388e-12 0.0 0.01 0.0 -2.5657260501167524e-12 0.0 0.010001206768408356 0.009989952662659025 0.0 -1.379350484969509e-11 0.0 0.01 0.0 -1.3793504849696745e-11 0.0 0.010002007454319173 0.009989963131058157 0.0 -7.954977546737496e-11 0.0 0.01 0.0 -7.95497754673882e-11 0.0 0.010001850113311265 0.009989998025959604 0.0 -6.592867803481192e-11 0.0 0.01 0.0 -6.592867803479869e-11 0.0 0.010001742655421366 0.00999005884366186 0.0 -3.3480055383935994e-11 0.0 0.01 0.0 -3.34800553839393e-11 0.0 0.01000166496572434 0.009990156054590894 0.0 -1.1800321626739265e-11 0.0 0.01 0.0 -1.180032162674092e-11 0.0 0.010001550660607688 0.009990287169210557 0.0 -2.413248049675203e-12 0.0 0.01 0.0 -2.4132480496756165e-12 0.0 0.010001407547122572 0.009988598030425082 0.0 -7.926708877381014e-11 0.0 0.01 0.0 -7.926708877381014e-11 0.0 0.010002218488035064 0.009988604508222882 0.0 -1.093374748600071e-10 0.0 0.01 0.0 -1.0933747486003357e-10 0.0 0.010002066090132919 0.009988635402508866 0.0 -7.900108484526595e-11 0.0 0.01 0.0 -7.900108484525933e-11 0.0 0.010001972733598175 0.009988702673316774 0.0 -3.878021511851303e-11 0.0 0.01 0.0 -3.878021511851303e-11 0.0 0.01000190239272705 0.009988810807759985 0.0 -1.2951710981755036e-11 0.0 0.01 0.0 -1.2951710981755036e-11 0.0 0.010001781225801802 0.009988960806511665 0.0 -2.354512915792766e-12 0.0 0.01 0.0 -2.3545129157925592e-12 0.0 0.010001625896444941 0.009987026789368953 0.0 -9.938277463133943e-11 0.0 0.01 0.0 -9.938277463133943e-11 0.0 0.010002484325474398 0.00998703924080579 0.0 -1.3685274331649154e-10 0.0 0.01 0.0 -1.3685274331650477e-10 0.0 0.010002324560285934 0.00998707858765229 0.0 -9.710832946450157e-11 0.0 0.01 0.0 -9.71083294645148e-11 0.0 0.010002235599462343 0.00998716226350486 0.0 -4.629796494323356e-11 0.0 0.01 0.0 -4.629796494324018e-11 0.0 0.010002165253045142 0.009987292264090654 0.0 -1.4655142110236064e-11 0.0 0.01 0.0 -1.4655142110236064e-11 0.0 0.010002032369410961 0.00998747158357392 0.0 -2.323495582577521e-12 0.0 0.01 0.0 -2.323495582577728e-12 0.0 0.01000185646684244 0.009985204401358907 0.0 -1.203579746037606e-10 0.0 0.01 0.0 -1.203579746037606e-10 0.0 0.01000279952516251 0.009985235264106414 0.0 -1.7141947449321255e-10 0.0 0.01 0.0 -1.7141947449322578e-10 0.0 0.010002627985583365 0.009985304457435184 0.0 -1.20855319308983e-10 0.0 0.01 0.0 -1.2085531930896977e-10 0.0 0.01000253321224963 0.009985417957520996 0.0 -5.639105338656715e-11 0.0 0.01 0.0 -5.639105338656715e-11 0.0 0.010002453052324724 0.009985589708431268 0.0 -1.713662664909577e-11 0.0 0.01 0.0 -1.713662664909908e-11 0.0 0.010002301094011429 0.009985809761678824 0.0 -2.456958211868897e-12 0.0 0.01 0.0 -2.45695821186869e-12 0.0 0.010002105164571142 0.009983104913249568 0.0 -1.3749534301871615e-10 0.0 0.01 0.0 -1.3749534301871615e-10 0.0 0.010003175812227141 0.009983176052222285 0.0 -2.1355832116528965e-10 0.0 0.01 0.0 -2.1355832116528965e-10 0.0 0.010002979831380283 0.00998329296222891 0.0 -1.5198620047898973e-10 0.0 0.01 0.0 -1.5198620047896326e-10 0.0 0.010002862578684543 0.00998346311093874 0.0 -7.051512047982437e-11 0.0 0.01 0.0 -7.051512047983099e-11 0.0 0.010002761893787383 0.0099836919796492 0.0 -2.1251370629289445e-11 0.0 0.01 0.0 -2.125137062928779e-11 0.0 0.010002586953503124 0.00998397360927124 0.0 -3.1247281304105814e-12 0.0 0.01 0.0 -3.1247281304105814e-12 0.0 0.01000236363775349 0.009980721393350832 0.0 -1.4540684906644442e-10 0.0 0.01 0.0 -1.454068490664312e-10 0.0 0.01000360890268716 0.009980861085255801 0.0 -2.6598036001638965e-10 0.0 0.01 0.0 -2.659803600164029e-10 0.0 0.010003366949689485 0.009981051990439901 0.0 -1.9485288383870122e-10 0.0 0.01 0.0 -1.9485288383870122e-10 0.0 0.010003201236531449 0.009981305056123053 0.0 -9.20769735214852e-11 0.0 0.01 0.0 -9.20769735214852e-11 0.0 0.010003077570132935 0.009981617313002024 0.0 -2.897363922369e-11 0.0 0.01 0.0 -2.897363922369e-11 0.0 0.01000287964337449 0.009981978831692323 0.0 -5.271145342637603e-12 0.0 0.01 0.0 -5.271145342637603e-12 0.0 0.010002630937911048 0.009978096177373037 0.0 -1.401590235065086e-10 0.0 0.01 0.0 -1.401590235065086e-10 0.0 0.010004088455954706 0.009978335605810431 0.0 -3.360918337563375e-10 0.0 0.01 0.0 -3.3609183375631103e-10 0.0 0.010003760920615171 0.009978636157601467 0.0 -2.587144047880299e-10 0.0 0.01 0.0 -2.5871440478804314e-10 0.0 0.010003523361236768 0.009978999836740308 0.0 -1.2753403909283028e-10 0.0 0.01 0.0 -1.275340390928369e-10 0.0 0.01000338992295787 0.00997942219165074 0.0 -4.3931064636274995e-11 0.0 0.01 0.0 -4.3931064636278304e-11 0.0 0.010003178264563007 0.009979881874110719 0.0 -1.0776406932926549e-11 0.0 0.01 0.0 -1.0776406932926549e-11 0.0 0.010002908968822803 0.009975370293110596 0.0 -1.2332983963160264e-10 0.0 0.01 0.0 -1.2332983963159602e-10 0.0 0.010004581746938218 0.009975740564443837 0.0 -4.407347365735892e-10 0.0 0.01 0.0 -4.4073473657361567e-10 0.0 0.010004123148652072 0.009976178391522454 0.0 -3.618173358230051e-10 0.0 0.01 0.0 -3.618173358230051e-10 0.0 0.010003801967144524 0.009976677842902622 0.0 -1.8883245256916303e-10 0.0 0.01 0.0 -1.8883245256916303e-10 0.0 0.010003696398494641 0.009977229014484416 0.0 -7.21144894240234e-11 0.0 0.01 0.0 -7.211448942402671e-11 0.0 0.01000349302933608 0.009977799647786029 0.0 -2.263352531149041e-11 0.0 0.01 0.0 -2.2633525311492065e-11 0.0 0.010003210044997046 0.009972808311662522 0.0 -1.0730882362283708e-10 0.0 0.01 0.0 -1.0730882362283708e-10 0.0 0.010005042862005351 0.009973327097355216 0.0 -6.135507894046539e-10 0.0 0.01 0.0 -6.135507894046539e-10 0.0 0.010004411116977325 0.009973920874020988 0.0 -5.402479169453787e-10 0.0 0.01 0.0 -5.402479169453522e-10 0.0 0.010004039546372603 0.009974566360596487 0.0 -2.9882094109860676e-10 0.0 0.01 0.0 -2.9882094109860676e-10 0.0 0.010004031236320394 0.009975248201951677 0.0 -1.233136210529985e-10 0.0 0.01 0.0 -1.2331362105299188e-10 0.0 0.01000386208620492 0.009975928197561662 0.0 -4.4060401091037656e-11 0.0 0.01 0.0 -4.4060401091037656e-11 0.0 0.010003580522103137 0.009970834591150479 0.0 -1.1701851037501004e-10 0.0 0.01 0.0 -1.1701851037501004e-10 0.0 0.010005417949948612 0.009971491376303824 0.0 -9.103990477558675e-10 0.0 0.01 0.0 -9.103990477558675e-10 0.0 0.010004604728577312 0.009972223658865142 0.0 -8.596694985722081e-10 0.0 0.01 0.0 -8.596694985722081e-10 0.0 0.010004283000043003 0.009972999747052957 0.0 -5.010492341741479e-10 0.0 0.01 0.0 -5.010492341741744e-10 0.0 0.010004474200980872 0.009973789410564296 0.0 -2.1510775001637094e-10 0.0 0.01 0.0 -2.1510775001637094e-10 0.0 0.010004375419970624 0.009974557925298144 0.0 -7.69671736775718e-11 0.0 0.01 0.0 -7.696717367757511e-11 0.0 0.010004090408348005 0.00997001837570497 0.0 -1.8693862456157045e-10 0.0 0.01 0.0 -1.8693862456156383e-10 0.0 0.010005686997615327 0.009970760246291944 0.0 -1.4069991801109455e-09 0.0 0.01 0.0 -1.4069991801108396e-09 0.0 0.010004764653126165 0.009971571686487747 0.0 -1.4186701371159614e-09 0.0 0.01 0.0 -1.4186701371159614e-09 0.0 0.010004643382148811 0.009972411093601414 0.0 -8.65007002085422e-10 0.0 0.01 0.0 -8.65007002085422e-10 0.0 0.010005142163559405 0.009973250216736505 0.0 -3.770184763525126e-10 0.0 0.01 0.0 -3.770184763524994e-10 0.0 0.010005142163559315 0.009974049862087365 0.0 -1.2266552302181098e-10 0.0 0.01 0.0 -1.2266552302180436e-10 0.0 0.010004850677078967 0.009971107698873494 0.0 -3.7671343579133943e-10 0.0 0.01 0.0 -3.767134357913262e-10 0.0 0.010005947201176467 0.009971819569663072 0.0 -2.2134339490479845e-09 0.0 0.01 0.0 -2.2134339490478786e-09 0.0 0.010005074159453621 0.009972585149606755 0.0 -2.3504919264224326e-09 0.0 0.01 0.0 -2.3504919264223267e-09 0.0 0.01000530061149657 0.00997336330626273 0.0 -1.480022519123158e-09 0.0 0.01 0.0 -1.480022519123158e-09 0.0 0.010006165347042479 0.009974131722494537 0.0 -6.453094795268972e-10 0.0 0.01 0.0 -6.453094795268972e-10 0.0 0.010006281814224692 0.009974869053110217 0.0 -1.8264072586608863e-10 0.0 0.01 0.0 -1.8264072586608863e-10 0.0 0.0100059746001148 0.009974994604156021 0.0 -7.64791460012718e-10 0.0 0.01 0.0 -7.64791460012718e-10 0.0 0.010006521523998653 0.009975511745792299 0.0 -3.4814199166151035e-09 0.0 0.01 0.0 -3.4814199166148918e-09 0.0 0.010005907580808078 0.009976050313693013 0.0 -3.82024750738728e-09 0.0 0.01 0.0 -3.82024750738728e-09 0.0 0.010006467218333696 0.009976586982846068 0.0 -2.4569724572656125e-09 0.0 0.01 0.0 -2.4569724572655066e-09 0.0 0.010007601408436376 0.009977120262587541 0.0 -1.0671576138203777e-09 0.0 0.01 0.0 -1.0671576138203777e-09 0.0 0.010007845673539883 0.009977651641233617 0.0 -2.607777057040738e-10 0.0 0.01 0.0 -2.607777057040738e-10 0.0 0.010007532903153508 0.009982556249056529 0.0 -1.3671142684279487e-09 0.0 0.01 0.0 -1.3671142684279487e-09 0.0 0.010008157420681701 0.009982695023205784 0.0 -5.226308513559572e-09 0.0 0.01 0.0 -5.226308513559572e-09 0.0 0.010007912230616237 0.009982824849421234 0.0 -5.834409260722034e-09 0.0 0.01 0.0 -5.834409260722458e-09 0.0 0.010008283230436267 0.009982935280299964 0.0 -3.863700515123204e-09 0.0 0.01 0.0 -3.863700515123204e-09 0.0 0.010009427364545125 0.009983051684383982 0.0 -1.7048417804121185e-09 0.0 0.01 0.0 -1.7048417804121185e-09 0.0 0.01000979025863022 0.009983216348399018 0.0 -3.8842664699224664e-10 0.0 0.01 0.0 -3.8842664699224664e-10 0.0 0.010009512104828078 0.009994305368021619 0.0 -1.9625202119159255e-09 0.0 0.01 0.0 -1.9625202119161373e-09 0.0 0.0100115331212967 0.009993920049375526 0.0 -6.910736018449089e-09 0.0 0.01 0.0 -6.910736018449936e-09 0.0 0.010011535529617588 0.009993499344286904 0.0 -7.986178586183447e-09 0.0 0.01 0.0 -7.9861785861826e-09 0.0 0.010011353305414337 0.009993055241160573 0.0 -5.526977523702806e-09 0.0 0.01 0.0 -5.526977523702382e-09 0.0 0.010011710488263343 0.009992634146371113 0.0 -2.5668501627321924e-09 0.0 0.01 0.0 -2.566850162732404e-09 0.0 0.010011981448920201 0.009992302895940842 0.0 -6.361104122810136e-10 0.0 0.01 0.0 -6.361104122810136e-10 0.0 0.01001179523636767 0.010009912669697132 0.0 -1.8723967021947195e-09 0.0 0.01 0.0 -1.8723967021947195e-09 0.0 0.01001595952482744 0.010008956368135001 0.0 -7.492056362362723e-09 0.0 0.01 0.0 -7.492056362362723e-09 0.0 0.010016011523407517 0.010007950371232805 0.0 -9.33632012621775e-09 0.0 0.01 0.0 -9.33632012621775e-09 0.0 0.010015499360213795 0.010006927091053566 0.0 -6.901518375137012e-09 0.0 0.01 0.0 -6.901518375135318e-09 0.0 0.010014606640886716 0.010005948152874347 0.0 -3.4734334980745667e-09 0.0 0.01 0.0 -3.4734334980745667e-09 0.0 0.010014329089686922 0.010005100599765593 0.0 -1.0417504504098856e-09 0.0 0.01 0.0 -1.0417504504098856e-09 0.0 0.01001417608734186 0.010027766570697646 0.0 -7.039795208277288e-10 0.0 0.01 0.0 -7.039795208278347e-10 0.0 0.010019177576189366 0.010026371553227012 0.0 -5.982565870865693e-09 0.0 0.01 0.0 -5.982565870863999e-09 0.0 0.010019257133099391 0.01002489440210043 0.0 -8.802284367997752e-09 0.0 0.01 0.0 -8.802284367994363e-09 0.0 0.010018966925508964 0.010023419414205408 0.0 -7.172104385935461e-09 0.0 0.01 0.0 -7.172104385933767e-09 0.0 0.01001750927911229 0.01002201191594805 0.0 -3.982987166751666e-09 0.0 0.01 0.0 -3.982987166751666e-09 0.0 0.010016582154175386 0.010020750458999679 0.0 -1.4670677876533708e-09 0.0 0.01 0.0 -1.4670677876529472e-09 0.0 0.010016396187266813 0.010044840355503718 0.0 -2.0685108094131034e-09 0.0 0.01 0.0 -2.0685108094129975e-09 0.0 0.010020147625866555 0.010043378784111582 0.0 -3.8409519240217525e-09 0.0 0.01 0.0 -3.8409519240217525e-09 0.0 0.0100205121400181 0.010041768035551955 0.0 -6.502849172435073e-09 0.0 0.01 0.0 -6.50284917243465e-09 0.0 0.010021073728626107 0.01004014819381012 0.0 -6.0054329307480046e-09 0.0 0.01 0.0 -6.005432930747581e-09 0.0 0.010019742863575876 0.010038588416185434 0.0 -3.678799945760065e-09 0.0 0.01 0.0 -3.6787999457598533e-09 0.0 0.010018501419008449 0.010037142413769365 0.0 -1.6052335775902232e-09 0.0 0.01 0.0 -1.6052335775900114e-09 0.0 0.010018240687295683 0.010057484599864153 0.0 -3.984925514764724e-09 0.0 0.01 0.0 -3.9849255147643005e-09 0.0 0.010019923634905286 0.010056449509710458 0.0 -5.576452385040553e-09 0.0 0.01 0.0 -5.576452385040553e-09 0.0 0.010020376561866856 0.010055220653472944 0.0 -5.273894117953504e-09 0.0 0.01 0.0 -5.273894117953504e-09 0.0 0.010021597617622478 0.010053907896990398 0.0 -4.181828891533347e-09 0.0 0.01 0.0 -4.181828891533559e-09 0.0 0.010020910152800048 0.01005257381357507 0.0 -2.6400453349344896e-09 0.0 0.01 0.0 -2.640045334934278e-09 0.0 0.010019817052069299 0.010051238280961475 0.0 -1.2861643611831487e-09 0.0 0.01 0.0 -1.2861643611830958e-09 0.0 0.010019570501131492 0.010063515090782758 0.0 -8.753282247565512e-10 0.0 0.01 0.0 -8.753282247565247e-10 0.0 0.010019696691493442 0.010063149328528776 0.0 -3.803553898425975e-09 0.0 0.01 0.0 -3.803553898425869e-09 0.0 0.010019836215604429 0.010062652775062462 0.0 -3.637911028085009e-09 0.0 0.01 0.0 -3.637911028085009e-09 0.0 0.010020452223353708 0.010062006081848355 0.0 -2.5278881564081528e-09 0.0 0.01 0.0 -2.5278881564081528e-09 0.0 0.010020473855609568 0.010061194873417046 0.0 -1.469668330643691e-09 0.0 0.01 0.0 -1.469668330643691e-09 0.0 0.010020051850663124 0.010060203894757624 0.0 -7.294634698934513e-10 0.0 0.01 0.0 -7.294634698934513e-10 0.0 0.010020196772086312 0.010063490172027229 0.0 1.9071262548863476e-09 0.0 0.01 0.0 1.9071262548863476e-09 0.0 0.010019923634903463 0.0100637584278326 0.0 -7.612813682210805e-10 0.0 0.01 0.0 -7.61281368221054e-10 0.0 0.010019914782211481 0.010063970948135503 0.0 -1.2454606597634222e-09 0.0 0.01 0.0 -1.2454606597634222e-09 0.0 0.010019566578191457 0.010064007796550242 0.0 -8.928614370889644e-10 0.0 0.01 0.0 -8.928614370889909e-10 0.0 0.010020006177321007 0.010063766887616078 0.0 -5.000000411709607e-10 0.0 0.01 0.0 -5.000000411709739e-10 0.0 0.010020075442093974 0.010063201555998328 0.0 -2.5182221038836356e-10 0.0 0.01 0.0 -2.518222103883503e-10 0.0 0.010020492016751061 0.010059799756481894 0.0 1.6053704318695542e-09 0.0 0.01 0.0 1.6053704318695542e-09 0.0 0.010020518076402567 0.01006052804488188 0.0 3.9881170778727383e-10 0.0 0.01 0.0 3.9881170778728706e-10 0.0 0.010020456650406887 0.01006124060307799 0.0 -3.466204882074381e-11 0.0 0.01 0.0 -3.466204882074381e-11 0.0 0.01001940056158143 0.010061763839596583 0.0 -8.168964044354417e-11 0.0 0.01 0.0 -8.168964044354417e-11 0.0 0.010019907438519183 0.010061959781460886 0.0 -4.654091558596003e-11 0.0 0.01 0.0 -4.654091558595672e-11 0.0 0.010020154014330632 0.010061740971120548 0.0 -2.3989233111411874e-11 0.0 0.01 0.0 -2.398923311141022e-11 0.0 0.010020647773983298 0.010055067751616704 0.0 2.796319914345398e-10 0.0 0.01 0.0 2.796319914345398e-10 0.0 0.010021201535667087 0.010056033366604208 0.0 1.7485202459874905e-10 0.0 0.01 0.0 1.7485202459875567e-10 0.0 0.010021204957340284 0.010056984866524166 0.0 8.848710687660253e-11 0.0 0.01 0.0 8.848710687660253e-11 0.0 0.010019820019642446 0.010057742404922042 0.0 4.179518448812405e-11 0.0 0.01 0.0 4.1795184488122393e-11 0.0 0.010020155523418572 0.01005815672514298 0.0 2.091359277761599e-11 0.0 0.01 0.0 2.0913592777616817e-11 0.0 0.010020327412996423 0.010058126453206404 0.0 1.083390695146752e-11 0.0 0.01 0.0 1.0833906951467933e-11 0.0 0.010020742560039896 0.010050945793246816 0.0 -9.493713043797675e-11 0.0 0.01 0.0 -9.493713043798337e-11 0.0 0.010021744568870694 0.010051933530420649 0.0 -1.4903899754800446e-10 0.0 0.01 0.0 -1.4903899754801108e-10 0.0 0.010021865959506647 0.010052885848029491 0.0 -1.426080616263097e-10 0.0 0.01 0.0 -1.4260806162630308e-10 0.0 0.010020501374054129 0.010053639970826181 0.0 -1.0857593710460911e-10 0.0 0.01 0.0 -1.085759371046025e-10 0.0 0.010020580962497997 0.010054057747831826 0.0 -6.839666735764985e-11 0.0 0.01 0.0 -6.839666735764654e-11 0.0 0.010020517573318193 0.010054033458226776 0.0 -3.3262393383468604e-11 0.0 0.01 0.0 -3.3262393383468604e-11 0.0 0.010020774508175664 0.01004770936855003 0.0 1.3097276368910136e-10 0.0 0.01 0.0 1.3097276368909474e-10 0.0 0.010021729823127903 0.010048548062490404 0.0 -4.3120671963534577e-10 0.0 0.01 0.0 -4.3120671963537224e-10 0.0 0.010021994702820182 0.010049319984456535 0.0 -5.134616691541795e-10 0.0 0.01 0.0 -5.134616691541795e-10 0.0 0.010020845751103317 0.010049892419530134 0.0 -3.835147633784341e-10 0.0 0.01 0.0 -3.8351476337846056e-10 0.0 0.010020817777004212 0.010050137764293043 0.0 -2.2145113934677382e-10 0.0 0.01 0.0 -2.2145113934677382e-10 0.0 0.010020558826457249 0.010049966264687897 0.0 -9.949930884702928e-11 0.0 0.01 0.0 -9.949930884704252e-11 0.0 0.010020679670901648 0.010044642878412856 0.0 -5.032550684109136e-11 0.0 0.01 0.0 -5.032550684109798e-11 0.0 0.01002124083480121 0.010045216440442721 0.0 -1.0438836020312795e-09 0.0 0.01 0.0 -1.0438836020312266e-09 0.0 0.010021627108002033 0.010045690648431176 0.0 -1.1446290810928487e-09 0.0 0.01 0.0 -1.1446290810929017e-09 0.0 0.010020732749256574 0.010045952515440161 0.0 -8.221480900362537e-10 0.0 0.01 0.0 -8.221480900363596e-10 0.0 0.010020711618436005 0.010045897565264271 0.0 -4.450344156414686e-10 0.0 0.01 0.0 -4.450344156414686e-10 0.0 0.010020362325217715 0.01004546098673177 0.0 -1.8080735521178452e-10 0.0 0.01 0.0 -1.8080735521178452e-10 0.0 0.010020396684431507 0.010040816899766457 0.0 -8.771089017707937e-10 0.0 0.01 0.0 -8.771089017707937e-10 0.0 0.010020462033311448 0.0100410601125057 0.0 -2.0401772386304536e-09 0.0 0.01 0.0 -2.0401772386304536e-09 0.0 0.010020914077316435 0.01004115107506772 0.0 -2.031735453003351e-09 0.0 0.01 0.0 -2.0317354530031392e-09 0.0 0.010020218402689345 0.010041012632751008 0.0 -1.4063695903363515e-09 0.0 0.01 0.0 -1.4063695903363515e-09 0.0 0.010020250295507314 0.010040563329445036 0.0 -7.24654078237221e-10 0.0 0.01 0.0 -7.246540782371151e-10 0.0 0.010019897127197855 0.01003978300001522 0.0 -2.663615217016971e-10 0.0 0.01 0.0 -2.663615217016971e-10 0.0 0.010019882892596652 0.010035803166199687 0.0 -1.9352571394593455e-09 0.0 0.01 0.0 -1.9352571394591338e-09 0.0 0.010019552797644125 0.010035657566589161 0.0 -3.1219905259108554e-09 0.0 0.01 0.0 -3.1219905259108554e-09 0.0 0.010019988974529485 0.01003531115494739 0.0 -2.937207324668554e-09 0.0 0.01 0.0 -2.937207324668766e-09 0.0 0.010019387787547511 0.010034698819265234 0.0 -1.9671686494460557e-09 0.0 0.01 0.0 -1.9671686494460557e-09 0.0 0.010019457039496422 0.010033791107407394 0.0 -9.619788808512722e-10 0.0 0.01 0.0 -9.619788808512722e-10 0.0 0.010019148107425064 0.010032628248489977 0.0 -3.1390821594201956e-10 0.0 0.01 0.0 -3.139082159420725e-10 0.0 0.010019140765418308 0.010029925294510635 0.0 -2.7362468328578222e-09 0.0 0.01 0.0 -2.7362468328582458e-09 0.0 0.010018588803375745 0.010029351875993082 0.0 -3.9585238210708376e-09 0.0 0.01 0.0 -3.958523821071261e-09 0.0 0.010018915836285953 0.010028515558469267 0.0 -3.537380654103951e-09 0.0 0.01 0.0 -3.537380654104798e-09 0.0 0.010018320724638949 0.010027383065589817 0.0 -2.273196585390961e-09 0.0 0.01 0.0 -2.273196585391808e-09 0.0 0.010018377687055161 0.010025996018728264 0.0 -1.0337261508601875e-09 0.0 0.01 0.0 -1.0337261508603993e-09 0.0 0.010018157736044732 0.010024460052330153 0.0 -2.87735403080322e-10 0.0 0.01 0.0 -2.8773540308037496e-10 0.0 0.010018198004848955 0.01002400067921546 0.0 -3.024563375439802e-09 0.0 0.01 0.0 -3.024563375440649e-09 0.0 0.010017552455387421 0.010022969497999527 0.0 -4.444086238999191e-09 0.0 0.01 0.0 -4.444086238999191e-09 0.0 0.010017660423667847 0.0100216290706837 0.0 -3.663022594197396e-09 0.0 0.01 0.0 -3.663022594197396e-09 0.0 0.010017076340836895 0.010019993903974962 0.0 -2.1988118723471436e-09 0.0 0.01 0.0 -2.1988118723462966e-09 0.0 0.010017086191140364 0.010018172968756293 0.0 -9.309222241355109e-10 0.0 0.01 0.0 -9.309222241338168e-10 0.0 0.010017032165590986 0.01001635151856346 0.0 -2.123330470422701e-10 0.0 0.01 0.0 -2.1233304704269362e-10 0.0 0.010017105288752047 0.010018871636699806 0.0 -2.6771861246493994e-09 0.0 0.01 0.0 -2.6771861246493994e-09 0.0 0.010016382470043208 0.010017391464487562 0.0 -7.891120063172074e-09 0.0 0.01 0.0 -7.891120063172074e-09 0.0 0.010016277959716281 0.010015579783969875 0.0 -6.389901225658211e-09 0.0 0.01 0.0 -6.389901225658211e-09 0.0 0.01001569165709821 0.010013513693714947 0.0 -3.090597612551892e-09 0.0 0.01 0.0 -3.0905976125501978e-09 0.0 0.010015817700955486 0.01001137482861577 0.0 -8.487990245213345e-10 0.0 0.01 0.0 -8.487990245211227e-10 0.0 0.010015850104389863 0.010009377423938997 0.0 -1.345597485291392e-10 0.0 0.01 0.0 -1.345597485291392e-10 0.0 0.010015908983995679 0.010014966633090983 0.0 -1.6391169552838931e-09 0.0 0.01 0.0 -1.6391169553109982e-09 0.0 0.010015042172098454 0.010013114152177028 0.0 -2.051727435232911e-08 0.0 0.01 0.0 -2.051727435232911e-08 0.0 0.01001479004730195 0.010010918756939555 0.0 -1.8415458559948564e-08 0.0 0.01 0.0 -1.8415458559941787e-08 0.0 0.010014291328085673 0.010008543185459635 0.0 -9.792558767261712e-09 0.0 0.01 0.0 -9.7925587672651e-09 0.0 0.010014595843736157 0.010006216241449355 0.0 -2.688637163102294e-09 0.0 0.01 0.0 -2.6886371631027174e-09 0.0 0.010014608097244151 0.01000414026985648 0.0 -2.522182321136739e-10 0.0 0.01 0.0 -2.522182321136739e-10 0.0 0.010014662535561769 0.010012221568558638 0.0 3.804241358330829e-09 0.0 0.01 0.0 3.804241358330829e-09 0.0 0.010013497980220097 0.010010127163418592 0.0 -4.085185792158377e-08 0.0 0.01 0.0 -4.085185792158377e-08 0.0 0.010013180312626737 0.010007668010992081 0.0 -4.0233462070604956e-08 0.0 0.01 0.0 -4.0233462070604956e-08 0.0 0.010012943537215184 0.010005117675985388 0.0 -2.213349488044069e-08 0.0 0.01 0.0 -2.213349488044069e-08 0.0 0.010013386682665498 0.01000273206922781 0.0 -5.886617282659413e-09 0.0 0.01 0.0 -5.88661728266026e-09 0.0 0.010013370517892101 0.01000067391811874 0.0 -2.866122830861963e-10 0.0 0.01 0.0 -2.866122830861963e-10 0.0 0.010013421974130243 0.010010328981196444 0.0 1.4096975170627309e-08 0.0 0.01 0.0 1.4096975170640861e-08 0.0 0.010011755546517783 0.010008062490463881 0.0 -4.991152564360647e-08 0.0 0.01 0.0 -4.991152564363358e-08 0.0 0.010011540446964251 0.010005429218712824 0.0 -5.479075919970742e-08 0.0 0.01 0.0 -5.479075919970742e-08 0.0 0.010011694783700714 0.010002853270805837 0.0 -2.5473968701313234e-08 0.0 0.01 0.0 -2.5473968701309846e-08 0.0 0.010012270598340032 0.010000553245908851 0.0 -7.376118351551182e-10 0.0 0.01 0.0 -7.376118351550123e-10 0.0 0.01001224706189614 0.009998614787878068 0.0 4.4782251535482444e-09 0.0 0.01 0.0 4.478225153548668e-09 0.0 0.010012259306800697 0.01000929028038287 0.0 -5.53762589113689e-09 0.0 0.01 0.0 -5.5376258911504425e-09 0.0 0.010009911666724604 0.010006522976843608 0.0 -6.335441126050753e-09 0.0 0.01 0.0 -6.335441126050753e-09 0.0 0.010010101234659665 0.01000368563666818 0.0 -2.3320003567518094e-08 0.0 0.01 0.0 -2.332000356752487e-08 0.0 0.01001069974830697 0.010001229726813766 0.0 1.0577333542460433e-08 0.0 0.01 0.0 1.0577333542460433e-08 0.0 0.010011354760366156 0.009999173102740577 0.0 3.322855800901031e-08 0.0 0.01 0.0 3.322855800901031e-08 0.0 0.010011302834436167 0.009997482950744938 0.0 2.5224156929282545e-08 0.0 0.01 0.0 2.5224156929282545e-08 0.0 0.01001122983820106 0.010009328942011739 0.0 -1.6063644765252662e-07 0.0 0.01 0.0 -1.6063644765252662e-07 0.0 0.010008226443891249 0.010005303067337566 0.0 1.1387000198629597e-07 0.0 0.01 0.0 1.1387000198624176e-07 0.0 0.010009198227500309 0.010002136436062044 0.0 1.0348072397123212e-07 0.0 0.01 0.0 1.0348072397120501e-07 0.0 0.010010097324431875 0.009999851005450495 0.0 1.1898090077266325e-07 0.0 0.01 0.0 1.1898090077266325e-07 0.0 0.010010706120760592 0.009998175001856248 0.0 1.1955177726038764e-07 0.0 0.01 0.0 1.1955177726038764e-07 0.0 0.010010566024709221 0.009996856483780691 0.0 7.769770492967144e-08 0.0 0.01 0.0 7.769770492967144e-08 0.0 0.010010382849079525 0.010009702650072163 0.0 -5.613830604297813e-07 0.0 0.01 0.0 -5.613830604297813e-07 0.0 0.010007140487831861 0.010004381286385512 0.0 2.413334079593354e-07 0.0 0.01 0.0 2.4133340795944383e-07 0.0 0.010008608762583813 0.010000745198883602 0.0 3.2266241118067765e-07 0.0 0.01 0.0 3.2266241118067765e-07 0.0 0.010009561561632341 0.00999858481507715 0.0 3.1222337592255603e-07 0.0 0.01 0.0 3.1222337592255603e-07 0.0 0.010010183499039068 0.009997345068887515 0.0 2.735114952862191e-07 0.0 0.01 0.0 2.735114952862462e-07 0.0 0.010010029228859393 0.009996484359576788 0.0 1.779498577566803e-07 0.0 0.01 0.0 1.779498577566803e-07 0.0 0.010009725123069333 0.010003866497148784 0.0 1.9742375468841458e-07 0.0 0.01 0.0 1.9742375468841458e-07 0.0 0.010007887728464953 0.009999704557217055 0.0 5.426577628680129e-07 0.0 0.01 0.0 5.426577628679045e-07 0.0 0.010008757133762584 0.009997578927469901 0.0 5.655526467159932e-07 0.0 0.01 0.0 5.65552646715939e-07 0.0 0.01000958801978152 0.00999667269770928 0.0 4.922417190586091e-07 0.0 0.01 0.0 4.922417190585549e-07 0.0 0.010009575773043048 0.009996259616678327 0.0 3.3729413863721426e-07 0.0 0.01 0.0 3.3729413863721426e-07 0.0 0.010009232035885768 0.010003832757871664 0.0 -1.9153940386681337e-07 0.0 0.01 0.0 -1.915394038669218e-07 0.0 0.010007130675224274 0.009999467602791499 0.0 6.341757585190747e-07 0.0 0.01 0.0 6.341757585188578e-07 0.0 0.010007955844461106 0.009997119343473203 0.0 8.095561273884421e-07 0.0 0.01 0.0 8.095561273884421e-07 0.0 0.010008783156153321 0.00999627666553185 0.0 7.529255083418623e-07 0.0 0.01 0.0 7.529255083416455e-07 0.0 0.010009079836431081 0.009996153767009646 0.0 5.588790930454867e-07 0.0 0.01 0.0 5.588790930454867e-07 0.0 0.01000881930006971 0.010000321839604372 0.0 4.0078305403503517e-07 0.0 0.01 0.0 4.00783054035252e-07 0.0 0.010007497196818793 0.009997518055026968 0.0 9.336916409554991e-07 0.0 0.01 0.0 9.336916409554991e-07 0.0 0.01000804056775359 0.009996391108512111 0.0 1.0131951708125747e-06 0.0 0.01 0.0 1.0131951708125747e-06 0.0 0.010008573165994525 0.009996206762889386 0.0 8.307096877206493e-07 0.0 0.01 0.0 8.307096877205409e-07 0.0 0.010008438973766035 0.010001918071063227 0.0 -3.594732584933898e-07 0.0 0.01 0.0 -3.594732584933898e-07 0.0 0.010007131641139307 0.00999912520311889 0.0 7.676218922488941e-07 0.0 0.01 0.0 7.676218922490026e-07 0.0 0.01000781784647432 0.009997323278812281 0.0 1.1655572038030831e-06 0.0 0.01 0.0 1.1655572038030831e-06 0.0 0.010008134117236528 0.009996651867694746 0.0 1.1119975818314146e-06 0.0 0.01 0.0 1.1119975818314146e-06 0.0 0.010008137557371176 0.010001462720878205 0.0 7.275830954446582e-09 0.0 0.01 0.0 7.275830954446582e-09 0.0 0.010007778115467724 0.00999934920924422 0.0 9.860351924922788e-07 0.0 0.01 0.0 9.860351924924956e-07 0.0 0.010008014169293453 0.009997948879155241 0.0 1.2859444235150449e-06 0.0 0.01 0.0 1.2859444235150449e-06 0.0 0.010008034319767213 0.010002042128376111 0.0 1.4160972729390675e-07 0.0 0.01 0.0 1.4160972729387964e-07 0.0 0.010008026756992201 0.010000469457879475 0.0 1.0802317118277678e-06 0.0 0.01 0.0 1.0802317118279847e-06 0.0 0.010008160552979668 0.010003106185963543 0.0 -1.2642001510510675e-06 0.0 0.01 0.0 -1.2642001510510675e-06 0.0 0.0100071397282608 0.01000321980762757 0.0 1.4667520749551445e-07 0.0 0.01 0.0 1.4667520749551445e-07 0.0 0.010008233811413287 0.009999271079706466 0.0 2.6534318637211175e-15 0.0 0.01 0.0 2.6534318637211175e-15 0.0 0.010000029300128775 0.009999247085040679 0.0 2.717466915491283e-15 0.0 0.01 0.0 2.717466915491283e-15 0.0 0.010000027350112205 0.009999236587428713 0.0 1.405572384646715e-15 0.0 0.01 0.0 1.405572384646715e-15 0.0 0.010000025400096774 0.009999229089154694 0.0 4.675316886002874e-16 0.0 0.01 0.0 4.675316886002874e-16 0.0 0.010000021500069338 0.009999227589501915 0.0 3.3707183030276505e-16 0.0 0.01 0.0 3.3707183030276505e-16 0.0 0.010000018550051615 0.009999227589501915 0.0 1.1960642967406815e-16 0.0 0.01 0.0 1.1960642967406815e-16 0.0 0.010000014150030033 0.0099992280893861 0.0 8.843861416579593e-17 0.0 0.01 0.0 8.843861416579593e-17 0.0 0.010000011700020532 0.009999229589039104 0.0 3.466413010607862e-17 0.0 0.01 0.0 3.466413010607862e-17 0.0 0.010000009300012973 0.009999231588577491 0.0 7.027278663603495e-18 0.0 0.01 0.0 7.027278663603495e-18 0.0 0.010000007800009127 0.00999912261548405 0.0 -2.055274225764876e-14 0.0 0.01 0.0 -2.055274225759706e-14 0.0 0.010000038100217745 0.009999098621887026 0.0 -9.206011873404464e-15 0.0 0.01 0.0 -9.206011873404464e-15 0.0 0.010000037100206464 0.009999087125016327 0.0 -4.184600869488314e-15 0.0 0.01 0.0 -4.184600869488314e-15 0.0 0.010000033200165338 0.009999082126389263 0.0 -1.394021369106209e-15 0.0 0.01 0.0 -1.394021369106209e-15 0.0 0.010000028800124417 0.00999908112666475 0.0 -3.650828558206223e-16 0.0 0.01 0.0 -3.650828558206223e-16 0.0 0.01000002395008604 0.009999082126389263 0.0 -1.4612098204064345e-17 0.0 0.01 0.0 -1.4612098204064345e-17 0.0 0.010000019050054435 0.009999084625701857 0.0 2.497761445621954e-17 0.0 0.01 0.0 2.497761445621954e-17 0.0 0.010000015600036504 0.009999087125016327 0.0 1.767172756248038e-17 0.0 0.01 0.0 1.767172756248038e-17 0.0 0.010000012700024194 0.009999089124469252 0.0 1.0494468377053467e-17 0.0 0.01 0.0 1.0494468377053467e-17 0.0 0.010000010750017335 0.009998987153899366 0.0 -3.823077163554421e-14 0.0 0.01 0.0 -3.823077163554421e-14 0.0 0.01000004685032924 0.00999896516065604 0.0 -1.9531007887953316e-14 0.0 0.01 0.0 -1.9531007887953316e-14 0.0 0.01000004540030918 0.009998953664245691 0.0 -8.597249770358639e-15 0.0 0.01 0.0 -8.597249770358639e-15 0.0 0.010000040550246647 0.009998950165346064 0.0 -2.8390013987986093e-15 0.0 0.01 0.0 -2.8390013987986093e-15 0.0 0.01000003565019064 0.009998950665188643 0.0 -6.725699793332735e-16 0.0 0.01 0.0 -6.725699793332735e-16 0.0 0.010000029800133207 0.009998953664245691 0.0 -6.982633984994886e-17 0.0 0.01 0.0 -6.982633984994886e-17 0.0 0.010000023450082485 0.009998958662680099 0.0 2.141967048528309e-17 0.0 0.01 0.0 2.141967048528309e-17 0.0 0.010000019050054435 0.009998962661433023 0.0 -1.53634890539188e-17 0.0 0.01 0.0 -1.53634890539188e-17 0.0 0.010000015600036504 0.009998965160656037 0.0 -4.48200225674131e-17 0.0 0.01 0.0 -4.48200225674131e-17 0.0 0.010000013200026137 0.009998847699200173 0.0 -3.3811506877986085e-14 0.0 0.01 0.0 -3.381150687808948e-14 0.0 0.010000054200440648 0.009998825706877046 0.0 -2.1509712709442103e-14 0.0 0.01 0.0 -2.1509712709442103e-14 0.0 0.010000052250409517 0.009998819209172978 0.0 -9.560327617134024e-15 0.0 0.01 0.0 -9.560327617134024e-15 0.0 0.01000004685032924 0.009998818209527324 0.0 -3.106772496975024e-15 0.0 0.01 0.0 -3.106772496975024e-15 0.0 0.010000040050240602 0.009998823207758595 0.0 -4.4010572094429406e-16 0.0 0.01 0.0 -4.4010572094429406e-16 0.0 0.010000033700170356 0.009998828205997363 0.0 8.041145888139188e-17 0.0 0.01 0.0 8.041145888139188e-17 0.0 0.010000027350112205 0.009998833704068663 0.0 4.9576907925446564e-17 0.0 0.01 0.0 4.9576907925446564e-17 0.0 0.0100000224500756 0.009998838202497383 0.0 3.171920084345698e-17 0.0 0.01 0.0 3.171920084345698e-17 0.0 0.01000001805004887 0.009998842700932174 0.0 -2.3928640766503625e-17 0.0 0.01 0.0 -2.3928640766503625e-17 0.0 0.010000016100038882 0.009998688757948454 0.0 -5.085312690668011e-15 0.0 0.01 0.0 -5.085312690668011e-15 0.0 0.010000061050559072 0.009998672264479064 0.0 -1.6954284875861893e-14 0.0 0.01 0.0 -1.6954284875861893e-14 0.0 0.01000005665048139 0.009998665767074137 0.0 -8.634177226788911e-15 0.0 0.01 0.0 -8.634177226788911e-15 0.0 0.010000051750401712 0.009998668266074531 0.0 -2.5516905222546064e-15 0.0 0.01 0.0 -2.5516905222546064e-15 0.0 0.010000044900302403 0.009998675263285609 0.0 -2.2241124467915624e-17 0.0 0.01 0.0 -2.2241124467915624e-17 0.0 0.010000037100206463 0.009998684759524139 0.0 3.7910998927534445e-16 0.0 0.01 0.0 3.7910998927534445e-16 0.0 0.01000003025013726 0.009998692256573667 0.0 2.5565794605383166e-16 0.0 0.01 0.0 2.5565794605383166e-16 0.0 0.010000024900093002 0.009998699753640062 0.0 3.864212699696015e-17 0.0 0.01 0.0 3.864212699696015e-17 0.0 0.01000002000006 0.009998703752082366 0.0 -2.568400360220565e-18 0.0 0.01 0.0 -2.568400360220565e-18 0.0 0.010000017100043862 0.009998496339217374 0.0 4.0202044877579995e-14 0.0 0.01 0.0 4.0202044877579995e-14 0.0 0.01000006445062308 0.00999848434465132 0.0 -4.479341365387152e-15 0.0 0.01 0.0 -4.479341365387152e-15 0.0 0.010000060550549951 0.009998483345106097 0.0 -6.924625688801918e-15 0.0 0.01 0.0 -6.924625688801918e-15 0.0 0.01000005520045706 0.009998489842155402 0.0 -1.99682751511533e-15 0.0 0.01 0.0 -1.99682751511533e-15 0.0 0.010000048350350663 0.009998502336516585 0.0 5.036361619799521e-16 0.0 0.01 0.0 5.036361619799521e-16 0.0 0.010000040050240602 0.009998514331147387 0.0 7.792477913937301e-16 0.0 0.01 0.0 7.792477913937301e-16 0.0 0.010000033200165338 0.009998526325821357 0.0 5.772239407503902e-16 0.0 0.01 0.0 5.772239407503902e-16 0.0 0.010000027850116345 0.00999853382251451 0.0 1.3822348096017415e-16 0.0 0.01 0.0 1.3822348096017415e-16 0.0 0.010000022950079004 0.009998539320100206 0.0 4.0073362879877216e-17 0.0 0.01 0.0 4.0073362879877216e-17 0.0 0.01000002000006 0.009998265451403223 0.0 1.0904463155565874e-13 0.0 0.01 0.0 1.0904463155565874e-13 0.0 0.010000069350721424 0.009998257955313708 0.0 1.0166959737314507e-14 0.0 0.01 0.0 1.0166959737314507e-14 0.0 0.010000066900671348 0.009998261453486717 0.0 -5.9056793129563165e-15 0.0 0.01 0.0 -5.9056793129563165e-15 0.0 0.010000059550531935 0.009998274446732892 0.0 -1.7864676674814113e-15 0.0 0.01 0.0 -1.7864676674814113e-15 0.0 0.010000051750401712 0.009998291437977402 0.0 9.637910041295248e-16 0.0 0.01 0.0 9.637910041295248e-16 0.0 0.010000045400309177 0.009998306930069952 0.0 1.3197674497135837e-15 0.0 0.01 0.0 1.3197674497135837e-15 0.0 0.010000038100217743 0.00999832192248615 0.0 8.2008129639142e-16 0.0 0.01 0.0 8.2008129639142e-16 0.0 0.010000029800133207 0.009998332417217615 0.0 2.7257678578361416e-16 0.0 0.01 0.0 2.7257678578361416e-16 0.0 0.01000002635010415 0.009998338913972702 0.0 1.0999966310271209e-16 0.0 0.01 0.0 1.0999966310271209e-16 0.0 0.010000023450082485 0.00999798810731974 0.0 4.871347900040116e-12 0.0 0.01 0.0 4.871347900033499e-12 0.0 0.010000077150892833 0.009997988107319737 0.0 2.2436195068059474e-14 0.0 0.01 0.0 2.2436195068059474e-14 0.0 0.010000073750815871 0.009998001099500258 0.0 -6.128156626638639e-15 0.0 0.01 0.0 -6.128156626638639e-15 0.0 0.010000066400661351 0.009998019588459863 0.0 -2.409113580642888e-15 0.0 0.01 0.0 -2.409113580642888e-15 0.0 0.010000059550531935 0.009998041075758008 0.0 1.2972991740376017e-15 0.0 0.01 0.0 1.2972991740376017e-15 0.0 0.010000052250409513 0.009998062063485287 0.0 1.8361733737670895e-15 0.0 0.01 0.0 1.8361733737670895e-15 0.0 0.010000044900302403 0.009998079053647035 0.0 9.426703341315714e-16 0.0 0.01 0.0 9.426703341315714e-16 0.0 0.010000036600200936 0.009998094045038155 0.0 3.6892498248311047e-16 0.0 0.01 0.0 3.6892498248311047e-16 0.0 0.010000031750151211 0.009998101540759002 0.0 8.226935298188295e-17 0.0 0.01 0.0 8.226935298188295e-17 0.0 0.010000029300128775 0.0099976663171656 0.0 4.1438738326400606e-11 0.0 0.01 0.0 4.1438738326400606e-11 0.0 0.010000090801236717 0.009997674311575656 0.0 3.03623270081106e-14 0.0 0.01 0.0 3.03623270081106e-14 0.0 0.010000085451095273 0.009997694297684701 0.0 -1.0187023057976094e-14 0.0 0.01 0.0 -1.0187023057976094e-14 0.0 0.010000078100914953 0.00999771978014757 0.0 -4.027049727631242e-15 0.0 0.01 0.0 -4.027049727631242e-15 0.0 0.010000070800751906 0.009997747761115556 0.0 1.603400496973845e-15 0.0 0.01 0.0 1.603400496973845e-15 0.0 0.010000061500567344 0.009997773743653335 0.0 2.2489296808827102e-15 0.0 0.01 0.0 2.2489296808827102e-15 0.0 0.010000054700448817 0.00999779522936644 0.0 1.4619392678790248e-15 0.0 0.01 0.0 1.4619392678790248e-15 0.0 0.010000047850343446 0.009997813217511848 0.0 5.513260943659989e-16 0.0 0.01 0.0 5.513260943659989e-16 0.0 0.010000041000252152 0.009997822711294405 0.0 1.4058897494863132e-16 0.0 0.01 0.0 1.4058897494863132e-16 0.0 0.010000038100217743 0.009997288103556372 0.0 1.2334299423353932e-10 0.0 0.01 0.0 1.233429942336452e-10 0.0 0.010000115702008018 0.009997309586138625 0.0 4.0376192292145606e-13 0.0 0.01 0.0 4.0376192292145606e-13 0.0 0.010000106451699771 0.009997339562066233 0.0 -1.6397875891544994e-14 0.0 0.01 0.0 -1.6397875891544994e-14 0.0 0.01000009715141574 0.009997374034716325 0.0 -6.815088486087094e-15 0.0 0.01 0.0 -6.815088486087094e-15 0.0 0.010000090801236714 0.009997408507723028 0.0 1.3212650849585591e-15 0.0 0.01 0.0 1.3212650849585591e-15 0.0 0.010000080550973258 0.009997439983388416 0.0 2.393945987780443e-15 0.0 0.01 0.0 2.393945987780443e-15 0.0 0.010000072750793895 0.009997466463146696 0.0 1.3406622082383438e-15 0.0 0.01 0.0 1.3406622082383438e-15 0.0 0.010000062500585943 0.009997487447255525 0.0 4.697785372042034e-16 0.0 0.01 0.0 4.697785372042034e-16 0.0 0.010000056150472928 0.00999749943823418 0.0 6.053392669739783e-17 0.0 0.01 0.0 6.053392669739783e-17 0.0 0.010000052250409513 0.009996849989010763 0.0 2.1452509619909658e-10 0.0 0.01 0.0 2.1452509619909658e-10 0.0 0.010000157253709242 0.009996886454728526 0.0 1.6614097496678984e-12 0.0 0.01 0.0 1.661409749666244e-12 0.0 0.010000141603007658 0.009996928415774256 0.0 -2.543550619335062e-14 0.0 0.01 0.0 -2.543550619335062e-14 0.0 0.010000128402473038 0.009996971875985798 0.0 -1.0135491426517735e-14 0.0 0.01 0.0 -1.0135491426517735e-14 0.0 0.010000117702078034 0.009997014337659435 0.0 9.879112950337085e-16 0.0 0.01 0.0 9.879112950337085e-16 0.0 0.01000010595168384 0.009997051804291387 0.0 2.250014627157471e-15 0.0 0.01 0.0 2.250014627157471e-15 0.0 0.010000094751346656 0.009997084775275961 0.0 1.0755225188443615e-15 0.0 0.01 0.0 1.0755225188443615e-15 0.0 0.01000008495108249 0.009997109753511764 0.0 2.603932614034014e-16 0.0 0.01 0.0 2.603932614034014e-16 0.0 0.010000076650881295 0.009997124740543114 0.0 -1.2786391100028485e-17 0.0 0.01 0.0 -1.2786391100028485e-17 0.0 0.010000070800751906 0.00999634900044346 0.0 2.4344825722301626e-10 0.0 0.01 0.0 2.4344825722301626e-10 0.0 0.010000221207339694 0.009996399944992995 0.0 1.8686221422271488e-12 0.0 0.01 0.0 1.8686221422271488e-12 0.0 0.010000196305780243 0.009996454886066404 0.0 -2.8864315715700584e-14 0.0 0.01 0.0 -2.8864315715700584e-14 0.0 0.010000173854533705 0.009996511326476016 0.0 -1.1665420082846936e-14 0.0 0.01 0.0 -1.1665420082846936e-14 0.0 0.010000158203754186 0.00999656327247659 0.0 4.1831924933310113e-16 0.0 0.01 0.0 4.1831924933310113e-16 0.0 0.010000142103028933 0.009996610224366168 0.0 2.031558957104895e-15 0.0 0.01 0.0 2.031558957104895e-15 0.0 0.010000126952417497 0.009996647186957414 0.0 8.884279458671424e-16 0.0 0.01 0.0 8.884279458671424e-16 0.0 0.01000011330192557 0.009996676657425286 0.0 7.078469313395351e-16 0.0 0.01 0.0 7.078469313395351e-16 0.0 0.010000104501638067 0.009996693141020975 0.0 -1.8753471040125336e-16 0.0 0.01 0.0 -1.8753471040125336e-16 0.0 0.01000009715141574 0.00999577667697599 0.0 1.7843544226653362e-10 0.0 0.01 0.0 1.7843544226653362e-10 0.0 0.010000314964879813 0.009995845590302766 0.0 5.236724218900446e-13 0.0 0.01 0.0 5.236724218902514e-13 0.0 0.010000269560899071 0.009995915004442345 0.0 -2.6376975621922292e-14 0.0 0.01 0.0 -2.6376975621922292e-14 0.0 0.010000237308447027 0.009995984420028041 0.0 -9.350256835607222e-15 0.0 0.01 0.0 -9.350256835607222e-15 0.0 0.01000021190673548 0.009996046845350916 0.0 9.699052685662493e-16 0.0 0.01 0.0 9.699052685662493e-16 0.0 0.010000189955412322 0.009996101281187046 0.0 1.259515957685297e-15 0.0 0.01 0.0 1.259515957685297e-15 0.0 0.010000169904330024 0.009996146728300214 0.0 -1.8664263428603013e-16 0.0 0.01 0.0 -1.8664263428603013e-16 0.0 0.010000152353481668 0.009996178691476362 0.0 -5.112671210906237e-16 0.0 0.01 0.0 -5.112671210906237e-16 0.0 0.010000139152904475 0.009996200166907547 0.0 -3.3070780355794156e-16 0.0 0.01 0.0 -3.3070780355794156e-16 0.0 0.010000130852568314 0.009995128561949786 0.0 7.399072422375251e-11 0.0 0.01 0.0 7.399072422369957e-11 0.0 0.010000428227505251 0.009995214936717161 0.0 -2.9607053775429854e-14 0.0 0.01 0.0 -2.9607053775429854e-14 0.0 0.010000366720171565 0.009995300814428355 0.0 -1.3764090666342847e-14 0.0 0.01 0.0 -1.3764090666342847e-14 0.0 0.010000319365298478 0.009995382200581262 0.0 -3.5006489872527532e-15 0.0 0.01 0.0 -3.5006489872527532e-15 0.0 0.010000281261865791 0.009995455100295664 0.0 1.203730544693594e-15 0.0 0.01 0.0 1.203730544693594e-15 0.0 0.01000025000937539 0.009995520511671052 0.0 3.4313799666063647e-16 0.0 0.01 0.0 3.4313799666063647e-16 0.0 0.01000022265743623 0.009995571443554858 0.0 -1.447796120621984e-15 0.0 0.01 0.0 -1.447796120621984e-15 0.0 0.010000199205952293 0.009995611390675181 0.0 -1.2599297432833424e-15 0.0 0.01 0.0 -1.2599297432833424e-15 0.0 0.010000182605001566 0.009995634859831718 0.0 -6.045470862062279e-16 0.0 0.01 0.0 -6.045470862062279e-16 0.0 0.010000170904381147 0.00999439421724573 0.0 9.673474681663987e-12 0.0 0.01 0.0 9.673474681660679e-12 0.0 0.010000564997879784 0.009994499541587034 0.0 -1.2081620797971576e-14 0.0 0.01 0.0 -1.2081620797971576e-14 0.0 0.010000482934981677 0.00999460187411259 0.0 2.69001454201961e-15 0.0 0.01 0.0 2.69001454201961e-15 0.0 0.010000417976204155 0.009994699217724744 0.0 2.8485652654030327e-15 0.0 0.01 0.0 2.8485652654030327e-15 0.0 0.010000367220226614 0.0099947870790168 0.0 3.605530441835875e-17 0.0 0.01 0.0 3.605530441835875e-17 0.0 0.010000322265577597 0.00999486146339912 0.0 -2.3988650823672173e-15 0.0 0.01 0.0 -2.3988650823672173e-15 0.0 0.010000286612321522 0.00999492336844657 0.0 -4.691620259345295e-15 0.0 0.01 0.0 -4.691620259345295e-15 0.0 0.01000025535978096 0.009994968799495473 0.0 -3.612543623561602e-15 0.0 0.01 0.0 -3.612543623561602e-15 0.0 0.010000232408101778 0.009994995758872326 0.0 -1.920796092623871e-15 0.0 0.01 0.0 -1.920796092623871e-15 0.0 0.01000021825714522 0.009993570705693271 0.0 -3.9980350738399533e-13 0.0 0.01 0.0 -3.9980350738409873e-13 0.0 0.010000719827715332 0.009993691973703403 0.0 1.4490432134537912e-14 0.0 0.01 0.0 1.4490432134537912e-14 0.0 0.010000616757053698 0.009993812747055736 0.0 1.4876064818905712e-14 0.0 0.01 0.0 1.4876064818905712e-14 0.0 0.010000534242809257 0.0099939260384365 0.0 6.598515232771233e-15 0.0 0.01 0.0 6.598515232771233e-15 0.0 0.01000046488241534 0.009994028852451615 0.0 -4.657045856311439e-15 0.0 0.01 0.0 -4.657045856311439e-15 0.0 0.010000407274879573 0.009994116696065583 0.0 -1.1061537217654575e-14 0.0 0.01 0.0 -1.1061537217654575e-14 0.0 0.010000358419268735 0.00999418906896512 0.0 -1.2010561483319486e-14 0.0 0.01 0.0 -1.2010561483319486e-14 0.0 0.010000318365202815 0.009994241977045128 0.0 -6.6825318065255156e-15 0.0 0.01 0.0 -6.6825318065255156e-15 0.0 0.010000290562663508 0.009994271925387366 0.0 -2.2055235946388087e-15 0.0 0.01 0.0 -2.2055235946388087e-15 0.0 0.010000272461134855 0.009992647117689709 0.0 -2.7929043071931856e-13 0.0 0.01 0.0 -2.7929043071931856e-13 0.0 0.010000883417050067 0.009992784816350334 0.0 3.3139354921792526e-14 0.0 0.01 0.0 3.3139354921792526e-14 0.0 0.010000765687932725 0.009992923518581985 0.0 2.0513660556761268e-14 0.0 0.01 0.0 2.0513660556761268e-14 0.0 0.010000662665863087 0.009993055740115046 0.0 5.945616988797256e-16 0.0 0.01 0.0 5.945616988797256e-16 0.0 0.010000575749719345 0.009993175492447806 0.0 -1.8389684655888206e-14 0.0 0.01 0.0 -1.8389684655888206e-14 0.0 0.010000503438014924 0.009993278283300357 0.0 -2.4672647357756972e-14 0.0 0.01 0.0 -2.4672647357756972e-14 0.0 0.010000441429227243 0.009993360618067193 0.0 -2.2394155844002998e-14 0.0 0.01 0.0 -2.2394155844002998e-14 0.0 0.010000391623004085 0.009993420000162175 0.0 -1.2488070872990118e-14 0.0 0.01 0.0 -1.2488070872990118e-14 0.0 0.010000355468952829 0.00999345592933869 0.0 -3.9037365175818104e-15 0.0 0.01 0.0 -3.9037365175818104e-15 0.0 0.010000333016634272 0.009991610569204149 0.0 -1.7809837415456779e-13 0.0 0.01 0.0 -1.7809837415454194e-13 0.0 0.010001062669365929 0.009991766679309275 0.0 4.41973172986248e-14 0.0 0.01 0.0 4.41973172986248e-14 0.0 0.010000924928308032 0.0099919252906798 0.0 1.5545728282223818e-14 0.0 0.01 0.0 1.5545728282223818e-14 0.0 0.010000803796903034 0.00999207792384712 0.0 -1.5092439606197207e-14 0.0 0.01 0.0 -1.5092439606197207e-14 0.0 0.010000699273340642 0.009992216596644938 0.0 -4.140752798050432e-14 0.0 0.01 0.0 -4.140752798050432e-14 0.0 0.010000608955619526 0.009992335321109594 0.0 -4.633716234398029e-14 0.0 0.01 0.0 -4.633716234398029e-14 0.0 0.01000053229249728 0.009992432099644321 0.0 -3.6036257343184586e-14 0.0 0.01 0.0 -3.6036257343184586e-14 0.0 0.010000472683512342 0.009992501941570888 0.0 -1.9105293685103698e-14 0.0 0.01 0.0 -1.9105293685103698e-14 0.0 0.010000427777447467 0.009992544346312233 0.0 -6.197841525057304e-15 0.0 0.01 0.0 -6.197841525057304e-15 0.0 0.010000398973875753 0.009990445211564062 0.0 -9.662383407658524e-14 0.0 0.01 0.0 -9.662383407658524e-14 0.0 0.010001252185155888 0.009990624700935289 0.0 4.422703239800654e-14 0.0 0.01 0.0 4.422703239800654e-14 0.0 0.010001096380281104 0.00999080918620375 0.0 3.329007823785209e-15 0.0 0.01 0.0 3.329007823785209e-15 0.0 0.010000956687270069 0.009990985204648835 0.0 -2.903619525806907e-14 0.0 0.01 0.0 -2.903619525806907e-14 0.0 0.010000832603972864 0.009991145773497379 0.0 -6.015323298622661e-14 0.0 0.01 0.0 -6.015323298622661e-14 0.0 0.01000072612908186 0.0099912829114073 0.0 -6.636091927603119e-14 0.0 0.01 0.0 -6.636091927603119e-14 0.0 0.010000633860261732 0.009991393623221356 0.0 -5.1048359161569864e-14 0.0 0.01 0.0 -5.1048359161569864e-14 0.0 0.010000561097220981 0.00999147391652406 0.0 -2.470600050742635e-14 0.0 0.01 0.0 -2.470600050742635e-14 0.0 0.01000050588838587 0.009991522292926623 0.0 -7.902254288610866e-15 0.0 0.01 0.0 -7.902254288610866e-15 0.0 0.010000474133718285 0.009989144202871213 0.0 -8.716305657151088e-15 0.0 0.01 0.0 -8.716305657151088e-15 0.0 0.010001451465951865 0.009989350037446299 0.0 3.899275054935374e-14 0.0 0.01 0.0 3.899275054935374e-14 0.0 0.01000127809498727 0.009989562364407628 0.0 5.386128037785282e-15 0.0 0.01 0.0 5.386128037785282e-15 0.0 0.010001118837741678 0.009989766729433948 0.0 -1.889596500013961e-14 0.0 0.01 0.0 -1.889596500013961e-14 0.0 0.010000976693070771 0.009989953161153475 0.0 -5.3626453307055584e-14 0.0 0.01 0.0 -5.3626453307055584e-14 0.0 0.010000852158913848 0.009990111686173819 0.0 -7.15158133380633e-14 0.0 0.01 0.0 -7.15158133380633e-14 0.0 0.010000745683398269 0.0099902378136718 0.0 -5.236004870163625e-14 0.0 0.01 0.0 -5.236004870163625e-14 0.0 0.010000662665863087 0.00999033153996577 0.0 -2.8381736063838882e-14 0.0 0.01 0.0 -2.8381736063838882e-14 0.0 0.0100005991538435 0.009990388873839582 0.0 -8.339493214121717e-15 0.0 0.01 0.0 -8.339493214121717e-15 0.0 0.010000562047381038 0.009987688772325894 0.0 8.617032872606901e-14 0.0 0.01 0.0 8.617032872606901e-14 0.0 0.01000166446547459 0.0099879303865534 0.0 3.885233968782256e-14 0.0 0.01 0.0 3.885233968782256e-14 0.0 0.010001471524744043 0.009988176502370695 0.0 5.1356898557164895e-14 0.0 0.01 0.0 5.1356898557164895e-14 0.0 0.010001293701006048 0.00998841416588163 0.0 6.643419819752432e-14 0.0 0.01 0.0 6.643419819752432e-14 0.0 0.010001134493031966 0.009988629921243657 0.0 1.645393766560318e-14 0.0 0.01 0.0 1.645393766560318e-14 0.0 0.010000994798423899 0.009988812801054571 0.0 -2.4637626755798717e-14 0.0 0.01 0.0 -2.4637626755798717e-14 0.0 0.010000875614991817 0.009988960308165755 0.0 -2.5985116469183335e-14 0.0 0.01 0.0 -2.5985116469183335e-14 0.0 0.010000779391108107 0.009989065460805472 0.0 -1.2818875190899085e-14 0.0 0.01 0.0 -1.2818875190899085e-14 0.0 0.010000709525506824 0.00998913124518809 0.0 -5.20585785566174e-15 0.0 0.01 0.0 -5.20585785566174e-15 0.0 0.01000066801693103 0.009986072649786877 0.0 1.2565939097713867e-13 0.0 0.01 0.0 1.2565939097713867e-13 0.0 0.01000189068606893 0.009986359460494745 0.0 5.3232130037154893e-14 0.0 0.01 0.0 5.3232130037154893e-14 0.0 0.010001676221363534 0.009986645797916985 0.0 1.8788530783706337e-13 0.0 0.01 0.0 1.8788530783706337e-13 0.0 0.010001483229930407 0.009986921203056545 0.0 2.524396240232365e-13 0.0 0.01 0.0 2.524396240232365e-13 0.0 0.01000130980729434 0.009987167742354284 0.0 1.7616656513800467e-13 0.0 0.01 0.0 1.7616656513800467e-13 0.0 0.010001158401252937 0.009987378933968219 0.0 8.216903295353757e-14 0.0 0.01 0.0 8.216903295353757e-14 0.0 0.010001029959100514 0.009987546801010359 0.0 3.8247763474393e-14 0.0 0.01 0.0 3.8247763474393e-14 0.0 0.010000926878849736 0.009987669344314633 0.0 1.534953497401464e-14 0.0 0.01 0.0 1.534953497401464e-14 0.0 0.01000085265904172 0.009987741577237032 0.0 4.629373202058511e-15 0.0 0.01 0.0 4.629373202058511e-15 0.0 0.01000080529726511 0.009984294079030894 0.0 3.2677097520832833e-14 0.0 0.01 0.0 3.2677097520832833e-14 0.0 0.010002124676946042 0.009984631003652052 0.0 6.067526757817426e-14 0.0 0.01 0.0 6.067526757817426e-14 0.0 0.010001896039108353 0.009984967962384543 0.0 3.7461675840659013e-13 0.0 0.01 0.0 3.7461675840659013e-13 0.0 0.010001691829246102 0.009985283052151031 0.0 5.132864316056056e-13 0.0 0.01 0.0 5.132864316056056e-13 0.0 0.0100015125430988 0.00998556680779785 0.0 3.9461960869165437e-13 0.0 0.01 0.0 3.9461960869165437e-13 0.0 0.010001356726055904 0.009985806276559265 0.0 2.250711064113705e-13 0.0 0.01 0.0 2.250711064113705e-13 0.0 0.010001221923928232 0.00998599646984634 0.0 1.146919910229264e-13 0.0 0.01 0.0 1.146919910229264e-13 0.0 0.01000111443626755 0.00998613339582545 0.0 5.328279046893817e-14 0.0 0.01 0.0 5.328279046893817e-14 0.0 0.010001037761519995 0.009986217545857894 0.0 1.3148787790948569e-14 0.0 0.01 0.0 1.3148787790948569e-14 0.0 0.01000099039711354 0.009982370728504462 0.0 -6.455468894954303e-13 0.0 0.01 0.0 -6.455468894954303e-13 0.0 0.010002373394683042 0.009982769635349605 0.0 -2.0025244953195015e-13 0.0 0.01 0.0 -2.0025244953195015e-13 0.0 0.010002133482568011 0.00998315714801123 0.0 4.182622843149806e-13 0.0 0.01 0.0 4.182622843149289e-13 0.0 0.01000192830761217 0.00998351584885466 0.0 6.934854495641731e-13 0.0 0.01 0.0 6.934854495641731e-13 0.0 0.010001755812323302 0.009983833786638903 0.0 5.59194997880482e-13 0.0 0.01 0.0 5.591949978805337e-13 0.0 0.0100016043860256 0.009984102987757969 0.0 3.336123569712197e-13 0.0 0.01 0.0 3.3361235697119383e-13 0.0 0.010001472975384567 0.009984315477955523 0.0 1.7165941270017504e-13 0.0 0.01 0.0 1.7165941270017504e-13 0.0 0.010001370381640416 0.009984468260322335 0.0 7.598038743523724e-14 0.0 0.01 0.0 7.598038743523724e-14 0.0 0.01000129225044353 0.009984561824322365 0.0 2.030106927537746e-14 0.0 0.01 0.0 2.030106927537746e-14 0.0 0.010001245832776229 0.009980355537725779 0.0 -3.0117998275108474e-12 0.0 0.01 0.0 -3.0117998275106406e-12 0.0 0.010002637292930357 0.00998082032046393 0.0 -1.5784400815848112e-12 0.0 0.01 0.0 -1.5784400815848112e-12 0.0 0.010002399813589458 0.009981258816751586 0.0 -3.1470704222204483e-13 0.0 0.01 0.0 -3.1470704222204483e-13 0.0 0.010002212634145892 0.009981659082067867 0.0 4.128426017634016e-13 0.0 0.01 0.0 4.128426017633499e-13 0.0 0.010002060186480411 0.009982009167233897 0.0 4.767161455513974e-13 0.0 0.01 0.0 4.767161455513974e-13 0.0 0.010001928757872572 0.00998230458024627 0.0 3.087114425405509e-13 0.0 0.01 0.0 3.087114425405509e-13 0.0 0.010001812992922346 0.009982537845751177 0.0 1.619198117944251e-13 0.0 0.01 0.0 1.619198117944251e-13 0.0 0.010001716241721765 0.009982706961032936 0.0 7.191502579696501e-14 0.0 0.01 0.0 7.191502579696501e-14 0.0 0.010001644455546185 0.009982809926605109 0.0 2.0600793555097978e-14 0.0 0.01 0.0 2.0600793555097978e-14 0.0 0.010001599983910375 0.009978361934055545 0.0 -9.214567567317758e-12 0.0 0.01 0.0 -9.214567567317758e-12 0.0 0.010002935391973234 0.009978890530087381 0.0 -5.988967872046089e-12 0.0 0.01 0.0 -5.988967872045676e-12 0.0 0.010002718858426842 0.00997937697226757 0.0 -3.289341196686796e-12 0.0 0.01 0.0 -3.289341196686796e-12 0.0 0.010002569339886998 0.009979811302513847 0.0 -1.1575272423661422e-12 0.0 0.01 0.0 -1.1575272423661422e-12 0.0 0.010002457455566452 0.009980189027089253 0.0 -2.114985148749442e-13 0.0 0.01 0.0 -2.114985148749442e-13 0.0 0.010002356782902113 0.009980505155883907 0.0 3.7759317040269214e-14 0.0 0.01 0.0 3.7759317040269214e-14 0.0 0.01000226637023235 0.00998075668861646 0.0 5.787220061731957e-14 0.0 0.01 0.0 5.787220061731957e-14 0.0 0.010002185266099537 0.009980939136311968 0.0 3.416784630753927e-14 0.0 0.01 0.0 3.416784630753927e-14 0.0 0.010002122725703414 0.009981050001787766 0.0 7.751292949570665e-15 0.0 0.01 0.0 7.751292949570665e-15 0.0 0.010002085101966273 0.009976574073967367 0.0 -2.1026870731009073e-11 0.0 0.01 0.0 -2.1026870731007418e-11 0.0 0.01000331074342783 0.009977161975223355 0.0 -1.5664030305457005e-11 0.0 0.01 0.0 -1.5664030305457832e-11 0.0 0.010003126966076262 0.00997768541396088 0.0 -1.0664264995406994e-11 0.0 0.01 0.0 -1.0664264995406167e-11 0.0 0.010003031177648891 0.00997814435971898 0.0 -5.504804302098032e-12 0.0 0.01 0.0 -5.504804302097618e-12 0.0 0.010002977379190349 0.009978539282570543 0.0 -2.2642444852008776e-12 0.0 0.01 0.0 -2.2642444852008776e-12 0.0 0.01000292513296004 0.00997887065653639 0.0 -7.789408736251543e-13 0.0 0.01 0.0 -7.789408736252577e-13 0.0 0.010002865481176956 0.00997913399072375 0.0 -2.3576809373030743e-13 0.0 0.01 0.0 -2.3576809373030743e-13 0.0 0.010002808782946218 0.009979324299914952 0.0 -5.572918592964258e-14 0.0 0.01 0.0 -5.572918592964258e-14 0.0 0.010002760892958736 0.00997944008080718 0.0 -9.864793418874775e-15 0.0 0.01 0.0 -9.864793418874775e-15 0.0 0.010002730117624495 0.00997526507607251 0.0 -3.578522363031222e-11 0.0 0.01 0.0 -3.578522363031388e-11 0.0 0.010003825443984154 0.009975892953496511 0.0 -2.9215811507879715e-11 0.0 0.01 0.0 -2.9215811507879715e-11 0.0 0.010003677827968288 0.009976433569038453 0.0 -2.3260263590154627e-11 0.0 0.01 0.0 -2.3260263590157936e-11 0.0 0.010003641137717543 0.009976902272918057 0.0 -1.412443001701969e-11 0.0 0.01 0.0 -1.412443001701969e-11 0.0 0.010003655303209893 0.009977303007534006 0.0 -6.824096215307741e-12 0.0 0.01 0.0 -6.824096215307328e-12 0.0 0.010003660709138032 0.009977639224875974 0.0 -2.7321055019691975e-12 0.0 0.01 0.0 -2.7321055019694043e-12 0.0 0.010003644591489282 0.00997790544174085 0.0 -9.27568539206738e-13 0.0 0.01 0.0 -9.275685392066863e-13 0.0 0.010003615259570654 0.009978098164260102 0.0 -2.818241244399697e-13 0.0 0.01 0.0 -2.818241244399697e-13 0.0 0.010003586378394345 0.009978216386176842 0.0 -5.997733689170033e-14 0.0 0.01 0.0 -5.997733689170033e-14 0.0 0.010003563904307157 0.009974779234915321 0.0 -4.3005496851988043e-11 0.0 0.01 0.0 -4.300549685198639e-11 0.0 0.010004573435534797 0.009975408509557165 0.0 -3.627632058847071e-11 0.0 0.01 0.0 -3.627632058847071e-11 0.0 0.01000444290916324 0.009975943585932616 0.0 -3.545252652287166e-11 0.0 0.01 0.0 -3.5452526522870005e-11 0.0 0.01000445367351536 0.009976401794895244 0.0 -2.5626731568221278e-11 0.0 0.01 0.0 -2.5626731568221278e-11 0.0 0.010004529425496868 0.009976790056017109 0.0 -1.4159584332418089e-11 0.0 0.01 0.0 -1.4159584332418916e-11 0.0 0.010004596417116486 0.009977112813957427 0.0 -6.2421861707532696e-12 0.0 0.01 0.0 -6.242186170753683e-12 0.0 0.010004627209680086 0.009977370546251254 0.0 -2.2791281980969143e-12 0.0 0.01 0.0 -2.279128198096811e-12 0.0 0.010004630163778375 0.009977557774719311 0.0 -7.178054942092074e-13 0.0 0.01 0.0 -7.178054942092074e-13 0.0 0.010004620400243167 0.009977672500818777 0.0 -1.5176986957533237e-13 0.0 0.01 0.0 -1.5176986957533237e-13 0.0 0.010004607181964121 0.009975543015089738 0.0 -2.70449102335562e-11 0.0 0.01 0.0 -2.70449102335562e-11 0.0 0.01000565764772732 0.009976126762655762 0.0 -1.7910958527022246e-11 0.0 0.01 0.0 -1.79109585270239e-11 0.0 0.010005506995712348 0.009976614786752153 0.0 -3.3339021502902375e-11 0.0 0.01 0.0 -3.333902150290072e-11 0.0 0.010005532888543136 0.009977030880129103 0.0 -3.2870329010728934e-11 0.0 0.01 0.0 -3.2870329010728934e-11 0.0 0.010005646879488468 0.00997738345822101 0.0 -2.172295121185797e-11 0.0 0.01 0.0 -2.1722951211856317e-11 0.0 0.010005763779346024 0.009977674487452763 0.0 -1.0558994364708935e-11 0.0 0.01 0.0 -1.0558994364709762e-11 0.0 0.01000583911030256 0.009977910408675891 0.0 -4.033982518344533e-12 0.0 0.01 0.0 -4.033982518344533e-12 0.0 0.010005874822979512 0.009978081275757876 0.0 -1.2835367756366558e-12 0.0 0.01 0.0 -1.2835367756366558e-12 0.0 0.01000588704451639 0.009978187575406527 0.0 -2.7302649087221875e-13 0.0 0.01 0.0 -2.7302649087221875e-13 0.0 0.010005888997962913 0.009978162738735865 0.0 2.6332955467413172e-11 0.0 0.01 0.0 2.6332955467414827e-11 0.0 0.010007160032575202 0.009978620756766901 0.0 4.559216765786497e-11 0.0 0.01 0.0 4.559216765786497e-11 0.0 0.010006951591981835 0.009979012755036626 0.0 1.4680555657778041e-12 0.0 0.01 0.0 1.4680555657778041e-12 0.0 0.010006944226651047 0.00997934616380913 0.0 -2.2895343713859298e-11 0.0 0.01 0.0 -2.2895343713859298e-11 0.0 0.010007060670927374 0.009979631898364002 0.0 -2.2579374070630266e-11 0.0 0.01 0.0 -2.257937407062861e-11 0.0 0.010007200168906072 0.00997987193435861 0.0 -1.2450384550823817e-11 0.0 0.01 0.0 -1.245038455082299e-11 0.0 0.01000731121026022 0.009980066261897857 0.0 -4.722030192098331e-12 0.0 0.01 0.0 -4.722030192098745e-12 0.0 0.010007380713205248 0.009980211393705116 0.0 -1.403575523289673e-12 0.0 0.01 0.0 -1.403575523289673e-12 0.0 0.010007415490276476 0.009980299867570642 0.0 -2.8419109482587263e-13 0.0 0.01 0.0 -2.8419109482587263e-13 0.0 0.0100074321272745 0.009983430274545365 0.0 1.1032558854051464e-10 0.0 0.01 0.0 1.1032558854051464e-10 0.0 0.01000909639662832 0.009983667101852988 0.0 1.594856678034167e-10 0.0 0.01 0.0 1.594856678034167e-10 0.0 0.010008809477375268 0.009983893994240838 0.0 8.139151794501164e-11 0.0 0.01 0.0 8.139151794500503e-11 0.0 0.01000873553311327 0.009984099006806458 0.0 1.8832610988290033e-11 0.0 0.01 0.0 1.883261098828838e-11 0.0 0.010008815342854678 0.009984285619028877 0.0 -4.948538135376265e-12 0.0 0.01 0.0 -4.948538135376265e-12 0.0 0.010008953410194425 0.00998444686041534 0.0 -4.599544286078306e-12 0.0 0.01 0.0 -4.599544286078719e-12 0.0 0.010009083160600068 0.00998458173189578 0.0 -4.975802842845512e-13 0.0 0.01 0.0 -4.975802842844995e-13 0.0 0.010009178170376274 0.00998468575090343 0.0 5.199443585163192e-13 0.0 0.01 0.0 5.199443585162933e-13 0.0 0.010009236882255435 0.009984750453361583 0.0 1.8651125744807206e-13 0.0 0.01 0.0 1.8651125744807206e-13 0.0 0.010009271678681674 0.009992105358654751 0.0 1.6040005779551098e-10 0.0 0.01 0.0 1.6040005779551098e-10 0.0 0.010011384662110209 0.009992023054909815 0.0 2.839753850476184e-10 0.0 0.01 0.0 2.839753850476184e-10 0.0 0.01001104266417099 0.009992015572852028 0.0 1.9106795188641104e-10 0.0 0.01 0.0 1.910679518863978e-10 0.0 0.010010896183183012 0.009992040513109998 0.0 9.474962119888691e-11 0.0 0.01 0.0 9.474962119887367e-11 0.0 0.010010926080835003 0.009992084408417621 0.0 4.092900225994416e-11 0.0 0.01 0.0 4.092900225994416e-11 0.0 0.01001104512229721 0.009992137283078998 0.0 2.1974613239039245e-11 0.0 0.01 0.0 2.1974613239039245e-11 0.0 0.01001117886715983 0.009992190657409248 0.0 1.4082875244675583e-11 0.0 0.01 0.0 1.4082875244674755e-11 0.0 0.010011292047795045 0.009992236550040622 0.0 6.989755194226183e-12 0.0 0.01 0.0 6.989755194226183e-12 0.0 0.010011372871954393 0.009992266979199187 0.0 1.7528192493517596e-12 0.0 0.01 0.0 1.7528192493517596e-12 0.0 0.01001142334414796 0.01000444436109708 0.0 7.128513863706146e-11 0.0 0.01 0.0 7.128513863706146e-11 0.0 0.01001383872362713 0.010003990186968853 0.0 3.270992834574205e-10 0.0 0.01 0.0 3.2709928345736757e-10 0.0 0.010013509727680512 0.010003690542010215 0.0 2.728386175932284e-10 0.0 0.01 0.0 2.728386175932284e-10 0.0 0.010013340146525338 0.010003490126297351 0.0 1.781446781766211e-10 0.0 0.01 0.0 1.7814467817659462e-10 0.0 0.01001333813851117 0.010003354236881314 0.0 1.0809350693743648e-10 0.0 0.01 0.0 1.0809350693744971e-10 0.0 0.010013439143121573 0.010003264297650494 0.0 6.814038925028776e-11 0.0 0.01 0.0 6.814038925027453e-11 0.0 0.010013574439871425 0.01000320809311914 0.0 4.098754211223597e-11 0.0 0.01 0.0 4.0987542112229353e-11 0.0 0.01001370341616466 0.0100031763127037 0.0 1.9031059619411566e-11 0.0 0.01 0.0 1.9031059619414875e-11 0.0 0.010013804883695463 0.010003161648771616 0.0 4.722931245851859e-12 0.0 0.01 0.0 4.722931245851859e-12 0.0 0.010013873568069567 0.010019702123469282 0.0 -1.789390920075327e-10 0.0 0.01 0.0 -1.789390920074268e-10 0.0 0.01001620631172309 0.010018893258720643 0.0 2.2032551409727606e-10 0.0 0.01 0.0 2.2032551409717018e-10 0.0 0.010015989920029231 0.010018288799964884 0.0 2.6174401897730045e-10 0.0 0.01 0.0 2.6174401897772397e-10 0.0 0.010015882960287544 0.010017833743173955 0.0 2.1994143733140468e-10 0.0 0.01 0.0 2.1994143733140468e-10 0.0 0.01001590848160557 0.010017489123662605 0.0 1.6517466579341113e-10 0.0 0.01 0.0 1.6517466579341113e-10 0.0 0.01001602378211767 0.010017229476154067 0.0 1.1590086170533839e-10 0.0 0.01 0.0 1.1590086170533839e-10 0.0 0.010016170990737257 0.01001704050808365 0.0 7.079697477774698e-11 0.0 0.01 0.0 7.079697477774698e-11 0.0 0.010016315743835191 0.010016911955599225 0.0 3.261420821757332e-11 0.0 0.01 0.0 3.26142082176792e-11 0.0 0.010016439851626929 0.010016840796539715 0.0 8.094970229474928e-12 0.0 0.01 0.0 8.094970229474928e-12 0.0 0.010016525222377124 0.010035865885652086 0.0 -4.2900890972192117e-10 0.0 0.01 0.0 -4.2900890972192117e-10 0.0 0.01001822203565272 0.010034790063765602 0.0 2.3129215436152505e-11 0.0 0.01 0.0 2.3129215436152505e-11 0.0 0.010018222538391023 0.010033920361364305 0.0 1.569396688647778e-10 0.0 0.01 0.0 1.5693966886476456e-10 0.0 0.010018281459847178 0.01003321702563639 0.0 1.8869399142993667e-10 0.0 0.01 0.0 1.886939914299102e-10 0.0 0.010018412528623503 0.010032651423949537 0.0 1.72929468922831e-10 0.0 0.01 0.0 1.72929468922831e-10 0.0 0.01001858734527378 0.010032202232379682 0.0 1.33106257353616e-10 0.0 0.01 0.0 1.3310625735360278e-10 0.0 0.01001877293143276 0.010031862084508167 0.0 8.339465100468271e-11 0.0 0.01 0.0 8.339465100468271e-11 0.0 0.010018947766950632 0.0100316234766344 0.0 3.852568970634003e-11 0.0 0.01 0.0 3.852568970633341e-11 0.0 0.01001909555711669 0.010031481036808813 0.0 9.581118293566005e-12 0.0 0.01 0.0 9.58111829356766e-12 0.0 0.010019201664331465 0.01004993946708167 0.0 -4.766392405969548e-10 0.0 0.01 0.0 -4.766392405969283e-10 0.0 0.010019718821821065 0.010048734303966408 0.0 -1.1947290895853426e-10 0.0 0.01 0.0 -1.1947290895852764e-10 0.0 0.010019979618660349 0.010047669757198225 0.0 3.0908318508057975e-11 0.0 0.01 0.0 3.090831850805963e-11 0.0 0.010020279270949797 0.01004675010419695 0.0 1.0097293045947188e-10 0.0 0.01 0.0 1.0097293045947188e-10 0.0 0.010020584383535563 0.010045971829323035 0.0 1.187411595830548e-10 0.0 0.01 0.0 1.1874115958306141e-10 0.0 0.010020868845005502 0.010045327839832635 0.0 1.0062485716799554e-10 0.0 0.01 0.0 1.0062485716799554e-10 0.0 0.010021126310060961 0.010044825507577635 0.0 6.493997616406437e-11 0.0 0.01 0.0 6.493997616406437e-11 0.0 0.010021350432012193 0.010044463755432168 0.0 3.002126143295485e-11 0.0 0.01 0.0 3.0021261432953197e-11 0.0 0.010021536675005582 0.010044245527171864 0.0 7.39179867297117e-12 0.0 0.01 0.0 7.39179867297117e-12 0.0 0.010021667871588652 0.010059071066417685 0.0 -3.249314994058073e-10 0.0 0.01 0.0 -3.249314994057941e-10 0.0 0.010020635951070452 0.01005787406203549 0.0 -1.4108998761726172e-10 0.0 0.01 0.0 -1.4108998761726172e-10 0.0 0.010021161230633327 0.010056708252283312 0.0 -4.8067692440068727e-11 0.0 0.01 0.0 -4.8067692440068727e-11 0.0 0.01002170325075914 0.010055628256381274 0.0 9.860436117521606e-12 0.0 0.01 0.0 9.860436117521606e-12 0.0 0.010022204588210092 0.010054671144119799 0.0 3.797665862837895e-11 0.0 0.01 0.0 3.797665862838226e-11 0.0 0.01002263864484108 0.010053862267237545 0.0 4.014456332326043e-11 0.0 0.01 0.0 4.014456332326043e-11 0.0 0.010022997037008024 0.010053211780578735 0.0 2.7508017420492175e-11 0.0 0.01 0.0 2.750801742049052e-11 0.0 0.010023294039784799 0.010052739503655064 0.0 1.2603877055814034e-11 0.0 0.01 0.0 1.2603877055814034e-11 0.0 0.010023533967222057 0.010052451811584394 0.0 3.0095401548107716e-12 0.0 0.01 0.0 3.0095401548105648e-12 0.0 0.010023701700076345 0.010062329896805583 0.0 -1.3357432279289696e-10 0.0 0.01 0.0 -1.3357432279290358e-10 0.0 0.010021109151815501 0.010061246612144421 0.0 -8.586877511334758e-11 0.0 0.01 0.0 -8.586877511334428e-11 0.0 0.010021807478060894 0.010060079629396625 0.0 -5.805890655975088e-11 0.0 0.01 0.0 -5.8058906559754186e-11 0.0 0.010022535398380633 0.01005893091467799 0.0 -3.208752606891099e-11 0.0 0.01 0.0 -3.2087526068912645e-11 0.0 0.010023214890168393 0.010057874062035487 0.0 -1.2639373623897656e-11 0.0 0.01 0.0 -1.2639373623898484e-11 0.0 0.010023792141338781 0.010056960555698102 0.0 -3.0076384445689613e-12 0.0 0.01 0.0 -3.0076384445690647e-12 0.0 0.010024263825147225 0.01005622007544778 0.0 -5.167507694916276e-13 0.0 0.01 0.0 -5.167507694916276e-13 0.0 0.010024647979872512 0.010055675384534382 0.0 -5.16284172331205e-13 0.0 0.01 0.0 -5.16284172331205e-13 0.0 0.01002495293759203 0.010055341790439898 0.0 -2.9624458896392286e-13 0.0 0.01 0.0 -2.9624458896392286e-13 0.0 0.010025160086953344 0.010061116808520416 0.0 -2.1711680841252153e-11 0.0 0.01 0.0 -2.1711680841250498e-11 0.0 0.010021299809529403 0.010060177066082154 0.0 -2.7788597762593833e-11 0.0 0.01 0.0 -2.7788597762593833e-11 0.0 0.010022060586286371 0.010059069081657148 0.0 -3.0131719389108494e-11 0.0 0.01 0.0 -3.0131719389108494e-11 0.0 0.010022888392647193 0.010057926207414357 0.0 -2.5718219245150254e-11 0.0 0.01 0.0 -2.5718219245151908e-11 0.0 0.010023682967559656 0.010056848819712583 0.0 -1.8709546184653508e-11 0.0 0.01 0.0 -1.8709546184654335e-11 0.0 0.010024373471205448 0.010055906255967051 0.0 -1.2389134670020044e-11 0.0 0.01 0.0 -1.2389134670020871e-11 0.0 0.010024943618187693 0.010055137746046989 0.0 -7.541397472235091e-12 0.0 0.01 0.0 -7.541397472235091e-12 0.0 0.010025407554579304 0.010054570919588546 0.0 -3.788732922002251e-12 0.0 0.01 0.0 -3.788732922002044e-12 0.0 0.010025775112083241 0.010054221021231243 0.0 -1.063843790965168e-12 0.0 0.01 0.0 -1.063843790965168e-12 0.0 0.010026022625258172 0.010057645038960599 0.0 4.0301833385445975e-12 0.0 0.01 0.0 4.030183338544184e-12 0.0 0.01002133367518096 0.010056806099609891 0.0 -1.6327903044599997e-12 0.0 0.01 0.0 -1.6327903044599997e-12 0.0 0.010022059126669152 0.010055756830865892 0.0 -5.127387756600273e-12 0.0 0.01 0.0 -5.127387756600066e-12 0.0 0.010022898713206156 0.010054653304747158 0.0 -6.081025716196094e-12 0.0 0.01 0.0 -6.0810257161952666e-12 0.0 0.010023741532201508 0.010053604201535175 0.0 -5.460326045087903e-12 0.0 0.01 0.0 -5.460326045088317e-12 0.0 0.010024492539718398 0.010052683934088185 0.0 -4.169223846124568e-12 0.0 0.01 0.0 -4.169223846124568e-12 0.0 0.010025123663603606 0.010051935003129578 0.0 -2.709371211060628e-12 0.0 0.01 0.0 -2.709371211060628e-12 0.0 0.01002564617264068 0.010051380091607854 0.0 -1.363219706458164e-12 0.0 0.01 0.0 -1.363219706458164e-12 0.0 0.010026060519772744 0.010051039004750668 0.0 -3.7295044584381465e-13 0.0 0.01 0.0 -3.7295044584381465e-13 0.0 0.010026339047561509 0.010053563555077001 0.0 -1.1143786690325623e-11 0.0 0.01 0.0 -1.114378669032521e-11 0.0 0.010021253112730472 0.010052738487749775 0.0 -1.1276418065931748e-12 0.0 0.01 0.0 -1.1276418065931748e-12 0.0 0.010021892482840574 0.010051712834529488 0.0 2.118090164726257e-12 0.0 0.01 0.0 2.1180901647263603e-12 0.0 0.010022683397711098 0.01005064089399238 0.0 2.87118981463269e-12 0.0 0.01 0.0 2.87118981463269e-12 0.0 0.010023511861959015 0.010049633695181049 0.0 2.8817638801250417e-12 0.0 0.01 0.0 2.8817638801250417e-12 0.0 0.01002426724995818 0.010048755612559001 0.0 2.4977643827166877e-12 0.0 0.01 0.0 2.497764382716481e-12 0.0 0.010024916566874757 0.010048047174526072 0.0 1.7864434222174345e-12 0.0 0.01 0.0 1.7864434222174345e-12 0.0 0.010025462622649145 0.010047524147663758 0.0 9.451649427899153e-13 0.0 0.01 0.0 9.45164942789967e-13 0.0 0.010025899571832224 0.010047205208320373 0.0 2.635084767523089e-13 0.0 0.01 0.0 2.635084767523089e-13 0.0 0.01002619632877648 0.010049378492170432 0.0 -3.4745888139570095e-11 0.0 0.01 0.0 -3.474588813957175e-11 0.0 0.010021047211785913 0.010048481655272177 0.0 -9.809950721939224e-12 0.0 0.01 0.0 -9.809950721938397e-12 0.0 0.010021588257243858 0.010047427585305524 0.0 -2.044648394728386e-12 0.0 0.01 0.0 -2.0446483947284895e-12 0.0 0.010022300928509508 0.010046362946747621 0.0 6.190160651573214e-13 0.0 0.01 0.0 6.190160651573214e-13 0.0 0.010023067874228467 0.010045385720323648 0.0 1.8327753265111818e-12 0.0 0.01 0.0 1.832775326510975e-12 0.0 0.010023785745912948 0.010044549338031412 0.0 2.2930125669283498e-12 0.0 0.01 0.0 2.2930125669285566e-12 0.0 0.0100244128580358 0.010043881405948049 0.0 1.970228862342868e-12 0.0 0.01 0.0 1.970228862342868e-12 0.0 0.010024949512078225 0.010043396107654071 0.0 1.132169088728645e-12 0.0 0.01 0.0 1.1321690887285416e-12 0.0 0.010025382917831798 0.010043102278026126 0.0 3.2339954330813283e-13 0.0 0.01 0.0 3.2339954330818453e-13 0.0 0.010025678671562314 0.010044666137234072 0.0 -5.589615665632218e-11 0.0 0.01 0.0 -5.589615665632218e-11 0.0 0.010020677708779577 0.010043633530295191 0.0 -1.596097140432975e-11 0.0 0.01 0.0 -1.596097140432975e-11 0.0 0.010021131744362357 0.01004251373396033 0.0 -6.025105861885637e-12 0.0 0.01 0.0 -6.025105861885637e-12 0.0 0.010021757301595168 0.010041437291708467 0.0 -3.0828091005416484e-12 0.0 0.01 0.0 -3.0828091005412348e-12 0.0 0.010022449370490495 0.010040477848690424 0.0 -1.581281762299944e-12 0.0 0.01 0.0 -1.5812817622998406e-12 0.0 0.010023098334191552 0.010039673353513683 0.0 -3.6327604382608727e-13 0.0 0.01 0.0 -3.632760438261131e-13 0.0 0.01002367264457787 0.010039043879067566 0.0 3.273415620613392e-13 0.0 0.01 0.0 3.273415620613392e-13 0.0 0.010024170349309478 0.010038589933615635 0.0 3.5348899486154936e-13 0.0 0.01 0.0 3.5348899486154936e-13 0.0 0.010024578620232464 0.010038317767862553 0.0 1.2079153024596572e-13 0.0 0.01 0.0 1.2079153024596572e-13 0.0 0.010024861457428685 0.01003873217065147 0.0 -6.540845295225021e-11 0.0 0.01 0.0 -6.540845295225021e-11 0.0 0.010020108339591667 0.010037541905921477 0.0 -1.0684151748680792e-11 0.0 0.01 0.0 -1.0684151748679965e-11 0.0 0.010020495940778187 0.010036349587655214 0.0 -1.4417281909692358e-12 0.0 0.01 0.0 -1.4417281909688222e-12 0.0 0.01002104474628454 0.010035257844596362 0.0 -5.600609582140397e-13 0.0 0.01 0.0 -5.600609582140397e-13 0.0 0.010021652622929436 0.010034319418382004 0.0 -6.464715569781662e-13 0.0 0.01 0.0 -6.464715569781662e-13 0.0 0.010022224772128446 0.010033549432577523 0.0 -2.422207073096882e-13 0.0 0.01 0.0 -2.422207073096882e-13 0.0 0.010022728604255918 0.010032957617647843 0.0 2.131817632651028e-13 0.0 0.01 0.0 2.1318176326512865e-13 0.0 0.010023169626694896 0.010032534084058974 0.0 2.5651789452777757e-13 0.0 0.01 0.0 2.5651789452767417e-13 0.0 0.010023538901902112 0.010032281645583663 0.0 8.107263207473611e-14 0.0 0.01 0.0 8.107263207473611e-14 0.0 0.01002379707640015 0.010031312458887965 0.0 -5.03808222509726e-11 0.0 0.01 0.0 -5.03808222509726e-11 0.0 0.010019334227654915 0.01002998048751019 0.0 8.274036746862245e-12 0.0 0.01 0.0 8.274036746862245e-12 0.0 0.010019675114565004 0.010028747993598116 0.0 1.145208083204253e-11 0.0 0.01 0.0 1.145208083204253e-11 0.0 0.01002015793796069 0.010027677483886421 0.0 8.034838364403858e-12 0.0 0.01 0.0 8.034838364402203e-12 0.0 0.010020691997079447 0.010026786947955708 0.0 5.184404649871667e-12 0.0 0.01 0.0 5.184404649871667e-12 0.0 0.010021180854746311 0.010026074276797239 0.0 3.5674635795807524e-12 0.0 0.01 0.0 3.567463579579098e-12 0.0 0.010021611859528731 0.010025532000640066 0.0 2.439044113857984e-12 0.0 0.01 0.0 2.439044113858811e-12 0.0 0.010021987857859212 0.010025149759407218 0.0 1.2706284665312741e-12 0.0 0.01 0.0 1.2706284665321013e-12 0.0 0.010022308780819375 0.010024922460717574 0.0 3.302752739976043e-13 0.0 0.01 0.0 3.302752739978111e-13 0.0 0.010022533435168271 0.01002292725852796 0.0 -1.460009993067933e-11 0.0 0.01 0.0 -1.460009993067933e-11 0.0 0.010018376229045712 0.010021523892798465 0.0 2.866087473331082e-11 0.0 0.01 0.0 2.8660874733297586e-11 0.0 0.01001868554224649 0.010020320068396909 0.0 2.2077496778642732e-11 0.0 0.01 0.0 2.2077496778642732e-11 0.0 0.0100191191417939 0.010019330304992411 0.0 1.4997576608976412e-11 0.0 0.01 0.0 1.4997576608976412e-11 0.0 0.010019584734401043 0.010018538725516815 0.0 1.0549651166799902e-11 0.0 0.01 0.0 1.0549651166799902e-11 0.0 0.010020003209581288 0.010017922567882137 0.0 7.541277853069751e-12 0.0 0.01 0.0 7.541277853069751e-12 0.0 0.010020360363282028 0.010017460172417654 0.0 4.9189689810509855e-12 0.0 0.01 0.0 4.9189689810509855e-12 0.0 0.01002066890439988 0.010017136699536328 0.0 2.420541436590217e-12 0.0 0.01 0.0 2.420541436591044e-12 0.0 0.010020936668543319 0.010016945827040219 0.0 6.259848924810261e-13 0.0 0.01 0.0 6.259848924810261e-13 0.0 0.01002112927879859 0.010014695429994568 0.0 1.3530189787643166e-11 0.0 0.01 0.0 1.3530189787649784e-11 0.0 0.010017275111535924 0.010013306763446717 0.0 3.120279487109693e-11 0.0 0.01 0.0 3.120279487111016e-11 0.0 0.010017566680057382 0.010012205911326328 0.0 1.902146236719993e-11 0.0 0.01 0.0 1.9021462367206548e-11 0.0 0.010017965297078053 0.010011350847051508 0.0 1.2977890750009211e-11 0.0 0.01 0.0 1.2977890750009211e-11 0.0 0.01001837768705439 0.010010701253045788 0.0 1.0109767793061124e-11 0.0 0.01 0.0 1.0109767793061124e-11 0.0 0.010018728733739166 0.010010208460650429 0.0 7.780874205107574e-12 0.0 0.01 0.0 7.78087420510592e-12 0.0 0.010019018468065053 0.010009847025514076 0.0 5.219726987055774e-12 0.0 0.01 0.0 5.219726987055774e-12 0.0 0.01001926301696062 0.010009596797121413 0.0 2.5406269819277113e-12 0.0 0.01 0.0 2.5406269819277113e-12 0.0 0.01001947620096429 0.010009449878172013 0.0 6.399422105904025e-13 0.0 0.01 0.0 6.399422105906093e-13 0.0 0.010019633369388442 0.010007686102352815 0.0 1.3656569631799942e-11 0.0 0.01 0.0 1.3656569631796634e-11 0.0 0.010016083619377695 0.010006374239463609 0.0 1.260249508057048e-11 0.0 0.01 0.0 1.260249508057048e-11 0.0 0.010016367245496474 0.010005409636460967 0.0 4.213973690735998e-12 0.0 0.01 0.0 4.213973690735998e-12 0.0 0.010016741648768602 0.010004715232917745 0.0 3.8979354559642465e-12 0.0 0.01 0.0 3.8979354559642465e-12 0.0 0.010017109711372596 0.010004212610418622 0.0 4.811200990911995e-12 0.0 0.01 0.0 4.811200990911995e-12 0.0 0.01001741011148222 0.01000384842041157 0.0 4.652741098144906e-12 0.0 0.01 0.0 4.652741098144906e-12 0.0 0.01001763835723841 0.010003585427371994 0.0 3.3919006016520017e-12 0.0 0.01 0.0 3.3919006016520017e-12 0.0 0.010017824896020574 0.010003406990346882 0.0 1.6664608328550757e-12 0.0 0.01 0.0 1.666460832854869e-12 0.0 0.010017984902421515 0.010003304837571102 0.0 4.017403868215165e-13 0.0 0.01 0.0 4.017403868214648e-13 0.0 0.010018106206759728 0.010002467713140768 0.0 7.540261758862133e-13 0.0 0.01 0.0 7.540261758862133e-13 0.0 0.010014840119126862 0.010001240480780714 0.0 -7.45944607661424e-12 0.0 0.01 0.0 -7.459446076612586e-12 0.0 0.010015125045980755 0.010000402874344855 0.0 -8.0293148221793e-12 0.0 0.01 0.0 -8.029314822180127e-12 0.0 0.01001548413968159 0.009999840003839898 0.0 -3.5271607089521546e-12 0.0 0.01 0.0 -3.5271607089529818e-12 0.0 0.010015824081140563 0.009999458044060622 0.0 -1.5483744159113384e-13 0.0 0.01 0.0 -1.5483744159113384e-13 0.0 0.010016085578802326 0.009999194597311472 0.0 1.3353556292831367e-12 0.0 0.01 0.0 1.33535562928293e-12 0.0 0.01001626519761131 0.009999011646545694 0.0 1.3738296078769613e-12 0.0 0.01 0.0 1.3738296078769613e-12 0.0 0.010016399604019786 0.009998891684281792 0.0 7.309956349988905e-13 0.0 0.01 0.0 7.309956349988905e-13 0.0 0.010016513464298389 0.009998822208111744 0.0 1.65638035802277e-13 0.0 0.01 0.0 1.65638035802277e-13 0.0 0.010016599841918905 0.009999044137068562 0.0 7.265682051303348e-11 0.0 0.01 0.0 7.26568205130401e-11 0.0 0.010013591609647033 0.009997884171698902 0.0 -4.037632057995904e-12 0.0 0.01 0.0 -4.03763205799549e-12 0.0 0.01001387597807327 0.009997122242699876 0.0 -3.5401864118637855e-12 0.0 0.01 0.0 -3.5401864118637855e-12 0.0 0.010014227556004958 0.009996636198036105 0.0 -2.326652659079094e-12 0.0 0.01 0.0 -2.3266526590795075e-12 0.0 0.010014550244947521 0.009996324027909533 0.0 -1.5361052847928007e-12 0.0 0.01 0.0 -1.5361052847928007e-12 0.0 0.010014783217029536 0.0099961182613546 0.0 -4.577854911863345e-13 0.0 0.01 0.0 -4.577854911863345e-13 0.0 0.010014930822974819 0.009995984919425986 0.0 2.837205036384543e-13 0.0 0.01 0.0 2.837205036384543e-13 0.0 0.010015028912467737 0.00999589902408064 0.0 3.130967573162147e-13 0.0 0.01 0.0 3.130967573162147e-13 0.0 0.010015102494035593 0.00999585058407748 0.0 9.541879810891984e-14 0.0 0.01 0.0 9.541879810891984e-14 0.0 0.010015156940417184 0.00999707578315722 0.0 1.4491501766208651e-09 0.0 0.01 0.0 1.4491501766207592e-09 0.0 0.010012388232279942 0.009995951959322348 0.0 7.605613801505688e-11 0.0 0.01 0.0 7.60561380150635e-11 0.0 0.010012653375733496 0.009995206448924047 0.0 2.241798056280346e-11 0.0 0.01 0.0 2.241798056280346e-11 0.0 0.010012993530973787 0.009994732165437729 0.0 8.347402215686687e-12 0.0 0.01 0.0 8.34740221568586e-12 0.0 0.010013302396061127 0.009994428659436432 0.0 -2.29993703043393e-13 0.0 0.01 0.0 -2.29993703043393e-13 0.0 0.010013520521325706 0.009994235987408987 0.0 -2.0383547128925764e-12 0.0 0.01 0.0 -2.038354712892783e-12 0.0 0.010013651905377414 0.0099941161969476 0.0 -9.565913650611891e-13 0.0 0.01 0.0 -9.565913650610857e-13 0.0 0.01001372646072158 0.009994045322952795 0.0 -7.280715600209961e-14 0.0 0.01 0.0 -7.280715600209961e-14 0.0 0.010013772048244014 0.009994007890113338 0.0 5.5715254890845295e-14 0.0 0.01 0.0 5.5715254890845295e-14 0.0 0.010013804431829258 0.009996102779444203 0.0 8.39573798266737e-09 0.0 0.01 0.0 8.39573798266737e-09 0.0 0.010011282716278274 0.00999501822518646 0.0 8.644186694918318e-10 0.0 0.01 0.0 8.644186694917259e-10 0.0 0.01001149243108201 0.009994233491730443 0.0 6.745468916005704e-11 0.0 0.01 0.0 6.745468916005704e-11 0.0 0.010011798196820026 0.009993710438767116 0.0 2.76548889549314e-11 0.0 0.01 0.0 2.7654888954928093e-11 0.0 0.010012088785530865 0.00999336610712401 0.0 2.749858604827561e-12 0.0 0.01 0.0 2.749858604827561e-12 0.0 0.010012301461720627 0.009993149046770601 0.0 -4.976881867499484e-12 0.0 0.01 0.0 -4.9768818674990704e-12 0.0 0.01001243038883105 0.009993017320487131 0.0 -3.9183448777961544e-12 0.0 0.01 0.0 -3.9183448777961544e-12 0.0 0.010012497489107026 0.00999294098150252 0.0 -1.4478086686636557e-12 0.0 0.01 0.0 -1.4478086686635523e-12 0.0 0.010012528856564878 0.009992900567454232 0.0 -2.3995647776234916e-13 0.0 0.01 0.0 -2.3995647776234916e-13 0.0 0.010012547978311819 0.009995733232478234 0.0 2.9225107529329725e-08 0.0 0.01 0.0 2.9225107529333113e-08 0.0 0.010010325069199808 0.009994733663072129 0.0 4.722455972505596e-09 0.0 0.01 0.0 4.722455972505596e-09 0.0 0.01001043034615624 0.009993899586800196 0.0 2.0229882805706645e-10 0.0 0.01 0.0 2.0229882805706645e-10 0.0 0.010010666441708078 0.009993281277256225 0.0 6.024218599132872e-11 0.0 0.01 0.0 6.024218599132872e-11 0.0 0.01001092071328379 0.009992859654966529 0.0 1.2492482197810316e-11 0.0 0.01 0.0 1.2492482197809489e-11 0.0 0.01001112353245742 0.009992584756038689 0.0 -6.637611709540575e-12 0.0 0.01 0.0 -6.637611709540162e-12 0.0 0.0100112582336748 0.009992415637117768 0.0 -8.01279171790201e-12 0.0 0.01 0.0 -8.012791717902837e-12 0.0 0.01001133564543795 0.009992319357910113 0.0 -3.99902335658784e-12 0.0 0.01 0.0 -3.999023356588254e-12 0.0 0.010011371918709572 0.009992272965295894 0.0 -9.393011900315391e-13 0.0 0.01 0.0 -9.393011900314357e-13 0.0 0.010011388575447725 0.009995714756968328 0.0 7.73563323390282e-08 0.0 0.01 0.0 7.735633233903498e-08 0.0 0.01000954344513447 0.009994886924258966 0.0 1.866270930923528e-08 0.0 0.01 0.0 1.8662709309236975e-08 0.0 0.010009517470166117 0.009994042328310566 0.0 1.6424801189162822e-09 0.0 0.01 0.0 1.6424801189162822e-09 0.0 0.010009637464226761 0.009993315707942098 0.0 1.1555426406898915e-10 0.0 0.01 0.0 1.1555426406898915e-10 0.0 0.010009825010680174 0.009992783319595163 0.0 4.109660031530258e-11 0.0 0.01 0.0 4.109660031529927e-11 0.0 0.010010001334019306 0.009992424616667621 0.0 2.1250451124037374e-12 0.0 0.01 0.0 2.1250451124037374e-12 0.0 0.01001013894892385 0.00999220163167662 0.0 -8.36226548160463e-12 0.0 0.01 0.0 -8.36226548160463e-12 0.0 0.010010228572177635 0.009992070940477625 0.0 -5.9093816482187495e-12 0.0 0.01 0.0 -5.909381648218336e-12 0.0 0.010010279478455304 0.009992004100396062 0.0 -1.6740441450957907e-12 0.0 0.01 0.0 -1.6740441450956873e-12 0.0 0.010010304004022946 0.009995902024716235 0.0 1.698895138528794e-07 0.0 0.01 0.0 1.698895138528794e-07 0.0 0.01000894654611878 0.00999534625110394 0.0 5.657778321760615e-08 0.0 0.01 0.0 5.657778321760615e-08 0.0 0.01000878596590942 0.009994589893572905 0.0 1.0337047166820552e-08 0.0 0.01 0.0 1.0337047166820552e-08 0.0 0.010008762954979687 0.009993796277704484 0.0 7.158500355476465e-10 0.0 0.01 0.0 7.158500355476465e-10 0.0 0.01000884226403357 0.009993136572467438 0.0 9.898167263414777e-11 0.0 0.01 0.0 9.898167263414777e-11 0.0 0.01000896368776665 0.009992664579161223 0.0 3.352582162123386e-11 0.0 0.01 0.0 3.352582162123386e-11 0.0 0.010009080703918777 0.00999235327980046 0.0 3.868353719457535e-12 0.0 0.01 0.0 3.8683537194571216e-12 0.0 0.010009178170376276 0.009992171203115052 0.0 -2.9117896437908562e-12 0.0 0.01 0.0 -2.9117896437906494e-12 0.0 0.010009242297237408 0.009992075928597197 0.0 -1.3657409616021285e-12 0.0 0.01 0.0 -1.3657409616021285e-12 0.0 0.010009278497620408 0.009996185699447683 0.0 3.26658126925661e-07 0.0 0.01 0.0 3.266581269256068e-07 0.0 0.010008505505227274 0.009995976432713645 0.0 1.4250734176465493e-07 0.0 0.01 0.0 1.4250734176464138e-07 0.0 0.010008248948599687 0.009995431632680674 0.0 4.287300906805557e-08 0.0 0.01 0.0 4.287300906805557e-08 0.0 0.010008086949521327 0.009994686238420746 0.0 7.587293556028112e-09 0.0 0.01 0.0 7.587293556028112e-09 0.0 0.010008026753992861 0.009993939513879216 0.0 6.570818662510725e-10 0.0 0.01 0.0 6.570818662511255e-10 0.0 0.01000805221529442 0.009993336166924 0.0 9.131478103982762e-11 0.0 0.01 0.0 9.131478103984085e-11 0.0 0.010008118776487692 0.009992913539811361 0.0 3.546408821577723e-11 0.0 0.01 0.0 3.546408821577392e-11 0.0 0.01000819561421545 0.00999264861438368 0.0 9.643254203229135e-12 0.0 0.01 0.0 9.643254203229135e-12 0.0 0.010008261225913456 0.009992506431459125 0.0 1.4318842649527135e-12 0.0 0.01 0.0 1.4318842649527135e-12 0.0 0.010008302829110118 0.009996468418636936 0.0 5.594782758684192e-07 0.0 0.01 0.0 5.594782758684192e-07 0.0 0.010008156014117642 0.009996613235250881 0.0 3.0495166166517786e-07 0.0 0.01 0.0 3.0495166166517786e-07 0.0 0.010007870145064058 0.009996391956163742 0.0 1.29795046543464e-07 0.0 0.01 0.0 1.2979504654347755e-07 0.0 0.010007610732201418 0.009995843593047189 0.0 4.102839205190849e-08 0.0 0.01 0.0 4.1028392051915266e-08 0.0 0.010007419850216422 0.009995143540085011 0.0 9.08058170265302e-09 0.0 0.01 0.0 9.08058170265302e-09 0.0 0.010007317574216707 0.009994471088711836 0.0 1.2768406489660922e-09 0.0 0.01 0.0 1.2768406489660922e-09 0.0 0.010007296077150785 0.009993935022058883 0.0 1.3052889132104237e-10 0.0 0.01 0.0 1.3052889132102913e-10 0.0 0.010007321983873517 0.00999356870954897 0.0 3.1583022566356615e-11 0.0 0.01 0.0 3.1583022566353307e-11 0.0 0.010007363124363478 0.00999336610712401 0.0 7.015539362457809e-12 0.0 0.01 0.0 7.0155393624594636e-12 0.0 0.010007394894589653 0.009996734210015856 0.0 8.545195463822639e-07 0.0 0.01 0.0 8.545195463823723e-07 0.0 0.010007853601529112 0.009997094813223577 0.0 5.58136299015047e-07 0.0 0.01 0.0 5.581362990151554e-07 0.0 0.010007573591865217 0.009997244653085026 0.0 3.041851923520295e-07 0.0 0.01 0.0 3.041851923520295e-07 0.0 0.010007284816415133 0.009997032324387301 0.0 1.3662574762933108e-07 0.0 0.01 0.0 1.3662574762930398e-07 0.0 0.010007007862439148 0.009996546290417475 0.0 5.011362332497661e-08 0.0 0.01 0.0 5.0113623324983384e-08 0.0 0.010006794518931201 0.009995954456321085 0.0 1.475092172755514e-08 0.0 0.01 0.0 1.475092172755514e-08 0.0 0.01000666535816501 0.009995404669502836 0.0 3.2297904955499445e-09 0.0 0.01 0.0 3.2297904955499445e-09 0.0 0.010006606641395608 0.009994980282166388 0.0 4.873363511463997e-10 0.0 0.01 0.0 4.873363511463468e-10 0.0 0.010006594918210043 0.009994720683621974 0.0 3.0561663057772704e-11 0.0 0.01 0.0 3.0561663057769395e-11 0.0 0.010006600779796874 0.009997346260181617 0.0 1.1648250947057792e-06 0.0 0.01 0.0 1.1648250947057792e-06 0.0 0.010007713719225424 0.009997425609882902 0.0 8.773158692563544e-07 0.0 0.01 0.0 8.773158692563544e-07 0.0 0.010007334827335337 0.009997801274889072 0.0 5.746589996412452e-07 0.0 0.01 0.0 5.746589996413537e-07 0.0 0.010007026498276343 0.009997991621125153 0.0 3.258934315237172e-07 0.0 0.01 0.0 3.258934315237714e-07 0.0 0.010006724542751493 0.00999787368217729 0.0 1.5920541807847174e-07 0.0 0.01 0.0 1.5920541807847174e-07 0.0 0.010006449087044938 0.009997536910976539 0.0 6.615984711961294e-08 0.0 0.01 0.0 6.615984711961294e-08 0.0 0.010006233374058338 0.00999712124363804 0.0 2.2361581258428337e-08 0.0 0.01 0.0 2.236158125842495e-08 0.0 0.010006092964186314 0.00999674858644597 0.0 5.6072114994728855e-09 0.0 0.01 0.0 5.6072114994737326e-09 0.0 0.01000601517300106 0.00999649534325423 0.0 7.633431537135754e-10 0.0 0.01 0.0 7.633431537135754e-10 0.0 0.01000597900800898 0.009998944440124478 0.0 1.349509422411254e-06 0.0 0.01 0.0 1.349509422411254e-06 0.0 0.010007783751243372 0.009998201202353299 0.0 1.2027561341655408e-06 0.0 0.01 0.0 1.202756134165324e-06 0.0 0.01000731538603102 0.009998161128294146 0.0 8.981591013738303e-07 0.0 0.01 0.0 8.981591013738303e-07 0.0 0.010006847948555206 0.00999854037262901 0.0 5.945040440895897e-07 0.0 0.01 0.0 5.945040440898065e-07 0.0 0.010006497580234239 0.009998844218481677 0.0 3.4723241770112136e-07 0.0 0.01 0.0 3.472324177012298e-07 0.0 0.010006212352265125 0.009998901685560117 0.0 1.749615958861173e-07 0.0 0.01 0.0 1.749615958860631e-07 0.0 0.010005971649418742 0.009998771227320576 0.0 7.309708931503285e-08 0.0 0.01 0.0 7.309708931500574e-08 0.0 0.010005784816546869 0.00999857080652926 0.0 2.335259018500452e-08 0.0 0.01 0.0 2.335259018500452e-08 0.0 0.010005657647809148 0.009998403382462407 0.0 4.3637992123367445e-09 0.0 0.01 0.0 4.3637992123367445e-09 0.0 0.010005586227409314 0.010001536674814699 0.0 1.0674963247640518e-06 0.0 0.01 0.0 1.0674963247642687e-06 0.0 0.010007926585198676 0.010000178971262177 0.0 1.3335068989126647e-06 0.0 0.01 0.0 1.3335068989126647e-06 0.0 0.010007477895681861 0.0099992937845909 0.0 1.1830117644206876e-06 0.0 0.01 0.0 1.1830117644204708e-06 0.0 0.010006944436646941 0.009999070744422462 0.0 8.754015834605035e-07 0.0 0.01 0.0 8.754015834600698e-07 0.0 0.010006440882170994 0.009999360609816104 0.0 5.687349235362514e-07 0.0 0.01 0.0 5.687349235362514e-07 0.0 0.010006074929679646 0.009999761524113212 0.0 3.224225637882966e-07 0.0 0.01 0.0 3.224225637882966e-07 0.0 0.010005828857949588 0.010000002453511247 0.0 1.530357496956538e-07 0.0 0.01 0.0 1.530357496955996e-07 0.0 0.010005648836307977 0.010000076151341424 0.0 5.6091524663730297e-08 0.0 0.01 0.0 5.609152466374385e-08 0.0 0.010005515810742494 0.010000070800773093 0.0 1.18889690766793e-08 0.0 0.01 0.0 1.1888969076672524e-08 0.0 0.010005434126273239 0.010003175812235738 0.0 7.574515264587391e-09 0.0 0.01 0.0 7.57451526459078e-09 0.0 0.01000762245643576 0.010002445802540925 0.0 8.395024203272216e-07 0.0 0.01 0.0 8.395024203270048e-07 0.0 0.010007445913466143 0.010001648052296688 0.0 1.1408945196744302e-06 0.0 0.01 0.0 1.140894519674647e-06 0.0 0.010007136226429451 0.010000947098053941 0.0 1.0446975626967996e-06 0.0 0.01 0.0 1.0446975626972332e-06 0.0 0.010006690972778122 0.010000505974380153 0.0 7.574712906678344e-07 0.0 0.01 0.0 7.574712906678344e-07 0.0 0.010006242275955948 0.010000469814643358 0.0 4.587324493546957e-07 0.0 0.01 0.0 4.587324493548041e-07 0.0 0.010005899297667603 0.010000694880489443 0.0 2.320190592262775e-07 0.0 0.01 0.0 2.320190592262233e-07 0.0 0.010005685052362821 0.01000094203434853 0.0 9.136685854820178e-08 0.0 0.01 0.0 9.136685854822888e-08 0.0 0.01000556223858553 0.01000108902793523 0.0 2.0631169629741202e-08 0.0 0.01 0.0 2.0631169629741202e-08 0.0 0.010005487914340971 0.010002704211548906 0.0 -3.168075840830368e-07 0.0 0.01 0.0 -3.1680758408314524e-07 0.0 0.010006956467160093 0.010003025346708952 0.0 4.0329058612780834e-07 0.0 0.01 0.0 4.032905861275915e-07 0.0 0.010006984384777654 0.010002952536284759 0.0 7.271546602516821e-07 0.0 0.01 0.0 7.271546602514653e-07 0.0 0.010006810730732951 0.010002867508294017 0.0 7.094526748236199e-07 0.0 0.01 0.0 7.094526748238367e-07 0.0 0.010006558772323714 0.010002755576738515 0.0 5.048839414973846e-07 0.0 0.01 0.0 5.048839414973846e-07 0.0 0.010006230456112816 0.010002685643047758 0.0 2.774969181069476e-07 0.0 0.01 0.0 2.77496918107056e-07 0.0 0.010005955026659167 0.010002659262303789 0.0 1.1346741078270333e-07 0.0 0.01 0.0 1.1346741078270333e-07 0.0 0.010005777955788402 0.010002672471036552 0.0 2.621722352474725e-08 0.0 0.01 0.0 2.6217223524760804e-08 0.0 0.010005684543536987 0.010002462812465997 0.0 -1.4029553299329568e-07 0.0 0.01 0.0 -1.4029553299318726e-07 0.0 0.01000662913894713 0.01000322961786403 0.0 1.628845301122981e-07 0.0 0.01 0.0 1.628845301122439e-07 0.0 0.010006662406209762 0.010003626479704712 0.0 2.304984499853233e-07 0.0 0.01 0.0 2.304984499853233e-07 0.0 0.010006450093144497 0.01000422242690403 0.0 1.6499465184329105e-07 0.0 0.01 0.0 1.6499465184329105e-07 0.0 0.010006212839187538 0.010004727951788955 0.0 7.63336042248694e-08 0.0 0.01 0.0 7.633360422476098e-08 0.0 0.010006029850354868 0.010005089332612882 0.0 1.857627992055133e-08 0.0 0.01 0.0 1.857627992055133e-08 0.0 0.010005933977689466 0.010001426565286528 0.0 -2.594099988284656e-07 0.0 0.01 0.0 -2.594099988284656e-07 0.0 0.010006609106348367 0.010002034822174672 0.0 -9.200401182612094e-08 0.0 0.01 0.0 -9.200401182612094e-08 0.0 0.010006391874457302 0.010002561533966814 0.0 -2.3740568118584687e-08 0.0 0.01 0.0 -2.3740568118584687e-08 0.0 0.010006236278913632 0.010002955409652778 0.0 -3.592737027080143e-09 0.0 0.01 0.0 -3.592737027081837e-09 0.0 0.010006165847969496 0.009999231588577491 0.0 -8.580787393130268e-19 0.0 0.01 0.0 -8.580787393130268e-19 0.0 0.010000007300007994 0.009999231588577491 0.0 4.589132264395745e-18 0.0 0.01 0.0 4.589132264395745e-18 0.0 0.010000007800009127 0.009999229589039104 0.0 -1.5701860588900706e-14 0.0 0.01 0.0 -1.5701860588900706e-14 0.0 0.010000009300012973 0.0099992280893861 0.0 5.534389339803957e-17 0.0 0.01 0.0 5.534389339803957e-17 0.0 0.010000011700020532 0.009999227589501915 0.0 1.4364334045665925e-16 0.0 0.01 0.0 1.4364334045665925e-16 0.0 0.010000014150030033 0.009999227589501915 0.0 2.964518940407246e-16 0.0 0.01 0.0 2.964518940407246e-16 0.0 0.010000018550051615 0.009999229089154694 0.0 5.633973610762399e-16 0.0 0.01 0.0 5.633973610762399e-16 0.0 0.010000021500069338 0.009999236587428713 0.0 8.691029288729348e-16 0.0 0.01 0.0 8.691029288729348e-16 0.0 0.010000025400096774 0.00999908962433267 0.0 1.2108449554797097e-18 0.0 0.01 0.0 1.2108449554797097e-18 0.0 0.01000001025001576 0.009999089124469252 0.0 -7.534020032893915e-15 0.0 0.01 0.0 -7.534020032893915e-15 0.0 0.010000010750017335 0.009999087125016327 0.0 2.2670832469964397e-17 0.0 0.01 0.0 2.2670832469964397e-17 0.0 0.010000012700024194 0.009999084625701857 0.0 2.3161668077429085e-17 0.0 0.01 0.0 2.3161668077429085e-17 0.0 0.010000015600036504 0.009999082126389263 0.0 7.16595324255794e-18 0.0 0.01 0.0 7.16595324255794e-18 0.0 0.010000019050054435 0.00999908112666475 0.0 -2.405207289020887e-16 0.0 0.01 0.0 -2.405207289020887e-16 0.0 0.01000002395008604 0.009999082126389263 0.0 -1.2665081764808833e-15 0.0 0.01 0.0 -1.2665081764808833e-15 0.0 0.010000028800124417 0.009999087125016327 0.0 -4.080766122285047e-15 0.0 0.01 0.0 -4.080766122285047e-15 0.0 0.010000033200165338 0.009998965160656037 0.0 -1.4045849965832309e-19 0.0 0.01 0.0 -1.4045849965832309e-19 0.0 0.010000013200026137 0.009998965160656037 0.0 -4.910647104076316e-15 0.0 0.01 0.0 -4.910647104076316e-15 0.0 0.010000013200026137 0.009998962661433023 0.0 -3.9143458013047374e-17 0.0 0.01 0.0 -3.9143458013047374e-17 0.0 0.010000015600036504 0.009998958662680099 0.0 1.0835865164138239e-17 0.0 0.01 0.0 1.0835865164138239e-17 0.0 0.010000019050054435 0.009998953664245691 0.0 -5.2725524043194935e-17 0.0 0.01 0.0 -5.2725524043194935e-17 0.0 0.010000023450082485 0.009998950665188643 0.0 -6.3024110360254825e-16 0.0 0.01 0.0 -6.3024110360254825e-16 0.0 0.010000029800133207 0.009998950165346064 0.0 -2.638625085852796e-15 0.0 0.01 0.0 -2.638625085852796e-15 0.0 0.01000003565019064 0.009998953664245691 0.0 -8.49331345318913e-15 0.0 0.01 0.0 -8.49331345318913e-15 0.0 0.010000040550246647 0.009998844200411788 0.0 1.7181194606251733e-18 0.0 0.01 0.0 1.7181194606251733e-18 0.0 0.010000014650032193 0.009998842700932174 0.0 3.7491211269290926e-17 0.0 0.01 0.0 3.7491211269290926e-17 0.0 0.010000016100038882 0.009998838202497383 0.0 3.242110940383774e-17 0.0 0.01 0.0 3.242110940383774e-17 0.0 0.01000001805004887 0.009998833704068663 0.0 5.915379399757265e-18 0.0 0.01 0.0 5.915379399757265e-18 0.0 0.0100000224500756 0.009998828205997363 0.0 9.458442047703449e-17 0.0 0.01 0.0 9.458442047703449e-17 0.0 0.010000027350112205 0.009998823207758595 0.0 -4.492828621490152e-16 0.0 0.01 0.0 -4.492828621490152e-16 0.0 0.010000033700170356 0.009998818209527324 0.0 -2.9661015422294885e-15 0.0 0.01 0.0 -2.9661015422294885e-15 0.0 0.010000040050240602 0.009998819209172978 0.0 -9.550321319375733e-15 0.0 0.01 0.0 -9.550321319375733e-15 0.0 0.01000004685032924 0.009998705251499469 0.0 -6.469035907727616e-19 0.0 0.01 0.0 -6.469035907727616e-19 0.0 0.010000017100043862 0.009998703752082366 0.0 4.897610072404984e-17 0.0 0.01 0.0 4.897610072404984e-17 0.0 0.010000017100043862 0.009998699753640062 0.0 1.4189241668776552e-16 0.0 0.01 0.0 1.4189241668776552e-16 0.0 0.01000002000006 0.009998692256573667 0.0 2.6902539835269474e-16 0.0 0.01 0.0 2.6902539835269474e-16 0.0 0.010000024900093002 0.009998684759524139 0.0 4.137583096897648e-16 0.0 0.01 0.0 4.137583096897648e-16 0.0 0.01000003025013726 0.009998675263285609 0.0 4.0503121122293475e-17 0.0 0.01 0.0 4.0503121122293475e-17 0.0 0.010000037100206463 0.009998668266074531 0.0 -2.5219089718579632e-15 0.0 0.01 0.0 -2.5219089718579632e-15 0.0 0.010000044900302403 0.009998665767074137 0.0 -8.818400780947196e-15 0.0 0.01 0.0 -8.818400780947196e-15 0.0 0.010000051750401712 0.009998541319224527 0.0 -1.8367891626302277e-18 0.0 0.01 0.0 -1.8367891626302277e-18 0.0 0.010000019050054435 0.009998539320100206 0.0 4.605880116286935e-17 0.0 0.01 0.0 4.605880116286935e-17 0.0 0.01000002000006 0.00999853382251451 0.0 9.636050540186996e-17 0.0 0.01 0.0 9.636050540186996e-17 0.0 0.010000022950079004 0.009998526325821357 0.0 5.271393049211852e-16 0.0 0.01 0.0 5.271393049211852e-16 0.0 0.010000027850116345 0.009998514331147387 0.0 8.02302917370975e-16 0.0 0.01 0.0 8.02302917370975e-16 0.0 0.010000033200165338 0.009998502336516585 0.0 5.245312925138445e-16 0.0 0.01 0.0 5.245312925138445e-16 0.0 0.010000040050240602 0.009998489842155402 0.0 -1.8746083196562833e-15 0.0 0.01 0.0 -1.8746083196562833e-15 0.0 0.010000048350350663 0.009998483345106097 0.0 -7.020947069133742e-15 0.0 0.01 0.0 -7.020947069133742e-15 0.0 0.01000005520045706 0.009998341412728033 0.0 -1.1920403816853878e-18 0.0 0.01 0.0 -1.1920403816853878e-18 0.0 0.0100000224500756 0.009998338913972702 0.0 9.860842192867235e-17 0.0 0.01 0.0 9.860842192867235e-17 0.0 0.010000023450082485 0.009998332417217615 0.0 2.691617517005091e-16 0.0 0.01 0.0 2.691617517005091e-16 0.0 0.01000002635010415 0.00999832192248615 0.0 8.70750066159307e-16 0.0 0.01 0.0 8.70750066159307e-16 0.0 0.010000029800133207 0.009998306930069952 0.0 1.3149325002394112e-15 0.0 0.01 0.0 1.3149325002394112e-15 0.0 0.010000038100217743 0.009998291437977402 0.0 8.446034451366241e-16 0.0 0.01 0.0 8.446034451366241e-16 0.0 0.010000045400309177 0.009998274446732892 0.0 -1.7020623640385098e-15 0.0 0.01 0.0 -1.7020623640385098e-15 0.0 0.010000051750401712 0.009998261453486717 0.0 -5.152694495751359e-15 0.0 0.01 0.0 -5.152694495751359e-15 0.0 0.010000059550531935 0.009998103539620743 0.0 1.6440184166675193e-18 0.0 0.01 0.0 1.6440184166675193e-18 0.0 0.010000028300120135 0.009998101540759002 0.0 -6.015402011356685e-17 0.0 0.01 0.0 -6.015402011356685e-17 0.0 0.010000029300128775 0.009998094045038155 0.0 4.583594683083784e-16 0.0 0.01 0.0 4.583594683083784e-16 0.0 0.010000031750151211 0.009998079053647035 0.0 1.008893411255181e-15 0.0 0.01 0.0 1.008893411255181e-15 0.0 0.010000036600200936 0.009998062063485287 0.0 1.8069398769243096e-15 0.0 0.01 0.0 1.8069398769243096e-15 0.0 0.010000044900302403 0.009998041075758008 0.0 1.4997164173538865e-15 0.0 0.01 0.0 1.4997164173538865e-15 0.0 0.010000052250409513 0.009998019588459863 0.0 -2.32494783765735e-15 0.0 0.01 0.0 -2.32494783765735e-15 0.0 0.010000059550531935 0.009998001099500258 0.0 -5.251608783737945e-15 0.0 0.01 0.0 -5.251608783737945e-15 0.0 0.010000066400661351 0.00999782520966273 0.0 -1.5421466686236834e-18 0.0 0.01 0.0 -1.5421466686236834e-18 0.0 0.010000036150196024 0.009997822711294405 0.0 1.821066989433507e-17 0.0 0.01 0.0 1.821066989433507e-17 0.0 0.010000038100217743 0.009997813217511848 0.0 3.6560959787985517e-16 0.0 0.01 0.0 3.6560959787985517e-16 0.0 0.010000041000252152 0.00999779522936644 0.0 1.348699416057992e-15 0.0 0.01 0.0 1.348699416057992e-15 0.0 0.010000047850343446 0.009997773743653335 0.0 2.174357428771622e-15 0.0 0.01 0.0 2.174357428771622e-15 0.0 0.010000054700448817 0.009997747761115556 0.0 1.821926565372249e-15 0.0 0.01 0.0 1.821926565372249e-15 0.0 0.010000061500567344 0.00999771978014757 0.0 -3.820968246473827e-15 0.0 0.01 0.0 -3.820968246473827e-15 0.0 0.010000070800751906 0.009997694297684701 0.0 -9.718734080330093e-15 0.0 0.01 0.0 -9.718734080330093e-15 0.0 0.010000078100914953 0.009997504434488021 0.0 -1.749028221263225e-18 0.0 0.01 0.0 -1.749028221263225e-18 0.0 0.010000051750401712 0.00999749943823418 0.0 -6.354466064631472e-17 0.0 0.01 0.0 -6.354466064631472e-17 0.0 0.010000052250409513 0.009997487447255525 0.0 1.661027771939385e-16 0.0 0.01 0.0 1.661027771939385e-16 0.0 0.010000056150472928 0.009997466463146696 0.0 1.4633089331909076e-15 0.0 0.01 0.0 1.4633089331909076e-15 0.0 0.010000062500585943 0.009997439983388416 0.0 2.6136064566776067e-15 0.0 0.01 0.0 2.6136064566776067e-15 0.0 0.010000072750793895 0.009997408507723028 0.0 1.24927205988002e-15 0.0 0.01 0.0 1.24927205988002e-15 0.0 0.010000080550973258 0.009997374034716325 0.0 -6.4470434933304075e-15 0.0 0.01 0.0 -6.4470434933304075e-15 0.0 0.010000090801236714 0.009997339562066233 0.0 -1.7093888684411266e-14 0.0 0.01 0.0 -1.7093888684411266e-14 0.0 0.01000009715141574 0.00999712873709619 0.0 2.958653863588397e-19 0.0 0.01 0.0 2.958653863588397e-19 0.0 0.010000069800730815 0.009997124740543114 0.0 8.481189359087073e-17 0.0 0.01 0.0 8.481189359087073e-17 0.0 0.010000070800751906 0.009997109753511764 0.0 3.2306145775575374e-16 0.0 0.01 0.0 3.2306145775575374e-16 0.0 0.010000076650881295 0.009997084775275961 0.0 1.297937607761303e-15 0.0 0.01 0.0 1.297937607761303e-15 0.0 0.01000008495108249 0.009997051804291387 0.0 2.6472861713817762e-15 0.0 0.01 0.0 2.6472861713817762e-15 0.0 0.010000094751346656 0.009997014337659435 0.0 8.964290271603994e-16 0.0 0.01 0.0 8.964290271603994e-16 0.0 0.01000010595168384 0.009996971875985798 0.0 -8.834053316463525e-15 0.0 0.01 0.0 -8.834053316463525e-15 0.0 0.010000117702078034 0.009996928415774256 0.0 -2.407819416169361e-14 0.0 0.01 0.0 -2.407819416169361e-14 0.0 0.010000128402473038 0.009996698635570993 0.0 -2.9100867059821226e-18 0.0 0.01 0.0 -2.9100867059821226e-18 0.0 0.010000095201359476 0.009996693141020975 0.0 -4.2025246254607226e-17 0.0 0.01 0.0 -4.2025246254607226e-17 0.0 0.01000009715141574 0.009996676657425286 0.0 1.275955162115988e-16 0.0 0.01 0.0 1.275955162115988e-16 0.0 0.010000104501638067 0.009996647186957414 0.0 9.609914195515022e-16 0.0 0.01 0.0 9.609914195515022e-16 0.0 0.01000011330192557 0.009996610224366168 0.0 1.9387124689330205e-15 0.0 0.01 0.0 1.9387124689330205e-15 0.0 0.010000126952417497 0.00999656327247659 0.0 6.207256004572586e-16 0.0 0.01 0.0 6.207256004572586e-16 0.0 0.010000142103028933 0.009996511326476016 0.0 -1.0924744275167833e-14 0.0 0.01 0.0 -1.0924744275167833e-14 0.0 0.010000158203754186 0.009996454886066404 0.0 -3.068215052097521e-14 0.0 0.01 0.0 -3.068215052097521e-14 0.0 0.010000173854533705 0.009996205660644733 0.0 2.3528200326269313e-18 0.0 0.01 0.0 2.3528200326269313e-18 0.0 0.010000127452436577 0.009996200166907547 0.0 -5.169716417740944e-16 0.0 0.01 0.0 -5.169716417740944e-16 0.0 0.010000130852568314 0.009996178691476362 0.0 -9.209364356650257e-16 0.0 0.01 0.0 -9.209364356650257e-16 0.0 0.010000139152904475 0.009996146728300214 0.0 -1.2526587438371003e-16 0.0 0.01 0.0 -1.2526587438371003e-16 0.0 0.010000152353481668 0.009996101281187046 0.0 1.5919385294788839e-15 0.0 0.01 0.0 1.5919385294788839e-15 0.0 0.010000169904330024 0.009996046845350916 0.0 3.803578921219894e-16 0.0 0.01 0.0 3.803578921219894e-16 0.0 0.010000189955412322 0.009995984420028041 0.0 -9.485570091018767e-15 0.0 0.01 0.0 -9.485570091018767e-15 0.0 0.01000021190673548 0.009995915004442345 0.0 -2.808519967596996e-14 0.0 0.01 0.0 -2.808519967596996e-14 0.0 0.010000237308447027 0.009995642849369534 0.0 1.362970998085533e-19 0.0 0.01 0.0 1.362970998085533e-19 0.0 0.010000166504158452 0.009995634859831718 0.0 2.501363535849007e-17 0.0 0.01 0.0 2.501363535849007e-17 0.0 0.010000170904381147 0.009995611390675181 0.0 -1.4225613287305017e-15 0.0 0.01 0.0 -1.4225613287305017e-15 0.0 0.010000182605001566 0.009995571443554858 0.0 -1.9352620378972284e-15 0.0 0.01 0.0 -1.9352620378972284e-15 0.0 0.010000199205952293 0.009995520511671052 0.0 6.069503150689662e-16 0.0 0.01 0.0 6.069503150689662e-16 0.0 0.01000022265743623 0.009995455100295664 0.0 1.3560935776090506e-15 0.0 0.01 0.0 1.3560935776090506e-15 0.0 0.01000025000937539 0.009995382200581262 0.0 -1.4747784918213049e-15 0.0 0.01 0.0 -1.4747784918213049e-15 0.0 0.010000281261865791 0.009995300814428355 0.0 -1.3375015938993338e-14 0.0 0.01 0.0 -1.3375015938993338e-14 0.0 0.010000319365298478 0.009995005244630878 0.0 1.3717328744658434e-18 0.0 0.01 0.0 1.3717328744658434e-18 0.0 0.010000213406831177 0.009994995758872326 0.0 -1.503982772082625e-15 0.0 0.01 0.0 -1.503982772082625e-15 0.0 0.01000021825714522 0.009994968799495473 0.0 -3.678962381922843e-15 0.0 0.01 0.0 -3.678962381922843e-15 0.0 0.010000232408101778 0.00999492336844657 0.0 -5.052322225861997e-15 0.0 0.01 0.0 -5.052322225861997e-15 0.0 0.01000025535978096 0.00999486146339912 0.0 -3.293688891812349e-15 0.0 0.01 0.0 -3.293688891812349e-15 0.0 0.010000286612321522 0.0099947870790168 0.0 7.384942135596022e-16 0.0 0.01 0.0 7.384942135596022e-16 0.0 0.010000322265577597 0.009994699217724744 0.0 3.270457778519817e-15 0.0 0.01 0.0 3.270457778519817e-15 0.0 0.010000367220226614 0.00999460187411259 0.0 5.454904110165289e-15 0.0 0.01 0.0 5.454904110165289e-15 0.0 0.010000417976204155 0.009994283904799646 0.0 1.6499804369976386e-18 0.0 0.01 0.0 1.6499804369976386e-18 0.0 0.010000265160546144 0.009994271925387366 0.0 -2.1575735142659612e-15 0.0 0.01 0.0 -2.1575735142659612e-15 0.0 0.010000272461134855 0.009994241977045128 0.0 -7.053048704477034e-15 0.0 0.01 0.0 -7.053048704477034e-15 0.0 0.010000290562663508 0.00999418906896512 0.0 -1.1276606647945958e-14 0.0 0.01 0.0 -1.1276606647945958e-14 0.0 0.010000318365202815 0.009994116696065583 0.0 -1.1061731556472583e-14 0.0 0.01 0.0 -1.1061731556472583e-14 0.0 0.010000358419268735 0.009994028852451615 0.0 -5.564551712799061e-15 0.0 0.01 0.0 -5.564551712799061e-15 0.0 0.010000407274879573 0.0099939260384365 0.0 5.22653400695803e-15 0.0 0.01 0.0 5.22653400695803e-15 0.0 0.01000046488241534 0.009993812747055736 0.0 1.4158416356515848e-14 0.0 0.01 0.0 1.4158416356515848e-14 0.0 0.010000534242809257 0.00999346890385878 0.0 -5.674609184652833e-19 0.0 0.01 0.0 -5.674609184652833e-19 0.0 0.010000325215864117 0.00999345592933869 0.0 -3.402865266950857e-15 0.0 0.01 0.0 -3.402865266950857e-15 0.0 0.010000333016634272 0.009993420000162175 0.0 -1.2018086074718418e-14 0.0 0.01 0.0 -1.2018086074718418e-14 0.0 0.010000355468952829 0.009993360618067193 0.0 -2.1848115028767544e-14 0.0 0.01 0.0 -2.1848115028767544e-14 0.0 0.010000391623004085 0.009993278283300357 0.0 -2.542100823426501e-14 0.0 0.01 0.0 -2.542100823426501e-14 0.0 0.010000441429227243 0.009993175492447806 0.0 -1.8005888889202876e-14 0.0 0.01 0.0 -1.8005888889202876e-14 0.0 0.010000503438014924 0.009993055740115046 0.0 -1.365914505685275e-15 0.0 0.01 0.0 -1.365914505685275e-15 0.0 0.010000575749719345 0.009992923518581985 0.0 2.1069049223211456e-14 0.0 0.01 0.0 2.1069049223211456e-14 0.0 0.010000662665863087 0.009992557816166578 0.0 -2.317817341804147e-19 0.0 0.01 0.0 -2.317817341804147e-19 0.0 0.010000390172834038 0.009992544346312233 0.0 -4.9964674510274134e-15 0.0 0.01 0.0 -4.9964674510274134e-15 0.0 0.010000398973875753 0.009992501941570888 0.0 -1.9611811462247386e-14 0.0 0.01 0.0 -1.9611811462247386e-14 0.0 0.010000427777447467 0.009992432099644321 0.0 -3.6814005759629533e-14 0.0 0.01 0.0 -3.6814005759629533e-14 0.0 0.010000472683512342 0.009992335321109594 0.0 -4.6241561728231306e-14 0.0 0.01 0.0 -4.6241561728231306e-14 0.0 0.01000053229249728 0.009992216596644938 0.0 -4.051765763116824e-14 0.0 0.01 0.0 -4.051765763116824e-14 0.0 0.010000608955619526 0.00999207792384712 0.0 -1.3624005234486141e-14 0.0 0.01 0.0 -1.3624005234486141e-14 0.0 0.010000699273340642 0.0099919252906798 0.0 1.5127089362743382e-14 0.0 0.01 0.0 1.5127089362743382e-14 0.0 0.010000803796903034 0.009991538751038205 0.0 2.7616576243064643e-19 0.0 0.01 0.0 2.7616576243064643e-19 0.0 0.010000463432213422 0.009991522292926623 0.0 -7.39690566660561e-15 0.0 0.01 0.0 -7.39690566660561e-15 0.0 0.010000474133718285 0.00999147391652406 0.0 -2.623109318053018e-14 0.0 0.01 0.0 -2.623109318053018e-14 0.0 0.01000050588838587 0.009991393623221356 0.0 -5.043755212918686e-14 0.0 0.01 0.0 -5.043755212918686e-14 0.0 0.010000561097220981 0.0099912829114073 0.0 -6.899388311314366e-14 0.0 0.01 0.0 -6.899388311314366e-14 0.0 0.010000633860261732 0.009991145773497379 0.0 -5.827276341174235e-14 0.0 0.01 0.0 -5.827276341174235e-14 0.0 0.01000072612908186 0.009990985204648835 0.0 -3.0706201122360706e-14 0.0 0.01 0.0 -3.0706201122360706e-14 0.0 0.010000832603972864 0.00999080918620375 0.0 2.1604703487039766e-15 0.0 0.01 0.0 2.1604703487039766e-15 0.0 0.010000956687270069 0.009990407320600175 0.0 -5.495236283329909e-19 0.0 0.01 0.0 -5.495236283329909e-19 0.0 0.010000549345263718 0.009990388873839582 0.0 -7.675622487248374e-15 0.0 0.01 0.0 -7.675622487248374e-15 0.0 0.010000562047381038 0.00999033153996577 0.0 -2.6827469721667165e-14 0.0 0.01 0.0 -2.6827469721667165e-14 0.0 0.0100005991538435 0.0099902378136718 0.0 -5.216446101438463e-14 0.0 0.01 0.0 -5.216446101438463e-14 0.0 0.010000662665863087 0.009990111686173819 0.0 -7.034134613525491e-14 0.0 0.01 0.0 -7.034134613525491e-14 0.0 0.010000745683398269 0.009989953161153475 0.0 -5.423117314879537e-14 0.0 0.01 0.0 -5.423117314879537e-14 0.0 0.010000852158913848 0.009989766729433948 0.0 -1.9105864155796615e-14 0.0 0.01 0.0 -1.9105864155796615e-14 0.0 0.010000976693070771 0.009989562364407628 0.0 3.842605748876175e-15 0.0 0.01 0.0 3.842605748876175e-15 0.0 0.010001118837741678 0.009989151678480567 0.0 5.284882662205027e-19 0.0 0.01 0.0 5.284882662205027e-19 0.0 0.010000654364223278 0.00998913124518809 0.0 -4.418540094177401e-15 0.0 0.01 0.0 -4.418540094177401e-15 0.0 0.01000066801693103 0.009989065460805472 0.0 -1.4564619725005554e-14 0.0 0.01 0.0 -1.4564619725005554e-14 0.0 0.010000709525506824 0.009988960308165755 0.0 -2.6180237723753498e-14 0.0 0.01 0.0 -2.6180237723753498e-14 0.0 0.010000779391108107 0.009988812801054571 0.0 -2.288118060212944e-14 0.0 0.01 0.0 -2.288118060212944e-14 0.0 0.010000875614991817 0.009988629921243657 0.0 1.4332676521428625e-14 0.0 0.01 0.0 1.4332676521428625e-14 0.0 0.010000994798423899 0.00998841416588163 0.0 6.397833926982133e-14 0.0 0.01 0.0 6.397833926982133e-14 0.0 0.010001134493031966 0.009988176502370695 0.0 5.6682178981226105e-14 0.0 0.01 0.0 5.6682178981226105e-14 0.0 0.010001293701006048 0.009987767481839277 0.0 1.0148781721266406e-18 0.0 0.01 0.0 1.0148781721266406e-18 0.0 0.01000079014363918 0.009987741577237032 0.0 4.9395438123125054e-15 0.0 0.01 0.0 4.9395438123125054e-15 0.0 0.01000080529726511 0.009987669344314633 0.0 1.4211608384234745e-14 0.0 0.01 0.0 1.4211608384234745e-14 0.0 0.01000085265904172 0.009987546801010359 0.0 3.339037569524403e-14 0.0 0.01 0.0 3.339037569524403e-14 0.0 0.010000926878849736 0.009987378933968219 0.0 8.20165684883564e-14 0.0 0.01 0.0 8.20165684883564e-14 0.0 0.010001029959100514 0.009987167742354284 0.0 1.7600424985625e-13 0.0 0.01 0.0 1.7600424985625e-13 0.0 0.010001158401252937 0.009986921203056545 0.0 2.5253466594481123e-13 0.0 0.01 0.0 2.5253466594481123e-13 0.0 0.01000130980729434 0.009986645797916985 0.0 1.8773283981952922e-13 0.0 0.01 0.0 1.8773283981952922e-13 0.0 0.010001483229930407 0.009986244434482408 0.0 -4.659559605805253e-19 0.0 0.01 0.0 -4.659559605805253e-19 0.0 0.010000975242646185 0.009986217545857894 0.0 1.357530886372589e-14 0.0 0.01 0.0 1.357530886372589e-14 0.0 0.01000099039711354 0.00998613339582545 0.0 5.274038118630149e-14 0.0 0.01 0.0 5.274038118630149e-14 0.0 0.010001037761519995 0.00998599646984634 0.0 1.1671427884100617e-13 0.0 0.01 0.0 1.1671427884100617e-13 0.0 0.01000111443626755 0.009985806276559265 0.0 2.265288395769685e-13 0.0 0.01 0.0 2.265288395769685e-13 0.0 0.010001221923928232 0.00998556680779785 0.0 3.903433228263972e-13 0.0 0.01 0.0 3.903433228263455e-13 0.0 0.010001356726055904 0.009985283052151031 0.0 5.177669894891957e-13 0.0 0.01 0.0 5.177669894891957e-13 0.0 0.0100015125430988 0.009984967962384543 0.0 3.7476110397833136e-13 0.0 0.01 0.0 3.747611039783055e-13 0.0 0.010001691829246102 0.009984593676496983 0.0 1.5857059009568106e-18 0.0 0.01 0.0 1.5857059009568106e-18 0.0 0.010001231677517063 0.009984561824322365 0.0 2.0151011888760227e-14 0.0 0.01 0.0 2.0151011888760227e-14 0.0 0.010001245832776229 0.009984468260322335 0.0 7.517763064681179e-14 0.0 0.01 0.0 7.517763064681179e-14 0.0 0.01000129225044353 0.009984315477955523 0.0 1.7319403571672169e-13 0.0 0.01 0.0 1.7319403571672169e-13 0.0 0.010001370381640416 0.009984102987757969 0.0 3.337311843245097e-13 0.0 0.01 0.0 3.3373118432448383e-13 0.0 0.010001472975384567 0.009983833786638903 0.0 5.546616715286244e-13 0.0 0.01 0.0 5.546616715286244e-13 0.0 0.0100016043860256 0.00998351584885466 0.0 6.923956625469515e-13 0.0 0.01 0.0 6.923956625469515e-13 0.0 0.010001755812323302 0.00998315714801123 0.0 4.207227771743911e-13 0.0 0.01 0.0 4.2072277717436524e-13 0.0 0.01000192830761217 0.009982844249170524 0.0 -6.716349292651241e-19 0.0 0.01 0.0 -6.716349292651241e-19 0.0 0.010001586327385363 0.009982809926605109 0.0 1.9409079357097223e-14 0.0 0.01 0.0 1.9409079357097223e-14 0.0 0.010001599983910375 0.009982706961032936 0.0 7.538445304767363e-14 0.0 0.01 0.0 7.538445304767363e-14 0.0 0.010001644455546185 0.009982537845751177 0.0 1.6076733024503473e-13 0.0 0.01 0.0 1.6076733024503473e-13 0.0 0.010001716241721765 0.00998230458024627 0.0 3.0991932304547033e-13 0.0 0.01 0.0 3.0991932304547033e-13 0.0 0.010001812992922346 0.009982009167233897 0.0 4.779982241032635e-13 0.0 0.01 0.0 4.779982241032635e-13 0.0 0.010001928757872572 0.009981659082067867 0.0 4.103218530114981e-13 0.0 0.01 0.0 4.1032185301147226e-13 0.0 0.010002060186480411 0.009981258816751586 0.0 -3.1385168329391834e-13 0.0 0.01 0.0 -3.1385168329391834e-13 0.0 0.010002212634145892 0.009981084306203574 0.0 6.593604802007783e-19 0.0 0.01 0.0 6.593604802007783e-19 0.0 0.010002072444075688 0.009981050001787766 0.0 8.854088009261988e-15 0.0 0.01 0.0 8.854088009261988e-15 0.0 0.010002085101966273 0.009980939136311968 0.0 3.0174897979087563e-14 0.0 0.01 0.0 3.0174897979087563e-14 0.0 0.010002122725703414 0.00998075668861646 0.0 5.700255658767379e-14 0.0 0.01 0.0 5.700255658767379e-14 0.0 0.010002185266099537 0.009980505155883907 0.0 3.839028912360445e-14 0.0 0.01 0.0 3.839028912360445e-14 0.0 0.01000226637023235 0.009980189027089253 0.0 -2.1234886256541204e-13 0.0 0.01 0.0 -2.1234886256541204e-13 0.0 0.010002356782902113 0.009979811302513847 0.0 -1.1567855205270505e-12 0.0 0.01 0.0 -1.1567855205270505e-12 0.0 0.010002457455566452 0.00997937697226757 0.0 -3.2875355003282338e-12 0.0 0.01 0.0 -3.287535500328027e-12 0.0 0.010002569339886998 0.009979478840976174 0.0 2.3207415370071145e-18 0.0 0.01 0.0 2.3207415370071145e-18 0.0 0.010002719859242871 0.00997944008080718 0.0 -9.223145299954141e-15 0.0 0.01 0.0 -9.223145299954141e-15 0.0 0.010002730117624495 0.009979324299914952 0.0 -6.152270355210204e-14 0.0 0.01 0.0 -6.152270355210204e-14 0.0 0.010002760892958736 0.00997913399072375 0.0 -2.328458663690208e-13 0.0 0.01 0.0 -2.328458663690208e-13 0.0 0.010002808782946218 0.00997887065653639 0.0 -7.744704061560686e-13 0.0 0.01 0.0 -7.744704061561203e-13 0.0 0.010002865481176956 0.009978539282570543 0.0 -2.2635080387718e-12 0.0 0.01 0.0 -2.263508038771593e-12 0.0 0.01000292513296004 0.00997814435971898 0.0 -5.4989274933590435e-12 0.0 0.01 0.0 -5.498927493359457e-12 0.0 0.010002977379190347 0.009977684917300634 0.0 -1.0666721070448014e-11 0.0 0.01 0.0 -1.0666721070448014e-11 0.0 0.01000303117764889 0.009978256125579892 0.0 1.0966589412250405e-18 0.0 0.01 0.0 1.0966589412250405e-18 0.0 0.010003555094906734 0.009978216386176842 0.0 -5.792882720607783e-14 0.0 0.01 0.0 -5.792882720607783e-14 0.0 0.010003563904307157 0.009978098164260102 0.0 -2.8104200965211705e-13 0.0 0.01 0.0 -2.8104200965211705e-13 0.0 0.010003586378394345 0.00997790544174085 0.0 -9.338730105995667e-13 0.0 0.01 0.0 -9.33873010599515e-13 0.0 0.010003615259570655 0.009977639224875974 0.0 -2.730811545862777e-12 0.0 0.01 0.0 -2.7308115458629836e-12 0.0 0.010003644591489282 0.009977303007534005 0.0 -6.823528840483024e-12 0.0 0.01 0.0 -6.823528840483024e-12 0.0 0.01000366070913803 0.009976902272918057 0.0 -1.412933865611294e-11 0.0 0.01 0.0 -1.412933865611294e-11 0.0 0.010003655303209891 0.009976433569038453 0.0 -2.3254514329196486e-11 0.0 0.01 0.0 -2.325451432919483e-11 0.0 0.010003641137717546 0.009977710743731388 0.0 1.5500799697259791e-18 0.0 0.01 0.0 1.5500799697259791e-18 0.0 0.010004604227886195 0.009977672500818777 0.0 -1.5015125047457149e-13 0.0 0.01 0.0 -1.5015125047457149e-13 0.0 0.010004607181964121 0.009977557774719311 0.0 -7.145767528006305e-13 0.0 0.01 0.0 -7.145767528006305e-13 0.0 0.010004620400243167 0.00997737054625125 0.0 -2.2826280188582276e-12 0.0 0.01 0.0 -2.282628018858124e-12 0.0 0.010004630163778372 0.009977112813957427 0.0 -6.2435165152222236e-12 0.0 0.01 0.0 -6.243516515222637e-12 0.0 0.010004627209680086 0.00997679005601711 0.0 -1.4161244681585451e-11 0.0 0.01 0.0 -1.4161244681584624e-11 0.0 0.010004596417116488 0.00997640179489525 0.0 -2.562277193140789e-11 0.0 0.01 0.0 -2.5622771931406237e-11 0.0 0.010004529425496868 0.009975943585932618 0.0 -3.548968090745443e-11 0.0 0.01 0.0 -3.548968090745443e-11 0.0 0.010004453673515361 0.009978222843797527 0.0 6.989327298069831e-19 0.0 0.01 0.0 6.989327298069831e-19 0.0 0.01000588949884682 0.009978187575406527 0.0 -2.7241620821599243e-13 0.0 0.01 0.0 -2.7241620821599243e-13 0.0 0.010005888997962913 0.009978081275757876 0.0 -1.2854645748333161e-12 0.0 0.01 0.0 -1.2854645748332127e-12 0.0 0.01000588704451639 0.009977910408675893 0.0 -4.047820851561771e-12 0.0 0.01 0.0 -4.047820851561771e-12 0.0 0.010005874822979514 0.009977674487452763 0.0 -1.0559297113580753e-11 0.0 0.01 0.0 -1.0559297113582407e-11 0.0 0.01000583911030256 0.009977383458221011 0.0 -2.172514115766196e-11 0.0 0.01 0.0 -2.172514115766196e-11 0.0 0.010005763779346024 0.009977030880129106 0.0 -3.285569915012621e-11 0.0 0.01 0.0 -3.285569915012621e-11 0.0 0.01000564687948847 0.009976614786752155 0.0 -3.33362020782357e-11 0.0 0.01 0.0 -3.333620207823405e-11 0.0 0.010005532888543138 0.009980330187807472 0.0 8.514793406355958e-19 0.0 0.01 0.0 8.514793406355958e-19 0.0 0.01000743799033273 0.009980299867570642 0.0 -2.864251204732509e-13 0.0 0.01 0.0 -2.864251204732509e-13 0.0 0.0100074321272745 0.009980211393705116 0.0 -1.3916085056129915e-12 0.0 0.01 0.0 -1.3916085056129915e-12 0.0 0.010007415490276476 0.009980066261897859 0.0 -4.724760833747049e-12 0.0 0.01 0.0 -4.724760833747049e-12 0.0 0.010007380713205248 0.009979871934358609 0.0 -1.2445652178489489e-11 0.0 0.01 0.0 -1.2445652178489489e-11 0.0 0.01000731121026022 0.009979631898364 0.0 -2.256002541205049e-11 0.0 0.01 0.0 -2.256002541205049e-11 0.0 0.010007200168906069 0.009979346163809135 0.0 -2.287970320812502e-11 0.0 0.01 0.0 -2.287970320812502e-11 0.0 0.01000706067092738 0.009979012755036624 0.0 1.4440502469113405e-12 0.0 0.01 0.0 1.4440502469113405e-12 0.0 0.010006944226651045 0.009984772850659395 0.0 1.4836738188022682e-18 0.0 0.01 0.0 1.4836738188022682e-18 0.0 0.010009282909882311 0.009984750453361583 0.0 1.8526201205306187e-13 0.0 0.01 0.0 1.8526201205306187e-13 0.0 0.010009271678681674 0.00998468575090343 0.0 5.255849963303694e-13 0.0 0.01 0.0 5.255849963303177e-13 0.0 0.010009236882255435 0.00998458173189578 0.0 -5.025555343967323e-13 0.0 0.01 0.0 -5.025555343967323e-13 0.0 0.010009178170376274 0.009984446860415339 0.0 -4.610395814901374e-12 0.0 0.01 0.0 -4.610395814901788e-12 0.0 0.010009083160600066 0.009984285619028876 0.0 -4.94088117923362e-12 0.0 0.01 0.0 -4.94088117923362e-12 0.0 0.010008953410194423 0.009984099006806454 0.0 1.882241935930164e-11 0.0 0.01 0.0 1.882241935930164e-11 0.0 0.010008815342854676 0.00998389399424084 0.0 8.141067668881561e-11 0.0 0.01 0.0 8.141067668881561e-11 0.0 0.010008735533113268 0.009992277454875478 0.0 -7.737417936879705e-20 0.0 0.01 0.0 -7.737417936879705e-20 0.0 0.010011441957843427 0.009992266979199187 0.0 1.7489552683232428e-12 0.0 0.01 0.0 1.7489552683231394e-12 0.0 0.01001142334414796 0.00999223655004062 0.0 6.985640474793203e-12 0.0 0.01 0.0 6.985640474792789e-12 0.0 0.010011372871954393 0.00999219065740925 0.0 1.4080167835736262e-11 0.0 0.01 0.0 1.4080167835735435e-11 0.0 0.010011292047795047 0.009992137283079001 0.0 2.1958157586147042e-11 0.0 0.01 0.0 2.1958157586147042e-11 0.0 0.010011178867159833 0.009992084408417617 0.0 4.096095119564669e-11 0.0 0.01 0.0 4.096095119564669e-11 0.0 0.01001104512229721 0.009992040513109993 0.0 9.467313731077748e-11 0.0 0.01 0.0 9.467313731077748e-11 0.0 0.010010926080835 0.009992015572852026 0.0 1.9095474765898572e-10 0.0 0.01 0.0 1.9095474765898572e-10 0.0 0.010010896183183014 0.010003156744126128 0.0 -6.4786775120123504e-18 0.0 0.01 0.0 -6.4786775120123504e-18 0.0 0.010013897065679898 0.010003161648771615 0.0 4.7287887847099975e-12 0.0 0.01 0.0 4.7287887847099975e-12 0.0 0.010013873568069561 0.010003176312703702 0.0 1.8984878212531037e-11 0.0 0.01 0.0 1.8984878212527728e-11 0.0 0.010013804883695463 0.010003208093119142 0.0 4.0970848846653776e-11 0.0 0.01 0.0 4.0970848846653776e-11 0.0 0.01001370341616466 0.010003264297650494 0.0 6.814710618389299e-11 0.0 0.01 0.0 6.814710618390623e-11 0.0 0.010013574439871427 0.010003354236881314 0.0 1.0804782708570695e-10 0.0 0.01 0.0 1.0804782708570695e-10 0.0 0.010013439143121576 0.010003490126297351 0.0 1.7817255340863718e-10 0.0 0.01 0.0 1.7817255340863718e-10 0.0 0.010013338138511164 0.010003690542010215 0.0 2.7290482139944166e-10 0.0 0.01 0.0 2.7290482139944166e-10 0.0 0.01001334014652534 0.010016817730475126 0.0 8.48344032115211e-16 0.0 0.01 0.0 8.48344032115211e-16 0.0 0.010016556627704936 0.010016840796539717 0.0 8.101101815482714e-12 0.0 0.01 0.0 8.101101815429774e-12 0.0 0.010016525222377122 0.010016911955599221 0.0 3.2601809897851124e-11 0.0 0.01 0.0 3.260180989806288e-11 0.0 0.010016439851626927 0.010017040508083648 0.0 7.08023264659507e-11 0.0 0.01 0.0 7.08023264659507e-11 0.0 0.010016315743835186 0.010017229476154065 0.0 1.159225550282458e-10 0.0 0.01 0.0 1.159225550282458e-10 0.0 0.010016170990737256 0.010017489123662609 0.0 1.651537208567234e-10 0.0 0.01 0.0 1.6515372085651163e-10 0.0 0.010016023782117672 0.010017833743173957 0.0 2.1988638965521458e-10 0.0 0.01 0.0 2.1988638965521458e-10 0.0 0.010015908481605574 0.010018288799964883 0.0 2.6174603929783987e-10 0.0 0.01 0.0 2.6174603929783987e-10 0.0 0.01001588296028754 0.010031434197539843 0.0 5.327107177095886e-18 0.0 0.01 0.0 5.327107177095886e-18 0.0 0.01001923897866507 0.01003148154154589 0.0 9.572962828292592e-12 0.0 0.01 0.0 9.572962828290937e-12 0.0 0.010019201664331467 0.010031623476634405 0.0 3.851187363725704e-11 0.0 0.01 0.0 3.851187363726366e-11 0.0 0.010019095557116695 0.010031862084508169 0.0 8.341100500222931e-11 0.0 0.01 0.0 8.341100500222931e-11 0.0 0.010018947766950628 0.010032202232379678 0.0 1.3309885101677158e-10 0.0 0.01 0.0 1.3309885101675834e-10 0.0 0.010018772931432756 0.010032651423949537 0.0 1.729561126306693e-10 0.0 0.01 0.0 1.729561126306693e-10 0.0 0.01001858734527378 0.010033217025636391 0.0 1.8863348531877154e-10 0.0 0.01 0.0 1.88633485318798e-10 0.0 0.010018412528623503 0.010033920361364307 0.0 1.569742078672497e-10 0.0 0.01 0.0 1.569742078672497e-10 0.0 0.010018281459847176 0.010044174290656738 0.0 5.0623519298549725e-18 0.0 0.01 0.0 5.0623519298549725e-18 0.0 0.010021716033652579 0.010044245527171865 0.0 7.396476608852135e-12 0.0 0.01 0.0 7.396476608852135e-12 0.0 0.010021667871588652 0.010044463755432168 0.0 3.002145634947014e-11 0.0 0.01 0.0 3.002145634947014e-11 0.0 0.010021536675005582 0.010044825507577635 0.0 6.494196072860015e-11 0.0 0.01 0.0 6.494196072860346e-11 0.0 0.010021350432012195 0.010045327839832635 0.0 1.006289123113306e-10 0.0 0.01 0.0 1.0062891231133722e-10 0.0 0.010021126310060961 0.010045971829323031 0.0 1.1872553400923256e-10 0.0 0.01 0.0 1.1872553400923256e-10 0.0 0.010020868845005502 0.01004675010419695 0.0 1.009697990540452e-10 0.0 0.01 0.0 1.0096979905405182e-10 0.0 0.010020584383535565 0.010047669757198225 0.0 3.092004972563799e-11 0.0 0.01 0.0 3.092004972563799e-11 0.0 0.010020279270949797 0.010052355564190011 0.0 3.4557374943967666e-19 0.0 0.01 0.0 3.4557374943967666e-19 0.0 0.01002376066790458 0.010052451811584394 0.0 3.00792267466805e-12 0.0 0.01 0.0 3.00792267466805e-12 0.0 0.010023701700076345 0.010052739503655064 0.0 1.2616536239101126e-11 0.0 0.01 0.0 1.2616536239101953e-11 0.0 0.010023533967222057 0.010053211780578736 0.0 2.752045147275089e-11 0.0 0.01 0.0 2.7520451472747583e-11 0.0 0.0100232940397848 0.010053862267237545 0.0 4.0147661757501165e-11 0.0 0.01 0.0 4.014766175750282e-11 0.0 0.010022997037008024 0.010054671144119797 0.0 3.7988483643944054e-11 0.0 0.01 0.0 3.79884836439424e-11 0.0 0.010022638644841078 0.010055628256381274 0.0 9.861690643889058e-12 0.0 0.01 0.0 9.861690643889472e-12 0.0 0.010022204588210092 0.010056708252283313 0.0 -4.803880802967609e-11 0.0 0.01 0.0 -4.803880802967775e-11 0.0 0.010021703250759142 0.010055229600069743 0.0 -1.9497731937315044e-18 0.0 0.01 0.0 -1.9497731937315044e-18 0.0 0.010025236310268686 0.010055341790439898 0.0 -2.987802111567554e-13 0.0 0.01 0.0 -2.987802111567554e-13 0.0 0.010025160086953344 0.010055675384534382 0.0 -5.221852930576605e-13 0.0 0.01 0.0 -5.221852930576605e-13 0.0 0.01002495293759203 0.01005622007544778 0.0 -5.141110694800775e-13 0.0 0.01 0.0 -5.141110694800775e-13 0.0 0.010024647979872512 0.010056960555698102 0.0 -3.0090589545047342e-12 0.0 0.01 0.0 -3.009058954504941e-12 0.0 0.010024263825147225 0.010057874062035484 0.0 -1.2641567265402348e-11 0.0 0.01 0.0 -1.2641567265402348e-11 0.0 0.010023792141338776 0.010058930914677989 0.0 -3.210543988784895e-11 0.0 0.01 0.0 -3.210543988784895e-11 0.0 0.010023214890168391 0.010060079629396623 0.0 -5.8053130609879755e-11 0.0 0.01 0.0 -5.8053130609876446e-11 0.0 0.010022535398380635 0.010054103431059655 0.0 -4.8293007970948686e-20 0.0 0.01 0.0 -4.8293007970948686e-20 0.0 0.01002611317975176 0.010054221021231243 0.0 -1.062621045410537e-12 0.0 0.01 0.0 -1.0626210454104853e-12 0.0 0.010026022625258172 0.010054570919588546 0.0 -3.788945816442773e-12 0.0 0.01 0.0 -3.7889458164425665e-12 0.0 0.010025775112083241 0.010055137746046989 0.0 -7.542409598314828e-12 0.0 0.01 0.0 -7.542409598314828e-12 0.0 0.010025407554579304 0.010055906255967053 0.0 -1.2391261242886872e-11 0.0 0.01 0.0 -1.2391261242887699e-11 0.0 0.010024943618187693 0.01005684881971258 0.0 -1.8701779868439836e-11 0.0 0.01 0.0 -1.8701779868439836e-11 0.0 0.010024373471205446 0.010057926207414355 0.0 -2.571396764601935e-11 0.0 0.01 0.0 -2.571396764601935e-11 0.0 0.010023682967559655 0.010059069081657152 0.0 -3.014615835880604e-11 0.0 0.01 0.0 -3.01461583588077e-11 0.0 0.010022888392647197 0.010050925435305887 0.0 1.778925271914147e-18 0.0 0.01 0.0 1.778925271914147e-18 0.0 0.010026440950084302 0.010051039004750668 0.0 -3.726105015618065e-13 0.0 0.01 0.0 -3.726105015618065e-13 0.0 0.010026339047561509 0.010051380091607854 0.0 -1.3637602352794098e-12 0.0 0.01 0.0 -1.3637602352794098e-12 0.0 0.010026060519772744 0.010051935003129578 0.0 -2.70941076770606e-12 0.0 0.01 0.0 -2.70941076770606e-12 0.0 0.01002564617264068 0.010052683934088185 0.0 -4.1702719299905855e-12 0.0 0.01 0.0 -4.1702719299905855e-12 0.0 0.010025123663603606 0.010053603744259778 0.0 -5.459009884067778e-12 0.0 0.01 0.0 -5.459009884068191e-12 0.0 0.010024492539718398 0.010054653304747158 0.0 -6.081779507629956e-12 0.0 0.01 0.0 -6.081779507629542e-12 0.0 0.010023741532201508 0.010055756830865892 0.0 -5.124497437430927e-12 0.0 0.01 0.0 -5.12449743743072e-12 0.0 0.010022898713206156 0.010047098259630854 0.0 4.30649873388475e-19 0.0 0.01 0.0 4.30649873388475e-19 0.0 0.010026303115315943 0.010047205208320373 0.0 2.6358413350957e-13 0.0 0.01 0.0 2.6358413350957e-13 0.0 0.01002619632877648 0.010047524147663758 0.0 9.433495994741653e-13 0.0 0.01 0.0 9.433495994742687e-13 0.0 0.010025899571832224 0.010048047174526072 0.0 1.7851408678385173e-12 0.0 0.01 0.0 1.7851408678385173e-12 0.0 0.010025462622649145 0.010048755612559 0.0 2.5000605652265748e-12 0.0 0.01 0.0 2.5000605652265748e-12 0.0 0.010024916566874754 0.010049633695181049 0.0 2.8834074604365974e-12 0.0 0.01 0.0 2.8834074604368042e-12 0.0 0.01002426724995818 0.01005064089399238 0.0 2.8804333889977923e-12 0.0 0.01 0.0 2.880433388997999e-12 0.0 0.010023511861959015 0.010051712834529488 0.0 2.111554243855803e-12 0.0 0.01 0.0 2.1115542438560096e-12 0.0 0.010022683397711098 0.010043003361356025 0.0 2.627456270796852e-18 0.0 0.01 0.0 2.627456270796852e-18 0.0 0.01002578740668613 0.010043102278026126 0.0 3.2287697454269454e-13 0.0 0.01 0.0 3.228769745427204e-13 0.0 0.010025678671562314 0.010043396107654071 0.0 1.1363287532661913e-12 0.0 0.01 0.0 1.1363287532661913e-12 0.0 0.010025382917831798 0.010043881405948047 0.0 1.967840829715961e-12 0.0 0.01 0.0 1.967840829715961e-12 0.0 0.010024949512078225 0.010044549338031412 0.0 2.292227301143347e-12 0.0 0.01 0.0 2.2922273011437604e-12 0.0 0.0100244128580358 0.010045385720323647 0.0 1.8287719838012934e-12 0.0 0.01 0.0 1.82877198380119e-12 0.0 0.010023785745912948 0.010046362946747621 0.0 6.204290757762604e-13 0.0 0.01 0.0 6.204290757763121e-13 0.0 0.010023067874228467 0.010047427585305524 0.0 -2.045294907904955e-12 0.0 0.01 0.0 -2.045294907904955e-12 0.0 0.010022300928509508 0.010038225365011115 0.0 6.675731332804772e-18 0.0 0.01 0.0 6.675731332804772e-18 0.0 0.010024963768283773 0.010038317767862553 0.0 1.1817754583921529e-13 0.0 0.01 0.0 1.1817754583921529e-13 0.0 0.010024861457428685 0.010038589933615635 0.0 3.550622517232018e-13 0.0 0.01 0.0 3.550622517232535e-13 0.0 0.010024578620232464 0.010039043879067566 0.0 3.214521807313027e-13 0.0 0.01 0.0 3.214521807313027e-13 0.0 0.010024170349309478 0.010039673353513683 0.0 -3.6208197086366067e-13 0.0 0.01 0.0 -3.6208197086366067e-13 0.0 0.01002367264457787 0.010040477848690424 0.0 -1.5764299430998257e-12 0.0 0.01 0.0 -1.5764299430998257e-12 0.0 0.010023098334191552 0.010041437291708467 0.0 -3.0824838036083135e-12 0.0 0.01 0.0 -3.0824838036083135e-12 0.0 0.010022449370490495 0.010042513733960328 0.0 -6.021641180968047e-12 0.0 0.01 0.0 -6.021641180968461e-12 0.0 0.010021757301595166 0.010032195820842813 0.0 6.819613987148281e-18 0.0 0.01 0.0 6.819613987148281e-18 0.0 0.010023890038203715 0.010032281645583663 0.0 8.200453699393879e-14 0.0 0.01 0.0 8.200453699393879e-14 0.0 0.01002379707640015 0.010032534084058974 0.0 2.6292710362556566e-13 0.0 0.01 0.0 2.6292710362556566e-13 0.0 0.010023538901902112 0.010032957617647843 0.0 2.1264048692673442e-13 0.0 0.01 0.0 2.1264048692673442e-13 0.0 0.010023169626694896 0.010033549432577523 0.0 -2.4420256269030927e-13 0.0 0.01 0.0 -2.442025626903351e-13 0.0 0.010022728604255918 0.010034319418382003 0.0 -6.457707469252424e-13 0.0 0.01 0.0 -6.457707469252424e-13 0.0 0.010022224772128444 0.010035257844596362 0.0 -5.778081843364119e-13 0.0 0.01 0.0 -5.778081843364119e-13 0.0 0.010021652622929436 0.010036349587655214 0.0 -1.4336210534443509e-12 0.0 0.01 0.0 -1.4336210534443509e-12 0.0 0.01002104474628454 0.010024848662495338 0.0 2.574783542223574e-17 0.0 0.01 0.0 2.574783542223574e-17 0.0 0.01002261704890115 0.010024922460717577 0.0 3.3260811147095647e-13 0.0 0.01 0.0 3.3260811147095647e-13 0.0 0.010022533435168275 0.010025149759407213 0.0 1.2715649012559133e-12 0.0 0.01 0.0 1.2715649012550861e-12 0.0 0.010022308780819372 0.010025532000640065 0.0 2.443152358478471e-12 0.0 0.01 0.0 2.443152358478471e-12 0.0 0.010021987857859207 0.010026074276797239 0.0 3.57197862147616e-12 0.0 0.01 0.0 3.57197862147616e-12 0.0 0.01002161185952873 0.01002678694795571 0.0 5.194287416797605e-12 0.0 0.01 0.0 5.19428741679926e-12 0.0 0.010021180854746316 0.010027677483886424 0.0 8.036492306241776e-12 0.0 0.01 0.0 8.036492306241776e-12 0.0 0.010020691997079448 0.010028747993598113 0.0 1.1428555602712027e-11 0.0 0.01 0.0 1.1428555602712027e-11 0.0 0.01002015793796069 0.010016882506821449 0.0 3.930191653924204e-17 0.0 0.01 0.0 3.930191653924204e-17 0.0 0.010021200026106486 0.010016945827040217 0.0 6.282890549704069e-13 0.0 0.01 0.0 6.282890549704069e-13 0.0 0.010021128775622534 0.010017136699536324 0.0 2.4195343570546106e-12 0.0 0.01 0.0 2.4195343570546106e-12 0.0 0.010020936668543316 0.010017460172417654 0.0 4.917513689423116e-12 0.0 0.01 0.0 4.917513689423116e-12 0.0 0.01002066890439988 0.010017922567882136 0.0 7.543046973316254e-12 0.0 0.01 0.0 7.543046973316254e-12 0.0 0.010020360363282028 0.010018538725516814 0.0 1.054977940532495e-11 0.0 0.01 0.0 1.054977940535142e-11 0.0 0.010020003209581286 0.010019330304992413 0.0 1.496804388772195e-11 0.0 0.01 0.0 1.4968043887510193e-11 0.0 0.010019584734401045 0.010020320068396909 0.0 2.204692110786437e-11 0.0 0.01 0.0 2.20469211078379e-11 0.0 0.010019119141793901 0.01000940289555922 0.0 3.85170757133273e-18 0.0 0.01 0.0 3.85170757133273e-18 0.0 0.010019692315741352 0.010009449878172013 0.0 6.394406792725477e-13 0.0 0.01 0.0 6.394406792725477e-13 0.0 0.010019633369388442 0.010009596797121415 0.0 2.537204903354835e-12 0.0 0.01 0.0 2.5372049033556623e-12 0.0 0.010019476200964291 0.010009847025514077 0.0 5.212844525040319e-12 0.0 0.01 0.0 5.212844525041146e-12 0.0 0.01001926301696062 0.01001020846065043 0.0 7.783315877344288e-12 0.0 0.01 0.0 7.783315877344288e-12 0.0 0.010019018468065055 0.010010701253045786 0.0 1.0104912423520029e-11 0.0 0.01 0.0 1.0104912423520029e-11 0.0 0.01001872873373916 0.010011350847051506 0.0 1.2989586245976455e-11 0.0 0.01 0.0 1.2989586245976455e-11 0.0 0.010018377687054388 0.01001220591132633 0.0 1.9054511481380266e-11 0.0 0.01 0.0 1.905451148137365e-11 0.0 0.010017965297078055 0.010003270153386347 0.0 -4.484170065052518e-19 0.0 0.01 0.0 -4.484170065052518e-19 0.0 0.010018151351397341 0.010003304837571102 0.0 4.040632586124798e-13 0.0 0.01 0.0 4.040632586124798e-13 0.0 0.010018106206759728 0.010003406990346882 0.0 1.6602794470113338e-12 0.0 0.01 0.0 1.6602794470113338e-12 0.0 0.010017984902421515 0.010003585427371996 0.0 3.3907938559962372e-12 0.0 0.01 0.0 3.390793855996651e-12 0.0 0.010017824896020577 0.010003848420411568 0.0 4.649412546325008e-12 0.0 0.01 0.0 4.649412546324594e-12 0.0 0.01001763835723841 0.010004212610418624 0.0 4.812300046953683e-12 0.0 0.01 0.0 4.812300046953683e-12 0.0 0.010017410111482222 0.010004715232917741 0.0 3.905842479082131e-12 0.0 0.01 0.0 3.905842479082544e-12 0.0 0.010017109711372598 0.010005409636460967 0.0 4.228996938410772e-12 0.0 0.01 0.0 4.228996938409945e-12 0.0 0.010016741648768604 0.009998798716496985 0.0 -4.090142131035147e-18 0.0 0.01 0.0 -4.090142131035147e-18 0.0 0.010016631750447478 0.009998822208111744 0.0 1.7092171643722585e-13 0.0 0.01 0.0 1.7092171643722585e-13 0.0 0.010016599841918905 0.009998891684281792 0.0 7.288246794910297e-13 0.0 0.01 0.0 7.288246794910297e-13 0.0 0.010016513464298389 0.009999011646545696 0.0 1.3825918691161386e-12 0.0 0.01 0.0 1.3825918691161386e-12 0.0 0.010016399604019786 0.009999194597311476 0.0 1.3280894658359244e-12 0.0 0.01 0.0 1.3280894658359244e-12 0.0 0.010016265197611313 0.009999458044060622 0.0 -1.629412905769952e-13 0.0 0.01 0.0 -1.629412905769952e-13 0.0 0.010016085578802328 0.0099998400038399 0.0 -3.5070811290716967e-12 0.0 0.01 0.0 -3.5070811290716967e-12 0.0 0.010015824081140564 0.010000402874344854 0.0 -7.984364423910593e-12 0.0 0.01 0.0 -7.984364423910593e-12 0.0 0.01001548413968159 0.009995836102151422 0.0 2.6501697691082657e-19 0.0 0.01 0.0 2.6501697691082657e-19 0.0 0.010015178036117367 0.00999585058407748 0.0 9.699695805530932e-14 0.0 0.01 0.0 9.699695805530932e-14 0.0 0.010015156940417184 0.00999589902408064 0.0 3.111021630670511e-13 0.0 0.01 0.0 3.111021630670511e-13 0.0 0.010015102494035593 0.009995984919425986 0.0 2.778476475376137e-13 0.0 0.01 0.0 2.778476475376137e-13 0.0 0.010015028912467737 0.009996118261354601 0.0 -4.672948374427715e-13 0.0 0.01 0.0 -4.672948374427715e-13 0.0 0.01001493082297482 0.009996324027909533 0.0 -1.5352697456765984e-12 0.0 0.01 0.0 -1.535269745676495e-12 0.0 0.010014783217029536 0.009996636697531744 0.0 -2.336986537981798e-12 0.0 0.01 0.0 -2.3369865379822117e-12 0.0 0.010014550244947523 0.009997122242699878 0.0 -3.559579111622215e-12 0.0 0.01 0.0 -3.5595791116226287e-12 0.0 0.01001422755600496 0.009993994913493842 0.0 -3.072483678262192e-18 0.0 0.01 0.0 -3.072483678262192e-18 0.0 0.010013815176219975 0.009994007890113338 0.0 6.091738606621106e-14 0.0 0.01 0.0 6.091738606621106e-14 0.0 0.010013804431829258 0.009994045322952795 0.0 -7.784950928316754e-14 0.0 0.01 0.0 -7.784950928316754e-14 0.0 0.010013772048244014 0.0099941161969476 0.0 -9.601452857918214e-13 0.0 0.01 0.0 -9.601452857918214e-13 0.0 0.01001372646072158 0.009994235987408987 0.0 -2.039694844744311e-12 0.0 0.01 0.0 -2.039694844744311e-12 0.0 0.010013651905377416 0.009994428659436432 0.0 -2.227430275599653e-13 0.0 0.01 0.0 -2.227430275599653e-13 0.0 0.010013520521325706 0.009994732165437732 0.0 8.32519350981294e-12 0.0 0.01 0.0 8.325193509811286e-12 0.0 0.01001330239606113 0.009995206448924047 0.0 2.246664379255957e-11 0.0 0.01 0.0 2.246664379255957e-11 0.0 0.010012993530973789 0.009992889091949656 0.0 9.586888624067046e-20 0.0 0.01 0.0 9.586888624067046e-20 0.0 0.01001255435225181 0.009992900567454232 0.0 -2.4280168134520544e-13 0.0 0.01 0.0 -2.4280168134520544e-13 0.0 0.010012547978311819 0.00999294098150252 0.0 -1.4527562663494108e-12 0.0 0.01 0.0 -1.4527562663493074e-12 0.0 0.01001252885656488 0.009993017320487131 0.0 -3.921445185148507e-12 0.0 0.01 0.0 -3.9214451851489205e-12 0.0 0.010012497489107026 0.0099931490467706 0.0 -4.973035157064445e-12 0.0 0.01 0.0 -4.9730351570636176e-12 0.0 0.010012430388831048 0.009993366107124008 0.0 2.7644182994615635e-12 0.0 0.01 0.0 2.7644182994617703e-12 0.0 0.010012301461720623 0.009993710438767114 0.0 2.7672854043111024e-11 0.0 0.01 0.0 2.7672854043107716e-11 0.0 0.010012088785530861 0.00999423349173044 0.0 6.741196059036493e-11 0.0 0.01 0.0 6.741196059036493e-11 0.0 0.010011798196820026 0.00999225849891394 0.0 -3.5908685035204644e-19 0.0 0.01 0.0 -3.5908685035204644e-19 0.0 0.010011392488789829 0.009992272965295894 0.0 -9.478917908487055e-13 0.0 0.01 0.0 -9.478917908487055e-13 0.0 0.010011388575447725 0.009992319357910113 0.0 -3.9998091400838885e-12 0.0 0.01 0.0 -3.999809140084302e-12 0.0 0.010011371918709572 0.009992415637117773 0.0 -8.01019826377097e-12 0.0 0.01 0.0 -8.010198263769316e-12 0.0 0.010011335645437954 0.009992584756038687 0.0 -6.648704582231701e-12 0.0 0.01 0.0 -6.648704582232115e-12 0.0 0.0100112582336748 0.009992859654966527 0.0 1.2486088389823434e-11 0.0 0.01 0.0 1.2486088389824261e-11 0.0 0.010011123532457419 0.009993281277256228 0.0 6.026775205908451e-11 0.0 0.01 0.0 6.026775205908451e-11 0.0 0.010010920713283791 0.0099938995868002 0.0 2.022807106794899e-10 0.0 0.01 0.0 2.0228071067946343e-10 0.0 0.010010666441708076 0.009991985644788964 0.0 3.7564655793584503e-19 0.0 0.01 0.0 3.7564655793584503e-19 0.0 0.010010311326620008 0.009992004100396062 0.0 -1.675230003579198e-12 0.0 0.01 0.0 -1.675230003579198e-12 0.0 0.010010304004022946 0.009992070940477625 0.0 -5.908973004857027e-12 0.0 0.01 0.0 -5.908973004857027e-12 0.0 0.010010279478455304 0.009992201631676618 0.0 -8.351639626351498e-12 0.0 0.01 0.0 -8.351639626351498e-12 0.0 0.010010228572177633 0.009992424616667621 0.0 2.1214025677888794e-12 0.0 0.01 0.0 2.1214025677888794e-12 0.0 0.01001013894892385 0.009992783319595161 0.0 4.1102223655174805e-11 0.0 0.01 0.0 4.1102223655174805e-11 0.0 0.010010001334019305 0.009993315707942098 0.0 1.1548242533364997e-10 0.0 0.01 0.0 1.1548242533364997e-10 0.0 0.010009825010680172 0.009994042328310563 0.0 1.6424827703763172e-09 0.0 0.01 0.0 1.6424827703763172e-09 0.0 0.010009637464226761 0.009992046498799697 0.0 -1.5983872571030214e-18 0.0 0.01 0.0 -1.5983872571030214e-18 0.0 0.010009288826333564 0.009992075928597197 0.0 -1.36689854503729e-12 0.0 0.01 0.0 -1.36689854503729e-12 0.0 0.010009278497620408 0.00999217120311505 0.0 -2.9186700423792506e-12 0.0 0.01 0.0 -2.9186700423792506e-12 0.0 0.010009242297237401 0.00999235327980046 0.0 3.867468567406319e-12 0.0 0.01 0.0 3.8674685674059055e-12 0.0 0.010009178170376276 0.009992664579161224 0.0 3.351584402307168e-11 0.0 0.01 0.0 3.351584402306506e-11 0.0 0.010009080703918781 0.009993136572467441 0.0 9.897106430608667e-11 0.0 0.01 0.0 9.897106430608667e-11 0.0 0.010008963687766648 0.00999379627770448 0.0 7.158347795283369e-10 0.0 0.01 0.0 7.158347795284427e-10 0.0 0.010008842264033566 0.009994589893572901 0.0 1.0337098692674143e-08 0.0 0.01 0.0 1.0337098692673296e-08 0.0 0.010008762954979685 0.009992463029459706 0.0 3.931042119511729e-19 0.0 0.01 0.0 3.931042119511729e-19 0.0 0.010008317966787512 0.009992506431459125 0.0 1.424812215374146e-12 0.0 0.01 0.0 1.4248122153740426e-12 0.0 0.010008302829110118 0.009992648614383681 0.0 9.649713076759927e-12 0.0 0.01 0.0 9.6497130767591e-12 0.0 0.010008261225913454 0.009992913539811358 0.0 3.545507872752635e-11 0.0 0.01 0.0 3.5455078727523044e-11 0.0 0.010008195614215452 0.009993336166924 0.0 9.132442813438609e-11 0.0 0.01 0.0 9.132442813438609e-11 0.0 0.010008118776487693 0.009993939513879214 0.0 6.570799656853217e-10 0.0 0.01 0.0 6.570799656853217e-10 0.0 0.010008052215294418 0.009994686238420746 0.0 7.587298057857455e-09 0.0 0.01 0.0 7.587298057856608e-09 0.0 0.010008026753992861 0.009995431632680674 0.0 4.287302057412402e-08 0.0 0.01 0.0 4.287302057411725e-08 0.0 0.010008086949521329 0.009993300239039197 0.0 2.116808048622343e-18 0.0 0.01 0.0 2.116808048622343e-18 0.0 0.010007408625033408 0.009993366107124008 0.0 7.008768096237679e-12 0.0 0.01 0.0 7.008768096237679e-12 0.0 0.010007394894589652 0.00999356870954897 0.0 3.15778118430535e-11 0.0 0.01 0.0 3.1577811843050194e-11 0.0 0.010007363124363478 0.00999393502205888 0.0 1.3052465552628564e-10 0.0 0.01 0.0 1.3052465552628564e-10 0.0 0.010007321983873519 0.009994471088711838 0.0 1.2768320466930269e-09 0.0 0.01 0.0 1.2768320466930269e-09 0.0 0.010007296077150786 0.009995143540085011 0.0 9.080586204309569e-09 0.0 0.01 0.0 9.080586204310416e-09 0.0 0.010007317574216707 0.009995843593047189 0.0 4.1028381046538155e-08 0.0 0.01 0.0 4.1028381046538155e-08 0.0 0.010007419850216422 0.009996391956163744 0.0 1.297950765614443e-07 0.0 0.01 0.0 1.297950765614443e-07 0.0 0.01000761073220142 0.009994635819254359 0.0 2.1080281845806325e-18 0.0 0.01 0.0 2.1080281845806325e-18 0.0 0.010006603234652554 0.009994720683621974 0.0 3.0567256162340654e-11 0.0 0.01 0.0 3.0567256162340654e-11 0.0 0.010006600779796874 0.009994980282166386 0.0 4.873668283257487e-10 0.0 0.01 0.0 4.873668283258016e-10 0.0 0.010006594918210043 0.009995404669502836 0.0 3.22980099871148e-09 0.0 0.01 0.0 3.2298009987110566e-09 0.0 0.010006606641395606 0.009995954456321085 0.0 1.4750928230108492e-08 0.0 0.01 0.0 1.4750928230110186e-08 0.0 0.010006665358165011 0.00999654629041748 0.0 5.011363833248275e-08 0.0 0.01 0.0 5.011363833248275e-08 0.0 0.010006794518931203 0.009997032324387293 0.0 1.366257026020896e-07 0.0 0.01 0.0 1.366257026021167e-07 0.0 0.010007007862439144 0.00999724465308502 0.0 3.0418516233160975e-07 0.0 0.01 0.0 3.0418516233160975e-07 0.0 0.010007284816415128 0.009996406437981737 0.0 2.2033685077435543e-18 0.0 0.01 0.0 2.2033685077435543e-18 0.0 0.010005968739628253 0.009996495343254226 0.0 7.633324997649286e-10 0.0 0.01 0.0 7.633324997650344e-10 0.0 0.010005979008008977 0.009996748586445968 0.0 5.607217001752324e-09 0.0 0.01 0.0 5.607217001752324e-09 0.0 0.010006015173001058 0.009997121243638043 0.0 2.236159576540577e-08 0.0 0.01 0.0 2.236159576540916e-08 0.0 0.010006092964186314 0.009997536910976539 0.0 6.615985712526756e-08 0.0 0.01 0.0 6.615985712526756e-08 0.0 0.010006233374058338 0.009997873682177288 0.0 1.592054480979157e-07 0.0 0.01 0.0 1.592054480979157e-07 0.0 0.010006449087044936 0.009997991621125163 0.0 3.258935816298275e-07 0.0 0.01 0.0 3.2589358162977327e-07 0.0 0.010006724542751505 0.00999780127488911 0.0 5.746591997862673e-07 0.0 0.01 0.0 5.746591997861589e-07 0.0 0.010007026498276382 0.009998342412230687 0.0 4.850157892941186e-18 0.0 0.01 0.0 4.850157892941186e-18 0.0 0.010005566143846996 0.009998403382462407 0.0 4.363798762069276e-09 0.0 0.01 0.0 4.363798762068429e-09 0.0 0.010005586227409316 0.00999857080652926 0.0 2.3352573674550222e-08 0.0 0.01 0.0 2.3352573674557e-08 0.0 0.010005657647809153 0.009998771227320579 0.0 7.309711933549325e-08 0.0 0.01 0.0 7.30971193355068e-08 0.0 0.01000578481654687 0.00999890168556012 0.0 1.7496162590805494e-07 0.0 0.01 0.0 1.7496162590805494e-07 0.0 0.010005971649418749 0.009998844218481675 0.0 3.472323876784248e-07 0.0 0.01 0.0 3.472323876784248e-07 0.0 0.010006212352265122 0.009998540372629025 0.0 5.945041441651365e-07 0.0 0.01 0.0 5.94504144165028e-07 0.0 0.010006497580234253 0.00999816112829428 0.0 8.981596017493959e-07 0.0 0.01 0.0 8.981596017493959e-07 0.0 0.01000684794855534 0.010000059550531935 0.0 -4.883849709097812e-18 0.0 0.01 0.0 -4.883849709097812e-18 0.0 0.010005407683295189 0.01000007080077309 0.0 1.1888965573791487e-08 0.0 0.01 0.0 1.1888965573791487e-08 0.0 0.010005434126273239 0.01000007615134143 0.0 5.609154468047409e-08 0.0 0.01 0.0 5.609154468047409e-08 0.0 0.010005515810742497 0.010000002453511254 0.0 1.5303583977187502e-07 0.0 0.01 0.0 1.5303583977187502e-07 0.0 0.010005648836307984 0.009999761524113217 0.0 3.224226538639215e-07 0.0 0.01 0.0 3.224226538639215e-07 0.0 0.010005828857949595 0.009999360609816092 0.0 5.687348234545246e-07 0.0 0.01 0.0 5.68734823454633e-07 0.0 0.010006074929679632 0.009999070744422538 0.0 8.754018837083943e-07 0.0 0.01 0.0 8.754018837079606e-07 0.0 0.01000644088217107 0.009999293784591082 0.0 1.1830122648879768e-06 0.0 0.01 0.0 1.1830122648881936e-06 0.0 0.010006944436647121 0.01000113644369629 0.0 -2.9434186693101984e-17 0.0 0.01 0.0 -2.9434186693101984e-17 0.0 0.010005461971713519 0.010001089027935228 0.0 2.063118114108836e-08 0.0 0.01 0.0 2.063118114108836e-08 0.0 0.010005487914340968 0.010000942034348531 0.0 9.13668985872459e-08 0.0 0.01 0.0 9.13668985872188e-08 0.0 0.01000556223858553 0.01000069488048943 0.0 2.3201896914013583e-07 0.0 0.01 0.0 2.3201896914013583e-07 0.0 0.01000568505236281 0.01000046981464336 0.0 4.587324793834096e-07 0.0 0.01 0.0 4.587324793833012e-07 0.0 0.010005899297667604 0.010000505974380182 0.0 7.574713907689684e-07 0.0 0.01 0.0 7.574713907689684e-07 0.0 0.010006242275955977 0.010000947098054002 0.0 1.0446977629261726e-06 0.0 0.01 0.0 1.0446977629261726e-06 0.0 0.010006690972778181 0.010001648052296688 0.0 1.1408945196744302e-06 0.0 0.01 0.0 1.140894519674647e-06 0.0 0.010007136226429451 0.010002680777600097 0.0 3.428400012361677e-17 0.0 0.01 0.0 3.428400012361677e-17 0.0 0.0100056551935675 0.010002672471036552 0.0 2.621723303666975e-08 0.0 0.01 0.0 2.6217233036683303e-08 0.0 0.010005684543536989 0.010002659262303789 0.0 1.1346741078270333e-07 0.0 0.01 0.0 1.1346741078270333e-07 0.0 0.010005777955788402 0.010002685643047758 0.0 2.77496943139441e-07 0.0 0.01 0.0 2.7749694313954944e-07 0.0 0.010005955026659167 0.01000275557673849 0.0 5.048837912950514e-07 0.0 0.01 0.0 5.048837912950514e-07 0.0 0.010006230456112793 0.010002867508294048 0.0 7.094528250357109e-07 0.0 0.01 0.0 7.094528250361446e-07 0.0 0.010006558772323745 0.010002952536284778 0.0 7.271547603981358e-07 0.0 0.01 0.0 7.271547603979189e-07 0.0 0.010006810730732967 0.010003025346708968 0.0 4.0329070630771603e-07 0.0 0.01 0.0 4.0329070630771603e-07 0.0 0.010006984384777666 0.010005212572806527 0.0 8.669010922026836e-17 0.0 0.01 0.0 8.669010922026836e-17 0.0 0.010005905627348852 0.010005089332612885 0.0 1.85763059635483e-08 0.0 0.01 0.0 1.85763059635483e-08 0.0 0.01000593397768947 0.010004727951788958 0.0 7.633364929732211e-08 0.0 0.01 0.0 7.633364929732211e-08 0.0 0.010006029850354868 0.010004222426904031 0.0 1.6499468189032796e-07 0.0 0.01 0.0 1.6499468189021954e-07 0.0 0.01000621283918754 0.010003626479704715 0.0 2.30498434962618e-07 0.0 0.01 0.0 2.3049843496250957e-07 0.0 0.010006450093144497 0.01000322961786403 0.0 1.628845301122981e-07 0.0 0.01 0.0 1.628845301122439e-07 0.0 0.010006662406209762 0.010002462812465996 0.0 -1.402955029523303e-07 0.0 0.01 0.0 -1.402955029523303e-07 0.0 0.010006629138947128 0.010003098589593843 0.0 4.354355794123776e-17 0.0 0.01 0.0 4.354355794123776e-17 0.0 0.01000614921728416 0.01000295540965278 0.0 -3.592719553197017e-09 0.0 0.01 0.0 -3.592719553198711e-09 0.0 0.010006165847969498 0.010002561533966814 0.0 -2.3740584640375676e-08 0.0 0.01 0.0 -2.3740584640375676e-08 0.0 0.010006236278913632 0.01000203482217467 0.0 -9.200395675656526e-08 0.0 0.01 0.0 -9.200395675653815e-08 0.0 0.010006391874457298 0.01000142656528653 0.0 -2.5940996879227074e-07 0.0 0.01 0.0 -2.5940996879227074e-07 0.0 0.010006609106348366 0.009999247085040679 0.0 2.345303573859684e-15 0.0 0.01 0.0 2.345303573859684e-15 0.0 0.010000027350112205 0.009999271079706466 0.0 2.86525173254075e-15 0.0 0.01 0.0 2.86525173254075e-15 0.0 0.010000029300128775 0.009999303572758392 0.0 -4.021424289623744e-15 0.0 0.01 0.0 -4.021424289623744e-15 0.0 0.010000025400096774 0.0099993520629788 0.0 -9.359418617141122e-15 0.0 0.01 0.0 -9.359418617141122e-15 0.0 0.010000018050048872 0.009999419550542147 0.0 2.618015420170823e-15 0.0 0.01 0.0 2.618015420170823e-15 0.0 0.010000003900002281 0.009999504536824999 0.0 5.518723975927452e-14 0.0 0.01 0.0 5.518723975927452e-14 0.0 0.00999998750002344 0.009999606023283869 0.0 1.5464110505439794e-13 0.0 0.01 0.0 1.5464110505274358e-13 0.0 0.009999968500148835 0.009999098621887026 0.0 -9.286672915095661e-15 0.0 0.01 0.0 -9.286672915095661e-15 0.0 0.010000037100206464 0.00999912261548405 0.0 -2.1367113222295775e-14 0.0 0.01 0.0 -2.1367113222244076e-14 0.0 0.010000038100217745 0.00999915910607728 0.0 -4.445494800200532e-14 0.0 0.01 0.0 -4.445494800200532e-14 0.0 0.010000035150185327 0.009999215592303974 0.0 -7.574548538713492e-14 0.0 0.01 0.0 -7.574548538713492e-14 0.0 0.010000025400096778 0.009999294074756604 0.0 -8.67745357121584e-14 0.0 0.01 0.0 -8.67745357121584e-14 0.0 0.010000007300007996 0.009999394554988989 0.0 -4.110022704378076e-14 0.0 0.01 0.0 -4.110022704378076e-14 0.0 0.009999984500036037 0.00999951353549946 0.0 6.946099975184436e-14 0.0 0.01 0.0 6.946099975163757e-14 0.0 0.00999996100022815 0.009999641019330993 0.0 1.9871553013449507e-13 0.0 0.01 0.0 1.9871553013449507e-13 0.0 0.009999943000487345 0.00999896516065604 0.0 -1.8681001559802373e-14 0.0 0.01 0.0 -1.8681001559802373e-14 0.0 0.01000004540030918 0.009998987153899365 0.0 -3.7849609873105064e-14 0.0 0.01 0.0 -3.7849609873105064e-14 0.0 0.010000046850329238 0.009999026642132276 0.0 -6.548798914517945e-14 0.0 0.01 0.0 -6.548798914538624e-14 0.0 0.010000043450283188 0.009999085125564602 0.0 -9.79571148211557e-14 0.0 0.01 0.0 -9.79571148211557e-14 0.0 0.010000031250146485 0.009999172602699273 0.0 -1.0461585344795258e-13 0.0 0.01 0.0 -1.0461585344815937e-13 0.0 0.010000010750017335 0.009999286576353256 0.0 -4.627093341008836e-14 0.0 0.01 0.0 -4.627093341019176e-14 0.0 0.009999983000043348 0.009999424549675276 0.0 8.080480987422356e-14 0.0 0.01 0.0 8.080480987463715e-14 0.0 0.00999995300033135 0.00999957202747564 0.0 1.9860642907398332e-13 0.0 0.01 0.0 1.9860642907398332e-13 0.0 0.00999993000073499 0.009998825706877046 0.0 -2.1369561801425464e-14 0.0 0.01 0.0 -2.1369561801425464e-14 0.0 0.010000052250409517 0.009998847699200179 0.0 -3.205017354087011e-14 0.0 0.01 0.0 -3.205017354087011e-14 0.0 0.010000054200440653 0.009998885186449105 0.0 -3.995820333916247e-14 0.0 0.01 0.0 -3.9958203339265866e-14 0.0 0.01000005125039399 0.009998947666134298 0.0 -2.6498988008699274e-14 0.0 0.01 0.0 -2.6498988008699274e-14 0.0 0.010000038100217745 0.009999042137642623 0.0 3.538994067152586e-14 0.0 0.01 0.0 3.538994067152586e-14 0.0 0.010000014150030033 0.00999917060319627 0.0 1.6851336061871863e-13 0.0 0.01 0.0 1.6851336061871863e-13 0.0 0.009999982500045938 0.00999932706793173 0.0 1.4138612932039626e-12 0.0 0.01 0.0 1.4138612932039626e-12 0.0 0.009999948000405596 0.009999498037797441 0.0 4.602579094103309e-12 0.0 0.01 0.0 4.602579094090074e-12 0.0 0.009999920000959988 0.009998672264479064 0.0 -1.4542692758237705e-14 0.0 0.01 0.0 -1.4542692758237705e-14 0.0 0.01000005665048139 0.009998688757948454 0.0 -7.147686368593327e-15 0.0 0.01 0.0 -7.147686368593327e-15 0.0 0.010000061050559072 0.009998725743600792 0.0 4.3505463007091896e-14 0.0 0.01 0.0 4.3505463007143595e-14 0.0 0.010000056150472928 0.009998788720115392 0.0 1.777832818758164e-13 0.0 0.01 0.0 1.777832818760232e-13 0.0 0.010000043450283188 0.009998889185113873 0.0 9.8226266882722e-12 0.0 0.01 0.0 9.822626688285435e-12 0.0 0.010000018050048869 0.009999031140821409 0.0 8.869767844563159e-11 0.0 0.01 0.0 8.869767844563159e-11 0.0 0.009999983500040839 0.009999205594672014 0.0 2.5586166443434687e-10 0.0 0.01 0.0 2.5586166443434687e-10 0.0 0.009999943500478843 0.009999404553187789 0.0 4.571056208954518e-10 0.0 0.01 0.0 4.571056208954518e-10 0.0 0.009999911501174852 0.00999848434465132 0.0 -4.261437036062996e-15 0.0 0.01 0.0 -4.261437036062996e-15 0.0 0.010000060550549951 0.009998496339217374 0.0 3.874896113455929e-14 0.0 0.01 0.0 3.874896113455929e-14 0.0 0.01000006445062308 0.009998529824276065 0.0 1.9274897889560323e-13 0.0 0.01 0.0 1.9274897889581003e-13 0.0 0.010000061500567346 0.009998595795823793 0.0 3.6408361449272975e-11 0.0 0.01 0.0 3.6408361449272975e-11 0.0 0.010000048350350663 0.009998699253835123 0.0 3.27483026063712e-10 0.0 0.01 0.0 3.27483026063712e-10 0.0 0.010000022450075615 0.009998849698509688 0.0 1.1937387186227854e-09 0.0 0.01 0.0 1.1937387186227854e-09 0.0 0.009999984500036252 0.009999046136496709 0.0 2.5951288285192345e-09 0.0 0.01 0.0 2.5951288285260108e-09 0.0 0.009999940500532045 0.00999926808036632 0.0 4.1041977741563184e-09 0.0 0.01 0.0 4.1041977741563184e-09 0.0 0.009999905001356254 0.009998257955313708 0.0 1.118464796166442e-14 0.0 0.01 0.0 1.118464796166442e-14 0.0 0.010000066900671348 0.009998265451403221 0.0 1.0706501613805364e-13 0.0 0.01 0.0 1.0706501613805364e-13 0.0 0.010000069350721423 0.009998295435929878 0.0 2.8691617902856035e-11 0.0 0.01 0.0 2.8691617902856035e-11 0.0 0.010000067850690554 0.00999835540579252 0.0 4.123685710086288e-10 0.0 0.01 0.0 4.123685710082053e-10 0.0 0.010000055200457087 0.009998458856342438 0.0 2.0803439772489133e-09 0.0 0.01 0.0 2.0803439772472193e-09 0.0 0.010000027850116994 0.009998608790378921 0.0 6.013524078849408e-09 0.0 0.01 0.0 6.013524078849408e-09 0.0 0.009999987500028864 0.009998808712930114 0.0 1.1988437197634318e-08 0.0 0.01 0.0 1.1988437197634318e-08 0.0 0.009999939000579706 0.009999052134830419 0.0 1.7533759438933746e-08 0.0 0.01 0.0 1.7533759438933746e-08 0.0 0.009999898001606692 0.009997988107319737 0.0 2.199954104678067e-14 0.0 0.01 0.0 2.199954104678067e-14 0.0 0.010000073750815871 0.009997988107319737 0.0 4.872565846481585e-12 0.0 0.01 0.0 4.872565846478277e-12 0.0 0.010000077150892833 0.00999801059381806 0.0 2.2014597389363546e-10 0.0 0.01 0.0 2.2014597389363546e-10 0.0 0.010000076150869841 0.009998061064067173 0.0 1.7658386831910321e-09 0.0 0.01 0.0 1.7658386831910321e-09 0.0 0.010000063950613914 0.009998146015723845 0.0 7.169283631243016e-09 0.0 0.01 0.0 7.169283631243016e-09 0.0 0.010000036150203732 0.00999827394704583 0.0 1.8994176052014805e-08 0.0 0.01 0.0 1.8994176052014805e-08 0.0 0.009999990500067665 0.009998456357697721 0.0 3.645315517660213e-08 0.0 0.01 0.0 3.645315517660213e-08 0.0 0.00999993500083311 0.00999870575170972 0.0 5.1923910425152094e-08 0.0 0.01 0.0 5.1923910425097884e-08 0.0 0.009999888002286045 0.009997674311575656 0.0 2.978435428784458e-14 0.0 0.01 0.0 2.978435428784458e-14 0.0 0.010000085451095273 0.009997666317165598 0.0 4.143826198672893e-11 0.0 0.01 0.0 4.143826198672893e-11 0.0 0.010000090801236716 0.00999767381192455 0.0 7.44751569131252e-10 0.0 0.01 0.0 7.44751569131252e-10 0.0 0.01000009275129049 0.009997700793199216 0.0 4.668065714157006e-09 0.0 0.01 0.0 4.668065714157006e-09 0.0 0.010000082501024224 0.009997752258122921 0.0 1.7160639611770888e-08 0.0 0.01 0.0 1.7160639611757335e-08 0.0 0.010000051750445898 0.009997828707671802 0.0 4.399168822852382e-08 0.0 0.01 0.0 4.399168822852382e-08 0.0 0.009999999500290412 0.00999795612784032 0.0 8.394123048472563e-08 0.0 0.01 0.0 8.39412304846172e-08 0.0 0.009999931501761032 0.009998177000799783 0.0 1.2051498410607826e-07 0.0 0.01 0.0 1.2051498410618668e-07 0.0 0.009999876504466888 0.009997309586138625 0.0 4.042656176222559e-13 0.0 0.01 0.0 4.042656176220491e-13 0.0 0.010000106451699771 0.009997288103556372 0.0 1.233452333612708e-10 0.0 0.01 0.0 1.233452333612708e-10 0.0 0.010000115702008015 0.009997278611297077 0.0 1.591366173036478e-09 0.0 0.01 0.0 1.591366173036478e-09 0.0 0.010000121102200204 0.009997274614575655 0.0 8.863668937315601e-09 0.0 0.01 0.0 8.863668937308825e-09 0.0 0.010000113751952686 0.009997275613892345 0.0 3.1168846830763645e-08 0.0 0.01 0.0 3.11688468307772e-08 0.0 0.01000008250116673 0.009997277613058405 0.0 7.939152390563269e-08 0.0 0.01 0.0 7.93915239056869e-08 0.0 0.0100000156009823 0.009997306592093821 0.0 1.5347989741642566e-07 0.0 0.01 0.0 1.5347989741642566e-07 0.0 0.009999926504345 0.009997447984857764 0.0 2.2513290210649396e-07 0.0 0.01 0.0 2.2513290210649396e-07 0.0 0.00999985001098019 0.009996886454728524 0.0 1.6596693758328267e-12 0.0 0.01 0.0 1.6596693758336538e-12 0.0 0.010000141603007657 0.009996849989010763 0.0 2.1452647557954569e-10 0.0 0.01 0.0 2.1452647557954569e-10 0.0 0.010000157253709242 0.009996819517964477 0.0 2.4228201937337497e-09 0.0 0.01 0.0 2.4228201937337497e-09 0.0 0.01000017285448258 0.009996784052038308 0.0 1.2811368632395493e-08 0.0 0.01 0.0 1.2811368632402269e-08 0.0 0.010000171854454622 0.009996732602376568 0.0 4.4369549465533885e-08 0.0 0.01 0.0 4.4369549465533885e-08 0.0 0.010000133802980855 0.009996656679358118 0.0 1.1371689439773104e-07 0.0 0.01 0.0 1.1371689439773104e-07 0.0 0.01000004885229855 0.009996578764037542 0.0 2.2362231114634104e-07 0.0 0.01 0.0 2.2362231114644946e-07 0.0 0.00999991800851303 0.009996604247087364 0.0 3.3284338562763506e-07 0.0 0.01 0.0 3.3284338562763506e-07 0.0 0.009999796022867309 0.009996399944992991 0.0 1.8658618522061583e-12 0.0 0.01 0.0 1.8658618522061583e-12 0.0 0.010000196305780243 0.009996349000443458 0.0 2.434438944688601e-10 0.0 0.01 0.0 2.4344389446864835e-10 0.0 0.010000221207339696 0.009996297057784223 0.0 2.7272524912530196e-09 0.0 0.01 0.0 2.7272524912530196e-09 0.0 0.010000249509339042 0.009996233628932651 0.0 1.4353611807577083e-08 0.0 0.01 0.0 1.4353611807577083e-08 0.0 0.010000259760151866 0.00999614572983017 0.0 4.995511968298202e-08 0.0 0.01 0.0 4.995511968298202e-08 0.0 0.01000022410790793 0.009996023375816834 0.0 1.2974063560549634e-07 0.0 0.01 0.0 1.2974063560549634e-07 0.0 0.01000011330445181 0.009995881056326246 0.0 2.590008622851362e-07 0.0 0.01 0.0 2.590008622851362e-07 0.0 0.009999936510672557 0.00999585360342102 0.0 3.9223875722459514e-07 0.0 0.01 0.0 3.9223875722470356e-07 0.0 0.009999798029210688 0.009995845590302765 0.0 5.199479434537371e-13 0.0 0.01 0.0 5.199479434537371e-13 0.0 0.01000026956089907 0.009995776676975992 0.0 1.7843280881129563e-10 0.0 0.01 0.0 1.784328088112427e-10 0.0 0.010000314964879815 0.009995703770226115 0.0 2.2563706756399424e-09 0.0 0.01 0.0 2.2563706756399424e-09 0.0 0.010000358919323299 0.009995623874271633 0.0 1.241810266285569e-08 0.0 0.01 0.0 1.241810266285569e-08 0.0 0.010000386272402947 0.009995521510622978 0.0 4.43530136712343e-08 0.0 0.01 0.0 4.4353013671220745e-08 0.0 0.010000362820040028 0.00999538869367196 0.0 1.1790714475872367e-07 0.0 0.01 0.0 1.1790714475875077e-07 0.0 0.01000026366251377 0.009995247898239383 0.0 2.4097393607923e-07 0.0 0.01 0.0 2.4097393607912156e-07 0.0 0.010000138661599468 0.00999522843864432 0.0 3.765994264826912e-07 0.0 0.01 0.0 3.765994264826912e-07 0.0 0.010000197777153703 0.009995214936717161 0.0 -3.521998890453604e-14 0.0 0.01 0.0 -3.521998890453604e-14 0.0 0.010000366720171565 0.009995128561949783 0.0 7.398581249941702e-11 0.0 0.01 0.0 7.398581249944349e-11 0.0 0.010000428227505248 0.009995038694626824 0.0 1.3071453685197589e-09 0.0 0.01 0.0 1.3071453685197589e-09 0.0 0.01000049663699505 0.009994945834282249 0.0 8.086932453422245e-09 0.0 0.01 0.0 8.086932453422245e-09 0.0 0.010000550345438494 0.009994845488229655 0.0 3.054666087067557e-08 0.0 0.01 0.0 3.054666087067557e-08 0.0 0.010000559147033357 0.00999472867202937 0.0 8.413287089001202e-08 0.0 0.01 0.0 8.413287089001202e-08 0.0 0.010000515640942446 0.00999461935048738 0.0 1.7616288560334077e-07 0.0 0.01 0.0 1.7616288560328656e-07 0.0 0.01000052789645595 0.009994608874451399 0.0 2.788630535272311e-07 0.0 0.01 0.0 2.788630535272311e-07 0.0 0.010000753046724103 0.009994499541587034 0.0 -1.4614512060910332e-14 0.0 0.01 0.0 -1.4614512060910332e-14 0.0 0.010000482934981677 0.009994394217245729 0.0 9.669122974557858e-12 0.0 0.01 0.0 9.669122974557858e-12 0.0 0.010000564997879787 0.009994292390242776 0.0 4.6479098855256883e-10 0.0 0.01 0.0 4.647909885526747e-10 0.0 0.010000655314409954 0.00999419206374174 0.0 3.721839206111687e-09 0.0 0.01 0.0 3.721839206111687e-09 0.0 0.010000738381775173 0.009994095234096818 0.0 1.5731290567224418e-08 0.0 0.01 0.0 1.5731290567227806e-08 0.0 0.010000787693096432 0.00999400190121453 0.0 4.5939993520430146e-08 0.0 0.01 0.0 4.5939993520416594e-08 0.0 0.01000081259935368 0.009993923544460388 0.0 9.901959635366057e-08 0.0 0.01 0.0 9.901959635363346e-08 0.0 0.010000929331003924 0.009993915561327909 0.0 1.5821744828373847e-07 0.0 0.01 0.0 1.5821744828373847e-07 0.0 0.010001184314113546 0.009993691973703403 0.0 8.87096200298632e-15 0.0 0.01 0.0 8.87096200298632e-15 0.0 0.010000616757053698 0.009993570705693271 0.0 -3.9920168324665337e-13 0.0 0.01 0.0 -3.9920168324675676e-13 0.0 0.010000719827715332 0.009993454432281931 0.0 6.803650478043995e-11 0.0 0.01 0.0 6.803650478045318e-11 0.0 0.010000828703000923 0.009993348641974795 0.0 1.0353530738988525e-09 0.0 0.01 0.0 1.0353530738988525e-09 0.0 0.01000093273048186 0.009993254830743812 0.0 5.5614220748891754e-09 0.0 0.01 0.0 5.561422074888328e-09 0.0 0.010001018205494896 0.009993176989428854 0.0 1.8196043641724268e-08 0.0 0.01 0.0 1.8196043641724268e-08 0.0 0.010001091478722565 0.009993124098471426 0.0 4.1676802846901955e-08 0.0 0.01 0.0 4.167680284689518e-08 0.0 0.010001244382495333 0.009993116115412481 0.0 6.838151512064293e-08 0.0 0.01 0.0 6.838151512061582e-08 0.0 0.010001472976086653 0.009992784816350334 0.0 3.792228228980461e-14 0.0 0.01 0.0 3.792228228980461e-14 0.0 0.010000765687932725 0.009992647117689709 0.0 -2.812385233661451e-13 0.0 0.01 0.0 -2.812385233661451e-13 0.0 0.010000883417050067 0.009992517406766956 0.0 -2.8239864127972566e-12 0.0 0.01 0.0 -2.823986412796843e-12 0.0 0.010001011853556426 0.009992402666699613 0.0 9.771655512348401e-11 0.0 0.01 0.0 9.771655512349725e-11 0.0 0.010001133992861814 0.009992310877491669 0.0 1.0460092367603212e-09 0.0 0.01 0.0 1.0460092367601094e-09 0.0 0.010001237029498606 0.009992242536085667 0.0 4.49240293670736e-09 0.0 0.01 0.0 4.49240293670736e-09 0.0 0.01000132791445973 0.00999220063403516 0.0 1.175213603172525e-08 0.0 0.01 0.0 1.175213603172525e-08 0.0 0.010001474926267694 0.009992189160986445 0.0 2.08855876586524e-08 0.0 0.01 0.0 2.088558765864901e-08 0.0 0.010001671318968185 0.009991766679309275 0.0 4.288826096264953e-14 0.0 0.01 0.0 4.288826096264953e-14 0.0 0.010000924928308032 0.009991610569204149 0.0 -1.8135050094529348e-13 0.0 0.01 0.0 -1.8135050094526763e-13 0.0 0.010001062669365929 0.009991468430584629 0.0 -2.5610895003239067e-12 0.0 0.01 0.0 -2.561089500323493e-12 0.0 0.01000120676840836 0.009991346246093687 0.0 -1.1267156983969483e-11 0.0 0.01 0.0 -1.1267156983969483e-11 0.0 0.010001336717974482 0.009991252989927141 0.0 8.28047583130043e-12 0.0 0.01 0.0 8.280475831298775e-12 0.0 0.010001446113626222 0.009991188160975684 0.0 3.70643551949114e-10 0.0 0.01 0.0 3.70643551949114e-10 0.0 0.010001534052925592 0.009991151757579591 0.0 1.491695268214627e-09 0.0 0.01 0.0 1.4916952682148387e-09 0.0 0.010001661564027863 0.009991136797396265 0.0 3.2029839181266958e-09 0.0 0.01 0.0 3.2029839181271193e-09 0.0 0.010001834504689208 0.009990624700935289 0.0 4.3683333442017896e-14 0.0 0.01 0.0 4.3683333442017896e-14 0.0 0.010001096380281104 0.009990445211564062 0.0 -9.619029969845994e-14 0.0 0.01 0.0 -9.619029969845994e-14 0.0 0.010001252185155888 0.009990287169210557 0.0 -2.424317091626235e-12 0.0 0.01 0.0 -2.424317091626235e-12 0.0 0.010001407547122573 0.009990156054590898 0.0 -1.1799626992031018e-11 0.0 0.01 0.0 -1.1799626992029364e-11 0.0 0.010001550660607695 0.009990058843661864 0.0 -3.348556353658189e-11 0.0 0.01 0.0 -3.348556353657858e-11 0.0 0.010001664965724343 0.0099899980259596 0.0 -6.5922660500242e-11 0.0 0.01 0.0 -6.5922660500242e-11 0.0 0.010001742655421367 0.00998996313105816 0.0 -7.955649720147325e-11 0.0 0.01 0.0 -7.955649720147325e-11 0.0 0.010001850113311265 0.009989952662659026 0.0 -1.3807406061467834e-11 0.0 0.01 0.0 -1.3807406061469488e-11 0.0 0.010002007454319171 0.009989350037446299 0.0 3.812665285182476e-14 0.0 0.01 0.0 3.812665285182476e-14 0.0 0.01000127809498727 0.009989144202871213 0.0 -7.119097591229417e-15 0.0 0.01 0.0 -7.119097591229417e-15 0.0 0.010001451465951865 0.009988960806511666 0.0 -2.356710558043758e-12 0.0 0.01 0.0 -2.356710558043758e-12 0.0 0.010001625896444941 0.009988810807759986 0.0 -1.2952917276818255e-11 0.0 0.01 0.0 -1.2952917276816601e-11 0.0 0.010001781225801804 0.00998870267331677 0.0 -3.8778594905341784e-11 0.0 0.01 0.0 -3.87785949053484e-11 0.0 0.010001902392727045 0.009988635402508866 0.0 -7.899362537055734e-11 0.0 0.01 0.0 -7.899362537055072e-11 0.0 0.010001972733598173 0.009988604508222884 0.0 -1.0934187369451102e-10 0.0 0.01 0.0 -1.0934187369451102e-10 0.0 0.01000206609013292 0.00998859803042508 0.0 -7.926905106639875e-11 0.0 0.01 0.0 -7.926905106639875e-11 0.0 0.010002218488035064 0.0099879303865534 0.0 4.502987757790534e-14 0.0 0.01 0.0 4.502987757790534e-14 0.0 0.010001471524744043 0.009987688772325894 0.0 8.135169706870094e-14 0.0 0.01 0.0 8.135169706870094e-14 0.0 0.01000166446547459 0.009987471583573918 0.0 -2.3314804285601118e-12 0.0 0.01 0.0 -2.331480428559905e-12 0.0 0.010001856466842434 0.009987292264090657 0.0 -1.466602665028683e-11 0.0 0.01 0.0 -1.4666026650288484e-11 0.0 0.010002032369410963 0.00998716226350486 0.0 -4.629559324675932e-11 0.0 0.01 0.0 -4.62955932467527e-11 0.0 0.010002165253045144 0.00998707858765229 0.0 -9.711493885156433e-11 0.0 0.01 0.0 -9.711493885156433e-11 0.0 0.010002235599462344 0.009987039240805788 0.0 -1.368700306861125e-10 0.0 0.01 0.0 -1.3687003068612573e-10 0.0 0.010002324560285934 0.009987026789368953 0.0 -9.93673189922383e-11 0.0 0.01 0.0 -9.936731899225154e-11 0.0 0.010002484325474398 0.009986359460494745 0.0 5.2926779050157e-14 0.0 0.01 0.0 5.2926779050157e-14 0.0 0.010001676221363534 0.009986072649786877 0.0 1.2256758383933782e-13 0.0 0.01 0.0 1.2256758383933782e-13 0.0 0.01000189068606893 0.009985809761678824 0.0 -2.4560805559428384e-12 0.0 0.01 0.0 -2.4560805559426316e-12 0.0 0.010002105164571142 0.00998558970843127 0.0 -1.7137251012767844e-11 0.0 0.01 0.0 -1.7137251012767844e-11 0.0 0.010002301094011429 0.009985417957520995 0.0 -5.6382683644712164e-11 0.0 0.01 0.0 -5.6382683644705546e-11 0.0 0.010002453052324724 0.009985304457435182 0.0 -1.2085254937259678e-10 0.0 0.01 0.0 -1.2085254937259678e-10 0.0 0.010002533212249632 0.00998523526410641 0.0 -1.7139928632131646e-10 0.0 0.01 0.0 -1.713992863213297e-10 0.0 0.010002627985583361 0.009985204401358904 0.0 -1.2034102017470676e-10 0.0 0.01 0.0 -1.2034102017469353e-10 0.0 0.010002799525162509 0.009984631003652052 0.0 6.006915006608446e-14 0.0 0.01 0.0 6.006915006608446e-14 0.0 0.010001896039108353 0.009984294079030894 0.0 2.5081483857696147e-14 0.0 0.01 0.0 2.5081483857696147e-14 0.0 0.010002124676946042 0.009983973609271241 0.0 -3.129904797986219e-12 0.0 0.01 0.0 -3.129904797986012e-12 0.0 0.010002363637753491 0.0099836919796492 0.0 -2.125070051159417e-11 0.0 0.01 0.0 -2.1250700511592514e-11 0.0 0.010002586953503124 0.009983463110938742 0.0 -7.05212128626989e-11 0.0 0.01 0.0 -7.052121286269228e-11 0.0 0.010002761893787383 0.009983292962228912 0.0 -1.519740607474149e-10 0.0 0.01 0.0 -1.519740607474149e-10 0.0 0.010002862578684543 0.009983176052222282 0.0 -2.1355286252726494e-10 0.0 0.01 0.0 -2.135528625272517e-10 0.0 0.010002979831380283 0.009983104913249566 0.0 -1.3749161071748245e-10 0.0 0.01 0.0 -1.3749161071749568e-10 0.0 0.010003175812227143 0.009982769635349605 0.0 -2.0025491892682146e-13 0.0 0.01 0.0 -2.0025491892682146e-13 0.0 0.010002133482568011 0.009982370728504462 0.0 -6.451277010655839e-13 0.0 0.01 0.0 -6.451277010655839e-13 0.0 0.010002373394683042 0.009981978831692322 0.0 -5.264463805269517e-12 0.0 0.01 0.0 -5.26446380526993e-12 0.0 0.010002630937911046 0.009981617313002024 0.0 -2.8975412090541898e-11 0.0 0.01 0.0 -2.8975412090541898e-11 0.0 0.010002879643374485 0.009981305056123053 0.0 -9.207192038951888e-11 0.0 0.01 0.0 -9.20719203895255e-11 0.0 0.010003077570132936 0.009981051990439898 0.0 -1.94833734188954e-10 0.0 0.01 0.0 -1.9483373418896722e-10 0.0 0.010003201236531445 0.009980861085255803 0.0 -2.660078847257772e-10 0.0 0.01 0.0 -2.660078847257772e-10 0.0 0.010003366949689488 0.009980721393350832 0.0 -1.4541311928894196e-10 0.0 0.01 0.0 -1.4541311928894196e-10 0.0 0.010003608902687157 0.00998082032046393 0.0 -1.5804172421265034e-12 0.0 0.01 0.0 -1.5804172421264e-12 0.0 0.010002399813589458 0.00998035553772578 0.0 -3.015554174217742e-12 0.0 0.01 0.0 -3.015554174217535e-12 0.0 0.010002637292930357 0.009979881874110719 0.0 -1.0777957918224884e-11 0.0 0.01 0.0 -1.0777957918224057e-11 0.0 0.010002908968822803 0.009979422191650739 0.0 -4.392300223809815e-11 0.0 0.01 0.0 -4.392300223809815e-11 0.0 0.010003178264563001 0.00997899983674031 0.0 -1.275458976772822e-10 0.0 0.01 0.0 -1.275458976772822e-10 0.0 0.010003389922957871 0.009978636157601467 0.0 -2.5870270618667444e-10 0.0 0.01 0.0 -2.5870270618667444e-10 0.0 0.010003523361236768 0.009978335605810434 0.0 -3.3606655185521163e-10 0.0 0.01 0.0 -3.3606655185518516e-10 0.0 0.010003760920615168 0.009978096177373039 0.0 -1.4011748484946842e-10 0.0 0.01 0.0 -1.4011748484946842e-10 0.0 0.010004088455954708 0.009978890530087381 0.0 -5.988331133598609e-12 0.0 0.01 0.0 -5.988331133598609e-12 0.0 0.010002718858426842 0.009978361934055543 0.0 -9.210750307900244e-12 0.0 0.01 0.0 -9.210750307901898e-12 0.0 0.010002935391973233 0.009977799647786025 0.0 -2.2649045965755187e-11 0.0 0.01 0.0 -2.2649045965755187e-11 0.0 0.010003210044997045 0.009977229014484413 0.0 -7.21128142831809e-11 0.0 0.01 0.0 -7.21128142831809e-11 0.0 0.010003493029336076 0.009976677842902624 0.0 -1.8884294159173353e-10 0.0 0.01 0.0 -1.8884294159173353e-10 0.0 0.010003696398494645 0.00997617839152245 0.0 -3.6180636886426466e-10 0.0 0.01 0.0 -3.6180636886429113e-10 0.0 0.010003801967144524 0.009975740564443837 0.0 -4.4073531980609243e-10 0.0 0.01 0.0 -4.4073531980609243e-10 0.0 0.010004123148652075 0.009975370293110596 0.0 -1.2338365225089862e-10 0.0 0.01 0.0 -1.2338365225089862e-10 0.0 0.010004581746938218 0.009977161975223352 0.0 -1.566672680794385e-11 0.0 0.01 0.0 -1.566672680794302e-11 0.0 0.01000312696607626 0.009976574073967364 0.0 -2.102189479292222e-11 0.0 0.01 0.0 -2.102189479292222e-11 0.0 0.010003310743427826 0.009975928197561665 0.0 -4.4039601733015825e-11 0.0 0.01 0.0 -4.4039601733012517e-11 0.0 0.010003580522103137 0.009975248201951675 0.0 -1.2331514625755455e-10 0.0 0.01 0.0 -1.2331514625756116e-10 0.0 0.01000386208620492 0.009974566360596489 0.0 -2.9883390932006884e-10 0.0 0.01 0.0 -2.988339093200821e-10 0.0 0.010004031236320392 0.009973920874020988 0.0 -5.402289797750903e-10 0.0 0.01 0.0 -5.402289797750639e-10 0.0 0.010004039546372604 0.009973327097355215 0.0 -6.13584426666941e-10 0.0 0.01 0.0 -6.13584426666941e-10 0.0 0.010004411116977325 0.009972808311662525 0.0 -1.073159050069858e-10 0.0 0.01 0.0 -1.0731590500697257e-10 0.0 0.010005042862005355 0.00997589295349651 0.0 -2.9195290600100685e-11 0.0 0.01 0.0 -2.919529060009903e-11 0.0 0.010003677827968287 0.009975265076072515 0.0 -3.580193154896553e-11 0.0 0.01 0.0 -3.580193154896553e-11 0.0 0.010003825443984158 0.009974557925298144 0.0 -7.696085398895564e-11 0.0 0.01 0.0 -7.696085398895564e-11 0.0 0.010004090408348 0.009973789410564296 0.0 -2.1509871471670344e-10 0.0 0.01 0.0 -2.150987147166902e-10 0.0 0.010004375419970624 0.009972999747052957 0.0 -5.010474900892373e-10 0.0 0.01 0.0 -5.010474900892373e-10 0.0 0.010004474200980872 0.009972223658865145 0.0 -8.596594341746392e-10 0.0 0.01 0.0 -8.596594341746392e-10 0.0 0.010004283000043005 0.009971491376303826 0.0 -9.103709987235697e-10 0.0 0.01 0.0 -9.103709987235697e-10 0.0 0.010004604728577308 0.009970834591150475 0.0 -1.1700628908580248e-10 0.0 0.01 0.0 -1.1700628908580248e-10 0.0 0.010005417949948612 0.009975408509557162 0.0 -3.6300497768193215e-11 0.0 0.01 0.0 -3.6300497768196524e-11 0.0 0.010004442909163237 0.009974779234915316 0.0 -4.2961399405377966e-11 0.0 0.01 0.0 -4.296139940537962e-11 0.0 0.010004573435534792 0.009974049862087369 0.0 -1.2266836898195855e-10 0.0 0.01 0.0 -1.2266836898195855e-10 0.0 0.010004850677078967 0.009973250216736503 0.0 -3.769985212718281e-10 0.0 0.01 0.0 -3.769985212718281e-10 0.0 0.010005142163559314 0.009972411093601414 0.0 -8.649946936874057e-10 0.0 0.01 0.0 -8.649946936874057e-10 0.0 0.010005142163559405 0.009971571686487749 0.0 -1.418624450752825e-09 0.0 0.01 0.0 -1.418624450752825e-09 0.0 0.010004643382148813 0.009970760246291946 0.0 -1.406949064840009e-09 0.0 0.01 0.0 -1.4069490648399561e-09 0.0 0.010004764653126165 0.009970018375704966 0.0 -1.869425203052361e-10 0.0 0.01 0.0 -1.8694252030522947e-10 0.0 0.010005686997615327 0.009976126762655767 0.0 -1.7898599691043573e-11 0.0 0.01 0.0 -1.7898599691043573e-11 0.0 0.010005506995712354 0.009975543015089738 0.0 -2.702811426222483e-11 0.0 0.01 0.0 -2.702811426222483e-11 0.0 0.01000565764772732 0.009974869053110218 0.0 -1.8266783269470318e-10 0.0 0.01 0.0 -1.8266783269469656e-10 0.0 0.010005974600114802 0.009974131722494535 0.0 -6.453223415975816e-10 0.0 0.01 0.0 -6.45322341597608e-10 0.0 0.010006281814224686 0.009973363306262731 0.0 -1.4800374730291088e-09 0.0 0.01 0.0 -1.4800374730291618e-09 0.0 0.010006165347042482 0.009972585149606753 0.0 -2.3505457970403575e-09 0.0 0.01 0.0 -2.3505457970403575e-09 0.0 0.010005300611496567 0.009971819569663073 0.0 -2.2133587606677967e-09 0.0 0.01 0.0 -2.2133587606677967e-09 0.0 0.010005074159453621 0.009971107698873497 0.0 -3.766498305969624e-10 0.0 0.01 0.0 -3.7664983059694916e-10 0.0 0.010005947201176467 0.009978620756766901 0.0 4.5542337354481095e-11 0.0 0.01 0.0 4.554233735447448e-11 0.0 0.010006951591981835 0.00997816273873587 0.0 2.6378923422397966e-11 0.0 0.01 0.0 2.6378923422397966e-11 0.0 0.010007160032575206 0.009977651641233615 0.0 -2.60766151471133e-10 0.0 0.01 0.0 -2.60766151471133e-10 0.0 0.010007532903153506 0.009977120262587545 0.0 -1.0671470876436334e-09 0.0 0.01 0.0 -1.0671470876435804e-09 0.0 0.010007845673539885 0.00997658698284607 0.0 -2.456958989323696e-09 0.0 0.01 0.0 -2.456958989323696e-09 0.0 0.010007601408436375 0.009976050313693013 0.0 -3.820239378778427e-09 0.0 0.01 0.0 -3.820239378778427e-09 0.0 0.010006467218333691 0.009975511745792302 0.0 -3.4813286718200282e-09 0.0 0.01 0.0 -3.4813286718198165e-09 0.0 0.010005907580808082 0.00997499460415602 0.0 -7.648617145149794e-10 0.0 0.01 0.0 -7.648617145149794e-10 0.0 0.010006521523998651 0.009983667101852983 0.0 1.5948132272435e-10 0.0 0.01 0.0 1.5948132272435e-10 0.0 0.010008809477375265 0.009983430274545364 0.0 1.1029215615654514e-10 0.0 0.01 0.0 1.1029215615654514e-10 0.0 0.01000909639662832 0.009983216348399018 0.0 -3.882907657807126e-10 0.0 0.01 0.0 -3.8829076578068614e-10 0.0 0.010009512104828075 0.00998305168438398 0.0 -1.7048430790120942e-09 0.0 0.01 0.0 -1.7048430790120942e-09 0.0 0.01000979025863022 0.009982935280299967 0.0 -3.8636923744850005e-09 0.0 0.01 0.0 -3.8636923744850005e-09 0.0 0.010009427364545126 0.009982824849421236 0.0 -5.8344527025871975e-09 0.0 0.01 0.0 -5.8344527025871975e-09 0.0 0.010008283230436267 0.009982695023205786 0.0 -5.226270567193349e-09 0.0 0.01 0.0 -5.226270567193349e-09 0.0 0.010007912230616235 0.00998255624905653 0.0 -1.3671010341237652e-09 0.0 0.01 0.0 -1.3671010341237652e-09 0.0 0.010008156919457126 0.009992023054909815 0.0 2.839973401010066e-10 0.0 0.01 0.0 2.8399734010103307e-10 0.0 0.010011042664170992 0.009992105358654748 0.0 1.6043818767887363e-10 0.0 0.01 0.0 1.604381876788604e-10 0.0 0.010011384662110205 0.009992302895940842 0.0 -6.360636836564351e-10 0.0 0.01 0.0 -6.360636836563821e-10 0.0 0.010011795236367669 0.009992634146371115 0.0 -2.5668322503697557e-09 0.0 0.01 0.0 -2.5668322503697557e-09 0.0 0.010011981448920201 0.009993055241160573 0.0 -5.526914979122441e-09 0.0 0.01 0.0 -5.526914979122441e-09 0.0 0.010011710488263345 0.009993499344286906 0.0 -7.986270152657495e-09 0.0 0.01 0.0 -7.986270152656648e-09 0.0 0.010011353305414339 0.009993920049375526 0.0 -6.91068197433097e-09 0.0 0.01 0.0 -6.91068197433097e-09 0.0 0.01001153552961759 0.009994305368021617 0.0 -1.9625998815293206e-09 0.0 0.01 0.0 -1.9625998815293206e-09 0.0 0.010011533121296696 0.010003990186968854 0.0 3.2701632110026945e-10 0.0 0.01 0.0 3.2701632110016357e-10 0.0 0.010013509727680512 0.010004444361097082 0.0 7.132232541791319e-11 0.0 0.01 0.0 7.132232541789995e-11 0.0 0.010013838723627133 0.010005100599765594 0.0 -1.0417078274197534e-09 0.0 0.01 0.0 -1.0417078274197534e-09 0.0 0.01001417608734186 0.010005948152874347 0.0 -3.47345310759118e-09 0.0 0.01 0.0 -3.473453107592027e-09 0.0 0.010014329089686923 0.01000692709105357 0.0 -6.901477242573348e-09 0.0 0.01 0.0 -6.90147724256996e-09 0.0 0.01001460664088672 0.010007950371232805 0.0 -9.33620973886982e-09 0.0 0.01 0.0 -9.336209738871514e-09 0.0 0.01001549936021379 0.010008956368135001 0.0 -7.491982084893307e-09 0.0 0.01 0.0 -7.491982084891613e-09 0.0 0.010016011523407519 0.010009912669697129 0.0 -1.8722691083262246e-09 0.0 0.01 0.0 -1.8722691083262246e-09 0.0 0.010015959524827435 0.010018893258720647 0.0 2.2031934191398497e-10 0.0 0.01 0.0 2.2031934191398497e-10 0.0 0.010015989920029233 0.010019702123469284 0.0 -1.789113380543028e-10 0.0 0.01 0.0 -1.789113380543028e-10 0.0 0.010016206311723088 0.010020750458999679 0.0 -1.4669734137589226e-09 0.0 0.01 0.0 -1.4669734137589226e-09 0.0 0.010016396187266813 0.010022011915948053 0.0 -3.983068686851683e-09 0.0 0.01 0.0 -3.983068686851683e-09 0.0 0.010016582154175389 0.01002341941420541 0.0 -7.1721612335064774e-09 0.0 0.01 0.0 -7.1721612335064774e-09 0.0 0.010017509279112293 0.010024894402100434 0.0 -8.80233218118481e-09 0.0 0.01 0.0 -8.80233218118481e-09 0.0 0.010018966925508969 0.010026371553227017 0.0 -5.9826917283234226e-09 0.0 0.01 0.0 -5.9826917283234226e-09 0.0 0.010019257133099398 0.010027766570697646 0.0 -7.039604370825712e-10 0.0 0.01 0.0 -7.039604370824653e-10 0.0 0.01001917757618937 0.0100347900637656 0.0 2.312909851144488e-11 0.0 0.01 0.0 2.3129098511446533e-11 0.0 0.010018222538391023 0.010035865885652086 0.0 -4.291146276506463e-10 0.0 0.01 0.0 -4.2911462765059337e-10 0.0 0.010018222035652724 0.010037142413769363 0.0 -1.6053083955795261e-09 0.0 0.01 0.0 -1.6053083955795261e-09 0.0 0.010018240687295687 0.010038588416185436 0.0 -3.6787560218431576e-09 0.0 0.01 0.0 -3.678756021842946e-09 0.0 0.010018501419008449 0.010040148193810118 0.0 -6.005396606442252e-09 0.0 0.01 0.0 -6.005396606441828e-09 0.0 0.010019742863575876 0.010041768035551957 0.0 -6.5028643142412544e-09 0.0 0.01 0.0 -6.502864314240831e-09 0.0 0.01002107372862611 0.010043378784111582 0.0 -3.840895234326666e-09 0.0 0.01 0.0 -3.840895234326454e-09 0.0 0.0100205121400181 0.010044840355503723 0.0 -2.06845299968868e-09 0.0 0.01 0.0 -2.06845299968868e-09 0.0 0.010020147625866553 0.010048734303966411 0.0 -1.195179346890041e-10 0.0 0.01 0.0 -1.195179346890041e-10 0.0 0.010019979618660349 0.010049939467081671 0.0 -4.765758329396211e-10 0.0 0.01 0.0 -4.765758329396211e-10 0.0 0.010019718821821065 0.010051238280961479 0.0 -1.2860859849705882e-09 0.0 0.01 0.0 -1.2860859849705882e-09 0.0 0.010019570501131494 0.010052573813575074 0.0 -2.639994487036858e-09 0.0 0.01 0.0 -2.639994487036858e-09 0.0 0.0100198170520693 0.010053907896990398 0.0 -4.1817704913098575e-09 0.0 0.01 0.0 -4.1817704913098575e-09 0.0 0.01002091015280005 0.010055220653472943 0.0 -5.273905750909396e-09 0.0 0.01 0.0 -5.273905750909396e-09 0.0 0.010021597617622474 0.010056449509710458 0.0 -5.576539379347219e-09 0.0 0.01 0.0 -5.576539379347007e-09 0.0 0.010020376561866854 0.010057484599864155 0.0 -3.985033912971186e-09 0.0 0.01 0.0 -3.985033912971398e-09 0.0 0.010019923634905285 0.010057874062035487 0.0 -1.4109805242391388e-10 0.0 0.01 0.0 -1.4109805242391388e-10 0.0 0.010021161230633327 0.010059071066417685 0.0 -3.248243492323407e-10 0.0 0.01 0.0 -3.248243492323539e-10 0.0 0.01002063595107045 0.010060203894757624 0.0 -7.294536019125261e-10 0.0 0.01 0.0 -7.294536019125261e-10 0.0 0.010020196772086308 0.010061194873417046 0.0 -1.4696115446481054e-09 0.0 0.01 0.0 -1.4696115446481054e-09 0.0 0.010020051850663122 0.010062006081848353 0.0 -2.527845280657354e-09 0.0 0.01 0.0 -2.527845280657248e-09 0.0 0.010020473855609568 0.010062652775062464 0.0 -3.63796550105178e-09 0.0 0.01 0.0 -3.63796550105178e-09 0.0 0.010020452223353711 0.010063149328528774 0.0 -3.8034492069458045e-09 0.0 0.01 0.0 -3.80344920694591e-09 0.0 0.01001983621560443 0.010063515090782764 0.0 -8.755237431661451e-10 0.0 0.01 0.0 -8.755237431661715e-10 0.0 0.010019696691493446 0.01006124661214442 0.0 -8.588600789926545e-11 0.0 0.01 0.0 -8.588600789926545e-11 0.0 0.010021807478060895 0.010062329896805581 0.0 -1.33624171102719e-10 0.0 0.01 0.0 -1.33624171102719e-10 0.0 0.010021109151815498 0.010063201555998333 0.0 -2.518483202145182e-10 0.0 0.01 0.0 -2.518483202145182e-10 0.0 0.010020492016751065 0.010063766887616074 0.0 -5.000056409571264e-10 0.0 0.01 0.0 -5.000056409571264e-10 0.0 0.010020075442093972 0.010064007796550239 0.0 -8.928632598506891e-10 0.0 0.01 0.0 -8.928632598506627e-10 0.0 0.010020006177321001 0.010063970948135501 0.0 -1.2455321980559235e-09 0.0 0.01 0.0 -1.2455321980559235e-09 0.0 0.010019566578191452 0.010063758427832598 0.0 -7.612418264288345e-10 0.0 0.01 0.0 -7.612418264288345e-10 0.0 0.01001991478221148 0.010063490172027227 0.0 1.907198855065303e-09 0.0 0.01 0.0 1.9071988550652502e-09 0.0 0.010019923634903463 0.01006017706608215 0.0 -2.7800410708657432e-11 0.0 0.01 0.0 -2.7800410708657432e-11 0.0 0.010022060586286373 0.010061116808520416 0.0 -2.1729234434824804e-11 0.0 0.01 0.0 -2.172923443482563e-11 0.0 0.010021299809529403 0.010061740971120548 0.0 -2.4018964792284946e-11 0.0 0.01 0.0 -2.4018964792285773e-11 0.0 0.0100206477739833 0.01006195978146089 0.0 -4.6502230314006035e-11 0.0 0.01 0.0 -4.650223031400769e-11 0.0 0.010020154014330636 0.010061763839596581 0.0 -8.169553704439457e-11 0.0 0.01 0.0 -8.169553704438795e-11 0.0 0.01001990743851918 0.010061240603077988 0.0 -3.4655645540919355e-11 0.0 0.01 0.0 -3.46556455409177e-11 0.0 0.010019400561581427 0.010060528044881879 0.0 3.9883866237765753e-10 0.0 0.01 0.0 3.988386623776443e-10 0.0 0.010020456650406885 0.010059799756481892 0.0 1.6054605660152297e-09 0.0 0.01 0.0 1.6054605660151767e-09 0.0 0.010020518529178226 0.010056806099609891 0.0 -1.6369972569706353e-12 0.0 0.01 0.0 -1.6369972569707387e-12 0.0 0.010022059126669152 0.010057645038960599 0.0 4.0278715308359236e-12 0.0 0.01 0.0 4.0278715308359236e-12 0.0 0.01002133367518096 0.010058126453206405 0.0 1.0843973540663935e-11 0.0 0.01 0.0 1.0843973540664349e-11 0.0 0.010020742560039897 0.01005815672514298 0.0 2.091153475262667e-11 0.0 0.01 0.0 2.0911534752627498e-11 0.0 0.010020327412996423 0.01005774240492204 0.0 4.1788945697206004e-11 0.0 0.01 0.0 4.178894569720766e-11 0.0 0.010020155523418575 0.010056984866524165 0.0 8.847987423618892e-11 0.0 0.01 0.0 8.847987423618561e-11 0.0 0.010019820019642448 0.010056033366604208 0.0 1.7483044159087822e-10 0.0 0.01 0.0 1.7483044159088483e-10 0.0 0.010021204957340284 0.010055067751616704 0.0 2.7966525895645014e-10 0.0 0.01 0.0 2.796652589564369e-10 0.0 0.010021201535667091 0.010052738487749775 0.0 -1.1241518437646698e-12 0.0 0.01 0.0 -1.1241518437647215e-12 0.0 0.010021892482840574 0.010053563555077005 0.0 -1.1155504151773354e-11 0.0 0.01 0.0 -1.115550415177294e-11 0.0 0.010021253112730475 0.010054033458226778 0.0 -3.3273055073056893e-11 0.0 0.01 0.0 -3.3273055073056893e-11 0.0 0.010020774508175668 0.010054057747831828 0.0 -6.840095999680091e-11 0.0 0.01 0.0 -6.840095999680091e-11 0.0 0.010020517573318195 0.01005363997082618 0.0 -1.0858420846720702e-10 0.0 0.01 0.0 -1.0858420846720702e-10 0.0 0.010020580962497997 0.010052885848029491 0.0 -1.4262291890704982e-10 0.0 0.01 0.0 -1.426229189070432e-10 0.0 0.010020501374054129 0.010051933530420647 0.0 -1.490475868958896e-10 0.0 0.01 0.0 -1.4904758689589622e-10 0.0 0.010021865959506646 0.01005094579324681 0.0 -9.495391497796322e-11 0.0 0.01 0.0 -9.495391497796322e-11 0.0 0.010021744065601947 0.010048481655272173 0.0 -9.802137197862113e-12 0.0 0.01 0.0 -9.802137197861286e-12 0.0 0.010021588257243856 0.010049378492170436 0.0 -3.472271514875174e-11 0.0 0.01 0.0 -3.4722715148753396e-11 0.0 0.010021047211785915 0.010049966264687895 0.0 -9.95001476699972e-11 0.0 0.01 0.0 -9.950014766999058e-11 0.0 0.010020679670901643 0.010050137764293044 0.0 -2.214390824398673e-10 0.0 0.01 0.0 -2.2143908243988052e-10 0.0 0.010020558826457249 0.01004989241953013 0.0 -3.8350870459268466e-10 0.0 0.01 0.0 -3.835087045926582e-10 0.0 0.010020817777004209 0.010049319984456533 0.0 -5.134513614650576e-10 0.0 0.01 0.0 -5.134513614650576e-10 0.0 0.010020845751103314 0.010048548062490406 0.0 -4.3116348046220224e-10 0.0 0.01 0.0 -4.311634804622287e-10 0.0 0.010021994702820182 0.010047709368550027 0.0 1.3091959387862904e-10 0.0 0.01 0.0 1.3091959387862904e-10 0.0 0.010021729823127901 0.010043633530295196 0.0 -1.595906298865232e-11 0.0 0.01 0.0 -1.5959062988653975e-11 0.0 0.010021131744362359 0.010044666137234074 0.0 -5.5866735237456844e-11 0.0 0.01 0.0 -5.5866735237456844e-11 0.0 0.010020677708779579 0.01004546098673177 0.0 -1.8079063113424067e-10 0.0 0.01 0.0 -1.8079063113424067e-10 0.0 0.010020396684431507 0.010045897565264273 0.0 -4.4504038455633413e-10 0.0 0.01 0.0 -4.450403845563606e-10 0.0 0.010020362325217717 0.010045952515440161 0.0 -8.221588468535051e-10 0.0 0.01 0.0 -8.221588468535051e-10 0.0 0.010020711618436009 0.010045690648431175 0.0 -1.1446273136042325e-09 0.0 0.01 0.0 -1.1446273136042855e-09 0.0 0.010020732749256571 0.010045216440442723 0.0 -1.0438974398161035e-09 0.0 0.01 0.0 -1.0438974398161035e-09 0.0 0.010021627108002036 0.010044642878412852 0.0 -5.035532197993213e-11 0.0 0.01 0.0 -5.035532197993544e-11 0.0 0.010021240834801205 0.010037541400269061 0.0 -1.0667559359887744e-11 0.0 0.01 0.0 -1.0667559359887744e-11 0.0 0.010020495940778185 0.010038732170651469 0.0 -6.540817551841386e-11 0.0 0.01 0.0 -6.540817551840724e-11 0.0 0.010020108339591667 0.010039783000015222 0.0 -2.663802158802028e-10 0.0 0.01 0.0 -2.663802158802028e-10 0.0 0.01001988334528621 0.010040563329445041 0.0 -7.24670122837693e-10 0.0 0.01 0.0 -7.24670122837693e-10 0.0 0.01001989712719786 0.010041012632751005 0.0 -1.4063272032872468e-09 0.0 0.01 0.0 -1.4063272032872468e-09 0.0 0.010020250295507311 0.010041151075067716 0.0 -2.031694579127361e-09 0.0 0.01 0.0 -2.0316945791271493e-09 0.0 0.010020218402689345 0.0100410601125057 0.0 -2.040153519541432e-09 0.0 0.01 0.0 -2.040153519541432e-09 0.0 0.010020914077316437 0.010040816899766459 0.0 -8.771903961206384e-10 0.0 0.01 0.0 -8.771903961206384e-10 0.0 0.010020462033311446 0.010029980487510188 0.0 8.29053904511439e-12 0.0 0.01 0.0 8.29053904511439e-12 0.0 0.010019675114565002 0.010031312458887966 0.0 -5.0363176887667515e-11 0.0 0.01 0.0 -5.03631768876609e-11 0.0 0.010019334227654917 0.010032628248489979 0.0 -3.138861605769811e-10 0.0 0.01 0.0 -3.138861605769811e-10 0.0 0.01001914076541831 0.010033791107407389 0.0 -9.61977721696319e-10 0.0 0.01 0.0 -9.61977721696213e-10 0.0 0.010019148107425062 0.010034698819265234 0.0 -1.967152673432912e-09 0.0 0.01 0.0 -1.967152673432912e-09 0.0 0.010019456536572224 0.010035311154947388 0.0 -2.937234345126086e-09 0.0 0.01 0.0 -2.9372343451262977e-09 0.0 0.010019387787547511 0.010035657566589161 0.0 -3.121946611441118e-09 0.0 0.01 0.0 -3.121946611441118e-09 0.0 0.010019988974529485 0.010035803166199685 0.0 -1.9352634919074473e-09 0.0 0.01 0.0 -1.9352634919072355e-09 0.0 0.01001955279764412 0.010021523892798463 0.0 2.864999537880734e-11 0.0 0.01 0.0 2.8649995378794104e-11 0.0 0.010018685542246487 0.010022927258527964 0.0 -1.456040300386599e-11 0.0 0.01 0.0 -1.456040300386599e-11 0.0 0.010018376229045714 0.010024460052330155 0.0 -2.876758838646873e-10 0.0 0.01 0.0 -2.876758838646873e-10 0.0 0.010018198004848955 0.010025996018728263 0.0 -1.0337197083809538e-09 0.0 0.01 0.0 -1.0337197083811655e-09 0.0 0.01001815773604473 0.010027383065589819 0.0 -2.2731693996465963e-09 0.0 0.01 0.0 -2.27316939964702e-09 0.0 0.010018377687055163 0.010028515558469267 0.0 -3.5373295467532455e-09 0.0 0.01 0.0 -3.5373295467532455e-09 0.0 0.010018320724638952 0.010029351875993084 0.0 -3.958485343850008e-09 0.0 0.01 0.0 -3.958485343850008e-09 0.0 0.010018915836285955 0.010029925294510635 0.0 -2.736253178811299e-09 0.0 0.01 0.0 -2.7362531788108754e-09 0.0 0.010018588803375746 0.010013306763446713 0.0 3.1179096965800196e-11 0.0 0.01 0.0 3.1179096965800196e-11 0.0 0.010017566680057379 0.010014695429994573 0.0 1.3558643805166727e-11 0.0 0.01 0.0 1.3558643805173345e-11 0.0 0.010017275111535929 0.010016351518563461 0.0 -2.1234234856686785e-10 0.0 0.01 0.0 -2.1234234856644434e-10 0.0 0.010017105288752047 0.010018172968756294 0.0 -9.309401685640738e-10 0.0 0.01 0.0 -9.309401685623798e-10 0.0 0.010017032165590987 0.01001999390397496 0.0 -2.198815140458599e-09 0.0 0.01 0.0 -2.198815140457752e-09 0.0 0.01001708619114036 0.010021629070683699 0.0 -3.663005746762897e-09 0.0 0.01 0.0 -3.663005746764591e-09 0.0 0.010017076340836893 0.010022969497999527 0.0 -4.444089056102025e-09 0.0 0.01 0.0 -4.444089056100331e-09 0.0 0.010017660423667845 0.010024000679215455 0.0 -3.02437666654476e-09 0.0 0.01 0.0 -3.02437666654476e-09 0.0 0.010017552455387418 0.010006374239463609 0.0 1.26020239774153e-11 0.0 0.01 0.0 1.26020239774153e-11 0.0 0.010016367245496472 0.010007686102352812 0.0 1.365125021248764e-11 0.0 0.01 0.0 1.365125021248764e-11 0.0 0.010016083619377692 0.010009377423938997 0.0 -1.3460171730445428e-10 0.0 0.01 0.0 -1.3460171730448075e-10 0.0 0.010015908983995679 0.010011374828615773 0.0 -8.487566519569166e-10 0.0 0.01 0.0 -8.487566519569166e-10 0.0 0.010015850104389868 0.010013513693714947 0.0 -3.090626137685739e-09 0.0 0.01 0.0 -3.090626137685739e-09 0.0 0.010015817700955486 0.010015579783969874 0.0 -6.389905244361983e-09 0.0 0.01 0.0 -6.3899052444704035e-09 0.0 0.010015691657098208 0.010017391464487562 0.0 -7.891017044639784e-09 0.0 0.01 0.0 -7.891017044639784e-09 0.0 0.01001627795971628 0.010018871636699804 0.0 -2.676985065165464e-09 0.0 0.01 0.0 -2.676985065165464e-09 0.0 0.010016382470043208 0.010001240480780712 0.0 -7.448404526393024e-12 0.0 0.01 0.0 -7.448404526393851e-12 0.0 0.010015125045980754 0.010002467713140766 0.0 7.336508348890899e-13 0.0 0.01 0.0 7.336508348890899e-13 0.0 0.01001484011912686 0.010004140269856483 0.0 -2.5218843324254425e-10 0.0 0.01 0.0 -2.5218843324254425e-10 0.0 0.010014662535561773 0.010006216241449354 0.0 -2.6886289390468037e-09 0.0 0.01 0.0 -2.6886289390476507e-09 0.0 0.010014608599438604 0.010008543185459635 0.0 -9.79254371514065e-09 0.0 0.01 0.0 -9.79254371514065e-09 0.0 0.010014595843736155 0.010010918756939557 0.0 -1.841551326631685e-08 0.0 0.01 0.0 -1.841551326631685e-08 0.0 0.010014291328085676 0.010013114152177026 0.0 -2.0517231172107343e-08 0.0 0.01 0.0 -2.0517231172080238e-08 0.0 0.010014790047301951 0.010014966633090979 0.0 -1.6390684375890401e-09 0.0 0.01 0.0 -1.6390684375890401e-09 0.0 0.01001504217209845 0.009997884171698904 0.0 -4.009135584966664e-12 0.0 0.01 0.0 -4.00913558496625e-12 0.0 0.010013875978073268 0.00999904413706856 0.0 7.265061877988629e-11 0.0 0.01 0.0 7.265061877988629e-11 0.0 0.01001359160964703 0.010000673918118735 0.0 -2.865871099559064e-10 0.0 0.01 0.0 -2.8658710995593287e-10 0.0 0.01001342197413024 0.010002732069227813 0.0 -5.886643345494741e-09 0.0 0.01 0.0 -5.886643345494741e-09 0.0 0.010013370517892103 0.01000511767598539 0.0 -2.2133537999889538e-08 0.0 0.01 0.0 -2.2133537999892926e-08 0.0 0.0100133866826655 0.010007668010992081 0.0 -4.0233481129415475e-08 0.0 0.01 0.0 -4.0233481129415475e-08 0.0 0.010012943537215182 0.010010127163418597 0.0 -4.085185390756917e-08 0.0 0.01 0.0 -4.085185390756917e-08 0.0 0.010013180312626742 0.010012221568558641 0.0 3.804246728990665e-09 0.0 0.01 0.0 3.804246728990665e-09 0.0 0.0100134979802201 0.00999595195932235 0.0 7.609148355066768e-11 0.0 0.01 0.0 7.60914835506743e-11 0.0 0.010012653375733498 0.00999707578315722 0.0 1.449158338186182e-09 0.0 0.01 0.0 1.4491583381862878e-09 0.0 0.01001238823227994 0.009998614787878066 0.0 4.478214886830027e-09 0.0 0.01 0.0 4.478214886830027e-09 0.0 0.010012259306800695 0.010000553245908853 0.0 -7.376006637405972e-10 0.0 0.01 0.0 -7.376006637405972e-10 0.0 0.010012247061896143 0.010002853270805837 0.0 -2.5473972209259527e-08 0.0 0.01 0.0 -2.5473972209259527e-08 0.0 0.010012270598340032 0.01000542921871282 0.0 -5.479073413546041e-08 0.0 0.01 0.0 -5.479073413544686e-08 0.0 0.010011694783700712 0.010008062490463883 0.0 -4.991149605678628e-08 0.0 0.01 0.0 -4.991149605678628e-08 0.0 0.010011540446964251 0.01001032898119645 0.0 1.4097055435930176e-08 0.0 0.01 0.0 1.4097055435930176e-08 0.0 0.010011755546517788 0.00999501822518646 0.0 8.644220227599565e-10 0.0 0.01 0.0 8.644220227599565e-10 0.0 0.010011492431082009 0.009996102779444202 0.0 8.3957680158807e-09 0.0 0.01 0.0 8.395768015879853e-09 0.0 0.010011282716278274 0.009997482950744938 0.0 2.5224117878326066e-08 0.0 0.01 0.0 2.5224117878326066e-08 0.0 0.010011229838201059 0.009999173102740575 0.0 3.322859556794536e-08 0.0 0.01 0.0 3.322859556794536e-08 0.0 0.01001130283443617 0.010001229726813768 0.0 1.0577347067953686e-08 0.0 0.01 0.0 1.0577347067951991e-08 0.0 0.010011354760366157 0.010003685636668178 0.0 -2.3320033131217673e-08 0.0 0.01 0.0 -2.3320033131217673e-08 0.0 0.01001069974830697 0.010006522976843608 0.0 -6.3353283452909515e-09 0.0 0.01 0.0 -6.3353283452909515e-09 0.0 0.010010101234659665 0.010009290280382867 0.0 -5.537644945935861e-09 0.0 0.01 0.0 -5.537644945935861e-09 0.0 0.0100099116667246 0.00999473366307213 0.0 4.722417792994401e-09 0.0 0.01 0.0 4.722417792994401e-09 0.0 0.010010430346156242 0.00999573323247823 0.0 2.9225111032512305e-08 0.0 0.01 0.0 2.9225111032512305e-08 0.0 0.010010325069199806 0.00999685648378069 0.0 7.769766989169279e-08 0.0 0.01 0.0 7.769766989169956e-08 0.0 0.010010382849079525 0.00999817500185625 0.0 1.1955178727349614e-07 0.0 0.01 0.0 1.1955178727349614e-07 0.0 0.010010566024709225 0.009999851005450495 0.0 1.1898082064593497e-07 0.0 0.01 0.0 1.1898082064593497e-07 0.0 0.01001070612076059 0.010002136436062037 0.0 1.034804785214128e-07 0.0 0.01 0.0 1.034804785214128e-07 0.0 0.010010097324431866 0.010005303067337568 0.0 1.1386995688831029e-07 0.0 0.01 0.0 1.1386995688831029e-07 0.0 0.01000919822750031 0.010009328942011736 0.0 -1.606364175737226e-07 0.0 0.01 0.0 -1.6063641757350575e-07 0.0 0.01000822644389124 0.009994886924258968 0.0 1.866273382539946e-08 0.0 0.01 0.0 1.8662733825401153e-08 0.0 0.010009517470166117 0.00999571475696833 0.0 7.735635735872805e-08 0.0 0.01 0.0 7.735635735872805e-08 0.0 0.010009543445134468 0.009996484359576792 0.0 1.7794988778460814e-07 0.0 0.01 0.0 1.7794988778458104e-07 0.0 0.010009725123069338 0.00999734506888752 0.0 2.735115803802332e-07 0.0 0.01 0.0 2.7351158038020607e-07 0.0 0.010010029228859402 0.009998584815077143 0.0 3.1222328580415935e-07 0.0 0.01 0.0 3.1222328580415935e-07 0.0 0.010010183499039062 0.010000745198883578 0.0 3.2266214076303755e-07 0.0 0.01 0.0 3.2266214076303755e-07 0.0 0.010009561561632312 0.0100043812863855 0.0 2.413332726961155e-07 0.0 0.01 0.0 2.413332726961155e-07 0.0 0.010008608762583802 0.01000970265007219 0.0 -5.613832108086227e-07 0.0 0.01 0.0 -5.613832108090563e-07 0.0 0.010007140487831887 0.009995346251103944 0.0 5.65778432547458e-08 0.0 0.01 0.0 5.6577843254752575e-08 0.0 0.010008785965909421 0.009995902024716242 0.0 1.6988955888559611e-07 0.0 0.01 0.0 1.69889558885569e-07 0.0 0.010008946546118787 0.009996259616678318 0.0 3.372940785878638e-07 0.0 0.01 0.0 3.372940785878638e-07 0.0 0.010009232035885763 0.009996672697709272 0.0 4.922416590023198e-07 0.0 0.01 0.0 4.922416590023198e-07 0.0 0.010009575773043036 0.009997578927469922 0.0 5.655527468233614e-07 0.0 0.01 0.0 5.655527468233614e-07 0.0 0.010009588019781539 0.009999704557217055 0.0 5.426577628680129e-07 0.0 0.01 0.0 5.426577628679045e-07 0.0 0.010008757133762584 0.010003866997729021 0.0 1.9742382961361517e-07 0.0 0.01 0.0 1.9742382961361517e-07 0.0 0.010007887728464955 0.009995976432713646 0.0 1.4250742681848577e-07 0.0 0.01 0.0 1.4250742681847222e-07 0.0 0.010008248948599693 0.009996185699447688 0.0 3.266581569467313e-07 0.0 0.01 0.0 3.266581569467313e-07 0.0 0.01000850550522728 0.009996153767009639 0.0 5.588790430083096e-07 0.0 0.01 0.0 5.588790430082554e-07 0.0 0.010008819300069704 0.00999627666553178 0.0 7.52925208100802e-07 0.0 0.01 0.0 7.52925208100802e-07 0.0 0.01000907983643101 0.009997119343473256 0.0 8.095563275654482e-07 0.0 0.01 0.0 8.095563275654482e-07 0.0 0.010008783156153373 0.00999946760279145 0.0 6.34175508240761e-07 0.0 0.01 0.0 6.341755082406525e-07 0.0 0.010007955844461057 0.010003832757871648 0.0 -1.9153910337313396e-07 0.0 0.01 0.0 -1.9153910337324238e-07 0.0 0.010007130675224254 0.009996613235250884 0.0 3.0495172170552946e-07 0.0 0.01 0.0 3.0495172170552946e-07 0.0 0.010007870145064062 0.009996468418636911 0.0 5.594781257643689e-07 0.0 0.01 0.0 5.594781257644774e-07 0.0 0.010008156014117617 0.009996206762889375 0.0 8.307096376860201e-07 0.0 0.01 0.0 8.307096376860201e-07 0.0 0.010008438973766026 0.009996391108512056 0.0 1.0131949706633243e-06 0.0 0.01 0.0 1.0131949706633243e-06 0.0 0.010008573165994463 0.009997518055027077 0.0 9.336920412890198e-07 0.0 0.01 0.0 9.336920412891282e-07 0.0 0.010008040567753703 0.010000321839604363 0.0 4.007829639295947e-07 0.0 0.01 0.0 4.007829639295947e-07 0.0 0.010007497196818782 0.009997094813223584 0.0 5.581363490502183e-07 0.0 0.01 0.0 5.581363490501099e-07 0.0 0.010007573591865224 0.009996734210015906 0.0 8.545197465201302e-07 0.0 0.01 0.0 8.545197465199134e-07 0.0 0.010007853601529164 0.009996651867694798 0.0 1.1119977319392054e-06 0.0 0.01 0.0 1.1119977319392054e-06 0.0 0.010008137557371222 0.009997323278812194 0.0 1.165556953598712e-06 0.0 0.01 0.0 1.165556953598712e-06 0.0 0.010008134117236441 0.009999125203118827 0.0 7.676215919362765e-07 0.0 0.01 0.0 7.676215919363849e-07 0.0 0.010007817846474252 0.010001918071063208 0.0 -3.5947305321488727e-07 0.0 0.01 0.0 -3.5947305321488727e-07 0.0 0.010007131641139285 0.009997425609882917 0.0 8.77315919291851e-07 0.0 0.01 0.0 8.773159192917426e-07 0.0 0.01000733482733535 0.009997346260181617 0.0 1.1648250947057792e-06 0.0 0.01 0.0 1.1648250947057792e-06 0.0 0.010007713719225424 0.009997948879155146 0.0 1.2859441732909413e-06 0.0 0.01 0.0 1.2859441732911581e-06 0.0 0.010008034319767121 0.009999349209244264 0.0 9.86035342657749e-07 0.0 0.01 0.0 9.860353426575322e-07 0.0 0.010008014169293492 0.010001462720878205 0.0 7.2757037783499834e-09 0.0 0.01 0.0 7.2757037783516775e-09 0.0 0.010007778115467724 0.00999820120235339 0.0 1.2027563843720803e-06 0.0 0.01 0.0 1.2027563843720803e-06 0.0 0.01000731538603111 0.009998944440124342 0.0 1.3495090720576104e-06 0.0 0.01 0.0 1.3495090720576104e-06 0.0 0.010007783751243232 0.010000469457879475 0.0 1.0802317118277678e-06 0.0 0.01 0.0 1.0802317118279847e-06 0.0 0.010008160552979668 0.010002042128376106 0.0 1.4160966720316685e-07 0.0 0.01 0.0 1.4160966720319396e-07 0.0 0.010008026756992196 0.010000178971262218 0.0 1.3335069990272428e-06 0.0 0.01 0.0 1.3335069990272428e-06 0.0 0.010007477895681901 0.010001536674814664 0.0 1.0674962246221519e-06 0.0 0.01 0.0 1.0674962246221519e-06 0.0 0.010007926585198642 0.010003219807627573 0.0 1.4667517744386968e-07 0.0 0.01 0.0 1.466751774439239e-07 0.0 0.01000823381141329 0.010003106185963468 0.0 -1.2641999507434151e-06 0.0 0.01 0.0 -1.2641999507429814e-06 0.0 0.010007139728260726 0.01000244580254099 0.0 8.395026706985598e-07 0.0 0.01 0.0 8.395026706985598e-07 0.0 0.01000744591346621 0.010003175812235737 0.0 7.574595394229462e-09 0.0 0.01 0.0 7.574595394226074e-09 0.0 0.010007622456435758 0.010002704211548896 0.0 -3.1680746390909224e-07 0.0 0.01 0.0 -3.1680746390920066e-07 0.0 0.01000695646716008 
